coord_x,coord_y,stress_xx,stress_yy,tau_xy,velocity_x,velocity_y,stress_1,eps,damage,lx,ly
5.00019e+0, 1.2543702e+2, -1630621.9, -1859730.6, 35098.43, -0.04914086, 0.5098497, -1625365.6, 85380.734, 0.0026923823, 10.001245, 9.998402 
5.000734e+0, 1.3543381e+2, -1531845.9, -1663627.4, 37419.066, 0.026191015, 0.19645996, -1521962.1, 90817.984, 0.0015911749, 10.000878, 9.99924 
5.000638e+0, 1.4543505e+2, -1461734.4, -1551778.4, 62888.297, 0.031074129, 0.38831642, -1429413.5, 85355.6, 0.0007108368, 10.000585, 9.999466 
4.9998397e+0, 1.554334e+2, -1388974.1, -1456331.4, 66022.17, -0.03754158, 0.21982902, -1348536.8, 68248.555, 0.00020845741, 10.000373, 9.999551 
4.9998873e+0, 1.6543408e+2, -1248304.1, -1248778.9, 74232.48, -0.028230472, 0.29471558, -1174308.6, 144469.25, 0.000030560106, 10.000286, 10.000347 
5.000612e+0, 1.7543606e+2, -1156188.6, -1161135.1, 46535.668, 0.044618055, 0.41324818, -1112060.5, 108696.48, 0.0000010193884, 10.0002775, 10.000279 
5.000602e+0, 1.8543577e+2, -1063051.8, -1094975.9, 45099.383, 0.038064577, 0.37348616, -1031173.0, 91584.69, 0.0, 10.000381, 10.000008 
4.9999547e+0, 1.954334e+2, -939944.2, -989313.06, 26950.076, -0.035626996, 0.09193354, -928082.4, 96695.54, 0.0, 10.000569, 9.999974 
4.9998465e+0, 2.0543379e+2, -834199.25, -820826.94, -3583.8193, -0.03541902, 0.10769654, -819927.0, 106843.98, 0.0, 10.000344, 10.000561 
5.000137e+0, 2.1543624e+2, -829679.75, -779772.2, -51459.754, 0.023286095, 0.2505821, -747535.06, 81208.85, 0.0, 9.99975, 10.000458 
5.000146e+0, 2.2543672e+2, -825606.75, -872637.56, -39649.508, 0.02527528, 0.3270535, -803023.8, -72284.4, 0.0, 9.999734, 9.999156 
4.999937e+0, 2.3543534e+2, -658508.44, -742426.4, -51642.305, -0.01967106, 0.22334896, -633928.1, -1171.9647, 0.0, 10.000212, 9.999148 
4.9999648e+0, 2.4543393e+2, -537032.4, -617896.94, -59285.902, -0.021288522, 0.16504078, -505704.03, 29065.484, 0.0, 10.000306, 9.999284 
5.0001997e+0, 2.5543222e+2, -478447.6, -552024.7, -70396.32, 0.012591766, 0.021857673, -435806.7, 976.2758, 0.000000000017365094, 10.00009, 9.999169 
5.0001276e+0, 2.654319e+2, -429839.22, -544704.2, -47274.324, 0.00836043, 0.11260739, -412885.2, -74099.086, 0.000000288742, 10.000039, 9.998568 
4.999794e+0, 2.754328e+2, -324218.4, -447164.22, -42751.375, -0.028967509, 0.29751903, -310814.1, -70033.44, 0.0000032414011, 10.000107, 9.998531 
4.9997395e+0, 2.854316e+2, -313701.3, -509427.0, -25664.902, -0.029895771, 0.3782595, -310391.9, -167594.84, 0.00001724438, 10.00002, 9.997465 
4.9998555e+0, 2.9542744e+2, -238561.78, -417052.47, -13496.268, -0.009654676, 0.16852854, -237547.06, -192704.17, 0.000074921634, 9.999824, 9.997524 
4.999835e+0, 3.0542603e+2, -237731.8, -446762.4, 15305.473, -0.0063140667, 0.29303008, -236617.05, -236617.05, 0.0002850154, 9.999731, 9.99703 
4.9997154e+0, 3.1542665e+2, 26534.031, 131912.55, 33223.473, -0.012618795, 0.6041404, 141512.6, 141512.6, 0.0007432572, 9.999538, 10.001113 
1.5000522e+1, 1.2543525e+2, -1624031.4, -1782432.9, -8200.487, -0.15046075, 0.2288223, -1623608.0, 87149.79, 0.0025889925, 10.001011, 9.999058 
1.5002254e+1, 1.354343e+2, -1511013.4, -1586651.9, 31666.494, 0.08605287, 0.12795201, -1499506.5, 113264.67, 0.0015350278, 10.000766, 9.99984 
1.5001905e+1, 1.454372e+2, -1451551.0, -1490117.1, 44633.89, 0.093568414, 0.43224573, -1422212.9, 92531.25, 0.00068435894, 10.000426, 9.999977 
1.4999525e+1, 1.5543674e+2, -1379976.8, -1405869.0, 67835.98, -0.111324094, 0.36346704, -1323862.6, 92884.9, 0.00019662973, 10.000254, 9.999966 
1.4999674e+1, 1.6543603e+2, -1298503.9, -1317275.8, 65258.297, -0.08235038, 0.3003257, -1241960.0, 76793.234, 0.000026649353, 10.00015, 9.999952 
1.5001881e+1, 1.7543474e+2, -1196697.5, -1218378.6, 55562.207, 0.13717245, 0.15416548, -1150928.3, 69836.28, 0.00000066228677, 10.000171, 9.99995 
1.500178e+1, 1.854352e+2, -1097455.0, -1123316.3, 44010.418, 0.11370423, 0.2102142, -1064515.0, 58244.6, 0.0, 10.000218, 9.999899 
1.499988e+1, 1.9543712e+2, -972252.4, -1022177.06, 43020.055, -0.104839765, 0.39150628, -947477.0, 77264.58, 0.0, 10.000436, 9.999824 
1.4999515e+1, 2.0543681e+2, -927381.2, -968884.1, -33180.867, -0.1062559, 0.39290395, -908997.1, 17746.549, 0.0, 10.0001745, 9.999631 
1.5000397e+1, 2.154345e+2, -916464.1, -917086.5, -60315.902, 0.06991549, 0.17955647, -856458.6, -27694.748, 0.0, 9.999586, 9.9996 
1.5000427e+1, 2.2543365e+2, -843751.44, -869902.25, -31586.432, 0.077277906, 0.15455708, -822641.0, -91867.25, 0.0, 9.999582, 9.999255 
1.4999789e+1, 2.3543401e+2, -678214.3, -742439.3, -23790.764, -0.059310246, 0.24422762, -670361.6, -37586.574, 0.0, 10.000057, 9.999229 
1.4999896e+1, 2.4543414e+2, -558293.06, -629130.7, -75775.45, -0.063622795, 0.33499727, -510067.28, 24708.416, 0.0, 10.00018, 9.999273 
1.5000583e+1, 2.554339e+2, -497409.06, -547853.06, -69357.664, 0.037181087, 0.35944122, -448829.75, -12052.264, 0.0, 9.99992, 9.999285 
1.5000392e+1, 2.654328e+2, -415537.16, -481859.97, -53456.445, 0.026811924, 0.33521846, -385791.72, -47004.594, 0.00000013049092, 9.999918, 9.999065 
1.4999413e+1, 2.7543104e+2, -318091.7, -395170.34, -33186.094, -0.08349568, 0.23339696, -305772.4, -64969.418, 0.0000023602508, 9.999951, 9.998975 
1.4999178e+1, 2.8543007e+2, -290425.84, -427538.2, -40708.723, -0.092363626, 0.28994712, -279250.28, -136436.33, 0.000014211254, 9.999899, 9.998094 
1.4999561e+1, 2.9542905e+2, -219995.77, -331245.22, -5487.8354, -0.030475615, 0.35042423, -219725.72, -174897.42, 0.0000647229, 9.999631, 9.998217 
1.4999539e+1, 3.0542776e+2, -202976.3, -324751.7, 3006.0093, -0.011705268, 0.41012654, -202902.14, -202902.14, 0.00025372737, 9.999575, 9.997953 
1.4999138e+1, 3.154252e+2, -21622.297, 119118.516, 63516.215, -0.034048975, 0.35542908, 143544.23, 143544.23, 0.0006708774, 9.999221, 10.001191 
2.5002214e+1, 1.2543552e+2, -1708303.8, -1800589.6, 52795.465, -0.039236344, 0.12642285, -1684328.8, 26422.672, 0.002469872, 10.0003605, 9.999223 
2.5002238e+1, 1.3543548e+2, -1539378.0, -1601449.4, 27604.121, 0.025326233, 0.10288264, -1528878.1, 83878.32, 0.001465867, 10.000603, 9.999804 
2.5001898e+1, 1.4543849e+2, -1442380.9, -1484204.0, 30246.72, 0.054001756, 0.4225534, -1426520.8, 88207.23, 0.0006493342, 10.0005, 9.999968 
2.5000745e+1, 1.5543786e+2, -1397867.8, -1419620.5, 7755.589, -0.0038837632, 0.32638955, -1395385.9, 21346.648, 0.00018140074, 10.000161, 9.999905 
2.5000727e+1, 1.6543673e+2, -1321395.4, -1381093.6, 38121.04, 0.009812027, 0.25205883, -1302827.8, 15914.897, 0.000022322774, 10.000236, 9.999458 
2.5001755e+1, 1.7543492e+2, -1158676.3, -1248010.4, 10585.955, 0.08846809, 0.09386741, -1157439.0, 63321.42, 0.00000035252413, 10.000666, 9.999491 
2.500171e+1, 1.8543541e+2, -1033051.6, -1097097.8, 12735.192, 0.067727454, 0.17634967, -1030612.2, 92143.19, 0.0, 10.000675, 9.999851 
2.5000873e+1, 1.9543783e+2, -1010543.2, -1044504.8, 10800.471, -0.031430658, 0.40548214, -1007399.44, 17331.81, 0.0, 10.000197, 9.999769 
2.500055e+1, 2.054371e+2, -954595.6, -1065799.8, -17544.182, -0.022983281, 0.40345362, -951893.4, -25154.594, 0.0, 10.000339, 9.998883 
2.5000656e+1, 2.154335e+2, -770936.1, -928309.75, -38524.453, 0.07504507, 0.12606074, -762011.6, 66763.16, 0.0, 10.000936, 9.998866 
2.5000533e+1, 2.254326e+2, -642560.25, -771216.1, 22027.18, 0.06592785, 0.13234459, -638893.44, 91893.19, 0.0, 10.000946, 9.999267 
2.5000283e+1, 2.3543394e+2, -628261.1, -720153.94, 17232.994, -0.028094469, 0.30917627, -625135.7, 7643.2837, 0.0, 10.000394, 9.999212 
2.500031e+1, 2.4543452e+2, -570258.06, -620860.0, -8107.7393, -0.029247789, 0.44282484, -568990.75, -34215.504, 0.0, 10.000046, 9.999386 
2.500056e+1, 2.554343e+2, -497157.0, -539794.9, -2992.9207, 0.050521847, 0.45100182, -496947.94, -60170.84, 0.0, 9.999885, 9.9993515 
2.5000346e+1, 2.6543283e+2, -416309.13, -491684.22, 32338.85, 0.033552986, 0.3948354, -404336.28, -65546.19, 0.00000003137998, 9.999965, 9.998964 
2.4999726e+1, 2.7543047e+2, -279665.72, -382532.6, -690.1158, -0.056911886, 0.23620471, -279661.06, -38849.605, 0.0000016165861, 10.000257, 9.9989 
2.4999453e+1, 2.8542954e+2, -217913.84, -369094.84, -26059.828, -0.06852905, 0.28480062, -213547.86, -70726.72, 0.000011342512, 10.000294, 9.998301 
2.499955e+1, 2.9542914e+2, -144176.31, -266239.7, -33056.254, -0.0075060376, 0.37970635, -135799.19, -90972.05, 0.00005395602, 10.00005, 9.99845 
2.4999344e+1, 3.0542827e+2, -141411.22, -238373.98, -22323.453, 0.013018913, 0.44373727, -136518.64, -136518.64, 0.00022021512, 9.999759, 9.998465 
2.4998808e+1, 3.1542444e+2, -37965.09, 58737.656, -12409.602, 0.021574585, 0.1987962, 60304.75, 60304.75, 0.00059438485, 9.999352, 10.000702 
3.5005063e+1, 1.2543784e+2, -1739012.3, -1837756.0, 30783.455, 0.15803948, 0.1598255, -1730201.6, -19474.441, 0.0023442989, 10.000254, 9.999021 
3.500037e+1, 1.3543737e+2, -1568956.9, -1651380.1, 42236.234, -0.24808532, 0.14415593, -1551157.5, 61577.906, 0.0013882996, 10.000568, 9.999474 
3.500031e+1, 1.4543894e+2, -1474396.0, -1530057.9, 6972.1377, -0.18540634, 0.3469013, -1473536.0, 41184.703, 0.0006086515, 10.000417, 9.99969 
3.5003212e+1, 1.5543675e+2, -1424350.5, -1456346.6, 7370.7197, 0.19952363, 0.12608223, -1422734.1, -5994.0596, 0.00016439817, 10.000096, 9.999678 
3.500291e+1, 1.6543616e+2, -1357390.8, -1442270.1, 42745.633, 0.17832126, 0.13229944, -1339594.9, -20848.4, 0.000017966355, 10.000167, 9.999081 
3.500001e+1, 1.7543644e+2, -1191107.0, -1308638.0, 36099.664, -0.1779122, 0.23087373, -1180904.6, 39841.8, 0.00000014192928, 10.00063, 9.999099 
3.5000142e+1, 1.8543617e+2, -1030917.56, -1066427.3, -12383.293, -0.18054263, 0.24570279, -1027025.7, 95721.19, 0.0, 10.000569, 10.000109 
3.5002697e+1, 1.9543543e+2, -1004123.6, -1012394.94, 5049.4854, 0.10587716, 0.13532206, -1001732.3, 23015.912, 0.0, 10.000118, 10.000028 
3.5002735e+1, 2.054345e+2, -996092.8, -1121317.8, -6517.873, 0.1406744, 0.11739749, -995754.5, -68996.72, 0.0, 10.000214, 9.998562 
3.500068e+1, 2.1543318e+2, -808993.56, -978804.3, -7764.2925, -0.03895861, 0.106245555, -808639.3, 20137.096, 0.0, 10.000817, 9.998577 
3.5000247e+1, 2.2543348e+2, -652557.1, -756698.56, -6114.833, -0.078974895, 0.23783997, -652199.3, 78579.35, 0.0, 10.000801, 9.999435 
3.5001153e+1, 2.3543513e+2, -632992.2, -697513.1, 6621.302, -0.0031392633, 0.43524507, -632319.7, 447.67538, 0.0, 10.000262, 9.999431 
3.5000995e+1, 2.4543509e+2, -559228.6, -574343.44, -23250.701, 0.014219661, 0.4752999, -542337.94, -7569.5864, 0.0, 9.999946, 9.999756 
3.4999928e+1, 2.5543347e+2, -491371.22, -499120.53, 1749.562, -0.023975974, 0.31189445, -490994.5, -54213.086, 0.0, 9.999768, 9.999686 
3.499981e+1, 2.6543212e+2, -459137.88, -568981.94, 35841.35, -0.037774764, 0.2796668, -448477.66, -109683.516, 0.0000000045955626, 9.999909, 9.998464 
3.5000435e+1, 2.754312e+2, -326843.1, -457912.06, 21291.898, -0.03699567, 0.31576213, -323471.03, -82665.25, 0.0000011861115, 10.000156, 9.998434 
3.5000327e+1, 2.854299e+2, -228540.33, -373554.72, -44656.297, -0.03344016, 0.3534432, -215891.9, -73072.96, 0.000009324045, 10.000227, 9.9983 
3.4999534e+1, 2.9542768e+2, -163531.63, -283270.1, -33541.504, -0.041586697, 0.27041963, -154776.1, -109936.08, 0.00004426637, 9.999955, 9.99838 
3.4998897e+1, 3.0542728e+2, -116669.01, -185698.17, -45959.086, -0.02857009, 0.36993513, -93707.555, -93707.555, 0.00018818198, 9.999739, 9.998836 
3.4998238e+1, 3.154244e+2, -112994.664, -88500.86, 6388.7627, -0.020461863, 0.18743841, -86934.62, -86934.62, 0.00052315294, 9.999297, 9.999721 
4.5004725e+1, 1.2543897e+2, -1861492.6, -1783269.0, -31534.725, 0.1859416, 0.23575534, -1772139.8, -61419.45, 0.0022184679, 9.998957, 10.000007 
4.500122e+1, 1.354387e+2, -1631543.8, -1610992.5, 13027.573, -0.16808024, 0.16916817, -1604675.8, 8045.6104, 0.0013082918, 9.999839, 10.000102 
4.5001543e+1, 1.4543955e+2, -1515935.8, -1613475.4, 7425.8135, -0.09026994, 0.30307695, -1515373.6, -661.1887, 0.00056754425, 10.000405, 9.999134 
4.5003834e+1, 1.5543696e+2, -1367754.8, -1494093.4, -41074.797, 0.23022905, 0.1050665, -1355574.9, 61163.746, 0.00014805637, 10.00076, 9.999115 
4.5003438e+1, 1.6543645e+2, -1282936.5, -1401095.1, 21325.818, 0.19910572, 0.14450832, -1279205.3, 39539.777, 0.000013959289, 10.000656, 9.999127 
4.5000926e+1, 1.7543723e+2, -1250751.8, -1334385.5, 28618.467, -0.11943694, 0.28874764, -1241896.4, -21156.96, 0.000000037538413, 10.000198, 9.999135 
4.5001176e+1, 1.854364e+2, -1081914.3, -1120344.6, -2091.6812, -0.11419694, 0.26027364, -1081800.8, 40944.324, 0.0, 10.000345, 9.999858 
4.5003596e+1, 1.9543433e+2, -907737.4, -992592.56, -40687.67, 0.15360157, 0.04394479, -891380.75, 133378.64, 0.0, 10.0009, 9.999792 
4.500332e+1, 2.0543359e+2, -904195.56, -1062928.0, -37384.805, 0.1576917, 0.05306062, -895831.4, 30935.787, 0.0, 10.000776, 9.998695 
4.5000827e+1, 2.1543382e+2, -920729.56, -1019733.56, -23790.662, -0.055123415, 0.18304145, -915309.4, -86538.016, 0.0, 9.999987, 9.998699 
4.5000473e+1, 2.2543415e+2, -822484.75, -831669.0, 5184.1587, -0.067484, 0.3085357, -820151.3, -89378.76, 0.0, 9.999606, 9.999497 
4.5001888e+1, 2.354345e+2, -732922.0, -741115.06, -8336.16, 0.08727401, 0.3722793, -727730.2, -94958.38, 0.0, 9.999563, 9.999471 
4.5001507e+1, 2.4543409e+2, -628329.3, -619098.0, -34871.586, 0.10048367, 0.3782244, -588537.94, -53762.04, 0.0, 9.999527, 9.999645 
4.499963e+1, 2.5543275e+2, -536324.2, -535144.94, -61225.98, -0.011589137, 0.25641844, -474505.75, -37719.11, 0.0, 9.999519, 9.999556 
4.499957e+1, 2.6543176e+2, -509154.94, -594015.44, 2800.448, -0.029396804, 0.26112774, -509062.63, -170265.39, 0.000000013083459, 9.999581, 9.998444 
4.500109e+1, 2.7543116e+2, -386798.63, -491847.25, 6730.8066, 0.040979985, 0.33525124, -386369.1, -145562.36, 0.0000010541644, 9.999765, 9.998394 
4.5001084e+1, 2.8542984e+2, -234227.05, -357687.16, -18063.748, 0.03285551, 0.3653286, -231638.38, -88818.47, 0.000008050424, 10.0001135, 9.998469 
4.4999653e+1, 2.9542735e+2, -55136.92, -219177.0, -13380.013, -0.051819295, 0.24195252, -54052.742, -9210.66, 0.00003666787, 10.000652, 9.99849 
4.4998834e+1, 3.054273e+2, -20578.697, -173569.02, -49797.707, -0.040972553, 0.388843, -5797.7856, -5797.7856, 0.00016032506, 10.000538, 9.99853 
4.4998497e+1, 3.1542417e+2, -120178.11, -191428.83, -72968.48, 0.06918321, 0.20036335, -74602.7, -74602.7, 0.00046162336, 9.999671, 9.998829 
5.500011e+1, 1.2543927e+2, -1716362.9, -1508451.9, -35419.316, -0.2417956, 0.36980784, -1502583.6, 208143.55, 0.0020911084, 9.999041, 10.0018635 
5.5004436e+1, 1.3543946e+2, -1514762.0, -1388068.6, 55737.83, 0.13165529, 0.18287422, -1367038.1, 245675.95, 0.0012261746, 9.999909, 10.001602 
5.5005413e+1, 1.4544038e+2, -1576401.1, -1745836.6, 6636.258, 0.21851712, 0.29818526, -1576141.6, -61438.477, 0.0005263589, 10.000426, 9.9982195 
5.500223e+1, 1.5543854e+2, -1426586.0, -1621583.8, -19468.303, -0.037559327, 0.26760405, -1424661.3, -7933.9365, 0.00013276051, 10.000777, 9.998234 
5.5001783e+1, 1.6543767e+2, -1259592.6, -1342157.3, -6367.471, -0.060718723, 0.2924395, -1259104.5, 59633.23, 0.0000106646075, 10.000614, 9.999549 
5.5004054e+1, 1.754372e+2, -1226242.9, -1277168.1, 21640.203, 0.14378354, 0.2646773, -1218289.4, 2451.2283, 0.000000007551507, 10.000175, 9.999536 
5.5004495e+1, 1.8543611e+2, -1143462.9, -1234727.6, 7560.5713, 0.15753107, 0.2273627, -1142840.8, -20090.883, 0.0, 10.000285, 9.999103 
5.5003214e+1, 1.954345e+2, -962670.25, -1097599.9, -13596.898, -0.0024515577, 0.1334664, -961313.75, 63451.06, 0.0, 10.000862, 9.99909 
5.500194e+1, 2.0543438e+2, -875825.7, -980948.5, -74855.055, -0.08215754, 0.2063135, -836921.4, 89845.54, 0.0, 10.000682, 9.999301 
5.5000705e+1, 2.1543542e+2, -891011.25, -939451.44, -42419.465, -0.09224898, 0.3559428, -866384.4, -37624.55, 0.0, 9.999911, 9.999285 
5.500085e+1, 2.254346e+2, -834405.8, -841528.94, -5501.9526, -0.01683743, 0.3395423, -831413.25, -100644.7, 0.0, 9.999539, 9.999463 
5.500219e+1, 2.3543218e+2, -748158.2, -755295.06, -503.4, 0.13651124, 0.12834476, -748122.9, -115331.61, 0.0, 9.999484, 9.999412 
5.50015e+1, 2.4543154e+2, -679744.44, -711388.56, -42074.375, 0.121401995, 0.14688684, -650615.5, -115817.695, 0.0, 9.999469, 9.999038 
5.4999226e+1, 2.5543222e+2, -592183.7, -621032.44, -52595.117, -0.031590622, 0.28354898, -552070.8, -115278.07, 0.0, 9.999399, 9.999018 
5.499927e+1, 2.6543173e+2, -484034.13, -535850.9, 478.81317, -0.04368139, 0.34458992, -484029.7, -145230.53, 0.000000016276152, 9.999549, 9.998861 
5.500137e+1, 2.754303e+2, -365103.8, -435166.34, 22855.0, 0.066462144, 0.29475424, -358307.56, -117492.65, 0.00000094951764, 9.999707, 9.998815 
5.500138e+1, 2.854293e+2, -211092.97, -304447.47, -7454.8228, 0.026547689, 0.31439823, -210501.42, -67676.89, 0.0000068870954, 10.000095, 9.998842 
5.4999596e+1, 2.954281e+2, -46538.383, -184162.66, 17536.387, -0.15392429, 0.28725612, -44339.004, 495.11108, 0.00003048685, 10.000573, 9.998771 
5.4998815e+1, 3.054283e+2, -88497.47, -297163.53, -85403.84, -0.12145212, 0.48795283, -58000.242, -58000.242, 0.0001366128, 10.000476, 9.99771 
5.4998857e+1, 3.1542352e+2, -184486.69, -308346.06, -81741.83, 0.0861164, 0.21875623, -143863.89, -143863.89, 0.00040785797, 9.999608, 9.998053 
6.4999604e+1, 1.2544005e+2, -1592892.0, -1504237.6, 142712.23, -0.23344643, 0.34618446, -1399127.0, 311590.56, 0.0019647046, 10.0001, 10.001397 
6.5004677e+1, 1.354396e+2, -1551038.8, -1471402.8, 29804.266, 0.17462628, 0.16644663, -1461483.8, 151229.53, 0.0011417874, 9.999928, 10.00103 
6.50061e+1, 1.4544016e+2, -1583056.3, -1697603.4, -1861.574, 0.2668942, 0.24648681, -1583026.0, -68319.78, 0.0004823996, 10.000166, 9.99867 
6.500275e+1, 1.5543945e+2, -1369249.5, -1543921.3, 50111.152, -0.062109683, 0.28386366, -1355894.4, 60822.805, 0.00011742101, 10.000963, 9.998667 
6.500249e+1, 1.6543868e+2, -1229834.5, -1363395.8, 59429.61, -0.06190195, 0.31300247, -1207219.8, 111507.06, 0.000008467286, 10.000976, 9.99923 
6.5005165e+1, 1.7543739e+2, -1241290.6, -1319332.3, 12252.549, 0.24206565, 0.23850185, -1239412.1, -18672.639, 0.000000004638606, 10.000232, 9.999218 
6.5005326e+1, 1.8543655e+2, -1192606.4, -1248599.1, 54625.258, 0.2392307, 0.23878583, -1159221.1, -36473.06, 0.0, 9.999914, 9.999179 
6.50032e+1, 1.9543606e+2, -1092564.9, -1151957.6, 74737.27, -0.03620125, 0.24886002, -1041840.25, -17086.922, 0.0, 9.999931, 9.999165 
6.500199e+1, 2.0543598e+2, -947548.75, -995224.44, 19438.56, -0.1093382, 0.31057104, -940627.8, -13873.238, 0.0, 10.000097, 9.999489 
6.500158e+1, 2.1543613e+2, -825153.75, -888763.4, 4615.7466, -0.008342627, 0.35521358, -824820.56, 3932.9497, 0.0, 10.000282, 9.9994545 
6.500148e+1, 2.2543499e+2, -739767.9, -832214.94, 38663.574, 0.05798295, 0.31532115, -725729.6, 5035.1777, 0.0, 10.000351, 9.999138 
6.50016e+1, 2.354327e+2, -648463.5, -742019.25, 2752.5818, 0.094471574, 0.15078917, -648382.56, -15595.708, 0.0, 10.0003195, 9.999103 
6.500103e+1, 2.4543181e+2, -539527.0, -683772.06, -10994.226, 0.07949936, 0.17715722, -538693.9, -3897.2551, 0.0, 10.000583, 9.998712 
6.499991e+1, 2.5543198e+2, -370585.78, -549600.25, -20827.625, 0.022383336, 0.29938972, -368194.5, 68602.63, 0.0, 10.0010605, 9.998729 
6.4999944e+1, 2.6543143e+2, -296475.97, -432640.7, 27769.803, 0.014672799, 0.36149502, -291030.3, 47773.625, 0.00000000394634, 10.000774, 9.998989 
6.500106e+1, 2.754303e+2, -322589.28, -396484.4, 11916.291, 0.060209256, 0.3264708, -320715.2, -79899.52, 0.0000007712445, 9.999931, 9.998968 
6.5001166e+1, 2.8542924e+2, -269216.13, -333142.28, 73.42346, 0.024119083, 0.33283913, -269216.03, -126390.01, 0.000006042053, 9.999693, 9.998838 
6.500051e+1, 2.954278e+2, -152431.31, -232246.42, -24075.852, -0.0732439, 0.28036547, -145731.36, -100891.87, 0.000026514133, 9.99984, 9.998789 
6.499966e+1, 3.054284e+2, -119723.984, -294096.8, -95283.81, -0.060792334, 0.51101595, -77757.48, -77757.48, 0.00011960156, 10.00018, 9.997877 
6.499877e+1, 3.1542483e+2, 15679.078, -138927.66, -53640.875, 0.07702658, 0.35099816, 32466.914, 32466.914, 0.000365328, 10.000663, 9.998722 
7.5002635e+1, 1.2544109e+2, -1767335.5, -1876115.6, 109561.305, -0.0019379854, 0.16916575, -1699406.5, 11286.844, 0.0018421272, 10.000145, 9.998819 
7.500149e+1, 1.3543908e+2, -1728088.1, -1849374.9, 28786.994, -0.1697386, 0.11287245, -1721602.5, -108883.0, 0.0010580781, 9.999974, 9.998415 
7.500299e+1, 1.4543892e+2, -1454150.5, -1429611.3, 17520.746, -0.094698854, 0.14997378, -1420491.1, 94230.08, 0.0004375462, 10.000163, 10.000511 
7.500505e+1, 1.554397e+2, -1247192.8, -1299219.3, 89509.99, 0.03857993, 0.15186498, -1179992.6, 236715.7, 0.00010224, 10.000994, 10.000337 
7.5005186e+1, 1.6543949e+2, -1310486.6, -1524139.3, 22197.816, 0.08341377, 0.21503109, -1308204.8, 10507.521, 0.000007138289, 10.000946, 9.99814 
7.500396e+1, 1.7543787e+2, -1311763.5, -1467165.6, -6146.8, 0.06969224, 0.21248937, -1311520.8, -90784.87, 0.00000003688298, 10.000234, 9.998203 
7.5003344e+1, 1.8543774e+2, -1137071.0, -1127426.6, 46248.742, 0.023738135, 0.28964564, -1085749.4, 36990.13, 0.0, 9.999883, 10.00003 
7.5003207e+1, 1.9543897e+2, -1038884.5, -1034281.7, 84654.29, -0.056164086, 0.38325986, -951897.5, 72828.27, 0.0, 9.999902, 9.999989 
7.5003165e+1, 2.0543835e+2, -975716.8, -1036884.5, 18905.346, -0.02437395, 0.3654507, -970345.4, -43615.02, 0.0, 10.000026, 9.999237 
7.500316e+1, 2.15436e+2, -854010.94, -932490.3, 19603.799, 0.096766524, 0.18112656, -849386.5, -20634.217, 0.0, 10.000206, 9.999194 
7.500199e+1, 2.254353e+2, -799246.25, -934740.44, 29543.88, 0.052340817, 0.23329523, -793084.5, -62323.34, 0.0, 10.000263, 9.998474 
7.499984e+1, 2.3543595e+2, -708770.25, -845240.1, 13431.708, -0.1359895, 0.42742553, -707460.8, -74701.04, 0.0, 10.000222, 9.998441 
7.4999726e+1, 2.4543488e+2, -552947.75, -696076.3, -812.4887, -0.13087854, 0.46958113, -552943.1, -18170.676, 0.0, 10.000521, 9.9986515 
7.500138e+1, 2.5543216e+2, -387093.16, -567562.8, 2885.4602, 0.03999618, 0.3059841, -387047.03, 49752.07, 0.0, 10.000985, 9.998641 
7.5001276e+1, 2.6543096e+2, -315922.28, -458397.3, -11591.485, 0.04834443, 0.3174376, -314985.38, 23825.107, 0.00000000015133415, 10.000721, 9.998835 
7.4999785e+1, 2.7543113e+2, -349112.8, -429276.38, -4183.5615, -0.087108724, 0.42664352, -348895.06, -108086.41, 0.00000065427645, 9.999839, 9.998786 
7.500014e+1, 2.8542963e+2, -297109.6, -385264.44, -1569.7777, -0.074353844, 0.41845024, -297081.66, -154257.5, 0.0000058927376, 9.999665, 9.998495 
7.5001997e+1, 2.9542634e+2, -181967.5, -281218.72, -8829.983, 0.06250775, 0.21165551, -181188.05, -136329.36, 0.000025865007, 9.999774, 9.99849 
7.500099e+1, 3.054274e+2, -49589.45, -140217.66, -79044.87, 0.029940667, 0.4492688, -3791.2078, -3791.2078, 0.00011192772, 10.000151, 9.99894 
7.4997604e+1, 3.1542772e+2, 147260.2, 160465.89, -7378.3164, -0.15432331, 0.562555, 163764.42, 163764.42, 0.00033923058, 10.00055, 10.000827 
8.5004216e+1, 1.2544121e+2, -1789790.6, -1913138.8, -56287.4, 0.15528372, 0.15400378, -1767966.5, -57274.375, 0.0017237901, 10.000124, 9.998559 
8.5001236e+1, 1.3543998e+2, -1704501.5, -1868355.0, 9765.968, -0.19623291, 0.20638448, -1703921.5, -91207.945, 0.0009802121, 10.000287, 9.998118 
8.5002714e+1, 1.4543928e+2, -1419067.9, -1381119.4, 56294.91, -0.13409673, 0.18844867, -1340687.1, 174033.73, 0.00039778455, 10.000254, 10.000809 
8.5006034e+1, 1.5543993e+2, -1360254.6, -1320356.4, -10209.117, 0.09090908, 0.1482766, -1317895.9, 98811.6, 0.000088897265, 10.000074, 10.000633 
8.500607e+1, 1.6543998e+2, -1396564.6, -1543172.3, -72663.234, 0.117889486, 0.21294653, -1366653.1, -47945.082, 0.000006071428, 10.00026, 9.99834 
8.5003555e+1, 1.754389e+2, -1236334.1, -1407437.1, -22803.414, -0.008410541, 0.2454521, -1233347.3, -12620.847, 0.000000076650345, 10.000656, 9.998407 
8.500296e+1, 1.8543874e+2, -1032950.9, -1090133.1, 50639.844, -0.035417225, 0.31470904, -1003388.3, 119342.38, 0.0, 10.000656, 9.999913 
8.500401e+1, 1.954395e+2, -995840.94, -1026365.25, -1312.7488, 0.022831671, 0.37728798, -995784.56, 28937.37, 0.0, 10.0002575, 9.99987 
8.500421e+1, 2.0543875e+2, -948239.7, -1028020.06, -62671.938, 0.073850565, 0.35393, -913839.94, 12888.224, 0.0, 10.000233, 9.999199 
8.500361e+1, 2.1543653e+2, -820527.7, -920953.6, -68202.33, 0.115391545, 0.19109918, -786047.7, 42701.03, 0.0, 10.000457, 9.999154 
8.500227e+1, 2.25436e+2, -766062.9, -902501.8, -17685.826, 0.051494505, 0.25388166, -763807.6, -33051.887, 0.0, 10.000425, 9.998613 
8.5000366e+1, 2.3543689e+2, -710706.3, -830038.0, 8469.026, -0.095666565, 0.45728254, -710108.25, -77356.86, 0.0, 10.000145, 9.998577 
8.5000247e+1, 2.4543582e+2, -609570.1, -707516.0, 65326.477, -0.102584764, 0.48633257, -576898.1, -42134.734, 0.0, 10.00006, 9.998789 
8.500167e+1, 2.55433e+2, -491666.47, -598651.4, 66816.26, 0.01681776, 0.30011442, -459567.72, -22777.572, 0.0, 10.000197, 9.998796 
8.500148e+1, 2.654318e+2, -356827.78, -482189.16, 58927.785, 0.016810616, 0.30199164, -333477.38, 5323.6074, 0.0000000019213902, 10.00044, 9.998814 
8.5000056e+1, 2.7543187e+2, -234737.56, -377515.47, 57383.89, -0.076140754, 0.40627185, -214533.44, 26265.482, 0.0000006294421, 10.000627, 9.998768 
8.5000205e+1, 2.8543016e+2, -199484.69, -360633.9, 97573.625, -0.06486204, 0.38838297, -153517.28, -10700.931, 0.0000062489003, 10.000432, 9.998295 
8.5001683e+1, 2.954267e+2, -153580.47, -284502.97, 82593.734, 0.048370168, 0.18235773, -113652.44, -68799.164, 0.000027811611, 10.000049, 9.998333 
8.5000974e+1, 3.054272e+2, -70766.43, -141820.64, 13732.091, 0.032034315, 0.36584392, -68204.88, -68204.88, 0.000112212314, 9.99995, 9.999038 
8.499851e+1, 3.1542796e+2, 95943.97, 225919.69, -23057.889, -0.06706916, 0.5122424, 229888.98, 229888.98, 0.00032853556, 9.999796, 10.001639 
9.5003706e+1, 1.2544066e+2, -1649266.4, -1622916.4, -84061.82, 0.032756317, 0.3154332, -1551003.4, 159708.22, 0.0016162735, 10.000132, 10.000544 
9.500345e+1, 1.3544227e+2, -1559654.6, -1586105.4, 23524.193, -0.035620105, 0.44308355, -1545893.0, 66802.695, 0.000914127, 10.000359, 10.000021 
9.5004934e+1, 1.4544123e+2, -1504695.4, -1556514.1, 40715.695, 0.032054488, 0.3628643, -1482344.4, 32360.729, 0.00036652523, 10.000248, 9.999603 
9.500544e+1, 1.5544017e+2, -1437010.0, -1483104.4, -4295.4536, -0.0067724437, 0.273717, -1436613.1, -19898.822, 0.00007896126, 10.000089, 9.999508 
9.500487e+1, 1.654402e+2, -1298182.1, -1331064.4, -66749.016, -0.053276148, 0.31486797, -1245879.3, 72834.29, 0.000005121987, 10.000225, 9.999813 
9.5003587e+1, 1.7544049e+2, -1138562.1, -1206176.6, 247.81989, -0.098521665, 0.33629093, -1138561.1, 82149.73, 0.00000007826353, 10.000661, 9.999786 
9.500383e+1, 1.8543951e+2, -1121000.1, -1259349.0, 27836.723, -0.03532369, 0.31623393, -1115609.3, 7112.4688, 0.0, 10.000598, 9.998779 
9.500531e+1, 1.9543763e+2, -1078059.1, -1186372.3, -4457.4995, 0.10152006, 0.22366643, -1077876.0, -53133.715, 0.0, 10.000213, 9.998792 
9.5004815e+1, 2.0543718e+2, -951293.7, -1017991.0, -62974.79, 0.088300675, 0.27643216, -913382.56, 13365.487, 0.0, 10.000158, 9.999305 
9.5002574e+1, 2.154377e+2, -821352.9, -906619.94, -49716.082, -0.058019456, 0.37362927, -798493.6, 30250.176, 0.0, 10.000383, 9.999289 
9.5001966e+1, 2.2543703e+2, -716078.8, -781483.94, -35237.367, -0.04484311, 0.37133345, -700707.1, 30042.176, 0.0, 10.000347, 9.999482 
9.5002794e+1, 2.3543529e+2, -660005.2, -710038.2, 5804.593, 0.10887953, 0.22296007, -659340.6, -26576.756, 0.0, 10.000073, 9.999438 
9.500225e+1, 2.4543451e+2, -594055.3, -657223.7, 60612.293, 0.069564305, 0.21966651, -557291.75, -22521.43, 0.0, 9.999985, 9.999169 
9.500048e+1, 2.5543445e+2, -475003.7, -552462.0, 83249.336, -0.14694533, 0.26905158, -421915.66, 14855.444, 0.0, 10.000138, 9.999145 
9.5000273e+1, 2.6543376e+2, -358327.16, -472217.72, 58022.313, -0.16852623, 0.30090258, -333974.5, 4802.445, 0.0000000017799018, 10.000387, 9.998905 
9.500147e+1, 2.754324e+2, -239236.08, -369139.38, 72591.94, -0.021480909, 0.2509873, -206779.8, 34008.285, 0.0000005677249, 10.000549, 9.99886 
9.5001066e+1, 2.8543082e+2, -209810.22, -373805.8, 73165.336, -0.046151802, 0.24329476, -181913.5, -39110.418, 0.0000064583187, 10.000398, 9.9982195 
9.499923e+1, 2.9542884e+2, -172916.45, -305375.5, 83929.13, -0.23021917, 0.19305843, -132232.7, -87409.4, 0.000029725905, 9.999964, 9.99823 
9.499929e+1, 3.054278e+2, -129971.85, -260691.19, 4052.0942, -0.15476188, 0.26711136, -129846.37, -129846.37, 0.00011359201, 9.999929, 9.998229 
9.500071e+1, 3.1542566e+2, 45845.74, 144722.14, 8831.432, 0.12060976, 0.20590746, 145504.75, 145504.75, 0.00032159366, 9.999696, 10.001129 
1.0500365e+2, 1.2544009e+2, -1607527.4, -1563129.0, 46872.613, 0.021623285, 0.33451363, -1533464.5, 177255.53, 0.0015309328, 10.000209, 10.0009365 
1.0500432e+2, 1.3544214e+2, -1484505.3, -1497765.0, 1989.4988, 0.011168219, 0.45963907, -1484213.1, 128483.664, 0.0008642909, 10.000629, 10.000509 
1.0500589e+2, 1.4544094e+2, -1467475.5, -1542034.8, 14222.422, 0.09602544, 0.3382127, -1464854.6, 49853.082, 0.00034447288, 10.000539, 9.999555 
1.0500549e+2, 1.5544027e+2, -1452561.8, -1502563.1, 35741.426, 0.00023413902, 0.30457157, -1433945.0, -17230.348, 0.00007296801, 10.000041, 9.999399 
1.0500491e+2, 1.6544048e+2, -1294105.6, -1287251.3, 17089.566, -0.057612475, 0.34917986, -1273248.6, 45463.64, 0.000004414203, 10.000079, 10.000179 
1.0500457e+2, 1.7544082e+2, -1131439.8, -1165713.4, -22438.701, -0.05541635, 0.3379354, -1120342.4, 100365.38, 0.000000050630582, 10.000563, 10.000108 
1.0500477e+2, 1.854399e+2, -1128025.0, -1262367.1, -4312.2563, 0.0072983894, 0.30727556, -1127886.8, -5169.1445, 0.0, 10.00054, 9.998786 
1.05005324e+2, 1.9543804e+2, -1121268.1, -1206658.3, 29460.709, 0.103870355, 0.21695413, -1112090.3, -87351.95, 0.0, 9.999908, 9.998798 
1.050047e+2, 2.0543785e+2, -996441.3, -1017711.25, 58268.25, 0.08688737, 0.28457654, -947845.44, -21103.605, 0.0, 9.999766, 9.99949 
1.050031e+2, 2.1543884e+2, -868838.7, -908155.5, 55455.3, -0.01684356, 0.41132805, -829660.5, -927.64075, 0.0, 9.999977, 9.999469 
1.0500247e+2, 2.2543804e+2, -776585.4, -821585.7, 34279.824, -0.004459428, 0.3935839, -758081.1, -27341.719, 0.0, 9.999973, 9.999397 
1.0500272e+2, 2.3543571e+2, -707069.9, -742127.56, -14418.773, 0.1145284, 0.19793573, -701901.56, -69142.02, 0.0, 9.999793, 9.999358 
1.05002016e+2, 2.4543487e+2, -629613.9, -685043.7, 16389.453, 0.062283754, 0.19527313, -625130.44, -90363.336, 0.0, 9.999789, 9.99907 
1.0500056e+2, 2.5543514e+2, -518267.3, -583819.3, -15462.087, -0.13461553, 0.29153007, -514803.25, -78038.04, 0.0, 9.999897, 9.9990425 
1.0500055e+2, 2.654345e+2, -410600.28, -468601.5, -36653.984, -0.15026103, 0.32219535, -392861.72, -54091.29, 0.00000000014537505, 9.999918, 9.999147 
1.0500187e+2, 2.75433e+2, -315768.22, -380704.03, -33102.24, 0.0011038636, 0.23248315, -301868.84, -61086.266, 0.00000042821608, 9.999921, 9.999083 
1.0500161e+2, 2.8543174e+2, -206155.78, -332273.78, 7952.008, -0.016923055, 0.22541289, -205656.36, -62863.72, 0.0000059800022, 10.000225, 9.998602 
1.0499991e+2, 2.9543054e+2, -33223.117, -200092.55, 31063.664, -0.18957646, 0.21289675, -27628.047, 17174.027, 0.000029321069, 10.000737, 9.998591 
1.0499999e+2, 3.0542883e+2, -59618.44, -305943.72, -20976.318, -0.110830136, 0.24212243, -57844.934, -57844.934, 0.000109979665, 10.0007715, 9.997507 
1.050015e+2, 3.1542465e+2, 61101.55, 40655.145, -43746.36, 0.21168889, 0.05084617, 95803.375, 95803.375, 0.000307793, 10.00029, 10.000126 
1.15003206e+2, 1.2543926e+2, -1685111.8, -1733352.3, 32391.727, -0.10312969, 0.2036524, -1668846.3, 41873.535, 0.001474528, 10.00025, 9.999745 
1.15003586e+2, 1.3543947e+2, -1542009.5, -1624814.4, 22091.16, -0.15354967, 0.24735819, -1536484.5, 76233.71, 0.00083337264, 10.000665, 9.999617 
1.150054e+2, 1.4543831e+2, -1398519.4, -1391156.5, -14099.97, -0.035619456, 0.117388725, -1380265.4, 134463.72, 0.00033260565, 10.000502, 10.000608 
1.1500569e+2, 1.5544024e+2, -1380879.6, -1358967.6, 32431.87, -0.013612613, 0.23427434, -1335691.1, 81017.555, 0.0000710648, 10.000068, 10.000368 
1.1500583e+2, 1.6544084e+2, -1353020.4, -1406957.4, 27177.27, -0.0000814203, 0.31456763, -1341701.8, -22997.648, 0.0000041843605, 10.000063, 9.99937 
1.1500627e+2, 1.7543979e+2, -1178423.0, -1266254.5, 4185.878, 0.032490294, 0.24330963, -1178224.0, 42493.684, 0.000000024917117, 10.000574, 9.999413 
1.1500557e+2, 1.8543984e+2, -1060950.8, -1103056.6, -35473.914, 0.009666006, 0.28278652, -1040752.94, 81966.016, 0.0, 10.000455, 9.999924 
1.15003705e+2, 1.9544075e+2, -1049047.1, -1047970.06, 15549.987, -0.07597349, 0.35712644, -1032949.3, -8239.237, 0.0, 9.999871, 9.999907 
1.1500356e+2, 2.0544077e+2, -992775.2, -993848.56, 56636.625, -0.024551725, 0.38446438, -936672.7, -9963.473, 0.0, 9.999692, 9.999693 
1.1500487e+2, 2.1543989e+2, -870245.1, -891145.6, 70202.16, 0.14088535, 0.29890448, -809719.7, 18997.18, 0.0, 9.999888, 9.999631 
1.150035e+2, 2.2543903e+2, -864032.2, -982416.7, 18326.457, 0.081654586, 0.3236928, -861260.06, -130533.625, 0.0, 9.9998865, 9.998333 
1.1499982e+2, 2.3543814e+2, -792437.5, -898124.2, -10379.153, -0.17708126, 0.375897, -791427.8, -158689.19, 0.0, 9.9997, 9.998332 
1.14999324e+2, 2.4543685e+2, -685151.6, -781418.3, 11835.642, -0.20851474, 0.41057464, -683717.9, -148964.05, 0.0, 9.999711, 9.998447 
1.15001544e+2, 2.5543505e+2, -568756.2, -671880.75, -4903.0347, -0.04861528, 0.36111817, -568523.56, -131750.58, 0.0, 9.999825, 9.998473 
1.15002e+2, 2.6543406e+2, -389908.06, -419811.03, -44371.063, -0.019653188, 0.36294398, -358037.16, -19255.209, 0.0, 9.999891, 9.999499 
1.1500095e+2, 2.7543363e+2, -300819.1, -333871.34, -21565.69, -0.10676858, 0.349292, -290175.53, -49392.605, 0.0000002594802, 9.999847, 9.999445 
1.150015e+2, 2.8543288e+2, -153695.02, -210887.89, 19781.451, -0.07218267, 0.3320354, -147519.88, -4734.5557, 0.000005001763, 10.000179, 9.999455 
1.1500335e+2, 2.954318e+2, 2597.9072, -97330.29, 59395.145, 0.053271074, 0.24807964, 30249.49, 75038.766, 0.000026475647, 10.000622, 9.9993515 
1.1500275e+2, 3.054303e+2, -114225.83, -405918.06, -40655.887, 0.06553296, 0.30139205, -108665.234, -108665.234, 0.000100772006, 10.000729, 9.996837 
1.15000285e+2, 3.154248e+2, -58626.266, -183828.67, -36388.42, 0.0060338224, 0.04190224, -48818.71, -48818.71, 0.00028477213, 10.000197, 9.998625 
1.250051e+2, 1.2543961e+2, -1497381.9, -1710555.9, 1981.5251, -0.010611805, 0.23013785, -1497363.5, 213352.42, 0.0014451224, 10.001851, 9.999121 
1.2500414e+2, 1.3543883e+2, -1666705.3, -1733067.1, -6151.5596, -0.121997446, 0.22264887, -1666139.9, -53413.816, 0.000820366, 10.00002, 9.999185 
1.2500538e+2, 1.4543748e+2, -1543746.9, -1414854.9, 294.47708, -0.016353825, 0.07177076, -1414854.3, 99884.24, 0.00033115427, 9.999299, 10.001027 
1.2500556e+2, 1.5544021e+2, -1398464.4, -1324154.9, -27508.377, -0.010153903, 0.22659221, -1315080.0, 101628.37, 0.00007354598, 9.999756, 10.000754 
1.2500606e+2, 1.6544092e+2, -1372541.3, -1430465.1, -669.5434, 0.026566468, 0.30543157, -1372533.5, -53831.59, 0.0000047036624, 9.99998, 9.999255 
1.2500718e+2, 1.7543949e+2, -1293645.9, -1334080.1, 9954.716, 0.1108116, 0.21033256, -1291327.9, -70607.94, 0.000000012759114, 9.99982, 9.99932 
1.2500635e+2, 1.8543972e+2, -1132710.9, -1074282.0, -30737.059, 0.08893948, 0.2461147, -1061090.6, 61627.973, 0.0, 9.999691, 10.000486 
1.2500377e+2, 1.9544145e+2, -1058227.6, -995087.94, -41347.543, -0.036281228, 0.34606776, -974635.94, 50064.32, 0.0, 9.999562, 10.00042 
1.2500347e+2, 2.0544158e+2, -973952.06, -994417.8, 10939.717, -0.004821834, 0.36225766, -969205.3, -42507.426, 0.0, 9.999857, 9.999608 
1.2500522e+2, 2.154402e+2, -794845.9, -864990.1, -15639.426, 0.16473217, 0.23729606, -791516.9, 37193.69, 0.0, 10.000446, 9.99954 
1.2500378e+2, 2.254393e+2, -760860.75, -967035.25, -46196.344, 0.0860481, 0.2768112, -750983.06, -20261.27, 0.0, 10.000743, 9.998019 
1.249997e+2, 2.3543875e+2, -655307.9, -865115.5, -38851.16, -0.20632479, 0.394397, -648344.75, -15612.243, 0.0, 10.000793, 9.998024 
1.2499926e+2, 2.454375e+2, -541624.1, -705037.94, 53935.582, -0.22653584, 0.44494343, -525427.7, 9320.0205, 0.0, 10.000664, 9.998514 
1.2500201e+2, 2.5543553e+2, -478131.16, -624863.7, 72852.23, -0.008138437, 0.37120453, -448104.7, -11336.416, 0.0, 10.000421, 9.998515 
1.2500253e+2, 2.6543447e+2, -365975.22, -421818.25, 48402.816, 0.038622234, 0.3724015, -338017.9, 759.7637, 0.0, 10.000118, 9.999373 
1.2500122e+2, 2.7543408e+2, -315786.1, -350539.2, 18695.049, -0.05534976, 0.37353837, -307639.13, -66860.53, 0.00000012209664, 9.999799, 9.999346 
1.2500168e+2, 2.8543305e+2, -214407.39, -205235.36, 54904.035, -0.037784573, 0.3178894, -154726.14, -11942.364, 0.000003888246, 9.999626, 9.999753 
1.2500367e+2, 2.9543155e+2, -128652.67, -123352.4, 34176.35, 0.083607525, 0.16407296, -91723.586, -46932.074, 0.00002250982, 9.999576, 9.999668 
1.2500346e+2, 3.054319e+2, -124666.4, -349744.22, 1754.0029, 0.093074836, 0.3529206, -124652.73, -124652.73, 0.000088219014, 10.000355, 9.997426 
1.2500155e+2, 3.1542766e+2, 130808.87, -112381.96, 56097.375, 0.05830245, 0.16184744, 143125.22, 143125.22, 0.00025421128, 10.001571, 9.998466 
1.3500866e+2, 1.2544091e+2, -1508739.3, -1723727.3, -97035.2, 0.10789596, 0.39236856, -1471420.4, 239290.45, 0.0014399097, 10.001819, 9.9990425 
1.3500553e+2, 1.3544023e+2, -1653917.5, -1710834.5, -64945.727, -0.012412186, 0.38076398, -1611468.8, 1251.4128, 0.0008240123, 10.000054, 9.999313 
1.3500552e+2, 1.454385e+2, -1559618.3, -1461201.4, 4084.8877, 0.034889977, 0.20482276, -1461032.1, 53703.19, 0.00033951883, 9.999341, 10.000695 
1.3500485e+2, 1.5544012e+2, -1415239.6, -1362255.5, -1016.0125, -0.08466822, 0.27852833, -1362236.0, 54477.914, 0.00008018549, 9.99976, 10.000497 
1.3500525e+2, 1.6544071e+2, -1344525.5, -1348968.0, -16266.436, -0.07374399, 0.32603395, -1330329.4, -11623.228, 0.0000062149566, 9.99989, 9.999852 
1.3500687e+2, 1.7543991e+2, -1258194.0, -1254279.3, 15654.893, 0.073377654, 0.23532382, -1240459.9, -19745.02, 0.000000017143847, 9.9998045, 9.999867 
1.3500677e+2, 1.8543972e+2, -1141526.8, -1086917.8, -44882.035, 0.13414343, 0.20500802, -1061687.1, 61028.45, 0.0, 9.999655, 10.000422 
1.3500507e+2, 1.9544016e+2, -1070460.4, -1008865.25, -34688.375, 0.11168155, 0.1807432, -993275.6, 31433.234, 0.0, 9.999508, 10.000352 
1.3500412e+2, 2.0544022e+2, -1012849.9, -1056752.5, 24447.309, 0.0508415, 0.21542287, -1001944.94, -75236.96, 0.0, 9.999777, 9.999221 
1.3500378e+2, 2.1543978e+2, -834574.6, -921743.4, 16877.549, -0.04729302, 0.22385743, -831420.9, -2707.0093, 0.0, 10.00034, 9.9992 
1.3500305e+2, 2.2543891e+2, -743385.06, -915632.25, -54398.625, -0.08555109, 0.2587295, -727643.6, 3081.2861, 0.0, 10.000669, 9.998412 
1.3500197e+2, 2.3543748e+2, -636998.4, -810339.8, -29838.486, -0.08215537, 0.2504817, -632005.8, 735.7965, 0.0, 10.000716, 9.998438 
1.3500153e+2, 2.4543679e+2, -496317.4, -598952.8, 36004.242, -0.09025119, 0.2953865, -484946.88, 49802.69, 0.0, 10.000611, 9.999268 
1.3500166e+2, 2.554366e+2, -442666.94, -528241.25, 72642.94, -0.108008616, 0.32500997, -401146.7, 35604.05, 0.0, 10.000324, 9.999222 
1.350019e+2, 2.654358e+2, -417542.25, -518634.66, 28512.684, -0.05802237, 0.35496095, -410054.9, -71297.78, 0.0, 10.000073, 9.998728 
1.3500229e+2, 2.7543432e+2, -370064.9, -442147.13, 16340.814, 0.04707698, 0.304643, -366533.5, -125763.32, 0.000000046518082, 9.999711, 9.9987545 
1.3500185e+2, 2.854322e+2, -232635.14, -238107.23, 44822.438, -0.007503747, 0.17925546, -190465.33, -47676.57, 0.0000029362805, 9.999604, 9.999539 
1.3500063e+2, 2.954297e+2, -146293.86, -147448.63, 46737.098, -0.20735861, -0.05131135, -100130.57, -55320.2, 0.000019015239, 9.9995165, 9.999536 
1.3500173e+2, 3.0543354e+2, 4041.7302, -72347.05, 43904.97, -0.13436979, 0.39005944, 24040.621, 24040.621, 0.000075927965, 10.000313, 9.999349 
1.3500467e+2, 3.1543323e+2, 206986.98, 56572.785, 125951.72, 0.15822044, 0.4034643, 278476.66, 278476.66, 0.00022269739, 10.001516, 9.999656 
1.4500995e+2, 1.2544213e+2, -1786594.3, -1884632.1, 60556.387, 0.15829206, 0.38558593, -1757703.4, -47004.402, 0.0014542761, 10.000022, 9.998813 
1.4500703e+2, 1.3544218e+2, -1371187.9, -1575530.3, 34526.676, 0.041045595, 0.4454358, -1365511.8, 247191.2, 0.0008417685, 10.001994, 9.999309 
1.450068e+2, 1.4544043e+2, -1193909.5, -1334910.8, 99347.57, 0.09876974, 0.28994215, -1142589.4, 372129.3, 0.0003553583, 10.002068, 10.000253 
1.4500526e+2, 1.5544082e+2, -1323058.5, -1363091.4, 64581.63, -0.054855358, 0.28788844, -1275462.4, 141246.33, 0.00008912462, 10.0005865, 10.000096 
1.4500505e+2, 1.6544116e+2, -1302417.4, -1283862.8, 77543.3, -0.07969165, 0.3082151, -1215043.9, 103657.85, 0.000008328298, 9.999991, 10.000245 
1.4500636e+2, 1.7544101e+2, -1195778.6, -1189551.9, 70517.64, 0.032417446, 0.24119301, -1122078.9, 98622.68, 0.0000000715251, 10.00008, 10.000179 
1.4500652e+2, 1.8544045e+2, -1118403.9, -1162080.1, -9687.872, 0.123136215, 0.20009175, -1116351.5, 6354.6987, 0.0, 10.000191, 9.999648 
1.4500554e+2, 1.9543958e+2, -1007253.5, -1062670.1, -72124.99, 0.17654437, 0.12459383, -957697.56, 67016.96, 0.0, 10.0002985, 9.999609 
1.4500454e+2, 2.0543946e+2, -938949.94, -1018448.2, 4995.0747, 0.096143976, 0.17733636, -938637.3, -11920.756, 0.0, 10.000286, 9.999231 
1.4500348e+2, 2.1543986e+2, -863923.06, -936919.8, 4639.0884, -0.09389856, 0.26568782, -863629.44, -34914.473, 0.0, 10.000149, 9.999185 
1.4500329e+2, 2.25439e+2, -780525.9, -891539.25, -36738.418, -0.10112932, 0.2872892, -769469.0, -38744.715, 0.0, 10.000237, 9.998786 
1.450038e+2, 2.3543702e+2, -637824.1, -772822.75, -33717.176, 0.04436051, 0.18730603, -629871.44, 2872.4072, 0.0, 10.000543, 9.998786 
1.4500318e+2, 2.4543633e+2, -525439.4, -616624.0, -2703.7505, 0.02997523, 0.21914609, -525359.25, 9391.877, 0.0, 10.000429, 9.999235 
1.4500166e+2, 2.5543666e+2, -492178.72, -553771.44, -45934.16, -0.11728821, 0.30389172, -467672.6, -30924.018, 0.0, 9.999998, 9.999203 
1.4500165e+2, 2.6543596e+2, -409438.28, -506706.84, -54987.684, -0.08469239, 0.33936208, -384663.16, -45909.047, 0.0, 10.000087, 9.998809 
1.4500298e+2, 2.7543423e+2, -233025.2, -373936.3, -32812.066, 0.105700575, 0.26168433, -225759.36, 15008.985, 0.00000002138944, 10.000628, 9.998795 
1.4500245e+2, 2.8543207e+2, -124016.75, -233096.67, 13993.642, 0.053055942, 0.14995652, -122250.15, 20538.963, 0.0000023054517, 10.000543, 9.999126 
1.4500026e+2, 2.9542977e+2, -112790.79, -169489.84, -19334.129, -0.20873393, -0.023092652, -106825.54, -62012.82, 0.000016570593, 9.999911, 9.999189 
1.4500172e+2, 3.0543408e+2, -12786.311, 15863.182, -11126.52, -0.13113165, 0.44315723, 19676.732, 19676.732, 0.0000664134, 9.999804, 10.000184 
1.4500551e+2, 3.1543362e+2, 31013.86, 52651.887, -49082.086, 0.17852187, 0.35711053, 92093.22, 92093.22, 0.0001967113, 9.999986, 10.00035 
1.550084e+2, 1.2544362e+2, -1803616.5, -1940831.5, 107603.49, -0.05507634, 0.23828596, -1744609.4, -33932.082, 0.0014746141, 10.000106, 9.998392 
1.5500827e+2, 1.3544478e+2, -1383547.0, -1602852.8, 107385.64, -0.060808975, 0.42990267, -1339722.1, 272951.22, 0.00086313457, 10.001996, 9.999126 
1.550088e+2, 1.4544325e+2, -1235015.4, -1408474.0, 31841.137, 0.0658675, 0.32970724, -1229355.1, 285333.72, 0.00037152023, 10.002024, 9.999765 
1.5500632e+2, 1.5544239e+2, -1359754.3, -1434095.9, 23328.1, -0.034401502, 0.251823, -1353040.3, 63652.01, 0.00009663115, 10.000572, 9.99961 
1.5500517e+2, 1.654424e+2, -1297756.8, -1266194.4, 70578.17, -0.09220348, 0.25642213, -1209654.6, 109033.055, 0.000009881803, 9.999953, 10.00039 
1.5500538e+2, 1.7544289e+2, -1194616.1, -1178260.6, 84243.336, -0.09831183, 0.2409663, -1101799.0, 118880.1, 0.00000020107916, 10.000043, 10.0002775 
1.5500529e+2, 1.8544193e+2, -1230540.1, -1385532.0, -14860.754, -0.042113762, 0.23426992, -1229128.1, -106438.18, 0.0, 10.000148, 9.998137 
1.5500489e+2, 1.9543973e+2, -1119315.0, -1277151.1, -58068.535, 0.057032112, 0.17643772, -1100253.4, -75536.125, 0.0, 10.00023, 9.998168 
1.5500449e+2, 2.0543933e+2, -920996.2, -970038.7, -9533.179, 0.039800897, 0.2515471, -919208.25, 7515.5127, 0.0, 10.000227, 9.9996 
1.5500401e+2, 2.1544035e+2, -849701.94, -885931.06, 8346.914, -0.07818836, 0.3679947, -847871.3, -19157.424, 0.0, 10.000054, 9.999583 
1.5500422e+2, 2.2543965e+2, -770747.1, -852581.5, -33211.465, -0.055361718, 0.36814216, -758965.0, -28245.586, 0.0, 10.000155, 9.999093 
1.5500496e+2, 2.3543738e+2, -632849.5, -744295.56, -12595.85, 0.08376373, 0.20710547, -631443.6, 1295.3911, 0.0, 10.000462, 9.999022 
1.5500398e+2, 2.4543615e+2, -590537.9, -742252.75, -28366.836, 0.043887924, 0.21714856, -585407.5, -50654.9, 0.0, 10.000382, 9.998396 
1.5500169e+2, 2.5543562e+2, -557665.1, -674911.6, -49625.887, -0.13872276, 0.29901233, -539480.75, -102717.95, 0.0, 9.999925, 9.99841 
1.5500145e+2, 2.6543486e+2, -361539.44, -398141.03, -43050.305, -0.13570504, 0.32572222, -333061.53, 5707.725, 0.0, 10.000052, 9.999568 
1.5500298e+2, 2.7543378e+2, -198631.27, -283229.38, -3248.7253, 0.021951433, 0.23433024, -198506.69, 42267.48, 0.000000019825112, 10.000546, 9.999455 
1.5500319e+2, 2.8543258e+2, -172858.97, -325324.6, -17302.633, 0.04835942, 0.2259277, -170920.03, -28134.729, 0.0000019865888, 10.0005045, 9.998508 
1.5500222e+2, 2.9543152e+2, -161588.42, -257946.05, -28864.467, -0.033763025, 0.23491205, -153603.6, -108803.43, 0.000014949104, 9.999849, 9.998613 
1.5500319e+2, 3.054336e+2, -37226.242, -24432.316, -8811.091, 0.0117797125, 0.5151202, -19940.914, -19940.914, 0.000059797247, 9.999771, 9.999912 
1.5500347e+2, 3.1542897e+2, 30507.064, 69122.41, -17855.33, -0.0709363, 0.03953975, 76113.0, 76113.0, 0.0001777337, 9.999917, 10.000489 
1.6500945e+2, 1.2544434e+2, -1616919.5, -1829527.4, 15598.892, -0.009757849, 0.19182569, -1615781.1, 94887.02, 0.0014821975, 10.001288, 9.99858 
1.6500881e+2, 1.3544577e+2, -1625490.0, -1692918.6, 12419.016, -0.108221926, 0.382722, -1623275.4, -10614.539, 0.0008719991, 10.00021, 9.99937 
1.6500929e+2, 1.4544486e+2, -1544962.0, -1555623.1, -36802.895, 0.026624652, 0.33106592, -1513105.6, 1565.1787, 0.0003781117, 9.999912, 9.999758 
1.6500705e+2, 1.5544382e+2, -1375598.6, -1447998.6, -30585.125, -0.008340073, 0.23881575, -1364407.9, 52269.418, 0.000098805474, 10.000499, 9.999546 
1.6500586e+2, 1.6544348e+2, -1217965.4, -1276829.4, 46988.344, -0.049942423, 0.2347421, -1191952.4, 126724.4, 0.000009884257, 10.000702, 9.999955 
1.6500582e+2, 1.7544356e+2, -1150532.1, -1200993.1, -758.2259, -0.077690214, 0.21913852, -1150520.8, 70151.625, 0.0000002904704, 10.000525, 9.999889 
1.6500552e+2, 1.8544272e+2, -1151612.4, -1350706.3, -27625.936, -0.056765385, 0.24397542, -1147850.1, -25167.873, 0.0, 10.00072, 9.998088 
1.6500497e+2, 1.95441e+2, -975142.6, -1214131.0, 19440.254, -0.00023690547, 0.23830831, -973571.56, 51133.438, 0.0, 10.001246, 9.998101 
1.6500475e+2, 2.0544027e+2, -836707.9, -954353.1, 83313.12, 0.013733023, 0.29321173, -793544.4, 133170.64, 0.0, 10.000923, 9.99937 
1.6500466e+2, 2.1544032e+2, -883305.1, -924373.5, 38020.703, -0.007291185, 0.33714733, -860627.9, -31913.426, 0.0, 9.999919, 9.999385 
1.6500477e+2, 2.2543965e+2, -814616.56, -845906.1, 24876.97, 0.0112935575, 0.3373007, -800873.9, -70154.59, 0.0, 9.999748, 9.99933 
1.6500501e+2, 2.3543833e+2, -646695.56, -722376.56, 18716.904, 0.06044228, 0.24950773, -642319.7, -9590.809, 0.0, 10.000266, 9.999256 
1.6500412e+2, 2.45437e+2, -620823.4, -795385.94, 11769.869, 0.02671251, 0.25714892, -620033.4, -85289.586, 0.0, 10.000348, 9.998047 
1.650023e+2, 2.5543553e+2, -558009.56, -707853.7, 8295.653, -0.069153614, 0.28006947, -557551.7, -120787.53, 0.0, 10.000073, 9.998106 
1.6500206e+2, 2.6543465e+2, -368964.34, -403368.88, 45902.594, -0.07276183, 0.31117168, -337146.56, 1626.1144, 0.0, 10.000001, 9.999559 
1.6500315e+2, 2.7543414e+2, -255306.13, -306123.38, 8019.659, 0.011083584, 0.27569684, -254070.56, -13297.583, 0.000000024295247, 10.000142, 9.999484 
1.6500346e+2, 2.8543314e+2, -224562.22, -370568.13, -12020.155, 0.047394525, 0.2907831, -223579.25, -80796.734, 0.0000019697127, 10.00025, 9.998318 
1.6500324e+2, 2.9543188e+2, -92578.16, -239551.13, -14230.388, 0.06223339, 0.30578187, -91213.01, -46415.3, 0.000013995548, 10.000398, 9.998476 
1.6500403e+2, 3.0543226e+2, -16129.773, -74721.23, 34262.44, 0.108381554, 0.44448367, -346.07474, -346.07474, 0.00005518299, 10.000154, 9.999397 
1.6500269e+2, 3.1542802e+2, -64694.527, -4754.7163, -29558.635, -0.103967786, 0.06262832, 7369.4175, 7369.4175, 0.00016337763, 9.999366, 10.000256 
1.7501241e+2, 1.2544423e+2, -1560325.8, -1705462.5, -48408.297, 0.10272813, 0.23316304, -1545661.5, 165010.58, 0.001464911, 10.001268, 9.999434 
1.7500828e+2, 1.354453e+2, -1579499.3, -1587773.6, -20398.941, -0.20526181, 0.3110261, -1562822.3, 49841.883, 0.0008580161, 10.000188, 10.000091 
1.750081e+2, 1.4544532e+2, -1515723.1, -1500128.3, -25909.527, -0.11167091, 0.2999651, -1480868.3, 33795.65, 0.00036898247, 9.99992, 10.000144 
1.7500712e+2, 1.5544511e+2, -1348367.8, -1392524.3, 1864.7682, -0.07756989, 0.2514399, -1348289.3, 68374.42, 0.00009401229, 10.000499, 9.99993 
1.7500676e+2, 1.6544445e+2, -1288515.4, -1415902.0, 30921.395, -0.05432236, 0.24217236, -1281406.3, 37262.465, 0.000008393363, 10.000668, 9.99902 
1.7500727e+2, 1.7544313e+2, -1215313.8, -1327798.1, 3219.6714, -0.008512616, 0.18404406, -1215221.6, 5458.779, 0.00000020811186, 10.000497, 9.999031 
1.7500687e+2, 1.8544291e+2, -1055601.5, -1147737.4, -15664.536, -0.017964592, 0.23902142, -1053011.1, 69671.15, 0.0, 10.00069, 9.999501 
1.7500554e+2, 1.954435e+2, -889412.94, -1023047.9, 45756.434, -0.092961036, 0.32083967, -875247.5, 149429.44, 0.0, 10.001187, 9.999443 
1.7500494e+2, 2.0544237e+2, -906511.2, -1083625.6, 34336.637, -0.07758634, 0.31587037, -900087.44, 26601.756, 0.0, 10.000851, 9.998517 
1.7500505e+2, 2.154397e+2, -955262.44, -1054611.5, 12259.864, 0.019612314, 0.17204985, -953771.94, -125054.86, 0.0, 9.999836, 9.998531 
1.7500463e+2, 2.2543901e+2, -812224.2, -826010.7, 34379.58, 0.0031214498, 0.20306417, -784053.6, -53329.83, 0.0, 9.999678, 9.999502 
1.7500372e+2, 2.3543985e+2, -644236.25, -703642.0, 45746.555, -0.11707963, 0.31174633, -619395.5, 13318.411, 0.0, 10.000198, 9.99942 
1.7500329e+2, 2.4543889e+2, -621463.9, -784926.06, -7135.975, -0.11069548, 0.3430275, -621152.94, -86428.3, 0.0, 10.0002985, 9.998139 
1.7500326e+2, 2.5543633e+2, -567722.3, -709069.9, 6267.577, -0.0027235127, 0.24881369, -567444.94, -130691.76, 0.0, 9.999992, 9.998137 
1.7500323e+2, 2.6543534e+2, -420480.94, -507992.88, 41797.027, 0.024315152, 0.3000247, -403725.94, -64961.066, 0.0, 9.999987, 9.998847 
1.7500319e+2, 2.7543533e+2, -310471.97, -408648.97, 22384.605, -0.021975968, 0.38662484, -305609.06, -64843.95, 0.000000035492793, 10.000087, 9.998808 
1.7500304e+2, 2.8543365e+2, -208292.7, -336268.1, -17188.148, -0.044804256, 0.356486, -206024.4, -63244.016, 0.0000021240596, 10.000249, 9.99855 
1.750028e+2, 2.9543084e+2, -84771.46, -209862.47, 1806.1511, -0.047308203, 0.18698077, -84745.39, -39939.59, 0.000013429294, 10.000346, 9.998699 
1.7500393e+2, 3.0542994e+2, -67185.086, -183110.42, -771.2451, 0.06423832, 0.2275612, -67179.95, -67179.95, 0.000050917075, 10.000158, 9.998656 
1.750024e+2, 3.1543076e+2, -114402.58, -90751.03, -15065.845, -0.12057846, 0.43117857, -83424.03, -83424.03, 0.00014886881, 9.999306, 9.999688 
1.8501306e+2, 1.2544401e+2, -1792391.9, -1708978.6, 999.1487, 0.15475452, 0.21735679, -1708966.6, 1709.4891, 0.0014182838, 9.999195, 10.000416 
1.8500803e+2, 1.3544545e+2, -1586436.1, -1511497.9, -10508.038, -0.22074567, 0.25752714, -1510052.3, 102607.555, 0.00082149997, 9.999789, 10.000809 
1.8500808e+2, 1.4544606e+2, -1498865.1, -1541796.8, 10571.4, -0.115979865, 0.295726, -1496403.3, 18250.346, 0.00034638878, 10.000237, 9.9997015 
1.8500793e+2, 1.554458e+2, -1326610.6, -1424950.9, -45280.742, -0.056808487, 0.27899876, -1308937.3, 107720.21, 0.000084445885, 10.000828, 9.999546 
1.850076e+2, 1.6544487e+2, -1238900.8, -1402091.6, -17934.51, -0.051718112, 0.2674377, -1236953.0, 81713.28, 0.000006352812, 10.001072, 9.99891 
1.8500756e+2, 1.7544313e+2, -1144769.9, -1305664.9, 351.99188, -0.051796604, 0.17679517, -1144769.0, 75912.555, 0.000000056960435, 10.0010395, 9.998918 
1.8500733e+2, 1.8544286e+2, -1017305.25, -1108301.3, -14487.712, -0.04345269, 0.22240973, -1015054.25, 107629.11, 0.0, 10.000873, 9.9996805 
1.8500672e+2, 1.9544381e+2, -967026.7, -1039571.7, -65993.13, -0.0557529, 0.32210097, -927994.56, 96679.586, 0.0, 10.00057, 9.999628 
1.8500602e+2, 2.0544279e+2, -939136.94, -1102721.5, -84851.4, -0.03890911, 0.31851637, -903074.5, 23610.732, 0.0, 10.000634, 9.998491 
1.8500529e+2, 2.1543999e+2, -790520.7, -978107.0, -60119.207, 0.008728524, 0.16567093, -772907.06, 55807.203, 0.0, 10.000971, 9.99851 
1.8500464e+2, 2.2543928e+2, -646930.75, -760948.5, 9242.03, -0.02001986, 0.20107861, -646186.5, 84535.414, 0.0, 10.000867, 9.999381 
1.85004e+2, 2.354402e+2, -624310.9, -706698.0, -19071.66, -0.112813085, 0.3302149, -620110.2, 12602.418, 0.0, 10.000377, 9.999318 
1.8500383e+2, 2.4543935e+2, -567003.2, -711406.4, -46515.996, -0.09169477, 0.3561264, -553316.44, -18595.32, 0.0, 10.000461, 9.998569 
1.8500404e+2, 2.55437e+2, -388541.66, -576593.2, -26131.832, 0.02907495, 0.23670144, -384977.9, 51766.758, 0.0, 10.001023, 9.99855 
1.8500394e+2, 2.6543596e+2, -326137.34, -497919.75, 35300.438, 0.059455294, 0.28611633, -319166.2, 19590.223, 0.0, 10.00079, 9.998529 
1.8500358e+2, 2.7543586e+2, -354306.97, -463770.84, 27578.84, 0.022071782, 0.39420557, -347751.25, -106990.555, 0.000000044067633, 9.999927, 9.998512 
1.8500341e+2, 2.854343e+2, -248010.72, -344112.28, 43212.836, -0.010325769, 0.38271785, -231437.77, -88662.14, 0.000002141611, 9.9999075, 9.998671 
1.8500336e+2, 2.9543185e+2, -37494.363, -178970.61, 29806.402, -0.03365154, 0.2417416, -31471.143, 13325.2705, 0.000012353572, 10.000614, 9.9987955 
1.8500419e+2, 3.0542964e+2, -80426.37, -171534.97, 16980.287, 0.08911825, 0.13608691, -77364.57, -77364.57, 0.0000445169, 9.999987, 9.998811 
1.8500142e+2, 3.1543237e+2, -308311.44, -223318.92, 56354.684, -0.07834072, 0.52181584, -195233.44, -195233.44, 0.00012870552, 9.998091, 9.999387 
1.9501087e+2, 1.2544367e+2, -1718617.5, -1543587.4, 4546.561, -0.03632978, 0.1584858, -1543469.4, 167211.03, 0.0013429979, 9.999159, 10.001562 
1.950078e+2, 1.3544618e+2, -1544906.1, -1408581.4, 13300.297, -0.24698663, 0.22085539, -1407295.9, 205352.55, 0.0007683095, 9.999739, 10.001532 
1.9500887e+2, 1.4544713e+2, -1584126.6, -1716831.5, 19559.17, -0.08756027, 0.31972748, -1581303.9, -66664.13, 0.00031677555, 10.000218, 9.998515 
1.9500914e+2, 1.5544598e+2, -1405753.1, -1587516.9, -14870.939, -0.044305045, 0.33293208, -1404544.5, 12113.312, 0.000073711046, 10.000817, 9.998439 
1.950081e+2, 1.654449e+2, -1191214.6, -1299197.4, -25614.123, -0.13239807, 0.32223856, -1185446.9, 133221.6, 0.0000047225935, 10.001046, 9.999633 
1.9500645e+2, 1.7544365e+2, -1102960.1, -1213058.9, 9724.771, -0.29047164, 0.20540904, -1102107.8, 118567.4, 0.0000000036456946, 10.001011, 9.999569 
1.9500667e+2, 1.8544263e+2, -1099848.9, -1268489.9, -35971.96, -0.22058871, 0.20155767, -1092496.4, 30188.63, 0.0, 10.000819, 9.998611 
1.9500825e+2, 1.9544181e+2, -1045857.25, -1190878.9, -66729.375, 0.018543504, 0.23440081, -1019825.5, 4872.0537, 0.0, 10.000513, 9.99862 
1.9500762e+2, 2.0544142e+2, -893952.94, -986579.44, -79320.08, 0.03700663, 0.2993904, -848415.25, 78288.33, 0.0, 10.000542, 9.999329 
1.9500509e+2, 2.1544118e+2, -748244.6, -868203.44, -40343.98, -0.12997778, 0.31584388, -735938.7, 92767.28, 0.0, 10.000877, 9.999307 
1.950045e+2, 2.2544047e+2, -693250.56, -834662.3, -19887.146, -0.13888282, 0.33726296, -690507.06, 40206.355, 0.0, 10.000773, 9.99892 
1.9500549e+2, 2.3543932e+2, -664955.25, -768349.4, -28037.758, -0.021270972, 0.3046973, -657841.56, -25116.19, 0.0, 10.000283, 9.998938 
1.950054e+2, 2.4543834e+2, -524720.6, -605947.56, -35105.234, 0.00042206678, 0.2963112, -511651.44, 23081.9, 0.0, 10.000385, 9.999329 
1.950043e+2, 2.5543743e+2, -350524.4, -474824.97, 2120.3433, -0.06788997, 0.24288218, -350488.25, 86250.47, 0.0, 10.000927, 9.999292 
1.9500388e+2, 2.6543668e+2, -323846.8, -488622.63, -6480.7744, -0.04588099, 0.27742487, -323592.3, 15154.124, 0.0, 10.000766, 9.9986105 
1.9500402e+2, 2.7543572e+2, -357592.84, -460372.2, 8344.537, 0.0498265, 0.3000683, -356919.75, -116160.54, 0.000000036761158, 9.999877, 9.998566 
1.9500428e+2, 2.85435e+2, -255408.39, -351325.94, 62383.902, 0.06452301, 0.370708, -224679.2, -81910.875, 0.0000018181237, 9.999877, 9.998633 
1.9500464e+2, 2.95435e+2, -50365.605, -184480.44, 67530.445, 0.008502073, 0.4766008, -22254.443, 22514.219, 0.000010151812, 10.000531, 9.998793 
1.9500451e+2, 3.0543137e+2, -7573.866, -14475.282, -57612.996, 0.097166784, 0.17460467, 46691.67, 46691.67, 0.00003534469, 9.999969, 9.999894 
1.9499911e+2, 3.1543326e+2, -301483.56, -187833.69, 33275.242, -0.16616072, 0.36457047, -178807.92, -178807.92, 0.0001028295, 9.998019, 9.999652 
2.0501053e+2, 1.254448e+2, -1667506.6, -1565678.4, 108471.34, -0.005019294, 0.18457845, -1496766.4, 213901.84, 0.0012444656, 9.999715, 10.001145 
2.0500825e+2, 1.3544643e+2, -1462195.8, -1450800.6, -44811.926, -0.21044374, 0.2311193, -1411325.5, 201320.78, 0.00070293987, 10.000642, 10.00082 
2.0500979e+2, 1.4544672e+2, -1485800.1, -1656847.0, -33979.22, -0.04626661, 0.29645112, -1479297.1, 35346.46, 0.00028321997, 10.0008545, 9.998618 
2.0501006e+2, 1.5544531e+2, -1413342.6, -1577607.9, 1992.4757, -0.02266262, 0.27275366, -1413318.4, 3344.3987, 0.000063005726, 10.000711, 9.998556 
2.0500901e+2, 1.6544455e+2, -1255893.3, -1325840.1, 16097.508, -0.11771373, 0.28641903, -1252366.4, 66304.33, 0.0000035155435, 10.000588, 9.99967 
2.0500731e+2, 1.7544414e+2, -1180365.4, -1247045.0, -18554.996, -0.27288046, 0.2535924, -1175549.9, 45121.168, 0.0000000004928599, 10.000468, 9.9995985 
2.050073e+2, 1.8544303e+2, -1184192.8, -1318653.1, -36176.07, -0.20812191, 0.24203414, -1175077.6, -52395.285, 0.0, 10.00028, 9.998527 
2.0500852e+2, 1.9544129e+2, -1122761.5, -1236609.0, -11101.09, 0.022190923, 0.19046314, -1121689.1, -96986.055, 0.0, 10.000018, 9.998543 
2.0500796e+2, 2.0544104e+2, -945514.0, -995435.56, 24799.049, 0.042129494, 0.26721728, -935289.1, -8581.51, 0.0, 10.000119, 9.9994755 
2.0500597e+2, 2.1544191e+2, -798019.5, -879527.4, -6044.1895, -0.10566414, 0.3826968, -797573.75, 31125.998, 0.0, 10.000484, 9.999423 
2.0500539e+2, 2.2544122e+2, -764624.94, -899261.5, -14231.289, -0.10420109, 0.41418543, -763137.1, -32429.576, 0.0, 10.000413, 9.998644 
2.05006e+2, 2.354391e+2, -730860.06, -832475.94, -27077.262, 0.020901248, 0.31296754, -724095.2, -91365.76, 0.0, 9.999965, 9.998652 
2.0500576e+2, 2.4543788e+2, -616184.75, -611446.44, -9232.597, 0.04318346, 0.27681315, -604283.9, -69545.05, 0.0, 9.999591, 9.999669 
2.050048e+2, 2.5543734e+2, -559909.9, -542276.25, -22469.266, -0.02711636, 0.22761512, -526955.9, -90217.27, 0.0, 9.999336, 9.999597 
2.0500423e+2, 2.654367e+2, -474594.94, -525957.75, -29338.688, -0.024233406, 0.2433987, -461285.4, -122541.484, 0.0, 9.999588, 9.998915 
2.0500396e+2, 2.7543566e+2, -278194.78, -386378.56, -20164.387, 0.042001113, 0.22453964, -274558.56, -33801.504, 0.00000002096579, 10.000283, 9.998868 
2.0500407e+2, 2.854355e+2, -266785.3, -343054.06, 57809.62, 0.06757842, 0.32868853, -235665.22, -92903.31, 0.0000012828043, 9.999742, 9.9987545 
2.0500444e+2, 2.9543665e+2, -381187.7, -328111.44, 62359.11, 0.059713773, 0.5352205, -286878.38, -242125.23, 0.000007381431, 9.998193, 9.998931 
2.0500442e+2, 3.0543298e+2, -170669.28, -31866.438, -45897.656, 0.17051452, 0.20004927, -18062.379, -18062.379, 0.000026183789, 9.998596, 10.0004425 
2.0499907e+2, 3.154347e+2, 57405.973, -12172.168, -15760.759, -0.088107936, 0.31087917, 60809.586, 60809.586, 0.00007851838, 10.000512, 9.999647 
2.1501134e+2, 1.2544735e+2, -1811148.5, -1847279.6, 121214.83, 0.05625681, 0.29641294, -1706660.4, 3979.9368, 0.0011273269, 9.999654, 9.999238 
2.1500921e+2, 1.3544628e+2, -1606763.5, -1753191.4, -4137.656, -0.20286459, 0.29449484, -1606646.8, 6005.605, 0.0006276391, 10.000655, 9.998736 
2.150104e+2, 1.4544499e+2, -1398766.0, -1471574.5, -52081.027, -0.09708525, 0.23768279, -1371627.4, 143036.48, 0.0002466057, 10.0008335, 9.9999 
2.1501039e+2, 1.5544383e+2, -1325476.5, -1397151.4, 6184.2935, -0.088445835, 0.10601623, -1324946.9, 91725.266, 0.000052325075, 10.000717, 9.999793 
2.1501005e+2, 1.6544382e+2, -1307628.1, -1421575.6, 1385.3813, -0.09735485, 0.16708161, -1307611.3, 11061.802, 0.000002586899, 10.000538, 9.999035 
2.1500984e+2, 1.7544457e+2, -1226828.6, -1332061.5, -14019.481, -0.08728884, 0.31450963, -1224992.9, -4323.4375, 0.000000000052014764, 10.000425, 9.99903 
2.1500891e+2, 1.8544401e+2, -1134079.3, -1200118.6, -53399.152, -0.094414555, 0.34037846, -1104315.4, 18360.21, 0.0, 10.000214, 9.999375 
2.1500723e+2, 1.9544218e+2, -1071266.4, -1119083.1, -10280.676, -0.13156001, 0.19225296, -1069149.8, -44458.48, 0.0, 9.999971, 9.999372 
2.1500681e+2, 2.0544165e+2, -991587.56, -1077731.5, 28354.717, -0.10275184, 0.22827116, -983092.25, -56395.06, 0.0, 10.000058, 9.99894 
2.150076e+2, 2.1544214e+2, -845414.75, -958222.2, 14583.353, -0.012605239, 0.3588676, -843559.94, -14864.05, 0.0, 10.000397, 9.998924 
2.15007e+2, 2.2544143e+2, -789446.25, -925249.56, -39578.344, -0.0038015374, 0.4186638, -778753.5, -48048.344, 0.0, 10.000306, 9.998515 
2.1500522e+2, 2.3543954e+2, -756446.7, -857712.8, -33157.21, -0.07286031, 0.35259813, -746556.1, -113831.445, 0.0, 9.999849, 9.998531 
2.1500465e+2, 2.4543804e+2, -632211.44, -633058.25, -27526.943, -0.04899733, 0.2989885, -605104.6, -70367.56, 0.0, 9.999542, 9.999547 
2.150052e+2, 2.5543684e+2, -578948.8, -558978.1, -22541.797, 0.05793048, 0.19915517, -544309.06, -107565.65, 0.0, 9.999243, 9.999527 
2.1500467e+2, 2.6543614e+2, -447752.0, -459622.7, -11581.581, 0.039683614, 0.18837044, -440673.44, -101925.164, 0.0, 9.999543, 9.99939 
2.150031e+2, 2.7543557e+2, -260349.17, -327133.9, 12713.054, -0.09615208, 0.16637175, -258010.98, -17255.672, 0.00000000626477, 10.000189, 9.999318 
2.1500246e+2, 2.8543568e+2, -242671.98, -283262.94, -11075.566, -0.0905973, 0.25515077, -239846.6, -97089.42, 0.00000075455597, 9.999706, 9.999181 
2.1500261e+2, 2.9543683e+2, -366229.5, -286006.88, 19675.842, 0.031222511, 0.4250519, -281440.94, -236691.81, 0.0000049684672, 9.998148, 9.999242 
2.1500382e+2, 3.0543458e+2, -173991.11, -48707.695, 20697.773, 0.22848874, 0.22320426, -45376.824, -45376.824, 0.000019548965, 9.998629, 10.0003195 
2.1500085e+2, 3.1543654e+2, 14798.642, -96419.34, 106641.79, -0.010050099, 0.37114322, 79459.48, 79459.48, 0.00006122242, 10.000482, 9.999095 
2.2501245e+2, 1.254482e+2, -1501463.9, -1750273.4, 112305.01, 0.09800295, 0.30019832, -1458271.0, 252357.77, 0.0009979393, 10.001988, 9.998785 
2.2501035e+2, 1.3544644e+2, -1583780.8, -1797558.3, 57571.113, -0.1671768, 0.28163642, -1569262.6, 43386.65, 0.0005469221, 10.001068, 9.998223 
2.250112e+2, 1.4544474e+2, -1436745.6, -1482220.1, 42156.035, -0.080425836, 0.20255905, -1411586.0, 103079.766, 0.00020906674, 10.00054, 9.999975 
2.2501086e+2, 1.554441e+2, -1353216.4, -1402149.1, -9642.421, -0.09439023, 0.117964394, -1351384.9, 65283.754, 0.000042237294, 10.000492, 9.999872 
2.2501062e+2, 1.6544424e+2, -1353786.6, -1450641.9, -22672.863, -0.073464125, 0.19332622, -1348741.9, -30073.209, 0.0000020119714, 10.000239, 9.998982 
2.2501077e+2, 1.7544478e+2, -1332984.6, -1393190.9, -16083.848, 0.002568168, 0.32291344, -1328957.3, -108288.58, 0.0, 9.999728, 9.998952 
2.2500984e+2, 1.8544433e+2, -1130071.0, -1177063.1, -17076.408, -0.014358177, 0.35477573, -1124521.1, -1847.3442, 0.0, 10.0001545, 9.999557 
2.2500788e+2, 1.9544297e+2, -868056.44, -1005059.94, -45294.78, -0.1267488, 0.23811051, -854435.7, 170247.73, 0.0, 10.001308, 9.99951 
2.2500739e+2, 2.0544209e+2, -865227.06, -1043258.1, -38319.01, -0.096777394, 0.2453113, -857329.7, 69362.805, 0.0, 10.001041, 9.998709 
2.2500823e+2, 2.1544147e+2, -984845.8, -1047156.06, -45019.39, 0.06025838, 0.2868932, -961252.56, -132550.27, 0.0, 9.999531, 9.998734 
2.2500777e+2, 2.2544073e+2, -843284.6, -894397.8, -5850.982, 0.07749143, 0.3268133, -842623.44, -111912.95, 0.0, 9.999691, 9.999027 
2.2500616e+2, 2.3543978e+2, -523712.03, -690200.75, 27063.297, -0.024647474, 0.3015903, -519423.28, 113295.266, 0.0, 10.001216, 9.999022 
2.2500533e+2, 2.4543862e+2, -419886.0, -582642.4, 13698.669, -0.016467644, 0.2838497, -418741.1, 115986.98, 0.0, 10.001222, 9.999087 
2.2500512e+2, 2.554372e+2, -496089.56, -570238.5, -22445.498, 0.0917845, 0.2092487, -489824.47, -53084.84, 0.0, 10.000025, 9.999081 
2.2500455e+2, 2.6543638e+2, -474727.97, -478823.3, 9851.226, 0.08616121, 0.20645475, -466713.84, -127966.32, 0.0, 9.999386, 9.999331 
2.2500363e+2, 2.7543575e+2, -391276.84, -396646.6, -25182.746, -0.010989275, 0.1866385, -368636.25, -127881.53, 0.00000000006385136, 9.99931, 9.999267 
2.2500251e+2, 2.854357e+2, -250324.64, -253996.14, -83854.76, -0.037087936, 0.24740136, -168285.55, -25528.555, 0.00000032397858, 9.999504, 9.999481 
2.250012e+2, 2.9543653e+2, -102191.266, -133526.6, -81630.22, -0.0020952476, 0.35113227, -34738.727, 10012.013, 0.000003287384, 9.999855, 9.999463 
2.2500275e+2, 3.0543512e+2, 25005.404, 46906.98, 4081.6194, 0.198769, 0.22933066, 47642.91, 47642.91, 0.00001589248, 10.000001, 10.000306 
2.2500192e+2, 3.1543684e+2, -35237.332, -98023.85, 92424.87, 0.08371602, 0.3383401, 30980.336, 30980.336, 0.000052100033, 10.00004, 9.99929 
2.3501335e+2, 1.2544739e+2, -1432386.9, -1606233.6, 56372.0, -0.06411909, 0.19315074, -1415707.8, 294925.6, 0.0008671324, 10.001994, 9.999771 
2.350113e+2, 1.3544682e+2, -1513008.3, -1660203.4, 22501.043, -0.20389357, 0.19538105, -1509645.5, 102992.94, 0.0004662031, 10.001097, 9.99916 
2.3501176e+2, 1.454457e+2, -1519294.8, -1634931.8, 27578.521, -0.10135581, 0.1822027, -1513054.3, 1597.3837, 0.00017258529, 10.000466, 9.998961 
2.3501122e+2, 1.5544604e+2, -1422989.5, -1544321.3, -928.72107, -0.13537292, 0.29914123, -1422982.4, -6329.3257, 0.000033446406, 10.000483, 9.998901 
2.3501047e+2, 1.6544574e+2, -1332052.9, -1391973.3, -52541.37, -0.13579534, 0.3557654, -1301529.9, 17128.502, 0.0000017722703, 10.000183, 9.999415 
2.3500988e+2, 1.7544462e+2, -1304209.1, -1326870.0, -23357.145, -0.08322627, 0.2727722, -1289579.3, -68909.49, 0.0000000001389195, 9.999698, 9.999424 
2.3500982e+2, 1.8544395e+2, -1180538.5, -1260207.0, 17131.264, -0.052658074, 0.28918752, -1177010.9, -54334.387, 0.0, 10.000065, 9.99903 
2.3501009e+2, 1.9544367e+2, -912080.4, -1082200.4, 1670.3481, -0.056753363, 0.33301654, -912064.0, 112615.93, 0.0, 10.001249, 9.999008 
2.3500927e+2, 2.0544232e+2, -872954.4, -1037047.0, -104535.29, -0.029923074, 0.31273067, -822112.7, 104581.24, 0.0, 10.000945, 9.998798 
2.3500758e+2, 2.1543992e+2, -990608.94, -1035015.56, -87053.0, 0.020688178, 0.16511056, -922972.3, -94253.69, 0.0, 9.999424, 9.998871 
2.3500742e+2, 2.2543919e+2, -781905.9, -738932.25, 43986.223, 0.05570372, 0.14333655, -711465.3, 19257.36, 0.0, 9.999577, 10.000149 
2.350086e+2, 2.354398e+2, -465064.56, -546080.3, 89575.2, 0.074208476, 0.16677375, -407263.7, 225446.84, 0.0, 10.00112, 10.00006 
2.3500738e+2, 2.4543951e+2, -480659.2, -696823.5, -41938.367, 0.042483, 0.22539894, -472807.84, 61905.0, 0.0, 10.001169, 9.998327 
2.3500417e+2, 2.5543836e+2, -562911.0, -686183.56, -57111.617, -0.028419029, 0.25231788, -540518.9, -103790.82, 0.0, 9.9999275, 9.99833 
2.350036e+2, 2.6543733e+2, -523337.34, -569042.6, -1428.0128, 0.03172683, 0.299331, -523292.75, -184551.4, 0.0, 9.999341, 9.9987335 
2.3500529e+2, 2.7543622e+2, -439726.53, -482048.1, -16214.063, 0.2011589, 0.2874104, -434228.8, -193473.58, 0.0, 9.999241, 9.998715 
2.350039e+2, 2.8543562e+2, -239780.28, -226638.48, -78512.01, 0.12602575, 0.3099158, -154422.89, -11661.874, 0.00000009734078, 9.99948, 9.999681 
2.3499988e+2, 2.954356e+2, -101728.984, -119185.82, -61020.0, -0.14836101, 0.3121163, -48816.3, -4057.5889, 0.0000024854203, 9.99979, 9.9995985 
2.3500083e+2, 3.054346e+2, 41349.047, 78646.32, -1305.9978, -0.01611272, 0.2142185, 78691.99, 78691.99, 0.00001465121, 10.000004, 10.000525 
2.3500168e+2, 3.1543556e+2, 27990.18, 36000.902, 143590.53, 0.0062339306, 0.22241773, 175641.92, 175641.92, 0.000049295926, 10.000013, 10.000231 
2.4501398e+2, 1.2544653e+2, -1582683.0, -1647801.8, 56101.426, -0.13317989, 0.104334846, -1550377.3, 160262.67, 0.0007416808, 10.000837, 10.000042 
2.4501227e+2, 1.354469e+2, -1542138.4, -1631204.6, -68762.63, -0.18820022, 0.16025893, -1504747.8, 107886.44, 0.00038814702, 10.000716, 9.999545 
2.4501242e+2, 1.4544593e+2, -1526909.9, -1645280.4, -6377.826, -0.07294295, 0.14478903, -1526567.3, -11920.78, 0.00013769997, 10.000428, 9.998907 
2.4501152e+2, 1.5544668e+2, -1478779.6, -1580590.6, 15776.488, -0.1292987, 0.30896717, -1476391.0, -59745.273, 0.000025817635, 10.000141, 9.998814 
2.450106e+2, 1.6544636e+2, -1313143.8, -1364961.6, 8328.464, -0.13752386, 0.3595972, -1311838.1, 6813.305, 0.0000016011192, 10.000238, 9.999575 
2.4501011e+2, 1.7544478e+2, -1168968.9, -1247918.8, -4088.6443, -0.06658013, 0.21731421, -1168757.8, 51907.76, 0.0000000006420841, 10.0005665, 9.99955 
2.4501036e+2, 1.8544397e+2, -1149994.6, -1278466.3, 66048.29, -0.016890435, 0.22772115, -1122096.8, 577.7677, 0.0, 10.00042, 9.998731 
2.4501112e+2, 1.9544375e+2, -1139405.8, -1223553.4, 48541.01, -0.0014180994, 0.30695134, -1117242.1, -92562.48, 0.0, 9.999828, 9.998718 
2.4501027e+2, 2.054428e+2, -946469.9, -1048843.9, -42475.85, 0.010749189, 0.32885608, -931141.44, -4450.471, 0.0, 10.000341, 9.999002 
2.4500819e+2, 2.1544114e+2, -650119.44, -849163.4, -36181.918, 0.03256149, 0.23625186, -643746.44, 184961.69, 0.0, 10.001678, 9.999055 
2.4500781e+2, 2.254404e+2, -545898.56, -649724.5, 59279.363, 0.057231836, 0.21428359, -519014.3, 211698.0, 0.0, 10.001296, 9.999934 
2.4500892e+2, 2.3544036e+2, -725245.94, -692965.5, -9017.991, 0.08579437, 0.19130187, -690617.0, -57910.355, 0.0, 9.999428, 9.999864 
2.4500793e+2, 2.4543975e+2, -767528.2, -856215.0, -135715.53, 0.08097511, 0.23879758, -669095.4, -134382.92, 0.0, 9.999286, 9.998148 
2.4500522e+2, 2.5543863e+2, -473998.44, -662711.7, -127625.97, 0.05701866, 0.28541303, -409636.56, 27092.115, 0.0, 10.000621, 9.99816 
2.4500425e+2, 2.6543757e+2, -305544.16, -487677.94, -31852.727, 0.08850903, 0.34655318, -300134.22, 38608.21, 0.0, 10.000928, 9.998535 
2.4500477e+2, 2.7543643e+2, -285509.47, -425982.72, -31611.064, 0.17305225, 0.35472026, -278723.75, -37968.54, 0.0, 10.000387, 9.998547 
2.4500349e+2, 2.854354e+2, -158841.92, -213792.84, -57239.6, 0.1101997, 0.35294273, -122825.086, 19939.291, 0.00000009803459, 10.000151, 9.999449 
2.4500069e+2, 2.9543433e+2, -56480.773, -120157.875, -93324.52, -0.06238049, 0.2735329, 10286.762, 55057.97, 0.0000023443192, 10.000202, 9.999393 
2.4500111e+2, 3.054334e+2, -29726.006, 5069.26, -68896.5, 0.03389124, 0.20766588, 58730.793, 58730.793, 0.000014050109, 9.9997015, 10.00016 
2.4500084e+2, 3.154342e+2, -151740.63, -18710.557, 13477.63, -0.002825907, 0.23460019, -17358.836, -17358.836, 0.000047419504, 9.998675, 10.0004835 
2.5501367e+2, 1.2544577e+2, -1615355.1, -1711057.9, 31651.768, -0.29506123, 0.043129433, -1605834.1, 104813.0, 0.000622871, 10.00082, 9.999616 
2.5501305e+2, 1.3544662e+2, -1546965.0, -1636484.6, -68093.17, -0.20230801, 0.16214415, -1510237.9, 102399.445, 0.00031436078, 10.000708, 9.999509 
2.5501308e+2, 1.4544536e+2, -1473211.1, -1528235.9, -28732.285, -0.07795344, 0.07673107, -1460943.1, 53707.375, 0.00010539114, 10.000401, 9.999724 
2.5501135e+2, 1.5544601e+2, -1424112.5, -1464061.8, 15712.734, -0.18679872, 0.14606601, -1418673.0, -2026.345, 0.000019009012, 10.000125, 9.99962 
2.5501063e+2, 1.6544609e+2, -1333363.9, -1388169.3, 12200.338, -0.17983533, 0.20422561, -1330770.6, -12123.141, 0.0000013062046, 10.000164, 9.999449 
2.5501114e+2, 1.754454e+2, -1182514.1, -1267168.9, 17717.563, -0.04270983, 0.16299967, -1178955.5, 41699.566, 0.000000000635992, 10.000537, 9.999427 
2.5501117e+2, 1.8544443e+2, -1165909.1, -1299044.5, 35406.695, 0.00014937372, 0.17039792, -1157078.6, -34411.68, 0.0, 10.0003605, 9.998621 
2.5501066e+2, 1.9544317e+2, -1151061.0, -1235224.9, 38409.402, -0.054779172, 0.15215842, -1136167.8, -111484.32, 0.0, 9.999771, 9.998665 
2.550102e+2, 2.0544347e+2, -946407.7, -1020806.75, -208.87918, -0.052164353, 0.289591, -946407.06, -19723.076, 0.0, 10.000221, 9.999253 
2.5500974e+2, 2.1544498e+2, -648659.3, -827543.3, 18425.695, -0.0011823919, 0.48835173, -646781.1, 181891.27, 0.0, 10.001597, 9.999242 
2.550086e+2, 2.254442e+2, -662246.0, -869812.56, -20943.496, -0.012766809, 0.5313203, -660153.9, 70526.734, 0.0, 10.001204, 9.998468 
2.5500682e+2, 2.3544134e+2, -836379.75, -901181.0, -64472.746, -0.08717493, 0.3726957, -796624.06, -163916.84, 0.0, 9.99933, 9.998482 
2.5500673e+2, 2.4543937e+2, -751882.06, -808740.1, -94317.49, 0.013190755, 0.3262539, -681802.2, -147075.4, 0.0, 9.999223, 9.998502 
2.5500807e+2, 2.5543794e+2, -463432.75, -620074.25, -73302.74, 0.25723383, 0.30798256, -434480.8, 2261.1863, 0.0, 10.000527, 9.998499 
2.5500625e+2, 2.6543695e+2, -294911.72, -453076.56, -60920.254, 0.17183368, 0.3500143, -274167.75, 64583.375, 0.0, 10.000878, 9.998796 
2.5500175e+2, 2.7543628e+2, -280120.2, -399950.94, -40452.043, -0.19122837, 0.37843776, -267742.97, -26986.822, 0.0, 10.000317, 9.998765 
2.5500098e+2, 2.854349e+2, -213173.31, -311917.13, -65505.766, -0.177433, 0.367521, -180517.22, -37748.98, 0.00000013920514, 10.0001, 9.998792 
2.5500324e+2, 2.9543275e+2, -116600.36, -217377.31, -85839.28, 0.14877172, 0.23976871, -67453.016, -22664.744, 0.0000022917138, 10.000093, 9.998771 
2.5500327e+2, 3.054313e+2, -97000.37, -135158.64, -113642.414, 0.2583866, 0.2063753, -846.64404, -846.64404, 0.000012885881, 9.999702, 9.999198 
2.549988e+2, 3.1543222e+2, -197509.56, -110104.77, 23813.607, -0.12658982, 0.35228118, -104037.83, -104037.83, 0.000044516015, 9.998654, 9.999874 
2.6501566e+2, 1.2544629e+2, -1441912.8, -1634195.4, 13404.047, -0.22928348, 0.14830846, -1440982.9, 269665.03, 0.0005136847, 10.002014, 9.999568 
2.6501396e+2, 1.3544708e+2, -1457851.0, -1562611.4, -94593.35, -0.19227467, 0.22570853, -1402103.5, 210534.0, 0.0002486243, 10.001145, 9.999815 
2.650131e+2, 1.4544572e+2, -1440673.8, -1449143.1, -18931.146, -0.107657045, 0.08749134, -1425509.4, 89139.47, 0.00007773356, 10.000367, 10.000278 
2.6501155e+2, 1.5544629e+2, -1392022.5, -1390568.1, -17173.965, -0.17124408, 0.09232921, -1374106.0, 42536.305, 0.000013419433, 10.000102, 10.000136 
2.6501113e+2, 1.6544652e+2, -1343542.9, -1432966.6, 5807.5913, -0.14173906, 0.15986098, -1343167.4, -24525.748, 0.0000010267595, 10.00026, 9.999101 
2.6501197e+2, 1.7544623e+2, -1188613.1, -1305732.3, -25459.82, -0.013973352, 0.19434434, -1183318.0, 37330.26, 0.0000000012219834, 10.000645, 9.99911 
2.650119e+2, 1.8544541e+2, -1048395.4, -1209627.8, 880.62085, 0.007984059, 0.21674033, -1048390.56, 74268.586, 0.0, 10.001028, 9.998912 
2.65011e+2, 1.954441e+2, -905523.7, -1089537.1, 12280.106, -0.06984336, 0.1680339, -904707.8, 119966.516, 0.0, 10.001334, 9.998917 
2.650105e+2, 2.0544437e+2, -855543.8, -981755.3, 1855.5431, -0.066474944, 0.2896251, -855516.5, 71158.02, 0.0, 10.000871, 9.999207 
2.6501042e+2, 2.154458e+2, -935569.9, -976643.3, -24226.22, 0.0065400903, 0.48916996, -924347.06, -95683.74, 0.0, 9.999675, 9.999147 
2.650093e+2, 2.2544491e+2, -888102.3, -1010700.7, -26813.857, 0.012269514, 0.5397203, -882494.3, -151820.55, 0.0, 9.999785, 9.998187 
2.6500735e+2, 2.3544198e+2, -618451.5, -831137.44, -3141.1958, -0.04078112, 0.40314066, -618405.1, 14297.843, 0.0, 10.000967, 9.99818 
2.6500726e+2, 2.4543983e+2, -452199.63, -660971.06, 42625.26, 0.046612896, 0.35732865, -443832.13, 90892.03, 0.0, 10.001284, 9.998517 
2.650087e+2, 2.554382e+2, -401402.78, -582896.6, 22863.879, 0.2528326, 0.31787986, -398566.78, 38173.094, 0.0, 10.000942, 9.998543 
2.6500663e+2, 2.65437e+2, -314677.78, -443635.94, 5196.508, 0.13836017, 0.3254883, -314468.72, 24281.02, 0.0, 10.000656, 9.998972 
2.6500165e+2, 2.7543622e+2, -249897.31, -363332.9, -752.0261, -0.23342648, 0.32338852, -249892.33, -9138.115, 0.0, 10.000441, 9.998952 
2.6500112e+2, 2.8543493e+2, -214926.8, -366009.7, 12053.798, -0.17690295, 0.3351539, -213971.16, -71205.48, 0.00000017298198, 10.000299, 9.99833 
2.6500428e+2, 2.954329e+2, -125795.37, -264644.44, -10973.268, 0.24462472, 0.26503658, -124933.5, -80147.15, 0.000002277503, 10.000192, 9.99841 
2.6500347e+2, 3.0543128e+2, -60151.34, -147442.05, 3820.0735, 0.30069655, 0.2387398, -59984.48, -59984.48, 0.000011802607, 10.000068, 9.998955 
2.649983e+2, 3.1543145e+2, -45294.07, -47682.07, 181343.05, -0.085639186, 0.3430434, 134858.9, 134858.9, 0.000041814666, 9.999726, 9.999799 
2.750194e+2, 1.2544793e+2, -1417413.9, -1583713.5, -50796.55, -0.11360758, 0.3998895, -1403125.6, 307518.4, 0.00042107303, 10.0020075, 9.99992 
2.7501452e+2, 1.3544835e+2, -1403348.5, -1452369.3, -125192.266, -0.27750814, 0.3657164, -1300289.9, 312344.1, 0.00019522583, 10.001157, 10.000565 
2.7501208e+2, 1.4544716e+2, -1425485.5, -1413781.0, -45379.227, -0.27512583, 0.19209915, -1373878.3, 140762.25, 0.000056360343, 10.000352, 10.000528 
2.7501193e+2, 1.5544754e+2, -1378754.1, -1359556.6, -14804.356, -0.16944678, 0.15641993, -1351511.5, 65120.484, 0.000009372096, 10.000093, 10.000353 
2.7501196e+2, 1.6544765e+2, -1384379.5, -1510286.0, 11341.15, -0.110807545, 0.22834161, -1383366.1, -64732.773, 0.0000008660051, 10.00023, 9.99858 
2.750122e+2, 1.7544727e+2, -1227273.0, -1379633.1, -1983.6019, -0.080628276, 0.30480808, -1227247.3, -6601.826, 0.000000004874734, 10.000622, 9.9986105 
2.7501217e+2, 1.8544693e+2, -1016640.94, -1123148.8, 3255.2058, -0.08881979, 0.3664193, -1016541.56, 106109.79, 0.0, 10.000943, 9.999544 
2.7501184e+2, 1.9544664e+2, -870368.44, -1001997.6, 31886.277, -0.14407521, 0.35388958, -863051.0, 161601.14, 0.0, 10.00128, 9.999539 
2.75011e+2, 2.0544559e+2, -897710.25, -1049045.0, -52528.773, -0.1223421, 0.33826032, -881264.5, 45397.125, 0.0, 10.000784, 9.998789 
2.7500984e+2, 2.1544364e+2, -975793.06, -1032752.1, -55634.957, -0.041473746, 0.23808011, -941771.94, -113090.97, 0.0, 9.999559, 9.998816 
2.7500963e+2, 2.2544254e+2, -851368.5, -903588.75, 9158.889, 0.04599774, 0.24181907, -849808.7, -119117.195, 0.0, 9.999654, 9.998986 
2.7501026e+2, 2.354421e+2, -580571.4, -726831.56, 46206.613, 0.13162227, 0.27487665, -567196.75, 65498.64, 0.0, 10.000857, 9.99895 
2.750092e+2, 2.4544106e+2, -481610.16, -707599.6, 19982.77, 0.09214669, 0.31813496, -479856.8, 54849.137, 0.0, 10.001222, 9.998225 
2.7500674e+2, 2.5543937e+2, -432629.06, -631834.3, 18941.178, -0.05858376, 0.29782832, -430844.06, 5879.851, 0.0, 10.000867, 9.998246 
2.7500513e+2, 2.654377e+2, -318490.9, -438497.22, -15314.672, -0.09860297, 0.26877776, -316567.38, 22171.66, 0.0, 10.000604, 9.999031 
2.7500415e+2, 2.7543604e+2, -260040.77, -365969.72, -456.05618, -0.049783733, 0.17736937, -260038.81, -19287.098, 0.00000000009324417, 10.0003605, 9.998974 
2.750037e+2, 2.8543517e+2, -232865.89, -392468.16, -2188.1394, 0.025003795, 0.24014917, -232835.89, -90076.02, 0.00000023612336, 10.000258, 9.998164 
2.750034e+2, 2.9543468e+2, -139858.73, -279892.63, -4517.2266, 0.109617814, 0.34058547, -139713.16, -94946.16, 0.0000024951785, 10.000132, 9.998333 
2.750013e+2, 3.0543336e+2, -20727.129, -60733.613, -16315.619, 0.0527722, 0.3128152, -14917.02, -14917.02, 0.000011675634, 10.000056, 9.999548 
2.7499858e+2, 3.1543198e+2, -33423.633, -948.71075, 200162.6, -0.08242485, 0.21224391, 183633.95, 183633.95, 0.000040361934, 9.999633, 10.000161 
2.8502125e+2, 1.2544952e+2, -1583817.8, -1696990.6, 120614.33, -0.06976299, 0.41389266, -1507175.6, 203451.63, 0.00034660724, 10.001024, 9.99961 
2.85016e+2, 1.3544971e+2, -1469856.5, -1491495.9, -52150.07, -0.21669501, 0.36663526, -1427415.5, 185205.47, 0.00015383559, 10.000754, 10.000479 
2.8501296e+2, 1.4544883e+2, -1391155.6, -1449813.8, 19482.242, -0.23706453, 0.25307077, -1385274.6, 129351.07, 0.00004093297, 10.000813, 10.000062 
2.8501326e+2, 1.5544878e+2, -1238642.3, -1342959.4, -25270.912, -0.09495165, 0.22118287, -1232842.9, 183779.95, 0.0000066741927, 10.001261, 9.999911 
2.850131e+2, 1.6544853e+2, -1242856.4, -1429417.6, 14668.405, -0.05791262, 0.2745018, -1241710.1, 76917.45, 0.00000074756446, 10.001157, 9.998692 
2.850126e+2, 1.7544793e+2, -1220737.8, -1368390.1, 27920.924, -0.09650619, 0.32281283, -1215634.4, 5006.7075, 0.000000006090155, 10.0006275, 9.998694 
2.850125e+2, 1.8544774e+2, -1104974.1, -1141254.4, 61598.316, -0.10808101, 0.38386217, -1058900.4, 63744.19, 0.0, 10.000233, 9.999763 
2.8501272e+2, 1.9544789e+2, -1059238.1, -1072945.8, 36248.035, -0.106263235, 0.39624372, -1029201.6, -4561.736, 0.0, 9.999892, 9.999725 
2.8501198e+2, 2.0544653e+2, -979366.9, -1085425.4, -38205.56, -0.07008945, 0.33860156, -967037.4, -40386.285, 0.0, 10.000214, 9.998807 
2.8501037e+2, 2.154437e+2, -765552.4, -930962.8, -29124.281, -0.0074976906, 0.14897376, -760574.2, 68103.27, 0.0, 10.001004, 9.998816 
2.850102e+2, 2.2544245e+2, -665996.1, -798516.5, 55795.605, 0.08276014, 0.13157946, -645633.25, 85055.63, 0.0, 10.000867, 9.99912 
2.850112e+2, 2.3544247e+2, -704957.56, -770791.6, 23687.188, 0.19376247, 0.19795452, -697320.75, -64632.41, 0.0, 9.999939, 9.999088 
2.8500986e+2, 2.4544193e+2, -669222.25, -754911.75, 18357.785, 0.11413469, 0.2621727, -665455.0, -130761.26, 0.0, 9.999738, 9.998616 
2.8500658e+2, 2.5544086e+2, -508331.03, -628056.56, 48030.17, -0.120062806, 0.26590896, -491444.53, -54740.207, 0.0, 10.00018, 9.9986 
2.850052e+2, 2.6543936e+2, -379022.06, -508470.84, 32732.78, -0.13109216, 0.25637662, -371215.88, -32497.451, 0.0, 10.00037, 9.998656 
2.8500548e+2, 2.7543733e+2, -291087.7, -420021.44, -2076.9375, 0.058162015, 0.16227983, -291054.25, -50317.117, 0.0000000018932573, 10.000311, 9.998624 
2.8500503e+2, 2.8543606e+2, -191410.84, -371853.4, 25717.36, 0.12598772, 0.20074356, -187817.08, -45067.56, 0.00000028816427, 10.000537, 9.998178 
2.8500375e+2, 2.9543543e+2, 4246.17, -203074.27, 16773.78, 0.088264495, 0.28789356, 5594.5254, 50351.395, 0.0000027347362, 10.0011, 9.998391 
2.8500086e+2, 3.0543438e+2, 65839.695, -66266.63, -50706.766, -0.025546286, 0.30279374, 83058.35, 83058.35, 0.000012525966, 10.000838, 9.999128 
2.8499925e+2, 3.1543258e+2, -94870.16, -67598.4, 53473.953, 0.04645566, 0.20276554, -26049.129, -26049.129, 0.000040482082, 9.999368, 9.99982 
2.9502046e+2, 1.2545122e+2, -1648605.9, -1844973.1, 68368.47, -0.3137511, 0.20651649, -1627147.3, 83449.17, 0.00028487924, 10.001072, 9.998574 
2.950181e+2, 1.3545115e+2, -1539982.8, -1641102.0, -57378.168, -0.111252196, 0.23131661, -1514066.8, 98531.83, 0.000121053716, 10.000778, 9.999437 
2.9501548e+2, 1.4545067e+2, -1471648.0, -1622494.4, 20582.69, -0.10122679, 0.26890504, -1468890.0, 45715.39, 0.000029834508, 10.000823, 9.998878 
2.9501513e+2, 1.5544991e+2, -1318204.6, -1505606.0, -2788.139, -0.060757883, 0.2818705, -1318163.1, 98451.984, 0.000004731658, 10.001248, 9.9988 
2.950143e+2, 1.6544917e+2, -1201538.5, -1331430.4, -13727.794, -0.07936993, 0.30425915, -1200103.5, 118520.875, 0.00000054097734, 10.00111, 9.999383 
2.950129e+2, 1.7544836e+2, -1174932.8, -1266597.6, 21745.68, -0.15772519, 0.25798598, -1170035.6, 50598.387, 0.0000000012704189, 10.000609, 9.999395 
2.9501262e+2, 1.8544796e+2, -1130976.3, -1183228.0, 39123.863, -0.14516397, 0.27702212, -1110057.0, 12580.842, 0.0, 10.000176, 9.999505 
2.9501337e+2, 1.9544779e+2, -1084837.6, -1112135.9, 35280.34, -0.058034573, 0.28260854, -1060658.1, -36019.766, 0.0, 9.999833, 9.999483 
2.9501307e+2, 2.054471e+2, -965835.6, -1031886.94, -15953.283, -0.004865139, 0.28335273, -962184.3, -35540.793, 0.0, 10.000106, 9.999225 
2.9501173e+2, 2.1544589e+2, -753933.4, -880285.44, 9054.568, 0.006296212, 0.21343559, -753287.8, 75365.92, 0.0, 10.000894, 9.999213 
2.9501072e+2, 2.254446e+2, -723397.6, -887200.0, 11045.409, 0.027516909, 0.20043015, -722656.1, 8009.9517, 0.0, 10.000737, 9.998571 
2.9500997e+2, 2.3544315e+2, -754245.56, -846628.6, 1953.065, 0.058796644, 0.1722972, -754204.25, -121522.94, 0.0, 9.999829, 9.998618 
2.9500905e+2, 2.4544257e+2, -603324.5, -603364.25, 25718.518, 0.034706164, 0.20074725, -577625.9, -42940.207, 0.0, 9.999671, 9.999694 
2.9500788e+2, 2.5544265e+2, -447796.9, -488539.47, 72448.88, -0.0318203, 0.21823631, -392909.78, 43771.684, 0.0, 10.000114, 9.999597 
2.9500663e+2, 2.6544183e+2, -437887.78, -623430.3, 22430.13, -0.05229977, 0.26903817, -435214.72, -96524.805, 0.0, 10.000336, 9.997885 
2.9500526e+2, 2.7544004e+2, -352163.47, -529791.9, 3296.262, -0.023059249, 0.27287734, -352102.34, -111391.4, 0.0000000016821552, 10.000236, 9.997906 
2.950048e+2, 2.854377e+2, -179817.95, -341980.94, 35355.813, 0.027111068, 0.22950247, -172444.7, -29711.068, 0.00000022409213, 10.000511, 9.998398 
2.9500493e+2, 2.9543516e+2, 7804.044, -188750.2, 51432.184, 0.0680127, 0.10335157, 20448.797, 65204.85, 0.0000026534976, 10.001062, 9.998512 
2.950019e+2, 3.054343e+2, -31712.613, -265311.22, -108522.7, -0.031584766, 0.20430599, 10922.252, 10922.252, 0.00001292508, 10.000824, 9.9977665 
2.949995e+2, 3.1543282e+2, -171105.17, -219518.42, 14403.868, 0.080058984, 0.26769504, -167143.86, -167143.86, 0.00004085486, 9.999336, 9.998791 
3.0502182e+2, 1.2545216e+2, -1651351.9, -1864071.9, -30766.072, -0.2754627, 0.08146344, -1646991.5, 63589.523, 0.00023189351, 10.001139, 9.99842 
3.0502033e+2, 1.3545181e+2, -1393412.0, -1609955.1, -131039.195, -0.017628817, 0.11471974, -1331701.3, 280885.34, 0.000094942065, 10.001935, 9.999108 
3.0501723e+2, 1.4545165e+2, -1374975.6, -1608656.5, 10760.793, -0.04041214, 0.21629015, -1374481.3, 140110.78, 0.000021738364, 10.001663, 9.998549 
3.0501634e+2, 1.5545063e+2, -1421049.1, -1592594.8, 21646.908, -0.030644374, 0.23963311, -1418359.8, -1752.6431, 0.0000030875526, 10.000719, 9.998448 
3.0501533e+2, 1.6544987e+2, -1253491.6, -1351434.5, 48283.6, -0.059015714, 0.2732643, -1233691.6, 84925.59, 0.0000002653173, 10.000714, 9.999436 
3.0501398e+2, 1.7544931e+2, -1052411.6, -1199353.4, 12449.983, -0.1423741, 0.24682488, -1051364.3, 169259.48, 0.0, 10.001408, 9.999472 
3.0501357e+2, 1.8544894e+2, -973142.7, -1098623.8, 11330.451, -0.112805985, 0.2589647, -972127.75, 150499.42, 0.0, 10.001224, 9.999584 
3.0501407e+2, 1.954485e+2, -1018118.2, -1078279.0, 14894.942, 0.013082502, 0.23469299, -1014632.44, 9997.792, 0.0, 10.000268, 9.999517 
3.0501375e+2, 2.0544808e+2, -976110.3, -1037327.06, 22616.135, 0.06252548, 0.25977826, -968661.4, -42027.727, 0.0, 10.00003, 9.999233 
3.0501267e+2, 2.154476e+2, -830679.06, -921455.7, -7361.2715, 0.042035934, 0.26561636, -830086.0, -1448.0542, 0.0, 10.00037, 9.999194 
3.0501124e+2, 2.2544643e+2, -736781.5, -891911.25, -11970.878, 0.016633417, 0.26278353, -735863.2, -5213.7417, 0.0, 10.000635, 9.99859 
3.0500957e+2, 2.3544455e+2, -606992.94, -772930.44, 1251.3789, -0.008393261, 0.19080685, -606983.5, 25684.42, 0.0, 10.0008335, 9.998639 
3.0500886e+2, 2.4544388e+2, -469644.34, -529188.44, 34103.46, 0.012431703, 0.20427807, -454145.88, 80526.695, 0.0, 10.000553, 9.999777 
3.050089e+2, 2.554441e+2, -463689.0, -482322.97, -6583.8755, 0.06862224, 0.22680603, -461597.5, -24931.018, 0.0, 9.999955, 9.999711 
3.050076e+2, 2.6544318e+2, -507682.75, -667606.0, -33531.688, 0.03919438, 0.26402324, -500936.63, -162260.94, 0.0, 9.999899, 9.997795 
3.0500525e+2, 2.7544102e+2, -338175.63, -534752.5, -19966.26, -0.047109973, 0.24302259, -336168.16, -95468.25, 0.00000000014964384, 10.000379, 9.9978075 
3.0500498e+2, 2.8543875e+2, -164624.0, -322064.88, 52789.008, -0.0045813704, 0.20343575, -148562.66, -5840.2866, 0.00000013461268, 10.000577, 9.998493 
3.0500624e+2, 2.954367e+2, -74986.53, -222443.0, 39588.848, 0.1252168, 0.11888411, -65030.063, -20289.67, 0.0000024184974, 10.000486, 9.998547 
3.0500305e+2, 3.0543575e+2, -44669.875, -313139.8, -88261.664, 0.0043027485, 0.23197524, -18252.586, -18252.586, 0.00001259153, 10.000911, 9.99741 
3.0500028e+2, 3.154338e+2, 138557.27, -64591.824, 57104.51, 0.12968709, 0.2823945, 153508.75, 153508.75, 0.000039631555, 10.001431, 9.998863 
3.1502482e+2, 1.2545255e+2, -1593145.4, -1747185.8, -54688.87, -0.13913785, 0.07005092, -1575704.1, 134874.81, 0.00018871382, 10.001163, 9.999208 
3.150222e+2, 1.3545193e+2, -1370868.6, -1547020.9, -98881.516, -0.044211436, 0.031131433, -1326525.1, 286057.47, 0.00007509751, 10.001891, 9.999553 
3.1501794e+2, 1.4545198e+2, -1349939.5, -1557975.5, -38075.86, -0.16640285, 0.11487688, -1343189.6, 171393.88, 0.00001598166, 10.001656, 9.998903 
3.1501657e+2, 1.5545091e+2, -1397158.4, -1544576.0, -475.1591, -0.105790146, 0.09422089, -1397156.9, 19441.758, 0.00000170519, 10.000727, 9.998772 
3.1501603e+2, 1.6545059e+2, -1298905.8, -1441275.3, 60706.81, -0.08645295, 0.18721221, -1276535.3, 42071.574, 0.000000057148895, 10.000688, 9.998838 
3.1501558e+2, 1.7545077e+2, -1095981.8, -1281277.1, 42066.87, -0.14490518, 0.29333124, -1086878.6, 133731.75, 0.0, 10.00137, 9.998928 
3.1501502e+2, 1.8545066e+2, -955020.7, -1047140.7, -35237.37, -0.111368865, 0.33753306, -943087.6, 179524.78, 0.0, 10.00116, 9.99997 
3.1501448e+2, 1.9545007e+2, -999316.0, -1024211.7, -9220.481, 0.007194723, 0.25671157, -996273.0, 28342.107, 0.0, 10.000205, 9.999917 
3.1501377e+2, 2.0544955e+2, -1026731.56, -1113347.8, 25057.238, 0.04243878, 0.27695715, -1020005.1, -93384.71, 0.0, 9.999911, 9.998766 
3.150128e+2, 2.1544893e+2, -878773.3, -991134.2, 15843.163, 0.00069936307, 0.31453446, -876582.1, -47952.938, 0.0, 10.000247, 9.998772 
3.150114e+2, 2.2544801e+2, -708519.7, -812739.5, -13235.463, -0.049281847, 0.3274504, -706865.06, 23772.88, 0.0, 10.000543, 9.999183 
3.1500968e+2, 2.3544666e+2, -582422.56, -703051.75, 16469.354, -0.10464706, 0.25188506, -580214.44, 52433.92, 0.0, 10.000748, 9.999166 
3.15009e+2, 2.4544574e+2, -536836.44, -657653.8, 997.67993, -0.053821024, 0.26093134, -536828.2, -2172.7222, 0.0, 10.000508, 9.998913 
3.1500918e+2, 2.5544518e+2, -534529.6, -604739.44, -21685.611, 0.084607214, 0.2886257, -528371.7, -91712.016, 0.0, 9.99985, 9.9989195 
3.1500787e+2, 2.6544344e+2, -469396.1, -580654.5, -24245.248, 0.05658955, 0.25122336, -464342.2, -125667.05, 0.0, 9.999865, 9.99841 
3.150052e+2, 2.7544034e+2, -303396.4, -451005.0, 7721.634, -0.11208854, 0.07483349, -302993.56, -62290.074, 0.00000000001473293, 10.000324, 9.99841 
3.1500515e+2, 2.8543913e+2, -174476.56, -337012.9, 38555.402, -0.06831167, 0.1170514, -165794.56, -23078.582, 0.000000108201135, 10.000552, 9.998401 
3.1500715e+2, 2.954399e+2, -93005.64, -245796.03, 47750.79, 0.13857484, 0.32182744, -79309.97, -34598.414, 0.0000023186144, 10.000418, 9.998423 
3.1500393e+2, 3.054387e+2, 1050.4956, -214902.53, -70638.51, -0.018453227, 0.38040853, 22103.926, 22103.926, 0.000012381474, 10.000895, 9.998093 
3.1500095e+2, 3.1543553e+2, 227081.94, 120890.77, 85149.586, -0.0030602973, 0.22920115, 274333.72, 274333.72, 0.000038035574, 10.001417, 10.000148 
3.2502633e+2, 1.2545441e+2, -1590268.3, -1664407.6, -6956.716, -0.07543017, 0.16549993, -1589621.1, 120944.25, 0.00015750076, 10.000811, 9.999943 
3.2502395e+2, 1.3545328e+2, -1440409.1, -1544508.1, -65077.78, -0.013425592, 0.031192334, -1409126.3, 203443.88, 0.00006189271, 10.00122, 9.999907 
3.2501942e+2, 1.4545335e+2, -1381097.4, -1568610.8, -25345.473, -0.16603228, 0.09969323, -1377732.0, 136837.36, 0.000012633238, 10.001408, 9.998958 
3.2501778e+2, 1.5545261e+2, -1265857.3, -1472464.3, -32286.816, -0.09241837, 0.10417483, -1260929.3, 155652.36, 0.0000008198343, 10.001573, 9.998868 
3.250172e+2, 1.6545235e+2, -1248338.4, -1382980.1, 80674.56, -0.03963938, 0.18263777, -1210585.5, 108002.875, 0.000000004124255, 10.000913, 9.99912 
3.250169e+2, 1.7545243e+2, -1334955.4, -1372928.6, 104956.49, -0.059142638, 0.25363344, -1247282.0, -26690.953, 0.0, 9.999629, 9.999141 
3.250161e+2, 1.8545239e+2, -1167292.9, -1167062.8, 68912.89, -0.042985566, 0.30587506, -1098264.9, 24327.566, 0.0, 9.999782, 9.999803 
3.2501516e+2, 1.9545217e+2, -884351.8, -985250.9, 28738.096, 0.0152333975, 0.27512145, -876740.75, 147852.88, 0.0, 10.001076, 9.999756 
3.250143e+2, 2.0545144e+2, -812067.06, -1029914.25, 65392.74, 0.033471186, 0.29087034, -793945.2, 132656.53, 0.0, 10.00146, 9.998594 
3.2501352e+2, 2.1545021e+2, -778054.75, -958947.94, 60872.582, 0.014817915, 0.28263128, -759478.1, 69138.35, 0.0, 10.001006, 9.998627 
3.2501233e+2, 2.254494e+2, -675942.2, -774134.44, 47855.18, -0.0140576735, 0.30213404, -656477.75, 74146.08, 0.0, 10.000665, 9.999391 
3.2501075e+2, 2.3544878e+2, -611622.5, -698174.94, 32731.422, -0.050732333, 0.27668664, -600638.44, 31988.016, 0.0, 10.000458, 9.999339 
3.2500976e+2, 2.4544756e+2, -584624.5, -744366.94, 26924.457, -0.019375708, 0.27731776, -580208.5, -45571.723, 0.0, 10.0004425, 9.998356 
3.250093e+2, 2.5544584e+2, -449360.13, -623468.44, 12785.098, 0.07282354, 0.24504144, -448426.3, -11772.762, 0.0, 10.000674, 9.998401 
3.250083e+2, 2.6544398e+2, -298892.44, -469752.5, 43877.383, 0.06367817, 0.20588818, -288283.34, 50386.676, 0.0, 10.000921, 9.998661 
3.250068e+2, 2.754416e+2, -158349.44, -354510.03, 27737.662, -0.024568154, 0.077026576, -154502.7, 86187.1, 0.00000000010851988, 10.00122, 9.998637 
3.2500646e+2, 2.8544042e+2, -121815.695, -345939.3, 30729.04, -0.00824372, 0.13001716, -117678.87, 25023.332, 0.00000014604628, 10.001053, 9.998107 
3.2500714e+2, 2.9544067e+2, -109316.32, -283237.44, 5583.4775, 0.10339176, 0.3115114, -109137.25, -64432.53, 0.0000023415487, 10.000435, 9.9981575 
3.2500386e+2, 3.054389e+2, -34314.137, -173807.34, -73282.06, -0.081527, 0.30336344, -2893.305, -2893.305, 0.000012312151, 10.00043, 9.998581 
3.250021e+2, 3.1543735e+2, 171979.28, 158009.53, 2785.8777, 0.013113333, 0.26083618, 172514.34, 172514.34, 0.000036624067, 10.000803, 10.000677 
3.350257e+2, 1.254577e+2, -1555995.6, -1582722.4, -63015.676, -0.2791393, 0.36630654, -1504942.0, 205598.77, 0.00013853858, 10.000778, 10.000514 
3.350253e+2, 1.3545589e+2, -1426960.0, -1497502.8, -46956.242, -0.02511433, 0.12794232, -1403503.5, 209045.5, 0.000055370125, 10.00117, 10.000235 
3.3502138e+2, 1.4545585e+2, -1399802.9, -1598890.3, -34246.25, -0.14256263, 0.18102093, -1394076.6, 120471.77, 0.000011804474, 10.001366, 9.998773 
3.3501962e+2, 1.5545592e+2, -1272720.5, -1481275.3, -19039.225, -0.09128014, 0.28236684, -1270996.6, 145557.27, 0.00000057438905, 10.001554, 9.998816 
3.3501855e+2, 1.6545534e+2, -1177263.5, -1230573.1, 22116.924, -0.019696793, 0.27298635, -1169282.5, 149277.4, 0.00000000201948, 10.000886, 10.000184 
3.3501762e+2, 1.7545426e+2, -1267089.5, -1231024.4, 71999.08, 0.022092637, 0.123005375, -1174834.0, 45731.75, 0.0, 9.99962, 10.000122 
3.3501658e+2, 1.8545413e+2, -1233983.6, -1284644.3, 107197.22, -0.0022840337, 0.16052201, -1149164.6, -26597.357, 0.0, 9.999692, 9.99904 
3.350157e+2, 1.9545466e+2, -945348.25, -1095094.0, 83218.59, -0.061698932, 0.28013614, -908277.94, 116288.945, 0.0, 10.001008, 9.999033 
3.3501506e+2, 2.0545371e+2, -814479.6, -1013364.5, 37767.77, -0.05494866, 0.30018327, -807549.1, 119028.98, 0.0, 10.0013685, 9.998754 
3.350145e+2, 2.1545139e+2, -784094.2, -942610.6, 53260.83, -0.0061876983, 0.16594933, -767861.2, 60739.297, 0.0, 10.000885, 9.998797 
3.3501363e+2, 2.2545053e+2, -704651.3, -809118.75, 29423.986, 0.03185432, 0.18496053, -696934.0, 33673.535, 0.0, 10.000561, 9.999198 
3.350125e+2, 2.3545086e+2, -640804.4, -729818.8, 32430.117, 0.05923959, 0.27135378, -630242.5, 2359.8188, 0.0, 10.000339, 9.999176 
3.350109e+2, 2.4544935e+2, -604637.6, -778031.25, 27463.37, 0.028523194, 0.26038653, -600391.75, -65775.63, 0.0, 10.000403, 9.998145 
3.350089e+2, 2.554462e+2, -475002.1, -659638.1, 30373.512, -0.05669818, 0.09998679, -470133.88, -33486.74, 0.0, 10.000602, 9.998186 
3.3500856e+2, 2.654448e+2, -315492.66, -498922.7, 45723.453, -0.018927025, 0.13050903, -304727.06, 33932.76, 0.0, 10.000896, 9.998471 
3.3500963e+2, 2.754447e+2, -182532.9, -386439.25, 47190.2, 0.11230462, 0.24662466, -172141.22, 68518.086, 0.000000000044508567, 10.001141, 9.998454 
3.3500868e+2, 2.8544262e+2, -152720.89, -410458.97, -1526.7202, 0.081896104, 0.23852542, -152711.84, -10031.105, 0.00000018851506, 10.001043, 9.997673 
3.3500585e+2, 2.9543915e+2, -145062.1, -353387.28, -4795.968, -0.09736594, 0.09270011, -144951.75, -100233.28, 0.0000023038672, 10.000406, 9.997697 
3.3500245e+2, 3.0543637e+2, -22267.59, -148524.38, -65837.414, -0.29171628, -0.0019719787, 5816.728, 5816.728, 0.000011796056, 10.000429, 9.998755 
3.3500308e+2, 3.1543916e+2, 134392.84, 99694.63, 26933.72, -0.020769598, 0.37166885, 149081.47, 149081.47, 0.000034748333, 10.0007105, 10.000327 
3.4502697e+2, 1.254599e+2, -1619069.0, -1614999.6, 1954.2684, -0.19261621, 0.37498528, -1614213.1, 96306.85, 0.00012841672, 10.000371, 10.000488 
3.4502643e+2, 1.3545817e+2, -1508432.6, -1571945.0, -32025.521, 0.0039332663, 0.17475125, -1495087.9, 117441.125, 0.00005393956, 10.00074, 9.999952 
3.4502274e+2, 1.4545771e+2, -1460812.8, -1623527.1, -8241.235, -0.10945501, 0.19811371, -1460396.4, 54136.637, 0.00001321429, 10.000939, 9.998799 
3.4502107e+2, 1.5545791e+2, -1342818.9, -1519513.8, -15753.383, -0.071684, 0.31176916, -1341425.4, 75110.984, 0.00000089811203, 10.001089, 9.9987755 
3.4501982e+2, 1.6545728e+2, -1173181.4, -1234458.0, -33128.777, 0.021072295, 0.30254358, -1158695.1, 159846.88, 0.0000000015154811, 10.000932, 10.000135 
3.4501842e+2, 1.7545599e+2, -1139009.8, -1168869.1, -81478.45, 0.103480674, 0.1350277, -1071104.5, 149444.23, 0.0, 10.000508, 10.000114 
3.4501693e+2, 1.8545553e+2, -1153590.1, -1248582.4, 16998.393, 0.044653255, 0.13857917, -1150640.0, -28087.074, 0.0, 10.000258, 9.999017 
3.450157e+2, 1.9545552e+2, -1076883.1, -1161925.9, 32940.13, -0.11029785, 0.2092801, -1065616.8, -41059.344, 0.0, 10.000115, 9.999011 
3.4501544e+2, 2.054549e+2, -897293.25, -1016628.7, 24363.334, -0.11086294, 0.24637567, -892510.94, 34054.01, 0.0, 10.00064, 9.9990835 
3.450158e+2, 2.1545358e+2, -653805.7, -853088.56, 29679.371, 0.005494828, 0.18283404, -649479.44, 179097.34, 0.0, 10.001652, 9.999048 
3.4501517e+2, 2.2545263e+2, -603640.3, -820663.9, -19269.475, 0.08515177, 0.20819288, -601942.6, 128642.86, 0.0, 10.001521, 9.998654 
3.4501362e+2, 2.3545195e+2, -662229.7, -799066.5, -62436.355, 0.13916613, 0.24966712, -638023.2, -5431.072, 0.0, 10.000444, 9.998652 
3.4501192e+2, 2.4545017e+2, -596188.4, -751725.2, -8351.493, 0.09728441, 0.22618188, -595741.25, -61132.52, 0.0, 10.000381, 9.998332 
3.4501e+2, 2.5544724e+2, -377282.8, -597898.6, 3208.6655, -0.02767336, 0.07733434, -377236.16, 59399.64, 0.0, 10.001211, 9.998322 
3.4500957e+2, 2.654461e+2, -293869.63, -502549.47, 21816.26, -0.017089846, 0.13275133, -291613.25, 47033.434, 0.0, 10.001111, 9.998342 
3.4501028e+2, 2.7544624e+2, -317460.94, -465025.63, 9257.167, 0.11238953, 0.28885978, -316882.47, -76236.7, 0.0, 10.000275, 9.998333 
3.450091e+2, 2.8544432e+2, -295272.66, -464066.38, 5563.5347, 0.07763683, 0.29413116, -295089.5, -152423.45, 0.00000016974016, 10.000026, 9.997785 
3.4500614e+2, 2.954407e+2, -151118.03, -345880.6, 22380.807, -0.10149165, 0.12697609, -148579.27, -103875.78, 0.0000020169734, 10.00033, 9.997785 
3.45003e+2, 3.0543745e+2, 14883.864, -129856.95, 19242.355, -0.27940306, -0.019802777, 17398.33, 17398.33, 0.0000103175025, 10.000661, 9.998779 
3.4500432e+2, 3.154401e+2, 104762.31, 17778.217, 51603.03, 0.043232888, 0.32862762, 128756.79, 128756.79, 0.00003196276, 10.000782, 9.999728 
3.5502958e+2, 1.2546113e+2, -1666131.1, -1715636.4, -50817.05, -0.034693778, 0.20973377, -1634358.8, 76143.15, 0.00012227354, 10.000378, 9.999797 
3.5502696e+2, 1.3546027e+2, -1558143.3, -1673676.1, -8165.716, -0.04433785, 0.17723767, -1557569.0, 54940.145, 0.00005490219, 10.00075, 9.999241 
3.5502326e+2, 1.4545919e+2, -1452565.0, -1615442.9, -13689.212, -0.18844256, 0.16629037, -1451422.5, 63098.125, 0.000015641235, 10.000966, 9.998851 
3.5502186e+2, 1.5545863e+2, -1341679.3, -1525722.9, -2047.5087, -0.13117252, 0.20511208, -1341656.5, 74872.27, 0.0000017221555, 10.00112, 9.998722 
3.5502064e+2, 1.6545816e+2, -1254664.5, -1393358.6, -62151.69, -0.016586095, 0.27288583, -1230888.8, 87646.016, 0.000000007086625, 10.000886, 9.999066 
3.5501897e+2, 1.7545766e+2, -1209716.9, -1312476.5, -87020.27, 0.08494461, 0.28814647, -1160040.3, 60499.61, 0.0, 10.000493, 9.999136 
3.5501692e+2, 1.8545657e+2, -1114522.3, -1151535.6, 4447.066, -0.0047974032, 0.23785852, -1113995.4, 8554.118, 0.0, 10.000189, 9.999717 
3.5501492e+2, 1.9545488e+2, -1035118.9, -1063668.6, 39972.17, -0.2231889, 0.07106045, -1006949.1, 17615.016, 0.0, 10.000063, 9.999711 
3.5501516e+2, 2.0545512e+2, -881501.06, -960677.0, 53609.715, -0.21826367, 0.13923614, -854446.6, 72114.516, 0.0, 10.000537, 9.999518 
3.5501722e+2, 2.1545686e+2, -643284.2, -804401.8, 75018.5, -0.04066548, 0.3350595, -613763.5, 214781.42, 0.0, 10.001536, 9.999437 
3.5501662e+2, 2.2545575e+2, -685075.3, -968855.25, -66395.37, 0.061678495, 0.37545082, -670309.25, 60247.996, 0.0, 10.001429, 9.997684 
3.5501388e+2, 2.354521e+2, -740393.06, -940274.1, -90482.984, 0.10237753, 0.21796313, -705517.9, -72922.85, 0.0, 10.000352, 9.997727 
3.550125e+2, 2.4544999e+2, -572177.25, -684949.7, 13095.268, 0.098920405, 0.18139881, -570676.56, -36062.14, 0.0, 10.000313, 9.998821 
3.5501233e+2, 2.55449e+2, -357984.0, -535048.2, 38913.848, 0.06078384, 0.17499496, -349809.22, 86810.83, 0.0, 10.0011215, 9.998792 
3.550109e+2, 2.6544788e+2, -303921.28, -515808.44, -17386.51, -0.015415089, 0.21330152, -302504.1, 36126.695, 0.0, 10.001076, 9.998267 
3.5500845e+2, 2.754464e+2, -331056.44, -478969.1, -10093.36, -0.120840095, 0.21255319, -330370.84, -89722.94, 0.0, 10.000214, 9.998266 
3.5500744e+2, 2.854455e+2, -257714.97, -381025.88, 7748.387, -0.11221552, 0.29815745, -257229.98, -114572.17, 0.00000011654808, 10.000006, 9.9983635 
3.550076e+2, 2.9544523e+2, -118855.15, -266098.56, 46062.168, -0.015406559, 0.39957747, -105632.86, -60971.758, 0.0000016052002, 10.000279, 9.998354 
3.5500538e+2, 3.054421e+2, 16617.602, -132363.34, 20193.178, -0.13632476, 0.24143663, 19306.11, 19306.11, 0.000008325357, 10.000677, 9.998761 
3.5500515e+2, 3.1544065e+2, 37298.855, -113019.625, 72126.05, -0.008747811, 0.18531919, 66308.125, 66308.125, 0.000028550077, 10.000738, 9.998855 
3.6503068e+2, 1.254627e+2, -1768895.6, -1818619.6, -107084.13, 0.07488355, 0.18471871, -1683825.3, 26661.533, 0.000118926524, 9.999895, 9.999329 
3.6502752e+2, 1.3546242e+2, -1544421.8, -1696982.9, -39066.37, -0.060044836, 0.24157101, -1534999.9, 77491.41, 0.000056465244, 10.000971, 9.998969 
3.650248e+2, 1.4546104e+2, -1386518.5, -1541628.6, -20520.715, -0.13841835, 0.19477664, -1383849.5, 130655.18, 0.00001794202, 10.001253, 9.999216 
3.6502364e+2, 1.5546018e+2, -1359058.3, -1493389.0, -6652.556, -0.043047477, 0.16535273, -1358729.6, 57782.277, 0.000002788093, 10.000834, 9.999082 
3.650221e+2, 1.6545968e+2, -1265231.0, -1442521.8, 7225.712, 0.042916577, 0.23433043, -1264937.0, 53581.06, 0.00000008230677, 10.001008, 9.998671 
3.650196e+2, 1.7545936e+2, -1071539.1, -1288832.4, 6973.507, 0.04947036, 0.30864525, -1071315.6, 149209.13, 0.0, 10.001625, 9.9987545 
3.650176e+2, 1.8545838e+2, -920373.2, -1056646.6, 89911.81, -0.018362543, 0.28722078, -875697.0, 246837.05, 0.0, 10.001517, 9.999728 
3.6501625e+2, 1.954567e+2, -934767.0, -1014550.9, 58020.8, -0.12376113, 0.1233103, -904247.44, 120299.64, 0.0, 10.000751, 9.999719 
3.6501658e+2, 2.0545675e+2, -927154.8, -984083.0, 75936.63, -0.11179383, 0.17126471, -874522.8, 52022.813, 0.0, 10.000235, 9.999501 
3.6501816e+2, 2.1545807e+2, -880139.4, -918380.4, 40357.95, -0.012864441, 0.3267265, -854601.7, -26068.068, 0.0, 9.999918, 9.999431 
3.650174e+2, 2.2545683e+2, -804963.44, -1026406.0, -63684.62, 0.04450571, 0.3545385, -787954.8, -57407.48, 0.0, 10.000597, 9.997695 
3.650148e+2, 2.3545332e+2, -486104.6, -816196.44, -29821.348, 0.076843806, 0.21096173, -483432.1, 149151.69, 0.0, 10.002089, 9.9977455 
3.650136e+2, 2.4545139e+2, -350914.88, -609300.7, 76355.8, 0.10255531, 0.20249237, -330037.75, 204564.38, 0.0, 10.001944, 9.998569 
3.6501363e+2, 2.5545064e+2, -478697.2, -617644.1, 28530.283, 0.12590672, 0.24466024, -473067.13, -36460.785, 0.0, 10.000388, 9.998583 
3.6501202e+2, 2.6544923e+2, -473221.63, -600941.2, -28239.783, 0.051467896, 0.26672712, -467256.22, -128636.19, 0.0, 9.99993, 9.998235 
3.6500895e+2, 2.7544704e+2, -300171.1, -466543.22, -36783.938, -0.09803174, 0.2011362, -292401.25, -51757.254, 0.0, 10.000438, 9.998243 
3.6500794e+2, 2.8544614e+2, -136558.78, -296468.25, 2369.896, -0.0939335, 0.27006647, -136523.66, 6129.5605, 0.000000055764154, 10.000709, 9.9986105 
3.650086e+2, 2.9544634e+2, -34253.008, -196757.77, -4972.229, 0.040891383, 0.39746073, -34101.016, 10548.415, 0.0000011855267, 10.000738, 9.998607 
3.6500686e+2, 3.0544418e+2, 42260.504, -129353.81, -25252.926, -0.055750083, 0.32594806, 45899.297, 45899.297, 0.0000067298934, 10.000922, 9.998654 
3.6500672e+2, 3.1544206e+2, 54513.105, -148825.64, -20891.74, 0.065419465, 0.21761508, 56637.406, 56637.406, 0.000025648078, 10.001065, 9.998453 
3.7502953e+2, 1.2546489e+2, -1776378.8, -1844401.1, -114390.695, -0.079969026, 0.33713117, -1691050.1, 19421.842, 0.0001191897, 9.999928, 9.999132 
3.750279e+2, 1.3546479e+2, -1523863.5, -1660678.0, 7288.522, -0.15356456, 0.38482106, -1523476.3, 88997.98, 0.00005856906, 10.000992, 9.999206 
3.7502694e+2, 1.4546336e+2, -1343094.5, -1440559.3, -48953.707, -0.078857064, 0.2828573, -1322752.3, 191732.7, 0.000020069963, 10.001207, 9.999931 
3.750261e+2, 1.5546247e+2, -1305256.6, -1388259.8, -9517.756, 0.09096136, 0.18247059, -1304179.3, 112307.04, 0.0000038584762, 10.000859, 9.999792 
3.7502393e+2, 1.6546176e+2, -1256258.1, -1414677.6, 21044.338, 0.09935512, 0.18365623, -1253510.3, 64982.14, 0.00000020238203, 10.000971, 9.998878 
3.7502003e+2, 1.7546111e+2, -1065947.8, -1271444.4, 39011.49, -0.0946984, 0.20522316, -1058791.0, 161711.89, 0.0, 10.001597, 9.998889 
3.750186e+2, 1.8546093e+2, -977286.56, -1155339.0, 51710.83, -0.09315717, 0.2899848, -963358.06, 159148.75, 0.0, 10.001437, 9.999086 
3.750194e+2, 1.9546095e+2, -992835.7, -1112860.4, 40297.004, 0.09507663, 0.3577048, -980561.6, 43945.11, 0.0, 10.000662, 9.999081 
3.7501934e+2, 2.0545968e+2, -977711.44, -1070459.3, 54716.418, 0.12183892, 0.33380672, -952360.7, -25841.727, 0.0, 10.00015, 9.998952 
3.7501833e+2, 2.154572e+2, -928619.8, -993099.94, 39987.984, -0.0036523384, 0.16625507, -909493.9, -80951.125, 0.0, 9.999809, 9.99897 
3.7501726e+2, 2.2545594e+2, -745315.5, -882933.3, -19386.283, -0.0509125, 0.15897258, -742636.7, -12081.538, 0.0, 10.000504, 9.998727 
3.75016e+2, 2.3545554e+2, -431354.1, -682841.44, 29480.781, -0.03249434, 0.21954681, -427944.44, 204614.89, 0.0, 10.001996, 9.998707 
3.7501493e+2, 2.4545431e+2, -428704.28, -753334.94, 9944.255, 0.017079566, 0.28737321, -428399.97, 106171.95, 0.0, 10.001871, 9.997613 
3.7501377e+2, 2.554522e+2, -556064.7, -760918.4, -16305.9375, 0.07624451, 0.2904574, -554774.9, -118181.13, 0.0, 10.00031, 9.997638 
3.7501258e+2, 2.654502e+2, -480175.7, -606062.4, -17298.836, 0.094346784, 0.29939827, -477841.8, -139227.83, 0.0, 9.999894, 9.998215 
3.750114e+2, 2.754481e+2, -309509.75, -471384.06, -7434.216, 0.07837878, 0.24455278, -309169.03, -68534.445, 0.0, 10.000375, 9.9982395 
3.7501013e+2, 2.8544614e+2, -142431.16, -302176.4, -3999.1694, 0.032414105, 0.20879923, -142331.1, 321.0193, 0.00000003400916, 10.000679, 9.998588 
3.750088e+2, 2.9544422e+2, -45788.15, -208492.66, 7805.596, -0.041154638, 0.1287929, -45414.54, -747.07794, 0.000000899484, 10.000678, 9.998561 
3.7500712e+2, 3.0544367e+2, 17920.201, -171230.88, -23609.586, -0.14201611, 0.23528193, 20822.582, 20822.582, 0.000005766145, 10.000888, 9.998384 
3.750083e+2, 3.1544387e+2, 46493.027, -155336.5, 18391.71, 0.068887636, 0.39198115, 48155.28, 48155.28, 0.000023919054, 10.001018, 9.998435 
3.8502994e+2, 1.254663e+2, -1609633.1, -1742248.6, -32083.758, -0.076663576, 0.36112925, -1602279.0, 108179.46, 0.00012316402, 10.000996, 9.999313 
3.8502875e+2, 1.3546611e+2, -1513758.6, -1615379.3, 67050.9, -0.15262352, 0.3600875, -1480441.0, 132018.66, 0.000061385945, 10.000878, 9.999581 
3.8502902e+2, 1.4546469e+2, -1374858.0, -1461260.6, -9627.316, 0.023368986, 0.24357104, -1373798.3, 140671.42, 0.000022093489, 10.001012, 9.999883 
3.850274e+2, 1.5546384e+2, -1243453.0, -1361539.5, -59085.51, 0.12194761, 0.15095699, -1218966.5, 197504.64, 0.000004863891, 10.00131, 9.999752 
3.850249e+2, 1.6546322e+2, -1218171.9, -1382893.0, -36871.336, 0.09675614, 0.156609, -1210295.3, 108181.016, 0.00000029520132, 10.001152, 9.999018 
3.8502106e+2, 1.7546278e+2, -1208567.4, -1325877.6, -39225.965, -0.09455793, 0.18248248, -1196659.8, 23824.545, 0.0, 10.000542, 9.999027 
3.8501975e+2, 1.8546255e+2, -1127315.5, -1268707.1, -66.375786, -0.06995764, 0.27512777, -1127315.5, -4826.5527, 0.0, 10.000574, 9.998729 
3.850209e+2, 1.9546221e+2, -949390.75, -1135860.8, -12153.863, 0.1612064, 0.34275055, -948601.9, 75891.44, 0.0, 10.001127, 9.998709 
3.8502064e+2, 2.0546065e+2, -828421.5, -1017362.3, 43841.098, 0.18574302, 0.3152204, -818744.44, 107764.414, 0.0, 10.001261, 9.99878 
3.85019e+2, 2.1545793e+2, -758964.06, -933263.94, 41827.664, 0.023516292, 0.14145336, -749446.2, 79088.414, 0.0, 10.001055, 9.998789 
3.8501793e+2, 2.254569e+2, -680089.2, -823311.2, 16255.404, -0.0427189, 0.15296079, -678267.4, 52277.887, 0.0, 10.000847, 9.9989605 
3.8501734e+2, 2.3545715e+2, -608191.56, -742608.25, -20858.818, -0.027737463, 0.255947, -605029.1, 27515.025, 0.0, 10.000686, 9.99892 
3.8501626e+2, 2.4545613e+2, -560789.94, -804629.75, -49610.95, 0.019911641, 0.32644626, -551082.7, -16527.654, 0.0, 10.00092, 9.997706 
3.850147e+2, 2.5545382e+2, -373433.75, -668485.25, -13877.544, 0.08257056, 0.3012916, -372782.47, 63795.242, 0.0, 10.001544, 9.997674 
3.850137e+2, 2.654515e+2, -280607.66, -569375.75, 33851.816, 0.14144179, 0.30301863, -276692.34, 61909.06, 0.0, 10.001511, 9.997695 
3.850133e+2, 2.75449e+2, -267362.25, -503763.22, -13618.944, 0.21115807, 0.2596809, -266580.25, -25953.527, 0.0, 10.000894, 9.997767 
3.85012e+2, 2.8544652e+2, -152569.17, -326392.06, -5979.8135, 0.15772639, 0.20441905, -152363.69, -9714.336, 0.000000026095549, 10.000693, 9.998417 
3.850099e+2, 2.95444e+2, -36220.215, -221214.38, -21681.818, 0.0035308122, 0.08034129, -33713.027, 10957.124, 0.00000066980994, 10.000825, 9.998402 
3.8500804e+2, 3.0544358e+2, 20558.457, -165016.14, -23348.166, -0.13123377, 0.20268913, 23450.934, 23450.934, 0.000005131084, 10.00087, 9.998432 
3.8500947e+2, 3.1544372e+2, 23884.846, -120172.81, 19899.361, 0.113820896, 0.34263098, 26583.1, 26583.1, 0.000023468077, 10.000664, 9.998838 
3.950313e+2, 1.2546715e+2, -1593871.1, -1687324.5, -53979.734, -0.092956446, 0.2657455, -1569203.1, 141241.3, 0.0001272644, 10.00093, 9.999716 
3.950299e+2, 1.3546641e+2, -1485081.8, -1544282.1, 73445.42, -0.15005052, 0.15748335, -1435496.1, 176951.39, 0.00006380605, 10.000851, 10.000076 
3.950307e+2, 1.4546509e+2, -1446995.3, -1604948.4, -9318.335, 0.06252386, 0.0786136, -1446447.4, 68011.15, 0.000023677207, 10.000971, 9.998923 
3.9502722e+2, 1.5546422e+2, -1302023.4, -1489207.6, -39674.773, -0.05815053, 0.07400618, -1293961.4, 122505.78, 0.000005569423, 10.001328, 9.99887 
3.950247e+2, 1.6546397e+2, -1213701.8, -1358618.9, -73488.15, -0.06257438, 0.14881435, -1182957.9, 135512.83, 0.00000035120044, 10.001097, 9.99921 
3.950224e+2, 1.7546435e+2, -1202862.3, -1300576.6, -50443.465, -0.035932187, 0.23807013, -1181494.3, 38974.773, 0.0, 10.00049, 9.999227 
3.9502093e+2, 1.8546323e+2, -1145912.1, -1289213.5, 11643.201, -0.030044781, 0.23982882, -1144972.3, -22491.627, 0.0, 10.000493, 9.998631 
3.9502048e+2, 1.9546069e+2, -967274.4, -1149788.9, 16703.383, -0.01651468, 0.09808491, -965758.3, 58747.094, 0.0, 10.001034, 9.998656 
3.9502013e+2, 2.054598e+2, -826711.7, -988812.56, 25353.178, -0.006746156, 0.1286035, -822838.9, 103674.984, 0.0, 10.001152, 9.99903 
3.9501977e+2, 2.1546026e+2, -766165.1, -909838.9, 45332.973, -0.023131797, 0.2449742, -753057.2, 75451.92, 0.0, 10.000898, 9.999021 
3.950193e+2, 2.254597e+2, -739775.3, -922823.2, 1992.766, -0.014508181, 0.32713586, -739753.6, -9236.126, 0.0, 10.000737, 9.998333 
3.9501855e+2, 2.3545812e+2, -663425.75, -830595.56, -14823.989, 0.0070453417, 0.31123248, -662121.4, -29582.541, 0.0, 10.000572, 9.998371 
3.9501747e+2, 2.4545674e+2, -487575.9, -640252.4, -35330.445, 0.026402604, 0.31409547, -479796.56, 54755.367, 0.0, 10.000865, 9.998867 
3.9501613e+2, 2.554554e+2, -307997.6, -516875.63, 17477.818, 0.04765574, 0.2688434, -306545.22, 130014.24, 0.0, 10.001471, 9.998755 
3.9501512e+2, 2.6545307e+2, -358582.84, -719705.56, 2604.5637, 0.11045001, 0.27181363, -358564.06, -19981.352, 0.0, 10.001458, 9.996691 
3.9501435e+2, 2.754497e+2, -345195.3, -652852.3, -24863.15, 0.20378987, 0.24234328, -343198.97, -102577.93, 0.0, 10.000832, 9.99678 
3.9501318e+2, 2.8544727e+2, -178706.9, -365302.66, -9624.851, 0.18554014, 0.25276878, -178211.77, -35566.38, 0.000000010243951, 10.000642, 9.998169 
3.9501163e+2, 2.9544565e+2, -67179.01, -261433.17, -2695.7424, 0.06822574, 0.2487873, -67141.6, -22483.855, 0.0000005130985, 10.000731, 9.998168 
3.950093e+2, 3.0544385e+2, 49019.688, -102741.34, -35157.496, -0.11499336, 0.22279976, 56768.723, 56768.723, 0.0000059963604, 10.000853, 9.998869 
3.950096e+2, 3.154414e+2, 71183.2, -7110.7134, 48950.617, 0.012474943, 0.060541824, 94715.17, 94715.17, 0.000027743677, 10.000603, 9.999644 
4.0503222e+2, 1.2546732e+2, -1813478.6, -1758068.8, -61442.805, 0.004884305, 0.20156865, -1718373.5, -7932.433, 0.0001282802, 9.999236, 10.000062 
4.050303e+2, 1.3546701e+2, -1575976.3, -1552844.0, -16746.475, -0.14275262, 0.10086396, -1544057.8, 68380.91, 0.00006493345, 10.000062, 10.000404 
4.0503192e+2, 1.4546658e+2, -1521691.9, -1625724.1, -38769.973, 0.12551937, 0.08879559, -1508832.8, 5608.845, 0.00002457309, 10.0004, 9.99905 
4.0502787e+2, 1.5546612e+2, -1427803.8, -1539410.6, -13489.195, -0.072168715, 0.112422094, -1426196.5, -9748.342, 0.000005781208, 10.00041, 9.998969 
4.0502533e+2, 1.6546565e+2, -1273973.8, -1416962.0, -9234.384, -0.08672952, 0.17438322, -1273379.9, 45074.707, 0.0000003430959, 10.000813, 9.99894 
4.0502346e+2, 1.7546533e+2, -1070082.9, -1267155.4, -46171.367, -0.025154086, 0.22127956, -1059801.9, 160657.05, 0.0, 10.001534, 9.998949 
4.0502208e+2, 1.8546392e+2, -974239.8, -1215289.5, 19948.928, -0.017849553, 0.20813544, -972600.0, 149873.19, 0.0, 10.001722, 9.99854 
4.050215e+2, 1.9546127e+2, -923815.2, -1137985.8, 9876.943, -0.029181175, 0.06764528, -923360.7, 101137.96, 0.0, 10.001379, 9.9985695 
4.050209e+2, 2.0546046e+2, -853044.3, -982878.94, 12121.258, -0.028094152, 0.10227963, -851922.4, 74583.234, 0.0, 10.000892, 9.999193 
4.050202e+2, 2.154611e+2, -848857.3, -938101.4, 3527.564, -0.031422876, 0.2208946, -848718.06, -20219.785, 0.0, 10.00027, 9.999132 
4.0502e+2, 2.254605e+2, -834644.6, -997490.2, 11221.5205, 0.016312998, 0.30702335, -833875.0, -103367.42, 0.0, 10.000215, 9.998071 
4.0502006e+2, 2.3545872e+2, -667837.0, -863337.56, 4688.68, 0.10117244, 0.29741836, -667724.6, -35192.23, 0.0, 10.000667, 9.998104 
4.0501922e+2, 2.4545725e+2, -499846.44, -625998.75, -23195.738, 0.12696233, 0.29513288, -495716.6, 38830.36, 0.0, 10.000697, 9.999044 
4.050176e+2, 2.5545603e+2, -449779.94, -557257.75, -61752.805, 0.109282486, 0.24420254, -421657.5, 14895.557, 0.0, 10.000401, 9.998983 
4.0501642e+2, 2.654539e+2, -423580.34, -743534.9, -37982.113, 0.12642306, 0.252078, -419133.25, -80559.234, 0.0, 10.000976, 9.996757 
4.0501553e+2, 2.7545074e+2, -131995.48, -546594.75, -1488.6348, 0.17241333, 0.2341485, -131990.14, 108619.86, 0.0, 10.002276, 9.996809 
4.0501478e+2, 2.8544852e+2, 74103.3, -311993.75, 41041.586, 0.18634652, 0.2933788, 78417.75, 221051.63, 0.0000000008315615, 10.00266, 9.997565 
4.0501428e+2, 2.9544702e+2, 121277.36, -231066.72, 1676.8658, 0.18990652, 0.3566606, 121285.34, 165933.38, 0.0000007104038, 10.002274, 9.99763 
4.050113e+2, 3.0544448e+2, 160799.27, -48306.86, -51698.73, -0.031993534, 0.28292847, 172882.83, 172882.83, 0.000009515816, 10.001623, 9.998876 
4.0501046e+2, 3.1544095e+2, 82175.46, 2528.5989, -25037.205, 0.049133394, 0.013751431, 89392.086, 89392.086, 0.0000394484, 10.000644, 9.9997 
4.1503215e+2, 1.2546654e+2, -1782733.0, -1700740.0, -11517.372, 0.018149592, 0.15399955, -1699152.9, 11297.667, 0.0001259659, 9.999258, 10.000443 
4.1502964e+2, 1.3546804e+2, -1546801.8, -1506969.1, 18451.5, -0.2456887, 0.20042299, -1499735.5, 112696.38, 0.00006410072, 10.000111, 10.000696 
4.1503236e+2, 1.4546919e+2, -1442458.4, -1452177.5, -47646.28, 0.09774659, 0.27111948, -1399424.5, 114994.05, 0.00002430965, 10.000372, 10.000254 
4.1502917e+2, 1.5546961e+2, -1352354.4, -1371785.5, 1303.3762, -0.009321198, 0.2623676, -1352267.4, 64146.664, 0.0000053776803, 10.000373, 10.000134 
4.1502655e+2, 1.6546834e+2, -1341151.8, -1540277.8, 7591.555, -0.07016995, 0.2319473, -1340862.8, -22435.604, 0.0000002359893, 10.000743, 9.998127 
4.1502386e+2, 1.7546587e+2, -1128286.5, -1380878.4, -10388.936, -0.16363958, 0.14320017, -1127859.9, 92593.23, 0.0, 10.001504, 9.998182 
4.1502288e+2, 1.8546456e+2, -987242.25, -1226776.0, -2247.9453, -0.13588353, 0.18101694, -987221.2, 135245.69, 0.0, 10.001657, 9.998491 
4.1502357e+2, 1.9546399e+2, -937758.2, -1147108.5, 4674.675, 0.018701855, 0.25014734, -937653.9, 86818.77, 0.0, 10.0013, 9.99854 
4.1502255e+2, 2.0546266e+2, -866709.5, -991515.8, -20609.492, 0.029066067, 0.23385632, -863394.3, 63089.758, 0.0, 10.000797, 9.9991865 
4.1502002e+2, 2.1546055e+2, -864949.75, -941701.1, -10579.382, -0.09710413, 0.07903239, -863518.2, -35016.703, 0.0, 10.000143, 9.999168 
4.150198e+2, 2.2545941e+2, -845412.44, -994134.8, 18798.855, -0.04279299, 0.10521135, -843073.0, -112558.62, 0.0, 10.000102, 9.998151 
4.1502148e+2, 2.3545894e+2, -677745.94, -862541.25, 30344.021, 0.156706, 0.21797553, -672890.94, -40366.168, 0.0, 10.000574, 9.998155 
4.1502103e+2, 2.454577e+2, -560613.56, -741130.44, -42856.68, 0.21622528, 0.2745642, -550955.6, -16416.041, 0.0, 10.000647, 9.998276 
4.1501877e+2, 2.5545567e+2, -506571.94, -660744.7, -60734.816, 0.1605943, 0.2170555, -485520.5, -48961.1, 0.0, 10.000334, 9.998305 
4.1501737e+2, 2.654539e+2, -344122.8, -569783.75, 3711.2708, 0.09856561, 0.2327317, -344061.8, -5485.305, 0.0, 10.000944, 9.997961 
4.150165e+2, 2.7545226e+2, -66433.03, -392406.2, 55107.797, 0.017128188, 0.24509655, -57368.766, 183224.2, 0.0, 10.002206, 9.9979 
4.150165e+2, 2.8545034e+2, 13809.175, -445502.84, 15895.655, 0.06667112, 0.33207297, 14358.627, 156973.05, 0.00000000001177225, 10.00268, 9.996645 
4.1501737e+2, 2.9544806e+2, 50184.523, -367614.25, -5197.7515, 0.23932405, 0.40971574, 50249.18, 94890.5, 0.0000013022876, 10.0022135, 9.996727 
4.1501355e+2, 3.054455e+2, 135578.95, -96824.44, -92498.805, 0.00917112, 0.39074492, 167899.52, 167899.52, 0.000014575742, 10.001614, 9.998543 
4.1501153e+2, 3.1544256e+2, 27594.252, -92127.96, -34255.1, 0.039037332, 0.21183424, 36702.445, 36702.445, 0.000055427667, 10.00057, 9.999083 
4.2503268e+2, 1.2546733e+2, -1515494.9, -1554242.3, 104343.734, 0.066850044, 0.18672347, -1428741.5, 281701.1, 0.000120138786, 10.001, 10.000606 
4.2502877e+2, 1.3546835e+2, -1729779.3, -1602648.4, 22400.412, -0.27157974, 0.18271808, -1598816.9, 13611.341, 0.00006079175, 9.998864, 10.000645 
4.2503214e+2, 1.4546968e+2, -1653912.1, -1533729.0, -16663.742, 0.12382839, 0.26527542, -1531461.4, -17047.916, 0.00002257458, 9.998826, 10.0004425 
4.2503005e+2, 1.5547037e+2, -1317653.5, -1331904.1, -73208.07, 0.04466986, 0.26090083, -1251224.9, 165182.2, 0.0000044461326, 10.000514, 10.000341 
4.2502797e+2, 1.654693e+2, -1247990.6, -1483997.0, -57935.203, -0.02795701, 0.235512, -1234535.8, 83882.44, 0.00000009724189, 10.001337, 9.998227 
4.2502534e+2, 1.754668e+2, -1137951.6, -1374492.9, -26498.22, -0.15567042, 0.13701408, -1135019.5, 85423.59, 0.0, 10.001389, 9.998284 
4.2502442e+2, 1.8546557e+2, -1043042.25, -1244313.6, 8246.061, -0.11984091, 0.171644, -1042705.0, 79750.51, 0.0, 10.001225, 9.998583 
4.2502508e+2, 1.9546513e+2, -999210.8, -1172552.6, 7937.7617, 0.07070961, 0.24482276, -998848.06, 25611.771, 0.0, 10.000849, 9.998587 
4.2502406e+2, 2.0546377e+2, -867175.0, -1027165.2, 1599.2017, 0.09589462, 0.23748244, -867159.0, 59313.438, 0.0, 10.000952, 9.99886 
4.2502138e+2, 2.1546145e+2, -707106.9, -902162.9, -31391.082, -0.02971263, 0.0971555, -702179.44, 126314.13, 0.0, 10.001386, 9.99884 
4.2502105e+2, 2.2546001e+2, -632056.5, -862596.8, 16617.436, 0.011022037, 0.09544284, -630864.9, 99643.586, 0.0, 10.00145, 9.998399 
4.2502257e+2, 2.3545922e+2, -574382.0, -787372.0, 18132.389, 0.18422836, 0.15300436, -572849.4, 59669.266, 0.0, 10.0011835, 9.998374 
4.250221e+2, 2.4545796e+2, -443329.4, -736141.7, -9200.283, 0.21284673, 0.22196557, -443040.6, 91493.64, 0.0, 10.001678, 9.997815 
4.2501995e+2, 2.5545606e+2, -169833.55, -548006.56, -24367.188, 0.12729272, 0.22632247, -168269.94, 268286.56, 0.0, 10.002853, 9.9978695 
4.2501876e+2, 2.654547e+2, -56662.285, -376113.7, 22192.63, 0.06452284, 0.27507204, -55127.91, 283442.97, 0.0, 10.002683, 9.998461 
4.250183e+2, 2.7545366e+2, -150767.63, -376073.53, 4302.0063, 0.022591323, 0.29849946, -150685.5, 89894.44, 0.0, 10.001383, 9.998411 
4.2501846e+2, 2.854516e+2, -213951.23, -522658.47, 9533.242, 0.085618116, 0.3364271, -213657.13, -71055.59, 0.0000000012455732, 10.000999, 9.996913 
4.2501932e+2, 2.9544854e+2, -49474.73, -389227.22, 54333.71, 0.2626253, 0.31293812, -40997.14, 3638.635, 0.0000019825331, 10.001427, 9.996956 
4.2501506e+2, 3.0544665e+2, 128553.96, -181916.63, 8915.369, -0.0060170274, 0.38727638, 128809.76, 128809.76, 0.000019679212, 10.001918, 9.99781 
4.2501363e+2, 3.154448e+2, 241911.34, -60635.785, -29280.9, 0.11705069, 0.38587347, 244719.13, 244719.13, 0.00007104561, 10.002356, 9.998428 
4.350332e+2, 1.2546974e+2, -1535613.4, -1567480.1, 72065.47, -0.03142551, 0.2919683, -1477740.9, 232675.69, 0.000112459136, 10.000917, 10.000543 
4.3502763e+2, 1.3546804e+2, -1756991.8, -1650881.5, -40106.824, -0.30254316, 0.046212185, -1637428.0, -25000.912, 0.000055857796, 9.998851, 10.000314 
4.35031e+2, 1.4546803e+2, -1720212.5, -1667260.9, 39628.57, 0.09988001, 0.06164386, -1646077.6, -131650.95, 0.000019900395, 9.998797, 9.999545 
4.3503022e+2, 1.5546842e+2, -1365687.4, -1442301.8, -505.17416, -0.022690749, 0.11211373, -1365684.0, 50743.395, 0.0000034951138, 10.000545, 9.999576 
4.3502915e+2, 1.6546842e+2, -1184068.9, -1334442.3, -65459.645, -0.06552854, 0.17653207, -1159566.0, 158862.17, 0.000000032016867, 10.001273, 9.999281 
4.3502754e+2, 1.7546818e+2, -1075200.4, -1230851.8, -15075.628, -0.09850097, 0.19679324, -1073753.8, 146675.14, 0.0, 10.001336, 9.999293 
4.3502638e+2, 1.8546696e+2, -1042172.56, -1220182.4, -14316.658, -0.06928717, 0.17489997, -1041028.5, 81410.72, 0.0, 10.001132, 9.998795 
4.3502578e+2, 1.9546476e+2, -997018.44, -1149562.0, 5672.253, 0.031589583, 0.051819213, -996807.8, 27651.771, 0.0, 10.000772, 9.998781 
4.3502507e+2, 2.0546384e+2, -931938.5, -1134540.5, 9274.424, 0.0805303, 0.1147528, -931514.9, -5044.5737, 0.0, 10.000838, 9.998178 
4.3502402e+2, 2.154638e+2, -766601.2, -1001984.9, -6737.0005, 0.07106158, 0.26890957, -766408.56, 62065.83, 0.0, 10.001286, 9.998201 
4.3502337e+2, 2.2546236e+2, -626184.2, -822532.75, -2406.1733, 0.07776541, 0.28128207, -626154.7, 104334.2, 0.0, 10.001328, 9.9987335 
4.3502304e+2, 2.3545958e+2, -565352.4, -745722.9, 19398.977, 0.091253944, 0.10470146, -563289.56, 69224.13, 0.0, 10.001081, 9.998709 
4.3502218e+2, 2.4545802e+2, -468382.66, -773501.6, 25835.941, 0.03448925, 0.1394678, -466210.44, 68320.64, 0.0, 10.001616, 9.997588 
4.350209e+2, 2.554573e+2, -197407.98, -586678.75, 24935.742, -0.085760765, 0.28309056, -195817.17, 240726.48, 0.0, 10.002776, 9.997641 
4.350204e+2, 2.6545632e+2, -70633.54, -401896.06, -34902.543, -0.063005455, 0.38800523, -66996.07, 271560.22, 0.0, 10.002665, 9.998293 
4.3502042e+2, 2.7545488e+2, -164743.19, -393569.78, -30577.615, 0.07298317, 0.38983095, -160727.63, 79843.12, 0.0, 10.001326, 9.998322 
4.3502024e+2, 2.854523e+2, -121732.05, -319053.1, 18139.615, 0.13787499, 0.301951, -120078.34, 22517.068, 0.000000012355592, 10.00096, 9.9983225 
4.3502e+2, 2.9544857e+2, 28783.553, -210405.11, 84235.38, 0.15804343, 0.070342205, 55471.152, 100101.63, 0.0000027662056, 10.001368, 9.998208 
4.3501556e+2, 3.05448e+2, 54172.92, -350941.2, 20129.947, -0.17456429, 0.2799029, 55170.715, 55170.715, 0.000024180765, 10.001961, 9.996635 
4.3501604e+2, 3.1544757e+2, 176248.27, -189544.61, -26011.377, 0.06365021, 0.53984773, 178088.67, 178088.67, 0.00008333817, 10.002314, 9.997568 
4.450341e+2, 1.2547112e+2, -1701989.8, -1699002.9, 163622.25, 0.025249692, 0.250138, -1536867.3, 173530.97, 0.00010599228, 10.000006, 10.000085 
4.4502774e+2, 1.3546887e+2, -1582817.0, -1634916.5, -82684.06, -0.23920369, 0.017345998, -1522176.3, 90240.11, 0.00005101591, 10.000362, 9.999697 
4.4503063e+2, 1.4546841e+2, -1511060.4, -1611252.1, 97068.16, 0.11034094, 0.039283626, -1451923.4, 62498.91, 0.000017295639, 10.000423, 9.999142 
4.4503042e+2, 1.5546878e+2, -1438527.3, -1513722.3, 66537.484, -0.03006563, 0.122869775, -1399699.6, 16725.127, 0.0000027656245, 10.000207, 9.999242 
4.450298e+2, 1.654689e+2, -1341663.0, -1369590.4, -16000.876, -0.058033656, 0.19307818, -1334389.6, -15965.227, 0.000000035556127, 9.999996, 9.999664 
4.450284e+2, 1.7546883e+2, -1281603.6, -1288907.8, -31923.768, -0.062046397, 0.19203942, -1253123.8, -32701.547, 0.0, 9.999739, 9.999665 
4.4502738e+2, 1.8546778e+2, -1149452.9, -1268988.5, -20451.564, -0.037186384, 0.16684495, -1146050.6, -23619.857, 0.0, 10.000388, 9.998812 
4.4502705e+2, 1.9546565e+2, -862926.6, -1083936.1, -36438.09, 0.040120028, 0.04961732, -857074.06, 167376.78, 0.0, 10.001691, 9.998786 
4.4502655e+2, 2.0546465e+2, -759273.06, -1064280.6, -15960.519, 0.09082903, 0.112267494, -758440.2, 168022.8, 0.0, 10.002098, 9.998044 
4.4502583e+2, 2.1546443e+2, -712746.94, -989210.7, -11043.23, 0.10811418, 0.26435322, -712306.5, 116163.22, 0.0, 10.001727, 9.998072 
4.45025e+2, 2.2546321e+2, -543170.44, -768232.06, 24911.926, 0.0878332, 0.29653934, -540445.94, 190036.17, 0.0, 10.001826, 9.998868 
4.450241e+2, 2.3546095e+2, -383989.34, -645664.1, 13054.918, 0.036251865, 0.15831353, -383339.63, 249161.4, 0.0, 10.002262, 9.998831 
4.4502342e+2, 2.454593e+2, -375107.0, -689126.9, 58060.273, -0.024594186, 0.15954234, -364715.88, 169801.38, 0.0, 10.002081, 9.997941 
4.4502282e+2, 2.5545803e+2, -376849.06, -636993.75, 81920.734, -0.097141385, 0.20990339, -353201.47, 83331.19, 0.0, 10.001385, 9.997963 
4.4502234e+2, 2.6545691e+2, -290390.9, -513789.53, 35067.57, -0.053274907, 0.2912947, -285015.6, 53530.703, 0.0, 10.001186, 9.998229 
4.450219e+2, 2.754558e+2, -150594.63, -392115.63, 27456.184, 0.08886957, 0.3332717, -147512.72, 93047.2, 0.0, 10.001453, 9.998265 
4.4502148e+2, 2.8545386e+2, -214.73018, -227015.64, 80422.32, 0.14110918, 0.2954669, 25407.883, 167987.66, 0.00000003062236, 10.001635, 9.998638 
4.4502133e+2, 2.95451e+2, 92288.42, -136402.78, 43369.035, 0.14986815, 0.11300354, 100236.69, 144843.63, 0.0000032986038, 10.001617, 9.998592 
4.450175e+2, 3.054506e+2, 71775.53, -324926.75, 38565.813, -0.17050561, 0.31296355, 75489.96, 75489.96, 0.000027227657, 10.002013, 9.996783 
4.450192e+2, 3.1544942e+2, 288710.47, -60741.723, 19222.865, 0.1364205, 0.48553646, 289764.72, 289764.72, 0.000091368296, 10.0027685, 9.998232 
4.5503473e+2, 1.2547123e+2, -1759644.6, -1817042.6, 217303.0, 0.03188833, 0.045733057, -1569153.8, 141235.67, 0.00010140695, 10.000006, 9.99927 
4.550287e+2, 1.3547069e+2, -1642549.0, -1770305.1, -63195.4, -0.20469452, 0.07995726, -1616571.3, -4173.31, 0.00004730018, 10.0004015, 9.998752 
4.5503068e+2, 1.4547063e+2, -1507038.6, -1591087.4, 83195.21, 0.040061492, 0.17707394, -1455856.3, 58546.246, 0.000015080613, 10.000384, 9.999295 
4.550305e+2, 1.554714e+2, -1434800.3, -1499563.6, 70799.7, -0.07420111, 0.29094297, -1389328.4, 27071.121, 0.0000021144335, 10.000187, 9.999347 
4.550296e+2, 1.6547069e+2, -1361869.1, -1405081.0, -37113.51, -0.104052484, 0.28477457, -1340530.6, -22123.467, 0.00000004449902, 9.999961, 9.999439 
4.5502758e+2, 1.7546871e+2, -1293345.1, -1320274.6, -29107.25, -0.14056142, 0.11669652, -1274739.1, -54315.48, 0.0, 9.99976, 9.999443 
4.5502722e+2, 1.8546791e+2, -1174753.3, -1303218.1, 20280.158, -0.11375987, 0.1379502, -1171627.8, -49196.875, 0.0, 10.000317, 9.998608 
4.5502853e+2, 1.9546779e+2, -891142.56, -1117955.3, 18272.615, -0.0042153876, 0.23970832, -889679.94, 134753.48, 0.0, 10.001594, 9.998593 
4.5502824e+2, 2.054662e+2, -749512.2, -1016711.56, -40765.797, 0.029006662, 0.23557244, -743431.06, 183019.13, 0.0, 10.001976, 9.998432 
4.550265e+2, 2.1546336e+2, -703701.1, -937965.5, -13258.5625, -0.015518739, 0.08203624, -702953.1, 125526.36, 0.0, 10.001588, 9.998488 
4.5502567e+2, 2.2546256e+2, -566857.25, -789446.8, 34463.082, -0.04604988, 0.14099397, -561643.5, 168844.53, 0.0, 10.001703, 9.998787 
4.5502552e+2, 2.3546329e+2, -398658.75, -654977.2, 38948.848, -0.07147634, 0.31049386, -392870.97, 239609.94, 0.0, 10.002169, 9.998814 
4.5502537e+2, 2.4546178e+2, -322940.75, -556504.6, 22944.395, -0.05666877, 0.27649316, -320708.13, 213785.06, 0.0, 10.0019865, 9.998897 
4.5502537e+2, 2.5545818e+2, -325134.5, -506437.34, 66896.78, -0.0028471951, 0.0021850264, -303123.3, 133400.3, 0.0, 10.0012865, 9.998909 
4.550244e+2, 2.654565e+2, -301275.03, -523435.66, 37965.734, 0.011077377, -0.016724832, -294966.1, 43574.984, 0.0, 10.001132, 9.998188 
4.5502248e+2, 2.7545637e+2, -168097.5, -412239.8, 49706.46, -0.02422205, 0.12460851, -158365.39, 82182.94, 0.0, 10.001383, 9.998159 
4.55022e+2, 2.854563e+2, -54112.137, -331246.2, 71491.23, 0.005848733, 0.3166798, -36756.69, 105798.01, 0.000000022691747, 10.001597, 9.997942 
4.5502302e+2, 2.9545584e+2, 48914.77, -217589.25, 56447.21, 0.1267126, 0.4485282, 60377.6, 104941.85, 0.0000033720132, 10.001567, 9.998067 
4.5502052e+2, 3.0545437e+2, 175332.39, -106464.74, 65020.2, -0.09535918, 0.4846317, 189611.25, 189611.25, 0.000028360193, 10.00201, 9.99828 
4.5502272e+2, 3.1545016e+2, 428741.06, 242461.77, 35413.277, 0.16182254, 0.20605391, 435246.28, 435246.28, 0.00009465621, 10.002717, 10.000342 
4.650345e+2, 1.2547077e+2, -1812648.6, -1839867.1, 132113.75, 0.037158526, 0.022448452, -1693445.0, 16948.31, 0.000096649455, 9.999604, 9.999309 
4.6502995e+2, 1.3547094e+2, -1598907.4, -1747842.0, -154938.48, -0.12136412, 0.1232956, -1501469.8, 110926.33, 0.00004344866, 10.000665, 9.998788 
4.650308e+2, 1.4547087e+2, -1480003.3, -1552442.6, 6413.4077, 0.014977142, 0.2045379, -1479439.9, 34960.535, 0.000012657647, 10.000454, 9.999531 
4.650302e+2, 1.5547164e+2, -1561848.1, -1537238.5, -21394.004, -0.06639581, 0.29305312, -1524863.1, -108467.19, 0.0000014631825, 9.999208, 9.999564 
4.6502972e+2, 1.654709e+2, -1422199.4, -1452883.1, -44309.273, -0.06401466, 0.28415683, -1390651.1, -72247.11, 0.000000030371112, 9.999649, 9.999255 
4.650289e+2, 1.7546879e+2, -1053338.4, -1224408.8, -56300.973, -0.06828551, 0.120262034, -1036472.06, 183952.06, 0.0, 10.001503, 9.999261 
4.6502867e+2, 1.8546806e+2, -952367.94, -1188969.0, -2210.0408, -0.06553709, 0.15364257, -952347.3, 170084.2, 0.0, 10.001801, 9.998683 
4.650293e+2, 1.9546826e+2, -1009181.06, -1168302.0, 1305.3547, -0.034705944, 0.2825718, -1009170.4, 15260.291, 0.0, 10.000736, 9.9986725 
4.6502903e+2, 2.0546697e+2, -928858.7, -1052579.8, -27151.68, -0.0095597925, 0.2775393, -923162.3, 3281.6594, 0.0, 10.000514, 9.998893 
4.6502787e+2, 2.154643e+2, -763529.25, -922689.75, -17085.336, -0.002760847, 0.09890412, -761715.9, 66754.38, 0.0, 10.000975, 9.998894 
4.6502727e+2, 2.2546358e+2, -632730.25, -819440.5, 60937.242, -0.025926543, 0.14635918, -614602.06, 115876.21, 0.0, 10.001264, 9.998778 
4.650272e+2, 2.354643e+2, -503080.44, -703524.1, 48290.434, -0.076888576, 0.31623542, -492053.1, 140419.56, 0.0, 10.001463, 9.99881 
4.6502727e+2, 2.4546312e+2, -383323.47, -536617.56, 2782.7307, -0.026725972, 0.2912125, -383272.97, 151208.75, 0.0, 10.001346, 9.999348 
4.650276e+2, 2.5546017e+2, -345111.0, -466367.13, -5759.0767, 0.11392612, 0.034355037, -344838.1, 91666.31, 0.0, 10.000931, 9.999355 
4.650264e+2, 2.654586e+2, -279908.28, -507441.34, 8440.545, 0.100270666, 0.0031758114, -279595.6, 58924.133, 0.0, 10.001238, 9.998257 
4.6502388e+2, 2.754581e+2, -61029.082, -354222.3, 9224.777, -0.051781703, 0.098795764, -60739.13, 179791.17, 0.0, 10.002078, 9.998231 
4.6502325e+2, 2.854579e+2, 6104.3755, -309835.06, 52504.63, -0.043605562, 0.2801597, 14601.375, 157138.95, 0.00000001636591, 10.002038, 9.997879 
4.6502462e+2, 2.954577e+2, 19977.773, -226375.75, 59258.934, 0.15047742, 0.43751425, 33490.938, 78036.23, 0.0000038591365, 10.001346, 9.998111 
4.650227e+2, 3.0545577e+2, 60129.734, -106101.14, 91260.76, -0.017029047, 0.39968288, 100451.336, 100451.336, 0.000029778155, 10.000969, 9.998798 
4.6502444e+2, 3.154524e+2, 167400.6, 188762.0, -85010.37, 0.17835872, 0.15967137, 263760.0, 263760.0, 0.00009717631, 10.000622, 10.000983 
4.7503272e+2, 1.2546962e+2, -1758213.3, -1696988.5, 176905.38, -0.15906228, 0.17983973, -1548066.4, 162344.28, 0.0000915649, 9.999505, 10.000321 
4.7503126e+2, 1.3546972e+2, -1525811.9, -1582304.3, -107806.55, -0.08534791, 0.15534033, -1442612.6, 169797.4, 0.000038474074, 10.000629, 9.999926 
4.750307e+2, 1.4546922e+2, -1458122.9, -1506592.5, -48801.316, -0.07165387, 0.12359998, -1427870.1, 86545.33, 0.000009911169, 10.000437, 9.999861 
4.7502914e+2, 1.5546949e+2, -1530784.4, -1485937.3, -52112.75, -0.118208125, 0.1284906, -1451628.5, -35215.04, 0.0000009593812, 9.99925, 9.999904 
4.7502992e+2, 1.6546951e+2, -1440610.3, -1480245.0, 16204.265, -0.03418439, 0.18617804, -1434828.6, -116413.18, 0.000000014696447, 9.999606, 9.999088 
4.7503197e+2, 1.7546897e+2, -1069392.4, -1248993.4, 20486.504, 0.06757227, 0.19925852, -1067085.1, 153338.89, 0.0, 10.00147, 9.999108 
4.7503147e+2, 1.8546817e+2, -934242.9, -1135356.3, -49058.97, 0.0071228608, 0.21348162, -922913.8, 199518.95, 0.0, 10.001727, 9.999089 
4.7502914e+2, 1.9546707e+2, -987039.4, -1111874.9, -24932.291, -0.14805534, 0.17201973, -982244.06, 42198.457, 0.0, 10.000686, 9.999088 
4.7502866e+2, 2.054669e+2, -910597.1, -990448.6, -17697.6, -0.11784875, 0.2351369, -906850.56, 19593.818, 0.0, 10.000415, 9.999364 
4.7502956e+2, 2.1546733e+2, -748903.6, -865352.56, 9445.133, 0.05111735, 0.3172176, -748142.5, 80298.984, 0.0, 10.000861, 9.999339 
4.7502953e+2, 2.2546627e+2, -642405.94, -823323.94, 60031.547, 0.05110412, 0.3084265, -624298.75, 106154.336, 0.0, 10.001181, 9.998799 
4.7502887e+2, 2.3546389e+2, -516878.0, -708376.1, 65267.313, -0.078358844, 0.16604963, -496749.1, 135728.48, 0.0, 10.001352, 9.998836 
4.7502878e+2, 2.4546324e+2, -396559.5, -544163.3, -20622.504, -0.032564394, 0.19604625, -393732.38, 140751.23, 0.0, 10.001263, 9.999333 
4.7502917e+2, 2.554639e+2, -360706.38, -483096.53, -9216.491, 0.15684979, 0.30124447, -360016.22, 76459.64, 0.0, 10.000856, 9.999279 
4.7502813e+2, 2.6546314e+2, -271510.4, -477237.28, 33395.992, 0.12700906, 0.3418527, -266224.97, 72258.42, 0.0, 10.001186, 9.9984865 
4.750257e+2, 2.7546093e+2, -51272.23, -319550.94, 50031.227, -0.09888286, 0.2498674, -42245.633, 198260.55, 0.0, 10.00202, 9.998495 
4.7502497e+2, 2.8545865e+2, 41258.137, -234456.53, 14787.647, -0.10241325, 0.18020085, 42048.99, 184578.0, 0.0000000367379, 10.002025, 9.9984045 
4.7502586e+2, 2.9545626e+2, 40097.277, -168845.67, 44960.203, 0.111174755, 0.06795741, 49361.063, 93913.23, 0.000004901276, 10.0012665, 9.9985485 
4.7502372e+2, 3.054546e+2, 23198.72, -171010.72, 71889.02, -0.031307895, 0.054316215, 46913.53, 46913.53, 0.000032907166, 10.000919, 9.998374 
4.7502366e+2, 3.1545585e+2, 102374.4, 52501.637, -96044.57, -0.01742897, 0.32473963, 176666.95, 176666.95, 0.00010232853, 10.00062, 10.000049 
4.8503226e+2, 1.2546751e+2, -1680374.8, -1627606.6, 277611.97, -0.16163076, 0.15528494, -1375127.8, 335302.8, 0.00008664265, 9.999884, 10.0006275 
4.8503178e+2, 1.354681e+2, -1680500.4, -1610529.0, -109392.9, -0.02106524, 0.1396534, -1530663.4, 81761.72, 0.000032757685, 9.999349, 10.000364 
4.850299e+2, 1.4546783e+2, -1550972.1, -1509035.1, -56679.84, -0.14724359, 0.089848846, -1469569.5, 44858.645, 0.000007215262, 9.999629, 10.000227 
4.8502946e+2, 1.554682e+2, -1315105.6, -1346057.5, -86423.555, -0.07458745, 0.06950035, -1242783.3, 173641.94, 0.00000059770906, 10.000587, 10.000214 
4.850308e+2, 1.6546868e+2, -1274592.3, -1396867.8, 38562.53, 0.04372177, 0.15696034, -1263446.5, 54976.45, 0.0000000048834687, 10.00073, 9.999119 
4.8503307e+2, 1.7546892e+2, -1255910.1, -1330962.0, 40734.363, 0.09918855, 0.24408567, -1238051.1, -17626.535, 0.0, 10.000162, 9.999168 
4.8503256e+2, 1.8546821e+2, -1122461.9, -1168339.9, -32168.408, 0.030002551, 0.23702496, -1105891.3, 16540.287, 0.0, 10.000192, 9.999596 
4.8503017e+2, 1.9546664e+2, -954256.75, -1036847.2, -15870.7295, -0.104430504, 0.09359706, -951312.0, 73131.85, 0.0, 10.00067, 9.9995985 
4.8502976e+2, 2.0546672e+2, -789062.6, -934690.1, 24291.838, -0.08571945, 0.1570485, -785117.44, 141325.94, 0.0, 10.001255, 9.9993515 
4.8503095e+2, 2.1546791e+2, -600382.44, -790588.75, 2314.0864, 0.056928053, 0.31773296, -600354.3, 228080.34, 0.0, 10.001866, 9.999372 
4.850312e+2, 2.2546719e+2, -553438.6, -745573.6, 31816.256, 0.07945956, 0.32370824, -548307.1, 182136.5, 0.0, 10.001641, 9.999113 
4.8503074e+2, 2.3546472e+2, -587526.4, -710337.6, 41585.16, 0.009741236, 0.14160277, -574770.1, 57698.74, 0.0, 10.00072, 9.999128 
4.8503038e+2, 2.4546437e+2, -431863.44, -560076.7, 16042.897, 0.021898462, 0.18567137, -429886.53, 104586.8, 0.0, 10.001011, 9.999346 
4.8503017e+2, 2.554657e+2, -151047.28, -375952.78, 10018.612, 0.10693742, 0.35721472, -150601.88, 285859.53, 0.0, 10.002278, 9.999325 
4.8502943e+2, 2.6546523e+2, -116589.305, -396589.78, 46658.47, 0.09206457, 0.4227552, -109018.95, 229447.78, 0.0, 10.002224, 9.998537 
4.850282e+2, 2.7546299e+2, -180537.39, -374972.97, 32243.955, -0.004000306, 0.31829643, -175329.73, 65159.965, 0.0, 10.0011015, 9.998557 
4.8502728e+2, 2.854605e+2, -109935.45, -287284.22, -444.26205, -0.010529329, 0.22029442, -109934.336, 32578.807, 0.00000008825205, 10.000903, 9.998579 
4.8502696e+2, 2.9545814e+2, 72272.125, -137771.4, -21872.87, 0.09208174, 0.08991541, 74525.68, 119060.67, 0.0000056092463, 10.001425, 9.998682 
4.8502526e+2, 3.054564e+2, 152154.89, -112513.73, 39586.207, -0.0020994109, 0.06635758, 157948.9, 157948.9, 0.000035389916, 10.001819, 9.99833 
4.850256e+2, 3.154579e+2, 275671.7, 71994.51, -143484.11, 0.051899575, 0.364694, 349784.2, 349784.2, 0.00010599746, 10.002086, 9.999466 
4.9503243e+2, 1.2546435e+2, -1712027.1, -1688608.3, 201792.19, -0.18963787, -0.052888405, -1498186.0, 212267.86, 0.000079155536, 9.999874, 10.000209 
4.9503118e+2, 1.3546605e+2, -1694439.4, -1642435.6, -117323.38, -0.03863743, 0.069165364, -1548267.3, 64174.473, 0.000026309019, 9.99936, 10.000139 
4.9502802e+2, 1.4546669e+2, -1537016.5, -1467202.0, -30609.436, -0.32841504, 0.10152137, -1455682.4, 58756.41, 0.0000047383246, 9.999578, 10.000535 
4.950307e+2, 1.5546773e+2, -1297626.1, -1307641.9, -43449.258, -0.035305817, 0.12075991, -1258897.1, 157533.83, 0.0000002991547, 10.00058, 10.00048 
4.9503207e+2, 1.654684e+2, -1260605.1, -1358968.4, 6387.8145, 0.07517867, 0.20205414, -1260192.0, 58234.363, 0.0000000005507737, 10.000687, 9.999403 
4.950319e+2, 1.754686e+2, -1236626.3, -1287195.0, 29690.002, -0.055973012, 0.25473177, -1222913.3, -2486.9795, 0.0, 10.000142, 9.999481 
4.9503186e+2, 1.8546811e+2, -1088615.4, -1081395.4, -23067.445, -0.08450492, 0.22139902, -1061657.3, 60771.645, 0.0, 10.000121, 10.000226 
4.9503216e+2, 1.9546688e+2, -922382.4, -956996.44, 9274.058, 0.001919416, 0.049651146, -920054.2, 104381.375, 0.0, 10.000607, 10.000181 
4.9503204e+2, 2.0546633e+2, -829556.94, -995813.8, 37042.4, 0.0017273766, 0.042390727, -821677.25, 104764.41, 0.0, 10.001152, 9.998985 
4.9503168e+2, 2.1546617e+2, -638546.75, -848320.94, 32432.682, -0.07572394, 0.105281755, -633646.8, 194802.02, 0.0, 10.001763, 9.999033 
4.9503183e+2, 2.2546631e+2, -533395.75, -674857.94, -9879.348, -0.040454216, 0.18729062, -532709.1, 197741.39, 0.0, 10.001524, 9.999651 
4.9503246e+2, 2.3546664e+2, -568680.56, -642312.6, 20989.414, 0.088075526, 0.23004237, -563117.7, 69330.73, 0.0, 10.000601, 9.999651 
4.9503186e+2, 2.4546638e+2, -436527.0, -551496.4, 55204.51, 0.04393798, 0.25402695, -414312.06, 120139.766, 0.0, 10.000938, 9.999439 
4.9503025e+2, 2.5546548e+2, -156647.83, -368946.56, 63216.773, -0.14170986, 0.19490093, -139249.44, 297212.38, 0.0, 10.002199, 9.999411 
4.9503002e+2, 2.6546484e+2, -132424.17, -415590.28, -6761.6934, -0.0952898, 0.24263532, -132262.81, 206207.92, 0.0, 10.002168, 9.998434 
4.9503082e+2, 2.7546415e+2, -203415.39, -398238.2, 3555.272, 0.12540634, 0.30380613, -203350.53, 37130.75, 0.0, 10.001003, 9.998441 
4.9502984e+2, 2.854636e+2, -128677.984, -313623.2, 13046.731, 0.12913042, 0.40970582, -127762.16, 14726.791, 0.00000018947561, 10.000854, 9.99842 
4.950276e+2, 2.9546323e+2, 55914.758, -163761.92, 11671.563, -0.016403344, 0.50467527, 56533.133, 101026.83, 0.000005650319, 10.001396, 9.998515 
4.9502724e+2, 3.054611e+2, 183639.44, -58355.38, 43084.79, -0.015053782, 0.43224108, 191081.39, 191081.39, 0.00003451672, 10.001851, 9.998693 
4.9502942e+2, 3.154587e+2, 256176.28, 34167.773, -106588.36, 0.16717832, 0.29050013, 299064.9, 299064.9, 0.00010174547, 10.002064, 9.999219 
5.050322e+2, 1.2546308e+2, -1577998.8, -1611023.1, 163609.02, -0.23465322, -0.10512617, -1430070.8, 280393.63, 0.00006651573, 10.00076, 10.000309 
5.0503176e+2, 1.3546535e+2, -1649689.0, -1610883.5, -104592.58, 0.08205474, 0.06552732, -1523909.3, 88537.7, 0.00001955312, 9.99962, 10.000237 
5.0502735e+2, 1.4546634e+2, -1561680.4, -1524212.9, 53711.434, -0.3431452, 0.15139593, -1486061.9, 28380.248, 0.0000028130235, 9.999616, 10.000123 
5.050313e+2, 1.5546729e+2, -1338103.9, -1366195.3, -42602.883, -0.018399335, 0.20296183, -1307291.0, 109147.24, 0.00000011765629, 10.000491, 10.000113 
5.050327e+2, 1.6546762e+2, -1214503.6, -1259392.6, -30606.287, 0.079713985, 0.23127487, -1198994.3, 119441.336, 0.000000000026416515, 10.00066, 10.000099 
5.050315e+2, 1.7546725e+2, -1186342.9, -1190228.5, 6115.855, -0.103249796, 0.15982449, -1181868.8, 38567.348, 0.0, 10.000162, 10.00014 
5.050318e+2, 1.8546717e+2, -1077697.4, -1067152.1, -1258.1752, -0.0962161, 0.13098554, -1067004.1, 55429.582, 0.0, 10.000163, 10.000304 
5.050337e+2, 1.9546716e+2, -920883.0, -946654.25, -26963.898, 0.10019251, 0.07629413, -903884.0, 120546.68, 0.0, 10.000589, 10.000255 
5.050337e+2, 2.0546676e+2, -924177.9, -1042625.25, -5751.473, 0.08822017, 0.08282315, -923899.25, 2537.433, 0.0, 10.000518, 9.9989605 
5.050322e+2, 2.1546592e+2, -909476.4, -976513.5, -6825.2075, -0.09993463, 0.07820751, -908788.5, -80336.79, 0.0, 9.999914, 9.999032 
5.0503206e+2, 2.2546624e+2, -696810.0, -708506.4, -21810.83, -0.09527351, 0.15499029, -680076.94, 50374.85, 0.0, 10.000193, 10.000069 
5.050332e+2, 2.3546739e+2, -461074.63, -542740.44, -16214.32, 0.078943305, 0.23954082, -457973.13, 174467.28, 0.0, 10.001137, 10.000076 
5.0503296e+2, 2.4546748e+2, -409784.63, -525885.44, 41903.855, 0.059636112, 0.2708969, -396240.47, 138200.05, 0.0, 10.001068, 9.999554 
5.050317e+2, 2.5546646e+2, -434972.38, -491556.78, 34647.254, -0.11269593, 0.19003278, -418533.38, 17919.0, 0.0, 10.0002365, 9.999517 
5.0503165e+2, 2.6546583e+2, -350928.75, -507415.4, -10237.309, -0.06594477, 0.22789368, -350261.84, -11800.627, 0.0, 10.000611, 9.998554 
5.050324e+2, 2.754653e+2, -61652.96, -322171.38, -11431.958, 0.14820465, 0.29483446, -61152.27, 179317.53, 0.00000000061010413, 10.001939, 9.998517 
5.050313e+2, 2.8546476e+2, 51910.035, -248391.0, 21186.643, 0.13154142, 0.40488777, 53397.414, 195874.95, 0.00000027597625, 10.002187, 9.99823 
5.050287e+2, 2.9546422e+2, 61169.84, -188039.25, -2098.9243, -0.040736858, 0.5037121, 61187.516, 105671.445, 0.0000049916057, 10.001548, 9.998281 
5.050294e+2, 3.0546233e+2, 150716.3, -117723.42, 42509.297, 0.023309348, 0.49040654, 157287.11, 157287.11, 0.000030276777, 10.001834, 9.998295 
5.0503194e+2, 3.154587e+2, 331638.44, 31612.133, -191154.55, 0.18616773, 0.2683684, 424615.0, 424615.0, 0.000090525835, 10.002756, 9.99888 
5.1503056e+2, 1.2546363e+2, -1541294.3, -1530488.8, 9836.791, -0.5258006, -0.0028549805, -1524668.8, 185793.88, 0.00005196835, 10.000743, 10.000865 
5.150333e+2, 1.3546604e+2, -1615119.0, -1548168.9, -129233.12, 0.2487467, 0.12560822, -1448145.8, 164294.58, 0.000013925394, 9.999655, 10.000651 
5.150278e+2, 1.4546686e+2, -1643410.6, -1693494.3, 75507.766, -0.2915069, 0.23688376, -1588900.5, -74462.66, 0.000001645238, 9.99961, 9.998968 
5.15031e+2, 1.5546681e+2, -1411872.8, -1519528.3, -284.43362, -0.12036608, 0.30600616, -1411872.0, 4575.4604, 0.00000003629146, 10.000488, 9.999065 
5.150324e+2, 1.6546623e+2, -1151521.8, -1107758.8, -55456.51, -0.04156663, 0.23536333, -1070022.9, 248428.7, 0.0, 10.000578, 10.001174 
5.150316e+2, 1.7546497e+2, -1122696.5, -1048207.8, -589.2655, -0.14149705, -0.036801565, -1048203.2, 172250.33, 0.0, 10.000127, 10.001126 
5.150321e+2, 1.8546554e+2, -1116394.4, -1137934.3, 4659.8975, -0.10379039, -0.022008438, -1115429.5, 7015.2813, 0.0, 10.000118, 9.999839 
5.150345e+2, 1.9546752e+2, -956080.3, -1014262.2, -2187.0562, 0.09412647, 0.16509916, -955998.2, 68430.73, 0.0, 10.000552, 9.999812 
5.150344e+2, 2.0546792e+2, -928531.56, -1021207.0, -37586.992, 0.08436737, 0.26340407, -915203.8, 11225.898, 0.0, 10.00039, 9.9991665 
5.1503223e+2, 2.1546693e+2, -908808.7, -951674.94, -18252.863, -0.10736307, 0.2197572, -902089.6, -73643.984, 0.0, 9.999807, 9.999254 
5.1503175e+2, 2.254667e+2, -687235.06, -662732.5, 3135.7227, -0.16852535, 0.21303737, -662337.56, 68112.0, 0.0, 10.000082, 10.000437 
5.1503253e+2, 2.35467e+2, -450808.03, -497003.4, 24883.404, -0.11917502, 0.1741259, -439954.47, 192490.22, 0.0, 10.001035, 10.00044 
5.150333e+2, 2.4546772e+2, -405943.38, -505623.1, 968.56323, -0.031091802, 0.24328648, -405933.97, 128504.58, 0.0, 10.001013, 9.99972 
5.1503414e+2, 2.5546867e+2, -434267.78, -470709.34, 18607.467, 0.082887724, 0.33983228, -426445.63, 9987.121, 0.0, 10.000151, 9.9997015 
5.1503396e+2, 2.6546827e+2, -338833.47, -472823.2, 31784.37, 0.081161, 0.37771899, -331676.06, 6762.04, 0.0, 10.000574, 9.998812 
5.150329e+2, 2.754664e+2, -52026.703, -289723.97, 48410.395, -0.027708359, 0.2898381, -42545.434, 197910.36, 0.0000000018853024, 10.001886, 9.998767 
5.150315e+2, 2.8546396e+2, 35278.63, -282373.6, -12855.1875, -0.095919475, 0.2118068, 35798.02, 178276.9, 0.00000034894228, 10.002183, 9.997998 
5.150299e+2, 2.9546106e+2, 34246.902, -236694.47, -10798.046, -0.109770484, 0.09048822, 34676.563, 79182.49, 0.000004315403, 10.001513, 9.997962 
5.150313e+2, 3.0546e+2, 65837.445, -289493.4, 73674.97, 0.0028699273, 0.23634724, 80507.68, 80507.68, 0.000026122347, 10.001825, 9.997119 
5.150327e+2, 3.1545773e+2, 284134.8, -39091.914, -104313.88, -0.06118046, 0.2713156, 314876.0, 314876.0, 0.00008115159, 10.002652, 9.99844 
5.250305e+2, 1.2546414e+2, -1903695.9, -1733404.8, -19545.643, -0.47756317, 0.07801953, -1731190.1, -20730.18, 0.000041741798, 9.998363, 10.000618 
5.2503395e+2, 1.3546553e+2, -1367556.6, -1452223.3, -153108.23, 0.26589105, 0.12904862, -1251037.0, 361410.22, 0.000010470756, 10.0014515, 10.000439 
5.25028e+2, 1.45466e+2, -1298239.6, -1500646.4, 56057.88, -0.33916852, 0.2018652, -1283751.1, 230695.4, 0.0000009776196, 10.0018635, 9.999204 
5.250316e+2, 1.5546611e+2, -1482470.0, -1529484.3, 59885.492, -0.0760229, 0.260177, -1441643.3, -25191.055, 0.000000005050013, 9.999889, 9.999286 
5.2503324e+2, 1.6546576e+2, -1316051.9, -1191527.1, 54710.508, 0.047785252, 0.20560241, -1170905.0, 147548.67, 0.0, 9.999465, 10.0011425 
5.2503264e+2, 1.7546487e+2, -1087099.1, -1036286.5, 4871.118, -0.05172145, -0.02379004, -1035823.75, 184629.9, 0.0, 10.00039, 10.001087 
5.250329e+2, 1.8546537e+2, -1067987.5, -1148131.9, -12441.95, -0.06010884, 0.0018211852, -1066100.5, 56347.387, 0.0, 10.000595, 9.999545 
5.250343e+2, 1.9546689e+2, -1042731.7, -1078562.1, -28805.793, 0.0524665, 0.17604108, -1026724.5, -2286.0706, 0.0, 10.000075, 9.999597 
5.2503437e+2, 2.0546746e+2, -938711.5, -962826.3, -25405.932, 0.06777317, 0.26977304, -922646.94, 3789.6182, 0.0, 10.000032, 9.999745 
5.2503324e+2, 2.1546707e+2, -794275.06, -835217.94, 6215.525, -0.0071578445, 0.22977902, -793352.3, 35090.504, 0.0, 10.000322, 9.999806 
5.25033e+2, 2.2546703e+2, -636031.9, -657640.06, 59833.477, -0.06715672, 0.22302622, -586034.9, 144409.56, 0.0, 10.00053, 10.000249 
5.250335e+2, 2.35467e+2, -519103.2, -553932.4, 17056.768, -0.11020701, 0.17407095, -512141.53, 120303.24, 0.0, 10.000668, 10.000228 
5.250342e+2, 2.4546762e+2, -425677.06, -509795.06, -47217.082, -0.033817552, 0.24018112, -404503.06, 129936.93, 0.0, 10.000853, 9.99977 
5.250352e+2, 2.5546867e+2, -295286.78, -397720.78, -56802.01, 0.13718037, 0.34267274, -270020.78, 166411.25, 0.0, 10.0010805, 9.999757 
5.2503526e+2, 2.6546827e+2, -183226.39, -373703.28, 17943.543, 0.11609778, 0.3678298, -181550.8, 156885.55, 0.0, 10.001543, 9.999021 
5.2503455e+2, 2.754664e+2, 11954.141, -231747.67, 10474.595, -0.061852273, 0.2550422, 12403.522, 252857.0, 0.00000000009174081, 10.002226, 9.998991 
5.2503353e+2, 2.8546402e+2, 91044.44, -248159.0, -67430.57, -0.123677686, 0.17066753, 103957.44, 246432.95, 0.00000033351301, 10.002541, 9.998054 
5.2503216e+2, 2.9546124e+2, 180579.0, -165870.03, -70461.27, -0.0768016, 0.054626748, 194361.23, 238863.11, 0.0000041082662, 10.002516, 9.997963 
5.250337e+2, 3.0546e+2, 123855.18, -297192.34, 104486.77, 0.04895406, 0.2011528, 148358.52, 148358.52, 0.000024723933, 10.002374, 9.996803 
5.2503407e+2, 3.1545758e+2, 195040.67, -54284.2, -31710.988, -0.1341771, 0.25554976, 199010.7, 199010.7, 0.000077842684, 10.001912, 9.998692 
5.3503114e+2, 1.2546432e+2, -1963479.5, -1861848.0, -58276.27, -0.31099525, 0.11572815, -1835343.9, -124884.984, 0.000035627574, 9.998396, 9.999716 
5.3503335e+2, 1.3546386e+2, -1429138.0, -1571246.3, -35022.945, 0.035447408, 0.07683797, -1420975.4, 191492.25, 0.000008273398, 10.001415, 9.999643 
5.3502744e+2, 1.4546385e+2, -1195129.9, -1271441.8, -24550.428, -0.6079227, 0.053399164, -1187914.0, 326554.16, 0.00000061502607, 10.001801, 10.000804 
5.350327e+2, 1.5546519e+2, -1383207.0, -1320164.9, 897.4611, 0.019713255, 0.07136666, -1320152.1, 96300.02, 0.00000000036285042, 9.999875, 10.000729 
5.35035e+2, 1.6546622e+2, -1403539.3, -1364448.9, 77000.77, 0.25674412, 0.14785685, -1304551.5, 13890.316, 0.0, 9.999426, 9.999976 
5.350346e+2, 1.7546691e+2, -1166095.8, -1200177.5, 47607.816, 0.07895003, 0.1943242, -1132570.9, 87866.38, 0.0, 10.000384, 9.9999695 
5.350337e+2, 1.8546654e+2, -1087210.1, -1173467.6, -40164.207, -0.060757805, 0.19511086, -1071404.6, 51038.973, 0.0, 10.000535, 9.999396 
5.350328e+2, 1.9546515e+2, -1061813.1, -1105907.5, -36068.25, -0.122616395, 0.09280028, -1041587.44, -17126.945, 0.0, 10.000016, 9.999442 
5.3503335e+2, 2.0546529e+2, -882696.44, -820283.2, -23407.1, -0.05866706, 0.0957033, -812480.25, 113977.9, 0.0, 9.999925, 10.000772 
5.350349e+2, 2.1546653e+2, -742979.1, -707190.9, 25593.873, 0.10638458, 0.116366476, -693856.06, 134585.39, 0.0, 10.000226, 10.000732 
5.350356e+2, 2.2546726e+2, -709552.6, -786278.7, 55248.78, 0.11847946, 0.18904935, -680653.9, 49781.67, 0.0, 10.000426, 9.999416 
5.350355e+2, 2.354674e+2, -589445.5, -675082.7, 30862.041, 0.008327663, 0.23580632, -579482.5, 52958.14, 0.0, 10.000562, 9.999445 
5.350352e+2, 2.4546711e+2, -443016.25, -530090.94, -46670.21, -0.036078714, 0.25413495, -422728.75, 111716.734, 0.0, 10.000788, 9.999661 
5.350348e+2, 2.5546634e+2, -312947.5, -418270.4, -35965.03, -0.03756734, 0.186618, -301838.16, 134613.2, 0.0, 10.001012, 9.999648 
5.350354e+2, 2.6546583e+2, -172999.56, -346551.63, 35471.207, -0.049742557, 0.19370405, -166029.73, 172426.75, 0.0, 10.0015135, 9.999221 
5.350369e+2, 2.7546522e+2, 17943.014, -206039.28, 47772.695, -0.06956539, 0.18516804, 27706.732, 268170.13, 0.0, 10.00216, 9.999204 
5.35037e+2, 2.8546488e+2, 109129.766, -205622.98, -75807.3, -0.056667134, 0.27680814, 126436.164, 268904.4, 0.00000019037492, 10.002521, 9.998356 
5.350355e+2, 2.9546463e+2, 192940.22, -125880.39, -57354.113, -0.030720282, 0.38878202, 202944.02, 247416.48, 0.0000040138116, 10.002455, 9.998267 
5.350365e+2, 3.054623e+2, 155498.53, -236270.02, 84589.76, 0.066028446, 0.39059833, 172982.66, 172982.66, 0.000024880646, 10.00238, 9.99722 
5.350353e+2, 3.154581e+2, 263558.4, 73492.66, 12160.326, -0.2581987, 0.2144041, 264333.25, 264333.25, 0.000077454766, 10.001954, 9.999555 
5.4503137e+2, 1.2546448e+2, -1798821.3, -1752455.5, -97464.91, -0.17152418, 0.1561308, -1675454.3, 35008.402, 0.000030309948, 9.999397, 10.000008 
5.450333e+2, 1.3546416e+2, -1698672.3, -1662756.3, 89564.234, 0.004019322, 0.10512001, -1589367.5, 23099.695, 0.000006366235, 9.999408, 9.999988 
5.450282e+2, 1.4546396e+2, -1443364.0, -1356169.1, 46676.1, -0.616246, 0.032257095, -1335896.4, 178569.86, 0.00000037085837, 9.999934, 10.001132 
5.4503334e+2, 1.554651e+2, -1198550.5, -1195168.4, -47753.5, 0.04674665, -0.0029906975, -1149076.0, 267373.0, 0.00000000007720086, 10.000986, 10.001052 
5.4503536e+2, 1.654663e+2, -1218030.0, -1332239.6, 52859.684, 0.27209058, 0.10062628, -1197320.3, 121117.945, 0.0, 10.00096, 9.999451 
5.4503447e+2, 1.7546743e+2, -1263839.6, -1300827.1, 49798.785, 0.05941929, 0.24538134, -1229211.4, -8777.264, 0.0, 9.999958, 9.999481 
5.4503363e+2, 1.8546717e+2, -1157766.5, -1185806.0, 24031.963, -0.08574128, 0.26693985, -1143963.9, -21523.334, 0.0, 9.999936, 9.999613 
5.4503304e+2, 1.954656e+2, -932672.0, -1019635.25, 38286.74, -0.13778655, 0.123606004, -918218.06, 106238.64, 0.0, 10.000783, 9.999668 
5.450338e+2, 2.0546532e+2, -714611.75, -761811.9, 33944.652, -0.06218945, 0.08565382, -696869.3, 229587.31, 0.0, 10.001182, 10.000569 
5.450357e+2, 2.1546592e+2, -626682.3, -671797.1, -25827.889, 0.12126426, 0.06405689, -614948.1, 213496.78, 0.0, 10.001124, 10.00054 
5.450366e+2, 2.2546653e+2, -671040.4, -813098.2, -13076.534, 0.16257846, 0.15342048, -669846.7, 60594.13, 0.0, 10.000877, 9.99902 
5.4503673e+2, 2.3546694e+2, -629838.8, -739358.0, -23426.11, 0.08999389, 0.2701414, -625038.4, 7406.946, 0.0, 10.000473, 9.999052 
5.4503626e+2, 2.454663e+2, -474279.63, -542134.75, -46259.703, 0.003843899, 0.27147076, -450839.6, 83613.69, 0.0, 10.000563, 9.999684 
5.450351e+2, 2.5546464e+2, -302145.38, -409743.03, -49064.797, -0.10084665, 0.11022394, -283131.66, 153334.06, 0.0, 10.001078, 9.999671 
5.4503596e+2, 2.6546407e+2, -246298.52, -383303.66, 27611.516, -0.1141935, 0.11444337, -240943.13, 97527.664, 0.0, 10.001023, 9.999202 
5.450385e+2, 2.7546415e+2, -214691.56, -317090.3, 4193.2017, -0.0384396, 0.1751646, -214520.13, 25952.2, 0.0, 10.000558, 9.999212 
5.4503906e+2, 2.8546435e+2, -116645.68, -296033.84, -100755.16, -0.009516499, 0.31278536, -71444.88, 71028.23, 0.00000011177434, 10.000903, 9.998515 
5.450377e+2, 2.954646e+2, 132647.34, -128866.12, -114149.11, -0.026160816, 0.45659328, 175462.9, 219936.78, 0.0000045059896, 10.001954, 9.998481 
5.450391e+2, 3.0546176e+2, 183021.77, -192922.0, 13152.755, 0.09319858, 0.38545427, 183481.38, 183481.38, 0.000026381855, 10.002441, 9.997483 
5.450387e+2, 3.1545824e+2, 302641.8, 120749.34, -86320.51, -0.115814, 0.2523166, 337084.75, 337084.75, 0.00007890932, 10.002113, 9.999793 
5.550301e+2, 1.2546481e+2, -1692210.5, -1520913.1, -237804.25, -0.2807078, 0.23514837, -1353803.9, 356665.2, 0.000026661139, 9.999371, 10.0016 
5.550337e+2, 1.354664e+2, -1602450.4, -1456698.0, 99235.44, 0.08159706, 0.21940552, -1406453.9, 205991.94, 0.0000052899522, 9.999391, 10.001408 
5.5503e+2, 1.4546627e+2, -1503974.8, -1481428.4, 73795.12, -0.45992634, 0.13126244, -1418050.4, 96391.58, 0.00000021782215, 9.999928, 10.000277 
5.550332e+2, 1.5546586e+2, -1252503.3, -1312449.0, 732.1286, -0.09164583, 0.029788105, -1252494.4, 163948.48, 0.00000000000011946363, 10.000998, 10.00025 
5.550337e+2, 1.6546604e+2, -1216561.8, -1321151.9, 5569.3257, -0.008622784, 0.06328307, -1216266.1, 102176.79, 0.0, 10.000931, 9.999537 
5.5503213e+2, 1.7546642e+2, -1262552.1, -1290696.3, 24178.62, -0.19681102, 0.12588765, -1248648.8, -28203.79, 0.0, 9.999926, 9.999566 
5.5503243e+2, 1.8546723e+2, -1122823.5, -1097375.0, 46710.75, -0.21797922, 0.21802779, -1061686.5, 60752.15, 0.0, 9.999867, 10.000253 
5.550346e+2, 1.9546822e+2, -904836.9, -949439.4, 78017.96, -0.08239046, 0.26952183, -845995.4, 178431.67, 0.0, 10.000722, 10.000186 
5.550355e+2, 2.054675e+2, -825435.44, -967652.94, 23796.346, -0.034993667, 0.23598689, -821559.4, 104872.92, 0.0, 10.001081, 9.999201 
5.5503523e+2, 2.1546516e+2, -736359.5, -873898.0, -18305.621, -0.058847077, 0.056705356, -733964.8, 94488.98, 0.0, 10.001008, 9.99921 
5.5503577e+2, 2.2546469e+2, -690020.7, -820842.44, -36959.496, -0.026351282, 0.09960331, -680301.1, 50160.31, 0.0, 10.000748, 9.999026 
5.5503696e+2, 2.3546563e+2, -647414.7, -746033.25, -24703.385, 0.04902141, 0.26893732, -641572.7, -9114.028, 0.0, 10.000346, 9.999065 
5.5503696e+2, 2.4546525e+2, -479211.22, -535320.44, -33318.746, -0.003194296, 0.29097053, -463708.97, 70753.96, 0.0, 10.000484, 9.999773 
5.550358e+2, 2.5546357e+2, -308333.94, -402791.7, -20258.557, -0.15933365, 0.11801271, -304172.38, 132302.58, 0.0, 10.000991, 9.999763 
5.5503666e+2, 2.6546302e+2, -266122.9, -418054.13, 985.5207, -0.1665066, 0.12884842, -266116.5, 72363.18, 0.0, 10.000998, 9.998975 
5.550391e+2, 2.7546313e+2, -241767.17, -360903.4, -525.6427, -0.057961144, 0.22251901, -241764.86, -1284.1096, 0.0, 10.0005045, 9.998938 
5.5503964e+2, 2.854624e+2, -118236.87, -297274.78, -71455.49, -0.06555361, 0.2818971, -93215.305, 49275.29, 0.00000024371042, 10.00089, 9.998515 
5.5503833e+2, 2.9546088e+2, 131714.84, -126516.414, -63353.867, -0.18141195, 0.24833524, 146420.48, 190928.67, 0.0000058589785, 10.001926, 9.998515 
5.550411e+2, 3.0545828e+2, 189451.83, -175485.4, -3213.1042, 0.026297927, 0.18651854, 189480.11, 189480.11, 0.000029984647, 10.002427, 9.997608 
5.550436e+2, 3.1545773e+2, 269170.97, 58608.395, -49932.5, 0.10785882, 0.3412311, 280411.8, 280411.8, 0.00008416486, 10.002071, 9.9993925 
5.650295e+2, 1.254666e+2, -1734587.0, -1545178.8, -126935.38, -0.2520045, 0.29143044, -1481511.6, 228941.83, 0.000022362967, 9.999075, 10.001573 
5.650343e+2, 1.3546775e+2, -1410022.1, -1367530.5, 131755.77, 0.13981594, 0.22332746, -1255318.6, 357113.5, 0.000004259607, 10.000705, 10.001385 
5.650323e+2, 1.454672e+2, -1387423.9, -1521089.5, 61367.523, -0.2728585, 0.1408215, -1363523.0, 150910.16, 0.00000013010742, 10.001143, 9.99942 
5.6503356e+2, 1.5546656e+2, -1347272.9, -1442566.0, -33924.117, -0.13275033, 0.099345624, -1336429.8, 80010.25, 0.0, 10.000723, 9.999486 
5.650335e+2, 1.6546628e+2, -1250313.6, -1341687.4, -32774.188, -0.1081495, 0.12523243, -1239773.9, 78670.7, 0.0, 10.000701, 9.9995165 
5.650327e+2, 1.7546599e+2, -1098871.3, -1211516.1, -38697.85, -0.1799616, 0.1193635, -1086858.1, 133592.48, 0.0, 10.001041, 9.999571 
5.6503356e+2, 1.8546654e+2, -955507.94, -1022885.44, -6132.677, -0.14663406, 0.188998, -954954.3, 167490.64, 0.0, 10.001053, 10.000186 
5.650359e+2, 1.9546768e+2, -912063.3, -955943.75, -42514.47, -0.019837165, 0.2589316, -886161.56, 138269.05, 0.0, 10.000701, 10.000139 
5.6503636e+2, 2.0546693e+2, -944415.44, -1074549.4, -74856.22, -0.012550081, 0.24443069, -910299.94, 16137.364, 0.0, 10.000476, 9.998761 
5.650355e+2, 2.154644e+2, -863229.94, -975309.3, -65714.9, -0.09028752, 0.092472196, -832904.75, -4441.6406, 0.0, 10.000322, 9.99884 
5.6503594e+2, 2.254637e+2, -701637.9, -781803.9, -12156.861, -0.06550791, 0.108884014, -699834.9, 30636.959, 0.0, 10.000471, 9.999427 
5.6503755e+2, 2.3546432e+2, -549619.44, -653175.56, 12187.017, 0.050066512, 0.20413917, -548204.56, 84263.35, 0.0, 10.000825, 9.999464 
5.6503785e+2, 2.4546415e+2, -446922.03, -554831.06, 26284.496, 0.020150637, 0.24240124, -440860.2, 93609.914, 0.0, 10.000881, 9.999434 
5.65037e+2, 2.5546297e+2, -364952.53, -469037.66, -15433.417, -0.12666497, 0.15794335, -362712.3, 73767.74, 0.0, 10.000776, 9.999409 
5.6503785e+2, 2.6546216e+2, -272833.5, -421594.03, 12716.74, -0.14450888, 0.16184662, -271754.25, 66733.24, 0.0, 10.000952, 9.998973 
5.6504005e+2, 2.7546152e+2, -115926.77, -294980.0, 11545.541, -0.057098184, 0.17442587, -115185.375, 125308.56, 0.0, 10.001358, 9.998972 
5.6504065e+2, 2.8546032e+2, -24040.717, -254429.02, -5558.385, -0.081926644, 0.18600726, -23906.691, 118600.68, 0.00000046127252, 10.001528, 9.998507 
5.650399e+2, 2.9545864e+2, 77040.875, -154445.13, -16199.814, -0.19686969, 0.13777296, 78169.07, 122695.734, 0.000007820285, 10.00154, 9.998515 
5.650428e+2, 3.0545667e+2, 134497.67, -149383.98, 61414.105, -0.0078751035, 0.11549737, 147214.19, 147214.19, 0.00003595913, 10.001828, 9.998072 
5.650457e+2, 3.1545737e+2, 275145.0, 77790.1, 7907.348, 0.12376457, 0.34460476, 275461.3, 275461.3, 0.000094486146, 10.002061, 9.9995165 
5.750288e+2, 1.2546968e+2, -1847789.5, -1777707.6, -153279.3, -0.28388655, 0.3071548, -1655514.9, 54902.74, 0.000015098279, 9.999068, 9.999973 
5.750345e+2, 1.3546814e+2, -1511576.0, -1578811.4, 191948.63, 0.06903256, 0.11495339, -1350323.4, 262103.63, 0.0000026568694, 10.000702, 9.999933 
5.750349e+2, 1.4546679e+2, -1451507.1, -1643296.6, 29478.813, -0.15481408, 0.06556741, -1447078.4, 67361.586, 0.000000050157187, 10.001104, 9.998599 
5.750342e+2, 1.5546712e+2, -1408363.3, -1561363.4, -38074.156, -0.16655108, 0.20560433, -1399412.1, 17028.902, 0.0, 10.000692, 9.998687 
5.750344e+2, 1.6546695e+2, -1257862.9, -1347044.8, -31765.049, -0.115274705, 0.2805554, -1247705.5, 70738.68, 0.0, 10.000653, 9.999502 
5.7503587e+2, 1.7546608e+2, -1107602.5, -1225747.9, -17210.018, 0.012106655, 0.21949457, -1105146.6, 115305.18, 0.0, 10.0010195, 9.999486 
5.7503664e+2, 1.8546514e+2, -1012475.0, -1127291.0, -26302.195, 0.032129705, 0.18197808, -1006736.5, 115722.35, 0.0, 10.001, 9.999492 
5.750366e+2, 1.9546399e+2, -969535.5, -1054054.6, -44940.23, -0.04686701, 0.093159504, -950106.4, 74360.95, 0.0, 10.000614, 9.999506 
5.7503647e+2, 2.0546357e+2, -926684.1, -1010627.44, -91297.91, -0.077119455, 0.11678283, -868172.3, 58298.87, 0.0, 10.000359, 9.999256 
5.750362e+2, 2.1546361e+2, -846762.3, -913840.0, -61221.45, -0.0680833, 0.17187546, -810494.9, 17977.965, 0.0, 10.000202, 9.999322 
5.750368e+2, 2.2546351e+2, -654675.5, -660212.75, -7578.3994, -0.045220003, 0.18030924, -649375.8, 81096.664, 0.0, 10.000364, 10.000314 
5.7503796e+2, 2.3546308e+2, -510066.6, -545569.75, 35146.98, -0.009257251, 0.08264228, -488442.7, 144029.86, 0.0, 10.000712, 10.000259 
5.7503843e+2, 2.4546292e+2, -509186.88, -678478.9, 11373.229, -0.025935316, 0.12854616, -508426.22, 26049.002, 0.0, 10.000843, 9.99861 
5.750383e+2, 2.5546277e+2, -428441.34, -587250.6, -7386.2705, -0.09449391, 0.22897847, -428098.56, 8383.4, 0.0, 10.0007105, 9.998633 
5.750392e+2, 2.654615e+2, -255066.45, -385412.22, 19193.012, -0.13082649, 0.21248752, -252299.1, 86195.125, 0.0, 10.000942, 9.999231 
5.7504076e+2, 2.7545914e+2, -100975.36, -259611.63, 33931.402, -0.14605182, 0.024870632, -94022.375, 146490.7, 0.0, 10.001322, 9.999239 
5.7504165e+2, 2.8545803e+2, -22841.9, -243567.36, -16566.363, -0.1619329, 0.025013603, -21605.453, 120918.695, 0.0000006054728, 10.001493, 9.998599 
5.7504183e+2, 2.954579e+2, 77948.37, -142265.23, -960.9958, -0.1837604, 0.12113245, 77952.555, 122481.98, 0.000009307056, 10.001499, 9.998617 
5.7504404e+2, 3.05457e+2, 187244.31, -44345.586, 66901.46, -0.09613002, 0.16832268, 205181.47, 205181.47, 0.000040671366, 10.001839, 9.998798 
5.7504463e+2, 3.1545678e+2, 314772.75, 157095.06, 42132.734, -0.24654737, 0.23463753, 325324.8, 325324.8, 0.000103750725, 10.002057, 10.000075 
5.8503e+2, 1.2547022e+2, -1780390.5, -1857705.8, -224676.17, -0.10233025, 0.25427714, -1591070.5, 119338.11, 0.000008007214, 9.9999895, 9.99899 
5.8503467e+2, 1.3546835e+2, -1426133.5, -1631331.6, 140719.31, -0.024693923, 0.12080061, -1354581.9, 257844.53, 0.0000012151539, 10.001688, 9.999103 
5.8503705e+2, 1.4546701e+2, -1350296.3, -1583812.1, -19633.05, -0.07538791, 0.109352335, -1348657.1, 165783.6, 0.000000012980553, 10.001766, 9.998675 
5.850352e+2, 1.5546735e+2, -1365331.6, -1531183.3, -41747.85, -0.13743798, 0.23743716, -1355415.8, 61024.58, 0.0, 10.000954, 9.998755 
5.8503515e+2, 1.6546687e+2, -1219761.3, -1353286.6, 51798.27, -0.1104442, 0.29017478, -1202023.5, 116421.24, 0.0, 10.00102, 9.99928 
5.850375e+2, 1.7546552e+2, -1010542.94, -1202561.3, 31533.096, 0.042613562, 0.20276748, -1005497.2, 214958.23, 0.0, 10.001787, 9.999271 
5.8503836e+2, 1.8546408e+2, -940363.75, -1157119.3, 1272.6622, 0.07929239, 0.15292396, -940356.3, 182111.39, 0.0, 10.001768, 9.998922 
5.850378e+2, 1.9546236e+2, -943228.8, -1103568.8, -26686.182, 0.007989147, 0.065970935, -938904.0, 85579.49, 0.0, 10.001053, 9.998963 
5.850374e+2, 2.0546187e+2, -830201.56, -935219.75, -35019.29, -0.030515762, 0.09462128, -819595.25, 106892.82, 0.0, 10.000894, 9.999514 
5.8503723e+2, 2.1546227e+2, -681664.4, -807681.8, -39927.445, -0.03665895, 0.15731333, -670078.9, 158406.08, 0.0, 10.001214, 9.999565 
5.850376e+2, 2.2546229e+2, -572426.56, -620430.44, -20414.736, -0.026549384, 0.16655794, -564918.94, 165563.97, 0.0, 10.000943, 10.000309 
5.850384e+2, 2.3546174e+2, -583838.1, -584986.9, -65101.906, -0.0056562005, 0.060918327, -519308.03, 113175.945, 0.0, 10.000219, 10.000236 
5.850392e+2, 2.4546157e+2, -599613.75, -707120.75, -43592.68, -0.0028096088, 0.10140053, -584159.1, -49672.645, 0.0, 10.00015, 9.998747 
5.8503973e+2, 2.5546157e+2, -411006.88, -560465.44, -9131.378, -0.017439809, 0.20061174, -410451.03, 26040.252, 0.0, 10.000751, 9.99879 
5.8504075e+2, 2.6546046e+2, -256671.4, -384276.72, 56320.4, -0.061691474, 0.18934128, -235369.61, 103132.695, 0.0, 10.000939, 9.999232 
5.85042e+2, 2.754582e+2, -170307.61, -294119.8, 32979.99, -0.12571298, 0.013629791, -162070.67, 78450.01, 0.0, 10.000864, 9.999219 
5.8504295e+2, 2.8545725e+2, -66684.77, -270037.44, -6965.616, -0.1556638, 0.036759265, -66446.45, 76083.54, 0.00000055145284, 10.001218, 9.998547 
5.850438e+2, 2.954574e+2, 120210.875, -132144.72, -24010.588, -0.14914538, 0.16812262, 122475.06, 167007.25, 0.000008783807, 10.001835, 9.998524 
5.85046e+2, 3.0545604e+2, 199233.02, -63316.77, 10612.278, -0.07673165, 0.18635282, 199661.27, 199661.27, 0.000039667964, 10.002026, 9.9985695 
5.850462e+2, 3.1545433e+2, 257344.78, 116475.65, -123077.57, -0.27524117, 0.119180195, 328716.84, 328716.84, 0.00010388018, 10.001721, 9.999947 
5.950327e+2, 1.2546802e+2, -1789658.5, -1873646.4, -167956.3, 0.10998834, 0.12733747, -1658525.9, 51902.38, 0.0000033727015, 9.999998, 9.998868 
5.950345e+2, 1.3546842e+2, -1440058.5, -1652676.5, 199879.02, -0.23107731, 0.23863138, -1319975.8, 292454.03, 0.00000044999516, 10.001669, 9.998961 
5.950385e+2, 1.4546789e+2, -1289119.9, -1448559.4, -66740.945, -0.13924377, 0.26389655, -1264870.5, 249564.9, 0.000000014541682, 10.001726, 9.999622 
5.950363e+2, 1.554672e+2, -1305997.3, -1405772.5, -61095.742, -0.15034458, 0.1941973, -1277008.6, 139429.58, 0.0, 10.000939, 9.999625 
5.950357e+2, 1.6546611e+2, -1254726.0, -1413293.1, 70251.74, -0.18485868, 0.16461894, -1228079.5, 90366.46, 0.0, 10.000973, 9.99889 
5.950374e+2, 1.7546438e+2, -1041634.06, -1257219.0, 67564.36, -0.17418195, 0.07817336, -1022209.56, 198251.48, 0.0, 10.001751, 9.998913 
5.9503865e+2, 1.8546331e+2, -978429.1, -1225863.6, -37210.52, -0.092914335, 0.105624475, -972954.4, 149517.45, 0.0, 10.00172, 9.998475 
5.9503937e+2, 1.9546263e+2, -984647.5, -1172041.4, -43121.023, 0.0350533, 0.1690226, -975201.2, 49279.176, 0.0, 10.000978, 9.9985285 
5.950391e+2, 2.0546174e+2, -837775.0, -928983.4, -32083.707, 0.027429828, 0.17349276, -827619.8, 98868.75, 0.0, 10.000797, 9.999603 
5.950382e+2, 2.1546043e+2, -695682.06, -809384.06, -18568.87, -0.08478445, 0.058440976, -692726.4, 135772.34, 0.0, 10.001098, 9.999611 
5.95038e+2, 2.2546007e+2, -648563.75, -761363.06, -58471.055, -0.098733224, 0.07494908, -623724.4, 106777.91, 0.0, 10.000862, 9.999384 
5.9503853e+2, 2.3546025e+2, -657698.7, -715925.9, -80314.59, -0.03728093, 0.13361107, -601383.75, 31118.816, 0.0, 10.000117, 9.99939 
5.9503955e+2, 2.4546002e+2, -527236.94, -548287.94, -29582.889, -0.0065617324, 0.15125684, -506362.84, 28141.5, 0.0, 10.000103, 9.999866 
5.95041e+2, 2.5545937e+2, -345507.6, -409791.56, 20474.74, 0.0009179178, 0.07246014, -339540.22, 96967.98, 0.0, 10.000682, 9.999861 
5.950422e+2, 2.65459e+2, -280264.3, -425062.34, 43022.723, -0.026101084, 0.09716498, -268445.94, 70065.625, 0.0, 10.000907, 9.998969 
5.950434e+2, 2.7545857e+2, -198095.1, -339096.3, 42928.25, -0.09622899, 0.1362412, -186053.78, 54463.19, 0.0, 10.00081, 9.998939 
5.9504443e+2, 2.8545797e+2, -89060.17, -307111.3, 7278.0444, -0.15661253, 0.21627225, -88817.516, 53707.438, 0.0000003359344, 10.001181, 9.998306 
5.950453e+2, 2.954571e+2, 92383.984, -175083.89, 7740.612, -0.20463978, 0.26730102, 92607.81, 137143.47, 0.000006914508, 10.001776, 9.998251 
5.9504867e+2, 3.0545378e+2, 111990.92, -238367.27, -6728.3247, -0.042012714, 0.15963414, 112120.086, 112120.086, 0.000035638073, 10.001997, 9.997385 
5.950495e+2, 3.1545013e+2, 199346.5, 6943.2065, -102907.055, -0.1714241, 0.020256968, 244015.78, 244015.78, 0.00009897654, 10.0016775, 9.999214 
6.050339e+2, 1.2546602e+2, -1648724.3, -1797856.4, -111962.54, 0.19365391, 0.07614177, -1588770.0, 121675.43, 0.0000011596172, 10.000915, 9.998964 
6.0503465e+2, 1.3546701e+2, -1628370.4, -1728961.4, 175900.52, -0.30484995, 0.23987713, -1495716.0, 116727.32, 0.00000014603442, 10.000334, 9.999074 
6.050405e+2, 1.4546692e+2, -1456369.9, -1478289.0, -88880.04, -0.03892688, 0.28290245, -1377776.3, 136668.06, 0.0000000031309833, 10.000353, 10.00009 
6.050383e+2, 1.5546621e+2, -1201190.8, -1307200.4, -140919.14, -0.066420324, 0.17093623, -1103637.5, 312807.25, 0.0, 10.001449, 10.000065 
6.0503745e+2, 1.6546501e+2, -1131567.1, -1401431.8, 4798.213, -0.14849572, 0.12836777, -1131481.9, 186972.42, 0.0, 10.0020075, 9.99848 
6.0503894e+2, 1.7546308e+2, -1028155.3, -1296594.0, -21136.084, -0.20258226, 0.0618064, -1026501.3, 193972.69, 0.0, 10.00203, 9.998514 
6.0504013e+2, 1.854621e+2, -937261.56, -1174083.0, -113345.87, -0.113880806, 0.104086936, -891756.5, 230727.84, 0.0, 10.001876, 9.998753 
6.0504097e+2, 1.954618e+2, -880104.75, -1091025.3, -83915.17, 0.07107383, 0.17468776, -850792.56, 173695.8, 0.0, 10.00157, 9.9988 
6.0504067e+2, 2.05461e+2, -752048.6, -890880.25, -10305.086, 0.07667175, 0.17762531, -751287.9, 175207.14, 0.0, 10.001402, 9.99958 
6.050396e+2, 2.1545956e+2, -670589.9, -803008.0, -25441.547, -0.05639789, 0.05236098, -665870.06, 162636.28, 0.0, 10.001291, 9.999564 
6.050393e+2, 2.254589e+2, -625326.56, -797411.06, -46257.03, -0.071517274, 0.06796771, -613680.6, 116832.77, 0.0, 10.001232, 9.998952 
6.050396e+2, 2.3545878e+2, -520882.13, -687371.75, -49803.62, 0.008352292, 0.13570432, -507121.28, 125397.56, 0.0, 10.001238, 9.999032 
6.0504055e+2, 2.454585e+2, -332118.78, -417989.34, 31643.754, 0.028361691, 0.14881708, -321717.72, 212802.67, 0.0, 10.001314, 10.000168 
6.05042e+2, 2.5545794e+2, -211004.84, -314971.13, -345.98425, 0.0028629054, 0.053784795, -211003.69, 225516.47, 0.0, 10.001492, 10.000122 
6.0504353e+2, 2.654575e+2, -232437.98, -430399.03, -10963.643, -0.008754284, 0.073608376, -231832.64, 106691.3, 0.0, 10.001342, 9.998732 
6.05045e+2, 2.7545694e+2, -199972.2, -364079.75, -27182.412, -0.010665685, 0.12243014, -195586.94, 44946.188, 0.0, 10.000882, 9.998739 
6.0504603e+2, 2.8545642e+2, -114660.41, -271092.34, 13522.503, -0.09015055, 0.198281, -113500.08, 29039.822, 0.00000016006682, 10.000796, 9.99874 
6.050466e+2, 2.9545587e+2, 13293.212, -168029.92, 39865.6, -0.21510276, 0.23892547, 21670.959, 66215.89, 0.0000052467194, 10.001034, 9.998662 
6.0505044e+2, 3.0545238e+2, 4590.494, -298264.16, 99078.12, -0.025381235, 0.09907999, 34123.684, 34123.684, 0.000031333126, 10.001305, 9.997307 
6.0505193e+2, 3.154493e+2, 151335.44, -42160.25, 47123.844, -0.06861876, 0.03366304, 162201.72, 162201.72, 0.000092264556, 10.001453, 9.9990015 
6.150332e+2, 1.254644e+2, -1621460.5, -1733754.4, -86698.33, -0.016914211, 0.11521914, -1574316.1, 136142.25, 0.000000319301, 10.000895, 9.999405 
6.150349e+2, 1.3546415e+2, -1613990.4, -1693714.8, 158401.11, -0.3448993, 0.12868513, -1490512.8, 121953.86, 0.000000018009526, 10.000322, 9.999315 
6.150427e+2, 1.4546406e+2, -1459698.0, -1488554.6, -68003.914, 0.119236305, 0.16662516, -1404608.6, 109859.24, 0.0, 10.000356, 10.000021 
6.1504084e+2, 1.554644e+2, -1200341.9, -1316053.0, -92964.61, 0.017192116, 0.16055012, -1148700.0, 267760.72, 0.0, 10.001475, 9.999997 
6.150402e+2, 1.6546358e+2, -1168604.4, -1463820.0, -4376.4087, -0.102861576, 0.1812515, -1168539.5, 149930.34, 0.0, 10.001954, 9.998075 
6.150419e+2, 1.7546155e+2, -1058820.5, -1353558.5, -10152.33, -0.13164069, 0.1482981, -1058471.1, 162023.69, 0.0, 10.002, 9.998139 
6.150427e+2, 1.8546046e+2, -880752.5, -1036679.9, -132998.52, -0.07641835, 0.14505032, -804550.9, 317954.63, 0.0, 10.00179, 9.999735 
6.1504227e+2, 1.9545995e+2, -824659.1, -963175.1, -83627.91, 0.027128011, 0.09701466, -785333.94, 239172.11, 0.0, 10.00151, 9.99971 
6.1504173e+2, 2.0545976e+2, -775004.9, -915426.56, -23328.063, 0.025636349, 0.1239556, -771230.9, 155275.08, 0.0, 10.001304, 9.999457 
6.150412e+2, 2.1545964e+2, -698620.5, -832569.7, -20139.518, -0.046964772, 0.1425308, -695658.0, 132849.23, 0.0, 10.001165, 9.999423 
6.150411e+2, 2.2545886e+2, -636893.9, -797525.06, -53447.74, -0.036832962, 0.14887089, -620735.3, 109780.45, 0.0, 10.001123, 9.999005 
6.150413e+2, 2.3545739e+2, -533703.94, -690775.0, -38590.684, 0.037028708, 0.07788495, -524734.8, 107797.13, 0.0, 10.001134, 9.999059 
6.1504185e+2, 2.4545695e+2, -378823.53, -502787.4, 27327.229, 0.008159041, 0.10021559, -373066.72, 161467.98, 0.0, 10.001259, 9.999613 
6.1504257e+2, 2.554572e+2, -259815.27, -401875.9, 13451.167, -0.11155085, 0.13591357, -258552.84, 177975.17, 0.0, 10.001426, 9.9995575 
6.150441e+2, 2.6545593e+2, -252667.42, -462506.9, -37129.74, -0.09939292, 0.11387465, -246291.3, 92248.484, 0.0, 10.001301, 9.99853 
6.1504644e+2, 2.7545327e+2, -221896.86, -390016.8, -30889.1, 0.018880855, -0.030483203, -216401.17, 24167.836, 0.0, 10.000803, 9.998595 
6.150474e+2, 2.8545266e+2, -43249.11, -116748.05, 12122.295, -0.055334363, -0.011523035, -41301.375, 101272.77, 0.00000012615395, 10.000768, 9.999814 
6.1504704e+2, 2.954538e+2, 81697.63, -9234.873, 60273.094, -0.29818922, 0.08563788, 111729.9, 156288.73, 0.000004351736, 10.000968, 9.999779 
6.150509e+2, 3.054519e+2, 64889.95, -173146.64, 97048.26, -0.12765425, 0.009131761, 99441.57, 99441.57, 0.000027327982, 10.001297, 9.99818 
6.150529e+2, 3.154519e+2, 163663.58, -3122.137, 93457.16, -0.18033619, 0.16516855, 205524.89, 205524.89, 0.00008383067, 10.0014, 9.999296 
6.25034e+2, 1.2546161e+2, -1547494.1, -1673620.6, -5790.0933, -0.03481195, 0.038710274, -1547228.9, 163253.36, 0.00000004128188, 10.001271, 9.999652 
6.2503475e+2, 1.3546166e+2, -1556036.6, -1654313.4, 101984.336, -0.39548415, 0.070859686, -1491969.9, 120515.72, 0.000000000001578113, 10.000644, 9.999447 
6.250433e+2, 1.454616e+2, -1491680.9, -1522717.3, -50355.367, 0.15724199, 0.1139117, -1454506.9, 59981.094, 0.0, 10.000218, 9.999852 
6.2504214e+2, 1.55462e+2, -1325769.5, -1383668.9, -97277.5, 0.046263084, 0.12846796, -1253225.4, 163258.45, 0.0, 10.000672, 9.999905 
6.250417e+2, 1.6546175e+2, -1305174.8, -1465183.4, 13266.35, -0.07166084, 0.17992456, -1304082.4, 14406.702, 0.0, 10.000746, 9.998644 
6.250435e+2, 1.7546071e+2, -1264659.8, -1384345.0, 54656.74, -0.080420084, 0.18803126, -1243456.1, -22951.71, 0.0, 10.000315, 9.99873 
6.250441e+2, 1.8545999e+2, -1017859.4, -1073607.6, -21526.762, -0.047452867, 0.17875978, -1010514.6, 111996.484, 0.0, 10.000697, 10.000016 
6.250434e+2, 1.9545928e+2, -777601.06, -907805.44, -40824.004, -0.01491198, 0.079425015, -765859.94, 258653.13, 0.0, 10.001683, 10.000006 
6.250428e+2, 2.0545918e+2, -720521.94, -902401.44, -13052.834, -0.016815158, 0.10786053, -719590.0, 206922.31, 0.0, 10.001728, 9.999347 
6.2504244e+2, 2.1545936e+2, -734543.25, -855570.8, -23981.967, -0.023708288, 0.16730668, -729964.44, 98547.24, 0.0, 10.00095, 9.999367 
6.250426e+2, 2.2545868e+2, -606758.6, -783316.75, 1597.0046, 0.00040695295, 0.18398732, -606744.2, 123774.46, 0.0, 10.00133, 9.999002 
6.250433e+2, 2.3545708e+2, -310396.4, -590763.75, -8264.649, 0.04914936, 0.10115284, -310153.0, 322381.06, 0.0, 10.002689, 9.999004 
6.2504363e+2, 2.4545608e+2, -232997.75, -510680.38, 24815.377, 0.0016042668, 0.10902501, -230797.53, 303744.9, 0.0, 10.002581, 9.99893 
6.250437e+2, 2.5545546e+2, -322266.22, -502516.22, -16193.186, -0.1278053, 0.12893444, -320823.0, 115723.39, 0.0, 10.001293, 9.998933 
6.2504524e+2, 2.654542e+2, -268694.06, -446789.63, -13887.119, -0.10749878, 0.12081551, -267617.72, 70941.31, 0.0, 10.001087, 9.998738 
6.2504786e+2, 2.7545208e+2, -70597.46, -298223.34, -638.0291, 0.039340958, 0.011227474, -70595.67, 169985.98, 0.0, 10.001752, 9.998768 
6.2504876e+2, 2.8545126e+2, 64818.477, -98695.83, 11244.52, -0.03199741, 0.01943555, 65588.12, 208176.36, 0.000000116905284, 10.0016575, 9.999514 
6.250481e+2, 2.9545155e+2, 60429.535, -54788.39, -66777.41, -0.2845073, 0.06427611, 91013.625, 135595.19, 0.000004287332, 10.000954, 9.999487 
6.250521e+2, 3.0545005e+2, 65553.81, -74700.25, -36674.203, -0.10591124, -0.005979442, 74564.62, 74564.62, 0.000025852014, 10.000896, 9.999039 
6.250546e+2, 3.154512e+2, 164875.64, 24254.502, -66484.07, -0.121938944, 0.17978175, 191331.31, 191331.31, 0.00007867894, 10.001295, 9.999529 
6.35036e+2, 1.2545753e+2, -1534577.5, -1652391.0, 25810.871, -0.017345244, -0.15654686, -1529170.9, 181347.16, 0.000000010756334, 10.001299, 9.9997835 
6.35034e+2, 1.3545948e+2, -1559812.4, -1657738.4, 73486.82, -0.554533, 0.06350219, -1520470.9, 92030.62, 0.0, 10.000624, 9.999436 
6.3504195e+2, 1.4545958e+2, -1510915.3, -1547657.8, -50350.23, -0.02406473, 0.13211642, -1475689.4, 38814.77, 0.0, 10.00016, 9.999707 
6.35042e+2, 1.5545903e+2, -1330895.5, -1398690.3, -66534.984, -0.06263427, 0.067619756, -1290120.6, 126393.53, 0.0, 10.000684, 9.999801 
6.35042e+2, 1.6545941e+2, -1205274.9, -1249855.3, -13555.529, -0.14542267, 0.10908356, -1201476.6, 117036.31, 0.0, 10.00071, 10.000139 
6.350435e+2, 1.754604e+2, -1166797.6, -1182616.9, 49663.914, -0.13691953, 0.17179303, -1124417.4, 96086.805, 0.0, 10.000309, 10.000124 
6.3504434e+2, 1.854605e+2, -1050319.9, -1126022.9, 6072.63, -0.12329729, 0.19503926, -1049835.9, 72667.25, 0.0, 10.000639, 9.9996805 
6.35044e+2, 1.9545962e+2, -812921.5, -962940.5, 1272.3661, -0.14949876, 0.114010215, -812910.7, 211600.03, 0.0, 10.001604, 9.999664 
6.3504344e+2, 2.0545912e+2, -743426.94, -920150.4, -52854.992, -0.13657993, 0.1217636, -728825.4, 197690.06, 0.0, 10.001601, 9.999285 
6.3504297e+2, 2.1545869e+2, -757241.7, -870481.0, -39384.92, -0.08163049, 0.12539132, -744890.6, 83629.21, 0.0, 10.000813, 9.999329 
6.350436e+2, 2.254583e+2, -626660.0, -800411.5, 44003.258, -0.050587673, 0.17442921, -616151.56, 114371.016, 0.0, 10.001223, 9.998939 
6.350452e+2, 2.3545769e+2, -334594.66, -614607.5, 50136.258, -0.051663306, 0.19641003, -325888.47, 306637.66, 0.0, 10.002573, 9.998898 
6.350456e+2, 2.4545588e+2, -301310.97, -635829.4, -31995.398, -0.086487085, 0.16963847, -298278.22, 236265.44, 0.0, 10.002509, 9.998105 
6.350451e+2, 2.5545284e+2, -386216.47, -619490.2, -52220.508, -0.14136499, 0.033415012, -375059.97, 61514.85, 0.0, 10.001222, 9.998166 
6.3504636e+2, 2.6545227e+2, -235347.1, -363427.4, 1310.4487, -0.118354626, 0.10035953, -235333.69, 103247.8, 0.0, 10.001034, 9.999333 
6.35049e+2, 2.7545342e+2, -51775.42, -233423.95, 34072.91, -0.04491916, 0.25742167, -45594.48, 194975.9, 0.0, 10.001649, 9.99926 
6.350499e+2, 2.8545228e+2, -53253.563, -337580.16, -27733.371, -0.11563768, 0.29114187, -50573.69, 92008.336, 0.0000001448745, 10.001631, 9.997889 
6.350493e+2, 2.9544923e+2, -59985.824, -286168.78, -78118.59, -0.29336417, 0.16936554, -35628.414, 8983.734, 0.000005079309, 10.000889, 9.997924 
6.350536e+2, 3.0544695e+2, 119937.45, 27097.365, -26281.295, -0.07600196, 0.06742865, 126860.89, 126860.89, 0.000027855136, 10.000926, 9.999733 
6.3505656e+2, 3.1544724e+2, 151741.78, 21087.938, 4100.8726, -0.11358708, 0.08938526, 151870.38, 151870.38, 0.00008145653, 10.001189, 9.99956 
6.4503616e+2, 1.2545541e+2, -1535447.4, -1592723.9, 39986.258, -0.109796196, -0.0879988, -1514901.8, 195640.7, 0.0000000047013002, 10.001036, 10.00032 
6.450341e+2, 1.3545728e+2, -1693753.1, -1653413.4, 6767.4063, -0.54108715, 0.06740256, -1652308.4, -39786.063, 0.0, 9.999443, 10.000013 
6.4504135e+2, 1.4545745e+2, -1680026.1, -1602361.4, 10732.899, -0.032951146, 0.10063619, -1600905.5, -86381.93, 0.0, 9.998886, 9.999947 
6.450418e+2, 1.5545744e+2, -1480726.0, -1440112.8, -325.621, -0.08239442, 0.06821481, -1440110.1, -23580.047, 0.0, 9.999523, 10.000076 
6.450421e+2, 1.654584e+2, -1287015.1, -1217944.9, 25611.057, -0.15859388, 0.11988873, -1209484.6, 109038.93, 0.0, 9.999842, 10.000778 
6.4504355e+2, 1.7545994e+2, -1183797.5, -1120305.4, 11676.482, -0.13753079, 0.17386268, -1118226.1, 102281.68, 0.0, 9.999894, 10.000751 
6.450447e+2, 1.854605e+2, -1154215.8, -1180977.8, -5316.9976, -0.10811332, 0.21762511, -1153198.1, -30695.541, 0.0, 9.999954, 9.999633 
6.450451e+2, 1.9546e+2, -1058393.6, -1085040.9, -10185.355, -0.106029354, 0.18035884, -1054946.4, -30437.889, 0.0, 9.9999485, 9.9996195 
6.450451e+2, 2.0545934e+2, -883728.3, -1000199.4, -43907.89, -0.07878162, 0.17761682, -869030.44, 57484.703, 0.0, 10.000691, 9.999169 
6.45045e+2, 2.1545826e+2, -595253.94, -811515.1, -58171.145, -0.015653098, 0.12861137, -580599.75, 247924.92, 0.0, 10.001999, 9.999165 
6.450457e+2, 2.254574e+2, -478932.66, -752363.44, 42096.477, -0.014246778, 0.1519075, -472598.38, 257932.52, 0.0, 10.002329, 9.998739 
6.450471e+2, 2.3545654e+2, -450326.5, -690261.75, 13851.264, -0.0698389, 0.16614752, -449529.53, 183006.64, 0.0, 10.001863, 9.998717 
6.4504755e+2, 2.4545453e+2, -414920.06, -731114.44, -61699.99, -0.10276129, 0.1474012, -403306.9, 131249.63, 0.0, 10.001914, 9.997739 
6.4504725e+2, 2.554514e+2, -235414.75, -583108.06, -62909.27, -0.10533446, 0.038216867, -224382.42, 212208.31, 0.0, 10.002424, 9.997836 
6.4504814e+2, 2.654509e+2, -91973.41, -308738.56, 5579.7505, -0.093567245, 0.13411829, -91829.875, 246767.1, 0.0, 10.0020685, 9.999218 
6.450501e+2, 2.7545232e+2, -154196.27, -298781.4, -36170.082, -0.06269619, 0.32654867, -145652.64, 94929.76, 0.000000000000000000046744374, 10.001008, 9.999128 
6.4505124e+2, 2.8545058e+2, -127615.63, -439923.66, -33785.26, -0.11628333, 0.3413001, -124002.57, 18596.973, 0.00000034821963, 10.001404, 9.997292 
6.450517e+2, 2.9544613e+2, 199345.75, -231967.92, -33915.832, -0.2320053, 0.13951837, 201996.4, 246640.88, 0.0000068469953, 10.002957, 9.997303 
6.4505595e+2, 3.0544424e+2, 305058.9, 100081.414, -8910.609, 0.010355852, 0.11245762, 305445.53, 305445.53, 0.00003364889, 10.002285, 9.999563 
6.4505804e+2, 3.154439e+2, -65270.707, -95064.17, -72952.17, 0.0008564447, 0.08497666, -5709.8555, -5709.8555, 0.000093640454, 9.999763, 9.999432 
6.5503407e+2, 1.2545528e+2, -1464857.8, -1435202.1, 20375.79, -0.46466297, 0.24127112, -1424830.0, 285725.03, 0.000000001405694, 10.000997, 10.001415 
6.5503454e+2, 1.354551e+2, -1611418.5, -1484663.9, -48121.902, -0.46058884, 0.07692083, -1468464.8, 144082.69, 0.0, 9.999459, 10.001158 
6.550412e+2, 1.4545514e+2, -1639589.3, -1518627.0, 18400.813, 0.0371226, 0.01086479, -1515889.8, -1343.6047, 0.0, 9.998884, 10.000526 
6.550413e+2, 1.5545721e+2, -1447977.9, -1368971.5, 33261.63, -0.113134265, 0.13120717, -1356833.3, 59698.91, 0.0, 9.999502, 10.000582 
6.5504164e+2, 1.6545865e+2, -1302356.9, -1238490.1, 16392.207, -0.21473913, 0.21516216, -1234528.6, 83992.6, 0.0, 9.999794, 10.000654 
6.5504324e+2, 1.7545936e+2, -1195126.4, -1139315.0, 23381.51, -0.17922588, 0.19624764, -1130814.4, 89700.37, 0.0, 9.999876, 10.000625 
6.5504503e+2, 1.8546003e+2, -1145734.1, -1149274.3, -15961.572, -0.08937581, 0.24505909, -1131444.9, -8935.759, 0.0, 9.999893, 9.999881 
6.550465e+2, 1.9546048e+2, -1049917.9, -1051426.9, 2928.6008, 0.01587852, 0.27472755, -1047648.1, -23142.04, 0.0, 9.999884, 9.999881 
6.550475e+2, 2.0545983e+2, -913811.0, -1044168.6, -4224.9854, 0.06537852, 0.27663887, -913674.25, 12837.302, 0.0, 10.000607, 9.998914 
6.55048e+2, 2.1545804e+2, -630531.25, -854218.06, -2146.1096, 0.072056234, 0.1792825, -630510.6, 198015.8, 0.0, 10.00187, 9.998933 
6.550486e+2, 2.2545606e+2, -524253.75, -814140.0, 14368.741, 0.018403254, 0.11976367, -523543.25, 206999.9, 0.0, 10.002195, 9.998376 
6.5504897e+2, 2.354537e+2, -494910.75, -748719.7, 7400.508, -0.09791698, 0.018840251, -494695.16, 137868.88, 0.0, 10.001722, 9.99838 
6.550493e+2, 2.454521e+2, -419215.44, -719052.94, -53829.2, -0.13806462, 0.052943878, -409844.47, 124736.13, 0.0, 10.001824, 9.997864 
6.550497e+2, 2.5545102e+2, -241577.83, -575526.56, -35346.332, -0.12033069, 0.13302982, -237877.64, 198717.55, 0.0, 10.002341, 9.997925 
6.5505016e+2, 2.6544997e+2, -150272.55, -427292.78, -44874.258, -0.12209714, 0.21356183, -143184.75, 195421.52, 0.0, 10.002049, 9.998417 
6.550507e+2, 2.7544877e+2, -212218.42, -411902.88, -59003.71, -0.1288547, 0.22854261, -196086.9, 44529.492, 0.0000000002377775, 10.000965, 9.998377 
6.5505254e+2, 2.8544632e+2, -102722.57, -375297.1, 15715.803, -0.15686001, 0.18145666, -101819.44, 40820.043, 0.0000008000927, 10.001358, 9.997751 
6.550551e+2, 2.9544243e+2, 209532.52, -183680.25, 30951.19, -0.21883862, -0.010039958, 211953.89, 256630.86, 0.000010270006, 10.002852, 9.99768 
6.5505886e+2, 3.0544198e+2, 231547.13, -58645.21, -110263.805, 0.038730588, 0.14526238, 268689.8, 268689.8, 0.00004390313, 10.002299, 9.998476 
6.550586e+2, 3.1544092e+2, -89009.414, -146551.33, -117920.76, 0.016207514, 0.1537238, 3599.497, 3599.497, 0.00011355579, 9.999765, 9.999085 
6.650344e+2, 1.2545417e+2, -1521724.8, -1482049.4, 179833.8, -0.50188094, 0.282737, -1320962.5, 389604.9, 0.00000000035571668, 10.000682, 10.001246 
6.6503453e+2, 1.3545384e+2, -1638222.9, -1502222.1, -59700.125, -0.3915567, 0.103443615, -1479734.1, 132829.0, 0.0, 9.999273, 10.001142 
6.6503954e+2, 1.4545402e+2, -1656382.3, -1457640.8, 58445.5, 0.01533002, 0.02004473, -1441727.4, 72831.88, 0.0, 9.998483, 10.001132 
6.650402e+2, 1.5545681e+2, -1533862.6, -1347280.9, 53949.52, -0.116294734, 0.15071511, -1332804.8, 83729.76, 0.0, 9.998653, 10.001131 
6.6504115e+2, 1.6545811e+2, -1447697.5, -1353930.9, 48780.652, -0.1953918, 0.21687317, -1333156.3, -14632.3125, 0.0, 9.998996, 10.000251 
6.6504323e+2, 1.754579e+2, -1289309.5, -1225795.0, 13340.653, -0.14310423, 0.14659654, -1223106.6, -2578.7246, 0.0, 9.999402, 10.000261 
6.650453e+2, 1.8545835e+2, -1109251.9, -1122640.6, -13375.869, -0.050850257, 0.18478629, -1100988.6, 21535.994, 0.0, 10.000114, 9.999953 
6.6504717e+2, 1.9545913e+2, -870933.56, -962415.94, -29795.828, 0.042007364, 0.24331191, -862084.94, 162432.5, 0.0, 10.001093, 9.999913 
6.650486e+2, 2.054586e+2, -775325.1, -984589.94, -11634.479, 0.073957525, 0.25924262, -774680.25, 151841.63, 0.0, 10.001595, 9.998845 
6.650497e+2, 2.1545677e+2, -664495.3, -879782.5, -20546.617, 0.062473528, 0.1679816, -662551.94, 165986.23, 0.0, 10.00168, 9.998849 
6.6505057e+2, 2.2545482e+2, -608602.56, -854765.56, -2111.9966, 0.02874112, 0.114825465, -608584.44, 121971.555, 0.0, 10.0016165, 9.99838 
6.650511e+2, 2.354526e+2, -544167.2, -773717.44, 407.24805, -0.03211436, 0.03243309, -544166.5, 88410.266, 0.0, 10.001388, 9.998377 
6.6505134e+2, 2.4545136e+2, -434273.72, -684258.94, 13174.146, -0.09790709, 0.078679, -433581.38, 101007.914, 0.0, 10.001519, 9.998257 
6.6505134e+2, 2.5545067e+2, -276803.94, -558421.1, 25011.838, -0.16814227, 0.16071984, -274599.78, 161997.19, 0.0, 10.001926, 9.998252 
6.650519e+2, 2.6544887e+2, -154995.56, -502192.25, 21682.475, -0.16576187, 0.18365929, -153646.73, 184967.69, 0.0, 10.002336, 9.997763 
6.650529e+2, 2.7544603e+2, 10850.231, -367690.53, -1960.574, -0.09233185, 0.09818685, 10860.386, 251501.44, 0.0000000023427176, 10.002788, 9.997794 
6.6505504e+2, 2.854435e+2, 58769.035, -269395.94, 113317.53, -0.08358568, 0.06001986, 94095.484, 236760.19, 0.0000014418595, 10.002339, 9.998011 
6.650579e+2, 2.9544082e+2, -27594.313, -264722.9, 89618.77, -0.1313924, -0.04171979, 2465.1355, 47155.37, 0.000014823799, 10.001085, 9.99797 
6.650608e+2, 3.0544072e+2, 33016.555, -224453.58, -42334.938, 0.0669133, 0.16682583, 39798.883, 39798.883, 0.000057815294, 10.001244, 9.997843 
6.650596e+2, 3.1543884e+2, 292312.2, 36600.875, -46720.242, 0.021811947, 0.16058095, 300580.9, 300580.9, 0.00014076727, 10.00239, 9.999081 
6.750367e+2, 1.2545204e+2, -1625339.5, -1695318.0, 119845.11, -0.39143467, 0.022994244, -1535480.5, 175099.8, 0.0000000023126079, 10.000685, 9.999776 
6.750336e+2, 1.3545348e+2, -1722476.6, -1671674.9, -107531.33, -0.42899245, 0.14336698, -1586585.0, 25984.332, 0.0, 9.999259, 9.999982 
6.7503613e+2, 1.4545418e+2, -1613516.0, -1365391.1, 49741.293, -0.20527482, 0.13515893, -1355791.0, 158770.55, 0.0, 9.998466, 10.001775 
6.750383e+2, 1.5545644e+2, -1488475.1, -1256941.5, 72418.01, -0.2081433, 0.14910434, -1236156.8, 180378.56, 0.0, 9.998668, 10.001745 
6.7504036e+2, 1.6545689e+2, -1493060.8, -1449995.0, 52538.445, -0.19983302, 0.13520326, -1414748.0, -96217.2, 0.0, 9.998996, 9.999596 
6.750431e+2, 1.7545561e+2, -1335851.9, -1317225.8, 39285.965, -0.118096985, 0.022494199, -1286164.1, -65617.09, 0.0, 9.999377, 9.999646 
6.750454e+2, 1.8545544e+2, -1126079.4, -1146578.8, 11744.544, -0.08799497, 0.035829484, -1120741.0, 1808.3402, 0.0, 10.000062, 9.999816 
6.750468e+2, 1.9545607e+2, -892788.5, -986428.3, 15492.157, -0.12538767, 0.0927037, -890291.94, 134249.61, 0.0, 10.001003, 9.999791 
6.7504823e+2, 2.0545578e+2, -789031.44, -990931.4, -17564.553, -0.1402468, 0.13751711, -787514.8, 139030.1, 0.0, 10.001489, 9.998858 
6.7504954e+2, 2.1545449e+2, -678342.8, -880465.25, -8045.4326, -0.13263671, 0.09656746, -678023.06, 150536.8, 0.0, 10.0015545, 9.998906 
6.7505133e+2, 2.2545376e+2, -602961.44, -809087.94, -19804.92, -0.06859976, 0.14424257, -601075.75, 129492.84, 0.0, 10.001474, 9.998761 
6.750533e+2, 2.3545335e+2, -535606.9, -724552.9, 4974.93, 0.029457012, 0.20370442, -535476.0, 97097.945, 0.0, 10.001258, 9.998775 
6.750533e+2, 2.4545234e+2, -406625.3, -604157.8, 20975.926, -0.07390316, 0.22461769, -404422.47, 130159.3, 0.0, 10.001425, 9.99885 
6.750517e+2, 2.5545052e+2, -255603.19, -490200.25, 50186.33, -0.34631938, 0.13410845, -245317.97, 191276.69, 0.0, 10.001821, 9.998771 
6.7505294e+2, 2.6544777e+2, -200178.4, -580197.5, 28431.428, -0.3172435, 0.061060674, -198063.06, 140556.7, 0.0, 10.002269, 9.997258 
6.750564e+2, 2.7544403e+2, -32872.164, -442877.13, 24542.844, -0.048609246, -0.06234698, -31408.262, 209248.25, 0.0000000015372758, 10.002718, 9.9973135 
6.7505866e+2, 2.854421e+2, 69117.64, -248338.47, 57080.78, 0.019112496, -0.026833571, 79069.195, 221744.88, 0.0000017821444, 10.002339, 9.998155 
6.750597e+2, 2.9544136e+2, -26664.299, -246504.28, 60503.414, -0.08856372, 0.052165892, -11112.908, 33570.543, 0.000019076204, 10.001013, 9.998131 
6.750614e+2, 3.054404e+2, 11047.828, -260621.4, -5571.885, -0.02279487, 0.17880957, 11162.059, 11162.059, 0.000073988194, 10.001209, 9.997604 
6.7506033e+2, 3.154376e+2, 304134.06, 83990.61, 29981.51, -0.2028967, 0.10751578, 308144.22, 308144.22, 0.00017626329, 10.002304, 9.999438 
6.85038e+2, 1.2545212e+2, -1793980.8, -1824841.4, 107885.83, -0.2777931, -0.0070624975, -1700427.4, 10150.835, 0.0000000036242784, 9.99971, 9.999368 
6.850338e+2, 1.3545369e+2, -1677846.3, -1669419.0, -81799.0, -0.34627005, 0.14969346, -1591725.3, 20842.691, 0.0, 9.999659, 9.999796 
6.8503463e+2, 1.4545418e+2, -1457776.0, -1352380.3, 132528.17, -0.2612599, 0.15397689, -1262457.0, 252105.75, 0.0, 9.999788, 10.001232 
6.85038e+2, 1.5545534e+2, -1299048.4, -1227140.8, 45751.313, -0.1745391, 0.11436333, -1204906.4, 211639.75, 0.0, 10.000217, 10.001214 
6.8504083e+2, 1.6545552e+2, -1293991.4, -1371524.5, 21036.658, -0.117686756, 0.10494439, -1288651.4, 29892.83, 0.0, 10.000433, 9.999444 
6.850437e+2, 1.7545465e+2, -1187699.4, -1266243.5, 24078.328, -0.045595955, 0.049766503, -1180905.6, 39651.004, 0.0, 10.000476, 9.999472 
6.8504596e+2, 1.8545419e+2, -1052837.4, -1106324.3, 52003.035, -0.04772191, 0.041642055, -1021104.1, 101456.68, 0.0, 10.000548, 9.999852 
6.850475e+2, 1.9545387e+2, -948915.2, -1005259.06, 48205.56, -0.13260213, -0.0020251959, -921253.1, 103307.055, 0.0, 10.0005865, 9.999854 
6.8504906e+2, 2.0545383e+2, -923130.56, -1015734.25, 30651.824, -0.1437253, 0.045196258, -913904.06, 12657.078, 0.0, 10.000412, 9.999193 
6.850508e+2, 2.154538e+2, -870914.6, -937580.56, 43962.19, -0.091059804, 0.09791179, -849077.3, -20511.73, 0.0, 10.000082, 9.999219 
6.850526e+2, 2.2545367e+2, -754715.06, -865447.1, 66032.266, -0.03265898, 0.18223959, -723908.8, 6660.5137, 0.0, 10.000346, 9.99892 
6.850543e+2, 2.3545331e+2, -553152.0, -718424.3, 53063.688, 0.02686077, 0.23068324, -537581.75, 94992.56, 0.0, 10.001056, 9.998919 
6.8505466e+2, 2.4545212e+2, -451892.7, -626345.9, 47084.023, -0.054824308, 0.22542605, -439996.22, 94587.52, 0.0, 10.001117, 9.998838 
6.8505377e+2, 2.5545e+2, -418297.97, -568376.06, 15034.018, -0.25648084, 0.10569673, -416806.75, 19792.12, 0.0, 10.000713, 9.998759 
6.850554e+2, 2.654473e+2, -391973.0, -678047.75, 36289.766, -0.23085858, 0.043364145, -387441.28, -48817.875, 0.0, 10.000975, 9.997206 
6.85059e+2, 2.754439e+2, -175075.88, -516360.53, 42134.76, -0.0031361082, -0.043660462, -169950.9, 70706.72, 0.00000000039754933, 10.001758, 9.997268 
6.85061e+2, 2.8544208e+2, 29197.998, -285490.5, 55288.47, 0.03125175, 0.012670637, 38629.13, 181305.13, 0.000001935021, 10.002143, 9.997994 
6.850613e+2, 2.9544127e+2, 159559.2, -171714.69, 17091.107, -0.09582832, 0.10623771, 160438.64, 205122.73, 0.000022833043, 10.002349, 9.998005 
6.8506277e+2, 3.0543947e+2, 209758.36, -168406.28, 12238.509, -0.06732533, 0.15386431, 210154.03, 210154.03, 0.00009092674, 10.002589, 9.997573 
6.850627e+2, 3.1543654e+2, 317079.4, 93614.19, 24832.605, -0.18588826, 0.07603342, 319805.66, 319805.66, 0.00021663119, 10.002345, 9.9995 
6.950376e+2, 1.2545441e+2, -1740837.5, -1710944.4, 59836.453, -0.33946472, 0.19342512, -1664215.9, 46345.043, 0.00000000017840025, 9.999715, 10.0001335 
6.950348e+2, 1.3545457e+2, -1624772.1, -1558413.9, -76477.12, -0.24337588, 0.12408921, -1508228.8, 104329.29, 0.0, 9.999664, 10.000549 
6.950348e+2, 1.454539e+2, -1573679.5, -1595089.4, 136639.47, -0.25287822, 0.061875068, -1447326.3, 67237.33, 0.0, 9.999793, 9.999567 
6.950392e+2, 1.5545343e+2, -1411939.1, -1466547.0, 73908.23, -0.10457909, 0.029190127, -1360452.6, 56115.12, 0.0, 10.00023, 9.999572 
6.950422e+2, 1.6545396e+2, -1277041.3, -1328151.8, 13313.886, -0.04688175, 0.117481746, -1273781.0, 44783.16, 0.0, 10.000404, 9.999751 
6.950447e+2, 1.7545514e+2, -1172744.4, -1224387.8, 38084.57, -0.01714122, 0.23765439, -1152553.1, 68002.33, 0.0, 10.000431, 9.999781 
6.95047e+2, 1.854547e+2, -1048526.2, -1079712.0, 46692.71, -0.023916192, 0.20227084, -1014891.56, 107666.49, 0.0, 10.000474, 10.000069 
6.9504887e+2, 1.9545259e+2, -945251.8, -978135.25, 60082.01, -0.07443971, -0.03999523, -899402.44, 125170.375, 0.0, 10.000508, 10.000075 
6.9505084e+2, 2.0545274e+2, -892353.8, -930770.2, 6969.1357, -0.03247305, -0.016457835, -891128.6, 35442.06, 0.0, 10.000315, 9.999826 
6.950528e+2, 2.1545462e+2, -845916.4, -859541.94, 42599.816, 0.08745959, 0.16446707, -809588.0, 18968.055, 0.0, 9.999969, 9.99981 
6.950539e+2, 2.2545451e+2, -776319.9, -883737.1, 83651.8, 0.049359918, 0.22536437, -730619.06, -60.46491, 0.0, 10.000231, 9.99885 
6.9505405e+2, 2.3545249e+2, -575625.56, -738436.94, 87917.586, -0.12631385, 0.113847226, -537213.1, 95364.92, 0.0, 10.000944, 9.998832 
6.950553e+2, 2.4545076e+2, -502029.06, -713418.75, 22613.693, -0.13095993, 0.09009819, -499637.0, 34957.258, 0.0, 10.001042, 9.998279 
6.9505733e+2, 2.554491e+2, -461241.72, -645324.7, 12024.08, 0.0038952336, 0.070229776, -460459.66, -23850.13, 0.0, 10.000658, 9.99826 
6.9505894e+2, 2.6544747e+2, -370480.03, -624972.06, 58754.516, 0.0153363375, 0.11958055, -357570.28, -18944.715, 0.0, 10.00094, 9.997585 
6.950604e+2, 2.754456e+2, -162778.02, -475615.38, 81374.73, -0.066164106, 0.15101089, -142876.95, 97767.82, 0.0000000054780975, 10.001692, 9.997581 
6.9506145e+2, 2.8544343e+2, -10078.176, -356030.72, 51277.34, -0.15459614, 0.17942514, -2637.8281, 140028.3, 0.000002364329, 10.002099, 9.997526 
6.950621e+2, 2.9544073e+2, 119895.52, -237858.03, 42055.68, -0.27864024, 0.12730667, 124772.88, 169464.3, 0.000027093956, 10.002285, 9.997577 
6.9506466e+2, 3.0543798e+2, 223587.16, -143535.69, 1805.6884, -0.1646758, 0.09068812, 223596.05, 223596.05, 0.00010798756, 10.002599, 9.997743 
6.950665e+2, 3.1543586e+2, 291458.44, 48154.95, 41964.563, -0.09238559, 0.08206423, 298493.03, 298493.03, 0.00025661878, 10.00231, 9.999209 
7.050381e+2, 1.2545525e+2, -1909738.3, -1788145.3, 79157.5, -0.19351561, 0.2495446, -1749131.4, -38576.086, 0.0, 9.998518, 10.000201 
7.050357e+2, 1.3545507e+2, -1478473.4, -1483240.3, -114040.195, -0.15751733, 0.14514832, -1366791.8, 245761.8, 0.0, 10.000632, 10.000609 
7.0503485e+2, 1.4545423e+2, -1442075.9, -1594809.9, 96600.1, -0.27916783, 0.09015208, -1395302.6, 119258.19, 0.0, 10.000978, 9.998989 
7.050396e+2, 1.5545289e+2, -1458968.4, -1542847.3, 94948.695, -0.07328717, 0.028876083, -1397109.1, 19465.455, 0.0, 10.000161, 9.999063 
7.050426e+2, 1.6545333e+2, -1314827.5, -1310542.5, 111036.81, -0.018119814, 0.11544095, -1201627.5, 116943.914, 0.0, 9.999998, 10.000064 
7.0504475e+2, 1.7545499e+2, -1175181.5, -1189018.6, 113587.0, -0.041425552, 0.25068116, -1068302.6, 152253.67, 0.0, 10.000264, 10.000098 
7.0504725e+2, 1.8545485e+2, -1102337.3, -1115734.5, 116542.83, -0.023619335, 0.23604006, -992300.7, 130255.234, 0.0, 10.000142, 9.999987 
7.050499e+2, 1.9545291e+2, -1063225.4, -1047558.25, 88884.125, 0.018002264, 0.020835085, -966163.2, 58407.824, 0.0, 9.99974, 9.999979 
7.0505196e+2, 2.0545276e+2, -945720.75, -970217.25, 31562.998, 0.06855097, 0.025635153, -924112.8, 2459.4211, 0.0, 10.000007, 9.999706 
7.050535e+2, 2.1545398e+2, -735208.4, -817860.2, -6954.9946, 0.12604067, 0.15247458, -734627.2, 93935.89, 0.0, 10.000775, 9.99971 
7.050546e+2, 2.2545367e+2, -620618.44, -776900.8, 47842.59, 0.05223204, 0.18400092, -607135.6, 123430.58, 0.0, 10.001177, 9.99912 
7.05055e+2, 2.3545186e+2, -505611.34, -675419.06, 57786.734, -0.13928808, 0.06667015, -487811.88, 144770.13, 0.0, 10.001315, 9.999079 
7.050569e+2, 2.4545027e+2, -419678.78, -725498.44, 19224.717, -0.11194284, 0.070185244, -418475.0, 116123.11, 0.0, 10.001837, 9.997815 
7.050599e+2, 2.554487e+2, -199944.53, -565716.06, -2015.0416, 0.100016505, 0.10360466, -199933.44, 236683.02, 0.0, 10.00266, 9.997842 
7.050618e+2, 2.6544723e+2, -98812.76, -476977.34, 52641.645, 0.11368781, 0.17975341, -91621.63, 247010.1, 0.0, 10.002734, 9.997743 
7.050626e+2, 2.754456e+2, -83016.23, -416657.5, 36235.094, -0.02664234, 0.22075938, -79126.266, 161520.3, 0.000000016182126, 10.002162, 9.997755 
7.0506346e+2, 2.8544304e+2, -37686.598, -394617.6, 35045.72, -0.15346678, 0.21176483, -34278.137, 108393.0, 0.0000030357212, 10.001994, 9.997326 
7.0506406e+2, 2.954395e+2, 68961.984, -282937.84, 27667.574, -0.28412774, 0.094864264, 71124.02, 115828.875, 0.000031540207, 10.0020075, 9.997411 
7.05067e+2, 3.0543685e+2, 129045.4, -200501.6, 902.9092, -0.15005012, 0.07927949, 129047.875, 129047.875, 0.00012311795, 10.002009, 9.997626 
7.0506966e+2, 3.1543526e+2, 203501.31, -25930.646, -28699.176, 0.024009714, 0.13475211, 207036.77, 207036.77, 0.00029061802, 10.0018635, 9.998897 
7.150385e+2, 1.2545459e+2, -1937502.8, -1847494.8, 80652.82, -0.05775244, 0.17726983, -1800139.5, -89578.28, 0.0, 9.998531, 9.999782 
7.150364e+2, 1.3545519e+2, -1514606.1, -1565151.6, -33920.81, -0.1795083, 0.20248212, -1497578.4, 114976.46, 0.0, 10.000655, 10.000037 
7.150345e+2, 1.4545517e+2, -1409995.9, -1524528.8, 51575.973, -0.44159663, 0.23535635, -1390194.0, 124360.055, 0.0, 10.000967, 9.999472 
7.15039e+2, 1.5545385e+2, -1428198.5, -1473898.3, 77387.68, -0.1782848, 0.12103067, -1370357.8, 46208.074, 0.0, 10.000136, 9.999548 
7.150418e+2, 1.6545361e+2, -1299270.0, -1264070.9, 111466.945, -0.12287481, 0.10100346, -1168822.6, 149743.73, 0.0, 9.999943, 10.000407 
7.150436e+2, 1.7545412e+2, -1159553.0, -1151436.0, 131934.13, -0.2057507, 0.08905413, -1023498.0, 197061.48, 0.0, 10.000244, 10.000366 
7.1504647e+2, 1.8545464e+2, -1133523.6, -1171999.6, 91624.63, -0.13991384, 0.14544052, -1059139.1, 63415.617, 0.0, 10.000103, 9.99962 
7.1505016e+2, 1.954549e+2, -1102090.1, -1108847.8, 86756.93, 0.048287597, 0.1841991, -1018646.25, 5907.9976, 0.0, 9.999656, 9.9995985 
7.150521e+2, 2.0545399e+2, -1024170.25, -1105397.0, 51706.813, 0.06659207, 0.17849313, -999033.75, -72469.3, 0.0, 9.999892, 9.998831 
7.150526e+2, 2.1545194e+2, -814027.8, -945844.4, 28338.93, -0.059576686, 0.06513708, -808193.56, 20392.332, 0.0, 10.000632, 9.998896 
7.1505433e+2, 2.2545125e+2, -594600.56, -695879.06, 42264.89, -0.11165858, 0.065569416, -579280.3, 151310.98, 0.0, 10.001056, 9.999738 
7.1505684e+2, 2.354515e+2, -482222.97, -601388.06, 73875.586, -0.10787249, 0.09481822, -446896.72, 185688.69, 0.0, 10.001201, 9.999644 
7.1505916e+2, 2.454507e+2, -459064.03, -785782.3, 39829.414, -0.08825806, 0.16753308, -454278.6, 80316.49, 0.0, 10.001743, 9.997449 
7.150611e+2, 2.5544876e+2, -237088.72, -622752.75, 35899.66, -0.061200287, 0.20392194, -233775.44, 202844.72, 0.0, 10.002576, 9.997492 
7.150633e+2, 2.6544657e+2, -106333.11, -487198.63, 19815.203, -0.028392231, 0.22936401, -105304.96, 233336.75, 0.0, 10.002707, 9.997688 
7.150654e+2, 2.754439e+2, -96737.9, -431743.0, 28083.74, 0.009647344, 0.16776845, -94399.93, 146263.2, 0.000000020828322, 10.002099, 9.997685 
7.1506673e+2, 2.854409e+2, -32867.906, -373941.72, 26886.648, -0.052533653, 0.11248396, -30761.457, 111929.64, 0.0000037854625, 10.001957, 9.997484 
7.15067e+2, 2.954376e+2, 62974.887, -278222.25, 42883.625, -0.22351131, 0.007413015, 68282.195, 113006.72, 0.000035842306, 10.001944, 9.997472 
7.150694e+2, 3.054361e+2, 106031.72, -257946.64, -10135.572, -0.13745953, 0.12479811, 106313.74, 106313.74, 0.00013552594, 10.002035, 9.997227 
7.150713e+2, 3.1543446e+2, 165113.97, -101164.81, -13163.652, -0.05167022, 0.20951077, 165763.14, 165763.14, 0.00031582415, 10.001821, 9.998414 
7.2503746e+2, 1.2545349e+2, -1774484.6, -1739231.3, -32838.93, -0.04572581, 0.21061102, -1719587.4, -9011.8, 0.0, 9.999481, 10.000091 
7.2503716e+2, 1.3545394e+2, -1744297.0, -1649724.9, -81672.06, -0.070522174, 0.20659497, -1602637.8, 9931.459, 0.0, 9.998976, 10.000264 
7.250353e+2, 1.4545444e+2, -1636069.1, -1589991.9, 26346.28, -0.35679424, 0.25831324, -1578031.9, -63469.598, 0.0, 9.999217, 9.999877 
7.2503906e+2, 1.5545347e+2, -1405328.9, -1414439.6, 23131.941, -0.17069681, 0.1427561, -1386308.0, 30261.414, 0.0, 10.000081, 9.999985 
7.2504157e+2, 1.6545318e+2, -1290554.4, -1255929.3, 53497.31, -0.1334164, 0.09182128, -1217012.9, 101556.97, 0.0, 9.999963, 10.000463 
7.250433e+2, 1.7545328e+2, -1331809.3, -1225740.9, 35495.7, -0.19615264, 0.03063996, -1214958.4, 5607.8955, 0.0, 9.999018, 10.000447 
7.250463e+2, 1.8545395e+2, -1243766.1, -1243434.3, 44280.082, -0.13085501, 0.10727905, -1199319.8, -76758.72, 0.0, 9.999421, 9.999462 
7.250502e+2, 1.9545482e+2, -929261.3, -1041979.75, 34499.75, 0.03670127, 0.22530179, -919540.3, 105016.96, 0.0, 10.000912, 9.9994545 
7.2505236e+2, 2.0545398e+2, -799272.3, -1008192.25, 49139.727, 0.029632423, 0.23507538, -788291.4, 138275.98, 0.0, 10.00148, 9.998743 
7.2505283e+2, 2.154514e+2, -731195.5, -920382.25, 66669.484, -0.12442159, 0.08195135, -710061.94, 118529.93, 0.0, 10.00125, 9.998782 
7.250549e+2, 2.2545038e+2, -614966.6, -740917.44, 81784.67, -0.15007187, 0.06977899, -574720.75, 155879.66, 0.0, 10.001071, 9.99942 
7.250583e+2, 2.3545048e+2, -536686.75, -662233.75, 23284.945, -0.06251279, 0.11438916, -532507.3, 100089.96, 0.0, 10.000974, 9.999338 
7.250612e+2, 2.454498e+2, -502217.44, -774473.7, 32271.768, -0.033023126, 0.20001744, -498444.4, 36161.36, 0.0, 10.001305, 9.997734 
7.250634e+2, 2.5544828e+2, -295826.9, -623412.3, 56797.215, -0.06477457, 0.25012892, -286258.8, 150367.45, 0.0, 10.00204, 9.997747 
7.2506547e+2, 2.6544586e+2, -172434.36, -515555.0, 41853.17, -0.049283136, 0.23970768, -167402.97, 171246.19, 0.0, 10.00225, 9.997703 
7.250676e+2, 2.7544245e+2, -98151.67, -430295.9, 33198.832, 0.023289528, 0.09925268, -94865.85, 145811.19, 0.000000011844985, 10.002078, 9.9977045 
7.25069e+2, 2.8543973e+2, -70990.51, -372813.63, 62629.035, 0.00040466682, 0.06728791, -58510.832, 84191.66, 0.000004675658, 10.001643, 9.997626 
7.2506946e+2, 2.9543763e+2, -64904.68, -323612.03, 53954.984, -0.11798645, 0.065592065, -54103.035, -9376.527, 0.000040333267, 10.001015, 9.997595 
7.2507185e+2, 3.054363e+2, 41096.457, -257924.67, 84515.81, -0.057216123, 0.18682767, 63330.85, 63330.85, 0.00014552726, 10.001457, 9.997509 
7.250732e+2, 3.154339e+2, 327710.06, 48905.63, 82263.35, -0.07481223, 0.16097948, 350172.72, 350172.72, 0.0003310756, 10.002641, 9.999045 
7.3503447e+2, 1.2545198e+2, -1701295.3, -1574729.6, -131956.88, -0.33957496, 0.36179963, -1491665.8, 218931.88, 0.0, 9.999441, 10.001226 
7.3503786e+2, 1.3545133e+2, -1685588.4, -1529127.6, -92733.62, 0.07161973, 0.15619203, -1486034.0, 126562.8, 0.0, 9.998971, 10.001096 
7.3503697e+2, 1.4545187e+2, -1619757.1, -1539520.4, 46312.03, -0.13924342, 0.15231796, -1518366.5, -3779.585, 0.0, 9.999157, 10.000244 
7.3503965e+2, 1.5545174e+2, -1388470.5, -1377321.0, 65570.51, -0.14949834, 0.084786884, -1317088.6, 99497.5, 0.0, 10.0000725, 10.000243 
7.350417e+2, 1.6545205e+2, -1299611.6, -1274762.0, 5706.017, -0.1440563, 0.08819627, -1273514.4, 45067.38, 0.0, 9.999962, 10.000332 
7.3504347e+2, 1.7545252e+2, -1343612.9, -1245549.8, 14084.646, -0.10457844, 0.07726388, -1243566.9, -22991.15, 0.0, 9.998993, 10.000326 
7.3504627e+2, 1.8545285e+2, -1255072.3, -1249032.9, 90938.555, -0.09012657, 0.12611876, -1161063.9, -38489.53, 0.0, 9.999348, 9.999457 
7.350499e+2, 1.9545281e+2, -940977.7, -1043683.3, 97108.43, -0.10518391, 0.15194882, -882479.9, 142099.33, 0.0, 10.00082, 9.999483 
7.350524e+2, 2.0545277e+2, -762543.56, -908876.5, 30802.074, -0.12980783, 0.20418441, -756324.25, 170255.8, 0.0, 10.001376, 9.999475 
7.3505384e+2, 2.1545249e+2, -701971.56, -830483.7, 69353.67, -0.1708665, 0.20337866, -671682.56, 156897.44, 0.0, 10.001126, 9.999455 
7.3505616e+2, 2.2545116e+2, -725287.9, -941248.8, 67349.95, -0.1526101, 0.19745053, -706005.6, 24586.785, 0.0, 10.000945, 9.998108 
7.3505914e+2, 2.354487e+2, -638250.75, -843542.0, 31576.889, -0.09075669, 0.11633337, -633503.56, -885.8972, 0.0, 10.000848, 9.998154 
7.3506254e+2, 2.454476e+2, -444493.66, -639210.8, 52282.438, -0.042035587, 0.16624317, -431343.66, 103286.11, 0.0, 10.001235, 9.998696 
7.3506624e+2, 2.554474e+2, -248398.95, -499363.84, 93303.72, -0.0032351173, 0.24890944, -217511.88, 219121.67, 0.0, 10.00193, 9.9986515 
7.3506826e+2, 2.654453e+2, -179111.66, -512408.38, 27819.861, -0.023906816, 0.22240287, -176805.53, 161847.1, 0.0, 10.002176, 9.99776 
7.350688e+2, 2.7544126e+2, -103441.805, -426909.1, 40766.39, -0.08845778, 0.020152288, -98383.15, 142304.53, 0.000000051096855, 10.002017, 9.997758 
7.350699e+2, 2.8543952e+2, -55454.355, -349917.9, 28213.36, -0.103062525, 0.07255149, -52775.527, 89930.195, 0.0000058850314, 10.001674, 9.997769 
7.350712e+2, 2.9543954e+2, -59028.37, -308493.16, 46639.43, -0.086879514, 0.26833144, -50593.93, -5882.879, 0.000044056193, 10.000997, 9.997709 
7.3507404e+2, 3.0543765e+2, 104319.71, -131936.5, 123418.81, -0.009256394, 0.28124622, 157032.03, 157032.03, 0.00015023218, 10.001477, 9.998365 
7.3507464e+2, 3.1543326e+2, 418842.53, 260158.55, 148456.94, -0.25697333, -0.030669922, 507829.4, 507829.4, 0.00033283475, 10.002545, 10.000545 
7.450331e+2, 1.2545052e+2, -2008376.8, -1677738.8, 15729.997, -0.30044276, 0.33986312, -1676992.1, 33617.555, 0.0, 9.997172, 10.001598 
7.450376e+2, 1.3544983e+2, -1650165.4, -1492914.6, 214.06425, 0.15163688, 0.11992554, -1492914.4, 119695.18, 0.0, 9.999166, 10.001236 
7.450373e+2, 1.4545052e+2, -1542014.5, -1474776.8, 103456.734, -0.040661715, 0.10972315, -1399613.6, 114985.055, 0.0, 9.99957, 10.000487 
7.450393e+2, 1.5545093e+2, -1570181.8, -1437660.3, 90125.1, -0.1168147, 0.06891498, -1392059.4, 24533.213, 0.0, 9.998712, 10.00048 
7.4504125e+2, 1.654514e+2, -1422147.8, -1368914.8, 60286.477, -0.138614, 0.09522153, -1329630.6, -11043.479, 0.0, 9.99927, 10.000028 
7.450436e+2, 1.754517e+2, -1063751.6, -1141513.6, 34404.12, -0.087255456, 0.098067105, -1050715.6, 169868.69, 0.0, 10.001042, 10.00006 
7.4504656e+2, 1.854518e+2, -990847.5, -1126662.0, 113794.97, -0.08238922, 0.14049639, -926238.0, 196347.48, 0.0, 10.001182, 9.999413 
7.450501e+2, 1.9545151e+2, -1070652.4, -1112831.8, 98206.18, -0.12635863, 0.14474277, -991296.9, 33295.81, 0.0, 9.999954, 9.999425 
7.4505305e+2, 2.0545147e+2, -950551.7, -993825.94, 33761.613, -0.13670996, 0.19744687, -932088.8, -5495.4414, 0.0, 10.000069, 9.999509 
7.4505556e+2, 2.1545145e+2, -677515.1, -817901.44, -5451.6396, -0.11911978, 0.22053978, -677303.75, 151287.05, 0.0, 10.001296, 9.999456 
7.45058e+2, 2.2545001e+2, -600368.56, -890507.3, 16999.834, -0.0999921, 0.20808604, -599375.9, 131227.86, 0.0, 10.001834, 9.998032 
7.450604e+2, 2.3544715e+2, -510153.88, -791500.4, 51890.94, -0.093487315, 0.09389698, -500888.34, 131743.78, 0.0, 10.001748, 9.998086 
7.4506366e+2, 2.454459e+2, -431495.63, -617193.3, 104426.84, -0.051811874, 0.12346933, -384609.44, 150035.66, 0.0, 10.001263, 9.998838 
7.450678e+2, 2.5544575e+2, -437945.2, -572391.1, 61715.5, 0.02960881, 0.20120062, -413911.75, 22735.535, 0.0, 10.000555, 9.998813 
7.450703e+2, 2.6544398e+2, -343686.78, -577761.8, 16374.259, 0.031061787, 0.19303012, -342546.9, -3882.8845, 0.0, 10.000982, 9.997892 
7.4507153e+2, 2.7544057e+2, -44045.08, -380277.1, 13398.656, -0.030634854, 0.0398881, -43511.996, 197183.17, 0.00000017449423, 10.002358, 9.9979105 
7.450724e+2, 2.8543904e+2, 120193.02, -288528.7, -22270.5, -0.075831726, 0.11560633, 121402.92, 264115.34, 0.0000070145306, 10.002974, 9.997572 
7.45073e+2, 2.954389e+2, 226457.48, -187452.66, -50992.973, -0.099633366, 0.31052354, 232647.16, 277366.88, 0.00004543542, 10.003023, 9.997569 
7.450762e+2, 3.054365e+2, 278092.56, -49037.598, 25937.22, 0.0023637093, 0.28112423, 280136.28, 280136.28, 0.00014809403, 10.002679, 9.998356 
7.4507713e+2, 3.1543267e+2, 310753.9, 221959.0, -46423.92, -0.20868284, 0.030922012, 330592.84, 330592.84, 0.0003227844, 10.001747, 10.000664 
7.550325e+2, 1.2544931e+2, -2040069.1, -1732884.9, 26611.059, -0.12901711, 0.16472793, -1730596.6, -19987.26, 0.0, 9.997138, 10.001234 
7.550363e+2, 1.3544938e+2, -1696245.0, -1584635.8, 76703.734, 0.081980765, 0.08370316, -1545584.6, 67023.84, 0.0, 9.999152, 10.000614 
7.55036e+2, 1.4545023e+2, -1535018.3, -1455774.4, 56781.652, -0.1511768, 0.11710261, -1426157.3, 88441.31, 0.0, 9.999548, 10.00063 
7.550376e+2, 1.5545112e+2, -1563199.9, -1416186.6, 70791.62, -0.18329187, 0.108101845, -1387641.0, 28946.582, 0.0, 9.998682, 10.000644 
7.5504005e+2, 1.6545132e+2, -1457941.4, -1436492.1, 114775.56, -0.21611513, 0.12116128, -1331941.3, -13355.909, 0.0, 9.999239, 9.999581 
7.550434e+2, 1.7545082e+2, -1102833.0, -1213797.1, 106630.375, -0.23116012, 0.09142188, -1038114.0, 182477.9, 0.0, 10.001006, 9.999582 
7.550468e+2, 1.8545082e+2, -1000994.4, -1134966.5, 56671.785, -0.19705947, 0.14768746, -980237.5, 142357.3, 0.0, 10.001123, 9.999387 
7.5505024e+2, 1.9545095e+2, -1085352.4, -1124739.8, 66903.61, -0.12765145, 0.19925694, -1035304.1, -10706.543, 0.0, 9.999875, 9.999383 
7.550538e+2, 2.0545012e+2, -1019908.75, -1115850.6, 68562.27, -0.08145675, 0.2151639, -984201.75, -57594.63, 0.0, 9.999968, 9.998726 
7.5505763e+2, 2.1544829e+2, -745733.8, -923285.6, 47486.168, -0.055741083, 0.13515498, -733831.56, 94792.54, 0.0, 10.001146, 9.998804 
7.550602e+2, 2.2544704e+2, -538321.0, -727823.6, 5032.474, -0.08272406, 0.109937795, -538187.44, 192446.13, 0.0, 10.001693, 9.999215 
7.550616e+2, 2.3544599e+2, -456483.78, -644507.75, 58865.09, -0.16374552, 0.060886636, -439575.3, 193064.23, 0.0, 10.001603, 9.999164 
7.5506413e+2, 2.4544483e+2, -492987.22, -728727.3, 65857.86, -0.15557504, 0.08852802, -475836.53, 58813.867, 0.0, 10.001188, 9.998111 
7.550676e+2, 2.5544333e+2, -493123.63, -675327.44, 48378.066, -0.069393665, 0.101042345, -481075.2, -44406.92, 0.0, 10.000501, 9.998135 
7.550713e+2, 2.6544192e+2, -328476.7, -539896.56, 58568.234, 0.012734424, 0.15032825, -313336.2, 25347.527, 0.0, 10.000958, 9.998162 
7.550754e+2, 2.7544042e+2, -44308.5, -357596.6, 75466.75, 0.092902504, 0.16117, -27077.338, 213621.94, 0.0000002213921, 10.00226, 9.998116 
7.5507635e+2, 2.8543845e+2, 77856.28, -368006.03, -29594.518, -0.006058605, 0.2082507, 79812.07, 222533.4, 0.000006961638, 10.002931, 9.997051 
7.550746e+2, 2.954357e+2, 184253.61, -264422.13, -34909.137, -0.2674306, 0.20078164, 186953.47, 231705.33, 0.00004401986, 10.002968, 9.997075 
7.550777e+2, 3.0543274e+2, 214494.03, -170372.67, -13272.385, -0.13343963, 0.17853384, 214951.2, 214951.2, 0.0001416952, 10.002642, 9.997533 
7.5508e+2, 3.154327e+2, 220247.05, 45160.105, -31064.605, -0.15793686, 0.38828382, 225595.28, 225595.28, 0.00030699253, 10.001705, 9.999464 
7.6503134e+2, 1.2544666e+2, -2023882.4, -1741723.9, -54013.344, 0.045318354, 0.016560435, -1731737.6, -21110.102, 0.00000000032551553, 9.99725, 10.001136 
7.650343e+2, 1.354481e+2, -1916830.0, -1720472.5, 10773.453, 0.052657608, 0.09000628, -1719883.3, -107265.836, 0.0, 9.997716, 10.000387 
7.65035e+2, 1.4544895e+2, -1707367.4, -1549320.9, -6232.984, -0.14852989, 0.1374847, -1549075.4, -34465.83, 0.0, 9.998403, 10.0005455 
7.6503724e+2, 1.5544939e+2, -1429393.0, -1361578.4, -33967.555, -0.12777735, 0.09166962, -1347490.9, 69112.4, 0.0, 9.99963, 10.000572 
7.6504e+2, 1.6544949e+2, -1379933.8, -1382832.1, 56652.47, -0.15883112, 0.09104081, -1324711.9, -6110.23, 0.0, 9.999727, 9.9997 
7.650434e+2, 1.7544912e+2, -1405734.5, -1345687.8, 69498.11, -0.21920857, 0.06165876, -1300005.1, -79399.15, 0.0, 9.998884, 9.999686 
7.6504695e+2, 1.8544912e+2, -1283500.6, -1297617.4, 41234.125, -0.19700558, 0.12515989, -1248725.1, -126116.055, 0.0, 9.999298, 9.999149 
7.6505065e+2, 1.9544917e+2, -973342.9, -1098870.4, 18358.75, -0.11372231, 0.1922973, -970713.0, 53900.895, 0.0, 10.000754, 9.999142 
7.6505464e+2, 2.0544824e+2, -817907.5, -1018097.75, 80422.305, -0.06375995, 0.2108271, -789601.75, 137023.03, 0.0, 10.00136, 9.998727 
7.650588e+2, 2.1544626e+2, -729765.25, -920513.5, 94864.22, -0.046346556, 0.11590576, -690620.06, 138023.23, 0.0, 10.001262, 9.998776 
7.650616e+2, 2.2544514e+2, -621338.8, -766414.3, 24706.795, -0.07146895, 0.10361558, -617246.6, 113405.55, 0.0, 10.001131, 9.999219 
7.650631e+2, 2.354445e+2, -543416.1, -684561.8, -30779.148, -0.13899432, 0.09790394, -536996.2, 95658.6, 0.0, 10.001014, 9.999166 
7.650656e+2, 2.454432e+2, -475097.97, -730559.9, -13397.056, -0.12996466, 0.114616856, -474397.3, 60269.98, 0.0, 10.001364, 9.998007 
7.650689e+2, 2.554411e+2, -269768.06, -577550.2, -3875.4253, -0.058287457, 0.07928962, -269719.28, 166970.83, 0.0, 10.002089, 9.998036 
7.6507276e+2, 2.6543978e+2, -190719.61, -471301.56, 41532.266, 0.022639068, 0.14201087, -184701.03, 154004.06, 0.0, 10.001892, 9.998186 
7.650772e+2, 2.7543896e+2, -233390.7, -442415.22, 19927.084, 0.12130014, 0.21451591, -231507.94, 9207.587, 0.00000016204108, 10.000935, 9.99817 
7.6507866e+2, 2.8543693e+2, -112242.64, -436836.34, -9626.723, 0.011637411, 0.24582773, -111957.38, 30779.59, 0.000006290961, 10.0015335, 9.997247 
7.650776e+2, 2.954336e+2, 255256.03, -204312.39, 13675.436, -0.27859658, 0.16154672, 255662.63, 300432.8, 0.000041719115, 10.003363, 9.997284 
7.6508105e+2, 3.0543023e+2, 366135.13, -163350.55, 30700.729, -0.119687706, 0.114345, 367909.28, 367909.28, 0.00013461517, 10.003965, 9.996946 
7.650836e+2, 3.1543037e+2, 359901.78, -10710.811, 5909.0938, -0.029491695, 0.40403995, 359995.97, 359995.97, 0.00029005748, 10.003199, 9.99836 
7.750287e+2, 1.2544249e+2, -2009561.8, -1695687.4, -91733.875, 0.0001493165, -0.11557119, -1670843.4, 39821.145, 0.0000000023621072, 9.997188, 10.001479 
7.750313e+2, 1.3544607e+2, -1898904.9, -1680372.3, 30835.248, -0.049795024, 0.14659931, -1676104.8, -63469.26, 0.0, 9.997708, 10.000664 
7.750337e+2, 1.4544676e+2, -1724149.0, -1585400.6, 23102.568, -0.14623737, 0.17557357, -1581655.0, -67024.37, 0.0, 9.998402, 10.000302 
7.75038e+2, 1.5544589e+2, -1446269.3, -1396235.3, 19878.314, -0.042596158, 0.027672566, -1389299.1, 27338.773, 0.0, 9.999624, 10.000339 
7.7504104e+2, 1.65446e+2, -1336380.9, -1285741.4, 13201.323, -0.057840772, 0.0057930616, -1282506.6, 36128.26, 0.0, 9.999696, 10.000383 
7.7504325e+2, 1.7544666e+2, -1362035.4, -1251394.5, 52364.086, -0.1456628, 0.0098500205, -1230541.9, -9915.875, 0.0, 9.998866, 10.000344 
7.7504665e+2, 1.8544683e+2, -1322257.5, -1365237.6, 86765.98, -0.18142675, 0.07964247, -1254359.9, -131732.44, 0.0, 9.999239, 9.998719 
7.7505094e+2, 1.9544636e+2, -1013137.7, -1160111.8, 80085.586, -0.17845386, 0.13776131, -977932.3, 46707.555, 0.0, 10.000659, 9.99877 
7.7505505e+2, 2.0544599e+2, -785265.3, -919296.9, 65185.56, -0.18008284, 0.18931444, -758791.7, 167853.8, 0.0, 10.001226, 9.99947 
7.75059e+2, 2.1544543e+2, -706100.1, -837459.7, 99760.16, -0.1838144, 0.16652547, -652339.9, 176308.06, 0.0, 10.00112, 9.9994135 
7.750621e+2, 2.2544439e+2, -723676.44, -948788.9, 8101.774, -0.16160034, 0.19592163, -723385.25, 7273.25, 0.0, 10.0009985, 9.998033 
7.750645e+2, 2.3544262e+2, -637931.75, -854246.94, -23613.242, -0.11951234, 0.19404557, -635384.06, -2705.4082, 0.0, 10.000893, 9.998062 
7.750677e+2, 2.4544092e+2, -454609.4, -663191.3, 3654.2864, -0.07655392, 0.19641106, -454545.4, 80150.65, 0.0, 10.00126, 9.99852 
7.750715e+2, 2.554391e+2, -250359.53, -516106.84, 32378.146, -0.029540762, 0.13882953, -246471.52, 190240.97, 0.0, 10.001998, 9.998503 
7.750745e+2, 2.6543763e+2, -210141.89, -504920.88, -3298.4915, -0.021752529, 0.17107432, -210104.98, 128622.6, 0.0, 10.001859, 9.997974 
7.750767e+2, 2.7543604e+2, -250596.3, -470054.3, -471.02316, -0.05113813, 0.19338992, -250595.28, -9850.266, 0.00000014054619, 10.000892, 9.998006 
7.75079e+2, 2.854344e+2, -54098.324, -303126.13, 50427.984, -0.12912913, 0.22007307, -44274.242, 98486.484, 0.0000059856334, 10.001485, 9.998183 
7.750816e+2, 2.9543257e+2, 308754.56, -81850.83, 92524.984, -0.247244, 0.18523468, 329563.0, 374339.16, 0.0000396548, 10.003314, 9.998146 
7.750859e+2, 3.054289e+2, 339552.72, -212599.19, -3415.8193, -0.047675293, 0.09004491, 339573.84, 339573.84, 0.00012692052, 10.00394, 9.996625 
7.750874e+2, 3.1542587e+2, 267807.72, -190197.42, 20866.688, -0.030156337, 0.10302713, 268756.44, 268756.44, 0.00027215088, 10.003136, 9.997169 
7.850267e+2, 1.2543902e+2, -1911821.6, -1660890.8, -95221.33, 0.062548, -0.11362133, -1628848.5, 81849.88, 0.0000000040597263, 9.99794, 10.00134 
7.8502953e+2, 1.3544244e+2, -1835371.0, -1649463.8, -35304.496, -0.008263508, 0.1352498, -1642985.0, -30313.361, 0.0, 9.99817, 10.000639 
7.8503287e+2, 1.4544304e+2, -1737536.4, -1559497.8, -1200.3318, -0.04961343, 0.14179197, -1559489.6, -44822.055, 0.0, 9.998181, 10.000581 
7.8503716e+2, 1.5544283e+2, -1644936.6, -1465093.3, 11836.676, -0.005310622, 0.037107777, -1464317.5, -47650.402, 0.0, 9.998157, 10.000567 
7.850405e+2, 1.6544306e+2, -1475965.1, -1371795.8, -2998.6921, -0.020812819, 0.024463816, -1371709.5, -53046.523, 0.0, 9.9988165, 10.000211 
7.850435e+2, 1.7544338e+2, -1212884.4, -1196004.0, -51285.184, -0.06067643, 0.008993564, -1152469.1, 68189.22, 0.0, 9.999966, 10.000188 
7.850472e+2, 1.8544327e+2, -1160601.4, -1270322.1, 7647.762, -0.09758454, 0.052189022, -1160070.9, -37409.027, 0.0, 10.000282, 9.99886 
7.850515e+2, 1.9544265e+2, -1129207.3, -1195812.0, 23348.023, -0.14076872, 0.07925726, -1121838.1, -97163.63, 0.0, 9.999799, 9.998927 
7.850555e+2, 2.0544264e+2, -948543.75, -983616.7, 19957.031, -0.1840082, 0.1540138, -939513.06, -12836.82, 0.0, 10.00004, 9.9996 
7.8505945e+2, 2.1544293e+2, -752913.94, -845235.1, -10738.477, -0.22230054, 0.20155446, -751681.3, 76990.18, 0.0, 10.000736, 9.999543 
7.850629e+2, 2.254419e+2, -722314.2, -950484.1, -69403.555, -0.16803558, 0.22894621, -702861.75, 27820.654, 0.0, 10.001006, 9.998017 
7.850662e+2, 2.3543955e+2, -637067.25, -853370.1, -33903.875, -0.038641177, 0.16839449, -631877.56, 831.2997, 0.0, 10.000892, 9.998069 
7.850695e+2, 2.4543805e+2, -463854.6, -636376.7, 70666.125, -0.0025691823, 0.17533106, -438604.78, 96119.58, 0.0, 10.001067, 9.99879 
7.8507304e+2, 2.5543702e+2, -297921.7, -509871.8, 57732.67, -0.040218357, 0.16946758, -283216.28, 153516.31, 0.0, 10.001544, 9.998758 
7.8507596e+2, 2.6543543e+2, -180963.5, -498297.38, 10345.02, -0.060435016, 0.18135528, -180626.61, 158121.33, 0.0, 10.0021, 9.997902 
7.8507817e+2, 2.7543297e+2, 4017.461, -355660.88, 3503.517, -0.06643329, 0.12518139, 4051.5845, 244824.19, 0.0000001311964, 10.002682, 9.997928 
7.850814e+2, 2.854313e+2, 114877.336, -233439.14, 69650.02, -0.09631522, 0.15811571, 128288.33, 271077.53, 0.0000058891046, 10.002686, 9.99809 
7.850854e+2, 2.9543033e+2, 127279.82, -179628.22, 12594.987, -0.13075836, 0.22204573, 127795.83, 172594.2, 0.000037489564, 10.002109, 9.998059 
7.8508985e+2, 3.054272e+2, 190627.52, -228734.44, -70575.414, 0.021552932, 0.15608649, 202186.23, 202186.23, 0.00011865352, 10.002662, 9.997128 
7.850904e+2, 3.154227e+2, 413557.8, -71214.37, -14612.322, -0.068799324, -0.033125468, 413997.88, 413997.88, 0.0002544846, 10.00392, 9.9976 
7.950248e+2, 1.2543654e+2, -1952342.6, -1759656.9, -111802.74, 0.02076946, 0.032272194, -1708413.3, 2312.796, 0.0000000034592607, 9.997999, 10.00064 
7.950288e+2, 1.3543731e+2, -1850704.1, -1689699.9, -22706.553, 0.06852685, 0.054043032, -1686558.9, -73834.09, 0.0, 9.998209, 10.000342 
7.950322e+2, 1.4543787e+2, -1690661.9, -1456180.0, -16784.688, 0.038830508, 0.03169625, -1454984.6, 59734.816, 0.0, 9.998156, 10.001301 
7.9503447e+2, 1.5544024e+2, -1596727.9, -1365455.8, 25324.969, -0.11711416, 0.10687979, -1362715.1, 53975.977, 0.0, 9.998158, 10.001247 
7.9503834e+2, 1.6544072e+2, -1552705.3, -1526758.0, 29590.428, -0.14899568, 0.14011332, -1507422.1, -188736.27, 0.0, 9.998793, 9.999163 
7.9504377e+2, 1.7543928e+2, -1281234.4, -1337949.8, -1490.0377, -0.053575285, 0.05712796, -1281195.3, -60492.633, 0.0, 9.999956, 9.999222 
7.950483e+2, 1.8543851e+2, -1126779.0, -1176446.5, -19976.613, -0.03864868, 0.04143726, -1119741.4, 2970.689, 0.0, 10.000186, 9.999548 
7.950519e+2, 1.9543801e+2, -1092568.9, -1104766.6, 17932.37, -0.10805475, 0.011565398, -1079726.6, -55008.863, 0.0, 9.999736, 9.999578 
7.9505587e+2, 2.0543823e+2, -996647.4, -1056452.9, 35204.355, -0.17666222, 0.100011334, -980360.06, -53643.023, 0.0, 9.999927, 9.999155 
7.9506004e+2, 2.1543871e+2, -800369.3, -910707.44, 24249.813, -0.250995, 0.21002562, -795274.94, 33439.26, 0.0, 10.000593, 9.999164 
7.9506403e+2, 2.2543775e+2, -665219.5, -794920.4, -81663.32, -0.18114978, 0.20040132, -625789.2, 104934.195, 0.0, 10.000849, 9.999161 
7.950677e+2, 2.3543538e+2, -574873.4, -704067.25, -25033.33, 0.008336308, 0.025237322, -570192.4, 62552.23, 0.0, 10.0008, 9.999141 
7.950708e+2, 2.4543457e+2, -472925.13, -638111.3, 76772.1, -0.007148419, 0.051269285, -442754.84, 91997.26, 0.0, 10.000994, 9.998814 
7.9507333e+2, 2.554348e+2, -311132.06, -515664.56, 85061.42, -0.19351254, 0.17012902, -280380.16, 156370.69, 0.0, 10.001448, 9.998768 
7.9507697e+2, 2.6543316e+2, -181988.06, -491015.28, 21677.742, -0.19224162, 0.17296073, -180474.81, 158291.78, 0.0, 10.002052, 9.997976 
7.950815e+2, 2.7542973e+2, -2471.9805, -359711.4, 36594.754, -0.030711666, 0.009348713, 1238.1665, 242036.88, 0.000000103459534, 10.002636, 9.997925 
7.9508543e+2, 2.8542775e+2, 35444.72, -392802.72, 39116.44, 0.016047092, 0.068897866, 38988.32, 181809.95, 0.0000054454867, 10.002663, 9.997006 
7.950886e+2, 2.9542688e+2, 47709.75, -331793.28, 11818.644, -0.0548851, 0.25621817, 48077.457, 92914.77, 0.00003447301, 10.00205, 9.9970455 
7.950923e+2, 3.0542508e+2, 279737.9, -40225.43, -25986.441, -0.030531846, 0.301495, 281834.72, 281834.72, 0.0001104858, 10.002642, 9.998431 
7.9509217e+2, 3.154199e+2, 527318.8, 174941.69, 74669.516, -0.35098737, -0.08815794, 542488.44, 542488.44, 0.000240168, 10.003867, 9.99932 
8.0502254e+2, 1.2543352e+2, -1999639.6, -1818613.6, -29165.05, 0.0070049, 0.0815932, -1814030.9, -103273.12, 0.0000000057252847, 9.997852, 10.000315 
8.050275e+2, 1.3543394e+2, -1832970.0, -1705233.3, 26145.469, 0.10985075, 0.09051259, -1700089.0, -87330.67, 0.0, 9.998426, 10.000154 
8.050316e+2, 1.454339e+2, -1607511.1, -1443350.0, 18035.035, 0.13373917, 0.03168596, -1441392.0, 73366.33, 0.0, 9.998851, 10.001055 
8.0503345e+2, 1.5543573e+2, -1443112.8, -1324505.8, -44908.77, -0.09244793, 0.08045092, -1309420.4, 107315.42, 0.0, 9.999352, 10.00096 
8.050373e+2, 1.6543621e+2, -1440233.5, -1453748.1, 3872.9712, -0.16059057, 0.12052891, -1439202.3, -120471.83, 0.0, 9.999489, 9.999336 
8.050432e+2, 1.754353e+2, -1366331.8, -1363609.4, 40011.938, -0.069478594, 0.07749391, -1324935.4, -104193.6, 0.0, 9.999311, 9.999364 
8.050482e+2, 1.8543477e+2, -1193325.3, -1199767.0, 41908.484, -0.02871507, 0.07686096, -1154514.0, -31765.652, 0.0, 9.999696, 9.999623 
8.050526e+2, 1.9543435e+2, -986416.5, -1052957.3, 8727.535, -0.04724001, 0.048818704, -985290.8, 39462.184, 0.0, 10.000455, 9.9995985 
8.0505645e+2, 2.054341e+2, -915509.06, -1012821.2, 35791.26, -0.127781, 0.09085369, -903762.9, 22992.908, 0.0, 10.000462, 9.999201 
8.0506015e+2, 2.1543376e+2, -916424.1, -957367.06, 38793.87, -0.25780657, 0.114310265, -893031.7, -64271.848, 0.0, 9.999765, 9.999239 
8.050643e+2, 2.2543298e+2, -726990.94, -804082.0, -41677.906, -0.20029911, 0.10962228, -708766.7, 22000.338, 0.0, 10.000345, 9.999333 
8.050691e+2, 2.3543166e+2, -399708.0, -599735.7, -78336.1, 0.013471121, 0.020942118, -372681.25, 260097.5, 0.0, 10.001936, 9.9993 
8.0507255e+2, 2.4543107e+2, -330208.22, -600606.4, -38629.777, 0.02536734, 0.074005775, -324797.75, 209987.81, 0.0, 10.002089, 9.998556 
8.050751e+2, 2.5543076e+2, -396154.63, -583661.2, -67241.86, -0.12615032, 0.16514605, -374533.97, 62257.37, 0.0, 10.000964, 9.998546 
8.0507904e+2, 2.654292e+2, -287199.13, -514223.1, -59964.113, -0.14263362, 0.17334245, -272334.06, 66472.59, 0.0, 10.001211, 9.998221 
8.0508405e+2, 2.754263e+2, 25824.65, -316658.2, -54399.49, -0.03620293, 0.036996696, 34257.74, 275090.13, 0.00000004701224, 10.002696, 9.998191 
8.0508816e+2, 2.8542438e+2, 87907.43, -374648.44, -39867.195, 0.0069815097, 0.09415233, 91318.38, 234172.86, 0.000004093495, 10.003062, 9.996933 
8.050912e+2, 2.954231e+2, 114370.47, -305914.06, -14926.011, -0.014531916, 0.24169393, 114899.88, 159775.16, 0.000029631305, 10.00254, 9.996982 
8.050955e+2, 3.0542138e+2, 311671.94, -41997.348, 10390.085, 0.02666667, 0.3125563, 311976.9, 311976.9, 0.00010221737, 10.002948, 9.998281 
8.050969e+2, 3.1541678e+2, 568787.25, 249733.44, -24415.205, -0.25015768, -0.010189259, 570644.75, 570644.75, 0.00023173695, 10.003951, 9.999792 
8.15019e+2, 1.2543015e+2, -2008883.9, -1844285.1, -20049.994, -0.18474892, 0.044216186, -1841878.0, -131086.19, 0.000000004999778, 9.997879, 10.000126 
8.150251e+2, 1.354324e+2, -1833556.4, -1710737.3, 53313.008, 0.007819968, 0.23592788, -1690824.0, -78052.37, 0.0, 9.998452, 10.000095 
8.150307e+2, 1.4543128e+2, -1704388.6, -1644766.1, 23383.402, 0.1264635, 0.14273922, -1636689.4, -121906.445, 0.0, 9.998848, 9.999678 
8.150336e+2, 1.5542941e+2, -1528891.9, -1499973.8, -15568.118, -0.03678398, -0.03987226, -1493185.9, -76385.98, 0.0, 9.999344, 9.99976 
8.150371e+2, 1.6542967e+2, -1355747.6, -1270655.4, -14858.822, -0.15485206, -0.030733753, -1268135.4, 50660.08, 0.0, 9.999454, 10.000608 
8.150413e+2, 1.7543142e+2, -1283791.5, -1187490.3, 44928.84, -0.20857617, 0.05893689, -1169784.4, 50991.598, 0.0, 9.99929, 10.00058 
8.150468e+2, 1.8543208e+2, -1247722.4, -1297867.5, 61536.363, -0.1646425, 0.15352386, -1206346.8, -83576.086, 0.0, 9.999628, 9.998985 
8.150531e+2, 1.954316e+2, -1038879.25, -1144841.5, 45675.434, -0.05780328, 0.18537046, -1021908.6, 2871.1687, 0.0, 10.000377, 9.999006 
8.1505716e+2, 2.0543033e+2, -903664.25, -956456.7, -2537.8447, -0.1245904, 0.12701924, -903542.5, 23249.123, 0.0, 10.000323, 9.999656 
8.1505924e+2, 2.1542813e+2, -905796.94, -906480.2, 26607.578, -0.33587816, -0.08185638, -879528.75, -50720.938, 0.0, 9.99964, 9.999648 
8.1506366e+2, 2.2542766e+2, -799313.6, -922196.7, 6606.2437, -0.32140294, -0.036975473, -798959.5, -68146.38, 0.0, 10.000208, 9.99859 
8.150699e+2, 2.3542832e+2, -472238.34, -717467.75, -12701.248, -0.12309433, 0.14752549, -471582.25, 161229.78, 0.0, 10.00179, 9.998565 
8.150746e+2, 2.4542744e+2, -385324.13, -681952.3, -91441.42, -0.0000038870653, 0.23371561, -359401.03, 175424.19, 0.0, 10.001953, 9.998061 
8.1507826e+2, 2.5542504e+2, -441269.72, -658072.25, -94828.52, 0.06633707, 0.16517028, -405645.7, 31206.84, 0.0, 10.000886, 9.998072 
8.1508183e+2, 2.6542363e+2, -256063.1, -442961.7, -13012.664, -0.0019499887, 0.18352659, -255161.45, 83705.62, 0.0, 10.001186, 9.998721 
8.150855e+2, 2.7542272e+2, 41437.02, -254495.36, 11891.515, -0.18959086, 0.20256202, 41914.09, 282787.28, 0.000000004527389, 10.002577, 9.998673 
8.1508917e+2, 2.854212e+2, 146130.84, -249234.42, -70458.234, -0.22444262, 0.23124918, 158311.94, 301199.88, 0.0000024308686, 10.003033, 9.997811 
8.15093e+2, 2.95419e+2, 155769.67, -207553.56, -19983.95, -0.12606204, 0.20055512, 156865.56, 201777.11, 0.00002455122, 10.002486, 9.9976845 
8.1509936e+2, 3.054163e+2, 208877.27, -263865.1, 41276.14, 0.0885162, 0.21560648, 212454.11, 212454.11, 0.00009685274, 10.002981, 9.996737 
8.1510377e+2, 3.154124e+2, 501595.9, 132475.4, 51177.914, -0.016078422, 0.11786587, 508560.25, 508560.25, 0.00023260323, 10.003855, 9.999034 
8.250175e+2, 1.2542567e+2, -2118411.0, -1859032.5, -90052.32, -0.058674216, 0.11931861, -1830833.4, -119994.0, 0.0000000017683296, 9.996926, 10.000485 
8.2502353e+2, 1.3542725e+2, -1675268.8, -1590487.3, -36102.566, -0.027737437, 0.19030012, -1577197.0, 35623.793, 0.0, 9.999327, 10.000501 
8.250297e+2, 1.4542614e+2, -1623332.0, -1665979.8, -50654.44, 0.10899611, 0.10909454, -1589696.0, -74864.15, 0.0, 9.999672, 9.999127 
8.2503325e+2, 1.5542462e+2, -1692221.1, -1639834.4, -55553.17, 0.044060472, 0.016643979, -1604609.1, -187759.27, 0.0, 9.99849, 9.999205 
8.250369e+2, 1.6542469e+2, -1475883.6, -1310536.9, -24080.578, -0.06774829, 0.023544615, -1307101.3, 11746.77, 0.0, 9.998555, 10.000759 
8.250409e+2, 1.7542584e+2, -1225586.9, -1146696.5, -72686.38, -0.1922099, 0.041225206, -1103442.0, 117389.586, 0.0, 9.999627, 10.000698 
8.2504624e+2, 1.8542649e+2, -1207820.0, -1253707.6, -53188.695, -0.18393913, 0.11524939, -1172837.5, -50012.207, 0.0, 9.999795, 9.999208 
8.2505256e+2, 1.954264e+2, -1202100.4, -1196630.8, -26643.898, -0.08274653, 0.16551419, -1172581.6, -147751.64, 0.0, 9.999149, 9.999236 
8.2505715e+2, 2.0542544e+2, -993726.25, -969873.0, -22823.234, -0.11020995, 0.11302577, -956048.0, -29210.033, 0.0, 9.999585, 9.999907 
8.250604e+2, 2.1542351e+2, -711204.94, -789957.2, -32779.895, -0.23940206, -0.09339482, -699346.3, 129504.23, 0.0, 10.000877, 9.999852 
8.25065e+2, 2.2542296e+2, -702290.4, -906603.94, -16721.996, -0.24106368, -0.051292043, -700930.8, 29925.79, 0.0, 10.0009985, 9.998328 
8.250706e+2, 2.3542327e+2, -732506.3, -870964.25, -22363.17, -0.13689354, 0.1250409, -728983.94, -96123.62, 0.0, 10.000118, 9.998324 
8.250756e+2, 2.4542224e+2, -569409.1, -769916.0, -41635.496, -0.024069667, 0.20759892, -561107.25, -26231.844, 0.0, 10.000692, 9.998062 
8.250803e+2, 2.554199e+2, -199357.06, -537156.6, -31201.805, 0.100711256, 0.14449388, -196499.19, 240402.66, 0.0, 10.002547, 9.9980955 
8.250844e+2, 2.6541853e+2, -45426.246, -376399.38, 44747.37, 0.057028327, 0.18266638, -39483.145, 299433.66, 0.0, 10.00278, 9.998415 
8.250881e+2, 2.754176e+2, -122301.59, -364032.56, -8629.97, -0.12517147, 0.22563004, -121993.89, 118931.48, 0.0, 10.001577, 9.998405 
8.2509184e+2, 2.85416e+2, -19400.59, -288803.88, -102258.17, -0.18515317, 0.2415793, 15016.856, 157956.69, 0.000001518397, 10.001732, 9.998167 
8.2509565e+2, 2.954136e+2, 263847.6, -116729.48, -113383.13, -0.12689887, 0.15567984, 295066.3, 340028.1, 0.000022026383, 10.00306, 9.998034 
8.251027e+2, 3.0541033e+2, 256892.56, -282633.84, 1529.2273, 0.10334088, 0.12300995, 256896.9, 256896.9, 0.00009707927, 10.003496, 9.99635 
8.251086e+2, 3.154075e+2, 368172.06, 41827.855, 61957.5, 0.13434145, 0.15725341, 379538.97, 379538.97, 0.00024343694, 10.0030365, 9.998795 
8.350174e+2, 1.254201e+2, -2059600.0, -1721406.6, -11034.62, 0.18327133, 0.30007264, -1721047.0, -10146.703, 0.000000000051048894, 9.996871, 10.001453 
8.350225e+2, 1.3541864e+2, -1593864.5, -1422189.1, 58328.223, -0.08999821, -0.042170342, -1404246.9, 208657.17, 0.0, 9.999338, 10.001648 
8.350283e+2, 1.4541866e+2, -1620791.6, -1656696.6, -109401.945, -0.02810177, -0.07148961, -1527879.0, -12975.348, 0.0, 9.999654, 9.9992 
8.35032e+2, 1.5542132e+2, -1688005.3, -1629462.1, -86851.51, 0.038652547, 0.24255332, -1567082.1, -150196.42, 0.0, 9.998482, 9.999278 
8.3503634e+2, 1.6542123e+2, -1553262.4, -1453724.8, 5470.902, -0.00068178645, 0.28007603, -1453424.9, -134537.28, 0.0, 9.998485, 9.999812 
8.3504164e+2, 1.7541876e+2, -1291265.3, -1273383.5, -21477.03, -0.11057871, 0.03098254, -1259060.6, -38153.676, 0.0, 9.999595, 9.999842 
8.3504635e+2, 1.8541811e+2, -1141100.5, -1107621.4, -89540.45, -0.17612559, -0.032864407, -1033269.2, 89641.39, 0.0, 9.999756, 10.000236 
8.350505e+2, 1.9541873e+2, -1140798.4, -1052116.5, -37165.402, -0.22110344, -0.019931134, -1038600.8, -13697.142, 0.0, 9.999073, 10.000267 
8.350562e+2, 2.0541942e+2, -1012602.1, -978397.0, 15016.156, -0.18307126, 0.042332552, -972740.3, -45845.203, 0.0, 9.999452, 9.999912 
8.3506316e+2, 2.1541989e+2, -730114.6, -795855.25, 23081.936, -0.07394748, 0.07284702, -722819.9, 106067.84, 0.0, 10.000735, 9.999875 
8.3506805e+2, 2.2541894e+2, -707481.94, -887760.3, -62954.934, -0.05443634, 0.06480709, -687673.94, 43223.074, 0.0, 10.000864, 9.998526 
8.35071e+2, 2.3541656e+2, -731926.5, -850279.7, -39464.254, -0.12231015, -0.04804228, -719974.4, -87051.51, 0.0, 10.000023, 9.998517 
8.350754e+2, 2.4541552e+2, -545912.1, -703468.7, 17892.635, -0.13994001, -0.0023486055, -543905.75, -8970.259, 0.0, 10.000613, 9.998556 
8.3508086e+2, 2.5541535e+2, -184240.28, -487995.84, 45762.883, -0.113345444, 0.10286678, -177495.55, 259443.88, 0.0, 10.0024605, 9.998479 
8.350862e+2, 2.654139e+2, -129439.32, -533985.9, -9803.166, -0.05190749, 0.1716798, -129201.91, 209754.58, 0.0, 10.002709, 9.997366 
8.350916e+2, 2.7541107e+2, -204490.5, -517976.78, -36281.813, 0.04388509, 0.12860884, -200346.16, 40641.28, 0.0, 10.001508, 9.997382 
8.350958e+2, 2.854089e+2, -28219.95, -303599.2, -61749.914, 0.015706694, 0.14136471, -15007.339, 128001.28, 0.0000012583888, 10.001717, 9.998073 
8.35099e+2, 2.95407e+2, 246166.86, -133837.17, -51456.938, -0.1274483, 0.11285327, 253011.45, 298036.2, 0.000022671806, 10.002977, 9.997958 
8.351051e+2, 3.0540362e+2, 307680.16, -174528.73, -19005.066, -0.023671739, 0.035508033, 308428.03, 308428.03, 0.0001036696, 10.003483, 9.997102 
8.3511066e+2, 3.154034e+2, 370731.9, 67103.34, 95718.875, -0.020949842, 0.26371077, 398388.16, 398388.16, 0.0002623637, 10.002959, 9.999008 
8.45016e+2, 1.2541315e+2, -1654785.1, -1546908.3, 84709.336, 0.21980308, 0.28768298, -1500422.4, 210546.34, 0.0, 9.999752, 10.001261 
8.450214e+2, 1.354116e+2, -1851259.9, -1566956.1, -8005.3916, -0.03875156, -0.04007227, -1566731.0, 46246.344, 0.0, 9.997677, 10.001454 
8.450271e+2, 1.4541242e+2, -1850452.4, -1677653.8, -156630.2, -0.010291324, -0.022367317, -1585173.6, -70203.86, 0.0, 9.997688, 10.000005 
8.450304e+2, 1.5541606e+2, -1445378.6, -1431348.8, -106969.85, -0.020138996, 0.31198236, -1331164.1, 85776.04, 0.0, 9.999796, 10.000009 
8.450352e+2, 1.6541618e+2, -1320951.5, -1370209.4, 42545.51, -0.038045216, 0.34705263, -1296420.5, 22519.236, 0.0, 10.00019, 9.99957 
8.4504145e+2, 1.7541316e+2, -1401709.4, -1353234.9, 46128.62, -0.045430142, 0.06760465, -1325363.8, -104398.29, 0.0, 9.998945, 9.999611 
8.450466e+2, 1.8541229e+2, -1254247.1, -1134403.9, -4387.831, -0.07812758, -0.021882355, -1134243.4, -11272.703, 0.0, 9.998867, 10.000471 
8.4505063e+2, 1.9541295e+2, -1025808.44, -979631.7, -35838.996, -0.14658383, -0.025671702, -960087.8, 64873.848, 0.0, 9.999781, 10.000427 
8.4505635e+2, 2.0541374e+2, -933274.6, -971406.2, 12038.583, -0.13974892, 0.05443652, -929792.0, -2839.0806, 0.0, 10.000124, 9.999644 
8.4506357e+2, 2.1541438e+2, -871655.06, -894914.8, -25591.787, -0.06296649, 0.13129193, -855174.56, -26227.633, 0.0, 9.999891, 9.999609 
8.45069e+2, 2.254135e+2, -749100.8, -844669.9, -102396.03, -0.01838806, 0.115669034, -683888.44, 47066.27, 0.0, 10.000325, 9.9990635 
8.450728e+2, 2.3541123e+2, -511352.13, -681684.06, -79994.51, -0.006516246, -0.043032173, -479674.78, 153300.72, 0.0, 10.001299, 9.999041 
8.450774e+2, 2.4541011e+2, -401848.97, -661966.6, 10992.434, -0.052996423, -0.016345099, -401385.25, 133602.14, 0.0, 10.00172, 9.998307 
8.450825e+2, 2.554097e+2, -319865.5, -574797.0, -37118.68, -0.14616413, 0.08723379, -314570.9, 122423.77, 0.0, 10.001632, 9.998272 
8.450881e+2, 2.6540813e+2, -239489.56, -597662.06, -93921.36, -0.09050071, 0.16039363, -216355.38, 122657.73, 0.0, 10.002001, 9.997265 
8.450944e+2, 2.754054e+2, -23780.643, -439359.06, -70677.81, 0.10831137, 0.13345827, -12089.311, 228953.95, 0.0000000050987805, 10.00279, 9.997299 
8.450992e+2, 2.8540292e+2, 131028.04, -291555.06, -31925.924, 0.11961307, 0.15015528, 133426.42, 276494.13, 0.0000017149706, 10.003076, 9.997503 
8.451028e+2, 2.954003e+2, 193946.47, -208822.1, -79026.64, -0.03259669, 0.10541587, 208897.2, 253988.63, 0.0000255943, 10.002821, 9.997517 
8.451083e+2, 3.0539694e+2, 221983.55, -126932.42, -65958.0, 0.0014721431, 0.00308445, 234035.75, 234035.75, 0.000114907256, 10.00251, 9.997905 
8.451133e+2, 3.1539753e+2, 240695.36, 26876.344, 20239.734, 0.0032181174, 0.23696053, 242594.34, 242594.34, 0.00028673265, 10.001943, 9.999232 
8.550126e+2, 1.254051e+2, -1774488.6, -1787165.1, -9518.294, -0.14830074, 0.088512205, -1769391.4, -58348.98, 0.0, 9.999724, 9.999624 
8.550199e+2, 1.3540617e+2, -1967749.6, -1798385.9, -75898.586, 0.01586171, 0.19367872, -1769350.5, -156310.38, 0.0, 9.997654, 9.9998665 
8.5502577e+2, 1.4540748e+2, -1740098.6, -1452161.8, -90350.18, 0.055862747, 0.2582474, -1426159.4, 88870.12, 0.0, 9.997689, 10.001558 
8.550284e+2, 1.5540901e+2, -1336290.4, -1208420.5, -16283.589, -0.2356462, 0.2235296, -1206379.4, 210632.38, 0.0, 9.999807, 10.001532 
8.5503334e+2, 1.6540961e+2, -1302030.4, -1322579.4, -16747.477, -0.27349657, 0.21736759, -1292656.9, 26346.598, 0.0, 10.000152, 9.999917 
8.5504013e+2, 1.7540906e+2, -1379270.9, -1300289.9, 11141.451, -0.09149705, 0.14463477, -1298748.3, -77741.6, 0.0, 9.998921, 9.999983 
8.550466e+2, 1.8540901e+2, -1305634.3, -1228677.5, 19382.04, 0.0096359085, 0.14979485, -1224071.6, -101066.016, 0.0, 9.998806, 9.999859 
8.550525e+2, 1.9540913e+2, -1074698.6, -1069442.3, 6124.357, 0.032512076, 0.15349957, -1065406.0, -40402.49, 0.0, 9.999725, 9.999838 
8.5505736e+2, 2.0540857e+2, -989516.75, -1067731.6, -8821.539, -0.07059406, 0.15869896, -988534.1, -61524.207, 0.0, 10.000028, 9.999038 
8.5506135e+2, 2.1540704e+2, -924351.8, -976424.3, -19940.102, -0.28989965, 0.079541, -917593.3, -88566.055, 0.0, 9.999765, 9.999114 
8.5506743e+2, 2.2540666e+2, -716803.5, -738370.5, -75273.59, -0.21750766, 0.092611745, -651544.94, 79484.336, 0.0, 10.000159, 9.999873 
8.550754e+2, 2.3540711e+2, -477122.28, -581808.6, -32777.55, 0.10812627, 0.12744464, -467706.44, 165312.81, 0.0, 10.001175, 9.999786 
8.550812e+2, 2.4540596e+2, -481299.7, -804234.1, -3745.7253, 0.1369852, 0.16121598, -481256.25, 53775.215, 0.0, 10.001625, 9.997377 
8.5508496e+2, 2.5540298e+2, -394571.9, -708060.44, -28644.191, -0.087677054, 0.1013703, -391976.13, 45090.676, 0.0, 10.0015335, 9.997407 
8.5508996e+2, 2.654012e+2, -188576.9, -476861.72, -74782.15, -0.13022736, 0.14878818, -170332.73, 168753.98, 0.0, 10.001934, 9.99813 
8.5509604e+2, 2.7540034e+2, 17084.03, -335427.72, -29464.84, -0.022660183, 0.22753373, 19529.89, 260624.38, 0.0000001292932, 10.0027075, 9.998056 
8.5510164e+2, 2.8539798e+2, 56482.832, -430076.72, -48626.17, 0.030175976, 0.26566657, 61294.883, 204412.75, 0.0000031613251, 10.003014, 9.996577 
8.551066e+2, 2.9539374e+2, 125008.5, -337755.5, -74247.375, 0.031650774, 0.15327883, 136629.19, 181789.6, 0.000030116835, 10.002764, 9.996658 
8.5511166e+2, 3.0539024e+2, 283021.25, 3704.5427, -93316.71, 0.069709405, 0.030800924, 311328.56, 311328.56, 0.0001273879, 10.002501, 9.998807 
8.5511583e+2, 3.153905e+2, 229151.66, 22029.893, 30577.027, 0.010701005, 0.15477264, 233571.38, 233571.38, 0.00031292601, 10.001872, 9.999233 
8.650109e+2, 1.253983e+2, -2059574.3, -1902911.5, -21754.654, -0.17037652, 0.022465354, -1899946.8, -188837.5, 0.00000000000000000000885557, 9.997656, 9.99983 
8.650179e+2, 1.3540116e+2, -1928456.0, -1774626.4, 9674.745, 0.049291823, 0.29349956, -1774020.4, -160929.23, 0.0, 9.997864, 9.999942 
8.650239e+2, 1.4540255e+2, -1687815.8, -1422084.0, 104073.836, 0.09909299, 0.3606844, -1386175.8, 128903.9, 0.0, 9.998043, 10.001589 
8.650278e+2, 1.5540248e+2, -1546858.1, -1311879.0, 33305.44, -0.20296276, 0.16895698, -1307249.5, 109826.73, 0.0, 9.998369, 10.001523 
8.6503303e+2, 1.6540313e+2, -1462757.9, -1363284.9, -50842.62, -0.24924892, 0.15250483, -1341897.0, -22829.234, 0.0, 9.998903, 10.000226 
8.650395e+2, 1.7540412e+2, -1251904.4, -1214965.9, -55077.734, -0.07906057, 0.20542522, -1175343.3, 45714.152, 0.0, 9.999687, 10.0002 
8.65046e+2, 1.8540451e+2, -1176990.5, -1194874.5, 828.3652, 0.03269253, 0.25908703, -1176952.3, -53899.17, 0.0, 9.999825, 9.999591 
8.650524e+2, 1.9540422e+2, -1145841.9, -1131874.1, -5830.974, 0.08085815, 0.24857304, -1129759.9, -104704.39, 0.0, 9.999377, 9.999566 
8.6505747e+2, 2.0540328e+2, -1092314.3, -1101925.1, 26766.926, -0.014313161, 0.22430268, -1069924.8, -142859.5, 0.0, 9.999279, 9.999145 
8.6506134e+2, 2.154015e+2, -972743.44, -990314.94, 40440.055, -0.24186064, 0.105336264, -940145.75, -111061.43, 0.0, 9.999411, 9.999175 
8.65068e+2, 2.2540109e+2, -722467.2, -766366.75, 33003.22, -0.17691366, 0.12462134, -704781.06, 26305.61, 0.0, 10.0002165, 9.999663 
8.650771e+2, 2.3540173e+2, -439169.72, -588039.44, -20671.17, 0.14490566, 0.19994248, -436352.75, 196723.16, 0.0, 10.00153, 9.99958 
8.650836e+2, 2.4540041e+2, -437328.38, -790307.4, -20360.988, 0.19751011, 0.23189914, -436157.75, 98932.05, 0.0, 10.001966, 9.997303 
8.6508757e+2, 2.5539705e+2, -370078.9, -700255.94, -4423.403, 0.01849538, 0.14100628, -370019.66, 67108.6, 0.0, 10.001732, 9.99736 
8.650927e+2, 2.653952e+2, -164760.53, -443692.97, 8018.508, -0.04927097, 0.17271955, -164530.22, 174617.72, 0.0000000005766255, 10.002002, 9.998321 
8.6509883e+2, 2.7539447e+2, 34969.48, -306755.3, -20237.781, -0.014213595, 0.24444959, 36163.84, 277317.1, 0.000000514823, 10.002735, 9.9982395 
8.651047e+2, 2.853922e+2, 102833.28, -411995.16, -24893.92, 0.02373015, 0.28341642, 104034.195, 247209.42, 0.0000054394536, 10.003341, 9.996554 
8.651102e+2, 2.9538813e+2, 276091.16, -263356.2, -5500.899, 0.077209726, 0.18874808, 276147.25, 321363.28, 0.000035908153, 10.003797, 9.996677 
8.6511517e+2, 3.0538473e+2, 498517.88, 66963.69, -31051.021, 0.09464893, 0.096211344, 500740.6, 500740.6, 0.00014004746, 10.004159, 9.998431 
8.651194e+2, 3.153835e+2, 512580.4, 101168.266, -40389.66, 0.074985355, 0.10138071, 516508.1, 516508.1, 0.00033713353, 10.004085, 9.998693 
8.7501013e+2, 1.2539312e+2, -1909163.6, -1592668.6, -37518.7, -0.068863265, 0.13211715, -1588281.8, 122883.81, 0.0000000055054987, 9.997659, 10.001954 
8.750151e+2, 1.353967e+2, -1795087.9, -1488374.9, 26501.473, -0.040785056, 0.26232573, -1486101.9, 127026.84, 0.0, 9.99783, 10.001913 
8.7502146e+2, 1.4539778e+2, -1807144.9, -1667634.3, 102226.95, 0.01629649, 0.2907197, -1613631.1, -98512.586, 0.0, 9.998032, 9.99991 
8.7502813e+2, 1.5539661e+2, -1659250.5, -1537469.5, 57514.477, -0.026281103, 0.14872113, -1514601.0, -97468.664, 0.0, 9.998348, 9.999978 
8.750339e+2, 1.6539693e+2, -1449917.1, -1336720.5, -32342.719, -0.07221426, 0.1626441, -1328131.3, -9000.552, 0.0, 9.998892, 10.00042 
8.750392e+2, 1.7539847e+2, -1239481.8, -1188533.9, -16825.223, -0.10177085, 0.25472805, -1183479.0, 37637.164, 0.0, 9.99968, 10.000386 
8.7504476e+2, 1.8539901e+2, -1179527.0, -1190748.8, -26031.58, -0.10237336, 0.31301802, -1158508.5, -35397.703, 0.0, 9.999782, 9.999642 
8.7505037e+2, 1.953983e+2, -1145588.6, -1118433.9, -9986.485, -0.08898796, 0.2508342, -1115156.8, -90039.6, 0.0, 9.999319, 9.999687 
8.750565e+2, 2.0539793e+2, -1061133.3, -1010593.8, 21636.832, -0.0598863, 0.24044916, -1002596.3, -75477.35, 0.0, 9.999162, 9.99983 
8.750632e+2, 2.153977e+2, -946744.56, -908480.0, 55808.496, -0.019593267, 0.21138826, -868615.4, -39496.96, 0.0, 9.999289, 9.999797 
8.750703e+2, 2.2539684e+2, -825033.9, -948990.44, 69829.695, 0.009909167, 0.21786572, -793644.6, -62518.07, 0.0, 10.000086, 9.998473 
8.750776e+2, 2.3539516e+2, -539514.3, -758442.75, 36980.285, 0.022156658, 0.17790672, -533436.5, 99708.195, 0.0, 10.0013685, 9.998487 
8.7508416e+2, 2.4539357e+2, -401639.03, -692574.56, -40405.234, 0.045603108, 0.19704212, -396131.78, 139029.9, 0.0, 10.001857, 9.998031 
8.7509e+2, 2.553919e+2, -339847.72, -610710.8, 152.69684, 0.07025034, 0.20141204, -339847.66, 97331.91, 0.0, 10.0016165, 9.998031 
8.75096e+2, 2.653901e+2, -204840.0, -517957.47, 26161.254, 0.060654428, 0.23221207, -202669.25, 136528.22, 0.0000000691861, 10.00196, 9.997831 
8.7510216e+2, 2.7538785e+2, -6525.6685, -373495.4, 19469.068, 0.022879977, 0.19886175, -5495.655, 235723.34, 0.000001269736, 10.002655, 9.997817 
8.751081e+2, 2.853857e+2, 165707.52, -278744.56, -20259.803, 0.0079587065, 0.22410093, 166629.13, 309867.44, 0.000008255043, 10.003322, 9.997484 
8.751136e+2, 2.953833e+2, 325629.0, -147950.84, 24044.08, 0.0041004387, 0.20828079, 326846.63, 372105.88, 0.000042714033, 10.003736, 9.997505 
8.751185e+2, 3.0538034e+2, 377084.47, -169691.94, -36997.09, -0.011006882, 0.19778353, 379576.47, 379576.47, 0.00015286829, 10.004096, 9.996832 
8.7512326e+2, 3.153753e+2, 407248.75, -106276.875, -20208.06, -0.007228175, -0.011446429, 408042.75, 408042.75, 0.00035722472, 10.004037, 9.997292 
8.85009e+2, 1.2538776e+2, -2078426.4, -1658200.6, 31148.95, 0.12248167, 0.2139671, -1655904.3, 55315.58, 0.00000006865043, 9.996434, 10.002102 
8.850126e+2, 1.3538973e+2, -1699657.9, -1438934.5, -98171.21, -0.093766056, 0.18249111, -1406103.9, 207092.33, 0.0, 9.998468, 10.001954 
8.850189e+2, 1.4539044e+2, -1679507.1, -1618603.3, -49294.0, -0.08439868, 0.17948294, -1591113.6, -75924.97, 0.0, 9.998973, 9.999785 
8.850268e+2, 1.5539019e+2, -1652814.1, -1550081.6, -7322.7153, 0.0119382525, 0.14390542, -1549562.3, -132367.98, 0.0, 9.998458, 9.999833 
8.850334e+2, 1.6539082e+2, -1509223.4, -1350583.4, -223.28008, 0.016688224, 0.18958056, -1350583.1, -31392.887, 0.0, 9.998432, 10.0005455 
8.850389e+2, 1.7539221e+2, -1354926.3, -1227695.8, -10183.735, -0.049241755, 0.2545759, -1226885.8, -5707.845, 0.0, 9.998829, 10.0005245 
8.850445e+2, 1.8539253e+2, -1220382.6, -1208624.8, -18241.516, -0.085680224, 0.283074, -1195338.3, -72163.59, 0.0, 9.999492, 9.99966 
8.8504994e+2, 1.9539155e+2, -994702.5, -1045525.3, -31853.367, -0.108354606, 0.19505031, -979366.2, 45816.773, 0.0, 10.000357, 9.999689 
8.8505685e+2, 2.0539127e+2, -825712.44, -900455.8, -14085.016, -0.022791844, 0.1916622, -823146.3, 104037.266, 0.0, 10.000772, 9.999824 
8.8506496e+2, 2.1539137e+2, -737531.44, -813489.9, -45403.34, 0.15837352, 0.19871223, -716317.06, 112862.11, 0.0, 10.000731, 9.999769 
8.850719e+2, 2.2539052e+2, -753200.44, -947066.6, 22971.383, 0.14184125, 0.22314383, -750515.7, -19327.26, 0.0, 10.0007305, 9.998164 
8.850779e+2, 2.353885e+2, -646075.2, -843264.7, 25308.611, -0.04983688, 0.18202952, -642878.75, -9666.31, 0.0, 10.000783, 9.99818 
8.850847e+2, 2.4538709e+2, -474696.06, -678888.9, -28827.95, -0.04354324, 0.21063519, -470704.2, 64523.563, 0.0, 10.001146, 9.998462 
8.850922e+2, 2.553859e+2, -277413.84, -538186.4, -33423.18, 0.12615143, 0.2194389, -273198.16, 164040.19, 0.00000000006372724, 10.001841, 9.998425 
8.85099e+2, 2.6538393e+2, -155748.69, -531907.5, 27483.67, 0.14490159, 0.23463142, -153751.23, 185505.73, 0.00000025387644, 10.002458, 9.9974985 
8.851052e+2, 2.7538106e+2, 34528.402, -385558.2, 8823.666, 0.041039724, 0.17205037, 34713.66, 275999.1, 0.0000021793016, 10.003074, 9.997533 
8.8511145e+2, 2.8537887e+2, 166640.44, -235642.77, -45934.793, 0.026435694, 0.18498659, 171818.86, 315124.03, 0.000011106664, 10.003175, 9.997831 
8.851177e+2, 2.9537693e+2, 224509.03, -163076.58, -68710.85, 0.09136878, 0.18325983, 236329.53, 281649.9, 0.000049522223, 10.002906, 9.997792 
8.851226e+2, 3.0537423e+2, 278738.28, -294371.3, -63369.57, 0.018106006, 0.22354114, 285661.5, 285661.5, 0.00016466355, 10.003739, 9.996162 
8.8512737e+2, 3.153689e+2, 550949.8, -70615.38, -26671.9, -0.049023055, 0.054625075, 552092.2, 552092.2, 0.00037254568, 10.005157, 9.997019 
8.950068e+2, 1.2538208e+2, -2222915.8, -1933127.8, 75052.7, 0.20604227, 0.25886583, -1914843.4, -203570.05, 0.00000033567557, 9.996354, 10.000241 
8.9501023e+2, 1.3538043e+2, -1836352.1, -1710969.4, -20622.621, -0.19724812, 0.06695873, -1707664.5, -94373.31, 0.00000000007521531, 9.998441, 10.000091 
8.950159e+2, 1.4538087e+2, -1582279.3, -1420851.4, -81649.12, -0.3112251, 0.052894507, -1386755.4, 128531.37, 0.0, 9.998979, 10.001145 
8.9502364e+2, 1.5538344e+2, -1564121.4, -1365710.3, -11844.863, -0.18082379, 0.16670127, -1365005.6, 52254.395, 0.0, 9.99845, 10.001107 
8.9503115e+2, 1.6538493e+2, -1509061.3, -1347613.1, 2766.5586, -0.08458836, 0.23892233, -1347565.8, -28320.55, 0.0, 9.998419, 10.000572 
8.950384e+2, 1.7538534e+2, -1356582.5, -1222777.4, 16570.889, -0.0046897326, 0.19777592, -1220755.8, 486.7524, 0.0, 9.998795, 10.000574 
8.95045e+2, 1.8538514e+2, -1235688.8, -1224637.5, 3938.5435, -0.0053374907, 0.17256778, -1223377.5, -100133.38, 0.0, 9.999419, 9.999586 
8.9505076e+2, 1.953841e+2, -1017783.3, -1070179.6, 9209.522, -0.08036946, 0.08804393, -1016211.75, 9040.546, 0.0, 10.000253, 9.99957 
8.950579e+2, 2.0538336e+2, -887272.06, -1000380.2, -26344.012, -0.004133289, 0.08138863, -881437.25, 45821.086, 0.0, 10.000653, 9.999194 
8.950662e+2, 2.1538267e+2, -799737.0, -905952.2, -34304.35, 0.19943054, 0.06597268, -789621.1, 39643.867, 0.0, 10.00058, 9.999203 
8.9507276e+2, 2.2538228e+2, -742952.75, -894972.2, 14924.052, 0.13449322, 0.14332478, -741501.5, -10230.953, 0.0, 10.00059, 9.998592 
8.9507765e+2, 2.3538196e+2, -634705.0, -789128.1, 38822.24, -0.17193666, 0.2265654, -625494.4, 7783.062, 0.0, 10.000651, 9.998614 
8.9508486e+2, 2.4538103e+2, -477009.44, -666064.9, -14217.1045, -0.17021799, 0.27531245, -475946.28, 59341.08, 0.0, 10.001065, 9.998591 
8.95094e+2, 2.5537923e+2, -287080.28, -529169.25, 3325.973, 0.09345874, 0.21120736, -287034.6, 150268.45, 0.0000000002378373, 10.0017185, 9.998547 
8.951014e+2, 2.6537707e+2, -173416.53, -555976.06, 41320.723, 0.11920714, 0.20623258, -169004.31, 170319.14, 0.00000030747992, 10.002403, 9.997358 
8.951075e+2, 2.7537432e+2, 6939.6953, -419839.5, 44760.055, -0.062129464, 0.17248408, 11583.542, 252934.6, 0.0000026197797, 10.002978, 9.997342 
8.9511436e+2, 2.8537166e+2, 141541.72, -284189.84, -66690.266, -0.022823216, 0.16703731, 151744.16, 295119.88, 0.000013171274, 10.003146, 9.997514 
8.951221e+2, 2.9536894e+2, 204085.03, -202761.72, -63364.566, 0.20963323, 0.11253022, 213725.34, 259124.94, 0.000055655084, 10.002883, 9.997531 
8.951271e+2, 3.0536655e+2, 287852.9, -260654.45, -15785.947, 0.080076635, 0.18006185, 288306.84, 288306.84, 0.00017577781, 10.003691, 9.996409 
8.95131e+2, 3.1536242e+2, 591837.25, 55587.14, 47746.137, -0.2518181, 0.10610197, 596055.25, 596055.25, 0.0003866523, 10.005, 9.997949 
9.0500385e+2, 1.2537539e+2, -2058085.6, -1888410.4, 83283.15, 0.22741339, 0.29105404, -1854363.6, -143023.84, 0.0000010657902, 9.9976015, 9.99996 
9.050089e+2, 1.3537316e+2, -1892124.5, -1773908.8, 75446.625, -0.1516786, 0.07147619, -1737173.4, -123809.62, 0.000000007369457, 9.998198, 9.999779 
9.050149e+2, 1.453736e+2, -1630775.5, -1394977.6, 6915.7783, -0.27227423, 0.05048538, -1394775.0, 120583.875, 0.0, 9.99843, 10.001584 
9.050221e+2, 1.5537684e+2, -1519314.3, -1294651.1, -15645.742, -0.17993413, 0.18337813, -1293566.8, 123757.86, 0.0, 9.998543, 10.001548 
9.050296e+2, 1.653784e+2, -1458600.0, -1354779.3, 7320.362, -0.09127048, 0.2565061, -1354265.6, -34956.85, 0.0, 9.998899, 10.000295 
9.0503764e+2, 1.753783e+2, -1276390.3, -1213355.4, -27762.484, 0.008294596, 0.19179234, -1202871.6, 18440.027, 0.0, 9.999466, 10.000316 
9.05045e+2, 1.8537802e+2, -1209756.6, -1192361.4, -28830.48, 0.055211943, 0.16407429, -1170945.1, -47631.332, 0.0, 9.999506, 9.999765 
9.0505177e+2, 1.953774e+2, -1163787.0, -1124583.3, -19186.11, 0.048922103, 0.10208932, -1116756.3, -91438.516, 0.0, 9.999159, 9.999731 
9.0505886e+2, 2.0537668e+2, -1041932.25, -1097559.5, 5267.6533, 0.07252028, 0.099338025, -1041437.8, -114113.445, 0.0, 9.999698, 9.998978 
9.0506613e+2, 2.1537557e+2, -750401.1, -905713.06, -2674.5867, 0.12143874, 0.06827603, -750355.06, 78980.97, 0.0, 10.00102, 9.998988 
9.0507305e+2, 2.253752e+2, -571933.6, -772485.8, 56286.66, 0.06184249, 0.13682806, -557216.3, 174124.58, 0.0, 10.001596, 9.99895 
9.050795e+2, 2.3537518e+2, -473893.47, -676567.0, 55099.547, -0.09656741, 0.21802765, -459882.5, 173459.73, 0.0, 10.001601, 9.998935 
9.0508705e+2, 2.4537416e+2, -389839.16, -651952.94, 22181.86, -0.08911831, 0.25757322, -387975.22, 147377.25, 0.0, 10.001796, 9.99833 
9.050955e+2, 2.5537205e+2, -232042.42, -527436.7, -12890.922, 0.05840924, 0.18490745, -231480.94, 205891.9, 0.0, 10.002213, 9.998313 
9.051032e+2, 2.6536995e+2, -147368.48, -509818.3, 42140.305, 0.061288025, 0.18345422, -142533.53, 196859.13, 0.0000002007212, 10.002453, 9.99765 
9.0511024e+2, 2.753676e+2, -35217.93, -409878.6, 52991.543, -0.055468872, 0.16203433, -27867.094, 213548.13, 0.0000025589381, 10.002563, 9.997611 
9.051177e+2, 2.8536487e+2, 134803.5, -328205.22, -11752.439, -0.007647979, 0.15601112, 135101.61, 278542.56, 0.000014749117, 10.003263, 9.997168 
9.0512556e+2, 2.953618e+2, 402440.56, -137589.17, -36382.49, 0.19142905, 0.10225612, 404880.7, 450350.5, 0.00006245814, 10.004387, 9.997257 
9.051312e+2, 3.0535924e+2, 424411.44, -166169.39, 23505.354, 0.088580795, 0.15307148, 425345.47, 425345.47, 0.00018870574, 10.004505, 9.996672 
9.0513635e+2, 3.1535634e+2, 392296.22, -1743.2472, 27449.018, -0.12620445, 0.17970175, 394199.13, 394199.13, 0.00040376265, 10.003443, 9.998317 
9.1499925e+2, 1.2536822e+2, -1961660.0, -1685019.5, 67738.79, -0.03980465, 0.3537931, -1669323.5, 42090.273, 0.000002613721, 9.997605, 10.001347 
9.1500837e+2, 1.3536792e+2, -1807064.8, -1586357.3, 103564.234, -0.056809586, 0.19147196, -1545372.0, 68041.35, 0.00000007607973, 9.998156, 10.001082 
9.150156e+2, 1.4536849e+2, -1670816.6, -1464763.1, -2975.9038, -0.07831801, 0.14348468, -1464720.3, 50686.195, 0.0, 9.998374, 10.001133 
9.150218e+2, 1.5537046e+2, -1553377.1, -1359660.0, 2467.9663, -0.08762835, 0.19536413, -1359628.6, 57758.625, 0.0, 9.998523, 10.00111 
9.1502863e+2, 1.6537145e+2, -1502592.4, -1443105.4, 15828.798, -0.1035954, 0.26080006, -1439155.8, -119776.78, 0.0, 9.998886, 9.999694 
9.150362e+2, 1.7537126e+2, -1323460.4, -1300998.6, 2423.6367, -0.10845863, 0.25033706, -1300740.0, -79356.91, 0.0, 9.999424, 9.999734 
9.150442e+2, 1.8537135e+2, -1183984.9, -1124796.1, -52038.94, -0.0041346196, 0.26231444, -1094525.0, 28857.156, 0.0, 9.999445, 10.000259 
9.150525e+2, 1.9537152e+2, -1146435.6, -1064010.1, -18088.041, 0.18704778, 0.23263225, -1060215.5, -34836.813, 0.0, 9.99906, 10.000195 
9.150592e+2, 2.0537125e+2, -1051028.5, -1093804.3, 45060.848, 0.11819032, 0.24798252, -1022537.3, -95156.51, 0.0, 9.999595, 9.999054 
9.1506445e+2, 2.1537027e+2, -767013.44, -904991.6, 54593.43, -0.17094259, 0.21994957, -748025.6, 81365.414, 0.0, 10.00087, 9.9990635 
9.150725e+2, 2.2536933e+2, -567536.1, -739203.44, 43401.613, -0.1735101, 0.21464516, -557187.06, 174211.77, 0.0, 10.001483, 9.999238 
9.1508293e+2, 2.3536824e+2, -476645.97, -650336.4, 66234.805, 0.075252235, 0.15771349, -454270.56, 179135.83, 0.0, 10.001463, 9.999181 
9.1509086e+2, 2.453667e+2, -448891.2, -754339.56, 28329.898, 0.09597904, 0.16701838, -446285.84, 89135.6, 0.0, 10.001702, 9.997676 
9.1509664e+2, 2.5536448e+2, -290287.94, -626187.9, 14023.655, -0.079816185, 0.15254848, -289703.47, 147742.73, 0.0, 10.002111, 9.997688 
9.151041e+2, 2.6536265e+2, -106807.69, -412244.72, 36664.008, -0.12169553, 0.17065531, -102468.27, 236995.67, 0.00000011562638, 10.002397, 9.998346 
9.1511315e+2, 2.7536088e+2, 1404.9832, -317106.3, 71971.664, -0.043562807, 0.13845381, 16912.84, 258391.22, 0.0000025826089, 10.002491, 9.998285 
9.15121e+2, 2.8535855e+2, 100298.164, -385997.84, 19773.115, -0.02494358, 0.15496367, 101100.83, 244601.39, 0.000017159802, 10.003206, 9.996798 
9.151277e+2, 2.9535553e+2, 363302.5, -204250.97, 17025.6, -0.063170604, 0.1486398, 363812.78, 409343.63, 0.00007135739, 10.00432, 9.996835 
9.1513455e+2, 3.053523e+2, 425114.75, -142480.86, -21655.58, -0.057916615, 0.14115906, 425939.78, 425939.78, 0.00020552066, 10.004417, 9.99687 
9.151426e+2, 3.1535026e+2, 386202.16, 9512.07, 7463.849, 0.09981982, 0.22656056, 386350.0, 386350.0, 0.00042645857, 10.003351, 9.998428 
9.249957e+2, 1.2535961e+2, -1866337.6, -1558074.3, 57777.195, -0.15917377, 0.30452454, -1547601.0, 163895.77, 0.0000053718704, 9.997899, 10.002083 
9.250065e+2, 1.3536097e+2, -1953471.4, -1569317.4, 20447.723, 0.030530153, 0.22460435, -1568232.0, 45245.957, 0.00000033393198, 9.996768, 10.001881 
9.2501473e+2, 1.453618e+2, -1890993.5, -1611954.3, -28535.385, 0.071465865, 0.18436727, -1609066.0, -93597.055, 0.0, 9.997038, 10.0007715 
9.2502105e+2, 1.5536308e+2, -1544334.6, -1396286.8, -47654.49, -0.017608317, 0.20519885, -1382273.8, 35185.16, 0.0, 9.9987545, 10.000751 
9.25028e+2, 1.6536374e+2, -1420064.0, -1370248.5, -2221.7236, -0.069350995, 0.23780565, -1370149.6, -50695.547, 0.0, 9.999298, 9.999997 
9.2503554e+2, 1.7536359e+2, -1384672.9, -1299247.4, 31476.945, -0.0819124, 0.19837125, -1288901.9, -67445.96, 0.0, 9.99886, 10.000022 
9.250436e+2, 1.8536389e+2, -1239044.0, -1176242.1, 9844.925, 0.015273447, 0.22964653, -1174735.0, -51281.84, 0.0, 9.999177, 10.000039 
9.250521e+2, 1.953644e+2, -1007298.8, -1017323.7, -33907.094, 0.20130844, 0.25354263, -978035.7, 47413.01, 0.0, 10.000107, 10.000008 
9.2505926e+2, 2.0536417e+2, -920517.75, -1016536.44, 39564.51, 0.13201717, 0.27674922, -906315.8, 21134.867, 0.0, 10.000435, 9.999184 
9.250652e+2, 2.1536304e+2, -837748.1, -924902.75, 36738.844, -0.14881721, 0.22247086, -824327.9, 5133.0283, 0.0, 10.000321, 9.999197 
9.2507374e+2, 2.2536194e+2, -710481.44, -832052.25, 18674.875, -0.14545895, 0.20674488, -707677.4, 23792.484, 0.0, 10.000608, 9.999018 
9.2508453e+2, 2.3536068e+2, -523047.53, -695795.0, -21100.207, 0.100428544, 0.1569137, -520507.6, 112972.1, 0.0, 10.001242, 9.998976 
9.2509246e+2, 2.4535903e+2, -474638.94, -743752.7, -28569.385, 0.10252214, 0.15318161, -471639.4, 63856.438, 0.0, 10.001425, 9.997888 
9.2509794e+2, 2.5535676e+2, -395256.06, -651663.25, 540.6705, -0.10562508, 0.11198106, -395254.94, 42265.195, 0.0, 10.001285, 9.997914 
9.25106e+2, 2.6535523e+2, -210753.36, -457580.0, 61517.008, -0.12200641, 0.148574, -196271.11, 143263.6, 0.00000007319143, 10.001648, 9.9984 
9.251164e+2, 2.753541e+2, -5347.9175, -312419.63, 31546.95, 0.04196213, 0.16997382, -2140.4512, 239403.33, 0.0000027897247, 10.002402, 9.998357 
9.251245e+2, 2.8535175e+2, 13562.0, -453543.66, -7789.061, 0.03450577, 0.19689246, 13691.848, 157258.3, 0.000020180585, 10.002727, 9.996559 
9.2513055e+2, 2.953483e+2, 111274.31, -350979.06, -26840.816, -0.117011756, 0.16939777, 112827.61, 158429.27, 0.00008284934, 10.002697, 9.996605 
9.251379e+2, 3.0534443e+2, 241183.89, -210848.3, -64917.207, -0.082584396, 0.10138749, 250322.05, 250322.05, 0.00022869528, 10.00303, 9.997079 
9.251473e+2, 3.1534243e+2, 382177.28, -3420.6204, -90652.51, 0.24345918, 0.16799515, 402426.0, 402426.0, 0.00046065266, 10.003347, 9.998351 
9.349923e+2, 1.2534916e+2, -1867918.5, -1533743.8, -22052.727, -0.3414765, 0.09531695, -1532294.8, 179298.1, 0.000009857008, 9.997799, 10.002291 
9.350033e+2, 1.3535249e+2, -1923271.4, -1512405.6, -11630.794, 0.003932976, 0.17098439, -1512076.6, 101479.65, 0.0000009955157, 9.996803, 10.002248 
9.3501204e+2, 1.4535382e+2, -1914458.6, -1668192.8, 22014.977, 0.06928942, 0.18580706, -1666240.1, -150696.2, 0.00000000002439963, 9.997067, 10.000376 
9.350196e+2, 1.5535477e+2, -1573776.9, -1445116.8, 25391.758, -0.067422636, 0.21258922, -1440286.9, -22747.234, 0.0, 9.998702, 10.0004425 
9.350274e+2, 1.653553e+2, -1338807.0, -1187777.1, -32712.56, -0.085623965, 0.18026415, -1180996.1, 138538.19, 0.0, 9.999237, 10.001281 
9.350354e+2, 1.7535533e+2, -1302242.8, -1126120.6, 27222.164, -0.005097478, 0.03396716, -1122009.1, 99520.31, 0.0, 9.998852, 10.001216 
9.3504304e+2, 1.8535575e+2, -1316398.1, -1324015.4, 36098.88, 0.016837012, 0.07203757, -1283907.5, -160382.03, 0.0, 9.999125, 9.99905 
9.3505037e+2, 1.9535615e+2, -1088530.1, -1162905.4, 10162.94, -0.011756754, 0.18276612, -1087166.5, -61639.992, 0.0, 10.000011, 9.999056 
9.350588e+2, 2.0535555e+2, -913336.56, -983211.94, 22301.383, 0.015662042, 0.20161285, -906825.56, 20707.043, 0.0, 10.000349, 9.999455 
9.3506813e+2, 2.1535394e+2, -842307.4, -905805.8, 43892.69, 0.09408941, 0.07562456, -819884.8, 9660.045, 0.0, 10.000191, 9.999396 
9.350765e+2, 2.253531e+2, -785600.94, -953577.44, 33825.73, 0.049899325, 0.113588795, -779045.25, -47491.89, 0.0, 10.00046, 9.998255 
9.350839e+2, 2.353526e+2, -593827.6, -810288.4, 13375.702, -0.1021188, 0.21519381, -593004.25, 40557.348, 0.0, 10.001099, 9.9982605 
9.350915e+2, 2.453512e+2, -415713.94, -596906.8, -45561.926, -0.15776968, 0.21570525, -404902.28, 130672.875, 0.0, 10.001319, 9.998946 
9.350993e+2, 2.5534874e+2, -337855.06, -515781.13, 6589.6577, -0.117762625, 0.05292053, -337611.34, 99984.4, 0.0, 10.001204, 9.998892 
9.351088e+2, 2.6534766e+2, -255757.61, -531542.56, 82647.73, -0.02996127, 0.107688196, -232886.33, 106719.35, 0.00000003612581, 10.001569, 9.997927 
9.351196e+2, 2.7534735e+2, -54392.195, -391149.72, 72032.15, 0.09938176, 0.26317963, -39631.563, 201978.56, 0.0000027030533, 10.002309, 9.997859 
9.351278e+2, 2.8534475e+2, 625.4525, -471731.06, -18419.738, 0.069492, 0.29345652, 1342.6489, 144979.05, 0.000022488803, 10.002682, 9.996459 
9.351339e+2, 2.9534012e+2, 101755.8, -372283.6, -10462.314, -0.09347941, 0.15739362, 101986.59, 147668.31, 0.000095232324, 10.002691, 9.996466 
9.35141e+2, 3.053357e+2, 251325.92, -184004.42, -56148.332, -0.09407355, 0.02975334, 258451.23, 258451.23, 0.0002574787, 10.003014, 9.997267 
9.3514985e+2, 3.1533358e+2, 358035.44, -40294.438, -54409.39, 0.115940176, 0.06353473, 365333.7, 365333.7, 0.0005076496, 10.003294, 9.99812 
9.4499034e+2, 1.2533958e+2, -2025733.9, -1650819.8, 32839.07, -0.25794667, -0.06448249, -1647965.1, 63714.355, 0.000016753027, 9.99687, 10.001947 
9.450004e+2, 1.3534352e+2, -1762615.3, -1473854.9, -46196.438, -0.0140503645, 0.10828134, -1466644.4, 146996.78, 0.000002343361, 9.998057, 10.001917 
9.4500935e+2, 1.4534506e+2, -1710975.6, -1512464.9, 41711.293, 0.041187905, 0.13369092, -1504056.6, 11570.518, 0.0000000053592455, 9.998218, 10.000886 
9.4501776e+2, 1.5534584e+2, -1689303.6, -1453619.0, 85358.914, -0.058565736, 0.09248846, -1425952.0, -8330.921, 0.0, 9.997696, 10.0008745 
9.4502646e+2, 1.6534668e+2, -1507795.1, -1299773.8, 20013.27, -0.04424958, 0.08615741, -1297865.9, 21747.598, 0.0, 9.9982195, 10.000994 
9.450353e+2, 1.7534748e+2, -1201633.6, -1107614.0, -61754.004, 0.062080745, 0.044586223, -1077012.8, 144592.47, 0.0, 9.999681, 10.000934 
9.4504327e+2, 1.8534793e+2, -1117980.1, -1226783.9, -47121.664, 0.06642531, 0.09673296, -1100409.6, 23192.82, 0.0, 10.000486, 9.999051 
9.450506e+2, 1.9534771e+2, -982781.75, -1111168.4, -18265.166, -0.015406417, 0.1463303, -980233.8, 45374.188, 0.0, 10.00074, 9.999051 
9.450593e+2, 2.0534699e+2, -845795.5, -965539.7, 11224.159, 0.019268723, 0.15775242, -844752.44, 82862.65, 0.0, 10.000874, 9.999322 
9.4506925e+2, 2.1534567e+2, -755994.8, -873085.4, -18222.994, 0.16031015, 0.07207285, -753224.25, 76400.59, 0.0, 10.000829, 9.999303 
9.4507754e+2, 2.2534478e+2, -751454.5, -935210.75, 24945.41, 0.098677486, 0.107710056, -748128.25, -16494.305, 0.0, 10.000689, 9.99827 
9.4508433e+2, 2.3534395e+2, -678269.6, -847381.06, 42457.637, -0.13569303, 0.17395784, -668208.6, -34563.516, 0.0, 10.000503, 9.998292 
9.4509244e+2, 2.4534264e+2, -492128.2, -632567.5, -5885.7534, -0.16305324, 0.18438552, -491881.97, 43775.58, 0.0, 10.000786, 9.998958 
9.451018e+2, 2.5534073e+2, -300188.38, -491701.75, -51163.16, 0.0024689862, 0.07367221, -287377.06, 150295.78, 0.0, 10.001442, 9.998936 
9.451114e+2, 2.653394e+2, -236801.0, -551525.94, 21442.582, 0.06738075, 0.11641148, -235346.81, 104338.73, 0.000000027783642, 10.001817, 9.997677 
9.4512117e+2, 2.7533826e+2, -125859.305, -450719.6, 6462.3896, 0.051851638, 0.21238059, -125730.805, 115968.664, 0.000002329391, 10.001921, 9.997646 
9.451298e+2, 2.853357e+2, -6957.8174, -427079.63, -33012.402, 0.020410988, 0.23649119, -4379.5854, 139345.17, 0.000023981273, 10.002423, 9.996893 
9.451375e+2, 2.9533187e+2, 199318.78, -277186.22, -8895.284, -0.013655161, 0.13801315, 199484.78, 245245.1, 0.000106754764, 10.003167, 9.996888 
9.451455e+2, 3.0532783e+2, 361400.75, -172546.95, -26125.059, 0.013458279, 0.049356535, 362675.97, 362675.97, 0.00028782972, 10.003963, 9.996891 
9.45154e+2, 3.1532502e+2, 505874.56, -38211.656, -110567.26, 0.14464234, 0.051931165, 527485.3, 527485.3, 0.0005617916, 10.004623, 9.9974985 
9.54989e+2, 1.2533113e+2, -2107728.8, -1811116.4, 43762.883, -0.13122673, -0.15559295, -1804794.3, -93040.59, 0.00002677623, 9.996847, 10.000844 
9.5499766e+2, 1.3533424e+2, -1846314.3, -1624578.6, 3205.3018, -0.11800246, 0.039670203, -1624532.3, -10801.25, 0.0000047533053, 9.997978, 10.000905 
9.550063e+2, 1.4533551e+2, -1623129.3, -1318647.1, 6085.495, -0.11240672, 0.016007159, -1318525.5, 197192.89, 0.000000046136613, 9.998158, 10.002251 
9.5501524e+2, 1.553364e+2, -1593920.5, -1264316.3, 78058.07, -0.105017796, -0.15165631, -1246764.9, 170937.89, 0.0, 9.997732, 10.002157 
9.5502484e+2, 1.6533807e+2, -1637559.8, -1572924.9, 64136.043, -0.054019358, -0.03836482, -1533424.1, -213734.38, 0.0, 9.998234, 9.999115 
9.550349e+2, 1.7534012e+2, -1330903.6, -1368378.1, 2690.0283, 0.03341342, 0.23173892, -1330711.6, -109029.16, 0.0, 9.999648, 9.999161 
9.550441e+2, 1.8534043e+2, -1053011.8, -1083842.5, -48045.555, 0.07596456, 0.30400944, -1017969.1, 105714.36, 0.0, 10.0004425, 10.000058 
9.5505255e+2, 1.9533904e+2, -925389.6, -976551.7, 809.20996, 0.08175926, 0.13488151, -925376.8, 100317.14, 0.0, 10.000668, 10.000013 
9.550607e+2, 2.0533842e+2, -896254.44, -1044984.2, -2595.2068, 0.04829372, 0.13677405, -896209.2, 31489.365, 0.0, 10.000764, 9.998832 
9.5506835e+2, 2.1533823e+2, -811373.4, -952310.25, -10099.704, -0.029306551, 0.21198711, -810653.3, 19047.469, 0.0, 10.000673, 9.998837 
9.550766e+2, 2.2533698e+2, -713435.0, -823120.5, 7227.039, -0.0793885, 0.19581133, -712960.9, 18750.344, 0.0, 10.000549, 9.999105 
9.5508534e+2, 2.3533462e+2, -645347.3, -748838.1, 48143.996, -0.10120162, 0.026977954, -626414.3, 7316.985, 0.0, 10.000372, 9.999034 
9.550949e+2, 2.4533333e+2, -577438.44, -781123.3, 8742.902, -0.019099316, 0.05237933, -577063.8, -41320.363, 0.0, 10.00067, 9.997988 
9.55105e+2, 2.553327e+2, -381540.1, -640500.4, -16240.294, 0.15306373, 0.16846049, -380525.6, 57225.8, 0.0, 10.001354, 9.997953 
9.551136e+2, 2.6533055e+2, -254116.39, -564599.94, 16129.946, 0.08685842, 0.18007408, -253280.67, 86493.06, 0.000000030362223, 10.001726, 9.997627 
9.5512086e+2, 2.753268e+2, -138377.36, -460036.13, 26771.94, -0.197226, 0.017161997, -136164.33, 105647.41, 0.000002140531, 10.00185, 9.997616 
9.551301e+2, 2.853245e+2, 49208.887, -291983.44, -13831.09, -0.20965017, 0.02199452, 49768.645, 193600.86, 0.000025889522, 10.002349, 9.997853 
9.5514125e+2, 2.9532352e+2, 254228.45, -151235.95, 32384.41, 0.018228272, 0.105219044, 256798.7, 302636.8, 0.000117742304, 10.003116, 9.997776 
9.551511e+2, 3.053209e+2, 289877.25, -305347.34, -2780.7813, 0.15107045, 0.16471198, 289890.25, 289890.25, 0.00031737162, 10.003896, 9.996014 
9.551591e+2, 3.153172e+2, 426500.25, -190686.86, -53506.375, 0.13963743, 0.16555968, 431104.56, 431104.56, 0.0006187205, 10.004563, 9.996483 
9.649878e+2, 1.2532389e+2, -1944934.9, -1786592.3, 95136.195, 0.0058914814, -0.15313347, -1741993.6, -30173.592, 0.000040530904, 9.998178, 10.000375 
9.6499544e+2, 1.3532652e+2, -1892121.1, -1693111.4, 75563.445, -0.12348693, 0.0359296, -1667672.1, -53867.96, 0.000008656152, 9.9978485, 10.000504 
9.6500415e+2, 1.4532754e+2, -1652693.5, -1356319.4, 68581.445, -0.1309537, 0.01881011, -1341218.9, 174576.42, 0.00000019058375, 9.998084, 10.002009 
9.650136e+2, 1.5532832e+2, -1414558.6, -1203977.3, -12303.383, -0.10592926, -0.1330845, -1203260.8, 214520.58, 0.0, 9.9991045, 10.001897 
9.6502376e+2, 1.6532977e+2, -1463449.3, -1502689.1, 17853.604, -0.046846036, -0.022832526, -1456542.0, -136771.36, 0.0, 9.999497, 9.998985 
9.650344e+2, 1.753315e+2, -1382164.8, -1410628.9, 64939.543, 0.042126354, 0.22814168, -1329916.0, -108149.945, 0.0, 9.999369, 9.99901 
9.65044e+2, 1.8533175e+2, -1198104.0, -1141876.0, 43759.84, 0.08077275, 0.29471338, -1117977.4, 5790.131, 0.0, 9.99939, 10.000175 
9.6505255e+2, 1.953305e+2, -1079741.1, -1040959.6, 5391.0537, 0.07371046, 0.13251348, -1040224.2, -14448.196, 0.0, 9.9995575, 10.000114 
9.65061e+2, 2.0532992e+2, -1007159.6, -1110050.0, 13925.462, 0.043797385, 0.13962686, -1005308.25, -77527.71, 0.0, 10.000078, 9.998704 
9.6506935e+2, 2.1532966e+2, -778980.5, -951023.0, 8609.198, -0.00702239, 0.22037727, -778550.8, 51233.387, 0.0, 10.000971, 9.998694 
9.650779e+2, 2.2532819e+2, -612710.0, -801613.9, -940.36285, -0.037719335, 0.19913895, -612705.3, 119092.31, 0.0, 10.001352, 9.998873 
9.6508676e+2, 2.3532544e+2, -529846.1, -712077.7, -56437.3, -0.03850844, 0.015393752, -513783.3, 120038.51, 0.0, 10.00125, 9.99886 
9.6509635e+2, 2.4532408e+2, -457984.13, -711937.5, -42580.56, 0.03551932, 0.036697052, -451034.78, 84799.55, 0.0, 10.001434, 9.998102 
9.651068e+2, 2.553238e+2, -298034.25, -587499.56, -9052.891, 0.18146485, 0.17644082, -297751.4, 140086.84, 0.0, 10.001881, 9.998067 
9.6511555e+2, 2.6532185e+2, -204899.38, -533213.5, 68384.02, 0.10353467, 0.19664867, -191225.3, 148633.27, 0.000000012060779, 10.002021, 9.997699 
9.651228e+2, 2.7531806e+2, -138633.81, -451433.88, 63719.027, -0.1737787, 0.026474016, -126151.984, 115744.52, 0.0000023356135, 10.001807, 9.997691 
9.651326e+2, 2.8531563e+2, 29027.371, -283689.94, 50721.484, -0.18183956, 0.0051658293, 37048.453, 180966.88, 0.000028869204, 10.002136, 9.998005 
9.651446e+2, 2.953144e+2, 237325.22, -145601.67, 9471.964, 0.056358635, 0.050393857, 237559.38, 283486.4, 0.00012890252, 10.002945, 9.997894 
9.651549e+2, 3.0531266e+2, 246448.94, -304022.06, -3767.396, 0.18159871, 0.18210407, 246474.72, 246474.72, 0.00034520676, 10.00349, 9.996216 
9.651629e+2, 3.1530985e+2, 278486.94, -225210.61, -20005.584, 0.13306127, 0.24802846, 279280.25, 279280.25, 0.0006746772, 10.003399, 9.996793 
9.7498584e+2, 1.2531762e+2, -1922778.5, -1734030.1, 44188.156, -0.059728153, -0.07522605, -1724197.4, -12316.673, 0.000058506626, 9.99815, 10.000747 
9.749934e+2, 1.3532054e+2, -1860931.3, -1632056.4, 69472.5, -0.13357724, 0.09784824, -1612619.5, 1239.3789, 0.00001444443, 9.997869, 10.000909 
9.750025e+2, 1.4532147e+2, -1791401.0, -1648100.5, 95646.8, -0.13163602, 0.15224245, -1600243.1, -84388.26, 0.0000005546723, 9.9981, 10.000004 
9.750126e+2, 1.5532172e+2, -1553166.5, -1484707.6, 37784.453, -0.14847665, 0.14921482, -1467953.6, -50097.406, 0.0, 9.999075, 9.999985 
9.7502285e+2, 1.6532183e+2, -1355808.3, -1272591.6, -1284.863, -0.112151414, 0.13564044, -1272571.8, 47284.113, 0.0, 9.999464, 10.000584 
9.750335e+2, 1.7532164e+2, -1276312.8, -1190391.0, 67066.91, -0.006387748, 0.03659778, -1153705.1, 68150.82, 0.0, 9.999363, 10.0005245 
9.750426e+2, 1.8532188e+2, -1256699.5, -1255065.0, 40281.652, -0.015071094, 0.06933424, -1215592.4, -91738.4, 0.0, 9.9993515, 9.999416 
9.750503e+2, 1.9532223e+2, -1142856.4, -1153194.8, 24249.027, -0.12964831, 0.14058731, -1123231.6, -97378.77, 0.0, 9.999476, 9.999381 
9.7506005e+2, 2.0532165e+2, -1010637.56, -1094867.0, 35154.13, -0.078809395, 0.17505622, -997893.7, -70034.16, 0.0, 9.999976, 9.99886 
9.750718e+2, 2.1531998e+2, -790251.44, -945885.0, 50047.04, 0.12006852, 0.099241264, -775547.06, 54328.47, 0.0, 10.000843, 9.9987955 
9.7508097e+2, 2.2531831e+2, -719140.7, -986758.56, -16820.01, 0.119501375, 0.115674764, -718087.7, 13806.062, 0.0, 10.001201, 9.99767 
9.7508806e+2, 2.3531641e+2, -635988.0, -890546.3, -49247.344, -0.051154282, 0.1354156, -626792.6, 7123.7393, 0.0, 10.001076, 9.997715 
9.750968e+2, 2.4531505e+2, -391170.44, -551075.9, -36377.54, -0.08667943, 0.15248942, -383283.75, 152644.86, 0.0, 10.001334, 9.999258 
9.751071e+2, 2.5531393e+2, -229103.02, -426890.13, 19347.906, -0.0075155324, 0.0933949, -227228.14, 210705.75, 0.0, 10.0018015, 9.99921 
9.75117e+2, 2.6531297e+2, -200443.34, -506831.22, 48815.43, 0.02249848, 0.14687198, -192853.8, 147088.28, 0.0000000034767167, 10.001949, 9.997912 
9.751267e+2, 2.753119e+2, -134714.36, -428915.13, 69118.95, 0.010420082, 0.22357829, -119284.9, 122670.55, 0.0000028342504, 10.001746, 9.997874 
9.751368e+2, 2.8530905e+2, -21081.14, -380444.47, 71341.48, -0.00035520815, 0.18502559, -7436.38, 136547.27, 0.000032313746, 10.002105, 9.997357 
9.7514707e+2, 2.9530454e+2, 187154.06, -236853.66, 57752.563, -0.01895459, -0.029262913, 194879.58, 240906.39, 0.00013997531, 10.002889, 9.997296 
9.7515684e+2, 3.0530298e+2, 309066.97, -150176.73, -13162.959, 0.004935277, 0.09305578, 309443.94, 309443.94, 0.00037147623, 10.003393, 9.99732 
9.751646e+2, 3.153025e+2, 361702.34, -29204.385, 13658.118, -0.08664855, 0.2769542, 362178.97, 362178.97, 0.00072750956, 10.003307, 9.9981785 
9.8498327e+2, 1.253091e+2, -1914203.4, -1728049.1, -57960.348, -0.12839115, -0.062314276, -1711477.9, 486.68216, 0.00008108169, 9.998208, 10.000762 
9.849919e+2, 1.3531154e+2, -1770515.4, -1593500.3, -101870.805, -0.092945375, 0.066865735, -1547058.8, 66887.54, 0.000022462764, 9.998504, 10.000873 
9.8500174e+2, 1.4531241e+2, -1759528.5, -1690511.5, 9259.809, -0.03519758, 0.14406079, -1689290.6, -173346.72, 0.0000013019285, 9.998547, 9.999504 
9.850116e+2, 1.5531297e+2, -1660296.1, -1586382.8, 41053.31, -0.11877626, 0.21831092, -1568102.0, -150156.98, 0.0, 9.998546, 9.999541 
9.85022e+2, 1.6531286e+2, -1410685.1, -1255769.8, 31619.871, -0.10170784, 0.18340519, -1249564.4, 70381.67, 0.0, 9.998899, 10.000972 
9.850332e+2, 1.7531195e+2, -1214068.4, -1116722.6, -11482.686, 0.019010896, -0.023993988, -1115386.5, 106562.23, 0.0, 9.999609, 10.00091 
9.850427e+2, 1.8531203e+2, -1147424.1, -1235691.0, -43826.086, 0.013849097, -0.010719356, -1129360.4, -5412.912, 0.0, 10.000253, 9.999112 
9.850505e+2, 1.9531271e+2, -975739.75, -1105388.5, -51856.188, -0.11614256, 0.12401929, -957550.5, 68394.9, 0.0, 10.000772, 9.999083 
9.8506045e+2, 2.0531219e+2, -868384.7, -1019556.75, -5059.847, -0.08031275, 0.17563443, -868215.5, 59736.707, 0.0, 10.000902, 9.998941 
9.850723e+2, 2.1531035e+2, -814761.0, -947263.56, -15413.8955, 0.10387415, 0.074724674, -812991.56, 16977.904, 0.0, 10.000623, 9.998897 
9.8508203e+2, 2.2530891e+2, -766818.94, -1003776.2, -14510.687, 0.1283852, 0.10586645, -765933.6, -33948.297, 0.0, 10.000835, 9.997733 
9.8508996e+2, 2.3530763e+2, -574796.7, -855061.8, 26905.54, 0.020258788, 0.18186392, -572237.1, 61765.01, 0.0, 10.001463, 9.997777 
9.850988e+2, 2.4530612e+2, -334517.03, -531309.25, 59458.465, -0.043811794, 0.18462472, -317947.5, 218067.98, 0.0, 10.00177, 9.999178 
9.851081e+2, 2.5530407e+2, -230021.89, -439972.38, -1267.6976, -0.07503582, 0.040273454, -230014.25, 208014.84, 0.0, 10.0018425, 9.999104 
9.851184e+2, 2.6530305e+2, -190550.94, -497042.78, -12874.878, -0.024266968, 0.09001212, -190011.05, 150026.94, 0.00000001775074, 10.002002, 9.997961 
9.8512965e+2, 2.753027e+2, -58242.277, -388213.47, -29360.93, 0.112403534, 0.24250548, -55650.098, 186394.47, 0.000003544514, 10.0022545, 9.997916 
9.8514e+2, 2.8530028e+2, 8573.205, -363308.16, 23557.594, 0.10386414, 0.24187157, 10059.569, 154129.69, 0.00003520851, 10.002286, 9.997401 
9.8514926e+2, 2.9529583e+2, 72388.83, -284346.2, 37994.098, -0.035255753, 0.026906077, 76390.5, 122505.14, 0.00014919741, 10.002061, 9.997374 
9.8515946e+2, 3.052942e+2, 247955.13, -120173.91, 12505.948, -0.028969226, 0.10965464, 248379.47, 248379.47, 0.00039500848, 10.002715, 9.997849 
9.851687e+2, 3.152932e+2, 507581.7, 128866.13, -40784.67, -0.032627735, 0.19240355, 511924.06, 511924.06, 0.0007743357, 10.003905, 9.998992 
9.9497914e+2, 1.2529846e+2, -1951313.1, -1798655.4, -82461.055, -0.41146192, -0.1013401, -1762619.1, -50548.66, 0.000108580556, 9.998195, 10.000277 
9.9499077e+2, 1.3529956e+2, -1810115.8, -1666474.5, -84707.195, -0.07799386, -0.05588061, -1627238.9, -13172.6045, 0.000033028722, 9.998474, 10.000382 
9.950016e+2, 1.4530046e+2, -1688161.6, -1539384.6, -6402.135, 0.06393979, -0.0044817072, -1539109.6, -23047.832, 0.0000026281716, 9.998528, 10.000553 
9.950104e+2, 1.5530218e+2, -1583908.3, -1435216.4, 51771.84, -0.11926883, 0.0817432, -1418966.4, -919.2431, 0.00000000019976186, 9.998569, 10.000572 
9.95021e+2, 1.6530293e+2, -1468703.9, -1372580.3, 46769.82, -0.12391689, 0.12188744, -1353579.8, -33539.246, 0.0, 9.998888, 10.000173 
9.9503326e+2, 1.7530248e+2, -1269807.3, -1230422.4, 25280.063, 0.036516465, 0.03892198, -1218070.0, 3974.1382, 0.0, 9.999597, 10.000136 
9.9504375e+2, 1.8530218e+2, -1149840.0, -1228590.0, -36236.082, 0.07717763, 0.048236705, -1135703.9, -11655.638, 0.0, 10.000202, 9.9991865 
9.950528e+2, 1.9530183e+2, -979335.06, -1096508.8, -23086.482, 0.013283706, 0.07345815, -974950.44, 51103.98, 0.0, 10.000701, 9.999179 
9.950617e+2, 2.0530146e+2, -882451.4, -1020419.1, -28743.826, -0.058540057, 0.13268118, -876702.5, 51356.848, 0.0, 10.000784, 9.998992 
9.950707e+2, 2.153008e+2, -828596.7, -942502.3, -15498.026, -0.13903013, 0.14521639, -826525.7, 3540.0706, 0.0, 10.000479, 9.999 
9.950809e+2, 2.253001e+2, -698489.44, -822051.7, -1543.1635, -0.090616114, 0.17719491, -698470.2, 33601.363, 0.0, 10.000669, 9.999058 
9.9509215e+2, 2.3529917e+2, -508805.3, -682829.25, 59603.61, 0.07508511, 0.1543885, -490348.47, 143730.56, 0.0, 10.001315, 9.999028 
9.9510175e+2, 2.4529728e+2, -443498.78, -731631.8, 49539.02, 0.059161223, 0.12670837, -435219.4, 100876.24, 0.0, 10.001656, 9.997858 
9.9510974e+2, 2.5529426e+2, -335450.28, -633293.5, 12432.982, -0.11830452, 0.016986491, -334932.2, 103191.23, 0.0, 10.001728, 9.997832 
9.9511963e+2, 2.652922e+2, -218058.33, -534024.44, -12568.4795, -0.12322673, 0.037531156, -217559.17, 122585.164, 0.000000028595345, 10.001917, 9.997748 
9.951313e+2, 2.7529076e+2, -84493.09, -421758.63, -5586.4414, 0.023032794, 0.099743135, -84400.586, 157761.11, 0.000003781716, 10.002167, 9.997729 
9.9514174e+2, 2.8528944e+2, 48481.496, -261409.67, 5404.0596, 0.028501557, 0.17893596, 48575.707, 192752.88, 0.000036350866, 10.002206, 9.9981365 
9.9515104e+2, 2.9528815e+2, 120393.52, -174712.61, 45753.09, -0.096016906, 0.20631813, 127324.28, 173515.77, 0.00015454051, 10.002025, 9.998139 
9.951626e+2, 3.0528626e+2, 240471.47, -134889.11, 51827.734, -0.013203514, 0.22960779, 247496.1, 247496.1, 0.00041140616, 10.002709, 9.997755 
9.95174e+2, 3.1528184e+2, 505273.9, 163526.92, 36590.234, 0.05834599, -0.01725037, 509147.66, 509147.66, 0.00080725906, 10.003747, 9.999304 
1.00497745e+3, 1.2528808e+2, -2104971.5, -1831811.1, -66733.48, -0.3271856, -0.07695523, -1816379.9, -104203.53, 0.00014134821, 9.996963, 10.000646 
1.0049888e+3, 1.352896e+2, -1832531.4, -1633959.3, -30299.959, -0.0988683, -0.027492031, -1629438.6, -15272.954, 0.000046426092, 9.998144, 10.000757 
1.0050002e+3, 1.4529061e+2, -1626274.6, -1451196.1, 68806.4, 0.06499995, -0.0068815765, -1427391.5, 88766.01, 0.00000474816, 9.998727, 10.001052 
1.0050096e+3, 1.5529227e+2, -1489146.6, -1338630.0, 51681.46, -0.06422431, 0.024528654, -1322593.3, 95548.195, 0.000000004412824, 9.999014, 10.00102 
1.00502044e+3, 1.6529317e+2, -1479878.0, -1423037.0, 64247.445, -0.064217195, 0.08043667, -1381204.6, -61070.785, 0.0, 9.998997, 9.9997835 
1.0050324e+3, 1.7529313e+2, -1430163.9, -1346989.9, 54345.9, 0.054232165, 0.077811025, -1320144.8, -98008.38, 0.0, 9.998667, 9.999787 
1.0050435e+3, 1.8529293e+2, -1274410.8, -1273060.8, 62446.406, 0.085355505, 0.1043576, -1211285.6, -87145.234, 0.0, 9.999287, 9.999315 
1.00505374e+3, 1.9529228e+2, -956973.75, -1073038.0, 56949.926, 0.040871788, 0.087358326, -933697.7, 92450.336, 0.0, 10.000808, 9.999283 
1.0050628e+3, 2.052917e+2, -806112.4, -1003802.4, 17848.375, -0.0458921, 0.12954147, -804513.9, 123640.86, 0.0, 10.001394, 9.998807 
1.005071e+3, 2.1529092e+2, -754877.6, -928213.9, -9716.55, -0.17347492, 0.14867613, -754334.6, 75828.39, 0.0, 10.001076, 9.998808 
1.0050814e+3, 2.2529018e+2, -623934.0, -752537.1, 4575.5537, -0.1124741, 0.16835517, -623771.4, 108397.664, 0.0, 10.00104, 9.999359 
1.0050938e+3, 2.3528917e+2, -496904.47, -648496.0, -35293.434, 0.1183261, 0.11169423, -489090.28, 145085.4, 0.0, 10.00127, 9.9992895 
1.0051038e+3, 2.4528736e+2, -457365.06, -759141.94, -21907.732, 0.11106968, 0.088357516, -455782.94, 80408.4, 0.0, 10.001642, 9.997678 
1.0051118e+3, 2.552846e+2, -290950.28, -624281.75, 2487.1929, -0.09961159, 0.023248758, -290931.72, 147285.2, 0.0, 10.00211, 9.997699 
1.00512184e+3, 2.6528227e+2, -160351.22, -516481.84, 37054.332, -0.11047675, 0.027173648, -156536.69, 183703.7, 0.000000017098808, 10.002361, 9.997647 
1.0051338e+3, 2.7527997e+2, -67215.38, -423940.0, 28318.596, 0.05380955, 0.010572302, -64981.305, 177284.19, 0.000003428396, 10.002333, 9.997626 
1.0051442e+3, 2.8527862e+2, 74946.586, -265599.72, 33255.977, 0.056153495, 0.09843126, 78163.8, 222444.88, 0.00003625069, 10.0024605, 9.997982 
1.0051536e+3, 2.9527795e+2, 198788.1, -160966.33, -15427.618, -0.07241817, 0.20597357, 199448.48, 245738.14, 0.00015742959, 10.002645, 9.997943 
1.0051657e+3, 3.052759e+2, 282236.38, -158366.03, 310.13327, 0.014939997, 0.23952585, 282236.6, 282236.6, 0.0004215928, 10.003183, 9.997367 
1.0051785e+3, 3.152709e+2, 508089.2, 139796.69, -75460.1, 0.13346073, -0.02223394, 522950.66, 522950.66, 0.0008275706, 10.0038595, 9.999093 
1.01497754e+3, 1.252781e+2, -2016084.4, -1641681.1, -68378.16, -0.068257295, 0.0141251, -1629583.9, 82697.21, 0.0001798155, 9.99694, 10.001955 
1.0149855e+3, 1.3528171e+2, -1741982.8, -1453326.1, 21096.047, -0.26617607, 0.1419814, -1451792.5, 162451.66, 0.000062927356, 9.998164, 10.0019865 
1.014997e+3, 1.4528294e+2, -1642446.8, -1479018.8, 63617.227, -0.15111382, 0.13120008, -1457174.4, 59056.67, 0.000007860604, 9.998705, 10.000869 
1.01500906e+3, 1.5528323e+2, -1507368.1, -1369742.4, 72506.9, -0.041775007, 0.047229555, -1338592.9, 79634.85, 0.000000028517778, 9.99899, 10.000815 
1.0150202e+3, 1.6528367e+2, -1476232.3, -1413965.6, 39950.37, -0.0078715505, 0.062920265, -1394450.0, -74224.92, 0.0, 9.998987, 9.999849 
1.0150307e+3, 1.7528401e+2, -1424011.6, -1338893.8, 53328.496, -0.015503819, 0.089208916, -1313223.8, -90998.72, 0.0, 9.998679, 9.99984 
1.0150416e+3, 1.8528426e+2, -1267843.6, -1250578.1, 108534.89, -0.053413577, 0.15303163, -1150333.3, -26109.031, 0.0, 9.9992485, 9.999489 
1.0150532e+3, 1.9528413e+2, -959099.6, -1056377.9, 122306.33, -0.12252523, 0.16904646, -876115.8, 150109.75, 0.0, 10.000713, 9.999444 
1.0150636e+3, 2.0528299e+2, -855190.75, -1074891.0, -5889.396, -0.1381148, 0.16857307, -855033.0, 73204.69, 0.0, 10.001265, 9.99838 
1.015073e+3, 2.1528073e+2, -802377.56, -999239.7, -12698.451, -0.10183113, 0.08209958, -801561.8, 28699.684, 0.0, 10.000958, 9.998375 
1.01508334e+3, 2.2527911e+2, -698796.5, -872931.75, 1376.1134, -0.035233542, 0.07601126, -698785.6, 33492.18, 0.0, 10.000891, 9.998602 
1.0150947e+3, 2.3527782e+2, -565452.0, -760115.0, -15661.703, 0.056298044, 0.061722726, -564200.0, 70090.27, 0.0, 10.001136, 9.998585 
1.0151048e+3, 2.4527656e+2, -415900.53, -636996.5, -16287.85, 0.02433504, 0.08212548, -414707.1, 121592.9, 0.0, 10.0014925, 9.998587 
1.0151139e+3, 2.552751e+2, -243410.34, -503719.4, 30697.469, -0.12068663, 0.054889403, -239839.27, 198470.28, 0.0, 10.002013, 9.998574 
1.0151246e+3, 2.6527306e+2, -167352.28, -514214.13, 27330.775, -0.08619452, 0.04355892, -165211.98, 175116.03, 0.000000011022683, 10.002287, 9.997699 
1.01513684e+3, 2.7527028e+2, -73044.52, -420010.38, 41461.3, 0.10262784, -0.026672706, -68158.83, 174197.73, 0.0000031084232, 10.002264, 9.9976845 
1.01514734e+3, 2.852679e+2, -5687.2495, -421891.72, 29791.572, 0.097959526, 0.0070659337, -3565.6082, 140816.06, 0.000035475467, 10.002417, 9.996926 
1.01515636e+3, 2.952656e+2, 106986.7, -322340.8, 8549.779, -0.0865619, 0.057362728, 107156.9, 153562.72, 0.00015859005, 10.002534, 9.99688 
1.0151684e+3, 3.0526328e+2, 227519.27, -265431.75, 21131.389, -0.05370442, 0.15608859, 228423.45, 228423.45, 0.00042792913, 10.003142, 9.996657 
1.0151813e+3, 3.1526026e+2, 443828.3, 40735.33, -7372.561, -0.013722709, 0.15611327, 443963.1, 443963.1, 0.00084075227, 10.00372, 9.998475 
1.0249759e+3, 1.2526827e+2, -2015643.9, -1652381.9, 24721.02, 0.08967916, 0.06773933, -1650707.3, 61670.406, 0.00022439056, 9.99698, 10.001871 
1.0249834e+3, 1.3527101e+2, -1737001.1, -1466188.9, -22179.893, -0.295162, 0.12857158, -1464384.4, 149964.72, 0.0000828242, 9.998261, 10.001861 
1.0249952e+3, 1.4527208e+2, -1674156.1, -1504875.4, -47792.3, -0.18371627, 0.11054312, -1492314.4, 24023.617, 0.000012107546, 9.998518, 10.000786 
1.0250082e+3, 1.5527278e+2, -1656979.1, -1449660.5, -51041.734, 0.022063468, 0.072711565, -1437775.5, -19444.201, 0.00000009714164, 9.997984, 10.00075 
1.02501966e+3, 1.6527334e+2, -1531398.3, -1408898.1, -18334.357, 0.059353955, 0.09270395, -1406213.0, -85886.414, 0.0, 9.99849, 10.0001135 
1.02502994e+3, 1.7527367e+2, -1202395.9, -1197532.0, -13588.379, -0.02484319, 0.09103156, -1186159.6, 36165.336, 0.0, 10.0000725, 10.000127 
1.0250411e+3, 1.8527383e+2, -1110181.5, -1168875.4, 49615.605, -0.07528008, 0.12574583, -1081883.4, 42440.71, 0.0, 10.000291, 9.999556 
1.0250531e+3, 1.9527353e+2, -1171226.0, -1149746.4, 37182.43, -0.1108695, 0.11910125, -1121783.8, -95457.35, 0.0, 9.999214, 9.999531 
1.0250644e+3, 2.052726e+2, -1090678.5, -1170325.4, -33839.883, -0.09193738, 0.1278647, -1078242.5, -149905.75, 0.0, 9.9995775, 9.998544 
1.02507494e+3, 2.1527086e+2, -750527.0, -959423.94, -20822.793, -0.014502032, 0.081291296, -748471.6, 81885.01, 0.0, 10.001259, 9.9985075 
1.0250853e+3, 2.2526938e+2, -593241.4, -866319.06, 17418.344, 0.024092665, 0.10329882, -592134.9, 140238.27, 0.0, 10.001806, 9.998206 
1.0250954e+3, 2.352679e+2, -582673.2, -810727.0, 5422.044, 0.023586113, 0.114775136, -582544.4, 51844.566, 0.0, 10.001213, 9.998199 
1.0251059e+3, 2.4526651e+2, -438649.25, -610899.25, 37284.633, 0.0027243448, 0.12297773, -430925.13, 105474.63, 0.0, 10.00119, 9.998902 
1.02511644e+3, 2.5526488e+2, -282535.88, -492193.5, 13772.18, -0.03943909, 0.048130985, -281635.06, 156773.88, 0.0, 10.001619, 9.998841 
1.02512754e+3, 2.6526284e+2, -202777.17, -583972.06, -10306.446, -0.015939254, 0.049230356, -202498.72, 137928.9, 0.00000001218603, 10.002268, 9.997233 
1.0251392e+3, 2.752602e+2, 13911.665, -425411.5, -56824.19, 0.07746203, 0.039719127, 21142.566, 263599.72, 0.0000027111198, 10.003072, 9.997258 
1.0251499e+3, 2.8525746e+2, 164002.4, -326376.94, -29868.246, 0.06656517, 0.05112683, 165814.94, 310299.16, 0.00003356273, 10.003536, 9.997038 
1.0251598e+3, 2.9525423e+2, 272207.72, -233658.17, 4640.064, -0.03956178, -0.0021525093, 272250.25, 318762.53, 0.00015687123, 10.0036335, 9.996958 
1.02517225e+3, 3.0525103e+2, 273742.97, -315867.5, 96071.25, -0.007281315, 0.042552203, 289001.94, 289001.94, 0.00042992222, 10.003808, 9.9959755 
1.0251854e+3, 3.1524786e+2, 419358.44, -42041.87, 27460.473, 0.026968775, 0.097712606, 420987.03, 420987.03, 0.0008482756, 10.00386, 9.997833 
1.0349721e+3, 1.2525849e+2, -2119344.0, -1872954.5, 18201.76, -0.06273999, 0.07501533, -1871617.1, -159150.69, 0.00027553758, 9.997004, 10.000346 
1.03498206e+3, 1.3525759e+2, -1852812.8, -1702815.0, 31189.063, -0.27525735, -0.066609, -1696588.3, -82108.39, 0.000106410545, 9.998245, 10.000248 
1.0349945e+3, 1.4525805e+2, -1667245.1, -1490958.8, -82728.836, -0.13617146, -0.06570751, -1458216.5, 58261.59, 0.000017580353, 9.998519, 10.00088 
1.0350065e+3, 1.5526088e+2, -1646971.3, -1431055.1, -60804.094, 0.025382264, 0.09597986, -1415109.6, 3342.3945, 0.00000023822265, 9.997988, 10.000878 
1.03501804e+3, 1.6526227e+2, -1505031.1, -1344929.4, 26158.03, 0.03465117, 0.16807769, -1340763.9, -20326.203, 0.0, 9.998457, 10.000566 
1.0350299e+3, 1.752622e+2, -1179731.4, -1139711.9, 53432.434, -0.059495114, 0.080872275, -1102665.4, 119770.516, 0.0, 10.000028, 10.0005455 
1.0350417e+3, 1.8526167e+2, -1119407.6, -1174435.8, -4171.578, -0.07274516, 0.030838916, -1119093.1, 5346.2935, 0.0, 10.000234, 9.999546 
1.0350534e+3, 1.9526051e+2, -1180817.3, -1155101.8, 5503.6123, -0.020843267, -0.06280029, -1153973.4, -127523.1, 0.0, 9.999147, 9.999529 
1.03506505e+3, 2.0526052e+2, -1061092.8, -1078574.4, 16642.041, 0.0007692487, 0.0046353308, -1051035.6, -122583.484, 0.0, 9.999447, 9.999235 
1.0350765e+3, 2.1526127e+2, -718157.3, -866499.2, 51064.016, 0.0044957334, 0.13563597, -702279.06, 128169.98, 0.0, 10.001142, 9.999204 
1.0350868e+3, 2.252609e+2, -621614.75, -887108.0, -16435.28, -0.021023959, 0.23700164, -620601.2, 111854.59, 0.0, 10.001646, 9.99814 
1.0350958e+3, 2.3525934e+2, -603079.75, -827025.1, -5237.4673, -0.07767569, 0.24511187, -602957.4, 31515.867, 0.0, 10.0011, 9.998142 
1.0351067e+3, 2.4525708e+2, -483234.22, -672115.4, 44715.12, -0.053976465, 0.19020674, -473183.34, 63308.902, 0.0, 10.0010605, 9.998544 
1.03511915e+3, 2.55254e+2, -320782.78, -550301.6, 42617.895, 0.045911703, 0.004474753, -313124.84, 125389.86, 0.0, 10.001531, 9.998485 
1.0351304e+3, 2.6525176e+2, -279748.4, -724923.3, 9346.533, 0.016916363, 0.049233608, -279552.28, 60985.684, 0.00000000560088, 10.002191, 9.9963 
1.0351404e+3, 2.7524993e+2, -67972.66, -565620.6, -13141.836, -0.1273339, 0.21197732, -67625.85, 174939.63, 0.0000022721786, 10.002955, 9.996346 
1.0351516e+3, 2.8524733e+2, 236632.23, -159053.86, -36372.406, -0.13930123, 0.22267553, 239947.89, 384536.56, 0.000031159278, 10.003465, 9.99822 
1.0351637e+3, 2.9524392e+2, 340701.53, -69538.914, 23155.717, -0.045167297, 0.03360077, 342004.4, 388612.38, 0.00015252481, 10.003549, 9.998121 
1.0351769e+3, 3.0523926e+2, 210569.7, -442375.9, 88518.266, 0.055805024, -0.085037366, 222357.11, 222357.11, 0.00042681763, 10.003785, 9.995118 
1.0351897e+3, 3.1523415e+2, 339507.16, -157719.55, 64701.17, 0.015161083, -0.13899511, 347788.4, 347788.4, 0.00084848254, 10.003677, 9.997111 
1.0449693e+3, 1.2524712e+2, -2070082.5, -1839455.9, -45015.367, -0.03589116, 0.031586487, -1830980.9, -118403.75, 0.0003338259, 9.997284, 10.000442 
1.0449806e+3, 1.3524671e+2, -2035509.6, -1789110.4, 81374.65, -0.17439406, -0.06395932, -1764661.9, -150076.58, 0.00013404706, 9.996972, 10.000264 
1.04499325e+3, 1.4524716e+2, -1824047.9, -1574582.5, 55322.63, -0.05172748, -0.065051846, -1562864.4, -46281.004, 0.000024406929, 9.997486, 10.000809 
1.0450047e+3, 1.5524942e+2, -1508790.9, -1368201.4, 34186.15, 0.018981846, 0.051714297, -1360329.4, 58232.55, 0.0000004785213, 9.998972, 10.0008335 
1.04501694e+3, 1.652504e+2, -1348043.0, -1322639.6, 115505.64, 0.02093694, 0.10874382, -1219139.4, 101412.42, 0.0, 9.999752, 10.0001 
1.0450301e+3, 1.7525e+2, -1229321.0, -1215679.5, 54399.363, -0.018096624, 0.034544814, -1167675.0, 54879.344, 0.0, 9.999904, 10.000087 
1.0450425e+3, 1.8524949e+2, -1167530.3, -1198614.6, -66380.71, 0.0049609775, 0.008635239, -1114896.5, 9662.498, 0.0, 9.999922, 9.999523 
1.045054e+3, 1.9524871e+2, -1075753.4, -1103993.3, -79460.086, 0.0786272, -0.043838445, -1009168.44, 17398.875, 0.0, 9.999883, 9.999518 
1.04506545e+3, 2.0524877e+2, -973105.75, -1017991.0, -15058.645, 0.07424257, 0.02206948, -968521.9, -39953.305, 0.0, 9.999965, 9.999402 
1.04507715e+3, 2.1524931e+2, -865109.06, -917380.8, -40620.99, 0.0073982086, 0.11525404, -842942.25, -12375.901, 0.0, 10.000051, 9.999377 
1.045088e+3, 2.2524908e+2, -717537.4, -895605.56, -111380.85, -0.014946292, 0.20537978, -663978.44, 68592.055, 0.0, 10.000817, 9.998484 
1.04509816e+3, 2.3524795e+2, -419968.38, -706245.5, -94921.49, -0.0024809155, 0.2238975, -391354.97, 243227.55, 0.0, 10.002207, 9.998443 
1.0451094e+3, 2.4524571e+2, -276606.4, -656041.2, -32470.332, 0.030544352, 0.1916492, -273847.78, 262755.0, 0.0, 10.002814, 9.997822 
1.04512155e+3, 2.5524223e+2, -201147.08, -571357.4, -82079.15, 0.087114915, 0.0368584, -183765.42, 254867.28, 0.0, 10.002673, 9.997795 
1.0451328e+3, 2.6523972e+2, -205511.61, -679035.0, -61535.277, 0.03375575, 0.08202195, -197645.64, 143013.75, 0.0000000009945924, 10.002652, 9.9964 
1.0451433e+3, 2.7523762e+2, -101612.45, -578492.7, -32701.633, -0.115237236, 0.2124743, -99380.414, 143307.19, 0.0000020282196, 10.002677, 9.9964075 
1.045155e+3, 2.8523484e+2, 172492.9, -236197.25, -48566.027, -0.12698662, 0.22734141, 178184.9, 322897.16, 0.00002862002, 10.003206, 9.997827 
1.0451678e+3, 2.952314e+2, 404047.8, -80416.66, -132065.84, -0.011479384, 0.07409291, 437710.2, 484444.13, 0.00014590684, 10.004148, 9.997767 
1.0451814e+3, 3.0522656e+2, 354682.88, -333911.06, -73893.48, 0.09103781, -0.0629885, 362523.16, 362523.16, 0.0004168189, 10.00461, 9.995459 
1.0451942e+3, 3.1522143e+2, 472462.2, -68087.69, -53304.195, 0.0758244, -0.14736617, 477668.44, 477668.44, 0.0008363063, 10.004428, 9.99739 
1.0549672e+3, 1.2523414e+2, -1943722.1, -1569494.9, -114600.39, -0.034358572, -0.07694516, -1537189.4, 175520.17, 0.00039971265, 9.997262, 10.002298 
1.0549785e+3, 1.3523851e+2, -1921311.8, -1545737.5, 80527.09, -0.10158575, 0.13464367, -1529199.9, 85464.4, 0.00016604259, 9.99695, 10.001945 
1.0549912e+3, 1.4523955e+2, -1840481.5, -1613454.0, 95752.2, -0.046630997, 0.123865604, -1578462.4, -61810.496, 0.000032768716, 9.9975, 10.000536 
1.05500296e+3, 1.5523851e+2, -1533745.9, -1420002.3, 99520.21, -0.089164555, -0.06359835, -1362250.0, 56409.926, 0.0000008393984, 9.998961, 10.000488 
1.055016e+3, 1.6523781e+2, -1448668.9, -1519320.0, 109461.26, -0.08198157, -0.08977199, -1368974.1, -48305.65, 0.0, 9.999708, 9.998767 
1.0550305e+3, 1.7523716e+2, -1323563.8, -1407422.5, 67943.17, 0.002058632, -0.0542701, -1285653.6, -62973.832, 0.0, 9.999887, 9.998776 
1.0550432e+3, 1.8523736e+2, -1181117.3, -1212360.0, -81193.58, 0.061476786, 0.058114354, -1114056.0, 10625.904, 0.0, 9.999862, 9.999456 
1.0550541e+3, 1.9523808e+2, -1092110.3, -1121064.4, -69580.02, 0.08919893, 0.16056778, -1035517.2, -8839.418, 0.0, 9.999807, 9.999438 
1.0550652e+3, 2.0523742e+2, -1015319.9, -1078662.1, -23772.586, 0.037449993, 0.17556502, -1007390.56, -78705.1, 0.0, 9.99985, 9.99904 
1.0550764e+3, 2.1523517e+2, -906563.2, -978074.7, -25988.012, -0.086943604, 0.025027134, -898116.56, -67409.57, 0.0, 9.999935, 9.999018 
1.0550887e+3, 2.2523412e+2, -693245.44, -810750.3, -68445.79, -0.0461406, 0.018189406, -661794.4, 70921.445, 0.0, 10.0006695, 9.999134 
1.05510205e+3, 2.3523393e+2, -393911.72, -621854.9, -32464.92, 0.14890975, 0.061678022, -389378.06, 245337.31, 0.0, 10.002075, 9.999083 
1.0551137e+3, 2.4523251e+2, -370540.88, -819434.3, -49559.617, 0.15579124, 0.13370734, -365134.4, 171595.77, 0.0, 10.00268, 9.996764 
1.0551235e+3, 2.5522968e+2, -290082.4, -728581.6, -77435.78, -0.009081168, 0.14875121, -276809.56, 161951.97, 0.0, 10.002555, 9.996771 
1.05513476e+3, 2.6522675e+2, -149288.0, -537360.94, -67794.66, -0.05223241, 0.14998801, -137785.52, 203005.81, 0.000000000012280949, 10.00255, 9.997417 
1.0551474e+3, 2.7522346e+2, -46740.406, -443180.06, -13793.878, 0.009692592, 0.05666203, -46261.035, 196560.81, 0.0000016155456, 10.002589, 9.997375 
1.0551598e+3, 2.8522032e+2, 29648.344, -517878.44, -21911.164, 0.005563581, 0.08704148, 30523.795, 175376.27, 0.000025303238, 10.003142, 9.995923 
1.05517186e+3, 2.9521704e+2, 257594.16, -358403.28, -77092.445, -0.048798025, 0.13565469, 267095.78, 313982.06, 0.000137169, 10.004042, 9.995909 
1.0551852e+3, 3.052131e+2, 445074.1, -131841.08, -80956.89, -0.010239861, 0.1085908, 456219.22, 456219.22, 0.0004008363, 10.00454, 9.996882 
1.05519846e+3, 3.152099e+2, 539730.44, 114963.22, -20194.43, 0.0025281603, 0.06996102, 540688.4, 540688.4, 0.00081260194, 10.004251, 9.998732 
1.06496446e+3, 1.2522286e+2, -2006653.8, -1561752.3, -77082.8, 0.010781851, -0.029233422, -1548775.5, 164048.06, 0.00047318285, 9.996673, 10.002641 
1.0649767e+3, 1.3522711e+2, -1721241.8, -1415849.4, -9821.91, -0.036205024, 0.1432499, -1415533.9, 199243.03, 0.00020250746, 9.998189, 10.002239 
1.0649895e+3, 1.4522803e+2, -1639902.6, -1549288.1, -7923.314, -0.030044857, 0.12130153, -1548600.5, -31836.266, 0.000042863663, 9.999014, 10.000252 
1.0650021e+3, 1.5522657e+2, -1494259.9, -1427131.9, -32987.18, -0.07640597, -0.07879842, -1413635.4, 5140.5776, 0.0000013547858, 9.999351, 10.000246 
1.0650155e+3, 1.6522591e+2, -1474111.5, -1509306.5, 35740.56, -0.07037608, -0.100835524, -1451871.1, -131087.0, 0.0, 9.99942, 9.998986 
1.0650302e+3, 1.7522578e+2, -1400951.5, -1419897.9, 88153.195, 0.02111977, -0.032269645, -1321763.9, -98973.37, 0.0, 9.999243, 9.999012 
1.06504306e+3, 1.8522616e+2, -1229623.4, -1266018.8, 26861.62, 0.078322515, 0.09745868, -1215375.6, -90584.11, 0.0, 9.999639, 9.999202 
1.0650543e+3, 1.9522667e+2, -995826.75, -1106467.5, 1523.7345, 0.09276859, 0.20568025, -995805.8, 30984.723, 0.0, 10.000581, 9.999173 
1.0650654e+3, 2.0522563e+2, -831163.75, -989925.9, 63221.11, 0.021141235, 0.19596851, -809064.44, 119736.555, 0.0, 10.001122, 9.999031 
1.0650765e+3, 2.1522298e+2, -703042.25, -878282.94, 62293.074, -0.12386491, 0.0072083795, -683155.6, 147668.27, 0.0, 10.001341, 9.999018 
1.0650896e+3, 2.2522156e+2, -573878.0, -782363.94, 45098.152, -0.06561131, -0.026431115, -564540.8, 168294.84, 0.0, 10.001606, 9.998885 
1.0651044e+3, 2.3522098e+2, -442337.5, -671203.44, -6964.897, 0.18588026, 0.0036065476, -442125.72, 192714.14, 0.0, 10.001853, 9.998853 
1.06511645e+3, 2.452196e+2, -465590.78, -857914.7, -25488.742, 0.20531957, 0.090421796, -463941.75, 72913.3, 0.0, 10.0020075, 9.9968195 
1.06512584e+3, 2.5521725e+2, -353066.78, -755038.75, 3182.4536, 0.0046423664, 0.14915806, -353041.56, 85841.6, 0.0, 10.0021105, 9.996807 
1.06513746e+3, 2.6521438e+2, -160960.16, -524594.75, 47660.188, -0.03306381, 0.15052247, -154817.3, 186094.33, 0.0, 10.002382, 9.997583 
1.0651507e+3, 2.7521098e+2, -19107.436, -405459.16, 10268.421, 0.08311626, 0.022981877, -18834.715, 224107.02, 0.00000091217555, 10.002687, 9.997577 
1.0651637e+3, 2.8520784e+2, -3305.734, -576549.2, 73962.74, 0.08845094, 0.058742136, 6083.5215, 151057.3, 0.000020741376, 10.003103, 9.99554 
1.0651761e+3, 2.9520446e+2, 170578.64, -445122.22, 102954.36, 0.00067033054, 0.1442486, 187337.95, 234349.92, 0.00012515363, 10.003618, 9.995523 
1.0651893e+3, 3.0520087e+2, 324364.4, -161512.02, 93535.06, 0.0056519546, 0.1551211, 341748.66, 341748.66, 0.00037813088, 10.003577, 9.997139 
1.0652023e+3, 3.1519854e+2, 353903.47, 60947.945, 26001.846, 0.04378535, 0.17343673, 356193.4, 356193.4, 0.0007771597, 10.0028105, 9.9990425 
1.07496046e+3, 1.2521322e+2, -2097879.0, -1737270.8, -66225.5, -0.11439089, 0.17006382, -1725493.1, -12573.6875, 0.00055371417, 9.996638, 10.001438 
1.07497446e+3, 1.3521256e+2, -1812679.1, -1590113.4, 49788.473, -0.08387439, -0.032282878, -1579483.4, 35439.277, 0.00024334127, 9.99814, 10.001056 
1.074988e+3, 1.452126e+2, -1657956.5, -1589676.9, -14022.699, -0.10519237, -0.069320835, -1586909.1, -69988.875, 0.00005483326, 9.999012, 9.999982 
1.0750021e+3, 1.5521358e+2, -1506911.8, -1457653.8, -11812.473, -0.047054995, -0.0016012293, -1454967.5, -36057.293, 0.000002073113, 9.999359, 10.000037 
1.0750155e+3, 1.6521478e+2, -1353407.5, -1250644.1, 14837.385, -0.03896119, 0.08334799, -1248544.8, 72353.03, 0.0000000000166348, 9.999391, 10.0007715 
1.0750289e+3, 1.752159e+2, -1282677.4, -1168932.6, 92288.13, -0.045756545, 0.09365283, -1117400.4, 105485.68, 0.0, 9.999216, 10.000745 
1.07504174e+3, 1.8521589e+2, -1272522.4, -1336304.6, 49709.203, -0.032328233, 0.12605658, -1245353.9, -120466.12, 0.0, 9.999566, 9.998752 
1.0750541e+3, 1.9521458e+2, -1040536.4, -1173215.8, 45617.74, -0.0044111493, 0.095613815, -1026365.6, 538.825, 0.0, 10.000478, 9.998761 
1.0750659e+3, 2.0521356e+2, -831193.3, -961083.06, 56714.547, -0.06096428, 0.095159255, -809915.4, 118998.57, 0.0, 10.000997, 9.999292 
1.0750774e+3, 2.1521263e+2, -705986.25, -850590.06, 80651.48, -0.1978974, 0.047571465, -669972.75, 160945.78, 0.0, 10.001194, 9.99928 
1.0750903e+3, 2.2521123e+2, -672864.1, -950820.2, 43503.133, -0.16150977, 0.05940004, -666214.5, 66717.16, 0.0, 10.001449, 9.997805 
1.07510485e+3, 2.3520912e+2, -539012.9, -833612.6, 14372.706, 0.031969473, 0.0453346, -538313.4, 96641.92, 0.0, 10.001692, 9.997816 
1.0751176e+3, 2.4520707e+2, -415045.16, -720046.94, -29766.082, 0.09709651, 0.06288327, -412167.34, 124809.43, 0.0, 10.001867, 9.997832 
1.07512854e+3, 2.5520483e+2, -293365.34, -612537.94, 20659.133, 0.037190612, 0.029562883, -292033.7, 146965.02, 0.0, 10.002028, 9.997824 
1.0751404e+3, 2.6520258e+2, -224578.02, -631315.06, 47713.57, 0.009024162, 0.07551367, -219055.8, 121965.69, 0.000000000031670343, 10.002276, 9.996903 
1.075153e+3, 2.7520007e+2, -79551.68, -511175.97, 36226.168, 0.010012842, 0.10532278, -76532.34, 166515.69, 0.00000057346807, 10.0026, 9.996899 
1.07516624e+3, 2.851972e+2, 63098.844, -422109.4, 81575.45, 0.020186557, 0.15007335, 76446.5, 221523.73, 0.000016659129, 10.003034, 9.99663 
1.0751803e+3, 2.9519382e+2, 232420.39, -292351.03, 140700.3, 0.029397303, 0.11896868, 267764.16, 314875.0, 0.000111912384, 10.003516, 9.99662 
1.07519336e+3, 3.0518997e+2, 250756.6, -301769.53, 62399.516, 0.032338787, 0.0995347, 257716.03, 257716.03, 0.0003521945, 10.00352, 9.996208 
1.07520506e+3, 3.151873e+2, 268934.16, -89512.05, 40080.035, -0.009555904, 0.17872052, 273361.06, 273361.06, 0.0007370222, 10.002692, 9.998075 
1.0849582e+3, 1.2520167e+2, -1955074.8, -1791330.4, -12411.836, -0.07324197, 0.19257493, -1790394.9, -77364.44, 0.00064071716, 9.998119, 10.00037 
1.0849737e+3, 1.3519996e+2, -1852357.3, -1725148.8, 76493.18, 0.010091419, -0.008554223, -1689270.9, -74222.375, 0.00028839763, 9.998342, 10.000048 
1.0849867e+3, 1.4519976e+2, -1749249.6, -1594341.6, 45178.496, -0.10454941, -0.036213066, -1582128.4, -65078.94, 0.00006873226, 9.998247, 10.000299 
1.0850007e+3, 1.5520088e+2, -1667026.0, -1503935.0, 54356.42, -0.05027207, 0.015380276, -1487479.0, -68443.52, 0.0000030594845, 9.998137, 10.000303 
1.0850145e+3, 1.6520211e+2, -1506680.0, -1331963.3, 51900.0, -0.01665922, 0.09336705, -1317709.1, 3312.719, 0.000000000186287, 9.998375, 10.000694 
1.0850286e+3, 1.7520326e+2, -1326237.1, -1198007.3, -34972.08, 0.01553398, 0.11409085, -1189089.5, 33921.242, 0.0, 9.998962, 10.000659 
1.0850416e+3, 1.85203e+2, -1268599.1, -1289129.1, -74090.19, 0.011660306, 0.10485769, -1204066.3, -79053.07, 0.0, 9.999395, 9.999166 
1.0850538e+3, 1.9520123e+2, -1137297.9, -1173853.9, -37602.996, -0.02961003, -0.011600724, -1113765.9, -86735.48, 0.0, 9.999625, 9.999169 
1.0850663e+3, 2.0520042e+2, -947537.44, -1026682.2, 14337.723, -0.077395275, -0.00562724, -945020.1, -15983.436, 0.0, 10.000241, 9.9992 
1.0850791e+3, 2.152002e+2, -709452.1, -869003.25, -16613.768, -0.13480268, 0.02832269, -707740.5, 123295.64, 0.0, 10.001233, 9.999136 
1.0850923e+3, 2.2519894e+2, -673202.44, -973538.0, -34840.0, -0.11785018, 0.074478805, -669213.8, 63835.777, 0.0, 10.001562, 9.997588 
1.0851056e+3, 2.351965e+2, -603302.0, -888579.06, -29007.611, -0.03400408, 0.051982608, -600382.3, 34695.832, 0.0, 10.001363, 9.997595 
1.0851188e+3, 2.4519439e+2, -420882.38, -680492.9, -31029.67, 0.048499774, 0.05436861, -417225.13, 119874.914, 0.0, 10.0016365, 9.998224 
1.0851316e+3, 2.5519237e+2, -233934.88, -542143.7, -48063.59, 0.13039766, 0.006857166, -226613.52, 212504.27, 0.0, 10.002258, 9.998203 
1.0851437e+3, 2.651903e+2, -183774.81, -618830.0, -5453.074, 0.098169364, 0.056094095, -183706.47, 157432.44, 0.000000020287489, 10.002595, 9.996829 
1.085155e+3, 2.751879e+2, -75209.68, -518233.97, -498.10275, -0.038825072, 0.10623442, -75209.125, 167957.14, 0.0000009638229, 10.002667, 9.996816 
1.0851686e+3, 2.8518543e+2, 66534.586, -327910.0, 80704.89, -0.028301625, 0.15177414, 82408.305, 227599.69, 0.00001551447, 10.002656, 9.997456 
1.0851842e+3, 2.9518273e+2, 130562.875, -245716.39, 86218.18, 0.12775742, 0.10565072, 149377.58, 196593.5, 0.000103287646, 10.00241, 9.997467 
1.0851974e+3, 3.0517918e+2, 100896.17, -369899.2, 47470.734, 0.13539527, 0.07197354, 105634.99, 105634.99, 0.00033301808, 10.002494, 9.996235 
1.0852081e+3, 3.1517664e+2, 270403.94, -87751.53, 46022.88, 0.026155453, 0.1676163, 276223.28, 276223.28, 0.00070935563, 10.0027275, 9.998064 
1.09495714e+3, 1.2518814e+2, -2020653.8, -1922585.6, -13326.943, -0.027337752, 0.023036547, -1920806.9, -207649.72, 0.000734217, 9.998098, 9.999479 
1.0949735e+3, 1.3518965e+2, -1902388.0, -1832971.6, 89924.5, 0.1446508, 0.21489157, -1771289.6, -156137.97, 0.00033773432, 9.998353, 9.999303 
1.09498486e+3, 1.4518975e+2, -1701180.9, -1488662.0, 26729.838, -0.13760342, 0.21591528, -1485351.6, 31798.291, 0.0000845864, 9.998226, 10.001033 
1.0949977e+3, 1.5518846e+2, -1625007.1, -1406392.6, 63518.69, -0.18103644, -0.043399725, -1389277.3, 29875.043, 0.0000043925156, 9.998101, 10.000987 
1.09501235e+3, 1.6518798e+2, -1644339.4, -1617411.1, 59871.445, -0.09925064, -0.0708774, -1569508.5, -248352.56, 0.0000000006358386, 9.998369, 9.998742 
1.0950288e+3, 1.7518793e+2, -1456762.5, -1472943.9, -2265.0757, 0.11628107, 0.023885466, -1456451.5, -233287.3, 0.0, 9.998969, 9.998774 
1.0950422e+3, 1.8518756e+2, -1187086.9, -1108175.9, -77760.21, 0.115224086, 0.033225305, -1060434.0, 64733.113, 0.0, 9.999351, 10.000424 
1.09505326e+3, 1.951867e+2, -1063767.9, -1000169.4, -15905.4375, -0.0774704, -0.11784839, -996413.4, 30753.807, 0.0, 9.9995365, 10.000401 
1.09506644e+3, 2.0518622e+2, -997034.5, -1108561.4, 39164.777, -0.12064062, -0.115714155, -984655.1, -55485.86, 0.0, 10.000146, 9.998689 
1.09508164e+3, 2.1518582e+2, -764907.7, -948885.6, 30322.408, -0.025497714, -0.045267537, -760038.94, 71136.43, 0.0, 10.00108, 9.998665 
1.0950948e+3, 2.2518487e+2, -664243.25, -915612.44, -53472.34, -0.027874166, 0.028958784, -653341.25, 79846.516, 0.0, 10.001395, 9.998063 
1.0951063e+3, 2.3518306e+2, -592258.0, -831177.06, -24395.438, -0.11683889, 0.018403865, -589792.5, 45416.54, 0.0, 10.001215, 9.998058 
1.09511964e+3, 2.4518149e+2, -453252.72, -716158.0, -18266.186, -0.042120084, 0.061736293, -451989.7, 85235.91, 0.0, 10.0015, 9.998045 
1.0951346e+3, 2.5517994e+2, -262019.17, -573702.25, -11539.443, 0.18788058, 0.07582779, -261592.53, 177647.14, 0.0, 10.00214, 9.998044 
1.0951468e+3, 2.651777e+2, -170490.03, -563430.06, -9443.223, 0.1440552, 0.09606026, -170263.23, 170998.83, 0.00000010014453, 10.002473, 9.997271 
1.09515674e+3, 2.7517456e+2, -51220.074, -455552.13, 22042.736, -0.16431724, 0.029826948, -50021.934, 193273.42, 0.0000018004142, 10.002604, 9.997281 
1.0951703e+3, 2.851724e+2, 91019.6, -259752.89, 60328.816, -0.15116684, 0.05591965, 101105.46, 246422.55, 0.000016749305, 10.002584, 9.997956 
1.0951874e+3, 2.9517096e+2, 152181.52, -183070.5, 92194.59, 0.17557369, 0.081074364, 175862.38, 223192.06, 0.00010005187, 10.002332, 9.997936 
1.0952007e+3, 3.0516827e+2, 155038.95, -243808.6, 48313.176, 0.19575721, 0.06908749, 160807.78, 160807.78, 0.00032272984, 10.002431, 9.997133 
1.0952105e+3, 3.1516638e+2, 318596.4, 19673.305, 88361.91, -0.0631503, 0.13950776, 342762.56, 342762.56, 0.0006960898, 10.002675, 9.998839 
1.10495605e+3, 1.2517427e+2, -1929902.1, -1866420.4, -57680.465, 0.02688398, -0.03278799, -1832324.1, -119034.48, 0.00083503575, 9.998678, 9.999568 
1.1049725e+3, 1.3517626e+2, -1911728.6, -1813243.9, 33867.625, 0.22380687, 0.18227594, -1802721.5, -187442.31, 0.0003918232, 9.998181, 9.999517 
1.10498324e+3, 1.4517654e+2, -1709081.1, -1521650.1, 16536.805, -0.11091709, 0.20338336, -1520202.4, -2925.7761, 0.000102570426, 9.99828, 10.00079 
1.10499695e+3, 1.5517525e+2, -1495375.9, -1371788.4, -42637.164, -0.11209921, -0.03160899, -1358506.1, 60775.06, 0.0000061708192, 9.999099, 10.000747 
1.1050117e+3, 1.651745e+2, -1515234.6, -1564611.9, 11460.955, -0.036395393, -0.07037575, -1512704.1, -191416.34, 0.0000000015512864, 9.999306, 9.998651 
1.1050278e+3, 1.7517398e+2, -1449364.0, -1476041.0, 61414.258, 0.12745447, -0.012967101, -1399856.4, -176557.56, 0.0, 9.999064, 9.9987 
1.1050417e+3, 1.851736e+2, -1165847.1, -1093753.4, 42573.28, 0.12387754, -0.0038968178, -1074016.3, 51285.3, 0.0, 9.999495, 10.000445 
1.1050536e+3, 1.9517307e+2, -915545.44, -923367.94, -12479.051, -0.03414623, -0.12525487, -906379.06, 120920.03, 0.0, 10.00055, 10.000428 
1.1050673e+3, 2.0517263e+2, -909639.4, -1058033.6, 28367.563, -0.06137872, -0.12364841, -904401.44, 24899.521, 0.0, 10.000709, 9.998768 
1.1050828e+3, 2.1517202e+2, -905218.5, -1005113.8, 37995.438, 0.032506637, -0.0815078, -892409.3, -61100.574, 0.0, 10.000068, 9.998767 
1.10509634e+3, 2.2517106e+2, -784826.8, -943861.94, 4797.673, 0.029915884, -0.026327685, -784682.2, -51362.0, 0.0, 10.000431, 9.998337 
1.10510826e+3, 2.351695e+2, -501102.22, -758447.6, -1954.4086, -0.057477657, -0.03985589, -501087.38, 134250.53, 0.0, 10.001714, 9.99832 
1.1051216e+3, 2.4516813e+2, -377936.3, -680791.25, 5321.3237, -0.021259898, 0.013013931, -377842.84, 159509.72, 0.0, 10.002033, 9.998018 
1.10513575e+3, 2.5516677e+2, -362775.56, -623736.8, -7517.9746, 0.12834291, 0.050729048, -362559.16, 76807.09, 0.0, 10.001469, 9.998011 
1.1051486e+3, 2.651646e+2, -267648.03, -580180.2, 31766.727, 0.109947495, 0.061431177, -264451.84, 76936.516, 0.00000018749917, 10.001664, 9.99755 
1.1051602e+3, 2.751614e+2, -52482.88, -424086.63, 24871.727, -0.06299757, -0.04016669, -50825.586, 192595.44, 0.0000025324416, 10.002461, 9.997564 
1.1051736e+3, 2.851595e+2, 87297.8, -246860.47, 36081.16, -0.06151729, -0.008135674, 91149.31, 236589.78, 0.000018771152, 10.002508, 9.998082 
1.1051889e+3, 2.9515857e+2, 78046.17, -203878.06, 12665.185, 0.12510215, 0.06353408, 78614.0, 126063.3, 0.00010057408, 10.001776, 9.998057 
1.10520214e+3, 3.0515626e+2, 138985.2, -205598.38, 11215.866, 0.13377027, 0.05816612, 139349.88, 139349.88, 0.0003198817, 10.002101, 9.997558 
1.1052145e+3, 3.1515437e+2, 409220.72, 129604.88, -25216.691, 0.06381652, 0.07980337, 411476.66, 411476.66, 0.0006923279, 10.003043, 9.999393 
1.11495435e+3, 1.2515998e+2, -1863129.8, -1717190.0, -48897.516, -0.058387227, -0.013912775, -1702321.6, 11107.143, 0.000944546, 9.99865, 10.000607 
1.1149704e+3, 1.351599e+2, -1841251.4, -1660971.4, 26719.422, 0.1676284, -0.10415131, -1657094.6, -41664.7, 0.00045159098, 9.9981575, 10.00058 
1.1149817e+3, 1.4516026e+2, -1791745.1, -1687692.6, 30815.25, -0.13212071, -0.06950698, -1679251.5, -161823.03, 0.00012308804, 9.998259, 9.999659 
1.11499794e+3, 1.551615e+2, -1573611.6, -1533967.8, -1942.7004, 0.05527067, 0.058439177, -1533872.8, -114452.734, 0.000008505592, 9.999097, 9.999638 
1.1150125e+3, 1.651619e+2, -1395526.4, -1314558.9, -13848.608, 0.068247795, 0.103071325, -1312255.8, 9159.567, 0.0000000033697685, 9.999294, 10.000376 
1.1150255e+3, 1.7516145e+2, -1334010.3, -1234691.4, 62530.707, -0.041704625, 0.0010403498, -1204500.0, 18914.61, 0.0, 9.999046, 10.000373 
1.11503966e+3, 1.8516104e+2, -1255890.8, -1270542.9, 69030.96, -0.059323095, -0.014461791, -1193798.3, -68381.13, 0.0, 9.9994545, 9.99925 
1.1150547e+3, 1.9516039e+2, -1014235.44, -1103277.4, 35709.117, 0.0031049922, -0.028288927, -1001684.06, 25741.213, 0.0, 10.000445, 9.999245 
1.1150689e+3, 2.0515968e+2, -877946.6, -970172.8, -12101.786, 0.0013973312, -0.026527045, -876385.06, 53046.098, 0.0, 10.000608, 9.999419 
1.11508206e+3, 2.1515864e+2, -882770.3, -926566.44, 26528.059, -0.058065157, -0.096015915, -870269.75, -38832.03, 0.0, 9.999924, 9.999378 
1.1150962e+3, 2.2515744e+2, -798925.3, -936858.44, 42555.887, -0.043637324, -0.10069578, -786852.44, -53404.3, 0.0, 10.000281, 9.998454 
1.1151113e+3, 2.3515588e+2, -517287.9, -752426.44, 58585.1, 0.051164377, -0.12369935, -503499.84, 131964.31, 0.0, 10.001544, 9.998445 
1.11512415e+3, 2.4515443e+2, -400853.03, -689915.75, -25467.467, 0.014620451, -0.08837421, -398626.4, 138853.75, 0.0, 10.001869, 9.9980345 
1.1151347e+3, 2.551528e+2, -375839.94, -630937.25, -14897.333, -0.14081709, -0.078480706, -374972.9, 64525.703, 0.0, 10.001381, 9.998003 
1.1151483e+3, 2.6515082e+2, -270577.4, -568536.8, 50004.082, -0.09602726, -0.05378226, -262409.53, 79109.78, 0.00000020790911, 10.00159, 9.9976635 
1.1151649e+3, 2.751482e+2, -56778.61, -411778.5, 68850.51, 0.13910718, -0.10845603, -43893.094, 199651.52, 0.0000030041272, 10.002369, 9.997692 
1.11517824e+3, 2.8514665e+2, 55949.7, -286767.3, -1349.4607, 0.12602574, -0.03440653, 55955.01, 201516.25, 0.000021469468, 10.002403, 9.997857 
1.1151884e+3, 2.9514578e+2, 57859.836, -239450.86, 7404.7095, -0.12673128, 0.059771102, 58044.14, 105617.18, 0.00010458993, 10.001746, 9.997828 
1.1152018e+3, 3.0514315e+2, 127926.42, -223557.98, 40436.254, -0.13636424, 0.04361112, 132518.39, 132518.39, 0.00032358713, 10.002081, 9.997442 
1.1152192e+3, 3.1514025e+2, 392068.25, 115727.36, 47761.094, 0.17730333, -0.026894454, 400090.1, 400090.1, 0.00069615606, 10.002939, 9.999352 
1.1249523e+3, 1.2514438e+2, -2072545.0, -1735562.5, 2101.2432, -0.03122248, -0.054849915, -1735549.4, -21968.135, 0.0010643419, 9.996856, 10.001348 
1.1249686e+3, 1.3514474e+2, -1821484.0, -1572572.8, -53892.574, 0.19911745, -0.17135952, -1561405.4, 54168.773, 0.00051804923, 9.997971, 10.0012665 
1.1249804e+3, 1.4514533e+2, -1761592.6, -1693979.0, 22220.885, -0.09062108, -0.14249465, -1687330.1, -169759.72, 0.00014661087, 9.998551, 9.9994755 
1.1249972e+3, 1.5514685e+2, -1624092.6, -1574144.6, 31054.627, 0.08757371, 0.031558003, -1559267.8, -139705.84, 0.00001150662, 9.998824, 9.999489 
1.12501174e+3, 1.6514757e+2, -1377176.5, -1236997.9, 23851.23, 0.08888111, 0.083396815, -1233050.8, 88502.89, 0.0000000061074554, 9.999113, 10.0009985 
1.12502456e+3, 1.751474e+2, -1222855.0, -1108728.9, -2667.4297, -0.048879188, -0.058320746, -1108666.6, 114880.15, 0.0, 9.999496, 10.001018 
1.1250391e+3, 1.851472e+2, -1291283.0, -1347936.4, 24647.31, -0.054406412, -0.058134515, -1282061.1, -156513.2, 0.0, 9.999461, 9.99872 
1.12505496e+3, 1.9514664e+2, -1244064.4, -1277251.8, 19257.836, 0.055846345, -0.009330354, -1235237.4, -207677.11, 0.0, 9.999108, 9.99871 
1.1250693e+3, 2.0514606e+2, -1004036.25, -988441.06, 9304.36, 0.04432747, 0.013254598, -984098.94, -54532.598, 0.0, 9.99958, 9.999781 
1.1250823e+3, 2.1514519e+2, -708640.6, -794741.3, -2545.414, -0.07513686, -0.07606295, -708565.44, 123003.72, 0.0, 10.000937, 9.99978 
1.1250967e+3, 2.2514401e+2, -671524.0, -844895.6, 23811.504, -0.05097632, -0.11267119, -668313.1, 65264.066, 0.0, 10.001008, 9.998741 
1.12511255e+3, 2.3514241e+2, -734808.1, -822415.7, 30559.637, 0.116187386, -0.170673, -725201.56, -89610.09, 0.0, 9.999891, 9.998757 
1.1251257e+3, 2.4514093e+2, -634763.8, -820205.2, -4538.005, 0.0780934, -0.14583884, -634652.8, -97044.93, 0.0, 10.000342, 9.99788 
1.1251363e+3, 2.5513935e+2, -254081.95, -589854.25, -26670.186, -0.1485936, -0.11306595, -251976.75, 187651.56, 0.0, 10.0023, 9.997849 
1.12515025e+3, 2.651376e+2, -51553.695, -428975.13, 38417.813, -0.1271767, -0.06957516, -47682.84, 293964.03, 0.00000016860811, 10.002964, 9.997954 
1.1251671e+3, 2.751354e+2, -32198.969, -370014.38, 37798.313, 0.1281077, -0.110976614, -28021.363, 215645.3, 0.0000038179373, 10.00242, 9.997948 
1.1251808e+3, 2.851338e+2, 43361.457, -331137.78, -12110.506, 0.14681022, -0.03760965, 43752.676, 189436.11, 0.000026281929, 10.002461, 9.99753 
1.1251914e+3, 2.9513255e+2, 207005.61, -200060.95, -39198.668, -0.0576681, 0.04912367, 210745.9, 258445.7, 0.00011359424, 10.002911, 9.997535 
1.12520486e+3, 3.0512953e+2, 247095.81, -178010.75, 28547.402, -0.08300284, 0.010958641, 249004.3, 249004.3, 0.00033605486, 10.002977, 9.997316 
1.12522215e+3, 3.1512582e+2, 299587.06, 50250.645, -10171.097, 0.22000724, -0.11553406, 300001.28, 300001.28, 0.0007117771, 10.002385, 9.999181 
1.1349493e+3, 1.251276e+2, -2035476.6, -1651763.6, 76252.445, -0.06796413, -0.1521819, -1637165.9, 76580.08, 0.0011953667, 9.9968405, 10.0019245 
1.13496676e+3, 1.3513085e+2, -1796084.5, -1515298.3, -5430.407, 0.19612905, -0.021469286, -1515193.3, 100517.99, 0.00059164723, 9.99795, 10.001672 
1.1349791e+3, 1.4513181e+2, -1706433.1, -1571618.9, 16221.017, -0.10245547, -0.017780285, -1569694.6, -51993.34, 0.00017336896, 9.998522, 10.000329 
1.13499425e+3, 1.5513149e+2, -1568486.6, -1455522.3, 54078.78, -0.111838855, -0.10868998, -1433807.6, -14102.163, 0.000015247707, 9.99881, 10.000311 
1.1350094e+3, 1.6513166e+2, -1407248.4, -1299063.6, 23887.951, -0.086822994, -0.13212232, -1294023.8, 27678.008, 0.000000009421829, 9.999108, 10.000573 
1.1350248e+3, 1.7513195e+2, -1254667.8, -1173030.9, 20106.97, -0.0012384444, -0.18505086, -1168347.3, 55346.348, 0.0, 9.999488, 10.000579 
1.1350397e+3, 1.8513213e+2, -1280921.9, -1324486.1, -3539.89, 0.037072245, -0.13407996, -1280636.0, -154942.83, 0.0, 9.999447, 9.998891 
1.1350539e+3, 1.9513193e+2, -1246280.1, -1260579.9, 15218.022, 0.02347443, -0.06561829, -1236616.0, -208913.23, 0.0, 9.999011, 9.998874 
1.1350684e+3, 2.0513187e+2, -1017871.25, -996344.5, 46684.523, -0.027952114, 0.00029665077, -959198.6, -29493.545, 0.0, 9.999484, 9.999776 
1.135083e+3, 2.1513169e+2, -732829.75, -806288.75, 56470.82, -0.10706092, -0.018376952, -702194.5, 129508.055, 0.0, 10.000767, 9.999788 
1.1350975e+3, 2.251308e+2, -658061.0, -777850.3, -33195.3, -0.082707755, -0.05439999, -649477.2, 84229.85, 0.0, 10.000839, 9.999282 
1.135112e+3, 2.35129e+2, -719541.3, -761276.94, 1041.8473, 0.042315025, -0.18701509, -719515.3, -83794.65, 0.0, 9.999762, 9.999241 
1.1351261e+3, 2.451276e+2, -671471.56, -873661.2, 56551.79, 0.061693408, -0.15845712, -656729.1, -118993.08, 0.0, 10.000241, 9.9975605 
1.13514036e+3, 2.5512645e+2, -290759.7, -639243.5, 57837.105, -0.0037244542, -0.054745477, -281411.34, 158343.4, 0.0, 10.002178, 9.99757 
1.13515384e+3, 2.65125e+2, -37760.348, -378587.6, 10807.289, -0.08339621, 0.009578527, -37418.004, 304352.7, 0.00000020663475, 10.002864, 9.998354 
1.1351667e+3, 2.751229e+2, -15635.836, -326091.47, 34706.71, -0.1792203, -0.05686714, -11803.189, 231984.38, 0.0000055002247, 10.002373, 9.99828 
1.13518104e+3, 2.8512082e+2, 1360.0934, -400099.56, -8344.612, -0.09176294, -0.028028518, 1533.4669, 147341.6, 0.00003348711, 10.002396, 9.99708 
1.13519706e+3, 2.9511863e+2, 163535.84, -268463.63, -8467.278, 0.185441, 0.0103948, 163701.73, 211534.27, 0.00012808957, 10.002818, 9.997106 
1.1352105e+3, 3.051151e+2, 221901.64, -203392.03, 314.8912, 0.16768163, -0.04776399, 221901.88, 221901.88, 0.0003591798, 10.002866, 9.997196 
1.1352228e+3, 3.151111e+2, 276490.44, 23927.576, 2547.654, -0.012797832, -0.19566812, 276516.13, 276516.13, 0.0007452587, 10.002298, 9.999038 
1.1449475e+3, 1.2511286e+2, -1715855.9, -1566654.9, 189749.36, -0.042794358, -0.120088935, -1437368.0, 276520.13, 0.0013373722, 9.999296, 10.0013485 
1.144964e+3, 1.3511555e+2, -1936087.9, -1659134.4, -56839.035, 0.17091694, 0.022851065, -1647923.1, -32060.096, 0.000672049, 9.997282, 10.001027 
1.14497766e+3, 1.4511651e+2, -1869914.8, -1552225.9, 7696.4487, -0.021732695, 0.012894244, -1552039.5, -34186.895, 0.0002032588, 9.996981, 10.0012045 
1.1449928e+3, 1.5511644e+2, -1560074.6, -1356627.6, 14425.957, -0.11756539, -0.1363967, -1355609.8, 64240.066, 0.000019742625, 9.998465, 10.001158 
1.14500806e+3, 1.6511679e+2, -1497473.0, -1361643.4, -27297.818, -0.097938344, -0.17292257, -1356362.6, -34518.55, 0.000000013934886, 9.998585, 10.000393 
1.1450238e+3, 1.7511716e+2, -1562289.9, -1340888.1, -34444.508, 0.05721186, -0.1995169, -1335653.3, -111814.49, 0.0, 9.997466, 10.000401 
1.145039e+3, 1.8511756e+2, -1430767.8, -1312711.9, 44924.035, 0.09580457, -0.15545073, -1297561.1, -171725.45, 0.0, 9.998063, 9.999636 
1.14505336e+3, 1.951178e+2, -1000158.56, -1051255.0, 80947.49, 0.0098413555, -0.11899576, -940823.3, 87013.125, 0.0, 10.000339, 9.999655 
1.1450683e+3, 2.0511776e+2, -881566.1, -976976.5, 100894.086, -0.02726046, -0.067859, -817667.56, 112170.08, 0.0, 10.000612, 9.99937 
1.1450838e+3, 2.1511722e+2, -1022287.25, -993139.06, 60780.563, -0.0068042614, -0.08316477, -945209.7, -113367.82, 0.0, 9.998969, 9.999378 
1.14509866e+3, 2.251164e+2, -867772.3, -880493.9, -9424.512, 0.019586416, -0.08881689, -862762.94, -128915.27, 0.0, 9.999415, 9.99926 
1.1451128e+3, 2.3511516e+2, -412545.0, -611340.1, -42485.125, 0.047666315, -0.16420414, -403846.03, 232010.89, 0.0, 10.001871, 9.99925 
1.1451274e+3, 2.4511391e+2, -355536.44, -698000.44, 17755.361, 0.06794353, -0.13432804, -354618.34, 183252.08, 0.0, 10.002305, 9.997772 
1.1451427e+3, 2.5511247e+2, -469328.66, -694539.44, 34099.84, 0.09113396, -0.082334444, -464278.72, -24389.021, 0.0, 10.000832, 9.997828 
1.1451566e+3, 2.65111e+2, -303260.84, -514449.2, 28880.627, 0.005893859, -0.0306728, -299382.56, 42522.5, 0.00000038376965, 10.00106, 9.998297 
1.1451693e+3, 2.751092e+2, 59891.445, -294429.13, -318.62866, -0.18107663, -0.0662411, 59891.734, 303811.66, 0.0000075917305, 10.002903, 9.998244 
1.1451838e+3, 2.8510675e+2, 174141.28, -323000.25, -37908.58, -0.10813013, -0.06465942, 177015.31, 322958.28, 0.0000412879, 10.0036, 9.997038 
1.1452004e+3, 2.951037e+2, 196609.58, -260256.42, -37271.965, 0.24134342, -0.10311134, 199630.33, 247604.36, 0.00014511992, 10.003071, 9.997048 
1.14521384e+3, 3.0510065e+2, 249522.45, -216894.58, 7171.5894, 0.22510216, -0.10270789, 249632.69, 249632.69, 0.00038843177, 10.0031395, 9.99698 
1.14522606e+3, 3.1509787e+2, 429769.44, 70393.2, -44402.824, 0.033979077, -0.110189766, 435174.34, 435174.34, 0.0007935078, 10.003475, 9.998783 
1.1549458e+3, 1.2510021e+2, -1839426.4, -1813088.8, 89995.555, -0.1890371, 0.03725255, -1735303.6, -21295.945, 0.001489488, 9.999265, 9.999662 
1.15495995e+3, 1.3509904e+2, -2054842.3, -1904806.8, -122308.445, 0.014026113, -0.037370488, -1836342.8, -220315.06, 0.00075867696, 9.997283, 9.999335 
1.15497544e+3, 1.4509948e+2, -1813747.6, -1438274.1, 48448.863, 0.03790678, -0.055680294, -1432123.3, 85900.94, 0.0002361324, 9.996981, 10.001993 
1.1549923e+3, 1.5510178e+2, -1499141.3, -1237752.5, 79364.82, -0.04277648, -0.051714838, -1215542.4, 204452.47, 0.000024990082, 9.998486, 10.001967 
1.1550073e+3, 1.65103e+2, -1491673.1, -1347742.8, -84265.055, -0.05746314, -0.044905305, -1308894.6, 13085.807, 0.000000023716384, 9.998581, 10.000488 
1.1550213e+3, 1.7510305e+2, -1558657.0, -1326366.6, -65944.984, 0.03626042, -0.112692095, -1308951.1, -84969.195, 0.0, 9.997442, 10.000506 
1.1550366e+3, 1.8510361e+2, -1348604.9, -1135577.0, 117164.27, 0.028321102, -0.12079204, -1083747.4, 42226.715, 0.0, 9.998032, 10.000867 
1.155053e+3, 1.951043e+2, -928012.8, -881170.0, 173323.39, -0.0918723, -0.16540016, -729692.7, 298267.63, 0.0, 10.000244, 10.000871 
1.1550689e+3, 2.0510377e+2, -949183.6, -1091168.4, 21143.152, -0.06098451, -0.18807708, -946102.06, -16138.052, 0.0, 10.000494, 9.998644 
1.1550842e+3, 2.151018e+2, -1092360.0, -1111092.8, 10391.689, 0.12365834, -0.27414754, -1087736.5, -255749.44, 0.0, 9.998839, 9.998635 
1.15509965e+3, 2.2510092e+2, -931445.94, -980878.5, 72229.34, 0.15770628, -0.21828571, -879821.06, -145822.89, 0.0, 9.99928, 9.998635 
1.1551148e+3, 2.351009e+2, -477572.56, -711597.8, 60699.418, 0.039951704, -0.10896659, -462765.7, 173234.42, 0.0, 10.001721, 9.998635 
1.1551293e+3, 2.4509977e+2, -326440.72, -597796.7, -52264.547, 0.0077991597, -0.07451772, -316722.34, 221288.94, 0.0, 10.002138, 9.998537 
1.1551433e+3, 2.550974e+2, -435065.78, -600191.75, -10647.045, 0.051592022, -0.19217035, -434382.13, 5650.9233, 0.0, 10.000729, 9.998523 
1.15515836e+3, 2.6509556e+2, -348830.06, -588479.5, 85865.31, 0.048511118, -0.18567179, -321241.0, 20809.154, 0.0000005356376, 10.000973, 9.9978285 
1.1551742e+3, 2.7509406e+2, 15283.201, -355094.84, 81663.28, -0.0046586944, -0.14836772, 32489.498, 276554.4, 0.000008957139, 10.002768, 9.99789 
1.1551886e+3, 2.8509167e+2, 183583.75, -270772.25, -66174.164, -0.013195977, -0.14828002, 193025.4, 339112.88, 0.00004724257, 10.003461, 9.997464 
1.1552016e+3, 2.950881e+2, 218764.52, -214792.31, -35052.84, 0.013153298, -0.2799875, 221580.23, 269701.78, 0.00015981888, 10.003064, 9.99737 
1.155215e+3, 3.050862e+2, 201730.81, -297147.3, 14176.729, -0.009062214, -0.15259148, 202133.36, 202133.36, 0.00041743313, 10.003064, 9.996458 
1.15523085e+3, 3.1508553e+2, 369141.4, -23808.422, 11315.178, 0.103445135, 0.09897224, 369466.94, 369466.94, 0.0008473706, 10.003331, 9.998203 
1.1649451e+3, 1.250851e+2, -2108274.5, -1936678.3, 25640.12, -0.08735827, 0.017722836, -1932929.0, -218775.2, 0.0016512593, 9.9974, 9.999707 
1.1649569e+3, 1.350838e+2, -1841867.3, -1776937.9, -60094.65, -0.07904954, -0.08352326, -1741099.4, -124924.305, 0.0008513687, 9.998669, 9.999533 
1.1649735e+3, 1.4508443e+2, -1623096.3, -1349737.1, 184599.08, 0.08540849, -0.090561956, -1256725.4, 261444.33, 0.00027198074, 9.998306, 10.00196 
1.1649902e+3, 1.5508671e+2, -1828730.4, -1401783.8, 122401.29, 0.026588757, -0.084691264, -1369182.1, 50958.75, 0.00003101119, 9.996252, 10.001915 
1.1650055e+3, 1.650882e+2, -1743339.5, -1476811.9, -6304.9688, -0.011704486, -0.044823237, -1476662.9, -154537.73, 0.00000004774233, 9.996887, 10.000421 
1.1650198e+3, 1.7508881e+2, -1157539.6, -1144902.0, -26783.77, 0.012238232, -0.04822866, -1123701.8, 100421.86, 0.0, 10.000236, 10.000417 
1.1650355e+3, 1.850893e+2, -993945.1, -965372.25, 73972.21, 0.011175893, -0.055876892, -904319.5, 221797.22, 0.0, 10.000458, 10.000869 
1.16505235e+3, 1.9508947e+2, -1298975.3, -1060885.0, 15585.597, -0.041191455, -0.15286635, -1059869.0, -31761.834, 0.0, 9.997693, 10.000871 
1.1650686e+3, 2.0508887e+2, -1315685.4, -1227837.8, -82262.43, 0.00929509, -0.19896579, -1178507.1, -248396.44, 0.0, 9.997813, 9.998991 
1.1650845e+3, 2.1508737e+2, -791512.3, -921248.75, -43529.44, 0.16730842, -0.27538815, -778260.75, 53867.56, 0.0, 10.0007305, 9.999016 
1.1651002e+3, 2.2508675e+2, -601088.94, -839914.3, 100170.46, 0.178803, -0.20513424, -564637.9, 169499.72, 0.0, 10.001635, 9.998467 
1.165116e+3, 2.3508666e+2, -658202.3, -816388.6, 99451.23, 0.052797265, -0.08342947, -610227.44, 25914.553, 0.0, 10.0005665, 9.998472 
1.1651309e+3, 2.4508555e+2, -496105.38, -667043.2, -16639.309, 0.014006213, -0.045581996, -494500.75, 43652.395, 0.0, 10.000898, 9.998667 
1.1651449e+3, 2.5508332e+2, -165257.69, -459306.47, -43595.043, 0.05376605, -0.16194403, -158930.52, 281241.56, 0.0, 10.002511, 9.998644 
1.1651603e+3, 2.6508126e+2, -112104.055, -465998.88, 75825.84, 0.080357455, -0.18586883, -96541.87, 245648.17, 0.00000056359414, 10.002569, 9.997895 
1.165177e+3, 2.750792e+2, -224864.14, -466668.16, 78660.875, 0.098293565, -0.20948133, -201527.36, 42682.082, 0.00000928475, 10.001108, 9.997924 
1.16519175e+3, 2.8507692e+2, -67046.0, -371979.6, -9782.694, 0.06483539, -0.21197931, -66732.484, 79498.05, 0.000050363375, 10.001656, 9.997633 
1.1652047e+3, 2.9507414e+2, 379433.44, -113517.5, -26799.367, -0.022405768, -0.2797985, 380886.1, 429142.16, 0.00017050822, 10.0040865, 9.9975605 
1.1652183e+3, 3.0507243e+2, 396400.16, -210655.92, -4137.587, -0.045292012, -0.13885206, 396428.34, 396428.34, 0.00044292747, 10.004432, 9.996402 
1.1652349e+3, 3.150708e+2, 207282.19, -124407.26, -8349.261, 0.23694885, 0.028439354, 207492.22, 207492.22, 0.00089617184, 10.002314, 9.998015 
1.17494345e+3, 1.2506704e+2, -1995613.8, -1681603.3, -24717.31, -0.043213114, -0.23615961, -1679669.5, 34661.996, 0.0018234614, 9.99732, 10.001495 
1.1749547e+3, 1.350699e+2, -1694316.4, -1477756.0, -1687.8674, -0.19957963, -0.12496236, -1477742.9, 138561.63, 0.0009506097, 9.998695, 10.001576 
1.1749713e+3, 1.4507154e+2, -1684172.6, -1474576.5, 94455.98, 0.0036644288, -0.09320878, -1438291.0, 79996.766, 0.00031097958, 9.9983015, 10.001101 
1.1749864e+3, 1.550714e+2, -1893595.3, -1535846.5, 58287.766, -0.004092324, -0.23914538, -1526589.3, -106302.516, 0.00003785508, 9.996246, 10.0009985 
1.1750021e+3, 1.650724e+2, -1772361.8, -1529884.6, 106856.51, -0.06601423, -0.18383804, -1489515.4, -167236.92, 0.00000010132158, 9.996858, 10.000067 
1.1750191e+3, 1.7507441e+2, -1186972.9, -1196056.1, 109240.25, -0.1083398, -0.016431108, -1082179.9, 142083.97, 0.0, 10.000191, 10.000086 
1.1750355e+3, 1.8507482e+2, -1087507.6, -1145718.0, -43645.66, -0.057639804, 0.042467523, -1064152.8, 62109.6, 0.0, 10.000401, 9.999658 
1.1750514e+3, 1.9507335e+2, -1391633.8, -1241883.6, -72753.04, 0.0661749, -0.09632763, -1212359.0, -184082.66, 0.0, 9.99764, 9.999657 
1.17506735e+3, 2.0507315e+2, -1232997.8, -1037305.7, 14559.758, 0.08730224, -0.10986158, -1036228.3, -105951.74, 0.0, 9.997733, 10.000336 
1.175084e+3, 2.1507397e+2, -720292.6, -738952.75, 75389.49, 0.029103193, -0.08920282, -653658.06, 178607.3, 0.0, 10.000576, 10.000344 
1.1751001e+3, 2.2507377e+2, -609112.2, -810841.4, 45416.438, -0.004875518, -0.05684211, -599358.94, 134908.14, 0.0, 10.001441, 9.998758 
1.175116e+3, 2.3507243e+2, -661398.25, -781775.6, 72468.54, -0.02077578, -0.09365284, -627383.1, 8900.001, 0.0, 10.000394, 9.998788 
1.1751316e+3, 2.4507129e+2, -554862.94, -750912.25, 33097.17, -0.01907684, -0.04917452, -549426.2, -11130.41, 0.0, 10.000732, 9.998174 
1.1751471e+3, 2.5507015e+2, -211546.98, -525455.56, 29196.213, -0.0003351927, -0.010423493, -208854.58, 231452.69, 0.0, 10.002382, 9.998249 
1.1751626e+3, 2.65068e+2, -96657.43, -408440.38, 9188.644, 0.024373025, -0.048638526, -96386.87, 245938.55, 0.0000005132723, 10.002455, 9.99835 
1.1751778e+3, 2.750646e+2, -201537.1, -410569.84, 40311.836, 0.03177277, -0.25321302, -194032.4, 50321.07, 0.000009286575, 10.001071, 9.998329 
1.1751933e+3, 2.8506237e+2, -89528.336, -403298.47, 72061.09, 0.023913722, -0.2517781, -73770.055, 72601.84, 0.00005131962, 10.001588, 9.997452 
1.17520936e+3, 2.9506135e+2, 369167.53, -122673.016, 79265.12, 0.010029256, -0.13526088, 381626.3, 430008.0, 0.0001770123, 10.00402, 9.997533 
1.1752234e+3, 3.05059e+2, 408628.34, -149228.9, -87988.6, 0.012499334, -0.08898379, 422177.34, 422177.34, 0.0004593758, 10.004294, 9.996885 
1.1752377e+3, 3.1505415e+2, 216120.5, -78891.78, -52590.5, 0.24196771, -0.28830743, 225215.19, 225215.19, 0.0009233711, 10.002214, 9.998369 
1.1849415e+3, 1.250526e+2, -2086196.1, -1663190.5, 55942.32, 0.09663089, -0.23589532, -1655917.1, 58556.586, 0.0020081834, 9.996413, 10.002056 
1.1849525e+3, 1.3505621e+2, -1956675.5, -1522632.1, 10907.529, -0.16113019, -0.13364449, -1522358.1, 94076.89, 0.0010574218, 9.996514, 10.002328 
1.1849694e+3, 1.4505774e+2, -1843848.6, -1638395.5, 63194.895, 0.023970755, -0.10996979, -1620513.8, -102094.68, 0.00035351914, 9.997583, 10.000319 
1.1849846e+3, 1.5505712e+2, -1445331.1, -1400755.3, 2164.6338, 0.03228514, -0.22819856, -1400650.4, 19776.258, 0.00004562391, 9.999682, 10.000261 
1.1850006e+3, 1.6505766e+2, -1382991.0, -1335335.3, 118986.47, -0.024297781, -0.18556659, -1237814.3, 84608.914, 0.00000019883093, 9.999499, 10.0001335 
1.1850178e+3, 1.7505921e+2, -1628010.4, -1394379.4, 127153.44, -0.089853965, -0.0752496, -1338528.0, -114117.51, 0.0, 9.997114, 10.0002 
1.1850345e+3, 1.850597e+2, -1546505.5, -1397932.4, 34829.36, -0.041501153, -0.00010634609, -1390172.8, -263763.8, 0.0, 9.997394, 9.9993725 
1.1850505e+3, 1.9505885e+2, -1017799.7, -1087446.4, 45782.42, 0.097365886, -0.048527576, -995101.8, 33319.29, 0.0, 10.000328, 9.999415 
1.1850669e+3, 2.0505886e+2, -787946.3, -845640.06, 151583.86, 0.11142565, -0.019528259, -662488.94, 267932.5, 0.0, 10.000889, 10.00014 
1.18508376e+3, 2.1505937e+2, -945982.2, -865418.4, 77668.016, 0.025631366, -0.00720131, -818207.7, 14205.518, 0.0, 9.999114, 10.000181 
1.1851001e+3, 2.250591e+2, -944909.25, -917875.8, 9107.825, -0.01195071, 0.0016393553, -915093.6, -180678.98, 0.0, 9.998884, 9.99926 
1.18511625e+3, 2.3505789e+2, -660542.5, -728046.5, 22671.857, -0.013542475, -0.07245917, -653634.8, -17207.377, 0.0, 10.000149, 9.999282 
1.1851326e+3, 2.4505703e+2, -518425.3, -704329.56, 72029.54, 0.0035050197, -0.03740772, -493783.4, 44653.1, 0.0, 10.000869, 9.998424 
1.1851492e+3, 2.5505626e+2, -381265.84, -587788.9, 93160.08, 0.040518098, 0.020360405, -345452.78, 94991.96, 0.0, 10.001135, 9.998427 
1.18516505e+3, 2.6505446e+2, -201479.72, -457151.44, 55428.14, 0.06797579, 0.0068313577, -189980.42, 152479.63, 0.0000005059796, 10.001744, 9.99835 
1.1851798e+3, 2.7505136e+2, 26231.07, -305244.06, 22509.736, 0.062273763, -0.16277774, 27752.672, 272237.84, 0.000009353779, 10.002665, 9.998283 
1.1851958e+3, 2.8504887e+2, 87685.97, -325176.5, 112067.88, 0.06617977, -0.18855873, 116144.21, 262650.7, 0.000051335024, 10.002845, 9.997377 
1.1852134e+3, 2.9504693e+2, 109382.34, -258260.73, 98318.68, 0.102313705, -0.14972194, 134024.03, 182548.11, 0.00017979782, 10.002288, 9.997433 
1.1852274e+3, 3.0504453e+2, 209656.52, -224838.36, -107416.66, 0.064446256, -0.11134331, 234761.69, 234761.69, 0.0004625388, 10.002819, 9.997082 
1.1852404e+3, 3.1504014e+2, 488506.47, 37601.273, -131456.81, 0.20332211, -0.2861499, 524032.38, 524032.38, 0.0009202505, 10.004122, 9.99826 
1.1949379e+3, 1.2504165e+2, -2127783.5, -1746515.0, -41909.754, 0.033250548, -0.021850798, -1741962.5, -27380.8, 0.0022081332, 9.996398, 10.001491 
1.1949502e+3, 1.3504283e+2, -1991049.9, -1589145.9, 24812.568, -0.06761544, -0.120883696, -1587619.8, 28946.256, 0.0011730703, 9.99649, 10.001883 
1.19496725e+3, 1.4504309e+2, -1900995.6, -1749162.8, 129098.58, 0.027474297, -0.16250372, -1675313.5, -156749.77, 0.00040013902, 9.997551, 9.999577 
1.1949848e+3, 1.55044e+2, -1491470.0, -1506667.5, 93822.65, 0.043698806, -0.050819628, -1404938.9, 15620.521, 0.00005450229, 9.999715, 9.999526 
1.1950006e+3, 1.6504416e+2, -1339806.5, -1249907.1, 11890.6455, 0.011300638, -0.04125595, -1248361.0, 74197.13, 0.00000035173326, 9.999515, 10.000714 
1.1950158e+3, 1.7504331e+2, -1595170.8, -1319184.0, 47946.953, -0.022140933, -0.22453108, -1311091.5, -86529.31, 0.0, 9.99708, 10.000736 
1.1950322e+3, 1.8504398e+2, -1510562.0, -1315917.3, 132554.27, -0.038916074, -0.1862099, -1248794.3, -122238.01, 0.0, 9.997363, 9.999949 
1.19504966e+3, 1.9504596e+2, -993790.75, -1014247.9, 165680.61, -0.043990478, -0.009372062, -838023.25, 190518.52, 0.0, 10.000225, 9.99997 
1.19506665e+3, 2.0504594e+2, -921999.0, -1093740.6, 68373.55, -0.015392105, 0.07234208, -898103.06, 32442.857, 0.0, 10.000763, 9.998493 
1.19508326e+3, 2.1504366e+2, -1082448.6, -1114645.5, 21762.986, 0.056940217, -0.03161004, -1071477.0, -238905.9, 0.0, 9.998971, 9.998536 
1.1950999e+3, 2.250428e+2, -918311.44, -831502.06, 44160.125, 0.05472461, -0.034023236, -812986.8, -78406.94, 0.0, 9.998748, 9.999917 
1.1951165e+3, 2.3504315e+2, -633460.75, -638089.4, 79951.48, -0.021959694, -0.01943858, -555790.1, 80783.99, 0.0, 10.000006, 9.999966 
1.1951333e+3, 2.4504292e+2, -476891.66, -587986.94, 67543.74, -0.01874216, 0.001151766, -444988.2, 93586.23, 0.0, 10.000732, 9.999293 
1.1951508e+3, 2.5504193e+2, -339145.66, -466892.56, 113458.33, 0.064144515, -0.054435384, -272816.9, 167766.05, 0.0, 10.000994, 9.999324 
1.1951672e+3, 2.650408e+2, -262446.13, -555721.4, 77306.71, 0.10396391, -0.011896062, -243316.1, 99276.74, 0.0000006389743, 10.001617, 9.997741 
1.19518295e+3, 2.750394e+2, -24039.688, -386132.72, 69148.82, 0.09372638, 0.04595863, -11283.726, 233322.4, 0.000009301616, 10.002566, 9.997776 
1.1951992e+3, 2.850362e+2, 73881.734, -336611.56, 79773.23, 0.10227016, -0.023741724, 88839.43, 235474.4, 0.000051838055, 10.002765, 9.99734 
1.1952163e+3, 2.9503098e+2, 94540.37, -277047.97, 95090.94, 0.135022, -0.3141884, 117460.74, 166142.67, 0.00018153801, 10.002224, 9.997338 
1.19522974e+3, 3.050291e+2, 173680.86, -267578.78, -61043.555, 0.0015184999, -0.20217444, 181969.88, 181969.88, 0.0004580292, 10.002692, 9.996843 
1.1952423e+3, 3.150283e+2, 424942.75, -51246.734, -31614.252, -0.072911724, 0.002519347, 427032.44, 427032.44, 0.000896949, 10.003944, 9.997727 
1.2049347e+3, 1.2502721e+2, -2190898.3, -1818360.9, -116109.34, 0.09589408, 0.006322867, -1785136.1, -70411.734, 0.0024257244, 9.996174, 10.001111 
1.2049483e+3, 1.3502781e+2, -1788357.9, -1554711.5, -85256.7, 0.016838344, -0.08296336, -1526909.8, 89806.2, 0.0012988481, 9.998185, 10.001295 
1.204965e+3, 1.4502738e+2, -1760189.3, -1672921.0, 53853.94, 0.003288101, -0.16559184, -1647242.9, -128522.01, 0.00045139206, 9.998469, 9.9996605 
1.20498404e+3, 1.5502882e+2, -1850939.9, -1663768.0, 52375.598, 0.13563645, -0.017614564, -1650108.8, -229397.77, 0.00006471426, 9.997185, 9.999666 
1.2050003e+3, 1.6502915e+2, -1669716.5, -1397810.8, -24807.08, 0.13698505, -0.0019770728, -1395566.1, -72859.16, 0.00000057087306, 9.997204, 10.000808 
1.2050143e+3, 1.7502806e+2, -1360531.1, -1192850.5, -48419.043, 0.03688296, -0.21987243, -1179873.4, 44838.875, 0.0, 9.998637, 10.000846 
1.2050305e+3, 1.8502857e+2, -1294905.9, -1226681.6, 77323.82, -0.009924577, -0.19593361, -1176279.8, -49572.277, 0.0, 9.998909, 9.999813 
1.2050491e+3, 1.950304e+2, -1314610.6, -1179282.4, 36515.977, -0.010066613, -0.021073611, -1170057.9, -141363.16, 0.0, 9.998072, 9.9998665 
1.2050665e+3, 2.0503044e+2, -1261876.8, -1239394.8, -37208.973, 0.026128197, 0.060943283, -1211765.9, -281067.44, 0.0, 9.998342, 9.998659 
1.205083e+3, 2.1502836e+2, -955782.7, -1036949.56, 23942.992, 0.104362294, -0.039724328, -949246.25, -116525.21, 0.0, 9.999747, 9.998701 
1.2050998e+3, 2.250275e+2, -693232.44, -738464.5, 134696.17, 0.104963444, -0.043030743, -579266.8, 155462.55, 0.0, 10.000367, 9.999778 
1.20511696e+3, 2.350276e+2, -611987.75, -643990.0, 88394.06, 0.03231754, -0.0343477, -538158.2, 98567.47, 0.0, 10.000232, 9.999819 
1.2051342e+3, 2.4502733e+2, -533975.6, -597426.94, 27281.791, 0.02262011, -0.019769773, -523858.53, 14867.877, 0.0, 10.00027, 9.999441 
1.2051512e+3, 2.5502637e+2, -405707.38, -485999.75, -5879.2275, 0.056592524, -0.08486063, -405279.16, 35455.28, 0.00000000020898414, 10.000475, 9.99944 
1.2051684e+3, 2.6502544e+2, -341670.97, -578305.94, 8350.011, 0.09141189, -0.035059113, -341376.7, 1366.2963, 0.00000074892756, 10.001011, 9.997868 
1.2051854e+3, 2.750244e+2, -110473.25, -413366.6, 25245.014, 0.12811871, 0.04732609, -108383.586, 136370.23, 0.000009032264, 10.001908, 9.997895 
1.2052024e+3, 2.8502157e+2, 48674.04, -304783.5, 51634.82, 0.1660993, -0.012196553, 56062.66, 202842.28, 0.000052112464, 10.002412, 9.997726 
1.20521925e+3, 2.9501677e+2, 149661.66, -204490.42, 64163.36, 0.20359564, -0.29844522, 160928.02, 209750.61, 0.00018292993, 10.002424, 9.997733 
1.2052329e+3, 3.050151e+2, 276154.9, -172068.31, 33401.773, 0.028020807, -0.206454, 278630.34, 278630.34, 0.000455038, 10.003205, 9.997247 
1.205246e+3, 3.150147e+2, 485677.44, -7192.2056, 68056.75, -0.10389424, -0.0031446528, 494902.25, 494902.25, 0.0008751653, 10.004336, 9.997827 
1.2149313e+3, 1.2500906e+2, -2204900.3, -1836440.9, -27307.678, 0.0848145, -0.18553221, -1834428.0, -119523.96, 0.0026624324, 9.996147, 10.00099 
1.21494666e+3, 1.3501126e+2, -1851527.9, -1692116.6, -3472.2146, 0.008904987, -0.021150077, -1692041.1, -75156.93, 0.0014356553, 9.998206, 10.000346 
1.2149623e+3, 1.4501078e+2, -1687841.3, -1515641.8, -11132.718, -0.14652868, -0.117450945, -1514925.0, 3964.2493, 0.0005075534, 9.998449, 10.000743 
1.2149822e+3, 1.5501156e+2, -1782681.8, -1517168.4, 17363.06, 0.20945084, -0.14049119, -1516037.8, -95156.805, 0.000076397075, 9.997162, 10.000684 
1.2149988e+3, 1.6501254e+2, -1700334.8, -1456601.8, 16933.686, 0.24651316, -0.0881953, -1455430.9, -132560.45, 0.0000008702971, 9.997189, 10.000406 
1.2150127e+3, 1.7501347e+2, -1394333.0, -1253709.1, 15831.078, -0.00056815625, -0.064020246, -1251948.9, -27088.633, 0.0, 9.998596, 10.000448 
1.2150293e+3, 1.8501349e+2, -1347993.6, -1332749.5, 31911.62, -0.05022326, -0.033564005, -1307562.4, -180700.13, 0.0, 9.998891, 9.999095 
1.2150484e+3, 1.9501236e+2, -1377174.0, -1293578.9, 17522.184, 0.09313854, -0.08484073, -1290054.6, -261176.13, 0.0, 9.998002, 9.999118 
1.2150662e+3, 2.0501246e+2, -1144277.3, -969524.56, 2710.401, 0.13091768, -0.05231198, -969482.56, -38604.695, 0.0, 9.998234, 10.00056 
1.2150826e+3, 2.1501358e+2, -847424.9, -769804.6, 86176.91, 0.07038808, -0.025460431, -714101.9, 118760.23, 0.0, 9.999567, 10.000618 
1.21509984e+3, 2.250133e+2, -781551.9, -886501.06, 115244.41, 0.047747258, -0.019762347, -707397.6, 27464.818, 0.0, 10.000209, 9.998842 
1.21511765e+3, 2.3501141e+2, -695535.4, -788413.4, 95383.85, 0.06563071, -0.1179492, -635886.4, 994.53625, 0.0, 10.000102, 9.998892 
1.2151346e+3, 2.4501033e+2, -599352.94, -695798.06, 26263.883, 0.025967596, -0.107188754, -592664.6, -53772.83, 0.0, 10.000114, 9.9988365 
1.2151507e+3, 2.550098e+2, -460948.84, -580361.75, 13921.251, -0.06715022, -0.072882205, -459347.38, -18449.682, 0.00000000018849695, 10.000388, 9.998831 
1.2151681e+3, 2.6500863e+2, -300543.5, -472187.44, 31090.44, -0.059516754, -0.054606047, -295085.53, 47822.793, 0.00000061447383, 10.000917, 9.998644 
1.2151869e+3, 2.7500662e+2, -69057.85, -306018.3, 71583.86, 0.059697285, -0.14774616, -49111.875, 195814.53, 0.000008322687, 10.001808, 9.998684 
1.2152048e+3, 2.8500512e+2, 69389.44, -220586.47, 40691.57, 0.14811018, -0.14429314, 74991.36, 221930.55, 0.000050693892, 10.002245, 9.998382 
1.21522196e+3, 2.9500416e+2, 185838.89, -106829.016, 80779.06, 0.20038958, -0.11640085, 206654.22, 255601.52, 0.00018223259, 10.00233, 9.998447 
1.2152365e+3, 3.0500227e+2, 316827.63, -60997.355, 63666.06, 0.043463465, -0.12318611, 327267.3, 327267.3, 0.00045375043, 10.003094, 9.998065 
1.21525064e+3, 3.149991e+2, 509978.06, 75577.53, 147722.83, -0.11893865, -0.27516824, 555452.5, 555452.5, 0.0008639957, 10.004206, 9.998457 
1.224928e+3, 1.2499245e+2, -2000057.1, -1696960.5, 32591.563, 0.09456834, -0.14978711, -1693495.6, 21576.709, 0.0029179724, 9.997324, 10.001398 
1.2249437e+3, 1.3499492e+2, -2122242.0, -1831178.3, 15380.387, -0.0008878604, 0.047534447, -1830367.9, -213318.45, 0.0015834377, 9.996377, 10.000277 
1.224959e+3, 1.4499488e+2, -1965135.0, -1585650.9, 24409.563, -0.19977099, -0.029774273, -1584087.3, -65038.473, 0.00056846405, 9.996273, 10.001313 
1.2249798e+3, 1.5499565e+2, -1716054.5, -1410384.5, -11261.085, 0.26567113, -0.1181651, -1409970.3, 11068.127, 0.00008951281, 9.997309, 10.001336 
1.22499704e+3, 1.649967e+2, -1598119.5, -1447284.8, 46279.7, 0.32621226, -0.074953794, -1434217.1, -111189.97, 0.0000012652538, 9.998029, 10.000087 
1.2250111e+3, 1.749978e+2, -1438566.0, -1308830.8, 32450.783, 0.00025175585, -0.0038631014, -1301166.5, -76148.414, 0.0, 9.998416, 10.000172 
1.225028e+3, 1.8499786e+2, -1327025.9, -1274707.6, 77901.81, -0.06412314, 0.023701586, -1218690.1, -91671.234, 0.0, 9.998824, 9.999528 
1.2250473e+3, 1.9499667e+2, -1147650.4, -1132067.9, 121873.03, 0.12846798, -0.07620147, -1017737.3, 11294.547, 0.0, 9.999364, 9.999573 
1.2250656e+3, 2.0499669e+2, -943758.25, -879024.8, 133824.42, 0.1804837, -0.07249565, -773708.7, 157321.33, 0.0, 9.99963, 10.000512 
1.2250824e+3, 2.149977e+2, -850665.4, -775378.2, 50974.934, 0.09186576, -0.052116483, -749653.94, 83361.47, 0.0, 9.999568, 10.000578 
1.2251001e+3, 2.2499727e+2, -844130.44, -950731.06, 44124.113, 0.08075699, -0.044105608, -828236.4, -93218.69, 0.0, 9.999923, 9.998536 
1.2251188e+3, 2.3499517e+2, -632669.4, -792539.06, 39772.637, 0.14068422, -0.13251753, -623321.25, 13717.764, 0.0, 10.000679, 9.998585 
1.22513585e+3, 2.4499382e+2, -467830.63, -671848.94, 24371.1, 0.088734075, -0.11645804, -464959.75, 74093.484, 0.0, 10.001177, 9.998499 
1.2251515e+3, 2.5499302e+2, -328380.72, -548272.44, 11593.965, -0.071940124, -0.07311087, -327771.1, 113290.94, 0.0, 10.001448, 9.998539 
1.2251692e+3, 2.6499173e+2, -190730.56, -396607.16, 43871.883, -0.073717244, -0.06414085, -181771.42, 161302.84, 0.0000003685213, 10.001576, 9.998846 
1.22518875e+3, 2.749897e+2, -108876.41, -301109.78, 15585.1875, 0.083670296, -0.17960404, -107621.04, 137471.77, 0.0000073761885, 10.0014515, 9.998882 
1.2252066e+3, 2.8498882e+2, -29374.947, -256858.22, -42960.867, 0.15913384, -0.1294161, -21532.063, 125568.32, 0.00004908337, 10.001487, 9.998506 
1.22522324e+3, 2.9498908e+2, 77513.03, -150598.25, -66881.695, 0.15445746, 0.013771522, 95676.336, 144774.38, 0.00018069774, 10.001533, 9.998542 
1.2252391e+3, 3.0498663e+2, 278810.34, -93775.66, -43171.813, 0.02015068, -0.04867914, 283747.25, 283747.25, 0.00045143487, 10.002896, 9.997927 
1.22525595e+3, 3.1498265e+2, 646709.1, 103249.97, -67767.016, -0.049258377, -0.26414493, 655031.9, 655031.9, 0.0008578977, 10.00526, 9.998153 
1.23492606e+3, 1.249777e+2, -1916635.0, -1531661.4, 50027.992, 0.120565176, 0.14789768, -1525266.4, 189960.36, 0.0031899144, 9.99735, 10.0025215 
1.2349389e+3, 1.3497871e+2, -2056651.4, -1703041.5, -21278.813, -0.14233628, 0.1071522, -1701765.6, -84553.09, 0.0017411282, 9.996394, 10.001151 
1.2349548e+3, 1.449796e+2, -1959104.0, -1577515.5, 49644.22, -0.28056425, 0.07548168, -1571162.6, -51962.313, 0.0006337289, 9.9962845, 10.0013685 
1.23497695e+3, 1.54981e+2, -1707560.4, -1400600.8, 37588.516, 0.21537814, 0.048749726, -1396065.0, 25118.66, 0.00010392506, 9.997324, 10.001407 
1.234995e+3, 1.6498159e+2, -1600537.1, -1451186.3, 43874.37, 0.28480738, 0.03951694, -1439251.3, -116073.336, 0.0000017603737, 9.998027, 10.000058 
1.2350091e+3, 1.749811e+2, -1445093.4, -1320705.3, 55252.305, -0.06019816, -0.04249385, -1299707.3, -74522.086, 0.0, 9.998402, 10.000099 
1.2350261e+3, 1.8498172e+2, -1227082.5, -1060124.0, 85403.85, -0.1541718, -0.030545432, -1024177.06, 103000.37, 0.0, 9.998793, 10.001019 
1.2350458e+3, 1.9498326e+2, -1054009.1, -920490.25, 153237.77, 0.0047966926, -0.0042691682, -820101.1, 209054.92, 0.0, 9.999283, 10.001068 
1.23506434e+3, 2.0498304e+2, -1094181.9, -1161039.4, 114973.4, 0.08346059, -0.005154579, -1007876.06, -76719.98, 0.0, 9.999503, 9.998636 
1.235082e+3, 2.1498083e+2, -1004226.1, -1063699.8, 58852.24, 0.08032494, -0.120141685, -968024.6, -134844.63, 0.0, 9.999433, 9.998666 
1.2351005e+3, 2.2497949e+2, -848423.56, -926570.44, 61165.61, 0.105531804, -0.11703392, -814916.25, -79722.28, 0.0, 9.999777, 9.998775 
1.23511985e+3, 2.349789e+2, -638068.1, -772103.5, 81672.336, 0.16175312, -0.080307685, -599436.7, 37763.246, 0.0, 10.000537, 9.998797 
1.2351374e+3, 2.449778e+2, -490455.06, -686036.94, 22614.89, 0.101778276, -0.04603869, -487874.2, 51336.492, 0.0, 10.001036, 9.998468 
1.2351533e+3, 2.54976e+2, -342701.22, -557886.25, 33946.85, -0.06098096, -0.10073338, -337472.9, 103755.36, 0.0, 10.001349, 9.998526 
1.235171e+3, 2.6497462e+2, -242378.5, -466634.72, 30071.186, -0.05771657, -0.08267114, -238416.17, 104826.016, 0.00000016286783, 10.001425, 9.998435 
1.23519056e+3, 2.7497345e+2, -152860.38, -369880.28, 26473.236, 0.102639966, -0.069088176, -149677.7, 95576.664, 0.000006622681, 10.001357, 9.998452 
1.2352079e+3, 2.8497255e+2, -67898.06, -315416.72, -49459.215, 0.10261542, 0.018054755, -58381.04, 88882.93, 0.00004875032, 10.0014, 9.998146 
1.23522304e+3, 2.9497162e+2, 50983.953, -203542.97, -45705.34, -0.048158467, 0.080644436, 58942.406, 108216.4, 0.00018165374, 10.001515, 9.998191 
1.2352405e+3, 3.049682e+2, 188262.95, -260315.28, 45305.35, -0.1569609, -0.005849109, 192792.94, 192792.94, 0.00045300575, 10.002803, 9.996829 
1.2352613e+3, 3.149653e+2, 538572.2, -62860.395, 64194.02, -0.09944203, -0.012880215, 545347.6, 545347.6, 0.0008590856, 10.00501, 9.99713 
1.2449235e+3, 1.2496137e+2, -1995405.0, -1554668.1, 114189.99, 0.16829015, 0.26306146, -1526839.9, 188548.06, 0.003475539, 9.996776, 10.002624 
1.2449358e+3, 1.3496101e+2, -2004790.8, -1636380.5, -74585.08, -0.09304742, 0.048676934, -1621853.5, -4468.2925, 0.0019075654, 9.996576, 10.00152 
1.244953e+3, 1.4496228e+2, -1894398.1, -1557133.3, 55423.813, -0.107886046, 0.04054364, -1548258.8, -28890.02, 0.0007030745, 9.996777, 10.001271 
1.2449738e+3, 1.5496376e+2, -1695389.4, -1409102.4, 3201.5098, 0.16666606, 0.03292334, -1409066.5, 12285.75, 0.00011956255, 9.997471, 10.001278 
1.2449918e+3, 1.6496445e+2, -1621823.9, -1432355.3, 11639.394, 0.19082077, 0.031037314, -1431642.9, -108296.99, 0.0000023468863, 9.997777, 10.000299 
1.2450077e+3, 1.7496426e+2, -1518064.1, -1324735.0, 17677.748, -0.0133083975, -0.044011436, -1323131.9, -97781.36, 0.0, 9.997796, 10.000351 
1.24502525e+3, 1.8496509e+2, -1311217.8, -1098171.8, 42129.957, -0.07528785, -0.025959015, -1090143.1, 37197.277, 0.0, 9.99819, 10.001049 
1.2450447e+3, 1.9496666e+2, -1102011.1, -943392.94, -17399.127, 0.0029510746, -0.0026518865, -941506.8, 87811.48, 0.0, 9.998933, 10.001083 
1.2450637e+3, 2.0496629e+2, -1123164.6, -1205006.5, -43399.566, 0.078490324, -0.0053917775, -1104436.3, -173116.27, 0.0, 9.999429, 9.998371 
1.24508224e+3, 2.149638e+2, -991952.25, -1083181.9, -6262.0225, 0.15946935, -0.12238984, -991524.44, -158177.1, 0.0, 9.999626, 9.998437 
1.2451011e+3, 2.2496244e+2, -802608.7, -896525.4, 97283.016, 0.17940126, -0.11416972, -741543.56, -6181.9253, 0.0, 10.000069, 9.998834 
1.2451201e+3, 2.3496197e+2, -599489.56, -742363.4, 80983.59, 0.1376341, -0.071428746, -562937.7, 74427.76, 0.0, 10.000766, 9.998881 
1.24513805e+3, 2.4496086e+2, -473810.03, -691770.1, 20050.53, 0.06668273, -0.03748434, -471980.9, 67395.22, 0.0, 10.001203, 9.998353 
1.2451549e+3, 2.5495893e+2, -352775.4, -573856.1, 1104.5231, -0.028690187, -0.09305611, -352769.88, 88625.45, 0.0, 10.001332, 9.998422 
1.24517284e+3, 2.6495737e+2, -215076.97, -473486.4, 23153.422, -0.0199931, -0.07917821, -213018.83, 130391.914, 0.000000050542315, 10.001682, 9.998267 
1.24519214e+3, 2.7495596e+2, -40463.527, -340765.22, 13149.164, 0.090107195, -0.07221268, -39888.87, 205535.63, 0.0000061370592, 10.002213, 9.998255 
1.2452099e+3, 2.8495464e+2, 117676.96, -282087.75, -23116.678, 0.090578414, 0.012521081, 119009.26, 266447.84, 0.000049451537, 10.002935, 9.997627 
1.245226e+3, 2.9495317e+2, 350297.1, -112230.805, -63243.39, -0.011197367, 0.06842146, 358788.72, 408245.38, 0.00018703903, 10.003829, 9.99769 
1.2452444e+3, 3.049494e+2, 293388.4, -187855.38, 82449.42, -0.065771565, -0.038839173, 307122.16, 307122.16, 0.00046630288, 10.003408, 9.997051 
1.24526575e+3, 3.1494787e+2, 73815.28, -216229.64, 156406.42, 0.03752622, 0.07593314, 142087.19, 142087.19, 0.0008809238, 10.0015135, 9.997766 
1.2549199e+3, 1.24943435e+2, -2059675.5, -1705560.1, 26065.299, 0.0832754, 0.1792743, -1703651.9, 11904.2705, 0.0037739007, 9.996834, 10.001565 
1.2549342e+3, 1.3494194e+2, -2010623.8, -1658694.8, -72417.54, 0.07136605, -0.12952712, -1644375.8, -26809.742, 0.0020822603, 9.996609, 10.001358 
1.2549534e+3, 1.4494304e+2, -1908009.3, -1589008.3, 66644.69, 0.23820527, -0.13611035, -1575644.9, -56092.125, 0.0007764397, 9.99679, 10.001045 
1.25497e+3, 1.5494399e+2, -1711357.0, -1447960.3, 39646.402, 0.016765283, -0.17147772, -1442122.1, -20578.658, 0.00013646827, 9.997489, 10.001004 
1.2549874e+3, 1.6494538e+2, -1591631.3, -1375339.4, -2841.4263, -0.05437465, -0.1092714, -1375302.0, -51771.188, 0.0000030208696, 9.997795, 10.000685 
1.2550065e+3, 1.7494729e+2, -1490511.0, -1267052.8, 27756.639, 0.058495063, -0.014725487, -1263656.6, -38142.52, 0.0, 9.997786, 10.000753 
1.2550254e+3, 1.8494795e+2, -1405269.1, -1287077.9, 56881.145, 0.08787035, 0.029576603, -1264150.5, -136642.19, 0.0, 9.99816, 9.999768 
1.255044e+3, 1.9494693e+2, -1200469.5, -1135772.3, 22032.049, 0.023636581, -0.0768341, -1128982.1, -99464.375, 0.0, 9.998874, 9.999793 
1.2550633e+3, 2.0494653e+2, -1053352.0, -1026762.75, -48071.46, 0.0700712, -0.082225576, -990181.4, -58661.17, 0.0, 9.999291, 9.999661 
1.2550828e+3, 2.1494663e+2, -924676.3, -909383.4, 12592.208, 0.23162799, -0.06627422, -902297.8, -68780.56, 0.0, 9.999478, 9.999705 
1.2551014e+3, 2.2494598e+2, -831776.25, -919591.0, 109663.516, 0.19826055, -0.047203973, -757556.8, -22034.965, 0.0, 9.999908, 9.998751 
1.2551194e+3, 2.3494437e+2, -624700.4, -766021.9, 116890.766, -0.021111848, -0.11024587, -558772.75, 78763.41, 0.0, 10.000635, 9.998786 
1.2551376e+3, 2.4494305e+2, -507817.0, -726273.1, 12585.165, -0.10720308, -0.08550471, -507094.38, 32454.924, 0.0, 10.00105, 9.998188 
1.255156e+3, 2.549418e+2, -386979.2, -616110.25, 17503.44, -0.06377175, -0.056909397, -385649.8, 55913.78, 0.0, 10.001204, 9.998193 
1.2551744e+3, 2.6493987e+2, -231906.52, -477701.25, 32454.291, -0.050246343, -0.06342329, -227693.53, 115887.61, 0.00000007625481, 10.001552, 9.998301 
1.255193e+3, 2.749372e+2, -50574.348, -337857.25, 48631.92, -0.05668749, -0.1854113, -42565.113, 203038.16, 0.0000061507535, 10.002108, 9.998327 
1.2552121e+3, 2.849353e+2, 53525.71, -396568.8, 1143.6427, 0.008060378, -0.13266869, 53528.613, 201151.95, 0.000051588533, 10.002848, 9.996885 
1.2552316e+3, 2.9493374e+2, 284535.3, -232592.1, -11843.434, 0.14759734, -0.012650711, 284806.44, 334451.78, 0.00019968531, 10.003748, 9.996906 
1.2552504e+3, 3.0493006e+2, 375379.3, 2781.9937, 3806.0132, 0.17188686, -0.1363757, 375418.2, 375418.2, 0.00050037476, 10.003324, 9.998398 
1.2552686e+3, 3.1493e+2, 193130.38, 61281.86, 125581.836, 0.126303, -0.019142197, 269039.84, 269039.84, 0.00094181777, 10.00138, 9.99974 
1.2649164e+3, 1.2492416e+2, -2243023.5, -1839042.9, -34139.53, 0.11216661, 0.02189282, -1836178.1, -120439.76, 0.004085261, 9.995799, 10.00115 
1.2649317e+3, 1.3492367e+2, -1792877.0, -1530364.3, -65970.23, 0.08904191, -0.19256829, -1514718.3, 103022.625, 0.0022650692, 9.998044, 10.001533 
1.2649523e+3, 1.449252e+2, -1634374.4, -1466001.6, 73554.53, 0.34890822, -0.16270418, -1438395.3, 81330.44, 0.00085386867, 9.998704, 10.000968 
1.2649673e+3, 1.5492648e+2, -1682039.6, -1441396.3, 29228.322, 0.001899197, -0.15344998, -1437897.1, -16181.56, 0.00015477135, 9.997734, 10.000927 
1.2649848e+3, 1.6492803e+2, -1625052.6, -1380902.4, 29129.178, -0.081746124, -0.07538591, -1377475.3, -53773.71, 0.0000038088367, 9.997523, 10.00077 
1.265005e+3, 1.7492984e+2, -1406366.4, -1218638.0, 12866.5625, 0.11334193, -0.0025268544, -1217760.3, 7923.545, 0.0, 9.998325, 10.000827 
1.2650245e+3, 1.849301e+2, -1373330.3, -1316666.8, 78269.84, 0.1761471, 0.020236263, -1261758.8, -134076.72, 0.0, 9.998585, 9.999358 
1.2650433e+3, 1.9492854e+2, -1312749.0, -1232925.1, 79195.58, 0.091864824, -0.09637881, -1184152.8, -154453.55, 0.0, 9.998316, 9.999387 
1.2650627e+3, 2.049282e+2, -1074533.1, -1014901.6, 53064.605, 0.10182218, -0.08577887, -983850.0, -52148.2, 0.0, 9.999042, 9.999863 
1.2650825e+3, 2.1492891e+2, -730724.2, -792883.2, 10165.387, 0.20561635, -0.03090847, -729104.0, 104587.5, 0.0, 10.000705, 9.99991 
1.2651017e+3, 2.249282e+2, -639595.75, -847623.75, 58647.723, 0.16175865, -0.018895766, -624200.94, 111495.0, 0.0, 10.001297, 9.99859 
1.26512e+3, 2.3492597e+2, -623658.06, -780624.4, 39680.496, -0.021197276, -0.12794513, -614197.25, 23519.27, 0.0, 10.000701, 9.99866 
1.2651388e+3, 2.449246e+2, -517508.56, -718572.0, -17544.162, -0.08821927, -0.10795211, -515989.2, 23740.86, 0.0, 10.000927, 9.9983 
1.2651579e+3, 2.5492382e+2, -264802.7, -545549.8, -15040.238, -0.038576473, -0.03985352, -263999.25, 177740.13, 0.0, 10.001987, 9.998302 
1.2651768e+3, 2.6492187e+2, -83744.19, -414076.44, 22678.049, -0.010321332, -0.053816136, -82194.555, 261562.47, 0.00000015326442, 10.002606, 9.998231 
1.265196e+3, 2.7491856e+2, 37409.49, -298706.66, 2006.7567, 0.002913772, -0.23408422, 37421.47, 283206.25, 0.0000068361555, 10.002734, 9.998287 
1.2652154e+3, 2.8491658e+2, 48171.305, -394427.2, 6713.45, 0.054993752, -0.19032681, 48273.11, 196078.38, 0.000055437977, 10.002785, 9.996931 
1.265235e+3, 2.9491553e+2, 164039.05, -287599.78, 23623.896, 0.15242586, -0.018127345, 165271.39, 215093.38, 0.00021948728, 10.0029, 9.996936 
1.2652537e+3, 3.0491173e+2, 309017.53, -41972.957, -16202.283, 0.21552618, -0.14627723, 309763.88, 309763.88, 0.0005556111, 10.002939, 9.998263 
1.2652722e+3, 3.1491077e+2, 403080.66, 215156.48, -42971.223, 0.2909063, -0.10871191, 412440.38, 412440.38, 0.00104646, 10.002623, 10.000183 
1.2749107e+3, 1.2490389e+2, -2211998.3, -1789406.1, -105981.86, -0.09890579, -0.19244796, -1764316.5, -48385.063, 0.0044096503, 9.99585, 10.001469 
1.2749276e+3, 1.3490638e+2, -1765000.6, -1482219.0, 30954.367, -0.14134996, -0.13896467, -1478870.3, 139037.31, 0.0024558255, 9.998069, 10.001857 
1.2749487e+3, 1.4490883e+2, -1619238.9, -1448123.9, 25091.846, 0.08813395, -0.041763823, -1444520.4, 75366.305, 0.00093550276, 9.99876, 10.001062 
1.2749656e+3, 1.5491143e+2, -1675357.1, -1432654.3, 2700.38, 0.02886224, 0.089305446, -1432624.3, -10757.319, 0.00017466526, 9.997752, 10.000978 
1.2749836e+3, 1.6491249e+2, -1632927.5, -1407440.4, 43323.035, 0.017781409, 0.12618172, -1399403.1, -75545.69, 0.0000047674703, 9.997557, 10.000576 
1.275003e+3, 1.7491193e+2, -1417703.3, -1246216.0, 53041.758, 0.057048388, -0.018009411, -1231136.1, -5276.85, 0.0, 9.998334, 10.000636 
1.2750225e+3, 1.8491164e+2, -1353154.5, -1269662.4, 56536.633, 0.08707291, -0.056652464, -1241129.5, -113268.945, 0.0, 9.998562, 9.99969 
1.275042e+3, 1.9491142e+2, -1296218.4, -1189470.5, 80740.13, 0.10933695, -0.07422855, -1146057.4, -116193.51, 0.0, 9.998269, 9.999709 
1.2750617e+3, 2.0491117e+2, -1147772.1, -1142332.3, 100704.17, 0.07723197, -0.03034041, -1044311.3, -112445.02, 0.0, 9.998936, 9.999041 
1.2750813e+3, 2.1491067e+2, -810721.5, -924027.7, 81317.42, -0.00762222, -0.012588045, -768268.1, 65601.77, 0.0, 10.000548, 9.999089 
1.2751012e+3, 2.2490932e+2, -679252.9, -883162.25, 25473.377, -0.020787736, -0.01917533, -676118.8, 59763.51, 0.0, 10.001106, 9.998432 
1.2751216e+3, 2.3490682e+2, -660463.44, -820912.9, 31064.822, 0.03770041, -0.13664456, -654658.94, -16753.035, 0.0, 10.000546, 9.998457 
1.2751411e+3, 2.4490546e+2, -520026.3, -685634.0, 11963.258, 0.025436528, -0.117525674, -519166.56, 20752.328, 0.0, 10.000765, 9.998605 
1.2751597e+3, 2.5490513e+2, -259033.66, -501496.94, 38835.973, -0.056977138, -0.041410543, -252965.1, 188956.98, 0.0, 10.001846, 9.998675 
1.2751797e+3, 2.6490343e+2, -117023.9, -451087.5, 17252.906, -0.011704291, -0.042495083, -116135.23, 227802.13, 0.00000020123079, 10.002471, 9.998038 
1.2752005e+3, 2.7489996e+2, -509.94345, -343917.8, 20728.102, 0.156354, -0.21863109, 736.6795, 246705.05, 0.0000077157165, 10.002594, 9.998042 
1.2752192e+3, 2.848983e+2, 83870.375, -295783.56, -2035.9137, 0.12854293, -0.16170774, 83881.29, 231866.31, 0.000060411407, 10.00268, 9.997657 
1.2752357e+3, 2.948983e+2, 199410.11, -187674.2, 44827.35, -0.09236574, 0.03548332, 204533.64, 254522.45, 0.0002426435, 10.0027895, 9.997675 
1.2752546e+3, 3.0489436e+2, 185573.72, -285419.78, -33702.594, -0.021826651, -0.06626158, 187973.13, 187973.13, 0.0006215773, 10.002877, 9.996622 
1.2752756e+3, 3.1489062e+2, 299265.03, 34351.883, -15263.755, 0.3315893, -0.14492914, 300141.6, 300141.6, 0.0011780668, 10.002483, 9.999001 
1.2849072e+3, 1.24885276e+2, -2061784.9, -1703461.6, -59709.133, -0.059345428, -0.2696033, -1693774.0, 22336.186, 0.0047468157, 9.996779, 10.0016165 
1.2849252e+3, 1.3488859e+2, -1986281.3, -1605778.9, 49614.34, -0.10091329, -0.12231305, -1599416.0, 18663.508, 0.0026545508, 9.996605, 10.001708 
1.2849452e+3, 1.4489076e+2, -1959596.5, -1644900.1, -10642.328, -0.023186702, -0.03218028, -1644540.8, -124478.07, 0.0010215283, 9.996583, 10.000763 
1.2849633e+3, 1.5489335e+2, -1750785.5, -1496452.8, -84434.54, 0.06487285, 0.13167226, -1470974.1, -48930.066, 0.00019628371, 9.997362, 10.0007305 
1.2849821e+3, 1.6489409e+2, -1584299.5, -1401979.3, -2167.9153, 0.1107691, 0.1559145, -1401953.5, -77915.33, 0.0000059623408, 9.997964, 10.0004225 
1.2850013e+3, 1.7489284e+2, -1421825.8, -1264276.4, -14934.644, 0.071138695, -0.041365, -1262873.1, -36827.145, 0.0, 9.998382, 10.000489 
1.2850212e+3, 1.8489248e+2, -1312806.9, -1259294.8, -18748.97, 0.09378246, -0.07452912, -1253379.5, -125331.766, 0.0, 9.998887, 9.999602 
1.2850416e+3, 1.9489285e+2, -1111098.6, -1108557.0, -49463.06, 0.18434247, -0.024600096, -1060348.5, -30302.92, 0.0, 9.999588, 9.999626 
1.2850617e+3, 2.0489241e+2, -1017688.44, -1099516.0, 22967.6, 0.15173711, 0.016250074, -1011682.6, -79632.66, 0.0, 9.999917, 9.998862 
1.2850814e+3, 2.1489097e+2, -929367.06, -995392.7, 30756.809, -0.0060055824, -0.042954173, -917259.75, -83196.98, 0.0, 9.999811, 9.998949 
1.2851015e+3, 2.2488965e+2, -807842.94, -909232.8, 7915.411, -0.04561446, -0.05507348, -807228.7, -71153.77, 0.0, 10.000073, 9.998747 
1.285122e+3, 2.348882e+2, -618237.5, -762764.2, 23188.814, 0.03937092, -0.09961587, -614608.06, 23480.416, 0.0, 10.000686, 9.998782 
1.2851422e+3, 2.4488695e+2, -460191.63, -668612.6, 60067.504, 0.045015503, -0.08154612, -444119.4, 95980.87, 0.0, 10.001217, 9.998505 
1.2851617e+3, 2.5488573e+2, -302205.7, -533214.9, 29623.055, -0.024330204, -0.082522355, -298467.53, 143644.03, 0.0, 10.001598, 9.998576 
1.2851821e+3, 2.6488408e+2, -203089.64, -481115.47, 743.18286, 0.024033645, -0.079450764, -203087.66, 141039.38, 0.00000014147287, 10.001818, 9.998153 
1.285203e+3, 2.748817e+2, -85258.766, -370526.75, 3037.7136, 0.19201289, -0.16219817, -85226.42, 160923.06, 0.000007879153, 10.001942, 9.998178 
1.285222e+3, 2.8488022e+2, 90555.61, -241718.94, 25168.41, 0.16665758, -0.112573706, 92451.2, 240614.63, 0.00006527563, 10.002508, 9.998115 
1.2852392e+3, 2.948795e+2, 324247.1, -76639.92, 19020.295, -0.045964003, -0.03315252, 325147.5, 375318.97, 0.00026928063, 10.003425, 9.998135 
1.2852584e+3, 3.0487606e+2, 305944.9, -292399.03, -25838.875, 0.026548719, -0.07166048, 307058.66, 307058.66, 0.0006972263, 10.003972, 9.996059 
1.285279e+3, 3.1487226e+2, 507276.3, 78529.41, 18992.133, 0.33963957, -0.10105211, 508115.97, 508115.97, 0.0013269356, 10.004108, 9.998547 
1.2949042e+3, 1.24868564e+2, -2062706.3, -1695717.5, -54847.133, -0.09262107, -0.21026027, -1687695.8, 28576.61, 0.0050962004, 9.9967575, 10.001675 
1.2949245e+3, 1.3487044e+2, -2046085.9, -1712994.5, 44026.824, 0.14118966, -0.14290494, -1707273.4, -89018.234, 0.0028611089, 9.996548, 10.000998 
1.2949415e+3, 1.4487101e+2, -2011069.9, -1748931.3, -1247.9742, -0.08883282, -0.13189259, -1748925.4, -228672.2, 0.00111182, 9.99657, 10.000055 
1.2949604e+3, 1.5487245e+2, -1795051.6, -1589138.0, -41488.375, 0.012958077, -0.023770036, -1581093.0, -158847.34, 0.000219555, 9.997362, 10.000097 
1.2949802e+3, 1.6487297e+2, -1591813.0, -1419579.1, -1482.8048, 0.08969336, 0.016508743, -1419566.4, -95323.695, 0.0000074533, 9.997969, 10.0003 
1.295e+3, 1.7487256e+2, -1432601.8, -1286663.0, 9288.305, 0.0687472, -0.08319059, -1286074.3, -59830.18, 0.0, 9.998377, 10.000339 
1.2950204e+3, 1.8487264e+2, -1352752.1, -1338078.0, -5322.898, 0.102406785, -0.040045172, -1336350.6, -208107.16, 0.0, 9.998867, 9.999073 
1.2950419e+3, 1.9487289e+2, -1155265.1, -1189064.3, -13610.778, 0.22363882, 0.051664356, -1150465.6, -120222.03, 0.0, 9.999532, 9.9991045 
1.2950625e+3, 2.04872e+2, -1003180.44, -1038865.06, 7272.0303, 0.22923934, 0.049900077, -1001755.4, -69503.31, 0.0, 9.999794, 9.999333 
1.2950826e+3, 2.1486977e+2, -921740.0, -938570.75, 36529.234, 0.108745664, -0.13609132, -892669.3, -58398.84, 0.0, 9.9996395, 9.999419 
1.2951021e+3, 2.2486913e+2, -782637.56, -815671.3, 19048.898, -0.0067082, -0.13772146, -773942.0, -37667.348, 0.0, 9.999894, 9.999477 
1.2951215e+3, 2.3487e+2, -587088.4, -662771.6, 60247.375, -0.115020916, -0.025503485, -553784.1, 84481.12, 0.0, 10.000528, 9.999549 
1.2951419e+3, 2.4486896e+2, -525212.56, -753975.9, 61889.363, -0.12959477, -0.0011358912, -509542.44, 30732.713, 0.0, 10.001017, 9.998011 
1.2951635e+3, 2.5486568e+2, -366680.84, -621877.94, 56347.92, -0.039047297, -0.15935557, -354792.9, 87515.0, 0.0, 10.001419, 9.998048 
1.2951839e+3, 2.6486388e+2, -190053.77, -433887.8, -5117.84, 0.012704096, -0.15769278, -189946.39, 154379.25, 0.000000052302592, 10.0017185, 9.99853 
1.2952034e+3, 2.748637e+2, -72305.62, -316723.03, 23107.04, 0.017673656, -0.062938735, -70140.28, 176187.55, 0.000007172051, 10.0018215, 9.998608 
1.2952237e+3, 2.8486234e+2, 81668.984, -229660.8, 49504.36, 0.062586956, -0.034331687, 89351.086, 237691.03, 0.00006969282, 10.002373, 9.998262 
1.2952447e+3, 2.9485935e+2, 312788.5, -71732.28, 70680.37, 0.15223905, -0.1966607, 325368.97, 375736.13, 0.00030090305, 10.003301, 9.998227 
1.2952648e+3, 3.048571e+2, 316915.6, -250836.78, -31759.625, 0.2376212, -0.13336134, 318686.7, 318686.7, 0.0007862506, 10.003895, 9.996383 
1.2952816e+3, 3.1485578e+2, 493685.28, 95022.99, 56686.934, 0.14368734, 0.041555773, 501589.06, 501589.06, 0.0014964145, 10.003928, 9.998744 
1.3049015e+3, 1.2485002e+2, -2097067.1, -1743077.8, -30696.533, -0.029633448, -0.15696198, -1740435.6, -23982.12, 0.0054552136, 9.99667, 10.001389 
1.3049226e+3, 1.3485086e+2, -1863456.1, -1693766.6, -88755.69, 0.2198745, -0.12865052, -1655826.1, -37378.21, 0.003073975, 9.998107, 10.000376 
1.304938e+3, 1.4485106e+2, -1759444.3, -1593623.5, -68142.78, -0.14298305, -0.13864021, -1569213.9, -48765.637, 0.0012055306, 9.998135, 10.0003605 
1.304958e+3, 1.54852e+2, -1719254.4, -1510755.0, -54265.406, 0.023575727, -0.118446045, -1497477.1, -75036.1, 0.000244213, 9.997697, 10.000466 
1.3049786e+3, 1.6485237e+2, -1620022.8, -1479384.6, 59922.78, 0.13728157, -0.092267886, -1457315.9, -132877.08, 0.000009295233, 9.997994, 9.999873 
1.3049988e+3, 1.7485209e+2, -1349415.1, -1295033.6, 21013.701, 0.082063764, -0.13327771, -1287860.0, -61417.83, 0.0, 9.99917, 9.999894 
1.3050197e+3, 1.848521e+2, -1197929.6, -1251403.8, 29361.586, 0.100800395, -0.07799076, -1184955.6, -56512.566, 0.0, 9.999858, 9.9992 
1.3050415e+3, 1.9485226e+2, -1075330.9, -1132518.4, 48456.063, 0.22219093, -0.011651702, -1047661.06, -17218.22, 0.0, 9.999997, 9.999272 
1.3050628e+3, 2.0485152e+2, -947765.8, -1002296.6, 88455.61, 0.2586966, -0.011339287, -882468.8, 49980.734, 0.0, 10.0001335, 9.999423 
1.3050832e+3, 2.1484971e+2, -823183.1, -882286.9, 66055.71, 0.19679312, -0.16303216, -780370.1, 54094.684, 0.0, 10.000282, 9.9995 
1.3051032e+3, 2.2484928e+2, -714127.5, -799052.9, 39404.8, 0.08651822, -0.14040427, -698660.75, 37807.41, 0.0, 10.000432, 9.999326 
1.3051224e+3, 2.348501e+2, -596221.8, -682417.06, -11139.617, -0.07009396, -0.021096993, -594805.44, 43655.32, 0.0, 10.000534, 9.9994 
1.3051428e+3, 2.4484918e+2, -530359.75, -719615.9, 13338.959, -0.11425286, 0.004980603, -529424.2, 11045.4375, 0.0, 10.0008135, 9.998346 
1.3051647e+3, 2.548462e+2, -354877.16, -578868.6, 49113.004, -0.034751866, -0.15675527, -344581.7, 97916.27, 0.0, 10.001319, 9.998398 
1.3051857e+3, 2.6484466e+2, -175388.89, -411702.44, 24271.727, 0.019745674, -0.15400471, -172921.7, 171590.94, 0.000000026393016, 10.001769, 9.998655 
1.3052055e+3, 2.7484453e+2, -9986.321, -278955.78, -8.150668, 0.040837754, -0.062253404, -9986.321, 236528.52, 0.0000066700077, 10.002212, 9.998687 
1.3052268e+3, 2.8484306e+2, 126731.836, -209956.05, 53315.8, 0.12802692, -0.04678611, 134972.88, 283501.03, 0.00007506801, 10.002693, 9.9982395 
1.3052493e+3, 2.9484004e+2, 310571.5, -75515.836, 33665.02, 0.28853622, -0.20888636, 313484.94, 364040.25, 0.00033560226, 10.003297, 9.9981985 
1.3052699e+3, 3.0483824e+2, 352984.75, -252953.17, -62073.668, 0.35747683, -0.0961248, 359278.34, 359278.34, 0.00088290375, 10.004226, 9.996206 
1.3052857e+3, 3.14836e+2, 679559.0, 122937.61, -64951.652, 0.09234873, 0.013762109, 687037.7, 687037.7, 0.0016819565, 10.005461, 9.998204 
1.3148981e+3, 1.2482925e+2, -2147117.3, -1840816.8, 162135.86, -0.08895203, -0.15499105, -1770935.5, -54277.824, 0.005819013, 9.996649, 10.000728 
1.3149187e+3, 1.3482985e+2, -1901318.6, -1774062.4, -39367.332, 0.017768081, -0.09067193, -1762868.6, -144210.4, 0.0032902497, 9.998112, 9.999825 
1.314935e+3, 1.4483093e+2, -1659925.0, -1388089.9, -109155.15, -0.3037815, -0.0554263, -1349684.6, 170963.0, 0.0013013786, 9.998144, 10.001768 
1.3149558e+3, 1.5483215e+2, -1624610.4, -1309725.3, -62753.055, 0.0120784445, -0.14612496, -1297680.0, 124948.81, 0.00026992275, 9.997677, 10.001858 
1.3149771e+3, 1.6483237e+2, -1671440.1, -1593861.4, 88708.516, 0.15741915, -0.16679448, -1535832.3, -211206.52, 0.00001153221, 9.9980135, 9.9990835 
1.3149975e+3, 1.748314e+2, -1402052.5, -1409792.0, 73569.18, 0.023193706, -0.19697507, -1332251.4, -105611.15, 0.0, 9.999183, 9.999103 
1.3150185e+3, 1.8483098e+2, -1148760.5, -1138065.8, 21301.188, -0.009356359, -0.1858784, -1121451.0, 7194.724, 0.0, 9.999813, 9.999997 
1.3150404e+3, 1.9483097e+2, -1028592.06, -1018132.2, 61888.453, 0.0891885, -0.22102043, -961253.1, 69390.195, 0.0, 9.99992, 10.000093 
1.3150619e+3, 2.0483099e+2, -984643.7, -1049741.9, 81300.44, 0.1510827, -0.17309573, -929618.75, 3023.6501, 0.0, 10.000011, 9.999154 
1.3150834e+3, 2.1483088e+2, -864462.25, -938480.1, 83291.62, 0.1663402, -0.12565057, -810327.6, 24317.678, 0.0, 10.000148, 9.999183 
1.315104e+3, 2.2483015e+2, -807226.2, -953120.94, 33261.57, 0.13271253, -0.0673506, -800000.9, -63345.742, 0.0, 10.00027, 9.998345 
1.3151243e+3, 2.348286e+2, -692706.1, -843851.94, 7185.1377, 0.06700816, -0.083415836, -692365.3, -53691.16, 0.0, 10.000369, 9.998374 
1.3151447e+3, 2.4482772e+2, -472773.75, -563507.8, 21581.969, -0.014139736, -0.0571498, -467901.84, 72780.914, 0.0, 10.000652, 9.999497 
1.3151655e+3, 2.5482747e+2, -293174.03, -416145.75, 80827.93, -0.11170248, -0.065001436, -253103.67, 189576.88, 0.0, 10.001165, 9.999592 
1.3151869e+3, 2.6482645e+2, -210389.36, -453254.8, 29044.225, -0.05981674, -0.06081482, -206964.27, 137723.78, 0.000000066602475, 10.0016365, 9.998432 
1.3152091e+3, 2.748243e+2, -48823.83, -323737.34, 33290.387, 0.1460924, -0.14640668, -44850.0, 201859.53, 0.0000067822207, 10.002069, 9.99844 
1.315231e+3, 2.848226e+2, 102136.34, -247416.34, 65557.42, 0.25526777, -0.12859792, 114026.945, 262752.78, 0.000081610815, 10.002621, 9.998026 
1.3152526e+3, 2.948214e+2, 278826.28, -113559.22, 74640.4, 0.26884055, -0.09054405, 292544.9, 343281.97, 0.0003693925, 10.003171, 9.998006 
1.3152736e+3, 3.0481926e+2, 287044.6, -364584.78, -21606.895, 0.28578946, 0.030861547, 287760.25, 287760.25, 0.0009756237, 10.004121, 9.995483 
1.3152903e+3, 3.1481358e+2, 554961.6, -71059.336, 13467.586, -0.036070287, -0.12755136, 555251.25, 555251.25, 0.0018613314, 10.005199, 9.996985 
1.3248953e+3, 1.2480722e+2, -2132789.0, -1779330.8, 182923.98, -0.0017932273, -0.13655055, -1701709.0, 15165.214, 0.006183249, 9.996466, 10.001252 
1.3249142e+3, 1.3480803e+2, -2226174.8, -1821434.8, -44184.625, -0.110673025, -0.14489631, -1816667.4, -197796.92, 0.0035072896, 9.995421, 10.000787 
1.3249324e+3, 1.4480983e+2, -1983833.5, -1523615.9, -38803.637, -0.25564277, -0.099012844, -1520367.0, 484.70914, 0.0013982238, 9.995837, 10.001951 
1.3249536e+3, 1.5481141e+2, -1521619.1, -1247296.5, -106550.1, -0.006397956, -0.165351, -1210773.8, 212055.88, 0.00029637254, 9.998325, 10.001978 
1.3249753e+3, 1.6481182e+2, -1487353.1, -1494599.0, 24645.932, 0.14034143, -0.17651704, -1466065.3, -141240.69, 0.000014169166, 9.999242, 9.999164 
1.3249968e+3, 1.7481089e+2, -1495069.4, -1450553.3, 48152.895, 0.07589393, -0.2089796, -1419763.0, -192924.6, 0.0, 9.9985285, 9.99914 
1.3250181e+3, 1.8481053e+2, -1331575.6, -1208647.6, 33357.5, 0.03375076, -0.19793789, -1200179.3, -71336.0, 0.0, 9.998493, 10.000143 
1.3250393e+3, 1.9481066e+2, -1117870.3, -1046742.0, -3220.1462, 0.032499123, -0.23048705, -1046596.5, -15756.803, 0.0, 9.999254, 10.000214 
1.3250612e+3, 2.048108e+2, -1018920.1, -1090095.1, 6867.8833, 0.08236347, -0.16727574, -1018263.5, -85424.695, 0.0, 9.999874, 9.9989395 
1.3250837e+3, 2.1481079e+2, -852806.7, -954884.8, -6757.2686, 0.17720555, -0.08918786, -852361.3, -17519.084, 0.0, 10.000326, 9.998977 
1.3251051e+3, 2.248099e+2, -747965.25, -903681.4, 1884.591, 0.18965484, -0.04509733, -747942.44, -11089.07, 0.0, 10.000592, 9.998533 
1.3251255e+3, 2.3480794e+2, -631492.3, -785534.3, 40676.88, 0.13087839, -0.123598665, -621410.8, 17463.35, 0.0, 10.000673, 9.998627 
1.3251463e+3, 2.4480695e+2, -405463.75, -522202.84, 109059.01, 0.05351197, -0.12305326, -340136.63, 200745.97, 0.0, 10.001082, 9.999574 
1.3251674e+3, 2.548069e+2, -191117.0, -355117.2, 61715.2, -0.049588446, -0.11721165, -170487.75, 272391.06, 0.0, 10.001833, 9.999683 
1.3251893e+3, 2.64806e+2, -109956.05, -397446.84, -10125.7705, 0.0007193637, -0.111707106, -109599.84, 235285.33, 0.0000000978673, 10.00229, 9.998502 
1.3252118e+3, 2.7480385e+2, 12157.954, -285588.72, -8953.797, 0.20683631, -0.20393473, 12426.969, 259332.53, 0.000006920427, 10.002441, 9.998527 
1.3252339e+3, 2.84802e+2, 108450.586, -292661.0, 69508.48, 0.27776933, -0.18314274, 120154.195, 269077.9, 0.000086783395, 10.002895, 9.997573 
1.3252556e+3, 2.9480052e+2, 346116.28, -131647.36, 22840.588, 0.21130991, -0.12645793, 347205.72, 398145.94, 0.00039491727, 10.003859, 9.997544 
1.3252778e+3, 3.04798e+2, 403841.94, -265868.6, -6889.5, 0.27648145, -0.035530467, 403912.8, 403912.8, 0.0010485164, 10.004754, 9.995856 
1.3252969e+3, 3.147926e+2, 577614.2, -63374.277, 41598.16, 0.10434661, -0.20203792, 580302.5, 580302.5, 0.0020045976, 10.005367, 9.996959 
1.3348922e+3, 1.2478362e+2, -2003218.5, -1505491.6, 103933.5, -0.001246927, -0.13614291, -1484660.4, 232445.83, 0.0065457188, 9.996441, 10.003152 
1.3349082e+3, 1.3478541e+2, -2054685.8, -1460885.8, -84785.28, -0.27011475, -0.29335794, -1449017.0, 170067.16, 0.0037237175, 9.995392, 10.00328 
1.33493e+3, 1.4478758e+2, -2052736.5, -1665294.3, 34461.457, -0.10358212, -0.29404607, -1662252.9, -141190.92, 0.0014951822, 9.995824, 10.000992 
1.3349509e+3, 1.5478988e+2, -1595991.1, -1405522.5, -1729.1305, -0.12484654, -0.1793513, -1405506.9, 17535.402, 0.00032323142, 9.998331, 10.000894 
1.3349733e+3, 1.647909e+2, -1431975.0, -1376536.3, -13596.654, -0.020721802, -0.11413672, -1373381.1, -48347.49, 0.000017128494, 9.999228, 9.999981 
1.3349964e+3, 1.7479058e+2, -1435726.6, -1325021.0, 32592.97, 0.15403646, -0.1736443, -1316138.1, -89101.82, 0.00000000003443261, 9.998517, 10.000006 
1.3350178e+3, 1.847908e+2, -1373167.3, -1295234.8, 48164.316, 0.138217, -0.1206726, -1272248.0, -143213.16, 0.0, 9.998488, 9.999557 
1.335038e+3, 1.9479136e+2, -1168182.1, -1141305.1, 35245.39, -0.04158971, -0.047698382, -1117023.3, -85991.21, 0.0, 9.999203, 9.999594 
1.33506e+3, 2.04791e+2, -1046129.0, -1119359.4, 11204.423, -0.04452339, 0.0029139095, -1044453.06, -111414.92, 0.0, 9.999758, 9.9987955 
1.3350837e+3, 2.1478948e+2, -885762.9, -990945.6, 19981.115, 0.13887629, -0.056758635, -882095.0, -47039.566, 0.0, 10.000177, 9.998808 
1.3351056e+3, 2.2478849e+2, -676655.7, -719399.06, -4507.3345, 0.1616584, -0.07855997, -676185.56, 60877.79, 0.0, 10.000435, 9.999872 
1.3351253e+3, 2.3478803e+2, -555684.5, -597941.56, 55518.92, 0.02531044, -0.14541754, -517409.63, 121651.93, 0.0, 10.000538, 9.999982 
1.3351469e+3, 2.4478683e+2, -491536.63, -667442.0, 122778.83, -0.020395946, -0.18947478, -428458.47, 112611.52, 0.0, 10.000941, 9.998642 
1.3351704e+3, 2.547846e+2, -282732.6, -512816.47, 100466.84, 0.037166443, -0.30289868, -245038.7, 198053.3, 0.0, 10.001693, 9.998667 
1.3351928e+3, 2.6478335e+2, -102429.42, -358262.97, -16456.441, 0.092152625, -0.29280648, -101375.21, 243727.92, 0.00000008871969, 10.002184, 9.998822 
1.3352138e+3, 2.74783e+2, 18526.879, -240052.4, 8888.265, 0.13280089, -0.2456662, 18832.04, 265936.13, 0.000006673535, 10.002302, 9.998906 
1.3352352e+3, 2.8478116e+2, 37060.438, -414523.34, 88603.86, 0.09680945, -0.2084197, 53822.918, 202945.6, 0.00008871381, 10.002779, 9.996792 
1.3352577e+3, 2.9477757e+2, 264284.84, -262778.8, 77507.43, 0.010078788, -0.28047556, 275446.34, 326608.44, 0.00040757706, 10.003686, 9.996731 
1.3352822e+3, 3.0477482e+2, 478982.78, -68692.68, 12570.385, 0.20703176, -0.24429777, 479271.13, 479271.13, 0.0010920269, 10.004591, 9.997282 
1.3353047e+3, 3.1477243e+2, 609288.3, 65372.273, 86340.414, 0.30503905, -0.254732, 622664.9, 622664.9, 0.0020971098, 10.005105, 9.997971 
1.3448888e+3, 1.24760956e+2, -2207582.5, -1589476.4, 139317.73, 0.09270964, -0.17745993, -1559526.1, 157800.44, 0.0069055543, 9.994984, 10.003274 
1.3449033e+3, 1.3476422e+2, -1980018.0, -1387438.3, -153684.84, -0.31253004, -0.22084665, -1349951.8, 269338.88, 0.0039389143, 9.995751, 10.003618 
1.344928e+3, 1.4476627e+2, -1981117.6, -1665890.8, -8693.973, 0.08387004, -0.23491438, -1665651.1, -144380.2, 0.0015916337, 9.996469, 10.000676 
1.3449492e+3, 1.5476763e+2, -1779931.6, -1532900.6, -16028.274, -0.08513674, -0.17640258, -1531865.0, -108602.73, 0.0003501717, 9.9972515, 10.000534 
1.3449715e+3, 1.6476867e+2, -1547344.4, -1352068.3, -34059.438, -0.061666053, -0.12593381, -1346298.3, -21045.318, 0.000020254476, 9.998098, 10.000691 
1.3449949e+3, 1.7476927e+2, -1307637.3, -1177202.9, -24353.387, 0.12761872, -0.16286606, -1172804.3, 54438.492, 0.0000000014653116, 9.999043, 10.000759 
1.345017e+3, 1.8476959e+2, -1234681.1, -1286758.9, 23969.475, 0.14943591, -0.114721194, -1225328.5, -96088.69, 0.0, 9.999698, 9.999027 
1.3450381e+3, 1.9476931e+2, -1076953.9, -1159013.9, -5757.3564, 0.0038886704, -0.0709386, -1076551.9, -45304.25, 0.0, 10.000104, 9.999034 
1.3450603e+3, 2.047686e+2, -935612.4, -1035101.44, 456.2927, 0.0014905527, -0.03673, -935610.25, -2352.9172, 0.0, 10.000375, 9.999085 
1.3450842e+3, 2.147674e+2, -824267.8, -917318.6, 16708.191, 0.14962995, -0.09761833, -821358.7, 13911.144, 0.0, 10.000425, 9.999186 
1.345106e+3, 2.2476669e+2, -627619.1, -682729.2, -7659.285, 0.1641127, -0.11601374, -626574.44, 110699.39, 0.0, 10.000719, 9.999984 
1.3451263e+3, 2.3476641e+2, -436812.22, -526881.94, -61162.766, 0.04252609, -0.1745879, -405893.0, 233377.03, 0.0, 10.001307, 10.000094 
1.3451484e+3, 2.4476525e+2, -428026.56, -673709.2, 36.002937, 0.018405586, -0.20240958, -428026.53, 113252.44, 0.0, 10.001545, 9.998308 
1.3451725e+3, 2.54763e+2, -351183.16, -582772.3, 1208.2417, 0.10149385, -0.28592542, -351176.84, 92126.77, 0.0, 10.0013895, 9.998334 
1.345195e+3, 2.6476166e+2, -172147.55, -408886.9, -71898.2, 0.13305156, -0.25943625, -152022.7, 193294.53, 0.000000062099474, 10.001797, 9.998655 
1.3452159e+3, 2.7476108e+2, 97531.805, -218547.38, -115705.3, 0.10439024, -0.21374524, 135360.1, 382681.06, 0.0000065347235, 10.002924, 9.998747 
1.345238e+3, 2.8475922e+2, 131068.39, -351621.1, -8604.6, 0.06259976, -0.17798409, 131221.73, 280561.16, 0.00008986311, 10.003339, 9.996961 
1.345261e+3, 2.9475605e+2, 174451.83, -272361.25, 16071.01, 0.030700885, -0.22856468, 175029.13, 226402.22, 0.00041353333, 10.002935, 9.99702 
1.3452865e+3, 3.0475283e+2, 333407.8, -158160.13, -1092.3098, 0.25101915, -0.245391, 333410.25, 333410.25, 0.0011125023, 10.00363, 9.997152 
1.3453104e+3, 3.1475088e+2, 631541.3, 65792.65, -105580.33, 0.36787483, -0.20052397, 650602.56, 650602.56, 0.0021431874, 10.0053005, 9.997876 
1.3548839e+3, 1.24739185e+2, -2331583.8, -1832180.1, -37491.402, 0.055269804, -0.3008576, -1829381.3, -111845.71, 0.0072628423, 9.99494, 10.001623 
1.3548991e+3, 1.3474463e+2, -2114825.8, -1665545.6, -109052.48, -0.3148466, 0.06805526, -1640474.6, -20986.621, 0.004152666, 9.995757, 10.001699 
1.3549256e+3, 1.4474611e+2, -1967956.6, -1636331.8, 5930.3335, 0.18550278, 0.08942452, -1636225.8, -114749.305, 0.0016872559, 9.996458, 10.000882 
1.3549475e+3, 1.5474473e+2, -1757550.4, -1491385.8, 25147.973, 0.010626439, -0.15858158, -1489030.6, -65541.18, 0.0003769789, 9.997261, 10.000817 
1.3549696e+3, 1.6474497e+2, -1505032.9, -1266058.6, -14746.746, -0.07862663, -0.2299959, -1265152.0, 60331.793, 0.000023370363, 9.998103, 10.001282 
1.354992e+3, 1.747469e+2, -1270887.5, -1096410.6, 19547.018, -0.08158786, -0.19446185, -1094247.5, 133211.4, 0.0000000068048798, 9.999014, 10.001334 
1.355015e+3, 1.8474689e+2, -1276504.8, -1358705.5, 25654.594, -0.0379515, -0.18573982, -1269155.3, -139697.03, 0.0, 9.999639, 9.998558 
1.3550389e+3, 1.9474451e+2, -1121998.6, -1237589.5, 22064.01, 0.0684538, -0.30190378, -1117930.3, -86443.914, 0.0, 10.000036, 9.998528 
1.3550621e+3, 2.047437e+2, -902751.8, -940226.1, -9713.549, 0.12125473, -0.28637058, -900383.6, 33112.113, 0.0, 10.000264, 9.999787 
1.3550843e+3, 2.1474455e+2, -796130.06, -823539.7, 28667.775, 0.120088175, -0.21528271, -778059.7, 57425.8, 0.0, 10.000268, 9.999908 
1.3551064e+3, 2.2474444e+2, -729289.2, -847878.9, -510.5444, 0.10757042, -0.1598714, -729287.0, 8198.6, 0.0, 10.000524, 9.998944 
1.3551281e+3, 2.3474318e+2, -538233.3, -698631.6, -27472.75, 0.08475629, -0.20920359, -533658.3, 105840.22, 0.0, 10.00114, 9.998996 
1.3551506e+3, 2.4474236e+2, -434085.25, -650644.94, -15946.355, 0.06939405, -0.1577706, -432917.34, 108590.555, 0.0, 10.0013895, 9.998544 
1.3551736e+3, 2.5474194e+2, -351707.66, -552007.94, 8572.323, 0.05339216, -0.08539942, -351341.47, 92173.03, 0.0, 10.001253, 9.998611 
1.3551961e+3, 2.6474068e+2, -235101.33, -516751.94, -42686.48, 0.033902057, -0.034140807, -228773.98, 116754.99, 0.000000036385206, 10.001693, 9.997968 
1.3552183e+3, 2.747381e+2, 22266.906, -340048.97, -56417.33, 0.01841544, -0.11176501, 30848.563, 278403.7, 0.0000068750182, 10.002772, 9.99799 
1.3552412e+3, 2.847363e+2, 186138.52, -208737.86, -32430.25, 0.045917556, -0.08267813, 188784.2, 338356.25, 0.00009120505, 10.003219, 9.997998 
1.3552652e+3, 2.9473528e+2, 236029.72, -126878.336, 18359.525, 0.13508745, -0.020684354, 236956.17, 288534.8, 0.00041554915, 10.002851, 9.998067 
1.3552907e+3, 3.0473152e+2, 210411.13, -381509.3, 48473.86, 0.28965965, -0.07596081, 214354.5, 214354.5, 0.0011134057, 10.003507, 9.99567 
1.3553135e+3, 3.1472746e+2, 500540.63, -128927.06, -21033.645, 0.095535904, -0.08670011, 501242.7, 501242.7, 0.0021428312, 10.004976, 9.99669 
1.3648793e+3, 1.24717295e+2, -2216662.8, -1807663.8, -164755.42, 0.067714676, -0.3129655, -1749552.6, -31803.658, 0.0076198755, 9.995847, 10.001355 
1.3648963e+3, 1.3472196e+2, -1943918.9, -1664332.9, -78582.35, -0.24159095, 0.044546552, -1643759.9, -24050.164, 0.004366158, 9.997264, 10.000982 
1.3649227e+3, 1.4472286e+2, -1781687.5, -1536024.6, 77686.42, 0.19494991, 0.042791415, -1513519.4, 8183.4175, 0.0017823466, 9.997695, 10.00097 
1.3649458e+3, 1.5472153e+2, -1708457.8, -1450129.5, 62512.586, 0.10417285, -0.21563894, -1435797.3, -12083.936, 0.0004035849, 9.997538, 10.000959 
1.3649684e+3, 1.6472179e+2, -1572883.3, -1333313.8, 28587.385, 0.018106781, -0.2784096, -1329949.8, -4241.661, 0.000026350568, 9.99777, 10.000985 
1.3649906e+3, 1.7472379e+2, -1362607.1, -1171863.6, -29282.521, -0.09020544, -0.20807016, -1167469.5, 60216.277, 0.000000016360648, 9.998515, 10.001055 
1.365014e+3, 1.8472399e+2, -1306686.6, -1322836.1, -7598.2334, -0.07677588, -0.18532799, -1303673.9, -173990.38, 0.0, 9.999205, 9.999018 
1.3650389e+3, 1.9472201e+2, -1114856.0, -1174550.9, 36531.746, 0.08063497, -0.30974764, -1097528.9, -65824.1, 0.0, 9.999836, 9.999054 
1.3650626e+3, 2.0472121e+2, -921306.25, -974951.7, 14486.144, 0.15443094, -0.31259483, -917644.44, 16068.648, 0.0, 10.000243, 9.999559 
1.3650848e+3, 2.1472152e+2, -790054.9, -848448.44, -41781.1, 0.13459013, -0.26864877, -768279.94, 67428.664, 0.0, 10.000426, 9.9996605 
1.365107e+3, 2.247213e+2, -726409.06, -859313.6, -38876.39, 0.12436532, -0.20768155, -715872.5, 21838.258, 0.0, 10.000588, 9.998837 
1.3651292e+3, 2.3472036e+2, -612569.2, -749502.9, -20532.385, 0.11733222, -0.21128297, -609556.75, 30164.455, 0.0, 10.000677, 9.9988785 
1.3651522e+3, 2.4471958e+2, -469583.84, -669967.5, 44957.617, 0.10499756, -0.15072538, -459959.5, 81770.93, 0.0, 10.001159, 9.998519 
1.3651754e+3, 2.5471878e+2, -219539.36, -489509.2, 22361.691, 0.07797391, -0.11361743, -217699.67, 226040.06, 0.0, 10.002167, 9.9986 
1.3651985e+3, 2.6471725e+2, -114711.72, -506070.13, 716.0561, 0.06282238, -0.06534109, -114710.414, 231046.4, 0.000000033203506, 10.002725, 9.997544 
1.3652213e+3, 2.7471474e+2, 792.7813, -391046.1, -19312.68, 0.060283296, -0.09869676, 1742.35, 249526.42, 0.0000069323874, 10.002808, 9.997616 
1.3652448e+3, 2.847127e+2, 185540.8, -237829.83, -3745.4983, 0.08402261, -0.06354976, 185573.92, 335378.5, 0.000089487476, 10.003359, 9.997721 
1.3652691e+3, 2.9471108e+2, 474609.53, -33388.586, -70318.414, 0.15969157, -0.03493945, 484163.53, 535981.2, 0.00040599194, 10.004604, 9.997852 
1.3652946e+3, 3.047073e+2, 412533.28, -240869.56, -8149.7627, 0.29123512, -0.102915704, 412634.9, 412634.9, 0.0010855957, 10.004709, 9.996066 
1.365318e+3, 3.147044e+2, 301080.13, -129746.516, -5024.588, 0.1594749, -0.03240885, 301138.7, 301138.7, 0.002089238, 10.003161, 9.997581 
1.3748753e+3, 1.2469555e+2, -2142845.3, -1658744.9, -171407.3, 0.028631419, -0.19935614, -1604199.8, 113764.836, 0.0079810945, 9.995874, 10.002362 
1.3748942e+3, 1.3469605e+2, -1907211.5, -1593862.4, -22677.72, -0.20794252, -0.31156313, -1592229.6, 27727.414, 0.0045821774, 9.997277, 10.001462 
1.3749188e+3, 1.446964e+2, -1780804.3, -1536334.3, 51544.85, 0.00008598238, -0.39329693, -1525910.8, -3959.2834, 0.0018779465, 9.9977045, 10.000964 
1.3749436e+3, 1.5469794e+2, -1711458.5, -1454062.3, 68029.91, 0.10087782, -0.36300266, -1437188.1, -13253.545, 0.00043006244, 9.997526, 10.000939 
1.3749675e+3, 1.6469915e+2, -1652321.8, -1500175.6, 39827.863, 0.12252715, -0.270931, -1490380.4, -164455.61, 0.000029160963, 9.997773, 9.999843 
1.3749902e+3, 1.747e+2, -1443607.6, -1341144.8, 9345.52, 0.0028364935, -0.19972704, -1340299.4, -112376.84, 0.000000027808229, 9.998506, 9.999906 
1.3750136e+3, 1.847009e+2, -1213349.0, -1123386.0, 2064.2893, -0.06739258, -0.11367557, -1123338.8, 6576.4688, 0.0, 9.999184, 10.000395 
1.3750377e+3, 1.9470167e+2, -1028570.94, -975283.44, 67859.734, -0.04685536, -0.10815096, -929024.3, 102880.01, 0.0, 9.999745, 10.000469 
1.3750616e+3, 2.0470092e+2, -1012160.06, -1136063.0, 8493.88, 0.00093090395, -0.12647401, -1011580.5, -77669.48, 0.0, 10.000125, 9.99851 
1.375085e+3, 2.1469833e+2, -894051.25, -1027249.2, -22537.951, 0.087078094, -0.25944254, -890341.0, -54402.48, 0.0, 10.000264, 9.998513 
1.3751076e+3, 2.2469734e+2, -700916.56, -763626.56, -46227.26, 0.10394019, -0.25146887, -676413.75, 61534.2, 0.0, 10.000409, 9.9995775 
1.3751294e+3, 2.3469797e+2, -582910.3, -644221.44, -5106.862, 0.039258335, -0.18001887, -582487.8, 57450.445, 0.0, 10.000497, 9.999682 
1.3751528e+3, 2.4469686e+2, -512974.47, -726606.8, 64971.76, 0.026932359, -0.17830403, -494766.53, 47180.8, 0.0, 10.001007, 9.998207 
1.3751778e+3, 2.5469366e+2, -266083.84, -549980.94, 70212.18, 0.08366943, -0.3483388, -249668.44, 194309.89, 0.0, 10.002006, 9.998265 
1.375202e+3, 2.6469174e+2, -145633.8, -534703.1, -5739.0225, 0.11699631, -0.3179643, -145549.16, 200449.52, 0.000000022673568, 10.002575, 9.997417 
1.3752249e+3, 2.7469093e+2, -30748.963, -420852.2, -2226.5305, 0.11971355, -0.170505, -30736.254, 217273.67, 0.0000066245593, 10.002665, 9.997477 
1.3752483e+3, 2.8468838e+2, 81409.09, -440797.94, 28327.773, 0.07441307, -0.108593844, 82941.27, 232979.45, 0.000084736, 10.00329, 9.996366 
1.3752724e+3, 2.9468387e+2, 348396.22, -253124.98, -2081.1963, 0.0033845205, -0.23193489, 348403.44, 400489.53, 0.00038240635, 10.004407, 9.996448 
1.3752982e+3, 3.0468038e+2, 524748.44, 41742.375, -63354.29, 0.145683, -0.29465625, 532920.2, 532920.2, 0.0010235158, 10.004515, 9.998092 
1.3753231e+3, 3.1468076e+2, 438058.3, 229516.8, -33430.824, 0.30897528, -0.10272451, 443286.44, 443286.44, 0.0019779366, 10.002876, 10.000173 
1.3848703e+3, 1.24672905e+2, -2313880.8, -1693591.5, -83694.305, 0.012988338, -0.14751561, -1682497.3, 35690.58, 0.008351057, 9.994502, 10.002781 
1.3848922e+3, 1.3467255e+2, -2006364.5, -1605273.6, -18266.084, -0.07663283, -0.37657812, -1604443.5, 15741.476, 0.004803759, 9.996449, 10.0017805 
1.3849163e+3, 1.44673e+2, -1857877.8, -1604047.4, 24849.934, 0.0007636482, -0.44905207, -1601637.5, -79460.51, 0.0019753822, 9.997302, 10.000698 
1.3849409e+3, 1.5467487e+2, -1660711.4, -1456405.6, -6402.499, 0.07634989, -0.3617179, -1456205.1, -32046.785, 0.00045665295, 9.997986, 10.000703 
1.3849656e+3, 1.6467601e+2, -1601402.1, -1509890.8, 19229.83, 0.13419032, -0.24819334, -1506014.1, -179863.8, 0.00003186285, 9.998295, 9.9995165 
1.3849895e+3, 1.7467642e+2, -1510778.6, -1406616.3, 21853.602, 0.10160938, -0.18841347, -1402217.0, -174063.39, 0.000000039188958, 9.998211, 9.999593 
1.3850133e+3, 1.8467718e+2, -1349105.5, -1175264.5, 29404.178, 0.049574845, -0.10718705, -1170425.6, -40277.473, 0.0, 9.998192, 10.000521 
1.3850372e+3, 1.946782e+2, -1199549.9, -1033880.25, -19539.145, -0.008976376, -0.091631375, -1031607.0, 527.0304, 0.0, 9.998476, 10.000672 
1.385061e+3, 2.0467764e+2, -1140795.4, -1186014.5, -46731.832, -0.0041252174, -0.10651763, -1111491.0, -177352.55, 0.0, 9.999195, 9.998612 
1.3850851e+3, 2.1467519e+2, -854143.56, -993863.25, -12655.871, 0.075152986, -0.23929888, -853006.44, -16841.611, 0.0, 10.000477, 9.998642 
1.3851082e+3, 2.2467412e+2, -592900.8, -726974.44, -15550.311, 0.10126308, -0.24012443, -591120.9, 147053.7, 0.0, 10.001206, 9.999454 
1.3851304e+3, 2.3467442e+2, -450434.9, -595286.06, -65874.85, 0.06687469, -0.1865032, -424957.7, 215209.83, 0.0, 10.001461, 9.999561 
1.3851543e+3, 2.4467301e+2, -445770.66, -694052.44, 17573.268, 0.06958213, -0.20545854, -444533.0, 97645.61, 0.0, 10.001482, 9.998188 
1.3851796e+3, 2.5466967e+2, -363124.6, -594304.3, 14716.887, 0.10949568, -0.392708, -362191.5, 82019.09, 0.0, 10.001337, 9.998269 
1.385204e+3, 2.6466754e+2, -236607.55, -568205.06, -6564.01, 0.123518646, -0.3856801, -236477.67, 109753.836, 0.0000000049794013, 10.001899, 9.997515 
1.3852276e+3, 2.746666e+2, 78416.02, -358662.06, -7146.431, 0.10329821, -0.25999817, 78532.84, 326775.16, 0.0000064670485, 10.00335, 9.997583 
1.3852517e+3, 2.8466403e+2, 138738.61, -455918.0, 72752.06, 0.058937073, -0.18856667, 147509.94, 297781.63, 0.00007993784, 10.0038595, 9.995998 
1.3852763e+3, 2.9465955e+2, 184410.58, -365164.22, 80651.65, 0.0046664644, -0.2748823, 196001.95, 248324.75, 0.00035406946, 10.003417, 9.996154 
1.385302e+3, 3.046564e+2, 399065.66, -23899.838, -7847.77, 0.12208773, -0.28961325, 399211.22, 399211.22, 0.0009463453, 10.003652, 9.99806 
1.385327e+3, 3.1465572e+2, 683425.6, 373090.25, -166964.94, 0.34397635, -0.19865784, 756192.8, 756192.8, 0.0018382235, 10.004431, 10.000416 
1.394864e+3, 1.24648385e+2, -2341399.5, -1721606.0, 5533.488, -0.110229515, -0.24884859, -1721556.6, -3128.5576, 0.008733579, 9.994406, 10.002622 
1.39489e+3, 1.3465153e+2, -1996057.3, -1579816.8, 47279.39, 0.043968532, -0.14696783, -1574514.0, 45879.09, 0.005033633, 9.996431, 10.001965 
1.3949148e+3, 1.4465305e+2, -1889373.1, -1670655.6, 25373.666, 0.092060715, -0.10110341, -1667750.6, -145374.2, 0.002076125, 9.997308, 10.000236 
1.3949375e+3, 1.5465246e+2, -1700480.0, -1532325.9, 31897.553, -0.09081691, -0.20838302, -1526478.4, -102095.484, 0.00048381835, 9.997954, 10.000197 
1.394962e+3, 1.6465236e+2, -1572440.1, -1449905.5, 449.3478, -0.07247855, -0.2133795, -1449903.9, -123519.055, 0.000034571214, 9.998294, 9.99993 
1.3949881e+3, 1.7465286e+2, -1491264.0, -1353546.0, 25838.932, 0.12281741, -0.18504018, -1348857.6, -120476.766, 0.00000005013657, 9.998157, 9.999986 
1.3950129e+3, 1.8465275e+2, -1413285.5, -1307033.9, 22045.615, 0.1738435, -0.16707973, -1302641.3, -172258.55, 0.0, 9.998184, 9.99962 
1.3950367e+3, 1.9465177e+2, -1278416.4, -1181623.9, 128.64528, 0.09355131, -0.25598523, -1181623.8, -149231.2, 0.0, 9.9984, 9.999701 
1.3950609e+3, 2.0465152e+2, -1070554.0, -1013867.44, -12553.478, 0.036511555, -0.24763964, -1011211.8, -76817.43, 0.0, 9.9990835, 9.9998455 
1.395085e+3, 2.1465205e+2, -790724.25, -820357.75, 44750.617, 0.0000040940063, -0.2098429, -758401.25, 77986.45, 0.0, 10.0002985, 9.999918 
1.3951087e+3, 2.246516e+2, -675184.25, -866591.5, -17864.531, 0.013699984, -0.17053023, -673531.2, 64859.777, 0.0, 10.001059, 9.99857 
1.3951325e+3, 2.3464993e+2, -539687.94, -747376.25, -42692.46, 0.1031594, -0.2224927, -531254.5, 109152.32, 0.0, 10.001308, 9.998593 
1.3951565e+3, 2.4464834e+2, -453118.16, -674252.6, 575.99164, 0.12360215, -0.2226993, -453116.66, 89305.07, 0.0, 10.001333, 9.998395 
1.3951807e+3, 2.546466e+2, -375099.34, -577742.6, 20947.672, 0.06478749, -0.2672779, -372956.6, 71481.1, 0.0, 10.001167, 9.998463 
1.395205e+3, 2.6464453e+2, -229720.58, -529120.2, 32406.848, -0.0010914042, -0.28134173, -226253.03, 120203.78, 0.0000000011462398, 10.001787, 9.997839 
1.3952295e+3, 2.74642e+2, 74645.41, -325313.78, 60921.05, -0.07059652, -0.35100064, 83718.945, 332198.78, 0.0000063015364, 10.003166, 9.997907 
1.3952546e+3, 2.8463984e+2, 146894.34, -400264.0, 46131.375, -0.06797158, -0.2782471, 150756.47, 301260.06, 0.00007549819, 10.0036955, 9.996455 
1.3952802e+3, 2.9463765e+2, 189615.38, -320730.7, 81238.13, 0.03072799, -0.17549223, 202235.0, 254767.2, 0.0003302392, 10.003273, 9.996528 
1.3953054e+3, 3.0463484e+2, 265499.8, -273250.47, 7791.5186, 0.09749009, -0.091459066, 265612.5, 265612.5, 0.0008840765, 10.003534, 9.996399 
1.3953294e+3, 3.1462997e+2, 508027.22, 85606.87, -103279.74, 0.08640807, -0.25913087, 531926.5, 531926.5, 0.0017242576, 10.004114, 9.998584 
1.4048594e+3, 1.2462339e+2, -2391052.3, -1811814.8, -2478.5825, 0.009652667, -0.20151739, -1811804.3, -93132.0, 0.009133226, 9.994311, 10.002065 
1.4048871e+3, 1.3462625e+2, -1890760.5, -1551783.3, -57726.63, 0.0757519, -0.10619274, -1542222.3, 78419.96, 0.005275387, 9.997232, 10.001781 
1.4049132e+3, 1.4462781e+2, -1733566.6, -1586114.5, -127937.8, 0.16663508, -0.053846993, -1512180.1, 10446.287, 0.0021822979, 9.99833, 10.000327 
1.4049356e+3, 1.5462741e+2, -1764674.8, -1557954.8, -115140.625, -0.041422114, -0.14657143, -1506587.0, -81955.555, 0.00051218417, 9.997489, 10.000252 
1.40496e+3, 1.6462733e+2, -1635543.6, -1437170.6, -61998.555, -0.07603149, -0.17047451, -1419387.9, -92756.47, 0.000037386584, 9.997671, 10.000316 
1.4049862e+3, 1.7462754e+2, -1277990.6, -1199319.0, -59980.53, 0.06674628, -0.21654151, -1166926.4, 61699.535, 0.00000006103049, 9.999395, 10.000441 
1.4050117e+3, 1.8462707e+2, -1172993.5, -1242303.0, -50888.285, 0.15264522, -0.23569132, -1146080.6, -15450.326, 0.0, 10.000055, 9.999162 
1.4050366e+3, 1.9462574e+2, -1140695.6, -1168196.5, -65944.07, 0.18342157, -0.31355715, -1087083.6, -54436.625, 0.0, 9.999569, 9.999231 
1.405061e+3, 2.046258e+2, -983553.25, -906407.0, -25599.102, 0.13541432, -0.27983275, -898685.4, 35961.184, 0.0, 9.999397, 10.000436 
1.4050847e+3, 2.1462737e+2, -822605.1, -757343.0, -37377.75, -0.013277265, -0.20326626, -740356.7, 96270.78, 0.0, 9.999753, 10.000607 
1.405109e+3, 2.2462708e+2, -805676.8, -946987.0, -84242.56, -0.020235138, -0.17365405, -766382.1, -27753.705, 0.0, 10.000263, 9.99839 
1.4051339e+3, 2.3462458e+2, -598931.7, -790670.44, -82469.06, 0.14228234, -0.2897059, -568341.3, 72312.336, 0.0, 10.000985, 9.99844 
1.4051585e+3, 2.4462289e+2, -426950.16, -686218.94, -11469.749, 0.18225217, -0.28058624, -426443.72, 116227.125, 0.0, 10.00161, 9.99819 
1.4051822e+3, 2.5462195e+2, -240075.48, -532976.25, -41735.28, 0.066975184, -0.22219466, -234244.72, 210435.86, 0.0, 10.002175, 9.998292 
1.4052069e+3, 2.6462004e+2, -115290.31, -466536.0, -6496.191, -0.012870349, -0.21343513, -115170.21, 231528.78, 0.0000000047036606, 10.002547, 9.9979 
1.4052327e+3, 2.7461705e+2, 32004.715, -330148.66, -32493.785, -0.04342414, -0.3344977, 34897.082, 283623.4, 0.000006310061, 10.002826, 9.998028 
1.4052582e+3, 2.8461498e+2, 119434.234, -343119.2, -50201.117, -0.026052205, -0.28531995, 124819.875, 275567.06, 0.00007173929, 10.003211, 9.997076 
1.4052838e+3, 2.9461363e+2, 293096.1, -195654.22, -24580.717, 0.05900232, -0.1654183, 294329.22, 347093.84, 0.0003165935, 10.003679, 9.997185 
1.4053091e+3, 3.0461133e+2, 315773.16, -339911.06, -5782.1025, 0.08409614, -0.022173712, 315824.13, 315824.13, 0.0008530661, 10.004266, 9.995593 
1.4053337e+3, 3.1460485e+2, 554146.7, -25586.367, -106383.234, 0.09423581, -0.26330706, 573051.94, 573051.94, 0.001666942, 10.00499, 9.997409 
1.414855e+3, 1.2459778e+2, -2447036.8, -1926493.5, 11445.932, 0.090247214, -0.030169325, -1926242.0, -207320.44, 0.009556688, 9.994305, 10.001283 
1.4148828e+3, 1.3459665e+2, -1934891.3, -1637895.0, 62433.125, -0.100127354, -0.26855114, -1625304.4, -4371.6396, 0.0055341963, 9.9972105, 10.001201 
1.4149112e+3, 1.4459692e+2, -1683429.4, -1489751.1, -173213.11, 0.08766303, -0.35159338, -1388144.8, 134785.75, 0.0022969088, 9.998363, 10.000976 
1.414935e+3, 1.5459967e+2, -1727147.6, -1477044.4, -137667.52, 0.13284886, -0.18538351, -1416111.4, 8793.001, 0.0005425403, 9.997475, 10.000816 
1.4149588e+3, 1.6460104e+2, -1596256.5, -1359803.1, -18780.19, 0.023426041, -0.117440194, -1358320.9, -31432.04, 0.000040406845, 9.997685, 10.000844 
1.4149836e+3, 1.7460068e+2, -1249834.5, -1127531.8, 15479.399, -0.16515866, -0.27168307, -1125603.0, 103283.67, 0.00000007226826, 9.999333, 10.000968 
1.4150093e+3, 1.846004e+2, -1180273.3, -1247493.3, -80172.8, -0.122471645, -0.2984203, -1126950.5, 3938.4744, 0.0, 10.000015, 9.999144 
1.4150362e+3, 1.9460015e+2, -1158547.9, -1186826.0, -74701.74, 0.16579819, -0.26138294, -1096658.9, -63761.625, 0.0, 9.999491, 9.999141 
1.4150612e+3, 2.0460042e+2, -990334.6, -903307.9, -31279.695, 0.19653797, -0.20248748, -893231.75, 41663.637, 0.0, 9.999315, 10.000499 
1.4150843e+3, 2.1460119e+2, -843580.1, -764193.06, -13704.4375, -0.054148056, -0.21287253, -761893.9, 74989.336, 0.0, 9.999585, 10.000648 
1.4151086e+3, 2.2460055e+2, -796947.44, -886678.7, -71443.49, -0.10029956, -0.24652234, -757450.2, -18563.479, 0.0, 10.000084, 9.998887 
1.4151345e+3, 2.3459825e+2, -596406.4, -737872.9, -43773.727, 0.09146879, -0.39012367, -583957.1, 56951.62, 0.0, 10.000789, 9.998893 
1.4151599e+3, 2.445967e+2, -479002.06, -768443.44, -1270.8595, 0.13653335, -0.36371663, -478996.47, 63928.9, 0.0, 10.001488, 9.9976845 
1.4151841e+3, 2.545959e+2, -296934.2, -621704.75, -6531.4316, 0.012949429, -0.24397461, -296802.88, 148134.34, 0.0, 10.002042, 9.997748 
1.4152096e+3, 2.6459426e+2, -156689.73, -518615.8, -6611.7373, -0.014513258, -0.16496818, -156568.98, 190386.78, 0.000000079284355, 10.002402, 9.99761 
1.4152367e+3, 2.7459157e+2, -17131.965, -392149.16, -4069.2012, 0.06545907, -0.23133485, -17087.816, 231895.48, 0.000007370644, 10.002654, 9.9976845 
1.4152625e+3, 2.8458935e+2, 167144.08, -219808.9, -43522.527, 0.059453737, -0.22052893, 171978.86, 322982.66, 0.00007202747, 10.003101, 9.997976 
1.415287e+3, 2.9458755e+2, 331903.1, -77865.555, 11786.73, -0.01790388, -0.238456, 332241.84, 385260.16, 0.0003176136, 10.003504, 9.998087 
1.4153124e+3, 3.0458587e+2, 268655.56, -380979.0, 14145.551, -0.033364616, -0.07437794, 268963.44, 268963.44, 0.0008555452, 10.004046, 9.9953985 
1.4153397e+3, 3.145805e+2, 445122.94, -173901.19, -30578.977, 0.13961256, -0.18604198, 446629.8, 446629.8, 0.0016670786, 10.004682, 9.996519 
1.4248513e+3, 1.2456922e+2, -2003569.8, -1704385.6, -4395.3774, 0.15050004, -0.10887252, -1704321.0, 14877.997, 0.010011913, 9.997326, 10.001344 
1.4248791e+3, 1.3456862e+2, -2123136.5, -1727452.5, 97693.64, -0.11084189, -0.2869513, -1704646.6, -83439.79, 0.0058154534, 9.995959, 10.001172 
1.4249082e+3, 1.4456895e+2, -1936345.9, -1547554.4, -97674.734, 0.07099844, -0.3899077, -1524395.5, -1191.3068, 0.002423067, 9.996369, 10.001528 
1.4249337e+3, 1.5457213e+2, -1546330.3, -1322119.8, -97873.48, 0.21950157, -0.24138792, -1285407.0, 139765.0, 0.00057589856, 9.998443, 10.001395 
1.424958e+3, 1.6457385e+2, -1388182.4, -1256242.6, 24322.807, 0.1052254, -0.17326868, -1251901.6, 75250.76, 0.00004378684, 9.999085, 10.000883 
1.4249821e+3, 1.7457382e+2, -1402538.3, -1198391.1, -2560.0781, -0.185566, -0.29697967, -1198359.1, 30788.676, 0.00000008454083, 9.998263, 10.001001 
1.4250079e+3, 1.8457387e+2, -1412524.6, -1317510.0, -82128.2, -0.16948593, -0.3120905, -1270138.5, -138991.72, 0.0, 9.998246, 9.999512 
1.4250354e+3, 1.945739e+2, -1156841.3, -1139141.0, -66963.22, 0.15927638, -0.284939, -1080445.6, -47294.617, 0.0, 9.999313, 9.999547 
1.425061e+3, 2.0457418e+2, -923945.56, -894294.3, 5560.116, 0.21529432, -0.2353817, -893286.0, 41863.168, 0.0, 9.999868, 10.000294 
1.4250842e+3, 2.1457459e+2, -810655.7, -774045.75, -25010.814, -0.029828217, -0.25923526, -761357.0, 75785.23, 0.0, 9.9999075, 10.000428 
1.425109e+3, 2.2457412e+2, -739971.94, -840186.25, -54310.797, -0.08107011, -0.27509052, -716184.7, 22960.648, 0.0, 10.000382, 9.999071 
1.4251354e+3, 2.3457259e+2, -479676.3, -659238.9, -69854.305, 0.08164235, -0.3604166, -455702.16, 185458.27, 0.0, 10.001477, 9.999112 
1.4251614e+3, 2.4457127e+2, -420795.25, -743631.94, -22412.854, 0.13096197, -0.31888068, -419246.7, 123928.65, 0.0, 10.001921, 9.997642 
1.4251862e+3, 2.5457013e+2, -337774.78, -642750.7, -25939.264, 0.04944769, -0.2290677, -335584.28, 109606.92, 0.00000000006254562, 10.001778, 9.997725 
1.4252123e+3, 2.6456836e+2, -237286.7, -571152.3, 27848.514, 0.040605858, -0.15752085, -234979.73, 112231.67, 0.00000036239143, 10.001899, 9.997496 
1.4252394e+3, 2.745658e+2, -75426.38, -428830.06, 23336.082, 0.11598526, -0.1971406, -73892.11, 175344.95, 0.000010087366, 10.002279, 9.997613 
1.4252658e+3, 2.8456345e+2, 103530.86, -244802.25, -1612.0593, 0.11501645, -0.20201597, 103538.31, 254797.23, 0.00007869426, 10.0026455, 9.998028 
1.4252909e+3, 2.9456112e+2, 296900.8, -84565.484, -51663.824, 0.04854127, -0.27675253, 303774.06, 357052.16, 0.00033370158, 10.003226, 9.998174 
1.4253166e+3, 3.0455944e+2, 290920.38, -297606.8, -16188.111, 0.015279505, -0.14907609, 291365.3, 291365.3, 0.00088820327, 10.0038595, 9.996078 
1.4253446e+3, 3.145558e+2, 409108.6, -160074.36, -22416.805, 0.20012788, -0.16180922, 409990.1, 409990.1, 0.0017208928, 10.004286, 9.996814 
1.4348473e+3, 1.2453831e+2, -1920022.6, -1545754.8, -102901.92, -0.039576735, -0.40595335, -1519328.6, 200170.36, 0.010506618, 9.997369, 10.002426 
1.434876e+3, 1.3454254e+2, -2104168.0, -1674287.9, 69196.73, -0.03401044, -0.14360884, -1663424.0, -41963.43, 0.006123269, 9.995905, 10.001556 
1.4349042e+3, 1.4454432e+2, -1892389.3, -1463691.0, -35853.06, -0.003177262, -0.15214713, -1460713.3, 62730.008, 0.002563054, 9.99639, 10.002102 
1.4349315e+3, 1.5454493e+2, -1510963.4, -1243683.8, -8619.048, 0.11735344, -0.31216267, -1243406.1, 182026.58, 0.0006133788, 9.998411, 10.001957 
1.434957e+3, 1.6454574e+2, -1417570.3, -1318234.5, -20169.809, 0.055118818, -0.34298527, -1314295.3, 13126.691, 0.000047750204, 9.999088, 10.000459 
1.4349814e+3, 1.7454681e+2, -1438058.6, -1273276.9, -24539.201, -0.08821384, -0.3079925, -1269700.1, -40289.7, 0.00000010052836, 9.9982605, 10.000494 
1.4350072e+3, 1.8454735e+2, -1360655.0, -1200566.3, -60691.53, -0.08610703, -0.28577298, -1180158.9, -48754.047, 0.0, 9.99821, 10.000331 
1.435034e+3, 1.9454704e+2, -1112516.1, -1023597.5, -16418.498, 0.062424593, -0.37985548, -1020662.75, 12745.087, 0.0, 9.999209, 10.000392 
1.4350596e+3, 2.0454715e+2, -972170.44, -968098.9, -6733.9565, 0.076938696, -0.3727815, -963099.7, -27692.389, 0.0, 9.999753, 9.999841 
1.435084e+3, 2.1454762e+2, -876670.5, -869883.9, -12859.606, -0.038834207, -0.33665764, -859977.4, -22573.695, 0.0, 9.999729, 9.999855 
1.4351097e+3, 2.2454782e+2, -773967.8, -866704.1, -28137.158, -0.0625548, -0.24916874, -766098.5, -26694.906, 0.0, 10.000199, 9.998974 
1.4351365e+3, 2.3454763e+2, -515821.78, -683416.4, -17649.186, 0.018125286, -0.19515462, -513983.34, 127424.61, 0.0, 10.001269, 9.999043 
1.4351629e+3, 2.4454656e+2, -420792.63, -707144.7, -41668.15, 0.06275206, -0.14145058, -414852.56, 128568.14, 0.0, 10.001753, 9.997976 
1.4351884e+3, 2.545444e+2, -342399.06, -612468.9, -20912.018, 0.07056347, -0.18422662, -340789.4, 104655.016, 0.000000006122379, 10.001605, 9.998016 
1.4352144e+3, 2.645422e+2, -238903.08, -549002.4, 27636.9, 0.05414733, -0.17949736, -236459.25, 111007.266, 0.0000008787704, 10.001783, 9.997707 
1.435241e+3, 2.745399e+2, -81108.41, -410456.78, 52656.984, 0.014283362, -0.21496359, -72894.35, 176593.05, 0.000014147242, 10.002142, 9.997813 
1.4352678e+3, 2.8453732e+2, 26474.637, -375433.0, 6228.839, 0.035836443, -0.21397461, 26571.15, 178083.42, 0.000090676054, 10.002514, 9.997192 
1.4352952e+3, 2.9453406e+2, 200562.97, -246723.39, -10940.239, 0.12726693, -0.2937964, 200830.39, 254376.08, 0.00036367134, 10.003051, 9.997149 
1.4353216e+3, 3.0453187e+2, 380923.2, -66544.96, -11135.835, 0.09686273, -0.23912121, 381200.16, 381200.16, 0.00095405465, 10.003695, 9.997734 
1.4353482e+3, 3.1453085e+2, 458725.63, 26437.395, 42141.984, 0.10065657, -0.16114984, 462795.56, 462795.56, 0.0018378412, 10.003935, 9.998268 
1.4448443e+3, 1.24510475e+2, -1861711.0, -1483671.8, 5220.952, -0.06939595, -0.49297842, -1483599.6, 236168.86, 0.011047917, 9.997595, 10.002752 
1.4448726e+3, 1.3451537e+2, -2054738.1, -1662634.4, 64531.48, 0.035256643, -0.16669454, -1652287.0, -30563.115, 0.00646129, 9.996266, 10.001466 
1.4448997e+3, 1.4451751e+2, -1938902.0, -1489318.0, 53279.67, -0.051697113, -0.12778875, -1483090.1, 40612.76, 0.0027186894, 9.9961, 10.002055 
1.444929e+3, 1.5451764e+2, -1628385.3, -1296834.4, 7636.5835, 0.078480475, -0.34104, -1296658.5, 129038.555, 0.0006559602, 9.997596, 10.001985 
1.4449556e+3, 1.6451825e+2, -1528492.6, -1383880.5, -60619.297, 0.061954215, -0.38528612, -1361831.6, -34142.664, 0.000052490832, 9.9984, 10.000328 
1.4449805e+3, 1.745195e+2, -1381286.3, -1253434.4, -66905.46, -0.0315399, -0.3218081, -1224824.5, 4853.0215, 0.00000012546444, 9.998708, 10.000397 
1.4450063e+3, 1.845201e+2, -1240638.5, -1144159.0, -57041.54, -0.015602515, -0.28897312, -1117693.9, 13978.159, 0.0, 9.999019, 10.000337 
1.4450334e+3, 1.9451979e+2, -1086573.9, -1003466.44, -97537.81, 0.09542195, -0.38647455, -938999.7, 94674.95, 0.0, 9.999349, 10.000462 
1.4450592e+3, 2.045199e+2, -998965.2, -996585.25, -105336.61, 0.08464623, -0.37491575, -892431.9, 43242.414, 0.0, 9.999645, 9.999698 
1.4450838e+3, 2.1452035e+2, -850455.5, -868496.0, -110735.1, -0.05009731, -0.3258723, -748373.9, 89298.03, 0.0, 9.999969, 9.999747 
1.4451098e+3, 2.2452056e+2, -756564.0, -855257.25, -56252.754, -0.06246747, -0.23105218, -731081.06, 8590.954, 0.0, 10.000297, 9.99901 
1.4451379e+3, 2.3452038e+2, -597197.8, -716175.3, -59633.023, 0.062374957, -0.18170026, -572454.7, 69221.57, 0.0, 10.000669, 9.999109 
1.4451645e+3, 2.4451935e+2, -502396.2, -726732.8, -75807.46, 0.11168163, -0.13933872, -479181.7, 64506.793, 0.0, 10.001111, 9.998147 
1.44519e+3, 2.5451714e+2, -303022.13, -577867.8, -88298.13, 0.06343614, -0.20104064, -277099.94, 168611.78, 0.000000012932129, 10.001788, 9.998177 
1.4452162e+3, 2.645151e+2, -161861.61, -471790.97, -16272.843, 0.04295784, -0.20393603, -161009.55, 186721.53, 0.0000016431604, 10.002157, 9.998048 
1.4452435e+3, 2.7451324e+2, -31869.45, -340782.8, -16320.427, 0.060387418, -0.23109686, -31009.607, 218736.16, 0.000019343763, 10.002305, 9.998197 
1.445271e+3, 2.845107e+2, -4562.066, -469017.5, -16028.904, 0.09039783, -0.21097946, -4009.5466, 147761.16, 0.00010742276, 10.002633, 9.9964905 
1.4452982e+3, 2.9450718e+2, 152184.47, -346067.63, -40423.65, 0.13656928, -0.24898143, 155442.78, 209253.19, 0.00040939418, 10.003045, 9.996458 
1.4453252e+3, 3.0450413e+2, 378680.75, -27657.21, -36400.766, 0.111150764, -0.2598811, 381915.88, 381915.88, 0.0010586395, 10.0034895, 9.998118 
1.4453533e+3, 3.145036e+2, 513554.63, 121741.28, -123842.93, 0.22054052, -0.1793444, 549416.1, 549416.1, 0.0020273905, 10.004021, 9.998882 
1.4548442e+3, 1.244865e+2, -1896701.5, -1571606.6, 43662.402, 0.08013592, -0.33883917, -1565844.6, 154155.3, 0.011640448, 9.997665, 10.002108 
1.4548688e+3, 1.3448727e+2, -2106681.5, -1759952.5, 23392.227, 0.0026611567, -0.36818507, -1758381.5, -136386.2, 0.0068325973, 9.996216, 10.000829 
1.4548948e+3, 1.4448866e+2, -1994552.3, -1597113.4, 90921.266, -0.20373742, -0.32905537, -1577301.1, -53318.535, 0.0028915813, 9.996073, 10.001324 
1.4549258e+3, 1.5449023e+2, -1679280.8, -1390091.5, 73425.8, -0.010066507, -0.3366476, -1372516.6, 53448.59, 0.00070428615, 9.99755, 10.001363 
1.4549538e+3, 1.6449147e+2, -1506596.0, -1349222.8, -64551.027, 0.01702865, -0.29714513, -1326133.1, 1819.2101, 0.000058062662, 9.998439, 10.00055 
1.4549786e+3, 1.7449197e+2, -1368127.6, -1221547.1, -43481.24, -0.10679402, -0.33295023, -1209619.6, 20328.367, 0.00000016567238, 9.998681, 10.000633 
1.4550051e+3, 1.8449219e+2, -1294119.5, -1249620.5, -58371.438, -0.06609389, -0.31673613, -1209401.9, -77454.32, 0.0, 9.998996, 9.999624 
1.4550337e+3, 1.9449218e+2, -1156253.5, -1129162.3, -74178.35, 0.15984443, -0.30476242, -1067302.9, -33351.945, 0.0, 9.999263, 9.999646 
1.4550595e+3, 2.0449236e+2, -1007301.94, -983367.25, -106570.29, 0.13671938, -0.24671504, -888094.44, 47856.31, 0.0, 9.99952, 9.999846 
1.4550827e+3, 2.1449268e+2, -861035.5, -850460.44, -87293.72, -0.1628283, -0.23355997, -768294.25, 69653.414, 0.0, 9.999801, 9.999951 
1.455109e+3, 2.244923e+2, -760866.25, -827106.94, -56120.844, -0.18966013, -0.22255735, -728821.4, 11129.997, 0.0, 10.000135, 9.99928 
1.455139e+3, 2.3449107e+2, -614657.75, -698829.4, -32688.064, 0.108885564, -0.30266958, -603454.44, 38509.1, 0.0, 10.000446, 9.999332 
1.4551665e+3, 2.4448982e+2, -520078.03, -731462.1, -61867.76, 0.17038977, -0.29258856, -503302.0, 40674.543, 0.0, 10.00096, 9.998193 
1.4551906e+3, 2.5448856e+2, -318439.0, -579744.56, -48988.664, -0.058007296, -0.2679234, -309556.7, 136434.39, 0.000000017460069, 10.001653, 9.998232 
1.4552172e+3, 2.644872e+2, -155209.33, -429607.44, -20464.068, -0.09144776, -0.21991388, -153691.56, 194311.64, 0.000002726617, 10.0020275, 9.998403 
1.4552467e+3, 2.744857e+2, -34256.25, -303924.34, 1731.1661, 0.12515874, -0.24998224, -34245.14, 215768.34, 0.000025176965, 10.002125, 9.998535 
1.4552745e+3, 2.8448355e+2, -55749.902, -534236.06, -14264.043, 0.16615109, -0.19331957, -55325.055, 96710.22, 0.00012772917, 10.00246, 9.996126 
1.4552999e+3, 2.9448047e+2, 100433.1, -415498.28, -6025.8315, -0.017010601, -0.14298137, 100503.48, 154575.72, 0.00046719576, 10.002877, 9.996068 
1.4553274e+3, 3.044764e+2, 299052.78, -157347.81, -25084.896, -0.038544033, -0.19825341, 300427.38, 300427.38, 0.0011939923, 10.00333, 9.997304 
1.4553587e+3, 3.144737e+2, 434718.9, 29532.338, -57664.156, 0.3254303, -0.2539752, 442765.6, 442765.6, 0.0022781454, 10.003706, 9.998404 
1.4648421e+3, 1.2446081e+2, -2123279.8, -1777758.5, 30498.613, 0.17716059, -0.24735996, -1775087.0, -54837.914, 0.012283002, 9.99654, 10.001227 
1.4648657e+3, 1.344598e+2, -1883002.0, -1719085.6, -92186.82, -0.010757973, -0.39332637, -1677692.4, -55427.758, 0.00723705, 9.99805, 10.000218 
1.4648922e+3, 1.4446089e+2, -1706728.9, -1473695.5, 57802.24, -0.15017284, -0.33873248, -1460145.9, 64109.605, 0.0030819494, 9.998079, 10.001224 
1.464923e+3, 1.5446272e+2, -1690568.4, -1387904.9, 66956.13, -0.022194602, -0.32425183, -1373754.3, 52480.24, 0.0007585455, 9.997415, 10.001455 
1.4649518e+3, 1.6446413e+2, -1657211.1, -1419379.3, -14446.317, 0.028686367, -0.27764305, -1418505.0, -90284.85, 0.00006440502, 9.997395, 10.000571 
1.4649777e+3, 1.7446454e+2, -1402713.0, -1237017.5, -38636.11, -0.0311855, -0.32261804, -1228451.4, 1766.8109, 0.00000022299002, 9.998436, 10.000647 
1.4650048e+3, 1.8446478e+2, -1308591.3, -1282673.0, -37115.125, -0.0011121512, -0.2903233, -1256319.6, -124100.93, 0.0, 9.999035, 9.999368 
1.4650325e+3, 1.9446492e+2, -1171250.6, -1159050.5, -41374.6, 0.13631281, -0.23933788, -1123328.8, -89107.586, 0.0, 9.999278, 9.999421 
1.4650588e+3, 2.044649e+2, -1002745.9, -992524.44, -27650.057, 0.10595602, -0.18704699, -969516.75, -33294.02, 0.0, 9.999587, 9.999759 
1.465083e+3, 2.1446462e+2, -819118.6, -834081.4, -46966.668, -0.11975511, -0.22820863, -779041.2, 59182.836, 0.0, 10.000102, 9.999922 
1.4651097e+3, 2.2446406e+2, -702248.06, -799600.0, -13608.122, -0.14058352, -0.2332732, -700381.7, 39847.094, 0.0, 10.000552, 9.999266 
1.4651394e+3, 2.3446299e+2, -526445.0, -659047.1, -36718.88, 0.08060662, -0.29357904, -516956.2, 125283.195, 0.0, 10.001053, 9.999319 
1.4651673e+3, 2.4446188e+2, -438101.8, -683220.75, -44021.465, 0.13059704, -0.2738827, -430435.66, 113815.195, 0.0, 10.001494, 9.998267 
1.4651926e+3, 2.5446072e+2, -261372.55, -538194.56, -56697.305, -0.034123115, -0.24607597, -250210.19, 196053.22, 0.000000044837254, 10.001999, 9.998344 
1.4652196e+3, 2.644591e+2, -154656.55, -465875.75, -51249.39, -0.047698725, -0.21529561, -146434.39, 201843.64, 0.0000038968087, 10.002179, 9.998084 
1.4652486e+3, 2.7445692e+2, -79062.086, -367783.25, -97506.79, 0.12383981, -0.27524513, -49217.18, 201078.84, 0.000030518888, 10.001977, 9.99818 
1.465277e+3, 2.8445473e+2, -43883.145, -461312.7, -52891.316, 0.17766596, -0.22786383, -37285.707, 115032.0, 0.00014669269, 10.002249, 9.996731 
1.4653039e+3, 2.9445267e+2, 185138.53, -297017.7, -15617.027, 0.08027408, -0.1412246, 185643.84, 239986.81, 0.00052426284, 10.003138, 9.99675 
1.4653316e+3, 3.0444866e+2, 261530.3, -242130.3, 10775.872, 0.058042336, -0.19758612, 261760.73, 261760.73, 0.0013359414, 10.003377, 9.996677 
1.465362e+3, 3.1444484e+2, 283881.53, -67475.57, -39346.266, 0.34975284, -0.29475084, 288233.78, 288233.78, 0.0025509538, 10.002756, 9.998182 
1.4748372e+3, 1.2443203e+2, -2195580.8, -1920238.3, 493.02902, -0.009133512, -0.32526106, -1920237.4, -199707.52, 0.012969953, 9.99653, 10.000235 
1.4748624e+3, 1.3443293e+2, -1927387.3, -1807165.9, -44878.293, -0.16818382, -0.22644189, -1792260.8, -169728.58, 0.0076708426, 9.998036, 9.999614 
1.474892e+3, 1.4443426e+2, -1640862.4, -1360168.6, 8461.693, -0.0051236325, -0.1504945, -1359913.8, 164607.67, 0.0032881629, 9.998165, 10.001968 
1.4749204e+3, 1.5443534e+2, -1641033.4, -1275299.9, 50514.418, -0.049267992, -0.29347184, -1268451.3, 158051.7, 0.00081847684, 9.997367, 10.002256 
1.474949e+3, 1.6443636e+2, -1666197.6, -1444117.3, 6060.778, -0.020608071, -0.31664765, -1443952.0, -115461.17, 0.000071419374, 9.997414, 10.000392 
1.4749777e+3, 1.744373e+2, -1427914.4, -1280509.0, 9576.381, 0.08732755, -0.2847518, -1279889.4, -49402.344, 0.0000002932695, 9.998397, 10.000364 
1.4750047e+3, 1.8443792e+2, -1293011.8, -1255606.5, -41500.08, 0.077021584, -0.20825048, -1228789.5, -96304.516, 0.0, 9.999044, 9.999556 
1.47503e+3, 1.94438e+2, -1164734.4, -1131763.8, -22985.357, -0.0699767, -0.18675038, -1119963.1, -85477.33, 0.0, 9.999209, 9.999649 
1.4750564e+3, 2.044375e+2, -1029192.06, -1025954.2, -25110.803, -0.11509045, -0.18615845, -1002410.2, -65919.73, 0.0, 9.9994955, 9.999571 
1.4750843e+3, 2.1443631e+2, -865694.94, -885308.06, -18884.229, -0.0254292, -0.2952289, -854222.8, -15722.944, 0.0, 9.999911, 9.99966 
1.4751117e+3, 2.2443585e+2, -750603.75, -861809.56, -8337.93, -0.01546097, -0.25926757, -749982.06, -9477.781, 0.0, 10.000377, 9.998928 
1.4751387e+3, 2.3443617e+2, -571316.8, -717678.4, -5665.698, -0.11240085, -0.15020075, -571097.8, 71406.06, 0.0, 10.000899, 9.998994 
1.4751665e+3, 2.4443546e+2, -453466.06, -686700.25, -39068.508, -0.11408035, -0.07706108, -447095.78, 97416.08, 0.0, 10.001362, 9.99831 
1.4751953e+3, 2.5443336e+2, -286671.75, -547112.2, -26308.38, 0.021223832, -0.14706405, -284040.78, 162490.19, 0.000000082863835, 10.001805, 9.998379 
1.475223e+3, 2.6443067e+2, -241211.42, -604714.44, -65617.46, 0.05590177, -0.187362, -229729.23, 118827.195, 0.0000048986644, 10.002, 9.997215 
1.4752492e+3, 2.7442706e+2, -164494.88, -509686.06, -83067.14, -0.037970476, -0.30275482, -145545.73, 105045.52, 0.00003489947, 10.001823, 9.997275 
1.4752777e+3, 2.8442457e+2, 25159.902, -291994.72, -32267.611, 0.02138045, -0.29721397, 28409.545, 181024.75, 0.00016199038, 10.002125, 9.99796 
1.4753091e+3, 2.944236e+2, 253473.28, -115816.234, 32279.84, 0.26626006, -0.23674458, 256273.66, 310897.9, 0.00057622173, 10.002962, 9.998084 
1.475337e+3, 3.0442065e+2, 214138.73, -300491.56, -22160.102, 0.25223842, -0.24261966, 215091.19, 215091.19, 0.0014704259, 10.003212, 9.996349 
1.4753628e+3, 3.144167e+2, 244208.77, -79047.56, -12847.9375, 0.10409546, -0.31706622, 244718.61, 244718.61, 0.0028069552, 10.00247, 9.998234 
1.4848338e+3, 1.2440283e+2, -2248483.5, -1906959.9, -79929.766, 0.03409918, -0.35990778, -1889179.0, -168361.64, 0.013700781, 9.995983, 10.000604 
1.48486e+3, 1.3440461e+2, -2027236.9, -1771030.8, 11527.97, -0.14514439, -0.23922761, -1770513.1, -147705.83, 0.00813248, 9.996963, 10.000397 
1.484891e+3, 1.4440617e+2, -1818969.0, -1478816.0, 59754.297, 0.13446754, -0.16883723, -1468624.4, 56169.008, 0.0035089266, 9.997125, 10.0016365 
1.4849178e+3, 1.544066e+2, -1701990.9, -1345521.8, -22140.436, -0.021930758, -0.33839634, -1344151.9, 82631.88, 0.0008836724, 9.997151, 10.00186 
1.484946e+3, 1.6440767e+2, -1679805.9, -1416310.9, -33160.727, -0.026527643, -0.3484609, -1412201.8, -83429.336, 0.00007901186, 9.997198, 10.000682 
1.4849761e+3, 1.7440951e+2, -1526676.8, -1286345.8, -10083.583, 0.14266624, -0.2591675, -1285923.4, -55163.887, 0.00000037325287, 9.997551, 10.000732 
1.485004e+3, 1.8441048e+2, -1373388.1, -1267256.4, 3421.7717, 0.14002316, -0.17934504, -1267146.3, -134393.27, 0.0, 9.998371, 9.999802 
1.4850293e+3, 1.9441026e+2, -1021701.2, -1034162.2, -1019.321, -0.09051, -0.2103401, -1021618.4, 13136.571, 0.0, 10.000062, 9.999908 
1.485056e+3, 2.0440957e+2, -895945.0, -1008413.7, -29813.05, -0.1449897, -0.22320208, -888530.94, 48230.45, 0.0, 10.000627, 9.999138 
1.4850844e+3, 2.1440823e+2, -907562.8, -956163.7, -69039.01, 0.027569417, -0.3001826, -858672.44, -19898.768, 0.0, 9.999843, 9.999202 
1.4851123e+3, 2.2440746e+2, -859957.9, -933363.4, -3094.0845, 0.049449284, -0.26195043, -859827.7, -119046.33, 0.0, 9.999709, 9.998756 
1.4851391e+3, 2.3440745e+2, -633399.25, -760027.75, -11058.429, -0.1326256, -0.17095236, -632440.8, 10342.254, 0.0, 10.000537, 9.998872 
1.4851673e+3, 2.4440645e+2, -515187.03, -714077.3, -35837.523, -0.12931497, -0.121183895, -508926.6, 35866.555, 0.0, 10.000934, 9.998328 
1.4851974e+3, 2.5440416e+2, -427013.03, -609506.25, -49514.664, 0.11152059, -0.21172604, -414444.2, 32369.857, 0.00000011463164, 10.000824, 9.998422 
1.4852256e+3, 2.6440164e+2, -348652.7, -630243.75, -22930.99, 0.16414091, -0.24671207, -346797.56, 2040.0774, 0.000005857849, 10.001165, 9.9974375 
1.4852512e+3, 2.7439868e+2, -101493.85, -453150.38, 3713.4792, -0.024320155, -0.31715304, -101454.65, 149411.31, 0.000039275426, 10.002157, 9.997502 
1.4852796e+3, 2.8439605e+2, 85564.695, -305703.72, 71896.92, -0.016107926, -0.3167555, 98357.72, 251249.5, 0.00017769578, 10.002743, 9.997556 
1.4853115e+3, 2.9439408e+2, 207462.77, -187522.64, -16352.683, 0.2331703, -0.3151508, 208138.63, 263051.72, 0.0006295016, 10.002858, 9.9976425 
1.4853403e+3, 3.043919e+2, 291006.72, -219921.97, -83773.055, 0.25408158, -0.23752765, 304391.7, 304391.7, 0.0015966431, 10.003526, 9.996775 
1.4853671e+3, 3.143891e+2, 633406.5, 182106.38, -64212.46, 0.17170024, -0.24242698, 642365.06, 642365.06, 0.0030270398, 10.00482, 9.998909 
1.4948289e+3, 1.2437387e+2, -2085290.5, -1578902.0, -223952.13, -0.12066718, -0.27959204, -1494069.9, 227035.95, 0.014485426, 9.996022, 10.002854 
1.4948583e+3, 1.3437526e+2, -1887178.5, -1459192.4, 53573.418, -0.034555115, -0.41424543, -1452588.1, 170497.6, 0.008627366, 9.996877, 10.002584 
1.4948887e+3, 1.4437683e+2, -1909451.1, -1686151.8, 39498.406, 0.15005648, -0.39335927, -1679370.9, -154302.19, 0.0037456865, 9.997189, 10.00019 
1.4949149e+3, 1.5437675e+2, -1830516.0, -1609235.3, -10859.507, -0.054837644, -0.43977034, -1608703.6, -181628.92, 0.0009542572, 9.997129, 10.000068 
1.4949428e+3, 1.643782e+2, -1613070.0, -1293358.3, -37062.598, -0.11540766, -0.35547757, -1289118.0, 39945.637, 0.00008722728, 9.997258, 10.001495 
1.4949727e+3, 1.7438115e+2, -1464997.1, -1150523.0, 11524.544, 0.043484613, -0.25031126, -1150101.3, 80934.14, 0.0000004647829, 9.997518, 10.001679 
1.495002e+3, 1.8438251e+2, -1349008.9, -1221988.0, 47799.914, 0.07753717, -0.19637467, -1206010.0, -72988.02, 0.0, 9.998386, 10.000108 
1.4950302e+3, 1.9438186e+2, -1020940.9, -1010327.3, 70558.16, -0.03990245, -0.29627606, -944876.7, 90150.72, 0.0, 9.999963, 10.000121 
1.4950573e+3, 2.043812e+2, -956373.8, -1110134.9, -68800.97, -0.09059418, -0.2889991, -930083.7, 6951.084, 0.0, 10.000514, 9.998497 
1.4950837e+3, 2.1438038e+2, -976827.0, -1067100.6, -89559.22, -0.042600855, -0.24474317, -921673.3, -82627.9, 0.0, 9.999701, 9.998508 
1.4951113e+3, 2.2437903e+2, -880607.7, -948645.8, 9118.315, -0.037442744, -0.22741313, -879406.9, -138348.0, 0.0, 9.99958, 9.998718 
1.4951402e+3, 2.3437695e+2, -658241.3, -773739.6, 31588.744, -0.08578458, -0.34416044, -650166.4, -7090.19, 0.0, 10.000368, 9.998862 
1.4951694e+3, 2.4437504e+2, -542236.44, -728358.2, -47581.223, -0.03626649, -0.38354865, -530777.94, 14315.531, 0.0, 10.0007515, 9.998318 
1.4951988e+3, 2.5437322e+2, -450871.22, -624145.75, -38111.625, 0.14145117, -0.42782083, -442859.06, 4252.5845, 0.00000015644366, 10.00067, 9.998398 
1.495227e+3, 2.6437205e+2, -295519.13, -486039.88, 1031.7762, 0.17894474, -0.3791879, -295513.53, 53608.453, 0.000006865855, 10.001019, 9.998499 
1.4952543e+3, 2.743715e+2, -47435.01, -304483.63, 53430.582, 0.043974042, -0.32040808, -36771.23, 214352.44, 0.00004412461, 10.002003, 9.998598 
1.4952822e+3, 2.8436893e+2, -61355.57, -583437.1, 64802.94, -0.058423106, -0.28721175, -53432.21, 99718.766, 0.00019465707, 10.002615, 9.995715 
1.4953111e+3, 2.94364e+2, 46171.17, -491058.03, 11607.995, -0.10841599, -0.37714636, 46421.87, 101630.91, 0.00068026903, 10.002712, 9.995635 
1.4953412e+3, 3.0436248e+2, 324693.94, -90197.805, -43941.676, -0.033244666, -0.17579658, 329296.78, 329296.78, 0.0016997993, 10.003289, 9.997769 
1.4953734e+3, 3.1436178e+2, 627059.0, 271264.1, 24652.793, 0.2828524, -0.08758815, 628759.06, 628759.06, 0.003183954, 10.004392, 9.999728 
1.504825e+3, 1.243448e+2, -2113498.0, -1569508.5, -106103.8, -0.06641487, -0.30530587, -1549545.8, 171844.58, 0.015336173, 9.995733, 10.00305 
1.504856e+3, 1.343463e+2, -1927364.5, -1447363.3, 12261.381, 0.092212856, -0.4664217, -1447050.3, 176315.55, 0.0091627855, 9.996448, 10.002879 
1.504885e+3, 1.4434776e+2, -1985334.5, -1751772.4, -33652.156, 0.08133351, -0.45984554, -1747020.4, -221670.78, 0.0040015904, 9.996817, 9.999909 
1.5049127e+3, 1.5434787e+2, -1821263.4, -1632363.4, -5596.836, 0.014140535, -0.45659372, -1632197.8, -204842.14, 0.001031135, 9.997322, 9.999811 
1.504941e+3, 1.6434921e+2, -1591583.9, -1307331.6, 20278.92, -0.021445164, -0.36048722, -1305892.3, 23454.145, 0.000096309515, 9.99749, 10.001299 
1.50497e+3, 1.7435163e+2, -1466923.1, -1167288.0, -41425.42, 0.025229478, -0.29323465, -1161666.4, 69655.69, 0.000000575819, 9.997559, 10.001548 
1.5049997e+3, 1.8435284e+2, -1468346.5, -1256537.4, -6647.672, 0.056284353, -0.25659987, -1256329.0, -123019.7, 0.0, 9.997481, 10.000296 
1.5050295e+3, 1.9435257e+2, -1374071.8, -1151201.5, -7506.598, 0.04761409, -0.3409987, -1150948.9, -115638.38, 0.0, 9.997427, 10.000364 
1.5050578e+3, 2.0435204e+2, -1280425.9, -1258113.9, -99444.99, 0.02954577, -0.33566415, -1169201.0, -231884.8, 0.0, 9.998268, 9.998564 
1.505084e+3, 2.1435106e+2, -873460.0, -1012518.94, -93996.44, -0.0034899767, -0.30983788, -826072.06, 13256.388, 0.0, 10.000394, 9.998553 
1.5051119e+3, 2.2434968e+2, -602884.7, -801148.75, 46727.05, -0.017730365, -0.30215243, -592423.94, 148918.22, 0.0, 10.001452, 9.998816 
1.5051416e+3, 2.3434773e+2, -530280.1, -699626.94, 46793.734, -0.018896941, -0.4151057, -518210.4, 125147.59, 0.0, 10.001205, 9.998959 
1.5051709e+3, 2.4434601e+2, -491819.94, -698057.75, -12579.907, 0.036689788, -0.44293448, -491055.44, 54318.234, 0.0, 10.001078, 9.998362 
1.5051997e+3, 2.5434455e+2, -378265.66, -581250.6, -30991.635, 0.15926705, -0.4574373, -373639.3, 73749.69, 0.00000020302433, 10.001144, 9.998452 
1.5052284e+3, 2.643434e+2, -225146.63, -482779.16, 27352.164, 0.18097845, -0.39400205, -222274.73, 127125.02, 0.0000077496, 10.0016365, 9.99822 
1.5052569e+3, 2.7434248e+2, 41400.56, -294278.8, -39023.547, 0.072921924, -0.34333587, 45877.434, 297283.8, 0.000048509926, 10.002744, 9.998315 
1.5052854e+3, 2.8433973e+2, 36600.06, -529770.75, -26836.576, -0.031718355, -0.31453145, 37868.824, 191304.42, 0.00020995413, 10.003263, 9.995772 
1.505314e+3, 2.94335e+2, 120102.9, -433710.03, 20719.621, -0.116103716, -0.3906059, 120876.99, 176367.06, 0.00072184385, 10.003158, 9.995795 
1.505344e+3, 3.043339e+2, 243320.72, -154047.47, 40579.742, -0.035503067, -0.15480399, 247422.44, 247422.44, 0.0017670259, 10.002806, 9.9975815 
1.5053765e+3, 3.143323e+2, 185921.36, -30937.283, -24111.813, 0.32228437, -0.123690225, 188569.94, 188569.94, 0.0032586465, 10.001713, 9.998952 
1.514823e+3, 1.2431646e+2, -2238698.5, -1846931.4, -232.60901, 0.0803696, -0.41576567, -1846931.3, -125268.766, 0.016257107, 9.995817, 10.001091 
1.5148531e+3, 1.3431825e+2, -2072403.4, -1721688.8, 54576.0, 0.12767845, -0.3790384, -1713392.3, -89748.73, 0.009740974, 9.996361, 10.0010195 
1.514879e+3, 1.4431936e+2, -1913421.4, -1627108.8, -34579.453, -0.22847009, -0.33967993, -1622991.5, -97359.23, 0.0042781597, 9.996901, 10.000732 
1.5149109e+3, 1.5432006e+2, -1740618.8, -1469356.6, 24275.314, 0.0775153, -0.38474965, -1467201.4, -39575.273, 0.0011151112, 9.997328, 10.000933 
1.5149404e+3, 1.6432083e+2, -1659708.4, -1464113.3, 6277.5093, 0.14624897, -0.35496932, -1463912.0, -134292.38, 0.000106548556, 9.99755, 10.000193 
1.5149675e+3, 1.7432113e+2, -1560730.9, -1356373.9, -28941.908, -0.0062496574, -0.3784967, -1352354.0, -120736.125, 0.0000007145684, 9.99753, 10.000266 
1.5149964e+3, 1.8432161e+2, -1457286.6, -1237869.8, -21783.64, -0.03356614, -0.35191962, -1235727.9, -102114.61, 0.0, 9.997495, 10.000421 
1.5150274e+3, 1.9432244e+2, -1368738.5, -1125628.8, 85.27808, 0.07772265, -0.34743318, -1125628.8, -90024.88, 0.0, 9.997362, 10.000573 
1.5150571e+3, 2.043222e+2, -1246234.9, -1164678.4, -39807.43, 0.10790281, -0.3560471, -1148469.8, -210864.83, 0.0, 9.998167, 9.999256 
1.5150853e+3, 2.1432047e+2, -848199.06, -918561.06, -3201.1206, 0.047378328, -0.47893423, -848053.7, -8432.744, 0.0, 10.000211, 9.9992895 
1.5151137e+3, 2.2431955e+2, -619741.7, -786378.0, 31332.904, -0.0017796849, -0.47254875, -614044.9, 127584.92, 0.0, 10.001237, 9.999023 
1.5151428e+3, 2.343197e+2, -546467.94, -691655.56, 50481.29, -0.031186534, -0.38991952, -530641.06, 112988.305, 0.0, 10.001024, 9.999103 
1.5151717e+3, 2.4431922e+2, -512675.88, -704883.44, -25231.29, -0.015553231, -0.3038469, -509418.94, 36216.105, 0.0, 10.000913, 9.9984 
1.5152001e+3, 2.543179e+2, -394748.56, -585899.44, -17377.027, 0.06866391, -0.3086032, -393181.7, 54466.664, 0.00000026346208, 10.001009, 9.998492 
1.515229e+3, 2.6431555e+2, -347250.28, -702563.6, 55592.0, 0.069724865, -0.30005598, -338755.5, 10917.222, 0.000008336701, 10.001491, 9.996784 
1.5152587e+3, 2.743118e+2, -95426.86, -531834.6, 23137.01, -0.03790466, -0.37670422, -94203.63, 157508.1, 0.00005112129, 10.002549, 9.9967785 
1.5152885e+3, 2.8430873e+2, 123603.28, -309600.97, -37736.582, -0.061395574, -0.37313893, 126865.95, 280608.53, 0.00022272031, 10.003084, 9.997371 
1.5153189e+3, 2.943068e+2, 223292.44, -182588.56, 35816.816, 0.0477927, -0.35827112, 226428.84, 282188.72, 0.000756888, 10.002991, 9.997601 
1.5153483e+3, 3.0430567e+2, 133501.72, -326329.78, -7937.0537, 0.09914539, -0.17006432, 133638.67, 133638.67, 0.0018088495, 10.002594, 9.996486 
1.5153766e+3, 3.1430128e+2, -7167.6167, -347215.7, -20405.982, 0.10335152, -0.29376483, -5947.45, -5947.45, 0.0032719132, 10.00139, 9.996914 
1.5248193e+3, 1.2428789e+2, -2015886.5, -1797564.4, 75388.48, 0.06539, -0.46607053, -1774062.1, -52125.54, 0.017244658, 9.997618, 10.000562 
1.5248498e+3, 1.3428953e+2, -2065949.4, -1802903.0, 38695.96, 0.1711019, -0.3716771, -1797328.6, -173405.63, 0.010359608, 9.9967785, 10.000261 
1.5248756e+3, 1.4429004e+2, -1980928.4, -1654750.0, 46353.313, -0.21499245, -0.34694916, -1648290.6, -122372.055, 0.0045741852, 9.996431, 10.00076 
1.5249084e+3, 1.5429085e+2, -1656348.1, -1406726.4, 5937.681, 0.08631405, -0.40508196, -1406585.3, 21323.799, 0.0012060112, 9.997813, 10.0011215 
1.5249388e+3, 1.6429128e+2, -1574547.5, -1471515.4, -35112.215, 0.18959996, -0.39578846, -1460687.4, -130782.53, 0.000118081814, 9.998383, 9.999733 
1.5249664e+3, 1.7429104e+2, -1482510.4, -1367767.8, -43524.5, 0.08458412, -0.4194323, -1353126.3, -121216.68, 0.0000008766353, 9.998313, 9.999801 
1.5249954e+3, 1.8429114e+2, -1324811.3, -1197456.6, 17740.813, 0.0664972, -0.39605817, -1195031.4, -61121.54, 0.0, 9.998505, 10.00022 
1.5250261e+3, 1.942917e+2, -1101366.6, -1022141.9, -15162.442, 0.12447669, -0.3966497, -1019339.2, 16564.863, 0.0, 9.999293, 10.000366 
1.5250562e+3, 2.0429163e+2, -974993.4, -953744.0, -24533.553, 0.1289347, -0.4093241, -937633.3, 269.5698, 0.0, 9.999662, 9.999987 
1.5250851e+3, 2.1429072e+2, -895567.0, -848952.4, -3920.5796, 0.067396626, -0.5326464, -848624.94, -8717.316, 0.0, 9.999477, 10.000115 
1.5251143e+3, 2.2429039e+2, -861097.1, -917413.94, 22107.023, 0.026302636, -0.50832313, -853455.9, -111545.555, 0.0, 9.999627, 9.998904 
1.5251438e+3, 2.3429078e+2, -672763.94, -770660.7, -6079.914, 0.0081645455, -0.38698524, -672387.8, -28477.281, 0.0, 10.000231, 9.998942 
1.5251729e+3, 2.4429028e+2, -505541.4, -716151.0, -60372.137, 0.01956011, -0.28507146, -489462.94, 56454.785, 0.0, 10.001044, 9.998247 
1.5252016e+3, 2.5428867e+2, -232651.17, -523436.22, -90735.13, 0.068746276, -0.30423334, -206661.53, 241272.69, 0.0000003530132, 10.002199, 9.998341 
1.525231e+3, 2.6428613e+2, -187236.33, -628142.2, 29110.52, 0.06901528, -0.3024915, -185322.64, 164637.5, 0.000008619123, 10.002596, 9.996762 
1.5252611e+3, 2.7428252e+2, -173342.1, -561865.7, 74014.945, 0.0026660191, -0.37327573, -159719.66, 92278.625, 0.000051931653, 10.001993, 9.996826 
1.5252917e+3, 2.8427958e+2, -12348.272, -349794.16, 62133.074, 0.005404449, -0.37040016, -1271.4646, 152755.38, 0.00023518385, 10.0020485, 9.997599 
1.5253225e+3, 2.9427764e+2, 245507.17, -147365.95, -603.8283, 0.10718397, -0.37323833, 245508.1, 301550.7, 0.0007914608, 10.00303, 9.997839 
1.5253514e+3, 3.0427575e+2, 279532.63, -220807.73, -75036.1, 0.124872364, -0.2838227, 290543.5, 290543.5, 0.0018446416, 10.003422, 9.996826 
1.5253782e+3, 3.1427196e+2, 160498.03, -295356.44, -35572.652, 0.0845574, -0.38183004, 163257.25, 163257.25, 0.0032684542, 10.002622, 9.996699 
1.5348157e+3, 1.2425925e+2, -1943860.4, -1661874.1, 141243.03, -0.1092458, -0.43760648, -1603296.1, 118915.19, 0.018294634, 9.997671, 10.001476 
1.5348461e+3, 1.3426033e+2, -2037828.4, -1741602.4, 2122.5017, 0.09924309, -0.4387776, -1741587.1, -117384.875, 0.011016667, 9.996771, 10.000683 
1.5348747e+3, 1.4426023e+2, -2019829.9, -1759988.8, 71210.59, 0.015110168, -0.46238747, -1741752.9, -215548.75, 0.0048880493, 9.996528, 10.000001 
1.5349048e+3, 1.542604e+2, -1722572.3, -1526845.8, 65789.41, -0.06586321, -0.50123405, -1506787.6, -78585.06, 0.0013030368, 9.997746, 10.000333 
1.5349354e+3, 1.6426076e+2, -1556178.5, -1446701.1, -52346.453, -0.00502283, -0.463872, -1425700.4, -95500.086, 0.00013086536, 9.998431, 9.999885 
1.534966e+3, 1.742615e+2, -1472641.3, -1340846.0, -37491.355, 0.20585522, -0.40916917, -1330927.4, -98731.57, 0.0000010420176, 9.998287, 9.999999 
1.534996e+3, 1.8426149e+2, -1361907.0, -1282367.4, 29578.465, 0.2494502, -0.37773094, -1272573.9, -138375.6, 0.0, 9.998533, 9.999624 
1.5350252e+3, 1.9426037e+2, -1153200.3, -1116229.4, 23231.39, 0.08985424, -0.48541147, -1105026.3, -68815.14, 0.0, 9.999231, 9.999751 
1.5350546e+3, 2.0426035e+2, -938673.75, -845756.6, -39681.23, -0.014512283, -0.49884847, -831116.94, 107092.83, 0.0, 9.999525, 10.000792 
1.5350837e+3, 2.1426179e+2, -859432.4, -732621.1, -418.3043, -0.0421376, -0.47775096, -732619.75, 107569.4, 0.0, 9.999299, 10.001 
1.5351135e+3, 2.2426213e+2, -913761.8, -984039.8, 29932.184, -0.042263772, -0.41502452, -902741.44, -160557.1, 0.0, 9.999439, 9.99854 
1.535144e+3, 2.3426098e+2, -725026.56, -844810.25, 30670.574, 0.004543308, -0.40347275, -717630.1, -73429.19, 0.0, 10.000077, 9.998511 
1.5351743e+3, 2.4425931e+2, -560891.94, -783784.3, -28332.629, 0.03156957, -0.38041386, -557346.9, -11125.901, 0.0, 10.000847, 9.997875 
1.5352038e+3, 2.54257e+2, -287579.4, -595311.75, -32168.293, 0.047779907, -0.43160185, -284252.7, 163992.36, 0.0000004707298, 10.002026, 9.997928 
1.5352337e+3, 2.6425526e+2, -119191.4, -453980.8, -2884.841, 0.05604826, -0.3886524, -119166.54, 231095.31, 0.0000086272985, 10.00245, 9.99803 
1.535264e+3, 2.7425426e+2, -91200.28, -366221.72, 59345.8, 0.062991455, -0.33064994, -78940.77, 173328.11, 0.000052741245, 10.001884, 9.998223 
1.5352942e+3, 2.8425184e+2, -104903.4, -510882.13, 80104.16, 0.041567713, -0.30653733, -89669.58, 64622.95, 0.00024875673, 10.0019045, 9.996569 
1.5353243e+3, 2.942475e+2, 127777.07, -343090.9, 59889.254, -0.034397278, -0.43417096, 135274.94, 191612.89, 0.00082806894, 10.002812, 9.996601 
1.5353532e+3, 3.042443e+2, 343787.9, -22025.443, -108860.52, -0.056108188, -0.4741093, 373732.03, 373732.03, 0.0018901025, 10.0031595, 9.99831 
1.5353806e+3, 3.1424415e+2, 224103.64, -85050.17, -30601.104, 0.020081664, -0.3843323, 227103.53, 227103.53, 0.0032937808, 10.002322, 9.998272 
1.544813e+3, 1.24228194e+2, -2212745.0, -1807078.5, 50214.023, -0.04271773, -0.47350827, -1800955.4, -78442.9, 0.019406972, 9.995893, 10.001317 
1.5448426e+3, 1.3422923e+2, -1836977.8, -1635350.9, -162878.98, 0.0039415783, -0.48856482, -1544610.4, 79894.484, 0.0117135905, 9.998081, 10.000783 
1.5448737e+3, 1.4422953e+2, -1735775.8, -1618111.1, -49614.82, 0.18487993, -0.47865087, -1599983.3, -73480.07, 0.0052204016, 9.998461, 10.000046 
1.5449028e+3, 1.5422954e+2, -1712887.1, -1521130.8, -12880.472, -0.039653037, -0.5347334, -1520269.5, -91766.37, 0.0014059248, 9.997785, 10.000369 
1.5449332e+3, 1.6422993e+2, -1639536.3, -1456617.6, -58594.215, -0.03737108, -0.50840425, -1439458.0, -108957.49, 0.00014487762, 9.997732, 10.000141 
1.5449643e+3, 1.7423108e+2, -1384210.1, -1270695.0, -63722.715, 0.20483637, -0.44574392, -1242117.9, -9625.685, 0.000001197513, 9.9987545, 10.000253 
1.5449949e+3, 1.8423149e+2, -1273709.6, -1226424.3, 47634.02, 0.26711828, -0.39030045, -1196888.1, -62397.164, 0.0, 9.999101, 9.999723 
1.5450244e+3, 1.9423103e+2, -1208316.4, -1126057.4, 74334.95, 0.10137028, -0.44324455, -1082232.1, -45733.984, 0.0, 9.998804, 9.99988 
1.5450539e+3, 2.0423117e+2, -1042507.75, -918346.75, 29181.014, -0.0012907013, -0.43735418, -911830.5, 26665.24, 0.0, 9.998927, 10.000581 
1.5450831e+3, 2.1423216e+2, -820287.0, -739467.56, -41261.547, -0.027569883, -0.43486968, -722123.8, 118356.26, 0.0, 9.999696, 10.000762 
1.5451135e+3, 2.2423205e+2, -767806.2, -896821.2, -3960.544, -0.016503038, -0.4111656, -767684.75, -25205.154, 0.0, 10.000387, 9.998673 
1.5451449e+3, 2.3423046e+2, -575908.25, -752506.5, 9605.276, 0.035730664, -0.45772, -575387.3, 69111.76, 0.0, 10.001037, 9.998674 
1.5451755e+3, 2.4422866e+2, -457254.97, -739825.2, 11173.147, 0.056637414, -0.45158097, -456813.84, 89705.55, 0.000000000009610117, 10.001567, 9.997843 
1.5452056e+3, 2.5422665e+2, -302587.7, -606707.25, 12159.817, 0.04287663, -0.46728355, -302102.25, 146438.3, 0.0000005675007, 10.001928, 9.997909 
1.545236e+3, 2.6422504e+2, -121749.35, -433698.56, 19125.766, 0.056041993, -0.41845173, -120581.12, 229974.64, 0.000008574752, 10.002352, 9.9982195 
1.5452665e+3, 2.742239e+2, 70799.64, -275074.6, -33174.36, 0.08980514, -0.38886234, 73952.8, 326516.7, 0.00005426492, 10.002929, 9.998361 
1.5452966e+3, 2.8422183e+2, 28733.195, -411376.88, -3585.3806, 0.06896856, -0.34853053, 28762.402, 183346.5, 0.00026286932, 10.002697, 9.996844 
1.5453261e+3, 2.942185e+2, -62168.125, -407741.7, 44725.63, -0.050853726, -0.40180308, -56473.387, 147.32462, 0.00086843653, 10.001404, 9.99682 
1.5453553e+3, 3.0421498e+2, 160110.95, -94417.29, -39758.56, -0.07775563, -0.49553505, 166176.88, 166176.88, 0.0019569863, 10.001818, 9.998467 
1.5453842e+3, 3.1421554e+2, 539420.3, 99804.35, -117942.86, 0.059357442, -0.33638012, 569063.9, 569063.9, 0.0033781403, 10.004342, 9.998584 
1.5548092e+3, 1.2419471e+2, -2290686.5, -1983634.9, -85352.56, -0.08309521, -0.5527357, -1961504.1, -238663.61, 0.020587768, 9.995962, 10.0000725 
1.5548383e+3, 1.3419618e+2, -1853309.5, -1650906.9, -93603.336, -0.24960102, -0.4991379, -1614255.8, 10575.825, 0.012455585, 9.998012, 10.000708 
1.5548724e+3, 1.441979e+2, -1655049.5, -1468568.0, -94721.24, 0.16332571, -0.39663568, -1428895.5, 97921.35, 0.0055746003, 9.998526, 10.001046 
1.5549017e+3, 1.5419845e+2, -1649816.1, -1386937.9, -26996.857, 0.056632835, -0.49408588, -1384194.0, 44615.266, 0.001515748, 9.997777, 10.001291 
1.5549313e+3, 1.6419907e+2, -1599136.6, -1390416.8, -38095.996, -0.015674792, -0.5123238, -1383680.8, -52877.574, 0.00016035176, 9.997798, 10.000569 
1.5549612e+3, 1.7419986e+2, -1362060.8, -1214225.6, -17989.52, -0.007870898, -0.5223458, -1212068.0, 20730.3, 0.0000013687348, 9.99871, 10.000665 
1.5549918e+3, 1.8420132e+2, -1218959.5, -1109407.0, 26204.576, 0.016713245, -0.42371196, -1103461.6, 31324.855, 0.0, 9.999086, 10.000534 
1.5550229e+3, 1.942037e+2, -1164973.0, -1014445.44, 74039.695, 0.056858692, -0.27294484, -984132.2, 52632.645, 0.0, 9.998715, 10.000688 
1.5550534e+3, 2.0420413e+2, -1137466.8, -1101875.6, 41686.35, 0.057330467, -0.22298947, -1074345.3, -135584.77, 0.0, 9.998855, 9.999364 
1.5550835e+3, 2.1420199e+2, -934157.0, -948762.75, -53.555332, 0.015915472, -0.39832705, -934156.8, -93377.51, 0.0, 9.999564, 9.999397 
1.555114e+3, 2.2420026e+2, -758744.25, -839332.2, 10441.516, -0.0073732017, -0.48608717, -757413.4, -14618.575, 0.0, 10.0002165, 9.999152 
1.5551457e+3, 2.341991e+2, -556580.4, -679121.94, 46533.51, -0.0014288814, -0.5481784, -540913.06, 103892.66, 0.0, 10.000885, 9.999256 
1.5551765e+3, 2.441982e+2, -461726.8, -704357.6, 14800.991, -0.019100908, -0.5012069, -460827.25, 85987.49, 0.0, 10.001372, 9.99818 
1.5552068e+3, 2.5419757e+2, -300731.78, -566805.4, 37205.184, -0.04214822, -0.41572002, -295627.3, 153194.34, 0.0000005355393, 10.001773, 9.998258 
1.5552376e+3, 2.6419547e+2, -206915.52, -574461.6, 31537.139, -0.037980136, -0.393806, -204229.13, 146613.34, 0.000008556659, 10.002194, 9.997329 
1.5552686e+3, 2.741916e+2, -28959.094, -437099.66, 8196.607, -0.000909504, -0.54302055, -28794.55, 224086.19, 0.000056489618, 10.002737, 9.997336 
1.5552989e+3, 2.8418973e+2, 87604.766, -242219.7, -55406.965, -0.009739717, -0.4833463, 96663.73, 251563.17, 0.00027893353, 10.002496, 9.998103 
1.5553275e+3, 2.9419035e+2, 26587.12, -195036.34, 11848.368, -0.07702516, -0.29496637, 27218.752, 84112.96, 0.0009152562, 10.00129, 9.998332 
1.5553571e+3, 3.041874e+2, 50990.293, -277243.44, 29547.186, -0.08546972, -0.35993454, 53628.883, 53628.883, 0.002050785, 10.001652, 9.997279 
1.5553883e+3, 3.1418565e+2, 420921.8, -25040.064, 18396.861, -0.003237487, -0.30116695, 421679.44, 421679.44, 0.0035309582, 10.003866, 9.997929 
1.5648071e+3, 1.241633e+2, -2096158.9, -1864903.5, -75429.33, 0.06631837, -0.5053595, -1842475.5, -119323.73, 0.021849003, 9.997204, 10.0002985 
1.564836e+3, 1.3416438e+2, -1888144.9, -1618163.8, 45104.16, -0.24005884, -0.52432305, -1610827.8, 14316.031, 0.013250772, 9.997557, 10.001166 
1.5648699e+3, 1.4416595e+2, -1771658.5, -1479416.3, 7953.5845, 0.12252119, -0.48323858, -1479199.9, 47929.19, 0.0059556314, 9.997543, 10.00144 
1.5649e+3, 1.5416779e+2, -1724795.9, -1387130.9, -5989.868, 0.147769, -0.4866815, -1387024.6, 42085.574, 0.0016345053, 9.997119, 10.001598 
1.5649296e+3, 1.641691e+2, -1668373.4, -1383527.4, 37094.94, 0.079015166, -0.47056645, -1378775.9, -47678.53, 0.00017771397, 9.997144, 10.000945 
1.5649593e+3, 1.741698e+2, -1408971.5, -1192369.3, 44268.91, -0.030755874, -0.5251345, -1183671.0, 49420.24, 0.0000016137079, 9.998185, 10.001079 
1.5649901e+3, 1.841711e+2, -1247789.3, -1142019.8, 48138.668, -0.032064524, -0.45840406, -1123391.4, 11688.554, 0.0, 9.998965, 10.000368 
1.565022e+3, 1.9417317e+2, -1050521.3, -987566.56, -7615.4272, 0.07024641, -0.3177761, -986658.44, 50403.113, 0.0, 9.999609, 10.000446 
1.5650533e+3, 2.0417339e+2, -997572.8, -1061357.9, -19518.318, 0.11135792, -0.26502094, -992074.2, -53013.754, 0.0, 9.99996, 9.999088 
1.5650839e+3, 2.1417119e+2, -856522.2, -935234.44, -3305.871, 0.07256748, -0.4170543, -856383.56, -15302.4, 0.0, 10.000235, 9.999145 
1.5651146e+3, 2.2416964e+2, -750151.4, -840741.06, 46317.332, 0.027099943, -0.47052014, -730662.56, 12433.323, 0.0, 10.000288, 9.999109 
1.5651457e+3, 2.3416898e+2, -680825.8, -737212.56, 18229.115, -0.027236726, -0.48637265, -675445.9, -30343.604, 0.0, 10.000013, 9.999273 
1.5651771e+3, 2.4416825e+2, -574441.6, -728997.3, 8452.585, -0.042088166, -0.43448445, -573980.7, -26871.906, 0.0, 10.000462, 9.998454 
1.5652089e+3, 2.541674e+2, -256106.27, -509798.88, 6046.9087, -0.008132245, -0.39490703, -255962.22, 193153.52, 0.00000039469393, 10.001928, 9.99857 
1.5652402e+3, 2.6416516e+2, -181397.69, -570545.25, 1399.6796, 0.0011946321, -0.4026769, -181392.66, 169745.06, 0.000008163994, 10.002411, 9.997248 
1.5652703e+3, 2.7416107e+2, -221780.8, -542449.94, 7064.7183, -0.035864472, -0.5603537, -221625.23, 31554.31, 0.000058543963, 10.00147, 9.997219 
1.5653002e+3, 2.8415918e+2, -29060.934, -286310.25, -14403.526, -0.05007507, -0.5020014, -28256.984, 126941.805, 0.00029613846, 10.001633, 9.998234 
1.5653302e+3, 2.9416004e+2, 332630.38, -34072.984, -73183.85, -0.029964926, -0.2946651, 346696.3, 403885.88, 0.00096595153, 10.003329, 9.998468 
1.5653606e+3, 3.0415675e+2, 337275.5, -178213.48, -43362.633, -0.0030203082, -0.38491985, 340897.7, 340897.7, 0.0021629867, 10.0037565, 9.996948 
1.5653919e+3, 3.141538e+2, 223664.33, -108329.96, -21099.084, 0.055052556, -0.411401, 224999.84, 224999.84, 0.003735377, 10.002365, 9.998106 
1.5748045e+3, 1.24133825e+2, -1941653.9, -1567758.8, -159721.0, 0.026795542, -0.35818064, -1508819.8, 214628.34, 0.023204513, 9.997276, 10.002339 
1.5748355e+3, 1.3413453e+2, -1824109.9, -1483331.3, 71649.5, -0.06305536, -0.5162985, -1468879.6, 156554.77, 0.014108494, 9.997546, 10.002106 
1.574866e+3, 1.4413412e+2, -1773764.3, -1511321.9, -19422.617, -0.050181765, -0.7157497, -1509892.3, 17543.805, 0.0063687824, 9.997649, 10.001176 
1.5748972e+3, 1.5413758e+2, -1760077.5, -1453560.9, -15806.726, 0.14295244, -0.51166964, -1452747.9, -23342.313, 0.00176415, 9.997088, 10.00116 
1.5749276e+3, 1.6414003e+2, -1637132.8, -1323073.6, 55148.984, 0.13649444, -0.37771904, -1313670.9, 17711.652, 0.00019721544, 9.99716, 10.001351 
1.5749584e+3, 1.7414105e+2, -1383037.8, -1129648.1, 94407.98, 0.03505381, -0.44856605, -1098341.5, 135028.36, 0.0000019795527, 9.99815, 10.001524 
1.5749897e+3, 1.8414105e+2, -1317115.3, -1299683.4, 61148.242, 0.009678872, -0.48526683, -1246633.0, -111263.37, 0.0, 9.999013, 9.999268 
1.5750216e+3, 1.9413967e+2, -1152126.6, -1180222.3, 25189.605, 0.047785476, -0.56233615, -1137332.5, -99946.336, 0.0, 9.999528, 9.999166 
1.575053e+3, 2.041391e+2, -970685.25, -987037.75, -19727.314, 0.054801803, -0.54492056, -957506.94, -18113.5, 0.0, 9.999869, 9.999644 
1.5750839e+3, 2.141397e+2, -829336.0, -845319.6, 16088.054, 0.042298704, -0.49041668, -819364.1, 22022.832, 0.0, 10.000086, 9.999836 
1.5751144e+3, 2.2414003e+2, -802131.94, -911957.56, 28414.307, -0.01907874, -0.37558067, -795216.06, -51831.074, 0.0, 10.000129, 9.998695 
1.5751448e+3, 2.3413995e+2, -740429.5, -825313.06, 17850.076, -0.13642147, -0.28150654, -736828.6, -91438.94, 0.0, 9.999861, 9.998742 
1.5751769e+3, 2.4413885e+2, -588683.56, -719468.8, 46955.71, -0.12667416, -0.24612159, -573571.3, -26170.197, 0.0, 10.000289, 9.998602 
1.5752116e+3, 2.5413632e+2, -269304.7, -498637.25, 73056.945, 0.052727155, -0.3979047, -248008.94, 201412.88, 0.00000029448665, 10.001757, 9.99873 
1.5752435e+3, 2.641341e+2, -169532.11, -505116.16, -35135.39, 0.07509689, -0.4370964, -165892.92, 185549.05, 0.000007127328, 10.002228, 9.997789 
1.575271e+3, 2.741321e+2, -193227.11, -457507.9, -12984.085, -0.12567021, -0.44588828, -192590.73, 60871.895, 0.000059012113, 10.001357, 9.997859 
1.5753008e+3, 2.8412998e+2, -112517.65, -440544.9, 29073.375, -0.17706183, -0.40313008, -109960.77, 45523.375, 0.00030982727, 10.001544, 9.997217 
1.5753339e+3, 2.9412785e+2, 214948.36, -227610.08, 13738.26, -0.021791022, -0.38041225, 215374.44, 272878.53, 0.0010138974, 10.003107, 9.997246 
1.5753649e+3, 3.0412343e+2, 329129.56, -126769.25, -92096.67, 0.043672107, -0.5322013, 347031.2, 347031.2, 0.0022784658, 10.003491, 9.99741 
1.575394e+3, 3.1412002e+2, 241456.72, 23650.584, -19352.781, -0.0002708579, -0.6809454, 243162.9, 243162.9, 0.0039559724, 10.002004, 9.999159 
1.584801e+3, 1.2410301e+2, -2043049.8, -1540228.0, -58075.797, 0.015227781, -0.3721484, -1533607.4, 190146.02, 0.024665277, 9.996244, 10.003018 
1.5848336e+3, 1.3410442e+2, -2024899.5, -1610899.6, 6501.193, 0.07402377, -0.43785954, -1610797.5, 14935.207, 0.0150364665, 9.996302, 10.001812 
1.5848626e+3, 1.4410403e+2, -1887458.5, -1569982.9, -103913.24, -0.10520654, -0.6182362, -1538995.5, -11261.3955, 0.0068181083, 9.996901, 10.001126 
1.5848948e+3, 1.5410687e+2, -1604809.0, -1386503.5, -105383.91, 0.14328326, -0.46339735, -1343932.5, 85776.68, 0.0019058621, 9.998187, 10.00109 
1.5849257e+3, 1.6410898e+2, -1426935.5, -1246605.6, -18372.059, 0.16780639, -0.3488036, -1244752.9, 86936.35, 0.0002187055, 9.998712, 10.001122 
1.584957e+3, 1.741099e+2, -1344503.0, -1132604.3, -56751.563, 0.0714935, -0.40814716, -1118362.0, 115315.266, 0.000002466339, 9.998521, 10.001315 
1.5849888e+3, 1.841097e+2, -1365695.8, -1301581.6, -46189.89, 0.054606687, -0.46097925, -1277414.5, -141736.4, 0.0, 9.998602, 9.999447 
1.5850212e+3, 1.94108e+2, -1152630.0, -1150710.0, 6884.185, 0.07109256, -0.5920992, -1144719.3, -107023.47, 0.0, 9.999404, 9.99942 
1.5850528e+3, 2.0410737e+2, -969210.4, -991862.56, 11173.538, 0.053886887, -0.59130836, -964626.5, -24924.045, 0.0, 9.999884, 9.9996195 
1.5850835e+3, 2.1410821e+2, -844581.25, -860516.1, -30137.654, 0.01340748, -0.50674653, -821375.6, 20318.922, 0.0, 9.999979, 9.999801 
1.5851146e+3, 2.2410849e+2, -768741.7, -895642.5, -3858.2773, -0.029122049, -0.39443034, -768624.5, -24931.264, 0.0, 10.000375, 9.998695 
1.585146e+3, 2.3410806e+2, -504594.7, -713983.8, -620.2181, -0.08060278, -0.3294288, -504592.84, 141107.3, 0.0, 10.001494, 9.9987335 
1.5851785e+3, 2.4410677e+2, -378074.9, -604590.06, 57157.164, -0.04615922, -0.31474072, -364469.47, 183243.63, 0.0, 10.001711, 9.998687 
1.585213e+3, 2.5410438e+2, -413927.53, -560420.44, 45554.816, 0.09053235, -0.4587992, -400916.9, 48816.504, 0.00000023115544, 10.000743, 9.998784 
1.5852448e+3, 2.6410267e+2, -364602.66, -552846.9, -44437.086, 0.094168544, -0.46753517, -354640.06, -2890.9758, 0.0000061293663, 10.000701, 9.998187 
1.585273e+3, 2.7410173e+2, -45155.188, -333092.16, -62107.867, -0.090931416, -0.4126168, -32329.822, 221429.22, 0.000060026516, 10.002169, 9.998308 
1.5853034e+3, 2.840997e+2, 80557.76, -361139.03, 30552.102, -0.14015597, -0.3771063, 82661.03, 238439.94, 0.0003212461, 10.002932, 9.9970875 
1.5853366e+3, 2.9409632e+2, 122330.94, -288968.25, 48846.285, -0.0061932784, -0.46174046, 128052.375, 185862.77, 0.0010568773, 10.002528, 9.9971 
1.5853684e+3, 3.0409208e+2, 237100.8, -159173.72, -14976.071, 0.086079165, -0.60069317, 237665.97, 237665.97, 0.0023835162, 10.002772, 9.99757 
1.5853979e+3, 3.140888e+2, 527637.0, 185136.06, -27867.434, 0.09993512, -0.73325974, 529889.6, 529889.6, 0.004150306, 10.003853, 9.999417 
1.5947977e+3, 1.2407221e+2, -2092770.6, -1675088.8, 66963.39, 0.01879482, -0.45162886, -1664615.8, 59438.207, 0.026239868, 9.996358, 10.002029 
1.5948303e+3, 1.3407403e+2, -2150770.0, -1865769.4, 23193.504, 0.08790316, -0.30590662, -1863894.3, -237855.22, 0.016040104, 9.996273, 10.000073 
1.5948592e+3, 1.4407577e+2, -1865977.4, -1555840.3, -73567.28, -0.16120064, -0.1832111, -1539274.3, -11251.319, 0.0073062, 9.997007, 10.001182 
1.5948921e+3, 1.5407589e+2, -1582558.5, -1353338.1, -47318.223, 0.048954714, -0.32571673, -1343954.4, 86064.71, 0.002060233, 9.998226, 10.001306 
1.5949237e+3, 1.640762e+2, -1476845.1, -1368359.5, -38872.297, 0.06443113, -0.36238402, -1355869.0, -23854.146, 0.00024185247, 9.998789, 10.00025 
1.5949549e+3, 1.740765e+2, -1418615.0, -1280434.5, -56837.09, -0.0022390194, -0.38691267, -1260060.3, -26047.846, 0.0000030340082, 9.998497, 10.000312 
1.5949872e+3, 1.8407704e+2, -1258764.3, -1086519.4, -33019.94, -0.0020128184, -0.3772868, -1080406.3, 55599.06, 0.0, 9.998624, 10.000914 
1.5950204e+3, 1.9407809e+2, -1047140.94, -911063.44, 48388.09, 0.0427939, -0.40439472, -895611.56, 142378.81, 0.0, 9.999314, 10.001108 
1.5950522e+3, 2.040782e+2, -1022588.5, -1078729.8, 5788.789, 0.0051971707, -0.3981214, -1021997.9, -82010.27, 0.0, 9.999783, 9.99907 
1.5950824e+3, 2.1407689e+2, -928213.44, -985799.7, -18363.775, -0.10910822, -0.45468384, -922855.9, -80853.125, 0.0, 9.999782, 9.999031 
1.5951143e+3, 2.2407536e+2, -771030.0, -861049.2, 23073.898, -0.11133079, -0.49674895, -765460.25, -21442.67, 0.0, 10.000196, 9.9990225 
1.5951487e+3, 2.340736e+2, -506749.72, -672556.0, 57233.266, 0.038147762, -0.6085927, -488912.72, 157118.53, 0.0, 10.001292, 9.999118 
1.5951818e+3, 2.4407226e+2, -416390.22, -634027.0, 21197.56, 0.086063854, -0.61221814, -414344.84, 133697.78, 0.0, 10.001499, 9.998583 
1.5952131e+3, 2.5407162e+2, -447301.0, -585484.4, 21328.22, 0.011836234, -0.5724629, -444083.97, 5966.5913, 0.00000009760233, 10.000568, 9.998688 
1.5952446e+3, 2.6407087e+2, -370538.84, -540599.2, -9185.067, -0.030501917, -0.48444676, -370044.2, -17985.24, 0.0000054247644, 10.000586, 9.998329 
1.5952758e+3, 2.7407005e+2, -63179.992, -326972.3, 9669.48, -0.039216913, -0.44018257, -62826.027, 191241.34, 0.0000627863, 10.001975, 9.998445 
1.5953073e+3, 2.840683e+2, 92207.54, -282832.22, 11163.451, -0.06263643, -0.4141923, 92539.54, 248623.42, 0.0003316825, 10.002696, 9.997743 
1.5953384e+3, 2.9406506e+2, 147186.02, -192331.47, 51803.863, -0.10361618, -0.55483156, 154914.38, 213027.06, 0.0010852524, 10.002331, 9.997865 
1.5953705e+3, 3.0406204e+2, 185095.3, -207517.8, 5863.7173, -0.000039981496, -0.6000555, 185182.86, 185182.86, 0.002448585, 10.002542, 9.997338 
1.5954025e+3, 3.140599e+2, 415271.3, 59099.547, 55082.6, 0.13914579, -0.5911081, 423595.4, 423595.4, 0.004262873, 10.0034275, 9.998742 
1.6047944e+3, 1.2404058e+2, -2029204.0, -1661905.6, -11754.624, 0.034973715, -0.3760416, -1661529.8, 62836.26, 0.027939666, 9.996917, 10.001839 
1.6048272e+3, 1.3404176e+2, -2029988.0, -1814018.4, -41130.68, 0.11784765, -0.27861482, -1806450.4, -180091.17, 0.01712635, 9.997168, 9.999985 
1.6048576e+3, 1.4404377e+2, -1816605.3, -1539126.6, -19363.328, -0.041778013, -0.11503158, -1537782.0, -9441.585, 0.007836914, 9.997409, 10.001079 
1.6048901e+3, 1.5404318e+2, -1595447.4, -1360375.6, -46776.992, 0.031089496, -0.33008093, -1351409.4, 78931.92, 0.0022287087, 9.998163, 10.0012665 
1.6049218e+3, 1.6404298e+2, -1532077.5, -1418262.4, -36966.555, 0.036623165, -0.40422437, -1407309.8, -74968.97, 0.00026665046, 9.998523, 10.000031 
1.604954e+3, 1.7404328e+2, -1392710.6, -1291661.9, -23988.871, 0.05757841, -0.40433264, -1286256.1, -51916.984, 0.0000036433328, 9.998776, 10.000103 
1.6049866e+3, 1.8404412e+2, -1219002.9, -1043673.4, 20895.396, 0.092497446, -0.3637791, -1041217.5, 95112.23, 0.0, 9.998785, 10.001135 
1.6050197e+3, 1.9404572e+2, -1110930.1, -911635.5, -27954.13, 0.09010409, -0.36636364, -907788.75, 130520.97, 0.0, 9.998728, 10.00139 
1.6050519e+3, 2.040461e+2, -1126391.8, -1114647.9, -78934.92, 0.033559117, -0.34994468, -1041366.75, -101062.59, 0.0, 9.999025, 9.999186 
1.6050825e+3, 2.1404491e+2, -883272.44, -949916.4, -63400.016, -0.08682912, -0.40144077, -844971.0, -2652.7288, 0.0, 10.000045, 9.999146 
1.605115e+3, 2.2404334e+2, -707412.06, -799921.1, 27740.977, -0.07502956, -0.465206, -699731.06, 44601.617, 0.0, 10.000504, 9.999283 
1.60515e+3, 2.3404133e+2, -634131.7, -692074.4, 26284.543, 0.102516204, -0.6320602, -623985.06, 22361.133, 0.0, 10.00025, 9.999461 
1.6051832e+3, 2.4404007e+2, -549262.2, -700838.0, 4543.48, 0.13769697, -0.6509753, -549126.1, -769.6904, 0.0, 10.000585, 9.998582 
1.6052142e+3, 2.5403985e+2, -263619.63, -502395.22, -7745.0005, -0.0028962463, -0.55847305, -263368.7, 186993.13, 0.000000007673713, 10.001835, 9.998667 
1.6052458e+3, 2.6403925e+2, -112421.11, -390283.28, -7159.955, -0.039164674, -0.46522465, -112236.734, 240132.33, 0.0000049768487, 10.002249, 9.998565 
1.6052784e+3, 2.740382e+2, -126223.9, -335488.47, -19822.152, 0.05280196, -0.46366224, -124362.84, 130015.27, 0.00006482946, 10.001431, 9.998665 
1.6053103e+3, 2.8403634e+2, -88029.73, -346366.66, 7228.8105, 0.054742932, -0.4659452, -87827.61, 68566.99, 0.00033743004, 10.001339, 9.997964 
1.6053411e+3, 2.9403347e+2, 183895.66, -143664.02, -20743.1, -0.061636414, -0.59232724, 185204.0, 243624.55, 0.001090097, 10.002454, 9.998136 
1.6053736e+3, 3.040315e+2, 301419.3, -155885.22, -33935.4, 0.03612662, -0.5509834, 303923.84, 303923.84, 0.0024521628, 10.003359, 9.997287 
1.6054061e+3, 3.1403e+2, 420139.3, 6594.1523, -27274.854, 0.17388393, -0.46849915, 421930.44, 421930.44, 0.0042638215, 10.003672, 9.998253 
1.6147912e+3, 1.24006994e+2, -1961855.4, -1578651.1, -65452.16, -0.04318193, -0.26096302, -1567780.1, 156921.11, 0.02978273, 9.997122, 10.002345 
1.614824e+3, 1.3400811e+2, -1920132.1, -1590999.4, -28610.19, 0.056944344, -0.3224719, -1588531.0, 38157.387, 0.018308382, 9.997179, 10.001522 
1.614857e+3, 1.4400835e+2, -1821337.5, -1571220.4, -5334.72, 0.12834841, -0.40503362, -1571106.6, -42423.117, 0.008418617, 9.997494, 10.000821 
1.6148882e+3, 1.5400867e+2, -1624387.5, -1420806.1, -9108.006, -0.005569505, -0.48484135, -1420399.4, 10277.17, 0.0024150687, 9.998166, 10.000852 
1.6149202e+3, 1.6400927e+2, -1478797.6, -1339179.0, -44660.51, -0.026530137, -0.47912306, -1326115.5, 6552.6104, 0.0002938315, 9.998639, 10.0005245 
1.614954e+3, 1.7401032e+2, -1352840.1, -1213217.3, -6411.208, 0.16554163, -0.46160126, -1212923.4, 21733.943, 0.000004294035, 9.998777, 10.0006485 
1.6149873e+3, 1.8401095e+2, -1290720.3, -1195652.3, 6413.4688, 0.2325467, -0.42286128, -1195221.5, -58570.19, 0.0, 9.998803, 10.000078 
1.615019e+3, 1.9401093e+2, -1208556.5, -1098218.4, -20367.531, 0.11833316, -0.46625856, -1094578.8, -55925.895, 0.0, 9.998662, 10.000141 
1.615051e+3, 2.0401126e+2, -1092464.9, -1016783.6, -59403.918, 0.025490224, -0.42047843, -984191.75, -43541.15, 0.0, 9.998906, 9.999912 
1.6150834e+3, 2.140123e+2, -840926.8, -827887.4, -15026.158, -0.009285131, -0.34255272, -818027.44, 24613.646, 0.0, 9.999899, 10.000052 
1.6151161e+3, 2.2401237e+2, -723607.4, -787214.3, 11115.837, -0.01660692, -0.29972628, -721720.75, 22918.2, 0.0, 10.000309, 9.999461 
1.6151495e+3, 2.3401104e+2, -653559.94, -687874.94, 29110.277, 0.014706626, -0.41379547, -636927.06, 9720.176, 0.0, 10.000063, 9.999579 
1.6151826e+3, 2.4400984e+2, -566219.0, -697541.4, 32334.547, 0.001814807, -0.4355621, -558689.25, -10032.268, 0.0, 10.000411, 9.998691 
1.6152154e+3, 2.54009e+2, -288132.7, -506070.0, 53994.82, -0.0596574, -0.42162696, -275488.8, 175178.75, 0.00000000987263, 10.001629, 9.998739 
1.615248e+3, 2.6400778e+2, -137163.52, -384649.88, -42641.09, -0.047456704, -0.4028348, -130022.63, 222656.7, 0.000004852571, 10.002009, 9.9987135 
1.6152802e+3, 2.7400592e+2, -139307.67, -319156.9, -34040.957, 0.07208271, -0.50149834, -133080.2, 121613.31, 0.00006465758, 10.001261, 9.998849 
1.6153122e+3, 2.8400385e+2, -126378.94, -394532.2, 25504.379, 0.09385992, -0.52292764, -123974.74, 32736.621, 0.0003366383, 10.001199, 9.997704 
1.6153443e+3, 2.9400173e+2, 135364.53, -199538.58, 40948.266, -0.013292676, -0.55248386, 140298.53, 199030.81, 0.0010766982, 10.0022545, 9.997852 
1.6153774e+3, 3.0400017e+2, 274048.94, -147565.95, -32949.105, 0.05270003, -0.46017006, 276608.38, 276608.38, 0.0024072232, 10.003104, 9.997448 
1.6154084e+3, 3.1399965e+2, 332542.88, -59243.81, 25009.807, -0.020994443, -0.30008733, 334132.9, 334132.9, 0.0041708704, 10.003224, 9.997986 
1.6247885e+3, 1.2397423e+2, -2169589.5, -1693239.8, 121616.43, 0.061541267, -0.29899663, -1663986.5, 61034.027, 0.03179242, 9.995763, 10.002176 
1.624821e+3, 1.3397565e+2, -1977226.5, -1640547.4, 30808.164, 0.07436873, -0.32099146, -1637751.5, -10747.108, 0.019603958, 9.9968605, 10.001325 
1.6248551e+3, 1.4397483e+2, -1876761.8, -1626371.4, 20082.416, 0.21365303, -0.4873255, -1624770.9, -95760.39, 0.009062119, 9.997256, 10.000555 
1.6248867e+3, 1.5397544e+2, -1647411.4, -1450070.0, 14872.106, 0.049434327, -0.5159949, -1448955.5, -17953.969, 0.002624408, 9.998098, 10.000681 
1.6249193e+3, 1.6397637e+2, -1458515.6, -1319872.5, -16244.196, 0.030683191, -0.4743042, -1317994.6, 14995.9375, 0.00032476612, 9.99875, 10.000596 
1.6249533e+3, 1.7397764e+2, -1271430.8, -1157441.9, -41009.973, 0.2139323, -0.44675747, -1144221.1, 90756.18, 0.000005034694, 9.999279, 10.000776 
1.6249864e+3, 1.8397817e+2, -1248440.1, -1208384.4, -20179.355, 0.27716404, -0.40988147, -1199981.3, -63008.832, 0.0, 9.999242, 9.999783 
1.625018e+3, 1.9397773e+2, -1232729.6, -1134604.6, -2730.8074, 0.15912671, -0.46583545, -1134528.6, -95549.85, 0.0, 9.998625, 9.999903 
1.6250502e+3, 2.0397791e+2, -1112367.3, -1002876.44, 51357.324, 0.08210563, -0.4348975, -982557.7, -41579.87, 0.0, 9.998662, 10.000127 
1.6250838e+3, 2.1397899e+2, -840541.44, -797994.44, 31658.922, 0.07006767, -0.3781994, -781125.44, 61840.363, 0.0, 9.999764, 10.000327 
1.6251169e+3, 2.2397919e+2, -715744.5, -795034.6, -387.4887, 0.048746947, -0.3322676, -715742.6, 29219.611, 0.0, 10.0004015, 9.999366 
1.6251494e+3, 2.3397811e+2, -618482.06, -689882.6, -30970.654, -0.0017564822, -0.40488365, -606920.4, 40050.305, 0.0, 10.000372, 9.999424 
1.6251828e+3, 2.439772e+2, -553654.8, -659459.8, 15792.673, -0.010209794, -0.4009712, -551347.8, -2369.216, 0.0, 10.0003605, 9.99897 
1.6252172e+3, 2.5397664e+2, -432826.47, -540524.56, 26626.084, 0.02219475, -0.39139593, -426603.3, 24381.836, 0.000000011745934, 10.000474, 9.999058 
1.6252504e+3, 2.6397532e+2, -306946.7, -475269.3, -61134.566, 0.05489377, -0.39587167, -287086.06, 65911.016, 0.0000048598445, 10.000882, 9.998634 
1.6252817e+3, 2.739729e+2, -80191.51, -306144.97, -104391.7, 0.08753807, -0.53251255, -39345.715, 215670.84, 0.00006306325, 10.001725, 9.998714 
1.6253139e+3, 2.839708e+2, 26803.18, -307862.66, 1860.5614, 0.08806259, -0.555428, 26813.523, 183848.08, 0.00033149842, 10.002221, 9.997797 
1.625347e+3, 2.939691e+2, 158115.38, -178000.84, 2979.3848, 0.039666537, -0.5487501, 158141.78, 217192.47, 0.0010553651, 10.002377, 9.997938 
1.6253808e+3, 3.0396685e+2, 254320.7, -149785.06, -27439.71, 0.12115435, -0.53244627, 256175.4, 256175.4, 0.0023384904, 10.002919, 9.997539 
1.6254115e+3, 3.1396598e+2, 412968.53, -34202.59, -47275.2, -0.025500244, -0.40704885, 417911.84, 417911.84, 0.0040198406, 10.00378, 9.997928 
1.6347842e+3, 1.2394322e+2, -2212391.5, -1795122.1, 57347.3, 0.0025286928, -0.44454762, -1787384.1, -62070.09, 0.03398967, 9.995826, 10.001431 
1.6348182e+3, 1.3394453e+2, -2126299.0, -1950682.5, 69831.836, 0.0791223, -0.27412143, -1926300.0, -298993.66, 0.02102759, 9.996865, 9.999195 
1.6348514e+3, 1.4394328e+2, -1870067.6, -1643606.9, 21943.582, 0.090241544, -0.35199943, -1641500.3, -112179.31, 0.009775217, 9.9973755, 10.000385 
1.6348854e+3, 1.5394385e+2, -1642007.1, -1436430.5, 55713.21, 0.08145982, -0.3969882, -1422302.6, 9010.52, 0.002860367, 9.998087, 10.000782 
1.6349189e+3, 1.639445e+2, -1476322.0, -1369219.8, -7667.169, 0.09578507, -0.37129286, -1368673.8, -35368.07, 0.00036087315, 9.998794, 10.000242 
1.6349518e+3, 1.7394525e+2, -1305564.5, -1224866.6, -16075.749, 0.112158395, -0.35037577, -1221782.1, 13516.8545, 0.000005927034, 9.999263, 10.000324 
1.6349843e+3, 1.8394573e+2, -1198105.1, -1117498.0, -54751.75, 0.11929245, -0.32195574, -1089815.3, 47478.453, 0.0, 9.999292, 10.000386 
1.6350164e+3, 1.9394597e+2, -1190589.9, -1035781.3, -18302.623, 0.12205434, -0.37827766, -1033646.9, 5642.2466, 0.0, 9.99857, 10.000613 
1.6350493e+3, 2.0394577e+2, -1144622.4, -1046594.44, 74462.73, 0.10333548, -0.4123138, -1006462.06, -65173.766, 0.0, 9.99856, 9.999879 
1.6350836e+3, 2.1394487e+2, -889307.4, -866616.3, 86003.68, 0.059777334, -0.51716214, -791213.06, 52080.344, 0.0, 9.999614, 9.999935 
1.6351171e+3, 2.2394383e+2, -780168.7, -876739.75, -6809.8594, 0.0025562546, -0.5527828, -779690.9, -34388.613, 0.0, 10.000179, 9.99891 
1.6351496e+3, 2.3394272e+2, -677025.06, -768692.94, -20480.15, -0.045674995, -0.58559465, -672657.56, -25342.586, 0.0, 10.00019, 9.998968 
1.6351832e+3, 2.4394226e+2, -558996.94, -619316.0, 7369.7744, -0.012610969, -0.53028464, -558109.56, -8789.447, 0.0, 10.000144, 9.999349 
1.6352189e+3, 2.539428e+2, -418915.7, -476403.84, 44090.06, 0.13201746, -0.45686594, -395027.5, 56286.496, 0.000000006263202, 10.00033, 9.999564 
1.6352524e+3, 2.63942e+2, -346378.44, -532045.2, -44714.043, 0.15627936, -0.4198633, -336171.13, 17149.453, 0.000005059976, 10.00076, 9.998312 
1.6352828e+3, 2.739394e+2, -129665.34, -376028.03, -53167.29, -0.0005298879, -0.542818, -118681.1, 136663.77, 0.000060994436, 10.001572, 9.998314 
1.6353145e+3, 2.8393725e+2, 13476.813, -285490.03, -3811.026, -0.084681556, -0.55858153, 13525.386, 170888.88, 0.0003219481, 10.002021, 9.99804 
1.635349e+3, 2.939356e+2, 144444.9, -153720.19, 30618.16, -0.028178697, -0.57460165, 147556.56, 206932.34, 0.0010251399, 10.002166, 9.998199 
1.635384e+3, 3.0393177e+2, 208652.02, -182485.31, -13721.57, 0.108407095, -0.72807276, 209132.8, 209132.8, 0.0022546062, 10.002661, 9.997435 
1.6354156e+3, 3.1392938e+2, 375000.44, -12596.817, 9626.845, -0.049108226, -0.75188386, 375239.38, 375239.38, 0.003840661, 10.0033655, 9.998266 
1.6447806e+3, 1.2390969e+2, -2089889.3, -1704043.3, -128773.27, 0.039258767, -0.49532282, -1665014.0, 60626.453, 0.036383986, 9.996556, 10.001722 
1.6448162e+3, 1.3391137e+2, -1948155.1, -1862847.0, -21745.205, 0.16086817, -0.28062484, -1857623.9, -229996.55, 0.022584815, 9.9981, 9.999203 
1.6448492e+3, 1.4391014e+2, -1745073.8, -1591303.3, 26136.658, 0.09539859, -0.35508642, -1586982.3, -57340.387, 0.010560797, 9.99825, 10.00033 
1.6448833e+3, 1.5391071e+2, -1656024.1, -1453181.4, 25625.707, 0.085470624, -0.39519435, -1449994.0, -18357.748, 0.0031241647, 9.998005, 10.000716 
1.6449174e+3, 1.6391128e+2, -1578029.0, -1415694.1, 7215.374, 0.106588215, -0.3763755, -1415374.1, -81743.336, 0.0004029895, 9.998091, 10.000261 
1.6449505e+3, 1.7391203e+2, -1356124.8, -1249290.5, 13507.266, 0.083208874, -0.35583398, -1247609.3, -11985.639, 0.0000070009137, 9.998912, 10.000332 
1.6449833e+3, 1.8391246e+2, -1197092.9, -1138432.3, -38379.88, 0.085839756, -0.32355416, -1119458.5, 18160.29, 0.0, 9.999411, 10.000169 
1.6450155e+3, 1.9391248e+2, -1040316.5, -990935.9, -103975.57, 0.1267256, -0.37989375, -908759.3, 130857.45, 0.0, 9.999731, 10.000349 
1.6450487e+3, 2.0391196e+2, -958766.0, -979721.56, -2265.0903, 0.13315466, -0.41995576, -958523.94, -16904.508, 0.0, 9.999935, 9.999671 
1.6450834e+3, 2.1391079e+2, -837629.75, -854202.56, 2486.236, 0.07673854, -0.5364303, -837264.8, 6362.762, 0.0, 10.000042, 9.999796 
1.6451173e+3, 2.2390975e+2, -805173.56, -904470.6, -68486.27, 0.028221326, -0.55632436, -770232.8, -24595.842, 0.0, 10.000075, 9.998779 
1.64515e+3, 2.3390892e+2, -709855.94, -799478.1, -82863.945, 0.0009082586, -0.54511315, -660462.7, -12814.109, 0.0, 10.000027, 9.998846 
1.6451839e+3, 2.4390836e+2, -540080.7, -608992.75, -14909.279, 0.042176034, -0.49277842, -536993.3, 12661.828, 0.0, 10.000271, 9.999356 
1.6452198e+3, 2.539082e+2, -323146.94, -434299.16, -35328.063, 0.15966704, -0.48533076, -312868.84, 138785.81, 0.000000005166704, 10.001003, 9.999536 
1.6452537e+3, 2.6390722e+2, -232717.9, -485465.03, -107570.05, 0.18197703, -0.45798078, -193134.88, 160527.94, 0.000005473011, 10.001579, 9.998226 
1.6452847e+3, 2.7390528e+2, -56121.066, -345777.38, -133410.69, 0.033559375, -0.5093442, -4039.0718, 251643.38, 0.000058881178, 10.002119, 9.998241 
1.6453171e+3, 2.8390354e+2, 89338.73, -256511.48, -69114.48, -0.0368089, -0.47938055, 102639.03, 260337.64, 0.0003079229, 10.002567, 9.997985 
1.645352e+3, 2.9390195e+2, 204825.58, -132493.22, -92230.83, 0.05368494, -0.47980252, 228396.56, 288107.88, 0.0009851714, 10.002619, 9.998126 
1.645387e+3, 3.0389774e+2, 233414.61, -189766.9, -94155.164, 0.16352437, -0.6514105, 253417.98, 253417.98, 0.0021641208, 10.002863, 9.997309 
1.645418e+3, 3.138957e+2, 369187.97, 31257.463, -148596.38, -0.10395189, -0.63541645, 425234.13, 425234.13, 0.0036691413, 10.003117, 9.998688 
1.6547778e+3, 1.238731e+2, -1966311.4, -1490178.4, -4737.7354, 0.05061659, -0.47173807, -1490131.3, 235875.03, 0.03897044, 9.9967, 10.003171 
1.654815e+3, 1.3387637e+2, -1785675.1, -1535598.1, 18264.111, 0.20593913, -0.31856135, -1534271.3, 93694.59, 0.024272982, 9.99812, 10.001462 
1.6548479e+3, 1.4387546e+2, -1727364.3, -1567609.5, -2107.2554, 0.10895251, -0.49662519, -1567581.8, -37609.6, 0.0114189135, 9.998304, 10.000466 
1.6548802e+3, 1.5387607e+2, -1673624.4, -1492669.8, 24714.742, -0.0375235, -0.5084126, -1489355.0, -57384.66, 0.0034161112, 9.998016, 10.000442 
1.654914e+3, 1.6387674e+2, -1532512.9, -1345834.6, 19599.4, -0.06452306, -0.48156282, -1343799.1, -9833.753, 0.00045137366, 9.998185, 10.000697 
1.6549492e+3, 1.738781e+2, -1317355.6, -1162688.5, 53032.617, 0.034428187, -0.46115604, -1146251.4, 89698.65, 0.000008273259, 9.998889, 10.000934 
1.6549829e+3, 1.8387845e+2, -1268565.5, -1297356.6, -34901.93, 0.0826117, -0.42182246, -1245206.9, -107260.29, 0.0, 9.999444, 9.999068 
1.6550149e+3, 1.9387725e+2, -1142407.9, -1191275.9, -84247.93, 0.078768834, -0.46797332, -1079122.3, -39160.438, 0.0, 9.999668, 9.999011 
1.6550481e+3, 2.0387653e+2, -988082.1, -1012219.0, -8546.071, 0.05788218, -0.4447247, -985362.6, -43392.094, 0.0, 9.999816, 9.999504 
1.6550831e+3, 2.1387668e+2, -861013.6, -865620.3, 16709.162, 0.029028464, -0.4287665, -846449.8, -2481.4814, 0.0, 9.999883, 9.999795 
1.6551174e+3, 2.2387667e+2, -815156.75, -886609.25, -81971.61, 0.016137306, -0.35770053, -761464.25, -15495.203, 0.0, 9.999908, 9.998983 
1.6551504e+3, 2.3387642e+2, -719744.56, -781215.6, -69666.11, 0.034997597, -0.30808014, -674335.25, -26361.406, 0.0, 9.999858, 9.999056 
1.6551842e+3, 2.4387531e+2, -597250.5, -683491.1, 4585.3833, 0.03098109, -0.30325162, -597007.4, -47022.33, 0.0, 10.000084, 9.998931 
1.6552195e+3, 2.5387287e+2, -382716.94, -516615.97, 7318.211, 0.024067083, -0.4794884, -382318.16, 69688.24, 0.00000000856411, 10.000837, 9.999041 
1.6552542e+3, 2.63871e+2, -256134.7, -502183.1, -97001.15, 0.04309677, -0.5148519, -222493.1, 131530.28, 0.0000057188686, 10.0014305, 9.998188 
1.6552874e+3, 2.7387026e+2, -73121.38, -348039.2, -94085.055, 0.07429923, -0.44406533, -44006.133, 212025.0, 0.00005720022, 10.0019655, 9.998304 
1.6553211e+3, 2.8386936e+2, 35585.61, -314605.97, -77287.05, 0.09269703, -0.32320768, 51884.24, 209925.55, 0.0002952708, 10.002334, 9.997699 
1.6553557e+3, 2.9386774e+2, 153760.25, -199061.02, -65355.18, 0.14524683, -0.2995011, 165477.27, 225536.55, 0.0009504649, 10.002436, 9.997762 
1.6553898e+3, 3.0386436e+2, 169158.34, -247897.97, -95849.195, 0.14288868, -0.35537976, 190131.95, 190131.95, 0.002096841, 10.002564, 9.997044 
1.6554189e+3, 3.1386366e+2, 338629.72, 51638.707, -85298.94, -0.37709966, -0.18005088, 362067.94, 362067.94, 0.003555303, 10.002754, 9.999003 
1.6647752e+3, 1.2383652e+2, -2075614.4, -1465804.1, 99163.35, 0.18199654, -0.46192887, -1450084.1, 276284.25, 0.041736465, 9.995592, 10.003894 
1.6648118e+3, 1.3383974e+2, -1910444.4, -1480235.1, -32971.555, 0.15486751, -0.42133164, -1477722.8, 150600.88, 0.026087236, 9.996738, 10.002522 
1.6648461e+3, 1.4383933e+2, -1871933.4, -1606069.1, -117793.42, 0.16779394, -0.61630076, -1561388.6, -31065.516, 0.012349877, 9.997203, 10.000721 
1.6648783e+3, 1.538415e+2, -1752991.3, -1503108.5, -82272.19, 0.007206964, -0.4916265, -1478453.5, -46144.695, 0.003737191, 9.997382, 10.000658 
1.6649123e+3, 1.6384283e+2, -1618469.9, -1389159.1, -35932.223, -0.030634077, -0.40667737, -1383660.5, -49361.926, 0.00050616945, 9.997622, 10.000665 
1.6649479e+3, 1.7384318e+2, -1422919.4, -1223023.9, -74432.086, 0.06449348, -0.48032436, -1198353.4, 37938.813, 0.000009797576, 9.9982, 10.000854 
1.6649823e+3, 1.8384302e+2, -1386348.9, -1356828.8, -139292.63, 0.12413961, -0.4825292, -1231516.4, -93222.85, 0.0, 9.998652, 9.99904 
1.6650146e+3, 1.938423e+2, -1190615.5, -1209002.0, -113127.55, 0.11657963, -0.4807389, -1086308.3, -46003.41, 0.0, 9.999331, 9.999038 
1.665048e+3, 2.03842e+2, -1009670.06, -1033475.5, 26861.787, 0.093384825, -0.41610184, -992192.0, -49881.188, 0.0, 9.999715, 9.999407 
1.665083e+3, 2.138424e+2, -892896.1, -893673.2, 23582.9, 0.04934429, -0.3617657, -869698.56, -25390.893, 0.0, 9.999713, 9.999686 
1.6651174e+3, 2.238425e+2, -791262.56, -828379.1, -46256.117, 0.03437568, -0.2915674, -759980.7, -13673.516, 0.0, 9.999878, 9.999386 
1.6651507e+3, 2.3384221e+2, -608882.2, -668583.6, -43321.973, 0.05422031, -0.29681906, -586122.5, 62186.895, 0.0, 10.000375, 9.999562 
1.6651846e+3, 2.4384107e+2, -503896.0, -694462.2, 75647.59, 0.04499271, -0.3038429, -477517.97, 72802.336, 0.0, 10.00094, 9.99847 
1.6652204e+3, 2.5383857e+2, -310520.2, -544199.06, 55384.395, 0.0031259628, -0.42476556, -298058.1, 154286.89, 0.0000000057748837, 10.001589, 9.998505 
1.6652556e+3, 2.6383668e+2, -177723.45, -456229.25, -36661.297, 0.02770869, -0.43552357, -172978.36, 181385.17, 0.0000055479773, 10.001945, 9.998254 
1.6652897e+3, 2.738358e+2, -73132.69, -348376.7, -61726.848, 0.112707414, -0.38502204, -59923.598, 196447.83, 0.000055377644, 10.001942, 9.998333 
1.6653237e+3, 2.8383452e+2, -17479.914, -352006.34, -14959.322, 0.14349768, -0.30014816, -16812.297, 141573.33, 0.00028510438, 10.002016, 9.997585 
1.6653576e+3, 2.9383248e+2, 99013.516, -239996.83, -36303.742, 0.12175521, -0.29835296, 102857.6, 163266.6, 0.0009269267, 10.002149, 9.997602 
1.665392e+3, 3.0382967e+2, 200660.78, -234613.63, 6371.33, 0.11620298, -0.28800744, 200754.02, 200754.02, 0.0020627275, 10.002786, 9.99702 
1.665423e+3, 3.138293e+2, 529533.75, 178896.05, -28718.21, -0.25978202, -0.08525263, 531870.3, 531870.3, 0.0035148005, 10.003933, 9.999296 
1.6747716e+3, 1.238015e+2, -2060934.4, -1451435.9, 12247.03, 0.20779866, -0.31737247, -1451189.9, 275521.28, 0.044670317, 9.995645, 10.003976 
1.674806e+3, 1.3380153e+2, -1927642.9, -1520297.5, 10388.127, -0.11154908, -0.57663697, -1520032.8, 108667.26, 0.028026333, 9.996749, 10.002243 
1.6748436e+3, 1.4380157e+2, -1830422.4, -1531541.8, -126172.766, 0.15552442, -0.732119, -1485400.9, 45296.086, 0.013357116, 9.997251, 10.001212 
1.6748771e+3, 1.5380704e+2, -1712411.1, -1415830.3, -65708.37, 0.12831703, -0.33924413, -1401924.4, 30727.207, 0.004090086, 9.997363, 10.001272 
1.6749114e+3, 1.6380952e+2, -1647587.0, -1464982.1, -31293.55, 0.10135228, -0.15170275, -1459768.1, -125137.04, 0.0005678562, 9.997682, 10.000121 
1.6749464e+3, 1.7380731e+2, -1481355.8, -1334635.9, -46924.754, 0.08687075, -0.4040547, -1320911.9, -84261.81, 0.000011659807, 9.99816, 10.00011 
1.6749808e+3, 1.8380636e+2, -1307604.3, -1201780.5, -126894.23, 0.092843026, -0.49117675, -1117208.5, 21449.373, 0.0, 9.998678, 10.000097 
1.6750143e+3, 1.9380762e+2, -1110764.4, -1028950.3, -79404.484, 0.14322364, -0.41805506, -980535.1, 60111.29, 0.0, 9.999264, 10.000312 
1.6750483e+3, 2.0380825e+2, -1017645.1, -1034141.1, 16797.232, 0.13705446, -0.33395925, -1007180.1, -64538.7, 0.0, 9.99964, 9.99944 
1.6750829e+3, 2.1380788e+2, -927833.5, -934132.3, 34018.758, 0.041730728, -0.34144214, -896818.7, -52171.98, 0.0, 9.999562, 9.999488 
1.6751169e+3, 2.2380726e+2, -785930.4, -765111.06, -38776.668, -0.029223124, -0.35310313, -735371.06, 11280.46, 0.0, 9.999656, 9.999925 
1.6751502e+3, 2.3380637e+2, -590169.25, -590938.8, -15858.137, -0.03470437, -0.48321256, -574691.25, 73963.7, 0.0, 10.000206, 10.000175 
1.6751851e+3, 2.438056e+2, -562296.06, -770611.5, 83829.45, -0.027804846, -0.4685825, -532751.9, 17909.748, 0.0, 10.000745, 9.99804 
1.6752219e+3, 2.5380525e+2, -379321.03, -641658.25, 92818.2, -0.007918579, -0.32052007, -349802.3, 102869.12, 0.0000000017385277, 10.00139, 9.9979315 
1.6752575e+3, 2.6380414e+2, -207674.31, -466358.47, -44554.94, 0.014038847, -0.2235619, -200215.39, 154469.48, 0.0000048816705, 10.001717, 9.998297 
1.6752912e+3, 2.7380168e+2, -87800.81, -345569.84, -42840.438, 0.04737813, -0.34114456, -80867.35, 175838.52, 0.000051551386, 10.001792, 9.998427 
1.6753244e+3, 2.837989e+2, -56060.867, -387986.44, -21145.906, 0.002286193, -0.40106463, -54719.152, 104013.49, 0.0002714196, 10.001824, 9.997435 
1.6753577e+3, 2.9379612e+2, 76521.24, -261863.27, -8979.08, -0.12462826, -0.46688554, 76759.336, 137522.14, 0.0008993855, 10.002017, 9.997527 
1.6753933e+3, 3.0379373e+2, 160306.94, -236696.81, 32223.916, -0.052564256, -0.4193524, 162905.47, 162905.47, 0.0020323566, 10.0024605, 9.997151 
1.6754295e+3, 3.137923e+2, 478906.3, 169972.6, 58875.81, -0.055634994, -0.33795425, 489746.34, 489746.34, 0.0035035883, 10.00354, 9.999413 
1.6847698e+3, 1.23767845e+2, -1696926.4, -1388259.0, 77330.55, 0.3383079, -0.24262549, -1369969.1, 357069.75, 0.04776628, 9.998636, 10.002986 
1.6848023e+3, 1.3376693e+2, -2019128.6, -1658442.8, 101221.88, -0.13408217, -0.5114211, -1631978.0, -2934.6208, 0.030093629, 9.996566, 10.001351 
1.6848403e+3, 1.4376715e+2, -1941770.6, -1570624.9, -2042.0721, 0.16914374, -0.6080355, -1570613.6, -39572.61, 0.0144471, 9.996412, 10.00135 
1.6848755e+3, 1.5377197e+2, -1505418.8, -1284913.9, 10731.481, 0.17576742, -0.3086687, -1284392.8, 148604.9, 0.004479329, 9.998641, 10.001564 
1.6849104e+3, 1.6377397e+2, -1381494.6, -1371084.0, 28991.426, 0.14586191, -0.17077895, -1346834.4, -11854.163, 0.0006375465, 9.999666, 9.9998045 
1.6849452e+3, 1.7377163e+2, -1334909.9, -1300150.3, 16866.693, 0.09539395, -0.40235633, -1293311.4, -56309.254, 0.00001399049, 9.999334, 9.999766 
1.6849798e+3, 1.8377084e+2, -1242595.8, -1151421.9, -51348.92, 0.106020205, -0.4667717, -1128343.9, 10665.781, 0.0, 9.999058, 10.000251 
1.6850139e+3, 1.9377255e+2, -1121930.9, -1014612.44, -101492.23, 0.18279539, -0.36505678, -953467.56, 87525.266, 0.0, 9.999099, 10.000494 
1.685048e+3, 2.0377317e+2, -1056494.4, -1038922.0, -32932.973, 0.18040168, -0.2929321, -1013623.3, -70636.555, 0.0, 9.999315, 9.999567 
1.6850825e+3, 2.1377239e+2, -880673.3, -889086.94, -21563.082, 0.04688684, -0.35867727, -862910.5, -17915.6, 0.0, 9.999809, 9.99967 
1.6851166e+3, 2.2377151e+2, -708528.25, -763473.44, -72379.15, -0.035099953, -0.39292368, -658583.25, 88418.55, 0.0, 10.000319, 9.999637 
1.6851506e+3, 2.3377053e+2, -530063.4, -601846.06, -134514.08, -0.035089668, -0.49255767, -426734.66, 222272.16, 0.0, 10.000777, 9.999843 
1.685186e+3, 2.4376978e+2, -511861.34, -725100.06, -42027.418, -0.007342602, -0.46516657, -503877.1, 47136.64, 0.0, 10.001005, 9.998209 
1.6852234e+3, 2.5376946e+2, -432306.1, -648378.75, -8499.85, 0.041301385, -0.33497965, -431972.25, 21049.951, 0.0000000018399801, 10.000928, 9.998106 
1.6852593e+3, 2.6376843e+2, -301454.4, -507048.13, -86736.36, 0.06966085, -0.24253492, -269750.75, 85283.81, 0.0000039092515, 10.001052, 9.998339 
1.685293e+3, 2.7376613e+2, -103381.47, -335494.88, -116777.27, 0.060893983, -0.3469649, -54798.9, 202254.92, 0.000046409757, 10.001651, 9.998544 
1.6853262e+3, 2.8376344e+2, 20869.725, -353171.5, -59005.1, -0.008439142, -0.4058818, 29957.021, 189037.25, 0.00025645504, 10.00235, 9.997435 
1.6853599e+3, 2.937607e+2, 240812.5, -178313.58, -71775.96, -0.13857001, -0.46237832, 252763.47, 313874.0, 0.000866263, 10.003125, 9.997575 
1.685396e+3, 3.037589e+2, 316613.94, -126790.125, 2965.5005, -0.053415768, -0.3795275, 316633.78, 316633.78, 0.0019892203, 10.003347, 9.997504 
1.6854326e+3, 3.1375623e+2, 306314.0, 70488.34, -9007.001, -0.023716798, -0.4355221, 306657.5, 306657.5, 0.0034767634, 10.002356, 9.999348 
1.6947679e+3, 1.2373374e+2, -1824470.8, -1686167.5, -151951.52, 0.22080113, -0.46804723, -1588372.4, 138996.53, 0.051028147, 9.998823, 10.000778 
1.6948004e+3, 1.3373616e+2, -2142912.0, -1902661.3, 49216.824, -0.0042861397, -0.23384944, -1892969.8, -263617.8, 0.032295942, 9.996514, 9.9997015 
1.6948363e+3, 1.4373644e+2, -1950606.0, -1602286.9, 59952.293, 0.09046097, -0.22387922, -1592256.8, -60905.047, 0.015627254, 9.996457, 10.001118 
1.694873e+3, 1.5373656e+2, -1508066.0, -1300868.1, 106605.945, 0.043573193, -0.38014355, -1255814.6, 177530.14, 0.004910431, 9.99868, 10.001442 
1.6949087e+3, 1.6373621e+2, -1365421.9, -1360778.0, 12029.294, -0.022153301, -0.47171712, -1350848.6, -15503.141, 0.0007170378, 9.999759, 9.99983 
1.6949438e+3, 1.7373618e+2, -1334388.9, -1298868.4, 13272.069, -0.004179168, -0.4739749, -1294457.1, -57109.016, 0.000016975888, 9.999328, 9.99978 
1.6949785e+3, 1.8373646e+2, -1289680.6, -1262108.8, -65165.76, 0.052273154, -0.39686617, -1209286.6, -69938.73, 0.0, 9.999106, 9.999471 
1.6950127e+3, 1.9373703e+2, -1195393.8, -1150722.0, -93150.375, 0.13350007, -0.32254878, -1077267.0, -35922.418, 0.0, 9.999024, 9.999596 
1.695047e+3, 2.037369e+2, -1065529.1, -1020312.4, -30204.662, 0.11672111, -0.2851682, -1005191.94, -61845.95, 0.0, 9.999157, 9.999772 
1.6950816e+3, 2.1373591e+2, -877975.0, -851411.56, 7993.9243, -0.035061963, -0.40332976, -849191.44, -3838.8445, 0.0, 9.999662, 10.000005 
1.6951163e+3, 2.2373512e+2, -804906.94, -914395.4, -65454.996, -0.10650192, -0.40813917, -774320.7, -26961.781, 0.0, 10.0001135, 9.998695 
1.6951513e+3, 2.3373468e+2, -644032.06, -786156.75, -100080.25, -0.049530342, -0.34187347, -592351.1, 57013.727, 0.0, 10.000554, 9.998682 
1.6951872e+3, 2.4373351e+2, -507473.56, -654725.3, -50895.633, -0.0024305508, -0.3178814, -491594.5, 59782.42, 0.0, 10.000744, 9.998821 
1.6952246e+3, 2.537313e+2, -397008.03, -533545.2, 3046.2295, 0.056351572, -0.45846018, -396940.1, 56456.617, 0.0000000033657745, 10.000752, 9.99898 
1.6952606e+3, 2.637297e+2, -328709.75, -515602.16, -76314.23, 0.075079784, -0.47199845, -301507.47, 53903.582, 0.0000030031388, 10.000847, 9.998378 
1.6952945e+3, 2.7372912e+2, -129614.31, -354745.28, -77668.69, 0.04326591, -0.4057509, -105419.37, 151996.72, 0.000041455987, 10.001499, 9.998485 
1.6953288e+3, 2.837278e+2, -4135.9297, -354354.16, -44855.188, -0.018591056, -0.3287605, 1517.7562, 160948.78, 0.00024337543, 10.0021305, 9.997535 
1.6953638e+3, 2.937257e+2, 216850.84, -175025.55, -25401.334, -0.07016125, -0.32839426, 218490.5, 279947.66, 0.00083297, 10.002884, 9.997722 
1.6953997e+3, 3.0372444e+2, 290869.2, -79908.555, -37931.945, -0.03641033, -0.2230573, 294709.97, 294709.97, 0.0019296512, 10.002942, 9.998011 
1.695432e+3, 3.1372145e+2, 254660.2, 58182.29, 112.12408, -0.35362366, -0.37090576, 254660.27, 254660.27, 0.0034045344, 10.001974, 9.999428 
1.7047651e+3, 1.23700485e+2, -2041721.1, -1802871.4, -225310.83, 0.14431731, -0.5218105, -1667291.8, 60403.684, 0.054460447, 9.997382, 10.000662 
1.7047992e+3, 1.3370293e+2, -1800405.8, -1842793.0, 23596.834, 0.10885078, -0.1861696, -1789882.1, -160201.67, 0.034638863, 9.999313, 9.998765 
1.7048341e+3, 1.4370295e+2, -1494855.8, -1447113.1, 106393.195, 0.06629971, -0.12729998, -1361946.1, 169737.28, 0.016903277, 9.999896, 10.00053 
1.7048717e+3, 1.5370148e+2, -1507379.6, -1364377.0, 90378.32, 0.045446087, -0.3848331, -1320636.5, 113053.9, 0.00538814, 9.998978, 10.000848 
1.7049077e+3, 1.6370046e+2, -1593804.1, -1477565.5, -37876.242, -0.0035122782, -0.5068979, -1466312.9, -130615.27, 0.0008082668, 9.998209, 9.999777 
1.7049423e+3, 1.7370169e+2, -1527391.3, -1385690.5, -58422.59, -0.004896256, -0.38852662, -1364709.6, -127018.82, 0.000020835996, 9.997968, 9.999847 
1.7049772e+3, 1.8370235e+2, -1400498.0, -1323296.0, -49603.75, 0.05000366, -0.27149403, -1299043.5, -159355.9, 0.0, 9.998373, 9.999417 
1.7050123e+3, 1.9370179e+2, -1041495.8, -1084094.9, -31718.295, 0.14498706, -0.3036245, -1024589.06, 17104.0, 0.0, 10.000103, 9.999546 
1.705047e+3, 2.0370102e+2, -841834.5, -935141.9, 42026.055, 0.13918634, -0.31906033, -825696.8, 118002.43, 0.0, 10.000793, 9.999556 
1.7050813e+3, 2.1370031e+2, -859092.8, -870898.2, 8976.259, -0.030875389, -0.38627774, -854252.4, -8549.141, 0.0, 9.999922, 9.999738 
1.7051162e+3, 2.2369954e+2, -879837.25, -978989.56, -20080.613, -0.09228599, -0.36209095, -875924.9, -128214.95, 0.0, 9.999723, 9.998435 
1.7051524e+3, 2.3369876e+2, -652228.94, -815694.4, -15821.748, 0.01898892, -0.30701604, -650711.6, -991.17834, 0.0, 10.000613, 9.9984455 
1.7051889e+3, 2.4369743e+2, -447811.63, -614668.25, 53781.496, 0.07925865, -0.2879757, -431979.0, 119754.88, 0.0, 10.001109, 9.998925 
1.7052254e+3, 2.5369534e+2, -354476.84, -487384.94, 29958.527, 0.049244612, -0.43531108, -348036.1, 105714.72, 0.0000000026261497, 10.000956, 9.999191 
1.7052613e+3, 2.6369354e+2, -277436.0, -520902.88, -28553.941, 0.042109866, -0.4696084, -274132.0, 81634.09, 0.0000021613648, 10.001316, 9.998118 
1.7052965e+3, 2.7369234e+2, -4199.181, -333362.25, -71816.41, 0.04526654, -0.42925534, 10787.315, 268564.72, 0.000036656253, 10.002518, 9.998144 
1.7053314e+3, 2.83691e+2, 71824.08, -323342.94, -67367.48, 0.016624771, -0.33367693, 82993.1, 242786.25, 0.00022921336, 10.0026865, 9.997471 
1.7053662e+3, 2.9368952e+2, -29618.045, -296993.47, -95461.87, -0.027682316, -0.26268324, 966.49164, 62780.098, 0.0007930789, 10.001217, 9.997682 
1.7054023e+3, 3.0368847e+2, 84383.8, -137829.02, -48726.42, 0.024110794, -0.15197486, 94598.86, 94598.86, 0.0018420495, 10.001325, 9.998388 
1.705435e+3, 3.1368536e+2, 492346.03, 164975.72, -82384.78, -0.3171755, -0.349662, 511909.56, 511909.56, 0.0032650777, 10.003652, 9.999336 
1.7147619e+3, 1.2366917e+2, -1884069.5, -1482447.9, -72386.72, 0.007373857, -0.29856017, -1469799.5, 258209.17, 0.058051143, 9.99735, 10.002961 
1.7147987e+3, 1.3366763e+2, -1811288.4, -1870556.3, 104550.36, 0.1017181, -0.3402563, -1732253.4, -102228.34, 0.037118543, 9.999342, 9.998559 
1.7148332e+3, 1.436667e+2, -1533479.4, -1570749.4, 69625.9, -0.042427972, -0.32738352, -1480037.8, 51997.637, 0.018276531, 10.000068, 9.999595 
1.7148712e+3, 1.5366656e+2, -1591580.6, -1539330.6, 64793.203, 0.07632829, -0.33676994, -1495593.8, -61557.402, 0.005915651, 9.998974, 9.999648 
1.7149073e+3, 1.6366683e+2, -1595590.1, -1484689.4, -65422.008, 0.09877075, -0.25964534, -1454379.6, -118343.73, 0.0009130136, 9.998227, 9.999715 
1.7149404e+3, 1.736683e+2, -1524569.4, -1371042.3, -59710.26, 0.0007744706, -0.13080846, -1350553.8, -112525.22, 0.000025810483, 9.997936, 9.999957 
1.7149751e+3, 1.8366854e+2, -1351415.1, -1225985.4, -5641.5083, -0.011889741, -0.08772655, -1225732.1, -85704.35, 0.0, 9.9983835, 10.000083 
1.7150123e+3, 1.9366682e+2, -996683.06, -975248.2, 44623.727, 0.11720685, -0.3142269, -940072.9, 101964.98, 0.0, 10.000031, 10.000329 
1.715048e+3, 2.0366557e+2, -902656.5, -1036293.6, 11413.439, 0.12927754, -0.39378613, -901688.75, 42357.137, 0.0, 10.000683, 9.998916 
1.7150813e+3, 2.1366541e+2, -943965.9, -1006940.44, -13625.674, -0.038935155, -0.32151723, -941144.1, -95095.875, 0.0, 9.999745, 9.998891 
1.7151162e+3, 2.2366457e+2, -886697.7, -942847.1, -3617.998, -0.0897554, -0.27372608, -886465.5, -138408.75, 0.0, 9.999499, 9.998796 
1.7151538e+3, 2.3366272e+2, -637808.4, -751653.6, 32649.45, 0.06505546, -0.3752369, -629109.56, 20964.629, 0.0, 10.000454, 9.99897 
1.7151903e+3, 2.4366142e+2, -503545.88, -678022.06, 41321.184, 0.095148064, -0.3691589, -494254.56, 57831.58, 0.0, 10.000891, 9.99859 
1.7152253e+3, 2.5366113e+2, -413326.6, -572371.3, 39185.477, -0.069820695, -0.29366753, -404196.22, 49892.234, 0.0000000000058928205, 10.000792, 9.998688 
1.715261e+3, 2.636594e+2, -347146.4, -615657.1, -1046.8348, -0.13497029, -0.2661465, -347142.3, 8961.902, 0.0000014626683, 10.00111, 9.997564 
1.7152983e+3, 2.7365565e+2, -73682.6, -427508.5, -10130.755, -0.036737476, -0.42579377, -73392.78, 184746.78, 0.000032258973, 10.002303, 9.9976015 
1.7153338e+3, 2.8365296e+2, 16240.655, -383983.53, -117523.64, -0.030742701, -0.41681242, 48198.934, 208365.83, 0.00021422842, 10.002449, 9.997171 
1.7153665e+3, 2.9365227e+2, -57111.566, -332299.44, -121501.53, -0.1295626, -0.2552143, -11144.304, 51034.938, 0.0007459909, 10.00112, 9.997484 
1.7154035e+3, 3.0365092e+2, 46469.87, -157263.72, 12473.261, -0.0028834734, -0.16213447, 47230.684, 47230.684, 0.0017319223, 10.00109, 9.998363 
1.7154406e+3, 3.1364763e+2, 389870.72, 105922.45, 46353.918, -0.17234226, -0.3831983, 397246.3, 397246.3, 0.003077761, 10.00303, 9.999213 
1.7247586e+3, 1.23634726e+2, -1911168.1, -1473142.6, -54497.55, -0.003736861, -0.21615756, -1466464.1, 261883.92, 0.06177432, 9.997053, 10.003175 
1.7247976e+3, 1.3363194e+2, -1911256.9, -1891506.4, 60806.938, 0.121667646, -0.41881758, -1839778.0, -209402.56, 0.039721623, 9.998535, 9.998792 
1.7248333e+3, 1.4363147e+2, -1679503.0, -1635839.9, 23064.672, 0.014942844, -0.37371987, -1625913.1, -93531.95, 0.019743169, 9.999029, 9.999652 
1.7248702e+3, 1.5363194e+2, -1614453.1, -1534110.9, 77461.58, 0.10450397, -0.3301973, -1487023.6, -52646.85, 0.006494274, 9.998728, 9.999819 
1.7249058e+3, 1.636327e+2, -1538086.8, -1462978.1, 64837.613, 0.12342669, -0.21013837, -1425604.3, -89232.34, 0.001032908, 9.9986515, 9.999667 
1.7249392e+3, 1.7363378e+2, -1328482.0, -1284938.0, 35565.977, 0.030711517, -0.113618284, -1265009.3, -26641.625, 0.00003215152, 9.999315, 9.999888 
1.7249742e+3, 1.8363374e+2, -1206937.5, -1174197.8, 92092.15, 0.025269588, -0.08973354, -1097031.9, 43337.65, 0.0, 9.999461, 9.99991 
1.7250119e+3, 1.9363222e+2, -1141014.1, -1063620.1, 49186.65, 0.1239256, -0.27735725, -1039732.94, 2645.5476, 0.0, 9.999132, 10.000146 
1.7250478e+3, 2.0363106e+2, -1146630.4, -1168728.8, -18272.145, 0.1483381, -0.33287555, -1136326.4, -191940.0, 0.0, 9.999073, 9.998791 
1.7250818e+3, 2.1363066e+2, -966211.0, -1031468.25, -14790.885, 0.051792286, -0.26871282, -963015.06, -116623.79, 0.0, 9.99965, 9.998777 
1.7251171e+3, 2.2362955e+2, -779975.0, -884562.4, 69507.95, 0.034154803, -0.24324796, -745286.0, 3115.9565, 0.0, 10.000223, 9.998836 
1.725155e+3, 2.3362747e+2, -574041.5, -712199.6, 49908.418, 0.1267217, -0.37387756, -557898.7, 92521.164, 0.0, 10.000883, 9.999017 
1.7251915e+3, 2.4362609e+2, -453302.75, -686531.56, 38121.08, 0.121030636, -0.3665198, -447230.0, 105202.4, 0.0, 10.001376, 9.99829 
1.7252265e+3, 2.5362602e+2, -327250.22, -562951.7, 20277.42, -0.050748672, -0.234788, -325518.47, 128916.04, 0.0000000000049057277, 10.001535, 9.99838 
1.7252624e+3, 2.636243e+2, -243506.61, -551778.6, 55859.793, -0.12104048, -0.19636567, -233696.81, 122754.0, 0.0000011502509, 10.001763, 9.997689 
1.7253003e+3, 2.7362007e+2, -98860.6, -420092.44, 74168.19, -0.03608564, -0.42103958, -82563.0, 175925.67, 0.000029351942, 10.002041, 9.997783 
1.7253362e+3, 2.836171e+2, 25937.385, -385340.97, 765.3398, -0.024464503, -0.45060483, 25938.809, 186455.6, 0.00020332959, 10.00255, 9.997106 
1.7253691e+3, 2.93616e+2, 287490.8, -182883.08, -42287.91, -0.10367688, -0.3102491, 291262.38, 353793.2, 0.0007056686, 10.00358, 9.997314 
1.7254065e+3, 3.036137e+2, 369227.47, -76955.63, 104326.46, 0.07533379, -0.27764574, 392415.94, 392415.94, 0.0016348643, 10.003601, 9.997729 
1.7254436e+3, 3.1361076e+2, 112972.23, -111760.05, 24616.012, -0.06568849, -0.38426933, 115636.94, 115636.94, 0.0029105053, 10.001398, 9.998551 
1.7347552e+3, 1.2359668e+2, -2068068.0, -1792138.5, -62368.33, -0.10645178, -0.33073106, -1778696.3, -49978.58, 0.06561491, 9.997108, 10.0008335 
1.7347957e+3, 1.3359569e+2, -1883282.6, -1815106.9, 109454.03, 0.044533487, -0.4274918, -1734555.4, -103821.695, 0.042436883, 9.998457, 9.999353 
1.7348336e+3, 1.4359693e+2, -1599628.3, -1473081.5, -1907.7999, 0.12009838, -0.27247947, -1473052.8, 59670.93, 0.021297567, 9.999036, 10.000771 
1.7348681e+3, 1.5359773e+2, -1499903.3, -1298997.1, 73991.76, 0.012953901, -0.3575017, -1274688.1, 160022.94, 0.0071235094, 9.998739, 10.00143 
1.734903e+3, 1.6359827e+2, -1519186.0, -1453713.3, 73437.375, -0.06429539, -0.35476714, -1406046.1, -69342.31, 0.0011691477, 9.998764, 9.999683 
1.7349385e+3, 1.7359817e+2, -1345824.4, -1328834.1, 69541.65, -0.0047138096, -0.34679946, -1267270.6, -28562.912, 0.00004011834, 9.999335, 9.999583 
1.7349742e+3, 1.83598e+2, -1278656.5, -1331003.5, 68840.15, 0.049304172, -0.2741306, -1231182.0, -90469.54, 0.0, 9.999494, 9.998818 
1.7350104e+3, 1.935979e+2, -1241834.5, -1250021.9, 43274.223, 0.06575603, -0.19693571, -1202460.8, -159744.92, 0.0, 9.999032, 9.998915 
1.7350465e+3, 2.0359738e+2, -1138658.0, -1124880.9, -14141.486, 0.084352404, -0.13400641, -1116039.4, -171317.69, 0.0, 9.998952, 9.999151 
1.7350823e+3, 2.1359614e+2, -942233.4, -954022.06, 17834.77, 0.13300478, -0.21764076, -929344.1, -82612.37, 0.0, 9.999524, 9.999371 
1.7351186e+3, 2.2359456e+2, -832645.44, -947176.4, 82477.94, 0.14375293, -0.25804022, -789502.06, -40757.07, 0.0, 10.000025, 9.998499 
1.7351556e+3, 2.3359272e+2, -630722.94, -790454.25, 86995.45, 0.100291364, -0.3211594, -592492.3, 58268.1, 0.0, 10.000706, 9.998567 
1.7351924e+3, 2.4359111e+2, -506946.7, -736590.6, 36786.445, 0.046927866, -0.29950634, -501197.8, 51577.73, 0.0, 10.0011215, 9.998068 
1.7352284e+3, 2.5359005e+2, -370245.28, -601265.4, 41330.125, -0.010052263, -0.25032192, -363073.84, 91715.055, 0.000000000000012544113, 10.001322, 9.998219 
1.7352651e+3, 2.6358816e+2, -230904.28, -467368.06, 56278.504, -0.049463436, -0.24916258, -218193.25, 138613.2, 0.0000010511417, 10.0015135, 9.998389 
1.735302e+3, 2.735854e+2, -70586.78, -312779.88, 100221.38, -0.071401894, -0.41204914, -34493.316, 224333.39, 0.000029114979, 10.001837, 9.998614 
1.7353383e+3, 2.8358293e+2, -17458.86, -418599.84, 16308.995, -0.09308877, -0.43782124, -16796.885, 144050.44, 0.00019954766, 10.002302, 9.997001 
1.7353731e+3, 2.935803e+2, 220292.3, -248246.89, 15932.182, -0.07814635, -0.4320385, 220833.42, 283707.28, 0.00068418466, 10.003259, 9.997023 
1.7354105e+3, 3.035764e+2, 223573.17, -282473.9, 25889.459, 0.09630673, -0.48239255, 224894.23, 224894.23, 0.0015842994, 10.003207, 9.9964905 
1.7354439e+3, 3.1357372e+2, -11616.859, -254660.0, -24893.145, -0.21332087, -0.4480354, -9093.436, -9093.436, 0.0028311303, 10.000948, 9.997761 
1.7447537e+3, 1.23560205e+2, -2004345.3, -1830179.0, 2713.2607, 0.012153736, -0.36792943, -1830136.8, -101061.37, 0.06957688, 9.997854, 10.000222 
1.7447938e+3, 1.33561e+2, -1953017.4, -1788861.1, 163738.1, 0.071999565, -0.33066675, -1687781.0, -56705.094, 0.045260757, 9.997721, 9.999897 
1.7448318e+3, 1.4356242e+2, -1739126.8, -1495739.4, 52724.938, 0.09627694, -0.20772664, -1484808.5, 48256.78, 0.022935338, 9.997906, 10.001143 
1.7448665e+3, 1.5356365e+2, -1564067.9, -1283419.0, 309.35355, 0.020243023, -0.29348373, -1283418.6, 151629.13, 0.0078018596, 9.998107, 10.001827 
1.7449017e+3, 1.6356394e+2, -1552457.3, -1461637.8, 2367.1497, -0.032034237, -0.34057397, -1461576.1, -124535.125, 0.0013223152, 9.998507, 9.999755 
1.7449382e+3, 1.7356288e+2, -1268168.9, -1289804.6, 3169.7634, 0.032726277, -0.42636642, -1267714.1, -28663.441, 0.000049909977, 9.999873, 9.999595 
1.7449746e+3, 1.8356226e+2, -1132355.1, -1295575.8, 21133.842, 0.08714992, -0.3822555, -1129663.1, 11395.108, 0.0000000000000006446772, 10.000662, 9.998489 
1.7450103e+3, 1.9356248e+2, -1044539.2, -1198470.9, 27704.861, 0.0727752, -0.23696528, -1039704.6, 3356.7346, 0.0, 10.000582, 9.99851 
1.7450462e+3, 2.0356205e+2, -898495.5, -1018557.6, 40194.086, 0.09692384, -0.13959898, -886281.9, 58786.145, 0.0, 10.000637, 9.999066 
1.7450832e+3, 2.1356069e+2, -707606.6, -838920.8, 4727.626, 0.18727271, -0.23274973, -707436.6, 139642.22, 0.0, 10.001138, 9.999375 
1.7451198e+3, 2.23559e+2, -641417.56, -868348.4, 60369.91, 0.21442506, -0.27827045, -626357.0, 122735.68, 0.0, 10.001375, 9.9984045 
1.7451566e+3, 2.3355712e+2, -581052.9, -779862.6, 68461.19, 0.11850723, -0.33294615, -559758.7, 91349.96, 0.0, 10.001095, 9.998465 
1.7451933e+3, 2.4355544e+2, -545218.75, -757088.44, 53790.61, 0.052626807, -0.31321552, -532344.4, 20780.258, 0.0, 10.0008745, 9.998045 
1.7452298e+3, 2.5355408e+2, -448446.6, -644063.75, 38786.633, 0.03453725, -0.2887757, -441036.72, 14104.208, 0.0, 10.000812, 9.998174 
1.7452669e+3, 2.6355234e+2, -308120.1, -489377.6, 76357.664, 0.026677774, -0.2761021, -280241.22, 76916.32, 0.0000010008785, 10.000913, 9.998527 
1.7453043e+3, 2.7355042e+2, -119417.66, -319858.7, 47147.047, -0.0043481844, -0.37048918, -108881.7, 150289.28, 0.000030147008, 10.001424, 9.998761 
1.7453408e+3, 2.835483e+2, -62573.387, -419876.16, -21060.299, -0.028250374, -0.36880156, -61336.324, 99851.71, 0.00019898178, 10.001906, 9.997177 
1.7453763e+3, 2.9354545e+2, 51925.227, -324421.1, -35205.37, -0.006777511, -0.40241027, 55190.19, 118407.01, 0.0006810842, 10.002059, 9.997084 
1.7454135e+3, 3.0354136e+2, 117798.734, -322347.78, 32527.861, 0.15280104, -0.47752467, 120189.63, 120189.63, 0.0015907967, 10.002405, 9.996617 
1.7454465e+3, 3.1353885e+2, 401043.3, 10617.481, -15283.349, -0.1676125, -0.4449643, 401640.7, 401640.7, 0.0028686698, 10.003493, 9.998353 
1.7547522e+3, 1.235243e+2, -1900702.0, -1618171.3, -119845.21, 0.015354927, -0.42249814, -1574183.4, 155248.22, 0.07366958, 9.997834, 10.001759 
1.7547917e+3, 1.3352823e+2, -1916795.4, -1703259.0, 178855.81, 0.07791651, -0.120979935, -1601727.3, 29671.79, 0.048192136, 9.997681, 10.000507 
1.754827e+3, 1.4352849e+2, -1757940.9, -1551460.5, 53634.07, -0.20503762, -0.14197588, -1538360.0, -4959.731, 0.024652572, 9.997972, 10.00073 
1.754865e+3, 1.535298e+2, -1629043.3, -1416540.8, 15774.8125, 0.03279341, -0.12648772, -1415376.1, 20009.865, 0.008527423, 9.998094, 10.00092 
1.7549019e+3, 1.635296e+2, -1546434.0, -1452522.3, 24656.537, 0.110083625, -0.17184153, -1446442.3, -109057.11, 0.0014925194, 9.998524, 9.999809 
1.7549384e+3, 1.7352787e+2, -1255825.8, -1249233.6, 64083.477, 0.04377976, -0.35422108, -1188361.5, 51035.563, 0.00006156021, 9.999818, 9.999894 
1.7549749e+3, 1.8352664e+2, -1098709.8, -1230162.9, 14015.909, 0.022672834, -0.40757713, -1097232.0, 44174.547, 0.0000000010737394, 10.000677, 9.998933 
1.7550108e+3, 1.9352601e+2, -1022698.94, -1141520.8, 32857.29, 0.04241794, -0.3918021, -1014218.3, 29196.535, 0.0, 10.000527, 9.998931 
1.7550467e+3, 2.0352508e+2, -951086.1, -1105282.4, 43105.42, 0.063858286, -0.34240955, -939854.2, 5570.934, 0.0, 10.000537, 9.998518 
1.7550838e+3, 2.1352409e+2, -776853.06, -949470.25, 33564.47, 0.12181587, -0.33191717, -770556.3, 76878.25, 0.0, 10.000986, 9.9986925 
1.7551206e+3, 2.2352272e+2, -664973.75, -867111.75, 43818.785, 0.14012188, -0.31360722, -655883.6, 93563.37, 0.0, 10.001164, 9.998513 
1.7551574e+3, 2.3352075e+2, -588296.94, -758300.8, 71749.086, 0.0746161, -0.3991688, -562063.75, 89400.01, 0.0, 10.000934, 9.998691 
1.7551939e+3, 2.4351905e+2, -571546.6, -765602.9, 42989.24, 0.00307901, -0.39588544, -562449.7, -8970.245, 0.0, 10.000673, 9.998085 
1.7552301e+3, 2.53518e+2, -464867.78, -648262.94, 49443.348, -0.028945623, -0.34783214, -452387.22, 3104.6426, 0.0, 10.000684, 9.998203 
1.7552675e+3, 2.6351658e+2, -358389.4, -569886.44, 78143.65, -0.008586838, -0.2847874, -332649.6, 24857.06, 0.00000094846536, 10.000799, 9.998034 
1.7553064e+3, 2.7351496e+2, -178575.7, -402771.3, 84755.05, 0.048817288, -0.29641455, -150141.17, 109380.51, 0.000030605133, 10.00125, 9.998275 
1.7553437e+3, 2.8351328e+2, -73212.73, -389321.2, -21137.592, 0.030981656, -0.24537387, -71805.555, 89732.9, 0.0002004244, 10.001676, 9.997499 
1.7553784e+3, 2.935112e+2, 45000.586, -288400.22, -10298.645, -0.033188455, -0.2423911, 45318.406, 108879.39, 0.000696972, 10.001844, 9.997433 
1.7554155e+3, 3.0350828e+2, 143522.55, -197188.98, 47446.56, 0.07445022, -0.2560475, 150006.44, 150006.44, 0.0016492817, 10.002104, 9.997616 
1.7554504e+3, 3.1350592e+2, 410671.5, 160483.23, 52709.848, -0.16963688, -0.35038617, 421322.97, 421322.97, 0.002997381, 10.00296, 9.999627 
1.7647494e+3, 1.2348869e+2, -1790064.6, -1520372.8, -51494.605, -0.03711452, -0.44289252, -1510874.9, 218909.0, 0.07790593, 9.998343, 10.002225 
1.7647898e+3, 1.3349329e+2, -1948104.4, -1696728.9, 118648.516, 0.14172536, -0.08795845, -1649573.1, -17831.578, 0.05123237, 9.997356, 10.000698 
1.7648232e+3, 1.4349322e+2, -1923077.4, -1661388.0, 52414.625, -0.30612934, -0.14608222, -1651280.1, -117535.695, 0.026445003, 9.9969635, 10.000472 
1.7648637e+3, 1.5349418e+2, -1556063.5, -1433161.4, 27604.336, 0.07841158, -0.11893346, -1427246.0, 8489.763, 0.009296644, 9.998836, 10.000449 
1.764902e+3, 1.634941e+2, -1368187.5, -1341705.1, 60106.33, 0.23247598, -0.13461432, -1293398.8, 44336.188, 0.0016790463, 9.999655, 10.000008 
1.7649381e+3, 1.7349288e+2, -1409516.9, -1293502.1, 69647.445, 0.10361314, -0.29683182, -1260869.5, -21128.426, 0.000074904594, 9.998621, 10.000163 
1.7649746e+3, 1.8349181e+2, -1414802.6, -1353382.0, 59331.285, 0.05917728, -0.36327103, -1317284.3, -175536.22, 0.000000009428086, 9.998379, 9.9992 
1.7650115e+3, 1.9349088e+2, -1059177.8, -1125336.0, 44327.586, 0.10114262, -0.40269116, -1036947.2, 6810.2695, 0.0, 10.000135, 9.999236 
1.765048e+3, 2.0348974e+2, -869891.75, -1088414.8, 55841.887, 0.12147458, -0.38362405, -856448.75, 89320.266, 0.0, 10.001199, 9.998314 
1.7650846e+3, 2.1348868e+2, -798715.6, -993197.44, 49873.332, 0.12345572, -0.34765765, -786671.9, 61108.133, 0.0, 10.00099, 9.998388 
1.7651214e+3, 2.2348732e+2, -706926.25, -897897.3, 87619.45, 0.12876253, -0.30607936, -672817.56, 76975.586, 0.0, 10.000927, 9.998407 
1.7651586e+3, 2.3348553e+2, -541472.2, -739729.1, 64182.97, 0.107703276, -0.36803597, -522507.88, 129301.516, 0.0, 10.001287, 9.998635 
1.7651956e+3, 2.4348372e+2, -396465.63, -684955.25, 53101.395, 0.061734725, -0.3725297, -387001.88, 166824.38, 0.0, 10.001862, 9.998083 
1.765232e+3, 2.5348204e+2, -162971.34, -507309.16, 43182.617, -0.0055761067, -0.37870052, -157638.5, 298204.0, 0.0, 10.002745, 9.998197 
1.7652695e+3, 2.634804e+2, -62055.426, -439187.06, 81710.16, 0.0076417653, -0.3316141, -45113.05, 312746.03, 0.0000007067664, 10.00291, 9.997903 
1.7653084e+3, 2.73479e+2, -106585.67, -388855.44, 72770.15, 0.09640965, -0.30766153, -88929.66, 170944.84, 0.000029110019, 10.001845, 9.998082 
1.7653455e+3, 2.8347746e+2, -62581.438, -325761.66, 38989.02, 0.072344296, -0.2544039, -56926.87, 104964.12, 0.00020337792, 10.001496, 9.998031 
1.76538e+3, 2.934758e+2, 193606.28, -151789.38, 26883.229, -0.05684871, -0.26274654, 195686.16, 259594.08, 0.0007255654, 10.002592, 9.998015 
1.7654178e+3, 3.0347383e+2, 337200.13, -90875.96, 100371.7, 0.047181703, -0.22060908, 359565.88, 359565.88, 0.0017280998, 10.0033655, 9.997742 
1.765455e+3, 3.1347066e+2, 434676.78, 171015.55, -49791.223, 0.0063743996, -0.38547337, 443766.28, 443766.28, 0.0031350597, 10.003091, 9.99966 
1.7747474e+3, 1.2345578e+2, -1841095.0, -1638919.0, 78038.06, -0.16614112, -0.20778884, -1612301.4, 117807.42, 0.08231803, 9.998422, 10.001325 
1.7747876e+3, 1.3345622e+2, -1965762.8, -1728757.8, 73271.695, 0.17157944, -0.23257074, -1707934.8, -75832.14, 0.054393712, 9.997333, 10.00049 
1.7748202e+3, 1.4345628e+2, -1929398.3, -1678652.5, 85196.734, -0.32826477, -0.26006672, -1652444.3, -118342.96, 0.02831169, 9.996974, 10.000351 
1.7748624e+3, 1.5345675e+2, -1556385.9, -1432735.5, 112186.47, 0.04249175, -0.28305638, -1366466.4, 69630.81, 0.010105246, 9.998826, 10.00046 
1.7749019e+3, 1.6345747e+2, -1342599.9, -1299848.9, 25533.943, 0.21387808, -0.23229331, -1287924.4, 50165.21, 0.0018804772, 9.999698, 10.0002775 
1.774937e+3, 1.7345798e+2, -1394223.6, -1255261.6, 38162.098, 0.1177465, -0.24940479, -1245471.3, -5389.1953, 0.00008970714, 9.998596, 10.000437 
1.7749736e+3, 1.8345784e+2, -1404653.8, -1341302.4, 96801.68, 0.079319365, -0.24099527, -1271125.6, -129043.76, 0.000000028818846, 9.998411, 9.999269 
1.7750122e+3, 1.9345699e+2, -1063777.6, -1121336.6, 122700.41, 0.14230144, -0.27738577, -966526.8, 77563.13, 0.0, 10.000071, 9.999298 
1.7750499e+3, 2.0345587e+2, -881598.94, -1083204.8, 47486.965, 0.15415807, -0.2647482, -870973.7, 75127.16, 0.0, 10.0010805, 9.9984 
1.7750855e+3, 2.1345432e+2, -820156.75, -997490.4, 50620.73, 0.09859376, -0.2879063, -806724.3, 41391.773, 0.0, 10.000824, 9.998433 
1.775122e+3, 2.234527e+2, -762132.6, -973829.75, 87780.79, 0.07470996, -0.25670138, -730469.8, 19662.514, 0.0, 10.000748, 9.997978 
1.7751601e+3, 2.3345119e+2, -591855.3, -817394.5, 90819.9, 0.118338846, -0.24782333, -559831.2, 92316.72, 0.0, 10.001156, 9.998172 
1.775198e+3, 2.4344909e+2, -430783.16, -703323.7, 72583.85, 0.110143036, -0.25327504, -412657.8, 141510.1, 0.0, 10.001637, 9.998063 
1.775235e+3, 2.534463e+2, -189842.97, -514543.5, 90653.11, 0.01149107, -0.3789564, -166248.1, 289944.66, 0.0, 10.002542, 9.998242 
1.7752722e+3, 2.6344404e+2, -95494.875, -452415.66, 44572.24, -0.028738232, -0.4037949, -90012.89, 268201.13, 0.00000032366296, 10.002669, 9.997929 
1.7753096e+3, 2.734426e+2, -136984.73, -400289.1, 48405.28, 0.022270508, -0.3773794, -128368.01, 131860.95, 0.00002512301, 10.001639, 9.9980955 
1.7753461e+3, 2.834409e+2, -57948.93, -274093.1, 49950.65, -0.03173318, -0.35716584, -46963.703, 115281.88, 0.00020098852, 10.001307, 9.998482 
1.7753816e+3, 2.934392e+2, 211448.69, -67998.63, 83842.34, -0.2000372, -0.4359983, 234673.61, 298932.38, 0.0007424793, 10.002388, 9.998692 
1.77542e+3, 3.0343795e+2, 239386.53, -210245.66, 86361.414, -0.07613899, -0.3404362, 255403.52, 255403.52, 0.0017693732, 10.003021, 9.997079 
1.7754596e+3, 3.1343505e+2, 283558.8, 3471.5085, -27531.73, 0.11951594, -0.38534337, 286239.44, 286239.44, 0.0031776987, 10.002525, 9.998745 
1.7847452e+3, 1.23420335e+2, -2164185.8, -1863669.8, 161767.13, -0.11369162, -0.13129067, -1793142.6, -62689.52, 0.08696164, 9.9965725, 10.000594 
1.7847852e+3, 1.3341916e+2, -1786940.1, -1614867.4, 25035.426, 0.15577847, -0.33025122, -1611298.9, 21163.238, 0.057701517, 9.998471, 10.000721 
1.7848195e+3, 1.4341885e+2, -1666697.5, -1525835.9, 107033.49, -0.16444096, -0.41332084, -1468139.1, 66323.38, 0.030258754, 9.998672, 10.000588 
1.7848606e+3, 1.534196e+2, -1654298.3, -1454493.9, 136812.3, 0.024768304, -0.43373114, -1384991.0, 51462.77, 0.0109521225, 9.998034, 10.000697 
1.7848998e+3, 1.6342089e+2, -1593306.8, -1422745.9, 57920.215, 0.14220291, -0.3424961, -1404936.5, -66495.83, 0.0020959692, 9.997982, 10.00026 
1.7849363e+3, 1.7342179e+2, -1298019.6, -1212239.6, 11572.085, 0.15715998, -0.31605533, -1210705.9, 29726.523, 0.000105867584, 9.999288, 10.000392 
1.7849736e+3, 1.8342187e+2, -1138113.5, -1208199.1, 108956.36, 0.17381401, -0.28178993, -1058703.3, 83728.625, 0.0000000562377, 10.00022, 9.999319 
1.7850128e+3, 1.9342127e+2, -967749.0, -1063047.1, 125324.375, 0.1728201, -0.30117422, -881321.06, 163116.45, 0.0, 10.000669, 9.999414 
1.785051e+3, 2.0342025e+2, -881486.4, -1092776.0, 37337.996, 0.16054542, -0.28302607, -875082.25, 71365.45, 0.0, 10.001112, 9.99833 
1.7850868e+3, 2.1341842e+2, -685761.7, -946194.4, -2298.8364, 0.13136473, -0.3218106, -685741.4, 162724.88, 0.0, 10.001792, 9.99833 
1.7851236e+3, 2.2341666e+2, -575887.0, -887274.5, 55841.207, 0.11710592, -0.2950254, -566175.8, 184308.58, 0.0, 10.002056, 9.997941 
1.7851615e+3, 2.3341528e+2, -529384.75, -791631.25, 61116.08, 0.124004684, -0.26525015, -515841.22, 136657.61, 0.0, 10.00162, 9.998126 
1.7851995e+3, 2.4341333e+2, -479513.13, -724163.7, 95338.72, 0.118087746, -0.2533642, -446748.28, 107769.74, 0.0, 10.001319, 9.998055 
1.7852375e+3, 2.5341064e+2, -357999.8, -596830.4, 84453.67, 0.06718536, -0.36815336, -331153.56, 125388.88, 0.0, 10.001415, 9.998205 
1.7852752e+3, 2.6340842e+2, -235389.9, -532856.25, 32298.197, 0.056470703, -0.3799609, -231923.44, 126639.86, 0.00000018370703, 10.00174, 9.997838 
1.785312e+3, 2.7340674e+2, -18036.926, -366440.34, 2719.3584, 0.073603705, -0.36365592, -18015.701, 242564.39, 0.000020759246, 10.002506, 9.997935 
1.7853485e+3, 2.834046e+2, 160917.13, -172008.75, 36029.15, 0.02022561, -0.37340522, 164771.56, 327371.56, 0.0001926232, 10.002851, 9.998421 
1.7853849e+3, 2.9340255e+2, 237764.16, -56960.26, -13255.775, -0.09818368, -0.483581, 238359.16, 302974.84, 0.00073848147, 10.002591, 9.998654 
1.7854236e+3, 3.0340114e+2, 218484.03, -236928.69, 9612.131, -0.007686734, -0.39527088, 218686.81, 218686.81, 0.0017534498, 10.002954, 9.996923 
1.7854634e+3, 3.13398e+2, 471678.8, 4437.5293, -136702.28, 0.19347301, -0.42348123, 508735.3, 508735.3, 0.0030955353, 10.004179, 9.997968 
1.7947437e+3, 1.2338069e+2, -2197725.5, -1945388.4, 161979.16, 0.022036474, -0.40893102, -1866238.3, -135405.73, 0.09190124, 9.996615, 10.000021 
1.794782e+3, 1.3338222e+2, -1737501.0, -1534158.8, 80855.63, -0.034294523, -0.38618976, -1505927.4, 126890.86, 0.06119029, 9.998524, 10.001306 
1.7948209e+3, 1.4338113e+2, -1633992.4, -1466951.1, 65913.31, 0.062012766, -0.59462804, -1444075.0, 90751.32, 0.03230053, 9.998712, 10.000978 
1.7948578e+3, 1.533829e+2, -1631644.5, -1395961.8, 122313.945, -0.070475824, -0.5563214, -1343958.3, 92845.88, 0.011841973, 9.997992, 10.001118 
1.7948957e+3, 1.6338438e+2, -1609928.0, -1468908.1, 83284.62, -0.097197145, -0.45302367, -1430294.4, -91506.77, 0.0023264778, 9.99802, 9.999931 
1.7949355e+3, 1.7338416e+2, -1326108.6, -1273488.3, 68914.766, 0.13102199, -0.4953687, -1226032.1, 14761.01, 0.00012352158, 9.99929, 9.999977 
1.7949747e+3, 1.8338381e+2, -1129015.8, -1195399.6, 118071.38, 0.22819912, -0.48739943, -1039559.6, 103239.44, 0.000000085167756, 10.00025, 9.99939 
1.7950128e+3, 1.9338371e+2, -971384.2, -1054050.1, 149218.67, 0.09254739, -0.46915334, -857879.75, 186920.67, 0.0, 10.000598, 9.999511 
1.7950508e+3, 2.0338297e+2, -912437.56, -1132474.4, 48514.695, 0.024186052, -0.4204228, -902215.7, 44593.23, 0.0, 10.000998, 9.9981165 
1.7950888e+3, 2.1338114e+2, -724554.8, -996425.7, 34429.895, 0.11972047, -0.43367362, -720262.4, 128566.89, 0.0, 10.001649, 9.998061 
1.795126e+3, 2.2337925e+2, -589442.75, -872605.0, 35807.297, 0.14544453, -0.40876424, -584984.94, 165863.98, 0.0, 10.00187, 9.998134 
1.7951624e+3, 2.3337775e+2, -535197.5, -763261.25, 57071.94, 0.03753188, -0.4210846, -521712.8, 131150.48, 0.0, 10.001448, 9.998402 
1.7951995e+3, 2.4337627e+2, -512838.75, -752914.9, 88368.4, -0.01682811, -0.3752674, -483819.4, 71058.79, 0.0, 10.00114, 9.99795 
1.7952389e+3, 2.53375e+2, -390605.56, -630305.7, 102541.914, 0.062559046, -0.33409727, -352725.22, 104167.01, 0.0, 10.001271, 9.998043 
1.7952779e+3, 2.6337337e+2, -277106.63, -576790.5, 48881.145, 0.13704138, -0.26240385, -269335.2, 89573.66, 0.00000013255313, 10.001555, 9.997625 
1.7953151e+3, 2.7337128e+2, -58053.992, -398611.66, 46267.445, 0.13308501, -0.2758929, -51880.117, 209048.88, 0.0000188634, 10.002305, 9.997802 
1.7953523e+3, 2.833687e+2, 83004.984, -288518.0, 18802.55, 0.0889307, -0.29364595, 83954.15, 246906.89, 0.00018772867, 10.002643, 9.997728 
1.7953894e+3, 2.9336596e+2, 153293.56, -173474.64, 2443.6763, 0.07943007, -0.39793858, 153311.83, 218288.05, 0.0007307679, 10.002348, 9.997967 
1.7954277e+3, 3.033635e+2, 167795.98, -276191.66, 34238.836, 0.0784793, -0.37268814, 170420.86, 170420.86, 0.0017121624, 10.002652, 9.996809 
1.7954658e+3, 3.1335992e+2, 382726.4, -62807.207, -22389.516, -0.02386519, -0.45975435, 383848.72, 383848.72, 0.0029510714, 10.003705, 9.997715 
1.8047424e+3, 1.2334187e+2, -2208778.5, -2021795.1, 41235.7, 0.23240113, -0.51058936, -2013105.3, -281895.63, 0.097200245, 9.996872, 9.999365 
1.8047798e+3, 1.333468e+2, -1655990.5, -1372075.0, 89642.32, -0.09626074, -0.25667554, -1346140.6, 287022.75, 0.06490086, 9.998514, 10.002499 
1.8048213e+3, 1.4334558e+2, -1539990.8, -1431217.1, 54494.277, 0.21975695, -0.54575956, -1408613.4, 126559.52, 0.034457777, 9.999386, 10.000903 
1.8048571e+3, 1.5334645e+2, -1480474.1, -1350271.8, 24977.863, 0.011831885, -0.57510006, -1345644.5, 91514.11, 0.0127833225, 9.999145, 10.000869 
1.8048942e+3, 1.633474e+2, -1471686.9, -1413466.8, 36615.79, -0.091457896, -0.5041985, -1395799.6, -56652.87, 0.0025744103, 9.999027, 9.999828 
1.8049341e+3, 1.7334738e+2, -1294501.6, -1259763.1, 34140.664, 0.081281155, -0.51975846, -1238827.4, 2323.2356, 0.00014305822, 9.999524, 9.999952 
1.804974e+3, 1.8334718e+2, -1210808.6, -1232434.5, 91180.31, 0.18226394, -0.49496466, -1129802.4, 13353.287, 0.00000010953618, 9.999672, 9.999413 
1.8050128e+3, 1.9334719e+2, -1141012.6, -1130176.6, 88818.1, 0.10756626, -0.47172353, -1046611.44, -1454.1603, 0.0, 9.99942, 9.999549 
1.8050514e+3, 2.0334662e+2, -1073380.0, -1156986.5, 58615.637, 0.07238588, -0.4255456, -1043188.06, -96023.914, 0.0, 9.999661, 9.998599 
1.80509e+3, 2.1334513e+2, -797218.2, -963630.1, 90798.68, 0.13511309, -0.46046633, -757267.2, 91912.1, 0.0, 10.000865, 9.99866 
1.8051279e+3, 2.2334348e+2, -596960.7, -878952.56, 112697.09, 0.15172483, -0.45011735, -557455.94, 193740.19, 0.0, 10.001858, 9.998079 
1.8051644e+3, 2.3334178e+2, -378719.66, -713450.06, 71881.68, 0.05440285, -0.45744, -363936.34, 289277.25, 0.0, 10.002645, 9.9981575 
1.8052018e+3, 2.4334021e+2, -239833.4, -641184.44, 90163.734, 0.012922624, -0.3989452, -220508.56, 334721.53, 0.0, 10.003079, 9.997801 
1.8052411e+3, 2.5333893e+2, -179074.72, -550125.5, 79819.29, 0.093304865, -0.33735517, -162632.81, 294611.13, 0.0, 10.002789, 9.9978895 
1.80528e+3, 2.6333714e+2, -110286.984, -490767.44, 75592.34, 0.163949, -0.27815464, -95818.77, 263443.25, 0.00000007008213, 10.002687, 9.997667 
1.8053177e+3, 2.733346e+2, 49242.46, -346423.88, 61799.5, 0.13283816, -0.33575866, 58670.336, 319955.7, 0.000018211349, 10.0030365, 9.997816 
1.8053553e+3, 2.833318e+2, 146854.6, -317467.4, 54858.54, 0.09798779, -0.35144532, 153247.97, 316559.16, 0.00018396281, 10.003329, 9.997199 
1.8053928e+3, 2.933289e+2, 312849.88, -175500.11, 8865.358, 0.12761132, -0.39786625, 313010.78, 378349.25, 0.0007176447, 10.003762, 9.997283 
1.8054311e+3, 3.0332607e+2, 386732.4, -138342.63, 96777.6, 0.11483303, -0.38539582, 404001.72, 404001.72, 0.0016599034, 10.004034, 9.997086 
1.8054703e+3, 3.1332424e+2, 385137.34, -65864.055, 19301.203, 0.055785056, -0.31753013, 385961.88, 385961.88, 0.0028117374, 10.003653, 9.997769 
1.8147372e+3, 1.2330398e+2, -2266593.5, -2150784.0, -199129.61, -0.017059144, -0.4069342, -2001310.9, -269726.7, 0.10291468, 9.996908, 9.998466 
1.8147779e+3, 1.3331288e+2, -1531337.0, -1110708.5, 156070.34, -0.15655716, 0.075042844, -1059125.8, 574372.56, 0.06887483, 9.998479, 10.004446 
1.8148206e+3, 1.4331226e+2, -1554510.3, -1477150.4, 38605.75, 0.18969497, -0.25712138, -1461181.0, 74320.46, 0.036753505, 9.999444, 10.000559 
1.814858e+3, 1.5331014e+2, -1538410.3, -1482467.5, 24544.068, 0.17364022, -0.49465904, -1473225.9, -35707.613, 0.01378539, 9.999183, 9.999946 
1.8148947e+3, 1.6330992e+2, -1454818.5, -1391212.9, 34642.383, 0.034633532, -0.493926, -1375989.0, -36470.664, 0.002842686, 9.999081, 9.999953 
1.8149324e+3, 1.7331146e+2, -1277190.1, -1224515.6, 62519.05, -0.07462283, -0.3812383, -1183012.8, 58491.996, 0.00016504708, 9.999515, 10.000203 
1.8149713e+3, 1.8331207e+2, -1207989.9, -1228335.8, 73389.4, -0.06652315, -0.2921591, -1144071.6, -570.65375, 0.00000012908751, 9.999678, 9.999439 
1.8150125e+3, 1.9331165e+2, -1146953.9, -1136033.0, 88439.9, 0.118836604, -0.3081352, -1052885.1, -7376.715, 0.0, 9.999387, 9.999529 
1.8150525e+3, 2.0331109e+2, -1009089.94, -997292.56, 86463.48, 0.193029, -0.30950803, -916526.8, 30987.734, 0.0, 9.999552, 9.999745 
1.8150905e+3, 2.1331026e+2, -725521.06, -777344.75, 145830.86, 0.09248367, -0.41401958, -603317.9, 246200.11, 0.0, 10.000701, 10.000018 
1.8151286e+3, 2.2330905e+2, -657854.8, -951675.1, 131059.1, 0.035846524, -0.42360485, -607891.7, 143636.7, 0.0, 10.001622, 9.997697 
1.8151672e+3, 2.3330733e+2, -461136.63, -838257.75, 111874.34, 0.06721164, -0.36423308, -430446.28, 223103.9, 0.0, 10.00244, 9.997401 
1.8152057e+3, 2.4330512e+2, -297742.5, -706099.9, 74366.0, 0.07543865, -0.30855358, -284621.3, 270953.06, 0.0, 10.002838, 9.997469 
1.8152437e+3, 2.5330234e+2, -214613.17, -582198.75, 79424.414, 0.06443071, -0.38391036, -198186.02, 259413.5, 0.0, 10.002609, 9.997749 
1.8152818e+3, 2.6329952e+2, -135112.72, -494181.22, 73607.98, 0.040672373, -0.42083845, -120609.125, 239015.3, 0.0000000874347, 10.002474, 9.997749 
1.8153194e+3, 2.7329683e+2, 22708.553, -342522.47, 89540.16, -0.023488507, -0.51641786, 43479.04, 305126.97, 0.00001648955, 10.002793, 9.9979515 
1.8153569e+3, 2.832941e+2, 68274.35, -425272.2, 55081.35, -0.07887132, -0.50486016, 74346.89, 238020.48, 0.00017264257, 10.003078, 9.996583 
1.8153949e+3, 2.932915e+2, 244944.23, -280149.0, 46003.723, -0.06709923, -0.4645993, 248944.17, 314646.22, 0.0006827884, 10.003598, 9.996641 
1.8154338e+3, 3.0328885e+2, 361448.13, -125706.73, 71300.984, -0.043893833, -0.40639296, 371669.44, 371669.44, 0.0015889753, 10.00377, 9.997295 
1.8154739e+3, 3.1328845e+2, 337375.0, 10305.742, 81930.15, 0.028960185, -0.24504332, 356750.5, 356750.5, 0.00270367, 10.002973, 9.998584 
1.824734e+3, 1.2326512e+2, -2161912.8, -2134251.5, -177262.2, -0.044705346, -0.46749395, -1970281.3, -238322.36, 0.10907774, 9.997752, 9.998166 
1.824776e+3, 1.332734e+2, -1771344.3, -1233587.1, 88577.74, -0.100814864, -0.038239643, -1219372.6, 414507.34, 0.07313931, 9.996787, 10.004381 
1.8248184e+3, 1.43273e+2, -1912883.0, -1617833.4, -69931.01, 0.15316679, -0.36325055, -1602097.9, -66215.195, 0.039204508, 9.996886, 10.000795 
1.824857e+3, 1.532722e+2, -1655575.4, -1530505.0, -45313.64, 0.20021509, -0.47470427, -1515813.4, -77924.04, 0.014855209, 9.998363, 10.000004 
1.8248941e+3, 1.6327253e+2, -1413752.3, -1374521.4, 20892.217, 0.065841086, -0.41882193, -1365479.4, -25593.832, 0.0031336718, 9.9993725, 9.999923 
1.824932e+3, 1.7327327e+2, -1226199.6, -1197817.0, 4868.9277, -0.06327491, -0.38756356, -1197005.0, 44873.43, 0.00019006866, 9.999867, 10.000208 
1.8249713e+3, 1.8327339e+2, -1142994.6, -1191010.6, 2412.1724, -0.047679134, -0.34741303, -1142873.8, 1004.9215, 0.00000015151502, 10.000095, 9.999496 
1.8250121e+3, 1.9327332e+2, -1053241.0, -1079859.9, -2192.438, 0.120834544, -0.33445856, -1053061.6, -7178.0938, 0.0, 10.000004, 9.999611 
1.8250522e+3, 2.0327319e+2, -921075.3, -937507.25, 20408.395, 0.19747338, -0.30099326, -907291.2, 40594.973, 0.0, 10.000092, 9.999881 
1.8250912e+3, 2.1327284e+2, -724767.44, -758709.2, -22040.344, 0.11419895, -0.37377766, -713921.25, 135964.73, 0.0, 10.00064, 10.000162 
1.8251303e+3, 2.2327188e+2, -729548.3, -981096.0, -63403.926, 0.07770633, -0.36879975, -714470.75, 37423.824, 0.0, 10.001067, 9.997778 
1.8251695e+3, 2.3327005e+2, -633470.5, -908054.75, -47903.246, 0.110517986, -0.32827023, -625353.4, 28563.74, 0.0, 10.001187, 9.99753 
1.825208e+3, 2.4326774e+2, -473086.94, -773819.7, -15758.245, 0.11688233, -0.29742378, -472263.47, 83678.13, 0.0, 10.001574, 9.997601 
1.825246e+3, 2.532648e+2, -224091.25, -571799.3, -13126.426, 0.071552806, -0.39934403, -223596.42, 234370.11, 0.0, 10.002487, 9.997868 
1.8252844e+3, 2.6326188e+2, -87503.66, -486976.1, -9243.525, 0.043526437, -0.45072463, -87289.875, 272702.13, 0.00000011582431, 10.002888, 9.99759 
1.8253222e+3, 2.7325892e+2, -48516.703, -411374.7, -60024.867, 0.024089618, -0.537805, -38845.03, 223174.34, 0.000015405387, 10.002446, 9.99765 
1.8253605e+3, 2.8325614e+2, 41295.563, -418769.2, -17682.44, -0.0030636792, -0.5203744, 41974.18, 206020.36, 0.00016033727, 10.002821, 9.996748 
1.825399e+3, 2.93254e+2, 407065.1, -181532.13, 4987.0044, -0.055790752, -0.44544685, 407107.34, 473175.7, 0.000639737, 10.004623, 9.996829 
1.8254383e+3, 3.032511e+2, 550842.44, -37844.938, 13447.511, -0.028939791, -0.42363167, 551149.44, 551149.44, 0.0015178259, 10.005077, 9.997266 
1.8254781e+3, 3.1324914e+2, 426423.72, 49045.22, -63711.367, 0.15021361, -0.39602986, 436889.63, 436889.63, 0.0026416173, 10.003517, 9.998634 
1.8347333e+3, 1.2322463e+2, -2113692.5, -2054712.6, -114278.41, 0.038848095, -0.778102, -1966180.5, -233841.6, 0.11569034, 9.997818, 9.998691 
1.8347736e+3, 1.3322803e+2, -1919431.3, -1513418.5, 71367.07, -0.024925906, -0.63320065, -1501239.4, 133071.78, 0.07769921, 9.996757, 10.002327 
1.8348137e+3, 1.4322755e+2, -1864323.3, -1518454.8, -35756.473, -0.04168721, -0.8849155, -1514796.9, 21521.598, 0.04181763, 9.996883, 10.001486 
1.8348533e+3, 1.5323254e+2, -1584883.8, -1385814.0, 21540.988, -0.027564298, -0.5205561, -1383509.8, 54763.285, 0.015997248, 9.998357, 10.001008 
1.834892e+3, 1.632353e+2, -1414597.9, -1387504.3, 27446.416, -0.10992088, -0.2733781, -1370443.5, -30195.69, 0.0034491862, 9.999417, 9.999815 
1.8349329e+3, 1.7323254e+2, -1246068.6, -1245892.4, 30228.543, 0.022546168, -0.5581877, -1215751.9, 26522.18, 0.00021871291, 9.999884, 9.999877 
1.8349732e+3, 1.8323086e+2, -1139057.9, -1182452.1, -9399.235, 0.11438449, -0.6837251, -1137109.4, 7181.9053, 0.00000018976193, 10.000102, 9.999548 
1.8350112e+3, 1.9323206e+2, -1056650.4, -1072766.6, 3062.2283, 0.020915486, -0.55444187, -1056088.1, -9804.138, 0.0, 9.99994, 9.999691 
1.8350503e+3, 2.0323288e+2, -991888.7, -1059402.1, 25337.06, -0.020863239, -0.3999201, -983437.8, -35158.004, 0.0, 9.999982, 9.999097 
1.8350919e+3, 2.132329e+2, -814992.3, -912626.0, 7626.607, 0.09466117, -0.33615804, -814400.1, 35882.688, 0.0, 10.000495, 9.999175 
1.8351324e+3, 2.232321e+2, -722682.1, -916783.4, -63588.57, 0.1544086, -0.27867243, -703705.5, 48587.55, 0.0, 10.000853, 9.998325 
1.8351705e+3, 2.3322998e+2, -593969.25, -786484.0, -29597.53, 0.09700346, -0.3561843, -589521.6, 64792.78, 0.0, 10.001019, 9.998449 
1.8352091e+3, 2.43228e+2, -466320.22, -710725.94, 4083.1658, 0.041595466, -0.3687966, -466252.03, 90080.61, 0.0, 10.00136, 9.998141 
1.8352482e+3, 2.532265e+2, -226727.52, -526285.9, 36599.418, 0.015055277, -0.36930773, -222320.7, 236022.38, 0.0, 10.002276, 9.998282 
1.8352872e+3, 2.632243e+2, -161898.88, -597636.7, -27557.54, 0.034403197, -0.3411378, -160162.97, 200199.42, 0.000000090536304, 10.0026865, 9.996931 
1.8353261e+3, 2.7322075e+2, -123728.555, -537121.25, -57117.344, 0.14086838, -0.41163877, -115981.98, 146417.7, 0.00001528185, 10.00231, 9.996854 
1.8353651e+3, 2.8321764e+2, 62161.56, -335142.63, 21421.076, 0.15927994, -0.40904814, 63313.164, 227743.16, 0.00015301339, 10.002639, 9.997414 
1.8354045e+3, 2.9321617e+2, 429815.5, -56955.91, 90853.234, 0.012537844, -0.36869237, 446219.94, 512659.44, 0.00060723, 10.004299, 9.997835 
1.8354437e+3, 3.03213e+2, 441776.47, -157829.38, -47192.652, -0.016159248, -0.40150222, 445468.1, 445468.1, 0.0014658895, 10.004625, 9.996655 
1.8354808e+3, 3.132074e+2, 301638.88, -101835.266, -25392.338, 0.027944583, -0.6743988, 303230.66, 303230.66, 0.002616615, 10.003077, 9.997793 
1.8447316e+3, 1.2318531e+2, -2146877.0, -2009694.5, -138670.27, 0.1238859, -0.7722976, -1923578.9, -190855.97, 0.12272786, 9.997349, 9.999233 
1.8447697e+3, 1.331861e+2, -1947009.3, -1622134.6, -29596.152, -0.084485054, -0.7879112, -1619460.5, 15260.726, 0.08254445, 9.997072, 10.001351 
1.8448098e+3, 1.4318714e+2, -1818183.4, -1461545.6, -29067.44, -0.100339234, -0.84352326, -1459192.1, 77522.086, 0.04459436, 9.997015, 10.001847 
1.8448508e+3, 1.5319218e+2, -1635691.3, -1335816.9, -20465.9, -0.05823428, -0.53635454, -1334426.5, 104240.43, 0.017215712, 9.997683, 10.001689 
1.8448912e+3, 1.6319518e+2, -1546168.3, -1424664.5, -5200.783, -0.07889663, -0.31715783, -1424442.3, -83802.9, 0.0037916328, 9.998427, 10.000036 
1.8449329e+3, 1.7319289e+2, -1269706.9, -1244487.9, 5456.305, 0.057520818, -0.56350756, -1243358.0, -695.28015, 0.00025177147, 9.99969, 9.999977 
1.8449736e+3, 1.8319155e+2, -1100982.1, -1153140.6, -28870.998, 0.13497047, -0.6617972, -1088155.5, 56521.805, 0.00000025167606, 10.000309, 9.999648 
1.8450107e+3, 1.9319288e+2, -1052548.9, -1057164.9, -45585.57, -0.0022245867, -0.53223383, -1009212.94, 37455.01, 0.0, 9.999899, 9.999815 
1.8450497e+3, 2.0319359e+2, -1037741.3, -1102649.9, 41599.254, -0.049388506, -0.38943988, -1017434.06, -68769.32, 0.0, 9.999752, 9.99892 
1.8450922e+3, 2.1319315e+2, -849102.7, -954770.4, 63431.137, 0.10628399, -0.3474917, -819384.0, 31289.223, 0.0, 10.00038, 9.998948 
1.8451336e+3, 2.2319226e+2, -670493.25, -857225.25, 39819.348, 0.20023094, -0.29631007, -662356.56, 90327.625, 0.0, 10.00109, 9.998603 
1.8451722e+3, 2.3319066e+2, -417551.53, -659985.25, 12036.399, 0.12629977, -0.35886428, -416955.4, 237743.6, 0.0, 10.002062, 9.998801 
1.8452112e+3, 2.4318893e+2, -285343.25, -621389.0, 19324.824, 0.070964076, -0.36966246, -284235.6, 272478.66, 0.0, 10.002607, 9.998146 
1.8452506e+3, 2.531872e+2, -220776.42, -534470.3, -14846.719, 0.048736323, -0.38408932, -220075.31, 238653.28, 0.0, 10.002358, 9.998186 
1.8452902e+3, 2.6318514e+2, -208386.08, -613213.44, -58648.65, 0.09971783, -0.3398273, -200060.67, 160687.3, 0.00000009817215, 10.002349, 9.996983 
1.8453297e+3, 2.731825e+2, -21243.76, -477385.22, -50740.777, 0.2540798, -0.3225965, -15667.567, 247109.17, 0.000013983738, 10.002982, 9.996931 
1.8453692e+3, 2.8317943e+2, 154688.78, -296501.63, 81942.586, 0.27687052, -0.3198583, 169109.78, 333916.66, 0.00014297603, 10.003315, 9.997355 
1.8454082e+3, 2.9317653e+2, 233714.98, -160267.1, 31821.186, 0.047634415, -0.40396145, 236268.56, 303097.44, 0.000574171, 10.00299, 9.997768 
1.8454482e+3, 3.031734e+2, 216120.11, -271772.4, -114980.5, 0.070894785, -0.4296885, 241859.4, 241859.4, 0.0014107531, 10.003087, 9.996628 
1.8454847e+3, 3.1316766e+2, 502715.63, -10750.235, -83031.484, 0.07549014, -0.6994696, 515808.63, 515808.63, 0.0025695595, 10.004466, 9.997759 
1.8547295e+3, 1.23147815e+2, -2108426.5, -1972131.5, -85289.516, 0.12579069, -0.3909433, -1931107.6, -198001.69, 0.13014582, 9.997491, 9.999437 
1.854764e+3, 1.3314797e+2, -1946052.9, -1625331.8, -37143.58, -0.38306436, -0.4805713, -1621086.3, 14022.071, 0.08765755, 9.997076, 10.001334 
1.8548067e+3, 1.4315222e+2, -1811862.0, -1453157.9, -22093.469, -0.14634657, -0.20726094, -1451802.1, 85264.18, 0.04753598, 9.997031, 10.0019045 
1.8548493e+3, 1.5315121e+2, -1614318.0, -1299810.5, 14268.481, 0.004768234, -0.5239418, -1299164.5, 139906.27, 0.01851746, 9.997705, 10.001936 
1.8548909e+3, 1.631519e+2, -1505430.1, -1349105.4, 22985.56, 0.031908367, -0.5720205, -1345795.8, -4733.548, 0.0041650403, 9.998464, 10.000536 
1.8549317e+3, 1.7315413e+2, -1237614.4, -1177035.8, 63877.613, -0.0548492, -0.4167095, -1136630.0, 106415.7, 0.00029041685, 9.999676, 10.000451 
1.8549716e+3, 1.8315543e+2, -1084979.8, -1122869.1, -46146.1, -0.098333254, -0.28851187, -1054040.9, 90996.38, 0.0000003514084, 10.000324, 9.999849 
1.8550104e+3, 1.9315575e+2, -1053154.6, -1043062.1, -55183.93, -0.054523166, -0.2702734, -992694.2, 54341.727, 0.0, 9.999831, 9.999947 
1.85505e+3, 2.0315531e+2, -1028742.6, -1055340.4, 46735.758, -0.0058055716, -0.26404873, -993450.44, -44409.273, 0.0, 9.999633, 9.999302 
1.8550923e+3, 2.1315347e+2, -839906.44, -898736.3, 96747.54, 0.06777932, -0.40651503, -768201.06, 82856.99, 0.0, 10.000222, 9.999407 
1.8551339e+3, 2.2315218e+2, -697013.9, -868418.1, 62934.098, 0.113669455, -0.42780253, -676388.44, 76681.85, 0.0, 10.000892, 9.998628 
1.855174e+3, 2.3315206e+2, -454596.66, -693494.44, 59505.906, 0.094900176, -0.3287383, -440595.22, 214476.36, 0.0, 10.001869, 9.99867 
1.855214e+3, 2.4315067e+2, -363621.3, -723268.6, 5219.8, 0.07518113, -0.27277577, -363545.6, 193540.08, 0.0, 10.002346, 9.997572 
1.8552534e+3, 2.5314695e+2, -296707.13, -637637.94, -12861.14, 0.07762662, -0.42430893, -296222.66, 162900.03, 0.0, 10.002133, 9.997581 
1.855293e+3, 2.6314443e+2, -194498.13, -533191.56, -51420.65, 0.13503163, -0.41916776, -186863.5, 174284.7, 0.00000008466028, 10.0021305, 9.997638 
1.855333e+3, 2.731441e+2, 10505.183, -359511.56, -8395.373, 0.27096727, -0.26243255, 10695.568, 273847.63, 0.000011476472, 10.002767, 9.997843 
1.8553722e+3, 2.831414e+2, 58120.36, -448122.25, 59119.375, 0.23289387, -0.23418503, 64932.69, 230110.42, 0.00012753508, 10.003097, 9.996425 
1.8554102e+3, 2.9313532e+2, 125679.77, -342946.44, 36884.836, -0.065590456, -0.52142316, 128565.16, 195799.73, 0.0005320517, 10.00281, 9.996602 
1.8554513e+3, 3.0313233e+2, 195341.13, -253880.33, -94277.7, 0.061232474, -0.47558266, 214324.86, 214324.86, 0.0013351652, 10.0028305, 9.99687 
1.8554907e+3, 3.131311e+2, 452626.78, 27438.795, 17023.422, 0.17207119, -0.3397945, 453307.28, 453307.28, 0.0024625205, 10.003885, 9.998289 
1.864727e+3, 1.2310921e+2, -2002546.8, -1785364.3, 9859.695, 0.14916149, -0.13863388, -1784917.5, -51425.375, 0.1378835, 9.997669, 10.0006075 
1.8647614e+3, 1.3310824e+2, -1945420.4, -1698197.0, -83338.31, -0.34800902, -0.3041835, -1672727.8, -37224.676, 0.09301642, 9.997412, 10.000649 
1.8648048e+3, 1.4311108e+2, -1829575.5, -1475640.0, -45457.81, -0.010337832, -0.12209761, -1469894.9, 67578.555, 0.050644647, 9.996996, 10.001748 
1.8648471e+3, 1.5310939e+2, -1631717.0, -1298925.9, -40167.668, 0.031860024, -0.51565206, -1294146.3, 145336.06, 0.01991141, 9.9975605, 10.002004 
1.8648888e+3, 1.631097e+2, -1559413.0, -1357193.5, -20291.672, 0.018614648, -0.6091437, -1355177.4, -13701.346, 0.0045744055, 9.998003, 10.000699 
1.8649304e+3, 1.73113e+2, -1422808.1, -1239863.0, -23693.1, -0.060520876, -0.36905462, -1236844.3, 6606.092, 0.0003360051, 9.998295, 10.000671 
1.8649714e+3, 1.8311496e+2, -1305773.9, -1212115.8, -140494.81, -0.081153706, -0.19483314, -1110851.0, 34585.008, 0.00000050835786, 9.998739, 10.0 
1.8650106e+3, 1.9311494e+2, -1044306.75, -1021715.5, -172135.64, -0.010700821, -0.22703177, -860505.25, 186931.92, 0.0, 9.999822, 10.0001 
1.8650508e+3, 2.0311418e+2, -883206.94, -977640.44, -49738.93, 0.062160674, -0.2620197, -861842.5, 87601.73, 0.0, 10.000606, 9.999363 
1.8650931e+3, 2.1311218e+2, -731259.1, -844473.75, -50005.555, 0.10860328, -0.42455778, -712335.4, 139126.39, 0.0, 10.00095, 9.999432 
1.865135e+3, 2.2311084e+2, -654229.5, -809445.9, -77801.7, 0.1468507, -0.4627146, -621946.2, 131527.19, 0.0, 10.001024, 9.998975 
1.8651757e+3, 2.3311111e+2, -593844.2, -714717.5, -69381.76, 0.13910335, -0.36246663, -562267.75, 93202.67, 0.0, 10.000719, 9.999087 
1.8652157e+3, 2.431101e+2, -572562.25, -764996.56, -54074.184, 0.12198237, -0.31130713, -558408.4, -928.2072, 0.0, 10.000651, 9.9981 
1.865255e+3, 2.5310686e+2, -405213.16, -629139.75, -11775.752, 0.08210521, -0.47295162, -404595.6, 54916.86, 0.0, 10.001123, 9.998124 
1.8652949e+3, 2.6310456e+2, -216794.02, -542712.7, 35237.016, 0.12346975, -0.47690818, -213027.84, 148507.97, 0.000000065173005, 10.001964, 9.997657 
1.865336e+3, 2.731042e+2, 113162.08, -322872.4, -16990.229, 0.26250383, -0.31351414, 113823.1, 377364.38, 0.000009433609, 10.003515, 9.997741 
1.865376e+3, 2.8310153e+2, 221092.19, -397212.06, 13372.835, 0.24997325, -0.26943916, 221381.28, 386949.38, 0.00011541226, 10.004339, 9.996163 
1.8654145e+3, 2.9309535e+2, 281013.7, -299568.44, 9974.106, 0.034275424, -0.53445715, 281184.97, 348812.4, 0.0004964564, 10.004015, 9.996301 
1.8654568e+3, 3.0309248e+2, 395207.28, -186617.3, -20612.91, 0.2704048, -0.4472657, 395936.63, 395936.63, 0.0012593376, 10.004315, 9.996608 
1.865494e+3, 3.1309152e+2, 634612.44, 65009.125, -41800.684, 0.07056708, -0.2618731, 637663.7, 637663.7, 0.0023212268, 10.005315, 9.997856 
1.8747216e+3, 1.2306727e+2, -1842998.8, -1510831.9, -19715.604, -0.22226842, -0.2812924, -1509665.8, 224236.8, 0.14588223, 9.997738, 10.002728 
1.8747619e+3, 1.3306692e+2, -2044676.8, -1910787.8, -94338.94, -0.07079501, -0.27831137, -1862054.3, -226149.05, 0.0986057, 9.997433, 9.999188 
1.874804e+3, 1.4306329e+2, -1847174.0, -1527742.3, -50241.535, 0.19059418, -0.6381542, -1520026.4, 17912.875, 0.053927336, 9.997064, 10.001342 
1.8748437e+3, 1.5306647e+2, -1636607.9, -1314551.6, -5147.381, -0.08150151, -0.5277432, -1314469.4, 125434.22, 0.021407956, 9.997572, 10.001894 
1.8748844e+3, 1.630687e+2, -1559136.3, -1365200.3, -19655.738, -0.24588929, -0.42398185, -1363228.1, -21347.947, 0.0050250688, 9.998039, 10.000629 
1.8749288e+3, 1.7306952e+2, -1433446.6, -1258191.6, -5068.0493, -0.06941945, -0.41854194, -1258045.3, -14168.592, 0.00038988978, 9.998267, 10.000567 
1.8749715e+3, 1.8307002e+2, -1294089.1, -1189110.3, -119132.26, 0.05199902, -0.3881765, -1111416.6, 34458.363, 0.000000733184, 9.998748, 10.000155 
1.8750109e+3, 1.9307034e+2, -1042022.44, -996075.2, -122167.23, 0.032275144, -0.4028384, -894740.25, 153132.06, 0.0, 9.999738, 10.000316 
1.8750513e+3, 2.0307018e+2, -910594.4, -1017939.7, -48079.555, 0.040994387, -0.38466182, -892208.75, 57665.793, 0.0, 10.0005245, 9.999129 
1.8750943e+3, 2.1306933e+2, -782483.75, -912998.7, -26903.496, 0.12320966, -0.39576215, -777155.56, 74727.82, 0.0, 10.00078, 9.999046 
1.8751365e+3, 2.2306845e+2, -647206.06, -743371.75, -94869.41, 0.1700739, -0.38515952, -588930.25, 164961.3, 0.0, 10.000794, 9.999542 
1.8751766e+3, 2.3306781e+2, -564082.06, -605718.7, -67988.39, 0.1571347, -0.4594324, -513796.06, 142099.1, 0.0, 10.000516, 9.999929 
1.8752164e+3, 2.4306715e+2, -497286.94, -561332.4, -50416.926, 0.097057, -0.4872499, -469582.6, 88316.26, 0.0, 10.00044, 9.999607 
1.875255e+3, 2.5306672e+2, -316248.6, -400066.38, 18347.95, -0.033616506, -0.53148717, -312408.16, 147491.56, 0.0, 10.000936, 9.999789 
1.8752953e+3, 2.6306546e+2, -290606.2, -648060.75, 70565.41, -0.041621972, -0.5038995, -277180.1, 84731.62, 0.00000004605578, 10.001744, 9.997047 
1.8753381e+3, 2.7306288e+2, 233.68933, -499667.84, 54090.59, 0.12621576, -0.45154938, 6019.4624, 269962.38, 0.000008319171, 10.00326, 9.996655 
1.8753798e+3, 2.830599e+2, 198233.1, -379514.75, -3048.3274, 0.17846303, -0.38942942, 198249.19, 364225.34, 0.00010877432, 10.004054, 9.996426 
1.8754204e+3, 2.9305625e+2, 265179.38, -257627.63, 21572.822, 0.2079175, -0.45052847, 266068.03, 334079.03, 0.0004725632, 10.003698, 9.996743 
1.8754637e+3, 3.0305344e+2, 303259.6, -293010.84, -957.2997, 0.5052078, -0.35824427, 303261.13, 303261.13, 0.0011930799, 10.003963, 9.996042 
1.8754967e+3, 3.1304875e+2, 451840.44, -148215.75, -4900.533, -0.2312317, -0.47209972, 451880.47, 451880.47, 0.0021755518, 10.004638, 9.996702 
1.8847184e+3, 1.2302312e+2, -2069886.4, -1539858.0, 19423.826, -0.21335427, -0.5415546, -1539147.1, 195185.14, 0.15411249, 9.995814, 10.003449 
1.8847615e+3, 1.3302505e+2, -2006934.4, -1893826.6, -61144.438, 0.14846165, -0.34039667, -1867092.0, -230780.33, 0.10442951, 9.997685, 9.999184 
1.8848012e+3, 1.430205e+2, -1671338.0, -1520055.9, 46224.023, 0.13233837, -0.75708497, -1507050.3, 31305.506, 0.057399224, 9.998621, 10.00064 
1.8848416e+3, 1.5302457e+2, -1518736.0, -1314401.1, 37359.465, -0.09035883, -0.50071996, -1307784.8, 132529.6, 0.023018045, 9.998665, 10.00135 
1.8848829e+3, 1.6302688e+2, -1483024.8, -1331796.9, 22468.16, -0.2010506, -0.35378286, -1328529.4, 13761.516, 0.005521801, 9.998569, 10.000607 
1.8849275e+3, 1.7302644e+2, -1394568.4, -1227809.5, 31362.922, -0.02686167, -0.48643148, -1222106.0, 22189.934, 0.0004532519, 9.998473, 10.000687 
1.8849705e+3, 1.8302637e+2, -1327227.9, -1199067.9, -24920.879, 0.09308155, -0.5247457, -1194392.6, -48094.74, 0.0000010252129, 9.998499, 10.000199 
1.8850103e+3, 1.930272e+2, -1112586.5, -1026731.8, -51233.516, 0.045746062, -0.49650407, -1002818.8, 45472.55, 0.0, 9.999232, 10.000345 
1.8850514e+3, 2.0302752e+2, -1032677.75, -1057448.6, 18404.656, 0.052114375, -0.437134, -1022879.2, -72589.62, 0.0, 9.99961, 9.999293 
1.8850948e+3, 2.130271e+2, -952115.56, -967630.2, 49202.598, 0.17135935, -0.42538735, -910062.5, -57767.84, 0.0, 9.999512, 9.999272 
1.8851373e+3, 2.2302656e+2, -809979.44, -795375.9, 19492.926, 0.2467522, -0.40703773, -781862.06, -27562.059, 0.0, 9.999574, 9.999761 
1.8851772e+3, 2.3302592e+2, -604459.5, -603772.56, -15966.224, 0.18310566, -0.50091845, -588146.1, 68157.945, 0.0, 10.000139, 10.000123 
1.885217e+3, 2.4302557e+2, -451974.34, -528329.1, -30665.793, 0.107053936, -0.51235145, -441183.34, 117122.1, 0.0, 10.000713, 9.999701 
1.8852566e+3, 2.5302595e+2, -254158.06, -372097.88, -103384.31, 0.029535742, -0.4779864, -194107.94, 266192.4, 0.0, 10.0013685, 9.999779 
1.885298e+3, 2.6302493e+2, -260679.73, -616247.1, -64021.418, 0.053917963, -0.4292969, -249503.69, 112807.484, 0.000000017635879, 10.001898, 9.997178 
1.885341e+3, 2.730218e+2, -121244.28, -533856.0, -19860.828, 0.13724174, -0.45201486, -120290.5, 144057.75, 0.000007223604, 10.002349, 9.996842 
1.8853824e+3, 2.830191e+2, 46742.563, -382146.56, -9771.964, 0.1183471, -0.39313197, 46965.098, 213343.3, 0.00010058898, 10.002734, 9.997033 
1.8854234e+3, 2.930171e+2, 269207.7, -189910.31, -10921.806, 0.15903072, -0.3555088, 269467.34, 337863.25, 0.0004433926, 10.003437, 9.997336 
1.8854676e+3, 3.0301434e+2, 344425.28, -263619.72, 25973.357, 0.5166307, -0.29232097, 345532.75, 345532.75, 0.0011171673, 10.004162, 9.996181 
1.8855017e+3, 3.1300884e+2, 381123.22, -102737.68, -67488.56, -0.13207719, -0.49797198, 390360.13, 390360.13, 0.0020240063, 10.003797, 9.997428 
1.8947169e+3, 1.2298054e+2, -2145690.3, -1696126.9, 157704.14, 0.0070995553, -0.56023663, -1646322.8, 88420.87, 0.16258536, 9.995886, 10.002222 
1.8947597e+3, 1.329829e+2, -1899065.4, -1673357.3, 12831.002, 0.18099472, -0.4739215, -1672630.1, -35909.92, 0.110513955, 9.997675, 10.000718 
1.8947953e+3, 1.4298303e+2, -1731604.6, -1643052.3, 43061.258, -0.3480858, -0.45931664, -1625565.5, -86845.92, 0.06108175, 9.9986315, 9.999773 
1.8948403e+3, 1.5298373e+2, -1597855.6, -1473841.8, 49904.375, -0.096464, -0.4317023, -1456254.0, -15539.683, 0.024752133, 9.998661, 10.000237 
1.8948843e+3, 1.6298416e+2, -1463034.8, -1308652.1, 9656.133, 0.036114216, -0.40979555, -1308050.5, 34658.99, 0.0060684755, 9.998645, 10.00073 
1.8949261e+3, 1.7298383e+2, -1366054.1, -1165059.9, 35706.97, -0.02398231, -0.5735088, -1158905.0, 85803.17, 0.0005270964, 9.998458, 10.001125 
1.8949677e+3, 1.8298395e+2, -1322109.0, -1197381.9, -14168.659, -0.06652292, -0.6163255, -1195792.6, -49087.676, 0.0000013718216, 9.998538, 10.000189 
1.8950085e+3, 1.9298561e+2, -1131943.6, -1049347.9, -16505.799, -0.080760464, -0.49403098, -1046171.5, 2521.3013, 0.0, 9.999161, 10.000221 
1.8950503e+3, 2.0298637e+2, -1010227.0, -992327.1, 10180.331, -0.033336878, -0.4035616, -987722.0, -37034.008, 0.0, 9.9995165, 9.999793 
1.8950944e+3, 2.1298546e+2, -923250.3, -878818.1, 54770.523, 0.16656943, -0.5091415, -841929.5, 10766.782, 0.0, 9.999374, 9.999954 
1.8951371e+3, 2.2298487e+2, -848609.4, -827454.44, 23651.582, 0.2691515, -0.532253, -812122.8, -57420.977, 0.0, 9.99937, 9.999637 
1.8951766e+3, 2.3298542e+2, -653992.25, -664030.2, 18162.65, 0.113739476, -0.47820115, -640167.9, 16529.557, 0.0, 9.999961, 9.999792 
1.8952169e+3, 2.4298549e+2, -574635.5, -740544.56, -19606.447, 0.028000025, -0.37445226, -572349.94, -13650.802, 0.0, 10.000516, 9.998346 
1.8952595e+3, 2.5298458e+2, -392808.8, -615552.7, -64359.043, 0.16523536, -0.31206706, -375550.3, 85162.81, 0.0, 10.001178, 9.998199 
1.8953022e+3, 2.6298293e+2, -238736.02, -525771.8, -53609.06, 0.27435735, -0.26044434, -229050.39, 133683.1, 0.0000000071100716, 10.001699, 9.997897 
1.8953438e+3, 2.729806e+2, -63183.613, -361314.25, 11126.719, 0.1731747, -0.3286515, -62768.92, 201990.02, 0.0000064443307, 10.002135, 9.998126 
1.8953836e+3, 2.8297883e+2, 76463.914, -271739.06, -5719.186, -0.056031138, -0.2888297, 76557.82, 243334.16, 0.0000894982, 10.002509, 9.997905 
1.8954232e+3, 2.9297763e+2, 256456.97, -134431.86, 38804.37, -0.20948648, -0.251691, 260271.92, 329056.4, 0.00040206578, 10.003076, 9.997898 
1.8954684e+3, 3.0297494e+2, 314165.6, -217056.6, 11925.277, 0.14818016, -0.22341584, 314433.16, 314433.16, 0.0010244548, 10.0037155, 9.996704 
1.895508e+3, 3.1297094e+2, 413061.0, 116805.89, -89231.555, 0.08770554, -0.35975608, 437861.28, 437861.28, 0.0018682153, 10.003212, 9.999193 
1.9047134e+3, 1.22937806e+2, -2143989.0, -1739307.9, 144431.03, 0.078651085, -0.5040326, -1693048.4, 42112.266, 0.1713416, 9.996167, 10.001709 
1.9047582e+3, 1.3294075e+2, -1837934.4, -1547485.0, -54393.137, 0.28602147, -0.46914253, -1537632.9, 99499.266, 0.11689223, 9.997671, 10.001647 
1.9047926e+3, 1.4294223e+2, -1793219.8, -1716989.6, -48953.582, -0.45281708, -0.34579462, -1693062.8, -153944.03, 0.06499328, 9.998365, 9.99941 
1.9048394e+3, 1.5294145e+2, -1581389.3, -1498645.5, -8424.19, -0.040753357, -0.43740532, -1497796.5, -56668.4, 0.026617203, 9.998879, 9.999978 
1.9048843e+3, 1.629413e+2, -1426127.0, -1297300.6, -3998.4878, 0.18072206, -0.4563155, -1297176.6, 45952.46, 0.0066676727, 9.998924, 10.000676 
1.904925e+3, 1.7294128e+2, -1358553.6, -1152523.9, -33794.453, 0.025665486, -0.58971363, -1147122.4, 98001.195, 0.0006122247, 9.998483, 10.00119 
1.9049658e+3, 1.8294162e+2, -1363673.0, -1202085.1, -51991.03, -0.07116125, -0.6209144, -1186802.4, -39684.863, 0.0000017786746, 9.998199, 10.000321 
1.9050074e+3, 1.9294336e+2, -1181777.8, -1059466.3, -51908.215, -0.084101886, -0.50190616, -1040406.75, 8697.302, 0.0, 9.998763, 10.00035 
1.9050497e+3, 2.0294422e+2, -1035043.94, -974902.1, -13658.199, -0.019213825, -0.4168908, -971945.7, -20847.88, 0.0, 9.99925, 10.000025 
1.9050941e+3, 2.129433e+2, -842776.8, -814878.44, -28501.824, 0.20293951, -0.54440063, -797095.4, 56010.293, 0.0, 9.999833, 10.000166 
1.9051373e+3, 2.2294272e+2, -693383.0, -772396.0, -43374.86, 0.30820966, -0.5719845, -674219.75, 80891.9, 0.0, 10.000498, 9.999482 
1.9051772e+3, 2.3294337e+2, -458162.8, -600553.0, -61874.375, 0.11473479, -0.4823219, -435033.06, 222074.83, 0.0, 10.001422, 9.999533 
1.905218e+3, 2.4294342e+2, -392582.28, -674117.5, -59257.797, 0.033592105, -0.35659453, -380618.1, 178493.03, 0.0, 10.001884, 9.998122 
1.9052613e+3, 2.529419e+2, -344228.63, -612623.94, -40072.01, 0.22848965, -0.33474964, -338373.53, 122757.85, 0.0, 10.001607, 9.997997 
1.9053045e+3, 2.6294005e+2, -238163.92, -509729.2, 54522.01, 0.36218458, -0.29936033, -227626.45, 135527.08, 0.000000016068412, 10.00163, 9.998043 
1.9053464e+3, 2.7293852e+2, 15551.766, -307588.66, 25779.045, 0.21060196, -0.30497843, 17595.406, 282766.4, 0.000006020835, 10.002571, 9.998301 
1.9053863e+3, 2.829372e+2, 178686.64, -176467.72, -43215.83, -0.03649844, -0.2500907, 183869.58, 351053.3, 0.00007835106, 10.003013, 9.99832 
1.905426e+3, 2.9293543e+2, 178091.8, -118753.516, -67345.18, -0.19780071, -0.30881938, 192655.83, 261851.52, 0.00035541714, 10.00232, 9.998361 
1.9054706e+3, 3.0293173e+2, 93293.49, -358419.97, -47437.082, 0.10433776, -0.3928758, 98221.38, 98221.38, 0.00092369394, 10.002349, 9.996398 
1.9055134e+3, 3.129282e+2, 597351.9, 233331.67, -303896.72, 0.2718441, -0.4343722, 769574.56, 769574.56, 0.0017172982, 10.004285, 9.999524 
1.9147068e+3, 1.22892864e+2, -2117733.8, -1681372.1, -40471.16, -0.2528226, -0.57866514, -1677650.3, 57953.715, 0.18042894, 9.996153, 10.002127 
1.9147569e+3, 1.3289835e+2, -1828916.3, -1530717.4, -10228.216, 0.35550237, -0.33922258, -1530367.0, 107183.66, 0.12358676, 9.997667, 10.001778 
1.914793e+3, 1.4289758e+2, -1757137.3, -1664002.9, -45280.22, -0.2899646, -0.4459472, -1645617.9, -106059.34, 0.069141634, 9.998458, 9.999728 
1.9148386e+3, 1.5289769e+2, -1530501.0, -1392880.8, 18557.732, -0.03377037, -0.5171375, -1390422.1, 51134.453, 0.028615344, 9.998875, 10.000715 
1.9148827e+3, 1.6289844e+2, -1428605.5, -1320800.8, -27193.404, 0.09684834, -0.484539, -1314329.8, 29218.506, 0.0073205116, 9.9990015, 10.000476 
1.9149235e+3, 1.7289902e+2, -1393986.6, -1217672.4, -46113.207, 0.018679336, -0.51895857, -1206340.3, 39200.31, 0.00070924795, 9.99845, 10.000754 
1.9149646e+3, 1.8289948e+2, -1342627.3, -1168934.5, -52197.074, -0.037077624, -0.519098, -1154455.6, -6920.867, 0.0000023137907, 9.998233, 10.00054 
1.9150065e+3, 1.9290045e+2, -1165107.3, -1009069.7, -20672.781, -0.054328248, -0.5094956, -1006377.25, 43147.516, 0.0, 9.998691, 10.000735 
1.9150491e+3, 2.0290096e+2, -1058284.4, -1004765.25, -3271.4192, -0.018901993, -0.47886288, -1004566.06, -53046.4, 0.0, 9.999159, 9.9998665 
1.9150938e+3, 2.1290058e+2, -884109.9, -867494.1, 1331.4971, 0.17469671, -0.5288499, -867388.1, -13864.728, 0.0, 9.999682, 9.999877 
1.9151375e+3, 2.2290012e+2, -737657.5, -812998.44, -19545.453, 0.25687757, -0.520123, -732888.75, 22640.152, 0.0, 10.000273, 9.999316 
1.9151784e+3, 2.3289995e+2, -502609.28, -637266.9, -14513.936, 0.09268477, -0.4964762, -501062.66, 156471.05, 0.0, 10.001188, 9.999393 
1.9152197e+3, 2.4289934e+2, -377570.22, -582828.25, -71940.16, -0.0005326531, -0.45570126, -354867.28, 204674.61, 0.0, 10.00162, 9.998878 
1.9152619e+3, 2.5289792e+2, -301681.78, -478346.16, -43201.777, 0.12109797, -0.52166176, -291683.03, 169872.69, 0.0, 10.001413, 9.999011 
1.9153048e+3, 2.6289654e+2, -291022.6, -578406.3, 60780.074, 0.2111318, -0.48936993, -278696.63, 84874.09, 0.000000038925435, 10.001445, 9.997664 
1.9153482e+3, 2.7289575e+2, -76979.97, -436334.25, 74132.68, 0.1298991, -0.34764206, -62287.543, 203296.06, 0.0000054500297, 10.002307, 9.99754 
1.91539e+3, 2.8289434e+2, 128297.77, -216406.13, -70582.16, 0.006466107, -0.24725065, 142190.39, 309789.28, 0.00006657065, 10.0027275, 9.998188 
1.9154304e+3, 2.9289082e+2, 142346.52, -134091.94, -79488.836, 0.013980123, -0.48875427, 163573.3, 233200.73, 0.0003045757, 10.00207, 9.998377 
1.9154741e+3, 3.028855e+2, -5179.431, -514553.6, -16592.44, 0.18733287, -0.6950295, -4639.5186, -4639.5186, 0.0008128498, 10.002134, 9.995421 
1.9155148e+3, 3.1288332e+2, 458808.6, 110643.53, -167946.42, -0.06341162, -0.5062266, 526616.0, 526616.0, 0.0015544508, 10.003619, 9.998968 
1.9247039e+3, 1.2285105e+2, -1789973.4, -1615738.8, 36784.9, -0.26674464, -0.5404411, -1608291.0, 127721.62, 0.18987963, 9.998736, 10.001448 
1.924755e+3, 1.3285561e+2, -1742386.6, -1548623.6, 75265.49, 0.39179054, -0.34899738, -1522823.0, 115147.25, 0.13060497, 9.998525, 10.001248 
1.9247925e+3, 1.4285433e+2, -1733117.9, -1631833.1, 36819.684, -0.15926667, -0.48332152, -1619862.9, -79879.336, 0.07352615, 9.998547, 9.999899 
1.9248372e+3, 1.5285495e+2, -1579755.4, -1376364.5, 41676.39, -0.014186911, -0.53839946, -1368155.9, 73818.805, 0.030745408, 9.998374, 10.001069 
1.9248809e+3, 1.6285579e+2, -1572775.4, -1412651.6, -9348.896, 0.075940065, -0.5088785, -1412107.6, -68142.984, 0.008026891, 9.998135, 10.000249 
1.9249222e+3, 1.7285651e+2, -1417356.8, -1274109.3, -48853.625, 0.051144965, -0.49421057, -1259034.4, -13076.607, 0.0008187495, 9.998491, 10.000346 
1.9249637e+3, 1.828569e+2, -1255787.4, -1139519.4, -14311.137, 0.043090336, -0.4725081, -1137783.8, 10169.206, 0.0000031359323, 9.998868, 10.000438 
1.9250059e+3, 1.9285712e+2, -1025782.9, -943230.94, -26888.102, 0.0039679655, -0.5398968, -935245.6, 114702.34, 0.0, 9.999637, 10.000729 
1.925049e+3, 2.028571e+2, -941636.6, -977295.94, -22480.04, 0.024433762, -0.55380815, -930773.94, 21172.46, 0.0, 10.000078, 9.9996195 
1.9250937e+3, 2.1285678e+2, -843625.0, -882243.6, -43568.152, 0.18005691, -0.5627276, -815278.94, 38671.754, 0.0, 10.0001135, 9.999569 
1.9251375e+3, 2.228565e+2, -794056.75, -854877.6, -43869.38, 0.26785147, -0.511523, -771088.2, -15132.317, 0.0, 9.999982, 9.999154 
1.9251794e+3, 2.3285642e+2, -732887.94, -760995.56, -63930.426, 0.15636031, -0.46415734, -681484.8, -23523.553, 0.0, 9.999676, 9.999267 
1.9252212e+3, 2.4285568e+2, -624121.1, -706441.06, -107481.76, 0.076719195, -0.4293541, -550187.8, 9783.466, 0.0, 9.999927, 9.998856 
1.925263e+3, 2.5285378e+2, -279737.22, -475943.6, -164203.33, 0.08743579, -0.535437, -186563.19, 275424.84, 0.0, 10.001574, 9.99897 
1.9253057e+3, 2.6285228e+2, -134243.31, -460361.8, -86033.79, 0.1232225, -0.5251551, -112938.43, 251064.02, 0.000000047147957, 10.002352, 9.998032 
1.9253495e+3, 2.7285182e+2, -192608.2, -438408.1, -30195.367, 0.10045581, -0.39447033, -188953.19, 77056.945, 0.0000044268, 10.001286, 9.998015 
1.9253923e+3, 2.8285044e+2, -146168.95, -376347.47, -79779.84, 0.07580323, -0.31490403, -121221.21, 46804.05, 0.000054025306, 10.000983, 9.997912 
1.9254343e+3, 2.928468e+2, 203735.7, -160645.61, -152188.73, 0.17592943, -0.5141143, 258936.8, 328994.63, 0.0002523606, 10.002721, 9.997882 
1.9254778e+3, 3.0284202e+2, 293105.56, -295283.28, -11692.065, 0.27182215, -0.6719427, 293337.8, 293337.8, 0.0006949365, 10.003861, 9.996094 
1.9255184e+3, 3.128409e+2, 484803.6, 102759.3, -75853.41, -0.05318383, -0.44166318, 499312.97, 499312.97, 0.0013689849, 10.003822, 9.998842 
1.9347045e+3, 1.2281158e+2, -1892469.0, -1838715.9, -53424.145, -0.14573577, -0.4955766, -1805788.6, -69394.87, 0.1997211, 9.998883, 9.999659 
1.9347522e+3, 1.3281234e+2, -1835249.8, -1720854.6, 86912.9, 0.23773463, -0.52723813, -1674007.0, -35614.375, 0.13795441, 9.99849, 9.999978 
1.9347908e+3, 1.4281291e+2, -1722270.4, -1621900.5, 28647.043, -0.22300777, -0.41753307, -1614299.8, -73910.25, 0.07814733, 9.998594, 9.999948 
1.9348352e+3, 1.5281337e+2, -1583105.3, -1388775.0, 41920.242, -0.08136105, -0.48577422, -1380117.9, 62263.223, 0.033007, 9.998385, 10.000985 
1.9348785e+3, 1.6281328e+2, -1581297.9, -1439928.6, -14759.892, -0.008388791, -0.53622633, -1438404.1, -94024.81, 0.008786739, 9.998174, 10.000047 
1.9349207e+3, 1.7281371e+2, -1439680.4, -1319918.6, -25526.523, 0.031055696, -0.5174571, -1314704.9, -68329.35, 0.00094156526, 9.998486, 10.00004 
1.9349629e+3, 1.8281393e+2, -1275891.4, -1189483.6, 1081.419, 0.045335297, -0.4842093, -1189470.0, -41097.59, 0.0000044945964, 9.998899, 10.00008 
1.9350058e+3, 1.9281344e+2, -1063722.6, -1010910.25, 12016.26, -0.0078532845, -0.58061033, -1008304.75, 42067.9, 0.0, 9.9995775, 10.000299 
1.9350488e+3, 2.028127e+2, -978726.2, -1032736.56, -27273.191, -0.013510332, -0.6270559, -967350.3, -14972.744, 0.0, 9.999984, 9.999285 
1.9350933e+3, 2.1281195e+2, -895526.75, -949245.2, -33633.69, 0.12790045, -0.6430796, -879343.6, -24955.928, 0.0, 9.999937, 9.999197 
1.935137e+3, 2.2281167e+2, -845661.3, -902227.56, -63268.195, 0.21938454, -0.56050104, -804642.2, -48247.45, 0.0, 9.999733, 9.998945 
1.9351794e+3, 2.3281269e+2, -768868.75, -795734.75, -64505.95, 0.19095357, -0.38786685, -716411.94, -58020.082, 0.0, 9.999509, 9.999105 
1.9352219e+3, 2.428124e+2, -701777.1, -827606.25, -72456.63, 0.12656985, -0.26735264, -668732.3, -108332.805, 0.0, 9.999751, 9.998113 
1.935264e+3, 2.528095e+2, -374930.66, -623456.7, -88422.375, 0.025804987, -0.38589013, -346682.0, 115745.945, 0.0, 10.001362, 9.998058 
1.9353068e+3, 2.6280725e+2, -117978.44, -350360.72, -116528.9, -0.0168156, -0.42855358, -69611.484, 294837.38, 0.00000001782158, 10.002034, 9.998937 
1.9353501e+3, 2.728068e+2, -127325.195, -241325.98, -59583.965, 0.018837312, -0.43726462, -101867.766, 164582.39, 0.0000033385966, 10.001045, 9.999474 
1.9353932e+3, 2.8280562e+2, -200864.36, -460958.7, -56099.1, 0.041716326, -0.4003642, -189280.39, -20820.137, 0.00004416703, 10.000841, 9.997409 
1.935437e+3, 2.9280314e+2, 110824.73, -295267.94, -65734.27, 0.15211673, -0.39622298, 121200.06, 191688.42, 0.00021030588, 10.00248, 9.997072 
1.9354811e+3, 3.028009e+2, 370587.22, -55940.105, -16082.075, 0.20271769, -0.3414349, 371192.72, 371192.72, 0.0005915153, 10.003525, 9.9979 
1.935522e+3, 3.1279907e+2, 378281.44, 47725.05, 15556.17, -0.102902904, -0.3968815, 379011.9, 379011.9, 0.0011871094, 10.00316, 9.998758 
1.9447045e+3, 1.2277004e+2, -1927813.9, -1929513.9, -101629.3, -0.018433886, -0.49183276, -1827031.1, -90233.04, 0.20999403, 9.998926, 9.999025 
1.9447479e+3, 1.3276808e+2, -1985261.0, -1823707.0, 3810.4536, 0.011790371, -0.7349965, -1823617.1, -184793.08, 0.14565058, 9.997558, 9.999741 
1.9447905e+3, 1.427716e+2, -1840732.5, -1694051.9, 63963.004, -0.054994136, -0.3274268, -1670077.9, -129285.39, 0.083007626, 9.997824, 9.999839 
1.9448343e+3, 1.527713e+2, -1456937.9, -1383674.8, 12670.751, -0.041616965, -0.42842305, -1381545.3, 61247.32, 0.03539992, 9.9994755, 10.0005 
1.9448772e+3, 1.6277005e+2, -1340288.3, -1375856.6, -79972.93, -0.033350106, -0.54881966, -1276146.0, 68656.92, 0.009600047, 10.000044, 9.999596 
1.9449194e+3, 1.7276993e+2, -1381831.0, -1340026.6, -127434.07, 0.053734988, -0.5389909, -1231791.9, 15012.653, 0.0010784023, 9.999086, 9.999613 
1.9449621e+3, 1.827698e+2, -1327019.4, -1243745.9, -48578.797, 0.10644693, -0.50263566, -1221402.1, -72597.41, 0.0000066792873, 9.998701, 9.999795 
1.9450057e+3, 1.9276907e+2, -1007082.6, -1006038.56, -35603.203, 0.012618873, -0.59959257, -970953.56, 79853.44, 0.0, 10.000103, 10.000064 
1.945049e+3, 2.027682e+2, -860175.44, -987047.6, -82432.73, -0.015082778, -0.637248, -819595.7, 133217.2, 0.0, 10.000855, 9.999176 
1.945093e+3, 2.1276756e+2, -852611.56, -935369.5, -99655.95, 0.11313005, -0.6330505, -786085.3, 68737.44, 0.0, 10.000265, 9.99913 
1.9451366e+3, 2.227673e+2, -797357.3, -899961.1, -67302.22, 0.1966471, -0.53785056, -764033.75, -7203.947, 0.0, 10.000131, 9.9987755 
1.9451793e+3, 2.3276797e+2, -524415.8, -699201.8, -80470.16, 0.15382159, -0.3786434, -493010.78, 165818.61, 0.0, 10.0012665, 9.998929 
1.945222e+3, 2.4276747e+2, -423800.06, -690345.3, -54662.367, 0.10112698, -0.27071172, -413025.56, 147812.97, 0.0, 10.001673, 9.998126 
1.945265e+3, 2.5276443e+2, -491052.53, -678616.7, -35447.973, 0.033492774, -0.4028942, -484576.75, -21708.734, 0.0, 10.000567, 9.998062 
1.9453081e+3, 2.627621e+2, -368039.88, -441229.03, -18574.48, 0.026210219, -0.46772498, -363595.75, 1293.4235, 0.000000002142629, 10.000169, 9.999215 
1.9453517e+3, 2.727616e+2, -34652.04, -165650.42, -57002.277, 0.07603286, -0.5082578, -13321.49, 253566.83, 0.0000030022966, 10.001507, 9.999793 
1.9453953e+3, 2.8276044e+2, 30209.16, -338865.4, -35869.85, 0.0972244, -0.49774876, 33662.98, 202561.28, 0.00003904193, 10.002376, 9.99752 
1.9454391e+3, 2.9275858e+2, 124505.25, -269267.2, -12487.227, 0.13074951, -0.4351252, 124900.84, 195823.27, 0.00018459432, 10.002469, 9.997268 
1.9454843e+3, 3.0275792e+2, 293434.84, -34811.195, 44022.79, 0.22047919, -0.26329216, 299236.44, 299236.44, 0.00051477127, 10.00276, 9.998403 
1.9455257e+3, 3.127551e+2, 342834.66, -58136.402, -71775.625, -0.024072438, -0.4365536, 355295.56, 355295.56, 0.001027113, 10.00325, 9.998004 
1.9547045e+3, 1.2272793e+2, -1853421.0, -1833356.6, 49922.363, 0.032729752, -0.36379227, -1792468.5, -55257.273, 0.22070916, 9.999107, 9.999627 
1.9547415e+3, 1.3272278e+2, -1902366.6, -1671753.6, -14876.383, -0.40407103, -0.98017836, -1670798.0, -31532.697, 0.15369554, 9.997621, 10.000759 
1.9547914e+3, 1.4273049e+2, -1845501.8, -1724866.6, 111142.83, 0.2228858, -0.22062597, -1658728.9, -117537.37, 0.08810495, 9.997913, 9.999583 
1.9548343e+3, 1.5272874e+2, -1521512.9, -1526260.0, 84972.47, -0.0006594038, -0.37347126, -1438880.9, 4328.554, 0.037922986, 9.999511, 9.9994955 
1.9548766e+3, 1.6272612e+2, -1374399.6, -1470520.1, -113109.0, -0.13521875, -0.5409644, -1299563.9, 45671.586, 0.010466628, 10.000143, 9.998899 
1.9549185e+3, 1.7272517e+2, -1419674.9, -1430190.0, -158617.39, 0.02226012, -0.5537936, -1266228.0, -18983.207, 0.0012294218, 9.999123, 9.998981 
1.9549611e+3, 1.8272446e+2, -1338265.8, -1276303.0, -25320.805, 0.09819341, -0.5259377, -1267272.1, -118021.64, 0.000009908067, 9.998745, 9.999548 
1.9550054e+3, 1.9272387e+2, -1024885.7, -1028675.5, 27704.256, -0.032053486, -0.59222627, -999011.6, 52240.25, 0.0, 10.000041, 9.999941 
1.9550493e+3, 2.0272331e+2, -871695.8, -980741.7, -100582.1, -0.095860384, -0.5955133, -811809.4, 141445.84, 0.0, 10.000724, 9.999282 
1.9550925e+3, 2.1272345e+2, -860811.75, -914254.9, -114833.74, 0.030083045, -0.5355768, -769631.5, 85625.75, 0.0, 10.000105, 9.99935 
1.9551358e+3, 2.2272323e+2, -830946.06, -925842.7, -46724.965, 0.07942256, -0.44715786, -811801.9, -54539.42, 0.0, 9.999932, 9.998697 
1.9551785e+3, 2.3272239e+2, -569905.1, -740630.5, -24696.363, -0.051285014, -0.42554566, -566404.44, 92868.766, 0.0, 10.001045, 9.998748 
1.9552216e+3, 2.4272092e+2, -425335.9, -630062.3, -88808.266, -0.124776624, -0.42317626, -392181.1, 169107.42, 0.0, 10.001396, 9.998672 
1.9552651e+3, 2.5271854e+2, -459680.03, -572328.7, -67388.04, 0.00046580273, -0.5696558, -428177.38, 35132.22, 0.0, 10.0004, 9.998865 
1.9553094e+3, 2.627169e+2, -410228.9, -495590.4, 452.4183, 0.1146795, -0.6027947, -410226.5, -44903.59, 0.00000003752054, 10.000017, 9.998922 
1.955354e+3, 2.7271646e+2, -105434.45, -267272.94, 7149.989, 0.14695127, -0.58771163, -105119.19, 162204.95, 0.0000033251551, 10.001313, 9.999188 
1.9553977e+3, 2.8271496e+2, 12813.43, -297650.5, -43358.523, 0.09215663, -0.5824704, 18755.049, 188092.77, 0.000036409245, 10.002046, 9.997961 
1.9554405e+3, 2.9271337e+2, 138526.89, -158440.23, 5801.326, 0.0024684472, -0.5702821, 138640.17, 209997.94, 0.00016708692, 10.00213, 9.998186 
1.9554867e+3, 3.027136e+2, 196001.2, -165568.66, 34498.387, 0.1581756, -0.34752852, 199263.36, 199263.36, 0.00045041088, 10.002431, 9.997676 
1.9555305e+3, 3.1270877e+2, 201115.36, -242396.13, -1900.6748, 0.09406739, -0.6073753, 201123.5, 201123.5, 0.00087241025, 10.002811, 9.996936 
1.964705e+3, 1.2268272e+2, -1957792.6, -1865998.6, 24886.033, 0.21221685, -0.36498293, -1859686.0, -122031.78, 0.23177752, 9.998408, 9.999692 
1.9647382e+3, 1.3267826e+2, -1637644.0, -1486215.5, -134742.25, -0.53475714, -0.97473544, -1407371.9, 232329.72, 0.1620495, 9.999237, 10.00144 
1.964791e+3, 1.4268655e+2, -1686127.9, -1645725.5, -18529.781, 0.35778746, -0.1888336, -1638514.3, -96892.66, 0.093428105, 9.999037, 9.9995575 
1.9648337e+3, 1.5268445e+2, -1676278.3, -1597628.0, 837.2613, 0.047679774, -0.37280312, -1597619.0, -153976.06, 0.04057487, 9.998477, 9.999473 
1.9648759e+3, 1.6268152e+2, -1610215.3, -1603543.5, -120660.555, -0.1156326, -0.5654171, -1486172.6, -140500.56, 0.011385711, 9.998604, 9.998726 
1.9649182e+3, 1.7268065e+2, -1257714.0, -1371142.8, -153069.22, 0.043683123, -0.553178, -1151190.1, 96490.18, 0.0013940044, 10.000329, 9.9988 
1.964961e+3, 1.8267988e+2, -1025098.56, -1187312.1, 5110.504, 0.12392948, -0.50051135, -1024937.75, 124749.33, 0.000014255441, 10.001148, 9.999003 
1.9650055e+3, 1.926787e+2, -1059906.1, -1119836.6, 555.86414, -0.0140691325, -0.5620598, -1059901.0, -8204.394, 0.0, 10.000111, 9.999282 
1.9650494e+3, 2.0267783e+2, -1052612.1, -1076681.4, -140072.63, -0.08892138, -0.554892, -924058.06, 29646.646, 0.0, 9.999511, 9.999208 
1.9650921e+3, 2.1267815e+2, -844333.0, -897230.0, -184253.48, -0.007955662, -0.4824672, -684639.44, 171064.89, 0.0, 10.00016, 9.999445 
1.9651353e+3, 2.2267793e+2, -740733.8, -844917.06, -87203.22, 0.039985426, -0.41330504, -691248.2, 66459.67, 0.0, 10.000405, 9.999023 
1.9651788e+3, 2.3267625e+2, -709640.4, -771754.56, -50191.72, -0.06084032, -0.50520307, -681674.2, -21951.926, 0.0, 9.999918, 9.9990835 
1.9652224e+3, 2.4267443e+2, -617264.6, -696906.0, -82158.984, -0.09720957, -0.5693434, -565784.8, -4046.5098, 0.0, 9.999943, 9.998923 
1.9652662e+3, 2.5267312e+2, -339032.3, -490120.8, -123794.266, 0.029887889, -0.62933624, -269552.6, 194196.9, 0.0, 10.001114, 9.999091 
1.9653106e+3, 2.6267207e+2, -166276.92, -404080.72, -46142.402, 0.15950094, -0.606625, -157637.52, 208120.78, 0.00000006167767, 10.001815, 9.998683 
1.9653557e+3, 2.72671e+2, -118992.97, -318092.4, -57276.313, 0.18792218, -0.609405, -103691.82, 164075.16, 0.000003603985, 10.001424, 9.998777 
1.9653992e+3, 2.8266928e+2, -110084.02, -339134.47, -82779.02, 0.11918038, -0.6123254, -83299.68, 86484.48, 0.00003430298, 10.001134, 9.99811 
1.9654417e+3, 2.9266798e+2, 39000.2, -187553.19, -100438.49, -0.006743927, -0.5843579, 77115.38, 148915.36, 0.00015136057, 10.001354, 9.998369 
1.9654894e+3, 3.026675e+2, 156176.67, -179767.84, -30479.135, 0.22608519, -0.435422, 158919.55, 158919.55, 0.00039140965, 10.002129, 9.997733 
1.9655335e+3, 3.1266323e+2, 367520.53, -70622.86, -94426.34, 0.105155654, -0.6422457, 387004.38, 387004.38, 0.0007268672, 10.003531, 9.997793 
1.9747016e+3, 1.2263419e+2, -1993241.3, -1980478.1, -61309.71, -0.027254453, -0.55870485, -1925218.8, -187089.38, 0.24301729, 9.998579, 9.99883 
1.9747387e+3, 1.326349e+2, -1622965.5, -1483328.4, -113123.84, -0.45265043, -0.6859758, -1420212.3, 219917.31, 0.17062773, 9.999331, 10.001431 
1.9747888e+3, 1.4263959e+2, -1654770.5, -1610246.9, -57518.297, 0.19936973, -0.2449214, -1570832.6, -28747.467, 0.09895461, 9.999146, 9.999757 
1.9748318e+3, 1.5263824e+2, -1605824.5, -1462445.6, -16186.652, -0.0076227244, -0.43619153, -1460641.0, -16545.283, 0.04335473, 9.998511, 10.000393 
1.974875e+3, 1.6263609e+2, -1567717.1, -1524716.0, -82842.73, -0.092166126, -0.6263973, -1460629.3, -114514.63, 0.012356995, 9.998652, 9.999243 
1.9749185e+3, 1.7263626e+2, -1231318.3, -1317327.6, -76731.234, 0.029723685, -0.54223967, -1186362.3, 61749.91, 0.0015709848, 10.000336, 9.999167 
1.9749619e+3, 1.8263589e+2, -1077907.4, -1305988.8, -24588.861, 0.07208389, -0.43844408, -1075286.6, 74829.445, 0.000019593592, 10.0011835, 9.998176 
1.9750054e+3, 1.926335e+2, -1149178.1, -1292944.6, -31972.033, -0.04775678, -0.50990516, -1142388.5, -90246.59, 0.0, 10.000057, 9.99812 
1.9750488e+3, 2.0263164e+2, -1092642.0, -1129969.1, -136134.78, -0.12687974, -0.51674646, -973897.4, -19735.006, 0.0, 9.999386, 9.998901 
1.9750915e+3, 2.1263187e+2, -872772.75, -914306.9, -148228.45, -0.09527348, -0.44778192, -743863.7, 112298.39, 0.0, 9.999981, 9.999413 
1.975135e+3, 2.226315e+2, -732581.06, -780805.5, -108455.46, -0.04750182, -0.41410956, -645589.8, 112575.23, 0.0, 10.00019, 9.999573 
1.9751798e+3, 2.3262952e+2, -674170.0, -670631.56, -56778.49, 0.023915546, -0.61224794, -615594.75, 44582.473, 0.0, 9.999787, 9.9998455 
1.975224e+3, 2.42628e+2, -647910.7, -720327.7, -62265.773, 0.054991554, -0.6920552, -612090.9, -49903.375, 0.0, 9.9997635, 9.998853 
1.9752672e+3, 2.5262812e+2, -385320.22, -546712.0, -67205.055, 0.026653962, -0.58059984, -361000.16, 103187.93, 0.0, 10.000941, 9.998787 
1.9753113e+3, 2.6262745e+2, -228811.84, -471729.56, -61403.535, 0.039332867, -0.48623583, -214172.77, 152023.2, 0.000000055759365, 10.001548, 9.998343 
1.9753563e+3, 2.7262533e+2, -167704.88, -369709.4, -60961.242, 0.100430295, -0.572404, -150733.7, 117483.0, 0.0000036492006, 10.00122, 9.998513 
1.9754e+3, 2.8262347e+2, -151194.52, -389085.16, -98501.805, 0.05546922, -0.56277806, -115703.45, 54531.883, 0.00003270768, 10.000966, 9.997856 
1.975443e+3, 2.9262242e+2, -5704.913, -247693.22, -67342.055, -0.04072512, -0.49414003, 11773.087, 84021.59, 0.00013942833, 10.00121, 9.998027 
1.9754918e+3, 3.0261987e+2, 105645.92, -188205.11, -1726.62, 0.23136848, -0.51720613, 105656.07, 105656.07, 0.00034788318, 10.001735, 9.997858 
1.9755371e+3, 3.1261784e+2, 451106.97, 267533.47, -29974.787, 0.068758346, -0.57845116, 455877.44, 455877.44, 0.0006198475, 10.002864, 10.000421 
1.9846989e+3, 1.2258694e+2, -2314464.5, -2227547.5, 75415.35, -0.037205726, -0.7104293, -2183965.0, -445373.6, 0.25424254, 9.996742, 9.998051 
1.9847399e+3, 1.3259086e+2, -1585365.4, -1434493.5, -39421.246, -0.24423848, -0.55390245, -1424814.1, 215745.83, 0.17932345, 9.999396, 10.001826 
1.984786e+3, 1.4259306e+2, -1580363.1, -1604384.4, 26718.332, -0.017325466, -0.372228, -1563080.0, -20540.725, 0.104643695, 9.999785, 9.9994955 
1.9848306e+3, 1.525921e+2, -1468332.5, -1431853.4, -38227.35, -0.012674828, -0.4966256, -1407737.3, 36810.28, 0.046255346, 9.999608, 10.00009 
1.984875e+3, 1.6259056e+2, -1435079.3, -1445760.1, -110005.89, 0.029052338, -0.6113958, -1330284.3, 16276.977, 0.013380272, 9.999509, 9.999364 
1.9849187e+3, 1.7259073e+2, -1278993.1, -1311907.4, -122620.29, 0.04241257, -0.55056393, -1171730.5, 76827.664, 0.0017591557, 9.999896, 9.9994135 
1.984962e+3, 1.8259047e+2, -1237190.0, -1353906.5, -79611.336, 0.035038576, -0.4616195, -1196838.4, -46277.93, 0.0000256483, 9.99995, 9.998445 
1.9850053e+3, 1.9258855e+2, -1194144.9, -1284663.9, -14580.087, -0.022596538, -0.51526123, -1191854.4, -139273.5, 0.0, 9.999597, 9.998406 
1.9850487e+3, 2.025868e+2, -1107741.0, -1177511.5, 10120.872, -0.05593393, -0.51676744, -1106302.5, -151702.69, 0.0, 9.999454, 9.998546 
1.9850919e+3, 2.1258608e+2, -889101.06, -990519.44, -48694.21, -0.06138459, -0.48740563, -869507.0, -12897.352, 0.0, 10.000161, 9.998807 
1.9851355e+3, 2.2258505e+2, -664654.94, -764219.5, -57565.45, -0.028073898, -0.47514987, -638331.7, 120287.734, 0.0, 10.000729, 9.999421 
1.9851802e+3, 2.3258343e+2, -515926.8, -594753.75, -90206.234, 0.06947644, -0.6341044, -456899.5, 203728.05, 0.0, 10.000885, 9.999826 
1.9852248e+3, 2.4258232e+2, -487452.97, -634951.56, -90855.21, 0.1274317, -0.6730076, -444182.5, 118451.07, 0.0, 10.000869, 9.998884 
1.9852683e+3, 2.5258243e+2, -416918.8, -561898.0, -93246.1, 0.072544105, -0.5630174, -371300.06, 93334.586, 0.0, 10.000734, 9.998777 
1.9853126e+3, 2.6258147e+2, -357695.97, -574871.5, -61589.934, 0.072260424, -0.48150977, -341445.34, 25200.492, 0.00000004684117, 10.00084, 9.997976 
1.9853579e+3, 2.725788e+2, -151975.47, -423529.06, -104817.52, 0.12724748, -0.5698058, -116223.69, 152449.83, 0.000003631824, 10.001584, 9.9979725 
1.9854018e+3, 2.8257674e+2, 39716.266, -282056.47, -119019.87, 0.090102024, -0.54814506, 78955.24, 249649.4, 0.000030883682, 10.002235, 9.997967 
1.9854449e+3, 2.925758e+2, 200700.98, -123092.64, -96875.9, -0.029120643, -0.4885912, 227471.92, 300175.1, 0.00012822116, 10.002556, 9.998217 
1.9854932e+3, 3.02573e+2, 196291.75, -152532.83, 18615.934, 0.19524296, -0.54589444, 197282.42, 197282.42, 0.00031412428, 10.002356, 9.997805 
1.98554e+3, 3.1257036e+2, 190593.17, 154184.25, -152428.98, 0.19611774, -0.652502, 325900.9, 325900.9, 0.00054947456, 10.000957, 10.000569 
1.9946961e+3, 1.22542344e+2, -2348851.0, -2306191.8, 212722.14, -0.048551947, -0.6691667, -2113732.5, -374705.03, 0.26535824, 9.996776, 9.997488 
1.9947417e+3, 1.3254605e+2, -1522502.9, -1318101.1, -1938.7186, -0.020943144, -0.58980775, -1318082.8, 322910.9, 0.18805622, 9.999451, 10.002804 
1.994782e+3, 1.4254688e+2, -1609669.3, -1695251.5, 12767.484, -0.433324, -0.5928401, -1607805.1, -64820.37, 0.11045076, 9.999913, 9.998813 
1.9948299e+3, 1.5254591e+2, -1570732.3, -1653590.0, -37301.9, -0.06519733, -0.5666465, -1556413.6, -111414.43, 0.04926506, 9.999652, 9.99854 
1.9948761e+3, 1.6254488e+2, -1445481.9, -1484783.1, -111354.125, 0.13897192, -0.5223394, -1352057.8, -5045.2905, 0.014456319, 9.999579, 9.9990635 
1.9949181e+3, 1.7254397e+2, -1270298.4, -1293728.0, -104420.18, -0.011221664, -0.5785872, -1176938.0, 72081.46, 0.0019582892, 9.999892, 9.999539 
1.9949608e+3, 1.8254337e+2, -1139631.3, -1154007.3, -96371.82, -0.10073573, -0.5822246, -1050179.8, 100842.836, 0.000032105352, 9.999969, 9.999806 
1.995005e+3, 1.9254376e+2, -1078122.5, -1027356.9, -20819.125, -0.02597982, -0.5749797, -1019911.0, 33103.434, 0.0, 9.999535, 10.000197 
1.9950491e+3, 2.0254327e+2, -1152740.3, -1249648.1, 13298.031, 0.017917639, -0.5484448, -1150948.6, -195930.9, 0.0, 9.999354, 9.998101 
1.9950926e+3, 2.1254067e+2, -989211.44, -1169312.0, -11749.298, -0.006276452, -0.6003968, -988448.2, -131399.92, 0.0, 10.000031, 9.9976425 
1.9951363e+3, 2.2253853e+2, -753289.44, -904916.6, -53875.25, -0.025466584, -0.59397876, -736096.3, 22975.49, 0.0, 10.000539, 9.998547 
1.9951804e+3, 2.3253803e+2, -594954.1, -719495.3, -70917.69, -0.013789399, -0.5660074, -562848.1, 98224.93, 0.0, 10.00071, 9.999055 
1.9952247e+3, 2.4253725e+2, -526185.75, -658919.0, -106019.12, 0.0023726672, -0.52346355, -467474.06, 95603.766, 0.0, 10.000621, 9.998842 
1.9952692e+3, 2.5253603e+2, -423451.03, -538009.94, -89898.75, 0.07249245, -0.5672118, -374134.4, 90954.945, 0.0, 10.00057, 9.999021 
1.9953144e+3, 2.6253426e+2, -424963.38, -664874.94, -54133.137, 0.13675474, -0.56849444, -413314.5, -46207.152, 0.000000042002604, 10.000632, 9.9974575 
1.9953598e+3, 2.7253148e+2, -240726.36, -553007.56, -58727.207, 0.14997296, -0.5901571, -230047.38, 39089.64, 0.0000035134383, 10.001364, 9.997183 
1.995404e+3, 2.8252903e+2, 4290.149, -293307.47, -112085.69, 0.06549424, -0.56313235, 41782.207, 212944.08, 0.00002820436, 10.00196, 9.998026 
1.9954468e+3, 2.9252788e+2, 196481.1, -71914.78, -67179.29, -0.107332155, -0.5691233, 212356.95, 285524.84, 0.00011358975, 10.002285, 9.998702 
1.9954935e+3, 3.025267e+2, 107467.07, -214887.44, -36938.13, -0.03611859, -0.50223845, 111645.586, 111645.586, 0.00027761437, 10.001861, 9.9976 
1.9955406e+3, 3.125224e+2, -57404.637, -235022.03, -159799.23, 0.11664347, -0.7301389, 36605.645, 36605.645, 0.0004899251, 10.000454, 9.998116 
2.0046932e+3, 1.2249729e+2, -2173483.5, -2141994.3, 169093.28, -0.048163153, -0.51335776, -1987914.1, -248440.47, 0.27641812, 9.99764, 9.9981785 
2.0047404e+3, 1.3250132e+2, -1669432.1, -1311200.1, -66716.016, -0.002108508, -0.47686556, -1299178.5, 342253.13, 0.1968332, 9.997861, 10.003651 
2.0047818e+3, 1.4250037e+2, -1785791.8, -1767982.1, -56818.383, -0.3640753, -0.726859, -1719375.0, -175937.17, 0.11636926, 9.998663, 9.998907 
2.0048292e+3, 1.5250039e+2, -1648019.1, -1742834.4, -51032.65, -0.06957177, -0.56412464, -1625771.8, -180326.05, 0.05238356, 9.999347, 9.998069 
2.004875e+3, 1.6250016e+2, -1452275.3, -1515687.4, -50593.87, 0.077060536, -0.4035409, -1424273.6, -76820.01, 0.015589432, 9.999629, 9.998836 
2.0049177e+3, 1.7249829e+2, -1331247.4, -1342912.0, -78861.3, -0.004809067, -0.54277235, -1258003.0, -8533.69, 0.0021699998, 9.999529, 9.999386 
2.0049612e+3, 1.8249702e+2, -1183606.9, -1149345.5, -88682.98, -0.020847037, -0.61365366, -1076153.8, 75324.56, 0.00003871999, 9.999571, 10.000023 
2.0050055e+3, 1.9249804e+2, -897994.56, -911266.3, -140939.0, 0.027818918, -0.5695498, -763535.3, 289927.9, 0.0, 10.000657, 10.000453 
2.0050496e+3, 2.0249794e+2, -860385.6, -1114036.4, -148395.25, 0.05643094, -0.5149373, -792003.9, 163458.19, 0.0, 10.001404, 9.998039 
2.0050937e+3, 2.1249503e+2, -787959.44, -1089682.8, -125753.57, 0.03658014, -0.5789505, -742420.5, 115074.99, 0.0, 10.001502, 9.9974785 
2.0051375e+3, 2.2249267e+2, -660054.0, -894560.8, -109371.82, 0.021212056, -0.57232046, -616962.3, 142559.5, 0.0, 10.001344, 9.998225 
2.005181e+3, 2.3249203e+2, -593615.2, -757446.0, -128262.945, -0.017716356, -0.51524806, -523341.5, 138184.34, 0.0, 10.00091, 9.998692 
2.005225e+3, 2.4249089e+2, -526043.1, -701118.56, -123031.914, -0.007549984, -0.47175315, -462585.16, 100950.13, 0.0, 10.000768, 9.998498 
2.0052703e+3, 2.5248876e+2, -353021.25, -541445.8, -159752.1, 0.11177517, -0.5706278, -261770.1, 203785.14, 0.0, 10.001201, 9.998698 
2.0053157e+3, 2.6248693e+2, -261260.14, -523018.28, -95380.836, 0.18767406, -0.5784505, -230192.2, 137380.23, 0.000000029896977, 10.001491, 9.998009 
2.0053606e+3, 2.7248526e+2, -152205.63, -424560.4, -19753.838, 0.10631899, -0.5674749, -150780.34, 118808.0, 0.0000031274246, 10.001585, 9.99796 
2.0054053e+3, 2.824828e+2, -41122.258, -318098.16, 13016.766, 0.037834715, -0.5917143, -40511.867, 131099.11, 0.000025154262, 10.001651, 9.998013 
2.0054497e+3, 2.9247987e+2, 42492.51, -188229.94, -39692.023, 0.015046512, -0.74194133, 49129.93, 122764.914, 0.00009776422, 10.0014105, 9.998326 
2.0054956e+3, 3.0247977e+2, 43516.13, -197550.48, -22406.758, 0.053880394, -0.5606732, 45581.113, 45581.113, 0.00024034745, 10.001194, 9.998062 
2.0055418e+3, 3.12476e+2, 44577.387, -217782.0, -103512.81, 0.17497243, -0.7773098, 80499.5, 80499.5, 0.0004335503, 10.001267, 9.997868 
2.0146918e+3, 1.22449584e+2, -2013697.5, -1838811.5, 34907.227, -0.003930049, -0.44958302, -1832101.5, -92148.77, 0.28771394, 9.997767, 10.000199 
2.0147353e+3, 1.3245651e+2, -1622038.9, -1224921.1, -36652.84, -0.30530083, -0.21476935, -1221566.5, 420309.5, 0.20582092, 9.997817, 10.004455 
2.0147853e+3, 1.4245345e+2, -1717535.8, -1634772.1, -39471.08, 0.09162729, -0.76584566, -1618966.4, -75066.68, 0.12247417, 9.99869, 9.999811 
2.0148282e+3, 1.5245546e+2, -1596646.5, -1639046.5, -20917.293, -0.13149102, -0.48016965, -1588064.4, -142176.48, 0.055639356, 9.999354, 9.998778 
2.0148711e+3, 1.6245641e+2, -1442294.4, -1514761.8, -60663.508, -0.29823467, -0.24593204, -1407867.3, -59983.31, 0.016791714, 9.999712, 9.998805 
2.0149173e+3, 1.724537e+2, -1356535.1, -1390650.4, -76441.766, -0.0240364, -0.43735272, -1295271.0, -45363.043, 0.0023981123, 9.999511, 9.999066 
2.0149629e+3, 1.8245149e+2, -1247843.3, -1293555.5, -73238.82, 0.16395554, -0.54731476, -1193977.0, -42049.824, 0.000045425786, 9.99961, 9.99902 
2.0150064e+3, 1.9245142e+2, -996551.94, -1100180.1, -93020.56, 0.03780791, -0.48948792, -941888.2, 112038.6, 0.0, 10.00059, 9.999187 
2.01505e+3, 2.0245092e+2, -859303.44, -1082068.6, -146553.03, -0.062202465, -0.40729204, -786610.3, 169321.31, 0.0, 10.001275, 9.9983225 
2.0150946e+3, 2.1244921e+2, -764677.75, -996962.8, -112148.85, -0.020765843, -0.4176018, -719369.2, 138581.45, 0.0, 10.001313, 9.998207 
2.0151389e+3, 2.2244728e+2, -687263.44, -900489.56, -129991.19, -0.0043753674, -0.4128339, -625757.3, 134213.17, 0.0, 10.001114, 9.998301 
2.015182e+3, 2.3244528e+2, -620209.3, -783754.3, -132109.47, -0.04106082, -0.48458612, -546612.44, 115375.16, 0.0, 10.00077, 9.998586 
2.0152257e+3, 2.4244304e+2, -602585.9, -804894.56, -118374.6, -0.03607049, -0.5229634, -548033.0, 15974.897, 0.0, 10.000541, 9.99789 
2.0152713e+3, 2.5244066e+2, -439095.97, -672248.06, -126815.125, 0.08789626, -0.56909406, -383416.25, 82615.4, 0.0, 10.001006, 9.9978895 
2.0153163e+3, 2.624393e+2, -199989.25, -342474.03, -93846.4, 0.10163816, -0.5295352, -153407.1, 214636.33, 0.0000000091701935, 10.001257, 9.999365 
2.0153603e+3, 2.724399e+2, -32612.16, -123449.16, -169.34021, -0.10007485, -0.49803352, -32611.844, 237418.22, 0.0000023642951, 10.001355, 10.000142 
2.0154053e+3, 2.8243798e+2, -106640.55, -379937.63, -12440.415, -0.14785078, -0.59600574, -106075.43, 65967.73, 0.000021595964, 10.00134, 9.997731 
2.0154528e+3, 2.9243147e+2, -66301.14, -379493.03, -32995.313, 0.17576823, -1.0028219, -62862.773, 11243.6455, 0.000083873885, 10.001241, 9.9971 
2.0154987e+3, 3.0243182e+2, 33504.363, -127848.945, -37896.344, 0.22906509, -0.7217498, 41961.625, 41961.625, 0.00020823472, 10.000838, 9.9986925 
2.0155413e+3, 3.1243244e+2, 63521.457, 4172.357, 15945.782, -0.024752256, -0.6458397, 67534.4, 67534.4, 0.00038333618, 10.000538, 9.999716 
2.024692e+3, 1.22402795e+2, -1676410.5, -1668741.6, 46852.973, 0.1450776, -0.4231202, -1625566.4, 114845.77, 0.29983783, 10.000176, 10.000402 
2.0247321e+3, 1.3240914e+2, -1562933.4, -1227359.8, -24714.53, -0.43043962, -0.2232461, -1225549.4, 416792.28, 0.21537028, 9.998496, 10.004136 
2.0247868e+3, 1.4240696e+2, -1652676.5, -1534336.9, -45171.52, 0.37967825, -0.6969796, -1519065.3, 25291.396, 0.12892798, 9.9988165, 10.000468 
2.0248282e+3, 1.5240915e+2, -1484116.6, -1493144.3, -50713.887, -0.0703426, -0.471238, -1437716.1, 8624.017, 0.05909158, 9.999733, 9.999601 
2.0248702e+3, 1.6241005e+2, -1344985.4, -1446158.4, -79456.89, -0.36490938, -0.29908514, -1301378.5, 46956.23, 0.018083457, 10.000323, 9.998968 
2.0249176e+3, 1.7240784e+2, -1147261.6, -1300771.4, -103805.625, -0.000048815495, -0.43066573, -1094916.1, 155438.97, 0.0026487417, 10.001041, 9.998931 
2.024964e+3, 1.8240573e+2, -1046842.5, -1262217.9, -65942.91, 0.24815635, -0.49887803, -1028256.25, 124118.516, 0.000052423693, 10.001265, 9.998436 
2.025007e+3, 1.9240434e+2, -1046527.75, -1212161.5, -65796.47, 0.048907824, -0.50109464, -1023572.1, 30817.166, 0.0, 10.000608, 9.998414 
2.0250502e+3, 2.0240319e+2, -1002369.25, -1110190.5, -71778.03, -0.079557255, -0.4522589, -966511.06, -10109.661, 0.0, 10.000118, 9.998677 
2.0250955e+3, 2.1240251e+2, -836078.7, -952657.0, -61168.445, -0.013359119, -0.42691416, -809874.06, 48533.95, 0.0, 10.000479, 9.998906 
2.0251401e+3, 2.224013e+2, -736027.3, -915356.75, -68199.15, 0.043901265, -0.40069026, -713038.2, 47381.402, 0.0, 10.000739, 9.998374 
2.0251833e+3, 2.323991e+2, -624189.9, -800696.3, -93683.81, 0.035407975, -0.4816445, -583736.9, 78703.18, 0.0, 10.000809, 9.998442 
2.0252271e+3, 2.423968e+2, -551831.9, -761093.1, -33405.125, 0.05731274, -0.5255768, -546628.7, 17832.832, 0.0, 10.000821, 9.998046 
2.0252724e+3, 2.523944e+2, -446318.5, -653249.3, 9483.302, 0.107643835, -0.5951694, -445884.78, 20598.621, 0.0, 10.00086, 9.998088 
2.0253173e+3, 2.6239282e+2, -279549.9, -396149.88, 58423.53, 0.10336165, -0.5853531, -255313.86, 113182.42, 0.000000001074916, 10.000771, 9.999238 
2.0253615e+3, 2.7239338e+2, -205591.77, -230513.13, -34201.33, -0.037203897, -0.5327595, -181651.9, 88834.44, 0.0000018159459, 10.000293, 9.99991 
2.0254068e+3, 2.8239217e+2, -215966.44, -392421.72, -88472.66, -0.057520267, -0.55545324, -179247.98, -6753.3306, 0.000018189116, 10.000395, 9.998105 
2.025454e+3, 2.9238755e+2, 31246.002, -249296.55, -30776.79, 0.17197004, -0.8329079, 34582.67, 109122.57, 0.000072171526, 10.001569, 9.997824 
2.0255005e+3, 3.023871e+2, 207473.95, -32815.137, 17292.477, 0.28735274, -0.6853368, 208712.03, 208712.03, 0.00017992329, 10.001918, 9.998861 
2.025542e+3, 3.123885e+2, 50487.91, 60861.527, -30296.281, 0.035690207, -0.5132294, 86411.79, 86411.79, 0.0003356384, 10.0001135, 10.000338 
2.0346923e+3, 1.2235749e+2, -1763667.8, -1917948.5, -101964.63, 0.093084715, -0.4496939, -1712951.1, 27893.88, 0.3135409, 10.000404, 9.998406 
2.0347302e+3, 1.3235876e+2, -1643450.1, -1421567.9, -22997.363, -0.5040487, -0.55744076, -1419209.4, 223622.92, 0.22593072, 9.998616, 10.002416 
2.0347854e+3, 1.4236082e+2, -1607786.5, -1484744.5, -27446.1, 0.3405315, -0.50980985, -1478899.9, 65909.41, 0.13594478, 9.998974, 10.000777 
2.034829e+3, 1.523614e+2, -1411193.5, -1348852.3, -14019.02, 0.020423096, -0.5396166, -1345844.8, 100958.05, 0.06282382, 9.999758, 10.000617 
2.034872e+3, 1.6236088e+2, -1319126.1, -1408405.0, -68063.88, -0.24554878, -0.5814413, -1282369.1, 66438.32, 0.019494196, 10.000388, 9.999198 
2.0349185e+3, 1.7236054e+2, -1135208.9, -1291079.5, -68604.14, -0.031764414, -0.5340789, -1109315.3, 141496.78, 0.0029308582, 10.001094, 9.998974 
2.0349641e+3, 1.8235964e+2, -1052358.0, -1285194.9, -86592.16, 0.105036885, -0.48039398, -1023685.25, 129136.805, 0.00006041413, 10.001316, 9.998255 
2.0350069e+3, 1.9235681e+2, -1073303.8, -1250978.6, -83545.25, -0.032117255, -0.599349, -1040190.75, 14660.046, 0.0, 10.000541, 9.99818 
2.0350502e+3, 2.0235467e+2, -991057.7, -1059555.0, -78803.9, -0.13069926, -0.6487795, -939381.8, 17490.375, 0.0, 10.000005, 9.999078 
2.0350957e+3, 2.1235487e+2, -810194.0, -863332.4, -36825.457, -0.042884182, -0.5997884, -791353.5, 67514.95, 0.0, 10.000323, 9.999596 
2.0351408e+3, 2.223547e+2, -767263.75, -917194.7, -71328.87, 0.035980366, -0.52043146, -738751.56, 22118.203, 0.0, 10.00048, 9.99848 
2.035185e+3, 2.3235342e+2, -665985.4, -838412.5, -77324.35, 0.10886378, -0.49835715, -636389.44, 26494.934, 0.0, 10.0006075, 9.998276 
2.0352289e+3, 2.4235187e+2, -531699.5, -669352.75, -40924.977, 0.13839719, -0.48350942, -520451.4, 44448.145, 0.0, 10.000605, 9.998783 
2.035273e+3, 2.5234967e+2, -390919.88, -504428.28, 20038.313, 0.07517601, -0.63799393, -387486.25, 79427.98, 0.0, 10.000705, 9.99919 
2.0353176e+3, 2.6234737e+2, -426139.5, -630802.25, 33421.125, 0.04826759, -0.71822935, -420820.13, -51886.4, 0.000000023664393, 10.00049, 9.997752 
2.0353638e+3, 2.7234548e+2, -401565.5, -598336.5, -34276.754, 0.14844404, -0.68435454, -395765.56, -124806.55, 0.0000019634658, 10.000125, 9.997465 
2.0354094e+3, 2.8234503e+2, -198011.4, -290477.66, -64567.273, 0.14264858, -0.50720865, -164831.47, 8136.3335, 0.000016146072, 10.000128, 9.998931 
2.0354533e+3, 2.9234725e+2, 141514.17, 48986.81, 35921.35, -0.077601425, -0.2909263, 153822.42, 228764.86, 0.00006227005, 10.001254, 10.000033 
2.0355003e+3, 3.0234453e+2, 77082.95, -143995.47, -48185.008, 0.047436636, -0.4878082, 87128.62, 87128.62, 0.00015436458, 10.001269, 9.998387 
2.035544e+3, 3.123415e+2, -33189.453, 15252.932, 46270.81, 0.18606156, -0.65704453, 43258.688, 43258.688, 0.00029089712, 9.999601, 10.000251 
2.0446916e+3, 1.2231054e+2, -2055396.4, -2162094.5, -86456.98, 0.060077492, -0.61951625, -2007153.4, -265861.22, 0.3294151, 9.998771, 9.997516 
2.0447308e+3, 1.3230897e+2, -1567951.5, -1497332.8, -2320.567, -0.33407682, -0.878738, -1497256.6, 146057.25, 0.23787552, 9.999937, 10.001124 
2.0447834e+3, 1.4231421e+2, -1529255.9, -1490455.5, 24856.627, 0.21206331, -0.41350424, -1478324.5, 66939.06, 0.14372098, 9.999723, 10.000372 
2.0448287e+3, 1.523134e+2, -1508321.9, -1390502.3, -59675.027, 0.067241825, -0.57706046, -1365558.1, 81711.23, 0.06692591, 9.9990635, 10.000655 
2.0448731e+3, 1.6231191e+2, -1552990.8, -1497934.6, -120434.02, -0.08706172, -0.7290591, -1401922.6, -52639.24, 0.021061258, 9.998673, 9.999407 
2.0449188e+3, 1.7231242e+2, -1322254.3, -1355609.3, -122807.43, -0.025204353, -0.6186675, -1214997.1, 36283.766, 0.003256253, 9.999697, 9.999205 
2.0449641e+3, 1.8231249e+2, -1157462.0, -1295625.1, -134546.39, 0.03850351, -0.49391076, -1075298.8, 77983.9, 0.00007088071, 10.000436, 9.998603 
2.0450075e+3, 1.9231045e+2, -1010256.06, -1172535.4, -116671.26, -0.023626642, -0.575107, -949283.7, 106020.4, 0.0, 10.000788, 9.998589 
2.045051e+3, 2.0230867e+2, -856294.0, -973378.9, -62811.656, -0.059109874, -0.6195035, -828973.06, 128348.76, 0.0, 10.000823, 9.9992895 
2.0450965e+3, 2.1230835e+2, -797462.4, -834306.75, -75090.9, 0.0066986717, -0.6402937, -738566.9, 120755.445, 0.0, 10.000322, 9.999797 
2.0451415e+3, 2.2230802e+2, -802630.4, -907043.5, -97314.555, 0.08434347, -0.5940919, -744403.0, 16921.313, 0.0, 10.000118, 9.998731 
2.0451859e+3, 2.3230739e+2, -607217.44, -782432.94, -93048.516, 0.14457515, -0.5335421, -567023.94, 96309.71, 0.0, 10.000886, 9.99853 
2.04523e+3, 2.4230646e+2, -421644.88, -584791.5, -53592.14, 0.17262322, -0.48231846, -405615.3, 159728.14, 0.0, 10.001215, 9.999071 
2.0452736e+3, 2.5230497e+2, -431954.78, -483742.16, -73839.49, 0.11896983, -0.5971595, -379600.44, 87750.89, 0.0, 10.000259, 9.9995365 
2.0453185e+3, 2.623029e+2, -539460.2, -710236.8, -19082.84, 0.1321075, -0.6661041, -537353.8, -167985.3, 0.00000011200642, 9.99979, 9.997551 
2.0453651e+3, 2.7230018e+2, -339281.7, -614402.56, 27048.979, 0.25224042, -0.6807116, -336647.56, -65244.867, 0.000002326167, 10.000735, 9.997064 
2.0454101e+3, 2.8229913e+2, -50320.87, -202552.98, 77631.48, 0.17926028, -0.54292166, -17715.727, 155701.38, 0.000014696717, 10.001061, 9.999084 
2.045452e+3, 2.923016e+2, -109972.35, -33537.88, 20996.66, -0.21658336, -0.32690558, -28149.879, 47239.39, 0.00005375532, 9.999383, 10.000356 
2.0455004e+3, 3.0229938e+2, -287751.1, -348037.3, -75397.7, 0.093176916, -0.48019567, -236694.31, -236694.31, 0.00013253847, 9.998881, 9.998123 
2.045545e+3, 3.1229535e+2, 266364.1, 163554.33, -4200.2095, 0.22776248, -0.7046177, 266535.4, 266535.4, 0.00025393235, 10.001595, 10.000314 
2.054687e+3, 1.2226358e+2, -2031658.9, -2131532.0, 71220.36, -0.32939053, -0.7801449, -1994612.8, -252875.23, 0.3476065, 9.998847, 9.997692 
2.0547341e+3, 1.3226013e+2, -1603349.8, -1581429.5, 13493.743, -0.032135993, -1.169917, -1575005.6, 68776.71, 0.2513395, 10.000002, 10.000345 
2.0547795e+3, 1.4226703e+2, -1593820.8, -1643531.4, -713.0296, -0.1947599, -0.4363999, -1593810.5, -48090.94, 0.15236652, 9.999824, 9.999208 
2.0548266e+3, 1.522654e+2, -1572130.8, -1529329.4, -76131.39, -0.05958654, -0.581518, -1471648.0, -23909.996, 0.071473114, 9.999098, 9.999656 
2.0548725e+3, 1.6226324e+2, -1542080.6, -1496488.9, -110866.88, -0.02248794, -0.731669, -1406098.5, -56337.15, 0.022826005, 9.9987545, 9.999386 
2.0549183e+3, 1.7226352e+2, -1300078.1, -1304901.3, -76023.516, -0.07198189, -0.6752333, -1226428.0, 25333.582, 0.0036400491, 9.999671, 9.99957 
2.0549636e+3, 1.822641e+2, -1092894.4, -1176492.5, -125821.15, -0.08525618, -0.549381, -1002110.94, 151647.53, 0.00008593674, 10.000484, 9.999405 
2.0550083e+3, 1.9226499e+2, -938799.5, -1025325.5, -96997.27, -0.036128655, -0.4377638, -875854.44, 179897.23, 0.0, 10.000775, 9.999615 
2.0550527e+3, 2.0226495e+2, -867420.8, -975177.4, -82742.13, -0.0002636396, -0.37529793, -822561.44, 135190.95, 0.0, 10.000731, 9.999322 
2.0550972e+3, 2.1226273e+2, -846657.1, -900081.94, -82612.09, 0.035105318, -0.5556865, -786546.06, 73225.016, 0.0, 10.000158, 9.999428 
2.0551413e+3, 2.2226097e+2, -819690.3, -882158.8, -88082.49, 0.05668441, -0.64282936, -757468.2, 4318.4756, 0.0, 9.9998665, 9.99902 
2.0551857e+3, 2.322608e+2, -596446.06, -711154.7, -49880.68, 0.044158213, -0.5892916, -577789.9, 86000.01, 0.0, 10.000679, 9.999119 
2.05523e+3, 2.4226044e+2, -475365.72, -621671.7, -84042.875, 0.03670751, -0.5146505, -437098.03, 128696.13, 0.0, 10.000908, 9.9989605 
2.0552741e+3, 2.522599e+2, -485657.9, -550641.75, -99319.25, 0.13201997, -0.50067234, -413650.84, 54146.49, 0.0, 10.000078, 9.999163 
2.0553194e+3, 2.6225904e+2, -506575.5, -593723.7, -11821.356, 0.2235659, -0.46210042, -505000.47, -135196.39, 0.00000017468948, 9.999588, 9.9984455 
2.0553653e+3, 2.7225697e+2, -268940.44, -431704.53, 77677.164, 0.17846923, -0.5372284, -237820.14, 34002.207, 0.0000023499456, 10.000571, 9.9984 
2.055409e+3, 2.822542e+2, -147420.88, -318070.2, 23794.242, -0.07201985, -0.63521755, -144165.27, 29682.125, 0.000012296112, 10.000707, 9.998457 
2.0554496e+3, 2.9225102e+2, -231037.42, -249195.4, -28907.445, -0.4057766, -0.87323475, -209816.77, -133939.36, 0.000044415407, 9.999228, 9.998948 
2.0555004e+3, 3.0225128e+2, -370055.28, -421979.8, -36361.94, 0.19381456, -0.6719123, -351338.34, -351338.34, 0.00011238554, 9.998499, 9.997784 
2.0555447e+3, 3.122502e+2, 123426.81, 46840.28, 77915.41, 0.009737366, -0.6227557, 171950.5, 171950.5, 0.00022334591, 10.000851, 9.999859 
2.0646851e+3, 1.2221625e+2, -2026530.5, -2118269.3, -75038.13, -0.3693336, -0.7858165, -1984452.6, -242252.66, 0.36771804, 9.998834, 9.997775 
2.0647356e+3, 1.3221432e+2, -1506523.5, -1475238.9, -5512.878, 0.1315134, -1.0937712, -1474295.9, 169932.66, 0.26616043, 10.000554, 10.001078 
2.0647791e+3, 1.4221999e+2, -1402281.6, -1583414.1, 30724.936, -0.27112535, -0.51813877, -1397211.8, 148965.6, 0.1618756, 10.001506, 9.998821 
2.0648262e+3, 1.522184e+2, -1502838.9, -1577780.4, -57546.453, -0.05024847, -0.59366626, -1471639.0, -23441.496, 0.07651462, 9.999919, 9.998927 
2.0648724e+3, 1.6221678e+2, -1531587.6, -1477125.0, 10068.1045, 0.080610804, -0.65266645, -1475323.4, -125106.19, 0.024829434, 9.998772, 9.999501 
2.0649177e+3, 1.7221662e+2, -1302412.3, -1255136.6, 56875.4, -0.05403482, -0.68110627, -1217182.6, 35037.5, 0.0041003036, 9.999442, 10.000013 
2.0649631e+3, 1.8221693e+2, -1165327.8, -1164775.3, 2676.7336, -0.117177345, -0.6269874, -1162360.5, -8142.04, 0.000108260756, 9.999803, 9.999802 
2.0650086e+3, 1.9221857e+2, -1053771.8, -1034718.5, -43201.41, -0.015134584, -0.4797269, -1000005.8, 56198.785, 0.0, 9.999802, 10.00001 
2.0650534e+3, 2.0221922e+2, -1002228.06, -1032863.1, -54418.734, 0.069289245, -0.37732792, -961012.2, -2812.8196, 0.0, 9.999779, 9.999376 
2.0650971e+3, 2.1221724e+2, -875867.56, -920579.44, -61213.723, 0.061648715, -0.52947944, -833055.2, 27161.977, 0.0, 9.999996, 9.999357 
2.065141e+3, 2.2221552e+2, -773277.75, -836718.56, -19883.814, 0.05172855, -0.61332965, -767560.9, -5328.3613, 0.0, 10.000063, 9.99925 
2.0651856e+3, 2.3221509e+2, -714899.8, -727555.6, -10273.219, 0.021367513, -0.619087, -709162.0, -44926.1, 0.0, 9.99969, 9.999487 
2.06523e+3, 2.4221456e+2, -660641.1, -743145.1, -37591.242, 0.019010257, -0.57559466, -646082.5, -79841.734, 0.0, 9.999767, 9.99868 
2.0652744e+3, 2.5221378e+2, -368517.1, -551092.25, -89311.16, 0.11805814, -0.536702, -332094.44, 136154.42, 0.0, 10.001131, 9.99865 
2.0653199e+3, 2.6221287e+2, -145505.33, -393303.84, -13508.51, 0.22424258, -0.47688413, -144771.1, 225486.08, 0.00000012472299, 10.001947, 9.99869 
2.0653658e+3, 2.7221137e+2, -149539.16, -307610.6, -1354.5372, 0.14795777, -0.54264563, -149527.55, 122739.78, 0.0000018192295, 10.001109, 9.998992 
2.065409e+3, 2.8220895e+2, -208638.03, -362532.78, -70556.71, -0.09601967, -0.6437131, -181186.42, -6898.6025, 0.000008845643, 10.000337, 9.99834 
2.0654497e+3, 2.9220524e+2, -134401.08, -263541.78, -119605.48, -0.35657254, -0.8882243, -63049.39, 13275.635, 0.000033872344, 10.000151, 9.998412 
2.0655015e+3, 3.0220538e+2, -50040.316, -255557.19, 24760.715, 0.34341553, -0.67114127, -47099.23, -47099.23, 0.00009226449, 10.00057, 9.997977 
2.0655456e+3, 3.1220415e+2, 106318.79, 24311.572, -2486.4653, 0.049498044, -0.66557515, 106394.11, 106394.11, 0.00019358228, 10.000757, 9.99978 
2.0746867e+3, 1.22167885e+2, -2036465.0, -2164620.3, -384509.53, -0.16770795, -0.66848224, -1710730.4, 31957.277, 0.38886976, 9.999003, 9.997443 
2.0747352e+3, 1.3217202e+2, -1372256.8, -1215344.3, 56699.88, -0.0053456784, -0.58666927, -1197000.4, 447648.7, 0.28190908, 10.000662, 10.003556 
2.0747823e+3, 1.4217289e+2, -1358367.5, -1506561.5, -6704.4575, -0.14267106, -0.67089045, -1358064.8, 188574.48, 0.17213808, 10.001635, 9.99934 
2.0748267e+3, 1.5217231e+2, -1520008.0, -1624624.6, -113798.65, -0.008115953, -0.6187316, -1447071.4, 1577.8921, 0.08207624, 9.99997, 9.998579 
2.0748714e+3, 1.6217242e+2, -1496959.1, -1420465.0, -57.805397, 0.08725098, -0.49770775, -1420464.9, -69813.46, 0.027111659, 9.9988365, 9.999857 
2.0749173e+3, 1.7217183e+2, -1259984.3, -1165803.4, 91385.5, -0.067489006, -0.62677056, -1110089.0, 142566.44, 0.0046569863, 9.99944, 10.000627 
2.0749629e+3, 1.821711e+2, -1158760.8, -1168723.4, 169.22888, -0.17100479, -0.7138769, -1158757.9, -4096.2515, 0.00014131474, 9.999877, 9.999739 
2.0750083e+3, 1.9217114e+2, -1087447.4, -1092769.5, -37549.72, -0.0487663, -0.69494474, -1052464.6, 4199.063, 0.0000000002137382, 9.999748, 9.9996395 
2.075053e+3, 2.0217125e+2, -1015448.56, -1036629.75, -59782.305, 0.029102312, -0.6244143, -965326.0, -6661.1484, 0.0, 9.999671, 9.999403 
2.0750967e+3, 2.1217152e+2, -882459.06, -902080.0, -41949.418, -0.014684644, -0.5691993, -849188.25, 11475.44, 0.0, 9.999846, 9.999558 
2.0751403e+3, 2.2217137e+2, -798612.44, -823930.9, -34542.457, -0.046307787, -0.52113837, -774482.56, -11817.324, 0.0, 9.999799, 9.999456 
2.0751849e+3, 2.3217015e+2, -732689.7, -718891.3, -12714.739, -0.022071958, -0.62319094, -711324.56, -46651.54, 0.0, 9.999505, 9.99963 
2.0752294e+3, 2.4216862e+2, -726005.0, -828437.06, -10586.427, -0.022743648, -0.67177254, -724922.3, -158237.08, 0.0, 9.999556, 9.998192 
2.0752741e+3, 2.5216657e+2, -447504.53, -674776.25, -25194.28, -0.023097122, -0.6892781, -444745.1, 23961.533, 0.0, 10.0009575, 9.997881 
2.0753199e+3, 2.6216462e+2, -218733.48, -467761.13, -35302.383, 0.015871527, -0.672441, -213825.7, 156901.27, 0.000000021824269, 10.001624, 9.998331 
2.0753658e+3, 2.7216345e+2, -189042.75, -332744.94, -20890.594, 0.044192474, -0.6899481, -186067.4, 86669.65, 0.00000084431264, 10.0008745, 9.99893 
2.0754097e+3, 2.8216293e+2, -248362.94, -362837.4, -101189.97, -0.081813514, -0.60575217, -189343.94, -14602.19, 0.000005133315, 9.999993, 9.998499 
2.0754515e+3, 2.9216325e+2, -165452.53, -278781.03, -102344.94, -0.21971016, -0.46267805, -105132.484, -28391.47, 0.000023723636, 9.999918, 9.9984255 
2.0755024e+3, 3.0216107e+2, -108399.33, -222461.05, 28824.299, 0.35829437, -0.49684197, -101529.02, -101529.02, 0.00007269807, 9.999966, 9.998468 
2.075546e+3, 3.1215826e+2, -18085.426, -18560.537, -63094.918, -0.030077888, -0.7307875, 44772.383, 44772.383, 0.00016061905, 9.999933, 9.999837 
2.0846887e+3, 1.2212167e+2, -1802621.8, -1958871.9, -281569.84, 0.07734022, -0.63411915, -1588539.5, 154609.4, 0.40993002, 10.000605, 9.99827 
2.0847344e+3, 1.3212848e+2, -1587222.3, -1339166.1, 105101.5, -0.0410231, -0.28293413, -1300623.4, 344456.78, 0.29801235, 9.998713, 10.003367 
2.084783e+3, 1.4212538e+2, -1823529.0, -1679634.3, -63128.25, -0.05178945, -0.7839688, -1655865.4, -108758.36, 0.18298064, 9.997935, 9.999867 
2.0848267e+3, 1.5212558e+2, -1612664.1, -1614356.4, -146550.83, 0.05789591, -0.7042613, -1466957.0, -17849.2, 0.088167645, 9.999101, 9.999073 
2.0848708e+3, 1.621268e+2, -1385604.1, -1352778.6, 22630.02, 0.14517793, -0.50555474, -1341236.1, 9861.619, 0.029713616, 9.999532, 10.000001 
2.0849162e+3, 1.7212671e+2, -1440071.8, -1254329.3, 47381.707, -0.021901393, -0.58605975, -1242940.8, 10156.974, 0.005333032, 9.9981985, 10.000628 
2.0849617e+3, 1.8212618e+2, -1515271.9, -1322806.1, -21078.703, -0.123313166, -0.6591434, -1320524.8, -165422.17, 0.00018960002, 9.997357, 9.999903 
2.0850076e+3, 1.921257e+2, -1199636.8, -1120982.5, -24667.594, -0.032391973, -0.7129302, -1113886.4, -56778.203, 0.000000020895914, 9.998873, 9.999867 
2.0850527e+3, 2.021255e+2, -993675.6, -1030094.44, -27940.412, 0.032016493, -0.68315196, -978534.6, -19422.746, 0.0, 9.999862, 9.99935 
2.0850962e+3, 2.1212627e+2, -940968.7, -943076.8, -65523.56, -0.010615822, -0.5644684, -876490.75, -15382.175, 0.0, 9.999522, 9.999422 
2.0851402e+3, 2.2212645e+2, -848731.8, -866093.2, -52901.023, -0.022385482, -0.46807295, -803804.0, -40695.484, 0.0, 9.999514, 9.999313 
2.0851853e+3, 2.3212504e+2, -562688.56, -648421.56, -65011.98, 0.02010165, -0.57776713, -527682.75, 137434.03, 0.0, 10.000703, 9.999544 
2.0852305e+3, 2.4212322e+2, -454418.72, -705075.0, -44748.598, 0.0360863, -0.65015084, -446669.5, 120461.01, 0.0, 10.00144, 9.9981365 
2.0852752e+3, 2.5212047e+2, -463726.56, -691711.3, -30759.06, -0.003029825, -0.72862995, -459649.53, 9508.112, 0.0, 10.000868, 9.997817 
2.0853205e+3, 2.6211825e+2, -409324.78, -542693.06, 820.25006, 0.01462449, -0.7358779, -409319.72, -38140.066, 0.0, 10.000247, 9.998475 
2.085366e+3, 2.7211797e+2, -346053.13, -390676.75, -3511.1067, 0.044596, -0.6824611, -345778.56, -72595.68, 0.000000115745564, 9.999731, 9.999075 
2.0854099e+3, 2.8211793e+2, -307063.13, -373782.97, -32984.21, -0.014410869, -0.56862044, -293509.9, -118325.555, 0.0000020138657, 9.999503, 9.998656 
2.0854527e+3, 2.9211798e+2, -161261.28, -244096.28, -57101.117, -0.07760951, -0.4648236, -132138.39, -54953.434, 0.000014504671, 9.99983, 9.998692 
2.085502e+3, 3.0211648e+2, -79113.86, -187660.42, 108882.914, 0.35816315, -0.46403098, -11727.461, -11727.461, 0.000053403415, 10.000017, 9.998704 
2.0855469e+3, 3.1211337e+2, -85370.76, -45965.965, -161533.81, 0.1276895, -0.7363229, 97062.58, 97062.58, 0.00012565745, 9.99934, 9.999964 
2.0946892e+3, 1.2207653e+2, -1680904.9, -1695485.0, -322347.28, -0.04540834, -0.8271237, -1365765.3, 377828.13, 0.42994058, 10.000811, 10.000678 
2.0947327e+3, 1.320833e+2, -1777390.5, -1655307.8, 92598.914, -0.112140514, -0.23073572, -1605441.0, 40084.805, 0.31401625, 9.998698, 10.000416 
2.09478e+3, 1.4207748e+2, -1794869.6, -1620900.1, -57921.25, -0.15357725, -0.83917546, -1603380.3, -55799.234, 0.19429262, 9.997921, 10.000286 
2.0948257e+3, 1.5207812e+2, -1512894.1, -1416640.0, -86093.13, 0.026499255, -0.8384752, -1366135.3, 83438.016, 0.094824284, 9.999124, 10.000467 
2.0948704e+3, 1.6207978e+2, -1372432.8, -1356049.5, -15214.182, 0.10442191, -0.68192333, -1346961.9, 4595.4214, 0.032688897, 9.99966, 9.999917 
2.0949148e+3, 1.7208126e+2, -1481229.6, -1347257.8, -2106.3455, -0.014701573, -0.54923695, -1347224.6, -93677.71, 0.0061590113, 9.998222, 9.999981 
2.0949595e+3, 1.8208216e+2, -1482686.0, -1266654.5, -4974.5425, -0.10280121, -0.44968194, -1266540.0, -110999.18, 0.00026052183, 9.997405, 10.000264 
2.0950061e+3, 1.9208221e+2, -1151357.0, -1011770.56, 44043.77, -0.06979681, -0.5223241, -999035.3, 58502.92, 0.00000016154512, 9.998832, 10.000638 
2.095052e+3, 2.0208198e+2, -1023347.5, -1065212.9, -32768.953, -0.04454645, -0.5421081, -1005396.0, -45855.594, 0.0, 9.99975, 9.999159 
2.0950957e+3, 2.1208137e+2, -1009418.06, -1045730.6, -72400.336, -0.02312613, -0.5066501, -952932.1, -91379.625, 0.0, 9.999357, 9.998794 
2.0951399e+3, 2.220806e+2, -911533.4, -944769.2, -32091.129, -0.0023396905, -0.45135775, -892012.75, -128449.086, 0.0, 9.999292, 9.9988785 
2.0951863e+3, 2.3207964e+2, -616819.3, -715387.56, -5500.2793, 0.03355354, -0.4796715, -616513.3, 49054.71, 0.0, 10.000506, 9.99918 
2.0952322e+3, 2.4207808e+2, -472833.06, -673433.06, -55722.21, 0.05197215, -0.5134189, -458393.97, 109184.36, 0.0, 10.0011425, 9.998495 
2.0952769e+3, 2.5207523e+2, -445272.75, -611039.4, -41279.953, 0.06709579, -0.6631966, -435561.9, 34041.555, 0.0, 10.000684, 9.99846 
2.0953216e+3, 2.6207352e+2, -410831.9, -487717.0, -28300.95, 0.06337796, -0.6880974, -401537.94, -29919.32, 0.0, 10.000007, 9.998965 
2.0953657e+3, 2.7207446e+2, -350508.94, -362338.84, -6685.65, 0.022854196, -0.54829764, -347497.25, -73887.266, 0.0, 9.999569, 9.999348 
2.0954095e+3, 2.8207362e+2, -350952.44, -385297.56, -39968.34, -0.03703728, -0.5260397, -324623.7, -149005.22, 0.00000039293647, 9.999172, 9.998734 
2.0954528e+3, 2.920699e+2, -168088.66, -204828.56, -19748.764, -0.042267293, -0.81937695, -159486.98, -81833.89, 0.000007667558, 9.999606, 9.999069 
2.0955e+3, 3.0207056e+2, -177643.95, -251336.75, 77991.195, 0.11678361, -0.627595, -128233.28, -128233.28, 0.000037309004, 9.999463, 9.998513 
2.095548e+3, 3.1206802e+2, -137662.45, 11270.28, -76716.125, 0.25967968, -0.7920142, 43717.914, 43717.914, 0.00009608347, 9.998702, 10.000637 
2.1046904e+3, 1.22033775e+2, -1725301.9, -1643741.3, -296835.0, 0.06908757, -0.68522704, -1384898.4, 359120.88, 0.44859928, 9.9999, 10.001649 
2.1047322e+3, 1.3203755e+2, -1728030.3, -1748455.9, 96694.914, -0.038117837, -0.31618804, -1641010.4, 4969.021, 0.3298663, 9.99955, 9.999292 
2.1047783e+3, 1.420329e+2, -1742599.1, -1617658.4, 85346.58, -0.11657103, -0.7207045, -1574362.1, -26339.709, 0.20615475, 9.998386, 10.000073 
2.1048248e+3, 1.5203367e+2, -1539197.0, -1389521.5, -21366.518, 0.061733507, -0.74184525, -1386531.1, 63481.586, 0.10215144, 9.998783, 10.0008 
2.1048696e+3, 1.620348e+2, -1470927.0, -1408003.8, -19591.97, 0.10867151, -0.6582307, -1402402.3, -50401.05, 0.036114734, 9.9990015, 9.999871 
2.1049136e+3, 1.7203619e+2, -1356682.8, -1299972.4, -8636.122, 0.026611438, -0.5247401, -1298686.4, -44694.34, 0.007176738, 9.999139, 9.999855 
2.1049584e+3, 1.8203717e+2, -1231850.4, -1134602.8, 61289.395, -0.010117565, -0.4126958, -1104991.9, 50992.824, 0.0003661867, 9.99907, 10.000372 
2.1050054e+3, 1.9203709e+2, -1131565.8, -976017.2, 66359.66, -0.013774606, -0.51679075, -951554.25, 106427.19, 0.00000091193453, 9.998864, 10.000864 
2.1050516e+3, 2.0203687e+2, -1131672.6, -1120105.9, -20698.732, -0.009583261, -0.55121297, -1104397.8, -144415.5, 0.0, 9.99898, 9.999169 
2.1050954e+3, 2.1203643e+2, -882202.6, -1000300.2, -45370.566, -0.001867475, -0.48961014, -866785.0, -4791.479, 0.0, 10.00026, 9.9986925 
2.1051401e+3, 2.2203578e+2, -668043.6, -841921.94, 46488.773, 0.027114257, -0.41014275, -656394.6, 107609.7, 0.0, 10.001043, 9.99873 
2.105187e+3, 2.3203434e+2, -596835.56, -725038.1, 62874.74, 0.07530497, -0.4665473, -571147.06, 94866.62, 0.0, 10.000738, 9.998989 
2.1052334e+3, 2.4203266e+2, -557741.1, -685394.25, 12198.459, 0.1187175, -0.5101593, -556585.9, 11439.554, 0.0, 10.000432, 9.998761 
2.1052776e+3, 2.5203064e+2, -485454.63, -576968.6, -16059.984, 0.10782421, -0.61889786, -482718.06, -12675.992, 0.0, 10.000194, 9.998927 
2.1053217e+3, 2.620293e+2, -390924.94, -465449.97, 4178.5376, 0.09265324, -0.63878703, -390691.38, -18638.377, 0.0, 10.000065, 9.999102 
2.1053657e+3, 2.7202964e+2, -233695.92, -308473.06, -15737.206, 0.046411987, -0.5580258, -230518.94, 43531.418, 0.0, 10.000368, 9.999337 
2.1054097e+3, 2.820289e+2, -99933.21, -244644.28, -20476.564, 0.018538188, -0.5316027, -97091.586, 78965.836, 0.00000006547354, 10.000834, 9.998886 
2.1054539e+3, 2.920258e+2, 46290.94, -89418.57, -48084.688, 0.026748804, -0.7692488, 61601.113, 139685.97, 0.000004738257, 10.001051, 9.99916 
2.1055003e+3, 3.020251e+2, 33178.715, -208715.05, 53653.75, 0.13821663, -0.6984795, 44545.37, 44545.37, 0.00002905632, 10.00113, 9.998012 
2.1055484e+3, 3.1202322e+2, 328479.22, 237859.1, -132382.13, 0.26904577, -0.72464883, 423090.66, 423090.66, 0.00007990105, 10.001859, 10.000685 
2.1146923e+3, 1.21993445e+2, -1772047.8, -1758139.0, -206828.67, 0.2041907, -0.25688982, -1558147.8, 186279.42, 0.46656317, 9.999905, 10.000289 
2.1147327e+3, 1.319913e+2, -1667572.3, -1646709.3, 41797.75, 0.03488615, -0.557149, -1614061.0, 32379.58, 0.34608045, 9.999657, 9.999998 
2.1147774e+3, 1.4199181e+2, -1791340.9, -1763688.0, 74898.67, -0.09228162, -0.4327937, -1701350.3, -152919.66, 0.21890919, 9.998565, 9.998991 
2.1148238e+3, 1.5199225e+2, -1576510.8, -1489629.0, -965.4162, 0.052364126, -0.40381584, -1489618.3, -39192.277, 0.110347085, 9.998897, 10.0000105 
2.1148682e+3, 1.6199185e+2, -1454398.6, -1394187.5, -23359.08, 0.021472087, -0.4260098, -1386188.1, -33758.36, 0.040102176, 9.999089, 9.999922 
2.1149126e+3, 1.7199141e+2, -1327202.3, -1246506.3, 3831.9983, -0.0016724105, -0.50720483, -1246324.8, 8108.578, 0.008443992, 9.999165, 10.000211 
2.114958e+3, 1.8199092e+2, -1236364.4, -1154113.3, 43327.54, 0.018263975, -0.5629293, -1135501.1, 20935.143, 0.00052604213, 9.999116, 10.000214 
2.115005e+3, 1.9199017e+2, -1167253.0, -1038660.06, 64136.734, 0.03505367, -0.6973007, -1012140.44, 46298.656, 0.0000034897541, 9.998816, 10.000456 
2.1150509e+3, 2.0198995e+2, -1138574.1, -1100743.1, 3612.355, 0.008744092, -0.7129445, -1100401.3, -139961.73, 0.0, 9.998837, 9.999371 
2.1150954e+3, 2.1199141e+2, -881098.2, -949144.94, 12693.097, -0.04650285, -0.50357616, -878807.56, -16375.537, 0.0, 10.000068, 9.999129 
2.1151406e+3, 2.2199187e+2, -704045.94, -851602.1, 43646.223, -0.06409575, -0.34501344, -692102.44, 72329.56, 0.0, 10.000765, 9.998795 
2.1151878e+3, 2.3198912e+2, -635690.06, -758956.9, 61153.9, 0.051780842, -0.52347326, -610499.06, 55955.79, 0.0, 10.000537, 9.998853 
2.1152338e+3, 2.4198684e+2, -590422.8, -686409.06, -5289.9443, 0.09885567, -0.622571, -590132.2, -21658.871, 0.0, 10.000151, 9.998882 
2.115277e+3, 2.5198638e+2, -496136.2, -559573.1, -14395.531, 0.017773649, -0.60042, -493022.28, -22545.824, 0.0, 10.00003, 9.999118 
2.1153209e+3, 2.619854e+2, -447542.38, -518570.75, 2265.4673, -0.02850873, -0.59001625, -447470.2, -74984.586, 0.0, 9.999796, 9.99886 
2.1153657e+3, 2.7198362e+2, -274214.13, -359131.34, 15835.593, 0.0005099747, -0.69035923, -271357.16, 3145.9316, 0.0, 10.00022, 9.999059 
2.1154101e+3, 2.8198335e+2, -151820.34, -281215.9, -17108.4, -0.043576553, -0.60128564, -149596.53, 26908.857, 0.00000005479561, 10.00053, 9.99878 
2.1154544e+3, 2.9198468e+2, 2679.4905, -149577.92, -16602.506, -0.033727314, -0.39513147, 4468.838, 82958.766, 0.0000044706885, 10.000902, 9.998823 
2.1155018e+3, 3.0197954e+2, -136769.19, -382221.1, 43953.613, 0.14534302, -0.7050568, -129135.72, -129135.72, 0.000027145721, 10.000429, 9.997124 
2.1155478e+3, 3.1197894e+2, 98142.44, -7950.4243, 86092.32, -0.018800644, -0.532897, 146218.77, 146218.77, 0.00007500409, 10.000907, 9.999438 
2.1246885e+3, 1.2195286e+2, -1611056.8, -1584103.4, -16416.262, -0.21820286, -0.041642044, -1576340.6, 168479.75, 0.48543465, 10.000642, 10.001604 
2.1247327e+3, 1.3194694e+2, -1595465.0, -1709205.3, 73986.87, 0.01277381, -0.7176945, -1559017.0, 87856.94, 0.3637423, 10.000935, 9.998918 
2.1247792e+3, 1.4194912e+2, -1486476.1, -1703100.8, 70473.75, 0.11921245, -0.31537774, -1465567.3, 83283.97, 0.23315269, 10.00122, 9.998142 
2.1248235e+3, 1.5194839e+2, -1505840.6, -1516105.6, -11734.78, 0.11773895, -0.34371066, -1498165.0, -47307.14, 0.1197026, 9.999617, 9.999501 
2.1248667e+3, 1.6194685e+2, -1578362.6, -1474060.1, 18699.48, 0.03534099, -0.44170383, -1470809.0, -117936.76, 0.044803485, 9.998317, 9.999758 
2.1249126e+3, 1.7194632e+2, -1314460.5, -1249393.9, 14328.88, 0.091125704, -0.5207703, -1246378.1, 8498.338, 0.01004214, 9.999286, 10.000136 
2.1249588e+3, 1.81946e+2, -1139877.0, -1107018.8, 22943.768, 0.15823092, -0.5571893, -1095228.5, 61649.004, 0.0007722133, 9.999766, 10.000216 
2.125004e+3, 1.9194554e+2, -1129151.1, -1019786.25, 41028.1, 0.07166061, -0.66423684, -1006105.9, 52771.24, 0.000010944595, 9.999062, 10.000464 
2.1250494e+3, 2.0194542e+2, -1171895.8, -1108093.1, 55256.02, -0.0009714893, -0.67478055, -1076190.6, -115314.87, 0.0, 9.998598, 9.999423 
2.1250954e+3, 2.1194611e+2, -960634.3, -979948.44, 33031.777, -0.004322758, -0.54527575, -935876.9, -73003.35, 0.0, 9.999512, 9.999171 
2.1251419e+3, 2.2194603e+2, -781017.2, -875020.06, 27298.818, 0.044871204, -0.44747907, -773664.6, -8787.061, 0.0, 10.000158, 9.998938 
2.1251883e+3, 2.3194396e+2, -738920.25, -780487.6, 32373.334, 0.11658097, -0.5772211, -721233.25, -54337.344, 0.0, 9.999713, 9.999101 
2.1252337e+3, 2.4194252e+2, -673927.75, -701852.56, 20715.322, 0.1312513, -0.6200081, -662908.7, -94000.336, 0.0, 9.999481, 9.999094 
2.1252769e+3, 2.519426e+2, -464963.0, -528021.7, -7604.2324, 0.015941983, -0.55297, -464058.94, 6848.2505, 0.0, 10.0001745, 9.99927 
2.125321e+3, 2.6194182e+2, -304345.1, -451591.78, 27168.252, -0.0076879747, -0.529089, -299492.25, 73422.38, 0.0, 10.000805, 9.998829 
2.1253666e+3, 2.7193928e+2, -190688.67, -329202.0, 20576.355, 0.072943546, -0.69366765, -187696.66, 87241.875, 0.0, 10.000868, 9.998947 
2.1254116e+3, 2.8193864e+2, -90800.52, -280456.3, 27838.97, 0.037359297, -0.6245718, -86798.58, 90144.68, 0.000000117451826, 10.001047, 9.998558 
2.1254553e+3, 2.919403e+2, 148490.66, -104911.945, -14391.842, -0.06542028, -0.34951496, 149305.4, 228230.42, 0.0000050467984, 10.002008, 9.998602 
2.1255037e+3, 3.019348e+2, 217611.05, -170567.7, 68998.1, 0.21969222, -0.70674884, 229510.56, 229510.56, 0.00002697455, 10.002599, 9.997587 
2.125549e+3, 3.1193614e+2, -140267.83, -196093.83, 101563.805, 0.12494259, -0.37574825, -62851.152, -62851.152, 0.00007158717, 9.999506, 9.998871 
2.1347317e+3, 1.3190466e+2, -1748345.4, -2112730.0, 103918.93, -0.20778519, -0.7404849, -1720792.3, -73515.57, 0.38411817, 10.001003, 9.996025 
2.1347834e+3, 1.419048e+2, -1505893.4, -1800076.4, 28601.357, 0.35453987, -0.35438204, -1503138.5, 46145.9, 0.24951555, 10.001398, 9.997373 
2.1348238e+3, 1.5190192e+2, -1505418.5, -1536474.0, -76269.47, 0.15116578, -0.5720835, -1443112.1, 8197.939, 0.13052814, 9.99971, 9.999316 
2.1348652e+3, 1.618994e+2, -1593367.1, -1530587.4, 10589.555, 0.0141224535, -0.74211466, -1528849.3, -175516.33, 0.050404422, 9.998425, 9.999318 
2.1349134e+3, 1.7190078e+2, -1351932.0, -1326351.3, 61354.086, 0.20633513, -0.57865137, -1276468.5, -21145.951, 0.012084308, 9.999284, 9.999608 
2.1349601e+3, 1.8190236e+2, -1118321.8, -1082558.6, 6191.8926, 0.28178415, -0.39570588, -1081516.9, 75791.56, 0.001155736, 9.999847, 10.000348 
2.1350025e+3, 1.919032e+2, -1104750.8, -967362.44, 18336.441, -0.0023652795, -0.40789488, -964957.3, 94338.22, 0.000030850606, 9.999044, 10.000838 
2.1350464e+3, 2.0190307e+2, -1201043.6, -1136781.9, 58978.926, -0.18630569, -0.4387153, -1101749.5, -140456.4, 0.0, 9.998464, 9.9992895 
2.1350954e+3, 2.1190032e+2, -1013740.75, -1047664.75, 80247.79, 0.033518847, -0.61844295, -948681.9, -85361.55, 0.0, 9.9993305, 9.998795 
2.1351437e+3, 2.2189829e+2, -806360.0, -854041.75, 20307.01, 0.2102024, -0.7037414, -798883.75, -33542.574, 0.0, 9.999856, 9.99922 
2.1351884e+3, 2.3189883e+2, -728429.25, -719442.0, 23375.861, 0.16565533, -0.6238912, -700131.75, -32794.285, 0.0, 9.999542, 9.999606 
2.1352328e+3, 2.4189934e+2, -697855.7, -694537.5, 26007.664, 0.07155737, -0.5108298, -670136.06, -100802.11, 0.0, 9.999242, 9.999256 
2.1352771e+3, 2.5189912e+2, -485851.25, -535428.44, 32223.412, -0.0003387961, -0.4819723, -469984.9, 1351.2539, 0.0, 10.000016, 9.999293 
2.1353222e+3, 2.6189825e+2, -349844.2, -479827.75, 28118.254, 0.0070610833, -0.46527058, -344022.34, 29321.518, 0.0, 10.000534, 9.998759 
2.1353684e+3, 2.7189597e+2, -225744.34, -363677.7, 34330.098, 0.13992573, -0.5964247, -217672.34, 57690.15, 0.00000000014169585, 10.000701, 9.998793 
2.1354131e+3, 2.81894e+2, -180467.03, -370576.13, 39773.41, 0.06177051, -0.6300616, -172481.34, 4897.014, 0.000000256191, 10.000667, 9.998102 
2.1354565e+3, 2.9189262e+2, 82713.17, -179601.52, 58267.836, -0.17892684, -0.6244981, 95073.734, 174464.81, 0.0000052967753, 10.00173, 9.998224 
2.1355051e+3, 3.0188975e+2, 207866.19, 2046.0052, 6244.916, 0.07894663, -0.7632257, 208055.48, 208055.48, 0.000025200057, 10.001846, 9.999101 
2.1355501e+3, 3.1189167e+2, -273213.56, -281885.25, -2441.0295, 0.20964721, -0.55246776, -272573.66, -272573.66, 0.00006359548, 9.9987755, 9.998596 
2.1447322e+3, 1.3185994e+2, -1872245.4, -2076157.3, -76498.516, -0.15538767, -0.667165, -1846737.4, -199022.42, 0.40760165, 9.999666, 9.996924 
2.1447839e+3, 1.4185956e+2, -1790391.9, -1884313.4, -34153.387, 0.41458863, -0.41653064, -1779285.8, -229557.58, 0.26811564, 9.999073, 9.997917 
2.144824e+3, 1.5185717e+2, -1349725.8, -1433584.3, -87423.96, 0.16009323, -0.6134518, -1294696.3, 157052.34, 0.14296411, 10.000789, 9.999551 
2.1448655e+3, 1.6185524e+2, -1137698.9, -1329824.5, 21712.307, 0.06003234, -0.73095226, -1135275.6, 218489.69, 0.057087187, 10.001763, 9.999087 
2.1449131e+3, 1.7185627e+2, -1249856.5, -1320582.5, 56860.664, 0.21994703, -0.5667207, -1218259.3, 37499.473, 0.014719365, 10.000203, 9.999195 
2.1449593e+3, 1.818574e+2, -1282820.1, -1191954.0, 21476.912, 0.28385624, -0.38957775, -1187133.5, -29384.227, 0.0017550356, 9.99887, 10.000067 
2.1450025e+3, 1.918581e+2, -1012961.2, -945462.8, -21115.297, 0.056609575, -0.39389512, -939401.7, 120336.63, 0.00008036648, 9.999793, 10.000625 
2.1450466e+3, 2.018578e+2, -919322.9, -989552.0, 16257.604, -0.07413158, -0.42968106, -915741.94, 45995.38, 0.000000018813253, 10.000346, 9.999393 
2.1450952e+3, 2.1185493e+2, -938999.2, -986809.56, 60002.152, 0.08991314, -0.6436938, -898315.56, -34551.79, 0.0, 9.999729, 9.99902 
2.1451433e+3, 2.2185306e+2, -890960.5, -871574.25, 36091.152, 0.22246128, -0.7343958, -843897.25, -78115.24, 0.0, 9.999179, 9.999425 
2.1451876e+3, 2.318545e+2, -749023.75, -706307.4, -8742.287, 0.13850586, -0.5795301, -704587.44, -36815.703, 0.0, 9.999314, 9.999803 
2.145232e+3, 2.4185552e+2, -639637.75, -646182.2, 14699.004, 0.060324583, -0.43229118, -627851.1, -58086.563, 0.0, 9.999547, 9.999449 
2.1452774e+3, 2.5185478e+2, -477929.13, -505815.84, 22245.953, 0.058232527, -0.47496524, -465617.97, 6152.5093, 0.0, 9.999965, 9.999518 
2.1453235e+3, 2.6185367e+2, -341204.53, -470859.28, 47523.402, 0.116662465, -0.49766377, -325651.16, 48127.598, 0.0, 10.000551, 9.998822 
2.14537e+3, 2.718517e+2, -134444.67, -317570.2, 28151.877, 0.19102387, -0.59925973, -130214.6, 145578.98, 0.00000000016893417, 10.001313, 9.998816 
2.1454145e+3, 2.818494e+2, -49525.8, -312350.16, 61558.25, 0.12240448, -0.66847944, -35822.234, 141989.81, 0.0000002738674, 10.001535, 9.9981 
2.1454583e+3, 2.9184717e+2, -66287.41, -226692.8, 81935.91, -0.09400941, -0.7453225, -31834.246, 48000.223, 0.0000047479944, 10.000609, 9.998428 
2.1455073e+3, 3.0184704e+2, 147533.55, -4159.0347, 68046.89, 0.16000988, -0.65274566, 173584.45, 173584.45, 0.000021563434, 10.00123, 9.999394 
2.1455525e+3, 3.1184718e+2, 541122.06, 83229.516, -187783.89, 0.31204686, -0.61730236, 608282.5, 608282.5, 0.000054127435, 10.004431, 9.99838 
2.1547341e+3, 1.3181297e+2, -1570968.3, -1474901.5, -54158.523, -0.005320871, -0.4234339, -1450544.6, 197644.22, 0.43279883, 9.999737, 10.001912 
2.1547797e+3, 1.4181279e+2, -1619794.0, -1580653.5, -52138.652, 0.026129335, -0.56306034, -1544533.3, 5655.2686, 0.28823382, 9.999272, 9.999919 
2.1548235e+3, 1.5181424e+2, -1300735.8, -1353071.0, -14342.899, 0.012354388, -0.4629616, -1297062.8, 155109.88, 0.15688464, 10.000907, 10.000121 
2.1548675e+3, 1.6181481e+2, -1116426.5, -1325665.9, -8332.748, 0.01985136, -0.37256387, -1116095.1, 238070.64, 0.06501248, 10.001971, 9.999015 
2.1549113e+3, 1.7181289e+2, -1274000.6, -1376307.5, -8093.0884, 0.017307334, -0.4670941, -1273364.4, -17180.207, 0.018139776, 10.000229, 9.998792 
2.1549559e+3, 1.8181102e+2, -1324231.6, -1296219.6, 12985.213, 0.021779113, -0.53707385, -1291126.3, -132924.97, 0.0026903055, 9.998941, 9.999319 
2.1550031e+3, 1.9181019e+2, -1071004.6, -1058872.5, 27044.277, 0.1331444, -0.61682194, -1037222.3, 22983.512, 0.00019736934, 9.999766, 9.999854 
2.1550497e+3, 2.018096e+2, -915191.2, -958094.0, 860.49756, 0.18993302, -0.6416006, -915173.94, 47034.453, 0.0000007869328, 10.000243, 9.9996605 
2.1550947e+3, 2.1180971e+2, -905412.0, -887733.8, 40520.234, 0.0626605, -0.62702423, -855099.8, 9105.96, 0.0, 9.999596, 9.999765 
2.1551399e+3, 2.2181003e+2, -919866.8, -881250.75, 21590.754, -0.05312097, -0.5504984, -871594.0, -105391.18, 0.0, 9.998959, 9.999464 
2.155185e+3, 2.3181075e+2, -786356.25, -752258.7, 7954.3574, -0.06475407, -0.44960093, -750494.4, -82293.83, 0.0, 9.999168, 9.999558 
2.1552306e+3, 2.4181093e+2, -665466.2, -636079.4, 18376.695, -0.041500628, -0.37913287, -627244.06, -57042.5, 0.0, 9.999288, 9.999635 
2.1552779e+3, 2.5180948e+2, -473469.6, -465732.53, 47143.176, 0.09409878, -0.5280888, -422299.44, 49911.91, 0.0, 9.999827, 9.999861 
2.155325e+3, 2.6180792e+2, -369172.84, -466568.6, 65352.832, 0.17118968, -0.62416744, -336369.34, 37852.047, 0.0, 10.000293, 9.998972 
2.1553706e+3, 2.718061e+2, -158658.9, -327330.38, 66857.625, 0.12168074, -0.71583617, -135372.81, 140862.02, 0.0, 10.001131, 9.99884 
2.1554157e+3, 2.818041e+2, -86170.664, -289832.38, 25862.9, 0.056924094, -0.769052, -82937.664, 95313.88, 0.000000100631844, 10.001148, 9.998425 
2.1554604e+3, 2.918034e+2, -72862.35, -187959.73, 70406.32, 0.03528977, -0.74278986, -39477.543, 40783.625, 0.0000031808167, 10.000385, 9.998802 
2.1555082e+3, 3.0180508e+2, -30525.434, -191582.6, 135565.5, 0.10920403, -0.45095938, 46625.594, 46625.594, 0.000016664693, 10.000506, 9.998425 
2.1555549e+3, 3.1180313e+2, 330255.03, -136098.53, 36911.453, 0.052800182, -0.51782364, 333158.47, 333158.47, 0.00004561872, 10.003507, 9.997312 
2.1647356e+3, 1.3176958e+2, -1390804.0, -1371225.0, 110638.586, 0.1047209, -0.30998966, -1269943.6, 378675.47, 0.45757636, 10.001978, 10.002238 
2.1647766e+3, 1.417681e+2, -1766903.4, -1593906.0, 28238.12, -0.13935263, -0.6052849, -1589413.5, -38786.613, 0.3088363, 9.998047, 10.0004015 
2.1648228e+3, 1.5177041e+2, -1639431.8, -1497783.4, 48886.098, -0.014290835, -0.4462987, -1482550.0, -29947.451, 0.17204043, 9.998364, 10.000207 
2.1648684e+3, 1.617714e+2, -1601621.6, -1579923.4, -2350.6982, 0.117210396, -0.30945757, -1579671.8, -225080.73, 0.07433442, 9.998552, 9.998923 
2.1649113e+3, 1.7176832e+2, -1283658.4, -1388456.4, 549.19965, 0.007551386, -0.51598245, -1283655.5, -27037.754, 0.022589553, 10.000159, 9.998765 
2.1649553e+3, 1.8176553e+2, -1025666.5, -1209038.6, 74641.39, -0.02838815, -0.6604052, -999125.3, 159516.84, 0.00413868, 10.001251, 9.998803 
2.1650039e+3, 1.9176456e+2, -949229.2, -1095926.8, 67282.41, 0.18863828, -0.6750236, -923044.2, 137606.58, 0.00045452762, 10.001012, 9.999009 
2.1650513e+3, 2.017639e+2, -894879.3, -973976.4, 16960.693, 0.32668066, -0.6427397, -891395.9, 71260.23, 0.000007502901, 10.000474, 9.999445 
2.1650948e+3, 2.1176401e+2, -848449.44, -853170.56, -20889.344, 0.08002561, -0.6289319, -829787.75, 34865.387, 0.0, 9.9999485, 9.99984 
2.1651384e+3, 2.2176425e+2, -826393.2, -830650.7, -26337.828, -0.10122361, -0.5632451, -802098.2, -35448.2, 0.0, 9.999594, 9.9994955 
2.1651848e+3, 2.3176461e+2, -633625.6, -679866.06, -34436.14, -0.044868458, -0.49955395, -615268.25, 53381.65, 0.0, 10.000232, 9.9995365 
2.1652313e+3, 2.4176437e+2, -461516.0, -560016.0, -14450.19, 0.047345273, -0.4597745, -459439.88, 111214.414, 0.0, 10.000766, 9.999453 
2.1652783e+3, 2.5176278e+2, -363103.66, -425555.06, -44946.36, 0.12811947, -0.60092247, -339600.75, 133066.08, 0.0, 10.000664, 9.999722 
2.1653251e+3, 2.6176164e+2, -308664.66, -411321.78, -22443.756, 0.17954576, -0.66102886, -303972.3, 70702.27, 0.0, 10.000585, 9.999212 
2.165372e+3, 2.7176076e+2, -167685.75, -277880.7, -12690.74, 0.17978093, -0.68851185, -166243.1, 110435.58, 0.0, 10.000861, 9.999292 
2.1654183e+3, 2.817592e+2, -1954.5873, -221868.08, -21339.12, 0.19516395, -0.7421362, 96.89837, 178788.23, 0.0000000029805467, 10.00159, 9.998685 
2.1654627e+3, 2.9175776e+2, 277065.63, -9790.825, -36925.875, 0.111633234, -0.7882511, 281742.7, 362450.6, 0.000001345268, 10.002754, 9.998884 
2.1655098e+3, 3.0175993e+2, 261972.48, -97000.695, 48908.734, 0.119232886, -0.4363384, 268516.8, 268516.8, 0.000010778314, 10.002695, 9.998028 
2.1655567e+3, 3.1175697e+2, -57055.938, -193461.52, -40824.48, 0.054861832, -0.5624369, -45771.25, -45771.25, 0.00003608632, 10.000314, 9.998443 
2.1747383e+3, 1.3173163e+2, -1585056.8, -1874339.4, -127087.37, 0.08114291, -0.2026257, -1537156.4, 111830.09, 0.48078975, 10.002452, 9.996932 
2.1747744e+3, 1.4172652e+2, -1864519.4, -1839093.0, 11157.997, -0.23404524, -0.49676183, -1834890.9, -283857.84, 0.32934, 9.998249, 9.998615 
2.1748213e+3, 1.5172577e+2, -1695545.6, -1607285.9, 67698.1, -0.006609579, -0.5552817, -1570604.4, -117567.06, 0.18832743, 9.998329, 9.999471 
2.174868e+3, 1.6172466e+2, -1598467.3, -1596889.4, 30813.082, 0.18022628, -0.56484425, -1566855.1, -211810.58, 0.0852701, 9.998647, 9.998758 
2.1749124e+3, 1.717226e+2, -1245470.1, -1318376.9, 74850.89, 0.078740634, -0.71033627, -1198667.9, 58391.37, 0.028395085, 10.000209, 9.999218 
2.1749571e+3, 1.8172094e+2, -1049691.8, -1280445.4, 75873.76, -0.00039130516, -0.7558631, -1026979.4, 132092.63, 0.006367479, 10.001342, 9.998269 
2.1750043e+3, 1.9172098e+2, -1022999.3, -1245837.4, 59310.953, 0.12193661, -0.5767941, -1008196.4, 52878.934, 0.0009868387, 10.000992, 9.997989 
2.1750508e+3, 2.0172043e+2, -961412.25, -1091087.6, -11426.227, 0.18358763, -0.44238472, -960413.1, 2670.1519, 0.000047582707, 10.000378, 9.998691 
2.1750942e+3, 2.117178e+2, -912448.44, -945251.06, -33978.965, 0.043535262, -0.64227635, -891119.5, -26013.465, 0.00000000032497088, 9.999774, 9.999291 
2.1751387e+3, 2.2171581e+2, -873731.25, -862548.7, -22613.555, -0.05408309, -0.76345396, -844845.44, -77722.32, 0.0, 9.999313, 9.999411 
2.1751863e+3, 2.3171593e+2, -656025.56, -679033.6, 3827.0242, 0.08008234, -0.732573, -655405.7, 13716.041, 0.0, 10.000033, 9.999634 
2.1752334e+3, 2.4171564e+2, -548011.2, -656885.56, -17147.168, 0.16247357, -0.6878911, -545374.44, 25750.605, 0.0, 10.000424, 9.998944 
2.1752784e+3, 2.5171453e+2, -443806.03, -547549.8, -38543.59, 0.061585434, -0.70946884, -431053.63, 42084.59, 0.0, 10.000473, 9.998972 
2.1753243e+3, 2.617145e+2, -333724.38, -387327.9, -25393.598, 0.013011512, -0.62109494, -323605.0, 51534.844, 0.0, 10.000276, 9.999518 
2.1753736e+3, 2.7171555e+2, -146463.66, -183271.66, 16308.954, 0.23859388, -0.53074616, -140277.23, 136848.66, 0.0, 10.000651, 10.000039 
2.1754214e+3, 2.8171432e+2, -60882.027, -235932.4, 6801.353, 0.3248359, -0.6043409, -60618.168, 118516.83, 0.0, 10.001145, 9.998793 
2.1754642e+3, 2.917102e+2, 204724.1, -91225.586, 22188.139, -0.019278055, -0.9080317, 206378.34, 287553.8, 0.00000028754212, 10.002458, 9.998466 
2.175511e+3, 3.0171072e+2, 136051.69, -200198.05, -33769.59, -0.05107577, -0.6395668, 139409.64, 139409.64, 0.0000061263827, 10.002079, 9.997582 
2.175558e+3, 3.1170985e+2, 30922.16, 164880.6, 12293.292, 0.12498076, -0.61029506, 165999.39, 165999.39, 0.000027574106, 9.999578, 10.00125 
2.1847756e+3, 1.4168353e+2, -1697252.1, -1827812.6, 56438.023, 0.02969239, -0.47084463, -1676237.8, -124785.66, 0.34983045, 9.999623, 9.998028 
2.1848218e+3, 1.5168057e+2, -1339847.0, -1599507.3, -97348.055, 0.0668486, -0.57455707, -1307404.1, 146075.34, 0.2059314, 10.001717, 9.997945 
2.1848662e+3, 1.616784e+2, -1496046.1, -1560977.1, -112763.97, 0.10766689, -0.59099823, -1411167.1, -55668.63, 0.09816949, 9.999435, 9.998618 
2.1849133e+3, 1.7167717e+2, -1302846.1, -1302704.3, -60047.324, 0.20226113, -0.6768038, -1242727.9, 14777.778, 0.036017943, 9.999674, 9.999565 
2.1849592e+3, 1.8167606e+2, -1234387.3, -1364028.3, -62974.617, 0.16281866, -0.69150764, -1208833.5, -49320.37, 0.009796201, 10.000016, 9.99834 
2.1850047e+3, 1.9167559e+2, -1125038.6, -1297706.9, -39946.313, 0.10556312, -0.56249464, -1116245.0, -54724.293, 0.0020521113, 10.000288, 9.997966 
2.1850501e+3, 2.0167471e+2, -976627.56, -1104366.1, -26474.238, 0.10391265, -0.4563418, -971358.06, -7826.8413, 0.00020967671, 10.000316, 9.9986315 
2.185095e+3, 2.1167237e+2, -860782.5, -930925.25, -41452.75, 0.13309258, -0.6193423, -841555.3, 23996.912, 0.00000086887735, 10.000181, 9.999196 
2.1851401e+3, 2.2167034e+2, -773664.6, -824951.75, 32665.23, 0.15514597, -0.7293374, -757779.75, 9789.705, 0.0, 10.000021, 9.999342 
2.1851867e+3, 2.3166974e+2, -642810.4, -666310.7, 45023.16, 0.14056192, -0.7694583, -608029.3, 61543.46, 0.0, 10.000107, 9.999683 
2.1852331e+3, 2.4166915e+2, -579553.2, -686941.3, 42151.445, 0.12223556, -0.75768244, -564984.56, 6593.017, 0.0, 10.00026, 9.998819 
2.1852788e+3, 2.5166875e+2, -445194.0, -578798.44, 27904.236, 0.060563497, -0.684762, -439600.2, 33985.555, 0.0, 10.000569, 9.998723 
2.1853252e+3, 2.6166895e+2, -292618.63, -385289.3, 60164.426, 0.07922504, -0.5533062, -263015.03, 112571.984, 0.0, 10.000617, 9.99938 
2.185374e+3, 2.7166906e+2, -230764.89, -242206.58, 19402.79, 0.26476163, -0.5341496, -216257.14, 61326.65, 0.0, 10.000139, 9.999899 
2.1854216e+3, 2.816681e+2, -162751.94, -208439.03, 38913.08, 0.3143614, -0.6041671, -140472.81, 39118.5, 0.0, 10.000089, 9.999507 
2.1854658e+3, 2.9166573e+2, 87609.45, -43816.41, 104260.54, -0.014949302, -0.81876004, 145137.95, 226750.31, 0.000000027227998, 10.001195, 9.999405 
2.185514e+3, 3.0166495e+2, 101730.77, -279050.72, 79321.9, 0.071409434, -0.7216944, 117593.75, 117593.75, 0.0000044959556, 10.002047, 9.997092 
2.1855584e+3, 3.1166384e+2, 381490.5, 408991.0, -73661.91, 0.10863477, -0.6089951, 470175.03, 470175.03, 0.000025056477, 10.001553, 10.002036 
2.194778e+3, 1.416376e+2, -1609077.3, -1566427.8, 300064.97, 0.23328319, -0.51284194, -1286930.8, 264968.44, 0.371045, 9.999638, 10.000362 
2.1948239e+3, 1.5163425e+2, -1447177.8, -1882449.5, -180195.0, 0.064711004, -0.49694785, -1382261.8, 71673.19, 0.22535217, 10.001849, 9.995935 
2.1948624e+3, 1.6163266e+2, -1486113.1, -1560760.3, -172054.27, -0.25062835, -0.3533065, -1347380.6, 8572.492, 0.113554515, 9.999533, 9.998574 
2.194914e+3, 1.7163172e+2, -1296899.1, -1284934.6, -37407.688, 0.28500545, -0.4137923, -1253033.9, 4926.373, 0.046104282, 9.999656, 9.999695 
2.1949612e+3, 1.8163046e+2, -1170570.4, -1244518.1, -54138.254, 0.3266139, -0.4782587, -1141985.0, 17984.943, 0.015073848, 10.000071, 9.999138 
2.1950044e+3, 1.9162835e+2, -1051632.3, -1139898.9, -25246.305, 0.041762106, -0.6157948, -1044921.44, 17065.607, 0.004138987, 10.00027, 9.999059 
2.1950491e+3, 2.0162676e+2, -954799.8, -1035304.7, -38849.215, -0.060046766, -0.66993266, -939110.1, 24889.68, 0.00072646124, 10.000216, 9.999151 
2.1950962e+3, 2.1162738e+2, -868959.9, -905329.75, -41583.434, 0.22847895, -0.56882185, -841759.0, 24235.533, 0.000022642807, 10.000003, 9.999451 
2.1951425e+3, 2.2162758e+2, -814612.7, -844971.3, 22655.086, 0.37426203, -0.47686034, -802521.8, -34529.63, 0.000000000011542125, 9.99974, 9.999337 
2.195186e+3, 2.3162583e+2, -668473.6, -688724.4, 56686.37, 0.041794784, -0.6268039, -621015.44, 48989.707, 0.0, 9.999967, 9.999598 
2.1952303e+3, 2.4162467e+2, -616066.25, -688069.56, 40368.438, -0.213966, -0.6729563, -597977.9, -25964.033, 0.0, 9.999951, 9.998954 
2.1952789e+3, 2.5162512e+2, -458004.03, -566551.94, 48206.43, 0.0041314363, -0.53525215, -439686.5, 34325.96, 0.0, 10.0004015, 9.998886 
2.1953271e+3, 2.6162457e+2, -397172.25, -516374.2, 39102.766, 0.19704181, -0.4625511, -385489.97, -9469.152, 0.0, 10.000269, 9.998632 
2.195373e+3, 2.7162117e+2, -333568.9, -407571.47, 16134.495, 0.1472442, -0.7018415, -330204.16, -52149.563, 0.0, 9.999951, 9.998837 
2.1954189e+3, 2.8162006e+2, -136805.52, -80219.91, 54183.434, 0.014168686, -0.7497783, -47387.207, 132677.5, 0.0, 9.999787, 10.0005245 
2.1954674e+3, 2.9162386e+2, 178916.73, 215410.16, 162840.81, -0.016489632, -0.5306526, 361023.34, 443046.4, 0.000000020729713, 10.000899, 10.0013275 
2.1955173e+3, 3.0162123e+2, -37825.08, -400663.72, 69015.27, 0.15951346, -0.72652006, -25141.135, -25141.135, 0.0000055230016, 10.001368, 9.996553 
2.1955574e+3, 3.1161743e+2, 83345.9, -11336.396, -101558.72, -0.18425721, -0.7458043, 148055.44, 148055.44, 0.000029811183, 10.000782, 9.999475 
2.2047754e+3, 1.4158809e+2, -1666528.6, -1441213.0, 271218.38, 0.108139396, -0.52458566, -1260185.3, 292198.22, 0.39437363, 9.998265, 10.0022135 
2.2048227e+3, 1.5158488e+2, -1725198.3, -1805390.9, -284035.0, -0.059420526, -0.6234781, -1478443.4, -24027.004, 0.24751917, 9.998889, 9.997874 
2.204864e+3, 1.6158624e+2, -1377856.8, -1443742.3, -70017.766, -0.025078928, -0.35272717, -1333419.3, 22986.219, 0.13222682, 9.999983, 9.999184 
2.2049141e+3, 1.7158523e+2, -1363499.3, -1389626.1, 35359.64, 0.352227, -0.38149166, -1338867.1, -80450.84, 0.059555795, 9.999442, 9.999115 
2.2049604e+3, 1.8158378e+2, -1326103.4, -1260383.0, 15266.452, 0.33382937, -0.44648698, -1257009.9, -96580.0, 0.023171267, 9.998747, 9.999673 
2.2050047e+3, 1.91582e+2, -1092511.0, -1045838.5, 25708.404, 0.07940244, -0.64522535, -1034454.44, 27986.555, 0.008108057, 9.999497, 10.000093 
2.2050495e+3, 2.0158087e+2, -964067.9, -1033776.75, -1334.9896, 0.008647824, -0.72480667, -964042.4, 405.2843, 0.0021629941, 10.00012, 9.999214 
2.2050966e+3, 2.1158186e+2, -844970.75, -944834.8, -74986.664, 0.27379698, -0.54716986, -804812.75, 61628.453, 0.00023583506, 10.000371, 9.999009 
2.2051428e+3, 2.2158213e+2, -710805.0, -801355.56, -26066.145, 0.41784874, -0.41575855, -703837.6, 64602.9, 0.0000019906881, 10.000478, 9.999285 
2.2051863e+3, 2.3158026e+2, -599056.94, -648344.94, -6902.397, 0.068163425, -0.58271, -598108.56, 72345.14, 0.0, 10.000399, 9.999681 
2.2052304e+3, 2.4157894e+2, -537124.06, -615313.1, 14227.371, -0.17071621, -0.6551762, -534615.7, 37846.89, 0.0, 10.000335, 9.999273 
2.2052793e+3, 2.515794e+2, -409571.56, -477743.56, 18773.943, 0.02298501, -0.56512666, -404743.34, 69715.305, 0.0, 10.000516, 9.999411 
2.2053275e+3, 2.6157865e+2, -322284.2, -486872.28, 50218.75, 0.19806504, -0.5446083, -308171.66, 68295.77, 0.0, 10.000798, 9.9985895 
2.2053733e+3, 2.7157515e+2, -164665.73, -367680.3, 58275.54, 0.1186491, -0.76063144, -149127.02, 129377.21, 0.0, 10.001263, 9.998495 
2.2054194e+3, 2.8157493e+2, 42720.74, -32289.258, 116352.23, 0.029858183, -0.69326645, 127463.3, 307972.03, 0.0, 10.001188, 10.0001745 
2.205468e+3, 2.915796e+2, 36543.82, 114324.64, 31213.951, 0.04943397, -0.33985937, 125301.805, 207763.77, 0.00000007580395, 10.000066, 10.001035 
2.205518e+3, 3.0157626e+2, -174987.3, -402725.88, -35829.19, 0.19414166, -0.6257018, -169483.45, -169483.45, 0.0000083740215, 10.000108, 9.997169 
2.2055613e+3, 3.1157318e+2, 512418.3, 149097.72, -161924.3, -0.019506324, -0.6116229, 574109.5, 574109.5, 0.000042885644, 10.003897, 9.999076 
2.2147746e+3, 1.415372e+2, -1610650.0, -1338848.9, 272069.63, 0.13525565, -0.23962471, -1170626.4, 382257.5, 0.4221777, 9.9981785, 10.003454 
2.2148189e+3, 1.5153185e+2, -1359232.0, -1088952.4, -140873.38, -0.36376575, -0.98178566, -1028879.25, 426050.84, 0.27423543, 9.99881, 10.003785 
2.214871e+3, 1.6153884e+2, -1267432.5, -1236541.0, -69907.92, 0.6198788, -0.5933016, -1180392.9, 176465.27, 0.15564767, 10.000111, 10.000683 
2.214913e+3, 1.7153779e+2, -1443850.1, -1555757.4, 8929.834, 0.2868135, -0.5726963, -1443142.0, -184269.06, 0.07778218, 9.999445, 9.997968 
2.2149567e+3, 1.8153605e+2, -1309799.0, -1238779.6, 11351.2295, 0.044048857, -0.58779466, -1237009.5, -76116.91, 0.035576556, 9.9987955, 9.999801 
2.2150044e+3, 1.915364e+2, -1042150.3, -921943.1, 64339.87, 0.113030925, -0.65118885, -894000.94, 168882.84, 0.0154146915, 9.999413, 10.000996 
2.2150515e+3, 2.0153676e+2, -1009723.8, -1100327.9, 8305.502, 0.15934926, -0.6304737, -1008968.75, -44091.996, 0.005714695, 9.999994, 9.998818 
2.2150962e+3, 2.1153575e+2, -942676.75, -1112639.4, -57676.56, 0.1624536, -0.557212, -924952.6, -58059.55, 0.0013616167, 10.000219, 9.997928 
2.2151409e+3, 2.2153437e+2, -777119.9, -865069.5, -35575.41, 0.13927855, -0.5068291, -764531.5, 4379.283, 0.00013056793, 10.000163, 9.998998 
2.215187e+3, 2.3153295e+2, -618862.6, -640301.75, 1060.757, 0.106031045, -0.6407188, -618810.25, 52109.223, 0.0000045921656, 10.000182, 9.999841 
2.2152334e+3, 2.415319e+2, -570808.8, -582348.94, 4419.321, 0.070154205, -0.70700467, -569310.9, 3613.4343, 0.000000030624218, 9.999911, 9.999694 
2.2152798e+3, 2.5153154e+2, -401006.28, -396972.06, 34814.598, 0.01576606, -0.76276195, -364116.2, 110808.35, 0.0, 10.000257, 10.000083 
2.2153261e+3, 2.6153088e+2, -342262.8, -442070.66, 48907.566, -0.035272084, -0.79459995, -322292.9, 54637.098, 0.0, 10.000444, 9.999062 
2.215374e+3, 2.715307e+2, -175249.53, -328296.34, 79296.016, 0.05496631, -0.725182, -141574.53, 137362.16, 0.0, 10.001011, 9.998879 
2.215422e+3, 2.8153205e+2, -148937.84, -320020.13, 72237.24, 0.12039317, -0.46178272, -122516.92, 58412.574, 0.0, 10.000742, 9.998397 
2.2154683e+3, 2.9153273e+2, -166740.7, -267602.6, 6080.023, 0.051602382, -0.26513553, -166375.52, -83446.125, 0.00000027397763, 9.999909, 9.998474 
2.2155161e+3, 3.015299e+2, -115490.71, -186678.25, 42461.918, -0.051199008, -0.41456178, -95677.52, -95677.52, 0.000015050563, 9.999757, 9.9987955 
2.2155662e+3, 3.115298e+2, 391854.97, 128104.43, 105605.8, 0.030730143, -0.38165995, 428928.4, 428928.4, 0.00007034586, 10.00295, 9.9993725 
2.2247773e+3, 1.4148301e+2, -1457066.9, -1687038.4, 69352.83, 0.40512276, -0.54851425, -1437771.0, 115641.76, 0.45833316, 10.00197, 9.997845 
2.2248171e+3, 1.5148373e+2, -1506723.6, -1086423.9, -1825.7351, -0.3080374, -0.99303764, -1086416.0, 368985.0, 0.30885017, 9.997064, 10.004792 
2.2248718e+3, 1.6149162e+2, -1199163.0, -1185604.4, -187709.64, 0.6862244, -0.5612391, -1004551.7, 352768.9, 0.18666483, 10.000609, 10.000923 
2.224912e+3, 1.7149061e+2, -1268303.9, -1389866.0, -138187.9, 0.21162371, -0.594496, -1178120.5, 81213.34, 0.103338934, 10.000368, 9.998672 
2.2249553e+3, 1.8148918e+2, -1227012.3, -1188533.8, -5328.933, 0.020635128, -0.6303062, -1187809.4, -26459.262, 0.054786276, 9.999297, 9.999918 
2.2250044e+3, 1.914901e+2, -1086148.3, -961371.8, -12694.322, 0.20175178, -0.62457603, -960093.44, 103244.16, 0.028543482, 9.999153, 10.000858 
2.2250523e+3, 2.0149073e+2, -1123845.0, -1150776.9, -86290.87, 0.29200813, -0.5735195, -1049975.6, -84645.86, 0.013685946, 9.999203, 9.998847 
2.2250955e+3, 2.1148914e+2, -988934.75, -1131244.1, -103768.11, 0.097962946, -0.5589006, -934268.9, -66917.53, 0.005262215, 9.999899, 9.997957 
2.2251394e+3, 2.214874e+2, -756979.2, -857038.4, -24601.941, -0.0116583165, -0.5465771, -751257.44, 18115.123, 0.001420654, 10.000281, 9.999005 
2.2251873e+3, 2.314866e+2, -745155.94, -690818.25, -21445.418, 0.17044473, -0.62033045, -683374.2, -11998.443, 0.0002619265, 9.999261, 9.999944 
2.2252348e+3, 2.4148603e+2, -768048.44, -673692.1, 18149.31, 0.30168045, -0.6456421, -670321.56, -96945.0, 0.000035642544, 9.998526, 9.999749 
2.2252803e+3, 2.5148547e+2, -515553.6, -453277.53, 12213.675, 0.09866814, -0.72495615, -450967.8, 24410.27, 0.0000011567587, 9.999415, 10.000136 
2.2253262e+3, 2.6148462e+2, -374633.06, -443855.8, 1341.6938, -0.040211752, -0.78029966, -374607.06, 2777.2239, 0.0, 10.000151, 9.999194 
2.225375e+3, 2.7148455e+2, -231473.8, -331469.2, -25868.162, 0.10769012, -0.7105651, -225178.23, 54210.51, 0.0, 10.000551, 9.999074 
2.2254236e+3, 2.814855e+2, -163042.19, -383548.72, -3736.855, 0.23669118, -0.4813221, -162978.88, 18405.334, 0.0, 10.000872, 9.997919 
2.2254698e+3, 2.914846e+2, 77091.375, -235990.1, 19582.125, 0.09779344, -0.35354978, 78311.414, 161711.6, 0.00000073017384, 10.001971, 9.997692 
2.2255181e+3, 3.0148205e+2, 338905.03, 29287.324, 129134.09, 0.034318887, -0.4454004, 385693.28, 385693.28, 0.00002755439, 10.002865, 9.998806 
2.2255686e+3, 3.114808e+2, 290301.03, 85593.125, -44489.72, 0.043728773, -0.49327514, 299552.03, 299552.03, 0.000118261974, 10.002195, 9.999469 
2.2348171e+3, 1.5144162e+2, -1840037.9, -1526521.4, 95296.37, -0.027292859, -0.5300817, -1499827.9, -44009.01, 0.35698506, 9.996765, 10.000744 
2.2348665e+3, 1.6144398e+2, -1294695.8, -1361291.1, -147426.95, 0.011751448, -0.29764563, -1176853.0, 180946.5, 0.23053116, 10.000541, 9.999609 
2.2349106e+3, 1.7144337e+2, -1122169.6, -1060789.9, -145380.19, 0.016988436, -0.46858308, -942895.5, 316907.47, 0.14104874, 10.000266, 10.0011835 
2.2349556e+3, 1.8144307e+2, -1221304.3, -1173263.5, -34368.977, 0.09794378, -0.57807255, -1155353.0, 6450.756, 0.08532412, 9.999281, 10.000031 
2.2350042e+3, 1.9144313e+2, -1176539.3, -1130559.1, -8837.717, 0.24328443, -0.56275105, -1128919.0, -65116.33, 0.05187056, 9.999083, 9.999712 
2.2350512e+3, 2.0144296e+2, -1126453.6, -1118984.4, -79708.36, 0.2620423, -0.5233049, -1042923.2, -77118.555, 0.030293982, 9.999046, 9.999139 
2.2350943e+3, 2.1144181e+2, -938350.06, -983564.1, -67990.984, -0.022197245, -0.55935407, -889306.2, -21488.178, 0.015773455, 9.999713, 9.99906 
2.235138e+3, 2.2144087e+2, -789998.6, -839172.5, -50234.11, -0.19061834, -0.54763854, -758657.2, 11171.414, 0.0069356123, 9.999922, 9.999291 
2.2351862e+3, 2.3144107e+2, -764885.44, -698223.06, -53505.57, 0.14209007, -0.53635865, -668516.06, 3308.0361, 0.002541045, 9.999108, 9.999961 
2.2352341e+3, 2.4144116e+2, -840880.2, -753865.4, 13191.451, 0.36288178, -0.47991845, -751909.5, -178088.94, 0.00075579167, 9.998236, 9.999329 
2.2352803e+3, 2.5144094e+2, -579505.44, -537652.6, 57523.61, 0.14641021, -0.48610702, -497367.25, -21546.396, 0.00014769337, 9.999211, 9.999649 
2.2353266e+3, 2.614398e+2, -474043.9, -540867.9, 611.4888, -0.01827141, -0.51895076, -474038.3, -96208.03, 0.000007045108, 9.999707, 9.998725 
2.2353762e+3, 2.7143684e+2, -284835.78, -389225.2, -3533.6843, 0.14770913, -0.7145194, -284716.3, -4857.568, 0.00000000065814787, 10.000324, 9.9987755 
2.2354244e+3, 2.8143543e+2, -197051.92, -346309.1, 1190.7288, 0.20742165, -0.7288267, -197042.42, -15170.282, 0.0, 10.000448, 9.998357 
2.235471e+3, 2.914353e+2, 47836.586, -200334.63, 75854.42, 0.026904278, -0.5888854, 69185.26, 153059.83, 0.0000012574419, 10.001591, 9.998099 
2.2355224e+3, 3.0143213e+2, 85473.805, -319343.97, 104969.38, 0.13881172, -0.6784746, 111073.54, 111073.54, 0.000044073433, 10.002152, 9.996727 
2.2355698e+3, 3.1142884e+2, 88643.28, -80005.61, 44315.617, -0.07125413, -0.69377166, 99578.93, 99578.93, 0.00018419352, 10.0011835, 9.99879 
2.2448196e+3, 1.5139556e+2, -1247568.9, -1593289.9, 111757.11, 0.14885667, -0.5685808, -1214588.6, 241676.3, 0.42759266, 10.003757, 9.996916 
2.2448653e+3, 1.6139463e+2, -1285572.5, -1394302.5, 18785.158, -0.12917736, -0.44624212, -1282418.5, 75865.11, 0.29616648, 10.000819, 9.999121 
2.2449102e+3, 1.7139576e+2, -1150138.5, -1069957.3, -125902.71, -0.021466175, -0.448589, -977916.4, 282355.22, 0.19952731, 10.0000305, 10.001338 
2.2449553e+3, 1.8139663e+2, -1217045.1, -1187888.3, -115607.37, 0.14539771, -0.44604874, -1085943.8, 76317.93, 0.13536815, 9.999391, 9.999922 
2.245003e+3, 1.9139595e+2, -1105895.5, -1124175.8, -55558.79, 0.20044267, -0.48373482, -1058730.0, 5539.1978, 0.09319166, 9.999677, 9.999487 
2.2450498e+3, 2.0139536e+2, -980351.6, -996375.56, -55901.42, 0.19787043, -0.48618966, -931890.94, 34384.516, 0.06306426, 9.999762, 9.999682 
2.245094e+3, 2.1139531e+2, -958243.56, -876881.56, -64452.063, 0.038941108, -0.5017193, -841345.7, 26929.113, 0.0400799, 9.999033, 10.000153 
2.2451387e+3, 2.213951e+2, -944739.0, -900043.8, -20631.934, -0.044496655, -0.49187267, -891976.1, -121700.6, 0.023131557, 9.998778, 9.999441 
2.2451863e+3, 2.3139429e+2, -673842.0, -702394.3, -83768.06, 0.18939584, -0.55068266, -603142.3, 69139.586, 0.011994159, 9.999942, 9.999539 
2.2452337e+3, 2.4139346e+2, -466426.72, -629691.94, -19648.684, 0.37826997, -0.532099, -464095.3, 110193.18, 0.0054928027, 10.001014, 9.998859 
2.245281e+3, 2.513936e+2, -345766.3, -458389.13, 15408.871, 0.22041947, -0.46233672, -343696.16, 132590.83, 0.002050329, 10.000958, 9.999359 
2.2453278e+3, 2.613927e+2, -359181.75, -503180.34, -11087.02, 0.11175846, -0.4422082, -358333.13, 19962.104, 0.0004876709, 10.000555, 9.998584 
2.245377e+3, 2.7138922e+2, -189039.03, -333714.5, -2223.447, 0.2025264, -0.685055, -189004.86, 91321.09, 0.000047167257, 10.000944, 9.998859 
2.2454253e+3, 2.8138754e+2, -71787.74, -274551.13, 34555.508, 0.24155602, -0.7474369, -66060.47, 116279.664, 0.00000034188096, 10.001239, 9.998478 
2.2454736e+3, 2.9138717e+2, 235277.25, -128494.46, 45135.918, 0.08621596, -0.60577285, 240793.94, 325138.25, 0.0000013302117, 10.00291, 9.997989 
2.2455256e+3, 3.0138314e+2, 246740.72, -284412.47, 58335.266, 0.23287413, -0.7780018, 253072.08, 253072.08, 0.0000584347, 10.003373, 9.996397 
2.245572e+3, 3.1138173e+2, -2606.774, -59450.406, -6616.152, 0.07705754, -0.5406945, -1846.8646, -1846.8646, 0.00025945, 10.000171, 9.999431 
2.2548684e+3, 1.6134433e+2, -1372871.3, -1497883.8, -62933.49, 0.019537339, -0.92211396, -1346677.8, 12087.079, 0.39765337, 10.000261, 9.998661 
2.2549109e+3, 1.7134756e+2, -1312257.0, -1374759.1, -174480.16, -0.013650923, -0.54812986, -1166251.4, 94489.81, 0.29298013, 9.9999695, 9.999052 
2.2549541e+3, 1.8134955e+2, -1302131.3, -1306477.1, -162394.53, 0.00584685, -0.2512155, -1141895.1, 20832.396, 0.21888196, 9.999147, 9.999183 
2.2550005e+3, 1.91348e+2, -1102823.8, -1064201.1, -42975.83, -0.047246795, -0.41716847, -1036397.1, 28345.553, 0.16615056, 9.999448, 10.000018 
2.2550474e+3, 2.0134744e+2, -970994.75, -911909.44, -71923.17, -0.080392286, -0.4900225, -863697.94, 103048.98, 0.12546477, 9.999479, 10.000441 
2.255094e+3, 2.1134943e+2, -910681.9, -748444.4, -81396.805, 0.13426434, -0.41170686, -714647.1, 154076.53, 0.0914258, 9.9988785, 10.001175 
2.2551407e+3, 2.213501e+2, -1008914.75, -967077.56, -6962.6543, 0.24939531, -0.37731552, -965949.25, -195235.88, 0.062582165, 9.998492, 9.99912 
2.2551867e+3, 2.3134625e+2, -772182.94, -864655.4, -26611.025, 0.22620665, -0.6553001, -765071.8, -92322.69, 0.039919913, 9.999741, 9.998525 
2.255233e+3, 2.4134314e+2, -609080.25, -771663.44, -23000.12, 0.19053966, -0.76811594, -605889.1, -31110.46, 0.023601582, 10.000372, 9.998179 
2.2552818e+3, 2.5134382e+2, -401917.56, -493681.5, 16261.094, 0.1923387, -0.6346689, -399121.22, 77652.625, 0.012405956, 10.000633, 9.999258 
2.2553293e+3, 2.6134342e+2, -435981.75, -546944.25, -33856.313, 0.17518018, -0.54074484, -426467.47, -47688.906, 0.005154125, 10.000089, 9.998498 
2.2553775e+3, 2.7134165e+2, -222156.63, -307451.38, 19649.004, 0.13482258, -0.65466505, -217847.83, 62944.297, 0.0013586987, 10.000559, 9.999214 
2.2554256e+3, 2.8134128e+2, -209879.27, -404982.2, 44849.81, 0.12161897, -0.5845692, -200063.17, -17269.861, 0.00015517221, 10.00061, 9.997865 
2.2554773e+3, 2.913402e+2, 104928.12, -262239.0, 125603.95, 0.13540505, -0.42926326, 143783.94, 228592.47, 0.0000026982873, 10.002394, 9.99728 
2.2555278e+3, 3.0133486e+2, 192973.89, -213319.25, -33609.707, 0.053441484, -0.7398212, 195735.42, 195735.42, 0.000065484004, 10.002646, 9.9972105 
2.2555713e+3, 3.1133562e+2, 291.60162, 83005.586, 9497.787, -0.05643145, -0.38555098, 84082.17, 84082.17, 0.00034262822, 9.999651, 10.000648 
2.2649096e+3, 1.7130491e+2, -1219777.4, -1679238.8, -32479.66, -0.18743254, -0.2954221, -1217492.8, 43659.18, 0.44342524, 10.001671, 9.996214 
2.2649565e+3, 1.812975e+2, -1019619.94, -1350688.3, 29341.793, 0.17450932, -0.8873738, -1017039.5, 146193.08, 0.3585124, 10.002409, 9.99732 
2.2650008e+3, 1.9129768e+2, -1268104.4, -1200253.6, -4198.742, 0.09815102, -0.7590313, -1199994.8, -134762.5, 0.29413474, 9.998564, 9.999429 
2.2650456e+3, 2.0129918e+2, -1357032.8, -1098738.4, 5247.114, -0.03162017, -0.60669184, -1098631.8, -131413.92, 0.24160613, 9.996721, 10.0004635 
2.2650927e+3, 2.113007e+2, -788102.7, -736637.9, -68947.66, 0.07639968, -0.54330873, -688777.25, 180422.23, 0.1940874, 9.9999275, 10.000917 
2.2651406e+3, 2.2130111e+2, -448972.25, -695991.5, -76147.484, 0.20413941, -0.5119986, -427385.13, 343807.1, 0.14888066, 10.002723, 9.999059 
2.2651863e+3, 2.3129871e+2, -512422.3, -709143.8, -81085.21, 0.14013828, -0.6367741, -483308.94, 189904.05, 0.108788945, 10.001567, 9.99874 
2.2652322e+3, 2.4129625e+2, -583159.3, -751548.06, 21001.371, 0.08956289, -0.70017344, -580579.56, -5343.96, 0.07581198, 10.000416, 9.998329 
2.2652817e+3, 2.512961e+2, -473210.75, -556762.5, 42000.715, 0.18886796, -0.6413391, -455747.44, 21491.023, 0.048806984, 10.000149, 9.9991255 
2.2653297e+3, 2.6129505e+2, -457405.66, -627525.8, 16097.97, 0.22450443, -0.57125604, -455895.75, -76645.8, 0.026684597, 10.00015, 9.997954 
2.265378e+3, 2.7129257e+2, -24932.896, -270051.22, 9746.754, 0.08342837, -0.70522255, -24545.943, 256725.95, 0.010897145, 10.002084, 9.998787 
2.2654258e+3, 2.8129175e+2, -64929.156, -367846.88, -28156.965, 0.074155085, -0.6430732, -62334.13, 120945.234, 0.002788968, 10.00172, 9.997604 
2.2654788e+3, 2.9129204e+2, -123358.69, -394286.72, 102223.69, 0.14561369, -0.31188026, -89116.54, -3834.6367, 0.0003034348, 10.0009365, 9.99708 
2.265529e+3, 3.0128744e+2, -42536.914, -293696.84, -11178.343, 0.017876219, -0.5874766, -42040.383, -42040.383, 0.000074942734, 10.000947, 9.99748 
2.2655764e+3, 3.1128252e+2, 783904.44, 354528.7, -77910.66, 0.19827642, -0.6809192, 797604.3, 797604.3, 0.00045627946, 10.005375, 9.999856 
2.2750449e+3, 2.012543e+2, -1464307.8, -1393200.4, 48627.395, 0.16952564, -0.422913, -1368515.5, -400863.66, 0.4526298, 9.997055, 9.998233 
2.2750926e+3, 2.1125193e+2, -866324.3, -931525.0, 37706.367, 0.048315875, -0.61251605, -849079.4, 20595.947, 0.38963944, 10.000145, 9.999205 
2.275144e+3, 2.2124925e+2, -774894.94, -912747.1, -108414.305, 0.23131578, -0.77436393, -715351.3, 56349.305, 0.32267725, 10.000489, 9.9985485 
2.2751871e+3, 2.3125042e+2, -725316.3, -691839.6, -102892.3, 0.041468084, -0.65287274, -604333.06, 69352.38, 0.25840095, 9.999479, 9.999885 
2.2752312e+3, 2.4125105e+2, -730874.3, -835025.7, -911.72833, -0.14212562, -0.4793043, -730866.3, -155190.0, 0.20062341, 9.999487, 9.99817 
2.2752815e+3, 2.5124997e+2, -588797.8, -636624.5, 38741.06, 0.10988677, -0.55811363, -567184.06, -89497.555, 0.14660953, 9.999492, 9.998846 
2.2753291e+3, 2.6124787e+2, -803995.1, -999941.2, 20066.646, 0.10139562, -0.4987725, -801961.25, -422254.03, 0.09444842, 9.998701, 9.996055 
2.2753789e+3, 2.71243e+2, -203900.52, -481472.28, 71412.42, -0.056754783, -0.7653697, -186605.48, 95150.17, 0.04983968, 10.00145, 9.997597 
2.2754262e+3, 2.8123975e+2, -254136.95, -502366.25, -142315.98, -0.08522058, -0.85717446, -189417.58, -5627.78, 0.019500945, 10.000662, 9.997158 
2.2754775e+3, 2.9124287e+2, -192214.64, -411261.8, 63805.066, -0.07835345, -0.28920493, -174984.52, -89220.76, 0.004786881, 10.000455, 9.997159 
2.2755279e+3, 3.012409e+2, -212339.94, -444535.28, 13148.178, -0.22095884, -0.3170421, -211597.8, -211597.8, 0.0007184054, 10.000172, 9.996773 
2.2755842e+3, 3.1122622e+2, 299358.63, -248469.16, 211749.02, 0.4015031, -1.2251489, 371662.13, 371662.13, 0.0007782504, 10.003831, 9.996362 
2.2852366e+3, 2.4120213e+2, -760917.8, -787417.3, -27637.4, 0.41197455, -0.3378691, -743518.25, -167356.14, 0.45869297, 9.99816, 9.999679 
2.2852793e+3, 2.5119066e+2, -527596.6, -626654.5, -427131.75, -0.0911484, -1.1211054, -147131.8, 331141.66, 0.36361384, 10.000523, 9.999127 
2.2853303e+3, 2.6119485e+2, -377321.44, -544964.8, -236876.58, 0.23361397, -0.5762005, -209873.19, 170358.11, 0.26167566, 10.000602, 9.998485 
2.2853841e+3, 2.7119336e+2, -75940.33, -388221.6, -14634.382, 0.30670944, -0.5717743, -75256.016, 206992.8, 0.1640845, 10.002353, 9.997919 
2.2854292e+3, 2.8118965e+2, -248896.53, -484619.03, -243736.08, 0.15362547, -0.6782445, -96020.72, 88267.7, 0.0825175, 10.000559, 9.997401 
2.2854798e+3, 2.911883e+2, 552514.6, 83250.18, 146720.98, -0.105375394, -0.65752006, 594612.1, 680915.0, 0.030766618, 10.004961, 9.998517 
2.2855341e+3, 3.011892e+2, 940143.2, 248800.56, 66907.06, 0.0446448, -0.52903813, 946558.8, 946558.8, 0.009050321, 10.007389, 9.998136 
2.2855826e+3, 3.1118557e+2, -97978.32, -141884.61, 85713.63, 0.07119129, -0.43568376, -31451.146, -31451.146, 0.003966057, 9.99977, 9.999024 
2.2953846e+3, 2.7114534e+2, -501402.22, -395441.56, 169852.75, 0.102108195, -0.014140984, -270498.13, 12234.876, 0.434636, 9.998268, 9.999746 
2.2954328e+3, 2.8114197e+2, -1226930.1, -1160547.3, -444775.66, 0.38838732, -0.17440629, -747726.25, -562957.6, 0.25417706, 9.994805, 9.995428 
2.2954847e+3, 2.9113293e+2, 430111.34, 264491.2, 349814.44, -0.17051776, -1.2144898, 706783.75, 793637.2, 0.121765405, 10.003513, 10.000629 
2.2955468e+3, 3.0113652e+2, 95778.95, -132884.3, -111015.086, 0.44607908, -0.9556915, 140808.78, 140808.78, 0.05399307, 10.001647, 9.998145 
2.2955754e+3, 3.111549e+2, 51245.68, 645736.2, -469044.16, -0.74534154, 0.92868733, 903790.1, 903790.1, 0.031435207, 9.998002, 10.00526 
2.3054902e+3, 2.9109165e+2, -1042763.56, -129137.39, -77772.99, 0.20280018, -0.47695607, -122564.2, -35299.355, 0.36118355, 9.991042, 10.004162 
2.3055422e+3, 3.011107e+2, 1005005.7, 875905.1, 18333.408, -1.0469406, 0.562652, 1007558.7, 1007558.7, 0.21482791, 10.006396, 10.00455 
2.3055959e+3, 3.1108046e+2, -120435.414, -1012960.4, 129131.73, 1.0927968, -1.717528, -102127.984, -102127.984, 0.16692667, 10.00268, 9.992218 
2.3497702e+3, 2.7752385e+2, -1001491.4, -1301701.4, 435176.88, -0.13163388, 0.60055864, -691259.06, -470960.3, 0.45039675, 9.996898, 9.99342 
2.3493965e+3, 2.8750223e+2, 293302.9, -399139.47, -439105.53, 0.1039684, -0.53367174, 506262.2, 628775.25, 0.35460213, 10.00621, 9.995171 
2.3490302e+3, 2.975125e+2, 683325.2, 612034.56, 553860.44, -0.55167425, 0.5341059, 1202686.1, 1227090.0, 0.27889377, 10.005014, 10.003453 
2.3486924e+3, 3.0750355e+2, -232431.36, 436940.66, -312318.7, -0.14306171, 0.2826124, 560029.4, 560029.4, 0.22511168, 9.996975, 10.005731 
2.3633328e+3, 1.7796409e+2, -315165.72, -790041.2, -125568.91, -0.50382376, 0.016513946, -284006.7, 911952.44, 0.43641183, 10.010308, 9.999388 
2.3629852e+3, 1.879558e+2, -2088776.6, -1473402.8, -97035.15, -0.11933065, -0.19957796, -1458464.4, -360418.75, 0.3776002, 9.992456, 10.000364 
2.3626287e+3, 1.9796291e+2, -318048.53, -746384.8, 131027.16, -0.08635509, 0.9446615, -281146.75, 718839.94, 0.33353606, 10.007064, 9.998587 
2.3622659e+3, 2.0794596e+2, 211090.17, -556916.75, -3424.8132, -0.94307137, 0.14765054, 211105.45, 1113249.6, 0.30097765, 10.011781, 9.997028 
2.3619163e+3, 2.1793404e+2, -259241.53, -868295.25, 197528.5, -0.3180037, -0.19913752, -200788.89, 603457.44, 0.27814257, 10.006354, 9.996122 
2.3615585e+3, 2.2792695e+2, 150266.69, -1052748.4, 83916.8, -0.4244761, 0.341231, 156092.13, 862415.4, 0.261045, 10.011328, 9.991598 
2.3611982e+3, 2.3791136e+2, -596930.8, -1264165.1, 94643.414, -0.9998514, 0.09954585, -583765.9, 24724.94, 0.2456276, 10.002421, 9.993801 
2.360843e+3, 2.479029e+2, -124436.805, -480385.44, 131506.81, -0.4534545, 0.239473, -81121.945, 429450.34, 0.23008615, 10.003756, 9.997929 
2.3604812e+3, 2.5789285e+2, -667193.06, -614300.94, 250424.47, -0.69774663, 0.04887437, -388930.0, 23733.18, 0.20983039, 9.99794, 9.999144 
2.3601148e+3, 2.6789105e+2, -25729.135, 101544.59, -157504.89, -0.6957225, 0.2931212, 207782.52, 522473.06, 0.17457396, 10.000217, 10.002958 
2.3597598e+3, 2.7788812e+2, -970918.75, -1206004.4, 98097.91, -0.30184478, 0.6376277, -935361.9, -718626.9, 0.12479761, 9.997126, 9.994063 
2.3593932e+3, 2.8787738e+2, 422796.5, -118344.664, -342083.44, -0.22923884, 0.6222912, 588379.0, 707212.44, 0.08190355, 10.004745, 9.99732 
2.3590295e+3, 2.9786992e+2, 243495.13, 81263.61, 284460.47, -0.6017366, 0.23260544, 458179.16, 479071.2, 0.055399153, 10.001986, 9.999695 
2.3586841e+3, 3.0785444e+2, -643293.7, -656821.25, -106255.25, 0.12271878, -0.24600925, -543587.2, -543587.2, 0.039844103, 9.997586, 9.996781 
2.3740527e+3, 1.5832517e+2, -1301744.1, -838840.2, 102493.37, 0.1835218, -0.5596962, -817161.94, 571275.5, 0.4091735, 9.996543, 10.007543 
2.3736821e+3, 1.6833748e+2, -862550.5, -1266681.3, -17344.904, -0.8160733, 1.1948924, -861807.44, 428501.9, 0.3191415, 10.0050335, 9.997258 
2.373336e+3, 1.7832103e+2, -1358728.3, -1496422.4, -70499.25, 0.32822052, 0.36254093, -1329035.6, -136567.83, 0.25440004, 9.999285, 9.997806 
2.3729804e+3, 1.8830988e+2, -1448755.4, -1095175.3, -79208.64, 0.4101393, -0.09878499, -1078242.0, 16336.32, 0.20803122, 9.9964485, 10.001202 
2.3726223e+3, 1.9830401e+2, -1646689.1, -1313341.1, -94255.41, 0.19197796, -0.21308392, -1288535.9, -291897.53, 0.17323056, 9.994969, 9.999825 
2.3722664e+3, 2.0829716e+2, -1533695.1, -1436608.0, -19431.115, -0.084064424, -0.12185323, -1432863.5, -534162.56, 0.14628343, 9.996103, 9.997713 
2.3719138e+3, 2.1829107e+2, -1105450.5, -1164598.9, -74981.86, 0.077912346, 0.073289, -1054421.3, -253667.31, 0.1255341, 9.998259, 9.997894 
2.3715653e+3, 2.282831e+2, -1090318.8, -1194874.8, 65894.09, 0.8255668, 0.15182121, -1058483.5, -355647.97, 0.10829949, 9.998107, 9.997062 
2.3712128e+3, 2.3827118e+2, -1161796.1, -1122820.8, 177524.25, 1.3036548, -0.08587423, -963717.75, -358758.25, 0.09199208, 9.996684, 9.99759 
2.3708452e+3, 2.4826388e+2, -772296.4, -529376.2, 83974.81, 0.6249713, -0.12887146, -503173.4, 3860.3647, 0.07586676, 9.997195, 10.000746 
2.370477e+3, 2.5825796e+2, -715401.6, -784087.7, 128141.43, -0.28623006, 0.010919931, -617080.94, -207987.94, 0.059159193, 9.998393, 9.997712 
2.370113e+3, 2.6825273e+2, -112358.69, -303714.38, -111062.14, -0.28430426, 0.27399164, -61445.09, 249705.38, 0.04041217, 10.001284, 9.998972 
2.3697565e+3, 2.7824616e+2, -246527.44, -691447.8, 205388.36, -0.029687062, 0.47783574, -166212.27, 47009.34, 0.02171854, 10.001514, 9.995402 
2.3693913e+3, 2.8823632e+2, 235132.63, -191336.44, -74173.67, -0.23770484, 0.50196147, 247665.0, 362975.9, 0.00948949, 10.003363, 9.99719 
2.3690288e+3, 2.982272e+2, 373058.06, 160486.64, 263207.53, -0.40891087, 0.17063068, 550629.5, 568018.7, 0.004345006, 10.002862, 9.99953 
2.368677e+3, 3.0821466e+2, -261249.45, -384795.56, -48638.57, 0.14361392, -0.049920622, -244399.22, -244399.22, 0.0025844611, 9.999541, 9.997352 
2.3843832e+3, 1.4869799e+2, -1178544.1, -1337575.5, 507298.38, -0.33326516, 0.34163636, -744567.5, 738211.25, 0.38968232, 10.003348, 10.000179 
2.3840432e+3, 1.586929e+2, -1689455.4, -1671516.4, 156866.34, -0.00955478, 0.34244227, -1523363.3, -138537.83, 0.27836236, 9.99805, 9.99854 
2.3836863e+3, 1.686822e+2, -1542931.6, -1560729.0, -132029.97, -0.014299343, 0.0740546, -1419500.8, -132571.27, 0.19862524, 9.998526, 9.998302 
2.3833252e+3, 1.7867294e+2, -1278359.6, -1438534.3, -48672.926, -0.10949479, -0.12717365, -1264729.1, -75708.56, 0.1461588, 9.999836, 9.997909 
2.3829661e+3, 1.8866841e+2, -1091132.9, -1147493.0, 66686.39, -0.21998844, 0.18960372, -1046916.9, 44147.125, 0.11113541, 9.9999275, 9.999146 
2.3826095e+3, 1.9866337e+2, -1108571.3, -1179187.5, 55382.746, -0.17142794, 0.35457966, -1078199.0, -85087.02, 0.08556882, 9.999259, 9.998661 
2.3822561e+3, 2.0865485e+2, -1042460.7, -1099061.3, 207287.06, -0.25888267, 0.24999344, -861550.94, 33644.688, 0.065839775, 9.999142, 9.998528 
2.3818994e+3, 2.1864489e+2, -973537.25, -1003487.6, 99082.44, -0.65935004, -0.017591022, -888304.75, -91011.27, 0.050802168, 9.998825, 9.998703 
2.381539e+3, 2.28641e+2, -823646.1, -562932.56, 310.69577, -1.0337224, 0.15142839, -562932.2, 136399.52, 0.038884565, 9.997899, 10.001473 
2.3811807e+3, 2.3863845e+2, -1125642.8, -909537.0, -45423.813, -1.0808353, 0.42829517, -900377.5, -299019.8, 0.028499383, 9.996227, 9.999251 
2.380823e+3, 2.4863324e+2, -736853.0, -617151.75, -49698.242, -0.784125, 0.57518613, -599207.7, -95793.73, 0.019239577, 9.998026, 9.999681 
2.3804685e+3, 2.5862533e+2, -780756.06, -940001.5, 40201.418, -0.41319457, 0.56181276, -771182.75, -365685.22, 0.011432521, 9.99864, 9.996487 
2.380111e+3, 2.686158e+2, -157217.48, -374277.5, -138840.22, 0.012922723, 0.46227968, -89522.16, 218070.38, 0.005416997, 10.001342, 9.998357 
2.379755e+3, 2.786048e+2, -253729.58, -551553.1, 82847.51, 0.26375002, 0.14237387, -232234.7, -22533.941, 0.001679893, 10.000897, 9.996663 
2.3793882e+3, 2.8859445e+2, 151966.42, -134151.38, -68927.97, -0.2522094, 0.014859079, 167705.86, 279502.47, 0.00032890253, 10.002373, 9.998072 
2.3790264e+3, 2.9859045e+2, -132971.33, -195487.3, 122972.62, -0.39009723, 0.18797025, -37346.19, -23516.791, 0.000101582686, 9.999818, 9.998603 
2.3786701e+3, 3.085833e+2, -74163.78, 75861.95, -144726.53, -0.031634767, 0.3091322, 163860.44, 163860.44, 0.00014370115, 9.999277, 10.000633 
2.3947504e+3, 1.3905607e+2, -1549339.6, -1035777.4, -340484.03, 0.057100207, 0.075529, -866101.1, 711158.2, 0.42782584, 9.99664, 10.007646 
2.3943865e+3, 1.490527e+2, -867586.5, -1323521.8, 77423.58, -0.13782471, 0.23187461, -854797.7, 624499.4, 0.2998544, 10.006443, 9.997973 
2.3940349e+3, 1.590453e+2, -1693538.9, -1684049.9, -44173.055, -0.116893284, 0.2797612, -1644367.3, -262991.28, 0.19614406, 9.9979725, 9.998568 
2.3936787e+3, 1.6903879e+2, -1317718.6, -1102336.8, -100892.49, -0.014409375, 0.15612704, -1062458.6, 220976.02, 0.12585048, 9.998366, 10.001797 
2.3933212e+3, 1.7903224e+2, -1083523.6, -1137066.3, 18588.572, 0.05120332, -0.04693691, -1077703.0, 107789.23, 0.083471425, 10.000279, 9.999832 
2.3929624e+3, 1.8902548e+2, -914001.0, -1129293.3, 78273.73, -0.10779632, 0.01606612, -888551.44, 199007.2, 0.057587944, 10.001455, 9.998546 
2.392604e+3, 1.9901855e+2, -749244.7, -1027110.94, 116698.06, -0.31692773, 0.071104005, -706736.8, 282891.53, 0.03970386, 10.001881, 9.998446 
2.39225e+3, 2.0901226e+2, -676667.56, -831804.0, 221608.55, -0.37469822, 0.15002665, -519444.03, 372248.2, 0.026570952, 10.001307, 9.999329 
2.3918962e+3, 2.1900536e+2, -710826.7, -870177.3, 154108.66, -0.44626465, 0.1651951, -617015.3, 176746.4, 0.017417854, 10.000605, 9.998762 
2.3915376e+3, 2.2899811e+2, -679949.56, -708490.4, -69060.31, -0.4861275, 0.12922357, -623700.7, 72132.586, 0.011141793, 9.999797, 9.999544 
2.3911789e+3, 2.3899056e+2, -707265.1, -765403.6, -127241.86, -0.49868655, 0.089581035, -605814.2, -7906.6353, 0.0065593217, 9.999315, 9.9987335 
2.3908208e+3, 2.4898499e+2, -280445.84, -313916.72, -107007.17, -0.38957483, 0.15031746, -188873.34, 311091.22, 0.0032030866, 10.000785, 10.000429 
2.3904656e+3, 2.5897908e+2, -259853.28, -520580.3, 15025.067, -0.21742015, 0.23703362, -258990.28, 143035.02, 0.0011282732, 10.001488, 9.9979515 
2.3901066e+3, 2.689726e+2, -55988.336, -286641.4, -118115.766, 0.00014311427, 0.37364742, -6234.4575, 297857.56, 0.00023273825, 10.001879, 9.998676 
2.3897485e+3, 2.789648e+2, -81111.45, -186489.02, 25761.73, 0.09794689, 0.30105925, -75150.64, 131019.75, 0.000018051116, 10.000845, 9.999152 
2.3893836e+3, 2.889548e+2, -49453.61, -6612.6064, -80353.8, -0.18508483, -0.027540995, 55126.8, 163388.28, 0.000004039042, 9.999978, 10.000086 
2.389023e+3, 2.9895106e+2, -210856.36, -288859.84, 111370.89, -0.056392126, 0.13091664, -131855.5, -121564.26, 0.00001362104, 9.999385, 9.998182 
2.3886636e+3, 3.08942e+2, 564644.4, 249606.23, -279624.16, -0.2613367, 0.3242601, 728064.5, 728064.5, 0.00005414364, 10.00413, 9.999566 
2.4050947e+3, 1.2942079e+2, -1545510.9, -1793543.3, 11861.345, -0.63390166, -0.09487716, -1544945.0, 126729.85, 0.49043512, 10.002626, 9.997169 
2.404742e+3, 1.3941245e+2, -1637535.6, -1944735.3, -106746.19, -0.124790475, -0.16944623, -1604085.5, -30325.85, 0.36336103, 10.00067, 9.996652 
2.4043858e+3, 1.4940593e+2, -1466954.5, -1692276.3, 6169.8506, -0.0014126522, 0.029619481, -1466785.6, 9048.192, 0.24041095, 10.000806, 9.997587 
2.404028e+3, 1.5939988e+2, -1437239.0, -1477740.1, 16381.38, -0.04080756, 0.22388199, -1431442.8, -53539.855, 0.14389461, 9.999514, 9.999129 
2.4036722e+3, 1.6939561e+2, -1086076.4, -866131.6, -1630.2378, 0.046919666, 0.23892772, -866119.56, 413819.13, 0.08188297, 9.999624, 10.002837 
2.4033162e+3, 1.7939039e+2, -1133835.6, -1113065.9, -92423.19, 0.17576969, 0.08312538, -1030445.94, 151535.36, 0.047678713, 9.999691, 10.000301 
2.4029571e+3, 1.8938239e+2, -1261412.1, -1288997.0, -33910.42, -0.0686278, -0.012881419, -1238596.5, -154536.75, 0.028905774, 9.999009, 9.99861 
2.4025977e+3, 1.9937465e+2, -1340221.0, -1317075.4, 34172.715, -0.36285907, -0.047511358, -1292569.0, -306431.06, 0.017015342, 9.99784, 9.998391 
2.4022447e+3, 2.0937012e+2, -999202.2, -898378.75, 156622.48, -0.34008262, 0.15299246, -784254.94, 103930.88, 0.00915297, 9.998731, 10.000091 
2.4018931e+3, 2.1936525e+2, -981958.25, -1062397.8, 43948.266, -0.12487751, 0.31739658, -962603.9, -172367.0, 0.0045936005, 9.999086, 9.998178 
2.4015361e+3, 2.293551e+2, -880341.9, -1003214.0, -81679.76, 0.03397715, 0.11803294, -839572.4, -147235.27, 0.0022051786, 9.999329, 9.997739 
2.401178e+3, 2.3934314e+2, -872624.94, -940295.06, -43677.6, 0.10972893, -0.2137313, -851210.2, -256755.56, 0.0009056362, 9.998658, 9.997856 
2.400819e+3, 2.4933787e+2, -379504.9, -227724.2, -18519.049, 0.0346181, -0.18072882, -225497.33, 271007.66, 0.00023937336, 9.999687, 10.001467 
2.4004622e+3, 2.593337e+2, -566707.56, -596831.6, -13242.194, -0.023988077, -0.056048416, -561714.1, -163169.27, 0.000025130046, 9.999134, 9.998572 
2.4001011e+3, 2.6933002e+2, -228881.14, -288489.9, -133838.23, -0.09333724, 0.30425853, -121568.875, 179016.33, 0.00000030344088, 10.000441, 9.999319 
2.3997402e+3, 2.7932605e+2, -233726.72, -113035.5, -91483.164, -0.17895827, 0.48059815, -63787.492, 138840.08, 0.000000006555133, 9.999216, 10.000459 
2.3993789e+3, 2.8931716e+2, 202932.56, 316163.63, -167983.77, -0.04965174, 0.058521863, 436815.88, 541522.94, 0.00000087941476, 10.000925, 10.001821 
2.3990197e+3, 2.9931077e+2, -304678.4, -632707.6, 65996.87, 0.21634832, -0.06694305, -291898.28, -285135.84, 0.0000072209577, 10.000127, 9.995444 
2.3986576e+3, 3.0930105e+2, 268277.44, -248043.56, 56645.36, -0.7193192, 0.32018727, 274418.9, 274418.9, 0.00003484927, 10.003788, 9.996186 
2.4150945e+3, 1.2977862e+2, -1657608.5, -1721568.3, -182629.81, -0.31712648, 0.2952472, -1504179.8, 163992.34, 0.44509998, 10.000589, 9.999168 
2.4147348e+3, 1.397673e+2, -1575418.3, -1750192.3, -109097.164, -0.38222343, -0.20541288, -1523024.5, 47263.473, 0.31930807, 10.000526, 9.998141 
2.4143791e+3, 1.4976299e+2, -1389828.4, -1449209.5, -23651.295, -0.13880149, 0.050756574, -1381559.6, 90777.51, 0.20041417, 10.000584, 9.999406 
2.4140231e+3, 1.5975855e+2, -1403704.3, -1484874.0, 34126.445, 0.023742998, 0.27156803, -1391263.3, -16876.34, 0.110025235, 9.999868, 9.9988985 
2.4136667e+3, 1.697524e+2, -1171193.1, -1181029.6, -16368.081, 0.12086174, 0.29367635, -1159020.4, 117426.52, 0.054970514, 10.000248, 10.000148 
2.4133101e+3, 1.7974566e+2, -1157856.9, -1228219.5, -139089.97, 0.14216027, 0.22106904, -1049567.9, 128942.71, 0.027314784, 9.999955, 9.999365 
2.4129488e+3, 1.8973815e+2, -1216620.4, -1151879.9, -131497.13, -0.15407379, 0.11473118, -1048827.4, 31754.084, 0.013986388, 9.998784, 9.999678 
2.4125881e+3, 1.9973074e+2, -1337824.4, -1208856.9, 32546.45, -0.4892365, 0.020769637, -1201108.9, -218456.42, 0.006556314, 9.997351, 9.999378 
2.4122375e+3, 2.0972659e+2, -992172.6, -855850.75, 176785.48, -0.28762597, 0.19941828, -734541.3, 150155.95, 0.002469395, 9.9985895, 10.000473 
2.4118876e+3, 2.197223e+2, -777466.0, -873596.94, 59527.305, -0.06570033, 0.3924043, -749021.44, 37722.668, 0.00078321603, 10.00002, 9.999051 
2.4115278e+3, 2.2971484e+2, -691620.56, -782315.2, -68763.28, -0.1569186, 0.35233787, -654598.2, 34221.14, 0.00023610769, 10.0000105, 9.998941 
2.4111675e+3, 2.3970605e+2, -679382.0, -766359.75, 46447.133, -0.29606456, 0.2369368, -659242.1, -68335.85, 0.000047296035, 9.999569, 9.998617 
2.4108103e+3, 2.4969922e+2, -525831.06, -411028.47, 24612.967, -0.1900672, 0.1776408, -405974.13, 86994.34, 0.0000020598873, 9.999133, 10.000494 
2.4104543e+3, 2.596928e+2, -634468.0, -572162.4, 3422.7925, -0.0824214, 0.14580747, -571974.94, -176948.1, 0.0, 9.9983635, 9.999101 
2.4100947e+3, 2.6968652e+2, -438484.3, -374316.34, -105717.56, -0.05911014, 0.2248241, -295921.44, 1168.008, 0.0, 9.99893, 9.999458 
2.4097344e+3, 2.7968076e+2, -192234.66, -122674.44, -92246.055, -0.11478738, 0.24954322, -58869.6, 140278.28, 0.0, 9.999505, 10.000284 
2.409374e+3, 2.8967315e+2, 414368.97, 246244.02, -231125.84, -0.14213882, 0.057507873, 576244.8, 677464.75, 0.0000001537889, 10.0029545, 10.000463 
2.4090159e+3, 2.996674e+2, 675372.7, -182502.58, -78001.914, -0.08937362, 0.14718528, 682407.25, 685681.8, 0.000003139397, 10.006748, 9.995405 
2.4086595e+3, 3.096552e+2, 843451.7, 4426.868, -1292.8368, -0.5753025, 0.27309257, 843453.6, 843453.6, 0.000017282315, 10.007528, 9.996247 
2.4250925e+3, 1.3013054e+2, -1689062.8, -1664970.5, -50148.246, 0.13478312, 0.0269394, -1625441.9, 39287.29, 0.4141129, 9.999407, 9.9999275 
2.4247299e+3, 1.4012551e+2, -1594652.8, -1682097.9, -137975.73, -0.24322633, 0.101710685, -1493637.8, 73148.664, 0.28877336, 9.999893, 9.999016 
2.4243735e+3, 1.5012057e+2, -1345751.4, -1342226.9, -76585.03, -0.11949181, 0.19220488, -1267383.9, 201453.2, 0.17287979, 10.000339, 10.000479 
2.4240173e+3, 1.6011529e+2, -1321355.6, -1469336.8, -83600.99, 0.072575875, 0.2536089, -1283705.1, 87186.02, 0.08747846, 10.000433, 9.998831 
2.4236609e+3, 1.7010866e+2, -1275404.1, -1371133.6, -22196.352, 0.13238767, 0.30953836, -1270508.0, 2451.1873, 0.038149297, 10.0000515, 9.998918 
2.4233034e+3, 1.8010183e+2, -1282509.4, -1344507.3, -67456.9, 0.16170703, 0.34410736, -1239269.8, -64241.516, 0.01570925, 9.999339, 9.998838 
2.4229416e+3, 1.9009434e+2, -1017421.3, -1012692.1, -111386.61, -0.1559537, 0.21737918, -903645.0, 173452.31, 0.0064830934, 9.999955, 10.000053 
2.4225809e+3, 2.0008694e+2, -1021920.44, -1050567.6, -1823.9186, -0.4067608, 0.08954996, -1021804.8, -42638.86, 0.0021827125, 9.999517, 9.9994135 
2.4222307e+3, 2.1008238e+2, -1035679.94, -864214.1, 159756.11, -0.19853878, 0.2090785, -768640.25, 112573.96, 0.00044835047, 9.998276, 10.000539 
2.4218811e+3, 2.2007817e+2, -1237528.9, -1037386.9, 3883.7515, 0.017156433, 0.36684886, -1037311.5, -254051.17, 0.000068581576, 9.996704, 9.999503 
2.4215193e+3, 2.3007391e+2, -801899.9, -673444.06, -121264.125, -0.32187417, 0.52910715, -600448.75, 84856.13, 0.0000096515805, 9.998689, 10.000278 
2.4211577e+3, 2.4006855e+2, -707312.5, -781906.4, -56717.543, -0.5887413, 0.6284605, -676727.6, -89369.086, 0.00000040342232, 9.999491, 9.998538 
2.4208015e+3, 2.5006023e+2, -528864.8, -529251.6, -53111.145, -0.36840424, 0.48172134, -475946.72, 13486.456, 0.0, 9.999667, 9.999401 
2.4204463e+3, 2.600514e+2, -715869.5, -699993.25, -72768.53, -0.10653704, 0.27756134, -634731.1, -243218.17, 0.0, 9.998249, 9.998302 
2.4200882e+3, 2.7004284e+2, -330325.25, -306184.34, -112590.97, 0.0061091455, 0.11201192, -205018.66, 88577.195, 0.0, 9.999691, 9.999512 
2.4197295e+3, 2.8003472e+2, -365840.1, -478483.56, -62277.54, 0.038249597, -0.04736263, -338193.8, -142517.6, 0.0, 9.999562, 9.997818 
2.4193685e+3, 2.9002795e+2, 88133.766, -164153.61, -67182.24, -0.35910925, 0.09978088, 104908.53, 202654.34, 0.0000000009564638, 10.001987, 9.998014 
2.4190117e+3, 3.000223e+2, -131704.36, -623456.06, 112737.93, -0.5469444, 0.35363847, -107090.336, -107090.336, 0.0000004799063, 10.001589, 9.994841 
2.4186608e+3, 3.100105e+2, 223462.63, -179891.44, -25009.166, -0.6139473, 0.26867026, 225007.36, 225007.36, 0.0000055147566, 10.002916, 9.997152 
2.4350864e+3, 1.3048396e+2, -1791100.6, -1888531.1, -96228.76, 0.09987724, -0.24427839, -1731958.8, -70685.055, 0.39271495, 9.999517, 9.998207 
2.4347278e+3, 1.4048603e+2, -1642944.4, -1747118.6, -115792.4, 0.081898086, 0.6997897, -1568063.3, -4797.834, 0.26710206, 9.9997, 9.998566 
2.4343684e+3, 1.504774e+2, -1311204.1, -1295751.0, -88187.87, -0.0657292, 0.40502098, -1214951.9, 250395.25, 0.15331793, 10.00048, 10.00076 
2.4340095e+3, 1.604685e+2, -1281831.9, -1361359.1, -84839.07, -0.20517878, 0.07150767, -1227900.3, 139530.77, 0.07196278, 10.0003605, 9.999611 
2.4336523e+3, 1.7046428e+2, -1188674.6, -1208158.8, -48548.117, -0.124045715, 0.26380226, -1148900.8, 120574.35, 0.027363949, 10.000162, 9.999987 
2.433295e+3, 1.8045956e+2, -1267141.8, -1345418.0, -28901.877, -0.08400947, 0.4376755, -1257626.9, -86103.06, 0.009079448, 9.999503, 9.99873 
2.4329363e+3, 1.9045158e+2, -1010621.25, -1135127.8, -74457.0, -0.13012359, 0.35937527, -975821.4, 97777.625, 0.002868925, 10.000549, 9.998921 
2.4325779e+3, 2.0044325e+2, -843313.8, -1008046.3, -26885.1, -0.20178407, 0.24512056, -839037.06, 136640.17, 0.00059867656, 10.000896, 9.99905 
2.4322243e+3, 2.1043639e+2, -1015279.1, -881566.9, 43795.824, -0.11263334, 0.15637258, -868499.2, 9245.154, 0.000045539302, 9.998477, 10.000343 
2.4318708e+3, 2.204303e+2, -1253974.3, -975852.0, -1960.8383, -0.063405685, 0.13477753, -975838.2, -196033.83, 0.0000022398012, 9.996242, 10.000139 
2.4315126e+3, 2.3042674e+2, -755764.56, -562069.06, -45587.266, -0.2377041, 0.29200375, -551876.25, 129962.445, 0.000000052409952, 9.998583, 10.001109 
2.4311543e+3, 2.4042241e+2, -448862.94, -560979.9, -50462.816, -0.39394167, 0.41734028, -429495.66, 154384.6, 0.0, 10.00079, 9.9994335 
2.4307974e+3, 2.504132e+2, -459070.1, -531128.8, -114647.49, -0.18503997, 0.18845, -374923.9, 111042.5, 0.0, 10.000234, 9.999155 
2.4304406e+3, 2.6040393e+2, -482230.6, -512487.7, -77715.85, -0.0018911416, -0.035859153, -418184.5, -30130.607, 0.0, 9.999419, 9.999042 
2.4300827e+3, 2.7039802e+2, -111170.46, -192816.84, -84172.414, 0.021552678, 0.027362512, -58444.047, 231670.88, 0.0, 10.001034, 9.999709 
2.4297248e+3, 2.8039235e+2, 157032.31, -129290.9, -31743.918, -0.00474271, 0.11515631, 160509.45, 352683.47, 0.0, 10.002592, 9.998779 
2.4293633e+3, 2.903859e+2, 237532.11, -29697.713, 38467.363, -0.48182935, 0.23637103, 242959.22, 337199.38, 0.0, 10.00259, 9.998712 
2.4290061e+3, 3.003798e+2, 122246.88, -87262.82, 261442.95, -0.73244154, 0.33721963, 299140.75, 299140.75, 0.000000008678429, 10.001384, 9.998649 
2.4286622e+3, 3.103732e+2, -78052.945, 37419.234, -5998.7817, 0.09635136, 0.4442698, 37730.035, 37730.035, 0.0000009202062, 9.998895, 10.000762 
2.4454267e+3, 1.2084858e+2, -1540471.6, -1516281.8, 366493.25, -0.3871248, 0.12703998, -1161683.9, 594012.1, 0.4945417, 10.001654, 10.002514 
2.4450782e+3, 1.3083947e+2, -1884941.6, -1899298.4, -128722.586, -0.01511413, -0.17976972, -1763197.4, -105403.28, 0.3775347, 9.998788, 9.998534 
2.4447231e+3, 1.4084205e+2, -1584383.3, -1650886.0, -59841.402, 0.2715925, 0.7948817, -1549175.6, 10604.228, 0.25111946, 9.999814, 9.999179 
2.4443628e+3, 1.5083289e+2, -1482770.1, -1378444.0, -67366.61, 0.02452304, 0.43005475, -1345405.9, 116459.25, 0.13882844, 9.999155, 10.000715 
2.444003e+3, 1.608232e+2, -1551203.9, -1466858.9, -89600.67, -0.17739059, 0.02660575, -1410002.1, -46046.81, 0.060861234, 9.998385, 9.999798 
2.4436453e+3, 1.7081946e+2, -1170072.0, -1166945.0, -104754.266, -0.20739658, 0.23096405, -1063742.6, 202251.75, 0.02025213, 10.000215, 10.000224 
2.4432878e+3, 1.808154e+2, -1031546.9, -1236220.1, -149825.3, -0.17411707, 0.45480543, -952443.7, 215592.42, 0.0052852775, 10.001164, 9.998696 
2.4429306e+3, 1.9080755e+2, -1046989.2, -1173486.9, -92034.71, -0.102972776, 0.3872453, -998565.3, 71544.945, 0.0012089658, 10.000414, 9.998733 
2.4425739e+3, 2.0079921e+2, -1097183.3, -1159659.4, -4287.8916, 0.0040565403, 0.29724395, -1096890.4, -124701.32, 0.00012403581, 9.999356, 9.998735 
2.4422178e+3, 2.107913e+2, -857368.9, -832673.94, 17976.314, -0.026440177, 0.11952967, -823213.0, 51051.73, 0.000001917801, 9.9997635, 9.999999 
2.4418621e+3, 2.207839e+2, -858260.7, -813495.75, 19206.156, -0.044298135, -0.010169456, -806384.94, -30049.865, 0.000000018702426, 9.999135, 9.999835 
2.4415061e+3, 2.3078e+2, -644540.25, -461906.53, 22074.658, -0.14070095, 0.07535642, -459276.28, 219093.55, 0.0, 9.999166, 10.001482 
2.4411504e+3, 2.4077538e+2, -803932.7, -762076.0, -68911.71, -0.17235193, 0.12878436, -710984.75, -130572.555, 0.0, 9.998541, 9.999127 
2.4407928e+3, 2.5076637e+2, -526255.6, -552394.4, -143534.19, -0.011390402, -0.09109129, -395197.03, 87302.79, 0.0, 9.999857, 9.999134 
2.4404353e+3, 2.6075774e+2, -491315.13, -586878.1, -62695.887, 0.11701757, -0.24733293, -460268.7, -75683.88, 0.0, 9.99977, 9.998346 
2.4400774e+3, 2.7075422e+2, -209833.75, -242278.42, -26787.49, -0.007327659, 0.06876578, -194739.42, 91885.9, 0.0, 10.000446, 9.999617 
2.4397197e+3, 2.807506e+2, -244612.58, -291847.97, -30626.518, -0.123063855, 0.34059027, -229554.97, -40888.89, 0.0, 9.999784, 9.999026 
2.4393588e+3, 2.9074425e+2, 25662.666, 23363.305, -2997.8328, -0.53511935, 0.31110293, 27723.71, 118453.85, 0.0, 10.000551, 10.000021 
2.4390005e+3, 3.007384e+2, -298774.72, -66784.414, 130363.96, -0.797575, 0.27455187, -8281.318, -8281.318, 0.0, 9.997681, 10.000567 
2.43866e+3, 3.1073374e+2, -159152.02, 496586.72, 33898.695, 0.55476034, 0.10874228, 498334.47, 498334.47, 0.00000009984614, 9.996644, 10.004808 
2.4554282e+3, 1.2120333e+2, -1726595.1, -1790325.4, -156694.28, 0.08818652, 0.4437507, -1598558.8, 153665.6, 0.48539782, 10.000609, 9.999476 
2.4550684e+3, 1.3119511e+2, -1646124.4, -1512284.5, -53027.664, -0.28466406, 0.045372903, -1493821.6, 160487.53, 0.36593348, 9.999038, 10.001613 
2.4547146e+3, 1.4119382e+2, -1534355.8, -1534306.5, -41170.848, 0.004905855, 0.39314514, -1493160.3, 63166.004, 0.23856215, 9.999856, 9.999991 
2.4543563e+3, 1.5118745e+2, -1513955.3, -1425450.8, -104308.77, 0.032827046, 0.31741676, -1356395.6, 101990.74, 0.1275105, 9.999129, 10.000351 
2.4539977e+3, 1.611801e+2, -1640640.4, -1610332.1, -44862.848, 0.028226666, 0.19902106, -1578133.1, -217676.8, 0.052560914, 9.998249, 9.9988575 
2.4536407e+3, 1.7117338e+2, -1214091.9, -1329180.5, -29281.482, -0.11817128, 0.22870004, -1207070.4, 55453.344, 0.01541553, 10.000516, 9.998955 
2.4532829e+3, 1.8116675e+2, -886182.1, -1065526.0, -162586.02, -0.27970412, 0.2624117, -790178.94, 374410.3, 0.0031067657, 10.001727, 9.999596 
2.4529237e+3, 1.9116037e+2, -877175.0, -844632.2, -138876.7, -0.24112426, 0.14691748, -721076.94, 345569.75, 0.00048131414, 10.000522, 10.000931 
2.4525659e+3, 2.0115383e+2, -1051264.3, -1075222.1, 46533.633, -0.18389565, 0.07320624, -1015192.44, -46485.402, 0.000015932997, 9.999383, 9.999283 
2.452212e+3, 2.1114774e+2, -765573.06, -873327.56, 83767.52, -0.07297378, 0.13743627, -719852.4, 150917.5, 0.0000000054715246, 10.00075, 9.999245 
2.4518575e+3, 2.2114146e+2, -498915.56, -634626.1, 14569.884, -0.044580344, 0.182666, -497368.97, 275464.5, 0.0, 10.001517, 9.999928 
2.451499e+3, 2.3113506e+2, -577486.9, -466964.78, -41803.992, -0.20731373, 0.0463713, -452934.0, 221958.39, 0.0, 9.999712, 10.001235 
2.4511413e+3, 2.411289e+2, -799798.56, -696571.75, -66679.74, -0.32873932, -0.028962683, -663863.56, -86913.31, 0.0, 9.998201, 9.999761 
2.4507853e+3, 2.511238e+2, -438802.28, -460319.5, -70810.6, -0.13691829, 0.10081476, -377937.66, 101066.945, 0.0, 10.00016, 9.999671 
2.4504292e+3, 2.611184e+2, -162303.36, -365361.22, -56904.395, -0.017832687, 0.23412545, -147444.0, 233617.5, 0.0, 10.001619, 9.999014 
2.4500701e+3, 2.7111238e+2, -254953.38, -320746.03, -82914.055, -0.14770585, 0.32198054, -198648.19, 84474.36, 0.0, 10.00024, 9.999249 
2.4497119e+3, 2.8110638e+2, -304678.6, -262722.72, -67584.695, -0.25282416, 0.38248894, -212935.1, -27752.563, 0.0, 9.998972, 9.999649 
2.4493545e+3, 2.9109958e+2, -122742.195, -25754.404, -72643.26, -0.33958197, 0.2846497, 13094.132, 100339.59, 0.0, 9.999282, 10.000362 
2.4489985e+3, 3.0109286e+2, -49035.57, -42579.46, -50483.824, -0.36916393, 0.18576929, 4779.4063, 4779.4063, 0.0, 9.999561, 9.999883 
2.4486494e+3, 3.1108645e+2, 277831.3, 521814.9, -233533.61, 0.18359804, 0.104313955, 663299.75, 663299.75, 0.000000000000427524, 10.000101, 10.003425 
2.4654214e+3, 1.2155724e+2, -1710433.4, -1817661.1, -315057.13, -0.07777592, 0.3203446, -1444460.9, 304302.1, 0.47722325, 10.0012, 9.99945 
2.4650615e+3, 1.3155271e+2, -1542170.5, -1356936.1, 60717.97, -0.27488744, 0.21651761, -1338807.6, 311997.25, 0.3557266, 9.999319, 10.003139 
2.4647085e+3, 1.4154752e+2, -1608174.4, -1521164.4, 8096.088, 0.071832985, 0.08683475, -1520417.5, 32436.031, 0.22774403, 9.998984, 10.000526 
2.4643503e+3, 1.5154277e+2, -1219501.5, -1307920.8, -35819.645, 0.08066572, 0.18509841, -1206811.8, 248087.22, 0.11809006, 10.00146, 10.000103 
2.4639927e+3, 1.6153702e+2, -1024123.56, -1339571.8, 40050.242, 0.11484647, 0.26901004, -1019118.06, 337836.44, 0.04605504, 10.002695, 9.998592 
2.463635e+3, 1.715285e+2, -1216164.8, -1371144.0, 127262.57, -0.114813246, 0.15353073, -1144656.4, 114381.695, 0.012013259, 10.000666, 9.998595 
2.4632768e+3, 1.8152058e+2, -1281322.6, -1215749.5, -11082.042, -0.30083433, 0.07958136, -1213927.3, -52811.79, 0.0018483637, 9.99882, 9.99997 
2.4629165e+3, 1.915153e+2, -1023762.2, -842857.8, -132845.28, -0.3038125, 0.013065864, -772594.56, 290569.88, 0.00018026956, 9.999153, 10.001625 
2.4625583e+3, 2.0151009e+2, -1169255.6, -1124654.0, 5567.4077, -0.21593891, 0.01944534, -1123969.6, -158756.14, 0.0000007906511, 9.998585, 9.999341 
2.4622056e+3, 2.11505e+2, -1193916.5, -1099669.6, 131063.28, -0.058526926, 0.1831147, -1007515.6, -140247.2, 0.0, 9.997928, 9.999076 
2.461852e+3, 2.2149917e+2, -1201986.8, -1031578.6, 65695.07, 0.045157086, 0.31026664, -1009192.9, -239863.44, 0.0, 9.997062, 9.999341 
2.461492e+3, 2.3149139e+2, -787850.9, -597227.3, -21681.916, -0.22516428, 0.070375666, -594792.25, 76611.23, 0.0, 9.998584, 10.000794 
2.4611329e+3, 2.414847e+2, -763192.75, -709824.2, -1083.5487, -0.39123264, -0.02531115, -709802.2, -136333.92, 0.0, 9.9987, 9.999404 
2.460778e+3, 2.5148237e+2, -508854.7, -457857.84, 45032.785, -0.24931371, 0.34944886, -431605.7, 43892.445, 0.0, 9.999542, 9.99997 
2.4604228e+3, 2.6147878e+2, -557963.5, -614017.0, -15749.679, -0.1312767, 0.6539249, -553841.4, -176302.88, 0.0, 9.99924, 9.998438 
2.4600632e+3, 2.7146995e+2, -304357.3, -369760.3, -54662.59, -0.22673841, 0.4752167, -273361.2, 6262.034, 0.0, 10.000113, 9.998917 
2.4597049e+3, 2.8146154e+2, -314375.7, -357718.4, 14969.959, -0.2555918, 0.3471933, -309707.94, -128005.93, 0.0, 9.999433, 9.998756 
2.4593496e+3, 2.914543e+2, -31842.422, -28802.143, -9079.631, -0.1792745, 0.23541783, -21116.277, 62648.81, 0.0, 10.000208, 9.999856 
2.4589966e+3, 3.0144477e+2, -609183.1, -798865.3, -20447.098, 0.07551664, 0.045854457, -607004.06, -607004.06, 0.0, 9.9980345, 9.99538 
2.4586375e+3, 3.1143492e+2, -434591.38, -234769.4, -88581.17, -0.4656666, 0.031955875, -201155.75, -201155.75, 0.0, 9.997435, 9.999327 
2.4754126e+3, 1.2191468e+2, -1736481.8, -1757850.1, -475483.38, -0.47942486, 0.28810003, -1271562.5, 473705.44, 0.4678463, 10.000977, 10.000497 
2.4750564e+3, 1.3191234e+2, -1561788.9, -1389269.8, 39227.598, -0.11766841, 0.4049471, -1380769.0, 266511.34, 0.34520847, 9.999355, 10.0026655 
2.4747044e+3, 1.4190234e+2, -1691250.4, -1594727.0, 69292.69, 0.32052764, -0.15821654, -1558545.4, -9175.95, 0.21743059, 9.99865, 10.0001 
2.4743453e+3, 1.5189822e+2, -1185741.8, -1284210.9, 70426.164, -0.009256526, 0.006005156, -1149046.8, 302361.7, 0.109704144, 10.00174, 10.000095 
2.4739863e+3, 1.6189337e+2, -902282.2, -1187163.5, 31606.154, -0.2727289, 0.15371898, -898817.75, 454636.88, 0.040704507, 10.003164, 9.999439 
2.4736272e+3, 1.7188516e+2, -1110037.4, -1177572.5, 50557.953, -0.3683154, -0.050447207, -1083007.3, 172524.84, 0.00953522, 10.000773, 9.999882 
2.473268e+3, 1.818779e+2, -1400398.0, -1369629.4, 4695.01, -0.44268408, -0.10127477, -1368929.0, -211325.5, 0.0011160366, 9.998421, 9.999104 
2.4729094e+3, 1.9187419e+2, -1197567.8, -1168418.9, -97363.5, -0.29953873, 0.19143873, -1084545.0, -24896.441, 0.00006263998, 9.9990015, 9.999468 
2.4725518e+3, 2.0186995e+2, -1074869.6, -968672.2, -29943.041, -0.16667442, 0.4129829, -960811.44, 884.6432, 0.0000000031066179, 9.998747, 10.000334 
2.4721976e+3, 2.1186353e+2, -1152443.6, -851282.7, 92976.766, 0.015874106, 0.2637528, -824891.0, 38865.855, 0.0, 9.997181, 10.001184 
2.4718428e+3, 2.2185706e+2, -1291727.1, -1039469.94, 162830.13, 0.06142636, 0.19716999, -959632.3, -193812.39, 0.0, 9.996228, 9.999705 
2.4714847e+3, 2.318513e+2, -844403.75, -743125.44, 117538.34, -0.19742198, 0.2482938, -665781.8, 2099.4048, 0.0, 9.998645, 9.999795 
2.4711272e+3, 2.4184562e+2, -459658.66, -505337.75, 50834.125, -0.385945, 0.3274275, -426768.9, 143170.27, 0.0, 10.00044, 9.999987 
2.4707715e+3, 2.5184053e+2, -451268.44, -363481.44, 62405.953, -0.25206655, 0.3740254, -331078.53, 140907.6, 0.0, 9.99956, 10.000656 
2.470416e+3, 2.6183462e+2, -486660.0, -467025.97, 84089.33, -0.13871932, 0.3877213, -392182.56, -18142.072, 0.0, 9.999119, 9.999523 
2.4700598e+3, 2.7182576e+2, -100181.086, -212393.27, 93211.56, -0.06221817, 0.15767351, -47492.46, 228628.08, 0.0, 10.001172, 9.999517 
2.4697027e+3, 2.8181756e+2, 152349.23, -214539.44, 119705.01, -0.09927116, 0.05981129, 187950.81, 366147.44, 0.0, 10.002893, 9.998078 
2.469344e+3, 2.9180917e+2, 229763.23, -172357.42, 23866.166, -0.34248003, 0.057258323, 231174.75, 311454.8, 0.0, 10.002988, 9.997629 
2.4689914e+3, 3.0179888e+2, 85908.62, -453706.5, 8200.104, -0.010102364, -0.031318597, 86033.195, 86033.195, 0.0, 10.002518, 9.995655 
2.4686328e+3, 3.1179014e+2, 167347.97, 89981.14, 53279.805, -0.3216306, 0.086142614, 194506.38, 194506.38, 0.0, 10.000987, 10.0000105 
2.4854097e+3, 1.2227469e+2, -1642110.9, -1759792.3, -257429.42, -0.24585278, 0.29185164, -1436883.1, 304852.66, 0.45571515, 10.001534, 9.999562 
2.485051e+3, 1.3227014e+2, -1426778.1, -1459105.3, -8181.5366, -0.07533509, 0.36213723, -1424825.4, 218947.27, 0.33319858, 10.001504, 10.000893 
2.4846973e+3, 1.4225967e+2, -1576193.1, -1562807.0, 45467.79, 0.3234516, -0.12508376, -1523542.3, 22325.203, 0.20679392, 9.999517, 9.999958 
2.4843393e+3, 1.5225531e+2, -1478637.8, -1425751.0, 92681.19, -0.051260874, 0.006885174, -1355814.6, 92093.34, 0.10179194, 9.99946, 10.000203 
2.4839813e+3, 1.6225027e+2, -1414798.8, -1385999.0, -47980.598, -0.29777372, 0.1192387, -1350304.0, -348.72607, 0.036105353, 9.999309, 9.999889 
2.4836208e+3, 1.722426e+2, -1237153.8, -1189008.1, -132201.1, -0.39124194, -0.081408896, -1078706.0, 173320.95, 0.0076701324, 9.99971, 10.000317 
2.483261e+3, 1.822358e+2, -1276721.3, -1360959.5, -136318.94, -0.39584395, -0.09845582, -1176162.9, -22069.275, 0.000687035, 9.9995365, 9.9986 
2.4829026e+3, 1.9223239e+2, -1219371.1, -1260925.8, -89492.266, -0.2629938, 0.27080265, -1148275.9, -92137.45, 0.000019881356, 9.999299, 9.998627 
2.482545e+3, 2.0222819e+2, -1088007.8, -934401.75, 16199.408, -0.07325746, 0.5425308, -932711.94, 25475.354, 0.0, 9.998538, 10.000635 
2.4821894e+3, 2.1222149e+2, -936674.6, -621839.75, 10200.771, 0.090057716, 0.26191604, -621509.56, 238738.16, 0.0, 9.998191, 10.002203 
2.481834e+3, 2.2221512e+2, -1173143.9, -1061103.3, 100031.71, 0.14672981, 0.14544742, -1002473.5, -240165.3, 0.0, 9.997408, 9.998976 
2.4814779e+3, 2.322104e+2, -912331.44, -903551.06, 109469.016, -0.1373376, 0.38240123, -798384.25, -134019.77, 0.0, 9.998704, 9.998674 
2.4811216e+3, 2.4220502e+2, -716011.5, -660066.25, -23106.227, -0.30709007, 0.55606455, -651757.1, -85335.32, 0.0, 9.998908, 9.999653 
2.4807648e+3, 2.5219736e+2, -499665.5, -324641.2, -71238.66, -0.21640654, 0.28153378, -299311.3, 169174.3, 0.0, 9.999048, 10.001121 
2.4804097e+3, 2.6218942e+2, -624916.5, -526738.94, 14451.112, -0.062494885, 0.04623505, -524656.0, -154104.67, 0.0, 9.998262, 9.9995165 
2.4800561e+3, 2.7218157e+2, -279226.7, -241582.39, 45725.88, 0.107872196, -0.1473203, -210956.3, 61661.42, 0.0, 9.999795, 9.999955 
2.4797001e+3, 2.8217345e+2, -411201.72, -716244.56, 47054.56, 0.038328998, -0.2015958, -404108.25, -229415.38, 0.0, 10.000108, 9.99597 
2.4793383e+3, 2.9216343e+2, -207110.95, -589299.4, 33536.813, -0.5521247, -0.18999924, -204190.44, -127388.5, 0.0, 10.0010605, 9.995607 
2.4789861e+3, 3.0215514e+2, -288790.94, -556176.4, 38203.81, -0.18026839, 0.021976253, -283439.5, -283439.5, 0.0, 9.999792, 9.996234 
2.4786319e+3, 3.1215143e+2, 56067.965, 288413.28, -29211.47, 0.041925, 0.3616902, 292029.6, 292029.6, 0.0, 9.999294, 10.002165 
2.495409e+3, 1.2263369e+2, -1700692.1, -1968676.9, 67094.07, 0.05080503, 0.16064732, -1684832.6, 53371.63, 0.43991756, 10.001479, 9.997438 
2.4950446e+3, 1.3262703e+2, -1552799.3, -1739951.0, -68353.5, -0.27492312, 0.23943226, -1530493.1, 109781.445, 0.31901658, 10.001478, 9.998356 
2.4946865e+3, 1.4261997e+2, -1670138.3, -1674053.1, 28141.75, -0.15870649, 0.27268168, -1643886.0, -101541.38, 0.19536594, 9.999214, 9.999294 
2.4943325e+3, 1.5261398e+2, -1511378.4, -1405264.6, 96818.09, -0.0684362, 0.22843572, -1347918.8, 96480.93, 0.094030365, 9.99911, 10.000492 
2.4939771e+3, 1.6260773e+2, -1542042.3, -1519329.6, -34345.22, -0.034469012, 0.2300521, -1494511.9, -148052.75, 0.032013185, 9.998784, 9.999207 
2.4936166e+3, 1.72601e+2, -1305238.9, -1324951.0, -104130.85, -0.17406149, 0.21055233, -1210498.8, 38028.266, 0.0062260167, 9.999704, 9.999361 
2.493256e+3, 1.825942e+2, -1110782.1, -1094356.6, -148690.42, -0.3192254, 0.19025122, -953652.3, 196940.66, 0.00043419475, 9.99987, 10.000259 
2.4928956e+3, 1.9258757e+2, -994887.75, -885782.6, -84577.47, -0.31085664, 0.0122893145, -839690.6, 212961.42, 0.0000058323185, 9.9996605, 10.001039 
2.4925366e+3, 2.0258166e+2, -1046262.2, -997032.75, 42474.066, -0.23701705, 0.0020202352, -972556.44, -17849.164, 0.000000000090419006, 9.999139, 9.999916 
2.4921817e+3, 2.1257709e+2, -928593.2, -849145.1, -751.8788, 0.016430834, 0.12409207, -849138.0, 7616.2085, 0.0, 9.999171, 10.000185 
2.4918264e+3, 2.2257157e+2, -956952.25, -1010101.5, 54644.82, 0.094744936, 0.24102187, -922762.9, -163951.4, 0.0, 9.999069, 9.998516 
2.4914712e+3, 2.3256436e+2, -845414.06, -909788.44, 83464.13, -0.11603766, 0.2673021, -788145.8, -127256.945, 0.0, 9.999279, 9.998382 
2.4911155e+3, 2.4255706e+2, -640403.0, -630203.5, -73734.266, -0.26576626, 0.2804504, -561392.8, 1570.1981, 0.0, 9.999385, 9.999627 
2.4907586e+3, 2.5254953e+2, -498594.75, -403164.44, -147423.17, -0.1746359, 0.07376178, -295926.94, 169102.39, 0.0, 9.999306, 10.00049 
2.4904026e+3, 2.6254234e+2, -438804.06, -385188.5, -88035.414, -0.08078467, -0.056444593, -319969.72, 47121.777, 0.0, 9.999219, 10.000036 
2.490049e+3, 2.7253672e+2, -297449.7, -218984.3, -40827.035, 0.05087077, -0.060704246, -201595.0, 67544.47, 0.0, 9.999429, 10.0003395 
2.4896939e+3, 2.8253022e+2, -280992.47, -394106.22, -6965.0737, -0.0039576124, -0.050202932, -280565.22, -109365.97, 0.0, 9.999709, 9.998412 
2.4893342e+3, 2.9252163e+2, -128191.63, -275107.06, 95081.97, -0.41911608, -0.1277871, -81496.875, -8208.299, 0.0, 10.000255, 9.998225 
2.4889816e+3, 3.0251485e+2, 7678.324, -268317.0, 179447.14, -0.11087139, 0.029658208, 96053.43, 96053.43, 0.0, 10.001064, 9.997626 
2.4886255e+3, 3.1250986e+2, 424139.34, 374879.1, -8779.881, -0.09855636, 0.34243459, 425657.44, 425657.44, 0.0, 10.001899, 10.001629 
2.5054002e+3, 1.2298906e+2, -1633969.9, -1937639.4, -33334.9, -0.4071191, -0.003330344, -1630353.6, 104362.22, 0.42027465, 10.002082, 9.997456 
2.5050414e+3, 1.3298328e+2, -1453893.3, -1711672.8, -195009.39, -0.15400347, 0.16825181, -1349028.4, 287753.5, 0.30251706, 10.002564, 9.998252 
2.5046802e+3, 1.4297867e+2, -1257542.9, -1453681.3, 12009.363, -0.22734132, 0.46991697, -1256810.3, 282021.47, 0.18302314, 10.002294, 9.999493 
2.5043264e+3, 1.5297131e+2, -1177071.5, -1252752.0, 59812.3, -0.0710487, 0.27222857, -1144134.6, 296765.84, 0.08629053, 10.001487, 10.000491 
2.5039715e+3, 1.6296461e+2, -1292105.1, -1407310.4, -33667.242, 0.0733679, 0.22868037, -1282987.9, 59977.34, 0.028287582, 10.000502, 9.999154 
2.503611e+3, 1.7295904e+2, -1264922.8, -1344036.9, -29131.588, -0.08690982, 0.3325834, -1255353.3, -10328.411, 0.0050760456, 10.000058, 9.999085 
2.5032502e+3, 1.8295243e+2, -1119415.3, -990178.9, -58148.38, -0.21382634, 0.3200876, -967867.56, 179220.42, 0.00028139996, 9.999384, 10.001217 
2.502889e+3, 1.9294433e+2, -937073.06, -707863.5, -115492.87, -0.27851415, -0.12695903, -659763.5, 389388.3, 0.0000014559199, 9.999479, 10.002359 
2.5025296e+3, 2.029372e+2, -1111251.5, -1148493.8, -13704.526, -0.22414172, -0.29513612, -1106752.1, -155539.72, 0.0, 9.999264, 9.998825 
2.5021744e+3, 2.129331e+2, -958827.44, -1025207.06, 374.42615, -0.020420603, 0.006083988, -958825.3, -105567.03, 0.0, 9.999768, 9.998665 
2.5018194e+3, 2.2292754e+2, -952875.4, -1096437.0, 116959.766, 0.090891704, 0.25483015, -887426.2, -132108.33, 0.0, 9.999554, 9.997693 
2.5014648e+3, 2.3291823e+2, -798583.4, -899340.4, 151196.56, -0.08134323, 0.0871981, -689593.1, -32180.813, 0.0, 9.99972, 9.998215 
2.5011092e+3, 2.4290958e+2, -745060.6, -787564.75, -8564.335, -0.17526133, 0.011039704, -743399.9, -183901.17, 0.0, 9.999188, 9.998629 
2.5007522e+3, 2.5290245e+2, -525030.75, -509295.84, -91935.086, -0.13356823, -0.075425, -424892.2, 36673.957, 0.0, 9.999616, 9.999573 
2.5003955e+3, 2.628962e+2, -466752.66, -451132.63, -31821.143, -0.09441318, -0.035024736, -426177.1, -62552.848, 0.0, 9.999324, 9.999529 
2.500041e+3, 2.7289176e+2, -239870.81, -179592.39, -9024.796, -0.068204924, 0.05718492, -178270.22, 87394.58, 0.0, 9.9998045, 10.000424 
2.4996871e+3, 2.8288683e+2, -260084.45, -168899.52, -22077.494, -0.044212095, 0.14630312, -163835.4, 3874.7512, 0.0, 9.999051, 10.000248 
2.4993308e+3, 2.928807e+2, -74965.836, 82367.31, 15355.3125, -0.1639849, -0.007005434, 83851.94, 153620.06, 0.0, 9.999286, 10.0011015 
2.4989761e+3, 3.028742e+2, -341613.44, -456939.16, 69879.43, -0.15223838, 0.004822405, -308677.5, -308677.5, 0.0, 9.998946, 9.9973 
2.4986169e+3, 3.1286627e+2, -113090.125, -74236.75, 13409.308, -0.5733333, 0.016232658, -70058.234, -70058.234, 0.0, 9.999386, 9.999616 
2.5153944e+3, 1.233427e+2, -1624875.8, -1719674.6, -79866.98, -0.6635887, 0.05286542, -1579402.0, 151847.39, 0.39734322, 10.001298, 9.999425 
2.515041e+3, 1.3333744e+2, -1343883.0, -1449429.6, -152310.13, 0.1933164, 0.043209627, -1235462.6, 397845.34, 0.28406283, 10.00249, 10.000331 
2.5146785e+3, 1.4333424e+2, -1276046.8, -1442293.3, 13385.844, -0.08123524, 0.36362424, -1274975.8, 260367.39, 0.16993596, 10.002069, 9.999643 
2.514321e+3, 1.533265e+2, -1156952.9, -1244022.9, 52955.66, -0.23461595, 0.12239599, -1131934.3, 305483.16, 0.078587286, 10.001666, 10.000433 
2.5139627e+3, 1.6332008e+2, -1199042.0, -1246317.8, -56130.164, -0.31801987, 0.076368704, -1161775.5, 177704.4, 0.024857625, 10.000673, 10.000175 
2.5136027e+3, 1.7331578e+2, -1148734.3, -1123845.8, -13945.144, -0.3254572, 0.17503954, -1117599.8, 123924.984, 0.0041356636, 10.000177, 10.00053 
2.513243e+3, 1.8331069e+2, -1140219.5, -1056204.6, -52460.477, -0.32286784, 0.2534176, -1031005.5, 112567.91, 0.00018434241, 9.999487, 10.000697 
2.5128832e+3, 1.9330454e+2, -993048.25, -869062.7, -98319.5, -0.17852394, 0.12054286, -814823.7, 230800.28, 0.00000026313862, 9.999652, 10.001177 
2.5125247e+3, 2.0329745e+2, -1015850.0, -1088194.6, -8562.667, -0.11496438, 0.03307321, -1014850.4, -67164.4, 0.0, 9.999847, 9.99895 
2.512168e+3, 2.1328928e+2, -822074.94, -939221.3, 39470.016, -0.09992074, -0.08234987, -810017.4, 39746.91, 0.0, 10.000586, 9.99889 
2.5118124e+3, 2.2328135e+2, -701283.9, -909340.8, 149258.72, -0.1061439, -0.093919314, -623378.06, 128463.57, 0.0, 10.000914, 9.998344 
2.5114587e+3, 2.3327339e+2, -644008.1, -785382.9, 184077.13, -0.12790415, -0.15686268, -517512.6, 136408.53, 0.0, 10.000528, 9.998645 
2.5111037e+3, 2.4326618e+2, -591336.6, -767106.7, 40528.027, -0.16741413, -0.08334357, -582442.0, -26447.443, 0.0, 10.000398, 9.998194 
2.510746e+3, 2.5326005e+2, -414523.66, -594055.5, -28781.434, -0.17145087, 0.05341084, -410022.47, 48037.285, 0.0, 10.000852, 9.998451 
2.5103894e+3, 2.632536e+2, -222217.39, -372484.7, 5860.562, -0.18952948, 0.16471452, -221989.17, 138135.58, 0.0, 10.00106, 9.999266 
2.5100347e+3, 2.7324677e+2, -121985.62, -209427.73, 6239.447, -0.18955311, 0.103019185, -121542.64, 140646.44, 0.0, 10.000868, 9.999776 
2.50968e+3, 2.8324023e+2, -73864.58, -137273.98, -75484.18, -0.15732887, 0.10178777, -23697.123, 140554.2, 0.0, 10.000449, 9.999825 
2.509325e+3, 2.9323417e+2, -68144.68, -44791.33, -152707.52, -0.07934245, 0.055131767, 96685.29, 162996.14, 0.0, 9.999705, 10.000108 
2.508971e+3, 3.0322814e+2, -132421.31, -159391.16, -121785.375, -0.0009068223, 0.094066836, -23376.566, -23376.566, 0.0, 9.999358, 9.999189 
2.5086144e+3, 3.13221e+2, 126285.81, 185555.0, -69413.51, -0.23757556, 0.013133716, 231395.19, 231395.19, 0.0, 10.000132, 10.001139 
2.525395e+3, 1.2369955e+2, -1647903.8, -1613066.8, -49800.45, -0.072720274, -0.067214675, -1577726.5, 150026.55, 0.3720952, 10.0, 10.0011 
2.525036e+3, 1.3369516e+2, -1544661.8, -1524638.0, -45527.594, 0.21537592, -0.0078636855, -1488034.5, 141764.84, 0.26429757, 10.0002985, 10.000663 
2.5246748e+3, 1.4369124e+2, -1509001.9, -1545790.6, 92129.305, 0.06375786, 0.22500767, -1433448.6, 98391.98, 0.15642525, 10.000129, 9.999761 
2.5243157e+3, 1.5368386e+2, -1387758.5, -1394049.4, 87130.08, -0.22159557, 0.05591779, -1303717.1, 130196.55, 0.071005836, 10.000187, 10.000022 
2.523956e+3, 1.6367768e+2, -1279247.9, -1245073.1, -43805.367, -0.3546273, 0.056140747, -1215140.4, 120834.88, 0.021693112, 9.999967, 10.000529 
2.523596e+3, 1.736735e+2, -1189530.8, -1073196.3, -107636.77, -0.37392756, 0.124157354, -1009015.25, 229002.98, 0.00335279, 9.999707, 10.001089 
2.5232363e+3, 1.8366891e+2, -1187158.9, -1182196.9, -140499.02, -0.29091674, 0.25181162, -1044156.94, 95904.94, 0.00011963712, 9.999586, 9.999788 
2.5228775e+3, 1.936633e+2, -960928.3, -985387.9, -167789.0, -0.109879, 0.25931677, -804924.0, 237186.42, 0.00000002568285, 10.000392, 10.000019 
2.5225192e+3, 2.0365602e+2, -920571.75, -1102690.6, -29472.27, -0.015165259, 0.22894487, -915921.06, 28254.658, 0.0, 10.0007305, 9.998434 
2.522162e+3, 2.1364546e+2, -742387.25, -923006.7, -33589.48, -0.14027776, -0.13072084, -736342.94, 109931.016, 0.0, 10.001183, 9.998717 
2.521806e+3, 2.2363622e+2, -748485.0, -933540.4, 48463.863, -0.18440995, -0.27402863, -736561.1, 11799.388, 0.0, 10.000678, 9.998263 
2.521453e+3, 2.3362947e+2, -682501.6, -781879.7, 45569.168, -0.14120688, -0.2654389, -664770.0, -14344.15, 0.0, 10.000215, 9.998808 
2.5210983e+3, 2.4362317e+2, -754047.75, -950947.25, -41695.887, -0.12952417, -0.07636544, -745582.1, -193091.6, 0.0, 9.999819, 9.997209 
2.5207403e+3, 2.5361735e+2, -457879.84, -703507.94, -50917.4, -0.19451402, 0.15152405, -447743.28, 6813.5728, 0.0, 10.001037, 9.997582 
2.5203836e+3, 2.6361057e+2, -367506.97, -563234.4, -1945.3016, -0.2432825, 0.32535365, -367487.63, -10858.997, 0.0, 10.000704, 9.9980955 
2.520028e+3, 2.736018e+2, -400556.22, -419015.66, -39.47205, -0.27382764, 0.12148624, -400556.13, -141843.6, 0.0, 9.999418, 9.9989605 
2.519673e+3, 2.8359348e+2, -535097.0, -542664.5, -52644.57, -0.23865746, 0.05982098, -486100.34, -325306.63, 0.0, 9.998226, 9.998074 
2.5193185e+3, 2.9358643e+2, -352834.7, -339404.1, -80066.984, -0.07521992, 0.05060253, -265771.3, -202905.3, 0.0, 9.998575, 9.998571 
2.518966e+3, 3.0358115e+2, -244342.02, -86678.02, -9273.122, 0.17701234, 0.21202534, -86134.49, -86134.49, 0.0, 9.998207, 10.000194 
2.5186083e+3, 3.1357217e+2, -71029.94, 313039.13, 40457.715, -0.28867444, -0.2848081, 317254.66, 317254.66, 0.0, 9.998091, 10.002895 
2.5353906e+3, 1.2406194e+2, -1730569.4, -1616711.1, -136168.97, 0.0488676, 0.06010118, -1526049.9, 198153.64, 0.34545994, 9.999245, 10.001435 
2.5350273e+3, 1.3405588e+2, -1616884.8, -1632105.8, -25491.838, -0.09989876, 0.030217402, -1597891.6, 28369.574, 0.24384509, 10.000085, 9.999766 
2.534668e+3, 1.4404944e+2, -1647280.9, -1679893.9, 119032.266, -0.028851785, 0.09503621, -1543443.4, -15117.669, 0.14280653, 9.999503, 9.999048 
2.5343114e+3, 1.5404344e+2, -1446917.3, -1467432.3, 122024.65, -0.070150845, 0.118570305, -1334719.8, 95669.03, 0.06363834, 10.000039, 9.999537 
2.5339526e+3, 1.6403759e+2, -1365750.0, -1411906.5, -58573.125, -0.13792638, 0.23206533, -1325872.5, 6578.1055, 0.0187796, 9.999926, 9.999382 
2.5335905e+3, 1.740317e+2, -1259521.5, -1246693.4, -112672.51, -0.27271748, 0.25148398, -1140252.5, 94260.13, 0.0026956536, 9.999778, 9.999882 
2.5332296e+3, 1.8402518e+2, -1181165.5, -1215641.9, -131435.86, -0.35874015, 0.272899, -1065842.3, 70732.91, 0.00007576087, 9.999808, 9.999433 
2.5328705e+3, 1.9401729e+2, -913207.56, -1002695.9, -138307.84, -0.30747175, 0.09377304, -812586.3, 226056.17, 0.00000000011876218, 10.000873, 9.999671 
2.5325128e+3, 2.0400977e+2, -841367.2, -1115579.8, -30046.95, -0.24838832, 0.08626367, -838113.44, 102598.33, 0.0, 10.001485, 9.997965 
2.5321576e+3, 2.1400234e+2, -667883.3, -962311.2, -34752.27, -0.166536, 0.113785304, -663837.0, 178950.48, 0.0, 10.001987, 9.998062 
2.5318024e+3, 2.2399473e+2, -593976.94, -867536.6, -31227.398, -0.17217654, 0.17242317, -590457.56, 154404.36, 0.0, 10.001722, 9.998219 
2.531447e+3, 2.3398711e+2, -623953.7, -795993.75, -40355.906, -0.20056471, 0.13944285, -614957.7, 31975.582, 0.0, 10.000726, 9.998503 
2.531092e+3, 2.4397923e+2, -530784.1, -699124.25, -66502.56, -0.22329679, 0.13163644, -507682.63, 41326.055, 0.0, 10.000632, 9.998571 
2.530736e+3, 2.5397107e+2, -222364.55, -463657.66, -11296.282, -0.21830656, 0.022717843, -221836.86, 229252.97, 0.0, 10.002037, 9.99878 
2.5303793e+3, 2.639639e+2, -148910.39, -403249.78, -61800.75, -0.22830173, 0.072494835, -134688.9, 218473.38, 0.0, 10.001876, 9.998652 
2.530022e+3, 2.739575e+2, -441644.63, -456292.13, -57970.555, -0.1877058, 0.12834685, -390537.03, -135309.44, 0.0, 9.9991, 9.9989 
2.529666e+3, 2.839506e+2, -515909.34, -395577.22, 24268.547, -0.13555156, 0.1681128, -390867.1, -233571.36, 0.0, 9.997701, 9.999331 
2.5293112e+3, 2.939432e+2, -290101.1, -223296.52, 74103.1, -0.061190873, 0.06728548, -175415.47, -116048.06, 0.0, 9.998542, 9.999434 
2.5289577e+3, 3.0393648e+2, -208091.23, -222855.84, 113351.14, 0.08597851, 0.12117471, -101882.26, -101882.26, 0.0, 9.998972, 9.998955 
2.5286004e+3, 3.139289e+2, -110054.68, 62754.617, 32122.393, -0.31380287, 0.032210946, 68532.46, 68532.46, 0.0, 9.99854, 10.001097 
2.5453869e+3, 1.24420315e+2, -1716963.3, -1466147.5, -70818.01, 0.40457046, 0.10470115, -1447533.5, 273160.63, 0.31815657, 9.998288, 10.003252 
2.5450218e+3, 1.3441505e+2, -1476320.0, -1605942.3, -167491.89, -0.07082457, 0.16246217, -1361537.1, 261209.0, 0.22319712, 10.001495, 9.999434 
2.544662e+3, 1.444078e+2, -1264453.5, -1457281.1, -52195.41, -0.09986224, 0.13633238, -1251231.6, 273586.2, 0.12934339, 10.002178, 9.9993925 
2.5443056e+3, 1.544023e+2, -1456909.1, -1479794.6, -23016.693, -0.006977917, 0.18810387, -1442647.6, -15774.122, 0.05657354, 9.999895, 9.999571 
2.5439474e+3, 1.6439648e+2, -1523671.1, -1535452.4, -78956.51, 0.028338898, 0.32448515, -1450385.8, -121451.516, 0.016116831, 9.998996, 9.998993 
2.5435853e+3, 1.7438976e+2, -1219484.0, -1312965.3, -92470.914, -0.16081697, 0.3030815, -1162612.0, 68393.42, 0.0021455006, 10.000346, 9.999171 
2.543224e+3, 1.8438204e+2, -1058160.3, -1198173.3, -32777.094, -0.28615117, 0.26358578, -1050867.0, 82211.56, 0.000046550977, 10.000811, 9.999084 
2.5428644e+3, 1.9437276e+2, -930850.75, -1051015.1, -50635.723, -0.34236068, -0.026954705, -912359.06, 122797.52, 0.0, 10.000915, 9.999337 
2.5425076e+3, 2.0436491e+2, -982616.0, -1306723.8, 70937.24, -0.27913687, 0.017058741, -967770.06, -30538.674, 0.0, 10.001109, 9.99681 
2.542154e+3, 2.143588e+2, -740407.94, -1110666.4, -943.59607, -0.13253453, 0.2715756, -740405.5, 98896.9, 0.0, 10.002045, 9.996989 
2.5417984e+3, 2.2435182e+2, -638030.56, -928255.75, -40710.04, -0.08912393, 0.4727696, -632428.25, 108945.98, 0.0, 10.00165, 9.997836 
2.541441e+3, 2.3434336e+2, -699130.75, -847033.06, -35682.117, -0.21902522, 0.36460248, -690972.3, -47521.25, 0.0, 10.000364, 9.998299 
2.5410855e+3, 2.4433476e+2, -706888.8, -699994.75, 18288.625, -0.2516511, 0.2719084, -684831.1, -139300.89, 0.0, 9.999185, 9.999214 
2.5407308e+3, 2.543253e+2, -566637.44, -517275.25, 29624.982, -0.2367704, -0.09048592, -503397.34, -55779.098, 0.0, 9.999254, 9.999711 
2.5403744e+3, 2.643179e+2, -608129.25, -623573.6, -139992.08, -0.18469918, -0.106975794, -475646.53, -125956.38, 0.0, 9.998833, 9.998568 
2.540016e+3, 2.743133e+2, -574456.94, -499319.66, -132283.73, -0.0691714, 0.08695121, -399373.25, -147632.7, 0.0, 9.9982, 9.9990015 
2.5396588e+3, 2.843082e+2, -489982.3, -329318.28, 54020.043, 0.00091317086, 0.28437087, -312844.3, -159052.77, 0.0, 9.997754, 9.999741 
2.5393036e+3, 2.9430133e+2, -188088.06, -62287.26, 63732.26, -0.062010143, 0.11626582, -35642.914, 20210.994, 0.0, 9.998891, 10.000321 
2.5389484e+3, 3.0429205e+2, -469742.28, -647038.4, 76135.61, -0.12531142, -0.0015052109, -441535.25, -441535.25, 0.0, 9.998629, 9.996158 
2.538591e+3, 3.1428495e+2, -478568.63, -237661.94, 64185.887, -0.4974819, 0.16791184, -221627.78, -221627.78, 0.0, 9.996751, 9.999835 
2.5553748e+3, 1.2477415e+2, -2035396.4, -1858907.5, 18813.855, -0.09850696, -0.012490213, -1856924.1, -139693.3, 0.29081753, 9.997758, 9.999943 
2.5550187e+3, 1.3477245e+2, -1444297.1, -1570778.5, -23686.924, 0.069654755, 0.40446046, -1440006.8, 179249.9, 0.2027681, 10.001704, 9.999466 
2.5546557e+3, 1.4476573e+2, -1203039.5, -1306616.8, -130147.91, -0.38072532, 0.37546325, -1114754.8, 406568.3, 0.11625642, 10.002101, 10.000558 
2.5542974e+3, 1.5475963e+2, -1409680.5, -1331523.1, -89843.76, -0.21393673, 0.23978311, -1272627.1, 150748.38, 0.04988728, 9.999703, 10.000698 
2.553939e+3, 1.647535e+2, -1507339.5, -1469956.0, -22930.545, -0.11692887, 0.27186516, -1459064.1, -133630.61, 0.013707004, 9.998886, 9.999489 
2.55358e+3, 1.7474678e+2, -1146175.4, -1215754.3, 5762.845, -0.1399539, 0.20587851, -1145701.3, 81801.48, 0.0016894786, 10.000596, 9.999716 
2.5532207e+3, 1.847395e+2, -959365.3, -1115533.4, -12508.517, -0.17305025, 0.17416173, -958369.75, 171198.8, 0.000027889511, 10.001347, 9.999379 
2.5528616e+3, 1.9473128e+2, -872033.75, -1009307.06, -5206.315, -0.14839937, -0.019823564, -871836.6, 159797.22, 0.0, 10.001259, 9.999456 
2.5525045e+3, 2.0472237e+2, -1026420.3, -1521271.6, 139850.33, -0.14019202, 0.0077338587, -989632.06, -55910.97, 0.0, 10.001606, 9.995105 
2.5521505e+3, 2.1471259e+2, -756188.4, -1331748.0, 77473.02, -0.13696721, 0.08817322, -745942.5, 89891.164, 0.0, 10.002777, 9.995149 
2.551794e+3, 2.247038e+2, -428083.0, -706098.1, -76091.45, -0.15742563, 0.1512701, -408619.7, 329303.3, 0.0, 10.0025425, 9.998931 
2.551436e+3, 2.3469585e+2, -549478.7, -685764.06, -33882.168, -0.21060614, 0.025169257, -541520.0, 98470.07, 0.0, 10.000965, 9.999129 
2.5510785e+3, 2.4468912e+2, -649378.06, -672345.94, 18231.584, -0.2849774, 0.07916897, -639315.0, -97262.47, 0.0, 9.999495, 9.999276 
2.5507218e+3, 2.5468314e+2, -774611.25, -670070.7, 8145.414, -0.3760024, 0.12659103, -669439.8, -225324.81, 0.0, 9.99794, 9.999342 
2.550365e+3, 2.6467648e+2, -683485.75, -505626.7, -122965.22, -0.31506538, 0.13486195, -442803.44, -96623.17, 0.0, 9.997555, 10.0000305 
2.5500083e+3, 2.7466935e+2, -436337.7, -324152.78, -81108.79, -0.04639131, 0.0023318853, -281629.8, -33383.71, 0.0, 9.998583, 10.000077 
2.5496522e+3, 2.8466326e+2, -248169.13, -331695.1, 116219.68, 0.0015284282, 0.09678431, -166436.53, -16129.246, 0.0, 9.999785, 9.998794 
2.549296e+3, 2.9465765e+2, 21722.012, -140915.61, 47404.34, -0.24214405, 0.22378866, 34530.35, 86898.836, 0.0, 10.000954, 9.998859 
2.5489417e+3, 3.0464906e+2, 7178.1113, -137894.36, -45834.113, -0.19060723, 0.12064977, 20445.555, 20445.555, 0.0, 10.000548, 9.9987955 
2.5485814e+3, 3.146406e+2, -262118.86, -54353.098, 20519.953, -0.5986197, -0.003254693, -52345.84, -52345.84, 0.0, 9.997642, 10.000762 
2.5653705e+3, 1.2513353e+2, -1827102.8, -1816342.0, -58375.832, 0.23040703, 0.22786336, -1763099.1, -49386.57, 0.26403108, 9.999309, 9.999567 
2.5650126e+3, 1.3512956e+2, -1744815.3, -1740027.5, 85734.445, -0.022249296, 0.446544, -1656653.5, -40893.867, 0.18292536, 9.999391, 9.999382 
2.56465e+3, 1.4512287e+2, -1485025.4, -1421624.6, -122986.336, -0.43587005, 0.42670795, -1326318.9, 191505.69, 0.1037245, 9.999749, 10.000834 
2.564292e+3, 1.5511598e+2, -1289692.8, -1278235.5, -187555.58, -0.106858894, 0.19117926, -1096321.1, 323560.78, 0.043632858, 10.000481, 10.000737 
2.5639337e+3, 1.6510963e+2, -1262693.0, -1324935.9, -55488.77, 0.034536522, 0.18117078, -1230194.1, 91746.305, 0.011545959, 10.000497, 9.999675 
2.563575e+3, 1.7510323e+2, -1164796.1, -1223306.1, -88150.68, -0.08891051, 0.12161631, -1101172.8, 122833.01, 0.0013158798, 10.000495, 9.999688 
2.5632167e+3, 1.8509637e+2, -1035022.9, -1166261.0, -140678.22, -0.07672605, 0.13233407, -945412.4, 180654.98, 0.000016496271, 10.000952, 9.999213 
2.5628588e+3, 1.9508894e+2, -818441.2, -1025542.9, -175655.56, 0.04425827, 0.021586623, -718086.06, 310040.28, 0.0, 10.001827, 9.999092 
2.562502e+3, 2.0507951e+2, -1100251.3, -1602368.3, 63541.42, 0.06141297, 0.038210984, -1092335.0, -162115.14, 0.0, 10.001368, 9.994656 
2.5621468e+3, 2.1506779e+2, -1195682.0, -1602124.4, 124993.05, -0.06492578, -0.04014815, -1160319.6, -327968.56, 0.0, 10.000089, 9.994585 
2.5617898e+3, 2.2505811e+2, -790244.7, -839811.56, -19110.613, -0.120364316, -0.047002144, -783732.2, -49284.55, 0.0, 9.999934, 9.999236 
2.561431e+3, 2.3505014e+2, -629402.94, -697815.56, -51932.215, -0.15921934, -0.2214407, -601423.8, 35088.348, 0.0, 10.00034, 9.99932 
2.561072e+3, 2.4504448e+2, -670694.5, -750990.3, -17689.213, -0.26072168, -0.033056132, -666970.3, -128404.016, 0.0, 9.999726, 9.998596 
2.5607127e+3, 2.550407e+2, -749569.8, -728309.4, -40838.27, -0.4754887, 0.2684944, -696740.5, -256126.39, 0.0, 9.9985, 9.99865 
2.560356e+3, 2.650347e+2, -550970.75, -359755.13, -84447.44, -0.37265548, 0.34987843, -327800.3, 14872.199, 0.0, 9.99824, 10.000635 
2.5600013e+3, 2.7502573e+2, -232961.17, -146092.31, -84409.336, -0.006713319, -0.077262305, -94597.9, 150150.55, 0.0, 9.999725, 10.000705 
2.5596455e+3, 2.850182e+2, -429033.3, -626402.8, 107275.375, -0.036181964, -0.05649122, -381955.63, -235130.55, 0.0, 9.99955, 9.996836 
2.559288e+3, 2.9501265e+2, -490286.03, -591935.25, 100622.266, -0.4790175, 0.21787353, -428380.94, -379483.53, 0.0, 9.998418, 9.996921 
2.558936e+3, 3.0500665e+2, -141228.47, 46578.39, -101507.79, -0.16678236, 0.37245423, 90956.14, 90956.14, 0.0, 9.998607, 10.000899 
2.558577e+3, 3.1500444e+2, -174345.39, 61900.55, 95382.94, -0.23052487, 0.557982, 95602.945, 95602.945, 0.0, 9.998226, 10.001144 
2.5753617e+3, 1.2549037e+2, -1819271.3, -1662099.1, -34704.49, -0.00007937667, 0.24421352, -1654777.3, 55440.152, 0.23823552, 9.998765, 10.00094 
2.5750023e+3, 1.3548522e+2, -1751928.5, -1674214.5, 78440.53, -0.38240182, 0.25839642, -1625534.3, -13268.404, 0.16394834, 9.999106, 9.99992 
2.5746435e+3, 1.4547826e+2, -1620372.6, -1580145.9, -88188.23, -0.43477553, 0.24184528, -1509806.4, 4524.0117, 0.09188186, 9.999274, 9.99986 
2.5742906e+3, 1.5547042e+2, -1361308.1, -1406933.6, -120018.46, 0.31823543, 0.002396188, -1261953.6, 154447.9, 0.03784501, 10.000414, 9.999849 
2.573932e+3, 1.6546398e+2, -1281138.8, -1384258.6, -73985.46, 0.37398517, 0.05866237, -1242519.6, 75943.97, 0.009625426, 10.0006485, 9.999162 
2.5735685e+3, 1.7545812e+2, -1208723.1, -1320158.4, -81010.22, -0.1766139, 0.11450753, -1166119.3, 54405.313, 0.0010124295, 10.000538, 9.998992 
2.5732097e+3, 1.8545161e+2, -1060107.1, -1240146.4, -130776.87, -0.26574016, 0.2289983, -991362.4, 131226.4, 0.000009793076, 10.001052, 9.998647 
2.572855e+3, 1.9544436e+2, -802465.3, -1090764.9, -140855.53, 0.06009948, 0.21001762, -745072.44, 279584.7, 0.0, 10.002229, 9.998452 
2.572499e+3, 2.0543629e+2, -828449.6, -1106419.4, -29864.303, 0.1541777, 0.22581163, -825277.3, 101458.58, 0.0, 10.001624, 9.997941 
2.572142e+3, 2.1542728e+2, -1019227.06, -1177447.8, 110365.43, 0.08114289, 0.119957134, -962547.2, -133719.89, 0.0, 9.999778, 9.997671 
2.5717843e+3, 2.2541878e+2, -880035.8, -993402.2, 74718.93, -0.038417425, 0.12977609, -842932.56, -112022.93, 0.0, 9.99972, 9.998297 
2.5714254e+3, 2.3541053e+2, -598330.94, -820521.75, 29971.164, -0.1742402, 0.06045864, -594359.1, 38625.69, 0.0, 10.001034, 9.998179 
2.5710663e+3, 2.4540243e+2, -459574.72, -626416.1, -45670.363, -0.28912947, 0.04926409, -447891.28, 87170.84, 0.0, 10.001017, 9.998845 
2.570707e+3, 2.553945e+2, -522488.22, -621893.6, -36061.145, -0.39447454, -0.035359927, -510784.38, -73642.65, 0.0, 9.999986, 9.998702 
2.5703502e+3, 2.6538804e+2, -295927.22, -334696.28, -14587.81, -0.32817522, 0.041648895, -291051.4, 48153.344, 0.0, 10.00032, 9.999813 
2.5699958e+3, 2.7538204e+2, 10446.444, -160192.73, -61872.5, -0.07666748, 0.038396597, 30519.637, 271779.78, 0.0, 10.001843, 9.9996195 
2.5696394e+3, 2.8537565e+2, -147547.44, -288296.03, -31911.232, -0.07785528, 0.123113215, -140650.34, 2675.9868, 0.0, 10.000519, 9.99871 
2.569281e+3, 2.953692e+2, -608512.1, -493421.13, 61410.984, -0.30796024, 0.19353944, -466807.28, -421407.53, 0.0, 9.996805, 9.99842 
2.5689283e+3, 3.0536142e+2, -324842.94, -52020.14, 125191.41, -0.085379325, 0.098187454, -3280.3655, -3280.3655, 0.0, 9.9972315, 10.000934 
2.5685704e+3, 3.1535637e+2, 300402.25, 294550.25, 306442.13, -0.38077074, 0.08774943, 603932.3, 603932.3, 0.0, 10.001192, 10.001393 
2.5853565e+3, 1.2584364e+2, -1516091.3, -1511106.5, -31638.729, 0.044097695, 0.20874074, -1481862.1, 224897.63, 0.21373183, 10.000866, 10.001276 
2.5849965e+3, 1.3583948e+2, -1313073.5, -1387238.3, -112568.41, -0.37043023, 0.18062456, -1231637.0, 377154.7, 0.14603193, 10.001889, 10.000882 
2.5846395e+3, 1.4583293e+2, -1299785.3, -1432688.3, -199412.1, -0.26136693, 0.14573331, -1156044.0, 354806.47, 0.080827504, 10.001675, 9.999774 
2.5842863e+3, 1.558258e+2, -1254804.0, -1402068.8, -227895.1, 0.4330159, -0.001687891, -1088941.3, 323976.75, 0.032553293, 10.001395, 9.999411 
2.5839272e+3, 1.6581912e+2, -1179938.4, -1357181.9, -126158.68, 0.42736915, 0.04990555, -1114385.4, 200597.72, 0.007938516, 10.001399, 9.998987 
2.5835633e+3, 1.7581284e+2, -1120581.1, -1314735.1, -123386.234, -0.16788818, 0.07625754, -1060661.0, 156385.6, 0.00076767127, 10.001298, 9.998659 
2.5832048e+3, 1.858065e+2, -1071141.4, -1268308.5, -74309.48, -0.23269568, 0.23619187, -1046272.0, 72839.74, 0.000005913737, 10.001096, 9.998423 
2.5828505e+3, 1.957997e+2, -1064878.9, -1226820.1, -70003.41, 0.12085225, 0.27582133, -1038813.5, -17631.213, 0.0, 10.000533, 9.998304 
2.5824946e+3, 2.0579287e+2, -814559.7, -909513.75, -33510.785, 0.24460539, 0.33977842, -803924.4, 119324.02, 0.0, 10.000908, 9.999634 
2.582137e+3, 2.1578571e+2, -657401.4, -826544.0, -50379.44, 0.17777652, 0.21479638, -643532.9, 181781.5, 0.0, 10.001498, 9.999251 
2.5817788e+3, 2.2577824e+2, -782547.5, -1010134.75, -21285.89, 0.046752375, 0.2777412, -780573.75, -53187.793, 0.0, 10.000814, 9.997622 
2.5814202e+3, 2.3577017e+2, -889631.6, -1034582.44, -16567.598, -0.14678264, 0.27718338, -887762.06, -258296.61, 0.0, 9.999496, 9.99742 
2.5810614e+3, 2.457605e+2, -683134.0, -735775.9, -74256.336, -0.23201194, 0.14946729, -630671.75, -99114.95, 0.0, 9.999599, 9.998736 
2.580702e+3, 2.557492e+2, -512320.84, -639714.5, -72905.05, -0.25112882, -0.2959257, -479206.34, -45545.06, 0.0, 10.000259, 9.998411 
2.5803453e+3, 2.657422e+2, -440293.5, -552151.0, 27436.457, -0.22749321, -0.17991652, -433926.3, -98196.234, 0.0, 10.000033, 9.998459 
2.57999e+3, 2.7573857e+2, -440098.97, -507483.38, -5060.9517, -0.16508195, 0.14697309, -439720.97, -201949.31, 0.0, 9.999418, 9.998378 
2.5796333e+3, 2.8573358e+2, -257465.67, -127936.4, -113537.984, -0.07624035, 0.34486663, -61990.156, 77832.62, 0.0, 9.998945, 10.000534 
2.5792748e+3, 2.9572672e+2, -334194.16, -173557.19, -55577.973, -0.041126393, 0.15032537, -156202.9, -114312.586, 0.0, 9.997986, 10.00002 
2.5789195e+3, 3.057161e+2, -265149.2, -62896.96, 221076.55, -0.103765845, -0.2774344, 79084.58, 79084.58, 0.0, 9.997947, 10.000469 
2.578569e+3, 3.157152e+2, 28619.92, 446903.2, 66736.8, -0.010125244, 0.1135947, 457292.9, 457292.9, 0.0, 9.998302, 10.003797 
2.5953513e+3, 1.2619647e+2, -1514851.1, -1407681.9, -16832.486, -0.024324672, 0.33128923, -1405100.3, 298209.06, 0.19077115, 10.000447, 10.0022745 
2.5949955e+3, 1.3619241e+2, -1294019.3, -1278353.3, -73156.81, -0.07383128, 0.19987492, -1212611.3, 392725.5, 0.12932457, 10.00157, 10.001846 
2.5946367e+3, 1.4618672e+2, -1301299.0, -1387287.0, -219040.45, -0.11965258, 0.18688789, -1121073.0, 386315.03, 0.07062259, 10.001482, 10.000172 
2.5942767e+3, 1.5618159e+2, -1239563.4, -1359791.9, -203149.97, -0.089249656, 0.21271014, -1087820.0, 321618.38, 0.027766839, 10.001366, 9.9997015 
2.5939178e+3, 1.6617465e+2, -1120923.3, -1246383.4, -123140.01, -0.07839262, 0.18937817, -1045455.9, 266048.5, 0.0064744665, 10.001474, 9.999701 
2.59356e+3, 1.7616642e+2, -1039421.25, -1207634.9, -86840.33, -0.090972, -0.03902719, -1002634.7, 210947.17, 0.0005723583, 10.001534, 9.999293 
2.593202e+3, 1.8615982e+2, -988081.5, -1116679.5, -93197.15, -0.051509436, 0.015772954, -939154.75, 176489.98, 0.0000035552432, 10.001182, 9.999423 
2.5928444e+3, 1.9615377e+2, -1024623.44, -1135273.4, -31540.293, 0.04144469, 0.05448014, -1016264.44, 1438.8331, 0.0, 10.000448, 9.998997 
2.5924876e+3, 2.0614709e+2, -841558.3, -1052452.9, 36030.918, 0.010701844, 0.16526508, -835572.4, 84199.33, 0.0, 10.001274, 9.998484 
2.5921312e+3, 2.1613984e+2, -486898.78, -867064.8, -25176.23, -0.08877287, 0.1817471, -485238.75, 336608.4, 0.0, 10.003137, 9.998223 
2.5917733e+3, 2.2613268e+2, -473293.75, -693944.4, -159890.55, -0.11750228, 0.23561454, -389359.78, 334558.06, 0.0, 10.002187, 9.99913 
2.5914142e+3, 2.3612532e+2, -777221.56, -849943.5, -82538.57, -0.114703506, 0.18515721, -723389.75, -97401.055, 0.0, 9.999633, 9.998642 
2.5910562e+3, 2.4611768e+2, -631653.94, -700192.1, -21597.541, -0.11221869, 0.19429636, -625415.94, -97354.61, 0.0, 9.999825, 9.998893 
2.590699e+3, 2.5610942e+2, -291677.03, -529106.5, -19528.879, -0.102298446, 0.07133667, -290081.47, 140057.67, 0.0, 10.0016575, 9.998529 
2.590341e+3, 2.661014e+2, -294581.8, -448436.63, -45466.145, -0.11857739, 0.052027468, -282150.4, 50066.0, 0.0, 10.000843, 9.998792 
2.589983e+3, 2.760938e+2, -578816.5, -562401.6, -23303.182, -0.11271947, 0.01765062, -545902.8, -311612.16, 0.0, 9.998318, 9.99857 
2.5896254e+3, 2.8608835e+2, -311433.63, -210325.9, -47927.76, -0.1194821, 0.17594081, -191217.98, -54872.05, 0.0, 9.998728, 10.000093 
2.5892672e+3, 2.9608336e+2, 86141.05, -20936.465, -88431.5, -0.211287, 0.24829915, 135977.95, 174374.69, 0.0, 10.0009575, 9.999683 
2.5889125e+3, 3.0607432e+2, 96036.67, 96772.4, 19293.291, -0.13050416, -0.018025976, 115701.33, 115701.33, 0.0, 10.00039, 10.000448 
2.5885594e+3, 3.1606826e+2, -481063.3, -423144.44, -255032.86, -0.13290468, -0.07450488, -195432.1, -195432.1, 0.0, 9.9973345, 9.998349 
2.605346e+3, 1.2655276e+2, -1200668.4, -1390002.1, 145429.55, -0.17440355, 0.22442168, -1121808.4, 578004.56, 0.16949552, 10.003687, 10.00081 
2.6049915e+3, 1.3654843e+2, -1408158.8, -1400017.0, 54801.258, 0.04251661, 0.197837, -1349135.6, 252711.33, 0.11391175, 10.000977, 10.001149 
2.604632e+3, 1.4654301e+2, -1388023.4, -1392147.9, -45857.863, -0.041747585, 0.23656562, -1344181.4, 159715.83, 0.061296463, 10.0006485, 10.00049 
2.6042703e+3, 1.5653807e+2, -1175423.3, -1313789.8, -59467.93, -0.25344688, 0.2692404, -1153377.4, 252569.03, 0.023481611, 10.001718, 9.999841 
2.6039118e+3, 1.6653134e+2, -1101122.5, -1194227.3, -7676.9414, -0.20735915, 0.25209722, -1100493.8, 207516.53, 0.005220199, 10.001404, 10.000131 
2.6035556e+3, 1.7652315e+2, -1226189.4, -1276436.8, -29055.283, 0.0397464, 0.00850406, -1212902.0, -2815.3955, 0.00041937284, 10.000142, 9.999525 
2.6031977e+3, 1.8651581e+2, -1014457.1, -1096854.4, -20866.268, 0.06929632, -0.03180254, -1009474.25, 102679.75, 0.0000020172258, 10.000871, 9.999698 
2.6028383e+3, 1.9650893e+2, -775928.25, -1020663.06, -44768.65, -0.03212723, -0.10626986, -767995.94, 246221.27, 0.0, 10.002195, 9.99893 
2.602481e+3, 2.0650224e+2, -914724.4, -1146373.4, 87362.46, -0.13114439, 0.041876476, -885471.25, 30816.139, 0.0, 10.001078, 9.99791 
2.602125e+3, 2.1649534e+2, -1218104.6, -1273715.8, 84971.79, -0.22173236, 0.14502203, -1156504.6, -338139.88, 0.0, 9.99844, 9.997657 
2.6017672e+3, 2.2648853e+2, -860583.3, -768809.44, -67928.945, -0.17259996, 0.21677624, -732721.06, -12288.027, 0.0, 9.999067, 10.000115 
2.6014084e+3, 2.3648138e+2, -642988.56, -710635.6, -50570.035, -0.018268874, 0.08243093, -615973.25, 6526.761, 0.0, 10.000274, 9.999278 
2.6010513e+3, 2.4647541e+2, -555639.25, -692106.5, 78852.766, 0.023261888, 0.2571789, -519596.4, 4962.5073, 0.0, 10.00053, 9.998597 
2.6006952e+3, 2.564698e+2, -549552.3, -697722.5, 21415.154, 0.0015053854, 0.40839455, -546519.25, -119903.29, 0.0, 10.000131, 9.998105 
2.600336e+3, 2.664607e+2, -423668.16, -490517.94, -112094.055, -0.032713536, 0.29885444, -340121.7, -11419.976, 0.0, 9.99997, 9.998897 
2.5999758e+3, 2.764493e+2, -494451.88, -554442.6, -76970.35, -0.05106212, -0.15353987, -441838.78, -211031.25, 0.0, 9.999122, 9.998221 
2.5996175e+3, 2.8644297e+2, -415811.63, -396609.75, 34321.082, -0.15455267, 0.014559406, -370572.03, -237701.14, 0.0, 9.998682, 9.998818 
2.5992596e+3, 2.964396e+2, -420539.6, -416119.78, -10851.951, -0.40198374, 0.35040426, -407255.0, -372345.22, 0.0, 9.99825, 9.998245 
2.598906e+3, 3.0643246e+2, -251637.31, -106320.586, -8336.3125, -0.17959681, 0.3707697, -105843.93, -105843.93, 0.0, 9.998313, 9.999977 
2.5985524e+3, 3.164217e+2, -597456.06, -371001.63, -212140.17, 0.060366977, -0.11792315, -243762.94, -243762.94, 0.0, 9.996255, 9.999175 
2.615343e+3, 1.2691371e+2, -1367794.6, -1569345.4, 42482.05, -0.28271976, 0.23442811, -1359206.4, 337054.3, 0.14988421, 10.00284, 9.999667 
2.6149845e+3, 1.3690764e+2, -1574860.4, -1702223.9, 9102.818, -0.16856602, 0.23538005, -1574213.1, 24108.59, 0.09979623, 10.000733, 9.999 
2.6146263e+3, 1.4690143e+2, -1387838.4, -1343729.8, 12909.592, -0.10494624, 0.26916608, -1340229.3, 160152.0, 0.05285716, 10.000477, 10.000901 
2.6142684e+3, 1.5689489e+2, -1191855.0, -1328925.9, 14992.486, -0.03639107, 0.12504208, -1190234.3, 212208.81, 0.019694533, 10.001629, 9.999786 
2.613909e+3, 1.6688977e+2, -1113362.6, -1190961.0, -38944.46, -0.03291347, 0.27344534, -1097188.6, 207305.39, 0.004163879, 10.001309, 10.000169 
2.613549e+3, 1.7688477e+2, -1268613.8, -1327570.1, -10281.288, -0.05263719, 0.35898668, -1266872.3, -60327.566, 0.00030229846, 10.000008, 9.999218 
2.613191e+3, 1.8687625e+2, -1024614.94, -1188672.9, 72540.29, -0.12093497, 0.26179963, -997141.2, 111483.98, 0.0000010444409, 10.001151, 9.998936 
2.6128334e+3, 1.9686607e+2, -661783.44, -1027094.3, 25341.41, -0.23568968, -0.048724733, -660033.9, 350686.47, 0.0, 10.003168, 9.99844 
2.6124755e+3, 2.0685957e+2, -742888.75, -854063.2, -38577.668, -0.24032801, 0.02922122, -730813.75, 181971.5, 0.0, 10.001315, 9.999807 
2.6121166e+3, 2.1685457e+2, -1245501.8, -1121036.0, 58062.81, -0.21204025, 0.16208008, -1098155.9, -283316.7, 0.0, 9.997474, 9.999177 
2.6117605e+3, 2.2684826e+2, -916006.06, -793225.06, 117425.76, -0.077029765, 0.21713825, -722110.44, -5210.43, 0.0, 9.998599, 10.000203 
2.6114053e+3, 2.368411e+2, -396835.9, -624748.9, 111228.05, 0.110099636, 0.110012814, -351551.2, 267415.25, 0.0, 10.00198, 9.99909 
2.6110467e+3, 2.4683365e+2, -411542.4, -723097.1, 55614.86, -0.0049524414, 0.19740397, -401912.4, 119132.086, 0.0, 10.001891, 9.9977455 
2.6106864e+3, 2.56826e+2, -578593.2, -800937.0, 11963.809, -0.26653552, 0.27393603, -577951.3, -154823.27, 0.0, 10.0002, 9.997402 
2.6103285e+3, 2.6681817e+2, -313787.25, -384764.13, -59369.426, -0.20895486, 0.28690585, -280108.1, 45095.605, 0.0, 10.000413, 9.99944 
2.6099712e+3, 2.7680975e+2, -110189.29, -326143.7, -27649.818, 0.006309644, 0.12166209, -106705.34, 120574.88, 0.0, 10.001455, 9.998701 
2.609613e+3, 2.8680205e+2, -254419.36, -330752.28, 5703.8306, 0.026438551, 0.13042122, -253995.5, -124639.836, 0.0, 9.999775, 9.998763 
2.6092532e+3, 2.967953e+2, -598217.3, -464598.4, 31075.555, -0.1299143, 0.18945496, -457724.8, -426300.2, 0.0, 9.996785, 9.998643 
2.608896e+3, 3.0679074e+2, -345323.7, 77857.21, 190738.98, -0.3009168, 0.3208239, 151138.45, 151138.45, 0.0, 9.996525, 10.002146 
2.6085392e+3, 3.1678608e+2, -465611.75, -543218.1, -166406.33, -0.37368655, 0.3030158, -333544.38, -333544.38, 0.0, 9.997959, 9.997194 
2.6253402e+3, 1.2727067e+2, -1365315.8, -1660944.5, -100110.46, -0.284322, 0.009926876, -1334605.1, 358145.28, 0.13183987, 10.003241, 9.998706 
2.6249793e+3, 1.3726564e+2, -1351670.1, -1671044.1, -125147.5, -0.22939582, 0.22104487, -1308473.4, 286336.0, 0.08692974, 10.002754, 9.998266 
2.624621e+3, 1.4725871e+2, -1144356.4, -1254933.5, -31275.852, -0.12624104, 0.20916684, -1136123.3, 360752.6, 0.045284748, 10.00224, 10.000736 
2.6242647e+3, 1.572508e+2, -1186012.6, -1342303.5, -78426.5, 0.053189978, -0.055938117, -1153444.8, 245502.83, 0.01638905, 10.0016775, 9.999705 
2.6239046e+3, 1.672463e+2, -1022225.25, -1184522.6, -130877.03, 0.044157464, 0.16431716, -949380.75, 351613.9, 0.0032885466, 10.002095, 9.999846 
2.6235437e+3, 1.7724295e+2, -931756.44, -1206249.3, -120379.09, -0.053994343, 0.44460323, -886444.06, 316589.47, 0.00021471751, 10.002479, 9.998887 
2.6231858e+3, 1.872347e+2, -969427.44, -1161853.1, 59603.313, -0.13824806, 0.3725828, -952461.4, 152652.19, 0.00000047553752, 10.001511, 9.998957 
2.6228297e+3, 1.9722418e+2, -1173564.1, -1273855.4, 41557.926, -0.20252703, 0.026779981, -1158581.9, -151369.42, 0.0, 9.999688, 9.998424 
2.62247e+3, 2.0721763e+2, -883435.8, -826535.44, -123577.34, -0.20826337, 0.053904496, -728175.6, 181100.13, 0.0, 9.999964, 10.000643 
2.6221094e+3, 2.172129e+2, -851203.94, -866709.2, -102268.47, -0.15954044, 0.11261362, -756394.6, 54928.227, 0.0, 9.99995, 9.999731 
2.6217544e+3, 2.2720708e+2, -685899.7, -674980.1, 107613.414, 0.022247858, 0.18173337, -572688.06, 140688.73, 0.0, 10.000221, 10.000209 
2.6214018e+3, 2.3720041e+2, -743569.5, -840833.6, 70589.01, 0.25765896, 0.10232422, -706481.8, -91044.234, 0.0, 9.999915, 9.998577 
2.6210412e+3, 2.4719189e+2, -802829.8, -986784.6, -27879.396, -0.02765811, 0.14689709, -798697.3, -281167.53, 0.0, 9.99962, 9.996992 
2.6206774e+3, 2.571824e+2, -933144.0, -1061866.4, -14135.08, -0.50742006, 0.09891066, -931610.06, -511973.06, 0.0, 9.998251, 9.996524 
2.6203206e+3, 2.671762e+2, -508033.03, -440223.97, 20674.64, -0.35509259, 0.29069814, -434417.56, -112718.16, 0.0, 9.998968, 9.999717 
2.619967e+3, 2.7717113e+2, -383818.84, -470653.84, 1891.6005, 0.08500833, 0.4084412, -383777.66, -160033.17, 0.0, 9.999715, 9.998513 
2.6196077e+3, 2.8716207e+2, -381690.84, -373015.25, -81688.91, 0.18178475, 0.28968486, -295549.06, -169717.88, 0.0, 9.998939, 9.998833 
2.619246e+3, 2.971513e+2, -635359.5, -458965.94, -11828.218, 0.097908944, -0.09351325, -458176.34, -430240.06, 0.0, 9.996528, 9.99879 
2.6188853e+3, 3.0715013e+2, -223270.42, 414223.7, 200569.8, -0.37619457, 0.23095039, 472077.13, 472077.13, 0.0, 9.996283, 10.0045395 
2.6185298e+3, 3.1714988e+2, -543574.75, -382373.03, 142190.66, -0.5304836, 0.39605355, -299527.63, -299527.63, 0.0, 9.996781, 9.99883 
2.6353377e+3, 1.2762572e+2, -1501446.9, -1774194.8, -143798.78, -0.2917261, -0.20975268, -1439639.3, 249622.0, 0.11528824, 10.00242, 9.998297 
2.6349756e+3, 1.3762173e+2, -1439660.3, -1775726.3, -114415.8, -0.28784475, 0.12251753, -1404405.1, 186911.81, 0.07524984, 10.002356, 9.997727 
2.6346156e+3, 1.4761415e+2, -1198641.8, -1304654.9, -48295.56, -0.3041416, 0.0852382, -1179939.5, 313448.3, 0.038529176, 10.002002, 10.000454 
2.6342574e+3, 1.57605e+2, -1227935.6, -1398722.1, -63227.742, -0.261909, -0.2840556, -1207075.6, 188391.55, 0.013527696, 10.001577, 9.999345 
2.6338992e+3, 1.6759901e+2, -1019936.5, -1234374.0, -104339.46, -0.14714292, -0.17011504, -977547.2, 319982.38, 0.0025719018, 10.002339, 9.999385 
2.6335406e+3, 1.775943e+2, -848926.94, -1157808.4, -96016.29, -0.05531112, 0.014412589, -821513.2, 378071.06, 0.00015054179, 10.002993, 9.998973 
2.633183e+3, 1.8758926e+2, -837135.06, -909121.0, -40141.46, 0.023216689, 0.15406884, -819213.0, 282421.94, 0.0000001940375, 10.001607, 10.000644 
2.632825e+3, 1.9758351e+2, -1190361.9, -1171834.3, 23699.783, 0.041641675, 0.13066612, -1155652.1, -151962.27, 0.0, 9.999043, 9.99945 
2.632465e+3, 2.0757565e+2, -988792.7, -1024241.94, -49840.742, -0.06901154, 0.06745481, -953618.75, -47852.277, 0.0, 9.999891, 9.999304 
2.6321042e+3, 2.1756734e+2, -599487.44, -836966.9, -57826.453, -0.23307656, -0.0925325, -586155.1, 221692.77, 0.0, 10.002022, 9.998946 
2.631749e+3, 2.2756143e+2, -449100.28, -521688.7, 17361.092, -0.07110817, -0.031689737, -445161.7, 264740.53, 0.0, 10.001624, 10.000608 
2.6313952e+3, 2.3755626e+2, -657474.6, -723325.9, -3214.0347, 0.17151111, 0.015173919, -657318.1, -45369.715, 0.0, 10.000092, 9.999323 
2.6310343e+3, 2.4754947e+2, -797433.9, -848042.8, -82100.89, -0.017236006, 0.11958764, -736826.4, -222803.17, 0.0, 9.999016, 9.998249 
2.6306707e+3, 2.5754184e+2, -862868.6, -885062.06, 11815.292, -0.38163528, 0.15064299, -857756.1, -441645.34, 0.0, 9.998039, 9.997847 
2.6303133e+3, 2.6753545e+2, -571067.4, -496639.06, 88494.0, -0.30972123, 0.27910298, -437852.78, -119675.16, 0.0, 9.998553, 9.999571 
2.629959e+3, 2.7752963e+2, -393535.38, -452872.22, 38409.3, -0.044715565, 0.3635671, -374670.4, -154435.55, 0.0, 9.999418, 9.998817 
2.629599e+3, 2.875215e+2, -314711.7, -281521.4, -106520.88, 0.037318695, 0.28671536, -190310.72, -68000.95, 0.0, 9.999017, 9.99947 
2.6292366e+3, 2.9751226e+2, -339631.3, -225633.36, -3008.14, -0.006313645, 0.024232784, -225554.05, -201159.73, 0.0, 9.998016, 9.999723 
2.6288766e+3, 3.075077e+2, -106197.84, 339765.16, 155079.6, -0.35043094, 0.02229364, 388390.78, 388390.78, 0.0, 9.997525, 10.003509 
2.628527e+3, 3.1750956e+2, -442197.75, -29548.182, -106568.36, 0.19660115, 0.5505197, -3651.6667, -3651.6667, 0.0, 9.995947, 10.001747 
2.6453346e+3, 1.2798262e+2, -1663980.5, -1881397.1, -142981.28, -0.14005995, -0.29842886, -1593075.0, 92687.84, 0.10017185, 10.001119, 9.998252 
2.6449713e+3, 1.3797931e+2, -1480621.4, -1775834.1, -115283.04, -0.2927487, 0.13038895, -1440937.0, 146874.75, 0.06469282, 10.0019245, 9.997949 
2.644611e+3, 1.4797167e+2, -1175246.5, -1328267.5, -20905.375, -0.32586506, 0.086105175, -1172441.9, 317441.94, 0.032530583, 10.002299, 10.000133 
2.6442528e+3, 1.579621e+2, -1165700.9, -1393996.1, -64110.664, -0.28288236, -0.2845982, -1148929.3, 243039.25, 0.011066901, 10.002095, 9.999131 
2.6438943e+3, 1.6795534e+2, -1216443.1, -1303714.8, -35189.39, -0.1538852, -0.2614575, -1204022.0, 90014.77, 0.0019930317, 10.000844, 9.999633 
2.6435363e+3, 1.7794965e+2, -1432412.1, -1423880.6, -7426.636, 0.007477097, -0.1763968, -1419581.9, -223483.11, 0.00010503105, 9.998882, 9.999155 
2.643178e+3, 1.8794605e+2, -1092928.4, -912242.2, 5347.049, 0.09359675, 0.04207791, -912084.06, 186051.72, 0.00000008640195, 9.999449, 10.001594 
2.6428193e+3, 1.9794282e+2, -1025769.25, -1064637.3, -13957.618, 0.1564628, 0.18690698, -1021276.4, -21108.94, 0.0, 10.000132, 9.999633 
2.6424596e+3, 2.0793414e+2, -926935.7, -1094666.0, 42150.965, -0.00093207636, 0.08749, -916938.9, -14685.965, 0.0, 10.000748, 9.99842 
2.6420996e+3, 2.179237e+2, -885986.0, -1076829.0, 39636.496, -0.20302203, -0.19448432, -878081.25, -73725.945, 0.0, 10.000497, 9.998059 
2.641743e+3, 2.2791761e+2, -616011.1, -579616.9, 56222.01, -0.11157281, -0.12792364, -538720.44, 167691.39, 0.0, 10.000407, 10.00077 
2.6413876e+3, 2.3791307e+2, -805010.75, -782704.56, -467.2034, 0.086952396, -0.048321057, -782694.8, -174242.39, 0.0, 9.99907, 9.999406 
2.641027e+3, 2.4790771e+2, -726373.3, -670797.1, -69749.31, -0.0041103307, 0.12245983, -623504.3, -112993.24, 0.0, 9.998934, 9.999489 
2.6406643e+3, 2.5790176e+2, -851165.6, -821167.4, 15607.724, -0.18682949, 0.18806893, -814519.94, -401940.6, 0.0, 9.997927, 9.998343 
2.640307e+3, 2.6789495e+2, -585366.4, -516859.53, 142082.94, -0.20993024, 0.26755303, -404959.4, -90306.805, 0.0, 9.998617, 9.999358 
2.6399508e+3, 2.778878e+2, -557044.9, -579827.75, 67303.7, -0.15495063, 0.22574711, -500175.38, -283448.34, 0.0, 9.998608, 9.998324 
2.6395902e+3, 2.8788117e+2, -314307.0, -198850.97, -101653.22, -0.11742243, 0.27689824, -139677.73, -20893.234, 0.0, 9.998762, 10.000114 
2.639227e+3, 2.978745e+2, -395645.97, -275483.13, 14741.577, -0.14666918, 0.19898652, -273701.06, -252862.64, 0.0, 9.99784, 9.999442 
2.6388672e+3, 3.0786428e+2, -155772.22, 105445.875, 177830.23, -0.42888305, -0.2502218, 195477.53, 195477.53, 0.0, 9.998217, 10.001488 
2.6385123e+3, 3.1786022e+2, -701181.7, -675779.7, -71206.23, -0.31812626, -0.12441804, -616150.6, -616150.6, 0.0, 9.996586, 9.99694 
2.6553306e+3, 1.2834133e+2, -1741963.1, -1852224.9, -122699.39, -0.08320618, -0.18417744, -1662578.0, 19675.707, 0.086430125, 10.0004, 9.998722 
2.654966e+3, 1.3833821e+2, -1506356.0, -1773010.3, -40788.387, -0.39473465, 0.19886073, -1500256.4, 84039.055, 0.055199515, 10.00167, 9.998077 
2.6546076e+3, 1.4833136e+2, -1225637.8, -1379306.6, 7789.999, -0.30228162, 0.24142502, -1225243.9, 261121.31, 0.027235242, 10.002102, 9.999838 
2.654251e+3, 1.5832299e+2, -1181231.8, -1384545.9, -38324.855, -0.102190025, 0.018863054, -1174247.4, 214199.02, 0.0089680515, 10.001922, 9.999271 
2.6538897e+3, 1.6831718e+2, -1172315.8, -1119378.4, -89728.1, -0.06402777, 0.041589584, -1052296.4, 238204.56, 0.0015322798, 10.000512, 10.001027 
2.653528e+3, 1.7831194e+2, -1461982.3, -1350572.8, 13128.198, -0.10549691, 0.050828777, -1349046.8, -156496.61, 0.00007382683, 9.998301, 9.999934 
2.6531684e+3, 1.8830648e+2, -1170952.4, -1043895.9, 105516.086, -0.19975148, 0.11162279, -984259.6, 110343.29, 0.000000036839044, 9.999302, 10.000768 
2.65281e+3, 1.9830091e+2, -923500.56, -1050623.1, 61680.633, -0.3215565, 0.1100726, -898492.44, 98164.695, 0.0, 10.000942, 9.999344 
2.6524523e+3, 2.0829366e+2, -803305.5, -965585.06, 49677.67, -0.2601253, 0.12228761, -789305.7, 109424.87, 0.0, 10.0013, 9.999029 
2.6520944e+3, 2.182858e+2, -764619.06, -954698.25, 92162.43, -0.20575804, 0.052031662, -727271.2, 73539.04, 0.0, 10.000998, 9.998664 
2.6517367e+3, 2.2827926e+2, -613839.56, -608413.2, 81719.305, -0.17849012, 0.06590537, -529362.0, 173511.56, 0.0, 10.000495, 10.000549 
2.651379e+3, 2.3827328e+2, -646182.7, -679141.56, 39433.055, -0.16267736, 0.038898636, -619924.1, -14993.695, 0.0, 9.999938, 9.999723 
2.6510185e+3, 2.4826722e+2, -554420.5, -502413.2, -32808.21, -0.14977777, 0.0775844, -486553.16, 20438.043, 0.0, 9.999669, 10.000327 
2.6506576e+3, 2.582611e+2, -564123.9, -589240.25, 70889.0, -0.15929615, 0.0769894, -504689.28, -95635.65, 0.0, 9.999384, 9.999259 
2.6503015e+3, 2.6825488e+2, -442587.78, -447416.25, 193675.03, -0.072067834, 0.17896931, -251311.94, 59808.402, 0.0, 9.999517, 9.999431 
2.6499462e+3, 2.7824855e+2, -326337.9, -369757.1, 112258.9, 0.05946942, 0.22620586, -233708.69, -20521.059, 0.0, 9.999646, 9.999297 
2.6495838e+3, 2.8824225e+2, -70118.89, 14060.101, -42189.426, -0.062450197, 0.21303013, 31564.844, 146804.69, 0.0, 9.999897, 10.001103 
2.649218e+3, 2.9823607e+2, -27435.951, -40850.414, 92483.84, -0.34206918, 0.12899525, 58583.56, 75871.09, 0.0, 9.999982, 10.000058 
2.648861e+3, 3.082257e+2, -1327.1829, -555.8589, 244406.13, -0.3551303, -0.25386837, 243464.9, 243464.9, 0.0, 9.9999275, 9.999991 
2.6485068e+3, 3.1822398e+2, -162963.47, -431810.6, 60360.914, -0.14927192, 0.28863692, -150033.25, -150033.25, 0.0, 10.000135, 9.996963 
2.665327e+3, 1.2870236e+2, -1275925.1, -1483723.8, -141522.19, -0.013681849, 0.093674384, -1204258.0, 474470.25, 0.07399981, 10.003087, 10.000046 
2.6649618e+3, 1.3869712e+2, -1629853.4, -1780922.6, -50949.27, -0.27657527, 0.16177036, -1614276.5, -33496.938, 0.046711504, 10.000482, 9.998613 
2.664603e+3, 1.486909e+2, -1604036.3, -1631536.1, 27998.72, -0.21385898, 0.2951545, -1586593.4, -103746.23, 0.022592498, 9.999728, 9.999266 
2.664246e+3, 1.5868425e+2, -1573226.1, -1589544.5, -71962.73, -0.0033418944, 0.30622876, -1508961.5, -124042.875, 0.0071954923, 9.999248, 9.999194 
2.6638845e+3, 1.6867827e+2, -1090012.6, -1031404.7, -158229.39, 0.014233384, 0.27772585, -899788.6, 387182.28, 0.001170623, 10.000827, 10.001517 
2.663522e+3, 1.7867258e+2, -944380.6, -1097127.8, -113326.24, -0.028470023, 0.18728907, -884094.94, 304923.1, 0.00005271245, 10.001858, 9.999969 
2.6631612e+3, 1.8866567e+2, -946454.8, -1040057.75, 17225.207, -0.3016756, 0.1488291, -943385.56, 147698.22, 0.000000014947995, 10.001255, 9.999883 
2.6628017e+3, 1.9865866e+2, -1153058.6, -1230576.1, -43546.805, -0.54591805, 0.07612501, -1133520.1, -140367.25, 0.0, 9.999688, 9.998732 
2.662445e+3, 2.0865257e+2, -1042272.25, -1007570.4, -57362.27, -0.37397552, 0.16919096, -964992.3, -69776.67, 0.0, 9.999432, 9.999588 
2.6620895e+3, 2.1864668e+2, -1144075.6, -1124309.6, -37143.12, -0.10623372, 0.22736262, -1095757.1, -298480.1, 0.0, 9.998451, 9.998684 
2.6617303e+3, 2.2864036e+2, -842833.9, -724026.4, -8233.516, -0.17423996, 0.25311375, -723458.5, -24117.457, 0.0, 9.999047, 10.000389 
2.6613712e+3, 2.3863375e+2, -844162.0, -798777.6, -52841.855, -0.2794058, 0.15539019, -763961.56, -162554.9, 0.0, 9.998781, 9.999435 
2.661011e+3, 2.4862713e+2, -547855.94, -440249.8, -126312.38, -0.22390409, 0.10617732, -356759.06, 146709.39, 0.0, 9.999535, 10.000802 
2.660651e+3, 2.5862053e+2, -627381.0, -614654.0, -42595.95, -0.12671791, -0.0056311176, -577948.9, -172419.6, 0.0, 9.999044, 9.999229 
2.660296e+3, 2.6861495e+2, -503472.0, -432507.34, 119000.414, 0.047166716, 0.12911604, -343812.0, -36224.938, 0.0, 9.999064, 9.999674 
2.6599413e+3, 2.7860954e+2, -538507.94, -461932.4, 67187.97, 0.25438955, 0.21862687, -422888.56, -213244.19, 0.0, 9.998293, 9.999276 
2.6595777e+3, 2.8860343e+2, -33466.816, 126293.27, -109442.39, -0.02122728, 0.15800473, 181906.63, 293600.94, 0.0, 9.999893, 10.001799 
2.6592103e+3, 2.9859713e+2, -39201.156, -106665.4, -17336.19, -0.5296771, -0.0126326075, -35007.043, -21263.943, 0.0, 10.000314, 9.999409 
2.6588568e+3, 3.0858812e+2, -162654.3, -220959.05, 145929.39, -0.16906753, -0.16053653, -42993.883, -42993.883, 0.0, 9.999559, 9.998581 
2.6585034e+3, 3.185853e+2, -419918.66, -404975.03, 13799.752, 0.1333976, 0.32579526, -396754.16, -396754.16, 0.0, 9.997915, 9.99816 
2.6753232e+3, 1.2906449e+2, -1288305.4, -1257152.6, -264414.78, -0.11841658, 0.52722687, -1007855.8, 667341.0, 0.062782034, 10.00203, 10.002163 
2.674958e+3, 1.3905492e+2, -1678163.0, -1734529.3, -92718.41, -0.11210876, -0.025521634, -1609439.0, -32164.42, 0.039146993, 9.999906, 9.999206 
2.6745966e+3, 1.490496e+2, -1726337.9, -1789023.0, 15760.642, -0.19807424, 0.24399278, -1722598.4, -243262.39, 0.018543638, 9.999386, 9.998317 
2.6742372e+3, 1.5904477e+2, -1670458.5, -1720473.8, -26157.002, -0.23043278, 0.52682394, -1659278.1, -277883.06, 0.005710664, 9.998957, 9.99843 
2.673879e+3, 1.690371e+2, -1109203.9, -1099622.5, -71531.65, -0.033457283, 0.38507605, -1032721.3, 250739.42, 0.0008890518, 10.000972, 10.000955 
2.67352e+3, 1.7902903e+2, -857484.44, -1121588.3, -71175.41, 0.11351764, 0.11739234, -839524.2, 346002.84, 0.000037964888, 10.002737, 9.999362 
2.6731583e+3, 1.8902193e+2, -909653.56, -1091160.6, -66422.09, -0.15442048, 0.12073744, -887943.3, 199653.6, 0.0000000057994387, 10.001807, 9.999268 
2.6727962e+3, 1.9901516e+2, -1133088.8, -1220741.4, -97206.94, -0.4808628, 0.1297992, -1070285.1, -80618.97, 0.0, 9.99979, 9.998754 
2.6724392e+3, 2.0900887e+2, -1049707.9, -956142.5, -95675.98, -0.28383356, 0.16595551, -896423.94, -4694.9717, 0.0, 9.999123, 10.000107 
2.6720828e+3, 2.1900278e+2, -1048881.3, -1000172.9, -55290.637, -0.030133119, 0.15885694, -964110.4, -170320.36, 0.0, 9.998688, 9.999441 
2.6717246e+3, 2.2899823e+2, -823959.75, -690848.3, -13886.569, -0.051419936, 0.3178639, -689415.06, 6424.4683, 0.0, 9.999014, 10.000668 
2.671366e+3, 2.3899369e+2, -707780.94, -710517.2, -50784.695, -0.14488427, 0.4236354, -658345.94, -60457.086, 0.0, 9.999529, 9.999706 
2.6710057e+3, 2.4898687e+2, -473857.56, -460222.66, -154360.23, -0.13761379, 0.37500834, -312529.4, 187423.5, 0.0, 10.000207, 10.000376 
2.6706448e+3, 2.5897968e+2, -347966.44, -407721.3, -101543.06, -0.14278513, 0.23652218, -271996.53, 130022.484, 0.0, 10.000541, 9.999959 
2.6702875e+3, 2.6897305e+2, -309262.63, -179931.84, 26179.707, -0.12393741, 0.13778692, -174833.42, 129245.516, 0.0, 9.99964, 10.001163 
2.669931e+3, 2.789667e+2, -422300.66, -332365.1, 37886.02, -0.058803234, 0.02298848, -318532.78, -112395.41, 0.0, 9.998687, 9.999982 
2.669571e+3, 2.8896087e+2, -27366.422, -66600.31, -112908.875, -0.092648335, 0.083081745, 67616.98, 175807.86, 0.0, 10.000727, 10.0001 
2.6692086e+3, 2.9895493e+2, 351593.66, 82606.31, -166388.95, -0.27286038, 0.10097529, 431048.2, 441293.25, 0.0, 10.00287, 9.999515 
2.6688528e+3, 3.0894566e+2, 71882.3, 87370.98, -74275.66, 0.058360726, -0.20962791, 154304.92, 154304.92, 0.0, 10.000217, 10.000442 
2.6684928e+3, 3.189431e+2, -366846.3, -172010.81, 16822.021, -0.08721245, 0.15278092, -170569.08, -170569.08, 0.0, 9.997134, 10.000203 
2.685318e+3, 1.2942411e+2, -1574613.6, -1362124.6, -76796.49, -0.057766814, 0.42888147, -1337275.3, 334398.94, 0.05267765, 9.999579, 10.002652 
2.6849544e+3, 1.3941637e+2, -1330964.5, -1566446.8, -42740.2, 0.052821904, 0.04574931, -1323447.1, 250285.5, 0.03242507, 10.002304, 9.999219 
2.6845914e+3, 1.4940956e+2, -1302203.4, -1695852.9, 59440.223, -0.18166861, 0.23722887, -1293423.9, 182384.84, 0.015032841, 10.002756, 9.99733 
2.6842302e+3, 1.5940307e+2, -1200166.3, -1544101.0, 12110.617, -0.3293278, 0.4430128, -1199740.4, 178144.42, 0.0044764117, 10.002405, 9.997971 
2.6838735e+3, 1.6939527e+2, -927222.7, -1028838.3, 42732.027, -0.09010343, 0.3129671, -911641.8, 368308.97, 0.00066900725, 10.002328, 10.000779 
2.6835167e+3, 1.7938712e+2, -1038744.6, -1270563.8, 7859.707, 0.17269559, 0.07875404, -1038478.44, 143538.66, 0.000027210404, 10.001779, 9.998806 
2.683154e+3, 1.8937978e+2, -1123372.1, -1278226.5, -48123.066, -0.06255099, 0.13809079, -1109635.6, -25543.184, 0.000000001728097, 10.000727, 9.998508 
2.682791e+3, 1.9937295e+2, -1287247.8, -1322515.9, -73364.625, -0.31876633, 0.2124573, -1229427.6, -243262.38, 0.0, 9.998876, 9.998502 
2.6824334e+3, 2.0936613e+2, -904889.7, -822073.56, -13562.358, -0.15640418, 0.16022575, -819909.06, 68321.11, 0.0, 9.999838, 10.000686 
2.6820767e+3, 2.1935973e+2, -876770.9, -909539.6, 20452.756, 0.08468891, 0.08299969, -866949.06, -76657.98, 0.0, 9.999868, 9.999507 
2.6817182e+3, 2.2935605e+2, -740068.1, -652852.9, 47085.98, 0.033293746, 0.3226704, -632283.25, 60050.96, 0.0, 9.999621, 10.000629 
2.68136e+3, 2.3935272e+2, -945998.9, -892750.4, -14604.074, -0.040179238, 0.56084526, -889008.0, -294633.4, 0.0, 9.998267, 9.999057 
2.6809996e+3, 2.4934599e+2, -593417.0, -550719.25, -71098.13, -0.07104113, 0.5548689, -497833.9, -1394.1536, 0.0, 9.999662, 9.999919 
2.680639e+3, 2.5933856e+2, -471208.13, -500408.3, -46190.3, -0.11600286, 0.41662386, -437365.4, -38856.68, 0.0, 9.999955, 9.999565 
2.6802793e+3, 2.6933086e+2, -262181.2, -57315.195, -36873.047, -0.27101043, 0.153533, -50880.656, 249693.14, 0.0, 9.999589, 10.002001 
2.6799202e+3, 2.7932328e+2, -591724.3, -495548.97, -48849.957, -0.35616952, -0.16104506, -475089.28, -272451.1, 0.0, 9.997932, 9.999229 
2.6795647e+3, 2.8931776e+2, -346393.0, -422080.38, -67963.5, -0.1466735, 0.06706485, -306447.34, -201751.19, 0.0, 9.999459, 9.99824 
2.679208e+3, 2.993123e+2, -110980.4, -191505.11, -152472.9, 0.04297907, 0.27038488, 6456.4683, 13210.982, 0.0, 10.000024, 9.998983 
2.6788482e+3, 3.093022e+2, 4426.1563, 319148.47, -241091.42, 0.25467914, -0.27598363, 449689.38, 449689.38, 0.0, 9.998764, 10.002661 
2.6784799e+3, 3.192994e+2, -498747.4, -76660.26, 44547.348, -0.4744936, -0.16903794, -72009.94, -72009.94, 0.0, 9.995811, 10.001426 
2.6953116e+3, 1.2978214e+2, -1717435.0, -1513145.8, 6376.5645, -0.09663542, -0.0029628733, -1512946.9, 155208.16, 0.0436191, 9.999104, 10.001679 
2.6949498e+3, 1.3978149e+2, -1485920.8, -1771467.3, 45371.586, -0.014969561, 0.3913534, -1478884.8, 91268.516, 0.026486209, 10.00182, 9.99801 
2.6945874e+3, 1.4977013e+2, -1388004.5, -1839309.1, 79250.41, -0.26589125, 0.22971797, -1374492.4, 97778.125, 0.012009438, 10.002632, 9.996392 
2.694226e+3, 1.5975808e+2, -1194566.5, -1564755.4, 34859.316, -0.46605748, -0.04482575, -1191312.5, 183082.77, 0.003455713, 10.002558, 9.997742 
2.6938677e+3, 1.6975255e+2, -867059.2, -954183.4, 55011.133, -0.2999925, 0.01537435, -840450.94, 435989.06, 0.00049606664, 10.0025215, 10.001188 
2.6935095e+3, 1.7974776e+2, -1056001.9, -1324517.8, 19665.26, -0.15563126, 0.09800172, -1054569.3, 123908.07, 0.00001910138, 10.001835, 9.9984045 
2.6931474e+3, 1.8974e+2, -1200451.1, -1420610.1, -75822.74, -0.19570163, 0.1982224, -1176864.6, -96303.445, 0.0000000002885943, 10.000634, 9.997564 
2.6927847e+3, 1.9973221e+2, -1217838.3, -1279345.8, -26052.598, -0.27520752, 0.25449836, -1208286.6, -225640.42, 0.0, 9.999259, 9.998611 
2.6924276e+3, 2.097254e+2, -728958.0, -632276.75, 93811.55, -0.14635617, 0.12674938, -575083.4, 309622.06, 0.0, 10.000532, 10.001673 
2.692071e+3, 2.1971893e+2, -585834.7, -728352.6, 89414.22, -0.043931097, -0.02250484, -542757.56, 244002.8, 0.0, 10.001631, 9.9999 
2.6917097e+3, 2.2971298e+2, -677476.6, -713397.7, 35271.05, -0.23706816, 0.044059705, -655856.5, 32966.68, 0.0, 10.0004, 9.99986 
2.6913485e+3, 2.3970748e+2, -815637.6, -803015.25, 22811.936, -0.43031377, 0.13779445, -785657.56, -194774.38, 0.0, 9.998976, 9.999339 
2.690992e+3, 2.4970171e+2, -504340.06, -479029.47, 36041.336, -0.19761607, 0.20076191, -453486.13, 39455.332, 0.0, 10.000066, 10.000267 
2.6906356e+3, 2.5969547e+2, -301935.88, -476464.72, 25022.887, 0.024516206, 0.20020728, -298419.1, 96583.914, 0.0, 10.001241, 9.999139 
2.6902753e+3, 2.6968798e+2, -297004.84, -343942.72, -90679.37, -0.045911413, 0.14175941, -226806.61, 70269.03, 0.0, 10.000396, 9.999703 
2.6899153e+3, 2.7968067e+2, -439314.72, -469473.97, -130760.96, -0.14102909, 0.06895296, -322766.75, -123620.58, 0.0, 9.999052, 9.998896 
2.6895577e+3, 2.8967643e+2, -338233.75, -275991.34, -59813.367, -0.11729279, 0.32871157, -239687.25, -138494.69, 0.0, 9.998793, 9.999592 
2.6891997e+3, 2.9967195e+2, -268774.97, -203260.8, -120968.336, -0.07248705, 0.52828836, -110692.84, -107452.01, 0.0, 9.998543, 9.999623 
2.6888385e+3, 3.0965993e+2, -236040.25, 70417.125, -320141.9, 0.15513124, -0.1395552, 272110.78, 272110.78, 0.0, 9.997542, 10.001596 
2.6884714e+3, 3.1965733e+2, -261145.11, 95874.555, 24132.256, -0.37499335, 0.07308573, 97498.36, 97498.36, 0.0, 9.996973, 10.002091 
2.705307e+3, 1.3014467e+2, -1307751.6, -1524203.9, 5709.431, -0.038964253, 0.01225396, -1307601.1, 356994.16, 0.03554995, 10.002853, 9.999817 
2.704946e+3, 1.4014123e+2, -1429361.4, -1829497.8, -43186.25, 0.025825122, 0.3176615, -1424753.4, 141873.92, 0.021269772, 10.002484, 9.997348 
2.7045846e+3, 1.501304e+2, -1337004.1, -1761652.4, 71871.33, -0.17392722, 0.1770828, -1325169.8, 143567.72, 0.009415533, 10.002688, 9.996949 
2.7042234e+3, 1.6011862e+2, -1207506.4, -1557352.4, 81688.8, -0.32630876, -0.096681476, -1189372.0, 181483.86, 0.0026134893, 10.002367, 9.997908 
2.7038628e+3, 1.7011283e+2, -1082461.3, -1110583.5, 27509.658, -0.3595638, -0.03565839, -1065627.4, 207278.25, 0.0003600524, 10.001234, 10.000742 
2.7035022e+3, 1.8010798e+2, -1366717.8, -1486013.3, -48689.496, -0.33904707, 0.08237371, -1349368.6, -174422.08, 0.000012952271, 9.999768, 9.998288 
2.703141e+3, 1.9010034e+2, -1115915.1, -1341076.6, -23907.475, -0.23337159, 0.16372386, -1113404.6, -36376.695, 0.000000000007316074, 10.0011015, 9.997866 
2.70278e+3, 2.0009235e+2, -892618.5, -1127796.0, 129703.4, -0.12063908, 0.191897, -835135.6, 143977.36, 0.0, 10.001539, 9.998566 
2.7024227e+3, 2.1008559e+2, -682329.3, -609143.8, 182344.77, -0.08721957, 0.076685965, -459756.3, 421414.03, 0.0, 10.000883, 10.001658 
2.7020648e+3, 2.2007903e+2, -957678.2, -967300.3, 65454.65, -0.08778253, -0.071522996, -896858.0, -113633.39, 0.0, 9.999407, 9.999319 
2.7017015e+3, 2.3007125e+2, -800093.7, -821037.4, 9146.891, -0.40996763, -0.15197581, -796661.4, -111358.97, 0.0, 9.999867, 9.99931 
2.701339e+3, 2.4006386e+2, -837129.06, -899736.56, 62754.387, -0.6612022, -0.1974276, -798304.06, -210925.75, 0.0, 9.999269, 9.99852 
2.7009854e+3, 2.5005844e+2, -503129.4, -480714.06, 71570.91, -0.26896945, -0.082349606, -419478.6, 69956.61, 0.0, 10.000136, 10.000188 
2.7006316e+3, 2.600531e+2, -648214.75, -805241.9, -12734.089, 0.17739613, 0.02738194, -647188.8, -255697.13, 0.0, 9.999685, 9.997599 
2.7002716e+3, 2.7004582e+2, -550139.94, -687526.6, -84804.06, 0.18888415, 0.17166384, -509698.0, -216127.3, 0.0, 9.999725, 9.997608 
2.6999104e+3, 2.8003895e+2, -589093.9, -605831.3, -24417.754, 0.11095339, 0.30464712, -571650.56, -376004.94, 0.0, 9.998449, 9.998221 
2.6995504e+3, 2.900358e+2, -232029.6, -41767.05, 16556.22, -0.10012932, 0.5874665, -40337.113, 57343.527, 0.0, 9.998879, 10.001108 
2.6991898e+3, 3.0003187e+2, -380727.88, -306196.75, -115397.1, -0.2994376, 0.73625994, -222197.25, -222197.25, 0.0, 9.998106, 9.999117 
2.6988274e+3, 3.1001815e+2, -300552.63, -155999.28, -307887.53, -0.08386147, 0.023399018, 87981.28, 87981.28, 0.0, 9.998044, 9.999764 
2.698466e+3, 3.200154e+2, -300190.34, 134077.34, 220907.81, -0.07846174, 0.33293474, 226697.23, 226697.23, 0.0, 9.996663, 10.002483 
2.7153042e+3, 1.3050984e+2, -1595305.8, -1937681.9, -47886.855, -0.044656087, 0.43342215, -1588734.1, 72278.4, 0.028414978, 10.002108, 9.997267 
2.7149424e+3, 1.4049488e+2, -1509625.6, -1896226.3, -20321.45, -0.009214509, -0.24350649, -1508560.4, 54601.33, 0.016713178, 10.00211, 9.997042 
2.7145827e+3, 1.5049098e+2, -1213303.0, -1456903.6, 99161.91, -0.011733906, 0.14708695, -1178041.5, 287162.66, 0.0071980846, 10.002548, 9.99907 
2.7142227e+3, 1.6048671e+2, -1240569.0, -1566187.6, 76078.55, -0.07236197, 0.4636239, -1223670.8, 143578.86, 0.0019202423, 10.002147, 9.997938 
2.7138585e+3, 1.7047675e+2, -1242998.4, -1382815.4, -14369.469, -0.29400137, 0.23992448, -1241536.9, 27808.182, 0.00025324232, 10.000996, 9.998983 
2.7134946e+3, 1.8046708e+2, -1342263.0, -1392540.5, -28874.434, -0.4819673, -0.003979446, -1329117.4, -157681.72, 0.000008369746, 9.999568, 9.999031 
2.7131364e+3, 1.9046046e+2, -885973.4, -913640.2, 85524.47, -0.2181497, -0.054163087, -813170.75, 260323.42, 0.0, 10.001316, 10.000701 
2.712778e+3, 2.0045418e+2, -716091.94, -1001056.4, 200117.95, 0.0046754787, -0.06437109, -612915.06, 362636.34, 0.0, 10.002553, 9.998953 
2.7124184e+3, 2.104473e+2, -788033.8, -925857.06, 156553.6, -0.0076315, -0.012032336, -685896.2, 191724.34, 0.0, 10.00127, 9.999328 
2.7120584e+3, 2.204405e+2, -929835.75, -999490.7, 63606.406, -0.10384601, 0.017086335, -892146.1, -112457.8, 0.0, 9.999731, 9.998961 
2.711697e+3, 2.3043342e+2, -682123.25, -693299.9, 66486.76, -0.28989744, -0.025673533, -620990.4, 60767.387, 0.0, 10.000312, 10.000019 
2.711336e+3, 2.4042648e+2, -596578.7, -812762.94, 118534.1, -0.4574754, -0.04455285, -544251.9, 39574.973, 0.0, 10.000963, 9.99831 
2.7109796e+3, 2.5042015e+2, -533266.25, -686955.1, 76444.63, -0.28067306, 0.12173203, -501718.6, -15823.053, 0.0, 10.000704, 9.99852 
2.710623e+3, 2.6041377e+2, -533915.4, -692723.44, -34705.844, -0.0672454, 0.25943848, -526662.06, -138698.31, 0.0, 10.000141, 9.99815 
2.7102637e+3, 2.7040553e+2, -390568.88, -438741.56, -33190.227, 0.04126034, 0.17394741, -373646.16, -83603.11, 0.0, 9.999991, 9.99922 
2.7099034e+3, 2.803977e+2, -330704.8, -394938.9, 102620.81, 0.07911583, 0.101861745, -255292.63, -63173.676, 0.0, 9.999783, 9.99902 
2.709543e+3, 2.903931e+2, -146691.38, -105755.36, 108100.984, -0.16450734, 0.3084392, -16201.726, 77967.82, 0.0, 9.999885, 10.000206 
2.7091813e+3, 3.0038813e+2, -108106.87, -167885.83, -86198.31, -0.4430881, 0.44261938, -46762.97, -46762.97, 0.0, 9.99984, 9.999248 
2.7088183e+3, 3.1037745e+2, 3006.309, 3461.7031, -222988.72, -0.25325418, 0.034892898, 226222.83, 226222.83, 0.0, 9.999978, 9.999988 
2.70846e+3, 3.2037565e+2, -33355.383, 313247.28, 231051.4, 0.15358533, 0.4619562, 428767.88, 428767.88, 0.0, 9.998135, 10.00305 
2.725301e+3, 1.3086903e+2, -1465842.5, -1896753.0, -140614.78, 0.01963199, 0.39270452, -1424016.8, 233478.1, 0.022191126, 10.002981, 9.9972105 
2.7249387e+3, 1.4085323e+2, -1245825.8, -1683277.5, -53510.777, -0.007840217, -0.3436828, -1239375.3, 320276.97, 0.012784308, 10.003483, 9.997886 
2.7245793e+3, 1.5085158e+2, -1097668.1, -1266193.8, 23938.598, 0.029266289, 0.14546473, -1094333.8, 367337.72, 0.00532732, 10.002713, 10.000341 
2.7242196e+3, 1.6084984e+2, -1318907.8, -1606083.9, -55197.477, 0.07379951, 0.63209856, -1308663.8, 55027.855, 0.0013580795, 10.001617, 9.997933 
2.723854e+3, 1.7083898e+2, -1268988.4, -1508698.6, -110909.625, -0.17129737, 0.38762155, -1225545.6, 40254.38, 0.00016970174, 10.001345, 9.99795 
2.7234894e+3, 1.8082798e+2, -1183269.3, -1283892.8, -56790.69, -0.35696608, 0.07698862, -1157709.8, 10196.965, 0.0000049540654, 10.000533, 9.999318 
2.7231315e+3, 1.9082145e+2, -932940.94, -772238.3, -12406.303, -0.13993816, -0.09868783, -771286.2, 298670.25, 0.0, 10.000269, 10.002166 
2.7227738e+3, 2.0081557e+2, -1162240.9, -1253105.0, -15577.466, 0.11405012, -0.18460645, -1159644.6, -187641.66, 0.0, 9.999689, 9.998583 
2.7224135e+3, 2.1080899e+2, -903900.25, -1137224.6, -1170.5837, 0.0321309, -0.009060629, -903894.4, -29818.426, 0.0, 10.001222, 9.997855 
2.7220526e+3, 2.2080241e+2, -762092.8, -1016076.56, 13458.083, -0.069418736, 0.15951993, -761381.7, 14767.582, 0.0, 10.00137, 9.998055 
2.7216923e+3, 2.3079571e+2, -532411.56, -594571.75, -4291.32, -0.15452334, 0.14918566, -532116.75, 146097.48, 0.0, 10.001295, 10.000204 
2.7213326e+3, 2.4078909e+2, -812414.0, -1018925.9, 8420.012, -0.21511921, 0.16421239, -812071.25, -231792.48, 0.0, 10.000045, 9.997309 
2.7209738e+3, 2.5078171e+2, -670040.75, -887628.0, 24539.408, -0.2808568, 0.32123542, -667307.5, -184948.86, 0.0, 10.000439, 9.997227 
2.720615e+3, 2.607742e+2, -599397.8, -741136.56, -32456.633, -0.28100124, 0.43779558, -592319.1, -207881.81, 0.0, 9.99984, 9.997975 
2.720256e+3, 2.7076522e+2, -237296.19, -182551.42, -81195.836, -0.11179458, 0.14393523, -124238.27, 162276.11, 0.0, 10.0003395, 10.000792 
2.7198964e+3, 2.8075662e+2, -429274.5, -500281.97, 877.5928, 0.02177088, -0.12099265, -429263.66, -240674.06, 0.0, 9.999433, 9.998469 
2.7195355e+3, 2.9075018e+2, -393310.78, -370105.7, 29800.053, -0.23983838, -0.018238926, -349729.13, -259069.52, 0.0, 9.998861, 9.998852 
2.719173e+3, 3.007442e+2, -520750.1, -446489.13, -133959.9, -0.5729542, 0.117838375, -344609.1, -344609.1, 0.0, 9.997451, 9.998465 
2.7188104e+3, 3.107373e+2, -187003.63, -20651.121, -262422.94, -0.35096136, 0.035743773, 171461.72, 171461.72, 0.0, 9.998465, 10.000484 
2.7184525e+3, 3.2073408e+2, -165790.84, 228605.73, 20040.639, 0.20640023, 0.2561765, 229621.45, 229621.45, 0.0, 9.997498, 10.002703 
2.735297e+3, 1.3122414e+2, -1459405.8, -1686482.6, -141527.56, -0.08568505, 0.15668549, -1391502.6, 262519.78, 0.016854003, 10.002258, 9.998929 
2.7349344e+3, 1.4121653e+2, -1287875.9, -1614240.5, -46372.914, -0.20789173, 0.052283883, -1281414.6, 274681.03, 0.009467282, 10.0028715, 9.998621 
2.7345735e+3, 1.5121111e+2, -1114441.9, -1227558.3, 6898.1763, -0.20205803, 0.11404355, -1114022.8, 344126.84, 0.0037924994, 10.0024395, 10.00071 
2.734213e+3, 1.6120578e+2, -1354787.0, -1609448.8, -65554.77, -0.1556998, 0.2162953, -1338902.8, 21300.98, 0.0009170214, 10.001352, 9.9980135 
2.7338502e+3, 1.711991e+2, -1266370.3, -1494713.0, -94115.195, -0.07797851, 0.3858065, -1232579.6, 29695.102, 0.0001065257, 10.001345, 9.998028 
2.7334872e+3, 1.8119195e+2, -1168706.1, -1320148.9, -54452.652, -0.07204823, 0.4755311, -1151160.0, 13186.99, 0.0000025959862, 10.00083, 9.998915 
2.7331257e+3, 1.9118348e+2, -1040722.75, -962482.56, -54720.926, -0.09495417, 0.20570706, -934336.3, 132083.3, 0.0, 10.000088, 10.000974 
2.7327654e+3, 2.0117566e+2, -1172018.9, -1226443.0, -19818.795, -0.13042457, 0.0148813585, -1165566.6, -197078.92, 0.0, 9.999451, 9.998878 
2.732407e+3, 2.1116997e+2, -756096.75, -949751.2, 68028.55, -0.19663136, 0.18471792, -734588.06, 135961.08, 0.0, 10.001694, 9.998928 
2.7320477e+3, 2.211642e+2, -462091.38, -891571.94, 22525.146, -0.28170368, 0.37809426, -460913.22, 311698.7, 0.0, 10.003458, 9.997904 
2.731687e+3, 2.3115657e+2, -481701.28, -738372.0, -75199.2, -0.26939663, 0.39475286, -461292.28, 213396.81, 0.0, 10.002313, 9.99874 
2.7313268e+3, 2.4114873e+2, -636953.6, -884562.8, -56615.49, -0.27019992, 0.38441095, -624622.6, -47855.668, 0.0, 10.000966, 9.997786 
2.7309686e+3, 2.5113952e+2, -485726.03, -671081.3, 23871.627, -0.2929256, 0.25898185, -482701.0, -3845.5881, 0.0, 10.001063, 9.998455 
2.7306098e+3, 2.6113075e+2, -359294.88, -576577.44, -6142.621, -0.28783146, 0.16069873, -359121.38, 21817.857, 0.0, 10.001189, 9.998463 
2.7302507e+3, 2.711228e+2, -146059.89, -259364.75, -106638.02, -0.11453318, 0.053012334, -81959.82, 201050.36, 0.0, 10.001409, 9.999787 
2.7298912e+3, 2.8111526e+2, -174555.86, -354050.66, -120288.4, 0.024829542, -0.025367483, -114223.63, 70855.55, 0.0, 10.000928, 9.998794 
2.7295288e+3, 2.911096e+2, -399415.34, -329683.4, -100377.8, -0.15872617, 0.11475031, -258288.66, -171146.92, 0.0, 9.998484, 9.99939 
2.7291656e+3, 3.0110416e+2, -624783.06, -425511.97, -165569.69, -0.38128158, 0.26090688, -331910.44, -331910.44, 0.0, 9.996323, 9.999169 
2.728804e+3, 3.1109703e+2, -401201.2, -144546.34, -254732.83, -0.09379532, 0.15282385, 12357.258, 12357.258, 0.0, 9.996969, 10.000411 
2.7284428e+3, 3.210927e+2, 73416.24, 228690.84, 82471.72, -0.030841852, 0.32907423, 264319.3, 264319.3, 0.0, 9.999395, 10.001865 
2.745294e+3, 1.3158496e+2, -1118270.5, -1369942.8, 28548.469, -0.083045274, 0.11015577, -1115072.8, 535418.56, 0.012358423, 10.0038395, 10.000381 
2.7449298e+3, 1.4158064e+2, -1618221.8, -1772323.1, 107799.0, -0.18686302, 0.290902, -1562768.0, -10239.415, 0.006744914, 10.000521, 9.998667 
2.7445686e+3, 1.5157238e+2, -1162481.4, -1354459.5, 75611.83, -0.28261036, 0.1497884, -1136277.8, 318333.7, 0.0025850076, 10.002503, 9.999805 
2.744208e+3, 1.6156456e+2, -1013943.9, -1438403.0, -103740.64, -0.24198602, 0.06681807, -989945.75, 366744.66, 0.0005889778, 10.003622, 9.99809 
2.7438462e+3, 1.715593e+2, -1019633.6, -1336179.5, -108110.914, -0.0244972, 0.3292178, -986234.25, 272511.47, 0.00006228534, 10.002798, 9.998437 
2.7434838e+3, 1.815536e+2, -1114942.1, -1395246.1, -28402.176, 0.12760325, 0.56900316, -1112093.3, 48710.832, 0.0000011486238, 10.001629, 9.9980135 
2.7431205e+3, 1.9154434e+2, -886485.6, -1045836.25, -54980.14, -0.045279685, 0.34646204, -869357.2, 193532.22, 0.0, 10.00186, 9.999522 
2.7427587e+3, 2.0153579e+2, -921185.9, -1126956.5, 21473.156, -0.20022391, 0.18673822, -918968.94, 45999.797, 0.0, 10.001327, 9.998645 
2.742401e+3, 2.1153009e+2, -778582.5, -882037.2, 90185.336, -0.27108157, 0.29065242, -726342.94, 140683.97, 0.0, 10.001194, 9.999634 
2.7420434e+3, 2.2152427e+2, -943125.06, -1189660.4, -22118.945, -0.29744986, 0.44375357, -941156.25, -172068.47, 0.0, 10.000475, 9.997289 
2.7416822e+3, 2.3151633e+2, -720465.8, -960612.9, -99074.555, -0.2958215, 0.5027848, -684868.44, -13697.613, 0.0, 10.001188, 9.997726 
2.7413216e+3, 2.4150786e+2, -683604.4, -937794.2, 1055.3007, -0.27296048, 0.51256955, -683600.0, -110343.8, 0.0, 10.000817, 9.997498 
2.7409637e+3, 2.5149742e+2, -386189.78, -514767.97, 35341.63, -0.25684118, 0.17535655, -377115.94, 98234.24, 0.0, 10.00132, 9.999381 
2.7406052e+3, 2.614879e+2, -503620.7, -722514.25, -38080.164, -0.22307302, -0.046697166, -497185.2, -119749.336, 0.0, 10.000637, 9.9977 
2.7402455e+3, 2.71481e+2, -391098.2, -496990.06, -91660.76, -0.0981862, 0.02883546, -338190.63, -58688.598, 0.0, 10.000311, 9.99864 
2.7398852e+3, 2.8147468e+2, -490354.38, -547422.8, -121761.2, 0.017877463, 0.15824683, -393828.66, -212264.02, 0.0, 9.999068, 9.998326 
2.739522e+3, 2.9146984e+2, -338832.72, -208185.28, -154222.19, -0.052553687, 0.31207237, -106022.664, -22404.309, 0.0, 9.99862, 10.000111 
2.739158e+3, 3.0146477e+2, -556380.0, -430698.6, -174277.31, -0.14251798, 0.4574355, -308278.56, -308278.56, 0.0, 9.997096, 9.998738 
2.738797e+3, 3.1145677e+2, -296114.78, -119017.23, -219167.52, 0.15670006, 0.26909924, 28813.531, 28813.531, 0.0, 9.997959, 10.000026 
2.7384323e+3, 3.2145032e+2, -262024.16, -72844.55, 321373.44, -0.4375087, 0.28771856, 167570.3, 167570.3, 0.0, 9.997918, 10.000436 
2.7552906e+3, 1.319501e+2, -1199591.8, -1280698.8, -177067.88, -0.19885932, 0.2329979, -1058492.8, 588422.75, 0.00868532, 10.002821, 10.00145 
2.754925e+3, 1.4194535e+2, -1816396.8, -2045453.9, 145393.67, -0.1518748, 0.33700687, -1745841.3, -196888.7, 0.004592608, 9.999993, 9.997025 
2.754565e+3, 1.5193604e+2, -1364589.0, -1729387.3, 193921.67, -0.2910006, 0.32598323, -1280764.4, 170286.63, 0.0016782222, 10.002354, 9.997292 
2.754205e+3, 1.6192684e+2, -1018138.25, -1433926.5, -93742.984, -0.35082418, 0.2743148, -997980.4, 355165.3, 0.0003582281, 10.003604, 9.998116 
2.7538413e+3, 1.7191865e+2, -930637.1, -1155575.3, -122493.766, -0.17488141, 0.13927068, -876811.25, 378409.3, 0.000033741435, 10.002841, 9.999641 
2.753478e+3, 1.8191086e+2, -1125436.3, -1475797.5, -4283.9717, -0.07458929, 0.122593865, -1125383.9, 31909.09, 0.00000040337267, 10.001869, 9.997339 
2.753116e+3, 1.9190289e+2, -926635.25, -1263412.1, -9445.262, -0.11484362, 0.19014087, -926370.56, 133001.5, 0.0, 10.002417, 9.997767 
2.7527553e+3, 2.018951e+2, -791858.94, -1118467.8, 14626.586, -0.1569648, 0.2466912, -791205.25, 170243.56, 0.0, 10.002402, 9.998199 
2.7523986e+3, 2.1188685e+2, -762237.7, -891850.44, 60857.344, -0.065955065, 0.11714617, -738142.5, 125385.46, 0.0, 10.001309, 9.999554 
2.7520406e+3, 2.2187927e+2, -876374.4, -1050523.0, -18443.31, -0.0400316, 0.07766703, -874442.56, -108840.26, 0.0, 10.000426, 9.998267 
2.7516788e+3, 2.3187281e+2, -614532.3, -802846.8, -22975.314, -0.15230143, 0.19563074, -611769.7, 55900.164, 0.0, 10.001394, 9.998742 
2.751318e+3, 2.4186593e+2, -465338.84, -817329.4, 68904.48, -0.2355143, 0.30789405, -452331.03, 117410.08, 0.0, 10.002156, 9.997702 
2.7509606e+3, 2.518571e+2, -326395.97, -594739.4, 57252.72, -0.13723189, 0.22970726, -314691.28, 157136.63, 0.0, 10.002146, 9.998467 
2.7506018e+3, 2.61849e+2, -281991.0, -510785.16, -81197.28, -0.08968186, 0.19527385, -256103.75, 117802.875, 0.0, 10.001618, 9.998692 
2.750239e+3, 2.7184302e+2, -331237.97, -352434.16, -97486.87, -0.13313986, 0.27037278, -243774.83, 32188.992, 0.0, 10.00014, 9.999758 
2.749876e+3, 2.818368e+2, -457826.0, -472622.2, -53690.875, -0.1610267, 0.3451349, -411025.9, -233001.88, 0.0, 9.998963, 9.998892 
2.749514e+3, 2.9182947e+2, -210915.92, -193581.55, -97200.414, -0.1631387, 0.29639196, -104662.68, -24564.285, 0.0, 9.999671, 9.999724 
2.7491504e+3, 3.0182257e+2, -73289.516, -203537.73, -137359.13, -0.21941625, 0.30796716, 13601.771, 13601.771, 0.0, 10.00032, 9.998781 
2.748789e+3, 3.1181613e+2, 149424.34, 41961.875, -176451.13, -0.049904823, 0.32536867, 280143.78, 280143.78, 0.0, 10.001087, 9.999712 
2.748426e+3, 3.218091e+2, -441193.78, -221351.19, 69173.39, -0.2081481, 0.3403288, -201396.97, -201396.97, 0.0, 9.996748, 10.0000105 
2.7652848e+3, 1.323133e+2, -1533054.1, -1399398.9, -232830.53, -0.24831037, 0.28531396, -1223995.3, 419362.3, 0.005822727, 10.000242, 10.001914 
2.7649224e+3, 1.4230828e+2, -1045909.56, -1684552.0, 5417.4487, -0.0135485, 0.36569703, -1045863.6, 499531.78, 0.002969682, 10.005323, 9.99695 
2.764562e+3, 1.5229839e+2, -1326831.9, -1767880.1, 195514.17, -0.21093759, 0.32911825, -1252641.4, 194857.97, 0.0010279784, 10.002857, 9.996795 
2.7642012e+3, 1.6228878e+2, -1354038.1, -1577728.5, 13273.748, -0.30132586, 0.27790847, -1353253.3, -3655.7046, 0.0002033788, 10.001156, 9.998349 
2.7638367e+3, 1.7228027e+2, -928614.3, -1103714.0, -74821.67, -0.23033664, 0.07356927, -900997.94, 350675.63, 0.000016580547, 10.002584, 10.000155 
2.763473e+3, 1.8227187e+2, -941674.2, -1446885.5, 54803.926, -0.15969245, -0.014211612, -935797.56, 217953.02, 0.00000009587778, 10.003428, 9.996783 
2.7631125e+3, 1.9226341e+2, -710677.2, -1274526.3, 94217.34, -0.13757998, 0.100408964, -695350.44, 360486.44, 0.0, 10.004415, 9.996735 
2.762753e+3, 2.02255e+2, -594354.94, -1114359.6, 130779.96, -0.07197104, 0.20845288, -563316.75, 394605.03, 0.0, 10.004176, 9.997378 
2.762395e+3, 2.1224566e+2, -587213.7, -846798.8, 97844.04, 0.07738131, 0.017063763, -554465.25, 305545.75, 0.0, 10.002752, 9.999134 
2.7620366e+3, 2.2223726e+2, -802291.94, -988371.75, 51271.19, 0.16300564, -0.07674475, -789100.25, -27008.586, 0.0, 10.000939, 9.998421 
2.761675e+3, 2.3223129e+2, -527538.75, -673768.9, 24439.6, -0.030185683, 0.013929106, -523562.25, 140590.08, 0.0, 10.001701, 9.999453 
2.7613142e+3, 2.4222523e+2, -690596.2, -996191.5, 70851.89, -0.14137837, 0.1905871, -674968.44, -108752.695, 0.0, 10.001035, 9.996976 
2.7609566e+3, 2.5221777e+2, -718778.6, -865824.0, 95009.31, -0.033239935, 0.29639918, -672166.56, -203869.94, 0.0, 9.999873, 9.997656 
2.7605975e+3, 2.6221082e+2, -734003.1, -720318.1, -25390.629, 0.012168993, 0.42979765, -700864.2, -330494.44, 0.0, 9.998569, 9.998717 
2.7602318e+3, 2.722055e+2, -366360.22, -244833.0, -105465.29, -0.18036607, 0.4771016, -183879.13, 88541.01, 0.0, 9.999507, 10.000756 
2.7598673e+3, 2.821991e+2, -483046.1, -546591.4, -44447.867, -0.3017522, 0.48992285, -460182.53, -285701.94, 0.0, 9.999157, 9.998284 
2.7595058e+3, 2.92189e+2, -253916.45, -302068.97, -51191.3, -0.27466193, 0.21935658, -221422.25, -144844.14, 0.0, 9.999798, 9.998908 
2.7591428e+3, 3.0218056e+2, -297519.66, -389221.4, -88652.375, -0.34511417, 0.16039395, -243563.0, -243563.0, 0.0, 9.999236, 9.998004 
2.75878e+3, 3.1217608e+2, -154768.23, -128322.42, -112959.58, -0.35394618, 0.38905644, -27814.455, -27814.455, 0.0, 9.999225, 9.999386 
2.7584198e+3, 3.2216775e+2, -607569.9, -320249.0, -292998.25, 0.11439921, 0.28613177, -137587.06, -137587.06, 0.0, 9.9959545, 9.999633 
2.7752778e+3, 1.3267452e+2, -1645461.3, -1488557.4, 18447.064, -0.40784758, 0.3749703, -1486417.8, 153401.0, 0.0036892197, 9.999761, 10.001451 
2.7749223e+3, 1.4266863e+2, -1059234.3, -1565281.3, 23675.35, 0.029750384, 0.3262181, -1058129.0, 483735.1, 0.0018042208, 10.004771, 9.997993 
2.7745593e+3, 1.5265884e+2, -1246782.6, -1509294.6, 117134.82, -0.14797167, 0.10124125, -1202116.3, 241844.31, 0.00058557204, 10.002504, 9.998707 
2.774197e+3, 1.6265045e+2, -1388043.8, -1577951.5, 46201.91, -0.26757002, 0.046465147, -1377400.0, -31355.963, 0.00010501939, 10.000864, 9.998479 
2.7738324e+3, 1.7264573e+2, -952108.94, -1158751.3, 21502.25, -0.27612373, 0.25523502, -949895.2, 298196.6, 0.0000068884756, 10.002612, 9.999763 
2.77347e+3, 1.8263902e+2, -865331.56, -1380960.3, 120293.03, -0.2853891, 0.36463818, -838648.75, 311509.1, 0.00000000965895, 10.003852, 9.997018 
2.7731103e+3, 1.9262701e+2, -591382.4, -1167217.3, 193063.72, -0.23382984, 0.08700057, -532644.3, 519629.47, 0.0, 10.005008, 9.997193 
2.7727506e+3, 2.0261689e+2, -500350.94, -1117241.5, 144655.45, -0.21904431, 0.021711063, -468115.0, 486258.88, 0.0, 10.005036, 9.996924 
2.7723897e+3, 2.1261063e+2, -561537.6, -966303.9, 100884.68, -0.188548, 0.2604097, -537786.56, 318653.8, 0.0, 10.00351, 9.997943 
2.7720296e+3, 2.226039e+2, -607828.7, -931531.3, 76703.77, -0.16477339, 0.43161044, -590573.06, 167936.8, 0.0, 10.002377, 9.9981365 
2.77167e+3, 2.3259568e+2, -439773.28, -682246.94, 68975.92, -0.12978393, 0.35833523, -421525.2, 239064.98, 0.0, 10.002455, 9.999082 
2.7713096e+3, 2.4258795e+2, -494479.78, -738420.06, 28253.049, -0.1493513, 0.3488515, -491250.28, 71416.35, 0.0, 10.001635, 9.998452 
2.770948e+3, 2.5258055e+2, -738677.25, -735271.4, 75717.875, -0.20275444, 0.34882665, -661237.3, -196495.33, 0.0, 9.999076, 9.99897 
2.7705863e+3, 2.6257336e+2, -811406.9, -725723.44, 88765.0, -0.25016427, 0.38367513, -670002.3, -303187.88, 0.0, 9.99781, 9.999063 
2.7702242e+3, 2.7256647e+2, -316932.66, -305533.56, 29742.277, -0.3057037, 0.35339302, -280949.66, -12069.087, 0.0, 10.00012, 10.00009 
2.7698624e+3, 2.8255934e+2, -92825.8, -325468.72, 11956.898, -0.27630305, 0.3347225, -92212.875, 78736.91, 0.0, 10.001577, 9.998651 
2.7695024e+3, 2.9255077e+2, -27581.922, -203559.66, -733.3547, -0.065125294, 0.22569859, -27578.865, 45455.4, 0.0, 10.001214, 9.998972 
2.7691382e+3, 3.0254367e+2, -123639.67, -231856.42, -61111.527, -0.16929017, 0.28186202, -96124.914, -96124.914, 0.0, 9.9999695, 9.998745 
2.768768e+3, 3.1253994e+2, -401102.47, -197908.88, -73430.64, -0.68949467, 0.5504256, -174150.3, -174150.3, 0.0, 9.997215, 9.999896 
2.7684098e+3, 3.2253024e+2, -204529.78, -239897.44, -67050.34, -0.026243791, 0.35200125, -152870.5, -152870.5, 0.0, 9.999037, 9.998715 
2.7852738e+3, 1.3303368e+2, -1354505.6, -1491274.3, 129941.445, -0.33156705, 0.25745726, -1276052.6, 360241.44, 0.002170954, 10.002276, 10.000255 
2.784918e+3, 1.4302707e+2, -1484780.8, -1612862.1, -93384.38, -0.03253892, 0.17145076, -1435587.9, 102764.05, 0.0010072378, 10.001004, 9.999553 
2.7845544e+3, 1.5302032e+2, -1416646.9, -1374673.1, -42729.246, -0.12017055, 0.04662557, -1348055.0, 92359.625, 0.00030058212, 10.000263, 10.000791 
2.784192e+3, 1.6301398e+2, -1522501.0, -1629679.8, 3964.0054, -0.15062954, 0.06507828, -1522354.6, -179877.55, 0.000046417692, 9.999867, 9.998618 
2.7838287e+3, 1.7300953e+2, -1185163.9, -1336085.6, -21382.93, -0.2177351, 0.33673495, -1182192.9, 62335.08, 0.0000020738605, 10.001287, 9.999199 
2.783467e+3, 1.8300302e+2, -1097155.4, -1463765.3, 83025.35, -0.2663395, 0.49148437, -1079229.4, 67365.75, 0.00000000000031198744, 10.002123, 9.997284 
2.7831078e+3, 1.929909e+2, -863137.44, -1217464.1, 139945.78, -0.27144057, 0.117056526, -814531.7, 234177.33, 0.0, 10.002826, 9.997877 
2.7827474e+3, 2.029808e+2, -850994.5, -1347009.0, 89053.4, -0.28279844, 0.03043448, -835490.6, 115316.38, 0.0, 10.002945, 9.9963455 
2.7823848e+3, 2.1297525e+2, -659720.0, -1103152.0, 64513.96, -0.3695784, 0.40365598, -650524.7, 202345.16, 0.0, 10.003263, 9.997116 
2.7820235e+3, 2.2296883e+2, -660432.2, -1039949.5, 124597.63, -0.34562728, 0.6937783, -623182.2, 131756.38, 0.0, 10.002407, 9.997366 
2.7816653e+3, 2.3295946e+2, -547241.94, -784770.94, 116474.74, -0.1684919, 0.5382953, -499659.3, 157370.8, 0.0, 10.0019655, 9.998587 
2.781305e+3, 2.4295084e+2, -633740.8, -761561.06, 8089.2915, -0.10298751, 0.4593574, -633230.94, -74117.04, 0.0, 10.000576, 9.9987955 
2.7809396e+3, 2.5294352e+2, -591138.44, -542058.56, -37739.555, -0.3100757, 0.36465654, -521582.03, -60397.105, 0.0, 9.999672, 9.999985 
2.7805763e+3, 2.6293606e+2, -803338.1, -768433.56, 85640.18, -0.42275572, 0.3303047, -698485.44, -335228.5, 0.0, 9.998216, 9.998525 
2.780217e+3, 2.7292776e+2, -549355.06, -479747.8, 108736.94, -0.3815855, 0.19408162, -400380.44, -135043.9, 0.0, 9.998887, 9.999442 
2.7798578e+3, 2.8292015e+2, -518452.75, -549682.94, 60326.78, -0.21175738, 0.18122879, -471752.9, -304341.78, 0.0, 9.998859, 9.998395 
2.779499e+3, 2.9291356e+2, -291328.44, -283032.22, 40949.066, 0.17181757, 0.22017753, -246021.69, -176541.89, 0.0, 9.999342, 9.999256 
2.779133e+3, 3.0290818e+2, -299208.88, -294560.97, -81871.27, -0.01965076, 0.4390049, -214980.67, -214980.67, 0.0, 9.998837, 9.99882 
2.778755e+3, 3.1290472e+2, -218654.22, -39912.39, -149291.84, -1.0739746, 0.6620346, 44714.44, 44714.44, 0.0, 9.998303, 10.000418 
2.7784014e+3, 3.2289383e+2, -351114.72, -457889.28, 276038.47, -0.1967501, 0.38548204, -123348.24, -123348.24, 0.0, 9.998854, 9.9972925 
2.795271e+3, 1.3339081e+2, -1608851.8, -1832135.8, 70266.016, -0.2619104, -0.00059953565, -1588580.0, 44204.383, 0.0011673695, 10.00158, 9.998207 
2.7949095e+3, 1.4338428e+2, -1509753.9, -1488168.0, -119880.78, -0.37850687, -0.012407139, -1378595.3, 156256.53, 0.00050489604, 10.000322, 10.000705 
2.794547e+3, 1.5338361e+2, -1340492.8, -1074982.9, -42533.016, -0.235884, 0.24496502, -1068335.8, 368519.9, 0.00013439951, 9.999721, 10.003077 
2.7941862e+3, 1.6337954e+2, -1602237.1, -1709371.0, 44228.715, -0.104890026, 0.38225666, -1586337.5, -247440.94, 0.000016423304, 9.999533, 9.99822 
2.7938244e+3, 1.733696e+2, -1284222.4, -1477964.6, 48423.02, -0.1352083, 0.18791002, -1272793.9, -31792.057, 0.0000003300107, 10.001032, 9.998338 
2.7934632e+3, 1.8336152e+2, -1071350.9, -1357950.8, 102625.97, -0.24386689, 0.20394619, -1038392.56, 104692.39, 0.0, 10.001881, 9.998133 
2.7931032e+3, 1.9335526e+2, -845812.1, -1090074.1, 169513.75, -0.34976533, 0.32006913, -759015.2, 286126.94, 0.0, 10.002406, 9.998978 
2.792743e+3, 2.0334738e+2, -807876.94, -1210984.8, 100377.16, -0.41895208, 0.361048, -784265.2, 162950.36, 0.0, 10.002761, 9.997349 
2.7923816e+3, 2.133366e+2, -579522.94, -988994.75, 128107.016, -0.4108801, 0.15155102, -542746.56, 306572.56, 0.0, 10.00349, 9.997797 
2.7920207e+3, 2.2332735e+2, -464631.0, -923019.75, 143355.92, -0.36267197, 0.1167005, -423490.44, 327920.06, 0.0, 10.003585, 9.997608 
2.791661e+3, 2.3331991e+2, -490832.84, -795472.3, 137189.8, -0.21447663, 0.19148608, -438159.06, 215328.0, 0.0, 10.002431, 9.998313 
2.7912998e+3, 2.4331272e+2, -529422.25, -764987.7, 16555.459, -0.12958682, 0.29727632, -528264.44, 27297.355, 0.0, 10.001449, 9.998367 
2.7909356e+3, 2.5330538e+2, -436701.2, -577439.2, -39075.105, -0.15257676, 0.3076321, -426580.06, 31058.36, 0.0, 10.001093, 9.999118 
2.790572e+3, 2.6329854e+2, -410088.94, -423655.94, 44465.83, -0.20872384, 0.33339268, -371892.16, -12185.947, 0.0, 10.000149, 9.99997 
2.7902105e+3, 2.7329224e+2, -481661.0, -314160.8, 107305.79, -0.27555493, 0.2767832, -261791.08, -27.968048, 0.0, 9.998671, 10.000723 
2.7898496e+3, 2.832858e+2, -574792.44, -427176.94, 136032.1, -0.22314261, 0.26307014, -346219.3, -182395.66, 0.0, 9.997781, 9.999745 
2.7894896e+3, 2.9327887e+2, -362703.06, -216571.44, 145951.63, -0.011962129, 0.20686208, -126418.11, -60525.38, 0.0, 9.99836, 10.000195 
2.7891237e+3, 3.0327255e+2, -163875.83, -256797.08, 65634.88, -0.23204893, 0.28764108, -129921.734, -129921.734, 0.0, 9.999735, 9.998683 
2.7887508e+3, 3.132673e+2, 390026.63, 132147.11, -39242.96, -0.981795, 0.45073855, 395866.22, 395866.22, 0.0, 10.002815, 9.99952 
2.7883986e+3, 3.2325602e+2, -87818.99, -364402.75, 182294.5, 0.12502685, 0.23059249, 2703.3083, 2703.3083, 0.0, 10.000587, 9.997166 
2.805268e+3, 1.337544e+2, -1399140.1, -1756163.5, 241174.55, -0.17670117, -0.01176554, -1277599.1, 351615.97, 0.0005664125, 10.002976, 9.99811 
2.8049034e+3, 1.437463e+2, -1361220.3, -1464329.1, 120770.36, -0.42764986, -0.12190965, -1281460.8, 249840.38, 0.00022570654, 10.001525, 10.000281 
2.8045407e+3, 1.5374628e+2, -1089935.3, -1024297.56, -22043.607, -0.28487065, 0.2821926, -1017581.7, 415720.72, 0.00005282333, 10.001712, 10.002465 
2.8041804e+3, 1.6374233e+2, -1297089.9, -1584157.1, 26957.857, -0.08841723, 0.4761797, -1294580.3, 40763.695, 0.000004777361, 10.001739, 9.997976 
2.8038207e+3, 1.7373098e+2, -1099787.3, -1410058.3, 71978.52, -0.049316682, 0.14073539, -1083902.5, 153559.53, 0.00000002399446, 10.002366, 9.99814 
2.80346e+3, 1.8372247e+2, -979834.75, -1264573.4, 141730.28, -0.11473176, 0.10798493, -921314.8, 218233.66, 0.0, 10.0023365, 9.9985485 
2.8030998e+3, 1.9371866e+2, -879938.56, -1040919.6, 131167.34, -0.30814472, 0.40831697, -806534.3, 235048.06, 0.0, 10.00191, 9.999557 
2.802739e+3, 2.0371166e+2, -990958.1, -1237556.3, 74121.08, -0.38659894, 0.47963238, -970394.06, -26748.771, 0.0, 10.001215, 9.9979315 
2.8023785e+3, 2.1369854e+2, -877514.1, -1042990.06, 98043.28, -0.3272305, -0.061973117, -831963.1, 13801.701, 0.0, 10.001029, 9.99862 
2.802018e+3, 2.2368808e+2, -962702.6, -1167293.6, 116403.47, -0.2649537, -0.25955957, -910033.2, -162169.14, 0.0, 10.00031, 9.997473 
2.801656e+3, 2.336818e+2, -850934.94, -977347.0, 85099.9, -0.2118174, -0.069084585, -808136.3, -158204.05, 0.0, 10.000102, 9.99816 
2.8012943e+3, 2.4367535e+2, -846401.8, -1009725.0, 38847.688, -0.11114575, 0.1660369, -837632.44, -285629.84, 0.0, 9.999754, 9.997488 
2.8009316e+3, 2.53668e+2, -566584.6, -710566.8, 20770.174, 0.022143105, 0.23265089, -563648.25, -109565.664, 0.0, 10.000599, 9.9984 
2.800568e+3, 2.6366186e+2, -400125.94, -372679.25, 73846.016, 0.024311261, 0.3583281, -311292.25, 44853.22, 0.0, 10.000085, 10.000354 
2.800204e+3, 2.7365708e+2, -315785.72, -129242.664, 35357.992, -0.16748206, 0.34630433, -122765.68, 135420.31, 0.0, 9.999401, 10.001636 
2.799841e+3, 2.8365165e+2, -490454.84, -340380.63, 63747.84, -0.26454553, 0.36712384, -316957.8, -156723.72, 0.0, 9.998264, 10.000086 
2.799479e+3, 2.9364425e+2, -332851.84, -113574.664, 52719.6, -0.25981945, 0.16511288, -101558.1, -39253.125, 0.0, 9.998286, 10.000913 
2.7991146e+3, 3.036368e+2, -420350.34, -497541.94, 41796.258, -0.4810955, 0.13056058, -402055.34, -402055.34, 0.0, 9.998644, 9.997492 
2.798749e+3, 3.1362912e+2, 27570.45, -163322.56, 12493.358, -0.7690003, 0.14074442, 28384.629, 28384.629, 0.0, 10.001017, 9.99827 
2.798395e+3, 3.236183e+2, -238012.69, -363633.72, -129751.86, 0.31170717, -0.0020423369, -156668.06, -156668.06, 0.0, 9.99957, 9.997533 
2.8152642e+3, 1.3412406e+2, -1448336.6, -1582338.8, 128916.58, -0.24003719, 0.2837088, -1370049.6, 255539.22, 0.00024939553, 10.001912, 9.99977 
2.8148988e+3, 1.441126e+2, -1652329.5, -1924983.4, 112579.72, -0.3792861, -0.14920089, -1611853.6, -84148.48, 0.00009135431, 10.000992, 9.997351 
2.814535e+3, 1.5410754e+2, -1390670.8, -1575434.8, 17208.76, -0.41668198, 0.10158271, -1389081.6, 40681.43, 0.000018191195, 10.001439, 9.998805 
2.8141743e+3, 1.6410193e+2, -1258987.5, -1503237.6, 50555.24, -0.3058281, 0.31777963, -1248937.1, 82886.79, 0.000001253609, 10.001755, 9.998521 
2.8138164e+3, 1.7409497e+2, -1014736.94, -1246764.1, 133989.94, -0.102085054, 0.32270026, -953514.94, 280380.2, 0.0000000065346386, 10.002447, 9.999221 
2.8134573e+3, 1.8408737e+2, -985814.3, -1268147.4, 124629.85, -0.06826692, 0.3351986, -938671.0, 197298.86, 0.0, 10.002354, 9.99848 
2.813096e+3, 1.940787e+2, -924775.94, -1110983.8, 131315.64, -0.2157359, 0.19570693, -856907.4, 181143.58, 0.0, 10.001825, 9.999107 
2.8127357e+3, 2.0407106e+2, -897242.2, -1038039.0, 39228.54, -0.26070195, 0.1725441, -887050.2, 53070.74, 0.0, 10.001182, 9.999306 
2.8123745e+3, 2.1406373e+2, -846782.75, -880266.06, 101998.97, -0.17320585, 0.082083024, -760160.6, 82025.375, 0.0, 10.000551, 9.999983 
2.8120124e+3, 2.2405602e+2, -969671.94, -1123609.3, 107039.086, -0.174625, 0.069313526, -914801.56, -170541.47, 0.0, 10.000023, 9.997914 
2.8116494e+3, 2.3404773e+2, -867423.56, -982653.7, 109113.68, -0.25740564, 0.06513422, -801647.8, -155300.58, 0.0, 9.999906, 9.998247 
2.8112867e+3, 2.4404034e+2, -681200.56, -806864.3, 99938.71, -0.2556042, 0.15554065, -625983.3, -77560.086, 0.0, 10.000291, 9.998623 
2.810925e+3, 2.5403383e+2, -391838.66, -539091.2, 127163.414, -0.1321959, 0.23438422, -318524.94, 131963.03, 0.0, 10.001348, 9.999241 
2.8105617e+3, 2.6402685e+2, -240879.77, -455492.8, 113431.8, -0.11586441, 0.29709035, -192040.64, 160517.13, 0.0, 10.001757, 9.999015 
2.8101972e+3, 2.7401882e+2, -177770.61, -303825.1, 7843.0845, -0.25365698, 0.19025226, -177284.48, 77353.45, 0.0, 10.001251, 9.999612 
2.809834e+3, 2.8401214e+2, -187945.75, -237445.06, -23991.97, -0.28821132, 0.20869285, -178225.7, -21522.436, 0.0, 10.0004, 9.999802 
2.8094724e+3, 2.9400656e+2, -178329.27, -109865.805, -70919.19, -0.19901766, 0.25372487, -65348.934, -6592.7393, 0.0, 9.999516, 10.000412 
2.8091085e+3, 3.0399942e+2, -255779.98, -313652.03, -25915.984, -0.37653178, 0.2347335, -245871.03, -245871.03, 0.0, 9.999243, 9.998476 
2.808744e+3, 3.1399e+2, -26857.85, -108663.445, 9501.511, -0.65366566, 0.0025259652, -25768.771, -25768.771, 0.0, 10.000184, 9.999096 
2.8083855e+3, 3.239829e+2, 125370.445, -137576.0, -207029.95, -0.04268114, 0.16654374, 239145.28, 239145.28, 0.0, 10.001608, 9.998192 
2.8252572e+3, 1.3448837e+2, -1847806.9, -1739344.4, 54400.313, -0.33449396, 0.23559657, -1716761.5, -94741.04, 0.00010704309, 9.998969, 10.000134 
2.824896e+3, 1.4447825e+2, -1455302.3, -1922866.0, -34529.066, -0.20976889, -0.017993568, -1452766.1, 71355.93, 0.000035101017, 10.002723, 9.996539 
2.8245312e+3, 1.5446982e+2, -1240452.8, -1651772.1, 24622.682, -0.36725605, 0.012846625, -1238984.0, 187227.95, 0.0000055355054, 10.003126, 9.997475 
2.82417e+3, 1.6446315e+2, -1087992.3, -1369822.6, 146887.39, -0.30767694, 0.18641736, -1025356.44, 302926.13, 0.0000002527922, 10.002742, 9.998972 
2.8238124e+3, 1.7445832e+2, -1097192.6, -1228975.3, 138425.7, -0.10254962, 0.36919546, -1009776.0, 220555.84, 0.0, 10.001689, 9.99973 
2.8234532e+3, 1.8445116e+2, -1137189.4, -1344617.6, 154280.61, -0.012764156, 0.40160275, -1055002.6, 77398.6, 0.0, 10.001285, 9.998496 
2.8230932e+3, 1.9444007e+2, -925353.4, -1136792.5, 177951.36, -0.06240556, 0.022305792, -824086.7, 210418.83, 0.0, 10.00187, 9.998946 
2.822732e+3, 2.0443244e+2, -852877.8, -970911.8, 60438.113, -0.06802293, 0.0020600092, -827421.4, 109155.414, 0.0, 10.001378, 9.999629 
2.8223696e+3, 2.1442881e+2, -837273.44, -822478.4, 1173.7543, -0.056031257, 0.22314002, -822385.9, 16223.721, 0.0, 10.000473, 10.000378 
2.8220066e+3, 2.2442265e+2, -936654.7, -1130274.5, 22074.336, -0.11913705, 0.35334864, -934169.94, -193499.64, 0.0, 10.0004, 9.997668 
2.8216434e+3, 2.3441266e+2, -621827.3, -855915.9, 7277.684, -0.26873255, 0.149961, -621601.25, 21171.39, 0.0, 10.001634, 9.998249 
2.8212804e+3, 2.4440476e+2, -462654.53, -639199.9, 8157.803, -0.34432405, 0.15648629, -462278.38, 82571.516, 0.0, 10.001629, 9.999105 
2.8209183e+3, 2.543988e+2, -396821.78, -463367.88, -767.5395, -0.28692797, 0.19201784, -396812.9, 50089.594, 0.0, 10.001045, 9.999889 
2.8205556e+3, 2.6439112e+2, -566009.44, -833837.4, -12255.807, -0.26989046, 0.23668484, -565449.8, -216470.9, 0.0, 10.000618, 9.996911 
2.8201914e+3, 2.7438042e+2, -388546.66, -622556.5, -47536.67, -0.32143688, 0.026488379, -379258.72, -128165.57, 0.0, 10.000867, 9.997546 
2.819828e+3, 2.843728e+2, -304089.75, -397419.03, -47649.004, -0.28703734, 0.117080316, -284060.94, -130888.93, 0.0, 10.000191, 9.998761 
2.8194666e+3, 2.9436865e+2, -245421.33, -207845.17, -80745.125, -0.09064019, 0.3451256, -143731.1, -88519.54, 0.0, 9.99945, 9.999727 
2.8191024e+3, 3.0436176e+2, -275395.25, -229822.97, 30625.46, -0.2418708, 0.36442468, -214436.78, -214436.78, 0.0, 9.998805, 9.999247 
2.8187382e+3, 3.1435102e+2, -164720.55, -30857.445, 55723.723, -0.59118736, -0.14670976, -10697.288, -10697.288, 0.0, 9.998703, 10.000317 
2.8183746e+3, 3.243488e+2, -209917.97, -141871.83, -74872.74, -0.6482879, 0.37131312, -93654.414, -93654.414, 0.0, 9.99887, 9.999393 
2.8352478e+3, 1.34849e+2, -1996004.1, -1907169.3, 263800.3, -0.6054367, 0.09469515, -1684073.1, -65579.195, 0.000050582996, 9.99846, 9.999195 
2.834894e+3, 1.4484341e+2, -1451059.5, -1774291.9, -12498.027, -0.074651845, 0.27667713, -1450577.0, 69972.39, 0.000015386415, 10.002195, 9.997776 
2.8345293e+3, 1.5483375e+2, -1212042.1, -1493400.6, 80588.48, -0.25377092, 0.04099261, -1190594.4, 232046.73, 0.0000020566958, 10.00275, 9.998718 
2.834167e+3, 1.6482596e+2, -1157271.9, -1439289.4, 114026.53, -0.28117725, 0.059720296, -1116937.0, 207781.77, 0.00000005936716, 10.002452, 9.998613 
2.8338063e+3, 1.7481953e+2, -1179222.4, -1342114.4, 128041.74, -0.23409112, 0.13381183, -1108918.1, 117868.375, 0.0, 10.001435, 9.999074 
2.8334475e+3, 1.8481271e+2, -1068375.4, -1188773.8, 187503.78, -0.13407116, 0.18438537, -931644.1, 197208.81, 0.0, 10.001203, 9.999617 
2.83309e+3, 1.948046e+2, -839126.25, -983615.9, 257858.25, 0.034535907, 0.0020139702, -643583.5, 387343.34, 0.0, 10.00196, 9.999965 
2.8327286e+3, 2.0479773e+2, -896353.8, -1160402.6, 39239.742, 0.00083264726, 0.08147338, -890645.9, 42347.6, 0.0, 10.001803, 9.998127 
2.832362e+3, 2.147918e+2, -897862.0, -1070796.3, -15181.332, -0.26349795, 0.2790937, -896539.44, -61483.715, 0.0, 10.000963, 9.998462 
2.8319994e+3, 2.2478396e+2, -768216.4, -1040635.9, 57612.984, -0.3663231, 0.33859122, -756533.06, -19398.041, 0.0, 10.001486, 9.9977665 
2.8316396e+3, 2.3477343e+2, -382122.25, -768669.75, 53229.875, -0.3023966, 0.10395289, -374926.16, 264312.9, 0.0, 10.003329, 9.998067 
2.831277e+3, 2.44765e+2, -181744.14, -487845.8, -106694.3, -0.32158536, 0.05342083, -148225.33, 393094.75, 0.0, 10.003427, 9.999299 
2.8309125e+3, 2.547584e+2, -305989.3, -457685.66, -118493.66, -0.38406944, 0.05805627, -241147.42, 202233.23, 0.0, 10.001736, 9.999635 
2.8305492e+3, 2.6475176e+2, -413377.1, -638373.7, -58621.32, -0.34555906, 0.16398223, -399019.88, -53572.07, 0.0, 10.001076, 9.998045 
2.8301874e+3, 2.7474445e+2, -219446.23, -468598.03, -35581.652, -0.23344547, 0.23162404, -214464.39, 33065.31, 0.0, 10.00166, 9.998244 
2.8298244e+3, 2.847375e+2, -53111.0, -215684.94, -33253.94, -0.14430428, 0.32012454, -46572.027, 103029.51, 0.0, 10.001567, 9.999369 
2.8294608e+3, 2.9473093e+2, -25609.475, -119152.445, -48853.305, -0.08034429, 0.32894915, -4748.0, 46914.805, 0.0, 10.000917, 9.999669 
2.829096e+3, 3.0472395e+2, -25095.346, 5537.8823, 66701.34, -0.24199794, 0.2930677, 58658.598, 58658.598, 0.0, 9.999899, 10.000377 
2.8287324e+3, 3.1471622e+2, -127831.33, 31849.113, 65398.582, -0.411736, 0.040038455, 55214.684, 55214.684, 0.0, 9.998596, 10.000861 
2.8283685e+3, 3.247139e+2, -294510.44, 138059.4, -73360.0, -0.33841068, 0.38738567, 150162.0, 150162.0, 0.0, 9.996675, 10.002474 
2.8452453e+3, 1.3521127e+2, -1157834.4, -1565229.1, 241548.58, -0.3718439, 0.23063743, -1045559.75, 569391.25, 0.000026717651, 10.00427, 9.99884 
2.844891e+3, 1.4520507e+2, -1244143.5, -1526161.8, -118071.48, 0.008516425, 0.319547, -1201238.4, 315771.63, 0.000008259606, 10.0029125, 9.999149 
2.8445256e+3, 1.551965e+2, -1258241.0, -1403311.1, -72150.51, -0.17697833, 0.07753193, -1228467.5, 190620.03, 0.0000013335809, 10.001878, 9.999775 
2.8441632e+3, 1.6518903e+2, -1326681.5, -1497291.0, 877.70184, -0.21131869, 0.050954472, -1326677.0, -5517.551, 0.000000073245815, 10.001169, 9.9988365 
2.8438014e+3, 1.7518188e+2, -1268902.0, -1389066.1, 44465.18, -0.1987962, 0.043827914, -1254237.9, -31004.46, 0.0, 10.000811, 9.999064 
2.8434423e+3, 1.8517539e+2, -1098665.9, -1139275.6, 187153.05, -0.1106039, 0.09791319, -930719.44, 194576.77, 0.0, 10.000765, 10.000143 
2.8430858e+3, 1.9516896e+2, -896725.56, -971970.94, 160458.23, 0.084695764, 0.019621817, -769538.3, 257815.17, 0.0, 10.001421, 10.000284 
2.842724e+3, 2.0516211e+2, -880061.7, -1291477.5, -33833.01, 0.0031182733, 0.14022826, -877298.0, 52124.035, 0.0, 10.002518, 9.996886 
2.8423566e+3, 2.151543e+2, -582165.94, -1065817.1, -32827.152, -0.38254616, 0.25138807, -579948.0, 251558.36, 0.0, 10.003811, 9.997103 
2.8419936e+3, 2.2514558e+2, -615972.8, -966599.3, 132220.03, -0.47006795, 0.29965988, -571702.7, 161892.14, 0.0, 10.002569, 9.997761 
2.8416356e+3, 2.3513529e+2, -900556.9, -1029828.8, 132069.66, -0.26222473, 0.075045206, -818154.75, -182460.92, 0.0, 9.999845, 9.997964 
2.8412735e+3, 2.4512655e+2, -768948.7, -824035.94, -38783.395, -0.26123357, 0.03555448, -748923.4, -211145.48, 0.0, 9.999679, 9.998798 
2.840907e+3, 2.5511882e+2, -420153.84, -570716.44, -86307.555, -0.41585228, -0.041024633, -380908.88, 58943.22, 0.0, 10.001281, 9.999069 
2.8405437e+3, 2.6511332e+2, -350453.8, -491534.13, 8790.977, -0.35694218, 0.17078488, -349908.13, -7998.445, 0.0, 10.001142, 9.99897 
2.8401834e+3, 2.7510908e+2, -380877.8, -433249.34, 9030.704, -0.10603473, 0.41705635, -379364.34, -135404.34, 0.0, 10.000178, 9.999156 
2.8398204e+3, 2.8510258e+2, -269985.03, -315202.34, -6137.7354, -0.029068343, 0.5087833, -269166.72, -123140.81, 0.0, 10.000145, 9.999343 
2.8394547e+3, 2.9509336e+2, -54239.33, -136945.88, -31657.234, -0.11899647, 0.22676949, -43513.11, 4598.024, 0.0, 10.000831, 9.999567 
2.839089e+3, 3.0508694e+2, -58818.594, 36928.496, 21279.219, -0.2812238, 0.24323457, 41444.656, 41444.656, 0.0, 9.999638, 10.00065 
2.838726e+3, 3.150826e+2, -380011.94, -55881.465, -9624.576, -0.23109235, 0.26428393, -55595.93, -55595.93, 0.0, 9.996898, 10.001004 
2.8383633e+3, 3.2507777e+2, -138332.56, 622814.25, -188169.3, 0.09549389, 0.124239154, 666792.1, 666792.1, 0.0, 9.996266, 10.005869 
2.8552473e+3, 1.3557363e+2, -1265985.1, -1556294.3, 142313.17, -0.02371023, 0.5290736, -1207859.4, 403546.9, 0.000013313982, 10.003342, 9.999329 
2.854886e+3, 1.4556335e+2, -1287488.1, -1448451.5, -156678.39, -0.13554594, 0.14761776, -1191829.5, 321673.8, 0.0000038169696, 10.002247, 9.999975 
2.8545204e+3, 1.5555808e+2, -1290618.0, -1359354.9, -76865.38, -0.2874303, 0.15716897, -1240787.5, 174765.3, 0.0000005153316, 10.001428, 10.000284 
2.854158e+3, 1.6555262e+2, -1267015.8, -1316665.9, -19317.477, -0.20869608, 0.24008624, -1260385.3, 57219.113, 0.00000002542409, 10.000953, 10.000162 
2.8537974e+3, 1.7554659e+2, -1231340.9, -1251075.5, 71347.93, -0.048410583, 0.2212111, -1169181.1, 50481.254, 0.0, 10.000577, 10.000112 
2.8534374e+3, 1.8553987e+2, -1129411.6, -1215180.3, 215259.06, -0.077389166, 0.23911005, -952806.7, 168919.89, 0.0, 10.000831, 9.999577 
2.8530785e+3, 1.9553226e+2, -944115.4, -1079877.5, 201006.1, -0.19767533, 0.11937549, -799837.8, 223961.11, 0.0, 10.001444, 9.9995365 
2.8527176e+3, 2.0552443e+2, -750122.75, -1138088.6, 37734.23, -0.295941, 0.13925312, -746486.75, 179389.84, 0.0, 10.002999, 9.9977 
2.852355e+3, 2.1551585e+2, -315062.66, -858870.0, 73620.54, -0.41777545, 0.1125509, -305272.2, 522692.53, 0.0, 10.005263, 9.997831 
2.851992e+3, 2.255086e+2, -370671.8, -721922.1, -8130.7593, -0.38426393, 0.21440795, -370483.72, 359552.84, 0.0, 10.003685, 9.998897 
2.851629e+3, 2.3550168e+2, -978472.0, -969256.56, 50066.703, -0.23604688, 0.2568797, -923586.0, -291483.25, 0.0, 9.998807, 9.998898 
2.851266e+3, 2.4549387e+2, -938136.7, -945559.3, 144483.14, -0.22743255, 0.28239688, -797317.2, -263137.5, 0.0, 9.998602, 9.99851 
2.8509033e+3, 2.554852e+2, -307941.97, -565592.0, 115039.6, -0.34246963, 0.18950689, -264053.34, 172213.63, 0.0, 10.002156, 9.998722 
2.85054e+3, 2.6547825e+2, -119555.695, -290852.78, -2180.1807, -0.30391285, 0.23157792, -119527.945, 218808.52, 0.0, 10.00227, 9.999835 
2.8501764e+3, 2.7547246e+2, -361231.72, -345564.06, 8112.621, -0.14613481, 0.30061445, -342120.3, -101726.27, 0.0, 9.999888, 9.999936 
2.849813e+3, 2.8546575e+2, -247097.6, -273689.0, 119191.15, -0.13261396, 0.3156815, -140462.88, 1996.1145, 0.0, 10.000063, 9.999709 
2.849449e+3, 2.9545766e+2, 181807.06, -7501.1426, 89871.06, -0.26052108, 0.16381611, 217675.78, 262210.8, 0.0, 10.0023, 9.999786 
2.849083e+3, 3.0545163e+2, 96435.22, -6875.794, -78039.305, -0.29067758, 0.25956425, 138366.17, 138366.17, 0.0, 10.001075, 9.999717 
2.848719e+3, 3.1544736e+2, -429578.0, -205397.8, -147677.28, -0.010588071, 0.42888808, -132088.95, -132088.95, 0.0, 9.996954, 10.000021 
2.8483528e+3, 3.254401e+2, 112706.93, 391374.5, -193445.81, -0.10902237, 0.2574976, 490442.03, 490442.03, 0.0, 9.999201, 10.003 
2.865246e+3, 1.3593322e+2, -1304653.8, -1494102.3, 91288.9, 0.12001134, 0.37893733, -1267824.4, 340061.47, 0.0000059672334, 10.00263, 10.000135 
2.8648803e+3, 1.4592507e+2, -1486720.8, -1455104.1, -62532.426, -0.1773275, 0.16048469, -1406412.8, 103548.164, 0.0000015122073, 10.0004635, 10.000809 
2.864515e+3, 1.559212e+2, -1327925.5, -1315260.9, -12113.363, -0.2920742, 0.25771415, -1307924.6, 104074.21, 0.0000000966577, 10.000856, 10.000877 
2.8641534e+3, 1.6591614e+2, -1127057.1, -1185076.0, 50670.906, -0.16295885, 0.33058238, -1097679.1, 216366.67, 0.00000000026919006, 10.001608, 10.000768 
2.863793e+3, 1.7591019e+2, -929536.1, -1056993.4, 59822.25, 0.03989648, 0.26145786, -905857.44, 310242.53, 0.0, 10.002406, 10.000574 
2.8634328e+3, 1.859036e+2, -1013362.94, -1205647.8, 198663.88, -0.05937039, 0.29450762, -888800.4, 229363.19, 0.0, 10.001896, 9.99912 
2.8630722e+3, 1.9589598e+2, -1115902.4, -1214915.3, 168536.78, -0.3150944, 0.2256604, -989751.3, 30487.943, 0.0, 10.000575, 9.999004 
2.8627124e+3, 2.0588785e+2, -1075410.5, -1213606.8, 120243.95, -0.39140084, 0.20531635, -1005825.0, -83505.195, 0.0, 10.000393, 9.998454 
2.8623527e+3, 2.1587877e+2, -915161.9, -1084503.5, 120021.65, -0.34569174, 0.045400962, -852950.6, -28541.092, 0.0, 10.000818, 9.99846 
2.861989e+3, 2.2587241e+2, -722267.8, -812677.0, -112344.3, -0.27364293, 0.17042598, -646374.5, 80096.09, 0.0, 10.000979, 9.999539 
2.861622e+3, 2.358676e+2, -727667.56, -791756.2, -87573.64, -0.16849, 0.3353785, -666459.6, -37944.516, 0.0, 10.000398, 9.999293 
2.8612593e+3, 2.4586083e+2, -753104.94, -875426.0, 247598.44, -0.17354782, 0.46276212, -559225.06, -28641.256, 0.0, 10.000117, 9.998163 
2.8608993e+3, 2.5585186e+2, -605429.7, -760640.25, 203876.95, -0.24945377, 0.34271803, -464887.34, -32210.135, 0.0, 10.000458, 9.998127 
2.860536e+3, 2.6584372e+2, -422085.72, -413977.34, -61973.07, -0.2343982, 0.29291275, -355926.0, -21170.313, 0.0, 10.000162, 9.999973 
2.8601694e+3, 2.7583584e+2, -519717.88, -419538.66, -58144.277, -0.15156579, 0.09690832, -392883.72, -156056.73, 0.0, 9.998829, 9.99993 
2.8598055e+3, 2.8582916e+2, -400566.63, -310792.84, 201504.47, -0.22811425, 0.1133472, -149236.31, -10347.469, 0.0, 9.999005, 9.999905 
2.8594425e+3, 2.9582262e+2, -136688.36, -174360.3, 164799.84, -0.41520455, 0.07349598, 10348.456, 51299.81, 0.0, 10.00029, 9.99957 
2.8590772e+3, 3.0581677e+2, -191327.77, -301540.56, -174017.5, -0.317178, 0.28492826, -63899.77, -63899.77, 0.0, 9.999919, 9.998185 
2.858711e+3, 3.158118e+2, -561118.56, -491319.56, -180262.27, 0.16348583, 0.5084647, -342609.53, -342609.53, 0.0, 9.997166, 9.997895 
2.8583407e+3, 3.2580173e+2, -369703.56, -223183.33, 235920.38, -0.599328, 0.32349092, -49410.113, -49410.113, 0.0, 9.997772, 9.999373 
2.8752407e+3, 1.3629222e+2, -1394594.3, -1395024.5, -137236.3, -0.024947152, 0.08587646, -1257572.9, 346796.28, 0.0000021514043, 10.001481, 10.001339 
2.874874e+3, 1.4629021e+2, -1503510.1, -1365917.9, -36556.133, -0.23278674, 0.37936223, -1356808.6, 149574.31, 0.00000043033984, 9.999973, 10.001634 
2.8745088e+3, 1.562858e+2, -1388402.8, -1297079.0, 44797.51, -0.34624162, 0.3528217, -1278773.5, 129651.84, 0.000000019645139, 10.000263, 10.001286 
2.874148e+3, 1.6627946e+2, -1184532.1, -1236958.1, 92175.27, -0.24226367, 0.29750252, -1114915.1, 195568.81, 0.0, 10.001347, 10.000525 
2.873788e+3, 1.7627196e+2, -962020.44, -1129709.3, 123954.48, -0.16372861, 0.118728235, -896216.56, 316335.63, 0.0, 10.002428, 10.00007 
2.8734276e+3, 1.8626575e+2, -993909.0, -1212264.3, 130702.21, -0.18413226, 0.21947207, -932784.44, 181829.44, 0.0, 10.002066, 9.999 
2.8730676e+3, 1.9625957e+2, -1151044.6, -1257592.5, 154288.61, -0.23927328, 0.32576898, -1041091.5, -24412.783, 0.0, 10.00039, 9.998827 
2.8727072e+3, 2.0625265e+2, -1052528.8, -1036161.5, 129508.59, -0.29351035, 0.3548405, -914578.2, 4169.814, 0.0, 9.999869, 9.999896 
2.8723463e+3, 2.162448e+2, -983384.56, -987440.7, 161537.23, -0.37372735, 0.2093581, -823862.7, -3037.9946, 0.0, 9.999772, 9.999629 
2.8719828e+3, 2.262374e+2, -725804.44, -778161.7, -44824.55, -0.33815584, 0.15981819, -700073.9, 22818.867, 0.0, 10.000755, 9.9999 
2.871617e+3, 2.3623025e+2, -421195.9, -613210.9, -8094.9233, -0.23187649, 0.08656647, -420855.25, 204100.73, 0.0, 10.002294, 9.999639 
2.871254e+3, 2.4622343e+2, -442867.72, -666765.0, 219393.3, -0.23869486, 0.15977958, -308511.88, 218511.9, 0.0, 10.001909, 9.99877 
2.870893e+3, 2.562161e+2, -569524.94, -693244.75, 199652.6, -0.3374459, 0.19099462, -422368.56, 6732.6157, 0.0, 10.000376, 9.998676 
2.870529e+3, 2.6620853e+2, -489999.5, -450591.34, -44056.9, -0.23973463, 0.16495869, -422033.0, -90858.195, 0.0, 9.999615, 10.000018 
2.8701633e+3, 2.762006e+2, -428402.16, -370399.78, -29371.736, -0.039111275, 0.00416178, -358124.25, -124876.4, 0.0, 9.999326, 10.000058 
2.8697988e+3, 2.861946e+2, -274014.5, -113611.15, 259400.28, -0.17907827, 0.008166554, 77702.945, 213005.98, 0.0, 9.999219, 10.001175 
2.869435e+3, 2.9618934e+2, -166096.33, -83528.95, 243076.77, -0.5507022, 0.015439121, 121744.97, 159096.73, 0.0, 9.999516, 10.000603 
2.8690687e+3, 3.0618382e+2, -100211.84, -219949.31, -64133.56, -0.4990769, 0.19774781, -72345.875, -72345.875, 0.0, 10.000275, 9.9986105 
2.8687024e+3, 3.1617856e+2, 110723.71, -100313.96, -24290.576, -0.037492502, 0.4183511, 113483.48, 113483.48, 0.0, 10.001349, 9.998615 
2.868332e+3, 3.2617033e+2, -254503.42, 39023.152, 392697.44, -0.62903696, 0.30762336, 311486.22, 311486.22, 0.0, 9.997488, 10.001365 
2.8852338e+3, 1.3665628e+2, -1701513.1, -1409164.9, -53553.152, -0.0939993, 0.123456195, -1399663.6, 201141.36, 0.00000033823923, 9.998673, 10.002618 
2.8848693e+3, 1.4665556e+2, -1368943.4, -1350325.1, 36034.418, -0.052629225, 0.53551555, -1322416.8, 180386.23, 0.000000039050374, 10.001049, 10.001244 
2.8845045e+3, 1.5664838e+2, -1179613.8, -1259301.3, 4944.038, -0.24493067, 0.29554665, -1179308.1, 225562.33, 0.0000000006124831, 10.00192, 10.000775 
2.8841433e+3, 1.6664152e+2, -1130922.9, -1248818.4, 48974.926, -0.2333207, 0.22448823, -1113232.6, 193702.17, 0.0, 10.001876, 10.000163 
2.8837827e+3, 1.7663431e+2, -1140530.3, -1261541.9, 46167.113, -0.22584276, 0.09396895, -1124928.5, 84073.85, 0.0, 10.001371, 9.999664 
2.8834227e+3, 1.8662822e+2, -1040688.9, -1195235.1, 75206.055, -0.20023674, 0.19787557, -1010133.0, 100930.266, 0.0, 10.001616, 9.999328 
2.8830636e+3, 1.9662249e+2, -919435.25, -1115585.3, 109818.67, -0.087330766, 0.30723605, -870272.9, 142850.6, 0.0, 10.001876, 9.999096 
2.8827024e+3, 2.0661676e+2, -862305.94, -856993.44, 116675.33, -0.15942223, 0.40568843, -742944.1, 172237.39, 0.0, 10.000892, 10.000622 
2.88234e+3, 2.166105e+2, -1029260.5, -950961.2, 75441.336, -0.31904814, 0.33798409, -905116.2, -87873.11, 0.0, 9.999308, 10.000084 
2.8819767e+3, 2.2660269e+2, -888796.94, -799497.75, -39087.906, -0.32782498, 0.20143716, -784805.5, -65491.953, 0.0, 9.99947, 10.000364 
2.8816122e+3, 2.3659392e+2, -733844.6, -746499.6, -9329.626, -0.22329164, -0.09192229, -728899.2, -107509.195, 0.0, 10.000172, 9.999738 
2.881249e+3, 2.4658717e+2, -689197.6, -718370.94, 164133.23, -0.24771024, -0.04012013, -539004.1, -15548.922, 0.0, 9.99998, 9.99935 
2.8808862e+3, 2.565811e+2, -825957.94, -790831.06, 145733.7, -0.34243482, 0.043721493, -661606.25, -236087.14, 0.0, 9.998588, 9.998866 
2.880522e+3, 2.665742e+2, -553743.4, -489174.06, -14329.246, -0.22594985, 0.08989569, -486136.97, -158551.03, 0.0, 9.99932, 9.999856 
2.8801572e+3, 2.7656642e+2, -325344.7, -362641.97, 2356.2727, 0.048768096, -0.059580307, -325196.44, -95537.195, 0.0, 10.000322, 9.999607 
2.8797922e+3, 2.8656092e+2, -103810.08, 55946.246, 234127.31, -0.1516289, -0.022804067, 223446.58, 355156.25, 0.0, 10.000091, 10.001885 
2.8794274e+3, 2.965563e+2, -298012.63, -117723.46, 147242.73, -0.6190066, -0.05570003, -35222.55, -1470.9922, 0.0, 9.998588, 10.000788 
2.8790605e+3, 3.0655125e+2, -251043.48, -200524.39, -117851.88, -0.6460563, 0.11852071, -105255.48, -105255.48, 0.0, 9.99898, 9.999335 
2.8786945e+3, 3.1654587e+2, -181680.94, -187282.88, -56344.082, -0.27186853, 0.24299332, -128068.24, -128068.24, 0.0, 9.999238, 9.99902 
2.8783244e+3, 3.2654092e+2, -56713.336, 498806.25, 122283.24, -0.51700526, 0.1717319, 524532.4, 524532.4, 0.0, 9.997612, 10.004317 
2.8952256e+3, 1.370246e+2, -1738857.8, -1289451.8, 57958.727, -0.16183564, 0.49685073, -1282097.3, 315103.44, 0.0000000028010363, 9.99791, 10.003786 
2.8948668e+3, 1.470205e+2, -1569106.8, -1629200.4, 70180.19, 0.19539224, 0.621078, -1522811.9, -23584.541, 0.0, 10.000514, 9.999554 
2.894501e+3, 1.570083e+2, -1343394.9, -1507902.5, 58299.504, -0.16091691, 0.042176314, -1324829.5, 76510.42, 0.0, 10.001541, 9.999243 
2.894139e+3, 1.6700187e+2, -1173083.3, -1297350.3, 22122.43, -0.2325198, 0.08492981, -1169262.5, 134141.11, 0.0, 10.001711, 9.999901 
2.8937775e+3, 1.7699759e+2, -1186361.8, -1293967.1, 50509.89, -0.27651864, 0.27637962, -1166367.6, 39081.914, 0.0, 10.001094, 9.999576 
2.893418e+3, 1.8699095e+2, -931615.56, -1001469.2, 99710.11, -0.20758264, 0.25346947, -860892.06, 246621.58, 0.0, 10.001718, 10.00062 
2.89306e+3, 1.9698332e+2, -769380.44, -934339.56, 142891.81, -0.0841378, 0.065711565, -686872.3, 322713.72, 0.0, 10.0023775, 10.000123 
2.892698e+3, 2.069782e+2, -801945.44, -864312.8, 40727.582, -0.12714094, 0.19580413, -781834.3, 129804.18, 0.0, 10.001425, 10.000321 
2.892334e+3, 2.1697372e+2, -964237.3, -914624.06, 35805.336, -0.2891076, 0.34360605, -895871.6, -82185.4, 0.0, 9.999656, 10.000188 
2.89197e+3, 2.2696787e+2, -800127.75, -657502.8, -32223.94, -0.29046947, 0.33606407, -650560.25, 65180.758, 0.0, 9.999601, 10.001288 
2.8916058e+3, 2.3696119e+2, -648421.8, -583515.06, 19058.996, -0.2367874, 0.17641024, -578332.5, 39468.145, 0.0, 10.000139, 10.000898 
2.8912428e+3, 2.4695505e+2, -644970.06, -568661.3, 129930.56, -0.20256129, 0.1626411, -471398.9, 48459.363, 0.0, 9.999645, 10.000571 
2.8908795e+3, 2.5694886e+2, -719393.6, -602792.44, 158327.48, -0.22204885, 0.13983826, -492372.72, -70453.805, 0.0, 9.9986105, 10.000184 
2.890515e+3, 2.669423e+2, -390486.6, -373540.6, 119616.63, -0.2732984, 0.13836856, -262097.25, 61883.203, 0.0, 10.000231, 10.000228 
2.8901497e+3, 2.7693522e+2, 108846.75, -148454.34, 130184.09, -0.32087043, 0.06860694, 163223.14, 389269.22, 0.0, 10.003199, 9.99971 
2.889786e+3, 2.8692853e+2, 46575.508, -142605.31, 138475.31, -0.3054512, 0.11695728, 119683.51, 247796.06, 0.0, 10.002175, 9.999557 
2.889423e+3, 2.9692203e+2, -271164.56, -238231.34, -12636.644, -0.3028837, 0.13692984, -233941.4, -203762.27, 0.0, 9.999233, 9.999677 
2.8890568e+3, 3.0691656e+2, -123164.46, 105962.52, -166515.75, -0.21088327, 0.16663504, 193518.52, 193518.52, 0.0, 9.998733, 10.001615 
2.888691e+3, 3.1691125e+2, -8420.727, 98679.66, -65430.984, 0.085950695, 0.120564826, 129680.26, 129680.26, 0.0, 9.99944, 10.000961 
2.888323e+3, 3.269069e+2, 598994.1, 586602.8, -14259.198, -0.15359925, 0.2085846, 608345.5, 608345.5, 0.0, 10.002828, 10.002592 
2.9052204e+3, 1.3738865e+2, -1545274.6, -1395265.3, 188598.84, 0.044691723, 0.499075, -1267303.9, 326323.4, 0.00000000011876347, 9.999984, 10.002131 
2.9048613e+3, 1.4738192e+2, -1339337.5, -1468867.1, 35179.832, 0.19341946, 0.39808258, -1330399.6, 165283.48, 0.0, 10.00185, 10.000053 
2.9044965e+3, 1.5737137e+2, -1465615.9, -1540178.1, 156583.72, -0.0912956, -0.044493917, -1341936.3, 55841.656, 0.0, 10.000563, 9.9995165 
2.9041347e+3, 1.6736563e+2, -1331934.5, -1401465.8, 180307.97, -0.14844278, 0.08600127, -1183071.1, 116766.74, 0.0, 10.000762, 9.999641 
2.9037735e+3, 1.7736177e+2, -1193301.8, -1307462.5, 191330.98, -0.1718242, 0.35962066, -1050718.1, 151166.02, 0.0, 10.00109, 9.999504 
2.9034138e+3, 1.8735512e+2, -1029214.1, -969857.5, 237793.52, -0.14086704, 0.3053098, -759897.44, 344050.97, 0.0, 10.000708, 10.0013075 
2.9030555e+3, 1.973471e+2, -1089413.1, -1012290.4, 200791.52, -0.027646886, 0.001672893, -846391.0, 159630.8, 0.0, 9.999868, 10.000758 
2.9026926e+3, 2.0734234e+2, -998935.3, -905634.56, 132221.67, -0.08820202, 0.11205935, -812075.0, 95994.164, 0.0, 9.999834, 10.000777 
2.9023278e+3, 2.1733862e+2, -984443.0, -901646.06, 188909.86, -0.19654113, 0.29621837, -749651.75, 60457.375, 0.0, 9.99945, 10.000352 
2.9019636e+3, 2.27334e+2, -792440.5, -626010.9, 151306.67, -0.21824074, 0.40790358, -536545.56, 175609.69, 0.0, 9.999623, 10.001442 
2.9015997e+3, 2.3732871e+2, -770708.25, -646609.4, 89762.76, -0.18617569, 0.364792, -599537.4, 14668.963, 0.0, 9.999369, 10.0008135 
2.9012367e+3, 2.4732298e+2, -604074.75, -442944.34, 115089.05, -0.12582856, 0.34997344, -383023.8, 133236.02, 0.0, 9.9995985, 10.001366 
2.9008734e+3, 2.5731674e+2, -642967.3, -517890.3, 107016.59, -0.05986207, 0.21611449, -456478.75, -38160.97, 0.0, 9.999062, 10.000481 
2.9005086e+3, 2.6731056e+2, -358656.88, -339149.97, 165305.95, -0.3136201, 0.22504608, -183309.98, 137064.94, 0.0, 10.000438, 10.000329 
2.9001427e+3, 2.77304e+2, -174707.06, -383050.0, 108347.516, -0.6553913, 0.1698843, -128575.91, 93859.34, 0.0, 10.001748, 9.998784 
2.8997803e+3, 2.872962e+2, -252561.67, -537075.94, -7317.093, -0.4249334, 0.28637972, -252373.63, -127856.58, 0.0, 10.001337, 9.997211 
2.899419e+3, 2.972877e+2, -428973.94, -507595.63, -61851.234, 0.028192742, 0.32693383, -394998.25, -368388.66, 0.0, 9.99913, 9.997834 
2.8990474e+3, 3.072811e+2, 21951.977, 427349.25, -158968.5, -0.36623624, 0.17246935, 482250.56, 482250.56, 0.0, 9.998844, 10.003609 
2.898675e+3, 3.1727624e+2, -289992.78, -195768.6, -105177.49, -0.81882507, -0.0034743177, -127633.76, -127633.76, 0.0, 9.998416, 9.999304 
2.8983158e+3, 3.272694e+2, -520289.75, -538185.1, -149058.75, -0.49928752, 0.14337899, -379910.38, -379910.38, 0.0, 9.997966, 9.996942 
2.9152167e+3, 1.3774832e+2, -1852980.4, -1879563.6, 362743.94, 0.21964902, 0.22439736, -1503284.6, 86803.26, 0.0000000000007792345, 9.999401, 9.999079 
2.9148534e+3, 1.4774065e+2, -1236414.4, -1105304.8, -14657.048, -0.14128824, -0.03075897, -1103686.3, 388475.56, 0.0, 10.001253, 10.002812 
2.9144898e+3, 1.5773888e+2, -1426712.6, -1327771.9, 152761.58, -0.22105426, 0.13896005, -1216670.1, 177501.73, 0.0, 10.000013, 10.001237 
2.9141295e+3, 1.6773356e+2, -1385912.9, -1438154.6, 209610.8, -0.11418446, 0.2522583, -1200801.8, 95427.18, 0.0, 10.000443, 9.999532 
2.9137695e+3, 1.7772707e+2, -1229945.0, -1337429.9, 229874.16, -0.06661184, 0.27570283, -1047614.6, 150687.23, 0.0, 10.000872, 9.999412 
2.9134086e+3, 1.8772173e+2, -1059851.3, -991495.44, 208564.02, -0.10068218, 0.3546963, -814327.44, 286029.38, 0.0, 10.000507, 10.001256 
2.913048e+3, 1.9771656e+2, -1119686.4, -951194.56, 203578.63, -0.15907842, 0.34144822, -815118.8, 187288.05, 0.0, 9.999292, 10.001469 
2.912685e+3, 2.0771214e+2, -834008.9, -529813.44, 178223.8, -0.17819543, 0.2896994, -447609.16, 456835.0, 0.0, 9.99962, 10.003487 
2.9123214e+3, 2.1770778e+2, -769165.3, -620291.25, 282315.47, -0.23767945, 0.17363872, -402764.44, 403715.56, 0.0, 10.000085, 10.002007 
2.9119575e+3, 2.2770186e+2, -838949.9, -862850.1, 204783.42, -0.21269816, 0.22027516, -645768.2, 62772.29, 0.0, 10.000174, 9.999579 
2.9115933e+3, 2.3769516e+2, -767598.2, -803457.75, 147793.42, -0.18973032, 0.24544023, -636650.94, -26039.41, 0.0, 9.999966, 9.999484 
2.9112303e+3, 2.476889e+2, -549001.8, -510399.63, 140680.67, -0.108826846, 0.2724638, -387702.2, 124971.8, 0.0, 10.000288, 10.000596 
2.910868e+3, 2.5768274e+2, -409308.28, -458461.6, 110374.73, -0.041435342, 0.23415191, -320807.13, 93927.01, 0.0, 10.000764, 10.000099 
2.910504e+3, 2.6767626e+2, -285358.66, -377291.44, 148114.58, -0.22259113, 0.26360098, -176241.72, 140555.45, 0.0, 10.001141, 9.999782 
2.9101393e+3, 2.7766964e+2, -199061.16, -377611.84, 64489.484, -0.51542103, 0.26396915, -178204.84, 40656.96, 0.0, 10.001392, 9.9990225 
2.9097763e+3, 2.8766257e+2, -138722.39, -367358.47, -4359.4614, -0.33332467, 0.36488795, -138639.3, -17704.418, 0.0, 10.001551, 9.998299 
2.9094106e+3, 2.97654e+2, -113853.766, -251539.39, 4153.956, -0.21890692, 0.32573253, -113728.56, -90704.266, 0.0, 10.00067, 9.998881 
2.92521e+3, 1.3811052e+2, -1649852.5, -1810566.8, 406439.7, 0.11628595, 0.042566445, -1315902.4, 270632.94, 0.0, 10.00084, 9.998865 
2.9248482e+3, 1.4810458e+2, -1461487.8, -1215647.4, 47950.08, -0.037961736, -0.027787162, -1206625.9, 281969.88, 0.0, 9.999655, 10.002839 
2.9244837e+3, 1.581043e+2, -1272480.0, -1206414.5, 8383.056, -0.21191227, 0.2791543, -1205367.4, 185227.28, 0.0, 10.000832, 10.001682 
2.924124e+3, 1.6809916e+2, -1320353.0, -1305476.9, 103160.734, -0.07165103, 0.3211706, -1209486.4, 83161.23, 0.0, 10.000427, 10.000478 
2.923765e+3, 1.780921e+2, -1394780.4, -1337169.3, 191330.08, 0.08164647, 0.1990287, -1172488.5, 22233.998, 0.0, 9.999392, 10.000145 
2.9234028e+3, 1.8808785e+2, -1212814.0, -1056268.8, 199478.02, -0.052926864, 0.34619212, -920256.4, 176511.11, 0.0, 9.999459, 10.001295 
2.9230404e+3, 1.9808418e+2, -1125078.8, -948660.56, 177088.25, -0.184926, 0.4747017, -839028.56, 159776.48, 0.0, 9.999213, 10.001543 
2.9226777e+3, 2.0807971e+2, -898385.6, -463437.03, 61560.25, -0.18568613, 0.3581053, -454892.0, 445948.44, 0.0, 9.998833, 10.004307 
2.922315e+3, 2.1807478e+2, -1089879.6, -757082.0, -14502.62, -0.15452161, 0.07915021, -756451.2, 46426.09, 0.0, 9.99787, 10.002133 
2.9219514e+3, 2.2806838e+2, -992567.4, -1031106.44, 3965.6738, -0.16501713, 0.09908595, -992163.56, -287220.16, 0.0, 9.999565, 9.998704 
2.9215872e+3, 2.3806125e+2, -708579.2, -902094.8, 54226.063, -0.15701427, 0.143168, -694420.2, -87398.78, 0.0, 10.000998, 9.998294 
2.9212245e+3, 2.4805474e+2, -562144.3, -618402.94, 83390.19, -0.10496629, 0.23837924, -502266.94, 6822.322, 0.0, 10.000706, 9.999636 
2.920862e+3, 2.5804833e+2, -721031.75, -723550.0, 61143.887, -0.024073936, 0.24915789, -661134.0, -249979.39, 0.0, 9.999202, 9.999027 
2.9204994e+3, 2.68042e+2, -526316.44, -480345.16, 163463.39, -0.124351844, 0.32194775, -338259.22, -25039.768, 0.0, 9.999612, 9.999711 
2.920136e+3, 2.7803564e+2, -460362.6, -480902.88, 142885.48, -0.30222604, 0.3281249, -327378.63, -112094.484, 0.0, 9.999626, 9.999128 
2.919772e+3, 2.8802976e+2, -131651.78, -183138.2, 74096.375, -0.23083691, 0.44286, -78954.016, 38388.496, 0.0, 10.000935, 9.999798 
2.9194006e+3, 2.9802114e+2, -187812.9, -200218.97, -38161.008, -0.63114566, 0.2017286, -155354.06, -135926.11, 0.0, 9.999921, 9.999577 
2.9352018e+3, 1.3847703e+2, -1722323.1, -1637732.8, 98101.7, -0.17711358, 0.18035509, -1573197.1, 9752.55, 0.0, 9.99956, 10.000632 
2.9348457e+3, 1.4847256e+2, -1708114.1, -1616425.4, 86810.76, 0.37265155, 0.35353935, -1564097.4, -79100.336, 0.0, 9.9991865, 10.000314 
2.934478e+3, 1.584664e+2, -1413774.6, -1386780.0, 31914.174, -0.26242432, 0.30330074, -1365626.4, 21433.918, 0.0, 10.000345, 10.000687 
2.9341176e+3, 1.6846196e+2, -1185299.5, -959037.25, 50595.727, -0.13108796, 0.27466875, -948238.7, 340861.78, 0.0, 10.000157, 10.0029745 
2.933758e+3, 1.7845748e+2, -1329437.9, -1107309.6, 179127.63, 0.042875804, 0.17811419, -1007608.56, 183531.48, 0.0, 9.998968, 10.001935 
2.9333955e+3, 1.8845278e+2, -1221461.6, -1030428.3, 203404.02, -0.1076524, 0.19849855, -901230.44, 191953.73, 0.0, 9.999255, 10.001575 
2.9330328e+3, 1.9844782e+2, -1172843.0, -1060528.6, 174252.56, -0.30278525, 0.1992313, -933607.75, 61623.645, 0.0, 9.99925, 10.000759 
2.9326704e+3, 2.0844203e+2, -1169968.3, -994115.75, -31512.639, -0.16853954, 0.20745519, -988639.25, -91350.53, 0.0, 9.998703, 10.000723 
2.9323077e+3, 2.1843599e+2, -1203436.9, -985269.9, -103209.34, -0.040719494, 0.14928633, -944182.2, -144834.06, 0.0, 9.997762, 10.000643 
2.9319453e+3, 2.2843136e+2, -728908.06, -623977.1, 11519.274, -0.115903795, 0.21963993, -622727.44, 78667.18, 0.0, 10.000043, 10.001331 
2.9315823e+3, 2.3842676e+2, -325664.44, -523420.53, 51367.203, -0.27826494, 0.28083712, -313117.8, 290324.16, 0.0, 10.002643, 10.000163 
2.9312178e+3, 2.4842034e+2, -495448.22, -683672.8, -46466.426, -0.2830612, 0.36561072, -484602.2, 20907.904, 0.0, 10.001478, 9.998876 
2.930853e+3, 2.5841337e+2, -651812.3, -629867.44, -26227.469, -0.25521025, 0.39375222, -612409.75, -204825.77, 0.0, 9.99928, 9.9996805 
2.9304916e+3, 2.6840776e+2, -441970.75, -206999.16, 166842.67, -0.2155017, 0.36849904, -120427.64, 189208.97, 0.0, 9.99906, 10.001905 
2.9301304e+3, 2.7840266e+2, -276380.3, -154632.36, 188024.75, -0.21513715, 0.296327, -17872.977, 193810.7, 0.0, 9.999667, 10.001413 
2.929769e+3, 2.8839868e+2, -61400.504, -65271.414, 147673.33, -0.0064229276, 0.46717983, 84350.055, 198072.8, 0.0, 10.000839, 10.000773 
2.9293984e+3, 2.9839167e+2, 209460.34, -9969.72, -64353.13, -0.34717143, 0.33999756, 226940.88, 242734.97, 0.0, 10.002321, 9.999836 
2.9451966e+3, 1.3884398e+2, -1551804.5, -1438095.4, 178792.11, -0.02900223, 0.36918563, -1307335.8, 272020.34, 0.0, 10.000073, 10.001809 
2.9448387e+3, 1.488374e+2, -1460123.6, -1608300.8, 151979.4, 0.27706334, 0.3662649, -1365135.6, 116286.73, 0.0, 10.001328, 9.999354 
2.9444724e+3, 1.5882981e+2, -1579284.9, -1498335.6, 161436.23, -0.16841581, 0.2706486, -1372377.5, 11125.009, 0.0, 9.999322, 10.000426 
2.9441118e+3, 1.6882622e+2, -1221873.6, -893717.0, 90726.375, -0.044073854, 0.2995663, -870304.06, 415230.2, 0.0, 9.999586, 10.003687 
2.9437515e+3, 1.7882314e+2, -1149402.0, -967920.1, 81101.46, 0.111260824, 0.26595634, -936959.1, 250599.0, 0.0, 9.999993, 10.00237 
2.9433888e+3, 1.8881762e+2, -1060195.5, -947014.94, 100323.234, -0.09619874, 0.1755476, -888421.8, 201185.11, 0.0, 10.000342, 10.001619 
2.943026e+3, 1.9881135e+2, -1079516.0, -1102648.0, 41036.016, -0.26197156, 0.038044717, -1048447.2, -56782.82, 0.0, 10.000292, 9.999963 
2.9426637e+3, 2.0880467e+2, -963253.9, -1125857.1, -29491.283, -0.12623948, 0.10077222, -958070.3, -64335.344, 0.0, 10.001113, 9.99865 
2.9423013e+3, 2.1879795e+2, -830563.9, -959069.1, 62963.938, 0.07503593, 0.18140873, -804856.2, -9048.469, 0.0, 10.001005, 9.999269 
2.9419398e+3, 2.2879438e+2, -507591.56, -352487.2, 154229.92, -0.047993563, 0.31793138, -257409.11, 440433.7, 0.0, 10.000975, 10.002663 
2.9415777e+3, 2.3879121e+2, -644498.2, -625891.9, -4225.7886, -0.2430469, 0.3779324, -624977.1, -25104.418, 0.0, 10.000356, 10.000498 
2.9412115e+3, 2.4878469e+2, -605235.6, -756410.75, -148178.61, -0.37237445, 0.45423433, -514479.0, -12536.966, 0.0, 10.000971, 9.998537 
2.9408446e+3, 2.5877765e+2, -467551.0, -510944.2, -56497.91, -0.41596776, 0.47532356, -428726.9, -24709.404, 0.0, 10.00057, 9.99984 
2.940484e+3, 2.6877272e+2, -202661.52, 83188.445, 104277.086, -0.27465555, 0.39423823, 117185.086, 423245.2, 0.0, 9.999993, 10.003451 
2.940125e+3, 2.7876842e+2, -393552.06, -99457.92, 50396.72, -0.09564541, 0.2299524, -91061.53, 117032.61, 0.0, 9.998511, 10.002323 
2.939765e+3, 2.887662e+2, -163518.72, -374.39478, 30941.16, 0.21249513, 0.46600482, 5296.626, 115412.164, 0.0, 9.999826, 10.001631 
2.9393983e+3, 2.9876015e+2, -104016.695, -235527.55, -143014.83, 0.058763348, 0.3704427, -12364.942, -186.27763, 0.0, 10.000815, 9.998906 
2.9551917e+3, 1.3921015e+2, -1518831.4, -1282704.8, 420595.97, -0.0043301913, 0.5164038, -963915.8, 611851.06, 0.0, 9.999734, 10.003055 
2.9548264e+3, 1.4919998e+2, -1495000.5, -1567498.6, 51238.637, -0.43121788, 0.06905744, -1468485.0, 9376.984, 0.0, 10.000879, 9.999833 
2.9544666e+3, 1.5919524e+2, -1703654.9, -1608436.0, 122547.59, -0.07495863, 0.23048665, -1524574.6, -144662.55, 0.0, 9.998685, 9.999989 
2.9541066e+3, 1.6919206e+2, -1383915.8, -1165926.8, 103285.09, 0.115267396, 0.4269482, -1124762.6, 157185.03, 0.0, 9.999305, 10.001953 
2.9537454e+3, 1.7918889e+2, -1234301.1, -1130749.3, 79358.82, 0.072715476, 0.5518087, -1087769.9, 96211.85, 0.0, 9.999917, 10.001297 
2.9533833e+3, 1.8918204e+2, -1044361.1, -966591.1, 65797.49, -0.087200426, 0.36910984, -929047.4, 156996.78, 0.0, 10.000542, 10.001396 
2.9530215e+3, 1.9917455e+2, -960566.75, -969632.9, 30025.65, -0.23856, 0.123966224, -934733.94, 53377.86, 0.0, 10.000719, 10.00069 
2.9526588e+3, 2.0916873e+2, -651279.7, -741487.2, 11987.814, -0.21215552, 0.0993844, -649713.8, 240453.42, 0.0, 10.002141, 10.000842 
2.9522955e+3, 2.1916309e+2, -493121.06, -753020.1, 122069.39, -0.19006751, 0.12109841, -444779.22, 347443.66, 0.0, 10.003046, 9.999731 
2.9519352e+3, 2.2915755e+2, -593097.5, -728810.56, 107076.016, -0.057954, 0.25490886, -534187.44, 160093.16, 0.0, 10.0018, 9.999701 
2.951575e+3, 2.3915197e+2, -697001.6, -748879.56, -77762.125, 0.014863426, 0.3426302, -640966.3, -44627.63, 0.0, 10.0003195, 9.999689 
2.9512084e+3, 2.4914537e+2, -406507.38, -504293.1, -134548.88, -0.18923272, 0.32363406, -312243.28, 186161.2, 0.0, 10.001536, 10.00006 
2.950841e+3, 2.591386e+2, -45027.992, -262474.16, -65862.47, -0.39798808, 0.26463595, -26634.7, 373837.0, 0.0, 10.003123, 10.000378 
2.9504794e+3, 2.6913318e+2, -113730.68, -111106.664, -70726.47, -0.20909606, 0.25186765, -41680.035, 260843.27, 0.0, 10.001515, 10.00144 
2.9501185e+3, 2.791283e+2, -297691.94, -137191.84, -158817.6, 0.0013626178, 0.22271495, -39500.617, 165067.61, 0.0, 9.999387, 10.001689 
2.9497594e+3, 2.891248e+2, -86144.89, 86886.414, -135787.77, 0.29612553, 0.2875209, 161377.83, 267976.3, 0.0, 9.999967, 10.002239 
2.94939e+3, 2.9911914e+2, 176126.95, -16819.986, -185128.64, -0.2641516, 0.19149181, 288411.1, 297062.5, 0.0, 10.002081, 9.999864 
2.9651856e+3, 1.395689e+2, -1598802.4, -1283499.6, 96810.305, 0.06392659, 0.39857727, -1256147.8, 316112.22, 0.0, 9.998997, 10.003419 
2.964818e+3, 1.4956178e+2, -1725293.9, -1485431.8, -279149.13, -0.59333885, 0.10198264, -1301541.0, 172777.16, 0.0, 9.998479, 10.00158 
2.96446e+3, 1.595577e+2, -1692701.9, -1552035.9, -79594.89, 0.07090371, 0.17455198, -1516151.8, -139795.6, 0.0, 9.998492, 10.000494 
2.9641005e+3, 1.69554e+2, -1287704.8, -1266874.4, 24498.861, 0.16982147, 0.37283263, -1250668.6, 27731.05, 0.0, 10.000513, 10.000716 
2.9637396e+3, 1.7955028e+2, -955860.9, -1069790.9, 17861.254, 0.04659315, 0.5371997, -953126.3, 227317.75, 0.0, 10.002118, 10.000675 
2.9633778e+3, 1.895444e+2, -979079.5, -916109.1, -9965.131, -0.06931806, 0.4458876, -914569.75, 167929.5, 0.0, 10.000969, 10.001514 
2.9630166e+3, 1.9953765e+2, -1174783.9, -1048712.0, 2568.7808, -0.07167006, 0.2597712, -1048659.6, -64099.16, 0.0, 9.999199, 10.000871 
2.962654e+3, 2.0953253e+2, -761590.3, -656695.06, -54155.598, -0.20573749, 0.21507663, -633753.2, 252852.55, 0.0, 10.000902, 10.001974 
2.9622903e+3, 2.1952733e+2, -680992.5, -876990.8, -90218.49, -0.31186783, 0.1685096, -645788.0, 142864.72, 0.0, 10.001996, 9.999353 
2.9619303e+3, 2.2951975e+2, -751738.3, -1018243.1, -45267.477, -0.065509245, 0.22602093, -744259.25, -53528.293, 0.0, 10.001665, 9.9977665 
2.961571e+3, 2.3951218e+2, -781252.06, -881355.0, -62477.21, 0.23472805, 0.26972777, -751250.06, -158439.88, 0.0, 10.000198, 9.998849 
2.9612046e+3, 2.4950589e+2, -409399.06, -351892.56, -65708.3, -0.03056051, 0.20489198, -308921.84, 185947.11, 0.0, 10.000915, 10.001375 
2.9608378e+3, 2.5949964e+2, -413545.8, -499157.53, -75399.65, -0.30883384, 0.089987144, -369648.44, 27278.28, 0.0, 10.000954, 9.999759 
2.960475e+3, 2.6949352e+2, -381264.06, -460209.72, -101742.14, -0.12392527, 0.1613016, -311605.94, -12616.98, 0.0, 10.000715, 9.999367 
2.9601124e+3, 2.7948758e+2, -424541.9, -359831.78, -75104.35, 0.08973951, 0.20835917, -310409.63, -109360.08, 0.0, 9.999356, 10.000131 
2.959753e+3, 2.8948227e+2, -4981.665, 169665.63, 1651.4281, 0.29691947, 0.10983847, 169681.23, 272774.25, 0.0, 10.000491, 10.002479 
2.959381e+3, 2.9947567e+2, 45111.543, 29731.746, 69692.67, -0.76988375, -0.14113855, 107537.29, 112685.68, 0.0, 10.000914, 10.000701 
2.97518e+3, 1.3992488e+2, -1731566.4, -1360689.9, -85667.02, 0.13573845, 0.47246188, -1341858.1, 226931.58, 0.0, 9.998267, 10.003197 
2.9748127e+3, 1.4992268e+2, -1590560.4, -1093885.0, -283002.4, -0.30108267, 0.44743136, -965709.8, 505082.97, 0.0, 9.998041, 10.004456 
2.9744518e+3, 1.5991656e+2, -1662338.0, -1402705.9, -43515.004, -0.004468609, 0.07754235, -1395606.8, -22765.521, 0.0, 9.998147, 10.001676 
2.974093e+3, 1.6991088e+2, -1306523.1, -1306687.5, 103789.555, -0.042837955, 0.05880213, -1202815.8, 72085.45, 0.0, 10.000529, 10.000432 
2.9737335e+3, 1.7990567e+2, -903304.1, -1031465.25, -3904.1309, -0.24069928, 0.1051543, -903185.3, 273773.2, 0.0, 10.002405, 10.000809 
2.973372e+3, 1.8990378e+2, -899936.2, -814018.75, -125308.77, -0.12169157, 0.3598674, -724509.6, 354469.16, 0.0, 10.001164, 10.002153 
2.9730108e+3, 1.9990136e+2, -1195677.9, -1093935.3, -40000.53, 0.013991162, 0.56602865, -1080092.4, -99088.984, 0.0, 9.999133, 10.000616 
2.972649e+3, 2.0989537e+2, -904919.1, -929085.9, -42363.16, -0.15261008, 0.57017887, -872949.75, 10113.331, 0.0, 10.000759, 10.0001955 
2.972286e+3, 2.1988876e+2, -578494.0, -790590.44, -168376.03, -0.37525228, 0.5148436, -485553.0, 299575.03, 0.0, 10.002419, 9.999788 
2.9719245e+3, 2.2988068e+2, -503342.34, -656911.4, -128768.23, -0.24277763, 0.33350426, -430203.16, 257001.6, 0.0, 10.002187, 10.000069 
2.9715627e+3, 2.3987289e+2, -465305.97, -571180.25, -73178.85, -0.100302525, 0.16321547, -427924.3, 161354.39, 0.0, 10.001566, 10.000359 
2.971198e+3, 2.4986823e+2, -363537.06, -354545.0, -76557.07, -0.16606413, 0.23221089, -282352.06, 208970.64, 0.0, 10.001212, 10.001266 
2.970833e+3, 2.5986364e+2, -349341.63, -393771.34, -116758.12, -0.244063, 0.29435015, -252703.81, 140662.34, 0.0, 10.000916, 10.000538 
2.9704702e+3, 2.698575e+2, -247818.9, -299067.0, -79638.37, -0.042951167, 0.2765607, -189783.75, 105643.18, 0.0, 10.001075, 10.000382 
2.970107e+3, 2.7985114e+2, -52898.55, -98102.02, 35228.816, 0.077421814, 0.2242143, -33644.49, 163844.86, 0.0, 10.001358, 10.001036 
2.9697457e+3, 2.8984562e+2, 223439.08, 238800.25, 140274.47, 0.046505284, 0.10832904, 371604.25, 471139.47, 0.0, 10.002092, 10.002279 
2.969379e+3, 2.998405e+2, 143058.11, 22844.1, 39160.36, -0.5103867, 0.101819284, 154689.42, 156266.38, 0.0, 10.001642, 10.000379 
2.9851732e+3, 1.4028627e+2, -1310759.3, -1252145.4, 108410.76, 0.050712205, 0.46619034, -1169150.0, 396100.06, 0.0, 10.001451, 10.00244 
2.9848075e+3, 1.5028638e+2, -1098383.1, -918641.44, -44427.176, -0.12584902, 0.7777155, -908259.9, 558976.06, 0.0, 10.001604, 10.003981 
2.984447e+3, 1.6027765e+2, -1076837.3, -1165760.5, -23875.123, 0.11472504, 0.18943831, -1070832.5, 298478.47, 0.0, 10.002321, 10.001334 
2.9840872e+3, 1.7027125e+2, -1322037.0, -1337820.9, 89088.414, -0.047466587, 0.13150634, -1240491.6, 30884.094, 0.0, 10.000552, 10.000231 
2.9837278e+3, 1.8026522e+2, -1412553.3, -1290911.8, -27662.146, -0.25337732, 0.11709109, -1284916.6, -111478.01, 0.0, 9.998955, 10.000721 
2.9833663e+3, 1.9026381e+2, -1050873.6, -838953.6, -186643.39, -0.12015373, 0.39199647, -730290.06, 345165.3, 0.0, 9.99991, 10.002614 
2.9830045e+3, 2.0026278e+2, -1018474.75, -1010865.94, -48333.426, 0.048949923, 0.68609494, -966187.44, 11281.019, 0.0, 10.000365, 10.000604 
2.9826435e+3, 2.1025597e+2, -860482.06, -1014414.75, 102619.016, -0.16868281, 0.6617122, -809173.4, 70366.67, 0.0, 10.001462, 9.999298 
2.9822823e+3, 2.2024913e+2, -690911.7, -792422.25, 20129.066, -0.32752097, 0.63272345, -687065.9, 94544.266, 0.0, 10.001481, 10.000229 
2.9819193e+3, 2.3024282e+2, -515011.0, -422350.06, -37553.3, -0.27076206, 0.47099152, -409041.9, 274623.2, 0.0, 10.001181, 10.002132 
2.981556e+3, 2.4023584e+2, -648164.0, -596170.94, -30410.625, -0.20540898, 0.22955208, -582159.6, 3566.6187, 0.0, 10.000133, 10.000865 
2.9811922e+3, 2.5023147e+2, -457793.75, -392314.2, -22270.7, -0.21571822, 0.3128663, -385457.53, 102311.16, 0.0, 10.000677, 10.001218 
2.9808286e+3, 2.602276e+2, -442227.72, -451574.6, -39767.31, -0.13363029, 0.4685055, -406860.16, -17053.436, 0.0, 10.000452, 10.000355 
2.9804656e+3, 2.7022204e+2, -176876.86, -119358.17, -24665.916, 0.02338766, 0.41990477, -110229.43, 181630.42, 0.0, 10.001042, 10.001601 
2.9801014e+3, 2.802161e+2, -218899.05, -176136.28, 78947.63, 0.038377702, 0.29871085, -115725.9, 78190.02, 0.0, 10.000367, 10.00096 
2.9797384e+3, 2.9021025e+2, -101919.46, 40959.02, 147360.14, -0.22067332, 0.17532021, 133283.56, 229249.9, 0.0, 10.0002, 10.001778 
2.9793802e+3, 3.0020648e+2, -363765.25, -261741.89, -117472.78, 0.11762326, 0.3361964, -184683.1, -184683.1, 0.0, 9.998617, 9.99981 
2.9951644e+3, 1.4065087e+2, -1621801.8, -1569786.6, -80277.375, -0.37506762, 0.30153915, -1511409.0, 50255.527, 0.0, 10.000166, 10.000875 
2.9948026e+3, 1.5065174e+2, -1462678.3, -1513894.1, -9575.585, -0.15114398, 1.017093, -1460946.5, 2713.2349, 0.0, 10.00099, 10.000178 
2.9944453e+3, 1.6064078e+2, -1317751.8, -1517441.8, -47544.49, 0.30703273, 0.54430246, -1307009.6, 58759.78, 0.0, 10.001705, 9.999216 
2.9940844e+3, 1.7063525e+2, -1447329.4, -1427536.6, -27510.621, 0.2355061, 0.64799637, -1408196.5, -140371.52, 0.0, 9.999829, 9.999963 
2.9937226e+3, 1.8063027e+2, -1520259.3, -1274279.4, -60798.07, -0.071571335, 0.7385079, -1260072.6, -90197.57, 0.0, 9.997962, 10.001292 
2.993358e+3, 1.9062358e+2, -1046076.7, -772337.25, -121928.97, -0.28434685, 0.42863527, -725904.0, 346035.3, 0.0, 9.999719, 10.003141 
2.9929957e+3, 2.0061742e+2, -922963.6, -827355.3, -17557.227, -0.35198542, 0.16400248, -824233.1, 149765.8, 0.0, 10.000417, 10.00183 
2.9926375e+3, 2.1061265e+2, -687131.3, -666988.06, 153997.61, -0.34591934, 0.14825171, -522733.1, 353314.4, 0.0, 10.001517, 10.001656 
2.9922774e+3, 2.2060806e+2, -502569.88, -565737.25, 57870.633, -0.39215866, 0.16608389, -468225.28, 309868.7, 0.0, 10.002126, 10.001477 
2.9919168e+3, 2.3060685e+2, -502735.03, -426232.13, -44292.203, -0.044414952, 0.50572956, -405960.3, 274142.0, 0.0, 10.001221, 10.0021305 
2.9915556e+3, 2.4060522e+2, -497679.53, -430765.56, -15971.288, 0.27644897, 0.77928036, -427148.94, 154965.55, 0.0, 10.000688, 10.001746 
2.99119e+3, 2.5059712e+2, -303996.3, -269434.28, 21636.73, 0.09655013, 0.44007117, -259024.47, 225167.44, 0.0, 10.001463, 10.001728 
2.9908237e+3, 2.605895e+2, -186146.77, -239700.9, 7846.8755, -0.13559294, 0.1885431, -185020.69, 201244.14, 0.0, 10.0017, 10.001274 
2.9904592e+3, 2.7058858e+2, -74030.555, -31785.705, 10357.483, -0.088949695, 0.5799642, -29382.945, 258890.67, 0.0, 10.001535, 10.002037 
2.9900947e+3, 2.805863e+2, -110752.484, -163939.63, 57212.875, -0.100398995, 0.84111255, -74254.6, 116039.984, 0.0, 10.001146, 10.00075 
2.9897335e+3, 2.9057422e+2, -372273.8, -268222.5, 56050.57, 0.023313062, 0.22469896, -243773.75, -151364.22, 0.0, 9.998977, 10.000392 
2.9893667e+3, 3.005681e+2, -410028.63, -72368.18, -114394.914, -0.35330895, 0.24299173, -37262.527, -37262.527, 0.0, 9.997096, 10.002048 
3.0051628e+3, 1.410184e+2, -1878780.8, -1813672.0, -102026.05, 0.07401318, 0.26101682, -1739132.5, -181081.36, 0.0, 9.998619, 10.000033 
3.0047965e+3, 1.5101194e+2, -1747676.4, -2109436.3, 187168.19, -0.22804797, 0.5771585, -1668269.0, -208144.42, 0.0, 10.000939, 9.996088 
3.0044386e+3, 1.6099742e+2, -1297761.9, -1456496.3, 124510.195, 0.07043362, 0.020392835, -1229474.3, 132799.13, 0.0, 10.001482, 9.999721 
3.0040756e+3, 1.7099705e+2, -658638.56, -673644.75, 407187.2, -0.14816299, 0.3491742, -258885.38, 1005386.7, 0.0, 10.003521, 10.003308 
3.0037153e+3, 1.8099594e+2, -704340.44, -1087997.9, 548552.56, -0.26195017, 0.67134947, -315042.53, 851238.4, 0.0, 10.004307, 9.999533 
3.0033526e+3, 1.9098954e+2, -1229820.5, -1360806.4, 52622.215, -0.2442356, 0.78033656, -1211299.0, -142945.83, 0.0, 10.000482, 9.99871 
3.0029908e+3, 2.009798e+2, -1397079.8, -1341260.0, -128413.99, -0.21785975, 0.5564759, -1237757.9, -267300.97, 0.0, 9.998254, 9.999346 
3.002636e+3, 2.1097906e+2, -891181.56, -637093.94, -89143.555, 0.083781675, 0.87420654, -608938.9, 263530.53, 0.0, 9.999552, 10.002722 
3.0022782e+3, 2.2097723e+2, -677397.4, -638032.75, -342455.22, 0.09141421, 1.0624251, -314694.72, 459795.3, 0.0, 10.000828, 10.001575 
3.001908e+3, 2.3096938e+2, -553860.4, -394334.72, -347226.53, -0.30828053, 0.62656957, -117827.45, 558735.8, 0.0, 10.000626, 10.002526 
3.001542e+3, 2.4096557e+2, -739853.2, -478144.84, -166578.53, -0.4407393, 0.5644292, -397170.72, 181425.34, 0.0, 9.998727, 10.002306 
3.0011818e+3, 2.5096348e+2, -401324.44, -200765.4, 18324.297, -0.19941503, 0.68131614, -199104.92, 281504.88, 0.0, 10.000369, 10.002583 
3.0008176e+3, 2.6095828e+2, -295843.25, -342650.75, 12273.43, -0.27374095, 0.579565, -292820.25, 89835.45, 0.0, 10.001225, 10.000708 
3.000451e+3, 2.7095217e+2, -404771.66, -244205.69, -84340.945, -0.3670934, 0.4745436, -208046.61, 76669.65, 0.0, 9.999637, 10.001321 
3.0000865e+3, 2.8094798e+2, -516171.25, -495959.56, -64202.625, -0.3402475, 0.589719, -441072.28, -254314.23, 0.0, 9.999041, 9.999391 
2.9997373e+3, 2.9093856e+2, -45101.375, -211294.47, 58887.996, 1.1057199, 0.314265, -26350.818, 62498.008, 0.0, 10.001849, 9.999224 
2.9993585e+3, 3.0093378e+2, 816024.25, 1061089.0, 100088.82, -0.35956195, 0.37520996, 1096771.5, 1096771.5, 0.0, 10.003452, 10.006605 
