coord_x,coord_y,stress_xx,stress_yy,tau_xy,velocity_x,velocity_y,stress_1,eps,damage,lx,ly
5.000552e+0, 1.2578988e+2, -1549200.4, -1659453.1, 4555.3486, -0.0069758403, -0.027615054, -1549012.5, 158247.97, 0.000055290777, 10.001242, 9.999781 
5.000439e+0, 1.3578998e+2, -1503159.5, -1643785.6, -544.8043, -0.012742734, 0.055178758, -1503157.4, 106102.67, 0.000019222676, 10.001132, 9.999269 
5.000421e+0, 1.4578852e+2, -1411454.6, -1541751.9, -1616.8601, -0.010888459, -0.021108521, -1411434.6, 99840.95, 0.000002703532, 10.001059, 9.99933 
5.000441e+0, 1.5578844e+2, -1319874.4, -1446227.0, -978.9265, -0.0065276152, 0.035248276, -1319866.8, 93411.016, 0.000000021272871, 10.001013, 9.999334 
5.000428e+0, 1.6578811e+2, -1253584.4, -1399226.9, -2268.2852, -0.0046555293, 0.08600314, -1253549.0, 61734.613, 0.0, 10.000949, 9.999016 
5.000394e+0, 1.7578742e+2, -1163117.3, -1299592.6, -4088.4175, -0.004376262, 0.11080715, -1162994.9, 54299.133, 0.0, 10.0008745, 9.999063 
5.000378e+0, 1.8578672e+2, -1064747.3, -1192558.0, 125.98653, -0.004175103, 0.13167535, -1064747.1, 54556.387, 0.0, 10.000839, 9.999143 
5.0003755e+0, 1.9578612e+2, -963526.7, -1086385.4, 6819.2285, -0.004112472, 0.15366699, -963149.4, 58162.293, 0.0, 10.000833, 9.999201 
5.0003856e+0, 2.057858e+2, -844943.6, -947511.0, 8757.46, -0.003473622, 0.18636782, -844201.25, 79115.7, 0.0, 10.00084, 9.999478 
5.000405e+0, 2.1578565e+2, -740527.8, -840271.75, 6423.7876, -0.0024122363, 0.22103015, -740115.75, 85204.74, 0.0, 10.000858, 9.999533 
5.00043e+0, 2.2578532e+2, -624842.94, -709595.56, 5482.773, -0.00080950954, 0.2202495, -624489.7, 102834.42, 0.0, 10.000875, 9.999749 
5.0004596e+0, 2.357848e+2, -522667.7, -607082.0, 5588.715, 0.001261351, 0.1917551, -522299.3, 107028.32, 0.0, 10.000894, 9.999771 
5.0004977e+0, 2.4578424e+2, -427761.94, -530308.7, 6248.1084, 0.0019248072, 0.16823101, -427382.63, 103948.71, 0.0, 10.0009575, 9.999596 
5.0005436e+0, 2.5578365e+2, -316511.63, -427873.56, 4814.8384, 0.0015039175, 0.14471018, -316303.84, 117031.484, 0.0, 10.001057, 9.9995775 
5.0005853e+0, 2.6578283e+2, -257328.38, -426447.56, 1910.5679, 0.0022171321, 0.14338663, -257306.78, 78035.72, 0.0, 10.001125, 9.998881 
5.000624e+0, 2.7578187e+2, -152516.64, -325435.84, -468.41354, 0.0037565914, 0.15497603, -152515.36, 84836.805, 0.0, 10.001173, 9.9988785 
5.0006497e+0, 2.8578025e+2, -74471.86, -296212.8, -99.84424, 0.0004112836, 0.13460258, -74471.81, 64895.58, 0.0000000005106852, 10.001291, 9.998349 
5.000665e+0, 2.957782e+2, 45805.63, -191037.03, -1606.1453, -0.006474615, 0.089444906, 45816.52, 87203.164, 0.000003227908, 10.001459, 9.998318 
5.0006825e+0, 3.057769e+2, 59331.605, -219809.48, -3150.318, -0.00560368, 0.15928054, 59367.156, 59367.156, 0.000038102575, 10.001477, 9.997778 
5.000714e+0, 3.1577465e+2, 154368.58, 509.13284, 4032.9878, 0.0024726738, 0.15085232, 154474.22, 154474.22, 0.00014042419, 10.001378, 9.999339 
1.5001655e+1, 1.2579033e+2, -1560463.6, -1682618.8, -1033.9993, -0.021045195, -0.0029452075, -1560454.9, 146801.77, 0.000051840474, 10.001241, 9.999622 
1.5001318e+1, 1.357902e+2, -1513232.9, -1664574.9, -4498.8984, -0.038228404, 0.07323246, -1513099.4, 96159.63, 0.000017729604, 10.001132, 9.999126 
1.5001264e+1, 1.457887e+2, -1410178.6, -1538986.6, -3486.095, -0.032665297, -0.00034518802, -1410084.4, 101190.516, 0.0000024017909, 10.001059, 9.999349 
1.5001324e+1, 1.5578872e+2, -1319026.6, -1444387.4, -2850.5742, -0.01957797, 0.064385645, -1318961.9, 94314.31, 0.000000014045858, 10.001012, 9.999348 
1.5001285e+1, 1.657883e+2, -1257172.0, -1406608.6, -5170.7935, -0.013969827, 0.107067846, -1256993.3, 58289.652, 0.0, 10.000949, 9.998965 
1.5001181e+1, 1.7578736e+2, -1165465.4, -1304399.6, -6708.1284, -0.0131399855, 0.11293309, -1165142.3, 52153.203, 0.0, 10.0008745, 9.99903 
1.5001135e+1, 1.8578668e+2, -1052290.5, -1166634.6, -139.58624, -0.012525556, 0.12592418, -1052290.4, 67013.97, 0.0, 10.000838, 9.99932 
1.5001126e+1, 1.9578624e+2, -952395.44, -1063245.4, 6668.999, -0.01234594, 0.1479231, -951995.6, 69314.13, 0.0, 10.000833, 9.99936 
1.5001157e+1, 2.057859e+2, -849199.9, -956300.2, 9403.657, -0.010420605, 0.17416538, -848380.5, 74934.54, 0.0, 10.00084, 9.999418 
1.5001215e+1, 2.157856e+2, -744510.8, -848462.3, 7090.4556, -0.007236959, 0.1983846, -744029.44, 81290.91, 0.0, 10.000858, 9.999476 
1.500129e+1, 2.2578524e+2, -624766.9, -709346.5, 6137.281, -0.0024353613, 0.2012234, -624323.9, 103000.164, 0.0, 10.000875, 9.999751 
1.5001377e+1, 2.357849e+2, -522851.3, -607391.94, 6490.266, 0.0037732834, 0.18684933, -522355.94, 106970.4, 0.0, 10.000894, 9.999769 
1.5001494e+1, 2.4578439e+2, -430237.72, -535403.6, 9962.274, 0.0057690805, 0.17215648, -429302.3, 102027.41, 0.0, 10.0009575, 9.99956 
1.5001631e+1, 2.5578383e+2, -319143.94, -433305.97, 8411.665, 0.004500133, 0.15371001, -318527.47, 114806.53, 0.0, 10.001057, 9.99954 
1.5001754e+1, 2.6578298e+2, -261992.13, -436091.2, 3656.9841, 0.0066503375, 0.15709825, -261915.34, 73426.17, 0.0, 10.001125, 9.998816 
1.5001874e+1, 2.7578202e+2, -157061.67, -334826.75, 1684.0182, 0.01126402, 0.17375739, -157045.72, 80305.79, 0.0, 10.001173, 9.998815 
1.500195e+1, 2.8578034e+2, -76640.28, -300651.3, 6279.226, 0.0012312705, 0.15259805, -76464.41, 62903.023, 0.00000000036389677, 10.001291, 9.998319 
1.5001994e+1, 2.957782e+2, 44692.56, -193279.3, 4114.2124, -0.01942427, 0.10258306, 44763.668, 86151.336, 0.0000031171262, 10.001459, 9.998302 
1.5002048e+1, 3.0577695e+2, 71143.77, -195193.03, -6886.2627, -0.016817048, 0.16763201, 71321.7, 71321.7, 0.0000374169, 10.001476, 9.997947 
1.5002142e+1, 3.1577483e+2, 165696.38, 24190.604, 2093.7463, 0.0073485738, 0.15478528, 165727.36, 165727.36, 0.00013856335, 10.001378, 9.999501 
2.5002635e+1, 1.2579064e+2, -1576137.5, -1690134.4, -3885.1807, -0.04197448, 0.007565664, -1576005.3, 131248.75, 0.000046849033, 10.001134, 9.999622 
2.5002253e+1, 1.3579045e+2, -1517821.6, -1666593.9, 6102.5044, -0.056471843, 0.077979386, -1517571.6, 91684.96, 0.000015561249, 10.001101, 9.999128 
2.500216e+1, 1.4578895e+2, -1420012.1, -1548110.9, 9001.806, -0.04631192, 0.006676334, -1419382.6, 91890.15, 0.0000019703923, 10.00101, 9.99931 
2.5002134e+1, 1.5578902e+2, -1341294.9, -1459149.4, 5599.667, -0.033235885, 0.07907538, -1341029.4, 72244.76, 0.000000006345991, 10.000876, 9.999311 
2.5002062e+1, 1.6578856e+2, -1270184.0, -1411419.1, 7108.0566, -0.026367452, 0.119634666, -1269827.3, 45453.836, 0.0, 10.000853, 9.998979 
2.500198e+1, 1.7578754e+2, -1158950.9, -1300079.8, 10241.96, -0.022876745, 0.116329655, -1158211.5, 59082.4, 0.0, 10.000914, 9.999041 
2.5001922e+1, 1.8578683e+2, -1047134.25, -1166129.0, 8782.203, -0.019627342, 0.12654245, -1046489.56, 72813.24, 0.0, 10.000882, 9.999303 
2.5001886e+1, 1.957864e+2, -960866.75, -1069162.9, 1135.5487, -0.017006796, 0.15057391, -960854.8, 60453.55, 0.0, 10.000782, 9.999344 
2.5001937e+1, 2.0578602e+2, -864540.4, -963605.2, 2321.2234, -0.011343207, 0.17373051, -864486.0, 58827.883, 0.0, 10.000734, 9.999419 
2.5002047e+1, 2.1578564e+2, -763607.1, -857708.75, 4742.625, -0.003423309, 0.19140443, -763368.7, 61950.906, 0.0, 10.000727, 9.999476 
2.500217e+1, 2.257853e+2, -638551.6, -716909.6, 7331.4634, 0.0027066423, 0.1935648, -637871.6, 89451.76, 0.0, 10.000785, 9.9997425 
2.500231e+1, 2.3578496e+2, -523935.1, -608986.25, 6933.5146, 0.0076513556, 0.18291073, -523373.56, 105951.96, 0.0, 10.000891, 9.99976 
2.50025e+1, 2.4578452e+2, -432968.7, -538732.94, 10769.552, 0.01131308, 0.17371085, -431883.22, 99445.53, 0.0, 10.000947, 9.999542 
2.5002736e+1, 2.5578398e+2, -333325.03, -442195.88, 10679.508, 0.013816114, 0.16233118, -332287.3, 101045.49, 0.0, 10.000968, 9.999522 
2.5002897e+1, 2.6578313e+2, -267308.1, -441088.03, 10880.583, 0.009434224, 0.16597065, -266629.5, 68711.07, 0.0, 10.0011, 9.998794 
2.5003004e+1, 2.7578208e+2, -138160.33, -328360.44, 12124.626, 0.000007790476, 0.17812338, -137390.55, 99960.56, 0.0, 10.001314, 9.998791 
2.5003183e+1, 2.8578043e+2, -67363.67, -300552.03, 15153.184, -0.008755293, 0.15950727, -66383.1, 72984.22, 0.00000000025082827, 10.001373, 9.998281 
2.5003406e+1, 2.9577833e+2, 21451.006, -208141.7, 12184.973, -0.017041283, 0.11742761, 22095.877, 63483.52, 0.000002969252, 10.001315, 9.99827 
2.5003478e+1, 3.0577707e+2, 53656.457, -198819.55, -6875.535, -0.014609262, 0.18123579, 53843.555, 53843.555, 0.00003639656, 10.001336, 9.99799 
2.5003493e+1, 3.157749e+2, 174371.63, 33547.715, -5715.5435, 0.0028659264, 0.16130055, 174603.22, 174603.22, 0.0001357669, 10.001415, 9.999548 
3.500349e+1, 1.2579082e+2, -1565355.5, -1667344.8, -6564.5483, -0.06993819, 0.0040767184, -1564934.8, 142317.52, 0.000040315306, 10.001132, 9.99978 
3.5003242e+1, 1.3579075e+2, -1507779.6, -1645621.3, 4642.4165, -0.067615956, 0.06935481, -1507623.5, 101629.625, 0.000012732851, 10.0011, 9.999272 
3.5003117e+1, 1.457893e+2, -1426756.4, -1562107.5, 3925.3447, -0.052011423, -0.00003408855, -1426642.6, 84626.5, 0.0000014374052, 10.00101, 9.999213 
3.5002863e+1, 1.5578932e+2, -1347133.3, -1471284.8, 1145.371, -0.04759947, 0.07947282, -1347122.8, 66148.78, 0.0000000013691683, 10.000876, 9.9992285 
3.500276e+1, 1.657889e+2, -1264830.0, -1400286.6, 9408.912, -0.041951016, 0.12377452, -1264179.6, 51098.32, 0.0, 10.000853, 9.999055 
3.5002786e+1, 1.7578799e+2, -1155146.6, -1292172.6, 12165.389, -0.033706754, 0.1209699, -1154075.0, 63214.19, 0.0, 10.000914, 9.999095 
3.5002747e+1, 1.857872e+2, -1062072.9, -1197088.8, 5007.8677, -0.025600173, 0.13349696, -1061887.4, 57411.758, 0.0, 10.000882, 9.99909 
3.5002658e+1, 1.957866e+2, -974272.7, -1096958.6, -2343.639, -0.01820273, 0.16162425, -974227.94, 47079.594, 0.0, 10.000782, 9.999153 
3.500272e+1, 2.0578617e+2, -860228.06, -954635.3, 2055.8438, -0.0063771377, 0.18506196, -860183.3, 63130.36, 0.0, 10.000734, 9.99948 
3.5002896e+1, 2.1578583e+2, -759735.56, -849651.7, 4820.243, 0.008910691, 0.20007245, -759477.9, 65840.48, 0.0, 10.000727, 9.999532 
3.5003075e+1, 2.2578543e+2, -639851.6, -719541.06, 11341.1875, 0.014488363, 0.19726202, -638269.0, 89053.15, 0.0, 10.000784, 9.999725 
3.500325e+1, 2.3578502e+2, -525125.1, -611422.06, 10710.016, 0.012809659, 0.17992388, -523815.78, 105509.375, 0.0, 10.000891, 9.999743 
3.5003522e+1, 2.4578458e+2, -433084.0, -538943.44, 11512.305, 0.018471716, 0.17291993, -431846.47, 99481.89, 0.0, 10.000947, 9.999541 
3.5003862e+1, 2.5578412e+2, -333339.78, -442152.84, 11987.064, 0.02939551, 0.17059799, -332034.94, 101296.81, 0.0, 10.000968, 9.999522 
3.5004005e+1, 2.6578325e+2, -265770.88, -437819.22, 18978.85, 0.01047447, 0.17001978, -263702.16, 71637.47, 0.0, 10.001099, 9.9988165 
3.5004017e+1, 2.757821e+2, -136997.19, -325850.28, 19511.451, -0.030085798, 0.16806313, -135002.42, 102348.54, 0.0, 10.001314, 9.998809 
3.5004345e+1, 2.8578046e+2, -70737.7, -307510.28, 12909.261, -0.029641015, 0.15531726, -70035.945, 69331.1, 0.00000000021451357, 10.001373, 9.998233 
3.50049e+1, 2.9577854e+2, 17938.486, -215452.53, 10392.492, 0.0005619224, 0.1339433, 18400.332, 59786.9, 0.0000027944461, 10.001315, 9.9982195 
3.5004967e+1, 3.0577722e+2, 47817.7, -210906.94, -3894.6633, 0.0009338834, 0.20014797, 47876.316, 47876.316, 0.000035014476, 10.001336, 9.997907 
3.5004768e+1, 3.157749e+2, 169452.33, 23438.926, -1226.266, -0.011271361, 0.17039539, 169462.63, 169462.63, 0.00013190451, 10.001415, 9.999478 
4.500431e+1, 1.2579107e+2, -1610173.1, -1680201.1, 1642.2583, -0.08386514, -0.006391776, -1610134.6, 97114.61, 0.000032724987, 10.000787, 9.999858 
4.5004052e+1, 1.3579108e+2, -1550129.4, -1657628.3, 8142.3633, -0.080363646, 0.057441674, -1549516.1, 59733.094, 0.0000095173555, 10.000773, 9.999348 
4.5003936e+1, 1.4578964e+2, -1462072.1, -1586085.6, 5763.314, -0.060236078, -0.009925083, -1461804.9, 49460.33, 0.00000089505704, 10.000797, 9.999151 
4.5003662e+1, 1.5578966e+2, -1354365.5, -1480969.8, 5712.6875, -0.054722667, 0.073377065, -1354108.3, 59159.973, 0.00000000008098328, 10.000854, 9.999173 
4.500356e+1, 1.6578923e+2, -1262499.8, -1396150.3, 14728.251, -0.04726788, 0.11858364, -1260896.0, 54378.57, 0.0, 10.000855, 9.999083 
4.5003623e+1, 1.757883e+2, -1168191.6, -1296902.9, 13650.306, -0.036221564, 0.1144493, -1166759.9, 50525.355, 0.0, 10.000817, 9.999109 
4.500358e+1, 1.8578748e+2, -1083565.6, -1223965.3, 5769.7363, -0.026281677, 0.13049276, -1083328.9, 35966.965, 0.0, 10.000806, 9.998943 
4.5003456e+1, 1.9578682e+2, -978739.0, -1114025.6, 3479.206, -0.018073885, 0.16593066, -978649.56, 42656.445, 0.0, 10.000815, 9.999021 
4.5003513e+1, 2.0578639e+2, -840647.5, -941767.2, 11137.673, -0.006392146, 0.19423307, -839435.3, 83877.016, 0.0, 10.0008545, 9.999512 
4.500371e+1, 2.157861e+2, -730951.6, -832916.0, 11590.957, 0.008272525, 0.21214543, -729650.6, 95665.445, 0.0, 10.000913, 9.9995575 
4.5003936e+1, 2.2578569e+2, -622614.44, -715313.75, 16825.855, 0.015562573, 0.20660721, -619654.9, 107665.17, 0.0, 10.00092, 9.999689 
4.5004186e+1, 2.3578516e+2, -527318.0, -616518.5, 14946.407, 0.017162936, 0.18237536, -524880.2, 104443.89, 0.0, 10.000893, 9.999707 
4.5004514e+1, 2.4578469e+2, -432606.38, -543188.4, 15243.404, 0.021811709, 0.17469244, -430543.6, 100784.26, 0.0, 10.00097, 9.999501 
4.5004898e+1, 2.557842e+2, -312720.84, -435938.38, 12653.629, 0.028585725, 0.1764385, -311434.84, 121896.62, 0.0, 10.001125, 9.99949 
4.5005104e+1, 2.6578337e+2, -257871.58, -427984.56, 18498.85, 0.008902606, 0.1746653, -255883.17, 79456.04, 0.0, 10.001127, 9.99887 
4.5005184e+1, 2.757822e+2, -177172.11, -339892.88, 21491.89, -0.029971918, 0.16751641, -174381.36, 62968.742, 0.0, 10.001016, 9.998856 
4.5005596e+1, 2.857806e+2, -110458.21, -330252.63, 18323.775, -0.029200586, 0.15668488, -108941.07, 30425.014, 0.00000000034042036, 10.001116, 9.9982 
4.500624e+1, 2.957787e+2, 24365.734, -215919.73, 16805.143, 0.0003681604, 0.14239483, 25535.363, 66921.1, 0.0000026033522, 10.001375, 9.998188 
4.500636e+1, 3.0577734e+2, 65630.99, -206129.02, 2620.4414, -0.0004375426, 0.2088929, 65656.26, 65656.26, 0.00003329706, 10.001474, 9.997873 
4.5006195e+1, 3.1577498e+2, 173512.98, 23083.701, 10256.369, -0.012011569, 0.17641911, 174209.05, 174209.05, 0.00012697614, 10.001452, 9.999458 
5.500509e+1, 1.257914e+2, -1610433.3, -1680599.4, -77.45781, -0.08489252, -0.023500873, -1610433.1, 96811.66, 0.000024933155, 10.000787, 9.999856 
5.500468e+1, 1.3579142e+2, -1549749.5, -1656726.8, 7767.883, -0.094875604, 0.04249066, -1549188.4, 60056.613, 0.000006388969, 10.000772, 9.999354 
5.5004627e+1, 1.4579001e+2, -1464192.6, -1590393.3, 7806.608, -0.07108092, -0.022903744, -1463711.5, 47549.457, 0.00000045379167, 10.000797, 9.999123 
5.5004513e+1, 1.5578999e+2, -1356368.5, -1485128.9, 7569.5283, -0.05499166, 0.060780987, -1355925.1, 57339.15, 0.0, 10.000854, 9.999145 
5.5004466e+1, 1.6578951e+2, -1263936.4, -1399156.6, 13241.483, -0.04264525, 0.104079254, -1262651.9, 52619.0, 0.0, 10.000855, 9.999062 
5.5004495e+1, 1.7578854e+2, -1169959.5, -1300609.6, 12334.781, -0.030555187, 0.09688024, -1168805.1, 48476.87, 0.0, 10.000817, 9.9990835 
5.500443e+1, 1.8578772e+2, -1089376.1, -1236064.5, 6137.8506, -0.021864181, 0.11762147, -1089119.8, 30173.445, 0.0, 10.000806, 9.99886 
5.5004287e+1, 1.9578706e+2, -984057.9, -1125106.3, 4064.621, -0.01682322, 0.16353855, -983940.8, 37363.035, 0.0, 10.000816, 9.998944 
5.5004317e+1, 2.0578669e+2, -840619.2, -941702.1, 13357.347, -0.011538003, 0.20126203, -838883.94, 84425.98, 0.0, 10.0008545, 9.999512 
5.5004483e+1, 2.157865e+2, -731248.5, -833485.06, 13563.494, -0.0055139954, 0.22759745, -729479.6, 95833.11, 0.0, 10.000912, 9.999554 
5.500476e+1, 2.2578605e+2, -626484.6, -723288.1, 15775.885, 0.0057163057, 0.22152632, -623978.56, 103338.5, 0.0, 10.00092, 9.999634 
5.5005115e+1, 2.357854e+2, -531261.5, -624647.2, 14429.284, 0.020594968, 0.19024773, -529082.8, 100239.47, 0.0, 10.000893, 9.999652 
5.500547e+1, 2.457848e+2, -438171.84, -554687.25, 21138.846, 0.021151362, 0.17899127, -434455.28, 96871.945, 0.0, 10.000969, 9.999422 
5.5005854e+1, 2.5578427e+2, -317417.2, -445660.63, 17791.8, 0.0112284385, 0.17985393, -314994.63, 118337.35, 0.0, 10.001125, 9.999423 
5.500619e+1, 2.6578346e+2, -251879.98, -415552.03, 14199.241, 0.00459537, 0.17989202, -250657.27, 84682.01, 0.0, 10.001127, 9.998956 
5.50065e+1, 2.757824e+2, -171746.61, -328659.06, 18237.686, 0.00015572584, 0.17649536, -169654.77, 67693.77, 0.0, 10.001016, 9.998933 
5.500693e+1, 2.857808e+2, -111637.38, -332671.03, 28103.313, -0.0076454794, 0.16357031, -108120.16, 31244.281, 0.0000000006700443, 10.001116, 9.998184 
5.5007434e+1, 2.957788e+2, 23321.904, -217905.63, 25815.34, -0.017664714, 0.14277664, 26053.637, 67438.79, 0.0000023959767, 10.001374, 9.998175 
5.5007654e+1, 3.0577746e+2, 66670.664, -203885.66, 1808.6117, -0.018788163, 0.20735332, 66682.76, 66682.76, 0.000031288328, 10.001474, 9.9978895 
5.500777e+1, 3.1577513e+2, 175622.42, 27287.074, 10780.586, 0.000038018065, 0.17911543, 176401.83, 176401.83, 0.0001210288, 10.001453, 9.999487 
6.500572e+1, 1.2579173e+2, -1667392.0, -1713525.6, -10754.377, -0.08210395, -0.023562951, -1665008.3, 42233.027, 0.00001782932, 10.000419, 9.999807 
6.500532e+1, 1.3579175e+2, -1575541.6, -1672315.1, -5281.196, -0.09989295, 0.04500793, -1575254.3, 33987.8, 0.0000037958928, 10.000609, 9.999326 
6.5005326e+1, 1.4579032e+2, -1474597.4, -1589076.4, -4712.7705, -0.07592808, -0.021077381, -1474403.8, 36854.297, 0.0000001737419, 10.000699, 9.999179 
6.5005255e+1, 1.5579031e+2, -1373023.3, -1487707.0, 1332.532, -0.059085935, 0.057923473, -1373007.8, 40252.965, 0.0, 10.000716, 9.999193 
6.500522e+1, 1.6578983e+2, -1283529.5, -1413601.5, 7370.8223, -0.046951532, 0.09886691, -1283113.1, 32154.416, 0.0, 10.000743, 9.999017 
6.500525e+1, 1.757888e+2, -1178363.6, -1309157.4, 4694.8423, -0.035484597, 0.09167569, -1178195.3, 39083.945, 0.0, 10.00078, 9.999043 
6.50052e+1, 1.8578799e+2, -1089728.8, -1234704.0, 2176.4897, -0.025218584, 0.11513608, -1089696.1, 29594.313, 0.0, 10.000797, 9.998874 
6.500509e+1, 1.957874e+2, -985482.56, -1124576.0, 7335.7256, -0.017052863, 0.1656687, -985096.75, 36203.9, 0.0, 10.000801, 9.998955 
6.500513e+1, 2.0578703e+2, -852126.94, -950005.06, 18953.475, -0.012261194, 0.20405126, -848584.94, 74721.82, 0.0, 10.000788, 9.999487 
6.500528e+1, 2.1578678e+2, -754971.6, -847798.94, 17376.86, -0.009469871, 0.22816089, -751825.4, 73484.63, 0.0, 10.000762, 9.999528 
6.5005577e+1, 2.2578631e+2, -643137.8, -736085.9, 20538.45, 0.0005670559, 0.22368191, -638801.8, 88512.74, 0.0, 10.000826, 9.999592 
6.500599e+1, 2.3578566e+2, -525166.5, -626667.75, 20012.752, 0.015845025, 0.1969372, -521363.16, 107956.69, 0.0, 10.000956, 9.999607 
6.5006423e+1, 2.4578503e+2, -442649.4, -564877.5, 27284.967, 0.018643918, 0.18640335, -436835.16, 94490.36, 0.0, 10.000973, 9.999351 
6.500688e+1, 2.557844e+2, -353709.34, -470750.22, 24504.145, 0.012351622, 0.18506908, -348786.16, 84545.31, 0.0, 10.000909, 9.999354 
6.500731e+1, 2.6578355e+2, -268907.28, -425999.06, 17326.65, 0.00975402, 0.18711175, -267018.94, 68320.195, 0.0, 10.00102, 9.998936 
6.5007734e+1, 2.7578253e+2, -137033.05, -314150.1, 13465.124, 0.009471454, 0.18894368, -136015.22, 101332.875, 0.0, 10.001264, 9.998914 
6.50082e+1, 2.857809e+2, -81460.77, -319087.53, 21362.994, -0.0020034947, 0.17589866, -79555.484, 59808.707, 0.0000000009839726, 10.0013275, 9.998176 
6.500871e+1, 2.9577887e+2, 6071.8613, -226588.14, 19667.506, -0.021362657, 0.15109262, 7722.7056, 49108.133, 0.0000021664155, 10.001258, 9.998172 
6.5009016e+1, 3.0577752e+2, 55470.99, -203660.42, -1685.4841, -0.024460724, 0.21299948, 55481.953, 55481.953, 0.000029021434, 10.001373, 9.997939 
6.5009314e+1, 3.1577528e+2, 205709.1, 48849.355, 10934.551, 0.00013698911, 0.18646142, 206467.66, 206467.66, 0.00011410821, 10.00163, 9.99955 
7.5006205e+1, 1.2579204e+2, -1674083.6, -1727139.3, -4738.395, -0.07593502, -0.0071546324, -1673663.8, 33574.99, 0.000012032456, 10.000418, 9.999715 
7.5005966e+1, 1.3579202e+2, -1579980.3, -1681356.8, 1302.6205, -0.09605786, 0.064856716, -1579963.5, 29277.158, 0.000001957589, 10.000608, 9.999265 
7.500603e+1, 1.4579062e+2, -1464704.4, -1568438.4, -4144.553, -0.07531004, -0.0044566467, -1464539.0, 46717.3, 0.00000004027787, 10.000698, 9.999321 
7.500589e+1, 1.5579066e+2, -1364266.6, -1469459.4, 1970.4526, -0.06710817, 0.06473247, -1364229.8, 49027.977, 0.0, 10.000716, 9.999319 
7.500583e+1, 1.6579014e+2, -1288430.0, -1423723.4, 8661.924, -0.06026665, 0.10289435, -1287877.6, 27386.914, 0.0, 10.000743, 9.998947 
7.5005865e+1, 1.7578909e+2, -1182261.9, -1317227.1, 5998.6284, -0.051322393, 0.09877114, -1181995.9, 35281.188, 0.0, 10.00078, 9.998988 
7.500589e+1, 1.8578832e+2, -1082063.3, -1218734.5, 2320.516, -0.036593378, 0.122991234, -1082023.9, 37263.867, 0.0, 10.000797, 9.998983 
7.5005877e+1, 1.9578783e+2, -978672.56, -1110382.3, 7407.0786, -0.018801492, 0.1723018, -978257.3, 43039.11, 0.0, 10.000801, 9.999052 
7.500595e+1, 2.057874e+2, -855651.5, -957298.8, 17982.379, -0.0086357705, 0.20262843, -852564.0, 70738.83, 0.0, 10.000787, 9.999437 
7.5006104e+1, 2.1578698e+2, -758343.7, -854771.75, 16897.604, -0.0037165394, 0.2138546, -755468.4, 69839.51, 0.0, 10.000762, 9.99948 
7.50064e+1, 2.2578648e+2, -645335.0, -740606.25, 25476.887, -0.00004276036, 0.21313974, -638950.0, 88362.52, 0.0, 10.000826, 9.99956 
7.500681e+1, 2.3578598e+2, -527504.2, -631510.1, 24356.453, 0.0027702847, 0.2024877, -522082.88, 107233.96, 0.0, 10.000956, 9.999574 
7.500735e+1, 2.4578534e+2, -447148.06, -574219.2, 24779.104, 0.014166251, 0.19691712, -442487.06, 88835.695, 0.0, 10.000973, 9.999287 
7.500798e+1, 2.557846e+2, -358546.22, -480789.6, 22893.18, 0.031787492, 0.19207105, -354399.53, 78930.375, 0.0, 10.000909, 9.999286 
7.5008476e+1, 2.657837e+2, -277672.13, -444206.84, 26504.535, 0.024192343, 0.1963467, -273555.6, 61783.125, 0.0, 10.00102, 9.998811 
7.500888e+1, 2.7578261e+2, -145177.55, -331020.66, 21768.164, -0.0020585484, 0.20480485, -142661.86, 94686.93, 0.0, 10.001264, 9.998797 
7.500943e+1, 2.8578097e+2, -81518.58, -319205.06, 18678.988, -0.012309226, 0.19360964, -80059.62, 59305.72, 0.0000000010869243, 10.0013275, 9.998175 
7.501008e+1, 2.957789e+2, 6601.6665, -225594.97, 17871.44, -0.010964427, 0.16722037, 7969.1216, 49355.676, 0.0000019142904, 10.001258, 9.9981785 
7.501046e+1, 3.0577755e+2, 61371.145, -191391.83, 7988.667, -0.01774149, 0.22576666, 61623.38, 61623.38, 0.000026528098, 10.001373, 9.998023 
7.501082e+1, 3.157754e+2, 212372.77, 62940.527, 21548.088, -0.012073589, 0.19843572, 215417.94, 215417.94, 0.000106300286, 10.001629, 9.999647 
8.500657e+1, 1.257921e+2, -1693122.8, -1727138.3, -11747.25, -0.07225992, 0.00068888644, -1689460.1, 17778.373, 0.000007783007, 10.000248, 9.999797 
8.5006464e+1, 1.3579218e+2, -1610539.9, -1685659.5, 8101.48, -0.09469676, 0.070870064, -1609676.1, -436.45105, 0.0000008582932, 10.000354, 9.999357 
8.5006607e+1, 1.4579082e+2, -1502139.0, -1585187.6, -980.87634, -0.07416337, 0.0023152856, -1502127.5, 9127.1455, 0.00000000288778, 10.000436, 9.999332 
8.5006475e+1, 1.5579088e+2, -1394869.6, -1482911.6, -4626.739, -0.06920753, 0.07269414, -1394627.1, 18628.654, 0.0, 10.000501, 9.9993305 
8.5006446e+1, 1.657904e+2, -1313093.8, -1433385.1, 2052.302, -0.06368992, 0.1098115, -1313058.8, 2203.76, 0.0, 10.000565, 9.998967 
8.5006547e+1, 1.7578933e+2, -1202794.6, -1324960.9, 5764.307, -0.054310642, 0.10296834, -1202523.3, 14751.789, 0.0, 10.000629, 9.999007 
8.50066e+1, 1.8578856e+2, -1099853.3, -1225261.9, -503.59113, -0.03821317, 0.12636185, -1099851.3, 19434.285, 0.0, 10.000667, 9.9990015 
8.5006624e+1, 1.9578809e+2, -994726.8, -1116077.6, -2183.6748, -0.018498076, 0.17619896, -994687.5, 26606.463, 0.0, 10.000682, 9.99907 
8.500674e+1, 2.0578763e+2, -861995.0, -959442.0, 8753.055, -0.0070989486, 0.20296417, -861215.06, 62085.39, 0.0, 10.00074, 9.999445 
8.500692e+1, 2.1578716e+2, -748371.7, -849653.1, 12126.555, -0.0014314112, 0.20768331, -746940.0, 78365.664, 0.0, 10.000829, 9.999483 
8.500727e+1, 2.2578663e+2, -641452.9, -746593.0, 22697.555, 0.0015707772, 0.20593755, -636762.2, 90548.64, 0.0, 10.000887, 9.99949 
8.500775e+1, 2.3578607e+2, -537269.8, -643938.2, 18469.67, 0.002646673, 0.19841485, -534162.3, 95153.65, 0.0, 10.000922, 9.999505 
8.5008353e+1, 2.4578543e+2, -443920.6, -578717.94, 16640.393, 0.014491665, 0.19908904, -441896.75, 89425.42, 0.0, 10.001021, 9.999232 
8.500904e+1, 2.5578475e+2, -324863.66, -471029.34, 15752.777, 0.034140263, 0.2026581, -323185.22, 110144.07, 0.0, 10.001168, 9.9992285 
8.5009605e+1, 2.6578376e+2, -251537.84, -443150.88, 24097.652, 0.023368299, 0.20923643, -248553.73, 86785.25, 0.0, 10.001249, 9.998708 
8.5010076e+1, 2.7578256e+2, -148923.95, -343243.7, 20647.514, -0.00976199, 0.21542715, -146754.27, 90596.375, 0.0, 10.001283, 9.998705 
8.501072e+1, 2.8578088e+2, -75682.234, -313588.75, 15234.125, -0.017053528, 0.20598392, -74710.7, 64656.637, 0.0000000009777485, 10.001355, 9.9982 
8.501148e+1, 2.957789e+2, 37259.793, -208282.95, 16488.336, -0.0057396297, 0.18450701, 38362.047, 79749.63, 0.0000016479609, 10.001457, 9.998201 
8.501188e+1, 3.0577755e+2, 73307.18, -187670.25, 5877.9414, -0.01749856, 0.24018243, 73439.5, 73439.5, 0.000023861305, 10.001464, 9.998005 
8.50122e+1, 3.157753e+2, 179254.08, 47210.074, 12838.638, -0.025683587, 0.20884925, 180490.8, 180490.8, 0.00009776159, 10.0014, 9.999649 
9.5006824e+1, 1.2579194e+2, -1675348.9, -1690154.8, -8674.316, -0.07207055, 0.00028582162, -1671348.0, 35892.65, 0.0000050394015, 10.000247, 10.000051 
9.5006806e+1, 1.357922e+2, -1593362.4, -1650002.8, 11847.493, -0.09618139, 0.062752716, -1590984.0, 18254.896, 0.00000033786506, 10.000354, 9.999602 
9.5007056e+1, 1.4579095e+2, -1510434.1, -1602273.4, 1295.3209, -0.07285843, -0.0009817209, -1510415.9, 837.16473, 0.0, 10.000436, 9.999215 
9.5007014e+1, 1.5579101e+2, -1402097.1, -1497704.4, -2250.9673, -0.065920025, 0.08183842, -1402044.1, 11210.723, 0.0, 10.0005, 9.999229 
9.5007074e+1, 1.6579054e+2, -1305753.4, -1418019.1, 4505.463, -0.05767834, 0.1196233, -1305572.9, 9688.589, 0.0, 10.000564, 9.999073 
9.500727e+1, 1.7578949e+2, -1196392.3, -1311635.6, 8085.139, -0.044647466, 0.10420519, -1195827.8, 21445.502, 0.0, 10.000629, 9.999099 
9.500735e+1, 1.857887e+2, -1104981.6, -1235862.8, 66.51902, -0.030289708, 0.12522723, -1104981.6, 14302.393, 0.0, 10.000667, 9.998929 
9.5007324e+1, 1.9578819e+2, -999026.06, -1124992.6, -1348.4807, -0.016359296, 0.17739052, -999011.6, 22281.773, 0.0, 10.000682, 9.999009 
9.500747e+1, 2.0578775e+2, -857379.2, -949857.6, 12137.778, -0.0078275325, 0.20505857, -855812.7, 67486.83, 0.0, 10.00074, 9.999511 
9.5007735e+1, 2.1578734e+2, -744655.75, -841933.06, 15363.373, -0.0027910802, 0.20967937, -742287.0, 83016.32, 0.0, 10.000829, 9.9995365 
9.5008194e+1, 2.2578672e+2, -649141.3, -762541.9, 24008.955, 0.005245732, 0.20212674, -644267.6, 83041.84, 0.0, 10.000887, 9.999381 
9.50088e+1, 2.3578595e+2, -544618.6, -659180.6, 20114.389, 0.015365122, 0.18470384, -541189.7, 88127.54, 0.0, 10.000921, 9.9994 
9.500942e+1, 2.4578533e+2, -446984.5, -585082.5, 22187.408, 0.019521601, 0.19290131, -443507.34, 87816.44, 0.0, 10.001021, 9.999188 
9.5010066e+1, 2.5578478e+2, -328139.72, -477831.0, 20953.148, 0.019333228, 0.2168469, -325262.13, 108067.42, 0.0, 10.001168, 9.999181 
9.5010686e+1, 2.6578376e+2, -257230.53, -454970.72, 25322.156, 0.0072127413, 0.2257892, -254039.33, 81300.56, 0.0, 10.001249, 9.998627 
9.5011324e+1, 2.7578235e+2, -153886.28, -353536.03, 22066.113, -0.013835652, 0.22078094, -151476.53, 85877.16, 0.0, 10.001283, 9.998634 
9.5012087e+1, 2.857807e+2, -72100.89, -306131.1, 19095.826, -0.01649774, 0.21295828, -70552.99, 68817.2, 0.00000000065795036, 10.001355, 9.998252 
9.501294e+1, 2.957789e+2, 39880.676, -202720.47, 19789.977, -0.005751193, 0.2028913, 41484.426, 82872.945, 0.000001379458, 10.001457, 9.9982395 
9.5013285e+1, 3.0577746e+2, 64878.535, -205138.9, 3512.9463, -0.023745319, 0.25618827, 64924.23, 64924.23, 0.000021105876, 10.001464, 9.997886 
9.5013446e+1, 3.1577504e+2, 172835.94, 33767.344, 11748.926, -0.041166436, 0.21751122, 173821.55, 173821.55, 0.000088718174, 10.001401, 9.999557 
1.050069e+2, 1.2579171e+2, -1734993.5, -1713836.9, -2111.807, -0.066868536, -0.0075542424, -1713628.1, -6385.497, 0.0000035788082, 9.999816, 10.000095 
1.0500706e+2, 1.3579208e+2, -1631860.4, -1661312.3, 3184.9924, -0.09119707, 0.060564484, -1631519.9, -22279.887, 0.000000177014, 10.000058, 9.999666 
1.0500745e+2, 1.4579092e+2, -1537728.3, -1609034.4, -9710.561, -0.06704242, -0.0010760977, -1536429.5, -25176.23, 0.0, 10.000221, 9.999272 
1.0500746e+2, 1.55791e+2, -1423519.9, -1502031.4, -487.5646, -0.062070224, 0.07803796, -1423516.9, -10262.286, 0.0, 10.000327, 9.999283 
1.0500757e+2, 1.6579053e+2, -1327467.6, -1425181.1, 7549.284, -0.056110002, 0.111803845, -1326887.8, -11626.75, 0.0, 10.000401, 9.999103 
1.05007805e+2, 1.7578948e+2, -1220617.9, -1320125.4, 5578.0967, -0.04527837, 0.0926417, -1220306.3, -3033.3083, 0.0, 10.00045, 9.999126 
1.0500796e+2, 1.8578874e+2, -1119843.1, -1242571.6, -448.65552, -0.030015137, 0.11720824, -1119841.4, -558.09357, 0.0, 10.000563, 9.998933 
1.0500806e+2, 1.9578831e+2, -992767.56, -1121701.5, 3663.9912, -0.012980846, 0.17777517, -992663.5, 28628.621, 0.0, 10.000724, 9.999012 
1.0500827e+2, 2.0578785e+2, -848345.1, -947676.3, 14897.287, -0.004963182, 0.20492493, -846159.06, 77139.266, 0.0, 10.000811, 9.999492 
1.05008565e+2, 2.1578735e+2, -744378.06, -844372.25, 11731.108, -0.003045743, 0.20281625, -743020.25, 82282.5, 0.0, 10.000842, 9.999514 
1.0500907e+2, 2.257867e+2, -650283.06, -771507.4, 19505.15, 0.0030306876, 0.19727972, -647222.0, 80087.41, 0.0, 10.000915, 9.999306 
1.05009735e+2, 2.3578595e+2, -535580.0, -663054.56, 18274.908, 0.0119519085, 0.18822043, -533011.8, 96305.77, 0.0, 10.0010195, 9.999327 
1.0501043e+2, 2.457853e+2, -438844.2, -586996.7, 22476.426, 0.014179861, 0.20053177, -435509.3, 95815.32, 0.0, 10.001102, 9.999136 
1.0501116e+2, 2.5578472e+2, -331180.63, -484764.7, 20404.215, 0.0115622375, 0.22564194, -328516.1, 104814.84, 0.0, 10.00117, 9.999132 
1.05011895e+2, 2.6578367e+2, -260541.88, -457550.2, 25457.287, 0.0035522608, 0.23425579, -257305.47, 78036.06, 0.0, 10.001231, 9.998617 
1.05012655e+2, 2.7578226e+2, -154424.03, -355056.6, 27638.227, -0.008673649, 0.22771902, -150686.34, 86669.04, 0.0, 10.001285, 9.998623 
1.0501348e+2, 2.8578055e+2, -75767.664, -311596.97, 24836.66, -0.012021429, 0.21844724, -73180.34, 66191.85, 0.00000000025503108, 10.001347, 9.998219 
1.05014354e+2, 2.957787e+2, 31443.574, -210310.47, 18834.06, -0.008765544, 0.20708533, 32902.06, 74293.055, 0.000001118805, 10.001414, 9.998208 
1.05014704e+2, 3.057772e+2, 64629.418, -206403.7, 1285.6135, -0.028143948, 0.25680104, 64635.516, 64635.516, 0.000018367069, 10.001467, 9.997875 
1.05014905e+2, 3.1577477e+2, 189377.98, 43325.008, 18741.727, -0.0403095, 0.21926297, 191744.61, 191744.61, 0.00007944771, 10.001508, 9.999571 
1.1500681e+2, 1.257914e+2, -1746248.4, -1737276.8, 6272.521, -0.05742364, -0.023321275, -1734051.0, -26806.54, 0.000003050449, 9.999817, 9.999934 
1.1500722e+2, 1.3579184e+2, -1639844.5, -1677639.4, 11863.186, -0.080162406, 0.06455566, -1636429.4, -27186.586, 0.00000018630364, 10.000057, 9.999555 
1.15007766e+2, 1.4579073e+2, -1522076.6, -1576255.9, -5710.14, -0.05719583, 0.002218461, -1521481.4, -10226.163, 0.0000000000835116, 10.000219, 9.999498 
1.15007825e+2, 1.5579084e+2, -1409270.5, -1472379.6, 3352.541, -0.058170125, 0.0611188, -1409093.0, 4162.029, 0.0, 10.000326, 9.999487 
1.15007944e+2, 1.6579035e+2, -1330666.5, -1431700.3, 9301.399, -0.059322093, 0.08625276, -1329817.3, -14555.952, 0.0, 10.000401, 9.999058 
1.1500814e+2, 1.7578927e+2, -1223134.3, -1325173.4, 7735.7188, -0.05635736, 0.06839794, -1222551.1, -5277.158, 0.0, 10.000449, 9.999093 
1.1500845e+2, 1.8578865e+2, -1114412.1, -1231153.6, 5657.272, -0.037505314, 0.10238609, -1114138.6, 5144.8936, 0.0, 10.000562, 9.999011 
1.1500882e+2, 1.9578844e+2, -988262.06, -1112294.0, 9430.393, -0.008483845, 0.17729506, -987549.2, 33741.008, 0.0, 10.000724, 9.999076 
1.15009144e+2, 2.0578794e+2, -855729.7, -962929.94, 16068.87, 0.0013733056, 0.20256518, -853372.8, 69924.07, 0.0, 10.000811, 9.999387 
1.1500941e+2, 2.157872e+2, -751340.0, -858803.4, 13136.591, -0.0022864495, 0.18709047, -749757.44, 75546.33, 0.0, 10.000842, 9.999414 
1.1500991e+2, 2.257866e+2, -653147.5, -777432.75, 23447.574, -0.0051553603, 0.19132645, -648871.06, 78439.46, 0.0, 10.000915, 9.999265 
1.1501056e+2, 2.3578605e+2, -538600.25, -669240.44, 22099.53, -0.007650978, 0.20896056, -534963.1, 94353.945, 0.0, 10.001019, 9.999285 
1.1501138e+2, 2.4578536e+2, -443085.7, -595764.6, 25056.416, -0.0016289008, 0.22203463, -439078.78, 92246.02, 0.0, 10.001102, 9.999076 
1.1501232e+2, 2.5578454e+2, -334729.66, -492115.1, 22961.824, 0.010707275, 0.22905105, -331448.06, 101885.414, 0.0, 10.00117, 9.999083 
1.1501321e+2, 2.6578346e+2, -256111.88, -448351.3, 27464.188, 0.012277551, 0.23461823, -252265.19, 83078.73, 0.0, 10.001231, 9.998681 
1.1501408e+2, 2.757822e+2, -151039.23, -348067.78, 29661.504, 0.005614826, 0.23624444, -146670.73, 90685.02, 0.0, 10.001285, 9.998671 
1.1501491e+2, 2.8578043e+2, -83956.54, -328654.53, 27408.867, -0.0037339511, 0.22246319, -80924.02, 58449.33, 0.000000000026412617, 10.001347, 9.998101 
1.150157e+2, 2.957783e+2, 24362.123, -224979.94, 21304.873, -0.014912308, 0.1970904, 26169.404, 67564.41, 0.0000008745259, 10.001414, 9.998108 
1.1501615e+2, 3.0577677e+2, 71467.93, -192134.05, 2841.4016, -0.03090861, 0.24198243, 71498.555, 71498.555, 0.000015743772, 10.001467, 9.997973 
1.1501659e+2, 3.157745e+2, 197717.5, 60630.65, 21194.523, -0.023697292, 0.21379526, 200919.53, 200919.53, 0.000070235736, 10.001508, 9.99969 
1.2500674e+2, 1.2579103e+2, -1749445.4, -1742938.9, -7932.4414, -0.047230512, -0.021780305, -1737618.5, -30370.2, 0.0000030832873, 9.999812, 9.999898 
1.2500721e+2, 1.3579154e+2, -1676355.4, -1695567.6, 7586.3364, -0.07438801, 0.074669704, -1673721.0, -64474.598, 0.0000002714346, 9.999808, 9.999553 
1.2500787e+2, 1.4579046e+2, -1558737.9, -1579455.3, -9414.763, -0.05353946, 0.007236895, -1555098.8, -43840.406, 0.0000000011616538, 9.999906, 9.999628 
1.2500805e+2, 1.557905e+2, -1437585.0, -1472191.5, -7558.377, -0.05667525, 0.046913184, -1436006.3, -22748.389, 0.0, 10.0000725, 9.99961 
1.2500826e+2, 1.6579005e+2, -1354198.9, -1437715.4, -2427.0515, -0.05870167, 0.06968211, -1354128.4, -38864.98, 0.0, 10.000216, 9.999105 
1.2500854e+2, 1.7578912e+2, -1235467.1, -1325990.9, 2866.8674, -0.055697817, 0.062429413, -1235376.5, -18101.676, 0.0, 10.000342, 9.999139 
1.2500897e+2, 1.8578862e+2, -1126779.8, -1233246.8, 3462.9744, -0.03664327, 0.103297986, -1126667.3, -7383.739, 0.0, 10.000461, 9.999045 
1.2500949e+2, 1.957885e+2, -1008255.56, -1118256.9, 3730.0298, -0.0072075934, 0.182092, -1008129.25, 13160.371, 0.0, 10.00057, 9.999109 
1.2500992e+2, 2.0578794e+2, -874112.4, -971278.44, 11498.072, 0.0050043296, 0.20174633, -872770.3, 50526.242, 0.0, 10.000683, 9.999392 
1.2501031e+2, 2.157871e+2, -757829.7, -861936.4, 16835.209, 0.0050336192, 0.17361133, -755174.94, 70129.35, 0.0, 10.000797, 9.999414 
1.2501086e+2, 2.2578648e+2, -656395.0, -784790.2, 31575.805, -0.0013020276, 0.18190223, -649049.9, 78261.11, 0.0, 10.000917, 9.999213 
1.2501155e+2, 2.3578607e+2, -539126.75, -675482.5, 29240.902, -0.012573378, 0.21584025, -533120.75, 96196.14, 0.0, 10.00104, 9.999231 
1.2501243e+2, 2.4578533e+2, -445473.66, -605290.6, 29324.328, -0.0076431003, 0.23099785, -440262.94, 91062.4, 0.0, 10.0011215, 9.9990015 
1.2501347e+2, 2.5578433e+2, -339796.38, -502512.88, 26158.406, 0.009226189, 0.22981688, -335694.53, 97641.13, 0.0, 10.00117, 9.999011 
1.2501447e+2, 2.657832e+2, -251204.31, -448202.03, 28065.846, 0.012967415, 0.23228422, -247283.86, 88062.89, 0.0, 10.001274, 9.998661 
1.2501544e+2, 2.7578193e+2, -133053.69, -341930.38, 23846.504, 0.0067067086, 0.23444836, -130365.82, 106992.625, 0.0, 10.001419, 9.998648 
1.2501632e+2, 2.857801e+2, -70480.805, -328160.22, 18986.9, -0.0028801027, 0.22066592, -69089.29, 70287.125, 0.0, 10.001465, 9.998048 
1.2501712e+2, 2.9577792e+2, 23818.23, -230941.23, 17630.31, -0.014902447, 0.1949708, 25032.527, 66431.305, 0.0000006546641, 10.001435, 9.998056 
1.2501757e+2, 3.0577636e+2, 68264.86, -195668.08, -2718.283, -0.03385193, 0.24047169, 68292.85, 68292.85, 0.0000132978475, 10.001453, 9.997955 
1.2501805e+2, 3.157742e+2, 198454.16, 61945.31, 7766.6123, -0.028173272, 0.22209339, 198894.63, 198894.63, 0.000061306615, 10.001509, 9.999699 
1.3500665e+2, 1.2579058e+2, -1743639.5, -1730764.8, -8525.856, -0.036688052, -0.0027620348, -1726519.0, -19265.188, 0.0000033913916, 9.999812, 9.999981 
1.3500702e+2, 1.3579117e+2, -1669199.9, -1680664.0, 8030.272, -0.07458132, 0.09063311, -1665065.8, -55814.973, 0.00000039333747, 9.999807, 9.999655 
1.3500774e+2, 1.4579006e+2, -1556178.8, -1574023.9, -3086.263, -0.05666231, 0.013751347, -1555660.0, -44397.465, 0.0000000035362315, 9.999905, 9.999665 
1.350081e+2, 1.5578996e+2, -1434545.4, -1465629.4, -1314.8589, -0.057734586, 0.035624627, -1434489.9, -21226.742, 0.0, 10.000072, 9.999656 
1.3500851e+2, 1.6578966e+2, -1344767.8, -1417899.4, 2368.036, -0.0544007, 0.062210795, -1344691.3, -29424.0, 0.0, 10.000215, 9.999242 
1.35009e+2, 1.7578906e+2, -1226838.4, -1307931.5, 7655.027, -0.04371229, 0.074510366, -1226122.0, -8846.697, 0.0, 10.000341, 9.999263 
1.3500953e+2, 1.8578865e+2, -1127471.1, -1234572.1, 7658.558, -0.027729228, 0.11976449, -1126926.3, -7643.0327, 0.0, 10.00046, 9.999037 
1.3501003e+2, 1.9578846e+2, -1008227.94, -1118154.8, 7939.373, -0.009242751, 0.19219379, -1007657.44, 13632.926, 0.0, 10.00057, 9.99911 
1.3501061e+2, 2.0578787e+2, -866209.7, -954867.25, 15803.077, 0.0058094356, 0.20246744, -863477.0, 59820.27, 0.0, 10.000683, 9.999504 
1.3501124e+2, 2.1578701e+2, -750926.44, -847592.56, 21213.822, 0.018777607, 0.162396, -746475.9, 78828.38, 0.0, 10.000797, 9.999513 
1.3501193e+2, 2.2578639e+2, -660835.75, -793953.25, 36264.234, 0.01440735, 0.16905378, -651597.6, 75713.17, 0.0, 10.000917, 9.99915 
1.3501269e+2, 2.3578598e+2, -543689.06, -684904.75, 33724.965, -0.0030074923, 0.20891425, -536048.3, 93268.76, 0.0, 10.00104, 9.9991665 
1.3501358e+2, 2.4578519e+2, -451818.13, -618438.1, 31113.916, -0.0040133884, 0.22748062, -446197.63, 85128.59, 0.0, 10.0011215, 9.998911 
1.3501462e+2, 2.5578412e+2, -346224.25, -515888.94, 28236.014, 0.0070384853, 0.22797267, -341648.56, 91689.0, 0.0, 10.00117, 9.9989195 
1.3501567e+2, 2.6578286e+2, -258344.27, -463041.25, 33557.137, 0.0055084606, 0.22722453, -252983.45, 82366.586, 0.0, 10.001274, 9.998559 
1.3501674e+2, 2.757814e+2, -139597.52, -355434.56, 28867.572, -0.0054141125, 0.22235541, -135803.27, 101560.21, 0.0, 10.001418, 9.998555 
1.3501772e+2, 2.857796e+2, -69858.39, -326820.53, 17869.795, -0.009570532, 0.21302526, -68621.63, 70759.76, 0.0, 10.001465, 9.998057 
1.3501862e+2, 2.9577756e+2, 23715.58, -231247.28, 16700.121, -0.0089457445, 0.20062824, 24804.79, 66207.14, 0.0000004660869, 10.001435, 9.9980545 
1.35019e+2, 3.05776e+2, 58981.79, -215029.56, -619.819, -0.037180874, 0.25214177, 58983.19, 58983.19, 0.000011042731, 10.001454, 9.997823 
1.350193e+2, 3.1577381e+2, 191340.11, 47247.695, 10718.482, -0.05410549, 0.2437362, 192133.05, 192133.05, 0.000052781335, 10.001509, 9.999598 
1.450064e+2, 1.2579016e+2, -1780956.4, -1737313.3, -324.66232, -0.027378833, 0.009156934, -1737310.9, -30052.174, 0.000003766588, 9.999507, 10.000084 
1.4500679e+2, 1.3579078e+2, -1687672.3, -1676679.1, 18350.557, -0.070144735, 0.094660915, -1663019.6, -53764.96, 0.00000052701, 9.999626, 9.99977 
1.450076e+2, 1.457897e+2, -1581233.5, -1588561.0, 8069.384, -0.052476216, 0.016545342, -1576035.1, -64769.016, 0.000000006774009, 9.999743, 9.999643 
1.4500813e+2, 1.5578958e+2, -1467066.8, -1482886.0, 5069.9126, -0.050728038, 0.037395347, -1465581.4, -52314.227, 0.0, 9.999855, 9.999641 
1.4500868e+2, 1.6578934e+2, -1378607.0, -1423755.6, 3320.9285, -0.04570374, 0.06457406, -1378364.0, -63093.33, 0.0, 9.999937, 9.999335 
1.4500928e+2, 1.7578885e+2, -1270790.9, -1318956.3, 5647.876, -0.03418234, 0.07903305, -1270137.5, -52859.99, 0.0, 9.999996, 9.999353 
1.450099e+2, 1.8578847e+2, -1167565.1, -1246861.1, 10154.432, -0.020790417, 0.12024375, -1166285.5, -47000.61, 0.0, 10.0001545, 9.9991 
1.4501053e+2, 1.9578823e+2, -1030879.44, -1122390.3, 15778.843, -0.007515065, 0.1841444, -1028235.1, -6943.165, 0.0, 10.000386, 9.99917 
1.4501126e+2, 2.057877e+2, -870612.56, -953334.7, 23069.367, 0.004456601, 0.19347522, -864614.06, 58684.355, 0.0, 10.000636, 9.9995365 
1.4501207e+2, 2.1578692e+2, -734025.75, -836427.25, 22082.834, 0.01602666, 0.15790729, -729466.56, 95837.88, 0.0, 10.0009, 9.999539 
1.4501292e+2, 2.2578628e+2, -652171.06, -794625.3, 30597.98, 0.01642637, 0.16321175, -645876.94, 81434.305, 0.0, 10.000998, 9.999106 
1.450138e+2, 2.3578577e+2, -556905.25, -696614.1, 29726.764, 0.008278637, 0.19756508, -550843.1, 78475.32, 0.0, 10.000973, 9.999119 
1.4501475e+2, 2.4578492e+2, -465364.22, -635390.1, 30061.527, 0.0035710763, 0.21880868, -460205.7, 71122.63, 0.0, 10.001074, 9.998818 
1.4501578e+2, 2.557839e+2, -338709.1, -522407.03, 26845.629, 0.0013548154, 0.22790004, -334866.28, 98473.88, 0.0, 10.001266, 9.998829 
1.450169e+2, 2.6578254e+2, -252489.36, -466682.9, 32138.416, -0.0030274605, 0.22945097, -247771.11, 87582.2, 0.0, 10.001343, 9.998501 
1.4501809e+2, 2.75781e+2, -156193.5, -369445.1, 30599.342, -0.009135827, 0.2222091, -151889.69, 85477.85, 0.0, 10.00133, 9.998502 
1.4501913e+2, 2.8577918e+2, -80114.06, -333086.2, 19549.97, -0.010709386, 0.21452107, -78612.13, 60773.453, 0.0, 10.0014, 9.998045 
1.450201e+2, 2.957772e+2, 36250.332, -227096.8, 16622.76, -0.009061343, 0.20700718, 37295.43, 78701.625, 0.00000031171322, 10.00153, 9.998037 
1.4502047e+2, 3.0577555e+2, 66040.5, -220405.28, -1303.547, -0.038889743, 0.2568066, 66046.44, 66046.44, 0.000008961074, 10.00154, 9.997744 
1.4502075e+2, 3.157733e+2, 180218.88, 36389.17, 14771.638, -0.056498244, 0.25232884, 181720.28, 181720.28, 0.000044704477, 10.001456, 9.999549 
1.5500598e+2, 1.2578976e+2, -1772283.1, -1719254.0, 4014.8599, -0.020138917, 0.014028373, -1718951.8, -11688.801, 0.000004107076, 9.999506, 10.000208 
1.550065e+2, 1.3579041e+2, -1678645.8, -1657786.5, 23005.793, -0.06124165, 0.08696087, -1642956.6, -33698.496, 0.00000065226897, 9.999625, 9.9999 
1.5500747e+2, 1.457894e+2, -1587316.0, -1600932.1, 12433.715, -0.04119634, 0.015750838, -1579948.5, -68679.67, 0.000000011338887, 9.9997425, 9.999558 
1.5500814e+2, 1.5578935e+2, -1472434.4, -1493834.8, 9243.261, -0.036214557, 0.052057832, -1468994.9, -55725.066, 0.0, 9.999854, 9.999567 
1.5500875e+2, 1.6578907e+2, -1375067.1, -1416296.4, 5563.1333, -0.033051997, 0.07666462, -1374329.6, -59055.836, 0.0, 9.999937, 9.999387 
1.5500934e+2, 1.7578848e+2, -1266760.1, -1310531.3, 8408.365, -0.027145175, 0.076131284, -1265200.4, -47919.11, 0.0, 9.999995, 9.999412 
1.550101e+2, 1.8578808e+2, -1158243.6, -1227457.6, 18907.129, -0.015878152, 0.10487752, -1153415.6, -34127.28, 0.0, 10.000154, 9.999233 
1.5501097e+2, 1.9578788e+2, -1022574.0, -1105135.6, 24653.29, -0.0021679297, 0.15798017, -1015772.7, 5521.7427, 0.0, 10.000385, 9.999289 
1.5501188e+2, 2.0578745e+2, -873924.7, -960186.25, 33022.93, 0.000866983, 0.1747659, -862734.4, 60565.47, 0.0, 10.000636, 9.99949 
1.5501277e+2, 2.1578681e+2, -737192.25, -842904.8, 31226.111, -0.0032881398, 0.16011013, -728657.5, 96647.47, 0.0, 10.000899, 9.9994955 
1.550138e+2, 2.2578613e+2, -653911.44, -798163.25, 29621.871, 0.0046664523, 0.16437197, -648065.56, 79246.734, 0.0, 10.000998, 9.999083 
1.550149e+2, 2.3578541e+2, -559051.44, -701074.6, 29434.65, 0.02119909, 0.18183261, -553192.75, 76128.35, 0.0, 10.000973, 9.999088 
1.5501595e+2, 2.4578455e+2, -472111.84, -649395.2, 37321.133, 0.014985499, 0.20498382, -464575.5, 66756.13, 0.0, 10.001074, 9.998722 
1.5501696e+2, 2.5578353e+2, -345046.94, -535480.06, 33574.848, -0.007905969, 0.22956407, -339300.8, 94042.69, 0.0, 10.001266, 9.998739 
1.5501814e+2, 2.6578227e+2, -253546.31, -468837.56, 31704.094, -0.012749541, 0.23892356, -248974.61, 86381.99, 0.0, 10.001343, 9.9984865 
1.5501946e+2, 2.757807e+2, -157259.84, -371767.72, 30539.361, -0.0046687275, 0.23396553, -152996.7, 84373.945, 0.0, 10.001331, 9.998486 
1.5502058e+2, 2.8577885e+2, -82410.734, -337934.6, 24477.215, -0.0064314813, 0.22514395, -80087.13, 59301.91, 0.0, 10.0014, 9.998012 
1.5502156e+2, 2.9577678e+2, 33926.406, -231774.66, 21035.713, -0.015210524, 0.21409105, 35581.504, 76991.836, 0.000000191647, 10.001529, 9.998005 
1.5502201e+2, 3.0577502e+2, 64221.58, -224069.08, -4461.241, -0.03917406, 0.25455076, 64290.598, 64290.598, 0.000007033754, 10.001539, 9.997719 
1.5502241e+2, 3.1577274e+2, 180414.33, 36647.38, 12365.273, -0.03626305, 0.24773619, 181470.1, 181470.1, 0.00003709365, 10.001456, 9.99955 
1.6500548e+2, 1.2578923e+2, -1785300.0, -1726379.3, 5134.75, -0.017443046, 0.009002216, -1725935.1, -18667.297, 0.000004370903, 9.99942, 10.0002 
1.6500612e+2, 1.357899e+2, -1704579.3, -1667797.3, 14695.802, -0.05274474, 0.08285288, -1662646.9, -53383.977, 0.00000075351153, 9.999436, 9.999923 
1.6500719e+2, 1.4578901e+2, -1614219.9, -1604612.1, 8930.354, -0.032283574, 0.017812831, -1599275.6, -88003.04, 0.000000017178404, 9.999517, 9.999641 
1.6500795e+2, 1.5578909e+2, -1498449.0, -1498049.4, 18252.084, -0.029211406, 0.057843547, -1479996.0, -66723.7, 0.0, 9.9996395, 9.999641 
1.6500865e+2, 1.6578878e+2, -1398849.0, -1430220.6, 16616.488, -0.02777995, 0.07939543, -1391684.1, -76407.75, 0.0, 9.999784, 9.999365 
1.6500933e+2, 1.7578812e+2, -1275209.3, -1316341.9, 14260.903, -0.023715785, 0.07146606, -1270748.6, -53463.797, 0.0, 9.999945, 9.999396 
1.6501027e+2, 1.8578771e+2, -1153732.8, -1218444.1, 23813.635, -0.014405142, 0.09679245, -1145914.0, -26622.268, 0.0, 10.000155, 9.999294 
1.6501136e+2, 1.9578755e+2, -1016501.6, -1096151.5, 24071.361, -0.0025897173, 0.14921382, -1009792.1, 11504.864, 0.0, 10.0004015, 9.999343 
1.6501246e+2, 2.0578717e+2, -884587.25, -968490.94, 29406.707, -0.00017481706, 0.16954885, -875307.1, 47994.9, 0.0, 10.000577, 9.999461 
1.6501357e+2, 2.1578658e+2, -768056.9, -860711.25, 28726.486, -0.0040753447, 0.16154303, -759873.3, 65433.89, 0.0, 10.0007, 9.999469 
1.6501471e+2, 2.2578588e+2, -669698.06, -805858.3, 25678.55, 0.0023897989, 0.1655154, -665016.3, 62298.414, 0.0, 10.000889, 9.999082 
1.650159e+2, 2.3578513e+2, -537200.75, -691103.9, 27217.072, 0.016101643, 0.17765497, -532529.3, 96794.48, 0.0, 10.001125, 9.999083 
1.6501702e+2, 2.4578422e+2, -455141.44, -646968.1, 37105.195, 0.009227438, 0.20166399, -448214.3, 83120.305, 0.0, 10.001215, 9.998671 
1.6501814e+2, 2.5578323e+2, -358478.75, -547064.94, 36734.85, -0.012732366, 0.23148227, -351575.8, 81770.914, 0.0, 10.001195, 9.9986925 
1.6501941e+2, 2.6578188e+2, -261744.08, -471727.7, 37021.16, -0.016358985, 0.24124914, -255408.23, 79951.695, 0.0, 10.001282, 9.998496 
1.6502081e+2, 2.7578038e+2, -140422.11, -363061.3, 37487.184, -0.0067506, 0.23324668, -134279.61, 103094.35, 0.0, 10.001444, 9.99849 
1.65022e+2, 2.8577846e+2, -76453.445, -340523.44, 29614.71, -0.006986681, 0.22465135, -73172.99, 66219.555, 0.0, 10.001465, 9.997962 
1.6502303e+2, 2.957764e+2, 8593.035, -248820.31, 25053.938, -0.014350144, 0.21617576, 11008.853, 52423.016, 0.000000103903474, 10.001376, 9.997962 
1.6502352e+2, 3.0577454e+2, 47430.37, -230685.55, 950.0699, -0.03707037, 0.24746805, 47433.617, 47433.617, 0.0000052712203, 10.001417, 9.997732 
1.6502398e+2, 3.1577218e+2, 197607.08, 49089.465, 21174.047, -0.029425848, 0.2349896, 200566.86, 200566.86, 0.00002996744, 10.001556, 9.999587 
1.7500487e+2, 1.2578858e+2, -1795205.5, -1746769.5, 5517.2183, -0.019767137, -0.0056665884, -1746149.0, -38875.473, 0.000004515703, 9.99942, 10.000061 
1.7500563e+2, 1.3578929e+2, -1710736.3, -1680324.0, 15765.602, -0.045106374, 0.082481906, -1673626.3, -64357.137, 0.0000008179498, 9.999434, 9.999837 
1.7500676e+2, 1.4578857e+2, -1596629.4, -1567957.6, 13660.826, -0.026082529, 0.022876974, -1562491.1, -51213.914, 0.000000022541565, 9.9995165, 9.999894 
1.7500758e+2, 1.5578881e+2, -1482761.9, -1465423.4, 23021.203, -0.029751081, 0.05487654, -1449493.1, -36218.617, 0.0, 9.9996395, 9.999866 
1.7500842e+2, 1.6578853e+2, -1405569.1, -1444105.6, 22708.355, -0.02991202, 0.07284075, -1395056.0, -79777.51, 0.0, 9.9997835, 9.99927 
1.7500928e+2, 1.7578775e+2, -1281468.9, -1329323.8, 20626.553, -0.024133686, 0.06504338, -1273805.5, -56517.215, 0.0, 9.999945, 9.999308 
1.7501041e+2, 1.8578735e+2, -1154427.0, -1219872.8, 33100.24, -0.01661949, 0.0959366, -1140605.1, -21309.887, 0.0, 10.0001545, 9.999285 
1.7501171e+2, 1.957873e+2, -1017207.44, -1097589.6, 33031.56, -0.008878978, 0.15781926, -1005375.4, 15924.233, 0.0, 10.0004015, 9.999333 
1.7501305e+2, 2.0578688e+2, -885290.9, -969890.94, 34044.21, 0.0012075811, 0.17777316, -873292.6, 50012.32, 0.0, 10.000576, 9.999453 
1.7501444e+2, 2.157862e+2, -768624.6, -861861.7, 33752.914, 0.013475017, 0.16223875, -757688.44, 67622.73, 0.0, 10.0007, 9.999461 
1.7501567e+2, 2.2578554e+2, -668158.0, -802632.94, 34647.754, 0.00940701, 0.16662754, -659755.9, 67562.65, 0.0, 10.000889, 9.999104 
1.750168e+2, 2.3578486e+2, -535856.1, -688212.7, 35426.91, -0.006986273, 0.1849419, -528021.3, 101305.34, 0.0, 10.001125, 9.999103 
1.7501803e+2, 2.4578395e+2, -455691.13, -648040.0, 36321.37, -0.013698795, 0.20879206, -449061.06, 82276.25, 0.0, 10.001215, 9.998663 
1.7501934e+2, 2.557829e+2, -358665.94, -547500.0, 36534.535, -0.013302284, 0.23368496, -351843.9, 81505.96, 0.0, 10.001195, 9.99869 
1.7502072e+2, 2.6578152e+2, -259359.2, -466840.97, 43172.066, -0.013977396, 0.23649897, -250734.61, 84628.72, 0.0, 10.001282, 9.998529 
1.7502217e+2, 2.7577993e+2, -138625.58, -359256.63, 42975.527, -0.0154580735, 0.22014529, -130550.18, 106827.33, 0.0, 10.001444, 9.998517 
1.7502342e+2, 2.8577805e+2, -80966.47, -349894.97, 26234.926, -0.0125998445, 0.21312203, -78431.06, 60965.074, 0.0, 10.001465, 9.997898 
1.7502448e+2, 2.9577598e+2, 4886.588, -256718.52, 22394.877, -0.0067627295, 0.21338515, 6789.869, 48207.605, 0.00000004563321, 10.001377, 9.997908 
1.7502496e+2, 3.05774e+2, 51168.297, -223080.2, 6153.464, -0.032751143, 0.23568559, 51306.297, 51306.297, 0.0000037135492, 10.001418, 9.997785 
1.7502546e+2, 3.1577167e+2, 202722.11, 59790.777, 26711.395, -0.03645432, 0.21403374, 207550.88, 207550.88, 0.000023373406, 10.001555, 9.999661 
1.8500428e+2, 1.2578799e+2, -1809555.8, -1745357.3, -7255.4727, -0.0155163165, -0.00083781313, -1744547.5, -37267.69, 0.000004500078, 9.999286, 10.000135 
1.8500504e+2, 1.357887e+2, -1730859.1, -1679849.8, 19459.543, -0.0387914, 0.078019544, -1673273.9, -63999.1, 0.0000008390777, 9.999253, 9.9999275 
1.8500625e+2, 1.4578803e+2, -1624028.3, -1579883.9, 18518.14, -0.020537432, 0.019711066, -1573144.6, -61862.37, 0.000000025661054, 9.999323, 9.999906 
1.850072e+2, 1.5578829e+2, -1507769.9, -1475748.3, 9895.699, -0.023468137, 0.053699307, -1472936.9, -59657.168, 0.0, 9.99946, 9.999881 
1.850082e+2, 1.6578807e+2, -1421369.0, -1444558.3, 10945.317, -0.024317358, 0.07381213, -1417018.9, -101735.76, 0.0, 9.999644, 9.999334 
1.8500921e+2, 1.757874e+2, -1289381.0, -1326517.4, 20954.88, -0.020699391, 0.06868869, -1279951.3, -62659.332, 0.0, 9.999862, 9.999367 
1.8501052e+2, 1.8578702e+2, -1165062.6, -1224937.5, 40556.938, -0.016352758, 0.0992503, -1144590.6, -25292.041, 0.0, 10.000082, 9.999286 
1.8501203e+2, 1.9578694e+2, -1031448.75, -1104136.3, 41055.902, -0.012341189, 0.15859815, -1012961.4, 8341.711, 0.0, 10.000301, 9.999336 
1.8501356e+2, 2.0578654e+2, -891527.0, -969742.6, 41892.28, -0.0020742598, 0.17829022, -873325.25, 49983.004, 0.0, 10.00052, 9.99948 
1.8501516e+2, 2.1578592e+2, -761508.7, -855863.4, 44346.715, 0.013131752, 0.16442943, -743937.8, 81376.305, 0.0, 10.000738, 9.999484 
1.8501654e+2, 2.2578523e+2, -671853.94, -806864.06, 44017.695, 0.0077766064, 0.16809103, -658770.56, 68550.984, 0.0, 10.0008745, 9.999082 
1.8501778e+2, 2.3578449e+2, -562595.4, -703389.8, 41328.395, -0.012904688, 0.18373334, -551360.5, 77969.66, 0.0, 10.000952, 9.999083 
1.8501914e+2, 2.457836e+2, -474355.38, -657902.94, 38207.105, -0.018131161, 0.20840937, -466719.84, 64620.945, 0.0, 10.00109, 9.998655 
1.8502057e+2, 2.5578257e+2, -348351.03, -543958.94, 38269.363, -0.012017905, 0.23683654, -341130.44, 92222.56, 0.0, 10.001272, 9.998677 
1.8502206e+2, 2.6578113e+2, -255195.56, -472888.78, 40100.793, -0.011733814, 0.2367781, -248043.64, 87323.64, 0.0, 10.001345, 9.998457 
1.8502356e+2, 2.7577937e+2, -159013.81, -375943.4, 31866.521, -0.015729345, 0.21262743, -154429.56, 82953.61, 0.0, 10.001333, 9.998455 
1.8502486e+2, 2.857775e+2, -84672.12, -344815.03, 15462.333, -0.012885429, 0.20723791, -83756.3, 55645.176, 0.0, 10.00141, 9.997959 
1.8502596e+2, 2.957756e+2, 33677.832, -237051.97, 20968.227, -0.0052564163, 0.21647431, 35292.21, 76713.39, 0.000000013949684, 10.00155, 9.997959 
1.8502645e+2, 3.057736e+2, 67872.48, -222562.52, 3576.556, -0.032802437, 0.23411591, 67916.51, 67916.51, 0.0000024106344, 10.001566, 9.997717 
1.8502699e+2, 3.1577116e+2, 189610.5, 48814.844, 15563.859, -0.03669132, 0.2120543, 191310.44, 191310.44, 0.000017412012, 10.001486, 9.999619 
1.9500366e+2, 1.257874e+2, -1789726.6, -1703748.1, -8430.781, -0.0051243072, 0.023615465, -1702929.3, 4357.3906, 0.000004294411, 9.999284, 10.000422 
1.9500433e+2, 1.357881e+2, -1712211.3, -1640964.9, 18890.443, -0.033934537, 0.06951597, -1636266.1, -26986.229, 0.0000008137795, 9.999252, 10.000195 
1.950056e+2, 1.457874e+2, -1640162.1, -1613211.0, 23778.904, -0.015804427, 0.008361499, -1599354.8, -88066.98, 0.000000025948266, 9.999323, 9.999677 
1.9500679e+2, 1.5578757e+2, -1521426.4, -1503924.1, 15333.415, -0.010615225, 0.05438794, -1495020.4, -81732.46, 0.0, 9.999459, 9.999688 
1.9500796e+2, 1.6578746e+2, -1405713.5, -1411947.6, 19168.172, -0.011214092, 0.08237011, -1389410.6, -74120.13, 0.0, 9.999643, 9.999558 
1.9500916e+2, 1.7578705e+2, -1274871.5, -1296328.0, 29189.914, -0.01351156, 0.0823902, -1254500.9, -37205.008, 0.0, 9.999862, 9.999575 
1.9501063e+2, 1.8578671e+2, -1164350.0, -1223343.6, 48864.67, -0.013688434, 0.10675018, -1136769.5, -17467.871, 0.0, 10.000081, 9.999297 
1.9501232e+2, 1.957865e+2, -1030366.1, -1101821.0, 49348.77, -0.01308178, 0.15156007, -1005169.44, 16137.935, 0.0, 10.000301, 9.999352 
1.9501401e+2, 2.0578615e+2, -886968.94, -960272.2, 50120.42, -0.010126123, 0.17114516, -861528.7, 61783.324, 0.0, 10.00052, 9.999545 
1.950157e+2, 2.157857e+2, -757764.44, -848052.8, 52195.137, -0.0051410375, 0.1681117, -733899.0, 91417.055, 0.0, 10.000737, 9.999538 
1.9501731e+2, 2.2578497e+2, -676504.1, -816492.0, 46886.406, -0.002574084, 0.16988887, -662251.44, 65072.367, 0.0, 10.0008745, 9.999016 
1.9501883e+2, 2.3578405e+2, -566837.7, -712254.5, 44586.855, -0.0018866102, 0.17403679, -554255.4, 75078.89, 0.0, 10.000952, 9.999022 
1.9502035e+2, 2.4578314e+2, -474952.03, -659202.75, 45101.44, -0.0043074926, 0.2005522, -464504.38, 66840.68, 0.0, 10.001091, 9.998646 
1.9502188e+2, 2.5578222e+2, -349890.9, -547207.4, 44617.5, -0.009031681, 0.2409218, -340270.94, 93085.164, 0.0, 10.001272, 9.998654 
1.9502342e+2, 2.657807e+2, -267521.34, -498576.53, 39691.945, -0.009779292, 0.24200422, -260893.0, 74478.8, 0.0, 10.001346, 9.998281 
1.9502498e+2, 2.7577868e+2, -169295.23, -397513.94, 31936.813, -0.0076845437, 0.21063031, -164910.27, 72480.73, 0.0, 10.001334, 9.998307 
1.9502631e+2, 2.8577688e+2, -71564.414, -317747.7, 20815.059, -0.007953386, 0.20700325, -69816.88, 69591.69, 0.0, 10.0014105, 9.998145 
1.9502747e+2, 2.9577523e+2, 44672.043, -214196.19, 25734.357, -0.009901661, 0.22548391, 47205.527, 88630.055, 0.0000000023315327, 10.00155, 9.9981165 
1.9502798e+2, 3.057732e+2, 54861.34, -249579.98, 567.0762, -0.03733153, 0.24273103, 54862.395, 54862.395, 0.0000014034579, 10.001566, 9.997531 
1.9502853e+2, 3.1577066e+2, 178620.0, 25904.11, 12971.453, -0.030599084, 0.22850937, 179713.94, 179713.94, 0.000012235335, 10.001487, 9.999461 
2.0500275e+2, 1.2578674e+2, -1825415.3, -1706333.3, -457.43658, -0.007893961, 0.029190682, -1706331.5, 962.3104, 0.000003892583, 9.998976, 10.000552 
2.0500359e+2, 1.3578747e+2, -1726306.0, -1632438.0, 15189.096, -0.02674821, 0.0651591, -1630041.4, -20755.584, 0.00000074131736, 9.999089, 10.000332 
2.0500496e+2, 1.4578685e+2, -1661037.0, -1626872.3, 26095.936, -0.0065971906, 0.0062610805, -1612764.8, -101471.87, 0.000000023374444, 9.999195, 9.999645 
2.0500627e+2, 1.55787e+2, -1548049.0, -1519619.3, 32632.49, -0.00018081238, 0.055350233, -1498240.0, -84946.336, 0.0, 9.999289, 9.999663 
2.0500763e+2, 1.6578694e+2, -1427324.0, -1416625.0, 39300.53, -0.00034633605, 0.08671688, -1382311.5, -67015.63, 0.0, 9.999471, 9.99961 
2.0500904e+2, 1.7578663e+2, -1292680.9, -1299082.8, 36292.832, -0.0032845887, 0.091203436, -1259448.1, -42147.824, 0.0, 9.999714, 9.999627 
2.0501071e+2, 1.8578632e+2, -1180409.0, -1224240.3, 52221.69, -0.007268598, 0.111244395, -1145690.8, -26385.033, 0.0, 9.999941, 9.999358 
2.0501254e+2, 1.9578604e+2, -1047582.4, -1104258.6, 56449.516, -0.012636872, 0.14480557, -1012757.25, 8554.113, 0.0, 10.000158, 9.999405 
2.0501442e+2, 2.0578569e+2, -905471.44, -975321.5, 55006.902, -0.015959714, 0.16457638, -875238.8, 48077.305, 0.0, 10.00042, 9.999491 
2.0501631e+2, 2.1578526e+2, -764748.5, -856876.25, 47744.902, -0.017496793, 0.17045838, -744468.9, 80851.52, 0.0, 10.000713, 9.99949 
2.0501813e+2, 2.2578456e+2, -668549.75, -811110.75, 37148.12, -0.009864289, 0.17464356, -659450.56, 67877.65, 0.0, 10.000922, 9.99903 
2.050199e+2, 2.3578364e+2, -548883.06, -702010.0, 41015.76, 0.004422283, 0.17628063, -538588.9, 90749.77, 0.0, 10.001068, 9.999036 
2.0502156e+2, 2.457827e+2, -456716.88, -648335.4, 46879.08, 0.0019577418, 0.19936764, -445862.8, 85486.586, 0.0, 10.001207, 9.998665 
2.0502315e+2, 2.5578177e+2, -339289.2, -540564.06, 48230.58, -0.0128440475, 0.23569024, -328328.78, 105031.7, 0.0, 10.001339, 9.998669 
2.0502478e+2, 2.6578024e+2, -250306.9, -494169.97, 47228.207, -0.015070883, 0.24038827, -241479.88, 93896.26, 0.0, 10.00148, 9.998246 
2.0502645e+2, 2.7577832e+2, -129031.3, -381541.4, 49890.598, -0.008085757, 0.21818276, -119531.38, 117863.88, 0.0, 10.001625, 9.998277 
2.0502785e+2, 2.857765e+2, -34226.637, -296824.38, 35466.938, -0.007155754, 0.21581918, -29520.738, 109891.96, 0.0, 10.001654, 9.998172 
2.0502903e+2, 2.9577485e+2, 52601.87, -208372.95, 28391.064, -0.010659924, 0.23002818, 55654.78, 97083.19, 0.000000000097020676, 10.0015955, 9.998135 
2.0502956e+2, 3.057727e+2, 50595.81, -261473.8, -205.68314, -0.03738812, 0.24206851, 50595.945, 50595.945, 0.0000007042908, 10.001579, 9.997443 
2.0503014e+2, 3.157702e+2, 189576.48, 23826.855, 19497.836, -0.024941, 0.2397859, 191839.22, 191839.22, 0.000007994477, 10.001594, 9.999395 
2.1500157e+2, 1.2578595e+2, -1827386.1, -1710121.8, 3920.0315, -0.024216264, 0.015921699, -1709990.9, -2689.4133, 0.0000033185577, 9.998974, 10.000526 
2.1500276e+2, 1.3578682e+2, -1725995.9, -1631563.9, 19475.764, -0.017332306, 0.06503726, -1627704.9, -18412.451, 0.00000061904166, 9.999088, 10.000339 
2.150043e+2, 1.4578635e+2, -1649654.9, -1603036.5, 29710.912, 0.0069565787, 0.013467754, -1588582.5, -77284.7, 0.000000017936356, 9.999194, 9.999809 
2.1500565e+2, 1.557866e+2, -1538202.0, -1498988.1, 36652.51, 0.007708877, 0.056625925, -1477027.8, -63730.65, 0.0, 9.999288, 9.999805 
2.1500719e+2, 1.6578655e+2, -1435900.3, -1434264.9, 48481.71, 0.008175718, 0.08690505, -1386593.9, -71294.33, 0.0, 9.99947, 9.999489 
2.150089e+2, 1.7578615e+2, -1299904.5, -1314001.9, 45375.16, 0.009847672, 0.09514342, -1261033.8, -43728.46, 0.0, 9.999714, 9.999524 
2.1501075e+2, 1.8578583e+2, -1172693.4, -1208171.6, 60359.063, 0.0027701666, 0.11271294, -1127520.8, -8210.105, 0.0, 9.999941, 9.999469 
2.1501273e+2, 1.9578558e+2, -1041425.8, -1091421.4, 64836.676, -0.0111035565, 0.13837169, -996934.9, 24380.25, 0.0, 10.000157, 9.999493 
2.150148e+2, 2.0578517e+2, -917670.8, -1000582.5, 66112.35, -0.019676905, 0.15861411, -881091.9, 42228.836, 0.0, 10.000419, 9.999317 
2.1501695e+2, 2.1578465e+2, -775421.25, -878957.44, 58446.97, -0.024117863, 0.17147292, -749112.56, 76214.58, 0.0, 10.000713, 9.999338 
2.1501902e+2, 2.25784e+2, -661994.2, -797403.6, 42683.184, -0.014282635, 0.18232167, -649662.75, 77672.0, 0.0, 10.000921, 9.999125 
2.15021e+2, 2.3578322e+2, -542611.06, -688960.94, 46500.492, 0.005978537, 0.19040507, -529086.1, 100257.07, 0.0, 10.001068, 9.9991255 
2.1502277e+2, 2.4578227e+2, -453465.38, -641616.25, 51850.67, 0.00065021403, 0.2047759, -440122.56, 91231.27, 0.0, 10.001207, 9.998711 
2.1502437e+2, 2.5578117e+2, -335743.88, -533207.6, 53268.36, -0.023485353, 0.2212218, -322290.63, 111075.484, 0.0, 10.001339, 9.998719 
2.1502614e+2, 2.6577982e+2, -242939.7, -478823.4, 52715.0, -0.027661685, 0.23206063, -231695.06, 103685.266, 0.0, 10.00148, 9.998352 
2.1502799e+2, 2.7577823e+2, -123041.5, -369003.28, 54787.45, -0.017058076, 0.23525766, -111389.695, 126006.38, 0.0, 10.001625, 9.9983635 
2.1502946e+2, 2.857764e+2, -43393.152, -315826.2, 33221.883, -0.010707184, 0.23363216, -39400.42, 100013.484, 0.0, 10.001654, 9.998041 
2.1503066e+2, 2.9577443e+2, 44368.566, -225635.36, 26439.56, -0.007662875, 0.23020007, 46933.242, 88366.08, 0.0, 10.0015955, 9.998015 
2.1503118e+2, 3.0577216e+2, 51280.797, -260330.7, 355.119, -0.033092085, 0.23238239, 51281.2, 51281.2, 0.00000028677624, 10.00158, 9.997451 
2.1503179e+2, 3.157698e+2, 191498.02, 27435.64, 20115.012, -0.020238869, 0.24538486, 193928.23, 193928.23, 0.0000047712674, 10.0015955, 9.999419 
2.2500055e+2, 1.257853e+2, -1821433.6, -1714331.3, 5926.6714, -0.027076216, 0.0146955615, -1714004.4, -6696.726, 0.0000026194793, 9.999045, 10.000464 
2.2500192e+2, 1.3578613e+2, -1743915.3, -1644289.8, 18973.95, -0.0053660413, 0.06507062, -1640798.4, -31499.012, 0.0000004546107, 9.998983, 10.000302 
2.2500359e+2, 1.4578573e+2, -1659585.6, -1600461.0, 28592.121, 0.022104202, 0.019225009, -1588896.3, -77592.125, 0.000000010467296, 9.999094, 9.999875 
2.250051e+2, 1.5578607e+2, -1528540.3, -1487960.4, 28173.006, 0.024183355, 0.062390883, -1473531.5, -60229.02, 0.0, 9.999327, 9.999863 
2.2500682e+2, 1.6578597e+2, -1429565.8, -1437278.3, 41842.56, 0.021960266, 0.08887535, -1391402.1, -76096.83, 0.0, 9.999539, 9.999434 
2.250087e+2, 1.7578547e+2, -1299602.6, -1319284.6, 43678.723, 0.017378053, 0.091225155, -1264670.0, -47357.758, 0.0, 9.99974, 9.9994755 
2.2501074e+2, 1.8578513e+2, -1167272.4, -1203639.4, 57200.53, 0.006855256, 0.109502055, -1125434.8, -6117.183, 0.0, 9.99997, 9.999486 
2.2501294e+2, 1.9578494e+2, -1031130.94, -1085217.4, 54567.426, -0.008162611, 0.14044064, -997273.1, 24048.04, 0.0, 10.000223, 9.999504 
2.2501522e+2, 2.0578454e+2, -925172.6, -1009561.6, 57033.746, -0.01718249, 0.16184732, -896421.94, 26905.08, 0.0, 10.000391, 9.9992695 
2.2501758e+2, 2.1578395e+2, -809777.1, -900084.44, 58700.707, -0.02167163, 0.17289989, -780872.56, 44462.06, 0.0, 10.000497, 9.999297 
2.2501983e+2, 2.257833e+2, -687153.56, -803520.25, 46278.266, -0.015713615, 0.18599978, -670993.25, 56348.844, 0.0, 10.000723, 9.999178 
2.2502196e+2, 2.3578265e+2, -543435.9, -683592.6, 46759.332, -0.002143891, 0.19941275, -529268.06, 100081.34, 0.0, 10.001038, 9.999177 
2.2502393e+2, 2.4578172e+2, -446241.3, -633478.94, 46862.63, -0.004643791, 0.21184044, -435167.3, 96192.31, 0.0, 10.001237, 9.998753 
2.2502576e+2, 2.557806e+2, -331227.78, -526009.1, 47864.52, -0.018912163, 0.22109707, -320101.38, 113270.56, 0.0, 10.001348, 9.998764 
2.2502762e+2, 2.6577932e+2, -242236.4, -468616.63, 46186.316, -0.024959229, 0.232799, -233176.05, 102209.27, 0.0, 10.001442, 9.99844 
2.2502948e+2, 2.757779e+2, -132377.63, -364712.34, 46827.55, -0.024824299, 0.24262236, -123294.55, 114105.03, 0.0, 10.001523, 9.998442 
2.2503105e+2, 2.8577608e+2, -47264.344, -321857.4, 26470.428, -0.01763556, 0.24197052, -44735.91, 94681.305, 0.0, 10.001645, 9.998005 
2.2503236e+2, 2.9577404e+2, 70744.4, -217109.81, 26510.314, -0.0054665683, 0.23550716, 73165.54, 114602.43, 0.0, 10.001795, 9.997978 
2.2503293e+2, 3.0577168e+2, 91849.95, -245093.77, 708.2566, -0.030454665, 0.22936387, 91851.445, 91851.445, 0.00000008572978, 10.001877, 9.997413 
2.2503352e+2, 3.1576934e+2, 235798.1, 45783.81, 16904.889, -0.021132763, 0.25002345, 237290.34, 237290.34, 0.000002540607, 10.001912, 9.999393 
2.3499972e+2, 1.2578478e+2, -1828460.5, -1728651.4, 3619.3062, -0.016869927, 0.025449038, -1728520.3, -21207.805, 0.0000018640146, 9.999044, 10.000366 
2.3500106e+2, 1.3578543e+2, -1749542.9, -1655605.3, 17529.367, 0.009032371, 0.065299734, -1652440.8, -43134.082, 0.0000002777255, 9.998981, 10.000225 
2.3500285e+2, 1.4578502e+2, -1662157.5, -1605460.1, 37496.285, 0.038770545, 0.023590634, -1586802.1, -75490.53, 0.0000000036051038, 9.999093, 9.999842 
2.3500468e+2, 1.5578538e+2, -1530657.9, -1492142.6, 36849.17, 0.049114257, 0.072641775, -1469822.4, -56512.766, 0.0, 9.999326, 9.999834 
2.3500656e+2, 1.6578521e+2, -1428851.6, -1435583.5, 49338.707, 0.04090153, 0.092624694, -1382764.1, -67451.18, 0.0, 9.999538, 9.999447 
2.3500845e+2, 1.7578454e+2, -1299382.6, -1318608.4, 51379.832, 0.019227846, 0.07955188, -1256724.1, -39403.086, 0.0, 9.999739, 9.999481 
2.350107e+2, 1.857842e+2, -1172707.0, -1214721.5, 66761.875, 0.0048740064, 0.10171531, -1123725.3, -4398.8413, 0.0, 9.9999695, 9.99941 
2.350132e+2, 1.9578415e+2, -1035704.6, -1094613.1, 63719.523, -0.003977523, 0.15098193, -994961.06, 26368.389, 0.0, 10.000223, 9.999439 
2.350157e+2, 2.0578377e+2, -919957.7, -998687.0, 61011.887, -0.008655869, 0.17419411, -886713.6, 36621.516, 0.0, 10.00039, 9.999345 
2.3501821e+2, 2.1578315e+2, -804919.75, -889991.56, 63314.08, -0.010262843, 0.17470816, -771180.0, 54162.85, 0.0, 10.000497, 9.999367 
2.3502055e+2, 2.2578253e+2, -686264.5, -801615.8, 58191.465, -0.01426478, 0.18571508, -662008.94, 65341.305, 0.0, 10.000723, 9.999191 
2.3502283e+2, 2.3578194e+2, -542459.0, -681448.4, 58059.168, -0.019961083, 0.20336688, -521397.75, 107959.53, 0.0, 10.001037, 9.999192 
2.3502506e+2, 2.4578108e+2, -443742.63, -628195.06, 51064.36, -0.014011927, 0.22054216, -430549.5, 100817.266, 0.0, 10.001236, 9.998789 
2.350273e+2, 2.5578004e+2, -328537.97, -520430.53, 51967.855, 0.0006058003, 0.23511928, -315368.03, 118009.984, 0.0, 10.001348, 9.998802 
2.3502924e+2, 2.6577878e+2, -237132.98, -458041.66, 49205.52, -0.007217369, 0.24245141, -226668.56, 108722.58, 0.0, 10.001442, 9.998512 
2.3503095e+2, 2.7577728e+2, -127380.4, -354307.03, 50059.867, -0.031491622, 0.24039829, -116827.93, 120577.84, 0.0, 10.001523, 9.998513 
2.3503259e+2, 2.8577557e+2, -43429.453, -313919.22, 32078.295, -0.02807737, 0.24095227, -39677.23, 99745.4, 0.0, 10.001645, 9.998059 
2.3503418e+2, 2.957737e+2, 73910.41, -210673.05, 31723.543, -0.004218092, 0.24589153, 77403.86, 118844.48, 0.0, 10.001796, 9.998023 
2.3503482e+2, 3.057712e+2, 86358.31, -256790.47, 1933.9393, -0.029643258, 0.23281166, 86369.21, 86369.21, 0.000000016806371, 10.001878, 9.997332 
2.3503537e+2, 3.157688e+2, 231117.08, 35632.254, 17921.053, -0.028144661, 0.25317112, 232746.42, 232746.42, 0.0000011714155, 10.001914, 9.999323 
2.4499874e+2, 1.257839e+2, -1875790.4, -1750385.1, -16297.304, -0.0015609503, 0.032360874, -1748301.8, -40980.406, 0.0000011498672, 9.998715, 10.000376 
2.4500018e+2, 1.3578454e+2, -1745166.1, -1651640.6, 5294.079, 0.024211619, 0.06852627, -1651341.9, -42026.15, 0.00000012802465, 9.999003, 10.000241 
2.4500209e+2, 1.4578414e+2, -1655688.1, -1609269.6, 28739.725, 0.05065314, 0.02881861, -1595537.9, -84217.02, 0.00000000023702618, 9.999167, 9.99978 
2.4500412e+2, 1.5578438e+2, -1547391.8, -1506155.9, 26199.266, 0.06355567, 0.07437723, -1493434.6, -80114.734, 0.0, 9.999237, 9.999781 
2.4500617e+2, 1.6578418e+2, -1437695.3, -1435186.0, 42992.3, 0.052901033, 0.092590876, -1393430.0, -78106.73, 0.0, 9.999458, 9.999489 
2.4500827e+2, 1.7578359e+2, -1289384.1, -1309692.5, 46906.93, 0.024414577, 0.07980058, -1251545.0, -34214.215, 0.0, 9.999789, 9.999517 
2.4501072e+2, 1.8578327e+2, -1171347.4, -1215701.4, 62741.207, 0.008582255, 0.1030291, -1126979.1, -7643.225, 0.0, 9.999986, 9.999395 
2.4501342e+2, 1.957832e+2, -1056876.0, -1106231.5, 64194.94, 0.0023661081, 0.15374778, -1012778.9, 8560.067, 0.0, 10.000084, 9.999427 
2.4501608e+2, 2.0578283e+2, -938109.25, -1006085.9, 60602.965, -0.0028247626, 0.17850086, -902614.3, 20730.28, 0.0, 10.00026, 9.999356 
2.4501872e+2, 2.1578224e+2, -804345.5, -888501.7, 58458.97, -0.0073669665, 0.1807596, -774395.7, 50956.48, 0.0, 10.000496, 9.999377 
2.4502128e+2, 2.2578165e+2, -690002.9, -803839.44, 53362.285, -0.012377046, 0.19380178, -668900.5, 58459.008, 0.0, 10.000699, 9.999187 
2.450238e+2, 2.3578107e+2, -565404.6, -692220.9, 51816.727, -0.017546406, 0.213635, -546925.25, 82441.32, 0.0, 10.000878, 9.999195 
2.4502626e+2, 2.4578024e+2, -458084.4, -627448.7, 43679.86, -0.012695746, 0.22958049, -447482.78, 83892.85, 0.0, 10.001104, 9.9988575 
2.4502866e+2, 2.5577924e+2, -321793.16, -510230.84, 46575.504, -0.00045890704, 0.24056321, -310909.8, 122476.36, 0.0, 10.001365, 9.998864 
2.4503069e+2, 2.6577795e+2, -231012.66, -455667.88, 36754.246, -0.0086503, 0.24498543, -225152.42, 110246.89, 0.0, 10.001487, 9.9985075 
2.4503246e+2, 2.7577645e+2, -129893.586, -355551.3, 32161.043, -0.031876493, 0.24046285, -125399.46, 112015.07, 0.0, 10.001506, 9.998513 
2.4503423e+2, 2.8577477e+2, -37047.965, -303840.34, 17471.295, -0.030100532, 0.24334389, -35908.7, 103522.125, 0.0, 10.001659, 9.998122 
2.4503598e+2, 2.9577303e+2, 94902.05, -194473.33, 17389.752, -0.009692147, 0.25461677, 95943.32, 137390.69, 0.0, 10.001914, 9.998077 
2.450368e+2, 3.0577046e+2, 119916.69, -245457.56, -13651.279, -0.032246962, 0.23023765, 120426.02, 120426.02, 0.0000000018495133, 10.00213, 9.997288 
2.4503756e+2, 3.1576797e+2, 287114.13, 58212.195, 4524.9956, -0.021433348, 0.24685602, 287203.53, 287203.53, 0.00000045275593, 10.002318, 9.999284 
2.5499764e+2, 1.2578267e+2, -1868018.3, -1733825.6, -5129.178, 0.018571688, 0.035667576, -1733629.9, -26295.61, 0.0000005982307, 9.9987135, 10.00049 
2.5499934e+2, 1.3578345e+2, -1737628.0, -1635779.1, 15544.656, 0.039785974, 0.07482885, -1633459.5, -24132.82, 0.00000003796869, 9.999002, 10.000351 
2.5500134e+2, 1.4578304e+2, -1662125.5, -1622386.5, 31409.926, 0.057403136, 0.035032846, -1605089.1, -93757.37, 0.0, 9.9991665, 9.99969 
2.550034e+2, 1.5578309e+2, -1552990.4, -1517430.6, 29649.578, 0.06735448, 0.06776378, -1500638.5, -87305.375, 0.0, 9.999236, 9.999704 
2.550057e+2, 1.6578291e+2, -1432997.1, -1425132.0, 55537.547, 0.05778398, 0.08891472, -1373387.9, -58051.707, 0.0, 9.999457, 9.999558 
2.5500813e+2, 1.7578253e+2, -1284727.6, -1299899.9, 58739.81, 0.032661896, 0.09196878, -1233086.1, -15744.849, 0.0, 9.999789, 9.999585 
2.5501078e+2, 1.8578225e+2, -1168160.3, -1208988.4, 66390.836, 0.017731626, 0.11343354, -1119115.8, 229.92462, 0.0, 9.999986, 9.999441 
2.5501359e+2, 1.957821e+2, -1054229.6, -1100649.8, 68273.164, 0.010812872, 0.14884631, -1005329.2, 16020.42, 0.0, 10.000084, 9.999465 
2.550164e+2, 2.0578173e+2, -941667.56, -1013382.56, 69488.81, 0.00027600085, 0.17489213, -899330.1, 24025.262, 0.0, 10.000259, 9.999307 
2.5501916e+2, 2.1578123e+2, -807716.94, -895417.06, 67219.8, -0.013100237, 0.1910614, -771309.06, 54053.543, 0.0, 10.000495, 9.9993305 
2.55022e+2, 2.2578065e+2, -691437.75, -806771.75, 60117.07, -0.010242665, 0.21016392, -665800.8, 61569.145, 0.0, 10.000699, 9.999168 
2.550249e+2, 2.3578006e+2, -566117.7, -693722.9, 58812.773, 0.004787584, 0.23010567, -543146.3, 86230.98, 0.0, 10.000878, 9.999185 
2.5502747e+2, 2.457792e+2, -451031.3, -612751.75, 53472.492, -0.0009422991, 0.2389202, -434949.88, 96436.4, 0.0, 10.001104, 9.998959 
2.550298e+2, 2.557782e+2, -315772.75, -497566.47, 55682.63, -0.022002801, 0.23755908, -300073.22, 133323.19, 0.0, 10.001364, 9.998952 
2.5503197e+2, 2.6577687e+2, -236913.77, -467814.8, 37410.785, -0.029202228, 0.2405172, -231003.72, 104406.1, 0.0, 10.001487, 9.998425 
2.55034e+2, 2.7577537e+2, -134803.22, -365903.63, 33505.414, -0.026158152, 0.24270825, -130043.56, 107382.266, 0.0, 10.001507, 9.998442 
2.5503594e+2, 2.8577372e+2, -31967.08, -293428.16, 27045.193, -0.023899086, 0.24903585, -29198.87, 110242.92, 0.0, 10.001659, 9.998193 
2.5503775e+2, 2.9577208e+2, 99360.05, -185104.31, 26721.588, -0.021914342, 0.26169637, 101848.414, 143305.56, 0.0, 10.001913, 9.998141 
2.5503886e+2, 3.0576935e+2, 119427.85, -246450.77, -6603.215, -0.038341977, 0.22173406, 119546.984, 119546.984, 0.000000000039700524, 10.00213, 9.997281 
2.5504008e+2, 3.1576678e+2, 286504.47, 56744.34, 10714.984, -0.0015256417, 0.23044178, 287003.1, 287003.1, 0.00000014491832, 10.002319, 9.999272 
2.6499662e+2, 1.257812e+2, -1848187.6, -1724165.4, -9448.21, 0.035775773, 0.032650255, -1723449.8, -16100.794, 0.00000026973817, 9.998849, 10.00049 
2.6499853e+2, 1.3578208e+2, -1742789.1, -1637082.8, 2058.9805, 0.058785524, 0.07934115, -1637042.6, -27701.959, 0.0000000060296985, 9.998962, 10.000361 
2.6500058e+2, 1.4578173e+2, -1662256.3, -1620234.9, 17488.557, 0.06667958, 0.044328447, -1613908.8, -102563.68, 0.0, 9.999156, 9.99971 
2.6500273e+2, 1.557817e+2, -1527149.0, -1503101.4, 24104.672, 0.068710364, 0.069347136, -1488188.1, -74841.2, 0.0, 9.999405, 9.999721 
2.6500526e+2, 1.6578154e+2, -1411397.4, -1417331.0, 52999.83, 0.061329063, 0.09120555, -1361281.4, -45931.367, 0.0, 9.999617, 9.999536 
2.6500806e+2, 1.7578122e+2, -1284350.9, -1301909.5, 48844.21, 0.0449468, 0.10185673, -1243503.3, -26148.611, 0.0, 9.999802, 9.999565 
2.650109e+2, 1.8578091e+2, -1168403.8, -1206119.8, 48201.13, 0.029603794, 0.120408244, -1135503.0, -16143.7295, 0.0, 9.999971, 9.999469 
2.6501372e+2, 1.9578065e+2, -1045837.4, -1094202.3, 48856.543, 0.015841244, 0.14491095, -1015506.06, 5857.5557, 0.0, 10.000131, 9.999487 
2.6501667e+2, 2.057803e+2, -937862.4, -1015002.3, 52986.824, 0.0021031376, 0.17193262, -910894.25, 12475.188, 0.0, 10.0003, 9.999276 
2.6501966e+2, 2.1577986e+2, -811986.94, -900396.6, 52117.58, -0.011876058, 0.19797347, -787852.1, 37524.227, 0.0, 10.000479, 9.999304 
2.650227e+2, 2.2577932e+2, -693139.2, -804398.7, 47348.418, -0.009804101, 0.21923907, -675717.3, 51666.207, 0.0, 10.000673, 9.999197 
2.650258e+2, 2.3577872e+2, -563593.9, -689097.56, 49713.15, 0.0042669713, 0.23551905, -546288.3, 83102.48, 0.0, 10.000881, 9.999215 
2.650285e+2, 2.4577785e+2, -454150.16, -608632.8, 44246.848, -0.005749492, 0.23742731, -442374.6, 89025.195, 0.0, 10.001059, 9.999009 
2.6503098e+2, 2.557768e+2, -334183.22, -500926.97, 42477.414, -0.033478506, 0.2268578, -323985.88, 109424.22, 0.0, 10.001213, 9.9990015 
2.6503336e+2, 2.6577553e+2, -244540.69, -468402.03, 24835.945, -0.03716321, 0.23394457, -241818.4, 93604.375, 0.0, 10.001421, 9.998452 
2.650356e+2, 2.757742e+2, -109700.9, -350981.3, 29168.266, -0.023064403, 0.25024697, -106224.84, 131212.58, 0.0, 10.001667, 9.998467 
2.6503772e+2, 2.857726e+2, -13730.397, -285464.38, 23183.605, -0.0180502, 0.25838518, -11766.626, 127686.54, 0.0, 10.001789, 9.998185 
2.6503965e+2, 2.9577088e+2, 85309.25, -192290.42, 17477.754, -0.019519515, 0.26387948, 86405.33, 127874.5, 0.0, 10.001819, 9.998137 
2.6504102e+2, 3.05768e+2, 112136.055, -246111.03, -10983.622, -0.033204027, 0.21111135, 112472.484, 112472.484, 0.0, 10.002064, 9.997315 
2.650426e+2, 3.1576553e+2, 310515.28, 71237.05, 8185.4844, 0.012657271, 0.22390208, 310794.97, 310794.97, 0.000000037775372, 10.002472, 9.999298 
2.749956e+2, 1.2577951e+2, -1856616.1, -1741075.0, -5062.961, 0.049443778, 0.023142807, -1740853.6, -33488.08, 0.00000012804327, 9.998847, 10.000376 
2.749977e+2, 1.357804e+2, -1749285.0, -1650055.6, 6781.665, 0.08108701, 0.082255796, -1649594.3, -40236.383, 0.0000000018569922, 9.9989605, 10.000274 
2.7499986e+2, 1.4578018e+2, -1653523.6, -1601704.5, 27011.602, 0.07834854, 0.056906294, -1590185.0, -78824.04, 0.0, 9.999154, 9.999838 
2.750021e+2, 1.5578026e+2, -1519583.5, -1487143.4, 33334.395, 0.06719195, 0.07920177, -1466292.3, -52931.043, 0.0, 9.999404, 9.999831 
2.750049e+2, 1.6578008e+2, -1419588.5, -1434112.5, 59964.047, 0.063165106, 0.099520765, -1366448.3, -51083.67, 0.0, 9.999616, 9.99942 
2.7500802e+2, 1.7577961e+2, -1291860.5, -1317263.0, 55768.906, 0.061163906, 0.109647885, -1247364.8, -29993.86, 0.0, 9.999801, 9.99946 
2.7501097e+2, 1.8577923e+2, -1168017.5, -1205190.8, 54220.098, 0.044132583, 0.124077484, -1129286.8, -9910.379, 0.0, 9.99997, 9.999475 
2.750139e+2, 1.9577892e+2, -1045487.8, -1093460.6, 54952.52, 0.017287403, 0.14195889, -1009514.9, 11866.108, 0.0, 10.000131, 9.999492 
2.7501696e+2, 2.0577857e+2, -938666.75, -1016679.5, 59692.26, 0.0024980728, 0.16961536, -906366.3, 17020.432, 0.0, 10.0003, 9.999265 
2.750202e+2, 2.1577819e+2, -812277.9, -901038.25, 58949.605, -0.0038288767, 0.2015606, -782870.1, 42523.28, 0.0, 10.000479, 9.9993 
2.7502334e+2, 2.2577767e+2, -687780.94, -793270.1, 55160.117, -0.011131058, 0.22112645, -664206.25, 63193.9, 0.0, 10.000673, 9.999273 
2.7502644e+2, 2.3577705e+2, -558699.4, -678857.4, 57393.664, -0.018961143, 0.23000127, -535690.94, 93716.01, 0.0, 10.00088, 9.999286 
2.7502936e+2, 2.4577613e+2, -454224.44, -608687.7, 50027.758, -0.027013473, 0.2252368, -439437.06, 91979.125, 0.0, 10.001059, 9.999009 
2.7503216e+2, 2.55775e+2, -333451.66, -499339.8, 48534.754, -0.0351025, 0.20854808, -320295.03, 113132.19, 0.0, 10.001213, 9.999013 
2.7503482e+2, 2.6577395e+2, -234965.08, -448391.0, 34040.32, -0.032798126, 0.22526751, -229667.33, 105770.88, 0.0, 10.00142, 9.99859 
2.750373e+2, 2.7577296e+2, -101472.11, -333598.88, 37750.234, -0.022725932, 0.26298228, -95487.19, 141962.14, 0.0, 10.001666, 9.998588 
2.7503955e+2, 2.8577137e+2, -19712.482, -297739.9, 24130.682, -0.0127386805, 0.2713145, -17633.664, 121831.305, 0.0, 10.001788, 9.998101 
2.7504167e+2, 2.9576942e+2, 80428.23, -202644.47, 19465.537, -0.0028193654, 0.26120654, 81760.51, 123243.92, 0.0, 10.00182, 9.998066 
2.7504325e+2, 3.0576646e+2, 117556.68, -235256.02, 4322.5576, -0.017044906, 0.19830956, 117609.63, 117609.63, 0.0, 10.002066, 9.997389 
2.7504516e+2, 3.157642e+2, 314899.25, 79925.76, 22125.684, 0.020446245, 0.22666241, 316964.5, 316964.5, 0.00000000643165, 10.002474, 9.999357 
2.8499463e+2, 1.2577787e+2, -1868862.4, -1751582.8, -9094.783, 0.07075776, 0.03267504, -1750881.6, -43499.863, 0.000000073181255, 9.998782, 10.000336 
2.8499687e+2, 1.357786e+2, -1745078.9, -1651907.3, 8131.7314, 0.098282, 0.080999576, -1651202.8, -41827.2, 0.00000000048290855, 9.999005, 10.000239 
2.849991e+2, 1.457784e+2, -1645756.0, -1601079.5, 26030.988, 0.08595985, 0.058146767, -1589116.0, -77737.14, 0.0, 9.999221, 9.99981 
2.8500158e+2, 1.5577847e+2, -1518021.6, -1489174.0, 20467.43, 0.07280032, 0.08259942, -1478558.6, -65179.46, 0.0, 9.999427, 9.999806 
2.8500453e+2, 1.6577826e+2, -1417523.3, -1434600.6, 45609.598, 0.063889585, 0.10341281, -1379660.0, -64277.27, 0.0, 9.999637, 9.999407 
2.8500777e+2, 1.7577781e+2, -1285648.6, -1316046.5, 49023.75, 0.05408393, 0.113406055, -1249521.8, -32132.645, 0.0, 9.99985, 9.999445 
2.85011e+2, 1.857774e+2, -1156574.3, -1205073.0, 48219.594, 0.03991997, 0.12800261, -1126850.0, -7455.0024, 0.0, 10.0000725, 9.999427 
2.8501415e+2, 1.9577703e+2, -1023837.7, -1087982.9, 44639.375, 0.024199463, 0.14627798, -1000943.7, 20456.377, 0.0, 10.0003, 9.999448 
2.8501746e+2, 2.0577665e+2, -916932.8, -1006493.56, 45988.313, 0.012138831, 0.17342824, -897524.4, 25881.773, 0.0, 10.000451, 9.999262 
2.8502077e+2, 2.1577625e+2, -802668.9, -896275.1, 46082.59, 0.0020875668, 0.20422374, -783789.94, 41622.996, 0.0, 10.000544, 9.999301 
2.8502402e+2, 2.2577575e+2, -682863.4, -785276.25, 43339.168, -0.012874461, 0.22250494, -666984.94, 60434.477, 0.0, 10.000683, 9.999324 
2.8502715e+2, 2.3577516e+2, -559000.9, -673749.8, 43532.406, -0.031158002, 0.22999927, -544355.2, 85070.47, 0.0, 10.000855, 9.999333 
2.850303e+2, 2.4577431e+2, -459279.22, -609297.8, 34713.492, -0.034660596, 0.22741072, -451636.1, 79798.305, 0.0, 10.001016, 9.999025 
2.8503343e+2, 2.5577325e+2, -339182.72, -500143.5, 34463.633, -0.027138812, 0.21555468, -332114.06, 101330.88, 0.0, 10.001165, 9.99903 
2.8503627e+2, 2.6577222e+2, -249142.0, -451488.6, 17337.328, -0.02312536, 0.23131528, -247667.27, 87788.414, 0.0, 10.001307, 9.998624 
2.8503886e+2, 2.7577117e+2, -131798.34, -344875.2, 13290.063, -0.021657238, 0.26374805, -130972.61, 106494.125, 0.0, 10.001443, 9.998617 
2.850413e+2, 2.8576955e+2, -33160.277, -305968.72, -589.31793, -0.013482778, 0.26893207, -33159.004, 106323.47, 0.0, 10.001703, 9.998086 
2.850436e+2, 2.9576758e+2, 113317.57, -189048.9, 130.82962, -0.00028855016, 0.2575233, 113317.63, 154818.77, 0.0, 10.002055, 9.998047 
2.850455e+2, 3.057646e+2, 157390.36, -221964.9, -12937.322, -0.012661735, 0.19305997, 157831.05, 157831.05, 0.0, 10.002364, 9.997337 
2.8504777e+2, 3.157625e+2, 334487.5, 81647.67, -5956.67, 0.025731944, 0.24159308, 334627.75, 334627.75, 0.00000000043435586, 10.002641, 9.9992895 
2.9499367e+2, 1.2577628e+2, -1866817.0, -1746707.1, -514.29834, 0.099081345, 0.061562415, -1746704.9, -39307.09, 0.000000040732502, 9.998779, 10.00037 
2.9499596e+2, 1.3577671e+2, -1744045.5, -1649219.0, 16569.053, 0.10968934, 0.0757304, -1646407.3, -37013.277, 0.0000000000036468957, 9.999003, 10.000258 
2.9499835e+2, 1.4577636e+2, -1658880.6, -1627903.6, 33894.43, 0.08885108, 0.048175517, -1606126.5, -94727.93, 0.0, 9.999219, 9.999627 
2.9500112e+2, 1.5577632e+2, -1529433.6, -1512584.4, 28280.531, 0.08532798, 0.07981265, -1491500.4, -78099.76, 0.0, 9.999426, 9.999646 
2.9500416e+2, 1.6577612e+2, -1411362.4, -1421641.9, 53672.95, 0.06342773, 0.10314128, -1362583.6, -47179.535, 0.0, 9.999636, 9.999496 
2.9500732e+2, 1.7577575e+2, -1280553.3, -1305296.1, 57179.4, 0.02347988, 0.11315717, -1234422.3, -17012.96, 0.0, 9.999849, 9.999519 
2.950108e+2, 1.8577535e+2, -1163863.0, -1220101.5, 56809.543, 0.016735017, 0.13222386, -1128594.5, -9179.441, 0.0, 10.000072, 9.999324 
2.950146e+2, 1.9577496e+2, -1030445.06, -1101704.8, 52881.95, 0.03642911, 0.15793213, -1002309.8, 19111.129, 0.0, 10.0003, 9.999353 
2.950181e+2, 2.0577453e+2, -916433.0, -1005448.44, 49488.77, 0.030881738, 0.18338098, -894381.94, 29045.666, 0.0, 10.000451, 9.9992695 
2.9502136e+2, 2.1577404e+2, -802102.8, -895108.2, 49867.51, 0.005772895, 0.20596224, -780419.94, 45014.94, 0.0, 10.000544, 9.99931 
2.950247e+2, 2.2577356e+2, -681241.75, -781929.25, 49844.13, -0.015130849, 0.22340035, -660741.06, 66700.17, 0.0, 10.000683, 9.999347 
2.95028e+2, 2.3577306e+2, -557260.3, -670186.6, 50003.867, -0.032574307, 0.23549415, -538301.5, 91145.44, 0.0, 10.000856, 9.999357 
2.9503137e+2, 2.4577233e+2, -457066.5, -604752.75, 40283.387, -0.029026292, 0.24374911, -446793.28, 84661.19, 0.0, 10.001016, 9.999057 
2.9503477e+2, 2.5577146e+2, -337561.38, -496810.1, 40009.207, -0.009856843, 0.24746832, -328074.72, 105388.59, 0.0, 10.001165, 9.999053 
2.9503772e+2, 2.657703e+2, -253952.98, -461556.66, 22317.967, -0.008331878, 0.2518586, -251580.86, 83894.36, 0.0, 10.0013075, 9.998554 
2.950403e+2, 2.7576885e+2, -135870.34, -353456.28, 18931.777, -0.01992726, 0.25275978, -134235.4, 103254.18, 0.0, 10.001444, 9.998558 
2.9504293e+2, 2.8576717e+2, -29443.3, -298380.53, 12572.397, -0.02024957, 0.25148806, -28856.84, 110648.8, 0.0, 10.001704, 9.998137 
2.9504552e+2, 2.9576537e+2, 115699.875, -184177.44, 12996.227, -0.01180322, 0.2528684, 116262.06, 157784.39, 0.0, 10.002056, 9.998079 
2.950478e+2, 3.0576235e+2, 145028.31, -247727.16, -2586.1445, -0.020062681, 0.19527888, 145045.34, 145045.34, 0.0, 10.002364, 9.99716 
2.950504e+2, 3.157603e+2, 321180.28, 53838.18, 3185.345, 0.027913645, 0.26765436, 321218.22, 321218.22, 0.0, 10.002642, 9.999098 
3.0499265e+2, 1.2577413e+2, -1869947.1, -1751273.4, -16264.686, 0.11775034, 0.0704279, -1749084.6, -41665.38, 0.000000022140249, 9.998772, 10.000342 
3.0499518e+2, 1.3577443e+2, -1720209.9, -1640941.5, -4438.218, 0.119397014, 0.07359003, -1640693.8, -31277.117, 0.0, 9.999181, 10.00023 
3.0499765e+2, 1.4577408e+2, -1632776.5, -1619634.4, 11515.738, 0.08715256, 0.050036326, -1612946.9, -101525.52, 0.0, 9.999416, 9.999589 
3.0500057e+2, 1.5577406e+2, -1518307.9, -1511336.5, 16928.852, 0.08379772, 0.08686464, -1497538.3, -84114.89, 0.0, 9.999519, 9.99961 
3.0500382e+2, 1.6577382e+2, -1399760.0, -1418907.4, 45304.39, 0.06150248, 0.10950835, -1363028.8, -47601.523, 0.0, 9.999727, 9.999472 
3.050072e+2, 1.7577338e+2, -1258382.5, -1297470.4, 39993.434, 0.019716708, 0.115255944, -1233413.0, -15980.035, 0.0, 10.000014, 9.999494 
3.0501089e+2, 1.8577299e+2, -1146126.1, -1214500.6, 36771.87, 0.012019808, 0.13677754, -1130104.4, -10665.57, 0.0, 10.000206, 9.999298 
3.0501485e+2, 1.9577263e+2, -1027734.25, -1102853.1, 38517.168, 0.03172192, 0.16964924, -1011495.1, 9949.51, 0.0, 10.00033, 9.999332 
3.050185e+2, 2.0577222e+2, -909999.06, -1000096.1, 36751.05, 0.026709331, 0.19609655, -896909.75, 26541.44, 0.0, 10.000485, 9.9992895 
3.0502194e+2, 2.1577172e+2, -783162.9, -884039.0, 38155.33, 0.0024381261, 0.21534626, -770356.75, 55101.54, 0.0, 10.000666, 9.999327 
3.0502543e+2, 2.2577119e+2, -664866.6, -775748.2, 37033.35, -0.014102459, 0.2300535, -653635.5, 73829.4, 0.0, 10.000803, 9.999331 
3.0502898e+2, 2.3577066e+2, -550731.8, -668448.9, 34383.03, -0.024569234, 0.23976244, -541424.94, 88046.086, 0.0, 10.000907, 9.999345 
3.050325e+2, 2.4576999e+2, -448669.94, -598538.4, 24193.576, -0.021988653, 0.25268018, -444861.1, 86616.96, 0.0, 10.001064, 9.999076 
3.0503598e+2, 2.5576922e+2, -322651.38, -488272.3, 22994.436, -0.009718528, 0.26638296, -319518.16, 113967.586, 0.0, 10.001262, 9.999065 
3.050391e+2, 2.6576793e+2, -237188.4, -461280.97, 4588.4653, -0.008444246, 0.26305643, -237094.48, 98404.02, 0.0, 10.001456, 9.998485 
3.050419e+2, 2.7576625e+2, -111044.03, -349024.34, 1432.4066, -0.015374087, 0.2430327, -111035.414, 126479.836, 0.0, 10.001646, 9.99849 
3.0504477e+2, 2.8576452e+2, -10983.97, -293215.9, -4542.2573, -0.014904582, 0.24167606, -10910.886, 128620.89, 0.0, 10.001846, 9.998105 
3.0504763e+2, 2.957628e+2, 113620.84, -188664.98, -10366.808, -0.008527868, 0.25877887, 113975.95, 155523.48, 0.0, 10.002056, 9.998049 
3.0505013e+2, 3.0575976e+2, 140681.05, -249569.78, -20147.744, -0.018178837, 0.19779345, 141718.47, 141718.47, 0.0, 10.002334, 9.997162 
3.0505306e+2, 3.1575775e+2, 321736.6, 51021.582, -2456.1062, 0.027726475, 0.27335498, 321758.88, 321758.88, 0.0, 10.002659, 9.99907 
3.149915e+2, 1.257714e+2, -1876922.6, -1764750.5, -959.78503, 0.12597407, 0.059279274, -1764742.3, -57296.367, 0.00000002336468, 9.998768, 10.000252 
3.1499442e+2, 1.3577174e+2, -1725883.0, -1652342.4, 10216.444, 0.1270145, 0.074779525, -1650949.5, -41505.707, 0.0, 9.999179, 10.000153 
3.1499702e+2, 1.4577155e+2, -1625341.8, -1604033.3, 15370.546, 0.080658965, 0.06399905, -1595985.5, -84538.41, 0.0, 9.999415, 9.999697 
3.1499994e+2, 1.5577166e+2, -1512315.1, -1498536.8, 21288.871, 0.067780085, 0.10381975, -1483050.1, -69602.68, 0.0, 9.999517, 9.999699 
3.150035e+2, 1.6577135e+2, -1409804.8, -1439477.0, 56105.03, 0.05763324, 0.12254524, -1366607.4, -51155.34, 0.0, 9.999726, 9.9993305 
3.1500745e+2, 1.7577067e+2, -1267211.4, -1315731.9, 50353.97, 0.042486254, 0.11981832, -1235578.1, -18117.902, 0.0, 10.000014, 9.999369 
3.1501126e+2, 1.8577024e+2, -1142531.3, -1207038.9, 41397.684, 0.02558897, 0.14175425, -1122305.8, -2839.2502, 0.0, 10.000206, 9.99935 
3.15015e+2, 1.9577004e+2, -1024328.1, -1095700.8, 43351.285, 0.010100862, 0.1813849, -1003864.2, 17607.05, 0.0, 10.000329, 9.999381 
3.1501874e+2, 2.0576969e+2, -907655.8, -995134.8, 43554.332, -0.00033077938, 0.21153705, -889669.1, 33807.777, 0.0, 10.000485, 9.999324 
3.150225e+2, 2.1576925e+2, -781294.5, -880126.3, 44767.89, -0.008022683, 0.23231892, -764031.4, 61451.844, 0.0, 10.000666, 9.999353 
3.1502628e+2, 2.2576866e+2, -668646.7, -783639.0, 40984.277, -0.010010778, 0.24239735, -655534.6, 71955.64, 0.0, 10.000803, 9.999277 
3.1503007e+2, 2.3576796e+2, -554094.3, -675548.4, 38530.094, -0.0073326887, 0.2428155, -542902.4, 86595.52, 0.0, 10.000907, 9.999296 
3.1503364e+2, 2.4576725e+2, -448086.2, -597442.7, 31575.059, -0.013617153, 0.25430217, -441685.3, 89819.88, 0.0, 10.001064, 9.9990835 
3.1503707e+2, 2.5576657e+2, -322501.5, -487952.34, 30362.61, -0.026570478, 0.2725335, -317105.5, 116406.74, 0.0, 10.001262, 9.999067 
3.150404e+2, 2.657652e+2, -242175.48, -471623.06, 11681.553, -0.023411246, 0.26509193, -241582.3, 93943.25, 0.0, 10.001456, 9.998413 
3.1504363e+2, 2.7576333e+2, -116187.4, -359796.38, 8575.288, -0.008233809, 0.23455699, -115885.914, 121657.8, 0.0, 10.001647, 9.998417 
3.150468e+2, 2.8576156e+2, -19133.49, -310295.34, 3270.389, 0.0021330174, 0.23940925, -19096.762, 120464.12, 0.0, 10.001847, 9.997987 
3.1504986e+2, 2.9575992e+2, 107046.66, -202462.13, -2181.8354, 0.009092046, 0.2750655, 107062.03, 148638.75, 0.0, 10.002057, 9.997953 
3.1505257e+2, 3.057568e+2, 153267.45, -223584.81, -7857.983, -0.007331858, 0.20059489, 153431.23, 153431.23, 0.0, 10.002334, 9.99734 
3.150557e+2, 3.157548e+2, 331259.0, 70625.875, 8491.362, 0.02447884, 0.25816274, 331535.38, 331535.38, 0.0, 10.00266, 9.999205 
3.249904e+2, 1.2576851e+2, -1845039.5, -1751911.0, -9519.063, 0.12617826, 0.055460624, -1750947.9, -43473.35, 0.00000007294155, 9.998998, 10.000229 
3.2499355e+2, 1.3576886e+2, -1733727.8, -1658945.3, 6697.0713, 0.12479963, 0.07506986, -1658350.3, -48877.664, 0.00000000003860718, 9.999138, 10.000127 
3.2499635e+2, 1.4576873e+2, -1626805.8, -1602431.3, 7961.102, 0.072382316, 0.073138036, -1600061.4, -88586.26, 0.0, 9.999395, 9.999717 
3.2499954e+2, 1.557689e+2, -1480001.5, -1480974.5, 7149.6216, 0.0653988, 0.115489185, -1473321.8, -59846.766, 0.0, 9.999731, 9.999716 
3.2500336e+2, 1.6576856e+2, -1383135.1, -1428426.3, 43395.13, 0.06083371, 0.13167852, -1356832.1, -41352.38, 0.0, 9.999917, 9.999314 
3.250075e+2, 1.7576782e+2, -1271221.0, -1319733.1, 46840.586, 0.04989501, 0.12320328, -1242728.6, -25240.168, 0.0, 9.999995, 9.999351 
3.2501143e+2, 1.8576737e+2, -1155702.3, -1218028.6, 36853.473, 0.028891673, 0.14471692, -1138602.4, -19107.154, 0.0, 10.000135, 9.999308 
3.2501522e+2, 1.9576713e+2, -1027927.5, -1101563.4, 31908.719, 0.0035348625, 0.18765152, -1016024.56, 5475.9434, 0.0, 10.000322, 9.999345 
3.2501915e+2, 2.0576678e+2, -903187.0, -990545.44, 29528.68, -0.0057759676, 0.21846005, -894142.25, 29363.79, 0.0, 10.000505, 9.999346 
3.250232e+2, 2.1576636e+2, -777168.8, -876263.94, 29694.791, -0.0043198094, 0.23801123, -768951.9, 56560.05, 0.0, 10.000686, 9.999371 
3.2502714e+2, 2.2576573e+2, -660644.8, -784289.06, 25233.04, -0.006437842, 0.24496949, -655693.56, 71825.67, 0.0, 10.000877, 9.999237 
3.25031e+2, 2.3576495e+2, -531983.75, -669117.94, 23723.516, -0.010757938, 0.24086821, -527995.6, 101532.08, 0.0, 10.001078, 9.999258 
3.2503474e+2, 2.4576423e+2, -429395.75, -590156.56, 15538.826, -0.017726118, 0.25257266, -427907.56, 103627.68, 0.0, 10.001201, 9.999068 
3.2503834e+2, 2.5576353e+2, -322783.56, -489594.94, 12880.697, -0.026692476, 0.27461788, -321794.8, 111747.22, 0.0, 10.0012665, 9.999054 
3.2504186e+2, 2.6576215e+2, -245276.13, -473248.53, -424.56256, -0.02204262, 0.26476452, -245275.34, 90280.04, 0.0, 10.001435, 9.998412 
3.250453e+2, 2.7576023e+2, -111288.41, -357960.66, 1628.7584, -0.007221294, 0.22718087, -111277.65, 126296.2, 0.0, 10.001683, 9.998412 
3.250487e+2, 2.8575847e+2, -14129.672, -314934.53, 716.62115, 0.006796347, 0.23656449, -14127.964, 125463.13, 0.0, 10.001912, 9.997924 
3.2505205e+2, 2.957569e+2, 113464.92, -205208.08, -535.8369, 0.020225434, 0.28545249, 113465.82, 155072.66, 0.0, 10.002127, 9.997901 
3.2505503e+2, 3.0575368e+2, 164328.9, -208320.55, -5455.881, 0.0025729686, 0.20088466, 164408.77, 164408.77, 0.0, 10.002368, 9.997429 
3.2505834e+2, 3.1575167e+2, 329918.13, 75014.5, 2892.5652, 0.025559185, 0.25017592, 329950.94, 329950.94, 0.0, 10.002629, 9.999249 
3.3498928e+2, 1.2576544e+2, -1842321.1, -1745709.6, -4864.0693, 0.11759888, 0.058944564, -1745465.3, -37960.18, 0.00000025481785, 9.998995, 10.000273 
3.349926e+2, 1.3576578e+2, -1732221.3, -1655091.4, 12600.364, 0.112277076, 0.074396916, -1653085.0, -43581.92, 0.0000000058941185, 9.999134, 10.000155 
3.3499563e+2, 1.4576569e+2, -1631866.5, -1612341.3, 20708.674, 0.06187264, 0.07742257, -1599209.4, -87703.836, 0.0, 9.999393, 9.99965 
3.3499938e+2, 1.557658e+2, -1483819.1, -1488766.0, 19022.424, 0.07626517, 0.121878356, -1467110.0, -53603.82, 0.0, 9.99973, 9.999663 
3.3500335e+2, 1.657655e+2, -1375523.9, -1412629.0, 46224.984, 0.07086635, 0.1369114, -1344267.3, -28756.857, 0.0, 9.999917, 9.999423 
3.3500746e+2, 1.7576483e+2, -1265121.3, -1306933.1, 50114.996, 0.041888822, 0.12539929, -1231726.4, -14208.679, 0.0, 9.999994, 9.999438 
3.350115e+2, 1.8576433e+2, -1165162.3, -1237519.1, 43863.25, 0.02181303, 0.14562964, -1144482.4, -24957.334, 0.0, 10.000134, 9.999174 
3.3501562e+2, 1.9576396e+2, -1036588.94, -1119507.1, 38954.43, 0.011747358, 0.18847273, -1021159.5, 372.8636, 0.0, 10.000322, 9.999222 
3.3501983e+2, 2.0576353e+2, -902537.2, -989162.9, 36353.086, 0.010067356, 0.21694422, -889303.1, 34235.555, 0.0, 10.0005045, 9.999355 
3.350241e+2, 2.1576308e+2, -776691.8, -875279.94, 36612.535, 0.0133361025, 0.23255391, -764582.44, 60961.957, 0.0, 10.000686, 9.999377 
3.3502805e+2, 2.2576243e+2, -662470.1, -788111.06, 32797.04, -0.003483652, 0.237862, -654424.1, 73127.68, 0.0, 10.000877, 9.99921 
3.3503184e+2, 2.3576161e+2, -533883.5, -673030.94, 30919.742, -0.03470161, 0.2339719, -527322.25, 102238.234, 0.0, 10.001078, 9.999231 
3.3503577e+2, 2.4576087e+2, -432087.56, -595778.5, 17953.264, -0.03433028, 0.24757543, -430141.63, 101426.55, 0.0, 10.001201, 9.99903 
3.3503976e+2, 2.5576016e+2, -324711.9, -493762.94, 15798.562, -0.010435279, 0.27270275, -323248.13, 110326.93, 0.0, 10.001267, 9.999025 
3.350435e+2, 2.657588e+2, -240388.58, -463275.03, 8793.256, -0.004637068, 0.26208967, -240042.2, 95545.8, 0.0, 10.001436, 9.998481 
3.3504695e+2, 2.757569e+2, -106778.6, -348664.72, 10807.593, -0.012339135, 0.22080575, -106296.67, 131309.03, 0.0, 10.001683, 9.998476 
3.3505052e+2, 2.857552e+2, -14684.474, -316198.75, 8734.5625, -0.00088441564, 0.23308171, -14431.654, 125190.79, 0.0, 10.001912, 9.997915 
3.3505422e+2, 2.9575372e+2, 113010.305, -206483.0, 7626.4727, 0.0249369, 0.29008994, 113192.25, 154830.14, 0.0, 10.002128, 9.997892 
3.350575e+2, 3.0575043e+2, 164522.69, -208324.61, 4365.3604, 0.011429318, 0.19870746, 164573.78, 164573.78, 0.0, 10.002369, 9.997428 
3.3506104e+2, 3.1574842e+2, 326922.44, 68329.56, 11470.245, 0.029912325, 0.24808587, 327430.22, 327430.22, 0.0, 10.002631, 9.999203 
3.449881e+2, 1.2576221e+2, -1848577.4, -1748128.1, -9979.408, 0.10160627, 0.06529551, -1747146.3, -39608.996, 0.00000066099744, 9.998949, 10.000278 
3.449917e+2, 1.357626e+2, -1709618.5, -1644842.9, 5042.3447, 0.10525704, 0.08666491, -1644452.6, -34917.824, 0.000000050287014, 9.999292, 10.00015 
3.44995e+2, 1.457625e+2, -1611912.9, -1604733.9, 14397.026, 0.053784646, 0.088158734, -1593485.6, -81948.2, 0.0000000000012273421, 9.999538, 9.999632 
3.4499907e+2, 1.5576243e+2, -1488015.5, -1492207.9, 15810.293, 0.07518384, 0.11673139, -1474163.0, -60623.477, 0.0, 9.999708, 9.99965 
3.4500325e+2, 1.6576213e+2, -1378316.3, -1408739.6, 37298.92, 0.067972735, 0.13069747, -1353246.4, -37702.773, 0.0, 9.999875, 9.99947 
3.4500733e+2, 1.7576161e+2, -1255523.1, -1298110.1, 36749.953, 0.029764919, 0.12978409, -1234343.4, -16794.11, 0.0, 10.000042, 9.9994755 
3.450116e+2, 1.8576112e+2, -1159870.0, -1243178.1, 32995.08, 0.014326368, 0.15362556, -1148385.3, -28828.547, 0.0, 10.000207, 9.999101 
3.4501606e+2, 1.9576067e+2, -1034340.56, -1126119.1, 32686.975, 0.01954367, 0.19475931, -1023889.2, -2323.9238, 0.0, 10.000371, 9.999152 
3.4502044e+2, 2.057602e+2, -894446.9, -986614.0, 31895.648, 0.018668817, 0.2216455, -884485.56, 39086.625, 0.0, 10.0005665, 9.999343 
3.450248e+2, 2.1575971e+2, -763245.94, -870324.0, 30466.371, 0.0118515715, 0.23571913, -755184.44, 70393.43, 0.0, 10.000785, 9.999364 
3.4502894e+2, 2.2575903e+2, -656289.2, -789112.56, 23862.787, -0.006939308, 0.24207586, -652132.1, 75453.22, 0.0, 10.0009365, 9.999175 
3.450329e+2, 2.3575823e+2, -541767.3, -680811.44, 21273.248, -0.03404344, 0.2412489, -538585.44, 91008.81, 0.0, 10.00104, 9.999196 
3.45037e+2, 2.4575743e+2, -432328.72, -598702.1, 8327.48, -0.030423801, 0.25321206, -431912.97, 99689.36, 0.0, 10.001211, 9.999004 
3.450412e+2, 2.5575668e+2, -301738.75, -484721.2, 7262.696, -0.003936018, 0.27315766, -301450.97, 132158.84, 0.0, 10.001434, 9.999007 
3.4504503e+2, 2.6575527e+2, -210748.92, -442432.38, 2029.018, 0.001162999, 0.257949, -210731.16, 124891.47, 0.0, 10.001612, 9.998539 
3.4504867e+2, 2.7575338e+2, -92399.0, -335669.94, 3470.711, -0.009695135, 0.21245705, -92349.5, 145290.19, 0.0, 10.001756, 9.998529 
3.4505248e+2, 2.857517e+2, -3865.6638, -311163.5, 3538.6445, 0.00017471342, 0.22545466, -3824.9207, 135831.16, 0.0, 10.001987, 9.997913 
3.4505644e+2, 2.9575026e+2, 135799.38, -196010.36, 2860.7537, 0.0256156, 0.28709784, 135824.03, 177495.44, 0.0, 10.002286, 9.997888 
3.4505996e+2, 3.0574697e+2, 185644.83, -200172.02, -2046.9078, 0.0146878995, 0.19550823, 185655.69, 185655.69, 0.0, 10.002523, 9.99741 
3.4506375e+2, 3.157451e+2, 333357.8, 63628.32, 2593.7246, 0.03538123, 0.2594573, 333382.75, 333382.75, 0.0, 10.002708, 9.999133 
3.5498682e+2, 1.2575883e+2, -1851554.8, -1753303.1, 2165.5493, 0.077614814, 0.074608386, -1753255.5, -45684.332, 0.0000013452728, 9.998945, 10.000245 
3.5499096e+2, 1.3575934e+2, -1712658.0, -1650798.8, 17493.707, 0.10327048, 0.11193916, -1646194.3, -36626.5, 0.00000017487064, 9.99929, 10.00011 
3.5499448e+2, 1.4575914e+2, -1609917.5, -1600371.5, 20742.24, 0.04767569, 0.10534275, -1583860.1, -72289.336, 0.0000000006565857, 9.999537, 9.999662 
3.5499865e+2, 1.5575877e+2, -1486310.3, -1488320.1, 22124.617, 0.061979067, 0.09998099, -1465167.8, -51592.563, 0.0, 9.999706, 9.999678 
3.5500294e+2, 1.6575846e+2, -1379555.0, -1411065.9, 43501.527, 0.052022986, 0.11300443, -1349043.6, -33464.45, 0.0, 9.999874, 9.9994545 
3.550072e+2, 1.7575817e+2, -1256617.0, -1300330.5, 43026.566, 0.013290749, 0.13630526, -1230214.0, -12630.961, 0.0, 10.000042, 9.999461 
3.5501173e+2, 1.8575776e+2, -1160793.9, -1245097.5, 39111.664, 0.0062253554, 0.16865414, -1145443.5, -25853.543, 0.0, 10.000207, 9.999088 
3.550165e+2, 1.9575725e+2, -1035400.06, -1128288.3, 39054.914, 0.026813691, 0.2064611, -1021161.9, 437.41678, 0.0, 10.00037, 9.999138 
3.5502103e+2, 2.0575674e+2, -896848.9, -991530.8, 40135.12, 0.020013895, 0.2325, -882125.4, 41481.152, 0.0, 10.000566, 9.99931 
3.5502535e+2, 2.1575622e+2, -765677.9, -875225.56, 38440.473, -0.008713109, 0.2473819, -753535.06, 72077.375, 0.0, 10.000784, 9.9993305 
3.5502976e+2, 2.2575556e+2, -659584.9, -795843.7, 27776.432, -0.016911572, 0.25743473, -654140.2, 73479.82, 0.0, 10.0009365, 9.999129 
3.5503417e+2, 2.3575476e+2, -544804.44, -687149.3, 25502.736, -0.009218066, 0.2625125, -540373.25, 89255.68, 0.0, 10.00104, 9.999152 
3.5503846e+2, 2.4575388e+2, -433170.84, -600510.5, 16673.184, -0.0063637937, 0.26932955, -431525.75, 100111.92, 0.0, 10.001211, 9.998992 
3.550426e+2, 2.5575298e+2, -302274.22, -485758.47, 15375.943, -0.007186876, 0.27592012, -300994.66, 132651.61, 0.0, 10.001433, 9.999001 
3.550466e+2, 2.6575154e+2, -207339.2, -435335.7, 7346.1147, -0.004639829, 0.25234392, -207102.75, 128556.484, 0.0, 10.001611, 9.998588 
3.5505053e+2, 2.7574962e+2, -89108.57, -329032.94, 9227.871, 0.0005186061, 0.2021881, -88754.18, 148921.63, 0.0, 10.001757, 9.998575 
3.5505456e+2, 2.8574798e+2, -3334.0547, -310296.38, 14678.902, 0.009761703, 0.21377805, -2633.7092, 137058.3, 0.0, 10.001988, 9.997919 
3.5505873e+2, 2.9574656e+2, 136038.1, -195677.88, 13770.239, 0.022089949, 0.27657434, 136608.75, 178316.1, 0.0, 10.002287, 9.9978895 
3.5506245e+2, 3.0574328e+2, 183330.06, -205218.36, 4857.153, 0.01214375, 0.19127221, 183390.78, 183390.78, 0.0, 10.002524, 9.9973755 
3.5506654e+2, 3.1574163e+2, 327374.34, 50661.77, 8589.241, 0.041035723, 0.2819837, 327640.7, 327640.7, 0.0, 10.002711, 9.9990425 
3.649856e+2, 1.2575498e+2, -1831468.1, -1743587.3, -16239.66, 0.055234913, 0.07525039, -1740682.4, -33073.066, 0.000002293197, 9.999083, 10.000245 
3.6499023e+2, 1.3575558e+2, -1709302.0, -1650316.3, 2434.0593, 0.09687858, 0.12361233, -1650216.0, -40610.78, 0.00000039420158, 9.999318, 10.000099 
3.6499393e+2, 1.4575541e+2, -1605262.1, -1596148.3, 2986.8928, 0.03768799, 0.11900739, -1595256.6, -83648.68, 0.000000005977529, 9.999561, 9.99968 
3.6499828e+2, 1.5575492e+2, -1471837.6, -1479615.3, 3069.443, 0.050492346, 0.1008822, -1470772.3, -57159.35, 0.0, 9.999798, 9.999693 
3.650028e+2, 1.6575457e+2, -1366972.8, -1408749.1, 21601.762, 0.044910487, 0.10993053, -1357811.8, -42194.42, 0.0, 9.999976, 9.999421 
3.6500728e+2, 1.757543e+2, -1247694.0, -1299043.8, 19868.621, 0.01378379, 0.13613425, -1240904.1, -23282.482, 0.0, 10.000116, 9.9994335 
3.6501196e+2, 1.8575393e+2, -1148409.8, -1234511.1, 18095.596, 0.0063183224, 0.1727361, -1144761.3, -25133.092, 0.0, 10.000272, 9.999129 
3.6501685e+2, 1.9575351e+2, -1022701.1, -1117780.4, 22077.275, 0.020880643, 0.21573381, -1017824.9, 3811.642, 0.0, 10.000439, 9.999177 
3.6502153e+2, 2.0575303e+2, -896042.25, -989315.3, 26718.295, 0.013824201, 0.241171, -888930.94, 34712.555, 0.0, 10.000564, 9.999326 
3.6502606e+2, 2.1575247e+2, -783259.5, -882257.4, 28637.738, -0.0109083075, 0.2510524, -775572.2, 50077.24, 0.0, 10.000657, 9.999343 
3.6503068e+2, 2.2575179e+2, -678195.6, -808379.0, 20473.262, -0.013420524, 0.26163, -675051.8, 52605.227, 0.0, 10.000824, 9.999097 
3.6503533e+2, 2.35751e+2, -546135.56, -691518.44, 19265.658, 0.0012303507, 0.27129313, -543625.9, 86040.05, 0.0, 10.001047, 9.999119 
3.6503977e+2, 2.4575005e+2, -434036.56, -607026.75, 10069.076, 0.0028845638, 0.27430704, -433452.47, 98222.99, 0.0, 10.001232, 9.998938 
3.65044e+2, 2.55749e+2, -312088.22, -495716.47, 5655.592, -0.0053330925, 0.27086943, -311914.2, 121771.266, 0.0, 10.001389, 9.998954 
3.6504826e+2, 2.6574752e+2, -201357.13, -427354.78, -2519.6064, -0.004017542, 0.24744718, -201329.03, 134369.23, 0.0, 10.001631, 9.998633 
3.6505243e+2, 2.7574575e+2, -59757.56, -310254.88, -842.3836, 0.004599101, 0.20506139, -59754.723, 177958.78, 0.0, 10.001938, 9.998616 
3.650567e+2, 2.8574413e+2, 24181.459, -299127.72, 4364.346, 0.013931501, 0.21796009, 24240.363, 163969.84, 0.0, 10.002187, 9.997901 
3.6506107e+2, 2.9574263e+2, 150057.28, -190463.47, 1618.1711, 0.023736486, 0.2771537, 150064.97, 191810.39, 0.0, 10.00239, 9.997876 
3.6506504e+2, 3.0573937e+2, 193931.42, -194294.2, -7013.8115, 0.0152336, 0.18755601, 194058.1, 194058.1, 0.0, 10.002572, 9.997427 
3.6506927e+2, 3.1573787e+2, 330239.34, 50688.004, 2208.6113, 0.04485087, 0.28858364, 330256.78, 330256.78, 0.0, 10.002736, 9.999031 
3.7498447e+2, 1.2575066e+2, -1829465.4, -1738820.1, -8675.644, 0.033773046, 0.06693294, -1737997.3, -30345.453, 0.000003431768, 9.99908, 10.000279 
3.7498945e+2, 1.3575135e+2, -1708305.9, -1647770.3, 11361.489, 0.085905574, 0.12153139, -1645708.1, -36060.984, 0.0000006949508, 9.999316, 10.000118 
3.7499335e+2, 1.4575131e+2, -1605224.4, -1595641.6, 11911.784, 0.023782933, 0.12902094, -1587593.6, -75944.99, 0.00000001953993, 9.999559, 9.999684 
3.7499797e+2, 1.5575092e+2, -1471956.3, -1479585.8, 11589.679, 0.040498797, 0.119403385, -1463569.6, -49916.855, 0.0, 9.999797, 9.999694 
3.7500277e+2, 1.6575046e+2, -1370599.9, -1416147.9, 26733.209, 0.046370797, 0.12142681, -1358255.3, -42597.008, 0.0, 9.999975, 9.999371 
3.7500757e+2, 1.7574994e+2, -1250522.0, -1304838.3, 25216.559, 0.031024579, 0.12923968, -1240620.1, -22955.225, 0.0, 10.000115, 9.999394 
3.7501234e+2, 1.857496e+2, -1141803.4, -1220768.5, 24383.117, 0.0144599425, 0.16586466, -1134881.1, -15209.92, 0.0, 10.000272, 9.999224 
3.7501708e+2, 1.9574942e+2, -1016278.2, -1104394.9, 28206.209, 0.0017215768, 0.22256641, -1008022.8, 13654.301, 0.0, 10.000439, 9.9992695 
3.7502193e+2, 2.05749e+2, -891435.06, -979719.44, 30250.748, 0.000010643617, 0.2476565, -882064.25, 41618.71, 0.0, 10.000564, 9.999392 
3.7502688e+2, 2.1574843e+2, -779065.5, -873593.94, 32537.057, 0.0049365177, 0.24684866, -768948.8, 56740.06, 0.0, 10.000657, 9.999403 
3.7503165e+2, 2.2574772e+2, -679494.8, -811176.5, 28909.799, 0.0032626379, 0.25487545, -673427.44, 54268.97, 0.0, 10.000824, 9.999078 
3.7503636e+2, 2.3574696e+2, -547737.44, -694897.9, 27475.203, -0.0025727653, 0.26777452, -542775.06, 86930.12, 0.0, 10.001047, 9.999096 
3.7504095e+2, 2.4574593e+2, -440737.88, -621030.6, 15915.318, -0.0025954058, 0.26827788, -439343.72, 92371.96, 0.0, 10.001232, 9.998841 
3.7504548e+2, 2.557447e+2, -318029.53, -508253.84, 11957.308, 0.0014173794, 0.25815824, -317280.84, 116446.55, 0.0, 10.0013895, 9.998867 
3.7504992e+2, 2.6574332e+2, -198285.36, -421194.22, 9001.368, 0.0028323857, 0.24325535, -197922.45, 137817.28, 0.0, 10.001632, 9.998675 
3.7505436e+2, 2.757418e+2, -57136.254, -304875.22, 10392.073, 0.0024430032, 0.22078618, -56701.098, 181051.75, 0.0, 10.001939, 9.998653 
3.7505886e+2, 2.8574017e+2, 21257.86, -305281.5, 11929.909, 0.012469012, 0.23769175, 21693.13, 161461.66, 0.0, 10.002187, 9.997858 
3.750635e+2, 2.9573858e+2, 148130.61, -194679.9, 9154.824, 0.030294284, 0.28863868, 148374.92, 190160.52, 0.0, 10.002391, 9.997847 
3.7506768e+2, 3.0573523e+2, 203821.69, -174225.73, -919.7596, 0.023710554, 0.18440658, 203823.92, 203823.92, 0.0, 10.002574, 9.997564 
3.7507203e+2, 3.1573376e+2, 335360.97, 60627.09, 7520.1274, 0.045815386, 0.27748635, 335566.66, 335566.66, 0.0, 10.002739, 9.999098 
3.8498327e+2, 1.257461e+2, -1846258.0, -1742515.6, -23001.52, 0.013238168, 0.06560368, -1737644.5, -29947.945, 0.000004652705, 9.998946, 10.000318 
3.8498855e+2, 1.3574684e+2, -1716189.0, -1648821.9, -1499.1962, 0.07034042, 0.12262046, -1648788.5, -39096.74, 0.0000010439659, 9.999249, 10.000143 
3.8499275e+2, 1.4574687e+2, -1603683.6, -1590519.4, 424.61288, 0.0054990905, 0.13397974, -1590505.6, -78813.125, 0.000000039313953, 9.999551, 9.999723 
3.8499773e+2, 1.5574649e+2, -1462527.9, -1470624.0, 2112.6272, 0.030355498, 0.122071356, -1462009.8, -48313.508, 0.0, 9.999843, 9.999733 
3.8500273e+2, 1.6574606e+2, -1361351.9, -1409260.9, 16587.459, 0.042459834, 0.12366161, -1356169.5, -40467.977, 0.0, 10.000029, 9.999392 
3.8500768e+2, 1.7574558e+2, -1245474.0, -1299797.8, 20548.594, 0.031020846, 0.13275911, -1238577.0, -20868.795, 0.0, 10.000139, 9.999417 
3.8501257e+2, 1.857453e+2, -1139319.4, -1213989.9, 20944.924, 0.013936194, 0.17179564, -1133845.6, -14131.781, 0.0, 10.000264, 9.999273 
3.8501745e+2, 1.957452e+2, -1018394.25, -1100081.1, 21276.229, -0.0023148188, 0.2315432, -1013184.8, 8534.081, 0.0, 10.000401, 9.999316 
3.850225e+2, 2.0574477e+2, -891027.06, -976932.8, 19259.67, -0.00083501707, 0.25077417, -886906.75, 36818.016, 0.0, 10.000555, 9.999415 
3.8502762e+2, 2.1574406e+2, -768079.5, -866089.94, 18602.834, 0.012120786, 0.23759416, -764667.44, 61063.832, 0.0, 10.000723, 9.999422 
3.850326e+2, 2.2574338e+2, -667888.94, -807985.1, 16453.652, 0.008767464, 0.24466573, -665982.44, 61756.35, 0.0, 10.000915, 9.999057 
3.8503742e+2, 2.3574266e+2, -537927.06, -692190.44, 14782.629, -0.0059427684, 0.26493394, -536523.25, 93223.99, 0.0, 10.001123, 9.999078 
3.8504222e+2, 2.4574162e+2, -425096.13, -611618.94, 6729.983, -0.005285882, 0.2653435, -424853.6, 106904.02, 0.0, 10.001331, 9.998858 
3.85047e+2, 2.5574034e+2, -295234.78, -495902.25, 11394.628, 0.006503047, 0.24954478, -294589.8, 139179.67, 0.0, 10.00154, 9.998879 
3.850517e+2, 2.65739e+2, -180072.55, -416400.13, 12183.813, 0.01025884, 0.23654138, -179446.08, 156335.8, 0.0, 10.001774, 9.99864 
3.8505638e+2, 2.757375e+2, -46143.52, -302768.8, 7633.0083, 0.008158466, 0.2216027, -45916.688, 191878.25, 0.0, 10.0020275, 9.998625 
3.8506112e+2, 2.857359e+2, 36856.598, -291711.84, 8615.027, 0.015681319, 0.23802893, 37082.324, 176892.72, 0.0, 10.002268, 9.997912 
3.8506594e+2, 2.957343e+2, 167009.53, -180189.84, 12823.799, 0.03030142, 0.282375, 167482.55, 209309.69, 0.0, 10.002498, 9.997894 
3.850704e+2, 3.0573085e+2, 226615.25, -163326.55, -593.8085, 0.027477197, 0.1695992, 226616.16, 226616.16, 0.0, 10.002731, 9.997562 
3.8507494e+2, 3.157294e+2, 363522.88, 66565.2, -3185.735, 0.054501574, 0.26326385, 363557.06, 363557.06, 0.0, 10.002966, 9.999029 
3.9498204e+2, 1.2574129e+2, -1843742.3, -1736515.8, -13121.67, -0.00656796, 0.07094106, -1734933.4, -27189.63, 0.000005817951, 9.998942, 10.0003605 
3.949876e+2, 1.3574205e+2, -1714385.5, -1644617.0, 9899.768, 0.049963653, 0.12692097, -1643239.5, -33500.56, 0.0000013925978, 9.999248, 10.000173 
3.9499202e+2, 1.4574209e+2, -1598764.6, -1580000.9, 11399.308, -0.017450564, 0.13396785, -1574619.1, -62879.703, 0.00000005997622, 9.99955, 9.999796 
3.9499745e+2, 1.5574165e+2, -1457301.4, -1459544.1, 12508.11, 0.019860588, 0.10887377, -1445864.5, -32121.096, 0.0, 9.999842, 9.999809 
3.950027e+2, 1.6574138e+2, -1354977.6, -1395864.5, 20632.553, 0.033078764, 0.11658051, -1346375.8, -30628.436, 0.0, 10.000028, 9.999484 
3.9500767e+2, 1.7574118e+2, -1239468.9, -1287241.6, 24754.408, 0.013800777, 0.1466535, -1228955.6, -11204.323, 0.0, 10.000139, 9.999504 
3.9501277e+2, 1.85741e+2, -1139116.8, -1213549.5, 26061.354, 0.004688623, 0.19049886, -1130899.1, -11142.866, 0.0, 10.000264, 9.999276 
3.9501798e+2, 1.9574083e+2, -1018171.44, -1099644.1, 26538.525, 0.00855217, 0.24268104, -1010289.44, 11472.524, 0.0, 10.000401, 9.99932 
3.9502317e+2, 2.0574026e+2, -892427.3, -979862.6, 25583.438, 0.011074159, 0.2505771, -885491.8, 38277.01, 0.0, 10.000555, 9.999394 
3.9502835e+2, 2.1573941e+2, -769487.8, -868998.06, 25081.1, 0.010626679, 0.22331634, -763523.7, 62252.82, 0.0, 10.000723, 9.999402 
3.9503345e+2, 2.2573869e+2, -669586.6, -811473.8, 24373.018, 0.0031062122, 0.23098037, -665516.7, 62267.566, 0.0, 10.000914, 9.999033 
3.950385e+2, 2.3573808e+2, -538851.5, -694059.94, 22674.39, -0.009015747, 0.26277265, -535606.8, 94185.195, 0.0, 10.001123, 9.999065 
3.9504355e+2, 2.4573712e+2, -416194.66, -593150.1, 14543.008, -0.0053564454, 0.26548633, -415007.4, 116793.91, 0.0, 10.001331, 9.998984 
3.9504856e+2, 2.5573593e+2, -287578.88, -480067.94, 19279.717, 0.0098803155, 0.24495533, -285666.8, 148144.98, 0.0, 10.00154, 9.998988 
3.9505357e+2, 2.657345e+2, -187835.42, -432630.22, 21629.096, 0.018115353, 0.22736353, -185939.05, 149885.67, 0.0, 10.001774, 9.9985285 
3.9505854e+2, 2.7573285e+2, -52603.58, -316307.94, 17056.885, 0.021423908, 0.20786054, -51504.883, 186334.9, 0.0, 10.002028, 9.998531 
3.950635e+2, 2.8573126e+2, 47299.08, -270180.03, 17109.54, 0.023334097, 0.21942636, 48218.48, 188073.58, 0.0, 10.002269, 9.99806 
3.9506838e+2, 2.9572973e+2, 175875.72, -161918.11, 21270.346, 0.023765296, 0.2588752, 177209.81, 219079.89, 0.0, 10.002498, 9.99802 
3.9507312e+2, 3.0572626e+2, 217197.84, -183278.17, 8051.632, 0.026408207, 0.14349246, 217359.66, 217359.66, 0.0, 10.002732, 9.997425 
3.950781e+2, 3.1572473e+2, 349779.63, 37216.41, 4811.664, 0.06955094, 0.24310142, 349853.66, 349853.66, 0.0, 10.00297, 9.998826 
4.0498072e+2, 1.2573619e+2, -1861178.1, -1746120.5, -20527.896, -0.02703246, 0.071701266, -1742567.8, -34774.176, 0.0000067594556, 9.998828, 10.00035 
4.0498674e+2, 1.357369e+2, -1718970.6, -1648827.1, -159.08469, 0.038326487, 0.12500037, -1648826.8, -39037.184, 0.0000016759602, 9.999225, 10.000155 
4.0499142e+2, 1.4573698e+2, -1596088.1, -1566579.0, -2499.4287, -0.032960396, 0.13199966, -1566368.9, -54579.2, 0.00000007424828, 9.999516, 9.999905 
4.049971e+2, 1.5573663e+2, -1467626.3, -1452750.9, 629.70557, 0.008078816, 0.10301555, -1452724.3, -38931.625, 0.0, 9.99972, 9.999915 
4.0500253e+2, 1.6573644e+2, -1367944.3, -1395400.1, 4817.763, 0.022847665, 0.11300249, -1367123.5, -51328.027, 0.0, 9.99991, 9.999544 
4.0500766e+2, 1.7573637e+2, -1241961.6, -1281867.1, 6463.741, 0.0026870375, 0.15033072, -1240940.9, -23142.46, 0.0, 10.000093, 9.999562 
4.0501294e+2, 1.8573625e+2, -1137763.0, -1208714.1, 7973.387, -0.0024885803, 0.19488664, -1136878.0, -17075.148, 0.0, 10.000256, 9.999313 
4.0501836e+2, 1.9573607e+2, -1015459.56, -1094481.6, 11004.16, 0.009232494, 0.24281177, -1013955.8, 7852.742, 0.0, 10.000403, 9.999354 
4.0502375e+2, 2.0573552e+2, -889443.3, -978549.3, 13161.886, 0.011801715, 0.2501703, -887539.8, 36275.45, 0.0, 10.000576, 9.999393 
4.0502903e+2, 2.1573469e+2, -762758.8, -865463.7, 14002.636, 0.005429463, 0.22501749, -760883.94, 64938.95, 0.0, 10.000768, 9.999405 
4.0503433e+2, 2.2573397e+2, -665348.1, -804785.06, 16361.934, 0.0017814292, 0.2290108, -663453.94, 64376.625, 0.0, 10.000923, 9.999074 
4.0503967e+2, 2.3573329e+2, -546370.44, -693132.8, 19675.51, 0.00081999385, 0.25293124, -543778.44, 86059.84, 0.0, 10.001052, 9.999105 
4.0504497e+2, 2.457324e+2, -418450.9, -590947.7, 13302.484, 0.0069910656, 0.2563026, -417431.1, 114415.99, 0.0, 10.001302, 9.999014 
4.0505022e+2, 2.5573128e+2, -270496.25, -468766.72, 10672.615, 0.018309548, 0.24267152, -269923.4, 163933.25, 0.0, 10.001644, 9.999015 
4.0505546e+2, 2.6572984e+2, -170081.53, -425406.16, 12420.899, 0.02395502, 0.22351389, -169478.7, 166391.0, 0.0, 10.001902, 9.998516 
4.0506065e+2, 2.757281e+2, -43538.18, -313200.38, 15280.809, 0.025615852, 0.19612442, -42675.03, 195210.61, 0.0, 10.002096, 9.998521 
4.050658e+2, 2.857265e+2, 55352.55, -267014.28, 12813.92, 0.026088241, 0.20710158, 55861.098, 195762.17, 0.0, 10.002327, 9.998054 
4.0507096e+2, 2.9572502e+2, 188298.3, -156896.98, 5757.141, 0.025169611, 0.25146317, 188394.28, 230309.92, 0.0, 10.002587, 9.998011 
4.0507597e+2, 3.0572155e+2, 238667.95, -176821.38, -6228.595, 0.028827963, 0.13837051, 238761.31, 238761.31, 0.0, 10.002897, 9.997391 
4.050812e+2, 3.1572005e+2, 382038.13, 41151.723, -2609.9412, 0.07052847, 0.24531561, 382058.1, 382058.1, 0.0, 10.003241, 9.998722 
4.149793e+2, 1.2573078e+2, -1866086.4, -1755660.4, -7562.5347, -0.04836985, 0.067930214, -1755144.9, -47298.88, 0.0000073152505, 9.998826, 10.000286 
4.149859e+2, 1.3573135e+2, -1723849.3, -1658508.1, 14215.99, 0.035368763, 0.11678592, -1655549.3, -45705.52, 0.0000018222407, 9.999223, 10.00009 
4.1499084e+2, 1.4573154e+2, -1586332.6, -1545945.4, 5185.0303, -0.041083768, 0.12799367, -1545290.4, -33447.4, 0.00000007352536, 9.999514, 10.000048 
4.149967e+2, 1.5573137e+2, -1458365.9, -1433304.3, 8189.5376, -0.00505857, 0.10456574, -1430865.4, -17021.629, 0.0, 9.999719, 10.000049 
4.1500235e+2, 1.6573125e+2, -1366227.8, -1391766.5, 11560.014, 0.01170401, 0.11309187, -1361772.4, -45926.37, 0.0, 9.999909, 9.999569 
4.150077e+2, 1.7573115e+2, -1239947.4, -1277584.0, 13230.087, -0.0024721732, 0.14385569, -1235762.1, -17912.676, 0.0, 10.000093, 9.999592 
4.1501316e+2, 1.8573105e+2, -1132848.4, -1198425.9, 13464.668, -0.007776094, 0.18500675, -1130191.5, -10337.803, 0.0, 10.000256, 9.999385 
4.1501868e+2, 1.9573092e+2, -1010895.94, -1084976.6, 16730.986, -0.00030806247, 0.23197494, -1007292.56, 14566.023, 0.0, 10.000403, 9.999419 
4.150242e+2, 2.0573051e+2, -888264.5, -976072.6, 20360.113, 0.0013530867, 0.24955817, -883773.3, 40090.824, 0.0, 10.000576, 9.999411 
4.150297e+2, 2.1572988e+2, -761085.25, -861924.56, 21101.408, -0.0035404225, 0.24252509, -756847.7, 69022.65, 0.0, 10.000768, 9.99943 
4.1503528e+2, 2.2572914e+2, -657986.5, -789431.44, 21189.584, 0.004569065, 0.2386154, -654655.06, 73222.66, 0.0, 10.000923, 9.99918 
4.1504094e+2, 2.3572832e+2, -539920.25, -679774.8, 25061.201, 0.02327199, 0.23548344, -535565.0, 94321.1, 0.0, 10.001052, 9.999197 
4.150465e+2, 2.457274e+2, -423094.97, -600587.7, 26093.674, 0.031456072, 0.23792799, -419338.38, 112556.55, 0.0, 10.001302, 9.998948 
4.15052e+2, 2.5572643e+2, -274418.06, -476715.9, 23069.287, 0.031544946, 0.2426725, -271820.66, 162083.42, 0.0, 10.001643, 9.9989605 
4.150574e+2, 2.6572502e+2, -164119.97, -412879.16, 19542.574, 0.027660638, 0.22493918, -162594.06, 173322.77, 0.0, 10.001901, 9.998603 
4.150627e+2, 2.7572328e+2, -38731.547, -303279.4, 22530.455, 0.020898357, 0.18635711, -36826.44, 201106.11, 0.0, 10.002096, 9.998589 
4.1506812e+2, 2.8572163e+2, 44528.883, -289765.97, 22378.035, 0.023921605, 0.20092374, 46020.24, 185968.6, 0.0, 10.002328, 9.997896 
4.150736e+2, 2.9572013e+2, 178759.38, -177280.5, 15565.858, 0.034071192, 0.25967392, 179438.61, 221402.39, 0.0, 10.00259, 9.99787 
4.1507888e+2, 3.057167e+2, 243652.02, -167042.56, 6543.352, 0.03441055, 0.15362197, 243756.23, 243756.23, 0.0, 10.002899, 9.997457 
4.150843e+2, 3.1571534e+2, 381726.25, 40262.336, 9414.237, 0.056672107, 0.26619774, 381985.6, 381985.6, 0.0, 10.003242, 9.998715 
4.2497793e+2, 1.2572506e+2, -1878859.5, -1754135.8, -16737.52, -0.062154382, 0.06257419, -1751928.6, -44027.063, 0.000007399852, 9.998706, 10.000354 
4.2498496e+2, 1.357256e+2, -1736986.1, -1659434.4, 16608.885, 0.024916064, 0.10283345, -1656027.1, -46127.723, 0.0000017914846, 9.999109, 10.000138 
4.2499015e+2, 1.4572588e+2, -1601031.3, -1551601.8, -710.4758, -0.0564673, 0.12095544, -1551591.5, -39693.656, 0.000000055205398, 9.999407, 10.00006 
4.249963e+2, 1.5572587e+2, -1472740.9, -1438361.4, -7678.4023, -0.014123684, 0.11168128, -1436724.4, -22826.586, 0.0, 9.999613, 10.000066 
4.2500216e+2, 1.6572577e+2, -1377027.8, -1389974.1, -7589.2427, 0.0078083603, 0.11927946, -1373526.0, -57626.13, 0.0, 9.999805, 9.999632 
4.2500776e+2, 1.7572561e+2, -1249819.1, -1275263.8, -3237.4487, -0.003055049, 0.13782282, -1249413.6, -31510.068, 0.0, 9.999995, 9.999656 
4.250133e+2, 1.8572554e+2, -1139086.5, -1193420.8, -2680.7576, -0.011258188, 0.174634, -1138954.6, -19047.234, 0.0, 10.000178, 9.999456 
4.2501897e+2, 1.957255e+2, -1012997.5, -1078406.1, 583.93774, -0.011119005, 0.22328654, -1012992.3, 8918.979, 0.0, 10.000356, 9.999487 
4.2502466e+2, 2.057252e+2, -898240.2, -977754.94, 4290.023, -0.0070135063, 0.24675618, -898009.44, 25906.578, 0.0, 10.000494, 9.999439 
4.250304e+2, 2.1572469e+2, -782966.3, -868782.7, 5890.433, -0.0021327578, 0.24850757, -782563.9, 43357.57, 0.0, 10.000602, 9.999462 
4.2503622e+2, 2.2572397e+2, -666248.2, -784176.1, 7931.8613, 0.010402434, 0.24148898, -665717.1, 62211.254, 0.0, 10.000827, 9.999262 
4.2504212e+2, 2.357231e+2, -521775.28, -662905.0, 10140.184, 0.029587092, 0.22639492, -521050.44, 108886.0, 0.0, 10.0011425, 9.9992695 
4.250479e+2, 2.4572219e+2, -419602.6, -605054.56, 11503.184, 0.039089352, 0.22835678, -418891.8, 113053.46, 0.0, 10.001352, 9.998893 
4.2505366e+2, 2.5572124e+2, -301141.16, -495105.63, 9335.501, 0.04097134, 0.24102183, -300692.88, 133261.86, 0.0, 10.001484, 9.998912 
4.2505926e+2, 2.6571986e+2, -182432.6, -420114.3, 5425.384, 0.032911994, 0.22677496, -182308.81, 153658.67, 0.0, 10.001768, 9.998617 
4.250648e+2, 2.7571812e+2, -27042.016, -296522.06, 3100.7207, 0.017486168, 0.18842004, -27006.342, 210976.72, 0.0, 10.0021715, 9.998598 
4.2507052e+2, 2.8571647e+2, 71730.984, -283008.66, 5126.251, 0.020896975, 0.20331737, 71805.05, 211804.2, 0.0, 10.0025425, 9.99784 
4.250764e+2, 2.957149e+2, 217932.08, -164400.42, 5601.239, 0.038282964, 0.26208025, 218014.13, 260029.38, 0.0, 10.002885, 9.997817 
4.2508194e+2, 3.0571148e+2, 278606.66, -151699.77, -4532.76, 0.037714556, 0.15984094, 278654.4, 278654.4, 0.0, 10.003146, 9.997443 
4.2508748e+2, 3.1571022e+2, 391259.47, 35838.555, -7926.249, 0.048236478, 0.28302202, 391436.16, 391436.16, 0.0, 10.003346, 9.998635 
4.349766e+2, 1.2571901e+2, -1865185.5, -1725059.6, -3808.0193, -0.068765715, 0.05542274, -1724956.3, -16995.875, 0.0000070344795, 9.998702, 10.000555 
4.3498388e+2, 1.3571963e+2, -1725722.4, -1635823.5, 31443.264, 0.0067663905, 0.083178595, -1625917.4, -15960.868, 0.0000016069694, 9.999108, 10.0003 
4.3498936e+2, 1.4572e+2, -1609614.8, -1569118.9, 6978.223, -0.07931736, 0.11095392, -1567950.1, -55995.734, 0.000000030249723, 9.999406, 9.999941 
4.3499583e+2, 1.557201e+2, -1480065.8, -1453250.6, -156.43521, -0.019219112, 0.12423508, -1453249.6, -39295.004, 0.0, 9.999611, 9.999964 
4.3500197e+2, 1.6572002e+2, -1370159.0, -1375540.0, -571.0291, 0.011000457, 0.13139547, -1370099.1, -54142.195, 0.0, 9.9998045, 9.999731 
4.3500778e+2, 1.7571977e+2, -1243073.0, -1261202.4, 3888.845, 0.00072760327, 0.13228537, -1242274.0, -24313.234, 0.0, 9.999994, 9.999752 
4.350135e+2, 1.8571973e+2, -1134130.9, -1183090.6, 3944.4954, -0.01310359, 0.16390206, -1133815.1, -13851.274, 0.0, 10.000177, 9.999527 
4.350192e+2, 1.9571981e+2, -1008169.56, -1068310.6, 7096.1772, -0.023260813, 0.21673435, -1007343.6, 14622.982, 0.0, 10.000356, 9.999557 
4.350251e+2, 2.0571958e+2, -895551.75, -972129.7, 8358.547, -0.013442785, 0.24170417, -894650.0, 29320.766, 0.0, 10.000494, 9.999477 
4.3503112e+2, 2.1571909e+2, -780113.7, -862913.7, 10528.233, 0.00937559, 0.24313663, -778796.0, 47180.234, 0.0, 10.000602, 9.999503 
4.3503714e+2, 2.2571844e+2, -662078.4, -775519.06, 19778.207, 0.019129451, 0.23778825, -658728.94, 69253.45, 0.0, 10.000827, 9.999322 
4.3504316e+2, 2.3571767e+2, -518230.4, -655359.8, 21481.25, 0.019914424, 0.22558464, -514944.16, 115045.11, 0.0, 10.001142, 9.999322 
4.3504918e+2, 2.4571675e+2, -422747.4, -611485.75, 16286.069, 0.030025292, 0.22744286, -421352.4, 110645.7, 0.0, 10.001351, 9.998849 
4.350552e+2, 2.5571573e+2, -304183.56, -501621.44, 14843.93, 0.046540014, 0.23774312, -303073.78, 130934.77, 0.0, 10.001485, 9.998866 
4.350611e+2, 2.6571435e+2, -186284.33, -428351.34, 20450.703, 0.03953986, 0.22900063, -184568.75, 151452.94, 0.0, 10.001769, 9.99856 
4.3506694e+2, 2.7571264e+2, -30488.527, -303689.8, 17946.867, 0.015124313, 0.20203467, -29314.623, 208722.52, 0.0, 10.0021715, 9.998549 
4.35073e+2, 2.8571096e+2, 74624.04, -276889.0, 17878.62, 0.016813777, 0.21410708, 75531.04, 215584.47, 0.0, 10.002542, 9.997882 
4.3507928e+2, 2.957093e+2, 220040.67, -159866.88, 17884.74, 0.037901666, 0.25901732, 220880.77, 262950.78, 0.0, 10.002884, 9.9978485 
4.3508512e+2, 3.0570588e+2, 272313.6, -164867.14, 2854.4001, 0.038771246, 0.15743725, 272332.22, 272332.22, 0.0, 10.003146, 9.997353 
4.350908e+2, 3.1570464e+2, 380906.6, 13774.825, -651.7389, 0.044010423, 0.2930448, 380907.75, 380907.75, 0.0, 10.003348, 9.998483 
4.449751e+2, 1.2571272e+2, -1874996.4, -1717960.3, -21918.324, -0.08288323, 0.059268277, -1714958.4, -6936.1274, 0.00000631539, 9.998585, 10.000661 
4.449828e+2, 1.3571328e+2, -1761888.9, -1643825.4, 8588.906, -0.0010295926, 0.07373218, -1643203.8, -33185.668, 0.0000013346397, 9.998819, 10.000385 
4.4498846e+2, 1.4571373e+2, -1652458.0, -1587251.0, -15288.86, -0.091518596, 0.10351234, -1583844.3, -71828.9, 0.000000013876045, 9.999101, 9.999963 
4.4499528e+2, 1.5571395e+2, -1507951.4, -1463749.1, -12165.314, -0.026845025, 0.12707815, -1460622.3, -46607.2, 0.0, 9.999407, 9.99999 
4.4500166e+2, 1.6571392e+2, -1387840.9, -1376977.6, -11758.518, 0.004328583, 0.13649991, -1369456.9, -53440.01, 0.0, 9.999653, 9.999795 
4.450076e+2, 1.7571372e+2, -1258807.6, -1261349.4, -10035.437, -0.008245572, 0.1336615, -1249962.9, -31942.617, 0.0, 9.999855, 9.999819 
4.4501352e+2, 1.8571372e+2, -1148683.1, -1177713.1, -10671.679, -0.018134959, 0.16285941, -1145182.4, -25159.797, 0.0, 10.000025, 9.999638 
4.450195e+2, 1.9571391e+2, -1027711.4, -1066042.5, -4562.1045, -0.019489776, 0.21424395, -1027175.9, -5151.893, 0.0, 10.000171, 9.999661 
4.4502556e+2, 2.0571373e+2, -909518.6, -976674.56, -1930.3184, -0.008544838, 0.23819858, -909463.2, 14564.462, 0.0, 10.000389, 9.999497 
4.4503173e+2, 2.1571326e+2, -770437.6, -856303.06, -1258.442, 0.009528636, 0.23912728, -770419.2, 55613.887, 0.0, 10.00066, 9.99952 
4.4503793e+2, 2.2571261e+2, -660399.56, -775267.9, 5365.0693, 0.015161637, 0.23416919, -660149.5, 67889.71, 0.0, 10.00084, 9.999317 
4.4504413e+2, 2.3571184e+2, -545984.3, -668922.2, 2428.1033, 0.012237847, 0.22274289, -545936.4, 84109.695, 0.0, 10.000952, 9.999321 
4.4505042e+2, 2.4571095e+2, -439358.9, -616329.3, 198.09363, 0.024317907, 0.2255065, -439358.7, 92696.016, 0.0, 10.001224, 9.998878 
4.4505677e+2, 2.5570998e+2, -282919.25, -489213.8, 4176.5776, 0.047119673, 0.23698054, -282834.75, 151229.97, 0.0, 10.001621, 9.998886 
4.45063e+2, 2.6570857e+2, -170896.72, -431496.66, 12226.207, 0.042768512, 0.2289747, -170324.38, 165754.03, 0.0, 10.001921, 9.998466 
4.4506913e+2, 2.757068e+2, -40186.902, -317597.56, 6997.089, 0.018292982, 0.20227508, -40010.527, 198084.67, 0.0, 10.002145, 9.9984665 
4.450755e+2, 2.8570512e+2, 66290.03, -273104.94, 8569.712, 0.01664813, 0.21606779, 66506.27, 206617.66, 0.0, 10.002451, 9.997952 
4.4508207e+2, 2.9570356e+2, 215023.45, -155676.45, 10301.019, 0.031823408, 0.26382634, 215309.48, 257436.2, 0.0, 10.002821, 9.997908 
4.4508824e+2, 3.057001e+2, 275934.9, -171154.03, -4940.534, 0.033596594, 0.16210611, 275989.5, 275989.5, 0.0, 10.003206, 9.997281 
4.4509426e+2, 3.1569877e+2, 407810.78, 12318.991, -7403.268, 0.04127013, 0.29545268, 407949.3, 407949.3, 0.0, 10.003596, 9.998353 
4.5497346e+2, 1.2570615e+2, -1874848.4, -1716902.4, -16120.078, -0.10538597, 0.07370446, -1715273.9, -7186.5786, 0.0000053674253, 9.998581, 10.0006695 
4.5498163e+2, 1.3570656e+2, -1761799.3, -1643195.3, 17651.889, 0.0014777086, 0.07443858, -1640623.9, -30539.695, 0.0000010357217, 9.998817, 10.000391 
4.5498756e+2, 1.4570704e+2, -1641179.1, -1563433.8, -3766.0527, -0.09319602, 0.09852249, -1563251.8, -51170.902, 0.000000007555667, 9.999099, 10.000128 
4.5499456e+2, 1.5570742e+2, -1497308.8, -1441456.6, -944.6238, -0.037366334, 0.120317385, -1441440.6, -27361.738, 0.0, 9.999406, 10.000144 
4.5500112e+2, 1.6570753e+2, -1386003.9, -1373093.4, -4322.3647, -0.012468722, 0.13470262, -1371779.9, -55700.406, 0.0, 9.999653, 9.999822 
4.5500723e+2, 1.7570744e+2, -1256418.1, -1256225.0, -2645.4846, -0.029957887, 0.14178988, -1253674.3, -35592.137, 0.0, 9.999854, 9.999854 
4.5501345e+2, 1.8570757e+2, -1138271.4, -1155960.0, -5198.4863, -0.026439784, 0.17131642, -1136856.6, -16773.336, 0.0, 10.000024, 9.999787 
4.5501986e+2, 1.9570783e+2, -1018013.0, -1045885.2, 1279.2977, -0.00013380295, 0.21584187, -1017954.4, 4129.1543, 0.0, 10.000171, 9.9998 
4.5502612e+2, 2.0570765e+2, -909536.6, -976690.0, 8231.518, 0.0074807657, 0.23630333, -908542.4, 15544.261, 0.0, 10.000388, 9.999497 
4.550323e+2, 2.1570718e+2, -770928.44, -857197.0, 8557.81, -0.0015784957, 0.23650032, -770087.7, 56004.316, 0.0, 10.000659, 9.999515 
4.550386e+2, 2.257065e+2, -665339.3, -785400.4, 9488.988, -0.0014340958, 0.23065957, -664594.0, 63504.88, 0.0, 10.00084, 9.999248 
4.55045e+2, 2.3570564e+2, -549878.3, -677037.8, 7255.34, 0.0064305877, 0.21788257, -549465.7, 80641.234, 0.0, 10.000952, 9.999265 
4.550516e+2, 2.457048e+2, -432387.8, -601891.56, 15045.6455, 0.021844162, 0.22253627, -431062.7, 101052.3, 0.0, 10.001224, 9.998977 
4.550583e+2, 2.5570396e+2, -277255.97, -477277.3, 18499.975, 0.04267635, 0.23869808, -275559.3, 158563.88, 0.0, 10.00162, 9.998968 
4.5506492e+2, 2.657025e+2, -180142.05, -450643.97, 20451.293, 0.04252627, 0.22681998, -178604.58, 157533.08, 0.0, 10.00192, 9.998334 
4.5507136e+2, 2.7570048e+2, -48032.06, -334299.56, 15624.673, 0.02676583, 0.18960626, -47181.78, 190975.42, 0.0, 10.002146, 9.998351 
4.5507798e+2, 2.8569886e+2, 73327.65, -258961.69, 22294.398, 0.020198638, 0.20947008, 74816.78, 214989.7, 0.0, 10.002453, 9.998049 
4.5508474e+2, 2.956976e+2, 221184.97, -143094.0, 23932.443, 0.020026186, 0.2761794, 222750.55, 264935.94, 0.0, 10.002822, 9.997993 
4.550913e+2, 3.0569413e+2, 272117.53, -179185.02, 9570.307, 0.022194648, 0.17363057, 272320.38, 272320.38, 0.0, 10.003206, 9.997226 
4.5509785e+2, 3.1569254e+2, 400171.13, -3604.1436, 6770.918, 0.03915364, 0.28845632, 400284.63, 400284.63, 0.0, 10.003596, 9.998244 
4.6497202e+2, 1.2569934e+2, -1875577.1, -1711723.8, -22972.844, -0.10386871, 0.08198297, -1708563.8, -409.11005, 0.000004304928, 9.998552, 10.000718 
4.6498036e+2, 1.3569975e+2, -1762646.3, -1639521.6, 17120.87, -0.0019967076, 0.07821369, -1637185.3, -27034.043, 0.0000007438799, 9.998794, 10.000428 
4.6498644e+2, 1.4570026e+2, -1655270.8, -1561695.3, -8128.7036, -0.10652928, 0.09931769, -1560994.4, -48846.99, 0.0000000034677494, 9.998965, 10.000204 
4.649937e+2, 1.5570067e+2, -1541293.4, -1454143.5, -12105.615, -0.04767249, 0.11689053, -1452493.3, -38348.125, 0.0, 9.999067, 10.00022 
4.650005e+2, 1.6570087e+2, -1437711.1, -1387866.5, -14833.781, -0.020737382, 0.1314007, -1383786.0, -67641.125, 0.0, 9.999254, 9.999912 
4.6500683e+2, 1.7570092e+2, -1300512.1, -1267718.5, -8430.774, -0.03760278, 0.14193514, -1265678.0, -47531.633, 0.0, 9.999509, 9.999941 
4.6501333e+2, 1.857011e+2, -1168309.9, -1164214.5, -13168.969, -0.030494615, 0.17251658, -1152935.0, -32788.332, 0.0, 9.999791, 9.999844 
4.6502e+2, 1.957014e+2, -1025865.4, -1043643.5, -13756.42, 0.0019759429, 0.21636795, -1018375.94, 3770.3235, 0.0, 10.000092, 9.999853 
4.650265e+2, 2.0570128e+2, -917344.6, -976280.0, -8508.507, 0.009876642, 0.23488438, -916140.8, 8008.079, 0.0, 10.000318, 9.999535 
4.6503285e+2, 2.157008e+2, -794100.75, -865056.8, -5510.683, -0.0036072691, 0.23216976, -793675.3, 32478.654, 0.0, 10.000486, 9.999544 
4.6503937e+2, 2.257001e+2, -687842.06, -802788.4, -3844.187, -0.0022945057, 0.22505629, -687713.6, 40447.57, 0.0, 10.000713, 9.999189 
4.6504602e+2, 2.3569918e+2, -548864.4, -682910.75, -5130.8853, 0.011058176, 0.21232226, -548668.25, 81501.9, 0.0, 10.000986, 9.999208 
4.6505284e+2, 2.4569832e+2, -432977.1, -605348.25, 1815.3141, 0.025585748, 0.22013822, -432958.0, 99220.57, 0.0, 10.001234, 9.998948 
4.6505985e+2, 2.5569752e+2, -301809.3, -492065.3, -4099.393, 0.04076257, 0.24190122, -301721.03, 132465.53, 0.0, 10.001465, 9.998941 
4.6506673e+2, 2.6569602e+2, -190680.16, -454186.8, 1493.1432, 0.0396121, 0.22869124, -190671.7, 145529.47, 0.0, 10.001841, 9.998348 
4.650736e+2, 2.7569395e+2, -20966.477, -320495.2, 7093.9175, 0.026224783, 0.18499465, -20798.563, 217422.55, 0.0, 10.002329, 9.998359 
4.6508053e+2, 2.8569236e+2, 100141.36, -255205.81, 9097.607, 0.017786596, 0.21009299, 100374.125, 240611.1, 0.0, 10.002677, 9.997967 
4.6508756e+2, 2.9569113e+2, 229570.1, -147303.31, -2149.8848, 0.01258968, 0.29083395, 229582.34, 271831.78, 0.0, 10.002915, 9.99792 
4.6509448e+2, 3.0568767e+2, 282737.34, -168472.95, -14208.475, 0.015799642, 0.18732776, 283184.34, 283184.34, 0.0, 10.003255, 9.997275 
4.6510145e+2, 3.15686e+2, 410907.34, 1607.9669, -9880.373, 0.03619416, 0.28875962, 411145.72, 411145.72, 0.0, 10.00367, 9.998244 
4.7497082e+2, 1.256923e+2, -1869840.6, -1699051.4, -17693.43, -0.07871857, 0.083348334, -1697237.6, 10986.716, 0.0000032345054, 9.998549, 10.000807 
4.7497907e+2, 1.3569282e+2, -1758138.3, -1629823.3, 26008.973, -0.011869303, 0.085087225, -1624751.8, -14532.539, 0.00000048107097, 9.998792, 10.000495 
4.7498515e+2, 1.4569338e+2, -1656333.3, -1563600.6, -4344.9126, -0.13205276, 0.106003836, -1563397.5, -51182.45, 0.000000000765976, 9.998964, 10.000192 
4.7499263e+2, 1.556937e+2, -1541533.8, -1454460.5, -8036.8955, -0.05788889, 0.1168354, -1453724.9, -39511.242, 0.0, 9.999066, 10.000218 
4.7499976e+2, 1.6569392e+2, -1426980.0, -1365564.4, -5428.4487, -0.020576827, 0.12661445, -1365088.3, -48875.293, 0.0, 9.999254, 10.000066 
4.750064e+2, 1.756941e+2, -1290810.1, -1247488.1, 1264.5023, -0.03159957, 0.13418387, -1247451.3, -29238.414, 0.0, 9.999509, 10.00008 
4.7501314e+2, 1.8569435e+2, -1171101.0, -1169891.1, -1918.2463, -0.030609198, 0.16660777, -1168484.6, -48272.152, 0.0, 9.99979, 9.9998045 
4.7501993e+2, 1.9569467e+2, -1028056.4, -1048115.2, -2803.2751, -0.0130926045, 0.21578526, -1027671.94, -5459.737, 0.0, 10.000091, 9.999823 
4.750267e+2, 2.0569457e+2, -912281.7, -965721.6, -2217.5427, -0.001352589, 0.23387134, -912189.8, 12024.711, 0.0, 10.000317, 9.999607 
4.7503337e+2, 2.156941e+2, -789579.6, -855724.4, 1084.2239, 0.0031737355, 0.22614041, -789561.9, 36657.027, 0.0, 10.000486, 9.999608 
4.7504023e+2, 2.2569337e+2, -691232.75, -809845.8, 6312.1646, 0.012225268, 0.2173662, -690897.8, 37328.42, 0.0, 10.000713, 9.999141 
4.7504714e+2, 2.3569243e+2, -552944.56, -691298.1, 4896.5176, 0.025799638, 0.20612286, -552771.5, 77464.4, 0.0, 10.000985, 9.99915 
4.750542e+2, 2.4569151e+2, -443828.22, -627942.25, 10290.831, 0.035265557, 0.21843329, -443254.8, 88990.54, 0.0, 10.001234, 9.998793 
4.750613e+2, 2.556906e+2, -311016.9, -511478.28, 5093.0757, 0.041251577, 0.24659708, -310887.6, 123367.19, 0.0, 10.001466, 9.998808 
4.7506854e+2, 2.6568913e+2, -179736.61, -431659.56, 19689.582, 0.034021977, 0.23447002, -178207.02, 158061.9, 0.0, 10.001842, 9.998503 
4.750758e+2, 2.756872e+2, -12234.349, -302233.13, 24534.52, 0.016747564, 0.18816683, -10173.324, 228113.56, 0.0, 10.002328, 9.998484 
4.750831e+2, 2.8568557e+2, 82177.91, -292437.0, 17803.998, 0.009357508, 0.2177076, 83022.164, 223325.64, 0.0, 10.002676, 9.997711 
4.750904e+2, 2.9568422e+2, 213584.83, -180647.8, 7073.425, 0.00924575, 0.30770084, 213711.7, 256030.45, 0.0, 10.002915, 9.99769 
4.7509772e+2, 3.056807e+2, 293364.97, -146577.55, 1331.6472, 0.014160482, 0.20309268, 293369.0, 293369.0, 0.0, 10.003256, 9.997426 
4.7510505e+2, 3.1567907e+2, 418197.28, 16696.758, 5168.517, 0.031448297, 0.29419103, 418263.8, 418263.8, 0.0, 10.00367, 9.998348 
4.8496935e+2, 1.2568508e+2, -1909452.1, -1707390.3, -30586.02, -0.06489295, 0.09349716, -1702861.9, 5433.9624, 0.000002270887, 9.998232, 10.000903 
4.8497775e+2, 1.3568567e+2, -1787451.5, -1635195.6, 17492.795, -0.012291087, 0.09196074, -1633211.6, -22921.703, 0.0000002759338, 9.998552, 10.000573 
4.8498392e+2, 1.4568625e+2, -1678476.1, -1571259.4, -16228.594, -0.14353056, 0.11198354, -1568856.9, -56571.605, 0.000000000009128432, 9.998799, 10.000218 
4.849916e+2, 1.5568659e+2, -1553947.8, -1457408.8, -16873.258, -0.06370639, 0.122548625, -1454544.5, -40260.836, 0.0, 9.998968, 10.000245 
4.8499897e+2, 1.6568686e+2, -1433706.1, -1363598.0, -13447.91, -0.023049215, 0.13260877, -1361107.0, -44824.414, 0.0, 9.999186, 10.000112 
4.8500586e+2, 1.7568709e+2, -1297739.6, -1245903.9, -14684.763, -0.03273452, 0.14077315, -1242032.8, -23750.902, 0.0, 9.99944, 10.000124 
4.8501286e+2, 1.8568732e+2, -1182455.0, -1173055.1, -17830.244, -0.03234862, 0.1678675, -1159315.8, -39034.184, 0.0, 9.999702, 9.999825 
4.8501992e+2, 1.9568756e+2, -1044125.25, -1053582.6, -14540.916, -0.016918233, 0.20713288, -1033563.44, -11281.747, 0.0, 9.99997, 9.999843 
4.8502696e+2, 2.0568745e+2, -923680.4, -969710.06, -17142.441, -0.0048855497, 0.22422329, -917997.7, 6286.0376, 0.0, 10.000232, 9.99962 
4.8503387e+2, 2.1568707e+2, -789034.94, -854786.3, -18192.945, 0.0018181002, 0.22218186, -784336.8, 41950.59, 0.0, 10.000486, 9.999614 
4.8504096e+2, 2.2568634e+2, -695769.2, -822979.3, -15559.968, 0.013898319, 0.21867393, -693893.56, 34401.37, 0.0, 10.00073, 9.9990425 
4.8504817e+2, 2.3568535e+2, -562797.0, -706676.44, -20537.205, 0.031147186, 0.21265714, -559922.94, 70382.59, 0.0, 10.000963, 9.999056 
4.8505545e+2, 2.4568436e+2, -443330.53, -632513.5, -10736.321, 0.0374548, 0.22339341, -442723.2, 89592.766, 0.0, 10.001258, 9.99875 
4.8506278e+2, 2.5568333e+2, -294359.16, -508199.56, -7412.9487, 0.034895934, 0.24463433, -294102.5, 140223.78, 0.0, 10.001601, 9.998765 
4.8507035e+2, 2.6568186e+2, -170003.13, -430986.72, 6748.0713, 0.026312869, 0.23545031, -169828.77, 166511.78, 0.0, 10.001926, 9.9984665 
4.8507804e+2, 2.7568e+2, -28134.352, -314161.5, -2687.3484, 0.013205095, 0.19974159, -28109.104, 210249.0, 0.0, 10.002237, 9.9984455 
4.8508573e+2, 2.856783e+2, 66975.94, -305511.5, -9862.49, 0.0065284017, 0.227833, 67236.88, 207612.36, 0.0, 10.002597, 9.99766 
4.8509333e+2, 2.9567677e+2, 221083.28, -182116.78, -5604.3774, 0.004486093, 0.30692294, 221161.16, 263553.6, 0.0, 10.00299, 9.997644 
4.8510098e+2, 3.0567324e+2, 310695.25, -133835.05, -7139.8706, 0.00904682, 0.20219336, 310809.9, 310809.9, 0.0, 10.003356, 9.997464 
4.8510867e+2, 3.156717e+2, 422309.28, 18764.332, -11841.44, 0.026269784, 0.30069822, 422656.44, 422656.44, 0.0, 10.003698, 9.998348 
4.9496758e+2, 1.2567769e+2, -1902987.9, -1692866.4, -22935.818, -0.0635474, 0.112332314, -1690392.0, 17977.182, 0.0000015131092, 9.998227, 10.001004 
4.9497637e+2, 1.3567823e+2, -1781447.8, -1622429.3, 29343.09, -0.0034709394, 0.09890102, -1617187.4, -6823.949, 0.00000014199817, 9.998551, 10.000662 
4.9498272e+2, 1.4567888e+2, -1674038.4, -1561746.5, -9980.431, -0.14125244, 0.11732764, -1560866.4, -48508.316, 0.0, 9.998798, 10.000284 
4.9499056e+2, 1.5567935e+2, -1550196.5, -1449297.3, -10477.698, -0.06557187, 0.13412522, -1448220.8, -33865.52, 0.0, 9.998967, 10.000301 
4.9499807e+2, 1.6567968e+2, -1438069.0, -1372477.8, -4035.2935, -0.028490802, 0.14944023, -1372230.4, -55876.613, 0.0, 9.999185, 10.0000515 
4.9500522e+2, 1.7567988e+2, -1301366.5, -1253399.6, -5087.457, -0.0411005, 0.16171439, -1252866.0, -34512.477, 0.0, 9.999439, 10.000073 
4.9501252e+2, 1.8567999e+2, -1177000.8, -1161638.8, -7815.4346, -0.035832856, 0.17631754, -1158361.8, -38007.89, 0.0, 9.999702, 9.999904 
4.9501997e+2, 1.9568007e+2, -1039306.8, -1043454.94, -4490.2095, -0.009751418, 0.1905326, -1036434.8, -14080.083, 0.0, 9.99997, 9.999913 
4.950272e+2, 2.0567997e+2, -926910.4, -976326.25, -7602.473, -0.0009206835, 0.20604731, -925767.25, -1410.6488, 0.0, 10.000232, 9.999576 
4.9503425e+2, 2.1567969e+2, -792667.56, -862328.56, -8689.357, -0.0076781083, 0.22025925, -791600.0, 34759.33, 0.0, 10.000486, 9.999562 
4.9504158e+2, 2.2567898e+2, -706105.06, -844461.25, -6839.4775, 0.0027639566, 0.22886454, -705767.75, 22599.48, 0.0, 10.00073, 9.998896 
4.950491e+2, 2.3567793e+2, -572128.56, -726158.25, -11535.918, 0.027201569, 0.2317104, -571269.44, 59109.78, 0.0, 10.000964, 9.998921 
4.9505666e+2, 2.4567683e+2, -438580.47, -622821.25, 1975.5472, 0.032234427, 0.23488142, -438559.28, 93831.06, 0.0, 10.001259, 9.998816 
4.9506423e+2, 2.5567567e+2, -290948.5, -501360.38, 5201.0967, 0.02169448, 0.23621735, -290820.03, 143580.98, 0.0, 10.001602, 9.998812 
4.9507216e+2, 2.6567414e+2, -185455.56, -463383.72, 18255.607, 0.016321477, 0.23177187, -184261.58, 152154.42, 0.0, 10.001927, 9.998243 
4.950803e+2, 2.7567226e+2, -41942.85, -343081.78, 9105.451, 0.015376644, 0.2194169, -41667.785, 196766.86, 0.0, 10.002238, 9.998246 
4.9508834e+2, 2.856705e+2, 77071.805, -284568.53, 4775.7617, 0.009125514, 0.24036722, 77134.86, 217587.7, 0.0, 10.002597, 9.997804 
4.9509627e+2, 2.956688e+2, 230042.1, -163300.16, 8774.272, -0.0017547224, 0.2892691, 230237.72, 272708.1, 0.0, 10.002989, 9.997774 
4.9510425e+2, 3.0566534e+2, 305809.84, -143860.27, 5497.1846, 0.00036651184, 0.18534979, 305877.03, 305877.03, 0.0, 10.003356, 9.997396 
4.951123e+2, 3.1566396e+2, 415308.5, 4186.993, 462.0562, 0.020004189, 0.30640346, 415309.0, 415309.0, 0.0, 10.003697, 9.998248 
5.049657e+2, 1.2566985e+2, -1932083.5, -1696416.5, -39527.906, -0.06376922, 0.11757137, -1689963.4, 18483.5, 0.0000009949754, 9.997983, 10.001098 
5.049748e+2, 1.3567048e+2, -1823347.8, -1633503.3, 16920.115, 0.00029683404, 0.105611205, -1632007.0, -21566.945, 0.000000065122016, 9.998224, 10.000744 
5.0498134e+2, 1.456712e+2, -1706196.6, -1567309.3, -23048.186, -0.1437998, 0.12303495, -1563584.3, -51150.55, 0.0, 9.998535, 10.000373 
5.049894e+2, 1.5567173e+2, -1557799.4, -1444039.1, -22121.203, -0.07095272, 0.13650578, -1439888.9, -25458.813, 0.0, 9.998877, 10.000381 
5.049972e+2, 1.656721e+2, -1444895.4, -1379328.5, -14327.229, -0.034732312, 0.15338758, -1376334.5, -59906.105, 0.0, 9.999153, 10.00002 
5.050046e+2, 1.7567232e+2, -1312479.3, -1261804.0, -13311.705, -0.046639033, 0.17108975, -1258520.0, -40091.797, 0.0, 9.999376, 10.000046 
5.0501215e+2, 1.8567242e+2, -1187407.8, -1162834.4, -16404.426, -0.03787855, 0.18356791, -1154625.5, -34196.996, 0.0, 9.999615, 9.999938 
5.050199e+2, 1.9567245e+2, -1053202.5, -1047343.5, -16413.947, -0.006217961, 0.18986604, -1033599.7, -11170.432, 0.0, 9.999863, 9.999938 
5.050275e+2, 2.0567225e+2, -943611.06, -994893.8, -21673.37, 0.0041628643, 0.20204967, -935678.44, -11246.708, 0.0, 10.000162, 9.999481 
5.050348e+2, 2.1567191e+2, -797263.5, -874967.0, -26661.088, -0.0041034888, 0.21638845, -788995.5, 37440.14, 0.0, 10.0005, 9.999469 
5.050423e+2, 2.2567114e+2, -703741.94, -853066.5, -25788.654, 0.0035565593, 0.22819133, -699413.6, 29030.627, 0.0, 10.000788, 9.998808 
5.0505006e+2, 2.3567006e+2, -567454.06, -733436.3, -25737.504, 0.024163652, 0.23640585, -563554.75, 66901.93, 0.0, 10.001038, 9.9988365 
5.0505793e+2, 2.4566887e+2, -426836.56, -622424.2, -10619.52, 0.02914694, 0.23756513, -426261.66, 106206.96, 0.0, 10.001363, 9.998769 
5.050659e+2, 2.556676e+2, -273491.3, -498658.03, -16049.776, 0.021460216, 0.231521, -272353.06, 162127.16, 0.0, 10.001746, 9.99876 
5.0507414e+2, 2.65666e+2, -169802.11, -465841.7, -3342.5945, 0.0147399455, 0.23109846, -169764.36, 166731.38, 0.0, 10.002079, 9.998153 
5.0508255e+2, 2.756642e+2, -29073.72, -346422.6, -2711.244, 0.009201648, 0.23141022, -29050.559, 209464.08, 0.0, 10.002369, 9.99816 
5.050909e+2, 2.856624e+2, 83994.29, -282312.75, -8020.154, 0.0034362327, 0.25464585, 84169.8, 224703.03, 0.0, 10.002649, 9.997793 
5.050992e+2, 2.9566064e+2, 219715.55, -169240.28, -15302.184, -0.003110435, 0.29803002, 220316.63, 262867.94, 0.0, 10.002922, 9.997766 
5.051075e+2, 3.0565715e+2, 300205.4, -142445.33, -16925.518, -0.0027334746, 0.19122, 300851.66, 300851.66, 0.0, 10.0033, 9.997433 
5.051159e+2, 3.156558e+2, 423204.78, 8609.676, -14877.157, 0.01016886, 0.30841205, 423737.94, 423737.94, 0.0, 10.00375, 9.998254 
5.149636e+2, 1.2566157e+2, -1926715.3, -1684408.0, -35712.504, -0.066884905, 0.10875035, -1679254.1, 29274.697, 0.00000067894854, 9.997979, 10.001183 
5.1497304e+2, 1.3566244e+2, -1818359.0, -1622595.9, 26279.275, -0.0013099372, 0.11228953, -1619129.5, -8609.71, 0.000000029496794, 9.998221, 10.000821 
5.149798e+2, 1.4566323e+2, -1698864.4, -1551585.4, -10193.983, -0.15156181, 0.12929404, -1550883.1, -38370.754, 0.0, 9.998532, 10.000483 
5.1498824e+2, 1.5566374e+2, -1550725.5, -1429160.9, -9651.829, -0.08016387, 0.12979984, -1428399.3, -13890.834, 0.0, 9.998876, 10.0004835 
5.149963e+2, 1.6566412e+2, -1445289.9, -1380004.0, -6138.942, -0.04202669, 0.14458665, -1379431.8, -62925.383, 0.0, 9.999152, 10.000015 
5.150039e+2, 1.7566441e+2, -1312920.0, -1262552.3, -4956.395, -0.049575325, 0.16894497, -1262069.1, -43563.17, 0.0, 9.999376, 10.000041 
5.150117e+2, 1.856646e+2, -1188252.4, -1164481.8, -7132.3315, -0.038670216, 0.18957293, -1162505.9, -42000.383, 0.0, 9.999614, 9.999927 
5.150198e+2, 1.956647e+2, -1054634.6, -1050335.0, -6900.7817, -0.0064191776, 0.20496221, -1045256.9, -22751.6, 0.0, 9.999863, 9.999918 
5.1502764e+2, 2.0566438e+2, -953593.7, -1015590.44, -9021.779, 0.010213038, 0.2120867, -952307.56, -27798.43, 0.0, 10.000162, 9.999339 
5.1503545e+2, 2.1566373e+2, -806753.94, -894634.25, -14200.639, 0.012263612, 0.21062781, -804516.2, 21999.938, 0.0, 10.0005, 9.999334 
5.150432e+2, 2.2566283e+2, -705761.94, -857318.94, -16452.188, 0.015976604, 0.21684065, -703996.56, 24529.395, 0.0, 10.000788, 9.998778 
5.1505107e+2, 2.3566173e+2, -569897.75, -738790.4, -16117.214, 0.021907147, 0.227014, -568373.44, 62164.59, 0.0, 10.001039, 9.998799 
5.150593e+2, 2.4566045e+2, -437832.4, -645561.75, 3685.5388, 0.027978506, 0.23160338, -437767.03, 94783.63, 0.0, 10.001364, 9.99861 
5.150678e+2, 2.5565907e+2, -283871.34, -520277.78, -1968.809, 0.033761464, 0.2304192, -283854.97, 150708.84, 0.0, 10.001747, 9.998612 
5.150763e+2, 2.656575e+2, -167163.13, -460343.03, 7375.184, 0.021330709, 0.23338403, -166977.72, 169601.97, 0.0, 10.002078, 9.998191 
5.150848e+2, 2.7565572e+2, -27320.754, -342874.38, 7920.4478, -0.005211612, 0.23611575, -27122.074, 211475.94, 0.0, 10.002369, 9.998185 
5.150934e+2, 2.8565395e+2, 72707.36, -305835.72, 1973.7554, -0.01059666, 0.27065742, 72717.65, 213334.3, 0.0, 10.002649, 9.997631 
5.1510215e+2, 2.9565224e+2, 209547.89, -190243.72, -4762.1636, 0.0001459693, 0.33197343, 209604.61, 252239.84, 0.0, 10.002921, 9.997622 
5.1511085e+2, 3.0564868e+2, 309347.8, -122906.7, 26.330738, -0.00051197433, 0.21879968, 309347.8, 309347.8, 0.0, 10.003297, 9.997568 
5.1511955e+2, 3.1564716e+2, 429598.0, 23123.807, 1387.0635, -0.0038425373, 0.3067626, 429602.72, 429602.72, 0.0, 10.003744, 9.998356 
5.249616e+2, 1.256533e+2, -1938119.4, -1685526.5, -32564.928, -0.06157276, 0.107583515, -1681395.8, 27214.313, 0.0000005002885, 9.997883, 10.001221 
5.2497125e+2, 1.3565429e+2, -1814807.8, -1618197.9, 31233.822, 0.0010925278, 0.118637554, -1613355.3, -2755.1592, 0.000000016983103, 9.998234, 10.000845 
5.2497834e+2, 1.456551e+2, -1699915.1, -1552710.1, -12268.172, -0.15520717, 0.13630177, -1551694.6, -39102.105, 0.0, 9.9985285, 10.000477 
5.24987e+2, 1.5565556e+2, -1568914.8, -1438445.9, -20886.91, -0.084150895, 0.13258529, -1435183.6, -20594.48, 0.0, 9.998754, 10.000479 
5.249953e+2, 1.6565593e+2, -1467704.6, -1389211.6, -22230.738, -0.04220896, 0.14558694, -1383352.9, -66765.586, 0.0, 9.998992, 10.00003 
5.250033e+2, 1.7565621e+2, -1331830.1, -1270635.5, -19681.934, -0.042681918, 0.1699297, -1264851.9, -46265.36, 0.0, 9.999242, 10.000051 
5.2501136e+2, 1.856564e+2, -1198832.1, -1174442.1, -20108.07, -0.03359554, 0.19294278, -1163120.1, -42534.094, 0.0, 9.999562, 9.999883 
5.2501965e+2, 1.9565651e+2, -1047533.4, -1052049.0, -22446.568, -0.010022233, 0.21257626, -1027231.4, -4645.661, 0.0, 9.999933, 9.999871 
5.250278e+2, 2.0565611e+2, -950300.6, -1023350.2, -24080.037, 0.006386286, 0.21864161, -943077.2, -18486.912, 0.0, 10.000225, 9.999256 
5.25036e+2, 2.1565531e+2, -819031.3, -909850.4, -24865.658, 0.014625762, 0.21212803, -812669.0, 13929.791, 0.0, 10.000456, 9.999251 
5.250441e+2, 2.2565433e+2, -707571.3, -866225.8, -24598.59, 0.0205131, 0.21612683, -703844.94, 24764.488, 0.0, 10.000811, 9.998707 
5.2505225e+2, 2.3565315e+2, -542848.1, -734541.6, -27672.94, 0.025680624, 0.22614834, -538933.2, 91688.734, 0.0, 10.001262, 9.99872 
5.250608e+2, 2.4565177e+2, -420180.44, -656473.75, -12051.461, 0.030688988, 0.23057532, -419567.38, 113068.555, 0.0, 10.001569, 9.998435 
5.250696e+2, 2.5565022e+2, -293117.06, -543003.94, -18746.816, 0.035176788, 0.2292355, -291718.5, 142932.77, 0.0, 10.001762, 9.998448 
5.250783e+2, 2.6564857e+2, -172757.36, -463793.78, -10475.16, 0.02056511, 0.23558682, -172380.83, 164287.06, 0.0, 10.002044, 9.998184 
5.250871e+2, 2.7564687e+2, -24548.848, -342585.7, -13420.568, -0.009011183, 0.24468975, -23983.53, 214702.25, 0.0, 10.002393, 9.998175 
5.25096e+2, 2.856451e+2, 74445.586, -310027.22, -18333.908, -0.013988112, 0.2833622, 75317.875, 216022.22, 0.0, 10.002684, 9.997586 
5.2510506e+2, 2.9564333e+2, 206995.89, -195981.72, -16403.225, 0.000006455272, 0.3466311, 207662.48, 250385.7, 0.0, 10.002924, 9.997581 
5.25114e+2, 3.0563977e+2, 287223.0, -129071.1, -9951.223, -0.0036073807, 0.23150095, 287460.75, 287460.75, 0.0, 10.003126, 9.997608 
5.2512294e+2, 3.156382e+2, 365010.53, -6728.0293, -16197.932, -0.015124024, 0.31173223, 365715.0, 365715.0, 0.0, 10.003295, 9.998367 
5.349597e+2, 1.2564507e+2, -1939348.5, -1687242.1, -24877.709, -0.048751388, 0.11356379, -1684810.6, 23880.021, 0.00000041209, 9.997879, 10.00121 
5.3496957e+2, 1.3564603e+2, -1816914.5, -1622432.6, 44299.457, 0.007002162, 0.124899834, -1612817.4, -2136.4507, 0.000000018082496, 9.998233, 10.000816 
5.349768e+2, 1.456468e+2, -1708704.1, -1570647.6, -3892.8955, -0.15525873, 0.14436549, -1570538.0, -57863.688, 0.0, 9.998527, 10.000354 
5.349857e+2, 1.5564717e+2, -1577074.5, -1454996.5, -12603.919, -0.083121285, 0.14510563, -1453708.9, -39036.613, 0.0, 9.998752, 10.000366 
5.3499436e+2, 1.6564749e+2, -1465698.0, -1384875.5, -12992.008, -0.03546884, 0.15650535, -1382838.4, -66167.64, 0.0, 9.998991, 10.00006 
5.350027e+2, 1.7564774e+2, -1330319.1, -1267429.9, -10055.225, -0.026162716, 0.17412803, -1265861.3, -47191.363, 0.0, 9.999241, 10.0000725 
5.3501105e+2, 1.8564788e+2, -1204285.6, -1185647.3, -6181.68, -0.022786908, 0.19376399, -1183783.4, -63113.58, 0.0, 9.999561, 9.999806 
5.3501946e+2, 1.956479e+2, -1052678.8, -1062630.4, -8919.444, -0.017080233, 0.212756, -1047441.1, -24770.74, 0.0, 9.999933, 9.999799 
5.350279e+2, 2.0564748e+2, -952267.2, -1027390.44, -15505.494, -0.0073237484, 0.22170678, -949192.7, -24517.463, 0.0, 10.000225, 9.9992285 
5.3503627e+2, 2.1564671e+2, -821277.0, -914703.44, -15768.162, 0.0030764851, 0.22079219, -818687.5, 7995.972, 0.0, 10.000457, 9.999217 
5.3504485e+2, 2.2564565e+2, -715404.56, -882707.06, -7659.512, 0.017166052, 0.22585373, -715054.6, 13640.066, 0.0, 10.000812, 9.998593 
5.350536e+2, 2.3564433e+2, -551295.4, -752045.0, -11394.257, 0.035236493, 0.23363626, -550650.75, 80057.54, 0.0, 10.001262, 9.9986 
5.350624e+2, 2.4564275e+2, -433384.6, -683959.0, -4860.774, 0.037137266, 0.23440363, -433290.34, 99434.01, 0.0, 10.001569, 9.998246 
5.3507125e+2, 2.5564095e+2, -305521.7, -569191.94, -11164.896, 0.025873851, 0.22799702, -305049.78, 129692.73, 0.0, 10.001764, 9.998268 
5.3508025e+2, 2.6563925e+2, -176219.2, -471266.66, 2584.126, 0.01242233, 0.23767495, -176196.56, 160563.64, 0.0, 10.002045, 9.998132 
5.3508955e+2, 2.7563757e+2, -27912.193, -349270.25, -610.1198, -0.0026569886, 0.25686163, -27911.035, 210866.8, 0.0, 10.002392, 9.99813 
5.3509873e+2, 2.8563583e+2, 78720.29, -300661.0, -9412.985, -0.00715285, 0.292854, 78953.695, 219749.98, 0.0, 10.002682, 9.997651 
5.35108e+2, 2.95634e+2, 210732.42, -187809.66, -7654.5513, -0.003698224, 0.3430833, 210879.38, 253694.55, 0.0, 10.002922, 9.997638 
5.351171e+2, 3.0563045e+2, 283284.72, -136960.33, -3729.3533, -0.012215707, 0.23020792, 283317.8, 283317.8, 0.0, 10.003124, 9.997555 
5.3512615e+2, 3.1562895e+2, 359166.16, -18496.72, -10070.212, -0.024161108, 0.3220494, 359434.47, 359434.47, 0.0, 10.003293, 9.998287 
5.4495734e+2, 1.256365e+2, -1963707.8, -1699389.3, -42335.31, -0.054165646, 0.11949765, -1692774.1, 16000.479, 0.00000036785775, 9.997715, 10.001205 
5.449677e+2, 1.3563737e+2, -1845394.1, -1638176.9, 32709.363, 0.008371345, 0.123604104, -1633136.4, -22370.594, 0.000000024396927, 9.998047, 10.000798 
5.4497534e+2, 1.4563811e+2, -1736554.5, -1592574.4, -16157.0625, -0.1519529, 0.14473253, -1590783.5, -78023.875, 0.0, 9.998373, 10.0002775 
5.449845e+2, 1.556385e+2, -1593425.4, -1471452.4, -21741.328, -0.07793975, 0.15567327, -1467693.0, -52935.316, 0.0, 9.998676, 10.000289 
5.449934e+2, 1.6563876e+2, -1469087.4, -1394085.3, -23828.639, -0.030638233, 0.16795047, -1387155.0, -70398.17, 0.0, 9.999001, 9.999991 
5.4500204e+2, 1.7563888e+2, -1320985.3, -1270225.6, -28385.998, -0.022635993, 0.1789173, -1257527.9, -38770.727, 0.0, 9.999337, 10.000007 
5.450107e+2, 1.8563889e+2, -1197858.5, -1186237.5, -25323.205, -0.018651946, 0.19196104, -1166066.8, -45308.71, 0.0, 9.999621, 9.999774 
5.4501945e+2, 1.956388e+2, -1064745.3, -1072383.1, -24847.91, -0.011173048, 0.20461118, -1043424.5, -20665.299, 0.0, 9.999867, 9.999764 
5.450282e+2, 2.0563838e+2, -954268.2, -1036216.94, -30190.398, -0.0031102882, 0.2177713, -944347.0, -19582.727, 0.0, 10.000245, 9.999158 
5.4503685e+2, 2.1563767e+2, -787140.7, -906070.0, -33818.633, 0.0031374248, 0.22916338, -778196.7, 48575.73, 0.0, 10.000725, 9.999147 
5.450458e+2, 2.2563656e+2, -685968.44, -875473.3, -26185.516, 0.014898222, 0.23500328, -682416.7, 46367.44, 0.0, 10.001043, 9.998531 
5.450548e+2, 2.3563509e+2, -559512.25, -763270.94, -26183.299, 0.031942215, 0.23477867, -556201.44, 74597.43, 0.0, 10.001237, 9.998535 
5.450639e+2, 2.4563344e+2, -443807.6, -699259.5, -14787.422, 0.03317468, 0.23560049, -442954.44, 89861.37, 0.0, 10.001542, 9.998155 
5.45073e+2, 2.556316e+2, -287185.22, -570751.56, -14150.9, 0.021409849, 0.23539057, -286480.78, 148353.78, 0.0, 10.001935, 9.998175 
5.4508233e+2, 2.6562983e+2, -166980.22, -478590.47, -2240.6797, 0.009953221, 0.24716541, -166964.1, 169889.25, 0.0, 10.002159, 9.998027 
5.4509187e+2, 2.7562806e+2, -55524.68, -373199.16, -9219.606, -0.0010505342, 0.26507187, -55257.332, 183615.08, 0.0, 10.002248, 9.9980345 
5.451014e+2, 2.8562626e+2, 52913.75, -304979.88, -17105.94, -0.0047106617, 0.2989627, 53729.49, 194620.39, 0.0, 10.002469, 9.997724 
5.4511076e+2, 2.9562446e+2, 196630.02, -187365.58, -15286.81, -0.0030752725, 0.34670988, 197237.61, 240146.33, 0.0, 10.002794, 9.997702 
5.451201e+2, 3.056209e+2, 264882.97, -152542.61, -15595.151, -0.015800426, 0.23434937, 265464.8, 265464.8, 0.0, 10.003027, 9.997495 
5.451293e+2, 3.1561935e+2, 337186.44, -38619.55, -22492.652, -0.033212673, 0.32539895, 338527.88, 338527.88, 0.000000000015387011, 10.003183, 9.998201 
5.549548e+2, 1.2562759e+2, -1963851.9, -1699240.8, -35813.977, -0.07956333, 0.12537676, -1694479.1, 14382.707, 0.0000003291145, 9.997713, 10.001207 
5.549657e+2, 1.3562831e+2, -1846185.8, -1639633.8, 44994.934, 0.004958116, 0.11484538, -1630257.8, -19403.176, 0.000000025104656, 9.998045, 10.000789 
5.549738e+2, 1.4562903e+2, -1738906.8, -1597135.5, -4752.6353, -0.14544255, 0.13730368, -1596976.4, -84127.76, 0.0, 9.998371, 10.000247 
5.5498326e+2, 1.5562956e+2, -1596571.0, -1477768.4, -10407.901, -0.068950936, 0.16437122, -1476863.5, -62018.086, 0.0, 9.998675, 10.000247 
5.5499244e+2, 1.6562974e+2, -1480887.6, -1418402.8, -11289.956, -0.027921045, 0.18010527, -1416425.5, -99579.9, 0.0, 9.999, 9.9998255 
5.5500126e+2, 1.7562965e+2, -1331943.4, -1292832.6, -16058.199, -0.032225426, 0.18438454, -1287084.3, -68235.87, 0.0, 9.999336, 9.999852 
5.5501026e+2, 1.8562949e+2, -1197216.8, -1184937.8, -16250.3955, -0.021398406, 0.18757576, -1173705.8, -52855.215, 0.0, 9.999621, 9.999783 
5.550195e+2, 1.9562928e+2, -1064667.3, -1072330.1, -15159.062, 0.007431358, 0.18820767, -1052862.9, -30010.65, 0.0, 9.999867, 9.999764 
5.550286e+2, 2.0562884e+2, -962206.4, -1052765.1, -12197.804, 0.018755965, 0.20688492, -960592.2, -35734.734, 0.0, 10.000245, 9.999044 
5.5503774e+2, 2.1562822e+2, -794712.1, -921705.56, -16447.377, 0.01447558, 0.23718534, -792616.56, 34248.92, 0.0, 10.000724, 9.999041 
5.5504674e+2, 2.2562705e+2, -686836.1, -877296.3, -18993.21, 0.013546296, 0.24357098, -684960.5, 43917.33, 0.0, 10.001043, 9.998519 
5.550559e+2, 2.3562545e+2, -560269.0, -765101.4, -18481.29, 0.015972681, 0.22972028, -558614.8, 72278.88, 0.0, 10.001238, 9.998523 
5.5506533e+2, 2.4562381e+2, -443553.3, -698903.6, -139.31781, 0.018850287, 0.234205, -443553.25, 89357.02, 0.0, 10.001542, 9.998157 
5.5507493e+2, 2.5562215e+2, -287895.3, -572050.3, -194.47311, 0.021504432, 0.25116235, -287895.2, 147032.3, 0.0, 10.001934, 9.998166 
5.550845e+2, 2.656203e+2, -178165.45, -501720.56, 923.11163, 0.012915024, 0.26386994, -178162.83, 158784.47, 0.0, 10.002158, 9.997869 
5.550941e+2, 2.7561823e+2, -65506.063, -394172.78, -5396.565, -0.0042187083, 0.2696245, -65417.477, 173551.97, 0.0, 10.002249, 9.99789 
5.5510384e+2, 2.856164e+2, 58339.21, -293738.88, -4940.2334, -0.0067816693, 0.30196744, 58408.52, 199396.69, 0.0, 10.002469, 9.997801 
5.551137e+2, 2.9561478e+2, 201166.9, -177422.23, -3596.7292, 0.001605896, 0.35715282, 201201.08, 244204.95, 0.0, 10.002791, 9.997771 
5.551231e+2, 3.056112e+2, 259596.2, -162706.02, -9807.86, -0.014695555, 0.24367733, 259823.86, 259823.86, 0.0, 10.003023, 9.997426 
5.551324e+2, 3.1560943e+2, 329940.06, -52495.67, -16748.719, -0.043122645, 0.3222499, 330672.16, 330672.16, 0.0000000020600701, 10.003179, 9.998109 
5.6495225e+2, 1.256182e+2, -1989044.9, -1712803.9, -57316.55, -0.0944763, 0.12542981, -1701383.6, 7570.0347, 0.00000027083397, 9.997546, 10.001195 
5.6496376e+2, 1.356189e+2, -1848453.3, -1643165.1, 27924.277, 0.008079484, 0.114734545, -1639434.6, -28487.775, 0.000000017878008, 9.998039, 10.000768 
5.649722e+2, 1.4561959e+2, -1726946.3, -1591931.8, -24568.895, -0.1352676, 0.13539168, -1587599.9, -74658.7, 0.0, 9.998456, 10.000242 
5.6498206e+2, 1.5562011e+2, -1579885.5, -1470843.8, -28512.145, -0.060268596, 0.16210109, -1463838.5, -48900.62, 0.0, 9.9987955, 10.0002365 
5.649916e+2, 1.6562025e+2, -1470016.0, -1422110.3, -24919.035, -0.022122012, 0.17940155, -1411498.8, -94560.34, 0.0, 9.999113, 9.999745 
5.6500065e+2, 1.7562011e+2, -1326375.0, -1299192.5, -23484.666, -0.029937692, 0.18678215, -1285649.8, -66707.92, 0.0, 9.9994135, 9.999771 
5.6500995e+2, 1.8561986e+2, -1183805.5, -1186976.3, -25005.373, -0.018261978, 0.18994896, -1160335.3, -39390.375, 0.0, 9.99975, 9.999706 
5.6501955e+2, 1.9561957e+2, -1033973.6, -1065941.8, -30261.438, 0.014644053, 0.18818973, -1015734.25, 7213.337, 0.0, 10.000114, 9.999689 
5.65029e+2, 2.0561907e+2, -939723.4, -1047159.3, -24977.91, 0.026876679, 0.20655085, -934200.2, -9246.797, 0.0, 10.0004225, 9.998998 
5.6503844e+2, 2.1561839e+2, -803518.5, -931037.9, -24601.977, 0.021089438, 0.23811828, -798936.7, 28025.156, 0.0, 10.000686, 9.998995 
5.6504786e+2, 2.256172e+2, -694523.06, -881679.8, -28436.902, 0.016333682, 0.24453573, -690297.7, 38676.758, 0.0, 10.000994, 9.998512 
5.6505716e+2, 2.3561558e+2, -546553.1, -759662.6, -27405.04, 0.013067872, 0.22975016, -543085.4, 87905.016, 0.0, 10.001337, 9.998511 
5.650668e+2, 2.4561393e+2, -441782.8, -705358.94, -11169.6045, 0.014339148, 0.23689918, -441310.3, 91696.9, 0.0, 10.001586, 9.998091 
5.6507677e+2, 2.5561228e+2, -317742.13, -593453.6, -16386.021, 0.018705677, 0.25923923, -316771.72, 118253.16, 0.0, 10.00176, 9.998103 
5.650866e+2, 2.656104e+2, -201068.44, -513123.84, -14166.869, 0.011966419, 0.27182588, -200426.61, 136618.44, 0.0, 10.002003, 9.997865 
5.650964e+2, 2.7560827e+2, -58378.24, -391120.66, -9181.316, -0.003330503, 0.27323723, -58125.094, 180942.38, 0.0, 10.002299, 9.997887 
5.651063e+2, 2.856064e+2, 60335.07, -295591.6, -6956.297, -0.0077289445, 0.30492908, 60470.977, 201557.3, 0.0, 10.002495, 9.997776 
5.651163e+2, 2.9560477e+2, 173195.7, -193296.36, -13102.463, -0.0039482154, 0.3622096, 173663.53, 216765.64, 0.0, 10.002609, 9.99775 
5.65126e+2, 3.0560124e+2, 222585.19, -175457.33, -20389.111, -0.018432071, 0.25055054, 223626.86, 223626.86, 0.0, 10.002748, 9.997472 
5.651354e+2, 3.1559953e+2, 291276.6, -68955.14, -19522.904, -0.03968138, 0.32710323, 292331.56, 292331.56, 0.000000017271022, 10.002903, 9.998128 
5.7494974e+2, 1.2560833e+2, -1991242.9, -1716937.8, -44714.965, -0.0996619, 0.119040154, -1709832.6, -782.73334, 0.00000019303324, 9.997544, 10.001168 
5.749619e+2, 1.3560915e+2, -1850807.5, -1648047.8, 45986.906, 0.01748122, 0.12350601, -1638105.3, -27062.875, 0.000000007774616, 9.998039, 10.000735 
5.7497084e+2, 1.4560977e+2, -1725709.8, -1589161.5, -11883.803, -0.12167024, 0.13938585, -1588135.0, -75097.76, 0.0, 9.998454, 10.000262 
5.74981e+2, 1.5561016e+2, -1578539.8, -1467867.5, -16046.905, -0.051985476, 0.14886852, -1465587.8, -50552.754, 0.0, 9.998794, 10.0002575 
5.7499075e+2, 1.656103e+2, -1469747.6, -1421442.6, -13795.826, -0.013361029, 0.16568512, -1417780.1, -100744.89, 0.0, 9.999112, 9.99975 
5.7500017e+2, 1.7561027e+2, -1326989.3, -1300419.8, -12188.244, -0.015894473, 0.18601987, -1295675.8, -76638.04, 0.0, 9.9994135, 9.9997635 
5.750098e+2, 1.8561004e+2, -1195243.8, -1210700.9, -11389.724, -0.009302139, 0.19903637, -1189208.0, -68166.96, 0.0, 9.99975, 9.999544 
5.750196e+2, 1.9560966e+2, -1044645.56, -1088072.3, -16869.133, 0.010456231, 0.20441867, -1038862.8, -15817.744, 0.0, 10.000114, 9.999537 
5.7502943e+2, 2.0560904e+2, -938494.3, -1044598.9, -15185.864, 0.021246001, 0.2166836, -936363.7, -11311.6, 0.0, 10.000422, 9.999015 
5.750392e+2, 2.1560822e+2, -802415.75, -928818.3, -14562.07, 0.02295706, 0.23209226, -800759.8, 26301.701, 0.0, 10.000686, 9.99901 
5.7504886e+2, 2.2560702e+2, -694563.25, -881887.6, -15597.297, 0.023042997, 0.23801564, -693273.44, 35800.52, 0.0, 10.000994, 9.99851 
5.750586e+2, 2.3560551e+2, -547130.2, -760976.44, -14958.486, 0.022840366, 0.23473363, -546088.9, 84999.98, 0.0, 10.001337, 9.998503 
5.750685e+2, 2.4560381e+2, -450916.94, -724501.4, -4771.725, 0.019376434, 0.24357271, -450833.72, 82272.85, 0.0, 10.001587, 9.997959 
5.750784e+2, 2.5560197e+2, -325789.44, -610342.56, -9616.251, 0.013005282, 0.25986764, -325464.8, 109661.8, 0.0, 10.00176, 9.997987 
5.7508856e+2, 2.6560006e+2, -190917.39, -491973.8, -3057.6545, 0.0070432993, 0.27134332, -190886.34, 146260.19, 0.0, 10.002002, 9.998011 
5.750987e+2, 2.7559814e+2, -49544.594, -372313.5, 1387.6283, 0.001309959, 0.2759281, -49538.625, 189627.86, 0.0, 10.002297, 9.998017 
5.7510877e+2, 2.8559628e+2, 51373.01, -313575.0, -2881.91, -0.0077725323, 0.3078355, 51395.77, 192581.17, 0.0, 10.002492, 9.997654 
5.751187e+2, 2.955945e+2, 165268.34, -209111.44, -8696.395, -0.019579852, 0.36231574, 165470.25, 208673.53, 0.0, 10.002606, 9.997643 
5.751286e+2, 3.0559105e+2, 232671.28, -153920.67, -14546.236, -0.027170995, 0.25530165, 233217.83, 233217.83, 0.00000000021282408, 10.002745, 9.997622 
5.751385e+2, 3.1558955e+2, 299450.88, -51459.4, -13802.074, -0.02414303, 0.33879742, 299992.9, 299992.9, 0.0000000699572, 10.002901, 9.99825 
5.8494735e+2, 1.2559798e+2, -1995768.0, -1719329.0, -65308.867, -0.098339826, 0.110826306, -1704676.4, 4474.348, 0.00000011738098, 9.997516, 10.001165 
5.8496e+2, 1.3559884e+2, -1860870.6, -1653949.0, 32645.115, 0.02300486, 0.11886737, -1648920.9, -37777.81, 0.0000000014227642, 9.997974, 10.000726 
5.8496934e+2, 1.4559942e+2, -1732904.4, -1593376.9, -29121.121, -0.111607894, 0.13238865, -1587542.9, -74404.69, 0.0, 9.998408, 10.000255 
5.8497983e+2, 1.5559976e+2, -1575932.5, -1467043.5, -35780.895, -0.041439325, 0.13865033, -1456338.4, -41202.133, 0.0, 9.998814, 10.000254 
5.8498996e+2, 1.6559993e+2, -1460619.9, -1415304.5, -36407.074, -0.0024990255, 0.15686764, -1395080.4, -77944.12, 0.0, 9.999167, 9.999765 
5.8499974e+2, 1.7559996e+2, -1316676.1, -1294407.4, -33997.05, -0.0039194226, 0.18209197, -1269767.8, -50629.793, 0.0, 9.999479, 9.999772 
5.8500963e+2, 1.8559974e+2, -1192070.8, -1217026.4, -27306.135, -0.0020228468, 0.19872391, -1174526.6, -53385.137, 0.0, 9.999806, 9.999474 
5.850197e+2, 1.955993e+2, -1045124.7, -1095809.1, -26191.686, 0.0081513785, 0.2066239, -1034022.0, -10875.692, 0.0, 10.000144, 9.99947 
5.850298e+2, 2.0559864e+2, -936982.3, -1046656.4, -26187.607, 0.015809586, 0.2172068, -931050.2, -5896.217, 0.0, 10.000444, 9.99899 
5.850398e+2, 2.1559773e+2, -799590.3, -930218.75, -28610.092, 0.019564247, 0.22780044, -793598.94, 33565.098, 0.0, 10.000717, 9.998985 
5.8504987e+2, 2.2559653e+2, -691445.94, -882145.75, -29167.025, 0.022189949, 0.23459463, -687084.7, 42092.03, 0.0, 10.001023, 9.998495 
5.8505994e+2, 2.3559506e+2, -545582.2, -761758.9, -29998.408, 0.024870552, 0.23639028, -541496.6, 89694.94, 0.0, 10.001354, 9.998488 
5.8507e+2, 2.4559338e+2, -447091.5, -720030.6, -19531.094, 0.018247772, 0.24758264, -445700.97, 87508.06, 0.0, 10.001601, 9.997983 
5.8508015e+2, 2.5559154e+2, -321604.75, -606091.75, -12978.193, 0.0039226618, 0.264327, -321013.9, 114214.81, 0.0, 10.001779, 9.998007 
5.8509046e+2, 2.6558962e+2, -204523.73, -501747.94, -7379.602, -0.00043281278, 0.27351797, -204340.63, 132908.27, 0.0, 10.001923, 9.997982 
5.851009e+2, 2.7558765e+2, -88976.61, -394099.47, -15779.49, 0.0030772847, 0.2734753, -88162.74, 151106.86, 0.0, 10.002038, 9.9979925 
5.8511114e+2, 2.855858e+2, 14873.01, -324536.3, -19699.764, -0.007103001, 0.30501232, 16012.584, 157300.98, 0.0, 10.002213, 9.997713 
5.8512115e+2, 2.955841e+2, 144400.28, -212200.0, -12460.25, -0.028232139, 0.3626139, 144835.14, 188140.55, 0.0, 10.002433, 9.997705 
5.851312e+2, 3.0558074e+2, 219486.14, -150096.39, -15320.863, -0.032641493, 0.25765464, 220120.17, 220120.17, 0.000000006848287, 10.00261, 9.997712 
5.8514136e+2, 3.155793e+2, 282942.6, -52399.445, -18778.213, -0.016318072, 0.33766648, 283990.84, 283990.84, 0.00000018333391, 10.002757, 9.998312 
5.949449e+2, 1.2558718e+2, -1994563.0, -1716442.1, -53985.57, -0.091463715, 0.10039362, -1706330.6, 2925.363, 0.000000058921596, 9.997514, 10.001185 
5.9495795e+2, 1.3558795e+2, -1859946.5, -1652046.9, 49600.223, 0.02445293, 0.10059789, -1640819.6, -29570.813, 0.000000000010343272, 9.997973, 10.000739 
5.9496784e+2, 1.4558855e+2, -1735461.6, -1598557.8, -14047.963, -0.105291866, 0.11410192, -1597131.1, -83887.01, 0.0, 9.998407, 10.00022 
5.9497875e+2, 1.5558895e+2, -1578157.3, -1471571.5, -20973.451, -0.028833317, 0.13141039, -1467592.9, -52351.19, 0.0, 9.998814, 10.000223 
5.9498924e+2, 1.6558915e+2, -1458880.6, -1411637.5, -24853.05, 0.010301051, 0.15303183, -1400971.3, -83729.875, 0.0, 9.999167, 9.999791 
5.949993e+2, 1.7558919e+2, -1314904.6, -1290662.0, -22313.96, 0.0058375723, 0.17508057, -1277389.6, -58146.746, 0.0, 9.999479, 9.999799 
5.950095e+2, 1.8558896e+2, -1190693.5, -1214195.1, -14725.499, 0.0034094846, 0.18907231, -1183605.0, -62358.734, 0.0, 9.999805, 9.999493 
5.950198e+2, 1.9558853e+2, -1044149.7, -1093805.8, -13760.879, 0.0076270313, 0.19492933, -1040591.2, -17339.992, 0.0, 10.000143, 9.999484 
5.950301e+2, 2.0558785e+2, -941697.94, -1056447.8, -16057.38, 0.010477691, 0.20822972, -939493.3, -14234.239, 0.0, 10.000444, 9.998922 
5.9504044e+2, 2.1558696e+2, -804107.25, -939738.6, -18303.943, 0.010821481, 0.22519417, -801680.5, 25588.902, 0.0, 10.000717, 9.9989195 
5.9505075e+2, 2.2558573e+2, -693535.5, -886622.3, -16725.502, 0.01377238, 0.2341923, -692097.44, 37185.2, 0.0, 10.001023, 9.998464 
5.9506124e+2, 2.355842e+2, -546996.06, -764628.3, -17886.336, 0.019250149, 0.23480259, -545535.8, 85762.47, 0.0, 10.001354, 9.998469 
5.9507155e+2, 2.4558264e+2, -435022.25, -694813.25, -12945.506, 0.010981493, 0.24900897, -434378.75, 98935.75, 0.0, 10.0016, 9.998157 
5.950818e+2, 2.5558105e+2, -311138.7, -584202.3, -6601.0547, -0.00859476, 0.2725357, -310979.2, 124352.0, 0.0, 10.001778, 9.9981575 
5.9509224e+2, 2.6557907e+2, -218304.06, -530248.7, -3160.9426, -0.0105558615, 0.27829748, -218272.03, 119080.09, 0.0, 10.001922, 9.9977865 
5.951029e+2, 2.7557674e+2, -101278.76, -419429.84, -11123.485, 0.0018742217, 0.2661029, -100890.32, 138486.36, 0.0, 10.002037, 9.997819 
5.9511334e+2, 2.8557494e+2, 30699.527, -291146.9, -11334.425, -0.0060371547, 0.29676166, 31098.197, 172493.39, 0.0, 10.002211, 9.997944 
5.951235e+2, 2.955736e+2, 159356.94, -180249.45, -4483.005, -0.030524585, 0.36311492, 159416.11, 202824.64, 0.0, 10.002429, 9.997927 
5.951338e+2, 3.055703e+2, 221675.63, -144836.02, -10117.203, -0.035281688, 0.2577846, 221954.69, 221954.69, 0.000000033052434, 10.002606, 9.99775 
5.9514415e+2, 3.1556875e+2, 283409.75, -51134.14, -13392.108, -0.016111566, 0.3239313, 283944.97, 283944.97, 0.00000037488923, 10.002755, 9.998322 
6.0494256e+2, 1.2557621e+2, -1970134.9, -1712202.5, -55499.75, -0.08831034, 0.09288369, -1700767.5, 8595.278, 0.000000021349177, 9.997714, 10.001117 
6.0495603e+2, 1.355769e+2, -1829965.6, -1645095.3, 46568.844, 0.027675066, 0.091799974, -1634027.3, -22670.754, 0.0, 9.998212, 10.000672 
6.049664e+2, 1.4557745e+2, -1706715.4, -1586803.4, -23363.72, -0.09654841, 0.104967795, -1582412.0, -69059.695, 0.0, 9.998614, 10.000201 
6.049778e+2, 1.5557788e+2, -1560901.9, -1465132.6, -29332.57, -0.018906115, 0.12713517, -1456862.8, -41513.027, 0.0, 9.9989395, 10.000206 
6.049886e+2, 1.6557807e+2, -1445502.3, -1405136.9, -35749.637, 0.018161738, 0.14777754, -1384266.3, -66916.85, 0.0, 9.999259, 9.999791 
6.049989e+2, 1.7557803e+2, -1301970.8, -1284519.1, -35391.4, 0.010228342, 0.16404061, -1256793.8, -37442.594, 0.0, 9.999569, 9.999797 
6.050093e+2, 1.8557778e+2, -1189257.0, -1216832.1, -31749.7, 0.006259614, 0.17610402, -1168430.4, -47075.477, 0.0, 9.99983, 9.999463 
6.0502e+2, 1.9557734e+2, -1058626.4, -1103905.1, -34476.137, 0.010013705, 0.183175, -1040020.8, -16660.496, 0.0, 10.000058, 9.999455 
6.050306e+2, 2.0557666e+2, -948453.7, -1059184.1, -33013.387, 0.012779223, 0.19917424, -939358.1, -13989.949, 0.0, 10.000396, 9.998927 
6.0504127e+2, 2.155758e+2, -788628.94, -931712.6, -30132.48, 0.013557832, 0.21994743, -782542.2, 44835.992, 0.0, 10.000822, 9.998924 
6.050519e+2, 2.2557461e+2, -680850.94, -878741.6, -27894.684, 0.012952499, 0.23143941, -676994.06, 52397.21, 0.0, 10.001103, 9.99848 
6.050624e+2, 2.3557311e+2, -558276.4, -767929.9, -25892.691, 0.011583462, 0.23347735, -555125.9, 76281.14, 0.0, 10.001267, 9.998488 
6.05073e+2, 2.4557164e+2, -451964.66, -691742.9, -25000.545, 0.0040048477, 0.24952082, -449385.7, 84036.78, 0.0, 10.001436, 9.998258 
6.050834e+2, 2.5557017e+2, -329492.78, -582445.9, -24167.518, -0.0088568255, 0.27529728, -327204.47, 108233.234, 0.0, 10.001606, 9.998253 
6.0509413e+2, 2.6556823e+2, -239179.27, -537391.3, -15579.662, -0.010595891, 0.27985552, -238367.53, 99090.5, 0.0, 10.001765, 9.997812 
6.0510486e+2, 2.755659e+2, -117392.6, -424499.66, -7381.7915, -0.00310761, 0.26366663, -117215.27, 122267.36, 0.0, 10.001914, 9.997843 
6.051154e+2, 2.855641e+2, 6020.0566, -302674.22, -8362.264, -0.008419217, 0.2918605, 6246.4175, 147747.78, 0.0, 10.002039, 9.997947 
6.051259e+2, 2.9556268e+2, 118755.414, -198938.44, -17892.719, -0.024377503, 0.3569675, 119759.97, 163275.03, 0.00000000003092486, 10.002146, 9.997935 
6.0513633e+2, 3.0555955e+2, 198029.64, -143203.34, -24722.363, -0.03029084, 0.25326696, 199811.47, 199811.47, 0.00000008707832, 10.002388, 9.997866 
6.051468e+2, 3.1555808e+2, 287703.94, -39134.953, -22723.672, -0.019213896, 0.31831163, 289276.25, 289276.25, 0.0000006525611, 10.002743, 9.99841 
6.149402e+2, 1.2556507e+2, -1981322.8, -1735511.9, -42386.35, -0.089883, 0.087861724, -1728408.4, -18937.344, 0.0000000039655865, 9.997715, 10.0009575 
6.149543e+2, 1.3556565e+2, -1840415.3, -1667147.0, 64611.805, 0.032559037, 0.09259974, -1645706.4, -34240.383, 0.0, 9.998213, 10.000521 
6.1496514e+2, 1.4556612e+2, -1706856.0, -1587126.1, -11389.8545, -0.08543305, 0.10508253, -1586052.3, -72589.5, 0.0, 9.998614, 10.000199 
6.1497676e+2, 1.5556654e+2, -1561236.9, -1465727.8, -17284.406, -0.011773163, 0.12584774, -1462696.0, -47235.824, 0.0, 9.9989395, 10.000202 
6.1498785e+2, 1.6556667e+2, -1447348.4, -1408915.5, -24271.398, 0.020993188, 0.14111224, -1397174.4, -79714.016, 0.0, 9.999258, 9.999765 
6.149984e+2, 1.7556652e+2, -1304029.3, -1288792.8, -24113.361, 0.009166878, 0.1490073, -1271122.9, -51659.92, 0.0, 9.999568, 9.999768 
6.150091e+2, 1.8556619e+2, -1194888.3, -1228585.3, -23381.648, 0.006382808, 0.15988761, -1182917.1, -61449.684, 0.0, 9.99983, 9.999382 
6.150201e+2, 1.955657e+2, -1063650.1, -1114412.1, -25584.158, 0.015122337, 0.17136487, -1052993.0, -29519.41, 0.0, 10.000058, 9.999384 
6.1503106e+2, 2.0556508e+2, -943208.2, -1048295.0, -17072.576, 0.02250187, 0.19004318, -940504.1, -15022.833, 0.0, 10.000396, 9.999002 
6.1504215e+2, 2.155643e+2, -783573.06, -920996.4, -14680.274, 0.027506733, 0.21213506, -782022.4, 45467.97, 0.0, 10.00082, 9.998999 
6.1505306e+2, 2.255632e+2, -676920.7, -870271.3, -21760.857, 0.019519672, 0.22641218, -674501.9, 55000.754, 0.0, 10.0011015, 9.998539 
6.150636e+2, 2.3556182e+2, -554441.75, -759793.2, -19728.021, 0.0018109183, 0.23245312, -552563.6, 78954.04, 0.0, 10.0012665, 9.998545 
6.1507434e+2, 2.455604e+2, -450087.66, -687708.5, -18725.863, -0.0028712698, 0.24917433, -448621.0, 84911.875, 0.0, 10.001435, 9.998285 
6.150852e+2, 2.555589e+2, -326977.16, -576835.75, -17905.156, 0.0026163487, 0.2727353, -325700.6, 109847.62, 0.0, 10.001604, 9.998292 
6.15096e+2, 2.6555714e+2, -222805.72, -502917.6, -10100.043, -0.0009787627, 0.27826005, -222442.02, 115124.56, 0.0, 10.001763, 9.998051 
6.1510664e+2, 2.7555507e+2, -102752.43, -393619.47, -2086.9063, -0.011835442, 0.26604787, -102737.46, 136850.11, 0.0, 10.001912, 9.998056 
6.1511743e+2, 2.855532e+2, -9084.013, -333723.97, -4643.773, -0.014360156, 0.29026777, -9017.601, 132589.36, 0.0, 10.002037, 9.997735 
6.1512816e+2, 2.955515e+2, 105099.25, -227130.66, -13390.948, -0.010449318, 0.34451354, 105638.12, 149262.95, 0.0000000010306047, 10.002145, 9.997742 
6.151388e+2, 3.0554837e+2, 210788.34, -116348.79, -11383.481, -0.018226089, 0.2443189, 211183.98, 211183.98, 0.00000016756015, 10.002386, 9.998052 
6.1514956e+2, 3.155472e+2, 298204.3, -16323.948, -9910.543, -0.026138827, 0.31996274, 298516.28, 298516.28, 0.000001002472, 10.002738, 9.9985695 
6.249382e+2, 1.2555358e+2, -1918732.3, -1713073.9, -68212.336, -0.09071898, 0.09300597, -1692506.3, 17077.004, 0.00000000008306351, 9.998178, 10.000888 
6.249527e+2, 1.3555397e+2, -1817754.9, -1663520.5, 50820.395, 0.043777708, 0.08530897, -1648280.9, -36701.023, 0.0, 9.998399, 10.000456 
6.24964e+2, 1.4555435e+2, -1697895.3, -1586068.4, -24037.24, -0.06540486, 0.0946829, -1581120.5, -67543.164, 0.0, 9.99869, 10.00017 
6.249759e+2, 1.5555486e+2, -1549512.0, -1463310.4, -32204.182, 0.0020600627, 0.12557521, -1452608.0, -37033.684, 0.0, 9.999034, 10.000174 
6.249872e+2, 1.6555496e+2, -1437092.3, -1404943.8, -41163.035, 0.028568953, 0.14122842, -1376827.8, -59253.113, 0.0, 9.999333, 9.999757 
6.2499803e+2, 1.7555474e+2, -1300277.9, -1288006.8, -39984.492, 0.01129885, 0.14145142, -1253689.9, -34111.93, 0.0, 9.9995985, 9.999759 
6.2500906e+2, 1.8555437e+2, -1185413.0, -1223618.5, -35763.99, 0.0071707224, 0.14992921, -1163969.8, -42387.09, 0.0, 9.999894, 9.999386 
6.250202e+2, 1.9555391e+2, -1040731.25, -1102723.5, -31669.45, 0.017495317, 0.16330111, -1027413.56, -3824.8953, 0.0, 10.000213, 9.999389 
6.2503153e+2, 2.0555331e+2, -933330.94, -1037971.9, -20803.553, 0.025220025, 0.18368436, -929346.75, -3750.7979, 0.0, 10.00044, 9.999052 
6.250429e+2, 2.1555261e+2, -812879.1, -929609.3, -20593.19, 0.0296184, 0.20736717, -809352.7, 18251.709, 0.0, 10.000596, 9.999047 
6.2505394e+2, 2.255516e+2, -716830.4, -884814.7, -32129.17, 0.019596094, 0.22579452, -710895.0, 18721.088, 0.0, 10.000808, 9.99858 
6.2506473e+2, 2.3555031e+2, -581187.56, -767942.4, -31430.389, -0.0012885327, 0.23807052, -576039.75, 55590.727, 0.0, 10.001062, 9.998587 
6.250757e+2, 2.455489e+2, -473133.5, -692238.75, -31934.125, -0.005412008, 0.2523231, -468574.06, 65071.457, 0.0, 10.001248, 9.998344 
6.2508667e+2, 2.555474e+2, -355748.2, -583694.5, -28923.268, 0.003663738, 0.26608473, -352135.5, 83525.59, 0.0, 10.001377, 9.998355 
6.250976e+2, 2.6554573e+2, -248546.94, -502565.34, -24551.379, 0.00035148466, 0.27148473, -246195.77, 91482.625, 0.0, 10.001532, 9.998164 
6.251085e+2, 2.7554387e+2, -124967.74, -392484.28, -25654.38, -0.012891611, 0.2673246, -122529.74, 117167.48, 0.0, 10.001708, 9.998162 
6.251194e+2, 2.8554198e+2, -30133.598, -346177.1, -24811.586, -0.013953872, 0.289787, -28197.578, 113518.86, 0.0, 10.001903, 9.997714 
6.2513036e+2, 2.9554015e+2, 99136.5, -231851.73, -19489.787, -0.0053961338, 0.33407634, 100280.18, 144015.94, 0.000000004235602, 10.002112, 9.997725 
6.2514126e+2, 3.0553713e+2, 202344.13, -115829.92, -12922.944, -0.014475464, 0.24141243, 202868.13, 202868.13, 0.000000262113, 10.002309, 9.998092 
6.251521e+2, 3.1553617e+2, 265047.8, -30347.512, -22210.87, -0.02847748, 0.33444625, 266708.53, 266708.53, 0.0000013873902, 10.002502, 9.998587 
6.3493633e+2, 1.2554172e+2, -1916589.6, -1709236.5, -65463.42, -0.091850504, 0.10840226, -1690298.6, 19401.05, 0.0, 9.99818, 10.000913 
6.349513e+2, 1.3554184e+2, -1815905.0, -1660078.1, 58924.56, 0.06132895, 0.069799736, -1640305.3, -28607.186, 0.0, 9.998401, 10.000479 
6.34963e+2, 1.4554214e+2, -1701944.9, -1594445.8, -11336.868, -0.036453586, 0.073557325, -1593263.1, -79567.016, 0.0, 9.998689, 10.000113 
6.349751e+2, 1.555428e+2, -1553378.5, -1471303.4, -19702.006, 0.022411149, 0.12630956, -1466819.0, -51126.99, 0.0, 9.999033, 10.000118 
6.3498664e+2, 1.6554296e+2, -1436728.0, -1404135.1, -31429.148, 0.04066133, 0.14820224, -1385028.6, -67336.43, 0.0, 9.999332, 9.999763 
6.3499767e+2, 1.7554265e+2, -1299662.3, -1286644.9, -30035.248, 0.016530322, 0.14140035, -1262421.1, -42725.1, 0.0, 9.999598, 9.999768 
6.35009e+2, 1.8554232e+2, -1179402.4, -1211117.5, -23927.156, 0.008553759, 0.14623196, -1166555.0, -44854.492, 0.0, 9.999893, 9.999472 
6.3502043e+2, 1.9554192e+2, -1034962.44, -1090765.0, -20119.482, 0.01705264, 0.1589851, -1028465.0, -4759.5146, 0.0, 10.000213, 9.999472 
6.3503194e+2, 2.055414e+2, -931695.5, -1034635.1, -15115.775, 0.020872477, 0.18009037, -929521.8, -3809.6687, 0.0, 10.00044, 9.999075 
6.350434e+2, 2.1554074e+2, -811340.94, -926470.2, -14560.646, 0.01990645, 0.20561828, -809527.94, 18192.443, 0.0, 10.000596, 9.999069 
6.350547e+2, 2.2553979e+2, -715117.94, -881203.2, -22595.924, 0.01309688, 0.22949046, -712098.6, 17632.992, 0.0, 10.000807, 9.998606 
6.3506585e+2, 2.3553862e+2, -579346.25, -763902.5, -22068.443, 0.0020194096, 0.25014758, -576744.1, 55001.35, 0.0, 10.001061, 9.998615 
6.350769e+2, 2.4553722e+2, -467176.66, -679802.6, -27193.945, -0.003807583, 0.2589118, -463753.78, 70006.6, 0.0, 10.001248, 9.99843 
6.3508797e+2, 2.5553563e+2, -349822.4, -571674.1, -24081.252, -0.0055286675, 0.2556564, -347238.56, 88537.77, 0.0, 10.001378, 9.998437 
6.3509905e+2, 2.6553395e+2, -248719.0, -503216.66, -18040.117, -0.0065710424, 0.2598508, -247446.58, 90346.8, 0.0, 10.001533, 9.998159 
6.3511026e+2, 2.755322e+2, -124890.516, -392158.28, -19025.05, -0.0068321438, 0.2674779, -123543.04, 116268.4, 0.0, 10.001707, 9.998165 
6.3512135e+2, 2.8553042e+2, -19320.107, -323235.0, -17049.957, -0.0076461355, 0.2903154, -18366.578, 123463.1, 0.0, 10.001901, 9.997872 
6.3513243e+2, 2.9552868e+2, 109046.81, -210495.48, -11874.087, -0.00895973, 0.3257404, 109487.44, 153335.27, 0.000000008608103, 10.002109, 9.997873 
6.351435e+2, 3.0552578e+2, 195159.28, -130066.64, -5987.682, -0.018862179, 0.24438354, 195269.48, 195269.48, 0.00000035003856, 10.002306, 9.997996 
6.351546e+2, 3.1552497e+2, 256532.72, -47561.46, -15113.362, -0.026943048, 0.3602654, 257282.0, 257282.0, 0.0000017531521, 10.0025, 9.998469 
6.4493483e+2, 1.2552945e+2, -1888440.5, -1698525.3, -71271.7, -0.07382698, 0.09770496, -1674753.8, 35065.73, 0.0, 9.998386, 10.000887 
6.449499e+2, 1.3552962e+2, -1778894.1, -1644508.1, 54100.746, 0.07003883, 0.06447229, -1625435.4, -13618.043, 0.0, 9.998664, 10.000459 
6.4496183e+2, 1.4552987e+2, -1675762.8, -1587040.5, -16471.676, -0.02479701, 0.065498255, -1584081.3, -70265.39, 0.0, 9.998891, 10.000066 
6.4497423e+2, 1.5553044e+2, -1548396.8, -1473736.8, -23998.78, 0.030007465, 0.11513355, -1466688.0, -50875.496, 0.0, 9.999088, 10.000075 
6.4498603e+2, 1.6553058e+2, -1434307.3, -1399352.4, -34245.11, 0.04542825, 0.1376559, -1378382.6, -60569.793, 0.0, 9.999333, 9.999795 
6.449973e+2, 1.7553036e+2, -1295058.4, -1280942.6, -31004.576, 0.020919492, 0.13441728, -1256202.8, -36386.676, 0.0, 9.999615, 9.9998 
6.4500886e+2, 1.855301e+2, -1177677.8, -1205207.5, -25101.385, 0.011696704, 0.14266798, -1162814.8, -40994.914, 0.0, 9.999884, 9.9995165 
6.450206e+2, 1.9552977e+2, -1041367.25, -1089088.8, -24783.594, 0.017714363, 0.15886568, -1030825.06, -7001.0166, 0.0, 10.000148, 9.999514 
6.450323e+2, 2.0552929e+2, -942394.06, -1037451.7, -26069.662, 0.02049953, 0.17970872, -935713.9, -9883.376, 0.0, 10.000357, 9.999096 
6.4504397e+2, 2.1552859e+2, -821024.6, -928628.7, -25562.412, 0.019926889, 0.20192851, -815260.75, 12578.3, 0.0, 10.000519, 9.999091 
6.450554e+2, 2.2552769e+2, -726908.6, -878754.8, -29696.924, 0.013100094, 0.22470108, -721307.3, 8542.652, 0.0, 10.000691, 9.998678 
6.450668e+2, 2.3552659e+2, -601968.7, -766784.9, -25700.27, 0.0013809808, 0.24595907, -598054.1, 33808.883, 0.0, 10.000872, 9.998687 
6.450781e+2, 2.4552529e+2, -480886.03, -680166.9, -30259.41, -0.004935907, 0.256739, -476392.7, 57484.496, 0.0, 10.001127, 9.998486 
6.450893e+2, 2.555238e+2, -336776.9, -559599.1, -29788.62, -0.006869801, 0.2567806, -332863.28, 103029.08, 0.0, 10.001443, 9.998488 
6.451006e+2, 2.6552212e+2, -239535.77, -500086.63, -29509.75, -0.007462035, 0.26188126, -236235.33, 101674.016, 0.0, 10.001602, 9.998148 
6.4511186e+2, 2.7552035e+2, -136193.19, -398160.88, -30888.982, -0.006723095, 0.2681339, -132600.31, 107327.63, 0.0, 10.001633, 9.998159 
6.451232e+2, 2.8551865e+2, -37057.46, -321138.7, -28724.104, -0.004236254, 0.292744, -34182.203, 107763.305, 0.0, 10.001733, 9.997968 
6.451345e+2, 2.9551703e+2, 83785.375, -212534.63, -28208.102, -0.00027880946, 0.33295068, 86446.734, 130408.7, 0.000000011710588, 10.001892, 9.997964 
6.4514583e+2, 3.055142e+2, 167615.86, -141311.86, -18523.025, -0.010164636, 0.25087193, 168722.52, 168722.52, 0.00000040808163, 10.002108, 9.998014 
6.451571e+2, 3.1551328e+2, 237935.89, -56978.164, -19601.484, -0.022403346, 0.3555503, 239233.0, 239233.0, 0.0000020407565, 10.002374, 9.998466 
6.549335e+2, 1.2551679e+2, -1893768.4, -1709897.8, -65660.29, -0.036799297, 0.059379365, -1688857.9, 21084.879, 0.0, 9.998387, 10.000808 
6.5494853e+2, 1.355173e+2, -1783264.5, -1654089.8, 63934.023, 0.069520436, 0.06951369, -1627797.6, -15860.295, 0.0, 9.998666, 10.000393 
6.549607e+2, 1.455175e+2, -1678219.9, -1592252.8, -9516.299, -0.031023102, 0.07086575, -1591212.0, -77275.66, 0.0, 9.998892, 10.0000305 
6.5497327e+2, 1.5551776e+2, -1550641.4, -1478330.6, -16620.168, 0.024702312, 0.092047594, -1474693.5, -58757.57, 0.0, 9.999088, 10.000044 
6.5498537e+2, 1.6551787e+2, -1430410.1, -1391184.9, -23833.822, 0.042830355, 0.10948635, -1379931.5, -61995.1, 0.0, 9.999333, 9.999851 
6.5499693e+2, 1.7551784e+2, -1291405.8, -1273297.0, -20650.646, 0.024208836, 0.120416716, -1259803.0, -39865.074, 0.0, 9.999614, 9.999852 
6.550088e+2, 1.855177e+2, -1177549.1, -1204920.8, -15388.544, 0.016366443, 0.13922665, -1170641.0, -48700.44, 0.0, 9.999884, 9.999519 
6.550208e+2, 1.9551747e+2, -1041297.5, -1088905.1, -15148.043, 0.01941574, 0.16295858, -1036886.3, -12941.982, 0.0, 10.000148, 9.999516 
6.550327e+2, 2.0551696e+2, -941139.0, -1034900.2, -20106.049, 0.024005601, 0.1825402, -937009.4, -11058.294, 0.0, 10.000357, 9.999113 
6.5504456e+2, 2.1551622e+2, -819396.1, -925482.25, -19487.738, 0.02946018, 0.19631864, -815929.56, 12030.784, 0.0, 10.00052, 9.999113 
6.5505624e+2, 2.2551532e+2, -718527.2, -861602.56, -22960.61, 0.019444134, 0.21161085, -714932.8, 15038.272, 0.0, 10.000692, 9.9987955 
6.550676e+2, 2.3551427e+2, -593965.06, -750394.3, -18694.074, -0.0031956076, 0.22600469, -591762.06, 40221.082, 0.0, 10.000873, 9.998799 
6.550792e+2, 2.4551311e+2, -479234.7, -676682.75, -18499.26, -0.008882606, 0.24602838, -477516.4, 56479.445, 0.0, 10.001127, 9.998509 
6.550908e+2, 2.5551185e+2, -335730.84, -556866.2, -18579.475, -0.00076682586, 0.26892132, -334180.7, 101828.516, 0.0, 10.00144, 9.998508 
6.5510225e+2, 2.6551026e+2, -241329.86, -503244.53, -28478.596, -0.0026358278, 0.2770293, -238269.1, 99757.23, 0.0, 10.001599, 9.998128 
6.5511346e+2, 2.755083e+2, -137501.66, -400558.3, -29501.822, -0.012418781, 0.2694808, -134233.63, 105813.02, 0.0, 10.001631, 9.998144 
6.5512496e+2, 2.8550667e+2, -34875.04, -316382.97, -22860.441, -0.0038085612, 0.29714882, -33030.69, 109033.16, 0.0, 10.001732, 9.998001 
6.551366e+2, 2.9550526e+2, 86059.6, -207565.84, -22054.52, 0.019827228, 0.35478482, 87706.9, 131785.1, 0.000000011654482, 10.00189, 9.997998 
6.551481e+2, 3.0550236e+2, 175978.47, -123592.94, -8559.494, 0.010728135, 0.2607171, 176222.83, 176222.83, 0.00000041978168, 10.002106, 9.9981365 
6.5515953e+2, 3.1550112e+2, 244276.23, -42974.844, -9800.019, -0.0153962, 0.32188192, 244610.19, 244610.19, 0.0000022012798, 10.00237, 9.998564 
6.6493237e+2, 1.2550431e+2, -1833259.5, -1692483.8, -71113.89, -0.018116957, 0.055062406, -1662813.4, 47251.32, 0.0, 9.998854, 10.000702 
6.6494745e+2, 1.3550483e+2, -1741216.1, -1643616.6, 60426.902, 0.07696956, 0.07400298, -1614745.1, -2685.684, 0.0, 9.998997, 10.000305 
6.649598e+2, 1.4550494e+2, -1645172.8, -1576928.8, -14425.052, -0.020334788, 0.07090401, -1574005.0, -59945.723, 0.0, 9.999121, 10.000025 
6.649725e+2, 1.5550509e+2, -1528509.0, -1468166.8, -18939.488, 0.029755604, 0.08319321, -1462714.9, -46655.305, 0.0, 9.999242, 10.000039 
6.6498476e+2, 1.6550522e+2, -1412731.0, -1381647.4, -22762.873, 0.045285374, 0.10149102, -1369626.6, -51566.637, 0.0, 9.99945, 9.999861 
6.649966e+2, 1.755053e+2, -1273946.6, -1263915.4, -23458.67, 0.027573438, 0.12119646, -1244942.3, -24881.547, 0.0, 9.99973, 9.999861 
6.650087e+2, 1.8550517e+2, -1168658.6, -1199004.4, -21911.691, 0.020329775, 0.14053172, -1157179.4, -35116.15, 0.0, 9.999937, 9.999534 
6.6502094e+2, 1.9550489e+2, -1049143.3, -1091038.5, -20767.334, 0.023378422, 0.15799463, -1040593.7, -16526.348, 0.0, 10.000087, 9.99953 
6.6503304e+2, 2.0550439e+2, -945457.3, -1033158.44, -23974.563, 0.026121069, 0.17673321, -939331.4, -13257.422, 0.0, 10.00031, 9.999147 
6.650451e+2, 2.1550372e+2, -805462.0, -914660.56, -22317.777, 0.028268473, 0.19427253, -801076.8, 27005.807, 0.0, 10.000598, 9.999149 
6.650569e+2, 2.255029e+2, -696974.8, -841312.0, -28966.344, 0.017141493, 0.21026485, -691378.6, 38713.97, 0.0, 10.000797, 9.998884 
6.650685e+2, 2.355019e+2, -580487.0, -734423.94, -26802.016, -0.004756319, 0.22275323, -575953.94, 56149.82, 0.0, 10.000925, 9.998883 
6.6508025e+2, 2.455008e+2, -490777.84, -681087.6, -26084.857, -0.0067909723, 0.2439396, -487267.28, 46848.816, 0.0, 10.001043, 9.99852 
6.6509223e+2, 2.554996e+2, -376574.6, -575106.7, -27397.477, 0.007382051, 0.27051988, -372863.13, 63266.29, 0.0, 10.001154, 9.998521 
6.6510373e+2, 2.6549807e+2, -279497.28, -514017.4, -37858.58, 0.005137071, 0.28171247, -273537.25, 64608.695, 0.0, 10.001305, 9.998195 
6.65115e+2, 2.754962e+2, -153866.36, -401293.03, -32532.31, -0.010433618, 0.27685404, -149660.42, 90504.82, 0.0, 10.001489, 9.998207 
6.6512656e+2, 2.8549457e+2, -45249.207, -321234.16, -22670.148, -0.0028108745, 0.30172208, -43399.418, 98782.91, 0.0, 10.00166, 9.998002 
6.651385e+2, 2.9549307e+2, 76857.34, -211432.9, -24190.258, 0.02374207, 0.35164016, 78873.04, 123070.43, 0.000000008469742, 10.001825, 9.998003 
6.651502e+2, 3.054902e+2, 165398.36, -117903.91, -10968.391, 0.021068117, 0.25440085, 165822.38, 165822.38, 0.00000038345433, 10.001987, 9.998233 
6.6516197e+2, 3.1548902e+2, 216596.94, -48213.47, -14377.485, 0.0049168975, 0.31070578, 217375.25, 217375.25, 0.000002213461, 10.002146, 9.998635 
6.749312e+2, 1.2549207e+2, -1842173.4, -1711807.6, -70015.42, -0.01980724, 0.08539059, -1681329.9, 28855.332, 0.0, 9.9988575, 10.000568 
6.7494655e+2, 1.354922e+2, -1748460.8, -1659421.1, 65266.668, 0.092419535, 0.07791386, -1624936.1, -12752.532, 0.0, 9.999, 10.0001955 
6.749592e+2, 1.4549217e+2, -1643308.3, -1573420.3, -10237.825, 0.007545061, 0.0652762, -1571951.4, -57766.66, 0.0, 9.999123, 10.000048 
6.749719e+2, 1.5549248e+2, -1527016.1, -1465127.5, -14284.312, 0.044899426, 0.08867422, -1461989.6, -45806.25, 0.0, 9.999242, 10.00006 
6.749843e+2, 1.6549265e+2, -1415581.0, -1387463.8, -12405.587, 0.052422967, 0.11389521, -1382772.9, -64589.58, 0.0, 9.99945, 9.999821 
6.749964e+2, 1.7549272e+2, -1276567.6, -1269346.4, -13340.169, 0.030960033, 0.13687922, -1259136.8, -38952.56, 0.0, 9.999729, 9.999824 
6.7500865e+2, 1.8549249e+2, -1166803.8, -1195300.3, -16495.572, 0.023530342, 0.14666535, -1159254.8, -37067.152, 0.0, 9.999938, 9.999559 
6.7502105e+2, 1.9549203e+2, -1047161.94, -1087128.4, -15064.552, 0.029384011, 0.14403857, -1042119.75, -17926.729, 0.0, 10.000088, 9.999557 
6.7503333e+2, 2.0549159e+2, -941910.3, -1026009.3, -13290.103, 0.026722169, 0.16230091, -939860.06, -13660.915, 0.0, 10.000311, 9.999196 
6.750456e+2, 2.1549112e+2, -801952.6, -907435.94, -11867.308, 0.016413003, 0.19572963, -800634.0, 27571.973, 0.0, 10.000598, 9.999199 
6.750576e+2, 2.2549044e+2, -692829.44, -832731.4, -24241.906, 0.0061706034, 0.22045124, -688747.9, 41466.723, 0.0, 10.000797, 9.998943 
6.750694e+2, 2.3548953e+2, -576513.06, -726306.5, -22115.164, -0.003540062, 0.23571083, -573316.25, 58908.723, 0.0, 10.000925, 9.9989395 
6.750814e+2, 2.4548839e+2, -491075.5, -681866.7, -22037.256, 0.0010405694, 0.25023884, -488563.2, 45674.63, 0.0, 10.001043, 9.998514 
6.750935e+2, 2.5548702e+2, -376388.97, -574743.7, -23175.156, 0.017392816, 0.26209438, -373717.25, 62535.613, 0.0, 10.001153, 9.998524 
6.7510515e+2, 2.6548558e+2, -269036.6, -492164.72, -31082.459, 0.015590383, 0.27637443, -264787.63, 73480.54, 0.0, 10.001304, 9.998345 
6.751166e+2, 2.754841e+2, -144285.38, -381117.53, -25866.049, -0.0012579728, 0.28979805, -141493.3, 98790.49, 0.0, 10.001487, 9.998347 
6.751283e+2, 2.8548238e+2, -47769.15, -326085.8, -16808.004, -0.0014149745, 0.30635536, -46757.758, 95543.25, 0.0, 10.001658, 9.99797 
6.751402e+2, 2.9548055e+2, 74691.3, -215539.13, -18175.814, 0.012222414, 0.3250294, 75825.14, 120144.586, 0.0000000040864183, 10.001823, 9.997976 
6.7515224e+2, 3.054778e+2, 170171.31, -107779.86, -5208.486, 0.021272851, 0.23287062, 170268.88, 170268.88, 0.0000003121116, 10.0019865, 9.998302 
6.751644e+2, 3.1547695e+2, 219878.28, -41447.35, -8632.957, 0.037202317, 0.32006735, 220163.16, 220163.16, 0.0000020895884, 10.002146, 9.998682 
6.849303e+2, 1.2547952e+2, -1815887.5, -1705705.0, -78333.734, -0.007118817, 0.09634103, -1665029.8, 45278.797, 0.0, 9.999067, 10.000509 
6.849457e+2, 1.3547952e+2, -1736245.4, -1657840.1, 65962.21, 0.09966928, 0.080360346, -1620310.4, -8002.033, 0.0, 9.999102, 10.000156 
6.849585e+2, 1.4547944e+2, -1631455.4, -1569720.3, -6235.7656, 0.022515051, 0.0649242, -1569096.6, -54786.805, 0.0, 9.999213, 10.00003 
6.849713e+2, 1.5547982e+2, -1505117.3, -1456830.0, -13343.376, 0.05439375, 0.096850075, -1453388.1, -37080.34, 0.0, 9.999403, 10.00004 
6.8498385e+2, 1.6547996e+2, -1395071.0, -1381928.0, -9558.579, 0.05736801, 0.12267993, -1376899.9, -58591.98, 0.0, 9.999609, 9.999782 
6.849962e+2, 1.7547992e+2, -1264514.0, -1267468.9, -10528.77, 0.033395138, 0.1394679, -1255359.5, -35049.547, 0.0, 9.999829, 9.999788 
6.8500865e+2, 1.8547967e+2, -1144367.0, -1181438.0, -14900.055, 0.024014393, 0.14618169, -1139120.6, -16807.197, 0.0, 10.000079, 9.999586 
6.850212e+2, 1.9547923e+2, -1006280.44, -1064336.3, -13504.592, 0.027891954, 0.14306442, -1003292.8, 21025.486, 0.0, 10.000355, 9.999584 
6.850337e+2, 2.0547877e+2, -911659.94, -1009671.8, -14509.821, 0.021555936, 0.158716, -909557.0, 16767.264, 0.0, 10.000511, 9.999211 
6.85046e+2, 2.1547829e+2, -804890.75, -906959.56, -15606.646, 0.0062502897, 0.1877312, -802557.75, 25773.643, 0.0, 10.000569, 9.999216 
6.850583e+2, 2.2547764e+2, -705548.3, -835817.94, -30971.037, 0.0001423318, 0.21457215, -698560.0, 31779.799, 0.0, 10.000697, 9.99897 
6.850704e+2, 2.3547684e+2, -580892.7, -725330.44, -31506.89, 0.0020263584, 0.23755613, -574319.1, 58030.2, 0.0, 10.000882, 9.998967 
6.8508244e+2, 2.4547577e+2, -491232.2, -675182.25, -31934.174, 0.007483265, 0.25524074, -485846.03, 48515.465, 0.0, 10.001014, 9.998574 
6.8509454e+2, 2.5547448e+2, -380029.2, -570099.6, -28184.744, 0.015899174, 0.266323, -375937.84, 60438.06, 0.0, 10.0011015, 9.998581 
6.8510646e+2, 2.65473e+2, -282293.9, -499468.9, -38158.02, 0.015374997, 0.2761464, -275784.6, 62606.76, 0.0, 10.001217, 9.998337 
6.851181e+2, 2.7547142e+2, -163762.69, -391170.5, -44634.586, 0.007449183, 0.28184104, -155315.77, 85092.04, 0.0, 10.001356, 9.998341 
6.8512994e+2, 2.8546977e+2, -63501.613, -326233.44, -36460.16, 0.008062061, 0.2975226, -58535.777, 83888.984, 0.0, 10.001519, 9.998035 
6.85142e+2, 2.9546806e+2, 61543.426, -214540.28, -30619.254, 0.015823627, 0.3214075, 64898.504, 109340.484, 0.0000000009738006, 10.001701, 9.998041 
6.8515426e+2, 3.0546534e+2, 165510.25, -102237.82, -13447.551, 0.027490867, 0.23184519, 166183.95, 166183.95, 0.00000022618863, 10.001921, 9.998372 
6.851668e+2, 3.1546453e+2, 227333.5, -32707.406, -17132.313, 0.053148087, 0.3129319, 228457.38, 228457.38, 0.0000018662819, 10.002174, 9.998728 
6.949296e+2, 1.2546666e+2, -1814430.8, -1703390.5, -80451.71, 0.019412963, 0.08683809, -1661161.1, 49273.785, 0.0, 9.999069, 10.000524 
6.9494474e+2, 1.354668e+2, -1733880.8, -1653245.0, 67082.125, 0.098216206, 0.08142361, -1615297.0, -2863.6462, 0.0, 9.999103, 10.000188 
6.949577e+2, 1.4546674e+2, -1635900.3, -1578884.1, 637.7699, 0.023949957, 0.07017785, -1578877.0, -64442.375, 0.0, 9.999212, 9.999968 
6.949707e+2, 1.5546711e+2, -1509505.8, -1466181.9, -6246.983, 0.057993274, 0.107678816, -1465299.0, -48866.348, 0.0, 9.999403, 9.999975 
6.949835e+2, 1.6546714e+2, -1397719.0, -1387701.9, -1408.9801, 0.06000671, 0.1277201, -1387507.4, -69073.664, 0.0, 9.99961, 9.999742 
6.9499606e+2, 1.7546691e+2, -1267036.3, -1272678.0, -2312.955, 0.03466811, 0.12890665, -1266209.3, -45771.605, 0.0, 9.999829, 9.999753 
6.9500875e+2, 1.8546669e+2, -1142471.9, -1177438.4, -4701.6523, 0.021611473, 0.1389617, -1141850.8, -19410.057, 0.0, 10.000078, 9.999614 
6.950215e+2, 1.9546646e+2, -1004458.75, -1060600.6, -3618.0251, 0.018910287, 0.15491325, -1004226.56, 20216.611, 0.0, 10.000355, 9.99961 
6.9503415e+2, 2.0546597e+2, -912767.44, -1012153.6, -12477.242, 0.010582182, 0.16596611, -911225.0, 15224.408, 0.0, 10.000512, 9.999194 
6.950465e+2, 2.154652e+2, -805897.1, -909317.7, -13250.318, -0.0023975924, 0.17049721, -804226.5, 24232.383, 0.0, 10.00057, 9.999199 
6.9505894e+2, 2.2546451e+2, -705851.0, -836723.1, -24011.54, -0.001161859, 0.19293101, -701584.56, 28883.379, 0.0, 10.000698, 9.998963 
6.9507134e+2, 2.3546384e+2, -580912.2, -725626.94, -24718.805, 0.011746935, 0.22864184, -576806.44, 55670.387, 0.0, 10.000882, 9.998964 
6.9508356e+2, 2.4546295e+2, -482483.78, -657323.9, -28717.258, 0.012498964, 0.25902656, -477887.8, 56599.28, 0.0, 10.001015, 9.998696 
6.9509554e+2, 2.554619e+2, -372159.0, -554131.3, -24930.09, 0.003213717, 0.2826812, -368805.4, 67693.18, 0.0, 10.001102, 9.99869 
6.951075e+2, 2.6546028e+2, -293467.75, -523072.5, -33120.723, 0.0047497572, 0.28087568, -288785.53, 49729.918, 0.0, 10.001218, 9.998175 
6.951195e+2, 2.7545822e+2, -173972.89, -412683.1, -39328.176, 0.0155778155, 0.25409785, -167660.39, 72876.68, 0.0, 10.001357, 9.998193 
6.9513166e+2, 2.8545663e+2, -52273.016, -303051.0, -29584.434, 0.025124745, 0.2759292, -48830.188, 93723.195, 0.0, 10.001519, 9.998195 
6.951439e+2, 2.954555e+2, 72231.46, -192287.55, -23669.1, 0.033707656, 0.33936578, 74332.67, 118897.69, 0.000000000021633938, 10.001701, 9.998195 
6.951563e+2, 3.0545288e+2, 170068.72, -92588.27, -4160.501, 0.03936806, 0.25011826, 170134.61, 170134.61, 0.00000014519733, 10.00192, 9.998439 
6.95169e+2, 3.154517e+2, 230136.66, -26565.184, -7899.1377, 0.053348407, 0.28990987, 230379.5, 230379.5, 0.0000015881137, 10.002173, 9.998771 
7.04929e+2, 1.2545383e+2, -1810626.9, -1711142.1, -73760.55, 0.048272498, 0.07697939, -1671918.6, 38641.758, 0.0, 9.999138, 10.000437 
7.0494395e+2, 1.3545407e+2, -1695180.8, -1641453.4, 68512.51, 0.096256904, 0.08817351, -1594726.1, 17832.246, 0.0, 9.999398, 10.000126 
7.0495707e+2, 1.4545399e+2, -1585934.4, -1559026.3, 322.53595, 0.022772435, 0.078445345, -1559022.4, -44462.28, 0.0, 9.999574, 9.999929 
7.0497024e+2, 1.5545423e+2, -1468455.1, -1450648.8, -4304.075, 0.056912854, 0.1101368, -1449663.0, -33104.113, 0.0, 9.999703, 9.999937 
7.049832e+2, 1.6545422e+2, -1362183.5, -1375359.1, 3174.5012, 0.059032768, 0.1272147, -1361458.5, -42898.02, 0.0, 9.999875, 9.999699 
7.04996e+2, 1.7545393e+2, -1233441.4, -1260989.6, 1876.3806, 0.03495368, 0.1277548, -1233314.1, -12749.2705, 0.0, 10.000079, 9.999712 
7.0500886e+2, 1.8545368e+2, -1118866.4, -1165595.6, -2033.3491, 0.0209077, 0.13698862, -1118778.0, 3790.0608, 0.0, 10.000238, 9.999618 
7.050218e+2, 1.9545346e+2, -1003009.1, -1059424.5, -2974.5286, 0.014864686, 0.15194987, -1002852.75, 21717.678, 0.0, 10.000363, 9.999614 
7.0503455e+2, 2.0545298e+2, -913140.4, -1009687.5, -14641.156, 0.005995557, 0.1628165, -910968.9, 15607.456, 0.0, 10.000498, 9.999218 
7.0504713e+2, 2.1545225e+2, -794173.75, -901356.75, -12479.404, -0.004879524, 0.16784482, -792739.94, 35845.508, 0.0, 10.000641, 9.99922 
7.0505965e+2, 2.2545153e+2, -695248.4, -833463.3, -20349.994, -0.0025717786, 0.18844458, -692314.44, 38280.297, 0.0, 10.000779, 9.998947 
7.050722e+2, 2.3545079e+2, -577639.2, -725908.44, -21880.3, 0.010352337, 0.22031671, -574477.7, 58126.54, 0.0, 10.000914, 9.998948 
7.0508456e+2, 2.4544992e+2, -478092.53, -656198.9, -33119.1, 0.010984647, 0.25206047, -472133.38, 62481.203, 0.0, 10.001049, 9.998688 
7.050966e+2, 2.554489e+2, -360617.72, -549554.9, -39057.527, 0.001466495, 0.28139922, -352862.03, 83763.63, 0.0, 10.001186, 9.998681 
7.0510876e+2, 2.654473e+2, -280009.9, -516341.0, -44695.57, 0.0054305834, 0.279547, -271839.44, 66803.16, 0.0, 10.00131, 9.998177 
7.05121e+2, 2.7544516e+2, -164193.38, -407592.84, -38894.504, 0.02094883, 0.2480671, -158129.23, 82535.36, 0.0, 10.001423, 9.998196 
7.0513326e+2, 2.854436e+2, -46264.445, -296307.0, -27628.762, 0.032787662, 0.26943234, -43247.96, 99432.6, 0.0, 10.001544, 9.998229 
7.0514566e+2, 2.954425e+2, 70709.07, -189144.84, -30663.918, 0.041607127, 0.3356595, 74278.516, 118969.81, 0.0, 10.001675, 9.998229 
7.051582e+2, 3.0543992e+2, 164655.58, -90229.44, -12985.136, 0.04560559, 0.24264623, 165315.4, 165315.4, 0.00000008201181, 10.001862, 9.998484 
7.051711e+2, 3.1543863e+2, 220461.28, -28630.496, -18388.63, 0.0565857, 0.26579547, 221811.47, 221811.47, 0.0000012936833, 10.002095, 9.998795 
7.149284e+2, 1.2544106e+2, -1824182.0, -1739186.8, -66141.13, 0.07840173, 0.06664268, -1703067.0, 7617.843, 0.0, 9.999137, 10.000245 
7.1494335e+2, 1.3544136e+2, -1705935.5, -1664468.8, 77623.08, 0.093391694, 0.10050893, -1604857.8, 7825.5015, 0.0, 9.999401, 9.999968 
7.149566e+2, 1.4544117e+2, -1586550.5, -1560999.3, 4807.5464, 0.018617762, 0.0894611, -1560124.6, -45438.414, 0.0, 9.999577, 9.999914 
7.149699e+2, 1.5544125e+2, -1469356.8, -1452773.1, 570.92267, 0.05091618, 0.104168236, -1452753.5, -36067.176, 0.0, 9.999704, 9.999922 
7.14983e+2, 1.6544119e+2, -1365402.6, -1382121.6, 10731.019, 0.05422865, 0.121138155, -1360159.4, -41471.227, 0.0, 9.999875, 9.999652 
7.1499604e+2, 1.7544101e+2, -1236658.6, -1267795.3, 9271.935, 0.03403674, 0.1359814, -1234106.8, -13415.168, 0.0, 10.00008, 9.999665 
7.150091e+2, 1.8544067e+2, -1120282.4, -1168734.8, 2442.989, 0.021703511, 0.14032553, -1120159.5, 2536.105, 0.0, 10.000239, 9.999596 
7.1502215e+2, 1.9544022e+2, -1004180.0, -1062010.9, 1624.0198, 0.01556483, 0.13430205, -1004134.44, 20565.545, 0.0, 10.000363, 9.999596 
7.15035e+2, 2.054398e+2, -908778.7, -1000824.3, -9383.726, 0.0076024234, 0.14924325, -907831.75, 18873.377, 0.0, 10.000499, 9.999279 
7.150478e+2, 2.1543938e+2, -790111.9, -893210.94, -7204.83, -0.0014061731, 0.17943163, -789610.8, 39100.316, 0.0, 10.000642, 9.999275 
7.150604e+2, 2.2543867e+2, -697056.1, -837496.0, -15408.556, -0.0041961847, 0.2008243, -695385.44, 35334.61, 0.0, 10.00078, 9.998919 
7.15073e+2, 2.3543774e+2, -579710.0, -730486.5, -16841.059, -0.0019163307, 0.21260618, -577851.8, 54879.73, 0.0, 10.000915, 9.998916 
7.150855e+2, 2.4543665e+2, -487630.8, -676190.8, -28078.996, 0.0029913269, 0.23463477, -483538.3, 51205.563, 0.0, 10.00105, 9.99855 
7.150979e+2, 2.554355e+2, -369387.28, -567850.5, -33962.918, 0.010081864, 0.2631747, -363736.13, 73020.875, 0.0, 10.001186, 9.998555 
7.1511024e+2, 2.6543403e+2, -268773.84, -493202.38, -40462.613, 0.016895765, 0.27239263, -261701.63, 77071.01, 0.0, 10.00131, 9.998335 
7.151224e+2, 2.754323e+2, -153629.89, -386051.2, -34656.895, 0.023659999, 0.26261193, -148572.19, 92218.29, 0.0, 10.001425, 9.998343 
7.1513474e+2, 2.8543067e+2, -51906.164, -308538.38, -22896.383, 0.031362876, 0.2772512, -49879.387, 92927.02, 0.0, 10.001546, 9.998144 
7.1514726e+2, 2.9542917e+2, 65431.12, -200673.88, -25601.14, 0.03973933, 0.31161073, 67871.74, 112692.42, 0.0, 10.001677, 9.998149 
7.1516e+2, 3.0542645e+2, 166541.19, -86693.13, -4091.1492, 0.046182223, 0.21104169, 166607.27, 166607.27, 0.00000004119849, 10.001863, 9.9985075 
7.1517324e+2, 3.1542528e+2, 220588.3, -28064.965, -9631.185, 0.062261656, 0.24022418, 220960.78, 220960.78, 0.0000010048329, 10.002093, 9.998799 
7.2492766e+2, 1.2542811e+2, -1801021.0, -1734851.5, -78421.77, 0.08278955, 0.063387915, -1682821.1, 27990.393, 0.0, 9.999326, 10.000184 
7.2494274e+2, 1.3542841e+2, -1695681.6, -1663191.3, 76590.27, 0.089557074, 0.10097097, -1601142.3, 11667.853, 0.0, 9.999487, 9.999934 
7.249562e+2, 1.454282e+2, -1580456.8, -1563224.0, 5149.462, 0.02282665, 0.0894957, -1561802.5, -46988.902, 0.0, 9.999641, 9.999867 
7.249696e+2, 1.554282e+2, -1456519.8, -1451870.4, -1479.9829, 0.047730155, 0.10439764, -1451439.3, -34625.004, 0.0, 9.999816, 9.999874 
7.2498286e+2, 1.6542815e+2, -1351144.4, -1380527.0, 9026.357, 0.048838783, 0.124063075, -1348593.0, -29776.705, 0.0, 9.999996, 9.999604 
7.2499615e+2, 1.7542794e+2, -1224954.1, -1267397.8, 7289.6426, 0.031851776, 0.14371568, -1223737.0, -2917.1458, 0.0, 10.000183, 9.999619 
7.250094e+2, 1.8542756e+2, -1105453.4, -1162255.3, -1293.9135, 0.022224244, 0.14520735, -1105423.9, 17400.395, 0.0, 10.000344, 9.99959 
7.250227e+2, 1.95427e+2, -987058.44, -1054332.8, -1034.18, 0.01800833, 0.12986837, -987042.56, 37786.84, 0.0, 10.0004835, 9.99959 
7.2503567e+2, 2.0542657e+2, -891456.3, -990845.25, -13512.589, 0.01004494, 0.14317802, -889651.94, 37182.51, 0.0, 10.00061, 9.999293 
7.250485e+2, 2.1542622e+2, -776633.06, -885290.2, -14823.857, -0.0005726997, 0.17824069, -774647.0, 54192.71, 0.0, 10.000729, 9.999288 
7.2506124e+2, 2.2542553e+2, -690052.4, -837926.75, -25140.6, -0.005501348, 0.2011134, -685895.0, 44953.543, 0.0, 10.000845, 9.998884 
7.2507393e+2, 2.3542452e+2, -575533.56, -732153.06, -27066.896, -0.0056392043, 0.21137881, -570987.8, 61872.734, 0.0, 10.000958, 9.998883 
7.2508657e+2, 2.4542339e+2, -488660.72, -680638.75, -34917.22, 0.0007687678, 0.23011144, -482507.2, 52366.434, 0.0, 10.00106, 9.998515 
7.2509915e+2, 2.5542215e+2, -377058.66, -575096.1, -33251.58, 0.012593156, 0.2538833, -371624.66, 65263.11, 0.0, 10.001149, 9.998524 
7.251115e+2, 2.654207e+2, -266577.1, -485085.72, -38599.336, 0.019313961, 0.2656751, -259959.0, 78943.9, 0.0, 10.001295, 9.998399 
7.251238e+2, 2.754191e+2, -139453.03, -372415.06, -39914.863, 0.021822035, 0.2647337, -132803.94, 108115.09, 0.0, 10.0014925, 9.998404 
7.2513634e+2, 2.8541747e+2, -33246.75, -299115.94, -28194.96, 0.029623896, 0.27466118, -30289.617, 112645.01, 0.0, 10.001673, 9.998148 
7.2514904e+2, 2.954158e+2, 88921.05, -189408.58, -24475.492, 0.041848585, 0.29295066, 91056.96, 136006.7, 0.0, 10.001838, 9.998148 
7.2516197e+2, 3.0541307e+2, 171931.36, -94694.266, -4783.016, 0.049919397, 0.18937393, 172017.14, 172017.14, 0.000000018939705, 10.001946, 9.998412 
7.251753e+2, 3.1541175e+2, 200700.45, -50034.813, -19134.14, 0.06547096, 0.21855853, 202152.22, 202152.22, 0.0000007295325, 10.002011, 9.998688 
7.3492676e+2, 1.2541497e+2, -1795657.9, -1724097.0, -74023.13, 0.05915939, 0.066955425, -1677660.3, 33280.316, 0.0, 9.999327, 10.0002575 
7.3494214e+2, 1.3541524e+2, -1688873.1, -1649138.6, 81994.21, 0.08457848, 0.08953047, -1584639.1, 28299.824, 0.0, 9.999487, 10.000031 
7.3495597e+2, 1.4541502e+2, -1586205.6, -1575154.6, 11408.403, 0.03549558, 0.078459375, -1568004.1, -53061.777, 0.0, 9.99964, 9.999785 
7.349694e+2, 1.5541513e+2, -1462125.8, -1463824.8, 4971.022, 0.046983913, 0.11080148, -1457932.3, -40989.51, 0.0, 9.999817, 9.999792 
7.349828e+2, 1.6541505e+2, -1354560.9, -1387974.4, 15863.2, 0.042504147, 0.13598467, -1348229.5, -29284.32, 0.0, 9.999997, 9.999553 
7.3499626e+2, 1.7541477e+2, -1228407.4, -1274694.5, 14083.182, 0.028331, 0.15092212, -1224459.3, -3509.5442, 0.0, 10.000183, 9.999568 
7.350098e+2, 1.8541436e+2, -1104863.4, -1161112.9, 3784.587, 0.022419639, 0.15153924, -1104609.9, 18344.277, 0.0, 10.000344, 9.999598 
7.3502314e+2, 1.9541381e+2, -986552.8, -1053475.9, 4049.4753, 0.02206138, 0.13850445, -986308.7, 38649.902, 0.0, 10.000484, 9.999596 
7.3503625e+2, 2.054133e+2, -893617.25, -995581.9, -9280.142, 0.013181618, 0.14461799, -892779.5, 34184.723, 0.0, 10.000611, 9.99926 
7.350491e+2, 2.1541277e+2, -778813.3, -890025.25, -10508.524, -0.0024393424, 0.16450584, -777829.06, 51141.953, 0.0, 10.00073, 9.999255 
7.35062e+2, 2.2541204e+2, -692777.75, -843788.4, -20919.57, -0.006618484, 0.18943319, -689933.4, 41046.73, 0.0, 10.000845, 9.998844 
7.350749e+2, 2.3541117e+2, -577985.9, -737356.94, -22831.723, -0.0011921517, 0.2164177, -574779.5, 58211.664, 0.0, 10.000959, 9.998847 
7.350876e+2, 2.4541008e+2, -484296.5, -671700.94, -31637.037, 0.004017597, 0.23812997, -479099.75, 55904.074, 0.0, 10.00106, 9.998576 
7.351002e+2, 2.5540882e+2, -372822.4, -566589.8, -29799.063, 0.009157346, 0.25314662, -368343.22, 68674.74, 0.0, 10.00115, 9.998582 
7.351127e+2, 2.6540735e+2, -268493.34, -489462.75, -31407.662, 0.012929642, 0.25934234, -264115.9, 74917.5, 0.0, 10.001297, 9.998368 
7.3512524e+2, 2.7540568e+2, -141015.36, -376108.75, -32674.895, 0.015436022, 0.2551378, -136558.47, 104491.66, 0.0, 10.001494, 9.998378 
7.35138e+2, 2.8540406e+2, -26716.297, -286069.4, -22047.46, 0.027340915, 0.262318, -24855.408, 118209.74, 0.0, 10.001675, 9.998237 
7.351509e+2, 2.9540247e+2, 94768.36, -177905.33, -18497.83, 0.047670163, 0.27929652, 96017.51, 141096.08, 0.0, 10.001841, 9.998226 
7.35164e+2, 3.0539963e+2, 157620.13, -125416.7, -2539.4766, 0.056547944, 0.17694941, 157642.92, 157642.92, 0.0000000073965225, 10.00195, 9.998199 
7.351773e+2, 3.1539807e+2, 185585.42, -82744.79, -16373.728, 0.06560806, 0.19990511, 186580.88, 186580.88, 0.0000004773962, 10.002016, 9.998461 
7.4492604e+2, 1.2540172e+2, -1792180.9, -1721324.3, -80647.89, 0.050896086, 0.07563278, -1668666.0, 42404.73, 0.0, 9.999347, 10.000266 
7.449416e+2, 1.3540193e+2, -1681750.3, -1641546.4, 70569.98, 0.08168371, 0.08844808, -1588271.1, 24798.012, 0.0, 9.999518, 10.000068 
7.449558e+2, 1.4540167e+2, -1582219.3, -1581319.1, -240.44128, 0.04616415, 0.07602167, -1581259.0, -66186.04, 0.0, 9.999703, 9.999713 
7.4496925e+2, 1.554018e+2, -1449513.3, -1465563.9, -5794.9224, 0.047371373, 0.116571106, -1447639.8, -30566.041, 0.0, 9.999938, 9.999722 
7.449828e+2, 1.654017e+2, -1336384.1, -1376272.6, 6591.753, 0.039625745, 0.14251529, -1335323.1, -16246.782, 0.0, 10.000111, 9.999578 
7.4499655e+2, 1.7540139e+2, -1220553.5, -1268503.0, 10481.563, 0.029415159, 0.15182857, -1218362.5, 2718.2483, 0.0, 10.000228, 9.999589 
7.4501014e+2, 1.8540092e+2, -1100488.3, -1163324.1, 1738.6025, 0.02371627, 0.1490938, -1100440.3, 22645.107, 0.0, 10.000393, 9.999558 
7.450236e+2, 1.9540034e+2, -972000.75, -1050871.0, -1745.0284, 0.019956402, 0.13449343, -971962.2, 53128.133, 0.0, 10.000604, 9.999557 
7.4503684e+2, 2.0539977e+2, -878354.56, -991273.44, -19842.857, 0.0103814015, 0.1392081, -874969.1, 52127.277, 0.0, 10.00073, 9.999232 
7.450499e+2, 2.1539919e+2, -772700.4, -889941.94, -20706.754, -0.0035765397, 0.15781753, -769150.75, 59952.92, 0.0, 10.000784, 9.999229 
7.450629e+2, 2.2539845e+2, -694168.75, -845554.06, -29755.48, -0.0058255065, 0.18253252, -688530.2, 42582.645, 0.0, 10.00084, 9.998835 
7.450759e+2, 2.3539756e+2, -587390.3, -742939.7, -29511.084, 0.0016410236, 0.210449, -581979.6, 51144.145, 0.0, 10.000899, 9.998837 
7.4508864e+2, 2.4539651e+2, -490076.97, -673724.6, -37957.23, 0.0049926536, 0.23444617, -482541.0, 52595.258, 0.0, 10.001018, 9.998583 
7.4510133e+2, 2.553953e+2, -366930.94, -562948.25, -40064.926, 0.0050648306, 0.25276944, -359058.1, 78092.05, 0.0, 10.001187, 9.998589 
7.451141e+2, 2.653938e+2, -254166.61, -481641.03, -39002.023, 0.009601971, 0.25645095, -247665.25, 91500.445, 0.0, 10.001391, 9.998376 
7.4512684e+2, 2.7539206e+2, -121218.28, -365672.2, -37594.406, 0.017876627, 0.24468467, -115567.3, 125615.586, 0.0, 10.001627, 9.998385 
7.451398e+2, 2.853904e+2, -5729.1694, -273743.84, -30660.91, 0.032422688, 0.24795236, -2266.2996, 140931.52, 0.0, 10.001809, 9.998257 
7.4515283e+2, 2.9538882e+2, 111849.58, -167658.52, -32399.805, 0.052629318, 0.2640905, 115556.12, 160766.83, 0.0, 10.001949, 9.998244 
7.45166e+2, 3.05386e+2, 178731.14, -119586.445, -13129.907, 0.057568092, 0.16531768, 179307.9, 179307.9, 0.0000000015345106, 10.002114, 9.99816 
7.4517936e+2, 3.1538442e+2, 223284.69, -70888.53, -14298.505, 0.059290778, 0.18808931, 223978.03, 223978.03, 0.00000026410652, 10.002303, 9.998404 
7.5492543e+2, 1.2538835e+2, -1796507.4, -1730075.8, -74619.95, 0.057481997, 0.08926318, -1681612.8, 29589.01, 0.0, 9.999345, 10.000207 
7.549411e+2, 1.3538851e+2, -1683723.4, -1645750.9, 76315.91, 0.08041509, 0.097883604, -1586094.9, 27105.857, 0.0, 9.999518, 10.000039 
7.549556e+2, 1.4538817e+2, -1586556.5, -1590549.9, 7963.71, 0.05433749, 0.08221183, -1580343.0, -65137.523, 0.0, 9.999704, 9.99965 
7.549692e+2, 1.5538822e+2, -1453408.0, -1473937.5, 2650.8584, 0.048897132, 0.12173151, -1453071.3, -35863.883, 0.0, 9.999939, 9.999663 
7.549829e+2, 1.653881e+2, -1329249.8, -1361745.5, 10812.037, 0.04026765, 0.14370069, -1325981.1, -6771.324, 0.0, 10.000111, 9.999678 
7.549968e+2, 1.7538781e+2, -1214086.9, -1255247.6, 14846.123, 0.034884702, 0.14646067, -1209290.9, 11922.027, 0.0, 10.000228, 9.99968 
7.550105e+2, 1.853873e+2, -1106600.4, -1176119.9, 9444.9, 0.025888246, 0.13786037, -1105340.1, 17877.785, 0.0, 10.000393, 9.999471 
7.550242e+2, 1.9538656e+2, -978080.06, -1063520.9, 5816.087, 0.011690968, 0.11787613, -977685.94, 47538.53, 0.0, 10.000604, 9.99947 
7.5503755e+2, 2.0538598e+2, -880032.56, -994770.75, -17998.857, 0.0016507899, 0.12695362, -877275.4, 49955.586, 0.0, 10.00073, 9.999209 
7.5505066e+2, 2.1538551e+2, -774076.9, -892992.4, -18817.477, -0.0041045398, 0.1580235, -771170.2, 58067.297, 0.0, 10.000784, 9.999208 
7.550637e+2, 2.2538476e+2, -692654.4, -842781.5, -27668.324, -0.003280046, 0.18038419, -687717.5, 43529.254, 0.0, 10.000842, 9.998853 
7.550767e+2, 2.3538375e+2, -586119.25, -740807.44, -27211.967, 0.0028156636, 0.1937651, -581471.9, 51786.504, 0.0, 10.000901, 9.998852 
7.5508964e+2, 2.4538268e+2, -493147.47, -680598.94, -31698.229, 0.0036744103, 0.2193478, -487932.34, 47338.543, 0.0, 10.0010195, 9.998535 
7.5510246e+2, 2.5538155e+2, -369883.88, -569378.0, -33724.53, 0.00024272599, 0.25283617, -364336.97, 72947.266, 0.0, 10.001188, 9.998544 
7.551154e+2, 2.6538005e+2, -251027.39, -475225.53, -30306.623, 0.009012599, 0.25702414, -247002.86, 92296.9, 0.0, 10.001391, 9.99842 
7.5512856e+2, 2.7537826e+2, -118385.414, -359710.34, -28929.363, 0.028480733, 0.23329172, -114965.9, 126351.36, 0.0, 10.001626, 9.998427 
7.551417e+2, 2.8537655e+2, -9304.374, -281137.56, -25593.76, 0.04429101, 0.23148946, -6915.649, 136416.94, 0.0, 10.001809, 9.998206 
7.5515485e+2, 2.9537493e+2, 108791.36, -174265.16, -27183.896, 0.056546923, 0.24770686, 111378.375, 156724.44, 0.0, 10.00195, 9.9981985 
7.551681e+2, 3.053722e+2, 187888.1, -101172.6, -6178.5195, 0.052993182, 0.15480162, 188020.1, 188020.1, 0.00000000001992495, 10.002116, 9.998286 
7.5518155e+2, 3.153708e+2, 230922.61, -55657.87, -7218.519, 0.046291772, 0.18199816, 231104.33, 231104.33, 0.000000109993245, 10.002305, 9.9985075 
7.6492476e+2, 1.2537439e+2, -1814696.6, -1740390.4, -89421.22, 0.060668685, 0.078678794, -1680711.1, 30626.898, 0.0, 9.999228, 10.000193 
7.6494056e+2, 1.3537462e+2, -1662459.9, -1633569.1, 63860.31, 0.06767573, 0.09436428, -1582540.8, 30795.408, 0.0, 9.999657, 10.000055 
7.6495534e+2, 1.453743e+2, -1558721.9, -1580962.4, -5546.479, 0.053413108, 0.07993364, -1557415.4, -42074.355, 0.0, 9.999912, 9.999615 
7.649692e+2, 1.5537429e+2, -1438810.3, -1470468.1, -8581.312, 0.052563585, 0.11650714, -1436633.8, -19289.963, 0.0, 10.000054, 9.999631 
7.649831e+2, 1.6537417e+2, -1312082.5, -1347018.0, -3181.7395, 0.044262853, 0.13886213, -1311795.1, 7550.8564, 0.0, 10.000201, 9.999736 
7.6499707e+2, 1.7537397e+2, -1191684.0, -1238299.9, -2503.045, 0.036186606, 0.14487664, -1191550.0, 29797.963, 0.0, 10.000356, 9.999735 
7.6501095e+2, 1.8537346e+2, -1100799.8, -1174937.5, -7049.6816, 0.025285875, 0.13406838, -1100135.4, 23217.389, 0.0, 10.000441, 9.999456 
7.6502466e+2, 1.9537266e+2, -999270.6, -1075475.9, -5120.952, 0.009591744, 0.107020766, -998928.06, 26432.174, 0.0, 10.000465, 9.999454 
7.6503813e+2, 2.0537205e+2, -904004.7, -1012279.9, -27007.016, 0.0012834435, 0.117981374, -897642.2, 29724.852, 0.0, 10.00059, 9.999156 
7.650515e+2, 2.1537161e+2, -775290.44, -899111.25, -30284.73, 0.0002248865, 0.15889347, -768280.1, 61093.438, 0.0, 10.0008, 9.999159 
7.650647e+2, 2.2537087e+2, -671652.25, -826119.4, -40443.16, 0.0013583206, 0.18074116, -661704.0, 69678.62, 0.0, 10.000958, 9.998911 
7.6507777e+2, 2.3536982e+2, -557324.9, -721006.44, -37018.195, 0.003997357, 0.18462259, -549342.2, 84051.82, 0.0, 10.001074, 9.998904 
7.6509076e+2, 2.453687e+2, -474963.63, -679483.8, -39356.25, 0.003942831, 0.20678054, -467651.63, 67755.234, 0.0, 10.001178, 9.9984665 
7.651037e+2, 2.5536752e+2, -362181.53, -572852.06, -42935.98, 0.0016827446, 0.24211442, -353767.0, 83654.164, 0.0, 10.001272, 9.998479 
7.651168e+2, 2.6536608e+2, -247829.88, -468582.16, -38132.426, 0.012817607, 0.2506618, -241428.56, 98007.88, 0.0, 10.001392, 9.998465 
7.6513016e+2, 2.7536437e+2, -128794.66, -359920.8, -36867.457, 0.035656486, 0.23339394, -123056.32, 118396.336, 0.0, 10.001534, 9.998469 
7.651435e+2, 2.8536263e+2, -17365.889, -286306.78, -31023.69, 0.05030025, 0.22646755, -13833.543, 129634.586, 0.0, 10.00176, 9.998194 
7.651568e+2, 2.9536083e+2, 123520.445, -168518.69, -29858.107, 0.057529345, 0.22736083, 126541.88, 172024.89, 0.0, 10.002058, 9.998186 
7.651702e+2, 3.0535814e+2, 206090.56, -92702.945, -15504.464, 0.051103376, 0.13764782, 206892.94, 206892.94, 0.0, 10.002243, 9.998282 
7.6518387e+2, 3.1535685e+2, 233244.75, -56993.688, -25903.932, 0.042823613, 0.17650011, 235538.56, 235538.56, 0.000000028836135, 10.002333, 9.998486 
7.749239e+2, 1.2535983e+2, -1812855.3, -1736086.8, -72875.98, 0.059214767, 0.042881727, -1692104.4, 19375.16, 0.0, 9.999225, 10.000224 
7.7493995e+2, 1.353603e+2, -1657938.9, -1624418.9, 78839.375, 0.043127466, 0.07754627, -1560577.8, 52897.6, 0.0, 9.999658, 10.000118 
7.7495515e+2, 1.4536007e+2, -1559111.6, -1582215.9, -803.33014, 0.043101877, 0.06910454, -1559083.8, -43604.203, 0.0, 9.999913, 9.999605 
7.749693e+2, 1.5536e+2, -1439290.4, -1471777.1, -3455.5261, 0.058078334, 0.100802675, -1438926.9, -21443.816, 0.0, 10.000055, 9.999622 
7.7498335e+2, 1.6535996e+2, -1311020.3, -1345072.0, 2310.8826, 0.051410116, 0.12786838, -1310864.1, 8620.787, 0.0, 10.000202, 9.999748 
7.7499735e+2, 1.7535989e+2, -1190533.4, -1236132.8, 2944.4497, 0.03324247, 0.14703286, -1190344.1, 31141.584, 0.0, 10.000356, 9.999749 
7.750113e+2, 1.8535942e+2, -1096659.5, -1166540.0, -6319.2593, 0.021801468, 0.13772707, -1096092.6, 27397.285, 0.0, 10.000441, 9.999514 
7.750251e+2, 1.9535857e+2, -995480.06, -1067805.9, -4118.6436, 0.013476015, 0.10186548, -995246.25, 30251.182, 0.0, 10.000466, 9.999507 
7.7503884e+2, 2.0535795e+2, -909858.25, -1024522.4, -19292.783, 0.0090182815, 0.11222923, -906699.2, 20805.492, 0.0, 10.000591, 9.999072 
7.7505237e+2, 2.1535751e+2, -780867.0, -910675.25, -22675.523, 0.00920419, 0.16035368, -777019.94, 52491.89, 0.0, 10.0008, 9.99908 
7.7506566e+2, 2.2535679e+2, -665069.9, -812472.0, -36298.805, 0.007951535, 0.18347779, -656615.9, 74904.59, 0.0, 10.000958, 9.999005 
7.750788e+2, 2.353558e+2, -551001.5, -707998.4, -32879.613, 0.005093586, 0.18287122, -544393.7, 89136.89, 0.0, 10.001074, 9.998994 
7.7509195e+2, 2.4535458e+2, -481146.34, -692620.3, -35984.234, 0.0055720927, 0.19677319, -475191.0, 60353.125, 0.0, 10.001179, 9.998376 
7.7510506e+2, 2.553532e+2, -367900.25, -585238.5, -39398.76, 0.008896269, 0.22091012, -360978.53, 76582.31, 0.0, 10.001274, 9.998394 
7.751183e+2, 2.6535183e+2, -244406.9, -462212.16, -32959.484, 0.020635448, 0.23744382, -239528.56, 100047.125, 0.0, 10.001395, 9.9985075 
7.7513176e+2, 2.753504e+2, -125493.25, -353961.94, -31520.715, 0.039567113, 0.24467304, -121224.26, 120364.805, 0.0, 10.001537, 9.998509 
7.751453e+2, 2.8534862e+2, -15217.866, -282483.28, -20017.064, 0.05058323, 0.23272812, -13726.988, 129877.44, 0.0, 10.001761, 9.9982195 
7.751589e+2, 2.9534656e+2, 125051.586, -165432.94, -19100.797, 0.05517835, 0.20319664, 126302.17, 171923.69, 0.0, 10.002058, 9.998208 
7.751725e+2, 3.0534384e+2, 197106.9, -111592.984, -12447.5, 0.051120635, 0.114058316, 197608.0, 197608.0, 0.0, 10.002244, 9.998153 
7.7518624e+2, 3.1534255e+2, 223439.8, -77973.734, -22544.693, 0.047763955, 0.1712158, 225116.73, 225116.73, 0.0000000029769756, 10.002335, 9.998341 
7.8492314e+2, 1.2534517e+2, -1781367.6, -1725463.5, -82759.05, 0.0443125, 0.029204257, -1666063.5, 45559.035, 0.0, 9.999461, 10.000183 
7.849395e+2, 1.3534568e+2, -1655808.1, -1623596.1, 61267.45, 0.0346549, 0.069284014, -1576353.0, 37265.15, 0.0, 9.999673, 10.000116 
7.849551e+2, 1.4534552e+2, -1560663.1, -1572963.0, -22184.932, 0.049219403, 0.06341427, -1543791.5, -28169.865, 0.0, 9.99986, 9.999695 
7.849694e+2, 1.5534551e+2, -1431075.3, -1458187.4, -17109.166, 0.05450378, 0.09389122, -1422802.6, -5178.4927, 0.0, 10.000071, 9.999708 
7.849835e+2, 1.653455e+2, -1307920.6, -1343658.3, -10297.104, 0.043994673, 0.12025863, -1305166.0, 14459.634, 0.0, 10.000224, 9.999747 
7.849977e+2, 1.7534545e+2, -1195327.8, -1238600.8, -10916.324, 0.028168337, 0.13940449, -1192729.9, 28896.729, 0.0, 10.000324, 9.999748 
7.850117e+2, 1.8534504e+2, -1101089.6, -1169208.3, -25949.846, 0.020712452, 0.13540353, -1092330.4, 31300.363, 0.0, 10.000413, 9.999509 
7.850257e+2, 1.9534428e+2, -991617.4, -1066394.8, -28436.37, 0.017367886, 0.10948042, -982032.25, 43605.367, 0.0, 10.000495, 9.999502 
7.850395e+2, 2.0534365e+2, -907612.9, -1020114.75, -37465.04, 0.014506257, 0.116828375, -896278.3, 31366.602, 0.0, 10.000592, 9.999101 
7.8505313e+2, 2.1534307e+2, -792974.75, -913337.4, -32471.09, 0.013507409, 0.15094802, -784773.56, 44879.242, 0.0, 10.000703, 9.999107 
7.8506666e+2, 2.2534235e+2, -679304.25, -817956.6, -45779.406, 0.012004328, 0.17143953, -665552.94, 66108.445, 0.0, 10.0008545, 9.999017 
7.850799e+2, 2.3534143e+2, -554778.75, -708174.0, -48558.617, 0.009601032, 0.17775673, -540699.4, 92971.27, 0.0, 10.001041, 9.999008 
7.850931e+2, 2.4534026e+2, -473150.6, -686006.6, -50597.797, 0.0094588855, 0.19217823, -461735.25, 73948.71, 0.0, 10.001222, 9.9984 
7.8510636e+2, 2.5533885e+2, -348472.84, -573448.56, -45735.54, 0.011209869, 0.2115851, -339530.63, 98170.28, 0.0, 10.001398, 9.998415 
7.8511983e+2, 2.6533747e+2, -216172.14, -449675.56, -35995.73, 0.020689929, 0.22877386, -210749.16, 128966.5, 0.0, 10.001594, 9.998498 
7.851334e+2, 2.753361e+2, -86591.73, -336469.4, -38390.094, 0.036862224, 0.24123472, -80826.65, 160901.97, 0.0, 10.001811, 9.998497 
7.851471e+2, 2.8533432e+2, 9327.138, -274325.2, -30897.678, 0.046896424, 0.23000911, 12653.746, 156397.94, 0.0, 10.001946, 9.998186 
7.8516084e+2, 2.953322e+2, 115621.13, -173639.77, -34499.84, 0.05205945, 0.19741836, 119678.97, 165440.98, 0.0, 10.002009, 9.998175 
7.8517467e+2, 3.0532944e+2, 186101.64, -120951.16, -26100.514, 0.050842565, 0.111644424, 188304.47, 188304.47, 0.0, 10.002186, 9.9981165 
7.851887e+2, 3.1532812e+2, 239329.67, -75932.14, -29171.604, 0.051789712, 0.16883777, 242006.23, 242006.23, 0.0, 10.002468, 9.998289 
7.949223e+2, 1.2533042e+2, -1789340.4, -1742525.8, -73402.85, 0.014245469, 0.038162105, -1688888.4, 22878.36, 0.0, 9.999463, 10.000065 
7.949393e+2, 1.3533078e+2, -1660862.0, -1634097.0, 68298.266, 0.042336054, 0.070061035, -1577882.5, 35882.105, 0.0, 9.999673, 10.000045 
7.9495513e+2, 1.4533065e+2, -1547482.0, -1545689.3, -15059.885, 0.07206678, 0.06304582, -1531499.1, -15731.791, 0.0, 9.99986, 9.999882 
7.949693e+2, 1.5533087e+2, -1418223.5, -1431766.0, -9524.851, 0.041675482, 0.095843405, -1413308.4, 4458.5146, 0.0, 10.000072, 9.999889 
7.9498345e+2, 1.6533087e+2, -1308961.4, -1346070.6, -6695.021, 0.021686384, 0.116096824, -1307790.5, 11977.474, 0.0, 10.000224, 9.999731 
7.9499793e+2, 1.7533067e+2, -1196502.9, -1241282.5, -7308.4014, 0.020823497, 0.122055255, -1195340.3, 26430.451, 0.0, 10.000324, 9.999729 
7.950121e+2, 1.8533029e+2, -1105957.6, -1179470.6, -23126.531, 0.02191376, 0.12703945, -1099287.4, 24487.568, 0.0, 10.000414, 9.999438 
7.950262e+2, 1.9532976e+2, -995985.3, -1075619.1, -25478.82, 0.021159584, 0.12966067, -988531.1, 37249.46, 0.0, 10.000495, 9.999439 
7.950401e+2, 2.053291e+2, -897736.25, -999810.25, -33470.195, 0.01768504, 0.13176382, -887740.2, 40047.55, 0.0, 10.000593, 9.999241 
7.9505384e+2, 2.1532834e+2, -783604.3, -894142.1, -28365.441, 0.01313463, 0.13102974, -776750.4, 53046.09, 0.0, 10.000704, 9.99924 
7.950675e+2, 2.2532757e+2, -684022.44, -828008.6, -38909.41, 0.013418737, 0.14494656, -674180.7, 57624.543, 0.0, 10.000855, 9.998948 
7.95081e+2, 2.3532675e+2, -558996.2, -717075.6, -41646.234, 0.01725589, 0.1692237, -548695.6, 85118.484, 0.0, 10.001041, 9.998947 
7.9509443e+2, 2.4532571e+2, -463924.63, -666885.0, -44144.31, 0.015441195, 0.19274098, -454738.88, 81087.38, 0.0, 10.001222, 9.998531 
7.951077e+2, 2.5532445e+2, -339915.4, -555586.25, -39289.496, 0.0088343145, 0.21388313, -332980.88, 104860.5, 0.0, 10.001397, 9.998538 
7.951213e+2, 2.6532307e+2, -220540.73, -458723.53, -28108.826, 0.013236297, 0.22478256, -217268.45, 122587.836, 0.0, 10.001594, 9.998436 
7.951351e+2, 2.7532148e+2, -90787.875, -345415.75, -30559.068, 0.027333505, 0.22362854, -87171.695, 154699.55, 0.0, 10.001811, 9.998436 
7.951489e+2, 2.853197e+2, 3060.8743, -287794.94, -28690.717, 0.038870137, 0.21845242, 5863.981, 149751.31, 0.0, 10.001948, 9.998093 
7.951628e+2, 2.9531768e+2, 109576.1, -186659.38, -32069.924, 0.04827195, 0.20925856, 113008.17, 158912.63, 0.0, 10.002011, 9.998084 
7.9517686e+2, 3.05315e+2, 190035.23, -113268.37, -15632.526, 0.050350867, 0.12961172, 190838.83, 190838.83, 0.0, 10.002188, 9.998169 
7.951911e+2, 3.1531355e+2, 242244.78, -70326.38, -18388.275, 0.053712074, 0.16816755, 243322.83, 243322.83, 0.0, 10.00247, 9.998327 
8.049218e+2, 1.2531541e+2, -1757126.3, -1731811.8, -84914.016, 0.009648393, 0.048053082, -1658616.8, 53297.336, 0.0, 9.999704, 10.000022 
8.049389e+2, 1.3531566e+2, -1639587.3, -1624321.0, 59387.555, 0.036008187, 0.0698609, -1572078.0, 41835.047, 0.0, 9.999822, 10.00004 
8.0495507e+2, 1.4531556e+2, -1526646.1, -1523202.3, -23264.064, 0.07395079, 0.059750047, -1501596.5, 14318.7295, 0.0, 9.999949, 9.999993 
8.0496925e+2, 1.5531588e+2, -1402526.9, -1412044.9, -23362.97, 0.030697484, 0.0921111, -1383443.1, 34469.957, 0.0, 10.000127, 9.999998 
8.0498356e+2, 1.6531591e+2, -1307510.4, -1343802.3, -26732.992, 0.008943835, 0.110121064, -1293346.4, 26567.322, 0.0, 10.000228, 9.999745 
8.0499816e+2, 1.753157e+2, -1204387.8, -1243442.5, -25069.586, 0.016613126, 0.112233795, -1192137.8, 29779.33, 0.0, 10.000263, 9.999744 
8.050125e+2, 1.8531536e+2, -1112514.9, -1178292.4, -34107.363, 0.020629682, 0.118561484, -1098022.4, 25898.773, 0.0, 10.00035, 9.999477 
8.050266e+2, 1.9531491e+2, -995700.4, -1071081.8, -28319.385, 0.017787177, 0.1270854, -986246.8, 39679.227, 0.0, 10.000479, 9.999478 
8.0504066e+2, 2.0531434e+2, -889305.5, -988585.5, -34584.188, 0.0162396, 0.13106969, -878445.94, 49486.492, 0.0, 10.00062, 9.999304 
8.050546e+2, 2.1531361e+2, -769150.9, -880247.44, -35122.527, 0.017030014, 0.12864554, -758978.5, 70961.734, 0.0, 10.000773, 9.999301 
8.0506843e+2, 2.2531281e+2, -677598.8, -827203.94, -45686.227, 0.018205632, 0.13988343, -664750.6, 67198.43, 0.0, 10.00091, 9.998927 
8.05082e+2, 2.3531197e+2, -562000.3, -720618.1, -45067.016, 0.019066261, 0.16077805, -550090.06, 83868.8, 0.0, 10.00103, 9.998928 
8.050956e+2, 2.4531096e+2, -468936.84, -664221.75, -49081.918, 0.0158137, 0.18640138, -457294.88, 78675.87, 0.0, 10.001165, 9.998576 
8.051091e+2, 2.5530982e+2, -348745.2, -554894.7, -50519.83, 0.009243439, 0.21430169, -337030.3, 100954.32, 0.0, 10.001315, 9.998582 
8.0512285e+2, 2.653084e+2, -230198.84, -464196.34, -37089.777, 0.014007361, 0.2251562, -224460.64, 115538.66, 0.0, 10.001531, 9.998428 
8.051369e+2, 2.7530676e+2, -92585.46, -347261.66, -35941.695, 0.02868387, 0.21806994, -87610.305, 154404.56, 0.0, 10.001803, 9.998426 
8.051509e+2, 2.8530496e+2, 5249.8276, -293984.6, -36881.24, 0.040290326, 0.21352875, 9728.481, 153759.97, 0.0, 10.001995, 9.998028 
8.051649e+2, 2.9530296e+2, 120697.78, -188205.66, -38031.527, 0.04911274, 0.21042308, 125311.24, 171360.36, 0.0, 10.002117, 9.998022 
8.0517906e+2, 3.053003e+2, 207629.9, -101855.086, -15826.002, 0.048843324, 0.13639405, 208437.1, 208437.1, 0.0, 10.002296, 9.998195 
8.0519354e+2, 3.1529883e+2, 249496.67, -65560.65, -20786.701, 0.047855094, 0.17164047, 250862.22, 250862.22, 0.0, 10.002515, 9.998339 
8.149217e+2, 1.2530014e+2, -1754632.0, -1727093.5, -78186.49, 0.030526131, 0.058916695, -1661473.1, 50591.44, 0.0, 9.999706, 10.000054 
8.1493855e+2, 1.3530032e+2, -1635163.3, -1615332.1, 62997.543, 0.015254197, 0.068474784, -1561474.5, 52588.965, 0.0, 9.999823, 10.000101 
8.149548e+2, 1.4530021e+2, -1524180.5, -1518367.1, -17141.346, 0.054200713, 0.0532836, -1503887.8, 12177.5, 0.0, 9.99995, 10.000027 
8.149693e+2, 1.5530056e+2, -1400076.5, -1407308.5, -17010.123, 0.0214414, 0.08274383, -1386302.3, 31760.47, 0.0, 10.000128, 10.0000305 
8.149838e+2, 1.6530064e+2, -1304279.9, -1337424.6, -25696.162, 0.0058150217, 0.102365844, -1290275.6, 29787.225, 0.0, 10.000229, 9.999788 
8.149984e+2, 1.7530051e+2, -1201011.1, -1236687.9, -23792.38, 0.015361465, 0.10986369, -1189112.5, 32952.91, 0.0, 10.000264, 9.99979 
8.150128e+2, 1.853002e+2, -1102231.1, -1157134.0, -29412.996, 0.0166717, 0.11007694, -1089449.5, 34619.684, 0.0, 10.00035, 9.999622 
8.15027e+2, 1.9529974e+2, -985726.9, -1050573.0, -23650.783, 0.0072604096, 0.102113135, -978017.44, 48056.42, 0.0, 10.000479, 9.9996195 
8.150412e+2, 2.0529932e+2, -890159.3, -990472.0, -29068.33, 0.010121012, 0.11478294, -882344.75, 45734.086, 0.0, 10.00062, 9.999291 
8.150555e+2, 2.1529889e+2, -769819.3, -881724.06, -29531.992, 0.024963396, 0.14324199, -762503.94, 67580.15, 0.0, 10.000773, 9.999291 
8.150694e+2, 2.2529812e+2, -675833.7, -823639.0, -41359.66, 0.026231522, 0.15580381, -665047.4, 67045.48, 0.0, 10.00091, 9.998952 
8.15083e+2, 2.3529704e+2, -560413.6, -717461.9, -40650.035, 0.0151876435, 0.15261939, -550515.7, 83589.06, 0.0, 10.001031, 9.99895 
8.1509674e+2, 2.4529599e+2, -471737.72, -670263.0, -43622.23, 0.01061661, 0.17346348, -462575.4, 73541.89, 0.0, 10.001166, 9.998535 
8.151104e+2, 2.5529492e+2, -351096.66, -560205.7, -44831.977, 0.011942798, 0.21275139, -341890.25, 96240.336, 0.0, 10.001317, 9.998545 
8.1512445e+2, 2.6529357e+2, -227119.89, -458069.9, -26864.021, 0.022248624, 0.22955388, -224036.25, 116108.36, 0.0, 10.001532, 9.99847 
8.151388e+2, 2.7529198e+2, -90074.05, -341762.25, -25910.227, 0.040432997, 0.2242132, -87434.38, 154725.13, 0.0, 10.001802, 9.998466 
8.15153e+2, 2.8529012e+2, 2256.1147, -299973.78, -32487.72, 0.050688125, 0.2152372, 5708.8853, 149885.53, 0.0, 10.001993, 9.997988 
8.1516707e+2, 2.9528797e+2, 118313.05, -193583.75, -33428.273, 0.053484008, 0.20145622, 121855.56, 168051.5, 0.0, 10.002119, 9.997985 
8.151813e+2, 3.0528536e+2, 207590.16, -102341.45, -7530.682, 0.045568764, 0.1324546, 207773.03, 207773.03, 0.0, 10.002297, 9.998191 
8.151959e+2, 3.1528398e+2, 247935.05, -68443.11, -12504.572, 0.034818914, 0.17818479, 248428.52, 248428.52, 0.0, 10.002513, 9.99832 
8.249215e+2, 1.2528472e+2, -1750872.9, -1726562.8, -77554.914, 0.03616203, 0.06705471, -1660216.3, 51999.953, 0.0, 9.999738, 10.000043 
8.249382e+2, 1.3528484e+2, -1614960.5, -1603239.8, 56338.195, -0.0046451776, 0.06875262, -1552458.0, 61757.492, 0.0, 9.999951, 10.000121 
8.249546e+2, 1.4528476e+2, -1503318.0, -1498716.3, -25130.715, 0.041950624, 0.05019504, -1475781.3, 40435.355, 0.0, 10.000052, 10.000112 
8.2496935e+2, 1.5528512e+2, -1399529.0, -1397817.9, -20782.494, 0.017786646, 0.075161524, -1377873.4, 40339.984, 0.0, 10.000092, 10.000113 
8.249839e+2, 1.6528527e+2, -1311245.1, -1336433.5, -29459.924, 0.0032884472, 0.09520609, -1291800.3, 28412.498, 0.0, 10.000162, 9.999827 
8.2499856e+2, 1.7528524e+2, -1199097.5, -1231467.8, -27940.488, 0.007874193, 0.107759826, -1182992.9, 39221.895, 0.0, 10.000259, 9.999828 
8.2501304e+2, 1.8528499e+2, -1099128.9, -1151020.8, -36288.86, 0.008755404, 0.10895022, -1080464.6, 43753.625, 0.0, 10.000352, 9.999663 
8.250274e+2, 1.9528453e+2, -988181.1, -1046929.25, -38333.28, 0.0026663323, 0.0980838, -969261.56, 56961.516, 0.0, 10.000442, 9.999662 
8.250418e+2, 2.0528418e+2, -893210.4, -982008.7, -42151.35, 0.008114185, 0.11175182, -876388.44, 51838.746, 0.0, 10.000557, 9.99938 
8.2505614e+2, 2.1528389e+2, -775667.1, -874883.8, -35228.414, 0.025129905, 0.14473823, -764431.2, 65799.555, 0.0, 10.000692, 9.999377 
8.2507026e+2, 2.2528318e+2, -688431.7, -831927.44, -45831.305, 0.027241917, 0.15826413, -675042.8, 57196.34, 0.0, 10.0008335, 9.998932 
8.2508403e+2, 2.3528205e+2, -569134.6, -723652.5, -48430.855, 0.015798068, 0.15301067, -555209.75, 79042.32, 0.0, 10.000979, 9.998932 
8.250979e+2, 2.4528101e+2, -466445.94, -660657.5, -46804.02, 0.013357737, 0.17347512, -455754.94, 80509.46, 0.0, 10.001173, 9.998597 
8.251118e+2, 2.5528e+2, -333407.44, -544843.7, -40587.945, 0.018955352, 0.21364321, -325883.75, 112392.695, 0.0, 10.00141, 9.998606 
8.251261e+2, 2.6527867e+2, -224564.77, -460380.06, -22586.207, 0.029201262, 0.22890711, -222420.97, 117869.414, 0.0, 10.001565, 9.998438 
8.2514054e+2, 2.7527702e+2, -114489.04, -357081.25, -27047.965, 0.043455146, 0.21979523, -111509.89, 130796.26, 0.0, 10.00165, 9.998433 
8.251549e+2, 2.852751e+2, -20612.438, -316402.03, -34869.082, 0.050385773, 0.21208957, -16557.492, 127766.35, 0.0, 10.00186, 9.997939 
8.2516915e+2, 2.9527298e+2, 123078.28, -196567.98, -36725.926, 0.05062084, 0.2041277, 127243.65, 173587.02, 0.0, 10.002174, 9.997937 
8.251836e+2, 3.0527034e+2, 216105.0, -100622.03, -14513.081, 0.039312538, 0.1397815, 216768.63, 216768.63, 0.0, 10.002367, 9.998169 
8.251983e+2, 3.1526896e+2, 236215.03, -77826.555, -20714.566, 0.023198353, 0.18020356, 237575.48, 237575.48, 0.0, 10.002448, 9.998286 
8.3492106e+2, 1.2526914e+2, -1754826.5, -1734888.9, -66170.484, 0.02475584, 0.07217818, -1677940.5, 34428.38, 0.0, 9.999737, 9.999986 
8.3493793e+2, 1.3526921e+2, -1616440.8, -1606592.8, 63526.77, -0.023958728, 0.07090076, -1547799.5, 66569.2, 0.0, 9.999952, 10.000098 
8.349547e+2, 1.4526919e+2, -1493493.9, -1478758.0, -24289.875, 0.037173998, 0.05074644, -1460743.1, 55626.004, 0.0, 10.000053, 10.000249 
8.349694e+2, 1.5526961e+2, -1390158.4, -1378565.0, -19418.18, 0.019554215, 0.06931115, -1364096.8, 54268.02, 0.0, 10.0000925, 10.000245 
8.3498406e+2, 1.6526985e+2, -1308857.0, -1331719.9, -25962.893, 0.0011903655, 0.08860291, -1291920.3, 28443.08, 0.0, 10.000163, 9.99986 
8.3499867e+2, 1.7526989e+2, -1196851.0, -1227162.3, -24440.27, -0.005891284, 0.10595271, -1183248.8, 39116.16, 0.0, 10.00026, 9.999858 
8.3501333e+2, 1.8526968e+2, -1103412.6, -1160195.4, -33127.06, -0.0032548027, 0.11503159, -1088175.3, 36193.082, 0.0, 10.000353, 9.9996 
8.350278e+2, 1.9526929e+2, -992020.5, -1055113.1, -35079.094, 0.0037453803, 0.114627704, -976389.4, 49984.152, 0.0, 10.000442, 9.999606 
8.3504236e+2, 2.0526893e+2, -880082.2, -954870.2, -37231.816, 0.01004776, 0.12187236, -864707.7, 63669.668, 0.0, 10.000557, 9.999566 
8.350568e+2, 2.1526861e+2, -763014.44, -848696.5, -30341.186, 0.017606735, 0.13357648, -753358.4, 77021.62, 0.0, 10.000692, 9.9995575 
8.35071e+2, 2.2526795e+2, -693092.0, -841627.25, -40545.86, 0.0212283, 0.14752129, -682744.94, 49643.0, 0.0, 10.000833, 9.998865 
8.350851e+2, 2.3526695e+2, -573315.06, -732457.7, -42955.145, 0.0205754, 0.16155069, -562461.06, 71939.58, 0.0, 10.000979, 9.998871 
8.3509916e+2, 2.45266e+2, -455066.6, -637169.94, -38041.766, 0.023613455, 0.18597943, -447439.06, 88972.89, 0.0, 10.001173, 9.998759 
8.3511335e+2, 2.552651e+2, -322549.47, -522510.34, -31956.203, 0.030073294, 0.21703537, -317566.66, 120855.6, 0.0, 10.00141, 9.998759 
8.351277e+2, 2.6526368e+2, -231607.92, -475505.53, -19579.467, 0.034868803, 0.22358903, -230046.13, 110390.43, 0.0, 10.001566, 9.998334 
8.3514214e+2, 2.7526185e+2, -121277.27, -371967.2, -23618.121, 0.037791174, 0.20530003, -119071.555, 123383.2, 0.0, 10.001653, 9.99833 
8.351567e+2, 2.8525993e+2, -24317.092, -324751.16, -22818.074, 0.039505266, 0.20420903, -22593.934, 121879.1, 0.0, 10.001863, 9.99788 
8.351712e+2, 2.9525793e+2, 119172.44, -205090.45, -24974.424, 0.041103117, 0.21779469, 121084.67, 167576.11, 0.0, 10.002176, 9.997878 
8.351858e+2, 3.0525532e+2, 213554.67, -106267.48, -11270.316, 0.030440172, 0.15779811, 213951.34, 213951.34, 0.0, 10.002367, 9.99813 
8.352006e+2, 3.1525365e+2, 232662.03, -85192.36, -17034.088, 0.011880235, 0.1765502, 233572.3, 233572.3, 0.0, 10.002448, 9.998236 
8.449209e+2, 1.2525338e+2, -1703449.1, -1709771.8, -75850.016, 0.017116722, 0.07814098, -1630694.6, 81829.48, 0.0, 10.000089, 9.999989 
8.4493774e+2, 1.3525343e+2, -1609949.6, -1599865.3, 53493.777, -0.036451165, 0.07405074, -1551176.5, 63347.137, 0.0, 9.999982, 10.00013 
8.4495467e+2, 1.4525346e+2, -1502302.1, -1473106.0, -34172.406, 0.034477748, 0.053791713, -1450544.3, 65979.266, 0.0, 9.99995, 10.000337 
8.449694e+2, 1.5525393e+2, -1394060.9, -1370424.0, -32486.182, 0.014248424, 0.06799199, -1347673.3, 70845.15, 0.0, 10.000023, 10.000334 
8.4498405e+2, 1.6525425e+2, -1309300.4, -1319477.0, -36068.516, -0.0061569526, 0.08607711, -1277963.0, 42552.914, 0.0, 10.000107, 9.99997 
8.449988e+2, 1.7525442e+2, -1198033.1, -1215662.9, -28708.506, -0.014363671, 0.105104424, -1176816.6, 45699.4, 0.0, 10.0002, 9.999966 
8.450135e+2, 1.8525432e+2, -1115508.5, -1169618.3, -33820.875, -0.01087902, 0.119771175, -1099252.6, 25266.238, 0.0, 10.000285, 9.999568 
8.450282e+2, 1.9525397e+2, -1005842.8, -1064978.3, -33459.168, -0.0013240151, 0.1285058, -990758.94, 35765.38, 0.0, 10.000361, 9.999577 
8.4504277e+2, 2.0525362e+2, -889978.4, -950714.1, -37394.066, 0.0069892313, 0.13297342, -872174.44, 56353.766, 0.0, 10.000451, 9.999646 
8.4505737e+2, 2.1525325e+2, -777851.56, -847024.0, -38562.17, 0.01611828, 0.1313345, -760637.75, 69893.1, 0.0, 10.000553, 9.999636 
8.450718e+2, 2.2525263e+2, -708010.0, -844539.06, -46383.594, 0.022656253, 0.14340219, -693742.8, 38795.406, 0.0, 10.000712, 9.998903 
8.4508604e+2, 2.3525174e+2, -578554.5, -730508.2, -41167.227, 0.025977835, 0.16538844, -568118.25, 66431.75, 0.0, 10.000925, 9.998911 
8.4510034e+2, 2.4525085e+2, -452070.97, -625988.75, -33330.02, 0.028317666, 0.1891979, -445902.3, 90658.3, 0.0, 10.001152, 9.998846 
8.4511477e+2, 2.5524995e+2, -319188.6, -511559.38, -32972.574, 0.029901976, 0.21240254, -313694.0, 124876.266, 0.0, 10.001393, 9.998842 
8.451292e+2, 2.6524857e+2, -226985.89, -477005.38, -24022.098, 0.029834244, 0.21860327, -224698.75, 115885.586, 0.0, 10.001615, 9.9983 
8.451438e+2, 2.7524674e+2, -99810.5, -365378.16, -22895.754, 0.028009256, 0.2064967, -97851.016, 144751.63, 0.0, 10.001817, 9.998296 
8.451585e+2, 2.8524482e+2, -4454.6743, -321205.03, -15149.5205, 0.03024513, 0.20957531, -3731.754, 140889.56, 0.0, 10.002025, 9.997826 
8.4517336e+2, 2.952428e+2, 124417.0, -208557.89, -17451.39, 0.037067868, 0.22535619, 125329.13, 171969.55, 0.0, 10.002238, 9.997824 
8.4518826e+2, 3.052402e+2, 215139.38, -105628.09, -9254.48, 0.030074567, 0.16911434, 215406.14, 215406.14, 0.0, 10.002379, 9.998128 
8.4520304e+2, 3.1523848e+2, 231288.84, -87202.9, -12370.29, 0.013001145, 0.18385166, 231768.58, 231768.58, 0.0, 10.002445, 9.998223 
8.54921e+2, 1.2523739e+2, -1698709.0, -1700865.3, -75836.06, 0.012068191, 0.08478076, -1623943.4, 88738.08, 0.0, 10.000092, 10.000049 
8.549377e+2, 1.3523751e+2, -1604123.1, -1587718.6, 48788.066, -0.042068556, 0.07826216, -1546448.1, 68232.28, 0.0, 9.999982, 10.000214 
8.549546e+2, 1.4523761e+2, -1499520.1, -1467404.9, -31996.46, 0.033944543, 0.05943359, -1447662.8, 69016.55, 0.0, 9.99995, 10.000377 
8.549693e+2, 1.552381e+2, -1390718.9, -1363875.4, -29876.295, 0.0016488268, 0.07139, -1344544.5, 74129.695, 0.0, 10.000024, 10.000379 
8.5498405e+2, 1.6523854e+2, -1295861.4, -1291977.8, -32786.895, -0.01907673, 0.08771166, -1261075.3, 59595.22, 0.0, 10.000108, 10.000159 
8.5499895e+2, 1.7523886e+2, -1184946.5, -1188788.3, -25389.38, -0.017793816, 0.10520471, -1161405.5, 61262.79, 0.0, 10.000201, 10.00015 
8.550137e+2, 1.852389e+2, -1115549.0, -1169926.3, -31150.646, -0.014268303, 0.12323458, -1101390.5, 23279.432, 0.0, 10.000286, 9.999566 
8.5502845e+2, 1.9523862e+2, -1005959.25, -1065422.5, -30776.492, -0.0125136785, 0.13977313, -992898.8, 33776.516, 0.0, 10.000361, 9.999574 
8.550432e+2, 2.0523827e+2, -891819.25, -954691.1, -33762.813, -0.0011298792, 0.14496322, -877123.4, 51556.254, 0.0, 10.000451, 9.999619 
8.5505795e+2, 2.1523781e+2, -779275.75, -850265.25, -34771.523, 0.02038256, 0.13774218, -765082.1, 65600.94, 0.0, 10.000553, 9.999614 
8.5507256e+2, 2.2523719e+2, -698338.94, -824701.1, -38568.7, 0.031240033, 0.14577173, -687497.06, 45192.883, 0.0, 10.000713, 9.99904 
8.5508704e+2, 2.3523644e+2, -568993.75, -710807.25, -33244.914, 0.031925485, 0.16471845, -561587.1, 73113.03, 0.0, 10.000925, 9.999046 
8.551015e+2, 2.4523556e+2, -451183.6, -624173.94, -24364.262, 0.02759602, 0.18346539, -447817.6, 88892.65, 0.0, 10.001151, 9.998858 
8.55116e+2, 2.552346e+2, -318463.78, -510011.6, -24022.066, 0.018810075, 0.20008367, -315497.13, 123223.26, 0.0, 10.001392, 9.998854 
8.551307e+2, 2.652333e+2, -224748.53, -472317.63, -16472.514, 0.014471932, 0.21387519, -223657.31, 117076.29, 0.0, 10.001614, 9.998332 
8.5514545e+2, 2.7523172e+2, -97627.48, -360944.25, -15312.352, 0.014257596, 0.22245558, -96740.03, 146009.84, 0.0, 10.001817, 9.998326 
8.551605e+2, 2.852298e+2, -8223.215, -329024.38, -7109.604, 0.022347346, 0.22742017, -8065.729, 136703.05, 0.0, 10.002025, 9.997773 
8.551756e+2, 2.9522756e+2, 120561.36, -216290.56, -9355.037, 0.037747983, 0.2271987, 120820.97, 167611.23, 0.0, 10.002236, 9.997772 
8.551907e+2, 3.05225e+2, 217182.4, -101406.7, -6278.6265, 0.03717779, 0.17408857, 217306.1, 217306.1, 0.0, 10.002379, 9.9981575 
8.5520566e+2, 3.1522343e+2, 233043.78, -84366.81, -9197.183, 0.025198814, 0.20027737, 233310.06, 233310.06, 0.0, 10.002448, 9.998241 
8.6492103e+2, 1.2522154e+2, -1711625.1, -1710061.8, -54981.83, 0.013446043, 0.080505736, -1655856.0, 56981.11, 0.00000000000000000000885557, 10.000015, 10.000022 
8.649375e+2, 1.3522175e+2, -1602146.9, -1587022.9, 57717.816, -0.05479572, 0.08400355, -1536373.8, 78461.586, 0.0, 9.999997, 10.00021 
8.649544e+2, 1.4522192e+2, -1487479.0, -1455579.6, -20593.549, 0.023297071, 0.0689733, -1445481.5, 71352.23, 0.0, 10.000008, 10.00043 
8.649692e+2, 1.5522237e+2, -1379888.3, -1352576.1, -17398.455, -0.014100844, 0.071220994, -1344114.4, 74714.33, 0.0, 10.0000725, 10.000433 
8.649841e+2, 1.6522282e+2, -1289502.6, -1280464.8, -24808.277, -0.031592965, 0.083624534, -1259767.1, 61057.35, 0.0, 10.000115, 10.000235 
8.6499906e+2, 1.7522325e+2, -1188838.5, -1182045.8, -25903.107, -0.019485543, 0.10274679, -1159317.4, 63503.94, 0.0, 10.000137, 10.000227 
8.6501396e+2, 1.8522337e+2, -1128931.3, -1170865.9, -33710.37, -0.012222483, 0.12464088, -1110199.5, 14622.582, 0.0, 10.000171, 9.999615 
8.650287e+2, 1.9522321e+2, -1024593.1, -1069042.1, -29551.969, -0.013123919, 0.14697978, -1009841.3, 16985.283, 0.0, 10.000211, 9.999621 
8.650435e+2, 2.0522287e+2, -910016.06, -965681.6, -27015.252, -0.003119526, 0.15279302, -899061.1, 29769.867, 0.0, 10.000336, 9.9995985 
8.650585e+2, 2.1522234e+2, -782710.4, -853778.2, -27502.902, 0.018001432, 0.14146495, -773310.25, 57524.98, 0.0, 10.000538, 9.999597 
8.650733e+2, 2.2522178e+2, -691407.25, -810290.75, -31568.666, 0.03079846, 0.14941521, -683544.44, 49297.137, 0.0, 10.000713, 9.999138 
8.650879e+2, 2.3522115e+2, -571193.3, -701026.94, -29337.979, 0.03578654, 0.17212877, -564871.7, 69978.24, 0.0, 10.000864, 9.999143 
8.6510265e+2, 2.4522027e+2, -464470.9, -631561.25, -20472.459, 0.03095818, 0.18622072, -461999.13, 74860.664, 0.0, 10.001065, 9.998849 
8.651174e+2, 2.5521916e+2, -330562.03, -516724.6, -21762.297, 0.01725186, 0.19033428, -328051.88, 110819.24, 0.0, 10.001313, 9.998845 
8.651322e+2, 2.652179e+2, -234367.66, -475202.13, -16986.936, 0.010129151, 0.20440051, -233175.4, 107708.95, 0.0, 10.001541, 9.998347 
8.651472e+2, 2.7521643e+2, -106445.39, -363329.56, -17315.08, 0.008939695, 0.22498575, -105283.53, 137616.02, 0.0, 10.001749, 9.9983425 
8.651624e+2, 2.852146e+2, -15525.976, -328907.0, -6381.3755, 0.016299302, 0.23325714, -15396.086, 129522.03, 0.0, 10.00196, 9.997805 
8.6517775e+2, 2.9521233e+2, 113053.95, -216142.9, -2604.5796, 0.031142786, 0.22823368, 113074.555, 160014.52, 0.0, 10.00217, 9.997805 
8.65193e+2, 3.0520985e+2, 220401.33, -95600.62, 1183.1987, 0.03362901, 0.17847015, 220405.77, 220405.77, 0.0, 10.002383, 9.998195 
8.6520815e+2, 3.1520832e+2, 255566.95, -70338.62, -1346.0326, 0.027536904, 0.20687197, 255572.52, 255572.52, 0.0, 10.002589, 9.998269 
8.749211e+2, 1.2520581e+2, -1719927.5, -1727200.1, -50789.04, 0.02056796, 0.06501485, -1672644.8, 40345.957, 0.0000000055054987, 10.000014, 9.999906 
8.749373e+2, 1.3520618e+2, -1608627.5, -1600549.9, 56588.32, -0.07521414, 0.091193475, -1547856.4, 67131.87, 0.0, 9.999997, 10.000117 
8.749542e+2, 1.4520639e+2, -1482839.6, -1446334.3, -18566.031, 0.0018888159, 0.08241902, -1438551.3, 78435.086, 0.0, 10.000009, 10.000493 
8.7496907e+2, 1.5520673e+2, -1375596.1, -1343917.1, -15175.973, -0.03314322, 0.06762561, -1337820.4, 81161.5, 0.0, 10.0000725, 10.000492 
8.74984e+2, 1.6520713e+2, -1292042.9, -1285974.4, -24237.484, -0.04378993, 0.07403452, -1264582.0, 56396.16, 0.0, 10.000115, 10.000196 
8.749992e+2, 1.7520757e+2, -1191056.1, -1187029.8, -25249.426, -0.019609675, 0.09779663, -1163713.4, 59261.68, 0.0, 10.000138, 10.000192 
8.7501425e+2, 1.8520777e+2, -1121815.9, -1156488.3, -32411.908, -0.0049613784, 0.12400125, -1102395.1, 22580.018, 0.0, 10.000172, 9.999713 
8.7502897e+2, 1.9520773e+2, -1017749.8, -1055163.9, -28181.264, -0.0034586976, 0.15017757, -1002631.75, 24346.361, 0.0, 10.000212, 9.999717 
8.7504387e+2, 2.0520744e+2, -910880.1, -967669.8, -19664.04, 0.0008245543, 0.15654632, -904735.94, 24246.236, 0.0, 10.000337, 9.999585 
8.750589e+2, 2.1520689e+2, -783481.5, -855497.06, -20135.23, 0.009068265, 0.14251846, -778234.1, 52753.176, 0.0, 10.000538, 9.999585 
8.750739e+2, 2.2520638e+2, -687241.2, -801768.9, -26072.453, 0.021425657, 0.15419054, -681585.06, 51407.938, 0.0, 10.000713, 9.999197 
8.750888e+2, 2.352059e+2, -567108.5, -692856.9, -23787.396, 0.037494324, 0.18731946, -562759.1, 72240.23, 0.0, 10.000864, 9.999199 
8.751038e+2, 2.45205e+2, -466538.6, -636158.3, -11212.774, 0.0381306, 0.19718765, -465800.56, 71208.64, 0.0, 10.001065, 9.998817 
8.7511873e+2, 2.5520366e+2, -332521.13, -520990.6, -12477.107, 0.024617594, 0.18300903, -331698.72, 107323.73, 0.0, 10.001314, 9.998816 
8.751338e+2, 2.6520234e+2, -234633.69, -475785.3, -9189.624, 0.016092544, 0.1903855, -234284.0, 106752.484, 0.0, 10.00154, 9.998343 
8.7514895e+2, 2.752009e+2, -106695.52, -363641.44, -9428.684, 0.011521559, 0.21483746, -106350.0, 136701.58, 0.0, 10.001747, 9.998342 
8.751643e+2, 2.8519917e+2, -7966.2993, -312973.16, 1606.1163, 0.0119370315, 0.22773702, -7957.8423, 137111.45, 0.0, 10.001958, 9.997915 
8.7517977e+2, 2.9519707e+2, 120821.305, -200137.36, 5375.3623, 0.017618459, 0.22845753, 120911.305, 168000.86, 0.0, 10.00217, 9.997915 
8.751952e+2, 3.0519468e+2, 223500.61, -89352.695, 9117.328, 0.020038612, 0.18235113, 223766.08, 223766.08, 0.0, 10.002384, 9.998238 
8.7521064e+2, 3.1519312e+2, 257744.1, -65601.555, 6645.971, 0.02023142, 0.20273784, 257880.64, 257880.64, 0.0, 10.002588, 9.998302 
8.8492113e+2, 1.2519033e+2, -1701885.9, -1718680.1, -54406.152, 0.018753842, 0.080944985, -1655232.6, 57910.27, 0.00000006865042, 10.000139, 9.999904 
8.849371e+2, 1.3519056e+2, -1617156.8, -1602929.8, 55569.75, -0.085396275, 0.09197539, -1554020.0, 61121.5, 0.0, 9.999932, 10.000132 
8.849541e+2, 1.4519078e+2, -1506257.8, -1456949.6, -11454.392, -0.0030048522, 0.08318849, -1454418.6, 62720.69, 0.0, 9.999846, 10.000498 
8.84969e+2, 1.551912e+2, -1400304.9, -1355196.0, -12167.056, -0.03865038, 0.07421014, -1352123.5, 67010.97, 0.0, 9.999901, 10.000497 
8.84984e+2, 1.6519159e+2, -1314298.8, -1295846.4, -22289.107, -0.049074143, 0.080120765, -1280949.4, 40181.297, 0.0, 9.99996, 10.000203 
8.849993e+2, 1.7519197e+2, -1208322.0, -1194444.1, -20119.186, -0.02348781, 0.09757978, -1180100.9, 43027.242, 0.0, 10.000017, 10.000199 
8.8501436e+2, 1.8519215e+2, -1131224.8, -1158096.8, -27451.127, -0.005828976, 0.12027214, -1114097.9, 11030.405, 0.0, 10.000095, 9.999739 
8.8502926e+2, 1.9519214e+2, -1018664.0, -1052691.1, -28767.385, -0.000024913337, 0.14564793, -1002255.7, 24875.307, 0.0, 10.000194, 9.9997425 
8.850442e+2, 2.051919e+2, -914094.75, -967479.6, -18240.324, 0.0033044606, 0.15535732, -908457.75, 20676.863, 0.0, 10.000307, 9.9996 
8.850593e+2, 2.1519142e+2, -797767.7, -860471.3, -16704.99, 0.005985907, 0.1481856, -793595.0, 37544.145, 0.0, 10.000432, 9.999601 
8.8507444e+2, 2.2519094e+2, -699351.44, -805775.2, -21913.508, 0.015863115, 0.1598129, -695015.94, 38128.684, 0.0, 10.000623, 9.999212 
8.850896e+2, 2.3519042e+2, -564493.9, -689905.3, -22926.367, 0.032065134, 0.18692423, -560434.1, 74716.91, 0.0, 10.000875, 9.999213 
8.851048e+2, 2.4518949e+2, -462359.28, -635516.75, -10380.134, 0.034504484, 0.19414169, -461739.25, 75421.7, 0.0, 10.001101, 9.998805 
8.8512e+2, 2.5518817e+2, -335229.78, -523523.38, -10461.36, 0.024278512, 0.18023546, -334650.34, 104523.88, 0.0, 10.001301, 9.998804 
8.851353e+2, 2.6518676e+2, -242017.17, -477847.13, -7428.156, 0.018449469, 0.18410333, -241783.44, 99405.12, 0.0, 10.001484, 9.998357 
8.851506e+2, 2.7518532e+2, -119840.49, -368438.5, -6526.5503, 0.016075518, 0.20151244, -119669.266, 123534.79, 0.0, 10.001651, 9.998354 
8.851661e+2, 2.851836e+2, -14933.836, -311312.06, 5157.901, 0.010166913, 0.21686019, -14844.1, 130377.24, 0.0, 10.001889, 9.997959 
8.851818e+2, 2.9518166e+2, 126203.266, -192634.14, 3818.981, 0.0018705219, 0.22898799, 126249.0, 173489.38, 0.0, 10.002186, 9.997958 
8.8519746e+2, 3.051794e+2, 226744.86, -84494.14, 1261.557, 0.0035988973, 0.18917431, 226749.98, 226749.98, 0.0, 10.002393, 9.998267 
8.8521314e+2, 3.1517777e+2, 248305.13, -67654.164, -2278.307, 0.01489714, 0.20285924, 248321.55, 248321.55, 0.0, 10.002513, 9.998324 
8.949211e+2, 1.2517513e+2, -1693749.0, -1702429.1, -56929.945, 0.005866333, 0.1290345, -1640993.9, 72299.625, 0.00000033535434, 10.000141, 10.000015 
8.949371e+2, 1.3517494e+2, -1608747.4, -1585407.1, 47204.285, -0.08515299, 0.08678808, -1548451.8, 66843.0, 0.00000000007521531, 9.999932, 10.000253 
8.94954e+2, 1.4517513e+2, -1510156.3, -1464993.4, -9850.522, 0.009080261, 0.07147795, -1462938.4, 54354.242, 0.0, 9.9998455, 10.000443 
8.949689e+2, 1.5517576e+2, -1403891.1, -1362777.0, -10275.934, -0.030774731, 0.09098826, -1360351.8, 58934.52, 0.0, 9.999902, 10.000445 
8.9498395e+2, 1.6517623e+2, -1310793.1, -1288860.8, -20287.387, -0.04768807, 0.10185612, -1276765.4, 44516.723, 0.0, 9.999961, 10.000252 
8.949992e+2, 1.7517647e+2, -1204912.3, -1187665.8, -18206.328, -0.031194493, 0.10216519, -1176143.8, 47136.617, 0.0, 10.000017, 10.000246 
8.9501435e+2, 1.8517655e+2, -1134502.0, -1165130.9, -24051.797, -0.014904555, 0.113570064, -1121302.9, 3978.4744, 0.0, 10.000095, 9.99969 
8.9502937e+2, 1.9517642e+2, -1021814.4, -1059522.6, -25324.844, -0.0028655273, 0.13352942, -1009095.94, 18189.031, 0.0, 10.000195, 9.999695 
8.950445e+2, 2.0517623e+2, -910977.8, -961314.3, -13766.318, 0.0042105448, 0.14924897, -907458.94, 21829.086, 0.0, 10.000308, 9.999642 
8.950598e+2, 2.1517599e+2, -794751.44, -854405.5, -12166.255, 0.008440188, 0.15833718, -792365.56, 38925.043, 0.0, 10.000433, 9.999643 
8.950751e+2, 2.2517546e+2, -701217.75, -809726.25, -12662.53, 0.013905051, 0.16636564, -699759.7, 33536.555, 0.0, 10.000623, 9.999186 
8.9509034e+2, 2.351747e+2, -566311.94, -693875.56, -13543.288, 0.01969989, 0.17151554, -564889.94, 70414.875, 0.0, 10.000875, 9.9991865 
8.951057e+2, 2.4517374e+2, -461996.0, -635014.4, -2971.1248, 0.020381168, 0.17750347, -461945.0, 75369.875, 0.0, 10.0011015, 9.998808 
8.951212e+2, 2.5517258e+2, -334865.8, -522945.53, -3030.06, 0.016468804, 0.18168421, -334817.0, 104509.516, 0.0, 10.001302, 9.998808 
8.951368e+2, 2.651712e+2, -240015.95, -474046.44, -1351.873, 0.01726019, 0.18517826, -240008.14, 101332.4, 0.0, 10.001485, 9.998383 
8.9515233e+2, 2.7516958e+2, -117455.93, -364334.7, -307.1315, 0.02231406, 0.1852902, -117455.55, 125901.445, 0.0, 10.001655, 9.998381 
8.95168e+2, 2.851679e+2, -16049.017, -314273.9, 16330.139, 0.010707373, 0.20100525, -15157.4795, 130216.77, 0.0, 10.001891, 9.997938 
8.9518374e+2, 2.951661e+2, 124442.79, -195884.7, 14850.398, -0.016118836, 0.22969756, 125129.78, 172522.17, 0.0, 10.002184, 9.997937 
8.951996e+2, 3.0516392e+2, 227241.63, -82799.84, 5754.968, -0.015709171, 0.19859262, 227348.42, 227348.42, 0.0, 10.002389, 9.998281 
8.952156e+2, 3.1516227e+2, 248704.6, -66664.32, 2334.1116, 0.010814422, 0.20585023, 248721.88, 248721.88, 0.0, 10.002512, 9.998332 
9.049211e+2, 1.2515938e+2, -1714119.4, -1699148.6, -56988.05, 0.002044482, 0.12588683, -1649156.4, 64291.797, 0.0000010631732, 9.999946, 10.000132 
9.049369e+2, 1.3515937e+2, -1611714.8, -1572776.5, 41184.31, -0.089115016, 0.08917143, -1546691.3, 68755.86, 0.000000007369457, 9.999852, 10.000377 
9.0495384e+2, 1.4515966e+2, -1523296.3, -1475063.9, -9017.766, 0.011226898, 0.07885588, -1473433.0, 44011.02, 0.0, 9.999772, 10.000409 
9.0496874e+2, 1.5516023e+2, -1432918.9, -1380458.4, -7898.85, -0.029288733, 0.09455214, -1379294.9, 40143.906, 0.0, 9.999719, 10.000412 
9.049838e+2, 1.6516064e+2, -1339717.1, -1303516.4, -15711.535, -0.045525663, 0.10415525, -1297648.5, 23786.63, 0.0, 9.999766, 10.000244 
9.0499914e+2, 1.751609e+2, -1220753.0, -1195917.1, -17906.514, -0.027496384, 0.10562743, -1186544.0, 36889.44, 0.0, 9.999912, 10.000239 
9.0501446e+2, 1.85161e+2, -1137032.4, -1163898.0, -22092.48, -0.010467742, 0.11841259, -1124609.5, 824.5929, 0.0, 10.000069, 9.999712 
9.050296e+2, 1.9516093e+2, -1015537.2, -1054257.6, -18363.955, 0.0017482939, 0.14007504, -1008213.1, 19223.908, 0.0, 10.000229, 9.999715 
9.0504485e+2, 2.0516069e+2, -913607.25, -969696.2, -10418.488, 0.008546325, 0.15402888, -911734.56, 17705.8, 0.0, 10.000321, 9.9995775 
9.0506023e+2, 2.1516031e+2, -811027.94, -869210.9, -16823.469, 0.01193071, 0.15799055, -806513.75, 24930.555, 0.0, 10.000352, 9.99958 
9.050756e+2, 2.2515973e+2, -713959.8, -812957.44, -11922.996, 0.01366065, 0.16163637, -712544.1, 20906.217, 0.0, 10.000524, 9.999211 
9.050911e+2, 2.3515895e+2, -571610.56, -693657.44, -9007.147, 0.013090496, 0.16304533, -570949.44, 64509.02, 0.0, 10.000828, 9.99921 
9.051067e+2, 2.4515799e+2, -468971.47, -644984.94, -1876.367, 0.012193596, 0.17070627, -468951.47, 68517.055, 0.0, 10.001082, 9.998749 
9.0512246e+2, 2.5515684e+2, -340781.0, -532345.0, -6596.4653, 0.011113764, 0.18164918, -340554.13, 98926.45, 0.0, 10.001289, 9.998749 
9.051382e+2, 2.6515546e+2, -229403.75, -467623.7, -6261.8145, 0.011097843, 0.18453622, -229239.27, 112255.6, 0.0, 10.001553, 9.998394 
9.05154e+2, 2.751538e+2, -86017.79, -347935.3, -6505.5767, 0.012106868, 0.17745091, -85856.3, 157655.1, 0.0, 10.001865, 9.998392 
9.0516984e+2, 2.8515208e+2, 5151.5806, -304372.47, 7408.9907, 0.0012887216, 0.1916401, 5328.826, 150857.45, 0.0, 10.002039, 9.997935 
9.051858e+2, 2.951503e+2, 109426.4, -203462.34, 7055.767, -0.020563489, 0.22384362, 109585.43, 157132.13, 0.0, 10.002083, 9.997933 
9.0520185e+2, 3.0514815e+2, 202714.33, -97096.52, -2155.1145, -0.020173451, 0.19933487, 202729.81, 202729.81, 0.0, 10.002232, 9.998258 
9.0521795e+2, 3.151465e+2, 240573.97, -73759.53, -8200.19, 0.0015597073, 0.2089593, 240787.75, 240787.75, 0.0, 10.00247, 9.998303 
9.1492116e+2, 1.2514313e+2, -1705619.1, -1681725.5, -54827.16, 0.006529825, 0.07066676, -1637558.6, 76048.12, 0.0000026057617, 9.999946, 10.000252 
9.1493666e+2, 1.351439e+2, -1602925.9, -1554417.0, 37143.598, -0.09792042, 0.098731734, -1534310.1, 81288.25, 0.00000007607973, 9.999851, 10.000504 
9.1495353e+2, 1.451444e+2, -1524489.6, -1477570.5, -11259.138, 0.0027215562, 0.105475895, -1475008.6, 42584.69, 0.0, 9.999772, 10.000393 
9.1496843e+2, 1.5514459e+2, -1434208.3, -1383187.4, -10033.952, -0.034378007, 0.08513111, -1381285.0, 38306.684, 0.0, 9.999719, 10.000393 
9.1498363e+2, 1.6514489e+2, -1344305.4, -1313172.3, -10504.735, -0.04263884, 0.087109976, -1309959.4, 11630.299, 0.0, 9.999766, 10.000178 
9.149992e+2, 1.7514528e+2, -1224995.9, -1205006.3, -12636.645, -0.012556977, 0.107914895, -1198889.5, 24697.672, 0.0, 9.999913, 10.000177 
9.150146e+2, 1.8514553e+2, -1130796.6, -1151198.5, -16305.653, 0.0072747692, 0.13465333, -1121763.9, 3822.394, 0.0, 10.00007, 9.999799 
9.1502994e+2, 1.9514562e+2, -1009629.56, -1042156.94, -12758.087, 0.013606754, 0.16499001, -1005222.6, 22364.348, 0.0, 10.000229, 9.999798 
9.150452e+2, 2.0514525e+2, -925519.8, -994668.3, -9621.6875, 0.01611617, 0.16956651, -924205.94, 5385.578, 0.0, 10.000322, 9.999407 
9.150606e+2, 2.1514444e+2, -822537.3, -893636.75, -15804.1875, 0.016332792, 0.14742264, -819182.6, 12417.306, 0.0, 10.000354, 9.999413 
9.150762e+2, 2.2514378e+2, -708429.56, -801992.44, -629.8309, 0.014938645, 0.14580308, -708425.3, 25181.338, 0.0, 10.0005245, 9.999286 
9.1509193e+2, 2.351432e+2, -566405.8, -683022.6, 2199.3782, 0.011903305, 0.16122027, -566364.4, 69247.586, 0.0, 10.000828, 9.999284 
9.151078e+2, 2.4514225e+2, -477562.44, -662821.56, 5714.034, 0.009612584, 0.17342709, -477386.34, 60235.508, 0.0, 10.001081, 9.998627 
9.151237e+2, 2.5514096e+2, -349139.72, -549867.2, 1136.4702, 0.008046982, 0.1802677, -349133.28, 90503.04, 0.0, 10.001289, 9.99863 
9.151397e+2, 2.6513946e+2, -229718.16, -468320.13, 5454.225, 0.00017705209, 0.18224704, -229593.55, 112057.86, 0.0, 10.001553, 9.998389 
9.151556e+2, 2.751378e+2, -86658.26, -348785.94, 5005.5923, -0.013847247, 0.17727587, -86562.71, 157104.48, 0.0, 10.001863, 9.998387 
9.1517174e+2, 2.8513607e+2, 5390.743, -303198.78, 8750.452, -0.017896976, 0.18820809, 5638.6743, 151323.11, 0.0, 10.002035, 9.997945 
9.15188e+2, 2.9513425e+2, 109859.125, -202155.13, 8561.834, -0.012406821, 0.21207371, 110093.89, 157797.05, 0.0, 10.00208, 9.997944 
9.1520417e+2, 3.0513212e+2, 198589.56, -105543.375, 6810.72, -0.010713275, 0.19220732, 198742.0, 198742.0, 0.0, 10.002231, 9.9982 
9.1522026e+2, 3.151305e+2, 236014.4, -83019.51, 918.76996, -0.013127548, 0.21073107, 236017.06, 236017.06, 0.0, 10.002468, 9.99824 
9.249209e+2, 1.2512727e+2, -1732205.5, -1691519.8, -47149.188, 0.0009306804, 0.049406826, -1660512.0, 53249.21, 0.000005355975, 9.99975, 10.000278 
9.249364e+2, 1.3512823e+2, -1634803.6, -1566018.1, 31286.314, -0.09707655, 0.09289823, -1553916.9, 61834.676, 0.00000033393198, 9.999618, 10.000536 
9.249532e+2, 1.4512885e+2, -1548517.6, -1486830.0, -13814.086, 0.0073618265, 0.10754319, -1483877.8, 33867.797, 0.0, 9.999598, 10.000413 
9.2496806e+2, 1.5512899e+2, -1434234.3, -1380926.0, -9759.61, -0.037035473, 0.08017762, -1379195.5, 40548.94, 0.0, 9.999709, 10.000413 
9.249834e+2, 1.6512924e+2, -1339091.4, -1317579.9, -4665.428, -0.044257794, 0.08139108, -1316611.6, 5131.1177, 0.0, 9.999833, 10.000115 
9.249992e+2, 1.7512962e+2, -1222350.5, -1210513.1, -6692.1563, -0.004904918, 0.10754702, -1207497.9, 16242.777, 0.0, 9.999962, 10.000115 
9.2501485e+2, 1.8512987e+2, -1131458.1, -1151489.9, -14297.418, 0.017418655, 0.137038, -1124017.4, 1722.3922, 0.0, 10.000065, 9.999799 
9.2503023e+2, 1.9512996e+2, -1021715.3, -1048021.56, -17580.37, 0.01964965, 0.16749188, -1012912.25, 14827.857, 0.0, 10.000147, 9.999797 
9.2504555e+2, 2.0512952e+2, -934010.6, -1007368.6, -13764.264, 0.016966866, 0.16846275, -931513.06, -1767.7318, 0.0, 10.000301, 9.999329 
9.25061e+2, 2.1512856e+2, -803266.7, -892927.25, -13163.825, 0.010917337, 0.13934416, -801374.0, 30381.148, 0.0, 10.000524, 9.999335 
9.250767e+2, 2.251278e+2, -688233.7, -797699.9, 3565.6345, 0.010037196, 0.13582751, -688117.6, 45644.902, 0.0, 10.000688, 9.999237 
9.2509276e+2, 2.3512721e+2, -574583.2, -692360.1, -2936.8135, 0.014058646, 0.15399548, -574510.0, 61257.824, 0.0, 10.000795, 9.999235 
9.2510885e+2, 2.4512625e+2, -496068.6, -680052.9, -721.4136, 0.01180281, 0.16918756, -496065.75, 41712.4, 0.0, 10.000991, 9.998552 
9.2512494e+2, 2.551249e+2, -357534.2, -562238.1, -2029.1125, 0.0035607612, 0.17949615, -357514.06, 82279.29, 0.0, 10.001268, 9.998554 
9.2514104e+2, 2.6512334e+2, -239867.53, -477166.44, 3020.7576, -0.008006246, 0.18058772, -239829.08, 101980.01, 0.0, 10.0015, 9.998354 
9.251573e+2, 2.751216e+2, -114257.2, -365969.13, 159.80293, -0.023132257, 0.17028129, -114257.1, 129568.38, 0.0, 10.00169, 9.998353 
9.251736e+2, 2.851198e+2, -21497.938, -319846.84, -4211.835, -0.025513891, 0.17902686, -21438.49, 124404.67, 0.0, 10.001867, 9.997911 
9.2519003e+2, 2.9511797e+2, 99245.27, -210841.13, -7524.4546, -0.015298176, 0.20402218, 99427.75, 147289.89, 0.0, 10.002023, 9.997911 
9.2520636e+2, 3.0511585e+2, 194695.05, -107808.71, -4263.1846, -0.015748981, 0.18618014, 194755.11, 194755.11, 0.0, 10.002206, 9.998197 
9.252226e+2, 3.1511417e+2, 228704.88, -87236.6, -6449.1816, -0.027560359, 0.20059073, 228836.47, 228836.47, 0.0, 10.002421, 9.998234 
9.349205e+2, 1.2511186e+2, -1737441.4, -1702153.4, -46217.92, -0.017239736, 0.06287598, -1670326.1, 43585.254, 0.000009813605, 9.999748, 10.000207 
9.349361e+2, 1.351124e+2, -1639683.9, -1575802.6, 25927.063, -0.08648624, 0.07195465, -1566604.4, 49301.94, 0.0000009955157, 9.999616, 10.000469 
9.34953e+2, 1.4511299e+2, -1544745.8, -1479083.3, -9969.37, 0.025501361, 0.08500243, -1477603.0, 40297.688, 0.00000000002439963, 9.999598, 10.000466 
9.3496776e+2, 1.551134e+2, -1430391.5, -1373133.0, -5722.9067, -0.03747856, 0.079545245, -1372566.6, 47329.926, 0.0, 9.999709, 10.000466 
9.3498313e+2, 1.6511373e+2, -1343298.8, -1326477.0, 49.26457, -0.050721753, 0.08699517, -1326476.9, -4582.6753, 0.0, 9.999833, 10.000054 
9.349992e+2, 1.7511396e+2, -1226536.3, -1219444.4, -2150.4702, -0.0046719047, 0.10455969, -1218843.3, 5050.406, 0.0, 9.999962, 10.000054 
9.350149e+2, 1.8511404e+2, -1137744.5, -1164853.6, -11533.8125, 0.019850586, 0.12563999, -1133501.4, -7607.0547, 0.0, 10.000066, 9.999706 
9.3503034e+2, 1.9511397e+2, -1027702.75, -1060839.3, -14806.674, 0.019831432, 0.14782639, -1022050.6, 5845.703, 0.0, 10.000148, 9.999708 
9.350458e+2, 2.0511352e+2, -932945.8, -1005498.94, -5715.835, 0.011160186, 0.15092261, -932498.3, -2596.7778, 0.0, 10.000302, 9.999342 
9.3506134e+2, 2.1511269e+2, -802425.0, -891456.8, -5241.876, -0.0041696304, 0.1336891, -802117.44, 29792.34, 0.0, 10.000524, 9.999345 
9.3507725e+2, 2.2511184e+2, -699989.25, -822508.44, 7371.575, -0.0010166495, 0.13162585, -699547.3, 34370.625, 0.0, 10.000689, 9.999066 
9.350936e+2, 2.3511103e+2, -585915.06, -716634.3, 1034.9828, 0.019289188, 0.14152476, -585906.9, 50019.09, 0.0, 10.000798, 9.999067 
9.3510985e+2, 2.4510998e+2, -497893.75, -684616.9, 9543.384, 0.018441547, 0.15816319, -497407.28, 40529.945, 0.0, 10.000994, 9.99852 
9.351261e+2, 2.5510868e+2, -359581.53, -566956.06, 8247.379, -0.0024973531, 0.17921, -359254.03, 80697.52, 0.0, 10.001269, 9.998522 
9.351425e+2, 2.651071e+2, -244507.34, -486894.72, 9915.645, -0.013868983, 0.17947966, -244102.39, 97865.445, 0.0, 10.0015, 9.998287 
9.3515897e+2, 2.7510518e+2, -119095.55, -375643.44, 7202.827, -0.016626613, 0.15700412, -118893.48, 125092.6, 0.0, 10.001688, 9.998287 
9.351755e+2, 2.8510326e+2, -27018.305, -330869.53, 1680.6217, -0.022184828, 0.16452624, -27009.01, 118995.61, 0.0, 10.001864, 9.997837 
9.351918e+2, 2.9510146e+2, 94145.2, -221407.0, -1648.3588, -0.029213654, 0.19919333, 94153.81, 142177.3, 0.0, 10.002023, 9.99784 
9.352083e+2, 3.050993e+2, 197159.05, -102131.61, 3712.2905, -0.03507632, 0.18104324, 197205.08, 197205.08, 0.0, 10.002203, 9.998238 
9.3522483e+2, 3.150975e+2, 230007.27, -82284.734, 1829.562, -0.041871816, 0.17862117, 230017.97, 230017.97, 0.0, 10.002412, 9.998273 
9.4492e+2, 1.2509626e+2, -1781892.4, -1726737.6, -43064.65, -0.023866164, 0.06375814, -1703177.1, 10886.115, 0.000016619406, 9.999456, 10.000179 
9.449357e+2, 1.350967e+2, -1649446.4, -1583291.6, 25809.797, -0.08674812, 0.061661817, -1574413.5, 41646.31, 0.0000023427797, 9.999561, 10.000444 
9.449526e+2, 1.4509724e+2, -1538416.8, -1479609.8, -7255.0166, 0.029422691, 0.07558694, -1478728.0, 39326.586, 0.0000000053592455, 9.999657, 10.000434 
9.449675e+2, 1.550977e+2, -1426465.9, -1374722.3, -9647.8, -0.033877127, 0.075341664, -1372981.9, 47068.203, 0.0, 9.999752, 10.000435 
9.44983e+2, 1.6509798e+2, -1342230.5, -1333312.6, -5948.7905, -0.048541054, 0.08541721, -1330337.3, -8289.277, 0.0, 9.999873, 9.999988 
9.4499916e+2, 1.7509815e+2, -1222740.6, -1224941.6, -8702.84, -0.0053499513, 0.10307853, -1215069.0, 8979.106, 0.0, 10.00002, 9.999988 
9.45015e+2, 1.850981e+2, -1130316.0, -1171663.5, -19478.795, 0.01736782, 0.119326495, -1122585.0, 3465.0974, 0.0, 10.000162, 9.999613 
9.450305e+2, 1.9509783e+2, -1012539.7, -1063783.3, -23064.947, 0.016825246, 0.13204467, -1003687.3, 24366.639, 0.0, 10.000297, 9.999616 
9.450461e+2, 2.0509735e+2, -915053.8, -998759.94, -12645.791, 0.010037847, 0.13727894, -913185.1, 16874.328, 0.0, 10.000434, 9.999324 
9.4506186e+2, 2.1509662e+2, -796709.56, -890762.75, -14469.298, -0.0010976942, 0.1330611, -794533.9, 37532.63, 0.0, 10.000572, 9.999326 
9.45078e+2, 2.2509573e+2, -698947.94, -835074.44, -1649.2513, 0.0016767109, 0.13180664, -698927.94, 35147.24, 0.0, 10.000752, 9.998949 
9.450944e+2, 2.3509468e+2, -568787.7, -721470.25, -4217.8896, 0.016999695, 0.13108817, -568671.25, 67414.24, 0.0, 10.000973, 9.99895 
9.451109e+2, 2.450935e+2, -477028.75, -682957.44, 6701.2593, 0.012932046, 0.14492671, -476810.9, 61287.06, 0.0, 10.001174, 9.998445 
9.451273e+2, 2.550922e+2, -352601.34, -572000.06, 2136.3613, -0.009531055, 0.1704334, -352580.53, 87532.01, 0.0, 10.001354, 9.998446 
9.4514394e+2, 2.6509058e+2, -251398.88, -496184.25, -1031.2959, -0.01874542, 0.17470399, -251394.52, 90734.61, 0.0, 10.001478, 9.998234 
9.451606e+2, 2.750886e+2, -143401.52, -393218.44, -2913.271, -0.015561842, 0.1560562, -143367.55, 100780.17, 0.0, 10.001547, 9.998235 
9.4517726e+2, 2.8508666e+2, -49747.6, -345491.9, -2961.3184, -0.023609824, 0.16162133, -49717.953, 96448.92, 0.0, 10.001724, 9.997805 
9.451937e+2, 2.9508474e+2, 90181.91, -226882.22, -3551.75, -0.04163901, 0.18868887, 90221.69, 138408.28, 0.0, 10.00201, 9.9978075 
9.4521034e+2, 3.050826e+2, 189051.11, -101608.805, -2277.0083, -0.049320392, 0.16978444, 189068.95, 189068.95, 0.0, 10.002129, 9.998277 
9.4522697e+2, 3.1508085e+2, 184168.52, -100225.44, -4388.6724, -0.04850612, 0.1676516, 184236.22, 184236.22, 0.0, 10.002079, 9.99831 
9.549195e+2, 1.2508053e+2, -1780913.5, -1724644.9, -33179.13, -0.020095339, 0.05190001, -1709277.5, 4939.263, 0.000026449812, 9.999455, 10.000195 
9.5493513e+2, 1.3508108e+2, -1648701.8, -1581454.4, 29400.934, -0.098459855, 0.061927885, -1570413.0, 45798.965, 0.0000047469885, 9.99956, 10.000458 
9.549522e+2, 1.4508164e+2, -1547013.8, -1497423.5, -3769.8586, 0.018528797, 0.079301275, -1497138.6, 21068.36, 0.000000046136613, 9.999657, 10.000312 
9.549673e+2, 1.5508184e+2, -1434863.8, -1392354.0, -6244.3726, -0.02631857, 0.06757982, -1391455.8, 28749.078, 0.0, 9.999753, 10.000314 
9.54983e+2, 1.6508202e+2, -1347329.0, -1344192.4, -622.79126, -0.03769172, 0.07662272, -1344073.3, -21869.44, 0.0, 9.999873, 9.999913 
9.5499915e+2, 1.7508219e+2, -1227758.5, -1235663.5, -3383.7576, -0.007028188, 0.10309807, -1226508.0, -2304.1233, 0.0, 10.000021, 9.999914 
9.5501506e+2, 1.8508205e+2, -1137062.3, -1185959.8, -14701.605, 0.009868097, 0.11812658, -1132982.4, -6775.53, 0.0, 10.000163, 9.999515 
9.550307e+2, 1.9508159e+2, -1019260.56, -1078079.5, -18373.307, 0.010567349, 0.12013148, -1013993.0, 14219.809, 0.0, 10.000298, 9.999517 
9.550466e+2, 2.0508105e+2, -918310.56, -1005895.75, -7801.2705, 0.0133322235, 0.12744157, -917621.1, 12597.766, 0.0, 10.000435, 9.999275 
9.550627e+2, 2.1508041e+2, -799844.25, -897680.1, -9592.585, 0.019474331, 0.1372348, -798912.6, 33312.516, 0.0, 10.000574, 9.999278 
9.550789e+2, 2.2507946e+2, -703590.2, -845168.6, 6305.2295, 0.017636703, 0.13620241, -703309.94, 30924.314, 0.0, 10.000754, 9.998879 
9.5509535e+2, 2.350782e+2, -573451.5, -731582.2, 3796.0361, 0.007477693, 0.12269634, -573360.44, 62885.88, 0.0, 10.000975, 9.998879 
9.5511186e+2, 2.4507686e+2, -485207.8, -700248.9, 13271.344, -0.004299821, 0.12963615, -484391.84, 53868.39, 0.0, 10.001174, 9.998325 
9.551286e+2, 2.5507542e+2, -360769.66, -589026.5, 8844.041, -0.017513432, 0.15357639, -360427.5, 79848.61, 0.0, 10.001354, 9.99833 
9.551453e+2, 2.650738e+2, -254492.4, -502699.78, 1436.0944, -0.022810057, 0.1663632, -254484.1, 87808.73, 0.0, 10.001478, 9.998189 
9.551621e+2, 2.7507198e+2, -146248.4, -399470.66, -384.10147, -0.020250574, 0.166484, -146247.81, 98062.555, 0.0, 10.001548, 9.998192 
9.551789e+2, 2.8507e+2, -49551.92, -344978.7, 7691.8604, -0.030070392, 0.16948533, -49351.79, 96978.08, 0.0, 10.001723, 9.997808 
9.551956e+2, 2.9506785e+2, 89703.78, -226663.97, 7304.7036, -0.052341986, 0.1730339, 89872.36, 138223.69, 0.0, 10.002005, 9.997812 
9.5521235e+2, 3.050657e+2, 190615.47, -96916.81, -4012.0583, -0.058694676, 0.15285969, 190671.44, 190671.44, 0.0, 10.002122, 9.998313 
9.5522904e+2, 3.1506416e+2, 185803.22, -95862.586, -6002.044, -0.049728822, 0.16584602, 185931.06, 185931.06, 0.0, 10.002074, 9.9983425 
9.6491885e+2, 1.2506452e+2, -1799166.6, -1733484.6, -46725.402, -0.01964915, 0.04809626, -1709213.5, 5159.548, 0.00003990401, 9.9993305, 10.000194 
9.649346e+2, 1.3506508e+2, -1652971.9, -1583824.6, 8304.079, -0.10229483, 0.05759918, -1582841.3, 33526.977, 0.000008636752, 9.999533, 10.000454 
9.6495175e+2, 1.4506559e+2, -1547750.5, -1504057.1, -25024.959, 0.013778937, 0.076828845, -1492684.5, 25678.879, 0.00000019058375, 9.999679, 10.000256 
9.6496713e+2, 1.5506572e+2, -1435276.3, -1398739.1, -22757.588, -0.026152628, 0.06312382, -1387824.6, 32537.42, 0.0, 9.999777, 10.000258 
9.6498287e+2, 1.6506582e+2, -1351569.6, -1355361.1, -13665.092, -0.03460017, 0.07022143, -1339669.5, -17307.56, 0.0, 9.999884, 9.999831 
9.649992e+2, 1.750659e+2, -1236590.4, -1248867.3, -17083.738, -0.0029905601, 0.09496174, -1224575.8, -212.83492, 0.0, 9.999999, 9.999834 
9.6501523e+2, 1.8506569e+2, -1141814.9, -1196852.5, -26064.604, 0.013074649, 0.11157611, -1131430.6, -5063.8823, 0.0, 10.000168, 9.999437 
9.650311e+2, 1.950652e+2, -1011297.3, -1082823.3, -28327.326, 0.011058336, 0.11837722, -1001437.6, 26935.53, 0.0, 10.00039, 9.99944 
9.6504706e+2, 2.0506461e+2, -902553.06, -1004355.1, -18604.766, 0.01423314, 0.12796351, -899259.5, 31120.223, 0.0, 10.000569, 9.99922 
9.6506333e+2, 2.1506391e+2, -784111.5, -896083.44, -20997.572, 0.023727557, 0.137411, -780303.4, 52083.137, 0.0, 10.000709, 9.999224 
9.650797e+2, 2.2506292e+2, -692582.56, -847656.0, -3298.0771, 0.019499248, 0.13706496, -692512.44, 41883.8, 0.0, 10.000864, 9.998809 
9.6509624e+2, 2.3506162e+2, -569628.5, -737547.75, -6033.913, 0.0015832483, 0.12539801, -569412.0, 66996.77, 0.0, 10.001035, 9.99881 
9.65113e+2, 2.4506016e+2, -491625.88, -711775.9, 2691.0925, -0.010319222, 0.12925875, -491593.0, 46830.633, 0.0, 10.001167, 9.99825 
9.651299e+2, 2.550586e+2, -379579.13, -606391.8, 1215.2427, -0.01631821, 0.1452453, -379572.6, 60868.285, 0.0, 10.001261, 9.998255 
9.651468e+2, 2.6505688e+2, -269742.22, -517449.53, -5709.7617, -0.020414822, 0.15749206, -269610.7, 72847.734, 0.0, 10.001406, 9.998123 
9.6516365e+2, 2.7505505e+2, -143236.94, -405384.6, -9324.478, -0.022597248, 0.1643008, -142905.69, 101570.51, 0.0, 10.0016, 9.998126 
9.651805e+2, 2.8505307e+2, -47302.863, -338186.9, 406.0518, -0.033375137, 0.16726752, -47302.297, 99193.4, 0.0, 10.001715, 9.997859 
9.6519744e+2, 2.950509e+2, 56104.953, -237027.14, 3274.321, -0.05269278, 0.16434427, 56141.523, 104658.42, 0.0, 10.001749, 9.997864 
9.652143e+2, 3.0504882e+2, 148182.75, -117461.68, -12143.618, -0.063122906, 0.14995782, 148736.72, 148736.72, 0.0, 10.001831, 9.998311 
9.652309e+2, 3.1504738e+2, 169649.42, -104025.99, -16821.828, -0.06569554, 0.1764252, 170679.52, 170679.52, 0.0, 10.0019655, 9.998339 
9.749181e+2, 1.2504828e+2, -1801026.9, -1736813.8, -33721.92, -0.024476249, 0.05218949, -1722358.5, -7826.585, 0.000057479218, 9.999328, 10.000173 
9.7493416e+2, 1.3504866e+2, -1654795.3, -1587412.3, 15504.42, -0.09833047, 0.048571866, -1584016.0, 32512.514, 0.000014404859, 9.999532, 10.00043 
9.749515e+2, 1.450492e+2, -1547160.0, -1503086.5, -21587.775, 0.015166033, 0.06812372, -1494274.5, 24249.09, 0.0000005546723, 9.99968, 10.000262 
9.749668e+2, 1.550494e+2, -1434667.5, -1397650.4, -19341.332, -0.033628102, 0.06192974, -1389388.5, 31132.992, 0.0, 9.999777, 10.000266 
9.749827e+2, 1.6504942e+2, -1357831.3, -1368609.1, -9516.935, -0.039531, 0.06622135, -1352283.5, -29761.416, 0.0, 9.999885, 9.999741 
9.7499925e+2, 1.7504929e+2, -1242708.6, -1261934.1, -12982.505, 0.0066062845, 0.07868832, -1236167.4, -11642.313, 0.0, 10.0, 9.999744 
9.750156e+2, 1.8504904e+2, -1145774.4, -1205406.3, -18058.486, 0.026802719, 0.09960459, -1140732.0, -14202.691, 0.0, 10.000169, 9.999378 
9.750315e+2, 1.9504869e+2, -1015243.5, -1091336.9, -20328.846, 0.018138953, 0.12653378, -1010153.06, 18381.719, 0.0, 10.000391, 9.999382 
9.750476e+2, 2.0504808e+2, -906736.25, -1013400.8, -13769.369, 0.012761105, 0.13873531, -904987.44, 25554.406, 0.0, 10.00057, 9.999158 
9.750639e+2, 2.1504718e+2, -788216.25, -905049.94, -16142.959, 0.012021176, 0.13387184, -786026.8, 46523.797, 0.0, 10.00071, 9.999162 
9.7508043e+2, 2.2504613e+2, -697493.44, -858304.6, 2821.4126, 0.00752611, 0.13451235, -697443.94, 37116.945, 0.0, 10.000865, 9.998735 
9.7509724e+2, 2.350449e+2, -574627.4, -748182.7, 166.27858, -0.0009802568, 0.13858375, -574627.2, 61945.51, 0.0, 10.001036, 9.998736 
9.751142e+2, 2.450434e+2, -494154.28, -717215.9, 6031.2803, -0.005756752, 0.14306672, -493991.3, 44596.684, 0.0, 10.001167, 9.998213 
9.751312e+2, 2.5504163e+2, -382098.2, -611828.44, 4658.4326, -0.006654701, 0.14508425, -382003.75, 58603.0, 0.0, 10.001261, 9.998218 
9.7514826e+2, 2.6503977e+2, -276008.38, -530518.4, 1574.0056, -0.0120908655, 0.14818555, -275998.63, 66627.1, 0.0, 10.001406, 9.998034 
9.7516525e+2, 2.7503785e+2, -149577.97, -418419.34, -1851.6389, -0.022623459, 0.1502305, -149565.22, 95079.75, 0.0, 10.001599, 9.998037 
9.7518224e+2, 2.8503585e+2, -41324.11, -325230.63, 1803.3925, -0.033911217, 0.15549418, -41312.656, 105351.516, 0.0, 10.001712, 9.997951 
9.751993e+2, 2.9503387e+2, 61762.664, -224030.19, 4666.5454, -0.044427965, 0.16205876, 61838.844, 110522.125, 0.0, 10.001743, 9.997956 
9.752161e+2, 3.0503196e+2, 144470.19, -123606.64, -6966.853, -0.06375875, 0.1600203, 144651.13, 144651.13, 0.0, 10.001824, 9.998273 
9.7523254e+2, 3.150306e+2, 165839.95, -110466.87, -11109.586, -0.09513179, 0.19741271, 166285.92, 166285.92, 0.0, 10.001959, 9.998298 
9.849174e+2, 1.2503174e+2, -1799850.6, -1733432.5, -35601.7, -0.025972083, 0.045878325, -1717955.6, -3262.3208, 0.00007951568, 9.999324, 10.000197 
9.849336e+2, 1.3503204e+2, -1676039.8, -1595348.0, 11159.621, -0.09640529, 0.030880086, -1593833.0, 22857.256, 0.000022398126, 9.999377, 10.000449 
9.849511e+2, 1.4503251e+2, -1576570.4, -1529039.8, -26865.566, 0.014413685, 0.05140481, -1516936.5, 1749.2682, 0.0000013019285, 9.999529, 10.000156 
9.849666e+2, 1.550327e+2, -1441411.5, -1412302.0, -33193.64, -0.03532134, 0.053139534, -1390612.3, 30072.406, 0.0, 9.99978, 10.000163 
9.849826e+2, 1.6503271e+2, -1342357.9, -1361257.5, -25235.26, -0.041589875, 0.060916446, -1324861.1, -2175.592, 0.0, 9.999991, 9.999739 
9.849993e+2, 1.7503257e+2, -1219067.5, -1250607.8, -22077.98, 0.004417644, 0.07250089, -1207705.8, 16982.652, 0.0, 10.000163, 9.999743 
9.8501575e+2, 1.8503231e+2, -1126865.3, -1202355.6, -21990.074, 0.02638909, 0.09418545, -1120926.8, 5766.081, 0.0, 10.000325, 9.999324 
9.8503196e+2, 1.9503193e+2, -1006267.9, -1093017.6, -24052.732, 0.021573765, 0.12340917, -1000045.25, 28653.486, 0.0, 10.000479, 9.999328 
9.850483e+2, 2.0503123e+2, -901960.7, -1020720.3, -19236.113, 0.01667059, 0.13614005, -898922.6, 31784.0, 0.0, 10.000646, 9.999071 
9.850647e+2, 2.1503024e+2, -777303.4, -909446.7, -23644.525, 0.0130832065, 0.13027987, -773200.06, 59516.426, 0.0, 10.000827, 9.999075 
9.850814e+2, 2.2502913e+2, -688781.4, -859547.1, -6346.764, 0.008405841, 0.13197425, -688545.8, 46181.594, 0.0, 10.000949, 9.998686 
9.8509824e+2, 2.3502788e+2, -581494.5, -756776.25, -7437.9824, 0.0021439716, 0.13863003, -581179.44, 55560.043, 0.0, 10.001012, 9.998689 
9.851153e+2, 2.4502635e+2, -506373.7, -729629.7, -1485.5116, -0.0032859999, 0.14528161, -506363.78, 32391.387, 0.0, 10.001112, 9.998154 
9.8513246e+2, 2.5502455e+2, -387848.66, -621161.44, -4720.9897, -0.007679337, 0.14950098, -387753.16, 53021.348, 0.0, 10.00125, 9.998158 
9.851497e+2, 2.6502264e+2, -282076.97, -535047.8, -4819.926, -0.013433458, 0.15234298, -281985.2, 60808.75, 0.0, 10.001371, 9.998018 
9.851667e+2, 2.7502066e+2, -168555.13, -429063.38, -3034.0593, -0.021059824, 0.15143414, -168519.8, 76293.65, 0.0, 10.001476, 9.998023 
9.851839e+2, 2.8501868e+2, -66040.695, -333995.28, -4118.4116, -0.031100225, 0.15574996, -65977.41, 80855.17, 0.0, 10.001529, 9.997977 
9.8520094e+2, 2.9501677e+2, 32500.566, -234993.28, -5996.657, -0.042002704, 0.16332783, 32634.932, 81486.195, 0.0, 10.00153, 9.997984 
9.852177e+2, 3.0501485e+2, 115345.38, -129698.8, -12024.325, -0.06740193, 0.16051196, 115934.0, 115934.0, 0.0, 10.001591, 9.9983425 
9.8523426e+2, 3.1501353e+2, 135233.6, -117221.8, -8517.561, -0.11023419, 0.19271637, 135520.64, 135520.64, 0.0, 10.001715, 9.998368 
9.9491674e+2, 1.2501493e+2, -1795006.5, -1723443.6, -28465.66, -0.026230317, 0.02853026, -1713501.9, 1354.8666, 0.00010622788, 9.999323, 10.000267 
9.94933e+2, 1.350152e+2, -1671964.4, -1586433.5, 12870.841, -0.09665602, 0.004172025, -1584538.6, 32314.75, 0.00003292342, 9.999374, 10.000512 
9.9495053e+2, 1.4501563e+2, -1592219.4, -1561299.0, -17623.479, 0.011442471, 0.02642803, -1553315.5, -34465.72, 0.0000026281716, 9.999527, 9.999936 
9.949664e+2, 1.5501568e+2, -1456544.0, -1443799.4, -23979.002, -0.03131036, 0.036599316, -1425360.5, -4509.151, 0.00000000019976186, 9.99978, 9.999948 
9.949826e+2, 1.6501571e+2, -1336158.6, -1348712.0, -19045.219, -0.04083709, 0.05417577, -1322382.4, 469.82825, 0.0, 9.999992, 9.9998255 
9.9499935e+2, 1.7501578e+2, -1212742.4, -1237879.9, -15912.655, -0.0095603205, 0.07629627, -1205033.4, 19819.262, 0.0, 10.000164, 9.99983 
9.950159e+2, 1.850155e+2, -1130377.6, -1210029.0, -16578.361, 0.011779264, 0.095371515, -1127064.8, -207.9178, 0.0, 10.000326, 9.999271 
9.950324e+2, 1.9501491e+2, -1009691.75, -1100499.6, -18717.893, 0.021197805, 0.10930299, -1005984.8, 22879.97, 0.0, 10.00048, 9.999276 
9.95049e+2, 2.0501412e+2, -909682.94, -1037132.1, -12795.117, 0.025702933, 0.12041001, -908411.06, 22462.777, 0.0, 10.000647, 9.998959 
9.950656e+2, 2.1501313e+2, -785012.2, -925851.1, -17222.377, 0.026503798, 0.12646034, -782936.75, 49947.26, 0.0, 10.000828, 9.998962 
9.950824e+2, 2.2501196e+2, -690486.2, -863635.7, -4266.189, 0.021670647, 0.1294105, -690381.2, 44514.49, 0.0, 10.000951, 9.998657 
9.9509937e+2, 2.350106e+2, -582985.3, -760562.25, -5335.2334, 0.01065182, 0.12625395, -582825.1, 54083.73, 0.0, 10.001014, 9.998662 
9.951164e+2, 2.4500905e+2, -511710.94, -741378.7, 3633.1936, -0.0028660616, 0.13647258, -511653.47, 27271.527, 0.0, 10.001115, 9.998072 
9.951336e+2, 2.5500733e+2, -393440.47, -633131.1, 613.3334, -0.018925056, 0.15804617, -393438.9, 47505.113, 0.0, 10.001251, 9.998076 
9.9515086e+2, 2.650055e+2, -278631.06, -527765.44, -819.6786, -0.024187842, 0.16907772, -278628.38, 64334.54, 0.0, 10.00137, 9.99807 
9.9516827e+2, 2.7500355e+2, -165500.11, -421785.97, 1012.9582, -0.018463075, 0.16713595, -165496.11, 79485.52, 0.0, 10.0014715, 9.9980755 
9.9518543e+2, 2.8500155e+2, -69089.945, -339193.9, -3757.485, -0.025495773, 0.16736296, -69037.68, 77963.25, 0.0, 10.001524, 9.997945 
9.952024e+2, 2.9499948e+2, 29833.115, -240072.58, -5418.611, -0.04508157, 0.16764967, 29941.855, 78962.64, 0.0, 10.001527, 9.997951 
9.9521923e+2, 3.0499756e+2, 126255.63, -106316.68, -6943.3315, -0.07424223, 0.15203188, 126462.734, 126462.734, 0.0, 10.001587, 9.998506 
9.952359e+2, 3.1499618e+2, 145415.7, -93863.64, -3407.985, -0.11345181, 0.16422519, 145464.23, 145464.23, 0.0, 10.001704, 9.998534 
1.004916e+3, 1.2499812e+2, -1811805.1, -1739044.9, -25478.623, -0.030199088, 0.021205459, -1731010.1, -15989.67, 0.00013782152, 9.99924, 10.0002 
1.0049324e+3, 1.349983e+2, -1664068.0, -1590698.1, 382.23254, -0.09541391, -0.004191836, -1590696.1, 26322.016, 0.000046236724, 9.999464, 10.00044 
1.0049501e+3, 1.4499865e+2, -1577109.3, -1563290.6, -27012.941, 0.010754715, 0.019362975, -1542317.4, -23301.955, 0.00000474816, 9.999671, 9.999852 
1.0049662e+3, 1.5499863e+2, -1452073.5, -1450977.1, -23433.393, -0.028362136, 0.02919104, -1428085.5, -7067.5522, 0.000000004412824, 9.999851, 9.999864 
1.0049826e+3, 1.6499865e+2, -1331412.5, -1348120.0, -18779.31, -0.037368625, 0.0499099, -1319212.8, 3806.527, 0.0, 10.000032, 9.99981 
1.0049995e+3, 1.7499875e+2, -1205767.4, -1236044.3, -23384.188, -0.0090209115, 0.07865539, -1193049.1, 31970.068, 0.0, 10.000219, 9.999816 
1.0050163e+3, 1.8499845e+2, -1122510.3, -1211269.0, -28063.855, 0.01097943, 0.09892263, -1114381.5, 12642.208, 0.0, 10.000402, 9.999226 
1.00503296e+3, 1.9499779e+2, -997819.0, -1099729.0, -29721.377, 0.020690303, 0.10875705, -989784.44, 39248.082, 0.0, 10.000583, 9.999231 
1.00504965e+3, 2.0499693e+2, -898501.9, -1038000.56, -21417.521, 0.026844237, 0.118972205, -895287.6, 35754.64, 0.0, 10.000751, 9.998902 
1.00506656e+3, 2.149959e+2, -777291.2, -928380.3, -21700.91, 0.030517418, 0.12705494, -774236.06, 58816.93, 0.0, 10.000908, 9.998906 
1.0050835e+3, 2.249947e+2, -679316.94, -861533.0, -9879.473, 0.026133401, 0.13131438, -678782.9, 56282.254, 0.0, 10.001042, 9.998628 
1.00510046e+3, 2.3499332e+2, -564817.7, -754965.2, -11324.023, 0.013310703, 0.12881468, -564145.7, 72932.97, 0.0, 10.001153, 9.998632 
1.0051175e+3, 2.4499178e+2, -497844.4, -736265.25, -594.7666, -0.0029826707, 0.14288065, -497842.94, 41251.86, 0.0, 10.001217, 9.998057 
1.0051347e+3, 2.5499013e+2, -396931.6, -636307.1, 1058.8956, -0.022942526, 0.17141496, -396926.9, 44186.582, 0.0, 10.001235, 9.998062 
1.0051522e+3, 2.6498827e+2, -295320.1, -533979.3, -180.84897, -0.027788654, 0.18267766, -295319.97, 47812.36, 0.0, 10.001249, 9.998085 
1.0051696e+3, 2.749863e+2, -195873.03, -434464.44, -1229.7849, -0.017109793, 0.17428388, -195866.69, 49284.566, 0.0, 10.001255, 9.998092 
1.0051869e+3, 2.849843e+2, -101511.664, -351375.8, -5971.606, -0.022751417, 0.17127389, -101369.02, 45801.555, 0.0, 10.0012865, 9.997974 
1.0052039e+3, 2.9498225e+2, 6280.9556, -247792.73, -3322.9404, -0.044964798, 0.17145006, 6324.4077, 55514.65, 0.0, 10.00135, 9.997982 
1.0052208e+3, 3.0498034e+2, 105028.55, -103375.17, -3360.3425, -0.07158728, 0.15176712, 105082.72, 105082.72, 0.0, 10.001385, 9.998623 
1.00523755e+3, 3.1497902e+2, 106963.42, -99155.23, -3284.3674, -0.102626845, 0.15460153, 107015.74, 107015.74, 0.0, 10.001384, 9.9986515 
1.0149151e+3, 1.2498132e+2, -1826809.5, -1769662.6, -12464.042, -0.04052985, 0.024065569, -1767062.4, -51878.27, 0.00017450533, 9.999237, 9.999992 
1.0149319e+3, 1.3498136e+2, -1679251.4, -1622011.5, 8581.154, -0.09293432, 0.006205154, -1620752.8, -3568.4998, 0.000062540406, 9.999463, 10.000225 
1.0149498e+3, 1.4498165e+2, -1573300.6, -1555570.3, -20399.611, 0.012144929, 0.030511009, -1542192.8, -23010.404, 0.000007860604, 9.999671, 9.999906 
1.0149661e+3, 1.5498157e+2, -1448380.9, -1443544.9, -16949.607, -0.026602784, 0.030990385, -1428841.6, -7657.1787, 0.000000028517778, 9.999851, 9.999915 
1.0149827e+3, 1.6498151e+2, -1339781.5, -1365770.0, -12096.9795, -0.03131621, 0.048132908, -1335022.3, -11835.869, 0.0, 10.000033, 9.999689 
1.0149999e+3, 1.7498153e+2, -1213982.1, -1253392.5, -16642.463, 0.0058295866, 0.07960911, -1207894.6, 17293.205, 0.0, 10.000219, 9.999698 
1.0150168e+3, 1.8498121e+2, -1125061.5, -1216868.4, -21645.133, 0.023804775, 0.10473556, -1120214.3, 6978.68, 0.0, 10.000403, 9.999187 
1.0150335e+3, 1.9498056e+2, -1000441.75, -1105531.9, -23274.28, 0.020048114, 0.12143722, -995517.9, 33683.773, 0.0, 10.000584, 9.999191 
1.0150503e+3, 2.0497969e+2, -898566.4, -1038489.94, -15918.489, 0.020155536, 0.1314967, -896778.25, 34433.527, 0.0, 10.0007515, 9.9988985 
1.0150674e+3, 2.1497859e+2, -777364.75, -928828.3, -16067.544, 0.025208194, 0.13207105, -775679.06, 57544.26, 0.0, 10.000909, 9.998902 
1.0150844e+3, 2.2497739e+2, -681600.9, -866535.06, -6016.451, 0.021900121, 0.13757396, -681405.4, 53830.266, 0.0, 10.001042, 9.998593 
1.0151016e+3, 2.3497605e+2, -567189.94, -760056.7, -7278.0835, 0.010191807, 0.14559649, -566915.7, 70333.09, 0.0, 10.001153, 9.998598 
1.0151188e+3, 2.4497458e+2, -494590.9, -729625.6, -10.807545, -0.0038283193, 0.16382822, -494590.9, 44673.58, 0.0, 10.001217, 9.998103 
1.015136e+3, 2.5497293e+2, -393810.5, -629685.94, 1792.963, -0.020237386, 0.18959258, -393796.88, 47485.94, 0.0, 10.001234, 9.998108 
1.0151534e+3, 2.6497105e+2, -297022.94, -537154.7, 288.9982, -0.02471899, 0.19352679, -297022.6, 46279.484, 0.0, 10.001246, 9.998064 
1.0151708e+3, 2.749689e+2, -197584.23, -437621.7, -706.0913, -0.017267326, 0.17324583, -197582.16, 47740.113, 0.0, 10.001253, 9.998072 
1.0151881e+3, 2.8496692e+2, -96152.766, -339593.06, -3494.6619, -0.023193909, 0.16785897, -96102.61, 51238.89, 0.0, 10.001284, 9.998057 
1.0152052e+3, 2.9496503e+2, 11439.715, -235827.13, -745.31586, -0.042139046, 0.1752276, 11441.962, 60801.64, 0.0, 10.001345, 9.998067 
1.0152222e+3, 3.0496326e+2, 109733.0, -92574.586, -2890.6094, -0.060444426, 0.15943255, 109774.29, 109774.29, 0.0, 10.00138, 9.998699 
1.0152391e+3, 3.1496197e+2, 112320.7, -88197.195, -2699.461, -0.08002067, 0.16127785, 112357.04, 112357.04, 0.0, 10.001384, 9.998728 
1.02491446e+3, 1.24964185e+2, -1790347.9, -1767269.9, -20443.324, -0.042791966, 0.019669129, -1755333.9, -39982.75, 0.0002164286, 9.999554, 9.999855 
1.0249314e+3, 1.3496408e+2, -1664449.5, -1631239.3, 1026.2551, -0.09190022, 0.0018904197, -1631207.6, -13854.173, 0.00008198819, 9.999637, 10.000077 
1.0249495e+3, 1.4496431e+2, -1555461.4, -1547269.1, -25740.209, 0.010003578, 0.027993029, -1525301.3, -5948.9565, 0.000012107449, 9.999795, 9.999903 
1.0249661e+3, 1.5496422e+2, -1423213.5, -1431652.6, -26675.422, -0.020427978, 0.02830846, -1400426.0, 20928.018, 0.00000009714164, 10.000026, 9.999912 
1.0249829e+3, 1.6496414e+2, -1321283.6, -1363417.0, -24002.209, -0.021082234, 0.044482045, -1310414.3, 12941.919, 0.0, 10.000189, 9.999629 
1.0250002e+3, 1.7496407e+2, -1209148.4, -1257675.3, -24120.525, 0.015614344, 0.07435147, -1199199.0, 26159.496, 0.0, 10.000282, 9.999638 
1.0250172e+3, 1.8496373e+2, -1123749.8, -1218337.5, -24450.059, 0.02889243, 0.10091473, -1117803.4, 9560.69, 0.0, 10.000422, 9.999167 
1.02503404e+3, 1.949631e+2, -997425.75, -1106171.1, -24590.66, 0.016165743, 0.12202622, -992123.56, 37249.242, 0.0, 10.000614, 9.999172 
1.025051e+3, 2.0496228e+2, -896539.44, -1036686.9, -18249.63, 0.013433323, 0.137232, -894202.0, 37180.75, 0.0, 10.000763, 9.998905 
1.02506824e+3, 2.1496125e+2, -782809.75, -930506.2, -17654.828, 0.021764055, 0.14344367, -780728.7, 52665.36, 0.0, 10.000868, 9.99891 
1.02508545e+3, 2.2496006e+2, -691546.7, -868746.3, -6460.703, 0.020915238, 0.14917435, -691311.44, 44094.926, 0.0, 10.000964, 9.998615 
1.02510266e+3, 2.349587e+2, -580605.94, -763967.0, -3742.7034, 0.01068259, 0.15225482, -580529.56, 56890.055, 0.0, 10.001051, 9.99862 
1.0251199e+3, 2.4495724e+2, -509852.75, -734201.75, 1462.7549, -0.0014452414, 0.17120259, -509843.22, 29591.768, 0.0, 10.0011015, 9.998127 
1.0251372e+3, 2.5495568e+2, -409688.97, -634491.2, 1348.8795, -0.0153167425, 0.20329629, -409680.88, 31771.668, 0.0, 10.001113, 9.998133 
1.0251545e+3, 2.649538e+2, -319636.4, -549610.75, -2085.985, -0.021210508, 0.20609643, -319617.5, 23854.473, 0.0, 10.001099, 9.998049 
1.025172e+3, 2.7495155e+2, -226606.69, -452992.88, -2908.2996, -0.0194257, 0.17662582, -226569.34, 18923.861, 0.0, 10.0010605, 9.998058 
1.0251893e+3, 2.8494954e+2, -123478.83, -347539.63, -4035.7837, -0.024010278, 0.17011529, -123406.16, 24106.3, 0.0, 10.001074, 9.998103 
1.0252065e+3, 2.949478e+2, -15676.454, -243584.75, -4165.774, -0.0340638, 0.18486187, -15600.336, 33929.273, 0.0, 10.001136, 9.998114 
1.02522366e+3, 3.0494612e+2, 91752.96, -90588.805, -7634.0127, -0.049411222, 0.17581251, 92072.016, 92072.016, 0.0, 10.001211, 9.998794 
1.0252405e+3, 3.14945e+2, 107754.43, -79803.31, -6234.2407, -0.07282761, 0.18231118, 107961.42, 107961.42, 0.0, 10.0013075, 9.998821 
1.034914e+3, 1.24946736e+2, -1794816.0, -1777043.9, -13663.686, -0.036736105, 0.0070034214, -1769630.9, -54109.62, 0.0002637313, 9.999555, 9.999788 
1.034931e+3, 1.3494648e+2, -1670128.5, -1643195.5, 3832.7798, -0.09244895, -0.01758852, -1642660.6, -25135.385, 0.00010469639, 9.999637, 9.999995 
1.0349492e+3, 1.4494666e+2, -1559776.9, -1556375.4, -17333.934, 0.0041785245, 0.011460246, -1540659.0, -21134.242, 0.000017566988, 9.999795, 9.999841 
1.0349662e+3, 1.5494661e+2, -1427335.4, -1440367.5, -18281.166, -0.009868565, 0.02106964, -1414443.8, 7082.533, 0.00000023822265, 10.000026, 9.999853 
1.0349832e+3, 1.6494651e+2, -1321141.4, -1363410.8, -20788.74, -0.006708438, 0.03896931, -1312630.8, 10897.759, 0.0, 10.00019, 9.999629 
1.03500046e+3, 1.7494638e+2, -1209098.6, -1257972.9, -20938.348, 0.020255307, 0.06281232, -1201355.1, 24176.047, 0.0, 10.000283, 9.999636 
1.0350176e+3, 1.8494602e+2, -1123639.5, -1218548.3, -17672.44, 0.026185442, 0.087455824, -1120455.6, 7081.283, 0.0, 10.0004225, 9.999166 
1.0350346e+3, 1.9494542e+2, -997317.0, -1106339.5, -17682.621, 0.008965195, 0.11074896, -994520.75, 35024.945, 0.0, 10.000615, 9.999171 
1.0350518e+3, 2.049447e+2, -895241.06, -1034366.8, -14672.065, 0.006531273, 0.1362965, -893710.6, 37844.42, 0.0, 10.000764, 9.99892 
1.0350691e+3, 2.1494386e+2, -781450.0, -928143.0, -14019.141, 0.020036472, 0.1608634, -780122.25, 53442.855, 0.0, 10.00087, 9.998926 
1.03508644e+3, 2.2494271e+2, -686062.75, -857824.7, -3530.7244, 0.022983188, 0.16595395, -685990.2, 49586.87, 0.0, 10.000965, 9.99869 
1.0351037e+3, 2.3494124e+2, -575300.56, -753303.25, -688.36725, 0.014596299, 0.14932469, -575297.9, 62293.047, 0.0, 10.001052, 9.998693 
1.0351211e+3, 2.4493979e+2, -509710.53, -734137.8, 1841.0769, 0.003949245, 0.1656155, -509695.44, 29910.68, 0.0, 10.0011015, 9.998127 
1.03513844e+3, 2.549384e+2, -409775.0, -634663.4, 1820.4651, -0.00863662, 0.21263102, -409760.25, 31862.422, 0.0, 10.001113, 9.998132 
1.0351557e+3, 2.6493654e+2, -320747.78, -551722.1, -3494.9456, -0.017656604, 0.22026743, -320694.9, 22947.05, 0.0, 10.001098, 9.998035 
1.03517294e+3, 2.749342e+2, -227777.33, -454983.75, -4080.1914, -0.023399398, 0.18449894, -227704.08, 17959.97, 0.0, 10.001058, 9.998046 
1.0351903e+3, 2.8493223e+2, -123291.76, -346502.5, -1182.0775, -0.025185311, 0.1779736, -123285.5, 24397.986, 0.0, 10.001071, 9.998112 
1.0352077e+3, 2.9493055e+2, -15464.528, -242559.84, -1169.1548, -0.021794237, 0.1996143, -15458.51, 34241.59, 0.0, 10.001133, 9.998123 
1.0352249e+3, 3.0492905e+2, 98740.875, -75439.0, -3600.0938, -0.03911976, 0.19992904, 98815.25, 98815.25, 0.0, 10.001207, 9.9989 
1.0352417e+3, 3.149281e+2, 114542.03, -64584.027, -2204.2046, -0.07975617, 0.21669771, 114569.15, 114569.15, 0.0, 10.001302, 9.998929 
1.0449136e+3, 1.24929205e+2, -1781475.1, -1774098.8, -13274.372, -0.038502716, -0.00211183, -1764009.8, -48317.203, 0.00031664252, 9.999661, 9.999757 
1.0449308e+3, 1.3492894e+2, -1648966.0, -1637762.1, 4077.3228, -0.0871156, -0.023630861, -1636435.4, -18738.719, 0.00013079311, 9.999804, 9.999952 
1.0449491e+3, 1.449291e+2, -1543357.6, -1557264.3, -13689.085, 0.0047990824, 0.0076731, -1534957.1, -15260.587, 0.000024312307, 9.999947, 9.999762 
1.0449662e+3, 1.5492895e+2, -1425935.3, -1448406.3, -16475.607, -0.005372007, 0.017013704, -1417228.8, 4470.3525, 0.0000004785213, 10.000073, 9.999775 
1.0449834e+3, 1.6492881e+2, -1312190.8, -1358065.4, -20166.928, -0.001981746, 0.032763857, -1304585.9, 19115.873, 0.0, 10.000247, 9.999639 
1.04500085e+3, 1.7492864e+2, -1180355.4, -1242856.6, -19493.11, 0.020845138, 0.052283585, -1174774.3, 50930.234, 0.0, 10.000475, 9.999646 
1.04501806e+3, 1.8492825e+2, -1094990.0, -1204929.9, -17106.617, 0.025192028, 0.074676335, -1092389.6, 35320.598, 0.0, 10.000621, 9.999164 
1.0450351e+3, 1.9492765e+2, -987908.4, -1102069.4, -17294.266, 0.008990003, 0.097889796, -985346.0, 44373.26, 0.0, 10.000681, 9.999167 
1.0450525e+3, 2.04927e+2, -893840.75, -1033874.8, -15354.661, 0.004535766, 0.13112438, -892176.9, 39551.453, 0.0, 10.000774, 9.998919 
1.04506984e+3, 2.1492633e+2, -776614.2, -925979.9, -16194.711, 0.012989733, 0.1715715, -774878.5, 58859.086, 0.0, 10.000904, 9.998924 
1.0450873e+3, 2.2492523e+2, -677140.75, -844568.5, -8381.132, 0.016661936, 0.17910431, -676722.25, 59026.816, 0.0, 10.000989, 9.99877 
1.0451047e+3, 2.3492372e+2, -573136.7, -743181.9, -5259.909, 0.014963634, 0.15065944, -572974.1, 64788.8, 0.0, 10.001028, 9.998774 
1.0451222e+3, 2.4492227e+2, -519767.2, -738162.8, -5160.5547, 0.0071382867, 0.16315034, -519645.3, 20132.697, 0.0, 10.00103, 9.998134 
1.0451394e+3, 2.5492093e+2, -426705.47, -642121.9, -5077.589, -0.0069418247, 0.21495657, -426585.88, 15208.494, 0.0, 10.000994, 9.998137 
1.0451567e+3, 2.6491916e+2, -334215.75, -548894.6, -7605.862, -0.016752778, 0.22815858, -333946.63, 9866.263, 0.0, 10.000966, 9.998118 
1.0451739e+3, 2.74917e+2, -238827.45, -450857.84, -1483.096, -0.02216394, 0.19849509, -238817.08, 7016.5054, 0.0, 10.000942, 9.99813 
1.0451914e+3, 2.8491506e+2, -139207.58, -348089.63, 8888.588, -0.021887533, 0.1911737, -138830.02, 9022.24, 0.0, 10.000936, 9.998165 
1.0452089e+3, 2.9491335e+2, -37731.953, -247170.94, 11897.552, -0.015098764, 0.20474839, -37058.258, 12810.458, 0.0, 10.000955, 9.998177 
1.0452261e+3, 3.0491182e+2, 64250.8, -98021.41, 6679.7817, -0.030368194, 0.2022057, 64525.305, 64525.305, 0.0, 10.000998, 9.998846 
1.0452431e+3, 3.1491086e+2, 75021.05, -89772.67, -3612.6042, -0.06978336, 0.22140609, 75100.2, 75100.2, 0.0, 10.001058, 9.998873 
1.0549131e+3, 1.24911636e+2, -1781129.0, -1773437.3, -5840.1274, -0.050716113, -0.008205242, -1770290.4, -54425.89, 0.0003754382, 9.9996605, 9.999763 
1.0549307e+3, 1.3491149e+2, -1649344.0, -1638641.6, 9314.756, -0.075812146, -0.015909236, -1633250.4, -15383.268, 0.00016041061, 9.999803, 9.999947 
1.0549491e+3, 1.449116e+2, -1550327.0, -1571917.1, -8957.786, 0.011929808, 0.017031642, -1547094.4, -27227.086, 0.000032450233, 9.999947, 9.9996605 
1.0549663e+3, 1.5491126e+2, -1433019.3, -1463279.6, -12044.152, -0.007234557, 0.016149951, -1428810.8, -6938.5894, 0.0000008393984, 10.000073, 9.999673 
1.05498366e+3, 1.6491102e+2, -1310916.6, -1355688.3, -11978.509, -0.0072029517, 0.02573129, -1307913.4, 15962.374, 0.0, 10.000247, 9.999655 
1.0550013e+3, 1.7491084e+2, -1178775.4, -1239901.3, -11180.134, 0.017303174, 0.042804748, -1176794.6, 49083.324, 0.0, 10.000476, 9.999666 
1.0550187e+3, 1.8491043e+2, -1095139.3, -1205592.3, -15145.303, 0.02573631, 0.06265049, -1093100.1, 34783.703, 0.0, 10.000622, 9.999159 
1.0550359e+3, 1.9490981e+2, -988116.2, -1102973.4, -15402.729, 0.015960671, 0.08334848, -986086.5, 43806.82, 0.0, 10.000683, 9.999162 
1.05505325e+3, 2.0490919e+2, -895139.0, -1037059.56, -10860.808, 0.0072987834, 0.121688426, -894312.6, 37589.83, 0.0, 10.000776, 9.998897 
1.0550705e+3, 2.1490863e+2, -777971.75, -929179.2, -11580.575, 0.00067571556, 0.17574531, -777089.94, 56821.313, 0.0, 10.000905, 9.998902 
1.0550881e+3, 2.2490762e+2, -671334.94, -832726.8, -7124.5537, 0.0020243877, 0.18867831, -671021.0, 64901.188, 0.0, 10.000989, 9.998851 
1.0551057e+3, 2.3490614e+2, -567291.1, -730975.9, -3995.84, 0.01172254, 0.15603153, -567193.6, 70741.836, 0.0, 10.001027, 9.998858 
1.0551231e+3, 2.4490471e+2, -519235.66, -736866.0, -6631.946, 0.008062746, 0.1637513, -519033.75, 20916.768, 0.0, 10.001028, 9.998144 
1.05514035e+3, 2.5490332e+2, -426406.94, -641220.6, -6296.957, -0.009938328, 0.21084507, -426222.5, 15744.933, 0.0, 10.000992, 9.998145 
1.0551577e+3, 2.649017e+2, -322701.84, -524557.8, -8335.989, -0.018388074, 0.23020414, -322358.2, 21626.438, 0.0, 10.000963, 9.998287 
1.0551749e+3, 2.7489987e+2, -227276.05, -426220.9, -2241.2407, -0.016599314, 0.21797362, -227250.8, 18751.16, 0.0, 10.000938, 9.998301 
1.05519235e+3, 2.8489807e+2, -133325.9, -335253.97, 9527.547, -0.014947679, 0.20927283, -132877.38, 15141.626, 0.0, 10.000933, 9.998256 
1.05520986e+3, 2.9489625e+2, -31568.127, -234085.05, 12803.872, -0.013402594, 0.20157312, -30761.828, 19273.809, 0.0, 10.000953, 9.998267 
1.05522715e+3, 3.0489454e+2, 49904.926, -127720.37, 9421.514, -0.023015773, 0.18486027, 50403.258, 50403.258, 0.0, 10.000996, 9.998643 
1.0552443e+3, 3.1489336e+2, 60234.914, -120146.336, -724.485, -0.045721225, 0.20496383, 60237.82, 60237.82, 0.0, 10.001056, 9.998666 
1.06491305e+3, 1.2489397e+2, -1726934.1, -1747366.6, -12414.056, -0.04280474, -0.007880383, -1721073.0, -5035.2954, 0.00044022893, 10.000033, 9.999762 
1.0649306e+3, 1.3489386e+2, -1628213.4, -1629612.6, 306.8536, -0.060555324, -0.011332191, -1628149.1, -10109.379, 0.0001936281, 9.999954, 9.999935 
1.0649491e+3, 1.4489391e+2, -1542286.3, -1572584.1, -10858.925, 0.014795143, 0.018937754, -1538796.4, -18756.096, 0.00004209593, 10.000022, 9.9996195 
1.0649663e+3, 1.5489344e+2, -1412414.1, -1457971.5, -9727.413, -0.013447186, 0.009371619, -1410424.1, 11622.167, 0.0000013547506, 10.000236, 9.99963 
1.0649839e+3, 1.6489314e+2, -1293888.9, -1347755.8, -9425.642, -0.015162862, 0.0168489, -1292287.1, 31763.0, 0.0, 10.000366, 9.999651 
1.0650017e+3, 1.7489302e+2, -1188738.9, -1244883.5, -10465.268, 0.015081654, 0.03887444, -1186851.6, 39200.24, 0.0, 10.000409, 9.999664 
1.0650193e+3, 1.8489262e+2, -1110971.1, -1215010.8, -16229.787, 0.025378063, 0.06004512, -1108498.1, 19559.637, 0.0, 10.000522, 9.999143 
1.06503665e+3, 1.9489196e+2, -985261.4, -1103361.4, -17332.45, 0.013335151, 0.078157686, -982770.2, 47297.61, 0.0, 10.0007105, 9.999145 
1.06505394e+3, 2.0489134e+2, -885097.8, -1026667.3, -12297.791, 0.0027128542, 0.11532626, -884037.5, 48039.582, 0.0, 10.000821, 9.998945 
1.0650714e+3, 2.1489084e+2, -782111.56, -925546.8, -7800.111, -0.005617292, 0.17001916, -781688.6, 52396.758, 0.0, 10.000853, 9.998952 
1.06508896e+3, 2.2488992e+2, -691777.0, -843524.9, -6883.1523, -0.0034220542, 0.19035108, -691465.44, 44630.324, 0.0, 10.000854, 9.998842 
1.06510654e+3, 2.3488858e+2, -597734.06, -746539.44, -10806.854, 0.009862682, 0.17187348, -596953.3, 41154.957, 0.0, 10.000822, 9.99885 
1.06512405e+3, 2.4488717e+2, -545368.7, -739511.2, -15047.416, 0.008317843, 0.17784148, -544209.3, -4086.1143, 0.0, 10.000806, 9.998232 
1.0651413e+3, 2.5488567e+2, -447352.78, -641150.44, -9130.699, -0.009019685, 0.20658809, -446923.56, -4782.995, 0.0, 10.000805, 9.998235 
1.06515855e+3, 2.6488414e+2, -341544.78, -520291.53, -10809.868, -0.013554187, 0.22200759, -340893.4, 3263.5095, 0.0, 10.000776, 9.998405 
1.0651759e+3, 2.7488253e+2, -250511.73, -423848.94, -8537.908, -0.0046442696, 0.22086452, -250092.2, -3920.1255, 0.0, 10.000721, 9.998422 
1.0651933e+3, 2.8488085e+2, -152760.03, -332940.4, 5839.7813, -0.004059549, 0.21563338, -152570.97, -4383.5615, 0.0, 10.00075, 9.99836 
1.0652107e+3, 2.948791e+2, -36780.727, -224791.19, 10047.074, -0.012083214, 0.20349169, -36245.348, 13957.443, 0.0, 10.000866, 9.998372 
1.0652281e+3, 3.0487728e+2, 36084.58, -136992.34, 11352.324, -0.016810099, 0.17261256, 36826.016, 36826.016, 0.0, 10.000913, 9.998618 
1.0652455e+3, 3.14876e+2, 35204.914, -134606.22, 13383.751, -0.020198565, 0.18103088, 36253.29, 36253.29, 0.0, 10.000895, 9.998644 
1.0749133e+3, 1.2487626e+2, -1727352.4, -1748797.6, -14175.217, -0.014887538, -0.00097018963, -1720301.0, -4089.1445, 0.0005108164, 10.000034, 9.999751 
1.0749308e+3, 1.3487607e+2, -1629598.0, -1632511.0, -3066.7205, -0.041417602, -0.01001908, -1627659.5, -9445.296, 0.00023041679, 9.999953, 9.999916 
1.0749491e+3, 1.4487605e+2, -1541268.6, -1570500.3, -3084.5427, 0.013038812, 0.013096978, -1540946.8, -20731.637, 0.000053336094, 10.000022, 9.999635 
1.0749664e+3, 1.5487553e+2, -1411125.3, -1455566.5, -1979.5065, -0.02406537, -0.0033599862, -1411037.3, 11183.952, 0.0000020676762, 10.0002365, 9.999647 
1.07498415e+3, 1.6487524e+2, -1295612.1, -1351706.9, -8020.728, -0.025912514, 0.006177779, -1294487.8, 29737.068, 0.0000000000166348, 10.000367, 9.999624 
1.0750021e+3, 1.7487521e+2, -1190504.4, -1248980.3, -9177.767, 0.013963687, 0.040352706, -1189097.8, 37128.098, 0.0, 10.00041, 9.999636 
1.07501976e+3, 1.8487485e+2, -1112857.9, -1219389.3, -9579.637, 0.023987526, 0.066649154, -1112003.4, 16228.363, 0.0, 10.000523, 9.999112 
1.0750372e+3, 1.948741e+2, -987091.94, -1107542.8, -10525.005, 0.0011973477, 0.082199715, -986179.1, 44063.324, 0.0, 10.000711, 9.999116 
1.0750547e+3, 2.0487347e+2, -876780.8, -1009707.4, -11455.872, -0.009258326, 0.11207131, -875800.75, 56451.156, 0.0, 10.000822, 9.999062 
1.0750723e+3, 2.1487297e+2, -773815.8, -908575.25, -6969.1626, -0.006225123, 0.15473592, -773456.4, 60803.438, 0.0, 10.000854, 9.999068 
1.0750899e+3, 2.2487214e+2, -698448.4, -857654.94, -8343.187, -0.000025372634, 0.18430911, -698012.4, 38257.2, 0.0, 10.000854, 9.998745 
1.07510746e+3, 2.3487103e+2, -604604.06, -761133.1, -12052.829, 0.009316873, 0.19757947, -603681.44, 34599.816, 0.0, 10.000823, 9.99875 
1.0751249e+3, 2.4486966e+2, -534161.06, -716413.9, -15149.059, 0.0078007914, 0.20479822, -532910.44, 7385.47, 0.0, 10.000807, 9.998391 
1.0751421e+3, 2.5486803e+2, -436118.25, -617528.8, -9142.769, -0.004706898, 0.20229375, -435658.63, 6655.0415, 0.0, 10.000803, 9.998399 
1.07515946e+3, 2.6486644e+2, -336792.56, -510013.88, -12872.809, -0.002890527, 0.20424433, -335841.16, 8488.546, 0.0, 10.000774, 9.998478 
1.07517675e+3, 2.74865e+2, -245557.86, -413605.44, -10491.813, 0.013326681, 0.2083869, -244905.36, 1438.469, 0.0, 10.00072, 9.998492 
1.0751942e+3, 2.848635e+2, -144938.81, -316501.0, 10189.522, 0.010507785, 0.21119912, -144335.75, 4021.6292, 0.0, 10.000748, 9.998473 
1.07521154e+3, 2.9486194e+2, -29512.488, -208458.64, 14475.757, -0.011383844, 0.21011552, -28349.045, 22021.166, 0.0, 10.00086, 9.998488 
1.0752291e+3, 3.0486012e+2, 44825.8, -117782.58, 10639.759, -0.011966391, 0.16487364, 45519.023, 45519.023, 0.0, 10.000908, 9.998754 
1.0752467e+3, 3.148587e+2, 45240.31, -114037.49, 12433.225, 0.0061833225, 0.15022044, 46205.004, 46205.004, 0.0, 10.0008955, 9.998785 
1.0849136e+3, 1.248586e+2, -1708722.9, -1750065.4, -1545.3224, 0.0010767729, -0.0005431565, -1708665.3, 7719.234, 0.0005868399, 10.000208, 9.999659 
1.0849309e+3, 1.3485825e+2, -1588372.9, -1624409.1, 1754.803, -0.038702387, -0.016610062, -1588287.6, 30101.004, 0.00027068684, 10.000288, 9.99981 
1.0849491e+3, 1.4485814e+2, -1498125.0, -1550761.1, 999.76215, 0.0022354429, 0.004057847, -1498106.0, 22284.203, 0.00006622561, 10.000323, 9.999624 
1.08496666e+3, 1.5485765e+2, -1403367.4, -1452909.5, -269.3385, -0.022168783, -0.0078499, -1403365.9, 19029.902, 0.000003027, 10.000295, 9.999637 
1.0849845e+3, 1.6485734e+2, -1297260.5, -1356747.4, -6923.197, -0.022654712, 0.0017782788, -1296465.5, 27934.121, 0.000000000186287, 10.000375, 9.999585 
1.0850024e+3, 1.7485723e+2, -1169346.8, -1243119.4, -8976.144, 0.006113357, 0.031140022, -1168270.3, 58131.215, 0.0, 10.000575, 9.999596 
1.0850202e+3, 1.8485682e+2, -1088074.6, -1205912.1, -8852.785, 0.012126508, 0.055132, -1087413.3, 40994.453, 0.0, 10.000688, 9.999125 
1.0850378e+3, 1.9485609e+2, -987019.06, -1105993.6, -6784.6157, -0.0069523896, 0.071341395, -986633.44, 43784.777, 0.0, 10.000707, 9.999128 
1.0850554e+3, 2.0485553e+2, -889554.2, -1012817.0, -12556.522, -0.012318537, 0.105385214, -888288.06, 44139.063, 0.0, 10.000722, 9.999088 
1.085073e+3, 2.1485512e+2, -788949.44, -912642.44, -14911.614, -0.0028886949, 0.15569095, -787177.2, 47257.098, 0.0, 10.000736, 9.999097 
1.0850907e+3, 2.2485434e+2, -714955.3, -866896.6, -17822.35, 0.004008649, 0.18752308, -712892.8, 23551.242, 0.0, 10.000747, 9.998733 
1.08510815e+3, 2.3485316e+2, -615276.25, -767529.4, -15330.71, 0.007878394, 0.1974632, -613747.94, 24708.563, 0.0, 10.000755, 9.998737 
1.0851256e+3, 2.4485184e+2, -540913.4, -708407.56, -18932.76, 0.0069780964, 0.20423342, -538799.94, 1670.8375, 0.0, 10.000711, 9.998491 
1.08514294e+3, 2.5485033e+2, -457047.66, -616073.75, -17581.67, 0.0016175555, 0.20427197, -455127.06, -12640.063, 0.0, 10.000609, 9.998502 
1.08516015e+3, 2.6484886e+2, -357556.63, -509859.6, -20831.592, 0.0064155534, 0.2036959, -354758.72, -10256.706, 0.0, 10.000588, 9.998569 
1.0851775e+3, 2.748474e+2, -248920.5, -405039.63, -17119.275, 0.021242885, 0.19997528, -247065.33, -549.6594, 0.0, 10.000654, 9.998583 
1.08519495e+3, 2.8484592e+2, -153803.7, -312372.72, 3121.9338, 0.020862846, 0.19851078, -153742.27, -5213.656, 0.0, 10.000651, 9.9985485 
1.0852124e+3, 2.9484445e+2, -65397.844, -217392.58, 4489.0396, 0.005564191, 0.19659807, -65265.38, -14724.654, 0.0, 10.000578, 9.998562 
1.08523e+3, 3.0484265e+2, 12476.031, -122329.69, 813.61523, 0.0057656295, 0.146838, 12480.941, 12480.941, 0.0, 10.000639, 9.998852 
1.0852477e+3, 3.1484145e+2, 45730.06, -101896.53, -415.78876, 0.018175771, 0.14240527, 45731.23, 45731.23, 0.0, 10.000848, 9.998891 
1.09491386e+3, 1.2484105e+2, -1721428.5, -1776085.8, 2495.4756, 0.0039562066, -0.0071289698, -1721314.8, -4759.9126, 0.00066826155, 10.000205, 9.999482 
1.0949311e+3, 1.3484041e+2, -1601958.6, -1652994.1, 4669.5254, -0.052903835, -0.03120055, -1601534.9, 17027.582, 0.00031450897, 10.000289, 9.999614 
1.09494925e+3, 1.4484021e+2, -1500745.8, -1556768.1, -182.41557, -0.017945448, -0.008186125, -1500745.1, 19820.3, 0.000080840386, 10.000325, 9.999582 
1.0949671e+3, 1.5483984e+2, -1406119.8, -1458878.9, -1791.9833, -0.007925418, -0.0041462407, -1406059.0, 16510.807, 0.0000043066148, 10.000296, 9.999596 
1.094985e+3, 1.6483948e+2, -1300935.9, -1364620.6, 116.444916, -0.005426169, 0.003664056, -1300935.6, 23638.404, 0.0000000006358386, 10.000376, 9.999531 
1.095003e+3, 1.7483908e+2, -1172883.9, -1250854.6, -1753.8474, -0.008454499, 0.011356505, -1172844.4, 53734.05, 0.0, 10.000576, 9.999542 
1.0950208e+3, 1.8483858e+2, -1084198.9, -1198311.4, -8432.628, -0.010315045, 0.025683045, -1083579.0, 45006.31, 0.0, 10.000689, 9.999177 
1.0950384e+3, 1.9483796e+2, -983122.5, -1098437.9, -6428.7144, -0.011332773, 0.045721587, -982765.25, 47829.617, 0.0, 10.000708, 9.99918 
1.09505616e+3, 2.0483753e+2, -893668.9, -1021898.9, -12407.571, -0.0067385896, 0.09513362, -892479.4, 40123.277, 0.0, 10.000724, 9.999026 
1.0950738e+3, 2.1483733e+2, -793044.56, -921634.2, -14705.977, 0.0041620447, 0.1722298, -791384.2, 43224.465, 0.0, 10.000737, 9.999035 
1.0950914e+3, 2.248365e+2, -709949.9, -856939.06, -17841.264, 0.008499306, 0.19982181, -707815.3, 28803.66, 0.0, 10.000748, 9.998801 
1.0951089e+3, 2.3483504e+2, -610255.0, -757388.9, -15197.399, 0.0054308516, 0.17289309, -608701.7, 29932.072, 0.0, 10.000756, 9.998808 
1.09512635e+3, 2.4483374e+2, -537630.44, -701973.56, -22799.7, 0.005727178, 0.17736122, -534526.0, 6121.583, 0.0, 10.000712, 9.998536 
1.09514356e+3, 2.5483263e+2, -453540.53, -609526.94, -21409.656, 0.009742756, 0.21190919, -450655.38, -7994.897, 0.0, 10.000612, 9.998546 
1.0951609e+3, 2.6483127e+2, -349972.34, -494691.44, -18441.604, 0.014365106, 0.21934603, -347659.28, -2985.4507, 0.0, 10.00059, 9.998672 
1.0951781e+3, 2.7482972e+2, -241536.14, -389502.38, -14528.041, 0.01964251, 0.19549808, -240123.2, 6564.384, 0.0, 10.000652, 9.998691 
1.0951957e+3, 2.848282e+2, -151654.66, -307469.94, 423.53616, 0.027036184, 0.17825875, -151653.52, -2952.4832, 0.0, 10.0006485, 9.998584 
1.0952133e+3, 2.9482663e+2, -62877.12, -212263.23, 1746.9866, 0.03712565, 0.16462407, -62856.695, -12142.582, 0.0, 10.000578, 9.998598 
1.09523095e+3, 3.0482492e+2, 17086.365, -113480.64, 8207.323, 0.03511385, 0.11927545, 17600.246, 17600.246, 0.0, 10.000641, 9.998912 
1.0952484e+3, 3.1482422e+2, 51388.445, -91375.36, 6970.977, 0.016720638, 0.15870741, 51728.023, 51728.023, 0.0, 10.000853, 9.998961 
1.1049141e+3, 1.24823086e+2, -1705426.9, -1771087.6, -18169.258, -0.001598525, -0.019542692, -1700734.5, 15995.587, 0.00075576623, 10.000328, 9.999456 
1.1049315e+3, 1.3482243e+2, -1590649.5, -1651817.8, -5256.081, -0.045337506, -0.041122235, -1590201.1, 28536.836, 0.00036234639, 10.000386, 9.999575 
1.1049496e+3, 1.4482225e+2, -1480215.6, -1549547.5, -4592.4106, -0.016984645, -0.014816752, -1479912.8, 40828.273, 0.00009737699, 10.000479, 9.9995575 
1.1049675e+3, 1.5482192e+2, -1364780.8, -1441393.9, -5288.858, -0.007401709, -0.0046595563, -1364417.4, 58327.555, 0.0000060098255, 10.00059, 9.999573 
1.1049855e+3, 1.6482149e+2, -1263743.5, -1350047.5, 239.6999, -0.007361515, 0.00090120215, -1263742.9, 61006.816, 0.0000000015512864, 10.000647, 9.9995 
1.1050034e+3, 1.7482096e+2, -1165239.3, -1250438.0, -5.008324, -0.015219124, -0.0025379453, -1165239.3, 61516.09, 0.0, 10.000644, 9.999513 
1.10502124e+3, 1.8482041e+2, -1084702.5, -1196325.6, -9055.081, -0.017437026, 0.009963547, -1083972.6, 44789.723, 0.0, 10.000676, 9.999196 
1.10503905e+3, 1.948199e+2, -975846.06, -1092625.3, -9585.708, -0.014250481, 0.038049273, -975064.44, 55706.445, 0.0, 10.000749, 9.9992 
1.10505685e+3, 2.048195e+2, -891012.75, -1029309.7, -19128.576, -0.007903027, 0.092804685, -888415.75, 44362.914, 0.0, 10.00078, 9.998947 
1.1050746e+3, 2.1481924e+2, -794494.0, -931200.2, -22834.555, 0.0022860593, 0.1724673, -790780.7, 44005.016, 0.0, 10.000766, 9.998955 
1.1050922e+3, 2.248184e+2, -707412.44, -849555.3, -27879.836, 0.0060707787, 0.19770679, -702139.7, 34656.78, 0.0, 10.000739, 9.998856 
1.1051096e+3, 2.348169e+2, -614870.25, -753306.75, -26381.375, 0.0028366803, 0.16286594, -610013.25, 28797.932, 0.0, 10.000698, 9.998863 
1.10512696e+3, 2.4481565e+2, -538629.0, -696605.94, -35419.934, 0.003916822, 0.16724452, -531051.0, 9773.389, 0.0, 10.000681, 9.998588 
1.1051442e+3, 2.5481465e+2, -438172.6, -596364.94, -33740.992, 0.009381234, 0.21014142, -431276.56, 11559.502, 0.0, 10.000693, 9.998597 
1.1051615e+3, 2.6481342e+2, -333620.28, -474158.25, -29650.02, 0.016232513, 0.21784906, -327620.97, 17227.389, 0.0, 10.0006485, 9.998785 
1.1051788e+3, 2.748119e+2, -249949.3, -380743.28, -25323.717, 0.024911042, 0.1856522, -245217.42, 1643.6602, 0.0, 10.00054, 9.998805 
1.10519625e+3, 2.848103e+2, -176643.5, -323710.75, -12608.246, 0.036023185, 0.16329415, -175570.4, -26696.0, 0.0, 10.000496, 9.998546 
1.105214e+3, 2.9480872e+2, -73511.68, -221961.84, -16754.428, 0.04976456, 0.14778401, -71644.23, -20755.887, 0.0, 10.000525, 9.998557 
1.1052317e+3, 3.0480695e+2, 22241.24, -112909.12, -5701.8657, 0.04949335, 0.09919426, 22481.37, 22481.37, 0.0, 10.000685, 9.998894 
1.1052495e+3, 3.1480637e+2, 71676.44, -81675.24, -12469.234, 0.031251736, 0.15460472, 72683.71, 72683.71, 0.0, 10.000993, 9.9989605 
1.1149142e+3, 1.2480475e+2, -1696661.1, -1752629.3, -16149.622, -0.01700129, -0.038545463, -1692335.4, 24574.342, 0.00085056474, 10.000326, 9.999584 
1.11493215e+3, 1.3480435e+2, -1582745.6, -1635190.4, -3419.9592, -0.015721263, -0.04632052, -1582523.5, 36391.293, 0.00041499882, 10.000384, 9.99969 
1.1149503e+3, 1.4480425e+2, -1480719.9, -1550584.1, -721.5177, 0.005538552, -0.01558603, -1480712.4, 40204.28, 0.00011616446, 10.000478, 9.999551 
1.114968e+3, 1.5480387e+2, -1365174.5, -1442618.0, -1486.4828, -0.020737575, -0.009291721, -1365146.0, 57775.043, 0.000008247579, 10.000591, 9.999564 
1.11498594e+3, 1.6480342e+2, -1264144.3, -1351439.6, -213.28105, -0.028841265, -0.0065549454, -1264143.8, 60782.32, 0.0000000033697685, 10.000648, 9.999491 
1.11500405e+3, 1.7480287e+2, -1165594.6, -1251739.1, -512.9641, -0.0144449, -0.010705995, -1165591.5, 61340.277, 0.0, 10.000646, 9.999503 
1.1150221e+3, 1.8480238e+2, -1085561.9, -1198594.1, -6806.1357, -0.009408693, 0.0077242227, -1085153.5, 43785.04, 0.0, 10.000677, 9.99918 
1.1150398e+3, 1.9480196e+2, -976655.0, -1094682.6, -7265.161, -0.015782617, 0.048037376, -976209.44, 54736.75, 0.0, 10.00075, 9.999186 
1.1150575e+3, 2.0480147e+2, -897657.56, -1043380.4, -19898.143, -0.01578306, 0.09839123, -894989.3, 37965.742, 0.0, 10.00078, 9.998851 
1.1150752e+3, 2.1480091e+2, -801200.5, -945472.8, -23620.97, -0.008361763, 0.15701924, -797431.6, 37533.6, 0.0, 10.000767, 9.998857 
1.1150928e+3, 2.248e+2, -704595.2, -844151.06, -29627.61, -0.0031582077, 0.18148284, -698565.8, 38410.617, 0.0, 10.00074, 9.998893 
1.1151102e+3, 2.3479876e+2, -611737.44, -747219.4, -28149.107, -0.000030844934, 0.16652584, -606121.7, 32867.02, 0.0, 10.000699, 9.998905 
1.1151276e+3, 2.4479757e+2, -534686.0, -688677.44, -35153.65, 0.0015004798, 0.17316996, -527040.6, 13960.517, 0.0, 10.000682, 9.998642 
1.1151448e+3, 2.5479648e+2, -434398.38, -588475.56, -33287.418, 0.00090103917, 0.1997017, -427514.4, 15499.209, 0.0, 10.000692, 9.9986515 
1.1151621e+3, 2.647952e+2, -325323.94, -456959.94, -33718.74, 0.012201388, 0.20018852, -317189.5, 27835.857, 0.0, 10.000648, 9.998903 
1.1151794e+3, 2.7479386e+2, -241234.08, -363242.94, -29555.557, 0.03626781, 0.17065835, -234451.56, 12584.523, 0.0, 10.000542, 9.998925 
1.1151969e+3, 2.8479236e+2, -183609.23, -339325.72, -11836.227, 0.047374103, 0.15319984, -182714.67, -33665.977, 0.0, 10.0005, 9.998437 
1.11521445e+3, 2.9479071e+2, -80476.7, -238128.42, -15563.003, 0.045031775, 0.1450069, -78955.05, -27891.678, 0.0, 10.000531, 9.998443 
1.1152324e+3, 3.0478874e+2, 16401.945, -126146.11, 5725.891, 0.050022416, 0.08620994, 16631.572, 16631.572, 0.0, 10.0006895, 9.998801 
1.1152507e+3, 3.14788e+2, 66166.26, -92249.45, -730.6516, 0.059450697, 0.13536392, 66169.63, 66169.63, 0.0, 10.000988, 9.99889 
1.1249146e+3, 1.2478651e+2, -1683020.4, -1738588.1, -16563.934, -0.01877264, -0.03896882, -1678457.6, 38631.19, 0.0009537465, 10.000388, 9.99965 
1.1249326e+3, 1.3478617e+2, -1561085.1, -1619196.6, -8991.142, -0.006325647, -0.045067884, -1559725.9, 59366.96, 0.00047316175, 10.00051, 9.999739 
1.1249508e+3, 1.4478609e+2, -1458500.0, -1539805.9, -8058.652, 0.004620936, -0.016679449, -1457709.0, 63385.35, 0.00013752929, 10.000631, 9.999551 
1.1249686e+3, 1.5478566e+2, -1343831.3, -1432329.1, -8809.746, -0.026582293, -0.014874521, -1342962.9, 80136.234, 0.00001111389, 10.000739, 9.999563 
1.12498656e+3, 1.6478518e+2, -1244900.4, -1343546.8, -12026.898, -0.036634836, -0.0135196475, -1243455.3, 81649.055, 0.0000000061074554, 10.000787, 9.999477 
1.1250047e+3, 1.7478463e+2, -1148717.1, -1245008.4, -12754.177, -0.021308806, -0.015787428, -1147056.4, 80053.73, 0.0, 10.000769, 9.99949 
1.1250227e+3, 1.8478419e+2, -1075970.1, -1193331.8, -17435.543, -0.012780418, 0.00734886, -1073434.6, 55681.793, 0.0, 10.000741, 9.999185 
1.1250405e+3, 1.9478387e+2, -982634.25, -1096911.8, -16560.1, -0.01259774, 0.055499643, -980282.9, 50840.53, 0.0, 10.000707, 9.999191 
1.1250584e+3, 2.047833e+2, -909485.2, -1050232.6, -25614.727, -0.0110488925, 0.10050074, -904968.5, 28164.152, 0.0, 10.000705, 9.99884 
1.1250759e+3, 2.1478254e+2, -805811.7, -948926.9, -23179.752, -0.0077647385, 0.1398051, -802151.0, 32993.285, 0.0, 10.000741, 9.998845 
1.1250935e+3, 2.247816e+2, -709475.3, -852888.06, -31552.797, -0.004505551, 0.16466768, -702840.2, 34315.65, 0.0, 10.000735, 9.998835 
1.125111e+3, 2.347805e+2, -618371.4, -756734.9, -37606.016, -0.0010640611, 0.17097476, -608811.0, 30356.28, 0.0, 10.000681, 9.998848 
1.1251283e+3, 2.4477935e+2, -539598.3, -686513.3, -47951.11, 0.0024437062, 0.17997071, -525332.9, 15846.725, 0.0, 10.000629, 9.998682 
1.1251455e+3, 2.5477812e+2, -448336.22, -590459.3, -47374.55, 0.0059246435, 0.18859231, -433992.3, 9200.565, 0.0, 10.000577, 9.998693 
1.1251627e+3, 2.6477683e+2, -335932.9, -458997.5, -52335.04, 0.020227771, 0.18214566, -316686.63, 28518.045, 0.0, 10.000562, 9.99893 
1.12518005e+3, 2.7477553e+2, -232171.34, -355743.84, -54919.883, 0.045913912, 0.15760645, -211291.19, 35923.38, 0.0, 10.000591, 9.998952 
1.1251975e+3, 2.8477404e+2, -160456.25, -328923.94, -32963.043, 0.056176033, 0.14281334, -154236.23, -5009.5176, 0.0, 10.000663, 9.998429 
1.1252151e+3, 2.947724e+2, -44660.008, -221816.73, -29277.01, 0.05049013, 0.13419712, -39947.05, 11294.299, 0.0, 10.000782, 9.998434 
1.1252332e+3, 3.0477026e+2, 34789.125, -119894.99, -33.891216, 0.056389935, 0.06331343, 34789.133, 34789.133, 0.0, 10.000827, 9.998777 
1.1252517e+3, 3.1476954e+2, 38790.395, -105256.484, -1998.4164, 0.07160907, 0.11026621, 38818.113, 38818.113, 0.0, 10.0008, 9.998891 
1.13491505e+3, 1.24768436e+2, -1683750.0, -1739249.8, -12478.687, -0.0061982973, -0.019897312, -1681073.4, 36193.305, 0.0010656647, 10.000384, 9.999648 
1.1349331e+3, 1.3476796e+2, -1562778.6, -1622644.5, -4879.8164, -0.017782679, -0.037173614, -1562383.4, 56888.047, 0.00053702114, 10.000509, 9.999716 
1.1349512e+3, 1.4476776e+2, -1458363.9, -1539799.5, -4372.902, -0.020685798, -0.018275531, -1458129.8, 63144.008, 0.00016162105, 10.000631, 9.999551 
1.1349694e+3, 1.5476729e+2, -1343554.0, -1432032.5, -5262.513, -0.02514208, -0.021427736, -1343242.1, 80036.62, 0.000014669085, 10.000739, 9.999566 
1.1349873e+3, 1.647668e+2, -1245962.0, -1346160.6, -13083.731, -0.030626705, -0.019932317, -1244281.8, 81002.31, 0.000000009421829, 10.000788, 9.999459 
1.1350053e+3, 1.7476629e+2, -1149800.6, -1247766.1, -13878.957, -0.035800003, -0.017731063, -1147872.4, 79417.52, 0.0, 10.00077, 9.999471 
1.1350233e+3, 1.8476588e+2, -1074188.1, -1190240.8, -19149.766, -0.027662471, 0.008863201, -1071109.9, 58186.156, 0.0, 10.000743, 9.999206 
1.1350414e+3, 1.947656e+2, -980625.8, -1093532.3, -18256.697, -0.0049548605, 0.060410775, -977747.1, 53555.215, 0.0, 10.00071, 9.999213 
1.1350592e+3, 2.0476504e+2, -904212.56, -1040067.94, -24722.63, 0.005898211, 0.09908806, -899853.5, 33457.727, 0.0, 10.000708, 9.998909 
1.1350768e+3, 2.1476415e+2, -800578.25, -938720.8, -22159.313, 0.003626751, 0.12083545, -797110.75, 38212.164, 0.0, 10.000744, 9.998915 
1.13509424e+3, 2.247632e+2, -719710.9, -874714.0, -33870.23, 0.0016714229, 0.14727332, -712633.0, 24701.758, 0.0, 10.000736, 9.998685 
1.1351116e+3, 2.3476218e+2, -628825.0, -779003.2, -39795.67, -0.0004205065, 0.1761777, -618931.3, 20415.336, 0.0, 10.000683, 9.998694 
1.1351289e+3, 2.4476096e+2, -537791.3, -683378.75, -50022.07, 0.0063803876, 0.1875668, -522261.03, 19098.623, 0.0, 10.000631, 9.998703 
1.13514625e+3, 2.5475958e+2, -446132.06, -586614.5, -49317.996, 0.02346365, 0.17682475, -430547.34, 12826.3955, 0.0, 10.00058, 9.998719 
1.13516346e+3, 2.647582e+2, -339760.72, -467725.38, -51215.664, 0.039415326, 0.16379689, -321787.06, 23599.025, 0.0, 10.000565, 9.99887 
1.1351808e+3, 2.7475694e+2, -235961.4, -364411.13, -53550.496, 0.05385216, 0.14638284, -216565.16, 30831.143, 0.0, 10.000593, 9.998892 
1.13519825e+3, 2.8475547e+2, -154611.06, -317114.25, -28451.762, 0.062408537, 0.13216867, -149773.61, -365.4067, 0.0, 10.000663, 9.99851 
1.13521606e+3, 2.9475382e+2, -39251.5, -209920.8, -24546.908, 0.064940915, 0.11604256, -35791.14, 15630.994, 0.0, 10.000778, 9.998518 
1.13523416e+3, 3.047516e+2, 36965.1, -114754.164, -668.2379, 0.0677347, 0.031425793, 36968.043, 36968.043, 0.0, 10.000824, 9.998816 
1.1352526e+3, 3.1475094e+2, 43606.117, -95622.7, -2658.1343, 0.06867339, 0.084292956, 43656.848, 43656.848, 0.0, 10.000801, 9.998958 
1.1449155e+3, 1.2475011e+2, -1651552.1, -1723314.0, -11462.468, -0.0036483062, -0.017493047, -1649765.6, 67680.89, 0.0011858052, 10.000605, 9.999651 
1.1449336e+3, 1.3474965e+2, -1527866.8, -1607564.3, -3232.0925, -0.021158237, -0.031397082, -1527736.0, 91714.92, 0.00060623867, 10.000757, 9.9997 
1.1449518e+3, 1.4474939e+2, -1432078.0, -1530776.1, -7594.891, -0.034570277, -0.016930277, -1431497.0, 89956.52, 0.00018835878, 10.000829, 9.999517 
1.14497006e+3, 1.5474877e+2, -1338977.4, -1433655.6, -11691.963, -0.026405353, -0.030401831, -1337554.9, 85904.88, 0.000018936791, 10.000789, 9.999531 
1.1449882e+3, 1.6474827e+2, -1242055.1, -1342940.4, -19989.07, -0.028312214, -0.029682769, -1238238.9, 87226.53, 0.000000013934886, 10.00081, 9.99947 
1.1450061e+3, 1.7474785e+2, -1129296.3, -1236370.5, -18659.73, -0.039949752, -0.017930869, -1126137.6, 101332.875, 0.0, 10.000905, 9.999483 
1.1450241e+3, 1.8474747e+2, -1042440.6, -1175150.5, -25276.805, -0.03396124, 0.010725469, -1037789.25, 91687.164, 0.0, 10.000963, 9.999203 
1.1450421e+3, 1.9474712e+2, -941435.94, -1074863.1, -26475.05, -0.008701835, 0.05627178, -936374.7, 95108.484, 0.0, 10.00098, 9.99921 
1.1450599e+3, 2.0474653e+2, -866386.5, -1019233.25, -35969.113, 0.0055789086, 0.091480866, -858345.0, 75146.914, 0.0, 10.000957, 9.998931 
1.14507765e+3, 2.1474567e+2, -777873.6, -925057.56, -36944.227, 0.007787006, 0.112194434, -769120.9, 66382.125, 0.0, 10.000889, 9.998938 
1.1450951e+3, 2.2474469e+2, -713930.0, -881031.44, -49784.926, 0.006437005, 0.13858327, -700222.0, 37293.168, 0.0, 10.000816, 9.998602 
1.1451123e+3, 2.347436e+2, -626308.44, -787219.5, -50880.746, 0.0005293396, 0.16884513, -611569.75, 27958.607, 0.0, 10.000742, 9.99861 
1.1451295e+3, 2.4474235e+2, -527449.9, -675871.6, -57684.6, 0.006634279, 0.18095471, -507667.3, 33874.32, 0.0, 10.000692, 9.998725 
1.14514686e+3, 2.5474098e+2, -431153.22, -576485.06, -57202.86, 0.026575321, 0.17014126, -411339.4, 32215.541, 0.0, 10.000671, 9.998744 
1.1451642e+3, 2.6473957e+2, -328061.44, -468066.1, -56842.465, 0.044840217, 0.15364069, -307889.53, 37678.1, 0.0, 10.000671, 9.998815 
1.1451814e+3, 2.7473816e+2, -224920.94, -365271.22, -59004.195, 0.061058287, 0.12886305, -203411.6, 44167.867, 0.0, 10.000697, 9.998836 
1.14519894e+3, 2.8473675e+2, -145894.95, -300718.72, -33355.758, 0.07258383, 0.11764156, -139014.45, 10576.357, 0.0, 10.000671, 9.998618 
1.1452168e+3, 2.9473534e+2, -58463.797, -206496.72, -27490.6, 0.079124026, 0.11552552, -53523.5, -1921.6252, 0.0, 10.000593, 9.998631 
1.145235e+3, 3.0473313e+2, 11083.081, -118302.734, -184.11858, 0.077454604, 0.017661346, 11083.343, 11083.343, 0.0, 10.000608, 9.998894 
1.1452533e+3, 3.1473234e+2, 41087.1, -83850.805, 250.15485, 0.06558496, 0.051384542, 41087.6, 41087.6, 0.0, 10.000729, 9.999072 
1.154916e+3, 1.24731556e+2, -1651626.3, -1723004.8, -7121.5347, -0.012418852, -0.033053927, -1650922.6, 66705.516, 0.0013130474, 10.000602, 9.999655 
1.1549345e+3, 1.3473128e+2, -1528907.1, -1609778.8, 2131.0479, -0.016312087, -0.027610812, -1528851.0, 90779.62, 0.0006802244, 10.000756, 9.999684 
1.1549525e+3, 1.4473099e+2, -1436876.9, -1540946.9, -9419.248, -0.036636237, -0.012146375, -1436031.3, 85602.234, 0.00021757523, 10.000829, 9.999448 
1.1549708e+3, 1.5473013e+2, -1344175.6, -1444704.4, -13841.32, -0.030526893, -0.041814692, -1342304.6, 81337.31, 0.000023929451, 10.000789, 9.9994545 
1.15498886e+3, 1.6472958e+2, -1239338.9, -1337709.8, -17036.021, -0.030006185, -0.0429252, -1236472.1, 89175.984, 0.000000023716384, 10.000811, 9.999506 
1.15500696e+3, 1.7472936e+2, -1126143.1, -1230324.9, -15489.283, -0.033981882, -0.01646527, -1123889.0, 103762.66, 0.0, 10.000906, 9.999524 
1.155025e+3, 1.84729e+2, -1044171.0, -1179190.3, -24973.758, -0.031802043, 0.012956006, -1039699.8, 89957.67, 0.0, 10.000964, 9.999175 
1.15504295e+3, 1.9472846e+2, -943346.25, -1079252.1, -26235.963, -0.023631923, 0.043272376, -938457.4, 93208.234, 0.0, 10.000981, 9.99918 
1.1550608e+3, 2.0472784e+2, -867937.06, -1022867.0, -38727.38, -0.011727065, 0.077763654, -858795.9, 74878.695, 0.0, 10.0009575, 9.998906 
1.1550785e+3, 2.147271e+2, -779194.8, -928266.4, -39786.07, 0.004770352, 0.11346852, -769240.9, 66443.516, 0.0, 10.00089, 9.998916 
1.1550959e+3, 2.247261e+2, -715114.3, -884074.44, -52778.918, 0.009680258, 0.13834417, -699982.7, 37714.203, 0.0, 10.000818, 9.998581 
1.15511306e+3, 2.3472477e+2, -627480.0, -790319.3, -53804.633, 0.0016332808, 0.14963736, -611308.2, 28403.928, 0.0, 10.000744, 9.998588 
1.1551303e+3, 2.4472353e+2, -525716.5, -672918.9, -58539.73, 0.0033328296, 0.1607647, -505274.94, 36450.47, 0.0, 10.000694, 9.998744 
1.1551473e+3, 2.5472236e+2, -429286.38, -573119.06, -57856.035, 0.015947998, 0.16806833, -408902.78, 34833.69, 0.0, 10.000672, 9.998767 
1.1551647e+3, 2.6472092e+2, -331637.75, -475928.03, -55787.76, 0.03706892, 0.15111545, -312584.25, 33165.098, 0.0, 10.000673, 9.998761 
1.1551821e+3, 2.7471924e+2, -228680.05, -373522.28, -57841.34, 0.06730424, 0.10560368, -208416.55, 39347.42, 0.0, 10.000698, 9.998778 
1.15519986e+3, 2.8471792e+2, -136255.92, -281390.84, -36015.363, 0.08608434, 0.09959392, -127810.16, 21964.355, 0.0, 10.000673, 9.998751 
1.1552175e+3, 2.94717e+2, -48217.387, -186416.44, -30148.906, 0.092518784, 0.13113792, -41926.586, 9854.154, 0.0, 10.000597, 9.998766 
1.1552356e+3, 3.0471474e+2, 19261.123, -102234.6, 3960.1453, 0.08526077, 0.020547893, 19390.066, 19390.066, 0.0, 10.000611, 9.999003 
1.1552539e+3, 3.1471372e+2, 51391.652, -62106.625, 4248.098, 0.062188424, 0.015188111, 51550.43, 51550.43, 0.0, 10.000727, 9.999224 
1.1649166e+3, 1.2471296e+2, -1624359.3, -1710933.8, -13543.606, -0.020407101, -0.03572939, -1622290.0, 95520.336, 0.0014461256, 10.000794, 9.999644 
1.1649353e+3, 1.3471268e+2, -1508810.8, -1603633.1, -4490.9336, -0.011718085, -0.028415736, -1508598.5, 111214.266, 0.0007584584, 10.000911, 9.999652 
1.1649535e+3, 1.4471236e+2, -1408845.9, -1523097.0, -17817.855, -0.038912285, -0.015784474, -1406131.6, 115684.19, 0.00024917058, 10.001003, 9.999486 
1.1649717e+3, 1.5471148e+2, -1302178.8, -1420050.1, -14345.463, -0.033849686, -0.051204715, -1300457.9, 123366.28, 0.000029664654, 10.001059, 9.999494 
1.16498984e+3, 1.6471098e+2, -1207948.4, -1327126.1, -16155.035, -0.032826133, -0.047622353, -1205797.3, 120032.78, 0.00000004774233, 10.001046, 9.999465 
1.16500795e+3, 1.7471087e+2, -1121995.1, -1233224.9, -21184.734, -0.034661997, -0.0047758548, -1118096.9, 109736.26, 0.0, 10.000957, 9.99948 
1.165026e+3, 1.8471049e+2, -1048660.1, -1178234.6, -31385.787, -0.031661533, 0.02416672, -1041458.06, 88381.09, 0.0, 10.00092, 9.999202 
1.1650439e+3, 1.9470981e+2, -946227.4, -1077333.0, -28360.967, -0.024186768, 0.03516402, -940355.25, 91492.95, 0.0, 10.000948, 9.999209 
1.1650617e+3, 2.0470914e+2, -870856.1, -1024639.3, -40805.156, -0.014026169, 0.06447611, -860699.6, 73157.64, 0.0, 10.00094, 9.998902 
1.1650793e+3, 2.1470849e+2, -779090.25, -928662.2, -40781.49, -0.0004882995, 0.11059909, -768693.7, 67172.484, 0.0, 10.000893, 9.998911 
1.1650967e+3, 2.2470747e+2, -710791.0, -882233.7, -52600.684, 0.0054370495, 0.13563618, -695939.06, 41939.51, 0.0, 10.00085, 9.998578 
1.16511375e+3, 2.3470606e+2, -618354.75, -786194.4, -52459.87, 0.0031496692, 0.13569862, -603307.0, 36587.816, 0.0, 10.000809, 9.998584 
1.16513096e+3, 2.447048e+2, -517496.88, -670630.7, -57292.484, 0.0069519156, 0.14731775, -498434.72, 43473.37, 0.0, 10.000759, 9.998729 
1.1651481e+3, 2.5470376e+2, -426149.0, -573336.56, -59651.996, 0.017254762, 0.16785009, -405009.44, 38908.617, 0.0, 10.000702, 9.998751 
1.1651654e+3, 2.647023e+2, -331867.13, -480357.9, -56124.363, 0.03977029, 0.15162028, -313040.9, 32890.285, 0.0, 10.000691, 9.998721 
1.165183e+3, 2.7470043e+2, -226691.61, -376941.4, -57116.69, 0.07564747, 0.0930446, -207444.55, 40503.082, 0.0, 10.000731, 9.998738 
1.16520055e+3, 2.8469914e+2, -121692.88, -268108.22, -40357.766, 0.09486085, 0.086166926, -111305.625, 38652.58, 0.0, 10.000748, 9.998805 
1.1652183e+3, 2.9469836e+2, -24103.754, -168234.52, -40348.145, 0.09585061, 0.12986523, -13577.418, 38385.145, 0.0, 10.000736, 9.998824 
1.1652362e+3, 3.0469614e+2, 29580.053, -96806.64, -11281.931, 0.08823865, 0.016648198, 30579.236, 30579.236, 0.0, 10.000682, 9.999006 
1.16525464e+3, 3.1469512e+2, 33153.797, -64997.098, -18648.861, 0.07177612, 0.016613534, 36577.68, 36577.68, 0.0, 10.000577, 9.999275 
1.1749174e+3, 1.2469438e+2, -1626488.0, -1715181.0, -11254.545, -0.02754984, -0.024635838, -1625082.1, 92910.445, 0.0015842223, 10.000793, 9.999616 
1.17493615e+3, 1.3469386e+2, -1512516.1, -1611335.8, -820.0944, -0.007778917, -0.03414688, -1512509.3, 107487.9, 0.0008407167, 10.00091, 9.9996 
1.1749543e+3, 1.4469351e+2, -1398965.0, -1502742.3, -16191.486, -0.04185241, -0.028502088, -1396497.5, 125502.69, 0.0002831922, 10.001003, 9.999625 
1.17497265e+3, 1.5469286e+2, -1291286.6, -1397833.3, -12790.451, -0.036451425, -0.058467083, -1289772.8, 134233.34, 0.000036181405, 10.00106, 9.999645 
1.1749908e+3, 1.6469248e+2, -1216291.8, -1344962.4, -19866.432, -0.036753405, -0.04354538, -1213294.3, 112716.63, 0.00000010132158, 10.001048, 9.999342 
1.1750088e+3, 1.7469242e+2, -1130965.1, -1252427.9, -25030.387, -0.04206922, 0.017111497, -1126009.3, 102005.5, 0.0, 10.000958, 9.999348 
1.1750268e+3, 1.8469198e+2, -1042936.4, -1166907.8, -30913.42, -0.03378288, 0.04431706, -1035655.44, 94365.89, 0.0, 10.000922, 9.99928 
1.1750449e+3, 1.9469117e+2, -939951.4, -1064823.3, -27658.23, -0.010813688, 0.03186256, -934099.56, 97931.27, 0.0, 10.000949, 9.999294 
1.1750627e+3, 2.0469044e+2, -869686.7, -1022696.94, -42767.273, -0.001712371, 0.05152412, -858544.4, 75495.4, 0.0, 10.000941, 9.998916 
1.1750801e+3, 2.1468988e+2, -777992.44, -927020.4, -42830.13, -0.007969489, 0.10374714, -766560.2, 69487.945, 0.0, 10.000895, 9.998922 
1.1750974e+3, 2.2468889e+2, -709589.1, -880475.7, -54340.047, -0.0061689755, 0.13055804, -693773.4, 44286.9, 0.0, 10.000852, 9.9985895 
1.1751146e+3, 2.3468742e+2, -617192.0, -784341.75, -54100.016, 0.0049279407, 0.12666899, -601210.0, 38866.4, 0.0, 10.00081, 9.998596 
1.1751319e+3, 2.4468617e+2, -521014.66, -678494.5, -59464.293, 0.016916325, 0.14019436, -501083.5, 41006.168, 0.0, 10.00076, 9.998673 
1.1751489e+3, 2.5468516e+2, -429567.88, -581195.06, -61626.348, 0.029651685, 0.16949661, -407680.34, 36419.3, 0.0, 10.000705, 9.998695 
1.1751663e+3, 2.646837e+2, -333560.8, -484666.72, -54384.13, 0.052161563, 0.1550543, -316023.06, 30090.156, 0.0, 10.000693, 9.998691 
1.1751837e+3, 2.7468175e+2, -228351.33, -381076.38, -55071.656, 0.08551418, 0.09024122, -210564.39, 37566.15, 0.0, 10.000734, 9.99871 
1.1752013e+3, 2.8468034e+2, -122829.36, -271064.34, -40420.688, 0.0987676, 0.07690653, -112523.91, 37618.063, 0.0, 10.00075, 9.998784 
1.1752189e+3, 2.9467946e+2, -25377.41, -171240.52, -40495.844, 0.08976447, 0.11320923, -14888.794, 37258.414, 0.0, 10.000736, 9.998803 
1.1752369e+3, 3.0467725e+2, 23219.938, -110552.26, -14553.476, 0.08648252, 0.006434793, 24784.945, 24784.945, 0.0, 10.000683, 9.998912 
1.1752554e+3, 3.1467664e+2, 31041.477, -70632.336, -22047.813, 0.09207199, 0.053816188, 35616.637, 35616.637, 0.0, 10.000582, 9.999234 
1.18491806e+3, 1.24675624e+2, -1584211.3, -1690232.1, -17080.547, -0.03577936, -0.017979417, -1581527.4, 136649.17, 0.0017273793, 10.001065, 9.999656 
1.1849371e+3, 1.3467504e+2, -1487103.6, -1597246.8, -241.16666, -0.0073084487, -0.037259012, -1487103.1, 133078.44, 0.0009271282, 10.001078, 9.999616 
1.1849553e+3, 1.4467467e+2, -1378784.3, -1487731.1, -16700.414, -0.04939658, -0.03512964, -1376281.8, 145902.8, 0.00031980837, 10.00112, 9.999672 
1.1849738e+3, 1.5467411e+2, -1271088.3, -1382506.5, -21431.373, -0.043658618, -0.05880753, -1267108.1, 157081.45, 0.0000435681, 10.001175, 9.999695 
1.1849918e+3, 1.6467385e+2, -1196792.5, -1332766.1, -32435.742, -0.041910656, -0.03879386, -1189451.5, 136742.25, 0.00000019883093, 10.00117, 9.999367 
1.1850098e+3, 1.7467384e+2, -1108272.8, -1238643.5, -26181.771, -0.04337655, 0.025646644, -1103211.4, 124985.79, 0.0, 10.001102, 9.9993725 
1.1850278e+3, 1.8467343e+2, -1026148.7, -1154383.3, -25905.885, -0.0334264, 0.050870813, -1021112.94, 109090.49, 0.0, 10.001019, 9.999319 
1.1850459e+3, 1.9467254e+2, -942234.7, -1061280.5, -26252.52, -0.011100677, 0.02961164, -936702.5, 95510.5, 0.0, 10.000914, 9.999335 
1.1850636e+3, 2.046718e+2, -877172.44, -1026540.4, -41807.426, -0.002525412, 0.044116776, -866266.94, 67955.14, 0.0, 10.000892, 9.998913 
1.1850811e+3, 2.1467122e+2, -768272.94, -922661.6, -43049.086, -0.009232042, 0.09568864, -757080.7, 79149.9, 0.0, 10.000964, 9.998919 
1.1850983e+3, 2.2467028e+2, -692141.5, -866585.2, -57252.96, -0.004792857, 0.12487848, -675029.5, 63212.69, 0.0, 10.000949, 9.998637 
1.1851155e+3, 2.3466891e+2, -609990.25, -775148.25, -54648.133, 0.012214913, 0.12623681, -593545.5, 46711.656, 0.0, 10.000835, 9.998647 
1.1851326e+3, 2.4466765e+2, -521328.94, -683294.5, -56303.43, 0.025028173, 0.13711192, -503679.66, 38590.832, 0.0, 10.000779, 9.9986315 
1.1851496e+3, 2.5466648e+2, -420668.8, -581823.1, -57888.82, 0.03305562, 0.1547878, -402030.06, 42251.93, 0.0, 10.000788, 9.998651 
1.185167e+3, 2.6466498e+2, -319428.84, -479393.06, -48255.55, 0.05326743, 0.14070867, -305999.3, 40296.598, 0.0, 10.000798, 9.998676 
1.1851846e+3, 2.7466315e+2, -218311.47, -377671.8, -48092.555, 0.08715737, 0.09000976, -204922.72, 43389.508, 0.0, 10.000811, 9.998695 
1.18520215e+3, 2.8466174e+2, -117490.39, -270285.8, -34924.88, 0.101141244, 0.07952101, -109885.98, 40437.7, 0.0, 10.000795, 9.998767 
1.1852197e+3, 2.946608e+2, -24621.791, -172656.72, -34777.16, 0.09292374, 0.10514718, -16858.844, 35471.297, 0.0, 10.000751, 9.998786 
1.18523754e+3, 3.0465847e+2, 23991.295, -114884.49, -8694.913, 0.087380715, -0.008150743, 24533.559, 24533.559, 0.0, 10.00071, 9.998869 
1.18525594e+3, 3.1465802e+2, 44069.55, -62105.016, -13152.637, 0.08885701, 0.059715968, 45674.6, 45674.6, 0.0, 10.000662, 9.999253 
1.19491905e+3, 1.2465673e+2, -1576930.3, -1674933.9, -19228.385, -0.04545812, -0.016947713, -1573292.6, 145069.34, 0.0018763061, 10.001064, 9.999762 
1.1949382e+3, 1.346562e+2, -1481296.9, -1585448.4, -315.5318, -0.010342527, -0.037398845, -1481296.0, 139069.75, 0.0010180003, 10.001078, 9.999698 
1.1949563e+3, 1.4465587e+2, -1382215.4, -1495141.9, -15189.456, -0.06156191, -0.035062097, -1380208.0, 142160.61, 0.00035919753, 10.00112, 9.999621 
1.1949747e+3, 1.5465534e+2, -1275048.9, -1391041.1, -20059.084, -0.05576657, -0.052264705, -1271678.0, 152696.48, 0.00005194898, 10.001176, 9.999637 
1.1949929e+3, 1.6465507e+2, -1184719.8, -1308232.0, -35379.043, -0.048563957, -0.033464156, -1175303.6, 151074.77, 0.00000035173326, 10.001172, 9.999535 
1.19501084e+3, 1.7465517e+2, -1095364.0, -1212467.8, -29170.404, -0.038730677, 0.020887487, -1088500.0, 139879.98, 0.0, 10.001104, 9.999552 
1.1950288e+3, 1.8465482e+2, -1025934.6, -1154561.1, -30211.602, -0.03064141, 0.043819793, -1019192.0, 111193.3, 0.0, 10.00102, 9.999317 
1.1950466e+3, 1.9465397e+2, -942343.75, -1062230.1, -30621.738, -0.024806699, 0.02833615, -934975.1, 97419.4, 0.0, 10.0009165, 9.999329 
1.1950643e+3, 2.0465322e+2, -878210.25, -1029278.06, -39622.19, -0.016311647, 0.0422023, -868448.8, 65955.07, 0.0, 10.000894, 9.998894 
1.1950821e+3, 2.1465254e+2, -769569.5, -925571.1, -40512.24, -0.0046389545, 0.08644645, -759676.25, 76737.07, 0.0, 10.000964, 9.9988985 
1.19509935e+3, 2.2465166e+2, -686546.9, -855120.56, -61415.082, 0.0089862915, 0.118492074, -666545.25, 71879.03, 0.0, 10.000949, 9.998716 
1.1951165e+3, 2.3465052e+2, -603862.44, -762956.25, -59025.934, 0.024672085, 0.13406156, -584355.0, 56081.945, 0.0, 10.000837, 9.998731 
1.1951334e+3, 2.4464922e+2, -523274.25, -688046.75, -56107.758, 0.031292517, 0.13806643, -505983.16, 36467.313, 0.0, 10.000781, 9.998598 
1.1951504e+3, 2.546477e+2, -422975.44, -587168.56, -57290.418, 0.027740166, 0.12457134, -404961.88, 39503.156, 0.0, 10.00079, 9.998614 
1.1951676e+3, 2.6464614e+2, -319697.28, -480459.94, -47461.703, 0.043423142, 0.10938325, -306731.03, 39748.266, 0.0, 10.0008, 9.998669 
1.1951853e+3, 2.7464464e+2, -218431.47, -378456.16, -47240.184, 0.081030734, 0.09212788, -205526.6, 42966.266, 0.0, 10.000812, 9.99869 
1.1952029e+3, 2.8464338e+2, -118119.57, -272223.7, -36025.06, 0.10188987, 0.09320127, -110113.86, 40389.69, 0.0, 10.000797, 9.998754 
1.1952206e+3, 2.9464224e+2, -25339.857, -174872.02, -35763.004, 0.10368861, 0.10480276, -17226.754, 35284.86, 0.0, 10.000752, 9.99877 
1.1952383e+3, 3.0463973e+2, 24125.682, -115301.85, -9854.84, 0.09000791, -0.026788175, 24818.783, 24818.783, 0.0, 10.000711, 9.998865 
1.19525634e+3, 3.1463927e+2, 49049.844, -52411.656, -14335.693, 0.064374305, 0.039905895, 51036.465, 51036.465, 0.0, 10.000664, 9.99932 
1.2049202e+3, 1.2463786e+2, -1561511.8, -1668888.9, 4051.789, -0.042945158, -0.039880738, -1561359.1, 157186.78, 0.002031728, 10.001178, 9.999748 
1.2049393e+3, 1.3463742e+2, -1448564.5, -1574188.5, 15669.385, -0.017205684, -0.048350587, -1446639.5, 173909.42, 0.001113559, 10.001323, 9.999657 
1.2049574e+3, 1.4463712e+2, -1350438.8, -1484890.3, -7705.7026, -0.078295335, -0.03713976, -1349998.5, 172553.34, 0.0004014388, 10.001361, 9.999576 
1.2049759e+3, 1.5463664e+2, -1265469.8, -1391574.0, -12328.057, -0.057545274, -0.043824583, -1264275.9, 160282.28, 0.000061428385, 10.001265, 9.99959 
1.2049942e+3, 1.6463642e+2, -1177467.4, -1292201.3, -31465.07, -0.044178154, -0.025846418, -1169404.9, 157157.05, 0.00000057087306, 10.001168, 9.999646 
1.205012e+3, 1.7463647e+2, -1092147.1, -1197867.1, -30222.818, -0.03828175, 0.014763736, -1084117.1, 144445.72, 0.0, 10.001071, 9.999668 
1.2050298e+3, 1.8463616e+2, -1029466.8, -1161241.4, -34343.03, -0.033962894, 0.03631868, -1021053.5, 109514.195, 0.0, 10.001019, 9.999272 
1.2050475e+3, 1.9463539e+2, -931207.3, -1062587.3, -38244.855, -0.031607483, 0.033363417, -920885.2, 111691.76, 0.0, 10.001018, 9.999276 
1.2050652e+3, 2.0463464e+2, -864376.7, -1012660.6, -44912.863, -0.019931015, 0.04772901, -851834.2, 82751.97, 0.0, 10.000946, 9.998981 
1.2050829e+3, 2.1463394e+2, -788485.25, -924234.7, -37742.22, 0.0025032428, 0.07872526, -778697.56, 57897.746, 0.0, 10.00079, 9.998991 
1.2051002e+3, 2.2463308e+2, -714304.5, -864422.9, -55043.547, 0.017238474, 0.10838928, -696284.9, 42320.75, 0.0, 10.000741, 9.998753 
1.2051172e+3, 2.3463209e+2, -604288.9, -759204.94, -56499.61, 0.023008468, 0.13418621, -585872.2, 54744.84, 0.0, 10.000818, 9.998765 
1.20513424e+3, 2.4463081e+2, -512942.44, -681436.4, -53774.895, 0.028633814, 0.13812977, -497242.97, 45387.336, 0.0, 10.000846, 9.998611 
1.2051512e+3, 2.5462916e+2, -417561.9, -582789.7, -51513.68, 0.034390792, 0.11247967, -402817.13, 41828.504, 0.0, 10.00082, 9.998629 
1.20516844e+3, 2.6462764e+2, -316064.72, -477680.72, -38291.594, 0.049755216, 0.094134286, -307451.34, 39208.676, 0.0, 10.000821, 9.998676 
1.205186e+3, 2.7462623e+2, -211317.67, -373734.0, -37064.4, 0.07594266, 0.08404167, -203259.17, 45413.805, 0.0, 10.000855, 9.9987 
1.2052036e+3, 2.84625e+2, -109859.06, -268702.28, -27524.46, 0.09542164, 0.092866376, -105224.805, 45458.4, 0.0, 10.000856, 9.998748 
1.20522134e+3, 2.9462397e+2, -16830.71, -171183.75, -26899.82, 0.10721071, 0.11224544, -12277.093, 40413.926, 0.0, 10.000814, 9.998765 
1.20523915e+3, 3.0462137e+2, 35841.58, -105059.66, 628.1865, 0.09494629, -0.027437022, 35844.38, 35844.38, 0.0, 10.000773, 9.998905 
1.2052571e+3, 3.1462088e+2, 66274.11, -30591.434, -869.02905, 0.06298603, 0.032894015, 66281.91, 66281.91, 0.0, 10.000725, 9.999439 
1.2149215e+3, 1.2461906e+2, -1571474.1, -1689499.8, 6422.2695, -0.027761484, -0.086903, -1571125.8, 147601.94, 0.0021936102, 10.001176, 9.999608 
1.21494055e+3, 1.3461868e+2, -1460581.9, -1599456.6, 20467.027, -0.02826616, -0.070744984, -1457628.3, 163102.58, 0.0012136708, 10.001324, 9.999483 
1.2149585e+3, 1.4461847e+2, -1353192.8, -1491042.3, -11564.036, -0.1001076, -0.04183592, -1352229.4, 170504.7, 0.00044641417, 10.001362, 9.999534 
1.2149773e+3, 1.5461808e+2, -1267724.6, -1396780.9, -16518.096, -0.049007878, -0.033455797, -1265644.0, 159096.13, 0.00007201624, 10.001266, 9.999554 
1.21499546e+3, 1.6461788e+2, -1173724.5, -1285003.5, -35670.273, -0.028682293, -0.015800152, -1163272.3, 163471.73, 0.0000008702971, 10.00117, 9.999695 
1.21501304e+3, 1.7461781e+2, -1088159.5, -1190242.1, -34382.895, -0.042035468, 0.007328018, -1077658.9, 151086.33, 0.0, 10.001073, 9.99972 
1.2150306e+3, 1.8461746e+2, -1035598.7, -1174607.0, -34899.813, -0.043487735, 0.028346198, -1027328.6, 103421.81, 0.0, 10.00102, 9.99918 
1.2150484e+3, 1.946168e+2, -937751.75, -1076639.6, -38509.004, -0.031831373, 0.04443787, -927789.1, 104970.88, 0.0, 10.0010195, 9.99918 
1.2150662e+3, 2.046161e+2, -851085.6, -985493.44, -50853.793, -0.013774013, 0.060451403, -834013.4, 100755.39, 0.0, 10.000947, 9.999168 
1.21508375e+3, 2.146154e+2, -774118.2, -895081.2, -43894.336, 0.011999424, 0.07257009, -759868.6, 76907.84, 0.0, 10.000792, 9.999191 
1.2151011e+3, 2.2461458e+2, -714563.25, -865647.6, -52625.297, 0.020116284, 0.094770655, -698040.0, 40746.02, 0.0, 10.000744, 9.998743 
1.21511795e+3, 2.3461363e+2, -605328.6, -761786.2, -53603.586, 0.00783845, 0.12685278, -588725.5, 52071.92, 0.0, 10.000819, 9.998747 
1.21513486e+3, 2.4461243e+2, -508844.66, -673280.2, -54590.79, 0.017271305, 0.13715023, -492371.44, 50438.58, 0.0, 10.000847, 9.998668 
1.2151522e+3, 2.546109e+2, -413209.44, -574087.1, -52321.582, 0.052060444, 0.11743314, -397690.2, 47133.746, 0.0, 10.00082, 9.998689 
1.2151696e+3, 2.6460934e+2, -314489.28, -474647.9, -36721.88, 0.071145125, 0.09408986, -306470.97, 40367.3, 0.0, 10.000821, 9.998698 
1.2151869e+3, 2.7460778e+2, -209937.66, -370937.63, -35257.008, 0.071398675, 0.066418506, -202555.31, 46297.383, 0.0, 10.000855, 9.99872 
1.2152044e+3, 2.8460664e+2, -109911.266, -268794.25, -28501.504, 0.08169059, 0.07923394, -104953.19, 45909.586, 0.0, 10.000855, 9.998749 
1.215222e+3, 2.9460585e+2, -16771.465, -171303.38, -28032.445, 0.10407079, 0.1264293, -11843.468, 41025.227, 0.0, 10.000814, 9.998765 
1.21523984e+3, 3.0460334e+2, 41523.887, -93631.96, -586.6788, 0.10189695, -0.011875825, 41526.434, 41526.434, 0.0, 10.000773, 9.998984 
1.21525794e+3, 3.1460285e+2, 78074.484, -6402.7563, -2359.6807, 0.08138246, 0.03924506, 78140.35, 78140.35, 0.0, 10.000726, 9.999606 
1.22492276e+3, 1.24600545e+2, -1519785.8, -1675142.6, 5219.8257, -0.040562715, -0.09883774, -1519610.6, 199297.02, 0.0023606704, 10.001579, 9.999512 
1.2249419e+3, 1.3460001e+2, -1427944.0, -1597816.1, 25174.94, -0.03291002, -0.086677596, -1424291.6, 196621.33, 0.0013175874, 10.00161, 9.999356 
1.2249599e+3, 1.4459975e+2, -1331938.1, -1485975.9, -14161.102, -0.10953159, -0.05277135, -1330647.1, 192269.95, 0.0004937232, 10.001531, 9.999486 
1.2249785e+3, 1.5459955e+2, -1264075.5, -1399875.0, -20617.053, -0.053911082, -0.022306109, -1261014.5, 163907.78, 0.000083587045, 10.001312, 9.99951 
1.2249966e+3, 1.6459934e+2, -1168558.6, -1278129.3, -36961.457, -0.032039735, -0.0014735856, -1157256.3, 169669.61, 0.0000012652538, 10.001187, 9.999734 
1.225014e+3, 1.7459916e+2, -1070593.1, -1176769.8, -36366.223, -0.047159135, 0.0027423836, -1059331.8, 169596.13, 0.0, 10.001172, 9.9997635 
1.2250318e+3, 1.8459877e+2, -1028198.94, -1171814.0, -35905.426, -0.04712812, 0.019165743, -1019722.5, 111210.77, 0.0, 10.001076, 9.999172 
1.2250494e+3, 1.9459823e+2, -958837.94, -1087859.6, -33307.656, -0.03031924, 0.04757713, -950746.8, 82195.46, 0.0, 10.00088, 9.999169 
1.22506715e+3, 2.045976e+2, -867177.5, -981095.1, -44072.715, -0.010500735, 0.06758466, -852117.5, 82832.72, 0.0, 10.000785, 9.999276 
1.2250846e+3, 2.1459697e+2, -763876.7, -877293.4, -43562.727, 0.0132187605, 0.07385289, -749075.94, 87880.84, 0.0, 10.000808, 9.999305 
1.2251018e+3, 2.2459616e+2, -701435.0, -854587.75, -50558.0, 0.021291547, 0.089302786, -686250.56, 52715.29, 0.0, 10.000814, 9.998785 
1.2251188e+3, 2.3459518e+2, -605219.9, -757259.9, -47614.57, 0.0112358155, 0.113724925, -591539.3, 49438.098, 0.0, 10.000801, 9.998786 
1.2251358e+3, 2.4459401e+2, -516251.84, -674217.6, -49693.605, 0.02137794, 0.12470957, -501919.4, 41070.227, 0.0, 10.000786, 9.998691 
1.22515306e+3, 2.5459263e+2, -419024.7, -574154.44, -50402.29, 0.054947007, 0.115021504, -404087.13, 40915.406, 0.0, 10.00077, 9.998713 
1.2251703e+3, 2.645911e+2, -319103.0, -471240.0, -33904.676, 0.07380813, 0.09176358, -311889.2, 35127.336, 0.0, 10.000766, 9.998748 
1.2251878e+3, 2.7458948e+2, -217940.67, -368961.63, -30427.094, 0.075176455, 0.05286439, -212040.83, 36990.492, 0.0, 10.000776, 9.998772 
1.2252052e+3, 2.8458834e+2, -117949.3, -269619.28, -22933.172, 0.083060116, 0.06603382, -114557.55, 36483.555, 0.0, 10.000788, 9.998775 
1.2252228e+3, 2.9458773e+2, -16965.816, -168615.86, -20766.6, 0.0987905, 0.12633389, -14173.502, 38872.508, 0.0, 10.000802, 9.998789 
1.22524075e+3, 3.0458525e+2, 40680.266, -98995.75, 2041.0586, 0.1006391, -0.007936469, 40710.082, 40710.082, 0.0, 10.000791, 9.998939 
1.2252588e+3, 3.145848e+2, 82362.31, 202.73438, -9337.181, 0.09957697, 0.052165836, 83410.09, 83410.09, 0.0, 10.000736, 9.999645 
1.234924e+3, 1.2458237e+2, -1523336.1, -1682786.0, 2595.0935, -0.082527086, -0.074621946, -1523293.9, 195791.33, 0.0025307094, 10.001579, 9.999459 
1.2349435e+3, 1.3458142e+2, -1433301.0, -1609622.6, 25544.09, -0.031203935, -0.095750906, -1429674.9, 191419.77, 0.0014240493, 10.001612, 9.999274 
1.23496145e+3, 1.44581e+2, -1335657.4, -1494315.1, -22631.57, -0.10620837, -0.069839254, -1332492.3, 190608.31, 0.00054276333, 10.001533, 9.999429 
1.2349796e+3, 1.5458106e+2, -1267878.0, -1408302.8, -29562.277, -0.07240586, -0.010371425, -1261908.3, 163195.67, 0.00009593835, 10.001313, 9.999452 
1.2349976e+3, 1.645809e+2, -1166350.8, -1274108.9, -38374.453, -0.054561548, 0.017064298, -1154081.9, 173025.36, 0.0000017602412, 10.001188, 9.999761 
1.2350152e+3, 1.7458051e+2, -1067912.9, -1171809.8, -37356.73, -0.05389334, 0.00091862335, -1055875.6, 173234.86, 0.0, 10.001174, 9.999798 
1.2350327e+3, 1.845801e+2, -1022924.6, -1161454.5, -43445.785, -0.04510396, 0.008803209, -1010426.7, 120689.22, 0.0, 10.001077, 9.999243 
1.2350504e+3, 1.9457969e+2, -953315.7, -1077176.9, -41023.785, -0.027188882, 0.043028336, -940960.7, 92162.91, 0.0, 10.000882, 9.999243 
1.23506784e+3, 2.045792e+2, -864812.25, -976931.8, -43822.375, -0.0100706145, 0.06922851, -849716.56, 85413.87, 0.0, 10.000788, 9.999304 
1.23508535e+3, 2.1457866e+2, -761724.75, -873327.1, -42931.47, 0.0063790493, 0.08214428, -747120.8, 90015.37, 0.0, 10.000809, 9.999332 
1.23510264e+3, 2.2457783e+2, -695283.94, -842039.56, -51174.67, 0.020598548, 0.09168056, -679201.44, 59943.504, 0.0, 10.000814, 9.998872 
1.2351198e+3, 2.3457673e+2, -599172.1, -744592.94, -48173.25, 0.032075748, 0.09525438, -584661.75, 56495.2, 0.0, 10.0008, 9.998875 
1.2351367e+3, 2.4457556e+2, -516944.13, -675693.5, -50201.227, 0.040132806, 0.10143201, -502401.28, 40767.85, 0.0, 10.000785, 9.998681 
1.2351537e+3, 2.5457427e+2, -419679.88, -576228.5, -50677.758, 0.043873634, 0.10555796, -404706.66, 40474.785, 0.0, 10.0007715, 9.998697 
1.2351709e+3, 2.6457286e+2, -313524.06, -460558.8, -33095.594, 0.058571834, 0.08720183, -306418.13, 40776.73, 0.0, 10.000769, 9.998819 
1.2351886e+3, 2.7457124e+2, -212220.69, -357594.38, -29466.469, 0.08647826, 0.042947106, -206475.08, 42733.945, 0.0, 10.000777, 9.99885 
1.23520605e+3, 2.8457016e+2, -114518.625, -262797.03, -21893.965, 0.098330386, 0.053131167, -111353.445, 39864.94, 0.0, 10.000789, 9.998821 
1.2352235e+3, 2.9456958e+2, -13522.142, -162100.22, -19658.521, 0.09097524, 0.11313833, -10965.108, 42258.01, 0.0, 10.000804, 9.998833 
1.2352414e+3, 3.045671e+2, 29589.674, -122714.65, 830.8336, 0.09115801, -0.014662836, 29594.207, 29594.207, 0.0, 10.0007925, 9.9987755 
1.2352598e+3, 3.1456673e+2, 76923.64, -11546.23, -10572.211, 0.117244564, 0.07241565, 78169.484, 78169.484, 0.0, 10.000737, 9.999565 
1.2449254e+3, 1.2456402e+2, -1495605.6, -1677755.0, 3772.8442, -0.10135785, -0.0771643, -1495527.5, 223736.61, 0.002701762, 10.001808, 9.999383 
1.2449451e+3, 1.3456298e+2, -1452038.9, -1630476.3, 27525.89, -0.028930858, -0.09500815, -1447889.3, 173385.77, 0.0015319061, 10.001534, 9.999167 
1.2449629e+3, 1.4456248e+2, -1353911.0, -1505049.3, -19075.531, -0.107109375, -0.07171011, -1351540.6, 171741.34, 0.00059303787, 10.001416, 9.999411 
1.24498084e+3, 1.545625e+2, -1245656.6, -1398793.5, -22998.307, -0.08267512, -0.013923623, -1242277.3, 183008.2, 0.00010892868, 10.001472, 9.999439 
1.24499865e+3, 1.6456233e+2, -1141529.4, -1268184.6, -35051.098, -0.06607726, 0.01483904, -1132476.3, 194812.81, 0.0000023447426, 10.001386, 9.999706 
1.2450162e+3, 1.7456195e+2, -1078531.6, -1183018.3, -41014.22, -0.056995645, 0.0039889496, -1064355.6, 164937.2, 0.0, 10.001128, 9.999742 
1.2450338e+3, 1.8456157e+2, -1029900.25, -1151542.5, -48290.03, -0.04372367, 0.012050632, -1013060.94, 118236.98, 0.0, 10.000973, 9.999361 
1.24505125e+3, 1.945612e+2, -936912.44, -1055117.5, -42210.723, -0.026015365, 0.040201493, -923386.75, 109917.53, 0.0, 10.000935, 9.999368 
1.2450686e+3, 2.0456076e+2, -854612.5, -973719.94, -42097.984, -0.012647638, 0.06401647, -841235.56, 94075.02, 0.0, 10.000866, 9.999288 
1.245086e+3, 2.1456021e+2, -770635.1, -879925.7, -44988.395, -0.004175018, 0.079194, -754498.6, 82818.0, 0.0, 10.000758, 9.9993105 
1.24510325e+3, 2.245594e+2, -709162.94, -834864.75, -54243.84, 0.013578185, 0.086069815, -688992.0, 50333.05, 0.0, 10.00066, 9.998995 
1.2451205e+3, 2.3455834e+2, -622943.9, -741331.2, -48515.83, 0.042226776, 0.08089414, -605602.1, 35733.824, 0.0, 10.000574, 9.999005 
1.2451376e+3, 2.4455723e+2, -537954.0, -682831.75, -42338.848, 0.05169721, 0.08449352, -526488.4, 16858.945, 0.0, 10.000628, 9.998707 
1.24515444e+3, 2.5455603e+2, -407036.06, -567628.94, -40292.805, 0.038207848, 0.09330138, -397493.6, 47865.68, 0.0, 10.000849, 9.998719 
1.24517165e+3, 2.6455462e+2, -288577.88, -440661.97, -27786.648, 0.048841972, 0.0762555, -283660.1, 63712.105, 0.0, 10.000907, 9.99889 
1.2451893e+3, 2.7455306e+2, -207693.7, -347173.47, -24852.451, 0.088371806, 0.029401451, -203397.81, 45987.934, 0.0, 10.000773, 9.998923 
1.2452069e+3, 2.8455207e+2, -115947.01, -259144.5, -12904.2295, 0.10196624, 0.040059596, -114793.44, 36601.074, 0.0, 10.00076, 9.99886 
1.2452244e+3, 2.9455158e+2, 1377.4789, -150800.03, -11408.185, 0.084441625, 0.104052, 2227.9553, 55626.66, 0.0, 10.000889, 9.998869 
1.2452422e+3, 3.0454907e+2, 37121.152, -132950.48, 4149.6787, 0.08637384, -0.020016048, 37222.344, 37222.344, 0.0, 10.000904, 9.998651 
1.2452606e+3, 3.145487e+2, 80267.49, -13690.15, -4609.935, 0.13155706, 0.07876172, 80493.13, 80493.13, 0.0, 10.000777, 9.999531 
1.2549272e+3, 1.2454551e+2, -1502867.3, -1693468.8, -10651.447, -0.095990695, -0.10739731, -1502273.9, 217169.95, 0.002872962, 10.001811, 9.999274 
1.2549466e+3, 1.3454476e+2, -1461731.0, -1650949.5, 16319.948, -0.026164241, -0.08447561, -1460333.8, 161119.72, 0.001640651, 10.001534, 9.999028 
1.2549642e+3, 1.445442e+2, -1352403.8, -1502025.8, -18078.697, -0.11264901, -0.05813402, -1350250.3, 173210.73, 0.0006444068, 10.001416, 9.999432 
1.2549824e+3, 1.5454392e+2, -1243246.4, -1394339.9, -21464.604, -0.08484382, -0.033055585, -1240256.3, 185210.17, 0.00012257921, 10.001474, 9.99947 
1.255e+3, 1.6454366e+2, -1150932.4, -1288428.1, -44834.574, -0.06661953, -0.00834215, -1137604.6, 189866.39, 0.0000030126384, 10.001389, 9.999566 
1.2550174e+3, 1.7454346e+2, -1088367.6, -1204221.4, -51190.18, -0.056555014, 0.011844097, -1068990.1, 160484.45, 0.0, 10.001131, 9.999596 
1.2550348e+3, 1.8454315e+2, -1018386.2, -1128357.9, -50446.316, -0.04309014, 0.028799145, -998751.1, 132727.94, 0.0, 10.000975, 9.999519 
1.2550521e+3, 1.9454278e+2, -924457.6, -1029751.0, -43990.258, -0.026877549, 0.03904065, -908498.06, 124986.12, 0.0, 10.0009365, 9.999542 
1.2550695e+3, 2.0454228e+2, -858853.5, -982846.56, -46317.113, -0.018298242, 0.052116685, -843462.4, 92028.14, 0.0, 10.000866, 9.999226 
1.2550865e+3, 2.1454164e+2, -775638.56, -890646.56, -49177.504, -0.018472519, 0.065486185, -757477.94, 80020.086, 0.0, 10.000759, 9.999237 
1.2551038e+3, 2.2454089e+2, -698073.9, -812282.94, -57622.965, 0.00035628123, 0.07278237, -674052.94, 65453.05, 0.0, 10.000661, 9.999149 
1.2551211e+3, 2.3454003e+2, -610820.75, -716894.75, -51848.59, 0.042129714, 0.07032492, -589687.7, 51826.61, 0.0, 10.000576, 9.999172 
1.2551382e+3, 2.4453902e+2, -533828.8, -674628.25, -34562.777, 0.05629482, 0.07353101, -525802.06, 17722.145, 0.0, 10.000628, 9.998764 
1.2551552e+3, 2.5453782e+2, -403932.4, -560406.44, -31832.146, 0.037436657, 0.078394614, -397704.53, 47831.594, 0.0, 10.000844, 9.998772 
1.2551725e+3, 2.6453647e+2, -284663.88, -431576.4, -31984.256, 0.04420321, 0.059251644, -278002.63, 69546.11, 0.0, 10.000902, 9.998955 
1.25519e+3, 2.7453497e+2, -203090.86, -337586.7, -29560.65, 0.08131679, 0.012497487, -196880.53, 52681.117, 0.0, 10.000772, 9.99899 
1.2552075e+3, 2.8453407e+2, -114193.96, -255600.3, -8114.8926, 0.09448598, 0.026793227, -113729.8, 37839.895, 0.0, 10.00076, 9.998885 
1.2552251e+3, 2.9453367e+2, 2564.6807, -147755.31, -6076.7686, 0.07902337, 0.098366596, 2809.9373, 56383.016, 0.0, 10.000885, 9.998892 
1.255243e+3, 3.0453113e+2, 30348.488, -146382.69, 320.2106, 0.08586604, -0.024318816, 30349.068, 30349.068, 0.0, 10.0009, 9.99856 
1.2552615e+3, 3.145307e+2, 80875.83, -12643.633, -8579.859, 0.14202577, 0.074456766, 81656.47, 81656.47, 0.0, 10.000777, 9.999538 
1.264929e+3, 1.2452706e+2, -1517463.8, -1711423.6, -11036.204, -0.0907327, -0.13738185, -1516837.9, 202785.0, 0.0030443578, 10.001759, 9.999175 
1.2649482e+3, 1.345264e+2, -1433352.1, -1651527.3, 20034.852, -0.033406734, -0.091741316, -1431527.6, 190104.9, 0.0017503432, 10.001792, 9.998899 
1.2649655e+3, 1.4452583e+2, -1312948.6, -1482743.5, -14193.8545, -0.12727138, -0.06191081, -1311770.3, 211870.39, 0.00069703115, 10.001687, 9.9994335 
1.2649837e+3, 1.5452547e+2, -1251238.1, -1397145.3, -19524.86, -0.08213652, -0.044510555, -1248670.6, 176975.45, 0.00013704965, 10.001415, 9.999478 
1.2650014e+3, 1.6452518e+2, -1180418.6, -1313091.1, -44593.492, -0.05946126, -0.019973293, -1166823.1, 160827.94, 0.0000037895563, 10.001232, 9.999472 
1.2650184e+3, 1.7452495e+2, -1092716.6, -1217330.3, -47791.7, -0.05992649, 0.008784145, -1076498.4, 153157.48, 0.0, 10.001149, 9.999496 
1.2650357e+3, 1.8452469e+2, -1008247.44, -1117245.3, -47177.883, -0.050521776, 0.031208554, -990663.9, 140996.42, 0.0, 10.001019, 9.999574 
1.265053e+3, 1.9452439e+2, -935888.4, -1028308.06, -49193.418, -0.030736852, 0.04349014, -914604.94, 119059.24, 0.0, 10.000829, 9.999603 
1.2650701e+3, 2.0452389e+2, -881457.4, -989015.7, -51650.496, -0.01994217, 0.051280234, -860671.3, 74998.87, 0.0, 10.000691, 9.999267 
1.2650873e+3, 2.1452315e+2, -793863.06, -894919.56, -46471.363, -0.019446641, 0.050384462, -775742.25, 61936.23, 0.0, 10.000615, 9.999276 
1.2651044e+3, 2.2452243e+2, -704018.8, -808376.0, -51632.656, -0.0015707962, 0.05585925, -682790.75, 56895.28, 0.0, 10.000592, 9.999209 
1.2651215e+3, 2.3452176e+2, -598677.7, -704150.3, -53654.11, 0.03722284, 0.06660321, -576181.8, 65510.496, 0.0, 10.00063, 9.999233 
1.2651388e+3, 2.4452081e+2, -532358.56, -666937.94, -37582.42, 0.05383585, 0.06992249, -522574.7, 21126.742, 0.0, 10.000609, 9.998826 
1.265156e+3, 2.5451952e+2, -447298.2, -574331.06, -34308.3, 0.043906387, 0.05904392, -438624.6, 7089.285, 0.0, 10.000517, 9.998833 
1.2651733e+3, 2.645182e+2, -333675.84, -448232.53, -36038.51, 0.049676634, 0.034655377, -323281.6, 24444.75, 0.0, 10.000536, 9.999017 
1.2651907e+3, 2.7451682e+2, -210623.61, -333939.4, -34205.695, 0.07389708, -0.004386387, -201771.05, 47967.02, 0.0, 10.0006895, 9.999054 
1.2652083e+3, 2.8451604e+2, -110789.805, -246535.28, -10778.766, 0.08436122, 0.01609116, -109939.26, 41805.73, 0.0, 10.0007515, 9.998951 
1.265226e+3, 2.9451576e+2, -20062.387, -151312.03, -5684.035, 0.0783007, 0.09170544, -19816.688, 33930.652, 0.0, 10.000699, 9.998958 
1.2652439e+3, 3.0451322e+2, -378.52408, -165933.81, 1892.1112, 0.08926912, -0.034028333, -356.9022, -356.9022, 0.0, 10.0007105, 9.998517 
1.2652624e+3, 3.145126e+2, 88083.14, -2623.8438, -3739.844, 0.14694925, 0.054556053, 88237.07, 88237.07, 0.0, 10.000798, 9.999597 
1.2749308e+3, 1.2450874e+2, -1523864.0, -1724491.6, -14346.6, -0.085525654, -0.16644645, -1522843.3, 196957.27, 0.003216271, 10.001757, 9.999086 
1.2749498e+3, 1.34508e+2, -1441167.5, -1668561.6, 20587.998, -0.05083202, -0.11721042, -1439318.5, 182493.25, 0.0018611854, 10.001795, 9.998782 
1.274967e+3, 1.4450738e+2, -1314122.0, -1486011.3, -24755.533, -0.15120365, -0.08349138, -1310627.6, 213192.83, 0.0007511169, 10.00169, 9.99941 
1.2749852e+3, 1.5450719e+2, -1252178.6, -1399735.0, -30446.7, -0.074782625, -0.04833777, -1246143.3, 179680.8, 0.0001525157, 10.001417, 9.99946 
1.2750028e+3, 1.645069e+2, -1183826.6, -1320771.1, -48488.33, -0.04475952, -0.019932762, -1168396.8, 159432.25, 0.000004722807, 10.001233, 9.999419 
1.2750195e+3, 1.7450647e+2, -1096280.8, -1225368.4, -51281.98, -0.067138284, -0.0050217793, -1078388.3, 151447.86, 0.0, 10.001151, 9.99944 
1.2750365e+3, 1.8450618e+2, -1011624.75, -1124887.9, -54559.344, -0.06605299, 0.019371934, -989618.8, 142222.53, 0.0, 10.00102, 9.999521 
1.2750538e+3, 1.9450606e+2, -939052.94, -1035662.6, -56582.473, -0.037680607, 0.053363103, -912960.6, 120883.414, 0.0, 10.000832, 9.999552 
1.2750709e+3, 2.0450558e+2, -871589.4, -969351.06, -54902.215, -0.017869858, 0.0612691, -846961.1, 88888.38, 0.0, 10.000694, 9.999401 
1.275088e+3, 2.1450473e+2, -783291.2, -873725.3, -49531.984, -0.0077200774, 0.033972472, -761441.1, 76416.82, 0.0, 10.000618, 9.999421 
1.275105e+3, 2.2450402e+2, -706165.3, -813390.9, -50526.324, 0.0073037404, 0.035392623, -686108.3, 53756.652, 0.0, 10.000593, 9.999174 
1.275122e+3, 2.3450354e+2, -601558.1, -710379.06, -52227.168, 0.027687851, 0.06936073, -580548.56, 61321.33, 0.0, 10.000631, 9.99919 
1.2751393e+3, 2.445026e+2, -528040.06, -658151.25, -40798.65, 0.044479325, 0.073328815, -516305.28, 27573.553, 0.0, 10.000609, 9.998887 
1.2751566e+3, 2.545011e+2, -442422.94, -564526.3, -37508.426, 0.056984156, 0.035543818, -431821.38, 14071.179, 0.0, 10.000517, 9.9989 
1.275174e+3, 2.6449975e+2, -329836.78, -440380.25, -30251.629, 0.06451629, 0.0029047113, -322099.56, 25805.38, 0.0, 10.000535, 9.999071 
1.2751913e+3, 2.7449858e+2, -206961.31, -325895.78, -27916.207, 0.06606942, -0.021410704, -200734.81, 49180.27, 0.0, 10.000687, 9.999111 
1.2752089e+3, 2.8449795e+2, -104342.234, -232157.66, -12071.992, 0.07164586, 0.0076106, -103212.04, 48708.508, 0.0, 10.000747, 9.999053 
1.2752266e+3, 2.944978e+2, -13895.71, -137112.48, -7485.1084, 0.081634894, 0.084104545, -13442.674, 40478.984, 0.0, 10.000691, 9.999059 
1.2752447e+3, 3.0449525e+2, -1533.7014, -167136.7, 5127.65, 0.09598669, -0.048467822, -1375.0834, -1375.0834, 0.0, 10.000705, 9.998512 
1.2752631e+3, 3.1449443e+2, 94652.74, 11266.345, 137.86359, 0.14635961, 0.022034563, 94652.97, 94652.97, 0.0, 10.000796, 9.999693 
1.2849326e+3, 1.2449079e+2, -1506563.3, -1724453.4, -2668.4182, -0.09433236, -0.17573445, -1506530.6, 213444.55, 0.0033890037, 10.001913, 9.999011 
1.2849517e+3, 1.3448992e+2, -1446695.8, -1682184.5, 37346.285, -0.050083723, -0.12902756, -1440914.9, 181072.92, 0.0019731622, 10.001804, 9.998683 
1.2849686e+3, 1.4448918e+2, -1323643.0, -1497982.8, -16272.358, -0.1523597, -0.10075006, -1322137.1, 201860.78, 0.0008066489, 10.0016575, 9.999343 
1.2849867e+3, 1.5448897e+2, -1251275.3, -1406515.6, -26271.314, -0.07562718, -0.061285205, -1246949.9, 179051.47, 0.00016903538, 10.001455, 9.999394 
1.285004e+3, 1.6448861e+2, -1182022.1, -1324366.9, -42052.63, -0.04540896, -0.033072937, -1170526.9, 157479.97, 0.00000585612, 10.0012665, 9.999378 
1.2850206e+3, 1.744881e+2, -1107502.4, -1234958.8, -43698.652, -0.06761031, -0.023468355, -1093959.3, 136055.53, 0.0, 10.001093, 9.999402 
1.2850375e+3, 1.8448777e+2, -1022549.2, -1134361.1, -46265.04, -0.067844994, 0.0029559638, -1005888.44, 126132.055, 0.0, 10.000965, 9.999482 
1.2850545e+3, 1.9448774e+2, -934018.56, -1037349.0, -47615.023, -0.04255188, 0.047938406, -915423.7, 118599.25, 0.0, 10.000885, 9.999515 
1.2850717e+3, 2.0448731e+2, -854212.4, -956230.94, -47326.563, -0.021201784, 0.059424397, -835639.0, 100389.05, 0.0, 10.000794, 9.999442 
1.2850887e+3, 2.1448644e+2, -769669.6, -861871.7, -49322.91, -0.0038895253, 0.026313744, -748257.25, 89778.84, 0.0, 10.0006895, 9.999468 
1.2851056e+3, 2.2448568e+2, -707162.25, -818207.0, -51648.965, 0.011590999, 0.023678955, -686853.56, 53189.758, 0.0, 10.000607, 9.999135 
1.2851226e+3, 2.3448515e+2, -616639.06, -722505.56, -53634.586, 0.02420182, 0.055848382, -594215.8, 47833.293, 0.0, 10.000549, 9.999146 
1.2851398e+3, 2.444842e+2, -535710.4, -649716.25, -42636.746, 0.038601726, 0.056677528, -521528.84, 22529.023, 0.0, 10.000505, 9.998995 
1.285157e+3, 2.5448278e+2, -440246.78, -550419.4, -36157.754, 0.05511303, 0.014199996, -429440.13, 16630.04, 0.0, 10.000477, 9.999017 
1.2851745e+3, 2.6448148e+2, -339310.7, -443894.47, -23842.129, 0.06431609, -0.020081868, -334131.8, 13949.973, 0.0, 10.000466, 9.99908 
1.2851918e+3, 2.7448034e+2, -237141.45, -339975.9, -25212.482, 0.0650298, -0.04226282, -231292.63, 18799.28, 0.0, 10.000478, 9.999115 
1.2852094e+3, 2.844797e+2, -142738.6, -247318.8, -18347.066, 0.06954237, -0.01407901, -139613.28, 12484.1875, 0.0, 10.000469, 9.999082 
1.2852272e+3, 2.9447952e+2, -49402.51, -150995.27, -19357.926, 0.07776176, 0.0580274, -45838.965, 8259.785, 0.0, 10.000435, 9.999087 
1.2852451e+3, 3.0447704e+2, -33070.758, -185692.64, -3659.865, 0.09206697, -0.06631578, -32983.043, -32983.043, 0.0, 10.000504, 9.998481 
1.2852637e+3, 3.144764e+2, 84801.26, 14961.589, -9813.228, 0.14893866, 0.020905364, 86153.93, 86153.93, 0.0, 10.000694, 9.999767 
1.2949343e+3, 1.2447329e+2, -1510920.3, -1734026.5, -11861.074, -0.11737145, -0.16454943, -1510291.4, 209854.67, 0.0035624073, 10.001915, 9.998944 
1.2949537e+3, 1.3447225e+2, -1452458.0, -1694682.4, 32466.592, -0.03118375, -0.12695841, -1448181.9, 173978.36, 0.0020858154, 10.001806, 9.998597 
1.2949705e+3, 1.4447126e+2, -1331437.0, -1514560.0, -24238.033, -0.13056503, -0.11361084, -1328283.3, 195889.23, 0.00086324645, 10.001658, 9.9992285 
1.2949881e+3, 1.5447083e+2, -1259141.4, -1423502.4, -34449.18, -0.084585294, -0.08338792, -1252213.1, 173964.64, 0.0001865044, 10.001457, 9.999277 
1.2950051e+3, 1.6447034e+2, -1183943.1, -1329107.5, -49248.613, -0.061518155, -0.059441533, -1168812.1, 159372.03, 0.0000072252774, 10.001268, 9.999345 
1.2950218e+3, 1.7446984e+2, -1108886.5, -1238608.4, -50639.8, -0.061642863, -0.046621617, -1091459.3, 138732.55, 0.0, 10.001096, 9.999376 
1.2950386e+3, 1.8446952e+2, -1024173.1, -1138447.8, -49793.426, -0.056210548, -0.01799558, -1005520.9, 126676.734, 0.0, 10.000967, 9.999454 
1.2950554e+3, 1.9446945e+2, -935753.7, -1041628.4, -50927.406, -0.04545382, 0.027617864, -915233.8, 118966.8, 0.0, 10.000887, 9.999484 
1.2950723e+3, 2.0446905e+2, -857464.8, -963573.5, -51491.285, -0.029861521, 0.04601403, -836586.0, 99619.7, 0.0, 10.000796, 9.999392 
1.2950893e+3, 2.1446827e+2, -773033.9, -869303.3, -53402.227, -0.007770587, 0.026945112, -749274.6, 88938.35, 0.0, 10.00069, 9.999416 
1.2951063e+3, 2.2446744e+2, -710526.56, -825571.9, -53904.105, 0.011285778, 0.020396288, -689217.06, 51004.0, 0.0, 10.000607, 9.999084 
1.2951231e+3, 2.344666e+2, -619914.1, -729702.56, -55633.0, 0.0262953, 0.026984304, -596652.0, 45577.813, 0.0, 10.00055, 9.999097 
1.2951402e+3, 2.4446562e+2, -525132.06, -628171.94, -43548.723, 0.036008395, 0.02099178, -509192.44, 35046.047, 0.0, 10.000505, 9.999143 
1.2951574e+3, 2.5446454e+2, -428826.84, -527124.44, -37054.863, 0.039181203, -0.0052037374, -416423.5, 29823.363, 0.0, 10.000478, 9.999177 
1.2951747e+3, 2.644633e+2, -341956.9, -449615.0, -23203.78, 0.049868785, -0.034793068, -337168.7, 11088.329, 0.0, 10.000466, 9.999041 
1.2951924e+3, 2.7446207e+2, -240846.39, -347224.9, -24278.178, 0.07004296, -0.066659234, -235567.47, 14701.181, 0.0, 10.000475, 9.999067 
1.29521e+3, 2.8446126e+2, -146048.78, -253717.13, -19050.547, 0.07706817, -0.0480239, -142777.42, 9498.325, 0.0, 10.000466, 9.99904 
1.2952274e+3, 2.9446098e+2, -52320.25, -157334.23, -20194.893, 0.06709382, 0.014994101, -48570.527, 5708.0254, 0.0, 10.000435, 9.999043 
1.2952454e+3, 3.0445865e+2, -37793.703, -194885.28, 3383.2283, 0.07825658, -0.087333374, -37720.87, -37720.87, 0.0, 10.0005, 9.99842 
1.2952645e+3, 3.1445843e+2, 85786.25, 20446.744, -1787.0226, 0.1540005, 0.04863823, 85835.086, 85835.086, 0.0, 10.000678, 9.999813 
1.304936e+3, 1.24455735e+2, -1473116.9, -1718434.5, -19176.89, -0.13911405, -0.15913934, -1471626.8, 248690.92, 0.0037353144, 10.00219, 9.998919 
1.3049555e+3, 1.3445465e+2, -1435521.4, -1691127.8, 32099.74, -0.02709601, -0.122009106, -1431551.9, 190780.17, 0.002198173, 10.001944, 9.998555 
1.3049723e+3, 1.444535e+2, -1326393.8, -1519707.8, -21872.033, -0.121692665, -0.120103754, -1323950.0, 200395.63, 0.00092024496, 10.001727, 9.99916 
1.3049895e+3, 1.5445289e+2, -1249955.9, -1426631.8, -28707.375, -0.08596934, -0.098982535, -1245408.4, 180943.67, 0.00020472471, 10.0015545, 9.999209 
1.3050063e+3, 1.6445231e+2, -1173770.5, -1332142.8, -43121.125, -0.06386312, -0.07907757, -1162790.8, 165568.55, 0.000008878654, 10.001373, 9.999272 
1.305023e+3, 1.7445177e+2, -1102289.4, -1243218.4, -48114.57, -0.05288094, -0.063607454, -1087429.5, 142937.9, 0.0, 10.001176, 9.999306 
1.3050397e+3, 1.8445139e+2, -1021335.0, -1143792.9, -47277.613, -0.044543546, -0.03462299, -1005206.6, 127167.195, 0.0, 10.001017, 9.9993925 
1.3050562e+3, 1.9445123e+2, -937251.5, -1048804.9, -50697.09, -0.04138506, 0.008332146, -917654.25, 116723.71, 0.0, 10.000905, 9.999426 
1.305073e+3, 2.0445082e+2, -861410.1, -967121.1, -52538.7, -0.030995937, 0.030212013, -839740.4, 96642.91, 0.0, 10.000777, 9.999375 
1.3050899e+3, 2.1445014e+2, -783648.06, -875790.75, -52012.395, -0.011100596, 0.022113092, -760236.6, 78153.03, 0.0, 10.000625, 9.999403 
1.3051069e+3, 2.2444929e+2, -722238.3, -830222.2, -46389.313, 0.008786214, 0.014619002, -705046.7, 35351.074, 0.0, 10.000523, 9.999092 
1.3051237e+3, 2.344483e+2, -629047.0, -733027.25, -43918.37, 0.02863259, 0.0056302464, -612979.8, 29427.691, 0.0, 10.0004835, 9.999105 
1.3051407e+3, 2.4444728e+2, -532339.44, -632276.6, -34013.313, 0.03770472, -0.0053093834, -521861.63, 22554.783, 0.0, 10.00046, 9.999136 
1.3051577e+3, 2.5444627e+2, -432556.84, -529813.5, -39803.332, 0.033254076, -0.023471892, -418343.97, 28080.148, 0.0, 10.000457, 9.999168 
1.305175e+3, 2.644451e+2, -348530.84, -449829.66, -31528.201, 0.041937586, -0.050364293, -339519.63, 8914.225, 0.0, 10.000409, 9.999066 
1.3051926e+3, 2.744438e+2, -263177.53, -354803.03, -27568.17, 0.0671517, -0.086150825, -255522.42, -5077.0903, 0.0, 10.000309, 9.999094 
1.3052101e+3, 2.8444296e+2, -176537.47, -277262.3, -18017.508, 0.074604675, -0.07182784, -173411.55, -20958.52, 0.0, 10.000296, 9.99896 
1.3052277e+3, 2.9444253e+2, -65450.484, -173488.6, -22369.227, 0.059194442, -0.0132910395, -61002.11, -6544.8184, 0.0, 10.000388, 9.998955 
1.3052458e+3, 3.0444023e+2, -62252.95, -210826.72, -1493.4857, 0.06609761, -0.10864588, -62237.938, -62237.938, 0.0, 10.000351, 9.998382 
1.3052648e+3, 3.1444e+2, 14694.509, -5730.7686, -4347.307, 0.14273612, 0.03126402, 15581.288, 15581.288, 0.0, 10.000156, 9.999885 
1.314938e+3, 1.2443818e+2, -1472394.5, -1717405.3, -33609.484, -0.1592881, -0.15937221, -1467867.8, 252621.88, 0.003906043, 10.002192, 9.998925 
1.3149573e+3, 1.3443716e+2, -1435320.8, -1691589.0, 21981.156, -0.03802063, -0.11419463, -1433449.0, 189053.81, 0.0023090318, 10.001946, 9.998551 
1.314974e+3, 1.4443591e+2, -1327785.5, -1523292.4, -29339.775, -0.12603839, -0.120188646, -1323477.4, 201039.55, 0.000976971, 10.001729, 9.999135 
1.3149911e+3, 1.5443522e+2, -1251220.0, -1429927.8, -35746.563, -0.080078885, -0.10813087, -1244334.9, 182189.08, 0.00022350362, 10.001556, 9.999186 
1.3150078e+3, 1.6443452e+2, -1181421.8, -1348745.6, -50991.79, -0.052614026, -0.09212119, -1167106.8, 161425.36, 0.000010883257, 10.001376, 9.999158 
1.3150243e+3, 1.7443389e+2, -1110346.6, -1260737.9, -55958.055, -0.041390058, -0.07446877, -1091810.3, 138730.95, 0.0, 10.001178, 9.999185 
1.3150407e+3, 1.8443337e+2, -1027541.2, -1157435.9, -52043.598, -0.033007897, -0.046942122, -1009261.75, 123287.24, 0.0, 10.001019, 9.999298 
1.3150573e+3, 1.9443306e+2, -943216.9, -1061904.3, -55068.633, -0.03064962, -0.010010733, -921602.4, 112952.39, 0.0, 10.000907, 9.999335 
1.3150738e+3, 2.0443262e+2, -860068.2, -965078.75, -58359.434, -0.024928996, 0.012032844, -834071.06, 102489.55, 0.0, 10.000779, 9.999389 
1.3150905e+3, 2.1443203e+2, -781658.75, -872647.7, -57823.723, -0.014061067, 0.012094357, -753577.9, 84988.3, 0.0, 10.0006275, 9.999424 
1.3151072e+3, 2.2443125e+2, -717469.94, -821435.75, -48207.586, 0.0040492835, 0.0064988094, -698557.2, 42016.24, 0.0, 10.000526, 9.999151 
1.3151243e+3, 2.3443025e+2, -624153.1, -723820.6, -45380.15, 0.031147145, -0.008638799, -606586.9, 35995.5, 0.0, 10.000486, 9.999168 
1.3151412e+3, 2.4442917e+2, -542982.25, -655085.9, -34061.293, 0.043320924, -0.022767099, -533444.56, 11147.27, 0.0, 10.000463, 9.998979 
1.3151582e+3, 2.5442797e+2, -444189.47, -554297.3, -39456.797, 0.036498178, -0.040718663, -431510.28, 15091.649, 0.0, 10.000457, 9.999001 
1.3151754e+3, 2.6442677e+2, -343116.25, -438692.66, -34560.043, 0.039946802, -0.06685241, -331928.94, 16683.32, 0.0, 10.000409, 9.999144 
1.3151929e+3, 2.744256e+2, -256548.03, -341286.13, -30789.49, 0.056817867, -0.10095132, -246542.19, 4079.874, 0.0, 10.000309, 9.999187 
1.3152105e+3, 2.8442475e+2, -185053.48, -294697.28, -14308.692, 0.06274567, -0.086190976, -183216.95, -30587.441, 0.0, 10.000294, 9.998842 
1.315228e+3, 2.9442418e+2, -75853.01, -193553.5, -18031.063, 0.05366877, -0.028567359, -73152.7, -18517.42, 0.0, 10.0003805, 9.998821 
1.315246e+3, 3.044217e+2, -65194.26, -214774.63, -7306.884, 0.05519939, -0.13033496, -64838.17, -64838.17, 0.0, 10.00034, 9.998361 
1.3152647e+3, 3.1442115e+2, 19592.293, 6497.4165, -9886.334, 0.11598176, -0.02487277, 24902.703, 24902.703, 0.0, 10.000146, 9.999974 
1.3249402e+3, 1.2442059e+2, -1468658.1, -1713504.8, -31097.432, -0.16862455, -0.18085031, -1464770.3, 255890.72, 0.004073657, 10.00221, 9.998943 
1.3249592e+3, 1.3441971e+2, -1432275.4, -1688414.5, 29756.201, -0.04424753, -0.12420126, -1428864.0, 193808.56, 0.0024175402, 10.001961, 9.998567 
1.3249756e+3, 1.4441837e+2, -1326741.4, -1530207.0, -18844.0, -0.12996763, -0.13555789, -1325010.9, 199676.38, 0.0010328876, 10.001769, 9.999068 
1.3249926e+3, 1.5441753e+2, -1241840.3, -1433198.6, -28659.363, -0.07716204, -0.13132702, -1237640.1, 189055.5, 0.00024265106, 10.001656, 9.999116 
1.3250093e+3, 1.6441676e+2, -1168410.4, -1350768.0, -46724.44, -0.048125733, -0.11481989, -1157135.6, 171568.77, 0.000013283229, 10.001502, 9.9990835 
1.3250256e+3, 1.7441617e+2, -1098167.9, -1262971.5, -48684.984, -0.04161946, -0.08590752, -1084860.4, 145852.84, 0.0, 10.001297, 9.999111 
1.3250418e+3, 1.8441561e+2, -1020760.94, -1164144.9, -40800.53, -0.032888923, -0.055414584, -1009963.94, 122757.65, 0.0, 10.001109, 9.999208 
1.3250582e+3, 1.9441514e+2, -945184.6, -1072808.9, -43825.83, -0.023820858, -0.025926406, -931584.3, 103144.84, 0.0, 10.000937, 9.999246 
1.3250747e+3, 2.044146e+2, -857046.06, -968090.8, -47785.953, -0.015283416, -0.0052457927, -839313.9, 97422.04, 0.0, 10.00082, 9.999349 
1.3250911e+3, 2.1441405e+2, -764021.5, -868234.1, -51631.97, -0.006305404, 0.0010812603, -742773.0, 95968.41, 0.0, 10.000768, 9.999386 
1.325108e+3, 2.2441328e+2, -691338.06, -807952.94, -44881.63, 0.007594584, -0.002351683, -676064.8, 64683.684, 0.0, 10.000704, 9.999158 
1.3251248e+3, 2.3441225e+2, -603406.9, -712732.2, -46108.97, 0.027272625, -0.020590343, -586557.0, 56200.19, 0.0, 10.000626, 9.999177 
1.3251416e+3, 2.444111e+2, -537910.25, -659492.8, -34078.03, 0.039332673, -0.03880871, -529010.1, 15757.0625, 0.0, 10.000527, 9.998917 
1.3251586e+3, 2.544098e+2, -456447.0, -567456.2, -32383.416, 0.04162618, -0.062063944, -447690.84, -912.1628, 0.0, 10.000405, 9.998935 
1.3251758e+3, 2.6440853e+2, -357751.4, -446481.1, -27251.932, 0.0440984, -0.08642539, -350049.88, -1260.5635, 0.0, 10.000313, 9.999136 
1.325193e+3, 2.7440748e+2, -264591.66, -345548.8, -30713.56, 0.047402762, -0.10999165, -254258.44, -3460.44, 0.0, 10.000257, 9.999184 
1.3252106e+3, 2.8440663e+2, -202868.0, -303709.88, -12121.609, 0.052158885, -0.09433999, -201431.4, -48626.105, 0.0, 10.0001745, 9.9988365 
1.3252282e+3, 2.9440594e+2, -123204.71, -217072.17, -7091.1997, 0.05718332, -0.0473286, -122672.03, -67859.98, 0.0, 10.000059, 9.998814 
1.3252461e+3, 3.0440348e+2, -125772.945, -242069.16, 3431.9692, 0.05494968, -0.15019362, -125671.75, -125671.75, 0.0, 9.999918, 9.998376 
1.3252644e+3, 3.1440276e+2, -31481.873, -5040.622, 3250.74, 0.09384061, -0.06097447, -4646.834, -4646.834, 0.0, 9.999741, 10.00009 
1.3349424e+3, 1.2440301e+2, -1466699.9, -1709910.4, -45640.33, -0.16669841, -0.22381267, -1458417.3, 262414.03, 0.0042385682, 10.002211, 9.998967 
1.334961e+3, 1.344023e+2, -1429834.4, -1683904.1, 19631.736, -0.045799363, -0.15247884, -1428326.4, 194514.4, 0.0025235927, 10.001962, 9.998597 
1.3349774e+3, 1.4440091e+2, -1334565.5, -1546847.4, -24141.953, -0.13362029, -0.16654487, -1331854.5, 193001.63, 0.0010875799, 10.00177, 9.998954 
1.3349944e+3, 1.5439987e+2, -1250158.0, -1451071.5, -33496.84, -0.07729657, -0.16856207, -1244720.5, 182146.1, 0.00026189684, 10.001657, 9.998992 
1.3350107e+3, 1.6439907e+2, -1170667.3, -1356217.4, -54710.42, -0.05044966, -0.14705968, -1155736.9, 173138.97, 0.000016032998, 10.001504, 9.999045 
1.3350266e+3, 1.7439863e+2, -1099797.8, -1267293.3, -56754.887, -0.053564876, -0.098017335, -1082378.4, 148504.78, 0.00000000003443261, 10.001301, 9.999081 
1.3350429e+3, 1.843981e+2, -1026383.8, -1176854.5, -47686.234, -0.044175025, -0.06016117, -1012544.3, 120347.23, 0.0, 10.001113, 9.99912 
1.3350593e+3, 1.9439745e+2, -951126.3, -1086215.3, -50519.69, -0.02097412, -0.039452843, -934323.3, 100577.664, 0.0, 10.000941, 9.999152 
1.3350756e+3, 2.043968e+2, -863246.75, -981948.44, -50177.746, -0.0023165434, -0.021629594, -844878.0, 92031.12, 0.0, 10.000823, 9.999252 
1.3350922e+3, 2.143962e+2, -770328.25, -882164.25, -53657.71, 0.011666611, -0.010955809, -748748.06, 90167.266, 0.0, 10.000771, 9.9992895 
1.3351086e+3, 2.2439535e+2, -694316.3, -814885.2, -47730.168, 0.019025678, -0.0120068705, -677708.7, 63214.25, 0.0, 10.000706, 9.99911 
1.3351253e+3, 2.3439428e+2, -606305.25, -719402.2, -48900.12, 0.01720118, -0.030360667, -588094.44, 54837.625, 0.0, 10.0006275, 9.999131 
1.3351421e+3, 2.4439308e+2, -536096.9, -656228.3, -38375.36, 0.026064262, -0.053418633, -524884.56, 20057.936, 0.0, 10.000528, 9.998939 
1.3351592e+3, 2.543917e+2, -454519.78, -563784.1, -36632.15, 0.048398778, -0.08712818, -443375.16, 3579.3005, 0.0, 10.000406, 9.99896 
1.3351762e+3, 2.6439044e+2, -364188.25, -459907.97, -28965.645, 0.05389293, -0.10893479, -356105.5, -7140.3657, 0.0, 10.000312, 9.999045 
1.3351932e+3, 2.7438948e+2, -271516.0, -359840.72, -31989.844, 0.038633894, -0.11405119, -261147.05, -10173.704, 0.0, 10.000256, 9.999086 
1.3352105e+3, 2.8438863e+2, -196997.3, -290828.3, -15527.927, 0.04237452, -0.09698133, -194494.38, -41513.72, 0.0, 10.000171, 9.998927 
1.3352285e+3, 2.9438785e+2, -117428.54, -203162.78, -10659.357, 0.068616524, -0.06884353, -116123.14, -61135.215, 0.0, 10.000051, 9.998915 
1.3352461e+3, 3.0438548e+2, -123989.766, -236042.28, -2464.8503, 0.06406535, -0.1679338, -123935.57, -123935.57, 0.0, 9.999907, 9.998424 
1.3352638e+3, 3.1438485e+2, -23026.33, 14015.401, -1826.0033, 0.07524127, -0.07850052, 14105.198, 14105.198, 0.0, 9.999733, 10.000225 
1.3449444e+3, 1.2438586e+2, -1473095.4, -1713683.5, -35892.465, -0.17521799, -0.2467882, -1467854.9, 253142.97, 0.0044024647, 10.0021715, 9.99896 
1.344963e+3, 1.3438526e+2, -1413142.3, -1675735.8, 31520.4, -0.052759912, -0.16562173, -1409411.6, 213594.5, 0.0026278205, 10.002077, 9.998597 
1.3449791e+3, 1.4438377e+2, -1320753.8, -1550128.9, -13250.995, -0.13792567, -0.18478827, -1319990.8, 205031.55, 0.0011408281, 10.001908, 9.998864 
1.344996e+3, 1.543826e+2, -1257541.3, -1465072.0, -20859.697, -0.07711817, -0.19163504, -1255465.3, 171568.84, 0.00028088767, 10.001652, 9.9988985 
1.3450123e+3, 1.643817e+2, -1173699.8, -1362626.5, -38478.977, -0.05010281, -0.17327715, -1166163.4, 162880.97, 0.000018979208, 10.001505, 9.999001 
1.345028e+3, 1.7438123e+2, -1074240.4, -1259388.3, -41189.25, -0.05813643, -0.12422718, -1065490.6, 165561.08, 0.0000000014653116, 10.001495, 9.999041 
1.345044e+3, 1.8438065e+2, -993355.6, -1174753.3, -36973.5, -0.049216818, -0.081790775, -986109.0, 146951.55, 0.0, 10.0014, 9.998996 
1.3450603e+3, 1.9437996e+2, -923768.94, -1087320.8, -43084.89, -0.021007363, -0.051138226, -913113.2, 121957.6, 0.0, 10.001191, 9.999023 
1.3450767e+3, 2.0437925e+2, -842328.2, -981746.25, -40812.56, 0.0011795071, -0.030383294, -831259.6, 105820.34, 0.0, 10.001011, 9.999163 
1.345093e+3, 2.1437848e+2, -762517.56, -887739.4, -43601.21, 0.016736608, -0.025868732, -748831.75, 90255.73, 0.0, 10.000865, 9.999206 
1.3451093e+3, 2.2437754e+2, -696551.3, -826346.4, -38797.383, 0.021258825, -0.02737624, -685838.44, 55257.727, 0.0, 10.000736, 9.999016 
1.3451257e+3, 2.3437646e+2, -612761.9, -732795.7, -43830.586, 0.011116459, -0.038626846, -598460.9, 44645.06, 0.0, 10.000628, 9.999038 
1.3451424e+3, 2.4437523e+2, -540386.9, -657988.94, -37747.094, 0.019305553, -0.058531262, -529313.7, 15803.032, 0.0, 10.0005, 9.99894 
1.3451596e+3, 2.5437385e+2, -463182.0, -566923.9, -37775.996, 0.05069403, -0.09429464, -450884.25, -3755.6536, 0.0, 10.000343, 9.998967 
1.3451765e+3, 2.6437256e+2, -378010.6, -467939.5, -25742.84, 0.058779545, -0.117891215, -371162.9, -22023.625, 0.0, 10.000225, 9.999031 
1.3451934e+3, 2.7437156e+2, -287387.34, -368868.6, -22955.797, 0.037817534, -0.12485394, -281365.06, -30217.441, 0.0, 10.0001545, 9.999072 
1.3452105e+3, 2.843707e+2, -226804.38, -303794.3, -12397.621, 0.040627938, -0.1099729, -224857.25, -71702.01, 0.0, 9.999962, 9.998939 
1.3452283e+3, 2.9436994e+2, -180810.86, -232508.42, -14630.56, 0.07186856, -0.083043806, -176957.58, -121794.74, 0.0, 9.999612, 9.998923 
1.3452457e+3, 3.0436775e+2, -186654.34, -253321.6, -2105.9766, 0.062922016, -0.17062153, -186587.89, -186587.89, 0.0, 9.999422, 9.998537 
1.3452634e+3, 3.1436712e+2, -51233.277, 23609.646, 5194.727, 0.06171136, -0.090965636, 23968.484, 23968.484, 0.0, 9.99944, 10.000431 
1.3549463e+3, 1.2436922e+2, -1476670.5, -1720762.3, -44982.527, -0.19409297, -0.24900728, -1468644.8, 252515.42, 0.0045679878, 10.00217, 9.998913 
1.354965e+3, 1.3436863e+2, -1415093.3, -1680421.3, 27179.496, -0.0653652, -0.1631222, -1412337.8, 210830.4, 0.0027314809, 10.002079, 9.998565 
1.3549809e+3, 1.4436701e+2, -1325325.3, -1560397.3, -23250.357, -0.14317699, -0.19003049, -1323047.6, 202137.55, 0.0011927416, 10.001911, 9.998793 
1.3549978e+3, 1.5436572e+2, -1262083.5, -1475241.9, -31094.111, -0.076809, -0.20064017, -1257640.4, 169557.56, 0.00029931884, 10.001655, 9.998828 
1.3550138e+3, 1.6436465e+2, -1177000.8, -1370218.5, -39914.043, -0.04722587, -0.1935389, -1169080.3, 160129.14, 0.00002192539, 10.001508, 9.998948 
1.3550295e+3, 1.7436393e+2, -1077522.8, -1266871.8, -41922.9, -0.055512533, -0.16431819, -1068656.0, 162562.7, 0.0000000068048798, 10.001497, 9.998989 
1.3550454e+3, 1.8436326e+2, -1004467.4, -1198499.4, -44744.387, -0.048230734, -0.12010479, -994646.3, 138582.2, 0.0, 10.001402, 9.998832 
1.3550614e+3, 1.943627e+2, -935028.1, -1111657.8, -51200.066, -0.023937924, -0.061138656, -921259.9, 113978.6, 0.0, 10.001195, 9.998856 
1.3550776e+3, 2.0436193e+2, -847691.25, -993982.25, -46652.92, -0.0046059242, -0.031706445, -834079.9, 103168.54, 0.0, 10.001015, 9.999078 
1.3550937e+3, 2.1436094e+2, -767398.5, -898944.44, -49147.402, 0.00922232, -0.04348294, -751064.5, 88193.35, 0.0, 10.000869, 9.999127 
1.3551101e+3, 2.2435987e+2, -705803.06, -846548.06, -42848.152, 0.014477016, -0.04820594, -693784.7, 47483.44, 0.0, 10.00074, 9.998877 
1.3551264e+3, 2.3435877e+2, -622560.3, -753866.6, -47608.51, 0.00871356, -0.045556944, -607115.4, 36163.59, 0.0, 10.00063, 9.998893 
1.3551429e+3, 2.4435756e+2, -541607.9, -661088.44, -43048.113, 0.01866037, -0.05483334, -527713.7, 17576.398, 0.0, 10.000501, 9.998919 
1.3551597e+3, 2.543562e+2, -463813.16, -568726.25, -43020.363, 0.048573643, -0.084823385, -448428.44, -1127.1251, 0.0, 10.000344, 9.998955 
1.3551767e+3, 2.6435488e+2, -374413.9, -460495.66, -27821.215, 0.058762487, -0.114115424, -366205.03, -16893.05, 0.0, 10.000224, 9.9990835 
1.3551936e+3, 2.7435377e+2, -283993.22, -360939.56, -24715.096, 0.044098727, -0.14147699, -276738.72, -25417.621, 0.0, 10.00015, 9.999129 
1.3552105e+3, 2.843528e+2, -232173.77, -314005.75, -24018.184, 0.04605259, -0.1324124, -225645.14, -72315.836, 0.0, 9.999956, 9.998872 
1.355228e+3, 2.943521e+2, -186331.31, -244257.73, -26775.969, 0.06731016, -0.09117216, -175850.64, -120513.445, 0.0, 9.999612, 9.998843 
1.355245e+3, 3.0435017e+2, -174773.39, -228539.53, -1244.683, 0.05190512, -0.15981092, -174744.6, -174744.6, 0.0, 9.99942, 9.998709 
1.3552627e+3, 3.143496e+2, -34599.31, 61202.715, 7983.8047, 0.0517993, -0.096430376, 61863.5, 61863.5, 0.0, 9.999426, 10.000696 
1.3649485e+3, 1.24352746e+2, -1488460.3, -1726318.4, -45421.586, -0.20182452, -0.23992205, -1480081.6, 241239.67, 0.0047382293, 10.0020895, 9.998913 
1.3649671e+3, 1.3435201e+2, -1422862.5, -1681379.8, 35142.645, -0.0672013, -0.16891862, -1418170.4, 205159.44, 0.0028363883, 10.002014, 9.9985895 
1.3649829e+3, 1.4435026e+2, -1325455.8, -1565427.3, -15234.812, -0.14218189, -0.20905691, -1324492.4, 200855.45, 0.0012438492, 10.001932, 9.998748 
1.3649993e+3, 1.54349e+2, -1235659.6, -1467807.4, -21516.547, -0.08283812, -0.21296774, -1233682.3, 193677.94, 0.0003170788, 10.00186, 9.998779 
1.3650154e+3, 1.6434787e+2, -1152968.1, -1370055.0, -29791.723, -0.05169048, -0.20569067, -1148953.9, 180418.3, 0.00002472805, 10.001722, 9.998845 
1.3650312e+3, 1.7434695e+2, -1085015.0, -1282379.8, -36101.96, -0.04698008, -0.18443643, -1078618.5, 152764.66, 0.000000016360648, 10.001498, 9.998882 
1.365047e+3, 1.8434612e+2, -1021444.56, -1222788.6, -40790.6, -0.03751634, -0.14255475, -1013494.6, 119899.83, 0.0, 10.001355, 9.998688 
1.3650626e+3, 1.9434547e+2, -927307.9, -1124403.8, -45863.773, -0.025179513, -0.07885535, -917158.1, 118247.66, 0.0, 10.001319, 9.998707 
1.3650787e+3, 2.0434462e+2, -823991.75, -990447.3, -42117.063, -0.011313316, -0.046621144, -813941.94, 123474.805, 0.0, 10.001212, 9.999006 
1.3650948e+3, 2.1434355e+2, -751202.25, -898349.2, -44070.754, 0.005510337, -0.058055926, -739012.75, 100414.02, 0.0, 10.001012, 9.999062 
1.3651109e+3, 2.2434245e+2, -699204.25, -852356.75, -34416.42, 0.015310778, -0.059508868, -691825.6, 49612.027, 0.0, 10.000825, 9.998795 
1.3651271e+3, 2.3434135e+2, -625086.6, -764352.9, -34980.41, 0.016022116, -0.049911827, -616794.1, 26655.02, 0.0, 10.000654, 9.998808 
1.3651434e+3, 2.4434014e+2, -543865.6, -663306.4, -28458.984, 0.023417607, -0.054651402, -537431.3, 8029.265, 0.0, 10.000492, 9.998907 
1.36516e+3, 2.543388e+2, -464982.06, -569797.9, -28381.617, 0.039081596, -0.08318195, -457790.44, -10318.757, 0.0, 10.00034, 9.998949 
1.3651767e+3, 2.6433745e+2, -387681.47, -465600.2, -15727.945, 0.04749765, -0.1147535, -384626.56, -35144.145, 0.0, 10.000129, 9.999093 
1.3651936e+3, 2.7433625e+2, -328307.44, -380834.1, -16419.35, 0.04731714, -0.14958724, -323597.25, -72105.39, 0.0, 9.999841, 9.999141 
1.3652104e+3, 2.8433526e+2, -277104.03, -335688.56, -16176.076, 0.050643455, -0.14511263, -272934.34, -119433.85, 0.0, 9.999649, 9.99887 
1.3652273e+3, 2.9433456e+2, -190920.08, -246976.89, -14092.49, 0.056020293, -0.10331321, -187576.69, -132068.03, 0.0, 9.999583, 9.998837 
1.3652442e+3, 3.043328e+2, -181331.36, -219544.2, 10170.879, 0.03587683, -0.15821901, -178792.88, -178792.88, 0.0, 9.999325, 9.9988165 
1.3652618e+3, 3.143322e+2, -110520.94, 45014.43, 14878.434, 0.049417548, -0.10921743, 46424.9, 46424.9, 0.0, 9.998818, 10.000877 
1.3749506e+3, 1.24336496e+2, -1485390.8, -1719932.3, -53754.62, -0.19839138, -0.21888332, -1473657.8, 247823.08, 0.0049160505, 10.002089, 9.998958 
1.3749692e+3, 1.343355e+2, -1417193.0, -1669957.4, 31422.834, -0.058233876, -0.18317826, -1413345.1, 210145.7, 0.0029444871, 10.002015, 9.998668 
1.3749848e+3, 1.4433359e+2, -1326856.0, -1568781.8, -18891.125, -0.13489, -0.2421521, -1325389.8, 200120.13, 0.0012949365, 10.001933, 9.998725 
1.375001e+3, 1.5433247e+2, -1237322.1, -1471973.1, -24767.88, -0.09526348, -0.22854401, -1234736.3, 192784.28, 0.0003342444, 10.001862, 9.998751 
1.375017e+3, 1.6433136e+2, -1163440.9, -1392687.6, -38368.07, -0.06368338, -0.2097053, -1157189.8, 172342.56, 0.000027345353, 10.001725, 9.998689 
1.3750327e+3, 1.7433032e+2, -1095773.3, -1305754.1, -44942.766, -0.032840747, -0.18488513, -1086558.5, 144986.34, 0.000000027808229, 10.001501, 9.99872 
1.3750485e+3, 1.8432929e+2, -1030320.5, -1242154.8, -42993.027, -0.017369518, -0.14936596, -1021927.3, 111630.914, 0.0, 10.001358, 9.998553 
1.375064e+3, 1.9432831e+2, -936101.0, -1143381.3, -47339.555, -0.024836782, -0.10406632, -925801.2, 109771.41, 0.0, 10.001322, 9.998576 
1.3750798e+3, 2.0432733e+2, -828062.0, -999516.25, -49352.496, -0.019042898, -0.07487814, -814870.94, 122713.984, 0.0, 10.001213, 9.998943 
1.3750957e+3, 2.1432637e+2, -754796.6, -906561.7, -51581.82, 0.005360438, -0.06981648, -738924.94, 100669.27, 0.0, 10.001014, 9.999005 
1.3751116e+3, 2.2432531e+2, -700926.75, -856763.3, -40817.547, 0.023333931, -0.06168924, -690882.94, 50721.9, 0.0, 10.000828, 9.998764 
1.3751279e+3, 2.3432419e+2, -626784.7, -768563.44, -41096.977, 0.03241074, -0.051758435, -615733.44, 27883.25, 0.0, 10.000656, 9.998779 
1.375144e+3, 2.4432294e+2, -544123.9, -664391.0, -33822.33, 0.033162445, -0.05770031, -535264.75, 10363.8125, 0.0, 10.000493, 9.998899 
1.3751602e+3, 2.5432158e+2, -465273.78, -570681.56, -33520.184, 0.022572119, -0.08881929, -455517.25, -7877.3145, 0.0, 10.00034, 9.998943 
1.3751766e+3, 2.6432022e+2, -390237.63, -470938.1, -25532.04, 0.025512716, -0.11952394, -382838.25, -33187.38, 0.0, 10.000128, 9.999058 
1.3751933e+3, 2.7431902e+2, -331067.7, -386420.88, -26394.826, 0.04730033, -0.1499589, -320499.28, -68838.91, 0.0, 9.999839, 9.999104 
1.3752101e+3, 2.8431803e+2, -273856.16, -328349.53, -18225.406, 0.054032058, -0.14877303, -268322.53, -114653.305, 0.0, 9.999646, 9.998922 
1.3752267e+3, 2.9431728e+2, -187780.3, -239138.08, -15561.535, 0.038215604, -0.11852733, -183433.08, -127755.375, 0.0, 9.999577, 9.998895 
1.3752432e+3, 3.0431563e+2, -179057.27, -213707.73, -6712.626, 0.014738457, -0.16445313, -177802.31, -177802.31, 0.0, 9.999318, 9.99886 
1.3752607e+3, 3.1431493e+2, -103902.52, 58563.09, -2020.7498, 0.052720953, -0.12734531, 58588.223, 58588.223, 0.0, 9.998817, 10.000972 
1.3849527e+3, 1.24320164e+2, -1503500.3, -1725010.6, -48858.61, -0.18898599, -0.2158694, -1493202.3, 228438.08, 0.0051032617, 10.001949, 9.998989 
1.3849711e+3, 1.3431907e+2, -1418386.8, -1662219.8, 40206.375, -0.05879256, -0.19849677, -1411928.0, 211722.55, 0.003057239, 10.001972, 9.998742 
1.3849868e+3, 1.4431705e+2, -1324387.9, -1572318.4, -11928.871, -0.13522832, -0.26904398, -1323815.3, 201854.78, 0.0013467348, 10.001971, 9.998682 
1.3850029e+3, 1.54316e+2, -1227192.3, -1472590.3, -19588.807, -0.09444387, -0.24497622, -1225638.4, 202041.97, 0.0003509688, 10.001956, 9.998701 
1.3850188e+3, 1.6431485e+2, -1149903.8, -1398546.0, -38005.79, -0.06236923, -0.2206872, -1144224.3, 185468.36, 0.000029813278, 10.001872, 9.998577 
1.3850343e+3, 1.743137e+2, -1074379.3, -1308357.9, -41649.555, -0.032094955, -0.19614725, -1067186.5, 164519.84, 0.000000039188958, 10.001705, 9.998604 
1.3850498e+3, 1.8431257e+2, -1009545.3, -1236488.0, -32332.127, -0.016574645, -0.1632539, -1005028.9, 128691.914, 0.0, 10.001521, 9.998514 
1.3850653e+3, 1.943115e+2, -939636.8, -1148808.0, -29584.316, -0.02302421, -0.123691365, -935533.06, 100202.48, 0.0, 10.001314, 9.998543 
1.385081e+3, 2.0431045e+2, -849581.4, -1025493.5, -32449.24, -0.017729819, -0.0929577, -843786.6, 93962.06, 0.0, 10.001134, 9.998803 
1.3850966e+3, 2.1430945e+2, -768859.2, -929764.9, -41725.55, 0.004316822, -0.076835, -758682.6, 81076.45, 0.0, 10.000989, 9.9988575 
1.3851126e+3, 2.2430836e+2, -702151.1, -859303.2, -34578.758, 0.020989686, -0.06536679, -694879.1, 46891.56, 0.0, 10.000829, 9.998745 
1.3851285e+3, 2.3430714e+2, -628506.3, -769999.56, -33627.902, 0.029970195, -0.062654875, -620920.8, 22862.338, 0.0, 10.0006485, 9.998773 
1.3851446e+3, 2.443059e+2, -548630.6, -664463.25, -25134.361, 0.0312668, -0.06838076, -543411.9, 2383.0752, 0.0, 10.000455, 9.998917 
1.3851605e+3, 2.5430465e+2, -478038.2, -574516.56, -23334.008, 0.022005687, -0.08901462, -472691.03, -24885.672, 0.0, 10.000244, 9.998962 
1.3851768e+3, 2.643034e+2, -410510.38, -483430.13, -18064.107, 0.024592264, -0.11367343, -406280.75, -56464.8, 0.0, 10.000002, 9.999032 
1.3851932e+3, 2.7430212e+2, -351055.0, -399089.78, -19004.32, 0.043846406, -0.1448508, -344445.6, -92619.64, 0.0, 9.999716, 9.999075 
1.3852096e+3, 2.8430107e+2, -295605.3, -328666.38, -4567.0093, 0.05128052, -0.14951997, -294986.03, -141150.92, 0.0, 9.9994545, 9.999012 
1.3852261e+3, 2.9430032e+2, -232155.77, -249557.84, 748.0377, 0.040328685, -0.12915985, -232123.67, -176280.44, 0.0, 9.999227, 9.998991 
1.3852425e+3, 3.0429888e+2, -229483.8, -235328.6, 1381.3213, 0.014237356, -0.16276708, -229173.78, -229173.78, 0.0, 9.998962, 9.998882 
1.3852593e+3, 3.142981e+2, -124106.64, 54897.51, 4815.768, 0.043233015, -0.13747385, 55026.977, 55026.977, 0.0, 9.998654, 10.001024 
1.3949548e+3, 1.243038e+2, -1502610.9, -1722852.3, -53635.94, -0.17326783, -0.23158713, -1490243.3, 231556.13, 0.005300489, 10.001947, 9.999005 
1.394973e+3, 1.3430277e+2, -1413734.1, -1653026.9, 40080.32, -0.06913821, -0.21469419, -1407199.4, 216609.17, 0.0031755816, 10.001973, 9.998805 
1.3949887e+3, 1.443007e+2, -1328669.3, -1581880.3, -13246.374, -0.14368205, -0.28954995, -1327978.3, 197849.97, 0.0013999565, 10.001973, 9.998615 
1.395005e+3, 1.542996e+2, -1231969.0, -1483152.1, -20783.613, -0.08065173, -0.26228133, -1230260.9, 197578.34, 0.0003674642, 10.001957, 9.998628 
1.3950208e+3, 1.6429839e+2, -1154708.8, -1409243.1, -44488.293, -0.04779174, -0.23858124, -1147157.0, 182695.55, 0.00003219316, 10.001874, 9.998504 
1.3950358e+3, 1.7429712e+2, -1079058.5, -1318973.6, -48329.426, -0.044541117, -0.21810958, -1069688.8, 162178.83, 0.00000005013657, 10.001708, 9.99853 
1.3950512e+3, 1.8429598e+2, -1005705.3, -1229512.6, -40337.215, -0.03499275, -0.18420725, -998657.25, 135224.63, 0.0, 10.001524, 9.998561 
1.3950667e+3, 1.9429503e+2, -935134.1, -1140518.6, -37579.582, -0.019990342, -0.13791381, -928474.1, 107420.55, 0.0, 10.001317, 9.998598 
1.3950822e+3, 2.0429397e+2, -864398.6, -1057235.4, -38210.01, -0.0077178176, -0.10116174, -857103.44, 80804.62, 0.0, 10.001137, 9.998584 
1.3950977e+3, 2.1429278e+2, -785249.9, -964679.6, -47076.01, 0.0023533045, -0.07929492, -773648.9, 66272.63, 0.0, 10.000992, 9.998616 
1.3951132e+3, 2.2429152e+2, -702429.56, -860647.6, -41076.813, 0.008627529, -0.07044479, -692400.8, 49534.387, 0.0, 10.000831, 9.998735 
1.395129e+3, 2.3429018e+2, -627642.44, -768671.2, -40025.37, 0.00955585, -0.08211467, -617074.75, 26873.852, 0.0, 10.000649, 9.998781 
1.3951448e+3, 2.4428897e+2, -546035.2, -659232.56, -32527.53, 0.018133271, -0.08633315, -537354.06, 8605.924, 0.0, 10.000454, 9.998954 
1.3951609e+3, 2.54288e+2, -475556.78, -569072.3, -30657.76, 0.03611374, -0.084165715, -466402.22, -18433.969, 0.0, 10.000241, 9.9990015 
1.395177e+3, 2.6428685e+2, -412402.44, -486942.8, -27853.297, 0.043203373, -0.097835705, -403144.44, -53166.402, 0.0, 9.999999, 9.99901 
1.3951927e+3, 2.7428553e+2, -352820.06, -402809.94, -28741.953, 0.037017573, -0.13437553, -339725.0, -87735.984, 0.0, 9.999715, 9.999051 
1.395209e+3, 2.8428444e+2, -287542.34, -312070.84, -12146.772, 0.042347427, -0.1473743, -282545.2, -128546.664, 0.0, 9.999454, 9.999126 
1.3952255e+3, 2.9428372e+2, -224135.53, -232186.42, -6858.5444, 0.05995603, -0.13568425, -220208.38, -164202.5, 0.0, 9.999222, 9.999113 
1.3952416e+3, 3.0428246e+2, -229884.55, -235128.56, -8951.981, 0.032044623, -0.15382896, -223178.48, -223178.48, 0.0, 9.998957, 9.998887 
1.3952577e+3, 3.142816e+2, -123429.15, 56737.03, -4022.7974, 0.021815935, -0.13844396, 56826.81, 56826.81, 0.0, 9.9986515, 10.0010395 
1.4049569e+3, 1.24287374e+2, -1475187.6, -1713900.8, -46388.496, -0.16712613, -0.26329193, -1466490.0, 255468.55, 0.0055082403, 10.002157, 9.998964 
1.4049749e+3, 1.3428648e+2, -1381091.1, -1636073.8, 46887.133, -0.07520863, -0.23237479, -1372742.8, 251223.55, 0.0033006065, 10.002193, 9.998815 
1.4049907e+3, 1.4428446e+2, -1310707.1, -1573192.0, -12151.214, -0.14573735, -0.30464008, -1310145.8, 215839.97, 0.0014556336, 10.002098, 9.998614 
1.405007e+3, 1.5428334e+2, -1246343.9, -1489774.9, -14531.642, -0.07589969, -0.28007358, -1245479.4, 182517.63, 0.00038406154, 10.001859, 9.99863 
1.4050226e+3, 1.6428207e+2, -1176568.9, -1422199.4, -31638.21, -0.043204706, -0.2588527, -1172559.3, 157451.42, 0.00003454216, 10.001736, 9.998481 
1.4050376e+3, 1.7428078e+2, -1073038.1, -1318873.4, -32130.988, -0.0489886, -0.2399506, -1068908.0, 163118.13, 0.00000006103049, 10.001762, 9.998505 
1.4050527e+3, 1.842796e+2, -986900.2, -1225977.6, -31042.797, -0.040125825, -0.20511375, -982935.25, 151105.34, 0.0, 10.0016775, 9.99851 
1.4050682e+3, 1.9427866e+2, -919361.7, -1138712.1, -36937.29, -0.014978386, -0.15439716, -913308.75, 122744.64, 0.0, 10.0014515, 9.998546 
1.4050834e+3, 2.0427753e+2, -858214.25, -1067041.0, -37086.08, -0.00058711204, -0.11516173, -851823.6, 86243.84, 0.0, 10.001236, 9.998468 
1.4050986e+3, 2.1427622e+2, -787513.94, -979170.44, -37281.1, 0.0008291713, -0.093604915, -780517.44, 59565.234, 0.0, 10.001036, 9.998496 
1.4051141e+3, 2.2427492e+2, -706107.3, -862991.75, -28440.943, 0.0030184425, -0.082185335, -701110.56, 40986.527, 0.0, 10.000809, 9.99873 
1.4051296e+3, 2.3427366e+2, -642356.2, -775554.8, -28292.816, 0.0061577912, -0.087481745, -636595.56, 7514.1987, 0.0, 10.000548, 9.998782 
1.4051451e+3, 2.4427246e+2, -569920.7, -669413.9, -22879.81, 0.0167744, -0.089603394, -564911.4, -18790.297, 0.0, 10.000285, 9.998964 
1.405161e+3, 2.5427148e+2, -507377.5, -583005.9, -23420.982, 0.036487363, -0.09089273, -500711.88, -52582.027, 0.0, 10.000018, 9.999013 
1.4051768e+3, 2.6427037e+2, -437022.3, -488356.2, -17880.877, 0.041668367, -0.10409455, -431408.0, -81268.77, 0.0, 9.999785, 9.999102 
1.4051923e+3, 2.742692e+2, -362308.38, -396059.94, -10218.299, 0.02888112, -0.13575505, -359455.88, -107307.23, 0.0, 9.999602, 9.999151 
1.4052083e+3, 2.842682e+2, -297514.1, -307060.56, 7856.2397, 0.03252426, -0.15008555, -293094.72, -138937.42, 0.0, 9.999344, 9.999213 
1.4052247e+3, 2.9426748e+2, -252719.11, -236412.77, 9999.661, 0.05449133, -0.14517115, -231663.7, -175499.2, 0.0, 9.998985, 9.999198 
1.4052403e+3, 3.042665e+2, -264464.53, -237214.06, 10843.332, 0.030451762, -0.14968745, -233425.94, -233425.94, 0.0, 9.998657, 9.999016 
1.4052562e+3, 3.142656e+2, -152449.0, 58066.117, 26482.832, 0.026480237, -0.15077856, 61346.543, 61346.543, 0.0, 9.998386, 10.001175 
1.414959e+3, 1.2427094e+2, -1482358.1, -1729135.3, -50184.496, -0.17127371, -0.3114489, -1472543.0, 249574.36, 0.0057284734, 10.002158, 9.99886 
1.414977e+3, 1.342703e+2, -1384446.8, -1643574.5, 47184.215, -0.07703852, -0.2515748, -1376122.4, 248001.1, 0.00343434, 10.002195, 9.998763 
1.414993e+3, 1.4426836e+2, -1306134.0, -1564332.1, -21546.902, -0.14131185, -0.31423402, -1304348.3, 221794.1, 0.001515353, 10.0021, 9.998675 
1.4150088e+3, 1.542672e+2, -1240804.4, -1479136.0, -24137.445, -0.08027545, -0.29829314, -1238384.4, 189769.02, 0.00040130108, 10.001862, 9.998702 
1.4150243e+3, 1.6426596e+2, -1174555.1, -1418897.9, -31819.357, -0.04882969, -0.2814857, -1170479.4, 159687.22, 0.000036934056, 10.001739, 9.998503 
1.4150393e+3, 1.7426468e+2, -1071517.1, -1316443.0, -31532.441, -0.045739014, -0.2616778, -1067522.8, 164658.89, 0.00000007226826, 10.001764, 9.998521 
1.4150545e+3, 1.8426345e+2, -997070.75, -1247738.3, -39284.465, -0.032282975, -0.22591646, -991058.3, 143138.44, 0.0, 10.001679, 9.998361 
1.4150696e+3, 1.9426236e+2, -930447.4, -1162445.0, -45633.227, -0.008117158, -0.17313065, -921794.25, 114417.29, 0.0, 10.001454, 9.998382 
1.4150846e+3, 2.0426114e+2, -859163.5, -1069792.1, -44806.797, 0.0035758961, -0.13482271, -850028.06, 88198.85, 0.0, 10.001238, 9.998449 
1.4150997e+3, 2.1425977e+2, -787572.6, -980210.2, -44753.55, -0.00044259618, -0.11934397, -777683.2, 62559.395, 0.0, 10.001039, 9.998487 
1.4151147e+3, 2.2425853e+2, -706193.4, -864111.1, -37900.004, 0.003704095, -0.10041174, -697568.5, 44687.887, 0.0, 10.000812, 9.998721 
1.4151302e+3, 2.342575e+2, -642779.75, -777000.06, -37736.875, 0.018813102, -0.07953917, -632897.4, 11369.627, 0.0, 10.000549, 9.998773 
1.4151455e+3, 2.4425635e+2, -571055.9, -672161.7, -32378.72, 0.026515497, -0.078845456, -561575.6, -15297.166, 0.0, 10.000285, 9.998946 
1.4151609e+3, 2.5425503e+2, -508457.63, -585708.75, -32748.965, 0.02385201, -0.108232446, -496443.0, -48152.71, 0.0, 10.000019, 9.998995 
1.4151762e+3, 2.642539e+2, -423608.47, -460594.97, -24179.424, 0.021000162, -0.13088918, -411660.88, -61361.156, 0.0, 9.999784, 9.999293 
1.4151919e+3, 2.742531e+2, -348477.53, -366248.63, -16313.076, 0.019146504, -0.14817752, -338787.03, -86481.75, 0.0, 9.999597, 9.999359 
1.4152075e+3, 2.842523e+2, -294132.97, -298679.75, -4387.8965, 0.021663086, -0.15719832, -291464.5, -137152.48, 0.0, 9.999336, 9.999275 
1.4152233e+3, 2.9425162e+2, -249494.3, -229602.56, -2713.8174, 0.025840094, -0.15706865, -229238.95, -172919.27, 0.0, 9.998984, 9.999246 
1.4152388e+3, 3.0425087e+2, -247882.03, -202979.36, 1114.511, 0.010613484, -0.14965546, -202951.72, -202951.72, 0.0, 9.998657, 9.999252 
1.4152549e+3, 3.1425e+2, -136571.69, 91957.31, 18416.473, 0.053604826, -0.17169645, 93431.92, 93431.92, 0.0, 9.998382, 10.001411 
1.4249612e+3, 1.2425499e+2, -1464626.5, -1730049.0, -42963.32, -0.17342648, -0.32274762, -1457845.4, 264426.97, 0.005965021, 10.002323, 9.998774 
1.4249793e+3, 1.3425429e+2, -1386287.4, -1647866.0, 59152.953, -0.07917674, -0.26481247, -1373532.6, 250746.66, 0.0035795863, 10.002198, 9.998731 
1.424995e+3, 1.4425236e+2, -1305388.0, -1558329.4, -13519.756, -0.13848315, -0.32722312, -1304667.4, 221630.61, 0.0015810293, 10.002083, 9.998724 
1.4250106e+3, 1.5425134e+2, -1216768.0, -1461088.1, -17667.48, -0.08772397, -0.30620304, -1215497.0, 212810.66, 0.00041995206, 10.002, 9.998758 
1.425026e+3, 1.6425009e+2, -1159229.3, -1415343.0, -25983.6, -0.056470886, -0.2902413, -1156619.8, 173700.94, 0.000039492217, 10.001862, 9.9984665 
1.4250411e+3, 1.7424867e+2, -1090723.5, -1330324.3, -30319.482, -0.040544156, -0.27943072, -1086946.4, 145390.48, 0.00000008454083, 10.001654, 9.998478 
1.4250562e+3, 1.8424737e+2, -1030991.3, -1272059.1, -40974.86, -0.023232669, -0.24541155, -1024217.06, 110135.76, 0.0, 10.001482, 9.998288 
1.425071e+3, 1.9424629e+2, -949424.56, -1179782.4, -41292.38, -0.0071536386, -0.18441974, -942246.44, 94121.266, 0.0, 10.00136, 9.998307 
1.4250858e+3, 2.0424503e+2, -862101.06, -1073327.3, -37118.625, 0.001919297, -0.14440368, -855768.1, 82615.35, 0.0, 10.001228, 9.998429 
1.4251007e+3, 2.1424359e+2, -781719.44, -978852.5, -37792.324, 0.0026620992, -0.13632064, -774722.6, 65677.29, 0.0, 10.001085, 9.998473 
1.4251156e+3, 2.2424234e+2, -699946.56, -859792.5, -35678.76, 0.008628022, -0.11753882, -692344.4, 50069.46, 0.0, 10.00085, 9.998732 
1.4251307e+3, 2.3424143e+2, -650623.3, -779170.6, -34682.91, 0.021524386, -0.086910106, -641862.7, 2560.933, 0.0, 10.000489, 9.998786 
1.4251457e+3, 2.4424033e+2, -581509.4, -670495.6, -23755.555, 0.024158034, -0.08344691, -575564.75, -29130.18, 0.0, 10.000186, 9.999005 
1.4251608e+3, 2.5423902e+2, -512590.16, -580430.56, -18266.469, 0.01260993, -0.1191911, -507984.47, -59538.15, 0.0, 9.99996, 9.999059 
1.425176e+3, 2.6423797e+2, -433932.44, -452111.03, -10975.66, 0.0096099265, -0.14325112, -428771.13, -78316.14, 0.0, 9.999657, 9.9994135 
1.4251913e+3, 2.7423733e+2, -390353.88, -372434.03, -9635.37, 0.01950275, -0.15656117, -368236.4, -115777.49, 0.0, 9.9992485, 9.999484 
1.4252067e+3, 2.8423664e+2, -340984.53, -307680.75, 3156.1135, 0.023948897, -0.16612762, -307384.28, -152919.78, 0.0, 9.998958, 9.999395 
1.425222e+3, 2.9423603e+2, -264063.1, -223270.22, 9644.813, 0.016437566, -0.16935462, -221104.8, -164633.58, 0.0, 9.998827, 9.999364 
1.4252374e+3, 3.0423555e+2, -256561.7, -195124.31, 7108.989, 0.0038816647, -0.14957121, -194312.45, -194312.45, 0.0, 9.998547, 9.999358 
1.4252533e+3, 3.1423455e+2, -175732.88, 81166.58, 15249.982, 0.071137905, -0.19497132, 82068.68, 82068.68, 0.0, 9.998079, 10.001482 
1.4349635e+3, 1.242396e+2, -1469823.5, -1741132.4, -52049.04, -0.17357051, -0.29638284, -1460180.9, 262242.03, 0.006222031, 10.002324, 9.998698 
1.4349814e+3, 1.3423856e+2, -1387127.6, -1650201.3, 53377.42, -0.08193674, -0.27192095, -1376709.9, 247723.08, 0.0037388622, 10.0022, 9.998714 
1.434997e+3, 1.4423653e+2, -1302778.6, -1553640.9, -17683.107, -0.13756405, -0.34384844, -1301538.3, 224914.1, 0.0016542807, 10.002085, 9.998756 
1.4350125e+3, 1.5423574e+2, -1213806.8, -1455784.3, -21383.188, -0.09829546, -0.3039575, -1211931.8, 216527.95, 0.00044086375, 10.002003, 9.998795 
1.4350277e+3, 1.642345e+2, -1165659.0, -1429599.9, -34111.234, -0.066160314, -0.2851471, -1161321.8, 169150.8, 0.000042391872, 10.001864, 9.998368 
1.4350429e+3, 1.7423278e+2, -1097763.6, -1345899.8, -38525.793, -0.03359243, -0.29323778, -1091919.8, 140572.03, 0.00000010052836, 10.001657, 9.99837 
1.4350577e+3, 1.8423139e+2, -1030570.94, -1272087.8, -46092.99, -0.013142254, -0.26377404, -1022073.2, 112435.445, 0.0, 10.001485, 9.998287 
1.4350723e+3, 1.9423045e+2, -948504.4, -1178823.5, -46030.516, -0.012003922, -0.18855715, -939645.7, 96876.17, 0.0, 10.001363, 9.998313 
1.435087e+3, 2.0422922e+2, -863283.94, -1076531.9, -42503.703, -0.005494338, -0.14424363, -855124.44, 83412.766, 0.0, 10.00123, 9.998407 
1.4351018e+3, 2.1422766e+2, -783376.56, -982481.06, -43068.258, 0.009804763, -0.14481686, -774459.8, 66094.97, 0.0, 10.001085, 9.998449 
1.4351165e+3, 2.2422634e+2, -698206.1, -856260.9, -48395.746, 0.017488621, -0.13354433, -684564.9, 58004.61, 0.0, 10.000849, 9.998757 
1.4351311e+3, 2.342254e+2, -648314.56, -774987.9, -47910.33, 0.014673895, -0.108713016, -632235.0, 12344.626, 0.0, 10.000491, 9.998815 
1.4351457e+3, 2.442244e+2, -572019.44, -651506.0, -32153.857, 0.010132818, -0.10259548, -560641.3, -14051.782, 0.0, 10.000188, 9.999135 
1.4351606e+3, 2.5422338e+2, -503117.34, -560676.94, -26179.688, 0.0024163944, -0.12428818, -492991.44, -44393.16, 0.0, 9.999958, 9.999196 
1.4351755e+3, 2.6422247e+2, -430671.25, -444999.13, -25029.117, 0.0067059044, -0.14207114, -411801.0, -61195.58, 0.0, 9.999654, 9.999464 
1.4351906e+3, 2.742218e+2, -387201.16, -366206.47, -24180.086, 0.029015703, -0.16101061, -350343.4, -97733.45, 0.0, 9.9992485, 9.999527 
1.4352056e+3, 2.842212e+2, -329066.56, -283212.2, -1893.8108, 0.037941493, -0.17665665, -283134.13, -128518.99, 0.0, 9.998958, 9.999564 
1.435221e+3, 2.9422075e+2, -252413.53, -198047.14, 5252.456, 0.024043461, -0.18203218, -197544.34, -140924.64, 0.0, 9.998821, 9.999541 
1.4352359e+3, 3.0422044e+2, -258224.22, -197453.16, -9134.89, 0.008733199, -0.14938922, -196109.72, -196109.72, 0.0, 9.998541, 9.999346 
1.4352515e+3, 3.1421918e+2, -180916.38, 69288.016, -169.59938, 0.079748094, -0.21880972, 69288.13, 69288.13, 0.0, 9.998083, 10.001399 
1.4449659e+3, 1.2422411e+2, -1449684.6, -1736353.6, -56659.06, -0.16845024, -0.28126568, -1438892.5, 283682.03, 0.006501599, 10.002487, 9.9986515 
1.4449836e+3, 1.3422285e+2, -1365712.5, -1638445.6, 53197.203, -0.081506416, -0.2784838, -1355703.6, 268882.63, 0.003913358, 10.002343, 9.998726 
1.4449993e+3, 1.442208e+2, -1287217.1, -1547021.5, -17409.357, -0.13167036, -0.3558401, -1286055.8, 240550.33, 0.0017359345, 10.002197, 9.998746 
1.4450145e+3, 1.5422004e+2, -1203704.9, -1451788.6, -24504.773, -0.101654045, -0.30866185, -1201307.5, 227305.25, 0.000464682, 10.002077, 9.998785 
1.4450295e+3, 1.6421884e+2, -1157427.6, -1425515.3, -39619.066, -0.07162327, -0.28590876, -1151695.1, 178930.17, 0.000045794342, 10.001923, 9.998367 
1.4450446e+3, 1.7421712e+2, -1088943.6, -1341633.3, -36721.445, -0.031634446, -0.29441482, -1083715.3, 148929.17, 0.00000012546444, 10.0017185, 9.998368 
1.4450592e+3, 1.8421565e+2, -1022836.4, -1269278.9, -37941.953, -0.009419823, -0.27079502, -1017127.2, 117534.54, 0.0, 10.001544, 9.998278 
1.4450736e+3, 1.9421458e+2, -942316.8, -1176950.4, -39198.906, -0.014376996, -0.208926, -935941.3, 100734.52, 0.0, 10.001411, 9.9983015 
1.4450881e+3, 2.0421332e+2, -870965.44, -1081548.6, -40631.8, -0.010436083, -0.16697913, -863397.56, 75293.9, 0.0, 10.001184, 9.998394 
1.4451028e+3, 2.1421188e+2, -822108.8, -1002732.06, -41087.273, 0.0072550937, -0.15442958, -813201.75, 27506.535, 0.0, 10.000828, 9.998434 
1.4451171e+3, 2.242106e+2, -735781.75, -868271.0, -45061.24, 0.015224189, -0.13938688, -721908.56, 20814.072, 0.0, 10.000566, 9.998811 
1.4451315e+3, 2.3420963e+2, -652458.75, -770351.1, -42721.055, 0.009861876, -0.12414184, -638605.6, 6127.412, 0.0, 10.000435, 9.998873 
1.4451459e+3, 2.4420868e+2, -563864.4, -633263.1, -28937.582, 0.005675038, -0.1222467, -553381.56, -6639.296, 0.0, 10.000183, 9.999263 
1.4451604e+3, 2.5420782e+2, -522160.25, -554960.94, -23986.482, 0.0020692, -0.14030167, -509503.38, -60754.3, 0.0, 9.999764, 9.999329 
1.4451751e+3, 2.6420707e+2, -461805.78, -454839.1, -23330.627, 0.008569601, -0.15357073, -434733.22, -83978.305, 0.0, 9.999418, 9.99951 
1.4451899e+3, 2.742065e+2, -395319.6, -365708.38, -23098.164, 0.030503593, -0.16787414, -353078.03, -100318.99, 0.0, 9.999175, 9.999566 
1.4452046e+3, 2.8420588e+2, -330051.47, -266875.06, 770.0296, 0.039412905, -0.19045267, -266865.66, -112101.734, 0.0, 9.9988785, 9.999714 
1.4452197e+3, 2.942054e+2, -286730.06, -196864.3, 6472.8794, 0.026089866, -0.21535276, -196400.47, -139632.5, 0.0, 9.99851, 9.999699 
1.4452344e+3, 3.0420533e+2, -301337.1, -216300.25, -8712.443, 0.012974025, -0.16802809, -215416.8, -215416.8, 0.0, 9.998238, 9.999362 
1.4452496e+3, 3.1420416e+2, -179052.44, 62752.25, 3960.3606, 0.088950574, -0.2293506, 62817.098, 62817.098, 0.0, 9.998128, 10.001332 
1.4549685e+3, 1.2420855e+2, -1451227.3, -1740130.6, -65748.31, -0.15849867, -0.27847, -1436968.1, 285758.66, 0.0068028797, 10.002488, 9.998626 
1.454986e+3, 1.3420725e+2, -1363122.5, -1633696.9, 46617.113, -0.07792127, -0.28447866, -1355316.0, 269422.63, 0.004102922, 10.002345, 9.998758 
1.4550015e+3, 1.4420515e+2, -1290689.8, -1554935.6, -23077.143, -0.120878026, -0.3630244, -1288689.5, 238069.08, 0.0018261482, 10.002199, 9.998692 
1.4550166e+3, 1.5420431e+2, -1207427.0, -1460293.5, -29586.861, -0.0980855, -0.3202584, -1204011.3, 224755.3, 0.00049169204, 10.002079, 9.998726 
1.4550315e+3, 1.6420315e+2, -1150799.5, -1412594.5, -47521.03, -0.073064595, -0.2926207, -1142440.4, 188338.33, 0.0000497536, 10.0019245, 9.998456 
1.4550461e+3, 1.7420173e+2, -1081603.6, -1327363.1, -44752.535, -0.034643233, -0.28325987, -1073707.9, 159087.05, 0.00000016567238, 10.001721, 9.998466 
1.4550608e+3, 1.8420023e+2, -1023832.9, -1272310.1, -43470.113, -0.012088436, -0.26653364, -1016447.44, 118364.59, 0.0, 10.001547, 9.998256 
1.4550751e+3, 1.9419871e+2, -944078.25, -1181344.1, -44229.152, -0.014537503, -0.24493445, -936101.6, 100727.98, 0.0, 10.001413, 9.998271 
1.4550893e+3, 2.0419735e+2, -871411.2, -1083143.8, -53395.32, -0.01310155, -0.21193202, -858707.94, 80138.15, 0.0, 10.001186, 9.998383 
1.4551035e+3, 2.1419623e+2, -822328.8, -1004095.4, -54348.46, -0.004665838, -0.16527122, -807318.2, 33542.234, 0.0, 10.00083, 9.998424 
1.4551176e+3, 2.2419512e+2, -730153.75, -857316.56, -50324.406, 0.0021625482, -0.13553995, -712647.94, 30225.451, 0.0, 10.000568, 9.998885 
1.4551318e+3, 2.341941e+2, -646639.3, -758285.75, -47159.492, 0.0067908564, -0.1335499, -629385.56, 15498.483, 0.0, 10.000434, 9.998957 
1.455146e+3, 2.4419315e+2, -555785.44, -616190.2, -43316.074, 0.010101873, -0.14233974, -533181.9, 13711.186, 0.0, 10.00018, 9.999382 
1.4551602e+3, 2.5419238e+2, -513612.34, -537196.9, -39102.375, 0.0108233625, -0.16638164, -484562.8, -35663.95, 0.0, 9.999763, 9.999453 
1.4551745e+3, 2.6419172e+2, -459179.28, -449571.2, -32273.729, 0.014717055, -0.17690137, -421745.9, -70842.29, 0.0, 9.999418, 9.999546 
1.4551888e+3, 2.7419132e+2, -393365.7, -361705.25, -31449.055, 0.024293004, -0.17716525, -342326.97, -89420.37, 0.0, 9.999174, 9.999595 
1.4552033e+3, 2.841907e+2, -320847.8, -247877.38, -11862.402, 0.029065821, -0.20719069, -245997.4, -91086.09, 0.0, 9.998878, 9.9998455 
1.455218e+3, 2.9419e+2, -276725.25, -176553.78, -6711.8184, 0.022895431, -0.2673507, -176106.06, -119189.766, 0.0, 9.998511, 9.999839 
1.4552325e+3, 3.041902e+2, -298685.6, -211065.08, -13094.317, 0.016487489, -0.20407884, -209150.06, -209150.06, 0.0, 9.998238, 9.999398 
1.4552478e+3, 3.1418946e+2, -183788.73, 53639.76, 2423.8125, 0.09806602, -0.22634958, 53664.504, 53664.504, 0.0, 9.998124, 10.001272 
1.4649712e+3, 1.2419288e+2, -1441261.5, -1740534.1, -60620.195, -0.145097, -0.2989361, -1429448.6, 293430.6, 0.0071233953, 10.002583, 9.998577 
1.4649884e+3, 1.3419168e+2, -1347715.1, -1625990.0, 50691.215, -0.083101496, -0.29464197, -1338768.8, 286121.63, 0.004306822, 10.002452, 9.998759 
1.4650038e+3, 1.4418969e+2, -1278358.0, -1543096.8, -18460.209, -0.11946856, -0.36531287, -1277076.9, 249832.47, 0.0019247683, 10.00226, 9.998742 
1.4650187e+3, 1.5418878e+2, -1213485.0, -1456782.8, -16551.023, -0.08887287, -0.33414477, -1212364.3, 216553.56, 0.0005218786, 10.002011, 9.998782 
1.4650334e+3, 1.6418767e+2, -1163872.3, -1416425.5, -31436.744, -0.065490484, -0.3079175, -1160018.0, 170911.7, 0.0000541964, 10.001825, 9.998476 
1.4650479e+3, 1.7418635e+2, -1080038.6, -1324615.1, -35028.324, -0.042148918, -0.28668442, -1075120.8, 157823.9, 0.00000022299002, 10.001725, 9.998482 
1.4650622e+3, 1.841849e+2, -1019911.06, -1267582.9, -37107.445, -0.023502091, -0.26985654, -1014470.94, 120490.516, 0.0, 10.001563, 9.99828 
1.4650764e+3, 1.9418325e+2, -956675.6, -1184689.0, -34159.383, -0.014296169, -0.26370522, -951668.1, 85311.69, 0.0, 10.001317, 9.998295 
1.4650905e+3, 2.0418184e+2, -886403.8, -1089170.3, -44250.645, -0.00825846, -0.23532368, -877167.5, 61828.93, 0.0, 10.00108, 9.998392 
1.4651042e+3, 2.1418084e+2, -818127.7, -1001088.3, -44551.94, -0.0052296715, -0.17864296, -807855.7, 33154.188, 0.0, 10.000856, 9.998431 
1.4651182e+3, 2.2417982e+2, -726895.3, -850684.94, -40012.67, 0.0005958467, -0.14384463, -715088.1, 27934.152, 0.0, 10.000569, 9.998929 
1.4651322e+3, 2.3417883e+2, -677896.75, -767715.56, -39532.723, 0.010261599, -0.1438824, -662975.7, -17943.074, 0.0, 10.000196, 9.999006 
1.4651461e+3, 2.4417791e+2, -594093.75, -622452.8, -40786.523, 0.01540651, -0.15607399, -565092.25, -18051.197, 0.0, 9.999866, 9.99949 
1.4651601e+3, 2.5417718e+2, -530753.2, -532622.0, -37874.063, 0.013623164, -0.18507357, -493802.0, -44756.02, 0.0, 9.999591, 9.999566 
1.465174e+3, 2.6417664e+2, -470122.56, -448307.72, -28003.672, 0.0153092295, -0.19487545, -429162.22, -78112.445, 0.0, 9.999315, 9.999604 
1.465188e+3, 2.7417636e+2, -409153.13, -363390.06, -25614.77, 0.023379639, -0.18747237, -351925.13, -98873.37, 0.0, 9.999041, 9.999646 
1.4652021e+3, 2.8417578e+2, -328940.34, -236116.03, -7369.5034, 0.028035067, -0.22248511, -235534.61, -80478.72, 0.0, 9.998755, 9.999985 
1.4652166e+3, 2.9417506e+2, -273646.53, -158403.86, -2243.9648, 0.023023708, -0.30221236, -158360.17, -101299.6, 0.0, 9.998462, 9.999987 
1.4652309e+3, 3.0417547e+2, -304685.47, -206386.44, -2746.1714, 0.019066969, -0.22676662, -206309.78, -206309.78, 0.0, 9.998165, 9.999464 
1.4652458e+3, 3.141749e+2, -220711.19, 30435.584, 17039.818, 0.1045572, -0.23664181, 31586.43, 31586.43, 0.0, 9.997895, 10.001223 
1.4749739e+3, 1.2417715e+2, -1446526.1, -1752071.8, -68117.54, -0.1284267, -0.34331828, -1432028.1, 291003.34, 0.007461449, 10.002584, 9.998498 
1.4749905e+3, 1.3417621e+2, -1349792.8, -1630951.6, 44637.465, -0.09727127, -0.30929443, -1342876.1, 282164.8, 0.0045245043, 10.002455, 9.998724 
1.475006e+3, 1.4417444e+2, -1267533.0, -1521398.8, -28448.266, -0.12773389, -0.36293414, -1264384.1, 262674.0, 0.0020316239, 10.002263, 9.998891 
1.475021e+3, 1.5417351e+2, -1201475.9, -1432811.6, -26516.873, -0.07421212, -0.3502835, -1198475.3, 230591.02, 0.0005551441, 10.002014, 9.998946 
1.4750354e+3, 1.6417238e+2, -1166847.8, -1423595.8, -36215.96, -0.04907405, -0.33158845, -1161837.0, 169240.95, 0.000059017875, 10.001828, 9.998426 
1.4750494e+3, 1.7417106e+2, -1084485.1, -1334727.1, -39094.31, -0.054183036, -0.3044234, -1078519.8, 154573.75, 0.0000002932695, 10.001728, 9.998412 
1.4750634e+3, 1.8416966e+2, -1015051.4, -1258318.3, -46220.49, -0.04363605, -0.28070328, -1006565.5, 128544.266, 0.0, 10.001565, 9.9983425 
1.4750777e+3, 1.9416818e+2, -951217.56, -1174182.5, -43575.945, -0.013776955, -0.26583976, -943003.75, 94122.76, 0.0, 10.001319, 9.998366 
1.4750917e+3, 2.0416681e+2, -884402.5, -1085679.8, -52801.023, 0.0037071302, -0.23781756, -871392.2, 67750.34, 0.0, 10.0010805, 9.998416 
1.4751053e+3, 2.1416572e+2, -816742.7, -998607.6, -52827.793, 0.004899767, -0.19432062, -802511.06, 38645.813, 0.0, 10.000856, 9.998449 
1.4751188e+3, 2.2416466e+2, -725855.06, -848862.94, -53394.33, 0.009863093, -0.16374344, -705911.5, 37257.938, 0.0, 10.00057, 9.998942 
1.4751326e+3, 2.3416376e+2, -676781.7, -766007.6, -53159.527, 0.01992139, -0.1550544, -651995.44, -6816.515, 0.0, 10.000197, 9.999018 
1.4751461e+3, 2.4416292e+2, -587239.6, -608889.0, -50892.824, 0.021462344, -0.16384587, -546033.0, 1153.592, 0.0, 9.999867, 9.999583 
1.4751595e+3, 2.5416225e+2, -523659.1, -518190.1, -47671.05, 0.010543522, -0.19697884, -473175.2, -23984.395, 0.0, 9.999591, 9.999665 
1.4751732e+3, 2.641618e+2, -465107.0, -437818.47, -37638.918, 0.010405861, -0.20784041, -411427.06, -60233.31, 0.0, 9.999314, 9.999678 
1.475187e+3, 2.7416158e+2, -404572.97, -353495.9, -35105.797, 0.027322466, -0.19859205, -335622.06, -82427.18, 0.0, 9.999038, 9.999717 
1.4752011e+3, 2.841611e+2, -319414.78, -215814.25, -17778.053, 0.03554593, -0.23648906, -212848.4, -57650.258, 0.0, 9.998753, 10.000127 
1.4752151e+3, 2.9416046e+2, -263546.34, -136831.3, -13071.391, 0.025805777, -0.32147512, -135496.95, -78295.5, 0.0, 9.998457, 10.000137 
1.475229e+3, 3.041611e+2, -298612.84, -193575.67, -12817.683, 0.020461118, -0.23740017, -192034.16, -192034.16, 0.0, 9.998163, 9.999555 
1.4752437e+3, 3.1416053e+2, -223139.69, 24060.16, 9257.278, 0.10831017, -0.25712946, 24406.346, 24406.346, 0.0, 9.997899, 10.001177 
1.4849767e+3, 1.2416196e+2, -1424272.5, -1745159.0, -42121.64, -0.120229304, -0.37508425, -1418835.5, 304342.97, 0.007817738, 10.002757, 9.998461 
1.4849931e+3, 1.3416114e+2, -1342247.4, -1627635.8, 73543.63, -0.099898405, -0.3274786, -1324410.3, 300776.78, 0.004756172, 10.00251, 9.99872 
1.4850082e+3, 1.4415951e+2, -1268533.3, -1526736.8, -6156.9805, -0.12365711, -0.36466363, -1268386.5, 258816.83, 0.0021468382, 10.002278, 9.998846 
1.4850229e+3, 1.5415852e+2, -1194376.9, -1434732.5, -20505.977, -0.07471195, -0.35534307, -1192640.0, 236572.7, 0.00059159106, 10.002088, 9.998897 
1.4850372e+3, 1.6415735e+2, -1152723.3, -1409281.3, -32737.152, -0.05106068, -0.34027997, -1148611.9, 182612.92, 0.0000641918, 10.001895, 9.998491 
1.4850512e+3, 1.7415607e+2, -1083302.4, -1325678.3, -25064.668, -0.05390772, -0.31757608, -1080737.5, 152501.92, 0.00000037325287, 10.001701, 9.9984865 
1.485065e+3, 1.841547e+2, -1027867.75, -1266288.4, -32802.582, -0.043559756, -0.2925576, -1023437.0, 111818.164, 0.0, 10.001486, 9.998325 
1.485079e+3, 1.941533e+2, -964130.1, -1183294.3, -38108.824, -0.01728248, -0.2683581, -957692.75, 79578.78, 0.0, 10.001245, 9.998339 
1.4850926e+3, 2.0415194e+2, -897347.75, -1088298.0, -51940.188, 0.0016945794, -0.23887265, -884133.94, 55153.62, 0.0, 10.0009775, 9.998447 
1.485106e+3, 2.1415077e+2, -840336.06, -1005760.25, -51100.72, 0.011318558, -0.20515046, -825823.8, 15478.285, 0.0, 10.000678, 9.998486 
1.4851193e+3, 2.241497e+2, -748465.5, -855186.25, -52029.12, 0.01923678, -0.18059213, -727298.3, 16016.362, 0.0, 10.000396, 9.998982 
1.4851327e+3, 2.3414885e+2, -682533.0, -764296.7, -50226.313, 0.024637882, -0.17220768, -658653.7, -13330.129, 0.0, 10.00014, 9.999057 
1.485146e+3, 2.4414806e+2, -588426.25, -605339.8, -49143.977, 0.024056848, -0.17956984, -547016.75, 314.02887, 0.0, 9.999843, 9.999619 
1.4851591e+3, 2.5414747e+2, -536377.8, -520346.13, -51029.453, 0.014623324, -0.20905864, -476706.78, -27372.346, 0.0, 9.999488, 9.9997 
1.4851724e+3, 2.6414707e+2, -482424.94, -432967.8, -42137.305, 0.014899187, -0.2193249, -408838.88, -57502.254, 0.0, 9.99914, 9.999794 
1.485186e+3, 2.7414697e+2, -430655.88, -352173.4, -36139.445, 0.030579064, -0.21455331, -338067.34, -84730.7, 0.0, 9.9988, 9.99984 
1.4851998e+3, 2.8414652e+2, -354515.8, -226642.05, -18875.943, 0.04002157, -0.25582314, -223913.89, -68574.695, 0.0, 9.9984865, 10.000179 
1.4852135e+3, 2.9414594e+2, -296757.28, -147477.69, -21782.9, 0.035062008, -0.3399956, -144364.08, -87022.016, 0.0, 9.998207, 10.000184 
1.4852272e+3, 3.0414674e+2, -309405.78, -180982.66, -18939.008, 0.029900419, -0.25156248, -178247.89, -178247.89, 0.0, 9.9980135, 9.999712 
1.4852417e+3, 3.141461e+2, -211371.69, 33101.1, 11392.92, 0.10870318, -0.2909105, 33630.887, 33630.887, 0.0, 9.997967, 10.001206 
1.4949794e+3, 1.24147356e+2, -1424281.5, -1745772.3, -52939.008, -0.12166031, -0.39476907, -1415788.6, 307531.25, 0.0081952335, 10.002759, 9.998456 
1.4949957e+3, 1.3414656e+2, -1340403.8, -1624459.4, 63111.78, -0.09108526, -0.3491242, -1327012.9, 298315.5, 0.005003208, 10.002512, 9.998741 
1.4950106e+3, 1.4414497e+2, -1284972.8, -1561852.0, -14396.657, -0.10722772, -0.3703834, -1284226.3, 243118.3, 0.0022711838, 10.002281, 9.998605 
1.4950247e+3, 1.5414383e+2, -1212544.8, -1473454.1, -28250.168, -0.090309024, -0.34955436, -1209521.0, 219835.84, 0.00063171395, 10.002091, 9.99863 
1.4950389e+3, 1.641426e+2, -1140110.3, -1384094.5, -40536.77, -0.07144434, -0.33423084, -1133551.5, 197818.28, 0.000069858055, 10.001898, 9.998664 
1.495053e+3, 1.7414138e+2, -1068020.4, -1294917.9, -32780.145, -0.041809052, -0.32614127, -1063379.5, 170002.94, 0.00000046463128, 10.001704, 9.998696 
1.4950666e+3, 1.8414003e+2, -1034375.3, -1280678.4, -42043.77, -0.023859905, -0.30535385, -1027396.2, 108001.25, 0.0, 10.001489, 9.998226 
1.4950801e+3, 1.941386e+2, -972659.7, -1201932.9, -47313.594, -0.024721144, -0.27131143, -963279.7, 74135.28, 0.0, 10.001247, 9.99821 
1.4950936e+3, 2.0413722e+2, -894572.8, -1083427.6, -63024.594, -0.013946976, -0.23859198, -875472.1, 63959.34, 0.0, 10.00098, 9.99848 
1.4951068e+3, 2.1413605e+2, -836397.3, -998460.6, -62271.44, 0.01407798, -0.21128024, -815233.75, 26211.91, 0.0, 10.00068, 9.998535 
1.49512e+3, 2.2413495e+2, -743789.2, -846239.6, -61466.613, 0.028621458, -0.19450332, -715000.9, 28457.092, 0.0, 10.000399, 9.999043 
1.4951327e+3, 2.3413406e+2, -678126.75, -755522.94, -59433.93, 0.024369251, -0.19507103, -645902.8, -436.12402, 0.0, 10.00014, 9.999117 
1.4951457e+3, 2.4413328e+2, -590093.0, -608966.9, -61630.223, 0.023130918, -0.20282385, -537181.4, 10292.34, 0.0, 9.999843, 9.999595 
1.4951587e+3, 2.5413278e+2, -538478.56, -525069.75, -63644.473, 0.025421727, -0.22118743, -467777.56, -18300.43, 0.0, 9.999488, 9.999668 
1.4951716e+3, 2.6413247e+2, -471539.1, -410978.66, -54168.215, 0.028179, -0.2293303, -379201.75, -27723.086, 0.0, 9.999141, 9.999946 
1.4951847e+3, 2.7413243e+2, -418660.88, -327790.8, -48275.297, 0.03289926, -0.23525922, -306932.2, -53454.773, 0.0, 9.998801, 10.000008 
1.4951982e+3, 2.8413203e+2, -356702.75, -231647.64, -28919.03, 0.041267864, -0.28030133, -225283.94, -69804.49, 0.0, 9.998487, 10.000146 
1.4952117e+3, 2.9413143e+2, -300154.22, -155381.5, -31737.68, 0.050111327, -0.3575257, -148729.48, -91246.77, 0.0, 9.99821, 10.00013 
1.4952253e+3, 3.0413228e+2, -293976.7, -149605.17, -21206.805, 0.046708386, -0.26893482, -146554.55, -146554.55, 0.0, 9.998015, 9.9999275 
1.4952396e+3, 3.1413162e+2, -205577.56, 45852.285, 11949.455, 0.10566762, -0.33542, 46418.918, 46418.918, 0.0, 9.997962, 10.001297 
1.5049823e+3, 1.2413315e+2, -1392161.5, -1735991.5, -48206.34, -0.12517531, -0.39073908, -1385530.6, 337927.75, 0.008597475, 10.003009, 9.998403 
1.5049984e+3, 1.3413215e+2, -1316231.5, -1617613.5, 62091.66, -0.09389309, -0.3610649, -1303940.4, 321528.22, 0.0052676955, 10.002703, 9.998695 
1.5050131e+3, 1.4413057e+2, -1268619.8, -1562131.0, -9608.796, -0.09760907, -0.37632442, -1268305.5, 259179.44, 0.0024058474, 10.002431, 9.998529 
1.505027e+3, 1.5412942e+2, -1197399.8, -1474897.5, -9514.99, -0.0889869, -0.3486915, -1197073.9, 232424.1, 0.0006761825, 10.002234, 9.99855 
1.5050408e+3, 1.6412817e+2, -1125519.5, -1375123.4, -21842.596, -0.072162636, -0.33083507, -1123622.5, 207888.66, 0.0000762831, 10.001991, 9.99868 
1.5050547e+3, 1.7412694e+2, -1069654.8, -1292892.8, -28514.781, -0.0368544, -0.32724646, -1066070.0, 167453.56, 0.00000057502143, 10.001682, 9.99872 
1.5050682e+3, 1.8412556e+2, -1046028.3, -1286200.3, -41435.594, -0.01604822, -0.31078613, -1039080.6, 96458.016, 0.0, 10.00141, 9.998225 
1.5050814e+3, 1.9412409e+2, -981119.9, -1206304.4, -37845.88, -0.017780736, -0.2804543, -974929.44, 62627.09, 0.0, 10.001192, 9.998206 
1.5050945e+3, 2.0412269e+2, -897948.25, -1083621.6, -51380.332, -0.010116983, -0.24990113, -884678.44, 54894.723, 0.0, 10.000952, 9.998491 
1.5051074e+3, 2.1412152e+2, -835288.1, -996349.3, -53727.457, 0.011658471, -0.22227639, -819010.56, 22576.414, 0.0, 10.000683, 9.998548 
1.5051202e+3, 2.2412044e+2, -745153.4, -841486.44, -56337.563, 0.027230669, -0.20688577, -719198.8, 24399.973, 0.0, 10.000367, 9.99909 
1.505133e+3, 2.3411956e+2, -696815.7, -758909.56, -55659.48, 0.03436316, -0.21164912, -664129.6, -18522.646, 0.0, 9.9999895, 9.9991665 
1.5051456e+3, 2.441188e+2, -617689.6, -623074.4, -57773.402, 0.036568046, -0.22251292, -562545.9, -14931.912, 0.0, 9.999658, 9.999585 
1.5051582e+3, 2.5411826e+2, -554329.1, -534283.94, -59025.875, 0.030864459, -0.24219601, -484435.78, -34817.664, 0.0, 9.999388, 9.999652 
1.5051708e+3, 2.64118e+2, -475555.2, -406993.34, -53334.188, 0.031106632, -0.24743877, -377873.03, -26253.613, 0.0, 9.99909, 9.999997 
1.5051837e+3, 2.7411807e+2, -421790.5, -323006.53, -55813.375, 0.04125207, -0.24497394, -297868.66, -44251.945, 0.0, 9.9987545, 10.000062 
1.5051968e+3, 2.841177e+2, -358845.13, -229270.89, -36205.66, 0.05129023, -0.28993312, -219840.63, -64222.355, 0.0, 9.99846, 10.0001745 
1.5052101e+3, 2.9411703e+2, -297339.22, -150807.23, -33532.316, 0.05654233, -0.37757683, -143498.28, -85875.94, 0.0, 9.998218, 10.000156 
1.5052234e+3, 3.0411798e+2, -293116.38, -132268.56, -19002.322, 0.05102872, -0.28948346, -130054.14, -130054.14, 0.0, 9.997951, 10.000077 
1.5052374e+3, 3.1411752e+2, -247021.56, 26358.334, 10735.506, 0.10505079, -0.35151973, 26779.264, 26779.264, 0.0, 9.997677, 10.0013 
1.5149853e+3, 1.2411939e+2, -1399312.3, -1751743.6, -60089.594, -0.1312557, -0.36263964, -1389348.6, 334245.13, 0.009026395, 10.003013, 9.998294 
1.5150009e+3, 1.3411796e+2, -1323996.4, -1634413.5, 49412.766, -0.108603574, -0.36345196, -1316320.5, 309287.13, 0.0055510993, 10.002705, 9.99858 
1.5150155e+3, 1.4411633e+2, -1262355.0, -1549916.0, -18182.107, -0.09510641, -0.38257506, -1261209.9, 266414.22, 0.002551727, 10.002434, 9.998612 
1.5150294e+3, 1.5411529e+2, -1190051.9, -1460544.0, -17457.36, -0.071130075, -0.35257682, -1188929.8, 240705.84, 0.0007254567, 10.002237, 9.998649 
1.515043e+3, 1.6411409e+2, -1134811.4, -1395364.0, -33602.457, -0.053541075, -0.3300294, -1130547.6, 201101.03, 0.00008370529, 10.001994, 9.99854 
1.5150563e+3, 1.7411275e+2, -1080604.8, -1316727.1, -40455.47, -0.038890656, -0.32116607, -1073865.8, 159796.84, 0.00000071310234, 10.001686, 9.998556 
1.5150696e+3, 1.8411128e+2, -1039144.3, -1272997.8, -50122.516, -0.019996926, -0.30899522, -1028854.2, 106824.39, 0.0, 10.001413, 9.998315 
1.5150827e+3, 1.9410974e+2, -972799.56, -1189912.8, -46086.56, 0.0028966104, -0.29547325, -963421.8, 74274.39, 0.0, 10.001194, 9.998319 
1.5150955e+3, 2.0410834e+2, -898382.8, -1085342.6, -61315.504, 0.012441661, -0.2723686, -880067.9, 59644.746, 0.0, 10.000955, 9.998479 
1.515108e+3, 2.1410722e+2, -836524.56, -1000072.44, -63726.363, 0.004177237, -0.23801528, -814625.8, 27100.293, 0.0, 10.000686, 9.998521 
1.5151204e+3, 2.2410618e+2, -742400.6, -837152.5, -69825.57, 0.015375103, -0.21787637, -705395.94, 38341.434, 0.0, 10.000372, 9.999118 
1.5151332e+3, 2.3410535e+2, -693758.44, -753822.06, -69406.32, 0.054032724, -0.22220626, -648165.2, -2420.56, 0.0, 9.999993, 9.9992 
1.5151456e+3, 2.4410452e+2, -617142.2, -623030.94, -67657.055, 0.06355077, -0.23872569, -552365.44, -4613.6074, 0.0, 9.999661, 9.999585 
1.5151575e+3, 2.5410384e+2, -554169.2, -534777.3, -68490.56, 0.031021928, -0.27163318, -475299.78, -25542.137, 0.0, 9.99939, 9.999648 
1.5151697e+3, 2.641036e+2, -478620.53, -414143.1, -64902.758, 0.024028558, -0.2733539, -373913.2, -22153.955, 0.0, 9.999092, 9.999948 
1.5151826e+3, 2.7410388e+2, -425080.6, -331041.56, -67409.26, 0.054996237, -0.24443904, -295873.25, -42118.383, 0.0, 9.998758, 10.000006 
1.5151954e+3, 2.8410357e+2, -352430.28, -217253.73, -44851.258, 0.06925918, -0.28559205, -203725.97, -47969.91, 0.0, 9.998464, 10.000256 
1.5152082e+3, 2.9410273e+2, -290255.2, -136519.86, -42342.297, 0.054798182, -0.4000241, -125629.28, -67867.84, 0.0, 9.998218, 10.000256 
1.5152211e+3, 3.0410376e+2, -287362.78, -120422.32, -29037.621, 0.04360311, -0.31358334, -115515.73, -115515.73, 0.0, 9.99795, 10.000159 
1.5152352e+3, 3.1410372e+2, -252383.25, 14281.297, 2858.1584, 0.10612558, -0.34009227, 14311.928, 14311.928, 0.0, 9.99768, 10.001216 
1.5249883e+3, 1.2410571e+2, -1376566.6, -1738033.1, -51973.367, -0.12826638, -0.34922493, -1369242.1, 354486.03, 0.009480747, 10.003161, 9.998315 
1.5250036e+3, 1.3410404e+2, -1304331.9, -1623810.0, 64749.01, -0.114819854, -0.37499362, -1291707.9, 334035.66, 0.0058531812, 10.002838, 9.998588 
1.525018e+3, 1.4410242e+2, -1251207.6, -1544039.3, 1311.6703, -0.08781145, -0.39395106, -1251201.8, 276557.97, 0.002708946, 10.00251, 9.998616 
1.5250318e+3, 1.5410142e+2, -1197989.4, -1464396.5, -5425.272, -0.05725043, -0.36042514, -1197878.9, 231892.14, 0.00077962264, 10.002184, 9.998647 
1.525045e+3, 1.6410021e+2, -1148398.8, -1405689.8, -21818.666, -0.040107895, -0.335131, -1146561.6, 185222.52, 0.000092205315, 10.001919, 9.998505 
1.5250582e+3, 1.7409885e+2, -1075804.1, -1318825.1, -19797.16, -0.036677986, -0.325241, -1074202.0, 159596.45, 0.0000008739153, 10.001739, 9.998515 
1.5250711e+3, 1.8409735e+2, -1027289.9, -1265853.6, -28766.45, -0.020936703, -0.31436768, -1023870.2, 111944.46, 0.0, 10.00149, 9.998327 
1.525084e+3, 1.9409579e+2, -979366.0, -1191314.9, -32336.348, 0.010530875, -0.30514345, -974542.4, 63289.945, 0.0, 10.0011425, 9.998333 
1.5250967e+3, 2.0409438e+2, -907738.2, -1089412.6, -48093.82, 0.02340626, -0.2832206, -895792.06, 44056.457, 0.0, 10.00089, 9.998482 
1.5251088e+3, 2.140933e+2, -824339.1, -994079.2, -48677.07, 0.010891376, -0.24531147, -811370.6, 30490.967, 0.0, 10.000771, 9.998521 
1.525121e+3, 2.2409223e+2, -721941.2, -828419.75, -62894.418, 0.018193798, -0.22743496, -692778.25, 51094.66, 0.0, 10.000519, 9.999107 
1.5251333e+3, 2.3409127e+2, -682402.94, -749402.8, -66782.4, 0.053258944, -0.24298905, -641189.2, 4691.85, 0.0, 10.000077, 9.999189 
1.5251453e+3, 2.4409042e+2, -613193.44, -622621.06, -63162.223, 0.06352771, -0.26092812, -554569.4, -6680.899, 0.0, 9.999697, 9.99957 
1.525157e+3, 2.5408986e+2, -553637.1, -536190.6, -64775.055, 0.038190156, -0.2806441, -479554.1, -29660.473, 0.0, 9.999403, 9.999632 
1.525169e+3, 2.6408964e+2, -476089.25, -412943.25, -61515.047, 0.033282768, -0.27734438, -375371.8, -23476.766, 0.0, 9.999111, 9.999946 
1.5251814e+3, 2.7408987e+2, -416796.0, -326909.38, -60623.08, 0.05888216, -0.25570357, -296387.06, -42495.79, 0.0, 9.9988165, 10.000005 
1.5251939e+3, 2.8408954e+2, -349959.16, -221000.47, -39377.82, 0.07165846, -0.29584292, -209927.19, -54034.438, 0.0, 9.998504, 10.00021 
1.5252066e+3, 2.940888e+2, -300969.0, -146778.6, -47440.1, 0.06140657, -0.39660835, -133351.8, -75454.04, 0.0, 9.998168, 10.000208 
1.5252191e+3, 3.0408984e+2, -292549.84, -113169.9, -38237.617, 0.050606914, -0.3097854, -105359.07, -105359.07, 0.0, 9.997873, 10.000245 
1.5252328e+3, 3.140898e+2, -261155.23, 2830.2212, -3017.659, 0.100674115, -0.3425758, 2864.712, 2864.712, 0.0, 9.997652, 10.00115 
1.5349916e+3, 1.2409212e+2, -1366396.5, -1717445.6, -63199.438, -0.11733339, -0.3512241, -1355365.4, 368495.63, 0.009956889, 10.003164, 9.998456 
1.5350063e+3, 1.340904e+2, -1295219.5, -1605562.1, 51525.816, -0.11268543, -0.3956839, -1286888.4, 338987.7, 0.0061724978, 10.002841, 9.998713 
1.5350208e+3, 1.4408883e+2, -1256275.8, -1555547.6, -11675.435, -0.07575199, -0.41018495, -1255821.0, 272070.25, 0.0028771062, 10.002514, 9.998536 
1.535034e+3, 1.5408778e+2, -1204635.5, -1479311.0, -18243.797, -0.047404494, -0.37232462, -1203429.0, 226474.81, 0.000838507, 10.002188, 9.998544 
1.5350471e+3, 1.6408657e+2, -1143580.1, -1396844.3, -29504.709, -0.031950284, -0.34609762, -1140188.4, 191729.0, 0.000101727834, 10.001923, 9.998565 
1.5350598e+3, 1.7408523e+2, -1069949.5, -1307801.3, -26804.098, -0.030456193, -0.33923072, -1066966.3, 166964.69, 0.0000010362653, 10.001742, 9.9985895 
1.5350725e+3, 1.8408377e+2, -1031389.8, -1275548.6, -41508.97, -0.019037234, -0.3267893, -1024525.94, 111420.82, 0.0, 10.001493, 9.99826 
1.5350851e+3, 1.940822e+2, -984504.44, -1203399.9, -45431.79, 0.005411411, -0.30972946, -975449.6, 62515.074, 0.0, 10.001147, 9.998248 
1.5350975e+3, 2.0408079e+2, -906239.0, -1087518.4, -53228.875, 0.022984728, -0.28290054, -891765.1, 48215.777, 0.0, 10.000894, 9.998494 
1.5351097e+3, 2.1407974e+2, -822756.44, -991402.6, -52849.188, 0.03109993, -0.24450366, -807563.56, 34429.863, 0.0, 10.0007715, 9.998539 
1.5351216e+3, 2.2407857e+2, -725209.2, -835828.0, -78009.54, 0.035040993, -0.23561509, -684891.06, 59114.504, 0.0, 10.00052, 9.999056 
1.5351331e+3, 2.3407733e+2, -685659.1, -757636.44, -82816.08, 0.033011224, -0.27350095, -631350.06, 14666.252, 0.0, 10.000083, 9.99913 
1.5351446e+3, 2.4407646e+2, -614558.0, -627266.56, -74008.62, 0.03775614, -0.28896794, -546631.4, 1392.7328, 0.0, 9.999703, 9.999536 
1.5351565e+3, 2.5407627e+2, -555239.56, -540969.94, -74876.58, 0.051647864, -0.27053192, -472889.03, -22862.639, 0.0, 9.999408, 9.999598 
1.5351683e+3, 2.6407608e+2, -472835.66, -407393.13, -71546.266, 0.057574682, -0.26072705, -361440.7, -9413.365, 0.0, 9.999115, 9.999982 
1.5351802e+3, 2.7407598e+2, -413136.6, -320319.63, -70797.56, 0.05358623, -0.27822408, -282075.66, -28049.215, 0.0, 9.998819, 10.00005 
1.5351923e+3, 2.8407556e+2, -361332.0, -245555.3, -50916.383, 0.059494354, -0.32007182, -226349.3, -70320.51, 0.0, 9.998507, 10.000041 
1.5352048e+3, 2.9407516e+2, -313346.8, -174021.45, -59210.76, 0.07504749, -0.36914545, -152257.64, -94225.74, 0.0, 9.998174, 10.000019 
1.5352173e+3, 3.0407616e+2, -285926.13, -100998.484, -46088.7, 0.07032729, -0.2803425, -90148.58, -90148.58, 0.0, 9.997879, 10.000327 
1.5352303e+3, 3.140758e+2, -264681.75, -4969.404, -8197.005, 0.08928642, -0.35678235, -4710.948, -4710.948, 0.0, 9.997652, 10.001097 
1.5449949e+3, 1.24078706e+2, -1342657.8, -1701492.5, -34298.598, -0.10912149, -0.38448828, -1339408.9, 384581.94, 0.010452642, 10.003312, 9.998495 
1.5450093e+3, 1.3407715e+2, -1277247.3, -1596542.0, 68442.88, -0.10854116, -0.41230673, -1263194.6, 362809.78, 0.006508303, 10.002967, 9.9987135 
1.5450235e+3, 1.4407574e+2, -1241340.1, -1555830.6, 1961.4645, -0.0625804, -0.40994328, -1241328.0, 286690.53, 0.0030559867, 10.00265, 9.998467 
1.5450364e+3, 1.5407453e+2, -1180635.6, -1476535.9, -3046.8208, -0.04473905, -0.37871313, -1180604.3, 249428.81, 0.0009019718, 10.002392, 9.998464 
1.5450491e+3, 1.6407326e+2, -1112696.8, -1379437.1, -12832.544, -0.03268964, -0.3548146, -1112080.9, 219966.48, 0.000112228045, 10.002125, 9.998586 
1.5450616e+3, 1.74072e+2, -1053006.9, -1296100.0, -13615.871, -0.025578145, -0.34492022, -1052246.6, 181813.48, 0.0000011877057, 10.001845, 9.99862 
1.5450741e+3, 1.8407056e+2, -1020542.6, -1271391.3, -31002.459, -0.0139917405, -0.33086923, -1016767.8, 119307.695, 0.0, 10.001574, 9.998248 
1.5450864e+3, 1.9406897e+2, -961421.4, -1193952.8, -30541.586, 0.003269358, -0.31381315, -957476.8, 80616.74, 0.0, 10.001314, 9.998232 
1.5450986e+3, 2.0406753e+2, -890671.7, -1081570.5, -34937.99, 0.021481283, -0.2894734, -884478.4, 55631.688, 0.0, 10.001009, 9.998479 
1.5451106e+3, 2.1406639e+2, -843575.44, -1003144.1, -37230.13, 0.04097298, -0.25746286, -835316.44, 6806.619, 0.0, 10.000638, 9.998523 
1.5451223e+3, 2.2406517e+2, -751372.1, -852924.9, -65241.887, 0.045596503, -0.25157446, -719476.0, 24659.686, 0.0, 10.000361, 9.999015 
1.5451331e+3, 2.3406391e+2, -669091.9, -754628.1, -69601.26, 0.029409299, -0.2872159, -630168.8, 15977.952, 0.0, 10.000219, 9.999084 
1.5451445e+3, 2.4406303e+2, -580191.8, -615170.06, -63515.89, 0.031200489, -0.29850465, -531801.25, 16353.608, 0.0, 9.99996, 9.999495 
1.5451561e+3, 2.5406286e+2, -540533.6, -538417.94, -65660.52, 0.05791444, -0.2737139, -473806.72, -23649.576, 0.0, 9.99953, 9.999556 
1.5451676e+3, 2.6406267e+2, -466442.84, -402100.1, -61224.75, 0.067635015, -0.26316425, -365108.84, -12950.632, 0.0, 9.999151, 10.0 
1.5451789e+3, 2.7406254e+2, -407269.5, -314887.34, -62096.44, 0.054445203, -0.28726465, -283686.03, -29528.463, 0.0, 9.998851, 10.000071 
1.5451907e+3, 2.8406215e+2, -359714.28, -253760.89, -40826.59, 0.055357806, -0.32615203, -239854.55, -83694.54, 0.0, 9.998558, 9.999959 
1.545203e+3, 2.9406178e+2, -306212.9, -180503.38, -42740.75, 0.07246584, -0.35990486, -167348.31, -109185.26, 0.0, 9.998267, 9.999928 
1.5452152e+3, 3.0406266e+2, -271214.66, -84134.86, -25198.182, 0.07209591, -0.28234565, -80800.3, -80800.3, 0.0, 9.997939, 10.000413 
1.5452279e+3, 3.140623e+2, -278795.53, -16965.371, 14332.096, 0.088745855, -0.37008512, -16183.195, -16183.195, 0.0, 9.99758, 10.001049 
1.5549983e+3, 1.2406552e+2, -1346953.4, -1711078.6, -45454.086, -0.104585886, -0.44851193, -1341365.0, 382751.9, 0.010971542, 10.003315, 9.998427 
1.5550123e+3, 1.3406435e+2, -1285628.9, -1614557.5, 54404.164, -0.102634646, -0.4254228, -1276864.1, 349264.03, 0.006862425, 10.002969, 9.998589 
1.5550262e+3, 1.4406313e+2, -1245424.4, -1565265.0, -8713.481, -0.048538644, -0.39355505, -1245187.1, 282954.1, 0.0032463204, 10.002654, 9.998402 
1.5550387e+3, 1.5406169e+2, -1184388.6, -1485453.4, -13272.242, -0.049312353, -0.3794581, -1183804.6, 246353.83, 0.0009703306, 10.002396, 9.998402 
1.5550512e+3, 1.6406032e+2, -1113549.0, -1382420.6, -23747.129, -0.04232483, -0.36126614, -1111467.8, 220706.11, 0.00012386087, 10.002129, 9.998565 
1.5550636e+3, 1.7405912e+2, -1053784.3, -1298909.4, -24448.809, -0.022156164, -0.34253737, -1051369.5, 182816.34, 0.0000013544981, 10.001849, 9.9986 
1.5550758e+3, 1.8405771e+2, -1017080.0, -1265307.4, -41074.023, -0.005987269, -0.3267491, -1010460.06, 125740.82, 0.0, 10.001577, 9.998289 
1.5550877e+3, 1.9405611e+2, -957605.1, -1187257.3, -40411.72, 0.0039904416, -0.31740063, -950701.44, 87517.52, 0.0, 10.001319, 9.998277 
1.5550995e+3, 2.0405456e+2, -893063.0, -1087952.9, -48543.305, 0.018899482, -0.30273023, -881641.2, 58594.867, 0.0, 10.001014, 9.998433 
1.5551113e+3, 2.1405324e+2, -846484.25, -1010792.2, -51026.363, 0.040748257, -0.28358376, -831927.5, 10322.978, 0.0, 10.000643, 9.998468 
1.5551226e+3, 2.2405198e+2, -753185.56, -858278.44, -70844.88, 0.049913585, -0.27503452, -717527.0, 26736.332, 0.0, 10.000366, 9.998976 
1.5551336e+3, 2.3405094e+2, -671328.9, -760275.94, -74250.83, 0.041425444, -0.28502232, -629251.4, 17021.492, 0.0, 10.000222, 9.999045 
1.5551445e+3, 2.440501e+2, -583447.2, -622801.1, -77902.09, 0.042642623, -0.29041898, -522775.4, 25505.67, 0.0, 9.999962, 9.999441 
1.5551557e+3, 2.5404963e+2, -543544.94, -546143.94, -80926.55, 0.05736774, -0.28949115, -463907.44, -13621.283, 0.0, 9.999535, 9.9995 
1.5551667e+3, 2.6404938e+2, -466009.53, -402838.34, -71889.11, 0.06428635, -0.2837498, -355902.0, -3613.951, 0.0, 9.999157, 9.999993 
1.5551779e+3, 2.7404943e+2, -407178.06, -315752.0, -72267.2, 0.06036749, -0.2838477, -275953.47, -21668.188, 0.0, 9.998854, 10.000064 
1.5551893e+3, 2.840491e+2, -359824.03, -254760.63, -50754.766, 0.057954494, -0.3152844, -234246.95, -77959.85, 0.0, 9.99856, 9.999951 
1.5552011e+3, 2.9404855e+2, -306050.16, -181158.86, -52913.266, 0.05501762, -0.3675989, -161755.44, -103463.55, 0.0, 9.99827, 9.999924 
1.5552129e+3, 3.0404925e+2, -264984.9, -72123.09, -37672.22, 0.057475608, -0.31399983, -65025.664, -65025.664, 0.0, 9.997942, 10.000495 
1.5552256e+3, 3.1404915e+2, -282091.34, -23880.814, 3630.952, 0.09702789, -0.38166413, -23829.766, -23829.766, 0.0, 9.997579, 10.001003 
1.5650016e+3, 1.2405295e+2, -1328512.4, -1708184.6, -35271.41, -0.10371638, -0.4744419, -1325263.5, 398974.6, 0.0115225995, 10.003472, 9.998371 
1.5650153e+3, 1.3405173e+2, -1279594.5, -1624772.4, 60754.746, -0.09854752, -0.44470328, -1269213.4, 357037.25, 0.0072392947, 10.00307, 9.998468 
1.565029e+3, 1.4405057e+2, -1231598.6, -1560353.6, 4981.898, -0.03386065, -0.400351, -1231523.1, 296740.47, 0.003449955, 10.002758, 9.998384 
1.5650411e+3, 1.5404917e+2, -1157855.1, -1473793.1, 4536.798, -0.048171226, -0.38010892, -1157790.0, 272490.2, 0.00104445, 10.002584, 9.998389 
1.5650533e+3, 1.6404776e+2, -1090548.5, -1381171.1, -10243.693, -0.046418887, -0.36223942, -1090187.9, 242108.23, 0.00013699086, 10.002331, 9.998475 
1.5650654e+3, 1.7404637e+2, -1044565.7, -1305508.9, -17600.342, -0.020457054, -0.35320815, -1043383.94, 190926.4, 0.0000015912761, 10.001961, 9.9985 
1.5650775e+3, 1.8404491e+2, -1006042.4, -1257472.9, -35768.11, -0.0018079559, -0.33816054, -1001053.06, 135272.97, 0.0, 10.001644, 9.99831 
1.565089e+3, 1.9404344e+2, -943253.1, -1176877.3, -36200.93, 0.0059700706, -0.31631672, -937772.25, 100570.2, 0.0, 10.001404, 9.998306 
1.5651004e+3, 2.0404193e+2, -871671.6, -1075847.3, -45536.254, 0.019004278, -0.3014343, -861976.3, 78382.72, 0.0, 10.001154, 9.998447 
1.5651119e+3, 2.1404046e+2, -810030.06, -991904.75, -43910.277, 0.039668866, -0.30018833, -799983.7, 42390.94, 0.0, 10.000889, 9.998479 
1.565123e+3, 2.2403915e+2, -722778.4, -844329.9, -58480.715, 0.050383396, -0.296258, -699211.44, 45176.33, 0.0, 10.00058, 9.998968 
1.5651338e+3, 2.3403825e+2, -674582.3, -762989.7, -60143.6, 0.0470537, -0.29140007, -644145.4, 2250.9275, 0.0, 10.000206, 9.999034 
1.5651445e+3, 2.4403743e+2, -596201.8, -632006.6, -64565.19, 0.048378684, -0.29046318, -547103.0, 1301.3442, 0.0, 9.999889, 9.999412 
1.5651551e+3, 2.5403687e+2, -528141.6, -542256.3, -66580.92, 0.056163557, -0.29597554, -468245.1, -17834.72, 0.0, 9.999658, 9.999467 
1.565166e+3, 2.6403654e+2, -444869.3, -397448.84, -60473.543, 0.061769415, -0.29460293, -356203.53, -3790.3499, 0.0, 9.999325, 9.9999485 
1.5651767e+3, 2.7403656e+2, -412476.7, -323527.34, -64515.93, 0.06439873, -0.29538786, -289641.94, -35230.805, 0.0, 9.998841, 10.000016 
1.5651879e+3, 2.8403628e+2, -368237.1, -251768.17, -37364.85, 0.064676605, -0.320923, -240811.7, -84399.25, 0.0, 9.998474, 10.000012 
1.5651993e+3, 2.9403594e+2, -300468.75, -169814.44, -33504.375, 0.059499748, -0.35985547, -161723.75, -103308.7, 0.0, 9.998273, 9.999999 
1.565211e+3, 3.0403653e+2, -264655.28, -68768.51, -24239.063, 0.06279835, -0.32292697, -65813.734, -65813.734, 0.0, 9.997932, 10.000522 
1.565223e+3, 3.1403643e+2, -315659.16, -50883.926, 13112.154, 0.093644984, -0.38974816, -50236.17, -50236.17, 0.0, 9.997396, 10.000904 
1.575005e+3, 1.2404106e+2, -1332152.9, -1716210.3, -47356.707, -0.10807748, -0.4615247, -1326399.6, 397953.94, 0.01211553, 10.003475, 9.998316 
1.5750185e+3, 1.3403934e+2, -1287808.5, -1642625.4, 44609.53, -0.09649143, -0.46962893, -1282286.0, 344085.25, 0.0076441537, 10.003074, 9.998345 
1.575032e+3, 1.4403808e+2, -1229036.4, -1556126.1, -3041.8186, -0.018528245, -0.4297212, -1229008.1, 299376.94, 0.0036693097, 10.002763, 9.998412 
1.5750438e+3, 1.5403701e+2, -1154932.8, -1468763.6, -2540.1868, -0.041519426, -0.38094327, -1154912.3, 275485.78, 0.0011253739, 10.002588, 9.998424 
1.5750557e+3, 1.6403559e+2, -1101216.1, -1404404.8, -23963.248, -0.045203254, -0.35790387, -1099333.9, 233080.16, 0.00015191178, 10.002334, 9.998315 
1.5750673e+3, 1.7403373e+2, -1056656.0, -1332016.6, -31813.59, -0.020562299, -0.3765777, -1053028.3, 181405.19, 0.0000019351096, 10.0019655, 9.998317 
1.575079e+3, 1.8403214e+2, -1005394.6, -1257612.0, -45391.867, -0.0015316708, -0.3648166, -997474.1, 138976.7, 0.0, 10.001649, 9.998307 
1.5750904e+3, 1.9403102e+2, -941738.4, -1174935.5, -45109.996, 0.008932036, -0.31079412, -933316.44, 105147.63, 0.0, 10.001408, 9.998319 
1.5751016e+3, 2.0402963e+2, -866691.5, -1066428.9, -55228.207, 0.021568144, -0.28608772, -852437.9, 88041.23, 0.0, 10.001157, 9.998512 
1.5751128e+3, 2.1402799e+2, -804876.4, -982003.44, -53521.215, 0.037717536, -0.30759227, -789960.4, 52535.3, 0.0, 10.000892, 9.998547 
1.5751237e+3, 2.2402662e+2, -721178.9, -841895.6, -71632.2, 0.047031857, -0.31530744, -687866.0, 56643.25, 0.0, 10.000583, 9.998984 
1.5751341e+3, 2.3402579e+2, -673164.0, -761297.0, -73567.27, 0.04647724, -0.30607027, -631475.06, 15042.407, 0.0, 10.000211, 9.999044 
1.5751444e+3, 2.4402502e+2, -596414.1, -633833.9, -73008.94, 0.048611797, -0.29842192, -539755.8, 8769.201, 0.0, 9.999894, 9.999398 
1.5751548e+3, 2.5402457e+2, -528868.44, -544691.1, -74228.375, 0.053965334, -0.29363677, -462131.0, -11600.744, 0.0, 9.99966, 9.99945 
1.5751651e+3, 2.6402414e+2, -450351.0, -409989.13, -76532.58, 0.05954892, -0.2962231, -351021.44, 1512.6664, 0.0, 9.999328, 9.999862 
1.5751757e+3, 2.740238e+2, -417707.3, -336709.97, -81476.37, 0.06668227, -0.3211521, -286222.16, -31686.514, 0.0, 9.99885, 9.999922 
1.5751864e+3, 2.8402358e+2, -358669.72, -234110.3, -44893.438, 0.07523618, -0.34228656, -219616.42, -63079.824, 0.0, 9.998482, 10.000131 
1.5751979e+3, 2.9402384e+2, -290368.06, -148994.67, -40376.61, 0.083256006, -0.3380169, -138275.72, -79742.28, 0.0, 9.998272, 10.000143 
1.575209e+3, 3.040244e+2, -267043.44, -73557.14, -42572.98, 0.08555548, -0.31127542, -64604.047, -64604.047, 0.0, 9.99793, 10.000491 
1.5752202e+3, 3.140241e+2, -324970.94, -72241.89, -4356.67, 0.07959971, -0.39392734, -72166.805, -72166.805, 0.0, 9.997403, 10.000754 
1.5850087e+3, 1.24029376e+2, -1320416.5, -1720630.1, -36699.023, -0.09698567, -0.44994533, -1317079.1, 407388.44, 0.012755513, 10.003604, 9.998222 
1.5850216e+3, 1.3402732e+2, -1261119.4, -1647973.5, 47611.633, -0.09662798, -0.47527295, -1255345.9, 371142.7, 0.008080295, 10.003341, 9.9981785 
1.5850349e+3, 1.4402588e+2, -1189801.6, -1536061.4, -487.23703, -0.011770384, -0.44386157, -1189801.0, 338702.9, 0.0039060588, 10.003031, 9.99842 
1.5850465e+3, 1.5402482e+2, -1142722.0, -1460422.3, -1360.2639, -0.033260733, -0.39729938, -1142716.1, 287799.97, 0.0012136656, 10.002663, 9.998444 
1.585058e+3, 1.6402338e+2, -1100497.5, -1411696.6, -20466.28, -0.03813497, -0.37253132, -1099157.3, 233374.78, 0.0001685595, 10.002373, 9.998245 
1.5850694e+3, 1.7402154e+2, -1028735.2, -1327655.5, -21183.094, -0.019685896, -0.383582, -1027241.5, 207310.8, 0.0000023797534, 10.002198, 9.998234 
1.5850808e+3, 1.8401994e+2, -961895.44, -1230911.9, -31364.22, -0.0030288796, -0.36971715, -958287.1, 178282.86, 0.0, 10.0019245, 9.998358 
1.585092e+3, 1.9401881e+2, -923260.7, -1158987.6, -28081.947, 0.011070745, -0.32187414, -919961.5, 118621.18, 0.0, 10.001506, 9.99838 
1.585103e+3, 2.0401748e+2, -867893.7, -1059871.8, -35639.22, 0.02493324, -0.30043745, -861491.06, 79105.96, 0.0, 10.001119, 9.998574 
1.5851137e+3, 2.140159e+2, -816921.7, -980911.0, -34607.293, 0.038539976, -0.3205542, -809917.56, 32695.133, 0.0, 10.00078, 9.998607 
1.5851241e+3, 2.2401454e+2, -736569.56, -852817.25, -54713.027, 0.045631673, -0.32887524, -714869.25, 29756.936, 0.0, 10.000493, 9.998952 
1.5851341e+3, 2.3401363e+2, -665961.1, -762662.94, -60914.938, 0.043310713, -0.32360998, -636540.3, 10095.194, 0.0, 10.000282, 9.999 
1.5851443e+3, 2.4401286e+2, -578331.44, -622920.5, -62181.934, 0.045726802, -0.31411755, -534568.1, 14075.116, 0.0, 10.0000105, 9.999416 
1.5851544e+3, 2.5401253e+2, -528971.25, -541816.4, -60955.676, 0.05447272, -0.2991696, -474100.72, -23453.385, 0.0, 9.999648, 9.999475 
1.5851645e+3, 2.6401213e+2, -451250.9, -412844.6, -61901.67, 0.061406862, -0.29855976, -367235.88, -14584.886, 0.0, 9.999334, 9.999839 
1.5851745e+3, 2.7401176e+2, -385177.6, -324231.0, -62481.723, 0.0665498, -0.32895118, -285187.47, -30533.861, 0.0, 9.999089, 9.999892 
1.5851851e+3, 2.8401154e+2, -327889.9, -221394.63, -29481.268, 0.07661425, -0.34534937, -213778.03, -57123.39, 0.0, 9.998704, 10.000111 
1.5851961e+3, 2.940119e+2, -315355.16, -162712.67, -37146.43, 0.09232188, -0.3256931, -154152.89, -95502.49, 0.0, 9.998109, 10.000127 
1.585207e+3, 3.0401233e+2, -296960.1, -82102.234, -40454.223, 0.09859686, -0.3136917, -74737.78, -74737.78, 0.0, 9.997701, 10.000542 
1.5852177e+3, 3.1401226e+2, -301360.56, -61151.62, 7562.611, 0.072901525, -0.37541774, -60913.76, -60913.76, 0.0, 9.997568, 10.000751 
1.5950125e+3, 1.24017954e+2, -1328999.9, -1739466.0, -43175.914, -0.07169106, -0.43826893, -1324507.5, 400071.66, 0.013441269, 10.003608, 9.998092 
1.5950249e+3, 1.340157e+2, -1275482.9, -1678683.3, 36777.637, -0.09913268, -0.46243024, -1272155.6, 354446.56, 0.008547444, 10.003344, 9.997967 
1.595038e+3, 1.4401402e+2, -1190504.3, -1538515.5, -14531.335, -0.01377273, -0.4432945, -1189898.5, 338721.2, 0.004160194, 10.003035, 9.998402 
1.5950494e+3, 1.5401264e+2, -1142011.0, -1460105.3, -15675.673, -0.023619652, -0.42859685, -1141240.4, 289393.78, 0.0013091589, 10.002666, 9.998445 
1.5950605e+3, 1.640112e+2, -1098968.9, -1409577.6, -28174.676, -0.025404619, -0.405638, -1096433.9, 236216.13, 0.00018659334, 10.002377, 9.998259 
1.5950717e+3, 1.7400979e+2, -1027505.56, -1325939.4, -27996.037, -0.017935561, -0.37480152, -1024902.0, 209764.92, 0.0000028938316, 10.0022, 9.998245 
1.5950826e+3, 1.840083e+2, -954900.06, -1217185.9, -46412.305, -0.0063754474, -0.35341576, -946929.44, 189754.02, 0.0, 10.001926, 9.998451 
1.5950933e+3, 1.9400685e+2, -915442.2, -1143904.6, -43893.41, 0.012290003, -0.34886184, -907299.4, 131398.92, 0.0, 10.00151, 9.998483 
1.595104e+3, 2.0400542e+2, -863206.9, -1051459.9, -48573.145, 0.028899206, -0.34346497, -851412.9, 89300.06, 0.0, 10.001123, 9.998631 
1.5951145e+3, 2.1400414e+2, -812810.7, -973662.6, -47087.7, 0.04184693, -0.33900204, -800040.1, 42685.824, 0.0, 10.000785, 9.998655 
1.5951246e+3, 2.2400288e+2, -742001.9, -865274.8, -62667.527, 0.045995034, -0.33724317, -715739.1, 28999.803, 0.0, 10.000497, 9.998865 
1.5951344e+3, 2.3400174e+2, -672721.9, -777537.9, -68044.305, 0.037575558, -0.3436346, -639242.56, 7508.127, 0.0, 10.000284, 9.998897 
1.5951443e+3, 2.4400091e+2, -575105.44, -616930.6, -74297.516, 0.03962663, -0.33693942, -518833.5, 29925.86, 0.0, 10.000011, 9.999457 
1.5951541e+3, 2.5400072e+2, -524548.06, -533598.75, -73519.086, 0.057408776, -0.31223968, -455415.16, -4653.1587, 0.0, 9.999651, 9.999531 
1.595164e+3, 2.6400048e+2, -448517.13, -408103.53, -70432.78, 0.06707225, -0.30183327, -355036.25, -2271.8105, 0.0, 9.999336, 9.99987 
1.5951736e+3, 2.7400026e+2, -383312.22, -320477.06, -70602.35, 0.06373427, -0.3202237, -274617.5, -19851.615, 0.0, 9.999088, 9.999919 
1.5951838e+3, 2.8400004e+2, -338702.7, -244401.38, -49495.473, 0.06885447, -0.33140877, -223192.78, -66425.42, 0.0, 9.998705, 9.999953 
1.5951942e+3, 2.9400012e+2, -326165.16, -187852.56, -58393.14, 0.08761916, -0.3218562, -166497.23, -107730.79, 0.0, 9.998119, 9.99995 
1.5952048e+3, 3.0400032e+2, -286762.9, -63861.625, -46061.727, 0.10252059, -0.32927608, -54718.203, -54718.203, 0.0, 9.997712, 10.000663 
1.5952152e+3, 3.1400093e+2, -292165.2, -42501.332, 4902.357, 0.07198029, -0.3371358, -42405.105, -42405.105, 0.0, 9.997568, 10.000879 
1.6050164e+3, 1.2400652e+2, -1282425.9, -1721653.5, -32102.049, -0.059994496, -0.44818753, -1280092.0, 444598.2, 0.01416758, 10.003958, 9.998045 
1.6050285e+3, 1.3400418e+2, -1246972.6, -1677720.1, 49131.27, -0.091101766, -0.47043252, -1241439.8, 385274.53, 0.009042928, 10.0036, 9.997849 
1.6050412e+3, 1.4400236e+2, -1166082.0, -1530764.9, -1382.4447, 0.0005393532, -0.45605224, -1166076.8, 362656.25, 0.004430615, 10.003222, 9.998364 
1.605052e+3, 1.5400088e+2, -1121869.5, -1454044.0, -5637.8784, -0.016381757, -0.44799358, -1121773.9, 308974.16, 0.0014114145, 10.002823, 9.99841 
1.605063e+3, 1.6399944e+2, -1089372.0, -1404677.4, -16179.945, -0.022384966, -0.42381212, -1088543.9, 244220.11, 0.00020576516, 10.002442, 9.99826 
1.6050738e+3, 1.7399815e+2, -1042610.3, -1332730.5, -16546.246, -0.015804108, -0.37990946, -1041669.7, 193110.34, 0.0000034510517, 10.002096, 9.998248 
1.6050845e+3, 1.8399674e+2, -968624.5, -1212435.1, -38054.18, -0.0060797697, -0.3568212, -962823.06, 173973.02, 0.0, 10.001785, 9.998551 
1.6050948e+3, 1.9399525e+2, -906079.8, -1127180.6, -35786.277, 0.009660625, -0.36716184, -900431.94, 138378.81, 0.0, 10.001522, 9.99859 
1.6051051e+3, 2.0399386e+2, -846049.1, -1040618.6, -41587.195, 0.025235223, -0.3656403, -837533.0, 103291.81, 0.0, 10.001232, 9.998652 
1.6051152e+3, 2.139927e+2, -795457.94, -964127.7, -43526.586, 0.039840143, -0.34897318, -784887.94, 57948.902, 0.0, 10.0009, 9.998664 
1.605125e+3, 2.2399151e+2, -729210.06, -854022.5, -54789.957, 0.046023317, -0.34298265, -708571.25, 36278.016, 0.0, 10.000565, 9.998909 
1.6051346e+3, 2.3399034e+2, -678787.8, -775036.94, -49670.758, 0.04023281, -0.35675946, -657752.0, -10890.747, 0.0, 10.000221, 9.998943 
1.6051441e+3, 2.4398953e+2, -591463.94, -623725.6, -53040.61, 0.043052346, -0.35256946, -552155.56, -3285.7278, 0.0, 9.999896, 9.999466 
1.6051538e+3, 2.5398937e+2, -532040.06, -536954.0, -56624.793, 0.059009105, -0.3236, -477818.97, -26946.918, 0.0, 9.999599, 9.999532 
1.6051632e+3, 2.6398918e+2, -458745.25, -413947.88, -56818.992, 0.06913148, -0.31059104, -375272.03, -22397.53, 0.0, 9.999271, 9.999861 
1.6051728e+3, 2.7398893e+2, -412106.47, -335759.38, -60213.914, 0.06900233, -0.32731816, -302638.22, -47761.848, 0.0, 9.998898, 9.999905 
1.6051824e+3, 2.8398877e+2, -353727.8, -248598.14, -37850.465, 0.06899894, -0.33363393, -236388.6, -79511.05, 0.0, 9.9985895, 9.999979 
1.6051923e+3, 2.939889e+2, -287348.63, -165504.28, -32340.873, 0.07181634, -0.31940496, -157452.23, -98576.55, 0.0, 9.998371, 9.999982 
1.6052026e+3, 3.0398893e+2, -246020.08, -53404.914, -16454.229, 0.09338568, -0.34455758, -52009.414, -52009.414, 0.0, 9.998033, 10.000579 
1.6052128e+3, 3.1398985e+2, -305315.28, -58421.477, 18049.201, 0.08015658, -0.31495205, -57108.965, -57108.965, 0.0, 9.997521, 10.0007925 
1.6150203e+3, 1.2399513e+2, -1280322.1, -1717675.1, -41116.47, -0.064016216, -0.47810024, -1276490.3, 448309.84, 0.014930094, 10.003961, 9.998073 
1.6150323e+3, 1.3399276e+2, -1248798.5, -1682182.1, 34743.332, -0.072993174, -0.49852696, -1246031.0, 380793.38, 0.009564833, 10.003604, 9.997818 
1.6150446e+3, 1.4399095e+2, -1169889.0, -1539793.0, -16801.852, 0.030911166, -0.4814743, -1169127.4, 359715.9, 0.0047169235, 10.003226, 9.998301 
1.6150549e+3, 1.5398958e+2, -1126375.3, -1464774.5, -21180.057, -0.011630228, -0.4559734, -1125054.8, 305802.72, 0.0015205952, 10.002828, 9.998336 
1.6150653e+3, 1.6398811e+2, -1089587.8, -1406605.9, -29863.379, -0.029101994, -0.42752954, -1086799.1, 246074.56, 0.00022625244, 10.002448, 9.998245 
1.615076e+3, 1.7398667e+2, -1042724.9, -1334199.5, -29732.08, -0.01349841, -0.3984429, -1039722.94, 195168.55, 0.0000040571203, 10.0021, 9.998237 
1.6150863e+3, 1.8398526e+2, -961079.06, -1197817.9, -48294.902, -0.002373616, -0.37935376, -951605.94, 185301.64, 0.0, 10.001788, 9.998651 
1.6150963e+3, 1.93984e+2, -897854.75, -1111319.4, -45636.363, 0.0032396526, -0.37716255, -888507.5, 150412.45, 0.0, 10.001526, 9.998698 
1.6151063e+3, 2.0398273e+2, -846740.56, -1043293.1, -53683.64, 0.014167764, -0.3677352, -833033.94, 107898.9, 0.0, 10.001236, 9.998632 
1.6151161e+3, 2.1398157e+2, -797557.44, -969415.44, -55602.043, 0.032563817, -0.35073557, -781137.1, 61808.258, 0.0, 10.000903, 9.998628 
1.6151257e+3, 2.2398041e+2, -717359.75, -830262.5, -67115.34, 0.045460522, -0.34618533, -686111.5, 58845.957, 0.0, 10.0005665, 9.999072 
1.615135e+3, 2.3397939e+2, -665328.25, -748274.9, -61996.39, 0.050730877, -0.3634672, -632212.06, 14755.422, 0.0, 10.000224, 9.999126 
1.6151443e+3, 2.4397863e+2, -592760.44, -627712.1, -63616.113, 0.055452142, -0.3615419, -544263.44, 4711.717, 0.0, 9.999901, 9.999437 
1.6151533e+3, 2.5397843e+2, -535402.0, -544872.6, -66751.7, 0.059165716, -0.33328715, -473217.84, -22239.822, 0.0, 9.999602, 9.999476 
1.6151625e+3, 2.639781e+2, -462245.7, -422251.84, -69441.836, 0.06744659, -0.324369, -369985.06, -17003.344, 0.0, 9.999274, 9.999804 
1.6151717e+3, 2.7397773e+2, -415387.06, -344241.56, -73036.71, 0.08148082, -0.3490311, -298575.28, -43589.7, 0.0, 9.998903, 9.999845 
1.615181e+3, 2.8397766e+2, -339549.9, -220622.22, -45642.52, 0.07624441, -0.3509571, -205124.83, -48138.98, 0.0, 9.998594, 10.00017 
1.6151904e+3, 2.939782e+2, -271798.53, -133357.38, -39917.633, 0.04545133, -0.31895277, -122672.35, -63693.156, 0.0, 9.99837, 10.000203 
1.6152003e+3, 3.0397806e+2, -265744.47, -94656.09, -33939.816, 0.071689904, -0.3600817, -88169.2, -88169.2, 0.0, 9.998032, 10.000297 
1.6152105e+3, 3.1397888e+2, -324503.22, -100081.984, 1044.5208, 0.09586312, -0.30667788, -100077.125, -100077.125, 0.0, 9.997527, 10.0005045 
1.6250245e+3, 1.23984076e+2, -1226115.0, -1691756.6, -25725.41, -0.056203984, -0.50806385, -1224698.0, 500209.06, 0.01572718, 10.004344, 9.998068 
1.625036e+3, 1.3398188e+2, -1234647.0, -1681022.8, 42342.773, -0.06635566, -0.50635403, -1230666.0, 396263.7, 0.0101132095, 10.00373, 9.997764 
1.625048e+3, 1.4398004e+2, -1166472.1, -1543936.0, -3762.233, 0.0416717, -0.48704892, -1166434.6, 362514.34, 0.005019992, 10.003278, 9.998247 
1.6250579e+3, 1.5397854e+2, -1095326.5, -1456036.9, -6735.3003, -0.010243895, -0.46800524, -1095200.9, 335763.6, 0.0016376381, 10.00307, 9.998278 
1.6250679e+3, 1.6397703e+2, -1047311.7, -1385057.8, -18750.635, -0.030171977, -0.44379875, -1046273.94, 286707.44, 0.00024865236, 10.002734, 9.998254 
1.6250783e+3, 1.739756e+2, -1025968.06, -1324571.4, -17707.379, -0.007239032, -0.4144045, -1024921.7, 210077.27, 0.00000475879, 10.00221, 9.998249 
1.6250883e+3, 1.8397424e+2, -956476.3, -1194320.6, -31608.926, 0.0035169104, -0.39026994, -952347.25, 184667.4, 0.0, 10.001816, 9.998661 
1.6250978e+3, 1.9397311e+2, -884492.56, -1103927.4, -35982.863, -0.0025949553, -0.37651202, -878742.75, 160283.42, 0.0, 10.001616, 9.998705 
1.6251074e+3, 2.039719e+2, -828433.3, -1022597.44, -50171.027, 0.003627621, -0.36651838, -816235.6, 124802.94, 0.0, 10.001312, 9.998737 
1.6251169e+3, 2.1397068e+2, -797371.7, -956498.94, -42232.117, 0.027925408, -0.36556214, -786858.0, 56193.066, 0.0, 10.000851, 9.99874 
1.6251262e+3, 2.2396958e+2, -725345.44, -827975.7, -47611.4, 0.04469487, -0.36468592, -706659.94, 38402.523, 0.0, 10.000487, 9.9991255 
1.6251352e+3, 2.3396875e+2, -655978.94, -738756.6, -52467.434, 0.050399162, -0.36643732, -630540.6, 16530.22, 0.0, 10.000269, 9.99917 
1.6251442e+3, 2.4396808e+2, -577611.2, -615189.3, -59872.387, 0.055014875, -0.3607454, -533648.94, 15428.819, 0.0, 9.999983, 9.999482 
1.625153e+3, 2.5396776e+2, -533098.25, -538672.4, -56674.45, 0.058250297, -0.34747267, -479142.38, -28061.166, 0.0, 9.999598, 9.99952 
1.6251618e+3, 2.639674e+2, -464532.75, -420407.78, -52712.96, 0.06507584, -0.34576854, -385326.5, -32241.367, 0.0, 9.999248, 9.999828 
1.6251706e+3, 2.7396715e+2, -407885.4, -338090.94, -50479.62, 0.07563428, -0.36385968, -311620.34, -56531.813, 0.0, 9.998945, 9.9998665 
1.6251795e+3, 2.839672e+2, -335088.03, -216311.89, -24180.455, 0.068977326, -0.35599276, -211577.92, -54490.063, 0.0, 9.998617, 10.000187 
1.6251887e+3, 2.9396787e+2, -288152.53, -139209.78, -33091.363, 0.04144248, -0.31477714, -132188.69, -73108.54, 0.0, 9.998251, 10.00022 
1.6251984e+3, 3.0396742e+2, -284475.9, -102731.37, -30461.127, 0.077708766, -0.3825294, -97761.84, -97761.84, 0.0, 9.997901, 10.000304 
1.625208e+3, 3.139683e+2, -312016.2, -82439.62, 29253.426, 0.09500118, -0.3247364, -78770.68, -78770.68, 0.0, 9.997564, 10.000607 
1.635029e+3, 1.2397344e+2, -1228267.5, -1696913.9, -43252.32, -0.03906427, -0.535889, -1224309.1, 500701.4, 0.016557992, 10.00435, 9.998031 
1.6350397e+3, 1.3397157e+2, -1239796.3, -1692711.6, 18484.188, -0.07123426, -0.49462515, -1239043.1, 387986.75, 0.010688407, 10.003736, 9.997682 
1.6350512e+3, 1.4396967e+2, -1169178.4, -1550870.0, -13662.6045, 0.032985218, -0.47353888, -1168689.9, 360359.75, 0.0053406963, 10.003283, 9.998198 
1.6350609e+3, 1.5396781e+2, -1098027.9, -1462721.5, -14934.113, -0.012344569, -0.48380554, -1097417.3, 333651.16, 0.0017634478, 10.003073, 9.998231 
1.6350707e+3, 1.6396615e+2, -1045003.94, -1381183.6, -37720.363, -0.025865236, -0.4720687, -1040823.6, 292263.03, 0.00027359868, 10.002737, 9.99828 
1.6350806e+3, 1.7396492e+2, -1023083.4, -1319944.5, -37753.586, 0.0027024993, -0.42787433, -1018357.3, 216745.05, 0.000005604758, 10.002214, 9.99828 
1.6350901e+3, 1.8396367e+2, -961538.7, -1206188.5, -40418.355, 0.011370931, -0.3900076, -955034.2, 182083.03, 0.0, 10.00182, 9.998578 
1.6350994e+3, 1.9396256e+2, -891042.56, -1118193.9, -43264.297, -0.0080162985, -0.36561108, -883081.3, 156048.17, 0.0, 10.001617, 9.998607 
1.6351086e+3, 2.0396131e+2, -812994.8, -990975.6, -66281.09, -0.0065596746, -0.36206904, -791023.6, 150118.48, 0.0, 10.001312, 9.998955 
1.6351178e+3, 2.1396004e+2, -779259.2, -919880.75, -59371.105, 0.025757534, -0.39288136, -757545.4, 85608.664, 0.0, 10.000854, 9.998991 
1.6351268e+3, 2.2395898e+2, -728700.8, -836115.25, -56313.355, 0.043727435, -0.39783335, -704589.94, 40574.617, 0.0, 10.00049, 9.999068 
1.6351354e+3, 2.3395842e+2, -662232.75, -752600.56, -59911.547, 0.03965062, -0.36582303, -632376.8, 14794.749, 0.0, 10.000271, 9.999075 
1.635144e+3, 2.4395785e+2, -569633.56, -599423.2, -72833.6, 0.042195037, -0.35057786, -510187.34, 38990.535, 0.0, 9.999985, 9.999591 
1.6351524e+3, 2.5395736e+2, -523393.53, -519662.47, -70164.336, 0.05604229, -0.36579105, -451338.84, -156.8222, 0.0, 9.9996, 9.999651 
1.635161e+3, 2.6395702e+2, -456998.9, -405985.3, -63362.38, 0.06190427, -0.37436977, -363188.47, -10003.056, 0.0, 9.999251, 9.999927 
1.6351692e+3, 2.7395704e+2, -400991.72, -324620.06, -60974.484, 0.052728888, -0.37255973, -290861.16, -35675.117, 0.0, 9.998947, 9.999958 
1.6351779e+3, 2.839572e+2, -345048.22, -237847.22, -36874.85, 0.047970604, -0.34975934, -226388.0, -69203.53, 0.0, 9.998619, 10.000039 
1.6351871e+3, 2.9395774e+2, -300209.22, -165506.55, -45811.965, 0.057465944, -0.30661434, -151402.75, -92223.58, 0.0, 9.998255, 10.000038 
1.6351965e+3, 3.0395693e+2, -265315.22, -64146.402, -42407.766, 0.108915694, -0.410734, -55572.016, -55572.016, 0.0, 9.997904, 10.000568 
1.6352054e+3, 3.13958e+2, -279364.78, -15348.636, 17378.795, 0.07907599, -0.3687394, -14209.596, -14209.596, 0.0, 9.997565, 10.001068 
1.6450338e+3, 1.23963445e+2, -1189806.6, -1683745.5, -29493.182, -0.02300381, -0.5298293, -1188051.8, 537056.7, 0.017420884, 10.004646, 9.997979 
1.6450436e+3, 1.3396141e+2, -1171361.5, -1668283.5, 25397.064, -0.07569716, -0.4971119, -1170066.9, 457061.88, 0.01128914, 10.004252, 9.997599 
1.6450547e+3, 1.4395928e+2, -1105961.6, -1529546.0, -5238.278, 0.026033306, -0.48913205, -1105896.9, 423253.6, 0.0056783757, 10.003762, 9.998113 
1.645064e+3, 1.5395743e+2, -1096345.3, -1471738.8, -9678.435, -0.009362471, -0.49431357, -1096095.9, 335074.16, 0.0018979618, 10.003129, 9.998141 
1.6450734e+3, 1.6395578e+2, -1055633.3, -1379602.3, -32654.436, -0.018825935, -0.47796962, -1052374.6, 280813.38, 0.00030132462, 10.002637, 9.998339 
1.6450828e+3, 1.7395465e+2, -996940.6, -1299115.6, -29842.055, 0.004101313, -0.42930698, -994021.7, 241180.42, 0.0000066039856, 10.00236, 9.998352 
1.645092e+3, 1.8395345e+2, -936573.75, -1193965.6, -27008.63, 0.011583521, -0.39185175, -933770.2, 203446.23, 0.0, 10.001992, 9.998578 
1.645101e+3, 1.9395226e+2, -911439.3, -1129310.8, -23839.63, -0.0020304227, -0.3752634, -908861.25, 130368.63, 0.0, 10.001484, 9.998594 
1.6451098e+3, 2.0395102e+2, -840589.25, -994967.0, -47858.883, -0.0016361271, -0.37394014, -826956.4, 114286.24, 0.0, 10.001084, 9.999037 
1.6451186e+3, 2.1394989e+2, -774295.94, -907322.25, -53098.156, 0.019352542, -0.3986713, -755700.8, 87552.01, 0.0, 10.000845, 9.999081 
1.6451271e+3, 2.2394893e+2, -714489.25, -822561.9, -51112.535, 0.03346222, -0.4018586, -694145.4, 51116.953, 0.0, 10.000561, 9.999126 
1.6451356e+3, 2.3394836e+2, -668102.0, -749623.94, -44408.105, 0.0366998, -0.37451026, -648584.2, -1314.9541, 0.0, 10.000207, 9.999125 
1.645144e+3, 2.4394782e+2, -579885.6, -594081.3, -54395.42, 0.03942792, -0.3628985, -532126.94, 17148.19, 0.0, 9.999872, 9.999681 
1.645152e+3, 2.539474e+2, -522917.06, -508985.7, -55026.953, 0.043024264, -0.3805444, -460485.28, -9206.908, 0.0, 9.99956, 9.9997425 
1.64516e+3, 2.6394713e+2, -455000.8, -399008.88, -50329.793, 0.047346015, -0.3897005, -369412.63, -16131.634, 0.0, 9.99924, 9.999979 
1.6451682e+3, 2.7394724e+2, -403457.16, -320771.6, -51476.406, 0.04887714, -0.38393754, -296091.3, -40810.438, 0.0, 9.99891, 10.000002 
1.6451766e+3, 2.839475e+2, -352666.22, -241871.08, -26470.873, 0.047537234, -0.3546454, -235871.6, -78592.945, 0.0, 9.9985695, 10.000035 
1.6451854e+3, 2.9394805e+2, -308534.28, -170869.1, -23811.695, 0.051947385, -0.30631658, -166866.78, -107593.48, 0.0, 9.998204, 10.000025 
1.6451944e+3, 3.039471e+2, -275088.22, -72490.19, -22615.518, 0.11373331, -0.42816356, -69996.37, -69996.37, 0.0, 9.997854, 10.000534 
1.645203e+3, 3.139482e+2, -275083.56, 2962.2195, 12206.41, 0.085757606, -0.37537, 3497.061, 3497.061, 0.0, 9.997527, 10.001211 
1.6550386e+3, 1.2395418e+2, -1194202.3, -1693249.1, -38887.74, -0.01076876, -0.48834974, -1191190.1, 534010.2, 0.018314196, 10.00465, 9.997911 
1.6550478e+3, 1.3395147e+2, -1176977.3, -1680761.8, 9964.512, -0.08015258, -0.5130698, -1176780.3, 450445.6, 0.011912997, 10.004257, 9.997512 
1.6550584e+3, 1.4394897e+2, -1114288.5, -1548103.4, -28490.412, 0.02048778, -0.53307086, -1112425.4, 416825.44, 0.0060311565, 10.003767, 9.997984 
1.6550672e+3, 1.5394735e+2, -1105049.6, -1491270.1, -33926.855, -0.0016619592, -0.49985427, -1102092.0, 329176.84, 0.002040319, 10.003134, 9.998006 
1.6550761e+3, 1.639459e+2, -1048905.3, -1367049.3, -44691.594, -0.009306176, -0.46228975, -1042746.44, 290538.97, 0.00033169176, 10.002642, 9.998423 
1.6550851e+3, 1.7394483e+2, -988764.2, -1283273.1, -40231.71, -0.0028172943, -0.41908044, -983367.2, 251930.9, 0.000007747774, 10.002363, 9.99846 
1.6550939e+3, 1.8394357e+2, -930968.0, -1183292.0, -45269.313, 0.004292158, -0.39558193, -923092.06, 214220.22, 0.0, 10.001995, 9.998651 
1.6551027e+3, 1.9394217e+2, -906315.9, -1119894.1, -42920.582, 0.014751103, -0.4046421, -898013.4, 141314.1, 0.0, 10.001488, 9.998657 
1.6551112e+3, 2.0394097e+2, -843715.06, -1002742.06, -57654.004, 0.01767664, -0.40158227, -825012.56, 116327.55, 0.0, 10.001088, 9.998981 
1.6551192e+3, 2.139402e+2, -778625.44, -917481.3, -61609.21, 0.0087182745, -0.38393542, -755231.3, 88116.39, 0.0, 10.000849, 9.99901 
1.6551274e+3, 2.2393936e+2, -702728.6, -799120.0, -63455.973, 0.014123255, -0.37800887, -671240.7, 74115.4, 0.0, 10.000564, 9.999288 
1.6551359e+3, 2.3393857e+2, -654986.2, -722969.75, -56974.07, 0.041014064, -0.39194903, -622634.3, 24729.852, 0.0, 10.000208, 9.999309 
1.655144e+3, 2.4393798e+2, -575007.1, -584392.1, -65404.836, 0.046123236, -0.39659205, -514126.7, 35243.164, 0.0, 9.999872, 9.999748 
1.6551512e+3, 2.5393787e+2, -518910.8, -501443.28, -65813.055, 0.01985135, -0.3920758, -443787.0, 7583.7744, 0.0, 9.999562, 9.999794 
1.655159e+3, 2.639377e+2, -454203.9, -398542.72, -61838.824, 0.02193967, -0.39253798, -358560.47, -5187.938, 0.0, 9.999244, 9.999981 
1.6551672e+3, 2.7393767e+2, -403336.25, -321751.1, -62955.543, 0.062247526, -0.3974154, -287527.47, -32153.879, 0.0, 9.998914, 9.999994 
1.6551752e+3, 2.83938e+2, -343555.56, -223927.83, -39313.46, 0.06591198, -0.36971277, -212164.83, -54793.816, 0.0, 9.998572, 10.000157 
1.6551833e+3, 2.9393876e+2, -298935.06, -151406.72, -37055.656, 0.026720915, -0.31403852, -142622.28, -83258.82, 0.0, 9.998205, 10.000159 
1.6551921e+3, 3.039377e+2, -296956.13, -118538.48, -34621.605, 0.09412452, -0.43569198, -112055.766, -112055.766, 0.0, 9.997855, 10.000218 
1.6552009e+3, 3.1393883e+2, -285399.63, -19175.85, 129.83049, 0.11263137, -0.34766883, -19175.787, -19175.787, 0.0, 9.997528, 10.00106 
1.6650435e+3, 1.2394503e+2, -1126655.8, -1666500.1, -17298.137, -0.00002285525, -0.47849897, -1126102.0, 599188.4, 0.019235829, 10.005155, 9.997855 
1.6650522e+3, 1.3394223e+2, -1152086.6, -1674871.8, 26890.91, -0.07811594, -0.5090289, -1150707.0, 476609.4, 0.012557694, 10.004461, 9.997453 
1.6650623e+3, 1.4393955e+2, -1108502.5, -1555738.6, -9738.987, 0.023028402, -0.5378003, -1108290.6, 421052.44, 0.0063973987, 10.003855, 9.997889 
1.6650705e+3, 1.5393794e+2, -1077291.1, -1489129.1, -13088.766, 0.005983929, -0.49379322, -1076875.6, 354485.78, 0.0021897932, 10.003375, 9.997904 
1.665079e+3, 1.6393644e+2, -1009948.56, -1344545.0, -18621.418, -0.0027238033, -0.45651454, -1008915.44, 324462.84, 0.00036457216, 10.002894, 9.998455 
1.6650873e+3, 1.7393526e+2, -978710.2, -1273301.8, -18507.723, -0.006522567, -0.4292509, -977552.0, 257839.34, 0.000009059679, 10.002412, 9.998504 
1.6650958e+3, 1.8393396e+2, -935204.8, -1184262.6, -31035.79, -0.0026239534, -0.41216204, -931395.6, 206009.84, 0.0, 10.001963, 9.998659 
1.6651042e+3, 1.9393265e+2, -895091.56, -1114121.0, -33927.137, 0.015223767, -0.41365552, -889956.7, 149463.33, 0.0, 10.001565, 9.998659 
1.6651124e+3, 2.0393151e+2, -825976.9, -994091.1, -43393.58, 0.020699082, -0.40529728, -815436.94, 125995.47, 0.0, 10.001211, 9.998981 
1.6651201e+3, 2.1393076e+2, -768759.8, -913045.3, -42265.363, 0.00703282, -0.3855379, -757290.7, 86149.39, 0.0, 10.000919, 9.999005 
1.6651279e+3, 2.2392994e+2, -695320.3, -779214.9, -47866.992, 0.009648121, -0.38188708, -673621.56, 71826.4, 0.0, 10.0005455, 9.999432 
1.6651359e+3, 2.3392923e+2, -667643.7, -711063.75, -44255.652, 0.036625903, -0.40475872, -640059.8, 7394.7295, 0.0, 10.000045, 9.999468 
1.6651435e+3, 2.4392873e+2, -604111.44, -595699.3, -49477.613, 0.0409061, -0.41146058, -550249.3, -790.1094, 0.0, 9.999662, 9.999771 
1.6651508e+3, 2.539287e+2, -533876.44, -508264.25, -53069.664, 0.01262517, -0.39873043, -466477.44, -15017.74, 0.0, 9.999459, 9.999797 
1.6651583e+3, 2.6392856e+2, -458666.7, -397303.84, -53349.215, 0.014809084, -0.39749956, -366442.7, -12981.341, 0.0, 9.9992, 10.0000105 
1.665166e+3, 2.739285e+2, -411031.63, -322134.47, -52463.875, 0.057525408, -0.40977147, -297821.63, -42358.855, 0.0, 9.998848, 10.000023 
1.6651738e+3, 2.8392887e+2, -351737.16, -222861.97, -30511.357, 0.06069148, -0.3809625, -216003.38, -58543.56, 0.0, 9.998496, 10.0002 
1.6651812e+3, 2.939298e+2, -304740.38, -149999.36, -35347.508, 0.019071657, -0.31382468, -142307.28, -82856.28, 0.0, 9.998149, 10.0001955 
1.66519e+3, 3.039287e+2, -317862.94, -144551.06, -31942.295, 0.09637573, -0.43225792, -138851.36, -138851.36, 0.0, 9.997782, 10.000073 
1.6651982e+3, 3.139298e+2, -302719.6, -18926.09, 16044.806, 0.1081107, -0.33149898, -18021.848, -18021.848, 0.0, 9.997374, 10.001134 
1.6750488e+3, 1.2393608e+2, -1129982.6, -1673551.3, -37264.133, 0.0055979756, -0.49806184, -1127439.9, 597938.06, 0.020181144, 10.005158, 9.997806 
1.6750568e+3, 1.3393366e+2, -1154331.1, -1680100.6, 253.47565, -0.06984735, -0.4855768, -1154331.0, 473069.47, 0.01322118, 10.004466, 9.997416 
1.6750662e+3, 1.4393105e+2, -1112598.4, -1565386.3, -28837.23, 0.033475976, -0.5044665, -1110769.3, 418657.56, 0.006776567, 10.0038595, 9.997821 
1.6750741e+3, 1.539292e+2, -1081716.8, -1499657.8, -31361.27, 0.01346426, -0.47640923, -1079376.6, 352070.72, 0.0023464474, 10.00338, 9.99783 
1.6750818e+3, 1.6392744e+2, -1011061.94, -1348218.0, -37051.984, 0.0008124935, -0.46019182, -1007038.1, 326428.38, 0.00040014452, 10.002899, 9.998428 
1.6750899e+3, 1.7392597e+2, -979547.25, -1276518.3, -36818.508, -0.0073371204, -0.45908743, -975050.56, 260431.06, 0.00001061599, 10.002417, 9.998481 
1.6750978e+3, 1.8392465e+2, -938440.9, -1192438.8, -46377.95, -0.009312165, -0.4412465, -930237.56, 207258.3, 0.0, 10.001967, 9.998601 
1.6751055e+3, 1.9392367e+2, -898894.75, -1123294.5, -48644.047, -0.00004209376, -0.40317065, -888803.75, 150703.98, 0.0, 10.001569, 9.998595 
1.6751134e+3, 2.039226e+2, -822359.25, -987460.75, -54470.137, 0.007982755, -0.38593322, -806007.94, 135511.7, 0.0, 10.001214, 9.999026 
1.675121e+3, 2.1392152e+2, -764946.25, -905476.8, -52745.715, 0.013766149, -0.40270653, -747351.9, 96178.234, 0.0, 10.000919, 9.999058 
1.6751286e+3, 2.2392067e+2, -686460.75, -761285.56, -65317.33, 0.01927413, -0.4122739, -648600.0, 96938.05, 0.0, 10.0005455, 9.999556 
1.6751358e+3, 2.339203e+2, -657669.6, -691740.9, -62468.18, 0.023855582, -0.41319323, -609955.8, 37584.957, 0.0, 10.00005, 9.999599 
1.6751431e+3, 2.4391998e+2, -605007.75, -599214.2, -57498.32, 0.024177488, -0.4084858, -544539.75, 5003.9253, 0.0, 9.999667, 9.999745 
1.6751502e+3, 2.5391987e+2, -536933.2, -515472.06, -59586.816, 0.02009257, -0.4006798, -465657.3, -14111.716, 0.0, 9.999461, 9.999747 
1.6751574e+3, 2.6391968e+2, -455198.25, -390653.97, -64931.758, 0.024733806, -0.40438718, -350416.63, 3131.3987, 0.0, 9.999201, 10.000056 
1.6751647e+3, 2.739196e+2, -406713.1, -313988.97, -64799.36, 0.036105476, -0.4210966, -280674.2, -25125.127, 0.0, 9.99885, 10.000078 
1.675172e+3, 2.8392005e+2, -353931.47, -228260.89, -42849.926, 0.03336426, -0.38878185, -215041.0, -57495.258, 0.0, 9.998498, 10.000164 
1.6751796e+3, 2.9392105e+2, -308846.44, -158728.66, -47507.227, 0.026986105, -0.3062112, -144957.52, -85420.91, 0.0, 9.998148, 10.000136 
1.675188e+3, 3.0392e+2, -317800.0, -144453.9, -46227.664, 0.118413635, -0.4177462, -132896.53, -132896.53, 0.0, 9.997781, 10.000076 
1.6751952e+3, 3.1392106e+2, -283006.47, 21535.738, -200.8274, 0.07506697, -0.32536042, 21535.871, 21535.871, 0.0, 9.997375, 10.001413 
1.685054e+3, 1.2392762e+2, -1107268.1, -1669264.9, -18787.506, 0.006771731, -0.5149452, -1106640.8, 618819.75, 0.02114371, 10.005354, 9.997742 
1.6850615e+3, 1.339254e+2, -1122021.4, -1668688.8, 11626.97, -0.061423436, -0.47991505, -1121774.1, 505707.34, 0.01390109, 10.004714, 9.997374 
1.6850702e+3, 1.4392276e+2, -1081443.3, -1554746.0, -12368.98, 0.042755347, -0.495956, -1081120.3, 448387.88, 0.0071685663, 10.004097, 9.997779 
1.6850775e+3, 1.5392084e+2, -1066218.4, -1496847.3, -12675.584, 0.012958193, -0.47217852, -1065845.6, 365683.84, 0.0025108194, 10.003509, 9.9977865 
1.6850848e+3, 1.6391897e+2, -1001544.0, -1351904.1, -15578.234, -0.0022044824, -0.45974883, -1000852.7, 332696.78, 0.0004388093, 10.003001, 9.998353 
1.6850924e+3, 1.739174e+2, -955970.1, -1274227.4, -19401.664, -0.0020263821, -0.46104467, -954791.7, 280773.88, 0.000012516376, 10.002619, 9.998398 
1.6850999e+3, 1.8391602e+2, -907631.06, -1179898.3, -31160.213, -0.003352404, -0.44335416, -904110.4, 233469.95, 0.0, 10.002191, 9.998579 
1.6851072e+3, 1.9391505e+2, -883026.0, -1117441.8, -30654.533, -0.004917729, -0.4021258, -879083.6, 160508.33, 0.0, 10.001687, 9.998578 
1.6851145e+3, 2.0391399e+2, -822567.44, -983139.06, -32965.168, -0.0008170444, -0.38519362, -816063.2, 125540.445, 0.0, 10.001195, 9.999064 
1.685122e+3, 2.1391292e+2, -791198.9, -913260.25, -32142.91, 0.011435102, -0.407563, -783251.94, 60362.14, 0.0, 10.00072, 9.9991 
1.685129e+3, 2.2391208e+2, -712538.56, -768149.1, -47035.152, 0.018295541, -0.4202764, -685704.7, 59917.133, 0.0, 10.000344, 9.999605 
1.6851358e+3, 2.3391175e+2, -644831.0, -680188.3, -50625.31, 0.01632495, -0.42035377, -608886.4, 38737.43, 0.0, 10.000116, 9.999645 
1.6851427e+3, 2.4391149e+2, -583144.2, -583954.75, -46436.297, 0.015639778, -0.41632298, -537111.4, 12514.803, 0.0, 9.999799, 9.999786 
1.6851497e+3, 2.5391138e+2, -551891.3, -518455.94, -42673.004, 0.019483097, -0.41169465, -489342.78, -37714.81, 0.0, 9.999342, 9.999783 
1.6851567e+3, 2.639112e+2, -485251.97, -401891.25, -43542.406, 0.025548082, -0.41589496, -383295.63, -29665.521, 0.0, 9.998982, 10.000084 
1.6851634e+3, 2.7391124e+2, -416694.5, -316159.75, -45720.668, 0.027243987, -0.4288084, -298477.25, -42846.684, 0.0, 9.998772, 10.000101 
1.6851702e+3, 2.8391165e+2, -363662.16, -231787.1, -29603.648, 0.018182524, -0.3960156, -225446.45, -67819.29, 0.0, 9.998428, 10.000173 
1.6851774e+3, 2.9391262e+2, -349149.6, -178345.73, -31222.383, 0.01406126, -0.31775942, -172817.33, -113198.66, 0.0, 9.997873, 10.0001335 
1.6851856e+3, 3.0391163e+2, -371778.97, -178550.84, -25793.84, 0.119483165, -0.41999605, -175166.9, -175166.9, 0.0, 9.997446, 10.000002 
1.6851924e+3, 3.139126e+2, -294881.88, 35575.91, 11579.29, 0.06882495, -0.32888785, 35981.152, 35981.152, 0.0, 9.99721, 10.001588 
1.6950594e+3, 1.2391972e+2, -1112927.5, -1680681.6, -37147.582, 0.00020531572, -0.527148, -1110507.3, 615029.9, 0.022119714, 10.005356, 9.997662 
1.6950661e+3, 1.3391745e+2, -1125398.1, -1676176.6, -12859.365, -0.053332552, -0.4915445, -1125098.0, 502461.2, 0.014595548, 10.004718, 9.997321 
1.6950744e+3, 1.4391473e+2, -1082477.1, -1558071.9, -34875.754, 0.050440703, -0.51167166, -1079933.4, 449653.53, 0.007573142, 10.004102, 9.997754 
1.695081e+3, 1.5391286e+2, -1066437.1, -1499199.6, -35132.508, 0.0045562354, -0.48075733, -1063603.5, 368003.97, 0.0026833797, 10.003515, 9.997768 
1.6950877e+3, 1.6391106e+2, -1009302.7, -1369999.6, -31012.527, -0.011694531, -0.45545298, -1006655.7, 326971.4, 0.0004809482, 10.003008, 9.998226 
1.6950952e+3, 1.7390954e+2, -965380.06, -1294980.0, -33721.813, 0.00900965, -0.43631637, -961965.3, 273677.84, 0.000014849569, 10.002623, 9.998255 
1.6951022e+3, 1.8390808e+2, -906881.56, -1179127.5, -49469.83, 0.014594035, -0.41948244, -898171.1, 239487.75, 0.0, 10.0021925, 9.998585 
1.6951089e+3, 1.9390683e+2, -880884.4, -1114263.1, -49390.8, 0.000044368713, -0.4101178, -870862.0, 168810.66, 0.0, 10.001691, 9.998598 
1.6951157e+3, 2.0390569e+2, -819913.06, -979070.06, -50656.11, -0.0059589674, -0.40242788, -805158.2, 136526.45, 0.0, 10.0012, 9.999091 
1.6951226e+3, 2.1390487e+2, -788679.56, -909284.94, -49558.695, 0.00027873972, -0.40065858, -770927.9, 72764.48, 0.0, 10.000724, 9.999126 
1.6951293e+3, 2.2390412e+2, -714026.4, -772161.7, -56004.84, 0.0070585436, -0.40680498, -679995.2, 65704.29, 0.0, 10.000346, 9.999577 
1.695136e+3, 2.3390356e+2, -647485.44, -686115.9, -58266.637, 0.013697449, -0.42631537, -605416.0, 42287.902, 0.0, 10.000116, 9.999606 
1.6951424e+3, 2.4390319e+2, -576209.8, -570019.4, -61695.094, 0.014816985, -0.43446073, -511341.94, 38365.203, 0.0, 9.9998, 9.999883 
1.695149e+3, 2.5390315e+2, -543526.94, -502194.34, -58881.793, 0.011153897, -0.43131772, -460457.44, -8750.11, 0.0, 9.999346, 9.999894 
1.6951555e+3, 2.639031e+2, -484514.72, -401460.47, -51533.074, 0.017603815, -0.4317311, -376804.84, -23096.639, 0.0, 9.998985, 10.000086 
1.6951622e+3, 2.7390322e+2, -417875.16, -318611.2, -52546.773, 0.029683718, -0.432916, -295962.5, -40254.563, 0.0, 9.99877, 10.000086 
1.6951688e+3, 2.8390363e+2, -360814.84, -225590.72, -48097.53, 0.014046348, -0.4026609, -210228.3, -52523.48, 0.0, 9.9984255, 10.000217 
1.6951749e+3, 2.9390445e+2, -345819.56, -172392.58, -51186.863, -0.018041408, -0.34766847, -158411.86, -98713.86, 0.0, 9.997876, 10.000174 
1.6951829e+3, 3.039035e+2, -381752.72, -200465.27, -35125.766, 0.10102699, -0.43724743, -193897.34, -193897.34, 0.0, 9.99745, 9.999851 
1.6951899e+3, 3.1390437e+2, -290811.53, 45089.18, 642.50977, 0.08727473, -0.33848196, 45090.41, 45090.41, 0.0, 9.997203, 10.0016575 
1.7050646e+3, 1.239124e+2, -1088614.1, -1675060.5, -19767.613, -0.0063635395, -0.52940613, -1087948.5, 637660.44, 0.023108616, 10.005561, 9.997602 
1.7050709e+3, 1.3391013e+2, -1118513.1, -1674794.0, 644.7919, -0.050080977, -0.49192053, -1118512.4, 509118.7, 0.015303458, 10.004779, 9.9973 
1.7050786e+3, 1.4390735e+2, -1069907.4, -1556120.5, -10676.835, 0.052978244, -0.51599914, -1069673.0, 459986.47, 0.007989736, 10.0042095, 9.997715 
1.7050846e+3, 1.5390547e+2, -1006129.1, -1474541.6, -11797.871, -0.004129487, -0.48174274, -1005832.1, 425847.9, 0.0028641599, 10.003952, 9.997726 
1.705091e+3, 1.6390364e+2, -946981.25, -1349510.4, -13521.862, -0.022086874, -0.45263675, -946527.5, 387172.38, 0.0005267183, 10.003479, 9.998139 
1.7050977e+3, 1.7390208e+2, -963504.94, -1304462.3, -13858.444, 0.011879272, -0.4290025, -962942.56, 272774.03, 0.000017669796, 10.002681, 9.99816 
1.7051046e+3, 1.8390056e+2, -923526.94, -1187821.0, -21583.488, 0.021624302, -0.4120769, -921775.94, 215956.89, 0.0, 10.002082, 9.998577 
1.7051107e+3, 1.9389924e+2, -866903.9, -1107389.9, -22345.102, -0.0030620988, -0.40918422, -864845.3, 174901.48, 0.0, 10.001787, 9.998598 
1.705117e+3, 2.0389803e+2, -796513.6, -972681.8, -31581.078, -0.012470106, -0.40716726, -791023.25, 150735.98, 0.0, 10.001383, 9.999045 
1.7051233e+3, 2.1389712e+2, -780814.4, -911361.9, -37346.63, 0.0011413378, -0.40975308, -770885.5, 72882.45, 0.0, 10.000805, 9.999072 
1.7051296e+3, 2.2389637e+2, -717552.5, -768260.0, -37739.42, 0.011775214, -0.41485557, -697441.1, 48333.895, 0.0, 10.000299, 9.999625 
1.705136e+3, 2.3389597e+2, -674043.3, -692158.2, -32482.555, 0.016353358, -0.42517957, -649379.06, -1601.1001, 0.0, 9.999907, 9.999664 
1.7051423e+3, 2.4389564e+2, -608643.6, -583112.25, -36210.215, 0.013257261, -0.43239862, -557483.4, -7702.7896, 0.0, 9.999568, 9.999903 
1.7051482e+3, 2.5389552e+2, -547998.3, -502753.2, -40960.61, 0.00292288, -0.44043702, -478583.1, -26801.55, 0.0, 9.99931, 9.999906 
1.7051545e+3, 2.6389545e+2, -487431.97, -395274.88, -36869.13, 0.011246745, -0.44551596, -382340.16, -28557.793, 0.0, 9.998935, 10.000152 
1.7051607e+3, 2.7389565e+2, -470153.38, -335790.03, -32162.527, 0.036818862, -0.4433431, -328488.13, -72707.234, 0.0, 9.998379, 10.0001545 
1.7051668e+3, 2.8389615e+2, -419622.3, -247565.03, -22351.74, 0.017809508, -0.4134466, -244708.75, -86931.61, 0.0, 9.997996, 10.000272 
1.7051727e+3, 2.93897e+2, -343689.94, -166445.45, -25515.213, -0.039781913, -0.35932404, -162845.52, -103075.52, 0.0, 9.997871, 10.000216 
1.7051801e+3, 3.0389625e+2, -385844.53, -207297.06, -14017.5, 0.08641089, -0.43129948, -206203.28, -206203.28, 0.0, 9.997444, 9.999805 
1.7051868e+3, 3.138966e+2, -374781.1, 21560.377, 25180.568, 0.09066468, -0.37850973, 23153.756, 23153.756, 0.0, 9.996556, 10.001806 
1.7150702e+3, 1.2390572e+2, -1092263.3, -1681856.5, -44135.387, -0.016966129, -0.5201816, -1088977.8, 636697.5, 0.02410957, 10.005561, 9.997556 
1.7150757e+3, 1.3390347e+2, -1117796.3, -1674047.5, -29096.125, -0.051387172, -0.48117918, -1116278.5, 511418.56, 0.016024074, 10.004785, 9.997303 
1.7150828e+3, 1.4390062e+2, -1073192.4, -1564425.3, -22568.182, 0.050625645, -0.50930685, -1072157.8, 457568.1, 0.008417934, 10.004216, 9.997656 
1.7150883e+3, 1.5389867e+2, -1010602.56, -1484655.0, -21721.104, -0.013397248, -0.47552124, -1009609.4, 422137.6, 0.0030529967, 10.003955, 9.997657 
1.7150943e+3, 1.6389672e+2, -950376.25, -1357350.5, -41572.113, -0.03367545, -0.45121914, -946173.1, 387594.7, 0.00057611073, 10.003481, 9.998086 
1.7151004e+3, 1.73895e+2, -966127.6, -1311741.5, -44034.617, 0.006803628, -0.43832123, -960605.44, 275180.47, 0.00002102365, 10.002687, 9.998109 
1.7151065e+3, 1.8389346e+2, -924009.7, -1190862.9, -34523.555, 0.018103888, -0.42052603, -919615.6, 218186.56, 0.0, 10.0020895, 9.998554 
1.7151123e+3, 1.938923e+2, -867949.5, -1110686.5, -33032.625, -0.014081203, -0.3998612, -863534.56, 176279.88, 0.0, 10.001791, 9.998575 
1.7151181e+3, 2.03891e+2, -804749.5, -990479.2, -51845.094, -0.020444166, -0.39990538, -791257.44, 150570.3, 0.0, 10.001384, 9.998923 
1.7151242e+3, 2.1388963e+2, -789831.7, -931247.94, -58561.45, 0.013373513, -0.43408677, -768729.75, 75111.29, 0.0, 10.000808, 9.998935 
1.71513e+3, 2.2388881e+2, -708620.1, -751216.94, -52559.445, 0.03156365, -0.4435471, -673207.7, 72641.09, 0.0, 10.000305, 9.999741 
1.715136e+3, 2.3388891e+2, -663030.06, -670702.44, -46444.05, 0.02377452, -0.41731715, -620264.0, 27582.451, 0.0, 9.999911, 9.99981 
1.7151417e+3, 2.4388878e+2, -612132.8, -591432.25, -45645.55, 0.010838059, -0.411111, -554978.2, -5131.004, 0.0, 9.999571, 9.9998455 
1.7151473e+3, 2.5388837e+2, -553837.3, -515509.66, -49543.47, -0.00535639, -0.43958545, -481552.8, -29701.572, 0.0, 9.9993105, 9.999819 
1.7151533e+3, 2.6388818e+2, -478797.4, -377961.6, -55570.195, 0.0061956355, -0.4573592, -353346.1, 507.07553, 0.0, 9.998936, 10.000271 
1.7151593e+3, 2.738885e+2, -459589.9, -314966.63, -52195.85, 0.04830651, -0.45953712, -298096.53, -42246.414, 0.0, 9.998382, 10.000298 
1.7151651e+3, 2.8388909e+2, -415361.84, -239535.58, -28066.37, 0.028886175, -0.4281368, -235164.16, -77319.195, 0.0, 9.997998, 10.000327 
1.7151704e+3, 2.9389018e+2, -341843.1, -161875.58, -29497.387, -0.05245017, -0.35419214, -157164.17, -97328.414, 0.0, 9.997867, 10.000251 
1.7151774e+3, 3.038897e+2, -382865.06, -200377.95, -43977.566, 0.07477761, -0.4028511, -190332.75, -190332.75, 0.0, 9.997439, 9.999857 
1.7151833e+3, 3.1388924e+2, -359280.6, 52400.29, -12606.61, 0.08106427, -0.4427217, 52785.973, 52785.973, 0.0, 9.99656, 10.002017 
1.7250757e+3, 1.23899736e+2, -1115990.6, -1704166.9, -12798.724, -0.010180091, -0.5021284, -1115712.3, 610022.2, 0.025121175, 10.005449, 9.997452 
1.7250806e+3, 1.3389732e+2, -1073316.1, -1658332.0, -6573.121, -0.0597999, -0.47409698, -1073242.3, 554515.56, 0.016756997, 10.005127, 9.997245 
1.725087e+3, 1.4389434e+2, -1016928.1, -1542828.0, -933.54865, 0.038575076, -0.50835687, -1016926.44, 512861.16, 0.0088575315, 10.004634, 9.997602 
1.7250924e+3, 1.5389243e+2, -1024778.2, -1497394.6, 447.86124, -0.0030249455, -0.4666529, -1024777.75, 407030.7, 0.0032496543, 10.003884, 9.997602 
1.7250977e+3, 1.6389044e+2, -978460.44, -1373787.4, -19621.225, -0.019100685, -0.44278014, -977488.94, 356340.53, 0.00062906195, 10.003302, 9.998058 
1.7251031e+3, 1.7388856e+2, -926161.1, -1295446.3, -20819.896, -0.0020758088, -0.44307435, -924991.06, 310857.78, 0.00002497822, 10.002976, 9.998081 
1.7251086e+3, 1.838869e+2, -868781.5, -1174042.6, -10462.321, 0.0021921278, -0.43210647, -868423.4, 269442.72, 0.0, 10.002512, 9.998465 
1.7251141e+3, 1.9388567e+2, -868102.75, -1121669.8, -14723.773, -0.011847761, -0.40845782, -867250.6, 172628.22, 0.0, 10.001839, 9.998476 
1.7251197e+3, 2.0388433e+2, -823482.3, -1002216.06, -33901.137, -0.010360239, -0.40513864, -817268.2, 124624.33, 0.0, 10.001268, 9.9988985 
1.7251252e+3, 2.13883e+2, -784092.2, -930447.5, -32389.568, 0.015424334, -0.4351956, -777244.56, 66661.28, 0.0, 10.000857, 9.998916 
1.7251305e+3, 2.2388214e+2, -691933.8, -746080.9, -24142.828, 0.029939907, -0.44415247, -682732.7, 63181.11, 0.0, 10.000434, 9.999713 
1.725136e+3, 2.3388219e+2, -654173.8, -669830.06, -30953.56, 0.025285972, -0.42357883, -630073.9, 17838.154, 0.0, 9.999989, 9.999778 
1.7251413e+3, 2.4388202e+2, -612925.3, -586338.0, -32131.002, 0.013708259, -0.41954443, -564859.2, -14946.401, 0.0, 9.999544, 9.999892 
1.7251466e+3, 2.538817e+2, -580903.4, -522345.88, -25982.951, -0.0038716162, -0.4435479, -512479.28, -60563.27, 0.0, 9.999101, 9.999872 
1.7251521e+3, 2.638816e+2, -511638.13, -392655.9, -32986.656, 0.007039705, -0.45656335, -384122.7, -30205.508, 0.0, 9.998707, 10.000279 
1.7251576e+3, 2.7388194e+2, -458982.06, -314553.06, -40405.945, 0.048848014, -0.4567503, -304017.47, -48103.688, 0.0, 9.998387, 10.000297 
1.725163e+3, 2.8388247e+2, -418028.25, -229831.45, -19590.988, 0.028828481, -0.43707797, -227813.69, -69904.51, 0.0, 9.997934, 10.000423 
1.725168e+3, 2.938834e+2, -421638.2, -189121.48, -16353.404, -0.050267458, -0.38680428, -187976.95, -128075.96, 0.0, 9.9972725, 10.000348 
1.7251746e+3, 3.0388337e+2, -473375.22, -236890.84, -32692.256, 0.07928954, -0.398484, -232454.61, -232454.61, 0.0, 9.99679, 9.999918 
1.7251796e+3, 3.138829e+2, -347675.1, 73355.414, -7735.272, 0.05160104, -0.44840106, 73497.48, 73497.48, 0.0, 9.996576, 10.002152 
1.7350814e+3, 1.23894505e+2, -1127735.0, -1727891.5, -22293.191, 0.010493952, -0.4738145, -1126908.0, 598878.25, 0.02614515, 10.00545, 9.997286 
1.7350855e+3, 1.3389173e+2, -1081617.4, -1676182.3, -19377.969, -0.07552944, -0.47053823, -1080986.5, 546826.6, 0.017502755, 10.005131, 9.997122 
1.7350915e+3, 1.4388858e+2, -1020242.44, -1550874.8, -27523.945, 0.016640574, -0.51296216, -1018818.56, 511026.03, 0.009308206, 10.00464, 9.997545 
1.7350966e+3, 1.5388678e+2, -1026926.5, -1503513.3, -28154.58, 0.026260782, -0.4551438, -1025269.06, 406595.13, 0.0034536987, 10.003891, 9.997559 
1.7351015e+3, 1.6388479e+2, -978093.9, -1374790.1, -33605.418, 0.020723315, -0.42759404, -975267.2, 358617.72, 0.00068548496, 10.003308, 9.99805 
1.7351061e+3, 1.7388277e+2, -926012.06, -1296701.9, -33083.773, -0.014811682, -0.44359756, -923082.56, 312822.84, 0.00002961696, 10.002981, 9.998071 
1.7351109e+3, 1.8388088e+2, -879069.75, -1196853.9, -34397.844, -0.025887934, -0.44670168, -875389.06, 262535.4, 0.0, 10.002517, 9.998307 
1.7351161e+3, 1.9387935e+2, -879784.3, -1147358.9, -39853.35, 0.0029310384, -0.43409106, -873974.56, 165965.58, 0.0, 10.0018425, 9.998299 
1.7351212e+3, 2.0387803e+2, -818377.8, -993021.0, -49929.453, 0.016864527, -0.4223542, -805111.06, 136842.72, 0.0, 10.001273, 9.99896 
1.7351258e+3, 2.1387717e+2, -777016.4, -917261.6, -47318.332, 0.007544661, -0.41431907, -762544.6, 81418.07, 0.0, 10.000862, 9.999005 
1.7351307e+3, 2.2387634e+2, -703114.5, -770777.94, -40167.02, 0.007783547, -0.417951, -684429.75, 61540.668, 0.0, 10.000439, 9.999542 
1.7351359e+3, 2.3387572e+2, -668181.94, -699972.1, -46736.48, 0.021132862, -0.44306463, -634711.5, 13263.354, 0.0, 9.999991, 9.999571 
1.7351408e+3, 2.4387532e+2, -602709.4, -565973.44, -47734.94, 0.021428041, -0.45617777, -533194.5, 16783.217, 0.0, 9.999546, 10.000031 
1.7351457e+3, 2.5387546e+2, -567826.4, -496019.84, -41574.24, 0.0066502397, -0.45220664, -476991.66, -25015.26, 0.0, 9.999103, 10.000053 
1.7351508e+3, 2.6387563e+2, -518741.0, -408166.88, -44619.53, 0.013375897, -0.44385427, -392407.72, -38432.617, 0.0, 9.998709, 10.000173 
1.735156e+3, 2.7387592e+2, -468838.38, -335712.16, -51371.855, 0.03860918, -0.4357189, -318193.66, -62221.016, 0.0, 9.998389, 10.000151 
1.7351608e+3, 2.8387615e+2, -408499.97, -210674.14, -42248.41, 0.01772646, -0.44032925, -202029.2, -44058.676, 0.0, 9.997935, 10.000555 
1.7351654e+3, 2.9387665e+2, -410537.9, -166552.34, -40517.203, -0.034012113, -0.45516804, -159999.88, -100033.56, 0.0, 9.997273, 10.0005045 
1.7351717e+3, 3.038772e+2, -468760.25, -227835.48, -41925.383, 0.0989556, -0.4163431, -220748.17, -220748.17, 0.0, 9.99679, 9.999981 
1.7351757e+3, 3.138775e+2, -344777.4, 79189.83, -21483.586, 0.004066766, -0.39165285, 80275.68, 80275.68, 0.0, 9.996575, 10.002193 
1.7450869e+3, 1.2388935e+2, -1104930.6, -1721669.5, -4198.3794, 0.0050514997, -0.47341287, -1104902.0, 620934.6, 0.02718573, 10.005641, 9.997236 
1.7450908e+3, 1.3388655e+2, -1063414.3, -1667007.1, 4015.8928, -0.0718367, -0.4719478, -1063387.5, 564476.1, 0.018261539, 10.005262, 9.99712 
1.7450963e+3, 1.4388336e+2, -999461.5, -1541891.3, -8696.983, 0.020795932, -0.5178026, -999322.06, 530573.25, 0.009768522, 10.004792, 9.997532 
1.7451006e+3, 1.5388149e+2, -986447.75, -1485296.3, -8979.76, 0.02637365, -0.4651895, -986286.2, 445629.06, 0.003664049, 10.004178, 9.997544 
1.745105e+3, 1.6387948e+2, -939275.1, -1367666.4, -6696.046, 0.019639235, -0.43513855, -939170.5, 394765.78, 0.0007450982, 10.003627, 9.997944 
1.7451091e+3, 1.7387748e+2, -905410.75, -1300077.1, -13552.061, -0.012700131, -0.4374598, -904945.94, 331011.16, 0.00003499582, 10.003182, 9.99795 
1.7451136e+3, 1.838755e+2, -862299.3, -1192129.8, -25157.387, -0.020748856, -0.44024715, -860391.5, 277585.63, 0.0, 10.002648, 9.998276 
1.7451182e+3, 1.9387376e+2, -862308.7, -1141473.6, -21023.203, 0.011087061, -0.4476901, -860734.4, 179260.05, 0.0, 10.001975, 9.998275 
1.7451225e+3, 2.0387235e+2, -805153.1, -995689.0, -20931.25, 0.02378383, -0.43851408, -802880.8, 139127.84, 0.0, 10.001405, 9.998878 
1.7451267e+3, 2.1387166e+2, -764517.94, -921585.7, -30871.848, 0.0066165356, -0.40561628, -758667.94, 85348.76, 0.0, 10.000995, 9.998911 
1.7451312e+3, 2.2387081e+2, -691129.0, -764324.1, -29338.5, 0.004303639, -0.40558285, -680821.0, 65203.594, 0.0, 10.00052, 9.999546 
1.745136e+3, 2.3386991e+2, -674380.06, -701208.94, -20843.73, 0.023000149, -0.46067464, -663007.25, -14976.281, 0.0, 9.999943, 9.999584 
1.7451404e+3, 2.4386941e+2, -619023.4, -573236.75, -14698.604, 0.025165105, -0.48450285, -568924.3, -18889.852, 0.0, 9.9994335, 10.000035 
1.7451449e+3, 2.5386977e+2, -579226.4, -501381.8, -21480.518, 0.007871632, -0.45939755, -495847.88, -43816.336, 0.0, 9.999025, 10.000052 
1.7451495e+3, 2.638701e+2, -534366.7, -413598.97, -26926.744, 0.0132602025, -0.43756306, -407867.3, -53838.23, 0.0, 9.998594, 10.00019 
1.7451541e+3, 2.7387035e+2, -505624.75, -351574.63, -22031.6, 0.037214365, -0.4323524, -348485.72, -92459.1, 0.0, 9.99813, 10.000166 
1.7451586e+3, 2.838705e+2, -446644.9, -223334.38, -16148.296, 0.012222441, -0.4529777, -222172.69, -64147.152, 0.0, 9.997651, 10.000605 
1.7451625e+3, 2.9387075e+2, -427727.47, -169004.95, -23655.385, -0.04441096, -0.49234566, -166859.89, -106837.06, 0.0, 9.997132, 10.000554 
1.7451683e+3, 3.0387184e+2, -489006.5, -231203.69, -20601.951, 0.0944323, -0.41024464, -229567.7, -229567.7, 0.0, 9.996625, 10.000036 
1.7451718e+3, 3.1387207e+2, -412483.25, 39378.824, -6471.946, -0.006557123, -0.39319038, 39471.504, 39471.504, 0.0, 9.996143, 10.002128 
1.7550921e+3, 1.2388431e+2, -1101039.8, -1713853.4, -16312.638, -0.029035266, -0.49936423, -1100605.8, 625279.3, 0.028246013, 10.005647, 9.99729 
1.7550963e+3, 1.3388184e+2, -1056037.0, -1651185.4, -10763.199, -0.04933184, -0.47815546, -1055842.4, 572066.7, 0.01903256, 10.005264, 9.997229 
1.7551014e+3, 1.4387871e+2, -998095.94, -1539005.0, -31016.133, 0.050184097, -0.52281296, -996323.25, 533616.5, 0.010236293, 10.004793, 9.997553 
1.7551045e+3, 1.538766e+2, -985024.4, -1483885.0, -32580.002, -0.001794395, -0.49593773, -982905.56, 449055.9, 0.0038791557, 10.004185, 9.997552 
1.7551081e+3, 1.638745e+2, -952557.1, -1397243.8, -24458.443, -0.02106881, -0.46446884, -951215.94, 382767.6, 0.00080735167, 10.003634, 9.997739 
1.7551124e+3, 1.738727e+2, -921294.6, -1333909.3, -30266.281, 0.003460704, -0.42484984, -919086.3, 316917.66, 0.00004108452, 10.003184, 9.997718 
1.7551164e+3, 1.8387078e+2, -856267.6, -1180178.5, -49290.715, 0.016111204, -0.4136187, -848933.0, 289091.03, 0.000000000016639355, 10.002649, 9.998358 
1.7551202e+3, 1.9386885e+2, -852969.94, -1123881.8, -46179.02, 0.012713009, -0.44993886, -845314.7, 194727.22, 0.0, 10.001982, 9.998393 
1.7551239e+3, 2.038673e+2, -819950.56, -1028511.44, -37089.906, 0.011145428, -0.45368695, -813550.94, 128506.54, 0.0, 10.001412, 9.99865 
1.7551278e+3, 2.1386644e+2, -783311.75, -961615.9, -45536.902, 0.012282642, -0.40839857, -772355.4, 71712.484, 0.0, 10.000998, 9.998635 
1.7551318e+3, 2.2386554e+2, -679238.9, -740270.75, -49529.215, 0.018492427, -0.4063854, -651579.5, 94496.94, 0.0, 10.000521, 9.999712 
1.7551358e+3, 2.338647e+2, -658365.8, -669197.0, -41747.574, 0.03032419, -0.47660303, -621684.0, 26396.854, 0.0, 9.999947, 9.999804 
1.7551398e+3, 2.4386422e+2, -627577.25, -592409.8, -29919.303, 0.025023745, -0.50481755, -575289.75, -25206.057, 0.0, 9.999437, 9.999903 
1.7551439e+3, 2.5386456e+2, -591352.25, -527486.75, -35781.926, -0.000026464058, -0.4648948, -511460.7, -59378.742, 0.0, 9.999028, 9.999872 
1.755148e+3, 2.6386487e+2, -525172.56, -394981.72, -43275.223, 0.0065397387, -0.43717635, -381909.63, -27829.973, 0.0, 9.998595, 10.000318 
1.7551525e+3, 2.7386516e+2, -494497.78, -328283.5, -38458.58, 0.044265162, -0.44594434, -319816.28, -63739.926, 0.0, 9.998128, 10.000328 
1.755156e+3, 2.838653e+2, -449597.56, -229506.16, -34600.477, 0.012231115, -0.47481444, -224194.8, -66119.71, 0.0, 9.997649, 10.000564 
1.7551593e+3, 2.9386565e+2, -431204.22, -177700.28, -42777.105, -0.08082314, -0.49959806, -170676.53, -110604.875, 0.0, 9.997137, 10.000493 
1.7551647e+3, 3.0386707e+2, -484104.25, -222870.67, -38322.707, 0.065894604, -0.38068002, -217364.81, -217364.81, 0.0, 9.996632, 10.000092 
1.7551683e+3, 3.1386667e+2, -425368.88, 12891.932, -31766.762, 0.018528126, -0.43523806, 15182.531, 15182.531, 0.0, 9.9961405, 10.001947 
1.7650978e+3, 1.23879924e+2, -1047434.56, -1695444.0, 15283.656, -0.049243808, -0.52867484, -1047074.25, 678852.4, 0.029328685, 10.006067, 9.997217 
1.7651016e+3, 1.3387756e+2, -1058081.8, -1655123.0, 7977.209, -0.04238199, -0.49110168, -1057975.3, 569974.4, 0.019816091, 10.005269, 9.997198 
1.7651062e+3, 1.4387447e+2, -1016589.4, -1553069.4, -14304.666, 0.06253001, -0.5300457, -1016208.2, 513772.1, 0.010710205, 10.004691, 9.997504 
1.7651087e+3, 1.538722e+2, -949717.44, -1472210.8, -20196.586, -0.008762308, -0.51236963, -948937.9, 483065.5, 0.004097559, 10.004455, 9.9975 
1.7651118e+3, 1.6387005e+2, -909172.1, -1383486.4, -18447.885, -0.03079196, -0.48254937, -908455.7, 425570.63, 0.0008714784, 10.003965, 9.997672 
1.7651157e+3, 1.7386825e+2, -939709.0, -1350353.4, -13917.227, 0.01684801, -0.43288496, -939237.9, 296809.0, 0.000047732003, 10.003092, 9.997648 
1.7651193e+3, 1.8386637e+2, -886156.94, -1197909.5, -23391.955, 0.03641632, -0.41350558, -884411.5, 253655.33, 0.0000000004293444, 10.00246, 9.998326 
1.7651223e+3, 1.9386446e+2, -822482.8, -1112246.3, -30581.285, 0.014517923, -0.4447876, -819290.5, 220794.02, 0.0, 10.002206, 9.998364 
1.7651254e+3, 2.0386286e+2, -775383.3, -1012898.2, -27030.178, 0.0071904673, -0.45064923, -772346.0, 169754.67, 0.0, 10.001745, 9.998595 
1.765129e+3, 2.1386182e+2, -792841.9, -972717.75, -20997.1, 0.02275291, -0.4184452, -790423.4, 53689.5, 0.0, 10.000961, 9.998576 
1.7651324e+3, 2.2386087e+2, -706672.56, -754048.7, -17759.46, 0.03170564, -0.41767, -700754.5, 45367.426, 0.0, 10.000336, 9.999705 
1.7651358e+3, 2.3386018e+2, -656996.6, -668623.4, -25761.479, 0.028054064, -0.47095573, -636400.75, 11723.94, 0.0, 9.999958, 9.999802 
1.7651393e+3, 2.4385971e+2, -622779.25, -594209.06, -21359.107, 0.014771015, -0.49793825, -582798.3, -32670.77, 0.0, 9.99949, 9.999865 
1.7651427e+3, 2.538598e+2, -615981.25, -544373.25, -18046.266, -0.0066651455, -0.4799868, -540082.44, -87954.08, 0.0, 9.998881, 9.999826 
1.7651466e+3, 2.6386008e+2, -559829.06, -398997.4, -20644.865, 0.0052386094, -0.45551696, -396389.66, -42263.613, 0.0, 9.998304, 10.00043 
1.7651504e+3, 2.7386075e+2, -537368.2, -334140.4, -18332.527, 0.05060712, -0.44227463, -332499.94, -76380.875, 0.0, 9.997771, 10.000459 
1.7651537e+3, 2.838609e+2, -498265.8, -253625.72, -11883.179, 0.013968451, -0.4739382, -253049.86, -94932.73, 0.0, 9.99732, 10.000556 
1.7651561e+3, 2.9386094e+2, -454503.88, -191071.34, -16878.107, -0.10061327, -0.5300039, -189994.38, -129877.68, 0.0, 9.996987, 10.000472 
1.765161e+3, 3.038626e+2, -483462.16, -199363.86, -10852.294, 0.0479724, -0.39228654, -198949.9, -198949.9, 0.0, 9.996537, 10.000298 
1.7651643e+3, 3.138623e+2, -472031.7, -21264.893, -2677.5332, 0.02029549, -0.45867762, -21248.988, -21248.988, 0.0, 9.9958725, 10.001841 
1.7751038e+3, 1.238762e+2, -1062044.4, -1724115.0, -12084.393, -0.05857703, -0.5600281, -1061823.9, 664137.0, 0.03043967, 10.006065, 9.997016 
1.7751068e+3, 1.3387379e+2, -1069165.9, -1679551.9, -22296.424, -0.05095398, -0.5105254, -1068352.5, 559632.5, 0.020615619, 10.005276, 9.997028 
1.7751108e+3, 1.4387065e+2, -1024226.06, -1570724.6, -25775.66, 0.057963576, -0.5394181, -1023013.0, 507003.75, 0.011190997, 10.004699, 9.99738 
1.7751133e+3, 1.5386833e+2, -957747.3, -1489153.9, -29310.385, 0.0046161767, -0.51512057, -956135.56, 475905.25, 0.0043184585, 10.004455, 9.997385 
1.775116e+3, 1.6386609e+2, -905051.56, -1374994.5, -48849.29, -0.010781699, -0.48987594, -900027.5, 434037.06, 0.0009367298, 10.003964, 9.997732 
1.7751189e+3, 1.7386419e+2, -933048.3, -1338467.9, -46976.453, 0.027383396, -0.460671, -927676.25, 308409.4, 0.00005469773, 10.003099, 9.997727 
1.7751217e+3, 1.8386228e+2, -895139.2, -1218891.8, -35310.063, 0.04063996, -0.4387241, -891332.8, 246772.81, 0.0000000022461928, 10.002468, 9.998179 
1.7751244e+3, 1.9386059e+2, -834618.9, -1138117.5, -39605.816, 0.016455794, -0.4324977, -829535.56, 210586.83, 0.0, 10.002207, 9.998187 
1.7751272e+3, 2.03859e+2, -767904.2, -997596.25, -53801.36, 0.011425868, -0.4301691, -755926.7, 186211.84, 0.0, 10.001744, 9.998702 
1.77513e+3, 2.1385773e+2, -782127.9, -952018.25, -50036.49, 0.037439514, -0.43540236, -768486.4, 75665.68, 0.0, 10.000966, 9.998716 
1.7751329e+3, 2.2385673e+2, -717972.9, -779445.4, -32928.27, 0.043779712, -0.43890166, -703664.8, 42496.543, 0.0, 10.000342, 9.999529 
1.7751355e+3, 2.3385632e+2, -671933.06, -700427.5, -38932.074, 0.016675344, -0.44478, -644723.2, 3439.7043, 0.0, 9.99996, 9.999583 
1.7751385e+3, 2.4385582e+2, -619514.25, -587704.6, -42261.414, -0.005233084, -0.46537247, -558454.25, -8287.6875, 0.0, 9.99949, 9.99991 
1.7751417e+3, 2.538554e+2, -610454.94, -533550.4, -39773.93, -0.012151328, -0.5043786, -516680.5, -64509.23, 0.0, 9.998883, 9.999901 
1.7751448e+3, 2.6385567e+2, -553245.94, -386251.5, -40025.96, 0.009142807, -0.4916157, -377153.56, -22984.781, 0.0, 9.998306, 10.000517 
1.7751484e+3, 2.7385697e+2, -530457.2, -320807.97, -37593.535, 0.055247866, -0.421757, -314270.7, -58115.188, 0.0, 9.997774, 10.000549 
1.775151e+3, 2.838572e+2, -496330.34, -250287.8, -24718.617, 0.016099595, -0.4510796, -247829.03, -89676.516, 0.0, 9.997321, 10.00058 
1.7751531e+3, 2.9385647e+2, -453561.78, -188695.88, -28576.305, -0.10413871, -0.58261055, -185647.86, -125489.17, 0.0, 9.9969845, 10.000491 
1.7751575e+3, 3.0385837e+2, -460049.13, -150293.72, -33439.145, 0.0406775, -0.44392517, -146724.97, -146724.97, 0.0, 9.996533, 10.000637 
1.77516e+3, 3.1385908e+2, -476702.1, -31569.885, -36157.88, -0.000580171, -0.44533688, -28651.926, -28651.926, 0.0, 9.995874, 10.00177 
1.78511e+3, 1.23873115e+2, -1075174.4, -1739248.5, -2090.828, -0.04313776, -0.56333566, -1075167.9, 650822.4, 0.031584825, 10.006019, 9.996933 
1.7851122e+3, 1.3387056e+2, -1023111.7, -1662011.9, -6850.642, -0.062875085, -0.52348495, -1023038.2, 604977.3, 0.02143465, 10.005628, 9.996979 
1.7851156e+3, 1.4386734e+2, -978685.75, -1559717.5, -3046.5564, 0.038134214, -0.55239415, -978669.75, 551378.4, 0.011679847, 10.005068, 9.997276 
1.7851178e+3, 1.5386502e+2, -992884.25, -1518026.6, -6044.3506, 0.013491255, -0.51886106, -992814.7, 439258.25, 0.004541427, 10.004267, 9.997276 
1.7851199e+3, 1.6386275e+2, -946558.44, -1391751.5, -28160.402, 0.0077773123, -0.49153516, -944784.25, 389312.8, 0.0010024538, 10.003668, 9.997759 
1.7851222e+3, 1.7386077e+2, -888844.94, -1312330.0, -29862.357, 0.026601935, -0.4718911, -886749.5, 349368.44, 0.00006171727, 10.003384, 9.997768 
1.7851244e+3, 1.8385884e+2, -838879.56, -1199391.5, -16635.908, 0.035339087, -0.4546321, -838113.5, 300024.75, 0.0000000068240182, 10.00289, 9.998109 
1.7851268e+3, 1.938571e+2, -860387.1, -1160003.1, -14614.103, 0.029376162, -0.44515267, -859676.0, 180480.02, 0.0, 10.002073, 9.9981 
1.7851289e+3, 2.038555e+2, -811492.56, -1015771.6, -28970.596, 0.027226277, -0.43941724, -807463.5, 134708.94, 0.0, 10.001434, 9.998725 
1.785131e+3, 2.138543e+2, -764246.56, -939237.7, -33251.637, 0.032483935, -0.44094232, -758141.1, 86043.83, 0.0, 10.001073, 9.998753 
1.7851332e+3, 2.2385332e+2, -692390.06, -776884.94, -17893.922, 0.031955764, -0.44141728, -688756.8, 57437.48, 0.0, 10.000562, 9.99944 
1.7851356e+3, 2.3385282e+2, -700054.7, -725794.25, -16225.625, 0.019384876, -0.44568276, -692214.5, -44017.246, 0.0, 9.999819, 9.9994755 
1.785138e+3, 2.4385227e+2, -660799.75, -601347.94, -14285.787, 0.0030948184, -0.46482828, -598093.4, -47891.977, 0.0, 9.99918, 9.999965 
1.7851403e+3, 2.5385195e+2, -631386.2, -535284.75, -12190.602, -0.011523002, -0.50224787, -533762.5, -81557.58, 0.0, 9.998705, 9.999974 
1.785143e+3, 2.6385224e+2, -573377.8, -398710.94, -16950.541, 0.004078006, -0.48998332, -397081.2, -42879.2, 0.0, 9.998181, 10.000491 
1.7851458e+3, 2.7385345e+2, -560679.75, -339893.5, -23899.828, 0.04650973, -0.42431435, -337336.0, -81146.51, 0.0, 9.997587, 10.000508 
1.7851481e+3, 2.8385368e+2, -533836.06, -255699.27, -9875.68, 0.008559308, -0.4585152, -255349.06, -97162.47, 0.0, 9.99701, 10.000691 
1.7851497e+3, 2.9385304e+2, -520245.28, -204271.48, -4774.9414, -0.10093311, -0.59407175, -204199.34, -144007.83, 0.0, 9.996456, 10.000638 
1.7851537e+3, 3.0385512e+2, -511326.5, -139899.72, -5522.434, 0.04540001, -0.46036637, -139817.64, -139817.64, 0.0, 9.996032, 10.00095 
1.7851557e+3, 3.138561e+2, -508337.9, -62270.457, -22336.693, -0.015130046, -0.4623931, -61154.746, -61154.746, 0.0, 9.995726, 10.00163 
1.7951164e+3, 1.2387071e+2, -1074156.4, -1736477.1, -15102.357, -0.0069067115, -0.53933483, -1073812.1, 652201.9, 0.032762423, 10.0060215, 9.996952 
1.7951176e+3, 1.338679e+2, -1019610.5, -1654049.3, -22202.041, -0.07763459, -0.53039634, -1018834.5, 609206.3, 0.022272544, 10.005628, 9.997034 
1.7951202e+3, 1.4386457e+2, -985105.7, -1573147.8, -31951.955, 0.0039780443, -0.56884366, -983374.6, 546699.5, 0.012176583, 10.005068, 9.997186 
1.795122e+3, 1.5386225e+2, -999837.3, -1533634.8, -36495.324, 0.017494038, -0.52357435, -997353.75, 434745.88, 0.0047662077, 10.004271, 9.997169 
1.795124e+3, 1.6386002e+2, -946821.1, -1393684.3, -41019.523, 0.024487508, -0.48780736, -943087.0, 391036.72, 0.0010682069, 10.003673, 9.997745 
1.7951255e+3, 1.7385805e+2, -888670.1, -1312769.0, -40455.063, 0.015063485, -0.4672609, -884845.56, 351298.28, 0.00006858208, 10.003386, 9.997766 
1.7951271e+3, 1.8385598e+2, -838842.2, -1199959.8, -45102.586, 0.020872831, -0.46158242, -833294.25, 304870.56, 0.000000015228453, 10.002891, 9.998106 
1.795129e+3, 1.9385394e+2, -860133.44, -1160621.8, -45174.234, 0.05239136, -0.48159677, -853489.06, 186696.39, 0.0, 10.002076, 9.9980955 
1.7951307e+3, 2.0385231e+2, -815234.56, -1024768.6, -43908.836, 0.053770754, -0.47700316, -806405.3, 135797.14, 0.0, 10.001438, 9.998663 
1.7951319e+3, 2.1385147e+2, -768875.75, -949630.0, -46050.71, 0.008990331, -0.4355951, -757819.7, 86392.33, 0.0, 10.001075, 9.998681 
1.7951334e+3, 2.2385053e+2, -692862.06, -778559.5, -43471.79, -0.0025987716, -0.42609087, -674671.4, 71549.69, 0.0, 10.000564, 9.999429 
1.7951354e+3, 2.3384961e+2, -700104.75, -726875.44, -43367.24, 0.035101883, -0.47232527, -668104.2, -19875.986, 0.0, 9.999822, 9.999468 
1.7951375e+3, 2.4384905e+2, -656292.3, -593034.06, -32255.018, 0.038083635, -0.4945721, -579488.1, -29255.635, 0.0, 9.999183, 10.000021 
1.7951392e+3, 2.5384936e+2, -626493.44, -525753.75, -29112.236, -0.0055214106, -0.47459555, -517945.9, -65715.9, 0.0, 9.998705, 10.00004 
1.795141e+3, 2.6384974e+2, -582695.25, -418683.44, -37970.547, -0.010011309, -0.45255566, -410319.38, -56092.887, 0.0, 9.998182, 10.000355 
1.7951432e+3, 2.7385017e+2, -572197.56, -364732.06, -45185.22, 0.02557633, -0.4498032, -355318.06, -99096.37, 0.0, 9.997589, 10.000338 
1.7951448e+3, 2.8385025e+2, -520382.6, -228486.58, -30139.904, -0.0076252804, -0.49514478, -225406.95, -67187.0, 0.0, 9.997011, 10.000878 
1.7951463e+3, 2.938505e+2, -502424.03, -167233.66, -24903.008, -0.093043044, -0.56473047, -165393.58, -105177.52, 0.0, 9.996454, 10.000895 
1.79515e+3, 3.038528e+2, -491179.13, -98126.62, -16612.254, 0.059472702, -0.44369298, -97425.75, -97425.75, 0.0, 9.99603, 10.001239 
1.7951512e+3, 3.1385362e+2, -523520.0, -94291.6, -43327.08, -0.022571638, -0.4837015, -89961.766, -89961.766, 0.0, 9.995727, 10.0014105 
1.8051225e+3, 1.238686e+2, -1071191.9, -1738375.3, 4956.3433, 0.0018272634, -0.52958745, -1071155.0, 654879.44, 0.033963777, 10.006066, 9.996916 
1.8051232e+3, 1.3386557e+2, -1025788.06, -1656543.0, -8385.442, -0.07458626, -0.54320896, -1025676.6, 602386.6, 0.023125239, 10.005589, 9.997034 
1.8051252e+3, 1.4386223e+2, -989446.8, -1574880.6, -27109.58, 0.0016384905, -0.58185893, -988194.1, 541902.4, 0.01268006, 10.005041, 9.997185 
1.8051265e+3, 1.5386014e+2, -984229.9, -1526115.9, -25925.523, 0.018552693, -0.5155299, -982992.3, 449127.88, 0.0049927942, 10.004381, 9.997166 
1.8051277e+3, 1.638579e+2, -932943.25, -1389763.0, -15585.286, 0.027580645, -0.47608778, -932412.1, 401731.94, 0.0011338774, 10.003782, 9.997717 
1.8051288e+3, 1.7385566e+2, -904866.7, -1323914.6, -15934.125, 0.016905148, -0.4794534, -904261.7, 331904.63, 0.0000752009, 10.003291, 9.997733 
1.80513e+3, 1.8385349e+2, -861943.25, -1210899.1, -33773.945, 0.02101332, -0.48406863, -858704.44, 279483.78, 0.000000026593373, 10.002733, 9.998105 
1.8051311e+3, 1.9385156e+2, -861157.06, -1160677.4, -35371.406, 0.050914716, -0.49288684, -857036.6, 183171.42, 0.0, 10.002069, 9.998097 
1.805132e+3, 2.0384999e+2, -810510.56, -1020995.75, -21532.523, 0.053284325, -0.48150066, -808330.4, 133894.05, 0.0, 10.001466, 9.998674 
1.8051328e+3, 2.1384917e+2, -784569.2, -955772.4, -16752.396, 0.0129338, -0.44030762, -782945.3, 61288.38, 0.0, 10.000962, 9.998692 
1.805134e+3, 2.2384821e+2, -718653.75, -793970.6, -20682.752, 0.0023455569, -0.4333801, -713347.9, 32895.273, 0.0, 10.000401, 9.9994 
1.8051353e+3, 2.3384719e+2, -713922.56, -737331.2, -24221.621, 0.036163796, -0.48542845, -698725.6, -50474.18, 0.0, 9.999744, 9.999433 
1.8051367e+3, 2.4384668e+2, -668136.44, -599045.3, -11313.679, 0.038887538, -0.5026927, -597239.9, -46984.16, 0.0, 9.9991045, 10.000017 
1.8051378e+3, 2.5384718e+2, -657947.0, -540934.5, -12473.044, 0.00032784994, -0.46209744, -539619.7, -87368.32, 0.0, 9.99849, 10.000039 
1.8051392e+3, 2.6384753e+2, -619177.5, -434272.3, -19293.309, -0.006332055, -0.4415832, -432280.7, -78032.76, 0.0, 9.997924, 10.000371 
1.8051407e+3, 2.7384767e+2, -594206.8, -373228.2, -13393.011, 0.016210126, -0.47152188, -372419.44, -116173.516, 0.0, 9.99743, 10.000356 
1.8051417e+3, 2.838478e+2, -550817.56, -242179.52, -1501.1398, -0.018087145, -0.51251256, -242172.2, -83928.41, 0.0, 9.996799, 10.000886 
1.8051426e+3, 2.938486e+2, -570018.1, -196904.5, -12580.389, -0.085784905, -0.52954453, -196480.8, -136245.38, 0.0, 9.995979, 10.000919 
1.8051459e+3, 3.038507e+2, -541615.3, -83074.375, 5743.59, 0.06971027, -0.44129, -83002.445, -83002.445, 0.0, 9.995516, 10.001589 
1.8051468e+3, 3.1385183e+2, -564506.56, -113218.125, -23272.334, -0.026924651, -0.4879308, -112021.18, -112021.18, 0.0, 9.995443, 10.001416 
1.8151285e+3, 1.2386683e+2, -1077587.5, -1751417.8, -11110.954, -0.01702761, -0.532932, -1077404.3, 648646.6, 0.03518264, 10.006069, 9.996826 
1.815129e+3, 1.3386358e+2, -1030159.2, -1664975.1, -26353.898, -0.055775724, -0.56192607, -1029067.0, 599015.3, 0.023990443, 10.005589, 9.996978 
1.8151306e+3, 1.4386034e+2, -984564.1, -1564204.1, -51065.684, 0.028587315, -0.59190536, -980099.7, 550015.25, 0.013190427, 10.00504, 9.99726 
1.8151309e+3, 1.5385865e+2, -977534.56, -1513088.9, -51001.023, 0.0170978, -0.495339, -972721.0, 459413.66, 0.0052218796, 10.004384, 9.997254 
1.8151313e+3, 1.6385643e+2, -935425.7, -1396296.1, -34975.793, 0.017884249, -0.4566438, -932786.5, 401371.63, 0.0011998527, 10.003786, 9.997671 
1.8151322e+3, 1.7385365e+2, -908955.44, -1333227.6, -34181.586, 0.03103002, -0.5076635, -906219.2, 329966.1, 0.00008165094, 10.003293, 9.997669 
1.8151328e+3, 1.8385133e+2, -862057.56, -1211939.3, -57706.332, 0.034695867, -0.52139205, -852785.7, 285422.84, 0.000000038391406, 10.002735, 9.998098 
1.815133e+3, 1.9384992e+2, -860183.94, -1160374.5, -60009.297, 0.02625694, -0.4801737, -848632.4, 191591.66, 0.0, 10.002075, 9.998097 
1.8151332e+3, 2.0384853e+2, -804188.3, -1009607.3, -40626.12, 0.027072707, -0.45439422, -796445.44, 145793.25, 0.0, 10.0014715, 9.998751 
1.8151341e+3, 2.1384737e+2, -778562.25, -943774.1, -35046.582, 0.042475414, -0.45456207, -771435.2, 72815.19, 0.0, 10.000963, 9.998775 
1.8151347e+3, 2.2384629e+2, -722271.44, -801631.75, -44029.758, 0.044477582, -0.4621922, -702679.9, 43580.938, 0.0, 10.0004, 9.99935 
1.815135e+3, 2.3384549e+2, -718160.25, -747285.2, -48125.313, 0.023381913, -0.4855737, -682442.4, -34174.71, 0.0, 9.999747, 9.999364 
1.8151353e+3, 2.4384503e+2, -671943.44, -608552.6, -33576.188, 0.0072110146, -0.49022704, -594074.94, -43803.117, 0.0, 9.999109, 9.99995 
1.8151364e+3, 2.5384533e+2, -662458.8, -551355.44, -34432.543, 0.005913678, -0.46420768, -541549.75, -89280.26, 0.0, 9.998493, 9.999968 
1.8151373e+3, 2.638456e+2, -607997.9, -411621.7, -37302.418, 0.01414774, -0.45588923, -404774.7, -50507.85, 0.0, 9.997925, 10.000527 
1.815138e+3, 2.7384585e+2, -581163.1, -346248.94, -31235.83, 0.01687573, -0.48921317, -342166.56, -85903.55, 0.0, 9.997429, 10.000543 
1.8151385e+3, 2.8384623e+2, -562174.3, -266104.75, -30744.611, -0.024144238, -0.5110105, -262945.84, -104686.79, 0.0, 9.996799, 10.000723 
1.8151386e+3, 2.9384723e+2, -583184.25, -225523.8, -42044.87, -0.07847952, -0.48916557, -220647.67, -160397.25, 0.0, 9.995983, 10.000722 
1.8151414e+3, 3.0384883e+2, -512919.16, -25050.197, 2622.3403, 0.076974854, -0.45520395, -25036.102, -25036.102, 0.0, 9.995521, 10.0019865 
1.8151422e+3, 3.1385094e+2, -549531.06, -82169.43, -36225.24, -0.029463915, -0.4487099, -79378.27, -79378.27, 0.0, 9.995441, 10.001631 
1.8251345e+3, 1.2386548e+2, -1053557.0, -1742881.1, 11809.351, -0.027205646, -0.55296034, -1053354.8, 672708.0, 0.03642022, 10.006265, 9.996789 
1.8251346e+3, 1.3386235e+2, -1054831.9, -1677699.0, -2664.6123, -0.041258898, -0.5698361, -1054820.5, 573273.2, 0.024870286, 10.005424, 9.996969 
1.8251358e+3, 1.438592e+2, -1021287.4, -1579372.4, -21532.996, 0.046519816, -0.59201735, -1020457.75, 509668.1, 0.013709984, 10.004777, 9.997282 
1.8251352e+3, 1.538574e+2, -967605.25, -1505476.0, -25699.348, 0.011954004, -0.50690764, -966380.1, 465765.97, 0.0054550343, 10.004444, 9.997277 
1.825135e+3, 1.6385517e+2, -910381.5, -1382609.5, -14974.7, 0.004830649, -0.4728871, -909907.1, 424262.56, 0.0012669874, 10.003954, 9.997684 
1.8251355e+3, 1.7385244e+2, -919713.5, -1337422.1, -9984.613, 0.035212383, -0.51803243, -919475.0, 316721.44, 0.0000881637, 10.003217, 9.997676 
1.8251356e+3, 1.838502e+2, -879231.3, -1219244.5, -27273.713, 0.043127738, -0.5255125, -877057.5, 261161.67, 0.00000004824908, 10.002614, 9.998105 
1.825135e+3, 1.9384886e+2, -837307.0, -1148657.8, -29128.25, 0.017737303, -0.47735447, -834605.3, 205628.7, 0.0, 10.002231, 9.998101 
1.8251346e+3, 2.0384747e+2, -778331.6, -997877.6, -18698.775, 0.014170096, -0.45115748, -776750.44, 165498.27, 0.0, 10.001654, 9.998742 
1.825135e+3, 2.138462e+2, -806775.4, -958525.7, -21171.2, 0.045406736, -0.4616619, -803877.1, 40384.223, 0.0, 10.000776, 9.998763 
1.8251352e+3, 2.2384506e+2, -768961.5, -826854.1, -27300.674, 0.054171767, -0.47239766, -758118.2, -11845.914, 0.0, 10.0000925, 9.999323 
1.8251346e+3, 2.3384432e+2, -725122.06, -753720.25, -28116.27, 0.025049213, -0.4861994, -707877.7, -59598.742, 0.0, 9.999715, 9.999334 
1.8251345e+3, 2.438439e+2, -659111.2, -596640.8, -15275.956, 0.0044592926, -0.48857108, -593105.44, -42822.62, 0.0, 9.999174, 10.0 
1.8251348e+3, 2.5384414e+2, -675738.7, -551236.9, -8106.139, 0.004914368, -0.47453395, -550711.3, -98430.805, 0.0, 9.998376, 10.000024 
1.8251352e+3, 2.638444e+2, -644628.6, -425228.2, -4140.7207, 0.016382953, -0.4722327, -425150.06, -70872.17, 0.0, 9.997657, 10.000562 
1.8251354e+3, 2.738448e+2, -631816.2, -366983.47, -8774.432, 0.024267323, -0.49441817, -366693.06, -110419.7, 0.0, 9.9970665, 10.000574 
1.8251352e+3, 2.8384542e+2, -611756.5, -288783.72, -14924.334, -0.017201073, -0.4939187, -288095.53, -129828.06, 0.0, 9.996455, 10.000732 
1.8251345e+3, 2.9384658e+2, -602065.0, -232536.22, -10166.62, -0.08065141, -0.45307535, -232256.72, -171999.69, 0.0, 9.995846, 10.000739 
1.8251368e+3, 3.0384755e+2, -521565.25, -18253.15, 50037.11, 0.06578663, -0.49097523, -13326.894, -13326.894, 0.0, 9.995416, 10.002083 
1.8251374e+3, 3.1385022e+2, -600609.0, -96699.38, -25524.23, -0.02776512, -0.43930903, -95409.82, -95409.82, 0.0, 9.99505, 10.0017185 
1.8351406e+3, 1.2386458e+2, -1053993.5, -1742372.8, -16521.115, -0.031984862, -0.589926, -1053597.3, 672472.3, 0.037682783, 10.006265, 9.996794 
1.8351403e+3, 1.3386188e+2, -1052719.0, -1673403.1, -34168.254, -0.0301744, -0.56723076, -1050843.8, 577253.7, 0.025770213, 10.005427, 9.996998 
1.8351406e+3, 1.4385879e+2, -1023378.4, -1584570.6, -36431.76, 0.05639722, -0.58232117, -1021023.1, 509106.06, 0.014243076, 10.004781, 9.997246 
1.8351395e+3, 1.5385643e+2, -970447.9, -1511934.6, -38019.68, 0.002480991, -0.54883516, -967791.44, 464362.88, 0.0056949, 10.004445, 9.997232 
1.8351388e+3, 1.638541e+2, -906150.6, -1374451.5, -40979.645, -0.012118827, -0.52325636, -902591.6, 431586.94, 0.0013365118, 10.003955, 9.99774 
1.8351386e+3, 1.7385204e+2, -914317.56, -1327528.8, -37816.42, 0.030046517, -0.5114321, -910885.2, 325314.6, 0.000095082636, 10.003221, 9.997743 
1.8351382e+3, 1.8385005e+2, -877640.4, -1217165.0, -43116.535, 0.04657552, -0.49797413, -872250.56, 265969.84, 0.000000055274803, 10.002618, 9.998118 
1.8351372e+3, 1.9384837e+2, -836952.9, -1148374.8, -43085.06, 0.024194868, -0.4839572, -831102.0, 209136.28, 0.0, 10.002232, 9.998104 
1.8351364e+3, 2.0384681e+2, -784912.8, -1012055.4, -49127.867, 0.013655694, -0.47064993, -774742.5, 167512.16, 0.0, 10.001655, 9.998646 
1.8351357e+3, 2.1384563e+2, -813545.56, -974378.8, -53656.918, 0.023167789, -0.461823, -797288.0, 46978.813, 0.0, 10.000782, 9.9986515 
1.835135e+3, 2.2384451e+2, -768406.7, -827676.8, -42726.24, 0.03304254, -0.46477443, -746044.0, 233.95233, 0.0, 10.000099, 9.999315 
1.8351345e+3, 2.3384368e+2, -724824.44, -753599.3, -41180.582, 0.040044736, -0.4873729, -695590.3, -47304.61, 0.0, 9.999715, 9.999336 
1.8351339e+3, 2.4384324e+2, -648489.5, -574594.25, -42486.79, 0.028906731, -0.497229, -555236.9, -4947.508, 0.0, 9.999172, 10.000154 
1.835133e+3, 2.5384358e+2, -663259.7, -526352.2, -37306.035, -0.0024963955, -0.49229562, -516846.6, -64561.496, 0.0, 9.998379, 10.000195 
1.8351325e+3, 2.6384386e+2, -649751.8, -437475.7, -26447.994, 0.0010198473, -0.4903243, -434230.1, -79948.21, 0.0, 9.997663, 10.000477 
1.8351325e+3, 2.7384442e+2, -640006.5, -385012.56, -30486.59, 0.0379945, -0.48874417, -381418.3, -125140.48, 0.0, 9.997069, 10.00045 
1.8351318e+3, 2.8384528e+2, -599822.4, -264382.66, -37582.65, 0.002173669, -0.4625535, -260223.47, -101953.51, 0.0, 9.996455, 10.0009 
1.8351303e+3, 2.9384667e+2, -587138.44, -201779.61, -31321.871, -0.09260682, -0.41954342, -199250.38, -138994.27, 0.0, 9.995845, 10.000952 
1.835132e+3, 3.038468e+2, -535318.0, -48148.246, 37767.74, 0.035900824, -0.54728127, -45237.7, -45237.7, 0.0, 9.995419, 10.001878 
1.8351325e+3, 3.1384972e+2, -601088.2, -99596.25, -50282.0, -0.02038667, -0.43958005, -94604.43, -94604.43, 0.0, 9.995056, 10.001697 
1.845147e+3, 1.2386443e+2, -1059985.8, -1752441.3, 8140.217, -0.022497552, -0.6196081, -1059890.0, 666179.9, 0.038977716, 10.006263, 9.996725 
1.8451458e+3, 1.3386197e+2, -1035396.94, -1669638.8, -17743.2, -0.03229666, -0.5673813, -1034900.94, 593195.2, 0.026696451, 10.005577, 9.99695 
1.8451454e+3, 1.43859e+2, -995456.9, -1566162.0, -9512.289, 0.04530153, -0.56976104, -995298.4, 534828.7, 0.014794674, 10.004959, 9.997285 
1.8451439e+3, 1.5385644e+2, -968588.25, -1505702.5, -3586.2842, -0.0025686496, -0.56097376, -968564.3, 463589.22, 0.0059445905, 10.004437, 9.997278 
1.8451427e+3, 1.6385405e+2, -920530.0, -1386005.4, -14543.249, -0.01602649, -0.5426602, -920076.06, 414102.28, 0.0014096766, 10.003878, 9.997697 
1.8451418e+3, 1.7385213e+2, -911958.7, -1332579.8, -21731.35, 0.018720208, -0.5117067, -910838.9, 325359.9, 0.00010278079, 10.003265, 9.997686 
1.8451408e+3, 1.838502e+2, -867946.5, -1203402.8, -24627.533, 0.036254186, -0.4907015, -866148.1, 272070.75, 0.00000006030829, 10.002647, 9.998198 
1.8451394e+3, 1.9384852e+2, -860559.6, -1149032.9, -17819.453, 0.028178697, -0.4869431, -859463.06, 180773.42, 0.0, 10.002025, 9.9981985 
1.8451379e+3, 2.0384695e+2, -816910.9, -1032049.8, -24498.49, 0.02036623, -0.4789273, -814156.44, 128096.47, 0.0, 10.001456, 9.998603 
1.8451363e+3, 2.1384571e+2, -789996.2, -969716.25, -26501.09, 0.014296151, -0.4678483, -786169.9, 58095.777, 0.0, 10.000974, 9.99859 
1.8451351e+3, 2.238446e+2, -733446.44, -811002.0, -12151.549, 0.022161767, -0.46661332, -731587.1, 14689.868, 0.0, 10.000341, 9.999312 
1.8451343e+3, 2.3384388e+2, -759414.0, -769857.44, -10823.427, 0.048759114, -0.48116824, -752618.56, -104334.305, 0.0, 9.999478, 9.999338 
1.845133e+3, 2.438435e+2, -705131.0, -595886.56, -16200.46, 0.043666724, -0.4878826, -593534.7, -43247.39, 0.0, 9.998759, 10.000205 
1.8451314e+3, 2.5384378e+2, -675829.0, -525892.2, -19757.594, -0.0034782111, -0.490126, -523332.4, -71049.734, 0.0, 9.998266, 10.000251 
1.8451302e+3, 2.63844e+2, -652991.0, -442199.4, -13554.743, -0.005553337, -0.4969217, -441331.34, -87051.28, 0.0, 9.997656, 10.000446 
1.8451296e+3, 2.7384448e+2, -673315.6, -405992.06, -12641.452, 0.04277308, -0.4991976, -405395.6, -149118.11, 0.0, 9.996863, 10.000403 
1.8451282e+3, 2.8384554e+2, -635549.0, -270591.3, -14698.613, 0.013275107, -0.4562586, -270000.28, -111732.19, 0.0, 9.996164, 10.000997 
1.8451262e+3, 2.9384735e+2, -609080.4, -200150.73, -13289.474, -0.085805364, -0.3838928, -199719.3, -139469.36, 0.0, 9.995644, 10.001059 
1.8451272e+3, 3.0384687e+2, -579507.8, -90120.7, 56306.125, 0.024400068, -0.56720185, -83725.99, -83725.99, 0.0, 9.995206, 10.001691 
1.8451275e+3, 3.1384972e+2, -634672.6, -89215.23, -40575.703, -0.02121457, -0.44761857, -86213.38, -86213.38, 0.0, 9.994714, 10.001931 
1.8551534e+3, 1.2386502e+2, -1070248.9, -1773281.5, -14995.943, -0.00052182307, -0.64256454, -1069929.1, 656134.25, 0.040311586, 10.006264, 9.996582 
1.855151e+3, 1.3386264e+2, -1044015.2, -1687847.1, -43096.94, -0.048163652, -0.57070786, -1041143.1, 586946.56, 0.027654078, 10.00558, 9.996825 
1.85515e+3, 1.4385983e+2, -988269.7, -1551524.6, -29510.016, 0.013212168, -0.55502266, -986727.8, 543391.5, 0.015368687, 10.004962, 9.997385 
1.8551484e+3, 1.5385741e+2, -959971.6, -1488039.3, -23288.465, -0.003254593, -0.5447247, -958946.56, 473197.25, 0.0062067336, 10.004438, 9.9974 
1.8551467e+3, 1.6385497e+2, -930436.8, -1406909.9, -37392.52, -0.0074356757, -0.53240395, -927520.2, 406648.88, 0.0014875632, 10.003878, 9.997555 
1.855145e+3, 1.738527e+2, -924063.06, -1358703.0, -44531.44, 0.0011732251, -0.5185558, -919547.5, 316645.97, 0.000111600515, 10.003267, 9.997507 
1.8551432e+3, 1.8385068e+2, -857833.1, -1183702.3, -47607.457, 0.012510986, -0.5027518, -851020.4, 287194.2, 0.00000006571913, 10.002651, 9.998332 
1.8551415e+3, 1.938493e+2, -847928.25, -1123945.5, -40915.758, 0.029783837, -0.48637295, -841990.8, 198238.0, 0.0, 10.0020275, 9.99837 
1.8551396e+3, 2.0384783e+2, -816210.2, -1031477.9, -42870.098, 0.033792008, -0.4763948, -807986.8, 134256.92, 0.0, 10.001458, 9.998607 
1.8551373e+3, 2.1384643e+2, -791108.75, -972743.0, -43928.01, 0.017812947, -0.4794664, -781042.6, 63215.527, 0.0, 10.000976, 9.9985695 
1.8551354e+3, 2.2384532e+2, -733427.7, -811933.56, -42380.895, 0.020839298, -0.47750244, -714914.44, 31355.38, 0.0, 10.000344, 9.999306 
1.8551338e+3, 2.3384482e+2, -758953.0, -770619.94, -42493.52, 0.0515468, -0.46779448, -721894.4, -73619.26, 0.0, 9.999483, 9.9993305 
1.8551318e+3, 2.4384454e+2, -707689.4, -603049.1, -35324.926, 0.0491036, -0.46128783, -592240.44, -41963.016, 0.0, 9.998766, 10.0001545 
1.8551296e+3, 2.5384474e+2, -679520.2, -534484.94, -37286.32, 0.0014236249, -0.46919608, -525460.7, -73186.78, 0.0, 9.998268, 10.000192 
1.8551278e+3, 2.638448e+2, -651605.4, -440015.5, -41269.656, -0.0038740607, -0.49270862, -432250.97, -77977.83, 0.0, 9.997657, 10.000463 
1.8551265e+3, 2.7384496e+2, -670967.44, -402507.47, -42025.555, 0.03871933, -0.524283, -396082.44, -139809.48, 0.0, 9.996868, 10.000426 
1.8551244e+3, 2.8384614e+2, -633385.94, -267706.94, -35246.594, 0.016122207, -0.47343132, -264340.63, -106078.016, 0.0, 9.99617, 10.001016 
1.855122e+3, 2.9384848e+2, -608955.25, -200713.45, -31147.56, -0.0610221, -0.34779072, -198350.67, -138111.11, 0.0, 9.9956455, 10.001055 
1.8551224e+3, 3.0384767e+2, -592459.9, -117635.625, 39571.32, 0.030099131, -0.5526526, -114360.39, -114360.39, 0.0, 9.995207, 10.001503 
1.8551221e+3, 3.1385022e+2, -599851.25, -17591.527, -70327.695, -0.028869739, -0.44910154, -9217.496, -9217.496, 0.0, 9.994715, 10.002424 
1.8651599e+3, 1.238666e+2, -1069663.1, -1770069.6, 6168.521, 0.012431872, -0.6224826, -1069608.8, 656440.1, 0.041686144, 10.006266, 9.996603 
1.8651567e+3, 1.3386405e+2, -1018540.44, -1670164.4, -12328.808, -0.05606172, -0.5724156, -1018307.25, 609769.1, 0.028644625, 10.005745, 9.996866 
1.865155e+3, 1.4386123e+2, -970386.06, -1548596.4, 882.1113, -0.002424777, -0.55559826, -970384.7, 559721.0, 0.015966613, 10.005117, 9.99733 
1.8651529e+3, 1.5385889e+2, -981772.25, -1506340.8, -7139.96, 0.0035979622, -0.53043556, -981675.06, 450454.72, 0.0064828373, 10.004324, 9.997329 
1.8651506e+3, 1.6385643e+2, -957212.2, -1414665.0, -18523.838, 0.005403338, -0.51772755, -956463.3, 377691.88, 0.001570903, 10.003673, 9.997599 
1.8651481e+3, 1.73854e+2, -923997.75, -1352265.3, -8687.419, -0.0047837454, -0.5258863, -923821.56, 312359.06, 0.0001217937, 10.003242, 9.997562 
1.8651457e+3, 1.8385194e+2, -851896.4, -1183109.9, -12502.565, -0.0014063151, -0.5170391, -851425.1, 286776.94, 0.00000007494837, 10.002703, 9.998311 
1.8651435e+3, 1.9385068e+2, -854510.3, -1130720.6, -21470.475, 0.02447545, -0.48410842, -852851.3, 187363.97, 0.0, 10.002, 9.998337 
1.865141e+3, 2.038493e+2, -823939.06, -1026756.75, -24110.156, 0.034343977, -0.46751478, -821112.4, 121117.18, 0.0, 10.00137, 9.99868 
1.8651383e+3, 2.138479e+2, -801846.75, -968318.7, -17433.797, 0.01971846, -0.47957978, -800040.6, 44203.14, 0.0, 10.000862, 9.998653 
1.8651357e+3, 2.238468e+2, -742734.0, -816747.0, -21211.73, 0.019740101, -0.4813083, -737085.9, 9169.342, 0.0, 10.000283, 9.999301 
1.8651332e+3, 2.3384632e+2, -744323.0, -765578.6, -23855.719, 0.040960234, -0.4665672, -728834.8, -80574.445, 0.0, 9.999595, 9.9993105 
1.8651307e+3, 2.4384607e+2, -694532.25, -599936.9, -12190.219, 0.039542835, -0.45615026, -598391.2, -48128.508, 0.0, 9.998873, 10.000123 
1.865128e+3, 2.5384623e+2, -706483.5, -551460.5, -12238.105, 0.008544805, -0.4627689, -550500.3, -98240.67, 0.0, 9.998102, 10.000154 
1.8651254e+3, 2.6384625e+2, -687933.06, -459407.7, -17837.893, 0.006729121, -0.48640844, -458023.72, -103764.37, 0.0, 9.997418, 10.0004425 
1.8651234e+3, 2.7384642e+2, -674394.25, -406098.4, -22480.645, 0.034256697, -0.51836956, -404227.78, -147968.44, 0.0, 9.996855, 10.000407 
1.8651207e+3, 2.8384757e+2, -628837.25, -263362.6, -17165.496, 0.014346231, -0.46828514, -262558.16, -104308.98, 0.0, 9.996194, 10.001032 
1.8651178e+3, 2.938499e+2, -646123.75, -219410.84, -11683.121, -0.037947677, -0.34811756, -219091.2, -158864.56, 0.0, 9.995396, 10.001045 
1.8651174e+3, 3.03849e+2, -670094.6, -176103.53, 65297.145, 0.032617368, -0.5453131, -167618.13, -167618.13, 0.0, 9.994767, 10.001312 
1.8651165e+3, 3.1385145e+2, -623161.0, 24690.809, -54734.277, -0.035536584, -0.43857846, 29282.533, 29282.533, 0.0, 9.994328, 10.0029 
1.8751661e+3, 1.2386914e+2, -1059978.6, -1746385.9, -11498.161, 0.014412603, -0.56291604, -1059786.1, 666240.44, 0.043096464, 10.006261, 9.996768 
1.8751624e+3, 1.3386618e+2, -1006471.4, -1643088.5, -31731.004, -0.056220155, -0.5719361, -1004893.75, 623162.2, 0.029665938, 10.005744, 9.997053 
1.87516e+3, 1.4386323e+2, -984810.4, -1578893.8, -27526.848, -0.002422014, -0.56989455, -983537.6, 546548.25, 0.016588135, 10.005117, 9.997123 
1.8751572e+3, 1.538609e+2, -999443.75, -1544133.3, -36679.223, 0.016941652, -0.5181951, -996984.9, 435126.44, 0.006773616, 10.004327, 9.997069 
1.8751544e+3, 1.6385846e+2, -941520.75, -1383343.4, -35958.96, 0.021662006, -0.4991484, -938613.25, 395523.5, 0.0016602273, 10.003677, 9.997813 
1.8751514e+3, 1.7385602e+2, -904591.5, -1313097.9, -24735.482, 0.00009815115, -0.5335713, -903099.2, 333061.34, 0.00013349493, 10.003244, 9.99783 
1.8751483e+3, 1.8385395e+2, -863529.75, -1208305.1, -37783.832, -0.0061655683, -0.5332017, -859437.56, 278743.94, 0.00000009512311, 10.002706, 9.998137 
1.8751453e+3, 1.9385266e+2, -870076.56, -1164570.1, -47507.22, 0.0124099655, -0.48023593, -862602.5, 177593.67, 0.0, 10.002004, 9.998103 
1.8751422e+3, 2.0385131e+2, -813805.1, -1007236.06, -43449.375, 0.022577902, -0.4527141, -804493.6, 137716.89, 0.0, 10.001375, 9.998814 
1.8751392e+3, 2.1385007e+2, -789176.8, -942811.75, -35884.313, 0.020021752, -0.46874088, -781208.6, 63014.098, 0.0, 10.000864, 9.998829 
1.875136e+3, 2.2384897e+2, -743228.8, -818340.2, -45853.92, 0.018638631, -0.47825828, -721513.8, 24719.799, 0.0, 10.000284, 9.99929 
1.8751326e+3, 2.3384835e+2, -746396.4, -770886.7, -48957.797, 0.01744731, -0.47679135, -708175.6, -59935.246, 0.0, 9.999597, 9.999274 
1.8751293e+3, 2.43848e+2, -695383.0, -603083.94, -39874.246, 0.01567401, -0.4714911, -588243.8, -38000.207, 0.0, 9.998877, 10.0001 
1.875126e+3, 2.5384822e+2, -707378.2, -554925.6, -40211.418, 0.017671384, -0.47029015, -544969.5, -92729.0, 0.0, 9.998108, 10.000129 
1.8751231e+3, 2.6384833e+2, -691418.44, -468325.13, -39064.645, 0.025505228, -0.47795567, -461682.5, -107443.086, 0.0, 9.997423, 10.0003805 
1.8751201e+3, 2.738487e+2, -678400.94, -415882.7, -43099.457, 0.02912345, -0.48271018, -408987.8, -152750.2, 0.0, 9.99686, 10.000339 
1.8751167e+3, 2.8384975e+2, -627572.8, -262100.14, -45581.137, 0.008185833, -0.44228813, -256501.11, -98272.34, 0.0, 9.996198, 10.00104 
1.8751134e+3, 2.9385144e+2, -646551.25, -222180.97, -40383.51, -0.016528673, -0.38441885, -218372.22, -158160.2, 0.0, 9.995402, 10.001024 
1.8751122e+3, 3.0385083e+2, -683574.56, -205977.31, 48040.375, 0.031337056, -0.54231447, -201192.97, -201192.97, 0.0, 9.994773, 10.001105 
1.8751109e+3, 3.1385338e+2, -591783.2, 89465.445, -78996.47, -0.04070612, -0.4067078, 98505.78, 98505.78, 0.0, 9.994327, 10.003346 
1.8851724e+3, 1.2387201e+2, -1072033.0, -1742182.9, 24797.43, 0.018599588, -0.5432985, -1071116.8, 654882.94, 0.044537347, 10.006142, 9.996854 
1.8851683e+3, 1.3386904e+2, -1022684.7, -1639280.4, -3241.5518, -0.03940395, -0.56491625, -1022667.6, 605360.7, 0.03071547, 10.005586, 9.997154 
1.8851651e+3, 1.4386609e+2, -1003961.3, -1594325.1, -2814.446, 0.009892301, -0.5648338, -1003947.9, 526110.06, 0.017232485, 10.005014, 9.997065 
1.8851615e+3, 1.5386362e+2, -992841.1, -1549870.4, -224.47809, 0.010034869, -0.5200863, -992841.06, 439244.1, 0.0070791934, 10.004414, 9.996987 
1.8851581e+3, 1.6386114e+2, -921189.56, -1373332.4, 6744.1616, 0.011199759, -0.4993597, -921089.0, 413022.13, 0.0017558205, 10.003818, 9.997813 
1.8851548e+3, 1.7385885e+2, -905952.1, -1312930.3, -381.76413, 0.01002227, -0.519667, -905951.75, 330181.6, 0.00014669658, 10.003234, 9.997836 
1.8851511e+3, 1.8385682e+2, -871160.44, -1212570.8, -23082.564, 0.008585632, -0.51703703, -869606.94, 268547.06, 0.0000001366546, 10.002657, 9.998131 
1.8851474e+3, 1.9385535e+2, -858170.4, -1160145.6, -18139.86, 0.008010497, -0.48007688, -857084.56, 183085.5, 0.0, 10.002093, 9.99809 
1.8851435e+3, 2.0385394e+2, -800679.1, -1000677.4, -9282.396, 0.010840767, -0.45966858, -800249.25, 141935.83, 0.0, 10.001466, 9.998814 
1.88514e+3, 2.1385273e+2, -806867.5, -951348.06, -14638.194, 0.019186057, -0.46857458, -805399.3, 38797.37, 0.0, 10.000744, 9.998828 
1.8851362e+3, 2.238517e+2, -769511.44, -824575.6, -30343.805, 0.02005032, -0.47495133, -756070.9, -9863.834, 0.0, 10.000078, 9.999346 
1.8851319e+3, 2.3385109e+2, -756141.9, -768722.0, -27128.143, 0.007975192, -0.47743052, -734584.1, -86370.77, 0.0, 9.999503, 9.999333 
1.885128e+3, 2.4385074e+2, -702425.3, -612231.94, -20132.297, 0.0057988935, -0.4740139, -607942.2, -57725.355, 0.0, 9.998856, 10.000047 
1.8851243e+3, 2.538509e+2, -714773.9, -566101.56, -24651.22, 0.02260619, -0.4693535, -562120.75, -109906.1, 0.0, 9.998092, 10.000058 
1.8851206e+3, 2.638511e+2, -691659.94, -461592.97, -15152.421, 0.03325211, -0.46971676, -460599.3, -106386.195, 0.0, 9.997395, 10.000439 
1.8851168e+3, 2.7385163e+2, -682225.75, -409560.6, -8602.399, 0.023903938, -0.46709922, -409289.47, -153080.11, 0.0, 9.9968, 10.000409 
1.885113e+3, 2.8385258e+2, -626161.1, -257663.78, -9686.953, 0.0033576202, -0.43996254, -257409.31, -99208.29, 0.0, 9.996194, 10.001071 
1.885109e+3, 2.93854e+2, -627399.44, -213316.42, -4443.8574, -0.008109349, -0.41166613, -213268.73, -153081.64, 0.0, 9.995538, 10.001019 
1.8851069e+3, 3.0385393e+2, -702692.0, -235958.66, 86594.266, 0.017831627, -0.5040021, -220410.55, -220410.55, 0.0, 9.994733, 10.000917 
1.885105e+3, 3.1385583e+2, -661329.44, 75480.56, -45666.992, -0.020023081, -0.41714874, 78300.18, 78300.18, 0.0, 9.993768, 10.003519 
1.8951786e+3, 1.2387526e+2, -1072672.6, -1742329.5, 5725.1807, 0.022916537, -0.56127733, -1072623.8, 653344.06, 0.04601136, 10.006145, 9.996852 
1.8951742e+3, 1.3387258e+2, -1022948.9, -1638229.3, -23781.059, -0.007375031, -0.5521146, -1022031.06, 605962.5, 0.0317944, 10.005583, 9.997164 
1.8951704e+3, 1.438698e+2, -999412.0, -1583652.0, -25099.291, 0.033107925, -0.5419564, -998335.7, 531686.06, 0.017899804, 10.005012, 9.997141 
1.8951657e+3, 1.5386702e+2, -986897.25, -1538544.4, -22943.047, -0.016020924, -0.5350154, -985944.7, 446106.72, 0.0073992014, 10.004418, 9.997064 
1.8951616e+3, 1.6386448e+2, -934652.75, -1403267.0, -15346.8125, -0.024461763, -0.5167926, -934150.7, 399927.75, 0.0018575017, 10.003825, 9.997605 
1.8951581e+3, 1.7386246e+2, -922839.06, -1348954.1, -22068.313, 0.024471879, -0.48539302, -921699.2, 314400.1, 0.00016122115, 10.003236, 9.997589 
1.8951541e+3, 1.8386045e+2, -860961.7, -1191994.1, -43934.223, 0.04149583, -0.4705389, -855230.0, 282889.66, 0.00000020674742, 10.002658, 9.998273 
1.8951494e+3, 1.9385868e+2, -844416.1, -1132836.3, -38964.668, 0.010702104, -0.48345926, -839244.8, 200892.48, 0.0, 10.002097, 9.998276 
1.8951449e+3, 2.0385706e+2, -809022.94, -1019511.44, -35359.684, -0.0010129343, -0.48709047, -803241.7, 138911.94, 0.0, 10.001471, 9.998683 
1.8951407e+3, 2.1385589e+2, -818329.4, -976574.94, -41078.29, 0.017062157, -0.4784814, -808301.5, 35864.43, 0.0, 10.000748, 9.998653 
1.8951364e+3, 2.2385493e+2, -761132.2, -808602.94, -51706.945, 0.0237238, -0.4714443, -727973.1, 18202.623, 0.0, 10.000082, 9.9994545 
1.8951316e+3, 2.3385452e+2, -745664.9, -748261.2, -47824.5, 0.011701427, -0.4688249, -699120.94, -50941.055, 0.0, 9.999506, 9.999473 
1.8951268e+3, 2.4385422e+2, -708043.1, -625221.75, -47234.906, 0.008985356, -0.46422, -603815.4, -53632.44, 0.0, 9.998859, 9.999957 
1.8951224e+3, 2.5385427e+2, -722407.8, -583527.6, -52506.164, 0.023444764, -0.46057484, -565911.3, -113728.58, 0.0, 9.998096, 9.999937 
1.8951179e+3, 2.6385447e+2, -679279.0, -437488.56, -37431.406, 0.03046686, -0.46184283, -431826.44, -77645.32, 0.0, 9.997399, 10.000603 
1.8951136e+3, 2.7385506e+2, -668150.56, -381637.44, -30192.758, 0.018224688, -0.47001433, -378490.3, -122315.03, 0.0, 9.996804, 10.0006 
1.895109e+3, 2.8385594e+2, -622219.94, -250826.45, -33635.168, -0.0006212057, -0.46009716, -247804.88, -89638.04, 0.0, 9.996198, 10.001118 
1.8951043e+3, 2.9385743e+2, -626256.56, -212835.95, -29284.95, -0.012003068, -0.4319084, -210771.84, -150618.69, 0.0, 9.9955435, 10.00102 
1.8951014e+3, 3.0385822e+2, -713586.7, -260039.13, 50890.46, -0.007670281, -0.43081498, -254399.08, -254399.08, 0.0, 9.994738, 10.000751 
1.8950994e+3, 3.1385887e+2, -669971.7, 57203.14, -84649.83, 0.02562466, -0.45158127, 66927.125, 66927.125, 0.0, 9.993768, 10.003394 
1.905185e+3, 1.2387928e+2, -1050336.8, -1730224.1, 28617.43, 0.036228865, -0.5673856, -1049134.3, 676793.94, 0.047524378, 10.006313, 9.996854 
1.9051798e+3, 1.338766e+2, -1045481.3, -1648088.9, -2347.0322, 0.008486042, -0.5594589, -1045472.2, 582482.0, 0.032905366, 10.005425, 9.997171 
1.9051754e+3, 1.438739e+2, -1029927.8, -1596287.1, 4577.96, 0.041383907, -0.5425006, -1029890.8, 500090.78, 0.018590054, 10.004793, 9.997158 
1.9051702e+3, 1.5387113e+2, -968275.75, -1527758.5, 3153.3682, -0.019051382, -0.5343544, -968258.0, 463753.06, 0.0077322614, 10.004542, 9.997077 
1.9051655e+3, 1.6386859e+2, -905305.8, -1394710.5, 2669.788, -0.031102672, -0.5145486, -905291.25, 428746.94, 0.001964254, 10.004053, 9.997553 
1.9051614e+3, 1.7386653e+2, -933257.3, -1361224.5, 7080.5283, 0.026540203, -0.48083732, -933140.2, 302919.6, 0.00017665364, 10.003198, 9.997522 
1.9051567e+3, 1.8386452e+2, -880348.94, -1198131.0, -3498.4302, 0.04613447, -0.46570635, -880310.44, 257769.98, 0.00000030333933, 10.002513, 9.9983 
1.9051515e+3, 1.9386275e+2, -842149.1, -1127885.6, -8842.999, 0.007993539, -0.48154715, -841875.7, 198222.02, 0.0, 10.002097, 9.998309 
1.9051464e+3, 2.0386113e+2, -797982.94, -1015436.75, -16290.264, -0.005998954, -0.48756564, -796769.4, 145344.6, 0.0, 10.001554, 9.998671 
1.9051415e+3, 2.1385992e+2, -810787.25, -975405.7, -12822.857, 0.017634362, -0.48011094, -809794.4, 34332.324, 0.0, 10.000813, 9.99863 
1.9051364e+3, 2.2385897e+2, -759191.06, -808645.1, -17659.488, 0.026890516, -0.4700963, -753532.5, -7395.9395, 0.0, 10.000102, 9.999443 
1.905131e+3, 2.3385862e+2, -756150.7, -754538.8, -24648.477, 0.013280966, -0.4594355, -730683.1, -82542.97, 0.0, 9.999442, 9.99946 
1.9051257e+3, 2.438583e+2, -721138.0, -634160.25, -31565.441, 0.008515177, -0.4542582, -623912.2, -73768.63, 0.0, 9.998783, 9.99993 
1.9051205e+3, 2.5385824e+2, -720622.94, -585929.4, -31027.584, 0.018926525, -0.457902, -579125.6, -126981.12, 0.0, 9.998126, 9.999906 
1.9051152e+3, 2.6385847e+2, -670160.94, -423753.06, -14475.871, 0.023108257, -0.45779318, -422905.56, -68763.13, 0.0, 9.997425, 10.000684 
1.9051102e+3, 2.7385923e+2, -683422.6, -378249.38, -14507.509, 0.013705939, -0.46070245, -377561.25, -121426.82, 0.0, 9.996656, 10.000693 
1.9051053e+3, 2.8386e+2, -653158.5, -267776.7, -20771.504, 0.0055863, -0.46694207, -266660.38, -108533.48, 0.0, 9.995997, 10.001097 
1.9051e+3, 2.9386118e+2, -639820.0, -224460.2, -21537.225, 0.006498885, -0.46294436, -223346.44, -163230.0, 0.0, 9.995476, 10.000973 
1.9050959e+3, 3.0386275e+2, -704607.2, -234603.61, 54854.68, -0.019713765, -0.3884809, -228286.38, -228286.38, 0.0, 9.994711, 10.000937 
1.9050932e+3, 3.1386295e+2, -689977.56, 40538.715, -54236.82, 0.044685125, -0.47645694, 44543.543, 44543.543, 0.0, 9.993663, 10.003329 
1.9151916e+3, 1.2388407e+2, -1052290.3, -1730993.9, -2493.9248, 0.05587347, -0.5631624, -1052281.0, 673599.9, 0.049075875, 10.006307, 9.996852 
1.9151853e+3, 1.3388109e+2, -1045206.56, -1648084.3, -35006.523, 0.009147785, -0.5852678, -1043180.7, 584729.2, 0.034046993, 10.005432, 9.9971695 
1.9151802e+3, 1.438784e+2, -1031893.94, -1602322.3, -7451.9277, 0.035514697, -0.56451523, -1031796.56, 498140.7, 0.019300869, 10.004803, 9.997113 
1.9151749e+3, 1.5387596e+2, -972300.44, -1535816.0, -6136.229, -0.000854969, -0.5190963, -972233.7, 459730.38, 0.008075695, 10.00454, 9.997024 
1.9151697e+3, 1.6387348e+2, -900050.0, -1382993.6, -26993.44, -0.010856788, -0.4940144, -898545.94, 435444.7, 0.0020743348, 10.004048, 9.997637 
1.9151644e+3, 1.7387109e+2, -925649.56, -1346989.5, -25187.594, 0.016797828, -0.5042597, -924149.2, 311865.78, 0.00019241177, 10.003202, 9.997619 
1.9151591e+3, 1.8386897e+2, -885288.2, -1210776.3, -20752.818, 0.023993218, -0.49985498, -883970.3, 254066.14, 0.0000004124449, 10.0025215, 9.99821 
1.9151536e+3, 1.9386749e+2, -849874.75, -1144988.0, -23970.027, 0.00003197929, -0.47444057, -847940.5, 192111.02, 0.0, 10.0021, 9.998191 
1.9151479e+3, 2.0386603e+2, -791547.56, -1002681.8, -42301.38, -0.004624936, -0.4625574, -783387.75, 158678.77, 0.0, 10.0015545, 9.998758 
1.9151424e+3, 2.1386473e+2, -802368.94, -959332.6, -40172.703, 0.020668246, -0.4738919, -792684.75, 51394.754, 0.0, 10.000816, 9.998738 
1.9151366e+3, 2.2386372e+2, -767308.9, -827371.8, -42180.758, 0.029454373, -0.4707613, -745561.0, 528.979, 0.0, 10.000108, 9.999313 
1.9151305e+3, 2.3386331e+2, -766737.06, -778247.25, -48511.703, 0.012637058, -0.449429, -723640.3, -75545.586, 0.0, 9.999447, 9.999296 
1.9151244e+3, 2.4386291e+2, -718372.1, -630191.5, -55240.254, 0.004381032, -0.44431177, -603603.4, -53504.27, 0.0, 9.998789, 9.999956 
1.9151184e+3, 2.5386277e+2, -716742.25, -579712.9, -54811.453, 0.008978216, -0.4608308, -560486.1, -108385.555, 0.0, 9.998132, 9.999947 
1.9151126e+3, 2.6386306e+2, -669507.56, -424238.88, -42284.83, 0.01104906, -0.4570852, -417153.56, -63055.84, 0.0, 9.997431, 10.000679 
1.9151069e+3, 2.7386397e+2, -683093.3, -379464.47, -42749.14, 0.010318717, -0.44021848, -373560.47, -117472.75, 0.0, 9.996662, 10.000683 
1.9151013e+3, 2.8386456e+2, -658702.06, -281084.44, -40810.797, 0.021630106, -0.4616688, -276724.2, -118642.04, 0.0, 9.996003, 10.001003 
1.9150959e+3, 2.9386517e+2, -646524.6, -239873.55, -41432.766, 0.04596364, -0.5036218, -235694.98, -175617.31, 0.0, 9.99548, 10.000866 
1.9150905e+3, 3.038675e+2, -666366.3, -156451.6, 16989.072, -0.019619755, -0.3756858, -155886.19, -155886.19, 0.0, 9.994714, 10.001473 
1.9150868e+3, 3.1386822e+2, -691904.8, 34847.8, -89796.15, 0.037190672, -0.4678928, 45778.44, 45778.44, 0.0, 9.993668, 10.003288 
1.9251977e+3, 1.2388932e+2, -1087500.9, -1748447.1, 21043.607, 0.06715286, -0.57161933, -1086831.5, 638997.9, 0.0506573, 10.0060625, 9.996849 
1.9251908e+3, 1.3388644e+2, -1004572.06, -1627513.0, -12494.6045, 0.00092151633, -0.5835823, -1004321.5, 623536.0, 0.035211492, 10.005729, 9.997167 
1.9251849e+3, 1.4388384e+2, -977587.1, -1573596.3, 17923.447, 0.02179695, -0.5542234, -977048.56, 552835.5, 0.020025918, 10.00518, 9.997128 
1.9251795e+3, 1.5388131e+2, -1003917.7, -1549616.0, 23833.41, 0.012337033, -0.5187154, -1002878.75, 429032.78, 0.008425287, 10.004318, 9.997035 
1.9251737e+3, 1.638788e+2, -954712.0, -1407796.6, 2535.0059, 0.009312404, -0.49775717, -954697.9, 379240.44, 0.0021857251, 10.003668, 9.997648 
1.9251677e+3, 1.7387646e+2, -905672.0, -1336390.6, -2636.6367, 0.013457654, -0.50339884, -905655.8, 330306.44, 0.00020795391, 10.003338, 9.997625 
1.9251616e+3, 1.8387435e+2, -843750.7, -1194521.8, -1271.1869, 0.013127231, -0.49715886, -843746.06, 294237.75, 0.0000005155152, 10.002825, 9.998174 
1.9251557e+3, 1.9387282e+2, -862754.94, -1156160.0, -142.9692, 0.006409602, -0.47417086, -862754.9, 177244.75, 0.0, 10.002035, 9.998145 
1.9251496e+3, 2.0387135e+2, -816104.56, -1007363.4, -17130.367, 0.00681595, -0.46155226, -814582.3, 127432.24, 0.0, 10.001357, 9.99882 
1.9251432e+3, 2.138702e+2, -792096.1, -946242.06, -18179.836, 0.017961914, -0.46692038, -789981.0, 54045.254, 0.0, 10.0008545, 9.99881 
1.9251366e+3, 2.238692e+2, -747751.75, -823551.06, -21848.932, 0.020769287, -0.4623155, -741904.9, 4131.5327, 0.0, 10.000268, 9.999261 
1.92513e+3, 2.3386867e+2, -756252.25, -781020.7, -22332.602, 0.011339629, -0.4470242, -743099.94, -95057.39, 0.0, 9.999555, 9.999224 
1.9251233e+3, 2.4386822e+2, -707797.06, -623014.6, -25403.545, 0.008039056, -0.44556072, -615985.7, -65938.03, 0.0, 9.998855, 9.999972 
1.9251166e+3, 2.5386813e+2, -709072.9, -573033.3, -26456.406, 0.01188352, -0.4605242, -568069.3, -116020.65, 0.0, 9.998174, 9.99997 
1.9251099e+3, 2.6386845e+2, -664942.94, -428081.7, -18371.965, 0.009763861, -0.45126832, -426665.16, -72619.766, 0.0, 9.997491, 10.000622 
1.9251035e+3, 2.738694e+2, -668075.44, -379673.25, -23215.66, 0.004417661, -0.4263946, -377816.4, -121780.945, 0.0, 9.996799, 10.000614 
1.9250974e+3, 2.8386983e+2, -648639.2, -273433.44, -18169.02, 0.026738439, -0.454776, -272555.7, -114524.836, 0.0, 9.996062, 10.001026 
1.9250917e+3, 2.938703e+2, -676091.44, -248271.94, -8751.96, 0.074304365, -0.5167188, -248092.97, -188065.31, 0.0, 9.9952545, 10.000916 
1.925085e+3, 3.038729e+2, -671021.5, -119205.6, 45007.004, -0.026382258, -0.38090673, -115558.85, -115558.85, 0.0, 9.994514, 10.001824 
1.9250806e+3, 3.13874e+2, -681064.8, 4132.8804, -72440.48, 0.03226004, -0.4686984, 11707.694, 11707.694, 0.0, 9.993899, 10.002965 
1.9352038e+3, 1.23895064e+2, -1088727.4, -1749941.1, 8530.44, 0.06882199, -0.59312266, -1088617.3, 637156.2, 0.052257698, 10.006065, 9.996838 
1.9351962e+3, 1.3389267e+2, -1006152.2, -1629682.3, -25191.416, -0.016085882, -0.5562324, -1005136.06, 622661.2, 0.03638778, 10.005729, 9.997152 
1.93519e+3, 1.4389022e+2, -973747.5, -1564926.5, -12332.852, 0.0003294676, -0.513831, -973490.3, 556331.9, 0.020756543, 10.005179, 9.997189 
1.9351839e+3, 1.5388723e+2, -998639.94, -1539852.1, -8711.941, 0.020807337, -0.53219616, -998499.7, 433353.7, 0.008776398, 10.004323, 9.997101 
1.9351776e+3, 1.6388458e+2, -958182.3, -1416933.5, -12053.428, 0.029219981, -0.5239493, -957865.8, 376015.38, 0.0022968545, 10.0036745, 9.997583 
1.935171e+3, 1.7388266e+2, -911134.8, -1348791.8, -14839.925, 0.015919501, -0.47956094, -910632.2, 325269.78, 0.000223007, 10.003341, 9.99754 
1.9351645e+3, 1.8388064e+2, -843022.6, -1193830.9, -28834.828, 0.012737467, -0.45987013, -840668.3, 297254.63, 0.000000599565, 10.002827, 9.9981785 
1.9351578e+3, 1.9387868e+2, -861071.44, -1154219.0, -29511.59, 0.02621636, -0.4805551, -858129.94, 181812.45, 0.0, 10.00204, 9.998157 
1.935151e+3, 2.0387708e+2, -813054.9, -1002844.25, -36589.695, 0.027573872, -0.48320296, -806245.0, 135713.44, 0.0, 10.001363, 9.99885 
1.9351439e+3, 2.1387625e+2, -789449.06, -942078.1, -36279.926, 0.0095423525, -0.45917407, -781264.25, 62703.11, 0.0, 10.000857, 9.998837 
1.9351368e+3, 2.2387539e+2, -746344.5, -821727.5, -47118.273, 0.0012391983, -0.44522002, -723697.1, 22279.31, 0.0, 10.000271, 9.999273 
1.9351295e+3, 2.3387463e+2, -755272.9, -780283.75, -48313.24, 0.009335893, -0.45167655, -717872.8, -69888.68, 0.0, 9.999558, 9.9992285 
1.9351223e+3, 2.438741e+2, -706806.1, -622572.75, -50229.105, 0.019038431, -0.45724523, -599139.6, -49149.89, 0.0, 9.998859, 9.999974 
1.935115e+3, 2.5387415e+2, -708124.4, -572856.44, -51159.473, 0.026952827, -0.45732227, -555686.9, -103697.47, 0.0, 9.998179, 9.99997 
1.9351077e+3, 2.6387447e+2, -671928.06, -444337.6, -43700.754, 0.018651105, -0.44109693, -436234.88, -82248.68, 0.0, 9.997496, 10.000509 
1.9351003e+3, 2.7387527e+2, -676627.5, -399201.44, -48526.902, -0.004423124, -0.41915494, -390958.13, -134979.67, 0.0, 9.996805, 10.000479 
1.9350934e+3, 2.8387576e+2, -638819.25, -254835.31, -47900.87, 0.02079804, -0.4456174, -248950.02, -90976.25, 0.0, 9.996068, 10.001152 
1.935087e+3, 2.938764e+2, -661529.9, -219836.83, -39291.95, 0.09208236, -0.50211823, -216368.75, -156401.39, 0.0, 9.995259, 10.001109 
1.9350794e+3, 3.0387884e+2, -658426.2, -94606.65, 20836.096, -0.039647456, -0.40687063, -93837.695, -93837.695, 0.0, 9.994519, 10.001992 
1.9350745e+3, 3.1388044e+2, -721814.0, -82190.055, -83912.72, 0.028306985, -0.45319697, -71364.695, -71364.695, 0.0, 9.993904, 10.002371 
1.94521e+3, 1.23901896e+2, -1071955.3, -1747388.9, 36437.67, 0.06949419, -0.565475, -1069995.3, 655712.2, 0.053866465, 10.006225, 9.9967785 
1.945202e+3, 1.3389915e+2, -1018289.4, -1642789.6, -1171.886, -0.013096354, -0.5565385, -1018287.1, 609447.2, 0.037565593, 10.005681, 9.997085 
1.945195e+3, 1.4389662e+2, -979714.25, -1559386.4, 233.85939, -0.0002545626, -0.5209427, -979714.1, 550045.6, 0.02148533, 10.005107, 9.99726 
1.9451882e+3, 1.5389378e+2, -970088.0, -1515944.1, 3653.1858, 0.018253643, -0.532587, -970063.56, 461725.53, 0.009125589, 10.004482, 9.997188 
1.9451813e+3, 1.6389124e+2, -928520.8, -1402365.8, 12709.981, 0.02855024, -0.5203453, -928180.1, 405635.78, 0.002406957, 10.0038805, 9.997583 
1.9451745e+3, 1.7388928e+2, -914437.1, -1351744.3, 15614.809, 0.022824371, -0.47638682, -913880.3, 321956.72, 0.0002375857, 10.003326, 9.997525 
1.9451673e+3, 1.8388726e+2, -851819.7, -1193658.0, -3440.62, 0.02189629, -0.45955047, -851785.06, 286073.22, 0.0000006629477, 10.002749, 9.998216 
1.94516e+3, 1.9388527e+2, -844085.4, -1141271.5, -3595.8337, 0.029683758, -0.48648366, -844041.9, 195835.95, 0.0, 10.002138, 9.998198 
1.9451524e+3, 2.0388371e+2, -792705.4, -993205.06, -7184.367, 0.028335532, -0.48721123, -792448.25, 149445.34, 0.0, 10.001506, 9.998846 
1.9451448e+3, 2.13883e+2, -792733.2, -944873.1, -9922.909, 0.011903304, -0.44922936, -792088.75, 51812.832, 0.0, 10.000843, 9.998824 
1.945137e+3, 2.2388217e+2, -756806.9, -820570.2, -25053.28, 0.0032679285, -0.43360388, -748140.94, -2230.572, 0.0, 10.0001745, 9.999327 
1.945129e+3, 2.3388132e+2, -760180.06, -775921.5, -23353.037, 0.0087249605, -0.4565398, -743407.06, -95488.35, 0.0, 9.999498, 9.999286 
1.9451211e+3, 2.4388075e+2, -710990.75, -626152.44, -22606.37, 0.02031088, -0.467045, -620504.6, -70580.336, 0.0, 9.998839, 9.999958 
1.9451132e+3, 2.538809e+2, -706377.56, -575117.2, -25580.21, 0.03565931, -0.45569426, -570308.25, -118385.07, 0.0, 9.998206, 9.999941 
1.9451052e+3, 2.638812e+2, -663117.6, -440456.13, -16833.785, 0.024590392, -0.43981084, -439190.63, -85270.29, 0.0, 9.99756, 10.000504 
1.945097e+3, 2.7388182e+2, -665475.1, -394312.5, -12789.921, -0.012973985, -0.43196622, -393710.56, -137796.4, 0.0, 9.996886, 10.000472 
1.9450895e+3, 2.8388244e+2, -629568.7, -250942.19, -16226.177, 0.014596197, -0.44590363, -250248.08, -92339.73, 0.0, 9.996136, 10.001145 
1.9450824e+3, 2.9388347e+2, -655106.2, -214114.17, -20187.979, 0.10304973, -0.46189192, -213191.94, -153294.1, 0.0, 9.995295, 10.00113 
1.9450739e+3, 3.038854e+2, -640493.6, -65485.445, 39201.047, -0.055488665, -0.4295129, -62825.23, -62825.23, 0.0, 9.994556, 10.002172 
1.9450684e+3, 3.138874e+2, -728657.4, -109253.555, -45254.484, 0.0338032, -0.45119247, -105964.664, -105964.664, 0.0, 9.993962, 10.002155 
1.9552162e+3, 1.2390978e+2, -1079406.6, -1763248.6, 16672.652, 0.06710484, -0.4933939, -1079000.4, 646630.94, 0.055475436, 10.006232, 9.996667 
1.955208e+3, 1.3390593e+2, -1026847.1, -1661212.1, -21085.191, 0.0085066715, -0.58249515, -1026147.06, 601521.44, 0.038739845, 10.005686, 9.996957 
1.9552003e+3, 1.439031e+2, -974369.6, -1548393.1, -22604.71, 0.01848972, -0.57190627, -973480.8, 556215.44, 0.022209933, 10.00511, 9.997335 
1.9551927e+3, 1.53901e+2, -962673.6, -1501663.9, -19918.55, 0.0050241104, -0.5205902, -961938.56, 469779.97, 0.009472259, 10.004487, 9.997284 
1.9551851e+3, 1.6389872e+2, -924135.8, -1394777.5, -8454.889, 0.008453596, -0.4889703, -923983.94, 409758.56, 0.0025161547, 10.003886, 9.997634 
1.9551778e+3, 1.7389634e+2, -911135.6, -1345727.3, -5036.7554, 0.033785395, -0.49266922, -911077.25, 324690.2, 0.0002518684, 10.003327, 9.997567 
1.9551703e+3, 1.8389419e+2, -847371.0, -1185054.4, -25904.188, 0.039733715, -0.49380296, -845395.4, 292394.44, 0.00000071117205, 10.00275, 9.998276 
1.955162e+3, 1.9389255e+2, -839274.7, -1132626.5, -26189.129, 0.017503861, -0.49175996, -836955.0, 202851.28, 0.0, 10.002142, 9.998256 
1.9551538e+3, 2.0389117e+2, -794998.9, -999559.2, -31429.693, 0.010193525, -0.47449175, -790278.75, 151541.69, 0.0, 10.001511, 9.998801 
1.9551457e+3, 2.1389042e+2, -796354.2, -953710.56, -34077.516, 0.024491929, -0.43719983, -789291.3, 54538.055, 0.0, 10.000846, 9.998763 
1.9551374e+3, 2.2388951e+2, -750085.6, -808022.7, -49645.88, 0.025626333, -0.42721745, -721574.7, 24263.97, 0.0, 10.000178, 9.999412 
1.9551286e+3, 2.3388864e+2, -752140.6, -761015.7, -47894.414, 0.009097206, -0.461924, -708478.6, -60631.863, 0.0, 9.999504, 9.999387 
1.9551198e+3, 2.438881e+2, -712826.1, -631922.94, -45776.195, 0.012076085, -0.4752326, -611286.1, -61434.18, 0.0, 9.998846, 9.999916 
1.9551115e+3, 2.5388825e+2, -710145.5, -584591.5, -48554.008, 0.03803348, -0.45491338, -568005.75, -116155.086, 0.0, 9.998212, 9.999874 
1.9551028e+3, 2.638885e+2, -655949.56, -427157.34, -41449.293, 0.027420653, -0.44662854, -419879.66, -66031.195, 0.0, 9.997564, 10.000594 
1.9550939e+3, 2.7388898e+2, -657038.94, -378483.97, -37968.188, -0.021280523, -0.465181, -373401.5, -117558.01, 0.0, 9.996891, 10.00058 
1.9550855e+3, 2.838898e+2, -638782.44, -271592.16, -47613.617, 0.008075424, -0.45587492, -265518.56, -107683.03, 0.0, 9.9961405, 10.001002 
1.9550778e+3, 2.9389146e+2, -665054.8, -236163.73, -51658.96, 0.10674308, -0.39496973, -230029.27, -170209.42, 0.0, 9.995298, 10.000978 
1.9550683e+3, 3.0389252e+2, -627596.4, -40443.332, 15403.39, -0.074340016, -0.4500752, -40039.516, -40039.516, 0.0, 9.994561, 10.002343 
1.9550624e+3, 3.1389484e+2, -714450.75, -82410.11, -48694.977, 0.046546407, -0.4555788, -78680.45, -78680.45, 0.0, 9.993971, 10.002337 
1.9652225e+3, 1.239177e+2, -1035341.3, -1741161.4, 37347.375, 0.05850418, -0.47802618, -1033370.6, 692183.56, 0.05708217, 10.006567, 9.996656 
1.9652139e+3, 1.3391365e+2, -1015932.75, -1657687.5, 6172.588, 0.027739856, -0.5853868, -1015873.4, 611719.75, 0.039912026, 10.005781, 9.996934 
1.9652057e+3, 1.4391078e+2, -974357.7, -1547826.3, 10401.464, 0.04210138, -0.57743496, -974169.1, 555452.1, 0.022932958, 10.005115, 9.997336 
1.9651972e+3, 1.5390876e+2, -940430.7, -1490316.4, 6744.375, 0.006432232, -0.51897526, -940348.0, 491294.8, 0.009818082, 10.0046425, 9.997286 
1.9651888e+3, 1.6390653e+2, -894279.06, -1369724.0, 11293.751, 0.00019297852, -0.48594573, -894010.94, 439655.2, 0.0026250521, 10.004048, 9.997726 
1.9651811e+3, 1.7390418e+2, -912891.25, -1334911.4, 17968.576, 0.03523358, -0.49736643, -912127.56, 323562.94, 0.0002660043, 10.003268, 9.997669 
1.965173e+3, 1.8390206e+2, -866348.1, -1192353.5, 2291.665, 0.04271843, -0.4992925, -866332.0, 271380.34, 0.0000007473898, 10.002614, 9.99829 
1.9651641e+3, 1.9390053e+2, -837155.2, -1131307.8, -2116.9465, 0.0094514545, -0.48681384, -837139.94, 202588.2, 0.0, 10.002158, 9.998256 
1.9651553e+3, 2.038992e+2, -778933.3, -983708.25, -12327.391, 0.0022986706, -0.46821237, -778193.94, 163548.08, 0.0, 10.001588, 9.998871 
1.9651467e+3, 2.1389838e+2, -791336.5, -942603.5, -6260.4165, 0.033742145, -0.44406778, -791077.9, 52673.145, 0.0, 10.000846, 9.998838 
1.9651377e+3, 2.238975e+2, -750834.8, -808263.0, -16396.488, 0.03893385, -0.43656564, -746483.1, -723.04205, 0.0, 10.000175, 9.999411 
1.965128e+3, 2.3389678e+2, -736775.0, -755001.94, -23037.053, 0.0069818785, -0.45641965, -721114.25, -73346.88, 0.0, 9.999617, 9.9993725 
1.9651186e+3, 2.4389629e+2, -694259.56, -622816.1, -27562.27, 0.0035695632, -0.46287847, -613418.94, -63646.742, 0.0, 9.998975, 9.999916 
1.9651096e+3, 2.5389636e+2, -712171.7, -585637.1, -26463.092, 0.035539724, -0.4508425, -580325.7, -128554.39, 0.0, 9.9982, 9.999871 
1.9651003e+3, 2.638965e+2, -668478.2, -430931.56, -17943.541, 0.027285812, -0.45429876, -429583.78, -75813.89, 0.0, 9.997471, 10.000611 
1.9650906e+3, 2.738969e+2, -669311.2, -382701.66, -21235.355, -0.02075249, -0.4819471, -381136.84, -125371.28, 0.0, 9.996801, 10.000593 
1.9650818e+3, 2.8389782e+2, -638791.56, -277497.47, -33126.484, 0.013470408, -0.46022987, -274485.28, -116728.79, 0.0, 9.996168, 10.000948 
1.9650732e+3, 2.9389966e+2, -625978.0, -223254.1, -29337.047, 0.113596424, -0.37482312, -221128.2, -161389.27, 0.0, 9.995595, 10.000923 
1.9650628e+3, 3.0389997e+2, -600858.1, -38465.18, 26409.523, -0.08870602, -0.49746636, -37227.73, -37227.73, 0.0, 9.994795, 10.002244 
1.9650564e+3, 3.1390262e+2, -731592.44, -65925.2, -35165.74, 0.053435717, -0.45836967, -64072.63, -64072.63, 0.0, 9.993749, 10.002557 
1.975229e+3, 1.2392572e+2, -1029951.6, -1729427.8, 9672.247, 0.04343667, -0.5151754, -1029817.9, 695657.3, 0.05869299, 10.006577, 9.996733 
1.9752198e+3, 1.339223e+2, -1011663.9, -1648194.4, -22759.951, 0.044090334, -0.56671345, -1010851.1, 616657.3, 0.041089006, 10.005785, 9.996999 
1.975211e+3, 1.439196e+2, -979769.06, -1559234.1, -8475.311, 0.06937248, -0.5409081, -979645.1, 549889.94, 0.023659619, 10.0051155, 9.997258 
1.975202e+3, 1.5391704e+2, -946760.7, -1504545.9, -10572.347, 0.021311404, -0.5269088, -946560.4, 485001.56, 0.010165658, 10.004646, 9.997187 
1.975193e+3, 1.6391465e+2, -884759.8, -1351371.4, -16621.836, 0.0028672332, -0.5089772, -884168.5, 449418.16, 0.0027344956, 10.004053, 9.997851 
1.9751844e+3, 1.7391273e+2, -901649.8, -1313091.8, -11339.194, 0.027557384, -0.49109444, -901337.56, 334268.84, 0.0002801359, 10.003272, 9.997818 
1.9751756e+3, 1.8391085e+2, -868336.75, -1197878.8, -15961.946, 0.031713467, -0.47789124, -867565.44, 270060.72, 0.00000077122036, 10.002619, 9.998251 
1.9751662e+3, 1.9390918e+2, -841216.9, -1140774.6, -18686.553, 0.005245021, -0.4724384, -840055.7, 199588.14, 0.0, 10.00216, 9.998191 
1.9751568e+3, 2.0390776e+2, -766389.9, -958641.75, -38536.598, 0.0039074905, -0.4681141, -758953.0, 182705.53, 0.0, 10.00159, 9.999043 
1.9751476e+3, 2.1390687e+2, -776846.0, -913770.1, -33549.94, 0.03951485, -0.46877688, -769067.3, 74599.586, 0.0, 10.000849, 9.999036 
1.9751379e+3, 2.2390608e+2, -756739.0, -821947.7, -37490.434, 0.0434658, -0.46066335, -739658.56, 6016.541, 0.0, 10.000179, 9.999316 
1.9751276e+3, 2.3390563e+2, -745440.2, -774376.0, -43103.527, 0.00249136, -0.44017035, -714441.25, -66760.08, 0.0, 9.99962, 9.999239 
1.9751176e+3, 2.4390523e+2, -691149.06, -617988.06, -55028.13, -0.005283584, -0.43074647, -588491.1, -38805.574, 0.0, 9.99898, 9.9999485 
1.9751078e+3, 2.5390512e+2, -707653.7, -578216.25, -54909.023, 0.028126592, -0.44416368, -558061.44, -106375.59, 0.0, 9.998207, 9.999921 
1.9750978e+3, 2.6390508e+2, -671469.06, -439215.0, -42994.395, 0.024209326, -0.46313995, -431511.47, -77826.03, 0.0, 9.9974785, 10.000552 
1.9750875e+3, 2.739055e+2, -674083.06, -394463.3, -46200.313, -0.011888742, -0.4821459, -387027.56, -131346.48, 0.0, 9.996807, 10.00051 
1.9750781e+3, 2.839064e+2, -636381.25, -274392.0, -54981.15, 0.02988339, -0.45876354, -266225.38, -108553.43, 0.0, 9.996174, 10.000967 
1.9750689e+3, 2.93908e+2, -623108.06, -219316.06, -51193.938, 0.12284636, -0.40136886, -212926.64, -153270.61, 0.0, 9.995601, 10.000948 
1.9750574e+3, 3.0390766e+2, -627000.3, -94138.22, -13710.581, -0.09850058, -0.5705806, -93785.68, -93785.68, 0.0, 9.994799, 10.001861 
1.9750501e+3, 3.1391057e+2, -711044.1, -24480.424, -48994.496, 0.051071793, -0.4655701, -21001.709, -21001.709, 0.0, 9.993752, 10.002842 
1.9852357e+3, 1.2393469e+2, -997705.1, -1724334.4, 37597.42, 0.052649908, -0.5383882, -995764.94, 729621.75, 0.060321122, 10.006876, 9.996623 
1.9852257e+3, 1.3393143e+2, -1001978.94, -1657164.3, -8850.031, 0.053529117, -0.56005776, -1001859.44, 625559.9, 0.042280212, 10.005923, 9.99687 
1.9852163e+3, 1.4392883e+2, -969172.8, -1546627.1, 15810.442, 0.07803748, -0.52199656, -968740.25, 560705.1, 0.02439569, 10.005165, 9.99732 
1.9852068e+3, 1.5392612e+2, -933917.6, -1488967.5, 27688.969, 0.035754584, -0.5294175, -932539.75, 498933.2, 0.010517809, 10.0047, 9.997268 
1.9851972e+3, 1.6392371e+2, -875170.8, -1346812.1, 14281.7705, 0.014423699, -0.51890415, -874738.75, 458758.94, 0.002845559, 10.004123, 9.9978485 
1.9851877e+3, 1.7392193e+2, -887912.06, -1307997.3, 6300.7646, 0.023510002, -0.4867907, -887817.56, 347699.03, 0.00029456127, 10.003376, 9.997802 
1.9851781e+3, 1.8392009e+2, -853529.56, -1184289.4, 6072.918, 0.024457114, -0.4683663, -853418.06, 284117.78, 0.0000007914033, 10.002695, 9.998306 
1.9851685e+3, 1.9391839e+2, -843440.25, -1134915.6, 12732.357, 0.01321762, -0.47183144, -842885.1, 196668.67, 0.0, 10.002117, 9.998251 
1.9851586e+3, 2.03917e+2, -772648.4, -950845.0, -11564.26, 0.015165115, -0.47283748, -771901.0, 169667.05, 0.0, 10.001503, 9.999138 
1.9851483e+3, 2.1391621e+2, -773196.25, -901166.5, -15227.599, 0.036014605, -0.47314867, -771409.25, 72165.875, 0.0, 10.00083, 9.99913 
1.9851379e+3, 2.239155e+2, -757039.7, -822710.7, -16558.55, 0.034870904, -0.46243432, -753100.8, -7518.2056, 0.0, 10.000182, 9.999309 
1.9851272e+3, 2.3391508e+2, -754020.25, -780814.9, -14002.014, 0.0036918696, -0.4356401, -748038.56, -100449.73, 0.0, 9.999575, 9.999216 
1.9851166e+3, 2.4391471e+2, -692896.25, -616592.3, -26203.646, -0.00054516783, -0.42391676, -608460.3, -58867.066, 0.0, 9.9989605, 9.999966 
1.985106e+3, 2.5391456e+2, -687622.75, -566223.4, -28656.42, 0.026363607, -0.4415847, -559799.0, -108205.52, 0.0, 9.998336, 9.99994 
1.9850951e+3, 2.639145e+2, -647887.2, -434113.84, -18272.436, 0.020373652, -0.46338943, -432563.22, -78969.98, 0.0, 9.997668, 10.000495 
1.9850844e+3, 2.739148e+2, -661705.1, -396622.6, -21391.959, -0.009551434, -0.48232538, -394907.38, -139317.8, 0.0, 9.99693, 10.000435 
1.9850743e+3, 2.8391564e+2, -620893.06, -267575.44, -25920.828, 0.03512952, -0.46356812, -265683.9, -108102.66, 0.0, 9.9962845, 10.000959 
1.9850646e+3, 2.939171e+2, -606437.7, -212959.67, -25004.594, 0.122222275, -0.41934675, -211377.05, -151810.56, 0.0, 9.995725, 10.000932 
1.9850522e+3, 3.0391672e+2, -644030.5, -134474.77, -5706.7656, -0.10071592, -0.57633805, -134410.86, -134410.86, 0.0, 9.9948225, 10.001571 
1.9850439e+3, 3.139194e+2, -699162.9, 12851.353, -5648.972, 0.048791867, -0.4664137, 12896.167, 12896.167, 0.0, 9.993699, 10.003122 
1.995243e+3, 1.239446e+2, -1018572.94, -1766857.5, 4148.6885, 0.08156257, -0.5500891, -1018549.94, 706738.94, 0.061981298, 10.006871, 9.996334 
1.9952317e+3, 1.3394108e+2, -1022349.06, -1703227.8, -43179.508, 0.056407787, -0.5640141, -1019621.7, 607703.7, 0.04349611, 10.005937, 9.996549 
1.9952214e+3, 1.4393848e+2, -954444.6, -1518917.3, -2889.2446, 0.06964795, -0.51871014, -954429.8, 574922.25, 0.025147976, 10.00518, 9.997505 
1.9952115e+3, 1.5393598e+2, -917298.7, -1454459.4, 10373.442, 0.049524024, -0.52688825, -917098.44, 514277.63, 0.010878366, 10.004701, 9.997505 
1.9952016e+3, 1.6393365e+2, -885015.0, -1366614.5, -12728.928, 0.03381627, -0.51685625, -884678.8, 448720.94, 0.0029599068, 10.004118, 9.997716 
1.995191e+3, 1.739317e+2, -899750.25, -1333913.0, -21423.965, 0.022667818, -0.48425937, -898695.6, 336725.53, 0.0003098211, 10.00338, 9.997623 
1.9951807e+3, 1.839298e+2, -842981.2, -1164373.9, -15740.585, 0.020560566, -0.4697977, -842212.1, 295229.4, 0.00000083281077, 10.002701, 9.998442 
1.9951707e+3, 1.9392817e+2, -831293.8, -1110460.5, -8360.825, 0.032406334, -0.483966, -831043.6, 208414.55, 0.0, 10.002119, 9.99842 
1.9951603e+3, 2.0392688e+2, -771784.06, -949617.25, -35986.83, 0.03529173, -0.4818854, -764777.75, 176693.28, 0.0, 10.001503, 9.999147 
1.9951491e+3, 2.1392633e+2, -773347.7, -903000.5, -39867.793, 0.023644146, -0.458211, -762069.56, 81406.66, 0.0, 10.0008335, 9.999117 
1.995138e+3, 2.2392568e+2, -751179.94, -812362.56, -39020.88, 0.013780039, -0.44314432, -732188.4, 13294.799, 0.0, 10.000187, 9.999378 
1.9951269e+3, 2.3392506e+2, -748105.6, -769848.0, -35986.305, 0.0101494035, -0.44251043, -721384.3, -73893.35, 0.0, 9.9995775, 9.99929 
1.9951157e+3, 2.4392462e+2, -692534.3, -617316.4, -48877.15, 0.016989846, -0.44128653, -593253.5, -43757.64, 0.0, 9.998964, 9.99996 
1.9951044e+3, 2.539246e+2, -687762.3, -568457.0, -51383.17, 0.029728424, -0.44272217, -549378.0, -97883.23, 0.0, 9.998342, 9.999923 
1.995093e+3, 2.6392463e+2, -651473.1, -443576.38, -45250.1, 0.015519336, -0.45510122, -434154.4, -80660.336, 0.0, 9.997675, 10.000428 
1.9950813e+3, 2.739248e+2, -666508.6, -408357.75, -48768.99, -0.01367016, -0.48206583, -399451.75, -143959.95, 0.0, 9.996935, 10.000354 
1.9950706e+3, 2.8392544e+2, -622492.75, -272748.06, -47140.027, 0.029333817, -0.47471192, -266505.75, -109020.45, 0.0, 9.99629, 10.000922 
1.9950603e+3, 2.9392684e+2, -609554.44, -221498.44, -47767.96, 0.111359864, -0.4306174, -215704.9, -156233.61, 0.0, 9.995731, 10.000871 
1.9950472e+3, 3.0392706e+2, -658217.06, -165156.38, -50106.85, -0.09508795, -0.5135212, -160115.84, -160115.84, 0.0, 9.994825, 10.001359 
1.9950375e+3, 3.1392902e+2, -681942.56, 47587.785, -21614.514, 0.042187095, -0.4610287, 48227.617, 48227.617, 0.0, 9.9937, 10.003362 
2.00525e+3, 1.23955324e+2, -1027038.4, -1770481.5, 23411.064, 0.10157119, -0.5394875, -1026301.9, 698882.8, 0.06368466, 10.00682, 9.996333 
2.005238e+3, 1.3395177e+2, -962222.6, -1674173.4, -3529.6646, 0.056974914, -0.555876, -962205.1, 665016.44, 0.04474629, 10.006385, 9.996531 
2.0052268e+3, 1.4394914e+2, -885234.7, -1489868.8, 37963.05, 0.06446417, -0.5090823, -882860.44, 646387.9, 0.02592383, 10.005695, 9.997461 
2.0052165e+3, 1.5394658e+2, -930044.5, -1466243.9, 30871.758, 0.066917874, -0.5192997, -928272.9, 502999.84, 0.011251918, 10.00464, 9.997452 
2.0052058e+3, 1.6394418e+2, -922087.2, -1380272.6, 8775.181, 0.05594324, -0.51315266, -921919.2, 411377.53, 0.003079582, 10.003847, 9.997751 
2.0051944e+3, 1.739422e+2, -887103.5, -1323074.8, 15828.965, 0.022513144, -0.4875088, -886529.56, 348788.84, 0.0003265317, 10.0034485, 9.9976635 
2.0051834e+3, 1.8394032e+2, -816496.3, -1147590.3, 21052.676, 0.011513153, -0.473615, -815163.06, 322175.34, 0.0000009170216, 10.002868, 9.998475 
2.0051728e+3, 1.939388e+2, -845076.75, -1113596.9, 17500.83, 0.034810584, -0.4786483, -843940.94, 195413.03, 0.0, 10.002011, 9.998448 
2.0051618e+3, 2.0393759e+2, -796417.56, -957683.0, -9652.292, 0.041395787, -0.47364882, -795841.9, 145524.36, 0.0, 10.00132, 9.999179 
2.0051499e+3, 2.1393701e+2, -765004.75, -895633.06, -10393.229, 0.021519072, -0.45601207, -764183.0, 79188.75, 0.0, 10.000879, 9.999145 
2.0051382e+3, 2.2393636e+2, -728306.06, -792319.0, -12617.431, 0.010447178, -0.44413516, -725908.8, 19469.71, 0.0, 10.000308, 9.999456 
2.0051265e+3, 2.3393585e+2, -748352.56, -760703.7, -10187.196, 0.016443502, -0.44329864, -742615.25, -95229.94, 0.0, 9.999538, 9.999372 
2.0051147e+3, 2.4393545e+2, -702594.5, -621032.9, -17518.752, 0.022743842, -0.44276145, -617429.2, -68039.414, 0.0, 9.998892, 9.999969 
2.0051026e+3, 2.5393546e+2, -675109.44, -562251.7, -18459.396, 0.020036487, -0.4439865, -559309.1, -107920.266, 0.0, 9.99843, 9.999921 
2.0050904e+3, 2.6393548e+2, -632049.94, -436706.06, -18907.129, 0.0033389095, -0.45038772, -434892.9, -81505.14, 0.0, 9.997821, 10.000403 
2.0050783e+3, 2.7393574e+2, -659893.9, -408330.97, -19249.127, -0.010495881, -0.46882898, -406866.6, -151481.77, 0.0, 9.996996, 10.000323 
2.0050669e+3, 2.8393623e+2, -618833.9, -273007.78, -6137.8276, 0.03341395, -0.4741035, -272898.88, -115519.055, 0.0, 9.996326, 10.000902 
2.0050558e+3, 2.9393733e+2, -599792.3, -220595.81, -7851.333, 0.09965726, -0.45696104, -220433.31, -161064.38, 0.0, 9.995817, 10.000834 
2.0050421e+3, 3.0393818e+2, -645569.25, -167767.39, -25019.242, -0.08111012, -0.4705417, -166460.88, -166460.88, 0.0, 9.994953, 10.001279 
2.0050311e+3, 3.139397e+2, -665081.5, 50423.17, 35297.355, 0.028982816, -0.45285195, 52160.25, 52160.25, 0.0, 9.99384, 10.003313 
2.0152569e+3, 1.2396685e+2, -1009556.1, -1732208.8, 7327.3647, 0.111875385, -0.50915134, -1009481.8, 715592.1, 0.065439895, 10.006832, 9.996591 
2.0152442e+3, 1.3396344e+2, -945920.8, -1637490.6, -19710.266, 0.054981414, -0.5371725, -945359.5, 681748.6, 0.046038914, 10.006386, 9.996783 
2.0152324e+3, 1.4396079e+2, -904226.44, -1528140.4, 1115.2306, 0.061797034, -0.49428907, -904224.44, 624910.1, 0.02672993, 10.0056925, 9.997194 
2.0152213e+3, 1.5395789e+2, -951769.1, -1513679.0, -8210.035, 0.0873207, -0.5068479, -951649.2, 479513.75, 0.01164283, 10.004647, 9.997124 
2.0152096e+3, 1.6395532e+2, -907791.4, -1353282.9, -8077.4463, 0.080298916, -0.5075232, -907645.0, 425543.53, 0.0032065536, 10.003857, 9.997932 
2.0151979e+3, 1.7395343e+2, -870029.3, -1288763.3, 1254.763, 0.022857495, -0.4960762, -870025.5, 365182.84, 0.00034520094, 10.003451, 9.997899 
2.0151861e+3, 1.8395168e+2, -821413.2, -1158307.6, -9261.047, -0.0024800028, -0.47960183, -821158.75, 316068.16, 0.0000010607014, 10.002868, 9.998403 
2.0151746e+3, 1.9395033e+2, -852072.94, -1129647.3, -14336.368, 0.021371884, -0.45688742, -851334.44, 187907.06, 0.0, 10.002016, 9.998337 
2.015163e+3, 2.039491e+2, -792268.25, -950888.56, -27159.16, 0.034245886, -0.4492594, -787746.94, 153507.28, 0.0, 10.001326, 9.999225 
2.015151e+3, 2.1394822e+2, -760503.75, -887177.6, -26049.645, 0.028907308, -0.46600467, -755356.06, 87906.16, 0.0, 10.00088, 9.999204 
2.0151386e+3, 2.2394755e+2, -722635.4, -781327.75, -39685.664, 0.023765357, -0.46417773, -702624.2, 42644.816, 0.0, 10.000309, 9.999533 
2.015126e+3, 2.3394737e+2, -742097.5, -749396.9, -38501.855, 0.022386149, -0.4378623, -707072.75, -59800.375, 0.0, 9.999543, 9.999448 
2.0151135e+3, 2.439471e+2, -700500.7, -618699.5, -35483.406, 0.0170513, -0.42894047, -605452.8, -56177.184, 0.0, 9.9988985, 9.999983 
2.0151009e+3, 2.5394696e+2, -674396.0, -561937.7, -35261.727, -0.0024060553, -0.4455502, -551795.9, -100519.445, 0.0, 9.998433, 9.999924 
2.0150882e+3, 2.63947e+2, -630818.9, -435253.8, -48468.43, -0.015916727, -0.4489782, -423900.6, -70625.516, 0.0, 9.997824, 10.000414 
2.0150754e+3, 2.739475e+2, -658027.9, -406106.2, -49655.723, -0.0002282181, -0.44290414, -396671.97, -141402.47, 0.0, 9.997001, 10.000338 
2.0150633e+3, 2.8394789e+2, -619013.06, -275141.47, -26127.172, 0.046681445, -0.46240574, -273167.66, -115901.91, 0.0, 9.996331, 10.000886 
2.0150515e+3, 2.939484e+2, -601202.7, -224757.56, -29613.9, 0.0859861, -0.4981266, -222442.16, -163181.83, 0.0, 9.99582, 10.000806 
2.0150374e+3, 3.0394995e+2, -641027.75, -159134.27, -68219.336, -0.05825576, -0.44594905, -149662.94, -149662.94, 0.0, 9.994954, 10.001338 
2.0150247e+3, 3.139516e+2, -690817.06, -4778.7207, 9589.538, 0.007051876, -0.4205313, -4644.703, -4644.703, 0.0, 9.993846, 10.002933 
2.0252639e+3, 1.239791e+2, -957260.7, -1711228.8, 46574.94, 0.10768622, -0.4978953, -954394.5, 770560.75, 0.067256376, 10.007255, 9.996536 
2.0252508e+3, 1.3397577e+2, -955090.1, -1649836.5, -1991.0537, 0.07053416, -0.5095091, -955084.44, 671904.56, 0.04738045, 10.006364, 9.996708 
2.0252383e+3, 1.439731e+2, -921501.75, -1533117.3, 10032.137, 0.08025664, -0.46586004, -921337.25, 607678.2, 0.02757058, 10.005562, 9.997221 
2.025226e+3, 1.5396993e+2, -914631.6, -1491803.5, 24447.137, 0.09136539, -0.50818086, -913597.94, 517447.47, 0.012053874, 10.004893, 9.997154 
2.0252137e+3, 1.6396725e+2, -860995.1, -1333935.6, 40980.918, 0.08013199, -0.51917, -857470.3, 475601.22, 0.0033421372, 10.004196, 9.997901 
2.0252015e+3, 1.7396551e+2, -871705.56, -1294008.9, 31615.922, 0.033667494, -0.48899966, -869351.7, 365738.66, 0.0003661045, 10.003462, 9.997856 
2.0251891e+3, 1.8396382e+2, -835116.44, -1161711.6, 7086.572, 0.01043168, -0.4652625, -834962.75, 302145.78, 0.0000012791296, 10.002763, 9.998428 
2.0251767e+3, 1.939624e+2, -835730.5, -1118387.6, 10579.005, 0.023026874, -0.45230848, -835335.1, 203788.5, 0.0, 10.002115, 9.998365 
2.0251644e+3, 2.0396116e+2, -771345.1, -936066.7, 8679.011, 0.031059729, -0.44899875, -770889.06, 170247.27, 0.0, 10.001451, 9.999265 
2.0251517e+3, 2.1396038e+2, -775799.8, -890026.7, 8580.907, 0.030786287, -0.46200654, -775158.8, 67984.83, 0.0, 10.000758, 9.999241 
2.0251387e+3, 2.2395973e+2, -746853.44, -791257.06, -10540.19, 0.027530367, -0.45877987, -744478.5, 671.5985, 0.0, 10.000137, 9.999546 
2.0251256e+3, 2.3395954e+2, -730373.06, -742649.9, -15006.381, 0.022447912, -0.4347388, -720298.1, -73144.484, 0.0, 9.999621, 9.999455 
2.0251124e+3, 2.439593e+2, -681401.9, -602269.56, -12891.433, 0.015275335, -0.4265965, -600222.4, -51065.734, 0.0, 9.999001, 10.000045 
2.0250992e+3, 2.5395924e+2, -700281.2, -566828.06, -8154.1055, -0.0014190538, -0.4405426, -566331.7, -115175.11, 0.0, 9.998225, 9.9999895 
2.0250858e+3, 2.6395935e+2, -670641.25, -453804.22, -20904.334, -0.012308916, -0.44085377, -451807.3, -98652.8, 0.0, 9.99755, 10.000418 
2.0250724e+3, 2.7395988e+2, -655251.1, -404749.22, -23276.84, 0.0013860195, -0.43384305, -402604.7, -147455.8, 0.0, 9.997022, 10.000336 
2.0250596e+3, 2.8396013e+2, -617191.6, -277131.44, -1535.5459, 0.037519768, -0.45758155, -277124.5, -119978.78, 0.0, 9.996359, 10.000858 
2.025047e+3, 2.9396063e+2, -649364.1, -250002.84, -7243.6826, 0.06538403, -0.49816138, -249871.48, -190730.33, 0.0, 9.995501, 10.000785 
2.0250325e+3, 3.0396235e+2, -649073.1, -137328.78, -43315.28, -0.030395081, -0.43839318, -133688.36, -133688.36, 0.0, 9.994791, 10.001565 
2.0250185e+3, 3.1396395e+2, -642083.44, -10937.751, 55823.55, -0.013214442, -0.43662673, -6038.305, -6038.305, 0.0, 9.994309, 10.0026655 
2.035271e+3, 1.23992026e+2, -980520.5, -1760584.8, 15180.738, 0.08886683, -0.5064625, -980225.2, 744603.6, 0.06914351, 10.007261, 9.996189 
2.0352575e+3, 1.3398877e+2, -980481.9, -1705073.9, -33700.89, 0.1013326, -0.47318438, -978917.8, 647946.2, 0.04877607, 10.00637, 9.996327 
2.0352441e+3, 1.4398608e+2, -901607.4, -1492360.0, -14594.261, 0.117277354, -0.42436522, -901247.06, 627643.8, 0.028448174, 10.005568, 9.997507 
2.0352308e+3, 1.539827e+2, -889545.1, -1440468.6, -257.54474, 0.08017708, -0.5224805, -889545.0, 541375.3, 0.012486358, 10.004899, 9.997505 
2.0352177e+3, 1.6397998e+2, -876998.6, -1368657.3, 13683.537, 0.0573287, -0.54704, -876618.1, 456328.0, 0.003487073, 10.004201, 9.997662 
2.035205e+3, 1.7397842e+2, -892727.7, -1338618.6, 4457.576, 0.053947806, -0.46736297, -892683.1, 342281.5, 0.0003893878, 10.003463, 9.997551 
2.0351921e+3, 1.8397672e+2, -827230.1, -1146174.9, -16813.277, 0.047954742, -0.43204817, -826346.25, 310637.13, 0.0000015848547, 10.002764, 9.998536 
2.035179e+3, 1.9397502e+2, -824724.0, -1096704.6, -13009.551, 0.03864506, -0.46384344, -824103.1, 214897.34, 0.0, 10.002118, 9.998514 
2.0351657e+3, 2.0397377e+2, -768790.3, -932193.9, -16574.186, 0.031551853, -0.47112885, -767126.1, 173886.78, 0.0, 10.001455, 9.99929 
2.0351523e+3, 2.1397337e+2, -774272.94, -888469.75, -16828.514, 0.02721641, -0.4444494, -771844.6, 71171.88, 0.0, 10.000763, 9.999251 
2.0351389e+3, 2.2397284e+2, -749880.6, -799162.56, -30045.143, 0.022016775, -0.42930672, -735664.3, 9358.028, 0.0, 10.000142, 9.999491 
2.0351252e+3, 2.3397228e+2, -734516.06, -752460.8, -33501.742, 0.01682532, -0.43423223, -708806.0, -61776.37, 0.0, 9.999624, 9.999388 
2.0351115e+3, 2.4397196e+2, -673577.44, -587403.1, -40393.074, 0.017200805, -0.4352035, -571430.1, -22396.656, 0.0, 9.999004, 10.000147 
2.0350976e+3, 2.539722e+2, -690917.1, -549266.56, -36810.563, 0.021785745, -0.42879635, -540271.8, -89241.98, 0.0, 9.998231, 10.000108 
2.0350836e+3, 2.6397243e+2, -670572.1, -455638.3, -41514.477, 0.013052727, -0.42639267, -447898.5, -94871.695, 0.0, 9.997556, 10.000403 
2.0350693e+3, 2.739727e+2, -656774.75, -409337.1, -42972.652, -0.0054542734, -0.44149318, -402086.47, -147062.72, 0.0, 9.9970255, 10.000303 
2.0350556e+3, 2.83973e+2, -619844.25, -283786.7, -33098.016, 0.0063831834, -0.45878983, -280557.9, -123537.49, 0.0, 9.996362, 10.000813 
2.0350422e+3, 2.9397386e+2, -650241.94, -252952.28, -40581.258, 0.037390042, -0.45658475, -248849.47, -189837.23, 0.0, 9.995502, 10.000765 
2.0350276e+3, 3.0397522e+2, -621167.44, -80783.79, -63171.902, 0.0024248753, -0.4510117, -73497.125, -73497.125, 0.0, 9.994795, 10.001953 
2.0350127e+3, 3.13977e+2, -652852.75, -35793.336, 35225.543, -0.028760402, -0.47111404, -33788.953, -33788.953, 0.0, 9.994318, 10.002492 
2.0452783e+3, 1.24006e+2, -952535.3, -1754596.3, 37152.703, 0.079185836, -0.4878892, -950818.0, 773874.8, 0.07110469, 10.007522, 9.996105 
2.0452641e+3, 1.3400248e+2, -964817.7, -1708695.6, 6337.05, 0.112899356, -0.4713178, -964763.7, 661967.1, 0.050228022, 10.006544, 9.996218 
2.04525e+3, 1.4399971e+2, -881408.44, -1477956.0, 37244.4, 0.1312041, -0.42426026, -879092.1, 649666.1, 0.029363615, 10.005697, 9.997545 
2.0452358e+3, 1.5399654e+2, -865224.2, -1422777.5, 32145.408, 0.07544927, -0.50727916, -863376.94, 567408.44, 0.0129405195, 10.005047, 9.997555 
2.0452219e+3, 1.6399382e+2, -865431.8, -1370958.4, 35306.23, 0.04886745, -0.5310963, -862977.94, 469832.97, 0.0036416159, 10.004317, 9.997589 
2.0452087e+3, 1.7399198e+2, -898639.75, -1351541.5, 40125.66, 0.06390909, -0.47160092, -895112.2, 339720.1, 0.00041515523, 10.003468, 9.997458 
2.0451951e+3, 1.839902e+2, -830037.44, -1141685.5, 30898.217, 0.06499147, -0.44233555, -827003.56, 309848.34, 0.0000019870433, 10.002721, 9.998586 
2.0451811e+3, 1.9398868e+2, -819451.94, -1086877.5, 28835.64, 0.045583162, -0.45968074, -816378.0, 222488.84, 0.0, 10.002126, 9.998577 
2.0451672e+3, 2.039875e+2, -765501.6, -937187.6, 16993.816, 0.032159198, -0.46078882, -763835.75, 177042.98, 0.0, 10.001508, 9.999229 
2.0451532e+3, 2.1398696e+2, -766217.94, -893241.94, 9645.555, 0.027464924, -0.4399605, -765489.7, 77394.43, 0.0, 10.000858, 9.999171 
2.045139e+3, 2.2398642e+2, -736783.8, -783403.75, -546.9431, 0.022942876, -0.42576286, -736777.4, 8112.922, 0.0, 10.000194, 9.999573 
2.0451248e+3, 2.33986e+2, -744604.5, -746196.8, 7508.267, 0.019355375, -0.42395696, -737850.3, -90954.52, 0.0, 9.999509, 9.999485 
2.0451103e+3, 2.4398577e+2, -692495.6, -594454.4, 1794.4788, 0.019377453, -0.4221697, -594421.5, -45522.945, 0.0, 9.998868, 10.000163 
2.045096e+3, 2.53986e+2, -682529.3, -544764.8, -3458.7996, 0.02267972, -0.4207203, -544678.06, -93782.69, 0.0, 9.998288, 10.00011 
2.0450813e+3, 2.6398614e+2, -653537.44, -443151.66, -9556.061, 0.018052813, -0.42786047, -442718.5, -89825.39, 0.0, 9.997657, 10.000439 
2.0450665e+3, 2.7398634e+2, -666208.06, -409182.13, -5927.6665, 0.0066336007, -0.4531835, -409045.5, -154154.73, 0.0, 9.996943, 10.000342 
2.0450519e+3, 2.839868e+2, -639721.7, -291230.28, 3636.5017, 0.004500697, -0.4549713, -291192.3, -134306.69, 0.0, 9.996219, 10.000829 
2.0450373e+3, 2.9398808e+2, -644476.1, -247027.02, 496.80255, 0.0034552938, -0.4160228, -247026.4, -188152.78, 0.0, 9.995531, 10.000791 
2.0450224e+3, 3.0398875e+2, -599327.8, -68962.17, -26791.705, 0.0075358017, -0.47545663, -67612.21, -67612.21, 0.0, 9.994942, 10.001962 
2.045007e+3, 3.1399068e+2, -663840.06, -56034.355, 33820.62, -0.02744647, -0.48061058, -54158.24, -54158.24, 0.0, 9.994308, 10.002356 
2.0552856e+3, 1.2402099e+2, -944608.7, -1734065.3, 3004.6458, 0.07619792, -0.4458235, -944597.25, 779950.3, 0.07313479, 10.0075245, 9.996244 
2.0552705e+3, 1.3401687e+2, -956367.56, -1690098.9, -28619.53, 0.1065025, -0.5016556, -955252.94, 671336.8, 0.051734477, 10.006551, 9.996343 
2.0552556e+3, 1.44014e+2, -894158.94, -1505602.8, 12373.366, 0.12374511, -0.4626217, -893908.6, 634709.25, 0.030316552, 10.005705, 9.997348 
2.0552407e+3, 1.540114e+2, -880447.94, -1456119.5, 8268.673, 0.07625674, -0.4648484, -880329.2, 550311.7, 0.013416156, 10.005053, 9.997324 
2.0552263e+3, 1.6400874e+2, -859841.3, -1360730.9, 4577.7817, 0.0531275, -0.47483695, -859799.5, 472866.75, 0.0038057938, 10.004321, 9.997658 
2.0552121e+3, 1.7400613e+2, -891019.4, -1337408.9, 8599.855, 0.06418263, -0.49992555, -890853.75, 343839.75, 0.00044350658, 10.003472, 9.997555 
2.0551978e+3, 1.8400419e+2, -829964.2, -1143212.1, 7935.0313, 0.06300683, -0.4928456, -829763.3, 306950.88, 0.0000024928308, 10.002726, 9.998574 
2.0551834e+3, 1.9400334e+2, -820536.6, -1090527.0, 6852.7227, 0.044210967, -0.44075716, -820362.8, 218360.39, 0.0, 10.002129, 9.998551 
2.0551687e+3, 2.0400229e+2, -775575.2, -959346.8, -6701.0977, 0.032632682, -0.42017403, -775331.1, 165403.17, 0.0, 10.001512, 9.999077 
2.055154e+3, 2.1400112e+2, -777713.75, -918295.9, -13956.641, 0.03127133, -0.44791433, -776341.56, 66405.11, 0.0, 10.000861, 9.999 
2.0551394e+3, 2.2400042e+2, -721810.3, -753688.75, -25468.111, 0.02996837, -0.44660446, -707704.9, 37049.35, 0.0, 10.000197, 9.999777 
2.0551242e+3, 2.3400067e+2, -726463.2, -710348.1, -17592.7, 0.029361079, -0.40402344, -699055.56, -52302.88, 0.0, 9.999515, 9.99973 
2.0551094e+3, 2.4400067e+2, -696798.0, -605318.75, -19957.094, 0.021507565, -0.38834488, -601154.5, -52401.7, 0.0, 9.998874, 10.000087 
2.055094e+3, 2.5400048e+2, -690272.9, -562194.44, -24747.416, 0.0020369748, -0.41625038, -557579.0, -106825.266, 0.0, 9.998292, 9.99999 
2.0550789e+3, 2.640004e+2, -647465.44, -431832.8, -35695.004, 0.003399576, -0.44472975, -426077.6, -73323.56, 0.0, 9.99766, 10.000516 
2.0550637e+3, 2.7400067e+2, -658217.1, -394353.3, -33118.547, 0.036665898, -0.46919444, -390259.97, -135509.31, 0.0, 9.996948, 10.000443 
2.0550483e+3, 2.840015e+2, -634280.94, -281313.53, -23252.723, 0.030748807, -0.4464216, -279788.28, -123046.15, 0.0, 9.996222, 10.000896 
2.0550324e+3, 2.940031e+2, -640366.56, -238899.48, -24611.5, -0.03604368, -0.37511638, -237396.33, -178670.34, 0.0, 9.995531, 10.000848 
2.055017e+3, 3.040029e+2, -625912.0, -125209.484, -49536.32, -0.014962438, -0.5126104, -120355.734, -120355.734, 0.0, 9.994944, 10.001575 
2.0550017e+3, 3.1400502e+2, -666933.44, -65171.04, -6430.2456, -0.0038456377, -0.45758575, -65102.336, -65102.336, 0.0, 9.994318, 10.002291 
2.0652932e+3, 1.2403651e+2, -928611.75, -1712594.9, 30879.027, 0.083057754, -0.43785223, -927397.4, 796999.7, 0.07522317, 10.007602, 9.99636 
2.0652771e+3, 1.340325e+2, -922886.4, -1661000.0, -1842.3589, 0.10262495, -0.49163514, -922881.75, 703555.2, 0.05328904, 10.006755, 9.996444 
2.0652613e+3, 1.440296e+2, -873340.75, -1516519.8, 45716.43, 0.115815125, -0.45245582, -870107.56, 658357.6, 0.031303935, 10.005954, 9.997149 
2.0652458e+3, 1.5402675e+2, -873046.3, -1478748.6, 41982.76, 0.078547396, -0.45697808, -870150.25, 560341.56, 0.013912133, 10.005222, 9.997087 
2.0652308e+3, 1.6402395e+2, -837147.6, -1341937.1, 32833.22, 0.059498545, -0.46790558, -835021.0, 497497.53, 0.00397944, 10.004447, 9.9977255 
2.0652156e+3, 1.7402145e+2, -863856.2, -1313075.1, 36085.297, 0.065883435, -0.4928573, -860975.94, 373567.97, 0.00047454334, 10.003613, 9.997653 
2.0652007e+3, 1.8401952e+2, -816385.94, -1144916.4, 40777.316, 0.062814154, -0.48568052, -811400.3, 325163.63, 0.0000031175111, 10.002857, 9.998499 
2.0651856e+3, 1.940186e+2, -815294.7, -1098850.6, 34713.53, 0.04594498, -0.43261176, -811106.8, 227467.4, 0.0, 10.002214, 9.998452 
2.0651701e+3, 2.0401749e+2, -772252.7, -958871.75, 20151.373, 0.036323678, -0.41169238, -770101.5, 170484.72, 0.0, 10.001541, 9.999064 
2.065155e+3, 2.1401629e+2, -783919.8, -921886.7, 23930.914, 0.03722715, -0.44079906, -779886.8, 62712.156, 0.0, 10.000823, 9.998992 
2.0651397e+3, 2.2401561e+2, -723612.06, -750128.06, 15338.28, 0.03542268, -0.43900108, -716596.0, 28010.332, 0.0, 10.000168, 9.999813 
2.065124e+3, 2.3401594e+2, -710896.25, -698352.1, 8247.675, 0.030133314, -0.39204705, -694262.6, -47658.8, 0.0, 9.999604, 9.999767 
2.0651081e+3, 2.4401599e+2, -684969.2, -595388.6, -1503.1741, 0.01866657, -0.37509757, -595363.44, -46760.066, 0.0, 9.9989395, 10.000122 
2.065092e+3, 2.5401577e+2, -711864.44, -568745.75, 3922.9106, -0.00231178, -0.40826792, -568638.3, -118033.64, 0.0, 9.99813, 10.000022 
2.0650762e+3, 2.6401567e+2, -679751.06, -440789.53, 171.23518, 0.0013823885, -0.4409683, -440789.4, -88184.375, 0.0, 9.997413, 10.000573 
2.0650606e+3, 2.7401605e+2, -672496.3, -394987.63, -640.5785, 0.04109947, -0.46347082, -394986.13, -140385.08, 0.0, 9.996826, 10.000497 
2.0650446e+3, 2.8401703e+2, -631092.25, -269220.8, 6816.53, 0.034343995, -0.43181086, -269092.47, -112501.6, 0.0, 9.996201, 10.000989 
2.0650281e+3, 2.9401883e+2, -634975.75, -227660.92, 8901.093, -0.039299306, -0.3533475, -227466.48, -168893.72, 0.0, 9.995533, 10.000922 
2.0650122e+3, 3.0401826e+2, -655100.8, -172014.06, -12309.666, -0.012214226, -0.5135484, -171700.6, -171700.6, 0.0, 9.994887, 10.00128 
2.0649956e+3, 3.1402022e+2, -672449.75, -44471.09, 23792.398, -0.019404033, -0.443185, -43570.953, -43570.953, 0.0, 9.994182, 10.002497 
2.075301e+3, 1.24052554e+2, -925669.8, -1701488.0, 1032.7329, 0.09722487, -0.46214104, -925668.44, 798572.9, 0.0773573, 10.007594, 9.996448 
2.0752837e+3, 1.3404933e+2, -917980.25, -1649921.6, -31996.428, 0.100639835, -0.4446916, -916584.2, 709688.5, 0.054881398, 10.006762, 9.996518 
2.0752671e+3, 1.4404644e+2, -886931.44, -1547058.3, 18630.516, 0.1070703, -0.3981381, -886406.06, 641894.5, 0.032319292, 10.005965, 9.996933 
2.0752512e+3, 1.5404256e+2, -890159.06, -1515561.9, 15071.971, 0.08171087, -0.4811519, -889796.0, 540542.1, 0.014425818, 10.005225, 9.996833 
2.0752351e+3, 1.6403952e+2, -832606.7, -1333327.1, 2365.3408, 0.067426704, -0.5062472, -832595.5, 499772.16, 0.004162136, 10.004449, 9.997786 
2.0752193e+3, 1.7403789e+2, -856009.3, -1299086.0, 5006.61, 0.06859895, -0.45316696, -855952.75, 378431.16, 0.0005084023, 10.00362, 9.997746 
2.0752034e+3, 1.8403614e+2, -825291.5, -1165903.3, 16250.326, 0.063999414, -0.4253602, -824518.0, 311883.8, 0.0000038992757, 10.002866, 9.998352 
2.0751877e+3, 1.9403443e+2, -827069.5, -1124682.6, 11119.791, 0.05048363, -0.43449524, -826654.6, 211765.44, 0.0, 10.002217, 9.998275 
2.0751719e+3, 2.0403306e+2, -764087.8, -942804.56, -6036.5835, 0.04299769, -0.4330597, -763884.2, 176550.28, 0.0, 10.001543, 9.999175 
2.0751558e+3, 2.1403243e+2, -773604.94, -901684.7, -2558.8945, 0.044866074, -0.41945502, -773553.9, 68887.625, 0.0, 10.000826, 9.99913 
2.0751396e+3, 2.2403191e+2, -732149.56, -769315.94, -5966.34, 0.039056543, -0.40453058, -731215.25, 13232.101, 0.0, 10.000173, 9.999681 
2.0751235e+3, 2.3403177e+2, -722027.7, -722663.1, -12218.922, 0.021951457, -0.38782084, -710122.4, -63672.742, 0.0, 9.999607, 9.9996 
2.075107e+3, 2.4403168e+2, -674999.0, -575895.56, -30599.75, 0.011079359, -0.38159418, -567208.8, -18758.148, 0.0, 9.998942, 10.000256 
2.0750903e+3, 2.540318e+2, -699184.06, -544048.6, -26166.547, 0.008828457, -0.39669502, -539754.0, -89305.38, 0.0, 9.998135, 10.000191 
2.0750737e+3, 2.6403195e+2, -676960.3, -436798.0, -22658.68, 0.011239001, -0.41705257, -434678.9, -82232.09, 0.0, 9.997417, 10.000599 
2.0750572e+3, 2.7403235e+2, -671690.25, -394837.25, -22947.926, 0.020311592, -0.43618953, -392948.03, -138505.4, 0.0, 9.99683, 10.000497 
2.0750405e+3, 2.8403333e+2, -622915.94, -253626.42, -18425.44, 0.015919108, -0.4114128, -252709.38, -96276.78, 0.0, 9.996204, 10.001096 
2.075024e+3, 2.9403505e+2, -628524.0, -215937.73, -15835.8125, -0.0067784507, -0.3518598, -215330.81, -156915.94, 0.0, 9.995538, 10.001002 
2.0750073e+3, 3.0403474e+2, -670106.25, -204610.0, -38809.887, 0.014068819, -0.47660226, -201396.48, -201396.48, 0.0, 9.994891, 10.001056 
2.0749892e+3, 3.1403613e+2, -638873.7, 24677.498, -18143.547, -0.07082061, -0.4423507, 25173.229, 25173.229, 0.0, 9.994182, 10.002974 
2.0853086e+3, 1.2406977e+2, -958405.2, -1715690.6, 33310.754, 0.11667513, -0.44696754, -956942.75, 767130.9, 0.079521194, 10.007361, 9.996453 
2.0852906e+3, 1.3406643e+2, -893647.7, -1637863.9, -4299.041, 0.094994016, -0.43979773, -893622.8, 732482.75, 0.056498088, 10.006955, 9.996506 
2.0852733e+3, 1.4406349e+2, -847557.6, -1537382.5, 38364.664, 0.09261723, -0.39428282, -845430.56, 682703.5, 0.033353575, 10.006296, 9.99684 
2.0852566e+3, 1.5405959e+2, -888453.75, -1526020.0, 44045.152, 0.085422575, -0.46733662, -885425.4, 544747.06, 0.014952923, 10.005291, 9.996729 
2.0852397e+3, 1.6405651e+2, -834665.4, -1340798.4, 39552.016, 0.07768643, -0.48778418, -831593.2, 500609.34, 0.0043526473, 10.004465, 9.9977255 
2.0852232e+3, 1.740548e+2, -819844.8, -1287971.5, 31740.988, 0.06820644, -0.43676952, -817702.44, 416516.72, 0.0005450385, 10.003899, 9.997688 
2.0852064e+3, 1.8405293e+2, -784444.25, -1154100.8, 35712.95, 0.061320223, -0.41366217, -781025.6, 355212.28, 0.000004891204, 10.003182, 9.99828 
2.08519e+3, 1.9405104e+2, -827855.3, -1133516.9, 36852.83, 0.057923418, -0.43202582, -823474.9, 214783.1, 0.0, 10.002251, 9.998197 
2.0851733e+3, 2.0404963e+2, -778172.7, -950882.1, 23703.127, 0.052523784, -0.4305589, -774978.6, 165294.28, 0.0, 10.001453, 9.999162 
2.0851567e+3, 2.1404913e+2, -770903.75, -901279.06, 16487.303, 0.04478055, -0.40251938, -768851.06, 73427.74, 0.0, 10.000851, 9.99912 
2.0851399e+3, 2.2404864e+2, -725637.5, -759262.56, 13319.108, 0.03500531, -0.38611767, -721001.0, 23283.26, 0.0, 10.00019, 9.999741 
2.085123e+3, 2.3404838e+2, -741736.6, -725087.7, 23046.08, 0.02210138, -0.38830087, -708908.75, -62621.504, 0.0, 9.999444, 9.999661 
2.085106e+3, 2.4404828e+2, -704460.5, -590355.1, 6809.172, 0.014229216, -0.38733086, -589950.2, -41661.625, 0.0, 9.998743, 10.000251 
2.0850886e+3, 2.5404856e+2, -704003.7, -547638.6, -2289.3486, 0.013597203, -0.3849529, -547605.1, -97319.336, 0.0, 9.99811, 10.000176 
2.0850714e+3, 2.6404884e+2, -663950.44, -420184.25, -703.33966, 0.011996561, -0.39198482, -420182.22, -67899.625, 0.0, 9.997465, 10.0006895 
2.0850539e+3, 2.7404937e+2, -666046.6, -380969.28, 6252.487, 0.008920153, -0.41004804, -380832.22, -126555.46, 0.0, 9.996823, 10.000594 
2.0850366e+3, 2.840502e+2, -619548.2, -241760.95, 12048.326, 0.002268713, -0.40674555, -241377.11, -85109.6, 0.0, 9.996185, 10.001184 
2.0850194e+3, 2.9405162e+2, -630893.5, -210331.06, 11761.084, -0.00842534, -0.38551253, -210002.42, -151749.84, 0.0, 9.995495, 10.0010605 
2.0850019e+3, 3.0405197e+2, -687743.9, -219691.69, -4694.2393, 0.011364881, -0.44414908, -219644.61, -219644.61, 0.0, 9.9948015, 10.000995 
2.0849834e+3, 3.1405303e+2, -634353.44, 39307.523, 14788.869, -0.080169015, -0.4380064, 39632.027, 39632.027, 0.0, 9.994162, 10.003081 
2.0953162e+3, 1.240881e+2, -964143.6, -1726276.0, 17540.846, 0.13977471, -0.39797014, -963740.1, 760154.56, 0.08169719, 10.007369, 9.996373 
2.0952974e+3, 1.3408385e+2, -901465.7, -1652901.8, -19030.055, 0.08532233, -0.47312084, -900984.06, 724951.2, 0.058126714, 10.006955, 9.996404 
2.0952792e+3, 1.4408076e+2, -847321.2, -1535861.8, 3658.1042, 0.07239355, -0.43597233, -847301.75, 680663.3, 0.034399066, 10.006296, 9.996851 
2.0952617e+3, 1.5407778e+2, -885584.06, -1522049.8, 6541.9424, 0.08953549, -0.41877982, -885516.8, 544478.25, 0.0154893175, 10.0053, 9.996754 
2.0952444e+3, 1.6407485e+2, -845724.56, -1366716.6, 16834.008, 0.089831345, -0.41763452, -845181.25, 486842.78, 0.004549156, 10.004476, 9.997543 
2.0952268e+3, 1.7407219e+2, -833767.25, -1318324.8, 10838.34, 0.06460414, -0.4419182, -833525.0, 400524.63, 0.0005840798, 10.003902, 9.997479 
2.0952095e+3, 1.8406993e+2, -784888.0, -1155838.1, 2435.9746, 0.054867376, -0.4467207, -784872.0, 351200.06, 0.0000061235637, 10.003183, 9.998268 
2.0951924e+3, 1.9406843e+2, -826648.25, -1132481.6, 2244.597, 0.06782698, -0.42567676, -826631.8, 211456.38, 0.0, 10.0022545, 9.998203 
2.0951751e+3, 2.0406716e+2, -787056.06, -971163.1, 497.00333, 0.064412005, -0.40590647, -787054.7, 153047.47, 0.0, 10.001459, 9.999022 
2.0951575e+3, 2.1406637e+2, -781323.44, -924407.06, -5211.7466, 0.03727087, -0.3895499, -781133.9, 60977.36, 0.0, 10.0008545, 9.9989605 
2.0951399e+3, 2.2406581e+2, -708786.75, -725407.94, -13526.462, 0.023747586, -0.38284647, -701221.9, 42895.38, 0.0, 10.000192, 9.999973 
2.0951225e+3, 2.3406574e+2, -722217.0, -685792.44, -4473.5874, 0.029988522, -0.39317518, -685251.06, -39133.85, 0.0, 9.999447, 9.999931 
2.0951048e+3, 2.440657e+2, -714220.9, -612205.1, -17184.049, 0.027364528, -0.39219943, -609388.3, -61270.656, 0.0, 9.998748, 10.0001 
2.0950867e+3, 2.5406596e+2, -716989.25, -576339.6, -25942.549, 0.011937498, -0.37347418, -571707.1, -121590.31, 0.0, 9.998115, 9.999978 
2.0950685e+3, 2.6406634e+2, -653035.75, -399185.7, -24988.33, 0.0038479834, -0.3660297, -396749.28, -44636.266, 0.0, 9.99747, 10.000833 
2.0950508e+3, 2.7406704e+2, -652590.0, -354442.0, -17602.924, 0.006420804, -0.38410297, -353406.3, -99302.19, 0.0, 9.996827, 10.000776 
2.0950328e+3, 2.8406766e+2, -614676.94, -232962.42, -13858.253, -0.0070625283, -0.41762015, -232459.95, -76363.586, 0.0, 9.996189, 10.001245 
2.0950145e+3, 2.9406852e+2, -627987.3, -205767.55, -15619.075, -0.043902293, -0.4556562, -205190.55, -147103.73, 0.0, 9.995499, 10.001091 
2.0949966e+3, 3.040699e+2, -680206.2, -205288.08, -29958.01, -0.020269368, -0.4143168, -203405.77, -203405.77, 0.0, 9.994803, 10.001094 
2.0949778e+3, 3.140711e+2, -656229.5, -6690.9517, -18036.34, -0.04738807, -0.40968093, -6190.5054, -6190.5054, 0.0, 9.994162, 10.002768 
2.1053237e+3, 1.2410652e+2, -928809.75, -1707621.0, 39288.34, 0.12390348, -0.39957467, -926832.8, 796881.25, 0.08386984, 10.007648, 9.996375 
2.1053044e+3, 1.3410223e+2, -905939.25, -1656256.1, 9195.945, 0.09256886, -0.47720116, -905826.56, 719928.6, 0.059756633, 10.006941, 9.996387 
2.1052857e+3, 1.4409913e+2, -860395.94, -1549741.8, 24136.111, 0.08693928, -0.437034, -859551.94, 668233.44, 0.035448726, 10.006244, 9.996779 
2.1052673e+3, 1.5409619e+2, -852650.4, -1514265.5, 18796.984, 0.09322387, -0.40749854, -852116.75, 577698.7, 0.016030535, 10.005571, 9.996675 
2.105249e+3, 1.6409323e+2, -799446.94, -1348804.9, 33169.1, 0.0892377, -0.4038692, -797451.5, 534393.4, 0.0047492976, 10.004818, 9.9975 
2.105231e+3, 1.740904e+2, -828548.44, -1320311.1, 38753.125, 0.068645455, -0.44029158, -825513.25, 408358.6, 0.0006248497, 10.003961, 9.997437 
2.1052127e+3, 1.8408805e+2, -795414.75, -1168390.0, 30385.86, 0.059141815, -0.4473953, -792955.44, 342939.6, 0.0000075799267, 10.003145, 9.998199 
2.1051946e+3, 1.9408661e+2, -812278.8, -1133542.1, 23574.668, 0.066215806, -0.41396207, -810558.06, 227352.94, 0.0, 10.00239, 9.99813 
2.1051764e+3, 2.0408532e+2, -762424.75, -957025.56, 28450.252, 0.062338002, -0.3913071, -758350.7, 181574.44, 0.0, 10.001621, 9.999039 
2.1051583e+3, 2.1408446e+2, -782933.8, -922422.8, 35785.84, 0.042282384, -0.38614509, -774288.75, 67645.98, 0.0, 10.000834, 9.998983 
2.1051401e+3, 2.2408386e+2, -725171.1, -732152.25, 25803.605, 0.030803308, -0.3836584, -702623.06, 41317.797, 0.0, 10.000077, 9.999981 
2.1051218e+3, 2.3408385e+2, -734893.06, -691223.4, 15083.985, 0.032311462, -0.3877828, -686519.8, -40579.58, 0.0, 9.999359, 9.999935 
2.1051036e+3, 2.4408387e+2, -719423.94, -613255.25, 1593.9348, 0.026485441, -0.38238052, -613231.3, -65290.89, 0.0, 9.998708, 10.000111 
2.1050847e+3, 2.5408414e+2, -711774.94, -572996.6, 7980.2896, 0.009712216, -0.3610572, -572539.25, -122599.6, 0.0, 9.998149, 9.999984 
2.1050659e+3, 2.6408458e+2, -647690.25, -392212.5, 9165.785, 0.0009942966, -0.3529935, -391884.06, -39948.426, 0.0, 9.99749, 10.00087 
2.1050474e+3, 2.7408522e+2, -669331.75, -357706.8, 6062.338, 0.0046820873, -0.3767798, -357588.94, -103662.45, 0.0, 9.996694, 10.000817 
2.1050288e+3, 2.8408578e+2, -647241.94, -245752.84, 4280.136, -0.009654645, -0.42026845, -245707.22, -89788.1, 0.0, 9.995955, 10.001268 
2.1050097e+3, 2.940866e+2, -651681.9, -212969.44, 884.9801, -0.051398024, -0.46379596, -212967.66, -155057.73, 0.0, 9.99532, 10.001126 
2.1049912e+3, 3.0408838e+2, -659914.44, -159750.47, -658.2208, -0.031725693, -0.4040826, -159749.61, -159749.61, 0.0, 9.994791, 10.0014105 
2.1049722e+3, 3.1408966e+2, -655777.75, -36854.703, 18811.336, -0.044552736, -0.41618246, -36283.49, -36283.49, 0.0, 9.994298, 10.002493 
2.1153308e+3, 1.2412511e+2, -925564.3, -1698727.1, 13958.298, 0.07285256, -0.44608483, -925312.4, 798218.8, 0.08602528, 10.007654, 9.99644 
2.1153115e+3, 1.3412155e+2, -903482.0, -1649214.4, -16316.577, 0.114806995, -0.45483285, -903125.1, 722440.44, 0.061374467, 10.006943, 9.996435 
2.1152923e+3, 1.4411855e+2, -871599.94, -1572983.8, -630.47424, 0.132099, -0.40180036, -871599.4, 655996.0, 0.03649164, 10.006245, 9.996621 
2.1152729e+3, 1.5411484e+2, -865306.1, -1541027.0, -5901.2324, 0.09587947, -0.4300867, -865254.56, 564378.5, 0.01656966, 10.005571, 9.996492 
2.1152537e+3, 1.6411166e+2, -793857.5, -1337788.9, 2149.3013, 0.07677675, -0.4410988, -793849.0, 537815.6, 0.0049499692, 10.004819, 9.997577 
2.1152349e+3, 1.7410937e+2, -821107.9, -1305942.1, 6691.718, 0.079662465, -0.43238765, -821015.5, 412670.6, 0.0006665216, 10.0039625, 9.997536 
2.1152161e+3, 1.8410726e+2, -803979.7, -1187470.1, 1851.5096, 0.07303055, -0.41829044, -803970.75, 331736.66, 0.000009223164, 10.003148, 9.998068 
2.1151967e+3, 1.9410554e+2, -822555.7, -1156454.4, -4213.342, 0.05360344, -0.39706877, -822502.56, 215224.13, 0.0, 10.002394, 9.997972 
2.115178e+3, 2.0410411e+2, -750590.44, -934009.5, -392.336, 0.04723692, -0.38608348, -750589.56, 189152.34, 0.0, 10.001625, 9.999197 
2.1151595e+3, 2.1410331e+2, -769316.3, -895510.75, 6724.353, 0.058953978, -0.3920578, -768959.0, 72790.87, 0.0, 10.000837, 9.999167 
2.1151404e+3, 2.2410274e+2, -739517.06, -763592.3, -1081.4834, 0.054821506, -0.3882481, -739468.56, 4287.138, 0.0, 10.000081, 9.999764 
2.115121e+3, 2.3410267e+2, -751912.0, -728743.75, -11283.482, 0.028991438, -0.37248814, -724156.6, -78399.73, 0.0, 9.999367, 9.999675 
2.1151021e+3, 2.4410269e+2, -707146.6, -589833.94, -19565.406, 0.012139523, -0.35870504, -586656.8, -38899.484, 0.0, 9.998714, 10.00027 
2.1150827e+3, 2.541031e+2, -697320.4, -544573.7, -12815.446, 0.0068352157, -0.34739166, -543505.94, -93751.13, 0.0, 9.998153, 10.000178 
2.1150635e+3, 2.641034e+2, -652628.0, -403889.3, -20172.0, 0.0031008148, -0.3522677, -402264.03, -50512.94, 0.0, 9.997494, 10.000789 
2.1150441e+3, 2.7410388e+2, -676200.7, -373557.6, -24240.29, 0.003291238, -0.3886656, -371628.34, -117883.74, 0.0, 9.996698, 10.000708 
2.1150246e+3, 2.8410453e+2, -647838.1, -248581.88, -21174.967, -0.0057929694, -0.41492328, -247461.98, -91725.49, 0.0, 9.995959, 10.001248 
2.1150054e+3, 2.9410583e+2, -648545.4, -207755.28, -23265.668, -0.031204596, -0.40818116, -206530.69, -148808.25, 0.0, 9.995323, 10.001163 
2.114986e+3, 3.0410725e+2, -622076.9, -82327.65, -19008.512, -0.023415625, -0.41554964, -81659.05, -81659.05, 0.0, 9.994794, 10.001943 
2.114966e+3, 3.1410906e+2, -672221.94, -72398.67, -6475.301, -0.07088807, -0.4233134, -72328.78, -72328.78, 0.0, 9.994302, 10.002248 
2.1253383e+3, 1.2414481e+2, -909811.0, -1700477.6, 38054.72, 0.059978593, -0.4564294, -907983.7, 815353.8, 0.08814639, 10.007836, 9.996338 
2.1253186e+3, 1.3414125e+2, -905779.44, -1663055.6, -2592.4436, 0.12151373, -0.45235723, -905770.56, 719602.2, 0.06296158, 10.006995, 9.996313 
2.1252985e+3, 1.4413823e+2, -872108.56, -1565392.9, 17353.895, 0.1444928, -0.39634883, -871674.44, 655728.5, 0.03751228, 10.006216, 9.996685 
2.1252783e+3, 1.5413454e+2, -864971.06, -1531789.1, 29865.602, 0.09727827, -0.43115658, -863636.1, 565803.9, 0.017097322, 10.00554, 9.99657 
2.1252583e+3, 1.6413134e+2, -804434.25, -1355775.9, 36052.566, 0.074953176, -0.44227332, -802086.75, 529384.94, 0.005147374, 10.004806, 9.997458 
2.125239e+3, 1.7412901e+2, -827140.9, -1324036.1, 22921.207, 0.08585406, -0.42394406, -826085.75, 407408.6, 0.00070816017, 10.003989, 9.997397 
2.1252193e+3, 1.8412684e+2, -795094.4, -1179967.8, 16600.014, 0.08186054, -0.40728587, -794379.75, 341136.63, 0.000011018927, 10.003198, 9.998095 
2.1251993e+3, 1.9412509e+2, -812521.1, -1147007.6, 24137.398, 0.05727927, -0.39390832, -810788.25, 226747.38, 0.0, 10.002446, 9.998011 
2.1251796e+3, 2.0412369e+2, -744503.9, -934019.44, 28052.018, 0.047644462, -0.38259354, -740438.8, 199111.89, 0.0, 10.001682, 9.999168 
2.1251601e+3, 2.1412295e+2, -763045.94, -896442.25, 18607.71, 0.05908797, -0.3764616, -760498.94, 81059.13, 0.0, 10.0009, 9.99913 
2.1251406e+3, 2.2412236e+2, -728766.8, -761862.3, 11471.28, 0.05427221, -0.37206364, -725179.56, 18384.85, 0.0, 10.000173, 9.999731 
2.1251206e+3, 2.341221e+2, -732040.3, -723179.4, 17284.217, 0.027253969, -0.37126887, -709766.8, -64199.508, 0.0, 9.999522, 9.999638 
2.1251006e+3, 2.4412212e+2, -689822.0, -573598.06, 14274.878, 0.010298378, -0.35910597, -571870.5, -24302.713, 0.0, 9.998801, 10.000339 
2.1250808e+3, 2.5412273e+2, -716816.75, -545283.5, 11820.467, 0.006171939, -0.3332342, -544472.75, -94909.82, 0.0, 9.997985, 10.000254 
2.1250609e+3, 2.641231e+2, -678566.94, -417991.25, 4215.604, -0.0012415505, -0.33933222, -417923.06, -66363.97, 0.0, 9.997325, 10.000772 
2.1250407e+3, 2.7412334e+2, -653856.2, -366192.3, 5941.569, -0.01025758, -0.39183939, -366069.66, -112514.87, 0.0, 9.996868, 10.000675 
2.1250208e+3, 2.8412408e+2, -617711.6, -235616.28, 6252.9663, -0.014439907, -0.40349483, -235513.98, -79968.31, 0.0, 9.996175, 10.001232 
2.1250008e+3, 2.9412577e+2, -662560.9, -212978.14, 4605.52, -0.018512864, -0.3587017, -212930.97, -155403.06, 0.0, 9.995223, 10.001173 
2.1249807e+3, 3.041264e+2, -641106.7, -77429.65, 4815.711, -0.025103334, -0.45074505, -77388.51, -77388.51, 0.0, 9.994605, 10.002066 
2.1249603e+3, 3.1412888e+2, -674310.4, -69369.58, -16737.21, -0.08067297, -0.40533242, -68906.86, -68906.86, 0.0, 9.994273, 10.002282 
2.1353464e+3, 1.2416555e+2, -929367.4, -1737023.8, 7637.604, 0.07923604, -0.43602452, -929295.2, 793838.44, 0.09021494, 10.007827, 9.9960785 
2.1353254e+3, 1.3416137e+2, -925426.9, -1704579.1, -32661.438, 0.11387992, -0.4674926, -924060.1, 701116.2, 0.06450149, 10.006994, 9.996031 
2.1353047e+3, 1.4415824e+2, -854882.06, -1528352.6, -7467.385, 0.1274273, -0.41710997, -854799.25, 672408.25, 0.038498234, 10.00622, 9.996939 
2.135284e+3, 1.5415525e+2, -843998.6, -1488102.5, 4400.311, 0.09753911, -0.41270882, -843968.56, 585268.06, 0.01760618, 10.005543, 9.996869 
2.1352632e+3, 1.6415222e+2, -825401.1, -1400474.9, 5644.98, 0.082527146, -0.41088697, -825345.75, 505921.03, 0.0053383093, 10.004807, 9.997152 
2.135243e+3, 1.7414929e+2, -852191.94, -1377423.4, -7445.9253, 0.0872142, -0.41503483, -852086.4, 381210.34, 0.00074886315, 10.003992, 9.99703 
2.1352224e+3, 1.8414685e+2, -782829.7, -1155950.4, -11239.18, 0.0858355, -0.4129492, -782491.44, 352830.28, 0.0000129273485, 10.0032015, 9.998259 
2.1352018e+3, 1.9414526e+2, -796957.7, -1116138.5, -3652.6382, 0.075977184, -0.40372795, -796915.9, 240422.27, 0.0, 10.002449, 9.998222 
2.1351814e+3, 2.04144e+2, -758728.9, -965106.75, -825.9247, 0.062256638, -0.38053012, -758725.56, 180626.19, 0.0, 10.001686, 9.998954 
2.1351609e+3, 2.1414335e+2, -780174.9, -933785.06, -9993.103, 0.04331088, -0.34014213, -779527.5, 61832.32, 0.0, 10.000905, 9.998873 
2.1351404e+3, 2.2414267e+2, -718613.44, -742406.44, -12797.54, 0.030495027, -0.3364028, -713037.0, 30330.236, 0.0, 10.000177, 9.999864 
2.1351202e+3, 2.341421e+2, -719827.44, -698987.1, -6681.697, 0.026938627, -0.38392073, -697028.9, -51656.88, 0.0, 9.999525, 9.999804 
2.1350996e+3, 2.4414209e+2, -691460.3, -578252.7, -15769.348, 0.020230498, -0.38242, -576097.1, -28724.953, 0.0, 9.998804, 10.000306 
2.1350789e+3, 2.5414303e+2, -719580.94, -552735.2, -18661.307, 0.0072357, -0.31826395, -550673.44, -101308.87, 0.0, 9.99799, 10.000201 
2.135058e+3, 2.641435e+2, -674546.6, -411586.9, -14060.222, -0.012141538, -0.31480625, -410837.28, -59476.99, 0.0, 9.997331, 10.000814 
2.1350373e+3, 2.7414358e+2, -649839.56, -359921.0, -11996.283, -0.035911344, -0.38695332, -359425.47, -106067.8, 0.0, 9.996874, 10.000716 
2.1350166e+3, 2.8414446e+2, -618979.56, -239716.69, -29280.182, -0.03552414, -0.38585716, -237469.48, -82122.22, 0.0, 9.996179, 10.001204 
2.1349959e+3, 2.941464e+2, -664593.0, -217896.5, -30321.54, -0.01371269, -0.31438515, -215847.69, -158520.72, 0.0, 9.995223, 10.001141 
2.134975e+3, 3.041458e+2, -661851.3, -121538.24, -9232.706, -0.037825637, -0.51151764, -121380.52, -121380.52, 0.0, 9.994607, 10.001763 
2.1349546e+3, 3.1414896e+2, -647458.4, -15571.644, -32265.135, -0.0706842, -0.36450943, -13928.408, -13928.408, 0.0, 9.994278, 10.00265 
2.1453543e+3, 1.24186695e+2, -952767.7, -1745973.4, 15667.507, 0.09158313, -0.42326388, -952458.4, 770468.75, 0.092215985, 10.007654, 9.996099 
2.1453322e+3, 1.3418238e+2, -927504.25, -1703857.8, -5623.8496, 0.11039861, -0.4676632, -927463.5, 697507.3, 0.065985166, 10.006985, 9.996038 
2.1453108e+3, 1.4417921e+2, -846580.7, -1524843.9, 24095.361, 0.11695864, -0.42150176, -845725.8, 681276.5, 0.03944412, 10.006291, 9.996927 
2.1452893e+3, 1.5417632e+2, -838707.4, -1486642.5, 14815.4375, 0.09448152, -0.40528387, -838368.8, 590661.5, 0.018092578, 10.00559, 9.996855 
2.145268e+3, 1.641733e+2, -821701.6, -1400293.1, 9114.628, 0.082815476, -0.40038696, -821558.06, 509502.34, 0.005520581, 10.004844, 9.997134 
2.1452469e+3, 1.7417027e+2, -847608.56, -1377424.4, 18999.473, 0.08467535, -0.41357508, -846928.06, 386163.7, 0.0007878224, 10.004037, 9.997007 
2.1452256e+3, 1.841678e+2, -774413.1, -1151161.5, 25157.436, 0.08439907, -0.41366252, -772740.7, 362376.53, 0.000014882025, 10.003259, 9.998262 
2.1452044e+3, 1.9416627e+2, -785894.94, -1110088.8, 17731.883, 0.08138556, -0.397031, -784928.0, 252204.77, 0.0, 10.002525, 9.998225 
2.1451831e+3, 2.0416503e+2, -751516.56, -968130.8, 15630.506, 0.06827499, -0.36994523, -750394.5, 188751.81, 0.0, 10.001766, 9.998893 
2.145162e+3, 2.141643e+2, -775367.6, -939153.5, 19093.834, 0.041107133, -0.33042917, -773171.2, 67984.34, 0.0, 10.000974, 9.998801 
2.1451406e+3, 2.2416359e+2, -718546.56, -742314.4, 21037.328, 0.025576647, -0.32517165, -706268.6, 36894.81, 0.0, 10.000179, 9.999863 
2.1451196e+3, 2.3416306e+2, -740459.9, -708292.75, 15098.468, 0.027574774, -0.36760244, -702316.25, -57148.61, 0.0, 9.999383, 9.999806 
2.1450984e+3, 2.4416302e+2, -711154.0, -588221.4, 995.9449, 0.02159822, -0.36859232, -588213.3, -41045.34, 0.0, 9.998673, 10.000299 
2.1450767e+3, 2.541638e+2, -706637.44, -547440.9, 1095.5188, 0.0017076653, -0.31855676, -547433.3, -98271.664, 0.0, 9.998084, 10.000191 
2.1450554e+3, 2.6416427e+2, -656937.1, -391828.6, 11793.371, -0.022228193, -0.31673968, -391305.0, -40147.9, 0.0, 9.997405, 10.000914 
2.145034e+3, 2.7416468e+2, -682170.4, -363636.56, 17841.553, -0.044340424, -0.36974335, -362640.34, -109488.42, 0.0, 9.996604, 10.00082 
2.1450128e+3, 2.841657e+2, -649504.25, -253791.86, 1936.3522, -0.03892974, -0.3605265, -253782.39, -98642.07, 0.0, 9.995969, 10.001207 
2.1449912e+3, 2.9416746e+2, -622516.56, -201306.48, 3506.2185, -0.015324464, -0.30571648, -201277.3, -144155.64, 0.0, 9.99553, 10.001106 
2.1449696e+3, 3.0416653e+2, -658962.56, -153077.14, 22533.607, -0.062263984, -0.5174438, -152075.4, -152075.4, 0.0, 9.994771, 10.001467 
2.1449487e+3, 3.1416968e+2, -699848.3, 14463.771, 6453.8174, -0.051893782, -0.34572405, 14522.077, 14522.077, 0.0, 9.993684, 10.003141 
2.1553618e+3, 1.24208264e+2, -938243.56, -1710250.8, -8059.6304, 0.09713455, -0.41791525, -938159.44, 784557.8, 0.09413779, 10.007652, 9.996355 
2.1553394e+3, 1.3420428e+2, -911521.44, -1667242.5, -29794.59, 0.11026011, -0.4545989, -910348.56, 714407.75, 0.067407206, 10.006988, 9.99629 
2.1553169e+3, 1.4420111e+2, -864008.44, -1562818.5, -1476.1287, 0.11191432, -0.41153112, -864005.3, 662782.4, 0.040347278, 10.006296, 9.996666 
2.1552949e+3, 1.5419778e+2, -859934.5, -1531671.9, -10789.564, 0.0881182, -0.40781862, -859761.25, 569059.6, 0.018554233, 10.005591, 9.996547 
2.155273e+3, 1.6419466e+2, -805255.9, -1366115.6, -20207.77, 0.07624698, -0.40865612, -804528.7, 526323.56, 0.005692533, 10.004843, 9.997371 
2.1552508e+3, 1.7419192e+2, -827380.56, -1336500.0, -11127.256, 0.07848908, -0.41884223, -827137.44, 405742.16, 0.00082437386, 10.004039, 9.997289 
2.1552287e+3, 1.8418962e+2, -784828.44, -1174240.3, -2363.5085, 0.077892944, -0.40961745, -784814.1, 350089.1, 0.000016789034, 10.0032625, 9.998104 
2.1552068e+3, 1.9418807e+2, -799498.75, -1139339.6, -9276.177, 0.07423404, -0.37485003, -799245.75, 237674.08, 0.0, 10.002527, 9.998025 
2.1551847e+3, 2.0418672e+2, -745931.6, -957411.0, -13241.086, 0.066192344, -0.3516745, -745105.8, 193828.89, 0.0, 10.001767, 9.998967 
2.1551628e+3, 2.1418576e+2, -768220.4, -925402.94, -9959.347, 0.051568963, -0.34618133, -767591.8, 73353.72, 0.0, 10.000976, 9.998896 
2.155141e+3, 2.2418508e+2, -727768.94, -762885.06, -8318.106, 0.03832427, -0.3367997, -725898.25, 17054.998, 0.0, 10.000183, 9.999721 
2.1551189e+3, 2.3418494e+2, -751081.4, -732088.4, -14327.664, 0.028815055, -0.32298267, -724395.75, -79440.914, 0.0, 9.999388, 9.999642 
2.155097e+3, 2.4418488e+2, -709455.94, -586538.0, -21446.691, 0.01458294, -0.31934276, -582903.5, -35947.664, 0.0, 9.998679, 10.00031 
2.1550748e+3, 2.5418502e+2, -703975.1, -543711.56, -20706.941, -0.010450153, -0.33450916, -541079.4, -92124.7, 0.0, 9.998089, 10.000216 
2.1550524e+3, 2.641855e+2, -646248.1, -371154.75, -17875.793, -0.03162659, -0.3443662, -369998.03, -19048.02, 0.0, 9.997409, 10.001056 
2.1550305e+3, 2.7418658e+2, -671280.06, -342028.72, -12634.597, -0.036274623, -0.3391412, -341544.6, -88606.52, 0.0, 9.996605, 10.000969 
2.1550088e+3, 2.8418773e+2, -646467.3, -248694.17, -15831.435, -0.025288925, -0.3276769, -248065.08, -93139.555, 0.0, 9.995972, 10.001242 
2.1549866e+3, 2.941889e+2, -623943.6, -206759.73, -13736.976, -0.023351084, -0.33533168, -206307.89, -149395.06, 0.0, 9.995538, 10.001066 
2.1549639e+3, 3.0418858e+2, -680121.2, -198943.08, -19165.979, -0.09843558, -0.4658538, -198180.88, -198180.88, 0.0, 9.994777, 10.001151 
2.1549426e+3, 3.1419078e+2, -659544.0, 98840.945, -24485.848, -0.028996317, -0.36555266, 99630.695, 99630.695, 0.0, 9.993678, 10.003725 
2.1653697e+3, 1.2423078e+2, -946902.06, -1713293.9, 30368.037, 0.11662692, -0.40615118, -945700.6, 776796.94, 0.09596721, 10.007599, 9.996356 
2.1653464e+3, 1.3422681e+2, -893463.44, -1658177.5, -6361.5347, 0.10357766, -0.4410121, -893410.56, 731125.75, 0.06875783, 10.007134, 9.99628 
2.1653232e+3, 1.4422356e+2, -841964.94, -1553832.9, 11904.832, 0.09692631, -0.40443587, -841765.94, 684802.3, 0.041201096, 10.006472, 9.996641 
2.1653005e+3, 1.5422006e+2, -868114.7, -1538596.1, 20283.201, 0.090533085, -0.41448033, -867501.6, 561101.5, 0.018987255, 10.005551, 9.996516 
2.1652776e+3, 1.6421692e+2, -816786.56, -1364509.5, 18391.182, 0.081991546, -0.41539964, -816169.7, 514464.78, 0.0058524148, 10.004736, 9.997432 
2.1652547e+3, 1.7421445e+2, -818425.6, -1324379.8, 12387.856, 0.06805588, -0.40739354, -818122.5, 414537.06, 0.00085796457, 10.00407, 9.997355 
2.165232e+3, 1.8421222e+2, -777136.94, -1171494.0, 15301.754, 0.063310534, -0.3928646, -776544.1, 358138.3, 0.000018546296, 10.003323, 9.998093 
2.1652092e+3, 1.9421054e+2, -810160.2, -1146825.1, 20223.633, 0.07189352, -0.37003157, -808949.7, 227750.72, 0.0, 10.002466, 9.998002 
2.1651866e+3, 2.0420912e+2, -758494.06, -959604.3, 22619.104, 0.06970669, -0.35287404, -755981.44, 182734.33, 0.0, 10.001667, 9.999 
2.1651638e+3, 2.142082e+2, -770559.9, -922540.8, 21080.637, 0.05235724, -0.3455028, -767690.06, 73035.75, 0.0, 10.000945, 9.998929 
2.1651408e+3, 2.2420752e+2, -733398.9, -779093.7, 19846.713, 0.036963843, -0.3316518, -725982.5, 16751.16, 0.0, 10.000205, 9.999598 
2.1651182e+3, 2.3420732e+2, -753420.6, -748844.9, 15203.552, 0.02635052, -0.3101297, -735758.06, -91021.32, 0.0, 9.999442, 9.9995 
2.1650955e+3, 2.4420719e+2, -699549.8, -572439.75, 15899.397, 0.012320429, -0.30907258, -570481.2, -23742.672, 0.0, 9.99871, 10.000391 
2.1650727e+3, 2.5420728e+2, -707411.25, -533789.94, 22272.227, -0.011345024, -0.33836883, -530978.4, -82241.37, 0.0, 9.998018, 10.000317 
2.1650498e+3, 2.6420787e+2, -666703.56, -382130.28, 16898.232, -0.03384341, -0.34140065, -381130.34, -30399.344, 0.0, 9.997275, 10.001043 
2.1650271e+3, 2.742092e+2, -692449.2, -354801.8, 9276.618, -0.041294936, -0.30895427, -354547.13, -101829.89, 0.0, 9.996473, 10.000944 
2.1650046e+3, 2.842102e+2, -657678.75, -246363.94, 12978.642, -0.027365426, -0.31353074, -245954.81, -91248.43, 0.0, 9.995863, 10.001309 
2.1649821e+3, 2.942109e+2, -636441.7, -206677.03, 18059.242, -0.020050256, -0.37192863, -205919.5, -149221.58, 0.0, 9.995429, 10.001119 
2.1649586e+3, 3.042116e+2, -696699.1, -197086.58, 9655.046, -0.103063025, -0.40930632, -196900.06, -196900.06, 0.0, 9.994623, 10.001236 
2.1649362e+3, 3.142131e+2, -671039.06, 103493.64, 45971.91, -0.03285131, -0.38792622, 106212.73, 106212.73, 0.0, 9.993559, 10.003813 
2.1753775e+3, 1.242542e+2, -963199.06, -1746312.9, 12281.51, 0.14755933, -0.38977593, -963006.5, 759261.9, 0.09769038, 10.007595, 9.996126 
2.1753533e+3, 1.3424994e+2, -911301.1, -1695293.5, -22903.887, 0.09026298, -0.42697614, -910632.56, 713677.9, 0.070024125, 10.007131, 9.996029 
2.1753293e+3, 1.4424653e+2, -831272.8, -1528775.1, -19899.639, 0.07265852, -0.3999693, -830705.5, 695638.4, 0.041996628, 10.006466, 9.996818 
2.1753061e+3, 1.542431e+2, -854495.8, -1508856.1, -13936.849, 0.10088319, -0.42469716, -854199.1, 574178.2, 0.019387601, 10.005547, 9.996724 
2.1752825e+3, 1.6424008e+2, -824718.1, -1381089.5, -7191.6265, 0.09867007, -0.42053837, -824625.2, 505782.4, 0.005999067, 10.004734, 9.99732 
2.1752585e+3, 1.7423779e+2, -827976.94, -1344811.1, -12235.868, 0.053339295, -0.3807466, -827687.44, 404744.5, 0.0008883037, 10.00407, 9.997216 
2.1752352e+3, 1.8423556e+2, -768733.0, -1154841.5, -15806.085, 0.041077606, -0.36476701, -768087.06, 366367.97, 0.000020075104, 10.003324, 9.998208 
2.1752116e+3, 1.9423361e+2, -800496.6, -1127763.4, -11515.19, 0.07389604, -0.3814157, -800092.0, 236382.8, 0.0, 10.002468, 9.998133 
2.1751882e+3, 2.0423217e+2, -759444.06, -962816.94, -4366.1665, 0.07828014, -0.37187162, -759350.4, 179139.45, 0.0, 10.00167, 9.998978 
2.1751645e+3, 2.1423158e+2, -772500.9, -927885.0, -5555.19, 0.04376284, -0.32895264, -772302.56, 68194.3, 0.0, 10.000948, 9.998892 
2.1751411e+3, 2.2423087e+2, -740920.7, -796185.75, -8334.27, 0.022119133, -0.31071237, -739691.2, 2813.987, 0.0, 10.000209, 9.999479 
2.1751177e+3, 2.3423015e+2, -761823.6, -767726.5, -13068.454, 0.020100243, -0.3280007, -751377.5, -106863.72, 0.0, 9.999445, 9.999371 
2.1750942e+3, 2.4422991e+2, -689070.1, -552183.6, -9957.691, 0.014488061, -0.33613265, -551463.06, -4946.551, 0.0, 9.9987135, 10.00053 
2.1750708e+3, 2.5423056e+2, -695370.2, -510292.78, -3709.8865, -0.0015271801, -0.32993534, -510218.44, -61709.133, 0.0, 9.998022, 10.000478 
2.1750471e+3, 2.6423135e+2, -678160.06, -407330.0, -13414.952, -0.02928355, -0.30845952, -406667.13, -56166.336, 0.0, 9.997278, 10.00087 
2.1750234e+3, 2.7423248e+2, -705842.3, -384457.34, -20396.756, -0.05957608, -0.280019, -383168.03, -130677.875, 0.0, 9.996478, 10.00074 
2.1750003e+3, 2.8423306e+2, -650695.44, -233631.88, -4622.3105, -0.045283347, -0.31879285, -233580.66, -79096.97, 0.0, 9.995869, 10.001396 
2.1749778e+3, 2.942335e+2, -626735.44, -187792.47, -1648.3981, -0.006168837, -0.41530374, -187786.28, -131308.6, 0.0, 9.995431, 10.001248 
2.1749534e+3, 3.0423558e+2, -661234.0, -124279.32, -31751.656, -0.07602295, -0.3459127, -122408.27, -122408.27, 0.0, 9.994623, 10.001738 
2.1749294e+3, 3.14237e+2, -704611.3, 32450.27, 24060.844, -0.06995104, -0.38004714, 33234.883, 33234.883, 0.0, 9.993563, 10.0033245 
2.1853852e+3, 1.2427787e+2, -957287.25, -1733290.4, 20398.45, 0.15680219, -0.3846356, -956751.44, 765285.9, 0.099298574, 10.007613, 9.996206 
2.1853603e+3, 1.3427368e+2, -925171.1, -1693610.8, 6699.803, 0.090790786, -0.4225321, -925112.75, 698965.75, 0.071198545, 10.007, 9.996101 
2.1853358e+3, 1.4427036e+2, -854837.8, -1533778.9, 6354.0767, 0.066338636, -0.39406472, -854778.3, 671332.8, 0.04272934, 10.006275, 9.996873 
2.1853115e+3, 1.5426704e+2, -868943.75, -1509888.8, 817.0845, 0.090712346, -0.41090524, -868942.7, 559201.0, 0.01975405, 10.0054245, 9.996775 
2.1852872e+3, 1.6426408e+2, -834270.3, -1381461.3, 14155.675, 0.08947096, -0.4049843, -833904.4, 496269.13, 0.006132642, 10.004653, 9.997355 
2.1852627e+3, 1.7426175e+2, -838213.4, -1346054.0, 21010.787, 0.051993217, -0.37090585, -837345.56, 394852.53, 0.0009155086, 10.003986, 9.997247 
2.1852383e+3, 1.8425955e+2, -776525.94, -1154183.0, 14774.686, 0.042550284, -0.3555925, -775948.8, 358272.13, 0.000021349408, 10.003254, 9.998244 
2.1852142e+3, 1.9425769e+2, -803051.4, -1124738.5, 11105.946, 0.071283534, -0.36706275, -802668.4, 233571.36, 0.0, 10.002435, 9.998168 
2.1851899e+3, 2.0425622e+2, -765281.5, -970980.3, 17210.416, 0.07382473, -0.35910392, -763851.44, 174403.45, 0.0, 10.001656, 9.998927 
2.1851656e+3, 2.1425548e+2, -779403.4, -937440.7, 14278.739, 0.04057011, -0.32597786, -778123.7, 62139.805, 0.0, 10.000931, 9.998834 
2.1851411e+3, 2.2425473e+2, -742865.7, -793242.56, 13717.094, 0.019602347, -0.30913767, -739372.8, 2899.3762, 0.0, 10.000182, 9.999512 
2.185117e+3, 2.3425414e+2, -765936.56, -765332.4, 20442.73, 0.017609872, -0.31739062, -745189.5, -100909.84, 0.0, 9.999401, 9.999407 
2.1850927e+3, 2.4425395e+2, -698979.94, -557906.75, 27266.943, 0.014048846, -0.32112187, -552819.94, -6538.128, 0.0, 9.9986515, 10.000519 
2.1850689e+3, 2.5425455e+2, -708680.7, -518899.0, 20293.63, 0.0031326064, -0.31527406, -516753.25, -68478.62, 0.0, 9.997943, 10.000456 
2.1850444e+3, 2.6425526e+2, -685863.0, -417764.56, 5896.4805, -0.023641104, -0.30009887, -417634.97, -67367.87, 0.0, 9.997257, 10.000807 
2.1850197e+3, 2.7425614e+2, -693250.5, -385512.25, 9196.796, -0.05942318, -0.28818604, -385237.66, -132978.8, 0.0, 9.996598, 10.000673 
2.1849962e+3, 2.8425676e+2, -655315.94, -234108.11, 29896.004, -0.052339047, -0.3229125, -231996.77, -77744.234, 0.0, 9.995832, 10.001409 
2.1849726e+3, 2.9425755e+2, -692842.44, -212927.14, 24870.836, -0.019676186, -0.38308832, -211641.69, -155398.6, 0.0, 9.994951, 10.001306 
2.184948e+3, 3.0425972e+2, -678423.25, -92670.19, -14514.499, -0.067090034, -0.3280147, -92310.75, -92310.75, 0.0, 9.994336, 10.002092 
2.1849231e+3, 3.1426126e+2, -670533.44, -1751.396, 42475.918, -0.08369092, -0.38087496, 935.5539, 935.5539, 0.0, 9.994017, 10.00287 
2.1953925e+3, 1.2430185e+2, -936200.5, -1687034.6, -875.9255, 0.14600138, -0.39021823, -936199.5, 785604.06, 0.100795634, 10.007618, 9.996549 
2.1953674e+3, 1.3429803e+2, -905354.06, -1644378.9, -14821.809, 0.10397491, -0.4263895, -905056.94, 718783.3, 0.0722866, 10.006985, 9.996448 
2.195342e+3, 1.4429496e+2, -862104.8, -1545117.1, -23690.713, 0.0757059, -0.38663056, -861284.06, 664586.3, 0.04340448, 10.006258, 9.996805 
2.1953167e+3, 1.5429184e+2, -876209.1, -1524926.3, -30109.59, 0.06119673, -0.37581605, -874814.6, 553087.7, 0.020090243, 10.005422, 9.996675 
2.1952915e+3, 1.6428888e+2, -822703.06, -1358336.9, -10564.079, 0.056649595, -0.37124264, -822494.8, 507437.6, 0.0062549734, 10.004655, 9.997514 
2.1952666e+3, 1.7428634e+2, -826352.1, -1321180.9, -3641.169, 0.062907465, -0.3762398, -826325.3, 405632.84, 0.00094020943, 10.003983, 9.997421 
2.1952417e+3, 1.8428418e+2, -780232.06, -1161734.8, -15296.583, 0.06543906, -0.36319914, -779619.75, 354360.53, 0.000022413657, 10.00325, 9.998196 
2.1952166e+3, 1.9428271e+2, -807038.9, -1134486.4, -19339.727, 0.0640253, -0.328678, -805900.56, 230095.23, 0.0, 10.002439, 9.998101 
2.1951914e+3, 2.0428123e+2, -770244.75, -983144.75, -9822.633, 0.057161383, -0.31699774, -769792.5, 168219.11, 0.0, 10.001661, 9.998842 
2.1951665e+3, 2.1427985e+2, -785370.2, -950595.6, -12243.364, 0.042242818, -0.3359759, -784467.9, 55558.105, 0.0, 10.000931, 9.998745 
2.1951413e+3, 2.2427906e+2, -731077.44, -769473.56, -14994.876, 0.02854881, -0.32567468, -725915.5, 16119.375, 0.0, 10.000182, 9.999676 
2.1951164e+3, 2.342792e+2, -752324.44, -738560.75, -8610.147, 0.01858158, -0.27930185, -734420.1, -90385.14, 0.0, 9.999405, 9.99959 
2.1950915e+3, 2.4427922e+2, -710032.8, -582640.8, 462.38, 0.011015819, -0.2656227, -582639.1, -36603.965, 0.0, 9.998657, 10.000348 
2.1950667e+3, 2.5427926e+2, -722391.9, -549158.94, -6331.7886, 0.0022614398, -0.29479754, -548927.8, -100894.29, 0.0, 9.997948, 10.000247 
2.1950418e+3, 2.642795e+2, -682550.0, -412556.47, -19308.648, -0.017185668, -0.3161981, -411182.6, -61152.2, 0.0, 9.997262, 10.000842 
2.1950166e+3, 2.7428016e+2, -688554.2, -377211.66, -16166.333, -0.040858176, -0.33333075, -376374.47, -124350.49, 0.0, 9.996602, 10.00073 
2.194992e+3, 2.842812e+2, -659864.25, -244704.25, -3848.5183, -0.048753098, -0.32483423, -244668.58, -90655.08, 0.0, 9.995834, 10.001336 
2.1949673e+3, 2.9428303e+2, -693912.9, -216430.19, -8886.032, -0.06183912, -0.27363902, -216264.88, -160270.16, 0.0, 9.994954, 10.001282 
2.1949421e+3, 3.0428386e+2, -664130.8, -64421.34, -28741.031, -0.07647354, -0.361763, -63047.08, -63047.08, 0.0, 9.994339, 10.002286 
2.1949172e+3, 3.1428608e+2, -696638.44, -58465.51, 37051.38, -0.071774885, -0.35826322, -56321.566, -56321.566, 0.0, 9.994025, 10.002477 
2.2054002e+3, 1.2432697e+2, -907264.44, -1663974.5, 36228.13, 0.11819175, -0.38685977, -905533.94, 816024.44, 0.10219459, 10.00781, 9.996632 
2.2053742e+3, 1.343233e+2, -944502.75, -1655512.4, 6524.7544, 0.10951142, -0.4136814, -944442.9, 679150.7, 0.073301494, 10.006664, 9.996525 
2.2053482e+3, 1.4432034e+2, -918153.2, -1562454.9, 2311.1382, 0.08894841, -0.3722087, -918144.9, 607477.9, 0.044032197, 10.005815, 9.996899 
2.2053218e+3, 1.5431727e+2, -880764.94, -1516508.6, 9618.418, 0.052153707, -0.36382568, -880619.44, 547034.75, 0.020401824, 10.005348, 9.996766 
2.2052959e+3, 1.6431437e+2, -816148.75, -1351062.6, 27033.88, 0.04434995, -0.36063954, -814785.94, 514897.78, 0.0063684243, 10.004686, 9.997548 
2.2052705e+3, 1.7431185e+2, -855271.3, -1331715.3, 22832.719, 0.071333244, -0.36650673, -854179.56, 377529.8, 0.0009632839, 10.003772, 9.997449 
2.2052449e+3, 1.8430969e+2, -815996.06, -1182422.1, 10512.295, 0.07629443, -0.35257196, -815694.7, 318036.78, 0.000023369355, 10.003022, 9.998162 
2.2052188e+3, 1.9430822e+2, -802937.6, -1136699.5, 8344.573, 0.053538173, -0.3137947, -802729.1, 233018.1, 0.0, 10.002487, 9.998061 
2.2051929e+3, 2.0430672e+2, -756308.1, -976331.56, 14699.199, 0.042036317, -0.30062228, -755330.5, 182432.61, 0.0, 10.00176, 9.99884 
2.2051673e+3, 2.1430531e+2, -807947.5, -961440.0, 17280.373, 0.044685796, -0.3228307, -806026.1, 33751.574, 0.0, 10.000779, 9.998742 
2.2051416e+3, 2.243045e+2, -763610.5, -785109.94, 17933.305, 0.037267614, -0.31456292, -753451.9, -11665.139, 0.0, 9.999962, 9.999674 
2.2051157e+3, 2.3430464e+2, -759628.7, -742205.4, 10866.467, 0.018293427, -0.26693416, -736989.6, -93202.805, 0.0, 9.999358, 9.999586 
2.2050901e+3, 2.4430467e+2, -707877.06, -582735.94, 15910.413, 0.0067182863, -0.25030392, -580744.8, -34958.113, 0.0, 9.998679, 10.000335 
2.2050647e+3, 2.543047e+2, -729982.0, -554412.9, 22420.799, 0.0014270467, -0.27825424, -551594.9, -103809.945, 0.0, 9.997906, 10.00023 
2.2050391e+3, 2.6430482e+2, -695105.9, -420221.9, 17884.146, -0.012627801, -0.31205025, -419063.25, -69280.086, 0.0, 9.997186, 10.000824 
2.2050132e+3, 2.7430522e+2, -702923.44, -386199.1, 14930.775, -0.030083178, -0.34885126, -385496.8, -133717.86, 0.0, 9.996515, 10.000709 
2.2049879e+3, 2.8430653e+2, -663124.44, -240834.64, 23235.527, -0.045576863, -0.31704295, -239560.02, -85793.82, 0.0, 9.995791, 10.001382 
2.2049622e+3, 2.943089e+2, -674339.1, -200243.61, 28486.66, -0.07883489, -0.21334231, -198538.1, -142796.14, 0.0, 9.995063, 10.001339 
2.2049366e+3, 3.0430874e+2, -670783.56, -91183.8, 3776.5881, -0.07072039, -0.39538318, -91159.195, -91159.195, 0.0, 9.994398, 10.002072 
2.2049108e+3, 3.1431147e+2, -731185.06, -54994.195, 43863.93, -0.08079094, -0.31791905, -52160.652, -52160.652, 0.0, 9.993704, 10.002654 
2.2154075e+3, 1.2435314e+2, -922040.3, -1686295.9, -2856.145, 0.076073706, -0.37602273, -922029.7, 799272.8, 0.103506446, 10.007779, 9.996477 
2.2153808e+3, 1.3434947e+2, -958009.06, -1681764.8, -32978.36, 0.106561564, -0.38624936, -956509.5, 666829.3, 0.07425223, 10.006651, 9.996353 
2.215354e+3, 1.4434646e+2, -903435.25, -1529725.3, -15178.552, 0.10407674, -0.3517235, -903067.6, 622301.0, 0.04461908, 10.005812, 9.997127 
2.2153272e+3, 1.5434337e+2, -864402.44, -1480560.9, -7200.391, 0.061628874, -0.37210378, -864318.25, 563080.9, 0.020692836, 10.005342, 9.997018 
2.2153005e+3, 1.6434054e+2, -823279.06, -1364844.4, -5686.981, 0.050519727, -0.37017924, -823219.4, 506208.34, 0.0064749946, 10.004679, 9.997458 
2.2152744e+3, 1.7433822e+2, -863055.6, -1348710.9, -11114.52, 0.076864146, -0.34298617, -862801.44, 368650.78, 0.0009856111, 10.003773, 9.997333 
2.2152478e+3, 1.8433605e+2, -817001.56, -1186052.6, -9950.616, 0.07574396, -0.32559165, -816733.5, 316741.53, 0.00002434694, 10.003026, 9.9981365 
2.2152212e+3, 1.9433421e+2, -804435.4, -1140230.8, -10935.755, 0.039894927, -0.3206558, -804079.6, 231414.31, 0.0, 10.002486, 9.998039 
2.2151946e+3, 2.0433272e+2, -751938.1, -967586.5, -20424.658, 0.028261464, -0.30780154, -750020.7, 187488.73, 0.0, 10.001758, 9.998902 
2.215168e+3, 2.143318e+2, -802516.25, -951818.44, -19083.674, 0.047788233, -0.2875602, -800115.6, 39403.535, 0.0, 10.000783, 9.998808 
2.2151417e+3, 2.2433096e+2, -774517.1, -810102.4, -5335.448, 0.045684256, -0.27742487, -773734.4, -32205.938, 0.0, 9.999969, 9.9995 
2.215115e+3, 2.3433042e+2, -772140.75, -770096.6, -11400.891, 0.016455777, -0.2794982, -759672.06, -116136.734, 0.0, 9.999363, 9.999393 
2.2150886e+3, 2.443303e+2, -697967.06, -563747.9, -12648.53, 0.0009835246, -0.27354807, -562566.3, -17029.748, 0.0, 9.998684, 10.000464 
2.2150625e+3, 2.5433084e+2, -718246.56, -531616.4, -6450.398, 0.0005963339, -0.26515308, -531393.7, -83864.41, 0.0, 9.99791, 10.000385 
2.2150362e+3, 2.643311e+2, -700067.06, -432163.22, -7869.308, -0.009958327, -0.28787583, -431932.25, -82406.31, 0.0, 9.99719, 10.000742 
2.2150098e+3, 2.7433133e+2, -709482.44, -401709.84, -11501.527, -0.027848583, -0.3358232, -401280.63, -149756.22, 0.0, 9.99652, 10.000601 
2.2149834e+3, 2.8433263e+2, -651737.2, -218622.8, -5257.404, -0.04332828, -0.30031556, -218559.0, -65047.734, 0.0, 9.995794, 10.001534 
2.2149573e+3, 2.943352e+2, -665477.44, -182717.58, 1809.7487, -0.069977485, -0.20205125, -182710.8, -127225.41, 0.0, 9.995063, 10.00146 
2.2149311e+3, 3.0433425e+2, -716384.94, -186954.89, -23107.908, -0.049613133, -0.42760205, -185948.22, -185948.22, 0.0, 9.9944, 10.001415 
2.2149043e+3, 3.1433696e+2, -673327.7, 62761.723, 9947.431, -0.10979474, -0.29492873, 62896.13, 62896.13, 0.0, 9.9937105, 10.003462 
2.2254148e+3, 1.2438016e+2, -994820.7, -1716212.1, 15383.194, 0.07530428, -0.35665986, -994492.75, 726546.25, 0.10473369, 10.007207, 9.996522 
2.2253872e+3, 1.3437648e+2, -977603.2, -1686776.5, 43.43939, 0.090705745, -0.37136096, -977603.2, 645472.3, 0.07513903, 10.006492, 9.996393 
2.2253597e+3, 1.4437346e+2, -903295.5, -1521454.5, 32046.852, 0.08865832, -0.3428991, -901638.56, 623466.75, 0.045165602, 10.005782, 9.997197 
2.2253326e+3, 1.5437041e+2, -896541.2, -1488233.0, 28910.031, 0.06662267, -0.36492604, -895132.0, 532003.25, 0.020964792, 10.005084, 9.997088 
2.2253051e+3, 1.6436765e+2, -864051.75, -1386553.6, 19887.996, 0.06015739, -0.35948497, -863295.8, 465867.44, 0.0065760906, 10.004408, 9.997439 
2.225278e+3, 1.743654e+2, -867146.4, -1353421.4, 20039.9, 0.07166457, -0.3215118, -866321.94, 364865.34, 0.0010078612, 10.003758, 9.997307 
2.2252508e+3, 1.8436322e+2, -811792.2, -1180667.3, 29765.318, 0.06726426, -0.30405208, -809405.8, 323804.34, 0.000025475509, 10.003052, 9.99816 
2.2252236e+3, 1.9436125e+2, -834008.75, -1151518.0, 31453.787, 0.042575862, -0.31363648, -830922.75, 204307.14, 0.0, 10.002274, 9.998063 
2.2251964e+3, 2.043597e+2, -787613.0, -991621.94, 13731.171, 0.03323958, -0.30504203, -786692.94, 150553.02, 0.0, 10.001545, 9.998838 
2.2251686e+3, 2.143588e+2, -793195.6, -954884.7, 4565.5405, 0.04396722, -0.2751297, -793066.8, 46188.746, 0.0, 10.000883, 9.998737 
2.2251417e+3, 2.2435793e+2, -747765.56, -801537.4, 21957.953, 0.041869752, -0.26327074, -739938.3, 1326.8901, 0.0, 10.0001745, 9.999458 
2.2251146e+3, 2.3435724e+2, -768774.4, -772897.1, 26739.04, 0.023611773, -0.27464938, -744017.4, -100744.2, 0.0, 9.999409, 9.999351 
2.2250874e+3, 2.4435703e+2, -708116.3, -573440.4, 21673.973, 0.008863488, -0.2728984, -570038.25, -24763.088, 0.0, 9.998638, 10.000419 
2.2250603e+3, 2.5435758e+2, -729507.4, -541727.8, 12635.027, -0.0028713522, -0.26061824, -540881.44, -93613.19, 0.0, 9.997856, 10.00034 
2.2250332e+3, 2.6435792e+2, -706319.7, -430005.75, 11745.322, -0.01545295, -0.27594802, -429507.38, -80243.12, 0.0, 9.9971285, 10.000785 
2.2250064e+3, 2.7435824e+2, -710318.6, -396305.3, 19391.494, -0.025617061, -0.31472254, -395112.34, -143851.14, 0.0, 9.996493, 10.000649 
2.2249793e+3, 2.8435948e+2, -641690.8, -204099.22, 25725.965, -0.04181002, -0.29284576, -202591.98, -49343.3, 0.0, 9.995825, 10.001617 
2.2249521e+3, 2.943617e+2, -665679.4, -179203.36, 25655.2, -0.07433812, -0.23079778, -177854.13, -122628.47, 0.0, 9.995049, 10.00149 
2.2249256e+3, 3.0436137e+2, -760902.1, -246731.7, 10469.841, -0.038176578, -0.3850502, -246518.6, -246518.6, 0.0, 9.994263, 10.001069 
2.2248979e+3, 3.143634e+2, -666931.4, 114433.195, 55483.94, -0.11148833, -0.28627932, 118353.39, 118353.39, 0.0, 9.993549, 10.003893 
2.2354224e+3, 1.2440798e+2, -985548.6, -1689830.4, -9808.039, 0.10744279, -0.33040825, -985412.06, 735356.3, 0.10587998, 10.00718, 9.996738 
2.2353934e+3, 1.344043e+2, -964776.5, -1655517.5, -24957.52, 0.06373713, -0.3673787, -963875.94, 658928.0, 0.07596422, 10.006483, 9.9966135 
2.235365e+3, 1.4440131e+2, -909232.6, -1534037.3, 6831.3115, 0.047058567, -0.34395266, -909158.0, 615675.3, 0.0456742, 10.005781, 9.997111 
2.2353373e+3, 1.5439838e+2, -904398.75, -1504007.9, 3046.603, 0.06683849, -0.34384704, -904383.3, 522479.53, 0.021220107, 10.005078, 9.996984 
2.2353098e+3, 1.6439565e+2, -861824.94, -1381233.9, -4281.951, 0.07188842, -0.33072078, -861789.6, 467101.06, 0.006673248, 10.004402, 9.997479 
2.2352818e+3, 1.7439337e+2, -864009.3, -1346969.6, -3863.9688, 0.056588463, -0.30167502, -863978.4, 366936.44, 0.0010305201, 10.0037565, 9.997354 
2.2352536e+3, 1.8439119e+2, -807996.0, -1173240.6, 1290.5088, 0.051734593, -0.28720456, -807991.44, 324945.7, 0.00002688948, 10.003051, 9.998213 
2.2352259e+3, 1.9438933e+2, -830005.06, -1144150.3, 2303.3938, 0.060262285, -0.29361275, -829988.2, 204967.55, 0.0, 10.0022745, 9.998115 
2.235198e+3, 2.0438762e+2, -800188.8, -1019164.2, -11229.104, 0.05524077, -0.293068, -799614.44, 137358.61, 0.0, 10.001549, 9.99865 
2.2351694e+3, 2.1438631e+2, -806860.4, -984858.5, -19704.604, 0.033185728, -0.28435826, -804705.2, 34281.895, 0.0, 10.000887, 9.998531 
2.2351415e+3, 2.2438538e+2, -741928.0, -791019.6, -5991.751, 0.026489384, -0.27069032, -741207.25, -210.11797, 0.0, 10.000178, 9.99953 
2.235114e+3, 2.3438507e+2, -762008.44, -760310.06, -1816.858, 0.0394096, -0.25270855, -759153.7, -116152.98, 0.0, 9.999413, 9.999437 
2.2350861e+3, 2.4438483e+2, -723415.0, -606848.94, -7595.4014, 0.029698785, -0.24930209, -606356.1, -61352.953, 0.0, 9.998643, 10.000188 
2.2350581e+3, 2.5438482e+2, -746217.75, -578423.56, -17013.902, -0.009431417, -0.26515895, -576715.8, -129713.49, 0.0, 9.997862, 10.000087 
2.2350302e+3, 2.6438513e+2, -694569.0, -407282.0, -13097.616, -0.029220812, -0.2759047, -406686.1, -57687.566, 0.0, 9.997132, 10.00094 
2.2350027e+3, 2.74386e+2, -696546.1, -368902.16, -4446.8643, -0.023182774, -0.28414246, -368841.8, -117852.05, 0.0, 9.996495, 10.000838 
2.2349751e+3, 2.84387e+2, -641172.9, -204081.92, -3393.8193, -0.04101423, -0.29486966, -204055.56, -51076.457, 0.0, 9.995827, 10.001618 
2.2349471e+3, 2.943885e+2, -669973.06, -190286.98, -5432.872, -0.09339835, -0.3037474, -190225.45, -135261.61, 0.0, 9.995056, 10.001411 
2.23492e+3, 3.0438998e+2, -762825.5, -252239.42, -17801.799, -0.037478026, -0.26292834, -251619.52, -251619.52, 0.0, 9.9942665, 10.001031 
2.2348917e+3, 3.143908e+2, -669996.6, 107537.73, 10124.427, -0.08379015, -0.2871573, 107669.54, 107669.54, 0.0, 9.993547, 10.003849 
2.2454295e+3, 1.24436475e+2, -1030609.2, -1703583.5, 23813.43, 0.12038763, -0.31716922, -1029767.6, 690722.94, 0.10695823, 10.006805, 9.996812 
2.2453997e+3, 1.3443288e+2, -979814.44, -1655186.8, 1191.1085, 0.05100397, -0.35350868, -979812.4, 642712.94, 0.076739654, 10.006344, 9.996681 
2.2453706e+3, 1.444299e+2, -919023.06, -1543897.5, 23415.006, 0.028144144, -0.32824174, -918146.9, 606407.7, 0.046153497, 10.005737, 9.997065 
2.2453426e+3, 1.54427e+2, -926977.25, -1521029.3, 22567.781, 0.06729978, -0.31960502, -926121.1, 500463.22, 0.021463096, 10.00495, 9.996928 
2.245314e+3, 1.644243e+2, -877983.94, -1371882.8, 23882.477, 0.0773842, -0.30731934, -876831.8, 451780.0, 0.006767779, 10.00422, 9.997631 
2.2452852e+3, 1.7442206e+2, -881300.94, -1337013.9, 31569.906, 0.048711434, -0.2912755, -879124.25, 351510.47, 0.0010538279, 10.003561, 9.997515 
2.2452566e+3, 1.8441987e+2, -839050.9, -1198505.1, 32777.3, 0.041089762, -0.28057203, -836086.5, 296570.34, 0.000028719203, 10.002885, 9.998118 
2.245228e+3, 1.9441797e+2, -850875.5, -1166293.3, 21955.594, 0.060409125, -0.27854297, -849354.56, 185321.56, 0.0, 10.002186, 9.998004 
2.2451995e+3, 2.0441622e+2, -804392.06, -1021105.4, 11615.702, 0.061728023, -0.27808648, -803771.25, 132922.88, 0.0, 10.001522, 9.998648 
2.2451705e+3, 2.1441479e+2, -804432.25, -983221.06, 17584.803, 0.040128235, -0.28043532, -802719.06, 35989.754, 0.0, 10.000904, 9.998532 
2.2451419e+3, 2.244138e+2, -745627.75, -799369.56, 28343.447, 0.033788394, -0.268616, -733442.3, 7276.797, 0.0, 10.000184, 9.999468 
2.2451133e+3, 2.3441352e+2, -777724.0, -774971.3, 20786.86, 0.04741112, -0.24151763, -755515.25, -112792.95, 0.0, 9.999338, 9.999371 
2.2450846e+3, 2.4441317e+2, -734223.56, -620413.7, 18407.188, 0.03647506, -0.24164021, -617510.6, -72784.875, 0.0, 9.998608, 10.00011 
2.2450559e+3, 2.5441292e+2, -729024.94, -579116.94, 21671.598, -0.0064691566, -0.27407783, -576046.9, -129319.35, 0.0, 9.998022, 10.000003 
2.2450273e+3, 2.644132e+2, -669613.2, -393544.75, 23776.363, -0.028711362, -0.28232855, -391512.0, -42788.1, 0.0, 9.9973, 10.000952 
2.244999e+3, 2.7441424e+2, -709153.8, -372192.72, 19953.22, -0.022840317, -0.2714983, -371015.3, -120302.49, 0.0, 9.996401, 10.000859 
2.2449706e+3, 2.8441513e+2, -670126.0, -224706.22, 15630.331, -0.042683944, -0.2932134, -224158.4, -71454.99, 0.0, 9.995661, 10.001555 
2.2449419e+3, 2.9441628e+2, -662901.9, -193740.8, 9278.603, -0.09963256, -0.32999203, -193557.36, -138865.44, 0.0, 9.995137, 10.001348 
2.244914e+3, 3.0441853e+2, -712968.06, -196536.81, 6461.911, -0.04429773, -0.22364147, -196455.97, -196455.97, 0.0, 9.994475, 10.001311 
2.2448853e+3, 3.1441903e+2, -699855.3, 49568.582, 35672.64, -0.064660475, -0.3071444, 51262.773, 51262.773, 0.0, 9.993534, 10.003455 
2.2554363e+3, 1.2446565e+2, -1037719.7, -1713251.9, 5842.889, 0.11662951, -0.3163189, -1037669.1, 682536.5, 0.107981786, 10.006786, 9.996748 
2.255406e+3, 1.344622e+2, -986900.0, -1667530.4, -15317.979, 0.049492422, -0.3304275, -986555.44, 635684.1, 0.07747879, 10.0063305, 9.996604 
2.2553763e+3, 1.4445926e+2, -921811.7, -1548022.1, -4387.593, 0.027686441, -0.29743972, -921780.94, 602488.2, 0.046612848, 10.005729, 9.997042 
2.2553474e+3, 1.5445629e+2, -929262.56, -1524383.5, -6156.7363, 0.06761984, -0.29237118, -929198.9, 497100.84, 0.021697639, 10.004941, 9.996911 
2.2553182e+3, 1.6445361e+2, -862356.7, -1338594.3, -633.037, 0.07739397, -0.28869113, -862355.8, 465970.75, 0.0068602907, 10.004214, 9.997864 
2.2552885e+3, 1.7445144e+2, -863560.1, -1301156.3, 6551.6484, 0.047113776, -0.28933898, -863462.0, 366885.25, 0.0010778145, 10.003563, 9.997762 
2.2552593e+3, 1.8444926e+2, -854749.44, -1232720.1, 6400.9604, 0.034438986, -0.2829053, -854641.06, 277728.22, 0.000031062955, 10.002889, 9.997884 
2.2552302e+3, 1.944472e+2, -868787.0, -1204829.5, -3887.9675, 0.04409055, -0.2679175, -868742.0, 165649.1, 0.0, 10.002189, 9.99774 
2.2552009e+3, 2.0444545e+2, -792756.0, -998249.25, -11150.461, 0.054002095, -0.26043326, -792152.75, 144256.52, 0.0, 10.001525, 9.998804 
2.2551717e+3, 2.144442e+2, -791131.6, -956829.5, -5420.8647, 0.06385178, -0.26394373, -790954.44, 47466.867, 0.0, 10.000906, 9.9987135 
2.255142e+3, 2.2444317e+2, -759029.75, -828713.5, -2848.2476, 0.0622441, -0.25748208, -758913.56, -18481.91, 0.0, 10.000188, 9.999267 
2.2551128e+3, 2.3444253e+2, -792238.25, -807337.3, -10896.43, 0.047454864, -0.2409698, -786531.56, -144093.31, 0.0, 9.999345, 9.999146 
2.2550833e+3, 2.4444202e+2, -728866.9, -611564.44, -4075.9697, 0.029678743, -0.2494439, -611423.0, -66979.766, 0.0, 9.998614, 10.000169 
2.255054e+3, 2.544418e+2, -723356.56, -569085.4, -489.85248, 0.0058291, -0.28706548, -569083.8, -122639.55, 0.0, 9.998027, 10.000072 
2.2550249e+3, 2.6444206e+2, -679216.3, -414763.47, -9857.913, -0.014346377, -0.29511818, -414396.53, -65955.664, 0.0, 9.997303, 10.000807 
2.2549954e+3, 2.74443e+2, -719812.44, -395814.63, -14497.996, -0.025395317, -0.2776528, -395167.16, -144736.13, 0.0, 9.996404, 10.000696 
2.2549663e+3, 2.8444386e+2, -679149.6, -244902.31, -6011.2837, -0.04711332, -0.28793952, -244819.13, -92396.88, 0.0, 9.995664, 10.001416 
2.254937e+3, 2.9444504e+2, -666474.0, -202609.83, -11012.632, -0.09225906, -0.30704275, -202348.53, -147938.16, 0.0, 9.99514, 10.0012865 
2.2549084e+3, 3.044469e+2, -669884.6, -108159.47, -26939.746, -0.059194926, -0.27134672, -106870.43, -106870.43, 0.0, 9.994477, 10.001919 
2.2548789e+3, 3.1444857e+2, -754160.1, -64591.855, -14557.316, -0.051295515, -0.29045933, -64284.676, -64284.676, 0.0, 9.993537, 10.002671 
2.2654426e+3, 1.2449538e+2, -1071043.3, -1722732.9, 21715.371, 0.107616015, -0.3024188, -1070320.5, 649595.25, 0.10894386, 10.006504, 9.996813 
2.265412e+3, 1.3449208e+2, -1004757.7, -1669711.6, 10755.835, 0.054183584, -0.30616477, -1004583.75, 617364.7, 0.07817864, 10.006173, 9.996664 
2.2653818e+3, 1.4448921e+2, -933908.4, -1539053.5, 15896.729, 0.03576813, -0.27398947, -933491.06, 590486.06, 0.04705084, 10.005582, 9.997171 
2.265352e+3, 1.544863e+2, -958720.56, -1523855.1, 22985.576, 0.0678718, -0.277512, -957787.2, 468219.75, 0.021922527, 10.004673, 9.997042 
2.2653222e+3, 1.6448364e+2, -899256.1, -1358260.4, 36404.883, 0.074584655, -0.27706826, -896386.7, 431646.78, 0.0069498336, 10.00397, 9.997845 
2.2652923e+3, 1.7448148e+2, -871814.3, -1307679.4, 24924.889, 0.04682731, -0.27438283, -870393.6, 359660.66, 0.0011021402, 10.00352, 9.997736 
2.2652622e+3, 1.8447927e+2, -846890.6, -1224883.6, 16607.498, 0.034536455, -0.2698609, -846162.4, 285914.0, 0.00003393106, 10.002929, 9.997916 
2.2652322e+3, 1.9447716e+2, -870461.6, -1201399.3, 26116.37, 0.0419931, -0.26326826, -868413.25, 165685.08, 0.0, 10.002162, 9.997774 
2.2652024e+3, 2.044754e+2, -809137.94, -1015847.94, 25186.525, 0.05390579, -0.25405198, -806113.4, 130003.2, 0.0, 10.001457, 9.998714 
2.2651723e+3, 2.1447419e+2, -809133.94, -975774.94, 10842.07, 0.07097432, -0.24373545, -808431.5, 29697.068, 0.0, 10.000831, 9.998619 
2.2651424e+3, 2.2447306e+2, -759985.56, -831551.5, 4453.1733, 0.06908745, -0.24083771, -759709.56, -19569.828, 0.0, 10.000195, 9.999242 
2.2651121e+3, 2.3447217e+2, -764309.6, -796037.06, 10534.604, 0.045117084, -0.24836999, -761130.4, -118982.14, 0.0, 9.999549, 9.999124 
2.265082e+3, 2.444716e+2, -705307.7, -605344.4, 21563.621, 0.028294062, -0.2576764, -600891.1, -56737.688, 0.0, 9.998801, 10.00012 
2.265052e+3, 2.5447157e+2, -740992.25, -583146.6, 15674.702, 0.016954977, -0.26983252, -581605.1, -135452.1, 0.0, 9.997932, 10.000018 
2.265022e+3, 2.6447174e+2, -690922.75, -424266.6, 6661.2017, -0.0062664235, -0.2809203, -424100.28, -75949.836, 0.0, 9.997243, 10.000769 
2.264992e+3, 2.7447233e+2, -672830.7, -377866.75, 10184.722, -0.03618158, -0.29493433, -377515.53, -127371.64, 0.0, 9.99675, 10.000651 
2.2649622e+3, 2.844733e+2, -638989.44, -231715.36, 22159.205, -0.048230123, -0.28936818, -230513.27, -78379.22, 0.0, 9.995969, 10.001359 
2.2649324e+3, 2.94475e+2, -705095.0, -222495.84, 23583.346, -0.05754088, -0.2521561, -221346.13, -167228.66, 0.0, 9.9948845, 10.001271 
2.2649026e+3, 3.044759e+2, -707439.0, -113939.875, -5556.618, -0.06260354, -0.31633854, -113887.85, -113887.85, 0.0, 9.994169, 10.002026 
2.2648725e+3, 3.144783e+2, -724530.6, -68174.96, -26037.434, -0.045596745, -0.26737183, -67143.69, -67143.69, 0.0, 9.993818, 10.002509 
2.275449e+3, 1.2452567e+2, -1061389.4, -1700867.4, 9143.635, 0.09288132, -0.2774403, -1061258.6, 658361.9, 0.1098112, 10.006502, 9.99698 
2.2754185e+3, 1.3452256e+2, -997682.3, -1647072.8, -664.35614, 0.06335932, -0.2809397, -997681.6, 623969.94, 0.07881339, 10.006146, 9.996833 
2.2753876e+3, 1.445198e+2, -920908.94, -1506139.1, -15944.972, 0.050625555, -0.2570908, -920474.8, 603203.8, 0.04745082, 10.005558, 9.997417 
2.2753567e+3, 1.5451701e+2, -940967.56, -1487675.0, -11111.2705, 0.06767012, -0.2734161, -940741.9, 484964.47, 0.022129653, 10.004678, 9.99729 
2.2753261e+3, 1.645144e+2, -915039.1, -1394707.3, 18555.236, 0.06889896, -0.2711196, -914322.44, 413410.22, 0.007033549, 10.003983, 9.99759 
2.2752957e+3, 1.7451215e+2, -891268.06, -1348640.5, 8413.392, 0.047421098, -0.24756348, -891113.3, 338642.3, 0.0011260583, 10.003519, 9.997457 
2.2752652e+3, 1.845099e+2, -828620.75, -1186866.8, -11267.056, 0.040662304, -0.2433348, -828266.75, 303511.25, 0.000037226386, 10.002925, 9.99818 
2.2752343e+3, 1.9450782e+2, -849239.44, -1158959.4, -2808.8313, 0.05282943, -0.26402044, -849213.94, 184584.16, 0.000000000000000002497382, 10.002166, 9.998065 
2.2752039e+3, 2.0450602e+2, -830968.7, -1063601.4, 1292.5288, 0.060556322, -0.25764626, -830961.5, 104854.87, 0.0, 10.001465, 9.998384 
2.275173e+3, 2.1450473e+2, -833541.06, -1028635.06, -12123.777, 0.062102694, -0.22009282, -832790.56, 5040.2563, 0.0, 10.000836, 9.998255 
2.2751424e+3, 2.2450343e+2, -749590.4, -811926.75, -19350.049, 0.05544418, -0.21936153, -744072.3, -4228.78, 0.0, 10.0002, 9.999375 
2.2751115e+3, 2.3450235e+2, -752217.3, -772756.7, -13629.05, 0.04046448, -0.26342785, -745421.94, -103569.35, 0.0, 9.999554, 9.999283 
2.2750808e+3, 2.4450184e+2, -716240.4, -629796.8, -10901.821, 0.0319925, -0.26576844, -628443.1, -84586.3, 0.0, 9.998806, 9.999951 
2.27505e+3, 2.5450218e+2, -752768.2, -609519.0, -16926.588, 0.026679292, -0.22260885, -607546.06, -161691.98, 0.0, 9.997938, 9.999836 
2.2750193e+3, 2.6450223e+2, -686002.2, -415864.06, -12876.568, -0.0045850053, -0.24054272, -415251.66, -67398.51, 0.0, 9.997248, 10.000825 
2.2749886e+3, 2.745022e+2, -667781.7, -369117.22, -9538.297, -0.05564849, -0.3243505, -368812.9, -118960.98, 0.0, 9.996755, 10.000711 
2.274958e+3, 2.845034e+2, -637771.56, -230133.98, -18806.885, -0.045947056, -0.29690713, -229268.14, -77428.83, 0.0, 9.995971, 10.00137 
2.274928e+3, 2.9450607e+2, -703735.44, -220081.27, -16903.633, 0.0050420663, -0.1631152, -219491.22, -165677.64, 0.0, 9.994884, 10.001289 
2.2748968e+3, 3.0450547e+2, -737216.4, -176594.89, -20699.16, -0.055488303, -0.36114967, -175831.69, -175831.69, 0.0, 9.99417, 10.001597 
2.2748664e+3, 3.145079e+2, -683981.3, 13367.693, -17167.285, -0.05271887, -0.26392284, 13790.061, 13790.061, 0.0, 9.993827, 10.003067 
2.2854553e+3, 1.2455655e+2, -1040457.9, -1678170.1, 38265.96, 0.069787234, -0.2756381, -1038169.94, 681148.25, 0.11053511, 10.00661, 9.997102 
2.2854246e+3, 1.345535e+2, -1064862.5, -1668277.4, 27601.877, 0.08646068, -0.28223288, -1063602.5, 557746.1, 0.07934264, 10.00559, 9.996955 
2.285393e+3, 1.4455089e+2, -996598.0, -1529731.6, 13686.569, 0.080233224, -0.25878176, -996246.9, 527127.75, 0.04778494, 10.004957, 9.997537 
2.2853613e+3, 1.5454829e+2, -917263.25, -1462130.4, 10396.858, 0.05715096, -0.2655401, -917064.94, 508335.1, 0.022304581, 10.004788, 9.997409 
2.2853301e+3, 1.6454571e+2, -874435.6, -1379570.3, 36069.49, 0.050417922, -0.26147252, -871873.06, 455552.84, 0.007106228, 10.004287, 9.997545 
2.285299e+3, 1.7454335e+2, -914504.9, -1365598.5, 40478.793, 0.059469182, -0.24503459, -910901.3, 318549.25, 0.001148317, 10.003388, 9.997401 
2.285268e+3, 1.845411e+2, -864882.6, -1204020.4, 22014.086, 0.06157642, -0.2382915, -863459.6, 268013.6, 0.000040776646, 10.002678, 9.998179 
2.2852366e+3, 1.9453917e+2, -844876.4, -1155870.3, 9679.787, 0.056820065, -0.2454335, -844575.4, 188916.69, 0.00000000020988672, 10.002195, 9.99807 
2.2852053e+3, 2.0453733e+2, -811385.9, -1060758.4, 10924.571, 0.05553704, -0.23948292, -810908.25, 124602.35, 0.0, 10.001631, 9.9983225 
2.2851738e+3, 2.1453579e+2, -819093.1, -1028844.3, 17948.506, 0.057196554, -0.21855095, -817568.4, 19958.791, 0.0, 10.00097, 9.998187 
2.2851425e+3, 2.2453439e+2, -738768.6, -810907.8, 14736.933, 0.051435687, -0.22324227, -735874.25, 3666.562, 0.0, 10.000296, 9.999334 
2.2851111e+3, 2.3453332e+2, -747508.75, -774519.44, 5830.261, 0.039101187, -0.25964108, -746304.06, -104754.65, 0.0, 9.999607, 9.999244 
2.2850797e+3, 2.4453282e+2, -708418.56, -634033.6, -855.2254, 0.03357602, -0.25639224, -634023.8, -90469.99, 0.0, 9.998898, 9.999877 
2.285048e+3, 2.545331e+2, -725395.9, -604084.6, 756.4688, 0.030553786, -0.21009237, -604079.94, -158527.98, 0.0, 9.998162, 9.9997635 
2.2850166e+3, 2.6453313e+2, -670233.06, -404036.78, 11403.162, 0.00006613123, -0.22854628, -403549.2, -55997.867, 0.0, 9.99734, 10.00086 
2.284985e+3, 2.745331e+2, -712822.2, -386082.03, 12834.505, -0.048871994, -0.31575534, -385578.66, -136028.94, 0.0, 9.996428, 10.000751 
2.2849539e+3, 2.845343e+2, -668086.2, -248505.33, -635.28894, -0.03499998, -0.2883082, -248504.36, -96967.29, 0.0, 9.995782, 10.001333 
2.284923e+3, 2.9453692e+2, -637758.1, -195494.31, -4061.1753, 0.01461686, -0.15551177, -195457.02, -141944.72, 0.0, 9.99537, 10.001223 
2.2848912e+3, 3.0453625e+2, -710097.9, -188209.34, -7322.2217, -0.053342737, -0.3431998, -188106.64, -188106.64, 0.0, 9.994464, 10.001374 
2.2848602e+3, 3.1453848e+2, -737464.4, 41119.4, 44754.508, -0.03864073, -0.24831238, 43683.527, 43683.527, 0.0, 9.993235, 10.00354 
2.2954614e+3, 1.2458803e+2, -1039320.06, -1670151.5, 3045.133, 0.038716413, -0.29366374, -1039305.4, 679703.5, 0.11106893, 10.006584, 9.997177 
2.2954305e+3, 1.3458501e+2, -1060128.3, -1657994.4, -8290.039, 0.121224135, -0.3056343, -1060013.4, 561026.0, 0.07972787, 10.005591, 9.9970255 
2.2953984e+3, 1.4458248e+2, -995370.06, -1529647.3, 5881.877, 0.121718206, -0.27574572, -995305.3, 527759.5, 0.04802587, 10.004967, 9.997535 
2.295366e+3, 1.5458018e+2, -918328.3, -1463224.3, 3858.7954, 0.03696311, -0.25414988, -918300.94, 506787.0, 0.02243193, 10.004782, 9.997407 
2.295334e+3, 1.6457766e+2, -867071.94, -1362210.4, 3410.6108, 0.020735497, -0.24904509, -867048.44, 460064.66, 0.007161695, 10.004276, 9.997671 
2.2953027e+3, 1.745751e+2, -905325.7, -1347015.3, 6296.7686, 0.08178453, -0.2641949, -905235.94, 323903.0, 0.0011673393, 10.003387, 9.997531 
2.295271e+3, 1.8457286e+2, -881813.4, -1240926.3, 3089.8079, 0.09535135, -0.25196964, -881786.8, 249375.3, 0.000044358083, 10.002683, 9.997926 
2.2952388e+3, 1.9457115e+2, -862980.0, -1195073.5, -7985.0874, 0.054137964, -0.20914264, -862788.06, 170392.28, 0.0000000020348991, 10.002199, 9.997801 
2.2952065e+3, 2.0456928e+2, -798307.5, -1035113.56, -12955.967, 0.039796308, -0.20195536, -797600.75, 137598.63, 0.0, 10.001635, 9.998498 
2.2951747e+3, 2.1456736e+2, -804557.94, -1000199.3, -6449.403, 0.056006905, -0.23776846, -804345.56, 32872.195, 0.0, 10.000974, 9.9983835 
2.2951429e+3, 2.245659e+2, -753377.56, -842939.25, -10865.321, 0.056364924, -0.25043625, -752078.25, -12846.443, 0.0, 10.0003, 9.999114 
2.2951105e+3, 2.3456508e+2, -763330.25, -809360.6, -19935.299, 0.040561225, -0.23762731, -755896.9, -114657.766, 0.0, 9.999613, 9.999003 
2.2950783e+3, 2.4456449e+2, -707048.6, -633057.94, -28411.537, 0.03285887, -0.23081088, -623407.0, -80162.22, 0.0, 9.998902, 9.999883 
2.2950462e+3, 2.5456432e+2, -723343.1, -601349.8, -27295.47, 0.028173026, -0.23239581, -595521.06, -150274.05, 0.0, 9.998166, 9.999783 
2.295014e+3, 2.6456442e+2, -669467.0, -403475.66, -23317.352, 0.0077024754, -0.24393205, -401447.06, -54201.723, 0.0, 9.997342, 10.000865 
2.2949816e+3, 2.74565e+2, -711458.8, -384349.47, -21182.285, -0.015585207, -0.2678327, -382983.5, -133745.88, 0.0, 9.996429, 10.000763 
2.2949499e+3, 2.8456596e+2, -674719.94, -263574.94, -17128.35, -0.015945638, -0.26443323, -262862.6, -111634.65, 0.0, 9.995784, 10.00123 
2.294918e+3, 2.945674e+2, -648366.1, -219995.64, -22631.861, -0.03154864, -0.23396315, -218803.25, -165588.52, 0.0, 9.995378, 10.001053 
2.2948855e+3, 3.0456826e+2, -711078.3, -191561.72, -57609.32, -0.055526238, -0.2562021, -185250.1, -185250.1, 0.0, 9.994467, 10.001352 
2.2948535e+3, 3.1456986e+2, -716941.75, 85213.19, 31128.201, -0.017187709, -0.23273714, 86419.33, 86419.33, 0.0, 9.993227, 10.003848 
2.305468e+3, 1.2462022e+2, -1090144.6, -1696328.8, 28173.336, 0.05218564, -0.3151793, -1088838.1, 629854.4, 0.111376815, 10.006204, 9.997157 
2.3054358e+3, 1.3461737e+2, -1047291.8, -1653333.1, 12683.195, 0.11294679, -0.3073428, -1047026.5, 573695.25, 0.07994181, 10.0057, 9.997004 
2.3054034e+3, 1.4461488e+2, -972580.9, -1518368.4, 35338.273, 0.11169759, -0.27309078, -970302.3, 552444.94, 0.048154775, 10.0051365, 9.997529 
2.3053706e+3, 1.546125e+2, -956433.2, -1482161.4, 33949.26, 0.048367362, -0.25688395, -954250.0, 470521.25, 0.022500321, 10.0045185, 9.997402 
2.3053381e+3, 1.6461001e+2, -916892.44, -1379480.3, 18848.648, 0.036137875, -0.25182027, -916125.7, 410670.56, 0.0071946084, 10.003905, 9.997729 
2.3053062e+3, 1.7460757e+2, -914572.4, -1343997.8, 15697.811, 0.081349865, -0.26139492, -913999.3, 314821.7, 0.0011814296, 10.003296, 9.997594 
2.3052737e+3, 1.8460536e+2, -878473.1, -1241419.1, 25884.764, 0.09148688, -0.247522, -876636.4, 254207.53, 0.0000476708, 10.002719, 9.997903 
2.305241e+3, 1.9460359e+2, -867655.3, -1200168.6, 31443.453, 0.060697008, -0.20692699, -864708.06, 168155.0, 0.000000006496825, 10.002183, 9.997771 
2.3052083e+3, 2.0460173e+2, -800920.9, -1033328.4, 24689.145, 0.047405098, -0.19846727, -798327.06, 136555.02, 0.0, 10.001607, 9.998522 
2.3051758e+3, 2.1459988e+2, -801662.75, -995410.25, 18346.77, 0.05435457, -0.22962715, -799940.75, 36958.758, 0.0, 10.000982, 9.99841 
2.305143e+3, 2.2459838e+2, -755217.06, -853924.75, 10267.533, 0.052767962, -0.24116805, -754160.4, -15246.677, 0.0, 10.000335, 9.999021 
2.3051101e+3, 2.3459744e+2, -763806.6, -820492.94, 11257.047, 0.043120407, -0.2309221, -761652.94, -120730.305, 0.0, 9.99966, 9.998902 
2.3050775e+3, 2.4459673e+2, -703241.75, -633063.9, 4150.632, 0.036140192, -0.22868901, -632819.25, -89889.72, 0.0, 9.9989395, 9.999863 
2.3050444e+3, 2.5459647e+2, -724848.94, -603779.44, 2404.6794, 0.027001472, -0.2359497, -603731.7, -158799.33, 0.0, 9.998166, 9.999764 
2.3050113e+3, 2.645966e+2, -661176.94, -409615.22, 58.504868, 0.011754966, -0.23723985, -409615.22, -62684.824, 0.0, 9.997445, 10.0007715 
2.3049785e+3, 2.7459735e+2, -666385.94, -372907.03, -5031.689, 0.0023554442, -0.23760106, -372820.78, -123899.04, 0.0, 9.996786, 10.000669 
2.3049457e+3, 2.8459805e+2, -643947.0, -255726.98, 52.99024, -0.011751113, -0.24969457, -255726.98, -104812.52, 0.0, 9.996028, 10.001165 
2.3049128e+3, 2.9459903e+2, -687769.44, -245551.14, -3609.3972, -0.06476035, -0.26277035, -245521.69, -192615.83, 0.0, 9.995138, 10.000991 
2.3048802e+3, 3.0460057e+2, -708228.9, -169361.34, -33543.004, -0.025828253, -0.2241569, -167281.4, -167281.4, 0.0, 9.994399, 10.001535 
2.3048466e+3, 3.146018e+2, -652506.0, 71882.2, 72885.58, -0.027262509, -0.2523578, 79142.94, 79142.94, 0.0, 9.993864, 10.003448 
2.3154746e+3, 1.2465315e+2, -1097825.8, -1710345.5, 8728.797, 0.10101475, -0.33943236, -1097701.4, 620667.6, 0.11143585, 10.006192, 9.997055 
2.3154409e+3, 1.346506e+2, -1054383.1, -1669356.5, -5799.9795, 0.066824675, -0.2904843, -1054328.4, 566067.7, 0.07996896, 10.005698, 9.996896 
2.315408e+3, 1.4464806e+2, -973639.1, -1521824.9, 12676.0, 0.05789134, -0.25417632, -973346.2, 549076.1, 0.048162047, 10.005138, 9.997504 
2.3153755e+3, 1.5464532e+2, -958300.3, -1485814.8, 10648.051, 0.087564126, -0.27199152, -958085.44, 466364.2, 0.022503825, 10.004514, 9.99738 
2.3153426e+3, 1.6464283e+2, -918341.94, -1382264.0, -4311.018, 0.090078846, -0.26733714, -918301.9, 408173.16, 0.007201588, 10.0039015, 9.997713 
2.315309e+3, 1.7464073e+2, -914412.25, -1345294.3, -7303.058, 0.05991908, -0.23900838, -914288.5, 314208.16, 0.0011891593, 10.0033, 9.997584 
2.3152758e+3, 1.8463857e+2, -865415.2, -1216484.9, 5739.181, 0.054097377, -0.22747923, -865321.4, 265197.5, 0.000050385515, 10.002726, 9.998073 
2.3152432e+3, 1.9463651e+2, -854779.25, -1174711.8, 11234.317, 0.07597333, -0.23574522, -854385.2, 178154.97, 0.000000012642861, 10.002186, 9.997947 
2.3152103e+3, 2.0463468e+2, -809610.6, -1052584.8, 1401.092, 0.07618893, -0.22551097, -809602.56, 124956.234, 0.0, 10.001609, 9.99839 
2.3151767e+3, 2.146333e+2, -810746.8, -1016131.2, -4815.344, 0.051741198, -0.19582014, -810633.94, 25938.75, 0.0, 10.000988, 9.998267 
2.3151433e+3, 2.2463182e+2, -753207.8, -851587.3, -14713.491, 0.041013513, -0.1981551, -751054.44, -12467.406, 0.0, 10.0003395, 9.999036 
2.3151098e+3, 2.3463039e+2, -761641.2, -817369.75, -14091.571, 0.046724536, -0.23908228, -758280.6, -117680.37, 0.0, 9.999662, 9.998924 
2.3150761e+3, 2.4462956e+2, -706423.5, -641175.1, -24861.197, 0.04319959, -0.24872136, -632782.06, -90173.734, 0.0, 9.998943, 9.999807 
2.3150425e+3, 2.5462958e+2, -728390.9, -613155.4, -26917.07, 0.026535766, -0.22098209, -607178.06, -162569.6, 0.0, 9.998172, 9.999699 
2.3150088e+3, 2.6462972e+2, -674843.4, -439710.22, -25519.559, 0.011845778, -0.20913681, -436972.38, -90365.45, 0.0, 9.99745, 10.000565 
2.3149754e+3, 2.746301e+2, -681162.3, -405070.1, -30228.555, 0.0045358883, -0.22554234, -401799.2, -153196.53, 0.0, 9.99679, 10.000447 
2.3149416e+3, 2.846306e+2, -645894.0, -260693.48, -34052.42, -0.022637464, -0.2436507, -257706.36, -107109.195, 0.0, 9.996029, 10.001132 
2.3149078e+3, 2.946317e+2, -684526.56, -239677.02, -38766.703, -0.085099176, -0.24049747, -236323.95, -183737.9, 0.0, 9.995139, 10.001033 
2.3148753e+3, 3.0463296e+2, -680290.9, -112713.71, -55192.52, 0.037110087, -0.25141728, -107396.48, -107396.48, 0.0, 9.994402, 10.0019245 
2.3148404e+3, 3.1463486e+2, -733567.06, -100041.74, 29539.516, -0.059041776, -0.24576026, -98667.375, -98667.375, 0.0, 9.9938755, 10.002263 
2.3254807e+3, 1.2468686e+2, -1122333.4, -1723045.3, 22999.346, 0.11849019, -0.32311076, -1121454.0, 596585.44, 0.11123197, 10.006004, 9.997052 
2.3254466e+3, 1.3468419e+2, -1052712.5, -1668887.1, 15808.333, 0.06031548, -0.28517988, -1052307.1, 567760.25, 0.07979858, 10.005713, 9.996891 
2.3254128e+3, 1.4468157e+2, -971403.3, -1523307.8, 26224.908, 0.046527985, -0.2541518, -970160.0, 551934.25, 0.048040263, 10.005169, 9.9974785 
2.3253798e+3, 1.5467885e+2, -984125.75, -1501037.6, 22894.543, 0.09520882, -0.26663247, -983113.7, 441007.78, 0.022437708, 10.004347, 9.9973545 
2.3253465e+3, 1.6467637e+2, -939540.2, -1385070.3, 18451.43, 0.10075116, -0.26178923, -938777.3, 387369.4, 0.007179938, 10.003727, 9.997776 
2.3253122e+3, 1.746743e+2, -904851.56, -1332806.3, 20562.744, 0.054207105, -0.23812638, -903865.8, 324302.34, 0.0011893937, 10.003336, 9.997651 
2.3252785e+3, 1.8467222e+2, -848796.44, -1201366.5, 27775.62, 0.04551662, -0.22554663, -846621.7, 283567.9, 0.000052244875, 10.002812, 9.998132 
2.3252453e+3, 1.9467026e+2, -857334.4, -1168495.8, 24238.242, 0.08062891, -0.22728711, -855457.6, 176752.02, 0.000000017833118, 10.00214, 9.99801 
2.3252116e+3, 2.0466848e+2, -819335.44, -1056366.8, 16079.419, 0.08395635, -0.217195, -818249.6, 115978.33, 0.0, 10.001542, 9.998394 
2.3251775e+3, 2.1466702e+2, -804653.9, -1012504.5, 19738.064, 0.05086462, -0.1940971, -802796.1, 33446.613, 0.0, 10.00103, 9.99827 
2.3251435e+3, 2.2466557e+2, -745643.56, -845550.0, 8722.564, 0.039486993, -0.19421399, -744887.75, -6630.834, 0.0, 10.000384, 9.999054 
2.3251094e+3, 2.3466428e+2, -771946.7, -819959.7, 8754.584, 0.053499244, -0.22364633, -770400.2, -130131.1, 0.0, 9.999584, 9.998942 
2.3250753e+3, 2.4466342e+2, -718565.25, -654308.94, -314.52768, 0.05043402, -0.2316903, -654307.4, -112030.125, 0.0, 9.998894, 9.999739 
2.3250405e+3, 2.546633e+2, -710918.44, -612804.25, -3280.4507, 0.026694125, -0.21327877, -612694.7, -168415.63, 0.0, 9.998329, 9.999623 
2.3250063e+3, 2.6466334e+2, -646570.9, -431971.0, 1161.2482, 0.013013879, -0.20529474, -431964.72, -85685.94, 0.0, 9.997672, 10.000508 
2.3249722e+3, 2.7466363e+2, -670971.44, -406313.94, 7458.3457, 0.012805286, -0.21789274, -406103.9, -157828.64, 0.0, 9.996889, 10.000389 
2.3249377e+3, 2.8466424e+2, -640140.1, -257467.58, 7085.5034, -0.020597048, -0.22292866, -257336.42, -107067.56, 0.0, 9.99607, 10.001133 
2.3249029e+3, 2.9466552e+2, -663015.94, -226066.31, 4583.501, -0.09513165, -0.20097543, -226018.23, -173762.81, 0.0, 9.995276, 10.001058 
2.3248696e+3, 3.0466628e+2, -631871.3, -68591.586, -14213.646, 0.04557136, -0.27583888, -68233.15, -68233.15, 0.0, 9.994648, 10.002108 
2.324834e+3, 3.146688e+2, -750378.56, -147480.36, 27628.162, -0.06380942, -0.22202067, -146216.92, -146216.92, 0.0, 9.993931, 10.00191 
2.3354866e+3, 1.2472131e+2, -1116203.4, -1712899.4, 11874.187, 0.109336235, -0.27568227, -1115967.3, 601736.56, 0.110757105, 10.006016, 9.99712 
2.3354526e+3, 1.3471818e+2, -1048199.6, -1659055.8, 5198.8003, 0.086972, -0.2894826, -1048155.4, 571579.56, 0.07942135, 10.005711, 9.996961 
2.3354182e+3, 1.4471549e+2, -974722.8, -1530374.9, -3137.9258, 0.07003469, -0.2692078, -974705.06, 547057.25, 0.047781106, 10.005163, 9.997434 
2.335384e+3, 1.5471311e+2, -986490.75, -1507418.6, -7604.2803, 0.07474274, -0.24330524, -986379.75, 437406.97, 0.022296287, 10.004349, 9.997312 
2.3353499e+3, 1.6471066e+2, -930556.4, -1368091.9, 3371.3455, 0.07398802, -0.23834749, -930530.4, 395281.22, 0.007126939, 10.003732, 9.997891 
2.3353156e+3, 1.7470829e+2, -896466.5, -1315861.0, 5831.674, 0.06280302, -0.25641236, -896385.44, 331449.8, 0.0011813755, 10.003335, 9.997769 
2.3352815e+3, 1.847063e+2, -852612.9, -1209561.6, 2797.0063, 0.0622551, -0.23922414, -852590.94, 277264.97, 0.000053136322, 10.0028105, 9.998078 
2.3352472e+3, 1.9470483e+2, -860545.3, -1176565.3, -749.309, 0.07500667, -0.18490955, -860543.5, 171328.2, 0.000000019606611, 10.002143, 9.997954 
2.3352131e+3, 2.0470305e+2, -810198.6, -1038847.2, -3078.9822, 0.07235169, -0.17720892, -810157.2, 123732.805, 0.0, 10.001545, 9.998515 
2.3351784e+3, 2.1470104e+2, -795664.3, -994303.2, 1014.08325, 0.051678937, -0.22244179, -795659.1, 40250.402, 0.0, 10.001029, 9.998397 
2.3351438e+3, 2.2469963e+2, -744988.8, -844873.1, -20979.73, 0.04750967, -0.2263013, -740761.2, -2837.7642, 0.0, 10.000383, 9.999061 
2.3351091e+3, 2.3469904e+2, -770762.56, -819385.44, -21343.986, 0.062880024, -0.18542843, -762722.6, -122793.164, 0.0, 9.999589, 9.998945 
2.3350742e+3, 2.4469829e+2, -723928.6, -667508.75, -22036.521, 0.057584077, -0.17923833, -659921.9, -117984.97, 0.0, 9.9989, 9.999647 
2.3350388e+3, 2.5469753e+2, -716868.3, -626719.4, -24535.523, 0.02738788, -0.21279074, -620474.3, -176529.78, 0.0, 9.998333, 9.999527 
2.3350039e+3, 2.6469734e+2, -639966.6, -419483.13, -28370.94, 0.015317074, -0.22534482, -415891.0, -69944.695, 0.0, 9.997675, 10.000594 
2.334969e+3, 2.74698e+2, -663022.56, -391820.63, -23369.727, 0.026487596, -0.21568806, -389821.56, -141881.55, 0.0, 9.996895, 10.000487 
2.3349339e+3, 2.8469896e+2, -638173.94, -254982.88, -23940.307, -0.006022792, -0.18761621, -253492.97, -103563.04, 0.0, 9.996074, 10.00115 
2.334898e+3, 2.9470053e+2, -663552.5, -227866.36, -23200.166, -0.0945639, -0.14201882, -226634.44, -174720.27, 0.0, 9.995276, 10.001047 
2.3348638e+3, 3.047004e+2, -634861.7, -75538.68, -38131.707, -0.0036858774, -0.2980785, -72951.03, -72951.03, 0.0, 9.994649, 10.002061 
2.3348284e+3, 3.147031e+2, -708887.75, -63941.137, -36682.09, -0.022048203, -0.22509295, -61861.508, -61861.508, 0.0, 9.9939375, 10.002483 
2.3454927e+3, 1.2475615e+2, -1077240.3, -1691850.3, 37638.195, 0.10172716, -0.25543442, -1074944.0, 642419.75, 0.11000897, 10.006302, 9.997144 
2.3454583e+3, 1.3475299e+2, -1060797.6, -1662538.5, 30134.104, 0.09421583, -0.27497104, -1059292.4, 560102.44, 0.07883263, 10.005602, 9.996988 
2.3454234e+3, 1.4475021e+2, -1002212.9, -1541480.9, 16386.313, 0.07918806, -0.2629046, -1001715.4, 519707.1, 0.047379375, 10.004955, 9.997456 
2.3453882e+3, 1.5474781e+2, -982116.8, -1502522.0, 15935.735, 0.07133309, -0.24136356, -981629.25, 441818.06, 0.022075526, 10.004371, 9.997333 
2.3453535e+3, 1.647454e+2, -920165.0, -1357469.6, 33921.477, 0.07026877, -0.23480442, -917549.4, 407922.38, 0.007040694, 10.003782, 9.997938 
2.3453188e+3, 1.7474316e+2, -913662.2, -1318193.0, 31041.688, 0.073009685, -0.24574322, -911294.1, 316200.16, 0.0011648126, 10.003195, 9.997819 
2.3452842e+3, 1.8474118e+2, -875278.8, -1215841.1, 24658.152, 0.07195829, -0.22968891, -873502.7, 256011.8, 0.000053067106, 10.002639, 9.9981165 
2.3452495e+3, 1.9473967e+2, -861982.4, -1172607.6, 27076.084, 0.0677373, -0.18479481, -859639.94, 171890.83, 0.000000017443154, 10.002117, 9.9979925 
2.3452143e+3, 2.047379e+2, -814478.44, -1033971.06, 23923.957, 0.063409, -0.17907971, -811901.06, 121647.8, 0.0, 10.00149, 9.998573 
2.3451795e+3, 2.1473601e+2, -832776.9, -1004969.7, 22588.469, 0.058236554, -0.2187208, -829863.0, 5704.591, 0.0, 10.000747, 9.998458 
2.3451443e+3, 2.247347e+2, -780368.06, -857718.6, -1362.7527, 0.056604587, -0.21744548, -780344.06, -42763.402, 0.0, 10.000126, 9.999095 
2.3451087e+3, 2.3473418e+2, -760943.25, -810363.4, 489.92813, 0.06065355, -0.1713027, -760938.4, -121352.33, 0.0, 9.999641, 9.9989805 
2.3450729e+3, 2.4473342e+2, -703740.94, -656263.44, 3547.4763, 0.056487817, -0.16671151, -655999.8, -114406.3, 0.0, 9.999035, 9.999658 
2.3450373e+3, 2.5473258e+2, -722379.56, -627685.75, 8785.096, 0.040173337, -0.20934364, -626877.6, -183275.75, 0.0, 9.998291, 9.999539 
2.3450014e+3, 2.6473248e+2, -653725.2, -425174.88, 3288.8257, 0.024548903, -0.21623173, -425127.56, -79524.375, 0.0, 9.99758, 10.0006 
2.3449658e+3, 2.747333e+2, -661139.4, -389357.03, 809.4985, 0.016424654, -0.18648958, -389354.6, -141759.23, 0.0, 9.996904, 10.000498 
2.3449299e+3, 2.8473425e+2, -610722.0, -228978.63, -1157.5557, -0.0070889974, -0.16973816, -228975.13, -79389.14, 0.0, 9.99621, 10.001261 
2.3448935e+3, 2.947355e+2, -627688.94, -201379.44, 8228.576, -0.06475149, -0.16264173, -201220.67, -149647.78, 0.0, 9.995485, 10.001127 
2.3448582e+3, 3.047363e+2, -624377.9, -73418.91, -1878.05, -0.032471564, -0.23083237, -73412.5, -73412.5, 0.0, 9.994737, 10.00203 
2.3448224e+3, 3.1473842e+2, -693806.2, -31703.67, -8596.185, -0.009693594, -0.21068145, -31592.082, -31592.082, 0.0, 9.9939375, 10.002702 
2.3554988e+3, 1.2479143e+2, -1075342.8, -1692861.8, 12893.398, 0.0934731, -0.2557389, -1075073.8, 641945.06, 0.10899387, 10.006316, 9.997129 
2.3554637e+3, 1.3478856e+2, -1062258.8, -1665087.3, 5650.078, 0.08472093, -0.24462587, -1062205.9, 556841.06, 0.07803862, 10.005591, 9.996977 
2.3554282e+3, 1.4478575e+2, -999190.3, -1533804.0, -4720.7334, 0.07645723, -0.23946035, -999148.6, 521926.38, 0.04683951, 10.004944, 9.997516 
2.3553926e+3, 1.5478301e+2, -977431.75, -1493766.5, -5533.085, 0.08252549, -0.25806767, -977372.44, 445730.53, 0.021777477, 10.004372, 9.997394 
2.3553574e+3, 1.6478066e+2, -921183.94, -1361460.9, 12184.691, 0.08605551, -0.24788533, -920846.94, 404280.06, 0.00692168, 10.003787, 9.9979105 
2.3553222e+3, 1.7477886e+2, -914920.9, -1322053.1, 9311.885, 0.08417551, -0.20910098, -914708.0, 312437.38, 0.0011398258, 10.003197, 9.997793 
2.355287e+3, 1.8477687e+2, -867292.2, -1200273.6, 5433.763, 0.07517719, -0.19987762, -867203.5, 261962.17, 0.00005205263, 10.002641, 9.998224 
2.3552515e+3, 1.9477478e+2, -853952.8, -1156785.5, 7799.828, 0.058891058, -0.22317572, -853752.06, 177434.58, 0.000000012769815, 10.002117, 9.998102 
2.3552158e+3, 2.0477305e+2, -814980.0, -1036043.2, -3420.0217, 0.056938995, -0.21855675, -814927.06, 118277.305, 0.0, 10.001491, 9.99856 
2.3551802e+3, 2.1477188e+2, -833035.3, -1007160.1, -4879.538, 0.06995517, -0.18485089, -832898.7, 2318.463, 0.0, 10.000751, 9.998443 
2.3551443e+3, 2.2477071e+2, -775674.5, -849998.06, -19382.162, 0.0663274, -0.17074579, -770923.7, -33694.477, 0.0, 10.000132, 9.999146 
2.3551081e+3, 2.3476969e+2, -756289.3, -802495.1, -17637.363, 0.04682079, -0.18051726, -750326.44, -111087.33, 0.0, 9.999646, 9.999034 
2.3550718e+3, 2.4476884e+2, -696063.06, -641923.5, -24147.572, 0.04743697, -0.19234324, -632718.25, -91471.02, 0.0, 9.999039, 9.999756 
2.3550357e+3, 2.5476843e+2, -714044.2, -612234.56, -19472.156, 0.06473492, -0.20322257, -608637.44, -165385.86, 0.0, 9.998296, 9.999644 
2.3549993e+3, 2.6476866e+2, -659319.8, -438274.84, -22842.86, 0.04004994, -0.17816804, -435938.94, -90689.02, 0.0, 9.997582, 10.00051 
2.3549624e+3, 2.747696e+2, -667084.44, -402597.56, -25128.848, -0.018030183, -0.12902866, -400231.25, -152989.6, 0.0, 9.996905, 10.000408 
2.3549257e+3, 2.8476998e+2, -596466.06, -200217.1, -28915.902, -0.023534996, -0.16997723, -198118.11, -48880.617, 0.0, 9.996211, 10.00146 
2.3548897e+3, 2.947704e+2, -615085.6, -177738.36, -19185.98, -0.004867492, -0.26891965, -176898.3, -125665.78, 0.0, 9.995493, 10.001287 
2.3548529e+3, 3.0477393e+2, -625941.8, -78626.53, -32765.73, -0.04177265, -0.06770178, -76671.95, -76671.95, 0.0, 9.994741, 10.001994 
2.3548159e+3, 3.1477457e+2, -711066.0, -67323.73, -15771.937, -0.047991835, -0.19896919, -66937.54, -66937.54, 0.0, 9.993935, 10.00246 
2.3655054e+3, 1.248275e+2, -1046541.94, -1680109.9, 29069.447, 0.09392593, -0.24653104, -1045210.94, 671454.8, 0.10772456, 10.006537, 9.997119 
2.3654692e+3, 1.3482448e+2, -1083597.8, -1677398.6, 22238.395, 0.10103643, -0.24945103, -1082766.1, 535929.3, 0.077052176, 10.005434, 9.996967 
2.3654331e+3, 1.4482169e+2, -1030979.5, -1540885.8, 28795.914, 0.094254166, -0.245771, -1029358.5, 491364.9, 0.046171412, 10.004676, 9.997595 
2.3653969e+3, 1.5481915e+2, -981351.56, -1486137.3, 29946.938, 0.087756336, -0.25027326, -979581.1, 443168.25, 0.021407615, 10.004305, 9.997477 
2.3653612e+3, 1.648169e+2, -915678.2, -1355078.6, 45276.13, 0.08616982, -0.23509991, -911061.44, 413711.1, 0.0067716585, 10.003812, 9.997941 
2.3653254e+3, 1.748151e+2, -915109.4, -1318435.3, 45867.805, 0.08658846, -0.19976674, -909958.9, 316832.06, 0.0011065105, 10.003182, 9.997823 
2.3652893e+3, 1.8481311e+2, -873024.94, -1196689.0, 43625.547, 0.07721812, -0.1937124, -867247.94, 261563.27, 0.000050042654, 10.002577, 9.998278 
2.3652534e+3, 1.9481103e+2, -867488.25, -1156507.5, 41477.855, 0.058096465, -0.2208013, -861653.5, 169178.6, 0.000000007665355, 10.001999, 9.998159 
2.3652174e+3, 2.0480938e+2, -824673.9, -1033957.94, 25504.1, 0.05407438, -0.21435083, -821610.7, 111238.484, 0.0, 10.001398, 9.998617 
2.3651809e+3, 2.1480834e+2, -825876.06, -996706.4, 28875.734, 0.06588455, -0.17150764, -821127.1, 13733.493, 0.0, 10.000772, 9.998502 
2.3651445e+3, 2.2480723e+2, -762690.9, -835122.8, 23628.15, 0.062032446, -0.15725124, -755664.7, -18792.67, 0.0, 10.000187, 9.999221 
2.3651077e+3, 2.3480617e+2, -751450.5, -791411.4, 27015.047, 0.043438934, -0.17814252, -737829.9, -98947.625, 0.0, 9.999645, 9.999109 
2.3650707e+3, 2.4480537e+2, -690818.6, -633943.5, 12305.663, 0.045281902, -0.19310018, -631395.2, -90505.04, 0.0, 9.999055, 9.999801 
2.3650339e+3, 2.5480506e+2, -694281.25, -596864.5, 12553.073, 0.06379213, -0.1957484, -595272.9, -152379.4, 0.0, 9.99841, 9.999694 
2.3649968e+3, 2.648054e+2, -637517.44, -423680.97, 10704.491, 0.038018305, -0.16061707, -423146.47, -78255.9, 0.0, 9.997718, 10.000543 
2.3649593e+3, 2.7480647e+2, -654229.44, -392580.3, 17956.818, -0.021297434, -0.10500625, -391353.72, -144472.33, 0.0, 9.996981, 10.000439 
2.3649222e+3, 2.8480664e+2, -596402.5, -203658.17, 7140.67, -0.021300334, -0.16595158, -203528.39, -54648.91, 0.0, 9.99623, 10.001426 
2.364885e+3, 2.9480666e+2, -627800.44, -187975.55, -2315.0068, 0.004395938, -0.2982139, -187963.36, -137084.7, 0.0, 9.995427, 10.001247 
2.3648474e+3, 3.048112e+2, -628303.9, -77974.66, -17062.766, -0.03974856, 0.0073934966, -77446.14, -77446.14, 0.0, 9.99472, 10.002008 
2.3648098e+3, 3.1481102e+2, -676303.7, -68222.984, 28113.926, -0.055447266, -0.21087606, -66925.94, -66925.94, 0.0, 9.994253, 10.002298 
2.3755117e+3, 1.24864325e+2, -1049205.0, -1685363.4, -7882.8013, 0.10170069, -0.23335865, -1049107.4, 667197.8, 0.106216066, 10.006523, 9.997086 
2.3754752e+3, 1.3486081e+2, -1083096.9, -1680712.1, -15893.27, 0.13730267, -0.2829661, -1082674.5, 535665.1, 0.07588486, 10.005444, 9.996941 
2.3754379e+3, 1.4485808e+2, -1021906.25, -1527308.8, 15362.873, 0.12766325, -0.27518153, -1021439.7, 498927.47, 0.045382712, 10.004695, 9.997681 
2.3754011e+3, 1.5485623e+2, -974085.25, -1472904.5, 16548.813, 0.08768179, -0.22083527, -973536.8, 448850.1, 0.020970136, 10.004309, 9.997567 
2.3753648e+3, 1.6485411e+2, -911010.94, -1345652.0, 22055.531, 0.0729886, -0.20052272, -909894.56, 414514.13, 0.0065923706, 10.00381, 9.998008 
2.3753284e+3, 1.7485188e+2, -910125.5, -1308982.8, 22420.611, 0.08111328, -0.2150917, -908869.2, 317561.78, 0.0010651621, 10.003183, 9.997889 
2.375292e+3, 1.8484993e+2, -873224.56, -1198295.1, 22072.621, 0.07812794, -0.20818661, -871732.7, 256718.36, 0.000047060163, 10.002579, 9.998267 
2.3752554e+3, 1.9484839e+2, -867692.94, -1157871.5, 20079.732, 0.06442469, -0.18111525, -866310.0, 164157.53, 0.000000003596552, 10.002, 9.998151 
2.3752186e+3, 2.0484681e+2, -816162.56, -1017498.5, 2233.0073, 0.05402956, -0.17059961, -816137.8, 116346.0, 0.0, 10.001401, 9.998731 
2.3751815e+3, 2.148454e+2, -816818.94, -979712.2, 5903.989, 0.046561446, -0.1774242, -816605.25, 17892.908, 0.0, 10.000777, 9.998618 
2.3751442e+3, 2.2484428e+2, -756105.44, -823323.7, 3411.4536, 0.044621255, -0.17433733, -755932.75, -19423.418, 0.0, 10.000192, 9.999301 
2.3751071e+3, 2.348436e+2, -744981.9, -779551.8, 6704.546, 0.050261296, -0.1645255, -743727.1, -105211.195, 0.0, 9.999649, 9.99919 
2.3750699e+3, 2.4484293e+2, -691258.3, -636458.0, -12158.249, 0.049399026, -0.17005327, -633881.6, -93358.79, 0.0, 9.999059, 9.9997835 
2.3750322e+3, 2.5484246e+2, -694929.44, -599814.8, -12102.105, 0.03692496, -0.18689656, -598299.1, -155771.11, 0.0, 9.998414, 9.999673 
2.3749942e+3, 2.6484278e+2, -626805.4, -402681.63, -17579.014, 0.018722363, -0.16368543, -401311.22, -56785.723, 0.0, 9.997721, 10.000688 
2.3749563e+3, 2.7484384e+2, -643868.4, -372788.53, -9647.206, 0.0068352926, -0.116449825, -372445.66, -125930.55, 0.0, 9.996985, 10.000574 
2.3749185e+3, 2.848442e+2, -616330.2, -246378.44, -23798.918, -0.0011536342, -0.15755558, -244853.75, -96341.38, 0.0, 9.996233, 10.001132 
2.3748802e+3, 2.9484436e+2, -645926.25, -226183.78, -35083.406, -0.03929398, -0.2450403, -223271.6, -172760.23, 0.0, 9.995426, 10.000987 
2.3748423e+3, 3.0484807e+2, -623719.5, -68932.125, -38187.117, -0.02385473, -0.01266805, -66315.96, -66315.96, 0.0, 9.9947195, 10.002072 
2.3748042e+3, 3.148482e+2, -673637.7, -65174.16, 38865.766, -0.043784622, -0.20351179, -62701.65, -62701.65, 0.0, 9.994263, 10.0023155 
2.3855183e+3, 1.2490192e+2, -1072506.5, -1698392.5, 20019.39, 0.12900405, -0.23214504, -1071866.8, 644070.9, 0.10448216, 10.006342, 9.997072 
2.3854804e+3, 1.348985e+2, -1052157.9, -1665503.9, 15338.549, 0.13539505, -0.27021226, -1051774.5, 566196.75, 0.07454343, 10.005672, 9.996934 
2.3854426e+3, 1.4489578e+2, -980375.94, -1508232.4, 56061.13, 0.12146613, -0.25973353, -974487.6, 545511.2, 0.04447644, 10.004998, 9.997666 
2.3854055e+3, 1.548939e+2, -974738.3, -1474417.0, 50922.316, 0.102941, -0.20658575, -969601.6, 452417.47, 0.020467186, 10.00431, 9.997555 
2.3853683e+3, 1.6489181e+2, -923211.9, -1341039.1, 51956.813, 0.0877732, -0.1870207, -916847.94, 407192.53, 0.0063857455, 10.003682, 9.998099 
2.3853312e+3, 1.7488967e+2, -912123.7, -1298778.9, 53847.605, 0.07338335, -0.20296575, -904764.6, 321297.0, 0.0010168218, 10.003125, 9.997985 
2.3852941e+3, 1.8488775e+2, -880334.0, -1202594.8, 53769.457, 0.06643617, -0.1949581, -871599.25, 256482.1, 0.000043354004, 10.002538, 9.998256 
2.3852573e+3, 1.9488625e+2, -881188.75, -1165236.1, 51156.637, 0.06761975, -0.16316524, -872256.4, 157841.7, 0.0000000010889621, 10.001914, 9.99814 
2.38522e+3, 2.0488472e+2, -814676.9, -1000244.94, 35019.24, 0.060088873, -0.15435703, -808288.25, 123825.58, 0.0, 10.001343, 9.998876 
2.3851821e+3, 2.1488334e+2, -799483.25, -954427.75, 40059.19, 0.043103825, -0.17060636, -789739.2, 44387.867, 0.0, 10.000827, 9.998766 
2.3851445e+3, 2.2488229e+2, -746109.25, -812694.0, 36031.363, 0.0381719, -0.16996264, -730344.1, 5793.2515, 0.0, 10.000239, 9.99935 
2.3851067e+3, 2.3488173e+2, -752492.3, -777233.2, 36829.484, 0.04778797, -0.15353751, -726011.25, -87868.02, 0.0, 9.999575, 9.99924 
2.3850688e+3, 2.4488115e+2, -697308.9, -628546.4, 21068.63, 0.043168012, -0.15560734, -622604.44, -82455.27, 0.0, 9.998975, 9.999877 
2.3850302e+3, 2.5488076e+2, -684456.5, -583741.56, 29259.818, 0.019470643, -0.1751904, -575858.06, -133704.47, 0.0, 9.998443, 9.999768 
2.3849916e+3, 2.64881e+2, -614777.06, -392715.2, 17119.123, 0.006317809, -0.1606472, -391403.2, -47251.91, 0.0, 9.997788, 10.000721 
2.3849533e+3, 2.7488205e+2, -640629.3, -367723.25, 16206.719, 0.014621953, -0.121039055, -366764.2, -120622.72, 0.0, 9.996996, 10.000603 
2.3849146e+3, 2.8488258e+2, -601306.56, -242400.83, 11635.564, -0.0014867764, -0.14173642, -242024.02, -93886.98, 0.0, 9.996354, 10.0011 
2.3848753e+3, 2.94883e+2, -587046.8, -202916.63, 18485.512, -0.07081529, -0.19879045, -202029.1, -151895.25, 0.0, 9.995857, 10.0009365 
2.3848374e+3, 3.0488577e+2, -612607.5, -125787.61, -6537.163, 0.0071146237, -0.03048002, -125699.836, -125699.836, 0.0, 9.995067, 10.0015135 
2.3847981e+3, 3.14886e+2, -671180.4, -5264.542, 33291.94, -0.05082087, -0.15427336, -3604.2766, -3604.2766, 0.0, 9.994029, 10.002839 
2.3955251e+3, 1.24940306e+2, -1069952.6, -1697278.3, -3074.8708, 0.16818252, -0.23669176, -1069937.5, 645625.44, 0.10253792, 10.006346, 9.997079 
2.3954858e+3, 1.3493744e+2, -1048425.56, -1663363.8, -7633.975, 0.10199169, -0.21988885, -1048330.8, 569260.6, 0.07303582, 10.005688, 9.9969425 
2.3954472e+3, 1.4493468e+2, -985395.5, -1523976.6, 31655.146, 0.08311362, -0.20908132, -983541.3, 536078.2, 0.043457743, 10.0050125, 9.997551 
2.3954101e+3, 1.5493217e+2, -981776.44, -1491289.1, 25810.426, 0.13072112, -0.20603286, -980472.25, 441173.47, 0.019903798, 10.0043125, 9.997439 
2.3953725e+3, 1.6493005e+2, -915303.9, -1325845.0, 31584.02, 0.12562196, -0.19080889, -912888.25, 410779.28, 0.006155822, 10.003684, 9.998204 
2.3953345e+3, 1.7492841e+2, -903615.2, -1282806.9, 33341.8, 0.06323498, -0.16587934, -900705.8, 324977.56, 0.00096352503, 10.003129, 9.998095 
2.3952967e+3, 1.8492654e+2, -881260.4, -1206134.8, 30525.996, 0.04350279, -0.15722665, -878417.0, 249285.61, 0.000039368104, 10.002542, 9.998231 
2.395259e+3, 1.9492461e+2, -882162.8, -1168752.8, 28149.318, 0.06786598, -0.16529198, -879424.06, 150299.58, 0.0000000001152025, 10.001917, 9.9981165 
2.3952211e+3, 2.0492308e+2, -802935.75, -977287.94, 15932.473, 0.0717988, -0.16297355, -801491.8, 130247.414, 0.0, 10.001346, 9.999033 
2.3951831e+3, 2.1492215e+2, -787719.7, -931132.9, 21055.168, 0.054369494, -0.15182008, -784692.4, 49055.336, 0.0, 10.000829, 9.998927 
2.3951446e+3, 2.2492124e+2, -745044.44, -811783.4, 11147.264, 0.04172157, -0.14571132, -743231.75, -7475.1714, 0.0, 10.000241, 9.999356 
2.3951063e+3, 2.3492052e+2, -751236.4, -776247.94, 11737.747, 0.03572155, -0.14514518, -746590.8, -108826.484, 0.0, 9.999578, 9.999247 
2.3950674e+3, 2.4492002e+2, -683229.94, -600964.2, 820.73975, 0.02678209, -0.14911205, -600956.0, -61186.58, 0.0, 9.998979, 10.000066 
2.3950286e+3, 2.549199e+2, -670136.25, -555639.56, 9149.477, 0.011278185, -0.16065851, -554913.0, -113142.47, 0.0, 9.998446, 9.999961 
2.3949894e+3, 2.6492018e+2, -620747.3, -406469.2, -13325.914, 0.00047376513, -0.15153547, -405643.63, -61875.332, 0.0, 9.997791, 10.0006275 
2.3949502e+3, 2.7492103e+2, -646464.2, -381051.47, -14161.335, 0.0017806119, -0.11865247, -380298.03, -134537.16, 0.0, 9.996998, 10.000512 
2.3949106e+3, 2.8492182e+2, -585275.25, -210441.89, -7570.6797, -0.02253447, -0.118309595, -210289.05, -62535.215, 0.0, 9.996356, 10.00132 
2.3948708e+3, 2.9492265e+2, -575558.25, -181795.72, -1468.928, -0.091231324, -0.16093613, -181790.23, -132043.7, 0.0, 9.995866, 10.00108 
2.3948328e+3, 3.0492425e+2, -698209.94, -305512.5, -46965.195, 0.05265916, -0.047685605, -299973.75, -299973.75, 0.0, 9.995072, 10.000278 
2.394792e+3, 3.1492415e+2, -593552.3, 155998.55, -28451.627, -0.06732158, -0.0903006, 157076.97, 157076.97, 0.0, 9.994023, 10.003952 
2.4055316e+3, 1.2497979e+2, -1059153.1, -1701362.6, 31575.957, 0.17213625, -0.21479987, -1057604.3, 657573.1, 0.1004009, 10.00646, 9.996991 
2.4054915e+3, 1.3497683e+2, -1026677.75, -1661306.4, 22287.275, 0.10689967, -0.19694951, -1025896.06, 591311.2, 0.0713767, 10.00588, 9.996863 
2.4054524e+3, 1.4497402e+2, -961615.2, -1511639.6, 57514.945, 0.08790838, -0.1875984, -955665.4, 563570.56, 0.042339724, 10.005178, 9.997556 
2.4054146e+3, 1.5497147e+2, -976402.0, -1487891.8, 59981.84, 0.13560905, -0.18990093, -969462.2, 451800.06, 0.019290883, 10.004348, 9.997444 
2.4053763e+3, 1.6496928e+2, -916099.5, -1325316.8, 75336.62, 0.13133107, -0.17835113, -902670.75, 420613.3, 0.005909264, 10.003676, 9.99821 
2.4053374e+3, 1.7496765e+2, -897787.6, -1278931.0, 69793.36, 0.06974701, -0.15411001, -885409.4, 339890.6, 0.0009078832, 10.003167, 9.998101 
2.4052991e+3, 1.849658e+2, -872122.44, -1196815.6, 61133.164, 0.045646995, -0.1458518, -860993.7, 266325.28, 0.00003557309, 10.002586, 9.998272 
2.405261e+3, 1.949639e+2, -877092.44, -1160872.1, 62823.74, 0.060919527, -0.15443818, -863806.44, 165533.27, 0.000000000004061441, 10.001932, 9.998161 
2.4052224e+3, 2.0496242e+2, -803970.0, -970599.3, 52320.805, 0.06562956, -0.15228985, -788903.8, 142451.02, 0.0, 10.001311, 9.999094 
2.4051839e+3, 2.1496154e+2, -798898.56, -929385.25, 50029.223, 0.058805536, -0.14066437, -781925.0, 51437.758, 0.0, 10.000725, 9.998987 
2.4051447e+3, 2.2496071e+2, -748411.8, -797626.3, 38757.977, 0.044588435, -0.13651493, -727109.4, 8261.3125, 0.0, 10.0001545, 9.999494 
2.4051055e+3, 2.3496006e+2, -738826.3, -754429.8, 48723.55, 0.024726193, -0.14024334, -697283.8, -59906.61, 0.0, 9.999599, 9.999385 
2.4050662e+3, 2.4495967e+2, -681561.8, -593817.7, 36404.313, 0.01392325, -0.1429728, -580680.7, -41299.53, 0.0, 9.998966, 10.000119 
2.4050269e+3, 2.5495964e+2, -695537.5, -561628.25, 34215.645, 0.009341513, -0.14799213, -553392.25, -112010.97, 0.0, 9.998248, 10.000013 
2.404987e+3, 2.649599e+2, -643138.9, -418960.6, 8471.883, 0.0014375073, -0.14338647, -418640.9, -75261.414, 0.0, 9.997649, 10.000608 
2.404947e+3, 2.749606e+2, -621557.8, -369791.53, 13470.526, -0.003603924, -0.12398598, -369072.84, -123699.08, 0.0, 9.997176, 10.000501 
2.404907e+3, 2.8496152e+2, -549302.6, -189770.67, 16069.3125, -0.030854087, -0.11261928, -189053.88, -41688.2, 0.0, 9.9965925, 10.001346 
2.4048667e+3, 2.949626e+2, -574266.1, -179515.16, 5834.54, -0.09452293, -0.12654848, -179428.94, -130073.6, 0.0, 9.99587, 10.001092 
2.4048279e+3, 3.0496368e+2, -708987.25, -345458.28, -15820.704, 0.06748354, -0.055654187, -344771.06, -344771.06, 0.0, 9.995152, 9.999963 
2.4047859e+3, 3.1496313e+2, -522940.38, 213576.02, 44516.656, -0.079205096, -0.11088662, 216256.95, 216256.95, 0.0, 9.994412, 10.004157 
2.4155375e+3, 1.2502024e+2, -1067284.9, -1725532.6, 11746.809, 0.14754659, -0.17692561, -1067075.3, 647707.0, 0.09809019, 10.006471, 9.996811 
2.4154976e+3, 1.3501675e+2, -1036898.4, -1686438.8, 2803.6619, 0.14240375, -0.195306, -1036886.3, 579931.8, 0.069589734, 10.005877, 9.996694 
2.4154578e+3, 1.4501388e+2, -953902.4, -1498000.5, 28222.861, 0.12688458, -0.18781033, -952442.3, 566404.94, 0.04114516, 10.005178, 9.997654 
2.4154188e+3, 1.5501171e+2, -966842.06, -1472579.6, 29586.992, 0.12043947, -0.16040355, -965117.0, 455752.0, 0.018644923, 10.004363, 9.997543 
2.4153796e+3, 1.6500951e+2, -920420.75, -1338631.6, 56374.152, 0.10982469, -0.15321551, -912954.9, 409936.03, 0.0056545543, 10.003691, 9.998114 
2.4153408e+3, 1.750074e+2, -903911.06, -1292849.4, 50854.19, 0.09083267, -0.16558163, -897371.75, 327539.72, 0.0008526334, 10.003169, 9.998007 
2.4153018e+3, 1.8500556e+2, -865929.9, -1184435.6, 36722.164, 0.06946421, -0.15770756, -861750.8, 265179.66, 0.000032342843, 10.002585, 9.998359 
2.4152628e+3, 1.9500409e+2, -870075.06, -1147673.5, 38455.688, 0.046990354, -0.13121821, -864846.3, 164100.28, 0.000000000003904099, 10.001935, 9.998252 
2.4152234e+3, 2.0500268e+2, -805984.5, -976621.44, 30339.773, 0.043038007, -0.12396344, -800750.5, 130210.48, 0.0, 10.001316, 9.999052 
2.4151844e+3, 2.1500152e+2, -801029.8, -935526.3, 28387.607, 0.056609172, -0.13667217, -795283.6, 37688.645, 0.0, 10.000729, 9.998944 
2.4151447e+3, 2.2500071e+2, -730275.2, -761537.0, 18087.68, 0.046571422, -0.14115353, -722000.25, 12979.57, 0.0, 10.000157, 9.999742 
2.415105e+3, 2.3500039e+2, -720628.9, -718144.7, 27765.33, 0.014585454, -0.13882688, -691593.7, -54611.47, 0.0, 9.999602, 9.999634 
2.4150649e+3, 2.4500011e+2, -687517.4, -607788.8, 8982.765, 0.0044871042, -0.13751106, -606789.25, -67804.44, 0.0, 9.99897, 10.000023 
2.4150251e+3, 2.5500003e+2, -701722.4, -576136.56, 6617.8975, 0.013321229, -0.13751145, -575788.8, -134802.63, 0.0, 9.998252, 9.999913 
2.4149846e+3, 2.6500022e+2, -639415.94, -412720.1, -9929.252, 0.008967221, -0.13622779, -412286.03, -69300.875, 0.0, 9.997652, 10.000651 
2.414944e+3, 2.7500075e+2, -617202.5, -362560.72, -4411.633, -0.0024011517, -0.1371325, -362484.3, -117503.76, 0.0, 9.997181, 10.000549 
2.4149035e+3, 2.850016e+2, -561717.56, -216992.58, -12132.501, -0.026529968, -0.12548006, -216566.1, -69592.98, 0.0, 9.996595, 10.001159 
2.4148625e+3, 2.9500297e+2, -582885.7, -198189.36, -23495.963, -0.07888149, -0.09639851, -196759.63, -147798.7, 0.0, 9.99587, 10.000965 
2.4148227e+3, 3.0500403e+2, -663116.4, -251490.25, -41361.93, 0.049770676, -0.052151885, -247375.17, -247375.17, 0.0, 9.995153, 10.000609 
2.4147803e+3, 3.150042e+2, -584733.56, 80988.51, -1501.3159, -0.07702787, -0.092272475, 80991.9, 80991.9, 0.0, 9.994426, 10.0032425 
2.425544e+3, 1.2506114e+2, -1044155.0, -1717494.3, 37804.176, 0.14085808, -0.1698137, -1042039.2, 672343.3, 0.095623724, 10.006647, 9.996781 
2.4255034e+3, 1.3505769e+2, -1044295.4, -1693444.5, 39501.773, 0.14769691, -0.18149646, -1041900.5, 574517.9, 0.06770183, 10.005826, 9.996669 
2.4254629e+3, 1.450548e+2, -959634.3, -1504612.5, 66825.8, 0.1323702, -0.17106164, -951559.7, 566887.94, 0.03989974, 10.005152, 9.997618 
2.4254228e+3, 1.5505262e+2, -932360.5, -1459293.9, 59299.008, 0.11375538, -0.14312081, -925769.7, 494699.88, 0.017982868, 10.004621, 9.997509 
2.4253833e+3, 1.6505034e+2, -886560.06, -1328679.5, 83064.06, 0.10201102, -0.13701524, -871469.3, 451022.72, 0.0053996206, 10.003955, 9.998054 
2.425344e+3, 1.7504813e+2, -909417.7, -1301497.1, 79972.96, 0.09358998, -0.15286426, -893732.94, 330780.7, 0.0008000386, 10.00316, 9.99795 
2.4253042e+3, 1.8504624e+2, -874776.56, -1182896.9, 68261.734, 0.07556702, -0.14896464, -860330.94, 266201.97, 0.000029880799, 10.002502, 9.998407 
2.4252644e+3, 1.9504476e+2, -860292.94, -1137096.0, 66497.19, 0.048596032, -0.12671643, -845146.94, 183401.78, 0.0000000000084542815, 10.00198, 9.9983015 
2.4252246e+3, 2.0504339e+2, -793112.94, -968279.44, 57520.023, 0.03963209, -0.11879088, -775913.6, 154649.1, 0.0, 10.001399, 9.999067 
2.425185e+3, 2.150423e+2, -795388.44, -930313.75, 58917.523, 0.048163418, -0.1257548, -773282.75, 59290.94, 0.0, 10.00076, 9.998963 
2.4251448e+3, 2.2504154e+2, -727596.1, -748364.94, 46018.26, 0.039251626, -0.1305162, -690805.1, 43775.445, 0.0, 10.000129, 9.999844 
2.4251045e+3, 2.3504125e+2, -727996.94, -709691.8, 44978.484, 0.014491883, -0.13466078, -672944.1, -36361.992, 0.0, 9.999504, 9.999738 
2.425064e+3, 2.45041e+2, -692898.44, -608765.25, 23474.875, 0.0044692443, -0.13497578, -602658.5, -64074.24, 0.0, 9.99893, 10.000033 
2.4250232e+3, 2.5504097e+2, -678736.44, -563383.0, 28646.352, 0.0058225268, -0.13090405, -556660.8, -116075.38, 0.0, 9.998407, 9.999925 
2.4249822e+3, 2.6504114e+2, -618684.3, -400779.13, 15587.569, 0.00095044903, -0.13157561, -399669.72, -57085.137, 0.0, 9.99779, 10.000665 
2.4249412e+3, 2.750416e+2, -634453.25, -369363.38, 17961.457, -0.0018689109, -0.14260845, -368151.9, -123571.19, 0.0, 9.997059, 10.00056 
2.4249001e+3, 2.8504252e+2, -592004.9, -239795.53, 12484.455, -0.01688392, -0.12076437, -239353.56, -92780.945, 0.0, 9.996427, 10.001081 
2.4248584e+3, 2.9504415e+2, -571896.56, -192783.9, 9997.124, -0.06576848, -0.05485947, -192520.47, -143962.81, 0.0, 9.995951, 10.000961 
2.4248178e+3, 3.0504465e+2, -583422.6, -157047.75, -11881.76, 0.022112025, -0.09635688, -156716.89, -156716.89, 0.0, 9.995462, 10.001107 
2.4247752e+3, 3.1504598e+2, -577495.2, 3769.9546, 16545.742, -0.056853842, -0.06077578, 4240.549, 4240.549, 0.0, 9.994825, 10.002518 
2.4355505e+3, 1.2510256e+2, -1036885.9, -1705013.9, 9368.377, 0.14731973, -0.18411407, -1036754.56, 677222.7, 0.0930196, 10.006642, 9.996875 
2.435509e+3, 1.3509955e+2, -1036024.44, -1680465.8, 10312.605, 0.1267703, -0.16022561, -1035859.44, 580149.2, 0.06573589, 10.0058365, 9.996754 
2.4354678e+3, 1.4509669e+2, -968265.25, -1528268.9, 47226.395, 0.10954345, -0.14335771, -964310.5, 553727.44, 0.038623225, 10.005164, 9.997449 
2.4354275e+3, 1.5509413e+2, -942773.25, -1482888.0, 39518.84, 0.11396527, -0.13602194, -939897.06, 480166.84, 0.017316664, 10.004621, 9.997349 
2.4353872e+3, 1.6509178e+2, -888730.25, -1333975.3, 53379.332, 0.10521854, -0.1271735, -882420.2, 439667.06, 0.005149804, 10.003954, 9.998018 
2.435347e+3, 1.7508978e+2, -910644.7, -1306355.0, 50264.13, 0.07990261, -0.118086755, -904359.8, 319746.94, 0.0007514471, 10.003167, 9.997914 
2.4353066e+3, 1.8508779e+2, -873592.5, -1183012.5, 48740.637, 0.06611256, -0.12229783, -866096.4, 260030.47, 0.000028194901, 10.002511, 9.9984045 
2.4352667e+3, 1.9508593e+2, -859524.25, -1136955.8, 47086.656, 0.06418693, -0.13992175, -851750.4, 176395.72, 0.00000000002968512, 10.001983, 9.998302 
2.4352261e+3, 2.0508456e+2, -788661.0, -960299.7, 33789.805, 0.05334411, -0.13462147, -782248.5, 147911.44, 0.0, 10.001401, 9.999123 
2.4351856e+3, 2.1508385e+2, -790570.1, -922033.2, 35111.46, 0.033564452, -0.10813241, -781780.2, 50387.035, 0.0, 10.000765, 9.99902 
2.4351448e+3, 2.2508316e+2, -729849.6, -754999.25, 22587.883, 0.023329882, -0.10570452, -716572.2, 17601.22, 0.0, 10.0001335, 9.999798 
2.435104e+3, 2.3508264e+2, -730342.25, -716173.9, 21182.215, 0.023939067, -0.127811, -700922.6, -64745.383, 0.0, 9.999508, 9.999693 
2.4350627e+3, 2.4508236e+2, -685022.9, -593944.8, 3564.3042, 0.013110395, -0.13494854, -593805.56, -55625.906, 0.0, 9.998933, 10.000135 
2.4350213e+3, 2.550825e+2, -670610.7, -548139.44, 8881.974, -0.013603924, -0.12823519, -547498.7, -107319.29, 0.0, 9.998411, 10.000029 
2.4349797e+3, 2.6508266e+2, -620113.7, -405204.88, -12382.64, -0.022569533, -0.1294563, -404493.75, -62315.625, 0.0, 9.997793, 10.000634 
2.4349383e+3, 2.750831e+2, -636557.25, -375160.84, -11196.368, -0.0017090436, -0.14044504, -374682.13, -130507.5, 0.0, 9.997062, 10.000521 
2.4348965e+3, 2.850842e+2, -590522.5, -237727.25, -6447.648, -0.001840417, -0.09800013, -237609.45, -91444.945, 0.0, 9.996428, 10.001097 
2.4348545e+3, 2.9508618e+2, -564212.0, -178092.19, -6243.4937, -0.056846336, -0.0017719324, -177991.25, -129845.266, 0.0, 9.995953, 10.001062 
2.4348128e+3, 3.0508542e+2, -559255.6, -108786.26, -36632.066, -0.01708035, -0.1926873, -105826.79, -105826.79, 0.0, 9.995467, 10.001438 
2.4347703e+3, 3.1508797e+2, -614431.5, -75495.836, 15722.303, -0.023173375, -0.06264176, -75037.56, -75037.56, 0.0, 9.994835, 10.001969 
2.4455571e+3, 1.2514473e+2, -1045334.3, -1707821.8, 27260.992, 0.13667525, -0.18376546, -1044214.44, 669350.56, 0.090295136, 10.006554, 9.996895 
2.445515e+3, 1.3514186e+2, -1014879.4, -1667424.9, 24554.635, 0.12576555, -0.14787477, -1013956.7, 601638.1, 0.06370466, 10.005972, 9.996778 
2.445473e+3, 1.45139e+2, -952723.7, -1528821.4, 64418.227, 0.110890254, -0.12924781, -945608.44, 572015.7, 0.037323277, 10.005307, 9.997375 
2.445432e+3, 1.5513626e+2, -953773.3, -1496168.0, 62544.316, 0.11094359, -0.13009526, -946654.6, 472997.16, 0.016649714, 10.004579, 9.997276 
2.4453908e+3, 1.6513382e+2, -897379.3, -1342986.1, 76814.03, 0.102372184, -0.123590544, -884509.75, 437166.38, 0.004906285, 10.003917, 9.997973 
2.4453501e+3, 1.7513183e+2, -891399.8, -1301522.0, 72446.89, 0.08130123, -0.11063605, -878978.5, 344717.44, 0.0007068298, 10.003321, 9.997872 
2.445309e+3, 1.8512985e+2, -846068.94, -1164296.1, 74956.62, 0.06904359, -0.11146525, -829297.25, 296418.4, 0.000027088983, 10.00268, 9.99845 
2.4452685e+3, 1.9512805e+2, -854400.2, -1128548.4, 76099.62, 0.06672499, -0.12644175, -834692.7, 193041.31, 0.00000000008671795, 10.001997, 9.998352 
2.4452275e+3, 2.051267e+2, -790592.56, -960518.8, 62955.57, 0.056602143, -0.12228681, -769810.06, 159937.61, 0.0, 10.001389, 9.9991255 
2.4451862e+3, 2.1512595e+2, -777788.8, -914968.25, 60079.754, 0.0379904, -0.100569844, -755196.7, 76558.805, 0.0, 10.000852, 9.999024 
2.4451448e+3, 2.2512522e+2, -717460.0, -747776.94, 43972.81, 0.027367068, -0.10075226, -686106.25, 47655.61, 0.0, 10.000217, 9.999805 
2.4451035e+3, 2.351247e+2, -732603.5, -716015.44, 46206.258, 0.026889578, -0.123076774, -677364.75, -41599.24, 0.0, 9.999491, 9.999701 
2.4450618e+3, 2.4512443e+2, -695101.94, -596437.44, 32068.441, 0.016192244, -0.13079378, -586930.44, -49162.477, 0.0, 9.998857, 10.000154 
2.4450195e+3, 2.5512454e+2, -683915.8, -551445.2, 30797.25, -0.009882608, -0.12454558, -544635.44, -104867.57, 0.0, 9.998309, 10.000053 
2.4449776e+3, 2.6512483e+2, -620807.2, -398980.63, 5946.651, -0.021077516, -0.12208608, -398821.3, -57055.605, 0.0, 9.997764, 10.0006895 
2.4449353e+3, 2.7512535e+2, -608232.44, -354471.78, 12931.828, -0.0037902505, -0.12686636, -353814.47, -110053.86, 0.0, 9.997231, 10.000579 
2.4448931e+3, 2.851263e+2, -565493.06, -229553.95, 21040.678, -0.00481373, -0.09884991, -228241.25, -82489.58, 0.0, 9.99662, 10.001059 
2.4448504e+3, 2.9512796e+2, -574749.7, -188924.69, 17188.139, -0.060940888, -0.032162637, -188160.48, -140423.81, 0.0, 9.995908, 10.001008 
2.444808e+3, 3.0512783e+2, -559397.7, -105630.53, -28600.158, -0.00916741, -0.15596657, -103835.016, -103835.016, 0.0, 9.995456, 10.001464 
2.4447651e+3, 3.151305e+2, -547373.3, -50827.504, 22875.262, -0.017383773, -0.022332689, -49775.895, -49775.895, 0.0, 9.995331, 10.001898 
2.4555632e+3, 1.2518759e+2, -1045728.7, -1712914.3, 6811.614, 0.11160058, -0.17411503, -1045659.2, 667487.0, 0.08746521, 10.006553, 9.996858 
2.4555208e+3, 1.3518466e+2, -1015542.94, -1672046.1, 4269.011, 0.14049356, -0.14017563, -1015515.2, 599660.9, 0.061611835, 10.00597, 9.996747 
2.4554785e+3, 1.4518175e+2, -951786.25, -1530347.6, 38231.723, 0.13123475, -0.12393105, -949270.8, 567934.75, 0.03599727, 10.005312, 9.997363 
2.4554363e+3, 1.55179e+2, -952710.0, -1497413.5, 35601.24, 0.104469575, -0.12581562, -950393.0, 468840.34, 0.015978012, 10.004587, 9.997265 
2.4553947e+3, 1.6517645e+2, -900884.7, -1352690.3, 54389.19, 0.09421885, -0.12680687, -894429.44, 426829.44, 0.00466612, 10.003923, 9.997905 
2.4553536e+3, 1.7517424e+2, -895501.1, -1310735.1, 49880.957, 0.095477514, -0.12770575, -889593.1, 333687.84, 0.000664597, 10.003321, 9.99781 
2.455312e+3, 1.8517242e+2, -840435.8, -1153329.1, 49153.26, 0.082409374, -0.114077576, -832895.9, 292403.4, 0.000026177097, 10.002679, 9.998528 
2.4552703e+3, 1.9517112e+2, -848212.9, -1117341.1, 50407.996, 0.057171836, -0.08775371, -839081.25, 188231.52, 0.00000000016280782, 10.002, 9.998428 
2.4552287e+3, 2.0516977e+2, -793555.44, -968698.1, 42764.05, 0.05053809, -0.08441187, -783671.6, 145654.72, 0.0, 10.001394, 9.999068 
2.4551873e+3, 2.1516855e+2, -780563.75, -922339.1, 39870.645, 0.0601331, -0.10311019, -770120.44, 61218.19, 0.0, 10.000855, 9.998974 
2.4551453e+3, 2.2516772e+2, -713713.94, -741603.0, 16712.156, 0.049722843, -0.114336, -705892.75, 27453.09, 0.0, 10.00022, 9.999847 
2.4551028e+3, 2.351674e+2, -728814.0, -710215.0, 18686.092, 0.023082498, -0.120393634, -698642.25, -63295.09, 0.0, 9.999496, 9.99974 
2.4550605e+3, 2.4516717e+2, -699393.56, -607368.56, 11130.579, 0.014158654, -0.12288415, -606041.44, -68691.88, 0.0, 9.998862, 10.000077 
2.455018e+3, 2.5516716e+2, -687675.75, -560977.1, 9478.769, 0.016822064, -0.120091155, -560271.94, -120920.75, 0.0, 9.998313, 9.999988 
2.4549754e+3, 2.6516756e+2, -611232.25, -380514.75, -14721.868, 0.004987985, -0.109488845, -379579.16, -38231.5, 0.0, 9.9977665, 10.000817 
2.4549323e+3, 2.7516833e+2, -597724.9, -334109.1, -7277.489, -0.008938541, -0.10161015, -333908.34, -90569.414, 0.0, 9.997233, 10.000719 
2.4548891e+3, 2.8516883e+2, -572011.25, -244421.89, -6436.0273, -0.026480839, -0.12450631, -244295.48, -98960.9, 0.0, 9.996622, 10.000957 
2.4548459e+3, 2.9516944e+2, -589976.56, -221923.36, -10801.914, -0.07830942, -0.15010843, -221606.61, -174276.14, 0.0, 9.99591, 10.000782 
2.4548042e+3, 3.05172e+2, -582028.6, -154194.52, -36163.953, 0.049332388, 0.026053235, -151159.19, -151159.19, 0.0, 9.995459, 10.001131 
2.4547601e+3, 3.1517202e+2, -521161.56, 493.35522, 16914.432, -0.05700157, -0.08163857, 1041.2228, 1041.2228, 0.0, 9.995341, 10.002247 
2.4655695e+3, 1.2523106e+2, -1033732.25, -1695262.8, 26555.824, 0.100649446, -0.15986927, -1032667.9, 680053.4, 0.084538825, 10.006566, 9.996983 
2.4655266e+3, 1.3522813e+2, -1011692.06, -1656831.3, 33289.113, 0.13678668, -0.13822769, -1009978.9, 604771.44, 0.059454065, 10.00593, 9.99687 
2.4654837e+3, 1.452252e+2, -960976.75, -1547866.1, 67036.02, 0.13266756, -0.12462195, -953417.1, 563362.7, 0.03463555, 10.005298, 9.997249 
2.465441e+3, 1.5522239e+2, -945730.25, -1506083.8, 57844.414, 0.109370306, -0.120423794, -939821.4, 478987.22, 0.015292293, 10.004688, 9.997155 
2.4653986e+3, 1.6521974e+2, -893785.7, -1357146.1, 72696.66, 0.09987429, -0.121260606, -882648.0, 438187.3, 0.004423334, 10.004009, 9.997831 
2.4653567e+3, 1.7521739e+2, -908378.4, -1324027.1, 67352.12, 0.09968444, -0.12758885, -897737.0, 325121.84, 0.00062213256, 10.003266, 9.997744 
2.4653144e+3, 1.852156e+2, -843751.6, -1148041.1, 67842.5, 0.08542911, -0.11125826, -829311.1, 295565.72, 0.000025000976, 10.00263, 9.998586 
2.4652722e+3, 1.9521445e+2, -830685.8, -1102204.1, 67253.03, 0.058884766, -0.07476093, -814940.75, 211947.8, 0.00000000021615258, 10.002094, 9.998486 
2.4652302e+3, 2.052131e+2, -782704.7, -968396.2, 59014.688, 0.051612973, -0.07199777, -765536.5, 163365.66, 0.0, 10.001493, 9.999022 
2.465188e+3, 2.1521172e+2, -787217.8, -929813.94, 55758.813, 0.061700054, -0.10085878, -768003.7, 62912.41, 0.0, 10.000833, 9.998932 
2.4651454e+3, 2.2521088e+2, -710188.94, -735498.7, 31058.438, 0.051905476, -0.114127845, -689306.2, 43617.426, 0.0, 10.00023, 9.999884 
2.4651022e+3, 2.3521063e+2, -699951.4, -691773.56, 32549.646, 0.025529368, -0.115034476, -663057.0, -28132.986, 0.0, 9.999678, 9.999777 
2.4650593e+3, 2.4521044e+2, -667572.44, -590658.1, 29347.494, 0.016602432, -0.115434445, -580739.4, -43813.42, 0.0, 9.999079, 10.000086 
2.4650164e+3, 2.5521043e+2, -669754.1, -550840.2, 33214.438, 0.019919688, -0.113166854, -542191.9, -103264.26, 0.0, 9.998433, 9.999998 
2.4649732e+3, 2.6521084e+2, -604481.7, -379288.94, 7426.176, 0.009777871, -0.10085491, -379044.3, -38120.285, 0.0, 9.997825, 10.000795 
2.4649294e+3, 2.7521163e+2, -596405.4, -335552.7, 3699.5864, -0.0033886032, -0.08896857, -335500.25, -92584.98, 0.0, 9.997253, 10.000698 
2.4648857e+3, 2.85212e+2, -557832.4, -242806.75, -2266.4229, -0.031785075, -0.11915534, -242790.45, -97878.586, 0.0, 9.996745, 10.000907 
2.4648418e+3, 2.9521236e+2, -544020.06, -208457.14, -3154.5251, -0.09873276, -0.16337034, -208427.48, -161517.73, 0.0, 9.996266, 10.000702 
2.4648e+3, 3.05215e+2, -553386.6, -171393.73, -6935.4927, 0.07518959, 0.037676223, -171267.86, -171267.86, 0.0, 9.995793, 10.00085 
2.4647552e+3, 3.15214e+2, -521214.72, 11964.105, 24764.24, -0.07775583, -0.14274323, 13111.845, 13111.845, 0.0, 9.995296, 10.002346 
2.4755761e+3, 1.2527518e+2, -1017965.44, -1664062.5, 5173.2803, 0.09962854, -0.14112124, -1017924.0, 694366.2, 0.08151575, 10.006551, 9.997223 
2.4755323e+3, 1.3527226e+2, -995836.2, -1624296.8, 9712.525, 0.116541244, -0.14254898, -995686.1, 618631.6, 0.057221234, 10.005925, 9.997096 
2.4754888e+3, 1.452693e+2, -973379.0, -1578299.6, 43743.996, 0.11817392, -0.13135502, -970232.06, 546115.2, 0.033224232, 10.005303, 9.997038 
2.4754459e+3, 1.5526642e+2, -958286.0, -1535299.4, 34885.53, 0.12372231, -0.1131389, -956184.5, 462192.94, 0.01458116, 10.004694, 9.996953 
2.4754028e+3, 1.652637e+2, -898748.4, -1370124.1, 44909.316, 0.11672369, -0.10702935, -894507.9, 425897.4, 0.0041713626, 10.004016, 9.997741 
2.4753599e+3, 1.7526127e+2, -912203.7, -1335711.0, 39614.68, 0.09473164, -0.111823216, -908530.0, 313899.63, 0.0005771031, 10.003279, 9.997659 
2.4753168e+3, 1.8525939e+2, -839777.6, -1143259.1, 47686.1, 0.07929973, -0.10422443, -832461.1, 291987.47, 0.000023236666, 10.002642, 9.998614 
2.4752744e+3, 1.9525805e+2, -827840.1, -1097920.1, 46891.67, 0.070585206, -0.08609031, -819930.4, 206531.02, 0.00000000023303823, 10.002098, 9.998515 
2.4752317e+3, 2.0525672e+2, -786087.4, -976440.75, 34105.598, 0.05871768, -0.08263883, -780161.2, 148313.8, 0.0, 10.001494, 9.998967 
2.4751885e+3, 2.1525547e+2, -790183.3, -937345.5, 31145.865, 0.04366886, -0.093180716, -783863.0, 46624.98, 0.0, 10.000834, 9.998881 
2.4751453e+3, 2.2525465e+2, -707793.8, -732391.8, 10505.067, 0.035304632, -0.10086124, -703918.06, 28577.223, 0.0, 10.000235, 9.999905 
2.4751021e+3, 2.3525438e+2, -697165.25, -687865.9, 11520.293, 0.034184914, -0.10765502, -680092.3, -45596.08, 0.0, 9.999683, 9.999803 
2.4750583e+3, 2.4525423e+2, -661303.1, -579268.6, 4842.4946, 0.02284089, -0.108511105, -578983.75, -42486.34, 0.0, 9.999083, 10.000164 
2.4750146e+3, 2.5525433e+2, -664227.1, -540990.4, 8443.511, -0.0011862677, -0.10366607, -540414.56, -101917.24, 0.0, 9.998437, 10.000066 
2.4749707e+3, 2.6525465e+2, -616806.06, -406263.94, -14685.078, -0.0065284558, -0.09613051, -405244.6, -64749.402, 0.0, 9.997827, 10.000611 
2.4749267e+3, 2.7525517e+2, -609376.7, -363991.47, -17878.906, 0.013304882, -0.08948005, -362695.66, -120205.58, 0.0, 9.997257, 10.000504 
2.4748826e+3, 2.8525582e+2, -558139.7, -245184.56, -21007.305, -0.02070136, -0.08139436, -243780.73, -99296.9, 0.0, 9.996749, 10.000891 
2.4748376e+3, 2.9525676e+2, -539203.0, -200745.92, -22789.54, -0.123421915, -0.06651509, -199218.31, -152743.8, 0.0, 9.996272, 10.000753 
2.4747956e+3, 3.0525663e+2, -568349.2, -204475.67, -24990.193, 0.065871164, -0.13628477, -202767.42, -202767.42, 0.0, 9.995798, 10.000622 
2.4747504e+3, 3.1525785e+2, -515729.75, 22083.383, -28740.549, -0.05725457, -0.06771074, 23614.906, 23614.906, 0.0, 9.995296, 10.0024185 
2.4855825e+3, 1.2531981e+2, -1053247.0, -1691016.3, 37408.637, 0.110354565, -0.14566445, -1051060.4, 660792.44, 0.07838067, 10.006313, 9.997135 
2.4855381e+3, 1.3531692e+2, -1007491.9, -1640177.9, 22696.514, 0.11765832, -0.13446319, -1006678.75, 607201.8, 0.054894343, 10.005871, 9.997012 
2.4854939e+3, 1.4531392e+2, -972467.9, -1580972.3, 50506.332, 0.11619647, -0.12211417, -968304.3, 547606.3, 0.03174651, 10.005321, 9.997009 
2.4854505e+3, 1.5531093e+2, -958168.06, -1538358.3, 52266.875, 0.12558849, -0.11155426, -953497.1, 464444.5, 0.0138336755, 10.004708, 9.996923 
2.4854067e+3, 1.6530813e+2, -888627.2, -1374661.3, 66404.33, 0.119384825, -0.10607612, -879718.0, 440252.2, 0.0039051764, 10.004128, 9.997654 
2.485363e+3, 1.7530568e+2, -874986.7, -1326544.8, 61011.48, 0.094986536, -0.105500996, -866888.44, 355106.66, 0.0005283009, 10.003575, 9.997578 
2.4853195e+3, 1.8530373e+2, -806018.3, -1131249.6, 65182.535, 0.07957713, -0.09671743, -793440.9, 330573.78, 0.000020785536, 10.002895, 9.998573 
2.4852763e+3, 1.9530234e+2, -829473.5, -1102240.9, 58986.63, 0.07366486, -0.08124248, -817264.0, 208764.19, 0.00000000017417703, 10.002107, 9.99848 
2.485233e+3, 2.0530096e+2, -790485.56, -971356.3, 49869.49, 0.06296447, -0.08057625, -777646.94, 150394.83, 0.0, 10.001436, 9.999028 
2.4851894e+3, 2.1529974e+2, -780694.94, -925668.06, 54658.563, 0.047055416, -0.09384732, -762396.8, 67657.24, 0.0, 10.000873, 9.998941 
2.4851455e+3, 2.2529897e+2, -702422.06, -733724.6, 36711.18, 0.03719786, -0.100605726, -678165.0, 53896.355, 0.0, 10.000292, 9.999866 
2.4851015e+3, 2.352987e+2, -697840.7, -691562.5, 32927.89, 0.034724113, -0.10233222, -661624.44, -27561.564, 0.0, 9.999697, 9.999769 
2.4850574e+3, 2.4529858e+2, -652710.1, -565996.5, 22050.617, 0.02380422, -0.100858755, -560711.3, -24647.793, 0.0, 9.999105, 10.000243 
2.485013e+3, 2.5529873e+2, -647490.94, -524468.9, 25571.225, 0.0014279021, -0.09770369, -519365.38, -81303.164, 0.0, 9.998519, 10.000137 
2.4849685e+3, 2.6529893e+2, -602641.4, -415596.4, 7210.4688, -0.005370049, -0.09653876, -415318.88, -75257.625, 0.0, 9.997997, 10.0004635 
2.484924e+3, 2.7529925e+2, -582119.3, -366765.1, 6333.8765, 0.011417608, -0.09655277, -366578.97, -124519.875, 0.0, 9.997516, 10.000358 
2.4848793e+3, 2.8530005e+2, -525985.94, -229571.6, 5912.8315, -0.018352197, -0.06718529, -229453.69, -85402.19, 0.0, 9.996972, 10.000889 
2.484834e+3, 2.9530132e+2, -517835.97, -187042.75, 5164.961, -0.11263812, -0.016724437, -186962.13, -140924.2, 0.0, 9.9964075, 10.00078 
2.484791e+3, 3.0529988e+2, -563051.44, -211062.67, 5696.9404, 0.042664733, -0.21663894, -210970.5, -210970.5, 0.0, 9.995877, 10.000536 
2.4847458e+3, 3.1530225e+2, -502837.9, 57239.844, 3762.626, -0.046432197, -0.018996963, 57265.12, 57265.12, 0.0, 9.995262, 10.002674 
2.4955888e+3, 1.2536499e+2, -1073140.0, -1739071.6, 20332.258, 0.1303449, -0.16741034, -1072519.8, 638889.4, 0.075105354, 10.006311, 9.996795 
2.495544e+3, 1.3536216e+2, -1026868.25, -1687964.6, 5526.2124, 0.13451056, -0.11467272, -1026822.06, 586616.06, 0.052449707, 10.005877, 9.996682 
2.4954993e+3, 1.4535908e+2, -963029.56, -1566463.6, 27428.488, 0.12309821, -0.099043995, -961785.4, 553683.94, 0.030187322, 10.005333, 9.997105 
2.4954548e+3, 1.5535592e+2, -949830.75, -1524304.5, 28530.049, 0.11658597, -0.115129694, -948417.4, 469083.56, 0.013043202, 10.004717, 9.997018 
2.4954106e+3, 1.6535306e+2, -894206.9, -1388102.3, 44590.613, 0.11008473, -0.116833106, -890213.4, 429316.44, 0.0036232157, 10.004132, 9.997561 
2.4953666e+3, 1.753506e+2, -881139.7, -1340044.8, 39245.79, 0.099496976, -0.10756888, -877807.56, 343747.6, 0.00047586914, 10.003575, 9.997487 
2.4953225e+3, 1.8534864e+2, -813855.8, -1148500.9, 35218.605, 0.08507153, -0.088193856, -810189.5, 313385.56, 0.000017741677, 10.002896, 9.998456 
2.4952783e+3, 1.9534726e+2, -835725.56, -1117369.5, 29617.84, 0.068737656, -0.06071521, -832644.6, 192944.39, 0.00000000005180779, 10.002112, 9.998375 
2.4952343e+3, 2.0534585e+2, -778304.3, -948503.2, 28830.332, 0.06478606, -0.06706612, -773553.3, 154049.27, 0.0, 10.001444, 9.999184 
2.4951905e+3, 2.1534456e+2, -769341.56, -903746.75, 33486.867, 0.07036639, -0.10364094, -761460.44, 68154.21, 0.0, 10.000876, 9.999092 
2.495146e+3, 2.2534376e+2, -709563.2, -749993.4, 14338.24, 0.056004442, -0.11277267, -704994.5, 26627.527, 0.0, 10.000295, 9.999754 
2.4951011e+3, 2.3534353e+2, -704522.0, -707078.25, 10200.658, 0.02664416, -0.09834216, -695519.7, -61895.723, 0.0, 9.999701, 9.999662 
2.4950564e+3, 2.4534346e+2, -647112.1, -555955.3, -287.76212, 0.019896196, -0.092305735, -555954.4, -20329.97, 0.0, 9.999109, 10.000312 
2.4950117e+3, 2.5534362e+2, -642184.8, -515047.88, 3513.7107, 0.027895134, -0.095710345, -514950.84, -77328.41, 0.0, 9.998523, 10.000202 
2.4949665e+3, 2.653437e+2, -610436.25, -433518.56, -11235.725, 0.012692487, -0.102501646, -432807.88, -93185.42, 0.0, 9.998001, 10.0003395 
2.4949214e+3, 2.7534384e+2, -588572.7, -382346.53, -13038.429, -0.010532643, -0.110462576, -381525.44, -139902.81, 0.0, 9.997521, 10.00025 
2.4948762e+3, 2.853446e+2, -524940.94, -229140.44, -16361.393, -0.024596572, -0.07737205, -228238.2, -84622.984, 0.0, 9.996977, 10.000892 
2.4948308e+3, 2.9534602e+2, -517364.44, -187489.22, -14930.714, -0.063889146, -0.016068358, -186814.81, -141214.34, 0.0, 9.99641, 10.000778 
2.4947864e+3, 3.0534476e+2, -559285.1, -204398.56, -16841.922, 0.0030505853, -0.19580112, -203601.08, -203601.08, 0.0, 9.995879, 10.000583 
2.4947408e+3, 3.1534675e+2, -485495.03, 92465.07, -2468.8567, -0.05501378, -0.04364229, 92475.62, 92475.62, 0.0, 9.995262, 10.002917 
2.505595e+3, 1.2541068e+2, -1085123.9, -1756219.1, 24549.943, 0.14544879, -0.1526155, -1084227.0, 626734.3, 0.07166381, 10.0062475, 9.996708 
2.5055498e+3, 1.3540761e+2, -1017001.9, -1692812.8, 23718.68, 0.13230936, -0.11697438, -1016170.5, 596822.8, 0.049871422, 10.005978, 9.996599 
2.5055045e+3, 1.4540443e+2, -947347.1, -1566266.5, 37382.08, 0.11562041, -0.10187956, -945097.44, 569928.2, 0.02854116, 10.005471, 9.997037 
2.5054595e+3, 1.5540132e+2, -945173.75, -1528840.1, 27658.033, 0.1156099, -0.10497385, -943866.0, 473190.88, 0.012211045, 10.004779, 9.996955 
2.5054148e+3, 1.6539848e+2, -895407.4, -1385377.9, 44319.746, 0.1117244, -0.10283238, -891430.75, 427654.84, 0.0033283376, 10.004112, 9.997587 
2.50537e+3, 1.7539601e+2, -894107.6, -1342654.4, 46147.652, 0.1006774, -0.09710591, -889409.06, 331701.9, 0.00042119581, 10.003474, 9.997516 
2.5053254e+3, 1.8539405e+2, -817780.0, -1148209.6, 47329.246, 0.08570927, -0.080862455, -811134.44, 311996.5, 0.0000143640455, 10.002864, 9.998471 
2.5052804e+3, 1.9539264e+2, -810315.06, -1102565.1, 50399.188, 0.068553284, -0.05629857, -801867.75, 223277.2, 0.0000000000010010511, 10.002279, 9.998394 
2.505236e+3, 2.0539129e+2, -752356.4, -930668.8, 49819.85, 0.064849235, -0.0614671, -739381.06, 187777.0, 0.0, 10.001603, 9.999228 
2.5051913e+3, 2.1539007e+2, -770577.6, -898655.56, 45976.254, 0.072175615, -0.09284244, -755782.56, 73386.5, 0.0, 10.000848, 9.999139 
2.505146e+3, 2.2538927e+2, -718282.5, -752086.06, 31917.66, 0.057671558, -0.104915746, -699067.7, 32108.725, 0.0, 10.000229, 9.99977 
2.5051007e+3, 2.3538896e+2, -699674.5, -702472.0, 36867.805, 0.026378712, -0.10109669, -664178.94, -30999.574, 0.0, 9.999727, 9.99968 
2.5050554e+3, 2.4538888e+2, -633881.56, -547751.1, 27153.512, 0.020671882, -0.09565008, -539905.4, -4725.631, 0.0, 9.999195, 10.000325 
2.5050104e+3, 2.5538915e+2, -626338.6, -505875.03, 26332.271, 0.03236508, -0.08939639, -500370.56, -63193.84, 0.0, 9.998628, 10.000213 
2.5049645e+3, 2.6538926e+2, -598669.5, -435951.25, 15480.905, 0.012688486, -0.089246735, -434491.5, -95315.01, 0.0, 9.99812, 10.000264 
2.5049186e+3, 2.753893e+2, -571634.44, -381678.22, 16446.21, -0.021030756, -0.09625365, -380264.84, -139087.3, 0.0, 9.997673, 10.000179 
2.504873e+3, 2.8538987e+2, -510633.03, -229870.2, 5237.4336, -0.03041786, -0.07944876, -229772.55, -86600.016, 0.0, 9.99711, 10.00082 
2.504827e+3, 2.9539096e+2, -519818.1, -197010.06, 1502.4764, -0.0546666, -0.03915071, -197003.06, -151842.48, 0.0, 9.996432, 10.0007 
2.504782e+3, 3.053905e+2, -548437.0, -189443.16, 1957.0961, -0.009498871, -0.13991392, -189432.5, -189432.5, 0.0, 9.995914, 10.000667 
2.5047362e+3, 3.1539178e+2, -455828.3, 86389.914, 24396.318, -0.05942849, -0.068582974, 87485.375, 87485.375, 0.0, 9.995559, 10.002731 
2.5156015e+3, 1.254569e+2, -1073721.0, -1740314.1, 13374.419, 0.15491045, -0.11022737, -1073452.8, 637056.25, 0.06805389, 10.006264, 9.996808 
2.5155553e+3, 1.3545331e+2, -1009073.25, -1678929.9, 11503.052, 0.114525616, -0.13721913, -1008875.8, 603669.56, 0.047168035, 10.005974, 9.996697 
2.5155097e+3, 1.4545004e+2, -961093.75, -1597491.5, 10609.385, 0.09663215, -0.12501092, -960916.94, 553662.0, 0.026820859, 10.005466, 9.996827 
2.5154644e+3, 1.5544717e+2, -957918.3, -1557867.1, 1570.308, 0.12100025, -0.08265077, -957914.2, 458694.88, 0.011348559, 10.004781, 9.996757 
2.5154188e+3, 1.6544445e+2, -886702.44, -1368932.9, 20407.396, 0.12212593, -0.06750506, -885840.4, 432796.84, 0.0030273893, 10.004116, 9.9977 
2.5153735e+3, 1.7544194e+2, -885655.5, -1325615.6, 22174.916, 0.0986878, -0.07548601, -884540.7, 336121.66, 0.00036660288, 10.003473, 9.997635 
2.5153282e+3, 1.8543994e+2, -809297.6, -1130857.5, 25274.344, 0.08200469, -0.074957855, -807323.25, 315358.84, 0.000011028373, 10.002862, 9.998593 
2.5152826e+3, 1.9543849e+2, -802427.3, -1086270.4, 28042.893, 0.07224488, -0.067411326, -799683.25, 225012.84, 0.0, 10.002276, 9.998509 
2.5152373e+3, 2.0543724e+2, -757276.7, -941474.1, 21332.693, 0.062873356, -0.0626845, -754838.3, 171869.81, 0.0, 10.001602, 9.999155 
2.5151917e+3, 2.1543628e+2, -774197.1, -907572.06, 18051.95, 0.053542048, -0.06150466, -771797.06, 56920.3, 0.0, 10.000851, 9.999078 
2.515146e+3, 2.2543548e+2, -708522.75, -733824.9, 13235.279, 0.043397944, -0.07817131, -702864.75, 27859.938, 0.0, 10.000235, 9.999894 
2.5151002e+3, 2.3543492e+2, -690310.6, -684997.5, 17809.377, 0.03384059, -0.11153949, -669647.6, -36918.395, 0.0, 9.999733, 9.999799 
2.5150543e+3, 2.4543484e+2, -637042.2, -555941.94, 5584.029, 0.025469583, -0.11073798, -555559.25, -20829.504, 0.0, 9.999199, 10.000269 
2.5150084e+3, 2.554353e+2, -629478.2, -514007.88, 4554.849, 0.013904125, -0.07846185, -513828.47, -77103.22, 0.0, 9.9986315, 10.000157 
2.5149623e+3, 2.6543558e+2, -600780.75, -441804.5, -1952.5726, -0.005298825, -0.0562235, -441780.5, -103056.9, 0.0, 9.998123, 10.000224 
2.5149164e+3, 2.754357e+2, -574013.94, -388035.63, -965.1657, -0.01925498, -0.052668784, -388030.63, -147306.6, 0.0, 9.997676, 10.000136 
2.51487e+3, 2.8543577e+2, -521536.1, -253913.22, -20844.602, -0.036504637, -0.07353902, -252299.4, -109575.65, 0.0, 9.997113, 10.000656 
2.5148234e+3, 2.9543614e+2, -530992.4, -221596.98, -24456.807, -0.08838501, -0.08831862, -219675.67, -174956.78, 0.0, 9.996434, 10.000532 
2.514778e+3, 3.0543712e+2, -540285.75, -173473.66, -13231.725, 0.007916376, -0.04490962, -172996.97, -172996.97, 0.0, 9.995915, 10.000777 
2.5147316e+3, 3.1543732e+2, -506468.44, -20531.545, 1076.6774, -0.0622759, -0.0900859, -20529.16, -20529.16, 0.0, 9.995563, 10.001996 
2.5256076e+3, 1.2550287e+2, -1030608.75, -1717496.9, 16961.602, 0.13927275, -0.118623994, -1030190.2, 679869.1, 0.064305164, 10.006555, 9.996824 
2.5255612e+3, 1.354995e+2, -1024741.1, -1685164.6, 9718.352, 0.115152836, -0.123803094, -1024598.1, 587495.3, 0.044375174, 10.005839, 9.996717 
2.525515e+3, 1.4549635e+2, -986694.6, -1601868.9, 12788.435, 0.0977099, -0.10638763, -986428.9, 527697.25, 0.02505595, 10.005245, 9.996901 
2.5254688e+3, 1.5549347e+2, -957737.1, -1549166.0, 21125.69, 0.11110613, -0.072072856, -956983.5, 459173.16, 0.010473592, 10.0047455, 9.996831 
2.525423e+3, 1.654908e+2, -883100.4, -1358390.9, 43166.977, 0.112326555, -0.057371248, -879211.7, 438972.47, 0.00272863, 10.004105, 9.997776 
2.5253767e+3, 1.7548843e+2, -897033.9, -1321571.1, 42210.582, 0.0978059, -0.05963594, -892877.7, 327330.22, 0.00031459445, 10.003357, 9.997716 
2.5253308e+3, 1.8548648e+2, -830757.8, -1131993.9, 45401.664, 0.08359673, -0.061562575, -824063.7, 298163.2, 0.000008091692, 10.002678, 9.9986725 
2.5252846e+3, 1.95485e+2, -829188.1, -1090092.1, 44573.797, 0.07117574, -0.06310747, -821783.1, 202457.63, 0.0, 10.002057, 9.998587 
2.5252387e+3, 2.0548378e+2, -774424.2, -947578.1, 37932.37, 0.058727305, -0.05966156, -766479.0, 159773.58, 0.0, 10.001479, 9.99917 
2.5251925e+3, 2.1548289e+2, -760491.06, -898190.0, 40417.074, 0.045716945, -0.053204868, -749504.5, 78757.01, 0.0, 10.0009365, 9.999099 
2.5251463e+3, 2.2548215e+2, -690222.44, -720344.0, 37347.22, 0.038646854, -0.06674566, -665013.56, 65254.75, 0.0, 10.000344, 9.999932 
2.5251e+3, 2.3548165e+2, -691189.9, -680516.7, 35432.156, 0.038295124, -0.09817671, -650021.5, -17749.229, 0.0, 9.999709, 9.999839 
2.5250536e+3, 2.4548155e+2, -641603.2, -556143.4, 24551.07, 0.027381966, -0.098419994, -549592.44, -15319.831, 0.0, 9.999163, 10.000282 
2.525007e+3, 2.55482e+2, -619878.7, -507335.16, 28363.355, 0.0034903898, -0.07095132, -500591.13, -64322.582, 0.0, 9.9986925, 10.000172 
2.5249603e+3, 2.6548225e+2, -594806.9, -436281.06, 26276.742, -0.014749439, -0.050641984, -432039.0, -93772.12, 0.0, 9.998157, 10.000245 
2.5249138e+3, 2.7548245e+2, -590494.75, -393375.38, 31251.678, -0.017122703, -0.043460045, -388539.3, -148272.64, 0.0, 9.997556, 10.000156 
2.524867e+3, 2.8548256e+2, -529081.7, -255958.17, 19405.271, -0.03842331, -0.06050617, -254586.33, -112320.36, 0.0, 9.997058, 10.000667 
2.5248194e+3, 2.9548287e+2, -501355.63, -208502.94, 29015.316, -0.10381603, -0.08018795, -205655.83, -161394.08, 0.0, 9.996648, 10.000518 
2.524774e+3, 3.054836e+2, -547295.56, -219397.19, 24234.113, 0.011334384, -0.038157664, -217615.8, -217615.8, 0.0, 9.996056, 10.000393 
2.5247267e+3, 3.1548384e+2, -527747.2, 11039.543, -17891.42, -0.061940406, -0.04658303, 11633.007, 11633.007, 0.0, 9.995239, 10.002368 
2.5356138e+3, 1.2554878e+2, -1032746.6, -1726090.3, -8995.428, 0.102956474, -0.16539212, -1032629.94, 676980.3, 0.060467403, 10.006543, 9.996772 
2.5355673e+3, 1.3554625e+2, -1026205.3, -1691830.8, -15011.456, 0.13068998, -0.082084335, -1025867.0, 585770.06, 0.041540306, 10.0058365, 9.9966755 
2.5355202e+3, 1.4554334e+2, -965795.0, -1559892.5, -5249.8813, 0.11461867, -0.05407995, -965748.6, 547918.8, 0.023280762, 10.005243, 9.997191 
2.535473e+3, 1.5554023e+2, -938705.9, -1508475.3, 1576.5961, 0.08774043, -0.071877435, -938701.56, 476997.84, 0.009604253, 10.004735, 9.997117 
2.5354266e+3, 1.6553758e+2, -881739.8, -1354351.5, 14691.832, 0.08547778, -0.0685144, -881283.5, 436442.72, 0.0024392353, 10.004095, 9.997809 
2.5353798e+3, 1.7553547e+2, -894522.0, -1316616.6, 14121.689, 0.09787253, -0.048793722, -894050.06, 325697.66, 0.0002671321, 10.003355, 9.997753 
2.5353333e+3, 1.8553364e+2, -828530.25, -1128292.3, 21935.197, 0.089528814, -0.04117282, -826933.6, 294831.8, 0.0000057652073, 10.002679, 9.998698 
2.5352865e+3, 1.955322e+2, -826684.25, -1085588.3, 21371.883, 0.06561617, -0.04396095, -824931.94, 198846.98, 0.0, 10.002057, 9.998619 
2.53524e+3, 2.0553091e+2, -768311.2, -935622.44, 17536.4, 0.052617703, -0.05297271, -766492.9, 159298.42, 0.0, 10.001479, 9.999254 
2.5351933e+3, 2.1552989e+2, -754783.56, -887022.44, 19833.564, 0.047648594, -0.06771914, -751872.94, 75928.68, 0.0, 10.000936, 9.999177 
2.5351465e+3, 2.2552927e+2, -693967.7, -728953.6, 13409.082, 0.042551264, -0.06945939, -689419.6, 40387.918, 0.0, 10.000344, 9.999874 
2.5350997e+3, 2.355291e+2, -694192.94, -687726.0, 11470.186, 0.039421093, -0.06076348, -679042.25, -47233.707, 0.0, 9.999711, 9.99979 
2.5350526e+3, 2.4552906e+2, -635969.7, -545856.06, 6598.0166, 0.026530178, -0.05931252, -545375.5, -11566.973, 0.0, 9.999166, 10.000354 
2.5350055e+3, 2.555292e+2, -614044.2, -496939.66, 10264.205, 0.0011520297, -0.06713271, -496046.8, -60240.04, 0.0, 9.998696, 10.000243 
2.534958e+3, 2.6552927e+2, -589299.25, -426326.9, 3287.4236, -0.01579364, -0.07316577, -426260.6, -88453.96, 0.0, 9.998159, 10.000314 
2.5349113e+3, 2.7552947e+2, -584867.3, -383038.4, 8369.072, -0.01553674, -0.07071358, -382691.97, -142886.08, 0.0, 9.997558, 10.000228 
2.534864e+3, 2.855302e+2, -516278.7, -230364.73, 3368.208, -0.036134988, -0.039579004, -230325.06, -88525.81, 0.0, 9.997059, 10.000843 
2.534816e+3, 2.955312e+2, -491934.72, -190230.63, 13228.002, -0.09950871, -0.009757813, -189651.77, -145863.03, 0.0, 9.99665, 10.000644 
2.5347698e+3, 3.055299e+2, -611968.0, -354899.0, -4962.1343, -0.00087383966, -0.1280124, -354803.25, -354803.25, 0.0, 9.996057, 9.999463 
2.5347218e+3, 3.1553087e+2, -401483.9, 272361.06, -79007.71, -0.05792112, 0.02472565, 281500.7, 281500.7, 0.0, 9.995235, 10.004169 
2.54562e+3, 1.2559612e+2, -1041686.44, -1716275.8, 8820.96, 0.09047458, -0.12796624, -1041571.1, 667577.5, 0.056586366, 10.006391, 9.996912 
2.5455728e+3, 1.3559337e+2, -1028146.2, -1677951.8, 15373.199, 0.12037752, -0.07922025, -1027782.7, 583393.7, 0.038700566, 10.005743, 9.996814 
2.545525e+3, 1.4559051e+2, -981125.0, -1556714.5, 27107.658, 0.10697365, -0.05619863, -979851.2, 533354.7, 0.02152053, 10.005084, 9.997289 
2.5454774e+3, 1.5558767e+2, -976843.4, -1515561.9, 20731.885, 0.08196018, -0.05614313, -976046.75, 439188.88, 0.008753559, 10.004421, 9.997218 
2.54543e+3, 1.6558516e+2, -917624.56, -1361176.9, 27666.873, 0.08033951, -0.049708005, -915905.5, 401355.72, 0.0021638507, 10.003805, 9.997901 
2.545383e+3, 1.7558305e+2, -906327.94, -1311725.4, 30468.064, 0.09307036, -0.038067557, -904050.9, 315231.47, 0.00022511306, 10.003231, 9.997845 
2.545336e+3, 1.8558124e+2, -834005.8, -1123519.0, 41484.91, 0.08756492, -0.03667087, -828178.7, 293121.03, 0.0000040749073, 10.002613, 9.998761 
2.5452885e+3, 1.955798e+2, -836404.9, -1082703.5, 42896.727, 0.0685091, -0.0445423, -829147.56, 194165.28, 0.0, 10.001962, 9.998683 
2.545241e+3, 2.0557857e+2, -791989.4, -947228.0, 38096.746, 0.055334702, -0.04978218, -783144.1, 142180.77, 0.0, 10.001321, 9.9992485 
2.545194e+3, 2.1557765e+2, -790602.1, -903450.94, 33674.46, 0.046400826, -0.053386778, -781317.44, 46017.367, 0.0, 10.00069, 9.999181 
2.5451463e+3, 2.2557709e+2, -718805.3, -730998.7, 30501.85, 0.038750745, -0.053777933, -693796.8, 35543.402, 0.0, 10.000135, 9.999959 
2.5450993e+3, 2.3557693e+2, -699004.7, -680574.8, 38740.285, 0.034033604, -0.05142702, -649968.56, -18627.89, 0.0, 9.99964, 9.999871 
2.545052e+3, 2.4557692e+2, -642004.6, -549310.9, 37084.41, 0.02375903, -0.05022151, -536300.5, -2959.992, 0.0, 9.99913, 10.000345 
2.5450042e+3, 2.5557712e+2, -628068.8, -503472.03, 34255.19, 0.004896924, -0.05342374, -494675.34, -59336.55, 0.0, 9.998603, 10.000241 
2.5449562e+3, 2.6557717e+2, -595233.94, -418573.5, 22808.752, -0.014711658, -0.06266058, -415676.16, -78337.79, 0.0, 9.998076, 10.000404 
2.5449088e+3, 2.7557737e+2, -580800.94, -371476.2, 29421.84, -0.024286216, -0.070469916, -367419.38, -128082.28, 0.0, 9.997548, 10.00031 
2.5448608e+3, 2.855781e+2, -523872.5, -244418.03, 18226.682, -0.038302705, -0.035714805, -243234.27, -101904.04, 0.0, 9.997055, 10.000748 
2.544813e+3, 2.955792e+2, -505100.06, -204501.13, 6783.426, -0.08296443, 0.012545583, -204348.13, -161028.77, 0.0, 9.996595, 10.000571 
2.5447658e+3, 3.055777e+2, -587909.94, -314885.94, 20595.35, -0.016722418, -0.13606401, -313341.1, -313341.1, 0.0, 9.996103, 9.999715 
2.5447172e+3, 3.1557828e+2, -373708.22, 263335.25, 18065.389, -0.057052314, -0.04235722, 263847.13, 263847.13, 0.0, 9.995529, 10.0039625 
2.5556263e+3, 1.256447e+2, -1020255.56, -1676416.6, -12904.139, 0.09539603, -0.025171433, -1020001.9, 688674.0, 0.052690852, 10.006387, 9.997199 
2.555578e+3, 1.3564092e+2, -1009199.0, -1639135.0, -7509.82, 0.08809677, -0.10936564, -1009109.5, 601601.75, 0.035874654, 10.0057335, 9.997086 
2.5555298e+3, 1.4563799e+2, -986201.8, -1568920.9, 2679.9097, 0.079331025, -0.10221825, -986189.44, 526551.5, 0.019787515, 10.005078, 9.99721 
2.5554818e+3, 1.5563582e+2, -980972.56, -1525146.8, -3455.6372, 0.091043845, -0.02642083, -980950.6, 433814.66, 0.007928419, 10.004418, 9.997155 
2.555434e+3, 1.656335e+2, -908510.8, -1342856.3, 6716.71, 0.09306952, -0.0053366255, -908406.94, 408382.3, 0.0019045549, 10.003803, 9.99803 
2.555386e+3, 1.7563118e+2, -897366.6, -1293385.8, 9119.035, 0.08335227, -0.02714905, -897156.75, 321655.0, 0.00018834483, 10.003229, 9.997973 
2.5553384e+3, 1.8562928e+2, -828120.1, -1111762.3, 17202.225, 0.078630015, -0.046192534, -827080.7, 293748.9, 0.0000029076905, 10.002612, 9.998844 
2.5552905e+3, 1.9562781e+2, -830951.5, -1072122.0, 18428.588, 0.07882027, -0.06355275, -829551.44, 193291.03, 0.0, 10.001962, 9.998757 
2.5552428e+3, 2.0562677e+2, -798418.56, -961696.3, 14446.423, 0.06585466, -0.04930897, -797150.2, 127703.05, 0.0, 10.001323, 9.99915 
2.5551945e+3, 2.1562618e+2, -795322.25, -914482.6, 10590.565, 0.04205189, -0.011093205, -794388.3, 32472.883, 0.0, 10.000692, 9.999105 
2.5551465e+3, 2.2562557e+2, -703758.75, -701228.06, 12092.83, 0.027535483, -0.021030216, -690334.56, 38531.973, 0.0, 10.000138, 10.000164 
2.5550985e+3, 2.3562512e+2, -685198.25, -653468.8, 19819.527, 0.021801071, -0.07004917, -643946.44, -13077.626, 0.0, 9.999644, 10.000057 
2.5550508e+3, 2.4562512e+2, -648298.8, -563784.3, 16927.398, 0.019030655, -0.07022969, -560520.0, -27651.395, 0.0, 9.999133, 10.000246 
2.5550026e+3, 2.5562564e+2, -633556.4, -516279.13, 13997.344, 0.014401526, -0.02985743, -514631.66, -79766.81, 0.0, 9.998606, 10.000154 
2.5549543e+3, 2.6562595e+2, -587775.6, -404175.9, 2407.7705, -0.01186075, -0.018439543, -404144.34, -67282.12, 0.0, 9.998078, 10.0005045 
2.5549057e+3, 2.756261e+2, -574801.44, -360103.44, 9076.361, -0.0437173, -0.04051415, -359720.4, -120860.086, 0.0, 9.99755, 10.000389 
2.5548577e+3, 2.8562623e+2, -550883.06, -301753.0, 220.86832, -0.044849027, -0.050057013, -301752.8, -160893.47, 0.0, 9.997057, 10.000355 
2.5548095e+3, 2.9562673e+2, -524234.25, -245437.03, -10915.287, -0.054108612, -0.018159758, -245010.33, -202155.67, 0.0, 9.996597, 10.000291 
2.5547615e+3, 3.0562702e+2, -482444.4, -96750.74, -1202.1013, -0.037340082, -0.056129478, -96746.99, -96746.99, 0.0, 9.996103, 10.001214 
2.5547126e+3, 3.1562778e+2, -571592.0, -148934.06, 9468.775, -0.06266809, -0.0828591, -148722.03, -148722.03, 0.0, 9.995533, 10.001129 
2.5656325e+3, 1.2569335e+2, -1022050.25, -1675392.3, 25120.926, 0.09263879, -0.010230513, -1021085.75, 687115.0, 0.0488014, 10.00634, 9.997229 
2.5655836e+3, 1.3568963e+2, -1030688.06, -1646696.0, 14970.719, 0.07930608, -0.08929405, -1030324.44, 579910.75, 0.0330714, 10.005553, 9.99712 
2.5655347e+3, 1.4568672e+2, -1011961.7, -1575883.4, 26005.252, 0.07284445, -0.08373362, -1010765.0, 501499.6, 0.01808586, 10.004868, 9.997261 
2.5654864e+3, 1.5568456e+2, -997727.56, -1526686.3, 28171.146, 0.09228824, -0.014286999, -996231.44, 418057.38, 0.007131178, 10.004273, 9.997213 
2.565438e+3, 1.6568226e+2, -920582.56, -1337893.5, 42218.617, 0.093411036, 0.0015732008, -916354.25, 399958.16, 0.0016615762, 10.003676, 9.998123 
2.5653893e+3, 1.7567998e+2, -912688.06, -1289752.9, 41901.785, 0.07630648, -0.0248017, -908087.75, 310246.47, 0.0001560768, 10.003079, 9.998069 
2.5653407e+3, 1.8567812e+2, -849064.44, -1119306.1, 44362.824, 0.071875215, -0.04160862, -841968.2, 278383.16, 0.0000021053752, 10.0024605, 9.998864 
2.565292e+3, 1.9567677e+2, -849370.25, -1078499.1, 41001.926, 0.07840273, -0.05097544, -842254.1, 180109.5, 0.0, 10.001827, 9.998777 
2.5652435e+3, 2.0567574e+2, -809200.25, -965947.5, 40732.895, 0.06653502, -0.035760768, -799247.25, 125127.12, 0.0, 10.001247, 9.999155 
2.565195e+3, 2.156751e+2, -792082.56, -911346.0, 43408.215, 0.039791208, -0.002083456, -777956.5, 48426.324, 0.0, 10.000711, 9.999116 
2.5651464e+3, 2.2567451e+2, -705935.75, -701023.75, 40476.832, 0.025451364, -0.012102148, -662928.44, 65459.766, 0.0, 10.000122, 10.000172 
2.565098e+3, 2.3567408e+2, -706701.0, -661697.94, 34067.52, 0.022710694, -0.058047928, -643371.6, -12981.364, 0.0, 9.999492, 10.0000725 
2.5650495e+3, 2.4567415e+2, -674526.8, -569482.1, 32511.025, 0.021052772, -0.055982716, -560234.2, -27844.695, 0.0, 9.998927, 10.000304 
2.565001e+3, 2.5567475e+2, -657957.6, -521430.03, 40774.836, 0.015601907, -0.012915262, -510179.47, -75794.39, 0.0, 9.998414, 10.000209 
2.5649524e+3, 2.6567507e+2, -605491.4, -410435.78, 32007.785, -0.008639865, 0.00081712403, -405317.72, -68935.87, 0.0, 9.997951, 10.000521 
2.5649032e+3, 2.7567527e+2, -577778.0, -359178.75, 31692.123, -0.03515898, -0.021469206, -354676.78, -116297.17, 0.0, 9.997522, 10.000406 
2.5648546e+3, 2.8567523e+2, -557318.6, -302677.0, 34938.867, -0.04008572, -0.045916677, -297970.1, -157590.11, 0.0, 9.997007, 10.00037 
2.5648057e+3, 2.9567558e+2, -550369.1, -254861.72, 55303.664, -0.061368875, -0.033794343, -244850.88, -202473.47, 0.0, 9.99641, 10.000313 
2.5647575e+3, 3.056768e+2, -467944.97, -57327.633, 30185.04, -0.04093726, 0.007485895, -55120.555, -55120.555, 0.0, 9.996067, 10.0015 
2.5647083e+3, 3.1567824e+2, -552134.06, -210118.28, -42944.633, -0.05812249, 0.024869613, -204808.45, -204808.45, 0.0, 9.995971, 10.000498 
2.5756386e+3, 1.2574217e+2, -1035263.25, -1702312.1, -3386.7192, 0.08359299, -0.063797414, -1035246.06, 672476.5, 0.044944894, 10.006311, 9.997048 
2.575589e+3, 1.3573946e+2, -1039664.06, -1670546.6, -13034.979, 0.088974394, -0.025715115, -1039394.9, 570354.3, 0.030302528, 10.005555, 9.996957 
2.5755396e+3, 1.4573663e+2, -999319.94, -1554037.3, 4446.603, 0.08271296, -0.0120109385, -999284.25, 512493.4, 0.016419413, 10.004877, 9.997409 
2.5754902e+3, 1.5573385e+2, -987161.25, -1505719.0, 6296.0415, 0.08632845, -0.017555168, -987084.8, 426721.53, 0.0063629793, 10.0042715, 9.997359 
2.5754413e+3, 1.6573143e+2, -916744.94, -1330207.3, 20053.182, 0.08335864, -0.023397904, -915774.6, 400055.88, 0.0014347314, 10.003674, 9.998179 
2.575392e+3, 1.757294e+2, -908719.3, -1282206.9, 19370.266, 0.0715568, -0.030173158, -907717.44, 310132.6, 0.00012767671, 10.003079, 9.998122 
2.575343e+3, 1.857278e+2, -852164.94, -1126481.9, 20584.887, 0.06671581, -0.024215354, -850628.9, 269236.5, 0.0000015362658, 10.00246, 9.9988165 
2.575294e+3, 1.9572663e+2, -851946.75, -1084248.9, 17679.004, 0.06811043, -0.0091012735, -850609.06, 171267.33, 0.0, 10.001825, 9.99874 
2.575245e+3, 2.0572546e+2, -803012.9, -953986.9, 20699.393, 0.058206853, -0.010569477, -800226.3, 123662.055, 0.0, 10.001248, 9.999239 
2.5751954e+3, 2.1572442e+2, -786716.2, -901569.75, 22938.234, 0.038887296, -0.024783082, -782304.5, 43595.34, 0.0, 10.000714, 9.999184 
2.5751466e+3, 2.2572388e+2, -718411.9, -728295.56, 16714.084, 0.03193882, -0.024980664, -705924.3, 21980.955, 0.0, 10.000125, 9.999985 
2.5750977e+3, 2.3572382e+2, -717188.5, -684629.6, 10505.678, 0.036610942, -0.015994458, -681534.06, -51629.023, 0.0, 9.999494, 9.999915 
2.5750485e+3, 2.4572395e+2, -660186.06, -541040.06, 13031.087, 0.029390432, -0.008446694, -539631.5, -7728.065, 0.0, 9.99893, 10.0005 
2.5749993e+3, 2.5572437e+2, -644425.75, -495001.4, 21413.1, 0.0077343197, -0.002404021, -491993.38, -58093.734, 0.0, 9.998418, 10.00039 
2.5749502e+3, 2.657246e+2, -610661.2, -422509.06, 15504.143, -0.0047423765, -0.005374395, -421240.06, -85342.56, 0.0, 9.997953, 10.000439 
2.574901e+3, 2.757248e+2, -581165.56, -367346.94, 14937.5, 0.0021758836, -0.015004293, -366308.44, -128413.02, 0.0, 9.997524, 10.000351 
2.5748518e+3, 2.8572515e+2, -527262.06, -240994.88, 11972.533, -0.024481766, -0.022321304, -240495.02, -100602.79, 0.0, 9.997007, 10.000795 
2.5748014e+3, 2.9572573e+2, -528764.25, -210011.28, 33434.07, -0.10745723, -0.031560812, -206542.13, -164654.9, 0.0, 9.9964075, 10.000624 
2.5747535e+3, 3.0572695e+2, -539745.94, -207270.47, 25316.03, -0.025069444, 0.056342028, -205353.86, -205353.86, 0.0, 9.996068, 10.000471 
2.574704e+3, 3.1572706e+2, -402187.3, 97869.51, -65683.14, -0.057595674, 0.025111053, 106353.15, 106353.15, 0.0, 9.995981, 10.002611 
2.5856447e+3, 1.2579218e+2, -1075246.1, -1719909.6, 13133.687, 0.092995204, -0.050569586, -1074978.6, 632255.0, 0.0411543, 10.005991, 9.99708 
2.5855944e+3, 1.3578957e+2, -1037350.1, -1665779.4, 15591.204, 0.07656812, -0.004070626, -1036963.56, 572296.06, 0.027586462, 10.005544, 9.996994 
2.5855443e+3, 1.4578673e+2, -988377.44, -1537608.9, 34261.273, 0.06959021, 0.0016284576, -986248.5, 525039.44, 0.014796277, 10.004902, 9.997508 
2.5854945e+3, 1.5578385e+2, -999951.44, -1500862.0, 33152.234, 0.08694637, -0.024136888, -997766.8, 415549.9, 0.0056266957, 10.004136, 9.997457 
2.5854445e+3, 1.6578148e+2, -942069.6, -1340076.3, 47876.594, 0.0845472, -0.028794765, -936391.56, 378948.7, 0.0012244818, 10.003491, 9.998198 
2.5853947e+3, 1.7577964e+2, -928187.2, -1289039.0, 43980.266, 0.06420238, -0.018068697, -922904.25, 294454.16, 0.000102820115, 10.002937, 9.998143 
2.5853452e+3, 1.857781e+2, -870741.3, -1133926.9, 43557.684, 0.059098113, -0.007865295, -863719.75, 255653.8, 0.0000011114956, 10.002329, 9.998827 
2.5852954e+3, 1.9577685e+2, -871893.2, -1091987.1, 44408.54, 0.066213705, 0.0011408831, -863270.6, 158114.58, 0.0, 10.001684, 9.998753 
2.585246e+3, 2.0577568e+2, -821463.0, -963200.25, 49841.61, 0.05842017, -0.0016004181, -805691.3, 117705.99, 0.0, 10.001127, 9.999232 
2.5851962e+3, 2.1577464e+2, -798640.2, -907331.7, 45254.07, 0.038991347, -0.013555508, -782265.44, 43143.06, 0.0, 10.000636, 9.99918 
2.5851464e+3, 2.257741e+2, -727302.4, -737271.5, 38184.957, 0.033929568, -0.011702355, -693778.0, 33636.113, 0.0, 10.000088, 9.999939 
2.585097e+3, 2.35774e+2, -720082.06, -690577.5, 42042.695, 0.041510772, 0.00068180554, -660773.94, -31359.57, 0.0, 9.999496, 9.999871 
2.5850475e+3, 2.4577409e+2, -658209.75, -543046.2, 42570.58, 0.03486766, 0.0072844066, -529018.5, 2394.881, 0.0, 9.9989605, 10.000469 
2.5849977e+3, 2.557744e+2, -639703.44, -494775.53, 33688.266, 0.012930415, 0.0069090337, -487327.53, -53917.133, 0.0, 9.998464, 10.000368 
2.584948e+3, 2.6577467e+2, -612324.8, -418649.97, 25341.313, -0.000119062934, 0.00395475, -415389.1, -79980.89, 0.0, 9.997926, 10.000477 
2.5848985e+3, 2.7577496e+2, -603376.1, -372785.13, 33871.297, 0.0055395816, 0.0024137348, -367912.78, -130507.56, 0.0, 9.997354, 10.000394 
2.5848487e+3, 2.857754e+2, -530830.5, -230257.06, 22439.646, -0.021795355, -0.005496325, -228591.05, -89189.79, 0.0, 9.996932, 10.000903 
2.584798e+3, 2.9577592e+2, -492077.66, -182504.6, 19184.074, -0.10373495, -0.029555248, -181320.3, -139923.98, 0.0, 9.996618, 10.0007105 
2.5847495e+3, 3.057773e+2, -534492.25, -215709.13, 46145.156, -0.019892478, 0.07525405, -209163.81, -209163.81, 0.0, 9.996155, 10.00037 
2.5846997e+3, 3.157761e+2, -437585.9, 131239.78, 5517.4214, -0.07189282, -0.073891975, 131293.3, 131293.3, 0.0, 9.995528, 10.003055 
2.595651e+3, 1.2584324e+2, -1064614.3, -1694765.5, -3456.6663, 0.11450671, 0.01613739, -1064595.3, 642139.94, 0.037458725, 10.005957, 9.9972725 
2.5955993e+3, 1.3584e+2, -1027033.0, -1640842.3, -2731.0063, 0.04586559, -0.01888956, -1027020.9, 581745.44, 0.024944762, 10.005515, 9.99718 
2.5955486e+3, 1.4583707e+2, -986982.44, -1532680.0, 5385.1064, 0.03826324, -0.033178125, -986929.3, 523865.5, 0.0132290395, 10.004882, 9.997553 
2.5954986e+3, 1.5583448e+2, -998147.75, -1495523.1, 5495.415, 0.09282197, -0.03273048, -998087.06, 414733.16, 0.004927892, 10.004124, 9.997501 
2.595448e+3, 1.6583236e+2, -944328.44, -1344263.0, 27620.99, 0.09451593, -0.016588457, -942429.8, 372412.03, 0.0010321138, 10.003486, 9.998174 
2.5953975e+3, 1.7583066e+2, -929366.44, -1291966.6, 23306.197, 0.054087993, 0.010351313, -927874.56, 288985.06, 0.000081372455, 10.002936, 9.998125 
2.5953472e+3, 1.8582898e+2, -866647.6, -1126904.6, 19590.273, 0.049272057, 0.0074023176, -865181.25, 253694.67, 0.0000007755459, 10.002333, 9.998876 
2.595297e+3, 1.9582747e+2, -867986.06, -1086048.5, 20604.814, 0.071418464, -0.017818538, -866056.2, 154833.83, 0.0, 10.001691, 9.998793 
2.595247e+3, 2.0582639e+2, -827163.1, -976956.5, 31440.691, 0.06621214, -0.006938488, -820831.56, 102069.586, 0.0, 10.001132, 9.999137 
2.5951967e+3, 2.1582575e+2, -803597.44, -918668.25, 26801.45, 0.040389307, 0.029338634, -797661.25, 27247.74, 0.0, 10.000637, 9.999104 
2.5951466e+3, 2.2582513e+2, -722068.56, -727479.7, 16148.604, 0.0315626, 0.025650365, -708400.44, 18514.496, 0.0, 10.00009, 10.000007 
2.5950962e+3, 2.3582466e+2, -716236.3, -684238.9, 19786.586, 0.03659191, -0.007153253, -674792.2, -45873.824, 0.0, 9.9995, 9.999914 
2.5950462e+3, 2.4582458e+2, -675821.75, -581262.94, 23528.494, 0.0375224, -0.007817232, -575732.0, -44812.547, 0.0, 9.998964, 10.000207 
2.594996e+3, 2.5582486e+2, -655478.2, -528870.0, 14493.757, 0.0315404, 0.014762492, -527232.0, -94314.43, 0.0, 9.998466, 10.0001335 
2.5949457e+3, 2.658252e+2, -601650.56, -397479.13, 3343.0125, 0.00461273, 0.029305233, -397424.4, -62510.24, 0.0, 9.997927, 10.000623 
2.5948954e+3, 2.7582574e+2, -594269.7, -354620.84, 12611.673, -0.027038733, 0.032519728, -353958.97, -117049.94, 0.0, 9.997354, 10.000521 
2.5948453e+3, 2.858259e+2, -546981.6, -264656.3, 10116.66, -0.031893525, 0.0042406674, -264294.25, -125386.84, 0.0, 9.996933, 10.000669 
2.5947952e+3, 2.9582608e+2, -501682.47, -203883.95, 5969.2314, -0.046447057, -0.029790305, -203764.34, -162858.9, 0.0, 9.996621, 10.000565 
2.5947455e+3, 3.0582774e+2, -472268.0, -87444.7, 23142.424, -0.028359497, 0.05811535, -86057.97, -86057.97, 0.0, 9.996155, 10.001253 
2.5946948e+3, 3.1582773e+2, -550874.0, -103366.83, -18451.213, -0.092209384, -0.048931707, -102607.36, -102607.36, 0.0, 9.995521, 10.001449 
2.6056564e+3, 1.2589411e+2, -1110790.0, -1696171.5, 15954.053, 0.09223416, 0.01700414, -1110355.5, 595882.2, 0.0338765, 10.005513, 9.997475 
2.6056048e+3, 1.358912e+2, -1083625.3, -1645776.0, 16069.645, 0.056568146, -0.0058055664, -1083166.3, 525099.4, 0.02239581, 10.005007, 9.99739 
2.6055533e+3, 1.4588848e+2, -1038562.1, -1534686.4, 23040.037, 0.047508337, -0.02060404, -1037494.44, 472797.4, 0.011730702, 10.004421, 9.99776 
2.6055023e+3, 1.5588598e+2, -1033504.44, -1491488.3, 33419.305, 0.07913411, -0.029566929, -1031078.7, 381236.9, 0.004272862, 10.00379, 9.997688 
2.605451e+3, 1.6588388e+2, -979238.94, -1362327.6, 66213.45, 0.08141107, -0.01805176, -968117.4, 346219.47, 0.0008590379, 10.003254, 9.998159 
2.6054004e+3, 1.7588215e+2, -952194.56, -1303959.6, 61800.68, 0.05761913, 0.007054968, -941652.9, 274702.3, 0.000063243526, 10.002788, 9.998112 
2.6053494e+3, 1.858805e+2, -879720.3, -1138575.6, 51246.62, 0.054018065, 0.0104011465, -869944.06, 248427.6, 0.0000005058523, 10.00227, 9.998823 
2.6052985e+3, 1.9587904e+2, -867342.44, -1090428.9, 45261.27, 0.06660401, -0.002065334, -858509.25, 161876.22, 0.0, 10.0017185, 9.998747 
2.605248e+3, 2.0587789e+2, -825007.75, -976115.5, 58274.22, 0.06340576, 0.0036229824, -805145.3, 117251.88, 0.0, 10.001152, 9.999132 
2.605197e+3, 2.1587704e+2, -813700.25, -924326.06, 58982.703, 0.04768347, 0.022241209, -788152.3, 36253.9, 0.0, 10.000575, 9.999092 
2.6051465e+3, 2.258764e+2, -733210.25, -744527.75, 43773.133, 0.03874138, 0.021485047, -694731.6, 31681.035, 0.0, 10.000067, 9.999898 
2.6050958e+3, 2.3587598e+2, -708120.6, -691279.25, 34722.652, 0.037114035, 0.0050478545, -663970.8, -35554.61, 0.0, 9.999607, 9.999812 
2.605045e+3, 2.4587576e+2, -664389.9, -585169.7, 39809.098, 0.037487596, 0.0026659314, -568621.75, -38203.266, 0.0, 9.999087, 10.000119 
2.6049948e+3, 2.5587583e+2, -653893.25, -537022.94, 43360.895, 0.034565873, 0.012454875, -522692.47, -90273.836, 0.0, 9.998519, 10.000051 
2.6049438e+3, 2.6587623e+2, -590696.4, -396830.84, 29981.346, 0.006337563, 0.03305866, -392300.1, -57884.62, 0.0, 9.998025, 10.000578 
2.6048928e+3, 2.7587685e+2, -563997.56, -344050.25, 24566.33, -0.028179193, 0.05397036, -341339.78, -104930.31, 0.0, 9.9975815, 10.000482 
2.6048422e+3, 2.8587693e+2, -525596.0, -253756.31, 28466.809, -0.026187964, 0.019029684, -250807.3, -112398.625, 0.0, 9.997081, 10.00067 
2.6047918e+3, 2.958769e+2, -512708.47, -206192.44, 42482.527, -0.030428229, -0.035093, -200413.4, -160005.02, 0.0, 9.996538, 10.000586 
2.6047412e+3, 3.058789e+2, -464220.47, -64883.03, 33001.566, -0.037705034, 0.07981994, -62174.133, -62174.133, 0.0, 9.996133, 10.001416 
2.6046905e+3, 3.158796e+2, -525497.25, -130771.13, -38354.992, -0.080216885, 0.029766627, -127078.77, -127078.77, 0.0, 9.995868, 10.001092 
2.615661e+3, 1.2594497e+2, -1095340.5, -1667091.4, -1652.8115, 0.037114073, -0.03510174, -1095335.8, 610404.25, 0.030417344, 10.005506, 9.9976845 
2.6156098e+3, 1.3594317e+2, -1073426.4, -1617097.9, -2477.2585, 0.09913822, 0.032963634, -1073415.0, 534342.5, 0.019951902, 10.004962, 9.997609 
2.615558e+3, 1.4594086e+2, -1020091.5, -1491244.8, -368.24966, 0.08765517, 0.032416094, -1020091.2, 489688.28, 0.010310991, 10.00439, 9.9980755 
2.6155058e+3, 1.559383e+2, -1012720.7, -1449892.9, 9630.268, 0.0483607, -0.016488126, -1012508.7, 399294.6, 0.003666302, 10.003792, 9.997974 
2.6154542e+3, 1.6593604e+2, -979298.25, -1364619.4, 47768.05, 0.049269084, -0.032012936, -973464.8, 340360.66, 0.0007060193, 10.00326, 9.998142 
2.615403e+3, 1.7593409e+2, -954488.2, -1308034.1, 43356.29, 0.072980754, -0.024924312, -949248.94, 266596.44, 0.00004826116, 10.002782, 9.998089 
2.6153517e+3, 1.859326e+2, -890564.2, -1160899.8, 30338.607, 0.071041726, 0.003099478, -887201.25, 230659.52, 0.0000003029616, 10.002266, 9.998673 
2.6153e+3, 1.9593155e+2, -875490.56, -1109181.4, 24569.867, 0.052763827, 0.045412287, -872935.25, 146936.61, 0.0, 10.001724, 9.998618 
2.615249e+3, 2.0593014e+2, -819647.2, -967505.06, 36572.94, 0.05106895, 0.028014513, -811095.44, 110790.195, 0.0, 10.00116, 9.999188 
2.615198e+3, 2.1592858e+2, -810371.75, -919719.25, 37425.426, 0.059526876, -0.03111335, -798789.3, 25110.795, 0.0, 10.000583, 9.999123 
2.6151466e+3, 2.259279e+2, -751943.8, -785520.06, 26368.924, 0.054621883, -0.020858843, -737472.4, -11565.22, 0.0, 10.000073, 9.999616 
2.615095e+3, 2.3592795e+2, -724636.0, -727350.4, 17009.55, 0.043408703, 0.036257043, -708929.56, -81021.62, 0.0, 9.999612, 9.999564 
2.6150438e+3, 2.4592769e+2, -658885.2, -575073.5, 18259.852, 0.034679245, 0.03753439, -571268.06, -41357.34, 0.0, 9.99909, 10.000188 
2.614993e+3, 2.5592735e+2, -649921.44, -530077.75, 22169.252, 0.021006376, 0.00004633075, -526108.25, -94194.56, 0.0, 9.998522, 10.000098 
2.6149416e+3, 2.6592755e+2, -607801.7, -433651.47, 12944.997, 0.0052718767, 0.014780514, -432694.5, -98782.13, 0.0, 9.998028, 10.000325 
2.6148903e+3, 2.7592826e+2, -578436.0, -375378.66, 7180.539, 0.0036497463, 0.06572699, -375125.03, -139218.17, 0.0, 9.997584, 10.000267 
2.6148394e+3, 2.859284e+2, -508659.13, -219748.34, 7364.6523, -0.004807631, 0.03902845, -219560.73, -81655.51, 0.0, 9.997083, 10.000905 
2.6147878e+3, 2.9592836e+2, -500401.8, -181282.16, 22568.406, -0.059909694, -0.043833815, -179694.0, -139788.83, 0.0, 9.996537, 10.000758 
2.6147375e+3, 3.0593085e+2, -507565.34, -155832.36, 20404.46, -0.046602644, 0.14799914, -154652.63, -154652.63, 0.0, 9.996134, 10.000793 
2.6146865e+3, 3.1593013e+2, -444900.0, 34311.45, -11229.0205, -0.05534393, 0.006221566, 34574.426, 34574.426, 0.0, 9.995876, 10.002223 
2.625666e+3, 1.2599726e+2, -1101471.6, -1651634.8, 30293.906, 0.015644783, -0.032798775, -1099808.6, 605419.5, 0.027090065, 10.005363, 9.99786 
2.6256144e+3, 1.3599567e+2, -1154861.6, -1638944.6, 28965.35, 0.10557237, 0.03882883, -1153134.6, 454108.88, 0.017621482, 10.004305, 9.997774 
2.625562e+3, 1.4599347e+2, -1099594.3, -1524343.3, 36444.113, 0.09464929, 0.04046649, -1096490.0, 412774.44, 0.008975933, 10.003814, 9.998123 
2.625509e+3, 1.5599096e+2, -1020673.9, -1447158.3, 27700.578, 0.038674932, -0.006984918, -1018882.25, 392405.84, 0.0031105005, 10.003711, 9.99803 
2.625457e+3, 1.6598874e+2, -977457.06, -1351297.4, 53529.566, 0.041667987, -0.025445512, -969943.25, 343366.16, 0.00057273253, 10.003223, 9.99825 
2.6254058e+3, 1.7598684e+2, -992587.44, -1315873.3, 57498.945, 0.08017019, -0.024079807, -982665.4, 232662.73, 0.000036096004, 10.002479, 9.9981785 
2.6253536e+3, 1.8598531e+2, -932646.4, -1192113.4, 56880.688, 0.076228954, 0.00046943262, -920724.7, 196619.3, 0.00000016598092, 10.002028, 9.998572 
2.6253018e+3, 1.9598413e+2, -874115.7, -1118829.6, 52812.313, 0.04460837, 0.04051067, -863204.6, 156152.2, 0.0, 10.001781, 9.998522 
2.62525e+3, 2.0598264e+2, -796428.25, -962816.8, 54856.37, 0.045082964, 0.023783324, -779970.56, 141400.8, 0.0, 10.001351, 9.999126 
2.6251984e+3, 2.1598104e+2, -784103.06, -913679.0, 47243.688, 0.066694945, -0.032823727, -768707.2, 54678.75, 0.0, 10.000795, 9.999059 
2.6251468e+3, 2.259803e+2, -734431.7, -791967.56, 41155.727, 0.06224187, -0.018438812, -712986.2, 12407.56, 0.0, 10.000261, 9.999479 
2.6250947e+3, 2.3598026e+2, -715652.1, -737614.4, 41931.563, 0.04248476, 0.04524057, -683287.6, -55891.766, 0.0, 9.999741, 9.99943 
2.625043e+3, 2.4597988e+2, -646633.06, -584276.94, 36733.89, 0.030725194, 0.04767288, -567273.56, -37873.42, 0.0, 9.999243, 10.00005 
2.6249915e+3, 2.5597936e+2, -624245.1, -531703.56, 24998.61, 0.018225737, 0.0060119755, -525382.4, -93977.47, 0.0, 9.998761, 9.99997 
2.6249397e+3, 2.6597947e+2, -577599.75, -425895.72, 18917.916, 0.0058223573, 0.01934706, -423572.2, -90167.586, 0.0, 9.998267, 10.000262 
2.624888e+3, 2.759801e+2, -558329.06, -372431.53, 26982.672, 0.009965977, 0.07210101, -368594.28, -133194.7, 0.0, 9.997755, 10.000203 
2.6248366e+3, 2.8598025e+2, -488738.1, -218728.05, 17373.791, -0.0017569722, 0.051317956, -217614.72, -80216.48, 0.0, 9.997259, 10.000825 
2.624784e+3, 2.9598016e+2, -471965.44, -175590.28, 8620.306, -0.06827609, -0.025774727, -175339.77, -135941.1, 0.0, 9.996768, 10.000686 
2.6247334e+3, 3.0598247e+2, -484740.78, -147002.77, 27892.24, -0.034120727, 0.15106256, -144714.78, -144714.78, 0.0, 9.996303, 10.0007715 
2.6246822e+3, 3.1598106e+2, -438572.4, 57494.066, 34482.58, -0.0661569, -0.055796415, 59879.55, 59879.55, 0.0, 9.995839, 10.002398 
2.6356715e+3, 1.2605081e+2, -1099562.1, -1636723.8, -9509.493, 0.018461216, 0.013951303, -1099393.8, 605309.7, 0.023910997, 10.005297, 9.997997 
2.6356184e+3, 1.3604867e+2, -1145424.1, -1623542.1, -7919.0195, 0.08130552, 0.016623344, -1145293.0, 461430.53, 0.015415036, 10.0043125, 9.997877 
2.6355654e+3, 1.4604636e+2, -1108666.1, -1549840.4, 31634.818, 0.07491913, 0.011080214, -1106409.4, 402336.9, 0.007730992, 10.003834, 9.99794 
2.6355127e+3, 1.5604402e+2, -1032068.25, -1468752.4, 21245.479, 0.046895664, -0.0003975708, -1031037.0, 379732.4, 0.0026065942, 10.003697, 9.99789 
2.6354602e+3, 1.6604204e+2, -965462.75, -1323807.6, 25552.969, 0.054154225, -0.00086205004, -963649.8, 349138.6, 0.00045817046, 10.003208, 9.998446 
2.635408e+3, 1.760404e+2, -979469.56, -1290903.8, 31124.395, 0.07956821, 0.006085619, -976389.5, 238413.94, 0.000026377018, 10.002486, 9.998348 
2.6353556e+3, 1.860386e+2, -936273.2, -1202980.1, 47345.7, 0.07087707, 0.0015401229, -928117.75, 188703.48, 0.00000008213487, 10.00204, 9.998493 
2.635303e+3, 1.960368e+2, -879426.7, -1131212.0, 42094.445, 0.040957276, -0.011475953, -872575.56, 146264.42, 0.0, 10.001784, 9.998437 
2.6352513e+3, 2.060354e+2, -808667.4, -988956.06, 33767.613, 0.04466465, -0.005452002, -802550.3, 118303.77, 0.0, 10.001351, 9.998948 
2.635199e+3, 2.1603438e+2, -794555.6, -936728.7, 26545.691, 0.07005249, 0.012726021, -789760.9, 33103.156, 0.0, 10.000798, 9.998901 
2.635147e+3, 2.2603354e+2, -734658.25, -793884.56, 21663.172, 0.062098503, 0.024787163, -727580.4, -2707.5066, 0.0, 10.000265, 9.999465 
2.6350942e+3, 2.3603293e+2, -717940.8, -743860.6, 22161.912, 0.03356119, 0.032946423, -705227.6, -78347.66, 0.0, 9.999744, 9.999387 
2.635042e+3, 2.4603231e+2, -670877.56, -636096.9, 18316.77, 0.025574919, 0.034424804, -628230.0, -99343.2, 0.0, 9.999246, 9.999694 
2.63499e+3, 2.5603184e+2, -645175.5, -576736.0, 6652.6665, 0.026397249, 0.03078269, -576095.4, -145202.95, 0.0, 9.998765, 9.9996605 
2.6349378e+3, 2.6603186e+2, -568676.56, -408796.8, -660.52203, 0.0074791056, 0.046896562, -408794.1, -75901.74, 0.0, 9.998271, 10.00038 
2.6348856e+3, 2.7603236e+2, -552554.06, -361989.94, 7530.923, -0.011129945, 0.07307637, -361692.8, -126805.06, 0.0, 9.997759, 10.000275 
2.6348335e+3, 2.8603235e+2, -517582.3, -280025.2, -1722.4196, -0.017754888, 0.056091722, -280012.72, -143124.69, 0.0, 9.997263, 10.000404 
2.634781e+3, 2.9603225e+2, -494683.84, -223958.33, -11012.136, -0.05309923, 0.020489303, -223511.14, -184621.83, 0.0, 9.996771, 10.000354 
2.63473e+3, 3.0603358e+2, -441194.97, -58123.61, 10748.333, 0.00028117673, 0.07651395, -57822.266, -57822.266, 0.0, 9.996305, 10.001382 
2.6346776e+3, 3.1603423e+2, -509268.34, -90318.09, -33528.496, -0.08383564, 0.02567789, -87651.78, -87651.78, 0.0, 9.995837, 10.001386 
2.645676e+3, 1.2610437e+2, -1234542.9, -1700804.9, 6863.446, 0.029215446, 0.018308587, -1234441.8, 469736.7, 0.02090582, 10.004331, 9.998011 
2.6456222e+3, 1.3610211e+2, -1127488.3, -1612243.0, 1485.5494, 0.054537293, 0.009220958, -1127483.8, 478716.03, 0.01334823, 10.004421, 9.997901 
2.6455688e+3, 1.4609988e+2, -1079662.3, -1530078.8, 45430.004, 0.05057937, 0.009072788, -1075125.8, 433096.25, 0.0065833707, 10.004011, 9.997989 
2.645516e+3, 1.5609777e+2, -1089054.8, -1489934.5, 48722.145, 0.052483004, 0.014278576, -1083218.1, 327025.5, 0.0021558236, 10.00328, 9.997944 
2.645463e+3, 1.6609581e+2, -1014225.9, -1337007.1, 53085.75, 0.06238421, 0.010204689, -1005719.4, 306542.63, 0.00036127973, 10.002832, 9.998535 
2.6454103e+3, 1.7609407e+2, -961731.9, -1274011.9, 51257.5, 0.072413884, -0.000015595233, -953533.75, 260743.4, 0.000018812569, 10.002576, 9.998419 
2.6453575e+3, 1.8609224e+2, -922171.1, -1204120.8, 67718.12, 0.06516356, -0.00678522, -906750.2, 209545.06, 0.000000036221024, 10.002175, 9.998418 
2.6453048e+3, 1.9609044e+2, -899551.6, -1148468.1, 61694.723, 0.047923535, -0.012467502, -885099.5, 133214.83, 0.0, 10.001684, 9.998364 
2.6452523e+3, 2.0608898e+2, -834108.44, -1012649.7, 52351.906, 0.051966093, -0.003341438, -819890.1, 100439.16, 0.0, 10.00123, 9.998842 
2.6451996e+3, 2.1608786e+2, -801902.2, -952148.7, 49576.633, 0.06922915, 0.01662339, -787018.0, 35322.344, 0.0, 10.000803, 9.998791 
2.6451468e+3, 2.2608691e+2, -729636.4, -809215.9, 40347.023, 0.0598984, 0.032772712, -712759.5, 11591.019, 0.0, 10.00038, 9.999303 
2.645094e+3, 2.3608616e+2, -697877.06, -750912.4, 29699.154, 0.035188273, 0.044408545, -684579.8, -58220.63, 0.0, 9.999957, 9.999234 
2.6450413e+3, 2.4608545e+2, -646633.44, -635486.2, 30821.678, 0.029593103, 0.046823747, -609738.25, -81371.01, 0.0, 9.999463, 9.999592 
2.644989e+3, 2.5608486e+2, -630784.4, -580310.5, 38058.97, 0.03210083, 0.04467026, -559881.44, -129507.82, 0.0, 9.998913, 9.999563 
2.644936e+3, 2.660848e+2, -548440.06, -410514.4, 30257.76, 0.008794897, 0.0572057, -404168.5, -71793.53, 0.0, 9.998463, 10.000274 
2.6448834e+3, 2.7608505e+2, -512967.34, -353167.84, 20615.936, -0.019336896, 0.07396725, -350551.0, -116178.56, 0.0, 9.998077, 10.00018 
2.6448306e+3, 2.8608507e+2, -493544.38, -272695.06, 14894.5, -0.017948918, 0.0669592, -271695.06, -135322.81, 0.0, 9.997449, 10.000363 
2.644778e+3, 2.960852e+2, -513968.53, -236086.67, 35834.336, -0.029495083, 0.0597429, -231540.05, -193169.11, 0.0, 9.9966545, 10.000324 
2.644726e+3, 3.060857e+2, -425223.3, -38804.81, 60020.797, -0.017186068, 0.029421985, -29696.707, -29696.707, 0.0, 9.996369, 10.001482 
2.6446736e+3, 3.1608775e+2, -470314.6, -119409.67, -59032.9, -0.0755618, 0.1083526, -109744.74, -109744.74, 0.0, 9.996313, 10.000956 
2.6556805e+3, 1.26158e+2, -1237884.4, -1711269.4, 8239.702, 0.04461609, -0.011015503, -1237741.0, 465911.13, 0.018101962, 10.004332, 9.997939 
2.6556265e+3, 1.3615605e+2, -1134376.9, -1620305.0, 817.3722, 0.025459789, 0.015544477, -1134375.5, 471296.03, 0.0114381295, 10.004382, 9.997866 
2.6555726e+3, 1.4615406e+2, -1068910.4, -1501519.8, 17294.47, 0.022447387, 0.030286966, -1068220.1, 439471.38, 0.0055406177, 10.003977, 9.998202 
2.6555192e+3, 1.5615216e+2, -1076129.9, -1462823.6, 22065.51, 0.054913957, 0.036089648, -1074874.9, 334835.94, 0.0017592781, 10.003275, 9.998134 
2.655466e+3, 1.6615005e+2, -1014414.06, -1339303.8, 42424.055, 0.066266865, 0.00956043, -1008965.7, 302764.56, 0.00028103677, 10.002838, 9.998519 
2.6554126e+3, 1.7614794e+2, -963093.3, -1277848.3, 39956.85, 0.059349693, -0.03786371, -958100.2, 255648.61, 0.000013158939, 10.002577, 9.998394 
2.6553595e+3, 1.8614626e+2, -927845.7, -1216488.6, 48817.883, 0.059358057, -0.022831798, -919812.7, 195952.88, 0.000000014940222, 10.002175, 9.998335 
2.6553068e+3, 1.9614497e+2, -904502.1, -1159557.0, 43258.176, 0.064806774, 0.031621322, -897365.1, 120415.12, 0.0, 10.001684, 9.99829 
2.6552537e+3, 2.061433e+2, -837432.94, -1020675.2, 36336.25, 0.0658917, 0.026024874, -830490.6, 89306.625, 0.0, 10.001232, 9.998788 
2.6552004e+3, 2.1614149e+2, -807106.2, -964064.2, 33650.98, 0.06324711, -0.017591365, -800195.9, 21618.803, 0.0, 10.000805, 9.99871 
2.6551473e+3, 2.2614044e+2, -751287.25, -855590.1, 24616.979, 0.05576464, 0.008842018, -745769.25, -21942.768, 0.0, 10.000382, 9.998984 
2.655094e+3, 2.3613997e+2, -715546.4, -789386.0, 13352.184, 0.047306124, 0.07875497, -713206.06, -87372.34, 0.0, 9.999962, 9.998969 
2.655041e+3, 2.4613924e+2, -636140.06, -614988.8, 10002.146, 0.042284723, 0.083471455, -611008.1, -83166.53, 0.0, 9.999466, 9.999732 
2.6549876e+3, 2.5613844e+2, -623670.6, -566655.44, 17837.13, 0.03460091, 0.047105566, -561534.94, -131686.36, 0.0, 9.998915, 9.999657 
2.6549342e+3, 2.661381e+2, -572098.75, -461051.03, 15534.183, 0.009924735, 0.049886625, -458918.9, -127066.28, 0.0, 9.998466, 9.999927 
2.6548812e+3, 2.7613813e+2, -530854.94, -391979.4, 4247.3276, -0.013991779, 0.07469167, -391849.63, -157995.64, 0.0, 9.998081, 9.999913 
2.654828e+3, 2.861384e+2, -468571.97, -221982.36, -15541.8545, -0.0017740539, 0.08413599, -221006.66, -85155.664, 0.0, 9.997451, 10.000712 
2.6547748e+3, 2.9613903e+2, -495390.56, -197712.98, 9940.8955, 0.0017493535, 0.09276012, -197381.38, -159538.14, 0.0, 9.996653, 10.00059 
2.6547214e+3, 3.0613887e+2, -458195.03, -108614.65, 61590.984, -0.092834644, 0.015617541, -98080.63, -98080.63, 0.0, 9.996373, 10.001002 
2.6546702e+3, 3.1614032e+2, -447567.2, -76824.12, -80248.23, -0.028675662, 0.07790199, -60199.656, -60199.656, 0.0, 9.996327, 10.001244 
2.6656842e+3, 1.2621213e+2, -1247515.9, -1699901.5, 13947.34, 0.033528194, -0.0045142644, -1247086.3, 456035.47, 0.015516591, 10.004186, 9.998086 
2.66563e+3, 1.3621013e+2, -1228741.6, -1650714.6, 18040.506, 0.027579091, 0.0031308855, -1227971.8, 377169.53, 0.009694965, 10.003655, 9.998006 
2.665576e+3, 1.4620829e+2, -1157589.8, -1531516.6, 29095.512, 0.025223589, 0.018939115, -1155339.4, 351820.63, 0.0046065245, 10.003308, 9.998317 
2.665522e+3, 1.5620662e+2, -1096264.6, -1459612.3, 27909.441, 0.0514248, 0.03770631, -1094133.4, 315043.97, 0.0014164405, 10.003083, 9.998246 
2.6654685e+3, 1.6620465e+2, -1018888.6, -1334523.9, 53324.34, 0.06072533, 0.016228458, -1010123.3, 301072.3, 0.00021596697, 10.002782, 9.998576 
2.665415e+3, 1.7620258e+2, -980584.0, -1279843.5, 54473.48, 0.054085113, -0.030809255, -970976.75, 242236.88, 0.000009125485, 10.002434, 9.998446 
2.6653615e+3, 1.862009e+2, -949910.9, -1226127.1, 63088.688, 0.055486053, -0.019196719, -936183.44, 179047.05, 0.000000005798, 10.002023, 9.99834 
2.665308e+3, 1.9619955e+2, -920235.56, -1166985.8, 63230.8, 0.063503325, 0.03009009, -904976.06, 112269.53, 0.0, 10.001579, 9.998287 
2.6652548e+3, 2.0619789e+2, -846487.9, -1031504.5, 60600.117, 0.0673496, 0.029374113, -828406.1, 90856.39, 0.0, 10.001202, 9.998726 
2.665201e+3, 2.1619612e+2, -803578.1, -969868.3, 56415.574, 0.067633785, -0.0043399655, -786245.25, 35034.504, 0.0, 10.000865, 9.998638 
2.6651475e+3, 2.2619489e+2, -752228.8, -874254.6, 51979.348, 0.05968398, 0.0164548, -733089.2, -9795.735, 0.0, 10.000458, 9.998818 
2.6650938e+3, 2.3619409e+2, -719895.1, -807351.2, 51694.758, 0.048996817, 0.072349384, -695914.3, -70610.445, 0.0, 10.000005, 9.998823 
2.6650402e+3, 2.461933e+2, -624611.9, -614343.06, 42135.543, 0.04372523, 0.081336506, -577030.25, -49718.09, 0.0, 9.99957, 9.999685 
2.6649866e+3, 2.5619262e+2, -593809.5, -558074.25, 35717.234, 0.03671475, 0.059972454, -536004.75, -106686.59, 0.0, 9.999147, 9.999602 
2.664933e+3, 2.6619214e+2, -556458.0, -467701.8, 37583.945, 0.013508258, 0.05985156, -453925.22, -122601.57, 0.0, 9.998637, 9.999797 
2.6648793e+3, 2.761919e+2, -541537.06, -408453.7, 41565.19, -0.006602833, 0.07064318, -396538.63, -163210.56, 0.0, 9.998061, 9.999808 
2.6648253e+3, 2.8619224e+2, -444620.5, -204159.83, 9309.316, 0.0030264475, 0.08891642, -203799.95, -68475.59, 0.0, 9.997591, 10.000766 
2.6647714e+3, 2.9619312e+2, -417376.7, -156591.06, 13400.792, -0.0037246721, 0.11942527, -155904.25, -118590.586, 0.0, 9.997175, 10.00062 
2.6647177e+3, 3.0619255e+2, -461321.06, -142982.78, 72233.86, -0.08876974, 0.01300164, -127359.05, -127359.05, 0.0, 9.996495, 10.000706 
2.6646665e+3, 3.1619373e+2, -494073.1, -46738.34, -55016.31, 0.007965733, 0.07547147, -40071.414, -40071.414, 0.0, 9.995787, 10.001709 
2.675688e+3, 1.2626678e+2, -1229956.8, -1659526.1, -6010.033, 0.0015289438, 0.029781833, -1229872.8, 472714.3, 0.013151857, 10.004156, 9.998382 
2.675634e+3, 1.3626444e+2, -1211298.4, -1614010.4, -1265.3652, 0.05388344, -0.024413133, -1211294.4, 393314.06, 0.008118721, 10.003647, 9.998264 
2.6755795e+3, 1.4626262e+2, -1155563.5, -1527825.4, 19807.979, 0.05169457, -0.018502414, -1154512.5, 352114.38, 0.0037794863, 10.003305, 9.998345 
2.6755252e+3, 1.5626122e+2, -1093979.0, -1454131.0, 18720.344, 0.04258959, 0.022482052, -1093008.5, 315633.8, 0.001124514, 10.003077, 9.998288 
2.675471e+3, 1.6625962e+2, -1012606.94, -1319783.4, 40069.3, 0.047624692, 0.029288959, -1007466.2, 303191.47, 0.00016407586, 10.002771, 9.998684 
2.6754174e+3, 1.7625798e+2, -974902.5, -1265662.1, 40331.207, 0.055466462, 0.014787236, -969411.9, 243259.94, 0.0000063491566, 10.00242, 9.998552 
2.6753634e+3, 1.8625613e+2, -945702.6, -1216790.5, 45879.73, 0.05265353, 0.00092749705, -938148.3, 176541.75, 0.0000000017280947, 10.002018, 9.998408 
2.6753092e+3, 1.9625422e+2, -915896.44, -1159698.1, 46813.094, 0.0449749, -0.01177953, -907216.7, 109493.14, 0.0, 10.001584, 9.998337 
2.6752555e+3, 2.0625278e+2, -851385.7, -1043571.9, 47774.168, 0.057758816, 0.01046001, -840165.0, 78559.88, 0.0, 10.001206, 9.998642 
2.675202e+3, 2.1625167e+2, -808269.5, -980697.06, 42954.86, 0.08204588, 0.052639317, -798161.25, 22574.865, 0.0, 10.000867, 9.998565 
2.675148e+3, 2.2625017e+2, -753655.9, -878106.3, 34762.88, 0.07070694, 0.05216128, -744603.94, -21851.998, 0.0, 10.000459, 9.998793 
2.6750934e+3, 2.3624854e+2, -722539.8, -813997.1, 34599.523, 0.039737202, 0.025938768, -710925.3, -86155.8, 0.0, 10.000007, 9.998777 
2.6750395e+3, 2.4624766e+2, -641434.8, -650707.8, 26150.846, 0.03430811, 0.042030312, -619512.6, -92733.64, 0.0, 9.999574, 9.999435 
2.6749855e+3, 2.5624737e+2, -607521.8, -588322.1, 19144.44, 0.03816382, 0.08452681, -576505.5, -147723.13, 0.0, 9.999152, 9.999394 
2.6749313e+3, 2.6624689e+2, -550078.9, -455646.88, 15610.647, 0.019030342, 0.08749177, -453133.2, -122345.13, 0.0, 9.998639, 9.99988 
2.6748773e+3, 2.7624634e+2, -538383.1, -402646.34, 20549.605, 0.0021094584, 0.061837796, -399603.47, -166808.88, 0.0, 9.998061, 9.999849 
2.674823e+3, 2.8624654e+2, -463128.75, -244001.4, -6159.6963, -0.004668073, 0.08010435, -243828.39, -109035.8, 0.0, 9.997594, 10.000492 
2.674768e+3, 2.9624742e+2, -431643.1, -189284.39, -4458.571, -0.048290797, 0.13694103, -189202.39, -152419.45, 0.0, 9.997186, 10.000392 
2.6747152e+3, 3.0624664e+2, -468158.16, -158082.56, 39429.555, 0.00558416, 0.02467685, -153147.2, -153147.2, 0.0, 9.996495, 10.000604 
2.6746616e+3, 3.1624788e+2, -451689.8, 47175.367, -61456.99, -0.03984308, 0.10274501, 54634.93, 54634.93, 0.0, 9.995762, 10.002365 
2.685692e+3, 1.2632164e+2, -1295927.0, -1676871.8, 15495.054, 0.0058345227, 0.037059896, -1295297.8, 406752.28, 0.010999811, 10.003628, 9.998514 
2.6856375e+3, 1.363194e+2, -1246270.1, -1614850.1, 11492.307, 0.05361666, -0.021422405, -1245912.1, 358158.34, 0.006702583, 10.003333, 9.998407 
2.6855826e+3, 1.4631772e+2, -1181899.6, -1521646.3, 38922.875, 0.049025025, -0.015611775, -1177497.5, 328589.63, 0.003053766, 10.003044, 9.998511 
2.6855278e+3, 1.563165e+2, -1129199.0, -1454471.4, 45218.4, 0.038361568, 0.028234156, -1123029.9, 285070.53, 0.00087887415, 10.002766, 9.998434 
2.6854733e+3, 1.6631493e+2, -1068154.3, -1346926.3, 60415.484, 0.044481333, 0.032675255, -1055624.3, 254491.39, 0.00012313991, 10.002394, 9.998677 
2.6854193e+3, 1.7631324e+2, -1038941.44, -1295055.6, 53244.383, 0.055391386, 0.01344365, -1028313.4, 183817.6, 0.0000044684857, 10.001977, 9.998562 
2.685365e+3, 1.8631153e+2, -977112.06, -1217678.3, 61378.54, 0.05171988, 0.006364873, -962356.8, 151791.06, 0.0000000002885943, 10.001744, 9.998531 
2.6853108e+3, 1.9630988e+2, -904002.5, -1142594.0, 64499.78, 0.041002538, 0.005698336, -887682.25, 128482.72, 0.0, 10.001621, 9.998434 
2.6852566e+3, 2.0630836e+2, -852311.4, -1055356.0, 60884.76, 0.05445635, 0.024299202, -835454.06, 82726.4, 0.0, 10.001253, 9.998537 
2.6852027e+3, 2.1630704e+2, -833182.6, -1002173.06, 55014.8, 0.08143451, 0.055281673, -816850.9, 3343.133, 0.0, 10.00074, 9.998476 
2.685148e+3, 2.2630545e+2, -761958.9, -882263.94, 49503.63, 0.07015667, 0.049972672, -744208.0, -21997.438, 0.0, 10.000406, 9.998788 
2.6850936e+3, 2.3630379e+2, -698869.3, -803548.06, 49595.855, 0.0383996, 0.021355087, -679103.5, -54875.39, 0.0, 10.000176, 9.998766 
2.685039e+3, 2.4630289e+2, -620673.3, -650072.0, 44158.418, 0.03339228, 0.041096743, -588831.94, -62594.08, 0.0, 9.99976, 9.999349 
2.6849845e+3, 2.563026e+2, -603626.44, -594865.8, 48915.152, 0.038372524, 0.0915208, -550135.25, -121893.5, 0.0, 9.99922, 9.999314 
2.68493e+3, 2.6630205e+2, -541253.94, -456601.0, 41772.77, 0.02131614, 0.098111086, -439459.03, -109211.16, 0.0, 9.998726, 9.999829 
2.684875e+3, 2.7630147e+2, -513320.7, -395186.38, 36832.137, 0.007646761, 0.073458314, -384643.66, -152388.9, 0.0, 9.998257, 9.999805 
2.6848203e+3, 2.863015e+2, -438979.5, -238942.84, 19395.191, -0.0050378037, 0.07757917, -237079.69, -102824.93, 0.0, 9.997792, 10.000429 
2.684765e+3, 2.9630205e+2, -417378.63, -191544.7, 34368.19, -0.06129435, 0.111346625, -186430.25, -150181.95, 0.0, 9.997327, 10.000307 
2.6847118e+3, 3.063019e+2, -471934.38, -181531.23, 60949.22, 0.039096486, 0.074518874, -169258.03, -169258.03, 0.0, 9.996566, 10.000407 
2.6846567e+3, 3.1630272e+2, -453623.84, 89724.14, -31941.17, -0.081011474, 0.12490918, 91595.38, 91595.38, 0.0, 9.995565, 10.00275 
2.6956955e+3, 1.263768e+2, -1294566.1, -1675333.1, 4080.3945, 0.036160924, 0.024179047, -1294522.4, 406987.7, 0.009050575, 10.003625, 9.998527 
2.6956403e+3, 1.3637495e+2, -1241624.8, -1607128.4, 169.79823, 0.031767253, 0.005356581, -1241624.8, 361902.53, 0.005437947, 10.003335, 9.998461 
2.6955852e+3, 1.4637354e+2, -1163854.1, -1484275.6, 27933.838, 0.02328441, 0.01893003, -1161437.3, 344103.8, 0.0024217763, 10.003039, 9.998772 
2.6955307e+3, 1.5637247e+2, -1116094.4, -1424707.8, 33015.93, 0.03757157, 0.051187802, -1112601.9, 294950.0, 0.00067408517, 10.002751, 9.998647 
2.6954758e+3, 1.6637063e+2, -1076825.0, -1364060.5, 43874.824, 0.04906254, 0.027790334, -1070272.6, 239296.84, 0.00009101029, 10.002388, 9.998564 
2.6954213e+3, 1.7636847e+2, -1043225.2, -1306255.4, 38916.316, 0.05346374, -0.027953265, -1037588.1, 174002.06, 0.0000031725767, 10.001985, 9.998483 
2.6953667e+3, 1.8636715e+2, -965225.06, -1194584.1, 56679.37, 0.05253057, 0.00000016721738, -951983.0, 161620.44, 0.000000000007316074, 10.001748, 9.99869 
2.6953122e+3, 1.9636643e+2, -896078.4, -1125228.8, 57155.293, 0.05021361, 0.07581971, -882613.7, 132997.75, 0.0, 10.001615, 9.998558 
2.6952577e+3, 2.0636462e+2, -861833.8, -1074528.8, 41045.56, 0.056408294, 0.06616902, -854187.75, 63441.996, 0.0, 10.001248, 9.998409 
2.695203e+3, 2.1636225e+2, -840380.3, -1017993.9, 37244.043, 0.06602062, 0.006964674, -832886.7, -13233.565, 0.0, 10.000742, 9.998368 
2.6951483e+3, 2.2636075e+2, -761545.44, -882999.94, 41168.824, 0.058949266, 0.013702996, -748906.0, -27236.938, 0.0, 10.00041, 9.998781 
2.6950938e+3, 2.3635982e+2, -697400.44, -802085.1, 39351.977, 0.04437347, 0.058803927, -684257.7, -60577.99, 0.0, 10.00018, 9.9987755 
2.695039e+3, 2.4635895e+2, -615284.06, -639952.3, 23614.834, 0.040135674, 0.07702333, -600976.25, -75287.28, 0.0, 9.999762, 9.999418 
2.6949838e+3, 2.563582e+2, -600803.0, -589918.6, 28929.178, 0.03682571, 0.079539835, -565924.2, -138227.61, 0.0, 9.999221, 9.99935 
2.6949283e+3, 2.6635766e+2, -554848.94, -485933.88, 23976.283, 0.02055482, 0.09156138, -478413.03, -148709.83, 0.0, 9.998728, 9.999628 
2.6948732e+3, 2.7635726e+2, -522537.16, -415706.0, 18878.463, 0.01009566, 0.10681702, -412468.1, -180759.61, 0.0, 9.99826, 9.999664 
2.694818e+3, 2.8635702e+2, -427781.22, -217041.38, 1875.8495, 0.0021578427, 0.081029415, -217024.69, -83313.79, 0.0, 9.997795, 10.00058 
2.6947623e+3, 2.96357e+2, -413284.78, -184117.55, 15494.904, -0.042049546, 0.039755054, -183074.61, -147364.75, 0.0, 9.997328, 10.000359 
2.6947078e+3, 3.063583e+2, -494134.38, -227670.44, 24327.025, 0.0035135609, 0.1695474, -225467.69, -225467.69, 0.0, 9.996564, 10.0000925 
2.6946524e+3, 3.1635767e+2, -457444.7, 79839.28, -58601.6, -0.062001053, 0.10277924, 86156.68, 86156.68, 0.0, 9.995565, 10.0026865 
2.7056992e+3, 1.264326e+2, -1331628.3, -1695671.4, 30454.41, 0.063499525, 0.029663378, -1329098.1, 371865.44, 0.007298209, 10.003375, 9.998506 
2.7056432e+3, 1.3643079e+2, -1268901.0, -1619157.6, 23057.773, 0.022492409, 0.014650781, -1267389.6, 335591.56, 0.004317832, 10.00314, 9.99847 
2.7055877e+3, 1.4642945e+2, -1192540.8, -1479996.5, 41985.85, 0.011465459, 0.026865799, -1186533.9, 318460.16, 0.0018762036, 10.002766, 9.998932 
2.705533e+3, 1.5642847e+2, -1168615.9, -1433439.8, 41070.85, 0.04338307, 0.053618412, -1162392.5, 244610.72, 0.0005048651, 10.002321, 9.998792 
2.7054778e+3, 1.6642673e+2, -1116783.4, -1377004.5, 59992.11, 0.054619376, 0.030850789, -1103618.6, 205401.2, 0.000065794164, 10.0020895, 9.998616 
2.705423e+3, 1.7642465e+2, -1040675.7, -1299779.0, 64990.07, 0.048675876, -0.0205389, -1025288.25, 185751.66, 0.0000022107067, 10.001984, 9.998526 
2.705368e+3, 1.8642332e+2, -981179.44, -1205656.6, 76943.94, 0.05240967, 0.0035907752, -957337.6, 155716.03, 0.0, 10.0016575, 9.998655 
2.705314e+3, 1.9642247e+2, -956515.1, -1155989.5, 64166.953, 0.06319615, 0.0718572, -937656.8, 77406.0, 0.0, 10.001209, 9.99854 
2.7052587e+3, 2.0642072e+2, -898502.25, -1084186.4, 50671.89, 0.06351079, 0.06525131, -885574.3, 31506.22, 0.0, 10.000965, 9.998477 
2.7052036e+3, 2.164185e+2, -822480.44, -1002729.6, 59338.324, 0.056746475, 0.01389345, -804700.06, 14402.499, 0.0, 10.000839, 9.998425 
2.7051488e+3, 2.2641699e+2, -751298.5, -881660.06, 65737.49, 0.05068401, 0.021964423, -723905.25, -2786.91, 0.0, 10.0005, 9.998746 
2.7050936e+3, 2.3641601e+2, -720750.6, -815713.1, 61562.918, 0.047593735, 0.065675266, -690485.75, -67356.33, 0.0, 10.000034, 9.998751 
2.7050382e+3, 2.4641512e+2, -626813.0, -646328.8, 38861.227, 0.043631546, 0.084046826, -596503.3, -71364.336, 0.0, 9.99969, 9.999407 
2.7049828e+3, 2.5641438e+2, -573761.5, -577393.0, 37423.652, 0.033739198, 0.08695033, -538109.56, -110962.664, 0.0, 9.999413, 9.999341 
2.704927e+3, 2.664138e+2, -524527.44, -473814.88, 34699.582, 0.013520258, 0.09900436, -456194.4, -127040.695, 0.0, 9.998951, 9.999602 
2.7048713e+3, 2.7641338e+2, -508159.25, -411308.22, 42382.92, 0.001987398, 0.11460119, -395380.47, -164221.42, 0.0, 9.998373, 9.999638 
2.704816e+3, 2.8641307e+2, -416129.3, -218036.03, 22010.133, -0.00077656435, 0.08869898, -215619.95, -82457.88, 0.0, 9.997908, 10.000517 
2.7047595e+3, 2.96413e+2, -392047.2, -179934.23, 17535.055, -0.038320154, 0.045845296, -178494.42, -143332.36, 0.0, 9.997504, 10.0003 
2.704704e+3, 3.064144e+2, -476224.13, -222395.08, 15685.808, -0.014631194, 0.19134758, -221429.42, -221429.42, 0.0, 9.996705, 10.000058 
2.704648e+3, 3.1641304e+2, -443149.25, 77751.16, -9923.504, -0.03799704, 0.055510417, 77940.13, 77940.13, 0.0, 9.995707, 10.002602 
2.7157027e+3, 1.2648903e+2, -1335478.1, -1704670.1, 20789.424, 0.08801862, 0.048324864, -1334311.1, 366099.88, 0.005742006, 10.003372, 9.9984455 
2.7156463e+3, 1.3648692e+2, -1273135.6, -1625953.9, 13026.934, 0.022348516, 0.010502179, -1272655.3, 329776.63, 0.003338426, 10.003126, 9.998432 
2.7155903e+3, 1.4648552e+2, -1188268.4, -1470459.0, 25155.502, 0.010376175, 0.0138756195, -1186043.5, 318401.88, 0.0014115452, 10.002759, 9.9990015 
2.7155352e+3, 1.564846e+2, -1161308.9, -1420678.9, 26017.904, 0.054265298, 0.039064746, -1158724.8, 247729.08, 0.00036674927, 10.002329, 9.998878 
2.7154797e+3, 1.6648325e+2, -1103443.3, -1350889.6, 55848.844, 0.060820326, 0.04076707, -1091422.1, 217044.4, 0.000045955265, 10.002094, 9.9987955 
2.7154246e+3, 1.7648174e+2, -1032732.3, -1281952.5, 58606.69, 0.041371085, 0.028369173, -1019638.3, 190842.55, 0.000001439657, 10.001976, 9.998653 
2.7153698e+3, 1.8647996e+2, -996340.3, -1236483.4, 59839.348, 0.051456474, 0.01456282, -982255.56, 130243.28, 0.0, 10.001652, 9.998447 
2.715315e+3, 1.9647808e+2, -965878.06, -1176852.9, 49519.32, 0.07894157, 0.0015267899, -954833.25, 59684.69, 0.0, 10.001213, 9.998397 
2.7152598e+3, 2.0647673e+2, -881720.9, -1051088.0, 46557.11, 0.07502459, 0.027425466, -869766.6, 46765.43, 0.0, 10.00097, 9.998703 
2.7152044e+3, 2.1647573e+2, -808944.75, -975473.75, 52774.773, 0.052580122, 0.07363682, -793628.56, 24914.115, 0.0, 10.00084, 9.998612 
2.715149e+3, 2.2647415e+2, -755563.4, -891123.9, 47995.316, 0.044817585, 0.07097748, -740291.2, -19732.268, 0.0, 10.0005, 9.998682 
2.7150935e+3, 2.3647237e+2, -725068.2, -825429.25, 45003.383, 0.0479983, 0.041136336, -707844.06, -85266.68, 0.0, 10.000035, 9.998685 
2.7150378e+3, 2.4647143e+2, -633769.4, -661933.44, 28632.234, 0.044079427, 0.06324628, -615943.6, -91355.766, 0.0, 9.999692, 9.999299 
2.714982e+3, 2.564711e+2, -577145.2, -586057.2, 25518.813, 0.02848442, 0.11550269, -555696.25, -129103.45, 0.0, 9.999417, 9.999281 
2.7149257e+3, 2.664705e+2, -513861.47, -452874.25, 12710.806, -0.000589317, 0.120387316, -450331.16, -121731.64, 0.0, 9.998954, 9.999746 
2.7148694e+3, 2.7646983e+2, -502627.2, -400662.38, 21406.342, -0.0181159, 0.09514277, -396350.7, -165744.0, 0.0, 9.998374, 9.999712 
2.7148134e+3, 2.864697e+2, -437218.34, -262770.97, 6668.931, -0.014886519, 0.102477826, -262516.4, -129908.125, 0.0, 9.997909, 10.000211 
2.7147567e+3, 2.964701e+2, -404776.53, -207288.2, -933.5416, -0.051125206, 0.13718702, -207283.78, -172679.14, 0.0, 9.997505, 10.0001135 
2.7147007e+3, 3.0646998e+2, -457454.16, -183719.03, -25049.771, -0.011954928, 0.12415722, -181445.58, -181445.58, 0.0, 9.996703, 10.000326 
2.7146435e+3, 3.1646985e+2, -449309.53, 63399.688, 20020.994, -0.041232172, 0.087407604, 64180.305, 64180.305, 0.0, 9.995712, 10.0025015 
2.7257058e+3, 1.2654568e+2, -1366787.0, -1703606.1, 33803.85, 0.079714775, 0.05772332, -1363427.9, 336429.13, 0.0043838783, 10.003083, 9.998591 
2.7256492e+3, 1.365438e+2, -1328292.0, -1637987.4, 38642.324, 0.042012434, 0.028792538, -1323543.3, 278332.16, 0.0024980176, 10.002684, 9.998561 
2.7255931e+3, 1.4654237e+2, -1235948.0, -1492232.6, 54095.586, 0.02816462, 0.02460726, -1224997.6, 278891.3, 0.0010239561, 10.002429, 9.999009 
2.7255374e+3, 1.5654129e+2, -1169046.6, -1421271.5, 50819.254, 0.05414834, 0.0335905, -1159192.4, 246706.67, 0.00025607477, 10.002265, 9.998902 
2.7254817e+3, 1.6654007e+2, -1114587.3, -1344663.0, 77044.15, 0.061354253, 0.041347038, -1091171.1, 216739.34, 0.000030382742, 10.00197, 9.998896 
2.7254263e+3, 1.7653885e+2, -1079264.6, -1293124.1, 74211.48, 0.052706987, 0.04777873, -1056035.5, 153886.47, 0.0000008235445, 10.00161, 9.998751 
2.725371e+3, 1.8653706e+2, -1029154.6, -1243273.4, 84108.25, 0.057771865, 0.027457504, -1000067.3, 111872.25, 0.0, 10.001391, 9.998525 
2.725316e+3, 1.9653507e+2, -955494.1, -1164029.4, 92370.555, 0.07215851, -0.007432682, -920463.3, 93496.445, 0.0, 10.001254, 9.998462 
2.7252606e+3, 2.0653373e+2, -881140.25, -1052259.3, 87195.12, 0.070411295, 0.020781957, -844538.3, 71435.336, 0.0, 10.000984, 9.998687 
2.7252048e+3, 2.1653289e+2, -837931.94, -987883.3, 76119.3, 0.05840106, 0.08440991, -806064.3, 11918.981, 0.0, 10.000638, 9.998623 
2.725149e+3, 2.2653139e+2, -766869.1, -881525.75, 70112.71, 0.04791471, 0.08166191, -733630.75, -13632.207, 0.0, 10.0003605, 9.998814 
2.7250934e+3, 2.3652962e+2, -706031.9, -804747.3, 80666.34, 0.041532107, 0.04092707, -660820.9, -38804.492, 0.0, 10.00012, 9.998784 
2.7250373e+3, 2.4652864e+2, -631961.5, -672978.6, 69018.97, 0.03759155, 0.060984366, -580468.56, -56441.113, 0.0, 9.99976, 9.999189 
2.7249813e+3, 2.565282e+2, -596468.25, -604351.7, 64457.867, 0.027302781, 0.116626754, -535831.7, -109798.0, 0.0, 9.999327, 9.999197 
2.7249247e+3, 2.6652765e+2, -514150.56, -449219.7, 41229.434, -0.0005596848, 0.12636833, -429207.8, -101167.44, 0.0, 9.9989395, 9.999776 
2.7248678e+3, 2.7652705e+2, -473312.34, -384479.28, 41354.57, -0.018314155, 0.10585534, -368207.84, -138160.97, 0.0, 9.998571, 9.999725 
2.724811e+3, 2.8652695e+2, -422464.53, -269360.22, 31800.96, -0.026058823, 0.123894565, -263017.7, -130969.516, 0.0, 9.998074, 10.000084 
2.724754e+3, 2.9652736e+2, -415025.3, -220767.78, 35259.27, -0.079876274, 0.17425387, -214565.94, -180521.52, 0.0, 9.997476, 10.000033 
2.724698e+3, 3.0652648e+2, -400469.75, -137149.25, 1305.9767, 0.03942961, 0.077997044, -137142.77, -137142.77, 0.0, 9.997015, 10.000495 
2.7246392e+3, 3.165274e+2, -345581.88, 72643.59, 33235.285, -0.08076799, 0.13274293, 75268.24, 75268.24, 0.0, 9.996604, 10.002132 
2.7357084e+3, 1.266026e+2, -1338506.9, -1656935.0, 20035.922, 0.046822302, 0.060871407, -1337251.1, 362049.56, 0.0032259568, 10.003131, 9.99889 
2.735652e+3, 1.3660134e+2, -1309830.8, -1601685.9, 24480.33, 0.0772645, 0.06426805, -1307791.6, 293520.53, 0.0017950783, 10.002689, 9.998809 
2.7355954e+3, 1.4659993e+2, -1239657.0, -1500476.6, 47277.402, 0.060281612, 0.05358576, -1231351.8, 271973.72, 0.0007098735, 10.002427, 9.998955 
2.7355394e+3, 1.5659852e+2, -1170939.4, -1426574.8, 43032.414, 0.04436451, 0.035456207, -1163889.9, 241448.97, 0.00016963587, 10.002269, 9.998865 
2.7354833e+3, 1.6659722e+2, -1112321.1, -1341029.4, 63159.527, 0.0572707, 0.034136854, -1096038.4, 211313.11, 0.000018432016, 10.001973, 9.99892 
2.7354282e+3, 1.7659605e+2, -1074198.4, -1283181.5, 62033.996, 0.07963923, 0.04210268, -1057171.6, 152191.16, 0.00000037747915, 10.001611, 9.99882 
2.7353725e+3, 1.8659468e+2, -1007128.7, -1198220.6, 79037.24, 0.06968486, 0.04297371, -978675.0, 132700.8, 0.0, 10.001391, 9.998835 
2.7353168e+3, 1.965933e+2, -939241.06, -1130925.6, 85422.75, 0.04467273, 0.038923167, -906698.0, 106691.125, 0.0, 10.001255, 9.998691 
2.7352613e+3, 2.0659167e+2, -897562.8, -1087090.6, 73891.33, 0.051603943, 0.04113611, -872159.6, 43246.484, 0.0, 10.000985, 9.998448 
2.7352056e+3, 2.1659002e+2, -848192.4, -1009863.6, 64072.645, 0.07381103, 0.047874227, -825879.06, -8454.912, 0.0, 10.000639, 9.998473 
2.7351496e+3, 2.2658874e+2, -745458.25, -838054.9, 61575.688, 0.059085958, 0.05705532, -714716.94, 4719.9863, 0.0, 10.000363, 9.999112 
2.7350932e+3, 2.3658776e+2, -688526.75, -769689.8, 70458.4, 0.027118078, 0.066562966, -647798.75, -26352.455, 0.0, 10.000123, 9.999024 
2.735037e+3, 2.4658673e+2, -639996.1, -690687.56, 52499.723, 0.024007704, 0.0766437, -607044.06, -83586.21, 0.0, 9.999762, 9.999068 
2.7349806e+3, 2.5658575e+2, -604604.3, -622012.56, 48432.676, 0.0301005, 0.08890501, -564099.9, -138630.08, 0.0, 9.999328, 9.999077 
2.7349234e+3, 2.6658523e+2, -521133.44, -464321.3, 27413.424, 0.014043001, 0.11706923, -453250.78, -125774.47, 0.0, 9.9989395, 9.999673 
2.7348664e+3, 2.7658507e+2, -477041.94, -393340.6, 26694.018, 0.0023489885, 0.14904326, -385552.06, -156072.58, 0.0, 9.998574, 9.999664 
2.734809e+3, 2.8658482e+2, -418090.2, -261229.14, 9392.796, -0.033950157, 0.15235953, -260668.72, -129186.92, 0.0, 9.998075, 10.00014 
2.7347508e+3, 2.9658478e+2, -413712.34, -217882.95, 13152.198, -0.12577765, 0.15130922, -217003.6, -183521.89, 0.0, 9.997473, 10.000056 
2.7346957e+3, 3.0658397e+2, -396631.88, -131494.98, -10686.035, 0.14124247, 0.05950544, -131064.984, -131064.984, 0.0, 9.997022, 10.000532 
2.7346352e+3, 3.1658518e+2, -396656.53, -37360.676, -77374.234, -0.12934454, 0.14153835, -21406.582, -21406.582, 0.0, 9.996617, 10.001372 
2.7457118e+3, 1.2666033e+2, -1295833.3, -1642269.4, 43729.375, 0.06487468, 0.069547124, -1290398.8, 408337.4, 0.002268732, 10.0034485, 9.998837 
2.7456546e+3, 1.3665912e+2, -1338284.5, -1619401.5, 30469.135, 0.08576093, 0.082905166, -1335020.0, 265727.34, 0.0012267797, 10.002511, 9.998772 
2.7455977e+3, 1.4665766e+2, -1280553.9, -1521725.6, 66478.6, 0.06711015, 0.07073752, -1263443.1, 239318.0, 0.00046495322, 10.002155, 9.998939 
2.7455416e+3, 1.5665616e+2, -1192019.5, -1434610.0, 62507.344, 0.053834364, 0.04491261, -1176860.6, 227914.92, 0.00010455116, 10.002117, 9.998882 
2.7454853e+3, 1.6665496e+2, -1119404.1, -1325788.0, 80147.12, 0.06376992, 0.043507084, -1091935.8, 214851.33, 0.000009845442, 10.001847, 9.999084 
2.7454296e+3, 1.7665397e+2, -1085442.1, -1270995.1, 89115.43, 0.08082043, 0.05528952, -1049575.5, 159220.66, 0.00000012200492, 10.001461, 9.998974 
2.7453735e+3, 1.866527e+2, -1023910.06, -1196894.8, 106881.49, 0.071825996, 0.056746837, -972908.44, 137899.45, 0.0, 10.00124, 9.998916 
2.7453178e+3, 1.966514e+2, -954395.56, -1127578.8, 96761.81, 0.05050114, 0.052578684, -911137.44, 101682.93, 0.0, 10.001107, 9.998783 
2.745262e+3, 2.0664982e+2, -901950.5, -1073514.5, 91031.27, 0.056403518, 0.047756463, -862651.5, 52185.098, 0.0, 10.00089, 9.998586 
2.745206e+3, 2.1664818e+2, -841461.06, -992862.4, 106584.25, 0.07565823, 0.042644195, -786429.94, 30424.318, 0.0, 10.000629, 9.998592 
2.7451497e+3, 2.26647e+2, -749098.44, -839448.6, 100280.26, 0.05995092, 0.056699265, -684287.56, 34578.68, 0.0, 10.0003395, 9.999112 
2.745093e+3, 2.3664618e+2, -700317.25, -772771.8, 87030.13, 0.028321728, 0.0807019, -642275.44, -21401.004, 0.0, 10.000034, 9.999044 
2.7450365e+3, 2.4664512e+2, -642285.9, -681412.5, 67313.766, 0.0250457, 0.08499704, -591750.25, -68864.44, 0.0, 9.999705, 9.999157 
2.7449796e+3, 2.5664404e+2, -596221.9, -610661.94, 78817.29, 0.030614741, 0.08003065, -524294.6, -99396.5, 0.0, 9.999358, 9.999137 
2.7449223e+3, 2.6664355e+2, -516434.56, -474425.6, 64065.7, 0.013350939, 0.11244429, -428008.97, -101104.1, 0.0, 9.99903, 9.999558 
2.7448648e+3, 2.7664343e+2, -465796.66, -398511.88, 60462.13, 0.0006780191, 0.16131821, -362962.66, -134054.53, 0.0, 9.9987, 9.999566 
2.744807e+3, 2.8664303e+2, -393769.25, -253541.31, 30243.744, -0.02987919, 0.15625237, -247296.56, -116384.38, 0.0, 9.998263, 10.0001 
2.7447483e+3, 2.966427e+2, -372304.06, -201333.4, 27782.086, -0.11267948, 0.13154344, -196932.22, -164017.27, 0.0, 9.997776, 10.000021 
2.7446926e+3, 3.0664262e+2, -347880.06, -109946.66, 5189.4614, 0.13130322, 0.11379764, -109833.52, -109833.52, 0.0, 9.997369, 10.000511 
2.7446318e+3, 3.1664345e+2, -367131.06, -63390.12, -74562.94, -0.13052313, 0.16507766, -46073.5, -46073.5, 0.0, 9.996997, 10.001009 
2.7557155e+3, 1.2671873e+2, -1323370.6, -1692070.5, 6696.8584, 0.12011245, 0.082079224, -1323249.0, 374915.34, 0.0015085685, 10.003413, 9.998512 
2.7556568e+3, 1.3671713e+2, -1349020.4, -1654261.0, 1527.0383, 0.071857944, 0.088896506, -1349012.8, 251167.34, 0.00078770553, 10.0025625, 9.998509 
2.7555996e+3, 1.4671561e+2, -1273844.4, -1518264.6, 66089.23, 0.054009233, 0.07911963, -1257119.0, 245076.14, 0.0002834328, 10.002197, 9.998943 
2.7555436e+3, 1.5671419e+2, -1189605.1, -1427675.0, 59268.953, 0.07910641, 0.060606442, -1175665.9, 228542.97, 0.000058262318, 10.002107, 9.998936 
2.755487e+3, 1.6671322e+2, -1101918.5, -1287319.5, 65436.74, 0.07843776, 0.06651353, -1081149.4, 225068.0, 0.0000044041435, 10.001836, 9.999355 
2.7554306e+3, 1.7671257e+2, -1069378.4, -1240331.9, 75630.35, 0.059599467, 0.08442896, -1040722.6, 167500.13, 0.000000024025011, 10.001471, 9.999181 
2.7553746e+3, 1.8671116e+2, -1031428.94, -1214827.3, 101738.99, 0.06603315, 0.06856597, -986162.56, 124073.46, 0.0, 10.001247, 9.99879 
2.7553192e+3, 1.9670945e+2, -956428.5, -1131409.4, 91153.06, 0.08627004, 0.036272552, -917572.4, 94680.36, 0.0, 10.001103, 9.99876 
2.755263e+3, 2.0670825e+2, -869841.5, -1006436.44, 81227.805, 0.08174224, 0.04255521, -832014.06, 82250.74, 0.0, 10.000886, 9.999049 
2.7552062e+3, 2.1670736e+2, -817183.6, -943054.44, 95846.68, 0.06324187, 0.068354405, -765456.7, 50817.25, 0.0, 10.000629, 9.998935 
2.75515e+3, 2.2670615e+2, -768815.3, -881531.0, 88259.04, 0.051176112, 0.079116255, -720455.1, -2168.3257, 0.0, 10.000342, 9.998823 
2.7550933e+3, 2.3670481e+2, -713480.4, -800725.5, 75104.19, 0.045291867, 0.08200794, -670249.25, -49948.313, 0.0, 10.000035, 9.998854 
2.755036e+3, 2.4670386e+2, -622014.4, -639876.6, 54372.78, 0.0402518, 0.08605792, -575844.1, -53532.996, 0.0, 9.999705, 9.999443 
2.7549788e+3, 2.5670317e+2, -579957.7, -577912.06, 66083.055, 0.027889913, 0.09130309, -512843.9, -88525.35, 0.0, 9.999361, 9.999362 
2.754921e+3, 2.6670256e+2, -525702.3, -494870.88, 51830.246, -0.0034980949, 0.11242468, -456212.4, -129886.375, 0.0, 9.999032, 9.999418 
2.754863e+3, 2.7670208e+2, -475965.1, -420530.53, 46920.9, -0.025383996, 0.14080916, -393751.78, -165418.9, 0.0, 9.998702, 9.999416 
2.754805e+3, 2.8670153e+2, -405066.72, -277604.84, 11514.361, -0.012887901, 0.13357624, -276573.03, -146233.44, 0.0, 9.998263, 9.999936 
2.7547467e+3, 2.967011e+2, -379921.47, -218493.48, 11029.911, -0.035534266, 0.11455418, -217743.33, -185398.75, 0.0, 9.99778, 9.999903 
2.7546886e+3, 3.0670252e+2, -352973.97, -122475.734, -11111.439, -0.003805446, 0.25580958, -121941.33, -121941.33, 0.0, 9.997375, 10.000424 
2.7546293e+3, 3.1670162e+2, -353838.88, -41682.81, 13818.393, -0.057314962, 0.14737236, -41072.297, -41072.297, 0.0, 9.99702, 10.001148 
2.7657184e+3, 1.2677722e+2, -1418623.8, -1725641.3, 12614.803, 0.14057802, 0.088071145, -1418106.3, 279486.3, 0.0009355544, 10.002705, 9.998623 
2.7656594e+3, 1.3677585e+2, -1273553.4, -1608839.0, 31571.223, 0.06668386, 0.107438155, -1270606.5, 328999.16, 0.0004680769, 10.003043, 9.998589 
2.765602e+3, 1.4677428e+2, -1227967.1, -1505574.0, 91424.33, 0.050731633, 0.097071946, -1200563.5, 301057.56, 0.00015749612, 10.002556, 9.998857 
2.7655455e+3, 1.567727e+2, -1258170.0, -1465488.1, 81405.7, 0.0929485, 0.07191133, -1230025.9, 173610.89, 0.000028159518, 10.001659, 9.998891 
2.7654886e+3, 1.667718e+2, -1153218.4, -1300115.1, 91325.29, 0.090851456, 0.07900142, -1109470.4, 196174.39, 0.0000015734015, 10.001434, 9.999459 
2.765432e+3, 1.767713e+2, -1048806.5, -1217751.6, 89386.086, 0.060432952, 0.101730704, -1010293.4, 197355.1, 0.0000000017471812, 10.001559, 9.999292 
2.7653757e+3, 1.8676998e+2, -1014687.25, -1192150.0, 116679.13, 0.06457359, 0.08155123, -956833.25, 152827.5, 0.0, 10.001302, 9.998919 
2.76532e+3, 1.9676828e+2, -984786.9, -1131892.5, 123022.14, 0.088401526, 0.04017377, -915006.3, 96670.5, 0.0, 10.000855, 9.998875 
2.7652636e+3, 2.0676717e+2, -904599.4, -1019451.5, 102851.27, 0.08635787, 0.04870769, -844228.4, 69459.73, 0.0, 10.000634, 9.999079 
2.7652067e+3, 2.1676639e+2, -827746.4, -941005.94, 86808.93, 0.06912879, 0.0827803, -780729.06, 34967.35, 0.0, 10.000529, 9.998997 
2.7651498e+3, 2.2676526e+2, -762176.0, -858791.25, 86603.03, 0.055314247, 0.08899662, -711318.56, 6389.592, 0.0, 10.000307, 9.998995 
2.765093e+3, 2.3676398e+2, -705942.0, -781379.6, 105552.62, 0.04667161, 0.08081724, -631571.25, -11850.087, 0.0, 10.000023, 9.99899 
2.7650356e+3, 2.4676307e+2, -622724.06, -645365.0, 78769.44, 0.04091043, 0.08645481, -554465.8, -32734.662, 0.0, 9.999726, 9.999393 
2.764978e+3, 2.567624e+2, -572936.56, -577451.0, 65248.086, 0.029056879, 0.09960727, -509906.66, -86167.9, 0.0, 9.999425, 9.999333 
2.76492e+3, 2.667618e+2, -514501.63, -484877.78, 50124.902, -0.0062141283, 0.12154467, -447422.16, -121676.195, 0.0, 9.999093, 9.999455 
2.7648616e+3, 2.7676135e+2, -470820.1, -416414.03, 57603.57, -0.033753116, 0.14655498, -379913.25, -152160.77, 0.0, 9.998735, 9.999425 
2.7648035e+3, 2.867607e+2, -405946.78, -294445.88, 23880.916, -0.00092501065, 0.13896045, -289546.4, -159786.0, 0.0, 9.998333, 9.999785 
2.7647448e+3, 2.9676014e+2, -370803.9, -224431.45, 25772.27, 0.009133633, 0.121900864, -220026.23, -188258.92, 0.0, 9.99789, 9.999807 
2.7646852e+3, 3.0676168e+2, -300195.34, -87638.59, 18102.914, -0.059994817, 0.27693728, -86107.84, -86107.84, 0.0, 9.997701, 10.000504 
2.7646267e+3, 3.1676033e+2, -292157.72, -28424.717, 45832.305, -0.035417102, 0.11874582, -20686.867, -20686.867, 0.0, 9.997518, 10.0009985 
2.775721e+3, 1.2683587e+2, -1375316.1, -1656544.0, 27479.951, 0.13432351, 0.08971472, -1372656.0, 324363.78, 0.0005315869, 10.002791, 9.999056 
2.7756622e+3, 1.3683517e+2, -1256024.5, -1563910.9, 36385.523, 0.06810776, 0.1355224, -1251782.9, 347241.7, 0.0002522698, 10.003004, 9.998917 
2.775604e+3, 1.4683361e+2, -1244004.9, -1531976.0, 56916.863, 0.054885425, 0.122124545, -1233163.5, 267876.34, 0.00007721653, 10.002523, 9.998692 
2.7755472e+3, 1.5683171e+2, -1262542.1, -1482731.1, 54888.63, 0.09727673, 0.07965748, -1249618.1, 153441.48, 0.000011151193, 10.001692, 9.998757 
2.7754903e+3, 1.668307e+2, -1151791.6, -1304407.1, 97143.76, 0.10136195, 0.08299423, -1104568.9, 200500.23, 0.00000042374444, 10.001464, 9.999416 
2.7754337e+3, 1.7683019e+2, -1047309.7, -1213882.0, 90809.7, 0.07960155, 0.108937785, -1007376.6, 199696.38, 0.00000000000031093438, 10.0015545, 9.999322 
2.775377e+3, 1.8682913e+2, -991434.8, -1143130.0, 99506.66, 0.06611166, 0.09573158, -942164.75, 166917.13, 0.0, 10.001297, 9.999258 
2.7753204e+3, 1.9682786e+2, -968148.25, -1100095.3, 107552.836, 0.05965582, 0.06286999, -907946.8, 103146.11, 0.0, 10.000866, 9.999089 
2.7752638e+3, 2.0682655e+2, -928892.4, -1072725.8, 98606.75, 0.07276408, 0.06504965, -878762.75, 34344.074, 0.0, 10.000645, 9.99871 
2.7752075e+3, 2.1682529e+2, -840612.25, -968682.06, 81974.836, 0.09309551, 0.08516729, -800626.25, 14495.099, 0.0, 10.000531, 9.998806 
2.7751505e+3, 2.2682439e+2, -719953.7, -771661.4, 76225.555, 0.07119163, 0.086606644, -665316.8, 51813.09, 0.0, 10.000308, 9.999594 
2.7750927e+3, 2.368237e+2, -675530.8, -719230.5, 94379.82, 0.031094586, 0.07859556, -600504.6, 18630.443, 0.0, 10.000025, 9.999416 
2.7750352e+3, 2.4682274e+2, -649864.56, -702915.8, 67123.1, 0.02701739, 0.08677193, -604216.0, -83070.03, 0.0, 9.999729, 9.998999 
2.7749774e+3, 2.5682175e+2, -592608.1, -619164.8, 53443.168, 0.034135036, 0.10469453, -550818.44, -127659.58, 0.0, 9.999426, 9.999047 
2.774919e+3, 2.6682132e+2, -499785.38, -454556.28, 36460.105, 0.005594553, 0.1399147, -434266.78, -109101.984, 0.0, 9.999093, 9.999665 
2.7748603e+3, 2.7682117e+2, -459574.13, -393365.25, 43571.85, -0.023410957, 0.18006343, -371748.47, -144581.52, 0.0, 9.998734, 9.999585 
2.7748019e+3, 2.8682056e+2, -415958.78, -315885.06, 7013.64, 0.0056371535, 0.1755799, -315395.9, -186221.47, 0.0, 9.998333, 9.9996395 
2.7747425e+3, 2.9681984e+2, -375886.72, -235653.75, 10544.316, 0.018174322, 0.15720218, -234865.33, -203682.52, 0.0, 9.99789, 9.999731 
2.7746832e+3, 3.068199e+2, -282652.53, -52815.55, 17573.807, -0.031921316, 0.15052493, -51479.59, -51479.59, 0.0, 9.997705, 10.000742 
2.7746236e+3, 3.168208e+2, -331678.4, -110502.27, -101804.21, -0.064709425, 0.20059198, -70777.94, -70777.94, 0.0, 9.997511, 10.000442 
2.7857235e+3, 1.2689525e+2, -1270582.3, -1597845.1, 47866.004, 0.080393426, 0.100266606, -1263724.9, 432713.7, 0.00027005732, 10.003477, 9.999128 
2.785665e+3, 1.3689455e+2, -1377476.9, -1613487.0, 37943.66, 0.1045348, 0.13753852, -1371526.6, 226916.58, 0.00011939084, 10.002132, 9.998996 
2.7856064e+3, 1.4689308e+2, -1338179.3, -1568634.5, 72279.79, 0.08778548, 0.12500651, -1317385.6, 183072.0, 0.00003157788, 10.001842, 9.998769 
2.7855486e+3, 1.568913e+2, -1203757.9, -1448493.8, 85185.805, 0.08232945, 0.08786895, -1177026.8, 225449.4, 0.0000033549736, 10.002072, 9.998809 
2.7854913e+3, 1.668902e+2, -1114366.6, -1297078.9, 130757.81, 0.08785449, 0.088200934, -1046212.44, 258274.08, 0.00000007042765, 10.001769, 9.999319 
2.7854347e+3, 1.7688951e+2, -1101038.9, -1246881.4, 120944.164, 0.09191153, 0.10703833, -1032733.4, 173758.89, 0.0, 10.001218, 9.999257 
2.785378e+3, 1.8688853e+2, -1020551.6, -1151084.3, 117236.4, 0.07784969, 0.1006883, -951638.7, 156862.02, 0.0, 10.001074, 9.9993105 
2.7853212e+3, 1.9688746e+2, -926000.0, -1072661.4, 105605.55, 0.057098933, 0.08182295, -870761.94, 139748.17, 0.0, 10.001127, 9.99915 
2.7852646e+3, 2.0688617e+2, -889505.1, -1044721.8, 108613.55, 0.066650085, 0.078809544, -833622.06, 78901.555, 0.0, 10.000879, 9.998788 
2.7852076e+3, 2.1688482e+2, -841268.1, -959091.25, 122260.14, 0.089701965, 0.083848156, -764466.3, 50072.273, 0.0, 10.000487, 9.998892 
2.7851504e+3, 2.26884e+2, -722901.5, -762774.75, 103187.67, 0.07089416, 0.08390784, -637742.1, 78804.2, 0.0, 10.000246, 9.999682 
2.7850926e+3, 2.3688343e+2, -662828.9, -704770.4, 84359.49, 0.034027703, 0.08164484, -596872.7, 21677.42, 0.0, 10.000079, 9.999489 
2.7850348e+3, 2.468826e+2, -635350.56, -698050.2, 60724.33, 0.026907867, 0.0989158, -598361.1, -77800.945, 0.0, 9.999842, 9.998977 
2.7849767e+3, 2.5688168e+2, -574424.6, -610897.0, 73480.11, 0.027945125, 0.12673737, -516951.6, -94378.81, 0.0, 9.9995575, 9.999039 
2.7849177e+3, 2.6688114e+2, -486618.66, -446128.0, 52758.867, 0.0046893717, 0.15016024, -409863.4, -85283.73, 0.0, 9.999178, 9.9996805 
2.784859e+3, 2.768808e+2, -456875.5, -390473.0, 45325.426, -0.012799151, 0.16913635, -367489.56, -140906.22, 0.0, 9.998749, 9.999597 
2.7848e+3, 2.8688037e+2, -401956.9, -313547.47, 10141.477, 0.012346405, 0.18656106, -312399.06, -183810.19, 0.0, 9.998451, 9.999597 
2.7847406e+3, 2.9688e+2, -328839.9, -212522.42, 21964.824, 0.0127948895, 0.2083673, -208512.89, -177918.95, 0.0, 9.998216, 9.999731 
2.7846807e+3, 3.0687913e+2, -244651.11, -12198.125, 32573.2, -0.042457163, 0.09789319, -7719.9746, -7719.9746, 0.0, 9.997874, 10.000937 
2.7846214e+3, 3.1688124e+2, -330606.5, -148070.69, -99343.92, -0.030137232, 0.25134608, -104434.75, -104434.75, 0.0, 9.997685, 10.000098 
2.7957258e+3, 1.2695526e+2, -1292256.1, -1631182.8, -2775.9282, -0.00820441, 0.11708626, -1292233.4, 403616.97, 0.00011800271, 10.003425, 9.998925 
2.7956676e+3, 1.3695402e+2, -1378789.6, -1626552.6, 156.77742, 0.16847335, 0.11950596, -1378789.5, 219071.55, 0.000046695113, 10.002175, 9.998886 
2.795609e+3, 1.469527e+2, -1313749.3, -1527947.5, 82587.18, 0.1417968, 0.110904135, -1285604.6, 214269.08, 0.000009788546, 10.001883, 9.999028 
2.79555e+3, 1.569514e+2, -1190802.8, -1421157.9, 88313.695, 0.05005405, 0.09654466, -1160841.9, 241045.16, 0.00000067164456, 10.0020685, 9.998999 
2.7954927e+3, 1.6695027e+2, -1124798.1, -1318965.0, 108961.22, 0.054695282, 0.09400607, -1075944.1, 227953.56, 0.0000000035986794, 10.001768, 9.99917 
2.795436e+3, 1.7694928e+2, -1108875.3, -1268430.5, 103950.96, 0.09884951, 0.09742508, -1057617.5, 148289.2, 0.0, 10.00124, 9.9991 
2.7953792e+3, 1.869482e+2, -1032584.0, -1180096.0, 119644.09, 0.09838974, 0.09801078, -965788.75, 142128.36, 0.0, 10.001089, 9.9991045 
2.7953225e+3, 1.969471e+2, -931039.44, -1083020.4, 104920.77, 0.07779316, 0.09700618, -877481.0, 132446.77, 0.0, 10.001124, 9.999082 
2.795265e+3, 2.0694602e+2, -856147.9, -975465.9, 93925.35, 0.06659548, 0.089811906, -804536.2, 107402.1, 0.0, 10.000877, 9.999265 
2.7952078e+3, 2.1694499e+2, -818214.6, -912963.4, 108675.55, 0.059086863, 0.08007672, -747036.44, 66911.83, 0.0, 10.000493, 9.999207 
2.7951503e+3, 2.2694406e+2, -750160.1, -821435.06, 96725.86, 0.055491976, 0.08163303, -682715.5, 33242.156, 0.0, 10.000253, 9.999277 
2.7950928e+3, 2.3694322e+2, -680869.06, -743106.0, 77167.73, 0.055924717, 0.08931444, -628781.7, -10815.484, 0.0, 10.000081, 9.999226 
2.7950343e+3, 2.4694262e+2, -611131.44, -648173.3, 50290.55, 0.04011419, 0.12212272, -576059.8, -56086.094, 0.0, 9.999842, 9.999319 
2.794976e+3, 2.569422e+2, -556524.4, -574490.25, 61895.035, 0.009209061, 0.16599157, -502963.8, -80983.46, 0.0, 9.999559, 9.999289 
2.7949166e+3, 2.6694125e+2, -500084.25, -474982.97, 36441.37, -0.009468995, 0.15166667, -448991.53, -125000.87, 0.0, 9.999179, 9.999482 
2.7948576e+3, 2.7694017e+2, -467134.7, -412240.16, 29997.23, -0.0029026784, 0.110882185, -399028.03, -173025.97, 0.0, 9.998749, 9.999449 
2.7947983e+3, 2.869401e+2, -398410.2, -306289.94, 809.56555, 0.01770947, 0.17023022, -306282.8, -178278.72, 0.0, 9.99845, 9.999648 
2.7947384e+3, 2.9694065e+2, -324004.94, -203112.39, 12607.969, -0.009712431, 0.27834627, -201811.48, -171810.84, 0.0, 9.998217, 9.999796 
2.794678e+3, 3.0693954e+2, -233990.84, 9485.453, 15453.77, -0.0899762, 0.13278233, 10462.405, 10462.405, 0.0, 9.997872, 10.001089 
2.7946195e+3, 3.169409e+2, -335737.44, -162140.4, 41118.6, 0.009330365, 0.19961339, -152893.52, -152893.52, 0.0, 9.997702, 9.999992 
2.805729e+3, 1.2701567e+2, -1414166.4, -1690914.8, 11168.704, 0.020726718, 0.11541467, -1413716.4, 281541.63, 0.000040909137, 10.002592, 9.998916 
2.8056696e+3, 1.3701431e+2, -1348268.4, -1613613.5, 29722.738, 0.14999579, 0.10880667, -1344979.6, 252290.44, 0.000013370687, 10.002395, 9.998869 
2.8056103e+3, 1.47013e+2, -1289163.4, -1523407.3, 119530.586, 0.12515117, 0.10619178, -1238938.0, 260344.8, 0.000001926778, 10.002085, 9.998961 
2.805552e+3, 1.5701176e+2, -1242965.1, -1453364.1, 103634.445, 0.05832921, 0.10508035, -1200492.5, 200802.86, 0.000000061834285, 10.001743, 9.998934 
2.8054944e+3, 1.6701056e+2, -1153752.4, -1344196.1, 114191.734, 0.06261638, 0.10354463, -1100290.1, 203016.97, 0.0, 10.00162, 9.999067 
2.805437e+3, 1.7700942e+2, -1061631.6, -1253737.9, 112608.63, 0.09439631, 0.10191555, -1009675.0, 195643.03, 0.0, 10.001601, 9.999025 
2.8053802e+3, 1.870083e+2, -1000936.9, -1163277.1, 141134.22, 0.09465455, 0.10246724, -919295.9, 188033.0, 0.0, 10.001302, 9.999117 
2.8053233e+3, 1.9700725e+2, -963776.75, -1094368.8, 140520.88, 0.08178291, 0.10401541, -874122.2, 135217.2, 0.0, 10.000883, 9.999119 
2.8052658e+3, 2.0700629e+2, -863210.56, -965107.44, 118108.97, 0.06749569, 0.10056825, -785529.8, 125818.75, 0.0, 10.000772, 9.999386 
2.8052083e+3, 2.1700542e+2, -767150.7, -877864.25, 107265.555, 0.0512011, 0.09493341, -701800.1, 111556.65, 0.0, 10.000801, 9.999298 
2.8051504e+3, 2.2700447e+2, -715153.56, -811059.6, 99922.88, 0.04650156, 0.09454608, -652273.0, 63093.438, 0.0, 10.000524, 9.999217 
2.8050926e+3, 2.3700352e+2, -679533.9, -744689.5, 105200.234, 0.050395913, 0.09748553, -601982.6, 15393.843, 0.0, 10.000102, 9.999204 
2.8050342e+3, 2.4700299e+2, -600710.1, -629485.9, 77547.06, 0.040484197, 0.13011757, -536227.5, -16844.215, 0.0, 9.999857, 9.999439 
2.8049752e+3, 2.5700268e+2, -531957.75, -553743.0, 70759.09, 0.01638102, 0.17619948, -471257.78, -49869.645, 0.0, 9.999691, 9.999367 
2.804916e+3, 2.6700172e+2, -479674.53, -478515.88, 37719.492, -0.0070600156, 0.16139437, -441371.25, -117972.375, 0.0, 9.999379, 9.999361 
2.8048563e+3, 2.7700043e+2, -438758.03, -409821.38, 37755.996, -0.00951716, 0.11763478, -383856.47, -158444.48, 0.0, 9.998995, 9.999345 
2.8047967e+3, 2.8700024e+2, -369780.53, -298610.2, 8985.406, 0.019672923, 0.17156021, -297493.28, -170078.0, 0.0, 9.998675, 9.999591 
2.8047365e+3, 2.970007e+2, -307541.44, -203026.14, 12709.669, 0.0057867733, 0.27494958, -201502.77, -172089.94, 0.0, 9.998365, 9.999724 
2.8046754e+3, 3.0699977e+2, -200679.27, -62.09731, -6257.6396, -0.112579726, 0.16544504, 132.9011, 132.9011, 0.0, 9.998214, 10.000858 
2.804617e+3, 3.170007e+2, -278744.5, -127954.13, 50842.703, 0.0024914485, 0.20500363, -112412.99, -112412.99, 0.0, 9.998067, 10.00005 
2.8157324e+3, 1.2707645e+2, -1407590.4, -1673655.6, 2214.5452, 0.13364874, 0.09973107, -1407571.9, 287089.8, 0.000009398705, 10.002577, 9.999042 
2.815671e+3, 1.3707533e+2, -1341210.6, -1606293.3, 19103.152, 0.06492818, 0.10374658, -1339841.0, 256830.81, 0.0000021889277, 10.002425, 9.998905 
2.8156117e+3, 1.4707391e+2, -1307127.9, -1569340.3, 104431.28, 0.054539487, 0.108793974, -1270619.3, 228066.56, 0.00000016251443, 10.00212, 9.998631 
2.8155538e+3, 1.5707241e+2, -1258594.4, -1491336.1, 92653.484, 0.10076185, 0.113853514, -1226214.3, 174487.0, 0.0000000005064632, 10.001765, 9.998663 
2.815496e+3, 1.6707109e+2, -1157141.3, -1354160.0, 113749.125, 0.10288141, 0.11669827, -1105174.9, 197539.66, 0.0, 10.001632, 9.998995 
2.8154385e+3, 1.7706992e+2, -1062029.3, -1255113.8, 108812.3, 0.07855112, 0.11842918, -1013104.9, 191621.38, 0.0, 10.001602, 9.999016 
2.815381e+3, 1.8706886e+2, -986881.25, -1134789.9, 124489.19, 0.06991477, 0.11259825, -916036.44, 190699.84, 0.0, 10.001304, 9.999312 
2.815324e+3, 1.9706789e+2, -954437.56, -1077094.0, 127056.85, 0.070682034, 0.10387784, -874682.1, 134062.98, 0.0, 10.000891, 9.999234 
2.8152665e+3, 2.0706695e+2, -877115.56, -995845.6, 118993.305, 0.06950286, 0.11169614, -803500.9, 107253.734, 0.0, 10.000779, 9.999172 
2.815209e+3, 2.170661e+2, -775139.6, -894483.44, 104941.67, 0.06520282, 0.12669423, -714090.8, 98673.15, 0.0, 10.000799, 9.999186 
2.815151e+3, 2.270652e+2, -696669.3, -772786.25, 83854.94, 0.0429944, 0.12089421, -642640.3, 72132.41, 0.0, 10.000523, 9.999481 
2.8150922e+3, 2.3706433e+2, -665472.2, -716579.6, 90940.14, 0.016192092, 0.10608621, -596563.75, 20217.213, 0.0, 10.000106, 9.999395 
2.8150338e+3, 2.4706367e+2, -608126.4, -646184.44, 71438.4, 0.028296515, 0.1233296, -553226.06, -34437.152, 0.0, 9.999861, 9.999324 
2.814975e+3, 2.5706312e+2, -538396.5, -568117.6, 62684.066, 0.049870826, 0.1572257, -488835.56, -68039.336, 0.0, 9.999694, 9.999268 
2.8149152e+3, 2.6706243e+2, -483028.5, -485928.1, 22955.031, 0.011822055, 0.18062356, -461477.53, -138673.3, 0.0, 9.99938, 9.9993105 
2.8148547e+3, 2.770617e+2, -443306.9, -420050.03, 24033.715, -0.033600397, 0.1946279, -404979.4, -180166.81, 0.0, 9.998997, 9.999274 
2.814795e+3, 2.8706083e+2, -381665.2, -324265.7, -2638.693, 0.019061297, 0.18984705, -324144.63, -197321.98, 0.0, 9.998677, 9.999415 
2.8147355e+3, 2.9706004e+2, -323832.63, -237499.08, 1950.3582, 0.06231928, 0.18653621, -237455.03, -208623.25, 0.0, 9.998365, 9.999489 
2.8146735e+3, 3.070599e+2, -247395.61, -98743.02, -9643.037, -0.11288076, 0.20397887, -98120.09, -98120.09, 0.0, 9.998219, 10.000179 
2.8146148e+3, 3.170602e+2, -256141.25, -81428.8, -18829.523, -0.011940583, 0.24606629, -79422.49, -79422.49, 0.0, 9.998062, 10.000375 
2.825735e+3, 1.2713741e+2, -1507158.8, -1735406.3, 17072.936, 0.15405492, 0.10159865, -1505888.8, 188175.16, 0.000000966965, 10.001953, 9.998918 
2.8256732e+3, 1.3713622e+2, -1316640.6, -1604861.9, 12508.95, 0.04733721, 0.11213592, -1316098.8, 279977.0, 0.000000116965474, 10.00264, 9.99881 
2.825614e+3, 1.4713472e+2, -1262791.8, -1549150.0, 82831.21, 0.042401493, 0.11267182, -1240558.5, 257531.97, 0.0000000014119189, 10.002433, 9.998617 
2.8255558e+3, 1.571331e+2, -1249109.0, -1489061.5, 93358.36, 0.1153311, 0.10862238, -1217065.3, 183040.9, 0.0, 10.0018425, 9.998641 
2.8254977e+3, 1.6713178e+2, -1175130.3, -1371778.4, 131956.95, 0.1128877, 0.11496086, -1108893.5, 193226.27, 0.0, 10.001549, 9.998913 
2.8254396e+3, 1.771306e+2, -1095984.9, -1278176.8, 124633.39, 0.069950216, 0.12562938, -1032704.8, 171427.31, 0.0, 10.0014, 9.998955 
2.825382e+3, 1.8712951e+2, -994895.2, -1140764.0, 124171.78, 0.061360188, 0.12158264, -923822.44, 182320.1, 0.0, 10.00126, 9.99929 
2.8253248e+3, 1.9712852e+2, -920633.5, -1060111.6, 113448.766, 0.07006456, 0.111699894, -857202.9, 150948.86, 0.0, 10.001122, 9.999238 
2.825267e+3, 2.0712768e+2, -858981.94, -980097.7, 117836.414, 0.06838407, 0.122525245, -787053.3, 123107.234, 0.0, 10.000875, 9.999232 
2.8252095e+3, 2.171269e+2, -802352.75, -900419.75, 121433.87, 0.060593486, 0.14212169, -720426.44, 91742.45, 0.0, 10.000584, 9.999248 
2.825151e+3, 2.2712603e+2, -700809.1, -768550.44, 92994.484, 0.03891874, 0.13417606, -635709.1, 78468.34, 0.0, 10.00047, 9.999535 
2.8250924e+3, 2.3712519e+2, -615210.8, -685997.75, 84317.14, 0.01454225, 0.114611365, -559159.9, 57025.84, 0.0, 10.000425, 9.999451 
2.8250334e+3, 2.4712457e+2, -563829.75, -620186.1, 66097.48, 0.025703354, 0.13323978, -520154.7, -1961.9099, 0.0, 10.000147, 9.999364 
2.8249747e+3, 2.571241e+2, -528846.06, -561976.44, 68347.99, 0.04496799, 0.16984871, -475084.47, -54885.45, 0.0, 9.999755, 9.99928 
2.8249145e+3, 2.6712328e+2, -468508.44, -490468.5, 29767.855, 0.010878727, 0.18767062, -447760.16, -125551.914, 0.0, 9.999531, 9.999206 
2.8248537e+3, 2.7712238e+2, -394194.66, -405647.7, 26820.137, -0.027055427, 0.19489178, -372496.5, -148277.92, 0.0, 9.999375, 9.99919 
2.824794e+3, 2.8712147e+2, -314293.44, -297965.16, 5320.1953, 0.023064232, 0.19355558, -296384.7, -170155.9, 0.0, 9.999168, 9.999358 
2.8247336e+3, 2.9712063e+2, -250300.06, -217483.73, 18934.32, 0.059100587, 0.19505613, -208837.23, -180599.5, 0.0, 9.9989395, 9.999349 
2.824672e+3, 3.0712008e+2, -223181.11, -145237.06, 18566.877, -0.10162043, 0.20421705, -141040.27, -141040.27, 0.0, 9.998638, 9.999657 
2.824613e+3, 3.1711972e+2, -213689.34, -39381.83, -14640.698, 0.0064639845, 0.224911, -38160.66, -38160.66, 0.0, 9.998264, 10.000565 
2.835736e+3, 1.2719855e+2, -1519678.6, -1776611.3, 42054.863, 0.10847666, 0.11748414, -1512970.1, 180494.11, 0.000000016734337, 10.002018, 9.998605 
2.835676e+3, 1.3719709e+2, -1332387.9, -1633588.9, 28106.658, 0.080303565, 0.13188608, -1329787.6, 265693.13, 0.00000000000042985277, 10.002622, 9.998623 
2.8356162e+3, 1.4719552e+2, -1249158.9, -1517665.6, 59856.63, 0.07274824, 0.117695965, -1236419.8, 261075.94, 0.0, 10.002418, 9.998841 
2.8355575e+3, 1.5719391e+2, -1234330.3, -1463719.0, 73839.56, 0.106035784, 0.0919017, -1212616.9, 186892.8, 0.0, 10.001864, 9.998805 
2.835499e+3, 1.6719261e+2, -1177814.3, -1383651.9, 125250.445, 0.098941855, 0.10091912, -1118622.1, 182900.77, 0.0, 10.0015745, 9.998819 
2.835441e+3, 1.7719148e+2, -1101731.9, -1293897.6, 118147.81, 0.06814302, 0.124934405, -1045529.44, 158006.03, 0.0, 10.001414, 9.99884 
2.8353834e+3, 1.8719032e+2, -1008989.6, -1171968.0, 118711.61, 0.06627562, 0.12988596, -946489.44, 159058.08, 0.0, 10.001267, 9.999074 
2.8353256e+3, 1.9718918e+2, -927399.0, -1074305.3, 107177.97, 0.07817892, 0.12661676, -870919.5, 136639.36, 0.0, 10.001122, 9.999142 
2.8352678e+3, 2.0718843e+2, -837512.2, -935748.8, 106749.01, 0.06385573, 0.13259721, -769123.25, 140442.86, 0.0, 10.000875, 9.999538 
2.8352097e+3, 2.1718787e+2, -787153.2, -869690.44, 112179.234, 0.037156604, 0.14244258, -708892.4, 102679.08, 0.0, 10.0005865, 9.999458 
2.8351513e+3, 2.27187e+2, -711411.75, -791595.56, 91567.4, 0.03471063, 0.13578355, -651543.94, 62036.62, 0.0, 10.000473, 9.999376 
2.8350928e+3, 2.3718606e+2, -620854.5, -697934.3, 79916.44, 0.045323547, 0.12350027, -570670.3, 44920.426, 0.0, 10.000425, 9.99937 
2.8350335e+3, 2.4718569e+2, -550377.25, -592479.8, 51229.285, 0.031643346, 0.1594191, -516042.66, 1552.243, 0.0, 10.000146, 9.999555 
2.8349736e+3, 2.571856e+2, -520667.47, -545573.94, 55227.336, -0.00029814139, 0.21428111, -476506.75, -56910.28, 0.0, 9.999756, 9.9993925 
2.8349134e+3, 2.6718423e+2, -479801.72, -514918.94, 24132.707, -0.009903138, 0.18094558, -467515.84, -145904.83, 0.0, 9.999534, 9.999038 
2.8348535e+3, 2.771824e+2, -400488.84, -420473.34, 20178.182, 0.010741237, 0.11222246, -387964.34, -164333.81, 0.0, 9.999382, 9.999086 
2.834793e+3, 2.871822e+2, -309172.06, -289076.38, -3409.5652, 0.029903417, 0.18460797, -288513.66, -162880.17, 0.0, 9.999175, 9.999416 
2.8347316e+3, 2.9718277e+2, -251972.72, -222869.78, 10064.6045, -0.009771039, 0.31654984, -219728.27, -192099.17, 0.0, 9.998946, 9.999309 
2.8346705e+3, 3.071802e+2, -246693.98, -195574.39, 5093.833, -0.07340859, 0.1517197, -195071.77, -195071.77, 0.0, 9.998641, 9.9993105 
2.834611e+3, 3.171799e+2, -221229.3, -50435.242, -25186.02, 0.01841096, 0.20700513, -46798.633, -46798.633, 0.0, 9.998247, 10.000495 
2.845738e+3, 1.272593e+2, -1466167.9, -1752386.4, 37989.152, 0.08616371, 0.10799635, -1461211.5, 231657.06, 0.0, 10.002393, 9.9985895 
2.8456783e+3, 1.3725804e+2, -1430515.0, -1678252.1, 39188.58, 0.10818639, 0.1418792, -1424463.8, 170420.48, 0.0, 10.001938, 9.998646 
2.8456184e+3, 1.472565e+2, -1320978.0, -1538307.3, 65000.832, 0.09043214, 0.123898454, -1303020.6, 193877.84, 0.0, 10.001866, 9.998964 
2.8455588e+3, 1.5725487e+2, -1214465.4, -1446048.3, 72949.75, 0.088601254, 0.08504579, -1193401.6, 205510.2, 0.0, 10.001967, 9.998876 
2.8455004e+3, 1.6725355e+2, -1149916.6, -1385100.1, 120026.016, 0.0856347, 0.09790674, -1099478.5, 201447.08, 0.0, 10.001833, 9.998684 
2.8454423e+3, 1.7725241e+2, -1081906.6, -1293996.0, 109947.984, 0.07537632, 0.13248053, -1035196.56, 167742.48, 0.0, 10.0015955, 9.998751 
2.8453845e+3, 1.8725124e+2, -1004565.3, -1165902.0, 119961.12, 0.071651645, 0.1379708, -940672.06, 164279.17, 0.0, 10.001283, 9.999106 
2.8453267e+3, 1.972501e+2, -948918.3, -1078449.8, 125130.57, 0.07282627, 0.13103804, -872786.0, 134176.53, 0.0, 10.000949, 9.999195 
2.8452682e+3, 2.0724936e+2, -839794.7, -924793.9, 121897.5, 0.056814533, 0.13018346, -753200.44, 155768.84, 0.0, 10.00081, 9.999644 
2.84521e+3, 2.1724883e+2, -757565.2, -845575.06, 113473.445, 0.03215843, 0.13257189, -679862.9, 131111.16, 0.0, 10.00075, 9.999544 
2.8451517e+3, 2.272481e+2, -708186.0, -791989.0, 94956.734, 0.030836102, 0.13806307, -646296.75, 66685.34, 0.0, 10.000505, 9.999357 
2.845093e+3, 2.3724735e+2, -655590.8, -713136.3, 92823.12, 0.042881094, 0.14521478, -587183.3, 27808.057, 0.0, 10.000181, 9.999381 
2.8450334e+3, 2.4724692e+2, -555997.25, -583089.75, 61802.723, 0.03195649, 0.16780865, -506273.63, 10722.117, 0.0, 10.000057, 9.999661 
2.8449735e+3, 2.5724664e+2, -478179.03, -515652.03, 59600.66, 0.0029057132, 0.19690064, -434439.2, -15441.243, 0.0, 10.000009, 9.9994755 
2.844913e+3, 2.6724535e+2, -436947.13, -494419.78, 36372.43, -0.013883383, 0.16820742, -419329.06, -98317.3, 0.0, 9.999829, 9.999035 
2.8448525e+3, 2.7724367e+2, -370478.72, -407133.94, 43492.87, -0.0027403045, 0.11529397, -341609.6, -118579.375, 0.0, 9.999594, 9.999075 
2.844792e+3, 2.8724357e+2, -280742.0, -283120.2, 16385.777, 0.021191029, 0.19829904, -265502.22, -140469.72, 0.0, 9.999405, 9.999346 
2.8447306e+3, 2.972441e+2, -215400.39, -212410.69, 19451.893, -0.012113314, 0.3383376, -194396.3, -167368.53, 0.0, 9.99923, 9.999243 
2.8446692e+3, 3.0724078e+2, -214963.52, -190298.5, 20915.668, -0.08025161, 0.10533952, -178350.23, -178350.23, 0.0, 9.998905, 9.999218 
2.844609e+3, 3.172412e+2, -181033.31, -27451.166, 408.2817, 0.0060981284, 0.23926912, -27450.082, -27450.082, 0.0, 9.99851, 10.000525 
2.85574e+3, 1.2731981e+2, -1450611.4, -1722378.0, 20134.438, 0.07676071, 0.07994348, -1449127.8, 243147.53, 0.0, 10.002402, 9.998791 
2.8556803e+3, 1.3731906e+2, -1413257.9, -1650513.9, 25505.924, 0.13397346, 0.14480722, -1410546.9, 183739.3, 0.0, 10.001971, 9.998819 
2.85562e+3, 1.4731768e+2, -1312966.6, -1529593.9, 67830.66, 0.099799715, 0.1314613, -1293480.3, 202818.77, 0.0, 10.001899, 9.999009 
2.8555605e+3, 1.5731603e+2, -1212129.1, -1445595.1, 73238.52, 0.06368181, 0.08633572, -1191056.3, 207256.3, 0.0, 10.001986, 9.998871 
2.855502e+3, 1.6731465e+2, -1161592.8, -1410839.0, 110802.234, 0.07155497, 0.104149595, -1119458.4, 180868.9, 0.0, 10.001839, 9.998505 
2.855444e+3, 1.7731342e+2, -1087421.5, -1304737.1, 100523.09, 0.08938711, 0.1472703, -1048054.3, 154288.03, 0.0, 10.001591, 9.99868 
2.8553855e+3, 1.873123e+2, -987177.9, -1130414.6, 107407.27, 0.07703877, 0.145747, -929701.25, 174652.23, 0.0, 10.001284, 9.999351 
2.855327e+3, 1.9731127e+2, -935118.0, -1052393.5, 114700.555, 0.054929677, 0.12582155, -864935.75, 141427.08, 0.0, 10.000959, 9.99937 
2.855269e+3, 2.0731045e+2, -844567.44, -936655.56, 119786.164, 0.047913495, 0.11658472, -762280.75, 146089.36, 0.0, 10.000817, 9.999559 
2.8552106e+3, 2.1730979e+2, -760173.6, -850628.56, 109144.67, 0.044774443, 0.11343138, -687256.75, 123119.62, 0.0, 10.000747, 9.999512 
2.855152e+3, 2.2730936e+2, -700490.4, -775981.0, 82605.3, 0.026319923, 0.1409925, -647415.3, 64966.8, 0.0, 10.000504, 9.999468 
2.8550926e+3, 2.3730901e+2, -648576.5, -699399.25, 82939.805, 0.006150426, 0.17915618, -587242.56, 27145.05, 0.0, 10.000184, 9.9994755 
2.8550333e+3, 2.473082e+2, -554404.3, -580864.3, 60238.477, 0.027606165, 0.15825146, -505960.1, 10435.248, 0.0, 10.00006, 9.999676 
2.854974e+3, 2.5730726e+2, -474146.0, -508416.6, 56009.457, 0.055521213, 0.11692758, -432709.3, -14305.754, 0.0, 10.000012, 9.999524 
2.854913e+3, 2.6730672e+2, -425118.84, -470735.5, 27509.504, -0.0022833697, 0.15089734, -412192.13, -91781.81, 0.0, 9.999832, 9.999197 
2.8548512e+3, 2.7730632e+2, -364793.5, -396004.88, 34871.473, -0.071040384, 0.2112644, -342195.03, -119778.25, 0.0, 9.999595, 9.999152 
2.854791e+3, 2.8730547e+2, -295612.84, -314563.25, 10478.875, -0.0022274156, 0.23342627, -290960.53, -166534.63, 0.0, 9.999406, 9.99913 
2.8547305e+3, 2.9730454e+2, -221563.47, -226136.8, 10855.443, 0.057732634, 0.24412808, -212756.47, -186321.1, 0.0, 9.999233, 9.999147 
2.8546676e+3, 3.073019e+2, -202537.06, -163467.47, 6634.505, -0.13476302, 0.07237658, -162371.58, -162371.58, 0.0, 9.9989, 9.999405 
2.8546074e+3, 3.1730315e+2, -171648.63, -7733.8364, -25481.236, 0.013327665, 0.2725024, -3864.0327, -3864.0327, 0.0, 9.998504, 10.000667 
2.865742e+3, 1.2738085e+2, -1479696.4, -1734754.9, 23525.494, 0.08816652, 0.083731174, -1477544.6, 214132.98, 0.0, 10.002195, 9.998806 
2.8656822e+3, 1.3738011e+2, -1407438.4, -1644096.1, 21278.67, 0.13857475, 0.14812322, -1405540.4, 188148.08, 0.0, 10.001997, 9.998851 
2.8656217e+3, 1.4737877e+2, -1299089.0, -1518751.4, 70627.984, 0.10134942, 0.13597147, -1278340.0, 217360.78, 0.0, 10.001978, 9.999044 
2.865562e+3, 1.5737718e+2, -1203709.8, -1436170.1, 71921.48, 0.064474314, 0.09287566, -1183257.3, 214456.52, 0.0, 10.002022, 9.998917 
2.8655037e+3, 1.6737585e+2, -1175071.5, -1409065.8, 108047.125, 0.07398792, 0.10888358, -1132812.5, 166915.56, 0.0, 10.001712, 9.998577 
2.8654453e+3, 1.7737465e+2, -1128254.6, -1315353.3, 115160.79, 0.094702035, 0.14865662, -1073434.5, 128308.18, 0.0, 10.001273, 9.998759 
2.8653866e+3, 1.8737362e+2, -996807.9, -1125941.0, 125185.02, 0.078308284, 0.14754014, -920519.44, 183233.53, 0.0, 10.001181, 9.999431 
2.8653282e+3, 1.9737267e+2, -891342.0, -1022072.2, 121006.664, 0.049082156, 0.12944502, -819174.5, 186586.66, 0.0, 10.001223, 9.99945 
2.8652695e+3, 2.073719e+2, -824124.06, -921923.3, 125449.36, 0.04330851, 0.11733522, -738380.8, 169387.42, 0.0, 10.000938, 9.9996 
2.865211e+3, 2.1737123e+2, -787764.6, -856376.9, 124091.12, 0.045573797, 0.1097098, -693324.8, 116449.71, 0.0, 10.000526, 9.9995775 
2.865152e+3, 2.2737095e+2, -706263.5, -764219.6, 103307.62, 0.026956646, 0.14222094, -627946.7, 83832.14, 0.0, 10.000403, 9.999597 
2.8650928e+3, 2.3737082e+2, -609968.44, -667814.06, 104703.29, 0.0043612346, 0.18909785, -530266.6, 83515.695, 0.0, 10.000396, 9.999589 
2.8650331e+3, 2.4736997e+2, -538204.25, -571342.7, 81412.87, 0.025564529, 0.1602159, -471691.63, 44098.6, 0.0, 10.000166, 9.99969 
2.8649735e+3, 2.573689e+2, -497756.47, -514983.9, 77648.85, 0.054577805, 0.10354605, -428245.03, -10445.378, 0.0, 9.99983, 9.999566 
2.8649125e+3, 2.6736856e+2, -422782.78, -452700.22, 51029.324, -0.003046446, 0.14923272, -384564.84, -64760.76, 0.0, 9.999777, 9.999347 
2.8648508e+3, 2.7736858e+2, -327122.22, -366310.25, 55819.91, -0.07192359, 0.23396902, -287557.22, -65750.62, 0.0, 9.999807, 9.999252 
2.8647903e+3, 2.8736734e+2, -259562.94, -308017.94, 38128.906, -0.005362918, 0.22237313, -238615.39, -114796.13, 0.0, 9.999703, 9.999031 
2.8647295e+3, 2.9736575e+2, -173254.17, -208033.27, 43236.65, 0.05280554, 0.17741586, -144041.1, -118205.92, 0.0, 9.99959, 9.9991 
2.8646663e+3, 3.073645e+2, -148617.78, -135122.14, 25066.252, -0.13124685, 0.1431824, -115911.34, -115911.34, 0.0, 9.999264, 9.999423 
2.864606e+3, 3.173649e+2, -111634.07, 17677.451, -18179.543, 0.026958015, 0.25582674, 20184.65, 20184.65, 0.0, 9.998933, 10.000634 
2.8757447e+3, 1.2744233e+2, -1486634.0, -1751481.6, 13866.817, 0.115783155, 0.111366965, -1485909.9, 205166.28, 0.0, 10.002205, 9.998687 
2.875684e+3, 1.3744123e+2, -1408235.4, -1653158.5, 15886.043, 0.123946846, 0.15144323, -1407209.4, 185881.19, 0.0, 10.002028, 9.998774 
2.8756237e+3, 1.4743987e+2, -1295169.5, -1514724.8, 72742.016, 0.09521654, 0.13803312, -1273256.1, 221846.92, 0.0, 10.001995, 9.999064 
2.8755644e+3, 1.574384e+2, -1199096.5, -1424769.5, 69431.43, 0.08582502, 0.103946604, -1179446.0, 217668.95, 0.0, 10.002013, 9.999 
2.875505e+3, 1.674372e+2, -1156361.5, -1369877.6, 90757.38, 0.08988999, 0.1123664, -1122997.6, 176130.05, 0.0, 10.001709, 9.998848 
2.8754464e+3, 1.7743613e+2, -1112629.4, -1286040.6, 102428.16, 0.09234371, 0.13836862, -1065135.9, 136004.47, 0.0, 10.001286, 9.998956 
2.8753877e+3, 1.874352e+2, -1000119.0, -1134914.0, 127131.664, 0.0760069, 0.14432481, -923624.56, 179525.2, 0.0, 10.001188, 9.999365 
2.875329e+3, 1.9743434e+2, -892485.0, -1023420.6, 118996.78, 0.053746246, 0.14134298, -822135.75, 183021.84, 0.0, 10.001217, 9.999444 
2.8752702e+3, 2.0743369e+2, -814062.4, -900205.3, 109700.18, 0.041882295, 0.13125916, -739281.06, 167882.52, 0.0, 10.000934, 9.999753 
2.8752115e+3, 2.1743312e+2, -776957.94, -834196.5, 111863.625, 0.03363342, 0.119976625, -690110.6, 119057.984, 0.0, 10.000526, 9.99973 
2.8751522e+3, 2.2743288e+2, -696305.75, -744215.06, 103320.74, 0.032995738, 0.1414451, -614199.06, 96973.32, 0.0, 10.000406, 9.999733 
2.8750932e+3, 2.3743275e+2, -601243.44, -649717.25, 101975.805, 0.037225522, 0.1757455, -520663.88, 92511.695, 0.0, 10.000395, 9.999714 
2.8750333e+3, 2.4743225e+2, -537682.7, -570476.2, 68339.1, 0.024290346, 0.17428403, -483800.8, 31379.568, 0.0, 10.000166, 9.999697 
2.8749725e+3, 2.5743157e+2, -495417.7, -510699.34, 68375.53, -0.0024544843, 0.15781991, -434257.38, -17071.217, 0.0, 9.999832, 9.999595 
2.8749117e+3, 2.6743093e+2, -413159.9, -433504.84, 52985.08, -0.014924915, 0.16223736, -369379.63, -50186.492, 0.0, 9.999779, 9.999478 
2.874851e+3, 2.7743033e+2, -317740.13, -348783.6, 54156.79, -0.0022417158, 0.176932, -276924.63, -55724.42, 0.0, 9.999814, 9.999371 
2.87479e+3, 2.8742915e+2, -257485.45, -304888.4, 34426.188, 0.009107567, 0.16306911, -239390.73, -116178.17, 0.0, 9.999708, 9.99905 
2.874728e+3, 2.9742786e+2, -173510.89, -208909.39, 36280.793, -0.03625786, 0.14618935, -150842.34, -125616.17, 0.0, 9.999592, 9.999092 
2.8746662e+3, 3.0742878e+2, -162759.77, -162773.98, 10499.732, -0.053746384, 0.33757448, -152267.14, -152267.14, 0.0, 9.999258, 9.999236 
2.8746045e+3, 3.17426e+2, -131149.58, -22091.176, -11911.865, -0.011405263, 0.15405653, -20805.27, -20805.27, 0.0, 9.998928, 10.000363 
2.885747e+3, 1.2750359e+2, -1524707.4, -1757009.8, 8569.578, 0.15516396, 0.13185862, -1524391.6, 166086.05, 0.0, 10.001888, 9.998801 
2.8856856e+3, 1.3750257e+2, -1390683.4, -1633624.5, 22292.057, 0.10456231, 0.16762872, -1388654.8, 203835.73, 0.0, 10.002101, 9.998872 
2.8856254e+3, 1.4750122e+2, -1307297.3, -1518698.0, 76218.67, 0.08046449, 0.15208766, -1282683.3, 211819.69, 0.0, 10.0019045, 9.99908 
2.885566e+3, 1.5749978e+2, -1261232.6, -1447319.0, 72001.72, 0.09950556, 0.11780255, -1236626.9, 159888.23, 0.0, 10.001555, 9.999065 
2.8855067e+3, 1.6749872e+2, -1179909.1, -1357614.3, 89148.88, 0.09911701, 0.12576218, -1142895.5, 155630.56, 0.0, 10.001446, 9.999059 
2.8854474e+3, 1.7749783e+2, -1079734.6, -1248931.3, 98286.62, 0.08441424, 0.15029296, -1034652.06, 165884.39, 0.0, 10.00142, 9.999145 
2.8853887e+3, 1.8749703e+2, -993452.3, -1120617.6, 131371.19, 0.0725656, 0.15582342, -911085.9, 191458.52, 0.0, 10.001187, 9.999463 
2.88533e+3, 1.974963e+2, -935551.94, -1033694.9, 132260.66, 0.06373101, 0.15338048, -843552.9, 160998.23, 0.0, 10.000876, 9.999537 
2.885271e+3, 2.0749572e+2, -845512.2, -906534.56, 118282.8, 0.052244175, 0.1427046, -753868.75, 152687.86, 0.0, 10.000681, 9.999831 
2.885212e+3, 2.1749522e+2, -769780.9, -819634.94, 116862.35, 0.03918215, 0.13066076, -675216.6, 133344.61, 0.0, 10.000529, 9.999828 
2.8851527e+3, 2.2749513e+2, -699813.4, -729082.56, 111508.06, 0.04061597, 0.15609494, -601983.7, 108579.58, 0.0, 10.000311, 9.999883 
2.8850934e+3, 2.3749521e+2, -639043.3, -652134.4, 110757.02, 0.049634077, 0.19469552, -534638.56, 77925.69, 0.0, 10.000069, 9.999854 
2.8850332e+3, 2.4749471e+2, -553274.0, -568648.5, 79877.336, 0.0271675, 0.18409812, -480714.88, 33853.953, 0.0, 10.000021, 9.999778 
2.884972e+3, 2.57494e+2, -453124.84, -475534.75, 87102.23, -0.013353497, 0.15657009, -376509.8, 40065.03, 0.0, 10.000063, 9.999723 
2.8849116e+3, 2.674936e+2, -389789.9, -401700.6, 75264.195, -0.008252978, 0.16731362, -320245.8, -1666.3145, 0.0, 9.999854, 9.999659 
2.884851e+3, 2.7749327e+2, -356481.94, -345600.7, 78430.555, 0.03307962, 0.18932427, -272422.28, -51838.26, 0.0, 9.999456, 9.999563 
2.8847894e+3, 2.8749204e+2, -264908.16, -301550.47, 81981.086, 0.014469292, 0.15735118, -199225.97, -76629.484, 0.0, 9.999632, 9.999107 
2.8847274e+3, 2.9749057e+2, -84438.805, -168839.83, 79344.664, -0.07739893, 0.12225615, -36770.195, -12159.169, 0.0, 10.000221, 9.999063 
2.8846663e+3, 3.0749157e+2, -104292.88, -185565.22, 14569.301, 0.030541461, 0.35139504, -101760.05, -101760.05, 0.0, 9.999881, 9.99878 
2.884603e+3, 3.1748784e+2, -60316.168, 49701.918, 22832.393, -0.042985335, 0.10713576, 54252.195, 54252.195, 0.0, 9.999251, 10.000705 
2.895749e+3, 1.2756473e+2, -1500823.3, -1713711.5, 17380.13, 0.20204942, 0.14712688, -1499413.6, 190467.17, 0.0, 10.001916, 9.999084 
2.8956872e+3, 1.375641e+2, -1376341.4, -1602079.0, 25463.266, 0.08081063, 0.19410315, -1373504.8, 218383.78, 0.0, 10.002093, 9.999093 
2.8956267e+3, 1.475628e+2, -1308052.1, -1518679.1, 62548.418, 0.058999296, 0.17580098, -1290877.9, 203022.61, 0.0, 10.001897, 9.999084 
2.8955677e+3, 1.5756129e+2, -1257375.4, -1440168.8, 62497.98, 0.10717461, 0.13394366, -1238050.1, 157863.98, 0.0, 10.001558, 9.999113 
2.895508e+3, 1.6756041e+2, -1167936.6, -1333698.9, 89090.77, 0.10239994, 0.14713654, -1129136.0, 168787.42, 0.0, 10.00145, 9.999222 
2.8954485e+3, 1.775598e+2, -1067190.8, -1222565.6, 95226.44, 0.07099124, 0.18098815, -1021982.3, 177948.64, 0.0, 10.001418, 9.999327 
2.8953898e+3, 1.8755914e+2, -977306.2, -1086957.3, 119527.32, 0.06786965, 0.17999241, -900630.3, 201306.5, 0.0, 10.001185, 9.999696 
2.895331e+3, 1.975585e+2, -923306.75, -1008384.25, 121771.51, 0.07751115, 0.1652651, -836857.75, 167084.19, 0.0, 10.000876, 9.999712 
2.8952718e+3, 2.0755795e+2, -844631.7, -905167.94, 112478.97, 0.07327847, 0.15161633, -758419.44, 147527.95, 0.0, 10.000682, 9.999841 
2.8952125e+3, 2.1755749e+2, -766625.0, -813167.0, 110228.805, 0.061503626, 0.14148135, -677237.56, 130714.91, 0.0, 10.000529, 9.999873 
2.895153e+3, 2.2755772e+2, -688634.8, -706070.75, 102018.23, 0.048934866, 0.18580854, -594962.75, 114988.695, 0.0, 10.000311, 10.000041 
2.8950933e+3, 2.3755816e+2, -628396.4, -630182.06, 103405.664, 0.039999772, 0.24517195, -525879.7, 86068.76, 0.0, 10.000069, 10.000005 
2.895033e+3, 2.4755736e+2, -542577.5, -546853.8, 81296.55, 0.034795016, 0.1888862, -463391.0, 50564.652, 0.0, 10.000023, 9.999927 
2.8949723e+3, 2.5755617e+2, -437189.8, -443436.6, 87314.49, 0.022383904, 0.09841889, -352942.88, 63022.965, 0.0, 10.000067, 9.999943 
2.8949115e+3, 2.6755658e+2, -373744.5, -369740.13, 60282.57, 0.01584486, 0.16590932, -311426.5, 6536.589, 0.0, 9.999858, 9.999878 
2.8948504e+3, 2.7755734e+2, -337513.34, -306381.75, 65228.527, 0.031690206, 0.27642265, -254887.47, -34929.895, 0.0, 9.9994545, 9.999834 
2.894789e+3, 2.8755596e+2, -258846.61, -286282.44, 106854.92, 0.012510422, 0.20742616, -164832.66, -42862.03, 0.0, 9.999623, 9.999215 
2.8947276e+3, 2.9755387e+2, -88502.01, -176193.25, 93253.86, -0.06837756, 0.09795713, -29300.455, -5310.5415, 0.0, 10.000219, 9.999012 
2.894667e+3, 3.0755252e+2, -157313.81, -294629.1, -15375.15, 0.117800005, 0.13663122, -155613.31, -155613.31, 0.0, 9.999878, 9.998033 
2.894602e+3, 3.1755146e+2, 16295.652, 212538.6, 65797.67, -0.042855456, 0.21798578, 232557.53, 232557.53, 0.0, 9.999238, 10.00183 
2.9057506e+3, 1.2762593e+2, -1499897.4, -1690428.9, 19931.055, 0.1850226, 0.16322108, -1497834.8, 191448.0, 0.0, 10.001823, 9.9992895 
2.905689e+3, 1.3762541e+2, -1427448.1, -1604797.9, 22311.988, 0.08850239, 0.2019825, -1424684.3, 166604.1, 0.0, 10.001648, 9.9992895 
2.9056284e+3, 1.4762436e+2, -1354512.0, -1524563.8, 57849.332, 0.06498694, 0.18889582, -1336698.5, 156599.8, 0.0, 10.001506, 9.999232 
2.9055688e+3, 1.5762308e+2, -1275344.3, -1433736.4, 68381.64, 0.10179723, 0.15674172, -1249907.4, 145402.77, 0.0, 10.001369, 9.9992485 
2.9055092e+3, 1.6762228e+2, -1188409.6, -1331756.8, 99075.64, 0.09643834, 0.16645907, -1137800.4, 159518.1, 0.0, 10.001257, 9.999328 
2.9054496e+3, 1.7762169e+2, -1097332.5, -1222710.3, 99734.125, 0.068486124, 0.1915992, -1042221.56, 157103.8, 0.0, 10.001148, 9.999456 
2.9053903e+3, 1.8762115e+2, -994487.06, -1074041.6, 115406.22, 0.067570046, 0.18487322, -912195.4, 189134.48, 0.0, 10.000976, 9.9998865 
2.9053316e+3, 1.9762063e+2, -928648.44, -995576.25, 115921.94, 0.079568565, 0.16635768, -841456.94, 161876.44, 0.0, 10.000772, 9.99985 
2.9052722e+3, 2.0762023e+2, -860002.5, -912422.06, 107663.195, 0.079789355, 0.1624148, -775404.7, 129933.164, 0.0, 10.000575, 9.999843 
2.905213e+3, 2.1761994e+2, -784325.94, -815150.25, 104600.016, 0.07236916, 0.16595867, -694008.75, 113333.38, 0.0, 10.000379, 9.999932 
2.905153e+3, 2.2762018e+2, -692145.0, -681416.1, 98389.516, 0.053050075, 0.19522043, -588244.9, 121095.48, 0.0, 10.000173, 10.000277 
2.905093e+3, 2.3762059e+2, -628810.75, -608339.5, 107293.14, 0.03512096, 0.23072307, -510794.84, 100541.73, 0.0, 9.999971, 10.000202 
2.905033e+3, 2.476201e+2, -546712.2, -528188.44, 93824.76, 0.039441623, 0.18785626, -443169.5, 70171.484, 0.0, 9.999907, 10.000111 
2.9049724e+3, 2.5761935e+2, -457099.88, -429662.47, 97398.01, 0.041038543, 0.12224417, -345021.75, 70325.8, 0.0, 9.99983, 10.00015 
2.9049107e+3, 2.676199e+2, -418309.0, -358961.56, 58073.324, 0.021310808, 0.18006846, -323419.94, -6076.601, 0.0, 9.999416, 10.000163 
2.904849e+3, 2.776208e+2, -374242.0, -287127.78, 80557.13, 0.020118142, 0.27248657, -239106.1, -19769.59, 0.0, 9.99905, 10.000157 
2.904788e+3, 2.8762016e+2, -323989.4, -227475.89, 143105.86, 0.01629055, 0.22110029, -124709.47, -3367.9233, 0.0, 9.998796, 10.000011 
2.9157513e+3, 1.276872e+2, -1487644.3, -1667430.3, 15357.239, 0.12075173, 0.18056712, -1486341.9, 202341.9, 0.0, 10.001835, 9.999441 
2.9156905e+3, 1.376866e+2, -1416600.4, -1579024.0, 18866.227, 0.120861605, 0.19581658, -1414437.8, 176251.67, 0.0, 10.001634, 9.999473 
2.9156297e+3, 1.4768589e+2, -1337090.4, -1487133.1, 54068.992, 0.0916101, 0.19374587, -1319636.6, 173059.61, 0.0, 10.0015, 9.999493 
2.9155698e+3, 1.5768509e+2, -1259975.6, -1403750.5, 64505.926, 0.08499156, 0.18486843, -1235277.3, 159426.44, 0.0, 10.001377, 9.999451 
2.91551e+3, 1.676843e+2, -1183175.6, -1323305.8, 95764.7, 0.08313761, 0.18405974, -1134581.5, 162130.22, 0.0, 10.0012665, 9.999382 
2.9154506e+3, 1.7768352e+2, -1091013.4, -1210413.4, 95971.62, 0.07506272, 0.18539676, -1037688.44, 161031.33, 0.0, 10.001151, 9.999539 
2.9153913e+3, 1.8768305e+2, -983869.0, -1051586.5, 108250.375, 0.070765965, 0.17297073, -904305.75, 196417.81, 0.0, 10.000973, 10.000042 
2.915332e+3, 1.9768274e+2, -922008.2, -980494.0, 108508.88, 0.07144942, 0.15791227, -838870.8, 163854.56, 0.0, 10.000766, 9.999957 
2.9152727e+3, 2.0768258e+2, -860603.06, -913389.5, 100461.8, 0.07296244, 0.17584309, -783125.3, 121602.55, 0.0, 10.000572, 9.999838 
2.915213e+3, 2.1768253e+2, -779138.4, -804690.7, 97450.69, 0.07088993, 0.20366576, -693629.9, 113100.28, 0.0, 10.000379, 10.000005 
2.9151532e+3, 2.276825e+2, -670220.6, -636393.8, 90528.32, 0.05314766, 0.18454431, -561212.5, 147517.58, 0.0, 10.0001745, 10.000586 
2.9150927e+3, 2.3768252e+2, -611703.3, -573625.6, 101734.73, 0.035577867, 0.15253964, -489163.56, 121565.016, 0.0, 9.999974, 10.00044 
2.9150328e+3, 2.4768299e+2, -531429.0, -497065.97, 92358.445, 0.040688757, 0.18278585, -420304.47, 92420.266, 0.0, 9.9999075, 10.000324 
2.9149723e+3, 2.576836e+2, -443967.03, -402943.16, 88157.94, 0.040183663, 0.23009013, -332942.3, 81777.57, 0.0, 9.999832, 10.000333 
2.91491e+3, 2.6768357e+2, -396219.56, -311438.28, 38308.156, 0.0063751554, 0.20776908, -296693.28, 20027.338, 0.0, 9.999409, 10.000492 
2.9148477e+3, 2.7768347e+2, -351341.47, -238936.47, 85337.26, -0.0063951723, 0.17045459, -192956.94, 25764.9, 0.0, 9.999047, 10.00049 
2.914787e+3, 2.8768453e+2, -219805.8, -23334.197, 102799.625, 0.028161302, 0.20054394, 20620.14, 141330.0, 0.0, 9.998838, 10.0014 
2.925753e+3, 1.2774876e+2, -1504147.1, -1664375.1, 29623.313, 0.10126731, 0.180106, -1498845.8, 189235.02, 0.0, 10.001673, 9.99954 
2.9256922e+3, 1.3774818e+2, -1479531.5, -1598716.1, 34573.566, 0.13093868, 0.18779106, -1470228.4, 119857.59, 0.0, 10.001154, 9.999569 
2.925631e+3, 1.4774759e+2, -1383445.1, -1501072.9, 71245.09, 0.098199405, 0.18996346, -1349874.3, 142217.53, 0.0, 10.001144, 9.999569 
2.925571e+3, 1.5774699e+2, -1264918.3, -1394774.9, 69833.51, 0.07740142, 0.19061157, -1234492.5, 159605.61, 0.0, 10.001292, 9.999555 
2.925511e+3, 1.6774629e+2, -1176987.8, -1299690.0, 99094.45, 0.07577527, 0.18576875, -1121789.9, 174314.86, 0.0, 10.001218, 9.999569 
2.9254517e+3, 1.7774561e+2, -1098204.9, -1199347.3, 106424.555, 0.07421472, 0.1790373, -1030947.2, 167164.08, 0.0, 10.001036, 9.999672 
2.925392e+3, 1.8774523e+2, -1016047.25, -1068215.0, 109341.016, 0.07164207, 0.17131233, -929721.94, 170392.55, 0.0, 10.000754, 10.000034 
2.9253325e+3, 1.97745e+2, -965487.75, -996665.7, 101452.78, 0.0707109, 0.16439329, -878433.25, 123682.83, 0.0, 10.000444, 10.000002 
2.925273e+3, 2.0774499e+2, -880643.9, -901350.44, 104884.695, 0.06943062, 0.1823901, -785602.7, 118514.414, 0.0, 10.0003395, 10.000033 
2.9252133e+3, 2.177451e+2, -780547.2, -789868.0, 114044.74, 0.0662677, 0.20801218, -671067.7, 135049.83, 0.0, 10.0003, 10.000145 
2.925153e+3, 2.2774506e+2, -675629.2, -635900.25, 92965.586, 0.05694036, 0.18180862, -560700.56, 147416.8, 0.0, 10.000121, 10.000616 
2.925093e+3, 2.3774503e+2, -618784.44, -569615.8, 86451.125, 0.048726507, 0.13983972, -504321.4, 105795.016, 0.0, 9.99989, 10.000509 
2.925032e+3, 2.477458e+2, -558610.8, -481370.53, 75420.58, 0.040418867, 0.18525606, -435257.1, 76852.6, 0.0, 9.999593, 10.000586 
2.9249713e+3, 2.5774693e+2, -515089.88, -414813.47, 72983.72, 0.023012593, 0.25984997, -376405.28, 37694.875, 0.0, 9.999243, 10.000538 
2.9249093e+3, 2.6774698e+2, -388795.8, -284947.0, 23162.979, 0.009056495, 0.2240984, -280014.88, 36085.39, 0.0, 9.999357, 10.000702 
2.9248473e+3, 2.777467e+2, -252549.42, -168617.0, 65241.734, 0.02170788, 0.14726998, -133009.72, 85093.14, 0.0, 9.9996195, 10.000703 
2.9247853e+3, 2.8774804e+2, -166715.25, 31824.146, 4031.575, 0.004642513, 0.17911309, 31905.979, 151993.6, 0.0, 9.999059, 10.001685 
2.9357547e+3, 1.2781055e+2, -1506051.4, -1658418.1, 8766.909, 0.11427448, 0.16500704, -1505548.6, 181926.34, 0.0, 10.001632, 9.9996 
2.935693e+3, 1.3781005e+2, -1475283.5, -1593794.4, 22934.42, 0.12304833, 0.17764401, -1471000.0, 118479.29, 0.0, 10.001172, 9.999595 
2.9356322e+3, 1.4780943e+2, -1385809.8, -1510106.8, 77756.47, 0.08877955, 0.17888132, -1348416.9, 143069.11, 0.0, 10.001162, 9.999498 
2.935572e+3, 1.5780875e+2, -1263917.0, -1390960.9, 73712.25, 0.07640349, 0.17833148, -1230132.6, 163360.84, 0.0, 10.001285, 9.999585 
2.935512e+3, 1.6780828e+2, -1157895.1, -1257305.8, 92825.04, 0.07228008, 0.17436582, -1102305.1, 193192.64, 0.0, 10.001205, 9.999866 
2.9354525e+3, 1.7780793e+2, -1087751.0, -1175223.0, 98005.695, 0.06673539, 0.17288722, -1024165.25, 173335.17, 0.0, 10.001025, 9.999844 
2.9353926e+3, 1.8780765e+2, -1026852.9, -1090220.3, 97153.45, 0.07020254, 0.17914504, -956347.25, 143155.88, 0.0, 10.0007515, 9.999885 
2.9353327e+3, 1.978074e+2, -965172.9, -997039.9, 93131.14, 0.07511612, 0.18376529, -886622.06, 114883.695, 0.0, 10.000448, 9.999998 
2.935273e+3, 2.0780744e+2, -853894.94, -845998.44, 103697.14, 0.06851616, 0.18149479, -746174.44, 157331.42, 0.0, 10.0003395, 10.000414 
2.935213e+3, 2.1780764e+2, -767445.4, -761541.06, 110562.45, 0.05954661, 0.18054654, -653891.4, 151612.89, 0.0, 10.000295, 10.000342 
2.935153e+3, 2.2780785e+2, -692226.75, -669755.56, 83840.14, 0.064336956, 0.18821692, -596401.5, 111100.734, 0.0, 10.000118, 10.000385 
2.9350924e+3, 2.3780808e+2, -625037.4, -582834.2, 77347.45, 0.07243005, 0.19260217, -523761.53, 85738.52, 0.0, 9.99989, 10.000419 
2.9350314e+3, 2.4780856e+2, -536550.9, -436363.7, 62766.76, 0.0373782, 0.19380966, -406151.4, 105344.52, 0.0, 9.999596, 10.000895 
2.93497e+3, 2.5780943e+2, -497917.1, -380748.9, 64851.133, -0.012113883, 0.20954297, -351938.7, 61549.89, 0.0, 9.9992485, 10.00077 
2.9349086e+3, 2.6781017e+2, -379733.88, -269337.16, 33876.99, 0.03162858, 0.23172091, -259770.5, 55711.324, 0.0, 9.999369, 10.000805 
2.9348475e+3, 2.7781048e+2, -240257.7, -152560.33, 58884.305, 0.101079725, 0.20765397, -122991.92, 94487.2, 0.0, 9.999658, 10.000796 
2.9347834e+3, 2.8781113e+2, -204502.3, -38973.26, -22103.205, -0.07005623, 0.18967403, -36072.637, 83398.63, 0.0, 9.999031, 10.001208 
2.9457557e+3, 1.2787256e+2, -1599050.1, -1694487.5, -1693.3536, 0.12217267, 0.18312663, -1599020.0, 87847.83, 0.0, 10.000954, 9.999681 
2.9456937e+3, 1.378721e+2, -1458879.6, -1577854.9, 16723.814, 0.10305916, 0.18872981, -1456573.6, 132298.27, 0.0, 10.001248, 9.999668 
2.945633e+3, 1.4787154e+2, -1380783.9, -1506513.1, 73733.09, 0.07500731, 0.19298962, -1346754.0, 144123.86, 0.0, 10.001188, 9.999512 
2.945573e+3, 1.5787087e+2, -1309477.1, -1410307.6, 73267.49, 0.07864387, 0.19516692, -1270955.1, 121930.055, 0.0, 10.0009575, 9.999611 
2.9455128e+3, 1.6787055e+2, -1206900.0, -1268699.4, 81782.99, 0.079526186, 0.19771495, -1150374.0, 144514.22, 0.0, 10.0008135, 9.999978 
2.9454532e+3, 1.7787036e+2, -1132884.1, -1184904.9, 75309.664, 0.07206954, 0.20078908, -1079219.6, 117669.87, 0.0, 10.000661, 9.999954 
2.945393e+3, 1.8787009e+2, -1048872.4, -1089251.5, 83276.65, 0.071026504, 0.19671421, -983372.8, 115519.24, 0.0, 10.000547, 9.999991 
2.945333e+3, 1.9786982e+2, -957767.9, -983589.44, 96634.82, 0.073746994, 0.1890289, -873185.2, 127709.46, 0.0, 10.000452, 10.000091 
2.9452732e+3, 2.0786995e+2, -864210.94, -847718.25, 95220.36, 0.06447694, 0.19056655, -760387.8, 142506.19, 0.0, 10.000251, 10.000447 
2.945213e+3, 2.1787028e+2, -803317.75, -775550.9, 79727.086, 0.051909056, 0.20083053, -708507.44, 96383.78, 0.0, 10.00003, 10.000377 
2.9451528e+3, 2.278706e+2, -716859.1, -674224.75, 61749.117, 0.062457096, 0.2117307, -630216.8, 76671.516, 0.0, 9.999912, 10.000456 
2.9450923e+3, 2.3787083e+2, -634564.94, -582995.6, 75168.875, 0.07837006, 0.21053775, -529312.0, 79574.0, 0.0, 9.999802, 10.0004635 
2.945031e+3, 2.4787118e+2, -518486.22, -429289.88, 48878.953, 0.04102093, 0.19447798, -407720.47, 103162.99, 0.0, 9.999721, 10.000885 
2.9449692e+3, 2.5787196e+2, -432657.88, -341654.34, 30952.73, -0.010106093, 0.20247883, -332124.47, 80752.305, 0.0, 9.999658, 10.000844 
2.9449078e+3, 2.678732e+2, -354654.97, -240697.9, 8900.92, 0.050144102, 0.2608345, -240006.88, 74858.336, 0.0, 9.99946, 10.000962 
2.944847e+3, 2.778737e+2, -299403.88, -188451.08, 29574.459, 0.1267062, 0.24578385, -181060.31, 35800.84, 0.0, 9.999272, 10.00074 
2.9447827e+3, 2.878741e+2, -68372.6, 11828.459, -42345.934, -0.07709546, 0.23484442, 30048.0, 148903.45, 0.0, 10.000024, 10.0010805 
2.9557565e+3, 1.2793478e+2, -1594298.6, -1680349.8, 9767.06, 0.12373221, 0.23170844, -1593204.0, 93055.6, 0.0, 10.0009365, 9.999786 
2.9556945e+3, 1.3793425e+2, -1455614.5, -1564203.6, 23770.078, 0.07354211, 0.22018817, -1450639.3, 137624.48, 0.0, 10.00122, 9.999775 
2.9556337e+3, 1.4793383e+2, -1379188.4, -1497193.0, 64234.527, 0.05911973, 0.2289777, -1350970.6, 139297.67, 0.0, 10.001163, 9.999589 
2.9555738e+3, 1.5793328e+2, -1310866.5, -1408438.4, 65742.69, 0.08549062, 0.23630045, -1277785.6, 114488.73, 0.0, 10.000937, 9.999634 
2.955514e+3, 1.6793305e+2, -1210186.9, -1273940.9, 77168.81, 0.09668573, 0.24937943, -1158570.4, 135706.72, 0.0, 10.000807, 9.999946 
2.9554537e+3, 1.7793287e+2, -1128139.4, -1175236.6, 70333.164, 0.08828219, 0.2561081, -1077517.4, 118761.67, 0.0, 10.000662, 10.00002 
2.9553935e+3, 1.8793252e+2, -1026159.56, -1041598.7, 79793.44, 0.074056126, 0.22180413, -953713.1, 144568.3, 0.0, 10.000545, 10.00032 
2.9553333e+3, 1.9793229e+2, -946560.75, -958796.1, 91370.31, 0.068239935, 0.18312718, -861103.5, 139179.23, 0.0, 10.000445, 10.000264 
2.955273e+3, 2.0793255e+2, -884338.2, -889106.7, 85655.75, 0.057466682, 0.21117704, -801033.56, 101248.05, 0.0, 10.000248, 10.000165 
2.955213e+3, 2.1793306e+2, -810796.9, -791575.5, 73438.805, 0.04151723, 0.2663747, -727121.2, 77157.31, 0.0, 10.000031, 10.000266 
2.9551524e+3, 2.2793329e+2, -691875.75, -622222.4, 58020.21, 0.05109392, 0.2500971, -589379.0, 116896.75, 0.0, 9.99991, 10.000814 
2.955092e+3, 2.3793331e+2, -622626.94, -557830.3, 70800.87, 0.06754222, 0.19295824, -512367.13, 95907.25, 0.0, 9.999799, 10.000638 
2.9550308e+3, 2.4793361e+2, -539706.75, -473769.3, 46439.063, 0.051660262, 0.18788666, -449786.13, 60486.152, 0.0, 9.999722, 10.00058 
2.954969e+3, 2.579346e+2, -435904.44, -350334.75, 26469.02, 0.027902374, 0.24149986, -342809.03, 69455.266, 0.0, 9.999665, 10.000782 
2.9549074e+3, 2.6793617e+2, -337709.94, -206407.16, 2337.888, 0.061380785, 0.3122189, -206365.55, 107884.51, 0.0, 9.999464, 10.001196 
2.9548457e+3, 2.7793634e+2, -314826.75, -218197.97, 30112.523, 0.09248894, 0.25927073, -209582.19, 6666.607, 0.0, 9.999264, 10.00054 
2.9547828e+3, 2.8793612e+2, -66246.59, 15718.297, 3536.1943, -0.03043718, 0.21576469, 15870.575, 134120.42, 0.0, 10.000034, 10.001098 
2.965757e+3, 1.2799618e+2, -1629029.0, -1687110.5, -9432.939, 0.10506317, 0.23023948, -1627535.4, 58124.137, 0.0, 10.000653, 9.999877 
2.9656956e+3, 1.3799573e+2, -1527885.5, -1590788.8, 3876.4263, 0.100965135, 0.21740216, -1527647.6, 60015.0, 0.0, 10.000686, 9.999852 
2.9656345e+3, 1.4799519e+2, -1445229.6, -1514329.1, 35612.785, 0.07362707, 0.20488738, -1430161.3, 59506.195, 0.0, 10.000644, 9.9997225 
2.9655743e+3, 1.5799466e+2, -1358567.4, -1412807.9, 46437.707, 0.0754606, 0.19693491, -1331910.6, 59762.336, 0.0, 10.000527, 9.999803 
2.965514e+3, 1.679946e+2, -1241548.5, -1277450.4, 69708.02, 0.07329341, 0.21392234, -1187517.1, 106156.94, 0.0, 10.000537, 10.000053 
2.965454e+3, 1.7799471e+2, -1140564.9, -1172839.9, 68560.02, 0.06432084, 0.23963529, -1086268.8, 109404.89, 0.0, 10.000535, 10.0001 
2.9653937e+3, 1.8799457e+2, -1040948.94, -1046202.1, 64373.844, 0.06274261, 0.219537, -979148.1, 118526.24, 0.0, 10.000428, 10.000347 
2.9653335e+3, 1.9799434e+2, -968903.4, -970487.44, 54287.836, 0.06315789, 0.18303417, -915401.75, 84273.73, 0.0, 10.000293, 10.000258 
2.9652733e+3, 2.0799465e+2, -888329.6, -885448.5, 58651.176, 0.055236485, 0.21362382, -828220.25, 73453.38, 0.0, 10.000194, 10.000217 
2.9652128e+3, 2.1799527e+2, -793365.1, -779038.8, 70735.66, 0.04648683, 0.27109826, -715104.56, 88565.16, 0.0, 10.00013, 10.000307 
2.965152e+3, 2.2799554e+2, -686968.0, -625403.25, 39089.848, 0.05339192, 0.26030108, -606430.5, 99236.17, 0.0, 9.999964, 10.00077 
2.9650912e+3, 2.3799562e+2, -633890.9, -563788.5, 26258.541, 0.06360465, 0.21159853, -555043.6, 52621.33, 0.0, 9.999719, 10.000638 
2.9650304e+3, 2.479959e+2, -547798.8, -485335.0, 16017.763, 0.061740264, 0.2055307, -481467.06, 28196.076, 0.0, 9.999693, 10.000518 
2.964969e+3, 2.5799674e+2, -416386.88, -346965.47, 9821.966, 0.058889158, 0.25135934, -345602.56, 66053.83, 0.0, 9.999818, 10.000735 
2.964907e+3, 2.679981e+2, -290515.16, -199311.17, -35698.02, 0.06517643, 0.31171948, -187000.38, 126643.34, 0.0, 9.999851, 10.001061 
2.9648447e+3, 2.7799815e+2, -251649.22, -207056.08, -19466.01, 0.053892236, 0.25613436, -199754.3, 15889.569, 0.0, 9.999776, 10.000374 
2.9647833e+3, 2.8799793e+2, -60773.98, 4124.2974, -4516.036, 0.0035128088, 0.23540874, 4437.045, 122082.17, 0.0, 10.000132, 10.000977 
2.975757e+3, 1.2805675e+2, -1621482.1, -1675036.6, -14572.529, 0.07496841, 0.17394052, -1617773.6, 67294.38, 0.0, 10.000671, 9.999949 
2.975697e+3, 1.3805647e+2, -1530389.5, -1583122.8, 6063.043, 0.17101188, 0.17576243, -1529701.4, 57367.16, 0.0, 10.000631, 9.999929 
2.9756355e+3, 1.4805575e+2, -1434679.3, -1487508.0, 31448.473, 0.10709343, 0.12730391, -1420023.9, 69050.69, 0.0, 10.000623, 9.999916 
2.975574e+3, 1.5805517e+2, -1339621.0, -1371264.0, 44574.49, 0.04416215, 0.09174439, -1308143.4, 82936.02, 0.0, 10.000518, 10.0000925 
2.9755136e+3, 1.6805536e+2, -1229473.8, -1247229.4, 69563.305, 0.011655342, 0.10854855, -1168224.0, 124853.96, 0.0, 10.000515, 10.000272 
2.9754537e+3, 1.78056e+2, -1138326.0, -1162324.4, 65286.477, 0.0045186467, 0.16612224, -1083945.1, 111127.375, 0.0, 10.00051, 10.000184 
2.9753935e+3, 1.8805622e+2, -1059167.8, -1081183.0, 58261.395, 0.037278786, 0.19416519, -1010883.2, 86187.42, 0.0, 10.000417, 10.000113 
2.9753336e+3, 1.9805598e+2, -979105.4, -991821.75, 49720.055, 0.055938218, 0.18429251, -935338.6, 63734.355, 0.0, 10.000294, 10.000112 
2.975273e+3, 2.0805632e+2, -862845.3, -831935.0, 55497.53, 0.057109855, 0.19622913, -789780.8, 111289.29, 0.0, 10.000191, 10.0005865 
2.975213e+3, 2.1805693e+2, -782525.4, -754299.4, 67071.29, 0.06715589, 0.21878701, -699872.3, 103192.26, 0.0, 10.000119, 10.000482 
2.975152e+3, 2.2805737e+2, -717159.75, -687372.6, 30686.691, 0.068206884, 0.24648544, -668156.2, 36904.625, 0.0, 9.99996, 10.000346 
2.9750907e+3, 2.380578e+2, -645338.7, -587796.75, 18954.506, 0.063875966, 0.2692014, -582114.25, 24943.084, 0.0, 9.999719, 10.000473 
2.9750296e+3, 2.4805802e+2, -535063.5, -459269.84, 19443.863, 0.070648156, 0.2483081, -454572.88, 54483.05, 0.0, 9.999695, 10.000696 
2.9749689e+3, 2.5805834e+2, -418399.44, -352038.34, 13565.395, 0.08289607, 0.2308043, -349372.44, 61680.74, 0.0, 9.999822, 10.000699 
2.9749066e+3, 2.6805902e+2, -324181.1, -270191.6, -35370.723, 0.060452137, 0.25475147, -252691.34, 60355.445, 0.0, 9.999855, 10.000572 
2.9748437e+3, 2.7805918e+2, -254779.92, -215562.58, -19093.328, 0.0053475364, 0.24243635, -207802.38, 7243.345, 0.0, 9.999789, 10.000307 
2.9747838e+3, 2.880599e+2, -91709.95, -59994.953, 22686.156, 0.06031203, 0.3149936, -48173.543, 68864.664, 0.0, 10.000137, 10.000529 
2.9857576e+3, 1.2812045e+2, -1582426.3, -1633252.8, 8783.312, 0.07209326, 0.3828007, -1580951.1, 103492.76, 0.0, 10.000844, 10.0001545 
2.985696e+3, 1.3812001e+2, -1622893.3, -1598865.8, 48477.97, 0.07756545, 0.34353358, -1560935.1, 25510.596, 0.0, 9.999879, 10.000182 
2.9856354e+3, 1.481195e+2, -1535786.6, -1538018.3, 76283.46, 0.07814896, 0.3083564, -1460610.9, 27838.988, 0.0, 9.999942, 9.999896 
2.9855746e+3, 1.5811859e+2, -1447539.9, -1435488.0, 61039.15, 0.095297754, 0.24769357, -1380178.0, 10280.14, 0.0, 9.999836, 9.999977 
2.985515e+3, 1.6811904e+2, -1320087.0, -1291340.9, 70631.08, 0.114174895, 0.29741552, -1233635.3, 58818.566, 0.0, 9.999901, 10.000262 
2.9854545e+3, 1.7811957e+2, -1198984.1, -1192438.1, 54559.637, 0.09937261, 0.34351236, -1141053.4, 53395.594, 0.0, 10.000104, 10.000171 
2.9853937e+3, 1.88119e+2, -1094341.0, -1101790.0, 47828.004, 0.041386552, 0.29503617, -1050092.8, 46362.07, 0.0, 10.000195, 10.000076 
2.985333e+3, 1.9811843e+2, -975082.1, -984629.7, 59265.098, 0.007973241, 0.2520921, -920398.9, 78061.27, 0.0, 10.000299, 10.000159 
2.985273e+3, 2.0811845e+2, -867511.7, -841830.44, 44397.336, 0.03177643, 0.2342807, -808454.1, 92006.68, 0.0, 10.00019, 10.000521 
2.9852125e+3, 2.1811871e+2, -814815.3, -774102.8, 24549.654, 0.05960575, 0.22898424, -762567.6, 39891.44, 0.0, 9.999914, 10.000445 
2.9851517e+3, 2.281191e+2, -712916.44, -677385.9, 12258.503, 0.067348406, 0.24714036, -673567.0, 30888.793, 0.0, 9.999953, 10.000419 
2.9850906e+3, 2.3811956e+2, -582943.0, -560208.6, 28362.158, 0.06115443, 0.26763263, -541020.56, 65431.55, 0.0, 10.000156, 10.000453 
2.9850295e+3, 2.4811982e+2, -492660.5, -453321.94, 16482.643, 0.06450459, 0.26122174, -447328.8, 61121.848, 0.0, 10.000046, 10.000568 
2.9849684e+3, 2.5812006e+2, -423733.63, -372204.78, -5031.3335, 0.084396765, 0.2484551, -371718.1, 38731.41, 0.0, 9.999858, 10.000545 
2.9849064e+3, 2.6812038e+2, -293984.8, -278685.4, -35369.113, 0.06132308, 0.25334704, -250148.22, 62297.914, 0.0, 10.000157, 10.000372 
2.9848436e+3, 2.7812064e+2, -136786.64, -158189.84, -8372.11, -0.020858275, 0.2617725, -133900.88, 80542.08, 0.0, 10.000595, 10.000319 
2.984784e+3, 2.8812048e+2, -136973.28, -148365.13, 22761.45, 0.07980696, 0.26018047, -119205.89, -2761.6792, 0.0, 10.000105, 9.999952 
2.995758e+3, 1.2818062e+2, -1687012.5, -1660815.5, -30679.67, 0.045097142, 0.1731928, -1640555.1, 43298.125, 0.0, 10.000014, 10.000372 
2.9956964e+3, 1.381806e+2, -1619258.4, -1567576.0, -19739.406, 0.16201198, 0.14435607, -1560899.4, 24951.17, 0.0, 9.999763, 10.00046 
2.995635e+3, 1.4818119e+2, -1464461.0, -1541699.8, -20368.824, 0.084508836, 0.22815143, -1459418.6, 28426.117, 0.0, 10.000577, 9.999573 
2.995574e+3, 1.5818027e+2, -1294566.4, -1417526.3, -53261.242, 0.054021504, 0.20704876, -1274704.1, 115150.414, 0.0, 10.001109, 9.999495 
2.995513e+3, 1.6817912e+2, -1208601.0, -1264667.6, -16351.639, -0.01124253, 0.1278187, -1204180.6, 87684.74, 0.0, 10.000763, 10.000039 
2.9954538e+3, 1.7817982e+2, -1177258.3, -1195608.5, -20336.465, 0.029942852, 0.20644102, -1164123.0, 29735.068, 0.0, 10.000292, 10.000069 
2.995394e+3, 1.8817896e+2, -1057289.5, -1070723.8, 11754.198, 0.04902352, 0.12763956, -1050468.5, 45396.87, 0.0, 10.000373, 10.000213 
2.9953334e+3, 1.9817935e+2, -972083.9, -966426.0, 40545.113, 0.0048002973, 0.14946641, -928611.25, 69249.36, 0.0, 10.000235, 10.000322 
2.9952735e+3, 2.0817998e+2, -924779.3, -923083.8, 23978.28, 0.08725718, 0.22039221, -899938.3, -81.77139, 0.0, 10.000021, 10.000047 
2.9952118e+3, 2.1817993e+2, -810556.44, -797697.06, 2486.5024, 0.014622287, 0.23031917, -797233.06, 4626.801, 0.0, 10.0000515, 10.000218 
2.995151e+3, 2.2818033e+2, -679415.1, -599894.3, -4453.345, 0.0058398484, 0.21907698, -599645.7, 104209.88, 0.0, 9.999919, 10.000967 
2.9950902e+3, 2.381807e+2, -562065.7, -536273.25, 17619.225, 0.045329552, 0.19045588, -527334.9, 78516.03, 0.0, 10.000239, 10.000577 
2.995029e+3, 2.4818131e+2, -516272.8, -511182.34, 7280.476, 0.04188034, 0.24379928, -506015.0, 1832.3011, 0.0, 10.000085, 10.000152 
2.994968e+3, 2.5818193e+2, -442806.88, -412519.38, -5587.276, 0.061371673, 0.30592307, -411521.53, -1676.4717, 0.0, 9.99986, 10.000266 
2.9949066e+3, 2.6818216e+2, -288068.47, -268241.4, -15777.439, 0.066946894, 0.30946693, -259521.48, 52320.004, 0.0, 10.000164, 10.00044 
2.9948437e+3, 2.781825e+2, -133196.06, -150706.0, -3904.1912, -0.028075587, 0.3108486, -132364.98, 81470.96, 0.0, 10.000602, 10.000362 
2.9947835e+3, 2.8818065e+2, -174972.78, -218580.7, -2719.3647, 0.06942923, 0.16101964, -174803.86, -58949.83, 0.0, 10.000076, 9.999481 
