coord_x,coord_y,stress_xx,stress_yy,tau_xy,velocity_x,velocity_y,stress_1,eps,damage,lx,ly
4.9985442e+0, 1.2615106e+2, -1987954.8, -1636621.3, -4692.8247, -0.006741393, 0.062920175, -1636558.6, 67164.586, 0.0013143772, 9.997218, 10.001876 
4.9988684e+0, 1.3615127e+2, -1929372.5, -1702630.9, -1836.477, 0.007932633, 0.01927426, -1702616.0, -96897.36, 0.0008064585, 9.997575, 10.000578 
4.999005e+0, 1.461516e+2, -1789483.8, -1590180.8, -1075.3315, 0.00597321, 0.00034196317, -1590175.0, -82460.21, 0.00037918316, 9.997887, 10.000522 
4.9990097e+0, 1.5615235e+2, -1655325.8, -1483010.5, 1107.4009, -0.0076836613, 0.020203624, -1483003.4, -73295.44, 0.00011767186, 9.998171, 10.000447 
4.9992353e+0, 1.6615254e+2, -1558552.4, -1468923.0, 4031.6545, -0.0026855345, 0.035150617, -1468742.0, -157035.64, 0.000016018055, 9.998522, 9.999704 
4.999606e+0, 1.7615215e+2, -1406310.3, -1351243.6, 3822.873, 0.014440866, 0.022154443, -1350979.5, -137269.22, 0.00000013955699, 9.998922, 9.999646 
4.9997717e+0, 1.861514e+2, -1303551.0, -1332903.1, 2250.6782, 0.011680079, 0.020967973, -1303379.4, -187661.02, 0.0, 9.999308, 9.998915 
4.999804e+0, 1.9615042e+2, -1150768.0, -1208200.6, 225.32059, -0.0037635954, 0.028915372, -1150767.1, -133038.4, 0.0, 9.999682, 9.998917 
4.9999747e+0, 2.0614919e+2, -1011108.56, -1106559.9, -2319.7932, -0.004519487, 0.021541087, -1011052.25, -91312.414, 0.0, 10.000039, 9.998769 
5.000233e+0, 2.1614774e+2, -865034.1, -989173.5, -4726.567, 0.0039852015, -0.004976064, -864854.44, -43102.586, 0.0, 10.000386, 9.998734 
5.000413e+0, 2.2614594e+2, -743275.56, -933992.8, -2634.0596, 0.0021085923, -0.0321239, -743239.2, -19472.182, 0.0, 10.000783, 9.99825 
5.0005406e+0, 2.3614389e+2, -583614.6, -806819.3, -798.5247, -0.0063697845, -0.06539108, -583611.75, 42172.625, 0.0, 10.001208, 9.998245 
5.0006646e+0, 2.4614184e+2, -466670.2, -728571.9, -7293.742, -0.0067233914, -0.08150916, -466467.22, 61336.242, 0.0, 10.001463, 9.997988 
5.000788e+0, 2.5613973e+2, -345554.16, -617032.9, -11305.329, -0.0017857564, -0.09290306, -345084.16, 84739.73, 0.0, 10.001612, 9.998009 
5.000941e+0, 2.661378e+2, -205608.61, -503996.53, -6410.8633, -0.001982834, -0.08624528, -205470.92, 126371.26, 0.0, 10.001922, 9.997962 
5.0011146e+0, 2.7613595e+2, -49691.66, -382604.1, -4092.67, -0.0055258535, -0.07069724, -49641.355, 184217.58, 0.0, 10.002339, 9.997922 
5.001248e+0, 2.8613362e+2, 42388.22, -355957.63, -10182.155, -0.0048610605, -0.06651615, 42648.316, 178530.78, 0.000000004221918, 10.002593, 9.997309 
5.001356e+0, 2.9613078e+2, 171078.13, -229151.81, -14137.718, -0.0016305556, -0.086638, 171576.9, 209488.6, 0.0000065845143, 10.002744, 9.997435 
5.001536e+0, 3.0612838e+2, 295917.28, -80603.43, -8043.663, 0.003892563, -0.09948982, 296089.03, 296089.03, 0.0000754208, 10.002994, 9.998003 
5.0016946e+0, 3.161268e+2, 309687.9, -123701.76, -396.27274, 0.0042614415, -0.050952844, 309688.25, 309688.25, 0.0002698707, 10.003302, 9.997559 
1.4995632e+1, 1.2615043e+2, -1984499.9, -1628772.9, 6028.8345, -0.020389738, 0.029141014, -1628670.8, 75057.3, 0.0012897267, 9.997216, 10.001931 
1.4996606e+1, 1.3615076e+2, -1925855.8, -1694860.8, 11099.329, 0.02387933, -0.00904437, -1694328.6, -88606.32, 0.0007892631, 9.997573, 10.000632 
1.4997014e+1, 1.4615111e+2, -1785805.4, -1581928.9, 9123.018, 0.017871562, -0.030874735, -1581521.4, -73803.34, 0.00036879338, 9.997885, 10.00058 
1.499703e+1, 1.5615188e+2, -1652060.3, -1475826.6, 12083.124, -0.02302255, -0.016106898, -1475002.0, -65290.89, 0.00011270428, 9.998169, 10.000498 
1.4997704e+1, 1.6615218e+2, -1558782.9, -1468994.8, 18814.031, -0.008099158, 0.007869979, -1465211.9, -153503.25, 0.000014709239, 9.99852, 9.999704 
1.4998819e+1, 1.7615198e+2, -1407255.0, -1352674.0, 18734.37, 0.04332188, 0.014369238, -1346862.4, -133151.47, 0.00000010097208, 9.99892, 9.999638 
1.4999314e+1, 1.8615118e+2, -1307165.1, -1339808.4, 16217.947, 0.034998298, 0.0134616345, -1300477.8, -184758.02, 0.0, 9.999306, 9.998868 
1.4999412e+1, 1.9615005e+2, -1154085.9, -1214877.6, 14244.258, -0.011327305, 0.010105404, -1150913.8, -133181.69, 0.0, 9.999682, 9.998872 
1.4999925e+1, 2.061489e+2, -1015918.06, -1116202.4, 10537.97, -0.013571178, 0.016669432, -1014822.7, -95080.03, 0.0, 10.000038, 9.998704 
1.50007e+1, 2.1614768e+2, -868902.9, -996774.0, 8714.891, 0.011959262, 0.020729842, -868311.6, -46558.914, 0.0, 10.000384, 9.998684 
1.5001237e+1, 2.2614588e+2, -738156.0, -922987.4, 13394.202, 0.006295705, -0.0095861, -737190.4, -13422.303, 0.0, 10.000781, 9.998326 
1.5001623e+1, 2.3614368e+2, -580245.06, -799637.3, 14107.187, -0.01909394, -0.065120526, -579341.6, 46445.24, 0.0, 10.001207, 9.998295 
1.5001993e+1, 2.4614164e+2, -475443.8, -746587.3, -1933.838, -0.020223593, -0.07334743, -475430.0, 52375.836, 0.0, 10.001462, 9.997865 
1.5002364e+1, 2.561397e+2, -352223.56, -630652.94, -4641.7637, -0.0053664627, -0.05814314, -352146.2, 77678.97, 0.0, 10.001611, 9.997916 
1.5002824e+1, 2.6613754e+2, -199662.77, -491383.88, 9242.156, -0.005970174, -0.07471821, -199370.25, 132475.14, 0.0, 10.001921, 9.99805 
1.5003344e+1, 2.7613527e+2, -46061.36, -374687.6, 10539.272, -0.016552597, -0.11186132, -45723.703, 188142.3, 0.0, 10.002337, 9.997977 
1.5003745e+1, 2.8613305e+2, 34063.88, -372859.84, -4672.3857, -0.014596319, -0.08666091, 34117.52, 170005.83, 0.0000000059189293, 10.002592, 9.997193 
1.5004069e+1, 2.961308e+2, 165688.13, -240046.77, -7660.4775, -0.004859249, -0.037747443, 165832.72, 203745.66, 0.0000065077284, 10.002743, 9.99736 
1.5004608e+1, 3.061284e+2, 311252.56, -48421.395, 3724.6921, 0.011651259, -0.05896104, 311291.16, 311291.16, 0.000074264535, 10.002993, 9.998224 
1.5005083e+1, 3.1612638e+2, 323438.84, -94592.12, 10500.714, 0.012664705, -0.077088386, 323702.47, 323702.47, 0.00026634705, 10.0033, 9.99776 
2.4992995e+1, 1.2614967e+2, -1985851.3, -1623244.1, -6451.1924, -0.0043220073, 0.012593276, -1623129.4, 80605.62, 0.0012539346, 9.997182, 10.0019865 
2.4994053e+1, 1.3615014e+2, -1931843.1, -1692419.0, 190.78441, 0.014315534, -0.01658115, -1692418.9, -86691.05, 0.0007642556, 9.99751, 10.00068 
2.4994801e+1, 1.461505e+2, -1790218.1, -1584065.5, -4785.4854, 0.009362458, -0.040546708, -1583954.5, -76230.85, 0.0003536966, 9.997854, 10.000581 
2.4995308e+1, 1.561512e+2, -1644645.9, -1472086.5, -5929.8057, -0.014845162, -0.030610288, -1471883.0, -62165.664, 0.00010549485, 9.9982195, 10.0005 
2.4996313e+1, 1.6615154e+2, -1547874.8, -1460988.8, 2276.0093, -0.0026579509, -0.004515593, -1460929.1, -149214.72, 0.000012859098, 9.998584, 9.999729 
2.4997659e+1, 1.7615142e+2, -1402107.4, -1348478.8, 3988.6648, 0.03402827, 0.008764713, -1348183.8, -134467.9, 0.00000006033416, 9.998948, 9.999653 
2.4998564e+1, 1.8615067e+2, -1307500.5, -1344733.1, 2869.5354, 0.028619895, 0.012478029, -1307280.6, -191556.11, 0.0, 9.999324, 9.998826 
2.4999183e+1, 1.9614954e+2, -1152334.3, -1218180.9, 1211.5802, -0.0040064757, 0.012855762, -1152312.0, -134574.77, 0.0, 9.999712, 9.998835 
2.500005e+1, 2.0614836e+2, -1004075.9, -1110878.4, 399.36975, -0.009013803, 0.019147525, -1004074.44, -84326.38, 0.0, 10.000121, 9.998701 
2.5001073e+1, 2.161471e+2, -847231.2, -987381.8, 2695.502, 0.0031851246, 0.02006561, -847179.4, -25421.29, 0.0, 10.000538, 9.998675 
2.5001952e+1, 2.261453e+2, -735943.94, -925859.44, 1944.8252, -0.0020241432, -0.0071686646, -735924.0, -12150.293, 0.0, 10.0008135, 9.998292 
2.5002736e+1, 2.3614316e+2, -611788.6, -817860.25, -5579.704, -0.018241461, -0.053981055, -611637.7, 14155.126, 0.0, 10.001004, 9.998268 
2.5003442e+1, 2.4614117e+2, -487287.47, -748024.5, -17202.385, -0.01662072, -0.06080784, -486157.4, 41654.152, 0.0, 10.001363, 9.997903 
2.5004104e+1, 2.5613922e+2, -318413.88, -611007.1, -8378.121, -0.003506439, -0.04975594, -318174.2, 111656.28, 0.0, 10.001828, 9.997946 
2.5004828e+1, 2.6613703e+2, -185036.64, -490302.78, 1497.7878, -0.00410419, -0.06589943, -185029.28, 146821.7, 0.0, 10.002048, 9.997996 
2.5005603e+1, 2.7613473e+2, -81686.555, -396849.22, -7033.0313, -0.013144314, -0.09890978, -81529.68, 152342.66, 0.0, 10.002115, 9.997932 
2.5006253e+1, 2.861325e+2, 13874.14, -377908.25, -16216.718, -0.015185665, -0.07499139, 14544.239, 150438.95, 0.0000000086392555, 10.002434, 9.997235 
2.50068e+1, 2.9613024e+2, 193087.84, -222062.17, -8036.3994, -0.0142953, -0.030175421, 193243.34, 231162.28, 0.0000063841276, 10.002911, 9.997403 
2.500768e+1, 3.0612797e+2, 339967.75, -30606.555, -3636.3264, 0.010562409, -0.049539637, 340003.44, 340003.44, 0.00007245599, 10.003174, 9.9982605 
2.500843e+1, 3.1612593e+2, 324507.88, -90870.64, -11852.636, 0.017770376, -0.06810231, 324845.8, 324845.8, 0.00026087384, 10.003295, 9.997787 
3.4990624e+1, 1.2614876e+2, -1981818.0, -1615124.9, 3959.931, 0.039734423, 0.012710956, -1615082.0, 88661.914, 0.0012062672, 9.997183, 10.002042 
3.499121e+1, 1.3614942e+2, -1928301.1, -1685784.5, 12736.166, -0.021669617, -0.0030571362, -1685117.5, -79382.48, 0.00073077687, 9.997513, 10.000725 
3.4992364e+1, 1.4614975e+2, -1794067.3, -1592510.6, 8692.213, -0.020398395, -0.028185157, -1592136.4, -84405.055, 0.00033350204, 9.997857, 10.000522 
3.499384e+1, 1.5615034e+2, -1648452.0, -1479427.9, 7846.9063, 0.016107151, -0.022858046, -1479064.4, -69337.89, 0.000095918134, 9.998218, 10.000451 
3.4995055e+1, 1.6615063e+2, -1544692.3, -1453717.8, 15870.713, 0.01289012, -0.0020168594, -1451028.6, -139304.7, 0.000010539653, 9.998581, 9.999781 
3.4996128e+1, 1.7615053e+2, -1399185.8, -1342377.4, 17923.16, -0.014110406, 0.0052208095, -1337195.3, -123470.37, 0.000000028001644, 9.998948, 9.999695 
3.4997523e+1, 1.8614984e+2, -1310215.1, -1350313.5, 17377.508, -0.0081620235, 0.018095175, -1303732.4, -187999.64, 0.0, 9.999324, 9.998788 
3.4999114e+1, 1.9614886e+2, -1154702.0, -1222441.4, 16159.841, 0.017841287, 0.03744591, -1151044.5, -133300.2, 0.0, 9.99971, 9.998806 
3.500035e+1, 2.0614757e+2, -1000294.8, -1102553.4, 16241.507, 0.008600916, 0.028976748, -997777.2, -78021.375, 0.0, 10.000119, 9.998759 
3.500135e+1, 2.1614599e+2, -844840.4, -982325.75, 17544.494, -0.022848519, -0.0069021145, -842636.8, -20868.805, 0.0, 10.000537, 9.99871 
3.5002553e+1, 2.2614421e+2, -746212.0, -947028.06, 9025.333, -0.023616316, -0.024845643, -745807.2, -22023.2, 0.0, 10.000813, 9.998147 
3.5003883e+1, 2.3614232e+2, -619215.7, -833234.6, 2868.8408, -0.004297364, -0.032130934, -619177.25, 6624.908, 0.0, 10.001004, 9.998163 
3.500501e+1, 2.4614033e+2, -473270.9, -718741.56, 365.57053, 0.0035258913, -0.044191737, -473270.38, 54550.313, 0.0, 10.001362, 9.998104 
3.5006002e+1, 2.5613824e+2, -307850.7, -588677.25, 7553.1465, 0.0034407736, -0.06754945, -307647.7, 122192.08, 0.0, 10.001826, 9.9981 
3.5006946e+1, 2.6613626e+2, -198752.14, -518600.97, 3774.2131, 0.0029802783, -0.059635215, -198707.63, 133151.34, 0.0, 10.002047, 9.997803 
3.5007894e+1, 2.7613437e+2, -91988.93, -418051.5, -2697.1287, 0.003991679, -0.031983458, -91966.625, 141911.31, 0.0, 10.002114, 9.997787 
3.5008767e+1, 2.8613198e+2, 27588.762, -349012.3, 1765.4702, -0.007399314, -0.03170686, 27597.04, 163498.75, 0.000000011844628, 10.002432, 9.997435 
3.500955e+1, 2.9612914e+2, 203831.61, -199183.7, 8577.214, -0.030424474, -0.063814074, 204014.08, 241943.77, 0.0000061783935, 10.00291, 9.9975605 
3.5010755e+1, 3.0612695e+2, 329475.44, -52201.7, 911.77075, 0.00032642242, -0.07117009, 329477.63, 329477.63, 0.00006980885, 10.003174, 9.998112 
3.501174e+1, 3.1612542e+2, 314453.66, -111834.7, -8014.487, 0.018282976, -0.024191547, 314604.28, 314604.28, 0.00025299258, 10.003296, 9.997643 
4.4987947e+1, 1.2614769e+2, -1951280.5, -1608121.8, 378.86438, 0.04175827, 0.009153163, -1608121.3, 95632.95, 0.0011480161, 9.997426, 10.001974 
4.4988772e+1, 1.3614844e+2, -1931137.6, -1693407.8, 2495.3225, -0.017160727, 0.009264509, -1693381.6, -87636.39, 0.0006895071, 9.997521, 10.000669 
4.499025e+1, 1.4614877e+2, -1800288.6, -1597555.9, 2765.8901, -0.015799297, -0.011069049, -1597518.1, -89776.37, 0.00030865482, 9.997824, 10.000504 
4.4992092e+1, 1.561494e+2, -1643873.1, -1479712.4, 4877.26, 0.01769419, -0.0013124385, -1479567.6, -69830.97, 0.00008435172, 9.9982605, 10.000429 
4.4993633e+1, 1.6614962e+2, -1537596.0, -1454289.3, 9436.749, 0.009603813, 0.014569882, -1453233.8, -141498.98, 0.000007991499, 9.998648, 9.999744 
4.499502e+1, 1.7614934e+2, -1392422.1, -1342535.1, 5017.1685, -0.023166806, 0.010315106, -1342035.6, -128298.45, 0.000000008983813, 9.99901, 9.999664 
4.4996822e+1, 1.8614861e+2, -1298934.8, -1344710.6, 4740.307, -0.01461102, 0.019206153, -1298449.0, -182703.94, 0.0, 9.999401, 9.998789 
4.499888e+1, 1.9614765e+2, -1139972.4, -1214879.9, 5965.682, 0.018928723, 0.039600298, -1139500.3, -121744.23, 0.0, 9.999809, 9.998811 
4.500045e+1, 2.0614628e+2, -1002470.25, -1100257.9, 3393.247, 0.008302952, 0.024338337, -1002352.6, -82584.88, 0.0, 10.000091, 9.998789 
4.5001695e+1, 2.1614464e+2, -879194.1, -996828.75, 2525.5625, -0.029936992, -0.022780918, -879139.94, -57359.43, 0.0, 10.000293, 9.998729 
4.5003235e+1, 2.2614287e+2, -773501.2, -970109.7, -3230.2666, -0.02925415, -0.035985287, -773448.1, -49651.32, 0.0, 10.000669, 9.998058 
4.5004967e+1, 2.3614104e+2, -602112.4, -832167.4, -5310.436, -0.0035503616, -0.028597776, -601989.9, 23825.37, 0.0, 10.001152, 9.998099 
4.5006412e+1, 2.461391e+2, -450779.13, -694109.3, -9916.155, 0.0030459817, -0.038804647, -450375.7, 77457.586, 0.0, 10.001457, 9.998227 
4.500767e+1, 2.5613707e+2, -326717.8, -586876.1, -9123.043, -0.0033138178, -0.067712575, -326398.28, 103453.1, 0.0, 10.001651, 9.998198 
4.50089e+1, 2.6613516e+2, -208965.42, -533872.1, -12030.131, -0.0052691945, -0.05311156, -208520.6, 123349.74, 0.0, 10.002021, 9.99771 
4.501014e+1, 2.7613333e+2, -39483.816, -400179.28, -11311.932, -0.0024056637, -0.011588562, -39129.406, 194760.19, 0.0, 10.002507, 9.997721 
4.5011273e+1, 2.8613093e+2, 74939.02, -312652.16, -8565.638, -0.012928112, -0.01678177, 75128.23, 211041.53, 0.000000014278152, 10.0027, 9.997556 
4.5012307e+1, 2.9612803e+2, 181540.67, -199070.3, -7223.068, -0.035983466, -0.066512756, 181677.7, 219618.67, 0.0000058442592, 10.002709, 9.997658 
4.501382e+1, 3.0612585e+2, 300367.66, -75723.33, -12064.595, -0.0021850802, -0.06981523, 300754.28, 300754.28, 0.000066210356, 10.003015, 9.998028 
4.501501e+1, 3.161243e+2, 337363.9, -110906.86, -17748.783, 0.006213301, -0.016326468, 338065.56, 338065.56, 0.0002424885, 10.003496, 9.997555 
5.4984957e+1, 1.2614645e+2, -1964002.3, -1636231.8, 1109.5859, -0.0006682047, 0.0043021743, -1636227.9, 67537.66, 0.0010818627, 9.997434, 10.001778 
5.498674e+1, 1.3614719e+2, -1942815.4, -1717069.5, 7429.1064, 0.027001975, 0.02059328, -1716825.3, -111066.86, 0.0006423977, 9.9975195, 10.000508 
5.4988456e+1, 1.4614756e+2, -1799077.3, -1594094.9, 19422.408, 0.02199296, 0.010357843, -1592270.8, -84515.91, 0.00028050644, 9.99782, 10.000529 
5.4990065e+1, 1.5614834e+2, -1642990.4, -1478427.5, 21271.512, -0.011393032, 0.03400492, -1475722.4, -65974.58, 0.00007169208, 9.998263, 10.000437 
5.4992056e+1, 1.6614845e+2, -1546068.9, -1472217.8, 23045.465, -0.013449172, 0.045512713, -1465616.5, -153869.55, 0.0000055425044, 9.99865, 9.999621 
5.499432e+1, 1.7614791e+2, -1400408.9, -1358063.8, 19034.47, 0.006502524, 0.02465558, -1350765.4, -137013.16, 0.00000000116644, 9.999006, 9.99956 
5.4996455e+1, 1.8614697e+2, -1296663.0, -1338991.8, 20268.896, 0.008425469, 0.016050654, -1288522.8, -172761.23, 0.0, 9.999397, 9.99883 
5.499849e+1, 1.9614586e+2, -1137398.4, -1209535.0, 20612.125, -0.001732764, 0.019111395, -1131924.1, -114151.48, 0.0, 9.999809, 9.998847 
5.500035e+1, 2.0614454e+2, -1002159.4, -1099587.6, 10952.395, -0.010821349, 0.0051649935, -1000943.4, -81159.54, 0.0, 10.000091, 9.998794 
5.50021e+1, 2.1614304e+2, -879322.9, -996894.3, 11534.923, -0.01877682, -0.027913818, -878201.9, -56406.383, 0.0, 10.000292, 9.998729 
5.5004e+1, 2.2614124e+2, -775927.8, -974848.9, 15107.709, -0.01961885, -0.040874157, -774786.94, -50974.777, 0.0, 10.000667, 9.998027 
5.500599e+1, 2.361393e+2, -603683.8, -835305.56, 11869.48, -0.016420558, -0.04321491, -603077.2, 22754.818, 0.0, 10.001152, 9.998078 
5.5007654e+1, 2.4613747e+2, -447794.0, -687831.6, -2769.0447, -0.01891992, -0.044340074, -447762.06, 80087.29, 0.0, 10.001456, 9.998271 
5.500911e+1, 2.561357e+2, -324209.13, -581517.44, -597.286, -0.02484085, -0.0504707, -324207.75, 105657.62, 0.0, 10.00165, 9.998235 
5.5010676e+1, 2.661337e+2, -208432.44, -532460.6, 6304.541, -0.029569723, -0.046666145, -208309.81, 123575.375, 0.0, 10.00202, 9.99772 
5.5012345e+1, 2.7613157e+2, -38868.133, -398381.1, 4986.5747, -0.03272921, -0.037425082, -38798.98, 195108.3, 0.0, 10.002505, 9.997734 
5.501378e+1, 2.861293e+2, 77711.93, -306604.22, -8504.12, -0.03233633, -0.02997305, 77900.016, 213829.48, 0.000000014996283, 10.002699, 9.997598 
5.501506e+1, 2.9612687e+2, 184007.42, -193734.47, -4825.9194, -0.0317841, -0.03853392, 184069.08, 222021.9, 0.0000053587105, 10.002709, 9.997695 
5.501688e+1, 3.0612463e+2, 298689.6, -78990.94, 6192.8604, 0.002222023, -0.046249464, 298791.13, 298791.13, 0.00006167987, 10.003014, 9.998006 
5.5018246e+1, 3.1612256e+2, 334850.7, -116006.875, -695.5309, -0.019973418, -0.045645483, 334851.78, 334851.78, 0.00022941288, 10.003496, 9.9975195 
6.498241e+1, 1.2614478e+2, -1981508.6, -1659299.4, -23125.72, 0.0036944451, -0.0052919085, -1657648.0, 46133.504, 0.0010116006, 9.997376, 10.001646 
6.4984304e+1, 1.3614556e+2, -1915790.0, -1716326.1, -9227.396, 0.020798186, 0.02907487, -1715900.1, -110125.31, 0.00059264415, 9.997758, 10.000398 
6.498635e+1, 1.4614587e+2, -1760430.9, -1576452.1, 8339.4, 0.016921021, 0.0152355535, -1576074.9, -68302.63, 0.0002512883, 9.99809, 10.000521 
6.498843e+1, 1.5614656e+2, -1624054.9, -1471305.0, 7271.923, -0.00882689, 0.031572357, -1470959.6, -61194.254, 0.000059186506, 9.998402, 10.000419 
6.499081e+1, 1.6614664e+2, -1537065.1, -1478821.3, 9067.723, -0.008074187, 0.045903146, -1477442.1, -165677.31, 0.0000034805446, 9.998759, 9.999523 
6.499345e+1, 1.7614608e+2, -1385589.5, -1359462.3, 7027.894, 0.011150129, 0.034352068, -1357691.8, -143921.06, 0.00000000000024211628, 9.9991455, 9.999483 
6.4995897e+1, 1.8614508e+2, -1281628.9, -1322680.8, 10394.332, 0.009793178, 0.017790018, -1279147.1, -163366.86, 0.0, 9.999462, 9.998911 
6.499823e+1, 1.9614387e+2, -1143465.0, -1205736.1, 13324.584, -0.0051586237, 0.0019397814, -1140733.6, -122942.16, 0.0, 9.99974, 9.998907 
6.5000415e+1, 2.0614253e+2, -1011030.75, -1115050.9, -1789.3829, -0.013319794, -0.010189616, -1011000.0, -91197.09, 0.0, 10.000078, 9.998693 
6.500249e+1, 2.1614107e+2, -860962.94, -996492.6, -8639.046, -0.01699412, -0.027684195, -860414.5, -38599.7, 0.0, 10.000455, 9.998652 
6.500471e+1, 2.261393e+2, -755459.0, -952398.9, 1196.9078, -0.019230787, -0.04052644, -755451.7, -31620.559, 0.0, 10.000753, 9.998138 
6.5007025e+1, 2.3613736e+2, -619901.94, -833865.2, 8046.367, -0.02096994, -0.053494383, -619599.75, 6250.571, 0.0, 10.001, 9.99816 
6.5008974e+1, 2.4613558e+2, -478849.0, -720955.3, -14388.045, -0.025501862, -0.04592473, -477996.94, 49871.0, 0.0, 10.001322, 9.998109 
6.5010715e+1, 2.5613388e+2, -326404.03, -596243.56, -27263.03, -0.03156567, -0.03066751, -323677.1, 106207.61, 0.0, 10.001694, 9.998113 
6.5012586e+1, 2.6613188e+2, -204867.58, -509579.16, -16149.848, -0.03712374, -0.032468215, -204014.02, 127890.5, 0.0, 10.001953, 9.99791 
6.5014577e+1, 2.7612966e+2, -79411.28, -399563.13, -4538.3047, -0.041422382, -0.04646865, -79346.96, 154579.13, 0.0, 10.002148, 9.997898 
6.5016294e+1, 2.861275e+2, 50195.688, -321921.72, -18394.994, -0.041634012, -0.035716526, 51102.8, 187050.1, 0.000000013847158, 10.002519, 9.99758 
6.501781e+1, 2.9612523e+2, 225959.1, -173721.78, -19166.719, -0.041862734, -0.02365862, 226876.13, 264845.47, 0.0000047556837, 10.002998, 9.997693 
6.501997e+1, 3.061231e+2, 333470.9, -50538.695, -3409.5906, 0.0011941296, -0.029742958, 333501.2, 333501.2, 0.000056396846, 10.003202, 9.99811 
6.5021616e+1, 3.1612083e+2, 302131.5, -121919.7, -1479.7307, -0.01927883, -0.060064383, 302136.66, 302136.66, 0.00021408794, 10.003229, 9.997607 
7.498027e+1, 1.2614262e+2, -1985762.5, -1668158.0, -10553.703, 0.051844135, -0.021911934, -1667807.8, 35994.6, 0.00094218313, 9.997376, 10.001585 
7.498149e+1, 1.3614357e+2, -1918704.3, -1724041.0, 5265.442, -0.037920218, 0.03427653, -1723898.6, -118104.09, 0.0005443152, 9.997765, 10.000341 
7.4983954e+1, 1.4614365e+2, -1763071.0, -1583017.0, 20085.438, -0.032753147, 0.0035482722, -1580803.6, -73009.75, 0.00022371147, 9.998095, 10.000473 
7.498716e+1, 1.5614401e+2, -1628071.9, -1478715.0, 19513.205, 0.024414413, -0.008571749, -1476207.8, -66418.37, 0.00004811655, 9.998398, 10.00037 
7.4989897e+1, 1.6614412e+2, -1542459.4, -1488992.6, 23841.451, 0.024430249, 0.015748752, -1479905.8, -168117.13, 0.0000019773436, 9.9987545, 9.9994545 
7.4992377e+1, 1.7614384e+2, -1388613.5, -1366109.9, 21410.592, -0.0104953265, 0.039049815, -1353174.5, -139382.0, 0.0, 9.999146, 9.999436 
7.499515e+1, 1.861429e+2, -1272951.4, -1304936.5, 20884.135, -0.011609776, 0.024199963, -1262639.8, -146838.44, 0.0, 9.999463, 9.999032 
7.49981e+1, 1.9614162e+2, -1137916.5, -1193671.8, 24418.242, 0.008355198, -0.011633645, -1128734.5, -110921.97, 0.0, 9.999737, 9.998991 
7.5000626e+1, 2.0614024e+2, -1025783.0, -1145163.6, 12545.525, 0.00041271155, -0.021518312, -1024478.9, -104653.91, 0.0, 10.000076, 9.998487 
7.500286e+1, 2.1613875e+2, -871736.44, -1018672.5, 5194.433, -0.025464017, -0.022012884, -871553.0, -49714.61, 0.0, 10.000454, 9.998501 
7.500537e+1, 2.2613707e+2, -737521.1, -915098.75, 10501.12, -0.029167084, -0.034990948, -736902.3, -13048.564, 0.0, 10.000753, 9.998395 
7.500806e+1, 2.3613526e+2, -607014.1, -807022.9, 17902.262, -0.018062858, -0.059503768, -605424.4, 20445.916, 0.0, 10.001, 9.998345 
7.501038e+1, 2.4613342e+2, -504549.03, -774163.9, -394.8563, -0.017369049, -0.043980952, -504548.47, 23340.652, 0.0, 10.001321, 9.997744 
7.501248e+1, 2.5613156e+2, -346266.66, -637253.75, -13925.253, -0.024005663, -0.0081729265, -345601.78, 84307.71, 0.0, 10.001692, 9.997832 
7.501463e+1, 2.661296e+2, -179184.06, -455960.47, -9084.872, -0.028485926, -0.010408959, -178886.19, 153042.14, 0.0, 10.001952, 9.998278 
7.5016844e+1, 2.7612767e+2, -57519.367, -353733.72, 3985.862, -0.029461892, -0.039016295, -57465.742, 176480.3, 0.0, 10.002147, 9.998214 
7.501881e+1, 2.861255e+2, 44696.54, -333076.13, -337.33966, -0.041789908, -0.034279056, 44696.84, 180663.64, 0.000000011324871, 10.002518, 9.997503 
7.502055e+1, 2.961232e+2, 223218.11, -179182.19, -2952.6206, -0.066967815, -0.021840455, 223239.78, 261230.19, 0.000004098041, 10.002997, 9.997657 
7.502311e+1, 3.061213e+2, 349387.84, -16923.57, -2670.087, -0.005983126, -0.01981562, 349407.3, 349407.3, 0.000050636394, 10.0032015, 9.998341 
7.5025105e+1, 3.161191e+2, 316631.47, -90959.664, 3.5786905, 0.0069081914, -0.058869537, 316631.47, 316631.47, 0.00019707165, 10.003226, 9.99782 
8.4977525e+1, 1.2614018e+2, -2004496.5, -1684726.8, -23497.959, 0.044632982, -0.024342613, -1683009.3, 20816.785, 0.00087835814, 9.99728, 10.001518 
8.4979486e+1, 1.3614117e+2, -1884532.3, -1713188.6, -7474.051, -0.027404387, 0.04008142, -1712863.3, -107044.91, 0.0005011039, 9.998023, 10.000291 
8.4982306e+1, 1.461411e+2, -1717302.8, -1568000.9, -3357.8838, -0.023801317, 0.0012946465, -1567925.4, -60106.49, 0.00020010647, 9.998439, 10.00041 
8.4985614e+1, 1.5614136e+2, -1595875.5, -1469646.3, -4444.077, 0.017572612, -0.015877733, -1469490.0, -59674.734, 0.000039437622, 9.998648, 10.000312 
8.498864e+1, 1.6614145e+2, -1518181.4, -1476927.8, 6328.223, 0.01557326, 0.00891572, -1475978.9, -164164.17, 0.0000010481418, 9.99892, 9.999457 
8.4991556e+1, 1.761412e+2, -1375047.8, -1359484.5, 8263.499, -0.011730714, 0.035244007, -1355915.4, -142097.05, 0.0, 9.99924, 9.999437 
8.4994644e+1, 1.8614031e+2, -1268230.3, -1304396.5, 85.52177, -0.009977512, 0.026836133, -1268230.0, -152403.27, 0.0, 9.999503, 9.999017 
8.499784e+1, 1.961391e+2, -1139439.5, -1195088.3, -5637.8926, 0.009156521, 0.00008215718, -1138874.0, -121036.375, 0.0, 9.99973, 9.998984 
8.500069e+1, 2.0613773e+2, -1028518.75, -1142741.4, -6204.1416, 0.0008231107, -0.010185652, -1028182.75, -108332.75, 0.0, 10.000042, 9.998521 
8.50033e+1, 2.1613622e+2, -876434.1, -1017785.44, 3479.5908, -0.024979986, -0.017429821, -876348.5, -54484.777, 0.0, 10.000408, 9.9985285 
8.500612e+1, 2.2613455e+2, -744172.94, -919602.1, -196.67932, -0.027958987, -0.028323255, -744172.75, -20293.85, 0.0, 10.000713, 9.9983835 
8.500906e+1, 2.3613282e+2, -610140.0, -808860.4, -12552.454, -0.015837507, -0.04423419, -609350.25, 16544.623, 0.0, 10.00098, 9.998342 
8.501172e+1, 2.4613097e+2, -503826.34, -767627.9, -15857.998, -0.014447251, -0.032803275, -502876.47, 25037.328, 0.0, 10.001299, 9.997799 
8.501418e+1, 2.5612903e+2, -348735.28, -632801.3, 1089.078, -0.020817615, -0.009406906, -348731.1, 81203.67, 0.0, 10.001651, 9.997883 
8.50166e+1, 2.661272e+2, -185468.98, -457519.66, -3576.6045, -0.024149917, -0.006374173, -185421.97, 146530.9, 0.0, 10.001903, 9.998292 
8.501903e+1, 2.761254e+2, -64360.492, -354428.56, -16133.766, -0.023109809, -0.0184892, -63465.883, 170503.13, 0.0, 10.002088, 9.998238 
8.5021245e+1, 2.8612325e+2, 28349.752, -328524.78, -14707.887, -0.04152933, -0.021886962, 28954.883, 164944.56, 0.000000007967864, 10.002351, 9.997616 
8.502327e+1, 2.9612082e+2, 183241.38, -187304.08, -4110.353, -0.0793506, -0.032000627, 183286.97, 221301.03, 0.0000034232567, 10.002674, 9.997757 
8.5026175e+1, 3.0611905e+2, 335807.38, -23628.242, -13529.479, -0.013985698, -0.01802687, 336315.94, 336315.94, 0.00004462947, 10.003107, 9.998341 
8.5028464e+1, 3.16117e+2, 369601.47, -65284.438, -28194.465, 0.0021589978, -0.04747701, 371421.75, 371421.75, 0.00017893763, 10.003589, 9.997823 
9.497416e+1, 1.2613745e+2, -2009598.4, -1695732.6, 2680.238, -0.02089053, -0.01244657, -1695709.8, 8143.013, 0.00082284986, 9.997282, 10.001442 
9.4978297e+1, 1.3613832e+2, -1888014.9, -1720496.3, 18427.043, 0.051078606, 0.046128467, -1718493.3, -112646.99, 0.00046510532, 9.998023, 10.000241 
9.4981414e+1, 1.4613822e+2, -1722264.5, -1578230.4, 4681.511, 0.042253044, 0.008359767, -1578078.4, -70230.78, 0.00018171112, 9.998439, 10.00034 
9.498378e+1, 1.5613858e+2, -1599623.0, -1478126.1, 4213.844, -0.030947933, 0.009364979, -1477980.1, -68136.99, 0.000033543416, 9.998651, 10.000253 
9.4987047e+1, 1.6613857e+2, -1513033.8, -1466686.0, 18609.033, -0.036066033, 0.024829118, -1460139.1, -148296.02, 0.00000057940093, 9.998922, 9.999527 
9.499098e+1, 1.7613812e+2, -1372117.4, -1353115.1, 20135.309, 0.006698148, 0.022905516, -1340351.9, -126503.61, 0.0, 9.999238, 9.999481 
9.4994384e+1, 1.861373e+2, -1278742.9, -1325899.5, 8676.846, 0.013724029, 0.026004188, -1277197.0, -161340.22, 0.0, 9.999502, 9.998869 
9.499744e+1, 1.9613633e+2, -1146126.6, -1209091.9, 3642.4934, -0.0036577112, 0.037117224, -1145916.6, -128049.93, 0.0, 9.999731, 9.998888 
9.5000595e+1, 2.0613502e+2, -1009433.7, -1103195.9, 7655.9556, -0.012776249, 0.023713682, -1008812.7, -88934.65, 0.0, 10.000042, 9.998793 
9.50038e+1, 2.1613348e+2, -861851.56, -987450.6, 17033.088, -0.016121816, -0.0138090355, -859582.56, -37691.816, 0.0, 10.000408, 9.998737 
9.500694e+1, 2.261318e+2, -764052.75, -960714.56, 9785.091, -0.016349103, -0.02031087, -763567.06, -39660.523, 0.0, 10.000712, 9.998101 
9.5010066e+1, 2.3613004e+2, -624060.3, -837430.94, -2055.2742, -0.01445418, -0.008230779, -624040.56, 1883.5933, 0.0, 10.000979, 9.998146 
9.501299e+1, 2.4612822e+2, -470684.8, -698596.2, -2708.344, -0.017199807, -0.012452385, -470652.63, 57289.47, 0.0, 10.001298, 9.998274 
9.501582e+1, 2.561263e+2, -322088.06, -577238.1, 13653.645, -0.023056911, -0.03420879, -321359.5, 108601.12, 0.0, 10.00165, 9.998264 
9.5018494e+1, 2.6612455e+2, -209414.45, -507076.5, 3291.003, -0.02493947, -0.020161934, -209378.08, 122600.1, 0.0, 10.001902, 9.9979515 
9.5021117e+1, 2.761229e+2, -82873.945, -392805.75, -8645.99, -0.022744212, 0.015066081, -82632.94, 151362.02, 0.0, 10.002087, 9.997974 
9.5023596e+1, 2.8612068e+2, 49540.31, -284503.63, -2921.9087, -0.041495573, 0.001327268, 49565.863, 185581.78, 0.0000000042394483, 10.002351, 9.997918 
9.502594e+1, 2.961181e+2, 199821.02, -152619.94, 8645.434, -0.0795088, -0.054692872, 200032.97, 238073.23, 0.000002739973, 10.002673, 9.997995 
9.502919e+1, 3.061165e+2, 319683.94, -56424.535, 4855.3096, -0.023407565, -0.025090849, 319746.6, 319746.6, 0.000038513957, 10.003105, 9.9981165 
9.5031685e+1, 3.161145e+2, 354922.0, -94810.22, -10165.652, -0.03564661, -0.025515147, 355151.7, 355151.7, 0.00016010099, 10.003585, 9.997622 
1.0497163e+2, 1.2613407e+2, -1945510.4, -1671077.9, -23170.934, -0.024425805, -0.007809281, -1669135.3, 34750.934, 0.0007762847, 9.997749, 10.001385 
1.0497635e+2, 1.3613491e+2, -1885057.9, -1722192.3, -5484.038, 0.05238672, 0.04989382, -1722007.8, -116127.766, 0.00043669788, 9.998057, 10.000213 
1.0497986e+2, 1.4613475e+2, -1730890.5, -1585891.4, -25026.842, 0.04525744, 0.011282298, -1581693.4, -73811.375, 0.00016867174, 9.998394, 10.000309 
1.0498248e+2, 1.561352e+2, -1586563.4, -1473966.6, -23007.826, -0.030162439, 0.024605224, -1469446.8, -59569.668, 0.000030278157, 9.998749, 10.000234 
1.0498602e+2, 1.6613524e+2, -1492586.9, -1445003.9, -6058.8237, -0.035101853, 0.038151532, -1444244.5, -132368.02, 0.0000004316036, 9.99901, 9.999634 
1.0499023e+2, 1.7613478e+2, -1369486.9, -1341290.9, -1059.7891, 0.009137494, 0.025068948, -1341251.1, -127370.22, 0.0, 9.99921, 9.999576 
1.0499389e+2, 1.8613395e+2, -1279568.3, -1328227.4, -3948.798, 0.014262069, 0.024297116, -1279249.9, -163360.31, 0.0, 9.999504, 9.998852 
1.0499721e+2, 1.9613296e+2, -1127214.9, -1200744.6, 250.98724, -0.007029726, 0.036082678, -1127214.0, -109314.055, 0.0, 9.999864, 9.998881 
1.0500068e+2, 2.0613176e+2, -986129.2, -1083148.5, 7.868997, -0.014202083, 0.027876155, -986129.2, -66218.65, 0.0, 10.000163, 9.998871 
1.0500425e+2, 2.1613036e+2, -855052.2, -976140.0, -4983.09, -0.011962926, -0.0016407514, -854847.44, -32925.867, 0.0, 10.000421, 9.998809 
1.05007686e+2, 2.2612868e+2, -768359.56, -964480.25, -6901.5615, -0.01283035, -0.010768886, -768117.0, -44179.49, 0.0, 10.00069, 9.998086 
1.0501102e+2, 2.3612683e+2, -625474.4, -837927.0, 1102.9943, -0.015743224, -0.008227543, -625468.6, 487.7306, 0.0, 10.000969, 9.998148 
1.0501425e+2, 2.461251e+2, -471975.66, -683120.25, -5958.325, -0.017033389, -0.010960306, -471807.66, 56165.594, 0.0, 10.00122, 9.998418 
1.05017416e+2, 2.5612342e+2, -341598.44, -572171.0, -14306.699, -0.017650694, -0.024541643, -340714.1, 89275.02, 0.0, 10.001453, 9.998394 
1.0502036e+2, 2.6612172e+2, -222500.0, -513265.06, -17864.004, -0.02345998, -0.012544033, -221406.6, 110599.67, 0.0, 10.00181, 9.997954 
1.050232e+2, 2.7611998e+2, -59421.44, -380994.34, -4876.297, -0.031055422, 0.014300856, -59347.51, 174676.5, 0.0, 10.002245, 9.99798 
1.0502598e+2, 2.8611776e+2, 77473.664, -267446.47, -3406.7297, -0.047429, -0.0012543452, 77507.31, 213552.16, 0.0000000012344323, 10.002526, 9.997952 
1.0502867e+2, 2.9611522e+2, 205589.23, -147336.4, -10387.153, -0.075206496, -0.054276645, 205894.69, 243963.0, 0.0000020653147, 10.0027, 9.998021 
1.050323e+2, 3.0611372e+2, 307539.16, -67783.53, -5873.227, -0.019381756, -0.011961773, 307631.03, 307631.03, 0.00003243676, 10.003042, 9.99807 
1.0503507e+2, 3.1611153e+2, 340901.0, -104613.53, -8372.892, -0.051618338, -0.02562185, 341058.3, 341058.3, 0.00014094144, 10.0035, 9.997596 
1.14969954e+2, 1.2613001e+2, -1948044.9, -1677059.3, -13609.328, 0.031768985, -0.011288441, -1676377.5, 27549.08, 0.0007384457, 9.997752, 10.001343 
1.1497363e+2, 1.3613088e+2, -1886031.3, -1723692.1, 6412.231, -0.025830423, 0.05050885, -1723439.3, -117519.57, 0.00041537013, 9.9980545, 10.000204 
1.1497762e+2, 1.4613071e+2, -1731029.6, -1585726.8, -11371.504, -0.017263817, 0.009026255, -1584842.1, -76919.99, 0.00016046493, 9.998392, 10.000312 
1.1498172e+2, 1.5613122e+2, -1584898.8, -1471224.1, -10000.879, 0.018165026, 0.029606927, -1470351.0, -60433.832, 0.000029173738, 9.998752, 10.000252 
1.14985555e+2, 1.6613142e+2, -1481247.0, -1422066.8, 1414.1017, 0.017205503, 0.04937547, -1422033.0, -110118.19, 0.0000005105562, 9.999013, 9.99979 
1.14989296e+2, 1.7613117e+2, -1358742.8, -1319145.1, 7275.8047, -0.0053144093, 0.041957505, -1317850.5, -103934.125, 0.0, 9.999211, 9.999728 
1.1499316e+2, 1.8613029e+2, -1271999.5, -1312442.3, 9668.662, -0.009129115, 0.021314073, -1269806.9, -153881.83, 0.0, 9.999504, 9.9989605 
1.14997126e+2, 1.9612902e+2, -1121364.3, -1188667.6, 13506.322, -0.0013731378, -0.00337901, -1118755.0, -100817.375, 0.0, 9.999864, 9.998964 
1.1500095e+2, 2.0612793e+2, -994017.0, -1099349.1, 9752.073, -0.004056955, 0.002163356, -993121.75, -73174.23, 0.0, 10.000162, 9.99876 
1.1500466e+2, 2.1612689e+2, -859795.7, -985943.4, 4926.981, -0.012911276, 0.019067261, -859603.56, -37647.387, 0.0, 10.000421, 9.998741 
1.15008324e+2, 2.2612523e+2, -750813.25, -927986.44, 3470.3352, -0.017809343, 0.00019701812, -750745.3, -26773.611, 0.0, 10.00069, 9.998337 
1.15011945e+2, 2.3612316e+2, -611521.3, -808827.6, 11419.548, -0.02038177, -0.04357333, -610862.56, 15129.057, 0.0, 10.000968, 9.998348 
1.1501549e+2, 2.461216e+2, -485116.03, -710243.94, 2721.1733, -0.014775514, -0.027973248, -485083.16, 42924.105, 0.0, 10.001219, 9.998232 
1.1501901e+2, 2.5612032e+2, -350413.0, -590322.44, -4671.4463, -0.004770925, 0.019107424, -350322.1, 79698.3, 0.0, 10.001452, 9.99827 
1.1502221e+2, 2.661186e+2, -198326.06, -463062.84, -1665.6077, -0.019864194, 0.015888864, -198315.58, 133721.63, 0.0, 10.00181, 9.9983 
1.1502527e+2, 2.7611658e+2, -40312.914, -341159.7, 10309.673, -0.048715375, -0.020744145, -39960.027, 194096.17, 0.0, 10.002244, 9.998255 
1.15028374e+2, 2.8611445e+2, 61305.223, -300543.25, 2996.0781, -0.060184266, -0.029552039, 61330.027, 197406.5, 0.00000000006210851, 10.002524, 9.9977255 
1.1503145e+2, 2.961122e+2, 192668.13, -173676.06, -2604.5916, -0.06721428, -0.030571325, 192686.64, 230784.73, 0.0000014487281, 10.002698, 9.997841 
1.15035504e+2, 3.0611077e+2, 316493.47, -48838.53, 11208.796, -0.0029446944, 0.021647345, 316837.06, 316837.06, 0.000026628812, 10.003041, 9.9982 
1.1503861e+2, 3.1610817e+2, 350834.56, -83586.836, 9318.632, -0.047168322, -0.048282813, 351034.34, 351034.34, 0.00012196842, 10.003498, 9.997742 
1.2496786e+2, 1.2612583e+2, -1922177.6, -1661945.4, -22817.95, 0.038607396, -0.0050094347, -1659959.9, 44008.87, 0.000709113, 9.99792, 10.001366 
1.2497151e+2, 1.3612676e+2, -1859581.1, -1704669.6, 3368.5896, -0.050090443, 0.057399113, -1704596.4, -98635.59, 0.00040043768, 9.998211, 10.000259 
1.2497593e+2, 1.4612651e+2, -1712981.5, -1575962.4, -10330.872, -0.03198771, 0.006761886, -1575187.9, -67224.13, 0.0001562618, 9.99851, 10.000321 
1.2498069e+2, 1.5612704e+2, -1574381.5, -1464107.6, -8770.766, 0.036920268, 0.026316766, -1463414.4, -53455.684, 0.000029665673, 9.998814, 10.00027 
1.24984786e+2, 1.661273e+2, -1463283.5, -1403403.8, -3551.1704, 0.034557186, 0.045448974, -1403193.9, -91238.21, 0.0000007617598, 9.999092, 9.999881 
1.2498851e+2, 1.7612712e+2, -1331405.1, -1295925.6, -2688.465, -0.0119154025, 0.03750915, -1295723.0, -81766.94, 0.0, 9.999354, 9.999819 
1.2499264e+2, 1.861263e+2, -1247993.1, -1289337.0, 451.543, -0.017281923, 0.016086271, -1247988.1, -132024.58, 0.0, 9.999619, 9.999064 
1.2499705e+2, 1.9612515e+2, -1113279.0, -1175372.6, 3958.377, 0.0033716257, -0.0092530595, -1113027.6, -95052.82, 0.0, 9.999878, 9.999048 
1.2500113e+2, 2.0612405e+2, -1003203.3, -1112117.4, 189.74365, 0.00032381146, -0.004036238, -1003203.0, -83217.89, 0.0, 10.000135, 9.998686 
1.2500502e+2, 2.1612294e+2, -867281.0, -995578.0, -2419.2568, -0.01767234, 0.012688069, -867235.44, -45240.195, 0.0, 10.000395, 9.998688 
1.2500897e+2, 2.2612135e+2, -748490.0, -913743.25, -8679.295, -0.02027184, -0.0015357592, -748035.44, -24025.459, 0.0, 10.000649, 9.998455 
1.2501295e+2, 2.3611948e+2, -614288.1, -798886.5, -10413.29, -0.013243566, -0.037743904, -613702.56, 12324.981, 0.0, 10.0009, 9.998449 
1.2501676e+2, 2.461179e+2, -490157.72, -718919.3, -15916.715, -0.009206321, -0.025909273, -489055.56, 38987.824, 0.0, 10.001211, 9.998177 
1.2502047e+2, 2.5611648e+2, -337849.44, -588514.8, -13725.788, -0.007904024, 0.011040884, -337100.1, 92958.195, 0.0, 10.001557, 9.998233 
1.2502404e+2, 2.661148e+2, -189853.89, -446107.03, -16460.55, -0.018731201, 0.010855479, -188800.86, 143273.39, 0.0, 10.001813, 9.998415 
1.2502754e+2, 2.76113e+2, -67483.71, -343039.3, -21282.61, -0.034925632, -0.015140347, -65849.63, 168241.16, 0.0, 10.002008, 9.998356 
1.250309e+2, 2.8611085e+2, 38646.527, -311768.9, -24480.209, -0.051640313, -0.030717114, 40348.465, 176459.66, 0.0, 10.002369, 9.997725 
1.2503412e+2, 2.9610845e+2, 212134.61, -164167.78, -14030.196, -0.07605701, -0.048054595, 212657.0, 250791.4, 0.00000094519226, 10.002831, 9.997842 
1.2503855e+2, 3.0610716e+2, 326347.13, -46516.023, -534.07794, -0.00631707, 0.019734893, 326347.88, 326347.88, 0.000021325412, 10.00312, 9.998179 
1.2504205e+2, 3.1610453e+2, 321924.38, -94871.47, -12417.869, -0.04148348, -0.050386358, 322294.03, 322294.03, 0.00010374953, 10.003288, 9.997766 
1.3496533e+2, 1.2612148e+2, -1917345.8, -1650546.0, -12215.69, -0.0057969354, 0.012430549, -1649987.9, 54024.848, 0.0006877832, 9.997913, 10.001448 
1.3497e+2, 1.361225e+2, -1850501.8, -1687507.8, 14683.773, -0.022387367, 0.071606785, -1686195.5, -80192.2, 0.0003909241, 9.998218, 10.000374 
1.3497476e+2, 1.4612216e+2, -1710435.3, -1572137.4, 887.5963, -0.00076383114, 0.005169084, -1572131.6, -64125.13, 0.00015498626, 9.998517, 10.000345 
1.3497938e+2, 1.5612261e+2, -1573118.0, -1460795.4, 2426.5417, 0.024965689, 0.014613241, -1460743.0, -50741.125, 0.000031126136, 9.998811, 10.000295 
1.3498369e+2, 1.6612281e+2, -1462310.8, -1400754.9, 6418.8223, 0.015915558, 0.02571963, -1400092.6, -88093.336, 0.0000011270397, 9.999089, 9.9999 
1.3498788e+2, 1.7612259e+2, -1329067.4, -1291643.9, 7373.981, -0.011860553, 0.010990443, -1290243.4, -76243.13, 0.0, 9.999357, 9.999847 
1.3499233e+2, 1.8612204e+2, -1240249.0, -1273750.8, 10261.168, -0.011144941, 0.008508389, -1237356.0, -121350.88, 0.0, 9.99962, 9.999171 
1.3499695e+2, 1.9612134e+2, -1107015.9, -1162628.8, 13854.995, 0.0066442993, 0.01886198, -1103755.3, -85743.66, 0.0, 9.999879, 9.999136 
1.3500126e+2, 2.061201e+2, -1006149.9, -1118325.4, 9863.437, -0.0016972402, 0.009477971, -1005289.2, -85265.82, 0.0, 10.000135, 9.998644 
1.3500533e+2, 2.1611848e+2, -870233.6, -1001443.3, 7401.5776, -0.026751073, -0.020700375, -869817.44, -47778.652, 0.0, 10.000393, 9.998649 
1.3500962e+2, 2.2611706e+2, -749704.2, -916100.9, 738.8355, -0.020921035, -0.015886713, -749700.94, -25648.713, 0.0, 10.0006485, 9.998439 
1.3501404e+2, 2.3611578e+2, -614398.94, -799152.9, -494.15878, 0.0051213847, 0.008689661, -614397.6, 11666.671, 0.0, 10.0009, 9.998447 
1.3501807e+2, 2.46114e+2, -484831.47, -707978.0, -2980.0637, -0.0006853365, -0.004979531, -484791.66, 43290.08, 0.0, 10.001211, 9.998252 
1.3502184e+2, 2.5611186e+2, -334341.7, -581266.8, -1292.2101, -0.02766186, -0.048127398, -334334.94, 95767.9, 0.0, 10.001557, 9.998282 
1.3502581e+2, 2.6611036e+2, -197748.31, -462287.22, -9225.197, -0.020913512, -0.027375739, -197427.0, 134690.38, 0.0, 10.001812, 9.998304 
1.3502999e+2, 2.7610928e+2, -72425.766, -353141.06, -12622.965, 0.00955107, 0.030772172, -71859.29, 162268.47, 0.0, 10.0020075, 9.998287 
1.3503356e+2, 2.86107e+2, 54017.01, -279748.13, -7073.417, -0.022468232, -0.004919426, 54166.85, 190315.83, 0.0, 10.002368, 9.997945 
1.3503668e+2, 2.9610398e+2, 224320.05, -138639.67, 2200.364, -0.10247876, -0.10670734, 224333.39, 262510.7, 0.0000005800232, 10.00283, 9.998018 
1.3504143e+2, 3.061029e+2, 314466.72, -70513.195, 5704.271, -0.030216154, -0.018034074, 314551.22, 314551.22, 0.000016654767, 10.003118, 9.998014 
1.350454e+2, 3.1610066e+2, 315245.78, -107655.6, -4700.7744, -0.036289126, -0.0324254, 315298.03, 315298.03, 0.00008670888, 10.003284, 9.99768 
1.4496328e+2, 1.2611723e+2, -1872165.0, -1646201.0, -4718.6377, -0.02128507, 0.03441352, -1646102.5, 57952.836, 0.0006728006, 9.998297, 10.001292 
1.4496842e+2, 1.3611804e+2, -1853739.8, -1698199.0, 6214.269, -0.0045424835, 0.084991224, -1697951.1, -91903.06, 0.00038500954, 9.998234, 10.000293 
1.449734e+2, 1.4611764e+2, -1708800.5, -1561660.3, -3122.1956, 0.014303993, 0.010539361, -1561594.0, -53542.395, 0.00015511648, 9.998486, 10.000432 
1.449781e+2, 1.5611824e+2, -1550947.5, -1442980.3, 2290.119, 0.010612797, 0.025283115, -1442931.6, -32886.855, 0.00003278088, 9.998932, 10.000359 
1.4498271e+2, 1.6611838e+2, -1448261.5, -1403727.9, -1221.879, 0.002189442, 0.03377807, -1403694.4, -91651.875, 0.0000015078091, 9.999228, 9.999813 
1.4498731e+2, 1.76118e+2, -1325037.1, -1298166.4, -8432.9795, -0.005135412, 0.011021092, -1295739.0, -81693.59, 0.0, 9.99942, 9.999772 
1.4499202e+2, 1.8611743e+2, -1234663.8, -1268758.9, -11789.593, -0.004011196, 0.009655661, -1230984.3, -114933.67, 0.0, 9.999648, 9.999192 
1.4499678e+2, 1.9611682e+2, -1102723.6, -1158366.5, -14799.873, 0.0008794405, 0.026893316, -1099032.0, -80975.9, 0.0, 9.999898, 9.999156 
1.4500135e+2, 2.0611565e+2, -1002970.2, -1114249.8, -18258.338, -0.0049246214, 0.019976478, -1000051.0, -79983.44, 0.0, 10.000146, 9.998667 
1.450058e+2, 2.1611404e+2, -868833.06, -998298.25, -15530.714, -0.017255617, -0.010466166, -866996.06, -44912.992, 0.0, 10.000392, 9.998671 
1.4501037e+2, 2.261126e+2, -743712.8, -912661.9, -17758.576, -0.011918741, -0.0073927534, -741866.3, -17769.8, 0.0, 10.000688, 9.998444 
1.4501499e+2, 2.3611131e+2, -596409.3, -788803.7, -17766.21, 0.0049323803, 0.014174966, -594782.5, 31326.104, 0.0, 10.001017, 9.998463 
1.450193e+2, 2.4610955e+2, -469195.63, -687937.6, -18713.936, -0.0022921697, -0.003758317, -467606.16, 60519.3, 0.0, 10.001266, 9.9983635 
1.4502336e+2, 2.5610745e+2, -341494.2, -573814.0, -14142.641, -0.02587531, -0.051495563, -340636.44, 89509.086, 0.0, 10.001461, 9.99838 
1.4502762e+2, 2.6610595e+2, -205868.69, -467359.47, -16000.945, -0.019830909, -0.036627706, -204893.22, 127266.85, 0.0, 10.001761, 9.998294 
1.4503203e+2, 2.7610478e+2, -56279.137, -344973.0, -12137.056, 0.007437583, 0.014165822, -55769.78, 178401.38, 0.0, 10.002118, 9.998289 
1.4503592e+2, 2.861026e+2, 57560.965, -269663.6, -8830.978, -0.022249784, -0.016751666, 57799.117, 193990.81, 0.0, 10.0023575, 9.998019 
1.4503941e+2, 2.9609978e+2, 184418.25, -150814.8, -9806.372, -0.096923865, -0.104388185, 184704.88, 222923.2, 0.00000034163278, 10.002525, 9.998081 
1.4504448e+2, 3.0609885e+2, 286848.94, -84314.34, -2172.6272, -0.027410222, -0.005117718, 286861.66, 286861.66, 0.000012640429, 10.002929, 9.998011 
1.4504863e+2, 3.160963e+2, 347806.75, -82521.34, -4.16088, -0.050162274, -0.050063178, 347806.75, 347806.75, 0.000071064576, 10.003468, 9.997765 
1.5496169e+2, 1.2611306e+2, -1898927.8, -1702705.5, -8214.768, -0.010777976, 0.06095584, -1702362.1, 1734.6245, 0.0006609735, 9.9983015, 10.000902 
1.5496671e+2, 1.3611339e+2, -1873924.4, -1738873.0, 5718.0083, 0.0023785082, 0.097112976, -1738631.4, -132535.8, 0.00037997565, 9.998228, 10.000016 
1.5497188e+2, 1.4611296e+2, -1698720.8, -1539680.4, 13780.002, 0.012276815, 0.022644943, -1538495.3, -30396.043, 0.00015479715, 9.998481, 10.000586 
1.5497686e+2, 1.5611391e+2, -1542921.0, -1427064.9, 18290.043, -0.0077103106, 0.058705702, -1424246.0, -14158.549, 0.000033834087, 9.998935, 10.000466 
1.5498184e+2, 1.6611402e+2, -1461411.1, -1431826.8, 5907.2397, -0.008114227, 0.07024076, -1430690.8, -118605.35, 0.0000017896223, 9.99923, 9.999619 
1.5498686e+2, 1.7611335e+2, -1337729.4, -1324349.0, -933.62946, 0.0075002434, 0.03818581, -1324284.1, -110192.3, 0.0, 9.99942, 9.999593 
1.5499175e+2, 1.8611251e+2, -1239579.9, -1278587.5, -2378.5432, 0.0033693742, 0.019680975, -1239435.4, -123335.35, 0.0, 9.999646, 9.9991255 
1.5499653e+2, 1.961116e+2, -1106003.0, -1165255.6, -5296.5083, -0.014549438, 0.014575039, -1105533.4, -87424.9, 0.0, 9.999898, 9.999109 
1.5500145e+2, 2.0611064e+2, -996716.9, -1101266.3, -9104.69, -0.009812229, 0.027058827, -995929.94, -75812.1, 0.0, 10.000146, 9.998756 
1.5500648e+2, 2.161096e+2, -862971.06, -986176.5, -5813.747, 0.010208883, 0.043329284, -862697.4, -40569.207, 0.0, 10.000392, 9.9987545 
1.5501124e+2, 2.26108e+2, -741914.9, -908962.3, -5396.6406, 0.00606575, 0.024043651, -741740.75, -17597.828, 0.0, 10.000688, 9.998469 
1.5501581e+2, 2.3610607e+2, -594033.6, -783694.2, -5821.055, -0.014078227, -0.020848619, -593855.1, 32305.35, 0.0, 10.001016, 9.998498 
1.5502042e+2, 2.4610455e+2, -459027.22, -666699.4, -11414.372, -0.014670721, -0.02206469, -458401.72, 69772.79, 0.0, 10.001265, 9.998509 
1.5502505e+2, 2.5610334e+2, -331533.63, -553108.94, -5954.038, -0.003379498, 0.00016425604, -331373.75, 98812.68, 0.0, 10.001461, 9.998523 
1.5502942e+2, 2.661016e+2, -199763.97, -454513.84, -2524.338, -0.015896736, -0.017166162, -199738.97, 132463.42, 0.0, 10.0017605, 9.998382 
1.5503366e+2, 2.7609956e+2, -51424.902, -334579.3, 460.43497, -0.041467197, -0.06415585, -51424.152, 182796.81, 0.0, 10.002117, 9.998361 
1.55038e+2, 2.8609765e+2, 52921.133, -279428.84, -2719.5298, -0.051488545, -0.06614106, 52943.387, 189182.75, 0.0, 10.0023575, 9.9979515 
1.550423e+2, 2.9609588e+2, 181445.7, -157407.6, -1586.3307, -0.059940472, -0.04211893, 181453.13, 219710.64, 0.00000019535571, 10.002526, 9.998035 
1.550477e+2, 3.06095e+2, 297118.16, -62456.59, 18280.984, 0.0013681623, 0.057735775, 298045.16, 298045.16, 0.000009261703, 10.002927, 9.998161 
1.5505174e+2, 3.1609145e+2, 364525.22, -46700.887, 21966.443, -0.08586348, -0.10319327, 365695.28, 365695.28, 0.000056915687, 10.003463, 9.998012 
1.6495998e+2, 1.2610826e+2, -1935172.5, -1734174.9, -30090.104, -0.0022322787, 0.06964108, -1729766.9, -25622.807, 0.000647907, 9.998113, 10.000777 
1.6496515e+2, 1.3610849e+2, -1795852.3, -1708010.5, 3853.261, -0.0037611644, 0.10261259, -1707841.8, -101698.03, 0.00037279638, 9.998793, 9.999956 
1.649706e+2, 1.4610794e+2, -1618438.3, -1506436.9, 7915.809, 0.009271279, 0.021473087, -1505880.3, 2268.161, 0.0001524271, 9.999056, 10.000536 
1.6497591e+2, 1.5610886e+2, -1531356.5, -1427150.8, -3078.1487, -0.0013173206, 0.058931008, -1427059.9, -16922.914, 0.000033788867, 9.999039, 10.000416 
1.6498113e+2, 1.6610894e+2, -1469787.9, -1440422.8, -14065.232, -0.0011173193, 0.071425684, -1434772.9, -122637.68, 0.0000018950186, 9.999192, 9.9995775 
1.6498631e+2, 1.7610823e+2, -1335044.1, -1327113.9, -9746.856, 0.009028401, 0.0403291, -1320556.5, -106414.41, 0.0, 9.999455, 9.999556 
1.6499141e+2, 1.8610734e+2, -1236769.1, -1276543.9, -3738.0623, 0.0036134452, 0.018555831, -1236420.9, -120270.14, 0.0, 9.999662, 9.999132 
1.6499642e+2, 1.9610639e+2, -1115402.1, -1169147.6, -1132.2322, -0.012812781, 0.0076787276, -1115378.4, -97218.484, 0.0, 9.999831, 9.999115 
1.6500162e+2, 2.061055e+2, -1002163.0, -1103383.9, -3695.6184, -0.006215752, 0.027314406, -1002028.25, -81859.64, 0.0, 10.000106, 9.998761 
1.6500697e+2, 2.1610461e+2, -853231.9, -979924.25, -7212.1504, 0.015604397, 0.05884744, -852822.6, -30645.035, 0.0, 10.000452, 9.998769 
1.6501193e+2, 2.2610302e+2, -738257.6, -896458.75, -8301.584, 0.008853386, 0.03403143, -737823.2, -13631.11, 0.0, 10.000666, 9.998566 
1.650167e+2, 2.3610099e+2, -620139.75, -787088.44, -3238.339, -0.016756957, -0.02937767, -620076.94, 6133.1953, 0.0, 10.000797, 9.99858 
1.6502155e+2, 2.4609953e+2, -490364.6, -684803.9, -12839.006, -0.017151881, -0.027664289, -489520.5, 38703.254, 0.0, 10.001062, 9.998483 
1.6502649e+2, 2.5609845e+2, -339213.88, -557464.25, -20195.336, -0.0020576953, 0.011277593, -337360.88, 92873.766, 0.0, 10.001411, 9.998516 
1.6503116e+2, 2.6609677e+2, -201070.38, -440439.44, -19251.342, -0.014955602, -0.006855292, -199531.97, 132717.86, 0.0, 10.001689, 9.998512 
1.6503565e+2, 2.7609473e+2, -72727.62, -332719.94, -13173.196, -0.043492854, -0.06604464, -72061.87, 162206.05, 0.0, 10.001919, 9.998468 
1.6504031e+2, 2.8609285e+2, 39322.484, -294286.25, -14724.424, -0.051300064, -0.07021978, 39971.113, 176257.67, 0.0, 10.0023, 9.997876 
1.6504501e+2, 2.9609102e+2, 212597.78, -149208.92, -14400.501, -0.05395504, -0.040506233, 213170.05, 251475.39, 0.00000010392393, 10.002771, 9.9979725 
1.6505072e+2, 3.0609024e+2, 313024.47, -51664.25, -366.60953, 0.0066171633, 0.069928765, 313024.84, 313024.84, 0.0000064948904, 10.003023, 9.998188 
1.6505496e+2, 3.1608656e+2, 325658.38, -47591.934, -4143.15, -0.09145246, -0.11090497, 325704.38, 325704.38, 0.00004432351, 10.0031185, 9.99817 
1.7495814e+2, 1.2610282e+2, -1925334.4, -1712797.3, -3723.8682, 0.0033119463, 0.060370732, -1712732.0, -8534.512, 0.0006289189, 9.998108, 10.000925 
1.7496374e+2, 1.3610336e+2, -1783827.1, -1683911.6, 27152.775, -0.024645884, 0.10209737, -1677009.5, -70816.805, 0.00036083558, 9.9987955, 10.000119 
1.7496961e+2, 1.4610262e+2, -1636048.0, -1543901.6, 6923.775, 0.0034575802, 0.0073860646, -1543384.3, -35184.926, 0.00014701553, 9.99906, 10.000277 
1.7497525e+2, 1.5610307e+2, -1546578.9, -1458658.8, -2679.1106, 0.028752865, 0.026010891, -1458577.1, -48383.98, 0.00003249045, 9.999038, 10.000199 
1.7498055e+2, 1.6610311e+2, -1461854.9, -1423752.5, -4227.085, 0.022627817, 0.037349172, -1423289.1, -111097.125, 0.0000018022155, 9.999191, 9.999693 
1.7498568e+2, 1.7610262e+2, -1327337.6, -1311307.1, -29.812557, -0.001296453, 0.01710623, -1311307.0, -97110.84, 0.0, 9.999456, 9.999664 
1.7499098e+2, 1.8610193e+2, -1231356.6, -1265288.9, 2463.4841, -0.0042982316, 0.006145631, -1231178.8, -114975.836, 0.0, 9.999662, 9.999209 
1.7499644e+2, 1.9610117e+2, -1111287.1, -1160481.4, 5962.1543, 0.005648688, 0.006408488, -1110574.9, -92364.52, 0.0, 9.99983, 9.999175 
1.7500183e+2, 2.0610023e+2, -1008029.3, -1115364.1, 9404.243, 0.0053026807, 0.020966785, -1007211.56, -86991.58, 0.0, 10.000105, 9.998679 
1.7500724e+2, 2.1609908e+2, -857268.1, -988052.5, 5047.684, -0.0015841034, 0.03620146, -857073.6, -34842.17, 0.0, 10.000451, 9.9987135 
1.7501248e+2, 2.2609767e+2, -726709.75, -872296.2, -3514.9524, -0.0041410574, 0.022529682, -726624.94, -2380.709, 0.0, 10.000666, 9.998732 
1.7501763e+2, 2.360961e+2, -611120.9, -768493.7, 2639.8855, -0.0036717148, -0.011828049, -611076.56, 15181.204, 0.0, 10.000797, 9.998708 
1.7502269e+2, 2.4609448e+2, -504264.6, -713755.0, 282.151, -0.0102629615, -0.020679692, -504264.22, 24009.02, 0.0, 10.001062, 9.998283 
1.7502771e+2, 2.5609285e+2, -350234.9, -580333.2, -7420.549, -0.022337288, -0.017630639, -349995.84, 80294.19, 0.0, 10.001411, 9.998359 
1.7503282e+2, 2.660915e+2, -188816.84, -415276.66, -10741.15, -0.017496021, -0.0057710703, -188308.53, 143993.9, 0.0, 10.00169, 9.998685 
1.7503801e+2, 2.7609032e+2, -62582.93, -311873.53, -3373.3154, 0.0003956968, 0.006940387, -62537.293, 171774.81, 0.0, 10.001919, 9.998611 
1.7504291e+2, 2.8608814e+2, 32921.074, -307294.1, 3026.4614, -0.022553293, -0.029484637, 32947.992, 169281.38, 0.0, 10.002299, 9.997787 
1.7504753e+2, 2.9608527e+2, 206248.78, -161864.28, 2119.2424, -0.0797554, -0.097832136, 206260.98, 244622.73, 0.00000004563321, 10.002769, 9.997887 
1.7505354e+2, 3.060846e+2, 306816.47, -64784.215, 3274.6338, -0.01255209, 0.03286455, 306845.34, 306845.34, 0.000004309572, 10.003023, 9.998098 
1.7505832e+2, 3.1608155e+2, 331364.75, -36866.297, 1595.8439, -0.06817053, -0.07461722, 331371.66, 331371.66, 0.000033325945, 10.003122, 9.998242 
1.8495631e+2, 1.2609693e+2, -1880482.0, -1675307.0, -24527.434, -0.0035397212, 0.056218125, -1672415.8, 31840.145, 0.0006001509, 9.998347, 10.001067 
1.8496253e+2, 1.360976e+2, -1808946.3, -1675670.5, 3064.9338, -0.01309702, 0.08938004, -1675600.0, -69351.52, 0.00034227368, 9.998535, 10.000301 
1.8496865e+2, 1.4609686e+2, -1689115.9, -1576825.3, -20591.598, 0.01752301, -0.0069194986, -1573168.3, -64913.477, 0.00013807035, 9.998727, 10.000212 
1.8497422e+2, 1.5609737e+2, -1567767.4, -1473805.1, -14916.694, 0.029002491, 0.021622455, -1471493.9, -61244.64, 0.000029920388, 9.998914, 10.000155 
1.849797e+2, 1.6609742e+2, -1456003.8, -1406074.6, -3349.2158, 0.01963512, 0.029934958, -1405851.0, -93603.2, 0.0000015280342, 9.999167, 9.9998255 
1.8498513e+2, 1.7609698e+2, -1318473.3, -1294136.6, 1362.0221, -0.00011804845, -0.0012274247, -1294060.6, -79809.4, 0.0, 9.999461, 9.999781 
1.849907e+2, 1.8609641e+2, -1229878.9, -1266514.4, -3599.993, 0.0013721645, -0.0015226244, -1229528.5, -113271.91, 0.0, 9.9996805, 9.999192 
1.8499635e+2, 1.9609588e+2, -1109231.9, -1160437.3, -6897.794, 0.015417214, 0.023687294, -1108319.0, -90056.56, 0.0, 9.999848, 9.9991665 
1.8500195e+2, 2.0609486e+2, -1017856.06, -1113832.3, 3111.2617, 0.011065123, 0.028597066, -1017755.3, -97482.9, 0.0, 10.0000105, 9.998735 
1.8500751e+2, 2.1609347e+2, -895326.0, -1002471.8, 8657.463, -0.0049881386, 0.011886482, -894631.0, -72345.33, 0.0, 10.000173, 9.998749 
1.8501298e+2, 2.2609209e+2, -765635.7, -904311.1, -8804.909, -0.008561353, 0.0058271857, -765078.9, -40780.285, 0.0, 10.000455, 9.998613 
1.8501844e+2, 2.3609072e+2, -614552.75, -780438.8, -23408.967, -0.0037406585, 0.0049679433, -611312.7, 14998.482, 0.0, 10.000818, 9.998616 
1.8502378e+2, 2.4608909e+2, -482474.7, -690657.5, -17122.695, -0.011497044, -0.0073910016, -481075.78, 47250.93, 0.0, 10.001159, 9.998396 
1.8502909e+2, 2.5608727e+2, -334316.22, -563679.75, -2379.9058, -0.028383447, -0.031595517, -334291.53, 96052.69, 0.0, 10.001483, 9.998439 
1.8503453e+2, 2.6608598e+2, -188968.23, -434295.0, -15170.053, -0.019020488, -0.009791896, -188033.73, 144322.92, 0.0, 10.001771, 9.998515 
1.8504007e+2, 2.76085e+2, -55753.063, -323381.28, -32626.291, 0.009593835, 0.03614633, -51833.04, 182532.98, 0.0, 10.002031, 9.998478 
1.8504532e+2, 2.8608274e+2, 52820.668, -280645.84, -19226.842, -0.014175222, -0.007711091, 53925.58, 190313.11, 0.0, 10.002363, 9.997939 
1.8505028e+2, 2.9607973e+2, 209608.25, -148124.42, -3215.4512, -0.08018836, -0.1074255, 209637.16, 248053.39, 0.000000013949684, 10.002741, 9.997994 
1.8505658e+2, 3.0607903e+2, 298263.97, -96608.52, -9773.846, -0.015046032, 0.033685893, 298505.75, 298505.75, 0.0000026617806, 10.003085, 9.997849 
1.8506156e+2, 3.1607595e+2, 366717.03, -26719.748, -21044.148, -0.07118899, -0.05496302, 367839.44, 367839.44, 0.00002394661, 10.003396, 9.998179 
1.9495445e+2, 1.2609057e+2, -1871054.3, -1656325.4, -16597.055, -0.024819544, 0.057437308, -1655050.1, 49269.2, 0.000559594, 9.998349, 10.001197 
1.949615e+2, 1.3609117e+2, -1795251.0, -1647156.4, 10116.283, 0.030757355, 0.06452351, -1646468.5, -40157.293, 0.00031629903, 9.998535, 10.000497 
1.9496772e+2, 1.4609072e+2, -1680029.1, -1557739.8, -13477.859, 0.051151205, -0.021252828, -1556272.0, -47957.06, 0.00012542125, 9.998725, 10.000343 
1.9497284e+2, 1.5609173e+2, -1558548.0, -1454724.8, -7136.2607, -0.0015113167, 0.046054684, -1454236.5, -43931.49, 0.000026112697, 9.998914, 10.000286 
1.9497856e+2, 1.6609187e+2, -1445849.6, -1384858.8, 7697.3184, -0.011124568, 0.049507108, -1383902.4, -71599.76, 0.0000011234973, 9.9991665, 9.999972 
1.9498472e+2, 1.7609124e+2, -1310039.5, -1276623.3, 12119.491, 0.012104797, -0.0144811515, -1272690.6, -58383.58, 0.0, 9.999461, 9.999901 
1.9499059e+2, 1.8609077e+2, -1237869.4, -1282937.1, 2773.7075, 0.020017477, -0.004302091, -1237699.3, -121387.46, 0.0, 9.99968, 9.999081 
1.9499622e+2, 1.9609053e+2, -1114832.6, -1171980.6, -531.2811, 0.016029986, 0.05940037, -1114827.8, -96511.83, 0.0, 9.999848, 9.999088 
1.9500196e+2, 2.0608944e+2, -1004394.44, -1085682.9, 9053.362, 0.010524606, 0.050250318, -1003398.3, -83072.34, 0.0, 10.00001, 9.998929 
1.9500779e+2, 2.1608776e+2, -886449.3, -983865.1, 15666.449, 0.0046540634, -0.014186283, -883991.8, -61651.414, 0.0, 10.000172, 9.998877 
1.9501348e+2, 2.2608624e+2, -794089.2, -963267.8, 4859.656, -0.0051056095, -0.01604728, -793949.75, -69594.47, 0.0, 10.000455, 9.998209 
1.9501911e+2, 2.3608485e+2, -636571.94, -826058.56, -9751.018, -0.017275225, 0.02089773, -636071.44, -9701.095, 0.0, 10.000818, 9.998303 
1.9502486e+2, 2.4608336e+2, -453114.34, -629728.56, -4969.2124, -0.021285662, 0.012131718, -452974.66, 75409.516, 0.0, 10.001159, 9.998815 
1.9503066e+2, 2.5608176e+2, -312279.13, -517837.66, 9638.459, -0.020806821, -0.031064918, -311828.16, 118569.08, 0.0, 10.001482, 9.998754 
1.9503629e+2, 2.6608023e+2, -224863.56, -508880.88, -5513.84, -0.019972388, -0.018968364, -224756.55, 107656.01, 0.0, 10.001771, 9.998003 
1.9504184e+2, 2.7607867e+2, -84495.21, -383362.7, -22313.453, -0.016183633, 0.022731494, -82838.47, 151591.14, 0.0, 10.002031, 9.998066 
1.9504754e+2, 2.8607664e+2, 80157.54, -223841.75, -4928.0522, -0.02684507, -0.004158762, 80237.41, 216686.44, 0.0, 10.002363, 9.998329 
1.9505326e+2, 2.9607433e+2, 230515.9, -104594.66, 11147.422, -0.055823892, -0.07089968, 230886.33, 269355.34, 0.0000000023315327, 10.00274, 9.998294 
1.950598e+2, 3.0607358e+2, 269712.22, -155937.9, 1586.0227, -0.0010954712, 0.0710605, 269718.13, 269718.13, 0.0000014940416, 10.003084, 9.997442 
1.9506465e+2, 3.1606975e+2, 352615.3, -55885.27, -6699.592, -0.10205174, -0.05123495, 352725.16, 352725.16, 0.000016254342, 10.003396, 9.997979 
2.0495312e+2, 1.2608445e+2, -1833111.8, -1634724.6, -1541.1105, -0.005320659, 0.06587438, -1634712.6, 69667.586, 0.0005079089, 9.998596, 10.001225 
2.0495991e+2, 1.3608514e+2, -1795625.9, -1636049.6, 16739.402, 0.021443034, 0.07367575, -1634312.6, -27941.744, 0.00028337847, 9.998485, 10.000597 
2.0496634e+2, 1.4608476e+2, -1683625.1, -1550780.4, -4173.528, 0.043695852, -0.013595153, -1550649.4, -42275.81, 0.00010934245, 9.998664, 10.000421 
2.049719e+2, 1.5608585e+2, -1536156.0, -1436333.6, -2546.9028, 0.00669482, 0.05236221, -1436268.8, -25905.682, 0.000021261263, 9.999035, 10.000355 
2.0497784e+2, 1.6608605e+2, -1439502.8, -1383533.8, -44.013206, -0.0012306281, 0.05953305, -1383533.8, -71173.57, 0.00000067965186, 9.999218, 9.999957 
2.0498411e+2, 1.7608549e+2, -1338244.9, -1291344.6, -7697.542, 0.013919935, 0.003464268, -1290113.6, -75749.46, 0.0, 9.999272, 9.99989 
2.0499016e+2, 1.8608499e+2, -1262683.1, -1292831.1, -13046.631, 0.018882055, 0.010394608, -1257821.3, -141452.14, 0.0, 9.9995, 9.999099 
2.0499605e+2, 1.9608463e+2, -1114566.1, -1170528.0, -7269.458, 0.015614298, 0.06300635, -1113637.3, -95263.375, 0.0, 9.999845, 9.9991 
2.0500201e+2, 2.060835e+2, -999082.9, -1088255.8, -7875.181, 0.013338017, 0.051944517, -998392.75, -78008.57, 0.0, 10.000069, 9.998883 
2.0500804e+2, 2.1608181e+2, -882930.6, -986806.44, -18068.87, 0.011957064, -0.007995621, -879877.4, -57478.844, 0.0, 10.0002165, 9.998836 
2.05014e+2, 2.2608027e+2, -784039.56, -960551.44, -10074.721, -0.0010012569, -0.0124953585, -783466.4, -59052.348, 0.0, 10.000533, 9.99819 
2.0501997e+2, 2.3607878e+2, -616785.3, -818488.75, 3125.4697, -0.021517018, 0.016843827, -616736.94, 9693.336, 0.0, 10.000963, 9.998285 
2.0502599e+2, 2.4607733e+2, -445992.78, -627446.56, -5739.182, -0.026513651, 0.014645213, -445811.44, 82632.305, 0.0, 10.001213, 9.998803 
2.0503205e+2, 2.560759e+2, -333131.75, -528979.3, -22252.605, -0.022056475, -0.012527442, -330635.2, 99820.39, 0.0, 10.001344, 9.998743 
2.0503801e+2, 2.6607427e+2, -229863.31, -511751.34, -20806.533, -0.02326393, -0.007819756, -228335.83, 104135.664, 0.0, 10.001739, 9.997999 
2.0504391e+2, 2.760725e+2, -46062.18, -366141.53, -1070.6249, -0.025422685, 0.011497869, -46058.598, 188431.8, 0.0, 10.002301, 9.998055 
2.0504999e+2, 2.8607044e+2, 107063.82, -218784.16, 4530.813, -0.031045925, -0.01248348, 107126.81, 243636.89, 0.0, 10.002583, 9.998259 
2.0505604e+2, 2.9606828e+2, 215409.56, -120339.76, -12888.822, -0.047738772, -0.058398668, 215903.61, 254432.83, 0.000000000097020676, 10.002673, 9.998219 
2.0506285e+2, 3.0606747e+2, 246841.4, -177445.06, -17380.219, 0.0016045523, 0.08909939, 247552.17, 247552.17, 0.00000072960836, 10.002972, 9.99735 
2.0506789e+2, 3.160635e+2, 361387.25, -38513.805, -297.79907, -0.11764897, -0.03894875, 361387.47, 361387.47, 0.000010315381, 10.003399, 9.998098 
2.1495233e+2, 1.2607855e+2, -1838552.5, -1646246.3, -4245.554, 0.05460584, 0.08170986, -1646152.5, 58286.12, 0.0004482875, 9.998597, 10.001146 
2.1495776e+2, 1.3607953e+2, -1795836.1, -1636357.6, 14654.715, -0.042434104, 0.11733005, -1635022.1, -28594.994, 0.00024549337, 9.998484, 10.000596 
2.149645e+2, 1.46079e+2, -1682097.9, -1547509.6, 9903.806, -0.0063112197, 0.016414836, -1546784.8, -38353.863, 0.00009091261, 9.998663, 10.000443 
2.1497141e+2, 1.560797e+2, -1535848.4, -1435635.1, 10523.755, 0.053583056, 0.040450137, -1434541.9, -24118.621, 0.000015871614, 9.999035, 10.00036 
2.1497756e+2, 1.6607992e+2, -1452030.3, -1409709.8, 2026.4948, 0.04908527, 0.059920184, -1409613.0, -97192.46, 0.00000031009594, 9.999218, 9.999778 
2.1498328e+2, 1.7607966e+2, -1348232.6, -1312246.6, -4451.346, 0.0046516475, 0.052717604, -1311704.3, -97281.56, 0.0, 9.999273, 9.999747 
2.1498944e+2, 1.8607904e+2, -1252144.6, -1270943.8, -79.36031, -0.0028376665, 0.042666435, -1252144.3, -135715.63, 0.0, 9.9995, 9.9992485 
2.1499588e+2, 1.9607823e+2, -1107155.9, -1155236.5, 5079.6563, 0.013732485, 0.03453058, -1106625.0, -88188.66, 0.0, 9.999845, 9.999205 
2.1500215e+2, 2.0607708e+2, -1019202.1, -1129923.9, -2339.399, 0.01892619, 0.03353953, -1019152.75, -98705.64, 0.0, 10.000068, 9.998597 
2.150083e+2, 2.1607569e+2, -897962.56, -1017964.3, -11285.672, 0.01649368, 0.030336525, -896910.44, -74450.305, 0.0, 10.000216, 9.998622 
2.1501459e+2, 2.2607413e+2, -758500.1, -907350.25, 6133.973, 0.0031393596, 0.016336957, -758247.8, -33772.867, 0.0, 10.000532, 9.998555 
2.1502097e+2, 2.3607248e+2, -597601.5, -778371.44, 18151.637, -0.017040076, -0.007106698, -595796.8, 30694.1, 0.0, 10.000961, 9.998561 
2.1502718e+2, 2.4607101e+2, -476722.28, -691232.4, -1032.8276, -0.027673448, 0.00031466866, -476717.3, 51788.19, 0.0, 10.001213, 9.998366 
2.1503328e+2, 2.5606963e+2, -356501.4, -577688.75, -15561.743, -0.032607295, 0.023880515, -355411.94, 75107.24, 0.0, 10.001345, 9.998409 
2.1503969e+2, 2.660681e+2, -195231.03, -439679.1, 437.9351, -0.029528333, 0.023892054, -195230.23, 137303.27, 0.0, 10.001739, 9.998494 
2.1504629e+2, 2.760664e+2, -19488.56, -310615.78, 18339.37, -0.018846389, 0.0017481588, -18337.834, 216210.77, 0.0, 10.002299, 9.998438 
2.1505259e+2, 2.8606412e+2, 70302.58, -295263.47, 7470.328, -0.027305255, -0.03311356, 70455.17, 207026.03, 0.0, 10.002582, 9.997734 
2.1505862e+2, 2.9606152e+2, 184496.88, -185362.97, -8079.788, -0.05667208, -0.06886571, 184673.3, 223269.98, 0.0, 10.002675, 9.997771 
2.1506572e+2, 3.0606076e+2, 261925.42, -145713.84, -1260.036, -0.007922799, 0.08923812, 261929.31, 261929.31, 0.0000002906552, 10.002971, 9.997568 
2.1507126e+2, 3.1605724e+2, 391197.97, 24235.443, 17965.166, -0.11978054, -0.019195719, 392075.38, 392075.38, 0.0000060416633, 10.003395, 9.998531 
2.2495084e+2, 1.2607232e+2, -1870442.1, -1677696.0, -13800.614, 0.053776573, 0.08096847, -1676712.9, 27786.424, 0.0003850475, 9.998449, 10.001002 
2.249563e+2, 1.3607337e+2, -1778139.6, -1635321.8, -1704.69, -0.044318255, 0.13218793, -1635301.5, -28813.54, 0.00020561775, 9.998639, 10.000528 
2.2496328e+2, 1.460728e+2, -1658613.1, -1537256.3, -1750.4148, -0.0028588253, 0.029480357, -1537231.0, -28738.77, 0.00007189719, 9.998829, 10.000435 
2.2497047e+2, 1.5607333e+2, -1537892.8, -1438438.0, -4705.8315, 0.05846233, 0.03910367, -1438215.8, -27730.06, 0.000010694928, 9.999029, 10.000343 
2.2497685e+2, 1.6607349e+2, -1451530.8, -1418852.5, -14136.884, 0.052960604, 0.05675743, -1413585.6, -101102.06, 0.000000092361944, 9.999263, 9.999694 
2.249827e+2, 1.7607321e+2, -1317706.9, -1306088.0, -13106.712, 0.005690389, 0.05688793, -1297560.9, -83074.75, 0.0, 9.999519, 9.999671 
2.2498906e+2, 1.8607251e+2, -1221303.3, -1258782.9, -10229.518, -0.0016718945, 0.04433387, -1218693.0, -102200.2, 0.0, 9.999724, 9.999225 
2.2499578e+2, 1.960716e+2, -1101871.4, -1155450.1, -18464.152, 0.016808493, 0.026934544, -1096124.6, -77623.27, 0.0, 9.999893, 9.99918 
2.2500226e+2, 2.0607042e+2, -1008319.25, -1128737.5, -20204.877, 0.01960277, 0.025511714, -1005019.5, -84507.016, 0.0, 10.00016, 9.998561 
2.250086e+2, 2.1606903e+2, -859414.44, -1002355.44, -10633.213, 0.01177724, 0.027879449, -858627.8, -36102.27, 0.0, 10.000494, 9.998594 
2.2501516e+2, 2.2606757e+2, -736985.3, -891618.25, 15.149605, 0.0028751786, 0.020701343, -736985.3, -12445.703, 0.0, 10.000657, 9.998603 
2.250219e+2, 2.3606604e+2, -632551.44, -791979.9, -11281.518, -0.006335289, 0.0053359107, -631757.1, -5202.6963, 0.0, 10.000708, 9.99859 
2.2502838e+2, 2.4606453e+2, -509267.63, -717791.25, -21654.75, -0.020352384, 0.012778548, -507042.56, 21527.217, 0.0, 10.001036, 9.998269 
2.2503467e+2, 2.56063e+2, -332549.8, -574349.0, -11096.584, -0.03820077, 0.031184392, -332041.63, 98543.92, 0.0, 10.001545, 9.998336 
2.2504142e+2, 2.6606148e+2, -171500.92, -414709.94, -423.11658, -0.034951568, 0.031624593, -171500.19, 161098.98, 0.0, 10.0018425, 9.998615 
2.2504847e+2, 2.7605996e+2, -56762.414, -317894.25, -10364.053, -0.015459496, 0.013031197, -56351.723, 178260.0, 0.0, 10.001998, 9.998532 
2.2505507e+2, 2.8605762e+2, 28444.121, -329139.22, -16331.174, -0.026686603, -0.025283221, 29188.432, 165823.14, 0.0, 10.002353, 9.997612 
2.250613e+2, 2.9605484e+2, 199581.77, -191032.7, -2675.3494, -0.06600843, -0.06747816, 199600.1, 238263.3, 0.0, 10.002834, 9.997656 
2.2506872e+2, 3.0605397e+2, 274030.03, -139008.84, 4512.6265, -0.008761184, 0.08391408, 274079.34, 274079.34, 0.000000085825576, 10.00305, 9.997577 
2.2507472e+2, 3.1605062e+2, 362330.56, 34948.055, 10556.579, -0.0972964, -0.007692749, 362670.63, 362670.63, 0.0000031779714, 10.003092, 9.998752 
2.3494864e+2, 1.2606575e+2, -1886366.0, -1709749.4, -4143.041, -0.0110691115, 0.06523538, -1709652.3, -5090.2744, 0.00032214387, 9.9984455, 10.000784 
2.3495555e+2, 1.3606666e+2, -1788293.9, -1655372.4, 5359.9854, 0.016226234, 0.11818342, -1655156.6, -48603.55, 0.00016659255, 9.998635, 10.000393 
2.3496267e+2, 1.4606611e+2, -1662265.3, -1544755.0, 5747.545, 0.054521352, 0.025529517, -1544474.5, -35916.758, 0.00005400246, 9.998828, 10.000384 
2.3496911e+2, 1.5606673e+2, -1540667.1, -1444751.9, 3018.5989, 0.019853616, 0.048649114, -1444657.0, -34106.543, 0.000006396683, 9.999031, 10.0003 
2.3497568e+2, 1.6606672e+2, -1450104.5, -1416123.0, -4545.995, 0.008746579, 0.05031969, -1415525.4, -102975.69, 0.000000013163342, 9.999264, 9.999712 
2.3498233e+2, 1.7606612e+2, -1317895.0, -1306576.6, -3556.6772, 0.016721051, 0.015706047, -1305551.8, -90996.93, 0.0, 9.99952, 9.999667 
2.3498903e+2, 1.8606542e+2, -1235610.0, -1288430.6, -3877.9202, 0.021921217, 0.015159277, -1235326.8, -118765.12, 0.0, 9.999723, 9.999022 
2.3499574e+2, 1.9606473e+2, -1112840.0, -1178344.8, -11453.796, 0.024382085, 0.040156312, -1110895.0, -92326.07, 0.0, 9.999893, 9.9990225 
2.3500238e+2, 2.060635e+2, -993251.4, -1097391.4, -7603.5903, 0.014810212, 0.027887061, -992699.2, -72118.75, 0.0, 10.00016, 9.998776 
2.3500896e+2, 2.1606186e+2, -848075.1, -978693.25, 950.4326, -0.0027271851, -0.015221514, -848068.2, -25473.357, 0.0, 10.000493, 9.998757 
2.3501578e+2, 2.2606054e+2, -756168.94, -931103.44, 1820.1001, -0.0024092535, 0.0008307072, -756150.0, -31541.883, 0.0, 10.000656, 9.998333 
2.3502277e+2, 2.3605943e+2, -647587.6, -823264.5, -7456.0776, 0.010138273, 0.05384843, -647271.75, -20651.094, 0.0, 10.000708, 9.998375 
2.3502956e+2, 2.4605787e+2, -492605.53, -683392.4, -2436.4602, -0.0052063623, 0.051717397, -492574.4, 36062.223, 0.0, 10.001037, 9.998505 
2.350362e+2, 2.5605598e+2, -319861.22, -547889.1, 6678.674, -0.03957065, 0.009321024, -319665.78, 110989.086, 0.0, 10.001544, 9.998518 
2.3504321e+2, 2.6605448e+2, -188644.56, -450388.1, 5080.0835, -0.039948765, 0.015338853, -188546.0, 144122.56, 0.0, 10.0018425, 9.998371 
2.3505045e+2, 2.7605316e+2, -69477.77, -344741.4, -3272.991, -0.015861513, 0.04537663, -69438.86, 165240.86, 0.0, 10.002, 9.998348 
2.3505738e+2, 2.8605095e+2, 47547.645, -289795.66, 1917.2948, -0.029833343, 0.011013759, 47558.54, 184260.08, 0.0, 10.002355, 9.997883 
2.3506403e+2, 2.960482e+2, 214345.73, -160605.33, 13778.902, -0.076354764, -0.055066723, 214851.4, 253580.38, 0.0, 10.002835, 9.997866 
2.3507184e+2, 3.0604705e+2, 260290.23, -167382.8, 5417.0396, -0.0017658314, 0.07234698, 260358.84, 260358.84, 0.000000016806371, 10.003049, 9.997382 
2.3507826e+2, 3.1604367e+2, 363352.25, 37350.754, 14757.636, -0.053266324, -0.0055915904, 364018.94, 364018.94, 0.0000014346882, 10.00309, 9.998768 
2.449468e+2, 1.2605853e+2, -1912220.9, -1728274.0, -39737.08, -0.032172743, 0.049972717, -1720056.9, -15425.029, 0.00026278105, 9.998293, 10.0007305 
2.4495444e+2, 1.360594e+2, -1777422.5, -1649120.3, -22073.633, 0.037818532, 0.096744426, -1645428.8, -38805.098, 0.00013053669, 9.998705, 10.000402 
2.4496178e+2, 1.4605895e+2, -1650151.8, -1544239.3, -20426.918, 0.07568118, 0.014374992, -1540436.1, -31808.176, 0.000038366878, 9.998935, 10.000337 
2.4496801e+2, 1.5605967e+2, -1537926.0, -1447185.8, -22345.234, 0.0041921195, 0.053830937, -1441981.6, -31361.438, 0.000003303544, 9.999066, 10.000267 
2.4497478e+2, 1.6605967e+2, -1439572.9, -1402754.8, -23543.785, -0.008747881, 0.055554535, -1391277.4, -78658.32, 0.00000000018007511, 9.999301, 9.999785 
2.4498191e+2, 1.7605905e+2, -1302242.6, -1292293.3, -19266.768, 0.020469753, 0.011287059, -1277369.4, -62745.355, 0.0, 9.999599, 9.999727 
2.4498884e+2, 1.8605833e+2, -1227934.3, -1292929.8, -15635.463, 0.02771192, 0.010355403, -1224368.6, -107737.59, 0.0, 9.999812, 9.998948 
2.4499562e+2, 1.9605762e+2, -1105191.4, -1181057.1, -13085.437, 0.01930119, 0.040444326, -1102997.8, -84358.94, 0.0, 9.999974, 9.998965 
2.4500246e+2, 2.0605642e+2, -992537.9, -1090423.5, -9327.205, 0.0079534445, 0.029760303, -991657.0, -71007.03, 0.0, 10.000137, 9.998836 
2.4500932e+2, 2.1605484e+2, -872922.1, -985633.6, -12849.924, -0.0051907394, -0.0134684015, -871475.7, -48812.08, 0.0, 10.000301, 9.998803 
2.4501635e+2, 2.2605349e+2, -772074.4, -945911.6, -8777.971, -0.0060517862, 0.0009290846, -771632.25, -46954.94, 0.0, 10.000577, 9.99827 
2.450235e+2, 2.3605229e+2, -619629.75, -815660.2, -1935.9802, 0.001546494, 0.050501157, -619610.6, 7080.4375, 0.0, 10.000925, 9.9983225 
2.4503066e+2, 2.4605076e+2, -464530.4, -667185.4, 6130.331, -0.008249348, 0.054476418, -464345.16, 64361.523, 0.0, 10.001218, 9.9985285 
2.450378e+2, 2.5604904e+2, -329206.34, -551294.06, -736.2034, -0.030241173, 0.025067894, -329203.9, 101519.47, 0.0, 10.001474, 9.9985285 
2.450451e+2, 2.6604742e+2, -196667.75, -464483.03, -4801.85, -0.035374183, 0.02479818, -196581.69, 136156.58, 0.0, 10.001832, 9.99828 
2.4505246e+2, 2.7604583e+2, -38716.945, -338670.34, -2320.7139, -0.027182251, 0.035421126, -38698.99, 196053.39, 0.0, 10.002249, 9.99827 
2.4505973e+2, 2.860437e+2, 73629.27, -272739.7, -1609.5215, -0.039084338, 0.0138014, 73636.75, 210410.1, 0.0, 10.002514, 9.997923 
2.4506682e+2, 2.9604134e+2, 193686.4, -168474.86, -7341.278, -0.071443535, -0.017177844, 193835.16, 232632.45, 0.0, 10.002685, 9.997884 
2.4507488e+2, 3.0603996e+2, 233158.89, -192769.52, -24472.28, 0.0060562114, 0.0886451, 234560.38, 234560.38, 0.0000000018495133, 10.002916, 9.997272 
2.4508147e+2, 3.160363e+2, 381685.97, 54427.008, -6947.319, -0.045402706, -0.0027548985, 381833.4, 381833.4, 0.00000052479436, 10.0031805, 9.998842 
2.549453e+2, 1.2605064e+2, -1904197.3, -1710271.8, -21562.787, -0.009244615, 0.034509253, -1707903.0, -3193.8293, 0.00020966213, 9.998286, 10.000858 
2.5495294e+2, 1.3605157e+2, -1765749.5, -1625432.5, -8288.843, 0.017727682, 0.067753434, -1624944.6, -18244.701, 0.00009902935, 9.998706, 10.000565 
2.5496054e+2, 1.4605126e+2, -1652681.4, -1549953.6, -16136.029, 0.057744972, -0.0037772951, -1547478.6, -38775.69, 0.000025643241, 9.998937, 10.000297 
2.5496715e+2, 1.5605214e+2, -1539629.8, -1450182.4, -16939.807, 0.011371528, 0.054685514, -1447081.8, -36386.87, 0.0000014046367, 9.9990635, 10.000247 
2.5497416e+2, 1.6605237e+2, -1431105.8, -1384756.9, -12488.67, 0.00045201118, 0.07267535, -1381606.0, -68914.23, 0.0, 9.999299, 9.99991 
2.549815e+2, 1.7605203e+2, -1293689.6, -1274926.9, -8686.817, 0.015885312, 0.04416942, -1271522.6, -56828.93, 0.0, 9.9996, 9.9998455 
2.5498852e+2, 1.8605126e+2, -1223305.4, -1283572.9, -9668.343, 0.014397544, 0.030368667, -1221792.4, -105091.484, 0.0, 9.999813, 9.999012 
2.549954e+2, 1.9605029e+2, -1101872.4, -1174187.1, -6863.7573, 0.0010271558, 0.027996011, -1101226.8, -82515.73, 0.0, 9.999974, 9.999012 
2.550025e+2, 2.0604917e+2, -999647.9, -1105022.9, -3160.2627, -0.0014011563, 0.031070754, -999553.2, -78831.914, 0.0, 10.000136, 9.998735 
2.550097e+2, 2.1604796e+2, -878143.5, -996358.4, -5829.6475, 0.0037068694, 0.032779858, -877856.75, -55124.87, 0.0, 10.0003, 9.99873 
2.550169e+2, 2.2604638e+2, -762042.8, -925074.75, 4344.3594, -0.008660593, 0.02053891, -761927.1, -37179.97, 0.0, 10.000577, 9.998413 
2.5502408e+2, 2.3604459e+2, -612107.75, -799848.5, 10812.26, -0.032383237, -0.004126997, -611487.1, 15278.549, 0.0, 10.000924, 9.998432 
2.5503168e+2, 2.4604324e+2, -477364.47, -693811.9, 15570.884, -0.029892273, 0.021619262, -476250.06, 52529.813, 0.0, 10.001218, 9.998346 
2.5503945e+2, 2.5604218e+2, -339933.88, -573772.44, 9669.794, -0.010975973, 0.077996425, -339534.7, 91256.484, 0.0, 10.001475, 9.998373 
2.5504705e+2, 2.6604035e+2, -192804.22, -456833.2, 10959.604, -0.02194085, 0.05962694, -192350.08, 140458.22, 0.0, 10.001833, 9.998332 
2.550545e+2, 2.7603793e+2, -36928.86, -335150.84, 12398.716, -0.05004065, -0.016422411, -36414.266, 198415.48, 0.0, 10.002249, 9.998295 
2.5506207e+2, 2.8603593e+2, 60643.03, -299548.53, 4435.245, -0.055059873, -0.016576087, 60697.637, 197547.73, 0.0, 10.002514, 9.997739 
2.550697e+2, 2.960343e+2, 181707.77, -193277.66, -469.35846, -0.05243913, 0.045632303, 181708.34, 220576.48, 0.0, 10.002685, 9.997713 
2.550779e+2, 3.0603263e+2, 231209.61, -197419.03, -14408.066, 0.014425687, 0.13196652, 231693.38, 231693.38, 0.000000000039700524, 10.002918, 9.997239 
2.5508437e+2, 3.160286e+2, 391078.1, 73096.586, 5541.254, -0.07359308, -0.00017011118, 391174.63, 391174.63, 0.00000015406697, 10.003183, 9.99897 
2.6494372e+2, 1.260426e+2, -1935085.9, -1702863.8, -23481.068, 0.017162941, 0.036526453, -1700513.3, 4275.791, 0.00016490842, 9.997978, 10.001057 
2.6495126e+2, 1.360438e+2, -1780566.5, -1607253.9, -10655.791, -0.01002665, 0.0726277, -1606601.1, 174.91498, 0.000073287774, 9.998496, 10.000791 
2.6495916e+2, 1.4604366e+2, -1670820.1, -1559962.0, -25100.457, 0.03334608, 0.006755734, -1554543.5, -45765.793, 0.000016155976, 9.998818, 10.000285 
2.6496628e+2, 1.5604451e+2, -1545451.8, -1452928.8, -23626.453, 0.01983465, 0.064192444, -1447244.6, -36474.184, 0.00000046134082, 9.999024, 10.000248 
2.6497352e+2, 1.660448e+2, -1442027.3, -1383490.8, -18939.84, 0.011061849, 0.08397836, -1377897.3, -65130.047, 0.0, 9.999197, 9.999969 
2.6498085e+2, 1.7604455e+2, -1325922.4, -1283803.8, -20512.014, 0.0074193985, 0.060347993, -1275465.1, -60697.297, 0.0, 9.9993515, 9.999906 
2.649881e+2, 1.8604387e+2, -1246581.1, -1287107.6, -22438.793, 0.0017666344, 0.046149906, -1236610.3, -119836.16, 0.0, 9.99962, 9.999081 
2.649953e+2, 1.9604291e+2, -1099276.5, -1166691.8, -19753.545, -0.0057710977, 0.03938555, -1093914.9, -75130.93, 0.0, 9.999966, 9.999068 
2.6500264e+2, 2.0604175e+2, -987204.44, -1104030.1, -15168.994, -0.0064156, 0.037362866, -985267.0, -64472.477, 0.0, 10.000243, 9.998692 
2.6501003e+2, 2.1604042e+2, -854602.1, -988935.6, -13424.7295, -0.0025362198, 0.03338469, -853273.6, -30467.719, 0.0, 10.000479, 9.998694 
2.650175e+2, 2.2603884e+2, -740962.7, -909804.25, -3002.9707, -0.011879182, 0.019131357, -740909.25, -16088.119, 0.0, 10.0007, 9.998459 
2.6502502e+2, 2.3603709e+2, -611607.7, -795888.75, -3603.4492, -0.029796813, -0.0048221718, -611537.25, 15301.724, 0.0, 10.000912, 9.998466 
2.6503286e+2, 2.4603568e+2, -480925.06, -703674.75, 4754.9536, -0.031253867, 0.01769659, -480823.6, 48030.06, 0.0, 10.001228, 9.998274 
2.650409e+2, 2.560345e+2, -324625.84, -573605.3, 6764.538, -0.022676172, 0.0680413, -324442.2, 106424.055, 0.0, 10.001612, 9.998309 
2.6504886e+2, 2.660327e+2, -183727.8, -452043.75, 9095.116, -0.028717447, 0.055066362, -183419.84, 149463.58, 0.0, 10.001894, 9.998335 
2.6505673e+2, 2.7603042e+2, -57112.582, -345147.7, 6916.772, -0.041915346, -0.0075053056, -56946.582, 177957.48, 0.0, 10.002112, 9.998291 
2.650646e+2, 2.8602844e+2, 47697.246, -312862.3, 2300.521, -0.049428083, 0.00048006413, 47711.926, 184636.17, 0.0, 10.002457, 9.997674 
2.6507238e+2, 2.9602683e+2, 203460.8, -191319.39, 5065.7026, -0.060722977, 0.066967115, 203525.8, 242468.4, 0.0, 10.0028715, 9.997636 
2.650808e+2, 3.0602476e+2, 240470.36, -205723.4, -14173.729, 0.007402443, 0.12638383, 240920.14, 240920.14, 0.0, 10.003038, 9.997124 
2.6508757e+2, 3.1602082e+2, 373363.5, 65176.184, 1380.2885, -0.06390026, 0.015425677, 373369.7, 373369.7, 0.000000038019415, 10.003061, 9.998973 
2.7494195e+2, 1.2603444e+2, -1916373.8, -1663647.0, -363.71472, 0.04388954, 0.05652444, -1663646.5, 41224.633, 0.00012966055, 9.997977, 10.001327 
2.749494e+2, 1.3603614e+2, -1760960.6, -1565155.4, 6724.508, -0.045552198, 0.11266728, -1564924.6, 41927.51, 0.00005392466, 9.998489, 10.001082 
2.749577e+2, 1.4603613e+2, -1670305.0, -1557758.5, -17716.715, 0.0022555892, 0.04712428, -1555035.5, -46183.26, 0.0000098627, 9.998814, 10.000303 
2.7496538e+2, 1.5603681e+2, -1544024.1, -1449972.5, -16286.021, 0.027569685, 0.08298078, -1447232.3, -36385.082, 0.00000011248763, 9.999024, 10.000268 
2.749728e+2, 1.6603698e+2, -1442732.5, -1385071.6, -13445.97, 0.02087509, 0.089732826, -1382090.4, -69245.266, 0.0, 9.999197, 9.999957 
2.7498007e+2, 1.7603666e+2, -1326145.3, -1284038.6, -13989.282, -0.0054848744, 0.059991978, -1279814.6, -64968.395, 0.0, 9.999351, 9.999905 
2.749876e+2, 1.8603612e+2, -1241998.4, -1277144.1, -9528.927, -0.010600433, 0.05774939, -1239581.0, -122730.055, 0.0, 9.999619, 9.999149 
2.7499533e+2, 1.9603546e+2, -1094954.5, -1157647.4, -7179.805, -0.0016545885, 0.07475119, -1094142.8, -75285.1, 0.0, 9.999965, 9.99913 
2.7500287e+2, 2.0603411e+2, -986397.2, -1102244.1, -6306.4697, -0.0077347094, 0.048763186, -986054.9, -65185.1, 0.0, 10.000242, 9.998704 
2.750103e+2, 2.1603222e+2, -854212.4, -988077.0, -4482.5015, -0.024214733, -0.011213173, -854062.44, -31176.695, 0.0, 10.000479, 9.998701 
2.7501816e+2, 2.2603086e+2, -744571.06, -917264.5, 4932.621, -0.01631145, -0.0031623424, -744430.25, -19531.004, 0.0, 10.000699, 9.998408 
2.750263e+2, 2.360298e+2, -614305.6, -801652.06, 5084.932, 0.00836713, 0.047599465, -614167.7, 12743.3955, 0.0, 10.000912, 9.998426 
2.7503428e+2, 2.4602811e+2, -478556.06, -698830.5, 19121.973, -0.013063586, 0.042182744, -476908.4, 52019.707, 0.0, 10.001228, 9.998307 
2.750421e+2, 2.5602597e+2, -323182.34, -570268.8, 20500.17, -0.06549284, -0.0037568144, -321493.03, 109455.52, 0.0, 10.00161, 9.998333 
2.7505046e+2, 2.6602444e+2, -186861.45, -458240.25, 16962.025, -0.05609233, 0.01190331, -185805.39, 147158.2, 0.0, 10.001893, 9.998294 
2.7505922e+2, 2.7602327e+2, -59159.867, -349376.4, 16035.017, -0.0040659416, 0.060685266, -58276.59, 176698.83, 0.0, 10.002112, 9.998262 
2.7506733e+2, 2.8602123e+2, 51018.805, -305984.25, 18004.871, -0.023282118, 0.06351384, 51924.555, 188920.48, 0.0, 10.002457, 9.997722 
2.7507493e+2, 2.9601884e+2, 204471.98, -189255.77, 19048.459, -0.09605444, 0.04815854, 205391.4, 244412.06, 0.0, 10.0028715, 9.997651 
2.7508363e+2, 3.0601633e+2, 226435.08, -235195.63, -13667.553, -0.015358583, 0.0736465, 226839.39, 226839.39, 0.0, 10.003039, 9.996921 
2.7509108e+2, 3.1601304e+2, 365022.4, 47355.105, 4659.168, -0.019629322, 0.043237414, 365090.75, 365090.75, 0.00000000643165, 10.003063, 9.99885 
2.8494006e+2, 1.260263e+2, -1873100.9, -1650411.9, 21588.78, 0.039773375, 0.0674679, -1648338.3, 56612.984, 0.00010364884, 9.998306, 10.001259 
2.849477e+2, 1.36028e+2, -1818759.1, -1593883.8, -1931.7173, -0.04368215, 0.12330295, -1593867.3, 13065.788, 0.000040612387, 9.998097, 10.001075 
2.8495628e+2, 1.4602807e+2, -1736807.6, -1579205.4, -25324.441, 0.0057923114, 0.061185952, -1575236.0, -66303.79, 0.0000062724685, 9.998313, 10.000397 
2.8496423e+2, 1.5602879e+2, -1564403.5, -1450505.9, -19714.854, 0.0216969, 0.093474925, -1447189.9, -36263.68, 0.000000028346124, 9.998845, 10.000351 
2.8497192e+2, 1.6602892e+2, -1446365.6, -1392215.4, -22640.15, 0.013621728, 0.09552289, -1383996.9, -71072.44, 0.0, 9.999196, 9.999909 
2.8497943e+2, 1.7602852e+2, -1318769.6, -1285301.3, -25948.125, -0.008588059, 0.061281484, -1271159.3, -56232.55, 0.0, 9.999423, 9.999861 
2.8498718e+2, 1.8602796e+2, -1240957.0, -1278670.5, -23615.418, -0.015331815, 0.060077593, -1229593.5, -112661.805, 0.0, 9.999636, 9.99913 
2.849951e+2, 1.9602732e+2, -1113086.8, -1167122.3, -28204.11, -0.011989085, 0.08199044, -1101047.8, -82109.484, 0.0, 9.999845, 9.999124 
2.8500295e+2, 2.0602597e+2, -993034.2, -1093837.0, -25021.555, -0.017773056, 0.051330812, -987165.0, -66215.02, 0.0, 10.000147, 9.998808 
2.8501076e+2, 2.160241e+2, -843511.44, -973746.4, -16744.963, -0.029905865, -0.019858552, -841392.94, -18427.443, 0.0, 10.000513, 9.998783 
2.8501886e+2, 2.2602277e+2, -739090.2, -928156.6, -10353.465, -0.021713873, -0.003831933, -738524.9, -13546.238, 0.0, 10.000795, 9.998287 
2.850272e+2, 2.360218e+2, -605633.0, -808627.75, -15191.045, 0.0004227611, 0.06808884, -604502.5, 22487.781, 0.0, 10.0010195, 9.998326 
2.8503543e+2, 2.4602005e+2, -474544.1, -685984.9, 1583.6538, -0.017206758, 0.05690905, -474532.25, 54475.37, 0.0, 10.001209, 9.9984045 
2.850436e+2, 2.560178e+2, -351222.38, -575021.94, 7957.019, -0.06154723, -0.012710618, -350939.84, 80088.86, 0.0, 10.00138, 9.998411 
2.8505227e+2, 2.6601624e+2, -215911.81, -482532.7, 6710.1777, -0.055950526, 0.0034838466, -215743.03, 117300.86, 0.0, 10.001739, 9.9982 
2.8506127e+2, 2.7601513e+2, -48665.426, -351854.47, 1541.7496, -0.015593348, 0.06910148, -48657.586, 186398.03, 0.0, 10.002217, 9.998195 
2.850697e+2, 2.8601322e+2, 64483.844, -285598.84, 3069.588, -0.033451945, 0.07694944, 64510.754, 201586.0, 0.0, 10.00249, 9.997845 
2.8507766e+2, 2.9601088e+2, 177278.64, -190529.86, 8991.775, -0.096051395, 0.058242414, 177498.33, 216597.0, 0.0, 10.002636, 9.997755 
2.850866e+2, 3.0600813e+2, 210887.72, -240123.39, -14732.024, -0.012342503, 0.052108716, 211368.4, 211368.4, 0.0, 10.002922, 9.996943 
2.8509432e+2, 3.1600514e+2, 400448.34, 67968.305, 21800.445, -0.012734098, 0.05181206, 401871.7, 401871.7, 0.00000000043435586, 10.003292, 9.998881 
2.94938e+2, 1.2601824e+2, -1901083.3, -1709240.5, 18873.92, 0.0029574411, 0.06987991, -1707401.4, -2372.5178, 0.000085497144, 9.99831, 10.0008545 
2.9494616e+2, 1.3601935e+2, -1840513.0, -1638903.8, -7845.8813, -0.006752597, 0.103940874, -1638598.9, -31580.504, 0.000032281903, 9.998096, 10.000767 
2.9495493e+2, 1.4601944e+2, -1725865.9, -1555991.5, -5465.324, 0.041576046, 0.04847857, -1555815.9, -46798.188, 0.0000046245973, 9.99831, 10.000558 
2.9496288e+2, 1.5602048e+2, -1555349.6, -1431040.9, -838.5749, 0.0012585212, 0.0964283, -1431035.3, -20027.666, 0.00000001715619, 9.998842, 10.000486 
2.949709e+2, 1.6602066e+2, -1452873.6, -1404936.5, -14360.255, -0.011204611, 0.10222043, -1400963.9, -87958.74, 0.0, 9.999192, 9.999824 
2.9497892e+2, 1.7602013e+2, -1325250.3, -1298137.5, -17526.658, -0.0030224398, 0.06415273, -1289536.4, -74527.31, 0.0, 9.99942, 9.999774 
2.9498684e+2, 1.8601938e+2, -1249220.1, -1295357.6, -15809.03, -0.013624301, 0.053031236, -1244323.0, -127306.71, 0.0, 9.999634, 9.999018 
2.9499468e+2, 1.9601849e+2, -1118832.5, -1178931.9, -19629.09, -0.03732997, 0.06124279, -1112989.5, -93963.98, 0.0, 9.999844, 9.9990425 
2.950029e+2, 2.0601736e+2, -979493.4, -1065562.0, -11221.225, -0.036915902, 0.045014724, -978054.5, -57019.367, 0.0, 10.000146, 9.999002 
2.950113e+2, 2.1601601e+2, -832586.56, -950944.06, -3350.1902, -0.020265633, 0.0069973017, -832491.8, -9446.665, 0.0, 10.000512, 9.99894 
2.9501957e+2, 2.2601458e+2, -752618.56, -955917.25, -1976.3363, -0.028583234, 0.017026054, -752599.4, -27540.008, 0.0, 10.000793, 9.998097 
2.9502767e+2, 2.3601311e+2, -616722.4, -831447.75, -6902.7466, -0.053433336, 0.057230026, -616500.75, 10575.747, 0.0, 10.001019, 9.998171 
2.9503638e+2, 2.4601154e+2, -463339.3, -662771.8, 7888.1543, -0.044063363, 0.06201559, -463027.78, 66064.33, 0.0, 10.001209, 9.998564 
2.9504547e+2, 2.560099e+2, -341969.3, -555963.94, 15591.917, -0.012501973, 0.03959457, -340839.25, 90267.49, 0.0, 10.001381, 9.998542 
2.950543e+2, 2.6600808e+2, -226207.5, -503757.9, 24624.443, -0.029174086, 0.028999131, -224039.73, 109084.67, 0.0, 10.001739, 9.998055 
2.950629e+2, 2.7600607e+2, -56637.67, -367931.5, 18207.541, -0.07567985, 0.019532388, -55576.332, 179568.16, 0.0, 10.002215, 9.998085 
2.9507172e+2, 2.8600436e+2, 77804.86, -257614.22, 8264.034, -0.0799641, 0.042222504, 78008.34, 215170.42, 0.0, 10.002489, 9.998038 
2.9508063e+2, 2.9600295e+2, 190253.89, -163366.4, 15344.684, -0.062917225, 0.09599531, 190918.5, 230095.33, 0.0, 10.002635, 9.997942 
2.950898e+2, 3.0600008e+2, 227410.42, -205635.42, -1066.0697, 0.014906794, 0.061118003, 227413.05, 227413.05, 0.0, 10.002921, 9.997181 
2.9509732e+2, 3.1599715e+2, 413707.16, 94876.66, 37682.176, -0.042900193, 0.040239707, 418100.22, 418100.22, 0.0, 10.003294, 9.999065 
3.0493614e+2, 1.2600957e+2, -1965266.6, -1753710.4, -14063.539, 0.004602189, 0.06927997, -1752779.6, -47666.055, 0.000073591786, 9.997931, 10.000731 
3.0494446e+2, 1.3601062e+2, -1813519.6, -1634555.3, -26141.57, 0.0039663976, 0.105427474, -1630814.9, -23710.275, 0.000027638554, 9.998321, 10.000689 
3.0495346e+2, 1.4601071e+2, -1682409.1, -1537613.4, -12438.901, 0.050135747, 0.053686894, -1536552.5, -27448.422, 0.000004191702, 9.99862, 10.000534 
3.0496168e+2, 1.5601169e+2, -1551307.4, -1431848.5, -22182.643, -0.005383006, 0.0982271, -1427862.4, -16768.19, 0.000000032166714, 9.998883, 10.000461 
3.049699e+2, 1.6601184e+2, -1469837.0, -1417863.6, -45930.434, -0.02050665, 0.10572413, -1391078.0, -77985.99, 0.0, 9.999099, 9.99978 
3.0497822e+2, 1.7601132e+2, -1347118.3, -1312544.8, -46424.453, -0.007579858, 0.07362936, -1280293.0, -65196.63, 0.0, 9.999288, 9.999739 
3.049864e+2, 1.860106e+2, -1255386.1, -1292103.9, -33644.09, -0.018013304, 0.06457467, -1235417.8, -118314.375, 0.0, 9.999565, 9.999073 
3.049945e+2, 1.9600978e+2, -1106493.0, -1167675.6, -24894.572, -0.044408858, 0.07179182, -1097643.6, -78531.63, 0.0, 9.999907, 9.999089 
3.05003e+2, 2.0600867e+2, -981351.06, -1073467.4, -22609.482, -0.041828446, 0.060346093, -976100.9, -54979.547, 0.0, 10.000164, 9.9989395 
3.0501178e+2, 2.1600734e+2, -856752.6, -967146.1, -34206.707, -0.019929003, 0.031360116, -847012.7, -23881.08, 0.0, 10.000365, 9.998899 
3.0502024e+2, 2.260059e+2, -765040.44, -942900.0, -25111.02, -0.032425743, 0.03082497, -761563.1, -36417.51, 0.0, 10.000627, 9.998267 
3.050285e+2, 2.3600435e+2, -620317.06, -818091.8, -3629.6995, -0.067702465, 0.047278363, -620250.44, 6911.7876, 0.0, 10.000929, 9.998305 
3.0503747e+2, 2.4600282e+2, -477257.44, -689429.7, 5354.492, -0.053846143, 0.061314546, -477122.4, 52055.156, 0.0, 10.001201, 9.998385 
3.0504695e+2, 2.5600135e+2, -341756.44, -572015.6, -11367.197, -0.007967311, 0.07039364, -341196.63, 89995.375, 0.0, 10.001452, 9.998397 
3.0505607e+2, 2.6599938e+2, -218623.63, -484063.56, 6207.983, -0.025039937, 0.047483806, -218478.52, 114731.91, 0.0, 10.001722, 9.998198 
3.0506495e+2, 2.759971e+2, -78435.58, -364732.5, 20039.209, -0.081856705, -0.0034751787, -77039.75, 158192.1, 0.0, 10.002008, 9.998206 
3.0507404e+2, 2.8599545e+2, 46184.49, -280671.34, 1483.33, -0.08667503, 0.02337311, 46191.223, 183440.03, 0.0, 10.002306, 9.997968 
3.0508322e+2, 2.959943e+2, 182358.78, -172547.81, -10679.395, -0.06327931, 0.11140198, 182679.84, 221941.55, 0.0, 10.0026045, 9.997893 
3.0509266e+2, 3.0599132e+2, 229504.83, -180832.63, -33392.34, 0.011032488, 0.054298606, 232204.45, 232204.45, 0.0, 10.002833, 9.997393 
3.051004e+2, 3.1598872e+2, 382243.53, 91047.33, 4304.8447, -0.050864853, 0.044601943, 382307.16, 382307.16, 0.0, 10.00303, 9.9991665 
3.1493446e+2, 1.2600031e+2, -1954700.5, -1731415.8, 7698.248, 0.04250829, 0.065169126, -1731150.8, -25945.377, 0.00006650563, 9.997929, 10.000885 
3.1494263e+2, 1.3600181e+2, -1803002.6, -1612964.0, -12310.921, -0.013355835, 0.12932214, -1612169.8, -4978.025, 0.000025576577, 9.998322, 10.000835 
3.149519e+2, 1.4600188e+2, -1696741.1, -1567352.6, -2827.4136, 0.02993054, 0.07848939, -1567290.9, -58099.43, 0.000004447986, 9.99862, 10.000331 
3.149606e+2, 1.560024e+2, -1564335.6, -1458490.4, -12389.788, -0.00018153945, 0.09814027, -1457059.4, -45873.49, 0.00000006594377, 9.998881, 10.000278 
3.1496906e+2, 1.6600245e+2, -1471357.3, -1420577.4, -38868.902, -0.016132453, 0.10512332, -1399540.6, -86355.44, 0.0, 9.999097, 9.999762 
3.1497732e+2, 1.760021e+2, -1346843.9, -1311651.4, -38698.91, -0.023046087, 0.09035134, -1286736.0, -71547.24, 0.0, 9.999286, 9.999746 
3.1498584e+2, 1.8600164e+2, -1239818.3, -1259461.9, -20862.938, -0.029175065, 0.09544459, -1226580.8, -109387.8, 0.0, 9.999563, 9.999298 
3.149945e+2, 1.9600116e+2, -1094633.6, -1142731.3, -12394.0625, -0.033768743, 0.1134029, -1091627.6, -72430.21, 0.0, 9.999905, 9.999262 
3.1500325e+2, 2.059999e+2, -1004196.4, -1120541.5, -14959.2295, -0.03314594, 0.09711168, -1002303.75, -81095.02, 0.0, 10.000163, 9.998617 
3.1501204e+2, 2.1599811e+2, -873568.7, -1001863.6, -26036.188, -0.02947848, 0.05329292, -868486.25, -45261.434, 0.0, 10.000364, 9.998662 
3.1502083e+2, 2.2599667e+2, -728191.06, -866488.3, -13559.346, -0.03395832, 0.037584055, -726874.2, -1636.7969, 0.0, 10.000627, 9.998792 
3.1502965e+2, 2.359955e+2, -590706.2, -756666.2, 7564.0537, -0.043445393, 0.03797393, -590362.1, 36885.492, 0.0, 10.000929, 9.998727 
3.1503877e+2, 2.4599393e+2, -513192.53, -764024.75, 14589.576, -0.047148477, 0.05491649, -512346.78, 16917.18, 0.0, 10.0012, 9.997873 
3.1504798e+2, 2.5599208e+2, -370979.34, -632682.94, -1752.7426, -0.047474377, 0.08020872, -370967.6, 60316.813, 0.0, 10.001452, 9.997981 
3.1505758e+2, 2.659902e+2, -189114.4, -422684.34, 16947.012, -0.04400857, 0.059003323, -187891.19, 145410.73, 0.0, 10.001721, 9.998619 
3.1506738e+2, 2.7598825e+2, -54357.91, -314426.06, 30925.822, -0.036474694, -0.0007605611, -50730.97, 184586.84, 0.0, 10.002007, 9.998552 
3.1507665e+2, 2.859865e+2, 22929.355, -328764.0, 12480.495, -0.055000417, 0.020244928, 23371.693, 160707.16, 0.0, 10.002305, 9.997638 
3.150855e+2, 2.95985e+2, 163277.8, -213062.56, -8.39718, -0.09634784, 0.10452769, 163277.8, 202631.05, 0.0, 10.002608, 9.997614 
3.1509513e+2, 3.0598184e+2, 242757.98, -154002.77, -26324.143, -0.023737779, 0.03106688, 244496.9, 244496.9, 0.0, 10.002837, 9.997576 
3.151035e+2, 3.1597984e+2, 383354.2, 93759.31, 12859.255, -0.04021217, 0.0651678, 383924.1, 383924.1, 0.0, 10.003028, 9.999186 
3.2493243e+2, 1.2599084e+2, -1957257.0, -1735511.9, 10081.876, 0.050920427, 0.066327855, -1735054.4, -29755.482, 0.00006287029, 9.997925, 10.000858 
3.2494086e+2, 1.3599251e+2, -1810111.3, -1615869.1, -32978.31, -0.018323107, 0.14628959, -1610422.8, -3138.6792, 0.000025189593, 9.998272, 10.000839 
3.2495037e+2, 1.4599256e+2, -1710426.1, -1573679.8, -24199.191, 0.021615228, 0.09733481, -1569523.6, -60240.055, 0.0000050024137, 9.998527, 10.000332 
3.249593e+2, 1.5599295e+2, -1583530.3, -1467224.4, -18806.797, -0.008649177, 0.10167628, -1464258.9, -52979.61, 0.000000115129794, 9.998748, 10.000282 
3.2496804e+2, 1.65993e+2, -1485539.0, -1427079.6, -38464.605, -0.021349365, 0.10796747, -1407998.9, -94720.164, 0.0, 9.998998, 9.999764 
3.249766e+2, 1.7599276e+2, -1348371.1, -1311179.0, -36513.26, -0.023479708, 0.103242375, -1288799.1, -73517.54, 0.0, 9.999271, 9.999756 
3.2498538e+2, 1.8599239e+2, -1243483.1, -1254394.9, -23651.285, -0.025651475, 0.11259399, -1224666.6, -107381.68, 0.0, 9.99951, 9.999358 
3.249944e+2, 1.9599195e+2, -1117177.8, -1147667.4, -28175.707, -0.026905648, 0.13084735, -1100387.0, -81098.53, 0.0, 9.999724, 9.999314 
3.2500333e+2, 2.0599066e+2, -1026996.25, -1130071.8, -21492.994, -0.031527407, 0.10872255, -1022694.2, -101394.22, 0.0, 10.0, 9.998631 
3.2501227e+2, 2.1598879e+2, -879425.6, -1002879.3, -7725.3276, -0.038958512, 0.054975405, -878944.06, -55627.19, 0.0, 10.000318, 9.998677 
3.2502142e+2, 2.2598733e+2, -729282.0, -864887.4, -6397.421, -0.037375238, 0.035032526, -728980.8, -3651.4333, 0.0, 10.00061, 9.998811 
3.250307e+2, 2.3598616e+2, -594992.7, -756206.94, -22746.982, -0.029327136, 0.03515642, -591844.6, 35494.395, 0.0, 10.000889, 9.99875 
3.2504e+2, 2.4598458e+2, -508978.03, -757457.1, -5981.133, -0.039855465, 0.048327304, -508834.13, 20520.992, 0.0, 10.00121, 9.997913 
3.250493e+2, 2.5598273e+2, -353289.56, -620937.44, 17732.203, -0.06339156, 0.06778421, -352119.9, 79255.68, 0.0, 10.00156, 9.99801 
3.2505924e+2, 2.6598087e+2, -185795.83, -429175.03, 28045.512, -0.05243271, 0.05289066, -182605.84, 150787.11, 0.0, 10.00178, 9.998548 
3.2506955e+2, 2.75979e+2, -72562.164, -329952.72, 6338.2847, -0.016736155, 0.008683211, -72406.18, 163002.4, 0.0, 10.001911, 9.998492 
3.2507908e+2, 2.8597724e+2, 14792.872, -331362.06, -5348.2803, -0.0402846, 0.030130325, 14875.486, 152301.77, 0.0, 10.002244, 9.997649 
3.2508805e+2, 2.9597566e+2, 179163.84, -205076.97, 5531.05, -0.109213315, 0.10239357, 179243.45, 218688.03, 0.0, 10.002716, 9.997616 
3.250979e+2, 3.0597225e+2, 252763.05, -154730.66, -30345.01, -0.03371379, 0.011953797, 255010.36, 255010.36, 0.0, 10.00293, 9.997525 
3.251067e+2, 3.159705e+2, 356857.47, 53684.465, -6736.549, -0.019082353, 0.07474381, 357007.1, 357007.1, 0.0, 10.002963, 9.99894 
3.3493012e+2, 1.2598117e+2, -1972156.9, -1767033.6, 32435.846, 0.025957666, 0.07459536, -1762026.8, -56632.777, 0.000061273975, 9.997927, 10.000641 
3.3493918e+2, 1.3598266e+2, -1820376.6, -1636652.4, -20338.998, -0.0125394985, 0.15529478, -1634427.6, -27046.018, 0.000025556885, 9.998269, 10.000698 
3.3494893e+2, 1.459828e+2, -1697301.6, -1545724.6, -15676.647, 0.023941215, 0.10894378, -1544120.3, -34739.676, 0.0000055599335, 9.998523, 10.000525 
3.3495784e+2, 1.5598336e+2, -1571094.1, -1441000.3, -9968.457, -0.032296803, 0.109963365, -1440240.9, -28866.838, 0.00000016881297, 9.998746, 10.0004635 
3.349669e+2, 1.6598348e+2, -1483748.1, -1423116.5, -28019.086, -0.037543297, 0.11544594, -1412151.4, -98779.055, 0.0, 9.998997, 9.999793 
3.3497602e+2, 1.7598328e+2, -1347383.1, -1308975.6, -26009.031, -0.009526091, 0.11162533, -1295849.0, -80474.33, 0.0, 9.99927, 9.999771 
3.3498508e+2, 1.859828e+2, -1251745.1, -1271279.3, -15455.773, -0.008225719, 0.11525178, -1243228.9, -125849.65, 0.0, 9.999508, 9.999243 
3.3499414e+2, 1.9598214e+2, -1122435.4, -1158370.3, -19545.096, -0.024293471, 0.12407452, -1113854.0, -94468.72, 0.0, 9.9997225, 9.999242 
3.3500326e+2, 2.0598096e+2, -1002893.7, -1079665.5, -9441.028, -0.03745373, 0.095455945, -1001749.7, -80354.65, 0.0, 9.999998, 9.998978 
3.350125e+2, 2.1597935e+2, -860862.5, -964210.2, 4266.0166, -0.04896117, 0.036406238, -860686.75, -37278.93, 0.0, 10.000317, 9.998943 
3.3502197e+2, 2.2597782e+2, -763113.9, -935144.44, 3962.0957, -0.04334006, 0.023332015, -763022.7, -37601.004, 0.0, 10.00061, 9.998329 
3.3503166e+2, 2.3597635e+2, -621057.6, -810475.56, -11913.552, -0.025656886, 0.038779784, -620311.25, 7125.173, 0.0, 10.00089, 9.998378 
3.3504128e+2, 2.4597481e+2, -468364.94, -673030.44, 7229.757, -0.032598972, 0.04162568, -468109.88, 61341.176, 0.0, 10.001209, 9.998493 
3.3505094e+2, 2.5597325e+2, -320970.94, -553256.56, 29980.219, -0.056833506, 0.033282656, -317163.9, 114301.73, 0.0, 10.001557, 9.998475 
3.3506104e+2, 2.6597142e+2, -224970.53, -510106.28, 32535.332, -0.050817907, 0.029550921, -221305.2, 112178.41, 0.0, 10.001778, 9.9979925 
3.3507138e+2, 2.759694e+2, -104667.48, -397030.84, 12387.245, -0.022505928, 0.023756983, -104143.58, 131360.56, 0.0, 10.001913, 9.998031 
3.350813e+2, 2.8596768e+2, 38625.11, -281831.4, 12173.025, -0.04315924, 0.051827427, 39086.855, 176608.14, 0.0, 10.002244, 9.99799 
3.350908e+2, 2.959662e+2, 197862.92, -165222.9, 21497.893, -0.10314785, 0.10586393, 199131.36, 238667.06, 0.0, 10.002712, 9.997892 
3.3510095e+2, 3.0596265e+2, 233263.39, -195136.08, -29444.816, -0.019926688, -0.0021089085, 235277.72, 235277.72, 0.0, 10.002929, 9.997249 
3.3510998e+2, 3.1596074e+2, 323242.1, -18536.088, -3374.6128, 0.010173928, 0.07228624, 323275.4, 323275.4, 0.0, 10.002973, 9.998441 
3.4492815e+2, 1.2597132e+2, -1946175.9, -1760605.3, 29251.617, 0.0254485, 0.08910693, -1756103.5, -50612.35, 0.000060228966, 9.99813, 10.000587 
3.4493744e+2, 1.359726e+2, -1835048.0, -1644393.9, -21148.771, -0.009280105, 0.15086603, -1642076.0, -34595.316, 0.000025763518, 9.99817, 10.000693 
3.4494737e+2, 1.4597279e+2, -1728065.8, -1555523.3, -16291.911, 0.028322842, 0.10751582, -1553998.4, -44519.2, 0.000005876301, 9.99829, 10.00057 
3.4495652e+2, 1.559735e+2, -1603744.3, -1451311.1, -21115.176, -0.026540438, 0.120174676, -1448440.4, -36969.06, 0.0000002059256, 9.998499, 10.000511 
3.4496585e+2, 1.659737e+2, -1504967.5, -1426632.9, -38030.094, -0.032724574, 0.12509072, -1411207.5, -97738.62, 0.0, 9.998822, 9.999852 
3.449753e+2, 1.7597345e+2, -1349452.5, -1303951.9, -34628.23, -0.008407217, 0.11317049, -1285269.3, -69798.164, 0.0, 9.999229, 9.9998255 
3.4498456e+2, 1.8597291e+2, -1255078.9, -1273047.9, -23411.252, -0.009482707, 0.10924132, -1238987.4, -121511.33, 0.0, 9.999486, 9.999242 
3.4499377e+2, 1.959722e+2, -1134345.5, -1163737.6, -18261.367, -0.026519507, 0.11071419, -1125601.3, -106118.625, 0.0, 9.99964, 9.999245 
3.4500325e+2, 2.0597106e+2, -1013769.44, -1083547.8, -13977.057, -0.0372274, 0.08820478, -1011073.9, -89582.02, 0.0, 9.999918, 9.998989 
3.450128e+2, 2.1596965e+2, -866564.5, -967124.56, -25410.273, -0.044132728, 0.044500638, -860508.4, -37005.25, 0.0, 10.0002775, 9.998941 
3.4502262e+2, 2.2596808e+2, -766796.06, -948936.6, -20058.682, -0.04067918, 0.033634823, -764613.25, -39095.55, 0.0, 10.000637, 9.998221 
3.4503254e+2, 2.3596641e+2, -611657.6, -815208.0, -9043.66, -0.029842474, 0.042512037, -611256.6, 16277.836, 0.0, 10.000994, 9.998294 
3.4504247e+2, 2.4596487e+2, -464441.66, -655610.56, -2156.3577, -0.031885885, 0.039221913, -464417.34, 65131.47, 0.0, 10.001169, 9.998632 
3.4505245e+2, 2.559634e+2, -361990.3, -560423.5, -11419.832, -0.04320873, 0.024950603, -361335.25, 70226.31, 0.0, 10.001222, 9.998588 
3.4506276e+2, 2.6596156e+2, -265480.63, -546436.25, 1106.4885, -0.043819766, 0.023977913, -265476.25, 68103.555, 0.0, 10.001572, 9.997842 
3.4507328e+2, 2.7595943e+2, -82788.43, -401224.9, 9956.905, -0.035375256, 0.027104853, -82477.4, 153124.63, 0.0, 10.002126, 9.9979 
3.4508353e+2, 2.8595772e+2, 58458.227, -265138.7, 5760.1704, -0.048353754, 0.05596442, 58560.727, 196180.06, 0.0, 10.002349, 9.9980545 
3.4509355e+2, 2.9595625e+2, 149673.27, -180687.64, -4441.808, -0.08137831, 0.103771366, 149732.97, 189365.97, 0.0, 10.002347, 9.997962 
3.4510392e+2, 3.059528e+2, 208201.66, -196875.75, -43365.805, -0.005397717, -0.0040125176, 212792.19, 212792.19, 0.0, 10.002711, 9.997341 
3.4511304e+2, 3.1595105e+2, 364755.1, -16595.92, 10168.42, -0.00008577602, 0.082737975, 365026.03, 365026.03, 0.0, 10.003336, 9.998279 
3.549265e+2, 1.2596123e+2, -1938327.5, -1743052.5, 40573.29, 0.04859125, 0.10816159, -1734957.9, -29367.125, 0.00005843651, 9.998124, 10.000711 
3.549356e+2, 1.3596231e+2, -1825650.4, -1624647.8, -19229.41, -0.010583555, 0.13335554, -1622824.6, -15243.318, 0.000025162195, 9.998168, 10.00083 
3.549457e+2, 1.4596255e+2, -1735021.1, -1570042.8, -8395.057, 0.03252276, 0.09340441, -1569616.6, -60037.266, 0.0000057861466, 9.99829, 10.000471 
3.5495535e+2, 1.559634e+2, -1609691.8, -1463359.0, -12129.387, 0.008285709, 0.13116999, -1462360.5, -50789.49, 0.00000020730299, 9.998497, 10.00043 
3.549649e+2, 1.659636e+2, -1499426.8, -1414873.0, -22508.664, -0.007140069, 0.13601013, -1409254.5, -95686.01, 0.0, 9.99882, 9.999934 
3.5497436e+2, 1.7596328e+2, -1343592.1, -1291704.4, -19962.578, -0.021042394, 0.108071886, -1284913.1, -69342.36, 0.0, 9.9992285, 9.99991 
3.5498384e+2, 1.8596277e+2, -1246921.1, -1256053.8, -17560.457, -0.030555265, 0.09482615, -1233343.0, -115767.95, 0.0, 9.999485, 9.999359 
3.5499334e+2, 1.959621e+2, -1128776.6, -1152268.6, -11423.62, -0.03431404, 0.09054161, -1124137.8, -104557.01, 0.0, 9.99964, 9.999324 
3.550032e+2, 2.0596103e+2, -1036608.75, -1130905.5, -371.2164, -0.031439073, 0.0868201, -1036607.3, -115017.016, 0.0, 9.999917, 9.998664 
3.550133e+2, 2.1595964e+2, -885341.5, -1006027.25, -11636.27, -0.025003398, 0.07899655, -884229.8, -60626.9, 0.0, 10.0002775, 9.998675 
3.5502335e+2, 2.2595806e+2, -748729.2, -911355.1, -6485.634, -0.02997325, 0.065632254, -748470.94, -22853.504, 0.0, 10.000636, 9.99848 
3.550334e+2, 2.3595637e+2, -597579.8, -785863.1, 3312.7993, -0.042319227, 0.046220414, -597521.5, 30111.744, 0.0, 10.000994, 9.998496 
3.550436e+2, 2.4595472e+2, -485076.84, -698345.2, -556.9211, -0.03820073, 0.040917896, -485075.38, 44573.1, 0.0, 10.001169, 9.99834 
3.5505387e+2, 2.559531e+2, -378265.7, -594549.9, -7856.664, -0.023436407, 0.04188491, -377980.66, 53682.715, 0.0, 10.001224, 9.998353 
3.5506445e+2, 2.6595128e+2, -248329.58, -510771.03, 21879.648, -0.03219163, 0.035542607, -246517.98, 87163.54, 0.0, 10.001571, 9.998087 
3.5507518e+2, 2.759492e+2, -69659.68, -373046.63, 28770.81, -0.055514526, 0.019882843, -66955.39, 168746.77, 0.0, 10.002121, 9.9980955 
3.550858e+2, 2.859474e+2, 43818.9, -294723.5, 5115.4326, -0.05607407, 0.043607704, 43896.176, 181616.45, 0.0, 10.002345, 9.997853 
3.5509622e+2, 2.959458e+2, 140741.06, -199604.88, -2703.5317, -0.045929145, 0.09436966, 140762.55, 180498.98, 0.0, 10.002348, 9.997831 
3.5510677e+2, 3.0594265e+2, 239372.36, -132085.0, -20514.793, 0.008277455, 0.004396193, 240501.9, 240501.9, 0.0, 10.002711, 9.9977865 
3.5511586e+2, 3.1594154e+2, 375401.13, 6890.9683, 34157.543, -0.050116476, 0.10766194, 378540.47, 378540.47, 0.0, 10.00333, 9.998444 
3.649247e+2, 1.2595087e+2, -1914618.0, -1728514.9, 33900.5, 0.052961577, 0.11834801, -1722531.9, -16838.66, 0.000055122826, 9.998273, 10.000738 
3.6493358e+2, 1.3595201e+2, -1831416.1, -1621324.5, -42523.3, -0.02265377, 0.1434121, -1613044.0, -5361.105, 0.000023501116, 9.998102, 10.000884 
3.6494386e+2, 1.4595227e+2, -1745177.3, -1580147.8, -19829.686, 0.02179153, 0.10492741, -1577798.5, -68117.61, 0.00000526637, 9.998242, 10.000423 
3.6495402e+2, 1.5595305e+2, -1593497.4, -1459731.9, -19852.246, 0.018493291, 0.140385, -1456847.8, -45174.43, 0.00000017249042, 9.998626, 10.000393 
3.6496386e+2, 1.6595323e+2, -1491061.0, -1408122.1, -31336.09, 0.00442718, 0.1429913, -1397614.1, -83943.086, 0.0, 9.998865, 9.999959 
3.6497346e+2, 1.7595291e+2, -1373474.1, -1303447.1, -32858.645, -0.023471737, 0.11326851, -1290443.6, -74770.56, 0.0, 9.999012, 9.999933 
3.649832e+2, 1.8595241e+2, -1268632.3, -1266999.0, -36476.094, -0.033364426, 0.09994089, -1231330.4, -113653.43, 0.0, 9.999337, 9.999354 
3.649931e+2, 1.9595174e+2, -1108286.6, -1143769.5, -39652.207, -0.027845312, 0.09686245, -1082587.9, -62905.53, 0.0, 9.999785, 9.999311 
3.6500332e+2, 2.0595063e+2, -1009015.0, -1127531.8, -20849.94, -0.022470547, 0.09542624, -1005454.0, -83761.51, 0.0, 10.000149, 9.998576 
3.6501372e+2, 2.159492e+2, -864919.56, -1004142.4, -15055.617, -0.01859924, 0.090135396, -863310.06, -39603.805, 0.0, 10.000452, 9.998604 
3.6502403e+2, 2.2594765e+2, -743325.6, -902173.94, -14380.692, -0.026731024, 0.07946455, -742034.2, -16313.58, 0.0, 10.000646, 9.998538 
3.6503428e+2, 2.3594604e+2, -627961.6, -795811.5, -19332.256, -0.04223101, 0.06340792, -625763.8, 1971.6234, 0.0, 10.000765, 9.998538 
3.6504474e+2, 2.4594434e+2, -501489.88, -717649.2, -19298.305, -0.03567705, 0.055802643, -499780.5, 29970.762, 0.0, 10.001105, 9.998238 
3.6505535e+2, 2.5594255e+2, -329278.66, -580261.3, -13158.442, -0.014914559, 0.05006169, -328590.7, 103177.21, 0.0, 10.001599, 9.99827 
3.650662e+2, 2.659407e+2, -218807.98, -485497.9, 13771.647, -0.022054479, 0.042681012, -218098.72, 115686.94, 0.0, 10.001725, 9.998187 
3.650771e+2, 2.7593878e+2, -139190.47, -397360.63, 10488.811, -0.046829112, 0.030813962, -138765.03, 97039.33, 0.0, 10.001604, 9.998178 
3.65088e+2, 2.859369e+2, -25609.146, -340088.47, -9341.27, -0.048875198, 0.04812043, -25331.918, 112491.41, 0.0, 10.001919, 9.997747 
3.650987e+2, 2.9593503e+2, 161415.66, -198119.03, -10539.3125, -0.039924294, 0.08342277, 161724.34, 201566.78, 0.0, 10.002525, 9.997757 
3.6510947e+2, 3.0593213e+2, 262488.03, -95454.25, -35060.574, 0.0065448293, 0.008083864, 265889.88, 265889.88, 0.0, 10.00276, 9.998015 
3.651188e+2, 3.1593123e+2, 290830.06, -35370.125, 5281.3574, -0.058853865, 0.11418506, 290915.53, 290915.53, 0.0, 10.002754, 9.998431 
3.749228e+2, 1.2594025e+2, -1920468.5, -1739601.6, 38194.523, 0.035880752, 0.120305106, -1731866.8, -26068.143, 0.00005010573, 9.998269, 10.000664 
3.7493145e+2, 1.3594171e+2, -1834486.3, -1626481.5, -47602.28, -0.046076115, 0.18109572, -1616105.3, -8319.729, 0.000020857056, 9.998097, 10.000851 
3.7494183e+2, 1.4594196e+2, -1745234.4, -1579669.1, -5435.192, -0.0043812525, 0.14232448, -1579490.9, -69707.34, 0.000004428325, 9.9982395, 10.000429 
3.749525e+2, 1.5594244e+2, -1593139.9, -1459231.6, -6084.4824, 0.0023379, 0.14824472, -1458955.6, -47177.273, 0.00000011962439, 9.998627, 10.000396 
3.749627e+2, 1.6594256e+2, -1492702.1, -1411914.4, -26033.107, 0.00026451793, 0.14621672, -1404252.1, -90475.6, 0.0, 9.998866, 9.999932 
3.7497252e+2, 1.7594233e+2, -1375821.8, -1308478.8, -26092.514, -0.016083054, 0.12847848, -1299552.3, -83774.55, 0.0, 9.999012, 9.9999 
3.7498268e+2, 1.8594183e+2, -1277779.0, -1286015.0, -19440.145, -0.018447915, 0.124505, -1262025.5, -144243.72, 0.0, 9.999337, 9.999225 
3.7499312e+2, 1.9594114e+2, -1115655.4, -1159049.1, -23079.418, -0.00752611, 0.12967765, -1105675.6, -85888.0, 0.0, 9.999785, 9.9992075 
3.7500358e+2, 2.059399e+2, -998741.0, -1106181.3, -9335.951, -0.010799432, 0.11389544, -997935.75, -76137.31, 0.0, 10.000149, 9.998723 
3.750141e+2, 2.159383e+2, -856360.3, -986308.06, -4129.0483, -0.025538474, 0.078229494, -856229.25, -32416.13, 0.0, 10.000451, 9.998727 
3.7502462e+2, 2.2593682e+2, -753151.44, -922520.9, -10019.911, -0.031537835, 0.07551553, -752560.75, -26733.527, 0.0, 10.000645, 9.998399 
3.7503517e+2, 2.3593542e+2, -636035.1, -812548.8, -13574.005, -0.0303098, 0.09362499, -634997.4, -7156.46, 0.0, 10.000765, 9.998424 
3.7504596e+2, 2.4593368e+2, -495739.06, -705604.3, -602.05676, -0.025014643, 0.08346702, -495737.3, 34119.777, 0.0, 10.001104, 9.998321 
3.7505695e+2, 2.559317e+2, -324557.2, -570326.3, 3267.8674, -0.01782193, 0.049912654, -324513.75, 107361.32, 0.0, 10.001598, 9.998339 
3.7506798e+2, 2.6592988e+2, -221803.3, -491663.56, 8650.035, -0.013727028, 0.045465425, -221526.33, 112365.86, 0.0, 10.001725, 9.998145 
3.7507907e+2, 2.759282e+2, -141202.23, -401618.97, 8231.351, -0.011129865, 0.05819296, -140942.33, 94966.44, 0.0, 10.001604, 9.998149 
3.7509012e+2, 2.8592622e+2, -26353.844, -341305.56, 13301.437, -0.028121322, 0.06849217, -25793.08, 112135.39, 0.0, 10.001917, 9.99774 
3.75101e+2, 2.95924e+2, 160445.02, -199701.56, 9820.654, -0.062444974, 0.07277604, 160712.61, 200663.28, 0.0, 10.002523, 9.997747 
3.7511206e+2, 3.0592126e+2, 263676.16, -92701.98, -35841.746, -0.010335695, 0.00839234, 267245.1, 267245.1, 0.0, 10.002758, 9.998035 
3.7512186e+2, 3.1592023e+2, 278107.13, -61675.742, 6505.0615, -0.030806996, 0.10026463, 278231.63, 278231.63, 0.0, 10.002753, 9.998251 
3.8492072e+2, 1.2592949e+2, -1944649.0, -1762069.9, 43567.74, 0.0048653805, 0.11847472, -1752206.5, -46302.516, 0.00004363311, 9.998149, 10.000567 
3.849298e+2, 1.3593102e+2, -1803739.3, -1616743.4, -54561.586, -0.033009157, 0.18979117, -1601987.8, 5902.9766, 0.000017489165, 9.998328, 10.000806 
3.849402e+2, 1.4593126e+2, -1713477.8, -1564104.3, -3406.4436, 0.001903297, 0.15269394, -1564026.6, -54137.953, 0.0000034194288, 9.998455, 10.000432 
3.8495088e+2, 1.5593164e+2, -1600875.0, -1463475.6, -4074.6375, -0.017975207, 0.1478516, -1463355.0, -51470.543, 0.00000006772674, 9.998574, 10.000392 
3.8496143e+2, 1.6593175e+2, -1492508.1, -1420587.8, -24295.496, -0.015182454, 0.14903587, -1413149.6, -99266.914, 0.0, 9.998905, 9.999855 
3.8497183e+2, 1.7593157e+2, -1325840.9, -1292799.6, -28285.756, -0.006675407, 0.14454015, -1276563.4, -60679.563, 0.0, 9.999391, 9.999825 
3.8498232e+2, 1.8593094e+2, -1233330.5, -1273126.4, -21286.6, -0.0055248197, 0.13455087, -1224090.0, -106201.16, 0.0, 9.999679, 9.999149 
3.8499293e+2, 1.9592996e+2, -1114148.0, -1165748.9, -21166.898, -0.005386315, 0.11988343, -1106576.3, -86679.445, 0.0, 9.999827, 9.999142 
3.850036e+2, 2.0592871e+2, -1020803.0, -1115332.8, -13449.658, -0.013196612, 0.1029782, -1018926.6, -97018.59, 0.0, 9.99999, 9.998736 
3.8501438e+2, 2.1592724e+2, -897739.6, -1005152.06, -18437.223, -0.028126298, 0.080408566, -894663.06, -70741.34, 0.0, 10.000162, 9.998736 
3.8502517e+2, 2.259258e+2, -781981.8, -938375.25, -22836.463, -0.031341515, 0.0818894, -778715.44, -52779.855, 0.0, 10.000456, 9.998382 
3.85036e+2, 2.3592436e+2, -626498.7, -809329.06, -17155.432, -0.02542179, 0.09711362, -624902.9, 3046.8857, 0.0, 10.000835, 9.998411 
3.8504714e+2, 2.4592264e+2, -490401.22, -699142.5, 1212.9731, -0.0175023, 0.08647019, -490394.2, 39571.676, 0.0, 10.001124, 9.998356 
3.850585e+2, 2.559207e+2, -358920.3, -584080.06, 397.44727, -0.009107847, 0.054327626, -358919.6, 73063.72, 0.0, 10.00135, 9.9983635 
3.8506973e+2, 2.6591885e+2, -241543.19, -508788.4, -5665.3633, -0.006989223, 0.049395006, -241423.14, 92577.555, 0.0, 10.001621, 9.998077 
3.8508087e+2, 2.7591705e+2, -99588.87, -388816.06, -7317.7305, -0.008259179, 0.060823917, -99403.84, 136614.14, 0.0, 10.00192, 9.998085 
3.8509214e+2, 2.8591505e+2, -4120.9375, -331867.66, 5215.0137, -0.024280755, 0.07062924, -4037.9788, 134000.17, 0.0, 10.002073, 9.997729 
3.8510343e+2, 2.9591283e+2, 104706.59, -226807.52, 1064.2762, -0.05450021, 0.0735555, 104710.016, 144770.77, 0.0, 10.00214, 9.9977455 
3.8511473e+2, 3.0591032e+2, 225739.22, -105140.734, -45479.523, -0.006623366, 0.02953675, 231876.55, 231876.55, 0.0, 10.002472, 9.998088 
3.851247e+2, 3.1590897e+2, 305128.06, -59256.05, 690.2455, -0.029895432, 0.08772101, 305129.38, 305129.38, 0.000000000002787424, 10.002985, 9.998156 
3.9491838e+2, 1.2591863e+2, -1953708.0, -1779428.1, 61257.215, -0.040682405, 0.11223095, -1760051.3, -54041.805, 0.0000362571, 9.998142, 10.000452 
3.9492863e+2, 1.3591994e+2, -1807397.8, -1624529.6, -48520.98, 0.016185215, 0.16912208, -1612452.9, -4454.4297, 0.000013744367, 9.998329, 10.000752 
3.9493906e+2, 1.459202e+2, -1713318.5, -1564039.9, 603.60095, 0.040294014, 0.13544957, -1564037.4, -54040.996, 0.0000023661473, 9.998456, 10.000432 
3.949492e+2, 1.5592065e+2, -1601945.0, -1465336.1, 1493.6204, -0.042848434, 0.13860127, -1465319.9, -53328.457, 0.000000028035489, 9.998572, 10.0003805 
3.9496005e+2, 1.6592081e+2, -1501823.6, -1439607.6, -5969.6704, -0.042497262, 0.1513735, -1439040.0, -125050.27, 0.0, 9.998903, 9.999725 
3.949713e+2, 1.7592065e+2, -1334012.1, -1309828.9, -10929.031, 0.004339718, 0.16168298, -1305621.8, -89630.65, 0.0, 9.999391, 9.999708 
3.949821e+2, 1.8591972e+2, -1234876.6, -1276427.8, -15739.743, 0.004951268, 0.13008381, -1229587.6, -111589.125, 0.0, 9.999679, 9.999126 
3.949926e+2, 1.9591826e+2, -1116110.0, -1169830.0, -15316.385, -0.02181257, 0.06738354, -1112050.0, -92039.84, 0.0, 9.999827, 9.999114 
3.950034e+2, 2.0591706e+2, -1029462.44, -1133125.1, -6953.2495, -0.03013209, 0.06300294, -1028998.1, -106976.93, 0.0, 9.9999895, 9.998614 
3.9501452e+2, 2.1591602e+2, -904910.75, -1019968.6, -11095.579, -0.027132252, 0.096230276, -903850.5, -79818.5, 0.0, 10.000162, 9.998635 
3.9502567e+2, 2.2591458e+2, -775090.3, -923982.6, -8420.548, -0.026895912, 0.09817034, -774615.6, -48569.746, 0.0, 10.000455, 9.998481 
3.9503682e+2, 2.3591286e+2, -620116.7, -796230.06, -3303.7014, -0.02769554, 0.07457799, -620054.7, 8007.2563, 0.0, 10.000836, 9.998501 
3.9504832e+2, 2.4591118e+2, -491403.22, -701132.8, 9522.844, -0.013365572, 0.06543809, -490971.72, 39105.785, 0.0, 10.001123, 9.9983425 
3.9506003e+2, 2.559095e+2, -360430.44, -586509.6, 9103.761, 0.010256065, 0.062760465, -360064.44, 72028.336, 0.0, 10.001348, 9.998349 
3.950714e+2, 2.659076e+2, -248241.83, -522063.9, 5370.732, -0.002375195, 0.05437, -248136.53, 85974.664, 0.0, 10.001618, 9.997988 
3.950825e+2, 2.7590546e+2, -105603.086, -401672.94, 2793.5957, -0.037918657, 0.04029898, -105576.73, 130555.086, 0.0, 10.001922, 9.997996 
3.9509407e+2, 2.8590345e+2, -5094.056, -334119.9, 7259.2285, -0.037668917, 0.05553682, -4933.975, 133218.17, 0.0, 10.002075, 9.997714 
3.9510593e+2, 2.9590148e+2, 104511.445, -226153.23, 5010.693, -0.018388974, 0.08447212, 104587.36, 144760.08, 0.0, 10.002135, 9.997752 
3.951174e+2, 3.058993e+2, 230655.55, -93316.336, -26764.623, 0.016148996, 0.07003655, 232851.8, 232851.8, 0.0, 10.002465, 9.998172 
3.9512742e+2, 3.1589752e+2, 303957.3, -61222.188, 21489.56, -0.057088166, 0.0761587, 305217.53, 305217.53, 0.000000001718879, 10.002983, 9.998143 
4.0491638e+2, 1.2590735e+2, -1958157.4, -1778372.8, 39048.53, -0.05536837, 0.11847295, -1770257.9, -64137.844, 0.000028702449, 9.998098, 10.000481 
4.0492687e+2, 1.3590841e+2, -1810768.6, -1618041.8, -71969.375, 0.0136390375, 0.14334567, -1594132.5, 13977.952, 0.000010028613, 9.998271, 10.000826 
4.0493748e+2, 1.4590874e+2, -1715234.1, -1567305.0, -19220.86, 0.035798807, 0.113433644, -1564848.4, -54740.688, 0.0000013962007, 9.998452, 10.000412 
4.0494788e+2, 1.5590937e+2, -1588794.3, -1461510.6, -19272.273, -0.036263213, 0.13678779, -1458656.6, -46555.21, 0.000000006286357, 9.998673, 10.000358 
4.0495902e+2, 1.6590951e+2, -1494696.4, -1442043.3, -14935.622, -0.038278256, 0.15314008, -1438101.6, -124001.67, 0.0, 9.998978, 9.999673 
4.049706e+2, 1.7590924e+2, -1344488.8, -1320155.5, -15117.208, -0.0054699127, 0.1562032, -1312917.0, -96814.35, 0.0, 9.999341, 9.999661 
4.0498167e+2, 1.8590826e+2, -1236830.8, -1275715.1, -22977.64, -0.004786894, 0.12091248, -1226173.6, -108063.26, 0.0, 9.999659, 9.999141 
4.0499246e+2, 1.9590679e+2, -1098973.1, -1161118.8, -20221.563, -0.020784542, 0.05670531, -1092972.6, -72850.9, 0.0, 9.999944, 9.999117 
4.0500358e+2, 2.0590553e+2, -1011786.8, -1138370.5, -12227.277, -0.024444265, 0.054082815, -1010616.5, -88483.12, 0.0, 10.000171, 9.998491 
4.0501484e+2, 2.1590441e+2, -883896.8, -1021523.1, -16128.493, -0.021790832, 0.09083989, -882031.94, -57886.273, 0.0, 10.000357, 9.99853 
4.050263e+2, 2.25903e+2, -744485.9, -900026.9, -7988.3203, -0.01944836, 0.09367173, -744076.7, -17917.168, 0.0, 10.000626, 9.998563 
4.0503782e+2, 2.3590134e+2, -598465.44, -778247.75, -5062.448, -0.016370008, 0.06952009, -598323.0, 29851.5, 0.0, 10.000953, 9.998568 
4.050495e+2, 2.4589968e+2, -492973.5, -713476.9, -2590.3354, -0.0077097514, 0.06392342, -492943.06, 37247.055, 0.0, 10.001163, 9.998239 
4.0506127e+2, 2.5589797e+2, -375239.03, -604389.25, -9247.507, 0.0037663425, 0.067379236, -374866.44, 57339.902, 0.0, 10.001291, 9.998253 
4.050729e+2, 2.65896e+2, -259799.81, -530417.06, -7443.4907, -0.006190282, 0.05986444, -259595.23, 74630.18, 0.0, 10.001551, 9.997964 
4.0508446e+2, 2.758938e+2, -108572.805, -406143.94, -6350.438, -0.028967876, 0.042886674, -108437.34, 127809.19, 0.0, 10.001914, 9.997969 
4.0509623e+2, 2.8589174e+2, -3665.7546, -337375.75, -9774.957, -0.031273372, 0.05796238, -3379.674, 134887.56, 0.0, 10.002102, 9.997679 
4.0510798e+2, 2.9588977e+2, 105617.83, -227756.19, -12186.135, -0.025105659, 0.08868942, 106062.69, 146350.8, 0.0, 10.002152, 9.997734 
4.051197e+2, 3.0588788e+2, 217876.4, -94331.86, -33276.957, 0.0044381344, 0.100061156, 221383.86, 221383.86, 0.0, 10.002356, 9.998218 
4.051302e+2, 3.1588572e+2, 262389.4, -78991.79, 13625.979, -0.058937687, 0.06446796, 262932.4, 262932.4, 0.00000001196501, 10.002688, 9.998162 
4.1491464e+2, 1.2589565e+2, -1946276.3, -1752688.9, 56522.336, -0.039762285, 0.13729762, -1737394.3, -31158.432, 0.000021697306, 9.998095, 10.000659 
4.149246e+2, 1.3589644e+2, -1796734.5, -1588631.6, -66277.86, -0.042163145, 0.11186295, -1569315.9, 38910.996, 0.000006740833, 9.998269, 10.001029 
4.149354e+2, 1.4589687e+2, -1718610.3, -1573723.9, -11103.903, -0.013512719, 0.08647599, -1572877.9, -62655.152, 0.0000006540361, 9.99845, 10.000369 
4.1494694e+2, 1.558978e+2, -1591137.0, -1466271.5, -10346.595, 0.0018521955, 0.14302814, -1465420.0, -53205.594, 0.0000000002364484, 9.998673, 10.000326 
4.1495836e+2, 1.658979e+2, -1493566.6, -1439268.6, -1501.7211, -0.0022127074, 0.15463838, -1439227.1, -125013.56, 0.0, 9.998976, 9.999693 
4.149696e+2, 1.7589734e+2, -1343183.3, -1316949.3, -1588.805, -0.03675163, 0.12763254, -1316853.4, -100634.62, 0.0, 9.999339, 9.999684 
4.14981e+2, 1.8589655e+2, -1233477.8, -1268342.1, -12129.653, -0.035920754, 0.10670959, -1229672.9, -111448.18, 0.0, 9.999657, 9.999192 
4.1499257e+2, 1.9589557e+2, -1096785.8, -1156344.4, -9553.111, -0.0029190725, 0.08785858, -1095290.9, -75059.37, 0.0, 9.999943, 9.99915 
4.15004e+2, 2.0589419e+2, -1020846.44, -1156997.0, -5236.4795, 0.003398902, 0.07604654, -1020645.3, -98400.57, 0.0, 10.00017, 9.9983635 
4.1501528e+2, 2.1589245e+2, -891499.75, -1037378.4, -8439.885, -0.012236117, 0.06465643, -891013.06, -66750.34, 0.0, 10.000357, 9.998422 
4.1502696e+2, 2.2589102e+2, -740144.44, -890789.6, 4345.75, -0.009534552, 0.06865793, -740019.2, -13742.632, 0.0, 10.000625, 9.998627 
4.1503897e+2, 2.358898e+2, -595678.9, -772072.25, 6618.9106, 0.007532227, 0.081260026, -595430.9, 32856.59, 0.0, 10.000951, 9.998611 
4.1505072e+2, 2.4588811e+2, -506524.16, -741341.4, 2059.652, -0.0012691071, 0.081304625, -506506.06, 23797.668, 0.0, 10.001162, 9.998048 
4.1506222e+2, 2.5588605e+2, -387092.75, -629487.9, -3808.9492, -0.02863858, 0.06849328, -387032.9, 45291.047, 0.0, 10.001293, 9.99808 
4.1507435e+2, 2.6588407e+2, -257162.83, -525017.4, 6041.225, -0.019201202, 0.065984376, -257026.64, 77316.695, 0.0, 10.001552, 9.998 
4.1508687e+2, 2.7588212e+2, -107193.29, -401774.0, 6558.31, 0.016757011, 0.06760405, -107047.35, 129314.86, 0.0, 10.001907, 9.998002 
4.1509858e+2, 2.8588e+2, -8191.515, -345291.97, -8195.53, -0.00610861, 0.07735985, -7992.3843, 130391.08, 0.0, 10.002095, 9.997627 
4.1510966e+2, 2.9587775e+2, 103138.016, -233391.19, -9914.662, -0.07391394, 0.086836345, 103429.87, 143836.63, 0.0, 10.002154, 9.997694 
4.151216e+2, 3.0587605e+2, 218648.55, -93377.97, -21005.463, -0.04194836, 0.12015286, 220056.28, 220056.28, 0.0, 10.002358, 9.998222 
4.1513312e+2, 3.1587353e+2, 264890.72, -72505.86, 27651.21, -0.039454248, 0.049037084, 267141.84, 267141.84, 0.000000036873733, 10.002683, 9.99821 
4.2491287e+2, 1.2588371e+2, -1893103.6, -1716739.8, 59233.93, -0.040069815, 0.14586592, -1698692.1, 7661.423, 0.000015823704, 9.998418, 10.000749 
4.2492265e+2, 1.3588457e+2, -1789453.5, -1571769.8, -82177.48, -0.064616196, 0.11286538, -1544230.9, 64112.242, 0.0000041887733, 9.998263, 10.001146 
4.2493352e+2, 1.4588499e+2, -1732541.4, -1591197.0, -22281.766, -0.04329266, 0.086945064, -1587767.8, -77428.86, 0.00000021832761, 9.998402, 10.000272 
4.249457e+2, 1.5588576e+2, -1584659.1, -1472536.5, -26061.34, 0.009029233, 0.13632248, -1466775.0, -54442.336, 0.0, 9.998759, 10.000241 
4.2495745e+2, 1.6588584e+2, -1482055.9, -1428631.6, -17658.25, 0.009985007, 0.148413, -1423322.6, -108990.66, 0.0, 9.999033, 9.999738 
4.249688e+2, 1.758854e+2, -1352123.8, -1317017.3, -16047.731, -0.04562907, 0.12763813, -1310787.3, -94451.484, 0.0, 9.99926, 9.999722 
4.249805e+2, 1.8588464e+2, -1253377.9, -1284277.8, -30170.61, -0.04515731, 0.11329579, -1234931.4, -116589.89, 0.0, 9.999548, 9.999134 
4.2499256e+2, 1.9588368e+2, -1109386.1, -1167048.4, -36112.043, 0.0032874001, 0.10117469, -1092007.8, -71658.75, 0.0, 9.999877, 9.999108 
4.250043e+2, 2.058823e+2, -1011680.1, -1138076.1, -26388.809, 0.016278187, 0.08538241, -1006391.94, -84030.13, 0.0, 10.000172, 9.998492 
4.250158e+2, 2.1588059e+2, -871905.8, -1016053.0, -10606.509, 0.00055696757, 0.06243599, -871129.56, -46751.01, 0.0, 10.000442, 9.998528 
4.2502767e+2, 2.2587912e+2, -745549.75, -911023.06, 1546.3679, -0.0030235797, 0.06803372, -745535.3, -19142.57, 0.0, 10.000664, 9.998468 
4.2503983e+2, 2.3587786e+2, -619973.7, -799611.56, -12898.193, 0.003680638, 0.09190799, -619052.3, 9352.882, 0.0, 10.000853, 9.998469 
4.250518e+2, 2.4587612e+2, -504051.56, -737632.2, -14591.221, -0.0058814264, 0.09301311, -503143.6, 27278.57, 0.0, 10.001167, 9.998071 
4.2506367e+2, 2.5587404e+2, -345018.34, -607555.75, -5528.623, -0.02748866, 0.07355367, -344901.97, 87540.586, 0.0, 10.0015745, 9.998095 
4.2507595e+2, 2.6587203e+2, -238486.02, -521830.3, 2886.57, -0.01789338, 0.0749695, -238456.61, 96005.12, 0.0, 10.001704, 9.997948 
4.2508858e+2, 2.7587014e+2, -150025.83, -427076.22, -2877.5613, 0.014526528, 0.08807079, -149995.94, 86484.164, 0.0, 10.001633, 9.99796 
4.251005e+2, 2.8586793e+2, -45451.598, -360851.2, -13841.096, -0.0073141875, 0.08519688, -44845.355, 93657.19, 0.0, 10.001829, 9.997648 
4.2511186e+2, 2.958654e+2, 114706.36, -225743.8, -10738.065, -0.07100479, 0.0645695, 115044.7, 155573.02, 0.0, 10.002225, 9.997712 
4.2512393e+2, 3.05864e+2, 223072.42, -100539.836, -24719.6, -0.046426203, 0.13458204, 224949.78, 224949.78, 0.0, 10.002428, 9.99814 
4.251356e+2, 3.1586152e+2, 236920.95, -82979.6, 19433.736, -0.04648293, 0.07161454, 238097.22, 238097.22, 0.00000007454206, 10.002476, 9.998238 
4.349111e+2, 1.2587157e+2, -1894535.4, -1719972.0, 64505.418, -0.05872274, 0.14472717, -1698722.4, 7750.7837, 0.0000113764345, 9.99842, 10.000726 
4.3492103e+2, 1.358728e+2, -1787856.3, -1568951.8, -86374.53, -0.053363822, 0.14799409, -1538975.4, 69483.74, 0.0000025044064, 9.998264, 10.001166 
4.3493184e+2, 1.458731e+2, -1743916.1, -1614080.6, -8796.851, -0.05317523, 0.11602484, -1613487.4, -103031.19, 0.000000047491298, 9.998399, 10.000116 
4.349442e+2, 1.5587321e+2, -1594613.1, -1492961.4, -12993.717, -0.016323756, 0.115571596, -1491326.8, -78870.42, 0.0, 9.998758, 10.000101 
4.3495637e+2, 1.6587332e+2, -1477363.1, -1418514.6, -9123.199, -0.0038076956, 0.1332863, -1417132.6, -102677.47, 0.0, 9.999032, 9.999808 
4.349682e+2, 1.7587338e+2, -1348894.1, -1309918.9, -6793.2373, -0.032549076, 0.15676011, -1308768.8, -92315.16, 0.0, 9.999259, 9.999771 
4.3498015e+2, 1.8587255e+2, -1265848.1, -1309363.5, -17802.283, -0.03249075, 0.14146556, -1259493.3, -141032.55, 0.0, 9.999545, 9.998963 
4.3499237e+2, 1.9587111e+2, -1118038.3, -1184622.8, -23721.188, -0.0024803665, 0.09670255, -1110451.8, -89977.68, 0.0, 9.999875, 9.998988 
4.350044e+2, 2.0586987e+2, -984921.3, -1082314.3, -16116.524, 0.01342933, 0.08178482, -982323.7, -59839.098, 0.0, 10.000171, 9.998876 
4.350164e+2, 2.1586879e+2, -849760.25, -969946.8, -559.2401, 0.015563473, 0.08360578, -849757.7, -25264.43, 0.0, 10.000441, 9.998844 
4.3502834e+2, 2.2586732e+2, -772263.44, -966343.2, 8549.381, -0.0005496484, 0.09150543, -771887.5, -45379.344, 0.0, 10.000663, 9.998089 
4.3504038e+2, 2.3586552e+2, -642865.3, -847332.2, -5063.864, -0.027821844, 0.10148129, -642739.94, -14212.301, 0.0, 10.000854, 9.998141 
4.350528e+2, 2.4586372e+2, -488293.03, -704590.1, 711.2039, -0.022122452, 0.09908669, -488290.7, 42254.742, 0.0, 10.001166, 9.998298 
4.3506557e+2, 2.5586188e+2, -331708.56, -578986.7, 8347.471, 0.0056462693, 0.08265542, -331427.1, 101135.16, 0.0, 10.001571, 9.998293 
4.3507782e+2, 2.6585996e+2, -248565.45, -542195.4, -47.754623, -0.0029479307, 0.08690824, -248565.45, 86015.23, 0.0, 10.001702, 9.997809 
4.350897e+2, 2.7585799e+2, -157902.55, -443989.3, -4391.6714, -0.03504891, 0.104081295, -157835.14, 78765.125, 0.0, 10.001635, 9.997843 
4.3510202e+2, 2.8585553e+2, -39009.605, -347344.6, 1061.7915, -0.035818882, 0.08188079, -39005.95, 99618.555, 0.0, 10.001828, 9.997742 
4.351146e+2, 2.958527e+2, 119154.71, -215205.39, 3476.6233, -0.019188311, 0.02342671, 119190.86, 159843.55, 0.0, 10.002219, 9.997787 
4.351267e+2, 3.058518e+2, 210554.22, -124868.234, -23190.588, -0.010917483, 0.1441574, 212149.98, 212149.98, 0.0, 10.002421, 9.997976 
4.3513772e+2, 3.1584954e+2, 237008.69, -82221.695, 23413.701, -0.0814083, 0.12522864, 238716.81, 238716.81, 0.0000001100893, 10.002474, 9.998243 
4.449091e+2, 1.2585928e+2, -1958756.4, -1762500.0, 62498.305, -0.082313694, 0.14531904, -1744287.4, -37693.57, 0.000008277144, 9.998028, 10.000623 
4.4491944e+2, 1.3586056e+2, -1802568.9, -1581710.6, -104235.64, -0.032245725, 0.15983938, -1540285.6, 68294.23, 0.0000015575915, 9.998187, 10.001117 
4.4493032e+2, 1.4586091e+2, -1729924.4, -1611175.1, -9505.728, -0.04826658, 0.13630936, -1610419.0, -99842.516, 0.000000013935479, 9.998511, 10.000082 
4.4494295e+2, 1.5586087e+2, -1566354.6, -1483631.8, -5758.4155, -0.025344891, 0.12525806, -1483232.9, -70655.18, 0.0, 9.998971, 10.000063 
4.4495544e+2, 1.6586088e+2, -1453462.6, -1414900.8, -12439.334, -0.008876362, 0.13714013, -1411236.3, -96658.77, 0.0, 9.99923, 9.999737 
4.449676e+2, 1.7586085e+2, -1340844.6, -1313159.3, -19897.795, -0.023673225, 0.15937181, -1302762.8, -86185.95, 0.0, 9.999345, 9.999707 
4.449798e+2, 1.8586002e+2, -1254861.4, -1303234.9, -20893.557, -0.02644883, 0.14414701, -1247086.5, -128502.43, 0.0, 9.999618, 9.99897 
4.449922e+2, 1.9585855e+2, -1098522.0, -1173929.9, -14292.629, -0.010391258, 0.09963208, -1095904.0, -75306.5, 0.0, 10.000004, 9.998999 
4.4500455e+2, 2.0585737e+2, -968523.25, -1070085.6, -21016.078, 0.004748604, 0.08507876, -964346.2, -41738.605, 0.0, 10.000265, 9.998914 
4.450168e+2, 2.1585633e+2, -848782.3, -965613.06, -31339.385, 0.015236522, 0.087780744, -840906.56, -16290.866, 0.0, 10.000431, 9.998878 
4.4502905e+2, 2.2585483e+2, -770480.5, -966442.9, -15849.588, 0.0010980228, 0.09483536, -769206.9, -42576.19, 0.0, 10.00068, 9.99808 
4.4504127e+2, 2.3585302e+2, -623869.1, -838909.8, -2156.2678, -0.028891036, 0.10218985, -623847.5, 4803.1475, 0.0, 10.000987, 9.998135 
4.4505396e+2, 2.4585128e+2, -484823.63, -700113.8, 6774.672, -0.025904356, 0.104293875, -484610.63, 46057.47, 0.0, 10.001178, 9.9983225 
4.4506693e+2, 2.5584954e+2, -370593.88, -593643.5, -1106.2007, -0.00093653915, 0.09793294, -370588.4, 62095.496, 0.0, 10.0012865, 9.998328 
4.4507933e+2, 2.6584765e+2, -270796.78, -542271.0, -10328.428, -0.011673352, 0.09880046, -270404.4, 64297.37, 0.0, 10.001504, 9.997905 
4.4509134e+2, 2.7584565e+2, -128177.016, -420703.25, 2295.0151, -0.045052588, 0.102754764, -128159.016, 108562.21, 0.0, 10.001801, 9.997923 
4.4510388e+2, 2.8584316e+2, -26976.451, -347684.6, 11696.83, -0.039667398, 0.077000216, -26550.412, 112195.38, 0.0, 10.001937, 9.997687 
4.4511673e+2, 2.9584032e+2, 76356.48, -240677.48, 3057.7026, -0.011662187, 0.023419252, 76385.96, 117160.49, 0.0, 10.0019455, 9.997745 
4.4512895e+2, 3.0583966e+2, 164055.05, -146986.78, -22101.18, -0.012429639, 0.16803302, 165617.61, 165617.61, 0.00000000000009396187, 10.0021, 9.997979 
4.4514003e+2, 3.1583726e+2, 235224.8, -59349.516, 37949.508, -0.09101326, 0.13286655, 240035.22, 240035.22, 0.00000013361628, 10.00236, 9.998455 
4.549068e+2, 1.2584682e+2, -1972229.6, -1788571.3, 79092.21, -0.11254067, 0.14696293, -1759205.6, -52489.867, 0.0000061456926, 9.99802, 10.000448 
4.549179e+2, 1.3584782e+2, -1810279.3, -1598008.8, -97082.16, -0.0025177163, 0.1458469, -1560305.1, 48400.598, 0.0000010596042, 9.998188, 10.001005 
4.5492902e+2, 1.4584841e+2, -1724067.5, -1599132.0, 8184.7344, -0.03003193, 0.1458625, -1598598.1, -87898.12, 0.000000007555667, 9.998512, 10.000165 
4.5494202e+2, 1.5584877e+2, -1562254.6, -1475165.1, 11042.117, -0.018252077, 0.16696122, -1473787.0, -61090.504, 0.0, 9.998971, 10.000121 
4.5495468e+2, 1.6584851e+2, -1468592.3, -1445921.1, -8086.2866, -0.00499137, 0.16168164, -1443332.5, -128633.81, 0.0, 9.999229, 9.999524 
4.5496696e+2, 1.7584778e+2, -1353403.9, -1339050.9, -14389.42, -0.01978102, 0.13473967, -1330147.6, -113442.484, 0.0, 9.999345, 9.99953 
4.549794e+2, 1.8584695e+2, -1242249.9, -1276705.8, -6078.184, -0.028389739, 0.119898416, -1241209.1, -122497.26, 0.0, 9.999616, 9.999153 
4.549921e+2, 1.9584604e+2, -1088819.6, -1153439.5, -111.1126, -0.02123793, 0.10976986, -1088819.4, -68100.17, 0.0, 10.000003, 9.999141 
4.5500466e+2, 2.0584475e+2, -990169.5, -1114741.1, -14793.992, -0.01012217, 0.09556543, -988436.7, -65705.84, 0.0, 10.000263, 9.998608 
4.550171e+2, 2.1584317e+2, -866313.4, -1001929.2, -24475.695, -0.00055216294, 0.07531611, -862031.25, -37285.496, 0.0, 10.000431, 9.998629 
4.5502973e+2, 2.2584172e+2, -745871.25, -915268.94, -4292.941, 0.0014580312, 0.07815586, -745762.56, -19002.373, 0.0, 10.00068, 9.998432 
4.5504254e+2, 2.3584034e+2, -602529.9, -794264.1, 8706.507, -0.0005136375, 0.09415206, -602135.3, 26639.025, 0.0, 10.000985, 9.998443 
4.550552e+2, 2.4583876e+2, -497231.94, -725571.6, 10651.624, -0.017773578, 0.10874391, -496736.16, 34054.176, 0.0, 10.001176, 9.998149 
4.5506775e+2, 2.5583702e+2, -379748.03, -612452.56, 3492.285, -0.046897545, 0.11853753, -379695.63, 53112.066, 0.0, 10.001286, 9.998199 
4.5508048e+2, 2.6583517e+2, -248646.22, -495854.0, 681.58563, -0.044347823, 0.110409975, -248644.34, 86180.83, 0.0, 10.001502, 9.998224 
4.5509338e+2, 2.7583316e+2, -109421.67, -381182.47, 12552.343, -0.017388884, 0.085192755, -108843.125, 127999.914, 0.0, 10.001798, 9.998197 
4.55106e+2, 2.8583086e+2, -41280.402, -376588.44, 11680.924, -0.020040475, 0.07105811, -40873.973, 97992.56, 0.0, 10.001934, 9.99749 
4.5511833e+2, 2.9582825e+2, 65062.41, -264152.25, 3892.4773, -0.047674444, 0.061775927, 65108.426, 106002.59, 0.0, 10.0019455, 9.997583 
4.5513064e+2, 3.058276e+2, 175335.52, -123207.53, -12506.6, -0.050748605, 0.20480093, 175858.53, 175858.53, 0.00000000000087855477, 10.002099, 9.998143 
4.5514253e+2, 3.158246e+2, 262641.47, -1395.9277, 48448.824, -0.07844118, 0.09227176, 271250.72, 271250.72, 0.00000014519496, 10.002357, 9.998856 
4.6490484e+2, 1.2583399e+2, -1968560.3, -1794648.3, 68947.055, -0.11186687, 0.15248553, -1770631.1, -63789.395, 0.000004581255, 9.99808, 10.000377 
4.6491638e+2, 1.3583489e+2, -1753521.6, -1574132.5, -109898.195, 0.0057884175, 0.14408968, -1521972.4, 86860.57, 0.0000007444035, 9.998592, 10.000974 
4.6492752e+2, 1.4583552e+2, -1683322.9, -1580340.5, -9552.4375, -0.04426528, 0.15201026, -1579462.0, -68635.41, 0.0000000034677494, 9.9987955, 10.000157 
4.6494085e+2, 1.5583587e+2, -1592798.6, -1491467.1, -13294.036, -0.018203935, 0.17183249, -1489752.1, -76929.32, 0.0, 9.998769, 10.000107 
4.6495387e+2, 1.6583551e+2, -1499490.3, -1469632.9, -25830.543, -0.0011912063, 0.16136521, -1454727.4, -139901.36, 0.0, 9.999055, 9.999445 
4.6496636e+2, 1.7583464e+2, -1324492.5, -1332449.1, -22634.156, -0.023568515, 0.12743355, -1305489.6, -88655.53, 0.0, 9.999575, 9.999464 
4.6497905e+2, 1.8583381e+2, -1208300.4, -1250844.3, -18235.5, -0.03316746, 0.11251339, -1201554.0, -82713.336, 0.0, 9.999808, 9.999238 
4.6499202e+2, 1.9583303e+2, -1108758.5, -1154772.0, -18982.521, -0.020934483, 0.10677637, -1101938.4, -81092.1, 0.0, 9.99983, 9.999214 
4.650048e+2, 2.0583177e+2, -1024024.6, -1136475.4, -23245.137, -0.012144725, 0.09622053, -1019409.0, -96551.27, 0.0, 10.000054, 9.99856 
4.650174e+2, 2.1583019e+2, -869721.44, -1007556.3, -14167.7705, -0.011060429, 0.07927695, -868280.2, -43406.637, 0.0, 10.000424, 9.998593 
4.6503034e+2, 2.2582877e+2, -739699.7, -899545.3, 2492.869, -0.0047337827, 0.08058361, -739660.9, -12773.203, 0.0, 10.000668, 9.998546 
4.650435e+2, 2.3582743e+2, -618814.6, -789588.5, -2392.0684, 0.0070042745, 0.091532074, -618781.1, 10119.432, 0.0, 10.00082, 9.998553 
4.6505633e+2, 2.4582592e+2, -514159.47, -727331.06, 548.5033, -0.013032346, 0.102779835, -514158.06, 16757.844, 0.0, 10.001033, 9.998205 
4.650689e+2, 2.5582424e+2, -375872.63, -604794.9, 9943.859, -0.0564412, 0.11071251, -375441.47, 57491.617, 0.0, 10.001287, 9.998252 
4.6508187e+2, 2.6582247e+2, -254633.34, -493884.13, 2509.9104, -0.052073203, 0.11100788, -254607.02, 80342.61, 0.0, 10.001439, 9.998269 
4.650951e+2, 2.7582067e+2, -146957.8, -393866.47, -6171.459, -0.012059196, 0.1014268, -146803.64, 90162.35, 0.0, 10.001517, 9.998245 
4.6510786e+2, 2.858184e+2, -64479.65, -380598.13, -4430.18, -0.015826385, 0.08477721, -64417.574, 74571.555, 0.0, 10.001743, 9.997555 
4.6512023e+2, 2.9581574e+2, 87016.76, -247934.13, 6562.43, -0.054243613, 0.06110778, 87145.28, 128162.44, 0.0, 10.002072, 9.997634 
4.6513265e+2, 3.05815e+2, 180640.1, -137117.83, -16778.256, -0.062450822, 0.20494607, 181523.56, 181523.56, 0.00000000000042122027, 10.002206, 9.997996 
4.6514484e+2, 3.1581184e+2, 245121.34, 3440.409, 22260.809, -0.07219056, 0.08875756, 247154.64, 247154.64, 0.00000014428599, 10.002177, 9.998976 
4.749032e+2, 1.2582076e+2, -1967581.5, -1790904.6, 96160.836, -0.08256138, 0.16097502, -1748665.1, -41693.094, 0.0000033199578, 9.998073, 10.000406 
4.7491482e+2, 1.3582174e+2, -1750196.4, -1567592.0, -91907.28, -0.007889403, 0.1568028, -1529344.9, 79616.93, 0.00000048107097, 9.998593, 10.0010195 
4.7492585e+2, 1.4582227e+2, -1689801.0, -1594014.9, -10566.741, -0.09248913, 0.15661801, -1592863.0, -81906.9, 0.000000000765976, 9.998796, 10.000063 
4.7493955e+2, 1.5582213e+2, -1598408.0, -1503253.6, -12482.162, -0.027326372, 0.13790151, -1501643.5, -88686.48, 0.0, 9.99877, 10.000026 
4.7495294e+2, 1.6582182e+2, -1495853.1, -1462058.4, -6153.643, 0.0007566122, 0.13381326, -1460972.8, -146012.92, 0.0, 9.999055, 9.999497 
4.749658e+2, 1.758214e+2, -1321224.3, -1325584.3, -4201.1685, -0.03586114, 0.1381237, -1318671.3, -101707.29, 0.0, 9.999574, 9.999511 
4.7497874e+2, 1.8582061e+2, -1208875.9, -1252019.8, -17412.432, -0.0414881, 0.12339748, -1202725.3, -83754.914, 0.0, 9.999807, 9.99923 
4.7499195e+2, 1.9581953e+2, -1108012.0, -1153335.9, -16902.527, -0.00996058, 0.09071411, -1102402.8, -81424.32, 0.0, 9.99983, 9.999224 
4.7500494e+2, 2.0581844e+2, -1009808.3, -1106824.5, -9274.413, -0.0019066333, 0.08648916, -1008929.6, -85941.47, 0.0, 10.000053, 9.998764 
4.7501776e+2, 2.1581736e+2, -857446.7, -981864.44, -867.6362, -0.016963227, 0.09949875, -857440.6, -32441.516, 0.0, 10.000423, 9.998771 
4.7503084e+2, 2.2581598e+2, -748286.06, -917382.5, 8023.0313, -0.018043458, 0.10211852, -747906.25, -20893.143, 0.0, 10.000667, 9.998424 
4.750442e+2, 2.3581435e+2, -624970.25, -802101.2, 3693.1553, -0.0065841833, 0.09386778, -624893.3, 4136.0938, 0.0, 10.000819, 9.998468 
4.7505736e+2, 2.4581274e+2, -494928.34, -687073.94, 9869.884, -0.012256994, 0.08657079, -494422.7, 36622.258, 0.0, 10.001031, 9.998484 
4.7507048e+2, 2.5581115e+2, -359940.13, -571358.25, 18754.678, -0.031162431, 0.07590446, -358289.3, 74770.81, 0.0, 10.001286, 9.998483 
4.7508347e+2, 2.6580963e+2, -270772.44, -527117.9, 5109.8447, -0.03592561, 0.101367295, -270670.63, 64404.543, 0.0, 10.001438, 9.998041 
4.7509643e+2, 2.7580816e+2, -159562.17, -419903.9, -2573.2693, -0.029111495, 0.14928746, -159536.75, 77553.53, 0.0, 10.001516, 9.998066 
4.751095e+2, 2.8580582e+2, -42208.32, -334118.03, 7655.9526, -0.027347673, 0.116778694, -42007.664, 97106.1, 0.0, 10.001742, 9.997874 
4.7512254e+2, 2.958028e+2, 104709.03, -210634.63, 17762.305, -0.03335967, 0.023418173, 105706.375, 146849.8, 0.0, 10.002069, 9.997891 
4.75135e+2, 3.0580196e+2, 149308.73, -201219.95, -18184.986, -0.049139023, 0.17043382, 150249.63, 150249.63, 0.0, 10.002202, 9.997558 
4.7514698e+2, 3.1579894e+2, 235403.11, -16939.605, 21696.77, -0.0746465, 0.113329634, 237255.05, 237255.05, 0.00000012581201, 10.002178, 9.998835 
4.8490155e+2, 1.2580712e+2, -1923675.5, -1767751.4, 90323.5, -0.0674633, 0.16026908, -1726397.0, -19290.863, 0.0000022837717, 9.998367, 10.0004225 
4.8491344e+2, 1.3580818e+2, -1772606.3, -1575454.4, -106502.24, 0.003687483, 0.15931474, -1528909.9, 80185.13, 0.0000002759338, 9.998426, 10.001046 
4.8492435e+2, 1.4580873e+2, -1712485.8, -1614092.1, -29474.344, -0.11400161, 0.1654175, -1605938.6, -94849.53, 0.000000000009128432, 9.998679, 9.999982 
4.8493838e+2, 1.5580834e+2, -1563127.0, -1494466.6, -30436.303, -0.033302218, 0.12987879, -1482917.3, -69824.68, 0.0, 9.999046, 9.999953 
4.849521e+2, 1.6580805e+2, -1465925.5, -1442629.9, -19611.521, 0.0012024497, 0.12777628, -1431468.0, -116372.63, 0.0, 9.999238, 9.999543 
4.849652e+2, 1.7580783e+2, -1356952.0, -1337370.5, -18351.564, -0.0393788, 0.14884079, -1326361.3, -109263.93, 0.0, 9.999305, 9.99956 
4.849784e+2, 1.8580708e+2, -1240697.4, -1258028.9, -30890.945, -0.045180514, 0.13213137, -1217279.8, -98176.68, 0.0, 9.999548, 9.999314 
4.8499182e+2, 1.9580594e+2, -1089028.3, -1134458.6, -23481.598, -0.009915638, 0.08341313, -1079072.9, -57961.203, 0.0, 9.999918, 9.999311 
4.85005e+2, 2.0580497e+2, -983642.9, -1081393.8, -13875.991, -0.0053868606, 0.08044732, -981711.3, -58591.066, 0.0, 10.000177, 9.9988785 
4.8501801e+2, 2.1580416e+2, -859994.25, -970986.75, -12226.748, -0.029646074, 0.107543126, -858663.3, -33534.65, 0.0, 10.000354, 9.9988785 
4.8503128e+2, 2.2580281e+2, -766040.75, -924599.44, -3792.3416, -0.033164993, 0.11123243, -765950.06, -38808.008, 0.0, 10.00054, 9.998435 
4.8504484e+2, 2.3580112e+2, -636605.5, -805594.0, 1409.7681, -0.01905119, 0.0947455, -636593.75, -7434.502, 0.0, 10.00073, 9.998487 
4.8505828e+2, 2.4579954e+2, -507930.38, -680311.8, 5652.3853, -0.016245607, 0.08390709, -507745.22, 23429.055, 0.0, 10.000886, 9.9986 
4.850717e+2, 2.5579807e+2, -390917.16, -574547.56, 2612.147, -0.023044398, 0.07303409, -390880.0, 42308.01, 0.0, 10.001022, 9.998587 
4.8508486e+2, 2.657966e+2, -298301.2, -545351.3, -7715.9194, -0.029078882, 0.10032645, -298060.44, 37142.48, 0.0, 10.00127, 9.997996 
4.8509797e+2, 2.7579513e+2, -151097.92, -419822.9, -2161.414, -0.032743126, 0.15147437, -151080.53, 86138.38, 0.0, 10.001592, 9.998031 
4.851112e+2, 2.8579286e+2, -32348.37, -319090.7, 3781.9827, -0.028211035, 0.12378433, -32298.494, 106943.3, 0.0, 10.001765, 9.997967 
4.8512456e+2, 2.9579e+2, 74694.36, -217125.42, -2739.1575, -0.022291979, 0.037623435, 74720.07, 115989.695, 0.0, 10.001828, 9.997963 
4.8513716e+2, 3.05789e+2, 118163.09, -237972.16, -35855.613, -0.04537691, 0.17804135, 121737.16, 121737.16, 0.0, 10.002081, 9.997364 
4.851493e+2, 3.157859e+2, 280513.9, 13519.809, 21110.668, -0.07318323, 0.13034278, 282172.78, 282172.78, 0.00000009052117, 10.002451, 9.998914 
4.948999e+2, 1.2579307e+2, -1924310.4, -1767883.1, 97096.805, -0.069798246, 0.15113173, -1721416.5, -14172.321, 0.0000015131136, 9.998362, 10.000424 
4.9491224e+2, 1.3579413e+2, -1771924.8, -1574312.6, -103116.84, 0.03879811, 0.14965193, -1530305.1, 78928.016, 0.00000014199817, 9.998426, 10.001055 
4.9492306e+2, 1.4579488e+2, -1717483.3, -1624399.5, -15650.808, -0.110438846, 0.17700087, -1621838.5, -110612.78, 0.0, 9.998678, 9.999912 
4.949374e+2, 1.5579452e+2, -1567353.5, -1503581.9, -17694.607, -0.036449406, 0.14991112, -1499001.1, -85771.56, 0.0, 9.999047, 9.999889 
4.949513e+2, 1.6579418e+2, -1462461.4, -1435861.0, -17386.748, -0.00049258454, 0.14546482, -1427270.6, -112038.07, 0.0, 9.99924, 9.999589 
4.9496454e+2, 1.7579393e+2, -1352818.8, -1329023.6, -14776.482, -0.035332143, 0.15924515, -1321950.3, -104715.84, 0.0, 9.999306, 9.999618 
4.9497792e+2, 1.8579327e+2, -1228518.0, -1232462.1, -16893.486, -0.045261107, 0.13785137, -1213481.9, -94242.836, 0.0, 9.999547, 9.999491 
4.949916e+2, 1.9579224e+2, -1077481.9, -1110358.9, -9925.154, -0.021198656, 0.08505222, -1074718.0, -53471.957, 0.0, 9.999917, 9.999477 
4.95005e+2, 2.0579134e+2, -981530.44, -1077058.0, -7390.5957, -0.023090502, 0.07861073, -980962.0, -57708.227, 0.0, 10.000177, 9.998909 
4.9501815e+2, 2.1579053e+2, -857262.75, -965190.0, -5477.61, -0.049721956, 0.10343157, -856985.5, -31723.307, 0.0, 10.000353, 9.9989195 
4.9503165e+2, 2.257893e+2, -756345.44, -904311.06, 3247.7393, -0.05077172, 0.1079341, -756274.2, -28999.563, 0.0, 10.000538, 9.998575 
4.9504542e+2, 2.3578776e+2, -628115.06, -787926.8, 8168.848, -0.030679243, 0.094719805, -627698.56, 1591.4735, 0.0, 10.00073, 9.99861 
4.9505904e+2, 2.4578632e+2, -510971.66, -686651.6, 10392.707, -0.025320131, 0.09485224, -510358.97, 20944.957, 0.0, 10.000886, 9.998556 
4.950726e+2, 2.5578496e+2, -392793.6, -578254.25, 8235.782, -0.03242443, 0.10068073, -392428.56, 40888.266, 0.0, 10.001021, 9.998562 
4.9508613e+2, 2.657834e+2, -289213.47, -526240.56, 4042.1736, -0.03198062, 0.10741198, -289144.53, 46188.42, 0.0, 10.001269, 9.998128 
4.950996e+2, 2.7578154e+2, -143745.45, -404336.7, 8879.188, -0.024116213, 0.10996638, -143443.27, 93908.58, 0.0, 10.001591, 9.998137 
4.9511307e+2, 2.8577948e+2, -41687.63, -338077.63, 5833.606, -0.019229969, 0.106858395, -41572.855, 97800.29, 0.0, 10.001763, 9.997837 
4.951264e+2, 2.957773e+2, 67143.984, -232918.86, 790.11426, -0.020753488, 0.10109405, 67146.06, 108541.92, 0.0, 10.001829, 9.997854 
4.9513918e+2, 3.0577615e+2, 120629.68, -232172.4, -21969.518, -0.05099471, 0.22584307, 121992.49, 121992.49, 0.0, 10.002078, 9.997405 
4.9515176e+2, 3.1577265e+2, 299472.8, 54726.52, 34226.35, -0.07090194, 0.13312672, 304169.06, 304169.06, 0.000000050936965, 10.002443, 9.9992 
5.048985e+2, 1.2577935e+2, -1885451.0, -1765026.1, 107785.8, -0.06345468, 0.16511388, -1701774.8, 5604.3247, 0.0000009949754, 9.998698, 10.000281 
5.04911e+2, 1.3578008e+2, -1745212.4, -1576977.1, -106129.69, 0.05944976, 0.1456154, -1525672.1, 83699.336, 0.000000065122016, 9.998676, 10.0009165 
5.049217e+2, 1.4578089e+2, -1690980.1, -1613592.6, -10934.706, -0.122556455, 0.18668222, -1612077.3, -100713.59, 0.0, 9.998868, 9.999895 
5.0493646e+2, 1.557806e+2, -1549217.9, -1496353.5, -10399.845, -0.037008934, 0.169881, -1494381.1, -81014.305, 0.0, 9.999178, 9.999877 
5.049506e+2, 1.6578026e+2, -1442984.5, -1422161.3, -17756.992, 0.002466705, 0.16208503, -1411988.6, -96618.81, 0.0, 9.999353, 9.999629 
5.049639e+2, 1.7577992e+2, -1333113.6, -1315817.8, -15089.532, -0.037916787, 0.16436672, -1307073.8, -89701.86, 0.0, 9.999424, 9.999652 
5.049774e+2, 1.8577923e+2, -1222774.4, -1231858.6, -17454.434, -0.054230154, 0.14022648, -1209280.8, -89904.12, 0.0, 9.999595, 9.999473 
5.0499135e+2, 1.9577824e+2, -1089605.5, -1117342.9, -25558.246, -0.03642885, 0.09049469, -1074395.5, -53011.77, 0.0, 9.999839, 9.999468 
5.0500506e+2, 2.0577738e+2, -995389.2, -1074514.4, -31459.805, -0.030337904, 0.083536506, -984405.56, -61014.324, 0.0, 10.000042, 9.998992 
5.0501853e+2, 2.1577659e+2, -871431.75, -962896.3, -25723.625, -0.03883661, 0.10516694, -864693.56, -39294.65, 0.0, 10.000216, 9.9990015 
5.0503224e+2, 2.2577547e+2, -768520.25, -902991.6, -17020.295, -0.039665874, 0.11140245, -766399.4, -38988.844, 0.0, 10.000423, 9.99864 
5.0504607e+2, 2.3577403e+2, -634452.5, -784371.5, -18013.834, -0.032705788, 0.10320867, -632318.4, -2893.1768, 0.0, 10.000658, 9.998669 
5.0505984e+2, 2.4577267e+2, -519349.47, -687616.25, -18357.982, -0.031918064, 0.105151914, -517369.88, 14068.739, 0.0, 10.000815, 9.998584 
5.050735e+2, 2.5577134e+2, -405768.16, -580447.06, -14775.0205, -0.0370499, 0.11102881, -404527.25, 28924.082, 0.0, 10.000916, 9.998599 
5.050873e+2, 2.657698e+2, -296316.5, -512777.9, -8732.19, -0.03295929, 0.11492655, -295964.8, 39501.79, 0.0, 10.001149, 9.998279 
5.0510114e+2, 2.7576807e+2, -150036.36, -392365.8, -3441.2988, -0.020667572, 0.11168597, -149987.5, 87496.75, 0.0, 10.001484, 9.998271 
5.0511485e+2, 2.857661e+2, -45430.133, -343607.53, -8242.646, -0.016608393, 0.11365043, -45202.453, 94302.37, 0.0, 10.001755, 9.997804 
5.051283e+2, 2.95764e+2, 84488.66, -227716.94, -6364.2363, -0.021750327, 0.123176455, 84618.336, 126145.26, 0.0, 10.001963, 9.997826 
5.051412e+2, 3.0576265e+2, 129899.086, -223808.8, -23237.94, -0.05666197, 0.2243709, 131419.23, 131419.23, 0.0, 10.002126, 9.997439 
5.0515413e+2, 3.1575927e+2, 287081.06, 74544.766, 30535.998, -0.066593416, 0.14209834, 291381.28, 291381.28, 0.000000020855737, 10.002248, 9.99943 
5.148973e+2, 1.2576595e+2, -1906239.9, -1807615.3, 107200.45, -0.053371027, 0.20391719, -1738929.1, -31418.371, 0.00000067894854, 9.998695, 9.99999 
5.1490974e+2, 1.3576601e+2, -1765157.9, -1619251.6, -106093.445, 0.06499503, 0.14941145, -1563449.3, 46060.934, 0.000000029496794, 9.998678, 10.000626 
5.149203e+2, 1.4576675e+2, -1688251.4, -1608023.1, 661.1057, -0.15215601, 0.19588958, -1608017.6, -96514.586, 0.0, 9.998869, 9.999933 
5.149357e+2, 1.5576662e+2, -1546095.6, -1490156.1, 462.2276, -0.037033744, 0.18932088, -1490152.4, -76647.78, 0.0, 9.999179, 9.999919 
5.1495004e+2, 1.6576627e+2, -1440384.4, -1416905.8, -15544.885, 0.008764002, 0.17718217, -1409165.5, -93658.36, 0.0, 9.999353, 9.999665 
5.149632e+2, 1.7576584e+2, -1331830.0, -1313384.5, -11968.885, -0.047557272, 0.16463454, -1307497.3, -89987.52, 0.0, 9.999425, 9.999669 
5.149768e+2, 1.8576503e+2, -1237697.1, -1262937.8, -8314.5, -0.072967604, 0.1397622, -1235204.5, -115688.555, 0.0, 9.999595, 9.999259 
5.14991e+2, 1.957639e+2, -1102775.8, -1144514.3, -16540.143, -0.056415897, 0.09974945, -1097016.1, -75490.96, 0.0, 9.999838, 9.999282 
5.1500505e+2, 2.0576304e+2, -986025.6, -1054722.8, -25048.697, -0.027904417, 0.094962165, -977862.25, -54329.65, 0.0, 10.00004, 9.999128 
5.150192e+2, 2.1576239e+2, -862661.1, -944633.0, -19088.525, 0.0024237898, 0.11313331, -858434.0, -32895.086, 0.0, 10.000216, 9.999127 
5.15033e+2, 2.2576132e+2, -769356.3, -904908.2, -8311.046, -0.0006460251, 0.1219176, -768848.6, -41298.707, 0.0, 10.000424, 9.998627 
5.1504683e+2, 2.3575994e+2, -634873.1, -785099.7, -9502.006, -0.025991097, 0.119753815, -634274.5, -4709.9253, 0.0, 10.000656, 9.998664 
5.150606e+2, 2.4575856e+2, -512903.38, -674026.1, -14842.252, -0.0367566, 0.11452245, -511547.56, 20030.752, 0.0, 10.000814, 9.998678 
5.150744e+2, 2.5575715e+2, -398824.84, -566217.94, -10531.8955, -0.037340306, 0.10469791, -398164.8, 35426.555, 0.0, 10.000916, 9.998696 
5.1508844e+2, 2.657559e+2, -284840.84, -489113.1, 3706.274, -0.03226853, 0.122812465, -284773.63, 50830.18, 0.0, 10.001149, 9.998441 
5.151027e+2, 2.7575466e+2, -139215.34, -369552.38, 8849.318, -0.022593085, 0.1550001, -138875.86, 98740.42, 0.0, 10.001482, 9.998429 
5.151165e+2, 2.8575268e+2, -42293.965, -336054.03, -692.904, -0.020824332, 0.14347363, -42292.33, 97344.56, 0.0, 10.00175, 9.997857 
5.1513016e+2, 2.9575017e+2, 86883.72, -221591.8, 1124.3035, -0.026841285, 0.105159625, 86887.81, 128550.61, 0.0, 10.001958, 9.99787 
5.151433e+2, 3.0574852e+2, 131624.88, -219881.69, -18931.68, -0.06364782, 0.17527226, 132641.58, 132641.58, 0.0, 10.002124, 9.997468 
5.1515645e+2, 3.157458e+2, 300242.06, 100996.41, 33211.688, -0.060828444, 0.15151346, 305632.2, 305632.2, 0.0000000053166334, 10.002252, 9.99961 
5.24896e+2, 1.2575181e+2, -1886356.5, -1800840.3, 72751.97, -0.05494781, 0.21959926, -1759211.8, -51561.688, 0.0000005002885, 9.998847, 9.999962 
5.249088e+2, 1.3575175e+2, -1706785.5, -1598204.6, -120447.11, 0.08122125, 0.15846196, -1520377.9, 89273.04, 0.000000016983103, 9.999109, 10.000562 
5.249191e+2, 1.4575249e+2, -1640997.9, -1587111.3, -8863.426, -0.17262293, 0.20805205, -1585690.8, -74047.16, 0.0, 9.999201, 9.999917 
5.2493465e+2, 1.5575217e+2, -1560300.5, -1498848.0, -13550.036, -0.050340507, 0.18677759, -1495992.9, -82346.695, 0.0, 9.99909, 9.999902 
5.2494925e+2, 1.6575177e+2, -1451159.9, -1423659.8, -28538.326, 0.0074151717, 0.1713521, -1405731.8, -90082.625, 0.0, 9.999287, 9.999652 
5.2496284e+2, 1.7575139e+2, -1289983.0, -1294807.8, -29644.47, -0.037579443, 0.16466035, -1262652.9, -45001.496, 0.0, 9.999719, 9.999655 
5.249766e+2, 1.8575057e+2, -1197072.5, -1246171.0, -24465.922, -0.06418282, 0.1429869, -1186962.8, -67305.09, 0.0, 9.999886, 9.999235 
5.249908e+2, 1.9574945e+2, -1102682.0, -1146950.9, -18382.074, -0.056806944, 0.10374896, -1096044.4, -74377.31, 0.0, 9.999848, 9.999261 
5.2500504e+2, 2.057486e+2, -990307.2, -1055001.3, -21054.406, -0.029868444, 0.098676264, -984058.7, -60383.887, 0.0, 10.000003, 9.9991455 
5.250194e+2, 2.1574794e+2, -848983.9, -935845.4, -24861.633, 0.0037846165, 0.116792075, -842371.3, -16690.111, 0.0, 10.000299, 9.999146 
5.250335e+2, 2.2574696e+2, -767297.0, -896960.8, -19342.889, 0.000999492, 0.12969829, -764473.0, -36781.527, 0.0, 10.000409, 9.998689 
5.250473e+2, 2.3574571e+2, -670314.4, -795027.0, -14555.269, -0.026068134, 0.13405383, -668638.1, -38933.203, 0.0, 10.000382, 9.998728 
5.2506137e+2, 2.4574435e+2, -537448.3, -677912.4, -12718.547, -0.03154456, 0.12541452, -536306.0, -4587.7554, 0.0, 10.000612, 9.998748 
5.2507555e+2, 2.557429e+2, -377429.3, -548437.3, -10767.875, -0.021909991, 0.10521179, -376753.97, 56977.51, 0.0, 10.001031, 9.998762 
5.250897e+2, 2.657417e+2, -272971.2, -479069.97, -5742.058, -0.024476908, 0.12355244, -272811.34, 62932.004, 0.0, 10.001213, 9.998479 
5.251038e+2, 2.757406e+2, -175571.97, -381656.25, -9469.235, -0.035690855, 0.16377766, -175137.78, 62616.992, 0.0, 10.00121, 9.998476 
5.25118e+2, 2.857387e+2, -76015.71, -336870.25, -14130.481, -0.034155574, 0.15341458, -75252.5, 64521.566, 0.0, 10.001452, 9.997994 
5.2513206e+2, 2.9573634e+2, 83507.164, -210061.48, -6545.436, -0.025110511, 0.1121051, 83653.03, 125451.44, 0.0, 10.001879, 9.997987 
5.251455e+2, 3.057343e+2, 141816.61, -222829.75, -31806.98, -0.059688415, 0.14577088, 144570.23, 144570.23, 0.0, 10.002229, 9.997396 
5.2515894e+2, 3.1573176e+2, 338125.88, 120998.125, 10479.167, -0.049255256, 0.14537872, 338630.47, 338630.47, 0.00000000056215, 10.002504, 9.999625 
5.3489465e+2, 1.257369e+2, -1869910.0, -1766834.3, 77932.83, -0.07385384, 0.21071516, -1724939.4, -17142.068, 0.00000041209, 9.998848, 10.000195 
5.349081e+2, 1.3573726e+2, -1694359.8, -1573994.3, -111107.62, 0.10661973, 0.17301081, -1507817.0, 101976.83, 0.000000018082496, 9.999115, 10.000726 
5.349181e+2, 1.4573804e+2, -1645934.6, -1597700.1, -13454.077, -0.1853314, 0.22404848, -1594201.3, -82415.87, 0.0, 9.999202, 9.999844 
5.349334e+2, 1.5573727e+2, -1565531.9, -1509742.3, -16932.293, -0.077945836, 0.1624022, -1505005.4, -91213.516, 0.0, 9.999089, 9.999827 
5.3494847e+2, 1.6573675e+2, -1455969.5, -1433443.1, -12614.057, -0.0030139452, 0.14426054, -1427795.5, -111999.6, 0.0, 9.999286, 9.999585 
5.3496283e+2, 1.7573658e+2, -1293303.1, -1301735.4, -14656.431, -0.008787406, 0.16445918, -1282268.5, -64471.355, 0.0, 9.999719, 9.999607 
5.3497684e+2, 1.8573591e+2, -1185563.6, -1222133.5, -26172.47, -0.02843408, 0.15006411, -1171921.5, -52119.69, 0.0, 9.999885, 9.9994 
5.349908e+2, 1.9573486e+2, -1092457.1, -1125803.3, -18982.873, -0.037876066, 0.10250732, -1083864.8, -62055.13, 0.0, 9.999848, 9.999406 
5.3500503e+2, 2.05734e+2, -997876.1, -1070484.1, -9955.153, -0.03667565, 0.09501666, -996535.94, -72718.266, 0.0, 10.000002, 9.99904 
5.350193e+2, 2.1573326e+2, -855437.7, -948939.3, -14558.995, -0.03510296, 0.115864106, -853223.2, -27397.414, 0.0, 10.0002985, 9.999058 
5.350335e+2, 2.2573236e+2, -757741.0, -877089.0, -20563.563, -0.03509784, 0.13421586, -754297.25, -26461.938, 0.0, 10.000408, 9.998825 
5.350476e+2, 2.3573133e+2, -660931.4, -776075.4, -14386.743, -0.033063084, 0.14618024, -659161.06, -29314.816, 0.0, 10.000384, 9.9988575 
5.350621e+2, 2.4573007e+2, -534049.25, -671223.2, 3032.3044, -0.01704658, 0.13796845, -533982.25, -2123.786, 0.0, 10.000613, 9.998794 
5.3507686e+2, 2.5572863e+2, -375112.94, -543520.1, 3891.5461, 0.007972592, 0.11246069, -375023.06, 58848.625, 0.0, 10.00103, 9.998796 
5.35091e+2, 2.6572722e+2, -279130.13, -491615.72, -6123.3013, -0.010518163, 0.117428645, -278953.8, 56931.47, 0.0, 10.001212, 9.998393 
5.351048e+2, 2.7572587e+2, -179982.23, -391135.5, -8559.543, -0.0605541, 0.1387724, -179635.83, 58263.816, 0.0, 10.001211, 9.99841 
5.351192e+2, 2.8572422e+2, -60657.363, -305240.9, 1683.2391, -0.057178974, 0.14379777, -60645.78, 79270.555, 0.0, 10.001453, 9.998212 
5.35134e+2, 2.9572245e+2, 96756.984, -182508.1, 9110.329, -0.016469598, 0.14372939, 97053.875, 138987.69, 0.0, 10.001878, 9.998177 
5.3514785e+2, 3.0572003e+2, 129621.05, -247419.36, -21790.445, -0.04547987, 0.13617755, 130876.22, 130876.22, 0.0, 10.002225, 9.99723 
5.3516155e+2, 3.1571713e+2, 327764.56, 100800.31, 18623.518, -0.03607249, 0.12044411, 329282.56, 329282.56, 0.0000000000003731001, 10.002498, 9.99949 
5.4489344e+2, 1.2572215e+2, -1862371.0, -1771146.1, 90927.195, -0.082301795, 0.20370613, -1715032.3, -7090.604, 0.00000036785775, 9.998935, 10.000123 
5.449073e+2, 1.3572243e+2, -1717350.8, -1598705.0, -115506.195, 0.1196649, 0.17183086, -1528178.5, 81761.24, 0.000000024396927, 9.999016, 10.000605 
5.449172e+2, 1.457233e+2, -1631993.4, -1579856.3, -24739.236, -0.19890735, 0.23058526, -1569986.0, -58055.63, 0.0, 9.99925, 9.999943 
5.449328e+2, 1.5572248e+2, -1494198.3, -1465499.1, -16293.245, -0.07268206, 0.15655029, -1458137.5, -44201.305, 0.0, 9.999537, 9.999915 
5.44948e+2, 1.6572194e+2, -1412068.8, -1421659.8, -3425.76, 0.0056998995, 0.13477762, -1410970.8, -95030.3, 0.0, 9.999628, 9.9995 
5.4496247e+2, 1.757217e+2, -1321347.8, -1323284.3, -7199.708, -0.010100653, 0.1589773, -1315051.5, -97108.836, 0.0, 9.999561, 9.999535 
5.4497665e+2, 1.8572108e+2, -1202318.9, -1221069.9, -24021.74, -0.028878052, 0.14662969, -1185907.9, -65960.695, 0.0, 9.999731, 9.999481 
5.4499084e+2, 1.9572012e+2, -1053707.0, -1098944.6, -23695.543, -0.028920645, 0.09958132, -1043567.75, -21613.791, 0.0, 10.00008, 9.999478 
5.4500514e+2, 2.0571929e+2, -969481.75, -1060713.1, -15069.574, -0.03297812, 0.09651362, -967057.0, -43095.402, 0.0, 10.000215, 9.999004 
5.450194e+2, 2.157186e+2, -873508.44, -960585.3, -14537.026, -0.04764406, 0.12424297, -871145.7, -45175.867, 0.0, 10.000187, 9.999031 
5.4503375e+2, 2.2571771e+2, -760504.44, -867728.4, -19872.924, -0.044459373, 0.13851516, -756939.7, -28960.438, 0.0, 10.000343, 9.99892 
5.4504824e+2, 2.3571666e+2, -618291.0, -745981.9, -16755.844, -0.024606863, 0.13855635, -616128.9, 13860.916, 0.0, 10.000636, 9.998942 
5.4506284e+2, 2.4571545e+2, -513199.78, -665591.4, -1106.4629, -0.008006009, 0.13453668, -513191.75, 18809.695, 0.0, 10.000776, 9.998754 
5.450777e+2, 2.5571412e+2, -410902.75, -564843.44, -6600.933, 0.004353933, 0.12523253, -410620.22, 23393.73, 0.0, 10.000803, 9.998759 
5.450921e+2, 2.6571265e+2, -300443.28, -501574.4, -15670.425, -0.014594368, 0.12283655, -299229.72, 36798.797, 0.0, 10.001064, 9.998395 
5.451062e+2, 2.7571103e+2, -138178.3, -370941.63, -11824.179, -0.055840813, 0.118702695, -137579.19, 100465.94, 0.0, 10.001499, 9.99841 
5.4512084e+2, 2.8570947e+2, -17154.066, -284762.13, -6119.5513, -0.054143574, 0.13429366, -17014.2, 123046.61, 0.0, 10.001756, 9.998206 
5.4513586e+2, 2.957081e+2, 95415.89, -183429.8, -15035.048, -0.022792, 0.17331722, 96224.23, 138298.9, 0.0, 10.001872, 9.998173 
5.451499e+2, 3.057053e+2, 116200.01, -252011.22, -43957.4, -0.051619492, 0.13010119, 121374.95, 121374.95, 0.0, 10.002126, 9.997246 
5.451641e+2, 3.1570238e+2, 322970.7, 95643.46, 6810.327, -0.023805862, 0.108674005, 323174.53, 323174.53, 0.000000000015387011, 10.002478, 9.999464 
5.5489236e+2, 1.2570761e+2, -1888583.6, -1825589.8, 85257.47, -0.084032886, 0.20038146, -1766197.1, -58114.688, 0.0000003291145, 9.998936, 9.999749 
5.549063e+2, 1.3570729e+2, -1745684.4, -1658827.0, -111307.65, 0.11892329, 0.15417944, -1582775.8, 27312.766, 0.000000025104656, 9.99902, 10.000191 
5.549163e+2, 1.4570823e+2, -1612819.6, -1540668.5, -13851.885, -0.21549156, 0.22656406, -1538100.5, -26021.81, 0.0, 9.999252, 10.000211 
5.5493265e+2, 1.5570787e+2, -1476659.6, -1429518.0, -6506.428, -0.03489157, 0.17022833, -1428636.5, -14557.632, 0.0, 9.999538, 10.000162 
5.549479e+2, 1.6570735e+2, -1419464.0, -1436765.3, -6221.123, 0.03369219, 0.1441878, -1417459.4, -101376.8, 0.0, 9.999627, 9.999397 
5.549617e+2, 1.7570682e+2, -1328457.1, -1337788.0, -8682.865, -0.042346917, 0.1480626, -1323265.6, -105177.766, 0.0, 9.99956, 9.999435 
5.54976e+2, 1.857061e+2, -1202996.1, -1222243.4, -10966.9, -0.066882126, 0.13220537, -1198029.1, -77935.42, 0.0, 9.999729, 9.999475 
5.549909e+2, 1.9570522e+2, -1054025.5, -1099470.8, -11519.824, -0.030611109, 0.094768114, -1051272.3, -29172.156, 0.0, 10.000079, 9.9994755 
5.550055e+2, 2.0570453e+2, -967243.4, -1055950.5, -16289.121, -0.019233417, 0.10269542, -964346.8, -40240.19, 0.0, 10.000214, 9.999038 
5.5501974e+2, 2.1570398e+2, -870959.2, -955463.5, -14701.674, -0.034577824, 0.14197013, -868474.5, -42361.156, 0.0, 10.000187, 9.999066 
5.550342e+2, 2.25703e+2, -756700.44, -859948.1, -8947.598, -0.027999783, 0.14297876, -755930.8, -27807.563, 0.0, 10.000343, 9.998974 
5.5504906e+2, 2.3570168e+2, -615448.8, -740214.7, -6577.099, -0.0016259296, 0.11151562, -615103.06, 15032.553, 0.0, 10.000637, 9.998982 
5.5506366e+2, 2.457005e+2, -521802.75, -683748.2, -491.5416, -0.0048243008, 0.115043856, -521801.28, 10345.984, 0.0, 10.000778, 9.998628 
5.5507815e+2, 2.5569943e+2, -418361.13, -580901.7, -4622.366, -0.032181654, 0.14291917, -418229.78, 15928.5625, 0.0, 10.000806, 9.998648 
5.5509293e+2, 2.6569793e+2, -294387.66, -489371.38, 530.7483, -0.036753394, 0.13938017, -294386.22, 41786.887, 0.0, 10.001066, 9.998479 
5.5510795e+2, 2.7569607e+2, -133803.9, -362022.4, 3598.1545, -0.02312574, 0.10357225, -133747.19, 104444.09, 0.0, 10.001499, 9.998471 
5.5512285e+2, 2.8569448e+2, -33151.7, -317600.3, -2204.5188, -0.026768137, 0.12505372, -33134.613, 107072.914, 0.0, 10.001754, 9.997981 
5.551375e+2, 2.9569325e+2, 80811.766, -212796.39, -10198.423, -0.045265757, 0.20072609, 81165.58, 123386.54, 0.0, 10.001867, 9.997973 
5.551518e+2, 3.056902e+2, 128842.89, -224713.34, -30724.695, -0.07885433, 0.1274237, 131493.06, 131493.06, 0.0, 10.002121, 9.997436 
5.551667e+2, 3.1568748e+2, 328853.4, 108070.42, 17058.586, -0.012888735, 0.107665785, 330163.66, 330163.66, 0.0000000020600701, 10.002477, 9.99955 
5.6489104e+2, 1.2569268e+2, -1903283.8, -1822783.9, 54891.41, -0.094956115, 0.20195131, -1794966.8, -86738.21, 0.00000027083397, 9.998794, 9.999835 
5.649055e+2, 1.3569222e+2, -1706268.9, -1641536.9, -97169.25, 0.12485964, 0.1428883, -1571485.0, 38750.69, 0.000000017878008, 9.999297, 10.000175 
5.6491554e+2, 1.4569323e+2, -1576038.9, -1526333.6, -4811.601, -0.23162258, 0.22350764, -1525872.1, -13646.739, 0.0, 9.99952, 10.000179 
5.649322e+2, 1.5569296e+2, -1491676.6, -1439141.4, -21106.143, -0.027446548, 0.1802018, -1431712.5, -17487.418, 0.0, 9.999447, 10.000138 
5.6494755e+2, 1.6569242e+2, -1423691.5, -1431352.6, -24035.97, 0.043607228, 0.14889224, -1403182.8, -86953.94, 0.0, 9.999567, 9.999462 
5.649613e+2, 1.7569174e+2, -1284572.1, -1310571.3, -14212.859, -0.04856669, 0.13389173, -1278310.5, -60075.777, 0.0, 9.999836, 9.999489 
5.649757e+2, 1.8569106e+2, -1177116.4, -1219659.6, -11802.029, -0.07594916, 0.123219594, -1174061.8, -53821.285, 0.0, 9.99995, 9.999385 
5.649909e+2, 1.9569032e+2, -1079024.3, -1120574.4, -18992.76, -0.031707235, 0.10918155, -1071651.0, -49404.586, 0.0, 9.999947, 9.999394 
5.6500566e+2, 2.056896e+2, -985177.94, -1062793.5, -29458.63, -0.014015781, 0.11571227, -975263.5, -51010.066, 0.0, 10.000083, 9.999053 
5.650201e+2, 2.1568885e+2, -849741.3, -944069.9, -29105.533, -0.024609432, 0.13508974, -841483.56, -15222.238, 0.0, 10.000328, 9.999077 
5.650348e+2, 2.2568783e+2, -733028.3, -854586.8, -24001.137, -0.020501973, 0.13384283, -728461.0, -189.42365, 0.0, 10.000533, 9.9989195 
5.650497e+2, 2.3568657e+2, -608817.56, -742788.2, -30122.865, -0.0021821887, 0.11373663, -602356.2, 27927.62, 0.0, 10.000708, 9.99893 
5.6506443e+2, 2.4568538e+2, -507540.38, -677695.8, -27343.127, -0.009334949, 0.11926675, -503254.4, 29041.24, 0.0, 10.000879, 9.99862 
5.6507903e+2, 2.5568426e+2, -384117.84, -565269.5, -22381.531, -0.03725604, 0.14203054, -381393.53, 52913.75, 0.0, 10.001045, 9.998639 
5.6509405e+2, 2.6568276e+2, -270256.72, -479333.56, -9475.225, -0.042268623, 0.14156146, -269828.2, 66493.75, 0.0, 10.00124, 9.998464 
5.651094e+2, 2.75681e+2, -141023.89, -366510.5, -14182.251, -0.029406652, 0.11476403, -140135.38, 98204.16, 0.0, 10.001455, 9.998461 
5.651245e+2, 2.8567937e+2, -43687.414, -322323.13, -19054.377, -0.030234179, 0.13569899, -42390.43, 97965.375, 0.0, 10.00168, 9.997984 
5.651394e+2, 2.956781e+2, 86118.62, -210189.7, -10482.608, -0.042483415, 0.20478839, 86489.0, 128858.63, 0.0, 10.001904, 9.997973 
5.6515396e+2, 3.0567482e+2, 142453.16, -211692.72, -22767.629, -0.07901222, 0.11014957, 143910.86, 143910.86, 0.0, 10.002186, 9.997494 
5.651692e+2, 3.1567258e+2, 327113.22, 95496.03, 11504.716, -0.014543228, 0.12840652, 327683.28, 327683.28, 0.000000017271022, 10.002515, 9.999445 
5.748896e+2, 1.2567736e+2, -1863470.6, -1741419.8, 60248.02, -0.122207895, 0.2061478, -1716690.1, -8310.408, 0.00000019303324, 9.998799, 10.000391 
5.749049e+2, 1.3567728e+2, -1677925.5, -1584120.0, -78402.02, 0.13740128, 0.13940111, -1539662.3, 70718.305, 0.000000007774616, 9.999301, 10.000569 
5.749149e+2, 1.456783e+2, -1600436.4, -1576570.3, -7185.3633, -0.24743044, 0.22291654, -1574574.0, -62203.813, 0.0, 9.999518, 9.999836 
5.7493144e+2, 1.5567777e+2, -1513065.9, -1483357.8, -23113.32, -0.05204193, 0.18561961, -1470737.0, -56362.25, 0.0, 9.999447, 9.999836 
5.74947e+2, 1.6567713e+2, -1407584.4, -1397928.6, -14092.679, 0.033710133, 0.1479137, -1387859.8, -71480.48, 0.0, 9.999566, 9.999693 
5.7496136e+2, 1.7567652e+2, -1270168.8, -1280903.4, -4701.3066, -0.028984362, 0.11673376, -1268400.9, -50018.043, 0.0, 9.999836, 9.999693 
5.749759e+2, 1.85676e+2, -1189438.1, -1245231.3, -12069.264, -0.056112275, 0.11999431, -1186939.1, -66551.84, 0.0, 9.99995, 9.99921 
5.7499087e+2, 1.9567545e+2, -1090650.1, -1144561.1, -18506.377, -0.032516077, 0.14271154, -1084908.8, -62515.895, 0.0, 9.999946, 9.99923 
5.7500565e+2, 2.056745e+2, -985636.5, -1063498.5, -20432.648, -0.017898232, 0.13579214, -980600.3, -56198.316, 0.0, 10.000081, 9.999049 
5.7502043e+2, 2.1567325e+2, -850787.1, -946261.75, -20094.756, -0.01828478, 0.10376799, -846730.1, -20316.404, 0.0, 10.000328, 9.999062 
5.750353e+2, 2.2567222e+2, -744444.9, -878332.2, -17505.584, -0.02232031, 0.110830516, -742193.9, -13769.514, 0.0, 10.000533, 9.998756 
5.750502e+2, 2.3567131e+2, -618837.94, -763881.6, -23436.629, -0.026030164, 0.14425194, -615145.0, 15289.329, 0.0, 10.000709, 9.998785 
5.750652e+2, 2.456701e+2, -500068.8, -662505.4, -21250.166, -0.021858364, 0.14672212, -497334.88, 35111.78, 0.0, 10.00088, 9.998724 
5.750803e+2, 2.5566858e+2, -377746.94, -552353.2, -16174.589, -0.012619911, 0.122997835, -376261.25, 58199.54, 0.0, 10.001046, 9.998728 
5.7509536e+2, 2.6566717e+2, -278028.16, -495675.9, -1700.2114, -0.032198086, 0.12966436, -278014.88, 58460.164, 0.0, 10.00124, 9.998351 
5.7511044e+2, 2.7566576e+2, -147608.47, -379581.0, -6042.408, -0.0737761, 0.15143724, -147451.17, 91038.72, 0.0, 10.001452, 9.998373 
5.751259e+2, 2.8566417e+2, -29008.86, -290868.66, -10737.222, -0.064268574, 0.16609648, -28569.332, 111936.35, 0.0, 10.001676, 9.998202 
5.7514155e+2, 2.956626e+2, 99506.6, -182481.97, -2026.9518, -0.016382845, 0.18617061, 99521.17, 142042.02, 0.0, 10.001904, 9.998164 
5.7515633e+2, 3.0565926e+2, 137341.4, -221934.16, -11034.915, -0.054344393, 0.07807405, 137680.02, 137680.02, 0.00000000021282408, 10.002184, 9.997424 
5.7517153e+2, 3.1565765e+2, 306105.78, 54515.363, 20693.549, -0.030961422, 0.16907352, 307796.47, 307796.47, 0.0000000699572, 10.002503, 9.999169 
5.848883e+2, 1.2566194e+2, -1833098.1, -1699087.9, 49717.832, -0.13154717, 0.20812432, -1682657.1, 25874.537, 0.00000011738098, 9.998889, 10.000638 
5.8490413e+2, 1.3566197e+2, -1735161.0, -1597560.8, -96890.99, 0.14621046, 0.1389324, -1547527.8, 63002.383, 0.0000000014227642, 9.998848, 10.000695 
5.84914e+2, 1.4566301e+2, -1656149.1, -1605933.3, -23798.174, -0.2627935, 0.2191367, -1596446.9, -83927.58, 0.0, 9.999148, 9.999812 
5.8493084e+2, 1.5566242e+2, -1487152.3, -1472712.1, -16936.8, -0.06179934, 0.17813332, -1461520.6, -46995.695, 0.0, 9.999633, 9.999819 
5.849467e+2, 1.6566178e+2, -1371146.6, -1377276.4, -9580.827, 0.032185864, 0.1409046, -1364152.4, -47622.945, 0.0, 9.999804, 9.99972 
5.849612e+2, 1.7566124e+2, -1284116.9, -1285292.8, -15835.579, -0.021630464, 0.112692654, -1268858.3, -50326.277, 0.0, 9.999732, 9.999713 
5.8497584e+2, 1.8566069e+2, -1207831.8, -1263249.5, -24563.05, -0.047833044, 0.11750177, -1198511.9, -77975.195, 0.0, 9.999865, 9.999127 
5.849909e+2, 1.9566007e+2, -1065819.5, -1141248.1, -24092.896, -0.029124182, 0.1408425, -1058780.8, -36237.234, 0.0, 10.0001545, 9.999152 
5.8500594e+2, 2.0565905e+2, -947987.44, -1048585.3, -22104.848, -0.017724583, 0.13097878, -943344.5, -18791.154, 0.0, 10.000355, 9.99902 
5.8502084e+2, 2.156577e+2, -830578.7, -940302.3, -23983.13, -0.020151736, 0.09335537, -825565.56, 999.95197, 0.0, 10.0004835, 9.999028 
5.8503574e+2, 2.2565663e+2, -739011.2, -886836.8, -20642.69, -0.03039538, 0.10436327, -736182.7, -7606.0933, 0.0, 10.000618, 9.998657 
5.850507e+2, 2.3565574e+2, -618528.44, -774181.56, -21898.346, -0.043665547, 0.14845839, -615506.3, 15080.885, 0.0, 10.000756, 9.998691 
5.8506596e+2, 2.456545e+2, -491196.3, -659127.06, -20731.73, -0.031308964, 0.15441175, -488674.75, 43925.1, 0.0, 10.000946, 9.998716 
5.8508146e+2, 2.5565296e+2, -359706.97, -544270.25, -24208.373, -0.00040761917, 0.1286828, -356584.5, 78029.68, 0.0, 10.001173, 9.998722 
5.8509666e+2, 2.6565152e+2, -269216.44, -489924.7, -10533.218, -0.025749894, 0.13078393, -268714.88, 67913.75, 0.0, 10.001294, 9.998364 
5.8511156e+2, 2.7565005e+2, -164992.06, -386593.13, -5770.141, -0.09375489, 0.14624412, -164841.92, 73801.766, 0.0, 10.001327, 9.998384 
5.8512723e+2, 2.856485e+2, -46876.977, -298789.56, -8770.1875, -0.08140825, 0.16365844, -46572.016, 94087.01, 0.0, 10.001551, 9.998208 
5.8514357e+2, 2.9564703e+2, 102972.055, -179646.08, -15819.957, -0.0085122045, 0.19299272, 103854.84, 146528.11, 0.0, 10.001924, 9.998174 
5.851586e+2, 3.0564365e+2, 138905.64, -206891.83, -26814.975, -0.04315944, 0.07334055, 140972.66, 140972.66, 0.000000006848287, 10.002134, 9.997551 
5.851739e+2, 3.156422e+2, 256979.94, 18702.256, 15724.555, -0.027130969, 0.17165254, 258013.17, 258013.17, 0.00000018333391, 10.002219, 9.99906 
5.9488726e+2, 1.2564643e+2, -1837984.0, -1709050.9, 31043.932, -0.12539311, 0.2069625, -1701965.6, 6718.6445, 0.000000058921596, 9.998889, 10.000568 
5.9490293e+2, 1.3564631e+2, -1745651.3, -1619642.5, -96124.25, 0.15014125, 0.14033298, -1567714.6, 42969.598, 0.000000000010343272, 9.998848, 10.000545 
5.94913e+2, 1.4564733e+2, -1635462.4, -1562428.1, -5002.7803, -0.27927467, 0.21070868, -1562087.0, -49414.008, 0.0, 9.999145, 10.000113 
5.949305e+2, 1.5564692e+2, -1467684.5, -1432762.8, 254.60086, -0.05694031, 0.15782343, -1432760.9, -18085.203, 0.0, 9.999634, 10.0000925 
5.949466e+2, 1.656464e+2, -1384033.9, -1404380.0, -12529.23, 0.038870156, 0.12790069, -1378067.8, -61388.7, 0.0, 9.9998045, 9.999534 
5.9496087e+2, 1.7564589e+2, -1296144.0, -1310388.8, -17737.525, -0.027099155, 0.1216757, -1284152.3, -65470.164, 0.0, 9.999732, 9.99954 
5.9497565e+2, 1.8564516e+2, -1207168.3, -1261775.5, -13731.655, -0.0519665, 0.115808256, -1203909.6, -83221.055, 0.0, 9.999863, 9.999138 
5.949911e+2, 1.9564418e+2, -1065133.0, -1140205.1, -13564.705, -0.022047756, 0.103606544, -1062757.1, -40059.035, 0.0, 10.000155, 9.999159 
5.950063e+2, 2.056432e+2, -951707.56, -1056491.9, -17337.09, -0.013908324, 0.10084882, -948913.56, -24206.084, 0.0, 10.000355, 9.998965 
5.950212e+2, 2.1564221e+2, -834313.2, -948201.4, -19089.406, -0.03061348, 0.10332807, -831198.7, -4481.981, 0.0, 10.0004835, 9.998974 
5.950362e+2, 2.256411e+2, -741710.6, -892450.1, -15602.072, -0.045419272, 0.11419103, -740112.75, -11384.318, 0.0, 10.000618, 9.998619 
5.9505135e+2, 2.3563986e+2, -621757.8, -780860.6, -16518.258, -0.05581465, 0.12703846, -620061.0, 10681.336, 0.0, 10.000756, 9.998645 
5.9506685e+2, 2.4563862e+2, -499254.34, -676013.0, -12262.076, -0.038187314, 0.14256333, -498407.78, 34347.53, 0.0, 10.000946, 9.9986 
5.9508264e+2, 2.556374e+2, -366380.16, -558490.2, -16020.769, -0.0005225556, 0.15870287, -365053.28, 69714.12, 0.0, 10.001174, 9.998624 
5.9509796e+2, 2.656358e+2, -259750.69, -470854.0, -9299.359, -0.023293413, 0.1450571, -259341.83, 77440.86, 0.0, 10.001296, 9.998495 
5.951129e+2, 2.7563387e+2, -157167.77, -371211.7, -3909.7256, -0.09182164, 0.099700116, -157096.38, 81704.63, 0.0, 10.00133, 9.998489 
5.951288e+2, 2.8563237e+2, -60635.492, -327623.47, 4659.9956, -0.08404633, 0.12850973, -60554.18, 80261.74, 0.0, 10.001551, 9.99801 
5.9514534e+2, 2.9563138e+2, 90509.73, -204164.23, -2908.8777, -0.018624177, 0.2253644, 90538.44, 133365.22, 0.0, 10.001917, 9.998009 
5.951607e+2, 3.05628e+2, 159693.34, -161977.81, -23824.197, -0.045047715, 0.096773915, 161448.28, 161448.28, 0.000000033052434, 10.002127, 9.997864 
5.9517634e+2, 3.1562635e+2, 260504.27, 25930.404, 15974.976, -0.0060519516, 0.14091368, 261587.19, 261587.19, 0.00000037488923, 10.002219, 9.99911 
6.048858e+2, 1.256311e+2, -1903671.9, -1731528.1, 37250.555, -0.13458577, 0.21063931, -1723813.1, -14978.504, 0.000000021349177, 9.998401, 10.0006485 
6.049021e+2, 1.3563092e+2, -1699484.6, -1600701.4, -60171.996, 0.164158, 0.14053078, -1572245.8, 38588.97, 0.0, 9.999179, 10.000514 
6.0491234e+2, 1.4563179e+2, -1582035.3, -1540907.0, 15887.573, -0.27674598, 0.20016296, -1535484.6, -22660.018, 0.0, 9.99953, 10.000074 
6.0493016e+2, 1.5563133e+2, -1492806.9, -1448660.8, -5709.994, -0.04932571, 0.14667076, -1447934.1, -33106.41, 0.0, 9.999479, 10.000057 
6.049464e+2, 1.6563082e+2, -1410654.1, -1422084.9, -27097.938, 0.043503113, 0.120895274, -1388675.4, -71844.16, 0.0, 9.999643, 9.999489 
6.049606e+2, 1.7563035e+2, -1264267.4, -1299865.5, -21981.37, -0.031408396, 0.12169086, -1253782.4, -34948.15, 0.0, 9.999972, 9.999496 
6.049756e+2, 1.8562952e+2, -1172435.4, -1247693.9, -13939.04, -0.05576932, 0.11216773, -1169936.6, -49095.355, 0.0, 10.0001135, 9.999114 
6.0499126e+2, 1.9562842e+2, -1073423.5, -1147268.0, -16599.371, -0.018298062, 0.088288546, -1069863.8, -47011.777, 0.0, 10.000113, 9.999131 
6.050066e+2, 2.056274e+2, -972369.2, -1073893.5, -20706.023, -0.013032601, 0.08733569, -968308.56, -43446.914, 0.0, 10.000245, 9.9988985 
6.0502154e+2, 2.1562646e+2, -838515.6, -956901.8, -23471.402, -0.0408362, 0.10179893, -834032.0, -7161.2764, 0.0, 10.000484, 9.998914 
6.0503674e+2, 2.2562534e+2, -731365.3, -882652.9, -18378.586, -0.052366074, 0.11234203, -729164.6, -282.2617, 0.0, 10.000669, 9.998662 
6.050522e+2, 2.3562405e+2, -611767.06, -772584.44, -13080.776, -0.047977846, 0.11562077, -610710.0, 20186.365, 0.0, 10.00081, 9.998676 
6.050678e+2, 2.4562277e+2, -499034.72, -688623.75, -2705.975, -0.03650956, 0.13156709, -498996.13, 33913.77, 0.0, 10.001002, 9.998487 
6.050837e+2, 2.5562152e+2, -365745.16, -570495.56, -7158.5415, -0.021315135, 0.15620299, -365495.2, 69427.69, 0.0, 10.001231, 9.998514 
6.0509926e+2, 2.6561987e+2, -243472.97, -466960.5, -11810.5625, -0.034534574, 0.14447828, -242850.55, 94088.164, 0.0, 10.001425, 9.99846 
6.051146e+2, 2.7561787e+2, -122296.24, -358951.88, -18035.299, -0.06905863, 0.095475994, -120929.68, 118027.75, 0.0, 10.001589, 9.998448 
6.051306e+2, 2.8561628e+2, -40463.285, -331559.66, -5558.3706, -0.0663368, 0.12100753, -40357.19, 100616.26, 0.0, 10.001748, 9.997889 
6.05147e+2, 2.956151e+2, 79286.41, -222333.42, -8722.503, -0.03541396, 0.2158036, 79538.44, 122524.34, 0.00000000003092486, 10.001894, 9.997895 
6.051626e+2, 3.056118e+2, 160817.86, -148205.33, -38475.12, -0.06293872, 0.09250061, 165536.19, 165536.19, 0.00000008707832, 10.002077, 9.997982 
6.0517865e+2, 3.1561026e+2, 263998.88, 12900.662, -15561.988, 0.0035368958, 0.13708769, 264959.7, 264959.7, 0.0000006525611, 10.002307, 9.998978 
6.148839e+2, 1.2561592e+2, -1888878.3, -1699246.5, 46983.438, -0.16506274, 0.21702299, -1688244.1, 20738.662, 0.0000000039655865, 9.998394, 10.000874 
6.149015e+2, 1.356158e+2, -1692735.5, -1587701.4, -31166.783, 0.18798788, 0.13985291, -1579149.5, 31831.568, 0.0, 9.999182, 10.000603 
6.149121e+2, 1.456164e+2, -1608986.9, -1597548.4, 14116.109, -0.25530893, 0.18761316, -1588037.0, -75062.88, 0.0, 9.999533, 9.999684 
6.1492974e+2, 1.5561564e+2, -1517833.1, -1500511.0, -6886.2515, -0.039310195, 0.14473097, -1498107.0, -83125.9, 0.0, 9.999478, 9.999702 
6.14946e+2, 1.6561504e+2, -1403895.9, -1407964.9, -14845.621, 0.045613892, 0.12005303, -1390946.0, -73960.06, 0.0, 9.999642, 9.999587 
6.1496055e+2, 1.7561457e+2, -1257601.1, -1286762.8, -10354.107, -0.035260774, 0.112515904, -1254298.8, -35310.438, 0.0, 9.999974, 9.999586 
6.1497563e+2, 1.856138e+2, -1176540.4, -1256909.5, -14334.456, -0.06010863, 0.1061737, -1174060.3, -53065.457, 0.0, 10.000115, 9.99905 
6.149913e+2, 1.9561274e+2, -1077962.5, -1156821.6, -16203.836, -0.018357515, 0.0948958, -1074762.8, -51757.91, 0.0, 10.000113, 9.999065 
6.150068e+2, 2.0561163e+2, -977976.0, -1085402.5, -11963.764, -0.015509054, 0.090754114, -976659.75, -51643.92, 0.0, 10.000244, 9.99882 
6.150219e+2, 2.1561046e+2, -843052.2, -966361.4, -14749.986, -0.05130451, 0.08911602, -841312.4, -14284.951, 0.0, 10.000484, 9.998849 
6.1503744e+2, 2.2560936e+2, -722820.2, -864946.1, -13234.058, -0.05178445, 0.09891306, -721598.4, 7440.1187, 0.0, 10.000669, 9.998783 
6.1505324e+2, 2.3560831e+2, -603816.06, -756560.0, -7622.693, -0.020966401, 0.1139326, -603436.56, 27612.75, 0.0, 10.000812, 9.998786 
6.150689e+2, 2.4560693e+2, -506950.1, -705524.06, 5723.784, -0.026911175, 0.12154315, -506785.25, 26278.365, 0.0, 10.001003, 9.99837 
6.1508447e+2, 2.556053e+2, -374756.38, -589007.4, 1201.685, -0.063064985, 0.12138907, -374749.63, 60330.94, 0.0, 10.00123, 9.998388 
6.151004e+2, 2.656037e+2, -256955.56, -494919.4, -5910.7227, -0.06018327, 0.1287498, -256808.83, 80287.914, 0.0, 10.001424, 9.998268 
6.151166e+2, 2.7560204e+2, -134494.94, -384627.22, -11898.447, -0.026417542, 0.13332716, -133930.22, 105182.61, 0.0, 10.00159, 9.998273 
6.151327e+2, 2.8560016e+2, -44249.145, -339353.75, 113.34827, -0.028953677, 0.14187208, -44249.098, 96882.305, 0.0, 10.001747, 9.997836 
6.1514866e+2, 2.9559824e+2, 74280.484, -232283.36, -2873.0872, -0.060842026, 0.16440926, 74307.41, 117458.0, 0.0000000010306047, 10.001891, 9.9978285 
6.151643e+2, 3.05595e+2, 155302.83, -158717.42, -30084.91, -0.098907165, 0.058822997, 158159.16, 158159.16, 0.00000016756015, 10.002072, 9.997911 
6.1518097e+2, 3.1559402e+2, 241705.52, -32043.969, -9459.922, 0.0009145563, 0.16392495, 242032.03, 242032.03, 0.000001002472, 10.0023, 9.9986725 
6.248823e+2, 1.2560016e+2, -1878744.5, -1689221.8, 34045.1, -0.16789652, 0.19239128, -1683291.6, 25843.87, 0.00000000008306351, 9.998443, 10.000918 
6.249008e+2, 1.356002e+2, -1696380.8, -1594560.9, -37076.746, 0.20002422, 0.13480322, -1582490.5, 28642.076, 0.0, 9.999179, 10.000557 
6.2491167e+2, 1.4560063e+2, -1605681.9, -1609185.3, -11792.621, -0.25290316, 0.1765023, -1595511.5, -82384.17, 0.0, 9.999613, 9.999565 
6.2492925e+2, 1.555998e+2, -1488204.3, -1498975.8, -12805.968, -0.044492673, 0.13626651, -1479697.6, -64561.996, 0.0, 9.999737, 9.999589 
6.249457e+2, 1.6559914e+2, -1375919.3, -1398278.4, -10674.552, 0.042128615, 0.113274485, -1371641.5, -54500.344, 0.0, 9.999851, 9.999553 
6.2496054e+2, 1.7559862e+2, -1261797.9, -1292738.8, -16883.28, -0.029349485, 0.10461246, -1254369.0, -35224.785, 0.0, 9.999963, 9.99955 
6.249758e+2, 1.8559785e+2, -1181959.3, -1264503.9, -29599.305, -0.053964276, 0.10310486, -1172442.5, -51291.766, 0.0, 10.0001, 9.999005 
6.2499154e+2, 1.9559686e+2, -1059508.9, -1152658.8, -30096.729, -0.019698342, 0.10195453, -1050630.8, -27470.365, 0.0, 10.000259, 9.999023 
6.2500703e+2, 2.055957e+2, -957519.5, -1074503.6, -18128.486, -0.019798037, 0.094947815, -954774.6, -29602.998, 0.0, 10.0003805, 9.998829 
6.2502235e+2, 2.155944e+2, -843909.94, -966162.94, -14434.299, -0.054933682, 0.07987663, -842228.8, -15044.582, 0.0, 10.000476, 9.998854 
6.250381e+2, 2.2559324e+2, -725516.4, -871945.3, -15792.654, -0.052941635, 0.08751333, -723832.44, 5363.188, 0.0, 10.000674, 9.998733 
6.250541e+2, 2.3559223e+2, -586953.06, -753661.6, -23399.096, -0.018690148, 0.10970463, -583731.06, 47475.258, 0.0, 10.00095, 9.998739 
6.2507004e+2, 2.4559084e+2, -491452.56, -698745.1, -13167.216, -0.023310415, 0.11872746, -490619.53, 42601.156, 0.0, 10.001113, 9.998364 
6.250857e+2, 2.555892e+2, -382369.38, -594397.4, -9073.473, -0.059730113, 0.11433882, -381981.78, 53256.305, 0.0, 10.001184, 9.998373 
6.251018e+2, 2.6558754e+2, -271040.75, -518430.38, -6984.6895, -0.058179807, 0.12552457, -270843.72, 66411.35, 0.0, 10.001399, 9.998119 
6.251182e+2, 2.7558583e+2, -124908.85, -395492.9, -11133.497, -0.026217958, 0.14156729, -124451.52, 114820.555, 0.0, 10.001722, 9.998135 
6.2513447e+2, 2.8558382e+2, -29675.926, -329243.2, -1819.211, -0.030326197, 0.1460871, -29664.879, 111626.61, 0.0, 10.001834, 9.997863 
6.2515044e+2, 2.9558176e+2, 60174.656, -236400.05, 1753.5682, -0.06417647, 0.15060495, 60185.023, 103496.6, 0.000000004235602, 10.001783, 9.997851 
6.251663e+2, 3.055787e+2, 143039.47, -161748.64, -8780.463, -0.09975872, 0.060570188, 143292.2, 143292.2, 0.000000262113, 10.001976, 9.997937 
6.2518334e+2, 3.1557766e+2, 238613.44, -52812.27, 14797.27, 0.0089102, 0.15815571, 239362.86, 239362.86, 0.0000013873902, 10.002362, 9.998499 
6.348809e+2, 1.2558375e+2, -1888457.3, -1709232.6, 39799.773, -0.14602035, 0.13222979, -1700791.9, 8501.262, 0.0, 9.998442, 10.000781 
6.349e+2, 1.3558409e+2, -1709038.4, -1620883.9, -9974.387, 0.19972467, 0.12562388, -1619769.4, -8480.132, 0.0, 9.999178, 10.000377 
6.3491106e+2, 1.4558452e+2, -1594829.9, -1586883.5, -7226.6025, -0.27083987, 0.16729066, -1582609.9, -69325.414, 0.0, 9.999613, 9.99972 
6.3492876e+2, 1.5558378e+2, -1478340.4, -1479279.1, -8493.181, -0.06668127, 0.12077065, -1470303.6, -55012.582, 0.0, 9.999739, 9.999723 
6.3494545e+2, 1.6558312e+2, -1387572.5, -1423078.6, -6984.697, 0.0313347, 0.0999329, -1386247.9, -68951.01, 0.0, 9.999853, 9.999382 
6.349607e+2, 1.7558248e+2, -1273031.3, -1316139.4, -12793.105, -0.013878417, 0.09836585, -1269520.6, -50218.88, 0.0, 9.999963, 9.99939 
6.349761e+2, 1.8558171e+2, -1184130.8, -1268911.4, -23935.455, -0.037428442, 0.10360485, -1177840.0, -56530.97, 0.0, 10.000099, 9.998976 
6.3499177e+2, 1.9558077e+2, -1060709.6, -1155544.4, -24365.66, -0.022973679, 0.109580606, -1054815.6, -31497.307, 0.0, 10.00026, 9.999003 
6.350073e+2, 2.0557962e+2, -950676.9, -1060656.3, -14931.046, -0.026908798, 0.09972181, -948685.9, -23356.744, 0.0, 10.000381, 9.998924 
6.350228e+2, 2.1557829e+2, -838642.2, -955376.56, -10630.985, -0.052298006, 0.07369491, -837681.94, -10340.837, 0.0, 10.000476, 9.998928 
6.350387e+2, 2.2557703e+2, -741266.7, -904406.44, -5565.3115, -0.05633336, 0.07788657, -741077.06, -11723.324, 0.0, 10.000672, 9.99851 
6.350549e+2, 2.3557581e+2, -601373.6, -783406.44, -13468.591, -0.04099006, 0.10308294, -600382.5, 30984.664, 0.0, 10.000949, 9.998535 
6.3507104e+2, 2.4557449e+2, -484021.4, -683431.9, -10647.587, -0.026358478, 0.12287894, -483454.5, 49926.51, 0.0, 10.001113, 9.998469 
6.350874e+2, 2.555731e+2, -375296.5, -580161.4, -5904.573, -0.013188796, 0.13499767, -375126.47, 60268.848, 0.0, 10.001186, 9.99847 
6.3510346e+2, 2.6557133e+2, -279087.28, -535305.6, 5173.4014, -0.029474812, 0.13520205, -278982.88, 58430.68, 0.0, 10.001399, 9.998003 
6.351195e+2, 2.7556917e+2, -132947.2, -411412.1, 402.19836, -0.0683273, 0.11989572, -132946.63, 106488.6, 0.0, 10.0017185, 9.998028 
6.351359e+2, 2.8556728e+2, -22545.563, -313723.13, -3888.6714, -0.07097297, 0.13251701, -22493.639, 118960.18, 0.0, 10.00183, 9.997972 
6.351524e+2, 2.955657e+2, 68095.83, -220041.48, 699.01276, -0.046164468, 0.17423514, 68097.52, 111566.39, 0.000000008608103, 10.001783, 9.997964 
6.3516855e+2, 3.0556288e+2, 150380.97, -145984.64, 5808.1123, -0.06632081, 0.098442264, 150494.75, 150494.75, 0.00000035003856, 10.001973, 9.998047 
6.3518584e+2, 3.1556126e+2, 233312.16, -61446.887, 26822.787, 0.02320032, 0.12841739, 235733.13, 235733.13, 0.0000017531552, 10.002351, 9.9984455 
6.448796e+2, 1.25567e+2, -1885369.9, -1710705.6, -11754.373, -0.121974014, 0.11005118, -1709918.1, -462.04974, 0.0, 9.998475, 10.000755 
6.448989e+2, 1.3556747e+2, -1751211.3, -1647770.8, -30174.914, 0.187952, 0.12246461, -1639611.9, -28160.336, 0.0, 9.998917, 10.0003195 
6.4491045e+2, 1.4556783e+2, -1620017.4, -1583321.3, -35530.74, -0.2842733, 0.15412557, -1561680.8, -48233.27, 0.0, 9.9993725, 9.99986 
6.4492863e+2, 1.555673e+2, -1461753.8, -1456956.9, -39149.184, -0.056976873, 0.11299699, -1420132.8, -4680.741, 0.0, 9.999791, 9.999851 
6.449454e+2, 1.6556673e+2, -1373162.6, -1421232.4, -40637.953, 0.039989762, 0.099253945, -1349984.0, -32527.066, 0.0, 9.999974, 9.999336 
6.449606e+2, 1.7556615e+2, -1275985.9, -1322383.9, -37303.168, -0.023029232, 0.10458519, -1255256.3, -35794.297, 0.0, 9.999963, 9.999347 
6.44976e+2, 1.8556531e+2, -1184528.4, -1263460.8, -36136.42, -0.048914038, 0.10474033, -1170483.6, -49013.9, 0.0, 10.0000725, 9.999025 
6.4499193e+2, 1.9556427e+2, -1053962.6, -1147131.5, -31238.53, -0.025666906, 0.096859016, -1044458.2, -20978.654, 0.0, 10.000285, 9.999048 
6.450078e+2, 2.0556316e+2, -943361.9, -1059395.3, -27010.27, -0.022785237, 0.08870947, -937382.5, -11892.659, 0.0, 10.0004425, 9.998903 
6.4502347e+2, 2.1556196e+2, -829036.5, -953213.9, -31120.49, -0.04263632, 0.07645795, -821673.8, 5826.904, 0.0, 10.000553, 9.998906 
6.4503944e+2, 2.2556064e+2, -740864.5, -907489.3, -17601.086, -0.052551717, 0.079591684, -739025.56, -9511.766, 0.0, 10.00069, 9.998481 
6.450556e+2, 2.3555927e+2, -617864.44, -794891.94, -11502.374, -0.052428618, 0.09167599, -617120.2, 14408.559, 0.0, 10.000851, 9.998504 
6.450721e+2, 2.4555789e+2, -500056.44, -696780.9, -11730.039, -0.033300564, 0.10945022, -499359.5, 34183.773, 0.0, 10.001027, 9.998419 
6.450886e+2, 2.5555652e+2, -374043.8, -584183.06, -18732.041, 0.00010287722, 0.12882453, -372387.06, 63170.48, 0.0, 10.001215, 9.998428 
6.4510494e+2, 2.6555482e+2, -274280.22, -522984.0, -615.84235, -0.020809477, 0.13392551, -274278.7, 63296.406, 0.0, 10.0013895, 9.998092 
6.45121e+2, 2.755528e+2, -151302.19, -410917.1, 9422.901, -0.084336884, 0.12126403, -150960.63, 88634.96, 0.0, 10.001553, 9.99811 
6.4513755e+2, 2.8555086e+2, -37604.6, -325670.28, 653.72614, -0.07891448, 0.13069224, -37603.117, 104011.32, 0.0, 10.001747, 9.997929 
6.4515454e+2, 2.9554915e+2, 92132.04, -212371.02, -6297.9873, -0.018925631, 0.16412485, 92262.25, 135893.2, 0.000000011710588, 10.0019655, 9.997929 
6.451708e+2, 3.0554673e+2, 170088.45, -118025.9, -1481.6785, -0.043057933, 0.11519962, 170096.06, 170096.06, 0.00000040808163, 10.002029, 9.998212 
6.4518785e+2, 3.1554508e+2, 184563.52, -78201.66, 21132.748, 0.009380774, 0.12611054, 186252.27, 186252.27, 0.0000020409286, 10.001987, 9.998506 
6.548783e+2, 1.2554994e+2, -1879000.5, -1697729.4, -18159.47, -0.099310055, 0.12619448, -1695928.1, 13696.194, 0.0, 9.998476, 10.000843 
6.548975e+2, 1.3555034e+2, -1746766.0, -1638007.1, -13608.091, 0.16295345, 0.12518385, -1636330.4, -24710.576, 0.0, 9.998914, 10.000388 
6.549097e+2, 1.4555061e+2, -1611754.9, -1565523.8, -20234.723, -0.29476723, 0.13619508, -1557918.4, -44301.836, 0.0, 9.999369, 9.999984 
6.549288e+2, 1.5555039e+2, -1453034.6, -1438900.4, -24532.604, -0.014940287, 0.114029616, -1420437.3, -4819.0376, 0.0, 9.999791, 9.999975 
6.549457e+2, 1.6555004e+2, -1367898.0, -1410539.0, -41520.008, 0.06848127, 0.1125814, -1342544.4, -24923.37, 0.0, 9.999974, 9.99941 
6.5496016e+2, 1.7554957e+2, -1270577.8, -1311323.4, -37525.258, -0.05815982, 0.12305692, -1248251.8, -28626.799, 0.0, 9.999964, 9.999423 
6.5497565e+2, 1.8554866e+2, -1175889.0, -1245458.3, -28645.283, -0.090339884, 0.10606914, -1165612.4, -43979.598, 0.0, 10.000072, 9.999149 
6.549922e+2, 1.9554739e+2, -1046442.3, -1131457.6, -23696.246, -0.02807636, 0.06390884, -1040283.6, -16639.84, 0.0, 10.000285, 9.999157 
6.550084e+2, 2.0554632e+2, -953022.44, -1079349.5, -23122.182, -0.007435413, 0.062030867, -948923.3, -23269.527, 0.0, 10.000442, 9.998767 
6.550242e+2, 2.1554537e+2, -837493.94, -970851.6, -26973.268, -0.026643202, 0.088282116, -832244.9, -4581.743, 0.0, 10.000553, 9.998785 
6.5504014e+2, 2.2554411e+2, -729528.1, -884132.1, -11784.102, -0.042531736, 0.09274627, -728635.06, 1040.5905, 0.0, 10.00069, 9.998641 
6.550565e+2, 2.3554258e+2, -607986.7, -774564.56, -5492.5723, -0.05354988, 0.07556069, -607805.75, 23885.22, 0.0, 10.000851, 9.998643 
6.550729e+2, 2.4554104e+2, -514726.63, -727295.56, -4763.2383, -0.044384595, 0.07877709, -514619.94, 19087.453, 0.0, 10.001027, 9.99821 
6.550897e+2, 2.5553942e+2, -386937.03, -610809.5, -11590.035, -0.019701608, 0.09629565, -386338.6, 49386.086, 0.0, 10.001214, 9.998246 
6.551062e+2, 2.65538e+2, -254131.4, -480838.84, 5622.3877, -0.032606203, 0.1215486, -253992.06, 83747.61, 0.0, 10.001388, 9.998383 
6.5512264e+2, 2.7553663e+2, -132798.0, -371917.63, 15749.761, -0.07538044, 0.14568754, -131765.1, 107988.06, 0.0, 10.00155, 9.998379 
6.551395e+2, 2.8553462e+2, -51514.086, -354018.2, 8738.925, -0.055604838, 0.14173692, -51261.844, 90511.4, 0.0, 10.001744, 9.997736 
6.5515685e+2, 2.9553217e+2, 79254.234, -238617.77, 1499.0322, 0.014687246, 0.121119015, 79261.305, 123059.03, 0.000000011654482, 10.001963, 9.99775 
6.5517294e+2, 3.0553013e+2, 184700.28, -86968.3, -3088.9949, -0.0316683, 0.11000092, 184735.4, 184735.4, 0.00000041978168, 10.002027, 9.998426 
6.551894e+2, 3.1552905e+2, 195376.58, -55077.887, 17612.7, -0.030745393, 0.15639746, 196609.1, 196609.1, 0.000002202322, 10.001985, 9.998666 
6.6487676e+2, 1.255327e+2, -1863181.5, -1675197.0, -27505.516, -0.10271824, 0.1391192, -1671255.1, 38538.973, 0.0, 9.998522, 10.000976 
6.6489655e+2, 1.3553321e+2, -1701476.0, -1602569.8, 2222.0833, 0.16402861, 0.13584222, -1602519.9, 9267.705, 0.0, 9.999166, 10.00051 
6.649092e+2, 1.4553335e+2, -1598889.8, -1563385.4, -20579.658, -0.28435764, 0.13128635, -1553959.3, -40173.69, 0.0, 9.9994755, 9.999947 
6.649284e+2, 1.5553325e+2, -1500434.9, -1464838.5, -38162.66, -0.018050509, 0.12477681, -1440527.8, -24741.064, 0.0, 9.999479, 9.999947 
6.6494536e+2, 1.6553298e+2, -1407894.8, -1410770.8, -60443.52, 0.060927413, 0.12362649, -1348872.1, -31083.385, 0.0, 9.9996195, 9.999578 
6.6496e+2, 1.7553253e+2, -1272649.4, -1293964.6, -49533.734, -0.06076445, 0.12034635, -1232639.6, -12847.942, 0.0, 9.999871, 9.999586 
6.649757e+2, 1.8553169e+2, -1171797.1, -1237787.8, -37678.785, -0.08988278, 0.09974635, -1154708.6, -32910.098, 0.0, 10.000077, 9.999199 
6.649925e+2, 1.9553055e+2, -1048865.0, -1127544.8, -38872.676, -0.026900508, 0.062802255, -1032899.3, -9090.845, 0.0, 10.000247, 9.999201 
6.650088e+2, 2.0552947e+2, -956196.1, -1078632.1, -36285.164, -0.0076961243, 0.057612512, -946250.56, -20432.105, 0.0, 10.00041, 9.998786 
6.6502464e+2, 2.1552843e+2, -832968.9, -966194.06, -28882.346, -0.030204384, 0.07389679, -826976.9, 851.8404, 0.0, 10.000574, 9.998806 
6.650409e+2, 2.2552723e+2, -727561.2, -879290.5, -14357.583, -0.041040037, 0.081324145, -726214.5, 3626.2175, 0.0, 10.000688, 9.998675 
6.6505736e+2, 2.3552588e+2, -618681.44, -775638.2, -17147.018, -0.040094223, 0.07756425, -616830.0, 15024.339, 0.0, 10.000761, 9.998679 
6.65074e+2, 2.4552433e+2, -521184.8, -721591.5, -4743.6797, -0.037130237, 0.0774632, -521072.6, 12797.706, 0.0, 10.000945, 9.998288 
6.650907e+2, 2.5552264e+2, -381155.66, -600114.9, 9018.399, -0.03357034, 0.0780466, -380784.84, 55103.188, 0.0, 10.00122, 9.998317 
6.651075e+2, 2.6552123e+2, -262314.78, -491365.5, 16698.92, -0.041146602, 0.10551137, -261103.75, 76799.14, 0.0, 10.001361, 9.9983225 
6.651243e+2, 2.7552e+2, -159665.17, -390679.0, 1201.6886, -0.05707594, 0.14810714, -159658.92, 80256.84, 0.0, 10.00139, 9.998326 
6.6514134e+2, 2.8551796e+2, -68957.664, -353909.38, -39.26392, -0.03726211, 0.14182153, -68957.66, 72978.414, 0.0, 10.001589, 9.997811 
6.6515875e+2, 2.955154e+2, 79121.71, -231082.64, 11227.418, 0.010760277, 0.100363664, 79527.54, 123489.19, 0.000000008469742, 10.00193, 9.997817 
6.651749e+2, 3.0551362e+2, 191953.06, -87476.03, -4782.5396, -0.03918812, 0.11474736, 192034.89, 192034.89, 0.00000038345433, 10.002094, 9.998389 
6.651915e+2, 3.1551233e+2, 211827.55, -48860.74, -4450.2866, -0.026950732, 0.14323938, 211903.5, 211903.5, 0.0000022156387, 10.002105, 9.99865 
6.748749e+2, 1.255153e+2, -1850472.1, -1649309.6, -23742.738, -0.13796833, 0.14494354, -1646545.3, 63420.125, 0.0, 9.998524, 10.001153 
6.74896e+2, 1.3551612e+2, -1687762.1, -1575423.3, 25896.424, 0.19095477, 0.15543096, -1569741.0, 42213.61, 0.0, 9.999171, 10.000693 
6.74909e+2, 1.4551616e+2, -1613531.8, -1594467.4, -20723.498, -0.25326198, 0.14061765, -1581188.9, -67234.98, 0.0, 9.999478, 9.999732 
6.7492735e+2, 1.5551594e+2, -1514476.0, -1493008.6, -37817.31, -0.0685079, 0.14523645, -1464431.3, -48474.01, 0.0, 9.9994755, 9.999756 
6.749445e+2, 1.655156e+2, -1390131.6, -1372880.0, -51175.258, 0.014748609, 0.13219883, -1329608.6, -11648.795, 0.0, 9.999615, 9.999841 
6.749602e+2, 1.7551509e+2, -1255308.9, -1257867.5, -40241.88, -0.030804602, 0.09664104, -1216326.0, 3636.2925, 0.0, 9.999871, 9.999834 
6.749762e+2, 1.8551446e+2, -1173986.0, -1242480.3, -31567.473, -0.047143728, 0.08586764, -1161656.6, -39689.707, 0.0, 10.000077, 9.999167 
6.7499274e+2, 1.9551371e+2, -1050548.0, -1130835.5, -32680.56, -0.022973355, 0.093177594, -1038927.44, -14954.078, 0.0, 10.000246, 9.99918 
6.75009e+2, 2.0551258e+2, -944544.1, -1054188.1, -30512.898, -0.024577584, 0.07554398, -936624.7, -10640.948, 0.0, 10.000409, 9.998955 
6.75025e+2, 2.1551114e+2, -822100.2, -943483.94, -23213.445, -0.05347269, 0.033804614, -817812.3, 10185.093, 0.0, 10.000573, 9.998962 
6.750415e+2, 2.2551002e+2, -733889.56, -892381.94, -11877.834, -0.04835654, 0.045619294, -733004.4, -2995.4768, 0.0, 10.000688, 9.998586 
6.750584e+2, 2.3550913e+2, -623281.94, -785243.5, -14004.828, -0.012947027, 0.0971454, -622079.9, 9938.939, 0.0, 10.00076, 9.998613 
6.750752e+2, 2.455078e+2, -496465.63, -670114.9, 5531.16, -0.012647237, 0.104895964, -496289.63, 37742.297, 0.0, 10.000944, 9.998642 
6.750918e+2, 2.5550616e+2, -359457.5, -554480.5, 18746.16, -0.041999113, 0.07381237, -357671.9, 78375.74, 0.0, 10.001217, 9.9986315 
6.751088e+2, 2.6550454e+2, -290418.78, -549508.25, 17563.682, -0.047070533, 0.08650655, -289233.56, 48831.188, 0.0, 10.001359, 9.997924 
6.7512584e+2, 2.755029e+2, -184648.19, -443296.66, 3103.3523, -0.031233612, 0.12917036, -184610.95, 55472.25, 0.0, 10.001393, 9.997964 
6.7514306e+2, 2.8550094e+2, -46128.57, -306440.0, 12909.887, -0.02482525, 0.13052355, -45489.887, 96612.98, 0.0, 10.001589, 9.9981365 
6.751603e+2, 2.9549882e+2, 98813.84, -188477.16, 23581.863, -0.028036172, 0.1007866, 100736.66, 144859.55, 0.0000000040864183, 10.001924, 9.998113 
6.7517674e+2, 3.054972e+2, 172038.1, -127554.87, -4330.8096, -0.064389, 0.13001162, 172100.69, 172100.69, 0.0000003121116, 10.002089, 9.998117 
6.7519397e+2, 3.15495e+2, 198700.86, -76490.14, -5341.291, 0.014300467, 0.09814444, 198804.5, 198804.5, 0.0000020914758, 10.002106, 9.99846 
6.8487346e+2, 1.2549774e+2, -1840272.8, -1670070.1, -12766.533, -0.1396455, 0.12991741, -1669117.9, 41017.992, 0.0, 9.998705, 10.000923 
6.848952e+2, 1.3549854e+2, -1691581.8, -1596320.8, 24746.377, 0.19148627, 0.15569508, -1590275.9, 21850.91, 0.0, 9.999228, 10.000523 
6.8490857e+2, 1.4549842e+2, -1611071.1, -1581655.6, -44870.945, -0.23760471, 0.12992199, -1549143.5, -35015.758, 0.0, 9.999447, 9.999834 
6.8492675e+2, 1.5549839e+2, -1519086.9, -1484609.6, -37795.133, -0.07479437, 0.1414194, -1460307.4, -44178.54, 0.0, 9.999399, 9.999849 
6.84944e+2, 1.6549812e+2, -1400337.4, -1377587.0, -39987.645, 0.0044177, 0.13216466, -1347388.0, -29257.332, 0.0, 9.999545, 9.999841 
6.8496007e+2, 1.754976e+2, -1257479.9, -1258288.3, -49936.883, -0.026861912, 0.096086696, -1207945.5, 12188.154, 0.0, 9.999854, 9.999838 
6.849763e+2, 1.8549702e+2, -1181889.5, -1233858.1, -52300.586, -0.04326114, 0.083252184, -1149474.0, -27336.018, 0.0, 9.999971, 9.999277 
6.8499273e+2, 1.9549635e+2, -1087935.0, -1136475.9, -42380.29, -0.03282661, 0.08759222, -1063367.5, -39224.15, 0.0, 9.999938, 9.999289 
6.850092e+2, 2.0549534e+2, -990169.9, -1071162.3, -34748.523, -0.03451325, 0.07543043, -977305.06, -51152.473, 0.0, 10.000075, 9.998999 
6.8502545e+2, 2.1549407e+2, -850660.25, -952220.25, -37344.367, -0.051616516, 0.04622735, -838406.8, -10241.709, 0.0, 10.000356, 9.999007 
6.8504214e+2, 2.2549298e+2, -747238.1, -886145.3, -26802.408, -0.044054884, 0.054004908, -742245.94, -12069.859, 0.0, 10.000541, 9.998699 
6.850591e+2, 2.3549202e+2, -631838.6, -776886.2, -14209.109, -0.01445912, 0.087982506, -630459.8, 1726.0654, 0.0, 10.0006485, 9.998724 
6.85076e+2, 2.4549079e+2, -519555.13, -675097.7, 3773.7493, -0.013017667, 0.09460242, -519463.63, 14734.354, 0.0, 10.00076, 9.998696 
6.85093e+2, 2.554893e+2, -405520.0, -570812.8, -4949.9277, -0.03510384, 0.07528707, -405371.9, 30840.168, 0.0, 10.000876, 9.998683 
6.851101e+2, 2.6548764e+2, -314228.4, -562978.3, 2157.9646, -0.039237577, 0.083120935, -314209.66, 24019.822, 0.0, 10.001205, 9.997906 
6.8512744e+2, 2.754858e+2, -139541.33, -423204.34, 14665.406, -0.027756583, 0.10743077, -138785.14, 101464.76, 0.0, 10.001712, 9.997949 
6.851448e+2, 2.854839e+2, -3987.276, -280449.13, 19157.46, -0.023736944, 0.10942677, -2666.0713, 139603.31, 0.0, 10.001855, 9.998187 
6.8516207e+2, 2.9548195e+2, 69249.99, -197603.86, 9900.094, -0.027186688, 0.095392704, 69616.77, 113904.37, 0.0000000009738006, 10.0016985, 9.9981575 
6.851787e+2, 3.0548057e+2, 129514.805, -155276.8, -14528.559, -0.060999308, 0.14979985, 130254.055, 130254.055, 0.00000022618863, 10.001827, 9.998053 
6.851962e+2, 3.15478e+2, 216916.25, -60061.887, -3082.848, 0.020297661, 0.085541, 216950.56, 216950.56, 0.0000018666766, 10.002199, 9.998528 
6.948725e+2, 1.254801e+2, -1886062.4, -1766449.4, -10511.462, -0.1100758, 0.09409765, -1765532.6, -55227.844, 0.0, 9.998712, 10.000258 
6.948941e+2, 1.3548046e+2, -1730672.4, -1676531.3, 43700.08, 0.16445185, 0.13601972, -1652196.5, -39892.645, 0.0, 9.999224, 9.999974 
6.94908e+2, 1.454802e+2, -1581563.4, -1519606.1, -46641.95, -0.2385919, 0.098525554, -1494592.4, 19714.363, 0.0, 9.999443, 10.000262 
6.949265e+2, 1.5548061e+2, -1491328.8, -1427533.9, -38461.05, -0.03708432, 0.11252611, -1409464.3, 6836.9863, 0.0, 9.999401, 10.00024 
6.949437e+2, 1.6548057e+2, -1419936.8, -1418664.0, -28354.254, 0.029733878, 0.12291346, -1390939.0, -72638.04, 0.0, 9.999547, 9.999558 
6.9495964e+2, 1.754801e+2, -1275895.0, -1295699.6, -39019.31, -0.050001957, 0.11889211, -1245541.1, -25235.39, 0.0, 9.99985, 9.999583 
6.949759e+2, 1.8547939e+2, -1164639.9, -1197339.6, -53958.004, -0.079892084, 0.09252545, -1124609.1, -2297.5234, 0.0, 9.999968, 9.99953 
6.949924e+2, 1.9547845e+2, -1071240.1, -1101855.3, -43198.78, -0.056798667, 0.046282105, -1040716.94, -16398.762, 0.0, 9.999937, 9.999526 
6.950092e+2, 2.0547777e+2, -996073.25, -1083584.8, -24482.887, -0.03764446, 0.056855306, -989689.44, -63364.547, 0.0, 10.000075, 9.998914 
6.9502604e+2, 2.1547721e+2, -855464.6, -962119.8, -27218.89, -0.025645444, 0.110163204, -848919.9, -20587.992, 0.0, 10.000355, 9.9989395 
6.950428e+2, 2.2547613e+2, -725694.5, -841450.9, -22898.404, -0.02900232, 0.10613155, -721329.44, 9012.794, 0.0, 10.000541, 9.999006 
6.9505936e+2, 2.3547462e+2, -612083.7, -736064.4, -10375.253, -0.044217482, 0.051187202, -611221.44, 21133.982, 0.0, 10.0006485, 9.999005 
6.950765e+2, 2.4547328e+2, -535947.5, -709388.06, 7871.66, -0.038043458, 0.047525093, -535590.94, -1222.6201, 0.0, 10.00076, 9.998461 
6.95094e+2, 2.554721e+2, -419860.8, -600774.1, 132.42525, -0.014311767, 0.08213515, -419860.72, 16520.354, 0.0, 10.000876, 9.998477 
6.951115e+2, 2.654706e+2, -290674.94, -513403.13, 21159.148, -0.018579174, 0.094700396, -288682.66, 49714.375, 0.0, 10.001203, 9.998247 
6.95129e+2, 2.754687e+2, -118822.48, -378321.56, 32482.738, -0.045625348, 0.083063506, -114818.24, 125597.68, 0.0, 10.001704, 9.9982605 
6.9514656e+2, 2.8546676e+2, -19480.684, -311527.38, 13030.706, -0.033916105, 0.079234995, -18900.426, 123535.25, 0.0, 10.00185, 9.997976 
6.9516414e+2, 2.954648e+2, 55998.12, -225765.14, 5038.6675, 0.009441377, 0.08431338, 56088.2, 100543.8, 0.000000000021633938, 10.001701, 9.997964 
6.9518083e+2, 3.0546373e+2, 138208.25, -137252.19, -824.9197, -0.031843435, 0.1734586, 138210.72, 138210.72, 0.00000014519733, 10.001828, 9.998177 
6.951981e+2, 3.154613e+2, 235775.02, -18842.742, 8794.282, -0.0083426, 0.106479906, 236078.4, 236078.4, 0.0000015881137, 10.002191, 9.998815 
7.0487154e+2, 1.25462e+2, -1854278.4, -1766325.8, -63926.844, -0.090950124, 0.07837299, -1732709.8, -22228.654, 0.0, 9.998995, 10.000122 
7.0489305e+2, 1.3546245e+2, -1753478.6, -1693302.8, 46039.715, 0.14467534, 0.13587628, -1668391.3, -55911.01, 0.0, 9.999093, 9.999922 
7.049074e+2, 1.4546213e+2, -1597649.4, -1515298.1, -45684.98, -0.2348815, 0.09036298, -1494971.3, 19512.611, 0.0, 9.999283, 10.000368 
7.0492613e+2, 1.5546268e+2, -1459742.6, -1401089.4, -62041.86, -0.021982254, 0.10818845, -1361792.0, 54684.57, 0.0, 9.999571, 10.0003395 
7.0494336e+2, 1.6546273e+2, -1410817.4, -1413284.1, -53428.695, 0.03606625, 0.12176454, -1358607.9, -40132.324, 0.0, 9.999607, 9.999565 
7.0495915e+2, 1.7546229e+2, -1336644.0, -1323388.6, -42250.727, -0.06612207, 0.11965331, -1287249.0, -66768.49, 0.0, 9.999429, 9.999596 
7.049754e+2, 1.8546166e+2, -1222243.5, -1213795.6, -50109.004, -0.09793963, 0.09605059, -1167732.9, -45247.15, 0.0, 9.999525, 9.999629 
7.0499223e+2, 1.9546087e+2, -1076996.1, -1094148.5, -51385.066, -0.060675286, 0.053887885, -1033476.44, -8985.415, 0.0, 9.999853, 9.9996195 
7.050092e+2, 2.0546024e+2, -996157.5, -1081026.9, -31848.328, -0.035757147, 0.06482783, -985535.44, -59038.32, 0.0, 10.000064, 9.998937 
7.050263e+2, 2.1545967e+2, -879306.56, -970601.56, -26821.398, -0.02473789, 0.11454588, -872009.94, -43505.74, 0.0, 10.000179, 9.998966 
7.050432e+2, 2.2545864e+2, -745847.94, -840085.75, -28280.896, -0.027794456, 0.10836849, -738012.3, -7498.344, 0.0, 10.000355, 9.9991045 
7.0506006e+2, 2.354572e+2, -615167.56, -727106.94, -31474.266, -0.041645363, 0.053275928, -606924.9, 25601.158, 0.0, 10.000583, 9.999098 
7.050773e+2, 2.4545589e+2, -529605.0, -704981.9, -10430.915, -0.03765578, 0.046714913, -528986.8, 5551.7925, 0.0, 10.000799, 9.998472 
7.050949e+2, 2.5545466e+2, -399978.6, -589375.8, -405.0701, -0.01941873, 0.07601416, -399977.72, 36574.043, 0.0, 10.001006, 9.998493 
7.0511264e+2, 2.6545325e+2, -289186.2, -499174.4, 24958.07, -0.02106401, 0.09149114, -286260.56, 52306.05, 0.0, 10.001155, 9.998368 
7.051305e+2, 2.754516e+2, -175524.88, -392672.53, 19867.701, -0.038298134, 0.090339035, -173722.06, 66861.01, 0.0, 10.001259, 9.998376 
7.0514834e+2, 2.8544968e+2, -70764.37, -339163.22, -5959.0234, -0.024535887, 0.08423237, -70632.13, 71970.61, 0.0, 10.001511, 9.99795 
7.05166e+2, 2.9544756e+2, 80937.9, -216914.31, -927.392, 0.0140239755, 0.07498504, 80940.79, 125565.51, 0.0, 10.001886, 9.997935 
7.051828e+2, 3.0544654e+2, 168201.22, -128813.8, -5200.255, -0.029761896, 0.1722519, 168292.23, 168292.23, 0.00000008201181, 10.00206, 9.998122 
7.052002e+2, 3.1544393e+2, 227854.13, -6562.671, -10475.215, -0.009473254, 0.098540924, 228321.3, 228321.3, 0.0000012936833, 10.002067, 9.99896 
7.148706e+2, 1.2544344e+2, -1825037.8, -1706257.1, -74572.305, -0.08518721, 0.08317378, -1670315.3, 40349.715, 0.0, 9.998997, 10.000534 
7.1489197e+2, 1.3544454e+2, -1720244.5, -1625017.4, 50417.695, 0.12947746, 0.15540469, -1603284.0, 9371.763, 0.0, 9.999096, 10.000389 
7.1490675e+2, 1.4544427e+2, -1613863.4, -1549476.0, -34953.035, -0.22886045, 0.10562707, -1534149.6, -19491.002, 0.0, 9.999285, 10.000133 
7.149256e+2, 1.5544465e+2, -1475032.1, -1432308.6, -51722.984, -0.030244848, 0.12972979, -1397709.8, 18944.76, 0.0, 9.999569, 10.000126 
7.149428e+2, 1.6544463e+2, -1389825.6, -1369339.4, -60147.285, 0.022553913, 0.12984805, -1318569.3, 84.88206, 0.0, 9.999605, 9.999868 
7.149584e+2, 1.7544419e+2, -1316373.1, -1281596.6, -47912.957, -0.07617721, 0.0978588, -1248014.3, -27356.469, 0.0, 9.99943, 9.999882 
7.1497494e+2, 1.8544385e+2, -1226723.1, -1223161.1, -37847.195, -0.09807155, 0.09291076, -1187053.0, -64392.727, 0.0, 9.999524, 9.999565 
7.149922e+2, 1.9544359e+2, -1081075.9, -1102369.8, -39472.836, -0.045019217, 0.11032227, -1050839.3, -26177.537, 0.0, 9.999851, 9.999564 
7.1500933e+2, 2.0544279e+2, -987416.1, -1062785.5, -27838.111, -0.029468074, 0.09990327, -978248.94, -51579.75, 0.0, 10.000063, 9.999063 
7.1502626e+2, 2.1544145e+2, -871191.6, -953841.3, -22460.133, -0.048902918, 0.06045077, -865482.44, -36800.4, 0.0, 10.000179, 9.999082 
7.150435e+2, 2.2544049e+2, -753283.44, -855585.44, -19979.164, -0.04074832, 0.0612014, -749520.0, -18828.793, 0.0, 10.000355, 9.998999 
7.150609e+2, 2.354398e+2, -621494.8, -740253.0, -22860.893, -0.008209993, 0.09282926, -617246.1, 15451.367, 0.0, 10.000583, 9.999008 
7.150783e+2, 2.4543864e+2, -512519.63, -669433.7, -2683.0125, -0.012924235, 0.091141716, -512473.78, 22234.889, 0.0, 10.000798, 9.998716 
7.150956e+2, 2.5543702e+2, -384219.25, -556480.06, 7169.4966, -0.04965896, 0.05757196, -383921.38, 52802.656, 0.0, 10.001005, 9.99872 
7.151135e+2, 2.6543567e+2, -295579.53, -512354.47, 28716.3, -0.046228137, 0.07382945, -291839.97, 46898.18, 0.0, 10.001154, 9.998278 
7.15132e+2, 2.7543452e+2, -181179.36, -403978.8, 24389.83, -0.008121658, 0.12728044, -178540.66, 62210.67, 0.0, 10.001257, 9.9983 
7.1515e+2, 2.854326e+2, -61399.6, -318492.75, 7973.4717, 0.0026200851, 0.12247822, -61152.55, 81618.05, 0.0, 10.001506, 9.998095 
7.151675e+2, 2.9543018e+2, 88605.91, -199022.0, 12493.262, -0.01143819, 0.067513295, 89147.54, 133942.44, 0.0, 10.001878, 9.998062 
7.1518457e+2, 3.0542892e+2, 152383.86, -160668.33, -4932.1885, -0.053245153, 0.14786689, 152461.55, 152461.55, 0.00000004119849, 10.002055, 9.997907 
7.1520245e+2, 3.1542605e+2, 227881.06, -6836.6187, -11103.73, 0.011936829, 0.06573345, 228405.17, 228405.17, 0.0000010048329, 10.002067, 9.998959 
7.2486967e+2, 1.2542517e+2, -1803388.0, -1684058.6, -66743.17, -0.07622922, 0.09529108, -1654199.4, 56646.21, 0.0, 9.999094, 10.00064 
7.24891e+2, 1.3542649e+2, -1702268.4, -1594633.1, 47203.707, 0.119345084, 0.17104776, -1576864.9, 35968.055, 0.0, 9.999126, 10.000583 
7.24906e+2, 1.4542624e+2, -1632246.0, -1560536.4, -35459.316, -0.21982194, 0.112894386, -1545963.8, -31128.025, 0.0, 9.999169, 10.000112 
7.2492486e+2, 1.5542659e+2, -1523350.4, -1457606.4, -36428.414, -0.042724844, 0.1378045, -1441411.1, -24578.805, 0.0, 9.999247, 10.000108 
7.2494215e+2, 1.6542664e+2, -1423613.4, -1370145.1, -52898.32, 0.008860623, 0.13705423, -1337609.1, -18777.865, 0.0, 9.999307, 10.000007 
7.249579e+2, 1.7542632e+2, -1317709.3, -1268070.5, -52936.105, -0.070865415, 0.10325795, -1234424.3, -13590.951, 0.0, 9.99936, 10.000009 
7.249745e+2, 1.8542603e+2, -1238449.8, -1238092.1, -37850.285, -0.088455744, 0.10200585, -1200420.3, -77584.766, 0.0, 9.999484, 9.999482 
7.24992e+2, 1.9542576e+2, -1112371.0, -1125459.1, -41059.844, -0.044963077, 0.1271378, -1077337.0, -52499.25, 0.0, 9.999672, 9.999492 
7.2500926e+2, 2.0542492e+2, -1006857.0, -1053012.6, -32307.725, -0.033466294, 0.109327145, -990231.25, -63386.184, 0.0, 9.999847, 9.999233 
7.250263e+2, 2.1542358e+2, -884435.4, -942402.75, -23586.322, -0.051814377, 0.050437737, -876051.06, -47194.27, 0.0, 10.000011, 9.999241 
7.250437e+2, 2.2542262e+2, -775117.7, -873481.25, -13972.0625, -0.04342217, 0.048550636, -773171.5, -42305.883, 0.0, 10.000237, 9.998933 
7.250615e+2, 2.3542199e+2, -634800.7, -753087.75, -14487.234, -0.011658736, 0.09068281, -633052.2, -180.00381, 0.0, 10.000519, 9.998951 
7.250791e+2, 2.4542089e+2, -511419.47, -651856.0, 676.06506, -0.010372897, 0.09017099, -511416.22, 23466.453, 0.0, 10.000732, 9.998869 
7.2509664e+2, 2.5541934e+2, -391035.6, -543296.06, 3750.5015, -0.035090376, 0.050467525, -390943.28, 45953.16, 0.0, 10.000888, 9.998867 
7.2511476e+2, 2.6541805e+2, -311220.3, -522222.5, 23826.543, -0.0353335, 0.065626256, -308563.25, 30346.617, 0.0, 10.001058, 9.998257 
7.2513324e+2, 2.7541688e+2, -185206.33, -408486.94, 24146.9, -0.014881322, 0.12212666, -182624.78, 58298.477, 0.0, 10.00124, 9.998277 
7.251514e+2, 2.8541505e+2, -79143.88, -325057.84, 8366.493, -0.0026450148, 0.120185524, -78859.56, 64082.953, 0.0, 10.001374, 9.998113 
7.2516936e+2, 2.9541263e+2, 31791.916, -224282.61, 3650.1948, 0.0019807175, 0.06742881, 31843.938, 76810.62, 0.0, 10.001479, 9.998081 
7.2518665e+2, 3.054113e+2, 107416.73, -189546.56, -11595.067, -0.0365738, 0.14259575, 107868.77, 107868.77, 0.000000018939705, 10.001779, 9.997842 
7.2520465e+2, 3.1540826e+2, 263724.88, 26772.203, -8929.82, 0.014345153, 0.051257517, 264060.9, 264060.9, 0.0000007295325, 10.002245, 9.999103 
7.348688e+2, 1.2540723e+2, -1819022.1, -1716388.5, -75483.336, -0.068641834, 0.11459971, -1676430.1, 34592.516, 0.0, 9.999092, 10.000419 
7.3489004e+2, 1.3540837e+2, -1709380.4, -1608337.1, 48411.53, 0.11466778, 0.18399207, -1588886.6, 24124.984, 0.0, 9.999122, 10.00049 
7.349053e+2, 1.4540805e+2, -1618733.4, -1531798.8, -32538.209, -0.20733702, 0.11311117, -1520969.3, -5954.6187, 0.0, 9.999166, 10.00031 
7.349239e+2, 1.5540853e+2, -1510334.5, -1430763.9, -32973.16, -0.06165691, 0.131144, -1418876.1, -1866.376, 0.0, 9.999247, 10.000292 
7.349413e+2, 1.6540875e+2, -1426121.8, -1375858.0, -50900.008, -0.0069945413, 0.14239193, -1344223.5, -25216.615, 0.0, 9.999308, 9.999967 
7.3495746e+2, 1.7540868e+2, -1320677.4, -1274293.0, -50724.23, -0.050031174, 0.13662192, -1241710.5, -20703.818, 0.0, 9.999359, 9.999967 
7.349742e+2, 1.854082e+2, -1245743.1, -1253086.9, -31002.832, -0.069095165, 0.124271326, -1218195.5, -95184.66, 0.0, 9.999483, 9.99938 
7.349915e+2, 1.9540739e+2, -1118640.1, -1138575.0, -34097.38, -0.06104794, 0.10445854, -1093083.3, -68064.375, 0.0, 9.999672, 9.999402 
7.350089e+2, 2.054067e+2, -991886.8, -1022060.2, -26448.244, -0.0485207, 0.09273053, -976524.9, -49500.313, 0.0, 9.999847, 9.999446 
7.350265e+2, 2.1540605e+2, -870064.4, -912725.9, -17469.113, -0.034380585, 0.08354654, -863823.94, -34795.4, 0.0, 10.000011, 9.999445 
7.35044e+2, 2.2540507e+2, -777364.06, -878299.9, -3616.6694, -0.03636791, 0.07005614, -777234.6, -46197.438, 0.0, 10.000237, 9.998899 
7.350615e+2, 2.3540375e+2, -636893.94, -757458.5, -4105.4946, -0.051305726, 0.048493814, -636754.3, -3704.3174, 0.0, 10.000519, 9.998921 
7.350796e+2, 2.4540263e+2, -506895.47, -642339.3, 6355.739, -0.030125048, 0.04498137, -506597.88, 28462.56, 0.0, 10.000731, 9.998936 
7.3509806e+2, 2.5540167e+2, -386484.0, -533463.06, 9529.098, 0.021525206, 0.053710755, -385868.75, 51200.19, 0.0, 10.000886, 9.998935 
7.351162e+2, 2.6540038e+2, -308453.84, -516213.63, 30425.98, 0.009627924, 0.06656316, -304089.72, 34992.074, 0.0, 10.001056, 9.998299 
7.35134e+2, 2.753988e+2, -182882.23, -403857.1, 30768.492, -0.05659185, 0.077826604, -178678.03, 62420.54, 0.0, 10.001241, 9.998309 
7.351524e+2, 2.8539696e+2, -85944.76, -339593.38, 12146.156, -0.03900472, 0.07977477, -85364.46, 57753.727, 0.0, 10.001376, 9.998013 
7.351713e+2, 2.9539493e+2, 25655.791, -236818.2, 8352.656, 0.04998802, 0.07351179, 25921.328, 71061.3, 0.0, 10.001477, 9.997995 
7.3518896e+2, 3.0539364e+2, 111151.766, -180406.27, 5570.355, 0.015798885, 0.15501352, 111258.15, 111258.15, 0.0000000073965225, 10.001772, 9.997908 
7.3520666e+2, 3.153906e+2, 280180.16, 63688.4, 6689.7124, -0.0028572371, 0.05389561, 280386.66, 280386.66, 0.0000004773962, 10.0022335, 9.999362 
7.448679e+2, 1.2538937e+2, -1826719.4, -1726719.4, -71517.08, -0.06930576, 0.13144684, -1689457.1, 21741.402, 0.0, 9.999069, 10.000359 
7.44889e+2, 1.3539039e+2, -1703701.1, -1601082.1, 70227.77, 0.10211537, 0.1832227, -1565416.9, 47771.49, 0.0, 9.999142, 10.00053 
7.449046e+2, 1.4539005e+2, -1622666.3, -1529487.5, -13547.76, -0.19205958, 0.10707991, -1527557.8, -12366.305, 0.0, 9.99912, 10.000349 
7.4492306e+2, 1.553907e+2, -1533829.6, -1438703.8, -25188.73, -0.060553458, 0.13822381, -1432445.6, -15260.677, 0.0, 9.999071, 10.000321 
7.449405e+2, 1.6539092e+2, -1444987.4, -1392429.1, -43700.9, -0.0074661397, 0.15196219, -1367714.5, -48532.5, 0.0, 9.999211, 9.9999 
7.44957e+2, 1.753907e+2, -1303162.4, -1273521.6, -46246.12, -0.038032454, 0.13909978, -1239779.3, -18596.04, 0.0, 9.999513, 9.999898 
7.4497384e+2, 1.8539017e+2, -1222502.6, -1240926.6, -26198.113, -0.059688967, 0.12353825, -1203944.1, -80756.18, 0.0, 9.999638, 9.999389 
7.44991e+2, 1.9538938e+2, -1126532.4, -1141824.9, -20888.313, -0.0684391, 0.1044378, -1111934.8, -86739.02, 0.0, 9.999615, 9.999408 
7.4500865e+2, 2.053887e+2, -1007420.06, -1032923.6, -14066.74, -0.055812642, 0.097251505, -1001185.5, -73984.305, 0.0, 9.999756, 9.999415 
7.450265e+2, 2.1538809e+2, -867884.6, -914407.4, -23699.635, -0.026899485, 0.095137924, -857938.06, -28733.2, 0.0, 10.000038, 9.99942 
7.450443e+2, 2.253871e+2, -767746.6, -860726.9, -12653.611, -0.027447902, 0.075496, -766055.3, -34842.066, 0.0, 10.000248, 9.999016 
7.4506193e+2, 2.3538575e+2, -648151.5, -750848.8, -2327.295, -0.05245831, 0.037486367, -648098.75, -14872.976, 0.0, 10.00039, 9.999028 
7.450802e+2, 2.453846e+2, -533044.0, -666059.25, 6673.9214, -0.03604809, 0.032344274, -532710.0, 2526.3196, 0.0, 10.000601, 9.998835 
7.450989e+2, 2.5538364e+2, -395357.78, -548735.56, -3097.0107, 0.015012437, 0.05138, -395295.25, 41950.03, 0.0, 10.000873, 9.9988365 
7.4511725e+2, 2.653823e+2, -302558.16, -506681.78, 10818.924, 0.007743826, 0.059955977, -301986.3, 37272.316, 0.0, 10.001067, 9.99836 
7.451353e+2, 2.753806e+2, -183811.45, -397700.2, 12501.788, -0.048708674, 0.055086546, -183083.2, 58192.684, 0.0, 10.001206, 9.998367 
7.4515384e+2, 2.8537884e+2, -86264.664, -343004.72, -2505.5723, -0.029799966, 0.061884776, -86240.22, 57054.77, 0.0, 10.001389, 9.997982 
7.4517286e+2, 2.95377e+2, 41505.016, -232927.3, -1456.7566, 0.052676376, 0.07750146, 41512.75, 86828.27, 0.0, 10.001602, 9.997962 
7.4519074e+2, 3.0537564e+2, 100070.93, -194731.17, -3630.87, 0.019735191, 0.15795657, 100115.65, 100115.65, 0.0000000015345106, 10.001735, 9.997827 
7.452088e+2, 3.1537265e+2, 226681.27, 49130.9, -14509.171, 0.0051523196, 0.071865514, 227859.13, 227859.13, 0.00000026410652, 10.001818, 9.999461 
7.5486684e+2, 1.2537168e+2, -1821624.3, -1715404.4, -75342.46, -0.08289245, 0.149587, -1676334.4, 35038.117, 0.0, 9.999065, 10.000439 
7.5488794e+2, 1.3537253e+2, -1692531.3, -1577287.8, 72578.195, 0.078916945, 0.16713797, -1542238.8, 71124.38, 0.0, 9.99914, 10.000694 
7.5490385e+2, 1.4537224e+2, -1631310.0, -1547726.1, -15903.478, -0.17591159, 0.0935999, -1544802.5, -29436.74, 0.0, 9.999121, 10.000223 
7.5492233e+2, 1.5537311e+2, -1542317.1, -1456552.1, -26269.445, -0.03895225, 0.16063264, -1449145.6, -31788.318, 0.0, 9.999071, 10.000199 
7.5493985e+2, 1.6537315e+2, -1451946.6, -1407105.6, -32405.334, 0.007894563, 0.16717467, -1390120.8, -70764.41, 0.0, 9.999212, 9.999799 
7.549565e+2, 1.7537239e+2, -1309504.1, -1287086.3, -35314.367, -0.035879917, 0.109831415, -1261244.6, -39881.824, 0.0, 9.999514, 9.9998045 
7.549734e+2, 1.8537192e+2, -1214139.5, -1223865.0, -27296.6, -0.061676472, 0.09880661, -1191275.9, -67909.21, 0.0, 9.999639, 9.999506 
7.5499064e+2, 1.953717e+2, -1119369.0, -1127153.3, -21506.64, -0.06754025, 0.12682238, -1101405.1, -76036.7, 0.0, 9.999615, 9.999508 
7.5500834e+2, 2.0537098e+2, -1026825.7, -1073289.8, -3777.2566, -0.055502106, 0.123068884, -1026520.6, -99145.78, 0.0, 9.999755, 9.999139 
7.550266e+2, 2.1536975e+2, -885769.1, -951692.94, -13437.434, -0.029680874, 0.085781485, -883135.4, -53749.766, 0.0, 10.000038, 9.999165 
7.5504464e+2, 2.2536875e+2, -749322.2, -822595.44, -7504.956, -0.017626526, 0.06506255, -748561.4, -17167.627, 0.0, 10.000248, 9.999277 
7.550627e+2, 2.3536795e+2, -631143.25, -715636.94, 2945.9856, -0.01675917, 0.0562398, -631040.7, 2358.9602, 0.0, 10.00039, 9.99927 
7.550809e+2, 2.453668e+2, -551669.25, -704877.1, 16738.996, -0.028738718, 0.05125512, -549861.75, -14451.481, 0.0, 10.000601, 9.998569 
7.5509906e+2, 2.5536528e+2, -413310.1, -586103.25, 7019.331, -0.05228416, 0.044674143, -413025.44, 24399.713, 0.0, 10.000872, 9.998581 
7.551178e+2, 2.653638e+2, -297299.16, -495588.9, 15999.274, -0.039732043, 0.046558205, -296016.5, 43423.605, 0.0, 10.001066, 9.998436 
7.55137e+2, 2.753623e+2, -178940.73, -386258.2, 18140.855, 0.0044637695, 0.051725343, -177365.33, 64089.875, 0.0, 10.0012, 9.998449 
7.5515574e+2, 2.8536066e+2, -84818.2, -338357.28, 5530.5464, 0.021095004, 0.064684376, -84697.62, 58775.266, 0.0, 10.001381, 9.998018 
7.5517404e+2, 2.9535887e+2, 42680.95, -230084.22, 6472.7944, 0.012917323, 0.08146297, 42834.465, 88327.445, 0.0, 10.0016, 9.997983 
7.5519204e+2, 3.0535734e+2, 84967.85, -226210.98, -337.51505, -0.021892898, 0.15362526, 84968.21, 84968.21, 0.00000000001992495, 10.001735, 9.997611 
7.552109e+2, 3.1535447e+2, 222144.78, 41069.94, -11308.429, 0.032548465, 0.100845985, 222848.28, 222848.28, 0.000000109993245, 10.001811, 9.99941 
7.648658e+2, 1.2535387e+2, -1824894.0, -1727483.0, -68794.74, -0.08547761, 0.14321072, -1691897.6, 19648.998, 0.0, 9.999086, 10.000346 
7.6488686e+2, 1.3535483e+2, -1696783.8, -1580073.0, 69707.49, 0.06433515, 0.17294966, -1547519.1, 66017.67, 0.0, 9.999114, 10.000688 
7.649031e+2, 1.4535454e+2, -1626379.4, -1552093.4, -21672.43, -0.16066766, 0.1027084, -1546232.9, -30693.502, 0.0, 9.999184, 10.000163 
7.6492155e+2, 1.5535526e+2, -1506667.4, -1447020.9, -27245.848, -0.032109693, 0.1595142, -1436449.0, -18916.918, 0.0, 9.999348, 10.000133 
7.649391e+2, 1.6535516e+2, -1421576.6, -1402037.4, -25817.555, 0.006660084, 0.16044173, -1384202.8, -64670.383, 0.0, 9.99946, 9.999715 
7.6495594e+2, 1.753543e+2, -1312389.1, -1297630.8, -27619.703, -0.043217085, 0.10301554, -1276421.5, -54881.453, 0.0, 9.999533, 9.999723 
7.6497304e+2, 1.8535383e+2, -1210970.8, -1227838.9, -28732.707, -0.06310362, 0.09805733, -1189459.9, -65915.67, 0.0, 9.999684, 9.999456 
7.6499057e+2, 1.9535369e+2, -1081115.1, -1114467.4, -35571.457, -0.053243183, 0.13683368, -1058504.8, -32959.37, 0.0, 9.999903, 9.999456 
7.650084e+2, 2.0535287e+2, -989172.0, -1057755.0, -10948.413, -0.046353884, 0.13035963, -987466.6, -59914.31, 0.0, 10.000026, 9.999115 
7.6502645e+2, 2.1535149e+2, -884330.3, -954167.6, -1900.9116, -0.043591768, 0.07893292, -884278.56, -54714.18, 0.0, 10.000063, 9.999136 
7.6504475e+2, 2.2535045e+2, -759119.94, -838560.1, -32.12857, -0.028163636, 0.0609064, -759119.94, -27546.855, 0.0, 10.00023, 9.999176 
7.650633e+2, 2.3534971e+2, -620228.4, -721605.6, -17209.773, -0.0012177164, 0.06935525, -617386.5, 16192.402, 0.0, 10.000514, 9.999169 
7.650816e+2, 2.4534853e+2, -533891.0, -693344.6, -4995.4976, -0.014996919, 0.06452775, -533734.7, 1855.1357, 0.0, 10.0007105, 9.998595 
7.6509976e+2, 2.553469e+2, -416850.13, -584770.0, 6590.8384, -0.0645664, 0.04320792, -416591.84, 21013.44, 0.0, 10.000835, 9.998607 
7.651187e+2, 2.653454e+2, -318498.38, -510417.5, 17974.645, -0.04803448, 0.04367158, -316829.44, 22790.969, 0.0, 10.000941, 9.998394 
7.651383e+2, 2.7534395e+2, -207009.92, -404660.25, 11024.847, 0.026094798, 0.05900686, -206396.88, 35238.46, 0.0, 10.001028, 9.998405 
7.6515716e+2, 2.853423e+2, -110408.78, -343922.13, -1066.4681, 0.03865197, 0.07361537, -110403.914, 33248.816, 0.0, 10.001175, 9.998079 
7.6517534e+2, 2.953405e+2, 16028.99, -236348.31, 1435.1427, -0.0030333921, 0.084280744, 16037.15, 61709.617, 0.0, 10.001389, 9.998042 
7.6519346e+2, 3.0533877e+2, 62675.508, -241171.92, -241.96234, -0.03905278, 0.1345377, 62675.7, 62675.7, 0.0, 10.001599, 9.997573 
7.652127e+2, 3.1533608e+2, 225679.69, 50435.785, 218.2075, 0.03794174, 0.10371469, 225679.97, 225679.97, 0.000000028836135, 10.001801, 9.999479 
7.74865e+2, 1.2533595e+2, -1844520.9, -1766855.1, -71082.41, -0.08111017, 0.112327844, -1724689.9, -12968.819, 0.00000000003061157, 9.99908, 10.00008 
7.7488595e+2, 1.3533734e+2, -1709438.9, -1605818.8, 70269.086, 0.057841495, 0.20278163, -1570324.6, 43384.176, 0.0, 9.999113, 10.000511 
7.7490246e+2, 1.4533699e+2, -1625961.8, -1552301.9, -16203.599, -0.14701568, 0.13651022, -1548895.0, -33182.992, 0.0, 9.999187, 10.00016 
7.749208e+2, 1.553371e+2, -1506924.8, -1448339.4, -21218.012, -0.041239668, 0.13383183, -1441462.1, -23752.65, 0.0, 9.999351, 10.000122 
7.749384e+2, 1.6533695e+2, -1426065.6, -1411714.6, -23422.584, -0.0126850335, 0.13076136, -1394393.1, -74682.766, 0.0, 9.999461, 9.999648 
7.749553e+2, 1.7533647e+2, -1317243.0, -1307786.8, -24750.65, -0.060760237, 0.11917234, -1287316.6, -65601.914, 0.0, 9.999533, 9.999654 
7.7497274e+2, 1.8533593e+2, -1226446.5, -1259866.5, -20753.229, -0.06438555, 0.12214373, -1216512.3, -92792.12, 0.0, 9.999683, 9.999238 
7.7499074e+2, 1.953353e+2, -1095489.1, -1144376.8, -27794.344, -0.025886664, 0.13477874, -1082919.1, -57192.52, 0.0, 9.999902, 9.999252 
7.7500856e+2, 2.0533442e+2, -973361.06, -1024993.3, -9893.683, -0.028948756, 0.119082086, -971530.2, -43796.64, 0.0, 10.000025, 9.99934 
7.7502626e+2, 2.1533333e+2, -870368.0, -925272.9, -520.1696, -0.06894822, 0.07419123, -870363.06, -40621.867, 0.0, 10.000063, 9.999334 
7.750447e+2, 2.2533222e+2, -791682.44, -906377.1, 10303.668, -0.059179116, 0.062799305, -790764.2, -59013.016, 0.0, 10.000231, 9.998711 
7.750637e+2, 2.3533107e+2, -650871.8, -785405.7, -6622.106, -0.005678794, 0.07746428, -650546.7, -16783.402, 0.0, 10.000514, 9.998732 
7.750825e+2, 2.4532981e+2, -512210.13, -648334.9, -288.94244, 0.0041931923, 0.07251386, -512209.5, 23565.207, 0.0, 10.0007105, 9.998904 
7.7510095e+2, 2.5532848e+2, -396379.53, -541857.25, 11275.79, -0.02496231, 0.04587319, -395510.72, 42274.992, 0.0, 10.0008335, 9.998902 
7.7511996e+2, 2.6532707e+2, -329988.56, -533604.0, 21176.818, -0.019385973, 0.050421216, -327809.44, 11990.089, 0.0, 10.000937, 9.998237 
7.751393e+2, 2.753256e+2, -218011.86, -427443.03, 14732.203, 0.017592322, 0.078203015, -216980.61, 24835.357, 0.0, 10.001027, 9.99825 
7.751582e+2, 2.853239e+2, -104618.18, -331811.3, 7161.2974, 0.023706801, 0.08984223, -104392.68, 39441.496, 0.0, 10.001174, 9.998163 
7.7517676e+2, 2.95322e+2, 21363.518, -223492.11, 10132.852, 0.0013673388, 0.08451911, 21782.129, 67636.06, 0.0, 10.00138, 9.998135 
7.751951e+2, 3.0532002e+2, 69850.77, -223644.45, 7644.079, -0.035115197, 0.10079101, 70049.734, 70049.734, 0.0, 10.001588, 9.9977 
7.752143e+2, 3.153176e+2, 237975.6, 77366.31, 7241.4487, 0.020073552, 0.08185448, 238301.42, 238301.42, 0.0000000029769756, 10.001795, 9.999667 
7.8486407e+2, 1.2531795e+2, -1840913.6, -1777647.6, -93345.91, -0.08122256, 0.10314934, -1710720.5, 1176.7899, 0.0000000009851104, 9.999159, 9.999969 
7.8488487e+2, 1.3531938e+2, -1692177.5, -1601842.0, 59226.18, 0.042714138, 0.20453748, -1572525.8, 41359.06, 0.0, 9.99925, 10.000472 
7.8490174e+2, 1.4531906e+2, -1606644.6, -1542731.4, -18883.926, -0.1393581, 0.14148714, -1537568.9, -21680.969, 0.0, 9.999318, 10.000164 
7.8492016e+2, 1.55319e+2, -1494829.5, -1442453.3, -22398.918, -0.04649013, 0.122576535, -1434180.9, -16294.247, 0.0, 9.9994335, 10.000123 
7.849378e+2, 1.6531882e+2, -1416974.1, -1417741.1, -25975.3, -0.02131864, 0.121472746, -1391379.5, -71491.805, 0.0, 9.999569, 9.999555 
7.849549e+2, 1.7531845e+2, -1297020.5, -1309038.1, -29935.207, -0.06196405, 0.12923484, -1272497.0, -50605.57, 0.0, 9.999719, 9.999556 
7.849725e+2, 1.8531784e+2, -1207154.1, -1259080.9, -18859.27, -0.063474186, 0.1341423, -1201027.5, -77129.86, 0.0, 9.999852, 9.999162 
7.849906e+2, 1.9531699e+2, -1089658.6, -1149881.9, -15320.261, -0.029097054, 0.13312131, -1085985.4, -60079.31, 0.0, 9.999978, 9.999178 
7.850086e+2, 2.05316e+2, -964268.3, -1027009.94, -6497.086, -0.028459672, 0.11200139, -963602.6, -35688.59, 0.0, 10.000116, 9.999283 
7.850265e+2, 2.1531487e+2, -845544.6, -920204.06, -18432.2, -0.05708594, 0.06941467, -841242.0, -11320.207, 0.0, 10.000263, 9.999272 
7.85045e+2, 2.2531371e+2, -772478.2, -906768.0, 1956.4731, -0.051674586, 0.0614252, -772449.7, -40517.426, 0.0, 10.000405, 9.998623 
7.8506416e+2, 2.3531252e+2, -652168.56, -795286.7, 12475.878, -0.017011683, 0.08013328, -651089.1, -17143.9, 0.0, 10.000546, 9.998647 
7.850831e+2, 2.4531122e+2, -520226.25, -653724.94, 15319.861, -0.0025363753, 0.074433416, -518490.75, 17466.473, 0.0, 10.000663, 9.998889 
7.8510195e+2, 2.553098e+2, -408842.5, -549785.6, 2476.4236, -0.0061500934, 0.043240234, -408799.0, 29169.438, 0.0, 10.000756, 9.998885 
7.851209e+2, 2.6530835e+2, -341551.38, -537662.75, 7217.4487, -0.00500342, 0.04521304, -341286.13, -1303.6726, 0.0, 10.000852, 9.99825 
7.851401e+2, 2.7530688e+2, -227801.55, -430644.16, 13151.41, 0.0009688515, 0.07217216, -226952.42, 15046.668, 0.0, 10.000954, 9.998262 
7.851592e+2, 2.853053e+2, -122599.54, -337507.72, 10839.485, 0.011026936, 0.09169291, -122054.2, 21962.184, 0.0, 10.001039, 9.998189 
7.8517824e+2, 2.9530358e+2, -16855.773, -238824.58, 9341.051, 0.023917226, 0.101893015, -16463.371, 29570.953, 0.0, 10.001104, 9.998162 
7.851967e+2, 3.053014e+2, 23818.293, -236435.38, 5398.723, -0.0115393, 0.08984546, 23930.236, 23930.236, 0.0, 10.001232, 9.997783 
7.8521574e+2, 3.15299e+2, 191980.13, 67663.29, 601.8569, 0.008658755, 0.07038671, 191983.03, 191983.03, 0.0, 10.001426, 9.999779 
7.948631e+2, 1.2529989e+2, -1837767.6, -1772002.4, -91718.93, -0.09119691, 0.12078442, -1707449.8, 4625.17, 0.0000000034592607, 9.999162, 10.000007 
7.948839e+2, 1.3530098e+2, -1685432.5, -1587606.6, 61554.676, 0.018400276, 0.17748007, -1557897.4, 56167.47, 0.0, 9.999249, 10.000571 
7.949011e+2, 1.4530073e+2, -1605437.9, -1540121.8, -15561.157, -0.13826238, 0.116476156, -1536603.9, -20537.057, 0.0, 9.999317, 10.000182 
7.9491955e+2, 1.5530099e+2, -1493630.6, -1439896.1, -17861.133, -0.04881907, 0.12619562, -1434500.9, -16437.723, 0.0, 9.999433, 10.000141 
7.949374e+2, 1.6530083e+2, -1425679.6, -1436221.8, -20416.727, -0.0199709, 0.13351902, -1409864.5, -89800.3, 0.0, 9.99957, 9.999428 
7.949547e+2, 1.7530024e+2, -1305504.0, -1327137.4, -24356.477, -0.04672422, 0.13343164, -1289670.4, -67600.37, 0.0, 9.99972, 9.999432 
7.9497236e+2, 1.8529958e+2, -1202504.8, -1249526.3, -14449.387, -0.060899653, 0.13384414, -1198419.5, -74343.07, 0.0, 9.999852, 9.999228 
7.9499024e+2, 1.9529878e+2, -1086272.6, -1142437.5, -10782.221, -0.063471444, 0.13151276, -1084273.9, -58190.14, 0.0, 9.999976, 9.999229 
7.9500854e+2, 2.0529762e+2, -988374.5, -1076956.9, -1369.684, -0.045572564, 0.10916246, -988353.3, -60259.81, 0.0, 10.000115, 9.99894 
7.950272e+2, 2.1529612e+2, -868127.94, -967236.4, -13185.123, -0.009117385, 0.06489642, -866403.8, -36297.848, 0.0, 10.000263, 9.998949 
7.950459e+2, 2.2529495e+2, -752606.5, -865895.75, 6962.4844, -0.006749153, 0.056896597, -752180.2, -20063.92, 0.0, 10.000406, 9.998903 
7.9506445e+2, 2.3529406e+2, -633853.56, -757377.5, 17568.2, -0.0352238, 0.07708733, -631403.5, 2721.3992, 0.0, 10.000546, 9.998908 
7.9508346e+2, 2.4529271e+2, -543601.94, -702207.1, 18645.855, -0.034694344, 0.070431724, -541439.44, -5302.12, 0.0, 10.000662, 9.998557 
7.9510266e+2, 2.5529093e+2, -431262.6, -596236.56, 6188.9395, -0.008082408, 0.036536034, -431030.72, 7122.4434, 0.0, 10.000755, 9.998567 
7.951218e+2, 2.6528934e+2, -329539.16, -512462.47, 11058.129, -0.0052986527, 0.029206967, -328873.1, 11295.785, 0.0, 10.00085, 9.998425 
7.9514074e+2, 2.7528787e+2, -216473.67, -406362.28, 17138.502, -0.024220882, 0.040947564, -214939.22, 27245.445, 0.0, 10.00095, 9.998432 
7.9516006e+2, 2.8528652e+2, -125500.74, -342607.0, 13258.831, -0.0004696852, 0.07927959, -124694.016, 19505.4, 0.0, 10.001034, 9.998157 
7.9517967e+2, 2.9528528e+2, -18991.19, -243599.8, 11976.065, 0.061775114, 0.13780665, -18354.434, 27859.057, 0.0, 10.001105, 9.998129 
7.951984e+2, 3.0528286e+2, 27174.488, -230279.72, 12583.483, 0.028424013, 0.102437325, 27788.064, 27788.064, 0.0, 10.001234, 9.997825 
7.952171e+2, 3.1528035e+2, 194294.66, 73343.85, 7660.6055, 0.00052821677, 0.06267698, 194777.92, 194777.92, 0.0, 10.001421, 9.99982 
8.0486214e+2, 1.2528175e+2, -1840269.5, -1758800.1, -91866.07, -0.10033179, 0.13585131, -1699042.5, 13210.839, 0.0000000057252847, 9.999081, 10.000137 
8.0488294e+2, 1.3528271e+2, -1694456.6, -1573558.1, 66007.555, 0.003796083, 0.16226742, -1544502.6, 69740.516, 0.0, 9.999108, 10.000735 
8.0490047e+2, 1.4528254e+2, -1630216.4, -1569570.3, -10576.989, -0.12831236, 0.10708698, -1567778.5, -51533.96, 0.0, 9.999224, 10.000025 
8.04919e+2, 1.5528281e+2, -1497709.6, -1459061.8, -26346.525, -0.049435094, 0.13569638, -1445712.3, -27470.605, 0.0, 9.999478, 9.999988 
8.04937e+2, 1.6528259e+2, -1403107.1, -1418940.1, -28355.83, -0.022372264, 0.1419585, -1381583.4, -61340.207, 0.0, 9.999697, 9.999485 
8.049546e+2, 1.752819e+2, -1276725.1, -1307316.6, -18335.37, -0.042670324, 0.12380235, -1268143.1, -45894.152, 0.0, 9.999892, 9.999484 
8.049723e+2, 1.8528111e+2, -1183822.8, -1256638.9, -11717.051, -0.059910398, 0.11861949, -1181983.8, -57727.62, 0.0, 10.000051, 9.999083 
8.049902e+2, 1.9528022e+2, -1068396.4, -1150379.3, -24045.047, -0.073926546, 0.12186569, -1061864.6, -35599.887, 0.0, 10.000171, 9.999082 
8.0500865e+2, 2.0527898e+2, -971171.1, -1079714.6, -12167.001, -0.051566526, 0.10234886, -969824.0, -41548.227, 0.0, 10.000281, 9.99884 
8.0502766e+2, 2.1527737e+2, -856492.4, -972234.8, -6222.0405, 0.0026851383, 0.057952385, -856158.8, -25869.54, 0.0, 10.00039, 9.998854 
8.0504644e+2, 2.2527617e+2, -741416.9, -861203.56, 10482.356, 0.006325878, 0.05215027, -740506.5, -8206.621, 0.0, 10.000487, 9.998896 
8.05065e+2, 2.3527531e+2, -630612.3, -756978.44, -511.30194, -0.03483973, 0.07738748, -630610.25, 3697.6619, 0.0, 10.000574, 9.998897 
8.05084e+2, 2.4527389e+2, -548663.6, -713459.44, -453.407, -0.043752033, 0.06762259, -548662.4, -12341.277, 0.0, 10.000666, 9.998478 
8.051032e+2, 2.5527194e+2, -435527.94, -606830.06, 5224.7725, -0.024236895, 0.022702849, -435368.72, 2970.3013, 0.0, 10.000764, 9.998489 
8.051225e+2, 2.652703e+2, -336920.3, -514723.7, 10418.124, -0.011972527, 0.016218761, -336311.97, 4043.0771, 0.0, 10.000794, 9.998435 
8.051418e+2, 2.7526897e+2, -242051.31, -417614.53, 4410.885, -0.0060164393, 0.040173084, -241940.56, 428.9854, 0.0, 10.00077, 9.998441 
8.051612e+2, 2.8526768e+2, -142936.5, -351360.03, 1492.2386, 0.018146113, 0.08084576, -142925.81, 1458.2458, 0.0, 10.000916, 9.998153 
8.051808e+2, 2.9526633e+2, -3751.9946, -236688.22, 2025.8226, 0.058243405, 0.1321316, -3734.3777, 42664.516, 0.0, 10.001212, 9.998124 
8.051995e+2, 3.052638e+2, 36714.688, -227768.75, -3466.1028, 0.020371756, 0.08439991, 36760.105, 36760.105, 0.0, 10.001309, 9.997806 
8.052184e+2, 3.1526172e+2, 160657.88, 50063.133, -13599.09, -0.00078327605, 0.0929677, 162305.52, 162305.52, 0.0, 10.001221, 9.999756 
8.1486106e+2, 1.2526359e+2, -1824258.1, -1724947.1, -89482.305, -0.11391462, 0.15033397, -1672266.1, 40166.01, 0.000000004999778, 9.999078, 10.000371 
8.14882e+2, 1.3526464e+2, -1678336.4, -1538846.8, 66567.23, -0.0020911694, 0.15913142, -1512178.3, 102241.055, 0.0, 9.999104, 10.000975 
8.148998e+2, 1.4526448e+2, -1654442.8, -1620120.1, -1337.0671, -0.11060268, 0.11400816, -1620068.1, -103647.62, 0.0, 9.999224, 9.999679 
8.1491846e+2, 1.5526451e+2, -1520545.1, -1507292.6, -16585.664, -0.048486225, 0.15207261, -1496058.5, -77636.66, 0.0, 9.999481, 9.999656 
8.149366e+2, 1.6526414e+2, -1385705.4, -1383191.8, -21338.8, -0.02920425, 0.14702575, -1363072.8, -42648.28, 0.0, 9.999699, 9.999729 
8.1495434e+2, 1.7526339e+2, -1260841.4, -1273840.0, -11009.869, -0.050686598, 0.09970217, -1254555.6, -32127.193, 0.0, 9.99989, 9.999715 
8.149723e+2, 1.8526249e+2, -1209222.1, -1309031.0, -7268.5776, -0.061465994, 0.08827424, -1208695.5, -84259.055, 0.0, 10.000049, 9.998724 
8.1499046e+2, 1.9526137e+2, -1092616.5, -1200940.1, -19756.873, -0.060900286, 0.10461561, -1089125.6, -62676.883, 0.0, 10.000172, 9.998734 
8.15009e+2, 2.0526008e+2, -961543.94, -1060044.6, -8526.718, -0.04688595, 0.09159671, -960811.25, -32350.826, 0.0, 10.000282, 9.998975 
8.150278e+2, 2.1525863e+2, -847829.94, -954158.7, -2570.959, -0.02152529, 0.048490867, -847767.8, -17296.121, 0.0, 10.000389, 9.998978 
8.1504667e+2, 2.2525738e+2, -761596.8, -903276.06, 13303.856, -0.012421669, 0.047415875, -760358.4, -27875.557, 0.0, 10.000487, 9.998608 
8.1506574e+2, 2.3525633e+2, -650139.0, -797500.75, 2669.0774, -0.0171549, 0.08130162, -650090.7, -15596.698, 0.0, 10.000574, 9.998619 
8.1508476e+2, 2.4525478e+2, -537654.9, -690476.94, 3068.1533, -0.031202639, 0.06611948, -537593.3, -1084.9031, 0.0, 10.000665, 9.998636 
8.151037e+2, 2.5525278e+2, -425172.13, -585109.25, 8691.809, -0.054242898, 0.0014176763, -424701.16, 13824.789, 0.0, 10.000762, 9.99864 
8.1512314e+2, 2.6525128e+2, -347629.2, -536678.06, 9287.879, -0.02517251, 0.005984966, -347173.97, -6633.096, 0.0, 10.0007925, 9.998285 
8.1514305e+2, 2.7525023e+2, -252498.05, -438988.25, 4045.5115, 0.0514991, 0.069631465, -252410.33, -9856.673, 0.0, 10.000768, 9.998295 
8.1516254e+2, 2.852487e+2, -141793.45, -348052.9, 12785.363, 0.063395575, 0.09674703, -141003.95, 3566.1523, 0.0, 10.000911, 9.9981785 
8.1518155e+2, 2.9524678e+2, -3461.8564, -233957.47, 13354.097, 0.015305635, 0.086499475, -2690.7473, 43899.48, 0.0, 10.001202, 9.998149 
8.1520027e+2, 3.0524418e+2, 29434.842, -240324.61, -6031.1514, -0.033027735, 0.03657908, 29569.615, 29569.615, 0.0, 10.001298, 9.997725 
8.152196e+2, 3.152431e+2, 149134.3, 27102.318, -16223.729, 0.0010256398, 0.1550874, 151254.34, 151254.34, 0.0000000016901937, 10.001217, 9.9996 
8.2486004e+2, 1.2524517e+2, -1847317.4, -1750338.3, -77303.72, -0.11796069, 0.14009358, -1707574.9, 5036.642, 0.0000000017683296, 9.9989805, 10.000243 
8.248811e+2, 1.3524617e+2, -1644159.8, -1535213.0, 46507.76, -0.008473539, 0.15475506, -1518060.1, 96539.836, 0.0, 9.999394, 10.000858 
8.248993e+2, 1.45246e+2, -1607801.9, -1604933.0, -25931.508, -0.09844765, 0.11842686, -1580396.3, -63794.957, 0.0, 9.999576, 9.999613 
8.24918e+2, 1.5524589e+2, -1505918.8, -1507192.8, -19166.234, -0.05049762, 0.14670786, -1487379.0, -68774.99, 0.0, 9.999612, 9.999593 
8.249362e+2, 1.652454e+2, -1379107.8, -1389136.4, -23005.563, -0.038725324, 0.1373714, -1360576.4, -39968.766, 0.0, 9.999784, 9.999647 
8.249542e+2, 1.752446e+2, -1239628.8, -1273371.5, -38106.05, -0.060124718, 0.09283562, -1214826.3, 7785.8496, 0.0, 10.000078, 9.999627 
8.249724e+2, 1.8524358e+2, -1186423.3, -1307799.5, -40849.074, -0.06347632, 0.081184976, -1173956.0, -49334.887, 0.0, 10.000248, 9.998636 
8.249908e+2, 1.9524235e+2, -1078377.6, -1203461.0, -33010.56, -0.050072882, 0.093390256, -1070200.5, -43565.688, 0.0, 10.00031, 9.99865 
8.2500935e+2, 2.0524102e+2, -949068.06, -1056756.8, -18269.014, -0.03968581, 0.08378441, -946053.2, -17406.512, 0.0, 10.0003805, 9.99895 
8.2502806e+2, 2.1523966e+2, -840561.5, -953763.06, -24378.055, -0.03210679, 0.051495895, -835534.9, -4877.77, 0.0, 10.000453, 9.99895 
8.250471e+2, 2.2523832e+2, -769026.8, -919451.7, -9012.959, -0.023910614, 0.04823665, -768488.75, -35819.39, 0.0, 10.000491, 9.998494 
8.2506627e+2, 2.3523702e+2, -668854.0, -818750.06, -7051.563, -0.015059895, 0.068020776, -668523.06, -33839.734, 0.0, 10.000499, 9.998509 
8.250854e+2, 2.4523552e+2, -550560.5, -690938.75, -2871.4988, -0.023875251, 0.059832867, -550501.75, -13804.24, 0.0, 10.000552, 9.998687 
8.251044e+2, 2.5523382e+2, -437477.47, -585161.2, -5448.126, -0.048857193, 0.021393312, -437276.75, 1435.4583, 0.0, 10.000653, 9.998692 
8.251239e+2, 2.6523232e+2, -357248.88, -540909.25, -6178.5317, -0.021766584, 0.024708405, -357041.25, -16314.388, 0.0, 10.000726, 9.998288 
8.251439e+2, 2.7523097e+2, -252826.14, -438824.44, -472.01154, 0.052688956, 0.06192095, -252824.94, -10083.164, 0.0, 10.000765, 9.998298 
8.251633e+2, 2.8522947e+2, -164814.55, -354730.03, 17436.408, 0.06229674, 0.08526821, -163226.95, -18468.635, 0.0, 10.000734, 9.998217 
8.2518244e+2, 2.9522777e+2, -81080.28, -266232.78, 18455.354, 0.0123283565, 0.09269959, -79258.63, -32482.025, 0.0, 10.000648, 9.998193 
8.252012e+2, 3.052252e+2, -35260.63, -254630.48, 8943.503, -0.03675454, 0.034904946, -34896.617, -34896.617, 0.0, 10.000781, 9.997874 
8.2522064e+2, 3.1522447e+2, 133779.52, 24734.297, 14212.073, -0.0077463626, 0.17327158, 135601.36, 135601.36, 0.000000023716037, 10.00109, 9.999644 
8.34859e+2, 1.2522654e+2, -1883483.8, -1825142.1, -59107.703, -0.118570596, 0.103933565, -1788399.0, -75607.86, 0.000000000051048894, 9.998978, 9.999732 
8.3488035e+2, 1.3522734e+2, -1678256.4, -1607319.5, 61266.523, -0.016412582, 0.14976232, -1571995.4, 42789.453, 0.0, 9.9994, 10.000361 
8.3489895e+2, 1.4522713e+2, -1590930.1, -1571612.0, -25783.754, -0.09255233, 0.120790504, -1553737.5, -36950.504, 0.0, 9.999582, 9.999839 
8.349175e+2, 1.5522692e+2, -1491061.3, -1476106.4, -17571.145, -0.05588252, 0.11839723, -1464487.9, -45700.0, 0.0, 9.999611, 9.999807 
8.3493584e+2, 1.6522637e+2, -1408657.5, -1450315.3, -11760.258, -0.051649638, 0.11254228, -1405566.9, -84774.55, 0.0, 9.999783, 9.999228 
8.3495414e+2, 1.752255e+2, -1267994.3, -1332922.5, -27133.29, -0.07179064, 0.10398746, -1258148.4, -35348.53, 0.0, 10.00008, 9.999218 
8.349726e+2, 1.8522443e+2, -1173359.4, -1281109.3, -38868.754, -0.06708787, 0.09795701, -1160801.8, -35991.824, 0.0, 10.000249, 9.998818 
8.3499116e+2, 1.9522315e+2, -1066221.4, -1178008.1, -30905.572, -0.041831817, 0.0882755, -1058246.0, -31423.512, 0.0, 10.000309, 9.998825 
8.350098e+2, 2.0522185e+2, -961899.06, -1083456.5, -15916.924, -0.030326352, 0.07909315, -959849.44, -31015.215, 0.0, 10.0003805, 9.998768 
8.350285e+2, 2.152205e+2, -852961.06, -979827.0, -22161.295, -0.02979627, 0.067052424, -849201.3, -18355.96, 0.0, 10.000454, 9.998771 
8.350475e+2, 2.2521901e+2, -765143.8, -911721.56, -9107.999, -0.028871058, 0.054622956, -764580.0, -31720.861, 0.0, 10.000491, 9.998548 
8.350667e+2, 2.3521739e+2, -665189.56, -811414.25, -6898.642, -0.028323183, 0.038062286, -664864.8, -29989.28, 0.0, 10.000499, 9.998559 
8.350859e+2, 2.4521609e+2, -554451.44, -699150.8, 720.1466, -0.022102846, 0.04899517, -554447.9, -17559.598, 0.0, 10.000551, 9.9986315 
8.351055e+2, 2.5521502e+2, -441396.7, -592726.2, -1459.9122, -0.01077113, 0.08100494, -441382.63, -2484.889, 0.0, 10.000649, 9.998642 
8.351248e+2, 2.6521346e+2, -347409.22, -519811.84, -4672.451, -0.0034432216, 0.071328245, -347282.66, -6369.758, 0.0, 10.000722, 9.998435 
8.3514404e+2, 2.7521136e+2, -242709.05, -418252.13, 877.4751, 0.00028285102, 0.018608565, -242704.66, 229.06711, 0.0, 10.000766, 9.998439 
8.351636e+2, 2.8520998e+2, -161513.0, -348502.78, 14196.5205, 0.01672741, 0.04734977, -160441.33, -15492.674, 0.0, 10.000737, 9.998259 
8.351833e+2, 2.9520926e+2, -77922.695, -259110.11, 15851.616, 0.044781126, 0.14762495, -76546.336, -29587.918, 0.0, 10.000645, 9.998243 
8.3520246e+2, 3.0520675e+2, -10631.171, -201576.47, 20634.31, 0.0042889947, 0.07685277, -8426.794, -8426.794, 0.0, 10.000772, 9.998243 
8.3522147e+2, 3.1520572e+2, 149017.8, 58903.785, 25422.512, -0.0288754, 0.14665592, 155695.1, 155695.1, 0.00000010288848, 10.001079, 9.999885 
8.448581e+2, 1.2520759e+2, -1843467.8, -1830447.9, -85201.47, -0.12178757, 0.089531824, -1751508.0, -38532.973, 0.0, 9.999358, 9.999512 
8.448797e+2, 1.3520814e+2, -1682959.1, -1634403.6, 51749.74, -0.026837531, 0.13557976, -1601519.9, 13452.662, 0.0, 9.999476, 10.000137 
8.448986e+2, 1.4520794e+2, -1572841.6, -1552781.5, -34261.72, -0.08807175, 0.11335139, -1527111.9, -10137.196, 0.0, 9.999664, 9.9999275 
8.4491724e+2, 1.5520778e+2, -1431481.0, -1437674.9, -36049.418, -0.057482883, 0.1063435, -1398395.8, 20578.129, 0.0, 9.999979, 9.999893 
8.449357e+2, 1.6520718e+2, -1378052.0, -1459322.0, -28688.326, -0.056397345, 0.10295851, -1368945.4, -47966.63, 0.0, 10.000095, 9.999016 
8.4495413e+2, 1.752062e+2, -1290386.1, -1366376.0, -28396.438, -0.07673718, 0.10273749, -1280947.1, -57958.18, 0.0, 10.000024, 9.999015 
8.449727e+2, 1.8520507e+2, -1191758.3, -1283707.5, -36464.96, -0.07138655, 0.09945137, -1179052.8, -54052.94, 0.0, 10.000095, 9.998876 
8.449914e+2, 1.9520384e+2, -1064276.3, -1170914.5, -37958.36, -0.044883214, 0.08828014, -1052144.9, -25133.611, 0.0, 10.000296, 9.99888 
8.4501016e+2, 2.0520255e+2, -967740.75, -1092931.6, -26621.412, -0.029289076, 0.08021352, -962315.0, -33292.047, 0.0, 10.000369, 9.998708 
8.45029e+2, 2.1520115e+2, -875610.3, -997243.94, -23811.912, -0.022129692, 0.07103036, -871114.8, -40080.063, 0.0, 10.000326, 9.998713 
8.4504795e+2, 2.2519964e+2, -782045.1, -918315.9, -6081.2803, -0.022667848, 0.05721053, -781774.25, -48725.25, 0.0, 10.000369, 9.998561 
8.450671e+2, 2.3519798e+2, -665094.25, -809865.06, -7158.9043, -0.031308025, 0.035419922, -664741.1, -29675.582, 0.0, 10.000494, 9.998572 
8.4508646e+2, 2.4519667e+2, -558437.06, -701544.44, -849.32837, -0.026244445, 0.04638354, -558432.0, -21353.84, 0.0, 10.000527, 9.998627 
8.45106e+2, 2.5519568e+2, -467494.13, -606043.3, 298.68338, -0.008581309, 0.0832818, -467493.5, -28406.13, 0.0, 10.000474, 9.998634 
8.4512544e+2, 2.651941e+2, -368229.44, -525353.5, -1284.9069, -0.0043747807, 0.07138871, -368218.94, -27116.297, 0.0, 10.00056, 9.998475 
8.451447e+2, 2.7519196e+2, -237805.19, -411304.72, -4107.846, -0.012214043, 0.010612283, -237707.98, 5415.8164, 0.0, 10.000781, 9.998478 
8.4516424e+2, 2.851907e+2, -145762.39, -330566.88, -2747.3293, 0.004585513, 0.044237126, -145721.56, -584.0201, 0.0, 10.000801, 9.99835 
8.4518397e+2, 2.951902e+2, -75579.64, -247770.19, 2540.6816, 0.043976184, 0.16035308, -75542.164, -28397.352, 0.0, 10.000618, 9.998334 
8.452031e+2, 3.0518767e+2, -30683.87, -193318.36, 13151.982, 0.009806682, 0.075252235, -29627.156, -29627.156, 0.00000000024035085, 10.000559, 9.998403 
8.4522235e+2, 3.1518674e+2, 81803.445, 28515.213, 1862.2576, -0.026946707, 0.1375071, 81868.445, 81868.445, 0.00000026211356, 10.000608, 9.999902 
8.548574e+2, 1.2518834e+2, -1836756.5, -1818941.1, -77455.875, -0.13501583, 0.098840974, -1749882.4, -36719.152, 0.0, 9.999367, 9.999587 
8.54879e+2, 1.3518862e+2, -1679746.3, -1627350.8, 55224.285, -0.039595615, 0.111768916, -1592425.3, 22737.676, 0.0, 9.999475, 10.000187 
8.548983e+2, 1.4518848e+2, -1576202.8, -1559840.3, -22895.902, -0.08521167, 0.095593, -1543707.9, -26543.443, 0.0, 9.999663, 9.99988 
8.549172e+2, 1.551885e+2, -1433792.8, -1444105.4, -24144.855, -0.056814205, 0.11178543, -1414259.8, 4902.0034, 0.0, 9.999985, 9.999846 
8.549358e+2, 1.6518788e+2, -1377253.8, -1459138.8, -31590.838, -0.05447724, 0.10945388, -1366482.9, -45316.008, 0.0, 10.000101, 9.999015 
8.549542e+2, 1.751867e+2, -1290255.9, -1366204.8, -30974.912, -0.0749576, 0.088990465, -1279225.1, -56045.887, 0.0, 10.000024, 9.999017 
8.549727e+2, 1.8518557e+2, -1196374.4, -1293184.8, -29068.195, -0.07642975, 0.08569117, -1188317.0, -63126.508, 0.0, 10.000094, 9.998811 
8.549915e+2, 1.9518445e+2, -1068691.0, -1180404.5, -30875.287, -0.059758577, 0.09338287, -1060725.6, -33524.582, 0.0, 10.000297, 9.998815 
8.5501045e+2, 2.0518315e+2, -963186.2, -1083823.1, -28755.484, -0.037382547, 0.086960025, -956682.56, -27469.906, 0.0, 10.00037, 9.998771 
8.550294e+2, 2.1518171e+2, -871200.06, -988187.7, -25739.225, -0.009691568, 0.06378906, -865787.44, -34562.273, 0.0, 10.000326, 9.9987755 
8.550485e+2, 2.2518025e+2, -784077.56, -922674.0, -1922.4958, -0.0060352352, 0.056373205, -784050.9, -50812.25, 0.0, 10.000369, 9.998531 
8.550676e+2, 2.3517881e+2, -666899.1, -813673.4, -2670.848, -0.024808919, 0.059191037, -666850.56, -31597.4, 0.0, 10.000493, 9.998547 
8.5508686e+2, 2.4517734e+2, -555811.1, -696166.1, -2938.7446, -0.036468092, 0.051867027, -555749.6, -18482.506, 0.0, 10.000526, 9.998665 
8.551061e+2, 2.5517577e+2, -464753.75, -601166.1, -1568.0029, -0.041242212, 0.03088245, -464735.72, -25454.912, 0.0, 10.000477, 9.998668 
8.551257e+2, 2.6517427e+2, -373067.13, -535656.7, 7010.121, -0.024549926, 0.026924323, -372765.44, -31469.654, 0.0, 10.000561, 9.998404 
8.551457e+2, 2.7517277e+2, -243477.22, -421194.63, 4389.845, 0.012001727, 0.035765167, -243368.84, -56.757214, 0.0, 10.000772, 9.998415 
8.5516524e+2, 2.8517157e+2, -137430.92, -311336.28, -9417.694, 0.023452962, 0.07417488, -136922.4, 8402.655, 0.0, 10.0007925, 9.998487 
8.5518426e+2, 2.9517066e+2, -65682.195, -228182.14, -4155.1724, 0.010982133, 0.13402611, -65576.016, -18240.559, 0.0, 10.000621, 9.998467 
8.552034e+2, 3.0516803e+2, -33150.82, -199388.3, 15316.609, -0.019367803, 0.03272682, -31751.377, -31751.377, 0.0000000059514194, 10.000562, 9.998359 
8.552231e+2, 3.1516746e+2, 67185.92, 37.805847, 4380.611, -0.006288391, 0.13828768, 67470.5, 67470.5, 0.0000005093443, 10.000601, 9.99971 
8.6485696e+2, 1.2516865e+2, -1798003.6, -1790743.8, -87292.12, -0.12231642, 0.08964177, -1707006.1, 6349.8496, 0.00000000000000000000885557, 9.999594, 9.99967 
8.648784e+2, 1.3516907e+2, -1648793.0, -1606651.4, 40122.805, -0.05283245, 0.10993104, -1582403.0, 32950.527, 0.0, 9.999664, 10.0002365 
8.6489785e+2, 1.4516892e+2, -1575154.9, -1573887.6, -36237.438, -0.09378091, 0.09696565, -1538278.3, -20923.178, 0.0, 9.999734, 9.999749 
8.6491704e+2, 1.5516862e+2, -1464883.8, -1472838.8, -43919.605, -0.062617354, 0.095373556, -1424761.9, -5405.837, 0.0, 9.999831, 9.999723 
8.649359e+2, 1.6516799e+2, -1392034.6, -1455041.6, -56705.12, -0.056304563, 0.09096144, -1358669.4, -37307.863, 0.0, 9.99995, 9.999116 
8.6495423e+2, 1.7516704e+2, -1271510.3, -1345659.5, -48083.92, -0.07253352, 0.08515627, -1247867.5, -24496.572, 0.0, 10.000103, 9.99912 
8.649729e+2, 1.8516596e+2, -1180105.6, -1287778.1, -36862.066, -0.07404033, 0.08307983, -1168695.0, -43313.426, 0.0, 10.0002165, 9.99879 
8.6499184e+2, 1.951647e+2, -1072091.0, -1184429.4, -35716.867, -0.06092154, 0.07853114, -1061696.9, -34303.105, 0.0, 10.000283, 9.998794 
8.6501074e+2, 2.051634e+2, -962773.56, -1076979.1, -36617.12, -0.040477514, 0.07053289, -952041.7, -22636.242, 0.0, 10.000343, 9.99883 
8.6502975e+2, 2.151621e+2, -856491.4, -974222.56, -33896.125, -0.013952631, 0.056470722, -847429.75, -16013.288, 0.0, 10.000398, 9.9988365 
8.650488e+2, 2.2516075e+2, -780238.4, -918190.4, -7545.94, -0.0096006235, 0.053525817, -779826.9, -46397.848, 0.0, 10.000384, 9.998554 
8.65068e+2, 2.3515934e+2, -692715.75, -823615.7, -5125.1216, -0.025391292, 0.056010857, -692515.4, -57072.184, 0.0, 10.000305, 9.998569 
8.650873e+2, 2.4515778e+2, -576287.25, -707024.2, -2714.6482, -0.036198203, 0.04129521, -576230.9, -38773.137, 0.0, 10.00039, 9.998655 
8.6510664e+2, 2.5515607e+2, -442518.0, -591370.8, -5054.221, -0.04249917, 0.0067576165, -442346.6, -2873.6956, 0.0, 10.000634, 9.998658 
8.6512625e+2, 2.6515463e+2, -364882.5, -528626.3, 334.29626, -0.02597203, 0.0073098484, -364881.8, -23394.346, 0.0, 10.000605, 9.99843 
8.651462e+2, 2.7515334e+2, -309272.22, -450386.78, 4416.7383, 0.01214297, 0.036964428, -309134.13, -65632.375, 0.0, 10.00031, 9.998437 
8.6516577e+2, 2.851522e+2, -204480.36, -349790.66, -7654.11, 0.022024538, 0.07896507, -204078.3, -58563.484, 0.0, 10.000359, 9.998431 
8.651849e+2, 2.9515108e+2, -52699.043, -227556.6, -17034.28, 0.0044710157, 0.12715228, -51055.055, -3527.8542, 0.0, 10.000735, 9.998416 
8.65204e+2, 3.051484e+2, 1004.79834, -171307.63, -8833.04, -0.022731211, 0.016124476, 1456.4119, 1456.4119, 0.000000027135602, 10.000747, 9.998463 
8.6522365e+2, 3.1514797e+2, 31090.488, -23135.291, -9504.412, -0.0031560233, 0.12720387, 32708.115, 32708.115, 0.00000083365, 10.000377, 9.999659 
8.748569e+2, 1.2514856e+2, -1791484.5, -1777630.5, -81209.94, -0.08722688, 0.061482288, -1703052.6, 10500.361, 0.0000000055054987, 9.999594, 9.999761 
8.748779e+2, 1.3514952e+2, -1644818.3, -1599294.8, 42055.523, -0.06924202, 0.13116598, -1574236.4, 41307.656, 0.0, 9.999667, 10.000285 
8.7489736e+2, 1.4514928e+2, -1590196.1, -1606392.1, -33096.555, -0.11706318, 0.11859943, -1564221.3, -46674.87, 0.0, 9.999739, 9.999525 
8.7491673e+2, 1.5514818e+2, -1479786.3, -1503867.4, -40559.97, -0.075086735, 0.056925505, -1449517.4, -29960.72, 0.0, 9.99983, 9.999511 
8.7493575e+2, 1.651475e+2, -1377012.9, -1424235.6, -51515.957, -0.06155983, 0.047561903, -1343955.1, -22392.475, 0.0, 9.999951, 9.999328 
8.7495434e+2, 1.7514725e+2, -1256486.5, -1315264.4, -42516.227, -0.07046161, 0.09125872, -1234190.5, -10626.419, 0.0, 10.000106, 9.999327 
8.749732e+2, 1.851463e+2, -1178499.9, -1284799.6, -34665.85, -0.0655284, 0.091728084, -1168194.0, -42621.137, 0.0, 10.000217, 9.99881 
8.749922e+2, 1.9514462e+2, -1070445.4, -1181305.3, -33567.613, -0.049024753, 0.044041537, -1061073.5, -33484.363, 0.0, 10.000283, 9.998816 
8.750111e+2, 2.0514335e+2, -958577.9, -1068521.3, -35142.43, -0.03915357, 0.031284176, -948304.8, -18703.857, 0.0, 10.000344, 9.998888 
8.750299e+2, 2.151424e+2, -852233.44, -965666.9, -32484.277, -0.035224807, 0.04890228, -843589.56, -11981.106, 0.0, 10.000399, 9.998895 
8.7504894e+2, 2.2514114e+2, -775109.0, -907984.3, -10993.468, -0.033533268, 0.04856851, -774205.6, -40585.676, 0.0, 10.000385, 9.998625 
8.7506825e+2, 2.3513955e+2, -687923.4, -814072.25, -8209.654, -0.033246655, 0.026783211, -687391.4, -51755.94, 0.0, 10.000306, 9.998634 
8.750878e+2, 2.4513803e+2, -580394.6, -715460.0, 6231.1074, -0.026560277, 0.015246853, -580107.75, -42457.848, 0.0, 10.000389, 9.998598 
8.751075e+2, 2.5513658e+2, -446662.25, -599255.3, 4100.668, -0.01439188, 0.009493818, -446552.13, -6888.5645, 0.0, 10.00063, 9.998607 
8.751271e+2, 2.6513517e+2, -357037.2, -512164.94, -10553.089, -0.009654963, 0.011416039, -356322.56, -14644.873, 0.0, 10.000603, 9.998545 
8.751463e+2, 2.7513373e+2, -300843.03, -434387.0, -6104.535, -0.011552386, 0.015782952, -300564.56, -56871.95, 0.0, 10.000316, 9.998545 
8.751658e+2, 2.8513253e+2, -221390.23, -385559.53, 6846.312, -0.0002427567, 0.059963554, -221105.22, -75398.586, 0.0, 10.000361, 9.998185 
8.751857e+2, 2.9513147e+2, -70424.8, -262202.0, -2092.2747, 0.022456571, 0.13766383, -70401.97, -22681.932, 0.0, 10.000726, 9.998183 
8.752049e+2, 3.0512875e+2, 16573.283, -136639.45, -21427.174, -0.0016520923, 0.023399701, 19513.502, 19513.502, 0.00000006425192, 10.000736, 9.998706 
8.752239e+2, 3.1512824e+2, 37958.293, -9759.599, -21841.084, -0.019424979, 0.100895375, 46445.633, 46445.633, 0.0000011924308, 10.0003805, 9.999748 
8.848566e+2, 1.2512872e+2, -1766417.8, -1764968.0, -83957.39, -0.084815815, 0.07420239, -1681732.4, 32015.588, 0.00000006865042, 9.999764, 9.999766 
8.848777e+2, 1.351294e+2, -1619726.9, -1591093.9, 27397.842, -0.06968473, 0.120198935, -1574497.5, 41243.125, 0.0, 9.999858, 10.00025 
8.848972e+2, 1.4512911e+2, -1578466.9, -1608021.9, -46976.332, -0.11430308, 0.108786374, -1543998.6, -26255.168, 0.0, 9.99985, 9.999459 
8.849164e+2, 1.5512812e+2, -1487265.3, -1514094.6, -41937.46, -0.084116206, 0.06411855, -1456649.3, -36895.723, 0.0, 9.999808, 9.999452 
8.8493556e+2, 1.6512746e+2, -1371844.4, -1409718.9, -43839.055, -0.07202648, 0.05428061, -1343027.3, -21268.018, 0.0, 9.999936, 9.9994335 
8.8495445e+2, 1.7512713e+2, -1235334.6, -1293787.9, -43612.086, -0.071083054, 0.08001356, -1212061.6, 11698.699, 0.0, 10.000202, 9.999429 
8.8497347e+2, 1.851262e+2, -1167971.0, -1276215.4, -47604.71, -0.060722604, 0.076000646, -1150014.0, -24245.307, 0.0, 10.000275, 9.998841 
8.849924e+2, 1.9512467e+2, -1085048.1, -1184384.1, -45835.848, -0.044726573, 0.037366387, -1067130.4, -39346.15, 0.0, 10.000167, 9.998851 
8.850114e+2, 2.0512345e+2, -978298.0, -1069552.1, -42277.363, -0.037362073, 0.027587814, -961722.1, -31926.92, 0.0, 10.000173, 9.998963 
8.850302e+2, 2.1512258e+2, -864031.9, -962905.56, -38625.45, -0.03701552, 0.041971836, -850731.75, -18929.902, 0.0, 10.000281, 9.99897 
8.850493e+2, 2.2512129e+2, -780534.25, -907999.0, -22604.992, -0.03630275, 0.034966998, -776644.1, -42830.76, 0.0, 10.000338, 9.998648 
8.850685e+2, 2.3511961e+2, -680321.4, -807849.56, -23810.105, -0.035347305, 0.0038948746, -676020.94, -40191.332, 0.0, 10.000348, 9.998657 
8.8508815e+2, 2.4511822e+2, -586412.25, -712044.0, -2276.786, -0.025389083, -0.00037317793, -586371.0, -48527.793, 0.0, 10.000321, 9.998653 
8.8510805e+2, 2.5511703e+2, -496629.28, -616990.7, 3432.298, -0.0071298885, 0.016484937, -496531.5, -56676.953, 0.0, 10.00026, 9.998663 
8.8512754e+2, 2.6511568e+2, -390114.13, -521251.25, -13658.865, -0.005268373, 0.018748116, -388706.56, -46838.496, 0.0, 10.000346, 9.998606 
8.851466e+2, 2.7511415e+2, -258993.55, -407393.03, -13324.025, -0.019047838, 0.0027619964, -257806.73, -13922.662, 0.0, 10.000574, 9.998605 
8.851662e+2, 2.8511295e+2, -190233.11, -367979.88, 10766.49, -0.009858563, 0.04547678, -189583.34, -43685.434, 0.0, 10.000565, 9.998207 
8.851862e+2, 2.951121e+2, -129028.54, -287963.66, 20586.092, 0.020918023, 0.13986315, -126405.42, -78495.46, 0.0, 10.000313, 9.998205 
8.8520545e+2, 3.051095e+2, -35318.44, -149633.7, 2063.4963, 0.0021138755, 0.03366467, -35281.207, -35281.207, 0.00000010587227, 10.000328, 9.998814 
8.8522434e+2, 3.1510907e+2, 66693.18, -182.56421, -8715.971, -0.018686675, 0.10758131, 67810.48, 67810.48, 0.0000015115112, 10.000596, 9.99971 
8.948559e+2, 1.251092e+2, -1772517.5, -1778282.1, -76573.875, -0.12694988, 0.13165255, -1698771.8, 15168.44, 0.00000033535434, 9.999766, 9.999675 
8.948777e+2, 1.3510875e+2, -1628596.4, -1610004.8, 29948.262, -0.05308589, 0.0768098, -1587942.9, 28000.527, 0.00000000007521531, 9.99986, 10.000119 
8.948973e+2, 1.4510846e+2, -1570449.3, -1593046.0, -50015.047, -0.082922615, 0.06713914, -1530472.3, -12526.259, 0.0, 9.999857, 9.99956 
8.949162e+2, 1.5510854e+2, -1479373.0, -1498442.6, -43646.65, -0.09121509, 0.11796876, -1444231.8, -24285.584, 0.0, 9.99981, 9.999558 
8.949353e+2, 1.6510794e+2, -1372496.4, -1411160.6, -33585.62, -0.09012398, 0.11215279, -1353076.4, -31125.594, 0.0, 9.999935, 9.999424 
8.949546e+2, 1.7510676e+2, -1235614.8, -1294813.6, -33823.47, -0.07510696, 0.051764168, -1220268.0, 3691.5195, 0.0, 10.000204, 9.999421 
8.949737e+2, 1.8510573e+2, -1164712.4, -1270234.3, -52315.246, -0.060355257, 0.036076967, -1143172.5, -17203.729, 0.0, 10.000277, 9.998882 
8.9499253e+2, 1.9510484e+2, -1081873.1, -1178243.3, -50344.543, -0.048304528, 0.05838751, -1060370.5, -32391.787, 0.0, 10.000168, 9.998893 
8.9501154e+2, 2.051038e+2, -971701.6, -1056011.4, -38820.19, -0.03532673, 0.059394617, -956549.94, -26562.055, 0.0, 10.000173, 9.999057 
8.950306e+2, 2.1510263e+2, -857604.3, -949634.4, -35166.31, -0.020173509, 0.035837915, -845705.1, -13708.67, 0.0, 10.000281, 9.999062 
8.9504975e+2, 2.2510123e+2, -782420.44, -911952.75, -22673.012, -0.019181652, 0.012902498, -778566.5, -44557.48, 0.0, 10.000338, 9.998621 
8.950688e+2, 2.3509958e+2, -681926.56, -811575.5, -23527.727, -0.03243746, -0.012856973, -677789.0, -41763.617, 0.0, 10.000349, 9.9986315 
8.950883e+2, 2.4509835e+2, -574807.3, -688550.9, -4626.9595, -0.03282152, -0.0058835377, -574619.4, -36581.945, 0.0, 10.000323, 9.998815 
8.9510816e+2, 2.550975e+2, -485441.9, -593978.4, 1377.0233, -0.020374237, 0.027546134, -485424.44, -45378.773, 0.0, 10.00026, 9.998821 
8.9512783e+2, 2.6509622e+2, -390062.4, -520487.94, -5095.0005, -0.013079703, 0.02927367, -389863.66, -47805.14, 0.0, 10.000343, 9.998613 
8.9514726e+2, 2.750945e+2, -258862.16, -405874.97, -4439.808, -0.011287266, -0.00267719, -258728.19, -14652.17, 0.0, 10.000568, 9.998618 
8.951668e+2, 2.8509343e+2, -171758.47, -328951.2, 1843.8156, -0.0073194928, 0.03513325, -171736.84, -25648.172, 0.0, 10.000561, 9.998477 
8.9518636e+2, 2.9509288e+2, -110193.24, -249458.52, 11621.43, -0.00063637673, 0.13430147, -109230.11, -61132.992, 0.0, 10.000314, 9.998469 
8.952056e+2, 3.050906e+2, -37392.266, -153814.47, 12271.267, -0.012498151, 0.046386506, -36112.895, -36112.895, 0.00000013409642, 10.000327, 9.998785 
8.952251e+2, 3.1509033e+2, 55105.938, -23560.158, 2207.896, -0.003471201, 0.13917013, 55167.86, 55167.86, 0.0000016978646, 10.000594, 9.999551 
9.048557e+2, 1.2508926e+2, -1733442.0, -1759331.9, -57883.063, -0.1348258, 0.13048434, -1687074.1, 27060.918, 0.0000010631732, 10.0000305, 9.999679 
9.048774e+2, 1.350887e+2, -1625524.1, -1612663.0, 51214.895, -0.058009148, 0.0677964, -1567476.6, 48662.637, 0.000000007369457, 9.999899, 10.000082 
9.048972e+2, 1.450884e+2, -1561228.1, -1595598.8, -26653.895, -0.079489805, 0.06287116, -1546699.6, -28557.64, 0.0, 9.999951, 9.999496 
9.049162e+2, 1.5508851e+2, -1429789.0, -1481841.9, -33692.406, -0.085584275, 0.123490386, -1413241.4, 6900.8345, 0.0, 10.000182, 9.999494 
9.0493536e+2, 1.650879e+2, -1336077.9, -1392699.0, -31533.36, -0.084148504, 0.11628857, -1322011.1, 136.30313, 0.0, 10.000182, 9.999432 
9.0495473e+2, 1.7508659e+2, -1268104.6, -1309074.3, -30844.154, -0.073259175, 0.044408776, -1251562.5, -27405.396, 0.0, 9.999976, 9.999432 
9.0497386e+2, 1.8508564e+2, -1196761.5, -1276710.9, -45093.24, -0.0604917, 0.03076254, -1176475.4, -50309.695, 0.0, 10.00002, 9.9989605 
9.049928e+2, 1.9508497e+2, -1058159.9, -1158408.4, -40435.69, -0.04681712, 0.06825756, -1043883.2, -15710.108, 0.0, 10.000296, 9.998967 
9.050118e+2, 2.0508394e+2, -946933.06, -1043908.56, -35430.35, -0.033204887, 0.06524388, -935367.7, -5185.5557, 0.0, 10.000343, 9.999058 
9.0503085e+2, 2.1508254e+2, -873257.06, -957022.0, -39255.934, -0.019351594, 0.019085398, -857735.94, -25543.1, 0.0, 10.000174, 9.999063 
9.0505e+2, 2.2508113e+2, -804576.44, -917537.1, -23740.617, -0.017746555, -0.00441254, -799789.75, -65584.5, 0.0, 10.000164, 9.998666 
9.0506923e+2, 2.3507975e+2, -684611.06, -807873.1, -19547.229, -0.028293662, -0.009397985, -681585.5, -45366.15, 0.0, 10.00031, 9.998675 
9.050886e+2, 2.450786e+2, -571738.0, -680678.4, -8637.827, -0.034503084, -0.00008194211, -571057.4, -32826.637, 0.0, 10.000318, 9.998871 
9.051082e+2, 2.5507766e+2, -492032.75, -590848.9, -10487.714, -0.036399346, 0.017983595, -490931.9, -50692.125, 0.0, 10.000189, 9.998877 
9.051279e+2, 2.6507646e+2, -410226.63, -515784.53, -7819.148, -0.026270721, 0.017724212, -409650.56, -67398.75, 0.0, 10.000143, 9.998741 
9.0514773e+2, 2.75075e+2, -307481.66, -415116.53, 1055.3517, -0.004583027, -0.0030584577, -307471.3, -63204.477, 0.0, 10.000174, 9.998745 
9.051672e+2, 2.8507397e+2, -211030.84, -339784.72, -2532.0415, -0.001685526, 0.033722185, -210981.06, -64702.586, 0.0, 10.000257, 9.998549 
9.051865e+2, 2.9507336e+2, -94042.26, -233339.36, -7359.0586, -0.01718207, 0.12003964, -93654.56, -45367.234, 0.0, 10.00039, 9.998543 
9.052059e+2, 3.050712e+2, -807.8438, -125465.31, 876.9769, -0.026818864, 0.03379981, -801.6745, -801.6745, 0.0000001316986, 10.000532, 9.99888 
9.0522575e+2, 3.1507102e+2, 62878.445, -23592.861, -485.18854, 0.0042616013, 0.12601312, 62881.164, 62881.164, 0.0000016698094, 10.000663, 9.999517 
9.1485596e+2, 1.2506892e+2, -1723215.4, -1741360.3, -59638.23, -0.1125719, 0.06732707, -1671963.5, 42368.652, 0.0000026057617, 10.000043, 9.999797 
9.1487706e+2, 1.3506934e+2, -1620572.1, -1602324.6, 45624.848, -0.08768585, 0.09367358, -1564920.3, 51407.246, 0.00000007607973, 9.999898, 10.0001545 
9.1489685e+2, 1.4506905e+2, -1578704.4, -1631630.8, -17421.99, -0.10843502, 0.09729242, -1573484.4, -55153.62, 0.0, 9.999949, 9.99925 
9.149166e+2, 1.5506811e+2, -1446467.8, -1517530.4, -24943.06, -0.06755847, 0.08036426, -1438586.8, -18245.758, 0.0, 10.000186, 9.999247 
9.149358e+2, 1.650673e+2, -1333680.4, -1389673.8, -40217.836, -0.053575415, 0.06637614, -1312674.1, 9674.33, 0.0, 10.000189, 9.99945 
9.149548e+2, 1.7506668e+2, -1266221.4, -1305508.1, -38892.477, -0.065847285, 0.057999797, -1242293.1, -17940.465, 0.0, 9.999977, 9.999456 
9.149738e+2, 1.8506595e+2, -1188914.4, -1260047.6, -34984.598, -0.061637316, 0.060382098, -1174592.0, -48233.26, 0.0, 10.000018, 9.999076 
9.149931e+2, 1.950651e+2, -1050291.8, -1142198.4, -30589.016, -0.04110716, 0.06684872, -1041041.9, -12674.742, 0.0, 10.000296, 9.999079 
9.1501206e+2, 2.0506388e+2, -953840.6, -1058602.1, -42449.496, -0.032111604, 0.045065336, -938799.56, -8421.808, 0.0, 10.000343, 9.998957 
9.1503084e+2, 2.1506229e+2, -879963.4, -971326.4, -46130.383, -0.034718137, -0.007946555, -860723.3, -28332.62, 0.0, 10.0001745, 9.998964 
9.1504997e+2, 2.2506104e+2, -796433.44, -900933.25, -18699.969, -0.031911466, -0.016830407, -793187.94, -58786.08, 0.0, 10.000164, 9.998779 
9.150696e+2, 2.3506014e+2, -676639.8, -791530.56, -14248.563, -0.023182316, 0.013542272, -674899.1, -38487.74, 0.0, 10.00031, 9.998788 
9.1508895e+2, 2.4505895e+2, -574851.56, -687396.1, -13395.901, -0.03115717, 0.016629387, -573279.06, -34856.133, 0.0, 10.000318, 9.998825 
9.1510814e+2, 2.5505748e+2, -494791.34, -597318.3, -14966.321, -0.055615902, -0.011172349, -492651.3, -52214.758, 0.0, 10.000192, 9.998832 
9.151278e+2, 2.6505637e+2, -392995.28, -480768.06, -6376.197, -0.04517479, -0.01500901, -392534.5, -50086.824, 0.0, 10.000146, 9.9989805 
9.151479e+2, 2.7505547e+2, -290995.63, -380924.6, 2359.8845, -0.00005076157, 0.00084859366, -290933.75, -46477.21, 0.0, 10.000173, 9.9989805 
9.1516757e+2, 2.8505456e+2, -220062.47, -357702.53, 2294.7417, 0.0057376768, 0.04084326, -220024.23, -73556.94, 0.0, 10.000253, 9.998429 
9.1518676e+2, 2.950536e+2, -102487.96, -250138.44, -1954.9626, -0.028546525, 0.098530084, -102462.08, -53981.832, 0.0, 10.000386, 9.998429 
9.152063e+2, 3.0505133e+2, 13829.609, -94300.14, 6383.298, -0.04039475, -0.0016099514, 14205.135, 14205.135, 0.00000009563079, 10.000528, 9.999097 
9.152264e+2, 3.1505108e+2, 69581.95, -9315.577, 5282.523, 0.0012993206, 0.0663063, 69934.06, 69934.06, 0.0000014046396, 10.000661, 9.999617 
9.248561e+2, 1.2504882e+2, -1713335.3, -1749339.4, -66017.695, -0.0983883, 0.0378699, -1662909.3, 51618.598, 0.000005355975, 10.000168, 9.99968 
9.2487687e+2, 1.3504937e+2, -1605583.3, -1612346.5, 17551.494, -0.09938821, 0.094167694, -1591090.6, 25432.193, 0.00000033393198, 10.000077, 9.999997 
9.2489666e+2, 1.4504908e+2, -1565541.6, -1616450.6, -33041.6, -0.12123153, 0.10192605, -1549286.6, -30760.53, 0.0, 10.000004, 9.999328 
9.249167e+2, 1.55048e+2, -1471631.9, -1520432.9, -16129.613, -0.061872024, 0.06049294, -1466782.6, -46245.41, 0.0, 9.999976, 9.999327 
9.2493606e+2, 1.650472e+2, -1360096.5, -1412151.3, -27705.744, -0.044577766, 0.047841907, -1348110.3, -25565.477, 0.0, 10.000052, 9.99936 
9.2495483e+2, 1.7504674e+2, -1236763.0, -1301441.3, -35168.875, -0.06796901, 0.06601892, -1221324.9, 3223.534, 0.0, 10.000224, 9.999365 
9.2497396e+2, 1.8504603e+2, -1147765.1, -1227050.4, -31741.705, -0.065260276, 0.07013908, -1136623.3, -10069.09, 0.0, 10.000244, 9.999193 
9.2499334e+2, 1.9504507e+2, -1067608.5, -1137169.8, -27764.14, -0.037704375, 0.05395674, -1057885.9, -29323.535, 0.0, 10.00012, 9.999196 
9.250124e+2, 2.0504384e+2, -983229.7, -1076561.8, -39266.82, -0.02887809, 0.02757691, -968907.2, -38334.26, 0.0, 10.000159, 9.998921 
9.2503107e+2, 2.1504237e+2, -856011.8, -963583.25, -38223.89, -0.038512807, -0.011830234, -843812.94, -11227.266, 0.0, 10.000357, 9.99893 
9.250502e+2, 2.250412e+2, -760758.8, -878136.4, -11195.626, -0.037406158, -0.014566861, -759700.5, -25104.188, 0.0, 10.000386, 9.998829 
9.2506975e+2, 2.350403e+2, -682292.44, -788755.94, -12130.254, -0.025242316, 0.014252905, -680927.8, -44322.758, 0.0, 10.000249, 9.998836 
9.2508924e+2, 2.450391e+2, -588887.2, -691953.4, -12666.647, -0.028731445, 0.011471279, -587353.3, -48736.766, 0.0, 10.000213, 9.998845 
9.2510843e+2, 2.5503758e+2, -480470.88, -588512.6, -9861.542, -0.047868416, -0.026114067, -479578.16, -38947.34, 0.0, 10.000281, 9.998849 
9.2512804e+2, 2.650364e+2, -378922.25, -478667.38, -9703.173, -0.04385872, -0.030034732, -377987.1, -35344.79, 0.0, 10.000262, 9.998939 
9.2514783e+2, 2.7503562e+2, -296846.25, -388226.25, -21637.8, -0.017074332, -0.0051542684, -291981.63, -47330.33, 0.0, 10.000153, 9.9989395 
9.251676e+2, 2.850347e+2, -226265.86, -348200.63, -16765.88, -0.007882395, 0.032968324, -224002.58, -77340.95, 0.0, 10.000157, 9.99854 
9.251871e+2, 2.950337e+2, -111870.055, -242081.69, -4954.261, -0.016725568, 0.079203926, -111681.83, -63008.31, 0.0, 10.000269, 9.998542 
9.2520684e+2, 3.0503154e+2, -1212.8486, -104364.586, 5125.3804, -0.029912798, -0.017040549, -958.8055, -958.8055, 0.00000004550982, 10.000439, 9.999071 
9.252268e+2, 3.150312e+2, 61952.234, -26836.94, -13014.913, -0.020722747, 0.043881893, 63820.67, 63820.67, 0.0000009683944, 10.0006695, 9.999493 
9.3485624e+2, 1.25029e+2, -1739587.0, -1803918.1, -66946.484, -0.10229502, 0.04027501, -1697479.8, 17241.666, 0.000009813605, 10.000168, 9.999306 
9.3487704e+2, 1.3502888e+2, -1633307.8, -1671420.3, 13668.74, -0.092722155, 0.069893636, -1628912.5, -12187.905, 0.0000009955157, 10.000084, 9.999589 
9.348967e+2, 1.4502858e+2, -1535341.8, -1555975.0, -35157.62, -0.11717534, 0.07719229, -1509018.4, 9709.492, 0.00000000002439963, 10.000011, 9.99974 
9.3491656e+2, 1.550282e+2, -1442676.4, -1459996.4, -17408.756, -0.069826245, 0.0641388, -1431892.6, -11162.148, 0.0, 9.999973, 9.999743 
9.349359e+2, 1.650276e+2, -1375003.5, -1442499.8, -21057.66, -0.058909815, 0.06117553, -1368972.6, -46236.84, 0.0, 10.00005, 9.999154 
9.349549e+2, 1.7502682e+2, -1251263.9, -1332025.1, -28741.34, -0.08068576, 0.06853982, -1242079.8, -17335.994, 0.0, 10.000225, 9.999155 
9.349741e+2, 1.8502595e+2, -1139780.6, -1211133.0, -36983.68, -0.07265366, 0.060102567, -1124070.3, 2681.045, 0.0, 10.000246, 9.999302 
9.3499345e+2, 1.9502495e+2, -1059423.0, -1120654.5, -32917.95, -0.036756087, 0.029910408, -1045084.1, -16325.486, 0.0, 10.000122, 9.99931 
9.350126e+2, 2.050239e+2, -981023.5, -1072101.0, -32507.463, -0.023444783, 0.012960615, -970611.25, -39843.883, 0.0, 10.000159, 9.998953 
9.350314e+2, 2.1502279e+2, -853955.1, -959372.5, -31443.564, -0.03159314, 0.006544455, -845288.7, -12511.127, 0.0, 10.000356, 9.998959 
9.350506e+2, 2.2502159e+2, -761834.8, -880646.94, -16751.096, -0.035402093, 0.0016613522, -759518.25, -24729.816, 0.0, 10.000386, 9.998812 
9.350699e+2, 2.3502032e+2, -683319.94, -791311.1, -17438.121, -0.03470333, -0.0063308636, -680573.9, -43773.75, 0.0, 10.00025, 9.998818 
9.350894e+2, 2.450191e+2, -583289.75, -680593.0, -10206.635, -0.02780177, -0.01477078, -582230.6, -43419.18, 0.0, 10.000213, 9.998922 
9.351091e+2, 2.5501788e+2, -475159.75, -577366.2, -7116.8564, -0.014889336, -0.027898131, -474666.56, -33844.03, 0.0, 10.00028, 9.998926 
9.3512845e+2, 2.6501665e+2, -400834.78, -524178.4, -13743.56, -0.023644937, -0.028356306, -399321.97, -56486.43, 0.0, 10.000262, 9.998628 
9.3514764e+2, 2.7501535e+2, -317737.47, -432922.03, -25239.129, -0.054521136, -0.01993987, -312449.8, -67599.234, 0.0, 10.000158, 9.998631 
9.351674e+2, 2.8501436e+2, -202377.02, -300287.8, -12073.381, -0.04216808, 0.011256073, -200910.22, -54049.15, 0.0, 10.000164, 9.998866 
9.3518776e+2, 2.9501373e+2, -88461.77, -194595.44, -526.37805, 0.014580322, 0.06052281, -88459.164, -39591.97, 0.0, 10.000273, 9.998866 
9.352076e+2, 3.050118e+2, -19497.002, -141990.31, 13718.192, 0.0012910047, -0.015198772, -17979.484, -17979.484, 0.000000010385675, 10.000437, 9.998814 
9.3522704e+2, 3.150113e+2, 37525.66, -75955.51, -3035.022, -0.061123185, 0.05393286, 37606.773, 37606.773, 0.00000050425, 10.000662, 9.999159 
9.448563e+2, 1.2500925e+2, -1761792.6, -1798759.3, -72354.88, -0.11038843, 0.06777832, -1705597.6, 9318.907, 0.000016619406, 9.999948, 9.999448 
9.4487727e+2, 1.3500889e+2, -1614824.4, -1650092.3, 44171.258, -0.07985858, 0.061245877, -1584897.3, 32023.62, 0.0000023427797, 10.000158, 9.999699 
9.4489694e+2, 1.4500858e+2, -1507315.4, -1545024.1, -5864.2344, -0.10407034, 0.063858084, -1506424.5, 12499.369, 0.0000000053592455, 10.000217, 9.999714 
9.4491655e+2, 1.5500844e+2, -1420902.8, -1452069.5, -22274.291, -0.07540976, 0.07832049, -1409301.8, 11622.635, 0.0, 10.000135, 9.999719 
9.449359e+2, 1.650079e+2, -1368075.3, -1433726.4, -28212.375, -0.065550044, 0.08053314, -1357617.4, -34688.195, 0.0, 10.000075, 9.999201 
9.4495505e+2, 1.75007e+2, -1275667.0, -1338015.8, -16857.904, -0.07231565, 0.07019813, -1271400.9, -46462.875, 0.0, 10.000035, 9.999204 
9.449743e+2, 1.8500602e+2, -1167597.9, -1224658.0, -22687.535, -0.063217826, 0.048956174, -1159676.8, -32730.72, 0.0, 10.000058, 9.999299 
9.4499356e+2, 1.9500494e+2, -1057034.4, -1119855.8, -27328.24, -0.03980859, 0.011944387, -1046810.2, -17856.555, 0.0, 10.000141, 9.999306 
9.450127e+2, 2.0500393e+2, -975152.56, -1071566.9, -27777.674, -0.026692677, 0.0012134479, -967722.25, -36760.188, 0.0, 10.00021, 9.998932 
9.450318e+2, 2.1500298e+2, -868986.2, -968949.7, -30918.55, -0.023078738, 0.013620377, -860196.06, -27224.69, 0.0, 10.000263, 9.998938 
9.4505095e+2, 2.2500181e+2, -770376.8, -878753.1, -22555.232, -0.026861498, 0.007823664, -765870.06, -30887.89, 0.0, 10.000302, 9.998865 
9.450702e+2, 2.350004e+2, -667950.6, -778227.2, -18399.387, -0.03809923, -0.02025988, -664961.75, -27967.217, 0.0, 10.000331, 9.998869 
9.450895e+2, 2.4499913e+2, -583617.9, -688535.25, -14842.846, -0.034603342, -0.03190388, -581558.44, -42552.285, 0.0, 10.000244, 9.998853 
9.451092e+2, 2.5499797e+2, -515625.75, -604504.8, -23002.197, -0.016649168, -0.03166362, -510025.56, -69008.336, 0.0, 10.000036, 9.998857 
9.451287e+2, 2.6499677e+2, -423460.53, -538299.8, -16821.154, -0.020526579, -0.023713175, -421047.34, -78017.06, 0.0, 10.000121, 9.998598 
9.45148e+2, 2.7499548e+2, -269887.16, -413134.4, -8152.3047, -0.04644222, -0.011061515, -269424.7, -24379.283, 0.0, 10.000502, 9.998601 
9.451678e+2, 2.8499445e+2, -131020.61, -265290.6, -1198.1504, -0.040631045, 0.013372756, -131009.92, 16046.468, 0.0, 10.000652, 9.998871 
9.451879e+2, 2.949936e+2, -45512.74, -173117.81, -13139.37, -0.002396782, 0.044465277, -44173.84, 4889.6304, 0.0, 10.000566, 9.998873 
9.452079e+2, 3.0499178e+2, -3762.456, -137481.94, 3303.0354, -0.015307832, -0.019316455, -3680.9167, -3680.9167, 0.00000000032400083, 10.000559, 9.998786 
9.452277e+2, 3.1499144e+2, 26554.244, -91317.664, 2460.3975, -0.06076887, 0.0672281, 26605.578, 26605.578, 0.00000016973306, 10.000631, 9.999067 
9.54856e+2, 1.2498965e+2, -1712623.4, -1698943.8, -62074.566, -0.13386703, 0.12327022, -1643333.3, 71779.016, 0.000026449812, 9.999955, 10.00013 
9.5487756e+2, 1.3498946e+2, -1568962.5, -1554867.5, 52253.98, -0.061501395, 0.06828476, -1509187.9, 107922.86, 0.0000047469885, 10.000157, 10.000354 
9.5489734e+2, 1.4498915e+2, -1542007.3, -1616937.6, -8370.512, -0.08242016, 0.061466534, -1541083.5, -21970.396, 0.000000046136613, 10.0002165, 9.999222 
9.549166e+2, 1.549888e+2, -1455162.6, -1524064.1, -25184.154, -0.07904785, 0.103921644, -1446939.1, -25820.545, 0.0, 10.000139, 9.999224 
9.5493597e+2, 1.6498818e+2, -1346281.5, -1389418.1, -30094.53, -0.06549267, 0.10691074, -1330824.5, -7700.0024, 0.0, 10.000078, 9.999504 
9.549554e+2, 1.7498732e+2, -1253931.6, -1293235.1, -18547.602, -0.04287769, 0.07099609, -1246561.1, -21430.414, 0.0, 10.000035, 9.999512 
9.549746e+2, 1.849863e+2, -1175897.8, -1242178.9, -19953.652, -0.03712262, 0.036893718, -1170354.5, -43216.324, 0.0, 10.000058, 9.999179 
9.549936e+2, 1.949851e+2, -1065525.8, -1137762.1, -24626.256, -0.04746587, -0.00038966618, -1057929.3, -28782.152, 0.0, 10.000141, 9.999183 
9.5501274e+2, 2.0498402e+2, -980561.6, -1082916.0, -26406.373, -0.039611585, -0.008115805, -974150.6, -42994.0, 0.0, 10.00021, 9.998855 
9.5503217e+2, 2.1498306e+2, -874240.8, -980094.2, -29460.63, -0.013385638, 0.009981439, -866593.9, -33427.14, 0.0, 10.000264, 9.998861 
9.5505136e+2, 2.249819e+2, -761953.3, -861575.6, -22127.32, -0.012161725, 0.004609372, -757259.7, -22082.498, 0.0, 10.000303, 9.998983 
9.550705e+2, 2.3498055e+2, -659193.94, -760695.0, -17493.652, -0.036102593, -0.028357677, -656263.5, -19075.426, 0.0, 10.000333, 9.998988 
9.550897e+2, 2.4497923e+2, -598306.7, -719960.0, -22673.459, -0.04947553, -0.04084756, -594218.25, -55017.742, 0.0, 10.000248, 9.998636 
9.551088e+2, 2.549779e+2, -529724.6, -635533.5, -30572.887, -0.05210932, -0.03692448, -521526.03, -80311.56, 0.0, 10.000044, 9.998641 
9.5512867e+2, 2.6497683e+2, -406129.28, -503813.47, -2438.0884, -0.03462506, -0.015914377, -406068.47, -62842.125, 0.0, 10.000127, 9.998833 
9.55149e+2, 2.7497602e+2, -253619.33, -378985.0, 6339.9253, 0.0032259843, 0.019119898, -253299.53, -8063.493, 0.0, 10.000499, 9.998837 
9.551688e+2, 2.8497484e+2, -152750.44, -309210.78, -4277.6855, -0.0062414315, 0.036742814, -152633.56, -5385.7344, 0.0, 10.000646, 9.998573 
9.5518786e+2, 2.949734e+2, -66311.19, -216595.13, -15722.652, -0.06448775, 0.031764627, -64683.914, -15421.934, 0.0, 10.000566, 9.998574 
9.552078e+2, 3.0497152e+2, 8792.749, -111079.68, 6552.9434, -0.077443525, -0.02765852, 9149.907, 9149.907, 0.0, 10.000557, 9.998968 
9.552286e+2, 3.1497157e+2, 34147.05, -73347.83, 6610.2466, -0.02711837, 0.077022836, 34552.01, 34552.01, 0.000000027453995, 10.000621, 9.999196 
9.6485615e+2, 1.2497018e+2, -1656140.1, -1665960.9, -18539.197, -0.12463348, 0.13630193, -1641872.1, 73431.66, 0.00003990401, 10.00032, 10.000179 
9.648776e+2, 1.3497008e+2, -1599531.8, -1566928.0, 44560.734, -0.056344923, 0.087091126, -1535780.9, 81520.13, 0.000008636752, 9.999938, 10.000375 
9.648974e+2, 1.4496967e+2, -1593690.0, -1647494.6, -16047.487, -0.08018822, 0.073404886, -1589267.3, -69963.41, 0.00000019058375, 9.999888, 9.999169 
9.649169e+2, 1.5496908e+2, -1453730.6, -1528495.1, 398.34894, -0.07022415, 0.09679082, -1453728.5, -32417.018, 0.0, 10.000173, 9.999176 
9.649362e+2, 1.6496836e+2, -1319168.0, -1380728.1, -5946.618, -0.056277756, 0.09431531, -1318598.9, 4719.481, 0.0, 10.000284, 9.999463 
9.649555e+2, 1.7496754e+2, -1228846.8, -1285508.9, -20851.688, -0.041453935, 0.067267, -1222000.5, 3323.4597, 0.0, 10.000228, 9.999472 
9.6497476e+2, 1.8496653e+2, -1149431.8, -1229944.4, -26003.697, -0.03464549, 0.03567302, -1141763.5, -14432.21, 0.0, 10.000243, 9.999173 
9.649939e+2, 1.9496529e+2, -1038959.4, -1125306.8, -22245.533, -0.034173187, -0.0062028216, -1033565.25, -4224.7583, 0.0, 10.000326, 9.999179 
9.6501315e+2, 2.0496416e+2, -963891.7, -1081664.5, -21412.57, -0.029561711, -0.016075186, -960119.44, -28768.84, 0.0, 10.000355, 9.998793 
9.6503234e+2, 2.1496314e+2, -869516.94, -984732.1, -23497.031, -0.02145313, 0.0027893088, -864909.25, -31547.646, 0.0, 10.000327, 9.998798 
9.650516e+2, 2.2496197e+2, -765363.8, -867556.0, -22036.543, -0.022402855, 0.000012409306, -760814.4, -25441.82, 0.0, 10.0002985, 9.998944 
9.650708e+2, 2.3496062e+2, -671335.8, -770605.7, -29573.115, -0.032261956, -0.028613787, -663193.6, -25810.045, 0.0, 10.000268, 9.998952 
9.6509004e+2, 2.4495928e+2, -579684.75, -713340.44, -32399.703, -0.041954335, -0.039010357, -572244.8, -32848.62, 0.0, 10.000387, 9.998614 
9.6510917e+2, 2.5495794e+2, -441855.7, -595608.25, -26331.232, -0.05135963, -0.03515309, -437471.3, 3939.153, 0.0, 10.000658, 9.998619 
9.6512896e+2, 2.6495686e+2, -332787.13, -468235.06, -368.18738, -0.03792614, -0.014262363, -332786.13, 10636.1455, 0.0, 10.000631, 9.998834 
9.651493e+2, 2.7495602e+2, -283625.34, -393015.03, -9009.597, -0.0016106474, 0.020328173, -282888.25, -37456.605, 0.0, 10.000293, 9.99884 
9.6516913e+2, 2.8495485e+2, -200025.3, -335229.3, -12104.132, -0.013923641, 0.035898864, -198950.22, -51506.566, 0.0, 10.000337, 9.998543 
9.6518844e+2, 2.9495332e+2, -37924.74, -205887.11, -4749.6113, -0.07586023, 0.028015833, -37790.54, 11667.861, 0.0, 10.000775, 9.998547 
9.652084e+2, 3.0495152e+2, 53708.035, -85343.04, 10617.902, -0.0829983, -0.027801806, 54514.14, 54514.14, 0.0, 10.000849, 9.999005 
9.652293e+2, 3.149514e+2, 21868.064, -80458.47, 538.23224, -0.020324867, 0.060903136, 21870.895, 21870.895, 0.00000000015790982, 10.000542, 9.999186 
9.748568e+2, 1.2495089e+2, -1699170.6, -1755882.9, -30695.145, -0.08787432, 0.10103579, -1685738.4, 29751.627, 0.000057479218, 10.000322, 9.999561 
9.748774e+2, 1.3495079e+2, -1645489.5, -1662527.9, 30096.414, -0.06628318, 0.11843375, -1622729.8, -5239.0317, 0.000014404859, 9.999939, 9.999719 
9.748971e+2, 1.4495023e+2, -1565672.8, -1589346.6, -5305.295, -0.10012692, 0.101269506, -1564538.3, -45042.703, 0.0000005546723, 9.999887, 9.999569 
9.7491723e+2, 1.5494934e+2, -1425063.4, -1469149.3, 11471.845, -0.049140856, 0.055459674, -1422256.9, -754.15076, 0.0, 10.000173, 9.999584 
9.7493666e+2, 1.6494852e+2, -1346495.5, -1438060.0, -8104.2383, -0.03797334, 0.04101986, -1345783.8, -22273.584, 0.0, 10.000286, 9.999069 
9.7495544e+2, 1.7494775e+2, -1256622.9, -1343734.0, -23136.473, -0.068932764, 0.058832113, -1250859.3, -25341.725, 0.0, 10.00023, 9.999071 
9.7497475e+2, 1.8494678e+2, -1141826.4, -1214578.6, -23453.07, -0.05709045, 0.045292206, -1134921.1, -7395.908, 0.0, 10.000244, 9.999279 
9.7499454e+2, 1.9494554e+2, -1030970.8, -1109394.3, -19675.555, -0.00052947795, -0.005365611, -1026311.25, 3222.1653, 0.0, 10.000328, 9.999288 
9.750138e+2, 2.0494439e+2, -966745.2, -1088229.3, -23270.73, 0.0031400113, -0.022141797, -962440.1, -30896.568, 0.0, 10.000357, 9.998747 
9.750324e+2, 2.1494327e+2, -872539.5, -991407.6, -25113.459, -0.047523808, -0.008475211, -867451.5, -33895.77, 0.0, 10.000328, 9.998753 
9.750515e+2, 2.24942e+2, -778958.56, -896128.25, -23728.223, -0.057994217, -0.006771895, -774335.7, -38767.613, 0.0, 10.000299, 9.998748 
9.7507113e+2, 2.3494062e+2, -684800.3, -799165.56, -30815.166, -0.026994718, -0.020791989, -677025.8, -39445.188, 0.0, 10.000271, 9.9987545 
9.750907e+2, 2.449393e+2, -568058.6, -689750.8, -22259.178, -0.0131670935, -0.026130846, -564114.94, -24521.996, 0.0, 10.000389, 9.9987755 
9.751102e+2, 2.5493807e+2, -430514.22, -571924.25, -15890.149, -0.01687109, -0.027390637, -428750.66, 12854.452, 0.0, 10.000657, 9.998782 
9.7512966e+2, 2.6493683e+2, -348564.2, -500887.94, -12696.367, -0.03160971, -0.019502558, -347513.2, -3895.131, 0.0, 10.000629, 9.9986105 
9.7514904e+2, 2.7493557e+2, -298205.2, -425166.84, -21072.725, -0.058330502, -0.0055277804, -294798.97, -49167.17, 0.0, 10.000299, 9.998616 
9.75169e+2, 2.8493443e+2, -184277.08, -304005.13, 4602.6973, -0.06263765, 0.013098018, -184100.39, -36456.94, 0.0, 10.000341, 9.998755 
9.751895e+2, 2.9493335e+2, -23845.955, -174719.83, 12139.615, -0.04244323, 0.031748313, -22875.42, 26777.568, 0.0, 10.000766, 9.998766 
9.752097e+2, 3.0493164e+2, 45082.855, -100441.69, -406.8565, -0.037807245, -0.021803567, 45083.992, 45083.992, 0.0, 10.000835, 9.998908 
9.752296e+2, 3.1493095e+2, 12493.873, -100461.18, -9728.447, -0.040539753, 0.016649846, 13325.628, 13325.628, 0.0, 10.000544, 9.999048 
9.8485696e+2, 1.2493112e+2, -1800973.0, -1823676.6, -67581.4, -0.07958451, 0.07885231, -1743796.8, -28115.027, 0.00007951568, 9.999705, 9.999393 
9.8487765e+2, 1.3493086e+2, -1598121.1, -1660753.6, 26287.787, -0.06394891, 0.09944387, -1588550.3, 29135.152, 0.000022398126, 10.000356, 9.999529 
9.848972e+2, 1.4493027e+2, -1467811.8, -1535768.6, -8786.766, -0.10181901, 0.085445024, -1466694.0, 52996.844, 0.0000013019285, 10.000532, 9.999625 
9.849174e+2, 1.5492952e+2, -1412957.9, -1456338.6, -18810.48, -0.043498382, 0.046397302, -1405937.5, 15758.696, 0.0, 10.000226, 9.999645 
9.8493695e+2, 1.6492872e+2, -1361282.8, -1450416.5, -34357.996, -0.03159464, 0.035644636, -1349576.4, -25873.26, 0.0, 10.000208, 9.9990225 
9.849558e+2, 1.749279e+2, -1224303.9, -1333184.9, -23027.158, -0.0680857, 0.052345905, -1219634.1, 6077.238, 0.0, 10.000474, 9.999026 
9.849751e+2, 1.8492688e+2, -1108071.0, -1204902.4, -21686.586, -0.057959758, 0.039760724, -1103435.9, 24283.932, 0.0, 10.0005045, 9.999219 
9.849949e+2, 1.9492565e+2, -1039247.06, -1119892.0, -30719.125, -0.00043014498, -0.00714763, -1028878.7, 849.9617, 0.0, 10.000299, 9.9992285 
9.850141e+2, 2.0492446e+2, -979569.9, -1093710.3, -34217.64, 0.0048384313, -0.02094988, -970097.94, -38359.055, 0.0, 10.000266, 9.998753 
9.850328e+2, 2.1492337e+2, -860784.25, -984881.9, -32481.316, -0.0431734, -0.0054379352, -852796.75, -19045.932, 0.0, 10.000405, 9.998759 
9.8505193e+2, 2.2492212e+2, -752250.44, -885924.75, -24726.748, -0.054282982, -0.0023824512, -747823.2, -12060.015, 0.0, 10.000496, 9.998723 
9.850715e+2, 2.3492071e+2, -648302.3, -784330.9, -19632.29, -0.027513482, -0.0155519275, -645525.56, -7749.5464, 0.0, 10.000533, 9.99873 
9.8509115e+2, 2.449194e+2, -556531.9, -688277.1, -9749.885, -0.01134441, -0.018367887, -555814.25, -16025.761, 0.0, 10.000486, 9.998738 
9.8511076e+2, 2.5491816e+2, -477955.22, -598686.3, -18724.309, -0.0062273955, -0.015430257, -475117.9, -33317.258, 0.0, 10.000349, 9.998747 
9.851302e+2, 2.649168e+2, -379053.9, -520399.5, -18823.484, -0.025348421, -0.014859928, -376590.06, -32775.61, 0.0, 10.0004425, 9.998566 
9.8514944e+2, 2.749153e+2, -232093.13, -398026.8, -14638.948, -0.06982371, -0.019934986, -230811.55, 15018.304, 0.0, 10.000776, 9.998572 
9.851694e+2, 2.849141e+2, -122511.836, -275618.06, 10262.32, -0.07415145, -0.0054968693, -121827.05, 26014.947, 0.0, 10.000773, 9.998742 
9.8519015e+2, 2.9491314e+2, -75843.46, -201063.13, 962.1776, -0.03562607, 0.0238968, -75836.07, -25985.184, 0.0, 10.000415, 9.998754 
9.852105e+2, 3.0491152e+2, -6799.5957, -127386.125, -13345.173, -0.02956751, -0.018291961, -5340.3594, -5340.3594, 0.0, 10.000488, 9.998889 
9.852302e+2, 3.1491068e+2, 77435.8, -74406.17, -17267.55, -0.05036742, 0.0077560553, 79374.71, 79374.71, 0.0, 10.001013, 9.999001 
9.9485624e+2, 1.2491093e+2, -1780934.4, -1780093.4, -41457.973, -0.11246748, 0.070110336, -1739053.8, -23175.236, 0.00010622788, 9.999696, 9.999698 
9.948781e+2, 1.3491033e+2, -1577100.6, -1617867.9, 51421.79, -0.048657544, 0.027562965, -1542169.8, 75714.76, 0.00003292342, 10.000359, 9.999823 
9.9489796e+2, 1.4490981e+2, -1487736.9, -1578613.4, -20400.162, -0.08415456, 0.022810772, -1483367.4, 36522.195, 0.0000026281716, 10.000538, 9.999329 
9.949175e+2, 1.5490964e+2, -1433873.3, -1500332.9, -30689.541, -0.054906357, 0.07038589, -1421869.6, 21.861427, 0.00000000019976186, 10.000228, 9.999343 
9.9493706e+2, 1.6490903e+2, -1339973.5, -1406494.4, -24811.111, -0.038891863, 0.07962946, -1331738.9, -7842.1147, 0.0, 10.000208, 9.999324 
9.9495655e+2, 1.7490806e+2, -1201906.0, -1287658.3, -13314.604, -0.0392294, 0.04801546, -1199886.3, 26018.818, 0.0, 10.000477, 9.999337 
9.9497575e+2, 1.849069e+2, -1123355.5, -1237484.1, -30057.266, -0.03774024, 0.01902869, -1115923.5, 11991.18, 0.0, 10.000507, 9.998995 
9.949948e+2, 1.949056e+2, -1055072.0, -1153161.1, -39094.426, -0.03400074, -0.012019019, -1041397.06, -11471.321, 0.0, 10.000301, 9.999 
9.95014e+2, 2.0490447e+2, -975775.44, -1086035.1, -29849.135, -0.024877569, -0.01322088, -968213.4, -36277.125, 0.0, 10.000266, 9.998806 
9.950335e+2, 2.1490352e+2, -856738.56, -976788.1, -27853.652, -0.009658893, 0.012045743, -850590.8, -16644.508, 0.0, 10.000406, 9.998816 
9.950529e+2, 2.2490236e+2, -742352.1, -865741.2, -23882.082, -0.012456449, 0.013795172, -737891.0, -1933.5974, 0.0, 10.000497, 9.998861 
9.9507195e+2, 2.3490094e+2, -638129.2, -763718.2, -18473.326, -0.03408953, -0.013352004, -635468.25, 2501.3455, 0.0, 10.000535, 9.998871 
9.950913e+2, 2.4489959e+2, -572315.9, -721707.25, -14918.376, -0.03633695, -0.01657588, -570840.7, -30857.979, 0.0, 10.000488, 9.998508 
9.95111e+2, 2.5489828e+2, -493349.88, -632209.25, -23470.225, -0.018850507, 0.00068984134, -489490.2, -47493.305, 0.0, 10.000355, 9.998514 
9.9513066e+2, 2.648968e+2, -370182.78, -503349.06, -6189.962, -0.020096136, 0.0000067603323, -369895.7, -25884.445, 0.0, 10.000447, 9.998681 
9.9515045e+2, 2.7489528e+2, -224203.8, -380767.34, -1751.048, -0.040472705, -0.023349246, -224184.22, 21841.59, 0.0, 10.000771, 9.998693 
9.951704e+2, 2.848939e+2, -138955.28, -308830.22, -2390.966, -0.05207469, -0.020755708, -138921.64, 9117.727, 0.0, 10.000769, 9.998516 
9.951904e+2, 2.9489267e+2, -90128.71, -233517.39, -11448.178, -0.05428043, 0.004885365, -89220.44, -39168.61, 0.0, 10.000426, 9.998525 
9.9521065e+2, 3.0489114e+2, -2392.5742, -120407.02, 6879.9263, -0.057159282, -0.017001258, -1992.8469, -1992.8469, 0.0, 10.000497, 9.998934 
9.952312e+2, 3.1489053e+2, 76571.83, -71936.77, 4229.0425, -0.054349463, 0.02680216, 76692.164, 76692.164, 0.0, 10.000994, 9.999027 
1.0048559e+3, 1.2489048e+2, -1727693.5, -1742123.0, -40837.09, -0.1251666, 0.054324187, -1693438.8, 22639.602, 0.00013782152, 10.000007, 9.999809 
1.0048783e+3, 1.3489011e+2, -1631118.9, -1631723.8, 36952.883, -0.038392317, 0.023331426, -1594467.3, 23614.96, 0.000046236724, 9.999934, 9.999932 
1.0048983e+3, 1.448897e+2, -1554017.9, -1610219.9, -40559.52, -0.0781063, 0.022516143, -1532775.9, -12689.41, 0.00000474816, 10.000081, 9.999332 
1.0049177e+3, 1.5488948e+2, -1403701.0, -1485373.5, -28140.959, -0.06870724, 0.06770661, -1394943.9, 27144.814, 0.000000004412824, 10.000433, 9.999347 
1.0049373e+3, 1.648889e+2, -1294472.3, -1375392.0, -18684.2, -0.05087379, 0.07431201, -1290366.4, 33727.24, 0.0, 10.000481, 9.999406 
1.00495696e+3, 1.7488798e+2, -1232801.4, -1293070.0, -24599.145, -0.029192705, 0.04061518, -1224035.9, 2065.1274, 0.0, 10.000224, 9.999422 
1.00497626e+3, 1.8488692e+2, -1168648.3, -1264025.8, -42476.73, -0.027058715, 0.017788956, -1152473.9, -24363.836, 0.0, 10.000217, 9.998952 
1.004995e+3, 1.948857e+2, -1033948.4, -1147789.8, -37732.39, -0.043447603, 0.00058790925, -1022577.75, 7543.3604, 0.0, 10.000467, 9.998957 
1.0050143e+3, 2.0488457e+2, -933991.56, -1061717.5, -22196.977, -0.034982692, -0.0010116828, -930244.0, 1887.9696, 0.0, 10.000536, 9.998842 
1.005034e+3, 2.1488352e+2, -852037.94, -970389.0, -21968.416, -0.0010777066, 0.009780949, -848091.7, -13949.144, 0.0, 10.000422, 9.998851 
1.0050534e+3, 2.2488236e+2, -752098.06, -868299.25, -20694.611, 0.00160314, 0.010603048, -748522.5, -12369.216, 0.0, 10.000422, 9.998879 
1.0050725e+3, 2.348811e+2, -635959.7, -760280.06, -24853.074, -0.028131725, -0.0040512434, -631175.44, 6988.9077, 0.0, 10.000541, 9.99889 
1.0050919e+3, 2.4487975e+2, -558766.7, -726132.06, -25757.57, -0.038752634, -0.0036545303, -554892.25, -14714.523, 0.0, 10.00063, 9.998408 
1.0051114e+3, 2.5487825e+2, -452108.2, -623382.3, -25124.941, -0.029928183, 0.008397298, -448498.56, -6304.8364, 0.0, 10.000688, 9.998413 
1.00513116e+3, 2.6487678e+2, -340350.22, -490209.66, -2798.8452, -0.028118176, 0.007568004, -340297.94, 3910.7283, 0.0, 10.000659, 9.998669 
1.0051512e+3, 2.7487528e+2, -259258.44, -398699.72, -8172.2847, -0.03310778, -0.010996583, -258781.11, -12558.556, 0.0, 10.000536, 9.998683 
1.0051712e+3, 2.848738e+2, -165667.52, -334156.2, -12947.465, -0.04382753, -0.00858146, -164678.38, -16441.512, 0.0, 10.00064, 9.998404 
1.005191e+3, 2.9487243e+2, -16253.284, -210180.36, -14660.063, -0.06039363, 0.012469984, -15151.308, 35100.184, 0.0, 10.000988, 9.998414 
1.00521125e+3, 3.0487096e+2, 73594.52, -78656.1, 9561.203, -0.0682743, 0.0009997884, 74192.61, 74192.61, 0.0, 10.000998, 9.998979 
1.00523196e+3, 3.1487045e+2, 27481.885, -91946.79, 6879.7466, -0.062014595, 0.048806597, 27876.889, 27876.889, 0.0, 10.000643, 9.999058 
1.01485595e+3, 1.24869786e+2, -1733830.1, -1754580.8, -43938.254, -0.12579203, 0.026920136, -1699058.8, 17222.42, 0.00017450533, 10.000006, 9.999724 
1.0148782e+3, 1.3487028e+2, -1637737.4, -1644046.5, 33666.523, -0.035468407, 0.08963056, -1607078.0, 11199.685, 0.000062540406, 9.999928, 9.999851 
1.0148983e+3, 1.4486995e+2, -1532744.1, -1565073.1, -27144.697, -0.086056836, 0.0876446, -1517315.5, 2965.121, 0.000007860604, 10.000075, 9.999646 
1.01491794e+3, 1.5486912e+2, -1380793.0, -1438474.5, -14759.074, -0.0853724, 0.037972007, -1377236.0, 45051.324, 0.000000028517778, 10.000434, 9.999669 
1.0149375e+3, 1.6486837e+2, -1303960.4, -1396080.4, -28866.566, -0.068253644, 0.018019939, -1295662.3, 28631.28, 0.0, 10.000484, 9.999263 
1.01495706e+3, 1.7486775e+2, -1243109.3, -1314762.4, -34727.125, -0.03870557, 0.029514473, -1229040.8, -2742.0361, 0.0, 10.000225, 9.999273 
1.0149764e+3, 1.8486698e+2, -1159108.1, -1244270.3, -33892.305, -0.026385, 0.035874564, -1147266.5, -18960.828, 0.0, 10.0002165, 9.999088 
1.01499565e+3, 1.9486602e+2, -1023839.06, -1127095.5, -28870.732, -0.029831411, 0.031075578, -1016315.0, 13999.379, 0.0, 10.000467, 9.999099 
1.01501495e+3, 2.0486483e+2, -932796.25, -1059641.0, -27280.32, -0.026587551, 0.016480695, -927177.94, 5147.604, 0.0, 10.000537, 9.998856 
1.01503424e+3, 2.1486339e+2, -850933.1, -968465.25, -26994.229, -0.01731465, -0.012375643, -845029.75, -10690.631, 0.0, 10.0004225, 9.998864 
1.0150536e+3, 2.248622e+2, -758964.56, -882910.0, -17046.883, -0.012046796, -0.012533253, -756662.75, -20312.18, 0.0, 10.000422, 9.998779 
1.0150732e+3, 2.3486122e+2, -642784.25, -774991.94, -20561.982, -0.010485903, 0.012444494, -639660.1, -1300.2693, 0.0, 10.000542, 9.998789 
1.01509266e+3, 2.4485989e+2, -557126.56, -723273.06, -23666.914, -0.01978877, 0.02120574, -553821.06, -13447.813, 0.0, 10.000632, 9.998427 
1.01511195e+3, 2.548582e+2, -450612.25, -620294.6, -22712.355, -0.040493887, 0.0084826555, -447624.75, -5233.7607, 0.0, 10.000687, 9.998435 
1.0151316e+3, 2.6485667e+2, -349692.38, -509890.13, -6774.2046, -0.049628854, 0.007676797, -349406.44, -4999.8174, 0.0, 10.000659, 9.998534 
1.0151515e+3, 2.7485526e+2, -267521.88, -417750.03, -11831.425, -0.047196, 0.01534178, -266595.78, -20175.813, 0.0, 10.000543, 9.998549 
1.0151717e+3, 2.8485385e+2, -166566.05, -337058.78, 525.15796, -0.05001836, 0.029204581, -166564.44, -18130.033, 0.0, 10.000644, 9.998383 
1.015192e+3, 2.948524e+2, -19710.322, -213874.33, -604.1829, -0.056926772, 0.046006966, -19708.443, 30741.406, 0.0, 10.000973, 9.998396 
1.01521224e+3, 3.04851e+2, 74347.02, -73186.305, -2098.143, -0.06564618, 0.035796303, 74376.85, 74376.85, 0.0, 10.00098, 9.999024 
1.0152324e+3, 3.1485033e+2, 30645.52, -86681.28, -4317.3833, -0.07611088, 0.068590134, 30804.176, 30804.176, 0.0, 10.000648, 9.999091 
1.02485605e+3, 1.2484954e+2, -1727077.1, -1754854.0, -45909.086, -0.11706796, 0.0474109, -1693001.8, 23478.205, 0.0002164286, 10.000068, 9.999692 
1.024878e+3, 1.348498e+2, -1624396.3, -1641274.4, 35108.727, -0.046369176, 0.092442855, -1596726.6, 21751.56, 0.00008198819, 10.000036, 9.999818 
1.0248982e+3, 1.4484945e+2, -1530123.8, -1548952.8, -20626.424, -0.10275328, 0.08169444, -1516864.9, 3616.3096, 0.000012107449, 10.000029, 9.999779 
1.0249182e+3, 1.548488e+2, -1427208.5, -1445669.0, -22917.506, -0.08005896, 0.036031067, -1411732.3, 10753.473, 0.00000009714164, 10.000051, 9.999804 
1.024938e+3, 1.6484809e+2, -1346648.4, -1416374.4, -45760.195, -0.061686758, 0.013243509, -1323983.8, 507.59058, 0.0, 10.000191, 9.999265 
1.0249573e+3, 1.7484735e+2, -1210986.1, -1299505.0, -40639.496, -0.051627766, 0.01328703, -1195158.5, 31339.178, 0.0, 10.000445, 9.999271 
1.0249767e+3, 1.848466e+2, -1119600.9, -1221897.3, -36652.934, -0.036970053, 0.020256087, -1107824.0, 20680.645, 0.0, 10.000474, 9.999118 
1.0249961e+3, 1.9484581e+2, -1049663.1, -1135953.1, -40435.97, -0.016435225, 0.029405456, -1033676.5, -3164.219, 0.0, 10.000276, 9.99913 
1.0250155e+3, 2.0484471e+2, -965766.2, -1069892.3, -40430.53, -0.012455968, 0.019817201, -951911.2, -19388.555, 0.0, 10.000287, 9.998905 
1.02503456e+3, 2.1484327e+2, -833037.2, -954240.06, -37281.11, -0.026907798, -0.014154199, -822488.0, 12047.858, 0.0, 10.000522, 9.998914 
1.0250539e+3, 2.2484206e+2, -737822.1, -878606.56, -26213.28, -0.027061198, -0.01627161, -733099.75, 3447.9253, 0.0, 10.000594, 9.998725 
1.02507375e+3, 2.3484105e+2, -653217.44, -786094.1, -27010.912, -0.011850162, 0.011081574, -647936.56, -9378.549, 0.0, 10.000498, 9.9987335 
1.0250933e+3, 2.4483977e+2, -569033.06, -721477.25, -23819.797, -0.0125150215, 0.023542697, -565397.8, -24826.629, 0.0, 10.000519, 9.998494 
1.02511264e+3, 2.5483817e+2, -450041.88, -612284.1, -19925.0, -0.029686015, 0.015555035, -447630.72, -5043.249, 0.0, 10.000658, 9.998503 
1.0251323e+3, 2.6483664e+2, -345492.53, -520610.75, -6874.248, -0.04623449, 0.018149475, -345223.1, -620.0054, 0.0, 10.000744, 9.998418 
1.025152e+3, 2.7483517e+2, -242102.17, -418119.88, -11287.587, -0.06339305, 0.027537119, -241381.28, 5236.663, 0.0, 10.000773, 9.998434 
1.02517225e+3, 2.848337e+2, -156573.05, -328801.44, 7136.1465, -0.06302678, 0.04137883, -156277.88, -7644.8525, 0.0, 10.000698, 9.998411 
1.0251929e+3, 2.948323e+2, -84943.36, -241844.11, 9372.976, -0.04171557, 0.05600889, -84385.42, -33737.21, 0.0, 10.000509, 9.998426 
1.02521315e+3, 3.0483094e+2, 18552.57, -96327.07, 7637.4707, -0.05242639, 0.051276352, 19058.102, 19058.102, 0.0, 10.000581, 9.999058 
1.0252329e+3, 3.148303e+2, 73000.68, -63968.875, 4035.332, -0.099446006, 0.08103658, 73119.47, 73119.47, 0.0, 10.000928, 9.999113 
1.0348562e+3, 1.2482985e+2, -1727162.1, -1753755.5, -47597.016, -0.107977964, 0.11984726, -1691039.4, 25634.049, 0.0002637313, 10.000063, 9.9997015 
1.0348778e+3, 1.3482878e+2, -1623230.5, -1638702.0, 33936.918, -0.071655795, 0.029051976, -1596158.8, 22524.518, 0.00010469639, 10.000035, 9.999836 
1.0348979e+3, 1.4482823e+2, -1534090.8, -1557006.4, -20315.982, -0.128693, 0.00077143265, -1522224.3, -1536.4147, 0.000017566988, 10.000028, 9.999724 
1.0349186e+3, 1.5482858e+2, -1431517.9, -1454232.3, -22347.764, -0.053167876, 0.062297042, -1417807.0, 4876.578, 0.00000023822265, 10.000049, 9.999746 
1.0349385e+3, 1.6482814e+2, -1336561.4, -1395280.0, -36535.52, -0.03125959, 0.061486952, -1319050.5, 5636.065, 0.0, 10.000189, 9.999411 
1.03495754e+3, 1.7482686e+2, -1200239.4, -1277486.0, -31288.643, -0.06885903, -0.007749537, -1189156.1, 37540.93, 0.0, 10.000446, 9.999422 
1.0349769e+3, 1.8482585e+2, -1125339.6, -1234331.4, -44850.01, -0.060781907, -0.0292307, -1109257.0, 19449.309, 0.0, 10.000476, 9.999032 
1.0349966e+3, 1.9482513e+2, -1055672.6, -1148800.1, -48618.492, -0.0033812283, -0.004483101, -1034916.6, -4202.3726, 0.0, 10.000277, 9.999042 
1.03501596e+3, 2.0482427e+2, -959699.5, -1057493.6, -32737.203, 0.0077541554, 0.008667633, -949752.3, -17029.396, 0.0, 10.000287, 9.998991 
1.035035e+3, 2.1482322e+2, -826869.06, -941439.8, -29061.643, -0.030591711, 0.0043091956, -819919.0, 14813.345, 0.0, 10.000521, 9.9990015 
1.0350545e+3, 2.24822e+2, -738973.2, -881166.94, -30243.338, -0.04441479, 0.00010593119, -732808.0, 3936.1338, 0.0, 10.000594, 9.998708 
1.035074e+3, 2.3482063e+2, -654408.2, -788938.8, -30858.576, -0.032214474, -0.007638922, -647667.56, -8909.141, 0.0, 10.000499, 9.9987135 
1.03509374e+3, 2.4481937e+2, -561150.9, -705494.2, -18708.023, -0.01729103, 0.0031142633, -558765.6, -17994.168, 0.0, 10.000519, 9.998604 
1.0351136e+3, 2.5481823e+2, -441730.0, -595787.5, -14368.517, 0.00072159537, 0.028721545, -440401.34, 2381.669, 0.0, 10.00066, 9.998616 
1.0351333e+3, 2.6481676e+2, -352732.38, -535919.0, -5491.317, -0.019986846, 0.039026126, -352567.94, -7770.045, 0.0, 10.000745, 9.998313 
1.0351526e+3, 2.74815e+2, -250269.08, -434038.4, -9537.112, -0.08241546, 0.028244687, -249775.45, -2959.2834, 0.0, 10.000769, 9.998327 
1.0351727e+3, 2.848134e+2, -151417.4, -317805.44, 1112.7329, -0.0833475, 0.03089975, -151409.97, -2577.5002, 0.0, 10.000696, 9.998488 
1.0351936e+3, 2.9481205e+2, -77200.64, -228909.1, 3546.944, -0.017091595, 0.04304846, -77117.76, -26271.188, 0.0, 10.000522, 9.99851 
1.03521384e+3, 3.0481082e+2, 20507.938, -94512.625, 21085.318, -0.031187216, 0.04739256, 24251.416, 24251.416, 0.0, 10.000589, 9.999066 
1.0352335e+3, 3.148103e+2, 70409.375, -65301.11, 18346.512, -0.1333864, 0.086386316, 72845.875, 72845.875, 0.0, 10.00091, 9.999113 
1.0448561e+3, 1.2480914e+2, -1780924.6, -1772442.3, -53547.758, -0.10791474, 0.11023382, -1722967.9, -6092.4185, 0.00031664252, 9.9996605, 9.999768 
1.0448779e+3, 1.348081e+2, -1617758.9, -1626874.9, 32995.133, -0.062184453, 0.013638414, -1589008.4, 29876.338, 0.00013079311, 10.000032, 9.999918 
1.0448981e+3, 1.4480755e+2, -1513983.9, -1560011.6, -27006.361, -0.12181561, -0.014241615, -1501515.6, 19373.775, 0.000024312307, 10.00022, 9.999611 
1.0449187e+3, 1.5480782e+2, -1419514.5, -1461642.6, -34422.633, -0.04897142, 0.051966697, -1400222.5, 22663.85, 0.0000004785213, 10.000187, 9.999629 
1.0449386e+3, 1.6480741e+2, -1338551.9, -1381994.8, -48259.027, -0.027828857, 0.054151088, -1307351.1, 17538.146, 0.0, 10.000114, 9.999537 
1.0449578e+3, 1.7480627e+2, -1254128.9, -1288239.0, -44767.44, -0.06556414, -0.013451195, -1223277.8, 3620.347, 0.0, 10.000011, 9.9995575 
1.04497716e+3, 1.8480533e+2, -1180740.0, -1261498.8, -56864.117, -0.060669243, -0.035504393, -1151376.9, -22470.002, 0.0, 10.000099, 9.999026 
1.0449968e+3, 1.9480456e+2, -1039268.2, -1142042.5, -54630.758, -0.0093002925, -0.013867253, -1015654.3, 15261.155, 0.0, 10.000395, 9.999031 
1.0450162e+3, 2.0480372e+2, -925982.7, -1031638.5, -35774.87, 0.0022776672, -0.0007005261, -915009.1, 17914.74, 0.0, 10.000479, 9.999075 
1.0450355e+3, 2.148028e+2, -847175.06, -941215.6, -32779.04, -0.029145494, -0.0012834289, -836877.2, -1945.1459, 0.0, 10.0003395, 9.99909 
1.0450548e+3, 2.2480172e+2, -774348.2, -895991.1, -33424.09, -0.04420835, 0.0011181687, -765769.25, -28826.404, 0.0, 10.000342, 9.998727 
1.0450743e+3, 2.3480046e+2, -653827.4, -786747.75, -31593.96, -0.04203927, 0.0030128423, -646700.0, -7743.5225, 0.0, 10.000495, 9.998731 
1.0450941e+3, 2.447992e+2, -555058.25, -703691.8, -21230.197, -0.031056657, 0.013213645, -552085.25, -11115.575, 0.0, 10.0005665, 9.998592 
1.0451141e+3, 2.5479794e+2, -458163.7, -604839.3, -26615.693, -0.01097032, 0.027320458, -453483.38, -10500.914, 0.0, 10.000553, 9.998605 
1.0451339e+3, 2.6479647e+2, -367583.66, -531392.44, -15488.885, -0.020585036, 0.033534955, -366131.97, -21134.895, 0.0, 10.000593, 9.998417 
1.0451536e+3, 2.7479482e+2, -254703.39, -424416.25, -4466.5386, -0.06123162, 0.026690912, -254585.92, -7572.3525, 0.0, 10.000687, 9.998433 
1.04517356e+3, 2.847933e+2, -140966.2, -322073.13, 5984.1187, -0.06723369, 0.03205134, -140768.69, 8260.692, 0.0, 10.000808, 9.9984045 
1.0451941e+3, 2.9479185e+2, -18483.89, -209759.53, -4271.6636, -0.03629763, 0.045652695, -18388.541, 32655.848, 0.0, 10.000966, 9.998426 
1.04521446e+3, 3.0479056e+2, 57048.426, -75452.7, 4784.858, -0.049115006, 0.044992045, 57220.992, 57220.992, 0.0, 10.000836, 9.999078 
1.04523435e+3, 3.1478986e+2, -4590.1865, -101006.49, 2242.2312, -0.1095601, 0.06685343, -4538.07, -4538.07, 0.0, 10.000393, 9.999115 
1.0548554e+3, 1.2478739e+2, -1772754.1, -1753684.1, -40017.305, -0.12525527, 0.010208604, -1722081.5, -4995.2163, 0.0003754383, 9.999652, 9.999901 
1.0548784e+3, 1.3478783e+2, -1607144.6, -1604843.0, 47159.92, -0.017874809, 0.04787579, -1558819.9, 60261.715, 0.00016041061, 10.000031, 10.000071 
1.05489865e+3, 1.4478746e+2, -1526446.9, -1586198.8, -27850.967, -0.08218289, 0.03978678, -1515478.6, 5606.2373, 0.000032450233, 10.000221, 9.999431 
1.0549187e+3, 1.5478654e+2, -1432455.1, -1488479.8, -36022.2, -0.068539865, 0.0040910933, -1414835.4, 8258.44, 0.0000008393984, 10.000187, 9.999445 
1.0549385e+3, 1.6478592e+2, -1331337.0, -1366973.3, -52795.754, -0.053534493, -0.010636996, -1293433.8, 31665.453, 0.0, 10.0001135, 9.999641 
1.054958e+3, 1.7478564e+2, -1246323.1, -1272100.6, -49030.313, -0.04194398, -0.0034300496, -1208515.8, 18584.49, 0.0, 10.000011, 9.999668 
1.05497755e+3, 1.8478507e+2, -1175648.1, -1250920.1, -46716.91, -0.036177665, 0.002206668, -1153293.0, -24187.455, 0.0, 10.000098, 9.999099 
1.0549969e+3, 1.9478415e+2, -1034365.6, -1131822.3, -43958.09, -0.034862157, 0.0010491875, -1017468.0, 13647.3545, 0.0, 10.000394, 9.999102 
1.0550164e+3, 2.0478316e+2, -920785.75, -1021012.8, -41438.117, -0.030509109, -0.008129468, -905872.44, 27252.615, 0.0, 10.000478, 9.999148 
1.0550359e+3, 2.1478209e+2, -841721.0, -930192.0, -38668.04, -0.023316693, -0.030595602, -827202.8, 7931.7983, 0.0, 10.00034, 9.999166 
1.0550554e+3, 2.2478122e+2, -770250.7, -887796.8, -28592.469, -0.026997944, -0.013543731, -763664.75, -26521.186, 0.0, 10.000342, 9.998783 
1.05507486e+3, 2.3478055e+2, -649562.9, -778328.3, -26036.973, -0.041944496, 0.04203046, -644497.3, -5345.458, 0.0, 10.000496, 9.998788 
1.05509445e+3, 2.4477926e+2, -564271.75, -723199.1, -21578.447, -0.053964097, 0.053716764, -561394.06, -20228.432, 0.0, 10.000567, 9.998459 
1.0551141e+3, 2.5477734e+2, -467761.56, -624927.94, -26600.44, -0.06329731, 0.013052954, -463381.5, -20196.244, 0.0, 10.000553, 9.998467 
1.0551343e+3, 2.6477578e+2, -346534.56, -488095.34, -11483.936, -0.04751625, 0.0030435992, -345609.0, -408.70755, 0.0, 10.000593, 9.998714 
1.0551548e+3, 2.7477473e+2, -232349.3, -379207.38, -404.32016, -0.0038903418, 0.021693826, -232348.19, 14861.943, 0.0, 10.00069, 9.998742 
1.0551749e+3, 2.8477335e+2, -157856.25, -357448.88, 11931.996, -0.018394545, 0.043207373, -157145.45, -7921.634, 0.0, 10.000809, 9.998162 
1.05519444e+3, 2.9477173e+2, -37661.746, -247338.33, 2447.149, -0.09603514, 0.064642675, -37633.188, 13608.244, 0.0, 10.000956, 9.998174 
1.0552147e+3, 3.0477014e+2, 57662.51, -73126.6, -10474.52, -0.103677094, 0.046333082, 58496.07, 58496.07, 0.0, 10.000831, 9.999097 
1.0552355e+3, 3.1476906e+2, -514.71564, -96733.59, -13032.801, -0.03685018, 0.026774535, 1219.3206, 1219.3206, 0.0, 10.00041, 9.999137 
1.0648556e+3, 1.2476607e+2, -1675627.9, -1715396.0, -41613.535, -0.12053696, -0.039862685, -1649391.9, 67901.62, 0.00044023, 10.000358, 9.999823 
1.06487855e+3, 1.3476697e+2, -1600937.6, -1607922.4, 30420.629, -0.011493268, 0.05037629, -1573809.6, 45475.44, 0.0001936281, 10.000101, 10.000015 
1.0648987e+3, 1.447667e+2, -1556128.9, -1593124.3, -45225.133, -0.08452697, 0.05267369, -1525764.8, -4477.196, 0.00004209593, 9.999987, 9.9994955 
1.0649187e+3, 1.5476552e+2, -1451358.9, -1489972.6, -35090.453, -0.07491483, -0.017668009, -1430614.6, -7315.663, 0.0000013547506, 10.000026, 9.999512 
1.06493846e+3, 1.6476488e+2, -1339470.5, -1375329.6, -47929.93, -0.057310395, -0.035185855, -1306226.4, 19078.309, 0.0, 10.000078, 9.9996 
1.0649581e+3, 1.7476487e+2, -1229147.6, -1268822.9, -56121.734, -0.035759937, 0.0036612144, -1189460.6, 37843.363, 0.0, 10.000152, 9.999623 
1.06497765e+3, 1.8476444e+2, -1153162.4, -1221828.4, -50947.746, -0.03007627, 0.018530691, -1126059.0, 3248.9448, 0.0, 10.0001745, 9.999262 
1.0649971e+3, 1.9476354e+2, -1058565.4, -1124466.1, -41202.91, -0.040378287, 0.0022150788, -1038757.7, -7440.7617, 0.0, 10.000147, 9.99927 
1.0650166e+3, 2.047626e+2, -967966.75, -1041758.4, -43717.54, -0.039397914, -0.0127141485, -947656.56, -14330.409, 0.0, 10.000147, 9.999166 
1.0650361e+3, 2.1476158e+2, -863918.3, -939594.2, -45642.87, -0.026909703, -0.030668505, -842469.0, -7133.3213, 0.0, 10.000182, 9.999177 
1.06505565e+3, 2.2476076e+2, -779320.6, -884841.4, -31081.701, -0.026316725, -0.011567308, -770846.0, -33501.797, 0.0, 10.000249, 9.998848 
1.0650753e+3, 2.3476017e+2, -665911.06, -778591.5, -28447.734, -0.03823693, 0.04353278, -659136.3, -19784.678, 0.0, 10.000352, 9.998856 
1.065095e+3, 2.447589e+2, -579383.75, -728814.7, -21762.514, -0.053144798, 0.05421909, -576278.9, -34913.844, 0.0, 10.000457, 9.998473 
1.0651146e+3, 2.5475696e+2, -465320.66, -622058.75, -16131.093, -0.071590215, 0.011653869, -463677.7, -20292.865, 0.0, 10.000563, 9.998482 
1.0651348e+3, 2.6475543e+2, -335654.03, -484823.4, -4050.8435, -0.05391231, 0.0023992644, -335544.1, 9855.796, 0.0, 10.000677, 9.998696 
1.0651555e+3, 2.7475438e+2, -217117.08, -373599.97, -16803.848, 0.0028191472, 0.024862612, -215332.94, 32076.703, 0.0, 10.000804, 9.998726 
1.06517576e+3, 2.8475302e+2, -156644.56, -352760.34, -10987.184, -0.010010394, 0.046735417, -156030.94, -6607.811, 0.0, 10.0008, 9.998198 
1.0651952e+3, 2.947514e+2, -78783.625, -263130.4, -62.245617, -0.097760186, 0.06498204, -78783.6, -27343.258, 0.0, 10.000655, 9.99821 
1.0652155e+3, 3.0474973e+2, 30956.2, -93545.1, -9058.531, -0.100194976, 0.03885624, 31611.832, 31611.832, 0.0, 10.00068, 9.999029 
1.0652363e+3, 3.147486e+2, 65711.945, -71710.26, -19356.326, -0.012343402, 0.020247532, 68386.3, 68386.3, 0.0, 10.000896, 9.999074 
1.0748561e+3, 1.2474528e+2, -1696740.9, -1760238.4, -53021.684, -0.0996312, -0.03516885, -1666689.3, 50806.69, 0.00051082077, 10.000362, 9.999513 
1.0748783e+3, 1.3474555e+2, -1620212.0, -1647800.5, 20107.668, -0.04470356, 0.019819299, -1609621.8, 9873.0, 0.00023041679, 10.0001, 9.9997425 
1.0748982e+3, 1.4474532e+2, -1534735.5, -1548023.1, -44163.375, -0.13140208, 0.022286832, -1496719.0, 24778.295, 0.000053336094, 9.999984, 9.999806 
1.0749187e+3, 1.547448e+2, -1428790.1, -1443126.0, -33651.746, -0.06902214, -0.012363922, -1401551.4, 21949.732, 0.0000020676762, 10.000025, 9.999833 
1.0749387e+3, 1.6474433e+2, -1352950.0, -1403463.6, -45555.8, -0.03915574, -0.018216867, -1326118.1, -612.9329, 0.0000000000166348, 10.000078, 9.999407 
1.07495815e+3, 1.7474401e+2, -1243430.6, -1298763.6, -53547.06, -0.047674492, 0.007342011, -1210825.1, 16683.922, 0.0, 10.000153, 9.999418 
1.0749777e+3, 1.8474348e+2, -1136063.3, -1186424.1, -52653.473, -0.04423902, 0.012840884, -1102879.0, 26634.826, 0.0, 10.0001745, 9.999505 
1.0749974e+3, 1.9474278e+2, -1040369.9, -1087058.8, -42824.035, -0.026429417, -0.0098775355, -1014940.75, 16578.98, 0.0, 10.000148, 9.999527 
1.07501686e+3, 2.0474204e+2, -970210.06, -1047100.4, -43371.844, -0.024377927, -0.014326069, -950697.06, -17170.348, 0.0, 10.000149, 9.999128 
1.07503615e+3, 2.1474129e+2, -866986.9, -946423.25, -44882.316, -0.040110834, -0.0021959855, -846772.1, -11237.277, 0.0, 10.000184, 9.99913 
1.0750557e+3, 2.2474039e+2, -774546.1, -875212.9, -27806.506, -0.04297606, 0.0071224575, -767376.0, -29831.64, 0.0, 10.00025, 9.998915 
1.0750757e+3, 2.3473932e+2, -661071.2, -768807.3, -24740.273, -0.031534974, 0.00889544, -655661.5, -16106.111, 0.0, 10.000352, 9.998923 
1.0750956e+3, 2.4473815e+2, -568400.2, -706264.2, -17855.459, -0.030001845, 0.01561029, -566125.1, -24557.535, 0.0, 10.000457, 9.998629 
1.0751155e+3, 2.5473684e+2, -453931.88, -598736.0, -11936.197, -0.03884643, 0.021991506, -452954.6, -9373.422, 0.0, 10.000563, 9.998643 
1.0751355e+3, 2.647354e+2, -357865.44, -531023.7, 983.2551, -0.04137948, 0.03025001, -357859.88, -12263.993, 0.0, 10.000676, 9.99838 
1.0751559e+3, 2.7473384e+2, -240363.42, -421675.9, -11053.165, -0.0377652, 0.036609057, -239692.1, 7919.568, 0.0, 10.000802, 9.998397 
1.0751763e+3, 2.8473237e+2, -136073.6, -310038.94, -15450.692, -0.040090695, 0.043759726, -134712.0, 14914.754, 0.0, 10.000799, 9.998492 
1.0751964e+3, 2.947309e+2, -56858.44, -218256.1, -4610.7383, -0.047752768, 0.047067884, -56726.832, -5085.891, 0.0, 10.000657, 9.998518 
1.0752167e+3, 3.047293e+2, 19914.094, -116774.17, -405.2004, -0.04446423, 0.02139815, 19915.295, 19915.295, 0.0, 10.00068, 9.998869 
1.0752371e+3, 3.1472847e+2, 54435.555, -94592.695, -9903.71, -0.03204962, 0.049943384, 55090.83, 55090.83, 0.0, 10.000894, 9.998919 
1.0848565e+3, 1.2472465e+2, -1725971.5, -1774505.3, -62942.48, -0.092426814, -0.005898718, -1682779.9, 34918.98, 0.0005868495, 10.000165, 9.999509 
1.08487844e+3, 1.3472456e+2, -1604827.8, -1636151.4, 34574.617, -0.04336431, 0.009077327, -1582533.0, 37167.535, 0.00027068684, 10.00019, 9.999779 
1.0848982e+3, 1.4472426e+2, -1512104.8, -1538130.4, -26114.834, -0.13987762, 0.0048124823, -1495940.3, 25763.184, 0.00006622561, 10.000145, 9.999796 
1.0849187e+3, 1.5472402e+2, -1429975.9, -1445588.6, -42163.355, -0.06722991, -0.0012833142, -1394902.4, 28802.727, 0.000003027, 10.000027, 9.999815 
1.0849387e+3, 1.6472365e+2, -1360958.0, -1397800.8, -53697.887, -0.035685524, -0.0012401221, -1322609.6, 3098.6118, 0.000000000186287, 9.999984, 9.999492 
1.0849582e+3, 1.7472321e+2, -1256695.6, -1295118.6, -39732.797, -0.05177255, 0.0053506442, -1231773.5, -4061.137, 0.0, 10.00002, 9.999505 
1.0849777e+3, 1.8472265e+2, -1157241.8, -1194756.1, -38429.785, -0.053258706, -0.00053315226, -1133235.9, -3518.3826, 0.0, 10.000022, 9.99952 
1.0849973e+3, 1.947219e+2, -1061897.9, -1096285.3, -47130.06, -0.038032055, -0.02661174, -1028923.2, 2800.616, 0.0, 9.999995, 9.9995365 
1.0850169e+3, 2.0472129e+2, -977649.1, -1043692.1, -48609.832, -0.031128086, -0.023334254, -951905.56, -18175.658, 0.0, 10.000068, 9.999191 
1.0850364e+3, 2.147208e+2, -852837.5, -932167.06, -42202.145, -0.033759817, 0.009109433, -834585.8, 1149.8547, 0.0, 10.00025, 9.999196 
1.0850561e+3, 2.2471991e+2, -761137.6, -866018.56, -25180.658, -0.03433854, 0.015962703, -755405.3, -17660.447, 0.0, 10.00033, 9.998939 
1.08507596e+3, 2.3471858e+2, -667087.3, -769063.3, -25777.91, -0.0333563, -0.0101136705, -660941.5, -21183.51, 0.0, 10.000299, 9.998946 
1.0850959e+3, 2.4471742e+2, -579712.44, -705816.6, -20902.252, -0.030472256, -0.0057466943, -576338.06, -34568.098, 0.0, 10.000355, 9.998681 
1.0851161e+3, 2.5471643e+2, -458918.6, -595091.0, -23213.29, -0.024759809, 0.026500909, -455070.2, -11289.414, 0.0, 10.000504, 9.998696 
1.0851362e+3, 2.6471508e+2, -365919.53, -537687.8, -4682.778, -0.033311747, 0.040698264, -365791.94, -19996.963, 0.0, 10.000634, 9.998354 
1.0851565e+3, 2.7471334e+2, -250498.97, -429642.38, 4717.3784, -0.058328405, 0.031362798, -250374.84, -2562.1091, 0.0, 10.000746, 9.998369 
1.0851769e+3, 2.847118e+2, -134658.03, -300509.66, -4412.388, -0.055702437, 0.03433385, -134540.73, 15287.251, 0.0, 10.0007715, 9.99857 
1.08519726e+3, 2.9471052e+2, -44459.383, -202866.72, -10265.946, -0.021208417, 0.04535061, -43796.844, 8043.578, 0.0, 10.000703, 9.998601 
1.0852177e+3, 3.0470896e+2, 23839.23, -112043.81, 1074.3129, -0.015015678, 0.016711663, 23847.725, 23847.725, 0.0, 10.000695, 9.998895 
1.0852378e+3, 3.1470832e+2, 38729.14, -97290.02, 4777.803, -0.042736843, 0.0631667, 38896.758, 38896.758, 0.0, 10.000764, 9.998962 
1.0948564e+3, 1.2470423e+2, -1704935.0, -1729020.9, -62898.453, -0.10406797, 0.0472432, -1652937.0, 64964.88, 0.00066827383, 10.000156, 9.999825 
1.0948789e+3, 1.3470405e+2, -1579893.6, -1584171.3, 35873.88, -0.007711865, 0.019560818, -1546094.9, 73806.58, 0.00031450897, 10.000188, 10.000136 
1.0948986e+3, 1.4470364e+2, -1536656.4, -1589222.3, -30336.797, -0.10918841, 0.00090407144, -1522800.6, -895.5423, 0.000080840386, 10.000145, 9.999446 
1.0949187e+3, 1.5470321e+2, -1456171.4, -1500409.1, -46715.47, -0.069712, 0.015269265, -1426603.0, -2692.5464, 0.0000043066148, 10.000029, 9.999438 
1.0949386e+3, 1.6470283e+2, -1335720.9, -1345410.3, -52940.62, -0.048334874, 0.015503837, -1287403.8, 38509.777, 0.0000000006358386, 9.999983, 9.999851 
1.09495826e+3, 1.7470253e+2, -1229896.8, -1239669.1, -38638.348, -0.04876304, -0.0019190103, -1195836.9, 32076.877, 0.0, 10.00002, 9.999886 
1.0949776e+3, 1.8470192e+2, -1172082.6, -1226061.6, -40138.75, -0.05755433, -0.021532282, -1150703.3, -20784.621, 0.0, 10.000023, 9.999306 
1.0949969e+3, 1.9470094e+2, -1078187.1, -1130428.0, -48636.836, -0.07543683, -0.048401058, -1049100.5, -17171.8, 0.0, 9.999996, 9.999303 
1.0950166e+3, 2.0470034e+2, -967044.44, -1021650.56, -42643.934, -0.06066101, -0.0399133, -943711.94, -9776.648, 0.0, 10.000067, 9.999343 
1.0950369e+3, 2.1470012e+2, -841116.2, -908123.5, -35937.78, -0.008909525, 0.0035027228, -825487.2, 10450.622, 0.0, 10.00025, 9.999361 
1.09505676e+3, 2.2469936e+2, -761822.5, -868006.0, -26903.797, -0.0012993667, 0.015047428, -755394.94, -17449.38, 0.0, 10.000332, 9.998925 
1.0950762e+3, 2.3469798e+2, -668017.94, -771685.8, -27126.297, -0.04380884, -0.014020312, -661348.94, -21389.793, 0.0, 10.000301, 9.998928 
1.0950961e+3, 2.4469678e+2, -582964.94, -713070.8, -15411.855, -0.054373667, -0.010297026, -581164.25, -39192.402, 0.0, 10.000356, 9.998631 
1.0951166e+3, 2.5469577e+2, -462484.56, -602686.25, -17068.852, -0.028938608, 0.02547321, -460436.44, -16453.16, 0.0, 10.000504, 9.998645 
1.095137e+3, 2.6469445e+2, -349111.5, -502472.25, 29.147623, -0.030069256, 0.034636665, -349111.5, -3114.5874, 0.0, 10.000631, 9.998597 
1.0951572e+3, 2.746928e+2, -233421.25, -393152.53, 9586.526, -0.061064553, 0.010024119, -232847.97, 15164.81, 0.0, 10.000741, 9.998622 
1.0951776e+3, 2.846914e+2, -143779.95, -318716.94, -6252.797, -0.058354612, 0.018842114, -143556.73, 6470.051, 0.0, 10.000768, 9.998448 
1.095198e+3, 2.9469028e+2, -52780.926, -221613.84, -11854.083, -0.016690772, 0.058959324, -51952.69, 86.045074, 0.0, 10.000709, 9.998469 
1.09521836e+3, 3.046887e+2, 38563.902, -83325.234, 3858.7598, -0.010576724, 0.02387824, 38685.94, 38685.94, 0.0, 10.000702, 9.999089 
1.0952384e+3, 3.1468818e+2, 54633.324, -63884.516, 8063.9087, -0.047815777, 0.06365084, 55179.473, 55179.473, 0.0, 10.000762, 9.999193 
1.10485666e+3, 1.2468378e+2, -1684235.1, -1718024.1, -39581.68, -0.09714366, 0.068165444, -1658093.1, 60009.848, 0.00075577793, 10.000293, 9.999835 
1.10487916e+3, 1.3468352e+2, -1589927.6, -1583140.3, 35000.83, 0.0064456733, 0.02502223, -1551369.0, 68733.95, 0.00036234639, 10.0000925, 10.00019 
1.1048987e+3, 1.4468305e+2, -1554355.8, -1602419.0, -28061.049, -0.10465067, 0.00027144543, -1541442.3, -19335.521, 0.00009737699, 10.000045, 9.999403 
1.10491894e+3, 1.5468264e+2, -1440115.4, -1497901.1, -19932.406, -0.057448465, 0.019895062, -1433907.0, -9794.791, 0.0000060098255, 10.000162, 9.999391 
1.1049387e+3, 1.646822e+2, -1310914.5, -1330431.3, -27549.156, -0.04028627, 0.015663436, -1291446.5, 34669.18, 0.0000000015512864, 10.000142, 9.999877 
1.104958e+3, 1.7468177e+2, -1234236.3, -1238773.8, -40371.375, -0.059444737, -0.01780556, -1196069.9, 32046.646, 0.0, 9.999978, 9.999912 
1.1049774e+3, 1.8468112e+2, -1179647.5, -1230423.3, -42861.016, -0.07222506, -0.040536027, -1155219.6, -25098.254, 0.0, 9.999975, 9.999299 
1.10499695e+3, 1.9468026e+2, -1055785.3, -1120218.1, -34388.617, -0.07716396, -0.055681635, -1040879.75, -8749.12, 0.0, 10.000154, 9.999296 
1.10501684e+3, 2.0467968e+2, -944101.7, -1010103.0, -25200.352, -0.05824566, -0.04257181, -935580.06, -1443.1731, 0.0, 10.000223, 9.999347 
1.10503696e+3, 2.1467945e+2, -852513.7, -913340.9, -30656.29, -0.012872529, -0.0025985658, -839744.0, -3604.2358, 0.0, 10.000171, 9.999363 
1.10505685e+3, 2.2467865e+2, -779614.94, -878485.8, -28112.223, -0.0054784156, 0.0064362786, -772180.7, -34032.81, 0.0, 10.000218, 9.998907 
1.1050765e+3, 2.3467724e+2, -658094.44, -769060.5, -29009.492, -0.040754884, -0.024388425, -650968.2, -10806.325, 0.0, 10.00038, 9.998908 
1.1050964e+3, 2.4467607e+2, -561951.5, -697443.56, -13510.587, -0.052825075, -0.018249242, -560617.44, -18443.227, 0.0, 10.000477, 9.998679 
1.105117e+3, 2.5467518e+2, -458878.44, -595191.06, -8124.3755, -0.03945965, 0.025117537, -458395.94, -14211.458, 0.0, 10.0005045, 9.998695 
1.1051373e+3, 2.6467392e+2, -362201.38, -496834.63, 5568.05, -0.03852845, 0.032397117, -361971.5, -15774.101, 0.0, 10.000491, 9.998703 
1.1051578e+3, 2.7467227e+2, -270671.47, -398976.94, 4244.748, -0.051025927, -0.0051339683, -270531.2, -22318.104, 0.0, 10.000434, 9.99873 
1.1051784e+3, 2.8467092e+2, -176042.05, -337544.2, -9392.868, -0.047832552, 0.0056040036, -175497.6, -25271.102, 0.0, 10.000561, 9.998418 
1.1051987e+3, 2.9466996e+2, -27146.545, -213244.72, -8151.88, -0.026280843, 0.0643933, -26790.14, 25447.22, 0.0, 10.000902, 9.998433 
1.1052191e+3, 3.0466822e+2, 76811.72, -58906.535, -4206.61, -0.018592771, 0.014782463, 76941.98, 76941.98, 0.0, 10.000941, 9.999141 
1.1052394e+3, 3.146676e+2, 45071.86, -56969.883, -11416.748, -0.028181093, 0.040543467, 46333.6, 46333.6, 0.0, 10.0006485, 9.999294 
1.1148572e+3, 1.2466333e+2, -1706260.8, -1762526.1, -45457.926, -0.073077, 0.0489337, -1680934.4, 37368.0, 0.00085057894, 10.000288, 9.999533 
1.1148792e+3, 1.34663e+2, -1608549.8, -1621810.5, 27491.92, -0.002658677, 0.02492081, -1586900.0, 33404.355, 0.00041499882, 10.000092, 9.999926 
1.11489855e+3, 1.4466253e+2, -1535292.8, -1562593.6, -24185.9, -0.12822202, 0.00279984, -1521171.0, 1136.8093, 0.00011616446, 10.000043, 9.999678 
1.1149193e+3, 1.5466231e+2, -1419854.3, -1455932.3, -15499.296, -0.031177515, 0.012388038, -1414110.3, 10199.655, 0.000008247579, 10.000162, 9.999679 
1.1149391e+3, 1.6466178e+2, -1332929.8, -1376609.4, -33780.242, -0.011846402, -0.0012527425, -1314544.1, 11769.968, 0.0000000033697685, 10.000143, 9.999559 
1.1149578e+3, 1.7466092e+2, -1257564.6, -1287690.3, -46823.004, -0.08437073, -0.042621534, -1223441.3, 4879.1553, 0.0, 9.99998, 9.999576 
1.11497715e+3, 1.8466029e+2, -1166014.1, -1202058.6, -37265.547, -0.09831911, -0.057744768, -1142641.6, -12316.144, 0.0, 9.999974, 9.999495 
1.1149974e+3, 1.9465989e+2, -1040416.25, -1088949.0, -28252.328, -0.044053588, -0.04858006, -1027439.5, 4889.698, 0.0, 10.000155, 9.99951 
1.1150173e+3, 2.0465939e+2, -953609.1, -1030655.5, -27795.049, -0.024433281, -0.03136248, -944628.6, -10294.2705, 0.0, 10.000226, 9.999205 
1.1150368e+3, 2.1465881e+2, -863156.6, -935769.44, -33227.727, -0.045276627, -0.0091901235, -850246.8, -13905.581, 0.0, 10.000172, 9.999209 
1.1150568e+3, 2.2465782e+2, -781919.4, -883236.44, -22875.05, -0.046850536, -0.009844864, -776994.1, -38642.54, 0.0, 10.000218, 9.998875 
1.1150771e+3, 2.346564e+2, -660083.06, -773145.56, -23118.377, -0.025346054, -0.041090153, -655538.6, -15172.833, 0.0, 10.000379, 9.99888 
1.1150972e+3, 2.4465533e+2, -552245.1, -677165.0, -12351.804, -0.027289394, -0.029535225, -551035.5, -8658.657, 0.0, 10.000476, 9.998819 
1.1151172e+3, 2.546547e+2, -448628.34, -574160.8, -6748.8286, -0.05638599, 0.025473159, -448266.56, -3882.31, 0.0, 10.0005045, 9.998839 
1.1151377e+3, 2.6465353e+2, -363553.84, -500246.9, 3653.2646, -0.05847786, 0.033594463, -363456.28, -17059.928, 0.0, 10.000493, 9.998679 
1.1151584e+3, 2.7465174e+2, -272579.16, -403537.78, 2563.4355, -0.030136652, -0.015076448, -272529.0, -24115.45, 0.0, 10.000436, 9.998697 
1.11517906e+3, 2.846504e+2, -172324.11, -329760.03, 3374.205, -0.026208634, -0.0055882577, -172251.83, -21824.912, 0.0, 10.00056, 9.998472 
1.1151993e+3, 2.9464954e+2, -24407.506, -205978.67, 5715.8755, -0.049153097, 0.0632105, -24227.748, 28208.297, 0.0, 10.000895, 9.998487 
1.1152198e+3, 3.046476e+2, 70114.78, -72259.66, -13657.61, -0.038297914, -0.008463628, 71413.08, 71413.08, 0.0, 10.000937, 9.999051 
1.1152404e+3, 3.1464672e+2, 45144.414, -59955.098, -21517.723, 0.011472531, 0.0015906794, 49379.246, 49379.246, 0.0, 10.000661, 9.999269 
1.1248575e+3, 1.2464277e+2, -1696483.1, -1765484.9, -53954.48, -0.076481126, 0.030887865, -1666941.9, 51561.46, 0.00095378526, 10.00039, 9.999462 
1.1248795e+3, 1.3464248e+2, -1570824.5, -1606545.4, 34574.363, 0.007853039, 0.015511136, -1549769.9, 70735.03, 0.00047316175, 10.000364, 9.999898 
1.1248987e+3, 1.4464206e+2, -1496759.6, -1539180.8, -12108.71, -0.13074394, -0.0047409288, -1493546.6, 28961.414, 0.00013752929, 10.000287, 9.999721 
1.1249194e+3, 1.546419e+2, -1418600.8, -1451003.0, -22729.404, -0.035447042, 0.0062907743, -1406889.5, 17619.686, 0.00001111389, 10.000153, 9.999718 
1.1249392e+3, 1.6464129e+2, -1347659.0, -1403391.6, -46358.12, -0.014665309, -0.0049713957, -1321436.4, 5077.644, 0.0000000061074554, 10.000128, 9.999383 
1.1249579e+3, 1.746403e+2, -1234232.0, -1296943.4, -48287.67, -0.08106204, -0.04326916, -1208012.8, 20510.03, 0.0, 10.000229, 9.999392 
1.1249773e+3, 1.8463962e+2, -1127912.8, -1176633.6, -35678.273, -0.09079124, -0.056394506, -1109071.6, 21456.652, 0.0, 10.000206, 9.999557 
1.1249976e+3, 1.9463928e+2, -1052107.6, -1086786.5, -37711.137, -0.03562049, -0.046697468, -1027940.6, 4589.7954, 0.0, 10.000042, 9.999579 
1.1250175e+3, 2.0463875e+2, -988748.9, -1060232.0, -39675.176, -0.019554019, -0.03203646, -971090.25, -36554.42, 0.0, 10.00004, 9.999091 
1.125037e+3, 2.14638e+2, -863693.75, -949286.5, -42969.965, -0.048602574, -0.015609871, -845844.06, -9299.096, 0.0, 10.000226, 9.99909 
1.1250569e+3, 2.2463696e+2, -763924.94, -866072.7, -27696.95, -0.051690854, -0.018197224, -756898.4, -18342.535, 0.0, 10.000305, 9.99895 
1.1250773e+3, 2.3463564e+2, -671227.3, -768834.44, -20287.035, -0.024963358, -0.046835646, -667178.7, -26610.188, 0.0, 10.000262, 9.998965 
1.1250975e+3, 2.4463463e+2, -574896.0, -685956.0, -8457.627, -0.02537741, -0.03503402, -574255.6, -31676.857, 0.0, 10.000313, 9.9988365 
1.1251177e+3, 2.54634e+2, -452631.06, -574507.75, -12888.676, -0.056687575, 0.017441757, -451282.97, -6696.759, 0.0, 10.000472, 9.998853 
1.1251382e+3, 2.646328e+2, -358445.72, -502658.66, -13135.271, -0.055727743, 0.02362449, -357259.1, -10660.318, 0.0, 10.00055, 9.998634 
1.12515904e+3, 2.7463093e+2, -260783.4, -402997.44, -15856.378, -0.018541567, -0.025854312, -259036.92, -10420.156, 0.0, 10.00054, 9.998651 
1.1251797e+3, 2.8462964e+2, -168039.11, -310355.13, -5756.667, -0.016073262, -0.016539268, -167806.63, -17177.236, 0.0, 10.000515, 9.998627 
1.1252001e+3, 2.9462895e+2, -73460.42, -211378.2, 3946.679, -0.052120775, 0.051774647, -73347.58, -20711.498, 0.0, 10.000481, 9.99865 
1.1252206e+3, 3.0462682e+2, 15882.43, -116862.23, -17095.844, -0.039675456, -0.035635363, 18048.805, 18048.805, 0.0, 10.000645, 9.998886 
1.1252414e+3, 3.146259e+2, 93851.266, -47277.664, -31399.258, 0.031105097, -0.01839227, 100521.88, 100521.88, 0.0, 10.001041, 9.999172 
1.1348575e+3, 1.2462213e+2, -1684910.3, -1740534.5, -52569.707, -0.10991119, 0.011778881, -1653248.9, 65456.617, 0.0010657869, 10.000386, 9.999636 
1.1348801e+3, 1.3462205e+2, -1555647.8, -1574920.8, 33374.34, 0.037863392, -0.0032485, -1530546.5, 90157.54, 0.00053702114, 10.000363, 10.000116 
1.134899e+3, 1.4462167e+2, -1510869.8, -1568334.3, -17200.104, -0.11231068, -0.02288525, -1506114.9, 16591.955, 0.00016162105, 10.000286, 9.999521 
1.1349192e+3, 1.546214e+2, -1433710.4, -1482721.5, -28051.281, -0.07213476, 0.0016695831, -1420968.3, 3741.454, 0.000014669085, 10.000154, 9.999499 
1.134939e+3, 1.6462083e+2, -1350287.9, -1409205.6, -43382.16, -0.050601028, 0.0048280573, -1327307.9, -592.87195, 0.000000009421829, 10.000128, 9.999344 
1.13495834e+3, 1.7461994e+2, -1235881.0, -1301356.0, -44859.457, -0.049886893, -0.019408626, -1213083.8, 15639.346, 0.0, 10.000233, 9.99936 
1.1349779e+3, 1.8461917e+2, -1132565.6, -1187241.5, -42386.168, -0.049922332, -0.036378067, -1109466.0, 21263.412, 0.0, 10.00021, 9.999483 
1.13499746e+3, 1.9461852e+2, -1057244.1, -1097661.5, -44453.867, -0.05197563, -0.04996595, -1028621.06, 4112.82, 0.0, 10.000043, 9.999505 
1.1350172e+3, 2.0461781e+2, -995464.4, -1074086.1, -33909.063, -0.044159897, -0.04458302, -982860.25, -48119.43, 0.0, 10.000039, 9.998997 
1.1350375e+3, 2.1461703e+2, -870034.56, -963024.4, -36503.047, -0.024390712, -0.021862665, -857417.3, -20666.646, 0.0, 10.000228, 9.998996 
1.1350575e+3, 2.2461611e+2, -750930.5, -839611.25, -29752.264, -0.021590108, -0.018717263, -741873.6, -3113.3003, 0.0, 10.000307, 9.999131 
1.1350774e+3, 2.34615e+2, -657334.9, -740695.5, -22234.379, -0.038985576, -0.042250354, -651775.25, -11005.454, 0.0, 10.000264, 9.999158 
1.1350977e+3, 2.44614e+2, -582039.3, -701139.56, -3004.417, -0.046542637, -0.03536396, -581963.56, -39183.895, 0.0, 10.000314, 9.998733 
1.1351183e+3, 2.546131e+2, -461537.2, -591718.2, -6632.5703, -0.0422875, 0.0014273508, -461200.13, -16410.049, 0.0, 10.000465, 9.998737 
1.13513894e+3, 2.6461175e+2, -364017.88, -512649.6, -12712.495, -0.032434814, 0.0036032505, -362938.4, -16134.169, 0.0, 10.000543, 9.9985695 
1.1351596e+3, 2.7460992e+2, -265045.84, -412040.66, -15083.243, -0.015810903, -0.0367439, -263514.1, -14691.761, 0.0, 10.000541, 9.998589 
1.13518015e+3, 2.846087e+2, -150677.66, -275459.44, -6529.0205, -0.017033461, -0.0271211, -150336.97, 496.6336, 0.0, 10.00052, 9.998864 
1.13520056e+3, 2.9460818e+2, -55920.65, -175150.52, 2966.1191, -0.03889979, 0.029875249, -55846.902, -3009.4937, 0.0, 10.000481, 9.9988985 
1.13522135e+3, 3.04606e+2, -383.17203, -150009.23, -2402.6655, -0.026240343, -0.06655112, -344.60046, -344.60046, 0.0, 10.000641, 9.998661 
1.1352424e+3, 3.1460518e+2, 82971.46, -68874.23, -15141.182, 0.03148784, -0.011069299, 84466.53, 84466.53, 0.0, 10.001037, 9.999027 
1.1448578e+3, 1.24601826e+2, -1671746.6, -1730611.0, -35478.367, -0.12774558, 0.010214859, -1655081.4, 63823.695, 0.001186206, 10.000462, 9.999667 
1.14488065e+3, 1.3460189e+2, -1548652.8, -1564930.4, 33610.816, 0.052836537, 0.0046290895, -1522209.4, 98692.2, 0.00060623896, 10.000382, 10.000176 
1.1448994e+3, 1.4460142e+2, -1508183.9, -1579950.3, -19538.576, -0.10691818, -0.020835191, -1503209.3, 19695.674, 0.00018835878, 10.0003605, 9.999405 
1.1449193e+3, 1.5460095e+2, -1407121.4, -1484097.4, -24078.752, -0.080524966, -0.0053431396, -1400209.9, 24700.21, 0.000018936791, 10.000398, 9.9993725 
1.1449391e+3, 1.6460033e+2, -1322581.3, -1399492.6, -34725.016, -0.057449553, 0.0002864778, -1309223.3, 17692.906, 0.000000013934886, 10.000334, 9.9993105 
1.1449587e+3, 1.7459954e+2, -1248656.9, -1310873.0, -35989.918, -0.037927676, -0.009047254, -1232194.1, -3271.141, 0.0, 10.000159, 9.9993305 
1.1449782e+3, 1.845987e+2, -1152891.0, -1216121.5, -34944.043, -0.037319705, -0.025349805, -1137382.9, -6452.6343, 0.0, 10.000153, 9.999311 
1.14499755e+3, 1.9459772e+2, -1024977.8, -1101721.1, -45109.984, -0.05951506, -0.05442724, -1004127.06, 28810.83, 0.0, 10.00035, 9.999329 
1.1450174e+3, 2.0459683e+2, -939955.75, -1047029.94, -33551.965, -0.054429017, -0.05715127, -930310.9, 4635.4365, 0.0, 10.00042, 9.998999 
1.1450377e+3, 2.1459605e+2, -853319.25, -953674.7, -28440.67, -0.017709991, -0.033952784, -845819.6, -8863.932, 0.0, 10.000339, 9.999005 
1.1450578e+3, 2.245952e+2, -745210.0, -837694.3, -24992.031, -0.012838287, -0.023316441, -738888.5, 76.134056, 0.0, 10.000352, 9.999123 
1.14507765e+3, 2.3459426e+2, -627032.06, -727299.56, -32816.53, -0.045650635, -0.030991506, -617246.56, 23726.297, 0.0, 10.000479, 9.999146 
1.1450979e+3, 2.4459322e+2, -569726.7, -696549.0, -22996.615, -0.05264973, -0.026310503, -565685.5, -22702.367, 0.0, 10.000404, 9.99872 
1.1451186e+3, 2.5459206e+2, -516169.56, -619251.2, -19878.182, -0.029228956, -0.0128448345, -512469.1, -67473.49, 0.0, 10.000096, 9.998726 
1.1451394e+3, 2.6459068e+2, -426576.13, -535804.8, -8810.723, -0.015816305, -0.017232116, -425869.97, -78860.07, 0.0, 10.000085, 9.9986315 
1.14516005e+3, 2.7458906e+2, -277680.88, -410815.63, -2015.079, -0.014064432, -0.0448397, -277650.38, -28624.443, 0.0, 10.000423, 9.998653 
1.1451807e+3, 2.8458786e+2, -148406.03, -280589.06, -7601.584, -0.016868234, -0.03279821, -147970.31, 3066.53, 0.0, 10.000563, 9.998808 
1.1452012e+3, 2.9458717e+2, -62088.465, -185411.25, -20658.59, -0.024734152, 0.014314715, -58719.83, -5677.4624, 0.0, 10.00047, 9.998834 
1.1452219e+3, 3.0458486e+2, -21909.559, -159223.0, -17571.889, -0.017115958, -0.08725921, -19696.564, -19696.564, 0.0, 10.00049, 9.99867 
1.14524305e+3, 3.1458443e+2, 35955.68, -75907.3, -13029.463, 0.016274603, 0.0039818822, 37453.26, 37453.26, 0.0, 10.000649, 9.999165 
1.1548582e+3, 1.2458191e+2, -1681399.3, -1747855.6, -33355.145, -0.13112722, 0.025525583, -1667545.9, 51555.49, 0.0013141764, 10.00045, 9.999555 
1.154881e+3, 1.3458209e+2, -1556228.5, -1580217.8, 30526.3, 0.050682873, 0.040510606, -1535424.9, 85671.96, 0.0006802459, 10.000381, 10.0000725 
1.1548997e+3, 1.4458142e+2, -1510073.1, -1584904.0, -18674.281, -0.116214156, 0.0026603786, -1505671.8, 17429.975, 0.00021757523, 10.000363, 9.999371 
1.15491994e+3, 1.5458058e+2, -1408895.8, -1489020.6, -22989.459, -0.0603233, -0.014423759, -1402768.3, 22341.59, 0.000023929451, 10.000402, 9.999337 
1.1549397e+3, 1.6457982e+2, -1323993.8, -1403079.5, -41652.277, -0.03526456, -0.019051742, -1306103.6, 21013.16, 0.000000023716384, 10.000337, 9.999286 
1.15495875e+3, 1.7457917e+2, -1250573.3, -1314629.6, -43042.016, -0.046045817, -0.012551367, -1228950.5, 171.55098, 0.0, 10.000158, 9.999306 
1.1549781e+3, 1.8457823e+2, -1172389.0, -1256562.5, -28806.43, -0.05419945, -0.02331749, -1163474.8, -32344.51, 0.0, 10.000152, 9.999035 
1.15499794e+3, 1.9457689e+2, -1044584.8, -1143132.1, -38268.68, -0.059247315, -0.059993938, -1031469.5, 1672.4855, 0.0, 10.000352, 9.999044 
1.15501784e+3, 2.0457584e+2, -932984.3, -1033153.0, -36956.85, -0.051384807, -0.06961372, -920825.2, 14326.761, 0.0, 10.000422, 9.999093 
1.15503795e+3, 2.1457511e+2, -845285.9, -937269.1, -32127.084, -0.02823717, -0.052256957, -835176.0, 1983.879, 0.0, 10.000339, 9.999119 
1.1550581e+3, 2.2457431e+2, -759207.5, -866742.75, -21204.662, -0.025222268, -0.032455537, -755177.25, -16008.888, 0.0, 10.000351, 9.998923 
1.1550781e+3, 2.3457344e+2, -642291.8, -758435.0, -28223.57, -0.046111118, -0.012984311, -635796.56, 5380.8604, 0.0, 10.000476, 9.998935 
1.1550984e+3, 2.4457233e+2, -564960.94, -686279.25, -33962.625, -0.0451345, -0.0077049993, -556100.4, -12911.744, 0.0, 10.000402, 9.998792 
1.1551189e+3, 2.5457096e+2, -509157.94, -606548.7, -31184.742, -0.017756956, -0.025423184, -500028.34, -54825.863, 0.0, 10.000104, 9.99881 
1.1551395e+3, 2.6456958e+2, -413340.6, -510130.03, 3064.8438, -0.006153149, -0.03946913, -413243.63, -66027.98, 0.0, 10.000092, 9.998804 
1.1551605e+3, 2.745683e+2, -266645.5, -385902.7, 11002.616, -0.014591085, -0.050721332, -265638.9, -16411.293, 0.0, 10.000414, 9.998829 
1.1551813e+3, 2.8456712e+2, -172680.31, -327669.0, -9682.318, -0.017087948, -0.033361122, -172077.8, -20838.852, 0.0, 10.000547, 9.998492 
1.1552018e+3, 2.9456598e+2, -86178.66, -235339.28, -22352.813, -0.010675657, 0.005487237, -82900.95, -29650.69, 0.0, 10.000468, 9.998491 
1.1552225e+3, 3.045636e+2, -7958.345, -131344.2, -10873.83, -0.012729192, -0.09843823, -7007.3784, -7007.3784, 0.0, 10.000493, 9.99886 
1.15524344e+3, 3.1456375e+2, 60872.492, -23443.8, -6227.8765, -0.015678834, 0.030293759, 61330.02, 61330.02, 0.0, 10.000646, 9.999528 
1.1648589e+3, 1.2456208e+2, -1660856.3, -1748294.6, -32421.006, -0.107446745, 0.0582538, -1650146.8, 69150.03, 0.0014487223, 10.000636, 9.999462 
1.1648814e+3, 1.3456194e+2, -1528970.5, -1577456.6, 25510.473, 0.04355928, 0.05093945, -1518021.1, 103273.84, 0.0007585872, 10.000613, 9.99998 
1.1648999e+3, 1.4456108e+2, -1483752.5, -1570325.1, -21007.805, -0.13997896, -0.003102552, -1478924.0, 44377.44, 0.00024917058, 10.000536, 9.999388 
1.16492055e+3, 1.5456031e+2, -1408482.5, -1486895.3, -21883.195, -0.04047679, -0.014303739, -1402788.9, 22519.662, 0.000029664654, 10.000396, 9.999354 
1.1649403e+3, 1.6455953e+2, -1317165.0, -1412434.3, -38143.477, -0.009617137, -0.017064959, -1303775.3, 23540.273, 0.00000004774233, 10.000439, 9.999171 
1.1649591e+3, 1.7455871e+2, -1179752.8, -1293993.8, -47096.82, -0.05850902, -0.014819007, -1162840.4, 66481.875, 0.0, 10.000703, 9.999185 
1.1649784e+3, 1.8455763e+2, -1099606.9, -1231967.0, -33410.13, -0.07250451, -0.028861316, -1091651.6, 39680.21, 0.0, 10.000697, 9.99894 
1.1649984e+3, 1.9455618e+2, -1047938.56, -1155026.8, -28582.26, -0.04636952, -0.06705756, -1040787.44, -7442.768, 0.0, 10.000374, 9.998952 
1.1650183e+3, 2.0455505e+2, -964728.9, -1058258.5, -23405.396, -0.033990283, -0.075189546, -959198.75, -23843.465, 0.0, 10.000247, 9.999004 
1.1650382e+3, 2.145543e+2, -848349.25, -948694.44, -33857.008, -0.03787211, -0.053127393, -837994.25, -630.8082, 0.0, 10.000361, 9.999029 
1.16505824e+3, 2.2455339e+2, -768991.2, -881077.56, -29139.055, -0.037266124, -0.03394556, -761868.56, -22495.623, 0.0, 10.000326, 9.9988365 
1.1650786e+3, 2.3455235e+2, -701359.25, -796168.06, -27414.992, -0.030968832, -0.021783201, -694002.7, -52618.887, 0.0, 10.000112, 9.99885 
1.16509885e+3, 2.4455121e+2, -600954.9, -703595.2, -28168.781, -0.024183765, -0.016479053, -593732.44, -50336.793, 0.0, 10.000156, 9.998791 
1.1651191e+3, 2.5454992e+2, -449497.25, -577684.1, -31632.793, -0.017392986, -0.025425775, -442116.2, 3292.381, 0.0, 10.000514, 9.99881 
1.16513975e+3, 2.645486e+2, -353429.03, -473103.84, -9406.676, -0.012766177, -0.036138386, -352694.16, -5273.295, 0.0, 10.000468, 9.998878 
1.1651606e+3, 2.7454737e+2, -329901.72, -407947.28, -9221.599, -0.011139502, -0.04992555, -328826.9, -79395.04, 0.0, 9.999943, 9.998904 
1.1651814e+3, 2.845462e+2, -277632.2, -380146.4, -13882.006, -0.01084839, -0.035038162, -275785.63, -124342.46, 0.0, 9.999836, 9.998474 
1.1652022e+3, 2.9454502e+2, -123109.74, -255483.23, -4314.0884, -0.010594424, -0.000534737, -122969.29, -69513.63, 0.0, 10.000227, 9.998469 
1.1652229e+3, 3.0454254e+2, -24898.367, -140967.36, 6656.874, -0.0161284, -0.110904105, -24517.824, -24517.824, 0.0, 10.000384, 9.998846 
1.16524376e+3, 3.1454286e+2, 15330.004, -28687.877, -4496.689, -0.01553828, 0.033419833, 15784.671, 15784.671, 0.0, 10.00026, 9.999678 
1.1748601e+3, 1.2454242e+2, -1665756.8, -1758526.3, -27193.885, -0.0553327, 0.11075765, -1658373.0, 61117.414, 0.001589411, 10.000635, 9.9993925 
1.1748818e+3, 1.345415e+2, -1534519.4, -1589459.6, 24072.115, 0.030756226, 0.035025865, -1525464.5, 96030.98, 0.0008411694, 10.000613, 9.999898 
1.1749e+3, 1.4454043e+2, -1479176.9, -1560691.8, -26783.623, -0.1797719, -0.03954911, -1471164.1, 52339.55, 0.0002831922, 10.000536, 9.999454 
1.1749212e+3, 1.5454021e+2, -1403279.6, -1475855.3, -27564.117, -0.021803796, -0.004832486, -1393997.9, 31507.576, 0.000036181405, 10.000396, 9.999431 
1.1749411e+3, 1.645395e+2, -1331664.9, -1443219.0, -29298.762, 0.018847262, 0.0070073316, -1324438.0, 3073.678, 0.00000010132158, 10.000441, 9.9989605 
1.1749596e+3, 1.7453822e+2, -1194693.4, -1326224.6, -37458.555, -0.07614195, -0.015396632, -1184773.8, 44749.38, 0.0, 10.000708, 9.998961 
1.1749789e+3, 1.8453692e+2, -1093033.4, -1219135.5, -45514.1, -0.09381816, -0.041761037, -1078322.3, 53212.336, 0.0, 10.0007, 9.999027 
1.174999e+3, 1.9453563e+2, -1040683.2, -1140285.1, -41372.098, -0.020852547, -0.07592838, -1025740.1, 7805.325, 0.0, 10.000374, 9.999053 
1.1750188e+3, 2.0453452e+2, -983842.9, -1098396.5, -20640.445, -0.0021930204, -0.074341185, -980237.4, -44681.363, 0.0, 10.000248, 9.998729 
1.17503844e+3, 2.1453363e+2, -868801.0, -991373.06, -30107.863, -0.047715608, -0.036459256, -861804.8, -24238.799, 0.0, 10.000361, 9.998736 
1.1750585e+3, 2.2453249e+2, -767465.75, -878353.0, -37375.344, -0.05032978, -0.027216665, -756044.5, -16466.547, 0.0, 10.000327, 9.998856 
1.175079e+3, 2.3453106e+2, -697941.06, -790445.5, -35860.234, -0.000943078, -0.056710698, -685667.9, -44076.02, 0.0, 10.000116, 9.998887 
1.1750994e+3, 2.4452987e+2, -605805.56, -714504.6, -15994.066, 0.009377987, -0.052401174, -603501.06, -59897.18, 0.0, 10.00016, 9.998714 
1.1751195e+3, 2.54529e+2, -456122.75, -589955.44, -17929.99, -0.028115889, -0.013570074, -453762.25, -8148.5483, 0.0, 10.000507, 9.99873 
1.17514e+3, 2.645278e+2, -355683.13, -476242.56, -27226.574, -0.035291262, -0.008025059, -349819.6, -2194.3616, 0.0, 10.000461, 9.99886 
1.1751606e+3, 2.7452633e+2, -330234.47, -409896.84, -28086.809, -0.005670669, -0.042994294, -321327.66, -71689.38, 0.0, 9.999948, 9.99889 
1.1751814e+3, 2.845252e+2, -260154.22, -345179.56, -332.05765, -0.0008215668, -0.03855667, -260152.92, -108503.72, 0.0, 9.999841, 9.998713 
1.1752021e+3, 2.9452422e+2, -106769.2, -219639.03, 10448.415, -0.024941402, -0.0038990323, -105810.14, -52151.4, 0.0, 10.000217, 9.99872 
1.17522314e+3, 3.045217e+2, -38577.387, -167001.02, 3257.028, -0.028082961, -0.12349931, -38494.836, -38494.836, 0.0, 10.000374, 9.998673 
1.1752444e+3, 3.1452182e+2, 14915.695, -30975.256, -7420.8984, 0.011153942, 0.019600043, 16085.87, 16085.87, 0.0, 10.000265, 9.99966 
1.18486084e+3, 1.2452202e+2, -1622776.8, -1734091.6, -32812.285, -0.05374181, 0.104221955, -1613824.6, 105865.38, 0.0017368259, 10.0009165, 9.999424 
1.1848826e+3, 1.3452108e+2, -1541624.9, -1590566.8, 17344.414, 0.049724016, 0.023116514, -1536101.6, 85593.586, 0.00092832, 10.000555, 9.999918 
1.1849005e+3, 1.4451998e+2, -1490251.4, -1578116.4, -25423.766, -0.17542365, -0.048948307, -1483425.4, 40278.293, 0.0003198089, 10.000513, 9.999344 
1.1849216e+3, 1.5451986e+2, -1346891.0, -1461636.8, -40904.414, -0.03038466, 0.006257188, -1333802.4, 91902.77, 0.0000435681, 10.000839, 9.999313 
1.1849415e+3, 1.6451909e+2, -1277176.6, -1418034.3, -49233.27, 0.012726585, 0.019104794, -1261674.5, 66037.5, 0.00000019883093, 10.000819, 9.99895 
1.1849602e+3, 1.7451759e+2, -1241328.1, -1348923.1, -41474.242, -0.06137682, -0.02609865, -1227197.1, 2528.1104, 0.0, 10.000389, 9.99896 
1.1849795e+3, 1.8451624e+2, -1159088.8, -1261700.6, -44529.543, -0.07738401, -0.052679554, -1142459.6, -10722.619, 0.0, 10.000294, 9.998931 
1.1849994e+3, 1.9451511e+2, -1013581.44, -1138449.6, -55759.25, -0.026065145, -0.060198933, -992307.06, 41439.707, 0.0, 10.000609, 9.998952 
1.1850192e+3, 2.0451394e+2, -932504.75, -1086405.4, -39935.625, -0.00871287, -0.054415055, -922759.06, 12999.082, 0.0, 10.000656, 9.998614 
1.1850389e+3, 2.1451269e+2, -874650.7, -1006669.7, -36291.4, -0.030891137, -0.039095353, -865332.06, -27560.738, 0.0, 10.000376, 9.998624 
1.18505895e+3, 2.2451138e+2, -775324.5, -887200.8, -36585.363, -0.031840526, -0.039037183, -764422.8, -24638.049, 0.0, 10.000297, 9.998809 
1.1850791e+3, 2.3450997e+2, -650806.9, -772521.56, -41226.16, -0.008260184, -0.061631028, -638157.6, 3640.5376, 0.0, 10.000461, 9.998844 
1.1850995e+3, 2.4450885e+2, -572971.6, -701335.1, -22070.033, -0.001008668, -0.050169542, -569283.06, -25473.186, 0.0, 10.000397, 9.998691 
1.18512e+3, 2.54508e+2, -522776.22, -624483.9, -20269.082, -0.012800632, -0.004253536, -518885.66, -73066.11, 0.0, 10.00006, 9.998708 
1.1851402e+3, 2.6450676e+2, -434129.56, -515871.03, -34593.38, -0.018057756, -0.002688064, -421454.8, -73623.05, 0.0, 9.999931, 9.998842 
1.1851605e+3, 2.745051e+2, -316537.75, -405072.2, -36656.027, -0.016422916, -0.05537154, -303331.06, -53484.426, 0.0, 10.0000515, 9.998872 
1.18518114e+3, 2.84504e+2, -232131.7, -322962.72, -5523.17, -0.014218899, -0.04574135, -231797.1, -79940.28, 0.0, 9.999997, 9.99879 
1.1852023e+3, 2.9450348e+2, -170749.95, -241396.22, -6127.6206, -0.009719379, 0.022680584, -170222.4, -116359.97, 0.0, 9.99974, 9.998801 
1.1852232e+3, 3.0450094e+2, -127537.01, -209461.5, -11313.022, -0.011861788, -0.10110924, -126003.49, -126003.49, 0.0, 9.999762, 9.998675 
1.1852444e+3, 3.1450054e+2, 4663.065, -14393.426, -9592.316, -0.00024621183, -0.010166927, 8655.174, 8655.174, 0.0, 10.000103, 9.999851 
1.1948612e+3, 1.2450095e+2, -1613156.5, -1713778.5, -37943.633, -0.10563756, 0.036020216, -1600452.3, 119442.86, 0.0018922538, 10.000915, 9.999564 
1.1948835e+3, 1.3450073e+2, -1533209.5, -1572821.6, 3153.2148, 0.100785464, 0.015085936, -1532960.1, 88933.234, 0.00102056, 10.000554, 10.000041 
1.1949015e+3, 1.4449984e+2, -1510881.1, -1621164.1, -14565.895, -0.12593624, -0.029953925, -1508989.8, 14910.813, 0.0003592124, 10.000512, 9.999049 
1.194922e+3, 1.544993e+2, -1368498.0, -1507664.1, -29054.074, -0.06770331, 0.01925698, -1362675.9, 63231.11, 0.00005194898, 10.000843, 9.998996 
1.1949419e+3, 1.6449836e+2, -1263517.8, -1390661.8, -64960.33, -0.030451298, 0.019381618, -1236198.4, 91717.63, 0.00000035173326, 10.000823, 9.999137 
1.1949611e+3, 1.7449684e+2, -1225897.1, -1317356.5, -58355.66, -0.013963529, -0.04723543, -1197487.8, 32440.213, 0.0, 10.00039, 9.999175 
1.1949804e+3, 1.8449558e+2, -1178783.0, -1302908.6, -34643.563, -0.022692453, -0.062174346, -1169768.6, -37829.754, 0.0, 10.000294, 9.998648 
1.1949997e+3, 1.9449466e+2, -1034993.9, -1183065.4, -44386.758, -0.06287766, -0.019611584, -1022707.7, 11240.382, 0.0, 10.000609, 9.998646 
1.1950194e+3, 2.0449333e+2, -929430.1, -1080222.1, -50127.566, -0.055205587, -0.014528108, -914287.06, 21674.158, 0.0, 10.000656, 9.998657 
1.1950398e+3, 2.1449155e+2, -869765.06, -997463.7, -47555.793, 0.011874571, -0.06084149, -854001.0, -16022.018, 0.0, 10.000379, 9.998686 
1.1950597e+3, 2.244901e+2, -782787.56, -903447.2, -31835.316, 0.017775621, -0.06986351, -774903.2, -34910.117, 0.0, 10.0002985, 9.998696 
1.1950792e+3, 2.3448916e+2, -659419.5, -790288.2, -35210.656, -0.051837556, -0.037361927, -650547.44, -8544.88, 0.0, 10.00046, 9.998723 
1.19509935e+3, 2.4448812e+2, -571557.0, -698343.75, -34027.105, -0.054597825, -0.010446907, -563002.06, -18988.693, 0.0, 10.000396, 9.998713 
1.1951204e+3, 2.5448698e+2, -520331.53, -619934.7, -32683.277, 0.025578398, 0.0024023247, -510564.72, -64538.918, 0.0, 10.000062, 9.998738 
1.1951408e+3, 2.644855e+2, -436102.0, -520388.4, -30516.434, 0.0351971, -0.019510828, -426213.47, -78173.24, 0.0, 9.999932, 9.998812 
1.1951603e+3, 2.7448368e+2, -318807.38, -409945.75, -31766.523, -0.04241087, -0.08512708, -308827.8, -58771.16, 0.0, 10.000051, 9.998839 
1.1951808e+3, 2.8448272e+2, -235952.56, -331205.63, -14143.912, -0.04977605, -0.05590169, -233896.73, -81831.07, 0.0, 9.999997, 9.9987335 
1.1952024e+3, 2.9448277e+2, -175300.64, -251128.78, -14497.234, 0.02943817, 0.07499717, -172623.5, -118556.92, 0.0, 9.99974, 9.998734 
1.1952234e+3, 3.0448028e+2, -119068.016, -190989.58, 1432.7084, 0.026885338, -0.04767766, -119039.49, -119039.49, 0.0, 9.999757, 9.998805 
1.19524404e+3, 3.144791e+2, 26567.824, 33891.258, 4285.456, -0.046731632, -0.046727035, 35866.32, 35866.32, 0.0, 10.00009, 10.00019 
1.2048619e+3, 1.2448026e+2, -1630377.3, -1734485.8, -19363.309, -0.12221408, -0.0045617097, -1626892.5, 93203.67, 0.0020569195, 10.00085, 9.999453 
1.2048845e+3, 1.344803e+2, -1476433.0, -1561373.9, -9177.153, 0.12006843, 0.015424509, -1475452.8, 146640.14, 0.0011183886, 10.001013, 9.999897 
1.2049024e+3, 1.4447941e+2, -1450619.4, -1598068.4, -24913.965, -0.110932, -0.01851788, -1446523.5, 77576.914, 0.00040151636, 10.000953, 9.998995 
1.2049227e+3, 1.5447865e+2, -1405517.0, -1530893.4, -19817.008, -0.06861875, 0.01127291, -1402459.3, 23649.678, 0.000061428385, 10.000614, 9.998946 
1.20494254e+3, 1.6447759e+2, -1309773.5, -1427698.1, -58145.656, -0.03611322, 0.008510172, -1285925.9, 42193.336, 0.00000057087306, 10.00057, 9.999002 
1.20496176e+3, 1.744761e+2, -1161393.9, -1302158.8, -78809.05, -0.010537825, -0.04117947, -1126113.9, 104017.836, 0.0, 10.000902, 9.999032 
1.204981e+3, 1.8447481e+2, -1082522.5, -1257270.6, -57190.19, -0.016760103, -0.053288, -1065469.9, 66673.32, 0.0, 10.000958, 9.99864 
1.2050003e+3, 1.9447373e+2, -1026664.44, -1178749.6, -44108.58, -0.06257126, -0.025132865, -1014797.75, 19355.5, 0.0, 10.000666, 9.998648 
1.2050199e+3, 2.0447235e+2, -955954.2, -1102798.3, -47007.883, -0.058106624, -0.020370163, -942195.2, -6028.4263, 0.0, 10.000517, 9.998569 
1.20504014e+3, 2.1447064e+2, -852013.3, -999384.1, -56476.113, 0.007688398, -0.049407445, -832859.7, 5324.6675, 0.0, 10.000546, 9.998591 
1.20506e+3, 2.244692e+2, -756428.8, -891513.75, -39390.77, 0.015141305, -0.0546236, -745781.6, -5582.8843, 0.0, 10.000483, 9.99869 
1.20507956e+3, 2.344681e+2, -681814.3, -800849.6, -34037.777, -0.048544616, -0.035167165, -672768.7, -30559.62, 0.0, 10.000306, 9.998724 
1.2050996e+3, 2.44467e+2, -608542.2, -718079.0, -37646.31, -0.053107675, -0.013361625, -596851.44, -52631.17, 0.0, 10.000151, 9.998693 
1.2051202e+3, 2.544659e+2, -527376.0, -625116.25, -40797.633, 0.014453996, 0.0043155206, -512585.03, -66352.555, 0.0, 10.000022, 9.998722 
1.20514065e+3, 2.644644e+2, -434030.13, -523521.25, -29827.863, 0.02765768, -0.013968499, -424999.63, -76752.64, 0.0, 9.999966, 9.998774 
1.2051604e+3, 2.7446258e+2, -327804.06, -418161.47, -30924.41, -0.025364947, -0.07810259, -318233.94, -67970.01, 0.0, 10.000007, 9.998804 
1.2051809e+3, 2.8446162e+2, -244860.34, -331261.03, -22751.83, -0.02943599, -0.051625263, -239235.33, -86962.02, 0.0, 9.999919, 9.99877 
1.20520204e+3, 2.944616e+2, -184816.03, -251277.23, -17442.564, 0.026043909, 0.07139808, -180516.44, -126241.984, 0.0, 9.999657, 9.998772 
1.2052229e+3, 3.044592e+2, -163850.02, -220145.56, 9993.339, 0.013358961, -0.039165955, -162128.69, -162128.69, 0.0, 9.999483, 9.998736 
1.2052438e+3, 3.144581e+2, -62783.207, 4776.223, -664.9357, -0.04683485, -0.029212702, 4782.767, 4782.767, 0.0, 9.999418, 10.000312 
1.2148629e+3, 1.2446009e+2, -1658542.3, -1791581.5, -4013.0432, -0.10091336, -0.012872653, -1658421.4, 61870.45, 0.0022312584, 10.000843, 9.999064 
1.21488534e+3, 1.3445988e+2, -1505688.0, -1623404.0, -3651.6233, 0.10518665, 0.024259992, -1505574.8, 116718.35, 0.0012220372, 10.001018, 9.999469 
1.2149031e+3, 1.4445882e+2, -1436237.8, -1570156.6, -37555.285, -0.13355042, -0.01459695, -1426425.0, 97877.75, 0.0004466493, 10.00096, 9.999184 
1.2149237e+3, 1.5445793e+2, -1389422.1, -1497956.9, -33108.64, -0.032614835, -0.018403564, -1380119.5, 46190.945, 0.00007201624, 10.000614, 9.999172 
1.2149434e+3, 1.6445681e+2, -1342799.8, -1496139.0, -47528.38, -0.0034238386, -0.014472219, -1329263.0, -941.7853, 0.0000008702971, 10.000569, 9.998534 
1.21496215e+3, 1.744554e+2, -1196880.0, -1376390.0, -66575.164, -0.052285682, -0.0076164254, -1174884.3, 55451.46, 0.0, 10.000904, 9.998522 
1.21498145e+3, 1.844539e+2, -1063839.8, -1218973.6, -67806.484, -0.061807953, -0.024629217, -1038380.8, 93968.65, 0.0, 10.000959, 9.998903 
1.2150012e+3, 1.9445233e+2, -1004402.75, -1133766.5, -55705.23, -0.025645092, -0.07679612, -983721.75, 50640.125, 0.0, 10.00067, 9.998955 
1.2150209e+3, 2.0445101e+2, -970897.3, -1134897.8, -47355.79, -0.017467443, -0.07297833, -958205.4, -21830.904, 0.0, 10.000521, 9.998347 
1.21504016e+3, 2.1445002e+2, -869392.0, -1035749.0, -55870.355, -0.042946737, -0.005355993, -852369.94, -13982.81, 0.0, 10.000546, 9.9983425 
1.2150599e+3, 2.2444865e+2, -749984.6, -878241.5, -46243.03, -0.039969873, 0.0067204586, -735050.56, 5350.7896, 0.0, 10.000483, 9.998781 
1.2150803e+3, 2.3444687e+2, -673775.4, -784511.94, -40917.395, -0.0010387741, -0.054361567, -660296.9, -17879.506, 0.0, 10.000306, 9.9988365 
1.2151002e+3, 2.4444555e+2, -612558.44, -726680.8, -42631.13, 0.001068981, -0.058143098, -598391.9, -53961.64, 0.0, 10.000151, 9.998635 
1.2151197e+3, 2.544448e+2, -531472.3, -634681.8, -45205.617, -0.043452486, 0.0020564562, -514472.4, -68033.12, 0.0, 10.000025, 9.998654 
1.2151399e+3, 2.6444358e+2, -436646.06, -529921.4, -28109.38, -0.038104314, 0.01309141, -428830.0, -80378.08, 0.0, 9.999969, 9.998729 
1.215161e+3, 2.744418e+2, -331454.94, -424758.13, -28232.205, 0.029103978, -0.037818015, -323577.4, -73108.86, 0.0, 10.000001, 9.998761 
1.2151815e+3, 2.844406e+2, -238414.95, -316405.22, -30877.38, 0.040649544, -0.034762736, -227670.44, -75190.64, 0.0, 9.999911, 9.998876 
1.2152013e+3, 2.9444003e+2, -176400.72, -234600.9, -26692.432, -0.016270427, 0.017530585, -166012.81, -111527.11, 0.0, 9.99966, 9.998885 
1.21522166e+3, 3.0443782e+2, -179314.94, -253464.14, 8121.94, -0.048524637, -0.0707842, -178435.73, -178435.73, 0.0, 9.999487, 9.998506 
1.2152436e+3, 3.1443748e+2, -68047.164, -4853.8584, -280.08374, -0.010037639, 0.040051933, -4852.617, -4852.617, 0.0, 9.999412, 10.000249 
1.22486405e+3, 1.2443963e+2, -1629207.8, -1787161.8, -20300.188, -0.08699029, -0.0069838604, -1626640.5, 93851.27, 0.002414319, 10.001089, 9.998974 
1.22488625e+3, 1.3443924e+2, -1514821.0, -1640868.0, -8403.823, 0.09457454, 0.024279162, -1514263.3, 108232.21, 0.0013311396, 10.001013, 9.999351 
1.2249038e+3, 1.4443807e+2, -1442831.6, -1576867.9, -46911.6, -0.15555246, -0.016333587, -1428044.4, 96461.65, 0.0004943066, 10.000933, 9.999149 
1.2249245e+3, 1.5443715e+2, -1356866.6, -1485796.6, -63337.316, -0.023600869, -0.022750173, -1330958.3, 95555.64, 0.000083587045, 10.0008545, 9.999139 
1.2249442e+3, 1.6443595e+2, -1309203.9, -1489791.1, -60017.953, 0.010851799, -0.019470563, -1291076.5, 37448.637, 0.0000012652538, 10.000843, 9.9984455 
1.224963e+3, 1.7443448e+2, -1203855.9, -1389433.8, -47132.8, -0.06269837, -0.010443896, -1192571.3, 37969.453, 0.0, 10.000899, 9.998434 
1.22498214e+3, 1.8443294e+2, -1076089.3, -1225254.3, -54769.348, -0.07486724, -0.026392844, -1058139.4, 74415.53, 0.0, 10.000878, 9.9988985 
1.2250021e+3, 1.9443136e+2, -989592.5, -1126412.4, -66643.74, -0.016012685, -0.07849544, -962496.9, 72070.41, 0.0, 10.0007715, 9.998956 
1.2250215e+3, 2.0443004e+2, -944539.2, -1121506.6, -55637.293, -0.0056495485, -0.07604104, -928500.75, 8079.145, 0.0, 10.000699, 9.998352 
1.2250406e+3, 2.1442902e+2, -852301.44, -1026486.44, -44950.35, -0.053335655, -0.011949336, -841385.56, -2792.902, 0.0, 10.00066, 9.99835 
1.2250603e+3, 2.2442769e+2, -749157.0, -878792.2, -37662.29, -0.055016898, 0.0037029241, -739009.44, 1597.2267, 0.0, 10.000493, 9.998772 
1.2250806e+3, 2.3442602e+2, -695162.7, -795655.56, -42373.62, 0.000023787801, -0.044335805, -679680.7, -37058.676, 0.0, 10.000163, 9.998829 
1.22510046e+3, 2.4442469e+2, -629205.7, -733993.75, -37728.223, 0.007205237, -0.049908802, -617035.4, -72400.305, 0.0, 10.000034, 9.998641 
1.22511975e+3, 2.544237e+2, -510458.22, -623370.25, -34817.32, -0.04552139, -0.01044714, -500585.3, -53939.74, 0.0, 10.000166, 9.998664 
1.2251399e+3, 2.6442248e+2, -422982.6, -521823.66, -20347.893, -0.042691506, -0.00070266274, -418957.6, -70299.4, 0.0, 10.000056, 9.99874 
1.2251607e+3, 2.7442095e+2, -383783.0, -448425.78, -17655.389, 0.028723968, -0.028978875, -379275.25, -128602.164, 0.0, 9.999637, 9.998774 
1.22518115e+3, 2.844199e+2, -298051.2, -337071.56, -13783.262, 0.040522404, -0.021849738, -293673.63, -140989.83, 0.0, 9.999469, 9.998946 
1.2252008e+3, 2.944192e+2, -176667.63, -226527.95, -12252.631, -0.020836636, 0.013388337, -173819.39, -119129.04, 0.0, 9.999623, 9.998958 
1.2252211e+3, 3.0441716e+2, -181226.1, -257826.48, 18602.666, -0.056898028, -0.057758808, -176947.36, -176947.36, 0.0, 9.99949, 9.998473 
1.2252427e+3, 3.1441677e+2, -122412.76, -17221.398, 24235.959, -0.014523399, 0.05236993, -11906.049, -11906.049, 0.0, 9.998979, 10.000372 
1.2348653e+3, 1.2441897e+2, -1613495.8, -1755225.0, -12902.668, -0.0810516, 0.017031787, -1612330.6, 108364.8, 0.0026041293, 10.001091, 9.999193 
1.23488724e+3, 1.3441844e+2, -1500585.8, -1611488.0, -12115.764, 0.08804999, 0.014834512, -1499277.5, 123421.586, 0.0014447866, 10.001013, 9.999553 
1.2349045e+3, 1.4441729e+2, -1462120.6, -1617142.3, -50603.855, -0.17723322, -0.024232592, -1447064.3, 77645.23, 0.00054404186, 10.000933, 9.998874 
1.2349252e+3, 1.5441634e+2, -1377920.4, -1530423.0, -66765.914, -0.043173585, -0.0010484011, -1352821.0, 73897.55, 0.00009593835, 10.000857, 9.998832 
1.2349449e+3, 1.6441506e+2, -1288153.4, -1446940.5, -58760.44, 0.00471508, -0.0051854537, -1268773.9, 59956.74, 0.0000017602412, 10.000845, 9.998739 
1.2349641e+3, 1.7441334e+2, -1179984.1, -1340874.6, -45463.35, -0.0422342, -0.05041858, -1168026.1, 62720.105, 0.0, 10.000902, 9.998767 
1.2349833e+3, 1.8441193e+2, -1094604.8, -1264590.3, -59306.07, -0.05633862, -0.060229227, -1075958.9, 56800.484, 0.0, 10.000881, 9.998628 
1.2350026e+3, 1.9441086e+2, -1010678.75, -1170830.1, -71157.56, -0.033775784, -0.030277548, -983630.56, 51138.484, 0.0, 10.000773, 9.998651 
1.23502195e+3, 2.0440947e+2, -928937.6, -1089222.0, -57924.316, -0.023243345, -0.028550694, -910196.06, 26586.482, 0.0, 10.000699, 9.998574 
1.2350416e+3, 2.1440767e+2, -834247.44, -989448.6, -47044.26, -0.025342116, -0.06841755, -821101.06, 17699.545, 0.0, 10.000661, 9.998605 
1.2350611e+3, 2.2440632e+2, -756388.3, -894317.56, -50013.1, -0.03146161, -0.06356098, -740162.4, 652.09265, 0.0, 10.000494, 9.998666 
1.2350802e+3, 2.3440558e+2, -703691.8, -814278.4, -54874.934, -0.04366085, -0.0061098323, -681083.8, -38261.086, 0.0, 10.000166, 9.9987 
1.23509996e+3, 2.4440442e+2, -624542.0, -725005.94, -33885.12, -0.033821527, 0.010181633, -614181.44, -69346.79, 0.0, 10.000036, 9.998702 
1.2351204e+3, 2.544027e+2, -505925.0, -613235.75, -29339.93, 0.0037311045, -0.03291152, -498427.03, -51575.883, 0.0, 10.000161, 9.998736 
1.2351404e+3, 2.6440126e+2, -419442.38, -513577.3, -34261.53, 0.0099839, -0.053716525, -408293.0, -59427.3, 0.0, 10.0000515, 9.9988 
1.2351599e+3, 2.7440012e+2, -379032.25, -439669.22, -32724.121, -0.022786474, -0.04879145, -364740.44, -113862.91, 0.0, 9.9996395, 9.998833 
1.2351799e+3, 2.8439936e+2, -294672.06, -331460.47, -8612.483, -0.026318034, -0.012085947, -292755.66, -139870.25, 0.0, 9.999474, 9.998982 
1.2352007e+3, 2.9439902e+2, -175087.97, -222008.78, -5328.7114, 0.006031734, 0.053169247, -174490.4, -119601.4, 0.0, 9.999617, 9.998992 
1.23522095e+3, 3.043972e+2, -173355.39, -239128.39, 1734.9353, -0.018275298, -0.00452754, -173309.66, -173309.66, 0.0, 9.999478, 9.998608 
1.2352412e+3, 3.1439608e+2, -104384.836, 21257.86, 7329.373, -0.056633893, 0.020616163, 21683.973, 21683.973, 0.0, 9.998974, 10.00064 
1.2448663e+3, 1.2439835e+2, -1543087.3, -1726101.0, 6060.657, -0.09595657, 0.026190327, -1542886.8, 178010.83, 0.0027991196, 10.001599, 9.999147 
1.24488816e+3, 1.3439763e+2, -1506049.9, -1621262.8, -26843.877, 0.09196958, 0.010996227, -1500102.5, 122800.516, 0.0015621701, 10.001006, 9.999489 
1.2449054e+3, 1.4439638e+2, -1477954.8, -1632796.9, -51191.434, -0.1727195, -0.02944668, -1462561.0, 62353.125, 0.00059554225, 10.000858, 9.998801 
1.24492615e+3, 1.5439534e+2, -1325786.9, -1512953.8, -49308.49, -0.043556582, -0.008572982, -1313591.4, 113332.81, 0.00010892916, 10.00125, 9.998762 
1.24494605e+3, 1.6439405e+2, -1222995.5, -1407805.5, -52179.363, 0.004496899, -0.012253266, -1209280.9, 119655.19, 0.0000023447426, 10.001261, 9.998806 
1.244965e+3, 1.7439249e+2, -1188802.3, -1336726.3, -59384.586, -0.036401365, -0.052522603, -1167912.3, 63037.89, 0.0, 10.000806, 9.99884 
1.24498405e+3, 1.843911e+2, -1135902.0, -1295160.1, -68813.83, -0.05275013, -0.057425875, -1110287.9, 22675.105, 0.0, 10.000645, 9.998531 
1.2450033e+3, 1.9438998e+2, -1009134.2, -1181742.8, -65621.21, -0.04230334, -0.022870312, -987019.94, 47954.215, 0.0, 10.000835, 9.998546 
1.2450227e+3, 2.0438854e+2, -907084.4, -1062398.5, -55799.445, -0.030689426, -0.025631119, -889116.2, 47871.785, 0.0, 10.000779, 9.998719 
1.2450421e+3, 2.1438676e+2, -859704.94, -983425.44, -52828.96, -0.016237663, -0.08073965, -840216.6, -1211.7339, 0.0, 10.000409, 9.998767 
1.2450614e+3, 2.2438549e+2, -792840.75, -912520.56, -52836.215, -0.022681506, -0.07661395, -772852.8, -31835.1, 0.0, 10.000247, 9.998659 
1.2450803e+3, 2.3438491e+2, -677372.7, -802799.25, -49641.33, -0.056296505, -0.0029371022, -660103.4, -17078.057, 0.0, 10.000354, 9.998688 
1.2451e+3, 2.443838e+2, -593494.0, -704811.1, -26516.338, -0.048243683, 0.018247213, -587500.4, -42463.45, 0.0, 10.000228, 9.998748 
1.2451205e+3, 2.5438207e+2, -554397.75, -630848.9, -24378.174, 0.012362826, -0.033088718, -547285.8, -100232.15, 0.0, 9.9998045, 9.998786 
1.2451403e+3, 2.6438066e+2, -481398.47, -538912.56, -31105.148, 0.019110264, -0.051257227, -467794.0, -118726.51, 0.0, 9.999608, 9.998839 
1.2451593e+3, 2.743797e+2, -367011.0, -429122.06, -31190.457, -0.041706387, -0.032173894, -354051.88, -102974.18, 0.0, 9.999703, 9.998874 
1.2451792e+3, 2.8437898e+2, -274906.0, -317348.63, -6805.525, -0.048474897, 0.00060843787, -273841.47, -120755.82, 0.0, 9.999591, 9.9990225 
1.2452002e+3, 2.9437846e+2, -232673.64, -245165.75, -4313.2305, 0.011439244, 0.0428843, -231329.11, -176237.98, 0.0, 9.999203, 9.999032 
1.2452202e+3, 3.043769e+2, -249244.55, -262574.56, -5065.18, -0.010451716, 0.00485776, -247538.27, -247538.27, 0.0, 9.998902, 9.998723 
1.2452399e+3, 3.1437576e+2, -127156.2, 34675.395, 509.22913, -0.0702338, 0.015380387, 34676.996, 34676.996, 0.0, 9.998713, 10.000857 
1.2548676e+3, 1.24377884e+2, -1565866.9, -1775389.3, -3972.6262, -0.13078679, 0.022131529, -1565791.6, 155305.52, 0.0029989923, 10.001606, 9.998807 
1.2548894e+3, 1.3437688e+2, -1530249.9, -1672386.8, -50221.242, 0.10572316, 0.01332329, -1514296.0, 108810.31, 0.001683169, 10.001009, 9.999138 
1.2549067e+3, 1.4437546e+2, -1468624.3, -1613440.4, -38964.03, -0.142723, -0.03179053, -1458806.3, 66312.945, 0.0006488858, 10.000857, 9.998936 
1.2549277e+3, 1.5437423e+2, -1313248.3, -1487813.6, -34736.355, -0.024852337, -0.04682278, -1306590.1, 120539.99, 0.00012258759, 10.001253, 9.998934 
1.2549473e+3, 1.6437304e+2, -1233980.4, -1432243.4, -68533.84, 0.009754104, -0.041942354, -1212596.6, 116544.445, 0.0000030126384, 10.0012665, 9.998637 
1.2549657e+3, 1.7437194e+2, -1201487.0, -1364360.8, -77091.41, -0.045590233, -0.016075289, -1170785.4, 60366.496, 0.0, 10.000811, 9.99865 
1.2549846e+3, 1.8437053e+2, -1130714.8, -1284698.5, -63557.99, -0.06483098, -0.016604964, -1107869.9, 25295.484, 0.0, 10.000645, 9.998604 
1.2550041e+3, 1.9436876e+2, -1002481.9, -1168574.3, -58946.47, -0.042735286, -0.056712773, -983688.2, 51494.082, 0.0, 10.000837, 9.998635 
1.2550235e+3, 2.0436731e+2, -902151.44, -1052773.6, -69243.36, -0.029270807, -0.06872019, -875157.06, 62038.81, 0.0, 10.000781, 9.998785 
1.2550426e+3, 2.1436632e+2, -854674.94, -973818.2, -67302.47, -0.025736712, -0.049446393, -824366.6, 14838.458, 0.0, 10.000411, 9.998833 
1.2550616e+3, 2.2436523e+2, -786531.4, -899663.0, -50596.875, -0.028647613, -0.035350516, -767204.25, -25988.098, 0.0, 10.000248, 9.998748 
1.2550808e+3, 2.3436402e+2, -671033.7, -789501.25, -45774.168, -0.039893728, -0.033727646, -655408.2, -12178.718, 0.0, 10.000352, 9.99878 
1.2551004e+3, 2.4436286e+2, -591569.06, -700763.94, -41140.71, -0.037700836, -0.02496243, -577803.94, -32562.086, 0.0, 10.000226, 9.998777 
1.25512e+3, 2.5436178e+2, -552203.25, -627160.25, -39847.68, -0.017742287, -0.011964125, -534978.25, -87725.24, 0.0, 9.999807, 9.998812 
1.2551396e+3, 2.6436076e+2, -479748.75, -536399.8, -28076.975, -0.014059966, 0.0043492, -468191.3, -118927.625, 0.0, 9.99961, 9.998856 
1.2551592e+3, 2.7435976e+2, -365905.53, -426478.66, -26406.275, -0.03198292, 0.018325692, -356010.4, -104736.55, 0.0, 9.999701, 9.998894 
1.2551789e+3, 2.8435868e+2, -273139.28, -313261.7, -19202.207, -0.029876793, 0.015689392, -265430.44, -112145.71, 0.0, 9.999587, 9.999053 
1.2551992e+3, 2.9435748e+2, -230420.33, -240868.52, -17915.586, -0.0026464362, -0.012801102, -216982.72, -161686.25, 0.0, 9.999203, 9.999062 
1.2552188e+3, 3.0435628e+2, -241494.2, -246855.08, -11879.471, -0.03190247, -0.025397604, -231996.53, -231996.53, 0.0, 9.998903, 9.998831 
1.2552387e+3, 3.143558e+2, -115390.2, 59225.324, -4106.2847, -0.062104348, 0.039385747, 59321.836, 59321.836, 0.0, 9.998712, 10.001026 
1.264869e+3, 1.2435718e+2, -1607498.8, -1803171.9, -11914.845, -0.13883515, 0.013597186, -1606775.9, 114523.734, 0.0032043438, 10.001352, 9.998738 
1.2648907e+3, 1.3435616e+2, -1467302.5, -1649214.5, -50237.266, 0.11644513, 0.010889496, -1454350.9, 168958.13, 0.0018082228, 10.001473, 9.999072 
1.2649077e+3, 1.4435475e+2, -1398435.3, -1581792.5, -23944.834, -0.13004434, -0.029039998, -1395359.9, 129962.055, 0.0007044779, 10.00135, 9.998914 
1.2649286e+3, 1.5435341e+2, -1362730.6, -1514342.3, -34183.344, -0.026779586, -0.052863535, -1355379.8, 71953.984, 0.00013709594, 10.000925, 9.998909 
1.2649482e+3, 1.6435218e+2, -1296411.8, -1465425.0, -72015.78, 0.002577661, -0.049804308, -1269888.5, 59456.723, 0.0000037895563, 10.000853, 9.998608 
1.2649667e+3, 1.7435113e+2, -1143200.3, -1339172.3, -68896.31, -0.04393983, -0.017127752, -1121403.3, 109952.61, 0.0, 10.0012245, 9.998622 
1.2649855e+3, 1.8434976e+2, -1041330.7, -1235904.3, -52591.51, -0.060556807, -0.013061213, -1028025.5, 105343.5, 0.0, 10.001236, 9.998653 
1.2650049e+3, 1.9434807e+2, -1007005.1, -1164478.3, -51000.996, -0.045632932, -0.05090021, -991930.5, 43454.535, 0.0, 10.000781, 9.998691 
1.2650241e+3, 2.0434663e+2, -940594.1, -1071740.0, -67386.44, -0.03801119, -0.06493359, -912141.8, 25256.71, 0.0, 10.00052, 9.99878 
1.2650429e+3, 2.1434554e+2, -842018.44, -968575.25, -71762.26, -0.03784755, -0.053964004, -809620.44, 29788.29, 0.0, 10.000504, 9.998823 
1.2650618e+3, 2.2434449e+2, -757213.56, -866346.1, -51878.543, -0.03537263, -0.043003015, -736488.0, 4931.2007, 0.0, 10.000367, 9.998919 
1.2650812e+3, 2.343435e+2, -698657.8, -782109.6, -40447.414, -0.030356748, -0.037065573, -682271.4, -38841.543, 0.0, 10.000073, 9.998965 
1.2651004e+3, 2.4434248e+2, -639971.4, -721912.9, -37787.348, -0.031646926, -0.025357395, -625206.25, -79765.45, 0.0, 9.999886, 9.9987955 
1.2651195e+3, 2.5434142e+2, -547647.0, -623954.06, -38772.188, -0.040932354, -0.012264083, -531404.06, -83951.73, 0.0, 9.999835, 9.998819 
1.265139e+3, 2.6434043e+2, -461621.88, -516245.9, -20170.21, -0.03990881, 0.002523498, -454981.22, -105518.5, 0.0, 9.999686, 9.998958 
1.2651587e+3, 2.743395e+2, -400461.2, -430655.53, -12177.709, -0.025894359, 0.012737919, -396161.94, -144690.2, 0.0, 9.99941, 9.999005 
1.2651785e+3, 2.8433847e+2, -330811.8, -341868.72, -8533.876, -0.015991818, 0.00604488, -326172.13, -172689.8, 0.0, 9.999195, 9.999045 
1.2651983e+3, 2.943372e+2, -254062.36, -253960.64, -11247.575, -0.0124952635, -0.023512054, -242763.81, -187269.06, 0.0, 9.999048, 9.999046 
1.2652177e+3, 3.0433622e+2, -247436.98, -251105.55, -8484.626, -0.041252535, -0.01360376, -240590.63, -240590.63, 0.0, 9.998869, 9.998817 
1.2652375e+3, 3.1433523e+2, -122472.3, 54151.99, -8417.777, -0.03397012, 0.0014336907, 54552.266, 54552.266, 0.0, 9.99867, 10.001011 
1.2748705e+3, 1.24336295e+2, -1593809.1, -1772755.4, 4076.962, -0.11820888, 0.0024721182, -1593716.3, 127788.24, 0.0034160875, 10.001344, 9.998951 
1.2748922e+3, 1.3433555e+2, -1450298.1, -1614923.8, -46034.707, 0.12381835, 0.002901185, -1438299.8, 185210.88, 0.0019378624, 10.001477, 9.999306 
1.2749091e+3, 1.4433433e+2, -1410017.5, -1608426.6, -39723.293, -0.13589823, -0.021130988, -1402360.1, 123161.33, 0.0007627392, 10.00136, 9.998728 
1.2749293e+3, 1.5433297e+2, -1378186.5, -1547248.0, -50935.27, -0.05079311, -0.02514454, -1364026.5, 63507.9, 0.0001526722, 10.000927, 9.998683 
1.274949e+3, 1.6433154e+2, -1289262.9, -1450407.3, -60262.98, -0.018465247, -0.034821622, -1269219.5, 60328.484, 0.000004722807, 10.000851, 9.998713 
1.2749681e+3, 1.7433006e+2, -1133757.0, -1320099.4, -55191.402, -0.032319646, -0.0565532, -1118637.0, 112924.83, 0.0, 10.001226, 9.998753 
1.274987e+3, 1.8432884e+2, -1038820.2, -1231712.6, -68604.125, -0.040984955, -0.0480208, -1016909.3, 116664.18, 0.0, 10.001239, 9.998681 
1.2750056e+3, 1.9432795e+2, -1004822.0, -1161109.6, -68676.94, -0.051004156, -0.0053715073, -978932.25, 56649.668, 0.0, 10.000785, 9.998712 
1.2750243e+3, 2.0432656e+2, -946237.25, -1084102.8, -69632.09, -0.056708805, -0.01374529, -917188.6, 20406.83, 0.0, 10.000523, 9.998694 
1.275043e+3, 2.1432446e+2, -848280.94, -981892.94, -72855.85, -0.05359699, -0.09407815, -816238.5, 23376.879, 0.0, 10.000504, 9.998732 
1.2750621e+3, 2.2432332e+2, -739794.5, -830120.2, -62798.855, -0.044162527, -0.09988786, -707605.06, 34021.56, 0.0, 10.000365, 9.999168 
1.2750812e+3, 2.343234e+2, -679437.25, -742226.3, -51682.21, -0.027617775, -0.013745691, -650361.4, -6735.101, 0.0, 10.0000725, 9.99924 
1.2751003e+3, 2.443227e+2, -640226.0, -722188.1, -40349.637, -0.030201904, 0.01636455, -623695.8, -78061.984, 0.0, 9.999883, 9.9987955 
1.2751192e+3, 2.54321e+2, -549156.3, -626537.1, -40141.8, -0.05851861, -0.03283594, -532094.5, -84442.914, 0.0, 9.999831, 9.998804 
1.2751384e+3, 2.6431972e+2, -449315.5, -490543.78, -29365.855, -0.059435748, -0.053887654, -434050.72, -84386.28, 0.0, 9.999683, 9.999136 
1.2751582e+3, 2.74319e+2, -386679.7, -402588.28, -21648.275, -0.023210416, -0.04522046, -371570.63, -119899.55, 0.0, 9.999411, 9.999198 
1.2751777e+3, 2.8431827e+2, -333688.3, -348374.72, -13528.21, -0.0071805115, -0.026803715, -325638.84, -171960.23, 0.0, 9.999196, 9.999 
1.2751971e+3, 2.943176e+2, -258423.98, -262889.5, -15862.579, -0.020069381, 0.0069130175, -244637.8, -188951.22, 0.0, 9.999046, 9.998986 
1.2752165e+3, 3.043167e+2, -256376.16, -269625.2, -14646.804, -0.040903386, 0.037262276, -246925.44, -246925.44, 0.0, 9.998867, 9.998692 
1.2752368e+3, 3.1431425e+2, -136669.42, 24967.79, -11252.027, 0.011476642, -0.08525761, 25747.314, 25747.314, 0.0, 9.998668, 10.000812 
1.2848723e+3, 1.2431565e+2, -1516256.3, -1743262.8, 36105.242, -0.09867515, -0.010842033, -1510652.1, 211053.9, 0.0036351434, 10.001914, 9.9988785 
1.2848938e+3, 1.3431488e+2, -1439661.0, -1615682.0, -48800.836, 0.11195407, -0.0061001508, -1427036.6, 196676.06, 0.002072395, 10.001576, 9.999252 
1.2849103e+3, 1.4431375e+2, -1405214.4, -1607781.6, -51983.223, -0.15455742, -0.01827636, -1392653.3, 133069.81, 0.00082385907, 10.001401, 9.998712 
1.2849304e+3, 1.5431243e+2, -1306145.5, -1514175.8, -48564.258, -0.054425098, -0.015229634, -1295366.8, 132368.81, 0.00016942424, 10.00143, 9.998667 
1.2849501e+3, 1.6431099e+2, -1221589.3, -1415437.0, -43832.492, -0.0136779975, -0.027631244, -1212138.6, 117610.73, 0.00000585612, 10.001306, 9.998733 
1.2849692e+3, 1.743094e+2, -1167550.8, -1333862.8, -46472.063, -0.027672572, -0.06223395, -1155446.1, 76317.9, 0.0, 10.000983, 9.998775 
1.284988e+3, 1.8430817e+2, -1102603.6, -1259118.4, -73794.766, -0.038404863, -0.05819121, -1073297.6, 60478.11, 0.0, 10.000788, 9.99871 
1.2850064e+3, 1.9430737e+2, -1007220.94, -1158757.8, -74566.66, -0.052825548, -0.010089572, -976683.0, 59100.375, 0.0, 10.000754, 9.998742 
1.2850247e+3, 2.0430605e+2, -926294.25, -1065856.8, -66154.96, -0.059573572, -0.015161825, -899919.9, 37876.242, 0.0, 10.000623, 9.998771 
1.2850435e+3, 2.1430404e+2, -863811.2, -980111.56, -56425.27, -0.053537834, -0.09460392, -840935.1, -1119.8601, 0.0, 10.000359, 9.998814 
1.2850623e+3, 2.2430296e+2, -776313.1, -842698.6, -51579.387, -0.0455147, -0.1008441, -748169.2, -6343.37, 0.0, 10.000094, 9.999212 
1.285081e+3, 2.3430306e+2, -711610.9, -753090.4, -58758.465, -0.036299888, -0.017731141, -670039.4, -26214.201, 0.0, 9.999832, 9.99928 
1.2851e+3, 2.4430239e+2, -670371.7, -720251.25, -46135.938, -0.037213106, 0.006263185, -642866.1, -97033.9, 0.0, 9.999605, 9.998942 
1.2851188e+3, 2.5430077e+2, -597198.1, -632185.0, -33469.88, -0.05193707, -0.05168434, -576925.75, -129076.81, 0.0, 9.999426, 9.9989605 
1.285138e+3, 2.6429963e+2, -502129.06, -507597.84, -22091.715, -0.051450904, -0.0716696, -482603.16, -132742.66, 0.0, 9.999286, 9.99921 
1.2851574e+3, 2.742991e+2, -413935.47, -407913.22, -23930.453, -0.029810961, -0.05156095, -386805.2, -134939.56, 0.0, 9.999189, 9.999268 
1.2851767e+3, 2.842984e+2, -342761.5, -345811.56, -14387.239, -0.01485031, -0.03182941, -329818.7, -175946.1, 0.0, 9.9991045, 9.999062 
1.2851962e+3, 2.9429772e+2, -255898.33, -254450.88, -8584.866, -0.011334928, -0.0053659007, -246559.28, -190678.44, 0.0, 9.999033, 9.99905 
1.2852155e+3, 3.042972e+2, -253833.34, -253508.0, -314.31668, -0.02631365, 0.05179994, -253316.77, -253316.77, 0.0, 9.998822, 9.998823 
1.2852353e+3, 3.142946e+2, -168883.83, 11367.353, 23838.172, 0.022249846, -0.09713567, 14466.654, 14466.654, 0.0, 9.998439, 10.000829 
1.2948744e+3, 1.2429531e+2, -1541524.0, -1798355.8, 35258.92, -0.08012395, -0.026965443, -1536771.5, 185131.8, 0.0038618036, 10.001924, 9.998496 
1.294895e+3, 1.3429426e+2, -1464316.3, -1667366.0, -62501.92, 0.07926, -0.015513243, -1446619.5, 177295.11, 0.0022117733, 10.001577, 9.9988985 
1.2949112e+3, 1.4429307e+2, -1394772.5, -1586292.5, -52348.566, -0.18800622, -0.020133685, -1381398.0, 144528.22, 0.000887706, 10.001401, 9.99886 
1.294932e+3, 1.5429188e+2, -1291926.0, -1485966.4, -47710.586, -0.037540197, -0.023933288, -1280829.5, 147107.4, 0.0001872894, 10.001434, 9.998858 
1.2949516e+3, 1.6429059e+2, -1225237.6, -1424739.1, -55936.582, 0.017063957, -0.028490901, -1210624.4, 119324.53, 0.0000072252774, 10.001312, 9.998667 
1.29497e+3, 1.742892e+2, -1173156.9, -1346505.6, -59204.31, -0.030451383, -0.033972137, -1154866.5, 77095.41, 0.0, 10.000987, 9.998688 
1.2949885e+3, 1.842878e+2, -1100979.8, -1256346.5, -76373.96, -0.053689573, -0.043150954, -1069724.3, 64250.938, 0.0, 10.00079, 9.998729 
1.295007e+3, 1.9428633e+2, -1005019.44, -1154679.8, -76264.09, -0.05199737, -0.06470022, -973005.06, 62983.93, 0.0, 10.000755, 9.99877 
1.2950255e+3, 2.0428514e+2, -909719.94, -1031681.8, -76221.61, -0.04780513, -0.06932185, -873087.3, 64913.04, 0.0, 10.000623, 9.999005 
1.2950441e+3, 2.1428432e+2, -845753.0, -943224.56, -66945.71, -0.038122464, -0.05653421, -811682.4, 28325.793, 0.0, 10.00036, 9.999066 
1.2950623e+3, 2.2428344e+2, -787449.4, -866494.1, -61962.508, -0.03962669, -0.046742372, -753477.7, -11461.022, 0.0, 10.000096, 9.999048 
1.2950806e+3, 2.3428251e+2, -724802.6, -781001.4, -68609.336, -0.0569061, -0.047990266, -678761.5, -34735.305, 0.0, 9.999834, 9.999089 
1.2950994e+3, 2.4428158e+2, -650272.9, -678999.75, -53052.645, -0.053494163, -0.054132603, -609673.7, -63638.074, 0.0, 9.999606, 9.999227 
1.2951185e+3, 2.542807e+2, -574378.0, -585599.5, -39871.844, -0.022493301, -0.068882026, -539724.06, -91679.625, 0.0, 9.999428, 9.99928 
1.2951376e+3, 2.6428005e+2, -503759.84, -511741.03, -25418.762, -0.017391052, -0.053058513, -482020.3, -131969.19, 0.0, 9.999288, 9.999182 
1.2951563e+3, 2.7427968e+2, -417714.56, -415444.25, -26701.66, -0.046331305, -0.009639068, -389853.63, -137798.08, 0.0, 9.999187, 9.999218 
1.2951757e+3, 2.8427887e+2, -332172.25, -323634.66, -16242.363, -0.03941566, -0.010256089, -311109.5, -157045.08, 0.0, 9.999102, 9.999216 
1.2951955e+3, 2.9427764e+2, -243641.16, -229364.05, -10288.332, 0.012312298, -0.055868357, -223980.27, -167902.95, 0.0, 9.999033, 9.999224 
1.2952146e+3, 3.0427772e+2, -227663.03, -199423.2, -13544.375, 0.0018106413, 0.032506406, -193977.28, -193977.28, 0.0, 9.998823, 9.999195 
1.2952335e+3, 3.142763e+2, -154411.11, 40960.383, 11991.575, -0.0005326598, -0.034859218, 41693.656, 41693.656, 0.0, 9.998441, 10.001031 
1.3048765e+3, 1.2427495e+2, -1504807.0, -1789477.8, 29111.205, -0.07761712, -0.0362632, -1501860.5, 220241.66, 0.004094851, 10.002218, 9.998414 
1.3048963e+3, 1.3427392e+2, -1442123.0, -1661244.3, -59069.07, 0.069078915, -0.017459376, -1427214.0, 196899.53, 0.0023553874, 10.001751, 9.998856 
1.3049126e+3, 1.4427274e+2, -1390354.1, -1587500.9, -28231.2, -0.19115531, -0.018452827, -1386391.1, 139734.11, 0.00095388794, 10.001447, 9.998829 
1.3049334e+3, 1.5427144e+2, -1305228.3, -1495587.5, -39560.62, -0.02746313, -0.029954016, -1297334.1, 130803.234, 0.0002061118, 10.001358, 9.998829 
1.304953e+3, 1.6427015e+2, -1233687.9, -1426186.3, -61354.188, 0.026831176, -0.0339907, -1215795.8, 114353.664, 0.000008878666, 10.001245, 9.998688 
1.3049711e+3, 1.742689e+2, -1154914.5, -1334303.3, -56880.156, -0.038028117, -0.02852151, -1138399.4, 93761.42, 0.0, 10.001099, 9.998716 
1.3049893e+3, 1.842675e+2, -1076715.4, -1234022.6, -63345.707, -0.06326692, -0.04137806, -1054378.5, 79795.15, 0.0, 10.000911, 9.998822 
1.3050078e+3, 1.9426593e+2, -1011917.4, -1146561.1, -57880.91, -0.044137646, -0.085164994, -990456.1, 45732.137, 0.0, 10.00066, 9.998871 
1.3050263e+3, 2.042648e+2, -934802.7, -1042978.5, -65157.746, -0.03558849, -0.08840851, -904208.6, 33990.332, 0.0, 10.000448, 9.999012 
1.3050443e+3, 2.1426432e+2, -856382.3, -948413.5, -75573.766, -0.03905903, -0.0432534, -813917.25, 26287.018, 0.0, 10.000288, 9.999065 
1.3050623e+3, 2.2426352e+2, -784720.25, -857265.8, -74859.85, -0.046012327, -0.028984096, -737808.25, 4403.931, 0.0, 10.000081, 9.999119 
1.3050805e+3, 2.3426233e+2, -722658.44, -771139.3, -62181.297, -0.058244545, -0.06267476, -680159.75, -35936.34, 0.0, 9.999811, 9.9991665 
1.305099e+3, 2.4426137e+2, -650686.25, -672159.3, -40909.85, -0.05139837, -0.07831026, -619127.5, -72894.78, 0.0, 9.999575, 9.999289 
1.3051179e+3, 2.5426075e+2, -577604.5, -580729.9, -47019.176, -0.01943573, -0.072434925, -532122.06, -83882.95, 0.0, 9.999379, 9.999337 
1.3051368e+3, 2.642603e+2, -511071.06, -508799.53, -37587.355, -0.015950114, -0.044943463, -472330.78, -122086.52, 0.0, 9.999209, 9.999239 
1.3051555e+3, 2.7425998e+2, -428940.3, -414263.6, -31458.617, -0.0497266, -0.0026178109, -389298.75, -137050.34, 0.0, 9.999083, 9.999276 
1.3051745e+3, 2.842591e+2, -348472.56, -315197.44, -17955.127, -0.046533514, -0.015754055, -307356.53, -153099.16, 0.0, 9.99892, 9.999361 
1.3051942e+3, 2.9425782e+2, -281004.97, -229809.1, -13931.182, 0.0030500616, -0.08609422, -226263.73, -169993.08, 0.0, 9.998702, 9.999379 
1.3052133e+3, 3.0425823e+2, -243099.95, -193038.72, -23749.57, -0.004237078, 0.025578069, -183564.64, -183564.64, 0.0, 9.998658, 9.999318 
1.3052322e+3, 3.1425714e+2, -98655.26, 54939.074, -14813.102, 0.0036510618, -0.020779548, 56354.65, 56354.65, 0.0, 9.998878, 10.000917 
1.3148786e+3, 1.24254644e+2, -1489292.9, -1757504.3, 22615.162, -0.091243744, -0.036804795, -1487399.4, 234902.5, 0.0043321527, 10.002219, 9.998634 
1.3148983e+3, 1.3425393e+2, -1422386.6, -1621592.1, -77294.18, 0.08193073, -0.012180185, -1395913.6, 228394.98, 0.0025021203, 10.001757, 9.999126 
1.3149144e+3, 1.442528e+2, -1404624.5, -1618177.3, -33254.0, -0.16366078, -0.013747841, -1399566.0, 126753.5, 0.0010219518, 10.001451, 9.998618 
1.3149348e+3, 1.5425117e+2, -1323569.3, -1533667.3, -43328.652, -0.024928294, -0.03312267, -1314984.4, 113351.836, 0.000225761, 10.001357, 9.998569 
1.3149542e+3, 1.642497e+2, -1226255.3, -1411148.6, -67382.17, 0.0141680185, -0.044027306, -1204304.6, 126045.695, 0.000010883995, 10.0012455, 9.998792 
1.3149719e+3, 1.7424853e+2, -1144781.6, -1314198.8, -62722.22, -0.05091736, -0.045904197, -1124088.0, 108272.58, 0.0, 10.0011015, 9.998853 
1.31499e+3, 1.8424734e+2, -1064388.1, -1209147.6, -73184.42, -0.06781222, -0.05279477, -1033836.9, 100533.94, 0.0, 10.000914, 9.998993 
1.3150087e+3, 1.9424619e+2, -999179.2, -1121088.1, -67860.95, -0.029660523, -0.07222794, -968916.56, 67464.43, 0.0, 10.000663, 9.999045 
1.3150267e+3, 2.0424508e+2, -950233.44, -1075834.6, -72073.086, -0.023427216, -0.07307656, -917438.8, 20953.012, 0.0, 10.000451, 9.998785 
1.3150445e+3, 2.1424407e+2, -874473.9, -986175.25, -81904.23, -0.056857813, -0.054014333, -831190.3, 9212.874, 0.0, 10.000288, 9.998807 
1.3150622e+3, 2.242432e+2, -764123.44, -814651.7, -85160.53, -0.065436795, -0.04669119, -700558.56, 41853.316, 0.0, 10.000081, 9.999412 
1.3150804e+3, 2.3424253e+2, -698384.3, -721566.1, -72544.61, -0.04109708, -0.06240057, -636510.44, 7906.3467, 0.0, 9.999814, 9.999507 
1.3150987e+3, 2.4424177e+2, -660997.75, -694710.06, -48482.406, -0.031542085, -0.06803693, -626524.8, -80101.11, 0.0, 9.999578, 9.999132 
1.315117e+3, 2.5424096e+2, -590795.75, -608705.8, -53743.316, -0.042481735, -0.06298112, -545266.5, -96833.7, 0.0, 9.99938, 9.999145 
1.3151358e+3, 2.6424032e+2, -501893.06, -490198.78, -41814.973, -0.046786588, -0.04639589, -453824.13, -103384.53, 0.0, 9.99921, 9.999367 
1.3151546e+3, 2.7423993e+2, -417507.7, -391787.78, -35120.06, -0.04138346, -0.027796434, -367247.25, -114803.33, 0.0, 9.999087, 9.999429 
1.3151737e+3, 2.842392e+2, -338263.6, -295753.38, -25203.246, -0.037343428, -0.046537723, -284039.03, -129587.54, 0.0, 9.998927, 9.999493 
1.3151924e+3, 2.9423818e+2, -271143.94, -209907.22, -21692.652, -0.037851788, -0.09805631, -203001.52, -146540.34, 0.0, 9.998703, 9.9995165 
1.3152115e+3, 3.042388e+2, -250569.53, -208242.86, -16191.278, -0.04375318, 0.029244123, -202759.55, -202759.55, 0.0, 9.998656, 9.999215 
1.3152313e+3, 3.1423733e+2, -127807.02, -3560.8232, -2128.4868, 0.029960468, -0.04186646, -3524.3704, -3524.3704, 0.0, 9.998868, 10.000521 
1.3248804e+3, 1.2423463e+2, -1506439.0, -1759487.1, 41661.92, -0.104461454, -0.029779993, -1499756.3, 222742.4, 0.0045723, 10.002074, 9.99869 
1.3249002e+3, 1.342339e+2, -1395896.1, -1596658.1, -82447.125, 0.10088522, -0.017602654, -1366377.6, 258127.17, 0.0026508812, 10.001887, 9.999234 
1.3249163e+3, 1.442328e+2, -1374491.0, -1609340.1, -33827.918, -0.13154419, -0.021500625, -1369715.5, 156799.95, 0.0010914269, 10.001684, 9.998565 
1.3249362e+3, 1.5423124e+2, -1312955.3, -1536447.5, -29454.209, -0.037207335, -0.025462203, -1309138.6, 119393.164, 0.00024614425, 10.001466, 9.998497 
1.3249551e+3, 1.6422978e+2, -1223461.4, -1400140.4, -47975.813, -0.010922212, -0.03558836, -1211274.5, 119271.47, 0.000013287297, 10.001223, 9.998878 
1.324973e+3, 1.7422853e+2, -1160839.6, -1310454.8, -46873.62, -0.04487728, -0.054420844, -1147367.4, 85188.95, 0.0, 10.000943, 9.998955 
1.3249911e+3, 1.8422742e+2, -1089739.3, -1222738.8, -63514.707, -0.05131683, -0.059721224, -1064280.6, 70285.266, 0.0, 10.000746, 9.99898 
1.3250093e+3, 1.9422649e+2, -1000915.0, -1124083.9, -72877.94, -0.031771, -0.053726416, -967085.4, 69488.82, 0.0, 10.000662, 9.999025 
1.325027e+3, 2.0422539e+2, -942336.5, -1065841.3, -78037.28, -0.033696413, -0.055136383, -904574.2, 34010.79, 0.0, 10.00048, 9.99884 
1.3250445e+3, 2.1422407e+2, -889193.8, -986255.25, -64764.28, -0.060634438, -0.070924506, -856794.7, -16196.162, 0.0, 10.000157, 9.998869 
1.3250622e+3, 2.2422317e+2, -785658.44, -824589.1, -63016.96, -0.062713034, -0.071685776, -739169.0, 3438.4287, 0.0, 9.999932, 9.999414 
1.3250804e+3, 2.3422278e+2, -694649.7, -719941.75, -75925.9, -0.03251652, -0.059501234, -630323.9, 14286.007, 0.0, 9.999841, 9.999504 
1.3250984e+3, 2.442221e+2, -642155.7, -681233.8, -60499.813, -0.027409004, -0.059183493, -598118.0, -51501.99, 0.0, 9.999689, 9.99917 
1.3251163e+3, 2.5422108e+2, -576599.44, -596494.7, -49285.23, -0.05658314, -0.07798624, -536267.94, -87641.44, 0.0, 9.999456, 9.999191 
1.3251348e+3, 2.642204e+2, -495983.1, -482667.94, -29677.54, -0.062707745, -0.07215506, -458910.4, -108276.78, 0.0, 9.999233, 9.999407 
1.3251537e+3, 2.742201e+2, -425088.22, -390997.2, -31487.209, -0.036955208, -0.046503343, -372237.78, -119600.945, 0.0, 9.999018, 9.999468 
1.3251725e+3, 2.8421938e+2, -343225.72, -305348.8, -29101.227, -0.032634083, -0.06046615, -289566.28, -134922.2, 0.0, 9.998926, 9.999426 
1.3251911e+3, 2.9421836e+2, -232214.28, -198482.17, -40808.996, -0.0598453, -0.110106066, -171191.25, -114536.85, 0.0, 9.999003, 9.99945 
1.32521e+3, 3.04219e+2, -213459.73, -173913.33, -37287.883, -0.06232354, 0.015685897, -151480.3, -151480.3, 0.0, 9.998842, 9.99936 
1.3252302e+3, 3.1421754e+2, -210230.58, -57383.28, -1190.1738, 0.050839424, -0.069281206, -57374.016, -57374.016, 0.0, 9.998364, 10.000392 
1.3348824e+3, 1.24214984e+2, -1514780.9, -1776734.8, 44222.445, -0.11806036, -0.016576042, -1507516.8, 215175.22, 0.0048153205, 10.002073, 9.998572 
1.3349023e+3, 1.3421388e+2, -1400696.4, -1606512.9, -90040.71, 0.12621593, -0.032932118, -1366866.1, 257835.4, 0.0028011485, 10.001886, 9.999167 
1.3349181e+3, 1.4421274e+2, -1367058.9, -1594241.0, -42919.375, -0.09537843, -0.04150025, -1359221.0, 167491.36, 0.001161807, 10.001685, 9.998669 
1.3349372e+3, 1.5421169e+2, -1303999.8, -1518864.9, -38077.56, -0.065376736, -0.0073785065, -1297451.4, 131272.31, 0.00026710884, 10.001469, 9.998616 
1.334956e+3, 1.6421041e+2, -1218723.3, -1391127.1, -58881.516, -0.049547914, -0.008438605, -1200532.6, 130203.234, 0.000016044773, 10.001225, 9.998939 
1.3349742e+3, 1.7420895e+2, -1156458.4, -1302088.1, -57896.617, -0.020364646, -0.054032456, -1136246.3, 96501.62, 0.00000000003443261, 10.000945, 9.999012 
1.3349922e+3, 1.8420775e+2, -1103114.8, -1251186.3, -68021.34, -0.014449204, -0.062619135, -1076611.0, 58147.57, 0.0, 10.000748, 9.998784 
1.3350098e+3, 1.9420688e+2, -1015959.2, -1155955.3, -76477.95, -0.050608367, -0.029641144, -982281.75, 54485.76, 0.0, 10.000663, 9.998806 
1.3350272e+3, 2.0420577e+2, -919293.0, -1018250.94, -90110.04, -0.06678652, -0.03414622, -865971.25, 72806.77, 0.0, 10.00048, 9.999167 
1.3350448e+3, 2.142044e+2, -862518.0, -931732.1, -77474.67, -0.051315773, -0.09396356, -812272.4, 28517.613, 0.0, 10.00016, 9.999242 
1.3350625e+3, 2.2420347e+2, -804996.4, -865703.5, -67667.99, -0.038819935, -0.10447003, -761185.94, -18387.324, 0.0, 9.999936, 9.999131 
1.3350803e+3, 2.3420312e+2, -718232.1, -769235.75, -79255.375, -0.032733202, -0.05421941, -660476.75, -15674.341, 0.0, 9.999842, 9.9991665 
1.3350978e+3, 2.4420238e+2, -626911.0, -649754.4, -68666.68, -0.039274752, -0.051224537, -568722.56, -21913.197, 0.0, 9.999689, 9.999388 
1.3351157e+3, 2.5420117e+2, -557886.3, -558368.44, -57635.582, -0.06294665, -0.11560472, -500491.3, -51671.22, 0.0, 9.999459, 9.999453 
1.3351339e+3, 2.642005e+2, -498388.16, -488966.22, -37443.67, -0.064993195, -0.12105102, -455938.3, -105111.89, 0.0, 9.999238, 9.999362 
1.3351527e+3, 2.742005e+2, -429493.78, -400762.8, -38821.574, -0.036695655, -0.060422335, -373734.06, -120906.64, 0.0, 9.999019, 9.9994 
1.3351715e+3, 2.8419977e+2, -361592.2, -343519.72, -26110.326, -0.03311326, -0.059171572, -324926.22, -170090.88, 0.0, 9.998925, 9.999166 
1.3351901e+3, 2.9419833e+2, -251584.06, -238157.56, -36301.293, -0.06608134, -0.11935408, -207954.0, -151103.98, 0.0, 9.999001, 9.999179 
1.3352089e+3, 3.0419883e+2, -187485.06, -120748.67, -52140.945, -0.06330723, -0.012260077, -92212.79, -92212.79, 0.0, 9.998844, 9.999725 
1.3352287e+3, 3.1419772e+2, -200313.23, -39738.83, -15539.23, 0.06544965, -0.09910723, -38248.88, -38248.88, 0.0, 9.998377, 10.000508 
1.3448848e+3, 1.2419562e+2, -1498611.4, -1783437.6, 80313.805, -0.09923782, -0.013124816, -1477525.9, 245355.72, 0.0050627007, 10.00225, 9.998442 
1.3449042e+3, 1.3419446e+2, -1379088.5, -1606625.8, -66328.516, 0.112631746, -0.026156357, -1361165.1, 263727.2, 0.002953265, 10.002082, 9.999072 
1.34492e+3, 1.4419322e+2, -1344637.0, -1582374.4, -26724.96, -0.10280445, -0.039350152, -1341669.8, 185234.47, 0.0012327734, 10.001835, 9.998677 
1.3449389e+3, 1.541922e+2, -1300766.8, -1515125.9, -30367.773, -0.054587208, -0.0046709822, -1296547.8, 132367.22, 0.00028840025, 10.001483, 9.998635 
1.3449572e+3, 1.6419092e+2, -1219569.0, -1398491.5, -55647.742, -0.035953704, -0.0039053697, -1203673.8, 127253.19, 0.00001901083, 10.001251, 9.998876 
1.3449752e+3, 1.7418942e+2, -1125699.8, -1294827.3, -63978.766, -0.025470907, -0.046145704, -1104224.4, 128715.32, 0.0000000014653116, 10.00119, 9.998943 
1.344993e+3, 1.8418817e+2, -1069954.5, -1232544.9, -75105.625, -0.027072633, -0.05736644, -1040571.06, 94379.86, 0.0, 10.000964, 9.998807 
1.3450103e+3, 1.9418722e+2, -1036813.9, -1162175.4, -65840.484, -0.054955475, -0.03427645, -1008588.94, 28371.242, 0.0, 10.0005045, 9.998839 
1.3450275e+3, 2.0418613e+2, -955155.9, -1034986.0, -76354.2, -0.061380908, -0.040999528, -908913.06, 30057.371, 0.0, 10.000232, 9.999171 
1.3450451e+3, 2.1418484e+2, -854105.75, -927214.9, -91353.086, -0.035138663, -0.09377477, -792265.06, 48716.633, 0.0, 10.0002165, 9.999246 
1.3450626e+3, 2.2418389e+2, -779996.2, -851201.7, -86860.086, -0.02499638, -0.10476368, -721725.44, 21264.69, 0.0, 10.000098, 9.999152 
1.34508e+3, 2.3418348e+2, -717829.8, -765766.9, -72540.0, -0.03890372, -0.06469877, -665401.06, -20406.654, 0.0, 9.999832, 9.999193 
1.3450974e+3, 2.4418272e+2, -638340.3, -653106.8, -55070.863, -0.05044121, -0.064180434, -590160.0, -43158.754, 0.0, 9.999604, 9.999404 
1.3451153e+3, 2.5418162e+2, -561130.75, -558201.25, -62825.47, -0.058663066, -0.120938346, -496823.47, -47812.465, 0.0, 9.999432, 9.999466 
1.3451332e+3, 2.6418093e+2, -496001.03, -495802.75, -51915.43, -0.06093094, -0.12324263, -443986.34, -92968.95, 0.0, 9.99929, 9.999289 
1.3451517e+3, 2.7418086e+2, -409065.66, -399410.53, -54793.418, -0.05427157, -0.06494685, -349232.4, -96212.74, 0.0, 9.999199, 9.999322 
1.3451703e+3, 2.8418007e+2, -346356.5, -329406.4, -31468.396, -0.04628831, -0.063517034, -305291.78, -150264.13, 0.0, 9.999003, 9.999223 
1.3451892e+3, 2.9417878e+2, -294619.9, -249721.2, -17247.592, -0.038909644, -0.12275888, -243860.61, -186819.61, 0.0, 9.998669, 9.999258 
1.3452077e+3, 3.041791e+2, -210141.06, -126197.29, -25862.732, -0.04092206, -0.03480621, -118868.87, -118868.87, 0.0, 9.998668, 9.999772 
1.3452268e+3, 3.1417823e+2, -109429.63, -20971.465, -13276.299, 0.01061045, -0.104981124, -19021.854, -19021.854, 0.0, 9.999111, 10.000283 
1.3548876e+3, 1.2417663e+2, -1509813.5, -1806307.3, 81688.375, -0.04567291, -0.02036874, -1488796.9, 234269.94, 0.00531726, 10.002248, 9.998286 
1.3549058e+3, 1.3417569e+2, -1387788.1, -1625343.9, -73349.37, 0.057877455, 0.0025013757, -1366965.5, 258111.3, 0.003108456, 10.002085, 9.998942 
1.3549212e+3, 1.4417431e+2, -1350589.8, -1595713.0, -40019.605, -0.15719381, -0.01483833, -1344221.5, 182869.05, 0.0013043365, 10.001838, 9.998585 
1.3549408e+3, 1.5417282e+2, -1306987.9, -1528506.1, -44054.707, -0.004693393, -0.016684644, -1298548.0, 130556.75, 0.00030973944, 10.001484, 9.998543 
1.3549592e+3, 1.6417134e+2, -1232705.9, -1426084.8, -59718.188, 0.0305104, -0.022369199, -1215750.6, 115368.06, 0.000021994929, 10.001252, 9.998686 
1.3549761e+3, 1.7416999e+2, -1139103.1, -1323610.5, -66725.83, -0.060609415, -0.03159189, -1117501.3, 115630.09, 0.0000000068048798, 10.001193, 9.998745 
1.3549933e+3, 1.8416871e+2, -1052693.9, -1197606.5, -91968.195, -0.09030343, -0.04371835, -1008068.75, 127073.875, 0.0, 10.000968, 9.999046 
1.3550109e+3, 1.9416758e+2, -1016396.0, -1120959.8, -83752.62, -0.045874994, -0.06722756, -969946.44, 67205.4, 0.0, 10.000508, 9.999121 
1.3550283e+3, 2.0416646e+2, -976839.3, -1080990.1, -78900.56, -0.018655809, -0.07638502, -934378.25, 4783.839, 0.0, 10.000236, 9.998855 
1.3550456e+3, 2.1416539e+2, -879750.5, -980782.44, -92208.45, -0.012534549, -0.07090473, -825127.25, 16046.082, 0.0, 10.000217, 9.9988785 
1.3550627e+3, 2.2416449e+2, -758068.8, -805799.94, -96376.086, -0.021417674, -0.072575994, -682647.3, 60534.32, 0.0, 10.000097, 9.999465 
1.3550796e+3, 2.3416387e+2, -691479.4, -711625.1, -82709.9, -0.051523928, -0.09000269, -618231.25, 26954.46, 0.0, 9.999834, 9.999565 
1.355097e+3, 2.4416316e+2, -650203.94, -678748.6, -61943.945, -0.06178933, -0.09784922, -600909.4, -53717.84, 0.0, 9.999608, 9.999227 
1.3551147e+3, 2.541624e+2, -576270.1, -590462.4, -68842.41, -0.044580914, -0.096219376, -514159.1, -64959.777, 0.0, 9.999434, 9.999244 
1.3551326e+3, 2.6416174e+2, -503948.72, -512824.72, -54939.85, -0.05114704, -0.08125358, -453267.9, -102061.29, 0.0, 9.999291, 9.999172 
1.3551503e+3, 2.7416116e+2, -417041.44, -415460.38, -56965.324, -0.09088368, -0.05864819, -359280.1, -106066.73, 0.0, 9.999195, 9.999214 
1.355169e+3, 2.841604e+2, -322024.34, -278615.13, -42358.324, -0.074438885, -0.0711622, -252724.38, -97503.35, 0.0, 9.9990015, 9.999574 
1.3551883e+3, 2.941595e+2, -266572.25, -192216.61, -29140.516, 0.019139005, -0.122588396, -182157.16, -124928.93, 0.0, 9.998671, 9.999653 
1.355207e+3, 3.0415976e+2, -227036.88, -161861.92, -10983.199, 0.0038640324, -0.055561002, -160060.81, -160060.81, 0.0, 9.998669, 9.999528 
1.3552247e+3, 3.1415898e+2, -147903.19, -97779.15, 7478.8086, -0.11119663, -0.08627382, -96687.06, -96687.06, 0.0, 9.999097, 9.9997635 
1.36489e+3, 1.24157615e+2, -1467843.8, -1801896.9, 81731.086, -0.032450367, -0.032968156, -1448919.1, 274333.34, 0.005582378, 10.002607, 9.998143 
1.3649078e+3, 1.3415693e+2, -1398876.1, -1644930.4, -81285.516, 0.047894537, 0.026510801, -1374448.1, 250813.23, 0.0032685762, 10.00207, 9.998815 
1.364923e+3, 1.4415543e+2, -1361771.3, -1600369.1, -38116.8, -0.15984932, 0.005940002, -1355830.0, 171446.36, 0.0013768864, 10.00176, 9.99859 
1.3649423e+3, 1.5415362e+2, -1260408.8, -1504233.9, -33388.543, -0.005619968, -0.030873973, -1255919.3, 173373.45, 0.00033094976, 10.001797, 9.998559 
1.3649605e+3, 1.6415203e+2, -1179905.4, -1409738.5, -43437.39, 0.03005597, -0.04373467, -1171969.9, 159337.63, 0.000024852021, 10.001653, 9.998605 
1.3649774e+3, 1.7415091e+2, -1138195.4, -1332867.8, -42671.035, -0.06007662, -0.021097846, -1129253.0, 104065.91, 0.000000016360648, 10.001242, 9.998658 
1.3649942e+3, 1.8414968e+2, -1056600.1, -1201538.6, -73750.47, -0.08669547, -0.022753881, -1025672.44, 109657.62, 0.0, 10.00095, 9.999027 
1.3650116e+3, 1.9414835e+2, -969303.7, -1099669.9, -87874.96, -0.038209442, -0.06687819, -925075.44, 112265.68, 0.0, 10.000838, 9.999107 
1.3650288e+3, 2.0414716e+2, -921872.5, -1053874.3, -81324.89, -0.011783059, -0.081212424, -883136.3, 56215.355, 0.0, 10.000611, 9.998859 
1.3650458e+3, 2.1414626e+2, -878774.1, -979358.1, -66934.88, -0.012427939, -0.058503445, -845343.0, -3982.0369, 0.0, 10.000221, 9.998885 
1.3650627e+3, 2.2414535e+2, -781658.25, -823884.9, -67513.336, -0.021831984, -0.058130644, -732033.9, 11335.412, 0.0, 9.999967, 9.999402 
1.3650796e+3, 2.3414446e+2, -687122.75, -717544.4, -87097.445, -0.044152897, -0.09471511, -613917.9, 31458.016, 0.0, 9.9999, 9.999492 
1.3650967e+3, 2.4414366e+2, -632008.6, -678234.06, -82077.305, -0.0532611, -0.10589702, -569851.9, -22468.967, 0.0, 9.99977, 9.99915 
1.3651143e+3, 2.54143e+2, -564002.94, -592562.8, -78902.68, -0.044184607, -0.08709398, -498098.4, -48708.406, 0.0, 9.999556, 9.999168 
1.3651319e+3, 2.6414236e+2, -498219.97, -500758.8, -53622.32, -0.050917424, -0.0680336, -445852.03, -94455.19, 0.0, 9.999294, 9.999251 
1.3651495e+3, 2.741418e+2, -443202.97, -417097.88, -42191.34, -0.080443926, -0.05602474, -385986.22, -132582.97, 0.0, 9.998973, 9.999308 
1.3651678e+3, 2.8414103e+2, -363029.44, -308801.38, -33499.188, -0.06911137, -0.068630524, -292818.22, -137407.5, 0.0, 9.998767, 9.999478 
1.3651869e+3, 2.941401e+2, -267819.47, -204602.77, -56392.816, -0.00030724026, -0.11318726, -171564.1, -114145.375, 0.0, 9.998715, 9.999545 
1.3652053e+3, 3.0414012e+2, -213706.58, -129483.43, -30280.322, -0.014074653, -0.075731106, -119727.07, -119727.07, 0.0, 9.99865, 9.999759 
1.3652235e+3, 3.1413996e+2, -218379.19, -119011.94, 29561.475, -0.107247174, -0.06687054, -110882.56, -110882.56, 0.0, 9.998557, 9.999878 
1.3748923e+3, 1.2413862e+2, -1476124.0, -1819955.5, 67274.42, -0.063617274, -0.051488116, -1463429.8, 260008.55, 0.0058605294, 10.00261, 9.998018 
1.3749102e+3, 1.341382e+2, -1407612.8, -1662928.1, -102550.12, 0.08394994, 0.0468531, -1371523.6, 253921.92, 0.0034352848, 10.002069, 9.9986925 
1.3749252e+3, 1.4413665e+2, -1355072.0, -1586430.8, -39711.95, -0.10887286, 0.023336235, -1348445.4, 179015.75, 0.0014510443, 10.001759, 9.998687 
1.3749437e+3, 1.541346e+2, -1251494.4, -1486753.4, -32266.383, -0.058861993, -0.04831242, -1247149.3, 182329.34, 0.0003520353, 10.001801, 9.998678 
1.3749616e+3, 1.6413303e+2, -1176779.0, -1404585.9, -58113.58, -0.03974227, -0.06851637, -1162810.6, 168682.22, 0.000027536262, 10.0016575, 9.998639 
1.3749789e+3, 1.7413224e+2, -1135636.0, -1328641.5, -58743.094, -0.02473716, -0.014084431, -1119163.0, 114338.56, 0.000000027808229, 10.001245, 9.998686 
1.3749959e+3, 1.8413112e+2, -1076125.9, -1242792.9, -79741.63, -0.016929312, 0.00509116, -1044119.8, 91393.0, 0.0, 10.000953, 9.998744 
1.3750124e+3, 1.9412951e+2, -990785.44, -1144959.6, -92524.15, -0.03190289, -0.033908065, -947443.56, 90084.055, 0.0, 10.00084, 9.998796 
1.3750291e+3, 2.0412825e+2, -899187.8, -1007485.9, -95761.695, -0.040428355, -0.05540065, -843325.8, 96213.03, 0.0, 10.000613, 9.999177 
1.3750458e+3, 2.1412748e+2, -851823.44, -924352.3, -81969.0, -0.03517201, -0.0562592, -798455.1, 43089.375, 0.0, 10.000225, 9.999262 
1.3750626e+3, 2.2412653e+2, -811637.75, -887134.4, -71320.96, -0.027430033, -0.061800882, -768691.5, -25138.582, 0.0, 9.99997, 9.998967 
1.3750798e+3, 2.3412532e+2, -722533.2, -791678.4, -89310.63, -0.017800622, -0.07932254, -661337.06, -15772.211, 0.0, 9.999902, 9.998982 
1.3750967e+3, 2.4412426e+2, -630951.3, -676748.6, -89283.99, -0.025829341, -0.08846874, -561676.3, -14101.179, 0.0, 9.999772, 9.999161 
1.3751136e+3, 2.5412345e+2, -559986.5, -584218.7, -86146.62, -0.058312256, -0.09157788, -485108.13, -35525.34, 0.0, 9.999555, 9.999228 
1.375131e+3, 2.6412287e+2, -480059.25, -463474.88, -64627.547, -0.06186509, -0.08146613, -406609.72, -55021.605, 0.0, 9.999295, 9.999508 
1.375149e+3, 2.7412266e+2, -422736.94, -376536.03, -53406.137, -0.02582384, -0.059197016, -341448.47, -87858.57, 0.0, 9.99898, 9.999583 
1.3751669e+3, 2.8412196e+2, -397733.28, -382953.03, -35532.973, -0.031910326, -0.05832995, -354049.8, -198452.5, 0.0, 9.998775, 9.998966 
1.3751847e+3, 2.9412058e+2, -308894.06, -289287.53, -56467.56, -0.09526161, -0.090886354, -241778.6, -184166.55, 0.0, 9.998711, 9.998967 
1.3752033e+3, 3.0412018e+2, -169743.75, -36590.49, -31613.902, -0.09556007, -0.0917747, -29465.783, -29465.783, 0.0, 9.998642, 10.0004015 
1.3752232e+3, 3.1412107e+2, -170830.9, -18569.658, 28843.223, 0.009982727, -0.052279256, -13288.96, -13288.96, 0.0, 9.998549, 10.000571 
1.3848948e+3, 1.2411993e+2, -1477128.5, -1818952.1, 70254.49, -0.07667904, -0.052224908, -1463252.4, 260369.31, 0.006152381, 10.002599, 9.99803 
1.3849123e+3, 1.3411945e+2, -1365603.1, -1640697.8, -95636.95, 0.08200357, 0.03905209, -1335622.3, 290006.94, 0.0036092806, 10.002351, 9.99871 
1.3849272e+3, 1.4411785e+2, -1307070.4, -1562017.9, -20557.102, -0.09595061, 0.007803419, -1305423.5, 222221.83, 0.0015272575, 10.002083, 9.998699 
1.3849454e+3, 1.5411596e+2, -1251727.6, -1485188.4, -20070.258, -0.07141384, -0.047266748, -1250014.8, 179646.22, 0.0003731033, 10.001792, 9.9986925 
1.384963e+3, 1.641145e+2, -1199561.8, -1414580.4, -58564.293, -0.05710946, -0.05878949, -1184645.5, 147029.1, 0.000030085705, 10.001498, 9.998647 
1.3849801e+3, 1.7411369e+2, -1138522.9, -1329398.4, -61792.8, -0.019269641, -0.006940184, -1120264.9, 113418.75, 0.000000039188958, 10.001224, 9.998692 
1.384997e+3, 1.8411253e+2, -1070039.0, -1248267.0, -67992.74, -0.003372575, 0.011965703, -1047062.3, 88633.27, 0.0, 10.001031, 9.998669 
1.3850133e+3, 1.9411089e+2, -981072.06, -1149326.4, -63254.273, -0.030080644, -0.023346387, -959944.9, 77766.31, 0.0, 10.000947, 9.998714 
1.3850297e+3, 2.041096e+2, -873385.8, -988818.7, -74903.3, -0.04407559, -0.04479814, -836541.75, 103180.766, 0.0, 10.000765, 9.999231 
1.3850461e+3, 2.1410884e+2, -814815.44, -898970.3, -85399.13, -0.035858385, -0.05173816, -761690.4, 80037.03, 0.0, 10.000447, 9.999329 
1.3850628e+3, 2.2410785e+2, -792741.7, -895516.94, -70681.93, -0.025378602, -0.05685287, -756741.56, -13005.502, 0.0, 10.000176, 9.998809 
1.3850798e+3, 2.3410657e+2, -723872.25, -811644.25, -63934.313, -0.013926639, -0.06455435, -690211.0, -44461.47, 0.0, 9.999977, 9.998808 
1.3850966e+3, 2.4410541e+2, -629109.6, -675983.3, -53382.766, -0.02060857, -0.07471957, -594245.5, -46484.465, 0.0, 9.999788, 9.999157 
1.3851133e+3, 2.5410444e+2, -550435.0, -577970.3, -54546.863, -0.052494973, -0.09452983, -507945.13, -58175.773, 0.0, 9.999615, 9.99924 
1.3851304e+3, 2.6410377e+2, -474947.8, -472377.03, -51292.836, -0.05783884, -0.0915915, -422353.5, -70578.0, 0.0, 9.999381, 9.999405 
1.385148e+3, 2.7410352e+2, -419344.8, -387621.38, -69124.2, -0.026497543, -0.060892474, -332562.38, -78784.34, 0.0, 9.999059, 9.999469 
1.3851658e+3, 2.8410286e+2, -389477.63, -378335.2, -41318.21, -0.03611126, -0.04760499, -342214.28, -186429.2, 0.0, 9.998831, 9.998969 
1.3851833e+3, 2.941016e+2, -300798.56, -282783.4, -19620.873, -0.10112576, -0.070013255, -270201.28, -212402.77, 0.0, 9.998758, 9.998986 
1.3852018e+3, 3.041009e+2, -185497.23, -40119.14, 63.35088, -0.095066085, -0.10722689, -40119.113, -40119.113, 0.0, 9.998518, 10.000436 
1.3852215e+3, 3.1410223e+2, -249329.11, -47067.23, 10547.414, 0.008397276, -0.026331589, -46518.7, -46518.7, 0.0, 9.997973, 10.000651 
1.3948974e+3, 1.2410159e+2, -1466815.3, -1796875.1, 64761.566, -0.070078455, -0.035080098, -1454563.1, 269239.3, 0.006457894, 10.002596, 9.998183 
1.3949142e+3, 1.3410072e+2, -1354921.4, -1618927.1, -105588.516, 0.0398184, 0.0022107195, -1317886.6, 307925.25, 0.0037909818, 10.002353, 9.998858 
1.3949291e+3, 1.4409903e+2, -1311299.6, -1571830.4, -32483.564, -0.12421596, -0.042050768, -1307310.5, 220517.83, 0.0016060187, 10.002087, 9.998631 
1.3949473e+3, 1.5409778e+2, -1257639.1, -1497923.1, -31843.656, -0.043225538, -0.026966512, -1253490.6, 176348.89, 0.00039434384, 10.001793, 9.998606 
1.3949648e+3, 1.6409647e+2, -1201222.0, -1418647.5, -69855.81, -0.021490391, -0.013554005, -1180712.9, 151139.16, 0.000032562886, 10.0015, 9.998618 
1.3949811e+3, 1.7409529e+2, -1139363.0, -1332239.1, -72624.8, -0.043844562, -0.00013358096, -1115075.5, 118789.36, 0.00000005013657, 10.001226, 9.998671 
1.3949975e+3, 1.8409397e+2, -1060417.8, -1229063.1, -72435.984, -0.04660632, -0.0025736918, -1033577.1, 102300.89, 0.0, 10.001033, 9.998799 
1.3950142e+3, 1.9409248e+2, -970521.6, -1128143.3, -66782.78, -0.03366027, -0.034902737, -946031.5, 91859.82, 0.0, 10.000949, 9.998859 
1.3950306e+3, 2.0409125e+2, -887941.25, -1019499.44, -86560.96, -0.024278454, -0.049689278, -845001.94, 94900.24, 0.0, 10.000766, 9.999021 
1.3950467e+3, 2.1409036e+2, -831719.8, -934753.7, -97603.92, -0.015253089, -0.044646516, -772871.4, 69037.97, 0.0, 10.000449, 9.999083 
1.395063e+3, 2.2408935e+2, -784482.3, -879406.3, -78823.56, -0.015939215, -0.04281694, -739934.56, 3983.9106, 0.0, 10.00018, 9.998919 
1.3950795e+3, 2.3408823e+2, -713399.44, -790677.7, -71208.89, -0.032262843, -0.05048184, -671021.94, -25091.973, 0.0, 9.99998, 9.998951 
1.395096e+3, 2.4408709e+2, -629959.3, -678552.0, -59801.28, -0.03791736, -0.06515065, -589707.2, -41766.49, 0.0, 9.99979, 9.999139 
1.395113e+3, 2.5408596e+2, -552342.9, -582922.25, -60467.926, -0.028342884, -0.09662353, -505261.53, -55311.563, 0.0, 9.999619, 9.999205 
1.3951299e+3, 2.64085e+2, -505474.06, -537492.44, -61916.387, -0.03985299, -0.09843564, -457530.7, -105571.49, 0.0, 9.999387, 9.998956 
1.3951465e+3, 2.740844e+2, -452870.94, -458182.25, -79608.914, -0.0812231, -0.058452427, -375873.38, -121906.11, 0.0, 9.999062, 9.998983 
1.3951641e+3, 2.8408378e+2, -356698.8, -310549.84, -43569.836, -0.08244206, -0.03437817, -284321.56, -128347.73, 0.0, 9.998832, 9.999434 
1.3951829e+3, 2.940831e+2, -262357.06, -203000.6, -20961.73, -0.025357714, -0.053962365, -196344.38, -138365.06, 0.0, 9.998758, 9.999535 
1.3952011e+3, 3.040821e+2, -220836.64, -114243.336, -17993.383, -0.018313238, -0.12501535, -111287.92, -111287.92, 0.0, 9.998519, 9.999927 
1.3952182e+3, 3.1408337e+2, -279919.34, -112668.805, -7762.0767, -0.10462842, 0.006985455, -112309.336, -112309.336, 0.0, 9.99798, 10.000198 
1.4049e+3, 1.24083556e+2, -1450826.6, -1787135.1, 94039.06, -0.07841414, -0.024396526, -1426317.4, 297662.34, 0.0067786416, 10.002699, 9.998201 
1.4049165e+3, 1.3408259e+2, -1313455.5, -1599713.5, -92308.04, 0.018838681, 0.003145821, -1286271.1, 339718.53, 0.0039822184, 10.002644, 9.99885 
1.4049311e+3, 1.4408079e+2, -1277220.6, -1554823.4, -34379.063, -0.12868772, -0.050463077, -1273026.4, 254980.36, 0.0016886669, 10.002319, 9.998634 
1.4049493e+3, 1.540797e+2, -1275337.4, -1505649.0, -27375.168, -0.036636077, -0.018681416, -1272128.1, 157888.53, 0.0004161435, 10.001668, 9.998612 
1.4049661e+3, 1.6407844e+2, -1222893.0, -1431554.5, -46733.707, -0.013935783, -0.0030727265, -1212904.3, 119124.89, 0.000035020938, 10.001362, 9.998596 
1.4049824e+3, 1.7407705e+2, -1095751.9, -1313816.0, -48741.168, -0.0477597, -0.0077313352, -1085353.3, 148690.39, 0.00000006103049, 10.001537, 9.998647 
1.4049987e+3, 1.8407568e+2, -1004607.9, -1197992.1, -61685.145, -0.054096553, -0.013773137, -986607.25, 149449.73, 0.0, 10.0014, 9.998836 
1.4050151e+3, 1.9407442e+2, -985514.0, -1130674.8, -65152.363, -0.034914166, -0.029199792, -960561.1, 77507.2, 0.0, 10.000827, 9.9989 
1.4050314e+3, 2.0407319e+2, -929636.8, -1048661.5, -77614.68, -0.020134743, -0.04013352, -891344.44, 48734.69, 0.0, 10.000519, 9.998939 
1.4050473e+3, 2.1407208e+2, -816787.2, -937850.75, -76880.586, -0.006784902, -0.05005276, -779468.44, 62620.363, 0.0, 10.000597, 9.998989 
1.4050634e+3, 2.2407103e+2, -733808.4, -850784.9, -59676.78, -0.00635983, -0.05058644, -708737.06, 35361.55, 0.0, 10.000511, 9.998955 
1.4050797e+3, 2.3407009e+2, -680167.6, -769419.44, -60319.18, -0.026227785, -0.042335574, -649761.06, -3652.929, 0.0, 10.000186, 9.998998 
1.4050959e+3, 2.4406905e+2, -619700.6, -678988.56, -52422.402, -0.034640715, -0.04710442, -589121.06, -41003.223, 0.0, 9.999884, 9.99909 
1.4051127e+3, 2.5406787e+2, -556448.0, -591539.1, -54969.934, -0.026443906, -0.07908535, -516291.4, -66163.66, 0.0, 9.999619, 9.9991455 
1.4051294e+3, 2.6406676e+2, -504278.72, -551769.44, -45347.395, -0.03868645, -0.0901066, -476835.9, -124697.05, 0.0, 9.99946, 9.998821 
1.4051458e+3, 2.740658e+2, -403943.78, -449840.28, -38993.523, -0.08065345, -0.06787349, -381646.94, -127496.734, 0.0, 9.999465, 9.998845 
1.4051631e+3, 2.840652e+2, -312667.72, -288877.34, -14334.784, -0.08254788, -0.0357426, -282145.1, -125988.3, 0.0, 9.999132, 9.999438 
1.4051813e+3, 2.940649e+2, -327332.1, -232959.16, -30671.639, -0.024175026, -0.018711038, -223866.75, -165708.3, 0.0, 9.998305, 9.999547 
1.4051992e+3, 3.0406353e+2, -310964.75, -174425.72, -23786.258, -0.017561395, -0.118205756, -170400.61, -170400.61, 0.0, 9.9979725, 9.999777 
1.4052162e+3, 3.1406453e+2, -219669.27, -75881.69, 17560.467, -0.13061321, 0.0024433676, -73768.13, -73768.13, 0.0, 9.998362, 10.000268 
1.4149025e+3, 1.240659e+2, -1459853.4, -1804993.4, 93237.34, -0.10400016, -0.020712074, -1436276.5, 287876.66, 0.0071187555, 10.002694, 9.998081 
1.414919e+3, 1.340651e+2, -1325336.8, -1624642.1, -95306.93, 0.01963154, 0.04292462, -1297565.3, 328596.3, 0.0041865646, 10.002645, 9.998678 
1.4149337e+3, 1.4406322e+2, -1271405.3, -1544111.5, -58490.043, -0.10882864, -0.015782021, -1259389.6, 268790.25, 0.001777482, 10.002324, 9.998706 
1.4149506e+3, 1.5406185e+2, -1267843.5, -1490904.4, -52500.777, -0.05272362, -0.022367733, -1256104.4, 174087.67, 0.00043918352, 10.001671, 9.9987135 
1.4149675e+3, 1.6406041e+2, -1223916.0, -1434270.0, -43503.473, -0.0358757, -0.027984463, -1215274.0, 116931.52, 0.000037541082, 10.001364, 9.998578 
1.4149842e+3, 1.74059e+2, -1097422.1, -1318199.9, -42455.15, -0.031631313, -0.029852826, -1089539.5, 144680.11, 0.00000007226826, 10.00154, 9.998616 
1.4150004e+3, 1.8405774e+2, -1008563.2, -1207165.8, -81506.79, -0.026674945, -0.02163204, -979396.2, 156835.92, 0.0, 10.001403, 9.998772 
1.415016e+3, 1.9405673e+2, -989692.4, -1140440.3, -87183.64, -0.033995017, -0.0064080353, -949817.8, 88424.12, 0.0, 10.00083, 9.998833 
1.4150317e+3, 2.040555e+2, -926027.1, -1042179.8, -77392.96, -0.031616226, -0.01630442, -887343.3, 52909.766, 0.0, 10.000523, 9.998982 
1.4150478e+3, 2.1405402e+2, -812714.06, -929879.9, -73959.5, -0.010936636, -0.06811326, -776946.75, 65319.008, 0.0, 10.000598, 9.999043 
1.415064e+3, 2.2405285e+2, -736655.0, -856947.3, -70644.28, 0.0021754717, -0.08046873, -704020.94, 40255.56, 0.0, 10.000511, 9.998913 
1.4150801e+3, 2.340522e+2, -683589.7, -777096.3, -72361.445, 0.0027155208, -0.03941144, -644191.7, 2092.117, 0.0, 10.000187, 9.998944 
1.415096e+3, 2.4405134e+2, -624731.8, -690527.6, -62199.773, -0.01191425, -0.01997201, -587265.75, -38973.426, 0.0, 9.999887, 9.99901 
1.4151122e+3, 2.5405017e+2, -562008.8, -603494.9, -64243.902, -0.04629615, -0.042078447, -515242.2, -64939.574, 0.0, 9.999619, 9.9990635 
1.4151287e+3, 2.6404893e+2, -493453.53, -529540.1, -45300.133, -0.054817572, -0.06728663, -462735.53, -110420.85, 0.0, 9.99946, 9.998975 
1.4151457e+3, 2.740477e+2, -392200.0, -425203.3, -37703.37, -0.029867927, -0.09006555, -367545.28, -113217.81, 0.0, 9.999462, 9.999017 
1.4151625e+3, 2.8404707e+2, -340998.5, -348244.0, -41622.457, -0.040483218, -0.05185539, -302841.44, -146506.97, 0.0, 9.999133, 9.999031 
1.4151789e+3, 2.9404703e+2, -358430.0, -300660.78, -59997.03, -0.09355387, 0.036426533, -262957.38, -204621.63, 0.0, 9.998317, 9.999078 
1.4151965e+3, 3.0404526e+2, -299299.34, -152593.19, -11348.233, -0.08977166, -0.08485366, -151720.55, -151720.55, 0.0, 9.997982, 9.999923 
1.4152151e+3, 3.1404567e+2, -186075.45, -1615.5652, 33954.438, -0.080318056, -0.046016645, 4436.0576, 4436.0576, 0.0, 9.998341, 10.000788 
1.4249052e+3, 1.2404857e+2, -1390332.1, -1774092.6, 104671.49, -0.10843283, -0.010261817, -1363639.4, 360683.4, 0.007483504, 10.003189, 9.9980545 
1.4249215e+3, 1.3404757e+2, -1356980.1, -1648589.5, -79161.76, 0.009382942, 0.03759755, -1336876.4, 289456.97, 0.004407692, 10.002464, 9.998601 
1.4249359e+3, 1.4404553e+2, -1310038.8, -1569375.4, -39009.977, -0.10734077, -0.02705882, -1304297.9, 224055.31, 0.0018747556, 10.002088, 9.998647 
1.4249524e+3, 1.5404436e+2, -1190032.5, -1459450.1, -44131.043, -0.055917844, -0.010679434, -1182988.0, 247376.0, 0.0004643644, 10.002232, 9.998658 
1.424969e+3, 1.6404292e+2, -1129412.0, -1390246.3, -41908.19, -0.037772823, -0.011158241, -1122844.0, 209533.44, 0.000040275583, 10.002021, 9.998562 
1.4249855e+3, 1.7404129e+2, -1132111.6, -1336168.0, -40018.76, -0.024351044, -0.03414747, -1124543.9, 109849.36, 0.00000008454083, 10.001309, 9.998603 
1.4250016e+3, 1.8403994e+2, -1075501.0, -1242969.5, -74913.41, -0.018594163, -0.034282483, -1046881.1, 89525.516, 0.0, 10.000959, 9.998739 
1.4250168e+3, 1.9403897e+2, -947137.2, -1123221.0, -78066.83, -0.036803644, -0.008816802, -917510.9, 120905.13, 0.0, 10.001138, 9.998802 
1.4250323e+3, 2.0403782e+2, -848112.9, -1002652.9, -67818.164, -0.040432755, -0.011128793, -822572.56, 117854.13, 0.0, 10.00105, 9.998999 
1.4250484e+3, 2.1403639e+2, -813450.2, -927662.8, -67234.55, -0.01892268, -0.05959613, -782343.06, 60095.848, 0.0, 10.000583, 9.999066 
1.4250644e+3, 2.2403522e+2, -771770.4, -872062.5, -63830.637, -0.0020454472, -0.07496409, -740743.94, 3705.7734, 0.0, 10.000262, 9.998929 
1.4250802e+3, 2.3403445e+2, -686304.8, -776503.7, -61048.773, 0.0061888006, -0.04559107, -655503.56, -9045.821, 0.0, 10.000161, 9.998961 
1.4250961e+3, 2.440336e+2, -612463.75, -691217.9, -49221.94, -0.005739552, -0.024115296, -588806.3, -40339.82, 0.0, 10.0, 9.99895 
1.4251119e+3, 2.5403258e+2, -546704.25, -603211.06, -50881.85, -0.044752624, -0.02509645, -516757.84, -66281.766, 0.0, 9.999755, 9.999 
1.425128e+3, 2.6403138e+2, -496647.63, -524009.3, -33832.99, -0.050826587, -0.04464684, -473834.13, -121346.27, 0.0, 9.999407, 9.999038 
1.4251451e+3, 2.740301e+2, -466617.94, -452782.53, -33466.063, -0.013499868, -0.08300591, -425526.7, -171025.8, 0.0, 9.998914, 9.999092 
1.4251617e+3, 2.8402945e+2, -400235.25, -385269.44, -29129.057, -0.028946826, -0.046397075, -362677.5, -206169.52, 0.0, 9.998763, 9.998955 
1.4251775e+3, 2.9402947e+2, -247719.42, -258498.0, -21786.1, -0.11065253, 0.057645943, -230665.92, -172156.63, 0.0, 9.999126, 9.998977 
1.4251947e+3, 3.0402753e+2, -202395.53, -111792.31, 19227.275, -0.10535221, -0.07037772, -107880.875, -107880.875, 0.0, 9.9986725, 9.999869 
1.4252128e+3, 3.1402782e+2, -359926.47, -52115.44, 44010.867, -0.0729174, -0.044320386, -45946.4, -45946.4, 0.0, 9.997004, 10.001085 
1.4349085e+3, 1.2403165e+2, -1385390.4, -1764606.3, 78116.57, -0.091725916, 0.0065462957, -1369929.1, 354558.84, 0.007877122, 10.003193, 9.998117 
1.4349239e+3, 1.3402998e+2, -1356298.3, -1646725.4, -107502.41, -0.013242961, -0.01328361, -1320836.1, 305668.4, 0.00464788, 10.002462, 9.998615 
1.4349377e+3, 1.440278e+2, -1323981.5, -1598329.6, -37779.69, -0.12590975, -0.08539153, -1318874.0, 209652.08, 0.0019819823, 10.002087, 9.998448 
1.4349549e+3, 1.5402725e+2, -1204498.5, -1490566.0, -39101.094, -0.046520256, 0.01611335, -1199250.3, 231281.8, 0.00049257313, 10.002235, 9.998443 
1.4349712e+3, 1.6402604e+2, -1129833.9, -1392858.1, -66824.17, -0.01992115, 0.04814029, -1113830.1, 218714.0, 0.000043431377, 10.002027, 9.998542 
1.4349869e+3, 1.7402394e+2, -1131546.3, -1336217.5, -67569.586, -0.026361283, -0.020576676, -1111251.5, 123312.74, 0.00000010052836, 10.001313, 9.998601 
1.4350024e+3, 1.8402225e+2, -1075065.9, -1242953.6, -71837.15, -0.030493766, -0.052031036, -1048523.8, 88056.53, 0.0, 10.000962, 9.998738 
1.4350179e+3, 1.9402121e+2, -946868.9, -1123315.3, -71482.06, -0.04415775, -0.03622448, -921544.7, 117045.67, 0.0, 10.00114, 9.998801 
1.4350334e+3, 2.0402019e+2, -848745.2, -1004495.8, -83501.414, -0.047642604, -0.02448218, -812440.56, 128159.266, 0.0, 10.001051, 9.998986 
1.4350489e+3, 2.1401922e+2, -814130.75, -929915.75, -84954.484, -0.0311966, -0.02490291, -769218.5, 73389.62, 0.0, 10.000585, 9.99905 
1.4350645e+3, 2.2401813e+2, -766223.1, -861503.56, -68957.15, -0.019067576, -0.034613512, -730050.0, 14568.213, 0.0, 10.000265, 9.999001 
1.4350802e+3, 2.340169e+2, -680657.8, -765250.3, -64508.824, -0.015375333, -0.060640257, -645815.44, 814.53955, 0.0, 10.000161, 9.999039 
1.435096e+3, 2.4401586e+2, -615024.7, -697005.9, -57432.9, -0.016610496, -0.059080172, -585454.94, -36814.625, 0.0, 10.000001, 9.998911 
1.4351118e+3, 2.5401512e+2, -550470.0, -611409.5, -59195.164, -0.024319662, -0.027583262, -514362.97, -63714.836, 0.0, 9.999755, 9.998944 
1.4351277e+3, 2.6401412e+2, -496990.56, -525597.44, -50356.043, -0.028522255, -0.021615136, -458945.94, -106287.516, 0.0, 9.99941, 9.999026 
1.435144e+3, 2.7401295e+2, -466024.13, -452960.47, -50546.43, -0.029394226, -0.047145937, -408525.6, -153855.13, 0.0, 9.998919, 9.999089 
1.4351603e+3, 2.8401232e+2, -384827.97, -354217.84, -16948.219, -0.047220908, -0.020232491, -346686.8, -190009.36, 0.0, 9.998765, 9.999167 
1.4351769e+3, 2.9401222e+2, -234933.73, -228932.53, -6114.3667, -0.0827728, 0.045012064, -225122.19, -166442.4, 0.0, 9.999112, 9.999187 
1.4351936e+3, 3.0401033e+2, -219220.39, -143694.94, -35628.234, -0.07109939, -0.07375728, -129540.47, -129540.47, 0.0, 9.998659, 9.999658 
1.4352095e+3, 3.140109e+2, -349401.25, -35307.348, -19484.2, -0.10459712, 0.0019415141, -34103.297, -34103.297, 0.0, 9.997025, 10.00119 
1.4449118e+3, 1.24014676e+2, -1390861.5, -1776825.1, 93879.72, -0.086637594, -0.018685102, -1369238.1, 355414.88, 0.008301398, 10.003199, 9.99803 
1.4449264e+3, 1.3401309e+2, -1285180.8, -1629236.9, -105861.91, -0.029741932, -0.016272001, -1255217.8, 371451.7, 0.0049079615, 10.003027, 9.998462 
1.4449401e+3, 1.4401087e+2, -1239333.8, -1559314.6, -28901.291, -0.13501991, -0.08254676, -1236744.4, 291947.47, 0.0020998851, 10.00268, 9.998429 
1.4449571e+3, 1.540102e+2, -1220781.0, -1498155.1, -13098.604, -0.04156114, 0.007077001, -1220163.8, 210534.88, 0.00052445993, 10.002125, 9.998444 
1.4449732e+3, 1.6400896e+2, -1177607.1, -1427429.3, -42021.098, -0.014591927, 0.04084522, -1170728.4, 161982.88, 0.000047180834, 10.00175, 9.998437 
1.4449881e+3, 1.7400695e+2, -1092407.0, -1330275.5, -52703.895, -0.040620763, -0.006741282, -1081252.6, 153478.55, 0.00000012546444, 10.001639, 9.998484 
1.4450034e+3, 1.8400528e+2, -1008713.4, -1208366.8, -50914.832, -0.046814147, -0.03267868, -996479.0, 140268.55, 0.0, 10.001409, 9.998759 
1.4450191e+3, 1.940041e+2, -963112.9, -1127080.9, -47195.16, -0.037804972, -0.033143986, -950499.0, 88259.39, 0.0, 10.001012, 9.998836 
1.4450344e+3, 2.0400305e+2, -893751.5, -1026635.8, -63068.277, -0.03535138, -0.026137777, -868584.9, 72183.19, 0.0, 10.000745, 9.998981 
1.4450493e+3, 2.140022e+2, -802792.56, -925409.0, -65088.254, -0.037145656, -0.014293176, -774685.0, 68090.65, 0.0, 10.000669, 9.999041 
1.4450645e+3, 2.2400117e+2, -729277.06, -836278.8, -47491.953, -0.034817263, -0.020246156, -711238.94, 33546.22, 0.0, 10.000487, 9.999066 
1.4450802e+3, 2.3399992e+2, -676953.7, -755422.06, -43675.484, -0.028672982, -0.055886947, -657477.8, -10681.072, 0.0, 10.000153, 9.99911 
1.4450958e+3, 2.439989e+2, -631012.4, -697698.8, -33971.67, -0.023192652, -0.060223773, -616754.7, -67947.91, 0.0, 9.999861, 9.998974 
1.4451115e+3, 2.5399822e+2, -563724.06, -611087.5, -28092.229, -0.018413087, -0.028394256, -550663.5, -99849.3, 0.0, 9.999635, 9.999005 
1.4451271e+3, 2.639973e+2, -490483.63, -524071.16, -16892.72, -0.022859413, -0.018160293, -483457.34, -130633.29, 0.0, 9.999461, 9.999012 
1.4451428e+3, 2.7399617e+2, -402931.88, -424624.53, -19121.377, -0.042457677, -0.03489607, -391794.78, -136959.14, 0.0, 9.999361, 9.99907 
1.4451589e+3, 2.8399563e+2, -350418.1, -319052.0, 12295.931, -0.05740721, -0.0073153637, -314806.47, -157964.4, 0.0, 9.998921, 9.999333 
1.4451757e+3, 2.9399562e+2, -386000.53, -282609.56, 19622.756, -0.05738068, 0.050384182, -279010.63, -220167.44, 0.0, 9.997992, 9.999359 
1.445192e+3, 3.0399403e+2, -383654.53, -238002.13, -17933.506, -0.04066357, -0.04559028, -235826.56, -235826.56, 0.0, 9.997597, 9.99952 
1.4452067e+3, 3.1399435e+2, -194022.23, 55759.207, 6.6224723, -0.13327214, 0.022225592, 55759.207, 55759.207, 0.0, 9.998024, 10.001333 
1.454915e+3, 1.2399771e+2, -1408170.1, -1812701.6, 86106.76, -0.095069475, -0.08823412, -1390604.6, 334212.63, 0.008755289, 10.003198, 9.997785 
1.4549293e+3, 1.3399696e+2, -1307695.5, -1677034.0, -113254.88, -0.040301554, 0.028833376, -1275732.8, 351094.8, 0.0051877103, 10.003032, 9.998132 
1.4549428e+3, 1.4399482e+2, -1227437.5, -1536332.3, -50392.973, -0.13507752, -0.017063286, -1219424.3, 309425.28, 0.0022286694, 10.0026865, 9.998585 
1.4549592e+3, 1.5399326e+2, -1205419.1, -1466944.0, -34800.246, -0.041796766, -0.03779076, -1200867.5, 229995.89, 0.0005603208, 10.002127, 9.998657 
1.4549749e+3, 1.6399175e+2, -1190714.3, -1455623.1, -48499.234, -0.022697773, -0.03362622, -1182114.3, 150764.16, 0.00005156165, 10.001753, 9.998242 
1.4549895e+3, 1.739904e+2, -1108743.1, -1365225.4, -57212.25, -0.06781344, 0.0072137127, -1096559.8, 138333.97, 0.00000016567238, 10.001643, 9.998243 
1.4550047e+3, 1.8398903e+2, -1005509.44, -1202689.8, -65581.21, -0.06881538, 0.024291895, -985689.7, 151218.34, 0.0, 10.001411, 9.998797 
1.4550203e+3, 1.9398768e+2, -957700.5, -1117151.6, -62392.688, -0.018342463, -0.00019390309, -936188.6, 102731.41, 0.0, 10.001017, 9.998902 
1.4550354e+3, 2.0398644e+2, -893313.3, -1026767.4, -67465.76, -0.004067893, -0.01688636, -865150.25, 75781.15, 0.0, 10.000749, 9.99898 
1.4550501e+3, 2.1398535e+2, -803147.8, -926606.06, -67946.55, -0.037673827, -0.027142005, -773077.06, 69864.26, 0.0, 10.0006695, 9.999032 
1.455065e+3, 2.2398436e+2, -725330.5, -828104.7, -59039.652, -0.050588645, -0.031234672, -698446.8, 46503.723, 0.0, 10.000486, 9.999124 
1.4550802e+3, 2.3398353e+2, -672341.0, -746037.0, -55741.496, -0.034493566, -0.03192888, -642369.1, 4588.951, 0.0, 10.000153, 9.999175 
1.4550956e+3, 2.4398269e+2, -619776.0, -674743.0, -42323.605, -0.025815902, -0.028548945, -596795.4, -47829.18, 0.0, 9.999861, 9.999132 
1.455111e+3, 2.5398186e+2, -552002.5, -586839.5, -35756.28, -0.026748894, -0.027671615, -529647.7, -78673.09, 0.0, 9.999634, 9.999172 
1.4551266e+3, 2.6398087e+2, -492320.72, -527531.2, -20072.566, -0.03419035, -0.033526983, -483226.66, -130241.58, 0.0, 9.999458, 9.99899 
1.455142e+3, 2.7397975e+2, -406936.75, -431866.16, -21393.537, -0.055061523, -0.044658754, -394641.56, -139644.78, 0.0, 9.999355, 9.999023 
1.4551578e+3, 2.8397933e+2, -340782.53, -299255.16, -18683.666, -0.06131422, -0.006673082, -292086.6, -135084.45, 0.0, 9.998921, 9.999471 
1.4551738e+3, 2.939797e+2, -374039.25, -260871.03, -14675.981, -0.033703383, 0.07146597, -258998.78, -199998.73, 0.0, 9.998003, 9.999503 
1.4551899e+3, 3.039785e+2, -387514.47, -248973.06, -5931.9653, -0.014402706, 0.012754942, -248719.55, -248719.55, 0.0, 9.997608, 9.99944 
1.4552043e+3, 3.1397817e+2, -187158.13, 72903.88, 14516.639, -0.16363055, 0.021440968, 73711.69, 73711.69, 0.0, 9.998011, 10.001458 
1.4649181e+3, 1.2398139e+2, -1357947.6, -1784056.8, 84285.234, -0.12068529, -0.103608325, -1341881.5, 383095.03, 0.009235504, 10.00353, 9.997821 
1.4649324e+3, 1.339807e+2, -1307712.8, -1680532.0, -92966.55, -0.03409024, 0.024070889, -1285816.5, 341169.3, 0.0054858825, 10.003049, 9.998098 
1.4649455e+3, 1.4397855e+2, -1244767.1, -1556119.9, -30961.61, -0.116169885, -0.01772345, -1241718.1, 287290.1, 0.002367959, 10.002619, 9.99848 
1.4649612e+3, 1.5397681e+2, -1188537.6, -1470903.3, -39767.71, -0.06449586, -0.045997243, -1183043.8, 247980.81, 0.0006001031, 10.002296, 9.998547 
1.4649764e+3, 1.6397527e+2, -1154090.8, -1428982.4, -50387.652, -0.054653395, -0.04242098, -1145145.8, 187894.39, 0.00005646771, 10.001968, 9.998321 
1.4649913e+3, 1.7397411e+2, -1101854.6, -1350455.6, -33670.89, -0.061878797, 0.007690433, -1097374.9, 137678.16, 0.00000022299002, 10.001643, 9.998343 
1.4650062e+3, 1.8397279e+2, -1022829.2, -1220969.3, -36423.066, -0.048338383, 0.028575819, -1016345.9, 120720.86, 0.0, 10.001337, 9.998708 
1.4650212e+3, 1.9397129e+2, -959272.75, -1130288.4, -47129.547, -0.018370261, -0.00033331476, -947144.6, 91936.14, 0.0, 10.0010605, 9.99879 
1.4650361e+3, 2.0397e+2, -883013.6, -1012616.94, -51650.824, -0.013127199, -0.018567294, -864947.5, 76145.29, 0.0, 10.000781, 9.999061 
1.4650506e+3, 2.1396905e+2, -820616.0, -923489.3, -43789.76, -0.0390332, -0.025430111, -804500.6, 38600.67, 0.0, 10.000501, 9.999134 
1.4650653e+3, 2.2396816e+2, -757124.1, -835631.44, -33987.67, -0.047888964, -0.027179787, -744454.6, 654.6975, 0.0, 10.000236, 9.999193 
1.4650804e+3, 2.3396741e+2, -691247.2, -747502.1, -31664.998, -0.0336153, -0.027864072, -677021.06, -29904.852, 0.0, 9.99999, 9.999243 
1.4650953e+3, 2.4396661e+2, -630984.6, -674264.7, -19595.72, -0.028944133, -0.02596299, -623430.75, -74306.86, 0.0, 9.99976, 9.999184 
1.4651105e+3, 2.5396582e+2, -561884.5, -585831.4, -21724.668, -0.03666502, -0.027829424, -549052.2, -97919.93, 0.0, 9.999542, 9.999223 
1.4651258e+3, 2.6396495e+2, -513062.75, -521393.16, -6516.3677, -0.03879843, -0.02881124, -509494.13, -156352.72, 0.0, 9.999247, 9.999134 
1.4651413e+3, 2.7396417e+2, -470731.9, -445482.03, 5608.2607, -0.037089992, -0.026738575, -444292.4, -189142.34, 0.0, 9.998843, 9.999176 
1.4651567e+3, 2.8396368e+2, -395101.6, -337398.8, 1678.1045, -0.046159733, 0.0021110054, -337350.06, -180194.17, 0.0, 9.9986, 9.999363 
1.4651719e+3, 2.9396355e+2, -299082.1, -241107.39, -16832.326, -0.058272935, 0.046995275, -236574.69, -177416.06, 0.0, 9.9985895, 9.999356 
1.4651877e+3, 3.0396262e+2, -307636.53, -213386.52, -12060.422, -0.03482033, 0.023030562, -211867.72, -211867.72, 0.0, 9.998168, 9.999414 
1.4652024e+3, 3.139622e+2, -298743.44, 31655.354, 11907.549, -0.12657462, 0.020694226, 32083.945, 32083.945, 0.0, 9.99719, 10.001569 
1.4749211e+3, 1.23965785e+2, -1334777.9, -1736562.3, 63777.008, -0.16469154, -0.06248409, -1324897.3, 400232.97, 0.00973839, 10.003534, 9.998145 
1.4749357e+3, 1.3396442e+2, -1288972.0, -1641797.6, -112158.664, -0.011603824, -0.030972425, -1256336.9, 370806.63, 0.005800612, 10.003051, 9.998364 
1.4749485e+3, 1.4396212e+2, -1270158.0, -1609852.9, -45177.926, -0.07887225, -0.08573129, -1264252.3, 264914.88, 0.0025169705, 10.002623, 9.99811 
1.474963e+3, 1.539609e+2, -1219214.9, -1535317.5, -52536.18, -0.11050453, -0.017786628, -1210712.1, 220469.48, 0.000643619, 10.002298, 9.998104 
1.4749777e+3, 1.6395955e+2, -1129502.3, -1379090.4, -63833.73, -0.1119303, 0.015419295, -1114124.0, 219072.0, 0.00006177202, 10.001972, 9.998662 
1.4749932e+3, 1.7395811e+2, -1070761.5, -1287459.9, -46462.08, -0.023376932, -0.005403785, -1061219.8, 173988.98, 0.0000002932695, 10.001648, 9.998774 
1.4750081e+3, 1.839566e+2, -1037089.0, -1252069.9, -47587.617, 0.014185347, -0.020296624, -1027026.1, 110197.28, 0.0, 10.001342, 9.998491 
1.4750221e+3, 1.9395496e+2, -979343.44, -1172989.5, -57815.348, -0.03804106, -0.0329159, -963395.44, 75844.836, 0.0, 10.001063, 9.998496 
1.4750364e+3, 2.0395377e+2, -871812.6, -989916.8, -62538.563, -0.06313121, -0.030357422, -844851.8, 96400.27, 0.0, 10.000782, 9.999216 
1.475051e+3, 2.139533e+2, -805894.0, -893668.9, -54312.816, -0.041816108, -0.0100845285, -779953.1, 63302.51, 0.0, 10.000503, 9.999338 
1.4750656e+3, 2.239526e+2, -751575.6, -824492.3, -43430.11, -0.027556986, -0.009109694, -731329.6, 13932.182, 0.0, 10.000236, 9.9992695 
1.4750803e+3, 2.3395157e+2, -686995.94, -738917.5, -40543.19, -0.026740499, -0.04269787, -664814.1, -17542.984, 0.0, 9.99999, 9.999302 
1.4750952e+3, 2.4395068e+2, -634713.0, -681848.3, -27337.16, -0.033545133, -0.051184494, -622187.0, -72907.01, 0.0, 9.999758, 9.999133 
1.47511e+3, 2.5395006e+2, -566931.94, -595829.0, -28984.572, -0.048908148, -0.02879657, -548994.25, -97706.83, 0.0, 9.999539, 9.999156 
1.4751251e+3, 2.6394954e+2, -491955.88, -477871.6, -20175.393, -0.03743184, -0.0050070337, -463544.66, -110251.24, 0.0, 9.999247, 9.9994335 
1.4751406e+3, 2.7394927e+2, -446798.25, -396100.75, -8764.546, 0.009393185, 0.016923673, -394628.3, -139332.25, 0.0, 9.998843, 9.9995165 
1.4751557e+3, 2.8394857e+2, -419517.9, -387738.9, 724.783, -0.014072839, 0.018603377, -387722.38, -230418.55, 0.0, 9.998598, 9.999019 
1.4751698e+3, 2.939472e+2, -330498.9, -305240.53, -15755.77, -0.12942009, -0.019278951, -297677.13, -238358.17, 0.0, 9.998584, 9.998919 
1.475185e+3, 3.0394635e+2, -304257.78, -206857.61, -44531.14, -0.09983725, -0.010454181, -189567.38, -189567.38, 0.0, 9.998169, 9.99946 
1.4752005e+3, 3.1394646e+2, -290263.0, 45753.7, -27375.695, -0.027793381, 0.029730696, 47969.42, 47969.42, 0.0, 9.997205, 10.00166 
1.4849247e+3, 1.23950265e+2, -1326006.6, -1720103.5, 75688.41, -0.15634118, -0.044658665, -1311970.1, 413312.8, 0.010262846, 10.003545, 9.998252 
1.4849386e+3, 1.3394862e+2, -1256727.8, -1620490.1, -115556.61, -0.021704936, -0.046600815, -1223123.3, 404174.7, 0.0061310735, 10.00325, 9.998414 
1.4849512e+3, 1.4394628e+2, -1240104.1, -1607429.6, -49444.992, -0.088705055, -0.101880625, -1233564.9, 295756.8, 0.0026753244, 10.002883, 9.998 
1.4849654e+3, 1.5394524e+2, -1207185.5, -1542992.5, -33054.465, -0.1076297, -0.004868804, -1203962.8, 227372.67, 0.00069087674, 10.002441, 9.997982 
1.4849797e+3, 1.639439e+2, -1110914.0, -1362233.0, -37138.832, -0.1064499, 0.033926528, -1105540.8, 227809.1, 0.00006744942, 10.002068, 9.99873 
1.4849949e+3, 1.7394227e+2, -1042488.8, -1263704.6, -45397.7, -0.03178331, -0.01721761, -1033534.8, 201828.92, 0.00000037325287, 10.001801, 9.998862 
1.4850093e+3, 1.8394071e+2, -1011112.4, -1232809.4, -52763.016, 0.0006511286, -0.042475287, -999195.56, 138182.56, 0.0, 10.0014925, 9.99855 
1.4850232e+3, 1.9393934e+2, -965282.94, -1159724.5, -37646.49, -0.043442663, -0.03434367, -958248.56, 81143.98, 0.0, 10.001134, 9.998552 
1.485037e+3, 2.0393825e+2, -880606.2, -1001964.1, -36367.465, -0.063285686, -0.023529759, -870542.44, 70861.414, 0.0, 10.000756, 9.999145 
1.4850515e+3, 2.1393758e+2, -834034.8, -916885.94, -50369.914, -0.04185887, -0.015158638, -810243.75, 33166.13, 0.0, 10.000352, 9.999251 
1.4850658e+3, 2.2393687e+2, -771450.4, -818570.0, -45323.594, -0.027984576, -0.014827382, -743928.94, 1487.2498, 0.0, 10.000034, 9.999407 
1.4850803e+3, 2.3393618e+2, -697266.6, -725537.4, -34881.773, -0.027993599, -0.03173804, -673764.94, -26342.805, 0.0, 9.999843, 9.999464 
1.4850947e+3, 2.4393542e+2, -653375.56, -684273.56, -15836.558, -0.033787258, -0.03820553, -646700.6, -97271.05, 0.0, 9.999603, 9.99919 
1.4851093e+3, 2.5393465e+2, -600516.0, -607296.25, -10668.594, -0.045726813, -0.034982912, -592711.9, -141273.23, 0.0, 9.9992895, 9.999196 
1.4851242e+3, 2.639342e+2, -522627.25, -489652.03, -7635.1694, -0.034838505, -0.009124786, -487969.97, -134525.67, 0.0, 9.999024, 9.999459 
1.4851394e+3, 2.7393427e+2, -446999.3, -393371.44, -19573.018, 0.0050786, 0.042374834, -386987.66, -131543.34, 0.0, 9.998832, 9.999539 
1.4851542e+3, 2.8393355e+2, -417325.53, -372982.5, -4526.528, -0.01699903, 0.03977675, -372525.16, -215073.47, 0.0, 9.998555, 9.99914 
1.4851682e+3, 2.9393187e+2, -385271.8, -317647.8, 17973.836, -0.117918536, -0.04139756, -313167.38, -253698.69, 0.0, 9.998149, 9.999042 
1.4851832e+3, 3.0393136e+2, -361770.7, -244864.84, -4282.594, -0.08191006, -0.0036928526, -244708.16, -244708.16, 0.0, 9.99782, 9.999367 
1.485198e+3, 3.1393123e+2, -244964.81, 39835.957, -8224.828, -0.016604422, 0.024984773, 40073.29, 40073.29, 0.0, 9.997636, 10.0014105 
1.4949289e+3, 1.2393488e+2, -1334599.6, -1738084.0, 61473.51, -0.09435823, -0.051608965, -1325441.5, 399992.8, 0.01081166, 10.003547, 9.998128 
1.4949414e+3, 1.339334e+2, -1269263.8, -1646734.1, -127684.26, -0.065332204, -0.022442935, -1230130.0, 397318.53, 0.0064788726, 10.003252, 9.998234 
1.4949535e+3, 1.4393114e+2, -1228772.5, -1585227.9, -67208.84, -0.14770262, -0.06486419, -1216521.5, 312949.72, 0.00284381, 10.002889, 9.998151 
1.4949684e+3, 1.539299e+2, -1192710.0, -1514374.8, -50385.88, -0.056499556, -0.0070296647, -1185002.1, 246483.44, 0.00074233697, 10.002446, 9.998177 
1.4949825e+3, 1.6392839e+2, -1124566.6, -1392207.6, -48737.88, -0.03813234, 0.012678001, -1115967.6, 217533.52, 0.000073667885, 10.002073, 9.998522 
1.4949961e+3, 1.739266e+2, -1060401.8, -1301730.9, -56029.152, -0.08716761, -0.027855907, -1048027.94, 187489.63, 0.00000046463128, 10.001802, 9.998601 
1.49501e+3, 1.839252e+2, -987863.7, -1185170.5, -66607.8, -0.08996658, -0.03735057, -967483.1, 170047.42, 0.0, 10.001494, 9.998878 
1.4950244e+3, 1.9392447e+2, -936501.06, -1101424.9, -51484.242, -0.03565007, -0.0052863215, -921748.8, 117788.69, 0.0, 10.001139, 9.998951 
1.4950383e+3, 2.0392342e+2, -900902.7, -1045290.4, -51743.707, -0.014588153, 0.00084449706, -884274.44, 57273.69, 0.0, 10.000761, 9.998846 
1.4950518e+3, 2.1392189e+2, -860299.5, -972338.8, -65579.586, -0.03942091, -0.03968303, -830070.2, 13493.683, 0.0, 10.000355, 9.99887 
1.4950657e+3, 2.23921e+2, -757731.25, -790392.9, -53171.78, -0.049379233, -0.043419607, -718438.94, 27133.541, 0.0, 10.000034, 9.9996 
1.49508e+3, 2.339212e+2, -678889.7, -687467.06, -41685.055, -0.037764203, 0.0036038368, -641273.25, 6296.1807, 0.0, 9.999843, 9.999726 
1.4950943e+3, 2.439208e+2, -643009.3, -662682.7, -26797.268, -0.030473812, 0.011014814, -624300.4, -74727.25, 0.0, 9.999602, 9.999339 
1.4951088e+3, 2.5391957e+2, -591416.1, -588169.06, -21701.012, -0.02838492, -0.045717403, -568030.94, -116444.92, 0.0, 9.999288, 9.99933 
1.4951234e+3, 2.6391888e+2, -539314.2, -523702.72, -14536.723, -0.03169378, -0.039304756, -515008.6, -161414.44, 0.0, 9.999022, 9.999227 
1.4951377e+3, 2.7391908e+2, -466705.84, -434057.13, -25429.414, -0.04776634, 0.05057592, -420163.28, -164568.47, 0.0, 9.99883, 9.999262 
1.4951524e+3, 2.8391865e+2, -378713.56, -293314.16, -17826.42, -0.05381709, 0.065028034, -289742.4, -132142.66, 0.0, 9.998556, 9.999687 
1.4951672e+3, 2.9391754e+2, -341077.1, -225097.5, 3107.5144, -0.030766208, -0.022451267, -225014.3, -165405.42, 0.0, 9.998143, 9.999681 
1.495182e+3, 3.039175e+2, -377404.3, -275850.97, -11639.854, 0.011894733, 0.039388593, -274533.9, -274533.9, 0.0, 9.997813, 9.999157 
1.4951949e+3, 3.1391656e+2, -285085.88, -44368.066, -17079.303, -0.08739065, 0.019550195, -43162.305, -43162.305, 0.0, 9.997641, 10.00083 
1.5049328e+3, 1.2392024e+2, -1284920.5, -1732454.3, 88929.26, -0.06960351, -0.042192623, -1267897.0, 457681.22, 0.011389441, 10.003974, 9.997962 
1.5049447e+3, 1.3391852e+2, -1264526.6, -1670383.5, -102871.09, -0.07039336, -0.012955409, -1239941.5, 387653.63, 0.006846774, 10.003399, 9.997999 
1.5049563e+3, 1.4391622e+2, -1213031.0, -1566659.0, -42848.773, -0.1584011, -0.051659968, -1207913.1, 321705.2, 0.0030239136, 10.002952, 9.998247 
1.5049711e+3, 1.5391493e+2, -1140450.6, -1473852.6, -29897.512, -0.043572083, -0.012423905, -1137790.9, 293841.06, 0.000798702, 10.002741, 9.998313 
1.5049848e+3, 1.6391337e+2, -1085777.4, -1388251.6, -30989.52, -0.02087669, -0.0002517665, -1082635.1, 251012.52, 0.0000807338, 10.002404, 9.99839 
1.5049978e+3, 1.739115e+2, -1061261.6, -1320298.4, -32083.344, -0.09598778, -0.032089666, -1057347.1, 178318.27, 0.00000057502143, 10.001877, 9.998438 
1.5050112e+3, 1.8391007e+2, -1000228.06, -1189213.8, -47817.75, -0.10843664, -0.0356698, -988817.94, 148860.9, 0.0, 10.001403, 9.998893 
1.5050253e+3, 1.939094e+2, -951644.1, -1104659.1, -60176.31, -0.039131563, -0.001756309, -930814.1, 108871.06, 0.0, 10.001019, 9.998986 
1.505039e+3, 2.0390835e+2, -910738.9, -1044693.5, -63568.906, -0.010567469, 0.00207533, -885374.6, 56320.957, 0.0, 10.000671, 9.998893 
1.5050523e+3, 2.139068e+2, -853527.2, -963211.1, -45896.406, -0.03940089, -0.04589946, -836856.06, 6855.182, 0.0, 10.000378, 9.99892 
1.5050657e+3, 2.2390592e+2, -757237.9, -793282.25, -21093.178, -0.051371872, -0.05341491, -747516.2, -1796.2043, 0.0, 10.000053, 9.999571 
1.5050797e+3, 2.3390606e+2, -705720.2, -705073.75, -31968.35, -0.038675204, -0.005845285, -673426.94, -25709.299, 0.0, 9.99968, 9.999683 
1.5050939e+3, 2.4390577e+2, -667713.6, -658187.25, -29315.12, -0.029587373, 0.0062085586, -633250.9, -83530.25, 0.0, 9.999363, 9.999485 
1.505108e+3, 2.5390482e+2, -602638.5, -574454.5, -22741.887, -0.02496949, -0.038292184, -561792.5, -110061.914, 0.0, 9.99913, 9.999498 
1.5051222e+3, 2.6390427e+2, -557509.5, -528693.25, -4275.334, -0.030291433, -0.029057046, -528072.3, -174334.95, 0.0, 9.998882, 9.999259 
1.5051363e+3, 2.739043e+2, -497968.63, -447540.88, 5816.3936, -0.054841615, 0.046229757, -446878.72, -191139.3, 0.0, 9.9986105, 9.999274 
1.5051506e+3, 2.8390387e+2, -412200.88, -292582.8, 4974.551, -0.059798937, 0.051676642, -292376.28, -134631.75, 0.0, 9.998255, 9.999837 
1.5051652e+3, 2.9390302e+2, -383591.78, -226643.34, -10054.532, -0.022245614, -0.028484056, -226001.84, -166250.66, 0.0, 9.997772, 9.999848 
1.5051799e+3, 3.0390343e+2, -399050.78, -258536.48, -12979.786, 0.02558763, 0.059193794, -257347.56, -257347.56, 0.0, 9.997545, 9.999405 
1.5051928e+3, 3.139026e+2, -279532.3, -50108.742, 19257.018, -0.07117935, 0.02472268, -48503.605, -48503.605, 0.0, 9.997715, 10.000755 
1.5149367e+3, 1.2390642e+2, -1298667.6, -1762230.3, 64015.883, -0.084390596, -0.013340876, -1289989.8, 435723.8, 0.011998829, 10.00398, 9.997755 
1.5149485e+3, 1.3390408e+2, -1284516.3, -1712482.9, -125519.48, -0.037216425, -0.018236209, -1250419.0, 377318.28, 0.007236166, 10.003401, 9.99771 
1.5149596e+3, 1.4390159e+2, -1210183.6, -1561839.6, -53670.434, -0.120466426, -0.062305514, -1202174.8, 327587.47, 0.003216304, 10.002956, 9.998279 
1.5149735e+3, 1.5390037e+2, -1135247.8, -1464059.3, -38311.0, -0.06939723, -0.021093007, -1130843.1, 300930.94, 0.00086027547, 10.002744, 9.998379 
1.5149869e+3, 1.6389887e+2, -1088918.6, -1396014.8, -50408.664, -0.056346033, -0.0040396224, -1080855.9, 252932.75, 0.00008890055, 10.002408, 9.998335 
1.5150002e+3, 1.7389698e+2, -1065310.0, -1330299.8, -52469.266, -0.05950845, -0.03027213, -1055299.1, 180507.63, 0.00000071310234, 10.001883, 9.998367 
1.5150131e+3, 1.8389533e+2, -1020478.5, -1232794.1, -63390.26, -0.055508018, -0.03815428, -1002992.5, 134830.44, 0.0, 10.001409, 9.998592 
1.5150262e+3, 1.9389415e+2, -974577.8, -1153229.0, -74874.234, -0.053694025, -0.023471577, -947347.75, 92487.7, 0.0, 10.001021, 9.998652 
1.5150394e+3, 2.038931e+2, -883577.6, -988683.5, -75202.47, -0.051179204, -0.019068895, -844385.2, 97460.7, 0.0, 10.000671, 9.999278 
1.5150525e+3, 2.1389234e+2, -820122.06, -894666.6, -56917.484, -0.042694867, -0.034586597, -789358.9, 54493.2, 0.0, 10.0003805, 9.999391 
1.5150659e+3, 2.2389156e+2, -774408.1, -829698.25, -34785.043, -0.035227966, -0.045738596, -757620.7, -11761.644, 0.0, 10.000055, 9.99932 
1.5150794e+3, 2.3389079e+2, -729223.06, -754798.3, -45495.72, -0.031245843, -0.057898447, -694752.0, -46885.33, 0.0, 9.999682, 9.999342 
1.5150931e+3, 2.4389029e+2, -657833.4, -638215.5, -38001.17, -0.03135806, -0.050416045, -608777.75, -58905.73, 0.0, 9.999364, 9.999622 
1.515107e+3, 2.5389034e+2, -588991.0, -546063.75, -30777.17, -0.035512857, -0.014488424, -530005.1, -78132.484, 0.0, 9.999129, 9.999695 
1.5151212e+3, 2.638903e+2, -538547.6, -488527.53, -13652.301, -0.03158604, 0.018826455, -485043.94, -131169.47, 0.0, 9.9988785, 9.999537 
1.5151353e+3, 2.7388996e+2, -479017.66, -406787.75, -3348.2832, -0.019785047, 0.030145982, -406632.88, -150754.27, 0.0, 9.998604, 9.9995575 
1.5151492e+3, 2.8388926e+2, -428358.25, -325294.16, -11620.713, -0.037274793, 0.002461965, -324000.13, -166113.84, 0.0, 9.99825, 9.999615 
1.5151623e+3, 2.938883e+2, -401950.03, -266785.13, -27176.578, -0.08755703, -0.056893606, -261525.58, -201630.03, 0.0, 9.997779, 9.999571 
1.5151767e+3, 3.0388916e+2, -351180.06, -161160.2, -7781.12, -0.037035737, 0.05522898, -160842.11, -160842.11, 0.0, 9.997553, 10.000071 
1.5151913e+3, 3.1388932e+2, -253728.11, 7104.3867, 24031.994, 0.022688022, 0.04771867, 9300.108, 9300.108, 0.0, 9.997698, 10.001157 
1.5249407e+3, 1.23892546e+2, -1271667.3, -1745689.3, 67544.016, -0.0921423, -0.013004335, -1262230.6, 463618.9, 0.012639636, 10.004157, 9.997783 
1.5249522e+3, 1.338901e+2, -1215836.3, -1682481.4, -100892.05, -0.018667836, -0.026805528, -1194956.9, 432917.2, 0.007646577, 10.003892, 9.997679 
1.5249631e+3, 1.438876e+2, -1142836.4, -1546875.0, -24185.701, -0.100076705, -0.062214702, -1141393.8, 388505.25, 0.0034202072, 10.003496, 9.998121 
1.5249762e+3, 1.5388621e+2, -1123465.1, -1477462.3, -26841.814, -0.080622934, -0.022525188, -1121441.5, 310471.47, 0.0009266569, 10.002909, 9.998208 
1.5249892e+3, 1.6388462e+2, -1092396.5, -1396507.6, -49553.973, -0.07233327, -0.0038744663, -1084525.5, 249402.81, 0.000098221106, 10.00238, 9.998344 
1.5250023e+3, 1.7388283e+2, -1052832.9, -1321078.6, -44938.273, -0.041054264, -0.024523431, -1045504.75, 190440.58, 0.0000008739153, 10.001955, 9.998395 
1.525015e+3, 1.8388112e+2, -1009694.8, -1237780.6, -42659.465, -0.02861695, -0.036626976, -1001977.25, 135984.83, 0.0, 10.001527, 9.998501 
1.5250273e+3, 1.9387963e+2, -970871.1, -1163219.9, -37189.582, -0.05793325, -0.04027673, -963931.1, 76046.414, 0.0, 10.001099, 9.998546 
1.52504e+3, 2.0387854e+2, -875588.56, -983440.44, -36806.984, -0.070021026, -0.036139347, -864224.7, 77763.87, 0.0, 10.000722, 9.999289 
1.5250528e+3, 2.1387807e+2, -811878.3, -888192.0, -51908.914, -0.05092717, -0.024126774, -785610.94, 58380.973, 0.0, 10.000427, 9.999413 
1.5250659e+3, 2.2387737e+2, -764859.3, -823405.7, -41920.44, -0.035185922, -0.028974405, -743002.8, 2995.136, 0.0, 10.000114, 9.999335 
1.5250792e+3, 2.3387636e+2, -714727.1, -745654.56, -27254.457, -0.027181778, -0.06732195, -698855.06, -50847.387, 0.0, 9.999774, 9.999359 
1.5250927e+3, 2.4387577e+2, -655598.5, -640099.5, -10013.17, -0.028363599, -0.068641216, -635187.3, -85173.45, 0.0, 9.999395, 9.999594 
1.5251061e+3, 2.53876e+2, -617382.94, -564082.2, -19697.734, -0.041279487, -0.014525199, -557592.8, -105579.31, 0.0, 9.998954, 9.999655 
1.5251197e+3, 2.6387605e+2, -576759.6, -482314.8, -15053.014, -0.03746454, 0.023930471, -479973.63, -125959.58, 0.0, 9.99851, 9.999757 
1.5251338e+3, 2.7387583e+2, -541178.6, -408251.2, -8382.894, -0.0117956735, 0.019593477, -407724.63, -151708.17, 0.0, 9.998055, 9.999811 
1.5251473e+3, 2.838752e+2, -490058.16, -351507.97, -3433.5923, -0.028015742, -0.013251379, -351422.94, -193400.05, 0.0, 9.997813, 9.999645 
1.5251602e+3, 2.9387438e+2, -383493.1, -256425.94, 2159.0828, -0.09863679, -0.060195502, -256389.27, -196357.78, 0.0, 9.997902, 9.999582 
1.5251742e+3, 3.038753e+2, -317631.6, -106645.25, 16458.877, -0.049557578, 0.039588545, -105369.02, -105369.02, 0.0, 9.99762, 10.000412 
1.525189e+3, 3.1387582e+2, -391980.2, -54139.746, 16252.756, 0.05807473, 0.03534984, -53359.664, -53359.664, 0.0, 9.996729, 10.001203 
1.5349448e+3, 1.238787e+2, -1253804.3, -1708424.3, 53885.11, -0.09299167, -0.041045304, -1247504.8, 478480.88, 0.013311058, 10.00416, 9.998038 
1.5349562e+3, 1.3387665e+2, -1199772.9, -1649922.3, -111328.87, -0.015872708, -0.03849562, -1173744.5, 454260.56, 0.00807771, 10.003898, 9.997901 
1.5349665e+3, 1.4387433e+2, -1166042.5, -1597019.4, -46496.1, -0.098851174, -0.0508639, -1161083.4, 368944.78, 0.0036348593, 10.003504, 9.997775 
1.5349792e+3, 1.5387248e+2, -1151809.5, -1537565.1, -49751.098, -0.078092374, -0.017097555, -1145496.4, 286551.97, 0.0009972175, 10.0029125, 9.997793 
1.5349916e+3, 1.6387068e+2, -1087113.4, -1387153.5, -67004.07, -0.069355525, 0.00011661735, -1072830.1, 261236.39, 0.000108598695, 10.002386, 9.998406 
1.5350041e+3, 1.7386906e+2, -1043793.1, -1303504.4, -61262.09, -0.04079818, -0.014533608, -1030067.7, 206013.3, 0.0000010362653, 10.001959, 9.998514 
1.5350164e+3, 1.8386742e+2, -1000948.1, -1220422.1, -59250.44, -0.028477803, -0.030281894, -985974.2, 152121.86, 0.0, 10.001529, 9.998619 
1.5350284e+3, 1.938659e+2, -962016.1, -1146150.5, -53383.066, -0.053142276, -0.05239193, -947659.06, 92452.2, 0.0, 10.001103, 9.998662 
1.5350406e+3, 2.0386466e+2, -900637.0, -1036707.9, -48676.527, -0.06839196, -0.049854457, -885017.06, 57106.598, 0.0, 10.000727, 9.998921 
1.5350531e+3, 2.1386401e+2, -841569.1, -950712.2, -62711.13, -0.064242594, -0.0145334, -813009.8, 31120.799, 0.0, 10.000429, 9.998982 
1.5350659e+3, 2.2386336e+2, -745397.06, -783416.2, -54419.992, -0.05117522, -0.0032947378, -706762.0, 39374.78, 0.0, 10.000114, 9.99961 
1.535079e+3, 2.3386274e+2, -689194.2, -693181.1, -39635.08, -0.026865589, -0.036216468, -651502.5, -3361.4202, 0.0, 9.999776, 9.99972 
1.535092e+3, 2.4386217e+2, -668687.25, -667507.6, -25821.09, -0.021283142, -0.050380457, -642269.56, -92122.914, 0.0, 9.999395, 9.999406 
1.535105e+3, 2.538617e+2, -635899.2, -602862.56, -35161.23, -0.04333442, -0.03629695, -580532.9, -128379.67, 0.0, 9.998954, 9.99939 
1.5351182e+3, 2.6386154e+2, -564967.6, -458632.78, -30862.092, -0.04862317, -0.011500175, -450324.66, -96168.63, 0.0, 9.998512, 9.999919 
1.5351316e+3, 2.7386183e+2, -524975.6, -376448.3, -24447.273, -0.030113026, 0.012075819, -372527.8, -116374.49, 0.0, 9.998062, 10.000028 
1.535145e+3, 2.8386167e+2, -471491.63, -313341.97, -1617.2678, -0.032549817, 0.0013428384, -313325.44, -155170.56, 0.0, 9.997814, 9.9999075 
1.5351585e+3, 2.938612e+2, -366062.16, -217574.94, 6376.9546, -0.060126938, -0.03846739, -217301.58, -157141.95, 0.0, 9.9978895, 9.999856 
1.5351722e+3, 3.038618e+2, -315905.38, -101331.984, -11831.038, -0.015719661, 0.011807645, -100681.625, -100681.625, 0.0, 9.997611, 10.000454 
1.5351856e+3, 3.1386212e+2, -406733.0, -89449.28, -16909.393, 0.03619745, -0.012553467, -88550.65, -88550.65, 0.0, 9.996747, 10.000952 
1.5449493e+3, 1.23865545e+2, -1216601.6, -1689171.9, 75324.02, -0.08543065, -0.04616166, -1204886.1, 521229.28, 0.014015212, 10.004415, 9.998051 
1.5449601e+3, 1.3386357e+2, -1197241.3, -1652449.5, -106889.85, -0.015045021, -0.03228974, -1173391.5, 454742.44, 0.008531994, 10.003935, 9.997865 
1.54497e+3, 1.4386138e+2, -1173028.0, -1602256.8, -47044.746, -0.1031466, -0.029379528, -1167932.3, 362223.4, 0.0038614096, 10.003467, 9.997755 
1.5449822e+3, 1.538594e+2, -1134928.1, -1531604.5, -21344.902, -0.068300456, -0.0062221666, -1133782.9, 298394.1, 0.0010719306, 10.003038, 9.997774 
1.5449943e+3, 1.6385747e+2, -1061273.9, -1385721.5, -24519.654, -0.057678215, 0.0022195533, -1059431.4, 274765.16, 0.000119982535, 10.002611, 9.998308 
1.545006e+3, 1.7385568e+2, -1017713.1, -1302801.1, -36179.48, -0.047897667, -0.01854966, -1013193.4, 223019.1, 0.0000011877057, 10.00219, 9.998407 
1.545018e+3, 1.8385404e+2, -968629.7, -1202664.6, -48457.4, -0.042820517, -0.030269863, -958993.25, 179234.3, 0.0, 10.001742, 9.998637 
1.5450296e+3, 1.9385275e+2, -937193.75, -1130488.4, -49381.97, -0.056843515, -0.031605262, -925308.6, 114931.586, 0.0, 10.001259, 9.998693 
1.5450414e+3, 2.0385148e+2, -892040.7, -1042838.7, -34537.688, -0.0640928, -0.030726228, -884506.8, 57745.918, 0.0, 10.000831, 9.998829 
1.5450537e+3, 2.1385036e+2, -839643.0, -961682.06, -24433.854, -0.05695728, -0.032372702, -834932.8, 9331.235, 0.0, 10.000495, 9.998875 
1.5450661e+3, 2.2384953e+2, -747125.7, -792581.4, -16434.049, -0.046673134, -0.027648207, -741806.56, 4465.3276, 0.0, 10.000141, 9.999534 
1.5450788e+3, 2.3384927e+2, -698153.3, -706473.94, -34136.28, -0.03297172, -0.018977292, -667924.75, -19651.17, 0.0, 9.999753, 9.9996395 
1.5450913e+3, 2.438488e+2, -674446.56, -659945.25, -33458.004, -0.027587047, -0.020866187, -632961.25, -82683.16, 0.0, 9.9993105, 9.999499 
1.545104e+3, 2.538481e+2, -652696.44, -597935.2, -16948.627, -0.034843057, -0.041637626, -593114.06, -140828.16, 0.0, 9.998784, 9.999505 
1.5451168e+3, 2.638478e+2, -584236.3, -473267.28, 2385.4158, -0.038628336, -0.03568223, -473216.0, -118926.27, 0.0, 9.998405, 9.999869 
1.5451296e+3, 2.7384812e+2, -501646.63, -373734.28, -11326.747, -0.03843909, -0.002274383, -372739.03, -116451.68, 0.0, 9.9982605, 9.99995 
1.5451428e+3, 2.8384814e+2, -453891.44, -288283.13, -6054.162, -0.037600424, 0.00473397, -288062.1, -129774.836, 0.0, 9.997865, 10.000055 
1.5451561e+3, 2.9384807e+2, -471498.84, -247503.78, -5769.923, -0.02964286, -0.014084915, -247355.25, -187067.23, 0.0, 9.997078, 10.000041 
1.5451695e+3, 3.0384842e+2, -424247.8, -137801.78, -18143.57, 0.00516272, -0.004627927, -136657.13, -136657.13, 0.0, 9.996801, 10.000593 
1.5451822e+3, 3.1384897e+2, -329352.7, -51671.855, -14837.406, 0.0006834785, -0.01699877, -50881.293, -50881.293, 0.0, 9.997279, 10.000954 
1.5549538e+3, 1.23853154e+2, -1231880.6, -1721167.9, 53140.973, -0.06991186, -0.026678734, -1226175.5, 500062.72, 0.0147601655, 10.004418, 9.997827 
1.554964e+3, 1.3385093e+2, -1217704.5, -1695532.4, -126034.53, -0.016453553, -0.008364346, -1186498.9, 441761.22, 0.009015665, 10.003938, 9.997568 
1.5549733e+3, 1.438488e+2, -1151296.1, -1558210.4, -64344.89, -0.11352723, 0.0029547391, -1141363.8, 388917.4, 0.004103578, 10.003471, 9.998056 
1.5549855e+3, 1.5384704e+2, -1107998.8, -1476956.0, -37736.895, -0.052271236, 0.010981011, -1104178.6, 328119.84, 0.0011519974, 10.003043, 9.998147 
1.554997e+3, 1.6384503e+2, -1078785.0, -1423666.5, -41099.273, -0.03838564, 0.0031739455, -1073954.9, 260362.94, 0.00013256267, 10.002617, 9.998046 
1.5550081e+3, 1.7384271e+2, -1041250.6, -1353098.8, -52419.12, -0.063284665, -0.03711641, -1032675.2, 203664.55, 0.0000013544981, 10.002194, 9.99806 
1.5550195e+3, 1.8384096e+2, -973954.2, -1215053.8, -66873.21, -0.07291261, -0.036894213, -956647.94, 181708.6, 0.0, 10.001747, 9.998551 
1.5550306e+3, 1.938402e+2, -940339.9, -1138123.0, -67744.04, -0.06900851, 0.021767363, -919361.5, 121002.81, 0.0, 10.001262, 9.99864 
1.5550424e+3, 2.0383897e+2, -879385.6, -1017277.8, -47947.3, -0.05721959, 0.021237895, -864352.56, 78023.26, 0.0, 10.000833, 9.999004 
1.5550545e+3, 2.1383709e+2, -825165.75, -932220.3, -36917.453, -0.030556656, -0.07691252, -813669.44, 30722.809, 0.0, 10.000497, 9.999077 
1.5550664e+3, 2.238359e+2, -776219.1, -853810.94, -30488.748, -0.023200344, -0.101108894, -765672.5, -19269.168, 0.0, 10.000143, 9.999113 
1.5550783e+3, 2.3383592e+2, -733196.75, -780010.25, -47901.79, -0.045951877, -0.01492213, -703288.8, -54883.52, 0.0, 9.999755, 9.999135 
1.5550904e+3, 2.4383569e+2, -649263.25, -608483.3, -51921.01, -0.047843996, 0.019543245, -573092.06, -22683.777, 0.0, 9.999312, 9.999852 
1.5551029e+3, 2.5383514e+2, -619330.6, -529854.8, -36123.64, -0.016672982, -0.032496344, -517091.44, -64679.3, 0.0, 9.998789, 9.99997 
1.5551153e+3, 2.6383474e+2, -600993.1, -508846.63, -4071.6855, -0.008489376, -0.049885347, -508667.06, -154251.27, 0.0, 9.998408, 9.999625 
1.555128e+3, 2.7383465e+2, -526484.0, -425185.94, -15339.424, -0.038761772, -0.022279747, -422914.06, -166495.31, 0.0, 9.998259, 9.9995985 
1.5551406e+3, 2.8383467e+2, -451313.8, -283117.03, -31696.99, -0.045041364, -0.0022576835, -277341.97, -118921.9, 0.0, 9.997865, 10.000092 
1.5551534e+3, 2.9383495e+2, -463609.1, -233451.9, -34070.805, -0.008546015, 0.011435194, -228514.25, -168097.38, 0.0, 9.997086, 10.000134 
1.5551664e+3, 3.0383515e+2, -409639.63, -108861.42, -4007.2788, 0.011853399, -0.012353856, -108808.05, -108808.05, 0.0, 9.996806, 10.000791 
1.5551789e+3, 3.1383625e+2, -314219.84, -17610.34, 5416.1836, -0.049195796, 0.007543025, -17511.47, -17511.47, 0.0, 9.997266, 10.001195 
1.5649584e+3, 1.238415e+2, -1222786.5, -1715278.1, 76970.484, -0.054256443, 0.014084576, -1211037.3, 515316.84, 0.015559386, 10.004481, 9.997836 
1.5649681e+3, 1.3383888e+2, -1198824.3, -1691032.6, -81448.89, -0.014416078, -0.0032801346, -1185696.5, 442682.9, 0.009537721, 10.00409, 9.997525 
1.5649769e+3, 1.4383665e+2, -1127273.8, -1553524.4, -22140.701, -0.124608554, 0.003563964, -1126126.8, 404274.2, 0.004366641, 10.003668, 9.997993 
1.5649885e+3, 1.5383491e+2, -1087094.0, -1473374.9, -28254.803, -0.050478995, 0.019601442, -1085038.1, 347379.56, 0.0012395725, 10.003218, 9.998087 
1.5649998e+3, 1.6383286e+2, -1059029.8, -1420872.6, -42678.17, -0.031985495, 0.012636169, -1054064.3, 280373.1, 0.00014677673, 10.002785, 9.997983 
1.5650104e+3, 1.7383038e+2, -1020065.8, -1350516.6, -33684.78, -0.06790532, -0.037318885, -1016667.06, 219793.52, 0.0000015913902, 10.002375, 9.997991 
1.5650211e+3, 1.8382846e+2, -954585.44, -1219295.4, -39440.004, -0.079071864, -0.044496957, -948834.1, 189644.78, 0.0, 10.00194, 9.998429 
1.5650322e+3, 1.9382752e+2, -918749.8, -1142250.1, -46865.516, -0.061474245, 0.010685427, -909320.5, 131167.83, 0.0, 10.001473, 9.998509 
1.5650433e+3, 2.0382626e+2, -851825.56, -1004059.0, -33216.504, -0.045992874, 0.013460944, -844893.5, 97606.53, 0.0, 10.001022, 9.999003 
1.565055e+3, 2.1382453e+2, -810511.5, -924220.8, -36565.598, -0.03132548, -0.07076831, -799768.1, 44746.535, 0.0, 10.000593, 9.999085 
1.5650666e+3, 2.2382328e+2, -783098.2, -870344.25, -29650.865, -0.026868127, -0.09675646, -773975.2, -27448.855, 0.0, 10.000154, 9.998994 
1.5650782e+3, 2.338229e+2, -750657.2, -803334.56, -21127.127, -0.039036557, -0.03692408, -743230.8, -94698.234, 0.0, 9.9997015, 9.998999 
1.5650898e+3, 2.4382256e+2, -652355.25, -609189.06, -21475.234, -0.04019902, -0.005534167, -600325.25, -49788.48, 0.0, 9.99929, 9.999856 
1.5651017e+3, 2.538224e+2, -594855.9, -516159.63, -38347.695, -0.023487763, -0.024618395, -500563.97, -48027.06, 0.0, 9.998949, 9.999988 
1.5651138e+3, 2.6382208e+2, -585159.5, -504390.7, -15128.57, -0.01662852, -0.033161715, -501650.0, -147110.31, 0.0, 9.99853, 9.999597 
1.565126e+3, 2.7382165e+2, -569598.94, -450183.47, -4953.0366, -0.026729796, -0.0329347, -449978.38, -193432.39, 0.0, 9.997982, 9.99956 
1.5651384e+3, 2.8382158e+2, -495152.5, -300799.53, -13787.675, -0.02912978, -0.016462691, -299826.28, -141278.34, 0.0, 9.99755, 10.000121 
1.5651506e+3, 2.9382223e+2, -427631.34, -210831.02, -20123.945, -0.01711662, 0.025249757, -208978.89, -148437.34, 0.0, 9.997313, 10.000179 
1.5651631e+3, 3.0382216e+2, -399567.9, -105982.5, 13057.21, -0.009150424, -0.023172697, -105402.93, -105402.93, 0.0, 9.996884, 10.0007715 
1.5651757e+3, 3.1382355e+2, -468650.25, -77888.72, 9387.969, -0.041060485, 0.025526239, -77663.305, -77663.305, 0.0, 9.996145, 10.001321 
1.5749629e+3, 1.23830654e+2, -1207575.8, -1683854.3, 57575.29, -0.040226426, 0.07695886, -1200714.6, 525747.56, 0.016426718, 10.004484, 9.9980545 
1.5749721e+3, 1.3382748e+2, -1185463.6, -1663652.6, -96836.875, -0.010441103, -0.016253067, -1166597.8, 461893.44, 0.010107001, 10.004094, 9.997712 
1.5749803e+3, 1.4382498e+2, -1155948.8, -1614977.4, -40391.11, -0.13758455, -0.0268909, -1152421.6, 378093.03, 0.004655547, 10.0036745, 9.997569 
1.5749916e+3, 1.5382306e+2, -1121565.8, -1546751.9, -45744.668, -0.06316881, 0.019212024, -1116699.9, 315834.78, 0.0013367783, 10.003223, 9.997581 
1.5750024e+3, 1.6382095e+2, -1048805.9, -1401325.8, -58899.414, -0.039307516, 0.030973585, -1039225.3, 295329.53, 0.00016297578, 10.00279, 9.998115 
1.5750128e+3, 1.7381868e+2, -1004884.44, -1320150.1, -49409.83, -0.062120106, -0.019108562, -997322.1, 239252.72, 0.0000019381066, 10.002378, 9.9981985 
1.5750234e+3, 1.8381654e+2, -965397.1, -1242819.8, -56939.59, -0.06197695, -0.05290386, -954165.3, 184429.11, 0.0, 10.001943, 9.998266 
1.5750338e+3, 1.9381474e+2, -933211.1, -1173478.3, -64433.414, -0.03594536, -0.06399995, -917022.5, 123589.59, 0.0, 10.001477, 9.998294 
1.5750444e+3, 2.0381336e+2, -864173.8, -1030728.2, -49595.926, -0.03200234, -0.053312644, -850524.0, 92101.49, 0.0, 10.001026, 9.998819 
1.5750553e+3, 2.1381265e+2, -822924.1, -950862.1, -52410.805, -0.058899518, -0.01525554, -804195.3, 40436.125, 0.0, 10.000596, 9.998901 
1.5750664e+3, 2.2381163e+2, -770838.2, -845826.44, -46307.566, -0.057469383, -0.016174717, -748748.75, -2107.6377, 0.0, 10.000156, 9.999162 
1.575078e+3, 2.3381019e+2, -735161.9, -771957.94, -37715.684, -0.0132989045, -0.084040225, -711596.1, -62940.418, 0.0, 9.999703, 9.999214 
1.5750895e+3, 2.438094e+2, -675069.44, -657128.25, -34133.11, -0.005735012, -0.09401244, -630806.6, -80142.96, 0.0, 9.999292, 9.999527 
1.5751003e+3, 2.5380978e+2, -623303.44, -575677.4, -49900.773, -0.055842668, -0.017679527, -544198.94, -91538.61, 0.0, 9.998949, 9.999579 
1.5751117e+3, 2.638097e+2, -573516.56, -480820.4, -33431.207, -0.06365266, 0.01302553, -470021.4, -115359.7, 0.0, 9.998532, 9.999759 
1.5751244e+3, 2.7380905e+2, -552062.5, -414890.4, -24333.352, -0.003640539, -0.035819083, -410701.75, -154032.02, 0.0, 9.997986, 9.999802 
1.5751363e+3, 2.8380892e+2, -493108.6, -297212.53, -23344.607, 0.008672841, -0.038169984, -294469.0, -135797.48, 0.0, 9.997552, 10.000145 
1.5751475e+3, 2.938098e+2, -428454.13, -212601.4, -28014.967, -0.055887558, 0.027513817, -209024.69, -148361.95, 0.0, 9.997311, 10.00017 
1.5751594e+3, 3.0380946e+2, -415194.3, -138101.36, -11444.885, -0.058744613, -0.03627902, -137629.45, -137629.45, 0.0, 9.996882, 10.000553 
1.5751725e+3, 3.138107e+2, -465727.44, -71603.94, -12715.314, 0.016409595, 0.020646468, -71194.14, -71194.14, 0.0, 9.996142, 10.001367 
1.5849672e+3, 1.23819605e+2, -1210384.6, -1694213.0, 80542.45, -0.053829458, 0.06948618, -1197329.1, 529241.2, 0.017370388, 10.004509, 9.99797 
1.5849766e+3, 1.3381647e+2, -1179812.6, -1675616.4, -94135.02, 0.01117195, -0.0068772035, -1162541.5, 466058.03, 0.010728578, 10.004204, 9.997575 
1.5849842e+3, 1.4381392e+2, -1131377.1, -1612575.4, -41489.992, -0.11652197, -0.010907858, -1127826.0, 402797.66, 0.0049730623, 10.003891, 9.997479 
1.584995e+3, 1.538116e+2, -1075951.0, -1534963.6, -17000.215, -0.06506219, 0.0059112106, -1075322.3, 357324.25, 0.001444731, 10.003584, 9.997488 
1.5850054e+3, 1.6380933e+2, -1002350.6, -1391619.8, -25177.742, -0.04808031, 0.009492121, -1000728.94, 333939.28, 0.00018110967, 10.003165, 9.998 
1.5850154e+3, 1.7380717e+2, -984077.06, -1323082.9, -41247.336, -0.053077806, -0.016721312, -979130.6, 257556.86, 0.000002389593, 10.002579, 9.99808 
1.5850253e+3, 1.83805e+2, -949646.56, -1242447.0, -56741.355, -0.04682751, -0.04389196, -939035.3, 199672.05, 0.0, 10.002085, 9.998199 
1.5850355e+3, 1.9380295e+2, -901083.06, -1164911.5, -53052.82, -0.03352581, -0.07448423, -890814.44, 149912.48, 0.0, 10.00173, 9.99823 
1.5850456e+3, 2.0380136e+2, -837497.5, -1034934.25, -34325.33, -0.03416282, -0.07221728, -831700.06, 111041.96, 0.0, 10.001284, 9.998665 
1.5850559e+3, 2.138006e+2, -820801.2, -968208.0, -36972.684, -0.05320383, -0.025539394, -812047.5, 32701.91, 0.0, 10.000691, 9.998735 
1.5850666e+3, 2.2379959e+2, -767448.3, -841920.5, -32342.37, -0.05000238, -0.016448967, -755363.44, -8604.284, 0.0, 10.000172, 9.999181 
1.5850778e+3, 2.3379831e+2, -722104.6, -761133.94, -36338.86, -0.013355442, -0.07166717, -700372.06, -51600.41, 0.0, 9.999774, 9.999254 
1.5850888e+3, 2.4379747e+2, -673653.2, -671004.25, -32741.572, -0.009650578, -0.08434294, -639560.4, -88780.32, 0.0, 9.999366, 9.999395 
1.5850991e+3, 2.537974e+2, -637041.25, -599448.6, -31036.553, -0.058802716, -0.035835803, -581960.4, -129179.11, 0.0, 9.998931, 9.999423 
1.5851103e+3, 2.6379725e+2, -584151.56, -475678.7, -13216.758, -0.06794866, -0.011967265, -474091.53, -119307.54, 0.0, 9.998417, 9.999848 
1.5851222e+3, 2.7379698e+2, -573691.5, -411258.97, -13847.0, -0.011675843, -0.031825636, -410087.0, -153298.98, 0.0, 9.997779, 9.999925 
1.5851337e+3, 2.8379712e+2, -526745.44, -306844.8, -5057.254, 0.0029064945, -0.019475704, -306728.6, -147941.11, 0.0, 9.997294, 10.000202 
1.5851447e+3, 2.9379794e+2, -466543.84, -225901.16, -5180.391, -0.051536776, 0.034629483, -225789.69, -165010.33, 0.0, 9.997029, 10.000213 
1.5851562e+3, 3.0379745e+2, -471417.5, -161066.48, 1522.7642, -0.055123046, -0.046533644, -161059.02, -161059.02, 0.0, 9.99648, 10.000588 
1.5851682e+3, 3.137987e+2, -528653.56, -61135.535, 22308.223, 0.009950635, 0.011041423, -60073.48, -60073.48, 0.0, 9.995537, 10.001728 
1.5949713e+3, 1.23808414e+2, -1235260.9, -1747337.5, 63670.61, -0.09686494, -0.00584455, -1227462.9, 499214.94, 0.018391771, 10.004517, 9.9976 
1.5949813e+3, 1.3380587e+2, -1210748.1, -1742018.6, -106341.65, 0.050589368, 0.023611888, -1190252.9, 438451.22, 0.011403315, 10.00421, 9.997116 
1.5949887e+3, 1.438035e+2, -1114460.5, -1578703.9, -54283.73, -0.0612954, 0.051008884, -1108197.6, 422529.72, 0.0053198803, 10.003897, 9.997709 
1.5949987e+3, 1.538006e+2, -1053746.6, -1489627.6, -29054.502, -0.05709762, -0.020161884, -1051818.5, 380934.5, 0.0015636196, 10.003587, 9.997798 
1.5950084e+3, 1.63798e+2, -1027229.94, -1444581.4, -46692.6, -0.059369184, -0.05157143, -1022069.8, 312707.3, 0.0002008773, 10.00317, 9.997636 
1.595018e+3, 1.7379586e+2, -1015277.4, -1389477.5, -63524.984, -0.041804247, -0.029847378, -1004787.3, 232011.0, 0.000002909139, 10.002584, 9.9976225 
1.5950276e+3, 1.8379386e+2, -947080.6, -1238493.9, -71430.36, -0.03474421, -0.016860941, -930513.6, 208303.98, 0.0, 10.0020895, 9.998225 
1.595037e+3, 1.9379215e+2, -894584.7, -1152549.8, -66250.01, -0.05374806, -0.02192454, -878565.3, 162267.64, 0.0, 10.001734, 9.998314 
1.5950468e+3, 2.037903e+2, -845875.56, -1053431.0, -55532.527, -0.052447055, -0.04427107, -831951.6, 110898.234, 0.0, 10.001287, 9.998537 
1.595057e+3, 2.1378836e+2, -831492.94, -991072.25, -58997.996, -0.016189331, -0.09972065, -812049.75, 32818.758, 0.0, 10.000693, 9.998579 
1.5950672e+3, 2.2378716e+2, -776200.2, -860822.8, -47800.313, -0.0063367807, -0.09562307, -754674.9, -7794.384, 0.0, 10.000173, 9.999051 
1.5950772e+3, 2.3378725e+2, -730973.75, -780144.25, -50168.35, -0.03911853, -0.0019904752, -699690.44, -50809.664, 0.0, 9.999775, 9.999124 
1.5950876e+3, 2.437867e+2, -670325.75, -664601.06, -48033.508, -0.052095897, 0.020526387, -619344.7, -68458.19, 0.0, 9.999367, 9.99944 
1.5950984e+3, 2.5378522e+2, -631783.5, -588980.2, -46301.313, -0.03382981, -0.07781913, -559373.56, -106473.336, 0.0, 9.998932, 9.9994955 
1.595109e+3, 2.6378462e+2, -582354.6, -472546.4, -35376.844, -0.030850012, -0.10491253, -462136.03, -107229.055, 0.0, 9.998418, 9.999869 
1.5951195e+3, 2.737854e+2, -573174.7, -410593.84, -36680.93, -0.05146152, -0.02114369, -402701.2, -145799.73, 0.0, 9.997779, 9.999929 
1.5951306e+3, 2.83786e+2, -520848.28, -294985.03, -15030.759, -0.04737947, 0.036820702, -293989.16, -135092.53, 0.0, 9.997294, 10.000284 
1.5951422e+3, 2.9378647e+2, -460186.03, -213372.6, -13838.336, -0.007462846, 0.044433, -212599.14, -151706.77, 0.0, 9.99703, 10.0002985 
1.5951532e+3, 3.0378598e+2, -453905.25, -124073.1, -31314.205, -0.0011687849, -0.052283075, -121126.46, -121126.46, 0.0, 9.996476, 10.000844 
1.5951629e+3, 3.1378737e+2, -485268.88, 28602.506, -7914.606, -0.061790574, -0.012877807, 28724.377, 28724.377, 0.0, 9.995537, 10.002346 
1.6049759e+3, 1.23797946e+2, -1215910.1, -1744451.1, 56682.96, -0.09881855, -0.014308119, -1209899.5, 516880.38, 0.019490823, 10.004687, 9.997537 
1.6049854e+3, 1.3379538e+2, -1186728.8, -1742732.8, -84979.01, 0.057141468, 0.022821741, -1174030.6, 454776.44, 0.012132346, 10.004436, 9.997003 
1.6049927e+3, 1.4379299e+2, -1083072.1, -1560313.9, -29193.883, -0.060309023, 0.053782146, -1081293.0, 449537.6, 0.0056973374, 10.004103, 9.997736 
1.6050024e+3, 1.5379006e+2, -1039926.7, -1477311.9, -23872.486, -0.040899985, -0.025811613, -1038627.56, 394228.38, 0.0016939951, 10.003661, 9.997846 
1.6050118e+3, 1.6378741e+2, -1021854.25, -1448834.5, -46397.195, -0.03939443, -0.06021298, -1016870.75, 318009.28, 0.00022220024, 10.00324, 9.99757 
1.6050208e+3, 1.737853e+2, -982303.25, -1382790.1, -36934.727, -0.03906091, -0.030022701, -978925.44, 257975.94, 0.000003466771, 10.002853, 9.997538 
1.6050299e+3, 1.837832e+2, -914241.75, -1240776.8, -34808.6, -0.04066964, -0.013551589, -910572.4, 228349.38, 0.0, 10.002395, 9.998061 
1.6050388e+3, 1.9378126e+2, -894059.06, -1172138.3, -49382.273, -0.053909052, -0.0244576, -885549.94, 155389.63, 0.0, 10.001824, 9.998135 
1.605048e+3, 2.0377927e+2, -849785.56, -1060594.9, -50080.57, -0.04924755, -0.04841615, -838493.2, 104464.81, 0.0, 10.001285, 9.998488 
1.6050577e+3, 2.1377735e+2, -818695.5, -988570.2, -45309.754, -0.013892945, -0.09782722, -807365.9, 37610.48, 0.0, 10.000798, 9.998545 
1.6050676e+3, 2.2377609e+2, -763808.06, -865453.44, -25257.736, -0.0060430365, -0.09355338, -757877.8, -10889.022, 0.0, 10.000305, 9.998955 
1.6050771e+3, 2.3377597e+2, -735985.2, -794543.75, -26427.9, -0.042620722, -0.009842059, -725822.0, -76831.06, 0.0, 9.999794, 9.999014 
1.6050869e+3, 2.4377535e+2, -689590.1, -670130.06, -27142.373, -0.05445174, 0.010281394, -651026.4, -100028.95, 0.0, 9.999221, 9.999472 
1.6050972e+3, 2.5377408e+2, -682972.4, -607823.6, -27847.898, -0.02750628, -0.076397195, -598629.0, -145619.08, 0.0, 9.998557, 9.999546 
1.6051073e+3, 2.6377356e+2, -632387.6, -490739.56, -13963.762, -0.022759637, -0.09566493, -489376.13, -134360.64, 0.0, 9.998052, 9.99992 
1.6051173e+3, 2.737744e+2, -568912.5, -403607.03, -12620.157, -0.052992452, -0.01372476, -402649.13, -145639.78, 0.0, 9.997789, 9.999971 
1.6051278e+3, 2.8377497e+2, -515444.78, -279857.78, 6451.1743, -0.051104676, 0.03391804, -279681.25, -120676.555, 0.0, 9.99728, 10.000394 
1.605139e+3, 2.9377538e+2, -552928.8, -244147.31, 7362.1235, -0.00062471634, 0.025821574, -243971.89, -182970.83, 0.0, 9.996338, 10.00042 
1.6051494e+3, 3.0377525e+2, -569961.6, -175216.0, -12753.722, 0.011200155, -0.045497097, -174804.38, -174804.38, 0.0, 9.995661, 10.000885 
1.6051584e+3, 3.1377652e+2, -468979.03, 63714.676, -1864.2235, -0.0691127, -0.020780621, 63721.2, 63721.2, 0.0, 9.995533, 10.002588 
1.6149811e+3, 1.2378826e+2, -1200823.3, -1712766.4, 40600.47, -0.059690345, 0.04365992, -1197623.4, 529252.5, 0.02067209, 10.004692, 9.997753 
1.6149896e+3, 1.3378502e+2, -1172108.0, -1712603.5, -95198.02, 0.02932059, -0.0074561154, -1155830.9, 473076.94, 0.0129213715, 10.00444, 9.997208 
1.6149962e+3, 1.4378242e+2, -1093988.4, -1584630.6, -46179.406, -0.115440734, -0.00066218467, -1089679.8, 441252.94, 0.006109929, 10.004109, 9.997567 
1.6150063e+3, 1.5377997e+2, -1054405.6, -1509147.8, -40816.39, -0.017443081, -0.011406887, -1050771.0, 382183.9, 0.0018380755, 10.003667, 9.997624 
1.6150156e+3, 1.637776e+2, -1005168.56, -1415817.5, -61771.496, 0.01121149, -0.016580163, -996077.9, 338898.78, 0.00024563554, 10.003245, 9.997795 
1.6150236e+3, 1.7377543e+2, -962282.4, -1342323.0, -51685.67, -0.045060106, -0.017779812, -955378.5, 281618.1, 0.0000040686878, 10.002857, 9.997814 
1.615032e+3, 1.8377301e+2, -938437.0, -1292060.5, -55704.453, -0.06511841, -0.03443938, -929869.75, 209149.97, 0.0, 10.002398, 9.997708 
1.6150407e+3, 1.9377027e+2, -924748.0, -1236924.0, -70679.71, -0.035414033, -0.080614716, -909491.06, 131555.64, 0.0, 10.001828, 9.997689 
1.6150495e+3, 2.0376827e+2, -847715.25, -1057458.9, -68782.36, -0.025816081, -0.08334465, -827171.3, 115895.03, 0.0, 10.001288, 9.998508 
1.6150582e+3, 2.1376753e+2, -812197.06, -976303.06, -63039.996, -0.045988847, -0.022099175, -790776.7, 54296.527, 0.0, 10.000802, 9.998628 
1.6150674e+3, 2.2376634e+2, -768320.56, -876003.9, -44006.586, -0.049095698, -0.012068581, -752624.44, -5539.931, 0.0, 10.000309, 9.998881 
1.615077e+3, 2.337645e+2, -742595.94, -808540.25, -44870.26, -0.024967706, -0.091890864, -719885.94, -70783.695, 0.0, 9.999794, 9.9989195 
1.6150865e+3, 2.4376345e+2, -688643.8, -668413.6, -50661.31, -0.018065557, -0.11115349, -626867.5, -75754.51, 0.0, 9.99922, 9.999484 
1.6150956e+3, 2.537638e+2, -681036.7, -604429.5, -51546.26, -0.040331673, -0.034183837, -578513.3, -125402.195, 0.0, 9.998559, 9.999569 
1.6151051e+3, 2.6376396e+2, -627717.7, -481746.9, -24287.371, -0.04461044, 0.011532479, -477811.94, -122701.375, 0.0, 9.998054, 9.999982 
1.6151154e+3, 2.7376387e+2, -564061.75, -394245.72, -20893.572, -0.018802255, -0.008354115, -391712.8, -134600.52, 0.0, 9.99779, 10.000035 
1.6151255e+3, 2.8376392e+2, -506241.13, -261579.69, -25012.47, -0.0105574345, -0.02492654, -259048.78, -99936.45, 0.0, 9.997281, 10.00052 
1.6151349e+3, 2.9376456e+2, -542643.56, -224341.38, -28667.195, -0.031710956, -0.021175861, -221780.13, -160673.53, 0.0, 9.996342, 10.000555 
1.6151446e+3, 3.0376512e+2, -579763.0, -196295.31, -21819.324, -0.01896921, -0.026127275, -195057.8, -195057.8, 0.0, 9.995664, 10.000739 
1.6151546e+3, 3.1376612e+2, -478665.38, 43817.49, -60.878647, -0.019353956, -0.009809401, 43817.496, 43817.496, 0.0, 9.995531, 10.002453 
1.6249858e+3, 1.2377821e+2, -1202814.1, -1693109.3, 58299.668, -0.049341366, 0.029815024, -1195977.3, 530997.1, 0.021944577, 10.004595, 9.997938 
1.6249943e+3, 1.3377523e+2, -1142519.9, -1678284.4, -73314.92, 0.03648726, -0.0117526455, -1132668.5, 496334.13, 0.013778673, 10.004566, 9.997381 
1.6250004e+3, 1.437727e+2, -1072107.5, -1585718.5, -36486.96, -0.12473365, -0.0036123754, -1069528.4, 461498.3, 0.0065635303, 10.004315, 9.997458 
1.62501e+3, 1.5377007e+2, -1055138.5, -1526117.6, -28557.707, -0.017197652, -0.017750114, -1053413.3, 379638.25, 0.0019991598, 10.003736, 9.997474 
1.6250189e+3, 1.637676e+2, -1000467.6, -1406298.0, -47201.285, 0.018911388, -0.026690178, -995050.06, 340024.25, 0.00027234203, 10.003248, 9.997858 
1.6250266e+3, 1.7376548e+2, -947995.06, -1325300.9, -50730.016, -0.034209732, -0.03294781, -941293.25, 295799.84, 0.0000047643325, 10.002913, 9.997903 
1.6250345e+3, 1.8376309e+2, -927925.1, -1292626.6, -59813.918, -0.055370014, -0.04935403, -918365.75, 220749.89, 0.0, 10.002496, 9.997656 
1.6250427e+3, 1.9376038e+2, -913636.4, -1239756.9, -49037.977, -0.03337864, -0.08592529, -906422.25, 134720.77, 0.0, 10.001942, 9.997614 
1.6250509e+3, 2.0375833e+2, -837141.6, -1066520.9, -33679.867, -0.030042889, -0.0821486, -832298.7, 110864.85, 0.0, 10.001424, 9.998381 
1.6250591e+3, 2.1375747e+2, -798709.44, -985395.56, -44316.637, -0.054232895, -0.019487396, -788723.44, 56448.418, 0.0, 10.000963, 9.9984865 
1.6250676e+3, 2.2375622e+2, -754987.44, -861334.4, -36619.49, -0.056646764, -0.011086377, -743597.75, 3585.9636, 0.0, 10.000366, 9.998953 
1.6250767e+3, 2.3375441e+2, -769659.9, -810076.9, -24462.496, -0.0252865, -0.097708605, -758138.3, -108937.8, 0.0, 9.99956, 9.999021 
1.6250856e+3, 2.4375339e+2, -735242.9, -700461.8, -19820.936, -0.015281586, -0.11629696, -691483.8, -140272.83, 0.0, 9.998943, 9.999396 
1.6250941e+3, 2.5375378e+2, -679661.2, -616917.3, -30962.521, -0.040235307, -0.024822978, -604211.2, -151001.36, 0.0, 9.998626, 9.99945 
1.6251032e+3, 2.63754e+2, -611196.06, -455201.2, -9725.982, -0.04135266, 0.02485749, -454597.16, -99388.12, 0.0, 9.998088, 10.000146 
1.625113e+3, 2.737539e+2, -637881.2, -406344.25, 3164.8276, -0.004465113, -0.0126218945, -406301.0, -149091.7, 0.0, 9.997186, 10.000242 
1.6251224e+3, 2.8375393e+2, -604516.2, -314325.72, 2780.6929, 0.00011414427, -0.040631745, -314299.06, -155089.81, 0.0, 9.996633, 10.000469 
1.6251312e+3, 2.937546e+2, -511394.4, -218798.95, -18113.738, -0.04543141, -0.025674783, -217681.84, -156477.27, 0.0, 9.996599, 10.000467 
1.6251405e+3, 3.037556e+2, -508408.97, -143792.13, -16720.434, -0.01977427, 0.01306573, -143026.97, -143026.97, 0.0, 9.996077, 10.0009 
1.6251498e+3, 3.1375632e+2, -571390.0, 7506.601, 34513.184, 0.0050681694, -0.02099536, 9556.978, 9556.978, 0.0, 9.994858, 10.002528 
1.6349901e+3, 1.23767875e+2, -1190823.9, -1669364.0, 49368.047, -0.07203983, -0.052065175, -1185784.0, 541290.6, 0.023316853, 10.004604, 9.998101 
1.6349992e+3, 1.3376608e+2, -1131689.9, -1656394.1, -74429.85, 0.07780553, 0.007824053, -1121336.3, 507755.03, 0.014709814, 10.004573, 9.997529 
1.635005e+3, 1.4376387e+2, -1076014.9, -1595002.6, -57017.14, -0.08824834, 0.043134447, -1069824.8, 461287.47, 0.00706149, 10.00432, 9.997394 
1.6350135e+3, 1.5376042e+2, -1061447.6, -1540309.6, -50779.695, -0.040802907, -0.043855645, -1056122.1, 377023.03, 0.0021795344, 10.003739, 9.9973755 
1.6350217e+3, 1.6375747e+2, -1006580.75, -1420304.5, -61295.977, -0.017064925, -0.08926166, -997690.4, 337482.28, 0.00030356596, 10.003253, 9.997761 
1.6350298e+3, 1.7375547e+2, -954397.06, -1339986.5, -63277.29, -0.007617647, -0.07490086, -944278.5, 292912.13, 0.000005612588, 10.002917, 9.997801 
1.6350375e+3, 1.8375345e+2, -910733.2, -1258028.1, -79871.97, -0.012637981, -0.057727955, -893244.6, 245964.78, 0.0, 10.0025, 9.997892 
1.6350444e+3, 1.9375154e+2, -893197.7, -1198350.3, -69859.14, -0.04803355, -0.041821238, -877965.1, 163263.61, 0.0, 10.001945, 9.997897 
1.635052e+3, 2.0374946e+2, -856180.8, -1107137.4, -51338.65, -0.062279597, -0.046024162, -846084.56, 97165.14, 0.0, 10.001428, 9.998101 
1.6350602e+3, 2.137472e+2, -824442.75, -1039017.44, -61118.37, -0.039562143, -0.087384835, -808255.3, 37016.945, 0.0, 10.000963, 9.998119 
1.6350682e+3, 2.2374575e+2, -740216.44, -831015.4, -64933.453, -0.0297765, -0.08793416, -706385.44, 40901.02, 0.0, 10.000366, 9.999163 
1.6350761e+3, 2.3374565e+2, -748917.0, -768099.5, -54171.176, -0.043694746, -0.030600023, -703494.5, -54208.074, 0.0, 9.999563, 9.999308 
1.6350843e+3, 2.437451e+2, -748428.75, -728811.1, -33062.89, -0.04632018, -0.008916096, -704132.75, -152840.39, 0.0, 9.998945, 9.999202 
1.635093e+3, 2.5374395e+2, -698390.75, -656232.3, -41294.848, -0.028499689, -0.045979988, -630947.75, -177641.27, 0.0, 9.998626, 9.999181 
1.6351016e+3, 2.6374358e+2, -592824.7, -417813.13, -40042.188, -0.014343176, -0.051679343, -409086.7, -53775.484, 0.0, 9.99809, 10.000402 
1.6351102e+3, 2.7374443e+2, -613855.1, -358217.2, -30012.213, -0.00947922, -0.027069712, -354740.97, -97439.71, 0.0, 9.997191, 10.000571 
1.6351189e+3, 2.8374496e+2, -619529.3, -346668.88, -1273.3464, -0.01917562, -0.01547697, -346662.9, -187366.23, 0.0, 9.996635, 10.000246 
1.6351278e+3, 2.9374546e+2, -532320.7, -262648.13, -18487.37, -0.045103323, 0.011187512, -261386.63, -200090.66, 0.0, 9.996599, 10.000167 
1.6351369e+3, 3.037467e+2, -476962.47, -78264.055, -57328.26, 0.0059764003, 0.07066654, -70184.63, -70184.63, 0.0, 9.996074, 10.001352 
1.6351448e+3, 3.1374717e+2, -554324.8, 42111.15, -9363.229, 0.0051572016, -0.03797057, 42258.1, 42258.1, 0.0, 9.99486, 10.002766 
1.644995e+3, 1.23758994e+2, -1112499.5, -1649652.5, 72545.97, -0.07934332, -0.042151447, -1102874.1, 624286.8, 0.02479414, 10.005244, 9.9979315 
1.645004e+3, 1.3375673e+2, -1141351.3, -1682545.4, -70280.41, 0.09692695, -0.0107101295, -1132373.5, 496809.1, 0.01571629, 10.004603, 9.997334 
1.6450094e+3, 1.4375436e+2, -1092386.1, -1589980.5, -63036.94, -0.07689685, 0.015543576, -1084524.6, 446680.44, 0.0076041287, 10.004155, 9.997507 
1.6450174e+3, 1.5375145e+2, -1012170.06, -1499654.9, -38775.754, -0.03898275, -0.03300843, -1009105.0, 424127.5, 0.002379721, 10.004007, 9.997525 
1.6450252e+3, 1.6374864e+2, -957329.4, -1405093.9, -44213.39, -0.019933011, -0.07080773, -953005.4, 382253.25, 0.00034007852, 10.003629, 9.997684 
1.6450326e+3, 1.7374611e+2, -968162.44, -1359091.1, -48159.19, -0.009794749, -0.097454764, -962317.0, 274964.72, 0.000006640927, 10.002878, 9.997688 
1.6450398e+3, 1.8374397e+2, -932402.5, -1257131.3, -65908.195, -0.014554689, -0.09022552, -919535.4, 219766.45, 0.0, 10.002304, 9.9979925 
1.6450463e+3, 1.937426e+2, -874943.06, -1175791.6, -67656.09, -0.050390214, -0.034221012, -860428.5, 180887.6, 0.0, 10.002012, 9.998019 
1.6450535e+3, 2.0374072e+2, -841498.1, -1096159.4, -53389.695, -0.062201966, -0.025259035, -830757.94, 112577.0, 0.0, 10.001513, 9.998135 
1.6450611e+3, 2.1373819e+2, -864918.56, -1056524.6, -37101.703, -0.03281258, -0.09743527, -857985.25, -12625.176, 0.0, 10.000678, 9.998136 
1.6450685e+3, 2.237366e+2, -796907.4, -863803.06, -31827.725, -0.02206395, -0.10835662, -784184.2, -36808.816, 0.0, 10.000002, 9.999112 
1.6450757e+3, 2.337367e+2, -750055.44, -775741.3, -47088.547, -0.04408158, -0.02746931, -714089.8, -64715.695, 0.0, 9.999587, 9.999243 
1.6450833e+3, 2.4373622e+2, -728293.2, -708038.25, -29490.076, -0.047721904, 0.0013836308, -686985.06, -135605.69, 0.0, 9.999037, 9.999299 
1.6450915e+3, 2.53735e+2, -743111.56, -664408.2, -10061.729, -0.020070625, -0.054980647, -663142.2, -209748.38, 0.0, 9.998263, 9.999298 
1.6450997e+3, 2.637346e+2, -655596.44, -452474.06, -3455.6108, -0.005493276, -0.06572877, -452415.28, -97016.82, 0.0, 9.99768, 10.0003605 
1.6451074e+3, 2.7373558e+2, -586665.44, -352809.38, -22473.477, -0.016324457, -0.022970524, -350669.28, -93281.414, 0.0, 9.997413, 10.000501 
1.6451156e+3, 2.8373614e+2, -576973.7, -314151.44, 2233.3655, -0.03115061, -0.007591774, -314132.47, -154749.38, 0.0, 9.996877, 10.000352 
1.6451241e+3, 2.937366e+2, -627640.9, -291823.25, 15564.138, -0.03932301, 0.00148596, -291103.44, -229720.77, 0.0, 9.995875, 10.000314 
1.6451328e+3, 3.0373812e+2, -585597.56, -101832.61, -15838.395, 0.035432167, 0.06803262, -101314.62, -101314.62, 0.0, 9.995206, 10.001608 
1.6451396e+3, 3.13739e+2, -531902.56, 41195.332, 8616.926, -0.0047364677, -0.022397282, 41324.867, 41324.867, 0.0, 9.995067, 10.002658 
1.6550003e+3, 1.2375163e+2, -1147481.8, -1721882.4, 41270.402, -0.07288522, 0.06102254, -1144531.6, 582701.1, 0.02637971, 10.005249, 9.997421 
1.6550085e+3, 1.3374723e+2, -1178269.0, -1761433.1, -94059.63, 0.09273405, -0.06492733, -1163473.4, 465802.53, 0.01679884, 10.004611, 9.99679 
1.6550134e+3, 1.4374425e+2, -1072064.4, -1548894.6, -71264.88, -0.09222096, -0.08465293, -1061641.3, 469663.53, 0.008191673, 10.004161, 9.997787 
1.6550218e+3, 1.5374318e+2, -983887.0, -1442359.8, -44331.484, -0.013085285, 0.013291965, -979639.75, 453673.7, 0.0025998536, 10.004014, 9.997916 
1.655029e+3, 1.6374107e+2, -960866.56, -1413642.8, -70178.71, 0.009221883, 0.027300285, -950238.56, 385093.7, 0.00038217273, 10.003633, 9.997623 
1.6550352e+3, 1.737374e+2, -976457.25, -1377382.5, -76484.52, -0.040723547, -0.100725286, -962361.8, 275004.63, 0.000007868034, 10.002881, 9.997561 
1.6550416e+3, 1.8373467e+2, -935105.56, -1263592.1, -78913.34, -0.061394222, -0.14628242, -917131.44, 222261.31, 0.0, 10.002306, 9.997948 
1.6550486e+3, 1.9373354e+2, -877482.3, -1181566.6, -78152.62, -0.041165438, -0.061725467, -858572.25, 182832.84, 0.0, 10.002013, 9.997979 
1.6550553e+3, 2.0373213e+2, -817923.8, -1047834.5, -82163.82, -0.03093355, -0.01884409, -791579.4, 151839.92, 0.0, 10.0015135, 9.9984665 
1.6550617e+3, 2.1373037e+2, -837490.2, -1000726.2, -68402.47, -0.034838412, -0.05174461, -812616.9, 32818.88, 0.0, 10.000682, 9.998518 
1.6550684e+3, 2.2372875e+2, -817491.0, -907955.7, -49073.73, -0.034379225, -0.07402355, -795983.56, -48532.484, 0.0, 10.000007, 9.998808 
1.6550754e+3, 2.3372751e+2, -778720.8, -835657.94, -61472.9, -0.027205875, -0.08573313, -739444.44, -89980.766, 0.0, 9.999587, 9.998833 
1.6550826e+3, 2.4372672e+2, -702130.06, -654066.8, -55989.2, -0.020862497, -0.081882395, -617169.7, -65697.5, 0.0, 9.999037, 9.999671 
1.6550897e+3, 2.537268e+2, -708349.6, -593718.75, -38418.406, -0.015134843, -0.053015374, -582033.94, -128561.32, 0.0, 9.998267, 9.999783 
1.6550972e+3, 2.63727e+2, -678244.25, -501020.38, -15010.145, -0.014457807, -0.019692943, -499758.06, -144286.27, 0.0, 9.997684, 10.000027 
1.6551048e+3, 2.737273e+2, -618580.8, -419987.94, -30666.158, -0.027207881, -0.00094733026, -415360.38, -157890.56, 0.0, 9.997414, 10.00004 
1.6551124e+3, 2.8372747e+2, -548058.9, -254517.53, -31150.3, -0.038441315, -0.016239878, -251248.3, -91779.18, 0.0, 9.996877, 10.000762 
1.6551201e+3, 2.93728e+2, -588053.7, -210639.0, -22041.336, -0.027570281, -0.05179512, -209356.13, -147890.55, 0.0, 9.995877, 10.000872 
1.6551283e+3, 3.0372983e+2, -579801.25, -90540.02, -24091.611, 0.069139995, 0.0060875397, -89356.59, -89356.59, 0.0, 9.995208, 10.001684 
1.6551346e+3, 3.1373194e+2, -561564.4, -22002.852, -166.72328, -0.026735498, 0.0422863, -22002.8, -22002.8, 0.0, 9.995072, 10.002221 
1.6650057e+3, 1.2374339e+2, -1155575.6, -1730609.0, 33028.574, -0.060960636, 0.06077466, -1153684.9, 573628.25, 0.02807643, 10.005222, 9.997374 
1.6650136e+3, 1.3373902e+2, -1112140.6, -1732527.0, -57015.773, 0.099770024, -0.05938535, -1106944.3, 522411.78, 0.017959956, 10.0050955, 9.996754 
1.6650178e+3, 1.437359e+2, -992557.25, -1512532.6, -25575.045, -0.09963125, -0.0895119, -991302.4, 540083.8, 0.00882612, 10.0047245, 9.997766 
1.6650258e+3, 1.5373473e+2, -992781.6, -1448809.4, -29101.822, -0.0049549723, 0.00016325903, -990931.94, 442463.63, 0.002840873, 10.003963, 9.997895 
1.6650327e+3, 1.6373266e+2, -1000177.6, -1430214.9, -73146.66, 0.021028614, 0.017612565, -988076.4, 347337.75, 0.00043000112, 10.003353, 9.997644 
1.665038e+3, 1.7372924e+2, -960117.5, -1367438.1, -70026.97, -0.046258375, -0.0870365, -948414.6, 289032.0, 0.000009349905, 10.002985, 9.997581 
1.665044e+3, 1.8372658e+2, -908949.3, -1244508.9, -62384.066, -0.07082249, -0.1282817, -897726.75, 241745.64, 0.0, 10.002458, 9.998005 
1.6650504e+3, 1.9372523e+2, -922690.56, -1196301.5, -54629.934, -0.03234434, -0.07093456, -912186.3, 129299.78, 0.0, 10.001674, 9.998041 
1.6650566e+3, 2.037238e+2, -878605.75, -1070267.9, -64562.465, -0.017955972, -0.037491925, -858886.4, 84613.89, 0.0, 10.001069, 9.998526 
1.6650623e+3, 2.1372229e+2, -823043.6, -987460.25, -75404.98, -0.04114396, -0.05071389, -793698.75, 51815.734, 0.0, 10.000754, 9.998573 
1.6650684e+3, 2.2372077e+2, -779831.75, -880971.1, -60116.27, -0.042999905, -0.069477946, -751844.06, -4315.2075, 0.0, 10.000228, 9.998885 
1.665075e+3, 2.3371941e+2, -807204.4, -840667.6, -38354.605, -0.011145751, -0.103144504, -782090.75, -132548.31, 0.0, 9.999355, 9.99891 
1.6650815e+3, 2.4371862e+2, -755099.9, -676063.2, -21296.781, -0.0011707181, -0.10307559, -670690.0, -119139.305, 0.0, 9.998659, 9.9997015 
1.665088e+3, 2.53719e+2, -707719.1, -591135.9, -37373.305, -0.024255712, -0.04952149, -580183.94, -126635.234, 0.0, 9.998262, 9.999802 
1.6650948e+3, 2.6371926e+2, -665681.4, -489893.03, -18441.666, -0.031754766, -0.012902618, -487979.16, -132431.8, 0.0, 9.997749, 10.000072 
1.665102e+3, 2.737193e+2, -671135.94, -440073.2, 2345.2336, -0.022795549, -0.021716418, -440049.38, -182501.81, 0.0, 9.997032, 10.000086 
1.665109e+3, 2.837196e+2, -615141.75, -274928.03, 4053.5398, -0.03257584, -0.033912744, -274879.72, -115333.97, 0.0, 9.9963665, 10.000867 
1.6651158e+3, 2.9372063e+2, -587423.06, -195671.72, -18923.13, -0.04554351, -0.02820806, -194759.78, -133222.84, 0.0, 9.99582, 10.001 
1.6651237e+3, 3.037222e+2, -541544.25, -70806.73, -21033.646, 0.069999926, -0.0052969847, -69868.76, -69868.76, 0.0, 9.995465, 10.001695 
1.6651298e+3, 3.1372422e+2, -558632.56, -52647.113, -4658.0664, -0.01084518, 0.025736816, -52604.234, -52604.234, 0.0, 9.995234, 10.001931 
1.6750109e+3, 1.23734325e+2, -1128022.5, -1671990.3, 18243.041, -0.048355177, -0.04184565, -1127411.4, 599989.94, 0.029884528, 10.005226, 9.9977865 
1.6750188e+3, 1.3373208e+2, -1080010.9, -1664683.8, -61636.08, 0.11721507, 0.00400796, -1073583.9, 555839.1, 0.01920256, 10.005101, 9.997217 
1.6750224e+3, 1.4372933e+2, -1014155.8, -1558496.9, -51801.227, -0.09974223, -0.0004905973, -1009270.06, 522179.16, 0.009510877, 10.00473, 9.997448 
1.6750297e+3, 1.5372613e+2, -1021967.94, -1511033.9, -57560.504, -0.014738275, -0.07119695, -1015284.7, 418193.88, 0.003104852, 10.003969, 9.997467 
1.675036e+3, 1.6372344e+2, -993387.75, -1417279.9, -88728.79, 0.014825006, -0.098156594, -975564.5, 359939.6, 0.00048388814, 10.003357, 9.997732 
1.6750413e+3, 1.7372161e+2, -948578.25, -1344558.6, -83636.39, -0.0279751, -0.05679503, -931637.8, 305884.5, 0.0000111741165, 10.002988, 9.997736 
1.6750467e+3, 1.8371971e+2, -897561.0, -1221752.1, -90046.93, -0.04455624, -0.037543338, -874228.9, 265312.03, 0.0, 10.0024605, 9.998161 
1.6750522e+3, 1.9371772e+2, -911455.6, -1174122.1, -83911.875, -0.024390543, -0.06233391, -886937.56, 154621.69, 0.0, 10.001677, 9.998193 
1.6750577e+3, 2.0371574e+2, -892684.2, -1100475.8, -78365.64, -0.023552902, -0.08049939, -866443.44, 77134.516, 0.0, 10.001072, 9.998318 
1.6750629e+3, 2.1371399e+2, -841813.94, -1026538.44, -86249.16, -0.05165126, -0.09278854, -807804.94, 37791.195, 0.0, 10.000754, 9.998306 
1.6750686e+3, 2.237127e+2, -748865.9, -817012.6, -89610.17, -0.04833652, -0.09345095, -687069.6, 60539.047, 0.0, 10.000228, 9.999326 
1.6750744e+3, 2.3371232e+2, -768516.56, -761774.75, -70561.3, 0.0031018408, -0.081400625, -694503.9, -44892.727, 0.0, 9.99936, 9.99945 
1.6750804e+3, 2.4371189e+2, -775109.94, -719543.9, -37886.355, 0.010728251, -0.06419144, -700345.25, -148729.66, 0.0, 9.998665, 9.999401 
1.6750859e+3, 2.537115e+2, -737664.06, -654364.2, -50688.723, -0.047794044, -0.044218108, -630408.75, -176786.36, 0.0, 9.998265, 9.999368 
1.6750921e+3, 2.6371133e+2, -637165.7, -431319.9, -42624.652, -0.058201574, -0.044149525, -422842.7, -67217.16, 0.0, 9.99775, 10.000474 
1.6750993e+3, 2.737116e+2, -633464.5, -363340.5, -23809.283, -0.0031729974, -0.084521346, -361257.94, -103636.06, 0.0, 9.997036, 10.000611 
1.6751055e+3, 2.8371245e+2, -628144.56, -302796.1, -17015.695, -0.013413388, -0.060001463, -301908.6, -142294.64, 0.0, 9.996369, 10.000675 
1.6751112e+3, 2.9371443e+2, -607444.5, -237882.31, -37522.02, -0.09528914, 0.07081985, -234111.14, -172513.47, 0.0, 9.995821, 10.000711 
1.6751188e+3, 3.0371517e+2, -546159.1, -81741.0, -28225.861, 0.035498094, 0.029671183, -80031.81, -80031.81, 0.0, 9.995469, 10.001619 
1.6751257e+3, 3.1371585e+2, -566370.4, -70627.75, -23938.191, 0.046749648, -0.06544704, -69474.516, -69474.516, 0.0, 9.995241, 10.001805 
1.6850163e+3, 1.2372656e+2, -1081560.4, -1648367.1, 49613.02, -0.067894995, -0.08533933, -1077250.5, 650225.9, 0.03180082, 10.005562, 9.997791 
1.6850239e+3, 1.3372485e+2, -1102954.4, -1671473.4, -51668.652, 0.13425949, 0.008943684, -1098296.8, 531196.5, 0.02052814, 10.004929, 9.997253 
1.6850272e+3, 1.4372216e+2, -1057548.0, -1574304.4, -54302.066, -0.08468255, 0.008220348, -1051903.5, 479615.25, 0.0102493595, 10.00441, 9.997494 
1.6850336e+3, 1.5371872e+2, -1006052.06, -1498793.5, -27510.45, -0.021351483, -0.09331668, -1004520.9, 429029.3, 0.0033945665, 10.00406, 9.997507 
1.6850393e+3, 1.6371594e+2, -966426.0, -1410491.0, -43199.402, 0.0048082722, -0.1257644, -962262.5, 373314.0, 0.0005446158, 10.003569, 9.997677 
1.6850443e+3, 1.7371443e+2, -974503.8, -1364674.0, -54471.113, -0.013302019, -0.049555045, -967041.9, 270551.4, 0.000013478055, 10.002844, 9.997667 
1.6850492e+3, 1.8371266e+2, -921508.25, -1218019.3, -73103.29, -0.022371491, -0.01768029, -904464.7, 235146.06, 0.0, 10.002231, 9.998297 
1.685054e+3, 1.937106e+2, -882751.5, -1142434.8, -67452.73, -0.02327722, -0.065005176, -866275.94, 175352.45, 0.0, 10.001797, 9.998352 
1.6850588e+3, 2.037086e+2, -868152.0, -1086743.1, -52450.9, -0.030671615, -0.09648316, -856217.94, 87428.95, 0.0, 10.001233, 9.998334 
1.6850635e+3, 2.1370685e+2, -885740.0, -1048156.56, -41858.543, -0.04532697, -0.10725465, -875586.8, -29921.232, 0.0, 10.000456, 9.998301 
1.6850688e+3, 2.2370565e+2, -801106.94, -833232.9, -48488.31, -0.03984911, -0.10269473, -766090.25, -18412.56, 0.0, 9.999832, 9.999404 
1.6850738e+3, 2.3370548e+2, -746999.44, -741512.44, -63068.31, -0.005598044, -0.078067, -681128.0, -31450.049, 0.0, 9.999467, 9.9995365 
1.685079e+3, 2.4370517e+2, -729881.56, -692774.1, -37164.88, -0.004626202, -0.055982847, -669789.1, -118107.98, 0.0, 9.998956, 9.999444 
1.6850841e+3, 2.5370473e+2, -744804.4, -654254.44, -17162.53, -0.0518461, -0.04702838, -651110.7, -197422.28, 0.0, 9.998202, 9.999398 
1.6850899e+3, 2.6370448e+2, -666423.5, -434206.0, -2002.3531, -0.055090882, -0.059582468, -434188.72, -78496.77, 0.0, 9.997501, 10.000573 
1.6850962e+3, 2.7370477e+2, -645370.25, -356900.44, -13885.268, -0.0012962221, -0.105086096, -356233.6, -98545.945, 0.0, 9.996903, 10.000719 
1.685102e+3, 2.8370583e+2, -642686.6, -318493.7, -17687.293, -0.016810592, -0.06261993, -317531.56, -157853.77, 0.0, 9.996307, 10.000597 
1.6851068e+3, 2.9370806e+2, -626547.2, -258662.05, -23111.857, -0.10484089, 0.09932537, -257215.77, -195555.86, 0.0, 9.995741, 10.000607 
1.6851142e+3, 3.037081e+2, -559636.44, -92205.68, 6034.5522, 0.038195692, -0.0017476887, -92127.79, -92127.79, 0.0, 9.995393, 10.001585 
1.6851209e+3, 3.1370896e+2, -567754.75, -55389.492, -1976.5646, 0.05422496, -0.077693895, -55381.867, -55381.867, 0.0, 9.995163, 10.001947 
1.6950212e+3, 1.2372015e+2, -1109979.5, -1705481.1, 16618.023, -0.12289219, -0.0689007, -1109516.1, 618021.75, 0.033823278, 10.005564, 9.997387 
1.695029e+3, 1.3371736e+2, -1128858.4, -1726599.5, -74512.3, 0.14945903, -0.04432633, -1119710.0, 509856.28, 0.021937696, 10.004934, 9.996873 
1.6950318e+3, 1.4371444e+2, -1030836.44, -1519149.0, -68798.836, -0.056158014, -0.06314979, -1021328.44, 510265.94, 0.011044286, 10.004415, 9.99787 
1.6950376e+3, 1.5371245e+2, -971227.44, -1427430.1, -40736.98, -0.026205441, -0.066886574, -967618.3, 465992.22, 0.0037128457, 10.004065, 9.997995 
1.6950427e+3, 1.637102e+2, -978738.44, -1437344.0, -69094.62, -0.010066895, -0.06619964, -968554.6, 367076.9, 0.0006134778, 10.003572, 9.997491 
1.6950472e+3, 1.7370766e+2, -993947.56, -1406526.9, -81609.47, -0.0023855055, -0.06529982, -978391.44, 259268.08, 0.000016459384, 10.002849, 9.997378 
1.6950516e+3, 1.8370545e+2, -913383.4, -1202319.9, -90513.55, -0.004610799, -0.06732938, -887370.6, 252311.28, 0.0, 10.002234, 9.998404 
1.6950557e+3, 1.9370389e+2, -870900.2, -1118662.8, -83206.71, -0.029512146, -0.07857028, -845550.4, 196143.3, 0.0, 10.0018, 9.998515 
1.69506e+3, 2.0370233e+2, -851775.7, -1053472.0, -79863.01, -0.04012808, -0.086164765, -823983.06, 119724.32, 0.0, 10.001235, 9.998563 
1.6950643e+3, 2.1370083e+2, -868785.94, -1013776.8, -70780.516, -0.023778476, -0.09477163, -839962.7, 5760.5273, 0.0, 10.000458, 9.998536 
1.6950688e+3, 2.2369958e+2, -819524.8, -872583.06, -63799.08, -0.01886725, -0.09706115, -776958.94, -29222.719, 0.0, 9.999835, 9.999133 
1.695073e+3, 2.3369886e+2, -771563.1, -793297.8, -75516.09, -0.03626227, -0.09274307, -706136.44, -56393.305, 0.0, 9.999469, 9.999181 
1.6950776e+3, 2.4369845e+2, -704120.06, -639781.44, -62579.977, -0.04643029, -0.0777187, -601586.56, -49839.074, 0.0, 9.998957, 9.999808 
1.6950825e+3, 2.5369856e+2, -711431.25, -585764.75, -44595.9, -0.038188796, -0.057601657, -571547.25, -117799.96, 0.0, 9.998203, 9.999869 
1.6950877e+3, 2.636986e+2, -679579.3, -462599.06, -24492.773, -0.024347521, -0.059333783, -459868.66, -104121.16, 0.0, 9.997504, 10.000378 
1.6950929e+3, 2.7369884e+2, -665612.94, -400669.75, -35279.434, -0.018041084, -0.08496748, -396052.47, -138306.75, 0.0, 9.996909, 10.000417 
1.6950978e+3, 2.8369975e+2, -640349.7, -314779.84, -38607.844, -0.043150287, -0.04292, -310264.16, -150526.08, 0.0, 9.996311, 10.000621 
1.6951029e+3, 2.937014e+2, -622083.75, -249952.3, -41844.633, -0.07487035, 0.059588473, -245305.08, -183580.81, 0.0, 9.995741, 10.000668 
1.69511e+3, 3.0370092e+2, -559733.5, -93406.07, -978.51044, 0.07616816, -0.0969341, -93404.016, -93404.016, 0.0, 9.995396, 10.001576 
1.6951157e+3, 3.1370327e+2, -536308.1, 8624.753, -27100.389, 0.01440151, -0.023740118, 9969.183, 9969.183, 0.0, 9.995168, 10.002385 
1.7050269e+3, 1.2371425e+2, -1116013.1, -1708113.0, 20291.922, -0.10497301, -0.042701617, -1115318.5, 612277.94, 0.03595226, 10.005532, 9.997384 
1.7050341e+3, 1.337113e+2, -1098244.1, -1704404.1, -29224.986, 0.14672244, -0.042320646, -1096838.4, 532787.6, 0.023431802, 10.005128, 9.996931 
1.7050363e+3, 1.4370817e+2, -1003048.56, -1509827.0, -18703.807, -0.07399988, -0.08190119, -1002359.2, 529296.4, 0.011897178, 10.00463, 9.997831 
1.7050417e+3, 1.537063e+2, -991382.5, -1443377.1, -30027.709, -0.017980576, -0.06861088, -989396.4, 444274.4, 0.004061859, 10.003955, 9.997938 
1.7050464e+3, 1.6370416e+2, -999751.1, -1436177.9, -73440.01, 0.0083999075, -0.058561876, -987724.4, 347966.44, 0.00069183286, 10.00338, 9.997592 
1.7050502e+3, 1.7370172e+2, -966588.25, -1380362.9, -57647.336, -0.0015563645, -0.05929138, -958706.9, 279010.84, 0.000020346932, 10.00298, 9.997495 
1.7050539e+3, 1.8369952e+2, -878592.5, -1181603.4, -52555.605, -0.012343877, -0.06733375, -869735.9, 270003.88, 0.0, 10.002457, 9.998439 
1.7050575e+3, 1.9369784e+2, -879629.1, -1120174.0, -55892.84, -0.030412657, -0.092837974, -867276.25, 174476.22, 0.0, 10.001729, 9.998538 
1.705061e+3, 2.0369636e+2, -868685.2, -1050488.6, -65205.04, -0.038640395, -0.10027701, -847717.25, 96048.22, 0.0, 10.001073, 9.99866 
1.7050648e+3, 2.136952e+2, -851019.06, -993651.44, -66743.484, -0.028204996, -0.083861955, -824658.75, 21119.158, 0.0, 10.000531, 9.998638 
1.7050685e+3, 2.2369406e+2, -803962.06, -867384.06, -52379.387, -0.027397426, -0.07988497, -774442.44, -26652.5, 0.0, 9.999954, 9.99911 
1.7050722e+3, 2.3369305e+2, -797110.56, -810525.2, -42144.34, -0.04532292, -0.09977725, -761143.1, -111343.266, 0.0, 9.999316, 9.999135 
1.7050762e+3, 2.4369255e+2, -737258.5, -641500.75, -30863.291, -0.053017404, -0.09631397, -632415.3, -80610.43, 0.0, 9.998669, 9.999934 
1.7050806e+3, 2.536929e+2, -728862.7, -577158.3, -37210.246, -0.037681546, -0.06855902, -568522.9, -114721.24, 0.0, 9.9980135, 10.000018 
1.705085e+3, 2.6369306e+2, -698843.9, -479955.34, -21768.213, -0.02125515, -0.06542444, -477811.53, -122010.84, 0.0, 9.99741, 10.000303 
1.7050898e+3, 2.736932e+2, -678297.2, -419117.78, -19298.959, -0.020033479, -0.085837714, -417688.63, -159888.31, 0.0, 9.996877, 10.000304 
1.7050943e+3, 2.836941e+2, -635325.4, -297698.13, -13154.597, -0.043554828, -0.043877903, -297186.38, -137393.48, 0.0, 9.9962845, 10.0007515 
1.7050986e+3, 2.9369575e+2, -628025.2, -236684.56, -8197.8, -0.06174596, 0.036029518, -236512.9, -174734.27, 0.0, 9.995633, 10.000811 
1.7051053e+3, 3.03695e+2, -605358.8, -149964.63, 40390.574, 0.078771256, -0.13636622, -146409.98, -146409.98, 0.0, 9.995232, 10.001267 
1.7051107e+3, 3.1369773e+2, -539206.94, 30114.844, -28805.072, -0.003865883, 0.005882418, 31568.535, 31568.535, 0.0, 9.995053, 10.002586 
1.7150334e+3, 1.23708904e+2, -1091209.6, -1654747.3, -5509.8574, -0.019205615, -0.006942387, -1091155.8, 636496.2, 0.03818623, 10.005535, 9.997765 
1.715039e+3, 1.3370663e+2, -1065081.9, -1633917.4, -43762.92, 0.1261981, 0.015625495, -1061734.6, 567937.5, 0.025009163, 10.005135, 9.997413 
1.7150404e+3, 1.4370337e+2, -1033319.2, -1574088.5, -43202.47, -0.13817841, -0.047307268, -1029889.44, 501812.8, 0.012808029, 10.004637, 9.997387 
1.7150459e+3, 1.5370026e+2, -1031784.06, -1528769.4, -55402.65, 0.0019059072, -0.09936774, -1025682.8, 408048.0, 0.0044428306, 10.00396, 9.997351 
1.7150503e+3, 1.6369781e+2, -973394.0, -1382601.5, -89646.87, 0.05866152, -0.10275722, -954616.4, 381137.88, 0.0007808144, 10.003384, 9.997959 
1.7150532e+3, 1.7369659e+2, -930385.0, -1306379.9, -72448.016, -0.011375542, -0.031500757, -916908.5, 320859.56, 0.000025375884, 10.002983, 9.998002 
1.715056e+3, 1.8369487e+2, -880802.4, -1187040.0, -78424.76, -0.046180777, -0.018406201, -861886.9, 277897.78, 0.0, 10.002459, 9.998402 
1.7150591e+3, 1.9369246e+2, -887792.06, -1137845.0, -83039.93, -0.026734913, -0.10771696, -862727.75, 179077.3, 0.0, 10.001731, 9.998417 
1.7150623e+3, 2.0369065e+2, -870613.7, -1055163.1, -86069.0, -0.026892086, -0.13763063, -836704.0, 107117.37, 0.0, 10.001074, 9.998629 
1.7150651e+3, 2.1368994e+2, -852524.3, -997631.4, -86215.305, -0.057925012, -0.07488999, -812396.44, 33433.406, 0.0, 10.000534, 9.998611 
1.715068e+3, 2.2368905e+2, -789224.56, -837667.7, -75118.94, -0.06504323, -0.052057263, -734518.7, 13320.533, 0.0, 9.999957, 9.999314 
1.7150716e+3, 2.3368801e+2, -780123.6, -775638.0, -65228.293, -0.034798216, -0.098884396, -712614.0, -62765.32, 0.0, 9.999316, 9.999376 
1.7150752e+3, 2.4368744e+2, -744653.75, -657141.2, -54671.332, -0.026873369, -0.111233376, -630872.0, -79018.08, 0.0, 9.998669, 9.999827 
1.7150785e+3, 2.5368768e+2, -739649.44, -601185.6, -60645.54, -0.049836192, -0.08016507, -578379.8, -124527.805, 0.0, 9.998019, 9.999851 
1.7150822e+3, 2.636877e+2, -695084.25, -474360.28, -41318.707, -0.044506073, -0.077924035, -466879.13, -111027.04, 0.0, 9.997417, 10.0003395 
1.7150868e+3, 2.7368787e+2, -673501.56, -409928.7, -38482.95, -0.0092282165, -0.10651006, -404424.9, -146572.78, 0.0, 9.996878, 10.000368 
1.7150907e+3, 2.836889e+2, -619742.8, -265083.44, -36673.773, -0.020689225, -0.06494756, -261330.88, -101487.734, 0.0, 9.996283, 10.000977 
1.7150943e+3, 2.936909e+2, -611983.9, -205621.47, -30453.629, -0.06568655, 0.026558593, -203351.89, -141527.6, 0.0, 9.995642, 10.00102 
1.7151004e+3, 3.0369022e+2, -646487.1, -238315.56, 33165.58, 0.045710094, -0.11908487, -235638.28, -235638.28, 0.0, 9.995242, 10.000656 
1.7151058e+3, 3.1369212e+2, -543706.1, 21778.527, -52203.59, 0.0006179035, 0.0032121069, 26557.396, 26557.396, 0.0, 9.9950485, 10.002532 
1.7250392e+3, 1.23704255e+2, -1055124.5, -1656801.1, 45747.133, -0.00004186529, -0.007395854, -1051666.1, 676031.44, 0.040522985, 10.005897, 9.997576 
1.7250443e+3, 1.3370213e+2, -1041514.56, -1636179.8, -25176.043, 0.1359899, 0.042670015, -1040450.56, 589266.3, 0.026667543, 10.005371, 9.997282 
1.725045e+3, 1.4369874e+2, -1012782.4, -1565608.4, -43221.875, -0.13972342, -0.025486492, -1009423.5, 522325.0, 0.01377522, 10.004792, 9.99737 
1.7250499e+3, 1.5369533e+2, -1008085.25, -1517909.9, -15451.966, 0.0035245346, -0.10663047, -1007617.3, 426162.25, 0.0048556295, 10.004128, 9.997343 
1.7250536e+3, 1.6369283e+2, -954750.3, -1364673.8, -29383.328, 0.060723487, -0.12023566, -952654.8, 383148.5, 0.0008812528, 10.003475, 9.998037 
1.7250559e+3, 1.7369188e+2, -946073.7, -1303974.6, -41936.29, -0.015691893, -0.029286612, -941225.56, 296588.34, 0.000031776486, 10.002834, 9.99809 
1.7250583e+3, 1.836903e+2, -917507.56, -1205955.3, -69325.25, -0.052146632, -0.0074983137, -901711.06, 238118.22, 0.0, 10.0022135, 9.998389 
1.725061e+3, 1.9368777e+2, -906023.75, -1150340.6, -69233.81, -0.025817385, -0.10446082, -887768.5, 154082.77, 0.0, 10.001622, 9.998383 
1.7250633e+3, 2.036859e+2, -867165.44, -1041934.2, -60414.547, -0.024422275, -0.14251177, -848314.44, 95553.68, 0.0, 10.001049, 9.998731 
1.7250654e+3, 2.1368521e+2, -848260.2, -982223.0, -50165.4, -0.06353002, -0.089189425, -831557.25, 14318.234, 0.0, 10.000507, 9.998729 
1.725068e+3, 2.236844e+2, -797213.8, -840011.2, -44161.445, -0.071795054, -0.066097975, -769539.75, -21656.031, 0.0, 9.999897, 9.999326 
1.725071e+3, 2.3368353e+2, -801484.5, -786113.75, -53361.52, -0.03124316, -0.09656766, -739887.0, -89994.99, 0.0, 9.999173, 9.999372 
1.7250739e+3, 2.4368297e+2, -760471.25, -662847.06, -44640.566, -0.019580781, -0.10802578, -645512.3, -93615.1, 0.0, 9.998555, 9.999842 
1.7250766e+3, 2.5368297e+2, -725815.0, -593214.7, -37674.234, -0.050359454, -0.10054535, -583258.3, -129361.336, 0.0, 9.998111, 9.999861 
1.7250797e+3, 2.63683e+2, -673950.75, -460937.53, -14717.219, -0.049738467, -0.103784345, -459925.53, -104028.38, 0.0, 9.997551, 10.000366 
1.7250836e+3, 2.7368337e+2, -682115.2, -410984.78, -15529.673, -0.011896077, -0.110770725, -410098.16, -152203.14, 0.0, 9.996809, 10.000393 
1.725087e+3, 2.8368443e+2, -631220.5, -273276.53, -18478.867, -0.019000314, -0.06734658, -272325.1, -112439.08, 0.0, 9.996218, 10.000951 
1.7250901e+3, 2.9368615e+2, -587542.9, -201555.52, -31761.705, -0.062178466, 0.0018375615, -198959.39, -137089.64, 0.0, 9.995845, 10.000949 
1.7250954e+3, 3.0368578e+2, -646891.3, -255411.3, 35804.703, 0.02182418, -0.10077419, -252163.55, -252163.55, 0.0, 9.995313, 10.000505 
1.7251006e+3, 3.136872e+2, -600393.4, 28688.3, -24759.803, 0.011638929, -0.015628794, 29661.309, 29661.309, 0.0, 9.9945135, 10.002837 
1.7350446e+3, 1.2370036e+2, -1108212.6, -1765236.6, 15007.709, -0.051126197, -0.041361365, -1107870.0, 619862.75, 0.04296431, 10.005896, 9.996813 
1.7350501e+3, 1.336978e+2, -1091622.8, -1742216.1, -44505.39, 0.17367907, 0.0378282, -1088592.4, 541167.7, 0.028405368, 10.005376, 9.996553 
1.7350502e+3, 1.4369428e+2, -985806.1, -1509600.9, -67380.53, -0.08142274, -0.017681552, -977277.25, 554517.06, 0.014795832, 10.004797, 9.997754 
1.7350538e+3, 1.5369152e+2, -968686.44, -1437105.0, -40375.996, -0.013093958, -0.089605816, -965231.7, 468585.34, 0.0052986066, 10.004135, 9.997896 
1.7350568e+3, 1.6368917e+2, -968086.6, -1393864.3, -53813.473, 0.014739423, -0.10990811, -961390.5, 374447.53, 0.000993415, 10.00348, 9.997835 
1.7350587e+3, 1.7368756e+2, -967905.0, -1350620.4, -65769.016, -0.015535917, -0.05251627, -956918.1, 280937.47, 0.000039781222, 10.002838, 9.997768 
1.7350607e+3, 1.8368576e+2, -916835.5, -1205601.8, -91401.02, -0.03165222, -0.03390825, -890336.7, 249536.95, 0.0, 10.002215, 9.998391 
1.7350625e+3, 1.9368376e+2, -901967.44, -1143289.1, -90793.89, -0.028084297, -0.08403051, -871623.06, 170268.3, 0.0, 10.001626, 9.99843 
1.7350644e+3, 2.0368207e+2, -850910.6, -1009289.0, -80724.63, -0.031979095, -0.11628384, -817018.44, 126887.664, 0.0, 10.001052, 9.998954 
1.7350662e+3, 2.1368101e+2, -830671.06, -946290.2, -69849.75, -0.04652062, -0.12540035, -797811.25, 48103.81, 0.0, 10.000508, 9.998976 
1.7350681e+3, 2.236801e+2, -809387.4, -865840.56, -69859.31, -0.049312506, -0.11981256, -762267.7, -14343.977, 0.0, 9.999898, 9.999148 
1.7350702e+3, 2.3367955e+2, -818148.9, -822337.4, -79572.02, -0.034621526, -0.09327126, -740643.56, -90713.16, 0.0, 9.999179, 9.999121 
1.7350723e+3, 2.4367906e+2, -750791.06, -644439.2, -61848.94, -0.030853815, -0.0877906, -616049.4, -64113.93, 0.0, 9.998561, 9.999966 
1.7350747e+3, 2.5367874e+2, -713139.9, -567209.44, -53247.285, -0.04089527, -0.12966184, -549846.4, -95909.3, 0.0, 9.998111, 10.00004 
1.7350774e+3, 2.6367876e+2, -674125.3, -461034.16, -40558.438, -0.039162073, -0.14252423, -453575.56, -97639.02, 0.0, 9.997548, 10.000367 
1.7350802e+3, 2.7367964e+2, -682730.1, -414759.78, -42700.703, -0.02884444, -0.09812561, -408120.0, -150190.08, 0.0, 9.996819, 10.000363 
1.735083e+3, 2.8368062e+2, -647746.44, -311007.56, -33531.207, -0.038100634, -0.051636875, -307701.13, -147778.6, 0.0, 9.99623, 10.000687 
1.735086e+3, 2.936814e+2, -611309.8, -251765.42, -44377.67, -0.05203184, -0.040323626, -246368.98, -184452.86, 0.0, 9.995846, 10.000606 
1.7350905e+3, 3.0368164e+2, -627525.0, -213392.0, 8187.554, 0.0036273508, -0.07942314, -213230.19, -213230.19, 0.0, 9.995305, 10.000798 
1.7350952e+3, 3.136831e+2, -559259.2, 113763.79, -64584.92, 0.025764601, -0.032447647, 119905.47, 119905.47, 0.0, 9.994516, 10.003421 
1.7450505e+3, 1.2369679e+2, -1090384.4, -1766007.3, 421.1647, -0.055042233, -0.062250875, -1090384.1, 637382.0, 0.045511734, 10.0060835, 9.996716 
1.7450556e+3, 1.3369419e+2, -1080829.3, -1737261.4, 3642.879, 0.17980371, 0.013476086, -1080809.1, 548985.44, 0.03021939, 10.005465, 9.996543 
1.7450552e+3, 1.4369072e+2, -979874.94, -1507140.9, -4651.936, -0.07515361, -0.036443297, -979833.94, 551995.0, 0.015865516, 10.0048485, 9.997746 
1.745058e+3, 1.5368831e+2, -958014.5, -1433111.9, -18978.377, -0.015639976, -0.07113765, -957257.56, 476591.13, 0.005768989, 10.004217, 9.997883 
1.7450602e+3, 1.6368605e+2, -951681.0, -1381653.9, -48287.465, 0.008501574, -0.08299905, -946324.9, 389544.03, 0.0011168, 10.003576, 9.997871 
1.7450616e+3, 1.736841e+2, -952280.44, -1338644.6, -35103.855, -0.017918015, -0.06376514, -949116.94, 288772.0, 0.00004956382, 10.002928, 9.997807 
1.7450629e+3, 1.8368219e+2, -906890.9, -1207421.3, -45271.965, -0.032785583, -0.057601474, -900219.2, 239688.9, 0.0000000000000006446772, 10.002315, 9.99833 
1.7450641e+3, 1.936804e+2, -888295.2, -1145669.8, -53953.42, -0.03339023, -0.078191884, -877442.56, 164481.98, 0.0, 10.0017605, 9.998348 
1.7450655e+3, 2.0367879e+2, -829066.75, -991603.75, -55433.25, -0.033850893, -0.10067317, -811961.4, 131977.36, 0.0, 10.001173, 9.999016 
1.7450668e+3, 2.136776e+2, -822629.25, -933042.5, -57714.27, -0.03246839, -0.13227735, -797969.06, 47979.047, 0.0, 10.0005245, 9.999058 
1.7450681e+3, 2.236766e+2, -804676.4, -866228.44, -60072.34, -0.034380585, -0.13780165, -767955.4, -19998.434, 0.0, 9.999944, 9.999123 
1.7450693e+3, 2.3367609e+2, -778729.56, -808711.4, -55467.99, -0.043433443, -0.1038473, -736262.44, -86298.945, 0.0, 9.999475, 9.999071 
1.745071e+3, 2.4367557e+2, -708556.9, -628605.94, -36191.324, -0.045515236, -0.096267164, -614656.94, -62688.008, 0.0, 9.998873, 9.999924 
1.7450729e+3, 2.5367516e+2, -724897.94, -577412.25, -44836.723, -0.03369815, -0.14242026, -564851.4, -110879.81, 0.0, 9.998053, 9.999997 
1.745075e+3, 2.6367524e+2, -699177.44, -473418.0, -39865.887, -0.029792443, -0.14884928, -466585.06, -110614.414, 0.0, 9.99738, 10.000361 
1.745077e+3, 2.7367625e+2, -664713.5, -406194.6, -39785.207, -0.04445774, -0.089434505, -400210.3, -142248.0, 0.0, 9.996945, 10.00036 
1.7450792e+3, 2.8367704e+2, -627814.1, -302902.7, -22558.75, -0.049424045, -0.059075028, -301343.9, -141387.45, 0.0, 9.996375, 10.00067 
1.745082e+3, 2.9367745e+2, -657788.9, -278836.16, -13852.022, -0.024826402, -0.08919145, -278330.47, -216376.13, 0.0, 9.99555, 10.000561 
1.7450854e+3, 3.036783e+2, -690865.94, -234617.95, 46642.848, -0.008406658, -0.06193004, -229898.4, -229898.4, 0.0, 9.994832, 10.000879 
1.7450897e+3, 3.1367952e+2, -580232.7, 99358.64, -53465.39, 0.019989114, -0.053685784, 103539.2, 103539.2, 0.0, 9.9943905, 10.003381 
1.755057e+3, 1.2369359e+2, -1055559.1, -1689447.3, -34115.855, -0.01804713, -0.071347006, -1053728.3, 674069.1, 0.048158128, 10.006087, 9.997253 
1.7550609e+3, 1.3369134e+2, -1034518.25, -1636601.4, -18762.37, 0.15500586, -0.028520575, -1033934.1, 595885.8, 0.032102864, 10.005467, 9.997233 
1.7550595e+3, 1.4368808e+2, -1007654.1, -1565295.8, -28358.012, -0.12023336, -0.07922881, -1006215.7, 525636.44, 0.016979195, 10.004851, 9.997344 
1.7550623e+3, 1.5368573e+2, -996989.25, -1515740.0, -42550.5, -0.005750244, -0.052067246, -993522.2, 440352.47, 0.006263751, 10.004223, 9.9973135 
1.7550641e+3, 1.6368349e+2, -932902.9, -1343984.8, -72460.2, 0.039719608, -0.04062802, -920504.5, 415391.38, 0.0012503273, 10.003581, 9.998129 
1.7550644e+3, 1.7368151e+2, -924546.3, -1282597.8, -59307.23, -0.02339601, -0.0632807, -914978.4, 322935.72, 0.00006111771, 10.0029335, 9.99819 
1.755065e+3, 1.8367954e+2, -915165.75, -1225864.0, -66361.945, -0.056276634, -0.07854803, -901585.1, 238347.66, 0.0000000010737394, 10.002318, 9.998203 
1.7550658e+3, 1.9367768e+2, -902371.25, -1176255.0, -74028.83, -0.042148434, -0.08607316, -883642.5, 158308.56, 0.0, 10.001765, 9.998137 
1.7550667e+3, 2.0367604e+2, -835859.2, -1006656.4, -78713.34, -0.030508365, -0.09468329, -805116.9, 138849.34, 0.0, 10.001176, 9.998912 
1.7550674e+3, 2.136749e+2, -828266.9, -946100.0, -81193.54, -0.022029856, -0.11137186, -786866.2, 59108.9, 0.0, 10.000528, 9.998967 
1.7550682e+3, 2.2367387e+2, -795728.2, -848817.06, -77744.43, -0.02807782, -0.1218825, -740121.5, 7862.4443, 0.0, 9.999948, 9.999241 
1.7550687e+3, 2.3367308e+2, -768240.6, -787680.56, -71871.73, -0.058058728, -0.12793142, -705434.6, -55442.805, 0.0, 9.9994755, 9.999215 
1.7550696e+3, 2.4367245e+2, -723649.7, -660363.2, -64606.035, -0.06396617, -0.13262309, -620067.3, -68069.05, 0.0, 9.998873, 9.999706 
1.755071e+3, 2.5367215e+2, -742960.06, -617043.1, -74685.266, -0.0301629, -0.13868485, -582320.2, -128319.15, 0.0, 9.99806, 9.999722 
1.7550723e+3, 2.636723e+2, -698556.6, -474499.22, -57184.273, -0.023183158, -0.12323336, -460748.47, -104748.3, 0.0, 9.99739, 10.000351 
1.7550737e+3, 2.7367312e+2, -662996.8, -403105.16, -54636.94, -0.059182785, -0.08604173, -392086.06, -134093.0, 0.0, 9.996945, 10.000381 
1.7550756e+3, 2.8367364e+2, -613292.0, -272617.6, -51004.625, -0.053753164, -0.08980074, -265145.25, -105156.58, 0.0, 9.996374, 10.00088 
1.755078e+3, 2.9367408e+2, -639255.44, -243979.61, -45473.38, 0.015978655, -0.14298384, -238815.72, -176830.27, 0.0, 9.995564, 10.000793 
1.75508e+3, 3.036757e+2, -696029.5, -248465.86, 27634.592, -0.017945064, -0.048294403, -246766.03, -246766.03, 0.0, 9.994844, 10.000778 
1.7550838e+3, 3.1367674e+2, -628854.6, 102.17786, -65089.617, -0.009370089, -0.03644293, 6767.55, 6767.55, 0.0, 9.994382, 10.002705 
1.765063e+3, 1.2369116e+2, -1054004.5, -1679446.8, -478.1681, -0.02274969, -0.0964449, -1054004.1, 673816.8, 0.050890554, 10.006076, 9.997331 
1.7650662e+3, 1.3368936e+2, -1025027.3, -1610628.9, -9183.141, 0.14618014, -0.024910744, -1024883.4, 604955.3, 0.034048434, 10.005453, 9.997422 
1.7650643e+3, 1.4368628e+2, -1006892.94, -1566755.6, -26053.014, -0.1319207, -0.06737488, -1005683.1, 526185.9, 0.0181323, 10.004872, 9.997322 
1.7650664e+3, 1.5368372e+2, -980208.06, -1513372.0, -3131.093, -0.022437306, -0.05700319, -980189.6, 453704.5, 0.0067797857, 10.004369, 9.997259 
1.7650677e+3, 1.6368137e+2, -908696.06, -1336290.5, -25193.234, 0.027366258, -0.052248444, -907216.8, 428699.88, 0.0013925836, 10.003768, 9.99809 
1.7650676e+3, 1.7367946e+2, -915961.75, -1282772.5, -44308.21, -0.019632343, -0.06393351, -910685.56, 327248.6, 0.00007420667, 10.003013, 9.998149 
1.7650676e+3, 1.8367754e+2, -907337.94, -1217325.6, -58114.938, -0.045950193, -0.07353922, -896801.0, 243151.2, 0.000000009428086, 10.002353, 9.998243 
1.7650676e+3, 1.936757e+2, -885769.0, -1162417.0, -46877.133, -0.039626237, -0.08413622, -878041.6, 163928.55, 0.0, 10.001856, 9.998187 
1.7650679e+3, 2.0367403e+2, -821595.4, -1008795.25, -43505.29, -0.031353224, -0.09419932, -811978.75, 132006.83, 0.0, 10.001314, 9.99883 
1.7650682e+3, 2.1367282e+2, -811553.56, -949833.3, -48082.27, -0.020168697, -0.108485, -796478.06, 49517.38, 0.0, 10.000696, 9.998859 
1.7650682e+3, 2.2367169e+2, -778362.5, -840966.94, -46821.805, -0.023655329, -0.1203619, -753343.2, -5338.12, 0.0, 10.000071, 9.999235 
1.7650682e+3, 2.3367083e+2, -774354.6, -789708.1, -51701.984, -0.05013421, -0.13639809, -729762.56, -79749.17, 0.0, 9.999432, 9.999222 
1.7650685e+3, 2.4367015e+2, -733688.9, -671744.1, -49043.93, -0.055277374, -0.1429011, -644711.4, -92691.164, 0.0, 9.998833, 9.999646 
1.7650692e+3, 2.5366998e+2, -713451.25, -611101.1, -44963.46, -0.02798179, -0.13308927, -594154.25, -140131.77, 0.0, 9.9983, 9.999647 
1.76507e+3, 2.636701e+2, -667196.1, -464740.88, -20502.635, -0.02477798, -0.112879336, -462685.44, -106663.55, 0.0, 9.997629, 10.000301 
1.7650707e+3, 2.7367064e+2, -697270.0, -424726.1, -23609.426, -0.053817157, -0.09627719, -422696.03, -164679.16, 0.0, 9.996735, 10.000334 
1.7650719e+3, 2.8367105e+2, -657504.5, -295301.7, -25562.59, -0.038239922, -0.11093901, -293506.5, -133492.83, 0.0, 9.996078, 10.000867 
1.7650737e+3, 2.9367164e+2, -607400.3, -228550.77, -38279.49, 0.03141683, -0.14396143, -224721.66, -162713.02, 0.0, 9.995785, 10.0007925 
1.7650747e+3, 3.0367362e+2, -644324.3, -187129.88, 27240.818, -0.05365679, -0.033896115, -185512.52, -185512.52, 0.0, 9.995046, 10.0011015 
1.7650779e+3, 3.1367442e+2, -741277.8, -77382.51, -18109.867, -0.0004010064, -0.0773453, -76888.87, -76888.87, 0.0, 9.993714, 10.002493 
1.7750686e+3, 1.23689525e+2, -1082254.5, -1734594.3, -34675.42, -0.07186942, -0.13490853, -1080416.5, 647419.94, 0.05370464, 10.006075, 9.996937 
1.7750716e+3, 1.3368827e+2, -1046127.06, -1655012.8, -31400.863, 0.15117082, 0.022840077, -1044512.0, 585338.6, 0.036053833, 10.005461, 9.99711 
1.7750694e+3, 1.4368536e+2, -982412.0, -1515981.9, -45471.734, -0.11326099, -0.0023514226, -978564.56, 553315.1, 0.019322442, 10.00488, 9.99767 
1.7750704e+3, 1.5368229e+2, -948759.0, -1448293.5, -21886.943, -0.0653635, -0.085191, -947801.9, 486105.3, 0.0073145367, 10.004373, 9.9977045 
1.7750709e+3, 1.6367969e+2, -931920.44, -1385599.0, -52479.125, -0.028035276, -0.11601644, -925929.06, 410002.34, 0.0015422545, 10.003772, 9.997751 
1.7750707e+3, 1.7367795e+2, -947181.8, -1349654.9, -72314.81, -0.0074497885, -0.06569257, -934582.94, 303366.16, 0.00008849626, 10.00302, 9.997687 
1.7750701e+3, 1.8367617e+2, -892718.3, -1188581.6, -77504.766, -0.003303024, -0.043012116, -873644.7, 266321.72, 0.000000028818846, 10.002358, 9.998439 
1.7750697e+3, 1.9367442e+2, -864376.5, -1119208.0, -64912.46, -0.026916921, -0.07329325, -848794.4, 193187.88, 0.0, 10.001859, 9.998483 
1.7750691e+3, 2.0367274e+2, -825837.25, -1018443.3, -65644.41, -0.03768054, -0.09975503, -805592.1, 138405.1, 0.0, 10.001316, 9.998764 
1.7750688e+3, 2.1367131e+2, -819778.2, -968231.56, -70374.56, -0.027085774, -0.12297985, -791720.1, 54289.53, 0.0, 10.000699, 9.998733 
1.7750683e+3, 2.2367008e+2, -787300.75, -860733.3, -69821.66, -0.02112305, -0.13255987, -745130.06, 2890.6482, 0.0, 10.000073, 9.999099 
1.775068e+3, 2.3366927e+2, -783142.75, -809587.06, -74591.36, -0.021379367, -0.12959145, -720610.75, -70581.81, 0.0, 9.999436, 9.999084 
1.7750677e+3, 2.4366863e+2, -726431.0, -658009.0, -68674.48, -0.021767886, -0.12785374, -615495.94, -63460.664, 0.0, 9.998837, 9.99974 
1.7750674e+3, 2.536685e+2, -704592.1, -593837.06, -63865.348, -0.026807291, -0.12713106, -564683.8, -110647.016, 0.0, 9.998302, 9.999764 
1.7750674e+3, 2.6366848e+2, -673295.0, -478696.03, -51686.594, -0.034048665, -0.11870773, -465819.75, -109783.0, 0.0, 9.997633, 10.000205 
1.7750676e+3, 2.7366877e+2, -704415.4, -442469.66, -56304.87, -0.032884844, -0.118839264, -430879.8, -172845.31, 0.0, 9.996744, 10.000208 
1.7750683e+3, 2.8366908e+2, -671924.3, -327771.34, -38775.914, -0.007537898, -0.12186251, -323456.53, -163424.33, 0.0, 9.996087, 10.00064 
1.7750694e+3, 2.936701e+2, -622994.56, -261797.34, -49222.504, 0.02399253, -0.09430621, -255209.66, -193184.8, 0.0, 9.995787, 10.000565 
1.7750692e+3, 3.0367187e+2, -593506.4, -80966.53, -18821.158, -0.11270945, -0.023269532, -80276.32, -80276.32, 0.0, 9.995042, 10.001833 
1.7750719e+3, 3.1367272e+2, -721657.75, -39835.055, -46258.188, 0.032172967, -0.13976517, -36710.99, -36710.99, 0.0, 9.993724, 10.002748 
1.7850746e+3, 1.236893e+2, -1081369.6, -1754179.9, -6264.351, -0.091555975, -0.112771824, -1081311.3, 646527.1, 0.056611527, 10.006189, 9.996746 
1.7850772e+3, 1.3368756e+2, -1007382.75, -1647879.1, 24060.438, 0.13443182, 0.007440726, -1006480.2, 623377.1, 0.03812348, 10.005805, 9.996992 
1.7850745e+3, 1.4368449e+2, -935032.5, -1495175.1, -355.77393, -0.11762353, -0.023453547, -935032.3, 596855.3, 0.020550441, 10.005231, 9.997645 
1.7850748e+3, 1.5368173e+2, -956146.4, -1453295.1, -11413.996, -0.06462514, -0.07581659, -955884.44, 478028.16, 0.007867459, 10.004332, 9.997688 
1.7850746e+3, 1.6367917e+2, -954820.3, -1404160.8, -47157.594, -0.026742384, -0.098220736, -949924.56, 386011.84, 0.0016987458, 10.003649, 9.997682 
1.7850737e+3, 1.7367706e+2, -907499.44, -1339468.5, -39266.547, -0.013300137, -0.076976985, -903959.06, 333998.2, 0.000103756975, 10.003334, 9.997605 
1.7850727e+3, 1.8367507e+2, -833147.7, -1167050.4, -42640.008, -0.008547485, -0.06732884, -827788.5, 312187.97, 0.0000000562377, 10.002801, 9.998372 
1.7850716e+3, 1.936734e+2, -862300.0, -1125475.4, -57793.44, -0.019634197, -0.082562864, -850167.8, 191824.03, 0.0, 10.001907, 9.998416 
1.7850704e+3, 2.0367181e+2, -839464.44, -1019559.8, -63829.08, -0.02723889, -0.09860594, -819136.7, 124869.45, 0.0, 10.0012, 9.998811 
1.7850694e+3, 2.1367046e+2, -799535.4, -951484.1, -54821.355, -0.02891281, -0.12000168, -781821.5, 64196.055, 0.0, 10.00081, 9.998794 
1.7850685e+3, 2.2366923e+2, -755783.44, -849227.1, -48738.625, -0.02819594, -0.13134412, -734989.5, 13039.105, 0.0, 10.000307, 9.999065 
1.7850675e+3, 2.336683e+2, -761649.4, -804550.2, -47902.324, -0.021741565, -0.13504988, -730614.06, -80576.03, 0.0, 9.999608, 9.999035 
1.7850667e+3, 2.4366765e+2, -711272.6, -648891.3, -38016.125, -0.014955884, -0.13339111, -630907.94, -78863.3, 0.0, 9.998935, 9.999755 
1.785066e+3, 2.536676e+2, -704078.7, -591459.7, -40851.047, -0.013479932, -0.123569794, -578202.2, -124157.25, 0.0, 9.998297, 9.9997835 
1.7850652e+3, 2.636676e+2, -673984.5, -488573.56, -37624.98, -0.025397485, -0.11492059, -481229.3, -125184.17, 0.0, 9.997668, 10.000119 
1.7850645e+3, 2.7366766e+2, -667084.44, -436406.53, -41018.516, -0.04262295, -0.12675656, -429329.8, -171284.69, 0.0, 9.997052, 10.000101 
1.7850645e+3, 2.8366795e+2, -642079.25, -322541.84, -13495.39, -0.011186146, -0.12447415, -321972.88, -161929.4, 0.0, 9.996332, 10.000558 
1.7850654e+3, 2.9366913e+2, -680964.44, -294682.28, -13273.6455, 0.0541451, -0.06947387, -294226.7, -232192.3, 0.0, 9.995411, 10.00052 
1.7850639e+3, 3.0367053e+2, -646556.44, -68305.47, -933.609, -0.11342982, -0.052273996, -68303.96, -68303.96, 0.0, 9.994514, 10.002173 
1.7850657e+3, 3.13672e+2, -694611.75, -16916.61, -34206.34, 0.019410135, -0.14213423, -15194.4375, -15194.4375, 0.0, 9.993868, 10.002835 
1.7950808e+3, 1.236905e+2, -1083609.6, -1755473.8, -34018.523, -0.08933526, -0.030403089, -1081891.6, 645935.3, 0.059629638, 10.006191, 9.9967375 
1.7950825e+3, 1.3368723e+2, -1003532.9, -1637811.3, 10540.989, 0.097055815, -0.069645695, -1003357.75, 626500.94, 0.040267065, 10.00581, 9.99706 
1.7950794e+3, 1.4368375e+2, -962230.06, -1552225.0, -31554.352, -0.1438164, -0.12853591, -960547.25, 571345.5, 0.021821393, 10.005236, 9.997248 
1.7950794e+3, 1.5368202e+2, -987748.1, -1521236.1, -44907.54, -0.022678526, -0.02976707, -983994.3, 449916.13, 0.008441412, 10.00434, 9.997219 
1.7950788e+3, 1.636798e+2, -941047.4, -1377609.5, -61384.508, 0.028206123, -0.00074784586, -932580.4, 403351.53, 0.001862729, 10.003656, 9.997862 
1.7950769e+3, 1.7367677e+2, -887112.25, -1298707.9, -50447.625, -0.03720537, -0.09790959, -881019.25, 356939.6, 0.00011998233, 10.003339, 9.997883 
1.7950751e+3, 1.8367423e+2, -855645.4, -1214928.4, -73217.305, -0.061564315, -0.14530829, -841297.56, 298684.97, 0.000000085167756, 10.002804, 9.998043 
1.7950734e+3, 1.9367264e+2, -890944.56, -1186995.8, -90708.5, -0.018312793, -0.11121545, -865362.56, 176636.63, 0.0, 10.001914, 9.997992 
1.795072e+3, 2.0367123e+2, -828136.2, -997746.8, -79950.15, -0.00059248396, -0.09070753, -796391.2, 147621.39, 0.0, 10.001205, 9.99896 
1.7950703e+3, 2.1367022e+2, -782605.06, -917380.5, -68127.16, -0.026415545, -0.10047234, -754167.9, 91851.95, 0.0, 10.000813, 9.999027 
1.7950685e+3, 2.2366911e+2, -751041.06, -839951.0, -72683.56, -0.04582927, -0.11758946, -710295.4, 37733.875, 0.0, 10.000307, 9.999129 
1.7950667e+3, 2.336679e+2, -758732.9, -799839.06, -73250.695, -0.050772943, -0.15330556, -703206.44, -53165.055, 0.0, 9.999612, 9.999066 
1.7950654e+3, 2.4366714e+2, -715324.5, -658399.7, -61307.457, -0.034257248, -0.15967418, -619269.9, -67220.89, 0.0, 9.998938, 9.999689 
1.7950645e+3, 2.5366732e+2, -708813.1, -602517.2, -63563.516, 0.009109313, -0.120871484, -572809.7, -118762.195, 0.0, 9.998301, 9.999707 
1.7950632e+3, 2.6366735e+2, -678553.3, -499425.6, -59987.582, -0.0015628068, -0.1009353, -481192.44, -125144.79, 0.0, 9.997673, 10.000044 
1.7950612e+3, 2.7366722e+2, -672362.9, -449716.8, -62813.227, -0.080111496, -0.12370645, -433218.4, -175168.61, 0.0, 9.997061, 10.000007 
1.7950605e+3, 2.8366747e+2, -636856.25, -313619.66, -45912.94, -0.04671476, -0.120874286, -307224.63, -147176.27, 0.0, 9.996339, 10.000617 
1.7950614e+3, 2.9366872e+2, -671499.7, -276436.47, -48601.188, 0.11338836, -0.06582614, -270545.34, -208507.61, 0.0, 9.995415, 10.000644 
1.795059e+3, 3.0366948e+2, -650943.6, -77716.49, -28771.271, -0.06335727, -0.1211825, -76276.03, -76276.03, 0.0, 9.994515, 10.002109 
1.7950588e+3, 3.1367204e+2, -693477.44, -18048.268, -23684.092, -0.04258193, -0.09310427, -17218.797, -17218.797, 0.0, 9.993879, 10.002824 
1.8050867e+3, 1.2369131e+2, -1072495.8, -1751288.9, -28992.525, -0.10736645, -0.026763001, -1071259.8, 656558.6, 0.062775135, 10.006301, 9.996713 
1.8050882e+3, 1.3368787e+2, -979390.4, -1621333.6, 26036.262, 0.07952049, -0.08650887, -978336.06, 651515.25, 0.04249754, 10.005977, 9.997094 
1.8050848e+3, 1.4368436e+2, -929826.44, -1552881.0, -23380.844, -0.1439226, -0.14409217, -928950.3, 602935.5, 0.023144297, 10.005546, 9.997093 
1.8050842e+3, 1.5368257e+2, -918071.5, -1508352.8, -19130.463, -0.018714054, -0.033098567, -917452.2, 516452.66, 0.00904165, 10.004919, 9.997027 
1.8050827e+3, 1.6368029e+2, -862583.5, -1338764.6, -24057.727, 0.034467984, 0.0012577211, -861371.1, 474555.9, 0.002035839, 10.004195, 9.997868 
1.8050802e+3, 1.7367725e+2, -886350.75, -1294286.0, -30537.31, -0.035570696, -0.10120305, -884077.44, 353876.2, 0.00013739963, 10.003329, 9.997917 
1.8050778e+3, 1.8367465e+2, -885950.0, -1238833.8, -57299.77, -0.06415496, -0.15188628, -876879.06, 263098.56, 0.00000010953618, 10.002638, 9.997958 
1.8050756e+3, 1.9367296e+2, -849946.7, -1178917.4, -52569.215, -0.022907058, -0.11762895, -841750.4, 200245.2, 0.0, 10.002248, 9.997885 
1.8050733e+3, 2.0367147e+2, -761996.06, -966616.0, -34173.008, -0.003180764, -0.09871545, -756439.8, 187570.13, 0.0, 10.001665, 9.99895 
1.8050711e+3, 2.1367043e+2, -790236.2, -920179.0, -39432.85, -0.021526791, -0.112983026, -779206.06, 66811.15, 0.0, 10.000759, 9.999033 
1.8050689e+3, 2.236693e+2, -789514.75, -859027.8, -52183.984, -0.03998619, -0.12939744, -761572.1, -13545.484, 0.0, 10.000047, 9.999124 
1.8050665e+3, 2.336682e+2, -752929.06, -798629.44, -56227.33, -0.054044098, -0.15497042, -715086.2, -65047.77, 0.0, 9.99966, 9.999052 
1.8050644e+3, 2.436675e+2, -689241.4, -646637.6, -50317.434, -0.0410411, -0.15506877, -613298.75, -61252.996, 0.0, 9.99912, 9.999682 
1.8050627e+3, 2.5366762e+2, -706452.4, -601799.25, -48257.867, 0.007265912, -0.11819301, -582943.75, -128899.6, 0.0, 9.99832, 9.999702 
1.8050607e+3, 2.636676e+2, -692248.94, -509258.4, -36695.934, -0.0005884959, -0.103449926, -502173.9, -146128.98, 0.0, 9.997594, 10.000014 
1.8050581e+3, 2.7366737e+2, -687775.5, -462041.9, -36033.367, -0.07802071, -0.13261378, -456429.53, -198380.92, 0.0, 9.996975, 9.999964 
1.805057e+3, 2.836677e+2, -633255.06, -303183.94, -22888.3, -0.043890078, -0.12000269, -301604.34, -141558.08, 0.0, 9.996325, 10.000695 
1.805057e+3, 2.9366934e+2, -638114.06, -246855.42, -27423.244, 0.114444345, -0.04133095, -244942.69, -182911.05, 0.0, 9.995585, 10.000764 
1.8050537e+3, 3.0366957e+2, -655427.56, -109016.78, -17058.697, -0.056982838, -0.13909966, -108484.734, -108484.734, 0.0, 9.994614, 10.001844 
1.8050526e+3, 3.1367224e+2, -735634.6, -33315.836, 11340.404, -0.04139288, -0.06826777, -33132.77, -33132.77, 0.0, 9.993567, 10.00287 
1.8150927e+3, 1.2369179e+2, -1077019.5, -1758507.3, -52516.848, -0.14795777, -0.09909653, -1072996.3, 654816.0, 0.0660597, 10.0063095, 9.996661 
1.8150942e+3, 1.3368948e+2, -980820.44, -1621392.0, 15303.278, 0.07837475, -0.04498781, -980455.06, 649380.2, 0.04482771, 10.005978, 9.997094 
1.8150906e+3, 1.436863e+2, -925979.9, -1543544.3, -45096.074, -0.122087926, -0.07223744, -922704.25, 609162.5, 0.024529027, 10.005546, 9.997158 
1.8150887e+3, 1.5368335e+2, -912568.25, -1498166.4, -42497.605, -0.051766053, -0.08465878, -909500.2, 524395.56, 0.009673515, 10.004925, 9.997095 
1.8150866e+3, 1.6368063e+2, -873242.06, -1362913.8, -55445.047, -0.006629467, -0.0893685, -867042.56, 468879.3, 0.0022200171, 10.004203, 9.997699 
1.8150839e+3, 1.7367844e+2, -899455.06, -1323480.3, -62676.72, -0.009886845, -0.08720238, -890384.6, 347557.22, 0.00015638173, 10.003336, 9.997714 
1.8150808e+3, 1.8367629e+2, -875251.7, -1218412.1, -73719.19, -0.018451769, -0.08910529, -860085.3, 279876.75, 0.00000012908751, 10.002645, 9.998096 
1.8150778e+3, 1.936743e+2, -835835.75, -1151188.0, -66325.49, -0.03372053, -0.10289927, -822453.9, 219527.8, 0.0, 10.002253, 9.998074 
1.8150747e+3, 2.0367247e+2, -772891.4, -990324.9, -65068.875, -0.035283357, -0.12238496, -754906.56, 189092.14, 0.0, 10.001668, 9.998787 
1.8150719e+3, 2.13671e+2, -804691.3, -952004.5, -72587.81, -0.015376827, -0.15679102, -774934.7, 71075.49, 0.0, 10.000765, 9.998813 
1.815069e+3, 2.236698e+2, -794802.06, -871296.3, -68145.85, -0.011908803, -0.16613488, -754903.8, -6882.736, 0.0, 10.000051, 9.999038 
1.8150663e+3, 2.3366913e+2, -756980.25, -807999.6, -69281.3, -0.032919377, -0.1400875, -708661.44, -58631.668, 0.0, 9.999661, 9.998988 
1.8150635e+3, 2.4366862e+2, -685462.5, -639703.1, -77428.06, -0.036335018, -0.12051854, -581845.06, -29809.342, 0.0, 9.999122, 9.99973 
1.8150608e+3, 2.536685e+2, -701414.6, -593292.56, -77354.88, -0.018545888, -0.117320456, -552980.0, -98944.32, 0.0, 9.998325, 9.99976 
1.8150581e+3, 2.6366827e+2, -690621.7, -506800.75, -59819.445, -0.02205833, -0.12343439, -489048.56, -133010.8, 0.0, 9.997596, 10.0000305 
1.8150556e+3, 2.7366805e+2, -687289.7, -460949.2, -57745.574, -0.040697344, -0.15111262, -447068.03, -189026.0, 0.0, 9.996973, 9.999973 
1.8150535e+3, 2.8366867e+2, -625636.75, -288998.84, -48788.48, -0.0071390574, -0.120597646, -282070.6, -122032.87, 0.0, 9.996328, 10.0007925 
1.815052e+3, 2.9367077e+2, -627492.44, -229879.55, -56152.91, 0.060093056, -0.00028267747, -222101.5, -160084.16, 0.0, 9.9956045, 10.000874 
1.8150479e+3, 3.0367076e+2, -687236.06, -177064.05, -59176.125, -0.088758305, -0.107453056, -170290.02, -170290.02, 0.0, 9.994623, 10.001372 
1.8150467e+3, 3.1367233e+2, -727962.6, -17275.11, 9072.768, 0.005658734, -0.096457295, -17159.303, -17159.303, 0.0, 9.993565, 10.002983 
1.8250994e+3, 1.2369346e+2, -969139.7, -1722216.0, -31433.115, -0.16085026, -0.13327838, -967830.0, 759964.4, 0.06949126, 10.007214, 9.996474 
1.8251e+3, 1.3369124e+2, -975701.25, -1636997.9, 35672.105, 0.06635622, -0.052233055, -973782.56, 656034.8, 0.047265653, 10.006111, 9.996921 
1.825096e+3, 1.4368816e+2, -953716.9, -1546848.6, -23004.785, -0.11455759, -0.0633121, -952826.0, 579022.1, 0.025981955, 10.005315, 9.997246 
1.8250936e+3, 1.5368514e+2, -892777.44, -1474501.3, -15583.183, -0.061755985, -0.09505915, -892360.3, 541516.6, 0.010340604, 10.005008, 9.997217 
1.8250908e+3, 1.6368234e+2, -841562.1, -1362448.5, -38617.387, -0.021435361, -0.10910768, -838714.7, 497188.97, 0.0024169267, 10.004489, 9.997562 
1.8250872e+3, 1.7368005e+2, -871359.06, -1329951.1, -46813.453, -0.008300839, -0.09833926, -866629.06, 371296.44, 0.00017728018, 10.003617, 9.997533 
1.8250836e+3, 1.8367793e+2, -837491.94, -1184471.8, -45123.477, -0.010421194, -0.09197218, -831719.8, 308225.84, 0.00000015151502, 10.002837, 9.998236 
1.8250799e+3, 1.936762e+2, -828224.06, -1126851.0, -36911.19, -0.03670126, -0.09801382, -823729.4, 218232.44, 0.0, 10.002218, 9.998257 
1.8250763e+3, 2.0367439e+2, -789109.75, -1013321.9, -42623.617, -0.04278385, -0.120366685, -781280.25, 162698.1, 0.0, 10.001624, 9.99865 
1.8250729e+3, 2.1367255e+2, -773788.2, -958001.4, -49794.47, -0.015533065, -0.17500485, -761189.94, 84804.42, 0.0, 10.001069, 9.998624 
1.8250695e+3, 2.2367121e+2, -745460.5, -852083.44, -38845.242, -0.0039667794, -0.18433091, -732809.3, 15197.725, 0.0, 10.00041, 9.998997 
1.825066e+3, 2.3367085e+2, -770453.06, -816295.25, -36373.72, -0.017340787, -0.12488828, -750380.9, -100367.71, 0.0, 9.999579, 9.998969 
1.8250626e+3, 2.4367042e+2, -720105.44, -650255.4, -44195.05, -0.027163075, -0.09868197, -628851.4, -76833.09, 0.0, 9.998859, 9.9997835 
1.8250589e+3, 2.5366998e+2, -698066.7, -585438.4, -44605.418, -0.035751775, -0.13278663, -569912.94, -115892.41, 0.0, 9.998322, 9.999815 
1.8250555e+3, 2.636697e+2, -680710.06, -496886.1, -29664.574, -0.038220618, -0.14940858, -492217.53, -136194.75, 0.0, 9.997642, 10.000077 
1.8250526e+3, 2.7366987e+2, -721177.5, -472307.4, -26013.15, -0.017395237, -0.14415757, -469617.44, -211593.52, 0.0, 9.996721, 10.000016 
1.82505e+3, 2.8367057e+2, -660547.06, -304458.1, -8229.149, 0.010821285, -0.108610466, -304268.0, -144248.97, 0.0, 9.996084, 10.000804 
1.8250473e+3, 2.936723e+2, -594784.6, -213064.6, -24460.502, 0.017176833, -0.024910944, -211503.56, -149501.78, 0.0, 9.995825, 10.000883 
1.8250427e+3, 3.0367246e+2, -656421.2, -185808.63, -52911.75, -0.08490745, -0.10875232, -179933.03, -179933.03, 0.0, 9.994938, 10.00116 
1.8250403e+3, 3.136737e+2, -739593.1, 3920.67, 65699.12, 0.022085432, -0.10229002, 9681.408, 9681.408, 0.0, 9.993368, 10.003223 
1.8351068e+3, 1.2369631e+2, -994911.2, -1771748.1, -80715.51, -0.15732464, -0.12924126, -986613.25, 741151.44, 0.07307675, 10.007204, 9.996141 
1.835106e+3, 1.3369317e+2, -998783.94, -1687005.3, -3380.3706, 0.044959806, -0.10664544, -998767.3, 631030.2, 0.049816743, 10.0061245, 9.996571 
1.8351012e+3, 1.4368996e+2, -944684.1, -1530559.0, -37980.33, -0.11922139, -0.1150101, -942232.25, 589597.44, 0.02750729, 10.005334, 9.99735 
1.8350987e+3, 1.5368791e+2, -880478.7, -1448890.0, -26480.973, -0.050999, -0.06600681, -879247.7, 554600.8, 0.011045553, 10.005011, 9.997393 
1.8350953e+3, 1.6368537e+2, -850214.3, -1380163.6, -68510.64, -0.012984699, -0.06065873, -841500.7, 494372.03, 0.002628029, 10.004486, 9.997444 
1.8350907e+3, 1.7368206e+2, -882018.75, -1354314.9, -79287.83, -0.030809756, -0.13408306, -869063.5, 368841.5, 0.00020043373, 10.003625, 9.997363 
1.8350862e+3, 1.8367961e+2, -826932.3, -1165064.0, -69166.25, -0.03964669, -0.15791644, -813331.2, 326597.4, 0.00000018976193, 10.002847, 9.998365 
1.8350822e+3, 1.9367866e+2, -814992.9, -1101283.3, -59311.082, -0.032750834, -0.10268144, -803191.8, 238744.5, 0.0, 10.002224, 9.99843 
1.835078e+3, 2.036772e+2, -797217.3, -1031261.1, -63112.805, -0.026764167, -0.09379311, -781283.0, 162666.38, 0.0, 10.001627, 9.998527 
1.8350738e+3, 2.1367499e+2, -785227.06, -982726.56, -69617.46, -0.022223651, -0.16857411, -763154.2, 82816.08, 0.0, 10.001071, 9.998454 
1.8350697e+3, 2.236735e+2, -745418.0, -852550.2, -67859.305, -0.01636529, -0.18478025, -712530.56, 35454.715, 0.0, 10.000411, 9.998994 
1.8350656e+3, 2.336733e+2, -768396.75, -813277.56, -66471.52, -0.008107014, -0.10987326, -720679.94, -70690.67, 0.0, 9.999582, 9.998989 
1.8350616e+3, 2.4367285e+2, -716343.94, -642843.1, -64758.68, -0.0143118575, -0.08944668, -605133.6, -53139.41, 0.0, 9.998859, 9.999835 
1.8350573e+3, 2.5367206e+2, -693871.1, -576957.75, -63404.73, -0.045842256, -0.16374987, -549174.4, -95175.06, 0.0, 9.998322, 9.999874 
1.8350531e+3, 2.6367185e+2, -675881.06, -488084.9, -61633.445, -0.050240126, -0.1810092, -469664.13, -113663.34, 0.0, 9.997644, 10.000137 
1.8350494e+3, 2.736727e+2, -715709.94, -463978.1, -59564.375, -0.0076454193, -0.11312642, -450595.5, -192600.06, 0.0, 9.996731, 10.00007 
1.835046e+3, 2.836733e+2, -663820.3, -313112.47, -20009.13, 0.0100646205, -0.086077884, -311974.6, -151983.17, 0.0, 9.996091, 10.000742 
1.8350427e+3, 2.936738e+2, -601030.8, -225753.02, -35278.527, -0.019416662, -0.11557534, -222465.4, -160479.52, 0.0, 9.995822, 10.000798 
1.8350379e+3, 3.0367455e+2, -653815.9, -180654.73, -109487.31, -0.0480583, -0.13796459, -156548.06, -156548.06, 0.0, 9.994937, 10.001197 
1.8350336e+3, 3.1367642e+2, -718234.7, 42095.57, 24766.775, 0.010889085, -0.07930792, 42901.46, 42901.46, 0.0, 9.993391, 10.003477 
1.8451136e+3, 1.23699605e+2, -1054549.4, -1799134.8, -73449.91, -0.14869249, -0.124452785, -1047373.0, 680359.4, 0.07682264, 10.006775, 9.99616 
1.8451123e+3, 1.3369635e+2, -878445.1, -1623215.5, 39616.773, 0.018333795, -0.11620145, -876343.7, 753421.8, 0.052488625, 10.007004, 9.996586 
1.8451072e+3, 1.4369303e+2, -781805.9, -1468751.8, -4813.096, -0.13059798, -0.12893854, -781772.1, 750026.06, 0.02911125, 10.006574, 9.997188 
1.8451038e+3, 1.5369076e+2, -891581.4, -1475898.8, -23038.666, -0.0511666, -0.08469772, -890674.4, 543145.25, 0.011791918, 10.005032, 9.997196 
1.8450996e+3, 1.6368811e+2, -916764.6, -1404066.5, -60848.1, -0.010144499, -0.078597866, -909281.56, 426563.2, 0.0028549915, 10.003994, 9.997516 
1.8450943e+3, 1.7368504e+2, -848348.1, -1325792.1, -49834.152, -0.042994607, -0.14205544, -843202.06, 394672.88, 0.00022636405, 10.003805, 9.997472 
1.845089e+3, 1.8368262e+2, -759754.3, -1134554.1, -42375.965, -0.05497961, -0.16591491, -755022.9, 384875.03, 0.00000025167606, 10.003319, 9.998346 
1.8450844e+3, 1.9368148e+2, -802078.0, -1099642.9, -50450.633, -0.030651858, -0.12722793, -793757.06, 248150.5, 0.0, 10.002336, 9.998386 
1.8450797e+3, 2.0368001e+2, -813033.75, -1036883.3, -50798.438, -0.018248856, -0.11756704, -802045.4, 141875.56, 0.0, 10.001512, 9.998543 
1.8450749e+3, 2.1367812e+2, -800169.1, -987441.4, -42283.246, -0.02573056, -0.1622445, -791064.8, 54874.66, 0.0, 10.000959, 9.998475 
1.84507e+3, 2.2367676e+2, -755598.9, -851541.8, -39458.875, -0.023643112, -0.16733457, -741455.4, 6497.9175, 0.0, 10.000318, 9.999044 
1.8450654e+3, 2.3367642e+2, -773941.3, -810404.6, -37851.76, -0.0065990253, -0.113283336, -750159.3, -100201.06, 0.0, 9.999522, 9.999037 
1.8450604e+3, 2.4367586e+2, -729241.94, -647523.2, -29920.451, -0.009857679, -0.10510095, -637739.5, -85775.73, 0.0, 9.998766, 9.999847 
1.8450554e+3, 2.536751e+2, -731383.7, -593823.1, -31742.693, -0.043401398, -0.17622794, -586851.7, -132882.98, 0.0, 9.998061, 9.999882 
1.8450506e+3, 2.6367497e+2, -709295.56, -505891.22, -37810.496, -0.04341059, -0.18517675, -499090.1, -143120.5, 0.0, 9.997426, 10.000119 
1.8450463e+3, 2.7367595e+2, -690779.3, -454497.6, -41945.074, 0.0015842911, -0.10405045, -447272.38, -189309.0, 0.0, 9.996915, 10.000046 
1.845042e+3, 2.8367648e+2, -644350.2, -284698.56, 1232.1871, 0.0019242334, -0.08811633, -284694.34, -124734.69, 0.0, 9.996143, 10.000911 
1.8450378e+3, 2.9367682e+2, -718829.75, -260523.52, 3608.7085, -0.042620473, -0.15764007, -260495.11, -198539.53, 0.0, 9.994922, 10.000992 
1.8450332e+3, 3.0367815e+2, -769822.56, -242970.81, -62432.72, 0.015618467, -0.12577826, -235673.52, -235673.52, 0.0, 9.99417, 10.001137 
1.845027e+3, 3.1367958e+2, -621311.0, 62543.434, 61103.938, -0.014604586, -0.10189117, 67960.3, 67960.3, 0.0, 9.99417, 10.003241 
1.8551207e+3, 1.2370337e+2, -1031207.0, -1745383.4, -74822.016, -0.13810293, -0.118669085, -1023452.4, 704244.9, 0.08072926, 10.006796, 9.99652 
1.855119e+3, 1.3370074e+2, -856590.7, -1572569.6, 48539.24, -0.016814003, -0.08348617, -853315.0, 776406.56, 0.055287573, 10.006999, 9.996957 
1.8551135e+3, 1.4369732e+2, -814173.2, -1531825.1, -53107.69, -0.1529307, -0.107283205, -810264.44, 721489.56, 0.030800892, 10.006564, 9.996748 
1.8551086e+3, 1.5369363e+2, -929903.5, -1558845.0, -80688.29, -0.062211692, -0.1490551, -919716.8, 514073.47, 0.012584484, 10.005044, 9.996622 
1.8551037e+3, 1.6369063e+2, -896317.75, -1365920.8, -73755.87, -0.01238709, -0.15923014, -885006.1, 450813.34, 0.003100143, 10.004012, 9.99777 
1.855098e+3, 1.736889e+2, -820867.75, -1270262.0, -55908.582, -0.045700405, -0.12334734, -814016.7, 423819.0, 0.00025589456, 10.00381, 9.997851 
1.8550923e+3, 1.8368693e+2, -772281.06, -1160749.6, -75278.414, -0.05800851, -0.11893455, -758203.56, 381650.78, 0.0000003514084, 10.003317, 9.998168 
1.8550868e+3, 1.9368461e+2, -819831.4, -1138167.0, -86844.7, -0.031073589, -0.17100118, -797680.75, 244195.14, 0.0, 10.00234, 9.99812 
1.8550812e+3, 2.0368277e+2, -801759.9, -1015216.5, -72821.68, -0.017649323, -0.18939994, -779283.2, 164610.08, 0.0, 10.001517, 9.99869 
1.8550758e+3, 2.1368185e+2, -785162.3, -957289.25, -61626.164, -0.026965799, -0.15637979, -765373.5, 80528.96, 0.0, 10.000962, 9.998682 
1.8550703e+3, 2.2368094e+2, -749462.06, -838937.6, -67178.766, -0.026477266, -0.13298598, -713487.6, 34424.27, 0.0, 10.000317, 9.999132 
1.8550646e+3, 2.3368011e+2, -768943.94, -800898.5, -66549.27, -0.01292781, -0.13473292, -716480.9, -66560.11, 0.0, 9.999524, 9.999103 
1.8550593e+3, 2.4367939e+2, -731251.94, -652634.3, -55935.164, -0.014309489, -0.14550707, -623577.0, -71649.234, 0.0, 9.998768, 9.999812 
1.8550536e+3, 2.5367904e+2, -734096.4, -600942.25, -57290.617, -0.030039009, -0.17085123, -579685.8, -125756.18, 0.0, 9.998066, 9.999832 
1.8550484e+3, 2.6367903e+2, -716118.8, -520716.5, -57332.99, -0.018519916, -0.162332, -505136.66, -149206.48, 0.0, 9.997427, 10.000017 
1.8550433e+3, 2.736795e+2, -697862.1, -469765.5, -59876.516, 0.0095978035, -0.11687303, -455003.03, -197074.44, 0.0, 9.996916, 9.999941 
1.8550381e+3, 2.8368002e+2, -616905.56, -228874.66, -41055.0, -0.01500834, -0.11427847, -224578.45, -64653.746, 0.0, 9.996146, 10.001294 
1.8550326e+3, 2.9368114e+2, -685603.25, -194233.03, -42686.21, -0.05466777, -0.1512624, -190552.38, -128640.38, 0.0, 9.99493, 10.001444 
1.8550283e+3, 3.036831e+2, -777671.2, -262423.13, -67575.94, 0.105531074, -0.0755772, -253707.8, -253707.8, 0.0, 9.994183, 10.000998 
1.855021e+3, 3.136837e+2, -677056.75, -55727.973, 42905.094, -0.043808844, -0.10896765, -52779.207, -52779.207, 0.0, 9.994181, 10.002423 
1.865128e+3, 1.237081e+2, -874115.75, -1676724.0, -36978.965, -0.13639222, -0.10438052, -872415.6, 855235.44, 0.0847884, 10.008049, 9.996414 
1.8651257e+3, 1.3370524e+2, -892410.8, -1601972.6, 58422.05, -0.027670661, -0.07953966, -887632.8, 742044.44, 0.058212753, 10.006816, 9.996832 
1.86512e+3, 1.4370167e+2, -896646.06, -1569745.3, -60385.867, -0.13998537, -0.113261454, -891271.56, 640439.3, 0.032579783, 10.005978, 9.99677 
1.865114e+3, 1.536979e+2, -829932.7, -1504914.3, -46406.2, -0.073226586, -0.16722555, -826757.1, 606990.3, 0.01342763, 10.005724, 9.996664 
1.865108e+3, 1.6369487e+2, -748179.2, -1300620.9, -19966.93, -0.03112507, -0.1784321, -747458.44, 588318.2, 0.003366264, 10.005064, 9.997711 
1.8651018e+3, 1.7369325e+2, -835374.4, -1286136.0, -35591.117, -0.046588592, -0.12501585, -832581.5, 405210.7, 0.0002899581, 10.003751, 9.99777 
1.8650956e+3, 1.8369126e+2, -848147.5, -1198709.3, -65598.56, -0.052348394, -0.11552423, -836274.5, 303536.7, 0.00000050835786, 10.002804, 9.998154 
1.8650891e+3, 1.9368878e+2, -802981.5, -1130800.8, -58427.53, -0.0379829, -0.18302178, -792879.25, 248955.31, 0.0, 10.0024605, 9.998113 
1.8650828e+3, 2.0368698e+2, -744288.1, -971239.94, -38982.78, -0.028888883, -0.20421077, -737778.9, 206072.86, 0.0, 10.001843, 9.998833 
1.8650767e+3, 2.1368642e+2, -801472.75, -946842.56, -32896.3, -0.028196793, -0.15260358, -794375.06, 51482.188, 0.0, 10.000773, 9.998843 
1.8650705e+3, 2.2368562e+2, -802649.0, -855049.4, -35118.13, -0.021396833, -0.12927814, -785034.44, -37169.305, 0.0, 9.999912, 9.999215 
1.8650642e+3, 2.3368455e+2, -782669.56, -799767.4, -33681.965, -0.010382055, -0.16157703, -756468.5, -106592.69, 0.0, 9.999399, 9.999169 
1.8650578e+3, 2.436838e+2, -731938.3, -652804.25, -25540.531, -0.015642677, -0.17844681, -645277.0, -93393.96, 0.0, 9.998765, 9.99981 
1.8650517e+3, 2.536838e+2, -756354.4, -613798.56, -25943.795, -0.030957824, -0.16970898, -609223.8, -155341.36, 0.0, 9.997925, 9.99981 
1.8650457e+3, 2.6368386e+2, -749684.25, -526594.8, -12576.751, -0.007505223, -0.15291797, -525888.06, -170005.84, 0.0, 9.997154, 10.000108 
1.8650402e+3, 2.7368414e+2, -753139.3, -482915.94, 1134.9691, 0.037619155, -0.1383752, -482911.16, -225029.1, 0.0, 9.996481, 10.000058 
1.8650341e+3, 2.8368473e+2, -677993.94, -256913.27, 3842.55, -0.0098636355, -0.1383349, -256878.2, -97000.56, 0.0, 9.995725, 10.001303 
1.8650271e+3, 2.9368615e+2, -681807.0, -194309.94, -31695.691, -0.10152996, -0.14283657, -192257.81, -130395.21, 0.0, 9.994967, 10.001424 
1.8650228e+3, 3.036882e+2, -715143.5, -202427.42, -40444.484, 0.12807094, -0.07076508, -199256.66, -199256.66, 0.0, 9.994484, 10.001264 
1.865015e+3, 3.136888e+2, -730957.44, -95286.48, 76583.84, -0.045536213, -0.12837215, -86190.04, -86190.04, 0.0, 9.993874, 10.002296 
1.875136e+3, 1.237138e+2, -914944.4, -1756853.8, -83228.54, -0.15204497, -0.08200918, -906795.5, 820798.5, 0.088994086, 10.008047, 9.995839 
1.8751326e+3, 1.3370988e+2, -934420.44, -1690714.6, 15582.328, -0.015136276, -0.102311835, -934099.5, 695532.8, 0.061261993, 10.006826, 9.996206 
1.8751264e+3, 1.4370608e+2, -863807.3, -1500887.5, -72699.625, -0.09300495, -0.14410977, -855616.6, 676052.06, 0.034449354, 10.005991, 9.997244 
1.8751195e+3, 1.537035e+2, -786326.25, -1412355.9, -55001.707, -0.08585379, -0.14165394, -781530.7, 652161.06, 0.014324772, 10.005723, 9.997302 
1.8751127e+3, 1.6370079e+2, -775438.44, -1356612.1, -64372.867, -0.06789325, -0.140193, -768393.7, 567323.44, 0.003656176, 10.00506, 9.997329 
1.8751056e+3, 1.7369805e+2, -872075.0, -1364870.3, -84543.56, -0.046334885, -0.1459843, -857974.25, 379770.47, 0.0003294783, 10.003759, 9.997227 
1.8750985e+3, 1.8369566e+2, -836410.8, -1177113.1, -81980.945, -0.038808983, -0.15256271, -817710.7, 322057.75, 0.000000733184, 10.002813, 9.998299 
1.8750915e+3, 1.9369397e+2, -785384.9, -1095342.0, -69945.97, -0.051958695, -0.16482073, -770331.7, 271452.47, 0.0, 10.002463, 9.998356 
1.8750843e+3, 2.0369257e+2, -735612.44, -953476.5, -75065.54, -0.0524107, -0.1649733, -712253.0, 231544.08, 0.0, 10.0018425, 9.998957 
1.8750773e+3, 2.1369173e+2, -793822.3, -932069.4, -72238.086, -0.029784508, -0.15062003, -762963.8, 82840.49, 0.0, 10.000776, 9.998944 
1.8750705e+3, 2.2369076e+2, -796674.56, -843661.4, -56136.152, -0.009219416, -0.15465279, -759313.94, -11500.547, 0.0, 9.999915, 9.999293 
1.8750638e+3, 2.336897e+2, -777247.94, -789277.4, -51516.047, -0.00031907938, -0.19408567, -731396.7, -81572.555, 0.0, 9.9994, 9.999242 
1.8750566e+3, 2.4368906e+2, -730580.7, -650584.4, -54613.563, -0.014340701, -0.204329, -622888.44, -71058.02, 0.0, 9.998766, 9.999826 
1.8750493e+3, 2.5368926e+2, -755784.6, -614461.56, -56505.445, -0.04647329, -0.17310701, -594647.0, -140819.0, 0.0, 9.997931, 9.999804 
1.8750429e+3, 2.6368946e+2, -729774.75, -486984.38, -37989.18, -0.0111499755, -0.15741923, -481179.03, -125352.34, 0.0, 9.99716, 10.000378 
1.8750373e+3, 2.7368978e+2, -729282.94, -435311.53, -24328.762, 0.08370044, -0.16930495, -433311.72, -175486.78, 0.0, 9.996488, 10.000383 
1.8750301e+3, 2.8369048e+2, -703263.6, -310143.4, -25598.574, 0.016490597, -0.15962015, -308483.53, -148664.05, 0.0, 9.995727, 10.000937 
1.8750213e+3, 2.9369178e+2, -716251.1, -266295.66, -56380.23, -0.18265073, -0.12983271, -259338.67, -197530.52, 0.0, 9.994967, 10.000931 
1.8750168e+3, 3.0369326e+2, -667547.25, -107011.56, -57385.43, 0.0815495, -0.11564357, -101196.984, -101196.984, 0.0, 9.994494, 10.001916 
1.8750092e+3, 3.1369537e+2, -686874.2, -9083.602, 5453.9863, -0.0022059649, -0.102277055, -9039.717, -9039.717, 0.0, 9.993896, 10.002879 
1.8851444e+3, 1.2371988e+2, -903769.5, -1757115.1, -73796.59, -0.11972738, -0.0869098, -897434.6, 830099.0, 0.09335352, 10.008199, 9.995763 
1.8851396e+3, 1.3371569e+2, -866271.7, -1664117.4, 63082.62, -0.03350331, -0.12684648, -861314.8, 768259.7, 0.064438626, 10.007386, 9.996121 
1.8851326e+3, 1.437118e+2, -792090.56, -1468036.4, -5339.2725, -0.0964764, -0.16988946, -792048.4, 739563.2, 0.03641131, 10.006524, 9.99722 
1.8851252e+3, 1.5370958e+2, -810627.94, -1425816.6, -32159.76, -0.084381305, -0.1304976, -808951.3, 624680.44, 0.0152778, 10.005568, 9.997282 
1.8851176e+3, 1.6370696e+2, -819358.25, -1376573.5, -66974.98, -0.066371985, -0.1205571, -811421.2, 524235.2, 0.00397182, 10.004754, 9.997339 
1.8851095e+3, 1.7370385e+2, -813488.9, -1335538.5, -49856.973, -0.054476716, -0.16411263, -808770.06, 428916.97, 0.00037528222, 10.004159, 9.997234 
1.8851015e+3, 1.8370135e+2, -755992.44, -1138353.9, -22159.234, -0.049505454, -0.17995246, -754712.5, 384998.97, 0.0000010250507, 10.003368, 9.998296 
1.8850937e+3, 1.9370005e+2, -814507.94, -1110358.6, -27728.104, -0.053808462, -0.15440127, -811931.6, 229792.61, 0.0, 10.00227, 9.998345 
1.885086e+3, 2.0369874e+2, -802514.2, -980937.5, -49358.7, -0.05047685, -0.14445826, -789769.94, 153966.42, 0.0, 10.001365, 9.998998 
1.8850781e+3, 2.1369758e+2, -790535.5, -925578.5, -52304.367, -0.03235745, -0.16693756, -772646.8, 73099.46, 0.0, 10.000779, 9.998987 
1.8850705e+3, 2.2369656e+2, -768972.06, -819973.1, -34789.426, -0.012100751, -0.18301417, -751338.1, -3582.3687, 0.0, 10.000063, 9.999384 
1.885063e+3, 2.3369591e+2, -809681.7, -793776.5, -28434.516, 0.003504404, -0.19059467, -772203.44, -122440.62, 0.0, 9.999132, 9.999339 
1.8850553e+3, 2.4369551e+2, -781006.1, -660351.1, -25307.71, -0.008817562, -0.18844958, -655257.8, -103490.914, 0.0, 9.99836, 9.999954 
1.8850473e+3, 2.5369558e+2, -759377.0, -602022.25, -17840.143, -0.046198636, -0.18257251, -600025.0, -146259.6, 0.0, 9.997848, 9.999928 
1.8850401e+3, 2.6369575e+2, -719754.2, -468420.94, -2852.9602, -0.01055075, -0.18142071, -468388.53, -112624.44, 0.0, 9.997172, 10.000498 
1.8850335e+3, 2.7369636e+2, -761895.25, -437490.22, -6184.65, 0.08956763, -0.17781483, -437372.34, -179612.56, 0.0, 9.996208, 10.000502 
1.8850255e+3, 2.8369737e+2, -763765.0, -329448.0, -48.497738, 0.018414, -0.14921688, -329448.0, -169696.48, 0.0, 9.995272, 10.001022 
1.885016e+3, 2.936987e+2, -779535.6, -292201.2, 15325.047, -0.18540569, -0.1211239, -291719.75, -229980.05, 0.0, 9.994517, 10.000968 
1.8850112e+3, 3.036996e+2, -718457.6, -131123.78, 24693.48, 0.08189221, -0.16387728, -130087.414, -130087.414, 0.0, 9.9941435, 10.001919 
1.8850031e+3, 3.1370217e+2, -696193.25, 7235.745, -26551.297, -0.0006432535, -0.10645046, 8236.514, 8236.514, 0.0, 9.993748, 10.003059 
1.8951534e+3, 1.2372636e+2, -882854.06, -1702272.5, -100735.37, -0.049310327, -0.11744468, -870651.8, 856817.9, 0.097879544, 10.008202, 9.996152 
1.8951465e+3, 1.3372265e+2, -841089.4, -1603761.1, 34895.8, -0.08288652, -0.1532192, -839496.06, 790007.9, 0.06774704, 10.007387, 9.996546 
1.8951386e+3, 1.4371882e+2, -827641.0, -1540651.9, -39408.94, -0.14995751, -0.1920043, -825469.44, 706070.9, 0.03846578, 10.006528, 9.996705 
1.895131e+3, 1.5371615e+2, -855514.44, -1521786.3, -67135.15, -0.07028049, -0.13276908, -848817.06, 584750.56, 0.016286222, 10.005576, 9.996621 
1.8951227e+3, 1.6371337e+2, -791867.1, -1320827.5, -89866.24, -0.02920947, -0.117074125, -777016.5, 558578.06, 0.004313687, 10.004761, 9.99772 
1.8951134e+3, 1.7371058e+2, -775843.6, -1258154.1, -71446.664, -0.07179305, -0.18014511, -765482.5, 472137.03, 0.00042799782, 10.004161, 9.997766 
1.8951045e+3, 1.8370828e+2, -766548.75, -1160994.3, -60923.918, -0.08471632, -0.19958302, -757353.2, 382287.9, 0.0000013628122, 10.003368, 9.998142 
1.8950962e+3, 1.9370696e+2, -831809.0, -1147947.1, -68254.836, -0.044178784, -0.15069923, -817702.1, 223953.19, 0.0, 10.0022745, 9.998086 
1.8950877e+3, 2.0370549e+2, -805351.4, -988311.7, -72699.05, -0.024224734, -0.14072314, -779982.2, 163687.67, 0.0, 10.001369, 9.998946 
1.8950789e+3, 2.1370392e+2, -792498.5, -930000.4, -72761.58, -0.037231095, -0.20184848, -761144.8, 84538.945, 0.0, 10.000778, 9.998959 
1.8950704e+3, 2.2370294e+2, -761565.25, -805099.8, -67264.71, -0.030560505, -0.21541966, -712633.5, 35059.406, 0.0, 10.000063, 9.999487 
1.8950622e+3, 2.3370312e+2, -800877.75, -777073.06, -62350.492, 0.0007880232, -0.15150109, -725499.06, -75806.445, 0.0, 9.999137, 9.999453 
1.8950537e+3, 2.4370308e+2, -764239.6, -627001.0, -45588.203, 0.000264957, -0.13102013, -613237.7, -61544.36, 0.0, 9.998364, 10.000182 
1.8950453e+3, 2.5370267e+2, -741390.6, -565808.1, -35823.84, -0.031148631, -0.19857997, -558780.4, -105084.92, 0.0, 9.99785, 10.000177 
1.8950373e+3, 2.6370266e+2, -721527.5, -473268.34, -36094.285, -0.006154318, -0.22489688, -468127.1, -112431.82, 0.0, 9.997175, 10.000464 
1.8950294e+3, 2.7370375e+2, -767359.44, -451506.97, -42894.754, 0.053434152, -0.16457017, -445785.25, -188097.72, 0.0, 9.996218, 10.000402 
1.8950205e+3, 2.8370523e+2, -725641.2, -252034.33, -30422.992, -0.0049562613, -0.108006775, -250088.06, -90413.33, 0.0, 9.995278, 10.001552 
1.8950112e+3, 2.9370677e+2, -739524.1, -211053.77, -7870.405, -0.108916275, -0.11765598, -210936.58, -149278.27, 0.0, 9.994523, 10.001524 
1.8950057e+3, 3.0370712e+2, -764374.9, -229473.81, 15214.966, 0.12510239, -0.21496625, -229041.39, -229041.39, 0.0, 9.994153, 10.001241 
1.8949966e+3, 3.1370926e+2, -707054.06, -16653.309, -91445.23, -0.03368104, -0.12822258, -4746.5156, -4746.5156, 0.0, 9.9937525, 10.002893 
1.9051616e+3, 1.2373387e+2, -862575.3, -1696731.8, -55889.95, -0.04341351, -0.14767395, -858847.25, 868548.25, 0.10256646, 10.00842, 9.99609 
1.905154e+3, 1.3373053e+2, -801179.56, -1586118.1, 47639.773, -0.09553393, -0.14165452, -798298.75, 831127.2, 0.07117957, 10.007719, 9.996516 
1.9051453e+3, 1.4372672e+2, -782653.0, -1530477.0, -38777.41, -0.13676073, -0.17357694, -780647.6, 750814.75, 0.04060629, 10.006919, 9.996586 
1.9051366e+3, 1.5372354e+2, -820828.75, -1519664.5, -32059.729, -0.071566515, -0.14987099, -819361.06, 614133.56, 0.017346155, 10.005891, 9.996483 
1.9051275e+3, 1.6372058e+2, -763072.75, -1299605.9, -34059.668, -0.03805518, -0.14718819, -760919.25, 574603.94, 0.004680596, 10.004932, 9.997783 
1.9051175e+3, 1.7371811e+2, -776892.8, -1249026.0, -46819.863, -0.07918933, -0.18801428, -772294.6, 465250.16, 0.0004878263, 10.004114, 9.99785 
1.9051078e+3, 1.8371592e+2, -783237.06, -1173826.9, -60146.258, -0.088117756, -0.1986093, -774185.0, 365380.03, 0.000001731659, 10.003277, 9.998097 
1.9050986e+3, 1.9371441e+2, -818658.9, -1149217.4, -56397.973, -0.039059877, -0.16207935, -809301.44, 232280.02, 0.0, 10.002399, 9.998016 
1.9050892e+3, 2.0371287e+2, -782863.44, -973622.25, -42770.625, -0.0158367, -0.15740286, -773712.7, 169884.31, 0.0, 10.001509, 9.998979 
1.9050796e+3, 2.137114e+2, -814303.5, -935310.25, -36836.215, -0.034666125, -0.21254075, -803972.06, 41637.86, 0.0, 10.000608, 9.999002 
1.9050702e+3, 2.2371054e+2, -795867.56, -813524.56, -30819.592, -0.031620454, -0.21947262, -772636.9, -25018.87, 0.0, 9.999795, 9.9995575 
1.9050613e+3, 2.3371087e+2, -797850.75, -768027.5, -30074.814, 0.000011182948, -0.14847893, -749370.56, -99754.07, 0.0, 9.999126, 9.999519 
1.905052e+3, 2.437109e+2, -759110.25, -610710.0, -16968.38, 0.0020222384, -0.12731054, -608794.5, -57178.19, 0.0, 9.998342, 10.000303 
1.905043e+3, 2.5371057e+2, -803487.1, -581075.4, -16255.443, -0.02381043, -0.20167306, -579893.6, -126275.67, 0.0, 9.997363, 10.000305 
1.9050342e+3, 2.6371074e+2, -800027.4, -493061.34, -14912.007, -0.0054365825, -0.22802237, -492338.63, -136722.34, 0.0, 9.996562, 10.000623 
1.9050254e+3, 2.73712e+2, -780432.2, -440290.53, -4144.7407, 0.03294658, -0.16299036, -440240.03, -182633.78, 0.0, 9.996056, 10.000556 
1.9050159e+3, 2.8371352e+2, -700537.94, -223249.11, 2173.2605, -0.009913755, -0.11402793, -223239.2, -63646.656, 0.0, 9.99538, 10.0016985 
1.9050062e+3, 2.9371512e+2, -752569.1, -207830.31, -8511.038, -0.05385448, -0.13577008, -207697.36, -146121.5, 0.0, 9.994395, 10.001606 
1.9049996e+3, 3.0371574e+2, -826276.3, -278343.56, 34733.39, 0.11334184, -0.2011534, -276150.6, -276150.6, 0.0, 9.993813, 10.001069 
1.9049902e+3, 3.1371737e+2, -703984.06, 7800.3027, -63134.332, -0.042904265, -0.1497507, 13356.856, 13356.856, 0.0, 9.993679, 10.003096 
1.9151695e+3, 1.2374234e+2, -896086.0, -1764829.1, -76318.914, -0.10460625, -0.1808443, -889432.3, 837879.3, 0.10737075, 10.008433, 9.9956 
1.9151619e+3, 1.3373935e+2, -833189.7, -1650276.9, 24323.502, -0.075191244, -0.093950175, -832466.25, 796874.44, 0.07470768, 10.007728, 9.996051 
1.9151531e+3, 1.4373547e+2, -767055.75, -1495507.5, -73042.445, -0.062373836, -0.11602338, -759803.94, 771573.94, 0.042817164, 10.006923, 9.996836 
1.9151424e+3, 1.5373175e+2, -796720.8, -1468248.6, -69720.77, -0.08853111, -0.18127343, -789558.5, 643854.5, 0.018450359, 10.005894, 9.996836 
1.9151318e+3, 1.6372858e+2, -780352.8, -1336571.3, -65340.777, -0.0916258, -0.21028575, -772780.1, 562662.75, 0.005069912, 10.004936, 9.997527 
1.9151215e+3, 1.737264e+2, -800377.06, -1299631.8, -76418.02, -0.07757784, -0.18777968, -788942.06, 448521.0, 0.0005545473, 10.00412, 9.997501 
1.9151114e+3, 1.8372425e+2, -778975.4, -1166532.1, -91727.88, -0.062023927, -0.17695743, -758361.44, 381122.2, 0.0000021934447, 10.003281, 9.998147 
1.915101e+3, 1.9372235e+2, -811202.0, -1134712.1, -88456.88, -0.039631173, -0.1882109, -788595.1, 252908.0, 0.0, 10.002401, 9.9981165 
1.9150905e+3, 2.0372081e+2, -774726.6, -957803.56, -75529.4, -0.025706373, -0.19440813, -747589.1, 195929.23, 0.0, 10.001511, 9.999086 
1.9150802e+3, 2.1371995e+2, -806072.8, -919577.8, -69349.0, -0.025186468, -0.1989715, -773214.3, 72311.22, 0.0, 10.000612, 9.999109 
1.9150701e+3, 2.2371928e+2, -792972.4, -808840.7, -55931.1, -0.016156662, -0.19484383, -744415.44, 3116.3235, 0.0, 9.999799, 9.999589 
1.9150604e+3, 2.3371905e+2, -796259.94, -765421.1, -53870.348, 0.0003264125, -0.1815597, -724806.8, -75271.65, 0.0, 9.999127, 9.999537 
1.9150504e+3, 2.4371894e+2, -758295.2, -609851.9, -51282.438, -0.003903212, -0.17734987, -593858.56, -42321.844, 0.0, 9.998343, 10.00031 
1.9150403e+3, 2.5371918e+2, -802751.9, -581526.5, -52168.17, -0.02597717, -0.1915455, -569841.7, -116308.04, 0.0, 9.99737, 10.0003 
1.9150306e+3, 2.6371977e+2, -774543.1, -442233.47, -35670.76, -0.009987644, -0.1903564, -438447.63, -82919.7, 0.0, 9.996569, 10.00097 
1.9150214e+3, 2.7372098e+2, -751118.7, -381620.8, -22216.955, 0.028082667, -0.1739344, -380289.75, -122772.75, 0.0, 9.996061, 10.0009575 
1.9150114e+3, 2.8372216e+2, -716376.44, -257949.63, -31960.795, 0.0040875017, -0.16871697, -255732.11, -96226.055, 0.0, 9.995387, 10.001458 
1.915001e+3, 2.9372358e+2, -778833.0, -266165.16, -43522.836, -0.022620134, -0.17770876, -262496.53, -201002.97, 0.0, 9.99441, 10.001201 
1.9149926e+3, 3.037253e+2, -801307.0, -229740.47, 28993.043, 0.041905504, -0.11723215, -228273.55, -228273.55, 0.0, 9.993823, 10.001399 
1.9149838e+3, 3.1372657e+2, -666601.3, 85047.38, -82658.75, -0.044199917, -0.15357219, 94030.016, 94030.016, 0.0, 9.993678, 10.003628 
1.9251782e+3, 1.23752296e+2, -812497.94, -1738744.4, -45890.766, -0.10606611, -0.15021716, -810229.8, 916984.3, 0.11221389, 10.0092125, 9.995399 
1.9251697e+3, 1.3374875e+2, -810401.44, -1652444.6, 69774.77, -0.08089438, -0.10420088, -804658.8, 824589.44, 0.07828302, 10.007988, 9.995912 
1.9251601e+3, 1.4374465e+2, -776555.56, -1505636.4, -21972.607, -0.042488113, -0.13979614, -775894.0, 755393.75, 0.045073163, 10.006899, 9.996773 
1.9251482e+3, 1.537411e+2, -783386.44, -1467620.9, -47097.656, -0.09582455, -0.18136394, -780159.8, 653161.44, 0.019587608, 10.006021, 9.996778 
1.9251367e+3, 1.6373797e+2, -752270.06, -1328801.8, -48905.766, -0.10589211, -0.19999571, -748150.94, 587199.9, 0.0054775355, 10.005158, 9.997473 
1.925126e+3, 1.737356e+2, -777851.6, -1295040.3, -39950.41, -0.06686078, -0.18899257, -774783.9, 462588.84, 0.0006277126, 10.004305, 9.997442 
1.9251148e+3, 1.8373337e+2, -757895.1, -1155466.0, -47134.684, -0.043983746, -0.1851613, -752383.4, 387010.78, 0.000002911813, 10.003425, 9.998152 
1.9251034e+3, 1.9373146e+2, -794392.25, -1125786.4, -50881.793, -0.042873412, -0.1972367, -786755.9, 254657.64, 0.0, 10.002515, 9.998121 
1.925092e+3, 2.0372996e+2, -763946.94, -954340.0, -46285.785, -0.035956603, -0.1995958, -753290.94, 190137.6, 0.0, 10.001595, 9.999068 
1.9250809e+3, 2.137292e+2, -800717.5, -920006.94, -51624.668, -0.0200186, -0.19073337, -781478.75, 63956.29, 0.0, 10.000664, 9.999081 
1.9250701e+3, 2.237286e+2, -788376.8, -790494.2, -35284.9, -0.006638386, -0.18601625, -754134.75, -6694.125, 0.0, 9.999763, 9.999731 
1.9250593e+3, 2.3372827e+2, -815764.0, -756264.94, -21577.645, -0.0016686147, -0.19721182, -749263.56, -99819.84, 0.0, 9.998916, 9.9997015 
1.9250485e+3, 2.4372812e+2, -789841.1, -626732.56, -15588.686, -0.008074109, -0.2051396, -625256.06, -73810.72, 0.0, 9.9981365, 10.000292 
1.9250377e+3, 2.5372848e+2, -792923.56, -582612.9, -21082.813, -0.022063445, -0.20309629, -580520.25, -127077.99, 0.0, 9.997465, 10.000246 
1.9250272e+3, 2.6372927e+2, -750138.4, -410950.97, -10485.614, -0.008798651, -0.18560272, -410627.13, -55192.254, 0.0, 9.996654, 10.0011425 
1.9250172e+3, 2.737307e+2, -800447.06, -381977.8, -10988.541, 0.022404103, -0.16846843, -381689.47, -124268.336, 0.0, 9.9956255, 10.001164 
1.9250067e+3, 2.8373176e+2, -786486.9, -298051.6, -18204.322, 0.012187706, -0.18550593, -297374.06, -137962.77, 0.0, 9.994936, 10.001399 
1.9249958e+3, 2.9373285e+2, -742032.75, -259240.0, -10612.014, 0.00078849006, -0.21459733, -259006.86, -197604.28, 0.0, 9.994712, 10.001101 
1.924986e+3, 3.037354e+2, -750666.9, -161416.78, 75087.586, -0.020602876, -0.083755255, -151998.97, -151998.97, 0.0, 9.993984, 10.001789 
1.9249772e+3, 3.1373674e+2, -845930.25, -9870.811, -40054.254, -0.016869621, -0.15764305, -7956.26, -7956.26, 0.0, 9.992486, 10.003551 
1.935188e+3, 1.2376363e+2, -812086.6, -1729098.5, -77702.65, -0.058061387, -0.06494593, -805549.1, 921554.75, 0.1170138, 10.009221, 9.995466 
1.9351773e+3, 1.3375874e+2, -802552.25, -1628227.4, 27381.346, -0.11230023, -0.16868687, -801645.2, 827503.6, 0.08185229, 10.007992, 9.996074 
1.9351667e+3, 1.437542e+2, -802470.3, -1558937.0, -54282.49, -0.07479902, -0.2401393, -798595.0, 732597.1, 0.04734483, 10.006904, 9.9964 
1.9351543e+3, 1.537515e+2, -813673.8, -1532976.8, -78217.16, -0.09495198, -0.1517337, -805266.75, 627953.2, 0.020744255, 10.00603, 9.996326 
1.9351421e+3, 1.6374868e+2, -742596.94, -1310525.8, -79740.74, -0.084389746, -0.11962089, -731613.25, 603634.25, 0.0058986824, 10.005167, 9.997596 
1.9351304e+3, 1.7374569e+2, -763315.94, -1265824.6, -71051.164, -0.048623096, -0.19118454, -753463.0, 483811.06, 0.00070687354, 10.004308, 9.9976425 
1.9351183e+3, 1.8374321e+2, -760564.3, -1161709.5, -80349.016, -0.0345008, -0.2220908, -745069.0, 394228.22, 0.000004121652, 10.003426, 9.99811 
1.9351058e+3, 1.9374166e+2, -798964.0, -1136644.9, -83785.24, -0.04904071, -0.19012208, -779318.2, 261995.14, 0.0, 10.002519, 9.998047 
1.9350936e+3, 2.0374022e+2, -774709.75, -978213.75, -80102.64, -0.04717659, -0.17418346, -746963.1, 196365.03, 0.0, 10.001599, 9.998904 
1.9350816e+3, 2.1373907e+2, -813252.7, -946526.8, -85122.75, -0.02015629, -0.18741715, -771786.2, 73552.9, 0.0, 10.000664, 9.998899 
1.9350699e+3, 2.2373837e+2, -770248.25, -753837.56, -66274.83, -0.00382524, -0.19251488, -695262.06, 52083.11, 0.0, 9.999764, 9.999983 
1.9350582e+3, 2.3373845e+2, -793133.0, -710873.75, -51964.152, -0.0071470723, -0.19515997, -685731.8, -36389.02, 0.0, 9.99892, 10.000011 
1.9350466e+3, 2.4373837e+2, -793159.3, -635430.5, -40812.33, -0.011562943, -0.21019806, -625496.06, -74153.055, 0.0, 9.998142, 10.000232 
1.9350353e+3, 2.537383e+2, -799815.5, -598847.25, -45465.46, -0.0120273745, -0.23792109, -589040.1, -135695.3, 0.0, 9.997471, 10.0001335 
1.935024e+3, 2.637391e+2, -749957.75, -411598.7, -47204.313, -0.001539973, -0.21494637, -405136.66, -49798.508, 0.0, 9.996656, 10.001138 
1.9350126e+3, 2.7374104e+2, -800172.6, -382695.78, -48643.94, 0.012578063, -0.14522094, -377102.78, -119783.36, 0.0, 9.995628, 10.001159 
1.9350015e+3, 2.8374216e+2, -777129.7, -281134.0, -29394.396, 0.011022082, -0.16327709, -279398.06, -120088.8, 0.0, 9.994944, 10.0015135 
1.9349906e+3, 2.937428e+2, -724216.5, -227842.11, -18664.012, 0.016517954, -0.24862744, -227141.33, -165837.1, 0.0, 9.994732, 10.001308 
1.9349796e+3, 3.0374596e+2, -716175.94, -92366.06, 24607.707, -0.07182067, -0.104303055, -91396.86, -91396.86, 0.0, 9.993995, 10.002259 
1.93497e+3, 3.137482e+2, -893551.56, -109876.516, -68733.47, 0.0085596815, -0.11611855, -103893.81, -103893.81, 0.0, 9.992487, 10.002865 
1.9451976e+3, 1.2377499e+2, -754442.4, -1708189.4, -42137.047, -0.051502228, -0.08446335, -752584.4, 974407.4, 0.121723585, 10.009763, 9.995358 
1.9451854e+3, 1.3377024e+2, -772355.9, -1615776.4, 39832.605, -0.12056279, -0.17120273, -770478.8, 858556.75, 0.08537991, 10.008261, 9.996037 
1.9451739e+3, 1.4376575e+2, -787207.94, -1563192.1, -22176.996, -0.061959375, -0.23020118, -786574.6, 744503.94, 0.049609, 10.007084, 9.996282 
1.9451605e+3, 1.5376276e+2, -774687.3, -1527379.8, -21927.064, -0.087775625, -0.15856054, -774049.1, 659060.4, 0.021908263, 10.006373, 9.996197 
1.9451475e+3, 1.637598e+2, -702296.2, -1298472.8, -23781.355, -0.081439644, -0.12871234, -701349.06, 633789.5, 0.006328956, 10.005484, 9.997524 
1.9451347e+3, 1.7375694e+2, -765998.1, -1274433.6, -35390.17, -0.048059627, -0.18100415, -763546.56, 473617.56, 0.0007914842, 10.004323, 9.997575 
1.9451217e+3, 1.8375446e+2, -782424.4, -1181096.9, -50862.035, -0.034824956, -0.20385961, -776037.75, 363149.66, 0.00000605313, 10.003315, 9.998029 
1.9451083e+3, 1.9375275e+2, -800047.4, -1146319.5, -55248.6, -0.048092976, -0.18085237, -791446.0, 249759.39, 0.0, 10.002554, 9.997962 
1.9450952e+3, 2.0375119e+2, -756721.4, -968089.94, -50411.965, -0.04490903, -0.171441, -745313.7, 197907.39, 0.0, 10.001719, 9.998915 
1.9450824e+3, 2.1375002e+2, -796465.8, -936299.6, -41756.7, -0.016748521, -0.18869972, -784945.7, 60286.055, 0.0, 10.0007715, 9.998917 
1.9450697e+3, 2.2374925e+2, -759020.2, -753901.9, -20720.8, -0.0022360943, -0.19791993, -735582.8, 11655.313, 0.0, 9.999867, 9.999931 
1.945057e+3, 2.3374924e+2, -780675.3, -711907.6, -34296.777, -0.010722533, -0.20319988, -697726.94, -48490.188, 0.0, 9.99904, 9.999946 
1.9450448e+3, 2.4374919e+2, -785292.25, -622839.2, -33678.496, -0.011635829, -0.21572982, -616134.0, -64897.234, 0.0, 9.99816, 10.000307 
1.9450328e+3, 2.537493e+2, -832217.0, -603926.7, -22746.729, 0.0014934847, -0.23490436, -601682.25, -148445.42, 0.0, 9.997205, 10.000225 
1.9450206e+3, 2.637501e+2, -792796.06, -438639.13, -18149.475, 0.0054642493, -0.21307266, -437711.44, -82481.21, 0.0, 9.996392, 10.001078 
1.9450082e+3, 2.7375183e+2, -786131.0, -385933.3, -26982.477, -0.008123179, -0.15620975, -384122.28, -126908.26, 0.0, 9.995771, 10.001065 
1.9449963e+3, 2.83753e+2, -780479.3, -275818.7, -9587.277, -0.001473844, -0.1618648, -275636.63, -116433.37, 0.0, 9.994893, 10.001573 
1.9449851e+3, 2.9375425e+2, -870357.25, -277938.5, -2020.2374, 0.043928288, -0.20079726, -277931.6, -216738.81, 0.0, 9.993646, 10.001487 
1.9449727e+3, 3.03757e+2, -854771.06, -103781.75, 33411.22, -0.08196372, -0.12754282, -102298.234, -102298.234, 0.0, 9.992809, 10.00275 
1.9449624e+3, 3.137601e+2, -899452.94, -132887.31, -22772.553, 0.0035614336, -0.09969992, -132211.4, -132211.4, 0.0, 9.992537, 10.002681 
1.9552068e+3, 1.23786405e+2, -777305.4, -1748231.4, -80501.1, -0.090379864, -0.20457901, -770676.1, 956201.7, 0.1263466, 10.009757, 9.995077 
1.9551937e+3, 1.3378319e+2, -788377.44, -1646855.8, -11175.542, -0.10759456, -0.115328595, -788232.0, 840677.06, 0.08886395, 10.008272, 9.9958105 
1.9551815e+3, 1.4377917e+2, -779427.75, -1546696.9, -49750.707, -0.0073319282, -0.11708277, -776215.25, 754732.56, 0.051860414, 10.0071, 9.996388 
1.955167e+3, 1.5377481e+2, -764179.44, -1504903.6, -47358.64, -0.07614845, -0.19969551, -761163.8, 671826.56, 0.023074502, 10.006378, 9.996349 
1.9551529e+3, 1.637713e+2, -720324.94, -1336602.5, -64545.313, -0.09700576, -0.22202918, -713637.44, 621386.8, 0.006765397, 10.0054865, 9.997262 
1.9551389e+3, 1.7376927e+2, -787145.8, -1321368.0, -78051.05, -0.06458628, -0.15956092, -775975.94, 461067.72, 0.0008807011, 10.0043335, 9.99725 
1.9551249e+3, 1.8376704e+2, -789944.3, -1199591.6, -79943.71, -0.045395136, -0.13358714, -774895.94, 364169.66, 0.000008815457, 10.003325, 9.997898 
1.955111e+3, 1.9376461e+2, -806958.7, -1161883.8, -82235.45, -0.041450426, -0.1684963, -788830.8, 252259.27, 0.0, 10.002557, 9.997854 
1.955097e+3, 2.0376277e+2, -744331.75, -943545.9, -83940.4, -0.030526182, -0.18978034, -713679.25, 229428.66, 0.0, 10.001721, 9.999083 
1.9550832e+3, 2.1376193e+2, -780956.56, -905909.44, -75983.42, -0.010669155, -0.19486508, -745062.4, 100051.54, 0.0, 10.000777, 9.999124 
1.9550696e+3, 2.2376116e+2, -783337.25, -806349.25, -51323.33, -0.0025757758, -0.20265298, -742246.0, 4874.3213, 0.0, 9.999873, 9.99957 
1.9550562e+3, 2.3376057e+2, -811525.9, -776916.3, -64133.473, -0.012683327, -0.22135086, -727794.0, -78667.7, 0.0, 9.999041, 9.9995 
1.955043e+3, 2.4376047e+2, -770371.0, -592888.2, -68047.06, -0.008757028, -0.22184445, -569801.9, -18674.424, 0.0, 9.998163, 10.000513 
1.95503e+3, 2.5376135e+2, -810947.0, -561519.6, -57630.45, 0.01589711, -0.19342357, -548847.8, -95728.61, 0.0, 9.99721, 10.000515 
1.955017e+3, 2.6376218e+2, -801323.6, -457911.16, -42170.73, 0.010194098, -0.17938118, -452808.44, -97696.375, 0.0, 9.996397, 10.000945 
1.9550036e+3, 2.7376288e+2, -797950.25, -414312.34, -49970.336, -0.039564036, -0.20476389, -407910.34, -150803.95, 0.0, 9.995785, 10.000866 
1.9549909e+3, 2.8376424e+2, -778813.2, -274891.97, -55263.07, -0.025093798, -0.18269277, -268902.66, -109808.055, 0.0, 9.994903, 10.001575 
1.9549792e+3, 2.9376706e+2, -860844.3, -258266.75, -48833.81, 0.07908025, -0.066184685, -254334.84, -193265.86, 0.0, 9.993643, 10.001624 
1.9549659e+3, 3.0376852e+2, -821231.2, -34102.16, 18986.496, -0.05124686, -0.15863769, -33644.45, -33644.45, 0.0, 9.992807, 10.003231 
1.9549544e+3, 3.1377178e+2, -863754.9, -68492.77, 9609.339, -0.04957781, -0.15157942, -68376.68, -68376.68, 0.0, 9.992574, 10.003108 
1.9652165e+3, 1.2379984e+2, -810939.2, -1775033.1, -51177.1, -0.0841124, -0.20920472, -808230.2, 918515.44, 0.13091873, 10.009582, 9.994974 
1.9652021e+3, 1.3379642e+2, -737634.6, -1625341.6, 16754.375, -0.12607248, -0.13223903, -737318.5, 891460.6, 0.09232848, 10.008715, 9.995746 
1.9651888e+3, 1.4379254e+2, -698469.8, -1506211.8, -11107.694, -0.012000536, -0.117607065, -698317.06, 832499.75, 0.05411046, 10.0077095, 9.996379 
1.9651736e+3, 1.5378821e+2, -748014.8, -1497751.3, -19545.658, -0.060973693, -0.1940295, -747505.6, 685353.0, 0.024245232, 10.006506, 9.996336 
1.9651584e+3, 1.6378462e+2, -730448.5, -1358363.5, -38425.805, -0.080777064, -0.21715876, -728105.7, 606787.6, 0.007206633, 10.005494, 9.9971075 
1.9651434e+3, 1.7378229e+2, -733997.06, -1314725.0, -42017.973, -0.07779866, -0.16702461, -730972.6, 505943.38, 0.00097325334, 10.004786, 9.997075 
1.9651283e+3, 1.837799e+2, -708438.2, -1165015.3, -36635.34, -0.06609839, -0.14507166, -705517.25, 433422.38, 0.000012327253, 10.00391, 9.997851 
1.9651136e+3, 1.9377756e+2, -778790.25, -1151993.8, -34144.52, -0.033677798, -0.17003855, -775692.06, 265271.13, 0.0, 10.0027685, 9.997819 
1.965099e+3, 2.0377567e+2, -743487.9, -953563.6, -37539.938, -0.011819728, -0.18653688, -736981.1, 205999.9, 0.0, 10.001775, 9.998987 
1.9650841e+3, 2.137747e+2, -753543.6, -904259.6, -53086.688, -0.010357152, -0.19636118, -736722.3, 108266.25, 0.0, 10.001019, 9.999018 
1.9650695e+3, 2.2377376e+2, -751098.56, -798925.8, -35840.313, -0.010362039, -0.20867674, -731926.3, 15070.121, 0.0, 10.0001335, 9.999494 
1.9650552e+3, 2.3377307e+2, -815989.25, -787267.75, -22359.5, -0.010731824, -0.22910106, -775054.44, -126050.734, 0.0, 9.999047, 9.999425 
1.9650412e+3, 2.4377303e+2, -784271.4, -602811.06, -15102.1455, -0.0051940037, -0.2196599, -601562.75, -50557.953, 0.0, 9.998084, 10.000482 
1.9650272e+3, 2.5377414e+2, -799097.94, -558252.5, -28633.934, 0.0076960227, -0.16794176, -554895.06, -101900.4, 0.0, 9.997307, 10.000488 
1.9650133e+3, 2.6377484e+2, -802330.25, -460273.7, -22664.357, 0.00031460007, -0.15965854, -458778.5, -103790.055, 0.0, 9.996402, 10.000924 
1.9649993e+3, 2.737752e+2, -876143.44, -454536.2, -18478.672, -0.03262808, -0.22073126, -453727.8, -196741.14, 0.0, 9.995263, 10.000839 
1.9649857e+3, 2.8377673e+2, -862818.4, -315593.78, -18044.578, -0.011835327, -0.17890307, -314999.44, -156026.14, 0.0, 9.994329, 10.001571 
1.9649728e+3, 2.9378018e+2, -842193.4, -244632.78, -13650.269, 0.0767511, 0.002673784, -244321.13, -183379.73, 0.0, 9.993755, 10.001661 
1.9649589e+3, 3.0378056e+2, -825751.4, -56018.12, 24631.66, -0.037642322, -0.19251877, -55230.707, -55230.707, 0.0, 9.992864, 10.003053 
1.9649462e+3, 3.1378415e+2, -984850.75, -62373.95, 3705.599, -0.06516622, -0.13232552, -62359.066, -62359.066, 0.0, 9.991467, 10.003682 
1.9752266e+3, 1.2381514e+2, -811468.8, -1766542.1, -67982.31, -0.039206326, -0.11146572, -806654.1, 919942.56, 0.13548324, 10.009585, 9.995033 
1.9752103e+3, 1.3380997e+2, -736061.7, -1614509.8, -12864.668, -0.17624831, -0.21669751, -735873.4, 892772.25, 0.09580131, 10.008711, 9.995831 
1.9751959e+3, 1.4380586e+2, -709766.44, -1526427.0, -51264.336, -0.074258715, -0.2229674, -706561.0, 824124.0, 0.056373708, 10.00771, 9.996234 
1.9751804e+3, 1.5380292e+2, -760004.94, -1524289.8, -62655.703, -0.042489596, -0.14392453, -754902.56, 677812.3, 0.025425797, 10.006515, 9.996152 
1.9751644e+3, 1.6379967e+2, -733584.4, -1366935.1, -66452.5, -0.035085604, -0.120024994, -726687.1, 608059.6, 0.0076527223, 10.005503, 9.9970455 
1.975148e+3, 1.7379595e+2, -736753.8, -1321711.4, -67498.87, -0.08922675, -0.20163865, -729066.06, 507715.63, 0.0010677084, 10.004789, 9.997026 
1.9751318e+3, 1.8379301e+2, -706038.5, -1161366.6, -76596.8, -0.097449556, -0.23374915, -693498.5, 445311.44, 0.000016305195, 10.003913, 9.997877 
1.9751166e+3, 1.9379145e+2, -775107.56, -1146840.4, -75978.52, -0.025203168, -0.18527402, -760177.94, 280647.75, 0.0, 10.002777, 9.997851 
1.975101e+3, 2.0378982e+2, -767718.2, -1006328.9, -66521.5, 0.010369888, -0.16341749, -750426.0, 192415.45, 0.0, 10.001783, 9.998623 
1.975085e+3, 2.1378821e+2, -783089.06, -966384.1, -79740.06, -0.016338399, -0.19282024, -753255.1, 91601.22, 0.0, 10.0010195, 9.998591 
1.9750695e+3, 2.2378702e+2, -736868.6, -770375.8, -73801.12, -0.02606994, -0.21519835, -677943.4, 68923.84, 0.0, 10.000134, 9.99969 
1.9750543e+3, 2.337867e+2, -795482.5, -746439.7, -61845.54, -0.0066198283, -0.22695446, -704431.6, -55561.656, 0.0, 9.999053, 9.999703 
1.9750392e+3, 2.4378677e+2, -803171.25, -643725.94, -45006.125, -0.0020658681, -0.20913364, -631899.4, -81029.69, 0.0, 9.998089, 10.000199 
1.9750243e+3, 2.537875e+2, -823264.75, -610651.25, -57025.543, -0.02352251, -0.15899523, -596322.06, -143457.77, 0.0, 9.9973135, 10.000127 
1.9750094e+3, 2.63788e+2, -794878.1, -446870.56, -63914.22, -0.024561072, -0.15449007, -435503.53, -80642.95, 0.0, 9.996409, 10.001014 
1.974995e+3, 2.737886e+2, -865438.25, -433976.63, -61961.95, 0.011324104, -0.20401093, -425254.63, -168398.72, 0.0, 9.995268, 10.000979 
1.9749805e+3, 2.8379035e+2, -864823.75, -320391.66, -42463.543, 0.036752727, -0.14967228, -317099.6, -158259.22, 0.0, 9.99433, 10.001539 
1.9749661e+3, 2.9379347e+2, -845467.8, -256580.78, -33787.715, 0.032160506, 0.0022898922, -254648.53, -193836.8, 0.0, 9.993774, 10.001572 
1.9749516e+3, 3.0379298e+2, -885186.75, -184135.0, -29486.076, -0.041258726, -0.22760792, -182897.02, -182897.02, 0.0, 9.992882, 10.002165 
1.9749379e+3, 3.13796e+2, -936145.5, 37359.324, -30892.537, -0.039343774, -0.13839334, 38338.664, 38338.664, 0.0, 9.99147, 10.004368 
1.9852363e+3, 1.2383045e+2, -825644.7, -1759615.4, -20226.344, -0.033060204, -0.10961989, -825206.9, 901239.7, 0.14007509, 10.009464, 9.995133 
1.9852191e+3, 1.3382526e+2, -739670.2, -1608571.1, 21363.988, -0.16725548, -0.22382921, -739145.2, 889350.44, 0.09930041, 10.008682, 9.99589 
1.9852038e+3, 1.4382128e+2, -708827.2, -1538729.0, -24828.982, -0.0641686, -0.21361952, -708085.06, 822448.7, 0.058658086, 10.007794, 9.996107 
1.9851868e+3, 1.5381813e+2, -744770.7, -1533584.4, -36419.79, -0.055628795, -0.13908029, -743092.75, 689473.2, 0.026619438, 10.006707, 9.995993 
1.9851698e+3, 1.6381471e+2, -709605.1, -1363265.4, -27537.545, -0.049481336, -0.11979684, -708447.06, 626152.56, 0.008103974, 10.005711, 9.996968 
1.985153e+3, 1.7381088e+2, -729913.8, -1325984.3, -29187.682, -0.07149458, -0.20642205, -728488.0, 508147.63, 0.001162936, 10.004873, 9.996956 
1.9851361e+3, 1.8380786e+2, -696154.44, -1164690.3, -50330.76, -0.07240059, -0.23823544, -690808.8, 447855.56, 0.000020362397, 10.004019, 9.997802 
1.9851194e+3, 1.9380629e+2, -728243.4, -1132260.6, -59184.074, -0.032668218, -0.18173613, -719752.06, 320927.78, 0.0, 10.003137, 9.997777 
1.9851026e+3, 2.0380457e+2, -718333.94, -993814.4, -43531.832, -0.010546062, -0.16156656, -711618.6, 231077.92, 0.0, 10.002174, 9.998518 
1.985086e+3, 2.1380268e+2, -781133.75, -977972.8, -34599.902, -0.019761888, -0.207354, -775229.0, 69485.42, 0.0, 10.001089, 9.998477 
1.9850695e+3, 2.2380142e+2, -750547.06, -783335.0, -26666.582, -0.022864908, -0.2278327, -735638.2, 11088.057, 0.0, 10.000071, 9.999631 
1.9850533e+3, 2.3380135e+2, -784851.94, -746371.06, -39487.875, -0.013874391, -0.20919113, -721685.56, -72958.766, 0.0, 9.999151, 9.999655 
1.9850372e+3, 2.4380139e+2, -794691.0, -648847.3, -26693.87, -0.012734923, -0.18650731, -644115.06, -93388.18, 0.0, 9.998191, 10.000113 
1.9850215e+3, 2.5380167e+2, -851221.56, -634186.4, -18083.74, -0.02607112, -0.17202581, -632689.94, -179964.22, 0.0, 9.997168, 10.000034 
1.9850059e+3, 2.6380208e+2, -828340.2, -467932.94, -21948.307, -0.017416343, -0.17132549, -466601.25, -111878.07, 0.0, 9.996203, 10.000967 
1.9849904e+3, 2.738031e+2, -859525.4, -435406.84, -35594.59, 0.030077418, -0.17344035, -432440.28, -175725.56, 0.0, 9.995332, 10.0009365 
1.984975e+3, 2.838048e+2, -849112.6, -310687.44, -14645.1455, 0.04536521, -0.12038025, -310289.38, -151589.83, 0.0, 9.994432, 10.001554 
1.9849594e+3, 2.9380718e+2, -905623.3, -290093.4, -245.96777, 0.0055933674, -0.042283714, -290093.3, -229415.75, 0.0, 9.993384, 10.001528 
1.9849446e+3, 3.0380714e+2, -1007837.3, -300857.4, 4559.8574, -0.0073695523, -0.1970335, -300828.0, -300828.0, 0.0, 9.99229, 10.001648 
1.9849293e+3, 3.1380928e+2, -919573.9, 95336.92, 33635.215, -0.0498887, -0.15352026, 96450.41, 96450.41, 0.0, 9.99137, 10.004813 
1.9952452e+3, 1.2384584e+2, -822896.2, -1744547.5, -32564.11, -0.069161706, -0.19560006, -821747.0, 904547.9, 0.144717, 10.009476, 9.995233 
1.9952284e+3, 1.3384219e+2, -741593.4, -1606379.6, -4214.7417, -0.10435218, -0.15809529, -741572.8, 886757.4, 0.10283936, 10.008685, 9.995906 
1.9952123e+3, 1.4383869e+2, -718381.5, -1556446.3, -61573.97, 0.012354209, -0.097136915, -713881.75, 816482.44, 0.060969967, 10.007794, 9.995989 
1.995193e+3, 1.5383384e+2, -753348.56, -1553529.3, -75687.09, -0.099699296, -0.17711322, -746252.44, 686159.6, 0.02782816, 10.006719, 9.995852 
1.9951747e+3, 1.6382976e+2, -715277.25, -1378754.4, -58582.027, -0.12138111, -0.2100399, -710144.4, 624307.5, 0.008560606, 10.005727, 9.996856 
1.9951583e+3, 1.7382698e+2, -736269.25, -1341641.1, -59139.12, -0.026217852, -0.18254554, -730546.06, 505932.47, 0.0012585938, 10.004881, 9.996845 
1.9951409e+3, 1.8382433e+2, -707662.94, -1189757.3, -82159.66, 0.005282601, -0.1635266, -694045.7, 444458.3, 0.000024181885, 10.004022, 9.99763 
1.9951223e+3, 1.9382204e+2, -740632.6, -1159250.9, -90583.08, -0.05638591, -0.16017163, -721872.44, 318653.84, 0.0, 10.00314, 9.997591 
1.9951043e+3, 2.0381986e+2, -708400.4, -974930.44, -82097.39, -0.073402904, -0.17953031, -685142.1, 257404.75, 0.0, 10.002179, 9.998648 
1.995087e+3, 2.1381801e+2, -768473.2, -953320.4, -73764.08, -0.021794893, -0.23919185, -742646.0, 101917.53, 0.0, 10.001094, 9.998646 
1.9950698e+3, 2.2381683e+2, -771349.7, -828331.4, -60833.215, -0.0021875282, -0.2465, -732666.06, 13908.42, 0.0, 10.000075, 9.999321 
1.9950522e+3, 2.338169e+2, -810989.75, -802187.0, -72662.06, -0.03260909, -0.1761237, -733793.1, -85217.945, 0.0, 9.999155, 9.999271 
1.9950353e+3, 2.438168e+2, -787116.9, -634620.94, -64059.445, -0.037526533, -0.15221342, -611282.94, -60705.74, 0.0, 9.998195, 10.00021 
1.9950189e+3, 2.5381652e+2, -838432.8, -609680.6, -55872.54, -0.0018027058, -0.20815533, -596763.2, -144183.19, 0.0, 9.997173, 10.0002 
1.9950025e+3, 2.6381692e+2, -841780.7, -497607.22, -55614.855, 0.021243546, -0.20946187, -488843.6, -134266.33, 0.0, 9.996208, 10.000762 
1.9949856e+3, 2.7381852e+2, -875754.4, -472985.0, -67942.27, 0.020967126, -0.128, -461832.75, -205268.45, 0.0, 9.995345, 10.000673 
1.994969e+3, 2.8381994e+2, -843014.2, -300720.44, -53716.254, 0.010853741, -0.09250125, -295450.84, -136898.47, 0.0, 9.994443, 10.001618 
1.9949527e+3, 2.938212e+2, -904434.25, -289117.03, -42644.223, -0.0024876844, -0.136201, -286175.7, -225635.02, 0.0, 9.993389, 10.0015335 
1.9949377e+3, 3.03823e+2, -1017138.1, -321035.66, -34044.707, 0.065792136, -0.09298061, -319374.56, -319374.56, 0.0, 9.992291, 10.001511 
1.9949204e+3, 3.1382456e+2, -922594.9, 87327.65, -27658.348, -0.06949746, -0.10465662, 88084.55, 88084.55, 0.0, 9.991379, 10.004754 
2.0052552e+3, 1.2386325e+2, -729390.56, -1701316.9, 12514.233, -0.06477684, -0.20102721, -729229.5, 996894.06, 0.14943145, 10.01031, 9.995155 
2.0052372e+3, 1.338594e+2, -784683.75, -1648576.5, 15952.09, -0.081938446, -0.1621132, -784389.3, 843772.0, 0.106438585, 10.008484, 9.995695 
2.00522e+3, 1.4385587e+2, -783829.94, -1590197.9, -22061.994, 0.034966704, -0.091747046, -783226.75, 746969.0, 0.06332253, 10.0073395, 9.995971 
2.0052001e+3, 1.5385084e+2, -678221.6, -1515483.9, -23250.307, -0.09557725, -0.18875974, -677576.44, 754668.6, 0.02905689, 10.007259, 9.995851 
2.0051809e+3, 1.6384672e+2, -595757.5, -1336355.0, -21211.537, -0.12533331, -0.22052102, -595150.5, 739135.0, 0.009023708, 10.006629, 9.996711 
2.0051633e+3, 1.7384405e+2, -710383.4, -1347607.6, -29212.28, -0.020823635, -0.16286127, -709047.0, 527264.44, 0.0013550975, 10.005143, 9.996676 
2.005145e+3, 1.838413e+2, -719762.0, -1200354.1, -38124.69, 0.0122027565, -0.1415003, -716756.44, 421581.53, 0.000027620323, 10.0039625, 9.997584 
2.0051254e+3, 1.9383858e+2, -726065.6, -1155684.0, -34605.285, -0.061114203, -0.17911613, -723296.06, 317067.8, 0.0, 10.003259, 9.997558 
2.0051065e+3, 2.0383628e+2, -683626.75, -969200.6, -37273.09, -0.08282478, -0.2069141, -678842.06, 263543.53, 0.0, 10.002378, 9.9985895 
2.0050882e+3, 2.1383476e+2, -755079.2, -953705.75, -48182.664, -0.024231315, -0.22450015, -744008.2, 100391.2, 0.0, 10.001218, 9.998582 
2.00507e+3, 2.2383367e+2, -765590.94, -835642.25, -30123.818, 0.000018119683, -0.21699405, -754418.75, -8008.7417, 0.0, 10.000161, 9.9992285 
2.0050515e+3, 2.3383334e+2, -800486.1, -808589.7, -21032.629, -0.030555736, -0.1758413, -783118.56, -134704.22, 0.0, 9.999278, 9.9991665 
2.0050335e+3, 2.4383298e+2, -777886.56, -640076.9, -12788.386, -0.037978582, -0.16729243, -638900.2, -88481.3, 0.0, 9.9983015, 10.00012 
2.005016e+3, 2.5383273e+2, -846876.1, -622930.56, -24598.012, -0.0051755123, -0.21122341, -620260.6, -167838.7, 0.0, 9.997159, 10.000115 
2.0049985e+3, 2.6383325e+2, -854142.2, -506621.66, -21363.275, 0.019007763, -0.19362873, -505313.3, -150895.25, 0.0, 9.9961405, 10.0007305 
2.0049809e+3, 2.73835e+2, -881000.4, -477793.56, -14231.349, 0.021855706, -0.09693868, -477291.88, -220888.2, 0.0, 9.995322, 10.00065 
2.0049633e+3, 2.838361e+2, -848798.4, -300502.0, -172.62799, 0.0060094474, -0.091670685, -300501.94, -142107.45, 0.0, 9.994393, 10.001642 
2.0049459e+3, 2.9383677e+2, -926365.56, -300476.28, 1708.2803, -0.01606627, -0.19583297, -300471.6, -240083.34, 0.0, 9.993246, 10.001522 
2.0049301e+3, 3.0383977e+2, -1017657.6, -294098.38, 32331.893, 0.08524457, -0.0423349, -292656.5, -292656.5, 0.0, 9.992172, 10.001752 
2.0049116e+3, 3.1384084e+2, -981621.9, 11833.217, 26833.955, -0.07951512, -0.1255266, 12557.493, 12557.493, 0.0, 9.991183, 10.004327 
2.0152658e+3, 1.2388256e+2, -752200.9, -1734016.8, -34775.57, -0.027978346, -0.13081509, -750970.7, 974963.06, 0.15427035, 10.010284, 9.994918 
2.0152456e+3, 1.3387689e+2, -811930.5, -1707751.9, -45755.156, -0.09805436, -0.23223701, -809599.56, 818389.44, 0.11013623, 10.008497, 9.995286 
2.0152272e+3, 1.4387287e+2, -778623.7, -1580998.6, -30478.564, 0.006908772, -0.18970911, -777467.56, 752560.6, 0.06573954, 10.007365, 9.996024 
2.0152077e+3, 1.5386909e+2, -671806.3, -1499721.5, -24928.229, -0.04743449, -0.17465363, -671056.4, 761009.2, 0.030317329, 10.0072565, 9.995961 
2.015188e+3, 1.6386545e+2, -611142.44, -1365503.4, -70468.04, -0.06744024, -0.15596256, -604616.2, 729485.4, 0.009497933, 10.006616, 9.996519 
2.015168e+3, 1.7386205e+2, -726252.5, -1382350.6, -84188.125, -0.054068975, -0.1477339, -715622.0, 520513.03, 0.001453942, 10.005148, 9.996437 
2.0151483e+3, 1.8385878e+2, -713321.94, -1190084.1, -66449.24, -0.04825321, -0.16928138, -704233.75, 433932.88, 0.00003072569, 10.003973, 9.997651 
2.0151287e+3, 1.9385587e+2, -718313.1, -1140981.3, -59552.086, -0.04805913, -0.23595694, -710082.75, 330110.53, 0.0, 10.003262, 9.997658 
2.015109e+3, 2.038537e+2, -700794.1, -1005699.8, -77723.99, -0.041930802, -0.24351364, -682124.56, 260089.11, 0.0, 10.002379, 9.99834 
2.0150894e+3, 2.1385285e+2, -775433.44, -997464.75, -90328.51, -0.02775392, -0.16507079, -743327.75, 100895.28, 0.0, 10.001222, 9.9982815 
2.0150699e+3, 2.238518e+2, -756974.8, -819622.8, -63192.9, -0.016127188, -0.14085574, -717768.44, 28465.26, 0.0, 10.000167, 9.999337 
2.0150511e+3, 2.3385055e+2, -788497.06, -785390.56, -52957.906, -0.0095113, -0.20793992, -733963.1, -85717.86, 0.0, 9.999283, 9.999326 
2.015032e+3, 2.4384984e+2, -796972.9, -681588.7, -53814.65, -0.015336245, -0.23043863, -660385.94, -110133.04, 0.0, 9.998307, 9.999834 
2.0150128e+3, 2.538502e+2, -870678.2, -675022.75, -67287.57, -0.03723641, -0.18086863, -654115.94, -201863.66, 0.0, 9.997167, 9.999756 
2.0149943e+3, 2.6385096e+2, -843428.5, -486161.4, -53800.746, -0.025269646, -0.12399484, -478235.4, -123988.7, 0.0, 9.996146, 10.00087 
2.0149764e+3, 2.7385232e+2, -864226.5, -445911.56, -44095.984, 0.031830393, -0.08322461, -441313.8, -185079.63, 0.0, 9.995333, 10.000865 
2.014958e+3, 2.838531e+2, -850264.4, -305835.16, -42913.85, 0.03183257, -0.11884144, -302473.3, -144246.25, 0.0, 9.9944, 10.001603 
2.0149389e+3, 2.938538e+2, -928748.06, -307554.9, -43990.855, -0.037499122, -0.21664204, -304455.06, -244233.97, 0.0, 9.993252, 10.001472 
2.0149218e+3, 3.0385724e+2, -971474.94, -199814.45, -3983.4268, 0.04224853, -0.05225774, -199793.89, -199793.89, 0.0, 9.992176, 10.0023985 
2.0149033e+3, 3.138597e+2, -1035472.75, -100852.08, -57782.973, -0.026050491, -0.05766945, -97293.195, -97293.195, 0.0, 9.991189, 10.003549 
2.0252758e+3, 1.2390169e+2, -890154.5, -1791953.6, -26092.363, 0.0016350977, -0.120086074, -889400.2, 836346.5, 0.15932576, 10.009129, 9.995074 
2.0252542e+3, 1.3389583e+2, -734068.9, -1663188.8, -21942.578, -0.10089087, -0.24058643, -733550.94, 894252.0, 0.11398969, 10.00913, 9.995285 
2.0252348e+3, 1.4389169e+2, -636027.25, -1522359.6, 4646.6543, -0.012718141, -0.20449226, -636002.9, 893840.2, 0.06825308, 10.008503, 9.99588 
2.025215e+3, 1.5388787e+2, -730569.9, -1547888.1, -8676.241, -0.020247169, -0.17498593, -730477.8, 701403.56, 0.031626943, 10.006933, 9.995785 
2.0251948e+3, 1.638842e+2, -722117.0, -1412540.8, -60451.832, -0.0302595, -0.15283553, -716863.94, 617053.94, 0.009991878, 10.005821, 9.996576 
2.0251733e+3, 1.7388076e+2, -682295.4, -1351235.5, -52362.574, -0.06394766, -0.15665437, -678221.44, 557729.94, 0.0015579927, 10.005412, 9.996522 
2.0251523e+3, 1.8387748e+2, -625077.4, -1155646.3, -30329.47, -0.07360517, -0.17905498, -623349.25, 514633.53, 0.000033759232, 10.004618, 9.997575 
2.025132e+3, 1.938746e+2, -729916.3, -1157761.6, -39510.06, -0.040361274, -0.23049697, -726298.3, 313711.03, 0.0, 10.003233, 9.997556 
2.0251116e+3, 2.0387243e+2, -740754.7, -1027620.8, -54609.07, -0.023392566, -0.23427549, -730710.75, 211319.5, 0.0, 10.002119, 9.998313 
2.0250906e+3, 2.1387143e+2, -747733.75, -985913.5, -47198.758, -0.03354391, -0.1689837, -738721.6, 105319.336, 0.0, 10.001422, 9.998262 
2.02507e+3, 2.238703e+2, -715274.8, -806668.56, -19969.445, -0.031985376, -0.14756039, -711102.0, 34950.414, 0.0, 10.000485, 9.999271 
2.0250502e+3, 2.3386908e+2, -810246.3, -803868.75, -28043.049, -0.0111663705, -0.20307854, -778833.75, -130769.64, 0.0, 9.99917, 9.999251 
2.0250301e+3, 2.4386843e+2, -832682.25, -699950.1, -24234.383, -0.008361107, -0.21611913, -695663.75, -145592.13, 0.0, 9.99807, 9.999821 
2.02501e+3, 2.5386882e+2, -851053.94, -666889.1, -12176.808, -0.03402733, -0.15894532, -666087.5, -214016.95, 0.0, 9.99731, 9.999742 
2.0249903e+3, 2.6386955e+2, -808144.56, -457093.72, 11323.784, -0.03134283, -0.11029044, -456728.8, -102663.61, 0.0, 9.996338, 10.000976 
2.0249714e+3, 2.7387074e+2, -903963.75, -451279.13, 13844.577, 0.017560208, -0.10015724, -450856.1, -194802.27, 0.0, 9.995003, 10.000985 
2.024952e+3, 2.8387168e+2, -927177.0, -335843.84, 16100.002, 0.02730854, -0.13006577, -335405.8, -177360.8, 0.0, 9.993845, 10.001663 
2.024932e+3, 2.9387292e+2, -957502.25, -309989.0, 24356.94, -0.024217803, -0.17402077, -309074.06, -249040.31, 0.0, 9.993009, 10.001572 
2.0249133e+3, 3.0387595e+2, -952168.6, -133044.73, 63392.695, -0.0032109746, -0.084509805, -128167.76, -128167.76, 0.0, 9.992062, 10.002912 
2.0248945e+3, 3.138794e+2, -1103743.6, -148956.69, -29532.973, 0.00008621654, -0.03878326, -148044.06, -148044.06, 0.0, 9.99079, 10.003408 
2.0352851e+3, 1.2392073e+2, -864235.5, -1720572.4, -18432.143, 0.023290167, -0.16121352, -863838.94, 861722.44, 0.16469671, 10.0091505, 9.995559 
2.0352635e+3, 1.3391614e+2, -717290.94, -1614108.6, -21298.293, -0.09480884, -0.19052057, -716785.4, 910818.25, 0.118061915, 10.00912, 9.995638 
2.0352432e+3, 1.4391218e+2, -663033.4, -1573940.0, -44239.883, -0.02779072, -0.14103734, -660889.9, 868751.6, 0.07089868, 10.008488, 9.995533 
2.035222e+3, 1.5390714e+2, -760855.06, -1613001.8, -65389.266, -0.01331974, -0.19045623, -755866.6, 675826.1, 0.033005316, 10.006939, 9.9953375 
2.0352007e+3, 1.6390292e+2, -700959.5, -1370740.5, -78613.53, -0.012728775, -0.20824203, -691856.2, 641878.3, 0.01051551, 10.005833, 9.9968605 
2.0351788e+3, 1.7390011e+2, -655738.56, -1296623.8, -66111.055, -0.052447625, -0.18755879, -648989.9, 586770.94, 0.0016710538, 10.005412, 9.996899 
2.035157e+3, 1.8389735e+2, -641547.7, -1189480.4, -77585.25, -0.06732136, -0.17146197, -630773.75, 507013.56, 0.00003726964, 10.004614, 9.997346 
2.0351352e+3, 1.9389473e+2, -751060.8, -1203068.1, -90231.695, -0.038542908, -0.16565315, -733714.06, 306098.94, 0.0, 10.003237, 9.997244 
2.0351136e+3, 2.0389234e+2, -726925.94, -1000830.7, -82146.97, -0.026472379, -0.18140586, -704178.4, 237657.8, 0.0, 10.002125, 9.998496 
2.035092e+3, 2.138904e+2, -730562.94, -950947.0, -71466.16, -0.042672824, -0.23390488, -709416.9, 134436.97, 0.0, 10.001423, 9.998505 
2.0350704e+3, 2.2388908e+2, -732406.3, -842989.7, -65736.734, -0.048729077, -0.23437087, -701799.9, 44067.055, 0.0, 10.000486, 9.999023 
2.035049e+3, 2.3388882e+2, -831030.75, -848966.06, -76392.26, -0.03552474, -0.16206928, -763081.6, -115209.7, 0.0, 9.999176, 9.998941 
2.0350282e+3, 2.438886e+2, -814496.3, -664059.25, -54518.652, -0.0168044, -0.1257376, -646379.4, -96503.24, 0.0, 9.9980755, 10.000067 
2.0350076e+3, 2.5388855e+2, -827492.5, -620174.4, -39784.984, 0.0032020535, -0.14654845, -612801.7, -160924.02, 0.0, 9.997316, 10.00006 
2.0349869e+3, 2.6388893e+2, -802041.06, -446843.34, -36540.098, -0.000291238, -0.1536065, -443123.34, -89248.76, 0.0, 9.996345, 10.001044 
2.0349659e+3, 2.7389008e+2, -901534.4, -448733.63, -36996.668, -0.02365316, -0.14779294, -445730.7, -189867.14, 0.0, 9.99501, 10.001001 
2.0349455e+3, 2.8389162e+2, -916482.06, -314220.03, -18309.947, -0.008757216, -0.1232805, -313663.88, -155814.73, 0.0, 9.993846, 10.001813 
2.0349257e+3, 2.9389408e+2, -938933.3, -274959.28, -6342.129, 0.026496438, -0.06636937, -274898.7, -215071.73, 0.0, 9.993022, 10.001807 
2.034905e+3, 3.038957e+2, -924950.44, -79760.305, 17860.084, -0.055857945, -0.14598899, -79383.06, -79383.06, 0.0, 9.992072, 10.003275 
2.0348854e+3, 3.138991e+2, -1048335.7, -34678.582, -74039.74, 0.0027296424, -0.13817225, -29299.105, -29299.105, 0.0, 9.990788, 10.004197 
2.0452946e+3, 1.23941e+2, -774014.75, -1665175.4, 26092.803, 0.023533288, -0.17587532, -773251.44, 952111.5, 0.17043369, 10.0099, 9.995655 
2.0452727e+3, 1.3393669e+2, -763552.75, -1638098.6, -3320.3936, -0.06354362, -0.17388909, -763540.2, 863862.06, 0.122392274, 10.008805, 9.995612 
2.0452514e+3, 1.4393264e+2, -746618.0, -1611808.8, -45155.117, -0.012284359, -0.1341302, -744267.7, 785173.2, 0.0737023, 10.00787, 9.995569 
2.0452291e+3, 1.5392745e+2, -731678.5, -1592838.4, -36488.83, -0.022682495, -0.20281583, -730135.2, 701358.25, 0.03446723, 10.007134, 9.995379 
2.0452066e+3, 1.639232e+2, -632646.75, -1332812.6, -23489.598, -0.025425246, -0.22751397, -631859.56, 701675.8, 0.01107631, 10.006293, 9.996897 
2.0451844e+3, 1.7392054e+2, -668362.6, -1299105.6, -33936.55, -0.036434606, -0.19428506, -666541.94, 569018.2, 0.0017966868, 10.005312, 9.996928 
2.0451616e+3, 1.8391785e+2, -679465.2, -1207264.0, -67272.81, -0.044319656, -0.17054173, -671025.56, 466560.38, 0.000042083182, 10.004353, 9.997349 
2.0451385e+3, 1.9391525e+2, -725253.94, -1190123.1, -60182.71, -0.04090083, -0.16434428, -717589.0, 322022.88, 0.0, 10.003414, 9.997246 
2.0451157e+3, 2.0391284e+2, -692717.94, -979501.6, -38763.797, -0.039546374, -0.1824458, -687570.75, 254064.38, 0.0, 10.002342, 9.998536 
2.0450932e+3, 2.1391086e+2, -778822.9, -969410.75, -42732.633, -0.045159403, -0.24269128, -769680.1, 73972.77, 0.0, 10.001073, 9.998545 
2.0450705e+3, 2.2390954e+2, -802245.6, -876276.44, -38628.336, -0.051598676, -0.2454805, -785760.7, -40094.664, 0.0, 10.000008, 9.999023 
2.045048e+3, 2.3390937e+2, -820676.25, -844212.5, -27296.715, -0.053662136, -0.16482297, -802719.0, -155048.42, 0.0, 9.999251, 9.998936 
2.0450261e+3, 2.4390924e+2, -777887.3, -631275.7, 2879.9695, -0.03209344, -0.123132855, -631219.1, -81545.36, 0.0, 9.998263, 10.000199 
2.0450048e+3, 2.539093e+2, -874379.3, -625701.6, 5545.02, 0.015537428, -0.14718798, -625578.06, -173904.23, 0.0, 9.9969225, 10.000211 
2.0449832e+3, 2.639097e+2, -877843.5, -472725.16, 1004.4175, 0.0074545452, -0.1641632, -472722.66, -119052.52, 0.0, 9.995782, 10.001137 
2.0449606e+3, 2.739108e+2, -905666.94, -441888.4, 3773.7534, -0.059777085, -0.1704796, -441857.72, -186198.19, 0.0, 9.994947, 10.001078 
2.0449392e+3, 2.8391257e+2, -888193.56, -287139.2, 26230.383, -0.033171713, -0.13330446, -285996.66, -128353.484, 0.0, 9.993984, 10.00193 
2.044919e+3, 2.9391548e+2, -972142.5, -273466.97, 33728.875, 0.07291032, -0.041928034, -271842.47, -212225.56, 0.0, 9.992722, 10.001961 
2.0448965e+3, 3.0391687e+2, -1018481.9, -118742.93, 36996.832, -0.07237989, -0.1591453, -117224.195, -117224.195, 0.0, 9.991409, 10.003324 
2.0448762e+3, 3.1392053e+2, -1066525.9, 22905.02, -47630.3, 0.03412622, -0.12531625, 24983.469, 24983.469, 0.0, 9.99038, 10.004787 
2.0553045e+3, 1.2396248e+2, -795338.2, -1696908.0, -3108.9817, 0.0009592918, -0.15794238, -795327.44, 929824.06, 0.17650738, 10.009906, 9.995392 
2.055282e+3, 1.3395746e+2, -789925.3, -1692346.8, -37572.11, -0.01065951, -0.19093871, -788363.75, 838835.4, 0.1269705, 10.008813, 9.995239 
2.0552598e+3, 1.4395308e+2, -723112.44, -1555872.8, -69952.516, 0.029953763, -0.18141499, -717277.25, 811964.06, 0.0766653, 10.007875, 9.9959545 
2.0552358e+3, 1.5394872e+2, -699389.7, -1522543.3, -61718.574, -0.04854685, -0.211223, -694787.8, 736496.06, 0.03601726, 10.007138, 9.995863 
2.0552124e+3, 1.6394491e+2, -647694.75, -1364352.1, -58103.977, -0.06789071, -0.21194689, -643014.44, 690306.94, 0.011678059, 10.006294, 9.996681 
2.0551898e+3, 1.7394195e+2, -690220.94, -1344709.8, -69281.7, -0.017127702, -0.1787552, -682967.44, 552382.9, 0.0019374271, 10.005311, 9.996617 
2.0551662e+3, 1.8393897e+2, -664108.4, -1175161.9, -101217.83, -0.0061069243, -0.17677912, -644791.56, 492587.63, 0.000049049686, 10.004349, 9.997573 
2.0551418e+3, 1.9393611e+2, -705337.25, -1148779.1, -93869.0, -0.047959354, -0.22379345, -686285.3, 353121.0, 0.0, 10.003411, 9.997533 
2.0551176e+3, 2.0393388e+2, -700516.56, -996295.75, -83896.93, -0.06296467, -0.23477717, -678376.7, 263051.0, 0.0, 10.002342, 9.998423 
2.0550942e+3, 2.1393272e+2, -790000.3, -994080.56, -88876.98, -0.041658673, -0.19675128, -756721.2, 86717.98, 0.0, 10.001077, 9.998375 
2.0550705e+3, 2.2393158e+2, -784654.3, -841608.7, -67755.516, -0.041244846, -0.1832342, -739634.8, 5815.891, 0.0, 10.000013, 9.999261 
2.0550472e+3, 2.339306e+2, -800122.5, -802834.2, -54335.3, -0.06704258, -0.21087216, -747126.1, -99665.11, 0.0, 9.999253, 9.99922 
2.0550242e+3, 2.4393027e+2, -776721.8, -630048.7, -44764.33, -0.055233177, -0.20720676, -617466.1, -68000.695, 0.0, 9.998266, 10.000208 
2.0550017e+3, 2.53931e+2, -875263.75, -629615.7, -44768.48, 0.00216845, -0.16112873, -621711.2, -170251.3, 0.0, 9.996929, 10.000183 
2.0549788e+3, 2.6393178e+2, -869743.1, -457360.1, -32686.537, -0.008213376, -0.14132392, -454785.38, -101332.59, 0.0, 9.995785, 10.001243 
2.054955e+3, 2.7393284e+2, -895378.2, -423248.97, -26993.094, -0.09206912, -0.16776426, -421710.7, -166268.02, 0.0, 9.994956, 10.001204 
2.0549332e+3, 2.8393438e+2, -880957.06, -275239.06, -19551.902, -0.04749235, -0.1628959, -274608.6, -117180.26, 0.0, 9.993995, 10.002009 
2.0549121e+3, 2.9393697e+2, -966554.9, -264862.44, -16336.91, 0.11313583, -0.108015664, -264482.3, -205077.05, 0.0, 9.99273, 10.002017 
2.0548882e+3, 3.039394e+2, -1040756.9, -162228.13, -10069.369, -0.048877068, -0.112726204, -162112.73, -162112.73, 0.0, 9.991398, 10.003031 
2.0548664e+3, 3.1394255e+2, -1051148.4, 53602.35, -27308.686, 0.03154061, -0.09837259, 54276.992, 54276.992, 0.0, 9.990379, 10.005003 
2.0653142e+3, 1.23984694e+2, -767042.2, -1681054.0, 16349.772, -0.0052297125, -0.15763262, -766749.8, 958183.94, 0.18282254, 10.010211, 9.995379 
2.065291e+3, 1.339797e+2, -777922.9, -1686396.5, 1072.1046, 0.008610397, -0.18653469, -777921.6, 849060.0, 0.13173634, 10.00896, 9.995208 
2.0652679e+3, 1.4397512e+2, -711867.7, -1536244.0, -10862.04, 0.033881128, -0.19627964, -711724.56, 817300.9, 0.07975999, 10.007931, 9.996058 
2.065243e+3, 1.5397115e+2, -678131.0, -1498222.4, -24049.932, -0.05245833, -0.20153822, -677426.3, 753637.94, 0.037647627, 10.007244, 9.995977 
2.0652187e+3, 1.6396742e+2, -644411.1, -1367431.3, -41962.43, -0.0732877, -0.19595388, -641983.8, 691116.75, 0.01232028, 10.006342, 9.996636 
2.065195e+3, 1.739642e+2, -723453.5, -1367339.8, -37440.816, -0.011789834, -0.18140766, -721283.7, 513848.75, 0.0020940625, 10.005113, 9.996556 
2.0651707e+3, 1.8396118e+2, -702337.2, -1176565.6, -55613.063, 0.0031293943, -0.18672025, -695902.7, 441259.1, 0.000058682646, 10.004016, 9.997722 
2.0651452e+3, 1.9395858e+2, -736249.3, -1144360.1, -56928.15, -0.04742861, -0.22471102, -728457.1, 310728.88, 0.0, 10.0031185, 9.997703 
2.0651199e+3, 2.0395647e+2, -726717.7, -1017147.56, -56857.277, -0.06951251, -0.22954664, -715983.5, 225222.72, 0.0, 10.0022, 9.998346 
2.0650952e+3, 2.1395522e+2, -773474.8, -997571.6, -59142.598, -0.05064861, -0.18932943, -758824.0, 84395.3, 0.0, 10.001243, 9.998269 
2.0650706e+3, 2.239541e+2, -743994.75, -792901.75, -31034.348, -0.046576146, -0.17878084, -728937.44, 16293.096, 0.0, 10.000171, 9.999518 
2.0650464e+3, 2.3395331e+2, -826497.7, -782420.7, -17041.475, -0.060821783, -0.21765816, -776600.44, -129362.79, 0.0, 9.998933, 9.999514 
2.0650223e+3, 2.4395302e+2, -842016.44, -663994.6, -11819.185, -0.054298725, -0.2228508, -663213.3, -113972.46, 0.0, 9.997831, 10.000183 
2.0649983e+3, 2.5395364e+2, -881250.9, -639517.0, -15651.972, -0.025273524, -0.18041107, -638507.75, -187271.03, 0.0, 9.996922, 10.000116 
2.0649743e+3, 2.639545e+2, -850568.06, -438628.34, -3010.3481, -0.03462793, -0.156015, -438606.34, -85376.83, 0.0, 9.995878, 10.001326 
2.0649502e+3, 2.7395576e+2, -934478.56, -430727.66, 2037.6329, -0.07621825, -0.16797833, -430719.4, -175502.16, 0.0, 9.99464, 10.001303 
2.064927e+3, 2.8395733e+2, -931821.9, -296887.94, 7974.223, -0.028901525, -0.16802175, -296787.8, -139585.02, 0.0, 9.993635, 10.002033 
2.0649046e+3, 2.9395965e+2, -940966.9, -250729.67, 3585.0632, 0.08462245, -0.14088574, -250711.05, -191528.89, 0.0, 9.992902, 10.002029 
2.0648797e+3, 3.0396253e+2, -991121.3, -144685.67, 5722.0366, -0.041299842, -0.09820945, -144647.0, -144647.0, 0.0, 9.991769, 10.002971 
2.0648569e+3, 3.1396502e+2, -1083093.3, 9492.314, 52383.2, 0.048248336, -0.14354026, 11998.041, 11998.041, 0.0, 9.990283, 10.004746 
2.0753245e+3, 1.2400765e+2, -762299.3, -1655486.4, -19890.168, 0.001639878, -0.16693114, -761856.6, 962852.7, 0.18926787, 10.010206, 9.995602 
2.0752998e+3, 1.3400327e+2, -764623.94, -1645940.9, -38416.41, -0.004996626, -0.1610252, -762952.56, 863798.0, 0.13661385, 10.008968, 9.995483 
2.0752753e+3, 1.4399868e+2, -724534.3, -1562414.1, -35709.668, 0.0005679854, -0.17978792, -723015.1, 805779.4, 0.08294622, 10.007943, 9.995875 
2.0752503e+3, 1.5399455e+2, -695807.5, -1533660.0, -47239.973, -0.03797923, -0.17669004, -693152.44, 737683.0, 0.039342616, 10.007241, 9.995738 
2.0752254e+3, 1.6399065e+2, -637243.25, -1350600.3, -83763.266, -0.045826998, -0.18120277, -627539.6, 705334.1, 0.012998378, 10.006334, 9.996758 
2.0752e+3, 1.7398724e+2, -711624.1, -1343470.5, -81735.4, -0.020186758, -0.20166014, -701222.1, 533684.94, 0.0022654994, 10.005114, 9.996722 
2.0751743e+3, 1.8398441e+2, -697697.0, -1168175.3, -89045.766, -0.015778568, -0.19968745, -681407.56, 455526.8, 0.00007104288, 10.004018, 9.99778 
2.0751482e+3, 1.9398254e+2, -733168.4, -1138889.3, -88900.43, -0.040606398, -0.1690221, -714543.7, 324408.1, 0.0, 10.003119, 9.997742 
2.0751223e+3, 2.0398049e+2, -729444.25, -1023569.0, -91101.97, -0.06034151, -0.16956978, -703512.7, 237459.08, 0.0, 10.0022, 9.998303 
2.0750962e+3, 2.1397828e+2, -777605.6, -1006275.56, -93342.46, -0.07273415, -0.2201152, -744342.2, 98651.93, 0.0, 10.001241, 9.998212 
2.0750706e+3, 2.2397703e+2, -725572.5, -755304.06, -75074.85, -0.06781616, -0.23021244, -663905.8, 81100.32, 0.0, 10.000171, 9.999777 
2.0750454e+3, 2.3397736e+2, -805465.5, -740409.94, -62429.27, -0.03606703, -0.18569212, -702542.6, -55541.055, 0.0, 9.998938, 9.999801 
2.0750202e+3, 2.439774e+2, -845958.25, -673954.7, -46792.582, -0.030272974, -0.17108859, -662049.1, -113048.02, 0.0, 9.997836, 10.000114 
2.0749949e+3, 2.5397715e+2, -888390.6, -656218.2, -49856.215, -0.06845024, -0.20513009, -645965.0, -194959.66, 0.0, 9.996926, 10.000002 
2.0749697e+3, 2.6397765e+2, -846588.0, -431915.63, -48843.293, -0.07199983, -0.20855865, -426240.16, -73238.71, 0.0, 9.995882, 10.00137 
2.0749453e+3, 2.7397949e+2, -928602.25, -420857.22, -44447.555, -0.01075452, -0.17263612, -416995.7, -162011.22, 0.0, 9.994647, 10.0013685 
2.0749211e+3, 2.8398132e+2, -934564.94, -304629.94, -22303.53, 0.021969173, -0.14816539, -303841.25, -146873.63, 0.0, 9.99364, 10.001979 
2.0748965e+3, 2.939834e+2, -942935.4, -258420.48, -26847.4, -0.02136382, -0.13733427, -257369.11, -198420.52, 0.0, 9.992913, 10.001973 
2.0748714e+3, 3.0398604e+2, -975957.44, -114332.42, -53025.32, -0.04674674, -0.12264732, -111081.45, -111081.45, 0.0, 9.991773, 10.003178 
2.0748474e+3, 3.1398922e+2, -1147825.4, -128569.305, 14674.62, 0.065311275, -0.1191095, -128358.07, -128358.07, 0.0, 9.990295, 10.003794 
2.0853347e+3, 1.2403188e+2, -786010.2, -1678703.1, 19473.32, 0.0077704806, -0.176206, -785585.56, 938886.06, 0.19576366, 10.010151, 9.995434 
2.0853089e+3, 1.3402764e+2, -738231.1, -1635912.0, -17219.926, -0.0117006395, -0.1450964, -737900.94, 888611.0, 0.14154823, 10.009254, 9.995413 
2.0852832e+3, 1.4402296e+2, -684581.5, -1531901.6, -15036.062, -0.024533598, -0.17527689, -684314.8, 844242.6, 0.08618991, 10.008233, 9.995943 
2.0852576e+3, 1.5401883e+2, -719281.9, -1534719.0, -3687.6255, -0.028298428, -0.1779787, -719265.2, 711332.3, 0.041083615, 10.007041, 9.995825 
2.0852317e+3, 1.6401501e+2, -682923.06, -1362644.0, -30856.795, -0.026260324, -0.18235809, -681525.2, 651109.7, 0.0137040485, 10.005979, 9.996845 
2.085205e+3, 1.740118e+2, -707396.2, -1331989.0, -35455.324, -0.027529022, -0.19205248, -705390.0, 529276.7, 0.002449015, 10.005104, 9.996804 
2.0851782e+3, 1.84009e+2, -682129.06, -1164055.8, -47206.457, -0.032364693, -0.18849586, -677548.56, 459145.22, 0.00008583549, 10.004141, 9.997748 
2.0851514e+3, 1.9400698e+2, -746262.6, -1149803.5, -53494.24, -0.039425913, -0.16898751, -739291.7, 299420.94, 0.0, 10.003052, 9.997698 
2.0851243e+3, 2.0400493e+2, -748310.5, -1012802.56, -52247.48, -0.05159522, -0.173015, -738363.6, 202368.6, 0.0, 10.001988, 9.998477 
2.0850974e+3, 2.1400298e+2, -804106.7, -996774.1, -36975.047, -0.071828365, -0.21674056, -797254.44, 45497.203, 0.0, 10.000966, 9.998407 
2.0850706e+3, 2.2400181e+2, -766545.06, -787073.4, -25348.436, -0.06904491, -0.22544585, -749461.56, -4698.5176, 0.0, 9.999944, 9.999667 
2.0850444e+3, 2.3400192e+2, -818789.4, -763074.0, -46267.77, -0.031299178, -0.18637745, -736924.7, -90163.586, 0.0, 9.9989195, 9.999652 
2.085018e+3, 2.4400195e+2, -827457.5, -637472.9, -34307.785, -0.0255436, -0.17568734, -631467.3, -82706.77, 0.0, 9.997848, 10.000358 
2.0849915e+3, 2.5400195e+2, -900403.2, -630159.8, -7270.4146, -0.06797484, -0.21328293, -629964.4, -179203.3, 0.0, 9.99671, 10.000283 
2.0849656e+3, 2.6400253e+2, -888204.94, -462195.7, 2592.1987, -0.06699335, -0.22109568, -462179.94, -109423.6, 0.0, 9.995643, 10.001277 
2.0849402e+3, 2.7400422e+2, -938557.1, -440733.8, -9048.317, 0.0014725028, -0.18288557, -440569.4, -185827.6, 0.0, 9.994647, 10.001231 
2.0849146e+3, 2.840062e+2, -944349.06, -297000.9, 15035.965, 0.010513406, -0.14164443, -296651.88, -139927.86, 0.0, 9.993522, 10.002089 
2.0848884e+3, 2.940086e+2, -1026125.06, -284281.13, 25936.91, -0.07155813, -0.11278672, -283375.4, -224674.38, 0.0, 9.992283, 10.0021 
2.0848633e+3, 3.040106e+2, -1008541.8, -111675.15, 2850.396, -0.0108679915, -0.17826673, -111666.086, -111666.086, 0.0, 9.991471, 10.003342 
2.0848377e+3, 3.1401455e+2, -1075558.6, -138408.06, 54026.918, 0.027887227, -0.10761768, -135303.69, -135303.69, 0.0, 9.990986, 10.003392 
2.095345e+3, 1.2405727e+2, -822915.2, -1744301.6, -10249.442, 0.011882744, -0.18416181, -822801.2, 901420.44, 0.20228696, 10.01015, 9.99491 
2.0953181e+3, 1.340528e+2, -767877.1, -1696389.1, -44500.57, -0.014354025, -0.13792609, -765749.25, 860517.25, 0.1465212, 10.009254, 9.995001 
2.095291e+3, 1.4404787e+2, -667420.7, -1491512.3, -52715.063, -0.04445195, -0.18210554, -664062.3, 864252.3, 0.089472786, 10.008239, 9.9962435 
2.0952646e+3, 1.5404394e+2, -694276.6, -1478988.9, -44698.83, -0.023936491, -0.20282544, -691738.7, 738612.4, 0.04285488, 10.007044, 9.996208 
2.0952375e+3, 1.6404045e+2, -681286.56, -1358796.4, -63033.22, -0.015299343, -0.19699411, -675472.06, 656912.56, 0.014427921, 10.005978, 9.996874 
2.09521e+3, 1.7403775e+2, -708245.3, -1334412.5, -66702.68, -0.03550512, -0.15419632, -701218.6, 533193.8, 0.0026409272, 10.005105, 9.996789 
2.0951821e+3, 1.8403485e+2, -689920.4, -1181304.0, -85877.57, -0.047508936, -0.15536104, -675344.2, 461096.78, 0.00010254462, 10.004143, 9.99763 
2.0951542e+3, 1.9403182e+2, -755751.0, -1170071.6, -92392.62, -0.04407496, -0.22289893, -736081.44, 302387.7, 0.0, 10.003051, 9.9975605 
2.0951265e+3, 2.0402977e+2, -721926.75, -958819.1, -89268.71, -0.04380625, -0.2365242, -692054.4, 248433.86, 0.0, 10.001989, 9.998849 
2.0950983e+3, 2.1402925e+2, -773821.6, -934923.0, -73627.72, -0.04990553, -0.17901227, -745241.9, 97251.11, 0.0, 10.000968, 9.998833 
2.0950706e+3, 2.240283e+2, -800317.25, -858563.1, -62768.813, -0.051530696, -0.16624025, -760244.3, -15741.841, 0.0, 9.999947, 9.999176 
2.0950432e+3, 2.3402692e+2, -860149.1, -850237.8, -83555.05, -0.047183495, -0.22015607, -771491.6, -124974.4, 0.0, 9.998922, 9.999054 
2.095016e+3, 2.440266e+2, -788323.25, -557690.3, -76410.98, -0.03993042, -0.23545647, -534671.94, 13848.154, 0.0, 9.99785, 10.000906 
2.0949888e+3, 2.5402793e+2, -852108.2, -532202.3, -49826.56, -0.025028218, -0.20488407, -524621.3, -74116.414, 0.0, 9.9967165, 10.000955 
2.0949617e+3, 2.6402897e+2, -904591.06, -498456.06, -35842.137, -0.021160038, -0.19435526, -495317.2, -142821.98, 0.0, 9.995649, 10.001026 
2.0949343e+3, 2.7402985e+2, -961804.75, -491963.7, -47533.81, -0.04263205, -0.2004438, -487202.94, -232712.53, 0.0, 9.994657, 10.000876 
2.0949072e+3, 2.8403187e+2, -924947.0, -257620.53, -32870.727, -0.06478217, -0.14779395, -256005.31, -99532.48, 0.0, 9.993523, 10.002359 
2.0948808e+3, 2.9403517e+2, -1005153.44, -240762.05, -20091.395, -0.06266208, -0.064026944, -240234.33, -181794.33, 0.0, 9.99228, 10.002402 
2.0948555e+3, 3.0403587e+2, -1001853.3, -99593.47, -14680.594, 0.06580128, -0.2750961, -99354.664, -99354.664, 0.0, 9.991475, 10.003425 
2.0948282e+3, 3.1404132e+2, -1041900.75, -75492.37, -18903.639, -0.015572898, -0.06656901, -75122.74, -75122.74, 0.0, 9.991014, 10.003812 
2.105355e+3, 1.24083646e+2, -842545.75, -1764061.0, 12413.262, 0.008277289, -0.18294221, -842378.6, 881584.3, 0.20886096, 10.010098, 9.994799 
2.1053274e+3, 1.3407917e+2, -745460.56, -1675602.6, 11554.363, -0.005002004, -0.13917612, -745317.06, 880691.06, 0.1515362, 10.009457, 9.995043 
2.1052995e+3, 1.4407425e+2, -633693.25, -1466320.9, -2414.536, -0.042343765, -0.18752612, -633686.25, 894370.06, 0.092783846, 10.008485, 9.996314 
2.1052717e+3, 1.5407048e+2, -694256.7, -1468775.1, -14959.75, -0.013356726, -0.20115818, -693967.8, 736123.3, 0.04464178, 10.007015, 9.99629 
2.1052437e+3, 1.6406707e+2, -704500.2, -1368107.8, -27560.291, -0.0048596906, -0.19107823, -703357.56, 628766.25, 0.015159861, 10.005814, 9.996887 
2.105215e+3, 1.7406438e+2, -720653.5, -1339398.5, -28085.088, -0.036694746, -0.14838035, -719381.3, 514770.44, 0.002836734, 10.005018, 9.996795 
2.1051863e+3, 1.8406147e+2, -688243.25, -1166999.4, -48090.465, -0.052830026, -0.15540831, -683460.4, 452719.8, 0.00012047842, 10.004099, 9.997747 
2.1051572e+3, 1.940584e+2, -755293.3, -1155478.1, -37728.824, -0.04382963, -0.2375802, -751767.4, 286440.63, 0.0, 10.002995, 9.997686 
2.1051285e+3, 2.0405638e+2, -735582.44, -972351.6, -35671.477, -0.03829103, -0.25162107, -730324.94, 209901.7, 0.0, 10.001927, 9.998785 
2.1050994e+3, 2.1405599e+2, -786679.25, -950445.25, -57744.24, -0.0384589, -0.17378336, -768366.3, 73864.55, 0.0, 10.000922, 9.998747 
2.1050705e+3, 2.2405505e+2, -799210.4, -849284.2, -48519.83, -0.041405495, -0.15864168, -769648.56, -25408.123, 0.0, 9.99992, 9.99925 
2.105042e+3, 2.3405349e+2, -854443.1, -837433.6, -19436.643, -0.049019735, -0.23604251, -824722.5, -178466.22, 0.0, 9.998921, 9.999141 
2.1050134e+3, 2.4405317e+2, -784877.0, -550752.25, -5788.6563, -0.044719033, -0.2566731, -550609.25, -2350.4023, 0.0, 9.997854, 10.00095 
2.1049854e+3, 2.5405475e+2, -855493.3, -529732.3, -27388.256, -0.018316923, -0.20394525, -527445.7, -77204.4, 0.0, 9.996678, 10.000988 
2.1049573e+3, 2.640559e+2, -914085.6, -496181.16, -23770.37, -0.014345494, -0.18712695, -494833.44, -142602.92, 0.0, 9.995557, 10.001085 
2.1049286e+3, 2.7405667e+2, -976405.8, -491776.88, -4931.9326, -0.053496934, -0.21253051, -491726.7, -237499.89, 0.0, 9.994528, 10.000938 
2.1049006e+3, 2.840587e+2, -928458.3, -244318.4, 15415.66, -0.07563909, -0.1697013, -243971.22, -87762.22, 0.0, 9.993437, 10.002492 
2.1048734e+3, 2.940622e+2, -1002577.06, -227617.77, 13577.068, -0.043157812, -0.07327311, -227379.97, -169206.47, 0.0, 9.9922495, 10.002505 
2.104847e+3, 3.040629e+2, -1020228.2, -104208.46, 33509.473, 0.058521397, -0.29258332, -102984.266, -102984.266, 0.0, 9.991333, 10.00346 
2.1048188e+3, 3.1406876e+2, -1088591.0, -70810.17, -21721.78, -0.03902852, -0.047637913, -70346.79, -70346.79, 0.0, 9.9905815, 10.00405 
2.115365e+3, 1.24110915e+2, -833752.2, -1726169.4, -10253.756, -0.004258298, -0.17498985, -833634.4, 890061.8, 0.21551323, 10.010118, 9.995049 
2.1153371e+3, 1.3410673e+2, -726068.2, -1615665.1, -6055.9766, 0.013265778, -0.14756669, -726026.94, 899710.8, 0.15658966, 10.00945, 9.995469 
2.115308e+3, 1.4410199e+2, -647773.75, -1487288.6, -48482.49, -0.022550078, -0.19119932, -644983.2, 882800.6, 0.096104324, 10.008472, 9.996164 
2.1152788e+3, 1.5409832e+2, -707800.3, -1498634.4, -66428.68, 0.0009868188, -0.17542326, -702259.25, 727559.75, 0.046425942, 10.007025, 9.996084 
2.1152495e+3, 1.6409478e+2, -702923.9, -1368163.0, -57077.066, 0.0038537714, -0.16695316, -698062.2, 633791.1, 0.015888741, 10.00583, 9.9968815 
2.11522e+3, 1.7409159e+2, -719476.25, -1337514.5, -55226.363, -0.0319411, -0.17260747, -714580.2, 519305.1, 0.0030319265, 10.005019, 9.996809 
2.1151905e+3, 1.840888e+2, -665758.8, -1119873.3, -86788.5, -0.049814276, -0.18582042, -649737.4, 486174.66, 0.00013897718, 10.004094, 9.9980755 
2.1151604e+3, 1.9408663e+2, -729704.6, -1103290.0, -77651.734, -0.040261034, -0.2139721, -714207.2, 323723.1, 0.00000000000010610821, 10.0029955, 9.998046 
2.1151304e+3, 2.0408465e+2, -769668.56, -1045039.06, -72419.4, -0.035342142, -0.22092256, -751784.56, 188164.27, 0.0, 10.001933, 9.998285 
2.1151003e+3, 2.1408309e+2, -827841.2, -1036754.7, -93396.41, -0.037883174, -0.20097217, -792176.2, 49790.03, 0.0, 10.000922, 9.998156 
2.1150705e+3, 2.2408196e+2, -755316.9, -759339.0, -84465.22, -0.0390751, -0.20037664, -672838.75, 71138.805, 0.0, 9.999922, 9.999869 
2.115041e+3, 2.340816e+2, -801183.25, -728583.5, -55855.094, -0.038271222, -0.23355314, -698269.0, -52289.883, 0.0, 9.998925, 9.999887 
2.1150115e+3, 2.440816e+2, -817777.25, -620436.6, -49166.74, -0.04117149, -0.24066474, -608865.4, -60887.355, 0.0, 9.997858, 10.000471 
2.1149817e+3, 2.5408232e+2, -897997.4, -619993.25, -71903.164, -0.049005527, -0.21194483, -602497.25, -152525.78, 0.0, 9.996684, 10.000367 
2.1149524e+3, 2.640833e+2, -887177.3, -442486.16, -63862.598, -0.046577305, -0.19839387, -433496.53, -81533.266, 0.0, 9.995563, 10.001452 
2.1149233e+3, 2.7408457e+2, -940799.7, -420733.13, -44461.703, -0.031950634, -0.21808715, -416959.38, -163007.58, 0.0, 9.994535, 10.001425 
2.1148945e+3, 2.840865e+2, -929490.94, -247813.4, -29677.652, -0.022082152, -0.21065651, -246523.8, -90590.13, 0.0, 9.99344, 10.002467 
2.1148658e+3, 2.9408956e+2, -1008935.3, -244073.11, -30544.877, -0.012688717, -0.15103535, -242855.23, -184951.81, 0.0, 9.99226, 10.002389 
2.1148372e+3, 3.0409172e+2, -1021995.0, -109409.65, 6144.7007, -0.041419704, -0.21282624, -109368.28, -109368.28, 0.0, 9.991338, 10.003424 
2.1148096e+3, 3.1409547e+2, -1088172.0, -68241.69, -81037.51, -0.024454523, -0.1813521, -61843.08, -61843.08, 0.0, 9.990572, 10.004073 
2.125375e+3, 1.24139585e+2, -756504.5, -1687750.1, 40983.97, -0.0374672, -0.19595484, -754704.25, 968710.2, 0.22222643, 10.010886, 9.99501 
2.1253464e+3, 1.3413565e+2, -754580.6, -1617204.4, 35590.082, 0.034383386, -0.14935958, -753114.75, 872338.75, 0.16164653, 10.009213, 9.995569 
2.1253167e+3, 1.4413114e+2, -722105.06, -1529576.1, -7496.091, 0.007830022, -0.1739802, -722035.5, 805462.44, 0.09939816, 10.00797, 9.996085 
2.1252859e+3, 1.5412724e+2, -670637.06, -1489277.3, -15609.618, -0.0038935114, -0.16919397, -670339.56, 759196.25, 0.048183043, 10.007351, 9.995988 
2.1252553e+3, 1.6412356e+2, -617991.2, -1318617.3, -2192.8755, -0.010471584, -0.17223316, -617984.3, 713587.25, 0.016603025, 10.006396, 9.996947 
2.125225e+3, 1.7412035e+2, -722691.5, -1329852.6, 3634.516, -0.017456554, -0.19027779, -722669.75, 510933.4, 0.003222801, 10.004961, 9.996888 
2.1251944e+3, 1.8411762e+2, -713981.6, -1145870.0, -31212.516, -0.027152613, -0.19789569, -711737.56, 423891.34, 0.0001575889, 10.0037775, 9.998049 
2.1251634e+3, 1.9411571e+2, -738181.2, -1111290.4, -50653.906, -0.038419206, -0.19590682, -731426.6, 306218.84, 0.0000000000129771185, 10.002957, 9.998009 
2.1251321e+3, 2.041137e+2, -753241.94, -1034031.06, -46409.953, -0.04026588, -0.20318025, -745769.94, 193894.34, 0.0, 10.002035, 9.998309 
2.1251014e+3, 2.1411175e+2, -819134.9, -1029519.6, -23738.49, -0.03062388, -0.2251292, -816489.6, 25195.242, 0.0, 10.000973, 9.998179 
2.1250705e+3, 2.2411057e+2, -758835.3, -756234.6, -10488.332, -0.029629197, -0.23061338, -746966.3, -3270.1238, 0.0, 9.999881, 9.999908 
2.1250398e+3, 2.3411065e+2, -823858.94, -734785.25, -34333.727, -0.03853003, -0.22208591, -723087.5, -77393.93, 0.0, 9.998753, 9.999927 
2.125009e+3, 2.4411073e+2, -848360.7, -645721.8, -43104.637, -0.0460417, -0.22094908, -636933.9, -89241.71, 0.0, 9.997696, 10.000374 
2.1249783e+3, 2.5411102e+2, -898565.6, -632633.7, -29161.531, -0.054767057, -0.22531986, -629473.44, -179782.9, 0.0, 9.9967375, 10.000253 
2.124948e+3, 2.641119e+2, -859575.94, -413990.13, -9488.286, -0.053626217, -0.21621345, -413788.2, -62105.61, 0.0, 9.99569, 10.001586 
2.124918e+3, 2.7411357e+2, -934522.75, -400260.75, -14119.907, -0.030490842, -0.21376416, -399887.84, -146221.64, 0.0, 9.994508, 10.001577 
2.1248882e+3, 2.8411525e+2, -939702.3, -270916.56, -15684.46, 0.00095288677, -0.22571956, -270548.9, -114899.375, 0.0, 9.993451, 10.002301 
2.1248583e+3, 2.9411778e+2, -972700.56, -243628.36, -24207.46, 0.024126004, -0.20409024, -242825.48, -185199.63, 0.0, 9.992585, 10.002233 
2.124828e+3, 3.041211e+2, -975032.5, -42906.438, 25923.7, -0.110273205, -0.16525693, -42186.02, -42186.02, 0.0, 9.991472, 10.003815 
2.1248001e+3, 3.141238e+2, -1192361.6, -132002.22, -28283.7, 0.014092221, -0.2691341, -131248.33, -131248.33, 0.0, 9.989918, 10.00395 
2.1353854e+3, 1.2416944e+2, -782539.25, -1721822.0, -12654.903, -0.09035782, -0.24937728, -782368.75, 940751.0, 0.22891742, 10.010867, 9.9947195 
2.1353559e+3, 1.341659e+2, -770432.5, -1645644.4, -15403.483, 0.0573419, -0.1439036, -770161.5, 854994.94, 0.16663969, 10.009224, 9.99536 
2.1353249e+3, 1.4416157e+2, -723269.0, -1530996.6, -29525.123, 0.046380434, -0.13803442, -722191.2, 805008.7, 0.10261947, 10.007989, 9.996069 
2.135293e+3, 1.5415718e+2, -671680.56, -1490153.3, -35476.06, -0.027145395, -0.18080461, -670145.75, 759096.75, 0.049888648, 10.007355, 9.995982 
2.1352614e+3, 1.6415337e+2, -610616.75, -1302677.3, -50807.32, -0.046471648, -0.20386435, -606906.7, 724372.7, 0.017293163, 10.006394, 9.997062 
2.1352302e+3, 1.7415047e+2, -712680.94, -1311603.4, -48677.74, 0.004838219, -0.20119174, -708750.44, 524556.1, 0.0034068178, 10.00497, 9.99701 
2.1351984e+3, 1.8414778e+2, -738182.7, -1199748.5, -62506.52, 0.012640943, -0.19312663, -729867.7, 405464.47, 0.00017604236, 10.00379, 9.997674 
2.1351662e+3, 1.9414555e+2, -767183.6, -1172904.8, -79089.65, -0.03872681, -0.1832754, -752311.4, 285042.97, 0.0000000000136278775, 10.00296, 9.997585 
2.135134e+3, 2.0414348e+2, -716579.75, -958969.4, -83725.39, -0.0531425, -0.19725798, -690471.75, 248902.0, 0.0, 10.002037, 9.998826 
2.1351023e+3, 2.1414185e+2, -775875.3, -941357.5, -62005.6, -0.01786078, -0.24575402, -755220.2, 86167.625, 0.0, 10.000977, 9.998785 
2.1350706e+3, 2.2414078e+2, -796551.2, -836510.7, -51694.22, -0.013963508, -0.2501294, -761110.0, -17712.365, 0.0, 9.999886, 9.999356 
2.1350384e+3, 2.3414059e+2, -870122.7, -832402.8, -75673.54, -0.050548058, -0.20215563, -773274.44, -127873.88, 0.0, 9.998755, 9.999257 
2.1350066e+3, 2.4414048e+2, -827888.4, -604995.56, -79506.96, -0.05959155, -0.19661827, -579541.75, -32139.691, 0.0, 9.997701, 10.000653 
2.134975e+3, 2.5414068e+2, -870702.2, -577410.4, -65168.816, -0.036939926, -0.24439198, -563582.0, -114182.64, 0.0, 9.996745, 10.00063 
2.1349439e+3, 2.6414165e+2, -866735.94, -430706.0, -53958.258, -0.03695781, -0.24185431, -424127.97, -72738.44, 0.0, 9.995695, 10.00147 
2.1349122e+3, 2.7414352e+2, -946270.25, -427384.66, -59704.066, -0.050660238, -0.20069502, -420603.6, -167232.48, 0.0, 9.994516, 10.001388 
2.1348816e+3, 2.8414497e+2, -962542.25, -321250.3, -50923.473, -0.00696392, -0.21408118, -317231.78, -161874.03, 0.0, 9.99346, 10.001953 
2.1348514e+3, 2.9414672e+2, -985576.0, -275438.63, -56860.68, 0.06494276, -0.23290846, -270914.63, -213572.31, 0.0, 9.992603, 10.002008 
2.1348189e+3, 3.0415082e+2, -911116.25, 89385.45, -32303.13, -0.14900151, -0.15354936, 90427.336, 90427.336, 0.0, 9.991472, 10.004724 
2.13479e+3, 3.141542e+2, -1223008.8, -195535.39, -38760.72, 0.019199712, -0.27719003, -194075.23, -194075.23, 0.0, 9.989913, 10.003518 
2.1453962e+3, 1.2420097e+2, -816206.44, -1741793.5, 5738.494, -0.074022606, -0.24802591, -816170.9, 906639.44, 0.23544793, 10.0106535, 9.994683 
2.145365e+3, 1.3419719e+2, -725289.06, -1617698.1, 21141.387, 0.029257096, -0.1660257, -724788.5, 900060.5, 0.17148054, 10.009642, 9.995358 
2.1453327e+3, 1.4419293e+2, -657585.56, -1504562.4, 27539.93, 0.0105310865, -0.14761655, -656691.0, 870200.7, 0.105720006, 10.0085535, 9.995993 
2.1453004e+3, 1.5418853e+2, -673411.56, -1498601.5, 20769.479, -0.028539294, -0.18462092, -672889.1, 756046.0, 0.051520232, 10.007391, 9.995904 
2.1452679e+3, 1.6418469e+2, -628177.5, -1316032.4, -11072.48, -0.037449576, -0.20141327, -627999.3, 702972.94, 0.017950768, 10.006302, 9.997011 
2.1452351e+3, 1.7418179e+2, -667139.4, -1295287.9, -22533.348, -0.0080310535, -0.1923244, -666332.06, 566667.3, 0.0035818862, 10.005313, 9.996955 
2.1452025e+3, 1.8417904e+2, -676003.5, -1177322.3, -26018.996, -0.0022099924, -0.18777074, -674656.7, 460369.22, 0.00019411859, 10.004253, 9.997602 
2.1451692e+3, 1.9417652e+2, -751787.3, -1173869.4, -17997.008, -0.02900161, -0.194159, -751021.3, 286029.34, 0.000000000027357056, 10.003105, 9.997507 
2.1451363e+3, 2.0417444e+2, -714998.5, -955117.5, -26513.904, -0.037481423, -0.20826611, -712105.7, 226964.7, 0.0, 10.002037, 9.99885 
2.1451032e+3, 2.1417302e+2, -759200.8, -929475.4, -47314.723, -0.020921204, -0.23688231, -746936.6, 94145.27, 0.0, 10.001077, 9.9988165 
2.1450703e+3, 2.2417194e+2, -779759.06, -840646.56, -48461.77, -0.024132647, -0.23996325, -752972.0, -9880.175, 0.0, 10.000056, 9.999245 
2.145037e+3, 2.3417139e+2, -850496.6, -837112.7, -33443.69, -0.051709943, -0.2133183, -809698.0, -164599.61, 0.0, 9.998955, 9.999127 
2.1450044e+3, 2.4417116e+2, -815280.2, -602793.8, -24714.324, -0.052447993, -0.2105626, -599957.1, -52855.883, 0.0, 9.997807, 10.000616 
2.144972e+3, 2.5417152e+2, -893295.94, -590703.4, -40087.773, -0.024060212, -0.24008505, -585482.56, -136385.4, 0.0, 9.996603, 10.000606 
2.1449395e+3, 2.6417246e+2, -889167.8, -445913.13, -40420.83, -0.031915616, -0.23583816, -442257.28, -91169.914, 0.0, 9.995563, 10.001428 
2.1449065e+3, 2.7417415e+2, -922635.25, -421899.9, -37606.598, -0.0648013, -0.20636995, -419091.28, -166020.97, 0.0, 9.994707, 10.001332 
2.144875e+3, 2.8417557e+2, -942693.25, -314815.6, -14690.915, -0.014811035, -0.21900952, -314472.03, -159414.73, 0.0, 9.993612, 10.001922 
2.144844e+3, 2.9417723e+2, -1040756.25, -301370.72, 3671.3079, 0.081092946, -0.24077368, -301352.47, -244309.88, 0.0, 9.992226, 10.00201 
2.1448101e+3, 3.041813e+2, -973681.94, 59550.098, -5919.5894, -0.14675115, -0.16645549, 59584.01, 59584.01, 0.0, 9.991046, 10.004722 
2.14478e+3, 3.1418508e+2, -1176848.1, -172847.52, -20876.49, 0.022493117, -0.24598363, -172413.61, -172413.61, 0.0, 9.990233, 10.003516 
2.1554075e+3, 1.2423393e+2, -816648.44, -1719981.5, -27460.783, -0.0011671415, -0.20928615, -815814.44, 906673.9, 0.24166583, 10.010636, 9.994845 
2.1553738e+3, 1.3422945e+2, -720768.4, -1599003.8, -9033.788, -0.046693746, -0.21292682, -720675.44, 903856.56, 0.17607479, 10.0096445, 9.995514 
2.1553403e+3, 1.442252e+2, -667193.25, -1522038.9, -9984.054, -0.092108846, -0.19685832, -667076.6, 859497.4, 0.10865153, 10.008566, 9.995854 
2.1553078e+3, 1.5422116e+2, -683675.4, -1520824.3, -19061.217, -0.010210139, -0.18070668, -683241.6, 745373.06, 0.053056683, 10.007398, 9.995749 
2.1552745e+3, 1.6421744e+2, -643064.6, -1347665.8, -46456.594, 0.011064635, -0.16832088, -640014.75, 690636.8, 0.018568132, 10.006304, 9.996793 
2.15524e+3, 1.7421424e+2, -682490.1, -1328270.0, -57591.047, -0.054076664, -0.1651988, -677394.4, 555288.0, 0.0037461626, 10.005315, 9.99673 
2.1552058e+3, 1.8421122e+2, -661657.7, -1149170.1, -66737.67, -0.06776449, -0.18177202, -652686.75, 482024.22, 0.00021163406, 10.004257, 9.997796 
2.1551724e+3, 1.9420858e+2, -734467.9, -1139901.6, -59413.242, -0.010322168, -0.22688793, -725940.6, 310794.72, 0.00000000007381513, 10.003111, 9.99774 
2.1551387e+3, 2.0420645e+2, -746561.6, -1022966.4, -61813.066, 0.0041637765, -0.23517089, -733368.0, 205387.36, 0.0, 10.002044, 9.9983835 
2.1551043e+3, 2.1420516e+2, -795818.8, -1006751.5, -81338.77, -0.040179733, -0.1992898, -768096.8, 72671.31, 0.0, 10.001079, 9.998287 
2.15507e+3, 2.2420393e+2, -757348.1, -795406.3, -87717.086, -0.05974409, -0.20075314, -686619.8, 56159.82, 0.0, 10.000058, 9.999557 
2.1550362e+3, 2.3420297e+2, -822442.4, -780786.25, -73888.695, -0.042712376, -0.2555783, -724846.2, -80058.195, 0.0, 9.99896, 9.999514 
2.1550025e+3, 2.4420267e+2, -840443.9, -656943.4, -69810.05, -0.025525292, -0.26305515, -633404.6, -86613.8, 0.0, 9.997811, 10.000243 
2.1549685e+3, 2.542034e+2, -923089.5, -655016.2, -85394.43, -0.017757617, -0.21219133, -630125.06, -181340.2, 0.0, 9.99661, 10.000163 
2.1549349e+3, 2.6420423e+2, -885242.94, -440280.06, -74054.23, -0.03919211, -0.19801992, -428279.03, -77502.055, 0.0, 9.99557, 10.001465 
2.1549012e+3, 2.7420536e+2, -915712.9, -410671.16, -70944.03, -0.07414627, -0.23393781, -400894.78, -148129.72, 0.0, 9.994717, 10.001407 
2.1548684e+3, 2.8420696e+2, -921882.6, -272732.78, -67085.66, -0.024673022, -0.24011852, -265872.4, -111123.36, 0.0, 9.993615, 10.002212 
2.1548359e+3, 2.942094e+2, -1024929.25, -269056.28, -49010.715, 0.06940656, -0.22101983, -265891.66, -209164.95, 0.0, 9.992225, 10.002234 
2.1548015e+3, 3.0421227e+2, -1044521.25, -88315.016, -42865.805, -0.09690112, -0.22170815, -86397.23, -86397.23, 0.0, 9.991046, 10.003709 
2.1547697e+3, 3.1421676e+2, -1128998.3, -83808.6, 8057.722, -0.026681429, -0.13360925, -83746.484, -83746.484, 0.0, 9.99027, 10.004114 
2.165418e+3, 1.24267995e+2, -846501.06, -1733246.8, 14962.487, -0.003953248, -0.19026831, -846248.7, 875906.1, 0.24744487, 10.010423, 9.994852 
2.1653832e+3, 1.3426314e+2, -702702.44, -1593876.5, 29600.246, -0.06593181, -0.22417006, -701720.3, 922481.2, 0.18033573, 10.009867, 9.995449 
2.1653488e+3, 1.4425886e+2, -624263.9, -1505883.9, 11119.06, -0.10526149, -0.20451422, -624123.6, 902119.94, 0.1113651, 10.008951, 9.995791 
2.1653152e+3, 1.5425482e+2, -665648.0, -1517979.1, 7235.803, -0.0127800815, -0.18018684, -665586.56, 762697.7, 0.05447611, 10.007571, 9.995684 
2.1652807e+3, 1.6425104e+2, -643179.4, -1359687.0, -2763.8098, 0.009970184, -0.16516183, -643168.75, 687153.25, 0.019137882, 10.006362, 9.99668 
2.1652451e+3, 1.7424767e+2, -679505.2, -1339572.1, -5554.102, -0.066018224, -0.16891187, -679458.5, 552896.4, 0.0038979894, 10.005395, 9.996612 
2.16521e+3, 1.8424453e+2, -650826.1, -1151370.5, -24675.354, -0.08107169, -0.18685377, -649612.6, 484772.13, 0.0002283721, 10.004368, 9.9977255 
2.1651755e+3, 1.9424185e+2, -718154.06, -1139468.4, -39777.867, -0.012061849, -0.22531496, -714431.4, 321977.97, 0.000000000201105, 10.003258, 9.99767 
2.1651407e+3, 2.0423968e+2, -723794.94, -1013747.2, -33229.242, 0.0061654886, -0.23343828, -720035.56, 218394.1, 0.0, 10.002212, 9.998364 
2.1651052e+3, 2.1423829e+2, -771689.06, -996461.8, -15985.326, -0.045468733, -0.2058525, -770557.94, 69885.266, 0.0, 10.001254, 9.998271 
2.16507e+3, 2.2423701e+2, -741756.3, -791762.3, -20952.195, -0.0648731, -0.20869057, -734138.1, 8317.028, 0.0, 10.000186, 9.999518 
2.1650352e+3, 2.3423606e+2, -823884.44, -785682.2, -39068.117, -0.036763247, -0.25609654, -761295.7, -116832.15, 0.0, 9.998971, 9.999473 
2.1650003e+3, 2.4423572e+2, -833566.6, -661261.44, -37278.27, -0.019990971, -0.26280573, -653542.06, -107075.3, 0.0, 9.997893, 10.000173 
2.1649653e+3, 2.5423628e+2, -872767.0, -638603.7, -25339.625, -0.026583673, -0.22057763, -635892.94, -187431.05, 0.0, 9.996991, 10.000091 
2.1649304e+3, 2.6423696e+2, -856441.0, -436301.28, -8471.272, -0.043714795, -0.21169555, -436130.53, -85675.21, 0.0, 9.995813, 10.001374 
2.1648957e+3, 2.7423805e+2, -981324.25, -452317.34, -17896.248, -0.054183606, -0.24375099, -451712.6, -199268.02, 0.0, 9.994312, 10.001314 
2.1648619e+3, 2.842397e+2, -968591.8, -287151.9, -22420.945, -0.025437854, -0.24135627, -286415.0, -131986.88, 0.0, 9.993261, 10.002282 
2.1648276e+3, 2.9424217e+2, -968375.0, -243003.38, -24843.744, 0.0043413034, -0.22171597, -242153.48, -185748.67, 0.0, 9.9926195, 10.002221 
2.1647932e+3, 3.0424467e+2, -1042213.3, -149269.98, -22175.781, -0.056911115, -0.2319897, -148719.6, -148719.6, 0.0, 9.991332, 10.00315 
2.1647595e+3, 3.1424865e+2, -1186730.8, -49449.91, 97856.52, -0.049375247, -0.14521421, -41091.348, -41091.348, 0.0, 9.989613, 10.004664 
2.1754277e+3, 1.24303035e+2, -857357.56, -1753897.5, -4919.996, -0.073504984, -0.19196872, -857330.56, 864480.75, 0.25270826, 10.010452, 9.994698 
2.1753936e+3, 1.3429813e+2, -722077.25, -1626292.8, 14148.445, -0.035869885, -0.2044756, -721855.9, 902003.0, 0.18420313, 10.009866, 9.995184 
2.1753584e+3, 1.4429377e+2, -628695.0, -1508384.0, -31477.855, -0.041631017, -0.17607929, -627570.06, 898331.5, 0.11382209, 10.00894, 9.99578 
2.1753225e+3, 1.5428944e+2, -665945.7, -1517943.0, -40417.813, -0.03606049, -0.18270713, -664032.56, 763912.1, 0.05576076, 10.007574, 9.995686 
2.1752866e+3, 1.6428544e+2, -644087.7, -1364246.8, -37918.57, -0.036386378, -0.18853007, -642096.6, 687887.5, 0.019655123, 10.006373, 9.996646 
2.1752508e+3, 1.7428194e+2, -680904.3, -1344719.8, -39987.945, -0.046761896, -0.20053245, -678504.1, 553513.7, 0.0040366487, 10.005402, 9.996574 
2.1752146e+3, 1.8427879e+2, -672959.1, -1199083.6, -64144.36, -0.047319304, -0.20211096, -665251.6, 468796.7, 0.00024415494, 10.004372, 9.997398 
2.1751785e+3, 1.9427626e+2, -742564.3, -1192046.0, -79194.336, -0.033872847, -0.19115405, -729019.25, 307054.16, 0.0000000007381015, 10.0032625, 9.997308 
2.1751426e+3, 2.0427403e+2, -694893.4, -955879.44, -67476.32, -0.029324772, -0.20481719, -678480.06, 259614.14, 0.0, 10.002217, 9.99876 
2.1751064e+3, 2.142723e+2, -739324.56, -930629.7, -50153.785, -0.03787368, -0.25522318, -726973.4, 113134.7, 0.0, 10.001256, 9.998724 
2.1750703e+3, 2.2427106e+2, -768692.3, -849281.9, -64796.492, -0.041525424, -0.2616909, -732683.44, 9435.984, 0.0, 10.000189, 9.999124 
2.175034e+3, 2.342706e+2, -856002.0, -853910.56, -83801.625, -0.035310738, -0.21463941, -771148.1, -127022.086, 0.0, 9.998974, 9.999005 
2.1749978e+3, 2.442702e+2, -816869.2, -628245.6, -71725.29, -0.03635008, -0.21060672, -604070.2, -57940.086, 0.0, 9.997897, 10.0004 
2.1749619e+3, 2.5427005e+2, -851714.7, -597387.25, -59822.152, -0.051462222, -0.2666217, -584018.8, -135889.58, 0.0, 9.996999, 10.000372 
2.174926e+3, 2.642706e+2, -871632.94, -469925.16, -64296.992, -0.045925908, -0.27771193, -459884.8, -109761.56, 0.0, 9.995818, 10.0011425 
2.1748906e+3, 2.742721e+2, -998146.25, -489565.38, -72794.055, -0.005738249, -0.23590468, -479351.38, -227241.75, 0.0, 9.994318, 10.001058 
2.174855e+3, 2.842737e+2, -979917.44, -312388.9, -48540.44, -0.018486919, -0.22434887, -308877.66, -154782.3, 0.0, 9.993266, 10.002108 
2.1748191e+3, 2.9427558e+2, -986377.4, -284185.2, -54525.11, -0.119510636, -0.24620816, -279976.53, -223898.48, 0.0, 9.992633, 10.001934 
2.1747847e+3, 3.0427846e+2, -1049327.6, -166141.64, -89850.34, -0.027607214, -0.18641149, -157093.47, -157093.47, 0.0, 9.991338, 10.003034 
2.1747495e+3, 3.1428155e+2, -1149969.9, 27895.596, 17370.29, -0.00063068984, -0.19637881, 28151.705, 28151.705, 0.0, 9.989605, 10.0052 
2.1854384e+3, 1.2433912e+2, -768234.0, -1702101.9, 18314.078, -0.09159581, -0.19356525, -767875.0, 953582.1, 0.25743768, 10.011344, 9.994667 
2.1854033e+3, 1.3433404e+2, -733224.3, -1646785.9, 48535.832, -0.026363432, -0.20728667, -730652.94, 892853.25, 0.1876586, 10.009873, 9.995043 
2.1853672e+3, 1.4432955e+2, -673941.25, -1539472.1, 4753.023, -0.018574227, -0.18189524, -673915.2, 851635.4, 0.11600729, 10.008651, 9.9956875 
2.1853298e+3, 1.543251e+2, -644699.25, -1516612.8, -8626.93, -0.057466846, -0.19038895, -644613.9, 782981.3, 0.05690244, 10.007783, 9.995591 
2.1852927e+3, 1.6432104e+2, -590387.3, -1337599.3, -6944.3438, -0.06615667, -0.19596228, -590322.8, 739312.4, 0.020118132, 10.006755, 9.996642 
2.185256e+3, 1.7431757e+2, -663707.7, -1335761.4, -6726.392, -0.036269072, -0.20471056, -663640.4, 568027.75, 0.004162374, 10.005522, 9.996577 
2.1852192e+3, 1.8431437e+2, -672052.5, -1210345.8, -19058.43, -0.026244767, -0.20423676, -671378.56, 462320.44, 0.00025893637, 10.004432, 9.99729 
2.1851818e+3, 1.9431172e+2, -711623.44, -1189673.1, -17431.762, -0.04217196, -0.19318508, -710988.6, 324737.38, 0.000000002809807, 10.003533, 9.997192 
2.1851446e+3, 2.0430945e+2, -656440.6, -930127.06, -12287.711, -0.04641557, -0.20681804, -655890.06, 281857.25, 0.0, 10.002454, 9.998821 
2.1851076e+3, 2.1430779e+2, -750869.25, -927570.7, -23790.031, -0.0355071, -0.25720736, -747722.3, 92037.76, 0.0, 10.001143, 9.998797 
2.1850705e+3, 2.2430658e+2, -793752.5, -868474.6, -37561.688, -0.03448264, -0.26063105, -778135.0, -36363.914, 0.0, 10.000051, 9.999057 
2.185033e+3, 2.343061e+2, -823279.5, -846636.8, -27825.28, -0.044270337, -0.20627044, -804781.4, -161002.86, 0.0, 9.999238, 9.998926 
2.1849959e+3, 2.4430566e+2, -769526.06, -596615.6, -9148.365, -0.046855267, -0.20553836, -596132.94, -50349.98, 0.0, 9.998188, 10.000476 
2.184959e+3, 2.5430542e+2, -872305.8, -598213.9, -12971.986, -0.041312322, -0.2779649, -597601.4, -149819.42, 0.0, 9.996821, 10.00045 
2.1849218e+3, 2.6430592e+2, -902149.3, -500677.72, -24324.992, -0.028098278, -0.29043397, -499209.25, -149433.05, 0.0, 9.995681, 10.000997 
2.184885e+3, 2.743074e+2, -936302.9, -478091.88, -24228.473, -0.0033004, -0.23453276, -476814.34, -225050.6, 0.0, 9.994824, 10.000892 
2.1848482e+3, 2.843089e+2, -931691.3, -297194.3, 8560.156, -0.038158365, -0.21653083, -297078.84, -143328.44, 0.0, 9.993634, 10.002033 
2.1848111e+3, 2.943108e+2, -1075964.0, -333040.25, 7224.452, -0.15136038, -0.22732922, -332970.0, -277237.72, 0.0, 9.992046, 10.00188 
2.184776e+3, 3.0431315e+2, -1104763.3, -196364.3, -10278.207, 0.020680107, -0.21979415, -196248.03, -196248.03, 0.0, 9.990973, 10.003002 
2.184739e+3, 3.14316e+2, -1067621.3, 32567.629, 47899.574, -0.03983277, -0.24447383, 34649.12, 34649.12, 0.0, 9.990323, 10.004886 
2.1954499e+3, 1.2437619e+2, -771458.6, -1697236.5, -23001.164, -0.07193864, -0.19146332, -770887.5, 950205.25, 0.2616849, 10.011339, 9.994715 
2.1954131e+3, 1.3437083e+2, -739716.0, -1653692.4, 4624.831, -0.03685331, -0.22936496, -739692.6, 883451.6, 0.19073884, 10.009869, 9.994994 
2.1953757e+3, 1.4436609e+2, -686060.9, -1566149.0, -24312.814, -0.032210685, -0.21696582, -685389.75, 839801.44, 0.117940135, 10.0086565, 9.995505 
2.1953374e+3, 1.5436168e+2, -656693.3, -1544138.5, -37510.402, -0.077773035, -0.202704, -655110.6, 772126.0, 0.0579083, 10.0077915, 9.9954 
2.1952993e+3, 1.643577e+2, -588475.2, -1335403.8, -49643.9, -0.08188586, -0.18935983, -585190.1, 744086.0, 0.020529242, 10.0067625, 9.996656 
2.1952617e+3, 1.743544e+2, -660989.2, -1332351.5, -51026.65, -0.034545787, -0.1836247, -657133.06, 574173.8, 0.0042760856, 10.005528, 9.996599 
2.1952236e+3, 1.8435116e+2, -664886.56, -1197991.4, -51780.043, -0.017470522, -0.19421127, -659903.75, 473434.16, 0.0002728581, 10.004439, 9.997374 
2.1951853e+3, 1.9434814e+2, -704209.25, -1175968.1, -49253.86, -0.038675807, -0.22893122, -699121.75, 336246.3, 0.000000009804127, 10.003537, 9.997287 
2.195147e+3, 2.0434584e+2, -674903.2, -969910.3, -59078.99, -0.046989534, -0.23683445, -663511.7, 273878.44, 0.0, 10.002457, 9.9985485 
2.1951087e+3, 2.1434462e+2, -771767.94, -972250.6, -71000.305, -0.03875496, -0.21311486, -749170.44, 90229.836, 0.0, 10.001145, 9.998492 
2.1950704e+3, 2.2434345e+2, -775372.0, -832166.56, -67757.34, -0.043472823, -0.20805745, -730301.9, 11109.385, 0.0, 10.000055, 9.999306 
2.195032e+3, 2.3434249e+2, -802222.6, -804805.44, -57226.43, -0.064505436, -0.23142283, -746273.0, -102851.08, 0.0, 9.999243, 9.999213 
2.194994e+3, 2.4434198e+2, -775505.2, -610793.0, -59249.91, -0.05230605, -0.24662663, -591694.25, -46267.934, 0.0, 9.998192, 10.000378 
2.1949561e+3, 2.5434226e+2, -881052.1, -618297.25, -64875.652, 0.002971894, -0.25383878, -603152.06, -155731.14, 0.0, 9.996826, 10.000312 
2.194918e+3, 2.6434284e+2, -905985.7, -510262.22, -58429.93, 0.009126633, -0.24888967, -501815.16, -152400.14, 0.0, 9.995685, 10.000931 
2.1948794e+3, 2.7434382e+2, -940185.75, -488902.9, -56787.75, -0.049459796, -0.23852034, -481866.66, -230459.11, 0.0, 9.994833, 10.000815 
2.1948414e+3, 2.8434527e+2, -930218.6, -296769.88, -50965.992, -0.08535586, -0.21838416, -292695.47, -139301.55, 0.0, 9.993641, 10.002035 
2.1948037e+3, 2.9434782e+2, -1061364.3, -305631.7, -52550.848, -0.08631487, -0.17069462, -301994.97, -246626.34, 0.0, 9.992054, 10.002067 
2.1947679e+3, 3.0434865e+2, -1097878.9, -183968.13, -31994.959, 0.08280764, -0.33674225, -182849.39, -182849.39, 0.0, 9.990979, 10.003086 
2.1947287e+3, 3.1435236e+2, -1152025.9, -144349.56, -42008.586, -0.084152944, -0.258553, -142601.31, -142601.31, 0.0, 9.990331, 10.003667 
2.2054611e+3, 1.24413975e+2, -759794.94, -1691337.0, -8860.249, -0.06587761, -0.2201288, -759710.7, 961010.8, 0.26556426, 10.011508, 9.994688 
2.2054228e+3, 1.3440879e+2, -712068.1, -1645115.1, 16390.994, -0.0593716, -0.2310358, -711780.3, 910991.3, 0.19352573, 10.010172, 9.994908 
2.2053842e+3, 1.4440396e+2, -652420.94, -1554141.0, 5366.1123, -0.04339596, -0.21910271, -652389.0, 872430.7, 0.11966735, 10.008967, 9.995436 
2.2053452e+3, 1.5439948e+2, -640205.94, -1543340.1, 2081.506, -0.070584655, -0.20180798, -640201.1, 786664.7, 0.05879727, 10.007955, 9.995326 
2.2053061e+3, 1.6439545e+2, -569621.44, -1324658.6, -13190.574, -0.071807384, -0.19097824, -569391.06, 759514.94, 0.020892795, 10.006894, 9.996665 
2.2052671e+3, 1.7439206e+2, -624643.56, -1313101.0, -16136.545, -0.041629277, -0.19502507, -624265.56, 606671.9, 0.0043782177, 10.005776, 9.99661 
2.205228e+3, 1.8438888e+2, -628895.56, -1172846.0, -12053.441, -0.028551385, -0.20288257, -628628.6, 504339.34, 0.00028599903, 10.004657, 9.997439 
2.2051887e+3, 1.943861e+2, -699055.7, -1164933.5, -11182.901, -0.037315328, -0.21894166, -698787.44, 336208.38, 0.000000027353877, 10.003539, 9.99736 
2.2051494e+3, 2.0438382e+2, -684974.25, -983705.5, -22437.092, -0.041368205, -0.22388989, -683298.44, 253719.4, 0.0, 10.00243, 9.998466 
2.2051099e+3, 2.1438232e+2, -752232.75, -973151.2, -20819.852, -0.038520288, -0.21654303, -750287.75, 88743.31, 0.0, 10.0013275, 9.998396 
2.2050703e+3, 2.2438112e+2, -746429.94, -802933.7, -5955.976, -0.042878352, -0.21474196, -745808.94, -4766.528, 0.0, 10.000193, 9.999438 
2.205031e+3, 2.3438042e+2, -824541.3, -798076.7, -4982.3315, -0.055961195, -0.22528028, -797169.75, -154119.58, 0.0, 9.999019, 9.999365 
2.2049919e+3, 2.4438006e+2, -817400.3, -637027.75, -16859.701, -0.043617826, -0.23328061, -635465.4, -90412.06, 0.0, 9.997934, 10.00032 
2.2049528e+3, 2.5438026e+2, -866659.3, -619490.7, -18882.543, 0.0016727559, -0.24101615, -618056.5, -171007.31, 0.0, 9.9969635, 10.000236 
2.2049136e+3, 2.6438066e+2, -864512.6, -478182.3, 1396.8682, 0.0042426405, -0.24975254, -478177.25, -129132.63, 0.0, 9.995921, 10.001036 
2.204874e+3, 2.743815e+2, -947082.3, -479173.28, 14903.926, -0.046874672, -0.26318705, -478699.03, -227661.08, 0.0, 9.994733, 10.000929 
2.204835e+3, 2.8438324e+2, -957056.75, -303307.28, 16190.034, -0.06837792, -0.22646356, -302906.6, -149884.83, 0.0, 9.993433, 10.0020895 
2.204796e+3, 2.9438627e+2, -1040762.06, -282382.94, 18060.373, -0.05246837, -0.13099883, -281953.1, -226961.48, 0.0, 9.992142, 10.002182 
2.2047582e+3, 3.0438662e+2, -1085160.4, -178300.72, 47679.117, 0.048767727, -0.35117364, -175800.83, -175800.83, 0.0, 9.991071, 10.003078 
2.204719e+3, 3.1439117e+2, -1202176.8, -152710.11, -1362.242, -0.059568923, -0.1794186, -152708.34, -152708.34, 0.0, 9.989922, 10.003805 
2.2154726e+3, 1.24452464e+2, -772201.3, -1704405.8, -42707.26, -0.07661071, -0.268707, -770248.8, 950094.25, 0.26920497, 10.011489, 9.9945755 
2.2154327e+3, 1.3444781e+2, -721642.6, -1664423.9, -22349.645, -0.094793454, -0.21389174, -721113.1, 901276.0, 0.19610728, 10.0101795, 9.994773 
2.215393e+3, 1.44443e+2, -650292.1, -1551382.3, -26839.54, -0.055199992, -0.19157764, -649493.4, 874943.75, 0.12123997, 10.008987, 9.995448 
2.2153535e+3, 1.5443842e+2, -639137.44, -1541285.4, -31796.316, -0.040080912, -0.18890487, -638018.2, 788465.7, 0.059591863, 10.007957, 9.995341 
2.2153132e+3, 1.6443418e+2, -570584.2, -1326667.5, -52079.24, -0.03979826, -0.19943385, -567013.8, 761511.94, 0.021214023, 10.006893, 9.996654 
2.2152726e+3, 1.7443043e+2, -624721.6, -1315171.9, -56020.625, -0.057799265, -0.23577206, -620205.9, 610354.9, 0.0044686627, 10.005782, 9.996595 
2.2152324e+3, 1.8442741e+2, -624972.0, -1166852.1, -52189.445, -0.058479063, -0.22830833, -619991.3, 512598.63, 0.00029818097, 10.0046625, 9.99748 
2.2151922e+3, 1.9442548e+2, -696013.6, -1159661.8, -51103.277, -0.038364053, -0.16573964, -690447.8, 344162.44, 0.00000006029778, 10.00354, 9.997397 
2.2151518e+3, 2.0442326e+2, -678558.25, -971831.75, -62226.215, -0.03019512, -0.1711211, -665901.44, 270730.22, 0.0, 10.002432, 9.998548 
2.2151111e+3, 2.1442083e+2, -745843.1, -961357.94, -60338.863, -0.036358967, -0.26612586, -730099.75, 108553.586, 0.0, 10.00133, 9.998478 
2.2150706e+3, 2.2441953e+2, -745139.8, -801831.0, -48613.215, -0.033719663, -0.27748162, -717211.8, 23453.639, 0.0, 10.0001955, 9.999447 
2.2150303e+3, 2.3441985e+2, -823697.6, -797753.75, -48321.55, -0.019229826, -0.1871716, -760693.25, -118029.12, 0.0, 9.999021, 9.999368 
2.21499e+3, 2.4441974e+2, -818651.0, -641447.9, -53938.656, -0.021238497, -0.166299, -626320.9, -81655.875, 0.0, 9.997938, 10.00029 
2.2149493e+3, 2.5441924e+2, -867640.4, -624179.94, -55117.63, -0.047600243, -0.24052328, -612283.06, -165615.4, 0.0, 9.996971, 10.000202 
2.2149089e+3, 2.6441932e+2, -844512.5, -438961.8, -43292.965, -0.044507235, -0.29465345, -434391.75, -85725.8, 0.0, 9.995927, 10.001304 
2.2148694e+3, 2.744204e+2, -925082.94, -435867.0, -32649.012, 0.0050559016, -0.31200373, -433697.7, -183041.84, 0.0, 9.994739, 10.0012245 
2.214829e+3, 2.8442267e+2, -950718.94, -290825.7, -33871.875, 0.014868882, -0.24070136, -289091.63, -136457.16, 0.0, 9.993432, 10.002177 
2.214788e+3, 2.9442617e+2, -1038531.25, -279431.84, -25786.469, -0.051762532, -0.104238406, -278556.9, -223955.55, 0.0, 9.992145, 10.002204 
2.2147481e+3, 3.0442715e+2, -1089712.0, -190125.88, 6439.207, -0.09143795, -0.25774944, -190079.78, -190079.78, 0.0, 9.991076, 10.002997 
2.2147097e+3, 3.1443018e+2, -1101455.9, 50340.543, -48634.375, 0.008876486, -0.23870583, 52390.473, 52390.473, 0.0, 9.989941, 10.005195 
2.225484e+3, 1.24492615e+2, -764876.44, -1709693.4, -9646.412, -0.08234058, -0.276375, -764778.0, 955171.5, 0.272685, 10.011666, 9.99444 
2.2254427e+3, 1.3448799e+2, -677006.1, -1647488.1, 12779.376, -0.11261485, -0.20654497, -676837.9, 945157.56, 0.19853626, 10.010635, 9.994668 
2.2254023e+3, 1.4448297e+2, -592556.94, -1519344.3, 10885.904, -0.059641704, -0.20060968, -592429.1, 931616.4, 0.122691035, 10.009455, 9.995443 
2.2253613e+3, 1.5447828e+2, -617332.75, -1529234.1, 6871.37, -0.0385874, -0.2047504, -617280.94, 808811.3, 0.060309388, 10.008123, 9.995342 
2.22532e+3, 1.6447406e+2, -570085.06, -1327941.4, -9570.625, -0.036359638, -0.21210618, -569964.25, 758169.6, 0.02149829, 10.006908, 9.996636 
2.2252786e+3, 1.7447045e+2, -617839.8, -1313300.3, -13392.242, -0.057340737, -0.23236069, -617582.06, 612586.25, 0.004547563, 10.005839, 9.996579 
2.2252367e+3, 1.8446745e+2, -615512.7, -1156657.8, -12313.788, -0.059831884, -0.22347546, -615232.6, 516964.94, 0.00030910023, 10.004706, 9.997527 
2.2251956e+3, 1.944654e+2, -699079.94, -1155123.4, -11610.052, -0.03948891, -0.17696635, -698784.56, 335434.16, 0.00000010779234, 10.003496, 9.997448 
2.225154e+3, 2.0446324e+2, -678231.7, -956395.3, -16756.463, -0.02744946, -0.18442903, -677225.94, 259013.52, 0.0, 10.002373, 9.99868 
2.2251126e+3, 2.1446106e+2, -732039.1, -938623.2, -11512.244, -0.025856188, -0.26562768, -731399.56, 106859.05, 0.0, 10.001361, 9.998617 
2.2250707e+3, 2.2445989e+2, -734949.8, -795909.1, -2090.9172, -0.021938756, -0.27270913, -734878.2, 5391.54, 0.0, 10.000265, 9.999452 
2.2250293e+3, 2.3446013e+2, -817317.44, -794353.0, -2715.0618, -0.012380982, -0.1882056, -794036.4, -151767.17, 0.0, 9.999068, 9.999366 
2.2249877e+3, 2.4446002e+2, -814819.4, -629519.9, 1794.7477, -0.017881399, -0.1713205, -629502.5, -85232.25, 0.0, 9.997926, 10.000375 
2.224946e+3, 2.5445956e+2, -879809.06, -618681.8, 10435.766, -0.04832923, -0.24825914, -618265.44, -171992.81, 0.0, 9.996844, 10.0002985 
2.2249046e+3, 2.6445985e+2, -877064.8, -439899.2, 13772.27, -0.0511859, -0.29315528, -439465.75, -91196.695, 0.0, 9.995645, 10.0014305 
2.2248638e+3, 2.744613e+2, -976470.56, -445136.1, 10187.745, -0.002855562, -0.285666, -444940.84, -194685.56, 0.0, 9.994325, 10.001358 
2.2248225e+3, 2.844635e+2, -960021.0, -275991.22, 12846.408, 0.024229394, -0.23540102, -275750.06, -123515.63, 0.0, 9.99329, 10.002345 
2.2247805e+3, 2.944664e+2, -983190.8, -242975.11, 28494.53, -0.018755246, -0.17570955, -241879.84, -187672.61, 0.0, 9.992488, 10.002286 
2.2247386e+3, 3.0446863e+2, -1094350.0, -187879.81, 46997.01, -0.12273994, -0.2032024, -185449.72, -185449.72, 0.0, 9.991032, 10.003031 
2.2246994e+3, 3.1447044e+2, -1181857.8, 84568.73, 14428.831, 0.039059296, -0.32081065, 84733.1, 84733.1, 0.0, 9.989082, 10.005839 
2.2354953e+3, 1.24534294e+2, -778327.1, -1729128.5, -34146.418, -0.09320304, -0.23959696, -777102.4, 942439.25, 0.27601185, 10.011647, 9.994295 
2.2354531e+3, 1.345292e+2, -683918.44, -1659180.5, -16471.547, -0.116434775, -0.20812899, -683640.3, 937951.4, 0.20083256, 10.010636, 9.994588 
2.2354116e+3, 1.4452374e+2, -594096.4, -1523737.0, -30718.006, -0.058201887, -0.24085848, -593082.5, 930563.0, 0.12404282, 10.009469, 9.995407 
2.2353691e+3, 1.54519e+2, -618867.3, -1534282.0, -38181.402, -0.06465176, -0.24551487, -617277.5, 808414.3, 0.060965944, 10.008131, 9.995307 
2.2353266e+3, 1.64515e+2, -571593.9, -1332477.1, -46967.516, -0.060368303, -0.22780009, -568705.6, 759025.75, 0.021753352, 10.006911, 9.996606 
2.2352844e+3, 1.7451197e+2, -619670.25, -1318445.3, -50825.0, -0.042574212, -0.18815202, -615992.9, 613768.5, 0.0046170787, 10.005841, 9.996545 
2.2352417e+3, 1.8450885e+2, -611738.56, -1150705.5, -55322.363, -0.03552708, -0.19137734, -606118.6, 525673.44, 0.0003188569, 10.004711, 9.997568 
2.2351989e+3, 1.945058e+2, -695040.9, -1148878.0, -54908.855, -0.04168887, -0.24858919, -688492.06, 345329.8, 0.00000016570522, 10.003502, 9.99749 
2.2351564e+3, 2.0450372e+2, -665482.44, -931745.75, -53404.992, -0.033053126, -0.2584262, -655170.3, 280671.4, 0.0, 10.002377, 9.99885 
2.235114e+3, 2.1450296e+2, -719594.06, -913334.56, -47545.99, -0.0077655786, -0.21568385, -708554.8, 129293.12, 0.0, 10.001359, 9.998794 
2.2350714e+3, 2.2450206e+2, -735452.94, -798134.25, -45450.008, -0.008197726, -0.2034996, -711585.44, 28271.08, 0.0, 10.000267, 9.999437 
2.2350281e+3, 2.3450115e+2, -818386.7, -798337.2, -46921.313, -0.036849473, -0.22948028, -760381.7, -118515.22, 0.0, 9.999071, 9.999339 
2.2349855e+3, 2.4450077e+2, -800615.0, -601558.9, -39316.004, -0.033844773, -0.24773051, -594074.9, -50204.855, 0.0, 9.997929, 10.000567 
2.2349434e+3, 2.5450116e+2, -863934.06, -587534.0, -31096.877, 0.0003906586, -0.2632009, -584078.56, -138213.77, 0.0, 9.996848, 10.000512 
2.2349006e+3, 2.6450217e+2, -879883.44, -446693.0, -36640.684, -0.01545639, -0.24300884, -443615.66, -95761.13, 0.0, 9.995645, 10.001386 
2.2348572e+3, 2.745041e+2, -979952.56, -453519.47, -39082.965, -0.07505218, -0.18168671, -450633.72, -200796.86, 0.0, 9.994326, 10.001303 
2.2348149e+3, 2.845056e+2, -942536.94, -240743.05, -18675.654, -0.04533957, -0.21155122, -240246.42, -88423.945, 0.0, 9.993291, 10.002588 
2.2347736e+3, 2.9450673e+2, -971719.4, -223185.31, -5173.9434, 0.0469519, -0.35401827, -223149.55, -169338.92, 0.0, 9.9925, 10.002418 
2.2347304e+3, 3.045109e+2, -1088091.8, -175258.52, -30639.139, -0.03483078, -0.194357, -174231.27, -174231.27, 0.0, 9.991029, 10.003121 
2.2346875e+3, 3.1451428e+2, -1200711.4, 44153.44, -21452.783, -0.045458566, -0.17302716, 44523.027, 44523.027, 0.0, 9.989079, 10.005568 
2.2455071e+3, 1.2457684e+2, -775183.94, -1732481.8, 5080.0737, -0.0879605, -0.23079653, -775157.0, 943968.0, 0.2791502, 10.011752, 9.994219 
2.2454639e+3, 1.3457184e+2, -639620.2, -1625087.0, 27643.459, -0.12851489, -0.1936544, -638845.3, 982328.8, 0.20300102, 10.011016, 9.994639 
2.2454211e+3, 1.4456628e+2, -538854.2, -1493951.3, 4804.8555, -0.067052245, -0.23782854, -538830.0, 984398.44, 0.12531666, 10.009907, 9.995425 
2.2453772e+3, 1.5456146e+2, -584885.56, -1514600.3, 1958.5789, -0.07177751, -0.25308388, -584881.44, 840393.75, 0.061579578, 10.008379, 9.995319 
2.2453335e+3, 1.6455738e+2, -555135.25, -1326659.5, 8523.043, -0.065037966, -0.24002656, -555041.06, 772274.0, 0.021988438, 10.007043, 9.99658 
2.24529e+3, 1.7455433e+2, -608978.3, -1316235.8, 5584.138, -0.043742932, -0.19762598, -608934.2, 620411.3, 0.004680866, 10.005932, 9.996514 
2.2452466e+3, 1.8455124e+2, -596209.6, -1133157.6, -1708.9839, -0.03238121, -0.20057485, -596204.2, 535171.8, 0.00032803664, 10.004778, 9.997654 
2.2452027e+3, 1.9454822e+2, -678211.6, -1130374.8, 1327.2129, -0.033757176, -0.26163676, -678207.75, 355197.56, 0.00000022761745, 10.003576, 9.99758 
2.2451587e+3, 2.0454621e+2, -662582.2, -923663.44, 3887.7268, -0.027125929, -0.26921663, -662524.3, 272900.06, 0.0, 10.002372, 9.998906 
2.245115e+3, 2.1454561e+2, -743765.0, -918846.8, 64.33473, -0.01094181, -0.21532847, -743765.0, 93664.65, 0.0, 10.00117, 9.998845 
2.2450712e+3, 2.245448e+2, -755847.56, -792903.1, 3179.4705, -0.014071404, -0.20338872, -755576.75, -16139.192, 0.0, 10.000066, 9.999568 
2.2450271e+3, 2.3454387e+2, -808289.3, -777827.9, 13844.049, -0.03799604, -0.24521792, -772476.25, -131028.91, 0.0, 9.999078, 9.999475 
2.2449835e+3, 2.4454358e+2, -790708.75, -588077.25, 20609.033, -0.029021036, -0.2641684, -586002.4, -42552.35, 0.0, 9.997964, 10.000641 
2.2449403e+3, 2.5454423e+2, -881960.44, -587723.9, 17737.527, 0.014708855, -0.25817978, -586658.5, -141215.75, 0.0, 9.996693, 10.000584 
2.2448963e+3, 2.6454535e+2, -889606.25, -451077.97, 9752.917, -0.0034120153, -0.2278865, -450861.2, -103429.54, 0.0, 9.995583, 10.001383 
2.2448516e+3, 2.745472e+2, -931732.2, -430277.56, 11926.807, -0.08173312, -0.17578684, -429994.03, -180578.81, 0.0, 9.994662, 10.001297 
2.2448081e+3, 2.845486e+2, -907774.2, -210705.88, 26430.986, -0.06073584, -0.2152392, -209705.13, -58303.977, 0.0, 9.993478, 10.002702 
2.2447659e+3, 2.9454985e+2, -1050395.3, -249695.36, 25506.162, 0.042527467, -0.35454068, -248883.69, -195496.47, 0.0, 9.991918, 10.002514 
2.2447215e+3, 3.0455393e+2, -1138828.8, -196291.86, -8407.961, -0.014870349, -0.21161678, -196216.86, -196216.86, 0.0, 9.990672, 10.003146 
2.2446765e+3, 3.1455746e+2, -1119905.8, 29302.813, 13042.834, -0.069793634, -0.18095522, 29450.822, 29450.822, 0.0, 9.989871, 10.00508 
2.255519e+3, 1.24620244e+2, -772676.56, -1729864.6, -7370.676, -0.07326621, -0.24035534, -772619.8, 946079.94, 0.2820524, 10.011816, 9.994206 
2.2554746e+3, 1.3461575e+2, -637611.6, -1610073.4, 8366.203, -0.15302336, -0.16403419, -637539.6, 983204.4, 0.20503405, 10.010988, 9.994773 
2.2554307e+3, 1.4461042e+2, -542331.3, -1490694.5, -42289.902, -0.08982374, -0.19691104, -540449.2, 982346.94, 0.12652716, 10.009865, 9.995474 
2.2553858e+3, 1.5460543e+2, -581437.7, -1508260.9, -49449.98, -0.062927485, -0.2313596, -578806.8, 846037.2, 0.062166154, 10.008385, 9.995363 
2.2553405e+3, 1.6460106e+2, -554789.3, -1331585.8, -30308.865, -0.052315295, -0.24979244, -553608.5, 773277.9, 0.022211747, 10.007064, 9.996538 
2.255296e+3, 1.7459747e+2, -611297.75, -1323291.8, -33534.383, -0.060603123, -0.2561694, -609721.8, 619199.6, 0.0047421437, 10.005938, 9.996466 
2.255251e+3, 1.8459453e+2, -588186.5, -1116814.9, -44498.44, -0.049787898, -0.24614109, -584466.94, 546483.4, 0.00033722186, 10.004775, 9.99777 
2.2552063e+3, 1.9459254e+2, -669368.44, -1112268.5, -41646.832, -0.01718653, -0.21853983, -665486.4, 367484.0, 0.00000028290324, 10.003573, 9.997707 
2.2551611e+3, 2.045906e+2, -667479.6, -935479.06, -39255.484, -0.010929941, -0.2216327, -661848.0, 273141.1, 0.0, 10.002375, 9.998825 
2.255116e+3, 2.1458894e+2, -749051.6, -931836.7, -43135.188, -0.035765722, -0.264108, -739383.56, 97621.18, 0.0, 10.001175, 9.998755 
2.2550708e+3, 2.2458804e+2, -736626.44, -754624.0, -32927.195, -0.039053194, -0.26910144, -711490.5, 27522.93, 0.0, 10.000069, 9.999831 
2.2550264e+3, 2.3458815e+2, -787859.2, -736994.8, -22555.664, -0.016098337, -0.23470171, -728433.56, -87420.85, 0.0, 9.999081, 9.999756 
2.2549814e+3, 2.445883e+2, -794988.0, -598484.44, -26962.842, -0.0042587467, -0.22102079, -594851.94, -51840.72, 0.0, 9.997967, 10.000569 
2.2549365e+3, 2.5458866e+2, -887734.5, -601936.7, -30887.938, -0.008551904, -0.23423475, -598636.56, -153629.16, 0.0, 9.996698, 10.000485 
2.2548915e+3, 2.6458928e+2, -886850.9, -447001.63, -26519.1, -0.016005842, -0.24993761, -445408.5, -98407.09, 0.0, 9.995585, 10.001411 
2.2548467e+3, 2.745904e+2, -928624.5, -426631.22, -22605.592, -0.019065976, -0.27297917, -425615.3, -176623.69, 0.0, 9.99467, 10.00132 
2.254802e+3, 2.845925e+2, -910219.56, -217661.34, -32723.607, -0.020002691, -0.24669454, -216118.6, -65147.32, 0.0, 9.993481, 10.002655 
2.2547568e+3, 2.9459593e+2, -1047903.9, -244974.45, -36809.242, -0.04186329, -0.16502188, -243290.52, -190353.66, 0.0, 9.991915, 10.00255 
2.2547114e+3, 3.0459762e+2, -1145555.3, -210196.14, -40700.875, -0.06735232, -0.25755182, -208428.44, -208428.44, 0.0, 9.990668, 10.003054 
2.254667e+3, 3.146003e+2, -1138007.1, -16713.025, -8278.02, -0.008575533, -0.29095805, -16651.916, -16651.916, 0.0, 9.989902, 10.004752 
2.265531e+3, 1.2466554e+2, -643315.56, -1685478.3, 47830.977, -0.11160145, -0.2565546, -641124.94, 1077128.9, 0.28465527, 10.013231, 9.993916 
2.2654854e+3, 1.3466074e+2, -667086.8, -1642354.6, 48916.56, -0.1470088, -0.19345677, -664639.5, 955662.5, 0.20689638, 10.01083, 9.994614 
2.2654404e+3, 1.4465544e+2, -619486.94, -1523830.0, 12923.481, -0.07114956, -0.21495853, -619302.3, 903052.0, 0.12766398, 10.009252, 9.995508 
2.2653937e+3, 1.5465067e+2, -545163.7, -1484130.3, 9894.77, -0.07856161, -0.22967717, -545059.4, 879340.7, 0.06272806, 10.008636, 9.995405 
2.2653477e+3, 1.6464633e+2, -480002.25, -1292956.3, 21444.8, -0.07690036, -0.24721044, -479436.97, 847005.2, 0.022426268, 10.007586, 9.996555 
2.2653018e+3, 1.7464255e+2, -595841.06, -1313648.9, 22461.803, -0.066290125, -0.27331007, -595138.9, 633339.75, 0.0048018508, 10.00604, 9.99648 
2.2652556e+3, 1.8463957e+2, -603292.1, -1123436.1, 15878.509, -0.050210904, -0.2658609, -602807.8, 527699.9, 0.000346465, 10.004674, 9.997771 
2.2652094e+3, 1.9463773e+2, -678290.9, -1116140.9, 8823.21, -0.027057476, -0.22123222, -678113.1, 354413.6, 0.0000003142216, 10.003514, 9.997707 
2.2651634e+3, 2.0463587e+2, -664134.44, -931526.0, 10951.076, -0.018922089, -0.21643288, -663686.7, 270858.34, 0.0, 10.002392, 9.998842 
2.2651172e+3, 2.146342e+2, -727864.94, -919073.1, 14303.603, -0.028998062, -0.26140675, -726800.9, 109760.32, 0.0, 10.001314, 9.998774 
2.265071e+3, 2.2463332e+2, -722720.06, -738266.94, 21821.748, -0.02853198, -0.26817474, -707328.56, 31241.203, 0.0, 10.000128, 9.999913 
2.2650251e+3, 2.346335e+2, -821463.0, -743179.75, 17547.975, -0.013472045, -0.23380002, -739426.2, -98858.11, 0.0, 9.998811, 9.999841 
2.2649792e+3, 2.4463375e+2, -830782.3, -609070.0, 13302.118, -0.008209204, -0.21722664, -608274.75, -65708.93, 0.0, 9.997697, 10.000625 
2.2649331e+3, 2.546342e+2, -868123.0, -586783.94, 19927.69, -0.017570192, -0.22356421, -585379.44, -140818.02, 0.0, 9.996813, 10.000531 
2.264887e+3, 2.6463485e+2, -867501.2, -428699.2, 27667.83, -0.018548109, -0.24213994, -426961.53, -80406.17, 0.0, 9.995685, 10.001487 
2.2648413e+3, 2.7463588e+2, -987825.06, -446641.72, 33582.33, -0.00030932657, -0.28081226, -444565.78, -196019.77, 0.0, 9.994233, 10.00139 
2.2647952e+3, 2.84638e+2, -967818.44, -246627.81, 27270.11, -0.008660322, -0.25306693, -245598.14, -95072.88, 0.0, 9.993096, 10.002639 
2.2647485e+3, 2.9464167e+2, -977025.1, -206086.73, 24176.594, -0.06976935, -0.1432912, -205329.3, -152840.63, 0.0, 9.992387, 10.002586 
2.2647022e+3, 3.0464324e+2, -1054525.5, -167022.48, 21000.396, -0.07953473, -0.25127453, -166525.84, -166525.84, 0.0, 9.991299, 10.003044 
2.264657e+3, 3.1464666e+2, -1183295.5, -34709.27, 72023.375, 0.009827766, -0.2016445, -30210.584, -30210.584, 0.0, 9.989577, 10.004784 
2.2755432e+3, 1.2471246e+2, -677816.25, -1750583.9, -11117.832, -0.19942349, -0.27787977, -677701.0, 1040089.1, 0.28688014, 10.013171, 9.993413 
2.2754963e+3, 1.3470669e+2, -688254.94, -1699609.1, -20864.682, -0.11597926, -0.27157068, -687824.6, 932024.5, 0.20852858, 10.010858, 9.9942045 
2.27545e+3, 1.4470127e+2, -614027.3, -1520550.1, -6451.596, -0.018592948, -0.28242594, -613981.44, 907922.06, 0.12869295, 10.009299, 9.995511 
2.2754021e+3, 1.5469706e+2, -545545.5, -1482911.8, -9008.829, -0.11806173, -0.24559659, -545458.94, 878485.9, 0.0632532, 10.008628, 9.9954195 
2.2753546e+3, 1.6469304e+2, -479561.94, -1286827.8, -31738.7, -0.13596, -0.23329645, -478316.0, 847667.8, 0.022629771, 10.00756, 9.996613 
2.2753076e+3, 1.746894e+2, -591720.44, -1304985.5, -32857.586, -0.06231448, -0.25201717, -590210.0, 637808.6, 0.004859352, 10.006036, 9.996544 
2.2752602e+3, 1.846862e+2, -611261.8, -1143150.8, -25961.463, -0.035897445, -0.26312235, -609997.6, 520052.22, 0.00035551577, 10.004683, 9.997634 
2.2752127e+3, 1.9468372e+2, -687324.8, -1137757.8, -32488.373, -0.06276576, -0.26806983, -684993.56, 347081.9, 0.00000030772563, 10.003522, 9.997558 
2.2751653e+3, 2.0468198e+2, -655804.25, -915951.5, -27727.02, -0.049689773, -0.24963775, -652881.9, 281211.16, 0.0, 10.002395, 9.998949 
2.2751187e+3, 2.1468127e+2, -719906.4, -903193.4, -23968.854, 0.007913867, -0.20862104, -716823.75, 119276.375, 0.0, 10.001312, 9.998885 
2.2750716e+3, 2.246805e+2, -731072.3, -756466.6, -25923.28, 0.015199839, -0.20354536, -714903.7, 23204.01, 0.0, 10.000128, 9.99979 
2.2750236e+3, 2.346798e+2, -829452.25, -761606.3, -31197.182, -0.0322573, -0.24352042, -749442.06, -109327.63, 0.0, 9.998815, 9.999715 
2.2749765e+3, 2.4467981e+2, -817923.75, -584314.1, -20807.201, -0.041347127, -0.25245878, -582475.3, -40360.77, 0.0, 9.997702, 10.000795 
2.2749299e+3, 2.5468078e+2, -853911.5, -560320.25, -13154.314, -0.012316618, -0.22676152, -559732.06, -115626.39, 0.0, 9.996821, 10.000711 
2.2748828e+3, 2.64682e+2, -859714.5, -414166.53, -27438.486, -0.011401968, -0.20294285, -412483.13, -66389.1, 0.0, 9.9956875, 10.001588 
2.274835e+3, 2.746836e+2, -980728.8, -432393.63, -23419.322, -0.030785568, -0.19348651, -431395.22, -183316.66, 0.0, 9.994231, 10.001492 
2.274788e+3, 2.8468508e+2, -968634.2, -248510.36, -1223.7018, -0.029421566, -0.23476563, -248508.27, -98444.516, 0.0, 9.9930935, 10.002629 
2.2747412e+3, 2.9468688e+2, -973487.7, -203610.33, -162.5959, -0.0360792, -0.3092338, -203610.3, -151565.14, 0.0, 9.992402, 10.002598 
2.2746935e+3, 3.0469096e+2, -1043154.75, -148936.58, -41075.26, -0.0482873, -0.17780605, -147053.78, -147053.78, 0.0, 9.991318, 10.003161 
2.2746457e+3, 3.1469375e+2, -1187153.3, -41452.766, 10015.565, -0.045980003, -0.19921479, -41365.22, -41365.22, 0.0, 9.98957, 10.004742 
2.2855562e+3, 1.24760516e+2, -728070.6, -1787761.9, 4337.338, -0.1939034, -0.29637927, -728052.9, 989265.44, 0.2886553, 10.012733, 9.993366 
2.2855073e+3, 1.3475472e+2, -601369.56, -1642856.6, 12646.362, -0.14037833, -0.29443628, -601216.06, 1018161.44, 0.2098651, 10.011617, 9.994227 
2.2854595e+3, 1.4474946e+2, -506169.2, -1474107.0, 55573.188, -0.046844386, -0.28601316, -502988.94, 1018441.25, 0.1295648, 10.010193, 9.995442 
2.2854105e+3, 1.5474515e+2, -570737.9, -1503365.9, 52327.81, -0.12198621, -0.25003457, -567811.06, 855661.5, 0.0637153, 10.008483, 9.995347 
2.2853619e+3, 1.6474102e+2, -551746.94, -1328127.9, 21975.133, -0.13432941, -0.23974447, -551125.44, 774387.4, 0.022813674, 10.007087, 9.996548 
2.2853135e+3, 1.7473727e+2, -597803.94, -1314922.3, 11785.733, -0.07415933, -0.26083556, -597610.25, 629938.75, 0.0049129287, 10.006029, 9.996476 
2.2852649e+3, 1.8473406e+2, -576635.4, -1122932.5, 23596.99, -0.049902104, -0.27216908, -575618.0, 553962.56, 0.00036431116, 10.00491, 9.99766 
2.285216e+3, 1.9473158e+2, -654783.1, -1118120.0, 28954.31, -0.06776974, -0.27559176, -652980.75, 378624.63, 0.00000027277596, 10.003735, 9.997587 
2.2851677e+3, 2.0472983e+2, -643784.6, -916782.3, 33604.523, -0.050904762, -0.25692937, -639708.94, 293914.13, 0.0, 10.002511, 9.998885 
2.2851199e+3, 2.1472904e+2, -736731.6, -918906.75, 22844.49, 0.0055803577, -0.21559706, -733910.6, 101720.78, 0.0, 10.001234, 9.998814 
2.2850715e+3, 2.2472823e+2, -735199.4, -755836.7, 20326.988, 0.0130790295, -0.21152385, -722721.94, 14917.64, 0.0, 10.000092, 9.99981 
2.2850224e+3, 2.347275e+2, -787241.06, -738418.7, 26200.846, -0.032058515, -0.25421748, -727019.4, -87373.03, 0.0, 9.999097, 9.999736 
2.2849742e+3, 2.4472755e+2, -787600.1, -565295.56, 37513.723, -0.03987663, -0.2613727, -559135.8, -17489.455, 0.0, 9.997894, 10.000831 
2.2849263e+3, 2.5472862e+2, -904652.3, -579016.1, 34430.48, -0.010244455, -0.22850259, -575415.5, -131778.44, 0.0, 9.996453, 10.000758 
2.2848782e+3, 2.6473e+2, -906249.6, -423336.38, 16021.225, -0.012202458, -0.19609182, -422805.44, -77181.52, 0.0, 9.995316, 10.001701 
2.2848293e+3, 2.747318e+2, -932846.6, -396103.03, 20084.047, -0.03548494, -0.17465588, -395352.56, -147746.84, 0.0, 9.994506, 10.001607 
2.284781e+3, 2.8473318e+2, -934058.4, -230743.89, 43253.516, -0.033098653, -0.23145755, -228093.8, -78501.88, 0.0, 9.993329, 10.002636 
2.2847332e+3, 2.947345e+2, -1076589.0, -254169.14, 44302.336, -0.037453163, -0.3571506, -251789.53, -200210.5, 0.0, 9.991704, 10.002585 
2.2846851e+3, 3.0473945e+2, -1149852.8, -195748.52, -1852.8741, -0.005222835, -0.13416798, -195744.92, -195744.92, 0.0, 9.990571, 10.003199 
2.2846353e+3, 3.147408e+2, -1097511.4, 11425.764, 44852.105, -0.063346684, -0.30383825, 13236.8955, 13236.8955, 0.0, 9.99015, 10.004821 
2.2955693e+3, 1.2480957e+2, -714972.44, -1741980.4, -19378.078, -0.12240465, -0.31638426, -714606.94, 1002232.0, 0.28992602, 10.01272, 9.993688 
2.295518e+3, 1.3480456e+2, -585382.0, -1597040.3, -18586.371, -0.21306957, -0.27147642, -585040.7, 1033848.44, 0.21084848, 10.011588, 9.994595 
2.2954684e+3, 1.4479968e+2, -518421.16, -1495671.3, 1449.9651, -0.14253883, -0.23630351, -518419.0, 1002518.25, 0.1302265, 10.010176, 9.995283 
2.2954191e+3, 1.5479475e+2, -580272.06, -1526904.4, -5813.551, -0.09599484, -0.24472131, -580236.3, 842748.94, 0.06407812, 10.008492, 9.995182 
2.2953692e+3, 1.6479014e+2, -562844.75, -1356758.8, -14770.0205, -0.08219357, -0.26451617, -562570.06, 762460.4, 0.0229632, 10.007105, 9.9963455 
2.2953191e+3, 1.7478608e+2, -610915.94, -1344814.6, -25146.137, -0.10191158, -0.2972038, -610055.3, 617015.5, 0.004959658, 10.006036, 9.99627 
2.2952692e+3, 1.8478301e+2, -564738.7, -1099166.1, -18242.297, -0.08946552, -0.29094747, -564116.75, 564984.0, 0.0003730506, 10.00491, 9.997826 
2.2952199e+3, 1.9478118e+2, -642091.56, -1092465.8, -12982.454, -0.04405922, -0.24670422, -641717.6, 389400.22, 0.00000024190095, 10.003733, 9.997766 
2.2951704e+3, 2.0477927e+2, -661262.94, -954547.1, -12360.707, -0.025828402, -0.24149907, -660742.9, 272393.84, 0.0, 10.002514, 9.998627 
2.2951207e+3, 2.147774e+2, -754497.06, -957694.8, -23066.348, -0.03678315, -0.28139952, -751911.56, 83244.51, 0.0, 10.001237, 9.998548 
2.295071e+3, 2.247764e+2, -724346.56, -734971.44, -15879.672, -0.033586375, -0.28891623, -712914.25, 24251.877, 0.0, 10.000094, 9.999953 
2.2950217e+3, 2.3477651e+2, -775949.94, -716904.44, -10490.359, -0.013005835, -0.26580778, -715096.06, -75931.18, 0.0, 9.999101, 9.999884 
2.2949724e+3, 2.4477684e+2, -795171.3, -582273.25, -16880.072, -0.0042606853, -0.24454337, -580943.2, -39780.977, 0.0, 9.997896, 10.000715 
2.2949226e+3, 2.547776e+2, -911741.7, -594814.6, -20696.65, -0.014285049, -0.22868054, -593468.75, -150312.38, 0.0, 9.996453, 10.000651 
2.294873e+3, 2.6477873e+2, -897618.06, -406691.16, -15597.816, -0.022475615, -0.22361225, -406196.1, -61050.203, 0.0, 9.995316, 10.001818 
2.294824e+3, 2.747804e+2, -921788.6, -377683.2, -9773.912, -0.01388624, -0.23116535, -377507.66, -130378.91, 0.0, 9.99452, 10.001728 
2.2947744e+3, 2.847823e+2, -933478.8, -231370.08, -19304.986, -0.018362803, -0.24249017, -230839.67, -81729.42, 0.0, 9.993334, 10.002631 
2.2947241e+3, 2.9478458e+2, -1084492.6, -265999.97, -21027.27, -0.0780375, -0.26739252, -265460.13, -214371.11, 0.0, 9.99168, 10.002518 
2.294676e+3, 3.0478847e+2, -1156482.0, -206183.86, -21239.254, 0.046434015, -0.14106156, -205709.39, -205709.39, 0.0, 9.990551, 10.0031395 
2.2946258e+3, 3.147904e+2, -1065598.3, 68166.47, 19109.29, -0.033852562, -0.25946152, 68488.45, 68488.45, 0.0, 9.990187, 10.005196 
2.305582e+3, 1.2486081e+2, -706259.2, -1731357.8, 31682.246, -0.124790885, -0.28528428, -705280.9, 1011057.06, 0.2906096, 10.012793, 9.993728 
2.3055293e+3, 1.3485557e+2, -608305.5, -1603990.9, 16444.521, -0.2154243, -0.26500386, -608034.0, 1010355.75, 0.21140917, 10.011376, 9.994633 
2.3054785e+3, 1.4485075e+2, -537076.94, -1504327.3, 29598.842, -0.15196957, -0.22641264, -536172.0, 984264.75, 0.13061896, 10.010037, 9.995276 
2.3054275e+3, 1.5484554e+2, -538561.1, -1505651.9, 33622.734, -0.10308893, -0.26125786, -537393.56, 885093.2, 0.06429892, 10.008807, 9.995173 
2.3053765e+3, 1.648408e+2, -511387.44, -1345368.6, 42439.242, -0.0868774, -0.28435317, -509233.38, 815299.56, 0.023057656, 10.007534, 9.996214 
2.305325e+3, 1.7483681e+2, -593495.56, -1350340.3, 37756.613, -0.10783232, -0.2949678, -591616.7, 634956.56, 0.0049939165, 10.006222, 9.99614 
2.3052739e+3, 1.8483363e+2, -561810.5, -1104516.1, 39173.156, -0.093416154, -0.2875333, -558997.5, 569606.7, 0.00038144368, 10.004966, 9.997759 
2.3052236e+3, 1.9483155e+2, -642336.8, -1099857.8, 25461.611, -0.040890805, -0.26326305, -640924.2, 389699.28, 0.00000024558088, 10.003768, 9.997696 
2.3051728e+3, 2.048295e+2, -651291.06, -953092.44, 24161.635, -0.02657146, -0.26401556, -649369.0, 283274.3, 0.0, 10.002601, 9.998592 
2.3051216e+3, 2.1482766e+2, -723457.25, -945559.4, 30001.309, -0.05317162, -0.29623988, -719476.06, 115186.37, 0.0, 10.001469, 9.998516 
2.3050708e+3, 2.2482666e+2, -712412.6, -735229.94, 38818.004, -0.04801098, -0.2987612, -683361.5, 53311.25, 0.0, 10.000207, 9.999895 
2.3050205e+3, 2.3482671e+2, -823554.75, -746146.75, 28551.334, -0.0058903983, -0.27044186, -736755.25, -98083.26, 0.0, 9.998806, 9.999823 
2.30497e+3, 2.4482705e+2, -831853.7, -599494.0, 19441.934, 0.0037497776, -0.24749568, -597878.5, -57208.85, 0.0, 9.997645, 10.000715 
2.3049189e+3, 2.5482777e+2, -873284.94, -576059.0, 23765.014, -0.025578888, -0.23483023, -574170.8, -131506.55, 0.0, 9.996719, 10.00065 
2.3048684e+3, 2.6482886e+2, -864897.6, -385579.44, 31941.99, -0.027435992, -0.23682947, -383460.2, -38805.906, 0.0, 9.995522, 10.001862 
2.3048183e+3, 2.748304e+2, -985578.94, -402279.6, 32467.021, 0.013295169, -0.25496587, -400478.0, -153840.19, 0.0, 9.994061, 10.001779 
2.3047675e+3, 2.848325e+2, -990287.8, -259910.38, 13943.09, -0.0044031013, -0.24730536, -259644.3, -111026.71, 0.0, 9.992953, 10.002617 
2.3047155e+3, 2.9483527e+2, -1024708.75, -241806.05, 7747.654, -0.116697736, -0.22324038, -241729.39, -191136.98, 0.0, 9.992113, 10.002474 
2.3046668e+3, 3.048383e+2, -1104088.8, -186263.7, 24553.172, 0.078190796, -0.17794731, -185607.34, -185607.34, 0.0, 9.990935, 10.00309 
2.3046152e+3, 3.1484067e+2, -1133351.4, 58650.113, 31931.164, -0.051365856, -0.24728951, 59504.867, 59504.867, 0.0, 9.989632, 10.005394 
2.315594e+3, 1.2491382e+2, -719214.75, -1760458.3, -2747.414, -0.18663771, -0.22463107, -719207.5, 996612.25, 0.29055536, 10.012753, 9.993546 
2.3155412e+3, 1.3490765e+2, -622789.44, -1636572.3, -23521.834, -0.16321345, -0.27226672, -622244.0, 995636.4, 0.211438, 10.011364, 9.994393 
2.3154888e+3, 1.4490259e+2, -530069.2, -1492288.6, -8578.724, -0.09449663, -0.24944463, -529992.7, 989936.25, 0.13066815, 10.010045, 9.995371 
2.3154359e+3, 1.5489736e+2, -531025.1, -1490965.3, -7986.176, -0.14000064, -0.29570755, -530958.7, 891019.3, 0.0643315, 10.008811, 9.995275 
2.3153833e+3, 1.6489285e+2, -515932.22, -1357119.3, -4082.9063, -0.13973185, -0.29923555, -515912.4, 808109.4, 0.023073513, 10.007538, 9.996134 
2.3153313e+3, 1.7488927e+2, -597895.6, -1362246.3, -9412.093, -0.09402987, -0.25922123, -597779.75, 628278.5, 0.0050076274, 10.006229, 9.996057 
2.3152791e+3, 1.8488577e+2, -582286.3, -1150299.3, -3866.024, -0.06724296, -0.26572692, -582260.0, 545832.56, 0.00038832918, 10.004975, 9.997442 
2.3152271e+3, 1.9488254e+2, -664206.25, -1147473.3, -17362.797, -0.05913374, -0.32203832, -663583.25, 366539.84, 0.00000029839475, 10.003773, 9.997369 
2.3151751e+3, 2.0488045e+2, -638532.7, -928103.2, -16488.225, -0.05129736, -0.31990072, -637596.9, 294546.53, 0.0, 10.002603, 9.998765 
2.3151231e+3, 2.1487969e+2, -710664.4, -919731.94, -10787.011, -0.04436982, -0.26281488, -710109.25, 124042.45, 0.0, 10.001467, 9.998697 
2.3150711e+3, 2.2487885e+2, -732063.3, -776822.25, -12465.119, -0.03207295, -0.24447839, -728826.0, 7334.682, 0.0, 10.000207, 9.999612 
2.3150192e+3, 2.3487808e+2, -842967.56, -787872.4, -23423.385, -0.013383147, -0.26921505, -779260.25, -141091.56, 0.0, 9.998807, 9.999537 
2.3149672e+3, 2.4487808e+2, -823938.9, -584866.1, -15704.781, -0.016981706, -0.2700678, -583838.9, -43669.293, 0.0, 9.997649, 10.000815 
2.3149155e+3, 2.5487903e+2, -864778.3, -562124.9, -11934.027, -0.0453776, -0.24697864, -561655.0, -119493.58, 0.0, 9.996731, 10.000742 
2.3148638e+3, 2.6488024e+2, -867937.0, -393737.34, -24892.29, -0.026840005, -0.23463978, -392434.25, -48284.52, 0.0, 9.995525, 10.001806 
2.3148125e+3, 2.7488187e+2, -989716.4, -409342.34, -22633.86, 0.043859445, -0.24255621, -408461.0, -162327.7, 0.0, 9.99405, 10.001737 
2.3147605e+3, 2.848838e+2, -993176.7, -265275.25, -17271.814, 0.0068091517, -0.24699792, -264865.66, -116751.016, 0.0, 9.992946, 10.002586 
2.3147073e+3, 2.9488638e+2, -1022356.6, -244350.61, -25875.012, -0.15300977, -0.23582287, -243491.0, -193400.34, 0.0, 9.99214, 10.002446 
2.3146577e+3, 3.0488884e+2, -1110380.1, -203473.48, -31339.139, 0.08599827, -0.24086256, -202391.81, -202391.81, 0.0, 9.990949, 10.002967 
2.314605e+3, 3.1489184e+2, -1122090.3, 88058.22, -65994.1, -0.037065446, -0.23158713, 91646.49, 91646.49, 0.0, 9.989598, 10.005616 
2.3256066e+3, 1.24967575e+2, -755889.4, -1774922.9, 25037.545, -0.16478385, -0.20144992, -755274.6, 960018.9, 0.2895505, 10.012335, 9.993648 
2.3255526e+3, 1.3496104e+2, -617736.0, -1633855.9, 16710.889, -0.1448842, -0.2843354, -617461.25, 999895.56, 0.21077858, 10.0114, 9.994393 
2.325499e+3, 1.4495598e+2, -508787.75, -1491758.5, 32611.453, -0.08922538, -0.25555718, -507707.0, 1011698.3, 0.13027553, 10.0102625, 9.995267 
2.3254445e+3, 1.549507e+2, -519520.47, -1495446.1, 22745.973, -0.14490631, -0.29629803, -518990.63, 902464.8, 0.06412248, 10.0089445, 9.995176 
2.3253906e+3, 1.6494611e+2, -497008.1, -1351952.6, 22802.066, -0.14747605, -0.29905912, -496400.38, 827099.5, 0.022985741, 10.007695, 9.99609 
2.3253374e+3, 1.7494245e+2, -559546.75, -1347275.3, 19826.639, -0.09535768, -0.26166558, -559048.0, 666488.6, 0.004991975, 10.006516, 9.996017 
2.3252842e+3, 1.8493888e+2, -546744.5, -1144252.8, 33634.04, -0.06901443, -0.2678627, -544857.2, 582714.44, 0.00039209335, 10.005273, 9.997337 
2.3252307e+3, 1.9493553e+2, -643836.0, -1148827.1, 34848.977, -0.069449045, -0.32228816, -641442.44, 388160.78, 0.0000004026446, 10.003967, 9.997263 
2.3251775e+3, 2.0493329e+2, -638328.7, -945163.2, 33418.676, -0.057205316, -0.32112047, -634731.1, 296894.16, 0.0, 10.002684, 9.998606 
2.3251244e+3, 2.1493234e+2, -727905.75, -945029.4, 13463.552, -0.03163969, -0.2643322, -727074.1, 106561.56, 0.0, 10.001427, 9.99854 
2.3250712e+3, 2.2493146e+2, -730341.0, -773249.56, 7040.151, -0.020959873, -0.24300788, -729215.44, 6429.6025, 0.0, 10.00021, 9.999633 
2.3250178e+3, 2.3493075e+2, -810435.7, -769207.5, 19294.361, -0.023763122, -0.26348445, -761586.6, -123934.49, 0.0, 9.9990225, 9.999559 
2.3249649e+3, 2.4493067e+2, -812142.6, -581310.7, 39896.344, -0.030390507, -0.27167147, -574609.7, -34956.07, 0.0, 9.997745, 10.000792 
2.3249118e+3, 2.5493142e+2, -918627.94, -590973.56, 33605.977, -0.040036477, -0.26445463, -587562.25, -145915.03, 0.0, 9.99638, 10.0007105 
2.3248592e+3, 2.6493266e+2, -900430.8, -409741.25, 16814.482, -0.016567674, -0.24766028, -409165.75, -65530.29, 0.0, 9.995309, 10.001798 
2.3248066e+3, 2.749344e+2, -929988.94, -381859.72, 20858.92, 0.040432908, -0.23669772, -381067.06, -135449.33, 0.0, 9.99447, 10.001721 
2.3247534e+3, 2.8493628e+2, -947523.9, -237582.33, 29699.979, -0.0011007097, -0.24984431, -236342.02, -88742.336, 0.0, 9.993239, 10.002632 
2.3246992e+3, 2.949387e+2, -1078716.0, -262868.9, 25890.814, -0.1382305, -0.25701013, -262048.08, -212471.7, 0.0, 9.991723, 10.002516 
2.3246485e+3, 3.0494127e+2, -1131851.3, -204626.14, 36220.51, 0.09409024, -0.26151752, -203213.4, -203213.4, 0.0, 9.9907675, 10.003043 
2.3245944e+3, 3.149449e+2, -1085352.6, 71748.78, -27990.107, -0.041559987, -0.1918156, 72425.46, 72425.46, 0.0, 9.989998, 10.00531 
2.3356196e+3, 1.25022e+2, -737786.9, -1731265.6, 2209.4517, -0.08432149, -0.21409386, -737781.94, 976978.25, 0.28737125, 10.012335, 9.993946 
2.3355637e+3, 1.3501564e+2, -607054.4, -1610123.1, -10247.4, -0.15630135, -0.29957741, -606949.7, 1009870.9, 0.20925549, 10.011388, 9.994573 
2.3355088e+3, 1.4501074e+2, -526419.56, -1532166.9, -10277.499, -0.12660247, -0.24732813, -526314.56, 992553.06, 0.1293306, 10.010254, 9.994969 
2.3354536e+3, 1.5500535e+2, -538002.1, -1538413.3, -22414.99, -0.123261765, -0.26854226, -537500.1, 883420.3, 0.06361718, 10.008943, 9.994885 
2.3353985e+3, 1.6500045e+2, -498171.75, -1356481.8, -18075.76, -0.11854625, -0.28651655, -497791.25, 825177.1, 0.022772659, 10.007698, 9.99606 
2.3353435e+3, 1.7499627e+2, -560851.7, -1351476.6, -21748.334, -0.11179795, -0.29724234, -560253.9, 664755.2, 0.0049401904, 10.006517, 9.995991 
2.3352888e+3, 1.8499288e+2, -540910.5, -1133514.5, -13673.32, -0.0957479, -0.28956106, -540595.2, 586446.7, 0.0003912312, 10.005275, 9.997413 
2.3352344e+3, 1.9499034e+2, -637903.06, -1138134.5, -12653.24, -0.07221793, -0.27002874, -637583.2, 391482.44, 0.0000005528113, 10.003969, 9.997338 
2.3351799e+3, 2.0498785e+2, -672453.2, -1017896.2, -12310.379, -0.046326343, -0.2736087, -672015.06, 259075.63, 0.0, 10.002687, 9.998107 
2.3351258e+3, 2.1498556e+2, -762804.7, -1018672.4, -31219.078, -0.01762364, -0.30049837, -759050.7, 74064.48, 0.0, 10.001428, 9.998036 
2.3350713e+3, 2.2498447e+2, -708022.5, -728307.8, -36253.547, -0.01529242, -0.29109457, -680519.56, 54606.79, 0.0, 10.000212, 9.999942 
2.3350166e+3, 2.3498467e+2, -787823.2, -724170.94, -25002.537, -0.038247943, -0.25262338, -715524.5, -78401.33, 0.0, 9.999026, 9.999869 
2.3349623e+3, 2.4498473e+2, -823656.7, -606661.25, -12208.945, -0.03654489, -0.25286454, -605976.44, -66853.836, 0.0, 9.997746, 10.000619 
2.3349084e+3, 2.5498486e+2, -930747.4, -616995.0, -17840.936, -0.010660545, -0.2882374, -615983.75, -174861.25, 0.0, 9.99638, 10.000534 
2.3348545e+3, 2.6498595e+2, -898776.9, -407165.66, -15189.138, 0.002329166, -0.27672747, -406696.8, -63584.535, 0.0, 9.995308, 10.001818 
2.3348005e+3, 2.7498803e+2, -927152.75, -381072.1, -12901.831, -0.0008016078, -0.23750816, -380767.44, -135675.69, 0.0, 9.994487, 10.001721 
2.3347461e+3, 2.8498986e+2, -939934.1, -225446.02, -30102.621, -0.029923065, -0.25664645, -224179.98, -77106.62, 0.0, 9.99325, 10.002713 
2.3346914e+3, 2.9499215e+2, -1069424.1, -241979.22, -28642.072, -0.07139423, -0.2883429, -240988.95, -191938.63, 0.0, 9.991712, 10.002668 
2.3346391e+3, 3.0499557e+2, -1110345.5, -158447.75, 12808.051, 0.104488276, -0.2312218, -158275.44, -158275.44, 0.0, 9.990757, 10.003367 
2.3345837e+3, 3.149981e+2, -1181198.3, -133628.8, -79603.06, -0.102561526, -0.29638728, -127614.42, -127614.42, 0.0, 9.990019, 10.003893 
2.345632e+3, 1.2507747e+2, -694128.5, -1700511.4, 25224.166, -0.08242179, -0.22946508, -693496.7, 1020718.8, 0.2838514, 10.012667, 9.994031 
2.345575e+3, 1.3507101e+2, -619183.25, -1623727.3, 2073.8242, -0.14789867, -0.31887951, -619179.0, 997098.0, 0.20673019, 10.011282, 9.994518 
2.3455188e+3, 1.450662e+2, -553828.56, -1549581.3, 4355.0103, -0.12294679, -0.2529421, -553809.5, 964514.0, 0.12774464, 10.010037, 9.994949 
2.3454624e+3, 1.5506093e+2, -537671.25, -1540494.5, 8818.207, -0.11629904, -0.26033518, -537593.7, 882782.2, 0.062774055, 10.008954, 9.994863 
2.3454063e+3, 1.65056e+2, -484609.78, -1347363.9, 23045.043, -0.1115196, -0.27978793, -483994.7, 838429.4, 0.022420088, 10.007786, 9.996078 
2.3453501e+3, 1.7505166e+2, -557245.1, -1347673.5, 22264.627, -0.10969964, -0.3066961, -556618.44, 667847.25, 0.0048481016, 10.006538, 9.996004 
2.3452942e+3, 1.8504818e+2, -548715.6, -1156593.0, 20842.943, -0.09455901, -0.29839495, -548001.8, 578497.75, 0.00038436655, 10.00531, 9.997234 
2.3452383e+3, 1.9504564e+2, -632000.4, -1154080.0, 2861.0632, -0.066614285, -0.26062617, -631984.7, 396539.63, 0.0000007114941, 10.004097, 9.997164 
2.3451826e+3, 2.0504308e+2, -649583.25, -1002399.7, 12032.179, -0.044155184, -0.2617363, -649173.4, 281376.53, 0.0, 10.0028305, 9.998142 
2.345127e+3, 2.1504068e+2, -749152.0, -1007800.06, 30929.414, -0.025692077, -0.3021788, -745504.9, 87069.73, 0.0, 10.001508, 9.99807 
2.3450713e+3, 2.2503944e+2, -709837.25, -741028.3, 34068.832, -0.02198384, -0.30076933, -687964.06, 46622.734, 0.0, 10.000256, 9.999831 
2.3450156e+3, 2.3503952e+2, -788684.0, -735947.25, 14147.366, -0.03167029, -0.26225492, -732391.75, -95806.625, 0.0, 9.999075, 9.999763 
2.3449603e+3, 2.4503955e+2, -808033.06, -599243.25, 12967.285, -0.024706498, -0.25890294, -598441.0, -59856.11, 0.0, 9.997859, 10.000613 
2.3449048e+3, 2.5503972e+2, -900310.1, -601834.8, 20197.846, 0.0007204663, -0.28915963, -600474.25, -159890.03, 0.0, 9.996592, 10.000534 
2.3448499e+3, 2.6504079e+2, -888476.44, -398289.72, 41386.64, 0.008186222, -0.28298452, -394819.97, -52245.824, 0.0, 9.995368, 10.001847 
2.3447947e+3, 2.7504274e+2, -968961.2, -396045.47, 42403.355, -0.0043328623, -0.25579005, -392924.06, -148369.66, 0.0, 9.9941845, 10.0017605 
2.3447393e+3, 2.8504458e+2, -953938.75, -225246.6, 16740.092, -0.032152597, -0.27711836, -224862.22, -78326.49, 0.0, 9.99313, 10.002769 
2.3446834e+3, 2.950469e+2, -1006047.3, -212131.17, 16976.873, -0.06202414, -0.30926037, -211768.31, -163255.86, 0.0, 9.992153, 10.002658 
2.3446299e+3, 3.0505067e+2, -1084684.0, -139140.44, 43446.598, 0.09520366, -0.21623279, -137148.31, -137148.31, 0.0, 9.990909, 10.003424 
2.344574e+3, 3.1505293e+2, -1261535.9, -159218.27, -51853.895, -0.04573063, -0.31881386, -156784.39, -156784.39, 0.0, 9.989421, 10.004002 
2.3556441e+3, 1.2513378e+2, -697019.5, -1711937.0, -12578.689, -0.14648841, -0.25669354, -696863.6, 1016798.25, 0.2789741, 10.012611, 9.993947 
2.3555864e+3, 1.3512717e+2, -629297.7, -1658153.0, -37937.566, -0.12438782, -0.34089392, -627900.7, 987825.6, 0.20317747, 10.011262, 9.994295 
2.355529e+3, 1.451224e+2, -540283.9, -1526161.9, -29501.549, -0.08745841, -0.2689066, -539401.9, 978371.06, 0.1254969, 10.010043, 9.995111 
2.3554713e+3, 1.5511736e+2, -524535.9, -1515725.6, -27995.658, -0.12304812, -0.26835978, -523745.8, 896076.7, 0.061582353, 10.008956, 9.995034 
2.3554136e+3, 1.6511264e+2, -481571.72, -1342743.6, -21581.893, -0.12336257, -0.27747503, -481031.2, 840837.0, 0.02192377, 10.007785, 9.996113 
2.3553567e+3, 1.7510843e+2, -555673.2, -1344724.4, -23158.363, -0.09182873, -0.29390717, -554994.1, 668914.1, 0.004713512, 10.006535, 9.996029 
2.3552996e+3, 1.8510461e+2, -578921.0, -1219791.9, -23289.793, -0.06934337, -0.29699212, -578075.75, 547870.2, 0.00037035168, 10.005307, 9.996804 
2.3552424e+3, 1.9510134e+2, -661693.7, -1216114.1, -40130.39, -0.054926563, -0.29086867, -658804.0, 369175.8, 0.0000008112054, 10.004093, 9.996742 
2.3551853e+3, 2.0509896e+2, -612691.1, -926791.25, -35456.027, -0.05074721, -0.28087834, -608738.5, 321264.72, 0.0, 10.0028305, 9.998664 
2.3551282e+3, 2.1509756e+2, -712940.56, -933727.44, -17089.197, -0.05631754, -0.2711099, -711625.7, 120389.6, 0.0, 10.001508, 9.998581 
2.3550713e+3, 2.2509627e+2, -746943.6, -819718.8, -9387.732, -0.040743403, -0.27467927, -745752.1, -11724.333, 0.0, 10.000258, 9.999291 
2.3550148e+3, 2.3509523e+2, -825667.44, -814711.0, -29847.096, -0.005606672, -0.29369336, -789843.56, -153804.45, 0.0, 9.999079, 9.999223 
2.354958e+3, 2.4509507e+2, -796605.7, -577172.06, -35080.844, 0.0041514686, -0.28882146, -571700.1, -33659.035, 0.0, 9.997862, 10.000766 
2.3549011e+3, 2.5509596e+2, -887309.44, -577999.9, -28048.299, -0.009692868, -0.26472163, -575477.0, -135444.28, 0.0, 9.9966, 10.000696 
2.354845e+3, 2.6509702e+2, -886724.06, -396686.2, -4643.843, 0.00008653575, -0.26654613, -396642.16, -54620.418, 0.0, 9.995372, 10.001859 
2.3547891e+3, 2.750984e+2, -965461.4, -388754.03, -2754.8179, 0.033093307, -0.2956987, -388740.88, -144734.23, 0.0, 9.994181, 10.001815 
2.3547325e+3, 2.851004e+2, -952833.0, -222757.56, -20327.396, -0.0068065426, -0.31045958, -222192.03, -76204.836, 0.0, 9.993124, 10.002791 
2.3546748e+3, 2.95103e+2, -1017203.44, -240502.9, -20083.379, -0.12123, -0.31091824, -239983.95, -192021.56, 0.0, 9.992171, 10.002457 
2.3546204e+3, 3.0510625e+2, -1103149.0, -180800.64, -14404.696, 0.06403257, -0.2362799, -180575.73, -180575.73, 0.0, 9.990918, 10.003137 
2.3545638e+3, 3.1510958e+2, -1122638.9, 131434.69, -70328.88, 0.008260722, -0.23072685, 135366.44, 135366.44, 0.0, 9.989406, 10.006007 
2.365656e+3, 1.2519099e+2, -746407.06, -1727346.9, 1494.8649, -0.14695959, -0.275943, -746404.8, 966696.1, 0.27290475, 10.011966, 9.99415 
2.3655975e+3, 1.3518476e+2, -630524.44, -1653673.0, -8737.144, -0.124527104, -0.32642987, -630449.9, 984712.06, 0.19871141, 10.01117, 9.994368 
2.3655388e+3, 1.4518002e+2, -518762.94, -1510007.3, 4952.416, -0.08991618, -0.2559943, -518738.22, 998469.9, 0.12264775, 10.010163, 9.995166 
2.3654799e+3, 1.5517476e+2, -514890.84, -1504914.6, 1263.8348, -0.11206619, -0.28197077, -514889.25, 904369.94, 0.060064312, 10.008994, 9.995087 
2.3654214e+3, 1.6517001e+2, -489141.44, -1352699.4, -4268.5054, -0.10980761, -0.29286832, -489120.34, 832184.8, 0.021288026, 10.00776, 9.996052 
2.3653631e+3, 1.7516595e+2, -570537.7, -1357232.4, -12483.196, -0.085770614, -0.28864777, -570339.6, 653004.8, 0.0045357863, 10.00646, 9.9959755 
2.3653047e+3, 1.8516217e+2, -587750.94, -1211793.8, 4973.102, -0.06646744, -0.29037148, -587711.25, 537670.56, 0.00034863263, 10.005199, 9.996908 
2.3652463e+3, 1.9515882e+2, -672305.1, -1209615.0, 24070.844, -0.05148341, -0.29950273, -671228.94, 356186.94, 0.00000079346586, 10.003976, 9.996841 
2.365188e+3, 2.0515639e+2, -624173.1, -938421.75, 24407.797, -0.04917529, -0.2950087, -622288.7, 307150.88, 0.0, 10.002783, 9.998605 
2.3651294e+3, 2.1515499e+2, -700911.5, -932887.0, 503.7173, -0.058003288, -0.28030995, -700910.4, 130541.445, 0.0, 10.001617, 9.998531 
2.3650715e+3, 2.2515365e+2, -728120.6, -810006.44, 8742.556, -0.0416414, -0.28365165, -727197.6, 6266.8755, 0.0, 10.00039, 9.999293 
2.3650137e+3, 2.3515254e+2, -822921.8, -812662.06, 28956.777, 0.00059672876, -0.30751434, -788384.25, -152908.08, 0.0, 9.9991, 9.999224 
2.3649558e+3, 2.4515234e+2, -793786.6, -585513.2, 36422.445, 0.010714386, -0.3022112, -579327.44, -41848.664, 0.0, 9.997929, 10.000673 
2.3648977e+3, 2.5515318e+2, -857351.0, -572244.1, 24310.303, -0.010596448, -0.27087104, -570186.1, -130715.15, 0.0, 9.996849, 10.000612 
2.3648404e+3, 2.6515412e+2, -854651.75, -385833.56, 31663.506, -0.003047832, -0.27607456, -383704.72, -42243.637, 0.0, 9.995618, 10.001812 
2.3647831e+3, 2.7515534e+2, -959004.3, -390648.5, 28805.531, 0.03985506, -0.3199688, -389192.3, -145744.39, 0.0, 9.994252, 10.001764 
2.3647253e+3, 2.8515744e+2, -966125.06, -231509.4, 11676.343, 0.00070983736, -0.3185702, -231323.88, -85896.34, 0.0, 9.99305, 10.002764 
2.3646665e+3, 2.9516047e+2, -1056089.3, -261753.8, 6105.8735, -0.13483535, -0.2742809, -261706.86, -214307.77, 0.0, 9.991921, 10.002429 
2.364611e+3, 3.0516273e+2, -1126190.6, -167520.86, 34303.31, 0.07482872, -0.30659807, -166294.98, -166294.98, 0.0, 9.99066, 10.003351 
2.3645528e+3, 3.1516606e+2, -1110171.8, 136778.33, 21391.98, -0.022657383, -0.32140478, 137145.22, 137145.22, 0.0, 9.989501, 10.005995 
2.3756683e+3, 1.25249e+2, -719774.6, -1683882.3, -18824.074, -0.10121859, -0.2949133, -719407.25, 993125.9, 0.2659273, 10.011946, 9.994527 
2.3756081e+3, 1.3524367e+2, -612701.4, -1618466.9, -32093.02, -0.14908932, -0.2816495, -611678.4, 1002906.94, 0.19353285, 10.011142, 9.994626 
2.3755486e+3, 1.4523895e+2, -520288.75, -1518919.1, -33280.25, -0.12583423, -0.21920668, -519180.88, 997449.94, 0.11931066, 10.010144, 9.995112 
2.375489e+3, 1.552331e+2, -519586.7, -1515986.0, -38918.91, -0.086175285, -0.30025324, -518068.84, 900617.9, 0.058268316, 10.008975, 9.995023 
2.3754294e+3, 1.652281e+2, -501426.2, -1377349.0, -50218.95, -0.07498917, -0.3234762, -498556.4, 822178.94, 0.020528337, 10.007743, 9.995894 
2.375369e+3, 1.7522417e+2, -581181.3, -1378601.4, -58118.38, -0.090956695, -0.29086626, -576967.75, 645807.1, 0.0043185763, 10.006451, 9.995835 
2.3753093e+3, 1.8522073e+2, -549247.8, -1131980.4, -38652.95, -0.0840063, -0.27849802, -546695.1, 578112.94, 0.00031996213, 10.005196, 9.99746 
2.37525e+3, 1.9521792e+2, -635938.0, -1134068.6, -20390.72, -0.056724694, -0.2887681, -635104.75, 391729.38, 0.0000006573085, 10.003971, 9.997364 
2.3751907e+3, 2.0521523e+2, -666733.44, -1027530.4, -18331.059, -0.04021089, -0.30529484, -665804.5, 263055.94, 0.0, 10.002781, 9.997996 
2.3751311e+3, 2.1521284e+2, -742450.9, -1019712.2, -41300.42, -0.033855192, -0.3291874, -736429.6, 94455.44, 0.0, 10.001615, 9.997939 
2.3750718e+3, 2.2521155e+2, -691555.4, -735369.9, -38488.695, -0.026400123, -0.32528976, -669176.0, 63721.348, 0.0, 10.000391, 9.999807 
2.3750125e+3, 2.3521142e+2, -787035.56, -740078.94, -18784.39, -0.015352758, -0.30313182, -733489.25, -98592.12, 0.0, 9.999103, 9.999723 
2.3749533e+3, 2.4521124e+2, -818057.0, -637538.44, -4609.897, -0.0054503153, -0.29999626, -637420.8, -100522.04, 0.0, 9.9979315, 10.000317 
2.3748945e+3, 2.552113e+2, -880977.4, -624042.06, -17360.48, -0.0023061335, -0.30949676, -622874.4, -183974.7, 0.0, 9.996857, 10.000256 
2.3748358e+3, 2.6521206e+2, -862691.4, -404431.94, -21161.807, -0.002051194, -0.3115298, -403456.78, -62564.027, 0.0, 9.995622, 10.001685 
2.374777e+3, 2.7521345e+2, -970350.75, -416195.34, -22101.42, 0.008069566, -0.32566392, -415315.28, -172436.58, 0.0, 9.994256, 10.00159 
2.3747182e+3, 2.8521562e+2, -973527.25, -247585.73, -32057.865, -0.012002392, -0.30176556, -246172.8, -101315.36, 0.0, 9.993049, 10.002657 
2.3746587e+3, 2.952191e+2, -1046447.8, -240429.0, -40911.176, -0.09122558, -0.20082518, -238357.78, -191534.56, 0.0, 9.991911, 10.002583 
2.3746021e+3, 3.0522004e+2, -1073766.5, -55108.82, -12624.055, 0.12754518, -0.42369983, -54952.395, -54952.395, 0.0, 9.99064, 10.004135 
2.374542e+3, 3.1522408e+2, -1265199.0, -184661.22, -17927.268, -0.033430226, -0.41414237, -184363.86, -184363.86, 0.0, 9.989498, 10.00379 
2.38568e+3, 1.2530854e+2, -731360.2, -1693585.0, 24917.398, -0.09342453, -0.29731813, -730715.3, 981233.94, 0.25834444, 10.011739, 9.994534 
2.3856188e+3, 1.3530335e+2, -633028.1, -1644394.4, -22.124075, -0.14428164, -0.25925714, -633028.1, 980972.6, 0.18785332, 10.010955, 9.994534 
2.3855583e+3, 1.452985e+2, -543871.0, -1526898.1, -19081.025, -0.12845457, -0.20858924, -543500.75, 972546.94, 0.115609825, 10.009905, 9.995168 
2.3854978e+3, 1.5529248e+2, -566074.3, -1533660.3, -18888.137, -0.082832396, -0.30788374, -565705.75, 852398.8, 0.056255743, 10.008597, 9.99508 
2.3854367e+3, 1.6528752e+2, -539761.0, -1378241.9, -13792.313, -0.06882183, -0.33836985, -539534.2, 780618.4, 0.019671295, 10.007396, 9.996052 
2.3853755e+3, 1.7528376e+2, -592313.0, -1366372.0, -856.3545, -0.086197324, -0.30341455, -592312.06, 629878.1, 0.0040713223, 10.006302, 9.995989 
2.3853144e+3, 1.8528044e+2, -557774.56, -1131276.8, 7976.5435, -0.08073421, -0.2872815, -557663.6, 566558.5, 0.00028659974, 10.005122, 9.997498 
2.3852539e+3, 1.9527769e+2, -649090.2, -1134981.1, -9965.554, -0.053653635, -0.29331985, -648885.9, 377361.66, 0.00000045716655, 10.003863, 9.997406 
2.3851931e+3, 2.0527501e+2, -688638.9, -1037209.4, -178.15898, -0.03546404, -0.310957, -688638.8, 239635.08, 0.0, 10.002632, 9.997998 
2.3851326e+3, 2.1527253e+2, -770337.9, -1032425.8, 19594.93, -0.025438022, -0.33982003, -768881.0, 61418.4, 0.0, 10.001425, 9.997941 
2.385072e+3, 2.2527122e+2, -706089.0, -740419.56, 24462.217, -0.01975074, -0.33688796, -693370.4, 38941.42, 0.0, 10.000287, 9.999821 
2.3850115e+3, 2.3527116e+2, -771824.1, -730422.5, 7214.7285, -0.014366507, -0.30967683, -729201.25, -94890.34, 0.0, 9.999203, 9.999739 
2.3849511e+3, 2.4527097e+2, -805201.44, -634563.6, 17929.525, -0.004688399, -0.30605918, -632700.06, -96387.46, 0.0, 9.998039, 10.000283 
2.3848914e+3, 2.5527093e+2, -891358.25, -632642.75, 29058.262, 0.005430073, -0.32214174, -629419.2, -191104.42, 0.0, 9.996807, 10.000217 
2.384831e+3, 2.652716e+2, -862745.9, -410100.66, 35328.523, 0.0012946425, -0.3239206, -407359.9, -67051.234, 0.0, 9.995652, 10.001628 
2.3847713e+3, 2.7527305e+2, -936127.9, -406124.06, 38917.797, -0.0020259423, -0.32618487, -403281.6, -160986.97, 0.0, 9.994525, 10.001526 
2.3847112e+3, 2.8527522e+2, -954553.94, -238823.97, 35014.06, -0.009341447, -0.2936711, -237115.14, -92842.07, 0.0, 9.993188, 10.002646 
2.3846507e+3, 2.9527864e+2, -1075088.4, -249190.66, 29761.91, -0.05309257, -0.20065476, -248119.55, -201880.02, 0.0, 9.991702, 10.00262 
2.3845926e+3, 3.0527943e+2, -1072320.1, -55428.91, 27031.338, 0.12578963, -0.43861517, -54710.86, -54710.86, 0.0, 9.990659, 10.004121 
2.3845312e+3, 3.1528607e+2, -1221123.9, -188264.17, -35810.906, -0.054841552, -0.15731181, -187024.05, -187024.05, 0.0, 9.989911, 10.003564 
2.3956914e+3, 1.2536931e+2, -733157.6, -1724591.9, 1427.1276, -0.120271236, -0.29079458, -733155.56, 978197.06, 0.25043696, 10.011752, 9.994272 
2.3956302e+3, 1.3536374e+2, -646694.3, -1695733.4, -21587.178, -0.11584419, -0.2570116, -646250.25, 967158.56, 0.18186642, 10.010944, 9.994188 
2.3955683e+3, 1.453586e+2, -535033.9, -1513538.6, -59452.25, -0.10521059, -0.22157623, -531434.9, 984024.0, 0.11166385, 10.009884, 9.9952755 
2.3955059e+3, 1.5535285e+2, -558569.94, -1517488.5, -62508.86, -0.100775465, -0.3074477, -554512.4, 863001.2, 0.054092996, 10.0085745, 9.995206 
2.3954439e+3, 1.6534814e+2, -513699.72, -1321200.4, -51566.547, -0.088149846, -0.33946782, -510420.03, 809138.0, 0.018749962, 10.007377, 9.996456 
2.3953816e+3, 1.7534457e+2, -568719.1, -1314344.1, -39908.676, -0.07366159, -0.3233624, -566589.1, 655002.6, 0.0038070206, 10.006284, 9.996357 
2.3953196e+3, 1.8534115e+2, -589375.8, -1194989.5, -37461.184, -0.05958909, -0.31371024, -587067.44, 536557.8, 0.00025163277, 10.005109, 9.997068 
2.3952575e+3, 1.9533806e+2, -677969.3, -1193911.5, -54376.79, -0.044144254, -0.31321827, -672300.6, 353356.03, 0.00000025508618, 10.003855, 9.997008 
2.3951955e+3, 2.0533563e+2, -650214.6, -957913.0, -43247.402, -0.035323378, -0.31188193, -644251.7, 283428.7, 0.0, 10.00263, 9.998546 
2.3951338e+3, 2.1533397e+2, -733651.0, -957262.06, -23568.467, -0.033389796, -0.3142312, -731193.94, 98502.07, 0.0, 10.001425, 9.99846 
2.395072e+3, 2.253326e+2, -739841.7, -811861.44, -15333.201, -0.02147643, -0.31979454, -736713.1, -5003.893, 0.0, 10.000289, 9.999331 
2.3950107e+3, 2.3533167e+2, -804128.1, -799409.5, -33653.79, 0.0011931189, -0.32764977, -768032.44, -134314.03, 0.0, 9.999207, 9.999266 
2.3949492e+3, 2.4533145e+2, -785167.2, -594664.5, -29344.459, 0.012280947, -0.3199042, -590246.8, -54525.934, 0.0, 9.998041, 10.000559 
2.394888e+3, 2.5533196e+2, -871956.3, -594415.5, -17431.547, 0.009838377, -0.30749527, -593324.94, -155608.38, 0.0, 9.996811, 10.000481 
2.3948267e+3, 2.6533273e+2, -862890.8, -411477.1, -7641.777, 0.0066959606, -0.31250793, -411347.75, -71638.6, 0.0, 9.995653, 10.00162 
2.3947656e+3, 2.7533412e+2, -932077.6, -400299.84, -4905.8794, 0.012258327, -0.3190149, -400254.6, -158558.9, 0.0, 9.994533, 10.001565 
2.3947044e+3, 2.853363e+2, -951117.0, -232753.2, -22240.654, 0.01050686, -0.29504335, -232065.28, -88390.586, 0.0, 9.993187, 10.002691 
2.3946424e+3, 2.9533884e+2, -1086104.0, -270547.88, -24127.676, -0.026608743, -0.28932208, -269834.7, -224184.75, 0.0, 9.991691, 10.0024805 
2.3945823e+3, 3.0534106e+2, -1134239.6, -184436.45, -590.3598, 0.05662281, -0.32666585, -184436.1, -184436.1, 0.0, 9.990656, 10.003239 
2.3945215e+3, 3.153465e+2, -1092206.1, 71663.33, -94907.24, -0.015640916, -0.09793931, 79351.71, 79351.71, 0.0, 9.989934, 10.0053425 
2.4057029e+3, 1.2543096e+2, -680014.7, -1689950.5, 14237.946, -0.12757626, -0.28313243, -679814.0, 1030934.06, 0.2424411, 10.012077, 9.994397 
2.405641e+3, 1.3542517e+2, -656074.5, -1695837.9, 16167.377, -0.09974584, -0.27681127, -655823.1, 956982.75, 0.1757411, 10.010765, 9.994273 
2.4055779e+3, 1.4542001e+2, -572388.25, -1521962.8, -13595.913, -0.09112907, -0.25203842, -572193.6, 942662.56, 0.10758261, 10.009507, 9.995395 
2.4055141e+3, 1.5541469e+2, -588831.3, -1519451.4, -12745.465, -0.101770036, -0.30518603, -588656.8, 828250.5, 0.051844977, 10.008284, 9.995329 
2.4054506e+3, 1.6541019e+2, -542750.4, -1314588.1, -2910.5862, -0.08990641, -0.33049262, -542739.4, 776210.2, 0.01779644, 10.007081, 9.99664 
2.4053878e+3, 1.7540662e+2, -610678.3, -1314083.3, -5635.554, -0.062782176, -0.331747, -610633.1, 610349.44, 0.0035378635, 10.005909, 9.996536 
2.4053244e+3, 1.8540321e+2, -639337.8, -1213971.6, 4600.5674, -0.043613356, -0.33143625, -639301.0, 483714.88, 0.00021786014, 10.004748, 9.997109 
2.4052612e+3, 1.9540012e+2, -713196.6, -1205955.9, 19266.709, -0.030472515, -0.33040276, -712444.44, 312603.2, 0.00000010127171, 10.003596, 9.997047 
2.405198e+3, 2.0539783e+2, -666754.56, -959660.9, 29089.885, -0.028374659, -0.3204548, -663893.44, 263177.1, 0.0, 10.002495, 9.998596 
2.405135e+3, 2.1539634e+2, -728907.25, -948201.94, 12357.339, -0.035140157, -0.30782574, -728213.1, 100871.195, 0.0, 10.001434, 9.998514 
2.4050723e+3, 2.2539496e+2, -744804.8, -817116.0, 20575.533, -0.024930492, -0.3133771, -739360.2, -8262.43, 0.0, 10.000273, 9.999301 
2.4050096e+3, 2.3539387e+2, -833881.7, -816763.2, 36642.656, 0.0030169634, -0.33310795, -787693.44, -154584.44, 0.0, 9.999021, 9.999234 
2.404947e+3, 2.4539366e+2, -809617.0, -598901.3, 47602.63, 0.016571002, -0.32388774, -588646.5, -53535.13, 0.0, 9.997846, 10.000622 
2.4048845e+3, 2.553943e+2, -882846.0, -592266.4, 42586.848, 0.015354777, -0.30066517, -586153.5, -149048.11, 0.0, 9.996709, 10.000543 
2.404822e+3, 2.653951e+2, -885317.1, -415839.16, 45777.156, 0.009712173, -0.30802828, -411417.25, -72319.49, 0.0, 9.995477, 10.001673 
2.4047598e+3, 2.7539647e+2, -980257.75, -415743.38, 51153.918, 0.011045101, -0.32161295, -411145.47, -170060.75, 0.0, 9.994175, 10.001628 
2.4046975e+3, 2.853987e+2, -959026.6, -231094.78, 33961.17, 0.0204264, -0.29644886, -229513.78, -86450.74, 0.0, 9.993115, 10.002734 
2.4046345e+3, 2.954011e+2, -1006867.5, -232967.02, 33841.953, 0.009420946, -0.3062939, -231489.95, -186450.67, 0.0, 9.99224, 10.002472 
2.4045722e+3, 3.054033e+2, -1120491.5, -237547.7, 79188.3, -0.005145939, -0.313155, -230501.8, -230501.8, 0.0, 9.9910145, 10.002698 
2.4045113e+3, 3.1540522e+2, -1146279.9, 98760.336, -24333.074, 0.033671368, -0.38810998, 99235.72, 99235.72, 0.0, 9.989347, 10.005806 
2.4157149e+3, 1.2549326e+2, -653587.25, -1647648.8, -21508.752, -0.12720133, -0.2861356, -653122.06, 1057015.3, 0.23451416, 10.012023, 9.9948 
2.4156517e+3, 1.3548757e+2, -630780.6, -1642154.4, -21028.313, -0.095621794, -0.310198, -630343.6, 981849.2, 0.16960922, 10.010726, 9.994662 
2.4155872e+3, 1.454826e+2, -563028.06, -1507272.6, -51941.9, -0.085513495, -0.29133072, -560179.44, 954061.6, 0.10346463, 10.009484, 9.995514 
2.4155225e+3, 1.5547782e+2, -580467.1, -1504629.9, -53149.637, -0.09028856, -0.30008402, -577420.44, 838867.06, 0.049572576, 10.008274, 9.995439 
2.4154578e+3, 1.6547349e+2, -543823.56, -1318103.6, -42809.203, -0.07790272, -0.314733, -541463.9, 776865.0, 0.016839385, 10.007074, 9.996621 
2.4153936e+3, 1.7546973e+2, -611686.1, -1314494.8, -46126.28, -0.05398019, -0.3334484, -608671.75, 611692.2, 0.0032737842, 10.005896, 9.996542 
2.415329e+3, 1.8546647e+2, -610628.7, -1152605.5, -36138.418, -0.032921713, -0.3421465, -608229.6, 514165.6, 0.00018720924, 10.004736, 9.997539 
2.4152648e+3, 1.9546376e+2, -686666.3, -1150013.8, -21832.08, -0.014374534, -0.344642, -685639.9, 338782.03, 0.00000002280328, 10.003589, 9.997438 
2.4152005e+3, 2.0546143e+2, -696948.5, -1022464.0, -9195.533, -0.015676053, -0.33540544, -696688.94, 229756.75, 0.0, 10.002491, 9.998169 
2.4151362e+3, 2.1545956e+2, -757082.1, -1006457.8, -25564.236, -0.03341523, -0.31997454, -754488.44, 73976.914, 0.0, 10.001428, 9.998119 
2.4150723e+3, 2.2545826e+2, -716626.44, -759514.6, -25043.207, -0.031174177, -0.31672898, -705100.7, 25377.295, 0.0, 10.000272, 9.999699 
2.4150082e+3, 2.3545767e+2, -806813.25, -762906.5, -9469.678, -0.010340329, -0.32597792, -760951.2, -128467.91, 0.0, 9.999025, 9.999604 
2.4149446e+3, 2.4545753e+2, -821535.2, -624629.0, 4353.709, 0.00792055, -0.31846502, -624532.8, -90047.945, 0.0, 9.997846, 10.000447 
2.4148811e+3, 2.5545794e+2, -893444.25, -615816.75, -1320.6581, 0.0198842, -0.3014265, -615810.5, -179328.72, 0.0, 9.996711, 10.000382 
2.4148174e+3, 2.654587e+2, -878980.3, -403386.88, -4297.0015, 0.009329072, -0.31093007, -403348.06, -64873.18, 0.0, 9.995474, 10.001762 
2.4147534e+3, 2.7546003e+2, -976387.5, -407291.47, 2602.2002, -0.010001113, -0.33571443, -407279.56, -166817.4, 0.0, 9.994168, 10.001692 
2.4146903e+3, 2.854624e+2, -955807.5, -224501.44, 1371.5801, 0.017649794, -0.29785886, -224498.86, -82060.805, 0.0, 9.993112, 10.002783 
2.414627e+3, 2.954656e+2, -994950.44, -212631.84, 2515.0723, 0.056050356, -0.2375384, -212623.77, -168218.22, 0.0, 9.992254, 10.002606 
2.4145627e+3, 3.0546597e+2, -1141229.9, -284201.2, 19562.354, -0.052870948, -0.4226308, -283754.9, -283754.9, 0.0, 9.991023, 10.002377 
2.4145003e+3, 3.1546912e+2, -1186068.8, 17985.91, -81965.15, 0.011983578, -0.32615343, 23540.008, 23540.008, 0.0, 9.989331, 10.005263 
2.4257265e+3, 1.2555736e+2, -680839.3, -1662059.1, 32266.338, -0.123929486, -0.29899096, -679779.4, 1029728.6, 0.22670814, 10.011666, 9.994837 
2.4256618e+3, 1.3555163e+2, -681200.56, -1670569.0, 20806.76, -0.08128154, -0.3264354, -680763.1, 930800.6, 0.16354495, 10.010233, 9.994703 
2.4255964e+3, 1.4554675e+2, -599873.1, -1502438.1, -3977.7454, -0.0700406, -0.31315026, -599855.56, 913755.6, 0.09938149, 10.009056, 9.995753 
2.4255306e+3, 1.555424e+2, -586721.8, -1482816.8, 3788.3481, -0.076644845, -0.3014479, -586705.8, 828947.75, 0.047323562, 10.008107, 9.995665 
2.4254645e+3, 1.6553818e+2, -555845.94, -1318793.3, 15897.306, -0.06832047, -0.316891, -555514.9, 762179.06, 0.015900873, 10.006967, 9.996666 
2.4253991e+3, 1.7553426e+2, -640840.7, -1322125.6, 17776.299, -0.050692413, -0.3536357, -640377.2, 579353.5, 0.00302191, 10.0056715, 9.996595 
2.4253336e+3, 1.8553108e+2, -636574.6, -1151669.8, 22778.594, -0.03169567, -0.35856774, -635569.3, 486191.78, 0.00016061921, 10.004506, 9.997653 
2.425268e+3, 1.9552869e+2, -698941.8, -1142707.5, 14579.677, -0.010562302, -0.341619, -698463.3, 325321.53, 0.0000000014099786, 10.003451, 9.997552 
2.4252026e+3, 2.0552638e+2, -718401.44, -1027093.5, 34486.83, -0.009571283, -0.33525836, -714595.5, 211212.77, 0.0, 10.002324, 9.998216 
2.4251375e+3, 2.1552435e+2, -797191.5, -1020265.1, 50675.492, -0.024541099, -0.3373535, -786219.25, 41610.234, 0.0, 10.001135, 9.998163 
2.425072e+3, 2.2552314e+2, -758156.44, -776811.2, 49342.96, -0.028135633, -0.3279885, -717267.0, 12574.812, 0.0, 9.99998, 9.999718 
2.4250068e+3, 2.3552278e+2, -830971.06, -770528.56, 37233.81, -0.018802442, -0.31401443, -752794.8, -120949.56, 0.0, 9.998848, 9.999634 
2.4249421e+3, 2.4552268e+2, -835710.25, -621956.06, 51441.945, -0.0017268383, -0.3089494, -610220.4, -76373.8, 0.0, 9.997713, 10.000526 
2.4248774e+3, 2.5552294e+2, -907907.2, -613632.9, 64373.996, 0.01889119, -0.31173426, -600166.94, -164322.58, 0.0, 9.996578, 10.000458 
2.4248128e+3, 2.6552373e+2, -872098.25, -407235.9, 62190.906, 0.0076691136, -0.3151032, -399059.6, -61222.44, 0.0, 9.995557, 10.001694 
2.4247475e+3, 2.7552512e+2, -923053.7, -390445.66, 55027.105, -0.017652014, -0.32431895, -384819.88, -144995.45, 0.0, 9.994575, 10.001611 
2.4246834e+3, 2.8552732e+2, -918579.94, -203809.03, 49057.813, 0.01964884, -0.3024922, -200457.7, -58655.42, 0.0, 9.99336, 10.002804 
2.4246192e+3, 2.955304e+2, -1022041.06, -215318.55, 47894.29, 0.077755034, -0.25118253, -212485.06, -168715.11, 0.0, 9.992031, 10.002693 
2.4245535e+3, 3.0553123e+2, -1152733.5, -278187.47, 67585.625, -0.058057237, -0.40347302, -272995.22, -272995.22, 0.0, 9.9909, 10.002475 
2.42449e+3, 3.1553575e+2, -1135840.1, 23060.242, 2926.9353, 0.0456629, -0.16783819, 23067.635, 23067.635, 0.0, 9.98976, 10.00509 
2.435738e+3, 1.25623e+2, -686470.7, -1692864.4, -8562.118, -0.12279962, -0.31315818, -686397.9, 1022464.8, 0.21899366, 10.011658, 9.994565 
2.4356721e+3, 1.3561706e+2, -688329.56, -1704771.1, -20092.81, -0.06268266, -0.33500046, -687932.56, 922989.06, 0.15756561, 10.010232, 9.994471 
2.4356055e+3, 1.4561218e+2, -576425.9, -1463134.0, -32345.68, -0.04944988, -0.32736188, -575247.5, 937721.75, 0.09536897, 10.009054, 9.996056 
2.4355386e+3, 1.556082e+2, -567847.75, -1441596.6, -27769.162, -0.06206953, -0.30910623, -566966.1, 848041.1, 0.045125984, 10.008082, 9.995963 
2.4354714e+3, 1.6560408e+2, -552132.94, -1308164.0, -29203.969, -0.06157338, -0.33207688, -551006.5, 766039.75, 0.0149941975, 10.006943, 9.996755 
2.4354045e+3, 1.7560007e+2, -636485.1, -1312715.5, -27482.14, -0.054104995, -0.38731804, -635370.06, 583714.06, 0.0027859637, 10.005664, 9.996666 
2.4353376e+3, 1.8559697e+2, -649483.1, -1179163.1, -14163.96, -0.039737437, -0.37886485, -649104.6, 472009.88, 0.00013817036, 10.004503, 9.997468 
2.4352713e+3, 1.9559476e+2, -710382.8, -1165453.8, -22123.17, -0.019075995, -0.3243809, -709309.8, 313827.75, 0.0000000000297077, 10.003442, 9.997403 
2.4352048e+3, 2.0559259e+2, -686655.0, -960527.06, -8152.8755, -0.009803099, -0.32195136, -686412.5, 238746.8, 0.0, 10.002316, 9.998678 
2.4351384e+3, 2.1559066e+2, -768363.5, -960723.06, 7770.227, -0.010246489, -0.3611125, -768050.1, 59127.973, 0.0, 10.001131, 9.998576 
2.435072e+3, 2.255895e+2, -783605.6, -830647.6, 7606.242, -0.016569234, -0.34718058, -782406.4, -53216.06, 0.0, 9.999981, 9.999351 
2.4350056e+3, 2.3558915e+2, -853539.75, -818326.4, -5275.7007, -0.025180036, -0.29592377, -817552.94, -186357.27, 0.0, 9.998847, 9.999309 
2.4349394e+3, 2.45589e+2, -812612.75, -575003.56, 7942.014, -0.013395157, -0.29472926, -574738.4, -41541.3, 0.0, 9.997713, 10.000852 
2.4348737e+3, 2.5558928e+2, -886504.5, -571277.8, 22422.227, 0.0098515125, -0.33119717, -569690.9, -134497.4, 0.0, 9.996583, 10.00075 
2.4348079e+3, 2.6559022e+2, -889430.56, -445061.63, 25346.63, 0.00458364, -0.32015324, -443620.56, -106435.8, 0.0, 9.995561, 10.001434 
2.434742e+3, 2.755918e+2, -938487.8, -426388.8, 16105.451, -0.01067272, -0.28287902, -425882.8, -186711.66, 0.0, 9.994586, 10.001361 
2.4346766e+3, 2.8559333e+2, -921415.5, -212961.36, -2671.4517, 0.025887175, -0.31247962, -212951.28, -71795.07, 0.0, 9.993367, 10.00274 
2.4346109e+3, 2.9559532e+2, -1021981.9, -214856.3, -202.08476, 0.06595941, -0.36434135, -214856.25, -171721.31, 0.0, 9.992025, 10.002702 
2.4345444e+3, 3.0559942e+2, -1110941.5, -188873.66, 26180.045, -0.010881398, -0.22131452, -188130.92, -188130.92, 0.0, 9.990885, 10.003098 
2.4344794e+3, 3.1560168e+2, -1166873.6, -39717.086, -51221.207, 0.041074734, -0.2749962, -37394.24, -37394.24, 0.0, 9.989751, 10.004664 
2.4457495e+3, 1.2569006e+2, -667335.5, -1684020.0, 20383.293, -0.104881935, -0.32027173, -666927.0, 1041277.25, 0.21130957, 10.011713, 9.994613 
2.4456821e+3, 1.3568412e+2, -659028.0, -1682741.5, 31012.584, -0.05968607, -0.34856182, -658089.3, 952173.75, 0.15165232, 10.010379, 9.99455 
2.4456142e+3, 1.4567922e+2, -574769.6, -1456185.6, 29709.451, -0.05073436, -0.34948698, -573769.4, 938541.56, 0.0914307, 10.0090065, 9.996124 
2.4455461e+3, 1.5567525e+2, -621751.5, -1460811.3, 22550.252, -0.0564049, -0.3333479, -621145.9, 793202.9, 0.042987224, 10.007649, 9.996037 
2.445478e+3, 1.656713e+2, -601928.1, -1321465.9, 18739.555, -0.054637495, -0.3464296, -601440.4, 714946.0, 0.014122803, 10.006545, 9.996852 
2.4454099e+3, 1.7566754e+2, -634115.3, -1301675.1, 20268.215, -0.050524816, -0.38299677, -633500.5, 584921.56, 0.0025659278, 10.005638, 9.996753 
2.4453421e+3, 1.8566445e+2, -647122.2, -1172038.8, 38870.97, -0.04039456, -0.38040486, -644259.4, 476193.22, 0.00011931788, 10.0044985, 9.997518 
2.4452744e+3, 1.9566204e+2, -744712.3, -1174592.1, 46829.566, -0.02388135, -0.34832433, -739670.06, 282807.22, 0.00000000008671795, 10.003182, 9.997461 
2.4452068e+3, 2.0565997e+2, -728121.1, -973260.9, 54567.87, -0.013463012, -0.33924237, -716523.1, 207974.97, 0.0, 10.002007, 9.998737 
2.4451391e+3, 2.1565834e+2, -792398.3, -964752.4, 41657.27, -0.0074630063, -0.3515431, -782858.0, 43656.266, 0.0, 10.000938, 9.998639 
2.4450718e+3, 2.2565718e+2, -797172.3, -834481.75, 45671.324, -0.013269644, -0.3425065, -766492.75, -37966.266, 0.0, 9.999881, 9.99937 
2.4450041e+3, 2.3565654e+2, -855427.6, -816611.9, 61173.656, -0.025019975, -0.31853873, -771841.25, -141307.19, 0.0, 9.998829, 9.999327 
2.4449371e+3, 2.4565639e+2, -806766.8, -575202.2, 71003.76, -0.01823264, -0.3172252, -555164.44, -22628.604, 0.0, 9.99777, 10.000821 
2.4448702e+3, 2.556568e+2, -874074.56, -567580.2, 57859.77, 0.00030171158, -0.33396572, -557021.25, -122489.92, 0.0, 9.996681, 10.000726 
2.4448033e+3, 2.6565784e+2, -900970.2, -451573.28, 59062.215, 0.0008501778, -0.3124553, -443940.63, -107418.586, 0.0, 9.99549, 10.001422 
2.4447364e+3, 2.7565938e+2, -989578.06, -451161.47, 67718.73, 0.0009205875, -0.27336887, -442774.84, -204266.3, 0.0, 9.994244, 10.001352 
2.4446696e+3, 2.8566074e+2, -945703.06, -232118.08, 56127.133, 0.0274461, -0.31583008, -227730.36, -87234.64, 0.0, 9.993238, 10.002668 
2.4446025e+3, 2.956624e+2, -985942.4, -207193.67, 55203.87, 0.037230935, -0.38848263, -203299.86, -160821.81, 0.0, 9.992314, 10.002614 
2.4445356e+3, 3.056674e+2, -1069311.4, -122788.3, 61314.207, 0.021219691, -0.1763494, -118832.99, -118832.99, 0.0, 9.990974, 10.003507 
2.4444684e+3, 3.1566846e+2, -1174266.3, -31885.572, -29448.352, 0.01706033, -0.3894505, -31126.955, -31126.955, 0.0, 9.9896555, 10.004762 
2.4557614e+3, 1.2575825e+2, -644048.9, -1646710.0, -16051.904, -0.077513486, -0.32833055, -643791.94, 1063743.4, 0.20360929, 10.011658, 9.994958 
2.4556921e+3, 1.357526e+2, -639483.75, -1640313.0, -9393.265, -0.07350313, -0.36093348, -639395.56, 970194.3, 0.1457787, 10.010328, 9.994865 
2.4556229e+3, 1.4574766e+2, -583034.5, -1478320.0, -13905.796, -0.0720965, -0.37266868, -582818.56, 928819.5, 0.08755381, 10.0089855, 9.995969 
2.4555534e+3, 1.557434e+2, -628764.6, -1480012.0, -21681.365, -0.05970475, -0.37100852, -628212.75, 785466.75, 0.040900934, 10.007645, 9.99591 
2.4554844e+3, 1.6573967e+2, -596730.8, -1311561.8, -11450.38, -0.04882955, -0.36137682, -596547.44, 719168.25, 0.013282911, 10.006538, 9.996926 
2.4554156e+3, 1.7573649e+2, -630817.06, -1291626.8, -11887.764, -0.042078037, -0.3478649, -630603.25, 587143.2, 0.0023593649, 10.005618, 9.996834 
2.4553464e+3, 1.8573333e+2, -632096.5, -1138604.8, -8568.6455, -0.03511365, -0.36659795, -631951.56, 487825.28, 0.00010322586, 10.004483, 9.997757 
2.4552773e+3, 1.9573042e+2, -730368.8, -1145279.0, -197.8919, -0.026928015, -0.4095198, -730368.7, 291436.38, 0.00000000016280782, 10.003179, 9.997667 
2.4552085e+3, 2.0572846e+2, -750087.2, -1020698.7, 15912.749, -0.020863414, -0.3830311, -749154.7, 174670.84, 0.0, 10.00201, 9.998412 
2.4551399e+3, 2.1572737e+2, -811267.06, -1005068.0, 3788.8586, -0.017428236, -0.30905083, -811193.0, 14645.738, 0.0, 10.000938, 9.998365 
2.4550714e+3, 2.2572611e+2, -770833.75, -781558.56, 7615.2363, -0.01834735, -0.3154411, -766882.3, -39031.2, 0.0, 9.999884, 9.999734 
2.4550027e+3, 2.3572491e+2, -832395.06, -771768.44, 22090.389, -0.0205738, -0.3831071, -764573.3, -134712.08, 0.0, 9.9988365, 9.999633 
2.4549346e+3, 2.4572474e+2, -835073.0, -635802.94, 29147.186, -0.016682664, -0.37709138, -631627.06, -99763.43, 0.0, 9.997773, 10.000405 
2.4548665e+3, 2.557255e+2, -898796.75, -620611.44, 14876.079, -0.011650922, -0.31660423, -619818.2, -185959.89, 0.0, 9.996684, 10.000362 
2.4547984e+3, 2.6572654e+2, -884955.9, -418610.16, 10347.907, -0.0043185134, -0.29248798, -418380.66, -82531.0, 0.0, 9.995486, 10.001653 
2.4547304e+3, 2.7572784e+2, -974326.1, -418133.66, 22883.438, 0.014624622, -0.3022001, -417193.75, -179356.34, 0.0, 9.994233, 10.001586 
2.4546626e+3, 2.8572962e+2, -951542.3, -244770.81, 22891.861, 0.023207868, -0.30739096, -244030.14, -104210.0, 0.0, 9.993234, 10.002586 
2.4545942e+3, 2.9573208e+2, -996405.56, -234121.38, 16736.334, -0.0074676923, -0.29346675, -233754.1, -191958.3, 0.0, 9.992331, 10.002424 
2.4545264e+3, 3.057345e+2, -1059343.5, -103177.52, 4831.2866, 0.028359434, -0.3279701, -103153.11, -103153.11, 0.0, 9.990974, 10.003644 
2.4544583e+3, 3.1573787e+2, -1149616.5, 22162.324, -75854.83, 0.051384542, -0.33848536, 27052.361, 27052.361, 0.0, 9.989638, 10.005143 
2.4657728e+3, 1.2582766e+2, -688269.4, -1661911.6, 24036.11, -0.060430374, -0.3621431, -687676.4, 1019177.4, 0.19585967, 10.011135, 9.995073 
2.4657021e+3, 1.3582246e+2, -684121.2, -1655671.8, 19031.953, -0.0730185, -0.36087683, -683748.56, 925156.0, 0.13991025, 10.009862, 9.994984 
2.4656314e+3, 1.4581764e+2, -618264.25, -1493609.9, 19603.26, -0.077314235, -0.36559087, -617825.5, 893126.1, 0.08370898, 10.008679, 9.995998 
2.465561e+3, 1.5581326e+2, -632972.1, -1479465.3, 24352.459, -0.06057657, -0.37751806, -632272.06, 780722.25, 0.038847428, 10.007591, 9.995938 
2.4654907e+3, 1.658095e+2, -610541.94, -1312223.9, 44029.973, -0.048230305, -0.37289712, -607789.94, 707240.94, 0.012464396, 10.006417, 9.996978 
2.4654207e+3, 1.7580637e+2, -689741.3, -1311687.9, 43100.777, -0.042519834, -0.3574346, -686768.7, 530292.4, 0.0021624123, 10.005183, 9.9969015 
2.4653503e+3, 1.858033e+2, -678582.25, -1153562.1, 38805.367, -0.041384276, -0.37205067, -675432.75, 443657.78, 0.00008903192, 10.004137, 9.997818 
2.46528e+3, 1.9580048e+2, -718989.7, -1134132.0, 34264.043, -0.042179577, -0.41039446, -716180.7, 304937.25, 0.00000000021615258, 10.003234, 9.997717 
2.4652103e+3, 2.0579849e+2, -724680.1, -1015028.56, 55205.48, -0.03581516, -0.38425118, -714537.9, 208600.89, 0.0, 10.002217, 9.99835 
2.4651407e+3, 2.157973e+2, -788945.9, -998773.6, 59770.516, -0.024375336, -0.31196982, -773114.4, 52038.746, 0.0, 10.001119, 9.998318 
2.4650711e+3, 2.25796e+2, -748182.94, -767218.25, 58381.49, -0.023675477, -0.32070467, -698548.4, 28617.424, 0.0, 10.00003, 9.99976 
2.4650015e+3, 2.3579477e+2, -815930.0, -760443.4, 49036.793, -0.027077565, -0.39315674, -731845.75, -102670.03, 0.0, 9.99894, 9.999658 
2.4649322e+3, 2.4579455e+2, -838425.06, -650137.3, 56885.543, -0.021338677, -0.38431427, -634285.6, -103106.97, 0.0, 9.99781, 10.000286 
2.4648628e+3, 2.5579527e+2, -911344.7, -637531.3, 63853.402, -0.012373838, -0.31577092, -623372.8, -190198.23, 0.0, 9.99665, 10.000259 
2.4647938e+3, 2.657962e+2, -866896.44, -404434.47, 59126.367, -0.005933618, -0.29581413, -396994.78, -61828.03, 0.0, 9.99559, 10.001698 
2.4647246e+3, 2.7579743e+2, -921462.3, -388244.16, 57233.11, 0.010872763, -0.31636947, -382170.22, -145015.38, 0.0, 9.994577, 10.001625 
2.4646558e+3, 2.8579944e+2, -923778.56, -239022.13, 51716.805, 0.020206116, -0.29664594, -235138.2, -96002.69, 0.0, 9.993461, 10.002515 
2.4645862e+3, 2.958022e+2, -1011881.44, -248439.86, 42699.938, -0.008490894, -0.24363168, -246059.03, -204950.31, 0.0, 9.992261, 10.002357 
2.464517e+3, 3.0580324e+2, -1042517.1, -98992.44, 24254.871, 0.014786215, -0.40876657, -98369.336, -98369.336, 0.0, 9.991115, 10.003601 
2.464448e+3, 3.1580913e+2, -1104326.5, 10618.887, -44443.664, 0.057682488, -0.16564573, 12387.683, 12387.683, 0.0, 9.990097, 10.004841 
2.4757837e+3, 1.2589817e+2, -687549.2, -1674943.6, -10713.461, -0.055108383, -0.4120278, -687432.94, 1018728.1, 0.18800616, 10.011105, 9.994973 
2.4757117e+3, 1.3589346e+2, -686919.2, -1668991.8, -18290.232, -0.06471783, -0.3516064, -686578.7, 921630.1, 0.13398395, 10.009822, 9.994913 
2.4756399e+3, 1.4588888e+2, -606983.7, -1474905.1, -14607.854, -0.07188785, -0.33613083, -606737.9, 903515.94, 0.07984312, 10.008658, 9.996151 
2.4755684e+3, 1.5588455e+2, -622880.9, -1460365.1, -12386.258, -0.060727976, -0.35776758, -622697.75, 789597.7, 0.03679375, 10.007582, 9.996077 
2.4754968e+3, 1.658806e+2, -608307.94, -1309109.9, 921.56494, -0.05287696, -0.3802783, -608306.75, 706026.5, 0.011652543, 10.006413, 9.997004 
2.4754253e+3, 1.7587711e+2, -686826.4, -1307196.8, 196.01753, -0.051834922, -0.40439895, -686826.3, 529540.25, 0.0019708562, 10.005184, 9.996935 
2.4753541e+3, 1.8587427e+2, -685941.25, -1170762.1, 7099.82, -0.05858833, -0.39314425, -685837.3, 432557.25, 0.00007608803, 10.00414, 9.997703 
2.4752827e+3, 1.9587205e+2, -726098.75, -1149546.0, 2192.1897, -0.06985217, -0.35780284, -726087.44, 294329.8, 0.00000000023303823, 10.003231, 9.997615 
2.4752119e+3, 2.0586993e+2, -714500.1, -994614.6, 15395.957, -0.057981584, -0.34824196, -713656.5, 208782.56, 0.0, 10.002215, 9.998493 
2.4751413e+3, 2.1586806e+2, -781247.9, -983394.6, 19901.074, -0.030606588, -0.3585723, -779307.25, 45151.195, 0.0, 10.001116, 9.998427 
2.4750708e+3, 2.2586678e+2, -768870.7, -811588.44, 18093.404, -0.02986845, -0.3553112, -762237.2, -35765.81, 0.0, 10.000031, 9.999456 
2.475e+3, 2.3586605e+2, -833426.06, -798288.75, 7953.59, -0.04570926, -0.34628266, -796572.25, -168094.25, 0.0, 9.998941, 9.9994 
2.4749294e+3, 2.4586579e+2, -826377.0, -626671.06, 12499.462, -0.03222285, -0.3392238, -625891.75, -95410.44, 0.0, 9.997812, 10.000449 
2.4748594e+3, 2.5586602e+2, -901018.56, -618520.5, 20483.496, -0.0036081816, -0.33401856, -617043.0, -184562.36, 0.0, 9.996655, 10.00039 
2.474789e+3, 2.6586685e+2, -878618.1, -430803.9, 20637.205, -0.004697879, -0.32294652, -429854.88, -95381.13, 0.0, 9.995593, 10.001518 
2.4747187e+3, 2.7586827e+2, -933017.0, -415774.63, 18243.73, -0.012783675, -0.30851862, -415131.94, -178671.36, 0.0, 9.994588, 10.001434 
2.474649e+3, 2.858701e+2, -929517.2, -253044.78, 4248.613, 0.018416699, -0.28727108, -253018.1, -114575.3, 0.0, 9.993464, 10.002419 
2.4745786e+3, 2.958725e+2, -1010691.25, -243769.05, -4665.3364, 0.037411977, -0.26372078, -243740.67, -203320.88, 0.0, 9.992247, 10.002398 
2.4745075e+3, 3.0587414e+2, -1060068.3, -134857.03, -16154.252, -0.022313105, -0.36623764, -134575.06, -134575.06, 0.0, 9.991107, 10.003362 
2.4744375e+3, 3.1587893e+2, -1105844.4, -10426.671, 16496.512, 0.020413946, -0.19017722, -10178.297, -10178.297, 0.0, 9.990161, 10.004673 
2.4857941e+3, 1.2597056e+2, -704180.94, -1686405.9, 22036.71, -0.07011535, -0.40973923, -703686.8, 1001764.1, 0.17995195, 10.010872, 9.994987 
2.4857213e+3, 1.3596575e+2, -712342.56, -1682638.6, 24832.477, -0.05917743, -0.36026084, -711707.44, 895792.4, 0.12790404, 10.009556, 9.994946 
2.4856482e+3, 1.459612e+2, -636380.56, -1484620.5, 39045.734, -0.06616137, -0.34564856, -634587.0, 874957.75, 0.07588402, 10.0083885, 9.996203 
2.4855754e+3, 1.5595697e+2, -649251.7, -1468019.0, 36361.08, -0.06712695, -0.36013803, -647640.06, 763945.2, 0.03470017, 10.0073595, 9.996128 
2.4855027e+3, 1.6595301e+2, -624074.6, -1318143.9, 43204.336, -0.06351346, -0.38325283, -621395.56, 692227.56, 0.01083234, 10.006308, 9.99699 
2.4854302e+3, 1.7594944e+2, -678757.6, -1305351.4, 39777.19, -0.061479636, -0.4125329, -676242.6, 539414.7, 0.0017812402, 10.005249, 9.996916 
2.485358e+3, 1.8594657e+2, -681335.3, -1174350.4, 52737.605, -0.0655496, -0.39852688, -675757.1, 441928.72, 0.00006399, 10.004202, 9.997645 
2.4852857e+3, 1.9594435e+2, -739068.7, -1159171.3, 51071.105, -0.072454885, -0.3551046, -732949.2, 286759.53, 0.00000000017417703, 10.003165, 9.997576 
2.4852139e+3, 2.0594221e+2, -722627.8, -993316.06, 59504.48, -0.059287027, -0.34721684, -710124.7, 211605.92, 0.0, 10.002143, 9.998533 
2.4851424e+3, 2.1594027e+2, -777489.94, -977486.56, 56916.043, -0.031954203, -0.36771536, -762427.0, 61323.188, 0.0, 10.001128, 9.99846 
2.4850705e+3, 2.259389e+2, -772773.5, -825431.6, 58519.1, -0.032896, -0.3648662, -734933.25, -9169.44, 0.0, 10.000061, 9.999344 
2.4849986e+3, 2.3593816e+2, -838134.4, -810807.8, 61337.47, -0.05045682, -0.34587356, -761630.25, -133858.88, 0.0, 9.99896, 9.999303 
2.4849272e+3, 2.4593788e+2, -806093.5, -613456.56, 66519.79, -0.033367984, -0.3364329, -592718.94, -62944.08, 0.0, 9.997941, 10.000476 
2.484856e+3, 2.5593805e+2, -854451.56, -593865.4, 63969.723, 0.0038571318, -0.3381102, -579008.8, -147234.83, 0.0, 9.99697, 10.000405 
2.4847847e+3, 2.6593873e+2, -843865.4, -430859.78, 60403.67, -0.0027796382, -0.33350828, -422206.78, -88438.39, 0.0, 9.99591, 10.001362 
2.4847132e+3, 2.759399e+2, -917815.6, -424256.94, 58387.66, -0.025023257, -0.32210183, -417443.78, -181686.44, 0.0, 9.994766, 10.0012865 
2.4846421e+3, 2.8594166e+2, -910360.75, -252941.4, 44020.164, 0.011124806, -0.30074146, -250006.95, -112265.96, 0.0, 9.993641, 10.002333 
2.484571e+3, 2.959439e+2, -968771.94, -230269.86, 34814.52, 0.046769567, -0.28433663, -228632.27, -188912.38, 0.0, 9.992566, 10.002336 
2.4844985e+3, 3.0594596e+2, -1026055.94, -154398.1, 10960.335, -0.022944879, -0.32228374, -154260.3, -154260.3, 0.0, 9.9915, 10.003035 
2.4844277e+3, 3.159483e+2, -1081302.5, 38939.11, 82288.695, 0.052762203, -0.35409543, 44951.457, 44951.457, 0.0, 9.990174, 10.005001 
2.4958044e+3, 1.2604447e+2, -696277.4, -1674901.0, -17492.857, -0.10021996, -0.36708194, -695964.8, 1008761.8, 0.17158853, 10.010788, 9.99512 
2.4957305e+3, 1.3603915e+2, -701833.6, -1667579.1, -16085.971, -0.058945056, -0.38088802, -701565.8, 905213.6, 0.12157905, 10.009528, 9.995064 
2.4956563e+3, 1.4603445e+2, -636760.25, -1493131.8, 5353.587, -0.06325648, -0.38364822, -636726.8, 872098.7, 0.071770914, 10.008381, 9.996146 
2.4955823e+3, 1.5603036e+2, -653133.1, -1476275.8, 773.8052, -0.07984511, -0.38102245, -653132.4, 757732.9, 0.032538258, 10.007338, 9.996084 
2.4955085e+3, 1.6602655e+2, -630392.0, -1330119.9, 5732.978, -0.07943228, -0.38296786, -630345.0, 682557.06, 0.009995871, 10.006292, 9.996918 
2.495435e+3, 1.7602313e+2, -684422.4, -1317556.9, 2147.243, -0.07235294, -0.38742593, -684415.1, 530519.9, 0.0015922736, 10.005245, 9.996837 
2.4953619e+3, 1.8602005e+2, -682560.6, -1178451.0, 15596.852, -0.06398784, -0.3905989, -682070.56, 434895.06, 0.000052497184, 10.004203, 9.997619 
2.4952888e+3, 1.9601734e+2, -739669.06, -1161592.8, 14192.525, -0.053533867, -0.3958307, -739192.2, 279800.84, 0.00000000005180779, 10.003165, 9.997561 
2.4952158e+3, 2.0601527e+2, -726154.44, -1002161.44, 23028.77, -0.04189884, -0.3762641, -724246.25, 196767.83, 0.0, 10.002145, 9.998475 
2.4951431e+3, 2.160138e+2, -780234.75, -984460.8, 20459.133, -0.030351145, -0.3424858, -778205.3, 44823.88, 0.0, 10.001128, 9.998415 
2.4950702e+3, 2.2601233e+2, -769767.25, -820936.6, 18200.068, -0.033154834, -0.3527767, -763954.2, -38910.188, 0.0, 10.000064, 9.999376 
2.4949974e+3, 2.3601101e+2, -836483.7, -809234.0, 20383.05, -0.043827713, -0.39237353, -798341.4, -171284.64, 0.0, 9.998962, 9.999315 
2.4949248e+3, 2.4601075e+2, -813927.06, -631622.0, 29158.428, -0.025335234, -0.3750981, -627071.9, -98012.086, 0.0, 9.997945, 10.000351 
2.4948528e+3, 2.5601137e+2, -861246.94, -610976.8, 26510.445, 0.008383515, -0.3241286, -608199.5, -177144.72, 0.0, 9.996979, 10.000286 
2.4947803e+3, 2.6601177e+2, -852727.06, -452193.06, 16595.91, -0.0002289117, -0.32733658, -451506.6, -118455.56, 0.0, 9.995916, 10.001215 
2.4947076e+3, 2.7601236e+2, -924549.4, -440753.28, 14201.55, -0.0251837, -0.3621807, -440336.75, -205291.02, 0.0, 9.994772, 10.001173 
2.4946353e+3, 2.8601405e+2, -916567.1, -267603.9, 3221.7634, -0.0036547382, -0.3388682, -267587.94, -130557.68, 0.0, 9.993643, 10.0022335 
2.494563e+3, 2.9601642e+2, -982129.06, -260128.28, -2833.9363, 0.01085781, -0.2966065, -260117.16, -221109.17, 0.0, 9.99257, 10.0021305 
2.4944903e+3, 3.060185e+2, -1058887.4, -227182.98, -34631.76, 0.02502015, -0.29447, -225743.42, -225743.42, 0.0, 9.991514, 10.00253 
2.4944177e+3, 3.160209e+2, -1077607.4, 47382.09, -29057.53, 0.044684652, -0.2794181, 48132.12, 48132.12, 0.0, 9.990167, 10.005065 
2.5058147e+3, 1.2611896e+2, -766552.5, -1695877.0, 6685.241, -0.092022106, -0.36589044, -766504.4, 937492.4, 0.16284949, 10.010032, 9.995307 
2.5057396e+3, 1.3611372e+2, -723044.0, -1663823.0, 10676.094, -0.06410872, -0.3884802, -722922.9, 883125.25, 0.11497114, 10.00923, 9.995232 
2.5056642e+3, 1.4610907e+2, -662674.4, -1510710.0, 32194.201, -0.07286219, -0.39145193, -661453.94, 846639.8, 0.06748725, 10.00818, 9.996112 
2.505589e+3, 1.5610497e+2, -704063.9, -1504974.3, 30446.125, -0.087702654, -0.38354802, -702908.1, 707225.6, 0.03030495, 10.006981, 9.996057 
2.5055143e+3, 1.6610116e+2, -675007.6, -1353433.1, 44357.297, -0.082690805, -0.3836657, -672119.75, 640051.25, 0.00914532, 10.005991, 9.9969 
2.50544e+3, 1.7609769e+2, -699709.25, -1324826.1, 44018.047, -0.0692443, -0.38927636, -696624.94, 517579.63, 0.0014049802, 10.005145, 9.99683 
2.5053656e+3, 1.8609463e+2, -677252.5, -1167891.3, 60335.62, -0.059241634, -0.39184973, -669941.75, 446293.0, 0.000041577565, 10.00421, 9.9976845 
2.5052917e+3, 1.9609198e+2, -727851.3, -1148633.5, 64413.766, -0.049451537, -0.39529285, -718211.6, 300049.47, 0.0000000000010010511, 10.003219, 9.997623 
2.5052178e+3, 2.0608985e+2, -722036.2, -1001544.56, 75676.25, -0.04229222, -0.381323, -702862.3, 217420.16, 0.0, 10.002184, 9.998458 
2.5051442e+3, 2.1608827e+2, -782507.6, -986260.5, 74543.984, -0.03710318, -0.3561929, -758147.75, 64150.953, 0.0, 10.001122, 9.998402 
2.50507e+3, 2.260868e+2, -753721.25, -815921.6, 72996.77, -0.03571334, -0.3619619, -705475.6, 18837.893, 0.0, 10.000192, 9.999347 
2.5049964e+3, 2.3608555e+2, -784065.8, -786213.25, 71741.27, -0.034458492, -0.39131683, -713390.25, -87064.29, 0.0, 9.999337, 9.999289 
2.5049227e+3, 2.4608515e+2, -767213.75, -616419.7, 78205.97, -0.023622269, -0.38042462, -583184.8, -54854.97, 0.0, 9.998302, 10.00028 
2.5048494e+3, 2.5608552e+2, -844288.4, -610722.7, 77895.984, -0.008479372, -0.34356272, -587127.4, -156801.0, 0.0, 9.997134, 10.00021 
2.5047758e+3, 2.6608583e+2, -843722.75, -465175.47, 67546.62, -0.0121297585, -0.34382525, -453483.8, -121160.164, 0.0, 9.996058, 10.001055 
2.5047025e+3, 2.7608633e+2, -894526.75, -441529.78, 62056.63, -0.01797957, -0.3702584, -433182.38, -198862.78, 0.0, 9.9950485, 10.001032 
2.504629e+3, 2.8608778e+2, -889073.0, -266932.78, 45236.355, -0.0038085186, -0.35669556, -263660.8, -127354.32, 0.0, 9.993891, 10.002115 
2.5045553e+3, 2.9608995e+2, -985496.9, -277444.28, 38794.285, -0.0079722265, -0.3227337, -275325.1, -237038.75, 0.0, 9.9926195, 10.001985 
2.5044817e+3, 3.060923e+2, -1044772.56, -213409.9, 36900.95, 0.042493157, -0.28737193, -211775.23, -211775.23, 0.0, 9.991587, 10.002586 
2.5044072e+3, 3.1609395e+2, -1041625.7, 18260.326, 16803.086, -0.0119507145, -0.35051677, 18526.648, 18526.648, 0.0, 9.9906225, 10.00464 
2.5158247e+3, 1.2619399e+2, -753402.75, -1675115.0, -17700.566, -0.06283014, -0.39569253, -753062.94, 950198.44, 0.15374625, 10.009958, 9.995509 
2.515748e+3, 1.361893e+2, -711476.5, -1641814.4, -16142.105, -0.07312, -0.3851546, -711196.5, 894110.75, 0.10811733, 10.00918, 9.995408 
2.5156718e+3, 1.4618483e+2, -663482.56, -1517200.3, -8808.561, -0.09090306, -0.37495717, -663391.7, 843959.4, 0.063069604, 10.008155, 9.996082 
2.5155956e+3, 1.5618066e+2, -704301.1, -1509191.8, -10334.01, -0.09303334, -0.37020433, -704168.44, 705223.56, 0.028023247, 10.006975, 9.996032 
2.5155202e+3, 1.6617669e+2, -673543.5, -1352777.5, 14694.374, -0.07688813, -0.38516372, -673225.75, 638205.06, 0.008291034, 10.005991, 9.996905 
2.515445e+3, 1.7617302e+2, -697562.0, -1320520.8, 13529.133, -0.05497709, -0.41415316, -697268.3, 516198.16, 0.0012220317, 10.00514, 9.996865 
2.51537e+3, 1.861702e+2, -668697.8, -1150228.4, 24707.441, -0.052475847, -0.40044746, -667433.4, 448060.63, 0.000031473977, 10.004206, 9.997811 
2.5152946e+3, 1.9616814e+2, -720519.44, -1133654.0, 28519.428, -0.06056416, -0.35912576, -718560.0, 298954.5, 0.0, 10.003215, 9.99773 
2.5152194e+3, 2.0616585e+2, -722617.1, -1004058.44, 36816.816, -0.05940126, -0.36602584, -717880.6, 201656.45, 0.0, 10.002185, 9.998442 
2.5151446e+3, 2.161636e+2, -783705.0, -989667.25, 36700.26, -0.053098265, -0.40504542, -777360.9, 44198.406, 0.0, 10.0011215, 9.998382 
2.51507e+3, 2.261623e+2, -759448.25, -829732.5, 41807.586, -0.04066564, -0.38877153, -739974.94, -16402.143, 0.0, 10.000195, 9.999252 
2.5149953e+3, 2.3616171e+2, -787868.25, -797204.56, 38775.957, -0.02406623, -0.34215158, -753480.44, -127901.016, 0.0, 9.999346, 9.999212 
2.5149205e+3, 2.4616103e+2, -769454.9, -623406.56, 33805.355, -0.029223284, -0.3543038, -615961.25, -88375.62, 0.0, 9.998307, 10.000233 
2.514846e+3, 2.561605e+2, -847758.5, -619952.4, 33798.094, -0.049791787, -0.39964113, -615043.7, -185454.3, 0.0, 9.997138, 10.000148 
2.5147715e+3, 2.6616085e+2, -856991.25, -494095.63, 28972.902, -0.039657384, -0.3838855, -491797.06, -160210.55, 0.0, 9.996059, 10.000858 
2.5146973e+3, 2.7616188e+2, -907100.8, -469353.3, 23215.639, -0.0039161528, -0.3409214, -468125.53, -234547.06, 0.0, 9.99505, 10.000842 
2.5146225e+3, 2.861629e+2, -899414.56, -290284.78, -2781.0955, 0.012547417, -0.35081372, -290272.06, -154702.69, 0.0, 9.993893, 10.001957 
2.5145474e+3, 2.9616442e+2, -989451.06, -287471.7, -6957.043, -0.0044878493, -0.36301407, -287402.75, -249848.08, 0.0, 9.992622, 10.001917 
2.5144726e+3, 3.061673e+2, -995679.25, -112975.164, 5588.2153, 0.014279782, -0.30977273, -112939.79, -112939.79, 0.0, 9.991588, 10.003279 
2.514398e+3, 3.1616843e+2, -1103468.5, -111412.555, -70199.75, 0.03178048, -0.49372843, -106469.71, -106469.71, 0.0, 9.9906225, 10.003753 
2.525834e+3, 1.2627037e+2, -802442.0, -1689984.6, 14697.307, -0.044869885, -0.3918859, -802198.7, 900314.7, 0.14435422, 10.00941, 9.99565 
2.525757e+3, 1.3626581e+2, -776630.75, -1664892.3, 14177.734, -0.0827999, -0.37894925, -776404.5, 828153.0, 0.101097055, 10.008562, 9.995545 
2.5256795e+3, 1.4626141e+2, -716505.6, -1539125.9, 18579.758, -0.094613895, -0.3710163, -716086.2, 790514.44, 0.05857814, 10.007715, 9.996139 
2.525603e+3, 1.5625723e+2, -712691.4, -1507360.9, 22163.61, -0.07090955, -0.37172908, -712073.7, 696567.94, 0.025725905, 10.006882, 9.996086 
2.525526e+3, 1.6625331e+2, -674543.2, -1348517.4, 53737.47, -0.05718015, -0.38566798, -670285.44, 640394.7, 0.0074457666, 10.005964, 9.996945 
2.52545e+3, 1.7624971e+2, -713382.9, -1321410.3, 54011.91, -0.053778302, -0.4091709, -708622.2, 504093.03, 0.0010467153, 10.005008, 9.99692 
2.5253734e+3, 1.8624695e+2, -685911.25, -1149399.6, 61048.188, -0.05541863, -0.39546362, -678005.2, 436736.84, 0.000022592649, 10.004054, 9.997887 
2.5252974e+3, 1.962449e+2, -731592.56, -1130447.5, 60469.98, -0.05940322, -0.3582391, -722626.3, 294135.56, 0.0, 10.003108, 9.997801 
2.5252214e+3, 2.062426e+2, -722688.2, -1001060.4, 67902.33, -0.05900521, -0.36981788, -707008.25, 211776.17, 0.0, 10.002176, 9.998464 
2.5251454e+3, 2.162403e+2, -763460.25, -977067.75, 70117.11, -0.055084687, -0.4146401, -742500.75, 78306.26, 0.0, 10.001254, 9.998401 
2.5250697e+3, 2.26239e+2, -747756.1, -826655.5, 81218.58, -0.042589862, -0.39524674, -696913.3, 25907.016, 0.0, 10.000293, 9.999224 
2.5249943e+3, 2.3623848e+2, -796172.3, -803473.6, 81797.51, -0.023109075, -0.33766335, -717944.06, -93117.875, 0.0, 9.999305, 9.999186 
2.5249186e+3, 2.4623764e+2, -768061.7, -631655.44, 72269.805, -0.030746402, -0.3576758, -600487.56, -73653.914, 0.0, 9.998362, 10.000147 
2.524843e+3, 2.5623682e+2, -809586.06, -609072.06, 68628.79, -0.057275847, -0.42533162, -587832.6, -158992.28, 0.0, 9.997438, 10.000074 
2.5247672e+3, 2.662371e+2, -819125.9, -480089.9, 67173.64, -0.046391845, -0.4083944, -467265.78, -136427.9, 0.0, 9.996344, 10.0008135 
2.5246918e+3, 2.7623826e+2, -900588.8, -471834.9, 71369.36, -0.004048743, -0.3459622, -460267.03, -227438.48, 0.0, 9.995126, 10.000786 
2.5246164e+3, 2.8623918e+2, -881015.44, -294877.78, 50023.617, 0.015609241, -0.3540605, -290639.2, -155818.77, 0.0, 9.994084, 10.00183 
2.52454e+3, 2.962404e+2, -920159.6, -262164.0, 46362.617, 0.0018966753, -0.38536862, -258913.34, -222104.31, 0.0, 9.99314, 10.001837 
2.524464e+3, 3.0624324e+2, -949299.94, -62077.32, 34034.098, 0.0018235862, -0.34113228, -60773.68, -60773.68, 0.0, 9.99179, 10.003527 
2.5243887e+3, 3.162469e+2, -1152553.4, -145645.89, -69038.86, 0.09135127, -0.2939242, -140934.28, -140934.28, 0.0, 9.990333, 10.003656 
2.5358436e+3, 1.2634785e+2, -790301.3, -1679009.4, -10996.738, -0.037963375, -0.36399543, -790165.3, 911589.4, 0.13477401, 10.009378, 9.99575 
2.535765e+3, 1.363432e+2, -763783.0, -1650541.8, -12510.484, -0.094623715, -0.37151453, -763606.56, 840193.06, 0.09398916, 10.00856, 9.9956455 
2.535687e+3, 1.4633876e+2, -705912.5, -1526229.8, -9285.31, -0.0881213, -0.37718305, -705807.44, 800035.4, 0.05406572, 10.007717, 9.996229 
2.5356096e+3, 1.563346e+2, -707132.4, -1495743.3, -7023.881, -0.027749024, -0.38538063, -707069.8, 700813.5, 0.023441333, 10.006862, 9.996178 
2.535532e+3, 1.6633089e+2, -672640.44, -1343070.3, 20308.918, -0.027076026, -0.38460043, -672025.75, 637894.06, 0.0066210967, 10.005948, 9.996993 
2.5354546e+3, 1.7632763e+2, -710355.25, -1315342.8, 20219.336, -0.06500735, -0.37798697, -709680.25, 502271.75, 0.00088242465, 10.005003, 9.996966 
2.535377e+3, 1.8632475e+2, -685554.7, -1149455.6, 27312.61, -0.067051575, -0.37947926, -683952.2, 430027.66, 0.00001530861, 10.004052, 9.997889 
2.5353003e+3, 1.9632225e+2, -731021.7, -1129171.9, 26830.432, -0.047880393, -0.38784796, -729221.75, 286781.8, 0.0, 10.003103, 9.997814 
2.5352234e+3, 2.0632008e+2, -719513.94, -995696.44, 34654.81, -0.042728376, -0.3891298, -715231.94, 202792.8, 0.0, 10.002177, 9.998504 
2.5351465e+3, 2.1631826e+2, -759952.56, -971777.7, 36763.008, -0.046194434, -0.3882964, -753753.6, 66289.11, 0.0, 10.001257, 9.998439 
2.53507e+3, 2.2631684e+2, -746623.4, -826257.0, 44981.64, -0.042446196, -0.38420904, -726367.5, -4310.654, 0.0, 10.000296, 9.999228 
2.5349933e+3, 2.3631582e+2, -796397.06, -805351.4, 44695.652, -0.032562308, -0.37784535, -755954.9, -131888.2, 0.0, 9.999306, 9.999175 
2.534917e+3, 2.4631499e+2, -777263.75, -652202.06, 37035.273, -0.027448244, -0.38935173, -642057.5, -115983.22, 0.0, 9.9983635, 10.000008 
2.53484e+3, 2.5631443e+2, -815017.94, -623580.25, 32405.467, -0.030300861, -0.4170712, -618243.6, -190164.4, 0.0, 9.997447, 9.999973 
2.5347635e+3, 2.6631454e+2, -811574.5, -466801.6, 20765.88, -0.03177147, -0.41706643, -465555.34, -135477.4, 0.0, 9.996348, 10.000906 
2.5346866e+3, 2.7631542e+2, -895702.44, -463292.75, 26712.93, -0.021418901, -0.39006662, -461648.78, -229578.58, 0.0, 9.995127, 10.000846 
2.53461e+3, 2.863166e+2, -889891.06, -315588.84, 14436.421, 0.002735743, -0.36817843, -315226.2, -181166.47, 0.0, 9.994089, 10.001688 
2.5345328e+3, 2.963178e+2, -928457.3, -283412.6, 7598.4272, 0.008916112, -0.3883864, -283323.1, -247273.75, 0.0, 9.993153, 10.001687 
2.5344557e+3, 3.0632013e+2, -965384.1, -96004.48, -27194.666, 0.013685108, -0.37546882, -95154.65, -95154.65, 0.0, 9.991786, 10.003299 
2.5343782e+3, 3.1632507e+2, -1099854.6, -44409.996, -33918.195, 0.035153043, -0.18169487, -43321.11, -43321.11, 0.0, 9.990354, 10.00435 
2.5458524e+3, 1.2642609e+2, -800649.75, -1683064.9, 28834.625, -0.050957102, -0.36519194, -799708.56, 901279.3, 0.12509246, 10.009191, 9.995806 
2.5457734e+3, 1.3642153e+2, -742808.9, -1634143.9, 24462.434, -0.07777307, -0.36702245, -742138.0, 860894.2, 0.086849846, 10.008631, 9.995724 
2.5456947e+3, 1.4641716e+2, -696883.6, -1503701.4, 20414.865, -0.07213347, -0.37682396, -696367.44, 808707.06, 0.049567748, 10.007676, 9.9964 
2.545616e+3, 1.5641306e+2, -743969.25, -1495680.4, 28611.791, -0.029710118, -0.39373153, -742881.8, 664232.06, 0.021189682, 10.006516, 9.996342 
2.5455377e+3, 1.6640952e+2, -714035.1, -1352981.4, 65112.7, -0.03163309, -0.38806984, -707467.25, 601681.6, 0.0058261114, 10.005619, 9.997081 
2.5454593e+3, 1.7640646e+2, -722920.06, -1311360.1, 66279.88, -0.06364592, -0.36862648, -715546.9, 495632.44, 0.0007318696, 10.004876, 9.997052 
2.5453812e+3, 1.8640354e+2, -694048.8, -1146503.6, 71830.47, -0.06199086, -0.3790511, -682918.94, 430288.4, 0.000009801791, 10.003969, 9.997947 
2.545303e+3, 1.9640087e+2, -746317.1, -1129570.5, 75030.58, -0.039134547, -0.40921605, -732151.75, 283080.75, 0.0, 10.002974, 9.99787 
2.5452253e+3, 2.0639876e+2, -730265.9, -999412.2, 86243.29, -0.036856662, -0.4051969, -705002.1, 212250.89, 0.0, 10.002103, 9.99851 
2.5451475e+3, 2.1639717e+2, -751753.9, -964703.7, 84536.31, -0.04677288, -0.3820587, -722275.5, 96993.6, 0.0, 10.001307, 9.998461 
2.5450698e+3, 2.2639567e+2, -731249.25, -811771.94, 89310.13, -0.044788264, -0.3880618, -673544.94, 47738.605, 0.0, 10.000377, 9.999285 
2.5449926e+3, 2.3639438e+2, -785549.3, -794561.75, 93270.445, -0.033806227, -0.41167042, -696676.3, -73381.07, 0.0, 9.999363, 9.999219 
2.544915e+3, 2.4639356e+2, -786362.44, -663100.06, 90957.445, -0.024427516, -0.4195403, -614860.1, -89557.28, 0.0, 9.998335, 9.999944 
2.5448373e+3, 2.5639313e+2, -842097.4, -641989.5, 89970.39, -0.018857738, -0.42219928, -607486.94, -180180.22, 0.0, 9.997291, 9.999919 
2.5447595e+3, 2.6639324e+2, -814358.5, -469131.53, 71152.04, -0.024149643, -0.4196866, -455041.97, -125736.3, 0.0, 9.99634, 10.000891 
2.5446817e+3, 2.7639395e+2, -853631.25, -444052.1, 67740.53, -0.025718002, -0.40619537, -433139.22, -201839.97, 0.0, 9.995426, 10.000832 
2.5446036e+3, 2.86395e+2, -878085.8, -315992.63, 53548.05, 0.0014087325, -0.3906536, -310936.8, -177647.06, 0.0, 9.9942, 10.001629 
2.544526e+3, 2.9639614e+2, -982026.44, -314500.1, 52273.48, 0.019463174, -0.40817216, -310431.38, -275151.5, 0.0, 9.99281, 10.001638 
2.544447e+3, 3.0639857e+2, -958998.44, -109520.64, 21044.625, 0.00060588797, -0.37714276, -108999.61, -108999.61, 0.0, 9.991907, 10.003145 
2.5443682e+3, 3.164005e+2, -1025379.3, -26319.887, 35739.305, 0.0048992303, -0.46559474, -25043.018, -25043.018, 0.0, 9.990955, 10.004175 
2.555861e+3, 1.2650505e+2, -788152.56, -1679763.0, 14776.045, -0.0798793, -0.3844548, -787907.75, 912305.7, 0.11537804, 10.009202, 9.995823 
2.5557822e+3, 1.3650073e+2, -740037.2, -1630753.4, 6481.1304, -0.041411694, -0.36367184, -739990.06, 862266.0, 0.07972124, 10.0085745, 9.995774 
2.555702e+3, 1.4649653e+2, -683928.8, -1478381.1, -17970.248, -0.05143117, -0.37145078, -683522.5, 820774.2, 0.045111254, 10.00764, 9.996603 
2.555622e+3, 1.5649256e+2, -727930.44, -1467457.8, -9004.688, -0.06914208, -0.39786547, -727820.8, 678513.75, 0.018987482, 10.006521, 9.996536 
2.5555426e+3, 1.6648911e+2, -705629.94, -1338371.6, 40036.797, -0.06406477, -0.3951063, -703106.7, 605261.6, 0.0050683045, 10.005623, 9.997181 
2.555464e+3, 1.7648615e+2, -717780.5, -1298365.0, 39115.227, -0.051684536, -0.3769151, -715157.06, 495240.94, 0.0005965728, 10.004862, 9.99715 
2.5553846e+3, 1.8648328e+2, -688953.3, -1135232.9, 36171.773, -0.04315528, -0.39121348, -686040.56, 426384.84, 0.0000059803424, 10.003961, 9.998031 
2.555306e+3, 1.9648065e+2, -740699.6, -1119728.4, 40294.246, -0.034866422, -0.42378294, -736463.3, 277986.38, 0.0, 10.002976, 9.997939 
2.555227e+3, 2.0647857e+2, -732698.94, -1006646.44, 57723.45, -0.041094344, -0.4186966, -721032.9, 195437.19, 0.0, 10.002108, 9.998461 
2.5551483e+3, 2.1647695e+2, -753038.56, -968002.4, 55039.082, -0.05654754, -0.3943684, -739765.94, 78720.695, 0.0, 10.001305, 9.998442 
2.55507e+3, 2.2647542e+2, -724656.06, -798949.3, 52131.957, -0.049537737, -0.40550166, -697790.06, 22710.76, 0.0, 10.000377, 9.999375 
2.5549915e+3, 2.3647413e+2, -778999.7, -783272.06, 55000.723, -0.029130787, -0.43936414, -726093.7, -103581.45, 0.0, 9.999368, 9.999296 
2.5549132e+3, 2.4647331e+2, -786743.06, -665325.8, 51188.207, -0.022493083, -0.44884008, -646625.56, -122105.8, 0.0, 9.998336, 9.99993 
2.5548342e+3, 2.5647298e+2, -844389.3, -647521.06, 51114.816, -0.025277402, -0.44201553, -635040.8, -208517.77, 0.0, 9.997289, 9.999885 
2.5547555e+3, 2.6647323e+2, -824893.56, -491832.56, 37102.67, -0.024378713, -0.4147995, -487749.4, -159228.39, 0.0, 9.996338, 10.000738 
2.5546768e+3, 2.7647394e+2, -859438.56, -459375.78, 30711.414, -0.0157496, -0.3885324, -457031.9, -226516.69, 0.0, 9.995435, 10.000725 
2.554598e+3, 2.8647447e+2, -874971.44, -310296.94, 607.66943, 0.013367656, -0.42345083, -310296.28, -177785.86, 0.0, 9.994198, 10.001673 
2.5545183e+3, 2.964755e+2, -981108.44, -308098.13, 6541.4023, 0.03272912, -0.4550242, -308034.53, -273533.94, 0.0, 9.992785, 10.001698 
2.554438e+3, 3.0647877e+2, -975401.8, -145223.92, -3165.4558, -0.047800075, -0.33222368, -145211.86, -145211.86, 0.0, 9.991909, 10.002902 
2.5543594e+3, 3.1647915e+2, -1053850.9, -88270.71, -74616.74, 0.04452901, -0.54126406, -82538.61, -82538.61, 0.0, 9.990964, 10.003747 
2.5658697e+3, 1.2658525e+2, -743142.44, -1657526.5, 56939.688, -0.10765917, -0.4135563, -739610.4, 959815.6, 0.10571675, 10.009443, 9.995877 
2.56579e+3, 1.3658124e+2, -811167.25, -1662907.4, 53540.285, -0.032400858, -0.36617503, -807814.9, 793651.4, 0.07265828, 10.007965, 9.995848 
2.5657094e+3, 1.4657713e+2, -748580.7, -1497582.3, 36988.953, -0.0426455, -0.37187156, -746758.44, 756747.5, 0.040729314, 10.007093, 9.996725 
2.565628e+3, 1.5657315e+2, -712235.3, -1446272.3, 41105.875, -0.082528755, -0.40915787, -709940.56, 695603.25, 0.016852772, 10.006564, 9.996659 
2.5655478e+3, 1.665698e+2, -697566.25, -1323593.0, 83222.73, -0.073770404, -0.40736356, -686691.7, 620885.1, 0.0043545174, 10.005632, 9.997276 
2.5654683e+3, 1.7656694e+2, -764753.0, -1309997.3, 82513.09, -0.04272534, -0.3855965, -752539.7, 457065.8, 0.00047701376, 10.004496, 9.997245 
2.5653884e+3, 1.8656419e+2, -730965.7, -1149234.3, 82182.84, -0.036354333, -0.39331377, -715397.56, 396234.38, 0.00000353746, 10.003651, 9.998082 
2.5653085e+3, 1.965617e+2, -736975.6, -1109354.6, 83353.65, -0.04154531, -0.41662806, -719169.1, 294486.06, 0.0, 10.002971, 9.998012 
2.5652286e+3, 2.065596e+2, -724128.1, -984862.56, 106328.56, -0.046976615, -0.42250192, -686265.25, 229410.1, 0.0, 10.002096, 9.998613 
2.5651494e+3, 2.1655789e+2, -770733.9, -960241.6, 116271.086, -0.053715076, -0.4199832, -715496.9, 102195.18, 0.0, 10.001119, 9.998581 
2.5650698e+3, 2.2655651e+2, -746682.4, -802127.3, 115095.51, -0.04743044, -0.42540437, -656017.75, 63687.23, 0.0, 10.000199, 9.999436 
2.5649905e+3, 2.3655547e+2, -783607.1, -777957.94, 115924.64, -0.031395726, -0.43821388, -664823.5, -43109.305, 0.0, 9.9993105, 9.999357 
2.5649112e+3, 2.4655464e+2, -769162.4, -654733.8, 112108.21, -0.022173315, -0.44899622, -586084.2, -62362.5, 0.0, 9.998454, 9.999943 
2.5648317e+3, 2.5655416e+2, -799970.7, -625491.0, 112196.13, -0.019507233, -0.45449877, -570608.5, -144882.31, 0.0, 9.997598, 9.999885 
2.5647518e+3, 2.6655436e+2, -811737.5, -497532.84, 96241.99, -0.020626329, -0.42788142, -470397.1, -142671.97, 0.0, 9.996487, 10.000625 
2.564672e+3, 2.7655494e+2, -894410.75, -484774.78, 90945.69, -0.014740408, -0.39804217, -465491.2, -235770.63, 0.0, 9.995237, 10.000643 
2.5645918e+3, 2.865554e+2, -843075.8, -288051.44, 61589.188, 0.013450362, -0.4383331, -281299.22, -149583.05, 0.0, 9.994394, 10.001727 
2.5645113e+3, 2.9655644e+2, -845302.1, -243254.58, 66131.35, 0.028509652, -0.47039807, -236076.05, -202370.6, 0.0, 9.993729, 10.001683 
2.56443e+3, 3.065596e+2, -955575.25, -186649.47, 36584.977, -0.044521425, -0.33152622, -184912.7, -184912.7, 0.0, 9.99227, 10.00244 
2.56435e+3, 3.1656167e+2, -1038311.06, -19324.361, -34745.836, 0.06410409, -0.33179727, -18140.957, -18140.957, 0.0, 9.990808, 10.004297 
2.5758785e+3, 1.2666646e+2, -732315.5, -1647421.9, 10870.754, -0.13823314, -0.45123547, -732186.4, 966441.75, 0.09623826, 10.009406, 9.995967 
2.5757977e+3, 1.3666287e+2, -797961.44, -1651355.6, 9907.051, -0.045428276, -0.37066847, -797846.44, 802818.25, 0.065746814, 10.007982, 9.995918 
2.575716e+3, 1.4665884e+2, -740024.75, -1491328.5, 20574.232, -0.04327596, -0.37449828, -739461.75, 763242.2, 0.036471214, 10.007108, 9.996766 
2.5756344e+3, 1.5665476e+2, -710634.8, -1441410.9, 20608.414, -0.07555058, -0.4256177, -710054.1, 694688.8, 0.014808875, 10.006539, 9.996708 
2.5755534e+3, 1.6665144e+2, -695168.1, -1315594.0, 42671.754, -0.06620743, -0.42443603, -692247.0, 614528.6, 0.003691943, 10.00561, 9.997344 
2.5754723e+3, 1.7664874e+2, -759870.25, -1300496.3, 44171.844, -0.038324885, -0.39524952, -756284.94, 452518.16, 0.00037329373, 10.004493, 9.997314 
2.5753915e+3, 1.866462e+2, -729922.6, -1148684.4, 58544.535, -0.040529296, -0.38625875, -721891.9, 388936.16, 0.0000020966015, 10.003653, 9.998088 
2.575311e+3, 1.966439e+2, -733553.8, -1101899.4, 58065.414, -0.05772712, -0.3894199, -724617.25, 288232.66, 0.0, 10.002964, 9.998068 
2.5752306e+3, 2.066418e+2, -702677.75, -940471.1, 70804.445, -0.05422751, -0.41739044, -683192.0, 231677.52, 0.0, 10.002092, 9.998922 
2.5751504e+3, 2.1663995e+2, -751968.44, -922162.5, 81028.43, -0.04104017, -0.4591577, -719561.75, 97324.51, 0.0, 10.001118, 9.998846 
2.57507e+3, 2.2663887e+2, -745135.9, -800816.9, 82396.57, -0.039506715, -0.44675985, -686003.44, 32892.957, 0.0, 10.000202, 9.999447 
2.5749895e+3, 2.3663835e+2, -781821.9, -775971.94, 82725.14, -0.04135451, -0.40807474, -696120.06, -75218.625, 0.0, 9.999312, 9.999373 
2.574909e+3, 2.4663754e+2, -767794.75, -652946.1, 79885.34, -0.023711065, -0.41955864, -611987.44, -89078.555, 0.0, 9.998454, 9.999957 
2.574829e+3, 2.5663674e+2, -797471.3, -623191.25, 77604.58, -0.002214226, -0.45911446, -593644.3, -168728.31, 0.0, 9.997605, 9.999899 
2.574748e+3, 2.666366e+2, -817839.0, -511691.72, 48542.89, -0.012798397, -0.46150565, -504179.1, -177260.98, 0.0, 9.996487, 10.000531 
2.5746667e+3, 2.76637e+2, -901336.2, -497453.63, 48171.582, -0.025995644, -0.44146484, -491787.66, -262872.16, 0.0, 9.995225, 10.000565 
2.5745857e+3, 2.8663793e+2, -840925.06, -285991.75, 39386.81, -0.0019890044, -0.430269, -283210.2, -152304.1, 0.0, 9.994399, 10.001741 
2.5745043e+3, 2.966393e+2, -847396.8, -260252.25, 34690.363, 0.0041875355, -0.43555462, -258209.75, -225317.34, 0.0, 9.993777, 10.001546 
2.5744227e+3, 3.0664086e+2, -997841.3, -277621.72, -35376.156, 0.023690168, -0.40389702, -275888.25, -275888.25, 0.0, 9.992279, 10.001815 
2.57434e+3, 3.1664255e+2, -1002314.25, 54842.625, 30648.93, 0.027548714, -0.40143478, 55730.45, 55730.45, 0.0, 9.990801, 10.004814 
2.5858873e+3, 1.2674943e+2, -730149.7, -1665239.1, 50617.164, -0.1365892, -0.45360595, -727417.7, 970395.9, 0.08708206, 10.009416, 9.995827 
2.585805e+3, 1.3674542e+2, -763866.9, -1646501.5, 39964.555, -0.06553123, -0.39765733, -762061.0, 837793.3, 0.05908497, 10.008234, 9.995831 
2.5857228e+3, 1.467414e+2, -730720.75, -1479385.5, 62715.703, -0.058392134, -0.3996259, -725503.44, 776390.25, 0.032394655, 10.007117, 9.996842 
2.5856403e+3, 1.5673755e+2, -771521.44, -1462593.8, 64360.613, -0.07167807, -0.4341486, -765578.56, 638352.2, 0.012881972, 10.006071, 9.996786 
2.585558e+3, 1.6673437e+2, -751437.06, -1333248.0, 84072.13, -0.06135635, -0.4270263, -739532.2, 566430.0, 0.0030877404, 10.005183, 9.997427 
2.5854766e+3, 1.7673172e+2, -770434.9, -1295089.8, 87528.9, -0.041536227, -0.39814192, -756217.56, 451771.3, 0.00028538823, 10.004379, 9.997404 
2.585395e+3, 1.8672918e+2, -744535.94, -1148814.1, 108834.79, -0.042731736, -0.39619926, -717098.9, 392915.28, 0.0000012897219, 10.003528, 9.998144 
2.5853136e+3, 1.9672683e+2, -772653.4, -1111614.6, 109619.66, -0.05479094, -0.40924016, -740292.1, 271744.97, 0.0, 10.002661, 9.998146 
2.5852323e+3, 2.0672496e+2, -729565.4, -932567.9, 114064.84, -0.049873795, -0.42421022, -678379.7, 235674.53, 0.0, 10.001823, 9.999104 
2.5851512e+3, 2.1672353e+2, -758027.44, -906734.4, 115209.13, -0.035646655, -0.44197792, -695262.06, 120804.73, 0.0, 10.001003, 9.999003 
2.5850698e+3, 2.2672237e+2, -750434.25, -805823.56, 112406.766, -0.034055274, -0.4390959, -662360.7, 55716.805, 0.0, 10.000183, 9.999418 
2.5849885e+3, 2.3672158e+2, -776059.2, -773202.44, 109337.164, -0.037137292, -0.424021, -665284.3, -45198.83, 0.0, 9.999358, 9.999367 
2.584907e+3, 2.4672091e+2, -767930.44, -642291.8, 106652.43, -0.024463315, -0.42543635, -581333.06, -59241.324, 0.0, 9.998413, 10.000048 
2.584826e+3, 2.5672045e+2, -821613.9, -625295.8, 108517.54, -0.0073589874, -0.44028363, -577129.0, -153033.13, 0.0, 9.997404, 9.999978 
2.584744e+3, 2.6672018e+2, -802411.0, -504505.97, 82190.13, -0.012000768, -0.45532697, -483334.78, -157236.03, 0.0, 9.9966, 10.000523 
2.5846618e+3, 2.767203e+2, -808317.2, -454107.53, 88165.85, -0.014982545, -0.46320942, -433375.72, -205277.06, 0.0, 9.995875, 10.000546 
2.5845802e+3, 2.8672132e+2, -786225.4, -269800.0, 78263.55, -0.0028252257, -0.43582916, -258199.83, -128111.49, 0.0, 9.9948225, 10.001647 
2.5844976e+3, 2.967228e+2, -884134.9, -293438.66, 60937.813, -0.015578768, -0.41413617, -287217.66, -255144.36, 0.0, 9.993595, 10.001405 
2.584415e+3, 3.0672354e+2, -943696.44, -281306.72, -4511.785, 0.054414954, -0.44364288, -281276.0, -281276.0, 0.0, 9.992785, 10.001542 
2.5843307e+3, 3.1672388e+2, -880228.75, 78661.15, 100967.59, 0.001188732, -0.54754746, 89177.336, 89177.336, 0.0, 9.9918, 10.004491 
2.5958967e+3, 1.268338e+2, -746157.1, -1709906.6, 11595.382, -0.115711704, -0.42901734, -746017.6, 950967.9, 0.078344695, 10.009378, 9.995517 
2.5958127e+3, 1.3682878e+2, -775882.4, -1681112.4, 1728.8969, -0.093276784, -0.444538, -775879.06, 823157.1, 0.05275077, 10.008214, 9.995604 
2.5957292e+3, 1.4682475e+2, -722300.2, -1469183.3, 27508.775, -0.085073166, -0.44316795, -721288.3, 779787.6, 0.028550461, 10.007115, 9.996919 
2.595646e+3, 1.568214e+2, -763818.8, -1450294.0, 29372.992, -0.07183188, -0.43513513, -762564.3, 640544.25, 0.011096118, 10.006072, 9.996872 
2.595563e+3, 1.6681843e+2, -744171.8, -1320585.3, 56190.105, -0.05948085, -0.41727775, -738745.3, 566392.56, 0.0025479568, 10.005186, 9.997515 
2.5954804e+3, 1.768158e+2, -764127.75, -1283503.9, 59265.055, -0.05082135, -0.39495304, -757450.94, 449712.9, 0.00021294673, 10.004381, 9.997485 
2.595398e+3, 1.8681301e+2, -739961.3, -1140193.6, 77978.02, -0.04367813, -0.42110008, -725305.4, 383885.75, 0.0000008138877, 10.003527, 9.998206 
2.595316e+3, 1.9681038e+2, -768169.0, -1101860.1, 78685.92, -0.03705801, -0.471235, -750545.25, 260672.03, 0.0, 10.002654, 9.998219 
2.595234e+3, 2.0680903e+2, -725198.1, -925099.0, 84413.23, -0.03586052, -0.44028813, -694321.6, 218908.28, 0.0, 10.001825, 9.999157 
2.595152e+3, 2.168085e+2, -755100.0, -902551.3, 85479.8, -0.037225086, -0.37237537, -715944.0, 99290.414, 0.0, 10.001007, 9.999033 
2.5950697e+3, 2.2680697e+2, -756689.0, -819595.8, 82169.04, -0.030803813, -0.4051496, -700159.06, 17089.902, 0.0, 10.000182, 9.999326 
2.5949878e+3, 2.368051e+2, -778488.06, -779773.5, 76956.32, -0.020563323, -0.4872715, -702171.75, -82904.94, 0.0, 9.99936, 9.999324 
2.5949052e+3, 2.4680473e+2, -756944.44, -621071.6, 67911.445, -0.025399674, -0.46645206, -592949.1, -71678.49, 0.0, 9.998414, 10.0001955 
2.5948226e+3, 2.5680527e+2, -812663.25, -607598.2, 71918.805, -0.038715918, -0.39630514, -584890.0, -161624.08, 0.0, 9.997403, 10.000103 
2.59474e+3, 2.6680514e+2, -797988.9, -496379.7, 55667.875, -0.01933903, -0.40522668, -486433.13, -161166.17, 0.0, 9.9966, 10.000581 
2.5946578e+3, 2.7680483e+2, -803445.9, -450409.6, 58400.43, 0.020664025, -0.45775944, -440999.63, -213730.08, 0.0, 9.995898, 10.000563 
2.5945747e+3, 2.8680545e+2, -799767.25, -302182.2, 30544.164, 0.013328486, -0.4590148, -300314.25, -171050.89, 0.0, 9.994835, 10.001422 
2.5944906e+3, 2.9680687e+2, -896707.06, -315553.03, 17836.297, -0.032490604, -0.42045295, -315006.13, -283756.56, 0.0, 9.993572, 10.0012665 
2.5944072e+3, 3.0680794e+2, -934227.94, -268195.75, -23204.71, 0.03686928, -0.4231706, -267388.28, -267388.28, 0.0, 9.992807, 10.001625 
2.5943226e+3, 3.1680897e+2, -921479.8, -21431.74, -43525.01, 0.018313708, -0.45359933, -19331.834, -19331.834, 0.0, 9.991855, 10.003781 
2.6059058e+3, 1.2691887e+2, -738578.44, -1692494.5, 34648.832, -0.09938809, -0.43251383, -737321.56, 958830.2, 0.07006951, 10.009291, 9.99568 
2.6058206e+3, 1.3691393e+2, -776289.75, -1670801.3, 52878.76, -0.1104848, -0.45422316, -773174.7, 825025.7, 0.046789955, 10.008121, 9.995719 
2.6057357e+3, 1.4690988e+2, -739342.4, -1495912.3, 83467.375, -0.10327411, -0.44929576, -730243.4, 769997.25, 0.024972966, 10.007059, 9.996754 
2.6056516e+3, 1.5690643e+2, -770003.3, -1464148.1, 71127.62, -0.07151114, -0.4325014, -762789.94, 639485.06, 0.009468494, 10.006073, 9.996775 
2.605568e+3, 1.6690336e+2, -738179.9, -1300097.6, 99989.94, -0.05959561, -0.42579678, -720917.56, 583387.3, 0.002076167, 10.005155, 9.997668 
2.6054844e+3, 1.7690067e+2, -770081.5, -1270615.5, 105752.85, -0.061553877, -0.42451015, -748655.25, 457675.75, 0.00015524199, 10.004277, 9.997621 
2.605401e+3, 1.8689808e+2, -758863.56, -1140570.0, 124714.02, -0.05007349, -0.43925858, -721728.75, 386627.7, 0.00000050874434, 10.003366, 9.998278 
2.6053184e+3, 1.9689575e+2, -793848.6, -1105593.3, 127310.92, -0.030460626, -0.46333566, -748464.25, 261915.66, 0.0, 10.002448, 9.998288 
2.6052353e+3, 2.068944e+2, -745638.56, -937411.5, 133725.3, -0.030915093, -0.43471536, -676975.1, 235417.9, 0.0, 10.001702, 9.999128 
2.6051524e+3, 2.1689367e+2, -751748.25, -902286.44, 126134.78, -0.041548472, -0.38003725, -680131.6, 134267.89, 0.0, 10.00104, 9.999017 
2.6050696e+3, 2.2689211e+2, -760158.3, -814886.8, 121943.03, -0.033185612, -0.4160648, -662546.94, 53867.32, 0.0, 10.000136, 9.999378 
2.6049864e+3, 2.3689029e+2, -811258.3, -788084.6, 127904.85, -0.013889789, -0.49817824, -671242.9, -52811.223, 0.0, 9.999109, 9.999384 
2.6049033e+3, 2.4689002e+2, -770271.1, -622283.4, 118366.6, -0.02031452, -0.4703532, -556685.9, -36251.19, 0.0, 9.998306, 10.0002365 
2.60482e+3, 2.568907e+2, -782279.7, -586937.3, 113570.984, -0.040271975, -0.38743308, -534815.2, -112386.18, 0.0, 9.997592, 10.000152 
2.6047367e+3, 2.668906e+2, -774751.9, -476870.6, 96338.55, -0.020809095, -0.39885032, -448429.06, -123999.375, 0.0, 9.99673, 10.000649 
2.6046532e+3, 2.7689022e+2, -816779.25, -450175.66, 97171.24, 0.024507353, -0.46331704, -426012.28, -199579.78, 0.0, 9.995784, 10.000617 
2.6045692e+3, 2.868909e+2, -798246.25, -305389.28, 69813.86, 0.014754522, -0.45929244, -295690.88, -167264.83, 0.0, 9.994869, 10.00138 
2.6044843e+3, 2.9689246e+2, -841081.7, -288559.13, 72394.59, -0.03872351, -0.40304574, -279231.06, -248819.61, 0.0, 9.993961, 10.001261 
2.6043996e+3, 3.0689314e+2, -899520.94, -246085.95, 43242.59, 0.021135239, -0.44114706, -243236.7, -243236.7, 0.0, 9.993027, 10.001668 
2.604314e+3, 3.1689548e+2, -873733.9, -5830.3325, -21853.332, 0.031159474, -0.33917964, -5280.4263, -5280.4263, 0.0, 9.992219, 10.003709 
2.615915e+3, 1.270046e+2, -703808.2, -1624665.8, -5649.2095, -0.08629349, -0.45685184, -703773.5, 991538.6, 0.062276408, 10.009236, 9.9962015 
2.6158282e+3, 1.370006e+2, -750730.5, -1621986.5, 11481.388, -0.12493587, -0.43479168, -750579.25, 846770.1, 0.041225586, 10.0081005, 9.996064 
2.615742e+3, 1.4699648e+2, -762895.9, -1553163.0, 47262.34, -0.11765567, -0.42729294, -760079.4, 739311.06, 0.021679603, 10.007061, 9.996362 
2.6156574e+3, 1.569925e+2, -787844.0, -1504346.1, 37409.586, -0.071189426, -0.42806497, -785896.1, 615535.4, 0.008006894, 10.006071, 9.996501 
2.6155728e+3, 1.6698915e+2, -726433.8, -1275763.5, 69239.88, -0.062058706, -0.44921347, -717840.94, 585623.0, 0.0016725385, 10.005148, 9.997841 
2.6154882e+3, 1.7698629e+2, -760289.56, -1248453.9, 73638.1, -0.07559145, -0.47970513, -749423.4, 456067.3, 0.00011114405, 10.004265, 9.997782 
2.615404e+3, 1.8698429e+2, -752675.9, -1129709.1, 91291.555, -0.06159208, -0.45033008, -731734.44, 375776.4, 0.00000030296627, 10.003369, 9.998354 
2.6153204e+3, 1.969828e+2, -788598.75, -1099242.5, 96058.07, -0.033206765, -0.39531058, -761295.25, 248231.27, 0.0, 10.002463, 9.998327 
2.6152366e+3, 2.0698093e+2, -754463.0, -957730.0, 110271.336, -0.034473702, -0.41175428, -706132.7, 205411.92, 0.0, 10.001706, 9.998989 
2.6151532e+3, 2.1697904e+2, -758218.75, -914309.4, 99901.4, -0.05100966, -0.46125096, -709491.2, 104071.11, 0.0, 10.00103, 9.998941 
2.6150692e+3, 2.2697784e+2, -747599.1, -789670.56, 84013.086, -0.04195167, -0.46782303, -682028.25, 33545.22, 0.0, 10.000135, 9.999555 
2.6149854e+3, 2.3697713e+2, -801116.0, -769215.2, 91466.99, -0.018480184, -0.45671862, -692318.25, -74738.03, 0.0, 9.999113, 9.999515 
2.6149017e+3, 2.4697676e+2, -776769.4, -636455.06, 91451.56, -0.008677862, -0.43799636, -591349.9, -71765.52, 0.0, 9.998305, 10.000142 
2.6148176e+3, 2.5697675e+2, -784943.44, -594968.9, 84941.74, -0.011143245, -0.4165214, -562529.0, -140943.39, 0.0, 9.997598, 10.000095 
2.6147333e+3, 2.6697654e+2, -769642.2, -467886.56, 60199.93, -0.016999353, -0.4402312, -456320.1, -132732.6, 0.0, 9.996732, 10.000713 
2.6146483e+3, 2.7697644e+2, -811451.7, -438405.5, 61543.832, -0.010480587, -0.4831447, -428514.47, -202926.67, 0.0, 9.995775, 10.000705 
2.6145634e+3, 2.8697768e+2, -789154.56, -285964.4, 36772.59, -0.0015111339, -0.4313885, -283291.3, -155715.8, 0.0, 9.994863, 10.001519 
2.614478e+3, 2.9697967e+2, -830746.5, -271814.7, 40133.598, -0.03236821, -0.3464216, -268947.63, -239390.95, 0.0, 9.993976, 10.001371 
2.614392e+3, 3.06979e+2, -897452.3, -244746.94, 7675.6157, 0.0036230674, -0.52694315, -244656.69, -244656.69, 0.0, 9.993033, 10.0016775 
2.614306e+3, 3.16982e+2, -860694.7, 16403.568, 2543.4016, 0.007110134, -0.3628278, 16410.943, 16410.943, 0.0, 9.992237, 10.003854 
2.6259235e+3, 1.2709169e+2, -749980.4, -1641863.8, 23716.623, -0.07908895, -0.43641573, -749350.1, 945109.06, 0.05498468, 10.008806, 9.99628 
2.6258358e+3, 1.3708748e+2, -731695.94, -1604748.1, 13780.992, -0.12020153, -0.44277716, -731478.5, 865019.4, 0.036068942, 10.008163, 9.99615 
2.625749e+3, 1.4708342e+2, -740861.75, -1529450.4, 55223.51, -0.11784601, -0.43932623, -737013.3, 761524.75, 0.018674796, 10.007148, 9.996479 
2.625663e+3, 1.5707956e+2, -794198.4, -1495757.6, 76338.38, -0.07510014, -0.43462783, -785987.94, 614589.6, 0.006710271, 10.005978, 9.996602 
2.6255774e+3, 1.6707629e+2, -750306.25, -1284459.1, 116863.25, -0.064177096, -0.4515925, -725857.7, 576751.7, 0.0013336868, 10.004978, 9.997859 
2.625492e+3, 1.770735e+2, -785016.6, -1254074.1, 112497.46, -0.073419936, -0.47890705, -759431.1, 445204.84, 0.000078807025, 10.004076, 9.99783 
2.625407e+3, 1.8707153e+2, -747229.25, -1115411.1, 130969.04, -0.062034126, -0.4496247, -705394.6, 401260.78, 0.00000016598092, 10.003365, 9.998451 
2.6253226e+3, 1.9707015e+2, -743926.44, -1069169.0, 134193.27, -0.03917718, -0.39372495, -695707.75, 312962.2, 0.0, 10.002738, 9.998399 
2.625238e+3, 2.0706819e+2, -746893.2, -956291.8, 149548.88, -0.035934977, -0.41762385, -669036.2, 241652.64, 0.0, 10.001774, 9.998964 
2.6251537e+3, 2.1706614e+2, -811519.75, -938187.06, 147935.92, -0.04260952, -0.48038447, -713930.44, 98777.86, 0.0, 10.000664, 9.99895 
2.6250687e+3, 2.2706506e+2, -766298.06, -787267.1, 134742.2, -0.041344345, -0.47877294, -641633.1, 73085.2, 0.0, 9.999964, 9.999651 
2.624984e+3, 2.3706463e+2, -748772.9, -735440.94, 135089.1, -0.032129414, -0.4461493, -606853.44, 9868.775, 0.0, 9.999442, 9.999585 
2.6248994e+3, 2.470642e+2, -751700.7, -630174.4, 130117.04, -0.009756294, -0.43218997, -547331.8, -28604.658, 0.0, 9.9985075, 10.000085 
2.6248148e+3, 2.5706393e+2, -817835.5, -612741.8, 126538.65, 0.012422787, -0.4300162, -552414.8, -131683.63, 0.0, 9.997386, 10.000073 
2.6247296e+3, 2.6706383e+2, -786114.2, -465984.3, 105252.89, -0.009527243, -0.44820267, -434479.53, -111747.12, 0.0, 9.996582, 10.000795 
2.6246437e+3, 2.7706397e+2, -788947.25, -418455.1, 105384.48, -0.03474833, -0.47238517, -390576.78, -165846.47, 0.0, 9.995897, 10.000779 
2.624558e+3, 2.870652e+2, -763248.1, -271601.6, 70249.484, -0.015603301, -0.42422718, -261760.88, -135042.56, 0.0, 9.995038, 10.00153 
2.6244715e+3, 2.9706702e+2, -814570.75, -263396.9, 63451.15, -0.020545082, -0.35698003, -256186.72, -227485.31, 0.0, 9.994089, 10.001372 
2.624385e+3, 3.0706656e+2, -844692.3, -215792.9, 30515.855, 0.0063543646, -0.51320946, -214315.67, -214315.67, 0.0, 9.993386, 10.001702 
2.6242974e+3, 3.170692e+2, -792099.75, 57842.31, 29270.297, -0.061215423, -0.38845527, 58849.13, 58849.13, 0.0, 9.9926815, 10.00392 
2.635932e+3, 1.271799e+2, -765088.3, -1680091.5, 2472.709, -0.07858807, -0.38554028, -765081.6, 928513.44, 0.048213582, 10.008776, 9.996015 
2.6358438e+3, 1.3717468e+2, -745358.44, -1626604.9, -9886.848, -0.104913555, -0.4686589, -745247.5, 850396.75, 0.0313267, 10.00809, 9.9960375 
2.6357558e+3, 1.4717077e+2, -711861.6, -1464300.4, 14577.703, -0.10938312, -0.4742341, -711579.25, 786103.0, 0.015957389, 10.007103, 9.996955 
2.6356685e+3, 1.5716758e+2, -769668.94, -1444483.9, 36073.12, -0.08367913, -0.44827875, -767746.1, 631967.75, 0.0055732685, 10.005966, 9.996962 
2.635582e+3, 1.6716467e+2, -757806.56, -1302562.1, 83974.5, -0.0662949, -0.43772474, -745155.6, 556587.1, 0.001054107, 10.004984, 9.997735 
2.635496e+3, 1.7716205e+2, -788459.6, -1264691.4, 82054.625, -0.05848284, -0.4347175, -774718.1, 429050.6, 0.000055928595, 10.0040865, 9.997755 
2.63541e+3, 1.8715976e+2, -741844.7, -1104911.3, 109244.61, -0.054319166, -0.44016752, -711508.44, 394282.53, 0.00000008213487, 10.003362, 9.998527 
2.6353246e+3, 1.971578e+2, -741186.94, -1059879.5, 108297.25, -0.05010739, -0.44893685, -707868.94, 299941.03, 0.0, 10.002718, 9.998475 
2.6352394e+3, 2.071562e+2, -742807.56, -947502.94, 108221.0, -0.03559156, -0.44694537, -696202.8, 213622.97, 0.0, 10.001768, 9.999029 
2.635154e+3, 2.1715485e+2, -805994.25, -929609.1, 111410.375, -0.018368032, -0.44340414, -740395.1, 71443.664, 0.0, 10.000671, 9.999008 
2.6350686e+3, 2.271537e+2, -765563.25, -787591.25, 116274.5, -0.032289848, -0.45279685, -659782.25, 54067.414, 0.0, 9.999967, 9.999649 
2.6349828e+3, 2.371528e+2, -748914.5, -736708.25, 110973.79, -0.056831118, -0.4671473, -631669.94, -15811.886, 0.0, 9.999441, 9.999579 
2.6348975e+3, 2.4715236e+2, -754255.1, -636215.94, 87184.58, -0.024323098, -0.45253208, -589952.75, -72089.4, 0.0, 9.998507, 10.000046 
2.634812e+3, 2.571523e+2, -818221.6, -614446.94, 87452.51, 0.02749365, -0.42598924, -582062.3, -162196.48, 0.0, 9.997385, 10.000064 
2.634726e+3, 2.6715243e+2, -781192.6, -455635.1, 80025.64, 0.0012856955, -0.41902435, -437027.47, -115163.37, 0.0, 9.996576, 10.000872 
2.634639e+3, 2.7715287e+2, -786287.1, -414531.8, 78017.164, -0.04822127, -0.4245151, -398822.8, -174963.47, 0.0, 9.995899, 10.000808 
2.6345524e+3, 2.8715336e+2, -774101.2, -295428.56, 34139.27, -0.027090525, -0.44416484, -293005.97, -167150.84, 0.0, 9.995039, 10.0013685 
2.6344654e+3, 2.971542e+2, -824332.44, -284598.1, 29786.785, -0.002858433, -0.45759174, -282959.2, -255110.97, 0.0, 9.994088, 10.00123 
2.6343784e+3, 3.0715632e+2, -841319.94, -214451.92, 9028.3, 0.03498389, -0.35051376, -214321.92, -214321.92, 0.0, 9.993404, 10.001707 
2.634289e+3, 3.1715688e+2, -769331.25, 96705.625, -51330.082, -0.119837075, -0.43865243, 99737.35, 99737.35, 0.0, 9.992705, 10.004182 
2.6459402e+3, 1.2726837e+2, -769201.6, -1666662.5, 23098.947, -0.09263756, -0.39549845, -768607.5, 924120.56, 0.04197343, 10.008619, 9.996185 
2.6458514e+3, 1.3726339e+2, -833178.2, -1650647.0, 37282.61, -0.08566408, -0.4709192, -831481.4, 763293.56, 0.027002325, 10.007355, 9.996224 
2.6457626e+3, 1.4725964e+2, -784826.7, -1477440.0, 62193.645, -0.09247952, -0.47582725, -779286.3, 717524.7, 0.013524467, 10.006491, 9.997152 
2.645674e+3, 1.5725663e+2, -778557.56, -1431395.6, 66456.52, -0.08400724, -0.45138913, -771861.25, 626979.6, 0.0045888466, 10.005832, 9.997113 
2.6455867e+3, 1.6725375e+2, -752718.7, -1304809.6, 112118.31, -0.06865885, -0.43813533, -730818.5, 570050.94, 0.00082733977, 10.005045, 9.997686 
2.6454994e+3, 1.7725113e+2, -772524.5, -1257418.4, 114500.68, -0.05566141, -0.42938718, -746846.6, 456049.16, 0.0000401654, 10.004204, 9.997745 
2.645413e+3, 1.8724881e+2, -750195.3, -1097259.6, 144561.53, -0.05088098, -0.44212598, -697870.4, 407047.72, 0.000000036221024, 10.003262, 9.998624 
2.645327e+3, 1.9724679e+2, -797841.3, -1076650.4, 144094.58, -0.048305, -0.4654621, -736754.3, 270183.0, 0.0, 10.002292, 9.998561 
2.6452407e+3, 2.0724529e+2, -769839.6, -957860.25, 140977.92, -0.040100865, -0.45458534, -694401.7, 214550.38, 0.0, 10.001577, 9.999046 
2.6451546e+3, 2.1724418e+2, -762191.75, -905315.5, 140314.19, -0.028786495, -0.42873782, -676244.4, 134718.92, 0.0, 10.000964, 9.999031 
2.6450682e+3, 2.2724299e+2, -754357.6, -780796.75, 145866.47, -0.029285112, -0.44207415, -621112.94, 91861.79, 0.0, 10.000043, 9.999657 
2.644982e+3, 2.3724192e+2, -813013.7, -764985.56, 140994.5, -0.033796918, -0.47262812, -645974.7, -30989.955, 0.0, 9.998996, 9.999597 
2.6448956e+3, 2.4724154e+2, -777578.56, -642822.2, 120020.19, -0.021916542, -0.45394662, -572560.75, -55571.254, 0.0, 9.998331, 10.000082 
2.644809e+3, 2.572416e+2, -758081.25, -583209.8, 124384.54, -0.0028394733, -0.41431162, -518604.38, -99613.94, 0.0, 9.997794, 10.000078 
2.644722e+3, 2.6724175e+2, -741125.3, -446889.7, 107783.36, -0.00803116, -0.4020286, -411631.75, -90642.65, 0.0, 9.996902, 10.0007715 
2.644635e+3, 2.7724206e+2, -795882.06, -424973.44, 93062.266, -0.017866043, -0.40733284, -402933.44, -179947.7, 0.0, 9.995864, 10.000751 
2.6445472e+3, 2.8724232e+2, -752091.75, -277917.7, 59244.9, -0.022082092, -0.45218468, -270627.53, -145643.7, 0.0, 9.995167, 10.001424 
2.644459e+3, 2.9724288e+2, -751564.06, -246408.7, 70163.266, -0.03772371, -0.49360693, -236844.5, -209865.53, 0.0, 9.994581, 10.00125 
2.6443717e+3, 3.0724624e+2, -792794.1, -194635.7, 52767.984, 0.05655547, -0.26257423, -190016.33, -190016.33, 0.0, 9.99376, 10.001668 
2.6442814e+3, 3.1724516e+2, -752488.44, 96943.21, -32073.58, -0.09805463, -0.51050335, 98152.555, 98152.555, 0.0, 9.992862, 10.004105 
2.655948e+3, 1.2735723e+2, -737567.9, -1600414.9, -18643.914, -0.121162586, -0.44345516, -737165.25, 954691.7, 0.03626153, 10.008568, 9.99668 
2.6558584e+3, 1.3735333e+2, -805282.4, -1595577.4, -2315.4119, -0.064301185, -0.4572309, -805275.6, 788616.8, 0.023091637, 10.007341, 9.99661 
2.6557687e+3, 1.4734979e+2, -784448.06, -1484131.4, 38969.3, -0.0699809, -0.45492458, -782284.4, 713642.5, 0.011367962, 10.006503, 9.997103 
2.6556796e+3, 1.5734656e+2, -778619.56, -1436056.5, 41775.2, -0.080384515, -0.44723722, -775975.75, 621983.7, 0.0037469247, 10.005841, 9.997079 
2.655591e+3, 1.6734354e+2, -752712.2, -1306482.6, 82117.56, -0.07325548, -0.4481535, -740791.7, 559197.8, 0.00064611406, 10.005046, 9.997677 
2.6555035e+3, 1.7734076e+2, -772121.1, -1255996.6, 83641.62, -0.06412047, -0.45281652, -758071.0, 443945.9, 0.000029323252, 10.004196, 9.997761 
2.655416e+3, 1.8733864e+2, -742890.2, -1084392.3, 108800.3, -0.05137539, -0.453283, -711172.9, 392864.44, 0.000000014940245, 10.003267, 9.998712 
2.6553288e+3, 1.9733693e+2, -790822.56, -1066608.0, 110867.54, -0.036663193, -0.452969, -751780.25, 254273.23, 0.0, 10.002306, 9.998625 
2.6552418e+3, 2.073354e+2, -771973.06, -964179.2, 118989.72, -0.05007923, -0.44453904, -715124.0, 192944.66, 0.0, 10.00158, 9.999004 
2.6551545e+3, 2.173341e+2, -766092.06, -910893.75, 114847.71, -0.07346748, -0.43403015, -702728.9, 107353.15, 0.0, 10.000948, 9.999002 
2.6550677e+3, 2.2733293e+2, -755539.5, -782977.56, 106774.13, -0.03128856, -0.44423154, -661606.6, 50486.9, 0.0, 10.000038, 9.999645 
2.6549813e+3, 2.3733199e+2, -810623.94, -762409.6, 105748.11, 0.034559827, -0.46260008, -678055.6, -63952.816, 0.0, 9.9990015, 9.999614 
2.6548937e+3, 2.4733174e+2, -769648.94, -627940.5, 100227.734, -0.004668435, -0.43652725, -576051.44, -59945.547, 0.0, 9.998333, 10.000186 
2.6548058e+3, 2.5733194e+2, -755333.75, -580770.6, 100071.5, -0.084668815, -0.39413616, -535265.2, -117160.08, 0.0, 9.997803, 10.0000925 
2.6547182e+3, 2.6733172e+2, -762670.44, -493217.47, 67518.67, -0.03732787, -0.39972544, -477245.6, -157137.69, 0.0, 9.996905, 10.000454 
2.654631e+3, 2.773315e+2, -807357.25, -448968.97, 57021.953, 0.06312475, -0.4261803, -440115.13, -218004.66, 0.0, 9.99586, 10.00059 
2.6545423e+3, 2.8733218e+2, -731064.9, -235994.19, 38134.44, -0.0019093872, -0.44267467, -233073.98, -108970.14, 0.0, 9.995168, 10.001714 
2.654452e+3, 2.9733345e+2, -735592.94, -218579.94, 46469.117, -0.1454832, -0.44280177, -214436.5, -188345.58, 0.0, 9.994598, 10.001436 
2.6543653e+3, 3.0733597e+2, -799527.94, -212542.11, 17666.145, 0.079653315, -0.29061055, -212010.9, -212010.9, 0.0, 9.993772, 10.001542 
2.6542744e+3, 3.1733507e+2, -805453.6, -16976.592, -28678.627, -0.05795313, -0.5002898, -15934.863, -15934.863, 0.0, 9.992873, 10.00332 
2.665956e+3, 1.2744766e+2, -796845.56, -1621293.1, 26766.336, -0.11701325, -0.46194005, -795977.5, 894992.25, 0.031063002, 10.008067, 9.996771 
2.6658654e+3, 1.3744399e+2, -805028.0, -1588209.0, 23776.814, -0.061198, -0.46305978, -804306.8, 788696.9, 0.019576741, 10.007289, 9.996684 
2.6657748e+3, 1.4744054e+2, -774047.9, -1482327.1, 68751.04, -0.0715896, -0.4519237, -767436.1, 727601.56, 0.009469357, 10.006583, 9.997073 
2.6656848e+3, 1.5743731e+2, -766792.9, -1428698.1, 70378.08, -0.08681991, -0.4394555, -759392.56, 637677.9, 0.0030323446, 10.005918, 9.997089 
2.6655957e+3, 1.6743425e+2, -744861.0, -1290650.3, 107826.125, -0.07951815, -0.44846565, -724331.06, 574769.3, 0.0005020938, 10.0050535, 9.997778 
2.6655072e+3, 1.7743145e+2, -778909.75, -1251375.1, 115824.41, -0.06835975, -0.46594447, -752043.25, 449084.44, 0.000021586528, 10.004123, 9.997825 
2.665419e+3, 1.8742935e+2, -739072.75, -1090454.9, 136989.67, -0.05701661, -0.4593501, -691978.0, 411169.97, 0.0000000057994387, 10.003334, 9.998634 
2.665331e+3, 1.9742772e+2, -750002.0, -1049237.4, 128396.63, -0.043725826, -0.44225937, -702462.0, 302701.7, 0.0, 10.002603, 9.998598 
2.6652429e+3, 2.0742616e+2, -753895.6, -945013.25, 138788.31, -0.04855109, -0.4417735, -680950.2, 226229.05, 0.0, 10.001665, 9.999092 
2.665155e+3, 2.1742475e+2, -804059.25, -921094.4, 142035.7, -0.06037474, -0.44937083, -708959.0, 100234.35, 0.0, 10.000658, 9.999069 
2.6650676e+3, 2.274237e+2, -767057.1, -789623.0, 137308.63, -0.029023716, -0.4492918, -640568.7, 70635.27, 0.0, 9.999969, 9.999631 
2.66498e+3, 2.3742291e+2, -754818.0, -736181.75, 136807.83, 0.021747172, -0.44581956, -608375.1, 4836.548, 0.0, 9.999393, 9.999602 
2.6648915e+3, 2.4742253e+2, -742547.1, -618728.5, 124915.92, -0.012360271, -0.43071166, -541222.06, -26006.037, 0.0, 9.998541, 10.000146 
2.664803e+3, 2.5742245e+2, -789081.8, -598291.5, 113620.78, -0.081862405, -0.4118301, -545329.25, -128111.484, 0.0, 9.997582, 10.000076 
2.6647148e+3, 2.674223e+2, -761201.44, -489488.6, 93374.414, -0.03988214, -0.41115502, -460494.34, -141274.33, 0.0, 9.996908, 10.000476 
2.6646268e+3, 2.7742228e+2, -742438.8, -417538.94, 106882.53, 0.05553738, -0.4211532, -385531.03, -164309.8, 0.0, 9.99631, 10.000586 
2.664537e+3, 2.8742293e+2, -692425.1, -229070.58, 74266.11, -0.006555629, -0.4292654, -217458.28, -94243.78, 0.0, 9.995489, 10.001604 
2.6644462e+3, 2.974241e+2, -741247.1, -223598.77, 51556.645, -0.15217488, -0.42616352, -218513.8, -193311.75, 0.0, 9.994575, 10.0014105 
2.6643586e+3, 3.0742604e+2, -774634.4, -179793.95, 29882.637, 0.08040325, -0.34680903, -178296.52, -178296.52, 0.0, 9.993858, 10.001722 
2.6642668e+3, 3.1742623e+2, -773191.06, -37100.91, 25716.531, -0.07919308, -0.4569235, -36203.555, -36203.555, 0.0, 9.993257, 10.002992 
2.675964e+3, 1.2753937e+2, -810209.4, -1650093.6, -561.86615, -0.09188424, -0.46147394, -810209.0, 879861.06, 0.026350912, 10.008035, 9.996579 
2.675872e+3, 1.3753532e+2, -815649.9, -1612787.1, -1350.8483, -0.07569568, -0.47928485, -815647.56, 776461.06, 0.016426757, 10.007272, 9.996525 
2.6757807e+3, 1.4753188e+2, -776076.75, -1488082.5, 46488.234, -0.09395271, -0.45902732, -773054.3, 721088.7, 0.0078017446, 10.006573, 9.997042 
2.67569e+3, 1.5752882e+2, -767420.4, -1427334.6, 45616.01, -0.10170773, -0.42811388, -764282.1, 631892.1, 0.0024266997, 10.0058975, 9.997111 
2.6756003e+3, 1.6752581e+2, -734529.06, -1268836.4, 74303.38, -0.08710006, -0.44310164, -724388.56, 573814.7, 0.00038688382, 10.005048, 9.997933 
2.6755106e+3, 1.77523e+2, -772158.2, -1240265.6, 83534.875, -0.07048685, -0.4744652, -757697.9, 442531.78, 0.00001579983, 10.00413, 9.997899 
2.6754215e+3, 1.8752088e+2, -754197.2, -1122938.9, 111242.17, -0.06788361, -0.46078846, -723237.0, 379013.6, 0.000000001728097, 10.003333, 9.998414 
2.675333e+3, 1.9751918e+2, -760788.2, -1068722.4, 100527.71, -0.068009906, -0.43059495, -730875.75, 273392.22, 0.0, 10.002585, 9.998475 
2.6752445e+3, 2.0751752e+2, -742835.06, -921947.25, 101620.21, -0.0362136, -0.44496182, -696940.2, 209343.73, 0.0, 10.001661, 9.999254 
2.675156e+3, 2.1751602e+2, -794321.1, -903148.25, 108579.39, 0.003272465, -0.47661066, -727283.8, 81014.305, 0.0, 10.000664, 9.999191 
2.6750672e+3, 2.2751518e+2, -767381.06, -792208.06, 116392.9, -0.025797008, -0.45773354, -662741.56, 47564.848, 0.0, 9.999972, 9.999613 
2.674978e+3, 2.3751472e+2, -758909.94, -745254.3, 111689.98, -0.07462669, -0.4220291, -640183.6, -27872.215, 0.0, 9.999392, 9.999543 
2.6748896e+3, 2.4751388e+2, -757660.4, -650580.8, 88082.29, -0.042394828, -0.43770346, -601043.0, -86722.63, 0.0, 9.99854, 9.999929 
2.674801e+3, 2.575131e+2, -792784.44, -607405.7, 80195.85, 0.010283476, -0.46889886, -577527.94, -161199.14, 0.0, 9.997584, 10.000015 
2.6747113e+3, 2.6751348e+2, -734050.25, -434330.75, 71602.65, -0.018705403, -0.43607914, -418103.53, -99778.15, 0.0, 9.996907, 10.000857 
2.6746216e+3, 2.775144e+2, -730826.44, -397492.28, 82866.01, -0.060601857, -0.3862717, -378028.5, -157711.67, 0.0, 9.996323, 10.00072 
2.674532e+3, 2.8751454e+2, -734111.8, -318449.28, 38866.355, -0.03400735, -0.4141516, -314846.34, -192530.47, 0.0, 9.995497, 10.000989 
2.6744416e+3, 2.9751468e+2, -761333.6, -265525.0, 17353.225, -0.02262454, -0.45669422, -264918.4, -240603.92, 0.0, 9.994571, 10.001127 
2.6743516e+3, 3.0751634e+2, -736502.8, -100360.98, 5287.1563, 0.023854144, -0.42895612, -100317.03, -100317.03, 0.0, 9.993851, 10.0022745 
2.67426e+3, 3.175185e+2, -747401.94, 12510.574, -3829.333, -0.04940478, -0.39347216, 12529.871, 12529.871, 0.0, 9.993266, 10.003332 
2.6859716e+3, 1.276319e+2, -850670.7, -1678305.8, 21036.803, -0.07366598, -0.44857863, -850136.3, 839027.2, 0.022085745, 10.0077505, 9.996517 
2.6858786e+3, 1.3762783e+2, -842615.6, -1629605.3, 28140.148, -0.0973569, -0.46259552, -841610.7, 749592.3, 0.01360587, 10.007082, 9.996499 
2.6857865e+3, 1.4762428e+2, -807477.06, -1496848.8, 81760.84, -0.106026344, -0.4541104, -797912.75, 695325.3, 0.006337304, 10.006324, 9.997098 
2.685696e+3, 1.576211e+2, -814229.44, -1442611.6, 85281.45, -0.08653802, -0.43941966, -802861.06, 592408.8, 0.0019124955, 10.005546, 9.997172 
2.685605e+3, 1.676182e+2, -759580.94, -1275437.5, 109752.38, -0.08009873, -0.44732592, -737201.2, 560096.4, 0.00029350122, 10.004856, 9.997977 
2.6855144e+3, 1.7761557e+2, -759267.9, -1229049.4, 111728.96, -0.08299582, -0.4636262, -734049.0, 465273.22, 0.000011276169, 10.004203, 9.997938 
2.6854247e+3, 1.8761331e+2, -761564.94, -1128642.8, 141838.98, -0.06966198, -0.46207383, -713145.2, 388199.22, 0.0000000002885943, 10.003298, 9.998389 
2.6853353e+3, 1.9761135e+2, -802473.25, -1090192.1, 142203.94, -0.049084272, -0.45373067, -744051.94, 259312.23, 0.0, 10.002311, 9.998457 
2.6852456e+3, 2.0760974e+2, -753319.56, -926101.7, 141744.08, -0.028315738, -0.46040767, -673714.25, 231665.39, 0.0, 10.001591, 9.999256 
2.6851562e+3, 2.1760842e+2, -749639.0, -879368.75, 139349.06, -0.007858293, -0.4733293, -660797.6, 146594.39, 0.0, 10.000968, 9.999205 
2.6850668e+3, 2.2760753e+2, -742841.25, -780068.1, 145826.89, -0.0354919, -0.4605819, -614444.7, 94956.16, 0.0, 10.000146, 9.99961 
2.684977e+3, 2.376069e+2, -780241.5, -754518.3, 141261.56, -0.07692997, -0.43965486, -625534.0, -14126.754, 0.0, 9.999246, 9.999546 
2.6848876e+3, 2.4760602e+2, -760010.6, -652584.9, 126793.9, -0.039188497, -0.4570428, -568596.06, -55179.758, 0.0, 9.998532, 9.999917 
2.6847982e+3, 2.576052e+2, -753840.75, -591796.4, 133145.63, 0.022893775, -0.48675627, -516958.5, -101533.81, 0.0, 9.997871, 9.999981 
2.684708e+3, 2.676055e+2, -705593.0, -431451.7, 104575.164, -0.02191021, -0.45402735, -396114.9, -78692.62, 0.0, 9.997155, 10.000754 
2.684617e+3, 2.776063e+2, -724513.3, -402605.0, 79593.836, -0.0895893, -0.40383938, -384000.22, -164585.28, 0.0, 9.9964075, 10.000641 
2.684527e+3, 2.8760648e+2, -696231.56, -305888.8, 54491.867, -0.035456065, -0.42066646, -298424.5, -177010.97, 0.0, 9.995787, 10.000932 
2.6844364e+3, 2.9760665e+2, -676764.4, -232387.61, 71681.32, 0.021659495, -0.45419493, -221111.03, -197699.06, 0.0, 9.99519, 10.001054 
2.6843446e+3, 3.0760756e+2, -682105.4, -88308.69, 25436.514, -0.026468562, -0.4877828, -87221.055, -87221.055, 0.0, 9.99429, 10.002142 
2.6842538e+3, 3.1761047e+2, -713050.2, 48262.527, -7948.7104, 0.013736949, -0.36740446, 48345.51, 48345.51, 0.0, 9.993427, 10.003495 
2.695979e+3, 1.2772515e+2, -854586.94, -1677985.8, -3790.8516, -0.065432556, -0.42586294, -854569.5, 833681.3, 0.018225051, 10.007684, 9.996551 
2.695885e+3, 1.3772129e+2, -836680.6, -1621274.6, 4171.867, -0.12392152, -0.42330655, -836658.44, 753630.06, 0.011081655, 10.007079, 9.996559 
2.6957926e+3, 1.4771757e+2, -798668.4, -1482252.1, 53806.18, -0.10939143, -0.4423713, -794459.06, 697865.44, 0.0050524613, 10.006327, 9.9972 
2.695701e+3, 1.5771407e+2, -810049.75, -1432542.3, 58309.934, -0.0501021, -0.46873906, -804634.9, 589723.4, 0.0014755586, 10.005533, 9.99725 
2.6956096e+3, 1.6771135e+2, -764038.06, -1283363.0, 87149.19, -0.06330683, -0.4577986, -749803.5, 546580.56, 0.00021699877, 10.004846, 9.99793 
2.695518e+3, 1.7770906e+2, -760963.5, -1231538.4, 85951.65, -0.105197385, -0.4356059, -745755.75, 452650.16, 0.000007660556, 10.004193, 9.997929 
2.6954275e+3, 1.8770656e+2, -755148.4, -1116042.9, 105379.98, -0.06393543, -0.46432704, -726631.1, 373798.9, 0.000000000007316074, 10.003296, 9.998479 
2.6953375e+3, 1.9770415e+2, -798778.7, -1084249.1, 108964.66, 0.0048361765, -0.50916266, -761940.4, 240513.1, 0.0, 10.002315, 9.998498 
2.695247e+3, 2.0770279e+2, -761542.25, -945220.56, 119263.62, -0.026486134, -0.4859552, -702854.9, 201612.05, 0.0, 10.0015955, 9.999125 
2.695156e+3, 2.1770193e+2, -757133.4, -894188.4, 114531.99, -0.09037857, -0.44127035, -692193.3, 114282.18, 0.0, 10.00096, 9.999109 
2.695066e+3, 2.2770065e+2, -744887.44, -784395.75, 112616.625, -0.05522334, -0.4592836, -650305.5, 58182.04, 0.0, 10.000143, 9.999583 
2.694977e+3, 2.3769942e+2, -776595.56, -748863.3, 109512.24, 0.011776153, -0.49784592, -652342.8, -41843.457, 0.0, 9.99925, 9.999585 
2.6948863e+3, 2.4769896e+2, -745970.1, -624878.44, 101739.23, -0.006300666, -0.48731208, -567032.25, -54528.46, 0.0, 9.998534, 10.000109 
2.694795e+3, 2.5769886e+2, -755441.25, -597470.3, 108076.98, -0.053914793, -0.46094337, -542592.7, -128087.88, 0.0, 9.997876, 9.999942 
2.6947045e+3, 2.6769835e+2, -751824.56, -529137.6, 76107.49, -0.047389448, -0.4668541, -505611.8, -189100.78, 0.0, 9.997159, 10.000084 
2.694614e+3, 2.7769786e+2, -745816.9, -448679.63, 51312.805, -0.01518849, -0.48117408, -440067.97, -221550.95, 0.0, 9.996411, 10.000325 
2.6945227e+3, 2.876988e+2, -652579.8, -218875.56, 32819.527, -0.013477635, -0.45033476, -216406.08, -95898.45, 0.0, 9.995797, 10.001528 
2.6944306e+3, 2.9770026e+2, -664417.25, -213932.39, 48176.625, -0.05406682, -0.40848225, -208837.81, -186345.6, 0.0, 9.995215, 10.00117 
2.6943383e+3, 3.0769974e+2, -756221.7, -247252.81, -15874.111, -0.04418741, -0.517661, -246758.19, -246758.19, 0.0, 9.994308, 10.001044 
2.6942465e+3, 3.1770176e+2, -716142.56, 34854.137, 19966.66, -0.012597671, -0.39286217, 35384.613, 35384.613, 0.0, 9.993446, 10.0034 
2.705986e+3, 1.278187e+2, -924432.0, -1687320.6, 21632.52, -0.063853964, -0.42733422, -923819.1, 763515.7, 0.014740255, 10.007063, 9.996785 
2.7058917e+3, 1.3781527e+2, -847765.5, -1603928.0, 35768.848, -0.11510513, -0.40354875, -846077.3, 743290.6, 0.00883065, 10.006891, 9.996767 
2.7057984e+3, 1.4781159e+2, -814790.44, -1479567.5, 74030.35, -0.10253708, -0.43012688, -806646.1, 684756.8, 0.003929272, 10.006168, 9.997291 
2.7057064e+3, 1.57808e+2, -841185.75, -1436917.6, 80085.68, -0.047891945, -0.47454062, -830607.44, 562829.6, 0.0011056539, 10.005276, 9.997341 
2.705614e+3, 1.6780527e+2, -795495.7, -1290995.5, 119081.65, -0.05801784, -0.47157672, -768362.94, 527100.06, 0.00015440451, 10.0046015, 9.997992 
2.7055216e+3, 1.77803e+2, -784336.9, -1235420.1, 120614.24, -0.09483996, -0.45226207, -754111.4, 443373.38, 0.0000048303737, 10.004007, 9.997988 
2.7054304e+3, 1.8780069e+2, -760935.5, -1113369.5, 132197.33, -0.06281138, -0.46566424, -716860.5, 382646.66, 0.0, 10.003239, 9.998522 
2.7053395e+3, 1.9779849e+2, -782765.2, -1073765.0, 136314.53, -0.005664712, -0.49155703, -728886.4, 272642.13, 0.0, 10.002418, 9.998518 
2.705248e+3, 2.077969e+2, -754884.3, -952323.56, 153108.61, -0.028851511, -0.48359677, -671428.75, 232115.3, 0.0, 10.001691, 9.999027 
2.7051568e+3, 2.177957e+2, -755277.5, -897586.44, 146585.72, -0.0793565, -0.46274447, -663489.25, 142066.78, 0.0, 10.000997, 9.999065 
2.7050662e+3, 2.2779453e+2, -732987.0, -769695.4, 145204.84, -0.04608271, -0.47356755, -604980.94, 102586.164, 0.0, 10.000191, 9.999659 
2.7049756e+3, 2.3779349e+2, -760163.3, -737657.44, 151824.73, 0.018466836, -0.49688715, -596669.2, 12907.554, 0.0, 9.999355, 9.999608 
2.7048844e+3, 2.4779294e+2, -725044.5, -628605.56, 134424.22, -0.0055616405, -0.48594686, -534014.06, -22432.064, 0.0, 9.998744, 9.999979 
2.7047926e+3, 2.5779265e+2, -717246.5, -589209.44, 117754.69, -0.061826628, -0.46436438, -519196.13, -105611.42, 0.0, 9.998189, 9.999845 
2.7047014e+3, 2.6779193e+2, -700469.56, -511754.5, 110553.086, -0.044605795, -0.4828598, -460766.47, -145173.8, 0.0, 9.997549, 10.000012 
2.7046102e+3, 2.7779123e+2, -687794.6, -431864.4, 126565.73, 0.007986773, -0.51300037, -379846.3, -162245.55, 0.0, 9.996862, 10.00022 
2.704518e+3, 2.8779215e+2, -622138.56, -224001.95, 73565.26, -0.022975916, -0.46512282, -210843.88, -91252.195, 0.0, 9.996097, 10.001345 
2.704425e+3, 2.9779366e+2, -664920.6, -232612.25, 31975.596, -0.1118844, -0.39646122, -230259.98, -208684.13, 0.0, 9.995297, 10.000999 
2.7043334e+3, 3.0779272e+2, -690017.8, -237366.98, 8075.748, 0.010853852, -0.53152484, -237222.95, -237222.95, 0.0, 9.994863, 10.000842 
2.7042395e+3, 3.1779432e+2, -654664.5, 14750.162, 90459.99, -0.029984571, -0.42394674, 26758.863, 26758.863, 0.0, 9.994087, 10.00295 
2.7159923e+3, 1.2791261e+2, -894152.75, -1632535.1, 19302.05, -0.06752064, -0.44560188, -893648.5, 792766.56, 0.011623728, 10.007078, 9.997157 
2.7158985e+3, 1.3790977e+2, -832901.75, -1565358.0, 23397.646, -0.08308512, -0.39702713, -832155.1, 756286.4, 0.006842094, 10.006842, 9.997058 
2.7158046e+3, 1.4790633e+2, -812895.06, -1472366.1, 40706.508, -0.09071775, -0.41683736, -810391.94, 680082.2, 0.002957759, 10.006143, 9.9973545 
2.7157107e+3, 1.5790279e+2, -833062.06, -1424286.1, 50734.055, -0.0731131, -0.46218452, -828740.06, 563767.5, 0.0007969869, 10.005288, 9.997424 
2.7156183e+3, 1.6789988e+2, -786600.0, -1273931.8, 97623.57, -0.0613361, -0.48885667, -767771.25, 526763.8, 0.00010427455, 10.004603, 9.99811 
2.7155256e+3, 1.7789735e+2, -780471.0, -1223283.5, 95984.9, -0.059031166, -0.5051933, -760560.4, 435998.56, 0.0000027586734, 10.003985, 9.998083 
2.7154332e+3, 1.8789563e+2, -761455.44, -1113373.8, 101621.9, -0.067286685, -0.46465915, -734218.5, 364357.7, 0.0, 10.00323, 9.998528 
2.715341e+3, 1.9789423e+2, -783449.9, -1076163.1, 107638.61, -0.07384276, -0.41135356, -748130.06, 252460.52, 0.0, 10.002418, 9.998504 
2.7152494e+3, 2.0789203e+2, -762640.56, -969041.6, 127906.305, -0.03346764, -0.45838755, -701492.75, 201119.17, 0.0, 10.00169, 9.998914 
2.7151582e+3, 2.1788976e+2, -757670.75, -901816.0, 119313.34, 0.015908578, -0.5330081, -690351.4, 114282.3, 0.0, 10.00099, 9.999042 
2.715066e+3, 2.2788915e+2, -720006.06, -743915.3, 113270.34, -0.012587601, -0.49974447, -618061.25, 88578.15, 0.0, 10.000192, 9.999837 
2.714974e+3, 2.3788913e+2, -761293.1, -740299.56, 123491.65, -0.060026266, -0.43558404, -626859.4, -18220.016, 0.0, 9.999352, 9.999594 
2.7148822e+3, 2.4788795e+2, -758722.4, -699730.3, 114298.086, -0.035366725, -0.45454812, -611183.7, -100532.6, 0.0, 9.998746, 9.999491 
2.714791e+3, 2.578866e+2, -726213.8, -611973.0, 95343.43, 0.0030565867, -0.49748498, -557948.9, -145284.02, 0.0, 9.998202, 9.999683 
2.714699e+3, 2.6788634e+2, -657747.7, -426651.84, 85055.28, -0.014149345, -0.499996, -398722.5, -84055.82, 0.0, 9.99756, 10.000594 
2.7146065e+3, 2.7788654e+2, -679943.75, -419335.9, 102035.69, -0.033833943, -0.49114698, -384139.4, -167475.3, 0.0, 9.996875, 10.000303 
2.7145135e+3, 2.8788653e+2, -702006.25, -391942.8, 43086.832, -0.06798144, -0.4641448, -386066.75, -267401.28, 0.0, 9.996101, 10.000192 
2.7144194e+3, 2.9788673e+2, -698837.1, -302908.63, 3704.656, -0.13946116, -0.42437392, -302873.94, -282208.72, 0.0, 9.995293, 10.000522 
2.714329e+3, 3.0788666e+2, -612064.4, -83971.1, 438.58047, 0.1500383, -0.52285963, -83970.734, -83970.734, 0.0, 9.994892, 10.0018835 
2.7142328e+3, 3.178881e+2, -740481.94, -160026.14, -51709.96, -0.048784867, -0.49656114, -155455.55, -155455.55, 0.0, 9.994075, 10.001754 
2.7259988e+3, 1.2800765e+2, -887049.6, -1625870.4, 60543.69, -0.09188605, -0.4498112, -882121.1, 803361.44, 0.008882823, 10.007094, 9.997195 
2.725905e+3, 1.3800459e+2, -919663.06, -1597971.0, 46508.938, -0.052239288, -0.42648804, -916489.0, 671022.3, 0.0051178765, 10.006194, 9.997143 
2.72581e+3, 1.4800134e+2, -867299.25, -1480658.6, 63275.258, -0.07096279, -0.4377964, -860839.7, 628702.3, 0.0021368125, 10.0056925, 9.997511 
2.7257156e+3, 1.5799813e+2, -820705.3, -1404442.3, 75502.84, -0.08455766, -0.46370664, -811097.6, 580474.75, 0.0005472347, 10.005318, 9.997543 
2.725622e+3, 1.6799527e+2, -802569.6, -1280711.9, 112224.51, -0.063762054, -0.48953873, -777539.75, 516059.9, 0.00006581396, 10.004496, 9.998113 
2.7255294e+3, 1.7799269e+2, -840478.6, -1246054.4, 105733.51, -0.039373472, -0.5112672, -814569.1, 381055.1, 0.0000013852543, 10.0035515, 9.998135 
2.725436e+3, 1.8799104e+2, -789254.75, -1112098.4, 119528.0, -0.05365607, -0.47275987, -749818.56, 347822.16, 0.0, 10.002981, 9.998653 
2.7253428e+3, 1.9798976e+2, -760966.7, -1053705.4, 129636.73, -0.07551843, -0.4187287, -711811.94, 287841.78, 0.0, 10.002528, 9.9986 
2.7252504e+3, 2.0798762e+2, -763927.4, -968689.3, 151731.36, -0.035204727, -0.46213624, -683266.6, 218407.94, 0.0, 10.001683, 9.998918 
2.7251586e+3, 2.1798536e+2, -797407.8, -922095.8, 153421.44, 0.022934455, -0.53420514, -694147.1, 109549.25, 0.0, 10.000727, 9.999026 
2.725066e+3, 2.2798473e+2, -722655.94, -754778.3, 140345.4, -0.006274978, -0.4958484, -597455.7, 108247.02, 0.0, 10.00022, 9.999746 
2.724973e+3, 2.3798469e+2, -693184.94, -710440.1, 131747.5, -0.059523474, -0.42510834, -569782.9, 37920.457, 0.0, 9.999838, 9.999561 
2.724881e+3, 2.4798346e+2, -705742.25, -665837.25, 146671.13, -0.036068253, -0.45257732, -537767.75, -28052.496, 0.0, 9.999079, 9.99956 
2.724789e+3, 2.57982e+2, -723532.06, -606557.4, 166152.75, 0.007840198, -0.5092938, -488898.47, -77169.1, 0.0, 9.99821, 9.999715 
2.724696e+3, 2.679818e+2, -648460.0, -427792.56, 130060.41, -0.009626078, -0.5017125, -367570.6, -53839.973, 0.0, 9.997655, 10.000537 
2.724603e+3, 2.779821e+2, -641953.44, -406046.66, 100636.24, -0.03352886, -0.47888333, -368949.53, -153222.2, 0.0, 9.997164, 10.000251 
2.7245092e+3, 2.8798175e+2, -657868.4, -381257.3, 86552.2, -0.06931297, -0.47382915, -356407.38, -238675.73, 0.0, 9.996457, 10.00009 
2.7244145e+3, 2.9798156e+2, -647478.5, -281653.1, 124809.45, -0.13543913, -0.46102422, -243128.56, -223393.2, 0.0, 9.995667, 10.0004835 
2.724324e+3, 3.0798212e+2, -588444.56, -54107.42, 92471.31, 0.18198325, -0.50210565, -38557.07, -38557.07, 0.0, 9.994983, 10.002042 
2.724226e+3, 3.1798315e+2, -690097.25, -147146.9, -93647.53, -0.11728539, -0.5298649, -131448.56, -131448.56, 0.0, 9.994479, 10.001643 
2.7360052e+3, 1.2810358e+2, -896855.6, -1652215.0, 28299.717, -0.13172694, -0.44398993, -895796.9, 788743.06, 0.0065319897, 10.007106, 9.997005 
2.735911e+3, 1.3809973e+2, -921206.7, -1606927.1, 20983.945, -0.023684656, -0.48292553, -920565.2, 666012.0, 0.0036670277, 10.006207, 9.997077 
2.7358153e+3, 1.480967e+2, -853644.5, -1452393.9, 52030.523, -0.046202574, -0.48419625, -849156.75, 639449.6, 0.0014692224, 10.005684, 9.997712 
2.7357206e+3, 1.5809402e+2, -818004.3, -1390009.9, 56878.98, -0.08668458, -0.47542956, -812403.25, 578228.6, 0.00035452587, 10.005275, 9.997665 
2.735626e+3, 1.6809139e+2, -811884.3, -1297298.1, 77730.055, -0.06662045, -0.4763941, -799741.06, 492916.34, 0.000038187027, 10.00448, 9.998009 
2.7355325e+3, 1.7808892e+2, -837400.7, -1244798.1, 77214.16, -0.03409559, -0.47994024, -823257.3, 371424.22, 0.00000057180443, 10.00357, 9.998136 
2.7354386e+3, 1.880869e+2, -774611.7, -1083215.4, 104729.83, -0.024259942, -0.49028784, -742426.5, 354274.22, 0.0, 10.002985, 9.998852 
2.7353454e+3, 1.9808517e+2, -752207.56, -1030981.4, 108091.24, -0.021475308, -0.50059086, -715207.3, 283509.97, 0.0, 10.002505, 9.998769 
2.735252e+3, 2.080837e+2, -756985.1, -953814.9, 115236.8, -0.03695676, -0.48866048, -703857.9, 196873.94, 0.0, 10.0016775, 9.999023 
2.7351582e+3, 2.1808243e+2, -798990.7, -926531.9, 124188.48, -0.05505652, -0.47236645, -723156.6, 79588.36, 0.0, 10.000728, 9.998998 
2.7350658e+3, 2.2808121e+2, -748833.25, -810343.56, 127577.49, -0.024055835, -0.46660495, -648356.2, 56401.445, 0.0, 10.000222, 9.999365 
2.734973e+3, 2.3808017e+2, -696163.3, -718774.9, 111969.33, 0.018003957, -0.46329024, -594930.44, 11838.144, 0.0, 9.999844, 9.999504 
2.73488e+3, 2.4807946e+2, -659934.06, -572538.7, 112775.68, -0.0093864715, -0.47780162, -495290.75, 13483.278, 0.0, 9.999083, 10.000202 
2.7347863e+3, 2.58079e+2, -710005.06, -578930.06, 138823.27, -0.05653553, -0.49596995, -490951.88, -80174.66, 0.0, 9.998208, 9.9999075 
2.734693e+3, 2.6807833e+2, -704613.8, -544756.7, 113363.85, -0.032588303, -0.48802745, -485977.16, -173192.73, 0.0, 9.997653, 9.999736 
2.7346003e+3, 2.7807778e+2, -652809.0, -431649.94, 78252.15, 0.017546184, -0.47591233, -406762.78, -191971.44, 0.0, 9.997173, 10.0000725 
2.7345055e+3, 2.8807792e+2, -575493.94, -213573.6, 58225.78, -0.018544389, -0.49553862, -204436.88, -87647.445, 0.0, 9.996467, 10.00124 
2.7344102e+3, 2.9807845e+2, -616004.2, -219379.69, 102826.57, -0.10131179, -0.5104889, -194306.5, -175523.72, 0.0, 9.995675, 10.000909 
2.7343172e+3, 3.080793e+2, -666561.3, -213646.08, 70733.17, 0.06969872, -0.46548477, -202856.48, -202856.48, 0.0, 9.994967, 10.000955 
2.7342203e+3, 3.1807965e+2, -567508.25, 89376.16, -98907.445, -0.092868075, -0.49682668, 103945.56, 103945.56, 0.0, 9.9945345, 10.003252 
2.746012e+3, 1.2820002e+2, -908754.56, -1674419.1, 50405.535, -0.112066716, -0.4732099, -905450.5, 778142.3, 0.004583029, 10.007078, 9.996866 
2.7459162e+3, 1.3819623e+2, -928572.56, -1614444.6, 49316.348, -0.044122744, -0.49295095, -925044.75, 660585.94, 0.002495017, 10.00617, 9.997042 
2.7458206e+3, 1.4819331e+2, -892213.06, -1455739.5, 86347.25, -0.05721345, -0.48813605, -879279.25, 608379.56, 0.0009531605, 10.005357, 9.997844 
2.7457252e+3, 1.5819079e+2, -905462.0, -1417482.1, 87379.02, -0.07353766, -0.4770861, -890960.94, 498721.94, 0.00021439523, 10.004615, 9.997791 
2.74563e+3, 1.6818817e+2, -850585.9, -1307772.5, 115127.195, -0.05343257, -0.48310384, -823231.6, 468476.53, 0.000020035715, 10.004184, 9.998076 
2.7455357e+3, 1.7818569e+2, -794802.56, -1215381.4, 122312.34, -0.027647575, -0.49411055, -761818.6, 431913.8, 0.00000017040148, 10.00383, 9.998209 
2.7454415e+3, 1.881837e+2, -776651.1, -1078730.8, 139617.34, -0.016797304, -0.50580424, -722006.7, 373744.75, 0.0, 10.002954, 9.998895 
2.7453473e+3, 1.98182e+2, -830039.56, -1061366.0, 135010.88, -0.010027953, -0.5150672, -767922.25, 229845.38, 0.0, 10.0019455, 9.998829 
2.7452528e+3, 2.0818073e+2, -779501.4, -955643.1, 141690.53, -0.031244908, -0.49200174, -700740.94, 199039.73, 0.0, 10.001489, 9.999101 
2.7451587e+3, 2.1817963e+2, -728989.0, -886264.44, 148333.67, -0.05812018, -0.4623183, -639737.56, 162054.48, 0.0, 10.001186, 9.99905 
2.7450654e+3, 2.281782e+2, -727119.3, -804867.2, 168803.48, -0.024276426, -0.47446197, -592771.44, 111035.17, 0.0, 10.000399, 9.999315 
2.7449724e+3, 2.3817684e+2, -748597.9, -743323.56, 175695.22, 0.027890563, -0.49762216, -570245.7, 35574.867, 0.0, 9.999486, 9.999505 
2.7448785e+3, 2.4817643e+2, -653978.94, -558547.4, 150297.0, -0.0054495507, -0.48981398, -448573.63, 59249.895, 0.0, 9.999081, 10.000297 
2.744784e+3, 2.5817633e+2, -625402.3, -532125.8, 137486.33, -0.06484473, -0.47468722, -433582.72, -23759.893, 0.0, 9.998768, 9.999956 
2.7446905e+3, 2.6817548e+2, -670555.7, -537105.75, 141600.1, -0.038708687, -0.48219055, -447296.97, -135464.83, 0.0, 9.9979315, 9.999651 
2.744597e+3, 2.7817455e+2, -682546.75, -445639.63, 156925.27, 0.02352727, -0.49693766, -367479.9, -153637.03, 0.0, 9.996976, 10.000069 
2.744502e+3, 2.881749e+2, -530036.3, -171333.36, 95264.0, 0.011285231, -0.50719327, -147603.13, -31764.258, 0.0, 9.996697, 10.001415 
2.7444062e+3, 2.9817575e+2, -486840.7, -152480.7, 64137.234, -0.056576233, -0.5073922, -140600.0, -122771.15, 0.0, 9.996548, 10.000945 
2.744311e+3, 3.0817652e+2, -604260.7, -213857.73, 52020.676, -0.015422578, -0.4536463, -207044.92, -207044.92, 0.0, 9.995531, 10.00068 
2.7442154e+3, 3.181767e+2, -551170.6, 146944.63, -15423.772, -0.006644637, -0.48385197, 147285.22, 147285.22, 0.0, 9.994439, 10.003691 
2.756019e+3, 1.2829694e+2, -929529.5, -1695676.1, 15745.265, -0.056424312, -0.52585196, -929206.0, 753435.25, 0.0030343914, 10.006973, 9.996771 
2.7559215e+3, 1.3829383e+2, -932686.2, -1620644.4, 18419.305, -0.10217921, -0.46707433, -932193.4, 652480.4, 0.0015939947, 10.006151, 9.997009 
2.755825e+3, 1.4829099e+2, -886291.25, -1446720.5, 59380.273, -0.09410801, -0.45971677, -880068.7, 606632.56, 0.0005767, 10.005364, 9.997904 
2.7557296e+3, 1.5828831e+2, -895707.9, -1399996.9, 65454.582, -0.049391475, -0.47104245, -887350.7, 501375.75, 0.000119162214, 10.004623, 9.99791 
2.7556342e+3, 1.6828556e+2, -839735.9, -1281313.8, 104133.81, -0.028164806, -0.50749624, -816410.94, 474341.6, 0.000009314596, 10.004164, 9.998269 
2.755539e+3, 1.7828298e+2, -794859.7, -1204633.3, 102327.67, -0.021403393, -0.5463622, -770727.8, 422049.6, 0.00000003115429, 10.00378, 9.998308 
2.7554438e+3, 1.8828136e+2, -786612.44, -1096087.1, 101237.984, -0.029411219, -0.5178502, -756436.9, 338356.6, 0.0, 10.002936, 9.998785 
2.7553487e+3, 1.9828013e+2, -831527.94, -1068317.1, 105825.836, -0.03742852, -0.4715959, -791125.8, 205680.25, 0.0, 10.001959, 9.998776 
2.7552542e+3, 2.0827855e+2, -776650.06, -951487.8, 132287.78, -0.017350111, -0.476702, -705506.3, 193315.42, 0.0, 10.001493, 9.999128 
2.75516e+3, 2.18277e+2, -722504.0, -870861.44, 130581.51, 0.0062001753, -0.49711716, -646502.8, 154334.39, 0.0, 10.001174, 9.999164 
2.7550656e+3, 2.2827575e+2, -708012.06, -766115.2, 133247.13, -0.010362233, -0.5151895, -600686.25, 102163.12, 0.0, 10.000399, 9.999583 
2.754971e+3, 2.3827471e+2, -747445.2, -740959.06, 148616.8, -0.033203855, -0.5284794, -595549.94, 9309.372, 0.0, 9.999482, 9.999525 
2.754877e+3, 2.4827427e+2, -689103.75, -631753.06, 141007.75, -0.023490762, -0.49058002, -516534.47, -9670.462, 0.0, 9.99908, 9.999795 
2.754783e+3, 2.5827408e+2, -629571.25, -545248.06, 117919.69, -0.013401145, -0.44258252, -462179.22, -53312.867, 0.0, 9.998784, 9.99986 
2.754688e+3, 2.6827332e+2, -620746.06, -435415.94, 103232.445, -0.02807166, -0.48391065, -389359.16, -78485.78, 0.0, 9.997934, 10.000351 
2.754593e+3, 2.7827254e+2, -675003.1, -426884.63, 132915.47, -0.028566487, -0.54583615, -369127.44, -156246.8, 0.0, 9.996959, 10.000208 
2.7544984e+3, 2.882727e+2, -602059.25, -322135.84, 94035.28, 0.016057631, -0.5068386, -293479.88, -178600.08, 0.0, 9.9967, 10.00038 
2.754403e+3, 2.9827335e+2, -510762.53, -211470.03, 43223.77, 0.0074276994, -0.43765002, -205352.69, -188477.89, 0.0, 9.996585, 10.000524 
2.7543056e+3, 3.0827355e+2, -547926.75, -103193.125, -1150.2599, -0.06847665, -0.47325483, -103190.15, -103190.15, 0.0, 9.995552, 10.001433 
2.7542093e+3, 3.1827435e+2, -658731.5, -65365.184, 36942.746, 0.0043434086, -0.48199525, -63073.992, -63073.992, 0.0, 9.994403, 10.002245 
2.766025e+3, 1.2839496e+2, -1061494.8, -1734779.9, 30917.629, -0.045185585, -0.50909585, -1060078.0, 621602.4, 0.0018668709, 10.005951, 9.996995 
2.7659267e+3, 1.383918e+2, -969117.75, -1617911.6, 46033.074, -0.11058353, -0.47660056, -965867.9, 617844.94, 0.0009406666, 10.005814, 9.9971895 
2.76583e+3, 1.4838897e+2, -903852.5, -1449344.3, 82816.11, -0.095909916, -0.4768355, -891556.56, 594183.7, 0.0003193252, 10.005222, 9.997952 
2.7657336e+3, 1.583863e+2, -906545.0, -1394896.5, 88922.31, -0.035367917, -0.4895493, -890857.4, 496907.8, 0.000059300633, 10.004508, 9.997998 
2.7656376e+3, 1.6838384e+2, -893623.8, -1289272.8, 128501.11, -0.019146848, -0.5118354, -855552.0, 434236.84, 0.0000036996428, 10.003721, 9.9984255 
2.765542e+3, 1.7838155e+2, -907188.75, -1244954.1, 125488.516, -0.023861632, -0.5335062, -865670.06, 326140.84, 0.000000001954365, 10.002956, 9.998426 
2.765446e+3, 1.8837987e+2, -830887.06, -1118947.8, 129368.97, -0.032924958, -0.51382387, -781317.1, 312510.56, 0.0, 10.002644, 9.998768 
2.7653503e+3, 1.9837843e+2, -762085.25, -1032681.1, 137873.67, -0.037209556, -0.48430395, -704213.1, 291629.1, 0.0, 10.00243, 9.998792 
2.7652553e+3, 2.0837691e+2, -762637.0, -938700.9, 163419.61, -0.011566194, -0.4885926, -665046.75, 232810.77, 0.0, 10.001569, 9.999177 
2.7651605e+3, 2.1837546e+2, -807273.44, -903573.2, 164595.84, 0.018321604, -0.5026499, -683929.3, 115942.734, 0.0, 10.000564, 9.99923 
2.7650654e+3, 2.2837433e+2, -723644.3, -764411.6, 159928.94, -0.008267374, -0.5135019, -582805.25, 119077.46, 0.0, 10.000257, 9.9996605 
2.7649704e+3, 2.383734e+2, -655129.4, -693111.6, 162424.11, -0.044495024, -0.5222095, -510589.9, 93301.64, 0.0, 10.000107, 9.99955 
2.7648756e+3, 2.4837273e+2, -661636.0, -630998.9, 172255.06, -0.021311292, -0.4996051, -473382.6, 32516.104, 0.0, 9.999329, 9.999678 
2.764781e+3, 2.5837225e+2, -686200.7, -574611.25, 172857.88, 0.011124855, -0.46874717, -448766.47, -40862.164, 0.0, 9.998411, 9.999835 
2.7646855e+3, 2.683718e+2, -592831.1, -405337.84, 128414.36, -0.022432594, -0.48827353, -340091.75, -30183.176, 0.0, 9.99806, 10.000494 
2.7645895e+3, 2.783714e+2, -552657.94, -368884.47, 123298.39, -0.051446624, -0.52302784, -306999.72, -95087.67, 0.0, 9.9978075, 10.000194 
2.764495e+3, 2.8837126e+2, -557890.75, -341194.06, 122891.77, 0.017308155, -0.4862856, -285707.88, -171793.77, 0.0, 9.997185, 10.000011 
2.7643993e+3, 2.9837146e+2, -539253.3, -245447.38, 112169.77, 0.042307496, -0.42618328, -207519.23, -191605.39, 0.0, 9.996484, 10.000336 
2.7643004e+3, 3.083713e+2, -446568.8, -40274.86, 27742.725, -0.112461425, -0.5019895, -38389.27, -38389.27, 0.0, 9.996192, 10.0015545 
2.7642035e+3, 3.183724e+2, -498424.63, -84470.04, 58490.117, -0.03162789, -0.47283435, -76364.34, -76364.34, 0.0, 9.995925, 10.001375 
2.7760306e+3, 1.2849386e+2, -1032281.9, -1672773.3, 29330.477, -0.06385121, -0.44590572, -1030941.5, 649770.2, 0.0010446417, 10.005942, 9.997424 
2.7759323e+3, 1.3849011e+2, -960707.6, -1580331.5, 35273.117, -0.085892074, -0.51425934, -958706.1, 624042.06, 0.00050058967, 10.005722, 9.997493 
2.7758348e+3, 1.4848724e+2, -913122.2, -1452018.3, 57073.355, -0.0736091, -0.52949595, -907144.0, 577631.8, 0.00015706866, 10.005145, 9.997973 
2.775738e+3, 1.5848476e+2, -908731.0, -1390043.6, 62661.586, -0.029206071, -0.5275966, -900706.94, 486092.63, 0.000025282172, 10.004464, 9.9980545 
2.7756408e+3, 1.6848291e+2, -886447.3, -1273399.8, 100102.47, -0.024107553, -0.4971332, -862085.2, 426732.56, 0.0000011227804, 10.0037155, 9.998539 
2.7755445e+3, 1.7848128e+2, -896654.25, -1228123.9, 104188.11, -0.03596669, -0.4642664, -866625.94, 324207.97, 0.00000000000031093438, 10.0029745, 9.998534 
2.7754483e+3, 1.8847913e+2, -827680.0, -1112354.1, 123844.375, -0.028470451, -0.49841082, -781344.7, 311510.2, 0.0, 10.002641, 9.9988165 
2.7753526e+3, 1.9847697e+2, -762460.1, -1026960.9, 120681.234, -0.014258938, -0.5457235, -715673.9, 279201.94, 0.0, 10.002399, 9.998847 
2.7752563e+3, 2.0847578e+2, -759980.7, -931865.94, 123899.42, -0.015168935, -0.523172, -695134.7, 201753.38, 0.0, 10.00156, 9.9992285 
2.7751604e+3, 2.1847492e+2, -806326.6, -903622.06, 137463.98, -0.02034734, -0.4823759, -709156.1, 89741.06, 0.0, 10.000568, 9.999229 
2.7750653e+3, 2.2847392e+2, -731412.1, -782326.0, 156681.95, -0.016101042, -0.47224587, -598132.5, 102774.68, 0.0, 10.000261, 9.999537 
2.7749702e+3, 2.3847295e+2, -652683.6, -689526.8, 147255.17, -0.008537458, -0.4746379, -522702.22, 80214.61, 0.0, 10.000111, 9.999575 
2.774875e+3, 2.4847183e+2, -642584.4, -592033.7, 135525.06, 0.0001956671, -0.51619846, -479447.22, 25480.115, 0.0, 9.999327, 9.9999485 
2.7747792e+3, 2.5847086e+2, -687179.6, -574611.2, 147434.31, 0.0034856896, -0.55751, -473082.88, -66146.375, 0.0, 9.9984, 9.999843 
2.7746832e+3, 2.6847088e+2, -628330.3, -479404.78, 121940.26, -0.021848444, -0.49482113, -410989.53, -102051.7, 0.0, 9.998059, 9.999988 
2.7745873e+3, 2.784712e+2, -559790.1, -391517.38, 107706.914, -0.039371043, -0.41490608, -338980.03, -128043.19, 0.0, 9.997838, 10.000025 
2.7744913e+3, 2.884707e+2, -526513.56, -280170.78, 93923.945, 0.012235377, -0.4422865, -248445.77, -135504.47, 0.0, 9.997198, 10.000427 
2.7743953e+3, 2.984701e+2, -536164.25, -236678.97, 94433.32, 0.032438245, -0.48978478, -209389.1, -194443.58, 0.0, 9.9964695, 10.000406 
2.774296e+3, 3.084697e+2, -489082.63, -136694.45, 26241.941, -0.13852054, -0.5465765, -134750.97, -134750.97, 0.0, 9.996224, 10.000878 
2.7741992e+3, 3.1847095e+2, -481243.78, -77407.51, -3113.3293, -0.024595136, -0.4489289, -77383.51, -77383.51, 0.0, 9.996029, 10.001384 
2.7860355e+3, 1.2859258e+2, -1077264.8, -1665568.4, 50618.543, -0.073997356, -0.46889368, -1072941.1, 606802.2, 0.0005167475, 10.005505, 9.997685 
2.7859375e+3, 1.385892e+2, -1096898.8, -1618414.0, 49167.934, -0.054964624, -0.5253074, -1092303.8, 489472.1, 0.00023229404, 10.004668, 9.997739 
2.785839e+3, 1.4858653e+2, -1041500.75, -1494741.3, 78217.92, -0.05478306, -0.5378759, -1028382.0, 455419.47, 0.00006541658, 10.004187, 9.99814 
2.7857414e+3, 1.585842e+2, -991044.94, -1413306.6, 92061.15, -0.034029506, -0.5354422, -971846.7, 413977.28, 0.000008487622, 10.003834, 9.998197 
2.785644e+3, 1.6858241e+2, -912472.1, -1280637.3, 127120.31, -0.030175516, -0.5064439, -872845.1, 414996.66, 0.00000018060803, 10.003515, 9.998584 
2.785547e+3, 1.785808e+2, -862713.06, -1206594.6, 125770.86, -0.036357902, -0.474892, -821623.44, 368234.56, 0.0, 10.003185, 9.998581 
2.7854505e+3, 1.8857877e+2, -851490.1, -1118018.5, 143880.3, -0.027934711, -0.50236607, -788639.9, 303238.38, 0.0, 10.002458, 9.998862 
2.785354e+3, 1.9857675e+2, -863720.1, -1066143.1, 141235.58, -0.0148125375, -0.54110885, -791175.3, 202722.89, 0.0, 10.001671, 9.998925 
2.7852574e+3, 2.0857562e+2, -772662.06, -929210.5, 145166.88, -0.018773347, -0.5172597, -686011.2, 209898.48, 0.0, 10.001441, 9.999303 
2.7851608e+3, 2.185748e+2, -697124.44, -847961.7, 159698.19, -0.02518533, -0.4779294, -595931.94, 201986.44, 0.0, 10.001308, 9.999253 
2.7850652e+3, 2.2857372e+2, -710385.1, -781730.6, 179610.0, -0.011403438, -0.46983266, -562939.56, 136989.78, 0.0, 10.000451, 9.999448 
2.7849698e+3, 2.3857266e+2, -748591.8, -735727.75, 172710.75, 0.008713678, -0.47288516, -569329.3, 32610.861, 0.0, 9.999457, 9.999569 
2.7848738e+3, 2.485717e+2, -648218.4, -581998.6, 152554.67, 0.006429076, -0.50530756, -459002.13, 44947.016, 0.0, 9.999238, 10.000058 
2.7847773e+3, 2.5857085e+2, -578786.4, -524351.75, 154431.81, -0.005856944, -0.5395288, -394757.2, 11199.691, 0.0, 9.999156, 9.999821 
2.784681e+3, 2.6857066e+2, -575955.25, -484842.4, 141369.64, -0.021867355, -0.48214838, -381870.16, -73909.164, 0.0, 9.998558, 9.999706 
2.7845848e+3, 2.7857065e+2, -567221.3, -407721.25, 140792.55, -0.023207568, -0.40564713, -325660.88, -115697.54, 0.0, 9.997849, 9.999905 
2.7844885e+3, 2.885702e+2, -461615.8, -231834.7, 111711.42, 0.0071152737, -0.43382734, -186477.69, -74510.8, 0.0, 9.997575, 10.000575 
2.7843913e+3, 2.985697e+2, -410530.9, -180287.06, 93985.61, 0.002341592, -0.4865982, -146794.2, -132824.34, 0.0, 9.9973545, 10.000364 
2.7842924e+3, 3.08569e+2, -445733.25, -161770.64, 37675.125, -0.09891639, -0.54442674, -156857.06, -156857.06, 0.0, 9.996727, 10.000461 
2.7841952e+3, 3.1856987e+2, -426947.44, -36292.914, 42383.227, 0.023196517, -0.4498717, -31747.523, -31747.523, 0.0, 9.996345, 10.001511 
2.7960405e+3, 1.2869127e+2, -1081301.0, -1648815.4, 18971.205, -0.07846958, -0.5479308, -1080667.6, 598106.7, 0.00021758814, 10.005395, 9.997853 
2.7959418e+3, 1.3868897e+2, -1085320.4, -1589109.5, 24866.645, -0.021591835, -0.5140908, -1084096.0, 496700.88, 0.00008932883, 10.0046425, 9.997953 
2.795843e+3, 1.4868672e+2, -1023672.2, -1457029.5, 65939.24, -0.041332986, -0.5114578, -1013861.06, 468957.63, 0.000021114858, 10.00418, 9.998404 
2.7957445e+3, 1.5868454e+2, -981374.5, -1389425.6, 80229.89, -0.051098462, -0.51919526, -966166.7, 418673.1, 0.00000183824, 10.003815, 9.998371 
2.795647e+3, 1.686823e+2, -920192.3, -1288112.3, 116137.31, -0.03697119, -0.53796166, -886599.6, 400262.13, 0.0000000041088697, 10.003476, 9.998554 
2.79555e+3, 1.786802e+2, -870792.56, -1211223.4, 107083.78, -0.025955522, -0.55359894, -839910.44, 348972.4, 0.0, 10.003131, 9.998576 
2.7954525e+3, 1.8867879e+2, -851493.5, -1114065.3, 113179.16, -0.032307558, -0.5199031, -809443.0, 281454.7, 0.0, 10.002439, 9.998899 
2.795355e+3, 1.9867763e+2, -857579.3, -1055460.8, 121017.5, -0.038489167, -0.47730148, -800204.6, 192705.67, 0.0, 10.0016775, 9.998997 
2.7952582e+3, 2.0867638e+2, -766494.94, -916729.6, 143190.7, -0.021573339, -0.47624928, -679914.44, 215008.61, 0.0, 10.001439, 9.999391 
2.795162e+3, 2.1867514e+2, -697000.56, -844464.56, 143955.31, -0.0013655003, -0.48621285, -608993.44, 187941.97, 0.0, 10.001292, 9.999287 
2.795065e+3, 2.2867377e+2, -716215.4, -793142.44, 139830.22, 0.0036687183, -0.5039924, -609655.0, 89294.13, 0.0, 10.000446, 9.999373 
2.7949688e+3, 2.3867251e+2, -753716.2, -745992.0, 147119.45, 0.00565019, -0.51744324, -602683.94, -1722.2761, 0.0, 9.999453, 9.999503 
2.7948722e+3, 2.4867234e+2, -653336.4, -593251.06, 152135.11, -0.0032177358, -0.46496254, -468220.66, 34743.594, 0.0, 9.999238, 9.999982 
2.794776e+3, 2.586724e+2, -579305.1, -530936.94, 143187.16, -0.020088583, -0.40440568, -409905.94, -4941.1855, 0.0, 9.999177, 9.999767 
2.794679e+3, 2.686711e+2, -577660.8, -491223.06, 112332.29, -0.023128, -0.45070046, -414082.4, -107104.29, 0.0, 9.998566, 9.9996605 
2.7945822e+3, 2.7866963e+2, -574524.8, -421945.97, 121380.13, -0.0062498776, -0.5140833, -354871.47, -145878.64, 0.0, 9.997843, 9.999812 
2.7944857e+3, 2.8866976e+2, -473613.25, -259495.27, 106236.77, 0.00067970954, -0.46526068, -215730.25, -104738.836, 0.0, 9.997584, 10.000381 
2.794388e+3, 2.9867032e+2, -418783.6, -206037.03, 77748.11, -0.046305742, -0.39454344, -180652.8, -167666.97, 0.0, 9.997389, 10.000173 
2.7942902e+3, 3.0866918e+2, -455292.84, -183390.33, 5905.2314, 0.02171965, -0.48034492, -183262.14, -183262.14, 0.0, 9.996729, 10.000313 
2.794191e+3, 3.1866893e+2, -410576.6, -8355.269, 124309.016, -0.016571512, -0.4882487, 26962.135, 26962.135, 0.0, 9.996372, 10.001689 
2.806045e+3, 1.287912e+2, -1209538.6, -1686436.0, 33138.35, -0.059026167, -0.55306166, -1207247.0, 470547.13, 0.000073158684, 10.004408, 9.998071 
2.8059462e+3, 1.3878892e+2, -1154697.9, -1598737.6, 41512.16, -0.0061511346, -0.53620625, -1150850.4, 428965.78, 0.000025694264, 10.004065, 9.998165 
2.8058463e+3, 1.4878698e+2, -1078850.3, -1463060.3, 82625.22, -0.036709234, -0.52312183, -1061835.1, 420000.28, 0.000004412523, 10.003714, 9.998587 
2.8057477e+3, 1.5878509e+2, -1038455.06, -1402765.3, 90182.664, -0.056069825, -0.51633894, -1017353.2, 366500.56, 0.00000013286218, 10.003362, 9.998497 
2.8056496e+3, 1.6878285e+2, -1016943.75, -1331066.8, 126307.17, -0.03498795, -0.5411803, -972456.7, 313419.34, 0.0, 10.002802, 9.998582 
2.805552e+3, 1.7878069e+2, -993522.8, -1256463.9, 123666.195, -0.015848642, -0.5673061, -944500.06, 243397.77, 0.0, 10.002237, 9.9986925 
2.805454e+3, 1.8877949e+2, -895452.7, -1115208.9, 138319.31, -0.03159691, -0.5278874, -828680.2, 261230.31, 0.0, 10.002052, 9.999077 
2.805356e+3, 1.9877858e+2, -815924.0, -1026168.6, 152788.3, -0.047136396, -0.47501674, -735587.5, 256333.2, 0.0, 10.001923, 9.999081 
2.8052592e+3, 2.087773e+2, -802753.06, -941981.56, 165874.08, -0.022607448, -0.47292784, -692477.5, 201456.5, 0.0, 10.001227, 9.999317 
2.8051624e+3, 2.1877597e+2, -818599.75, -900563.5, 157192.83, 0.007403826, -0.48515114, -697134.4, 98813.08, 0.0, 10.000453, 9.999303 
2.8050652e+3, 2.2877464e+2, -713843.25, -777082.25, 162586.36, 0.0029383453, -0.5082992, -579830.3, 118130.17, 0.0, 10.000403, 9.999501 
2.804968e+3, 2.3877344e+2, -611161.25, -681291.8, 182510.73, -0.006552627, -0.5261879, -460377.8, 139594.42, 0.0, 10.000453, 9.999463 
2.8048712e+3, 2.4877317e+2, -611288.06, -609922.56, 173269.27, -0.015169626, -0.4567713, -437334.7, 64641.895, 0.0, 9.999691, 9.999647 
2.8047743e+3, 2.5877312e+2, -645480.25, -576363.3, 148068.28, -0.026593752, -0.37542418, -458874.06, -54894.914, 0.0, 9.998787, 9.99964 
2.8046772e+3, 2.687717e+2, -553872.2, -459286.38, 129465.01, -0.022006141, -0.44177806, -368746.75, -62753.977, 0.0, 9.998643, 9.999842 
2.80458e+3, 2.787701e+2, -462884.03, -369495.7, 152895.86, 0.0015236306, -0.53561735, -256322.77, -48314.836, 0.0, 9.998614, 9.999801 
2.8044826e+3, 2.8877023e+2, -443190.06, -283060.97, 128142.77, -0.006969869, -0.46020272, -212026.55, -102019.46, 0.0, 9.997962, 10.000036 
2.8043845e+3, 2.9877084e+2, -461848.56, -255722.7, 91131.734, -0.06771668, -0.3515544, -221210.34, -209208.1, 0.0, 9.997223, 9.999908 
2.804287e+3, 3.0876902e+2, -359384.66, -152132.31, 25031.72, 0.09113601, -0.48871893, -149151.88, -149151.88, 0.0, 9.997454, 10.000177 
2.8041866e+3, 3.187689e+2, -290747.75, 29342.72, 137040.17, -0.077931836, -0.47106215, 79997.48, 79997.48, 0.0, 9.997285, 10.001505 
2.8160495e+3, 1.2889203e+2, -1197378.1, -1656368.3, 21491.744, -0.031032702, -0.5110934, -1196374.0, 480431.75, 0.0000169402, 10.004389, 9.998285 
2.8159493e+3, 1.3888907e+2, -1150162.8, -1576696.3, 29713.662, -0.00473416, -0.58399594, -1148102.8, 430730.94, 0.000004464997, 10.004009, 9.998343 
2.8158495e+3, 1.4888734e+2, -1078623.5, -1451949.6, 70500.15, -0.03701787, -0.56268513, -1065753.6, 415097.5, 0.00000037420037, 10.003664, 9.998689 
2.8157505e+3, 1.588859e+2, -1036036.6, -1389967.6, 74000.3, -0.050556004, -0.52281475, -1021187.56, 361678.3, 0.0000000005064632, 10.003326, 9.998604 
2.8156522e+3, 1.6888404e+2, -1010919.75, -1318188.5, 105115.12, -0.028723339, -0.52018553, -978401.75, 306483.06, 0.0, 10.002797, 9.998673 
2.8155538e+3, 1.7888215e+2, -978704.3, -1229536.3, 110232.54, -0.010852258, -0.52692115, -937146.1, 249757.73, 0.0, 10.002251, 9.998872 
2.8154558e+3, 1.888808e+2, -876986.94, -1075770.6, 136069.0, -0.02689858, -0.5300465, -807875.0, 281042.44, 0.0, 10.002045, 9.999352 
2.8153577e+3, 1.9887961e+2, -814599.0, -1016707.1, 138384.17, -0.0436425, -0.5279663, -744299.3, 246630.06, 0.0, 10.001891, 9.999162 
2.81526e+3, 2.0887843e+2, -820178.75, -977191.25, 134143.88, -0.023069805, -0.50237733, -743257.1, 149685.23, 0.0, 10.001222, 9.99908 
2.8151622e+3, 2.188773e+2, -818829.3, -902566.7, 139923.23, 0.0008685802, -0.4753268, -714644.94, 80309.9, 0.0, 10.000458, 9.999288 
2.815065e+3, 2.2887632e+2, -690269.5, -730279.1, 167954.56, -0.013218202, -0.48399368, -541132.56, 155831.08, 0.0, 10.00041, 9.999821 
2.8149676e+3, 2.3887542e+2, -611935.9, -685705.9, 171397.33, -0.033088077, -0.49823898, -473499.6, 125472.2, 0.0, 10.000463, 9.99943 
2.8148705e+3, 2.4887416e+2, -654541.9, -700173.06, 135762.28, -0.030104805, -0.48383617, -539691.44, -38704.965, 0.0, 9.999689, 9.999029 
2.8147727e+3, 2.58873e+2, -662210.5, -608686.56, 125630.57, -0.025840962, -0.46126813, -506999.2, -103998.28, 0.0, 9.998774, 9.999427 
2.8146756e+3, 2.6887253e+2, -524318.7, -398804.22, 132203.36, -0.018929536, -0.454437, -315218.72, -10213.909, 0.0, 9.998645, 10.0002575 
2.814578e+3, 2.7887222e+2, -453768.9, -358070.66, 142709.88, -0.0018185778, -0.45242634, -255401.86, -48395.277, 0.0, 9.998644, 9.9998665 
2.81448e+3, 2.8887165e+2, -481202.25, -363138.1, 95471.68, -0.016259301, -0.41478717, -309922.13, -200908.86, 0.0, 9.997963, 9.999488 
2.814381e+3, 2.9887098e+2, -489600.0, -308909.3, 78586.2, -0.0653619, -0.3801419, -279512.94, -268491.72, 0.0, 9.997201, 9.999556 
2.8142843e+3, 3.0886832e+2, -359447.47, -165506.83, 46681.93, 0.09412729, -0.58394456, -154855.38, -154855.38, 0.0, 9.997508, 10.000061 
2.8141835e+3, 3.1886983e+2, -336488.6, -69479.09, 638.61426, -0.06556441, -0.37823403, -69477.56, -69477.56, 0.0, 9.9972925, 10.000827 
2.826053e+3, 1.2899289e+2, -1262148.5, -1665137.8, 34913.754, -0.025701536, -0.513983, -1259146.1, 416671.22, 0.00000202772, 10.003846, 9.9984865 
2.8259528e+3, 1.3899018e+2, -1228921.5, -1595115.8, 44603.793, 0.0020985752, -0.5823107, -1223566.9, 354275.9, 0.00000028941432, 10.0033865, 9.998516 
2.8258526e+3, 1.4898853e+2, -1170794.3, -1485939.5, 88539.13, -0.030504882, -0.56170416, -1147623.1, 332236.3, 0.0000000018666946, 10.002992, 9.998776 
2.8257528e+3, 1.5898716e+2, -1120560.0, -1410798.9, 91926.35, -0.04536397, -0.5238386, -1093894.4, 287979.1, 0.0, 10.002665, 9.998777 
2.8256541e+3, 1.6898555e+2, -1039466.5, -1305099.9, 128546.39, -0.037699126, -0.5194335, -987446.94, 296443.1, 0.0, 10.002486, 9.998914 
2.8255555e+3, 1.7898391e+2, -960773.7, -1206866.6, 138897.05, -0.031137345, -0.52170205, -898259.3, 287647.16, 0.0, 10.002312, 9.999001 
2.8254572e+3, 1.8898256e+2, -921577.56, -1100513.3, 149501.89, -0.024572851, -0.52490854, -836817.6, 251102.61, 0.0, 10.001758, 9.999319 
2.825359e+3, 1.9898133e+2, -914699.9, -1058302.9, 136885.64, -0.018286912, -0.5266543, -831927.4, 158005.56, 0.0, 10.001184, 9.999211 
2.8252608e+3, 2.0898014e+2, -813898.3, -960224.5, 150238.1, -0.024782097, -0.5105033, -719955.7, 171989.6, 0.0, 10.001209, 9.9992 
2.8251624e+3, 2.1897905e+2, -697285.5, -843180.5, 175259.81, -0.031453613, -0.4900904, -580397.94, 213559.08, 0.0, 10.001291, 9.999293 
2.825065e+3, 2.289781e+2, -690877.75, -751399.06, 173903.53, -0.029329602, -0.48262474, -544621.7, 151344.4, 0.0, 10.000499, 9.999632 
2.8249672e+3, 2.389772e+2, -745825.9, -760881.8, 146896.86, -0.024329256, -0.47921094, -606264.25, -8289.437, 0.0, 9.999594, 9.9993305 
2.8248698e+3, 2.4897566e+2, -658344.7, -700534.7, 144342.08, -0.026691247, -0.48969403, -533564.25, -33572.688, 0.0, 9.99966, 9.99904 
2.8247714e+3, 2.5897416e+2, -511716.03, -544035.75, 173637.83, -0.03285626, -0.49811307, -353487.72, 48520.938, 0.0, 9.999841, 9.999356 
2.824674e+3, 2.6897383e+2, -463830.03, -390659.97, 148501.48, -0.025887676, -0.46187508, -274303.3, 29708.385, 0.0, 9.999154, 10.000067 
2.8245762e+3, 2.7897376e+2, -508327.2, -395039.03, 118137.49, -0.003870262, -0.41897225, -320667.78, -114656.05, 0.0, 9.998323, 9.9997635 
2.824478e+3, 2.8897282e+2, -445785.25, -349270.5, 95775.78, -0.01541542, -0.41189334, -290281.56, -182259.89, 0.0, 9.998222, 9.999457 
2.8243783e+3, 2.9897168e+2, -344901.53, -251421.02, 123698.586, -0.06244915, -0.41950372, -165926.67, -155892.53, 0.0, 9.998245, 9.999448 
2.8242812e+3, 3.0896935e+2, -316204.9, -172486.44, 100367.61, 0.062900096, -0.56627756, -120905.77, -120905.77, 0.0, 9.997929, 9.999809 
2.8241807e+3, 3.1897068e+2, -304593.4, -41787.023, -34736.35, -0.034317218, -0.3634168, -37273.28, -37273.28, 0.0, 9.997466, 10.000929 
2.836056e+3, 1.2909389e+2, -1259297.3, -1638903.9, 17238.166, -0.029706487, -0.5417969, -1258516.1, 416311.75, 0.0000000446266, 10.003758, 9.998709 
2.8359556e+3, 1.3909206e+2, -1220844.4, -1571113.0, 28874.545, 0.005550437, -0.5425253, -1218480.0, 358364.8, 0.000000000017311715, 10.003353, 9.998698 
2.835855e+3, 1.4909041e+2, -1166226.1, -1475869.8, 75960.5, -0.025996689, -0.5326869, -1148595.6, 330265.75, 0.0, 10.002987, 9.99885 
2.835755e+3, 1.5908886e+2, -1107056.4, -1383559.6, 82738.85, -0.043806452, -0.5232854, -1084189.4, 296687.94, 0.0, 10.0026655, 9.998965 
2.835656e+3, 1.6908737e+2, -1019746.6, -1259828.6, 122928.15, -0.05735782, -0.5348316, -967970.4, 314921.56, 0.0, 10.002465, 9.999235 
2.835557e+3, 1.7908596e+2, -960852.9, -1197980.1, 124476.03, -0.06991675, -0.54432493, -907510.6, 277395.3, 0.0, 10.002271, 9.999082 
2.8354585e+3, 1.8908478e+2, -942131.7, -1142491.5, 125150.02, -0.024708701, -0.51239496, -882003.94, 204915.16, 0.0, 10.001753, 9.999034 
2.8353602e+3, 1.9908367e+2, -911503.75, -1055068.5, 125572.805, 0.023344796, -0.47824413, -838644.4, 150287.19, 0.0, 10.001197, 9.999229 
2.8352615e+3, 2.0908242e+2, -782321.7, -895932.9, 156826.36, -0.029300753, -0.5006044, -672329.9, 218613.14, 0.0, 10.001212, 9.999641 
2.8351626e+3, 2.1908118e+2, -700024.0, -845855.6, 163585.89, -0.09328181, -0.5291813, -593839.1, 199115.13, 0.0, 10.001276, 9.999283 
2.8350648e+3, 2.2907993e+2, -741164.5, -854124.2, 135737.38, -0.044805035, -0.5029496, -650625.25, 44342.594, 0.0, 10.000489, 9.998932 
2.834967e+3, 2.3907873e+2, -758388.25, -785039.3, 128651.55, 0.02120572, -0.4681841, -642373.94, -45392.707, 0.0, 9.999582, 9.99917 
2.834869e+3, 2.490777e+2, -612291.94, -606899.6, 156023.73, -0.0054831123, -0.47219434, -453548.75, 45443.04, 0.0, 9.999666, 9.9996805 
2.8347707e+3, 2.5907668e+2, -503485.1, -535713.5, 166537.27, -0.054286547, -0.48098215, -352284.25, 48717.39, 0.0, 9.999876, 9.999398 
2.8346723e+3, 2.6907557e+2, -524099.13, -518130.56, 112596.195, -0.04499451, -0.4653968, -408479.1, -105465.31, 0.0, 9.999161, 9.99919 
2.834574e+3, 2.7907446e+2, -529984.94, -436071.34, 96828.43, -0.00804306, -0.44799644, -375414.56, -170389.06, 0.0, 9.998304, 9.999493 
2.8344756e+3, 2.8907374e+2, -402984.0, -262679.75, 100002.05, -0.0028083774, -0.45921358, -210677.34, -103644.23, 0.0, 9.998231, 10.00005 
2.8343764e+3, 2.9907313e+2, -325454.94, -222920.2, 121326.445, -0.05440716, -0.462214, -142474.05, -133435.1, 0.0, 9.998294, 9.999622 
2.8342777e+3, 3.090726e+2, -348723.22, -239862.02, 83259.55, -0.021208797, -0.4017379, -194819.8, -194819.8, 0.0, 9.997925, 9.99935 
2.834178e+3, 3.1907097e+2, -229188.88, 116538.83, -43838.445, 0.005438051, -0.48242277, 122010.95, 122010.95, 0.0, 9.997457, 10.002023 
2.8460592e+3, 1.2919556e+2, -1383102.8, -1679202.9, 28521.379, -0.0016426945, -0.5296307, -1380380.5, 293451.25, 0.0, 10.002825, 9.998882 
2.845958e+3, 1.3919392e+2, -1302342.1, -1591937.9, 35398.88, -0.021073291, -0.5283908, -1298077.9, 277769.16, 0.0, 10.002714, 9.998862 
2.845857e+3, 1.4919227e+2, -1221745.4, -1490180.6, 83985.875, -0.037822768, -0.5317744, -1197634.3, 280229.4, 0.0, 10.002553, 9.99896 
2.8457573e+3, 1.5919071e+2, -1139106.0, -1383219.4, 90882.8, -0.026493981, -0.53489727, -1108986.8, 270892.75, 0.0, 10.002378, 9.999105 
2.8456578e+3, 1.6918956e+2, -1078578.9, -1267629.6, 123094.76, -0.039590225, -0.52883315, -1017903.25, 263987.75, 0.0, 10.001977, 9.9994135 
2.8455582e+3, 1.7918848e+2, -1053327.1, -1227946.9, 120277.73, -0.061565313, -0.52083, -992010.8, 191890.9, 0.0, 10.00158, 9.999205 
2.8454596e+3, 1.8918721e+2, -972385.1, -1158757.4, 133710.55, -0.029442776, -0.501262, -902592.2, 183323.47, 0.0, 10.001555, 9.999017 
2.845361e+3, 1.9918595e+2, -857840.6, -1028888.44, 147793.56, 0.011711995, -0.47995737, -772609.5, 215320.11, 0.0, 10.001563, 9.999234 
2.845262e+3, 2.091848e+2, -802987.3, -902539.8, 158112.27, -0.030206533, -0.49545133, -687001.2, 202938.94, 0.0, 10.001058, 9.999669 
2.845163e+3, 2.1918365e+2, -811711.3, -899472.1, 139719.58, -0.084342025, -0.51628375, -709143.6, 82806.62, 0.0, 10.000512, 9.999281 
2.8450647e+3, 2.2918221e+2, -730812.44, -857478.6, 139922.58, -0.05186476, -0.50326306, -640557.1, 53408.33, 0.0, 10.0006, 9.998854 
2.8449664e+3, 2.3918082e+2, -600850.2, -718107.06, 171915.03, -0.0012442401, -0.48143947, -477841.4, 118139.48, 0.0, 10.000707, 9.999087 
2.8448683e+3, 2.4917983e+2, -583921.3, -603120.5, 161509.27, -0.017639903, -0.46904826, -431726.63, 66264.0, 0.0, 9.999906, 9.99959 
2.8447697e+3, 2.5917894e+2, -636802.2, -608498.75, 126460.836, -0.049906153, -0.46047583, -495400.28, -95400.95, 0.0, 9.999002, 9.999316 
2.844671e+3, 2.691774e+2, -540822.9, -539080.06, 112334.52, -0.042686425, -0.4751034, -427613.56, -125598.39, 0.0, 9.999103, 9.999075 
2.8445724e+3, 2.7917585e+2, -388853.6, -380186.2, 146065.56, -0.013144863, -0.4914047, -238390.05, -34358.656, 0.0, 9.999321, 9.99939 
2.8444734e+3, 2.891753e+2, -320144.63, -231117.13, 116183.12, -0.019267274, -0.4710073, -151212.27, -45175.215, 0.0, 9.9988365, 9.999974 
2.844374e+3, 2.9917505e+2, -335473.84, -226801.94, 91198.72, -0.07256478, -0.43533817, -174979.5, -166939.75, 0.0, 9.998231, 9.999621 
2.8442758e+3, 3.0917436e+2, -332620.84, -227599.92, 77045.27, 0.04716768, -0.39608607, -186872.4, -186872.4, 0.0, 9.998023, 9.999385 
2.8441754e+3, 3.19172e+2, -107030.695, 182932.16, -11589.031, 0.011632235, -0.55182666, 183394.61, 183394.61, 0.0, 9.998266, 10.002089 
2.856062e+3, 1.2929773e+2, -1385096.9, -1668043.6, 22664.4, 0.033190425, -0.49467993, -1383293.0, 289538.0, 0.0, 10.00276, 9.998989 
2.8559598e+3, 1.3929582e+2, -1296473.4, -1574464.1, 29580.568, -0.06473926, -0.5325782, -1293360.6, 281488.44, 0.0, 10.002691, 9.998994 
2.855859e+3, 1.4929418e+2, -1216631.5, -1473598.5, 77091.12, -0.05550728, -0.5477422, -1195278.3, 281587.06, 0.0, 10.002525, 9.999088 
2.8557596e+3, 1.5929276e+2, -1136819.5, -1368902.8, 79569.31, 0.0028829915, -0.55161166, -1112159.5, 266720.38, 0.0, 10.002336, 9.999225 
2.8556597e+3, 1.6929208e+2, -1073632.6, -1255864.3, 105978.234, 0.003001296, -0.5070613, -1024986.2, 255900.97, 0.0, 10.001969, 9.999499 
2.8555602e+3, 1.7929146e+2, -1041646.25, -1207584.8, 111383.66, -0.02061341, -0.46339408, -985726.3, 197167.66, 0.0, 10.001595, 9.999338 
2.8554603e+3, 1.8928987e+2, -959390.2, -1132067.3, 136127.38, -0.0398055, -0.4928576, -884530.06, 200379.97, 0.0, 10.001554, 9.999203 
2.8553614e+3, 1.9928819e+2, -863877.25, -1035642.0, 139057.55, -0.048269726, -0.52674663, -786319.1, 200607.78, 0.0, 10.001537, 9.999201 
2.8552628e+3, 2.0928727e+2, -828517.0, -954601.0, 134811.8, -0.0257218, -0.4928711, -742735.25, 146201.22, 0.0, 10.001053, 9.999314 
2.8551638e+3, 2.1928646e+2, -810823.5, -897292.94, 130042.836, -0.008457119, -0.45428607, -717016.7, 73928.26, 0.0, 10.000509, 9.999298 
2.8550646e+3, 2.2928496e+2, -693580.0, -782227.44, 148586.92, -0.055014666, -0.48475626, -582846.7, 110112.16, 0.0, 10.000607, 9.999368 
2.8549656e+3, 2.3928337e+2, -601959.4, -724804.44, 160613.45, -0.10234918, -0.5196108, -491424.34, 103549.44, 0.0, 10.000723, 9.999035 
2.854867e+3, 2.4928205e+2, -644019.4, -727161.6, 121955.47, -0.06331124, -0.4807727, -556744.5, -59756.098, 0.0, 9.999901, 9.998742 
2.8547686e+3, 2.5928077e+2, -652568.44, -636556.2, 108106.66, -0.015804706, -0.43821567, -536159.6, -137157.14, 0.0, 9.9989805, 9.999136 
2.85467e+3, 2.692793e+2, -490347.1, -435081.0, 125928.6, -0.017112289, -0.49238172, -333789.28, -32773.37, 0.0, 9.9991045, 9.999789 
2.854571e+3, 2.7927792e+2, -379631.28, -371735.72, 143782.47, -0.02129742, -0.54730844, -231846.86, -28818.752, 0.0, 9.999364, 9.999429 
2.8544712e+3, 2.8927767e+2, -381510.97, -362020.8, 90247.016, -0.073476575, -0.43655792, -280994.25, -175961.77, 0.0, 9.99885, 9.99907 
2.854371e+3, 2.9927737e+2, -351221.16, -255236.67, 70634.43, -0.13102129, -0.32986724, -217832.9, -210795.6, 0.0, 9.998212, 9.999435 
2.854276e+3, 3.092739e+2, -285537.78, -127284.32, 73086.61, 0.32328093, -0.6145845, -98695.25, -98695.25, 0.0, 9.998013, 10.00008 
2.8541723e+3, 3.1927463e+2, -201129.64, -23410.355, 39003.105, -0.08674862, -0.48407093, -15227.335, -15227.335, 0.0, 9.998309, 10.000652 
2.8660637e+3, 1.293994e+2, -1475114.6, -1682348.5, 24084.963, 0.024926847, -0.5071868, -1472352.3, 199483.03, 0.0, 10.002014, 9.999251 
2.8659618e+3, 1.3939792e+2, -1372890.4, -1586545.8, 35807.75, -0.055457186, -0.52554786, -1367048.9, 206800.0, 0.0, 10.00206, 9.999214 
2.8658608e+3, 1.4939652e+2, -1304129.6, -1499756.9, 79931.805, -0.047634996, -0.5344055, -1275623.8, 200239.13, 0.0, 10.001859, 9.999228 
2.865761e+3, 1.5939523e+2, -1230342.0, -1400138.9, 83462.305, 0.0059336415, -0.5373246, -1196187.0, 181689.19, 0.0, 10.0016365, 9.999345 
2.865661e+3, 1.6939455e+2, -1121288.5, -1272108.5, 107676.52, 0.0030699992, -0.501864, -1065241.6, 214642.08, 0.0, 10.001616, 9.9995575 
2.865561e+3, 1.7939393e+2, -1029841.1, -1186871.1, 110733.74, -0.019659339, -0.46415183, -972611.6, 209278.78, 0.0, 10.00161, 9.999474 
2.8654614e+3, 1.8939255e+2, -977456.1, -1114232.3, 138252.67, -0.040212017, -0.4928617, -891601.75, 192302.06, 0.0, 10.001317, 9.999437 
2.8653622e+3, 1.9939107e+2, -935649.4, -1060702.9, 144996.42, -0.053666864, -0.5281121, -840272.56, 145645.66, 0.0, 10.001007, 9.999281 
2.8652632e+3, 2.0939004e+2, -850600.7, -982533.06, 148991.3, -0.028037397, -0.49528942, -753625.3, 134303.88, 0.0, 10.000979, 9.999156 
2.8651643e+3, 2.1938911e+2, -747868.7, -871255.44, 156558.7, -0.0016417736, -0.45370996, -641286.44, 148652.97, 0.0, 10.000962, 9.999258 
2.865065e+3, 2.2938773e+2, -697361.5, -772695.7, 154493.2, -0.052778237, -0.4801109, -576009.9, 115942.1, 0.0, 10.000534, 9.999468 
2.8649655e+3, 2.3938623e+2, -695028.7, -769378.4, 139192.69, -0.108293906, -0.51390743, -588132.06, 5833.2944, 0.0, 10.000087, 9.999033 
2.8648666e+3, 2.493846e+2, -616463.25, -733605.94, 131108.61, -0.07620643, -0.4919231, -531437.7, -35455.125, 0.0, 10.000178, 9.998563 
2.8647673e+3, 2.59383e+2, -478181.0, -567161.44, 161255.13, -0.031433582, -0.46491984, -355391.22, 42608.63, 0.0, 10.000241, 9.999004 
2.8646687e+3, 2.6938155e+2, -420974.7, -408320.44, 140432.88, -0.022100065, -0.5054134, -274072.22, 25940.516, 0.0, 9.999612, 9.999727 
2.8645697e+3, 2.7938032e+2, -454738.56, -413519.3, 106781.484, -0.01184819, -0.542478, -325376.72, -123353.21, 0.0, 9.99888, 9.99937 
2.8644696e+3, 2.8938e+2, -391853.2, -378220.75, 98274.55, -0.06650402, -0.42992344, -286526.3, -182498.33, 0.0, 9.998832, 9.998965 
2.8643692e+3, 2.9937947e+2, -241951.5, -207825.92, 134256.27, -0.12873529, -0.33712497, -89552.53, -83517.69, 0.0, 9.998986, 9.999391 
2.864274e+3, 3.0937484e+2, -112748.25, -46053.164, 106198.08, 0.31850174, -0.732235, 31910.074, 31910.074, 0.0, 9.999212, 10.000059 
2.86417e+3, 3.1937724e+2, -166152.11, -88913.87, 28757.148, -0.10425527, -0.41663066, -79383.12, -79383.12, 0.0, 9.998911, 9.999909 
2.876065e+3, 1.2950082e+2, -1448627.8, -1625439.1, 26823.22, -0.006422109, -0.5450354, -1444648.1, 226193.67, 0.0, 10.0020075, 9.999644 
2.8759637e+3, 1.3950025e+2, -1350692.0, -1543806.9, 32279.033, -0.014393844, -0.51150537, -1345439.4, 227407.03, 0.0, 10.002073, 9.999501 
2.8758624e+3, 1.494992e+2, -1293222.4, -1479039.6, 69503.13, -0.028807968, -0.5042068, -1270102.1, 204755.11, 0.0, 10.001865, 9.999368 
2.875762e+3, 1.5949805e+2, -1224939.8, -1387902.4, 78289.69, -0.015386401, -0.5039106, -1193423.4, 183445.77, 0.0, 10.001631, 9.999433 
2.8756618e+3, 1.69497e+2, -1122670.9, -1272046.0, 109056.93, -0.028188653, -0.50880826, -1065178.1, 213701.9, 0.0, 10.0016, 9.999566 
2.8755617e+3, 1.7949605e+2, -1024360.75, -1169391.3, 105706.55, -0.048693363, -0.5090929, -968687.3, 212202.42, 0.0, 10.001583, 9.999607 
2.8754625e+3, 1.894953e+2, -958168.1, -1073212.5, 124872.836, -0.0324449, -0.4987495, -878205.7, 204690.95, 0.0, 10.001312, 9.999722 
2.875363e+3, 1.9949451e+2, -924111.6, -1036699.4, 137528.84, -0.014900333, -0.49183723, -831801.4, 153102.61, 0.0, 10.001005, 9.999448 
2.8752634e+3, 2.0949309e+2, -849695.7, -981132.75, 150094.64, -0.0403883, -0.5040225, -751562.7, 135355.83, 0.0, 10.000978, 9.999168 
2.8751642e+3, 2.1949162e+2, -758192.75, -889632.6, 148482.03, -0.06703814, -0.51318955, -661536.5, 127397.1, 0.0, 10.000948, 9.999139 
2.875065e+3, 2.2949049e+2, -719173.7, -817023.7, 135014.42, -0.041458856, -0.48788202, -624493.2, 66451.5, 0.0, 10.000529, 9.9991665 
2.874966e+3, 2.3948935e+2, -690675.1, -759846.44, 132051.73, -0.014569702, -0.46534976, -588755.0, 4200.7476, 0.0, 10.000083, 9.999101 
2.874866e+3, 2.494875e+2, -580177.5, -661287.0, 138643.56, -0.0598011, -0.50369084, -476279.06, 18693.922, 0.0, 10.000189, 9.999055 
2.8747663e+3, 2.594856e+2, -481545.72, -584041.1, 152550.34, -0.111794606, -0.5417704, -371865.06, 25125.879, 0.0, 10.000281, 9.99887 
2.8746673e+3, 2.6948416e+2, -485855.94, -544785.06, 108434.24, -0.061706536, -0.5103883, -402954.38, -103948.72, 0.0, 9.999618, 9.998787 
2.8745684e+3, 2.7948293e+2, -465257.78, -431753.8, 86808.46, 0.014836011, -0.47107303, -360095.75, -159077.39, 0.0, 9.998862, 9.999255 
2.874469e+3, 2.8948218e+2, -330836.2, -252184.27, 105953.85, 0.014914931, -0.4635901, -178493.63, -75469.26, 0.0, 9.998832, 9.999832 
2.8743684e+3, 2.994812e+2, -230693.31, -193626.48, 145273.33, -0.052276783, -0.48090422, -65709.13, -60677.03, 0.0, 9.999027, 9.999468 
2.8742692e+3, 3.0947778e+2, -173426.44, -184147.33, 117660.52, -0.07652048, -0.6910255, -61004.313, -61004.313, 0.0, 9.9992695, 9.999081 
2.8741708e+3, 3.1947926e+2, -149581.0, -48330.6, -59529.777, 0.1225578, -0.40461478, -20810.389, -20810.389, 0.0, 9.998881, 10.000204 
2.8860658e+3, 1.296029e+2, -1502141.8, -1645693.3, 54644.36, -0.019794572, -0.54645044, -1483707.9, 186133.77, 0.0, 10.001612, 9.999698 
2.885965e+3, 1.396025e+2, -1370503.0, -1536573.5, 33190.887, -0.0020497015, -0.5024083, -1364115.3, 207729.89, 0.0, 10.001866, 9.99965 
2.8858638e+3, 1.4960164e+2, -1316279.4, -1466094.5, 59113.746, -0.02570579, -0.4950972, -1295763.8, 178090.06, 0.0, 10.001605, 9.99958 
2.885763e+3, 1.5960069e+2, -1262016.9, -1383898.6, 77501.53, -0.025720404, -0.4965015, -1224366.3, 151497.33, 0.0, 10.001283, 9.999627 
2.8856626e+3, 1.695997e+2, -1173905.0, -1279334.5, 122253.08, -0.029530892, -0.5118103, -1093485.8, 184387.66, 0.0, 10.001174, 9.999721 
2.8855628e+3, 1.7959875e+2, -1087311.6, -1188665.0, 123744.586, -0.040421028, -0.52499336, -1004269.0, 175613.72, 0.0, 10.001104, 9.999703 
2.8854632e+3, 1.8959814e+2, -994914.2, -1087743.1, 125163.83, -0.025947154, -0.5051861, -907836.0, 174052.6, 0.0, 10.001048, 9.999748 
2.8853634e+3, 1.9959754e+2, -920817.1, -1023199.9, 124146.75, -0.0080331955, -0.4832725, -837721.56, 146172.92, 0.0, 10.000977, 9.999555 
2.885264e+3, 2.0959623e+2, -872455.1, -969091.9, 146059.55, -0.0397893, -0.5029427, -766929.25, 118978.24, 0.0, 10.000724, 9.999374 
2.885164e+3, 2.1959482e+2, -821733.25, -914497.6, 158079.97, -0.07380856, -0.52379936, -703371.44, 84550.125, 0.0, 10.000488, 9.999189 
2.885065e+3, 2.2959358e+2, -719065.7, -832368.06, 154593.48, -0.039940298, -0.5002543, -611070.25, 78863.664, 0.0, 10.000598, 9.999027 
2.884966e+3, 2.3959234e+2, -601023.1, -714833.0, 160800.81, 0.0005156114, -0.4749683, -487355.28, 104590.91, 0.0, 10.000692, 9.999116 
2.8848663e+3, 2.4959064e+2, -551958.2, -627249.6, 147691.23, -0.044982143, -0.51213276, -437190.34, 56771.11, 0.0, 10.0002985, 9.999234 
2.8847662e+3, 2.5958887e+2, -535248.7, -605287.4, 145087.28, -0.10040721, -0.55224, -421014.3, -25036.861, 0.0, 9.999903, 9.998901 
2.8846666e+3, 2.695872e+2, -440220.63, -547557.0, 138715.58, -0.07251964, -0.5327829, -345153.2, -47158.727, 0.0, 10.000045, 9.998558 
2.8845668e+3, 2.795856e+2, -308937.84, -366676.34, 152964.77, -0.011857999, -0.5046957, -182141.9, 17868.42, 0.0, 9.999983, 9.999159 
2.8844675e+3, 2.8958473e+2, -287810.88, -244024.88, 129630.88, 0.03968951, -0.4999117, -134451.27, -32434.533, 0.0, 9.999189, 9.999711 
2.8843677e+3, 2.9958358e+2, -288828.1, -245072.33, 121202.266, 0.015408204, -0.52043456, -143789.22, -139763.81, 0.0, 9.998736, 9.999253 
2.884267e+3, 3.0957973e+2, -154413.03, -231134.0, 133021.17, -0.17468138, -0.7365766, -54331.625, -54331.625, 0.0, 9.999651, 9.998582 
2.884171e+3, 3.1958073e+2, 112850.19, 39028.71, -78100.93, 0.21878783, -0.44626465, 162323.23, 162323.23, 0.0, 10.000848, 9.99987 
2.8960672e+3, 1.297054e+2, -1507156.0, -1668020.5, 66722.33, -0.026175862, -0.5283529, -1483083.6, 185753.44, 0.0, 10.001667, 9.999516 
2.8959662e+3, 1.3970476e+2, -1379596.5, -1536874.1, 34701.85, -0.01081985, -0.49546355, -1372280.1, 198563.67, 0.0, 10.001786, 9.999686 
2.8958648e+3, 1.4970401e+2, -1304437.4, -1432914.4, 46762.67, -0.03143736, -0.49782437, -1289219.4, 183631.86, 0.0, 10.001566, 9.999827 
2.8957638e+3, 1.5970327e+2, -1241432.9, -1343901.5, 70536.07, -0.025580697, -0.5053588, -1205487.5, 169370.98, 0.0, 10.001294, 9.999897 
2.8956637e+3, 1.697026e+2, -1153723.1, -1239096.6, 119321.516, -0.010552055, -0.5145554, -1069682.6, 207181.75, 0.0, 10.00118, 9.999995 
2.8955638e+3, 1.7970192e+2, -1085878.4, -1183249.5, 120237.9, -0.007974088, -0.5222533, -1004843.3, 174027.31, 0.0, 10.001093, 9.999747 
2.8954637e+3, 1.8970108e+2, -1010393.7, -1118330.5, 123645.164, -0.021992706, -0.5129368, -929452.06, 151427.8, 0.0, 10.001039, 9.999544 
2.895364e+3, 1.9970024e+2, -919026.8, -1015489.5, 119062.16, -0.031215629, -0.499301, -838797.8, 144091.16, 0.0, 10.000958, 9.999617 
2.895264e+3, 2.096995e+2, -845377.4, -913168.0, 135524.03, -0.025787205, -0.49171653, -739574.25, 145321.56, 0.0, 10.000725, 9.999758 
2.8951645e+3, 2.1969864e+2, -807760.5, -885921.5, 155154.3, -0.026397202, -0.49047664, -686840.56, 100062.914, 0.0, 10.000488, 9.999386 
2.895065e+3, 2.2969696e+2, -717961.75, -830929.5, 161261.58, -0.053977568, -0.5180292, -603578.06, 85341.77, 0.0, 10.0006, 9.999037 
2.8949657e+3, 2.3969522e+2, -604789.25, -724167.44, 154634.33, -0.073690236, -0.5424478, -498723.8, 92212.914, 0.0, 10.000698, 9.99905 
2.8948662e+3, 2.4969402e+2, -563883.1, -650912.9, 128602.44, -0.027250439, -0.51516265, -471633.0, 21315.07, 0.0, 10.000294, 9.999075 
2.8947666e+3, 2.596928e+2, -518963.4, -571816.9, 141452.06, 0.010665565, -0.49303302, -401490.7, -6531.2104, 0.0, 9.999903, 9.999131 
2.8946662e+3, 2.6969054e+2, -397894.4, -465006.63, 145938.06, -0.05593344, -0.5787982, -281704.28, 15274.873, 0.0, 10.000065, 9.999115 
2.8945658e+3, 2.796883e+2, -310336.3, -384507.9, 132510.13, -0.1055842, -0.6598516, -209820.19, -10821.011, 0.0, 10.000043, 9.999009 
2.894466e+3, 2.896877e+2, -382308.06, -434926.5, 102968.51, -0.005774686, -0.535029, -302340.8, -201335.9, 0.0, 9.999175, 9.998403 
2.894366e+3, 2.996866e+2, -331738.5, -317599.25, 127282.16, 0.067494445, -0.43949577, -197190.55, -194175.38, 0.0, 9.99867, 9.998784 
2.8942692e+3, 3.0967984e+2, -145045.39, -205664.98, 175845.33, 0.14131472, -0.9550501, 3083.2036, 3083.2036, 0.0, 9.999631, 9.998766 
2.894169e+3, 3.1968156e+2, 37877.156, -148573.4, 421.13666, -0.020526154, -0.5604629, 37878.11, 37878.11, 0.0, 10.000987, 9.998517 
2.906068e+3, 1.298081e+2, -1495217.9, -1665032.9, 53069.13, -0.0631546, -0.50285023, -1479997.4, 187833.13, 0.0, 10.001757, 9.999495 
2.9059672e+3, 1.3980712e+2, -1521997.8, -1593834.8, 41430.84, 0.009127335, -0.5067484, -1503083.3, 66757.664, 0.0, 10.000757, 9.999791 
2.9058656e+3, 1.4980656e+2, -1382298.6, -1445502.6, 65253.445, -0.018712845, -0.5090439, -1341397.5, 130448.664, 0.0, 10.000924, 10.000051 
2.9057643e+3, 1.5980604e+2, -1244895.9, -1331561.0, 81472.05, -0.028793357, -0.5116033, -1195949.5, 177901.38, 0.0, 10.001208, 10.000023 
2.905664e+3, 1.6980553e+2, -1175902.6, -1245787.4, 110928.98, -0.013825609, -0.513246, -1094542.8, 181313.0, 0.0, 10.00101, 10.0000305 
2.9055643e+3, 1.7980498e+2, -1127119.4, -1190225.9, 104326.336, -0.006187395, -0.51351666, -1049679.1, 128181.79, 0.0, 10.000752, 9.999865 
2.9054642e+3, 1.8980424e+2, -1051425.3, -1116587.9, 130497.49, -0.016239693, -0.5096532, -949503.25, 130365.53, 0.0, 10.000662, 9.999739 
2.9053643e+3, 1.9980352e+2, -962919.0, -1028281.7, 146657.27, -0.02392011, -0.50330067, -845345.8, 136531.0, 0.0, 10.000618, 9.999693 
2.9052645e+3, 2.0980278e+2, -851531.44, -918694.0, 141071.44, -0.017122412, -0.49239764, -740099.44, 143784.31, 0.0, 10.000692, 9.999736 
2.9051647e+3, 2.19802e+2, -761119.44, -847705.5, 138683.66, -0.01420521, -0.48524082, -659128.44, 126762.43, 0.0, 10.000739, 9.999529 
2.905065e+3, 2.2980055e+2, -713672.7, -789994.7, 161197.0, -0.047241244, -0.5189048, -586181.25, 101723.2, 0.0, 10.000461, 9.999386 
2.9049656e+3, 2.3979901e+2, -672865.4, -747221.4, 176625.55, -0.07121702, -0.55001223, -529547.44, 60371.355, 0.0, 10.000191, 9.999135 
2.9048663e+3, 2.497978e+2, -555498.8, -660724.8, 152838.92, -0.019553682, -0.51427984, -446470.66, 45460.508, 0.0, 10.000413, 9.998949 
2.9047665e+3, 2.5979662e+2, -416082.2, -493485.3, 163235.1, 0.026668038, -0.48262724, -287023.47, 106919.31, 0.0, 10.000487, 9.999386 
2.9046658e+3, 2.6979482e+2, -419948.44, -395900.0, 163837.4, -0.030888133, -0.58357257, -243646.17, 52310.945, 0.0, 9.999573, 9.999825 
2.904565e+3, 2.79793e+2, -460465.06, -415852.97, 173818.39, -0.07713629, -0.68180394, -262915.22, -64943.613, 0.0, 9.998852, 9.999359 
2.9044637e+3, 2.8979266e+2, -435746.56, -424135.7, 201064.72, -0.067940086, -0.5479508, -228792.61, -128816.52, 0.0, 9.998664, 9.998718 
2.9160687e+3, 1.29911e+2, -1497254.5, -1655071.1, 8726.163, -0.1178746, -0.46979365, -1496773.4, 170048.84, 0.0, 10.001699, 9.999589 
2.915968e+3, 1.3990955e+2, -1508791.3, -1570310.4, 27104.02, 0.046846405, -0.53136593, -1498553.5, 70283.34, 0.0, 10.000774, 9.999945 
2.915866e+3, 1.4990923e+2, -1367674.8, -1416554.9, 78540.7, 0.0035466007, -0.52883375, -1309859.4, 160980.16, 0.0, 10.000928, 10.000248 
2.9157647e+3, 1.59909e+2, -1247862.5, -1331631.6, 82921.15, -0.037914068, -0.51745, -1196848.0, 175993.42, 0.0, 10.001182, 10.000035 
2.9156643e+3, 1.699085e+2, -1188841.5, -1269488.5, 100794.89, -0.033568893, -0.50717396, -1120603.6, 154243.52, 0.0, 10.000994, 9.999876 
2.9155642e+3, 1.7990798e+2, -1115826.6, -1164959.6, 98688.03, -0.028718844, -0.4975103, -1038693.4, 138159.38, 0.0, 10.000744, 10.000042 
2.9154643e+3, 1.8990764e+2, -1014047.44, -1039867.7, 127666.305, -0.009692166, -0.4978246, -898640.2, 180215.36, 0.0, 10.000665, 10.000264 
2.9153645e+3, 1.9990723e+2, -958556.44, -1019186.2, 145901.4, 0.006872677, -0.49992335, -839853.9, 141005.3, 0.0, 10.000617, 9.999757 
2.9152647e+3, 2.0990607e+2, -878985.9, -975638.25, 144165.55, -0.016742729, -0.5040096, -775262.3, 107609.11, 0.0, 10.0006895, 9.999347 
2.9151648e+3, 2.1990494e+2, -755472.8, -832816.9, 134519.2, -0.04064265, -0.5063687, -654177.2, 130706.195, 0.0, 10.000725, 9.999639 
2.9150653e+3, 2.2990437e+2, -666060.0, -690967.5, 148323.55, -0.016653845, -0.50183433, -529668.3, 157219.25, 0.0, 10.00046, 10.000067 
2.914966e+3, 2.3990375e+2, -656159.1, -714093.44, 175703.03, 0.006602683, -0.49828148, -507051.4, 81840.91, 0.0, 10.000197, 9.999359 
2.914866e+3, 2.4990202e+2, -562248.0, -675092.3, 164222.58, -0.030741189, -0.510352, -445025.34, 45885.215, 0.0, 10.000415, 9.998848 
2.9147655e+3, 2.599004e+2, -394729.8, -457723.2, 145279.1, -0.069134176, -0.5236932, -277572.34, 115355.336, 0.0, 10.000519, 9.999619 
2.9146653e+3, 2.6990005e+2, -364729.0, -280349.7, 120859.47, 0.0070139603, -0.53653795, -194527.72, 100400.24, 0.0, 9.999562, 10.000627 
2.9145646e+3, 2.7989992e+2, -408556.4, -294015.72, 179064.77, 0.0795496, -0.5449543, -163285.86, 33640.28, 0.0, 9.998799, 10.00022 
2.914461e+3, 2.8989977e+2, -287407.6, -128013.85, 165755.02, -0.15583159, -0.5397437, -23791.4, 75138.38, 0.0, 9.99872, 10.000728 
2.92607e+3, 1.300137e+2, -1582000.5, -1690010.0, -14266.83, -0.06770927, -0.46667513, -1580147.9, 85667.734, 0.0, 10.001094, 9.9996395 
2.925968e+3, 1.4001215e+2, -1512765.6, -1565091.0, 18046.33, 0.008102748, -0.54236776, -1507145.3, 60685.87, 0.0, 10.000713, 10.000011 
2.9258662e+3, 1.5001199e+2, -1399675.0, -1423354.5, 78191.58, -0.016924461, -0.5310062, -1332431.9, 137400.33, 0.0, 10.0006695, 10.000327 
2.9257655e+3, 1.6001198e+2, -1319936.6, -1359609.4, 73121.36, -0.027770031, -0.5072829, -1264008.8, 107823.336, 0.0, 10.000654, 10.0001 
2.9256648e+3, 1.7001148e+2, -1245721.0, -1290961.4, 93837.2, -0.02972103, -0.5017515, -1171816.1, 102021.766, 0.0, 10.000574, 9.999933 
2.9255643e+3, 1.8001096e+2, -1148684.9, -1174606.6, 103612.62, -0.034681417, -0.49800685, -1057225.6, 118618.05, 0.0, 10.000484, 10.000103 
2.9254642e+3, 1.9001071e+2, -1026002.56, -1035142.56, 112816.3, -0.012252248, -0.49697578, -917663.75, 160181.7, 0.0, 10.000534, 10.000361 
2.9253647e+3, 2.0001042e+2, -955354.75, -1004485.56, 110776.12, 0.00944422, -0.49768773, -866452.94, 113394.67, 0.0, 10.00058, 9.999877 
2.9252645e+3, 2.1000937e+2, -906087.94, -972325.9, 136079.31, -0.019696232, -0.50581384, -799155.3, 82703.55, 0.0, 10.00043, 9.999496 
2.9251647e+3, 2.2000834e+2, -813393.1, -850730.94, 154894.39, -0.045384414, -0.51002395, -676046.6, 107823.195, 0.0, 10.00028, 9.99973 
2.9250655e+3, 2.3000798e+2, -677575.7, -687083.44, 132880.42, 0.00016407562, -0.4936737, -549364.1, 136508.73, 0.0, 10.000337, 10.0001545 
2.924966e+3, 2.4000761e+2, -611329.4, -663493.6, 131265.23, 0.038372375, -0.47791955, -503580.1, 84295.6, 0.0, 10.000375, 9.999624 
2.9248655e+3, 2.500063e+2, -564315.6, -617055.25, 158664.25, -0.047081076, -0.49648738, -429844.78, 60044.938, 0.0, 10.000139, 9.999383 
2.9247648e+3, 2.6000503e+2, -477067.38, -474439.9, 164467.78, -0.12001534, -0.515337, -311280.6, 80622.05, 0.0, 9.999845, 9.999834 
2.924665e+3, 2.70005e+2, -331580.78, -256588.75, 86692.0, 0.043870766, -0.50657386, -199631.31, 94270.42, 0.0, 9.999748, 10.000704 
2.9245645e+3, 2.8000522e+2, -272146.16, -183352.0, 111713.71, 0.18481967, -0.49732938, -107536.55, 88361.31, 0.0, 9.99952, 10.000649 
2.9244584e+3, 2.9000574e+2, -187313.08, 5075.5234, 19432.746, -0.24304359, -0.50075364, 7018.754, 104913.78, 0.0, 9.99901, 10.001524 
2.9360715e+3, 1.3011622e+2, -1594735.6, -1693806.5, -31487.66, 0.044222526, -0.48614767, -1585574.9, 79235.484, 0.0, 10.001, 9.999658 
2.935967e+3, 1.4011484e+2, -1510809.5, -1563147.5, 12849.791, -0.08524176, -0.5452859, -1507824.9, 58999.766, 0.0, 10.000724, 10.000019 
2.9358658e+3, 1.5011482e+2, -1399167.3, -1424170.9, 78292.88, -0.06609051, -0.5213304, -1332384.4, 136440.27, 0.0, 10.000677, 10.000319 
2.935766e+3, 1.6011494e+2, -1315373.5, -1346686.9, 71291.92, -0.0036329567, -0.48569164, -1258039.3, 112783.91, 0.0, 10.000639, 10.0001955 
2.935665e+3, 1.7011443e+2, -1231551.9, -1260753.5, 89019.445, -0.009752944, -0.49929842, -1155943.9, 116884.75, 0.0, 10.00057, 10.000143 
2.9355642e+3, 1.8011388e+2, -1150879.9, -1179989.1, 101685.016, -0.029117556, -0.51327884, -1062713.1, 112121.18, 0.0, 10.000487, 10.000066 
2.9354644e+3, 1.901135e+2, -1043680.06, -1072668.5, 115115.35, -0.024137985, -0.5047135, -942150.0, 134688.1, 0.0, 10.000535, 10.000104 
2.9353645e+3, 2.0011316e+2, -943742.0, -977283.4, 109012.805, -0.017028017, -0.4971377, -850217.44, 128624.15, 0.0, 10.0005665, 10.000071 
2.9352647e+3, 2.101127e+2, -861074.25, -878453.0, 128645.51, -0.02423848, -0.49939668, -740825.0, 140020.94, 0.0, 10.000427, 10.000143 
2.935165e+3, 2.201122e+2, -810464.5, -844311.0, 152905.34, -0.030176386, -0.49991024, -673548.75, 109302.055, 0.0, 10.000278, 9.999776 
2.9350653e+3, 2.3011136e+2, -713312.8, -759394.8, 135419.53, -0.0012095046, -0.49353272, -598988.1, 85872.375, 0.0, 10.000328, 9.999661 
2.9349658e+3, 2.4011062e+2, -587117.1, -614830.1, 127322.5, 0.018810606, -0.486728, -472899.34, 113969.59, 0.0, 10.000379, 9.999959 
2.934865e+3, 2.5011063e+2, -478212.88, -441615.34, 147941.1, -0.06570062, -0.46931982, -310845.63, 178022.5, 0.0, 10.00015, 10.0005865 
2.934764e+3, 2.601107e+2, -460674.75, -443273.5, 157513.16, -0.12999569, -0.45119724, -294220.88, 96645.586, 0.0, 9.999858, 10.000041 
2.9346642e+3, 2.7010956e+2, -380076.03, -362779.53, 84752.61, 0.071218126, -0.4987657, -286235.1, 6643.6685, 0.0, 9.999774, 9.999959 
2.9345638e+3, 2.8010857e+2, -258841.8, -187898.61, 83355.15, 0.21418677, -0.5543453, -132781.5, 62108.41, 0.0, 9.999646, 10.000564 
2.934456e+3, 2.9011104e+2, -193706.42, -3189.199, 4470.2554, -0.34299168, -0.36568782, -3084.3677, 93782.05, 0.0, 9.998987, 10.001478 
2.946072e+3, 1.3021857e+2, -1711127.4, -1725662.9, -37296.395, 0.056516014, -0.5050475, -1680397.3, -16590.457, 0.0, 10.000088, 9.999886 
2.945967e+3, 1.4021747e+2, -1514422.1, -1555006.1, 14544.929, -0.11662651, -0.5542686, -1509747.8, 56070.094, 0.0, 10.000654, 10.00011 
2.945866e+3, 1.5021746e+2, -1428539.9, -1450541.6, 65434.668, -0.07008671, -0.5253277, -1373187.8, 94630.35, 0.0, 10.000524, 10.000214 
2.9457662e+3, 1.6021742e+2, -1368566.1, -1377145.3, 55990.836, 0.023540722, -0.49449915, -1316700.8, 53117.824, 0.0, 10.000291, 10.000157 
2.9456654e+3, 1.7021695e+2, -1252479.8, -1261500.5, 68918.086, 0.009136343, -0.50887793, -1187924.6, 83898.695, 0.0, 10.000382, 10.000232 
2.945564e+3, 1.8021646e+2, -1155702.8, -1178420.8, 76420.41, -0.026599439, -0.52482, -1089801.8, 84026.51, 0.0, 10.000435, 10.000104 
2.9454643e+3, 1.9021611e+2, -1076998.9, -1092285.0, 101377.914, -0.032193515, -0.513786, -982976.3, 92855.85, 0.0, 10.000315, 10.000079 
2.945364e+3, 2.0021583e+2, -985099.0, -985603.3, 106561.76, -0.027107073, -0.5013636, -878789.06, 99046.14, 0.0, 10.000221, 10.000185 
2.9452646e+3, 2.1021555e+2, -863337.56, -853321.56, 102081.164, -0.016941952, -0.5060813, -756125.6, 123711.9, 0.0, 10.00029, 10.000386 
2.9451647e+3, 2.2021529e+2, -787292.0, -821800.2, 108284.67, -0.010722818, -0.5058126, -694895.44, 86944.64, 0.0, 10.00038, 9.9998865 
2.9450652e+3, 2.302146e+2, -713979.94, -758508.06, 119925.35, -0.0077382973, -0.48964563, -614269.5, 69579.35, 0.0, 10.000308, 9.999682 
2.9449654e+3, 2.4021396e+2, -607554.5, -602769.1, 134768.63, -0.0061841295, -0.47991428, -470371.94, 115484.984, 0.0, 10.000136, 10.000161 
2.9448646e+3, 2.502142e+2, -485591.16, -401249.25, 102472.945, -0.051118635, -0.47431082, -332609.13, 155244.33, 0.0, 9.999902, 10.000986 
2.9447636e+3, 2.6021466e+2, -462712.22, -423522.63, 74294.89, -0.085756436, -0.45416972, -366281.97, 23565.748, 0.0, 9.999749, 10.000234 
2.9446635e+3, 2.702139e+2, -339420.22, -358164.47, 52853.758, 0.040210873, -0.4651475, -295114.06, -3256.254, 0.0, 10.000104, 9.999842 
2.944562e+3, 2.8021264e+2, -173256.81, -166107.73, 61054.043, 0.12397277, -0.52608544, -108523.68, 85348.8, 0.0, 10.000312, 10.00039 
2.9444554e+3, 2.9021505e+2, -107768.42, 31507.568, -43442.28, -0.2587305, -0.323298, 43946.867, 139795.22, 0.0, 9.999593, 10.001419 
2.956071e+3, 1.3032083e+2, -1687910.1, -1669038.6, -14809.756, 0.002920313, -0.51279366, -1660914.1, 1889.4952, 0.0, 10.000055, 10.000288 
2.9559672e+3, 1.4032012e+2, -1509605.0, -1538208.5, 21903.65, -0.105996996, -0.5584675, -1497747.4, 67062.81, 0.0, 10.0006275, 10.000237 
2.9558662e+3, 1.5031996e+2, -1442717.9, -1477672.5, 52576.82, -0.043454014, -0.5336332, -1404789.5, 62022.867, 0.0, 10.000514, 10.000032 
2.955766e+3, 1.6031955e+2, -1377683.5, -1396016.5, 53302.27, 0.05280782, -0.5218058, -1332765.3, 36051.832, 0.0, 10.00029, 10.000029 
2.9556653e+3, 1.7031914e+2, -1252894.3, -1260708.4, 73269.91, 0.025643986, -0.52767164, -1183427.3, 87394.17, 0.0, 10.000374, 10.000241 
2.9555643e+3, 1.8031876e+2, -1152481.3, -1166655.1, 72948.42, -0.030724512, -0.53569186, -1086276.3, 86549.164, 0.0, 10.000413, 10.000195 
2.9554638e+3, 1.9031855e+2, -1066004.4, -1067872.8, 95597.53, -0.036485292, -0.5248436, -971336.5, 103491.03, 0.0, 10.000307, 10.00025 
2.955364e+3, 2.0031849e+2, -982764.25, -980664.06, 106126.93, -0.020381268, -0.5077023, -875582.0, 101246.5, 0.0, 10.00022, 10.00022 
2.9552644e+3, 2.1031803e+2, -873160.8, -872846.2, 104453.33, -0.0014331132, -0.5210168, -768550.06, 110283.16, 0.0, 10.000284, 10.000256 
2.955165e+3, 2.2031766e+2, -776083.8, -794239.2, 108904.21, 0.004942526, -0.52497286, -675879.6, 104957.54, 0.0, 10.0003605, 10.000085 
2.9550648e+3, 2.303177e+2, -677223.5, -680768.25, 115183.45, -0.019049924, -0.48143467, -563798.8, 119038.94, 0.0, 10.000301, 10.000219 
2.9549646e+3, 2.4031761e+2, -601351.8, -592120.9, 125790.66, -0.03668922, -0.45833108, -470861.03, 113978.47, 0.0, 10.000144, 10.000232 
2.9548645e+3, 2.5031695e+2, -514720.2, -461147.2, 92627.91, -0.0037130904, -0.5143885, -391510.44, 95335.74, 0.0, 9.999898, 10.000578 
2.9547638e+3, 2.6031682e+2, -444206.38, -388464.25, 76933.22, 0.012449393, -0.5264374, -334509.2, 54338.12, 0.0, 9.999762, 10.000469 
2.954662e+3, 2.703181e+2, -287828.78, -258357.6, 75802.33, -0.06455255, -0.39638028, -195871.88, 94965.266, 0.0, 10.000135, 10.000513 
2.95456e+3, 2.8031784e+2, -182711.86, -199865.55, 45146.59, -0.11986179, -0.39609012, -145334.63, 47506.645, 0.0, 10.000365, 10.000135 
2.9544574e+3, 2.9031637e+2, -127082.07, -16119.365, -66776.84, 0.024005141, -0.51609296, 15217.065, 110071.34, 0.0, 9.999625, 10.001076 
2.96607e+3, 1.3042225e+2, -1707390.8, -1648675.3, -22181.572, -0.038570844, -0.55967045, -1641237.6, 20571.348, 0.0, 9.999792, 10.000553 
2.9659677e+3, 1.4042242e+2, -1547198.9, -1547947.0, -2945.0198, -0.029392334, -0.53819495, -1544604.3, 19202.65, 0.0, 10.000329, 10.000318 
2.9658663e+3, 1.5042216e+2, -1464887.6, -1489031.1, 15660.753, -0.029913537, -0.5268817, -1457186.0, 8623.984, 0.0, 10.000361, 10.0000305 
2.9657653e+3, 1.6042179e+2, -1387332.8, -1398844.4, 34338.984, -0.00057034375, -0.51551604, -1358270.5, 9543.763, 0.0, 10.000212, 10.00005 
2.9656646e+3, 1.7042121e+2, -1306122.6, -1298476.8, 53663.04, -0.009911405, -0.5300943, -1248500.6, 21319.793, 0.0, 10.000053, 10.00014 
2.9655638e+3, 1.8042076e+2, -1219858.9, -1198482.4, 48456.797, -0.02924748, -0.5393206, -1159549.1, 12276.496, 0.0, 9.999937, 10.000212 
2.965464e+3, 1.9042078e+2, -1069777.9, -1051940.5, 71708.76, -0.016910354, -0.52053195, -988597.94, 85228.04, 0.0, 10.000199, 10.000415 
2.9653642e+3, 2.0042077e+2, -954253.2, -967019.7, 73237.164, -0.0022484493, -0.5062506, -887121.6, 88704.96, 0.0, 10.000414, 10.000222 
2.965264e+3, 2.1042028e+2, -901616.56, -888323.0, 72216.65, -0.004644283, -0.52142835, -822447.9, 55383.688, 0.0, 10.000092, 10.000245 
2.9651642e+3, 2.2041996e+2, -835034.94, -798130.5, 94633.43, -0.010342322, -0.5280984, -720167.1, 59667.99, 0.0, 9.999844, 10.000312 
2.9650643e+3, 2.304202e+2, -668909.25, -636505.06, 96096.05, -0.036433123, -0.49936244, -555254.8, 126577.77, 0.0, 10.0001745, 10.00059 
2.9649642e+3, 2.4042033e+2, -554451.1, -561099.9, 87356.85, -0.053290863, -0.48473582, -470355.4, 113475.766, 0.0, 10.000418, 10.00032 
2.964864e+3, 2.504196e+2, -505363.88, -492369.47, 55557.887, 0.0078109712, -0.5300838, -442930.2, 42909.316, 0.0, 10.000101, 10.000275 
2.9647636e+3, 2.6041937e+2, -425600.47, -364219.13, 56081.902, 0.04406484, -0.53471303, -330979.4, 56863.047, 0.0, 9.999813, 10.000618 
2.9646608e+3, 2.7042115e+2, -302029.53, -216645.9, 51664.246, -0.12131451, -0.39511275, -192316.94, 97509.11, 0.0, 9.9998255, 10.000952 
2.9645583e+3, 2.804213e+2, -244904.8, -234734.03, 2436.596, -0.23282643, -0.3898698, -234180.44, -42355.195, 0.0, 9.999965, 10.000095 
2.9644582e+3, 2.9041874e+2, -7909.101, -3104.9558, -88554.3, 0.16880083, -0.57431126, 83079.836, 176929.1, 0.0, 10.000657, 10.000671 
2.9760686e+3, 1.305228e+2, -1705500.9, -1634193.8, -6427.5117, -0.07000066, -0.66253835, -1633619.1, 27204.498, 0.0, 9.999748, 10.000673 
2.975969e+3, 1.4052416e+2, -1552460.9, -1542799.3, 10716.813, 0.092521764, -0.52767944, -1535874.8, 26935.012, 0.0, 10.000261, 10.000384 
2.9758662e+3, 1.505239e+2, -1440551.6, -1461128.6, 10523.896, -0.02857672, -0.5283575, -1436122.6, 28689.701, 0.0, 10.000459, 10.0001745 
2.975764e+3, 1.6052395e+2, -1349354.6, -1365581.3, 28162.625, -0.11953351, -0.49375674, -1328159.9, 38651.848, 0.0, 10.000409, 10.000182 
2.9756632e+3, 1.7052318e+2, -1295976.8, -1314695.3, 48539.66, -0.08437424, -0.5215957, -1255902.3, 12918.222, 0.0, 10.000215, 9.999951 
2.9755634e+3, 1.8052256e+2, -1206577.1, -1197261.9, 54086.098, -0.019033395, -0.5312527, -1147633.3, 23194.572, 0.0, 10.000051, 10.000165 
2.975464e+3, 1.9052275e+2, -1052600.1, -1028193.0, 84598.94, 0.019317273, -0.50390583, -954921.94, 117905.32, 0.0, 10.000251, 10.000553 
2.9753643e+3, 2.005226e+2, -955438.06, -970210.2, 69833.39, 0.015825832, -0.5056275, -892601.2, 82228.69, 0.0, 10.000417, 10.000198 
2.9752633e+3, 2.105223e+2, -890745.9, -867713.0, 57128.895, -0.024873666, -0.513594, -820951.3, 55881.6, 0.0, 10.000099, 10.000383 
2.9751635e+3, 2.2052215e+2, -815869.44, -759610.4, 98552.1, -0.050159626, -0.5195487, -685251.94, 93581.99, 0.0, 9.999847, 10.000574 
2.9750636e+3, 2.3052217e+2, -653071.3, -604501.3, 111467.66, -0.059591986, -0.5395237, -514703.88, 166128.8, 0.0, 10.000176, 10.00081 
2.974964e+3, 2.4052227e+2, -548754.6, -547916.6, 83393.164, -0.062107828, -0.55104995, -464941.44, 117889.516, 0.0, 10.000411, 10.000415 
2.9748636e+3, 2.5052223e+2, -519406.9, -522480.84, 42816.88, -0.021867476, -0.51402444, -478099.4, 6733.1694, 0.0, 10.000105, 10.000066 
2.9747623e+3, 2.6052237e+2, -418693.44, -351992.4, 49641.758, 0.00013368577, -0.47196797, -325538.56, 61293.824, 0.0, 9.999822, 10.000698 
2.97466e+3, 2.705229e+2, -287507.4, -183980.05, 54906.188, -0.12245911, -0.47718918, -160284.02, 128541.766, 0.0, 9.999814, 10.001183 
2.9745582e+3, 2.8052285e+2, -229831.17, -199155.58, 15125.991, -0.20435835, -0.51972383, -192951.7, -2126.5977, 0.0, 9.999961, 10.000339 
2.9744586e+3, 2.9052284e+2, -41423.246, -85147.086, -44696.01, 0.16186002, -0.4420336, -13528.992, 79296.72, 0.0, 10.00074, 10.000055 
2.9860666e+3, 1.3062724e+2, -1672402.8, -1638030.4, 14420.499, -0.21243517, -0.4163495, -1632781.9, 27016.87, 0.0, 10.000063, 10.000498 
2.985967e+3, 1.4062628e+2, -1664657.4, -1579169.3, 56746.918, -0.029578913, -0.5095046, -1550869.3, 10938.23, 0.0, 9.999425, 10.000534 
2.9858667e+3, 1.506257e+2, -1415093.9, -1438845.4, 59903.17, 0.014015613, -0.55567217, -1365900.6, 97913.01, 0.0, 10.0006, 10.000256 
2.9857662e+3, 1.6062449e+2, -1208787.8, -1303154.1, 37212.105, 0.06334122, -0.6437729, -1195879.4, 169946.67, 0.0, 10.001407, 10.000125 
2.9856652e+3, 1.706247e+2, -1087625.9, -1189063.9, 59933.637, 0.062149465, -0.58414286, -1059830.8, 207994.56, 0.0, 10.001546, 10.000167 
2.985564e+3, 1.806248e+2, -1004343.0, -1104515.1, 82406.13, 0.010693555, -0.5373086, -957995.75, 211830.3, 0.0, 10.001471, 10.000113 
2.9854634e+3, 1.9062465e+2, -1002936.5, -1045326.44, 83632.87, -0.034819305, -0.51498806, -937854.7, 133975.22, 0.0, 10.00077, 10.000186 
2.9853636e+3, 2.0062481e+2, -971470.0, -973923.9, 66440.73, -0.03358916, -0.466465, -906244.9, 67585.27, 0.0, 10.000284, 10.000241 
2.9852635e+3, 2.106246e+2, -819109.0, -825717.5, 52228.69, -0.02257179, -0.47149652, -770080.1, 105751.35, 0.0, 10.000553, 10.000456 
2.985163e+3, 2.206244e+2, -719037.6, -717688.25, 74962.945, -0.029856445, -0.48558998, -643396.94, 134435.47, 0.0, 10.000528, 10.000537 
2.9850635e+3, 2.3062438e+2, -680924.8, -621815.1, 72158.766, -0.03897784, -0.5063351, -573393.2, 106438.59, 0.0, 10.000002, 10.000776 
2.984964e+3, 2.4062437e+2, -635592.1, -581415.9, 30779.818, -0.047725238, -0.5247281, -567502.0, 14328.878, 0.0, 9.999779, 10.000489 
2.984863e+3, 2.5062436e+2, -488672.28, -484444.44, 15176.444, -0.03473546, -0.5081244, -471235.4, 12595.551, 0.0, 10.000215, 10.000275 
2.9847616e+3, 2.6062435e+2, -318516.25, -307480.2, 36684.906, -0.02484585, -0.49338925, -275900.66, 109929.88, 0.0, 10.000516, 10.000676 
2.98466e+3, 2.7062428e+2, -284877.78, -212036.4, 4097.9897, -0.0946633, -0.5441148, -211806.58, 76022.73, 0.0, 9.999942, 10.000939 
2.9845577e+3, 2.8062418e+2, -265580.06, -199675.48, -37896.832, -0.1543516, -0.5844499, -182408.03, 7420.358, 0.0, 9.999634, 10.000518 
2.9844585e+3, 2.906241e+2, -31197.7, -123848.96, -44474.723, 0.15069318, -0.5255597, -13304.445, 78524.39, 0.0, 10.000931, 9.999775 
2.996067e+3, 1.3072701e+2, -1533775.9, -1616096.4, -68348.086, -0.13225836, -0.66797996, -1495151.3, 163668.5, 0.0, 10.001197, 10.000108 
2.9959667e+3, 1.4072709e+2, -1607646.4, -1540427.0, -47938.5, 0.02501425, -0.64827675, -1515490.0, 45327.44, 0.0, 9.999748, 10.000655 
2.9958656e+3, 1.507286e+2, -1550800.1, -1517627.9, -76807.28, -0.08006448, -0.48770463, -1455636.4, 7168.0444, 0.0, 9.999694, 10.000168 
2.9957652e+3, 1.6072717e+2, -1550673.1, -1493397.4, -76243.0, -0.11125305, -0.57434475, -1440591.3, -75771.15, 0.0, 9.999139, 9.9999275 
2.995665e+3, 1.707271e+2, -1402406.3, -1290951.1, -33613.76, -0.06076504, -0.57390875, -1281598.4, -14775.927, 0.0, 9.999141, 10.000641 
2.9955643e+3, 1.8072875e+2, -1317419.5, -1269969.3, -35736.523, -0.038476568, -0.40991166, -1250799.4, -81991.3, 0.0, 9.999352, 10.000012 
2.9954633e+3, 1.9072725e+2, -1161266.1, -1206881.8, 3789.1506, -0.05295262, -0.4655056, -1160953.5, -90127.586, 0.0, 10.000024, 9.999449 
2.9953632e+3, 2.007273e+2, -1029898.4, -999381.56, 32896.54, -0.038636528, -0.39621675, -978377.0, -5549.1064, 0.0, 9.999854, 10.000281 
2.9952642e+3, 2.1072656e+2, -913529.56, -874358.9, 37273.996, 0.049185287, -0.45836452, -851838.0, 22995.604, 0.0, 9.999909, 10.000436 
2.9951632e+3, 2.2072601e+2, -753454.94, -773268.0, 23854.318, -0.027146447, -0.4919197, -737531.9, 39305.55, 0.0, 10.000455, 10.000193 
2.995063e+3, 2.3072647e+2, -730574.8, -676067.0, 1655.4607, -0.055989154, -0.43360054, -676016.8, 2816.5947, 0.0, 9.999787, 10.000508 
2.9949632e+3, 2.4072646e+2, -615826.2, -558909.3, 12072.396, -0.033131633, -0.43290883, -556454.56, 24378.81, 0.0, 9.999858, 10.000604 
2.9948628e+3, 2.5072595e+2, -429684.97, -377952.4, 33156.133, -0.032707524, -0.520888, -361766.4, 121068.195, 0.0, 10.000285, 10.000968 
2.9947618e+3, 2.607254e+2, -325239.3, -332016.13, 31527.125, -0.025145045, -0.60581255, -296919.03, 87917.34, 0.0, 10.000553, 10.000494 
2.9946598e+3, 2.7072528e+2, -340574.56, -337792.03, -18930.7, -0.039757777, -0.5883194, -320201.56, -33365.05, 0.0, 9.999969, 10.000072 
2.9945573e+3, 2.8072506e+2, -272197.84, -183209.66, -22349.48, -0.10018984, -0.5876448, -177911.95, 10925.1, 0.0, 9.999549, 10.000648 
2.9944584e+3, 2.9072303e+2, -14012.099, -33519.555, 29524.133, 0.11374863, -0.7967672, 7327.7363, 98180.59, 0.0, 10.000767, 10.000442 
