coord_x,coord_y,stress_xx,stress_yy,tau_xy,velocity_x,velocity_y,stress_1,eps,damage,lx,ly
5.0002617e+0, 1.2567577e+2, -1749501.0, -1802437.4, 7950.8237, 0.023893833, 0.240266, -1748332.6, -39932.793, 0.0027102246, 9.999878, 9.999452 
4.9999684e+0, 1.3567626e+2, -1594549.8, -1634153.3, -8596.238, -0.0153139625, 0.20376712, -1592764.4, 17633.32, 0.0016001622, 10.000155, 9.999786 
5.000118e+0, 1.4567867e+2, -1511278.0, -1636610.4, 6670.851, -0.016996905, 0.5194518, -1510923.9, 1451.1022, 0.00071385584, 10.000478, 9.998927 
5.000414e+0, 1.5567571e+2, -1360477.6, -1515493.5, -5455.048, -0.0055180667, 0.25374284, -1360285.9, 54117.305, 0.00020880907, 10.000854, 9.998907 
5.000525e+0, 1.6567415e+2, -1283128.5, -1488429.3, 24865.367, -0.00042548162, 0.24163112, -1280159.9, 36258.195, 0.00003056022, 10.00098, 9.998361 
5.000473e+0, 1.7567319e+2, -1198064.0, -1397590.5, 54673.613, -0.0013423546, 0.2513904, -1184064.8, 34362.582, 0.0000010193884, 10.000895, 9.998354 
5.0006336e+0, 1.8567196e+2, -939623.7, -1033249.0, 55673.11, -0.0006685676, 0.20833527, -913697.6, 206735.05, 0.0, 10.001196, 10.000032 
5.0009346e+0, 1.9567016e+2, -772581.1, -931723.5, -33515.344, -0.0001518314, -0.033233076, -765810.8, 256627.64, 0.0, 10.001796, 9.999773 
5.0008255e+0, 2.056692e+2, -854995.94, -1150859.5, -56008.06, 0.00083831995, 0.009822417, -844748.4, 79697.83, 0.0, 10.001555, 9.997704 
5.000346e+0, 2.1566842e+2, -884531.9, -1114011.5, -26394.273, -0.0031808838, 0.10244446, -881535.2, -55075.453, 0.0, 10.000676, 9.997709 
5.000275e+0, 2.2566709e+2, -715013.4, -834646.06, 24121.873, -0.0031126505, 0.13500382, -710332.75, 18140.611, 0.0, 10.000539, 9.999021 
5.0005466e+0, 2.3566501e+2, -561235.5, -718110.3, 97.33002, 0.002840339, -0.03821673, -561235.44, 69254.484, 0.0, 10.000955, 9.99895 
5.0004655e+0, 2.456649e+2, -504661.94, -665636.6, 7034.6123, 0.0041610263, 0.07399251, -504355.13, 28136.24, 0.0, 10.000777, 9.998723 
5.0001097e+0, 2.5566587e+2, -507555.03, -629456.0, 30117.73, 0.00016954564, 0.24062824, -500519.94, -66034.24, 0.000000000017365094, 10.000135, 9.998611 
5.0001955e+0, 2.6566482e+2, -327452.03, -404321.3, 62408.887, -0.0003403834, 0.24268979, -292592.13, 43904.188, 0.000000288742, 10.000324, 9.999386 
5.0006205e+0, 2.756622e+2, -113793.19, -255213.05, 7468.614, 0.0008795828, -0.021116545, -113399.85, 125120.055, 0.0000033591298, 10.001136, 9.999346 
5.000731e+0, 2.8566128e+2, 6775.054, -184750.67, -26781.27, -0.003935987, -0.024861746, 10449.419, 150974.53, 0.000018802597, 10.00146, 9.998994 
5.0005203e+0, 2.9566026e+2, 106793.52, -84966.125, -54191.46, -0.025873056, -0.0953663, 121048.414, 163579.13, 0.000081046455, 10.001449, 9.999018 
5.000709e+0, 3.0566046e+2, -56184.11, -488332.34, -51616.94, -0.008161994, 0.17292245, -50104.38, -50104.38, 0.0003038914, 10.001493, 9.995892 
5.0010276e+0, 3.1565487e+2, 297137.22, 278134.66, -56878.285, 0.0292525, -0.027364047, 345302.34, 345302.34, 0.00078894256, 10.001265, 10.001289 
1.5000758e+1, 1.2567605e+2, -1782004.0, -1777338.9, -24671.658, 0.072885394, 0.26829547, -1754889.8, -46494.16, 0.0026043395, 9.999541, 9.999806 
1.4999987e+1, 1.3567454e+2, -1604794.4, -1604638.1, 15843.931, -0.033961963, 0.06583537, -1588872.1, 21537.621, 0.0015429672, 9.999985, 10.000095 
1.5000339e+1, 1.4567658e+2, -1529927.4, -1614986.3, 7242.2754, -0.050494894, 0.31930327, -1529315.1, -16925.254, 0.0006869522, 10.000246, 9.999202 
1.500123e+1, 1.5567502e+2, -1370558.0, -1486875.4, 23209.03, -0.016104098, 0.20661801, -1366098.0, 48308.273, 0.0001968844, 10.000668, 9.999206 
1.5001588e+1, 1.6567414e+2, -1228896.5, -1321022.6, 8768.128, 0.0020421867, 0.17996034, -1228069.4, 88343.26, 0.000026649353, 10.000774, 9.99962 
1.5001462e+1, 1.7567363e+2, -1147663.0, -1248177.9, 66577.2, 0.00034449314, 0.14123969, -1114503.8, 103909.07, 0.00000066228677, 10.000722, 9.999478 
1.500187e+1, 1.856726e+2, -1105088.1, -1315088.6, 65109.117, -0.0019036738, 0.16054386, -1086539.8, 33881.44, 0.0, 10.000966, 9.998217 
1.5002808e+1, 1.9567092e+2, -919310.6, -1181580.1, 329.63312, 0.0024908346, 0.14743467, -919310.2, 103128.13, 0.0, 10.001588, 9.99817 
1.5002453e+1, 2.0566963e+2, -804028.3, -986464.75, -100213.85, 0.001725331, 0.16682601, -759734.25, 164716.64, 0.0, 10.001334, 9.998947 
1.500102e+1, 2.1566851e+2, -835171.3, -956436.7, -40487.45, -0.010484872, 0.13190833, -822896.1, 3565.1365, 0.0, 10.000466, 9.998901 
1.500081e+1, 2.2566734e+2, -754844.94, -860677.7, 25470.693, -0.0069501586, 0.1253786, -749034.0, -20562.756, 0.0, 10.000328, 9.998954 
1.5001613e+1, 2.3566602e+2, -597472.25, -734356.56, 27431.39, 0.00853637, 0.07190713, -592179.7, 38302.387, 0.0, 10.000733, 9.998952 
1.5001397e+1, 2.4566486e+2, -466151.4, -536700.75, -30771.691, 0.014348916, 0.026974952, -454615.8, 77874.21, 0.0, 10.000595, 9.999706 
1.5000321e+1, 2.5566366e+2, -475557.53, -502372.03, 21495.844, 0.0024386146, -0.09285753, -463630.5, -29132.512, 0.0, 9.999903, 9.999607 
1.5000585e+1, 2.6566336e+2, -420907.38, -550101.8, 80849.625, 0.0001254756, -0.019904325, -382018.06, -45514.96, 0.00000013049092, 10.000149, 9.998481 
1.5001878e+1, 2.7566373e+2, -215616.7, -409778.97, 46695.05, 0.005130499, 0.14475676, -204970.53, 33535.855, 0.0000024373799, 10.000916, 9.998404 
1.5002146e+1, 2.856628e+2, -44131.594, -242325.64, -39186.098, -0.013973222, 0.20091788, -36665.16, 103851.58, 0.000015368285, 10.0012865, 9.998695 
1.5001541e+1, 2.9566008e+2, 52335.07, -133774.78, -33509.2, -0.08003055, 0.021374652, 58184.57, 100725.24, 0.000069496324, 10.00119, 9.998822 
1.5002197e+1, 3.0565888e+2, -55043.77, -415664.4, -69732.36, -0.009880257, 0.13413697, -42029.457, -42029.457, 0.00026841622, 10.001272, 9.996517 
1.500302e+1, 3.1565583e+2, 173658.47, 149071.97, -26233.805, 0.09081351, 0.18275322, 190336.52, 190336.52, 0.0007052667, 10.000801, 10.000644 
2.5001296e+1, 1.2567566e+2, -1585249.3, -1684358.8, -16335.61, 0.11931841, 0.2979886, -1582626.1, 125772.0, 0.0024837567, 10.000934, 9.999744 
2.500051e+1, 1.3567322e+2, -1536981.5, -1592508.9, -42079.914, 0.0037947893, 0.0052564405, -1514331.5, 96088.44, 0.0014731403, 10.000578, 9.999876 
2.5001046e+1, 1.456749e+2, -1487044.6, -1561703.4, -2536.2473, -0.0022688447, 0.21667467, -1486958.6, 25444.58, 0.00065158884, 10.000426, 9.99946 
2.5002158e+1, 1.5567441e+2, -1373383.5, -1462077.9, -3454.342, 0.02530792, 0.17351434, -1373249.3, 41160.03, 0.0001815959, 10.000555, 9.9994135 
2.5002667e+1, 1.6567387e+2, -1223069.0, -1301365.5, -20178.281, 0.043109287, 0.16855937, -1218174.6, 98237.13, 0.000022322774, 10.000752, 9.999752 
2.50028e+1, 1.7567319e+2, -1102525.1, -1209464.0, -61353.734, 0.05832042, 0.086556286, -1074611.1, 143802.02, 0.00000035252413, 10.000982, 9.999599 
2.50032e+1, 1.8567228e+2, -1135975.0, -1374595.0, 5184.074, 0.044498533, 0.13347289, -1135862.5, -15439.935, 0.0, 10.000936, 9.997816 
2.500392e+1, 1.9567102e+2, -1091037.0, -1299255.1, 34343.625, 0.015019211, 0.1885472, -1085518.6, -63078.76, 0.0, 10.000561, 9.997842 
2.5003514e+1, 2.0566994e+2, -875695.94, -974509.2, -22243.932, 0.016482085, 0.21907564, -870919.44, 53531.688, 0.0, 10.000643, 9.999355 
2.5002202e+1, 2.1566877e+2, -728142.56, -866821.44, -37210.723, 0.039680798, 0.13016775, -718788.94, 107670.76, 0.0, 10.00104, 9.999233 
2.5002044e+1, 2.2566776e+2, -649176.7, -833275.4, 49868.38, 0.048990782, 0.13686849, -636536.3, 91931.55, 0.0, 10.00115, 9.99873 
2.5002837e+1, 2.3566669e+2, -576060.56, -752911.0, 29601.234, 0.051234223, 0.12016545, -571237.44, 59240.063, 0.0, 10.000994, 9.998689 
2.5002345e+1, 2.4566528e+2, -431853.47, -519151.4, -52413.117, 0.044570416, 0.063430674, -407294.2, 125193.73, 0.0, 10.000836, 9.999696 
2.500082e+1, 2.5566342e+2, -363888.7, -450951.5, -89944.35, 0.031655423, -0.13032883, -307495.25, 127005.734, 0.0, 10.000685, 9.999567 
2.500107e+1, 2.656631e+2, -380537.0, -546715.9, 31363.758, 0.023498325, -0.050954737, -374814.63, -38308.676, 0.00000003137998, 10.000514, 9.998314 
2.5002688e+1, 2.7566385e+2, -313008.6, -476952.38, 40353.777, 0.031216644, 0.1623392, -303614.1, -65108.695, 0.0000016497497, 10.000349, 9.998204 
2.5003263e+1, 2.8566304e+2, -162011.63, -342549.53, 23443.04, 0.008896553, 0.25972456, -159017.19, -18501.207, 0.000012071121, 10.000671, 9.998293 
2.500312e+1, 2.9566047e+2, 37167.383, -184603.08, 5831.0713, -0.035436913, 0.12751248, 37320.594, 79861.0, 0.00005739791, 10.001305, 9.998403 
2.5003928e+1, 3.05658e+2, 42067.973, -288611.03, 1690.0264, 0.03451261, 0.102573566, 42076.61, 42076.61, 0.00023072664, 10.001612, 9.997222 
2.5004393e+1, 3.1565604e+2, 241247.25, 118391.5, 11129.179, 0.13443704, 0.16227494, 242247.28, 242247.28, 0.000617959, 10.00156, 10.000047 
3.5001525e+1, 1.2567449e+2, -1635327.3, -1740619.6, -75624.04, -0.019098978, 0.2603168, -1595828.9, 112579.97, 0.0023583595, 10.000748, 9.999446 
3.5001105e+1, 1.3567232e+2, -1567804.9, -1632646.6, -45360.348, -0.02881589, 0.047545686, -1544470.3, 65958.12, 0.0013953737, 10.0005, 9.99963 
3.500184e+1, 1.4567345e+2, -1469898.3, -1494782.6, -14065.858, -0.0069053713, 0.18792735, -1463561.3, 48855.004, 0.0006105934, 10.000297, 9.99998 
3.5002807e+1, 1.5567377e+2, -1349820.4, -1390493.9, 16481.553, -0.0026791387, 0.17885204, -1343980.4, 70432.23, 0.00016453842, 10.000473, 9.999939 
3.5003525e+1, 1.6567329e+2, -1283011.9, -1404322.6, -28637.465, 0.018217487, 0.18278137, -1276591.3, 39824.945, 0.000017966355, 10.000651, 9.999104 
3.5004166e+1, 1.7567171e+2, -1151205.1, -1296641.4, -39225.527, 0.062402308, 0.08840192, -1141300.3, 77129.68, 0.00000014192928, 10.000917, 9.99904 
3.500429e+1, 1.8567084e+2, -1063054.4, -1186598.6, -22102.4, 0.02862485, 0.096171506, -1059219.3, 61218.97, 0.0, 10.000788, 9.999173 
3.500393e+1, 1.9567041e+2, -1019885.1, -1121134.5, 35952.637, -0.07180556, 0.10404705, -1008417.56, 14026.08, 0.0, 10.000436, 9.999123 
3.5003704e+1, 2.0566995e+2, -908952.7, -1004946.25, -23222.873, -0.056434, 0.14455539, -903629.75, 20818.336, 0.0, 10.000485, 9.999222 
3.5003603e+1, 2.1566916e+2, -759804.0, -893606.5, -9774.011, 0.04621433, 0.11490879, -759093.8, 67361.14, 0.0, 10.000878, 9.999127 
3.500367e+1, 2.256682e+2, -681919.7, -854510.1, 34074.12, 0.06771276, 0.13769422, -675436.1, 53027.91, 0.0, 10.000962, 9.998672 
3.500387e+1, 2.3566708e+2, -608438.3, -773810.94, 37777.277, 0.024558948, 0.12610169, -600217.25, 30258.453, 0.0, 10.000808, 9.99863 
3.500303e+1, 2.4566618e+2, -508195.8, -647242.75, -70294.38, 0.0018007054, 0.16447397, -478851.63, 53633.05, 0.0, 10.000703, 9.998885 
3.5001323e+1, 2.5566524e+2, -437323.84, -566345.1, -80548.6, -0.016923072, 0.150984, -398637.13, 35856.73, 0.0, 10.000528, 9.998852 
3.500135e+1, 2.6566407e+2, -335662.22, -433802.84, 13461.319, -0.02780867, 0.13750269, -333849.3, 2654.7446, 0.0000000045955626, 10.00043, 9.999128 
3.500264e+1, 2.7566263e+2, -277250.22, -370963.9, 52524.496, -0.041101184, 0.051450156, -253719.66, -15203.767, 0.0000011896407, 10.000214, 9.998996 
3.5003796e+1, 2.85662e+2, -188869.2, -377102.72, 34801.984, -0.036383092, 0.14052492, -182640.84, -42118.43, 0.000009641755, 10.00059, 9.998094 
3.5004887e+1, 2.9566148e+2, -4945.6973, -239367.2, 41278.973, -0.0267806, 0.24296229, 2110.6577, 44640.72, 0.0000464018, 10.001172, 9.998092 
3.500543e+1, 3.0565768e+2, 115551.01, -127253.336, -9803.851, -0.0053576734, 0.045939475, 115946.23, 115946.23, 0.00019513248, 10.001558, 9.998353 
3.5004425e+1, 3.1565604e+2, 204842.58, 60646.01, 42455.883, -0.088023104, 0.017393572, 216414.27, 216414.27, 0.00053834624, 10.001469, 9.999692 
4.5002908e+1, 1.2567331e+2, -1652137.0, -1736652.5, -21027.041, 0.08087996, 0.22229359, -1647194.6, 61224.12, 0.0022337737, 10.000612, 9.999516 
4.5001724e+1, 1.3567202e+2, -1540164.4, -1620309.8, -36222.395, -0.005336441, 0.09802568, -1526219.6, 84210.26, 0.0013153872, 10.000704, 9.999608 
4.500256e+1, 1.4567234e+2, -1428602.3, -1463900.6, 31571.262, 0.04131915, 0.1535928, -1410081.9, 102343.33, 0.00056916923, 10.000518, 10.000103 
4.5003852e+1, 1.5567252e+2, -1386909.3, -1402022.6, -4760.8926, 0.084544204, 0.12487253, -1385534.5, 28887.238, 0.00014812649, 10.000174, 10.000026 
4.5004532e+1, 1.656723e+2, -1317239.9, -1408247.0, 17469.477, 0.0809978, 0.14867978, -1314001.8, 2421.508, 0.000013959289, 10.000374, 9.999207 
4.500488e+1, 1.7567125e+2, -1123830.6, -1268346.4, 32612.377, 0.047380563, 0.09590397, -1116812.0, 101621.72, 0.000000037538413, 10.001044, 9.999173 
4.5004803e+1, 1.8567069e+2, -1014004.8, -1103209.0, 31986.19, 0.009410504, 0.10024088, -1003721.0, 116718.28, 0.0, 10.000872, 9.999714 
4.50043e+1, 1.9567049e+2, -1058574.3, -1085852.8, 8651.64, -0.041972764, 0.07956117, -1056061.8, -33620.566, 0.0, 9.999941, 9.999609 
4.5004302e+1, 2.0567012e+2, -974815.5, -1069359.8, -6950.3906, -0.017551009, 0.12266306, -974307.25, -49862.17, 0.0, 10.000157, 9.998947 
4.5004746e+1, 2.1566938e+2, -735228.2, -909909.06, -34016.17, 0.071423195, 0.12283828, -728837.9, 97615.34, 0.0, 10.001159, 9.998885 
4.5004895e+1, 2.2566848e+2, -641711.94, -823550.56, 2791.599, 0.094894774, 0.15433407, -641669.06, 86793.64, 0.0, 10.001183, 9.998788 
4.5004818e+1, 2.3566732e+2, -662102.1, -794557.8, -3497.335, 0.06975666, 0.13289075, -662009.8, -31535.186, 0.0, 10.000417, 9.998689 
4.500389e+1, 2.456666e+2, -572448.75, -738123.94, -40664.53, 0.037462004, 0.21594436, -563005.94, -30522.373, 0.0, 10.000529, 9.998337 
4.5002255e+1, 2.5566587e+2, -355790.4, -588139.94, -58624.85, -0.008311767, 0.27900296, -341836.6, 92657.016, 0.0, 10.001348, 9.998306 
4.5002472e+1, 2.656641e+2, -163550.97, -342618.03, 22226.79, -0.006555637, 0.2277953, -160833.3, 175675.39, 0.000000013083459, 10.001582, 9.999197 
4.5004216e+1, 2.756615e+2, -90307.945, -274370.25, -18988.611, 0.04390295, 0.02055524, -88369.42, 150158.4, 0.0000010541644, 10.001472, 9.999058 
4.500538e+1, 2.8566074e+2, -120573.055, -340546.88, -20549.34, 0.05139579, 0.09289226, -118669.86, 21864.086, 0.000008106713, 10.001041, 9.9981365 
4.5006e+1, 2.956609e+2, -126805.83, -303022.06, -22637.35, 0.020455047, 0.26455107, -123944.23, -81409.49, 0.000037622078, 10.000349, 9.998059 
4.5006627e+1, 3.0565685e+2, -21676.814, -196954.48, -51745.86, 0.017927663, 0.04255197, -7540.4106, -7540.4106, 0.00016443121, 10.00062, 9.998322 
4.5006385e+1, 3.1565556e+2, 196067.7, 13528.133, -139643.42, -0.029228326, 0.0424531, 271622.56, 271622.56, 0.00047154687, 10.001586, 9.999308 
5.500399e+1, 1.256724e+2, -1632622.9, -1715312.0, -61835.08, 0.035639603, 0.18406227, -1599583.6, 108841.37, 0.0021078985, 10.000665, 9.999647 
5.50019e+1, 1.3567235e+2, -1514530.8, -1591084.0, -18021.516, -0.10929965, 0.16201362, -1510500.4, 99923.85, 0.0012334009, 10.000789, 9.999773 
5.500282e+1, 1.4567162e+2, -1448052.8, -1506139.6, -2302.7588, -0.036523852, 0.117120616, -1447961.6, 64467.984, 0.00052778376, 10.000523, 9.999811 
5.500481e+1, 1.5567075e+2, -1405886.0, -1443505.5, -839.14087, 0.120551996, 0.015536311, -1405867.3, 8568.696, 0.00013278752, 10.000177, 9.999741 
5.5005056e+1, 1.6567107e+2, -1274182.0, -1302549.9, 28156.45, 0.056591287, 0.068137676, -1256838.6, 59593.21, 0.0000106646075, 10.000305, 9.999961 
5.5004394e+1, 1.7567177e+2, -1074991.6, -1161095.5, 66897.016, -0.14515698, 0.10879611, -1038490.5, 179934.83, 0.000000007551507, 10.001019, 9.999918 
5.500431e+1, 1.8567178e+2, -1042290.25, -1141961.6, -18810.008, -0.16165367, 0.1445796, -1038858.56, 81567.516, 0.0, 10.000785, 9.99949 
5.500456e+1, 1.9567122e+2, -1086452.6, -1125636.1, -9563.806, -0.045417488, 0.11278005, -1084243.0, -61809.99, 0.0, 9.999865, 9.9993725 
5.500483e+1, 2.0567049e+2, -1023522.8, -1134235.8, 19877.82, -0.0109615745, 0.15034251, -1020062.06, -95620.27, 0.0, 10.0000105, 9.998569 
5.5005145e+1, 2.156694e+2, -775587.44, -966810.4, 12590.645, -0.038562045, 0.15598951, -774762.0, 51692.637, 0.0, 10.001044, 9.998548 
5.500525e+1, 2.2566848e+2, -637649.3, -786354.1, -38412.96, -0.018791111, 0.1832055, -628312.8, 100151.43, 0.0, 10.001062, 9.9991 
5.500527e+1, 2.3566751e+2, -661947.6, -766390.56, -14483.172, 0.042860318, 0.15151569, -659976.44, -29503.377, 0.0, 10.0002985, 9.998939 
5.5004424e+1, 2.4566652e+2, -607588.06, -791106.5, -19874.318, 0.004403432, 0.21357326, -605460.4, -72975.76, 0.0, 10.000449, 9.998009 
5.5003023e+1, 2.5566527e+2, -402187.44, -643286.25, -17360.385, -0.10206491, 0.25545093, -400943.8, 33556.734, 0.0, 10.001185, 9.997996 
5.500405e+1, 2.6566324e+2, -216073.06, -446282.34, 4424.5083, -0.04217635, 0.22684352, -215988.05, 120531.39, 0.000000016276152, 10.001548, 9.998508 
5.500706e+1, 2.756604e+2, -146114.53, -374706.2, -10471.294, 0.14557824, 0.06593785, -145635.86, 92906.3, 0.00000094951764, 10.001392, 9.998415 
5.5007493e+1, 2.856592e+2, -103600.664, -294235.0, -59319.39, 0.12490959, 0.10492582, -86649.62, 53902.043, 0.0000068871877, 10.001003, 9.9984665 
5.5005944e+1, 2.9565886e+2, -124303.06, -274147.6, -30573.908, -0.06168962, 0.19247556, -118304.94, -75750.414, 0.00003070153, 10.000246, 9.998306 
5.500707e+1, 3.056555e+2, -103722.95, -350299.44, -21263.299, -0.032775514, 0.0873647, -101902.77, -101902.77, 0.00013855331, 10.000559, 9.997299 
5.5009437e+1, 3.156544e+2, 152938.47, -48117.785, -71785.8, 0.047133174, 0.21247151, 175938.08, 175938.08, 0.0004144919, 10.001479, 9.998932 
6.500433e+1, 1.2567064e+2, -1851088.4, -1814801.9, -34333.89, 0.10361431, 0.09631655, -1794112.3, -85671.586, 0.0019834668, 9.999098, 9.999745 
6.500315e+1, 1.3567206e+2, -1470402.4, -1539331.5, -30941.574, -0.055374283, 0.19774614, -1458550.8, 151875.44, 0.001149572, 10.000935, 10.000075 
6.500414e+1, 1.4567086e+2, -1371888.9, -1504837.0, -25953.803, 0.02136857, 0.10684323, -1367001.9, 145435.27, 0.00048384682, 10.001215, 9.999479 
6.5005004e+1, 1.5566966e+2, -1376277.9, -1457221.9, -60718.402, 0.11844319, 0.007754991, -1343779.4, 70668.26, 0.00011744106, 10.000525, 9.999463 
6.5004927e+1, 1.6567011e+2, -1297116.9, -1259837.3, 8078.292, 0.04429534, 0.058551177, -1258162.0, 58280.313, 0.000008467286, 9.999918, 10.0004425 
6.5004456e+1, 1.7567113e+2, -1303370.9, -1222045.6, -3804.803, -0.14271969, 0.08566877, -1221868.0, -3436.1956, 0.000000004638606, 9.999252, 10.000347 
6.5004766e+1, 1.8567152e+2, -1203794.5, -1218010.1, -61865.586, -0.12815678, 0.14147806, -1148629.8, -28201.281, 0.0, 9.999673, 9.999498 
6.5005594e+1, 1.9567141e+2, -939869.7, -1054797.9, -63419.18, 0.031367425, 0.15217277, -911752.75, 110678.67, 0.0, 10.000869, 9.999375 
6.500595e+1, 2.0567049e+2, -844671.5, -1044109.7, 22795.836, 0.050416965, 0.16927502, -842099.1, 82342.5, 0.0, 10.001213, 9.998611 
6.5005964e+1, 2.1566877e+2, -815658.44, -981032.6, 24130.168, -0.03716775, 0.10639133, -812209.44, 14250.02, 0.0, 10.0007515, 9.9985895 
6.500587e+1, 2.2566779e+2, -672085.1, -822718.44, -22339.72, -0.04619392, 0.13674362, -668841.9, 59627.652, 0.0, 10.000901, 9.998931 
6.500574e+1, 2.3566729e+2, -494229.06, -700234.44, -57719.77, 0.008765251, 0.16355899, -479159.22, 151315.61, 0.0, 10.001505, 9.998811 
6.500534e+1, 2.456661e+2, -417006.47, -710548.4, -25166.19, -0.005925338, 0.21689643, -414864.53, 117623.766, 0.0, 10.001795, 9.997934 
6.500482e+1, 2.5566423e+2, -311676.9, -610421.75, -32249.256, -0.062905096, 0.20658553, -308235.28, 126274.414, 0.0, 10.001843, 9.997926 
6.5006065e+1, 2.6566213e+2, -228014.22, -504422.9, 11029.598, 0.006293284, 0.20568947, -227574.8, 108955.336, 0.00000000394634, 10.001694, 9.998043 
6.500873e+1, 2.7565983e+2, -159561.1, -420540.72, -11444.083, 0.17853759, 0.13969938, -159060.23, 79490.59, 0.0000007712445, 10.001491, 9.998041 
6.500881e+1, 2.8565827e+2, -35709.742, -237002.56, -37940.7, 0.14778629, 0.14866993, -28795.955, 111767.34, 0.000006042053, 10.0013685, 9.998681 
6.500697e+1, 2.9565698e+2, 30573.555, -166349.63, -45053.063, -0.018065788, 0.11924595, 40391.523, 82963.91, 0.000026519589, 10.001192, 9.998579 
6.5008324e+1, 3.0565444e+2, -30751.287, -337759.1, 61457.52, 0.0207466, 0.08715246, -18905.639, -18905.639, 0.00012024143, 10.001149, 9.997108 
6.5011466e+1, 3.156534e+2, 116030.84, -33669.973, 28037.057, 0.14133874, 0.24928835, 121109.53, 121109.53, 0.00036921015, 10.001061, 9.999256 
7.50031e+1, 1.256678e+2, -1820619.4, -1759795.3, -19655.607, -0.012022213, -0.036742803, -1753996.4, -45528.586, 0.0018629195, 9.999143, 10.000096 
7.500484e+1, 1.3567103e+2, -1431911.5, -1470052.1, 38061.434, -0.023174461, 0.19221407, -1408410.1, 202026.77, 0.0010666472, 10.000978, 10.000531 
7.500573e+1, 1.4567003e+2, -1404621.4, -1561111.5, -67652.06, 0.013628813, 0.1194479, -1379430.0, 133017.83, 0.0004391749, 10.001166, 9.999117 
7.5004023e+1, 1.556692e+2, -1396404.1, -1510382.8, -70105.836, -0.074445896, 0.09369538, -1363046.3, 51411.277, 0.00010226521, 10.000562, 9.999088 
7.5003684e+1, 1.6566934e+2, -1293857.0, -1238366.3, -32258.629, -0.10800053, 0.12148446, -1223562.6, 92892.836, 0.000007138289, 9.999862, 10.000612 
7.500465e+1, 1.7566933e+2, -1298244.8, -1203700.8, -13493.976, -0.08634511, 0.027730364, -1201812.5, 16640.521, 0.00000003688298, 9.999217, 10.00049 
7.500573e+1, 1.8566987e+2, -1202779.6, -1198238.1, -30409.717, -0.032357305, 0.082760274, -1170014.5, -49567.418, 0.0, 9.999591, 9.999679 
7.500694e+1, 1.956709e+2, -929827.7, -1023946.7, -10216.87, 0.043544233, 0.18776296, -928731.4, 93706.69, 0.0, 10.000824, 9.99961 
7.5007266e+1, 2.0567004e+2, -824258.2, -978734.4, -6301.319, 0.029449124, 0.17275858, -824001.56, 100443.73, 0.0, 10.001115, 9.999106 
7.5006795e+1, 2.1566744e+2, -801487.06, -928425.94, 21549.186, -0.061418895, -0.030794565, -797928.6, 28539.498, 0.0, 10.000644, 9.999006 
7.5006294e+1, 2.2566643e+2, -734066.5, -922652.44, -10381.576, -0.12298274, 0.0101396665, -733496.7, -5018.178, 0.0, 10.000779, 9.998302 
7.500583e+1, 2.3566654e+2, -555993.8, -797961.0, -21132.547, -0.16425665, 0.16186498, -554162.0, 76318.63, 0.0, 10.001368, 9.998209 
7.5006175e+1, 2.4566534e+2, -416561.16, -691020.56, -35381.58, -0.1305629, 0.23061624, -412073.38, 120421.1, 0.0, 10.001715, 9.998103 
7.5007224e+1, 2.5566283e+2, -321780.13, -604973.94, -17769.865, -0.038287576, 0.13751636, -320669.47, 113850.56, 0.0, 10.001722, 9.998023 
7.5008005e+1, 2.6566103e+2, -257963.52, -544301.5, -8376.767, 0.00083300844, 0.17654212, -257718.66, 78820.38, 0.00000000015133415, 10.001609, 9.997806 
7.500869e+1, 2.756598e+2, -193680.36, -462203.94, -1412.8912, -0.009926086, 0.24081177, -193672.92, 44880.605, 0.00000065427645, 10.001369, 9.997811 
7.5008917e+1, 2.85658e+2, -28320.588, -215684.95, -55866.45, -0.011887849, 0.2273905, -12927.513, 127641.12, 0.0000058927376, 10.001336, 9.998846 
7.5008637e+1, 2.9565528e+2, 36518.83, -137798.67, -35874.32, -0.011359526, 0.038492672, 43613.004, 86201.695, 0.000025865007, 10.001102, 9.998828 
7.500989e+1, 3.0565348e+2, -578.17017, -254277.95, 55017.297, 0.029966177, 0.03344206, 10839.0625, 10839.0625, 0.00011203884, 10.001079, 9.997703 
7.5011575e+1, 3.1565234e+2, 169486.95, 118787.11, 80622.586, -0.02017645, 0.12674278, 228651.05, 228651.05, 0.00034091447, 10.0008955, 10.000373 
8.500334e+1, 1.256676e+2, -1633036.0, -1708094.8, 107874.75, 0.040245194, -0.014540396, -1556348.8, 152121.0, 0.0017451695, 10.000622, 9.999723 
8.5005516e+1, 1.356709e+2, -1660975.8, -1587642.0, 55473.695, 0.03990447, 0.23898198, -1557812.3, 52628.87, 0.0009891815, 9.999462, 10.000438 
8.500635e+1, 1.4566988e+2, -1652431.4, -1640196.4, -15287.984, 0.06708376, 0.14567214, -1629847.4, -117394.4, 0.000399723, 9.999265, 9.999503 
8.5004044e+1, 1.5566978e+2, -1470548.9, -1511784.4, 8800.62, -0.085382506, 0.15801223, -1468749.3, -54295.184, 0.00008899464, 9.999902, 9.999397 
8.500375e+1, 1.6566992e+2, -1276494.6, -1300358.1, 55962.145, -0.09897807, 0.20561174, -1231206.4, 85245.72, 0.000006071428, 10.0002775, 9.999992 
8.500528e+1, 1.7566927e+2, -1176364.0, -1205723.8, -8578.32, 0.010902992, 0.110768706, -1174041.4, 44415.895, 0.000000076650345, 10.000314, 9.99995 
8.5006505e+1, 1.856692e+2, -1101299.4, -1128281.6, 3052.3108, 0.06646214, 0.11911768, -1100958.4, 19498.305, 0.0, 10.000186, 9.999879 
8.500755e+1, 1.9566973e+2, -1060140.9, -1065956.1, -2192.016, 0.0806612, 0.15546124, -1059407.1, -36956.73, 0.0, 9.999833, 9.999803 
8.5008085e+1, 2.0566915e+2, -946779.94, -1009945.44, 889.6413, 0.055844065, 0.14634489, -946767.44, -22313.729, 0.0, 10.000166, 9.999345 
8.5008097e+1, 2.1566743e+2, -736857.25, -874735.9, -21004.443, -0.005195909, 0.0127992155, -733728.44, 92738.76, 0.0, 10.001001, 9.999202 
8.50077e+1, 2.2566624e+2, -665061.25, -906807.4, -18695.281, -0.080388516, 0.035557944, -663624.0, 64854.977, 0.0, 10.001341, 9.998133 
8.5007113e+1, 2.356654e+2, -584638.0, -827365.2, -22149.986, -0.15819767, 0.10880972, -582633.25, 47856.805, 0.0, 10.001252, 9.998054 
8.500781e+1, 2.4566388e+2, -467445.7, -716751.94, -5977.572, -0.11274124, 0.15474552, -467302.47, 65203.973, 0.0, 10.00136, 9.998091 
8.500955e+1, 2.5566167e+2, -330278.9, -606875.56, -26918.54, 0.035769176, 0.09081954, -327683.53, 106845.1, 0.0, 10.00166, 9.998029 
8.501006e+1, 2.6566023e+2, -228427.39, -526706.6, 6218.4956, 0.04722002, 0.15832728, -228297.81, 108247.26, 0.0000000019213902, 10.001758, 9.99787 
8.500979e+1, 2.7565923e+2, -164505.95, -445480.16, 8198.151, -0.03506847, 0.24372812, -164266.95, 74291.53, 0.0000006294421, 10.001521, 9.9978695 
8.500985e+1, 2.856574e+2, -52624.676, -251826.0, -21095.068, -0.03908127, 0.23555969, -50415.25, 90159.82, 0.0000062489003, 10.0012665, 9.998633 
8.5010064e+1, 2.9565457e+2, 48348.145, -144736.83, -54811.332, 0.02676405, 0.05470634, 62822.477, 105419.52, 0.000027811611, 10.001244, 9.998709 
8.5011506e+1, 3.0565327e+2, 34809.18, -225447.52, 27770.668, 0.089074895, 0.097905785, 37739.453, 37739.453, 0.00011222166, 10.00124, 9.997843 
8.5013026e+1, 3.156514e+2, 141880.23, 113330.81, -16294.3125, 0.06528682, 0.10355558, 149268.22, 149268.22, 0.00032900518, 10.00066, 10.000447 
9.5004153e+1, 1.2567016e+2, -1719765.3, -1878986.3, 25199.504, -0.015510555, 0.17356649, -1715872.3, -7426.9854, 0.0016362383, 10.00058, 9.998569 
9.5004624e+1, 1.3567157e+2, -1698613.9, -1692263.0, 28041.645, -0.037695874, 0.3251034, -1667217.5, -56777.77, 0.0009229167, 9.999565, 9.999673 
9.500559e+1, 1.4567032e+2, -1571698.8, -1471056.9, -6266.4287, 0.023635866, 0.18054375, -1470668.1, 41784.664, 0.00036888671, 9.999261, 10.000665 
9.5004624e+1, 1.5567143e+2, -1403779.4, -1376223.9, 45588.83, -0.057182346, 0.20232761, -1342376.4, 72060.45, 0.00007923838, 9.999911, 10.000325 
9.500476e+1, 1.6567191e+2, -1382167.6, -1507107.6, 45403.207, -0.05866332, 0.31681255, -1367411.0, -50979.246, 0.0000051224774, 10.00022, 9.998602 
9.500587e+1, 1.7567101e+2, -1265975.6, -1391874.4, 6771.681, 0.0018013885, 0.3318636, -1265612.5, -47168.473, 0.00000007826353, 10.000311, 9.998673 
9.500664e+1, 1.856696e+2, -1099497.3, -1109313.5, -21384.885, 0.030408928, 0.25702316, -1082464.5, 37991.863, 0.0, 10.000119, 10.000039 
9.500703e+1, 1.9566792e+2, -1059104.6, -1050595.0, 2073.3813, 0.0125358915, 0.052255716, -1050116.8, -27648.781, 0.0, 9.99977, 9.999937 
9.500801e+1, 2.0566782e+2, -973598.94, -1040045.25, 20459.787, 0.002224371, 0.09281064, -967804.4, -43338.1, 0.0, 10.000049, 9.999196 
9.500939e+1, 2.1566859e+2, -761195.7, -901276.94, 23853.035, -0.007132856, 0.22167002, -757245.4, 69212.63, 0.0, 10.000892, 9.999075 
9.500963e+1, 2.2566706e+2, -665315.06, -880663.4, -32000.629, -0.052585367, 0.20138147, -660660.4, 67811.91, 0.0, 10.001225, 9.998365 
9.50091e+1, 2.3566356e+2, -585427.6, -807569.4, -12342.592, -0.11665918, -0.015532672, -584743.94, 45761.59, 0.0, 10.00115, 9.998241 
9.5009804e+1, 2.4566156e+2, -492298.9, -744536.56, -7227.1587, -0.079570875, -0.018261652, -492092.0, 40433.457, 0.0, 10.001258, 9.997949 
9.501143e+1, 2.5566056e+2, -348884.5, -630290.9, 190.82448, 0.022811508, 0.051557444, -348884.38, 85652.55, 0.0, 10.001582, 9.9979105 
9.501187e+1, 2.6565942e+2, -211600.78, -472088.03, -15116.551, 0.023152089, 0.13206096, -210726.47, 125824.03, 0.0000000017799018, 10.001684, 9.998273 
9.5011526e+1, 2.7565798e+2, -159616.77, -406102.88, 11349.085, -0.046997976, 0.12989925, -159095.33, 79472.24, 0.0000005677249, 10.001397, 9.998195 
9.501116e+1, 2.8565648e+2, -103540.305, -344560.97, -36636.22, -0.0666868, 0.17597161, -98094.484, 42488.23, 0.0000064583187, 10.001212, 9.998019 
9.5010793e+1, 2.9565477e+2, -12456.329, -245075.31, -32786.715, -0.0633462, 0.16408803, -7923.5, 34674.758, 0.000029725905, 10.001125, 9.998077 
9.501274e+1, 3.056538e+2, 12221.608, -256825.95, 1814.5073, 0.05873601, 0.2791284, 12233.845, 12233.845, 0.0001135958, 10.001178, 9.997647 
9.50149e+1, 3.156507e+2, 47654.855, -49933.13, 12701.003, 0.118026026, 0.18578903, 49280.793, 49280.793, 0.00032168903, 10.000521, 9.99939 
1.0500377e+2, 1.2567025e+2, -1929558.5, -1997702.5, -44307.96, -0.023565907, 0.24325216, -1907736.9, -199290.17, 0.0015480418, 9.9991865, 9.99844 
1.050047e+2, 1.3567089e+2, -1624584.0, -1656205.8, -30447.133, 0.0008218602, 0.3222324, -1606087.3, 4361.1167, 0.00087241904, 10.000058, 9.999692 
1.0500607e+2, 1.4566977e+2, -1399839.6, -1381338.4, -32060.705, 0.09515592, 0.18417765, -1357220.5, 155239.4, 0.0003471946, 10.000436, 10.000701 
1.0500515e+2, 1.5567105e+2, -1309389.8, -1338837.3, -96146.95, -0.017609637, 0.23091277, -1226845.6, 187596.28, 0.000073446034, 10.000597, 10.000253 
1.05005294e+2, 1.6567127e+2, -1335988.4, -1468091.0, -57385.3, -0.030499043, 0.31452447, -1314542.0, 1896.0533, 0.000004420773, 10.000482, 9.99873 
1.0500654e+2, 1.7566986e+2, -1286868.6, -1395049.0, -12215.116, 0.054038428, 0.26747593, -1285506.5, -67053.68, 0.000000050630582, 10.000151, 9.998722 
1.05007224e+2, 1.8566835e+2, -1098236.5, -1153536.9, 14697.111, 0.07344835, 0.20114496, -1094573.1, 25893.441, 0.0, 10.000332, 9.999626 
1.05007395e+2, 1.9566686e+2, -947265.06, -1036607.2, -35861.324, 0.03232202, 0.057441372, -934651.4, 87827.21, 0.0, 10.00073, 9.999559 
1.0500838e+2, 2.0566674e+2, -846508.75, -975072.7, 10454.507, -0.000145262, 0.11030787, -845664.2, 78814.25, 0.0, 10.00091, 9.999226 
1.0501006e+2, 2.1566735e+2, -769964.7, -897998.3, -1493.528, -0.015982408, 0.22023596, -769947.25, 56524.3, 0.0, 10.000806, 9.999134 
1.0501088e+2, 2.2566597e+2, -703467.06, -879745.1, -40210.844, -0.02477112, 0.20335332, -694727.8, 33756.28, 0.0, 10.000871, 9.998558 
1.0501113e+2, 2.3566292e+2, -585991.3, -784122.1, -48993.54, -0.015527025, 0.0146505525, -574538.3, 55974.44, 0.0, 10.00105, 9.998458 
1.0501173e+2, 2.4566115e+2, -486138.56, -709685.06, 3618.7156, -0.0008759694, 0.009770843, -486080.0, 46449.867, 0.0, 10.001166, 9.998233 
1.05012715e+2, 2.5566018e+2, -388607.03, -616930.9, 17688.32, 0.02022754, 0.056112483, -387244.8, 47295.22, 0.0, 10.001188, 9.998185 
1.0501288e+2, 2.6565903e+2, -306135.44, -512482.94, 8302.665, -0.0037238908, 0.12242971, -305801.9, 30751.313, 0.00000000014537505, 10.001035, 9.9983015 
1.0501258e+2, 2.756576e+2, -247125.48, -445456.06, -20434.266, -0.04274923, 0.11707319, -245042.0, -6471.454, 0.00000042821608, 10.000805, 9.998205 
1.05012484e+2, 2.856561e+2, -131557.03, -360743.16, -12730.925, -0.03746477, 0.16282772, -130852.016, 9733.845, 0.0000059800022, 10.001007, 9.998019 
1.0501257e+2, 2.9565448e+2, 32439.803, -230508.89, 4663.5635, -0.0028489393, 0.15719423, 32522.488, 75123.33, 0.000029321069, 10.001447, 9.998032 
1.05014384e+2, 3.0565363e+2, 33194.098, -267172.9, 65927.34, 0.10437219, 0.29868776, 47027.355, 47027.355, 0.000109980174, 10.001422, 9.997452 
1.0501613e+2, 3.156505e+2, 63466.465, -115027.72, 39078.06, 0.18097216, 0.21910597, 71646.98, 71646.98, 0.0003078243, 10.000947, 9.998732 
1.1500131e+2, 1.256676e+2, -1864059.3, -1873967.5, -48004.117, -0.2664807, 0.18240353, -1820754.3, -112277.71, 0.0014882531, 9.999231, 9.999271 
1.150053e+2, 1.3566874e+2, -1561966.4, -1534023.8, 8427.419, 0.018922023, 0.22266354, -1531678.9, 78788.94, 0.000840427, 10.000091, 10.000514 
1.1500741e+2, 1.4566812e+2, -1490079.5, -1552405.9, -41841.023, 0.14731415, 0.15408258, -1469071.6, 43403.332, 0.00033535642, 10.000362, 9.999563 
1.1500499e+2, 1.5566868e+2, -1375458.0, -1475990.6, -72892.42, -0.13235287, 0.23911603, -1337180.5, 77288.74, 0.0000716502, 10.000608, 9.999299 
1.1500494e+2, 1.6566804e+2, -1229082.8, -1244805.5, -81551.97, -0.15119347, 0.20068896, -1155014.1, 161456.61, 0.0000041980056, 10.000466, 10.0002775 
1.1500698e+2, 1.756658e+2, -1187317.0, -1187572.8, -9975.658, 0.04769795, -0.08766601, -1177468.4, 41015.965, 0.000000024917117, 10.000146, 10.000149 
1.1500801e+2, 1.8566543e+2, -1187351.8, -1312180.6, 17031.332, 0.09016593, -0.04958958, -1185069.8, -64582.07, 0.0, 10.000219, 9.998597 
1.1500812e+2, 1.9566649e+2, -1021312.25, -1177905.5, -8702.17, -0.0035081494, 0.16363248, -1020830.1, 1653.3585, 0.0, 10.000674, 9.99862 
1.1500874e+2, 2.0566583e+2, -850821.9, -957901.6, -7149.3926, -0.084191635, 0.20035975, -850346.6, 74143.805, 0.0, 10.000795, 9.9994 
1.150097e+2, 2.1566358e+2, -775340.56, -880886.25, 6242.058, -0.16073588, 0.00301282, -774972.7, 51536.22, 0.0, 10.00068, 9.999314 
1.1501107e+2, 2.2566295e+2, -713187.94, -868330.3, -45689.78, -0.11786407, 0.04627933, -700732.2, 27782.518, 0.0, 10.00074, 9.998697 
1.15012765e+2, 2.3566337e+2, -590111.94, -764601.2, -28053.674, 0.01261984, 0.18942125, -585712.5, 44800.023, 0.0, 10.000921, 9.998656 
1.1501326e+2, 2.4566253e+2, -453521.03, -613374.56, -8418.894, 0.0055859755, 0.22841896, -453078.88, 79441.69, 0.0, 10.001054, 9.998945 
1.1501293e+2, 2.5566047e+2, -362522.38, -532940.5, 27633.518, -0.106860034, 0.09722259, -358153.56, 76384.98, 0.0, 10.001063, 9.998821 
1.15012705e+2, 2.656591e+2, -339881.1, -569610.8, -11510.92, -0.1529947, 0.12852827, -339305.78, -2752.2422, 0.0, 10.000976, 9.997944 
1.15012564e+2, 2.75658e+2, -282490.63, -497150.22, -10392.102, -0.157342, 0.2005785, -281988.7, -43420.703, 0.0000002594802, 10.000701, 9.99791 
1.1501337e+2, 2.8565615e+2, -101013.625, -276537.78, -6097.123, -0.08082828, 0.18959358, -100802.086, 39783.06, 0.000005001763, 10.000929, 9.998634 
1.1501495e+2, 2.9565358e+2, 41490.445, -175781.16, 34129.695, 0.05209519, 0.034218796, 46725.508, 89330.734, 0.000026475647, 10.001299, 9.998481 
1.15016036e+2, 3.0565268e+2, 11438.64, -291323.5, 45331.53, 0.0974369, 0.16289344, 18080.277, 18080.277, 0.000100772006, 10.001353, 9.997312 
1.15015835e+2, 3.1565076e+2, 29534.363, -152553.53, 65070.05, -0.013690566, 0.20462728, 50397.125, 50397.125, 0.00028477798, 10.000818, 9.998533 
1.2500185e+2, 1.256659e+2, -1621877.0, -1685432.9, 2575.9314, -0.19186327, 0.19225924, -1621772.8, 86724.21, 0.0014562852, 10.000606, 9.999888 
1.2500508e+2, 1.3566734e+2, -1607464.6, -1515259.8, -33423.297, 0.027375339, 0.22154258, -1504418.8, 106063.03, 0.0008261713, 9.999607, 10.000874 
1.2500727e+2, 1.4566714e+2, -1635564.1, -1608713.1, 3520.4514, 0.16513008, 0.17213777, -1608259.3, -95775.76, 0.00033346904, 9.999302, 9.999686 
1.2500548e+2, 1.556674e+2, -1479416.5, -1512785.3, 31582.168, -0.0967819, 0.21406959, -1460382.5, -45901.332, 0.00007407354, 9.999831, 9.999417 
1.2500566e+2, 1.6566676e+2, -1242650.4, -1237655.9, 16761.672, -0.109924726, 0.16145973, -1223206.5, 93276.54, 0.000004716059, 10.000299, 10.00042 
1.2500758e+2, 1.7566489e+2, -1118908.1, -1144567.3, -42498.95, 0.08297827, -0.099673174, -1087344.5, 131148.73, 0.000000012759114, 10.00055, 10.000266 
1.2500866e+2, 1.8566483e+2, -1145878.9, -1289382.0, 12846.423, 0.13000903, -0.038133353, -1144738.0, -24244.238, 0.0, 10.000489, 9.998614 
1.2500903e+2, 1.9566621e+2, -1098609.6, -1217770.9, 37629.707, 0.053487226, 0.20775113, -1087721.5, -65235.156, 0.0, 10.00015, 9.998598 
1.2500969e+2, 2.0566535e+2, -952836.94, -1022289.25, 82831.23, -0.028971935, 0.23065822, -897747.06, 26748.563, 0.0, 10.000163, 9.999261 
1.2501062e+2, 2.1566251e+2, -830449.94, -919362.5, 46144.63, -0.112712905, -0.009400555, -810830.56, 15689.594, 0.0, 10.000358, 9.999202 
1.2501204e+2, 2.256619e+2, -723362.8, -844348.2, 18468.81, -0.07540248, 0.02769147, -720606.3, 7919.174, 0.0, 10.000538, 9.998953 
1.2501392e+2, 2.3566292e+2, -606871.1, -743316.25, 17903.494, 0.058038402, 0.2020211, -604561.06, 25956.008, 0.0, 10.000694, 9.998898 
1.250144e+2, 2.4566233e+2, -509159.72, -649905.6, 25777.695, 0.039770767, 0.26051107, -504587.1, 27935.783, 0.0, 10.000707, 9.998864 
1.2501393e+2, 2.556603e+2, -430092.94, -576112.2, -22384.97, -0.08258258, 0.14144899, -426738.34, 7803.6074, 0.0, 10.0006275, 9.998745 
1.2501371e+2, 2.6565897e+2, -390631.16, -556977.94, -40403.816, -0.116579935, 0.1607215, -381336.8, -44780.75, 0.0, 10.000471, 9.998265 
1.2501377e+2, 2.756579e+2, -323501.94, -479684.6, -12800.042, -0.076267146, 0.19907063, -322459.84, -83891.56, 0.00000012209664, 10.000279, 9.998218 
1.2501468e+2, 2.85656e+2, -146806.22, -298307.6, 44485.84, -0.016893817, 0.17017399, -134709.56, 5875.5845, 0.000003888246, 10.000625, 9.998626 
1.2501645e+2, 2.9565343e+2, 52996.965, -166758.55, 9626.209, 0.080501035, 0.016919741, 53417.824, 96023.164, 0.00002250982, 10.001375, 9.998498 
1.250171e+2, 3.0565187e+2, 17922.955, -282885.66, 9245.124, 0.08418464, 0.07557372, 18206.83, 18206.83, 0.000088219014, 10.001326, 9.997416 
1.2501676e+2, 3.156504e+2, 30973.46, -56420.254, -6449.4297, 0.034158524, 0.14590247, 31446.848, 31446.848, 0.00025421134, 10.000402, 9.99941 
1.3500455e+2, 1.2566504e+2, -1605577.0, -1642474.8, -83995.48, -0.05554918, 0.25876832, -1538028.3, 170480.98, 0.0014504807, 10.000566, 10.000203 
1.350035e+2, 1.3566668e+2, -1599607.5, -1508624.1, -58017.11, -0.12859829, 0.31504807, -1480390.1, 130100.14, 0.0008289551, 9.999656, 10.000891 
1.3500524e+2, 1.4566691e+2, -1541579.1, -1424614.0, 5140.6924, -0.013661243, 0.24234644, -1424388.5, 88096.19, 0.0003411424, 9.999333, 10.000941 
1.3500625e+2, 1.5566719e+2, -1402750.6, -1350732.5, 63923.957, -0.037817825, 0.15733926, -1307728.9, 106749.23, 0.00008049032, 9.999809, 10.0005455 
1.3500701e+2, 1.656674e+2, -1347434.6, -1423006.8, 11697.213, -0.03389086, 0.20275813, -1345665.5, -29190.33, 0.0000062176173, 10.000175, 9.999201 
1.3500775e+2, 1.756671e+2, -1202703.5, -1304768.8, -17967.705, 0.01083498, 0.22379263, -1199632.8, 18846.535, 0.000000017143847, 10.000509, 9.999178 
1.3500862e+2, 1.8566667e+2, -1082479.4, -1149044.5, -11795.026, 0.04094161, 0.24322422, -1080451.3, 40031.938, 0.0, 10.000436, 9.999609 
1.3500953e+2, 1.9566603e+2, -1043358.6, -1089078.0, 40728.477, 0.051673513, 0.18411823, -1019513.1, 2974.0198, 0.0, 10.000082, 9.999516 
1.3501081e+2, 2.0566523e+2, -1002939.0, -1101534.3, 75605.414, 0.037581533, 0.1988194, -961979.0, -37484.875, 0.0, 10.000052, 9.998774 
1.3501233e+2, 2.1566406e+2, -879227.06, -990241.7, 68797.33, -0.008754575, 0.17274126, -846336.8, -19830.805, 0.0, 10.000223, 9.998782 
1.3501342e+2, 2.2566287e+2, -714670.4, -801588.0, 11034.705, -0.023218967, 0.15073822, -713291.4, 15224.912, 0.0, 10.000423, 9.999303 
1.3501413e+2, 2.3566146e+2, -604114.56, -710707.1, 35733.734, -0.022481792, 0.047153648, -593243.94, 37283.074, 0.0, 10.00057, 9.999182 
1.3501473e+2, 2.4566051e+2, -583089.0, -780548.4, 11333.98, -0.028422168, 0.09875235, -582440.56, -49902.75, 0.0, 10.000611, 9.998011 
1.350153e+2, 2.556597e+2, -500355.1, -691133.75, -10594.52, -0.041158304, 0.18561685, -499768.53, -65218.164, 0.0, 10.000496, 9.998015 
1.3501553e+2, 2.6565862e+2, -334664.47, -423562.47, -60441.727, -0.010743317, 0.21828218, -304087.38, 32473.701, 0.0, 10.0004015, 9.999212 
1.3501564e+2, 2.756571e+2, -280740.06, -361505.63, -5050.847, 0.05065555, 0.10937054, -280425.4, -41852.523, 0.000000046518082, 10.000157, 9.999085 
1.3501602e+2, 2.8565547e+2, -189565.2, -381244.72, 60858.617, 0.022456132, 0.09756329, -171875.1, -31287.75, 0.0000029362805, 10.000593, 9.998072 
1.3501664e+2, 2.9565385e+2, 7533.498, -242734.53, 50643.133, -0.07699728, 0.08796927, 17392.996, 59996.504, 0.000019015239, 10.001284, 9.998024 
1.3501713e+2, 3.0565116e+2, 38013.89, -222102.8, -32959.3, -0.07335611, 0.03307327, 42125.17, 42125.17, 0.000075927965, 10.001258, 9.997858 
1.3501808e+2, 3.1564936e+2, 144431.3, 209100.7, -4208.2246, 0.057536874, 0.029047238, 209373.39, 209373.39, 0.0002226974, 10.0002775, 10.001295 
1.4500488e+2, 1.2566406e+2, -1781657.4, -1684482.8, 3126.6711, 0.010195539, 0.23886605, -1684382.3, 24136.896, 0.0014659849, 9.999191, 10.000575 
1.4500323e+2, 1.3566598e+2, -1623238.3, -1520651.9, -27232.871, -0.10378165, 0.31970814, -1513870.9, 96625.28, 0.0008466132, 9.999503, 10.000875 
1.4500505e+2, 1.4566608e+2, -1520487.0, -1427098.8, 34336.42, 0.033470582, 0.24281478, -1415833.1, 96658.17, 0.00035647568, 9.99953, 10.000834 
1.4500642e+2, 1.5566584e+2, -1464540.3, -1389091.8, -37103.42, 0.028259128, 0.11785661, -1373903.0, 40587.04, 0.00008921642, 9.999424, 10.000471 
1.4500728e+2, 1.6566631e+2, -1454920.6, -1488158.9, -54286.73, 0.021141056, 0.19610922, -1414766.1, -98279.84, 0.000008328298, 9.999498, 9.999073 
1.4500803e+2, 1.7566694e+2, -1330866.8, -1381672.6, -32196.25, 0.036465365, 0.31894574, -1315258.6, -96774.5, 0.0000000715251, 9.999688, 9.999044 
1.4500916e+2, 1.8566626e+2, -1095542.0, -1152711.8, -6487.419, 0.06289065, 0.32133597, -1094815.1, 25675.006, 0.0, 10.000341, 9.9996395 
1.4501041e+2, 1.9566445e+2, -863174.6, -1003510.3, -58084.86, 0.08104499, 0.1470577, -842252.5, 180251.11, 0.0, 10.001314, 9.999527 
1.4501175e+2, 2.0566368e+2, -855380.7, -1021026.5, -35269.12, 0.08585749, 0.16099598, -848183.94, 76325.97, 0.0, 10.001028, 9.998849 
1.4501312e+2, 2.1566357e+2, -949525.7, -1016538.3, -27230.576, 0.08320091, 0.23174891, -939855.9, -113343.62, 0.0, 9.999715, 9.998839 
1.4501409e+2, 2.256624e+2, -810526.56, -828509.8, -9395.479, 0.046283368, 0.20115046, -806513.44, -77991.38, 0.0, 9.999697, 9.99947 
1.4501475e+2, 2.3566021e+2, -575426.7, -680208.9, -31413.203, -0.014521537, 0.006513645, -566730.8, 63808.33, 0.0, 10.000699, 9.999336 
1.4501554e+2, 2.4565926e+2, -503634.72, -711071.9, -14962.119, -0.021458756, 0.035858985, -502561.06, 29987.922, 0.0, 10.001015, 9.9983015 
1.4501643e+2, 2.5565904e+2, -437530.97, -628488.9, 22573.137, 0.01957555, 0.15505485, -434898.88, -344.07767, 0.0, 10.000793, 9.998302 
1.4501682e+2, 2.656581e+2, -265375.34, -395763.0, 4019.4102, 0.05975776, 0.18820839, -265251.53, 71312.87, 0.0, 10.0008955, 9.999171 
1.4501679e+2, 2.756563e+2, -119660.016, -291715.5, -43286.297, 0.10438667, 0.06324619, -109383.68, 129195.56, 0.00000002138944, 10.001279, 9.999041 
1.4501719e+2, 2.8565517e+2, -130631.44, -331278.13, 41186.17, 0.07308061, 0.09126901, -122506.29, 18084.023, 0.0000023054517, 10.000896, 9.998271 
1.450179e+2, 2.9565465e+2, -169874.05, -300544.22, 54082.742, -0.0003716094, 0.17337906, -150393.94, -107796.84, 0.000016570593, 9.999951, 9.99826 
1.4501797e+2, 3.0565113e+2, -116283.65, -325952.06, 10989.687, -0.055565532, 0.032707933, -115709.2, -115709.2, 0.0000664134, 10.000348, 9.997567 
1.4501897e+2, 3.156489e+2, 377299.84, 390742.84, -76738.555, 0.068580054, 0.019758927, 461053.7, 461053.7, 0.0001967113, 10.001598, 10.001897 
1.5500218e+2, 1.256634e+2, -1742078.5, -1633103.9, -18783.178, -0.256692, 0.16975385, -1629957.3, 78565.55, 0.0014879738, 9.999303, 10.000888 
1.550038e+2, 1.3566531e+2, -1629417.4, -1538292.1, -10899.614, -0.03175297, 0.25238788, -1537006.5, 73491.91, 0.0008684092, 9.999515, 10.000758 
1.5500621e+2, 1.4566469e+2, -1623761.3, -1627635.3, 12415.972, 0.15908182, 0.18118134, -1613132.1, -100629.06, 0.00037251608, 9.999478, 9.999478 
1.5500543e+2, 1.556635e+2, -1554302.8, -1562971.9, -25749.418, -0.05064664, 0.093936354, -1532525.6, -118009.46, 0.00009664872, 9.999383, 9.9992895 
1.5500613e+2, 1.6566363e+2, -1398420.4, -1359548.1, -60413.953, -0.079286635, 0.14695902, -1315520.8, 994.2663, 0.000009881803, 9.999443, 9.99999 
1.5500809e+2, 1.7566448e+2, -1283684.4, -1268767.5, -8176.891, 0.04288193, 0.20228435, -1265158.5, -46652.367, 0.00000020107916, 9.999622, 9.999856 
1.5500982e+2, 1.8566369e+2, -1176790.9, -1303892.0, 17312.033, 0.067501634, 0.20823644, -1174475.0, -53961.344, 0.0, 10.000263, 9.99864 
1.5501127e+2, 1.9566144e+2, -939800.94, -1139709.8, -10679.426, 0.004730294, 0.090262815, -939232.0, 83303.695, 0.0, 10.001225, 9.998631 
1.5501216e+2, 2.0566073e+2, -828084.5, -940035.94, -96132.34, -0.0063862195, 0.11870232, -772818.56, 151723.84, 0.0, 10.000916, 9.999466 
1.5501253e+2, 2.1566108e+2, -928371.0, -940141.9, -57966.51, 0.020867135, 0.17312263, -875991.94, -49453.11, 0.0, 9.999576, 9.999433 
1.5501368e+2, 2.2566052e+2, -835914.2, -858496.5, 15946.33, 0.0070029106, 0.18542951, -827666.25, -99123.61, 0.0, 9.99959, 9.999318 
1.5501545e+2, 2.3565911e+2, -595536.2, -697930.1, 18372.953, -0.043819718, 0.07972724, -592339.25, 38214.906, 0.0, 10.000585, 9.999273 
1.5501645e+2, 2.4565849e+2, -414163.16, -504551.38, -36888.156, -0.059120435, 0.070368946, -401019.94, 131537.22, 0.0, 10.000925, 9.999762 
1.5501696e+2, 2.5565827e+2, -366422.94, -453069.2, 31035.438, -0.040076766, 0.04179664, -356453.56, 78102.5, 0.0, 10.000665, 9.999573 
1.5501705e+2, 2.6565734e+2, -350376.47, -553711.4, 6453.9775, -0.036542047, 0.07320855, -350171.8, -13605.646, 0.0, 10.000822, 9.998117 
1.5501681e+2, 2.7565557e+2, -207354.3, -444762.72, -14965.511, -0.05054647, 0.05385212, -206414.64, 32173.168, 0.000000019825112, 10.001154, 9.998048 
1.550178e+2, 2.856551e+2, -70833.35, -199329.42, -6028.7383, 0.011693744, 0.14816558, -70551.12, 70043.34, 0.0000019865888, 10.000858, 9.999198 
1.5501986e+2, 2.9565582e+2, -120911.23, -179145.77, 39431.37, 0.15596133, 0.26095998, -101011.68, -58423.867, 0.000014949104, 9.999857, 9.9991455 
1.5501924e+2, 3.0565178e+2, -198074.11, -474933.75, 50283.855, 0.00875627, 0.078330316, -189224.33, -189224.33, 0.000059797247, 10.00028, 9.99656 
1.5501848e+2, 3.156491e+2, 303081.66, 274422.56, -5179.3145, -0.20379674, 0.11779353, 303988.94, 303988.94, 0.00017773658, 10.001454, 10.001151 
1.6500255e+2, 1.2566327e+2, -1789055.6, -1672465.0, 30402.416, -0.12534353, 0.18324232, -1665013.4, 43508.73, 0.0014964563, 9.999054, 10.000728 
1.6500391e+2, 1.3566437e+2, -1529827.6, -1534620.5, -45108.723, -0.005197125, 0.2173325, -1487051.8, 123455.25, 0.0008776996, 10.000375, 10.000373 
1.6500638e+2, 1.4566325e+2, -1495841.5, -1592581.3, 5611.154, 0.1875509, 0.13115185, -1495517.1, 17000.047, 0.00037921302, 10.000497, 9.999216 
1.6500565e+2, 1.5566276e+2, -1494299.8, -1564642.0, 17645.006, 0.01667185, 0.1397856, -1490121.8, -75597.76, 0.00009882513, 9.999928, 9.999015 
1.6500662e+2, 1.6566263e+2, -1297224.6, -1324200.0, 35720.215, -0.0015021651, 0.18553357, -1272530.5, 43995.137, 0.000009884257, 10.000189, 9.999868 
1.6500899e+2, 1.756625e+2, -1079722.6, -1180492.3, -20852.594, 0.10621228, 0.15233496, -1075578.0, 142947.9, 0.0000002904704, 10.001058, 9.999765 
1.650106e+2, 1.8566176e+2, -1118843.3, -1259465.1, 20832.518, 0.10986852, 0.15989143, -1115822.0, 4710.978, 0.0, 10.0006075, 9.998758 
1.6501163e+2, 1.9566037e+2, -1232787.0, -1266368.0, 51896.92, 0.030215975, 0.11183146, -1195032.0, -172485.17, 0.0, 9.999157, 9.99874 
1.6501251e+2, 2.0565976e+2, -1035938.0, -1032914.9, 22717.201, 0.017799255, 0.1421821, -1011659.0, -87106.26, 0.0, 9.999477, 9.999517 
1.6501321e+2, 2.1565965e+2, -691529.44, -821796.6, -10631.682, 0.060603477, 0.14909208, -690667.44, 135886.2, 0.0, 10.001186, 9.999472 
1.6501445e+2, 2.2565925e+2, -608116.44, -762063.7, 59106.72, 0.051405217, 0.18225582, -588040.9, 140516.1, 0.0, 10.001217, 9.999193 
1.6501606e+2, 2.3565857e+2, -698125.94, -753633.56, 36425.41, -0.0010855182, 0.16273159, -680085.8, -49522.906, 0.0, 9.999922, 9.999204 
1.6501717e+2, 2.4565804e+2, -600571.4, -554916.2, -32386.537, -0.0002690017, 0.14584686, -538120.75, -5555.6416, 0.0, 9.999485, 10.000105 
1.6501799e+2, 2.5565746e+2, -474997.84, -461449.1, -77858.91, 0.052348398, 0.047188047, -390070.4, 44495.332, 0.0, 9.999744, 9.9999485 
1.6501775e+2, 2.6565662e+2, -466775.6, -592812.06, -48516.293, 0.006238748, 0.060972843, -450263.16, -113688.94, 0.0, 9.999922, 9.99829 
1.6501677e+2, 2.7565524e+2, -348090.44, -484681.47, -5233.9053, -0.1060474, 0.05796386, -347890.2, -109298.17, 0.000000024295247, 10.000066, 9.998286 
1.6501808e+2, 2.8565496e+2, -148437.86, -223982.23, 25516.934, -0.006708184, 0.15490758, -140626.58, -29.451317, 0.0000019697127, 10.000287, 9.9993 
1.650215e+2, 2.956558e+2, 13746.454, -95590.94, -16927.33, 0.30195433, 0.2697757, 16307.129, 58897.094, 0.000013995548, 10.000704, 9.999316 
1.6502097e+2, 3.056525e+2, -27264.9, -433520.75, 80519.6, 0.10213738, 0.16457324, -11887.996, -11887.996, 0.000055183133, 10.001584, 9.99624 
1.6502026e+2, 3.1564957e+2, 427025.22, 251929.13, -449.14743, -0.21222451, 0.2239307, 427026.38, 427026.38, 0.00016346599, 10.002613, 10.000457 
1.7500496e+2, 1.2566377e+2, -1835321.1, -1765317.8, 49153.324, 0.14041097, 0.2828587, -1739977.4, -31461.205, 0.0014785845, 9.99904, 10.000093 
1.7500298e+2, 1.356633e+2, -1579793.9, -1624347.1, 8871.703, -0.16895373, 0.22243994, -1578092.4, 32428.006, 0.00086354057, 10.000333, 9.9997635 
1.7500521e+2, 1.4566189e+2, -1449108.1, -1491760.1, -31158.133, -0.018043017, 0.101000965, -1432676.6, 79856.01, 0.00037008742, 10.000464, 9.999932 
1.750067e+2, 1.5566365e+2, -1450942.3, -1469838.8, 15372.294, 0.0926552, 0.25812063, -1442346.8, -27833.281, 0.000094032526, 9.9999075, 9.999676 
1.7500836e+2, 1.6566336e+2, -1378044.4, -1488449.9, 54518.527, 0.119817086, 0.31656507, -1355661.0, -39143.766, 0.000008393363, 10.00016, 9.998762 
1.7501023e+2, 1.7566107e+2, -1153081.8, -1322782.3, 19702.238, 0.09171568, 0.17862003, -1150824.4, 67718.38, 0.00000020811186, 10.001015, 9.99881 
1.7501107e+2, 1.8566059e+2, -1038415.2, -1081403.0, -46055.875, 0.06324104, 0.18790999, -1009084.6, 111462.375, 0.0, 10.000547, 10.000015 
1.7501102e+2, 1.9566132e+2, -1164560.8, -1103277.0, 17913.363, 0.022124542, 0.22653538, -1098425.0, -75888.84, 0.0, 9.999064, 9.999906 
1.7501236e+2, 2.0566086e+2, -1090540.8, -1123137.6, 71548.46, 0.028226677, 0.24585499, -1033457.8, -108917.69, 0.0, 9.999371, 9.998952 
1.7501478e+2, 2.1565925e+2, -750197.5, -913457.94, 60257.55, 0.07183973, 0.15835732, -730366.1, 96191.484, 0.0, 10.001057, 9.998904 
1.7501597e+2, 2.2565861e+2, -628894.94, -778822.75, -2671.1047, 0.054500267, 0.19670784, -628847.4, 99717.57, 0.0, 10.0011, 9.999134 
1.7501608e+2, 2.3565854e+2, -723872.5, -779758.56, 5231.258, -0.01844064, 0.24446365, -723387.06, -92820.75, 0.0, 9.999798, 9.999084 
1.7501722e+2, 2.4565783e+2, -671272.4, -682976.44, -34732.41, 0.029128015, 0.26082432, -641902.44, -109329.55, 0.0, 9.999405, 9.999261 
1.7501916e+2, 2.556565e+2, -544701.25, -575890.25, -54977.137, 0.16642788, 0.17113587, -503149.66, -68565.016, 0.0, 9.999615, 9.999226 
1.7501874e+2, 2.6565588e+2, -362619.9, -372036.06, -57600.02, 0.08031632, 0.15596034, -309535.88, 27053.193, 0.0, 9.999895, 9.99982 
1.7501628e+2, 2.7565536e+2, -262405.7, -288549.44, 12871.099, -0.19494401, 0.0857893, -257132.55, -18540.947, 0.000000035492793, 9.999979, 9.999679 
1.7501758e+2, 2.8565484e+2, -200095.61, -326769.9, 26487.17, -0.11849995, 0.13032037, -194780.27, -54182.855, 0.0000021240596, 10.000272, 9.998595 
1.7502216e+2, 2.956546e+2, -44346.883, -189740.95, 17362.75, 0.26302972, 0.20622595, -42302.203, 301.085, 0.000013429294, 10.000603, 9.998708 
1.7502283e+2, 3.0565313e+2, 4776.933, -366491.28, 113468.336, 0.10091779, 0.2877055, 36709.1, 36709.1, 0.000050919698, 10.001578, 9.996707 
1.7502347e+2, 3.1565085e+2, 369490.7, 168093.7, 49545.81, -0.22170013, 0.37224665, 381019.5, 381019.5, 0.00014908816, 10.002487, 9.99993 
1.8500583e+2, 1.2566233e+2, -1745634.3, -1767016.0, 89620.85, 0.29564196, 0.21588293, -1666068.9, 42458.5, 0.0014297328, 9.999842, 9.999692 
1.8500285e+2, 1.3566276e+2, -1674834.4, -1692129.5, 17419.643, -0.17445448, 0.26838967, -1664033.9, -53508.26, 0.00082590414, 9.999773, 9.999563 
1.850053e+2, 1.4566106e+2, -1489132.5, -1498741.6, -6926.001, -0.028473765, 0.1185268, -1485507.8, 27033.467, 0.00034715154, 10.000127, 10.000043 
1.8500769e+2, 1.5566234e+2, -1281026.5, -1374726.1, -36820.387, 0.15482254, 0.21213779, -1268289.0, 146235.75, 0.0000844504, 10.001003, 9.999803 
1.8500927e+2, 1.6566208e+2, -1308731.0, -1466084.0, 39649.082, 0.17411181, 0.2733683, -1299305.1, 17222.996, 0.000006352812, 10.00072, 9.99863 
1.8501042e+2, 1.7566012e+2, -1363352.0, -1436505.3, 51984.992, 0.08498507, 0.1822212, -1336365.4, -117813.695, 0.000000056960435, 9.9996395, 9.998686 
1.8501106e+2, 1.8565981e+2, -1133698.6, -1085449.6, 157.75098, 0.05690529, 0.1963599, -1085449.0, 35104.598, 0.0, 9.999727, 10.0003805 
1.8501115e+2, 1.9566073e+2, -910068.75, -942074.3, -29196.227, 0.05643676, 0.21756671, -892777.25, 129762.03, 0.0, 10.000653, 10.000248 
1.8501277e+2, 2.0566027e+2, -915878.56, -1053920.8, 64881.848, 0.077257976, 0.22794516, -890170.75, 34372.09, 0.0, 10.000618, 9.998827 
1.8501557e+2, 2.1565858e+2, -938715.1, -1018320.2, 60543.547, 0.11468365, 0.14174323, -906062.44, -79500.31, 0.0, 9.999805, 9.99879 
1.8501681e+2, 2.256579e+2, -809066.94, -878788.56, 10942.678, 0.093967155, 0.18734443, -807389.9, -78818.75, 0.0, 9.999922, 9.999017 
1.8501677e+2, 2.3565786e+2, -595091.44, -732221.7, -11726.718, 0.029963655, 0.25052884, -594095.9, 36477.934, 0.0, 10.000744, 9.998957 
1.8501757e+2, 2.4565713e+2, -487560.63, -623357.4, 378.29086, 0.061138827, 0.28606915, -487559.6, 45022.395, 0.0, 10.000781, 9.999011 
1.8501909e+2, 2.5565577e+2, -475827.72, -565898.5, 2169.1406, 0.17730975, 0.21481155, -475775.5, -41180.0, 0.0, 10.000177, 9.999024 
1.8501914e+2, 2.6565534e+2, -306881.56, -325459.2, 5224.736, 0.120629355, 0.2231321, -305513.0, 31085.125, 0.0, 10.0002165, 9.999981 
1.8501787e+2, 2.756553e+2, -124291.445, -205836.48, -55829.227, -0.0698477, 0.18804914, -95931.48, 142663.94, 0.000000044067633, 10.000871, 9.999821 
1.8501888e+2, 2.8565422e+2, -118012.61, -335325.44, -62745.74, -0.045567784, 0.18692657, -101196.94, 39410.023, 0.000002141611, 10.001011, 9.998195 
1.85022e+2, 2.9565254e+2, -54006.406, -233744.83, -80837.914, 0.19178227, 0.16173303, -22998.643, 19628.412, 0.000012353572, 10.000676, 9.998385 
1.8502375e+2, 3.0565226e+2, -80071.59, -318344.94, 91878.83, 0.09407772, 0.33354753, -48758.055, -48758.055, 0.00004451732, 10.000615, 9.997497 
1.8502672e+2, 3.1564987e+2, 131333.63, 57685.004, -22532.957, -0.045788668, 0.34083506, 137680.64, 137680.64, 0.00012893318, 10.00078, 10.000022 
1.9500439e+2, 1.2565905e+2, -1773153.5, -1800299.4, 54286.348, 0.09414139, -0.003856033, -1730769.0, -22214.025, 0.0013506947, 9.999756, 9.999501 
1.9500317e+2, 1.356628e+2, -1671561.3, -1668083.8, 23055.41, -0.15211985, 0.3610412, -1646701.6, -36178.85, 0.00077082973, 9.999724, 9.999744 
1.9500619e+2, 1.4566077e+2, -1523108.1, -1560963.4, 8401.251, 0.0077837445, 0.19163863, -1521327.4, -8784.973, 0.0003170448, 10.000081, 9.999643 
1.9500819e+2, 1.5565896e+2, -1308345.0, -1423625.9, 2974.415, 0.06930803, 0.018298618, -1308268.4, 106287.875, 0.000073711046, 10.000971, 9.999483 
1.9500896e+2, 1.6565894e+2, -1257101.3, -1352858.9, -12569.486, 0.038652055, 0.074474856, -1255478.9, 61077.7, 0.0000047225935, 10.000677, 9.999437 
1.9500917e+2, 1.756597e+2, -1317907.5, -1333423.8, 31946.17, -0.037274253, 0.17146246, -1292790.9, -74238.78, 0.0000000036456946, 9.999597, 9.999419 
1.950102e+2, 1.8565947e+2, -1182136.0, -1170511.3, 22093.625, -0.033215053, 0.19070624, -1153478.3, -32925.484, 0.0, 9.999653, 9.999839 
1.9501165e+2, 1.9565849e+2, -957670.9, -1021470.06, 14754.977, 0.010788895, 0.07730479, -954423.75, 68133.43, 0.0, 10.000565, 9.99975 
1.950133e+2, 2.05658e+2, -911678.7, -1011030.25, 23847.258, 0.042810433, 0.08937184, -906251.1, 18309.838, 0.0, 10.000476, 9.9991865 
1.9501516e+2, 2.1565762e+2, -934745.44, -978760.2, 46881.426, 0.06430079, 0.09979758, -904962.94, -78395.76, 0.0, 9.99967, 9.999126 
1.9501658e+2, 2.2565715e+2, -846845.9, -922935.9, 27953.14, 0.05489211, 0.16207911, -837680.7, -109105.555, 0.0, 9.999783, 9.998778 
1.9501764e+2, 2.356565e+2, -630202.06, -767951.7, 28627.617, 0.01676831, 0.18661982, -624489.44, 6096.1475, 0.0, 10.000591, 9.998781 
1.9501786e+2, 2.4565592e+2, -477158.3, -573940.5, -35603.12, -0.014626092, 0.22505851, -465472.13, 67120.17, 0.0, 10.000666, 9.999405 
1.9501731e+2, 2.5565532e+2, -476636.2, -532417.44, -5420.668, -0.049185127, 0.18597485, -476114.28, -41516.664, 0.0, 10.000031, 9.999321 
1.9501854e+2, 2.656552e+2, -398329.0, -509195.25, 16657.91, 0.010848136, 0.27625802, -395880.22, -59280.273, 0.0, 10.000181, 9.998745 
1.9502114e+2, 2.7565503e+2, -218740.44, -388695.4, -16217.286, 0.1376784, 0.35964265, -217206.81, 21396.979, 0.000000036761158, 10.000802, 9.998608 
1.9502161e+2, 2.856529e+2, -134383.38, -358069.56, -85907.69, 0.09742091, 0.31930897, -105198.07, 35428.938, 0.0000018181237, 10.000965, 9.99806 
1.9502068e+2, 2.9564965e+2, -74762.52, -246843.72, -75388.93, -0.045289937, 0.14968371, -46406.99, -3746.72, 0.000010151812, 10.000556, 9.99835 
1.9502331e+2, 3.0564988e+2, -4966.7144, -154289.8, 89325.51, -0.043047607, 0.31448886, 36790.777, 36790.777, 0.00003534469, 10.000588, 9.998629 
1.9502924e+2, 3.1564707e+2, 183763.84, 199579.2, -4234.462, 0.06450502, 0.1572421, 200641.58, 200641.58, 0.000103030594, 10.000665, 10.001035 
2.0500436e+2, 1.2565756e+2, -1631387.4, -1728423.9, 57515.152, 0.08327541, -0.0009993893, -1604659.3, 103910.73, 0.0012481128, 10.000725, 9.999532 
2.0500356e+2, 1.3566129e+2, -1585872.1, -1589502.1, -25750.785, -0.09321822, 0.3260369, -1561872.5, 48663.586, 0.0007037624, 10.000131, 10.000112 
2.0500678e+2, 1.4565955e+2, -1587466.6, -1597683.1, 44472.906, 0.086452246, 0.17272457, -1547809.5, -35256.566, 0.00028324383, 9.999679, 9.999582 
2.0500849e+2, 1.5565771e+2, -1501511.9, -1523700.0, 24313.969, 0.078144096, 0.0044789067, -1485880.6, -71311.82, 0.000063005726, 9.999679, 9.999419 
2.0500909e+2, 1.6565783e+2, -1330866.6, -1360616.6, -1879.9144, 0.024348553, 0.06531022, -1330748.4, -14181.242, 0.0000035155435, 10.000055, 9.999684 
2.0500916e+2, 1.756589e+2, -1155581.4, -1237081.1, -28043.441, -0.04180084, 0.17351604, -1146864.3, 71693.47, 0.0000000004928599, 10.000631, 9.999585 
2.0501044e+2, 1.8565825e+2, -1048523.1, -1177268.6, -9067.425, -0.027687395, 0.17623036, -1047887.6, 72674.94, 0.0, 10.000876, 9.9992 
2.050125e+2, 1.9565627e+2, -955652.6, -1088783.1, -54034.934, 0.032677896, 0.027019316, -936481.6, 86097.01, 0.0, 10.000865, 9.999142 
2.0501399e+2, 2.0565571e+2, -885869.8, -991253.75, -70700.7, 0.06289179, 0.055619195, -850385.6, 74198.94, 0.0, 10.000624, 9.999252 
2.0501517e+2, 2.1565603e+2, -862008.6, -933932.25, -91078.625, 0.0807469, 0.1297898, -800049.2, 26535.637, 0.0, 10.000135, 9.999209 
2.0501652e+2, 2.2565576e+2, -796609.5, -859216.06, -30915.014, 0.07016881, 0.19090544, -783916.94, -55327.324, 0.0, 9.999944, 9.99914 
2.0501809e+2, 2.3565489e+2, -700611.25, -768335.5, -13099.989, 0.04103046, 0.1593333, -698165.56, -67566.125, 0.0, 9.999946, 9.999097 
2.0501834e+2, 2.456543e+2, -536684.4, -594726.9, -63886.215, -0.0027999473, 0.17480773, -495536.7, 37069.082, 0.0, 10.000225, 9.999471 
2.0501757e+2, 2.5565374e+2, -366066.66, -475296.3, -84305.086, -0.05601429, 0.13883075, -320231.84, 114379.02, 0.0, 10.000779, 9.999351 
2.050192e+2, 2.6565367e+2, -309279.88, -499445.34, 1105.9594, 0.030450666, 0.24695952, -309273.44, 27340.193, 0.0, 10.00094, 9.998438 
2.0502271e+2, 2.7565354e+2, -242343.8, -431027.94, 6845.771, 0.22409444, 0.35906658, -242095.75, -3477.3303, 0.00000002096579, 10.000785, 9.998313 
2.050231e+2, 2.8565124e+2, -154362.47, -384303.72, -8220.209, 0.1597935, 0.32891104, -154068.97, -13425.735, 0.0000012828043, 10.000921, 9.997894 
2.0502123e+2, 2.9564783e+2, 32173.791, -208528.13, -25542.86, -0.07587694, 0.15623505, 34854.496, 77532.445, 0.000007381431, 10.001363, 9.998219 
2.0502469e+2, 3.0564758e+2, 119624.67, -93144.69, 113456.68, 0.004938731, 0.27919692, 168771.72, 168771.72, 0.00002618385, 10.001436, 9.998654 
2.0503074e+2, 3.156446e+2, 251893.38, 246825.72, -132899.56, 0.13998052, 0.102130644, 382283.25, 382283.25, 0.000078949044, 10.001102, 10.001142 
2.1500474e+2, 1.2565778e+2, -1623372.6, -1697966.3, 9546.751, -0.019706836, 0.22283283, -1622170.3, 86402.76, 0.0011286415, 10.00066, 9.999774 
2.1500364e+2, 1.3565834e+2, -1535472.3, -1493148.6, -35592.516, -0.12971443, 0.16573103, -1472902.1, 137662.3, 0.00062779407, 10.000161, 10.000758 
2.1500659e+2, 1.456576e+2, -1582164.5, -1580394.0, 27549.564, 0.061016317, 0.0742834, -1553715.4, -41144.71, 0.00024660726, 9.999646, 9.999716 
2.1500826e+2, 1.5565868e+2, -1490239.6, -1505509.8, 40787.023, 0.04909968, 0.18042554, -1456379.3, -41818.266, 0.000052325075, 9.999694, 9.999536 
2.1500924e+2, 1.656588e+2, -1366169.4, -1421071.3, 6799.3247, 0.0031193213, 0.25582984, -1365339.8, -48780.414, 0.000002586899, 9.999998, 9.999296 
2.1500997e+2, 1.756577e+2, -1192431.3, -1297299.5, 6514.269, -0.052425418, 0.18327577, -1192028.3, 26540.313, 0.000000000052014764, 10.0005665, 9.999198 
2.150114e+2, 1.8565612e+2, -1117820.4, -1300610.0, -20805.38, -0.04765615, 0.15212151, -1115482.3, 5101.284, 0.0, 10.000781, 9.998402 
2.1501333e+2, 1.95654e+2, -1013368.8, -1196740.9, -40471.37, -0.003961091, 0.06483205, -1004833.8, 17770.56, 0.0, 10.000808, 9.998428 
2.1501447e+2, 2.0565337e+2, -916705.2, -1029988.0, -102240.875, 0.020803958, 0.12987508, -856464.44, 68149.21, 0.0, 10.000515, 9.999037 
2.1501514e+2, 2.1565366e+2, -890145.56, -962179.94, -97185.95, 0.03540979, 0.22396035, -822517.5, 4098.4663, 0.0, 10.000004, 9.999077 
2.1501623e+2, 2.256536e+2, -752703.8, -730185.44, -43198.67, 0.021950131, 0.26080942, -696802.8, 31812.79, 0.0, 9.999788, 10.000096 
2.1501766e+2, 2.3565312e+2, -663283.6, -649888.2, 3248.5635, -0.02391624, 0.16924116, -649141.94, -18527.074, 0.0, 9.999776, 9.999986 
2.1501869e+2, 2.4565233e+2, -569248.2, -646098.5, -55791.953, -0.019597488, 0.14075539, -539929.44, -7308.0728, 0.0, 10.000151, 9.999157 
2.1501948e+2, 2.5565118e+2, -401020.03, -518982.1, -51175.406, 0.026857814, 0.077595145, -381913.4, 52721.293, 0.0, 10.000654, 9.999112 
2.1502073e+2, 2.6565084e+2, -279471.16, -419332.4, -18301.773, 0.05888339, 0.1410455, -277115.9, 59522.813, 0.0, 10.000865, 9.999019 
2.1502216e+2, 2.756507e+2, -224746.33, -364988.63, 16703.24, 0.05974867, 0.1927314, -222784.36, 15855.471, 0.00000000626477, 10.000659, 9.998825 
2.150229e+2, 2.8564918e+2, -163337.03, -397118.8, -5918.351, 0.015027036, 0.21777959, -163187.3, -22530.816, 0.00000075455597, 10.000896, 9.997818 
2.1502337e+2, 2.9564703e+2, 5040.7656, -251001.33, 3035.8013, -0.035018243, 0.18301909, 5076.755, 47757.066, 0.0000049684672, 10.001301, 9.997958 
2.1502759e+2, 3.0564532e+2, 37500.703, -267536.56, 89533.67, 0.12396285, 0.23919447, 61838.54, 61838.54, 0.000019575336, 10.001448, 9.997456 
2.1503064e+2, 3.156424e+2, 166022.78, 87387.984, -106343.38, -0.04771636, 0.18234527, 240084.28, 240084.28, 0.00006230811, 10.001018, 10.0000925 
2.250053e+2, 1.2565674e+2, -1758806.6, -1764549.1, 78055.516, 0.030822372, 0.28974247, -1683569.6, 25014.389, 0.0009987325, 9.999717, 9.999773 
2.2500384e+2, 1.3565639e+2, -1586392.3, -1501476.5, -87285.25, -0.093934484, 0.12491081, -1446870.5, 163713.25, 0.0005469882, 9.999755, 10.000883 
2.2500648e+2, 1.4565638e+2, -1524019.0, -1547051.9, 12214.502, 0.07237835, 0.09724774, -1518747.9, -6165.0933, 0.00020906689, 10.000027, 9.999771 
2.2500838e+2, 1.5565775e+2, -1346635.3, -1433718.6, -8660.309, 0.05002834, 0.23255225, -1345782.4, 68787.94, 0.000042237294, 10.000678, 9.99956 
2.2500987e+2, 1.6565752e+2, -1246731.0, -1388663.4, -16605.654, 0.025844982, 0.28323293, -1244814.0, 71757.945, 0.0000020119714, 10.000929, 9.999059 
2.2501118e+2, 1.7565557e+2, -1172891.5, -1315076.6, -39004.2, 0.006487365, 0.14985043, -1162894.8, 55694.15, 0.0, 10.000819, 9.998946 
2.2501251e+2, 1.8565391e+2, -1134562.8, -1295133.0, -12966.187, 0.0013707576, 0.116037756, -1133522.5, -12917.813, 0.0, 10.000606, 9.998524 
2.250138e+2, 1.956524e+2, -1097240.9, -1226778.1, 6760.976, 0.0014647718, 0.07548856, -1096889.0, -74268.66, 0.0, 10.0002, 9.998517 
2.250148e+2, 2.0565186e+2, -941687.44, -1072799.4, 6182.796, 0.011586176, 0.16486944, -941396.5, -16767.672, 0.0, 10.000468, 9.998778 
2.2501564e+2, 2.1565191e+2, -736823.8, -915870.1, -15121.184, 0.034622483, 0.26022905, -735555.75, 91078.55, 0.0, 10.001169, 9.998843 
2.2501662e+2, 2.2565158e+2, -560400.0, -620240.06, 8914.48, 0.02676234, 0.271266, -559100.2, 169535.44, 0.0, 10.001026, 10.000258 
2.2501773e+2, 2.356508e+2, -595745.9, -600423.94, -29835.367, -0.004335196, 0.13240458, -568158.0, 62477.652, 0.0, 10.000169, 10.000135 
2.2501917e+2, 2.456501e+2, -594003.2, -684968.2, -52093.34, 0.022755833, 0.11973784, -570331.0, -37689.684, 0.0, 10.000095, 9.998919 
2.2502084e+2, 2.556493e+2, -411194.9, -552040.06, -72071.39, 0.10301226, 0.11636675, -380852.28, 53801.023, 0.0, 10.000688, 9.998881 
2.2502212e+2, 2.656487e+2, -244365.83, -367269.75, -41892.195, 0.11378022, 0.14595428, -231445.1, 105214.49, 0.0, 10.000955, 9.999334 
2.2502308e+2, 2.7564788e+2, -141575.36, -289654.72, -51680.184, 0.0727044, 0.09935404, -125322.65, 113341.72, 0.00000000006385136, 10.001073, 9.999145 
2.2502406e+2, 2.8564674e+2, -87567.21, -354160.5, -32370.898, 0.02720215, 0.14196308, -83692.9, 56983.613, 0.00000032397858, 10.001381, 9.997881 
2.250252e+2, 2.9564568e+2, 72986.77, -223053.63, -45690.36, 0.004484687, 0.21158524, 79878.125, 122568.195, 0.000003287384, 10.00179, 9.99791 
2.250298e+2, 3.0564314e+2, -7359.0063, -334442.8, 72921.17, 0.21749078, 0.21006753, 8161.7935, 8161.7935, 0.00001601569, 10.001341, 9.997042 
2.2503108e+2, 3.1564045e+2, 28824.05, -10166.896, -91830.98, -0.047279615, 0.20588054, 103206.17, 103206.17, 0.000054019332, 10.000206, 9.999812 
2.3500533e+2, 1.2565438e+2, -1785501.3, -1815021.4, 51961.97, -0.008088589, 0.18332024, -1746243.8, -37639.99, 0.0008678289, 9.999703, 9.999436 
2.350037e+2, 1.3565531e+2, -1615132.6, -1573230.0, -83628.39, -0.11752293, 0.20878024, -1507968.5, 102627.03, 0.00046623294, 9.999791, 10.000384 
2.3500584e+2, 1.456557e+2, -1533928.3, -1540676.1, 20342.113, -0.024574576, 0.23583892, -1516682.1, -4090.9832, 0.00017258529, 9.999921, 9.999865 
2.3500845e+2, 1.5565488e+2, -1348685.9, -1430627.0, 31055.502, -0.04365373, 0.14875296, -1338246.0, 76351.46, 0.000033446406, 10.000649, 9.999598 
2.3501055e+2, 1.6565385e+2, -1274068.9, -1424697.0, -35074.98, -0.031237276, 0.13302805, -1266301.9, 50304.434, 0.0000017722703, 10.000845, 9.998855 
2.3501244e+2, 1.7565235e+2, -1184336.4, -1327006.9, -30731.703, 0.017595658, 0.060451686, -1177998.3, 40622.355, 0.0000000001389195, 10.000767, 9.998893 
2.350134e+2, 1.8565162e+2, -1083258.9, -1161473.6, -41458.406, 0.00077936833, 0.06856565, -1065373.4, 55253.145, 0.0, 10.000493, 9.999497 
2.3501351e+2, 1.9565132e+2, -1046104.3, -1105214.3, 5698.816, -0.07734476, 0.05811484, -1045559.94, -22932.336, 0.0, 10.00013, 9.999389 
2.350145e+2, 2.0565112e+2, -982489.8, -1120352.9, 20255.152, -0.08833011, 0.15219723, -979575.5, -54943.992, 0.0, 10.000315, 9.998523 
2.3501626e+2, 2.1565074e+2, -779651.56, -966566.6, 22694.832, -0.048135173, 0.22995451, -776935.44, 49704.76, 0.0, 10.001004, 9.998573 
2.3501734e+2, 2.2564968e+2, -631904.9, -729016.0, -33376.023, -0.027939856, 0.21691264, -621540.2, 107109.445, 0.0, 10.000862, 9.99959 
2.3501797e+2, 2.3564793e+2, -660124.0, -703329.2, -43852.79, -0.028267063, 0.052765716, -632841.6, -2180.3652, 0.0, 10.000036, 9.9994955 
2.3501925e+2, 2.4564753e+2, -618627.6, -717523.44, -43061.156, -0.0076875486, 0.108445406, -602506.06, -69839.82, 0.0, 10.000012, 9.998735 
2.3502111e+2, 2.5564802e+2, -442028.97, -584538.6, -37579.645, 0.03151412, 0.25009143, -432726.5, 1941.2013, 0.0, 10.00055, 9.998723 
2.35023e+2, 2.656472e+2, -251020.86, -362576.25, -50805.97, 0.07841008, 0.26481748, -231350.58, 105325.125, 0.0, 10.00088, 9.999403 
2.3502505e+2, 2.7564505e+2, -152021.84, -286667.9, -30140.555, 0.13261953, 0.07647145, -145582.8, 93109.445, 0.0, 10.000962, 9.999223 
2.350261e+2, 2.8564394e+2, -78491.4, -323954.4, -27782.387, 0.060266096, 0.1079905, -75386.17, 65316.707, 0.00000009734078, 10.001333, 9.998111 
2.3502629e+2, 2.9564384e+2, 69023.445, -211548.55, -19804.617, -0.106698476, 0.25004283, 70414.49, 113121.62, 0.0000024854203, 10.001697, 9.99804 
2.3503084e+2, 3.05641e+2, 28044.701, -259301.19, 20037.271, 0.15650788, 0.1943354, 29435.217, 29435.217, 0.000014818684, 10.001334, 9.997563 
2.3503132e+2, 3.1563884e+2, 59595.35, 64625.6, -66851.93, -0.11035657, 0.18536194, 129009.7, 129009.7, 0.00005156838, 10.00015, 10.00036 
2.4500526e+2, 1.2565148e+2, -1807319.6, -1819102.8, 68925.22, 0.037044007, 0.080106415, -1744034.6, -35405.473, 0.00074233726, 9.999553, 9.999479 
2.4500458e+2, 1.3565297e+2, -1576437.3, -1593700.1, -111384.72, -0.01805837, 0.19668867, -1473350.0, 137267.28, 0.00038816038, 10.00024, 10.00003 
2.4500616e+2, 1.4565355e+2, -1485837.9, -1546869.3, 15068.081, 0.003642545, 0.27584016, -1482320.4, 30291.895, 0.00013769997, 10.000364, 9.999604 
2.4500853e+2, 1.5565185e+2, -1430430.8, -1497467.1, -30212.822, -0.06821437, 0.124073446, -1418823.8, -4195.668, 0.000025817635, 10.000214, 9.99934 
2.4501084e+2, 1.6565081e+2, -1352695.0, -1443589.8, -71796.27, -0.048043095, 0.110456765, -1313170.8, 3467.066, 0.0000016011192, 10.000214, 9.999042 
2.4501339e+2, 1.7565008e+2, -1250917.5, -1337111.9, -66127.48, 0.07155912, 0.09542737, -1215083.0, 3562.2837, 0.0000000006420841, 10.000215, 9.999097 
2.4501432e+2, 1.8564981e+2, -1080770.4, -1131130.4, -70031.81, 0.05716834, 0.12881745, -1031529.4, 89117.11, 0.0, 10.000401, 9.999739 
2.4501392e+2, 1.9564974e+2, -952789.3, -1033193.8, -101684.055, -0.0698752, 0.117373586, -883648.7, 138995.69, 0.0, 10.000675, 9.999606 
2.4501488e+2, 2.0564926e+2, -900230.5, -1068727.9, -58906.043, -0.100790545, 0.16618496, -881679.56, 42969.813, 0.0, 10.00083, 9.998625 
2.4501711e+2, 2.1564823e+2, -812025.25, -974207.6, -59932.035, -0.040932138, 0.16883461, -792281.8, 34379.89, 0.0, 10.000755, 9.998636 
2.4501836e+2, 2.2564696e+2, -717551.56, -830763.9, -106349.33, 0.010275469, 0.15835094, -653681.9, 74992.02, 0.0, 10.000533, 9.99905 
2.4501882e+2, 2.3564531e+2, -671644.94, -761481.75, -126312.67, 0.05545796, 0.05839109, -582501.6, 48185.902, 0.0, 10.000192, 9.999019 
2.4501999e+2, 2.4564488e+2, -559130.3, -667231.3, -36803.035, 0.055698708, 0.12266507, -547790.3, -15097.369, 0.0, 10.000325, 9.998939 
2.450217e+2, 2.5564525e+2, -388568.63, -534118.4, -29618.205, 0.029962327, 0.23135407, -382772.38, 51920.992, 0.0, 10.000826, 9.998936 
2.4502386e+2, 2.656444e+2, -243179.5, -388686.34, -36001.523, 0.07342713, 0.24506971, -234759.22, 101942.766, 0.0, 10.001047, 9.99915 
2.4502648e+2, 2.7564237e+2, -153180.42, -305412.56, -64682.363, 0.18480979, 0.095092334, -129409.234, 109309.86, 0.0, 10.0010395, 9.999056 
2.4502772e+2, 2.856415e+2, -83091.85, -269427.06, -21391.293, 0.111918375, 0.13021436, -80667.664, 60059.383, 0.00000009803459, 10.001054, 9.998628 
2.4502768e+2, 2.9564142e+2, 17361.402, -179249.45, -22124.26, -0.09883896, 0.22332881, 19820.254, 62548.58, 0.0000023443192, 10.0011015, 9.9985485 
2.4503225e+2, 3.0563852e+2, -5355.0425, -256688.19, 17976.482, 0.1921725, 0.12930104, -4075.7944, -4075.7944, 0.000014153015, 10.00103, 9.997724 
2.450321e+2, 3.1563672e+2, 185779.7, 198405.34, -112698.625, -0.06203005, 0.13454823, 304967.8, 304967.8, 0.00004937861, 10.000731, 10.000983 
2.5500417e+2, 1.2564823e+2, -1783469.6, -1761591.6, 58447.81, -0.09391432, -0.0026258435, -1713068.0, -4409.442, 0.00062344765, 9.999517, 9.999892 
2.550062e+2, 1.356492e+2, -1582709.3, -1601651.8, -78025.35, 0.08951423, 0.07101527, -1513582.4, 97068.16, 0.0003143659, 10.000228, 9.999978 
2.550072e+2, 1.4564987e+2, -1543544.3, -1653571.0, -8615.347, 0.033609696, 0.19868149, -1542873.8, -30226.777, 0.00010539114, 10.00031, 9.998895 
2.55008e+2, 1.556486e+2, -1477636.9, -1585419.6, -22719.354, -0.17266251, 0.15677369, -1473043.6, -58380.695, 0.000019009012, 10.000173, 9.998752 
2.5501025e+2, 1.6564837e+2, -1320941.3, -1356935.4, -85260.7, -0.1564093, 0.21651855, -1251798.9, 64867.81, 0.0000013062046, 10.000128, 9.999677 
2.5501359e+2, 1.7564882e+2, -1219184.4, -1260274.4, -49649.645, 0.03909302, 0.25924945, -1185996.9, 32665.408, 0.000000000635992, 10.000172, 9.999641 
2.550149e+2, 1.8564859e+2, -1128296.8, -1211312.3, -71241.31, 0.043262582, 0.2987463, -1087353.3, 33310.316, 0.0, 10.000317, 9.999229 
2.5501454e+2, 1.956476e+2, -994223.5, -1100251.0, -78180.51, -0.10641473, 0.24018446, -952777.44, 69894.266, 0.0, 10.000587, 9.999188 
2.5501558e+2, 2.0564619e+2, -898636.44, -1025084.8, -73067.25, -0.13640945, 0.19603288, -865237.06, 59446.4, 0.0, 10.000661, 9.999004 
2.5501785e+2, 2.1564427e+2, -807938.9, -933379.5, -50892.7, -0.072633564, 0.070260964, -789888.5, 36811.31, 0.0, 10.00062, 9.99898 
2.5501922e+2, 2.2564329e+2, -759960.6, -891677.75, -132988.16, 0.016016744, 0.09480389, -677417.0, 51292.195, 0.0, 10.000413, 9.998692 
2.550199e+2, 2.3564282e+2, -711725.0, -814358.7, -123198.1, 0.11662418, 0.14481592, -629583.3, 1132.1149, 0.0, 10.000056, 9.998722 
2.5502098e+2, 2.4564207e+2, -531826.3, -587792.5, -31533.76, 0.09500742, 0.15645944, -517649.8, 15072.52, 0.0, 10.000232, 9.999527 
2.5502226e+2, 2.5564083e+2, -373365.13, -471678.16, -685.79474, -0.027650597, 0.049645457, -373360.34, 61371.57, 0.0, 10.0006895, 9.999431 
2.5502425e+2, 2.6564017e+2, -293600.22, -469596.6, -49637.684, -0.021746514, 0.087442085, -280565.84, 56173.28, 0.0, 10.000953, 9.998637 
2.5502694e+2, 2.7563974e+2, -199196.25, -376008.47, -50228.51, 0.09418851, 0.14764471, -185923.73, 52822.88, 0.0, 10.000928, 9.998628 
2.5502855e+2, 2.8563923e+2, -33258.324, -151923.02, -34118.797, 0.058072366, 0.19708149, -24147.852, 116602.86, 0.00000013920514, 10.000999, 9.999457 
2.5502887e+2, 2.9563838e+2, 49409.73, -77627.37, -9694.259, -0.121293105, 0.1303116, 50145.242, 92899.92, 0.0000022917138, 10.000958, 9.999312 
2.550336e+2, 3.0563554e+2, -22574.238, -284762.34, -1785.4303, 0.19728114, 0.010743753, -22562.08, -22562.08, 0.0000129202135, 10.000997, 9.997543 
2.5503254e+2, 3.1563357e+2, 209487.7, 261563.69, -37743.113, -0.16011931, 0.025640558, 281378.94, 281378.94, 0.000045825393, 10.0006695, 10.00145 
2.6500416e+2, 1.2564619e+2, -1767237.6, -1732672.0, 47925.582, -0.032122687, 0.12119213, -1699008.3, 9674.684, 0.00051409315, 9.999493, 10.000112 
2.6500675e+2, 1.3564605e+2, -1636225.0, -1644467.5, -141280.84, 0.15436493, 0.08533192, -1499005.3, 111679.516, 0.0002486299, 9.999888, 9.999862 
2.6500735e+2, 1.4564629e+2, -1569578.8, -1642552.9, -16850.91, 0.040693622, 0.16740948, -1565875.5, -53191.516, 0.00007773356, 10.000038, 9.9991 
2.650085e+2, 1.556457e+2, -1431335.5, -1541370.6, 4336.753, -0.14299014, 0.17002672, -1431164.9, -16472.39, 0.000013419433, 10.000386, 9.998959 
2.650107e+2, 1.6564578e+2, -1276237.3, -1330733.1, -30299.871, -0.12729934, 0.24850172, -1262735.6, 53957.414, 0.0000010267595, 10.000414, 9.999717 
2.6501364e+2, 1.7564632e+2, -1222697.3, -1259455.0, -66185.72, 0.03577625, 0.29563415, -1172386.0, 46302.098, 0.0000000012219834, 10.000131, 9.999663 
2.650151e+2, 1.856459e+2, -1173473.5, -1251035.6, -56869.367, 0.05356264, 0.32273367, -1143420.8, -22728.873, 0.0, 10.000084, 9.999076 
2.6501554e+2, 1.956445e+2, -1069489.8, -1150442.9, -68777.57, -0.033420097, 0.24340005, -1030162.2, -7457.816, 0.0, 10.000127, 9.999073 
2.6501688e+2, 2.0564309e+2, -932037.5, -993189.6, -28433.85, -0.04503963, 0.17982887, -920859.75, 3855.1914, 0.0, 10.000218, 9.99944 
2.650189e+2, 2.156415e+2, -835752.9, -904669.06, -28371.479, 0.0013413734, 0.045349885, -825575.8, 1149.8434, 0.0, 10.000244, 9.999363 
2.6502e+2, 2.2564083e+2, -712802.8, -866509.6, -59545.22, 0.047486946, 0.0834687, -692434.44, 36297.195, 0.0, 10.000721, 9.998718 
2.6502043e+2, 2.3564076e+2, -496922.7, -712535.0, -54483.48, 0.095511414, 0.17036788, -483937.22, 146798.33, 0.0, 10.001532, 9.998716 
2.6502162e+2, 2.4563983e+2, -394505.7, -529892.9, 27339.793, 0.09551057, 0.17398657, -389193.22, 143550.48, 0.0, 10.001226, 9.999438 
2.650234e+2, 2.556381e+2, -462927.97, -520696.06, -13377.5, 0.058437884, 0.023847554, -459980.5, -25223.693, 0.0, 10.000113, 9.999364 
2.650254e+2, 2.656373e+2, -430711.78, -527401.7, -9586.931, 0.058675025, 0.04870172, -429770.38, -93005.6, 0.0, 9.999969, 9.998718 
2.650278e+2, 2.756372e+2, -236365.86, -377733.63, 5892.1714, 0.11156978, 0.1338782, -236120.7, 2648.496, 0.0, 10.000617, 9.998759 
2.6502943e+2, 2.8563687e+2, -68554.23, -166216.52, 18938.602, 0.06859717, 0.19038579, -65010.273, 75761.27, 0.00000017298198, 10.000742, 9.99948 
2.6502994e+2, 2.9563588e+2, -16113.396, -102826.96, -41365.523, -0.07586459, 0.10066071, 454.08115, 43230.996, 0.000002277503, 10.000464, 9.999382 
2.6503503e+2, 3.0563277e+2, -78727.75, -354255.5, -20459.326, 0.26440984, -0.025349155, -77216.83, -77216.83, 0.000011809922, 10.000774, 9.997192 
2.6503462e+2, 3.156306e+2, 277554.6, 301062.1, -68387.92, -0.028209727, 0.006611539, 358698.97, 358698.97, 0.000042458643, 10.001076, 10.001542 
2.750046e+2, 1.2564534e+2, -1763295.0, -1724182.9, 6481.4507, -0.010743843, 0.44076917, -1723136.9, -14433.942, 0.00042131313, 9.99948, 10.000181 
2.7500558e+2, 1.3564362e+2, -1641882.6, -1655477.1, -121694.03, 0.012983743, 0.2625569, -1526796.1, 83922.36, 0.0001952308, 9.999888, 9.9997835 
2.7500606e+2, 1.4564298e+2, -1497180.3, -1483421.4, -24731.504, -0.1355701, 0.20019561, -1464630.4, 48091.63, 0.000056360343, 10.0, 10.000214 
2.7500966e+2, 1.5564322e+2, -1365076.1, -1393405.4, 31144.87, -0.09929286, 0.17532559, -1345026.1, 69689.42, 0.000009372096, 10.000348, 9.999992 
2.7501196e+2, 1.656431e+2, -1319126.6, -1408551.0, -54119.91, -0.07802461, 0.21185932, -1293638.0, 23078.066, 0.0000008660051, 10.000366, 9.999203 
2.75013e+2, 1.7564254e+2, -1265932.3, -1335653.4, -63082.688, -0.07651, 0.20224608, -1228718.6, -9995.29, 0.000000004874734, 10.000078, 9.999165 
2.7501458e+2, 1.8564166e+2, -1180277.3, -1238652.8, -68527.97, -0.03806815, 0.20280465, -1134980.1, -14248.15, 0.0, 9.999971, 9.999214 
2.7501652e+2, 1.9564041e+2, -1069324.3, -1130520.5, -51258.28, 0.020361673, 0.12207011, -1040226.0, -17483.152, 0.0, 10.000047, 9.999247 
2.7501827e+2, 2.0564e+2, -916300.0, -932094.7, -40282.867, 0.050182622, 0.1252431, -883147.6, 41595.863, 0.0, 10.000099, 9.999916 
2.7501994e+2, 2.1563992e+2, -826083.25, -844632.56, -11632.188, 0.05349388, 0.09257114, -820480.9, 6258.2314, 0.0, 10.000076, 9.999853 
2.7502045e+2, 2.2563961e+2, -716190.06, -832939.5, -41356.316, -0.009564364, 0.1251381, -703024.9, 25716.07, 0.0, 10.000547, 9.999035 
2.750199e+2, 2.3563895e+2, -502501.75, -688059.75, -16330.322, -0.13196096, 0.12487692, -501075.53, 129673.99, 0.0, 10.001373, 9.998964 
2.7502155e+2, 2.4563812e+2, -460893.16, -644194.1, -27176.514, -0.062673986, 0.16507363, -456948.8, 75809.42, 0.0, 10.001126, 9.9987 
2.7502474e+2, 2.556369e+2, -525660.0, -626302.9, -37510.137, 0.14915785, 0.13969597, -513217.94, -78448.414, 0.0, 9.999997, 9.998699 
2.75027e+2, 2.6563573e+2, -394971.34, -431540.5, -1401.5743, 0.19153152, 0.12268425, -394917.72, -58138.086, 0.0, 9.9998865, 9.999411 
2.7502865e+2, 2.7563465e+2, -215391.56, -305867.4, 40572.84, 0.1080455, 0.039024334, -199862.52, 38926.56, 0.00000000009324417, 10.000498, 9.99931 
2.7503002e+2, 2.8563416e+2, -126593.54, -274330.84, -6386.2305, 0.022408977, 0.09670831, -126318.0, 14474.596, 0.00000023612336, 10.000691, 9.998757 
2.7503043e+2, 2.956337e+2, -71851.78, -199822.63, -32265.93, -0.116837926, 0.13011578, -64176.72, -21380.254, 0.0000024951785, 10.000376, 9.998759 
2.75036e+2, 3.0563048e+2, -110152.59, -401963.34, -14679.944, 0.25711325, 0.03176521, -109415.96, -109415.96, 0.0000116764495, 10.000725, 9.996875 
2.7503735e+2, 3.1562805e+2, 226111.2, 240513.69, 22455.033, 0.07213503, 0.08337194, 256893.94, 256893.94, 0.000040637482, 10.000897, 10.001204 
2.850052e+2, 1.2564199e+2, -1756660.6, -1714109.0, 94397.14, 0.1153991, 0.429018, -1638619.8, 70117.555, 0.00034670465, 9.999537, 10.0002 
2.850056e+2, 1.356412e+2, -1604281.1, -1620624.4, -47400.6, 0.027416661, 0.3355723, -1564353.0, 46391.61, 0.00015383656, 10.000105, 9.999902 
2.8500566e+2, 1.4564048e+2, -1471777.0, -1429452.6, 45026.414, -0.16349639, 0.23840821, -1400863.3, 111884.82, 0.00004093297, 10.0, 10.000581 
2.8501022e+2, 1.556408e+2, -1459622.8, -1397442.9, 15251.8125, -0.025710367, 0.18279187, -1393903.3, 20835.398, 0.0000066741927, 9.999513, 10.000369 
2.8501263e+2, 1.6564052e+2, -1451731.4, -1471193.6, -40997.848, 0.008569392, 0.18686756, -1419325.6, -102586.5, 0.00000074756446, 9.999461, 9.999213 
2.8501317e+2, 1.756396e+2, -1305786.4, -1357791.1, -38058.79, -0.04359082, 0.14422353, -1285695.4, -66946.06, 0.000000006090155, 9.999812, 9.999151 
2.8501484e+2, 1.8563876e+2, -1144255.4, -1213400.8, 6382.0317, -0.01211445, 0.14296907, -1143671.3, -22913.576, 0.0, 10.00019, 9.999276 
2.8501734e+2, 1.956378e+2, -995504.75, -1091011.5, -9604.985, 0.081043504, 0.08706693, -994548.4, 28217.5, 0.0, 10.000532, 9.999281 
2.8501922e+2, 2.0563762e+2, -855529.3, -914422.75, -16888.45, 0.11704628, 0.11705322, -851030.06, 73734.96, 0.0, 10.000578, 9.999798 
2.8502062e+2, 2.1563777e+2, -802901.0, -846106.0, -60054.742, 0.11128925, 0.12005504, -760681.56, 66077.96, 0.0, 10.000296, 9.999734 
2.8502092e+2, 2.256373e+2, -796619.25, -862891.3, -78705.766, 0.019525602, 0.13888867, -744358.6, -15595.705, 0.0, 9.999969, 9.999103 
2.8502023e+2, 2.3563623e+2, -754385.4, -799649.44, -99030.47, -0.1415381, 0.091561444, -675433.7, -44659.543, 0.0, 9.999616, 9.999037 
2.85022e+2, 2.4563535e+2, -621754.6, -737434.06, -71951.08, -0.07031153, 0.12910005, -587277.56, -54494.32, 0.0, 10.000072, 9.998569 
2.8502563e+2, 2.5563446e+2, -363697.28, -560117.25, -63043.188, 0.1894654, 0.14725348, -345204.06, 89587.74, 0.0, 10.001169, 9.998582 
2.8502807e+2, 2.6563323e+2, -202895.27, -370267.8, -17336.045, 0.24429739, 0.14143625, -201118.5, 135684.52, 0.0, 10.001337, 9.999136 
2.8502983e+2, 2.7563152e+2, -196610.39, -326277.72, -73553.88, 0.1702374, 0.027307203, -163395.2, 75423.04, 0.0000000018932573, 10.000734, 9.999063 
2.8503102e+2, 2.8563073e+2, -172665.58, -304173.88, -92821.85, 0.07501187, 0.06507051, -124667.79, 16157.683, 0.00000028816427, 10.000405, 9.998694 
2.8503114e+2, 2.9563043e+2, -53632.95, -184247.67, -94896.75, -0.077642076, 0.120935775, -3742.898, 39085.426, 0.0000027347362, 10.000489, 9.998803 
2.850367e+2, 3.056279e+2, -96749.516, -362183.25, -4333.0527, 0.27149668, 0.06940949, -96678.8, -96678.8, 0.000012525966, 10.000649, 9.997189 
2.850393e+2, 3.1562564e+2, 84344.3, 146306.78, 57944.313, 0.24039608, 0.109569356, 181032.31, 181032.31, 0.00004059471, 10.0000305, 10.000968 
2.9500487e+2, 1.256364e+2, -1755744.4, -1727857.9, 35053.53, 0.047371816, 0.10972738, -1704076.3, 4707.0703, 0.00028489743, 9.999588, 10.000088 
2.950064e+2, 1.356388e+2, -1586516.6, -1588774.0, -19996.08, 0.062450666, 0.30228442, -1567617.4, 43145.74, 0.000121053716, 10.000127, 10.000108 
2.950059e+2, 1.456387e+2, -1496028.6, -1481558.9, 6888.066, -0.18333346, 0.27978528, -1478804.3, 33958.87, 0.000029834508, 9.999995, 10.00023 
2.9500967e+2, 1.556384e+2, -1484800.9, -1442190.0, 9627.251, -0.06733044, 0.1926486, -1440115.8, -25354.008, 0.000004731658, 9.999482, 10.000076 
2.950123e+2, 1.656381e+2, -1426010.8, -1400803.0, -39604.105, -0.0008601032, 0.1825138, -1371845.5, -55083.664, 0.00000054097734, 9.999396, 9.999722 
2.9501376e+2, 1.7563766e+2, -1276659.3, -1284280.8, -7373.8564, -0.00003502913, 0.13231908, -1272169.6, -53405.15, 0.0000000012704189, 9.99977, 9.999666 
2.950155e+2, 1.8563725e+2, -1159105.8, -1227191.8, 5273.9443, 0.0057411892, 0.15186083, -1158699.6, -37931.84, 0.0, 10.000111, 9.999224 
2.950175e+2, 1.9563659e+2, -1015541.2, -1111185.8, 14106.953, 0.014207535, 0.13024604, -1013503.94, 9270.224, 0.0, 10.000441, 9.9991865 
2.9501924e+2, 2.0563586e+2, -928589.7, -1028847.9, -39922.46, 0.031203227, 0.14972007, -914635.0, 10145.2705, 0.0, 10.000422, 9.999086 
2.950205e+2, 2.1563493e+2, -875035.6, -956433.9, -55755.22, 0.038571883, 0.116663896, -846705.3, -19917.29, 0.0, 10.00013, 9.999054 
2.9502103e+2, 2.2563387e+2, -834025.0, -902088.9, -105339.14, 0.0076042344, 0.118795514, -757356.8, -28559.363, 0.0, 9.999806, 9.998909 
2.95021e+2, 2.3563258e+2, -787768.44, -832259.8, -93470.87, -0.054487646, 0.0668365, -713932.5, -83122.734, 0.0, 9.999461, 9.998886 
2.9502273e+2, 2.4563159e+2, -598385.8, -667762.4, -44754.34, -0.03512798, 0.07366422, -576450.56, -43632.5, 0.0, 9.999977, 9.999096 
2.950257e+2, 2.5563067e+2, -351676.78, -509988.34, -13666.205, 0.04483373, 0.040696178, -350505.72, 84318.945, 0.0, 10.001057, 9.998986 
2.9502824e+2, 2.6562953e+2, -293970.9, -542785.25, -51485.453, 0.09594995, 0.086150356, -283738.2, 53098.91, 0.0, 10.001269, 9.997982 
2.9503068e+2, 2.756279e+2, -287440.66, -483514.3, -82509.66, 0.14964645, 0.09195263, -257340.6, -18483.668, 0.0000000016821552, 10.000604, 9.998044 
2.9503196e+2, 2.8562674e+2, -133922.16, -215950.97, -103959.17, 0.09531813, 0.108491026, -63179.273, 77689.17, 0.00000022409213, 10.000368, 9.999324 
2.9503173e+2, 2.95626e+2, -21857.848, -111085.62, -66975.63, -0.11024312, 0.065318905, 14002.695, 56875.664, 0.0000026534976, 10.000442, 9.999341 
2.950367e+2, 3.0562487e+2, -28692.314, -210515.66, -27663.535, 0.17550749, 0.07650354, -24576.605, -24576.605, 0.00001292508, 10.000612, 9.998242 
2.9503947e+2, 3.156231e+2, 62651.375, 118274.95, 92238.805, 0.18322828, 0.054778427, 186803.67, 186803.67, 0.000040888393, 9.999952, 10.000812 
3.050045e+2, 1.2563308e+2, -1719882.3, -1737906.9, -3021.267, 0.046900015, 0.059380073, -1719389.3, -10577.746, 0.00023189843, 9.999969, 9.999837 
3.0500653e+2, 1.3563545e+2, -1703988.6, -1640607.6, -90393.52, 0.11544742, 0.24598065, -1576510.5, 34282.516, 0.000094942065, 9.99929, 10.000163 
3.0500615e+2, 1.456356e+2, -1594878.5, -1526112.4, -15644.827, -0.11679437, 0.24525617, -1522720.4, -9928.938, 0.000021738364, 9.99933, 10.000234 
3.0501002e+2, 1.5563568e+2, -1388093.6, -1397991.5, -25650.98, -0.0065777865, 0.19931784, -1366918.5, 47868.69, 0.0000030875526, 10.000163, 10.000047 
3.0501267e+2, 1.6563536e+2, -1251462.3, -1329268.9, -55221.008, 0.043145694, 0.19057852, -1222816.9, 93970.97, 0.0000002653173, 10.000625, 9.999625 
3.0501407e+2, 1.7563452e+2, -1145299.0, -1231388.5, -99700.02, 0.015435658, 0.11225806, -1079748.4, 139045.86, 0.0, 10.000697, 9.999592 
3.0501598e+2, 1.856342e+2, -1082064.4, -1165830.0, -78771.7, 0.028744498, 0.13210021, -1034733.1, 86063.35, 0.0, 10.000529, 9.99945 
3.0501834e+2, 1.95634e+2, -1052326.5, -1116415.6, -77785.63, 0.07603025, 0.1370846, -1000243.4, 22554.629, 0.0, 10.00011, 9.999329 
3.050199e+2, 2.0563328e+2, -950729.56, -1060720.6, -62231.195, 0.068555884, 0.16253321, -922675.5, 2128.931, 0.0, 10.00035, 9.99891 
3.0502078e+2, 2.1563208e+2, -746922.7, -918691.7, -69155.414, 0.015446152, 0.12056245, -722541.06, 104274.84, 0.0, 10.001096, 9.9988575 
3.050215e+2, 2.2563072e+2, -651281.9, -826914.94, -95144.79, 0.017120158, 0.10740428, -609621.5, 119206.35, 0.0, 10.001116, 9.998796 
3.0502215e+2, 2.356291e+2, -634591.06, -770791.2, -101602.97, 0.069123544, 0.030933697, -580376.9, 50465.098, 0.0, 10.000566, 9.998776 
3.0502394e+2, 2.4562792e+2, -534929.06, -639868.2, -4074.1367, 0.07264068, 0.028867729, -534771.1, -1919.4572, 0.0, 10.000452, 9.999051 
3.0502647e+2, 2.5562698e+2, -384269.6, -524472.5, -44430.58, 0.035356265, -0.0030769084, -371375.3, 63484.313, 0.0, 10.000848, 9.99898 
3.0502874e+2, 2.6562604e+2, -383053.0, -577304.06, -70797.15, 0.060141645, 0.05754803, -359988.66, -23118.44, 0.0, 10.000615, 9.998061 
3.05031e+2, 2.756248e+2, -376369.2, -518781.3, -33339.41, 0.1647797, 0.096948616, -368950.7, -130065.19, 0.00000000014964384, 9.99996, 9.998109 
3.0503267e+2, 2.8562346e+2, -176587.1, -247271.84, 23090.426, 0.15204856, 0.09708444, -169712.75, -28813.857, 0.00000013461268, 10.000143, 9.999207 
3.050334e+2, 2.956222e+2, 33511.86, -94695.26, -21057.625, -0.0020801763, 0.009870902, 36881.92, 79791.04, 0.0000024184974, 10.000897, 9.999216 
3.0503803e+2, 3.0562186e+2, 94814.484, -149896.66, -39667.89, 0.21572444, 0.10929274, 101084.055, 101084.055, 0.00001259153, 10.001446, 9.998268 
3.0504018e+2, 3.1561947e+2, 228958.03, 131987.72, -43259.805, 0.20270513, 0.022278497, 245451.5, 245451.5, 0.000039642433, 10.001363, 10.000245 
3.1500342e+2, 1.2563215e+2, -1743978.4, -1790920.8, -118754.06, -0.12987405, 0.29380682, -1646398.3, 62422.48, 0.0001887222, 9.999986, 9.999463 
3.150054e+2, 1.3563138e+2, -1720412.1, -1658098.5, -103284.31, 0.043373734, 0.18132193, -1581374.0, 29457.88, 0.00007509751, 9.999241, 10.00006 
3.150058e+2, 1.4563134e+2, -1582481.3, -1498054.8, -881.4375, -0.12434924, 0.15318353, -1498045.5, 14786.041, 0.00001598166, 9.999306, 10.00044 
3.150108e+2, 1.556326e+2, -1378583.9, -1376951.1, 18149.547, 0.017119896, 0.20135733, -1359599.6, 55215.754, 0.00000170519, 10.000157, 10.000191 
3.1501344e+2, 1.6563216e+2, -1310252.9, -1440016.1, -72348.61, 0.023919592, 0.21458872, -1277954.5, 38863.785, 0.000000057148895, 10.000568, 9.9988985 
3.1501377e+2, 1.7563012e+2, -1196612.9, -1325176.5, -88636.6, -0.1186503, 0.08677961, -1151402.3, 67436.65, 0.0, 10.000642, 9.998976 
3.1501576e+2, 1.8562964e+2, -1063606.8, -1104144.5, -108161.22, -0.073335275, 0.093981124, -973831.6, 147011.34, 0.0, 10.000426, 9.999925 
3.1501928e+2, 1.9563009e+2, -1031244.2, -1049546.4, -76075.86, 0.1286571, 0.11352997, -963771.0, 59065.81, 0.0, 10.000013, 9.999833 
3.1502092e+2, 2.0563e+2, -954288.75, -1028828.0, -47514.332, 0.11045079, 0.16276005, -931171.0, -6334.7617, 0.0, 10.000187, 9.9992075 
3.1502113e+2, 2.1562934e+2, -751401.4, -888767.44, -28845.172, -0.08764052, 0.14533724, -745590.06, 81251.836, 0.0, 10.000932, 9.999141 
3.150219e+2, 2.2562794e+2, -669349.3, -832366.2, -128219.984, -0.07930703, 0.11345471, -598923.6, 129929.44, 0.0, 10.000977, 9.99883 
3.150232e+2, 2.3562577e+2, -656660.7, -783316.6, -105980.99, 0.09264282, -0.013924729, -596528.56, 34341.844, 0.0, 10.000422, 9.998766 
3.1502518e+2, 2.456243e+2, -589435.75, -739777.5, -2404.396, 0.11972036, -0.012890019, -589397.3, -56512.668, 0.0, 10.00039, 9.998395 
3.150275e+2, 2.5562325e+2, -440961.2, -610309.06, -20353.477, 0.02680163, 0.009982499, -438549.3, -3651.7817, 0.0, 10.000707, 9.99846 
3.1502923e+2, 2.6562274e+2, -296007.13, -381721.2, -108691.47, 0.01708591, 0.06571676, -222028.55, 114873.664, 0.0, 10.00055, 9.999437 
3.150305e+2, 2.7562228e+2, -302061.06, -346255.75, -41001.664, 0.0845849, 0.043639764, -277581.28, -38676.98, 0.00000000001473293, 9.999875, 9.999339 
3.1503275e+2, 2.8562087e+2, -245133.31, -378179.3, 37430.97, 0.11513551, 0.025295578, -235325.55, -94407.99, 0.000000108201135, 10.000097, 9.998325 
3.150355e+2, 2.9561877e+2, -47492.98, -238736.23, 24090.658, 0.078567535, -0.05644921, -44504.996, -1566.1945, 0.0000023186144, 10.000786, 9.998283 
3.150402e+2, 3.0561873e+2, 27817.8, -282244.22, -47751.047, 0.25638732, 0.16607098, 35005.09, 35005.09, 0.000012381474, 10.001413, 9.9973755 
3.1504083e+2, 3.1561464e+2, 163827.34, 3228.3518, -11883.54, 0.057451084, -0.009749321, 164701.9, 164701.9, 0.000038038284, 10.001326, 9.99938 
3.2500252e+2, 1.2562886e+2, -1923348.8, -1874158.1, -63728.004, -0.1418019, 0.23448591, -1830444.0, -121594.75, 0.0001575099, 9.99871, 9.9995165 
3.2500583e+2, 1.3562796e+2, -1529725.3, -1571898.1, -52569.813, 0.11265078, 0.106940165, -1494170.5, 116690.055, 0.00006189271, 10.000532, 10.000045 
3.2500666e+2, 1.4562808e+2, -1411741.1, -1456620.9, 49035.832, -0.026002875, 0.11507103, -1380254.5, 132604.69, 0.000012633238, 10.000639, 10.000092 
3.2501048e+2, 1.556288e+2, -1456051.8, -1447884.0, 615.571, -0.00025414536, 0.14462641, -1447837.9, -32987.938, 0.0000008198343, 9.99975, 9.99991 
3.250131e+2, 1.6562843e+2, -1438385.0, -1446799.3, -18984.246, -0.0024480324, 0.15313809, -1423147.3, -106295.19, 0.000000004124255, 9.999488, 9.999357 
3.250143e+2, 1.7562704e+2, -1300625.3, -1331809.0, 19641.926, -0.075215705, 0.047150243, -1291139.0, -72274.125, 0.0, 9.999756, 9.999351 
3.2501647e+2, 1.8562672e+2, -1103154.4, -1142283.5, 29302.148, -0.026962355, 0.0618761, -1087485.6, 33382.375, 0.0, 10.000244, 9.99974 
3.2501963e+2, 1.95627e+2, -926348.2, -1013252.2, -20981.46, 0.12938704, 0.0834147, -921547.75, 101317.445, 0.0, 10.000819, 9.999678 
3.2502148e+2, 2.0562682e+2, -863983.56, -984276.3, 56.872375, 0.12804466, 0.12620683, -863983.5, 60882.492, 0.0, 10.000788, 9.999225 
3.2502243e+2, 2.1562609e+2, -862476.6, -939081.4, -26036.248, -0.0021575508, 0.09755841, -854465.3, -27593.715, 0.0, 10.000152, 9.999169 
3.2502323e+2, 2.2562476e+2, -758574.06, -887780.0, -106669.125, -0.008413721, 0.07617509, -698470.0, 30412.42, 0.0, 10.000408, 9.998725 
3.25024e+2, 2.3562278e+2, -519697.53, -727112.4, -119408.97, 0.089827746, -0.026329609, -465247.66, 165651.64, 0.0, 10.001395, 9.998681 
3.250259e+2, 2.4562143e+2, -492862.2, -690164.2, 11101.284, 0.12712073, -0.009323709, -492239.53, 40672.81, 0.0, 10.001024, 9.998441 
3.250285e+2, 2.5562048e+2, -582330.4, -673260.1, 28202.914, 0.11689218, 0.016061816, -574293.3, -139369.53, 0.0, 9.999689, 9.998525 
3.2503006e+2, 2.6561987e+2, -367876.53, -406541.25, -28713.424, 0.080160595, 0.055135246, -352593.88, -15665.069, 0.0, 10.000019, 9.999527 
3.250308e+2, 2.7561924e+2, -31728.014, -207391.52, -86035.234, 0.044491503, 0.0049756668, 3389.322, 242321.61, 0.00000000010851988, 10.001702, 9.999412 
3.250333e+2, 2.8561762e+2, 19643.047, -303266.34, -19366.62, 0.06707959, -0.007180823, 20800.42, 161748.08, 0.00000014604628, 10.002127, 9.997873 
3.2503703e+2, 2.956154e+2, 32758.86, -244233.27, -27518.094, 0.125586, -0.057064198, 35466.215, 78437.414, 0.0000023415487, 10.001528, 9.99789 
3.2504183e+2, 3.0561537e+2, -15147.352, -292261.97, -24852.283, 0.31093362, 0.1759228, -12936.184, -12936.184, 0.000012312151, 10.00111, 9.997435 
3.250416e+2, 3.1561127e+2, 58092.82, -41487.094, 24468.334, 0.05170107, -0.007412495, 63780.24, 63780.24, 0.000036624067, 10.000618, 9.9993925 
3.3500078e+2, 1.2562323e+2, -1901632.5, -1812394.6, -70920.69, -0.25590214, -0.101705, -1773224.5, -64327.96, 0.00013854062, 9.998652, 9.999962 
3.3500746e+2, 1.356253e+2, -1528982.6, -1552829.1, 11861.634, 0.18680455, 0.047246408, -1524087.4, 86790.65, 0.000055370125, 10.000486, 10.00018 
3.3500835e+2, 1.456259e+2, -1478305.3, -1581584.3, -5772.028, 0.041865863, 0.14356832, -1477983.8, 34889.926, 0.000011804474, 10.000581, 9.999264 
3.350087e+2, 1.5562454e+2, -1501167.6, -1534413.4, -16945.07, -0.18687898, 0.043522507, -1494053.3, -79164.94, 0.00000057438905, 9.999723, 9.99933 
3.3501124e+2, 1.6562442e+2, -1339026.0, -1228905.6, -22335.805, -0.16762438, 0.019171908, -1224547.8, 92339.09, 0.00000000201948, 9.999434, 10.000881 
3.3501533e+2, 1.7562519e+2, -1210489.9, -1138441.1, 45890.508, 0.016142223, -0.021124028, -1116124.3, 102748.91, 0.0, 9.999725, 10.000695 
3.350177e+2, 1.8562527e+2, -1184777.6, -1282768.4, 35797.074, 0.03879285, 0.022741362, -1173093.8, -52221.05, 0.0, 10.000121, 9.998835 
3.3501893e+2, 1.9562459e+2, -999328.5, -1142851.3, 10392.103, -0.050531268, 0.034770183, -998580.0, 24304.758, 0.0, 10.000728, 9.998831 
3.350212e+2, 2.0562361e+2, -898380.3, -1023857.9, -38467.96, -0.0006188803, 0.04940401, -887526.06, 37369.0, 0.0, 10.000653, 9.999019 
3.350243e+2, 2.156222e+2, -900511.75, -977213.25, -33263.95, 0.14542834, -0.027019456, -888095.7, -61189.68, 0.0, 9.99998, 9.99899 
3.3502507e+2, 2.2562107e+2, -799107.06, -935272.2, -83595.17, 0.11096692, -0.006452297, -759377.8, -30460.97, 0.0, 10.000255, 9.99847 
3.3502415e+2, 2.3562002e+2, -559284.06, -762344.25, -77415.3, -0.061916262, 0.008318661, -533136.9, 97791.94, 0.0, 10.001205, 9.998525 
3.350257e+2, 2.4561934e+2, -440073.7, -568705.75, -52861.85, -0.01913249, 0.049265914, -421137.53, 111797.125, 0.0, 10.000964, 9.999305 
3.3502916e+2, 2.556187e+2, -548263.9, -575215.5, -3106.8264, 0.1825569, 0.018103013, -547910.4, -112972.5, 0.0, 9.999575, 9.999251 
3.3503094e+2, 2.656175e+2, -463629.72, -594204.1, 20997.58, 0.13923167, 0.032482985, -460336.2, -123387.234, 0.0, 9.999972, 9.998258 
3.3503142e+2, 2.7561557e+2, -134520.17, -389600.22, -12925.061, -0.09446261, -0.01909363, -133866.92, 105102.734, 0.000000000044508567, 10.001569, 9.998222 
3.350339e+2, 2.856138e+2, 23042.883, -291520.7, -54436.652, -0.11785424, -0.0011003333, 32196.998, 173185.61, 0.00000018851506, 10.002093, 9.997974 
3.3503756e+2, 2.9561228e+2, 33727.37, -234029.16, -32819.07, -0.013107614, 0.0065333834, 37691.34, 80696.66, 0.0000023038672, 10.001472, 9.997996 
3.3504257e+2, 3.0561152e+2, 37855.477, -174651.6, -51694.023, 0.24236757, 0.12672643, 49763.21, 49763.21, 0.000011796056, 10.001084, 9.998252 
3.3504155e+2, 3.1560892e+2, 94764.55, 61182.223, 59229.1, -0.08091539, 0.013066459, 139536.61, 139536.61, 0.000034748333, 10.000494, 10.000166 
3.4500122e+2, 1.256206e+2, -1696082.9, -1674794.5, -36154.684, -0.123672344, -0.11258199, -1647749.6, 61171.29, 0.00012841672, 9.999914, 10.00029 
3.450073e+2, 1.3562258e+2, -1615340.5, -1600972.9, -10861.546, 0.16887288, 0.02507513, -1595134.4, 15767.474, 0.00005393956, 9.999901, 10.000151 
3.4500903e+2, 1.4562309e+2, -1575298.6, -1616644.5, 1693.5109, 0.097682804, 0.11127898, -1575229.4, -62331.594, 0.00001321429, 9.999881, 9.999351 
3.450093e+2, 1.5562159e+2, -1441318.8, -1500401.6, 13942.275, -0.10536772, -0.009050655, -1438194.0, -23279.674, 0.00000089811203, 10.00012, 9.999367 
3.4501168e+2, 1.656216e+2, -1242446.4, -1164096.9, 12335.273, -0.085149914, -0.030079108, -1162200.8, 154710.75, 0.0000000015154811, 9.999997, 10.001062 
3.450155e+2, 1.7562276e+2, -1226840.9, -1125048.1, -41965.137, 0.08028755, -0.052169252, -1109978.5, 108915.65, 0.0, 9.999518, 10.000888 
3.4501785e+2, 1.8562305e+2, -1249941.6, -1317512.4, -6127.625, 0.073505305, 0.0043377248, -1249390.4, -128498.45, 0.0, 9.9996805, 9.9988165 
3.450193e+2, 1.9562232e+2, -1067348.4, -1181077.9, 9733.031, -0.053415164, 0.01932255, -1066521.4, -43616.555, 0.0, 10.00027, 9.998798 
3.45022e+2, 2.0562135e+2, -878064.2, -1010530.9, -3488.2412, 0.011686571, 0.03375229, -877972.44, 46943.266, 0.0, 10.000781, 9.999046 
3.450255e+2, 2.1561994e+2, -725622.5, -894625.9, -10963.275, 0.21839175, -0.044578698, -724914.3, 102012.86, 0.0, 10.001184, 9.99898 
3.450264e+2, 2.2561896e+2, -694843.75, -892432.4, -12673.818, 0.18681835, -0.004212086, -694034.1, 34903.21, 0.0, 10.001, 9.998408 
3.450252e+2, 2.3561814e+2, -687755.06, -834034.8, -19716.902, -0.02519038, 0.041280854, -685144.06, -54195.605, 0.0, 10.000347, 9.998456 
3.4502652e+2, 2.4561734e+2, -506584.9, -596772.2, -16177.313, -0.004633202, 0.072129786, -503770.9, 29184.184, 0.0, 10.000505, 9.999329 
3.4502968e+2, 2.5561622e+2, -289760.72, -458261.25, -57914.594, 0.19602235, -0.0017780324, -271774.94, 163186.13, 0.0, 10.001375, 9.999194 
3.4503168e+2, 2.656148e+2, -322473.66, -595884.6, 11911.61, 0.15959907, 0.024603477, -321955.7, 15019.916, 0.0, 10.001253, 9.997623 
3.4503278e+2, 2.7561283e+2, -346540.7, -551343.4, -3023.0469, -0.049104378, 0.032357533, -346496.1, -107496.55, 0.0, 10.000385, 9.997676 
3.450352e+2, 2.856111e+2, -258503.81, -387305.4, -9508.269, -0.08569834, 0.05965639, -257805.69, -116786.91, 0.00000016974016, 10.000014, 9.998307 
3.4503835e+2, 2.9560956e+2, -139121.47, -275730.47, 1488.2473, -0.00420102, 0.039788455, -139105.27, -96071.54, 0.0000020169734, 10.000121, 9.998357 
3.4504312e+2, 3.0560857e+2, -46657.164, -141782.45, 17448.656, 0.24759275, 0.08272139, -43557.586, -43557.586, 0.0000103175025, 10.000154, 9.998942 
3.4504208e+2, 3.1560746e+2, 1929.0845, 44404.56, 101572.945, -0.021535866, 0.041379526, 126936.305, 126936.305, 0.000031962787, 9.999724, 10.000417 
3.5500297e+2, 1.25621e+2, -1692927.3, -1661818.9, -82679.695, -0.02027096, 0.20278123, -1593243.0, 115679.24, 0.00012227354, 9.999883, 10.000394 
3.5500494e+2, 1.3561979e+2, -1616223.3, -1602287.4, 402.7694, -0.08942922, 0.036922306, -1602275.8, 8656.048, 0.00005490219, 9.999915, 10.000126 
3.5500818e+2, 1.4561981e+2, -1519330.9, -1502784.0, -5774.45, -0.01719455, 0.029465001, -1500968.1, 11961.667, 0.000015641235, 9.999882, 10.000139 
3.5501197e+2, 1.5561984e+2, -1395871.3, -1413917.8, 35453.87, 0.10837683, -0.008152354, -1368310.4, 46617.773, 0.0000017221555, 10.000147, 9.999953 
3.5501397e+2, 1.6561991e+2, -1327533.4, -1323288.1, -22258.549, 0.10934089, 0.005401413, -1303051.3, 13875.473, 0.000000007086625, 9.999924, 10.000002 
3.5501435e+2, 1.7561981e+2, -1297230.0, -1261116.4, -43193.555, -0.01784888, -0.039342597, -1232357.3, -13430.181, 0.0, 9.999474, 9.999975 
3.550165e+2, 1.8562007e+2, -1207347.3, -1202882.1, 5233.7227, -0.05722129, 0.011495914, -1199424.6, -78499.336, 0.0, 9.999568, 9.999657 
3.5502034e+2, 1.9562046e+2, -1025221.2, -1070456.5, 46261.68, -0.0066855242, 0.05210779, -996344.2, 26579.246, 0.0, 10.00017, 9.999606 
3.5502344e+2, 2.0562024e+2, -887600.4, -997094.1, -1584.2336, 0.051592637, 0.09481378, -887577.44, 37348.773, 0.0, 10.000633, 9.999213 
3.5502583e+2, 2.1561931e+2, -736256.6, -881019.44, 15939.205, 0.103784315, 0.048119478, -734522.44, 92412.29, 0.0, 10.001028, 9.999149 
3.5502684e+2, 2.256184e+2, -707408.0, -885560.8, -47377.586, 0.10812693, 0.08213755, -695592.2, 33351.86, 0.0, 10.00086, 9.998522 
3.5502678e+2, 2.356173e+2, -708319.06, -839077.7, -27499.465, 0.07442696, 0.08637224, -702771.1, -71814.74, 0.0, 10.00019, 9.998495 
3.550278e+2, 2.4561559e+2, -588585.3, -739628.56, 5415.5205, 0.04720546, 0.076012306, -588391.4, -55419.22, 0.0, 10.000394, 9.998398 
3.5502967e+2, 2.5561312e+2, -371556.75, -596500.06, -15621.383, 0.027957568, -0.040454604, -370477.1, 64516.22, 0.0, 10.0012455, 9.998305 
3.5503185e+2, 2.6561183e+2, -327285.3, -593343.44, -31531.729, 0.026183607, 0.03526352, -323599.4, 13408.831, 0.0, 10.001197, 9.997668 
3.5503438e+2, 2.7561107e+2, -357765.16, -553096.3, -16896.443, 0.042990725, 0.16400707, -356314.38, -117293.48, 0.0, 10.000291, 9.99771 
3.5503674e+2, 2.8560942e+2, -229707.81, -317815.28, -17752.406, 0.03676502, 0.17646174, -226265.44, -85227.22, 0.00000011654808, 9.999977, 9.998801 
3.5503888e+2, 2.9560718e+2, -118764.6, -211688.0, 24133.627, -0.0041151023, 0.03039032, -112870.58, -69812.68, 0.0000016052002, 10.0000305, 9.99884 
3.5504305e+2, 3.0560645e+2, 8419.84, -28637.047, -6436.7964, 0.19429937, 0.032811265, 9506.073, 9506.073, 0.000008325357, 10.00015, 9.999725 
3.550421e+2, 3.156076e+2, -30626.092, -7254.7817, 158196.06, -0.06788158, 0.14373223, 139686.63, 139686.63, 0.000028551576, 9.999649, 10.000103 
3.6500445e+2, 1.2561922e+2, -1663653.1, -1689189.9, 37082.504, 0.13767378, 0.19724244, -1637202.4, 71736.734, 0.000118926524, 10.000244, 10.000046 
3.6500448e+2, 1.356177e+2, -1617997.6, -1648753.6, 23785.828, -0.12202203, 0.049995918, -1605051.6, 5902.1357, 0.000056465244, 10.000094, 9.999721 
3.6500835e+2, 1.4561754e+2, -1499384.3, -1445400.9, 29394.695, 0.025899233, 0.018066972, -1432485.1, 80468.195, 0.00001794202, 9.999813, 10.0005665 
3.6501238e+2, 1.5561806e+2, -1451190.3, -1395357.1, 18864.879, 0.17440672, -0.0127591295, -1389580.8, 25363.506, 0.000002788093, 9.9995775, 10.000355 
3.6501452e+2, 1.6561823e+2, -1340061.3, -1383904.4, 19616.836, 0.17609535, 0.020033978, -1332565.5, -15622.959, 0.00000008230677, 10.0000725, 9.999518 
3.6501488e+2, 1.7561795e+2, -1101368.3, -1214478.4, 6935.0264, 0.02172517, 0.0072398824, -1100944.6, 118003.55, 0.0, 10.001023, 9.999551 
3.6501706e+2, 1.8561809e+2, -975658.9, -1062241.1, 62648.152, -0.024781818, 0.051207863, -942799.4, 178148.19, 0.0, 10.0010395, 9.999912 
3.6502087e+2, 1.9561833e+2, -996109.44, -1029873.0, 33574.957, 0.03196597, 0.052281603, -975411.0, 47533.29, 0.0, 10.000261, 9.999841 
3.650237e+2, 2.056182e+2, -1003453.44, -1053241.1, -5916.124, 0.06553784, 0.0959015, -1002760.1, -77814.625, 0.0, 9.999835, 9.999216 
3.650258e+2, 2.1561758e+2, -938664.06, -976867.4, -29946.389, 0.07432839, 0.07683995, -922245.9, -95293.24, 0.0, 9.999628, 9.999167 
3.6502728e+2, 2.256167e+2, -782084.7, -910758.94, -63763.73, 0.09855689, 0.10588593, -755839.94, -26877.982, 0.0, 10.000301, 9.998622 
3.6502835e+2, 2.3561542e+2, -489669.2, -725291.3, -71816.15, 0.14554934, 0.085473046, -469505.6, 161469.34, 0.0, 10.001658, 9.998569 
3.650295e+2, 2.4561353e+2, -410190.56, -713721.1, -5777.187, 0.11407876, 0.08132716, -410080.66, 122912.6, 0.0, 10.001856, 9.997885 
3.650307e+2, 2.55611e+2, -421896.13, -663961.4, -20512.18, 0.024628036, 0.00542716, -420170.28, 14847.105, 0.0, 10.001091, 9.997915 
3.6503288e+2, 2.656096e+2, -375190.4, -574561.25, -1880.1687, 0.04044873, 0.07158291, -375172.7, -38140.19, 0.0, 10.000693, 9.998036 
3.650359e+2, 2.7560875e+2, -286288.44, -478702.34, 12411.789, 0.15620793, 0.1506615, -285491.13, -46446.984, 0.0, 10.000611, 9.998067 
3.65038e+2, 2.8560716e+2, -135632.61, -264817.72, 56125.652, 0.14649293, 0.1458976, -114654.8, 26405.135, 0.000000055764154, 10.000565, 9.998893 
3.6503935e+2, 2.9560515e+2, -47773.93, -168941.55, 41027.316, 0.027420083, 0.0145555595, -35189.176, 7887.867, 0.0000011855267, 10.000482, 9.998915 
3.6504298e+2, 3.0560482e+2, 39821.91, -15526.726, -22288.064, 0.17675807, 0.058457553, 47681.035, 47681.035, 0.0000067298934, 10.0004, 9.999686 
3.650433e+2, 3.1560606e+2, -5878.7495, -36329.914, 58379.508, 0.08356419, 0.1793832, 39227.96, 39227.96, 0.00002565761, 10.000013, 9.999727 
3.7500468e+2, 1.2561549e+2, -1714776.6, -1792760.3, 35061.18, 0.06402059, -0.07919569, -1701331.4, 7637.534, 0.0001191897, 10.000231, 9.999334 
3.7500545e+2, 1.3561635e+2, -1665540.1, -1748260.8, 25282.645, -0.072021395, 0.07530994, -1658424.8, -47457.074, 0.00005856906, 10.000097, 9.99903 
3.750091e+2, 1.4561623e+2, -1501331.5, -1430928.4, 1686.4451, 0.07656143, 0.07518267, -1430888.0, 82080.37, 0.000020069963, 9.999739, 10.0007 
3.750102e+2, 1.5561615e+2, -1437231.4, -1371672.3, 28872.635, -0.039955895, -0.029909093, -1360769.6, 54193.27, 0.0000038584762, 9.999596, 10.000511 
3.75013e+2, 1.6561654e+2, -1346071.0, -1381749.9, 43550.97, -0.016660802, 0.014281645, -1316847.4, 111.71336, 0.00000020238203, 10.000011, 9.999559 
3.7501672e+2, 1.7561728e+2, -1108975.8, -1221517.1, 53877.2, 0.07047929, 0.09819362, -1087341.8, 131615.05, 0.0, 10.00098, 9.999524 
3.7501907e+2, 1.8561706e+2, -1012328.94, -1113505.5, 20370.19, 0.041447036, 0.12422778, -1008381.75, 112577.586, 0.0, 10.000933, 9.999611 
3.7502047e+2, 1.9561584e+2, -1032636.56, -1079533.9, 20593.668, -0.06298369, 0.008658744, -1024877.25, -1909.0586, 0.0, 10.000151, 9.999551 
3.750225e+2, 2.0561521e+2, -1038701.75, -1094726.6, -26524.412, -0.06551393, 0.025289724, -1028136.44, -103162.2, 0.0, 9.999697, 9.999 
3.7502488e+2, 2.1561481e+2, -976380.6, -1014538.0, -22112.639, -0.0031655335, 0.05292681, -966253.75, -139273.45, 0.0, 9.999458, 9.998988 
3.750272e+2, 2.2561389e+2, -796044.7, -909695.06, -28836.621, 0.03946082, 0.08349967, -789146.6, -60156.227, 0.0, 10.000161, 9.998701 
3.7502947e+2, 2.3561235e+2, -503665.47, -725321.4, -13674.531, 0.06331647, 0.025477365, -502825.03, 128180.81, 0.0, 10.001522, 9.998638 
3.7503123e+2, 2.4561109e+2, -425789.13, -723023.0, -46926.496, 0.073748685, 0.08240106, -418556.5, 114462.69, 0.0, 10.001759, 9.997868 
3.750324e+2, 2.556098e+2, -438883.06, -673349.0, -33466.777, 0.053816218, 0.13740857, -434199.7, 833.5211, 0.0, 10.000975, 9.997909 
3.7503427e+2, 2.6560807e+2, -333921.88, -476424.2, -16863.402, 0.08092901, 0.13199462, -331953.5, 5096.044, 0.0, 10.000639, 9.998736 
3.7503678e+2, 2.7560562e+2, -251082.9, -387736.16, 24614.025, 0.15220033, -0.019509148, -246784.63, -7713.847, 0.0, 10.000529, 9.9987335 
3.7503847e+2, 2.8560415e+2, -154051.47, -294730.94, 42144.49, 0.10629599, -0.032217078, -142392.2, -1308.21, 0.00000003400916, 10.000527, 9.998707 
3.7503928e+2, 2.9560354e+2, -84574.84, -225975.02, 54351.973, -0.06630865, -0.0033291646, -66097.36, -23006.84, 0.000000899484, 10.000388, 9.998574 
3.750425e+2, 3.0560374e+2, -31363.014, -150663.25, -40831.453, 0.061051793, 0.1616245, -18726.59, -18726.59, 0.000005766145, 10.000352, 9.998779 
3.750448e+2, 3.1560242e+2, -60751.9, -134440.66, 104553.62, 0.16415918, 0.11118369, 13259.339, 13259.339, 0.000023929499, 9.999942, 9.999093 
3.8500494e+2, 1.256136e+2, -1699858.0, -1783194.5, 79068.836, 0.076513715, -0.1255275, -1652150.0, 56837.26, 0.00012316402, 10.000329, 9.999354 
3.8500616e+2, 1.3561529e+2, -1696738.1, -1755123.4, 25738.814, 0.011524054, 0.10298826, -1687011.6, -76033.3, 0.000061385945, 9.99983, 9.999126 
3.8500983e+2, 1.4561512e+2, -1491663.5, -1443939.9, 71757.28, 0.17929092, 0.10012086, -1392181.0, 120799.15, 0.000022093489, 9.999881, 10.00054 
3.8500988e+2, 1.5561493e+2, -1317675.8, -1329291.1, 34326.895, -0.06519924, -0.001997792, -1288668.8, 126307.016, 0.000004863891, 10.000496, 10.00036 
3.8501272e+2, 1.6561502e+2, -1333831.3, -1407166.9, 43578.805, -0.04852723, 0.03227873, -1313546.0, 3428.8828, 0.00000029520132, 10.000212, 9.999297 
3.8501725e+2, 1.756153e+2, -1390662.0, -1382939.3, 11378.947, 0.12150019, 0.09632159, -1374784.4, -155807.31, 0.0, 9.999151, 9.999298 
3.8501975e+2, 1.8561494e+2, -1233465.0, -1226212.1, 19374.135, 0.09884006, 0.12181222, -1210127.9, -89147.1, 0.0, 9.999431, 9.999563 
3.8502097e+2, 1.9561373e+2, -953200.44, -1051653.4, 7637.1426, -0.049080152, 0.008054494, -952611.5, 70378.19, 0.0, 10.00072, 9.999475 
3.8502285e+2, 2.0561285e+2, -838784.25, -1010302.1, -15958.926, -0.061980046, 0.011421427, -837312.0, 87685.51, 0.0, 10.001126, 9.998887 
3.8502517e+2, 2.1561208e+2, -786332.0, -939617.3, -26346.186, 0.019747265, 0.016179305, -781930.1, 45076.164, 0.0, 10.000823, 9.998854 
3.850277e+2, 2.2561124e+2, -734321.2, -875846.1, 27798.602, 0.059645757, 0.05745742, -729056.75, -40.891533, 0.0, 10.000576, 9.998724 
3.850304e+2, 2.3561014e+2, -662029.94, -794036.6, 8106.6094, 0.065738864, 0.03913349, -661534.0, -30506.307, 0.0, 10.000416, 9.998691 
3.8503236e+2, 2.4560913e+2, -571826.4, -752196.1, -13278.182, 0.07579913, 0.09836663, -570854.1, -37815.68, 0.0, 10.000591, 9.998214 
3.8503364e+2, 2.5560793e+2, -402166.63, -625792.4, -47.86668, 0.08083521, 0.12467356, -402166.6, 32884.42, 0.0, 10.001088, 9.99818 
3.8503534e+2, 2.6560622e+2, -236206.84, -432972.4, 28643.834, 0.0961233, 0.113979094, -232121.88, 104944.79, 0.0, 10.001317, 9.998716 
3.8503754e+2, 2.7560398e+2, -133325.55, -328910.53, -12460.295, 0.14254911, -0.016151594, -132534.92, 106551.164, 0.0, 10.001335, 9.998748 
3.8503918e+2, 2.856027e+2, -117090.77, -286071.9, -3487.5027, 0.117799364, -0.009577835, -117018.83, 24079.21, 0.000000026095549, 10.000831, 9.998616 
3.850401e+2, 2.9560202e+2, -168248.28, -277650.53, -6015.8364, 0.011748683, 0.022409096, -167918.47, -124813.11, 0.00000066980994, 9.999872, 9.998463 
3.8504258e+2, 3.056017e+2, -111232.3, -243103.58, -13484.504, 0.060437467, 0.16647598, -109867.56, -109867.56, 0.000005131084, 10.000032, 9.998295 
3.8504565e+2, 3.1559956e+2, 57259.703, -63269.094, 108786.65, 0.23422347, 0.07419966, 121359.016, 121359.016, 0.000023471404, 10.000708, 9.999202 
3.9500472e+2, 1.2561361e+2, -1672179.8, -1693571.6, 78451.8, -0.0483849, 0.057481103, -1603698.1, 105294.71, 0.0001272644, 10.00023, 10.00001 
3.9500612e+2, 1.3561462e+2, -1645672.9, -1632454.9, 21270.771, -0.0044526258, 0.12454964, -1616790.0, -5804.786, 0.00006380605, 9.999786, 9.999983 
3.9501014e+2, 1.4561425e+2, -1543703.1, -1539333.0, 77733.25, 0.18090653, 0.09665733, -1463754.1, 49233.58, 0.000023677207, 9.999813, 9.999923 
3.950109e+2, 1.5561429e+2, -1357865.1, -1414325.8, 67345.19, -0.047770537, 0.07282464, -1313072.6, 101910.97, 0.000005569423, 10.000496, 9.999777 
3.9501327e+2, 1.6561344e+2, -1375021.9, -1472568.4, -14025.855, -0.04573728, 0.065197505, -1373045.3, -56053.32, 0.00000035120044, 10.000136, 9.998883 
3.9501607e+2, 1.7561197e+2, -1427518.6, -1439615.0, -9428.743, 0.061537568, -0.004849934, -1422364.9, -203355.25, 0.0, 9.999075, 9.998946 
3.9501885e+2, 1.8561168e+2, -1237359.8, -1208465.9, 55484.668, 0.03843252, 0.03467267, -1165578.1, -44565.082, 0.0, 9.999314, 9.999746 
3.9502192e+2, 1.9561209e+2, -958698.2, -1029796.8, 65773.83, -0.056285422, 0.06860529, -919481.56, 103526.07, 0.0, 10.000582, 9.999689 
3.9502442e+2, 2.0561132e+2, -859992.44, -1015638.75, -41836.695, -0.04545827, 0.067336015, -849459.75, 75554.07, 0.0, 10.000961, 9.998931 
3.9502627e+2, 2.1560943e+2, -812970.56, -946451.8, -21436.455, 0.020576023, -0.04343899, -809612.5, 17418.217, 0.0, 10.000623, 9.9988985 
3.950284e+2, 2.2560878e+2, -757933.4, -891519.2, 10233.705, 0.04549565, 0.01628246, -757153.94, -28115.855, 0.0, 10.000429, 9.998691 
3.9503074e+2, 2.356088e+2, -683567.94, -803489.25, 18695.66, 0.030746361, 0.11732089, -680720.94, -49680.3, 0.0, 10.000264, 9.998699 
3.9503253e+2, 2.4560763e+2, -536183.6, -657289.44, -6906.175, 0.0056520756, 0.12503561, -535791.06, -2739.6196, 0.0, 10.000499, 9.998917 
3.950339e+2, 2.5560528e+2, -374450.6, -541640.9, 31729.967, -0.029703544, -0.03329032, -368631.3, 66440.125, 0.0, 10.000968, 9.99882 
3.9503568e+2, 2.6560417e+2, -297924.94, -544990.9, 17791.844, -0.029107008, 0.021345155, -296650.28, 40433.08, 0.0, 10.001244, 9.997986 
3.950377e+2, 2.756038e+2, -196632.28, -440575.38, 1028.2872, -0.0021858502, 0.15717891, -196627.95, 42462.656, 0.0, 10.00124, 9.998034 
3.950397e+2, 2.856026e+2, -122994.16, -278919.25, -51800.113, 0.058555488, 0.20419331, -107354.3, 33748.86, 0.000000010243951, 10.000761, 9.998693 
3.9504132e+2, 2.9560053e+2, -180065.08, -269738.78, -18582.08, 0.1117023, 0.09292046, -176367.02, -133245.16, 0.0000005130985, 9.999742, 9.998579 
3.9504278e+2, 3.055987e+2, -114237.28, -244687.1, 7570.351, 0.049059298, 0.078912385, -113799.42, -113799.42, 0.0000059963604, 10.0000105, 9.998293 
3.9504507e+2, 3.1559688e+2, 99214.31, 50656.227, 153102.98, 0.039127693, 0.027366644, 229951.38, 229951.38, 0.000027747768, 10.000599, 10.000034 
4.0500507e+2, 1.2561266e+2, -1690138.5, -1706147.4, 158059.56, -0.009172362, 0.13620576, -1539880.9, 169124.36, 0.0001282802, 10.0000925, 10.000001 
4.0500653e+2, 1.3561311e+2, -1642446.4, -1613221.0, -68212.65, 0.07497066, 0.1275533, -1558073.4, 52927.215, 0.00006493345, 9.999726, 10.000145 
4.0500996e+2, 1.4561264e+2, -1585463.8, -1606875.9, 47132.0, 0.1992828, 0.10330619, -1547837.3, -34832.92, 0.00002457309, 9.999724, 9.999503 
4.0501142e+2, 1.5561235e+2, -1457047.0, -1509745.1, 16641.332, -0.013383326, 0.09035425, -1452231.9, -37226.367, 0.000005781208, 10.000003, 9.999368 
4.0501395e+2, 1.656113e+2, -1318696.6, -1444294.3, -31469.586, -0.0032166722, 0.079821385, -1311252.9, 5762.9463, 0.0000003430959, 10.000516, 9.998892 
4.0501627e+2, 1.7560968e+2, -1116896.1, -1292061.9, -27464.61, 0.07314488, -0.005233293, -1112690.9, 106341.87, 0.0, 10.001206, 9.998932 
4.050189e+2, 1.8560944e+2, -1040269.44, -1140940.5, 63475.793, 0.04542534, 0.05327279, -1009593.56, 111442.15, 0.0, 10.0008, 9.999489 
4.0502214e+2, 1.9560999e+2, -1140651.5, -1145072.5, 19268.041, -0.024811404, 0.1296155, -1123467.6, -100436.586, 0.0, 9.99946, 9.99944 
4.05025e+2, 2.0560923e+2, -1058565.4, -1085705.8, -57568.195, -0.0006849002, 0.13051304, -1012989.56, -87952.89, 0.0, 9.999484, 9.999159 
4.0502736e+2, 2.1560727e+2, -806070.6, -922529.75, -54627.605, 0.07992425, -0.014650504, -784457.5, 42594.98, 0.0, 10.000574, 9.999085 
4.0502945e+2, 2.256064e+2, -693389.3, -876117.3, -14911.249, 0.08821152, 0.024520902, -692180.5, 36880.902, 0.0, 10.000943, 9.998548 
4.0503126e+2, 2.3560616e+2, -623042.5, -792799.3, -38597.957, 0.03943156, 0.11653122, -614678.5, 16388.824, 0.0, 10.000749, 9.998545 
4.0503302e+2, 2.4560495e+2, -504411.47, -608630.75, -44795.137, 0.009102106, 0.109170526, -487804.16, 45274.1, 0.0, 10.000572, 9.999215 
4.0503475e+2, 2.556028e+2, -430504.84, -526235.56, -59928.45, -0.006721466, -0.060645886, -401672.66, 33421.703, 0.0, 10.00043, 9.999173 
4.0503675e+2, 2.656019e+2, -394080.53, -579704.5, -25416.379, -0.0014474788, -0.0077958223, -390663.3, -53559.97, 0.0, 10.000524, 9.998089 
4.0503895e+2, 2.7560166e+2, -261341.02, -467759.44, -3644.091, 0.027088791, 0.12662636, -261276.7, -22167.03, 0.0, 10.000761, 9.9980755 
4.0504083e+2, 2.8560048e+2, -99431.92, -324437.13, -31695.895, 0.08391146, 0.19880629, -95052.26, 46070.95, 0.0000000008315615, 10.001151, 9.998197 
4.0504247e+2, 2.9559836e+2, 79886.68, -186702.7, -67965.52, 0.16612607, 0.12500188, 96214.13, 139358.52, 0.0000007104038, 10.001701, 9.9981985 
4.0504336e+2, 3.0559558e+2, 62145.465, -163697.3, -36196.355, 0.05600848, 0.035618525, 67804.92, 67804.92, 0.000009515816, 10.001229, 9.998271 
4.0504608e+2, 3.1559396e+2, -43677.883, -12551.925, 26037.625, 0.1494555, 0.0073008635, 2219.305, 2219.305, 0.000039448827, 9.999542, 10.000128 
4.1500515e+2, 1.2561043e+2, -1723334.0, -1787374.9, 153465.17, -0.08621552, 0.09686938, -1598584.4, 110442.695, 0.00012596608, 10.000128, 9.999425 
4.1500685e+2, 1.3561077e+2, -1662659.8, -1678717.5, -71396.96, 0.09420623, 0.120099805, -1598841.6, 12182.567, 0.00006410072, 9.999797, 9.999666 
4.1500893e+2, 1.4561018e+2, -1603613.5, -1632585.4, 44525.383, 0.083534814, 0.1128951, -1571276.9, -58246.297, 0.00002430965, 9.999688, 9.999342 
4.1501108e+2, 1.5560919e+2, -1473420.8, -1529259.9, 45176.27, -0.082046784, 0.04830363, -1448232.9, -33192.08, 0.0000053776803, 9.999953, 9.999254 
4.1501433e+2, 1.6560864e+2, -1309965.4, -1401428.9, -18909.32, -0.048977997, 0.07545823, -1306210.3, 10835.502, 0.0000002359893, 10.000413, 9.999232 
4.1501725e+2, 1.7560858e+2, -1107263.9, -1254551.1, 9326.378, 0.017580124, 0.11020973, -1106675.8, 112369.22, 0.0, 10.001134, 9.999221 
4.1501933e+2, 1.8560827e+2, -1101897.9, -1246988.4, -1204.9244, -0.019192493, 0.18285206, -1101887.9, 19161.035, 0.0, 10.000708, 9.998802 
4.150212e+2, 1.9560742e+2, -1198450.8, -1240504.8, -14236.118, -0.091999896, 0.1866298, -1194084.9, -171024.88, 0.0, 9.999362, 9.998826 
4.1502425e+2, 2.056066e+2, -1051977.1, -1045592.44, -29503.555, -0.048001252, 0.19252193, -1019109.0, -94042.56, 0.0, 9.999358, 9.999502 
4.1502807e+2, 2.156056e+2, -808924.0, -883850.0, -4556.8975, 0.06644812, 0.11072479, -808647.9, 18423.31, 0.0, 10.000381, 9.999443 
4.150304e+2, 2.2560422e+2, -738511.5, -929746.06, -35305.406, 0.06326711, 0.09472003, -732201.7, -3116.8154, 0.0, 10.0007715, 9.998263 
4.150315e+2, 2.3560224e+2, -662307.6, -840899.2, -31854.238, -0.03804397, 0.039297823, -656796.06, -25687.926, 0.0, 10.000607, 9.998282 
4.1503328e+2, 2.4560109e+2, -519005.97, -619299.56, -61397.203, -0.050405867, 0.05118839, -489879.1, 43239.707, 0.0, 10.000484, 9.999182 
4.1503564e+2, 2.5560036e+2, -443846.38, -530186.75, -50419.62, 0.008036728, 0.025590898, -420640.34, 14481.037, 0.0, 10.000323, 9.999197 
4.1503814e+2, 2.655993e+2, -334461.84, -437440.4, -27786.535, 0.058824744, 0.0075327824, -327442.7, 9686.066, 0.0, 10.000454, 9.999095 
4.1504067e+2, 2.755977e+2, -216466.7, -346372.44, 19017.5, 0.08919468, -0.09556152, -213739.89, 25402.69, 0.0, 10.000652, 9.998956 
4.1504213e+2, 2.8559646e+2, -170953.33, -477051.1, -25892.379, 0.06555767, -0.012492031, -168778.58, -27621.598, 0.00000000001177225, 10.001154, 9.997155 
4.1504297e+2, 2.9559547e+2, 196.19089, -333445.94, -36201.78, 0.0017975747, 0.12988456, 4079.0706, 47251.86, 0.0000013022876, 10.00161, 9.997242 
4.150437e+2, 3.055923e+2, 65157.535, -146459.25, -102197.414, -0.062767945, 0.03807759, 106453.625, 106453.625, 0.000014575742, 10.001196, 9.998397 
4.150479e+2, 3.1559128e+2, -94423.55, -85389.43, -46895.215, 0.31063324, 0.057838377, -42794.234, -42794.234, 0.000055427667, 9.999423, 9.999676 
4.250049e+2, 1.25608e+2, -1872296.6, -1829986.1, 157814.95, -0.05299478, 0.1058445, -1691914.9, 17136.443, 0.00012015749, 9.998969, 9.99969 
4.2500737e+2, 1.3560821e+2, -1660175.1, -1655010.5, -73118.1, 0.18389277, 0.08980661, -1584429.1, 26618.893, 0.00006079175, 9.999716, 9.99986 
4.2500848e+2, 1.4560786e+2, -1541102.1, -1623625.4, 93925.99, 0.053341366, 0.10698772, -1479774.3, 33278.23, 0.00002257458, 10.000212, 9.999146 
4.2501172e+2, 1.5560696e+2, -1455691.6, -1536545.8, 51137.668, -0.012202237, 0.06676327, -1430931.3, -15867.208, 0.0000044461326, 10.0001545, 9.999102 
4.250151e+2, 1.6560662e+2, -1345372.3, -1384174.6, 20991.455, 0.017313765, 0.10875442, -1336189.5, -19122.857, 0.00000009724189, 10.000031, 9.999532 
4.2501742e+2, 1.7560671e+2, -1275529.0, -1305509.3, 18699.07, -0.0058888462, 0.13144304, -1266553.3, -47491.074, 0.0, 9.999855, 9.999488 
4.2501953e+2, 1.8560593e+2, -1189815.6, -1333926.1, 28413.727, -0.04325966, 0.16346712, -1184415.8, -63345.793, 0.0, 10.000283, 9.998419 
4.250219e+2, 1.9560407e+2, -962605.9, -1170787.6, 13358.247, -0.044763066, 0.10578209, -961752.25, 61338.563, 0.0, 10.001152, 9.998449 
4.250249e+2, 2.0560315e+2, -814029.4, -932017.25, 26510.008, 0.0031042956, 0.11827615, -808346.7, 116752.195, 0.0, 10.00101, 9.999477 
4.250282e+2, 2.1560273e+2, -864545.4, -916574.0, -4316.8467, 0.06709583, 0.09885934, -864189.6, -37090.43, 0.0, 10.000029, 9.99939 
4.2503068e+2, 2.2560161e+2, -824839.1, -954585.8, 5988.7085, 0.057093944, 0.10514995, -824563.25, -95452.22, 0.0, 10.0001135, 9.9984045 
4.2503244e+2, 2.3559977e+2, -593070.25, -788959.2, 9812.168, -0.014995134, 0.050177064, -592580.0, 38553.46, 0.0, 10.001015, 9.998438 
4.2503446e+2, 2.4559885e+2, -410954.97, -574588.3, -3079.3887, -0.014900902, 0.08139966, -410897.03, 122245.71, 0.0, 10.001258, 9.999122 
4.2503664e+2, 2.5559834e+2, -346779.5, -493391.75, -20500.45, 0.049555194, 0.08583258, -343966.94, 91177.45, 0.0, 10.0010195, 9.999125 
4.2503905e+2, 2.655971e+2, -266590.44, -383508.8, 513.743, 0.094095826, 0.047515895, -266588.2, 70564.5, 0.0, 10.000826, 9.999297 
4.2504156e+2, 2.755951e+2, -204323.84, -315299.34, -37907.91, 0.12395632, -0.11361675, -192611.14, 46557.516, 0.0, 10.000634, 9.999182 
4.2504323e+2, 2.8559387e+2, -228326.19, -469714.63, -15248.443, 0.09141114, -0.057710502, -227366.77, -86184.96, 0.0000000012455732, 10.000642, 9.997435 
4.2504448e+2, 2.9559308e+2, -98021.27, -353672.38, 38491.246, 0.04128531, 0.08256546, -92351.7, -49157.27, 0.0000019825331, 10.000828, 9.997478 
4.25045e+2, 3.055902e+2, 68145.96, -166795.92, 5146.07, -0.041432668, 0.0150139695, 68258.62, 68258.62, 0.000019679212, 10.001315, 9.9981985 
4.2504814e+2, 3.1558955e+2, 230556.6, 9946.01, -69562.32, 0.28126666, 0.09087752, 250659.03, 250659.03, 0.00007104561, 10.001917, 9.999127 
4.3500364e+2, 1.256054e+2, -1803297.4, -1663307.4, 128685.805, -0.14908738, 0.15800422, -1586812.4, 122265.21, 0.00011272219, 9.998901, 10.000858 
4.350079e+2, 1.3560551e+2, -1596617.9, -1521823.8, -27697.367, 0.22373524, 0.035230912, -1512683.9, 98387.49, 0.00005585788, 9.999725, 10.000769 
4.3500814e+2, 1.4560561e+2, -1569269.3, -1673262.6, 82570.79, -0.04347532, 0.07319129, -1523687.4, -10616.596, 0.000019900395, 10.000165, 9.998833 
4.350128e+2, 1.5560557e+2, -1469146.3, -1571576.9, 64055.723, 0.042593803, 0.14957242, -1438348.5, -23273.018, 0.0000034951138, 10.000171, 9.998858 
4.3501583e+2, 1.6560507e+2, -1337396.9, -1346374.5, 269.1745, 0.054608073, 0.1701638, -1337388.8, -20309.125, 0.000000032016867, 9.999949, 9.999826 
4.3501636e+2, 1.7560409e+2, -1266388.0, -1268989.9, 27437.016, -0.1292642, 0.054800943, -1240221.1, -21136.477, 0.0, 9.999786, 9.999768 
4.3501896e+2, 1.8560244e+2, -1213707.5, -1355207.3, 48626.14, -0.15597944, -0.006468636, -1198608.4, -77509.57, 0.0, 10.000164, 9.998331 
4.350237e+2, 1.9560008e+2, -987116.6, -1191565.8, 57129.46, -0.01034222, -0.10780934, -972235.94, 50886.29, 0.0, 10.001028, 9.998366 
4.350264e+2, 2.0559895e+2, -870437.56, -1012239.9, -23698.44, 0.026646707, -0.08615992, -866581.9, 58551.336, 0.0, 10.000852, 9.9990015 
4.3502733e+2, 2.1559857e+2, -917436.3, -990230.4, -24093.826, -0.04960496, -0.05705662, -910184.1, -83047.2, 0.0, 9.999874, 9.998957 
4.350299e+2, 2.2559862e+2, -810267.4, -888770.1, 27647.271, -0.05824103, 0.059369154, -801507.9, -72368.555, 0.0, 9.99996, 9.998931 
4.350337e+2, 2.3559877e+2, -580465.44, -726799.7, 54743.066, -0.016830064, 0.14787604, -562252.94, 68890.3, 0.0, 10.000858, 9.9989395 
4.350361e+2, 2.455982e+2, -440282.34, -608111.3, -25491.258, -0.000881753, 0.20117798, -436495.94, 96654.47, 0.0, 10.001145, 9.9989395 
4.350373e+2, 2.5559682e+2, -378294.0, -529862.44, -15285.398, -0.015163656, 0.13423494, -376767.88, 58394.43, 0.0, 10.000902, 9.998924 
4.3503907e+2, 2.6559553e+2, -312498.03, -470732.88, -17755.75, -0.017261334, 0.12694645, -310530.13, 26643.414, 0.0, 10.000787, 9.998719 
4.350411e+2, 2.7559394e+2, -246582.16, -385220.8, -28069.945, -0.018605702, 0.0669042, -241114.52, -1927.3063, 0.0, 10.00055, 9.998745 
4.3504348e+2, 2.8559265e+2, -129049.32, -250771.03, -19489.672, 0.023701027, 0.054542802, -126004.84, 15193.138, 0.000000012355592, 10.000598, 9.998955 
4.350467e+2, 2.9559138e+2, -16917.793, -166858.5, 61533.723, 0.13956034, -0.0078095454, 5101.3013, 48309.617, 0.0000027662056, 10.000756, 9.998793 
4.3504694e+2, 3.055893e+2, 28009.762, -252139.23, 18547.658, -0.013254369, -0.022245862, 29232.4, 29232.4, 0.000024180765, 10.001316, 9.997613 
4.3504593e+2, 3.1558868e+2, 154106.34, -124632.47, -58345.195, -0.20398946, 0.116081044, 165826.3, 165826.3, 0.00008333817, 10.001814, 9.998253 
4.4500273e+2, 1.256017e+2, -1949232.9, -1713898.4, 136476.38, -0.055669677, 0.13430879, -1651367.5, 57744.293, 0.00010688196, 9.997857, 10.001006 
4.4500855e+2, 1.356019e+2, -1595870.3, -1509652.6, -94229.22, 0.33331648, 0.017801808, -1449139.5, 161966.75, 0.000051033883, 9.999704, 10.000869 
4.4500762e+2, 1.4560229e+2, -1537464.5, -1616186.1, -12849.366, -0.1035394, 0.06178177, -1535420.3, -22317.934, 0.000017295639, 10.000198, 9.999206 
4.450125e+2, 1.556026e+2, -1590210.8, -1590667.8, -19002.447, 0.057247594, 0.13029762, -1571435.4, -156333.5, 0.0000027656245, 9.999172, 9.999204 
4.450159e+2, 1.656021e+2, -1474564.0, -1452386.4, -23306.824, 0.11571488, 0.15061677, -1437665.0, -120558.18, 0.000000035556127, 9.99915, 9.999502 
4.450167e+2, 1.756008e+2, -1261943.4, -1298588.1, -65543.195, -0.07109957, 0.03704278, -1212209.8, 6907.4863, 0.0, 9.999937, 9.999504 
4.450196e+2, 1.8559952e+2, -1170018.0, -1268376.5, -9361.938, -0.10059884, -0.0066583934, -1169134.9, -48006.797, 0.0, 10.000198, 9.998898 
4.4502473e+2, 1.955979e+2, -1104459.1, -1189726.8, 15053.7705, 0.053713124, -0.08746757, -1101879.4, -78737.195, 0.0, 9.999981, 9.998875 
4.4502744e+2, 2.0559691e+2, -980591.94, -1075272.1, -24980.133, 0.087104134, -0.070692785, -974405.44, -49253.773, 0.0, 10.000156, 9.998897 
4.4502804e+2, 2.1559615e+2, -816269.5, -948584.9, -23243.803, 0.0040411693, -0.06563041, -812305.06, 14854.749, 0.0, 10.00061, 9.99888 
4.4503042e+2, 2.255962e+2, -709689.44, -817409.44, 70002.76, -0.023587598, 0.042187024, -675224.56, 53937.55, 0.0, 10.000551, 9.999134 
4.4503427e+2, 2.355966e+2, -687512.44, -762702.8, 45247.527, 0.0013151594, 0.13763292, -666279.6, -35117.03, 0.0, 10.000051, 9.9990835 
4.4503692e+2, 2.4559614e+2, -592153.5, -703958.9, -21976.477, 0.02232632, 0.20463756, -587988.94, -54819.56, 0.0, 10.0001955, 9.998739 
4.4503868e+2, 2.555948e+2, -404290.63, -563448.3, -41169.227, 0.039259534, 0.15993965, -394272.03, 40911.027, 0.0, 10.000816, 9.998732 
4.4504026e+2, 2.655935e+2, -305906.3, -491987.88, -20149.064, 0.023643835, 0.17382269, -303749.53, 33446.605, 0.0, 10.000944, 9.998488 
4.450416e+2, 2.7559194e+2, -231511.4, -402344.97, -33198.348, -0.026486285, 0.13999255, -225286.73, 13924.907, 0.0, 10.000759, 9.998525 
4.45044e+2, 2.8559083e+2, -67517.305, -184521.77, -23499.104, 0.009739892, 0.1387812, -62974.164, 78246.5, 0.00000003062236, 10.00085, 9.999296 
4.4504791e+2, 2.955898e+2, 40976.418, -93062.57, -63890.04, 0.18525778, 0.06790479, 66550.39, 109777.21, 0.0000032986038, 10.000971, 9.99919 
4.4504905e+2, 3.0558813e+2, 4887.2813, -247187.56, -63524.58, 0.09041752, 0.06546744, 19990.936, 19990.936, 0.000027227657, 10.001086, 9.997747 
4.4504693e+2, 3.1558743e+2, 98304.93, -143138.44, -156319.92, -0.24836127, 0.17841266, 175091.84, 175091.84, 0.000091368296, 10.001403, 9.998312 
4.5500118e+2, 1.2559679e+2, -2020671.6, -1860818.4, 82166.02, -0.0700366, 0.017761447, -1826117.3, -116962.7, 0.000102696926, 9.9978485, 10.000001 
4.5500875e+2, 1.3559732e+2, -1643045.1, -1624523.5, -10091.184, 0.34935805, 0.026662286, -1620087.9, -8934.838, 0.000047349753, 9.999757, 10.000061 
4.5500648e+2, 1.4559771e+2, -1471870.9, -1464432.6, -57495.78, -0.28043202, 0.052173473, -1410535.9, 102613.414, 0.000015080613, 10.000142, 10.000271 
4.5501053e+2, 1.5559793e+2, -1529858.3, -1457475.8, -38536.75, -0.09547566, 0.008332088, -1440800.3, -25655.914, 0.0000021144335, 9.9991455, 10.000128 
4.5501488e+2, 1.6559763e+2, -1541108.6, -1578830.3, -10650.79, 0.06802915, 0.050568234, -1538309.1, -221160.75, 0.00000004449902, 9.999093, 9.998662 
4.550181e+2, 1.7559685e+2, -1315261.8, -1407490.8, -23612.559, 0.038351428, 0.07126526, -1309568.0, -90407.84, 0.0, 9.999922, 9.998765 
4.5502105e+2, 1.8559703e+2, -1105481.5, -1111094.5, -30637.254, -0.0034955728, 0.14942458, -1077522.5, 43636.16, 0.0, 10.000101, 10.000021 
4.550246e+2, 1.9559756e+2, -1051006.0, -1045347.5, 19788.025, 0.014027523, 0.16975304, -1028187.44, -5036.852, 0.0, 9.999843, 9.999928 
4.5502752e+2, 2.0559704e+2, -984573.94, -1048639.3, -21869.197, 0.05618834, 0.17273203, -977820.6, -52666.9, 0.0, 10.000002, 9.999156 
4.5502982e+2, 2.1559554e+2, -824345.56, -919923.8, 5335.8257, 0.09306959, 0.07386336, -824048.56, 3118.73, 0.0, 10.000419, 9.999167 
4.5503187e+2, 2.2559443e+2, -743867.25, -853440.3, 39323.688, 0.039048314, 0.06117046, -731215.56, -2036.92, 0.0, 10.000394, 9.998969 
4.5503366e+2, 2.3559336e+2, -716007.44, -791972.5, 43797.72, -0.094458595, 0.02369126, -696016.6, -64825.67, 0.0, 9.999917, 9.998947 
4.550365e+2, 2.4559277e+2, -624842.1, -740011.2, -10896.327, -0.06794338, 0.09524567, -623820.3, -90621.19, 0.0, 10.000069, 9.998556 
4.5504025e+2, 2.5559226e+2, -434287.5, -594349.3, -4968.6577, 0.0876065, 0.155371, -434133.44, 1073.4717, 0.0, 10.000683, 9.998589 
4.5504227e+2, 2.65591e+2, -317141.44, -496731.97, -37889.43, 0.099911496, 0.17905566, -309474.94, 27746.664, 0.0, 10.000868, 9.998488 
4.5504266e+2, 2.7558902e+2, -251256.53, -419765.72, -21482.406, -0.02989927, 0.09915782, -248560.97, -9318.102, 0.0, 10.000661, 9.9984455 
4.5504433e+2, 2.8558847e+2, -126341.75, -302276.5, -31084.902, -0.07304458, 0.20077576, -121011.055, 20238.227, 0.000000022691747, 10.000819, 9.998507 
4.550477e+2, 2.955884e+2, -5241.4053, -183605.56, -45156.945, 0.026500054, 0.30520186, 5539.473, 48789.207, 0.0000033720132, 10.000925, 9.998601 
4.550509e+2, 3.0558664e+2, 61376.195, -118027.766, -61052.19, 0.13272697, 0.267238, 80181.43, 80181.43, 0.000028360193, 10.001052, 9.998644 
4.550505e+2, 3.1558526e+2, 150214.58, -12887.715, -106497.195, -0.1012356, 0.22852246, 202798.6, 202798.6, 0.00009465621, 10.001312, 9.999247 
4.6499956e+2, 1.2559241e+2, -1939323.3, -1806216.6, 35008.457, -0.029990103, -0.037816133, -1797570.6, -88374.2, 0.00009773488, 9.998301, 10.0001545 
4.6500826e+2, 1.3559401e+2, -1773902.8, -1673424.1, 96586.58, 0.38840613, 0.052116897, -1614792.1, -3606.8987, 0.000043477085, 9.998757, 10.0002165 
4.6500617e+2, 1.4559448e+2, -1575891.1, -1524753.6, 27220.256, -0.28060204, 0.08275512, -1512976.8, 204.35873, 0.000012657647, 9.999467, 10.000188 
4.650102e+2, 1.5559411e+2, -1391404.4, -1396172.9, -74441.23, -0.08094797, -0.010221795, -1319309.3, 95872.54, 0.0000014631825, 10.000117, 10.000087 
4.650146e+2, 1.6559386e+2, -1381194.4, -1457921.8, 9146.39, 0.09285029, 0.01725048, -1380119.1, -62934.332, 0.000000030371112, 10.000023, 9.999033 
4.6501812e+2, 1.7559351e+2, -1369338.4, -1392838.0, 55797.535, 0.08383451, 0.043397617, -1324066.9, -104875.82, 0.0, 9.999389, 9.999117 
4.650211e+2, 1.8559399e+2, -1223771.1, -1158413.4, 68156.31, 0.043232974, 0.13045624, -1115506.6, 5679.7104, 0.0, 9.999226, 10.00013 
4.6502432e+2, 1.9559483e+2, -1108454.6, -1061364.6, 21498.51, 0.03559351, 0.16986421, -1053026.3, -29850.416, 0.0, 9.999375, 10.000056 
4.650276e+2, 2.0559442e+2, -1012759.7, -1057745.1, -12700.978, 0.08145168, 0.17188026, -1009421.5, -84242.95, 0.0, 9.999774, 9.9992075 
4.6503067e+2, 2.1559276e+2, -829378.75, -923481.2, -34152.332, 0.14894564, 0.055056795, -818290.5, 8903.777, 0.0, 10.000375, 9.999171 
4.650328e+2, 2.2559167e+2, -707564.0, -839814.94, -3901.1958, 0.08736509, 0.046191335, -707449.0, 21756.59, 0.0, 10.000673, 9.998915 
4.650341e+2, 2.3559079e+2, -597865.94, -740808.25, -19544.934, -0.07710746, 0.03364031, -595241.7, 35974.06, 0.0, 10.000766, 9.998883 
4.6503693e+2, 2.4558993e+2, -523888.94, -687239.75, -20133.063, -0.054900758, 0.07882079, -521444.13, 11781.998, 0.0, 10.000729, 9.998599 
4.6504113e+2, 2.5558883e+2, -447649.28, -598160.56, -23198.402, 0.122228995, 0.07314893, -444154.84, -8915.555, 0.0, 10.000568, 9.998615 
4.650437e+2, 2.655878e+2, -303943.6, -497568.72, -24886.85, 0.15862516, 0.12350907, -300796.0, 36456.188, 0.0, 10.000974, 9.998443 
4.650447e+2, 2.7558675e+2, -98253.24, -354369.56, -36449.402, 0.06360111, 0.14037181, -93166.93, 146099.23, 0.0, 10.0017395, 9.998385 
4.6504578e+2, 2.8558606e+2, -43124.195, -308614.06, -21879.598, -0.041414056, 0.25451645, -41333.133, 99941.76, 0.00000001636591, 10.0015955, 9.998086 
4.650476e+2, 2.955851e+2, -39923.87, -226642.1, -49884.51, -0.06020885, 0.30537587, -27432.2, 15852.743, 0.0000038591365, 10.000811, 9.998351 
4.6505195e+2, 3.0558327e+2, 21281.652, -100420.36, -27694.633, 0.1688949, 0.2556415, 27287.49, 27287.49, 0.000029778155, 10.000577, 9.999027 
4.650531e+2, 3.1558228e+2, 58497.71, -51798.418, -138151.05, 0.077954076, 0.22702469, 152101.19, 152101.19, 0.00009717631, 10.000638, 9.999328 
4.749967e+2, 1.2558843e+2, -1857709.3, -1598836.8, -115503.28, -0.22554824, -0.033124395, -1554794.6, 154444.27, 0.00009217974, 9.998175, 10.001622 
4.7500667e+2, 1.3559192e+2, -1684780.6, -1479989.1, 135441.16, 0.31704605, 0.10135553, -1412593.1, 198610.13, 0.00003847725, 9.998747, 10.001534 
4.7500625e+2, 1.455926e+2, -1662248.3, -1700590.6, 38035.67, -0.2645255, 0.15574151, -1638825.5, -125627.95, 0.000009911169, 9.999437, 9.999002 
4.7501102e+2, 1.5559116e+2, -1456445.6, -1538200.0, -39346.434, -0.047656294, 0.06856542, -1440585.9, -25371.592, 0.0000009593812, 10.000134, 9.999109 
4.750147e+2, 1.655907e+2, -1282501.3, -1238196.5, -28240.188, 0.064778365, 0.040430374, -1224456.9, 92759.83, 0.000000014696447, 9.99996, 10.000575 
4.7501647e+2, 1.755907e+2, -1280626.3, -1195052.8, 48984.586, -0.05000895, -0.046962272, -1172799.6, 46411.508, 0.0, 9.999332, 10.000505 
4.7501928e+2, 1.8559045e+2, -1292751.0, -1280858.9, 61893.85, -0.090895414, -0.05619117, -1224626.1, -103415.23, 0.0, 9.999132, 9.999337 
4.7502354e+2, 1.9558977e+2, -1174367.9, -1179977.4, 43241.152, -0.013527302, -0.08788228, -1133840.6, -110623.22, 0.0, 9.9992895, 9.999289 
4.750272e+2, 2.0558901e+2, -1047379.8, -1095090.4, -2372.2593, 0.036615144, -0.07368232, -1047262.2, -122035.86, 0.0, 9.999634, 9.999013 
4.7503027e+2, 2.1558791e+2, -868465.56, -960003.44, 1429.1035, 0.04257171, -0.1154266, -868443.25, -41203.504, 0.0, 10.000191, 9.999003 
4.7503284e+2, 2.2558795e+2, -726218.1, -850428.44, -12677.267, -0.00091685716, -0.0040963185, -724937.44, 4305.0605, 0.0, 10.000538, 9.998917 
4.7503516e+2, 2.3558868e+2, -618084.8, -749301.0, -2009.7976, -0.07611196, 0.14628343, -618054.0, 13184.622, 0.0, 10.000614, 9.998902 
4.7503784e+2, 2.4558747e+2, -522277.34, -659423.8, -36959.344, -0.067294925, 0.14053461, -512951.4, 20300.402, 0.0, 10.000619, 9.998844 
4.750409e+2, 2.555844e+2, -450500.44, -580991.8, -11815.588, 0.0099327015, -0.08583527, -449439.22, -14158.16, 0.0, 10.000457, 9.998791 
4.7504416e+2, 2.655839e+2, -319553.53, -506797.66, -8259.073, 0.08022825, 0.010061908, -319189.94, 18098.47, 0.0, 10.000883, 9.998418 
4.750473e+2, 2.7558511e+2, -113906.21, -360828.66, 5127.55, 0.11653852, 0.25802505, -113799.77, 125481.7, 0.0, 10.001638, 9.998385 
4.7504792e+2, 2.8558353e+2, -55955.277, -333349.22, -65772.54, -0.021410739, 0.28996697, -41150.207, 100147.91, 0.0000000367379, 10.001576, 9.99793 
4.7504714e+2, 2.9557952e+2, -60719.207, -257349.78, -62061.484, -0.22761954, 0.05188369, -42769.61, 565.41895, 0.000004901276, 10.000735, 9.998186 
4.7505182e+2, 3.0557793e+2, 6997.9272, -111122.516, -39761.5, 0.07413886, 0.029566502, 19135.223, 19135.223, 0.000032907166, 10.00051, 9.998978 
4.7505385e+2, 3.1557846e+2, 866.4946, -156582.0, -63710.676, 0.015330684, 0.1678444, 23416.908, 23416.908, 0.00010232853, 10.000586, 9.998623 
4.8499563e+2, 1.2558602e+2, -1932815.4, -1631555.0, -89215.6, -0.09963188, 0.038617253, -1607117.0, 102146.234, 0.00008688649, 9.99764, 10.001674 
4.8500475e+2, 1.3558878e+2, -1659944.5, -1474168.5, 99747.25, 0.25406092, 0.11017435, -1430756.4, 180477.06, 0.000032757685, 9.998933, 10.001505 
4.8500618e+2, 1.4558932e+2, -1692858.8, -1685420.6, 17468.967, -0.18774855, 0.14046358, -1671279.3, -158051.03, 0.000007215262, 9.999106, 9.99926 
4.8501158e+2, 1.5558806e+2, -1676785.3, -1618593.1, 8380.852, 0.084183685, 0.04592751, -1617410.1, -202167.28, 0.00000059770906, 9.998512, 9.999338 
4.8501474e+2, 1.6558796e+2, -1480326.1, -1304823.9, 39212.1, 0.15786508, 0.028867312, -1296461.3, 20780.201, 0.0000000048834687, 9.998485, 10.000825 
4.8501557e+2, 1.755885e+2, -1324102.9, -1187613.1, -1009.595, -0.044894725, -0.032824866, -1187605.8, 31624.521, 0.0, 9.998927, 10.000739 
4.8501837e+2, 1.8558794e+2, -1277265.9, -1299526.0, 32431.104, -0.10029742, -0.071808025, -1254108.1, -132875.03, 0.0, 9.999367, 9.9990835 
4.850232e+2, 1.9558631e+2, -1120593.4, -1173147.5, 30124.646, 0.010118213, -0.17853235, -1106895.8, -83646.68, 0.0, 9.999764, 9.999089 
4.8502684e+2, 2.0558563e+2, -1020734.75, -1078005.0, 33950.01, 0.037663348, -0.14831074, -1004956.25, -79698.47, 0.0, 9.999787, 9.999074 
4.8502952e+2, 2.1558546e+2, -981044.75, -1002781.56, 38073.145, -0.0007559498, -0.10498424, -952319.1, -125055.73, 0.0, 9.999367, 9.999116 
4.850327e+2, 2.2558585e+2, -844586.0, -877044.0, 78725.69, -0.01401027, 0.0229345, -780433.94, -51171.395, 0.0, 9.999596, 9.999187 
4.8503625e+2, 2.3558643e+2, -640849.8, -737477.56, 80912.7, -0.004265638, 0.13476042, -594924.1, 36335.098, 0.0, 10.000344, 9.999119 
4.85039e+2, 2.4558526e+2, -503729.75, -665611.6, 53057.98, -0.016423661, 0.13114505, -487889.56, 45382.51, 0.0, 10.000814, 9.998707 
4.8504108e+2, 2.555825e+2, -377119.2, -555807.3, 19365.373, -0.04017906, -0.048396498, -375044.53, 60254.598, 0.0, 10.001021, 9.998687 
4.8504457e+2, 2.65582e+2, -296966.13, -482986.63, 53473.71, 0.03328006, 0.043556724, -282690.13, 54616.055, 0.0, 10.000975, 9.998539 
4.8504898e+2, 2.755828e+2, -238152.03, -408934.78, 48359.72, 0.1742175, 0.23754373, -225409.06, 13892.6455, 0.0, 10.00072, 9.998504 
4.8505e+2, 2.8558075e+2, -137319.58, -364557.7, 10567.6875, 0.06729061, 0.21460676, -136829.19, 4492.736, 0.00000008825205, 10.000975, 9.998007 
4.850488e+2, 2.955766e+2, 68346.8, -192212.36, -4776.5635, -0.16808271, -0.04588882, 68434.33, 111794.58, 0.0000056092463, 10.001605, 9.998213 
4.8505336e+2, 3.0557582e+2, 154521.08, -62516.793, 48608.56, 0.13739978, 0.02210819, 164910.31, 164910.31, 0.000035389916, 10.001622, 9.998764 
4.8505527e+2, 3.155757e+2, 74379.6, -134570.55, 4491.38, 0.08631908, 0.11567762, 74476.1, 74476.1, 0.00010599746, 10.001145, 9.998499 
4.949951e+2, 1.2558512e+2, -2023083.8, -1831546.4, -182335.0, 0.0010992237, 0.18478623, -1721359.5, -12089.537, 0.00007926606, 9.997692, 10.000276 
4.950019e+2, 1.3558452e+2, -1751473.4, -1668751.5, 155189.31, 0.047442712, 0.06827152, -1549505.9, 61770.21, 0.000026309035, 9.998948, 10.000159 
4.9500558e+2, 1.4558463e+2, -1592015.9, -1458790.6, -20274.46, -0.19954553, 0.034051634, -1455773.6, 57499.594, 0.0000047383246, 9.999033, 10.000851 
4.9501136e+2, 1.5558492e+2, -1579913.5, -1411135.8, 2402.423, 0.17740567, -0.06433126, -1411101.6, 4165.323, 0.0000002991547, 9.9984865, 10.000774 
4.9501434e+2, 1.6558576e+2, -1553665.6, -1446969.6, 40938.43, 0.23675258, -0.0040958994, -1433072.1, -115813.945, 0.0000000005507737, 9.998436, 9.999874 
4.9501505e+2, 1.7558683e+2, -1391878.9, -1318555.4, 26621.451, -0.022233877, 0.08373803, -1309909.5, -90660.27, 0.0, 9.998881, 9.999864 
4.9501798e+2, 1.8558636e+2, -1270314.6, -1260733.1, 35043.75, -0.10464195, 0.078421935, -1230154.1, -108900.55, 0.0, 9.999267, 9.999395 
4.9502292e+2, 1.9558437e+2, -1113094.6, -1135072.9, 54015.625, -0.025772328, -0.09622316, -1068961.6, -45690.152, 0.0, 9.999664, 9.9994 
4.9502614e+2, 2.0558424e+2, -1010019.4, -1024674.3, 2748.3481, -0.03156212, -0.048973188, -1009520.94, -84247.54, 0.0, 9.999645, 9.999512 
4.9502808e+2, 2.1558538e+2, -970753.94, -954421.8, 38838.305, -0.10944269, 0.08442319, -922900.4, -95635.555, 0.0, 9.999235, 9.999518 
4.9503183e+2, 2.2558528e+2, -837358.1, -822201.56, 96574.97, -0.08765862, 0.11959658, -732908.0, -3641.408, 0.0, 9.999435, 9.999635 
4.9503705e+2, 2.3558398e+2, -637028.0, -688261.3, 124438.11, 0.008737903, -0.0077419924, -535597.2, 95681.266, 0.0, 10.000173, 9.9995365 
4.9503997e+2, 2.4558336e+2, -558525.06, -750317.75, 48185.633, -0.028966917, 0.053973023, -547099.6, -13812.884, 0.0, 10.000694, 9.998182 
4.9504113e+2, 2.5558302e+2, -425330.8, -633497.9, 41307.12, -0.16954504, 0.1676492, -417433.72, 17861.568, 0.0, 10.000922, 9.998202 
4.9504444e+2, 2.6558185e+2, -291561.88, -449342.7, 29004.627, -0.106810495, 0.20460702, -286398.94, 50909.137, 0.0, 10.000888, 9.998807 
4.9504927e+2, 2.7557978e+2, -241004.05, -380299.3, 55759.51, 0.099460386, 0.08122906, -221433.31, 17893.71, 0.0, 10.000582, 9.99876 
4.950515e+2, 2.8557798e+2, -122851.11, -320387.53, 23384.822, 0.08986538, 0.05285341, -120120.51, 21223.514, 0.00000018947561, 10.0009165, 9.998336 
4.9505216e+2, 2.955763e+2, 78321.96, -160284.25, 33838.65, -0.035908207, 0.013711388, 83028.07, 126388.46, 0.000005650319, 10.001561, 9.998451 
4.9505633e+2, 3.0557683e+2, 131979.53, -112910.16, 22088.096, 0.2389858, 0.2250706, 133955.84, 133955.84, 0.00003451672, 10.001629, 9.998417 
4.9505633e+2, 3.15574e+2, 94019.18, -78571.37, 64005.734, 0.002806613, 0.067925006, 115165.09, 115165.09, 0.00010176044, 10.001077, 9.998915 
5.0499433e+2, 1.2558137e+2, -1854751.8, -1758502.8, -210066.38, 0.111940116, 0.113910586, -1591118.9, 118183.61, 0.000066640154, 9.998915, 10.000166 
5.0499976e+2, 1.3558024e+2, -1745284.4, -1693244.8, 199315.84, -0.053356323, -0.028657159, -1518257.5, 93056.555, 0.0000195532, 9.999111, 9.99991 
5.0500566e+2, 1.4558063e+2, -1595629.3, -1400107.0, 15025.127, -0.068267465, -0.04953099, -1398959.1, 114349.37, 0.0000028130235, 9.998763, 10.001377 
5.0500995e+2, 1.5558197e+2, -1561970.9, -1342561.9, -73469.93, 0.20132947, -0.095277764, -1320232.6, 95059.33, 0.00000011765629, 9.998373, 10.001289 
5.0501275e+2, 1.6558312e+2, -1527311.4, -1460636.9, 30687.291, 0.22645743, -0.017982466, -1448663.1, -131381.75, 0.000000000026416515, 9.998719, 9.999648 
5.050147e+2, 1.7558382e+2, -1304084.0, -1300002.6, 42187.727, 0.032363813, 0.058027793, -1259806.3, -40527.813, 0.0, 9.999571, 9.999665 
5.050182e+2, 1.855837e+2, -1201384.9, -1197746.6, 73728.9, -0.023631472, 0.080824815, -1125814.4, -4533.818, 0.0, 9.999606, 9.99967 
5.050229e+2, 1.955826e+2, -1197456.4, -1145524.3, 68364.53, 0.04358212, -0.026222829, -1098360.6, -75071.19, 0.0, 9.998958, 9.999671 
5.050258e+2, 2.0558266e+2, -1071246.0, -1026548.56, 38794.24, 0.0049366504, 0.013481313, -1004126.1, -78837.164, 0.0, 9.999129, 9.999726 
5.050275e+2, 2.1558337e+2, -869004.2, -880229.75, 24806.832, -0.1116453, 0.08051908, -849183.1, -21899.785, 0.0, 9.999852, 9.999711 
5.0503147e+2, 2.2558294e+2, -753624.7, -789010.44, 84360.01, -0.0840706, 0.07932399, -685122.2, 44165.055, 0.0, 10.000029, 9.999587 
5.0503737e+2, 2.3558147e+2, -716335.25, -725208.6, 47368.195, 0.06385538, -0.06021846, -673196.44, -41896.25, 0.0, 9.999639, 9.999535 
5.050408e+2, 2.4558102e+2, -661448.4, -788865.6, 22566.18, 0.032581836, 0.01093307, -657569.9, -124263.234, 0.0, 9.999934, 9.998286 
5.050423e+2, 2.5558105e+2, -431861.97, -624608.06, 36159.523, -0.12753363, 0.1516464, -425301.66, 10009.578, 0.0, 10.000824, 9.998313 
5.0504553e+2, 2.655797e+2, -256511.08, -433787.53, 35835.324, -0.085551456, 0.1651236, -249541.22, 87784.23, 0.0, 10.001123, 9.99881 
5.0504994e+2, 2.7557707e+2, -200778.0, -361758.1, 10429.648, 0.10607766, -0.01439098, -200105.1, 39244.473, 0.00000000061010413, 10.000853, 9.998762 
5.0505275e+2, 2.8557566e+2, -78677.82, -290925.13, 24785.756, 0.11467622, -0.0072898907, -75821.83, 65541.94, 0.00000027597625, 10.001192, 9.998406 
5.050545e+2, 2.9557514e+2, 142577.1, -129909.38, -21905.986, 0.025151964, 0.062856406, 144326.94, 187698.17, 0.0000049916057, 10.002011, 9.998448 
5.0505865e+2, 3.0557546e+2, 168058.98, -135725.67, -57844.293, 0.296508, 0.27631778, 178700.47, 178700.47, 0.000030276777, 10.002047, 9.998063 
5.0505805e+2, 3.1557164e+2, 146614.56, 2280.1323, -36307.348, 0.07609051, 0.045267627, 155233.05, 155233.05, 0.000090633286, 10.001197, 9.999415 
5.1499236e+2, 1.255749e+2, -1773018.0, -1600919.1, -235122.3, -0.057933822, -0.16439797, -1436594.8, 272764.97, 0.000052165007, 9.998948, 10.001237 
5.1499796e+2, 1.3557607e+2, -1679520.8, -1569332.8, 216587.03, -0.18068096, -0.17816165, -1400942.4, 210403.94, 0.000013925394, 9.999156, 10.000742 
5.150061e+2, 1.455774e+2, -1638230.5, -1484093.1, -19050.705, 0.055985466, -0.10885571, -1481773.5, 31559.86, 0.000001645238, 9.998741, 10.000815 
5.150069e+2, 1.5557916e+2, -1601296.9, -1417069.0, -69556.91, 0.027198695, -0.0564428, -1393757.0, 21561.28, 0.00000003629146, 9.998341, 10.000798 
5.150095e+2, 1.6557996e+2, -1506801.5, -1396270.8, 52468.41, -0.0003932035, -0.017543925, -1375331.1, -58018.977, 0.0, 9.99863, 10.000128 
5.150142e+2, 1.755796e+2, -1281099.6, -1238218.5, 85299.38, -0.017385846, -0.10237703, -1171706.4, 47610.613, 0.0, 9.999517, 10.00011 
5.150184e+2, 1.855801e+2, -1194196.4, -1163276.3, 36094.348, 0.010834687, -0.049587715, -1139470.4, -18158.086, 0.0, 9.999521, 9.999944 
5.150225e+2, 1.9558108e+2, -1188534.0, -1114418.8, 61835.22, 0.08028387, 0.020321056, -1079387.1, -56084.74, 0.0, 9.998894, 9.999915 
5.150254e+2, 2.0558077e+2, -1107248.8, -1063894.9, 52877.043, 0.022979543, 0.021249346, -1028424.06, -103118.695, 0.0, 9.998968, 9.999548 
5.150274e+2, 2.1557921e+2, -901754.0, -914328.06, 61900.117, -0.13343352, -0.1257418, -845822.5, -18502.025, 0.0, 9.999701, 9.999551 
5.1503146e+2, 2.2557871e+2, -806934.06, -870810.1, 53641.72, -0.11772793, -0.10292622, -776442.4, -47116.523, 0.0, 9.999897, 9.999094 
5.1503694e+2, 2.3557882e+2, -764868.25, -798269.2, 48840.78, 0.021268466, -0.03141864, -729951.6, -98626.17, 0.0, 9.999513, 9.999099 
5.15041e+2, 2.4557815e+2, -617980.2, -679023.06, 43151.625, 0.030999077, -0.0018637461, -595646.94, -62314.715, 0.0, 9.999851, 9.999079 
5.1504415e+2, 2.5557664e+2, -398182.72, -526168.8, 82885.25, -0.0615545, -0.09871609, -357461.53, 77885.47, 0.0, 10.000695, 9.999052 
5.1504743e+2, 2.6557562e+2, -289546.4, -481670.6, 11985.677, -0.037779737, -0.072944105, -288801.56, 48556.473, 0.0, 10.0010395, 9.998525 
5.150507e+2, 2.755746e+2, -230824.55, -408715.6, 22208.107, 0.066356055, -0.057169728, -228093.98, 11276.158, 0.0000000018853024, 10.000778, 9.998483 
5.150532e+2, 2.8557372e+2, -100471.98, -327530.13, 42198.75, 0.01089367, 0.032366816, -92882.984, 48498.83, 0.00000034894228, 10.001161, 9.998166 
5.150552e+2, 2.9557294e+2, 109322.02, -180245.22, 25689.428, -0.14902915, 0.09520239, 111583.445, 154977.48, 0.000004315403, 10.001927, 9.998142 
5.150597e+2, 3.0557162e+2, 138875.06, -182505.45, -96380.414, 0.16632055, 0.17271113, 165562.88, 165562.88, 0.000026122347, 10.002005, 9.997761 
5.150597e+2, 3.1556797e+2, 170630.31, 78579.164, 13466.369, 0.04995924, -0.005815634, 172559.89, 172559.89, 0.000081293096, 10.001101, 9.999984 
5.2499217e+2, 1.2557167e+2, -1619776.3, -1516561.9, -109972.37, -0.007793839, -0.21318674, -1446689.8, 262698.6, 0.000041919076, 9.99995, 10.001328 
5.24996e+2, 1.3557306e+2, -1907608.5, -1675339.4, 151629.06, -0.20915589, -0.20725758, -1600480.1, 10891.701, 0.000010470756, 9.997581, 10.000767 
5.2500594e+2, 1.455743e+2, -1866221.0, -1615335.4, 9322.632, 0.24183829, -0.13925609, -1614989.5, -101628.484, 0.0000009776196, 9.99727, 10.000622 
5.250052e+2, 1.555763e+2, -1488395.6, -1379160.5, -44674.49, -0.0033582915, -0.046886124, -1363216.8, 52128.88, 0.000000005050013, 9.999184, 10.000648 
5.250075e+2, 1.655771e+2, -1368184.1, -1309876.0, 77455.28, -0.09752616, -0.009318747, -1256269.8, 61070.004, 0.0, 9.999491, 10.000316 
5.250129e+2, 1.7557655e+2, -1417954.9, -1283382.4, 59397.66, -0.032195892, -0.12817228, -1260916.0, -41571.1, 0.0, 9.998475, 10.000312 
5.2501774e+2, 1.8557721e+2, -1333228.0, -1195911.0, 28310.906, 0.054265954, -0.08593426, -1190303.1, -68964.76, 0.0, 9.99842, 10.000259 
5.250221e+2, 1.9557862e+2, -1153838.6, -1061972.9, 26682.518, 0.15087631, -0.000623099, -1054785.3, -31460.9, 0.0, 9.999002, 10.000223 
5.250252e+2, 2.0557834e+2, -1076444.1, -1067799.3, 60952.35, 0.09793057, -0.0009440179, -1011016.3, -85689.19, 0.0, 9.999244, 9.999394 
5.250274e+2, 2.1557644e+2, -994814.44, -982014.25, 47323.656, -0.06991213, -0.16311291, -940659.9, -113314.016, 0.0, 9.999143, 9.999364 
5.250316e+2, 2.2557591e+2, -839676.75, -902580.9, 79957.52, -0.076631404, -0.12609258, -785207.75, -55855.67, 0.0, 9.999764, 9.998922 
5.250373e+2, 2.3557615e+2, -560350.56, -719594.8, 68036.84, 0.042538196, -0.024004182, -535241.2, 96109.86, 0.0, 10.001008, 9.998914 
5.250417e+2, 2.4557534e+2, -438614.75, -578583.6, 50217.54, 0.058012817, -0.008385981, -422461.97, 110897.1, 0.0, 10.001022, 9.999209 
5.2504504e+2, 2.555735e+2, -488719.72, -554834.94, 14167.692, -0.00233428, -0.1468456, -485811.66, -50435.906, 0.0, 10.000017, 9.999182 
5.250485e+2, 2.6557267e+2, -412744.06, -532771.2, -17027.512, 0.021404114, -0.112736665, -410375.25, -72990.336, 0.0, 10.000162, 9.998586 
5.250522e+2, 2.755723e+2, -162435.27, -360248.66, -11130.349, 0.12249141, -0.04146919, -161810.97, 77580.164, 0.00000000009174081, 10.001212, 9.998585 
5.250548e+2, 2.8557166e+2, -54399.51, -315380.03, 53557.598, 0.048219875, 0.06650799, -43836.15, 97565.29, 0.00000033351301, 10.001517, 9.998076 
5.250566e+2, 2.9557064e+2, -5211.2827, -241854.14, 15514.759, -0.15394266, 0.11377341, -4198.4404, 39218.23, 0.0000041082662, 10.001166, 9.99808 
5.2506113e+2, 3.055684e+2, 69233.82, -200543.11, -61293.945, 0.15088706, 0.09687481, 82506.91, 82506.91, 0.000024723933, 10.001452, 9.997911 
5.2506196e+2, 3.1556568e+2, 271363.53, 131410.5, 42784.094, 0.14723809, 0.002067491, 283406.47, 283406.47, 0.00007789345, 10.001774, 10.000028 
5.3499305e+2, 1.2557161e+2, -1667836.0, -1627594.0, -135299.19, 0.00032059365, -0.04088772, -1510927.9, 198461.1, 0.000035694404, 10.000009, 10.000535 
5.3499323e+2, 1.3557133e+2, -1972736.9, -1801253.6, 71602.484, -0.2683381, -0.11007023, -1775287.9, -163897.63, 0.000008273398, 9.997545, 9.999924 
5.3500444e+2, 1.455714e+2, -1861691.0, -1593802.5, 64799.742, 0.33135363, -0.12918125, -1578951.4, -65560.664, 0.00000061502607, 9.997213, 10.0007925 
5.3500456e+2, 1.5557343e+2, -1482478.8, -1363037.4, 35594.684, -0.02593457, -0.0558734, -1353234.4, 62139.27, 0.00000000036285042, 9.999162, 10.000767 
5.350064e+2, 1.6557454e+2, -1384868.1, -1331474.4, 22476.205, -0.18939607, 0.013205601, -1323272.9, -5908.6074, 0.0, 9.999436, 10.000194 
5.3501076e+2, 1.7557465e+2, -1431072.0, -1302413.9, 38217.62, -0.13274087, -0.02596544, -1291917.8, -72554.35, 0.0, 9.998438, 10.000202 
5.350157e+2, 1.8557493e+2, -1323564.4, -1157354.8, 37940.895, -0.019659238, -0.029784622, -1149103.6, -27744.06, 0.0, 9.998342, 10.00056 
5.350211e+2, 1.955751e+2, -1149734.6, -1035521.25, 61404.477, 0.12804215, -0.09946893, -1008772.8, 14583.256, 0.0, 9.998916, 10.00045 
5.350247e+2, 2.0557532e+2, -1106091.0, -1088440.9, 44388.47, 0.10163657, -0.058443036, -1052008.6, -126654.0, 0.0, 9.999079, 9.999327 
5.35027e+2, 2.1557534e+2, -1022626.1, -1002092.3, 58453.57, -0.04954706, -0.024574872, -953010.9, -125653.61, 0.0, 9.998983, 9.999299 
5.350316e+2, 2.2557475e+2, -859556.8, -911790.25, 114027.375, -0.075055405, 0.010948754, -768693.5, -39329.17, 0.0, 9.999621, 9.998932 
5.350381e+2, 2.355735e+2, -583811.6, -728090.1, 124490.664, -0.005439466, -0.04199384, -512069.0, 119307.92, 0.0, 10.000835, 9.998937 
5.350423e+2, 2.4557248e+2, -495145.16, -667771.06, -351.36407, -0.005209246, -0.017358895, -495144.44, 38243.49, 0.0, 10.000908, 9.99865 
5.350446e+2, 2.5557142e+2, -539162.25, -636585.7, -3706.0066, -0.07722023, -0.021776685, -539021.5, -103621.57, 0.0, 9.999921, 9.998666 
5.3504854e+2, 2.6557076e+2, -388619.5, -469846.97, 8513.841, -0.025752544, 0.031910084, -387736.72, -50329.61, 0.0, 10.000106, 9.999046 
5.350538e+2, 2.755701e+2, -145115.33, -305518.34, 41382.71, 0.1237495, 0.02592389, -135068.23, 104345.47, 0.0, 10.001121, 9.999013 
5.3505707e+2, 2.8556922e+2, -51811.434, -299467.63, 28456.898, 0.08616512, 0.083448224, -48583.664, 92841.02, 0.00000019037492, 10.001477, 9.998202 
5.3505844e+2, 2.9556805e+2, -7955.938, -228934.7, 26295.604, -0.1296187, 0.10590591, -4869.9604, 38570.684, 0.0000040138116, 10.001083, 9.998212 
5.3506255e+2, 3.0556569e+2, 100779.914, -134701.1, -54361.15, 0.11672546, 0.046298333, 112723.49, 112723.49, 0.000024880646, 10.001446, 9.998364 
5.350637e+2, 3.1556463e+2, 240710.84, 55066.81, 125116.34, 0.06588851, 0.0761987, 303677.22, 303677.22, 0.00007745561, 10.00181, 9.999491 
5.449931e+2, 1.2556897e+2, -1813370.4, -1745596.8, -110053.75, 0.05964755, -0.0090273, -1664330.9, 45084.438, 0.00003031358, 9.999203, 10.0001545 
5.4499143e+2, 1.3556859e+2, -1728918.6, -1701586.6, -42618.406, -0.27120012, -0.061013766, -1670496.8, -59078.938, 0.000006366235, 9.999305, 9.999766 
5.450031e+2, 1.4556819e+2, -1666354.6, -1512951.0, 74687.23, 0.4154398, -0.111297876, -1482595.1, 30827.477, 0.00000037085837, 9.998607, 10.000688 
5.450037e+2, 1.5556976e+2, -1645552.5, -1447513.0, -5555.2437, 0.039232336, -0.07232884, -1447357.3, -31948.031, 0.00000000007720086, 9.998065, 10.000723 
5.4500556e+2, 1.6557088e+2, -1539914.3, -1368113.9, -6803.816, -0.14443827, -0.016415616, -1367844.9, -50446.41, 0.0, 9.998239, 10.000504 
5.450097e+2, 1.7557143e+2, -1352648.8, -1229118.3, 9621.951, -0.09718646, -0.0415811, -1228373.4, -8981.75, 0.0, 9.998857, 10.000491 
5.4501444e+2, 1.8557166e+2, -1228031.0, -1124658.5, 47771.977, -0.006225321, -0.061372004, -1105962.8, 15425.27, 0.0, 9.99903, 10.0004635 
5.450197e+2, 1.9557142e+2, -1160595.6, -1046338.25, 18035.32, 0.10883118, -0.16530012, -1043559.0, -20170.002, 0.0, 9.998849, 10.000411 
5.45024e+2, 2.0557189e+2, -1053394.6, -1052049.9, 35734.414, 0.11295763, -0.10248914, -1016981.5, -91595.74, 0.0, 9.999393, 9.999433 
5.450276e+2, 2.1557261e+2, -813032.1, -884879.8, 37392.023, 0.048805203, -0.004193559, -797103.44, 30278.432, 0.0, 10.00037, 9.999433 
5.450323e+2, 2.2557211e+2, -742953.9, -862524.5, 113131.98, -0.0021547053, 0.035427712, -674781.6, 54606.89, 0.0, 10.000438, 9.998881 
5.450379e+2, 2.3557036e+2, -744754.5, -818107.1, 87479.46, -0.04593126, -0.060919423, -686574.06, -55167.656, 0.0, 9.999772, 9.998841 
5.4504234e+2, 2.4556929e+2, -623568.8, -743700.3, -2589.5881, -0.044765588, -0.030388054, -623513.0, -90094.414, 0.0, 10.000085, 9.998525 
5.4504573e+2, 2.5556853e+2, -361669.28, -566153.5, -5131.859, -0.013953557, 0.008262604, -361540.56, 73888.06, 0.0, 10.001202, 9.998535 
5.450496e+2, 2.6556787e+2, -218724.02, -388325.44, 35027.03, 0.023962859, 0.068642505, -211774.78, 125660.79, 0.0, 10.001284, 9.999035 
5.4505414e+2, 2.7556694e+2, -221557.0, -342008.63, 3700.4954, 0.08275577, 0.035712264, -221443.42, 17999.986, 0.0, 10.000597, 9.999015 
5.450579e+2, 2.8556567e+2, -181179.4, -361370.97, -4895.77, 0.0781878, 0.056316357, -181046.48, -39589.15, 0.00000011177434, 10.000597, 9.998204 
5.450609e+2, 2.9556417e+2, 1151.6523, -216170.22, -41895.59, 0.01482482, 0.046063595, 8948.6045, 52424.813, 0.0000045059896, 10.001142, 9.998261 
5.4506487e+2, 3.055625e+2, 201041.19, -70984.664, -84829.04, 0.18676032, 0.04586985, 225326.38, 225326.38, 0.000026381855, 10.002064, 9.998498 
5.4506534e+2, 3.155622e+2, 339241.22, 63143.87, 42951.742, 0.025582071, 0.13081175, 345768.78, 345768.78, 0.00007890932, 10.002673, 9.999113 
5.549918e+2, 1.2556398e+2, -1798451.8, -1709735.5, -8114.1597, -0.06308024, -0.07969553, -1708999.5, 465.9388, 0.000026661766, 9.999187, 10.0004015 
5.549903e+2, 1.3556488e+2, -1698920.5, -1641285.0, -41410.44, -0.348218, -0.050388996, -1619652.0, -8197.622, 0.0000052899522, 9.999304, 10.000188 
5.550015e+2, 1.455646e+2, -1694820.0, -1556177.1, 33114.492, 0.36089927, -0.093289115, -1548673.9, -35216.566, 0.00000021782215, 9.998553, 10.00041 
5.550024e+2, 1.5556532e+2, -1668646.4, -1488027.5, -4880.709, 0.06625796, -0.105793424, -1487895.8, -72443.266, 0.00000000000011946363, 9.9980345, 10.000463 
5.5500466e+2, 1.6556622e+2, -1495837.9, -1271187.8, 3354.4712, -0.09670079, -0.096257985, -1271137.8, 46304.08, 0.0, 9.998212, 10.001183 
5.5500925e+2, 1.7556687e+2, -1318283.4, -1147039.5, 43386.406, -0.052012555, -0.18001826, -1136674.5, 82755.82, 0.0, 9.998805, 10.001082 
5.550136e+2, 1.8556735e+2, -1269244.3, -1186636.8, 27436.225, -0.019961337, -0.18085892, -1178354.8, -56930.902, 0.0, 9.998929, 10.000088 
5.5501753e+2, 1.9556753e+2, -1199103.9, -1107511.3, 28023.428, -0.02902697, -0.2020884, -1099617.6, -76194.21, 0.0, 9.998759, 10.000042 
5.5502254e+2, 2.0556797e+2, -1051900.3, -1013180.7, 60084.89, 0.0054004863, -0.14086303, -969413.6, -43992.76, 0.0, 9.999248, 9.999764 
5.550287e+2, 2.1556835e+2, -817376.75, -855324.56, 84866.24, 0.091656335, -0.11266226, -749389.25, 78030.29, 0.0, 10.000202, 9.999717 
5.550332e+2, 2.2556794e+2, -781129.56, -901900.44, 74488.99, 0.016171765, -0.06645169, -745624.4, -16198.769, 0.0, 10.000269, 9.998693 
5.5503637e+2, 2.3556672e+2, -782080.3, -851545.06, 80100.26, -0.20300709, -0.08830999, -729506.4, -98066.91, 0.0, 9.999587, 9.998698 
5.550414e+2, 2.4556582e+2, -621980.25, -715624.1, 27901.709, -0.17534757, -0.047760367, -614297.1, -80846.69, 0.0, 9.999969, 9.998782 
5.550478e+2, 2.5556487e+2, -362477.88, -539734.25, 48923.816, 0.044761464, -0.054089095, -349871.2, 85590.53, 0.0, 10.001076, 9.998782 
5.5505145e+2, 2.6556396e+2, -262122.28, -461909.6, -4443.9717, 0.0470204, -0.0068185227, -262023.48, 75447.11, 0.0, 10.001216, 9.99856 
5.5505294e+2, 2.755627e+2, -268908.78, -422299.72, -4981.8105, -0.12848988, -0.020294812, -268747.16, -29265.74, 0.0, 10.000518, 9.998504 
5.5505717e+2, 2.8556094e+2, -193957.6, -381632.25, 695.9178, -0.083103746, -0.01694085, -193955.02, -52454.64, 0.00000024371042, 10.000566, 9.998084 
5.5506337e+2, 2.9555884e+2, -11837.711, -237930.14, -1747.2402, 0.11051522, -0.0769985, -11824.209, 31701.275, 0.0000058589785, 10.001104, 9.998138 
5.550675e+2, 3.0555868e+2, 183563.72, -89434.91, -68714.78, 0.21514319, 0.08734538, 199883.86, 199883.86, 0.000029984647, 10.002001, 9.998393 
5.550662e+2, 3.1555828e+2, 301858.47, 11251.313, 127633.375, -0.22505213, 0.1694355, 349954.5, 349954.5, 0.00008416486, 10.002558, 9.998815 
5.6499153e+2, 1.2555948e+2, -1736787.1, -1669428.9, 139657.6, -0.007091705, -0.12918068, -1559446.8, 150060.9, 0.000022362967, 9.999548, 10.000494 
5.649896e+2, 1.3556091e+2, -1907057.8, -1704455.4, -87273.88, -0.25609177, -0.08317618, -1672045.5, -60553.953, 0.000004259607, 9.997717, 10.0005 
5.6499904e+2, 1.4556085e+2, -1862793.9, -1648963.1, 76050.03, 0.31987745, -0.11827682, -1624674.4, -111182.46, 0.00000013010742, 9.997418, 10.000338 
5.6500083e+2, 1.5556127e+2, -1565579.3, -1441798.6, 33300.406, 0.08501801, -0.15703623, -1433408.6, -17919.441, 0.0, 9.998746, 10.000443 
5.6500363e+2, 1.6556203e+2, -1368614.6, -1235425.0, 39392.477, -0.050764706, -0.14701714, -1224646.5, 92833.45, 0.0, 9.999177, 10.000971 
5.6500846e+2, 1.7556262e+2, -1307644.1, -1162136.9, -11384.269, -0.0052885306, -0.21707723, -1161251.6, 58218.543, 0.0, 9.998951, 10.000908 
5.6501293e+2, 1.8556301e+2, -1254481.6, -1216284.1, -27932.6, 0.014056365, -0.20194082, -1201545.1, -80079.68, 0.0, 9.999206, 9.999739 
5.650168e+2, 1.955631e+2, -1083515.3, -1083190.1, -47772.5, -0.01560789, -0.20156784, -1035579.9, -12113.444, 0.0, 9.99971, 9.999732 
5.65022e+2, 2.0556326e+2, -975314.2, -1003315.3, 297.151, -0.0002802497, -0.14122291, -975311.06, -49843.543, 0.0, 9.999887, 9.999522 
5.650284e+2, 2.155633e+2, -895026.4, -911890.75, -43652.336, 0.07868747, -0.12274208, -858999.25, -31528.627, 0.0, 9.999758, 9.9995365 
5.650334e+2, 2.2556311e+2, -796675.44, -862176.6, -37656.35, 0.029509306, -0.06847385, -779520.1, -50045.637, 0.0, 9.999964, 9.99911 
5.6503713e+2, 2.355625e+2, -634970.7, -734170.6, -11183.156, -0.12311716, -0.07412245, -633725.56, -2244.1553, 0.0, 10.0004, 9.999108 
5.650424e+2, 2.4556181e+2, -555481.6, -667918.06, -4987.3003, -0.090548806, -0.03735125, -555260.9, -21771.332, 0.0, 10.000385, 9.998888 
5.650487e+2, 2.555608e+2, -502427.0, -599413.7, -28552.947, 0.09012469, -0.061966572, -494645.38, -59143.97, 0.0, 10.000096, 9.998834 
5.6505245e+2, 2.6555955e+2, -360678.56, -531223.44, -53122.01, 0.06272771, -0.037828986, -345485.38, -7972.471, 0.0, 10.000623, 9.998369 
5.65054e+2, 2.7555794e+2, -96169.97, -354920.2, -56860.113, -0.1234192, -0.07210775, -84226.32, 155300.28, 0.0, 10.001779, 9.998349 
5.650584e+2, 2.8555596e+2, 7572.3555, -316027.84, -17040.87, -0.08663999, -0.06895938, 8467.258, 150014.53, 0.00000046127252, 10.002064, 9.997817 
5.6506467e+2, 2.9555383e+2, 50232.23, -242733.28, -54130.82, 0.11430919, -0.108610734, 59913.95, 103486.96, 0.000007820285, 10.001663, 9.997841 
5.6506866e+2, 3.0555382e+2, 107776.88, -130531.28, -87185.516, 0.16791862, 0.090225175, 136267.67, 136267.67, 0.00003595913, 10.001494, 9.998359 
5.650685e+2, 3.15553e+2, 109490.42, -50044.95, 80746.77, -0.16797332, 0.12989245, 143225.7, 143225.7, 0.000094486146, 10.001101, 9.999095 
5.7499206e+2, 1.255552e+2, -1741117.6, -1663244.6, 119967.125, 0.023288887, -0.18596631, -1576053.5, 133491.55, 0.000015098279, 9.9994955, 10.000551 
5.7498884e+2, 1.3555652e+2, -1902153.4, -1690227.9, -149149.44, -0.14143153, -0.16564877, -1613232.5, -1701.2849, 0.0000026568694, 9.997698, 10.000606 
5.7499516e+2, 1.4555681e+2, -1847087.1, -1606362.1, 103476.53, 0.15765001, -0.18578078, -1567996.9, -54469.48, 0.000000050157187, 9.997383, 10.000644 
5.749988e+2, 1.5555753e+2, -1559458.8, -1417876.8, 94185.29, -0.028329615, -0.22113718, -1370844.9, 44674.82, 0.0, 9.9987, 10.000633 
5.750024e+2, 1.6555828e+2, -1446761.8, -1381528.9, 14232.065, -0.1302214, -0.1710645, -1378559.1, -61045.883, 0.0, 9.999106, 9.999999 
5.750069e+2, 1.7555875e+2, -1382085.4, -1307345.6, -4752.1284, -0.09039682, -0.15681629, -1307044.6, -87533.78, 0.0, 9.998905, 9.999934 
5.7501197e+2, 1.8555877e+2, -1283015.4, -1257386.6, -20390.44, -0.03232865, -0.11967535, -1246118.3, -124606.484, 0.0, 9.999132, 9.99949 
5.7501715e+2, 1.9555813e+2, -1120346.8, -1130945.8, -16003.235, 0.014820202, -0.16230443, -1108788.4, -85270.19, 0.0, 9.99959, 9.999461 
5.75022e+2, 2.0555784e+2, -1052937.6, -1126654.6, -20165.295, -0.016442198, -0.097063564, -1047781.94, -122256.86, 0.0, 9.999723, 9.998755 
5.750266e+2, 2.1555759e+2, -970289.6, -1024874.9, -34670.41, -0.11509844, -0.028078422, -953458.3, -125924.01, 0.0, 9.999572, 9.998852 
5.750325e+2, 2.2555768e+2, -742801.44, -714685.6, -34125.53, -0.0836791, 0.028768744, -691835.9, 37698.996, 0.0, 9.999804, 10.000203 
5.750395e+2, 2.3555773e+2, -585676.06, -595862.0, 18623.572, 0.050381042, -0.016466832, -571461.6, 60069.74, 0.0, 10.000241, 10.000135 
5.750447e+2, 2.4555726e+2, -577852.6, -697921.2, -30907.016, 0.07458861, 0.001825063, -570363.9, -36828.277, 0.0, 10.0003, 9.998732 
5.750482e+2, 2.555561e+2, -527373.06, -626861.3, -20820.074, -0.0018433314, -0.02027763, -523191.75, -87643.06, 0.0, 9.999981, 9.998707 
5.750524e+2, 2.655546e+2, -356319.06, -512909.2, -22773.26, -0.0404332, -0.028092103, -353074.3, -15511.7295, 0.0, 10.000573, 9.998525 
5.750569e+2, 2.7555248e+2, -94232.66, -337681.28, -4888.3164, -0.050280996, -0.124555625, -94134.54, 145445.42, 0.0, 10.001704, 9.998512 
5.7506096e+2, 2.855507e+2, -21315.535, -360595.16, -47318.582, -0.06967594, -0.09776451, -14839.72, 126758.61, 0.0000006054728, 10.002003, 9.997541 
5.750644e+2, 2.9554904e+2, 16535.8, -293231.78, -48447.66, -0.121966355, -0.05949595, 23936.219, 67555.484, 0.000009307056, 10.001583, 9.997533 
5.750681e+2, 3.0554804e+2, 102998.21, -131831.45, -106665.55, -0.07160506, 0.0538375, 144214.34, 144214.34, 0.000040671366, 10.001463, 9.998369 
5.7507145e+2, 3.1554577e+2, 150717.3, 51107.805, 129808.84, -0.054442834, -0.051911082, 239947.97, 239947.97, 0.000103750725, 10.001032, 9.99983 
5.8499014e+2, 1.2555102e+2, -2200022.8, -1867176.3, 132598.38, 0.06285029, -0.14617258, -1820810.8, -111224.17, 0.000008007214, 9.996241, 10.000741 
5.849887e+2, 1.3555193e+2, -1700321.3, -1567588.1, -211936.14, 0.02491064, -0.18394282, -1411870.4, 199706.02, 0.0000012151539, 9.998967, 10.000843 
5.849928e+2, 1.4555238e+2, -1552459.8, -1461950.1, 60383.43, 0.08581373, -0.19777629, -1431745.3, 81825.6, 0.000000012980553, 9.999432, 10.000621 
5.8499724e+2, 1.555533e+2, -1598259.6, -1435045.9, -7362.6567, -0.02816696, -0.2149398, -1434714.4, -19153.154, 0.0, 9.998454, 10.000607 
5.850014e+2, 1.6555408e+2, -1559415.6, -1463274.8, -30811.236, -0.099137984, -0.14868958, -1454247.9, -136692.53, 0.0, 9.998446, 9.999761 
5.8500606e+2, 1.7555453e+2, -1350152.9, -1313291.8, -17916.605, -0.07968072, -0.110489555, -1306018.4, -86463.96, 0.0, 9.999215, 9.999745 
5.8501154e+2, 1.8555452e+2, -1151256.0, -1203407.8, 40511.695, -0.028135072, -0.06544952, -1129153.5, -7597.2065, 0.0, 10.000068, 9.999419 
5.8501756e+2, 1.9555373e+2, -928886.0, -1052592.4, 28198.902, 0.039223768, -0.112627864, -922761.3, 100802.7, 0.0, 10.000944, 9.999364 
5.850222e+2, 2.0555313e+2, -906573.56, -1071723.9, 40132.14, -0.0073400284, -0.066190585, -897337.8, 28235.287, 0.0, 10.0007925, 9.998613 
5.850259e+2, 2.1555246e+2, -941756.56, -1029959.2, 49577.035, -0.14459372, -0.02782102, -919504.2, -91918.875, 0.0, 9.999835, 9.998694 
5.8503205e+2, 2.2555248e+2, -787721.44, -739161.1, 83248.08, -0.08425589, 0.031664137, -676724.7, 52861.996, 0.0, 9.999519, 10.000174 
5.850402e+2, 2.355528e+2, -663076.94, -640682.8, 19809.932, 0.13176869, 0.016827343, -629124.5, 2457.5588, 0.0, 9.99974, 10.000078 
5.850455e+2, 2.4555239e+2, -598544.6, -690944.1, -33780.313, 0.15061346, 0.037842814, -587512.2, -53926.773, 0.0, 10.000084, 9.998878 
5.850485e+2, 2.5555122e+2, -420813.6, -556617.25, -28645.975, 0.005488374, -0.00295565, -415018.4, 20578.81, 0.0, 10.000638, 9.99886 
5.850531e+2, 2.6554975e+2, -319393.28, -495809.44, 19020.877, -0.030062295, -0.010735882, -317365.78, 20244.883, 0.0, 10.000852, 9.998502 
5.85059e+2, 2.755478e+2, -222628.7, -399745.47, -6171.8433, 0.03781289, -0.089575194, -222413.9, 17214.219, 0.0, 10.000849, 9.998491 
5.8506316e+2, 2.8554615e+2, -108443.15, -383646.47, -23081.252, -0.004843987, -0.06015652, -106520.76, 35124.152, 0.00000055145284, 10.001318, 9.997709 
5.850659e+2, 2.9554448e+2, 90598.055, -241231.64, -22665.158, -0.13979115, -0.037032682, 92139.01, 135802.42, 0.000008783807, 10.002018, 9.997676 
5.850688e+2, 3.0554283e+2, 194200.8, -125946.77, -60905.21, -0.16884463, 0.020021755, 205395.98, 205395.98, 0.000039667964, 10.002249, 9.998024 
5.8507407e+2, 3.1554005e+2, 246616.45, 77467.78, 91954.46, 0.08380288, -0.10792482, 286975.88, 286975.88, 0.00010388018, 10.001779, 9.999639 
5.949853e+2, 1.2554689e+2, -2156707.5, -1774378.8, 169625.97, -0.1218883, -0.00065137557, -1709971.6, -339.0121, 0.0000033727015, 9.996251, 10.001362 
5.949889e+2, 1.3554716e+2, -1677639.4, -1514863.1, -110544.74, 0.116103314, -0.1423506, -1458977.1, 152649.78, 0.00000044999516, 9.998952, 10.00121 
5.949914e+2, 1.455476e+2, -1581676.8, -1514699.9, 3414.2512, -0.03962599, -0.16144064, -1514526.3, -903.90155, 0.000000014541682, 9.999398, 10.000271 
5.949958e+2, 1.5554857e+2, -1627344.4, -1488611.5, -27531.932, -0.055272784, -0.1370226, -1483347.5, -67733.086, 0.0, 9.998421, 10.000257 
5.950003e+2, 1.6554952e+2, -1530359.0, -1386291.9, -16526.346, -0.0835823, -0.06513193, -1384420.4, -66814.65, 0.0, 9.998385, 10.000313 
5.9500545e+2, 1.7555009e+2, -1320518.5, -1236255.5, 25048.502, -0.09248534, -0.07078798, -1229371.9, -9771.739, 0.0, 9.999156, 10.0003 
5.9501123e+2, 1.8555024e+2, -1157550.6, -1197219.0, 57751.336, -0.093714185, -0.03829951, -1116322.4, 5276.836, 0.0, 9.999984, 9.999503 
5.950175e+2, 1.9554983e+2, -941270.5, -1046159.94, 70421.23, -0.08876336, -0.060492788, -905910.9, 117693.68, 0.0, 10.000811, 9.999469 
5.950223e+2, 2.0554918e+2, -891198.5, -1005671.6, -8636.352, -0.10514423, -0.051161982, -890550.6, 35060.926, 0.0, 10.000643, 9.999141 
5.950261e+2, 2.1554804e+2, -934832.3, -977937.56, 30389.78, -0.13383567, -0.111540854, -919128.3, -91505.67, 0.0, 9.999675, 9.999128 
5.9503174e+2, 2.2554767e+2, -889627.56, -924332.75, 76046.19, -0.092980325, -0.049067564, -828979.3, -99350.51, 0.0, 9.999395, 9.998968 
5.950389e+2, 2.355476e+2, -765589.8, -816688.9, 42956.305, -0.0052288743, 0.021405464, -741159.1, -109525.33, 0.0, 9.999575, 9.998955 
5.9504455e+2, 2.4554713e+2, -581835.4, -633045.1, -25779.143, 0.010475381, 0.063303396, -571106.06, -37466.863, 0.0, 9.999977, 9.9993305 
5.9504914e+2, 2.5554612e+2, -406460.84, -499745.38, 3046.1282, -0.032806512, -0.0070444467, -406361.5, 29285.209, 0.0, 10.00052, 9.999309 
5.9505427e+2, 2.655451e+2, -341845.63, -529331.0, 3239.4448, -0.031274535, 0.018638449, -341789.66, -4133.1226, 0.0, 10.000794, 9.998303 
5.950598e+2, 2.755438e+2, -247121.86, -433642.4, 11533.499, 0.000835206, 0.02662283, -246411.39, -6740.077, 0.0, 10.000772, 9.9983 
5.950647e+2, 2.855422e+2, -75768.305, -300213.9, -7939.162, -0.019913876, 0.035972256, -75487.83, 66199.445, 0.0000003359344, 10.001255, 9.99831 
5.9506875e+2, 2.9554e+2, 115556.44, -162580.28, 18034.805, -0.102691, -0.04995113, 116720.96, 160427.2, 0.000006914508, 10.001911, 9.998263 
5.950706e+2, 3.0553806e+2, 142489.25, -228431.08, -85697.36, -0.25220844, -0.0188278, 161331.58, 161331.58, 0.000035638073, 10.002217, 9.997341 
5.950754e+2, 3.155358e+2, 177128.66, -57527.598, 99103.98, -0.04162197, -0.016337115, 213382.72, 213382.72, 0.00009897654, 10.001735, 9.998733 
6.0498226e+2, 1.2554102e+2, -1935395.8, -1636705.8, 187090.9, -0.10532848, -0.029047504, -1546662.1, 163029.16, 0.0000011596172, 9.997635, 10.001646 
6.049877e+2, 1.3554259e+2, -1877838.3, -1576580.6, -98693.49, 0.18974522, -0.06715933, -1547127.6, 64546.727, 0.00000014603442, 9.997454, 10.001493 
6.0498893e+2, 1.4554334e+2, -1815468.0, -1640453.0, 11193.585, -0.12978046, -0.061661962, -1639740.0, -126072.13, 0.0000000031309833, 9.997824, 10.000192 
6.04995e+2, 1.5554395e+2, -1570188.9, -1467530.6, -32854.484, 0.013332467, -0.05943834, -1457916.4, -42251.824, 0.0, 9.998828, 10.000221 
6.0500026e+2, 1.655446e+2, -1372716.5, -1284136.9, 23942.049, 0.030088928, -0.031004181, -1278079.8, 39577.88, 0.0, 9.999333, 10.000568 
6.050051e+2, 1.755449e+2, -1265335.8, -1182646.5, 17044.719, -0.047833037, -0.09042789, -1179270.9, 40380.11, 0.0, 9.999406, 10.000555 
6.0501087e+2, 1.8554519e+2, -1256812.6, -1236221.9, 59714.203, -0.08279872, -0.059043914, -1185922.0, -64273.727, 0.0, 9.999289, 9.99956 
6.050175e+2, 1.9554524e+2, -1192222.9, -1154751.9, 40465.695, -0.07687907, -0.040809743, -1128894.9, -105243.58, 0.0, 9.999054, 9.999564 
6.050229e+2, 2.0554484e+2, -989973.2, -1004084.9, -18156.477, -0.0638, -0.035043105, -977549.75, -51894.996, 0.0, 9.99975, 9.999593 
6.0502726e+2, 2.1554372e+2, -698816.9, -822876.75, -13765.468, -0.04291022, -0.13617618, -697307.9, 130354.23, 0.0, 10.001109, 9.999512 
6.050327e+2, 2.2554299e+2, -649817.2, -870910.4, 67319.69, -0.028915657, -0.09414591, -630932.4, 98738.3, 0.0, 10.001324, 9.998392 
6.050387e+2, 2.3554239e+2, -647163.6, -812528.94, 55163.484, -0.024281219, -0.025276246, -630450.94, 1231.8123, 0.0, 10.000641, 9.998449 
6.050445e+2, 2.4554174e+2, -516983.34, -600592.2, 41175.227, -0.007371733, 0.022846093, -500110.6, 33580.1, 0.0, 10.000435, 9.999329 
6.0505015e+2, 2.5554082e+2, -390134.53, -495297.44, 7258.049, 0.02217728, -0.034933604, -389635.97, 46061.688, 0.0, 10.00065, 9.999281 
6.0505533e+2, 2.6554003e+2, -362423.6, -535686.5, 8280.147, 0.021691198, 0.0133934235, -362028.78, -24322.713, 0.0, 10.00063, 9.9983425 
6.050603e+2, 2.7553904e+2, -297832.47, -453856.25, 5871.539, 0.0018826339, 0.049972076, -297611.84, -57893.074, 0.0, 10.000391, 9.99835 
6.050658e+2, 2.8553754e+2, -161846.92, -325760.9, 33630.926, 0.0071468954, 0.065483, -155215.05, -13481.717, 0.00000016006682, 10.000609, 9.998444 
6.0507154e+2, 2.9553553e+2, 27360.133, -190636.72, -5634.1113, 0.028896667, -0.02141579, 27505.65, 71256.234, 0.0000052467194, 10.001248, 9.998392 
6.05073e+2, 3.0553347e+2, 80768.63, -287881.7, -101071.96, -0.20869792, 0.010262889, 106660.76, 106660.76, 0.000031333126, 10.001933, 9.997068 
6.0507756e+2, 3.1553036e+2, 233130.83, -59013.34, 20618.969, -0.013353021, -0.04044307, 234578.89, 234578.89, 0.00009226463, 10.002235, 9.998497 
6.149802e+2, 1.2553346e+2, -1927122.5, -1610994.9, 34709.71, -0.14456645, -0.22719604, -1607228.8, 102533.58, 0.000000319301, 9.997614, 10.001822 
6.149847e+2, 1.3553819e+2, -1874968.5, -1568577.5, -89514.305, 0.10991687, 0.046497837, -1544342.3, 67376.24, 0.000000018009526, 9.997452, 10.001549 
6.1498517e+2, 1.4553966e+2, -1803273.9, -1616768.4, 25531.35, -0.33382908, 0.113037, -1613336.5, -99629.24, 0.0, 9.997826, 10.000353 
6.149946e+2, 1.5553942e+2, -1556924.1, -1446007.5, 14063.591, 0.052424915, 0.012177506, -1444252.1, -28539.363, 0.0, 9.9988365, 10.000372 
6.150007e+2, 1.6553931e+2, -1379576.3, -1282552.0, 12287.929, 0.11662563, -0.044807404, -1281020.0, 36691.293, 0.0, 9.999271, 10.000608 
6.150046e+2, 1.7553899e+2, -1272731.6, -1189091.0, 33741.543, -0.07055657, -0.1709005, -1177176.5, 42530.74, 0.0, 9.999363, 10.000534 
6.150101e+2, 1.8553938e+2, -1271559.5, -1243132.4, 38154.68, -0.1208094, -0.12779324, -1216629.8, -94926.16, 0.0, 9.999187, 9.999558 
6.150171e+2, 1.9554012e+2, -1205171.5, -1162267.3, 50855.81, -0.0464, -0.040841624, -1128524.1, -104821.35, 0.0, 9.998966, 9.9995575 
6.1502343e+2, 2.0554022e+2, -982768.44, -956968.75, 19739.625, -0.009161942, -0.0029568681, -946287.7, -20586.104, 0.0, 9.999614, 9.99998 
6.150291e+2, 2.1553947e+2, -700000.94, -784939.56, 46262.707, 0.0022782548, -0.10589294, -679669.94, 148033.55, 0.0, 10.000932, 9.99986 
6.1503434e+2, 2.255385e+2, -671880.94, -876339.3, 30935.912, -0.01795748, -0.10714823, -667302.7, 62409.457, 0.0, 10.001153, 9.998435 
6.150392e+2, 2.3553717e+2, -671457.94, -821763.44, 46087.633, -0.060896013, -0.11678826, -658451.7, -26723.305, 0.0, 10.000465, 9.998468 
6.1504495e+2, 2.4553621e+2, -564296.7, -675571.7, 33238.73, -0.03639096, -0.07713486, -555124.1, -21384.27, 0.0, 10.000332, 9.998865 
6.1505127e+2, 2.555353e+2, -438478.56, -571194.94, 27387.473, 0.03355847, -0.087681204, -433049.0, 2700.7905, 0.0, 10.000539, 9.9988165 
6.150561e+2, 2.6553452e+2, -355768.4, -505864.53, -14040.722, 0.0020463082, -0.029358553, -354466.25, -16707.441, 0.0, 10.000563, 9.998579 
6.150599e+2, 2.7553353e+2, -299581.03, -430744.34, 14820.275, -0.10689944, -0.019407883, -297927.3, -58157.234, 0.0, 10.000278, 9.998559 
6.150661e+2, 2.8553236e+2, -191130.42, -379178.03, 42995.207, -0.05688608, 0.035564255, -181766.3, -39983.867, 0.00000012615395, 10.00057, 9.998095 
6.150738e+2, 2.9553106e+2, -3670.033, -237275.83, 36982.895, 0.08533218, 0.051863063, 2045.0334, 45840.25, 0.000004351736, 10.001176, 9.9981 
6.150756e+2, 3.0552906e+2, 81603.5, -288951.13, -95929.18, -0.17695984, 0.101288006, 104964.84, 104964.84, 0.000027327982, 10.001935, 9.997074 
6.150795e+2, 3.15524e+2, 246786.42, -12101.452, 28368.111, -0.110564694, -0.13913126, 249858.45, 249858.45, 0.00008384043, 10.002154, 9.998865 
6.249773e+2, 1.255284e+2, -2059007.5, -1705577.8, 1085.694, -0.14059605, -0.22532369, -1705574.5, 4236.447, 0.00000004128188, 9.996823, 10.001573 
6.2498295e+2, 1.3553248e+2, -1834745.3, -1567870.6, -82533.6, 0.18871942, 0.0040760916, -1544408.9, 67365.69, 0.000000000001578113, 9.997785, 10.001412 
6.249833e+2, 1.4553377e+2, -1722221.4, -1571881.9, 75983.92, -0.31885424, 0.05812973, -1540168.4, -26403.521, 0.0, 9.998352, 10.000411 
6.2499285e+2, 1.5553425e+2, -1539323.9, -1421141.1, 32660.95, -0.00025078093, 0.018656947, -1412715.6, 3046.8198, 0.0, 9.998913, 10.00049 
6.249996e+2, 1.6553433e+2, -1398641.4, -1295090.6, 27080.89, 0.08721022, -0.022259668, -1288436.0, 29323.154, 0.0, 9.999179, 10.000555 
6.250045e+2, 1.7553377e+2, -1308983.6, -1204491.3, 4680.0015, 0.0008039783, -0.16680442, -1204282.1, 15476.14, 0.0, 9.999142, 10.00052 
6.2501025e+2, 1.8553403e+2, -1227901.3, -1229733.3, 41763.492, -0.02508501, -0.13572358, -1187043.8, -65287.59, 0.0, 9.999477, 9.999529 
6.2501705e+2, 1.9553463e+2, -1051254.4, -1088786.6, 32659.379, 0.0034992665, -0.06098159, -1032353.5, -8597.484, 0.0, 10.000001, 9.999568 
6.250235e+2, 2.0553488e+2, -913222.9, -935729.6, 24017.883, 0.01991256, -0.0040972023, -897952.7, 27801.273, 0.0, 10.000138, 9.999877 
6.2502986e+2, 2.155345e+2, -842812.2, -853728.6, -13327.863, 0.037488542, -0.061205797, -833868.2, -6114.5386, 0.0, 9.999964, 9.999846 
6.2503535e+2, 2.2553353e+2, -784334.25, -904146.4, -31734.42, 0.016421705, -0.078850426, -776447.9, -46686.18, 0.0, 10.000259, 9.998684 
6.2504023e+2, 2.3553176e+2, -592923.5, -764412.1, -26905.207, -0.023326838, -0.14931615, -588801.4, 42978.055, 0.0, 10.000903, 9.998668 
6.2504584e+2, 2.4553081e+2, -505533.53, -675158.1, -2026.2546, 0.0023345118, -0.10482443, -505509.34, 28281.531, 0.0, 10.000838, 9.998635 
6.25052e+2, 2.5553027e+2, -492777.88, -616966.5, -17882.693, 0.07594703, -0.05573944, -490254.13, -54454.664, 0.0, 10.00025, 9.998642 
6.250569e+2, 2.6552936e+2, -336269.0, -493504.13, -10772.465, 0.03176126, -0.004949367, -335534.4, 2275.5286, 0.0, 10.000675, 9.998607 
6.2506104e+2, 2.7552775e+2, -68090.195, -317531.2, -30235.71, -0.093333825, -0.05873509, -64477.527, 175348.23, 0.0, 10.001853, 9.998578 
6.250672e+2, 2.855265e+2, -7384.3066, -279998.16, 17761.97, -0.057018027, -0.012873833, -6231.909, 135606.02, 0.000000116905284, 10.0017805, 9.998204 
6.250747e+2, 2.955256e+2, -70185.95, -266622.34, 15063.797, 0.09135272, 0.03268645, -69037.49, -25190.227, 0.000004287332, 10.000677, 9.998161 
6.2507725e+2, 3.055236e+2, -30522.895, -318306.44, -26542.354, -0.14403278, 0.07030948, -28095.363, -28095.363, 0.000025852014, 10.001086, 9.997264 
6.2508297e+2, 3.155196e+2, 325745.72, 79698.03, 13413.428, 0.016301181, -0.09008996, 326474.78, 326474.78, 0.00007870898, 10.002488, 9.999323 
6.3497245e+2, 1.2552576e+2, -2092976.6, -1789520.4, -137825.2, -0.37788248, -0.014648603, -1736267.5, -26429.521, 0.000000010756334, 9.996879, 10.000973 
6.349821e+2, 1.3552524e+2, -1863321.0, -1631326.5, -43892.066, 0.2966039, -0.20041794, -1623300.0, -11455.676, 0.0, 9.99779, 10.000982 
6.34983e+2, 1.4552565e+2, -1718079.0, -1546076.8, 76683.67, -0.22074789, -0.22489801, -1516853.9, -3012.8394, 0.0, 9.998286, 10.000615 
6.349894e+2, 1.5552849e+2, -1532257.1, -1405306.0, 70244.51, -0.2694072, -0.046014704, -1374106.1, 41707.266, 0.0, 9.998905, 10.000606 
6.349964e+2, 1.6552961e+2, -1419729.4, -1331835.9, 10158.981, -0.18131673, 0.025347978, -1330676.9, -12875.117, 0.0, 9.999142, 10.000324 
6.350044e+2, 1.755291e+2, -1327618.8, -1241483.6, 18241.346, 0.046020143, -0.08890419, -1237779.9, -17974.191, 0.0, 9.999118, 10.000288 
6.350111e+2, 1.8552893e+2, -1237516.8, -1224449.9, 47031.707, 0.07675692, -0.09381822, -1183500.0, -61692.004, 0.0, 9.999379, 9.999606 
6.350167e+2, 1.9552869e+2, -1067102.3, -1095411.8, 62450.234, -0.058901336, -0.111664556, -1017222.75, 6589.574, 0.0, 9.999887, 9.9995775 
6.350227e+2, 2.0552877e+2, -977663.25, -1030555.2, 3274.938, -0.09962051, -0.0412801, -977461.25, -51648.668, 0.0, 9.999972, 9.999302 
6.35029e+2, 2.1552879e+2, -904615.94, -940376.1, -2785.3054, -0.067941025, -0.0020699836, -904400.3, -76587.875, 0.0, 9.999782, 9.99934 
6.3503516e+2, 2.2552797e+2, -778901.5, -850882.5, -20573.23, -0.049361024, -0.0033761144, -773436.3, -43616.69, 0.0, 10.000084, 9.999129 
6.350411e+2, 2.3552614e+2, -591395.94, -718046.2, 10955.641, -0.043168407, -0.12952977, -590455.2, 41380.746, 0.0, 10.00072, 9.999072 
6.350468e+2, 2.4552552e+2, -526782.7, -691029.75, -36521.81, -0.018717226, -0.0667106, -519027.9, 14815.752, 0.0, 10.000723, 9.998578 
6.3505197e+2, 2.5552565e+2, -515872.13, -635724.6, -23080.688, 0.016051268, 0.055723958, -511581.0, -75734.24, 0.0, 10.000126, 9.998573 
6.350575e+2, 2.6552448e+2, -362158.63, -525700.1, 18608.28, -0.0101494305, 0.09057289, -360068.03, -22208.27, 0.0, 10.000588, 9.998424 
6.3506323e+2, 2.7552179e+2, -96653.9, -347583.22, 25660.27, -0.09410629, -0.05576095, -94056.734, 145828.03, 0.0, 10.001732, 9.998426 
6.3506866e+2, 2.855201e+2, 25188.41, -197276.84, -40213.168, -0.1213203, -0.07990564, 32234.252, 174133.53, 0.0000001448745, 10.001722, 9.998801 
6.350737e+2, 2.9551926e+2, -53752.344, -200470.64, -784.092, -0.111775085, -0.07853964, -53748.152, -9843.278, 0.000005079309, 10.00056, 9.998667 
6.3507754e+2, 3.0551735e+2, -16484.793, -299713.28, 21766.908, -0.26330578, -0.05950089, -14821.71, -14821.71, 0.000027855136, 10.001101, 9.997399 
6.350867e+2, 3.1551665e+2, 331250.3, 108401.97, 81921.32, 0.07010587, 0.0832131, 358124.53, 358124.53, 0.00008149468, 10.002397, 9.999571 
6.4497e+2, 1.2552103e+2, -2250445.5, -1888025.1, -139822.47, -0.25375998, 0.032122113, -1840352.3, -130466.88, 0.0000000047013002, 9.99591, 10.000755 
6.4498067e+2, 1.3551994e+2, -1647412.1, -1529693.3, 12858.945, 0.30732343, -0.20491114, -1528305.0, 83590.72, 0.0, 9.999319, 10.00092 
6.4498305e+2, 1.4552003e+2, -1458920.5, -1428290.1, 82260.56, -0.12697311, -0.25462687, -1359931.1, 153962.4, 0.0, 10.000095, 10.000551 
6.4498866e+2, 1.5552238e+2, -1539643.6, -1417197.5, 24105.092, -0.22572629, -0.12010568, -1412623.0, 3245.953, 0.0, 9.99888, 10.000539 
6.449955e+2, 1.655234e+2, -1520087.0, -1416082.1, 4855.0957, -0.15086575, -0.038859386, -1415856.0, -97996.55, 0.0, 9.9986, 10.000011 
6.450039e+2, 1.7552316e+2, -1348231.8, -1280690.0, -15525.519, 0.09982792, -0.09407111, -1277292.3, -57428.184, 0.0, 9.999103, 10.000025 
6.4501107e+2, 1.8552312e+2, -1169426.0, -1173152.9, 57224.69, 0.1277193, -0.082041904, -1114034.5, 7830.9424, 0.0, 9.999772, 9.999766 
6.4501715e+2, 1.9552292e+2, -967054.8, -1028324.9, 46816.76, -0.02667852, -0.112062536, -941740.6, 82126.32, 0.0, 10.000514, 9.999727 
6.4502317e+2, 2.0552275e+2, -886605.94, -1028387.25, -26.669485, -0.07478539, -0.05441177, -886605.94, 39263.805, 0.0, 10.000778, 9.998924 
6.450295e+2, 2.1552227e+2, -816692.56, -940132.4, -22448.799, -0.029903557, -0.02867414, -812736.8, 15139.9795, 0.0, 10.000564, 9.998961 
6.450355e+2, 2.2552153e+2, -721856.94, -795770.4, 794.90466, -0.026449282, -0.018463215, -721848.4, 8035.329, 0.0, 10.00033, 9.999395 
6.450414e+2, 2.3552026e+2, -659206.75, -716929.4, -11251.047, -0.04911454, -0.12009165, -657091.25, -25197.744, 0.0, 10.000093, 9.999379 
6.450472e+2, 2.4551985e+2, -574052.25, -681737.75, -27330.725, -0.019253206, -0.06570932, -567512.75, -33614.68, 0.0, 10.000277, 9.998857 
6.450528e+2, 2.555199e+2, -395621.6, -545834.06, -12717.341, 0.063316405, 0.022927012, -394552.53, 41348.3, 0.0, 10.000824, 9.998853 
6.450585e+2, 2.6551872e+2, -336869.47, -507851.53, 91440.89, 0.03443204, 0.046243157, -297180.03, 40732.895, 0.0, 10.000735, 9.99848 
6.4506435e+2, 2.7551624e+2, -321573.94, -452148.7, 81116.75, -0.06772893, -0.08484463, -282734.63, -42798.438, 0.000000000000000000046744374, 10.000165, 9.998473 
6.4507e+2, 2.855145e+2, -146911.36, -284091.5, 16430.613, -0.08776939, -0.116134286, -144970.84, -3019.991, 0.00000034821963, 10.000557, 9.998759 
6.450753e+2, 2.9551324e+2, 98581.05, -136230.22, -24113.828, -0.04962338, -0.15113312, 101031.83, 144991.55, 0.0000068469953, 10.001641, 9.998582 
6.450796e+2, 3.055111e+2, 113944.27, -198233.6, 38662.22, -0.19130905, -0.16758077, 118661.195, 118661.195, 0.00003364889, 10.001855, 9.997708 
6.450889e+2, 3.1551194e+2, 151703.53, -1205.6958, 21548.98, 0.11933, 0.09328583, 154682.33, 154682.33, 0.000093661416, 10.00127, 9.999341 
6.549685e+2, 1.2551408e+2, -2233298.8, -1848195.9, -113804.85, -0.058617685, -0.1085673, -1817078.9, -107124.28, 0.000000001405694, 9.995896, 10.001031 
6.5497804e+2, 1.3551672e+2, -1619885.8, -1477639.0, 140897.28, 0.07736104, -0.007837162, -1390931.5, 220996.03, 0.0, 9.999342, 10.001262 
6.5498304e+2, 1.4551707e+2, -1493023.0, -1490700.9, 17078.295, -0.173618, -0.028927736, -1474744.3, 39177.37, 0.0, 10.000058, 10.000145 
6.5499014e+2, 1.5551592e+2, -1574048.4, -1480710.5, -4296.704, -0.00033274133, -0.19888255, -1480513.1, -64584.15, 0.0, 9.998839, 10.00013 
6.5499634e+2, 1.6551565e+2, -1549915.0, -1462342.1, 7469.427, 0.042248655, -0.21426651, -1461709.5, -143777.08, 0.0, 9.998533, 9.999722 
6.5500253e+2, 1.755159e+2, -1373015.8, -1323471.4, 17951.908, 0.022040384, -0.19258918, -1317650.5, -97716.36, 0.0, 9.999066, 9.999745 
6.5500987e+2, 1.8551663e+2, -1164647.0, -1141439.4, 70960.305, 0.0039407825, -0.10281532, -1081140.4, 40787.8, 0.0, 9.9996805, 10.000028 
6.550179e+2, 1.9551739e+2, -963323.25, -996532.8, 89443.414, -0.029250352, -0.06364426, -888956.4, 134962.98, 0.0, 10.000412, 9.999995 
6.5502477e+2, 2.0551683e+2, -924971.4, -1073959.8, -22512.207, -0.023817912, -0.046102896, -921644.06, 4281.709, 0.0, 10.000631, 9.998686 
6.550308e+2, 2.1551484e+2, -859718.8, -984300.7, -17450.826, 0.016668363, -0.14589992, -857320.5, -29372.643, 0.0, 10.000375, 9.99875 
6.5503603e+2, 2.2551414e+2, -740253.6, -790823.1, -21609.459, -0.03398569, -0.1269098, -732277.5, -2323.0762, 0.0, 10.000149, 9.999513 
6.550405e+2, 2.3551416e+2, -674215.25, -707375.6, -5176.5864, -0.1744377, -0.11116023, -673425.94, -41474.242, 0.0, 9.999922, 9.999524 
6.5504664e+2, 2.4551384e+2, -547462.1, -597607.94, -22666.9, -0.12449696, -0.08821431, -538735.0, -4781.46, 0.0, 10.0001545, 9.999491 
6.5505403e+2, 2.5551298e+2, -371954.1, -463632.75, 21050.49, 0.07448818, -0.15701157, -367351.72, 68610.05, 0.0, 10.000687, 9.999479 
6.5505964e+2, 2.655122e+2, -327909.28, -476579.56, 55466.87, 0.041614406, -0.1378363, -309495.9, 28473.166, 0.0, 10.000674, 9.998726 
6.5506387e+2, 2.7551123e+2, -317150.53, -430051.25, 81428.23, -0.16800085, -0.1407219, -274519.13, -34540.434, 0.0000000002377775, 10.000098, 9.998661 
6.550706e+2, 2.8550982e+2, -204313.33, -383518.22, 42856.43, -0.11823042, -0.11330802, -194591.7, -52600.26, 0.0000008000927, 10.000484, 9.998103 
6.5507907e+2, 2.955077e+2, 37180.934, -232516.66, 30273.9, 0.11366564, -0.17662926, 40537.445, 84547.82, 0.000010270006, 10.001518, 9.997973 
6.5508294e+2, 3.0550495e+2, 142039.67, -144788.75, 7915.595, -0.07599457, -0.24146962, 142257.95, 142257.95, 0.00004390313, 10.001863, 9.99808 
6.550887e+2, 3.1550512e+2, 96560.78, -102774.0, 35091.824, -0.0976426, -0.08011792, 102558.08, 102558.08, 0.00011355634, 10.001211, 9.998676 
6.6496766e+2, 1.2550785e+2, -1772178.5, -1628116.3, -99490.37, 0.12633549, -0.11793649, -1577319.0, 132696.83, 0.00000000035571668, 9.9990635, 10.001011 
6.6497594e+2, 1.3551062e+2, -1850030.4, -1609084.5, 82750.26, 0.02763795, 0.0060888524, -1583402.4, 28584.521, 0.0, 9.997829, 10.001102 
6.6498303e+2, 1.45511e+2, -1811950.4, -1650409.8, -42352.625, -0.06358151, 0.0012428327, -1639979.3, -125998.82, 0.0, 9.997903, 10.000082 
6.6499025e+2, 1.5550937e+2, -1473866.4, -1437111.6, -68390.79, 0.10204091, -0.21805431, -1384672.1, 31320.94, 0.0, 9.999563, 10.000069 
6.6499615e+2, 1.655089e+2, -1305803.1, -1385486.6, -9805.597, 0.090201564, -0.22811396, -1304614.3, 13384.741, 0.0, 10.000392, 9.999353 
6.65002e+2, 1.7550921e+2, -1202460.1, -1278581.6, -37336.207, -0.0023510412, -0.1639315, -1187204.8, 32796.465, 0.0, 10.000399, 9.999409 
6.650095e+2, 1.8550998e+2, -1119811.3, -1110887.9, 24109.602, -0.0047246027, -0.059182055, -1090830.6, 31164.727, 0.0, 9.99996, 10.000103 
6.650183e+2, 1.9551076e+2, -1144200.0, -1078980.3, -1674.4336, 0.04441574, -0.02522983, -1078937.3, -54950.816, 0.0, 9.999141, 10.000048 
6.650255e+2, 2.0551018e+2, -1100752.6, -1127713.9, -59229.887, 0.053966712, -0.02528283, -1053488.8, -127496.234, 0.0, 9.999288, 9.998973 
6.6503125e+2, 2.1550822e+2, -869780.0, -958935.3, -45794.617, 0.045249637, -0.1477901, -850449.06, -22435.82, 0.0, 10.000173, 9.99903 
6.650363e+2, 2.2550763e+2, -691807.44, -740614.3, -22746.23, -0.025574842, -0.14507253, -682850.44, 47167.8, 0.0, 10.000378, 9.999753 
6.650406e+2, 2.3550786e+2, -650537.9, -672168.75, -24151.357, -0.15583402, -0.12706745, -634890.8, -2877.946, 0.0, 9.999995, 9.999737 
6.6504675e+2, 2.4550761e+2, -561098.94, -592090.8, -6093.8584, -0.11235699, -0.11312475, -559943.8, -25930.549, 0.0, 9.999974, 9.999627 
6.650544e+2, 2.555067e+2, -438831.94, -485666.53, -34552.215, 0.077102974, -0.2014614, -420509.28, 15511.693, 0.0, 10.000151, 9.999599 
6.6506034e+2, 2.655061e+2, -351808.6, -484470.1, -12449.1, 0.06229125, -0.17109354, -350650.47, -12623.917, 0.0, 10.00049, 9.998763 
6.6506493e+2, 2.755056e+2, -182912.2, -356876.2, -30601.484, -0.10573931, -0.12978275, -177686.19, 62346.063, 0.0000000023427176, 10.001003, 9.998716 
6.6507214e+2, 2.8550416e+2, -90341.74, -365251.84, 87.2446, -0.049245194, -0.09273509, -90341.71, 51704.633, 0.0000014418595, 10.001403, 9.997799 
6.650812e+2, 2.955014e+2, 29760.895, -261590.56, -20312.953, 0.18262884, -0.1902591, 31170.291, 75242.49, 0.000014823799, 10.001567, 9.997755 
6.6508514e+2, 3.0549917e+2, 149755.39, -117145.1, -33122.445, -0.031824272, -0.20551482, 153804.47, 153804.47, 0.000057815294, 10.001822, 9.998286 
6.6509e+2, 3.1549838e+2, 180467.53, -83403.99, -90013.22, -0.1150204, -0.15752152, 208248.47, 208248.47, 0.00014076945, 10.001873, 9.998492 
6.749667e+2, 1.2550251e+2, -1805267.3, -1693086.1, -177644.77, 0.04862664, 0.0046754535, -1562887.0, 147180.22, 0.0000000023126079, 9.99906, 10.000565 
6.7497414e+2, 1.3550158e+2, -1899249.6, -1706657.4, 46731.85, 0.031221986, -0.17509647, -1695917.0, -83842.71, 0.0, 9.997818, 10.000439 
6.749825e+2, 1.4550188e+2, -1799792.3, -1607839.1, 580.0638, 0.0558936, -0.16976859, -1607837.4, -93767.51, 0.0, 9.997835, 10.000405 
6.749884e+2, 1.5550283e+2, -1451869.3, -1389177.1, 7858.8926, -0.073753916, -0.15959722, -1388206.9, 27852.754, 0.0, 9.999558, 10.000399 
6.7499465e+2, 1.6550334e+2, -1340146.6, -1450969.0, -25088.527, -0.13904218, -0.066493295, -1334731.6, -16674.338, 0.0, 10.000361, 9.998922 
6.7500174e+2, 1.7550324e+2, -1239097.4, -1341865.8, -25512.707, -0.094726205, -0.002155957, -1233112.3, -13048.466, 0.0, 10.000344, 9.999001 
6.7500967e+2, 1.8550323e+2, -1141042.6, -1135759.6, -25121.12, -0.021106016, 0.051845323, -1113141.5, 8924.697, 0.0, 9.999873, 9.999978 
6.7501783e+2, 1.9550309e+2, -1169960.6, -1098731.1, -16057.674, 0.05493261, 0.00924554, -1095278.5, -71211.27, 0.0, 9.999001, 9.99998 
6.7502475e+2, 2.0550294e+2, -1070910.9, -1032153.1, -39106.895, 0.031841964, 0.018684587, -1007886.94, -81818.664, 0.0, 9.999132, 9.999708 
6.750305e+2, 2.1550252e+2, -843514.7, -862954.25, -1338.6873, -0.072266534, -0.028066812, -843422.94, -15350.83, 0.0, 9.999991, 9.999775 
6.7503595e+2, 2.2550209e+2, -695993.9, -705807.1, -52015.516, -0.11656247, -0.060350135, -648654.06, 81419.836, 0.0, 10.000192, 10.000083 
6.7504114e+2, 2.3550138e+2, -658540.44, -641458.25, -20981.219, -0.12359667, -0.17040637, -627346.3, 4730.462, 0.0, 9.999796, 10.000043 
6.7504704e+2, 2.455012e+2, -611280.75, -660143.7, -10860.677, -0.10179487, -0.1430627, -608975.5, -74899.0, 0.0, 9.9998255, 9.9992285 
6.750535e+2, 2.5550115e+2, -488516.5, -557119.25, -12603.938, -0.06307747, -0.10526587, -486274.16, -50196.84, 0.0, 10.000012, 9.999174 
6.7506015e+2, 2.6550058e+2, -378490.8, -515350.25, -8567.454, -0.031632382, -0.043979228, -377956.56, -39872.734, 0.0, 10.000389, 9.998599 
6.750672e+2, 2.754994e+2, -206775.89, -384482.47, 4497.47, -0.01413024, -0.056367043, -206662.14, 33434.984, 0.0000000015372758, 10.000908, 9.998576 
6.750744e+2, 2.8549752e+2, -87627.38, -347556.66, -6957.416, 0.0042921896, -0.060370147, -87441.29, 54674.19, 0.0000017821444, 10.001358, 9.997938 
6.750813e+2, 2.9549474e+2, 22607.197, -246182.6, 6507.0156, -0.0019163253, -0.17449653, 22764.63, 66906.63, 0.000019076204, 10.001442, 9.997918 
6.750854e+2, 3.054938e+2, 134734.42, -133448.03, -38311.793, -0.21286507, -0.06383611, 140100.17, 140100.17, 0.000073988194, 10.001763, 9.9982 
6.7509156e+2, 3.154919e+2, 187343.31, -43542.125, -55645.37, -0.22017683, -0.114059545, 200054.53, 200054.53, 0.00017626988, 10.001776, 9.998807 
6.849662e+2, 1.2549573e+2, -1722430.5, -1667914.8, -126291.37, 0.08612049, -0.032654412, -1565973.1, 144158.53, 0.0000000036242784, 9.999663, 10.000463 
6.849721e+2, 1.354943e+2, -1723637.4, -1651174.6, 30880.74, -0.0036481286, -0.22789775, -1639800.0, -27656.273, 0.0, 9.999178, 10.000148 
6.8498176e+2, 1.4549465e+2, -1611647.0, -1543797.8, 96473.6, 0.13747738, -0.19246206, -1475457.8, 38682.22, 0.0, 9.999225, 10.000181 
6.849882e+2, 1.5549603e+2, -1399176.1, -1388339.0, 31901.057, -0.06382416, -0.11733697, -1361399.6, 54728.242, 0.0, 10.000007, 10.000201 
6.849947e+2, 1.6549659e+2, -1371514.1, -1445180.4, -21847.41, -0.14213462, -0.023064682, -1365522.1, -47397.336, 0.0, 10.000047, 9.99912 
6.850019e+2, 1.7549618e+2, -1360576.3, -1388410.8, -4108.145, -0.06772291, -0.007073181, -1359982.6, -139850.48, 0.0, 9.999445, 9.999126 
6.850095e+2, 1.8549581e+2, -1214448.9, -1214582.8, 44831.426, 0.00016613786, 0.026124826, -1169684.3, -47545.902, 0.0, 9.999555, 9.999584 
6.8501717e+2, 1.9549513e+2, -1023842.94, -1063885.9, 6493.436, 0.03850771, -0.033216495, -1022816.25, 1330.7362, 0.0, 10.000153, 9.999657 
6.8502396e+2, 2.0549546e+2, -926684.4, -878572.06, -376.72885, 0.02054424, -0.00021677777, -878569.06, 47574.355, 0.0, 9.999792, 10.0004225 
6.850301e+2, 2.1549633e+2, -986487.75, -859486.0, 7301.0083, -0.040683948, 0.012809771, -859067.7, -30934.68, 0.0, 9.998708, 10.000408 
6.850361e+2, 2.254963e+2, -879014.9, -812755.4, -15808.301, -0.049395803, -0.0010268118, -809177.06, -79046.03, 0.0, 9.999001, 9.99992 
6.8504226e+2, 2.3549531e+2, -583245.3, -625028.1, -51729.004, -0.017028593, -0.123954736, -548348.4, 83789.96, 0.0, 10.000379, 9.999875 
6.8504816e+2, 2.4549475e+2, -458298.44, -608289.75, -34781.25, -0.024347546, -0.1178946, -450625.6, 83516.555, 0.0, 10.000987, 9.999012 
6.850539e+2, 2.5549427e+2, -351013.6, -510239.28, -49295.996, -0.067336954, -0.10014987, -336987.22, 99158.57, 0.0, 10.001067, 9.998973 
6.850607e+2, 2.6549357e+2, -296157.47, -499858.44, -7558.0176, -0.047923006, -0.032452047, -295877.4, 42276.23, 0.0, 10.001047, 9.998389 
6.850685e+2, 2.7549237e+2, -233876.33, -419204.06, -29217.0, 0.039972994, -0.02550269, -229379.38, 10788.52, 0.00000000039754933, 10.000794, 9.998397 
6.85076e+2, 2.8549057e+2, -159519.3, -326832.28, -1021.06903, 0.070941195, -0.040270343, -159513.06, -17327.396, 0.000001935021, 10.000633, 9.998424 
6.850828e+2, 2.9548794e+2, -46180.176, -223797.53, 5741.8003, 0.04687746, -0.18304344, -45994.754, -1784.7737, 0.000022833043, 10.000727, 9.998414 
6.850872e+2, 3.0548754e+2, 101111.875, -150284.48, 25351.523, -0.18694504, -0.044405863, 103642.91, 103642.91, 0.00009092674, 10.001538, 9.998195 
6.850936e+2, 3.1548595e+2, 306315.06, 73685.98, -45444.703, -0.20745777, -0.055382665, 314877.63, 314877.63, 0.00021663251, 10.002309, 9.999375 
6.9496584e+2, 1.2548766e+2, -1695673.6, -1613529.8, -118211.14, 0.0067623514, -0.22064413, -1529458.6, 180748.8, 0.00000000017840025, 9.9996805, 10.000816 
6.949695e+2, 1.3548897e+2, -1718555.3, -1644822.6, 22844.043, -0.21667355, -0.14754196, -1638318.8, -26125.277, 0.0, 9.9992, 10.000176 
6.949804e+2, 1.4548932e+2, -1663754.1, -1648630.5, 109445.07, 0.040644232, -0.078404725, -1546486.4, -32295.22, 0.0, 9.999206, 9.999474 
6.9498926e+2, 1.5548894e+2, -1447992.5, -1492080.0, 75072.76, 0.008664386, -0.10811632, -1391794.0, 24404.1, 0.0, 10.000005, 9.999497 
6.94996e+2, 1.654886e+2, -1324922.3, -1333114.4, -58324.49, -0.05063713, -0.1069662, -1270550.1, 47651.734, 0.0, 9.9999895, 9.999909 
6.950018e+2, 1.7548822e+2, -1318206.1, -1286260.0, -7202.3774, -0.051726166, -0.16650957, -1284711.3, -64507.105, 0.0, 9.999385, 9.999855 
6.9500864e+2, 1.8548782e+2, -1274227.0, -1312764.0, 56079.133, -0.07063825, -0.1386096, -1234198.4, -111987.836, 0.0, 9.999448, 9.998958 
6.950159e+2, 1.9548705e+2, -1083499.1, -1158265.8, 40255.51, -0.13330203, -0.14775553, -1065946.0, -41721.684, 0.0, 10.000036, 9.999058 
6.950228e+2, 2.054878e+2, -899722.25, -794951.1, -57180.04, -0.10324372, -0.07639285, -769787.94, 156429.67, 0.0, 9.999662, 10.001062 
6.9502956e+2, 2.1548963e+2, -971923.3, -788272.75, -16000.639, 0.010845226, -0.03126579, -786889.1, 41307.313, 0.0, 9.998529, 10.000983 
6.950364e+2, 2.254903e+2, -950947.4, -919771.5, 23553.111, 0.056346297, 0.031230759, -907115.25, -176925.8, 0.0, 9.998819, 9.9992695 
6.950434e+2, 2.3548968e+2, -651375.25, -727152.9, 11106.597, 0.03434057, 0.010143583, -649780.9, -17583.408, 0.0, 10.000213, 9.999249 
6.9504964e+2, 2.4548836e+2, -472770.06, -614817.25, -45140.824, -0.008358475, -0.030597216, -459638.75, 74570.234, 0.0, 10.000879, 9.999021 
6.9505525e+2, 2.5548613e+2, -363894.2, -515368.44, -31193.408, -0.07039332, -0.18981718, -357721.97, 78504.14, 0.0, 10.000965, 9.998989 
6.9506145e+2, 2.654851e+2, -329497.5, -545385.6, -28143.16, -0.098366044, -0.14386436, -325889.06, 12347.106, 0.0, 10.000952, 9.998119 
6.950683e+2, 2.7548462e+2, -267054.38, -462322.94, -22589.146, -0.09201488, -0.033557467, -264475.28, -24231.303, 0.0000000054780975, 10.0006895, 9.998149 
6.950763e+2, 2.8548333e+2, -113529.15, -217982.27, -13475.2705, 0.009762397, -0.028694231, -111818.74, 30438.064, 0.000002364329, 10.000575, 9.999195 
6.95085e+2, 2.9548112e+2, -6126.0425, -119948.336, 32831.313, 0.15380844, -0.21422999, 2664.9692, 46941.04, 0.000027093956, 10.000642, 9.999165 
6.9509006e+2, 3.0548042e+2, 102562.32, -145144.44, 49462.313, -0.09295466, -0.14418621, 112073.78, 112073.78, 0.00010798756, 10.00152, 9.998238 
6.9509554e+2, 3.154805e+2, 345256.78, 170323.17, 19538.918, -0.32240385, 0.0056313323, 347412.56, 347412.56, 0.00025661878, 10.002234, 10.000073 
7.049646e+2, 1.2548009e+2, -1960438.1, -1755727.9, -85563.91, 0.020340472, -0.2535649, -1724674.8, -14392.973, 0.0, 9.997904, 10.0007105 
7.0496845e+2, 1.3548225e+2, -1672833.8, -1644320.1, -76330.21, -0.24894127, -0.076122925, -1580926.8, 31333.28, 0.0, 9.9995775, 10.000006 
7.0497966e+2, 1.4548218e+2, -1637312.6, -1630359.4, 41599.805, 0.053472057, -0.04420078, -1592091.3, -77829.32, 0.0, 9.9993725, 9.99951 
7.0498884e+2, 1.5548119e+2, -1706410.5, -1605454.1, 36973.465, 0.06387876, -0.13708578, -1593361.6, -177087.48, 0.0, 9.998208, 9.999567 
7.049958e+2, 1.6548093e+2, -1480288.5, -1392433.4, -29236.604, 0.0010384773, -0.13993697, -1383593.4, -65316.06, 0.0, 9.99887, 10.000032 
7.0500207e+2, 1.75481e+2, -1090923.5, -1156877.5, -63217.03, -0.029716253, -0.16675973, -1052599.1, 167676.4, 0.0, 10.000876, 10.0000105 
7.050086e+2, 1.8548098e+2, -1073738.5, -1197969.0, -12603.388, -0.071490996, -0.11908501, -1072472.8, 49805.66, 0.0, 10.000741, 9.999125 
7.050151e+2, 1.9548047e+2, -1246721.0, -1222274.4, 5069.2295, -0.14567752, -0.11381238, -1221264.9, -196975.77, 0.0, 9.998841, 9.999205 
7.050221e+2, 2.0548113e+2, -1043358.06, -871713.8, -36816.49, -0.0854305, -0.058045644, -864150.25, 62132.86, 0.0, 9.998688, 10.001016 
7.050295e+2, 2.1548252e+2, -776649.56, -699075.8, -71897.66, 0.09147537, -0.051961213, -656170.0, 172095.25, 0.0, 9.999874, 10.000955 
7.0503676e+2, 2.25483e+2, -740286.7, -832720.2, 14822.476, 0.13640386, 0.00015815857, -737967.94, -7707.857, 0.0, 10.000336, 9.999134 
7.0504385e+2, 2.3548244e+2, -655290.06, -742822.4, 11841.38, 0.05968393, -0.0026785738, -653716.44, -21448.09, 0.0, 10.000254, 9.999121 
7.050506e+2, 2.4548127e+2, -525213.7, -656923.94, -18106.777, 0.022963844, -0.013476942, -522769.8, 11509.392, 0.0, 10.000584, 9.998883 
7.050572e+2, 2.554793e+2, -337546.6, -517067.0, -43437.215, 0.027859252, -0.13287945, -327588.78, 108706.234, 0.0, 10.001204, 9.998872 
7.050634e+2, 2.654779e+2, -287183.53, -521926.56, -32418.857, -0.0056031547, -0.11820306, -282788.66, 55519.582, 0.0, 10.001231, 9.998148 
7.050693e+2, 2.7547663e+2, -251163.11, -448127.4, -36096.996, -0.062584296, -0.09213663, -244756.14, -4433.702, 0.000000016182126, 10.000781, 9.998195 
7.0507693e+2, 2.8547552e+2, -107365.055, -241701.8, -9159.13, 0.012190644, -0.060698237, -106743.46, 35590.81, 0.0000030357212, 10.000707, 9.998985 
7.050858e+2, 2.954743e+2, -5629.4297, -145222.42, -63120.49, 0.17952724, -0.12099409, 18679.053, 63025.117, 0.000031540207, 10.000729, 9.998965 
7.050916e+2, 3.054731e+2, 36501.12, -154913.81, -19951.086, -0.041046366, -0.10576379, 38558.5, 38558.5, 0.00012311795, 10.000978, 9.998421 
7.0509803e+2, 3.1547308e+2, 204806.95, 111652.91, -114040.766, -0.23189141, 0.013370048, 281415.63, 281415.63, 0.0002906225, 10.00125, 10.000123 
7.149618e+2, 1.2547308e+2, -1984101.1, -1804356.8, -10005.788, -0.11458466, -0.11020145, -1803801.5, -93447.445, 0.0, 9.997904, 10.000373 
7.1496856e+2, 1.3547403e+2, -1686009.3, -1683439.0, -12521.442, -0.23153883, -0.028710868, -1672137.0, -59792.207, 0.0, 9.999619, 9.999722 
7.149793e+2, 1.4547323e+2, -1583682.9, -1516189.9, -22715.186, 0.033152286, -0.09729038, -1509257.1, 5095.24, 0.0, 9.999367, 10.00029 
7.1498644e+2, 1.5547293e+2, -1658380.8, -1502225.4, 15368.819, -0.033197764, -0.19889759, -1500727.1, -84372.43, 0.0, 9.998188, 10.000285 
7.1499383e+2, 1.6547354e+2, -1529520.3, -1474627.3, 32747.557, -0.11340458, -0.12247511, -1459345.4, -140994.16, 0.0, 9.998792, 9.999503 
7.1500224e+2, 1.7547445e+2, -1133757.5, -1233563.3, 19259.361, -0.12728785, -0.012126275, -1130170.0, 90176.87, 0.0, 10.00083, 9.999505 
7.150091e+2, 1.8547517e+2, -1015388.0, -1061147.8, -99236.24, -0.12826765, 0.08423532, -936428.25, 185914.42, 0.0, 10.00067, 10.000103 
7.1501446e+2, 1.9547547e+2, -1202266.3, -1100115.4, -45863.066, -0.13025935, 0.07296243, -1082546.0, -58205.0, 0.0, 9.9987135, 10.000109 
7.150213e+2, 2.0547554e+2, -1118874.8, -984925.25, -4451.921, -0.0571572, 0.063165955, -984777.44, -58438.86, 0.0, 9.998513, 10.000318 
7.150295e+2, 2.154751e+2, -856338.25, -809392.5, -17014.465, 0.07872595, -0.046241026, -803874.56, 24464.115, 0.0, 9.999654, 10.000298 
7.150367e+2, 2.2547457e+2, -738458.06, -791468.4, -4724.36, 0.07000659, -0.08242895, -738040.3, -7698.7324, 0.0, 10.000169, 9.999501 
7.15043e+2, 2.3547368e+2, -657324.75, -707592.7, 23597.092, -0.06745241, -0.15161179, -647983.5, -15633.76, 0.0, 10.00008, 9.999451 
7.150507e+2, 2.4547353e+2, -568995.8, -711235.5, -9197.528, -0.050466925, -0.060034867, -568403.56, -34051.285, 0.0, 10.000428, 9.998587 
7.1505934e+2, 2.554737e+2, -378852.25, -567558.4, -7641.2744, 0.090011254, 0.06498923, -378543.34, 57809.76, 0.0, 10.001059, 9.998594 
7.1506596e+2, 2.65472e+2, -270716.28, -478774.03, -64976.938, 0.09574319, 0.04600294, -252091.14, 86278.78, 0.0, 10.001184, 9.998471 
7.150709e+2, 2.7546835e+2, -245639.25, -417993.47, -35401.242, -0.010953632, -0.19831286, -238651.23, 1752.1263, 0.000000020828322, 10.000693, 9.998449 
7.150774e+2, 2.854671e+2, -196486.02, -406537.75, -20552.834, -0.03980139, -0.13597965, -194493.88, -52075.547, 0.0000037854625, 10.000635, 9.997881 
7.1508485e+2, 2.9546762e+2, -97921.984, -307976.88, -39180.91, -0.032627977, 0.0910133, -90851.664, -46432.29, 0.000035842306, 10.0006275, 9.997887 
7.1509165e+2, 3.0546573e+2, 56805.61, -122702.36, -17173.375, -0.17567739, 0.08180565, 58433.805, 58433.805, 0.000135526, 10.001004, 9.998641 
7.151002e+2, 3.1546333e+2, 143482.86, -1105.7368, -75065.8, -0.21095918, -0.06381657, 175406.31, 175406.31, 0.00031586387, 10.001171, 9.999401 
7.2496015e+2, 1.2546499e+2, -1792281.8, -1710366.4, 59907.246, -0.122494206, -0.041473653, -1678754.0, 31682.074, 0.0, 9.999175, 10.000438 
7.249685e+2, 1.3546526e+2, -1771126.6, -1679910.0, 2808.6309, -0.14943995, -0.05419573, -1679823.6, -67391.78, 0.0, 9.998868, 10.000104 
7.2497874e+2, 1.4546445e+2, -1635688.3, -1550429.1, -15979.298, 0.064868875, -0.13844387, -1547532.6, -33092.977, 0.0, 9.999037, 10.000229 
7.2498524e+2, 1.5546519e+2, -1426865.1, -1391089.5, -67675.96, -0.039606772, -0.13122706, -1338977.3, 77456.1, 0.0, 9.999776, 10.000288 
7.2499293e+2, 1.6546607e+2, -1408149.1, -1397900.5, 6894.8364, -0.11142695, -0.036294002, -1394434.3, -76006.81, 0.0, 9.999507, 9.999708 
7.2500205e+2, 1.7546667e+2, -1479352.6, -1373741.5, 23014.281, -0.0955484, 0.020134544, -1368944.3, -148518.2, 0.0, 9.998323, 9.999762 
7.250092e+2, 1.8546751e+2, -1263537.9, -1143242.1, -83940.3, -0.0770447, 0.097578965, -1100124.6, 22294.877, 0.0, 9.998806, 10.000434 
7.2501457e+2, 1.9546825e+2, -899107.25, -917554.94, -108774.61, -0.076048926, 0.09679357, -799166.1, 225245.52, 0.0, 10.000641, 10.000427 
7.2502136e+2, 2.054681e+2, -812835.0, -898374.9, -52976.39, -0.0144675765, 0.079699785, -787518.5, 138892.58, 0.0, 10.000889, 9.999772 
7.250294e+2, 2.1546686e+2, -877517.56, -880227.25, -79159.52, 0.10825521, -0.05158413, -799701.3, 28719.02, 0.0, 9.999768, 9.9997635 
7.250367e+2, 2.2546603e+2, -800413.9, -808412.44, -30097.12, 0.08393848, -0.09730699, -774051.5, -43625.31, 0.0, 9.999686, 9.999623 
7.2504336e+2, 2.3546532e+2, -591844.56, -662183.0, -50918.527, -0.056574088, -0.16178292, -565130.25, 67301.516, 0.0, 10.000467, 9.99958 
7.250513e+2, 2.4546526e+2, -569029.06, -692449.94, -56456.04, -0.024384221, -0.07523308, -547100.6, -12667.148, 0.0, 10.0003605, 9.998736 
7.2506005e+2, 2.5546548e+2, -577414.25, -647066.5, -48349.12, 0.14036381, 0.039345417, -552654.3, -116219.38, 0.0, 9.999625, 9.9987335 
7.250671e+2, 2.6546422e+2, -412171.84, -520302.06, -45575.574, 0.14602602, 0.046877936, -395525.06, -57077.0, 0.0, 10.000113, 9.998696 
7.250725e+2, 2.7546138e+2, -92461.625, -322102.6, -56841.133, 0.040786266, -0.14024438, -79162.41, 161311.92, 0.000000011844985, 10.001645, 9.998653 
7.250789e+2, 2.8546023e+2, -30078.969, -342997.22, -6072.4473, -0.00762089, -0.06547224, -29961.172, 112526.89, 0.000004675658, 10.001871, 9.997712 
7.250857e+2, 2.9546028e+2, -51510.324, -302710.47, 8362.464, -0.02451847, 0.130361, -51232.246, -6738.8145, 0.000040333267, 10.001032, 9.997722 
7.250933e+2, 3.0545843e+2, 93348.88, -107955.76, 123934.3, -0.11225795, 0.13635573, 152354.31, 152354.31, 0.00014552829, 10.001277, 9.998622 
7.251031e+2, 3.15455e+2, 266974.28, 29698.178, -24142.451, -0.080344126, -0.112908185, 269405.8, 269405.8, 0.00033116215, 10.00215, 9.999149 
7.3495907e+2, 1.2545586e+2, -1757043.6, -1631204.6, 30636.627, -0.21481703, -0.032955483, -1624142.1, 86384.9, 0.0, 9.999159, 10.00098 
7.3496777e+2, 1.3545601e+2, -1716529.3, -1569162.1, -2823.8987, -0.1387194, -0.14623171, -1569108.0, 43412.953, 0.0, 9.998865, 10.00087 
7.3497736e+2, 1.454557e+2, -1708896.5, -1678497.9, -6596.9346, -0.009330159, -0.17475437, -1677128.0, -162602.66, 0.0, 9.998946, 9.999384 
7.349849e+2, 1.5545774e+2, -1487714.5, -1516408.9, -25524.402, -0.091906555, 0.046929516, -1472781.4, -56269.363, 0.0, 9.99977, 9.999431 
7.349926e+2, 1.6545849e+2, -1334657.9, -1240881.1, -53931.39, -0.12145956, 0.11383123, -1216305.4, 102201.266, 0.0, 9.99949, 10.000792 
7.3500115e+2, 1.754578e+2, -1418413.4, -1231398.8, -347.9267, -0.053290147, -0.064855106, -1231398.0, -10886.684, 0.0, 9.998251, 10.000778 
7.3500866e+2, 1.854581e+2, -1308330.5, -1204109.1, -27135.215, -0.04745225, -0.07185231, -1197467.4, -74959.58, 0.0, 9.998676, 10.000073 
7.3501515e+2, 1.9545889e+2, -946254.6, -981907.6, -31806.885, -0.113234825, -0.032750383, -927619.3, 96880.83, 0.0, 10.000507, 10.000044 
7.350218e+2, 2.0545891e+2, -859436.94, -963232.0, -111178.04, -0.07559891, 0.005320434, -788640.1, 137859.7, 0.0, 10.000746, 9.999396 
7.350288e+2, 2.1545796e+2, -928215.4, -940983.25, -103509.29, 0.04415513, -0.06058896, -830893.4, -2384.7493, 0.0, 9.999577, 9.999434 
7.350363e+2, 2.2545756e+2, -839774.4, -844254.06, -14494.692, 0.053482965, -0.039608095, -827347.5, -96835.34, 0.0, 9.999492, 9.999469 
7.350442e+2, 2.3545733e+2, -629377.94, -691874.6, -8486.967, -0.03606526, -0.041931927, -628245.9, 4268.303, 0.0, 10.000268, 9.999468 
7.350519e+2, 2.454565e+2, -539461.2, -609356.44, -97268.96, -0.027870223, -0.0606372, -471052.2, 63470.066, 0.0, 10.000259, 9.999357 
7.350592e+2, 2.5545484e+2, -556712.0, -572071.6, -57978.18, 0.05921524, -0.19730592, -505907.22, -69368.484, 0.0, 9.999485, 9.999318 
7.350664e+2, 2.6545483e+2, -420286.22, -513271.38, 1395.0494, 0.041251946, -0.09596601, -420265.28, -81724.87, 0.0, 10.000012, 9.998789 
7.3507357e+2, 2.754558e+2, -100607.375, -314524.5, 17901.928, -0.054539684, 0.09056419, -99119.58, 141414.31, 0.000000051096855, 10.001544, 9.998753 
7.350808e+2, 2.8545502e+2, 25791.352, -233072.75, -51787.816, -0.040866215, 0.15497565, 35767.457, 178310.28, 0.0000058850314, 10.0018835, 9.998465 
7.350878e+2, 2.9545245e+2, -12282.347, -212545.88, 64.498566, 0.042016774, 0.012591314, -12282.326, 32284.889, 0.000044056193, 10.000984, 9.998366 
7.3509616e+2, 3.0545127e+2, 67553.21, -160842.73, 150386.33, 0.010168831, 0.07220614, 142186.44, 142186.44, 0.00015023243, 10.001274, 9.998259 
7.351053e+2, 3.154477e+2, 257752.16, 36134.934, 43214.035, -0.14943647, -0.15153256, 265880.5, 265880.5, 0.0003329124, 10.002039, 9.999245 
7.4495894e+2, 1.2544706e+2, -1771004.0, -1702171.9, 132491.97, -0.14031996, -0.046044663, -1599699.0, 110912.81, 0.0, 9.999378, 10.000358 
7.449677e+2, 1.354473e+2, -1537532.3, -1512433.9, -57770.82, -0.0883873, -0.118382975, -1465864.9, 146743.63, 0.0, 10.000256, 10.000568 
7.449762e+2, 1.4544731e+2, -1544590.5, -1560684.5, -35503.66, -0.05472089, -0.11865004, -1516233.3, -1622.9513, 0.0, 9.999907, 9.999725 
7.449841e+2, 1.554493e+2, -1618568.3, -1536811.6, 589.3326, -0.08599467, 0.061064813, -1536807.4, -120211.85, 0.0, 9.998702, 9.999793 
7.44992e+2, 1.6545002e+2, -1459471.1, -1285175.3, 9374.558, -0.07895277, 0.10244104, -1284672.5, 33916.46, 0.0, 9.998574, 10.000927 
7.450005e+2, 1.7544936e+2, -1240600.1, -1125124.6, -36950.56, 0.009985024, -0.090918295, -1114313.1, 106280.0, 0.0, 9.999391, 10.000954 
7.450082e+2, 1.8544966e+2, -1185491.5, -1137515.3, -17102.09, 0.008048003, -0.11008622, -1132043.0, -9454.242, 0.0, 9.999472, 10.000158 
7.45015e+2, 1.9545041e+2, -1179700.5, -1091641.3, -12698.142, -0.08393556, -0.08184771, -1089846.8, -65265.875, 0.0, 9.998874, 10.000088 
7.450221e+2, 2.0545028e+2, -1069877.6, -1095328.1, -59082.766, -0.04843932, -0.04625959, -1022165.25, -95582.81, 0.0, 9.999426, 9.999113 
7.450294e+2, 2.1544915e+2, -749575.1, -887980.44, -79194.02, 0.092217386, -0.103393294, -713607.9, 114986.805, 0.0, 10.000939, 9.999138 
7.45037e+2, 2.2544906e+2, -615266.75, -736930.44, 33321.402, 0.11052213, -0.040223226, -606738.44, 123858.71, 0.0, 10.001042, 9.999454 
7.450448e+2, 2.3544946e+2, -677283.2, -719717.5, 18159.31, 0.018953284, 0.023425179, -670573.1, -37978.34, 0.0, 9.99994, 9.999441 
7.450522e+2, 2.454488e+2, -566445.75, -600907.06, -41112.676, 0.0062427735, 0.01300777, -539099.0, -4497.4077, 0.0, 9.999979, 9.999558 
7.4505943e+2, 2.5544697e+2, -305147.44, -425158.28, -63052.523, 0.06650641, -0.15992111, -278111.1, 158507.64, 0.0, 10.0011015, 9.99955 
7.450668e+2, 2.6544696e+2, -241834.38, -414505.72, 19748.412, 0.03669478, -0.074611686, -239604.55, 99015.34, 0.0, 10.001187, 9.998903 
7.450744e+2, 2.7544817e+2, -258151.13, -368828.16, 6653.5234, -0.05515707, 0.12170602, -257752.58, -17141.467, 0.00000017449423, 10.000394, 9.998923 
7.450821e+2, 2.854473e+2, -130007.94, -265646.88, -55443.11, -0.026552198, 0.15190975, -110229.36, 32389.814, 0.0000070145306, 10.000634, 9.998844 
7.450897e+2, 2.954444e+2, 127362.93, -103097.51, -64889.62, 0.105496675, -0.064564876, 144377.44, 189021.63, 0.00004543542, 10.001761, 9.998747 
7.4509895e+2, 3.0544347e+2, 134110.06, -193267.69, 103311.945, 0.14304109, 0.032641817, 163986.19, 163986.19, 0.00014809403, 10.002006, 9.997676 
7.4510753e+2, 3.1544012e+2, 137136.48, -7657.745, -70814.17, -0.06862662, -0.11113074, 166011.23, 166011.23, 0.00032280377, 10.001161, 9.999349 
7.549589e+2, 1.2543842e+2, -1905333.8, -1968729.6, 112772.31, -0.14844178, -0.114466816, -1819889.3, -109197.336, 0.0, 9.999326, 9.998557 
7.549679e+2, 1.3543905e+2, -1636237.1, -1725402.9, -15017.132, -0.12192703, 0.011441887, -1633776.0, -21080.477, 0.0, 10.000278, 9.9991045 
7.549751e+2, 1.4543924e+2, -1442024.4, -1337354.0, -100414.76, -0.1987303, 0.018504826, -1276454.5, 238240.77, 0.0, 9.99987, 10.001273 
7.5498235e+2, 1.5544003e+2, -1525563.3, -1329208.8, -29047.557, -0.16400187, -0.07142027, -1325001.8, 91680.45, 0.0, 9.998644, 10.001246 
7.5499046e+2, 1.6544078e+2, -1520165.5, -1399062.3, 22748.44, -0.11916959, -0.060956974, -1394930.1, -76256.13, 0.0, 9.998518, 10.000174 
7.5499976e+2, 1.7544128e+2, -1299226.8, -1236040.1, 5974.4624, -0.03847322, -0.05822097, -1235480.1, -14808.337, 0.0, 9.999343, 10.0002165 
7.550075e+2, 1.8544213e+2, -1153536.1, -1050669.1, -56714.207, -0.03716746, -0.018515201, -1025539.5, 97123.76, 0.0, 9.999384, 10.000798 
7.550139e+2, 1.954429e+2, -1154459.9, -1007898.1, -17240.895, -0.11483295, -0.05266352, -1005897.3, 18755.938, 0.0, 9.998743, 10.000725 
7.550218e+2, 2.0544237e+2, -1114010.4, -1149102.1, -16606.014, -0.05183146, -0.07395637, -1107398.1, -180739.95, 0.0, 9.99926, 9.998831 
7.55031e+2, 2.1544051e+2, -797545.5, -936380.6, -13383.308, 0.12721534, -0.1753515, -796267.1, 32410.813, 0.0, 10.000729, 9.998906 
7.5503856e+2, 2.2544056e+2, -633670.2, -732893.9, -21002.559, 0.13350867, -0.090293236, -629407.7, 101272.73, 0.0, 10.000859, 9.999572 
7.5504464e+2, 2.3544188e+2, -700349.8, -719473.1, -3566.9858, -0.014387218, 0.054963138, -699706.1, -67034.414, 0.0, 9.999739, 9.999539 
7.5505203e+2, 2.4544236e+2, -602477.3, -645499.3, -13043.534, -0.045793273, 0.1675543, -598831.7, -64162.39, 0.0, 9.999847, 9.999315 
7.5506043e+2, 2.5544178e+2, -338849.47, -468034.66, -9980.262, 0.020154063, 0.14162241, -338083.0, 98592.92, 0.0, 10.000984, 9.999311 
7.5506794e+2, 2.6544055e+2, -237832.66, -392203.38, -23988.873, -0.0006585006, 0.10758485, -234190.75, 104496.45, 0.0, 10.001128, 9.999084 
7.5507474e+2, 2.7543858e+2, -263572.3, -354884.97, -2257.7231, -0.09500658, -0.034496464, -263516.53, -22811.287, 0.0000002213921, 10.000283, 9.999073 
7.550825e+2, 2.8543723e+2, -138150.22, -271416.84, -25164.6, -0.08169074, -0.05787822, -133556.73, 9159.325, 0.000006961638, 10.000581, 9.998834 
7.5509095e+2, 2.9543602e+2, 118486.445, -108269.71, -3877.055, 0.005201355, -0.09810588, 118552.71, 163277.31, 0.00004401986, 10.001693, 9.998751 
7.551012e+2, 3.0543485e+2, 69782.58, -307562.16, 64344.15, 0.1359538, 0.009376238, 80452.71, 80452.71, 0.0001416952, 10.00194, 9.996911 
7.551088e+2, 3.154327e+2, 128710.14, -862.6062, -40005.81, -0.13757473, 0.057771947, 140066.66, 140066.66, 0.0003069929, 10.001067, 9.999432 
7.649592e+2, 1.2542985e+2, -1852442.4, -1927669.9, 114690.88, -0.043715384, -0.155002, -1769354.9, -58580.082, 0.00000000032551553, 9.999558, 9.998742 
7.649681e+2, 1.3543105e+2, -1773306.5, -1770795.6, 88090.54, -0.07336259, 0.004692449, -1683951.6, -71178.6, 0.0, 9.999225, 9.999303 
7.649745e+2, 1.4543156e+2, -1561401.0, -1421219.8, 16331.398, -0.19926433, 0.04439825, -1419342.3, 95427.07, 0.0, 9.999135, 10.001068 
7.6498204e+2, 1.5543136e+2, -1388611.3, -1285933.8, -71884.96, -0.09711284, -0.12698913, -1248937.3, 167828.25, 0.0, 9.999656, 10.001072 
7.6499003e+2, 1.6543196e+2, -1395707.8, -1346711.6, -3902.4043, -0.04982792, -0.11975185, -1346402.8, -27643.865, 0.0, 9.999411, 10.000097 
7.649987e+2, 1.7543298e+2, -1430495.5, -1308909.5, 2485.239, -0.029147627, -0.05767052, -1308858.8, -88106.18, 0.0, 9.998485, 10.000128 
7.6500666e+2, 1.8543409e+2, -1256604.8, -1102923.5, -21635.959, -0.013284256, 0.0103461435, -1099935.6, 22807.361, 0.0, 9.998698, 10.000762 
7.650141e+2, 1.9543482e+2, -989072.7, -932244.8, -63262.465, -0.012765953, -0.020598575, -891308.25, 133426.42, 0.0, 9.999893, 10.000691 
7.650224e+2, 2.0543462e+2, -922122.9, -1006305.7, -13392.264, 0.03720832, -0.032645725, -920043.7, 6692.6006, 0.0, 10.000373, 9.999272 
7.650314e+2, 2.1543323e+2, -837978.56, -916750.56, 14688.642, 0.122404754, -0.13018823, -835328.7, -6579.0327, 0.0, 10.000269, 9.99927 
7.6503885e+2, 2.2543305e+2, -754104.2, -838161.06, -10201.493, 0.11154327, -0.06446481, -752883.8, -22129.08, 0.0, 10.000245, 9.999144 
7.6504487e+2, 2.3543361e+2, -645722.8, -734889.94, -62197.07, 0.014768695, 0.048777606, -613780.75, 18974.643, 0.0, 10.000308, 9.99915 
7.650523e+2, 2.4543406e+2, -546370.5, -602620.06, -13162.227, -0.0051628416, 0.16852991, -543442.94, -8689.2295, 0.0, 10.000163, 9.999456 
7.650609e+2, 2.5543413e+2, -505139.78, -533803.1, -7301.334, 0.03828517, 0.19475466, -503387.13, -66634.1, 0.0, 9.999779, 9.999441 
7.650686e+2, 2.6543292e+2, -398066.38, -463207.66, -1822.608, 0.018397199, 0.15399128, -398015.4, -59252.023, 0.0, 10.000003, 9.99914 
7.650756e+2, 2.754304e+2, -197827.92, -318857.75, -21777.037, -0.044894587, -0.043906905, -194028.8, 46756.94, 0.00000016204108, 10.000717, 9.999115 
7.650837e+2, 2.8542897e+2, -75347.18, -277752.75, -1776.6482, -0.037671577, -0.060503613, -75331.586, 67466.27, 0.000006290961, 10.001171, 9.998499 
7.6509255e+2, 2.954282e+2, 43545.742, -167247.06, -38471.316, 0.02311657, -0.033593394, 50347.574, 95151.61, 0.000041719115, 10.001307, 9.99851 
7.651032e+2, 3.0542624e+2, 21131.99, -290124.25, 54469.98, 0.18241858, -0.009257978, 30388.953, 30388.953, 0.00013461517, 10.001409, 9.997303 
7.6511043e+2, 3.154249e+2, 134074.39, 39687.133, 9034.453, -0.060983244, 0.08464358, 134931.36, 134931.36, 0.00029005748, 10.000922, 9.999801 
7.7495897e+2, 1.2542133e+2, -1703846.4, -1602060.8, 8014.655, -0.10611453, -0.17041983, -1601433.5, 109426.984, 0.0000000023621072, 9.999495, 10.001007 
7.749675e+2, 1.3542324e+2, -1646422.4, -1504280.9, 81294.12, -0.09331621, -0.13222933, -1467371.1, 145470.13, 0.0, 9.999212, 10.001142 
7.7497387e+2, 1.4542425e+2, -1686580.3, -1676277.8, 14094.32, -0.21736537, -0.045611545, -1666422.8, -151589.78, 0.0, 9.999111, 9.99933 
7.7498287e+2, 1.5542339e+2, -1507725.0, -1531547.6, -37182.344, -0.019486837, -0.10260953, -1480592.6, -63748.45, 0.0, 9.999647, 9.999391 
7.749904e+2, 1.6542369e+2, -1361403.8, -1258897.9, -55648.73, 0.007648557, -0.07572524, -1234496.0, 84346.64, 0.0, 9.999347, 10.0007305 
7.749969e+2, 1.7542459e+2, -1396862.9, -1224562.5, -12342.792, -0.08682951, -0.08956537, -1223682.9, -2848.817, 0.0, 9.998427, 10.000733 
7.750053e+2, 1.854256e+2, -1322116.6, -1219056.9, 10206.984, -0.048403986, -0.02111747, -1218055.8, -95228.95, 0.0, 9.998604, 10.000018 
7.7501535e+2, 1.9542637e+2, -1053952.3, -1038002.8, -5202.4146, 0.0917005, 0.026920442, -1036455.9, -11632.278, 0.0, 9.999764, 10.000031 
7.750235e+2, 2.0542711e+2, -868205.0, -851280.5, -32869.996, 0.08378039, 0.08114334, -825800.94, 101015.23, 0.0, 10.000192, 10.000422 
7.750302e+2, 2.1542743e+2, -794239.56, -776835.6, 23264.525, -0.04407136, 0.041414853, -760698.9, 68109.72, 0.0, 10.000066, 10.000324 
7.750374e+2, 2.2542663e+2, -851713.75, -998700.7, -23310.56, -0.07468828, 0.048615284, -848105.5, -117286.914, 0.0, 10.000059, 9.998137 
7.7504504e+2, 2.3542455e+2, -734440.25, -882555.8, -45953.49, -0.027419161, -0.005175935, -721341.4, -88494.484, 0.0, 10.000143, 9.998221 
7.750527e+2, 2.4542385e+2, -529362.75, -530527.75, -41377.285, -0.0031432398, 0.016639452, -488563.88, 46291.324, 0.0, 10.000012, 10.000023 
7.7506053e+2, 2.5542417e+2, -489513.75, -464931.2, -3896.5198, -0.0026773755, 0.011406001, -464328.34, -27479.633, 0.0, 9.999628, 9.999985 
7.750685e+2, 2.654242e+2, -419821.78, -488562.7, 11784.689, -0.018492388, 0.07211707, -417857.56, -79010.16, 0.0, 9.999919, 9.999008 
7.750767e+2, 2.754235e+2, -220587.52, -347208.7, 19723.31, -0.049535632, 0.07429408, -217586.42, 23268.568, 0.00000014054619, 10.000632, 9.998966 
7.750852e+2, 2.8542235e+2, -130480.69, -371735.3, -9712.599, -0.037387464, 0.12383314, -130090.3, 12776.595, 0.0000059856334, 10.001089, 9.997888 
7.7509403e+2, 2.9542062e+2, -4241.5083, -252319.52, -12498.467, 0.004815245, 0.115669936, -3613.411, 41270.9, 0.0000396548, 10.001241, 9.997957 
7.751047e+2, 3.054176e+2, 122108.32, -63452.797, 29638.479, 0.15956081, -0.023045745, 126727.305, 126727.305, 0.00012692052, 10.001347, 9.99889 
7.7511144e+2, 3.1541687e+2, 155035.81, 108713.87, 73893.28, -0.12488492, -0.015466067, 209312.88, 209312.88, 0.00027215088, 10.00081, 10.000336 
7.849595e+2, 1.254141e+2, -1672285.5, -1545391.9, 64053.75, 0.00854283, -0.12662518, -1518681.3, 192252.67, 0.0000000040597263, 9.999572, 10.00134 
7.849667e+2, 1.3541546e+2, -1614169.1, -1477066.8, -31333.277, -0.08533056, -0.1528834, -1470245.4, 142672.7, 0.0, 9.999419, 10.001207 
7.849729e+2, 1.4541645e+2, -1644788.6, -1652810.9, -35057.598, -0.22778596, -0.06951444, -1613513.5, -98604.66, 0.0, 9.9993925, 9.99935 
7.8498274e+2, 1.5541592e+2, -1515165.3, -1536069.3, 10707.235, 0.017381623, -0.093772665, -1510654.4, -93737.24, 0.0, 9.999609, 9.999373 
7.849902e+2, 1.6541621e+2, -1363814.1, -1281279.6, 13879.269, 0.06031593, -0.056988545, -1279008.1, 39907.918, 0.0, 9.999421, 10.000534 
7.8499573e+2, 1.7541692e+2, -1357467.1, -1226286.5, -38741.05, -0.052810136, -0.07312728, -1215699.8, 5210.528, 0.0, 9.998796, 10.000535 
7.8500414e+2, 1.8541758e+2, -1300639.0, -1224951.8, 66117.234, -0.028413739, -0.02123487, -1186613.9, -63707.625, 0.0, 9.998822, 9.999869 
7.8501487e+2, 1.9541791e+2, -1137094.9, -1090921.8, 66395.52, 0.10203798, -0.005832531, -1043713.56, -18806.67, 0.0, 9.999263, 9.999899 
7.850235e+2, 2.0541878e+2, -930418.3, -884451.4, 21469.426, 0.092814036, 0.0706641, -875983.7, 50914.945, 0.0, 9.999765, 10.000406 
7.850304e+2, 2.154198e+2, -775514.0, -768179.25, -37150.01, -0.027707115, 0.10315683, -734516.0, 94370.01, 0.0, 10.000195, 10.000325 
7.850379e+2, 2.2541912e+2, -766644.3, -944539.06, -47980.508, -0.050685693, 0.114502974, -754528.5, -23633.547, 0.0, 10.000585, 9.998251 
7.8504574e+2, 2.3541662e+2, -617593.56, -816706.06, -18261.668, 0.0014352283, 0.011915777, -615932.56, 16992.828, 0.0, 10.000904, 9.998308 
7.850533e+2, 2.454157e+2, -419576.34, -484838.1, 6265.9546, 0.018103352, 0.0078074713, -418980.2, 115955.03, 0.0, 10.000803, 9.999949 
7.850605e+2, 2.5541577e+2, -387372.2, -426550.22, -33319.44, 0.0045765745, -0.012602953, -368310.03, 68620.336, 0.0, 10.00037, 9.999889 
7.850689e+2, 2.6541576e+2, -352726.72, -492158.06, 21326.184, 0.005503696, 0.065886125, -349537.78, -10607.978, 0.0, 10.000543, 9.998677 
7.8507817e+2, 2.7541524e+2, -158320.64, -351464.13, -16485.48, 0.025227036, 0.11861655, -156923.66, 84013.35, 0.0000001311964, 10.001213, 9.99865 
7.850868e+2, 2.85414e+2, -103384.49, -339736.16, -23947.244, 0.017897096, 0.16330591, -100982.555, 41967.48, 0.0000058891046, 10.001189, 9.998067 
7.850948e+2, 2.9541203e+2, -105814.0, -285015.5, -2651.3818, -0.00084844074, 0.12194374, -105774.78, -60806.484, 0.000037489564, 10.000465, 9.998115 
7.8510535e+2, 3.054093e+2, 54845.89, -40789.652, 74450.67, 0.14599599, -0.024341563, 95512.25, 95512.25, 0.00011865352, 10.000631, 9.99939 
7.85113e+2, 3.1540924e+2, 207615.14, 129910.18, 11713.426, -0.055183206, -0.009412161, 209342.45, 209342.45, 0.00025448482, 10.00118, 10.000297 
7.949596e+2, 1.2540877e+2, -1773935.9, -1785453.4, -18985.041, -0.015837764, 0.013404061, -1759855.4, -48866.344, 0.0000000034592607, 9.999679, 9.999649 
7.949654e+2, 1.3540776e+2, -1725243.9, -1726410.3, -27198.438, -0.19844694, -0.06378457, -1698622.4, -85619.71, 0.0, 9.999485, 9.999469 
7.949713e+2, 1.4540826e+2, -1530737.9, -1404566.6, -48410.207, -0.3721376, -0.033577345, -1388132.8, 126863.64, 0.0, 9.99935, 10.001069 
7.949813e+2, 1.5540898e+2, -1401646.6, -1296456.5, 34629.223, -0.12634231, -0.11331736, -1286079.9, 130904.33, 0.0, 9.999596, 10.0010195 
7.94989e+2, 1.6540962e+2, -1442369.3, -1438407.6, -24761.105, -0.03439922, -0.06584017, -1415548.3, -96569.66, 0.0, 9.999387, 9.999477 
7.9499483e+2, 1.7540999e+2, -1427597.5, -1372943.9, -45661.633, -0.062810436, -0.008517926, -1347056.6, -126075.97, 0.0, 9.998788, 9.999537 
7.950027e+2, 1.8541002e+2, -1289563.0, -1171839.1, 68304.016, -0.086098865, 0.0065741497, -1140533.6, -17552.232, 0.0, 9.998701, 10.000287 
7.950123e+2, 1.9540937e+2, -1125305.1, -1040286.25, 97232.33, -0.11769913, -0.120268166, -976677.0, 48307.734, 0.0, 9.999156, 10.000294 
7.950219e+2, 2.0540965e+2, -1031840.7, -1058571.5, 22069.809, -0.06786618, -0.065362245, -1019404.75, -92421.35, 0.0, 9.999608, 9.999288 
7.9503155e+2, 2.1541032e+2, -875124.8, -932412.75, -6799.721, 0.043399606, 0.043160185, -874328.8, -45346.95, 0.0, 10.000009, 9.999289 
7.950398e+2, 2.254105e+2, -715242.44, -788294.5, -47341.97, 0.0560005, 0.12978551, -691973.7, 39009.605, 0.0, 10.000373, 9.999426 
7.950467e+2, 2.3540998e+2, -564539.5, -668752.94, 9606.17, -0.023770172, 0.10487622, -563661.44, 69328.71, 0.0, 10.000738, 9.999405 
7.950535e+2, 2.4540956e+2, -490966.56, -598514.44, -24335.94, -0.06938809, 0.13749212, -485716.16, 49277.688, 0.0, 10.000657, 9.999239 
7.950603e+2, 2.5540888e+2, -458346.4, -542046.44, -32470.771, -0.08461574, 0.11456082, -447226.88, -10228.188, 0.0, 10.000233, 9.999165 
7.950692e+2, 2.6540768e+2, -395433.6, -566571.6, 34410.105, -0.04776893, 0.13379252, -388774.03, -49763.55, 0.0, 10.000475, 9.9982 
7.950799e+2, 2.7540576e+2, -202327.11, -424728.8, 27780.223, 0.037517533, 0.093421206, -198909.6, 42121.395, 0.000000103459534, 10.001129, 9.998189 
7.950881e+2, 2.854041e+2, -46572.33, -209299.8, -63535.484, 0.00092343224, 0.07402752, -24704.21, 118341.27, 0.0000054454867, 10.001136, 9.998989 
7.950941e+2, 2.9540253e+2, -57955.824, -168024.42, -5161.686, -0.16298974, -0.022964578, -57714.297, -12658.175, 0.00003447301, 10.000386, 9.99896 
7.951048e+2, 3.0540138e+2, 9507.281, -124683.12, 91489.09, -0.007985574, -0.018758843, 55867.008, 55867.008, 0.0001104858, 10.000582, 9.9988365 
7.9511434e+2, 3.154006e+2, 134381.42, 2133.8257, 107427.22, -0.120187245, -0.0217719, 194404.22, 194404.22, 0.000240168, 10.001065, 9.999476 
8.049592e+2, 1.2540226e+2, -1909531.5, -1854480.3, -10820.398, 0.03310323, 0.04631583, -1852429.9, -141374.03, 0.0000000057252847, 9.998788, 9.999618 
8.049651e+2, 1.3540117e+2, -1766961.4, -1776341.3, 72451.23, -0.15648866, -0.005825885, -1699048.4, -85977.92, 0.0, 9.99932, 9.999229 
8.0497134e+2, 1.4540133e+2, -1545416.9, -1394496.6, 72098.984, -0.28758824, -0.005576557, -1365589.6, 149477.8, 0.0, 9.9991865, 10.001216 
8.0498075e+2, 1.5540195e+2, -1517509.0, -1344431.6, -7293.278, -0.085485674, -0.10342817, -1344124.9, 72930.1, 0.0, 9.998766, 10.001096 
8.0498844e+2, 1.6540252e+2, -1476239.8, -1483919.6, -43842.84, -0.013536018, -0.052826773, -1436069.0, -117018.96, 0.0, 9.999292, 9.999214 
8.049947e+2, 1.7540285e+2, -1177040.4, -1285301.3, -38836.7, -0.038916036, 0.032883517, -1164549.5, 56503.668, 0.0, 10.000659, 9.999245 
8.0500257e+2, 1.8540268e+2, -997533.6, -1035214.44, 82825.73, -0.061654553, 0.04534354, -931432.5, 191622.42, 0.0, 10.000734, 10.000246 
8.050118e+2, 1.9540173e+2, -1067374.0, -1026075.25, 42780.004, -0.093484804, -0.10309541, -999221.75, 25837.11, 0.0, 9.999615, 10.00018 
8.050216e+2, 2.0540139e+2, -1075150.0, -1129918.8, 34972.47, -0.04684234, -0.078504145, -1058116.1, -131052.63, 0.0, 9.99953, 9.998838 
8.0503184e+2, 2.1540125e+2, -871375.56, -975985.6, 23011.508, 0.06613537, -0.007597715, -866537.44, -37465.168, 0.0, 10.000237, 9.998876 
8.050402e+2, 2.2540152e+2, -708049.9, -736727.25, -24434.412, 0.07564979, 0.08750403, -694057.7, 37014.504, 0.0, 10.000224, 9.999841 
8.050468e+2, 2.3540193e+2, -716779.9, -696969.94, -51820.39, -0.010572939, 0.11404617, -654116.4, -21049.09, 0.0, 9.999518, 9.999785 
8.0505383e+2, 2.4540155e+2, -612540.56, -717564.2, -47723.38, -0.06140568, 0.15819836, -594094.56, -59024.133, 0.0, 10.000057, 9.998724 
8.050613e+2, 2.554001e+2, -292853.1, -516474.13, -70233.68, -0.070511445, 0.10946895, -272624.34, 164459.88, 0.0, 10.00159, 9.998697 
8.0507046e+2, 2.653984e+2, -225054.28, -487667.4, 23031.158, -0.023307517, 0.10096912, -223049.75, 116050.91, 0.0, 10.001641, 9.998194 
8.0508107e+2, 2.753961e+2, -298407.4, -468676.66, 25802.086, 0.0823941, 0.023443274, -294583.34, -53460.72, 0.00000004701224, 10.000437, 9.998232 
8.0508935e+2, 2.8539446e+2, -127519.12, -246095.02, -28690.74, 0.045031086, -0.0008504672, -120941.91, 22194.564, 0.000004093495, 10.000565, 9.999013 
8.0509543e+2, 2.9539308e+2, 164488.11, -57852.184, -71072.51, -0.12414102, -0.08390879, 185265.31, 230411.19, 0.000029631305, 10.001902, 9.998988 
8.051059e+2, 3.0539235e+2, 144343.81, -94234.49, 2795.6538, 0.004177542, -0.019788451, 144376.56, 144376.56, 0.00010221737, 10.001663, 9.998533 
8.051156e+2, 3.1539106e+2, -68248.336, -98248.45, 11952.655, -0.016473096, -0.048358984, -64068.516, -64068.516, 0.00023173698, 9.999704, 9.999443 
8.14957e+2, 1.2539493e+2, -1794908.3, -1635455.6, -48012.78, -0.13326332, 0.004928357, -1622114.8, 89015.72, 0.000000004999778, 9.998858, 10.00109 
8.149652e+2, 1.353959e+2, -1673231.3, -1590793.4, 101556.586, -0.1108654, 0.019274998, -1522409.8, 90709.98, 0.0, 9.999364, 10.000477 
8.1497246e+2, 1.4539583e+2, -1654179.6, -1626552.1, 36660.75, -0.13371262, 0.021796407, -1601189.0, -86069.28, 0.0, 9.9992075, 9.999619 
8.1498075e+2, 1.5539494e+2, -1621550.6, -1558534.0, -5724.161, 0.0012910265, -0.067168355, -1558018.3, -140889.95, 0.0, 9.998756, 9.999633 
8.149881e+2, 1.65395e+2, -1456956.5, -1427901.3, -8995.475, -0.008542183, -0.0191399, -1425341.8, -106212.2, 0.0, 9.999228, 9.999625 
8.149949e+2, 1.7539553e+2, -1154655.6, -1226994.0, 23929.123, -0.11809263, 0.04107665, -1147456.5, 73670.98, 0.0, 10.000614, 9.99966 
8.150033e+2, 1.8539564e+2, -1052254.1, -1132679.6, 27273.48, -0.08947945, 0.09270298, -1043877.75, 79248.26, 0.0, 10.000655, 9.9996195 
8.15013e+2, 1.9539507e+2, -1123134.1, -1121824.3, 19283.176, 0.033797782, 0.04293613, -1103184.9, -78056.69, 0.0, 9.999518, 9.999572 
8.150222e+2, 2.0539413e+2, -1094759.3, -1128905.6, 46409.36, 0.03174966, 0.03270965, -1062382.3, -135244.42, 0.0, 9.99935, 9.998934 
8.150309e+2, 2.1539257e+2, -890124.56, -972445.1, 63271.035, -0.08195605, -0.047883157, -855803.75, -26647.014, 0.0, 10.000052, 9.998989 
8.150387e+2, 2.2539221e+2, -760021.94, -796256.3, -66786.586, -0.11981889, -0.007962954, -708938.8, 22222.557, 0.0, 10.00002, 9.999531 
8.150457e+2, 2.3539247e+2, -767022.56, -755781.06, -60443.08, -0.10056378, 0.035267767, -700697.94, -67540.61, 0.0, 9.999323, 9.999475 
8.150539e+2, 2.4539164e+2, -660662.06, -775005.9, -4777.768, -0.086920835, 0.064563915, -660462.75, -125297.43, 0.0, 9.999879, 9.998416 
8.150631e+2, 2.5538957e+2, -335782.28, -569657.1, -1514.5115, -0.07855293, -0.015604378, -335772.47, 101413.84, 0.0, 10.001436, 9.998406 
8.150721e+2, 2.6538798e+2, -199618.66, -410609.72, -36055.5, -0.04006951, -0.028221928, -193627.38, 145572.81, 0.0, 10.001543, 9.998768 
8.150811e+2, 2.753864e+2, -288626.25, -408343.88, 3037.278, 0.01858004, -0.09017267, -288549.22, -47337.453, 0.000000004527389, 10.000276, 9.998723 
8.150899e+2, 2.8538504e+2, -194707.23, -373837.1, 8165.6484, 0.01230815, -0.061732326, -194335.77, -51112.305, 0.0000024308686, 10.000507, 9.998165 
8.150985e+2, 2.9538378e+2, 82385.94, -198663.19, -2141.4785, -0.05122319, -0.045261826, 82402.26, 127639.086, 0.00002455122, 10.001777, 9.998082 
8.1510824e+2, 3.0538222e+2, 136932.17, -105896.16, -79496.836, 0.040580247, -0.017148498, 160642.6, 160642.6, 0.00009685274, 10.001649, 9.998457 
8.151154e+2, 3.1537965e+2, -39954.34, 25.9248, 12737.81, -0.072772, -0.16598494, 3739.3193, 3739.3193, 0.00023260372, 9.999547, 10.000193 
8.249561e+2, 1.2538758e+2, -1808348.8, -1605770.3, -25034.023, -0.078537166, -0.013653514, -1602722.5, 108481.13, 0.0000000017683296, 9.998603, 10.0014105 
8.2496494e+2, 1.353892e+2, -1756908.5, -1608882.5, -6987.89, -0.027620135, 0.03439425, -1608553.4, 4632.061, 0.0, 9.99868, 10.000686 
8.249727e+2, 1.4538905e+2, -1690438.0, -1669082.0, -14948.816, -0.013524336, 0.03105029, -1661389.1, -146202.52, 0.0, 9.999074, 9.999384 
8.249801e+2, 1.553883e+2, -1459116.8, -1506775.5, 8287.611, 0.0019450894, -0.01997831, -1457716.8, -40521.19, 0.0, 9.999997, 9.999378 
8.249877e+2, 1.6538808e+2, -1307600.9, -1372875.1, 70542.44, -0.015622639, 0.018164515, -1262511.5, 56687.895, 0.0, 10.000306, 9.999486 
8.2499593e+2, 1.75388e+2, -1258287.5, -1300751.8, 26793.62, -0.03428905, 0.030655025, -1245333.4, -24131.521, 0.0, 9.999978, 9.999471 
8.2500446e+2, 1.8538783e+2, -1162257.8, -1215556.4, 20650.863, 0.0032328505, 0.078307614, -1155193.0, -31990.12, 0.0, 10.000026, 9.999351 
8.2501316e+2, 1.9538726e+2, -1018845.5, -1100498.1, 8444.5, 0.06649498, 0.05571423, -1017981.3, 7224.832, 0.0, 10.00036, 9.999307 
8.250218e+2, 2.0538642e+2, -919232.25, -1012842.8, 108731.32, 0.015088011, 0.052985683, -847660.0, 79553.86, 0.0, 10.000426, 9.999197 
8.2503045e+2, 2.153851e+2, -850742.9, -929569.2, 103821.94, -0.12859878, -0.028940002, -779104.75, 50123.297, 0.0, 10.000222, 9.999198 
8.250386e+2, 2.2538435e+2, -706229.2, -828429.4, -4434.6333, -0.14749125, -0.0113300625, -706068.5, 25167.219, 0.0, 10.000617, 9.9990425 
8.250464e+2, 2.3538369e+2, -486512.63, -676779.9, -41201.926, -0.057837814, -0.010000536, -477973.66, 155267.95, 0.0, 10.0014715, 9.998999 
8.250551e+2, 2.453825e+2, -440877.8, -678637.1, 58217.37, -0.019032726, 0.0132945385, -427388.16, 107865.47, 0.0, 10.001437, 9.998321 
8.2506454e+2, 2.553806e+2, -453520.9, -633458.1, 45221.758, -0.028516961, -0.039962273, -442795.13, -5521.5566, 0.0, 10.000676, 9.998327 
8.250735e+2, 2.6537913e+2, -298946.47, -467097.6, 2922.1367, -0.0185684, -0.035989236, -298895.72, 40390.773, 0.0, 10.000904, 9.998681 
8.2508206e+2, 2.753775e+2, -53465.027, -302310.03, -37251.23, 0.016337108, -0.09751067, -48008.305, 193289.45, 0.0, 10.001931, 9.998642 
8.250911e+2, 2.8537616e+2, -48033.867, -350774.78, 1876.0826, 0.029771244, -0.041576173, -48022.242, 95287.91, 0.000001518397, 10.00173, 9.997734 
8.251004e+2, 2.953748e+2, -138360.4, -347391.6, -11996.6455, 0.039157867, 0.010101995, -137674.16, -92347.91, 0.000022026383, 10.000434, 9.997705 
8.2510954e+2, 3.0537257e+2, -99611.67, -210030.8, -56324.28, 0.101314165, -0.01907122, -75950.96, -75950.96, 0.00009707927, 9.999994, 9.9985285 
8.251163e+2, 3.1536952e+2, 66179.4, 83129.805, -30.29108, 0.042842798, -0.23012349, 83129.86, 83129.86, 0.00024343749, 10.000125, 10.000478 
8.3495533e+2, 1.2538074e+2, -1877923.8, -1737354.9, -61760.043, -0.09283994, 0.03352354, -1714075.4, -2804.9788, 0.000000000051048894, 9.998552, 10.000533 
8.3496386e+2, 1.3538122e+2, -1796261.6, -1693765.0, 10555.842, -0.037349448, 0.043724455, -1692689.3, -79422.96, 0.0, 9.998698, 10.000092 
8.3497155e+2, 1.453811e+2, -1627470.1, -1531517.5, 1001.2185, -0.07557287, 0.01888316, -1531507.1, -16239.929, 0.0, 9.999046, 10.0003395 
8.349781e+2, 1.5538202e+2, -1395263.3, -1369547.4, 55853.395, -0.23627225, 0.033821274, -1325091.1, 92165.516, 0.0, 9.999978, 10.000325 
8.3498675e+2, 1.6538174e+2, -1368750.9, -1477472.0, 42122.28, -0.1740555, 0.056743577, -1354341.0, -35081.586, 0.0, 10.000215, 9.998815 
8.349975e+2, 1.7538035e+2, -1310639.9, -1394849.3, 32536.32, 0.09001071, 0.008350952, -1299533.5, -78258.71, 0.0, 9.999926, 9.998846 
8.350058e+2, 1.8537937e+2, -1171793.0, -1219891.6, 16568.873, 0.098773226, 0.0031217155, -1166638.0, -43353.695, 0.0, 9.999955, 9.99936 
8.350119e+2, 1.9537824e+2, -1031789.3, -1096698.1, 34133.844, -0.12775147, -0.07650641, -1017143.75, 8149.231, 0.0, 10.000231, 9.999393 
8.3502007e+2, 2.0537822e+2, -919316.8, -971708.06, 85754.46, -0.22468425, -0.022683514, -855846.2, 71445.945, 0.0, 10.000243, 9.999569 
8.350301e+2, 2.1537882e+2, -854343.9, -892742.06, 112807.34, -0.21330388, 0.04646841, -759113.5, 70172.56, 0.0, 10.000032, 9.99954 
8.350396e+2, 2.2537799e+2, -781263.75, -941129.25, 11848.7705, -0.13596609, 0.07549645, -780390.3, -49095.49, 0.0, 10.000424, 9.9983635 
8.350486e+2, 2.3537561e+2, -557366.5, -786147.7, 5740.0703, -0.0148606505, -0.027438873, -557222.56, 76096.836, 0.0, 10.001298, 9.998337 
8.3505714e+2, 2.4537423e+2, -455481.97, -673684.0, 14935.139, 0.006951443, 0.0019279844, -454464.47, 80870.09, 0.0, 10.001282, 9.99843 
8.350652e+2, 2.5537333e+2, -467808.03, -636253.56, 36026.652, -0.057649236, 0.035981014, -460426.25, -23080.883, 0.0, 10.000552, 9.998369 
8.35074e+2, 2.6537183e+2, -362228.3, -577703.6, 28862.527, -0.08180278, 0.077606924, -358429.22, -19069.719, 0.0, 10.000813, 9.997968 
8.350835e+2, 2.753695e+2, -120363.08, -412810.2, 17671.154, -0.07416268, 0.01471097, -119299.17, 122080.63, 0.0, 10.001805, 9.997947 
8.350924e+2, 2.8536785e+2, -53360.36, -344939.84, -61388.598, -0.043087542, 0.06884228, -40962.84, 102432.99, 0.0000012583888, 10.00166, 9.9978075 
8.351009e+2, 2.953664e+2, -153601.28, -349796.75, -39408.195, -0.0017522884, 0.10295449, -145981.6, -100569.234, 0.000022671806, 10.000311, 9.997752 
8.3510923e+2, 3.0536342e+2, -84930.94, -170758.48, -56183.26, 0.046955608, -0.014949899, -57147.113, -57147.113, 0.0001036696, 9.99996, 9.998814 
8.3511686e+2, 3.1536245e+2, 30095.742, 45897.086, 55517.41, 0.018329207, -0.03669164, 94073.18, 94073.18, 0.00026239955, 9.999976, 10.000292 
8.449554e+2, 1.2537257e+2, -1879396.8, -1761968.6, -101849.484, 0.07140261, 0.080599226, -1703121.5, 8230.837, 0.0, 9.998638, 10.00032 
8.449627e+2, 1.3537249e+2, -1776172.0, -1691418.3, -51273.51, -0.01779496, 0.03728787, -1667276.3, -53922.535, 0.0, 9.998872, 10.000023 
8.449705e+2, 1.453723e+2, -1629611.0, -1510005.9, -16761.71, -0.06619741, 0.00036094946, -1507701.3, 7653.7256, 0.0, 9.998929, 10.000547 
8.449776e+2, 1.5537368e+2, -1499248.9, -1403434.3, -56472.45, -0.23212557, 0.042114027, -1377285.9, 40054.36, 0.0, 9.999186, 10.000485 
8.449867e+2, 1.653737e+2, -1385882.3, -1463626.6, -34660.8, -0.17897871, 0.07784314, -1372673.6, -53334.293, 0.0, 10.000009, 9.999008 
8.4499776e+2, 1.753724e+2, -1121652.8, -1286536.0, -12735.607, 0.07245749, 0.021819301, -1120674.9, 100677.12, 0.0, 10.001157, 9.998996 
8.450063e+2, 1.8537125e+2, -1016602.75, -1186485.1, -17105.426, 0.09850758, 0.011797681, -1014897.56, 108466.195, 0.0, 10.001209, 9.998977 
8.450125e+2, 1.9536974e+2, -1051616.6, -1154565.6, -62112.742, -0.08112785, -0.06606438, -1022421.3, 2957.691, 0.0, 10.000298, 9.998968 
8.450208e+2, 2.0536956e+2, -951762.06, -978661.5, -1061.426, -0.15708041, -0.009816611, -951720.25, -24340.37, 0.0, 9.999981, 9.999655 
8.450308e+2, 2.1537022e+2, -846750.6, -885502.4, -28711.336, -0.141444, 0.061591055, -831488.9, -2117.3044, 0.0, 10.000062, 9.999584 
8.4504026e+2, 2.2536942e+2, -813275.0, -928436.06, -56166.54, -0.086655, 0.08120984, -790418.0, -59038.996, 0.0, 10.000096, 9.998596 
8.450493e+2, 2.3536722e+2, -724344.5, -837507.6, -30726.648, -0.0026055204, -0.030558445, -716539.7, -83137.87, 0.0, 10.000051, 9.9985695 
8.4505796e+2, 2.4536605e+2, -554969.56, -732675.2, 24397.47, 0.0050222245, 0.015457951, -551680.9, -16265.898, 0.0, 10.000646, 9.998333 
8.450664e+2, 2.5536543e+2, -297682.16, -559480.06, -537.335, -0.04707898, 0.085993506, -297681.03, 139742.7, 0.0, 10.001755, 9.99831 
8.450753e+2, 2.653639e+2, -207461.6, -498009.03, 44993.13, -0.079847455, 0.124061495, -200653.64, 138784.31, 0.0, 10.001846, 9.998016 
8.450847e+2, 2.7536133e+2, -222588.45, -458639.47, 59061.113, -0.08776988, 0.03288462, -208635.8, 32824.06, 0.0000000050987805, 10.001076, 9.99799 
8.450939e+2, 2.8535935e+2, -124861.68, -417765.63, 16306.604, -0.033473663, 0.067231126, -123956.65, 19522.674, 0.0000017149706, 10.001322, 9.997469 
8.451029e+2, 2.953574e+2, 123913.96, -242434.03, -26429.633, 0.07883597, 0.08347336, 125810.87, 171312.02, 0.0000255943, 10.002333, 9.997507 
8.4511036e+2, 3.0535457e+2, 197791.16, -34601.285, -55813.55, 0.076361604, -0.014511935, 210500.77, 210500.77, 0.000114914044, 10.001887, 9.998832 
8.451172e+2, 3.15354e+2, -12496.973, -8404.646, -27530.264, 0.07034329, 0.0065045003, 17155.389, 17155.389, 0.00028702893, 9.999786, 10.000025 
8.5495543e+2, 1.2536293e+2, -1872832.5, -1731318.4, -119991.67, 0.14451173, 0.09120457, -1662775.3, 48675.383, 0.0, 9.998582, 10.000552 
8.5496086e+2, 1.3536304e+2, -1749015.0, -1619084.4, -34386.242, -0.121204846, 0.017742235, -1610545.3, 2901.6125, 0.0, 9.998833, 10.000522 
8.549692e+2, 1.4536284e+2, -1670725.4, -1595786.6, -26255.744, -0.1339234, -0.017175008, -1587503.3, -72054.52, 0.0, 9.998916, 9.999975 
8.5497826e+2, 1.5536338e+2, -1531520.5, -1473186.4, -25674.62, -0.12322447, 0.0005197384, -1463496.0, -46050.777, 0.0, 9.999196, 10.000002 
8.549873e+2, 1.6536398e+2, -1328225.1, -1333291.4, -8714.207, -0.15492457, 0.07030664, -1321683.4, -2244.9312, 0.0, 9.99996, 9.999927 
8.5499626e+2, 1.7536418e+2, -1064273.1, -1156426.5, 40661.125, -0.21915649, 0.06533113, -1048897.5, 172535.61, 0.0, 10.001113, 9.999907 
8.5500544e+2, 1.8536356e+2, -1088580.5, -1318000.5, -66122.86, -0.13765267, 0.10951795, -1070887.4, 52553.25, 0.0, 10.001119, 9.998124 
8.5501456e+2, 1.9536191e+2, -1118257.3, -1277773.5, -80635.19, 0.060997315, 0.10082702, -1084598.4, -59136.066, 0.0, 10.000221, 9.998161 
8.5502344e+2, 2.0536064e+2, -995401.75, -1035312.06, -13904.501, 0.08914519, 0.104030065, -991035.25, -63559.95, 0.0, 9.999832, 9.999342 
8.550321e+2, 2.1535933e+2, -889962.06, -928749.8, -10091.268, -0.040078327, 0.0061098696, -887493.7, -58009.24, 0.0, 9.999863, 9.999382 
8.550403e+2, 2.2535871e+2, -767845.2, -786926.25, -72472.32, -0.11819302, -0.0040736315, -704288.1, 27199.967, 0.0, 9.999889, 9.999671 
8.550481e+2, 2.3535845e+2, -675331.06, -698690.75, -13592.7705, -0.15525489, -0.028094828, -669089.4, -35600.066, 0.0, 9.999886, 9.999604 
8.550573e+2, 2.4535799e+2, -600896.8, -789653.75, 51742.914, -0.15468797, 0.054569494, -587643.4, -52148.676, 0.0, 10.000485, 9.998018 
8.550677e+2, 2.553569e+2, -342077.7, -612628.2, 54147.816, -0.11930224, 0.111378595, -331643.0, 105865.31, 0.0, 10.001585, 9.998029 
8.55077e+2, 2.6535526e+2, -167189.36, -386620.63, 670.98334, -0.11776783, 0.10594888, -167187.3, 172335.08, 0.0, 10.001725, 9.998843 
8.550854e+2, 2.753528e+2, -185684.7, -356928.28, 51638.277, -0.16048117, -0.051194724, -171318.47, 70220.75, 0.0000001292932, 10.000969, 9.998742 
8.550951e+2, 2.8535062e+2, -182732.61, -518689.1, 44043.035, -0.079144776, -0.042238317, -177054.66, -33494.11, 0.0000031613251, 10.00124, 9.996814 
8.5510594e+2, 2.9534793e+2, 63459.77, -346883.63, 28459.54, 0.10618343, -0.035917062, 65424.188, 111016.43, 0.000030116835, 10.002232, 9.996843 
8.551122e+2, 3.0534583e+2, 170432.27, -60422.254, -140859.98, 0.04637188, -0.019039607, 237117.58, 237117.58, 0.00012742863, 10.00178, 9.998697 
8.551166e+2, 3.1534487e+2, -80563.33, -116727.945, -83726.29, -0.045883406, -0.01669157, -12988.986, -12988.986, 0.00031382052, 9.999663, 9.999337 
8.649539e+2, 1.253536e+2, -1919674.8, -1743144.9, -4397.653, 0.16046348, 0.07837812, -1743035.4, -31490.695, 0.00000000000000000000885557, 9.998205, 10.000657 
8.6495984e+2, 1.3535433e+2, -1622578.9, -1551568.5, -7900.5645, -0.13615783, 0.051332746, -1550700.1, 62833.293, 0.0, 9.999637, 10.000615 
8.6496884e+2, 1.4535423e+2, -1569167.9, -1586927.9, -870.0187, -0.096402526, 0.040965226, -1569125.4, -53590.773, 0.0, 9.99979, 9.99961 
8.649783e+2, 1.5535419e+2, -1564939.4, -1538634.1, -23992.494, -0.02754746, 0.041239943, -1524425.6, -106886.57, 0.0, 9.999161, 9.999583 
8.649874e+2, 1.653546e+2, -1451186.9, -1324389.1, 45235.617, -0.07592438, 0.08133199, -1309905.5, 9628.323, 0.0, 9.99883, 10.000522 
8.6499614e+2, 1.7535506e+2, -1363717.4, -1243065.1, 31714.678, -0.22203386, 0.04487501, -1235236.5, -13713.11, 0.0, 9.9988, 10.000425 
8.650054e+2, 1.8535478e+2, -1324800.6, -1417930.9, -36816.434, -0.1612674, 0.09401679, -1312004.5, -188477.78, 0.0, 9.999457, 9.99823 
8.65015e+2, 1.9535367e+2, -1046860.7, -1231885.5, -9298.961, 0.065532245, 0.13008049, -1046394.5, -20850.326, 0.0, 10.000685, 9.998242 
8.6502403e+2, 2.0535246e+2, -852954.75, -955771.94, 110012.21, 0.124804065, 0.13021632, -782932.1, 144624.67, 0.0, 10.000774, 9.999425 
8.6503255e+2, 2.153508e+2, -900893.44, -930460.25, 108086.46, 0.029479826, -0.011134132, -806584.06, 22984.912, 0.0, 9.999777, 9.99941 
8.650406e+2, 2.2535022e+2, -779152.44, -795282.1, 76980.945, -0.068990454, -0.014847844, -709815.0, 21757.158, 0.0, 9.999843, 9.99963 
8.650482e+2, 2.3535037e+2, -539601.94, -636217.25, 19022.197, -0.17015581, 0.00802369, -535991.7, 97578.086, 0.0, 10.000843, 9.999567 
8.6505777e+2, 2.4534984e+2, -503964.16, -702323.06, 91734.164, -0.17408544, 0.06362286, -468044.7, 67529.89, 0.0, 10.000981, 9.998374 
8.6506885e+2, 2.553483e+2, -488382.94, -645406.2, 112578.08, -0.091925494, 0.0391579, -429643.34, 7946.1387, 0.0, 10.000424, 9.9983635 
8.650785e+2, 2.6534662e+2, -358480.47, -492078.53, 65521.49, -0.076381125, 0.023687774, -331710.4, 7893.2, 0.0000000005766255, 10.000478, 9.998714 
8.650868e+2, 2.7534452e+2, -174148.8, -362935.38, 8099.232, -0.114852995, -0.08543209, -173801.95, 67818.055, 0.000000514823, 10.001106, 9.99863 
8.6509645e+2, 2.853426e+2, -151021.17, -430612.3, 61186.89, -0.055408407, -0.07655193, -138217.14, 5421.4365, 0.0000054394536, 10.00115, 9.99747 
8.651073e+2, 2.953403e+2, -125488.65, -363099.22, 110076.8, 0.10784722, -0.09259519, -82332.21, -36668.652, 0.000035908153, 10.000628, 9.997506 
8.6511344e+2, 3.0533874e+2, 68622.05, -163630.08, -8604.33, 0.03409611, -0.029611588, 68940.38, 68940.38, 0.00014009468, 10.001288, 9.998226 
8.6511785e+2, 3.1533802e+2, 296639.63, 31981.064, -49034.258, -0.012196065, 0.037462458, 305432.25, 305432.25, 0.00033844914, 10.002419, 9.999016 
8.7494946e+2, 1.2534495e+2, -1925354.1, -1750926.8, 20512.99, -0.17241049, 0.08231787, -1748546.9, -36915.895, 0.0000000055054987, 9.998184, 10.00061 
8.749592e+2, 1.3534647e+2, -1629211.6, -1552899.5, 55604.344, -0.1964765, 0.13310619, -1523618.8, 89993.09, 0.0, 9.999599, 10.000612 
8.7496907e+2, 1.4534666e+2, -1600036.9, -1648167.1, -43885.555, -0.094857074, 0.17321317, -1574051.4, -58440.305, 0.0, 9.999773, 9.9992 
8.7497723e+2, 1.5534624e+2, -1591344.9, -1583284.5, -31532.049, -0.08515629, 0.16930673, -1555526.1, -137905.95, 0.0, 9.999129, 9.999284 
8.7498647e+2, 1.653458e+2, -1442513.0, -1299606.1, 27900.004, -0.082142174, 0.12896767, -1294352.3, 25270.42, 0.0, 9.998787, 10.000719 
8.7499684e+2, 1.7534523e+2, -1352357.3, -1213089.0, 46374.97, -0.06531555, -0.029827598, -1199059.9, 22561.012, 0.0, 9.998769, 10.000647 
8.750058e+2, 1.8534516e+2, -1266540.0, -1277472.4, -5662.5073, -0.098266944, -0.02310646, -1264135.9, -140515.95, 0.0, 9.999376, 9.999233 
8.750134e+2, 1.9534503e+2, -994278.56, -1090594.9, 50375.066, -0.18996866, 0.009803096, -972745.56, 52878.848, 0.0, 10.000552, 9.999274 
8.750221e+2, 2.05345e+2, -849813.0, -911316.2, 57621.297, -0.17170897, 0.055630535, -815250.94, 112373.7, 0.0, 10.000605, 9.999815 
8.750316e+2, 2.1534479e+2, -902596.2, -893058.4, 85393.83, -0.06296945, 0.021672811, -812300.4, 17323.291, 0.0, 9.999598, 9.999753 
8.750407e+2, 2.2534423e+2, -892518.6, -987322.3, 98306.83, -0.061967015, 0.06552842, -830782.1, -99153.04, 0.0, 9.999654, 9.998405 
8.750493e+2, 2.3534301e+2, -651700.3, -816621.4, 71359.01, -0.16790897, 0.07367493, -625111.06, 8532.307, 0.0, 10.000619, 9.998436 
8.75059e+2, 2.4534154e+2, -453877.1, -565887.7, 55312.043, -0.17482975, 0.038219444, -431167.6, 104487.4, 0.0, 10.000831, 9.999389 
8.750694e+2, 2.5533956e+2, -444158.0, -519328.9, 109416.36, -0.10328002, -0.12977792, -366051.6, 71615.38, 0.0, 10.000276, 9.9993 
8.7507915e+2, 2.65338e+2, -447871.13, -667450.6, 74134.15, -0.0812087, -0.11643244, -425185.75, -85504.46, 0.0000000691861, 10.000422, 9.997541 
8.750884e+2, 2.753364e+2, -263540.06, -523578.13, 48210.703, -0.09869616, -0.06545489, -254889.63, -13187.5, 0.000001269736, 10.000994, 9.9975815 
8.750976e+2, 2.8533533e+2, -21476.096, -150588.19, 26304.361, -0.08432731, -0.02019951, -16322.728, 127389.59, 0.000008255043, 10.001094, 9.999427 
8.751067e+2, 2.9533422e+2, -1369.3351, -95792.234, 113309.195, -0.054108553, -0.109900005, 74170.57, 119888.52, 0.000042714033, 10.000575, 9.999376 
8.7511384e+2, 3.0533317e+2, 3010.843, -279318.63, 28363.506, -0.08665, -0.05328948, 5832.1177, 5832.1177, 0.00015288098, 10.001206, 9.997466 
8.751203e+2, 3.153312e+2, 265177.38, -19437.625, 19514.748, -0.08837077, -0.032179754, 266509.2, 266509.2, 0.00035815634, 10.002346, 9.998704 
8.849481e+2, 1.25337e+2, -1817277.4, -1711161.5, 130046.336, -0.14855728, 0.103346504, -1623765.9, 87941.195, 0.00000006865043, 9.998972, 10.000515 
8.849592e+2, 1.3533767e+2, -1758847.9, -1635599.9, 82971.97, -0.10032076, 0.08527215, -1593870.8, 19826.691, 0.0, 9.998785, 10.000446 
8.8496906e+2, 1.4533767e+2, -1737976.9, -1704722.6, 11903.586, -0.0155634, 0.116173066, -1700900.9, -185202.8, 0.0, 9.998812, 9.999263 
8.8497615e+2, 1.553376e+2, -1549891.6, -1560023.8, 18049.072, -0.11310858, 0.14120229, -1536211.1, -118507.69, 0.0, 9.999414, 9.999296 
8.8498545e+2, 1.6533731e+2, -1348027.5, -1297151.9, 97928.33, -0.0883097, 0.13441202, -1221411.5, 98294.734, 0.0, 9.999628, 10.00033 
8.84997e+2, 1.7533681e+2, -1274150.6, -1216021.8, 41783.156, 0.04599149, 0.02348007, -1194188.5, 27518.758, 0.0, 9.999484, 10.000285 
8.850059e+2, 1.8533684e+2, -1228629.6, -1170485.3, 7431.0654, -0.0067768134, 0.018105399, -1169550.6, -45845.777, 0.0, 9.999247, 10.00003 
8.8501257e+2, 1.9533683e+2, -1181039.4, -1099195.4, 13915.101, -0.2370465, -0.015391699, -1096894.3, -71190.17, 0.0, 9.998911, 10.00001 
8.850214e+2, 2.053371e+2, -1043572.9, -1036190.8, 3804.7188, -0.23705916, 0.039408155, -1034580.94, -106879.87, 0.0, 9.99941, 9.999535 
8.85032e+2, 2.1533738e+2, -769331.2, -862707.1, -45081.195, -0.032459397, 0.08559687, -751118.6, 78579.625, 0.0, 10.000653, 9.999461 
8.850416e+2, 2.2533669e+2, -715184.3, -912341.2, 19517.852, 0.0067787166, 0.13533176, -713270.7, 18435.146, 0.0, 10.000908, 9.99831 
8.850503e+2, 2.3533477e+2, -705982.8, -856924.3, 40376.367, -0.10737913, 0.08200445, -695861.0, -62135.094, 0.0, 10.000291, 9.998318 
8.8506e+2, 2.4533315e+2, -552576.9, -599954.9, 48508.168, -0.110216595, 0.032230366, -522282.44, 13456.032, 0.0, 10.0001, 9.999499 
8.8507044e+2, 2.553314e+2, -415785.2, -495667.94, 3780.0688, -0.026159922, -0.12683348, -415606.72, 22141.533, 0.00000000006372724, 10.000405, 9.9994 
8.8508034e+2, 2.6533e+2, -390923.5, -635321.44, 41820.53, -0.02417351, -0.10543372, -383965.4, -44203.8, 0.00000025387644, 10.000798, 9.997574 
8.850896e+2, 2.7532858e+2, -205486.03, -488430.1, 67985.12, -0.08464874, -0.039649356, -189998.48, 51783.137, 0.0000021793016, 10.001363, 9.997641 
8.8509864e+2, 2.853279e+2, 10098.231, -82161.164, 16212.923, -0.081626184, 0.018226512, 12864.422, 156652.25, 0.000011106664, 10.001099, 9.999875 
8.851073e+2, 2.9532748e+2, -30870.123, -60505.02, -39456.684, -0.022464545, -0.04544661, -3540.368, 42245.457, 0.000049522223, 10.000165, 9.999805 
8.851152e+2, 3.0532634e+2, -60014.906, -300772.44, -32944.14, -0.03440154, -0.020227078, -55588.37, -55588.37, 0.00016467013, 10.000737, 9.997553 
8.851227e+2, 3.1532487e+2, 259824.47, 4191.552, -40994.367, -0.056926724, 0.04626858, 266237.63, 266237.63, 0.00037312726, 10.002212, 9.9989395 
8.9494884e+2, 1.2532976e+2, -1844273.4, -1745978.6, 85991.25, -0.037048277, 0.13900405, -1696080.8, 15692.494, 0.00000033567557, 9.998906, 10.000293 
8.9495945e+2, 1.3532822e+2, -1782890.0, -1677334.4, 83603.95, 0.020219602, -0.064761765, -1631243.0, -17456.098, 0.00000000007521531, 9.998765, 10.00016 
8.949682e+2, 1.4532775e+2, -1710191.9, -1640008.8, 14773.442, -0.018281957, -0.09723442, -1637025.8, -121234.01, 0.0, 9.998778, 9.999726 
8.949745e+2, 1.5532845e+2, -1527622.6, -1506964.3, 59120.17, -0.24504124, -0.034959402, -1457277.8, -39490.977, 0.0, 9.999387, 9.999673 
8.94984e+2, 1.6532919e+2, -1426975.6, -1453234.6, 76123.625, -0.2368349, 0.09964046, -1362857.5, -43074.44, 0.0, 9.999594, 9.999273 
8.949962e+2, 1.7532976e+2, -1351667.8, -1359555.9, 52021.637, -0.008326136, 0.1964534, -1303440.9, -81658.2, 0.0, 9.999414, 9.99933 
8.950054e+2, 1.853299e+2, -1204762.9, -1098111.4, -20332.146, -0.009734563, 0.21798667, -1094366.6, 29413.986, 0.0, 9.99914, 10.000582 
8.9501196e+2, 1.9532928e+2, -1169497.4, -1038106.2, 16565.313, -0.21852444, 0.06865163, -1036049.9, -10268.809, 0.0, 9.998752, 10.000504 
8.950213e+2, 2.05329e+2, -1131305.0, -1184457.1, 35634.29, -0.207768, 0.09276257, -1113427.9, -185643.98, 0.0, 9.999258, 9.998593 
8.950331e+2, 2.1532866e+2, -859655.06, -1001249.9, 17939.568, -0.007482728, 0.17010105, -857417.5, -27625.621, 0.0, 10.000446, 9.998607 
8.950429e+2, 2.2532772e+2, -678813.0, -793753.06, -16361.498, 0.017716514, 0.18958293, -676529.3, 55271.96, 0.0, 10.0007105, 9.999225 
8.950507e+2, 2.3532592e+2, -671544.8, -740337.5, 33164.723, -0.12375073, 0.053380497, -658160.3, -24345.367, 0.0, 10.000094, 9.999212 
8.9506036e+2, 2.4532484e+2, -625433.4, -720842.7, 44053.582, -0.115986496, 0.051595915, -608203.8, -72380.34, 0.0, 9.999966, 9.998736 
8.9507157e+2, 2.5532392e+2, -491703.9, -611780.3, 32281.188, 0.01647518, 0.05509018, -483575.7, -45743.977, 0.0000000002378373, 10.000228, 9.9986925 
8.950814e+2, 2.6532277e+2, -319511.38, -463622.75, 50917.855, -0.021771384, 0.07335732, -303336.4, 36505.42, 0.00000030747992, 10.000699, 9.9988 
8.9509004e+2, 2.7532107e+2, -148212.63, -339545.2, 108304.51, -0.20995031, -0.0065790615, -99373.19, 142484.4, 0.0000026197797, 10.001239, 9.998723 
8.95099e+2, 2.8532022e+2, -72605.21, -244936.94, -33841.65, -0.18811803, 0.037034504, -66197.79, 77667.69, 0.000013171274, 10.00105, 9.998782 
8.951084e+2, 2.953199e+2, -110563.63, -211593.97, -54924.91, 0.028128888, 0.08816183, -86456.234, -40587.887, 0.000055655084, 10.000092, 9.998805 
8.951171e+2, 3.053183e+2, -12491.302, -170788.34, 11633.408, 0.05781726, 0.06726711, -11640.919, -11640.919, 0.00017580122, 10.0006275, 9.998488 
8.951242e+2, 3.1531712e+2, 292529.6, 126321.73, 59645.957, -0.20018996, 0.074034214, 311718.9, 311718.9, 0.00038747952, 10.002007, 9.999862 
9.049487e+2, 1.2532051e+2, -1888124.3, -1777857.3, 8786.431, 0.09216034, 0.1263912, -1777161.5, -65296.91, 0.0000010657902, 9.998607, 10.000231 
9.049584e+2, 1.3531956e+2, -1794927.4, -1703951.8, -35717.62, 0.053072393, 0.00018914738, -1691604.5, -77729.47, 0.000000007369457, 9.998752, 9.999989 
9.049671e+2, 1.4531946e+2, -1667033.8, -1559714.4, -43120.563, 0.0027488219, -0.01633198, -1544535.5, -28659.184, 0.0, 9.998794, 10.000273 
9.049743e+2, 1.5532012e+2, -1551827.9, -1460801.4, -28096.85, -0.17724775, -0.01730404, -1452827.4, -34958.28, 0.0, 9.998949, 10.000208 
9.0498364e+2, 1.653209e+2, -1515171.0, -1514229.1, 50018.902, -0.19671734, 0.10389684, -1464679.0, -144814.3, 0.0, 9.999068, 9.99912 
9.049949e+2, 1.7532142e+2, -1401284.5, -1400788.4, 56533.984, -0.059039585, 0.21303968, -1344501.9, -122635.54, 0.0, 9.999145, 9.999183 
9.050044e+2, 1.8532157e+2, -1165254.3, -1089980.5, 22139.297, -0.030856427, 0.2468194, -1083951.9, 39913.066, 0.0, 9.999446, 10.00049 
9.050123e+2, 1.9532107e+2, -993076.25, -968030.1, -14223.902, -0.111301124, 0.12011445, -961602.0, 64262.07, 0.0, 9.999994, 10.000397 
9.05022e+2, 2.053207e+2, -992551.94, -1089686.9, 71762.53, -0.094310656, 0.12915507, -954466.9, -26599.666, 0.0, 10.000102, 9.998826 
9.050333e+2, 2.1532004e+2, -930925.94, -1009459.5, 102136.86, 0.0032722957, 0.14900385, -860767.8, -30890.22, 0.0, 9.999847, 9.998833 
9.05043e+2, 2.2531918e+2, -774955.25, -804451.2, 93017.125, 0.013160872, 0.15160446, -695524.2, 36361.0, 0.0, 9.999918, 9.999531 
9.0505147e+2, 2.3531789e+2, -614605.6, -682965.6, 66625.664, -0.062349856, 0.038483527, -573904.06, 59989.324, 0.0, 10.000367, 9.999476 
9.0506136e+2, 2.4531707e+2, -527248.5, -712900.94, 117452.13, -0.04972574, 0.071945794, -470369.3, 65531.383, 0.0, 10.000816, 9.998376 
9.050725e+2, 2.553164e+2, -359962.5, -581783.75, 101502.6, 0.041632727, 0.13313262, -320527.03, 117383.086, 0.0, 10.001292, 9.998377 
9.050825e+2, 2.6531547e+2, -227735.55, -379798.28, 116413.82, 0.0029061728, 0.16656792, -164723.95, 175194.64, 0.0000002007212, 10.001171, 9.999148 
9.0509146e+2, 2.7531385e+2, -224082.78, -335865.34, 79065.32, -0.14464517, 0.06035919, -183148.66, 58781.67, 0.0000025589381, 10.000557, 9.999071 
9.0510035e+2, 2.8531238e+2, -167206.52, -390756.06, -41558.59, -0.13970497, 0.07480666, -159730.66, -15786.699, 0.000014749117, 10.000819, 9.997909 
9.051091e+2, 2.95311e+2, 74289.69, -210196.17, -78990.75, 0.018982125, 0.108795844, 94750.76, 140710.64, 0.00006245814, 10.001751, 9.998019 
9.051186e+2, 3.0530894e+2, 240505.06, -12253.885, 27143.846, 0.077868596, 0.060768876, 243387.19, 243387.19, 0.00018874744, 10.002186, 9.998841 
9.0512705e+2, 3.1530795e+2, 255481.3, 98486.016, -17979.46, -0.083040185, 0.05346294, 257514.02, 257514.02, 0.0004049675, 10.001747, 9.999823 
9.1494656e+2, 1.253095e+2, -1880032.4, -1750763.9, -35380.188, -0.059470437, 0.088065796, -1741714.0, -29735.703, 0.000002613721, 9.998588, 10.00042 
9.149556e+2, 1.3531171e+2, -1792909.9, -1691121.9, -20008.42, -0.13904788, 0.2683105, -1687330.1, -73367.945, 0.00000007607973, 9.998726, 10.000084 
9.149652e+2, 1.4531271e+2, -1631400.1, -1471672.4, -56737.777, -0.10636565, 0.32909384, -1453569.9, 62383.117, 0.0, 9.998735, 10.000904 
9.149749e+2, 1.553128e+2, -1508716.6, -1364178.9, -5930.7007, -0.048607025, 0.20487414, -1363935.9, 54012.855, 0.0, 9.998924, 10.000879 
9.1498387e+2, 1.6531269e+2, -1469360.9, -1415357.8, 34032.75, -0.10662355, 0.1686524, -1398916.1, -78967.53, 0.0, 9.999047, 9.999808 
9.149926e+2, 1.7531201e+2, -1362959.4, -1312720.1, 74988.84, -0.24317075, 0.089350276, -1258755.5, -36799.492, 0.0, 9.999102, 9.999808 
9.150024e+2, 1.8531202e+2, -1226424.0, -1196750.5, 29276.795, -0.21103776, 0.112681955, -1178765.6, -54809.656, 0.0, 9.999358, 9.999801 
9.150133e+2, 1.9531235e+2, -1060796.5, -1072206.8, 22484.182, -0.03989019, 0.13839555, -1043304.94, -17352.895, 0.0, 9.999843, 9.999755 
9.1502315e+2, 2.0531237e+2, -927049.9, -914968.1, 49076.938, -0.022907648, 0.15375438, -871561.7, 56388.176, 0.0, 9.999933, 10.000106 
9.15032e+2, 2.1531172e+2, -875362.8, -846764.1, 106820.67, -0.13279061, 0.046308212, -753289.94, 76663.34, 0.0, 9.999647, 10.000044 
9.150417e+2, 2.2531122e+2, -819678.4, -863828.56, 92109.734, -0.13990071, 0.04024986, -747035.4, -15078.9, 0.0, 9.999762, 9.999204 
9.150521e+2, 2.353106e+2, -665669.94, -743893.7, 100155.73, -0.054872587, 0.029159388, -597260.1, 36701.668, 0.0, 10.000172, 9.999152 
9.150625e+2, 2.4531e+2, -548370.4, -721686.0, 120887.86, -0.040594667, 0.09670883, -486288.66, 49680.434, 0.0, 10.000659, 9.998394 
9.150728e+2, 2.5530896e+2, -381020.38, -596111.5, 134210.44, -0.08733751, 0.12122654, -316581.94, 121400.52, 0.0, 10.001155, 9.998351 
9.1508305e+2, 2.65308e+2, -272643.97, -451185.72, 78432.04, -0.08437172, 0.17923938, -243083.56, 96908.14, 0.00000011562638, 10.001083, 9.998698 
9.150935e+2, 2.7530676e+2, -271242.16, -407658.34, 75449.34, -0.030400725, 0.15684035, -237740.14, 4260.5557, 0.0000025826089, 10.000444, 9.998634 
9.151022e+2, 2.8530446e+2, -223438.11, -484527.28, -22150.79, -0.06825407, 0.13458928, -221572.17, -77549.16, 0.000017159802, 10.000729, 9.997304 
9.1510916e+2, 2.9530093e+2, 15974.13, -313895.94, -23379.059, -0.19671208, 0.017988976, 17622.846, 63681.92, 0.00007135739, 10.001679, 9.997342 
9.1511923e+2, 3.0529827e+2, 206156.17, -58858.73, 5209.205, -0.110322684, -0.03906702, 206258.53, 206258.53, 0.00020564985, 10.002093, 9.998553 
9.151302e+2, 3.1529778e+2, 179376.14, -6046.677, 33557.49, -0.016898535, 0.022396984, 185262.45, 185262.45, 0.00042848263, 10.001544, 9.999183 
9.249448e+2, 1.2529953e+2, -1788048.1, -1685835.4, 59680.125, -0.100930385, 0.060661335, -1658369.6, 53705.867, 0.0000053718704, 9.9991255, 10.000613 
9.2495394e+2, 1.353023e+2, -1833740.5, -1689254.3, 32559.586, -0.14643627, 0.2756779, -1682256.0, -68202.484, 0.00000033393198, 9.998347, 10.0002985 
9.249639e+2, 1.4530352e+2, -1744404.9, -1534084.6, 34801.676, -0.07011895, 0.35145128, -1528475.6, -12432.087, 0.0, 9.998, 10.000832 
9.2497426e+2, 1.5530388e+2, -1594120.5, -1415718.0, -7146.86, 0.03175993, 0.2640672, -1415432.1, 2606.8418, 0.0, 9.9983835, 10.000786 
9.249834e+2, 1.6530378e+2, -1486412.1, -1356804.6, 31343.209, -0.028903225, 0.20107925, -1349622.9, -29584.822, 0.0, 9.998641, 10.000398 
9.2499155e+2, 1.75303e+2, -1363081.6, -1249665.5, 31111.43, -0.22829269, 0.05380627, -1241691.9, -19648.963, 0.0, 9.9988365, 10.000365 
9.250016e+2, 1.853031e+2, -1261462.0, -1228428.5, 44406.09, -0.2044958, 0.06825556, -1197566.9, -73525.89, 0.0, 9.999188, 9.999666 
9.250134e+2, 1.9530362e+2, -1105907.1, -1103622.1, 44241.66, 0.0099582, 0.12419161, -1060508.3, -34471.7, 0.0, 9.999584, 9.999659 
9.250234e+2, 2.0530373e+2, -933075.0, -907816.94, 56957.16, 0.022475027, 0.14677508, -862105.5, 65928.36, 0.0, 9.999846, 10.000205 
9.250318e+2, 2.1530312e+2, -804291.94, -799545.75, 5117.311, -0.1318164, 0.036578044, -796278.06, 33758.375, 0.0, 10.000074, 10.000169 
9.250417e+2, 2.2530279e+2, -732179.5, -821556.9, 7209.364, -0.13810892, 0.041589458, -731601.7, 436.63693, 0.0, 10.000352, 9.9992075 
9.250529e+2, 2.3530245e+2, -598204.1, -713763.3, 5008.438, -0.016802492, 0.056933243, -597987.44, 36054.82, 0.0, 10.000626, 9.999145 
9.2506355e+2, 2.4530183e+2, -512671.2, -681851.56, 75337.38, -0.0025882502, 0.115317315, -483986.4, 52062.98, 0.0, 10.000812, 9.9986 
9.2507386e+2, 2.5530064e+2, -387067.97, -572329.7, 69809.55, -0.08471677, 0.10493145, -363708.1, 74354.54, 0.0, 10.001014, 9.998581 
9.250842e+2, 2.6529947e+2, -293867.53, -490514.16, 33441.78, -0.0744922, 0.14217712, -288336.03, 51737.848, 0.00000007319143, 10.001032, 9.998466 
9.250947e+2, 2.7529788e+2, -227617.17, -411995.22, 22777.605, 0.038762674, 0.10670855, -224844.97, 17242.29, 0.0000027897247, 10.000828, 9.998427 
9.2510396e+2, 2.8529558e+2, -113036.17, -433729.03, 50161.727, 0.006057507, 0.09677839, -105373.15, 38736.574, 0.000020180585, 10.001499, 9.997275 
9.2511183e+2, 2.9529238e+2, 202125.69, -230372.47, 51209.984, -0.1537011, 0.0153349545, 208106.52, 254248.63, 0.00008285034, 10.002977, 9.997285 
9.2512167e+2, 3.0529e+2, 269172.1, -83308.14, 36395.945, -0.09349058, 0.012115941, 272890.97, 272890.97, 0.0002292469, 10.002722, 9.998096 
9.25132e+2, 3.1528836e+2, -492.30176, -155984.95, 13983.767, 0.07206368, 0.0034294971, 755.27673, 755.27673, 0.0004645645, 10.000544, 9.998649 
9.349425e+2, 1.2529038e+2, -1780776.9, -1644324.4, -15186.606, -0.316505, 0.013441121, -1642654.5, 69503.41, 0.000009857008, 9.999039, 10.000931 
9.349529e+2, 1.3529153e+2, -1800648.3, -1623807.4, 15487.475, -0.1128394, 0.01821528, -1622461.3, -8313.993, 0.0000009955157, 9.998379, 10.000722 
9.349626e+2, 1.4529207e+2, -1807962.6, -1668411.3, 31682.969, -0.03852442, 0.05500205, -1661555.0, -145409.17, 0.00000000002439963, 9.998012, 9.9999075 
9.3497205e+2, 1.5529336e+2, -1660871.1, -1539709.3, 22885.95, -0.06786282, 0.15344705, -1535530.5, -117390.88, 0.0, 9.998326, 9.999962 
9.3498176e+2, 1.6529419e+2, -1458628.0, -1287088.0, 19736.482, -0.09605184, 0.19497587, -1284846.6, 35286.168, 0.0, 9.998581, 10.000911 
9.3499166e+2, 1.7529441e+2, -1330457.9, -1178880.5, 54687.875, -0.13792959, 0.09889865, -1161209.6, 60917.33, 0.0, 9.998814, 10.000867 
9.350018e+2, 1.8529487e+2, -1250217.5, -1184826.0, 46995.61, -0.14039591, 0.10660914, -1160271.5, -36151.527, 0.0, 9.999105, 10.000008 
9.350122e+2, 1.9529496e+2, -1104538.4, -1071173.6, 73102.016, -0.10319006, 0.08743272, -1012874.56, 13242.443, 0.0, 9.999457, 9.999947 
9.3502235e+2, 2.0529483e+2, -1019136.7, -1054285.1, 49883.84, -0.09467917, 0.11970132, -983821.9, -55703.168, 0.0, 9.999703, 9.999269 
9.350323e+2, 2.1529423e+2, -895856.0, -951152.06, 30399.127, -0.115618594, 0.10567317, -882412.44, -52285.52, 0.0, 9.999897, 9.999219 
9.350426e+2, 2.252939e+2, -744274.2, -796429.2, 3861.7007, -0.106701754, 0.14484383, -743989.8, -11859.091, 0.0, 10.000139, 9.999482 
9.3505317e+2, 2.352935e+2, -607065.3, -687116.44, 29281.932, -0.0738049, 0.12388319, -597497.75, 36636.363, 0.0, 10.000432, 9.999424 
9.3506396e+2, 2.4529272e+2, -507944.3, -636713.2, 66863.414, -0.069329366, 0.13339384, -479505.97, 56634.38, 0.0, 10.00066, 9.998983 
9.3507516e+2, 2.5529134e+2, -384853.2, -535635.56, 93142.375, -0.083987124, 0.067888014, -340413.94, 97738.12, 0.0, 10.000864, 9.998913 
9.350854e+2, 2.6528972e+2, -309106.38, -484725.2, 14433.574, -0.083681114, 0.03938109, -307928.03, 32238.45, 0.00000003612581, 10.000883, 9.9985695 
9.350948e+2, 2.7528745e+2, -241937.44, -410024.72, 35911.36, -0.07100724, -0.076541275, -234586.55, 7601.36, 0.0000027030533, 10.000704, 9.998494 
9.3510526e+2, 2.85286e+2, -86990.87, -367173.2, 93075.43, -0.047112435, -0.023085047, -58889.97, 85311.78, 0.000022488803, 10.001436, 9.997765 
9.351166e+2, 2.9528534e+2, 220937.58, -174018.19, 125051.08, -0.018669194, 0.08960621, 257201.63, 303411.2, 0.00009525127, 10.002893, 9.997716 
9.351254e+2, 3.0528402e+2, 213644.34, -177848.27, -52626.426, -0.013754006, 0.20731094, 220595.25, 220595.25, 0.00025879213, 10.002646, 9.997479 
9.351315e+2, 3.1528053e+2, -44245.363, -221405.52, -3274.27, -0.09685453, 0.070483774, -44184.87, -44184.87, 0.0005142612, 10.000448, 9.99824 
9.449416e+2, 1.25281e+2, -2045398.4, -1744238.1, -4282.79, -0.19870709, -0.01018462, -1744177.3, -31930.297, 0.000016753027, 9.997077, 10.001197 
9.449514e+2, 1.3528155e+2, -1786567.3, -1594732.6, -42249.566, -0.09197065, -0.09155045, -1585839.8, 28400.145, 0.000002343361, 9.998366, 10.000928 
9.4496083e+2, 1.4528196e+2, -1698354.9, -1613935.9, 34931.742, -0.042506643, -0.080466986, -1601356.0, -85116.82, 0.0000000053592455, 9.998744, 9.999932 
9.449703e+2, 1.5528367e+2, -1622332.5, -1529113.4, 59841.414, -0.07021994, 0.060057014, -1499871.5, -81641.62, 0.0, 9.998601, 9.999917 
9.449807e+2, 1.6528496e+2, -1454604.4, -1312462.6, 100280.83, -0.063298546, 0.1637187, -1260621.8, 59598.586, 0.0, 9.998732, 10.000658 
9.449914e+2, 1.7528564e+2, -1304395.3, -1194655.3, 44430.586, -0.045406174, 0.1386632, -1178922.1, 43290.355, 0.0, 9.999121, 10.000605 
9.450017e+2, 1.8528593e+2, -1181730.0, -1153366.8, 30292.047, -0.071190685, 0.14396095, -1134101.0, -9893.22, 0.0, 9.999607, 9.999965 
9.4501173e+2, 1.9528538e+2, -991632.3, -1018946.7, -2577.377, -0.12541729, 0.06431607, -991391.25, 34818.88, 0.0, 10.000268, 9.999897 
9.450221e+2, 2.05285e+2, -940690.6, -1041029.9, -6056.5933, -0.1147357, 0.08414848, -940326.4, -12111.661, 0.0, 10.00033, 9.999063 
9.450327e+2, 2.1528454e+2, -936468.06, -988923.7, 1762.9615, -0.041998405, 0.10315044, -936408.9, -106185.44, 0.0, 9.999694, 9.999053 
9.450433e+2, 2.2528447e+2, -767668.2, -781769.3, 65733.1, -0.023355251, 0.16311024, -708608.6, 23616.764, 0.0, 9.9998865, 9.999697 
9.4505394e+2, 2.3528439e+2, -524534.06, -620664.9, 55599.56, -0.048791036, 0.15664671, -499103.94, 135120.61, 0.0, 10.000902, 9.999645 
9.4506484e+2, 2.452836e+2, -451312.0, -584630.06, 77666.125, -0.0581779, 0.14161457, -415621.38, 120608.62, 0.0, 10.000938, 9.999203 
9.450759e+2, 2.5528187e+2, -482893.8, -552874.06, 65826.68, -0.03906273, 0.015904581, -443335.56, -5091.668, 0.0, 10.000063, 9.999168 
9.450864e+2, 2.6528054e+2, -356342.5, -498889.97, 48972.016, -0.040632717, -0.0026071651, -341139.63, -884.05835, 0.000000027783642, 10.000511, 9.998658 
9.450963e+2, 2.7527913e+2, -34408.316, -299981.22, 36407.867, -0.048723526, -0.033905953, -29507.533, 212761.86, 0.000002329391, 10.002077, 9.998598 
9.451072e+2, 2.85278e+2, 64284.887, -247080.47, 104596.43, -0.028696062, 0.018556127, 96158.89, 240439.4, 0.000023981273, 10.002283, 9.998185 
9.451189e+2, 2.9527685e+2, -4548.1035, -237976.81, 95724.734, 0.024441188, 0.04975749, 29686.092, 75976.875, 0.00010679835, 10.001162, 9.998115 
9.451276e+2, 3.052758e+2, 61867.777, -284147.6, -43800.89, -0.0019170463, 0.187582, 67326.27, 67326.27, 0.00028981623, 10.001768, 9.9971695 
9.4513404e+2, 3.1527302e+2, 422498.22, 12311.004, -27671.0, -0.03580382, 0.15873846, 424356.47, 424356.47, 0.00057081727, 10.003637, 9.99831 
9.5494103e+2, 1.2527166e+2, -2057802.0, -1746495.8, -2315.892, -0.033056702, -0.0018399518, -1746478.6, -34138.383, 0.00002677623, 9.997009, 10.001193 
9.5494884e+2, 1.3527247e+2, -1795898.5, -1594277.0, 17396.387, -0.21027184, -0.05507494, -1592787.0, 21543.262, 0.0000047533053, 9.998305, 10.000943 
9.5495814e+2, 1.4527313e+2, -1642091.0, -1484759.1, 8002.0728, -0.22815485, -0.06831544, -1484353.3, 31970.914, 0.000000046136613, 9.998681, 10.000854 
9.5496875e+2, 1.5527496e+2, -1557761.3, -1400786.1, 69393.875, -0.12520933, -0.010472432, -1374508.3, 43800.02, 0.0, 9.998625, 10.000785 
9.549796e+2, 1.652763e+2, -1532290.3, -1471386.5, 99767.86, -0.0748902, 0.114451036, -1397526.6, -77227.96, 0.0, 9.998721, 9.999573 
9.549906e+2, 1.7527685e+2, -1385000.4, -1351387.8, 73753.64, -0.0743454, 0.17921172, -1292549.9, -70251.516, 0.0, 9.999075, 9.999551 
9.550012e+2, 1.8527642e+2, -1220280.6, -1222564.6, 40100.297, -0.117739126, 0.18814269, -1181306.0, -57002.703, 0.0, 9.999545, 9.999526 
9.550116e+2, 1.9527479e+2, -1033067.6, -1085743.9, 36239.914, -0.20085113, 0.043619435, -1014605.9, 11710.726, 0.0, 10.000173, 9.999489 
9.5502216e+2, 2.0527416e+2, -923923.2, -967981.06, -46998.92, -0.16463876, 0.030911269, -894046.7, 34275.973, 0.0, 10.000169, 9.999642 
9.5503277e+2, 2.1527411e+2, -928724.8, -923250.7, -6989.2856, -0.030871263, 0.03260134, -918481.6, -88155.875, 0.0, 9.99948, 9.999609 
9.550437e+2, 2.2527455e+2, -784120.9, -769154.2, 88713.37, -0.00345352, 0.10733685, -687609.1, 44712.586, 0.0, 9.999684, 9.999881 
9.550549e+2, 2.3527509e+2, -543804.25, -614986.25, 109457.36, -0.072280586, 0.1457477, -464296.9, 170017.52, 0.0, 10.0007, 9.999785 
9.550656e+2, 2.4527438e+2, -470451.53, -578751.25, 31853.828, -0.09967774, 0.12654106, -461777.25, 74541.88, 0.0, 10.0007515, 9.999327 
9.550758e+2, 2.552722e+2, -495193.66, -548895.8, 51679.082, -0.09000821, -0.05469952, -463806.38, -25468.268, 0.0, 9.999937, 9.999252 
9.550869e+2, 2.652719e+2, -371888.03, -500194.5, 93698.32, -0.06550375, 0.023870772, -322485.06, 17855.885, 0.000000030362223, 10.000387, 9.998705 
9.550988e+2, 2.7527288e+2, -49793.76, -299659.3, 112755.336, -0.041050896, 0.22165053, -6435.23, 235897.73, 0.000002140531, 10.0019455, 9.99866 
9.551093e+2, 2.8527126e+2, 72074.41, -205098.84, 47641.246, -0.07502355, 0.20746163, 80034.5, 224382.22, 0.000025889522, 10.002172, 9.998527 
9.551186e+2, 2.9526708e+2, 8221.669, -194914.02, 78571.164, -0.16493028, -0.101376, 35065.094, 81449.97, 0.00011778403, 10.00109, 9.998443 
9.5512795e+2, 3.0526555e+2, 46436.676, -298909.7, 22558.355, -0.17668551, -0.02499639, 47903.977, 47903.977, 0.00031950467, 10.00169, 9.997108 
9.551383e+2, 3.152653e+2, 436434.97, 67358.36, 84341.95, -0.041004665, 0.20379923, 454795.53, 454795.53, 0.00062882464, 10.003518, 9.998749 
9.649388e+2, 1.2526292e+2, -2030613.1, -1738653.5, 47670.77, 0.054635387, 0.07770718, -1731067.0, -18637.896, 0.000040530904, 9.997177, 10.001193 
9.6494734e+2, 1.3526355e+2, -1859109.1, -1616445.9, 28691.582, -0.15188459, 0.0019007123, -1613099.6, 1320.6957, 0.000008656152, 9.997815, 10.001045 
9.649571e+2, 1.4526409e+2, -1700924.9, -1474382.4, 15581.104, -0.16398874, -0.043515254, -1473315.8, 43097.855, 0.00000019058375, 9.998146, 10.001161 
9.6496737e+2, 1.5526588e+2, -1547447.0, -1363836.5, -10704.779, -0.12062555, -0.017389514, -1363214.5, 55181.152, 0.0, 9.998592, 10.001039 
9.6497834e+2, 1.6526704e+2, -1484839.6, -1464041.4, 75834.51, -0.08503177, 0.083047874, -1397896.4, -77509.32, 0.0, 9.999138, 9.999413 
9.649902e+2, 1.7526719e+2, -1289888.5, -1325976.9, 84556.414, -0.05206871, 0.13059081, -1221472.4, 918.2977, 0.0, 9.999825, 9.999359 
9.650012e+2, 1.8526675e+2, -1178518.4, -1192653.4, 111550.59, -0.071174294, 0.14183336, -1073811.6, 50584.914, 0.0, 9.999765, 9.99964 
9.6501166e+2, 1.9526544e+2, -1198584.9, -1156834.5, 122269.48, -0.1423217, 0.018983701, -1053671.0, -27263.498, 0.0, 9.998978, 9.999594 
9.650223e+2, 2.0526522e+2, -1030649.9, -987059.6, 92496.91, -0.11391281, 0.027637258, -913824.7, 14584.911, 0.0, 9.999336, 9.999895 
9.650332e+2, 2.1526568e+2, -722974.06, -796267.44, 71545.62, 0.009313367, 0.052314725, -679235.7, 151171.48, 0.0, 10.000798, 9.999832 
9.650443e+2, 2.2526596e+2, -588366.8, -694748.3, 164140.27, 0.03100795, 0.11122653, -469014.0, 263390.13, 0.0, 10.001104, 9.999714 
9.650557e+2, 2.3526579e+2, -604645.44, -656172.56, 130296.9, -0.02961108, 0.095018186, -497589.4, 136814.22, 0.0, 10.000334, 9.999675 
9.650667e+2, 2.4526508e+2, -505139.97, -621603.3, 60393.68, -0.0508263, 0.088417076, -479476.94, 56932.42, 0.0, 10.00061, 9.999113 
9.650772e+2, 2.552636e+2, -240112.81, -451668.75, 26393.803, -0.02571276, 0.0033142588, -236869.64, 201553.22, 0.0, 10.0018, 9.999034 
9.6508855e+2, 2.6526308e+2, -129216.85, -393654.9, 94299.31, -0.014318068, 0.07587811, -99034.42, 241393.58, 0.000000012060779, 10.00209, 9.998614 
9.651006e+2, 2.7526298e+2, -124444.05, -349164.75, 66843.54, -0.022420535, 0.17286244, -106064.555, 136365.45, 0.0000023356135, 10.001484, 9.99854 
9.6511114e+2, 2.852614e+2, -15984.366, -220694.13, -1878.2905, -0.062425803, 0.15685564, -15967.134, 128477.27, 0.000028869204, 10.001456, 9.998751 
9.6512043e+2, 2.9525837e+2, 141420.56, -108041.21, -19679.58, -0.12287858, -0.05727067, 142963.5, 189434.78, 0.00012892728, 10.001918, 9.9986315 
9.6513015e+2, 3.052565e+2, 174714.22, -213746.72, 15469.283, -0.14691535, -0.032444797, 175329.25, 175329.25, 0.00034703137, 10.002445, 9.997334 
9.65142e+2, 3.1525588e+2, 316466.97, 57191.67, 29195.096, 0.047354925, 0.13192934, 319713.75, 319713.75, 0.0006841425, 10.002477, 9.999174 
9.749339e+2, 1.2525451e+2, -2017903.6, -1697096.8, 14368.979, -0.22906238, 0.2154493, -1696454.4, 16061.987, 0.000058506626, 9.997122, 10.001499 
9.7494644e+2, 1.3525495e+2, -1828557.1, -1553868.9, 60748.695, -0.058879856, 0.079278864, -1541033.8, 73474.71, 0.00001444443, 9.997826, 10.001466 
9.749572e+2, 1.4525515e+2, -1735510.0, -1546465.0, 16635.451, -0.009548077, 0.0028540187, -1545012.4, -28507.635, 0.0000005546723, 9.998145, 10.0006695 
9.7496563e+2, 1.552566e+2, -1584857.8, -1432517.6, 25431.01, -0.17926487, 0.04257246, -1428384.4, -9893.915, 0.0, 9.998558, 10.000582 
9.749765e+2, 1.6525717e+2, -1439781.3, -1363868.1, 83007.8, -0.21720792, 0.07277301, -1310550.4, 9934.522, 0.0, 9.9991, 10.000123 
9.749898e+2, 1.7525671e+2, -1242731.5, -1224997.6, 121057.93, -0.10846105, -0.013411354, -1112482.4, 110007.54, 0.0, 9.999804, 10.000066 
9.750014e+2, 1.8525697e+2, -1144661.5, -1100216.0, 68688.33, -0.061168738, -0.0016693738, -1050245.0, 74242.42, 0.0, 9.999673, 10.000319 
9.750116e+2, 1.9525751e+2, -1170235.8, -1066953.9, 110515.43, -0.079439975, -0.010181326, -996609.4, 29872.105, 0.0, 9.998848, 10.000267 
9.7502226e+2, 2.0525835e+2, -1066721.9, -1025545.44, 130574.625, -0.07757564, 0.08284373, -913945.9, 14527.974, 0.0, 9.999169, 9.999718 
9.7503364e+2, 2.1525915e+2, -762815.5, -837859.4, 138904.58, -0.057957035, 0.16261938, -656454.25, 174013.86, 0.0, 10.000614, 9.99964 
9.750448e+2, 2.2525862e+2, -648646.25, -773300.9, 117473.99, -0.05470669, 0.17142479, -577989.25, 154484.17, 0.0, 10.000903, 9.999269 
9.7505605e+2, 2.3525655e+2, -669459.25, -738410.8, 115708.45, -0.061934024, 0.0058045797, -583199.7, 51292.54, 0.0, 10.000113, 9.999213 
9.750677e+2, 2.452558e+2, -565367.9, -712168.25, 89159.24, -0.036074545, 0.04833243, -523282.28, 13217.127, 0.0, 10.000458, 9.99857 
9.750797e+2, 2.5525594e+2, -295894.8, -536771.5, 87052.914, 0.01595328, 0.17665724, -267727.63, 170771.61, 0.0, 10.001663, 9.998518 
9.750909e+2, 2.652539e+2, -162589.1, -436109.5, 57089.72, -0.01704504, 0.13451505, -151151.5, 189367.02, 0.0000000034767167, 10.001973, 9.998378 
9.7510135e+2, 2.752495e+2, -153146.86, -387035.3, 64789.742, -0.13030225, -0.17156544, -136398.67, 106160.42, 0.0000028342504, 10.001387, 9.998327 
9.751123e+2, 2.8524864e+2, -25896.13, -218709.23, 3489.832, -0.12729838, -0.114312775, -25832.986, 118735.13, 0.000032313746, 10.001368, 9.998806 
9.7512364e+2, 2.9525062e+2, 129096.38, -108183.375, 23232.762, -0.031581957, 0.16835643, 131349.77, 177900.67, 0.0001399921, 10.001816, 9.998677 
9.7513366e+2, 3.0524838e+2, 186730.9, -163344.38, 7842.6396, -0.07015619, 0.13782363, 186906.52, 186906.52, 0.00037284024, 10.002337, 9.997733 
9.751441e+2, 3.1524396e+2, 318735.16, 98313.73, 69608.22, -0.0687865, -0.12076115, 338876.66, 338876.66, 0.00073526404, 10.002326, 9.999527 
9.8493195e+2, 1.2524432e+2, -1975091.3, -1673831.0, 76746.34, -0.13640967, 0.15794657, -1655406.6, 57209.137, 0.00008108169, 9.9973955, 10.00153 
9.849444e+2, 1.3524577e+2, -1835480.9, -1560750.5, 43261.535, -0.021045225, 0.12211764, -1554099.3, 60501.023, 0.000022462764, 9.997768, 10.001455 
9.8495567e+2, 1.4524627e+2, -1741367.4, -1564306.1, 35913.418, 0.031684518, 0.08208187, -1557299.1, -40704.563, 0.0000013019285, 9.998152, 10.000547 
9.8496455e+2, 1.5524729e+2, -1545507.9, -1426284.5, 32489.574, -0.1516045, 0.0886968, -1418005.6, 578.4815, 0.0, 9.99887, 10.000473 
9.8497576e+2, 1.6524765e+2, -1453325.4, -1326048.9, 111993.516, -0.1777286, 0.082084626, -1260875.8, 59703.637, 0.0, 9.998811, 10.000525 
9.849892e+2, 1.752472e+2, -1460162.9, -1283336.9, 97237.16, -0.04900414, -0.041527648, -1240327.3, -17745.361, 0.0, 9.998119, 10.000477 
9.8500097e+2, 1.852479e+2, -1306162.8, -1154808.3, 48770.953, 0.0005188983, -0.015862452, -1140454.1, -15879.695, 0.0, 9.998477, 10.000513 
9.8501116e+2, 1.9524927e+2, -1036915.5, -985078.7, 17776.42, -0.038844332, 0.04234629, -979568.4, 46993.074, 0.0, 9.9997, 10.000419 
9.850223e+2, 2.0525005e+2, -937558.5, -979513.9, 64753.047, -0.032330375, 0.12767446, -890469.9, 38084.406, 0.0, 10.000099, 9.999596 
9.8503435e+2, 2.1524996e+2, -911897.56, -922852.9, 48315.09, 0.012464047, 0.12946568, -868750.6, -38194.902, 0.0, 9.99964, 9.999529 
9.8504585e+2, 2.2524902e+2, -793778.1, -869944.56, 57063.195, 0.0087204175, 0.114556625, -763257.06, -30692.361, 0.0, 10.000006, 9.999043 
9.850568e+2, 2.3524703e+2, -543344.9, -703708.8, 46102.543, -0.030842459, -0.019176342, -531035.8, 103547.805, 0.0, 10.0010805, 9.998993 
9.850688e+2, 2.4524628e+2, -394857.38, -637966.75, 96160.59, -0.023229435, 0.037750978, -361420.44, 175170.95, 0.0, 10.001681, 9.99848 
9.8508143e+2, 2.552462e+2, -272069.63, -537851.94, 91125.75, 0.017767277, 0.1542523, -243827.4, 194766.0, 0.0, 10.001882, 9.998404 
9.850928e+2, 2.6524404e+2, -184672.48, -459162.9, 68714.22, -0.012189216, 0.112532414, -168431.89, 172182.48, 0.00000001775074, 10.001883, 9.99827 
9.851032e+2, 2.7523974e+2, -113046.81, -382324.8, 48357.1, -0.09147965, -0.16995887, -104626.14, 138028.97, 0.000003544514, 10.001725, 9.998207 
9.851143e+2, 2.8523892e+2, 13297.722, -238255.03, 31076.422, -0.0821085, -0.08115751, 17079.984, 161744.5, 0.00003520851, 10.001774, 9.998501 
9.851258e+2, 2.9524094e+2, 121650.945, -148439.48, -6287.0996, 0.010273, 0.23330367, 121797.22, 168446.02, 0.00014922032, 10.001891, 9.9983835 
9.851362e+2, 3.0523837e+2, 207864.2, -102823.04, 9183.167, -0.030137122, 0.16088058, 208135.39, 208135.39, 0.00039592202, 10.002293, 9.998157 
9.851476e+2, 3.1523436e+2, 372542.5, 139553.48, -1938.0099, 0.04660743, -0.09145412, 372558.63, 372558.63, 0.0007798097, 10.002643, 9.999655 
9.949318e+2, 1.2523235e+2, -2006287.8, -1729102.0, 38851.5, 0.043553878, -0.09869559, -1723759.4, -11032.548, 0.000108580556, 9.997372, 10.001149 
9.949411e+2, 1.3523608e+2, -1869953.1, -1620943.0, 68564.375, -0.15920374, 0.12993181, -1603312.3, 11382.695, 0.000033028722, 9.997733, 10.001049 
9.949522e+2, 1.4523748e+2, -1726642.5, -1533890.9, 40034.164, -0.1797484, 0.19047481, -1525906.6, -9223.765, 0.0000026281716, 9.998143, 10.000768 
9.949636e+2, 1.55238e+2, -1523206.5, -1384386.1, 72014.18, -0.17619404, 0.12634833, -1353777.3, 64898.957, 0.00000000019976186, 9.998881, 10.000761 
9.9497557e+2, 1.6523854e+2, -1452082.6, -1311315.1, 69399.164, -0.11210389, 0.11536002, -1282855.0, 37814.348, 0.0, 9.998768, 10.000642 
9.949882e+2, 1.7523873e+2, -1458085.0, -1270342.6, 88465.55, 0.009309478, 0.042097956, -1235225.6, -12559.814, 0.0, 9.998082, 10.000583 
9.949997e+2, 1.8523951e+2, -1348005.1, -1220368.8, 78145.54, -0.009846148, 0.0933392, -1183293.5, -58635.535, 0.0, 9.998388, 10.000107 
9.9501e+2, 1.9524057e+2, -1080329.1, -1046693.3, 77499.75, -0.15275542, 0.16085447, -984207.7, 42441.273, 0.0, 9.999578, 10.000053 
9.950219e+2, 2.0524019e+2, -970345.5, -999103.9, 29763.762, -0.111023314, 0.14850083, -951669.56, -23017.396, 0.0, 9.9999, 9.999552 
9.950351e+2, 2.1523811e+2, -943422.94, -938398.44, 45275.66, 0.096596465, -0.04449484, -895565.4, -64895.406, 0.0, 9.999434, 9.999516 
9.9504703e+2, 2.2523731e+2, -822210.3, -877068.3, 81767.87, 0.10713244, -0.049427457, -763393.56, -30716.71, 0.0, 9.999785, 9.999101 
9.950578e+2, 2.3523733e+2, -569801.6, -709512.3, 101861.26, -0.06621594, 0.014520462, -516143.9, 118533.07, 0.0, 10.000872, 9.999053 
9.950695e+2, 2.4523652e+2, -399086.6, -609298.94, 88523.29, -0.14639802, 0.047559712, -366774.84, 169910.23, 0.0, 10.001514, 9.998757 
9.9508196e+2, 2.5523454e+2, -277669.72, -509028.16, 114278.7, -0.14405489, -0.05657741, -230741.13, 207963.17, 0.0, 10.001701, 9.99869 
9.9509394e+2, 2.6523367e+2, -216147.27, -487965.44, 48205.28, -0.11648605, 0.023532134, -207851.53, 132862.72, 0.000000028595345, 10.001732, 9.998143 
9.951055e+2, 2.7523345e+2, -143025.4, -414689.28, 62394.75, -0.0643254, 0.1637579, -129380.195, 113339.445, 0.000003781716, 10.001603, 9.998042 
9.951164e+2, 2.852321e+2, -39635.97, -328658.47, 22165.645, -0.07360714, 0.23664406, -37945.93, 106789.984, 0.000036350866, 10.001688, 9.997919 
9.9512666e+2, 2.952295e+2, 78209.57, -223385.16, 20494.686, -0.13986668, 0.14680645, 79595.9, 126359.234, 0.00015456251, 10.001826, 9.997897 
9.951376e+2, 3.0522668e+2, 217325.36, -68181.79, 15635.959, -0.15467085, 0.056133997, 218179.13, 218179.13, 0.00041193186, 10.002233, 9.998424 
9.9515116e+2, 3.1522673e+2, 341177.25, 117518.586, 46405.38, 0.068794176, 0.18358974, 350423.34, 350423.34, 0.0008105773, 10.002466, 9.999585 
1.0049298e+3, 1.2522222e+2, -2105728.0, -1790944.5, 48251.785, 0.14054616, -0.13019826, -1783714.3, -70890.78, 0.00014134821, 9.99675, 10.001027 
1.0049391e+3, 1.3522594e+2, -1935433.1, -1666271.4, 55754.6, -0.105322145, 0.11114634, -1655179.4, -40387.77, 0.000046426092, 9.997352, 10.000916 
1.0049506e+3, 1.4522718e+2, -1797991.1, -1573619.3, 76000.08, -0.11737441, 0.16646743, -1550299.9, -33518.37, 0.00000474816, 9.997707, 10.0006895 
1.0049623e+3, 1.5522736e+2, -1625396.4, -1445680.3, 38245.883, -0.14541332, 0.079870835, -1437879.6, -19100.729, 0.000000004412824, 9.998244, 10.000647 
1.0049744e+3, 1.6522792e+2, -1469401.4, -1336242.5, 14796.564, -0.0880476, 0.08474387, -1334618.1, -13845.522, 0.0, 9.9987, 10.000516 
1.00498706e+3, 1.7522849e+2, -1325719.1, -1219215.1, -13485.556, 0.04717824, 0.06144674, -1217534.1, 5232.0933, 0.0, 9.999033, 10.000483 
1.00499876e+3, 1.8522917e+2, -1222387.8, -1172142.8, 45962.703, 0.028175754, 0.11238013, -1144884.8, -20125.482, 0.0, 9.9993105, 9.999989 
1.0050098e+3, 1.9522963e+2, -1084762.5, -1061759.9, 34675.285, -0.12612878, 0.13052866, -1036728.25, -9973.087, 0.0, 9.99961, 9.9999275 
1.00502215e+3, 2.0522894e+2, -944465.56, -999862.5, 2146.729, -0.073314026, 0.1009536, -944382.5, -15621.288, 0.0, 10.000126, 9.999442 
1.0050358e+3, 2.1522689e+2, -756578.25, -867561.44, -20417.771, 0.16398577, -0.07700589, -752941.1, 77839.0, 0.0, 10.000775, 9.999371 
1.0050481e+3, 2.2522628e+2, -615390.25, -765467.1, 63953.934, 0.17358355, -0.058476005, -591834.2, 140951.47, 0.0, 10.001169, 9.999197 
1.0050592e+3, 2.3522668e+2, -491645.78, -661772.44, 48784.79, -0.029239055, 0.033532597, -478649.28, 156132.94, 0.0, 10.001374, 9.999136 
1.00507095e+3, 2.4522592e+2, -421244.72, -602203.6, 35681.164, -0.13381714, 0.062748075, -414463.28, 122326.17, 0.0, 10.001285, 9.998919 
1.0050832e+3, 2.5522384e+2, -380390.8, -533167.9, 20846.104, -0.13929328, -0.0672542, -377597.47, 61211.566, 0.0, 10.000909, 9.998893 
1.0050955e+3, 2.6522326e+2, -281401.16, -512496.38, 9177.393, -0.10048876, 0.0253993, -281037.28, 59778.797, 0.000000017098808, 10.00125, 9.998201 
1.0051077e+3, 2.7522352e+2, -58733.15, -363185.4, 7296.5103, -0.022806462, 0.20219208, -58558.38, 184258.1, 0.000003428396, 10.002136, 9.998129 
1.0051188e+3, 2.852217e+2, 85471.59, -315343.84, 13322.316, -0.04985924, 0.25058568, 85913.914, 230750.22, 0.00003625069, 10.002768, 9.997478 
1.0051289e+3, 2.952179e+2, 232535.39, -198248.95, -18615.002, -0.152446, 0.08287845, 233338.28, 280213.6, 0.00015744341, 10.003101, 9.997451 
1.00514024e+3, 3.0521488e+2, 359261.1, -24215.453, -15364.721, -0.14911194, 0.0030713696, 359875.72, 359875.72, 0.00042211023, 10.003286, 9.998239 
1.00515485e+3, 3.152156e+2, 388291.3, 84145.984, -78388.98, 0.1781593, 0.21892868, 407306.13, 407306.13, 0.0008305699, 10.002991, 9.999134 
1.0149246e+3, 1.2521406e+2, -2101146.5, -1759036.3, 7297.068, -0.122433, 0.06800345, -1758880.6, -45976.555, 0.0001798155, 9.996678, 10.001268 
1.01493776e+3, 1.3521543e+2, -1923383.1, -1639152.3, 90512.984, -0.0066492097, 0.056703493, -1612776.1, 2112.935, 0.000062927356, 9.997351, 10.001098 
1.0149504e+3, 1.4521538e+2, -1840347.5, -1654640.8, 73355.0, 0.045903906, -0.0011947163, -1629161.1, -112270.99, 0.000007860604, 9.997678, 10.000145 
1.0149605e+3, 1.5521538e+2, -1668025.4, -1529142.0, 73633.46, -0.18936105, -0.052365255, -1497370.9, -78478.89, 0.000000028517778, 9.998226, 10.000078 
1.0149721e+3, 1.6521588e+2, -1497928.3, -1388054.8, 10283.609, -0.22928132, -0.0076993005, -1387100.5, -66212.13, 0.0, 9.998668, 10.000175 
1.0149853e+3, 1.7521657e+2, -1350713.5, -1268275.5, 12766.032, -0.06525613, 0.013538032, -1266343.9, -43461.375, 0.0, 9.999018, 10.000154 
1.01499796e+3, 1.8521692e+2, -1224020.6, -1155214.8, 40059.965, -0.020910185, 0.040661022, -1136812.8, -11934.729, 0.0, 9.999224, 10.000146 
1.0150101e+3, 1.9521658e+2, -1092752.0, -1048382.75, 59980.313, -0.089402206, -0.03798541, -1006615.9, 20262.633, 0.0, 9.999481, 10.000081 
1.0150228e+3, 2.0521651e+2, -981100.3, -1040694.4, 10823.634, -0.0520226, -0.0037304203, -979195.4, -50315.43, 0.0, 9.999974, 9.999234 
1.015036e+3, 2.1521638e+2, -796021.06, -906707.94, 17014.477, 0.08447203, 0.030404199, -793464.7, 37420.68, 0.0, 10.000595, 9.999185 
1.01504855e+3, 2.2521608e+2, -647663.5, -778938.6, 54634.664, 0.08014904, 0.08770907, -627900.56, 104989.4, 0.0, 10.000943, 9.99921 
1.0150606e+3, 2.3521526e+2, -520414.72, -671237.44, 70398.336, -0.054056305, 0.05346623, -492662.16, 142235.31, 0.0, 10.001161, 9.99917 
1.0150727e+3, 2.452147e+2, -446086.53, -609101.75, 3024.253, -0.11183672, 0.09941561, -446030.47, 90871.96, 0.0, 10.001093, 9.998965 
1.0150847e+3, 2.552141e+2, -397805.03, -537127.9, 22989.045, -0.10648244, 0.111603975, -394109.72, 44798.496, 0.0, 10.000766, 9.998939 
1.015097e+3, 2.6521268e+2, -274916.63, -468967.6, 30319.459, -0.09874994, 0.10208028, -270289.7, 70631.21, 0.000000011022683, 10.001125, 9.998559 
1.0151094e+3, 2.7521014e+2, -52576.566, -318212.3, 60881.137, -0.09813673, -0.03838682, -39287.973, 203655.64, 0.0000031084232, 10.002, 9.998502 
1.01512104e+3, 2.8520805e+2, 41881.64, -380456.13, 10195.332, -0.13171028, -0.01972434, 42127.613, 187091.86, 0.000035475467, 10.002663, 9.997076 
1.0151319e+3, 2.9520613e+2, 179528.92, -272005.0, 14715.559, -0.19937399, 0.040985823, 180008.0, 226993.42, 0.00015874387, 10.002954, 9.99701 
1.0151436e+3, 3.052029e+2, 302238.66, -119187.49, -34006.28, -0.16791575, -0.00050372403, 304965.13, 304965.13, 0.00042931808, 10.00319, 9.997628 
1.01515755e+3, 3.1520116e+2, 297140.9, -45802.133, -44008.48, 0.08531497, 0.02658582, 302698.28, 302698.28, 0.00084597495, 10.002758, 9.99834 
1.0249214e+3, 1.2520266e+2, -2060041.5, -1712129.5, -69473.8, -0.10153693, 0.11884488, -1698769.5, 14247.919, 0.00022439056, 9.996825, 10.001534 
1.02493614e+3, 1.3520339e+2, -1762077.9, -1537909.0, -27922.447, 0.0617368, 0.025190365, -1534483.4, 80523.125, 0.0000828242, 9.998353, 10.001321 
1.02494925e+3, 1.4520329e+2, -1735368.3, -1610972.0, -32229.31, 0.1292814, -0.044524085, -1603117.8, -86110.88, 0.000012107546, 9.998407, 10.000109 
1.02495864e+3, 1.5520357e+2, -1793983.3, -1593870.8, -25610.586, -0.1408907, -0.06593474, -1590645.1, -171638.53, 0.00000009714164, 9.997368, 10.000053 
1.02497056e+3, 1.6520418e+2, -1637338.4, -1456875.8, 26061.941, -0.19456801, -0.0057359254, -1453187.4, -132184.98, 0.0, 9.997746, 10.000128 
1.0249849e+3, 1.752049e+2, -1276628.6, -1233019.5, 14244.18, -0.03321418, 0.0241665, -1228779.1, -5782.583, 0.0, 9.999559, 10.000116 
1.02499805e+3, 1.85205e+2, -1095131.6, -1097289.6, 26893.656, 0.02878306, 0.028069666, -1069295.4, 55698.77, 0.0, 10.000106, 10.000126 
1.0250101e+3, 1.9520418e+2, -1102723.6, -1055633.0, 7576.247, -0.020898327, -0.096432246, -1054444.1, -27446.031, 0.0, 9.999412, 10.000073 
1.0250229e+3, 2.0520434e+2, -1052211.6, -1071229.6, 22025.959, -0.014768718, -0.039764114, -1037729.7, -108731.96, 0.0, 9.999487, 9.99926 
1.025036e+3, 2.1520506e+2, -843898.06, -926532.44, 10590.503, 0.04884344, 0.0817025, -842562.4, -11565.707, 0.0, 10.000275, 9.9992 
1.02504894e+3, 2.2520499e+2, -666079.4, -774055.0, 71888.39, 0.04445599, 0.15508147, -630163.75, 102835.75, 0.0, 10.00075, 9.999339 
1.02506176e+3, 2.3520385e+2, -561761.0, -679536.9, 67618.01, -0.02930677, 0.07850788, -530983.0, 104026.27, 0.0, 10.000826, 9.999278 
1.0250741e+3, 2.4520315e+2, -461745.44, -619455.06, 21805.701, -0.06198528, 0.10549113, -458786.03, 78229.55, 0.0, 10.001019, 9.998912 
1.0250862e+3, 2.5520247e+2, -326853.56, -511919.28, -2861.5117, -0.061978176, 0.118597485, -326809.34, 112213.02, 0.0, 10.001297, 9.99885 
1.0250986e+3, 2.6520076e+2, -208952.92, -454057.2, 36063.62, -0.07216034, 0.09389393, -203756.83, 137280.88, 0.00000001218603, 10.001648, 9.998413 
1.02511145e+3, 2.751978e+2, -59666.71, -332876.22, -4845.397, -0.08038821, -0.07551999, -59580.805, 183483.11, 0.0000027111198, 10.00201, 9.998394 
1.02512375e+3, 2.8519568e+2, 22147.623, -372709.2, -27132.541, -0.096492305, -0.06311035, 24003.313, 169087.2, 0.00003356842, 10.002446, 9.997242 
1.0251355e+3, 2.95194e+2, 174447.34, -258173.36, -18839.965, -0.116825946, 0.0073886667, 175266.25, 222367.7, 0.00015737157, 10.002842, 9.997169 
1.02514744e+3, 3.051909e+2, 319636.66, -145992.31, -6360.515, -0.10669637, -0.015474753, 319723.53, 319723.53, 0.00043278775, 10.00348, 9.997292 
1.0251608e+3, 3.1518832e+2, 451422.34, -24111.277, -59861.395, 0.082755715, -0.04069963, 458842.06, 458842.06, 0.00085734465, 10.004038, 9.997866 
1.0349191e+3, 1.2518775e+2, -2033540.4, -1666032.4, -77598.17, -0.09462398, 0.0042227507, -1650319.6, 62846.53, 0.00027553758, 9.9968605, 10.001831 
1.0349337e+3, 1.351898e+2, -1748033.0, -1510739.1, 34574.184, -0.04269805, 0.019336153, -1505804.3, 109339.19, 0.000106410545, 9.998356, 10.001508 
1.0349465e+3, 1.4519094e+2, -1697873.9, -1532476.0, -94234.03, -0.024373414, 0.039060064, -1489798.9, 27332.771, 0.000017580353, 9.998409, 10.000646 
1.0349564e+3, 1.551919e+2, -1752820.6, -1510833.8, -48703.375, -0.13887922, 0.02964629, -1501399.4, -82276.15, 0.00000023822265, 9.997373, 10.000625 
1.03496924e+3, 1.6519283e+2, -1633787.6, -1433318.8, 73875.84, -0.13141002, 0.08221448, -1409035.8, -87921.1, 0.0, 9.997686, 10.000314 
1.03498526e+3, 1.751935e+2, -1274460.1, -1213495.6, 94772.24, 0.022029554, 0.08840303, -1144424.1, 78684.24, 0.0, 9.999498, 10.000279 
1.0349987e+3, 1.8519348e+2, -1119627.5, -1127720.6, -18244.459, 0.049040746, 0.08241095, -1104986.3, 20120.666, 0.0, 10.000019, 9.999959 
1.03500955e+3, 1.9519246e+2, -1129622.5, -1088458.6, -6264.3535, -0.047134377, -0.047783945, -1087526.5, -60412.848, 0.0, 9.999308, 9.999901 
1.0350217e+3, 2.0519242e+2, -1067179.1, -1060431.4, 34278.54, -0.08622026, -0.0104210675, -1029361.06, -100246.27, 0.0, 9.999304, 9.999422 
1.0350354e+3, 2.1519287e+2, -851316.5, -910450.75, 56065.63, -0.059671775, 0.06596198, -817499.3, 13615.388, 0.0, 10.000127, 9.999386 
1.0350488e+3, 2.2519295e+2, -676888.6, -748076.0, 59236.42, -0.060768656, 0.13008769, -643374.7, 89740.34, 0.0, 10.000549, 9.999612 
1.03506215e+3, 2.3519242e+2, -571922.7, -653718.8, 84721.62, -0.09092405, 0.085635796, -518744.2, 116374.07, 0.0, 10.000626, 9.99955 
1.0350748e+3, 2.451912e+2, -513555.44, -677693.56, 19623.477, -0.11884494, 0.065653056, -511241.97, 25887.39, 0.0, 10.00081, 9.998612 
1.0350869e+3, 2.551891e+2, -370870.13, -563959.9, 25142.615, -0.1398622, -0.03921005, -367649.97, 71500.73, 0.0, 10.001132, 9.9985695 
1.03509985e+3, 2.651877e+2, -270967.2, -553632.25, 33464.55, -0.13777855, 0.011366954, -267059.38, 74105.73, 0.00000000560088, 10.001525, 9.997787 
1.0351134e+3, 2.7518657e+2, -124967.45, -431725.78, 27180.715, -0.11605441, 0.08450514, -122577.69, 120599.68, 0.0000022721786, 10.001862, 9.997783 
1.03512675e+3, 2.851846e+2, 56313.117, -275067.78, -26220.121, -0.08588361, 0.108769014, 58374.926, 203570.58, 0.000031172072, 10.002333, 9.997966 
1.03513926e+3, 2.9518178e+2, 201548.08, -167481.63, 20931.816, -0.060920823, -0.004389629, 202731.56, 249952.38, 0.00015322318, 10.002697, 9.99786 
1.03515126e+3, 3.0517888e+2, 290043.38, -181134.0, 5919.464, -0.097362995, -0.030116908, 290117.72, 290117.72, 0.00043103905, 10.003374, 9.997097 
1.0351635e+3, 3.1517723e+2, 399909.34, -66003.484, 10919.526, -0.12458375, 0.05677378, 400165.13, 400165.13, 0.0008619147, 10.00379, 9.9976845 
1.0449171e+3, 1.2517479e+2, -1926512.4, -1653040.9, 37163.29, -0.0022720566, -0.01152814, -1648080.6, 65212.3, 0.0003338259, 9.997732, 10.001506 
1.0449314e+3, 1.3517688e+2, -1907690.8, -1626693.8, 71577.086, -0.05301797, 0.038491867, -1609511.8, 5760.765, 0.00013404706, 9.9974, 10.001174 
1.0449441e+3, 1.4517833e+2, -1761798.8, -1514145.3, -50964.848, -0.07069926, 0.08369597, -1504067.3, 13190.355, 0.000024406929, 9.997775, 10.001068 
1.0449552e+3, 1.5517955e+2, -1466864.8, -1319855.3, -56266.49, -0.07478909, 0.058537416, -1300791.8, 118452.35, 0.0000004785213, 9.999132, 10.001075 
1.04496874e+3, 1.6518046e+2, -1389885.3, -1314968.4, 100422.68, -0.030221907, 0.086880796, -1245245.4, 75988.67, 0.0, 9.999339, 10.000346 
1.04498476e+3, 1.7518085e+2, -1412816.3, -1277789.9, 81781.07, 0.08149211, 0.06039872, -1239255.1, -16025.297, 0.0, 9.998526, 10.000319 
1.0449982e+3, 1.8518083e+2, -1328849.1, -1245279.6, -17082.773, 0.08346433, 0.060334858, -1241922.5, -116693.4, 0.0, 9.998671, 9.999794 
1.0450091e+3, 1.951801e+2, -1075965.1, -1078176.4, -41067.71, -0.023542129, -0.022165032, -1035988.1, -8752.993, 0.0, 9.999756, 9.999747 
1.0450217e+3, 2.0517987e+2, -925406.1, -993105.94, 31587.664, -0.062161066, 0.00517517, -912957.06, 16281.0, 0.0, 10.000279, 9.999412 
1.0450358e+3, 2.1517974e+2, -843006.3, -903325.9, 8250.022, -0.0316628, 0.022613352, -841898.3, -10656.677, 0.0, 10.000185, 9.999397 
1.0450494e+3, 2.2517958e+2, -752762.94, -809553.4, -540.64734, -0.03259667, 0.07195908, -752757.75, -19513.563, 0.0, 10.000122, 9.999404 
1.0450626e+3, 2.35179e+2, -666150.8, -725022.1, -42839.598, -0.06659956, 0.047662824, -643608.7, -8359.44, 0.0, 10.000071, 9.999339 
1.04507565e+3, 2.451779e+2, -569054.6, -725628.5, -66580.97, -0.09454657, 0.05841445, -544570.6, -7309.904, 0.0, 10.000502, 9.998445 
1.0450884e+3, 2.551761e+2, -345898.03, -568195.6, -82712.54, -0.1086564, -0.0014572778, -318499.28, 120781.46, 0.0, 10.00137, 9.998431 
1.0451018e+3, 2.651748e+2, -214150.52, -505913.94, -26843.871, -0.09509443, 0.05882581, -211701.28, 129592.77, 0.0000000009945924, 10.001821, 9.997982 
1.0451158e+3, 2.7517352e+2, -120120.82, -413962.44, -5477.563, -0.05558334, 0.1036884, -120018.74, 123287.664, 0.0000020282196, 10.001795, 9.997954 
1.04512915e+3, 2.8517166e+2, 34355.652, -265620.72, -4902.318, -0.044098668, 0.120153226, 34435.75, 179759.22, 0.00002862313, 10.002092, 9.998149 
1.045142e+3, 2.9516926e+2, 205768.83, -136368.56, -35131.938, -0.0527922, 0.02325602, 209339.06, 256684.53, 0.00014660136, 10.002611, 9.998108 
1.04515456e+3, 3.051668e+2, 296092.6, -159612.17, -11070.515, -0.08657157, 0.019794922, 296361.38, 296361.38, 0.00042212423, 10.003319, 9.997275 
1.0451676e+3, 3.1516495e+2, 423155.44, -40743.39, -37088.99, -0.065076225, 0.07334834, 426102.0, 426102.0, 0.0008537748, 10.003833, 9.997861 
1.0549145e+3, 1.2516369e+2, -1985790.3, -1769625.3, -26279.004, -0.10142799, 0.041228887, -1766476.4, -53077.707, 0.00039971265, 9.997723, 10.000701 
1.0549286e+3, 1.3516474e+2, -1970937.4, -1748412.0, 73854.58, -0.10604506, 0.07506431, -1726131.1, -110738.61, 0.00016604259, 9.997368, 10.000353 
1.0549413e+3, 1.4516567e+2, -1748742.5, -1482346.0, -21657.773, -0.16472328, 0.09600583, -1480596.8, 36786.105, 0.000032768716, 9.997751, 10.001298 
1.0549546e+3, 1.5516661e+2, -1455586.5, -1295142.3, 6826.661, -0.080997266, 0.01829323, -1294852.4, 124516.33, 0.0000008393984, 9.999117, 10.001256 
1.0549684e+3, 1.651672e+2, -1400099.4, -1326527.4, 52394.37, -0.03226465, 0.008239634, -1299294.8, 22065.002, 0.0, 9.9993, 10.000282 
1.0549829e+3, 1.7516707e+2, -1420412.6, -1289742.6, 66293.86, 0.012626478, -0.062727086, -1261999.5, -38639.98, 0.0, 9.998504, 10.000246 
1.0549963e+3, 1.8516716e+2, -1360056.4, -1284382.5, 5406.5933, -0.0038139403, -0.037437174, -1283998.1, -158638.67, 0.0, 9.998562, 9.999578 
1.0550087e+3, 1.9516714e+2, -1106491.3, -1117839.6, 14305.011, -0.07953063, -0.029201867, -1096776.1, -69413.9, 0.0, 9.999646, 9.999532 
1.0550221e+3, 2.0516679e+2, -964137.3, -1034481.6, 9988.81, -0.06898326, 0.0074391663, -962746.44, -33379.63, 0.0, 10.000113, 9.999209 
1.0550366e+3, 2.1516575e+2, -885627.7, -951856.0, 18005.148, 0.020022035, -0.04688142, -881049.25, -49672.375, 0.0, 10.000004, 9.999158 
1.0550502e+3, 2.2516486e+2, -835287.75, -930939.5, -16183.164, 0.011987678, -0.02032704, -832623.94, -99236.78, 0.0, 9.999912, 9.998666 
1.05506286e+3, 2.351637e+2, -741123.6, -839218.44, -28094.521, -0.08191798, -0.032474156, -733647.1, -98245.83, 0.0, 9.999893, 9.998636 
1.0550762e+3, 2.4516338e+2, -599078.3, -745915.0, -49263.914, -0.120073676, 0.09116275, -584081.75, -46673.543, 0.0, 10.000326, 9.998387 
1.05509005e+3, 2.551635e+2, -373821.56, -587132.06, -36657.375, -0.10276938, 0.23042366, -367697.8, 71713.805, 0.0, 10.001203, 9.99838 
1.0551041e+3, 2.651621e+2, -171435.1, -379278.28, -41609.902, -0.072074965, 0.23255135, -163414.38, 178010.03, 0.000000000012280949, 10.001664, 9.998921 
1.05511814e+3, 2.7515894e+2, -76785.08, -289020.8, 14124.075, -0.034370225, -0.008146506, -75849.26, 167599.9, 0.0000016155456, 10.001646, 9.998879 
1.0551311e+3, 2.851572e+2, -7616.496, -322365.03, 823.7872, -0.09503048, -0.0069598267, -7614.34, 137849.97, 0.000025306648, 10.0019655, 9.997821 
1.0551431e+3, 2.9515645e+2, 162374.84, -195927.61, 10101.713, -0.24441968, 0.0983507, 162659.42, 210133.4, 0.00013793015, 10.002481, 9.9977665 
1.0551569e+3, 3.051545e+2, 322444.88, -82621.71, 2460.6736, -0.22582851, 0.13365622, 322459.84, 322459.84, 0.00040720604, 10.00322, 9.997852 
1.05517246e+3, 3.151517e+2, 423781.94, 15771.203, 35611.945, -0.03494239, 0.030548906, 426866.88, 426866.88, 0.00083313056, 10.003596, 9.998364 
1.064912e+3, 1.2515154e+2, -2102126.5, -1836142.4, -24469.678, -0.086501844, 0.07185393, -1833910.0, -120394.01, 0.00047318285, 9.996991, 10.000601 
1.064927e+3, 1.3515194e+2, -1849282.5, -1691786.9, 65463.88, -0.02680552, 0.048976224, -1668130.0, -52613.938, 0.00020250746, 9.9982395, 10.000318 
1.0649397e+3, 1.4515255e+2, -1668464.4, -1489678.0, 17637.463, -0.13009807, 0.061973345, -1487954.8, 29554.883, 0.000042863663, 9.998484, 10.000908 
1.0649537e+3, 1.5515321e+2, -1623754.0, -1415090.1, -39896.344, -0.022065395, -0.0044677183, -1407722.3, 11776.712, 0.0000013547858, 9.998132, 10.000909 
1.0649675e+3, 1.651535e+2, -1533509.3, -1389591.6, 7983.2573, 0.015945977, -0.027324898, -1389150.3, -67657.266, 0.0, 9.99837, 10.000302 
1.0649817e+3, 1.7515314e+2, -1326837.3, -1240840.9, -6144.0293, 0.018418225, -0.12359252, -1240404.1, -16909.475, 0.0, 9.999132, 10.000283 
1.0649954e+3, 1.8515341e+2, -1195913.6, -1207667.8, 7427.4644, -0.009348317, -0.08045916, -1192319.3, -66826.08, 0.0, 9.999685, 9.999568 
1.0650086e+3, 1.9515401e+2, -1041914.4, -1087611.8, 985.80927, -0.07237787, -0.009846627, -1041893.1, -14401.489, 0.0, 10.000085, 9.999531 
1.0650227e+3, 2.0515384e+2, -903322.44, -1015357.1, 18616.336, -0.0375646, 0.04863981, -900310.0, 29185.066, 0.0, 10.00058, 9.999108 
1.065038e+3, 2.1515265e+2, -718092.25, -879355.9, 217.84456, 0.09321705, -0.010954936, -718091.94, 113414.32, 0.0, 10.001202, 9.99907 
1.0650514e+3, 2.2515146e+2, -645288.56, -870403.2, 4501.134, 0.07686927, 0.005793216, -645198.6, 88320.51, 0.0, 10.001343, 9.998394 
1.0650633e+3, 2.3514998e+2, -598461.8, -794349.56, -396.0328, -0.06796956, -0.014688831, -598461.0, 37075.64, 0.0, 10.000986, 9.998409 
1.0650768e+3, 2.4514948e+2, -512135.38, -701625.3, 50374.9, -0.11126556, 0.10074488, -499575.9, 37968.77, 0.0, 10.00091, 9.998411 
1.0650916e+3, 2.551495e+2, -391789.28, -598157.44, 36644.727, -0.061488267, 0.23473908, -385475.47, 54072.188, 0.0, 10.00108, 9.998372 
1.0651061e+3, 2.65148e+2, -240569.48, -405626.78, 9776.914, -0.009489661, 0.22452323, -239992.38, 101568.99, 0.0, 10.001147, 9.998989 
1.06512025e+3, 2.7514488e+2, -169661.55, -318858.5, -38266.72, 0.053716972, -0.024788745, -160419.25, 83167.87, 0.00000091217555, 10.0009575, 9.998999 
1.0651335e+3, 2.8514346e+2, -78619.54, -332933.88, 4699.7407, -0.002402088, -0.011122778, -78532.72, 67066.64, 0.000020761427, 10.001364, 9.998042 
1.0651461e+3, 2.9514313e+2, 158191.45, -175846.97, 19137.832, -0.16278486, 0.11787571, 159284.33, 206888.36, 0.00012637535, 10.002332, 9.997982 
1.0651606e+3, 3.0514127e+2, 286794.6, -88564.8, 33241.98, -0.14101769, 0.1421938, 289715.78, 289715.78, 0.00038601994, 10.002933, 9.997936 
1.0651769e+3, 3.1513774e+2, 333863.66, 97.58262, -25129.393, 0.097637646, -0.044114802, 335745.03, 335745.03, 0.0008001297, 10.002881, 9.998572 
1.0749086e+3, 1.2513806e+2, -2068456.1, -1748305.8, 15861.929, -0.19915628, 0.052680783, -1747521.8, -33873.78, 0.00055371417, 9.996941, 10.001214 
1.07492626e+3, 1.3513845e+2, -1808307.1, -1596939.4, 118763.02, 0.03598992, -0.03994011, -1543646.1, 71997.016, 0.00024334127, 9.998209, 10.000977 
1.0749386e+3, 1.45139e+2, -1735583.4, -1632687.9, -20707.271, -0.1257102, -0.019149454, -1628677.0, -111039.125, 0.00005483326, 9.9984865, 9.999931 
1.074952e+3, 1.5513936e+2, -1687578.8, -1552611.5, -38127.758, -0.03737572, -0.018468847, -1542585.4, -122950.38, 0.000002073113, 9.998141, 9.999967 
1.074966e+3, 1.651395e+2, -1536167.0, -1378082.0, 17392.225, -0.0125379665, -0.016048342, -1376191.3, -54558.332, 0.0000000000166348, 9.998309, 10.000405 
1.0749807e+3, 1.7513905e+2, -1326247.3, -1226867.4, 37371.74, -0.017797302, -0.13237208, -1214382.3, 9252.53, 0.0, 9.999079, 10.000402 
1.0749947e+3, 1.8513961e+2, -1198889.8, -1186771.0, 5958.8335, -0.058174815, -0.075005494, -1184331.9, -58701.84, 0.0, 9.999577, 9.999762 
1.0750083e+3, 1.9514073e+2, -1048406.06, -1066296.3, 29686.842, -0.13341495, 0.028207174, -1026345.94, 1277.0532, 0.0, 9.999942, 9.999742 
1.07502304e+3, 2.0514105e+2, -931387.56, -1036465.0, 22236.514, -0.08971652, 0.12779844, -926875.6, 2746.8232, 0.0, 10.000416, 9.999047 
1.07503906e+3, 2.1514031e+2, -746904.5, -896445.1, 37162.043, 0.06364237, 0.11770678, -738178.6, 93452.26, 0.0, 10.001011, 9.999049 
1.0750526e+3, 2.2513936e+2, -659845.9, -847752.0, -23022.738, 0.043355945, 0.14471564, -657066.2, 76574.36, 0.0, 10.001119, 9.998657 
1.0750639e+3, 2.3513785e+2, -610799.75, -773037.75, 4522.282, -0.14313097, 0.094454534, -610673.8, 24981.121, 0.0, 10.000783, 9.998656 
1.0750771e+3, 2.4513622e+2, -542722.7, -715126.06, 43734.12, -0.19048828, 0.08570626, -532263.1, 5407.014, 0.0, 10.000705, 9.99841 
1.07509255e+3, 2.5513414e+2, -410584.75, -603341.06, 60338.2, -0.10696627, 0.0025640063, -393255.2, 46434.293, 0.0, 10.000934, 9.998403 
1.0751073e+3, 2.651326e+2, -324006.88, -536628.2, -13002.62, -0.019811515, 0.02896629, -323214.66, 18490.453, 0.000000000031670343, 10.000975, 9.998172 
1.0751216e+3, 2.7513126e+2, -245657.58, -448986.2, -23946.4, 0.06708363, 0.042818546, -242875.42, 845.3444, 0.00000057346807, 10.000839, 9.998166 
1.07513614e+3, 2.8513035e+2, -32813.863, -220408.72, 24221.215, 0.08510347, 0.107547894, -29737.02, 115992.23, 0.000016841232, 10.001291, 9.998846 
1.0751509e+3, 2.9512948e+2, 195255.36, -66368.1, 77205.484, 0.036816645, 0.09730525, 216339.63, 264073.4, 0.000114238224, 10.002193, 9.9988 
1.0751655e+3, 3.0512714e+2, 239969.55, -166236.11, 25337.322, 0.024621207, 0.062267724, 241543.88, 241543.88, 0.0003625103, 10.002846, 9.997446 
1.07517995e+3, 3.1512296e+2, 278463.28, -83760.24, 32193.957, 0.038193207, -0.14853488, 281302.4, 281302.4, 0.00076317973, 10.002734, 9.998078 
1.0849059e+3, 1.2512337e+2, -1999801.5, -1697782.9, 24888.447, -0.15332133, 0.038105592, -1695745.6, 18046.592, 0.00064071716, 9.997279, 10.001423 
1.0849242e+3, 1.351241e+2, -2012044.1, -1664317.0, -9789.206, 0.109955624, -0.049891755, -1664041.6, -48259.164, 0.00028839763, 9.99665, 10.001277 
1.0849368e+3, 1.4512484e+2, -1927857.9, -1690799.0, -55024.48, -0.080575414, -0.03711383, -1678649.8, -160875.06, 0.00006873226, 9.997063, 10.0001955 
1.08495094e+3, 1.5512551e+2, -1564377.0, -1465350.3, -23981.764, 0.014226039, -0.029743476, -1459848.1, -40078.895, 0.0000030594845, 9.998889, 10.000194 
1.0849653e+3, 1.6512583e+2, -1370948.1, -1340338.4, 71277.75, 0.032673858, -0.0015125531, -1282740.9, 39025.68, 0.000000000186287, 9.999611, 10.00004 
1.08498e+3, 1.7512555e+2, -1317258.0, -1264696.0, 20856.406, -0.006868283, -0.06716181, -1257425.9, -33656.434, 0.0, 9.999315, 10.000029 
1.0849944e+3, 1.8512595e+2, -1218518.1, -1195657.8, 4215.9087, -0.037503056, -0.009338203, -1194905.0, -69138.27, 0.0, 9.999436, 9.999777 
1.08500876e+3, 1.9512665e+2, -1057286.1, -1068051.0, -17731.06, -0.06196915, 0.05373143, -1044138.56, -16376.455, 0.0, 9.999885, 9.99976 
1.0850238e+3, 2.051268e+2, -978001.4, -1036616.0, 1969.1041, -0.029613897, 0.1265374, -977935.25, -48173.254, 0.0, 10.00001, 9.999233 
1.0850393e+3, 2.1512602e+2, -905046.6, -953980.3, -2314.4722, 0.052444763, 0.094679125, -904937.44, -73167.375, 0.0, 9.999854, 9.999207 
1.0850531e+3, 2.251252e+2, -736186.56, -880056.94, -20689.781, 0.023691379, 0.12621896, -733270.3, 507.5411, 0.0, 10.000581, 9.998698 
1.0850655e+3, 2.3512402e+2, -410546.03, -672740.44, -48255.87, -0.10836732, 0.1087357, -401946.75, 233841.69, 0.0, 10.002146, 9.998694 
1.08507924e+3, 2.4512208e+2, -303648.6, -620732.06, -29865.326, -0.12382368, 0.073400885, -300860.2, 236945.72, 0.0, 10.002404, 9.998265 
1.08509436e+3, 2.5511906e+2, -372907.53, -602359.06, -52469.484, -0.023044812, -0.085643366, -361478.44, 78354.59, 0.0, 10.001256, 9.998271 
1.0851091e+3, 2.6511735e+2, -301125.66, -571545.75, -45512.734, 0.04941191, -0.048054088, -293671.2, 48179.77, 0.000000020287489, 10.001328, 9.997753 
1.0851236e+3, 2.7511647e+2, -16460.955, -386843.13, -65445.086, 0.0943001, 0.05483665, -5237.181, 238627.16, 0.0000009682407, 10.002613, 9.997735 
1.0851384e+3, 2.8511542e+2, 200238.77, -134263.58, -22123.135, 0.1071366, 0.14077833, 201695.6, 347571.25, 0.000016002106, 10.003017, 9.998601 
1.0851538e+3, 2.9511395e+2, 215621.88, -74553.88, -88606.79, 0.11002504, 0.093011424, 240538.88, 288425.97, 0.00010691048, 10.002432, 9.998619 
1.08516894e+3, 3.051116e+2, 205277.48, -159261.47, -107492.37, 0.11654301, 0.053744875, 234613.23, 234613.23, 0.00034615427, 10.002515, 9.997667 
1.08518384e+3, 3.15108e+2, 331548.2, -32062.547, -105428.48, 0.1482224, -0.10764019, 359905.5, 359905.5, 0.0007399488, 10.003016, 9.9983 
1.094904e+3, 1.2510738e+2, -2006292.9, -1696668.5, 27086.135, -0.1360057, 0.012915413, -1694316.8, 19633.063, 0.000734217, 9.997222, 10.001456 
1.0949206e+3, 1.3510913e+2, -2008383.5, -1661627.4, -24296.09, 0.0555553, 0.02392008, -1659933.4, -44001.71, 0.00033773432, 9.996658, 10.001295 
1.0949336e+3, 1.4511022e+2, -1837275.1, -1492044.4, -8633.282, -0.14847086, 0.0018821666, -1491828.6, 26090.438, 0.0000845864, 9.997022, 10.001576 
1.0949499e+3, 1.5511164e+2, -1477537.1, -1270982.3, 60533.797, -0.003230809, -0.054588478, -1254549.4, 165352.83, 0.0000043925156, 9.9988365, 10.001551 
1.0949651e+3, 1.6511258e+2, -1432681.9, -1465512.8, 41123.54, 0.014098993, 0.012810033, -1404818.5, -82924.67, 0.0000000006358386, 9.999589, 9.999196 
1.0949789e+3, 1.7511262e+2, -1375746.8, -1387415.6, 25739.15, -0.07599756, 0.064766854, -1355189.1, -131290.6, 0.0, 9.999307, 9.999196 
1.0949938e+3, 1.8511249e+2, -1243239.8, -1226493.9, 2391.4287, -0.078746065, 0.12046046, -1226159.0, -100256.98, 0.0, 9.999356, 9.9995985 
1.09500974e+3, 1.9511189e+2, -1087757.1, -1098756.1, 15218.672, 0.013220912, 0.068069555, -1077074.9, -49167.355, 0.0, 9.999749, 9.99961 
1.0950246e+3, 2.0511107e+2, -976354.4, -1000704.2, -21028.09, 0.016510667, 0.03524987, -964231.0, -34317.152, 0.0, 9.99986, 9.999557 
1.0950382e+3, 2.1510974e+2, -906663.56, -918525.06, 6797.222, -0.06822714, -0.08566876, -903573.44, -71649.36, 0.0, 9.99968, 9.999537 
1.0950526e+3, 2.2510895e+2, -791144.1, -942122.0, 20316.006, -0.10791042, -0.050651465, -788458.1, -54527.01, 0.0, 10.000361, 9.998376 
1.095068e+3, 2.351083e+2, -466385.5, -735509.25, 24976.633, -0.10223146, 0.0146445045, -464087.13, 171851.75, 0.0, 10.001915, 9.998373 
1.0950826e+3, 2.4510685e+2, -350141.25, -664165.75, -88736.23, -0.04747335, 0.054938294, -326801.2, 211152.34, 0.0, 10.002183, 9.99807 
1.0950967e+3, 2.551043e+2, -413071.0, -643818.5, -76620.64, 0.058012847, -0.038855553, -389946.28, 50031.383, 0.0, 10.001079, 9.99807 
1.095111e+3, 2.651024e+2, -333143.8, -597607.44, -7906.7656, 0.07557476, -0.0072670598, -332907.63, 9089.55, 0.00000010014453, 10.001161, 9.997653 
1.0951256e+3, 2.7510062e+2, -44715.97, -413806.2, 6480.9414, 0.0025597205, 0.017978769, -44602.203, 199414.48, 0.0000018117424, 10.002475, 9.99762 
1.09514e+3, 2.8509867e+2, 90091.086, -333319.06, -58253.72, -0.06327936, 0.085942194, 97959.54, 243998.56, 0.000017402066, 10.002893, 9.997289 
1.0951545e+3, 2.950963e+2, 107643.56, -273219.9, -87995.914, -0.09987702, 0.07634098, 126991.54, 175057.48, 0.00010435712, 10.002318, 9.99731 
1.0951705e+3, 3.0509445e+2, 247974.11, -45367.223, -100430.26, -0.010534953, 0.10920815, 279063.16, 279063.16, 0.00033796718, 10.002416, 9.998493 
1.0951875e+3, 3.1509277e+2, 358880.94, 58575.78, -34093.68, 0.1476693, 0.058355357, 362702.94, 362702.94, 0.00073106954, 10.002859, 9.999005 
1.1049015e+3, 1.2509115e+2, -2024228.1, -1688938.5, 89101.03, -0.0907861, 0.0060690367, -1666731.4, 47377.63, 0.00083503575, 9.997058, 10.001554 
1.10491745e+3, 1.3509315e+2, -1928616.0, -1614013.3, -79400.22, 0.06319338, 0.032422084, -1595109.9, 20978.736, 0.0003918232, 9.997185, 10.001351 
1.1049316e+3, 1.4509435e+2, -1788829.9, -1465986.0, -21614.176, -0.048404474, 0.012954446, -1464545.4, 53530.17, 0.000102570426, 9.997302, 10.001639 
1.1049482e+3, 1.5509595e+2, -1646387.5, -1347668.9, -83695.23, 0.011244647, -0.02967708, -1325817.5, 94240.375, 0.0000061708192, 9.997625, 10.00162 
1.1049639e+3, 1.6509712e+2, -1616177.1, -1523516.1, -97517.21, 0.006944134, 0.042935975, -1461883.1, -139835.73, 0.0000000015512864, 9.998219, 9.999445 
1.10497855e+3, 1.750975e+2, -1367021.3, -1349145.0, -67953.484, -0.03764429, 0.10017612, -1289544.3, -65496.477, 0.0, 9.999248, 9.99947 
1.1049937e+3, 1.8509726e+2, -1204221.4, -1215015.5, -26306.322, -0.02229169, 0.1350793, -1182764.1, -56712.62, 0.0, 9.999658, 9.99953 
1.10500954e+3, 1.9509608e+2, -1134286.0, -1127142.4, -39949.984, 0.048502207, 0.031140944, -1090604.9, -62542.79, 0.0, 9.999456, 9.999554 
1.1050245e+3, 2.0509513e+2, -970605.2, -995404.4, -34516.44, 0.04060247, -0.012544845, -946328.7, -16259.607, 0.0, 9.999884, 9.999587 
1.1050386e+3, 2.150941e+2, -713993.5, -822338.3, -62725.207, -0.04665116, -0.10351323, -685285.9, 146789.98, 0.0, 10.000979, 9.999576 
1.1050536e+3, 2.2509332e+2, -655354.4, -848162.75, -6801.816, -0.0764379, -0.08357394, -655114.7, 78967.28, 0.0, 10.001166, 9.998629 
1.1050696e+3, 2.3509242e+2, -658560.2, -799620.9, 10590.796, -0.049625415, -0.068618365, -657769.44, -21678.424, 0.0, 10.000473, 9.998624 
1.1050845e+3, 2.4509123e+2, -554362.5, -762330.9, -55426.934, 0.0012556349, -0.013947827, -540512.7, -2409.3604, 0.0, 10.000802, 9.998044 
1.10509835e+3, 2.5508943e+2, -258129.88, -567296.56, -72367.984, 0.08288901, -0.031182513, -242028.9, 198092.75, 0.0, 10.002155, 9.998055 
1.1051128e+3, 2.6508752e+2, -115197.625, -505494.53, 45661.56, 0.08108049, 0.0044753817, -109926.77, 232214.28, 0.00000018749917, 10.002701, 9.997556 
1.1051279e+3, 2.750851e+2, -70036.48, -433270.9, 26492.844, 0.0054366807, -0.025746152, -68114.37, 176050.83, 0.0000025365616, 10.002338, 9.997553 
1.10514246e+3, 2.8508255e+2, -36715.504, -462980.72, 5451.308, -0.06932199, 0.019081099, -36645.8, 109547.64, 0.000019295574, 10.002306, 9.996699 
1.1051568e+3, 2.950797e+2, 93018.02, -347475.7, -10480.634, -0.112102196, 0.022450393, 93267.25, 141495.03, 0.00010487227, 10.002503, 9.996722 
1.1051731e+3, 3.0507797e+2, 361872.75, 6773.4907, 41334.598, -0.016640093, 0.09772664, 366620.75, 366620.75, 0.00033641586, 10.003174, 9.99849 
1.10519126e+3, 3.1507722e+2, 499140.13, 136615.8, -5436.741, 0.21648654, 0.12785287, 499221.66, 499221.66, 0.00073074934, 10.003781, 9.999082 
1.1148972e+3, 1.2507516e+2, -2017480.9, -1673050.6, 74209.09, -0.2983832, 0.023658691, -1657742.3, 56522.688, 0.000944546, 9.997061, 10.001663 
1.1149144e+3, 1.3507625e+2, -1936794.5, -1632031.8, -60251.77, 0.0048949495, -0.02716028, -1620552.4, -4299.6206, 0.00045159098, 9.997183, 10.001236 
1.1149305e+3, 1.4507723e+2, -1868857.4, -1626961.6, -32616.088, 0.06930328, -0.007873774, -1622641.0, -104396.44, 0.00012308804, 9.997289, 10.000537 
1.1149453e+3, 1.5507875e+2, -1728756.3, -1513982.5, -57696.414, -0.07672316, 0.054101754, -1499464.4, -79230.555, 0.000008505592, 9.997608, 10.000486 
1.11496106e+3, 1.6507973e+2, -1528997.0, -1337114.8, -80299.58, -0.12742227, 0.100000955, -1307945.0, 14279.76, 0.0000000033697685, 9.998184, 10.00075 
1.1149781e+3, 1.7508015e+2, -1277221.5, -1160391.5, -15188.47, -0.022395104, 0.03454874, -1158449.3, 65768.05, 0.0, 9.99922, 10.000792 
1.1149939e+3, 1.8508014e+2, -1211308.5, -1214000.0, -51511.066, -0.004528614, 0.02394925, -1161125.6, -34909.523, 0.0, 9.999591, 9.999569 
1.1150079e+3, 1.9507928e+2, -1153390.5, -1135902.8, -33626.21, -0.08975176, -0.04883947, -1109902.1, -81677.11, 0.0, 9.999326, 9.999556 
1.11502334e+3, 2.050791e+2, -1011333.8, -1044917.7, -15505.2295, -0.092837684, -0.0049761557, -1005270.1, -75043.34, 0.0, 9.999734, 9.999314 
1.1150402e+3, 2.1507907e+2, -764790.8, -878464.44, -7045.6177, -0.013425323, 0.028016182, -764355.8, 67869.84, 0.0, 10.000768, 9.99929 
1.1150557e+3, 2.2507831e+2, -625468.2, -736449.25, -48178.81, -0.0112728635, 0.022599654, -607471.3, 126758.91, 0.0, 10.00096, 9.999493 
1.11507006e+3, 2.3507656e+2, -628971.4, -688502.6, 504.72946, -0.07363359, -0.13311419, -628967.06, 7276.028, 0.0, 10.000263, 9.999489 
1.1150846e+3, 2.4507533e+2, -578881.1, -770945.8, -19387.277, -0.09961479, -0.12655811, -576943.7, -38689.574, 0.0, 10.000617, 9.998074 
1.1150991e+3, 2.550743e+2, -282012.6, -579268.1, -4281.651, -0.087611824, -0.07526135, -281950.94, 158315.55, 0.0, 10.001988, 9.998055 
1.11511424e+3, 2.6507255e+2, -142557.27, -527117.6, 15322.719, -0.07182022, -0.017315784, -141947.69, 200336.67, 0.00000020790911, 10.002551, 9.997476 
1.11513e+3, 2.7506974e+2, -93369.086, -450421.88, 32628.459, -0.049752295, -0.08207663, -90411.9, 153899.39, 0.0000030041283, 10.002199, 9.997501 
1.11514516e+3, 2.850671e+2, -54563.594, -460497.56, -2393.0056, -0.051918037, -0.05056261, -54549.484, 91789.555, 0.000021785861, 10.002149, 9.996785 
1.1151598e+3, 2.9506418e+2, 79735.586, -347155.63, 25022.002, -0.089620106, -0.060407523, 81197.234, 129569.15, 0.00010887074, 10.002387, 9.9967785 
1.1151763e+3, 3.0506214e+2, 288648.0, -122602.96, 57490.96, -0.03966723, 0.025534317, 296533.78, 296533.78, 0.00034133886, 10.003078, 9.997645 
1.1151943e+3, 3.1506094e+2, 407851.63, -4393.372, 80646.984, 0.06422344, 0.09524493, 423066.94, 423066.94, 0.0007374856, 10.003565, 9.99822 
1.1248955e+3, 1.2505868e+2, -2097170.8, -1714260.9, 108407.91, -0.13593104, 0.015618424, -1685699.4, 28726.598, 0.0010643419, 9.996518, 10.001662 
1.1249112e+3, 1.3505961e+2, -1783996.9, -1563799.5, -59096.13, -0.0669268, -0.042722266, -1548941.9, 67473.336, 0.00051804923, 9.998255, 10.001194 
1.124929e+3, 1.4506063e+2, -1670215.4, -1573360.0, 14954.364, 0.115441, 0.0019033337, -1571103.6, -52696.297, 0.00014661087, 9.998842, 10.00015 
1.12494335e+3, 1.550619e+2, -1616275.9, -1497252.1, 5526.634, -0.077874385, 0.07322861, -1496996.0, -76595.65, 0.00001150662, 9.998564, 10.000128 
1.1249594e+3, 1.6506276e+2, -1465857.5, -1258965.5, 38933.383, -0.12047478, 0.10270942, -1251881.5, 70510.4, 0.0000000061074554, 9.998411, 10.001176 
1.1249774e+3, 1.7506307e+2, -1353671.1, -1145667.1, 3719.2966, 0.027520778, -0.01611436, -1145600.8, 78782.445, 0.0, 9.998483, 10.001243 
1.1249936e+3, 1.8506335e+2, -1307754.8, -1245527.5, -41734.137, 0.05779977, -0.0298335, -1224585.4, -98206.91, 0.0, 9.998857, 9.999711 
1.1250077e+3, 1.9506307e+2, -1105935.5, -1104509.8, -45699.9, -0.046179872, -0.060414683, -1059517.1, -31134.434, 0.0, 9.999579, 9.999666 
1.1250236e+3, 2.0506312e+2, -965547.06, -1014861.4, 40280.254, -0.055430647, 0.0040964494, -942976.3, -12594.065, 0.0, 10.000035, 9.999369 
1.1250412e+3, 2.1506315e+2, -815073.4, -890277.5, 34503.48, 0.035131257, 0.036068704, -801642.06, 30739.12, 0.0, 10.000388, 9.999383 
1.1250569e+3, 2.2506243e+2, -677807.6, -766015.0, -33912.43, 0.037748724, 0.027993279, -666276.94, 68109.1, 0.0, 10.000598, 9.999478 
1.1250708e+3, 2.3506075e+2, -554542.56, -653338.5, -81951.984, -0.03798306, -0.11782332, -508252.06, 128146.72, 0.0, 10.00076, 9.9994955 
1.1250856e+3, 2.4505953e+2, -460722.53, -695918.6, -43073.785, -0.08429689, -0.11654291, -453082.22, 85327.266, 0.0, 10.00136, 9.998231 
1.1251012e+3, 2.550585e+2, -209132.72, -527999.75, -49462.758, -0.098804526, -0.07436789, -201636.28, 238784.88, 0.0, 10.002429, 9.9982 
1.1251167e+3, 2.6505685e+2, -134375.44, -515609.28, -53304.73, -0.07696114, -0.014984848, -127062.56, 215375.44, 0.00000016860811, 10.002583, 9.9975395 
1.1251322e+3, 2.7505422e+2, -139656.97, -466056.75, -67099.33, -0.01585394, -0.06746586, -126401.414, 118062.5, 0.0000038179373, 10.001861, 9.997553 
1.12514794e+3, 2.850516e+2, 3959.9163, -402019.94, -432.3579, 0.007807104, -0.04970838, 3960.3767, 150450.36, 0.000026510976, 10.002407, 9.997059 
1.1251638e+3, 2.950487e+2, 339289.78, -185538.48, 339.1532, -0.0026606908, -0.09218279, 339290.0, 387809.5, 0.00011807009, 10.00402, 9.99709 
1.12518005e+3, 3.0504635e+2, 364137.88, -128557.75, 29831.719, 0.0073537044, -0.032805257, 365937.53, 365937.53, 0.0003550206, 10.003808, 9.997253 
1.1251965e+3, 3.150449e+2, 75657.41, -216875.83, 27843.963, 0.05090622, 0.06319271, 78284.07, 78284.07, 0.0007557831, 10.001502, 9.997768 
1.1348937e+3, 1.2504151e+2, -2109878.0, -1731022.0, 58199.49, -0.041372817, -0.04037118, -1722283.0, -7689.2373, 0.0011953667, 9.996501, 10.001543 
1.1349074e+3, 1.3504332e+2, -1780828.6, -1548736.9, 18639.14, -0.31402862, -0.021341791, -1547249.5, 69325.93, 0.00059164723, 9.99823, 10.001305 
1.1349264e+3, 1.4504486e+2, -1639233.3, -1510429.1, -13931.491, -0.07677055, 0.048309647, -1508939.6, 9621.305, 0.00017336896, 9.998847, 10.000583 
1.1349418e+3, 1.5504567e+2, -1587614.6, -1437657.1, 14597.856, -0.121904485, 0.034862228, -1436249.3, -15694.637, 0.000015247707, 9.998557, 10.000545 
1.1349581e+3, 1.6504633e+2, -1502703.4, -1330453.0, 22963.799, -0.1203524, 0.047450762, -1327444.1, -4896.6177, 0.000000009421829, 9.99839, 10.000693 
1.1349757e+3, 1.7504644e+2, -1392566.5, -1222756.3, 19502.768, -0.024807839, -0.045727994, -1220545.3, 3998.6597, 0.0, 9.998467, 10.000719 
1.13499254e+3, 1.8504694e+2, -1293829.4, -1204570.8, -34496.13, 0.03395494, -0.02470897, -1192793.0, -66254.68, 0.0, 9.998799, 10.000023 
1.1350084e+3, 1.9504748e+2, -1107142.8, -1068567.6, -3840.0535, 0.044951014, -0.0037187303, -1068189.1, -39655.047, 0.0, 9.999411, 9.999998 
1.13502465e+3, 2.0504743e+2, -971323.44, -987921.94, 34503.59, 0.022051722, 0.017466206, -944135.0, -13600.866, 0.0, 9.999867, 9.999635 
1.1350411e+3, 2.1504645e+2, -831353.94, -869912.25, 59340.6, -0.016789814, -0.07538342, -788239.25, 44302.31, 0.0, 10.000159, 9.999634 
1.1350568e+3, 2.2504573e+2, -766522.06, -903746.4, -47397.676, -0.050516114, -0.05110076, -751742.56, -17194.162, 0.0, 10.000392, 9.9986315 
1.13507144e+3, 2.3504494e+2, -648045.5, -797249.06, -60109.555, -0.078918196, -0.027304366, -626842.4, 9715.679, 0.0, 10.000539, 9.998617 
1.13508716e+3, 2.4504384e+2, -471750.38, -673087.4, -17439.305, -0.09634199, 0.017440962, -470251.0, 68318.35, 0.0, 10.001163, 9.998482 
1.135104e+3, 2.550422e+2, -217262.56, -500566.56, 7650.405, -0.08290518, -0.027155561, -217056.11, 223528.53, 0.0, 10.002235, 9.998483 
1.13511965e+3, 2.650406e+2, -146129.08, -506885.8, -92690.695, -0.059594054, 0.01506007, -123707.25, 218893.48, 0.00000020663475, 10.002435, 9.997675 
1.13513425e+3, 2.7503857e+2, -150619.23, -464709.63, -70913.48, -0.031779286, 0.010419548, -135351.02, 109271.68, 0.0000055002247, 10.001748, 9.997623 
1.1351503e+3, 2.8503603e+2, 15132.512, -344471.84, 43870.176, -0.026968077, 0.01034951, 20407.117, 167053.81, 0.000033703815, 10.002273, 9.997513 
1.1351681e+3, 2.9503292e+2, 343798.13, -131433.16, 80725.445, -0.019700874, -0.09560267, 357136.25, 405809.78, 0.00013271971, 10.003825, 9.997556 
1.1351839e+3, 3.0503035e+2, 337161.84, -137323.39, -67587.234, -0.024665555, -0.08787488, 346601.4, 346601.4, 0.00037893685, 10.003613, 9.997285 
1.13519706e+3, 3.1502905e+2, 51577.508, -222940.31, -8612.114, -0.12129254, 0.020428447, 51847.418, 51847.418, 0.0007912106, 10.001319, 9.997813 
1.1448921e+3, 1.2502538e+2, -1988968.9, -1705321.1, 51428.85, 0.12528044, 0.013312437, -1696284.3, 18468.754, 0.0013373722, 9.997427, 10.001294 
1.1449054e+3, 1.3502698e+2, -1794352.5, -1558828.9, 38982.3, -0.3178876, 0.009396413, -1552544.4, 64191.984, 0.000672049, 9.998112, 10.001311 
1.14492506e+3, 1.4502835e+2, -1679108.3, -1508165.3, -13143.872, -0.056638718, 0.052135956, -1507160.5, 11561.617, 0.0002032588, 9.998487, 10.000769 
1.1449411e+3, 1.5502875e+2, -1548792.1, -1398925.0, -49780.016, -0.050163437, -0.01951071, -1383897.0, 36821.01, 0.000019742625, 9.998743, 10.00072 
1.14495724e+3, 1.6502935e+2, -1450612.9, -1335238.5, -410.41068, -0.051162276, -0.008204588, -1335237.1, -12525.539, 0.000000013934886, 9.998881, 10.000424 
1.14497446e+3, 1.7502977e+2, -1329473.6, -1219558.4, -13452.753, -0.019412274, -0.042339534, -1217935.8, 6770.703, 0.0, 9.999024, 10.00047 
1.1449916e+3, 1.850304e+2, -1226873.8, -1165770.9, -20490.785, 0.044107962, 0.0031407503, -1159535.6, -32834.87, 0.0, 9.999245, 10.000064 
1.1450086e+3, 1.9503094e+2, -1083288.6, -1040702.1, -49683.723, 0.115726165, 0.016691312, -1007941.0, 20756.057, 0.0, 9.999545, 10.000098 
1.14502504e+3, 2.0503084e+2, -993780.1, -1004809.3, -9068.684, 0.0920566, 0.028113399, -988680.94, -57983.23, 0.0, 9.999704, 9.999616 
1.14504114e+3, 2.1502973e+2, -895259.25, -904073.75, -30297.924, -0.008159185, -0.07618242, -869049.7, -36343.555, 0.0, 9.999701, 9.999637 
1.14505686e+3, 2.250291e+2, -817630.25, -929302.5, -69437.63, -0.053437017, -0.041433197, -784363.8, -49651.066, 0.0, 10.000076, 9.998595 
1.14507236e+3, 2.3502856e+2, -594806.2, -766705.94, -60875.113, -0.052227527, 0.011583499, -575432.0, 61289.16, 0.0, 10.000912, 9.998632 
1.1450886e+3, 2.4502763e+2, -478248.56, -648984.2, 32494.125, -0.047097787, 0.05653163, -472273.44, 66457.55, 0.0, 10.0009775, 9.998745 
1.1451057e+3, 2.5502607e+2, -476438.88, -589805.25, 28810.322, -0.02459952, -0.010006426, -469537.3, -28792.865, 0.0, 10.0003, 9.998798 
1.1451217e+3, 2.6502457e+2, -375038.1, -607215.06, -27498.447, -0.01591542, 0.020684665, -371825.7, -29066.336, 0.00000038376965, 10.00081, 9.99777 
1.1451365e+3, 2.7502275e+2, -34448.57, -393670.3, -40274.797, -0.019794073, 0.024022343, -29988.465, 214791.61, 0.0000075917305, 10.0024805, 9.997756 
1.1451528e+3, 2.850205e+2, 100873.1, -291788.63, 94736.64, -0.01308768, 0.04383716, 122534.99, 269336.34, 0.000041535674, 10.002805, 9.997627 
1.1451713e+3, 2.950179e+2, 37129.07, -265188.97, 69239.6, 0.044112746, -0.022541732, 52232.41, 101056.086, 0.00014998692, 10.001659, 9.997683 
1.1451872e+3, 3.0501512e+2, 121651.63, -215192.48, -66319.49, 0.041133765, -0.051383007, 134238.6, 134238.6, 0.00040887797, 10.001982, 9.99754 
1.1451996e+3, 3.1501353e+2, 362072.28, -37073.43, -54086.125, -0.080598414, -0.008549584, 369271.34, 369271.34, 0.0008407425, 10.003305, 9.998117 
1.1548878e+3, 1.2500963e+2, -2010506.5, -1735596.6, -64779.36, -0.116004, 0.10232202, -1721096.9, -6186.4077, 0.001489488, 9.99738, 10.001098 
1.1549048e+3, 1.3501082e+2, -1796692.3, -1556725.6, 79472.4, -0.21734042, 0.05700801, -1532792.8, 84103.055, 0.00075867696, 9.998094, 10.001323 
1.1549248e+3, 1.450111e+2, -1693690.8, -1544358.9, -22891.576, 0.02118231, 0.0012607732, -1540928.5, -22037.303, 0.0002361324, 9.998494, 10.000527 
1.1549406e+3, 1.55011e+2, -1557859.6, -1425771.0, -26351.703, -0.007532419, -0.098566525, -1420708.0, 183.49542, 0.000024990082, 9.998763, 10.000533 
1.15495645e+3, 1.6501176e+2, -1445276.6, -1321067.8, -13931.909, -0.061520543, -0.067354426, -1319524.3, 3359.4026, 0.000000023716384, 9.998876, 10.00052 
1.1549731e+3, 1.7501317e+2, -1332816.6, -1212336.4, 7847.6855, -0.08403074, -0.012529806, -1211827.4, 13042.555, 0.0, 9.998971, 10.00054 
1.1549903e+3, 1.8501389e+2, -1262460.5, -1223377.5, -27037.338, -0.049233235, 0.056152493, -1209559.1, -82694.74, 0.0, 9.999174, 9.9997015 
1.1550075e+3, 1.9501348e+2, -1124446.1, -1101501.6, -26579.473, 0.025009768, 0.008213652, -1084024.3, -55153.152, 0.0, 9.9994335, 9.999736 
1.1550242e+3, 2.0501335e+2, -1022122.5, -1029569.2, -31905.418, 0.014963195, 0.040585566, -993723.94, -62850.89, 0.0, 9.999555, 9.999517 
1.1550404e+3, 2.1501313e+2, -933585.06, -936746.1, -15354.863, -0.06740605, 0.03516724, -919729.56, -86855.96, 0.0, 9.999488, 9.999518 
1.1550567e+3, 2.2501265e+2, -801572.25, -847662.9, -54103.81, -0.097824626, 0.056959197, -765810.2, -30932.285, 0.0, 9.999869, 9.999254 
1.1550733e+3, 2.3501159e+2, -580501.06, -689478.2, -13957.068, -0.07677276, -0.006805758, -578741.94, 58146.61, 0.0, 10.000708, 9.999263 
1.1550897e+3, 2.4501082e+2, -481668.2, -608111.4, -13611.915, -0.058290735, 0.0050227772, -480219.44, 58675.89, 0.0, 10.0007715, 9.999124 
1.155106e+3, 2.5501004e+2, -477554.72, -553768.44, 16976.139, -0.050313067, -0.022471646, -473944.4, -33043.395, 0.0, 10.000128, 9.99913 
1.1551222e+3, 2.6500866e+2, -392986.5, -605594.56, 20690.236, -0.072732836, 0.0017007726, -390991.72, -48077.33, 0.0000005356376, 10.000647, 9.997855 
1.1551382e+3, 2.7500644e+2, -49577.63, -383677.44, 42016.62, -0.12603132, -0.04480008, -44374.617, 200563.94, 0.000008957139, 10.0023, 9.99791 
1.15515515e+3, 2.8500497e+2, 66575.99, -320624.94, 38081.664, -0.090422355, 0.04398592, 70285.83, 217240.5, 0.000047577858, 10.002626, 9.997513 
1.1551732e+3, 2.9500368e+2, 12670.064, -303334.72, 54895.527, 0.02668849, 0.12571147, 21934.748, 70902.96, 0.00016516355, 10.001589, 9.997461 
1.1551894e+3, 3.050007e+2, 117859.05, -181607.64, -25570.818, 0.049495216, 0.07316237, 120026.79, 120026.79, 0.00043857994, 10.001827, 9.997831 
1.155203e+3, 3.1499782e+2, 353986.0, -3486.8604, 49251.82, -0.14722198, -0.043396797, 360647.7, 360647.7, 0.0008950193, 10.003092, 9.9984455 
1.1648856e+3, 1.2499353e+2, -1825761.3, -1657394.3, -16495.926, -0.118232675, 0.09183038, -1655793.3, 59273.1, 0.0016512593, 9.998693, 10.000994 
1.1649041e+3, 1.349943e+2, -1788523.4, -1576817.3, 96916.68, -0.09823538, 0.0300488, -1539151.3, 77904.41, 0.0008513687, 9.998275, 10.001092 
1.1649231e+3, 1.4499415e+2, -1713297.3, -1564230.0, 49202.49, 0.016531875, -0.05072321, -1549454.4, -30398.969, 0.00027198074, 9.998422, 10.000414 
1.1649395e+3, 1.5499447e+2, -1483783.0, -1404508.6, 14199.577, -0.010127953, -0.09918991, -1402042.0, 19010.223, 0.00003101119, 9.99934, 10.000395 
1.16495594e+3, 1.649953e+2, -1356999.9, -1304789.1, 20320.393, -0.03276798, -0.043030415, -1297812.6, 25231.969, 0.00000004774233, 9.999589, 10.000291 
1.1649729e+3, 1.7499639e+2, -1312056.8, -1233397.3, -18726.715, -0.0053190496, 0.006762084, -1229166.5, -4131.3975, 0.0, 9.999228, 10.000285 
1.16499014e+3, 1.849968e+2, -1256195.5, -1251751.4, -4136.874, 0.024766212, 0.071718544, -1249277.5, -122244.27, 0.0, 9.999346, 9.999426 
1.1650072e+3, 1.9499622e+2, -1052382.6, -1097444.8, -26059.291, 0.02803482, 0.03554842, -1040464.6, -11422.431, 0.0, 10.000056, 9.999468 
1.16502404e+3, 2.0499606e+2, -911334.8, -961959.0, -11661.473, 0.014291304, 0.0736522, -908777.7, 22266.97, 0.0, 10.000281, 9.999615 
1.16504066e+3, 2.1499598e+2, -846951.75, -874581.44, -22193.504, -0.008930715, 0.06843436, -834624.6, -1580.8041, 0.0, 10.000033, 9.9996605 
1.16505735e+3, 2.2499569e+2, -779634.1, -797374.2, -10812.849, -0.018199848, 0.081503235, -774518.6, -39473.082, 0.0, 9.999833, 9.999626 
1.16507396e+3, 2.3499474e+2, -705978.94, -709231.6, -16952.264, -0.00706539, -0.007318435, -690575.2, -53521.54, 0.0, 9.999657, 9.999644 
1.1650906e+3, 2.4499413e+2, -571636.1, -651883.44, -8734.865, -0.00371544, 0.0036604195, -570696.3, -31637.59, 0.0, 10.0001545, 9.999117 
1.16510704e+3, 2.5499362e+2, -300519.8, -469360.5, -40323.02, -0.0143838655, 0.0034329302, -291384.1, 149679.45, 0.0, 10.001341, 9.999126 
1.1651235e+3, 2.6499248e+2, -233056.88, -472678.78, -2191.5981, -0.03557789, 0.023924991, -233036.83, 110037.95, 0.00000056359414, 10.001511, 9.99835 
1.1651401e+3, 2.7499044e+2, -264387.7, -431477.38, 10101.479, -0.057557482, -0.04602601, -263779.22, -18684.31, 0.00000928475, 10.000604, 9.998398 
1.1651575e+3, 2.849893e+2, -163177.22, -412547.63, 56420.504, -0.028236033, 0.038516685, -151006.03, -3898.4028, 0.000050789153, 10.000945, 9.997695 
1.16517544e+3, 2.949885e+2, 146325.55, -213031.48, 54428.656, 0.056092445, 0.15015447, 154388.48, 203505.52, 0.00017624088, 10.002408, 9.997679 
1.1651923e+3, 3.0498528e+2, 326636.53, -137202.67, 26446.559, 0.075121045, 0.089125976, 328139.56, 328139.56, 0.0004642717, 10.003481, 9.997362 
1.1652069e+3, 3.1498185e+2, 404626.9, -13731.316, -5238.0303, -0.07076117, -0.030443532, 404692.47, 404692.47, 0.0009430791, 10.003574, 9.998169 
1.17488526e+3, 1.2497688e+2, -1833595.6, -1647917.9, -38588.152, -0.101867825, -0.06055132, -1640217.8, 75004.87, 0.0018234614, 9.998615, 10.00109 
1.17490284e+3, 1.3497747e+2, -1825396.0, -1654226.4, 94173.125, -0.07273906, -0.0811121, -1612558.1, 4656.8755, 0.0009506097, 9.99829, 10.000553 
1.17491946e+3, 1.4497764e+2, -1717770.8, -1565050.1, 67181.24, -0.23064499, -0.10658161, -1539703.9, -20490.549, 0.00031097958, 9.998391, 10.000418 
1.1749374e+3, 1.5497929e+2, -1487756.4, -1412020.1, 67053.36, -0.1949035, -0.01950091, -1372880.9, 48317.94, 0.00003785508, 9.999334, 10.000344 
1.1749551e+3, 1.6497993e+2, -1407876.4, -1405347.4, -11999.5205, -0.108344845, 0.056594264, -1394545.9, -71351.48, 0.00000010132158, 9.999567, 9.999608 
1.1749734e+3, 1.7497936e+2, -1363608.1, -1329446.1, -16341.144, 0.092068255, 0.00066834246, -1322888.3, -97685.83, 0.0, 9.999177, 9.99965 
1.1749908e+3, 1.8497925e+2, -1275922.4, -1275841.3, 4592.0723, 0.1327686, 0.051394485, -1271289.6, -144083.28, 0.0, 9.999276, 9.999294 
1.1750072e+3, 1.9497927e+2, -1078906.1, -1127754.0, 19422.543, -0.0025514232, 0.08791684, -1072124.9, -42915.418, 0.0, 9.999945, 9.999317 
1.17502406e+3, 2.0497906e+2, -919172.06, -942423.4, -39414.348, -0.042864047, 0.1191875, -889704.56, 41507.184, 0.0, 10.000132, 9.99982 
1.17504135e+3, 2.1497834e+2, -861337.3, -862475.25, -17701.797, 0.03567269, 0.027886083, -844195.4, -10978.902, 0.0, 9.999844, 9.999841 
1.1750581e+3, 2.2497806e+2, -796811.0, -781069.4, -36197.563, 0.056727767, 0.026519235, -751896.8, -16679.633, 0.0, 9.999615, 9.999841 
1.1750741e+3, 2.34978e+2, -721540.7, -687617.9, -7323.4414, 0.013392086, 0.002462964, -686104.4, -48887.977, 0.0, 9.9994335, 9.999894 
1.1750908e+3, 2.4497768e+2, -632704.06, -731455.7, 19923.982, -0.021863472, 0.049543783, -628835.75, -89615.234, 0.0, 9.999946, 9.998675 
1.17510825e+3, 2.5497675e+2, -349919.0, -534220.5, 20746.748, -0.045733847, 0.05132594, -347612.4, 93620.2, 0.0, 10.001175, 9.998761 
1.1751255e+3, 2.649759e+2, -201581.25, -370615.72, -53830.82, -0.015882792, 0.07811943, -185894.1, 157347.05, 0.0000005132723, 10.001351, 9.999133 
1.1751421e+3, 2.7497467e+2, -223902.45, -327531.6, -6093.0435, 0.04180281, 0.005976928, -223545.44, 21704.59, 0.000009286575, 10.000513, 9.99916 
1.1751593e+3, 2.8497344e+2, -156817.95, -367989.34, 95561.734, 0.035017747, 0.033191726, -119994.43, 27265.705, 0.000051726838, 10.000816, 9.998061 
1.1751774e+3, 2.94972e+2, 166344.64, -148766.72, 128084.23, -0.02480946, 0.03572836, 211839.1, 261112.72, 0.00018255804, 10.0023, 9.998176 
1.17519505e+3, 3.0496857e+2, 222718.63, -300866.4, 19985.014, -0.013214498, -0.027173636, 223480.33, 223480.33, 0.00047999644, 10.003278, 9.996327 
1.1752107e+3, 3.1496567e+2, 317441.75, -126488.54, 42189.496, -0.11570084, 0.015297555, 321415.7, 321415.7, 0.0009686636, 10.003297, 9.997519 
1.18488416e+3, 1.2495992e+2, -1831955.9, -1683038.1, -50446.887, -0.05539205, -0.10230768, -1667558.0, 47827.54, 0.0020081834, 9.998744, 10.0008 
1.184902e+3, 1.3496013e+2, -1839477.4, -1732954.6, -43369.805, 0.015949963, -0.10675987, -1717530.4, -100146.16, 0.0010574218, 9.998478, 9.999931 
1.1849177e+3, 1.4496033e+2, -1709220.0, -1565087.4, 7625.698, -0.23565361, -0.095415495, -1564685.1, -45301.832, 0.00035351914, 9.998448, 10.000401 
1.1849366e+3, 1.5496211e+2, -1545204.4, -1434517.9, -30712.688, -0.16095774, 0.005244354, -1426567.0, -5199.88, 0.00004562391, 9.998922, 10.000392 
1.18495494e+3, 1.6496263e+2, -1456081.3, -1445081.0, -75260.664, -0.059570804, 0.07484371, -1375119.8, -51755.613, 0.00000019883093, 9.999309, 9.999466 
1.1849729e+3, 1.7496158e+2, -1293366.0, -1304439.6, -75930.945, 0.10291811, -0.018212682, -1222770.3, 2606.8477, 0.0, 9.999707, 9.99956 
1.1849905e+3, 1.849614e+2, -1150953.9, -1188613.3, 26455.934, 0.1479298, 0.018261915, -1137310.9, -9930.17, 0.0, 10.00001, 9.999544 
1.18500784e+3, 1.9496177e+2, -1017578.0, -1066396.3, 34408.688, 0.059991308, 0.064873755, -999799.9, 29578.402, 0.0, 10.000227, 9.999603 
1.1850249e+3, 2.049616e+2, -905442.9, -952898.94, -9950.127, 0.03430003, 0.09270015, -903441.06, 27938.951, 0.0, 10.000289, 9.999687 
1.1850419e+3, 2.1496055e+2, -815160.9, -848812.8, -38892.727, 0.090993226, -0.017493816, -789610.44, 43778.926, 0.0, 10.000204, 9.999763 
1.1850585e+3, 2.2496037e+2, -678208.25, -720558.5, -31292.361, 0.09439196, -0.0052605155, -661599.8, 73790.17, 0.0, 10.000419, 9.999863 
1.18507445e+3, 2.349608e+2, -503721.63, -580663.94, -55569.47, 0.035513163, 0.015848983, -474605.84, 162779.31, 0.0, 10.000918, 9.999909 
1.1850914e+3, 2.4496059e+2, -490458.3, -667746.5, 18985.535, -0.0016689516, 0.07375071, -488448.0, 50940.6, 0.0, 10.000948, 9.998631 
1.1851094e+3, 2.5495934e+2, -452421.9, -596929.75, 14500.068, -0.014475638, 0.055188797, -450981.3, -9577.492, 0.0, 10.000526, 9.998651 
1.185127e+3, 2.6495835e+2, -273537.28, -423506.63, -59533.305, 0.028806226, 0.08440399, -252777.94, 90636.29, 0.0000005059796, 10.000954, 9.99895 
1.1851439e+3, 2.749572e+2, 10234.792, -239583.69, -123439.45, 0.1049653, 0.041489523, 60937.67, 306361.13, 0.000009353779, 10.002237, 9.998929 
1.18516125e+3, 2.8495586e+2, 91068.016, -231827.27, -27029.85, 0.07783603, 0.062610105, 93315.07, 240750.2, 0.000051580555, 10.002465, 9.998191 
1.18517935e+3, 2.949542e+2, 71907.42, -182946.17, -48424.117, -0.020351898, 0.034263268, 80798.21, 130248.93, 0.00018437536, 10.0016165, 9.998262 
1.1851975e+3, 3.049512e+2, 28086.469, -335821.84, -81818.64, 0.007759332, -0.01684133, 45635.707, 45635.707, 0.0004810056, 10.001666, 9.996866 
1.1852142e+3, 3.149496e+2, 212915.45, -100426.15, -14624.213, -0.015913859, 0.10109647, 213596.52, 213596.52, 0.0009623852, 10.002223, 9.998218 
1.1948834e+3, 1.2494288e+2, -1875352.0, -1769533.6, -18349.338, -0.08276587, -0.016840845, -1766442.1, -50888.81, 0.0022081332, 9.998733, 10.000204 
1.1949007e+3, 1.3494213e+2, -1875658.9, -1812980.4, -43895.633, 0.013431646, -0.064404465, -1790384.6, -172819.98, 0.0011730703, 9.99849, 9.999375 
1.1949173e+3, 1.4494213e+2, -1714173.4, -1571119.5, 3150.3718, -0.16152161, -0.040603895, -1571050.3, -51484.15, 0.00040013902, 9.998435, 10.000363 
1.1949372e+3, 1.5494302e+2, -1545072.4, -1439190.9, 2627.8875, -0.026950985, -0.027375199, -1439125.6, -17569.246, 0.00005450229, 9.998936, 10.000357 
1.19495496e+3, 1.6494346e+2, -1426463.6, -1382356.4, -80753.0, -0.01755385, 0.010743337, -1320699.8, 2853.1558, 0.00000035173326, 9.9993, 9.999903 
1.1949708e+3, 1.749431e+2, -1271565.3, -1251578.5, -46173.605, -0.098024525, -0.05157394, -1214329.3, 11229.041, 0.0, 9.999666, 9.9999485 
1.19498864e+3, 1.8494329e+2, -1119499.4, -1105639.0, 17139.852, -0.0675818, -0.027703043, -1094081.3, 33474.863, 0.0, 9.999938, 10.000146 
1.1950085e+3, 1.9494374e+2, -992876.6, -988097.3, 57383.836, 0.08102425, -0.03392904, -933053.4, 96495.54, 0.0, 10.000107, 10.0002 
1.1950263e+3, 2.0494367e+2, -953582.8, -1014923.06, -31729.916, 0.112202115, -0.0099147055, -940123.06, -8573.469, 0.0, 10.000132, 9.999332 
1.19504176e+3, 2.1494272e+2, -871858.2, -918523.5, -26443.523, 0.028304102, -0.07268156, -859925.1, -26363.648, 0.0, 9.999997, 9.999383 
1.19505785e+3, 2.2494265e+2, -728027.8, -772082.06, -30299.977, -0.03274831, -0.01804641, -712594.56, 22969.152, 0.0, 10.000196, 9.999615 
1.1950746e+3, 2.3494324e+2, -550060.0, -626153.7, -23707.36, -0.06422442, 0.038571108, -543278.3, 94280.57, 0.0, 10.000705, 9.999697 
1.1950919e+3, 2.4494298e+2, -499818.16, -641053.5, -14274.472, -0.07217878, 0.09027325, -498389.9, 41171.824, 0.0, 10.000748, 9.998916 
1.1951096e+3, 2.5494155e+2, -455657.9, -561441.56, 15311.94, -0.0622143, 0.022869295, -453486.13, -11910.502, 0.0, 10.000349, 9.998979 
1.1951276e+3, 2.6494002e+2, -387035.03, -621248.9, -25884.252, -0.03513267, 0.046897758, -384208.53, -40616.242, 0.0000006389743, 10.000786, 9.997678 
1.1951455e+3, 2.7493814e+2, -98192.63, -425826.9, -54707.125, 0.006965913, 0.05326074, -89299.25, 156315.39, 0.000009301616, 10.002074, 9.997728 
1.19516306e+3, 2.849367e+2, 60319.188, -264502.9, -70079.7, -0.013734511, 0.12956728, 74793.734, 222425.0, 0.00005191434, 10.002324, 9.998038 
1.1951806e+3, 2.949352e+2, 42184.684, -219901.16, -53438.72, -0.08992307, 0.13219023, 52661.88, 102308.73, 0.00018470343, 10.001495, 9.998072 
1.19519934e+3, 3.0493325e+2, 124682.17, -87138.49, -65796.72, -0.0067446004, 0.113407806, 143456.27, 143456.27, 0.0004730737, 10.001475, 9.998658 
1.1952168e+3, 3.149335e+2, 306656.3, 157563.92, 54959.504, -0.04688318, 0.22539806, 324725.9, 324725.9, 0.0009339275, 10.001962, 10.00011 
1.2048824e+3, 1.249243e+2, -2006545.6, -1848994.9, 23537.572, -0.0030999153, -0.0059964587, -1845553.5, -129817.195, 0.0024257244, 9.997918, 10.000059 
1.2048994e+3, 1.34924e+2, -1696967.3, -1699503.8, -40255.87, -0.005027184, -0.021797622, -1657959.6, -40215.66, 0.0012988481, 9.999621, 9.999601 
1.20491736e+3, 1.449243e+2, -1522100.4, -1488859.3, 40385.03, -0.06214727, 0.02242451, -1461808.4, 57934.36, 0.00045139206, 9.999788, 10.000278 
1.20493665e+3, 1.5492435e+2, -1577929.0, -1460287.5, -7870.4526, 0.040367857, -0.04329061, -1459763.3, -38022.273, 0.00006471426, 9.998733, 10.000307 
1.2049541e+3, 1.6492473e+2, -1515493.1, -1386974.1, -24595.686, 0.020833105, -0.021610206, -1382427.9, -58690.754, 0.00000057087306, 9.998532, 10.000232 
1.2049702e+3, 1.749252e+2, -1293204.1, -1218412.5, -30574.303, -0.099376306, -0.037577216, -1207504.8, 18228.896, 0.0, 9.999349, 10.000317 
1.2049883e+3, 1.8492563e+2, -1140928.3, -1099235.4, 28914.402, -0.079470925, -0.015183243, -1084436.1, 43291.996, 0.0, 9.999727, 10.000285 
1.2050083e+3, 1.9492565e+2, -1039601.3, -989428.44, 3788.8533, 0.08168113, -0.07984279, -989143.94, 40580.098, 0.0, 9.999707, 10.000373 
1.2050261e+3, 2.0492564e+2, -974874.75, -1023300.44, -49150.234, 0.11648183, -0.059800915, -944297.0, -12572.937, 0.0, 9.999954, 9.999363 
1.2050418e+3, 2.1492524e+2, -798473.9, -882571.44, -49424.51, 0.023200763, -0.07229892, -775631.4, 58100.613, 0.0, 10.000469, 9.99941 
1.2050581e+3, 2.2492526e+2, -675942.44, -771609.0, -1538.4906, -0.030330358, -0.0005442007, -675917.7, 59816.72, 0.0, 10.000655, 9.999405 
1.2050753e+3, 2.3492542e+2, -590362.7, -671777.75, -23103.06, -0.03537714, 0.04063234, -584263.7, 53470.5, 0.0, 10.000536, 9.999474 
1.2050929e+3, 2.4492496e+2, -474459.94, -625165.75, 5694.494, -0.04137811, 0.082099594, -474245.06, 65493.613, 0.0, 10.000927, 9.998919 
1.2051106e+3, 2.549235e+2, -239652.38, -458507.6, -23461.512, -0.069462076, 0.007979947, -237165.53, 204586.22, 0.00000000020898414, 10.001849, 9.99895 
1.20512865e+3, 2.6492187e+2, -240176.75, -571561.06, -9684.771, -0.049004283, 0.03166744, -239893.95, 103875.266, 0.00000074892756, 10.001871, 9.997498 
1.205147e+3, 2.7491987e+2, -275289.13, -533017.5, 5664.421, 0.02633913, 0.045777142, -275164.7, -29371.055, 0.000009032264, 10.000929, 9.997544 
1.20516494e+3, 2.8491834e+2, -144401.39, -361430.38, 59641.93, 0.017044349, 0.12254178, -129091.18, 18719.969, 0.000052136886, 10.000917, 9.998053 
1.2051822e+3, 2.9491693e+2, 75573.41, -198949.89, 43174.99, -0.076249264, 0.13267763, 82203.52, 132029.31, 0.0001849306, 10.001734, 9.998095 
1.2052013e+3, 3.0491498e+2, 258438.95, -23374.197, 26398.377, 0.007840836, 0.112966634, 260890.45, 260890.45, 0.0004665325, 10.002392, 9.998652 
1.2052191e+3, 3.149147e+2, 370136.97, 209085.45, -48586.637, -0.0132056195, 0.17192197, 383659.4, 383659.4, 0.00090606173, 10.00234, 10.000266 
1.2148805e+3, 1.24903224e+2, -1987862.9, -1792406.0, 6772.4014, -0.04917314, -0.16771851, -1792171.6, -76227.67, 0.0026624324, 9.99787, 10.00046 
1.21489786e+3, 1.3490589e+2, -1632800.4, -1565776.1, 31948.66, -0.16119356, 0.021983884, -1552987.3, 64933.4, 0.0014356553, 9.999623, 10.000522 
1.21491745e+3, 1.4490692e+2, -1521964.4, -1489647.4, -20042.738, -0.076253705, 0.093124785, -1480060.8, 39851.27, 0.0005075534, 9.999798, 10.000266 
1.21493444e+3, 1.5490605e+2, -1585275.3, -1476438.4, -28841.12, -0.09246525, -0.055914655, -1469268.1, -47347.316, 0.000076397075, 9.998732, 10.000201 
1.2149519e+3, 1.6490644e+2, -1501663.4, -1351867.1, -11362.298, -0.0942465, -0.039643824, -1351010.3, -27093.156, 0.0000008702971, 9.998513, 10.000475 
1.2149707e+3, 1.7490788e+2, -1286034.4, -1189528.8, 15327.829, -0.026824417, 0.018795893, -1187152.8, 38750.227, 0.0, 9.999289, 10.000544 
1.214989e+3, 1.8490839e+2, -1165564.4, -1136721.1, 10755.768, -0.018467683, 0.046574898, -1133152.0, -5254.962, 0.0, 9.999668, 10.000058 
1.21500686e+3, 1.9490755e+2, -1074332.6, -1036514.25, 19378.604, -0.072820656, -0.07974641, -1028347.9, 1555.2212, 0.0, 9.999595, 10.000107 
1.21502444e+3, 2.0490757e+2, -973220.4, -978453.44, -48736.984, -0.08641558, -0.061437704, -927029.75, 4873.5503, 0.0, 9.999781, 9.999751 
1.2150417e+3, 2.1490821e+2, -803187.1, -835261.25, -16674.135, -0.056594558, -0.012025342, -796089.5, 37810.438, 0.0, 10.000226, 9.999848 
1.2150591e+3, 2.2490829e+2, -720639.94, -814399.4, -24130.262, -0.027724424, 0.051344085, -714794.1, 21106.934, 0.0, 10.000435, 9.999222 
1.2150765e+3, 2.3490751e+2, -629881.0, -709845.8, -11396.236, -0.00047104678, 0.01604087, -628288.56, 9621.341, 0.0, 10.000342, 9.999307 
1.2150941e+3, 2.4490659e+2, -536064.3, -698246.7, 26142.277, -0.045149364, 0.039068226, -531954.56, 7964.392, 0.0, 10.000693, 9.998527 
1.2151118e+3, 2.549052e+2, -295536.72, -530229.4, 27173.074, -0.15879314, 0.00910736, -292431.66, 149500.03, 0.00000000018849695, 10.001657, 9.9985485 
1.2151299e+3, 2.649039e+2, -208616.0, -462332.88, -60385.43, -0.13706224, 0.043311924, -194977.23, 148967.36, 0.00000061447383, 10.001678, 9.998344 
1.2151482e+3, 2.749023e+2, -231564.02, -416017.16, -11557.208, 0.02402689, 0.015035906, -230842.7, 15118.625, 0.000008322687, 10.000805, 9.998414 
1.21516615e+3, 2.849008e+2, -171256.02, -369000.94, 74894.81, 0.02404258, 0.04864253, -146092.22, 1883.4645, 0.000050710027, 10.000729, 9.998085 
1.2151838e+3, 2.9489923e+2, 60906.78, -197798.4, 97434.414, -0.12998238, 0.037629403, 93497.26, 143486.67, 0.00018357177, 10.001604, 9.998159 
1.2152031e+3, 3.048962e+2, 111870.73, -290479.16, 13964.969, -0.07723024, -0.0066239266, 112354.85, 112354.85, 0.00046227945, 10.002234, 9.996897 
1.2152205e+3, 3.1489304e+2, 225243.72, -24922.553, -10347.423, -0.17907387, -0.05865885, 225670.97, 225670.97, 0.000888819, 10.002055, 9.9987955 
1.22487955e+3, 1.24884866e+2, -1827219.9, -1665337.3, 23321.402, 0.039760984, -0.067118086, -1662044.4, 54084.67, 0.0029179724, 9.998727, 10.000926 
1.2248968e+3, 1.3488713e+2, -1814818.8, -1586874.1, 19272.234, -0.12920743, 0.02500011, -1585256.3, 32849.01, 0.0015834377, 9.998082, 10.001121 
1.2249171e+3, 1.448881e+2, -1757956.8, -1580658.9, -20259.83, 0.0051218704, 0.048934333, -1578373.3, -58277.58, 0.00056846405, 9.998091, 10.000462 
1.2249332e+3, 1.5488812e+2, -1514507.6, -1407414.0, -50985.15, -0.0882675, -0.037800632, -1387023.4, 35073.76, 0.00008951281, 9.999099, 10.00048 
1.2249508e+3, 1.6488892e+2, -1344609.6, -1272196.3, 29682.268, -0.09116767, 0.00085678993, -1261584.6, 62504.87, 0.0000012652538, 9.999533, 10.00056 
1.2249706e+3, 1.7489022e+2, -1258916.6, -1163506.5, 17804.504, 0.039123986, 0.036096152, -1160292.3, 65783.11, 0.0, 9.999394, 10.000689 
1.224989e+3, 1.8489057e+2, -1210819.8, -1187674.8, 33315.773, 0.044201467, 0.052515198, -1163978.9, -35907.504, 0.0, 9.999467, 9.999814 
1.2250062e+3, 1.9488953e+2, -1058370.6, -1058118.3, 5535.9277, -0.09221063, -0.0672141, -1052707.1, -22625.53, 0.0, 9.999825, 9.999858 
1.22502394e+3, 2.0488963e+2, -943548.5, -950030.3, -36909.92, -0.1134072, -0.03409398, -909737.5, 22344.47, 0.0, 9.999937, 9.999865 
1.225042e+3, 2.1489061e+2, -862916.44, -848116.75, -59758.605, -0.017330049, 0.039568633, -795301.56, 38773.17, 0.0, 9.999771, 9.999968 
1.2250599e+3, 2.2489077e+2, -744887.25, -836781.3, -28160.305, 0.04106109, 0.106640376, -736944.3, -869.244, 0.0, 10.000301, 9.999131 
1.2250779e+3, 2.3488969e+2, -468577.22, -645891.94, -46680.633, 0.05157901, 0.05122908, -457038.72, 181047.81, 0.0, 10.001496, 9.999194 
1.2250956e+3, 2.4488847e+2, -403677.7, -635727.25, 17954.52, 0.008980159, 0.05204308, -402296.72, 137801.03, 0.0, 10.001578, 9.998549 
1.2251135e+3, 2.5488687e+2, -461677.6, -605234.2, 20360.809, -0.085573085, 0.00023386539, -458845.7, -16734.244, 0.0, 10.000482, 9.99861 
1.2251316e+3, 2.6488563e+2, -338559.03, -496689.4, -24562.7, -0.07414169, 0.025542198, -334831.53, 9291.239, 0.0000003685213, 10.000688, 9.99857 
1.2251498e+3, 2.7488437e+2, -16841.93, -282383.44, -61269.37, 0.034976464, 0.007950598, -3386.7996, 242748.56, 0.0000073761885, 10.002198, 9.998635 
1.2251678e+3, 2.848828e+2, 131012.305, -250059.7, 22732.285, 0.027254423, 0.032182097, 132363.58, 280513.6, 0.000049087277, 10.002885, 9.997869 
1.2251863e+3, 2.9488075e+2, 182288.88, -171246.92, -3918.8618, -0.07500578, -0.006676799, 182332.31, 232500.95, 0.00018153466, 10.002543, 9.997903 
1.2252056e+3, 3.0487782e+2, 80964.96, -315335.1, -27034.77, -0.032948755, -0.021507666, 82800.71, 82800.71, 0.00045750884, 10.002081, 9.996788 
1.2252218e+3, 3.148742e+2, 80347.3, -115554.195, -11521.227, -0.18252055, -0.105551034, 81022.55, 81022.55, 0.0008771986, 10.001115, 9.998633 
1.2348774e+3, 1.2486917e+2, -1765196.8, -1558953.3, -137788.42, -0.115078695, 0.28075024, -1489971.1, 226321.3, 0.0031899144, 9.998805, 10.001625 
1.2348957e+3, 1.3486776e+2, -1791270.1, -1550057.5, 930.345, -0.06963232, -0.026907787, -1550053.9, 68244.01, 0.0017411282, 9.998109, 10.001367 
1.2349156e+3, 1.4486769e+2, -1726620.4, -1522607.8, -4305.7524, 0.0068892995, -0.13857982, -1522517.0, -2221.4402, 0.0006337289, 9.998113, 10.000855 
1.23493284e+3, 1.5487039e+2, -1482236.9, -1348951.1, -938.43085, -0.07251796, 0.007871223, -1348944.5, 73327.12, 0.00010392506, 9.999115, 10.000886 
1.23495065e+3, 1.6487202e+2, -1332066.6, -1245594.1, 1625.4562, -0.09920157, 0.09799376, -1245563.6, 78691.97, 0.0000017603737, 9.999535, 10.000735 
1.2349695e+3, 1.7487219e+2, -1251991.9, -1147871.3, 25327.762, -0.0378902, 0.003484101, -1142037.1, 84213.83, 0.0, 9.999378, 10.000806 
1.23498805e+3, 1.8487212e+2, -1242075.6, -1239360.4, 29469.648, -0.036316816, -0.009755767, -1211217.1, -82965.77, 0.0, 9.999412, 9.999485 
1.2350061e+3, 1.9487154e+2, -1095793.0, -1110909.5, 34651.477, -0.10861292, -0.050954744, -1067885.0, -37625.49, 0.0, 9.999714, 9.999548 
1.23502426e+3, 2.0487176e+2, -977910.5, -982942.9, -62319.42, -0.09141522, 0.0154100815, -918056.5, 14203.725, 0.0, 9.999772, 9.99972 
1.2350424e+3, 2.1487246e+2, -902229.5, -887001.44, -50633.434, 0.019571273, 0.07542915, -843412.75, -9156.677, 0.0, 9.999581, 9.999795 
1.2350607e+3, 2.2487265e+2, -777890.5, -859504.94, 1730.7688, 0.050211027, 0.15860985, -777853.8, -41597.703, 0.0, 10.000099, 9.999077 
1.23507895e+3, 2.3487197e+2, -503349.16, -671019.2, 17871.813, -0.006003523, 0.14774373, -501465.38, 136798.22, 0.0, 10.001286, 9.999127 
1.2350972e+3, 2.4487069e+2, -404063.0, -582634.0, -37302.758, -0.02376296, 0.12319452, -396583.88, 143690.34, 0.0, 10.0013485, 9.999023 
1.2351152e+3, 2.5486854e+2, -450995.56, -543843.75, -3079.5125, 0.012831313, -0.033977762, -450893.53, -8602.652, 0.0, 10.000305, 9.99912 
1.2351333e+3, 2.6486707e+2, -404544.84, -579682.06, 17808.734, 0.0021163223, -0.034239285, -402752.3, -58448.438, 0.00000016286783, 10.0004635, 9.998107 
1.2351512e+3, 2.7486598e+2, -81221.16, -368913.3, 16959.43, -0.06901521, 0.013910863, -80224.85, 166091.67, 0.000006622681, 10.001999, 9.9981365 
1.2351697e+3, 2.8486422e+2, 72919.71, -318326.9, 1011.7036, -0.10534395, 0.06093393, 72922.33, 221257.55, 0.000048750662, 10.0026655, 9.997506 
1.2351891e+3, 2.9486138e+2, 133151.34, -235738.84, 10406.298, -0.08211687, -0.016394036, 133444.67, 183807.89, 0.00018217463, 10.002376, 9.997546 
1.235208e+3, 3.0485967e+2, 146679.2, -141321.38, -65794.37, -0.027685652, 0.04407745, 160998.14, 160998.14, 0.00045752534, 10.001924, 9.998059 
1.23522244e+3, 3.148578e+2, 109596.3, 8941.3545, -11988.468, -0.30607456, 0.00518197, 111004.48, 111004.48, 0.0008745043, 10.000853, 9.999611 
1.2448757e+3, 1.2485125e+2, -1841402.9, -1605408.8, 1055.8765, -0.12709448, 0.2606836, -1605404.0, 111063.05, 0.003475539, 9.99835, 10.00151 
1.24489516e+3, 1.3484953e+2, -1763015.5, -1574399.9, 43802.695, 0.048911262, -0.044516925, -1564723.9, 53752.508, 0.0019075654, 9.998466, 10.00103 
1.2449141e+3, 1.4484957e+2, -1697952.6, -1520187.6, 66108.33, 0.03755897, -0.1259688, -1498298.3, 22175.227, 0.0007030745, 9.998361, 10.000748 
1.2449321e+3, 1.5485218e+2, -1597515.4, -1423052.4, -7640.797, -0.01659824, 0.02338416, -1422718.4, -268.1385, 0.00011956255, 9.998386, 10.000733 
1.2449501e+3, 1.6485351e+2, -1491249.9, -1342754.6, -19258.13, -0.045510504, 0.102489926, -1340297.8, -15859.972, 0.0000023468863, 9.998544, 10.000538 
1.2449688e+3, 1.7485328e+2, -1322379.8, -1200009.9, -57673.22, -0.018024819, -0.010632489, -1177112.8, 49325.85, 0.0, 9.998997, 10.000621 
1.2449874e+3, 1.8485351e+2, -1243830.4, -1195459.3, -9884.588, -0.012158054, -0.0056162095, -1193517.3, -65080.793, 0.0, 9.999214, 9.999874 
1.24500625e+3, 1.9485383e+2, -1142865.5, -1091614.9, 19815.53, -0.041797925, 0.0003478201, -1084847.1, -54412.11, 0.0, 9.999205, 9.999925 
1.2450245e+3, 2.048541e+2, -992049.6, -1010497.5, -5699.174, -0.032281954, 0.06291136, -990431.0, -57996.785, 0.0, 9.999757, 9.999538 
1.2450426e+3, 2.1485403e+2, -727884.6, -822071.25, -31207.742, 0.025874678, 0.06341075, -718482.75, 115954.305, 0.0, 10.000854, 9.99963 
1.245061e+3, 2.2485393e+2, -633718.75, -784907.06, 47147.457, 0.04206536, 0.1251866, -620221.06, 116218.54, 0.0, 10.001098, 9.999093 
1.2450799e+3, 2.3485348e+2, -621042.5, -719991.6, 33482.21, 0.010996749, 0.1326155, -610777.7, 27667.441, 0.0, 10.000475, 9.999165 
1.2450984e+3, 2.4485251e+2, -507144.8, -621857.8, -12037.171, 0.019291308, 0.13277012, -505895.34, 34558.023, 0.0, 10.000605, 9.999106 
1.2451166e+3, 2.548508e+2, -272691.53, -445195.97, -41425.273, 0.0716789, 0.012939447, -263259.38, 179207.39, 0.0, 10.001494, 9.99921 
1.2451348e+3, 2.6484942e+2, -226388.95, -488658.47, 30716.498, 0.054493327, 0.012690277, -222839.55, 121639.41, 0.000000050542315, 10.001636, 9.998178 
1.2451528e+3, 2.7484804e+2, -232892.08, -439697.0, 37273.973, -0.045158744, 0.024931151, -226379.03, 20114.178, 0.0000061370592, 10.000912, 9.998195 
1.24517165e+3, 2.8484634e+2, -169763.45, -410366.2, 93186.52, -0.08609009, 0.06687793, -137893.39, 10617.391, 0.000049451548, 10.000903, 9.997719 
1.2451913e+3, 2.9484397e+2, 41324.957, -247329.77, 102980.79, -0.048564326, 0.013642258, 74297.99, 124832.92, 0.00018750013, 10.001633, 9.997809 
1.2452105e+3, 3.0484277e+2, 195222.33, -82700.78, 31285.05, 0.03607503, 0.0947015, 198700.47, 198700.47, 0.000470274, 10.002073, 9.998405 
1.2452254e+3, 3.148406e+2, 280541.6, 82000.12, -51896.65, -0.14811388, -0.0064500864, 293288.47, 293288.47, 0.0008943994, 10.002057, 9.999541 
1.2548739e+3, 1.2483152e+2, -1899454.6, -1742993.3, 56471.82, -0.22014752, -0.112334125, -1724740.3, -8092.132, 0.0037739007, 9.99841, 10.00054 
1.2548946e+3, 1.3483278e+2, -1824700.4, -1710115.0, 61135.992, 0.12042264, -0.027397657, -1683621.9, -64984.254, 0.0020822603, 9.998495, 10.000088 
1.2549122e+3, 1.4483403e+2, -1740687.3, -1613991.5, 49189.156, -0.03794826, 0.09429929, -1597136.4, -76509.59, 0.0007764397, 9.99838, 10.0000925 
1.2549303e+3, 1.548336e+2, -1641476.4, -1516362.5, 9049.614, -0.06503684, 0.001873251, -1515711.4, -93079.59, 0.00013646827, 9.998394, 10.000089 
1.2549488e+3, 1.648335e+2, -1538326.0, -1442753.0, -23169.51, -0.06101021, 0.0039097606, -1437432.3, -112797.23, 0.0000030208696, 9.998548, 9.999853 
1.2549682e+3, 1.7483369e+2, -1370103.4, -1296317.1, -27269.91, -0.014035525, -0.003308939, -1287332.6, -60695.703, 0.0, 9.998978, 9.99997 
1.2549871e+3, 1.8483475e+2, -1168753.6, -1029613.75, -28679.531, 0.0002933833, 0.062044553, -1023934.1, 104692.65, 0.0, 9.9991665, 10.00104 
1.2550059e+3, 1.9483636e+2, -1072032.0, -924864.06, 34833.1, -0.019239904, 0.07985761, -917035.9, 113571.734, 0.0, 9.999113, 10.001116 
1.2550242e+3, 2.0483667e+2, -1033806.2, -1055951.9, 18349.97, -0.06060036, 0.09788587, -1023447.06, -90843.805, 0.0, 9.999581, 9.999315 
1.2550421e+3, 2.1483538e+2, -778630.06, -875629.3, 26624.926, -0.12854463, 0.002074623, -771802.5, 62814.527, 0.0, 10.000629, 9.999376 
1.2550607e+3, 2.2483459e+2, -664922.25, -792044.06, 8299.427, -0.12321466, 0.0069333324, -664382.7, 72243.08, 0.0, 10.0008545, 9.999157 
1.2550803e+3, 2.3483409e+2, -645504.06, -725264.06, 26677.229, -0.026511643, 0.0021760568, -637404.0, 1228.043, 0.0, 10.000277, 9.999225 
1.2550992e+3, 2.4483383e+2, -557107.8, -677151.56, 4157.362, 0.0057656877, 0.08075485, -556964.0, -16328.097, 0.0, 10.000396, 9.998827 
1.2551174e+3, 2.5483352e+2, -326482.06, -511605.7, 8920.474, -0.034181576, 0.13058701, -326053.2, 116587.164, 0.0, 10.00129, 9.998857 
1.2551357e+3, 2.648325e+2, -217021.81, -418107.16, -11867.258, -0.052162603, 0.15524696, -216323.88, 128325.805, 0.00000007625481, 10.001419, 9.998764 
1.2551539e+3, 2.748304e+2, -211934.03, -359941.28, 30461.594, -0.042763, 0.03645945, -205909.89, 40756.824, 0.0000061507535, 10.000753, 9.998819 
1.255173e+3, 2.8482914e+2, -142311.14, -321624.9, 106145.38, -0.068650216, 0.055412576, -93024.875, 55652.74, 0.000051588533, 10.00077, 9.998387 
1.2551926e+3, 2.948283e+2, 67437.92, -160699.22, 149702.16, -0.117180906, 0.083808355, 141577.67, 192263.4, 0.00020006, 10.001494, 9.998467 
1.2552126e+3, 3.0482692e+2, 144071.39, -165050.47, 18301.031, 0.01844027, 0.13559397, 145151.1, 145151.1, 0.00050364254, 10.001965, 9.9978895 
1.2552293e+3, 3.148227e+2, 164621.92, -107204.44, -15317.029, -0.034289032, -0.12223894, 165482.3, 165482.3, 0.00095308194, 10.001829, 9.998352 
1.2648724e+3, 1.24812275e+2, -2130234.3, -1917351.6, 24499.17, -0.12557364, -0.20306692, -1914568.5, -197735.23, 0.004085261, 9.997115, 9.999983 
1.2648933e+3, 1.3481432e+2, -1770421.3, -1703682.8, -55835.516, 0.13318111, -0.0046304134, -1672005.0, -53185.375, 0.0022650692, 9.998996, 9.999877 
1.2649113e+3, 1.4481573e+2, -1585136.5, -1540931.5, -24512.678, -0.0054389033, 0.14617227, -1530028.0, -9219.246, 0.00085386867, 9.999453, 10.000084 
1.264929e+3, 1.548149e+2, -1584580.6, -1484160.5, -53192.156, -0.035475384, 0.01501716, -1461223.8, -38406.81, 0.00015477135, 9.998785, 10.000118 
1.2649477e+3, 1.6481481e+2, -1566183.0, -1447306.4, 25322.053, -0.019177001, 0.015543354, -1442137.4, -117317.6, 0.0000038088367, 9.998329, 9.999917 
1.2649669e+3, 1.7481539e+2, -1462860.9, -1337714.0, 42804.41, 0.013963792, 0.041148044, -1324474.1, -97655.73, 0.0, 9.998326, 10.000002 
1.2649861e+3, 1.8481643e+2, -1255557.6, -1074293.9, 57879.83, 0.022132482, 0.1045868, -1057388.8, 71419.73, 0.0, 9.998579, 10.001017 
1.2650052e+3, 1.9481769e+2, -1072332.5, -924317.3, -6224.6094, 0.0010792651, 0.088408634, -924056.0, 106736.43, 0.0, 9.999125, 10.001106 
1.265024e+3, 2.04818e+2, -1028612.44, -1015860.5, -3201.2144, -0.032696534, 0.08884407, -1015102.0, -82314.85, 0.0, 9.999455, 9.999644 
1.2650424e+3, 2.1481699e+2, -916155.25, -903571.44, 13984.233, -0.08971225, -0.013046336, -894528.9, -59732.47, 0.0, 9.999519, 9.999711 
1.2650613e+3, 2.2481628e+2, -800116.6, -861816.75, 30366.084, -0.090321004, -0.016992157, -787678.94, -50875.21, 0.0, 9.999919, 9.999145 
1.2650807e+3, 2.348157e+2, -594693.75, -701700.06, 13380.195, -0.019691734, -0.02577988, -593046.06, 45765.277, 0.0, 10.000613, 9.999236 
1.2650998e+3, 2.4481556e+2, -485794.28, -644022.9, 38749.996, 0.0065964772, 0.063103594, -476814.13, 64000.76, 0.0, 10.000875, 9.998834 
1.2651184e+3, 2.5481558e+2, -411427.13, -552219.1, 35893.793, -0.0126254205, 0.14531887, -402804.4, 40012.715, 0.0, 10.000691, 9.998878 
1.2651372e+3, 2.6481467e+2, -257965.39, -412730.03, 39275.18, -0.0028484797, 0.17155334, -248568.89, 96256.16, 0.00000015326442, 10.001039, 9.998984 
1.265156e+3, 2.7481246e+2, -22807.244, -237069.9, 13843.712, 0.036900427, 0.017729687, -21916.492, 224925.55, 0.0000068361555, 10.00193, 9.999085 
1.2651749e+3, 2.848113e+2, 63281.85, -198512.03, 89828.164, -0.0007144442, 0.020089563, 91139.77, 239990.88, 0.000055437977, 10.002064, 9.998619 
1.2651943e+3, 2.9481077e+2, 93128.266, -125183.09, 67923.19, -0.10032859, 0.064241715, 112535.88, 163391.11, 0.00021969865, 10.001553, 9.998695 
1.2652147e+3, 3.0480915e+2, 185419.77, -109048.67, 3835.7466, 0.0390721, 0.068028435, 185469.72, 185469.72, 0.00055763713, 10.002117, 9.998192 
1.2652333e+3, 3.148052e+2, 392686.8, -7052.6865, -48624.016, 0.11939833, -0.1896906, 398516.38, 398516.38, 0.0010544788, 10.003469, 9.998242 
1.274872e+3, 1.2479349e+2, -2127587.0, -1920100.6, 94807.26, 0.034670733, -0.005027343, -1883305.4, -166281.98, 0.0044096503, 9.997153, 9.999937 
1.2748906e+3, 1.3479415e+2, -1744414.8, -1653621.1, 21504.814, -0.0655095, 0.020482209, -1648785.3, -29762.959, 0.0024558255, 9.999001, 10.000221 
1.2749107e+3, 1.4479463e+2, -1526843.0, -1435150.6, -68439.68, -0.045014247, 0.022885762, -1398620.4, 122399.766, 0.00093550276, 9.999513, 10.000782 
1.2749282e+3, 1.547962e+2, -1531530.5, -1384151.8, -62588.777, -0.050981835, 0.06135728, -1361158.8, 61845.867, 0.00017466526, 9.998818, 10.00079 
1.274946e+3, 1.6479751e+2, -1504381.9, -1329428.0, 6385.7207, -0.05180967, 0.12771212, -1329195.3, -4203.558, 0.0000047674703, 9.998367, 10.00071 
1.2749648e+3, 1.7479841e+2, -1408612.8, -1224463.0, 58490.465, -0.058996394, 0.10592944, -1207455.8, 19527.389, 0.0, 9.998316, 10.000786 
1.274984e+3, 1.8479864e+2, -1356534.6, -1265767.3, 63355.59, -0.08441982, 0.110133804, -1233217.6, -104236.484, 0.0, 9.998507, 9.999733 
1.2750034e+3, 1.9479786e+2, -1178425.3, -1121903.9, 30861.91, -0.115459844, 0.019142209, -1108318.1, -77329.0, 0.0, 9.999028, 9.999795 
1.275023e+3, 2.0479798e+2, -991149.6, -902479.1, -18923.54, -0.08582844, 0.027582552, -898609.44, 34377.08, 0.0, 9.999303, 10.000498 
1.2750432e+3, 2.1479884e+2, -886022.3, -790260.1, 30440.863, 0.013840783, 0.022473969, -781402.9, 53572.53, 0.0, 9.999298, 10.000597 
1.2750626e+3, 2.2479905e+2, -836286.4, -879183.4, 39537.094, 0.01377232, 0.063531876, -812754.6, -75781.48, 0.0, 9.99968, 9.999136 
1.2750807e+3, 2.3479824e+2, -632817.44, -726047.25, 55916.99, -0.09719209, 0.03340014, -606633.56, 32350.37, 0.0, 10.000381, 9.999178 
1.2750997e+3, 2.447976e+2, -503485.2, -624089.7, 18435.96, -0.11111002, 0.068421096, -500729.97, 40261.25, 0.0, 10.000638, 9.999081 
1.2751193e+3, 2.54797e+2, -420559.4, -520951.0, 47423.566, -0.008235112, 0.059543982, -401700.06, 41296.363, 0.0, 10.000479, 9.999192 
1.275139e+3, 2.6479608e+2, -301964.5, -455633.4, 57305.258, 0.054688916, 0.0730421, -282947.9, 62056.027, 0.00000020123079, 10.000834, 9.998785 
1.2751584e+3, 2.7479425e+2, -69978.54, -286284.0, 66283.11, 0.061033875, -0.026556535, -51283.08, 195735.66, 0.0000077157165, 10.001727, 9.998842 
1.2751773e+3, 2.8479278e+2, 26093.225, -240427.2, 53503.94, -0.014834109, -0.026631169, 36433.0, 185463.89, 0.000060411407, 10.001909, 9.998403 
1.2751955e+3, 2.9479152e+2, 49725.855, -167247.14, 72333.19, -0.16087477, -0.038231246, 71628.81, 122670.42, 0.00024271311, 10.001351, 9.998501 
1.2752165e+3, 3.047896e+2, 219810.67, -6472.5454, 44752.047, -0.043791212, -0.0930117, 228339.81, 228339.81, 0.00062258844, 10.001981, 9.998962 
1.2752368e+3, 3.1478855e+2, 391097.3, 65896.13, 36617.94, 0.06522528, -0.14874958, 395169.53, 395169.53, 0.0011836756, 10.003165, 9.998879 
1.2848717e+3, 1.2477447e+2, -1957542.3, -1750641.6, 152889.67, 0.2843758, 0.11882384, -1669491.8, 47724.207, 0.0047468157, 9.9979, 10.000746 
1.2848882e+3, 1.3477503e+2, -1984597.8, -1685499.1, 93698.234, -0.09140512, 0.056675725, -1658570.8, -39359.113, 0.0026545508, 9.996964, 10.000981 
1.2849097e+3, 1.4477518e+2, -1921198.4, -1589455.1, 29947.443, 0.036758512, -0.030258961, -1586773.3, -65562.27, 0.0010215283, 9.996681, 10.001082 
1.2849268e+3, 1.5477765e+2, -1654602.8, -1405543.0, -30924.36, 0.0035328795, 0.070416756, -1401760.8, 21426.764, 0.00019628371, 9.997826, 10.001118 
1.2849449e+3, 1.6477934e+2, -1444570.6, -1311885.1, 31679.648, -0.021427285, 0.16121385, -1304709.4, 20461.74, 0.0000059623408, 9.998805, 10.000636 
1.2849635e+3, 1.747801e+2, -1224531.3, -1141020.5, -16686.049, -0.07653032, 0.13604563, -1137810.0, 89353.25, 0.0, 9.999598, 10.000745 
1.2849829e+3, 1.8478009e+2, -1197806.6, -1207454.0, 14887.481, -0.09944247, 0.12888409, -1186980.9, -57817.516, 0.0, 9.999692, 9.999558 
1.2850027e+3, 1.947789e+2, -1165290.6, -1135191.1, 34120.867, -0.085903145, 0.016892921, -1112948.4, -81772.62, 0.0, 9.999219, 9.999612 
1.2850226e+3, 2.0477909e+2, -1008292.7, -895330.56, 36920.3, -0.036201343, 0.034582328, -884334.1, 48838.934, 0.0, 9.99912, 10.000638 
1.2850429e+3, 2.1478051e+2, -858812.6, -755535.06, -80.90528, 0.050288193, 0.071114294, -755535.0, 79621.55, 0.0, 9.999407, 10.000781 
1.2850624e+3, 2.247811e+2, -820030.5, -839941.9, 31546.168, 0.050168525, 0.1271706, -796906.4, -59755.992, 0.0, 9.999655, 9.999417 
1.2850814e+3, 2.3478049e+2, -693642.4, -719932.7, 36613.17, -0.04501562, 0.09011086, -667886.1, -28727.879, 0.0, 9.999823, 9.999482 
1.2851004e+3, 2.447797e+2, -560985.75, -635046.0, 33001.742, -0.057061706, 0.08664325, -548414.0, -7248.495, 0.0, 10.000173, 9.999226 
1.2851202e+3, 2.5477853e+2, -383360.72, -485886.78, 14433.201, 0.029233145, 0.0062557235, -381367.63, 61806.637, 0.0, 10.0006695, 9.999334 
1.2851402e+3, 2.6477745e+2, -282210.38, -472390.06, 63718.19, 0.091570586, 0.009384193, -262835.84, 82347.305, 0.00000014147287, 10.001064, 9.998566 
1.2851605e+3, 2.7477607e+2, -129732.67, -340956.53, 37601.49, 0.121983156, -0.021338206, -123238.62, 123957.484, 0.000007879153, 10.001413, 9.998626 
1.2851796e+3, 2.8477472e+2, -30095.412, -265700.38, 32720.316, 0.06017731, 0.002401137, -25635.701, 123571.98, 0.00006527563, 10.001519, 9.99842 
1.2851974e+3, 2.94773e+2, 43918.414, -166645.94, 23866.203, -0.08793353, -0.05795872, 46589.617, 97811.14, 0.000269289, 10.001288, 9.998536 
1.2852186e+3, 3.0477026e+2, 237187.81, -40968.965, 83481.92, -0.01836278, -0.18030962, 260319.25, 260319.25, 0.0006978516, 10.002267, 9.998602 
1.2852407e+3, 3.1477025e+2, 563353.94, 115857.39, -78218.8, 0.10360606, -0.088716455, 576632.0, 576632.0, 0.0013320218, 10.004428, 9.998639 
1.2948689e+3, 1.2475569e+2, -1828244.5, -1475978.1, -81649.15, 0.14012592, 0.1970916, -1457973.5, 259432.73, 0.0050962004, 9.997891, 10.002637 
1.2948859e+3, 1.3475716e+2, -1915906.4, -1520268.5, 67334.33, -0.05198614, 0.10533514, -1509122.8, 110262.67, 0.0028611089, 9.996879, 10.002158 
1.2949073e+3, 1.4475751e+2, -1938511.4, -1616225.0, 49702.617, 0.10476433, -0.009302154, -1608734.0, -87354.125, 0.00111182, 9.996646, 10.000915 
1.2949249e+3, 1.5475932e+2, -1672292.0, -1437142.3, 32361.615, -0.00049916096, 0.04484408, -1432769.9, -9405.205, 0.000219555, 9.997804, 10.000915 
1.2949434e+3, 1.6476037e+2, -1504466.6, -1438691.8, 42597.785, -0.079529375, 0.122895785, -1417763.3, -92406.125, 0.0000074533, 9.998811, 9.999761 
1.2949625e+3, 1.7476055e+2, -1292073.1, -1279842.8, 27778.588, -0.16803317, 0.12915011, -1257514.3, -30156.373, 0.0, 9.999585, 9.999799 
1.2949821e+3, 1.8476088e+2, -1140913.0, -1085990.6, -19644.166, -0.16456458, 0.16244245, -1079687.8, 49666.87, 0.0, 9.999673, 10.0004015 
1.2950028e+3, 1.947609e+2, -1115252.8, -1014098.8, 30748.162, -0.032552145, 0.08436229, -1005485.6, 25866.06, 0.0, 9.999132, 10.000487 
1.2950224e+3, 2.0476131e+2, -1073582.3, -989017.5, 29659.068, -0.011990426, 0.105970405, -979652.44, -46306.023, 0.0, 9.998946, 10.0000725 
1.2950408e+3, 2.1476188e+2, -931299.75, -856378.3, 24268.096, -0.11274393, 0.11592349, -849204.5, -13863.606, 0.0, 9.999194, 10.000187 
1.2950607e+3, 2.2476237e+2, -818544.3, -777586.5, 22429.31, -0.11548784, 0.16363941, -767693.4, -30357.354, 0.0, 9.999404, 9.999965 
1.2950818e+3, 2.3476249e+2, -686019.1, -651640.2, 61733.23, -0.0027458079, 0.14335951, -604747.94, 34586.156, 0.0, 9.999594, 10.000063 
1.2951016e+3, 2.4476188e+2, -603727.0, -655643.75, 34041.64, 0.027716579, 0.1269858, -586875.7, -45538.0, 0.0, 9.999897, 9.99921 
1.2951206e+3, 2.5476006e+2, -421783.84, -506964.06, 49582.47, -0.027946686, -0.016621608, -399010.8, 44340.555, 0.0, 10.000433, 9.999295 
1.2951405e+3, 2.6475877e+2, -324256.78, -524443.8, 58515.656, -0.011940958, -0.016437953, -308407.25, 36955.89, 0.000000052302592, 10.000901, 9.998293 
1.2951617e+3, 2.7475804e+2, -177156.2, -391584.63, 67736.34, 0.08113616, 0.04209581, -157551.25, 89822.0, 0.000007172051, 10.001204, 9.998382 
1.2951815e+3, 2.847571e+2, -48435.047, -255669.88, 7845.837, 0.07413863, 0.110238604, -48138.434, 101242.91, 0.00006969282, 10.00131, 9.998588 
1.2951994e+3, 2.947553e+2, 24582.26, -161718.58, 37616.242, -0.03746537, 0.019524122, 31890.7, 83284.52, 0.0003009035, 10.0011, 9.998659 
1.295221e+3, 3.047512e+2, 121789.78, -260839.48, 148112.06, -0.028641231, -0.17007941, 172422.4, 172422.4, 0.0007869178, 10.002173, 9.997142 
1.2952447e+3, 3.147508e+2, 445650.66, -44742.086, 47054.617, -0.018025285, 0.024622532, 450124.84, 450124.84, 0.0015023105, 10.004073, 9.997705 
1.3048662e+3, 1.2473633e+2, -2083032.5, -1560464.5, -97308.05, 0.19465232, 0.21004462, -1542932.9, 174664.7, 0.0054552136, 9.995986, 10.002973 
1.3048832e+3, 1.347378e+2, -1935981.5, -1528537.6, -51883.42, 0.019726204, 0.12051125, -1522034.6, 97541.69, 0.003073975, 9.996746, 10.002161 
1.3049039e+3, 1.4473863e+2, -1852043.9, -1574275.1, -17854.186, 0.08446532, 0.051556285, -1573132.1, -51566.33, 0.0012055306, 9.997215, 10.000931 
1.3049233e+3, 1.5474e+2, -1622040.4, -1406704.1, -48574.613, 0.05179946, 0.05642044, -1396254.0, 27300.473, 0.000244213, 9.998111, 10.000973 
1.3049428e+3, 1.6474082e+2, -1549578.4, -1454902.8, 18454.707, 0.0055039194, 0.107982, -1451432.6, -125883.93, 0.000009295233, 9.998521, 9.999775 
1.3049619e+3, 1.7474093e+2, -1421732.0, -1334016.5, 36407.465, -0.12925506, 0.10560574, -1320874.1, -93324.44, 0.0, 9.9987, 9.999837 
1.3049817e+3, 1.8474135e+2, -1257079.8, -1131406.9, 3858.2507, -0.13331759, 0.14207363, -1131288.5, -1743.4529, 0.0, 9.998806, 10.000521 
1.3050021e+3, 1.9474182e+2, -1163577.4, -1018545.8, -34619.293, 0.026005672, 0.094403625, -1010705.94, 20831.504, 0.0, 9.998719, 10.000658 
1.3050218e+3, 2.0474209e+2, -1081536.5, -1022929.94, 9821.305, 0.04604633, 0.10841766, -1021327.9, -87794.49, 0.0, 9.99901, 9.999817 
1.3050406e+3, 2.1474193e+2, -875931.75, -858765.1, -4303.9756, -0.091391996, 0.07060678, -857746.5, -22211.04, 0.0, 9.9997, 9.999932 
1.3050604e+3, 2.2474204e+2, -718713.94, -738394.25, 652.3428, -0.10230383, 0.099332936, -718692.4, 18841.756, 0.0, 10.000114, 9.99989 
1.3050818e+3, 2.347422e+2, -611621.44, -623261.4, -42407.176, 0.031474676, 0.08548605, -574636.7, 64894.977, 0.0, 10.000127, 9.999999 
1.3051023e+3, 2.4474177e+2, -505365.97, -595058.75, -35120.24, 0.07280549, 0.08230975, -493250.7, 48282.426, 0.0, 10.00049, 9.99935 
1.3051216e+3, 2.5474033e+2, -286617.2, -429610.9, -35871.71, 0.013603317, -0.033625666, -278122.94, 165419.38, 0.0, 10.001282, 9.999433 
1.3051422e+3, 2.647391e+2, -224245.3, -492501.44, -4408.4907, 0.029072465, -0.026210785, -224172.88, 121380.625, 0.000000026393016, 10.001663, 9.998147 
1.3051635e+3, 2.7473786e+2, -128193.836, -391256.16, -26784.496, 0.1198198, 0.0012447148, -125494.39, 122074.836, 0.0000066700077, 10.001622, 9.998193 
1.3051833e+3, 2.8473684e+2, 39048.707, -233704.2, -49846.586, 0.11167151, 0.07850782, 47872.867, 197452.23, 0.00007506801, 10.002005, 9.998392 
1.3052018e+3, 2.947355e+2, 286830.63, -57805.957, -86147.47, -0.0023598815, 0.055771917, 307164.8, 358753.3, 0.00033561388, 10.002997, 9.998449 
1.3052237e+3, 3.0473125e+2, 255835.7, -221861.03, 99950.49, -0.017019074, -0.123814955, 275905.56, 275905.56, 0.00088381814, 10.003213, 9.996906 
1.3052487e+3, 3.147306e+2, 244223.66, -97489.41, 21336.53, 0.08756655, 0.07131384, 245550.75, 245550.75, 0.0016890818, 10.002492, 9.998111 
1.314861e+3, 1.2471589e+2, -2176153.5, -1756873.3, -59593.19, 0.008357565, 0.089668505, -1748567.8, -30773.12, 0.005819013, 9.995994, 10.001618 
1.31488e+3, 1.3471693e+2, -2027313.9, -1722326.3, -13639.571, -0.014312609, 0.09215651, -1721717.5, -101932.766, 0.0032902497, 9.996756, 10.000829 
1.3148987e+3, 1.4471854e+2, -1824128.5, -1521056.3, -13735.002, -0.20007695, 0.15058638, -1520435.1, 1334.0502, 0.0013013786, 9.997245, 10.00128 
1.3149217e+3, 1.5471984e+2, -1601868.9, -1358965.8, -4577.8643, 0.03870789, 0.11457115, -1358879.5, 64876.25, 0.00026992275, 9.998084, 10.001318 
1.3149427e+3, 1.6472074e+2, -1487006.1, -1333978.3, 5982.649, 0.10890215, 0.11791787, -1333744.8, -7999.1006, 0.00001153221, 9.998546, 10.000598 
1.3149616e+3, 1.7472105e+2, -1360396.1, -1209039.5, 57320.22, -0.07454566, 0.049474802, -1189782.0, 37958.156, 0.0, 9.998697, 10.000701 
1.3149807e+3, 1.8472143e+2, -1303746.6, -1210112.4, -17012.254, -0.13493024, 0.058178455, -1207117.3, -77381.93, 0.0, 9.998737, 10.000009 
1.3150005e+3, 1.9472155e+2, -1218412.9, -1108530.1, -25805.947, -0.04042905, 0.03142313, -1102771.4, -71037.51, 0.0, 9.998616, 10.00009 
1.3150206e+3, 2.0472142e+2, -1103486.4, -1030205.8, 20877.527, 0.0035560331, 0.03305888, -1024675.2, -90941.08, 0.0, 9.99885, 9.999842 
1.3150413e+3, 2.1472067e+2, -903136.0, -874565.75, 39404.23, -0.010138083, -0.0643841, -846937.2, -11197.454, 0.0, 9.999513, 9.999918 
1.3150613e+3, 2.247201e+2, -802498.2, -851029.1, -13816.616, -0.0430823, -0.06888549, -798840.4, -61095.723, 0.0, 9.999865, 9.999233 
1.3150811e+3, 2.347195e+2, -694665.2, -741606.3, -22679.39, -0.07502606, -0.092340834, -685498.06, -45746.563, 0.0, 9.999898, 9.999297 
1.3151017e+3, 2.4471934e+2, -519861.8, -566522.2, -22179.813, -0.05796202, -0.04483238, -511001.28, 30750.074, 0.0, 10.000241, 9.999665 
1.3151233e+3, 2.547196e+2, -296987.4, -395755.5, 11015.44, 0.014340448, -0.030332558, -295773.78, 147970.98, 0.0, 10.001043, 9.999782 
1.3151446e+3, 2.6471856e+2, -262082.52, -520188.44, -20927.457, 0.070112854, -0.017495029, -260396.72, 85356.555, 0.000000066602475, 10.00145, 9.998057 
1.3151652e+3, 2.7471575e+2, -169349.52, -422185.53, -5777.3687, 0.10074234, -0.13521181, -169217.56, 78564.61, 0.0000067822207, 10.001404, 9.998078 
1.3151851e+3, 2.8471428e+2, -19750.678, -328870.7, -27309.738, 0.040498976, -0.06472088, -17356.494, 132441.36, 0.000081610815, 10.001871, 9.997812 
1.3152039e+3, 2.9471385e+2, 207077.1, -164359.8, -25440.791, -0.12054912, 0.056363113, 208811.5, 260614.64, 0.0003694415, 10.002733, 9.997853 
1.3152261e+3, 3.047106e+2, 278919.75, -128179.08, 64424.813, -0.12613304, -0.03190053, 288871.9, 288871.9, 0.0009768684, 10.003019, 9.997639 
1.3152523e+3, 3.1470954e+2, 304312.97, 108909.54, 50551.375, 0.13199791, 0.04117225, 316616.1, 316616.1, 0.001869303, 10.002155, 9.999688 
1.3248575e+3, 1.24695666e+2, -2052437.0, -1769339.1, 34507.56, 0.011043108, 0.02261766, -1765193.6, -47206.133, 0.006183249, 9.997106, 10.001017 
1.3248771e+3, 1.3469659e+2, -2031343.8, -1756265.6, 22417.447, 0.042672314, 0.049240377, -1754450.6, -134468.97, 0.0035072896, 9.996876, 10.000529 
1.324896e+3, 1.4469844e+2, -1920216.4, -1589496.4, 103795.68, -0.17123216, 0.15559073, -1559619.4, -37653.95, 0.0013982238, 9.99668, 10.0010805 
1.324919e+3, 1.5469953e+2, -1711300.6, -1429918.0, 43883.227, 0.020332484, 0.11445154, -1423233.0, 721.6342, 0.00029637254, 9.9974165, 10.001145 
1.3249408e+3, 1.6470037e+2, -1568417.4, -1326025.9, 28896.81, 0.11566299, 0.099102706, -1322628.5, 3315.8552, 0.000014169166, 9.997786, 10.001013 
1.3249604e+3, 1.7470077e+2, -1460862.9, -1215056.5, 13516.291, 0.0049645994, -0.0027807616, -1214315.5, 13620.843, 0.0, 9.997813, 10.00109 
1.32498e+3, 1.8470128e+2, -1379094.1, -1250046.5, -18480.568, -0.045466192, 0.0053093336, -1247452.1, -117522.72, 0.0, 9.99824, 9.999975 
1.3249996e+3, 1.947017e+2, -1128822.8, -1071870.3, -21347.88, -0.0076922877, 0.01354185, -1064756.8, -32830.484, 0.0, 9.999254, 10.000035 
1.3250202e+3, 2.0470156e+2, -992114.7, -1019991.2, 53793.805, 0.032449644, 0.03407745, -950482.7, -16554.584, 0.0, 9.999821, 9.999435 
1.3250415e+3, 2.147005e+2, -875733.7, -902706.94, 10295.968, 0.063741446, -0.05313824, -872252.8, -36314.586, 0.0, 9.999909, 9.999522 
1.3250619e+3, 2.246997e+2, -768603.0, -836530.75, -11573.442, 0.029328521, -0.05882978, -766685.3, -28739.746, 0.0, 10.0001135, 9.999214 
1.3250814e+3, 2.34699e+2, -611510.0, -693285.6, -3876.4712, -0.05523548, -0.090728156, -611326.6, 28625.035, 0.0, 10.000455, 9.999352 
1.3251023e+3, 2.446987e+2, -460015.44, -577292.0, 49033.29, -0.047853913, -0.044290446, -442216.1, 99736.836, 0.0, 10.000821, 9.999311 
1.3251247e+3, 2.5469857e+2, -300503.5, -435187.13, -1700.1327, 0.0558377, -0.030113952, -300482.03, 143469.45, 0.0, 10.001186, 9.999436 
1.3251463e+3, 2.6469734e+2, -233837.88, -491827.8, -34127.137, 0.10978109, -0.022472877, -229399.86, 116561.72, 0.0000000978673, 10.001586, 9.9981785 
1.3251668e+3, 2.7469465e+2, -57157.746, -351260.63, -40066.72, 0.10301599, -0.14710426, -51797.02, 196190.98, 0.000006920427, 10.002101, 9.998226 
1.325187e+3, 2.8469294e+2, -1672.9592, -362395.88, -6064.9956, 0.04367257, -0.09133461, -1571.0146, 148435.13, 0.000086783395, 10.002208, 9.997416 
1.3252066e+3, 2.9469198e+2, 73140.22, -273918.97, -38669.49, -0.07374292, 0.023661673, 77396.586, 129415.16, 0.00039501933, 10.002024, 9.9974375 
1.3252287e+3, 3.0468887e+2, 137426.55, -205109.97, 56893.53, -0.10702257, -0.018950766, 146629.03, 146629.03, 0.0010501491, 10.002111, 9.997538 
1.3252547e+3, 3.1468725e+2, 362274.25, 178249.89, -73799.37, 0.168294, 0.009728687, 388213.72, 388213.72, 0.0020132647, 10.002383, 10.000048 
1.3348551e+3, 1.2467499e+2, -2022168.3, -1704474.4, 79940.14, -0.0042487937, -0.060061526, -1685493.4, 32689.463, 0.0065457188, 9.997102, 10.001461 
1.3348745e+3, 1.3467687e+2, -1984108.0, -1653052.4, 11176.487, 0.059304047, -0.012083052, -1652675.5, -32509.28, 0.0037237175, 9.996853, 10.001247 
1.334895e+3, 1.4467822e+2, -1958575.3, -1678104.3, 108427.89, 0.024111338, 0.038613383, -1641075.5, -118919.85, 0.0014951822, 9.996704, 10.00047 
1.3349153e+3, 1.5467915e+2, -1757153.5, -1529245.6, 88673.06, -0.13309002, 0.048546623, -1498809.8, -74659.41, 0.00032323142, 9.997418, 10.000472 
1.3349366e+3, 1.6467981e+2, -1580461.1, -1343325.3, 11399.061, -0.11881615, 0.056407575, -1342778.6, -16634.514, 0.000017128494, 9.997758, 10.000904 
1.3349584e+3, 1.746801e+2, -1475312.4, -1231470.1, 28029.451, -0.018085366, -0.04912214, -1228289.6, -152.27489, 0.00000000003443261, 9.997758, 10.001 
1.334979e+3, 1.8468107e+2, -1355534.4, -1194471.0, 1097.3247, 0.0053822366, -0.012377603, -1194463.5, -64337.41, 0.0, 9.998202, 10.0003805 
1.3349992e+3, 1.946824e+2, -1112036.3, -1018921.5, 31397.025, 0.00012038668, 0.04597113, -1009324.1, 22789.5, 0.0, 9.999162, 10.00045 
1.3350199e+3, 2.0468257e+2, -1072533.5, -1149394.9, 40152.4, 0.006001748, 0.11514026, -1055384.3, -121269.66, 0.0, 9.99966, 9.998627 
1.3350411e+3, 2.1468122e+2, -966781.0, -1046402.1, 29618.219, 0.0073225484, 0.085044295, -956971.8, -120839.21, 0.0, 9.999705, 9.998643 
1.3350618e+3, 2.2468059e+2, -756144.5, -760083.6, -10724.801, -0.018055648, 0.11096546, -747209.9, -9071.121, 0.0, 9.999893, 9.999841 
1.3350822e+3, 2.3468061e+2, -596783.94, -614677.1, 26556.076, -0.046703912, 0.08138351, -577707.94, 62425.145, 0.0, 10.000242, 9.999994 
1.3351034e+3, 2.4467969e+2, -559430.75, -730516.4, 46634.953, -0.044873767, 0.07849048, -547544.7, -5405.684, 0.0, 10.000602, 9.998358 
1.3351254e+3, 2.5467733e+2, -404070.5, -600830.5, 29120.723, -0.0066889143, -0.030027967, -399851.06, 44310.965, 0.0, 10.0009775, 9.998394 
1.335147e+3, 2.646756e+2, -242418.88, -468388.6, -30457.22, 0.009575832, -0.03115884, -238385.7, 107792.086, 0.00000008871969, 10.001405, 9.998427 
1.335168e+3, 2.746744e+2, -71007.47, -320651.06, -1410.4429, -0.005559136, -0.042150106, -70999.5, 177188.25, 0.000006673535, 10.001852, 9.998552 
1.3351889e+3, 2.846726e+2, -51609.996, -421924.56, -31426.596, -0.025468132, 0.0031163716, -48961.926, 101243.6, 0.00008871381, 10.002015, 9.9971 
1.3352095e+3, 2.9466984e+2, 22831.57, -337866.22, -22523.623, -0.033812616, -0.028542295, 24232.605, 76467.516, 0.00040769653, 10.001846, 9.997088 
1.3352308e+3, 3.0466637e+2, 64103.06, -329114.28, 59159.996, -0.12969105, -0.049806666, 72810.914, 72810.914, 0.0010939079, 10.0019865, 9.996742 
1.3352555e+3, 3.146635e+2, 241312.77, 17024.744, 21106.328, -0.06700408, -0.067387186, 243281.67, 243281.67, 0.0021064403, 10.001981, 9.99914 
1.344852e+3, 1.246541e+2, -2248278.5, -1789316.8, 41546.516, 0.07327022, -0.07611831, -1785586.1, -67201.23, 0.0069055543, 9.995463, 10.001658 
1.3448712e+3, 1.3465632e+2, -1882342.9, -1558175.0, -65256.97, 0.03069618, -0.033570766, -1545531.5, 74832.7, 0.0039389143, 9.997372, 10.001644 
1.3448939e+3, 1.4465752e+2, -1794427.0, -1603255.1, 45606.203, 0.18839255, -0.017272443, -1592932.6, -70577.32, 0.0015916337, 9.997858, 10.000427 
1.344913e+3, 1.5465865e+2, -1764260.8, -1538851.5, 38085.727, -0.091782175, 0.020775288, -1532590.4, -108241.34, 0.0003501717, 9.997407, 10.00041 
1.344934e+3, 1.646595e+2, -1631378.5, -1375740.6, 29220.88, -0.12701763, 0.05510137, -1372443.0, -46101.457, 0.000020254476, 9.997431, 10.000846 
1.3449565e+3, 1.7465992e+2, -1449065.5, -1220684.3, 12766.615, 0.009444501, -0.030491728, -1219972.9, 8361.469, 0.0000000014653116, 9.997952, 10.000979 
1.3449778e+3, 1.8466072e+2, -1334327.8, -1195120.8, 14809.771, 0.061574645, -0.0061055035, -1193562.6, -63237.72, 0.0, 9.99839, 10.000282 
1.3449986e+3, 1.9466157e+2, -1168299.6, -1053862.1, -24350.004, 0.05548002, 0.01398263, -1048896.5, -16579.56, 0.0, 9.998821, 10.000365 
1.34502e+3, 2.046618e+2, -1083699.5, -1159090.1, 21744.729, 0.046232197, 0.09576002, -1077877.4, -143559.75, 0.0, 9.999582, 9.9986 
1.3450412e+3, 2.1466112e+2, -819853.7, -969747.5, 38889.563, 0.016192412, 0.12993886, -810364.56, 25965.436, 0.0, 10.000685, 9.998687 
1.3450623e+3, 2.246606e+2, -634671.75, -747671.75, -1727.3641, -0.00036491227, 0.18417916, -634645.4, 103690.4, 0.0, 10.00093, 9.999429 
1.345083e+3, 2.3466003e+2, -624428.25, -671996.7, -73573.055, 0.01948352, 0.1395379, -570890.56, 69445.83, 0.0, 10.00025, 9.999596 
1.3451044e+3, 2.4465849e+2, -615879.1, -778365.75, -6927.656, 0.03029382, 0.10431947, -615584.3, -73235.59, 0.0, 10.000306, 9.99818 
1.3451268e+3, 2.5465554e+2, -383425.5, -605154.5, 5923.3955, 0.028081585, -0.044327725, -383267.38, 61109.723, 0.0, 10.001195, 9.998263 
1.3451484e+3, 2.6465395e+2, -223896.0, -447346.34, -14599.965, 0.0026997768, -0.030542526, -222946.1, 123445.44, 0.000000062099474, 10.001486, 9.998534 
1.3451691e+3, 2.746535e+2, -163189.25, -354214.66, -39768.594, -0.047351442, 0.026949665, -155240.77, 93153.33, 0.0000065347235, 10.001158, 9.998662 
1.3451906e+3, 2.8465158e+2, -92100.25, -458144.1, -3801.7068, -0.023464007, 0.062475443, -92060.77, 58352.137, 0.00008986311, 10.001782, 9.996972 
1.3452132e+3, 2.946481e+2, 262645.22, -224910.16, -23723.889, 0.087297, -0.03179445, 263796.88, 316246.13, 0.00041362355, 10.003506, 9.997063 
1.3452342e+3, 3.0464503e+2, 267004.66, -207272.11, 62362.992, -0.04102631, -0.03233736, 275067.72, 275067.72, 0.0011143722, 10.00324, 9.99699 
1.3452564e+3, 3.1464225e+2, 34597.824, -76074.3, 51742.67, -0.07709684, -0.07144444, 55020.48, 55020.48, 0.0021528488, 10.000533, 9.99918 
1.3548465e+3, 1.24633275e+2, -2255325.0, -1789671.8, -113441.766, -0.08116434, -0.023271138, -1763505.5, -44914.137, 0.0072628423, 9.995426, 10.001669 
1.3548669e+3, 1.3463506e+2, -1886574.6, -1561038.3, 15542.366, -0.16613281, -0.023655655, -1560297.9, 60277.426, 0.004152666, 9.997355, 10.001631 
1.3548918e+3, 1.4463632e+2, -1769602.1, -1543890.6, 5933.7803, 0.16799259, -0.01403875, -1543734.8, -21169.99, 0.0016872559, 9.997827, 10.000847 
1.3549118e+3, 1.5463795e+2, -1731396.1, -1471566.8, 36776.54, 0.014735121, 0.026051607, -1466461.6, -41910.484, 0.0003769789, 9.997404, 10.0008745 
1.3549328e+3, 1.6463931e+2, -1629672.5, -1369846.8, 28251.322, -0.033208396, 0.08290431, -1366810.4, -40272.277, 0.000023370363, 9.997418, 10.000894 
1.3549542e+3, 1.7464007e+2, -1457294.0, -1226305.8, 46255.703, -0.023295406, 0.030178733, -1217387.3, 11141.166, 0.0000000068048798, 9.997897, 10.000971 
1.3549758e+3, 1.8464017e+2, -1391178.8, -1288745.6, 13197.128, -0.011717263, 0.0141232675, -1287072.6, -156546.1, 0.0, 9.998297, 9.999679 
1.3549976e+3, 1.946392e+2, -1230694.6, -1155292.3, 8126.6855, 0.030041574, -0.08646623, -1154426.3, -121890.09, 0.0, 9.998701, 9.999726 
1.3550195e+3, 2.0463921e+2, -1054607.0, -1059800.8, 44058.016, 0.024029866, -0.030012775, -1013069.4, -78531.875, 0.0, 9.999418, 9.999358 
1.3550417e+3, 2.1464011e+2, -798512.56, -871866.0, 92427.695, -0.031960882, 0.08228585, -735750.56, 100780.7, 0.0, 10.000451, 9.999474 
1.3550632e+3, 2.2463964e+2, -767311.0, -962480.75, -45261.07, -0.039802156, 0.16567858, -757325.56, -18787.832, 0.0, 10.000672, 9.998076 
1.3550834e+3, 2.3463733e+2, -757591.06, -896476.44, -84016.87, 0.0152887935, 0.0898483, -718033.25, -77472.05, 0.0, 10.00003, 9.99816 
1.355105e+3, 2.4463525e+2, -606721.75, -709308.06, 8324.957, 0.045411274, 0.0496209, -606050.6, -63470.188, 0.0, 10.000091, 9.99876 
1.3551283e+3, 2.5463322e+2, -369888.8, -524664.0, 57381.99, 0.031264205, -0.07595202, -350935.72, 93661.26, 0.0, 10.000971, 9.998927 
1.3551496e+3, 2.6463223e+2, -258437.17, -473013.28, -41243.316, -0.040902995, -0.033431932, -250782.89, 95822.01, 0.000000036385206, 10.001287, 9.998455 
1.3551693e+3, 2.7463198e+2, -203052.72, -390149.8, -30666.313, -0.16159517, 0.061507694, -198154.56, 50452.67, 0.0000068750182, 10.000962, 9.998511 
1.3551918e+3, 2.8463015e+2, -112630.21, -462199.22, 42696.38, -0.11118666, 0.10813579, -107490.83, 43135.703, 0.00009120505, 10.001617, 9.997022 
1.3552175e+3, 2.946264e+2, 221795.34, -242206.78, 64624.535, 0.124923654, -0.01472936, 230627.89, 283293.16, 0.0004156126, 10.003207, 9.997092 
1.3552383e+3, 3.0462426e+2, 307304.47, -49225.586, -47870.945, 0.019063134, 0.0203978, 313620.16, 313620.16, 0.0011151334, 10.002946, 9.998208 
1.3552566e+3, 3.1462252e+2, 28006.086, -11122.398, 14329.31, -0.17640994, -0.037287116, 32692.385, 32692.385, 0.0021524278, 10.000217, 9.999773 
1.3648422e+3, 1.2461253e+2, -2137775.0, -1746694.1, -59853.094, -0.0943774, -0.016326314, -1737738.9, -18944.361, 0.0076198755, 9.996259, 10.001573 
1.3648644e+3, 1.3461402e+2, -1947547.5, -1644555.4, 55824.83, -0.12576512, -0.0061531086, -1634597.3, -13814.921, 0.004366158, 9.997131, 10.001181 
1.3648884e+3, 1.446152e+2, -1865114.8, -1566369.4, -2300.8037, 0.09645407, 0.010708061, -1566351.6, -43579.387, 0.0017823466, 9.997072, 10.001047 
1.3649097e+3, 1.5461688e+2, -1811296.5, -1482855.4, -20894.152, 0.114229575, 0.031401895, -1481531.5, -56774.535, 0.0004035849, 9.996754, 10.0011 
1.3649313e+3, 1.6461821e+2, -1721203.6, -1435823.8, 21441.041, 0.11857355, 0.08195215, -1434221.9, -107477.9, 0.000026350568, 9.996863, 10.000723 
1.3649523e+3, 1.7461893e+2, -1521987.1, -1275633.6, -9763.353, 0.029479252, 0.041785274, -1275247.3, -46511.7, 0.000000016360648, 9.997521, 10.000823 
1.3649741e+3, 1.8461883e+2, -1403372.3, -1304900.3, 9071.414, -0.00001839631, 0.021633789, -1304071.6, -173336.31, 0.0, 9.998268, 9.9995775 
1.3649967e+3, 1.9461757e+2, -1168414.9, -1129702.0, 10507.715, 0.057865296, -0.10189535, -1127033.8, -94286.86, 0.0, 9.999167, 9.999667 
1.3650192e+3, 2.046173e+2, -1016873.5, -1052309.3, 65128.754, 0.041142132, -0.06640067, -967095.6, -32345.574, 0.0, 9.999711, 9.999278 
1.3650414e+3, 2.1461798e+2, -888360.75, -925244.1, 17699.12, -0.06452476, 0.03430512, -881241.6, -44496.176, 0.0, 9.9998665, 9.999397 
1.3650633e+3, 2.246173e+2, -838770.6, -1011920.06, -94773.82, -0.049478404, 0.107817985, -796981.56, -58227.26, 0.0, 10.000246, 9.997944 
1.3650846e+3, 2.346148e+2, -644112.0, -861826.25, -76770.81, 0.10093872, 0.027668096, -619763.94, 21017.111, 0.0, 10.000881, 9.997997 
1.3651066e+3, 2.44613e+2, -450503.63, -611848.2, 93459.63, 0.13786152, 0.013627847, -407714.5, 135083.84, 0.0, 10.001081, 9.998943 
1.365129e+3, 2.5461176e+2, -367893.78, -501102.1, 72020.68, 0.024913331, -0.05247149, -336400.6, 108406.53, 0.0, 10.000891, 9.999123 
1.3651507e+3, 2.6461077e+2, -266791.47, -520855.34, -9841.684, -0.06832531, -0.0015590559, -266410.78, 80405.016, 0.000000033203506, 10.001422, 9.998061 
1.3651714e+3, 2.7460977e+2, 52447.33, -303497.78, -55311.414, -0.13301696, 0.05345191, 60844.25, 309671.66, 0.0000069323874, 10.002889, 9.998167 
1.3651945e+3, 2.8460795e+2, 84494.336, -327021.25, 33028.195, -0.061124686, 0.10153008, 87128.32, 237975.25, 0.000089487476, 10.002836, 9.997349 
1.36522e+3, 2.946051e+2, -42226.4, -320551.13, 40222.156, 0.17342137, 0.034348603, -36530.26, 16345.551, 0.0004060462, 10.0012045, 9.997506 
1.3652408e+3, 3.046033e+2, 83442.43, -120879.76, -56569.684, 0.08831819, 0.06593193, 98058.984, 98058.984, 0.0010871664, 10.001254, 9.998543 
1.3652593e+3, 3.1460157e+2, 415753.47, 155545.88, -111319.79, -0.06007246, -0.008880485, 456877.88, 456877.88, 0.0020984344, 10.002938, 9.999649 
1.3748385e+3, 1.24591544e+2, -2160015.3, -1788917.9, -23114.691, -0.15304752, -0.09921884, -1787483.6, -68486.17, 0.0079810945, 9.996261, 10.001271 
1.3748631e+3, 1.3459322e+2, -2008849.3, -1771466.9, 92919.36, -0.001783712, 0.015034122, -1739421.1, -118436.13, 0.0045821774, 9.997127, 10.000309 
1.3748832e+3, 1.4459427e+2, -1868504.1, -1574965.3, -41595.83, -0.18216321, 0.06391825, -1569184.9, -46207.65, 0.0018779465, 9.997076, 10.00099 
1.3749065e+3, 1.545954e+2, -1817535.5, -1493111.5, -18271.086, 0.07837674, 0.032754056, -1492085.8, -67118.94, 0.00043006244, 9.996736, 10.00104 
1.3749292e+3, 1.6459619e+2, -1748032.3, -1486436.3, 24243.191, 0.18652363, 0.0518752, -1484208.5, -157249.3, 0.000029160963, 9.996838, 10.000391 
1.3749503e+3, 1.7459656e+2, -1547851.3, -1324407.5, 31476.86, 0.03812158, 0.0076948046, -1320057.9, -91103.086, 0.000000027808229, 9.997487, 10.000512 
1.3749723e+3, 1.845968e+2, -1382557.1, -1248076.4, 25296.287, -0.03948082, 0.017533315, -1243475.5, -112524.87, 0.0, 9.998218, 9.999988 
1.3749956e+3, 1.9459654e+2, -1160676.1, -1083533.1, 56023.03, 0.013354705, -0.045287848, -1054087.4, -21136.924, 0.0, 9.999036, 10.000051 
1.3750184e+3, 2.0459598e+2, -1098023.4, -1180997.6, 54461.37, -0.04223261, -0.019099172, -1071047.3, -136090.89, 0.0, 9.999543, 9.998476 
1.37504e+3, 2.1459492e+2, -984220.7, -1069943.8, 40365.6, -0.21882592, -0.008110772, -968205.3, -131234.3, 0.0, 9.999635, 9.998518 
1.3750625e+3, 2.2459386e+2, -807999.1, -886594.4, -87009.68, -0.17144687, 0.026994007, -751824.3, -12840.988, 0.0, 9.999988, 9.998925 
1.375086e+3, 2.3459254e+2, -610907.06, -726387.06, -36364.5, 0.13975926, -0.041062728, -600410.1, 40585.395, 0.0, 10.000607, 9.999052 
1.3751082e+3, 2.4459165e+2, -500809.03, -667748.56, 65781.73, 0.17462312, -0.003640171, -478003.5, 64999.957, 0.0, 10.00086, 9.998672 
1.3751286e+3, 2.5459114e+2, -418439.4, -561082.25, 77944.82, -0.11171264, 0.032273013, -384109.78, 60898.14, 0.0, 10.000694, 9.998808 
1.3751508e+3, 2.645897e+2, -335197.16, -623431.1, 27075.219, -0.21301147, 0.08477707, -332675.9, 14347.278, 0.000000022673568, 10.001248, 9.997439 
1.3751748e+3, 2.7458674e+2, -29159.627, -414525.34, 18340.975, -0.09955169, 0.004961223, -28288.682, 220766.72, 0.0000066245593, 10.002643, 9.997522 
1.375198e+3, 2.8458488e+2, 106945.55, -244273.61, -41922.254, -0.007454551, 0.053401154, 111880.15, 262955.06, 0.000084736, 10.002673, 9.997996 
1.3752206e+3, 2.945842e+2, -21341.033, -231430.7, 1648.1128, 0.07556451, 0.13277644, -21328.105, 31752.102, 0.0003824706, 10.001006, 9.998217 
1.3752416e+3, 3.0458206e+2, 24305.455, -213628.6, -5546.6284, 0.0054214606, 0.11623141, 24434.688, 24434.688, 0.0010250094, 10.001122, 9.997962 
1.3752629e+3, 3.1457892e+2, 284379.56, -1527.6454, 23385.127, -0.047946166, -0.03630667, 286279.66, 286279.66, 0.0019870058, 10.002465, 9.998776 
1.3848345e+3, 1.2456978e+2, -2175130.3, -1768596.9, 17734.387, -0.15872411, -0.09006085, -1767824.8, -48614.785, 0.008351057, 9.996054, 10.001509 
1.3848603e+3, 1.3457099e+2, -2152481.8, -1818754.4, 26132.783, 0.0878268, -0.037188053, -1816720.5, -195520.55, 0.004803759, 9.996063, 10.0005 
1.3848796e+3, 1.4457208e+2, -2016327.4, -1685198.5, -21419.305, -0.18719792, 0.023938214, -1683818.8, -160627.66, 0.0019753822, 9.996218, 10.000661 
1.3849036e+3, 1.5457302e+2, -1676686.4, -1460726.5, -55845.65, 0.08668096, 0.0072885286, -1447140.0, -21956.13, 0.00045665295, 9.99785, 10.000733 
1.384927e+3, 1.645736e+2, -1507945.0, -1396842.4, 3649.266, 0.20523763, 0.03212292, -1396722.6, -69543.04, 0.00003186285, 9.998637, 10.000118 
1.3849483e+3, 1.7457364e+2, -1425365.0, -1291775.6, -26529.139, 0.057690967, -0.016511733, -1286700.1, -57521.17, 0.000000039188958, 9.998472, 10.000246 
1.3849708e+3, 1.8457393e+2, -1337177.9, -1232265.5, 1019.916, -0.009209397, 0.011794961, -1232255.6, -101080.555, 0.0, 9.998529, 9.999963 
1.3849948e+3, 1.9457422e+2, -1148345.8, -1069735.0, -21065.73, 0.041407075, 0.003348609, -1064445.8, -31276.191, 0.0, 9.999078, 10.00013 
1.3850181e+3, 2.0457365e+2, -1113498.9, -1192617.8, 8885.277, -0.004894025, 0.023420684, -1112513.4, -177337.86, 0.0, 9.999459, 9.998429 
1.3850401e+3, 2.1457176e+2, -967369.94, -1064425.0, 20451.852, -0.1644954, -0.043791506, -963236.3, -126039.03, 0.0, 9.999758, 9.998492 
1.385063e+3, 2.2457066e+2, -790713.5, -862415.56, -59610.043, -0.1336, -0.02051647, -757004.1, -17794.328, 0.0, 10.000021, 9.999083 
1.3850863e+3, 2.3457022e+2, -621081.9, -711545.44, -104505.57, 0.11858191, -0.016002437, -552439.44, 88774.39, 0.0, 10.000437, 9.999241 
1.3851087e+3, 2.4456969e+2, -539406.2, -714720.5, -16195.314, 0.1529293, 0.057354085, -537922.7, 5296.9136, 0.0, 10.000721, 9.99841 
1.3851297e+3, 2.5456882e+2, -403460.56, -586865.9, -42084.566, -0.080338255, 0.0879956, -394264.8, 50964.26, 0.0, 10.000926, 9.99852 
1.3851525e+3, 2.6456708e+2, -348908.06, -597898.5, -6165.744, -0.1521872, 0.110283636, -348755.47, -1508.1578, 0.0000000049794013, 10.001016, 9.997727 
1.3851771e+3, 2.7456397e+2, -227817.44, -476882.56, 21313.271, -0.039951883, -0.01382412, -226006.77, 23272.02, 0.0000064670485, 10.00111, 9.997842 
1.3852006e+3, 2.8456226e+2, -47434.89, -315377.94, -26262.771, 0.03384578, 0.03411121, -44884.98, 106410.6, 0.00007993784, 10.001585, 9.998051 
1.3852222e+3, 2.9456195e+2, 235007.72, -91598.266, -69802.32, 0.07217302, 0.1418558, 249300.42, 302598.13, 0.00035414053, 10.002692, 9.99837 
1.3852438e+3, 3.0455923e+2, 269301.3, -160492.11, -46720.9, 0.029245468, 0.087526746, 274321.5, 274321.5, 0.0009478654, 10.003078, 9.997383 
1.3852662e+3, 3.1455588e+2, 237884.55, -79589.0, -61394.98, 0.056332204, -0.024225194, 249343.84, 249343.84, 0.0018472242, 10.002351, 9.998294 
1.3948318e+3, 1.24546476e+2, -2130083.8, -1656627.0, 150603.39, -0.07787226, -0.04427165, -1612781.4, 106657.96, 0.008733579, 9.995998, 10.002295 
1.3948558e+3, 1.3454714e+2, -2064313.4, -1625780.4, 16602.992, 0.0007533831, -0.18243878, -1625152.6, -3724.0393, 0.005033633, 9.996026, 10.001835 
1.3948776e+3, 1.445487e+2, -2054511.4, -1764257.9, 8863.213, -0.057868026, -0.11871193, -1763987.4, -240574.06, 0.002076125, 9.996217, 10.000118 
1.3949008e+3, 1.5454984e+2, -1722892.3, -1552793.9, 24351.49, -0.010599206, -0.054604776, -1549376.3, -123968.79, 0.00048381835, 9.997831, 10.000113 
1.394924e+3, 1.6455033e+2, -1530579.1, -1446538.0, -20587.955, 0.01827693, 0.0124261975, -1441765.5, -114359.69, 0.000034571214, 9.998649, 9.999773 
1.3949463e+3, 1.7454992e+2, -1464277.6, -1353995.8, -21934.107, -0.025584955, -0.04399011, -1349793.4, -120382.77, 0.00000005013657, 9.998393, 9.999859 
1.3949694e+3, 1.845501e+2, -1356865.9, -1261118.9, -1238.9404, -0.0435237, 0.0045442637, -1261102.9, -129693.55, 0.0, 9.998481, 9.999785 
1.394994e+3, 1.9455077e+2, -1182567.1, -1110571.0, 13056.78, 0.009533358, 0.051104482, -1108276.3, -74873.516, 0.0, 9.998944, 9.999917 
1.395018e+3, 2.0455037e+2, -1084077.8, -1097456.3, 3943.2673, 0.015655017, 0.0672481, -1083002.0, -147595.63, 0.0, 9.99931, 9.999152 
1.3950413e+3, 2.1454851e+2, -950347.1, -973136.25, 45250.813, -0.03715242, -0.07330322, -915078.25, -77653.85, 0.0, 9.999522, 9.99923 
1.3950637e+3, 2.2454774e+2, -854953.2, -957097.25, -59891.266, -0.07601177, -0.028564053, -827314.9, -87881.375, 0.0, 9.999837, 9.998526 
1.395085e+3, 2.3454809e+2, -692655.1, -817525.94, -70191.41, -0.08295677, 0.11265103, -661149.0, -19715.191, 0.0, 10.00024, 9.998612 
1.3951075e+3, 2.4454735e+2, -594105.8, -776370.75, -23698.531, -0.062482443, 0.21146347, -591074.9, -47630.99, 0.0, 10.000502, 9.998092 
1.3951316e+3, 2.5454485e+2, -467249.16, -655368.25, -16040.382, -0.0071447315, 0.11316635, -465891.25, -20421.52, 0.0, 10.000663, 9.998172 
1.3951552e+3, 2.645429e+2, -300873.63, -454151.84, -17021.914, -0.011867142, 0.08408226, -299006.03, 48481.56, 0.0000000011462398, 10.000821, 9.998811 
1.3951783e+3, 2.7454153e+2, -179513.48, -326048.5, 44394.363, -0.07708673, 0.014827812, -167113.11, 82383.625, 0.0000063015364, 10.000886, 9.99899 
1.3952012e+3, 2.8454024e+2, -117317.484, -408412.9, -2923.7893, -0.07634088, 0.06880671, -117288.125, 34219.516, 0.00007549819, 10.001367, 9.997513 
1.3952246e+3, 2.9453835e+2, 146521.36, -210489.72, -4177.25, 0.007681126, 0.08395293, 146570.23, 200097.23, 0.0003302732, 10.002419, 9.997683 
1.395247e+3, 3.0453482e+2, 204951.14, -249406.7, -85950.734, 0.015352486, 0.0126418015, 220666.83, 220666.83, 0.0008854581, 10.002882, 9.996869 
1.3952684e+3, 3.14533e+2, 171753.53, -116481.02, -34712.145, -0.0056389677, 0.09353693, 175874.98, 175874.98, 0.0017326016, 10.001937, 9.998238 
1.4048295e+3, 1.2452298e+2, -2247760.3, -1712051.0, 201108.73, 0.1360758, 0.0110516595, -1644956.6, 74713.805, 0.009133226, 9.995137, 10.00234 
1.4048508e+3, 1.3452382e+2, -1906410.6, -1469481.9, -45197.49, -0.121588156, -0.18669286, -1464855.5, 156800.89, 0.005275387, 9.996724, 10.002587 
1.4048758e+3, 1.4452563e+2, -1850676.3, -1638658.4, 4545.003, 0.09593253, -0.15064238, -1638561.0, -114923.84, 0.0021822979, 9.997506, 10.000351 
1.4048989e+3, 1.5452667e+2, -1743659.0, -1543439.1, 38211.09, 0.024759129, -0.113182634, -1536394.5, -110763.41, 0.00051218417, 9.997615, 10.000275 
1.404922e+3, 1.6452716e+2, -1642367.3, -1511165.1, 53368.535, -0.0065632854, -0.050074678, -1492198.4, -164569.53, 0.000037386584, 9.997919, 9.999682 
1.404945e+3, 1.7452693e+2, -1400479.3, -1324955.6, 41843.563, -0.0040211543, -0.0896045, -1306354.0, -76721.836, 0.00000006103049, 9.9988365, 9.999839 
1.4049685e+3, 1.8452702e+2, -1271326.8, -1261107.5, 101947.56, 0.0032210276, -0.0331288, -1164141.6, -32508.895, 0.0, 9.999251, 9.9994135 
1.404993e+3, 1.9452728e+2, -1173424.0, -1146701.0, 66302.0, 0.023416288, 0.010176597, -1092427.6, -58795.36, 0.0, 9.99918, 9.9995575 
1.4050174e+3, 2.0452698e+2, -1078000.4, -1055929.3, 71697.555, 0.04071978, 0.036468636, -994422.94, -58787.363, 0.0, 9.999187, 9.999506 
1.4050415e+3, 2.1452574e+2, -919600.7, -906746.25, 55003.3, 0.04202124, -0.08018322, -857795.94, -20150.39, 0.0, 9.999522, 9.999686 
1.4050642e+3, 2.245252e+2, -831503.1, -963350.8, -1914.1852, -0.004584571, -0.029527517, -831475.4, -91823.586, 0.0, 10.000089, 9.998357 
1.4050852e+3, 2.345252e+2, -598254.44, -787067.6, -15766.559, -0.10338194, 0.09578213, -596946.94, 44708.773, 0.0, 10.000959, 9.998471 
1.4051081e+3, 2.4452399e+2, -489911.06, -764378.5, 57961.254, -0.079236895, 0.17185861, -478172.97, 65498.0, 0.0, 10.001378, 9.997754 
1.4051333e+3, 2.5452098e+2, -391858.06, -649551.06, 33836.26, 0.07485354, 0.05716506, -387489.28, 58213.39, 0.0, 10.001322, 9.997889 
1.4051573e+3, 2.645191e+2, -212726.67, -379059.3, 41776.45, 0.10350653, 0.03462917, -202823.63, 144896.42, 0.0000000047036606, 10.001293, 9.999099 
1.4051798e+3, 2.7451858e+2, -83022.77, -236909.17, -1975.6091, -0.009103232, 0.019436397, -82997.414, 166722.27, 0.000006310061, 10.001393, 9.999348 
1.4052032e+3, 2.8451735e+2, -77726.914, -406084.56, -5210.5894, -0.031228151, 0.06779742, -77644.25, 74085.02, 0.00007173929, 10.001704, 9.997361 
1.4052273e+3, 2.9451448e+2, 93592.23, -259408.94, -3683.1243, 0.061834857, 0.0017929528, 93630.65, 147389.06, 0.00031660267, 10.00215, 9.9974785 
1.4052504e+3, 3.0451083e+2, 178085.83, -298135.5, -41583.074, 0.08959349, -0.051569864, 181689.55, 181689.55, 0.0008541431, 10.002856, 9.996545 
1.4052717e+3, 3.1450966e+2, 479675.8, 46947.574, -48068.85, 0.045051154, 0.12931857, 484951.16, 484951.16, 0.0016740352, 10.003979, 9.998386 
1.4148241e+3, 1.2449872e+2, -2287074.3, -1791416.6, -32467.111, 0.011173537, 0.00085530855, -1789299.0, -69390.43, 0.009556688, 9.995132, 10.001798 
1.4148448e+3, 1.3450116e+2, -1897997.6, -1442193.4, 31346.1, -0.4279173, -0.0466093, -1440047.8, 181834.0, 0.0055341963, 9.996689, 10.002795 
1.4148739e+3, 1.4450288e+2, -1776424.4, -1493948.1, -13303.543, 0.10385281, -0.083440796, -1493323.0, 30539.646, 0.0022969088, 9.997544, 10.001327 
1.4148971e+3, 1.5450351e+2, -1685884.4, -1419011.6, 54333.824, 0.069763914, -0.17283374, -1408373.5, 17481.412, 0.0005425403, 9.997593, 10.001142 
1.4149204e+3, 1.645042e+2, -1611975.0, -1452597.4, 63351.57, -0.0008172272, -0.15439387, -1430483.8, -102636.32, 0.000040406845, 9.997933, 10.000083 
1.4149441e+3, 1.7450485e+2, -1386398.9, -1278152.4, 91799.555, -0.005391962, -0.13753636, -1225708.8, 4132.4585, 0.00000007226826, 9.998758, 10.000206 
1.4149679e+3, 1.8450485e+2, -1317996.1, -1342701.1, 83811.87, -0.012452498, -0.084163584, -1245631.4, -113788.07, 0.0, 9.999191, 9.998877 
1.4149918e+3, 1.9450377e+2, -1237358.4, -1249923.9, 76438.02, -0.042504646, -0.11353737, -1166945.4, -133087.14, 0.0, 9.999055, 9.998908 
1.4150159e+3, 2.0450336e+2, -1092092.6, -1056192.4, 61055.504, -0.05885859, -0.06652549, -1010503.0, -74639.24, 0.0, 9.999053, 9.999571 
1.4150403e+3, 2.1450351e+2, -948165.3, -915031.8, 81832.914, -0.04044188, -0.05588611, -848105.56, -10245.151, 0.0, 9.999292, 9.999745 
1.4150642e+3, 2.2450297e+2, -849720.8, -944815.75, 11528.511, -0.045160893, -0.019354926, -848343.2, -108478.2, 0.0, 9.999847, 9.998597 
1.4150867e+3, 2.3450142e+2, -624727.8, -780038.9, 31620.56, -0.07331058, -0.070713386, -618536.8, 23344.113, 0.0, 10.000697, 9.998643 
1.4151101e+3, 2.4449967e+2, -537436.7, -817249.7, 42651.977, -0.05230063, -0.043313168, -531079.6, 12820.846, 0.0, 10.001172, 9.997491 
1.4151344e+3, 2.5449735e+2, -436966.38, -704060.5, 49191.477, 0.032852124, -0.06554671, -428194.72, 17732.654, 0.0, 10.001146, 9.997601 
1.4151585e+3, 2.6449576e+2, -277449.38, -472331.1, 27998.156, 0.06556961, -0.018111648, -273506.72, 74437.28, 0.000000079284355, 10.001118, 9.998541 
1.4151818e+3, 2.7449492e+2, -160228.67, -344927.38, 23874.89, 0.0237622, -0.008514865, -157192.42, 92757.03, 0.000007370644, 10.001167, 9.998716 
1.4152056e+3, 2.8449336e+2, -79034.62, -366225.66, -3581.2378, 0.0103012575, 0.026102252, -78989.97, 72972.664, 0.00007202747, 10.001519, 9.997722 
1.4152299e+3, 2.9449028e+2, 82122.195, -228983.81, 37251.664, 0.07800238, -0.10560242, 86520.51, 140512.77, 0.00031764805, 10.001907, 9.997808 
1.4152536e+3, 3.0448708e+2, 114369.734, -367186.88, -10897.66, 0.09412685, -0.11064986, 114616.23, 114616.23, 0.00085660315, 10.002607, 9.996173 
1.4152753e+3, 3.1448603e+2, 405722.94, 14415.618, 43729.496, -0.044617664, 0.10868059, 410550.25, 410550.25, 0.0016729925, 10.003496, 9.998374 
1.42482e+3, 1.24474905e+2, -2254224.8, -1809752.4, -49833.21, 0.076225884, -0.059032083, -1804233.6, -84092.586, 0.010011913, 9.995533, 10.001479 
1.4248417e+3, 1.34478e+2, -1937908.9, -1493412.3, 103181.09, -0.37550652, -0.002379238, -1470628.6, 151482.06, 0.0058154534, 9.996591, 10.002483 
1.4248711e+3, 1.4447938e+2, -1780590.6, -1484138.3, 2417.6511, 0.08764827, -0.06354562, -1484118.6, 39977.137, 0.002423067, 9.997471, 10.001425 
1.4248948e+3, 1.5448014e+2, -1680990.4, -1405179.0, -36549.19, 0.07358775, -0.14888328, -1400417.9, 25667.324, 0.00057589856, 9.997585, 10.00123 
1.4249182e+3, 1.6448109e+2, -1618573.8, -1418002.3, -2275.8364, 0.008050539, -0.12606974, -1417976.4, -89902.24, 0.00004378684, 9.997722, 10.000416 
1.4249429e+3, 1.7448212e+2, -1436459.9, -1261343.8, -9049.762, 0.03070962, -0.109115794, -1260877.3, -30813.688, 0.00000008454083, 9.99823, 10.00057 
1.4249673e+3, 1.8448207e+2, -1391131.5, -1378230.1, 19318.617, 0.03916136, -0.08099956, -1364313.8, -232248.02, 0.0, 9.998685, 9.9988785 
1.4249909e+3, 1.9448055e+2, -1208770.5, -1231466.3, 27415.47, -0.021592723, -0.15385482, -1190447.1, -156362.66, 0.0, 9.999238, 9.99894 
1.4250152e+3, 2.0448008e+2, -1010439.3, -1034726.3, 68893.234, -0.050794557, -0.10571101, -952627.56, -16536.934, 0.0, 9.999684, 9.999411 
1.4250402e+3, 2.1448055e+2, -841249.3, -883978.3, 36051.543, -0.025993545, -0.04723196, -820707.3, 17377.473, 0.0, 10.000091, 9.999578 
1.4250645e+3, 2.2447982e+2, -781412.9, -913394.94, -14528.027, -0.008556556, -0.01849507, -779832.6, -39741.72, 0.0, 10.0003195, 9.998593 
1.4250877e+3, 2.344776e+2, -656060.6, -792095.6, -42390.637, -0.013482461, -0.1372659, -643932.4, -1819.718, 0.0, 10.0004635, 9.998683 
1.4251114e+3, 2.4447586e+2, -587955.06, -822319.44, 1804.8625, 0.0055554695, -0.11828777, -587941.1, -43809.84, 0.0, 10.000743, 9.997664 
1.4251359e+3, 2.5447443e+2, -392535.6, -662036.06, 5503.623, 0.05661031, -0.070227794, -392423.22, 53725.742, 0.00000000006254562, 10.001352, 9.997793 
1.4251599e+3, 2.6447287e+2, -223681.14, -499903.06, 29041.291, 0.08395621, -0.00725137, -220660.84, 127504.984, 0.00000036239143, 10.001709, 9.998063 
1.4251836e+3, 2.744711e+2, -106796.305, -370039.4, -392.93613, 0.07182564, -0.04141705, -106795.72, 143386.31, 0.000010087366, 10.001743, 9.998261 
1.4252077e+3, 2.8446934e+2, 3307.4702, -310457.06, 28986.498, 0.061684217, -0.012126246, 5962.8564, 158161.27, 0.000078694284, 10.002016, 9.997874 
1.4252323e+3, 2.94467e+2, 229147.3, -134263.33, 731.72766, 0.097218394, -0.08322049, 229148.77, 283369.47, 0.0003338223, 10.002819, 9.998018 
1.4252567e+3, 3.044645e+2, 219035.16, -320748.44, -4889.939, 0.13571541, -0.03559476, 219079.45, 219079.45, 0.00088968594, 10.003305, 9.996178 
1.4252791e+3, 3.1446204e+2, 358445.53, 627.0062, 21734.773, 0.02048561, 0.04301485, 359760.9, 359760.9, 0.0017268027, 10.003098, 9.9984865 
1.4348146e+3, 1.2445269e+2, -2240545.5, -1797493.4, -135045.61, -0.08576325, -0.077579446, -1759575.6, -39218.84, 0.010506618, 9.995578, 10.001545 
1.4348416e+3, 1.3445455e+2, -2014393.0, -1642853.9, 176074.75, -0.07016633, -0.046523523, -1572669.0, 49671.832, 0.006123269, 9.996555, 10.001463 
1.4348671e+3, 1.4445524e+2, -1819310.3, -1576083.8, -7008.0317, -0.11458842, -0.09621181, -1575882.0, -51546.883, 0.002563054, 9.997514, 10.000781 
1.434891e+3, 1.5445681e+2, -1735704.6, -1510867.4, -16840.57, -0.10328409, -0.033827044, -1509613.0, -83293.055, 0.0006133788, 9.997544, 10.000532 
1.4349149e+3, 1.6445798e+2, -1605789.4, -1385936.1, -7054.6475, -0.13434882, 0.03930234, -1385710.0, -57402.03, 0.000047750204, 9.997701, 10.000648 
1.4349408e+3, 1.7445849e+2, -1424003.6, -1228654.1, 21760.992, -0.024308486, -0.018721968, -1226259.4, 4042.4065, 0.00000010052836, 9.998194, 10.000817 
1.4349662e+3, 1.8445854e+2, -1352135.0, -1283248.3, 18827.285, 0.025138024, -0.026353149, -1278438.4, -146137.06, 0.0, 9.998627, 9.9995575 
1.4349902e+3, 1.9445771e+2, -1180302.8, -1143444.6, 62666.113, -0.047235135, -0.10136331, -1096553.9, -62243.473, 0.0, 9.99911, 9.999608 
1.4350148e+3, 2.0445724e+2, -1056557.8, -1095514.3, 65067.652, -0.08778403, -0.0733663, -1008115.44, -71800.16, 0.0, 9.999532, 9.999065 
1.4350402e+3, 2.1445695e+2, -907354.2, -969601.1, 66564.36, -0.04824194, -0.049254853, -864996.44, -26678.516, 0.0, 9.999863, 9.999101 
1.4350648e+3, 2.2445591e+2, -835777.0, -964608.7, -24528.18, -0.031439874, -0.01440313, -831265.1, -90936.734, 0.0, 10.000063, 9.998361 
1.435088e+3, 2.3445383e+2, -709906.0, -840878.06, -18891.578, -0.045879714, -0.097878896, -707235.5, -64885.473, 0.0, 10.000206, 9.998467 
1.435112e+3, 2.444525e+2, -580272.75, -755781.75, 4546.848, -0.03623171, -0.05297545, -580155.06, -35791.074, 0.0, 10.000521, 9.998232 
1.435137e+3, 2.5445196e+2, -391888.34, -597587.1, 44983.62, 0.01623301, 0.024495464, -382481.22, 63888.617, 0.000000006122379, 10.001085, 9.998364 
1.4351614e+3, 2.6445037e+2, -269298.38, -549959.8, 16627.836, 0.030429523, 0.06895715, -268316.7, 80069.016, 0.0000008787704, 10.00151, 9.997821 
1.435185e+3, 2.7444726e+2, -156682.3, -430049.44, 22114.182, 0.0019886745, -0.06798946, -154904.92, 95511.695, 0.000014147242, 10.00155, 9.997952 
1.435209e+3, 2.8444532e+2, -34192.082, -345733.1, 40611.723, -0.0211831, -0.035143554, -28985.064, 123451.34, 0.000090676775, 10.001828, 9.997721 
1.4352342e+3, 2.9444444e+2, 171549.84, -197834.69, 55523.895, -0.027675744, 0.050229624, 179715.39, 234161.86, 0.00036389777, 10.0025625, 9.997713 
1.4352596e+3, 3.044428e+2, 223497.66, -246829.02, -24679.91, 0.05807198, 0.17980342, 224789.16, 224789.16, 0.0009561929, 10.0030575, 9.996791 
1.4352822e+3, 3.1443805e+2, 316116.16, 23875.188, 60124.004, -0.02580091, -0.038242918, 328002.28, 328002.28, 0.0018452968, 10.002634, 9.99887 
1.4448097e+3, 1.2442876e+2, -2031076.6, -1720586.9, -139911.03, -0.18892966, -0.104380764, -1666843.5, 53745.977, 0.011047917, 9.997097, 10.001345 
1.44484e+3, 1.3443045e+2, -2044592.6, -1740779.3, 89950.42, 0.10818417, -0.025781762, -1716145.0, -93566.77, 0.00646129, 9.996693, 10.000718 
1.4448634e+3, 1.4443108e+2, -1919594.8, -1601258.3, -21659.74, -0.17839128, -0.04730391, -1599791.4, -75217.15, 0.0027186894, 9.996744, 10.000962 
1.4448886e+3, 1.5443279e+2, -1715159.4, -1463653.0, -8121.2773, -0.0787965, -0.0025640258, -1463391.0, -36834.758, 0.0006559602, 9.997535, 10.0008545 
1.4449131e+3, 1.6443384e+2, -1608380.6, -1417589.6, 57482.746, -0.06358378, 0.05518292, -1401609.4, -73063.69, 0.000052490832, 9.997821, 10.000372 
1.444939e+3, 1.7443398e+2, -1485928.3, -1285020.3, 13696.326, 0.0016812859, -0.014306262, -1284090.9, -53545.13, 0.00000012546444, 9.997905, 10.000562 
1.4449646e+3, 1.8443426e+2, -1375000.4, -1247078.0, 27363.137, 0.032740783, -0.002991034, -1241470.8, -108927.62, 0.0, 9.998248, 9.999996 
1.4449893e+3, 1.9443452e+2, -1166411.9, -1078676.0, 24103.139, -0.03538254, -0.019846385, -1072490.4, -37950.664, 0.0, 9.998947, 10.000131 
1.4450143e+3, 2.0443429e+2, -1076079.1, -1105660.0, 50093.563, -0.070759416, 0.0055327374, -1038638.1, -102096.66, 0.0, 9.999421, 9.999046 
1.4450401e+3, 2.1443324e+2, -931356.2, -976160.5, 43496.477, -0.030752635, -0.03984188, -904831.9, -66279.88, 0.0, 9.999713, 9.999118 
1.445065e+3, 2.2443211e+2, -815499.44, -962894.56, 15210.515, -0.0149494605, -0.013220113, -813946.1, -73382.23, 0.0, 10.000217, 9.998304 
1.4450885e+3, 2.3443061e+2, -601883.44, -792761.2, 3588.085, -0.043144148, -0.03610371, -601816.0, 40764.086, 0.0, 10.000945, 9.998443 
1.445113e+3, 2.444294e+2, -443865.7, -665898.5, 53362.09, -0.028772982, 0.00922827, -431706.78, 112885.35, 0.0, 10.001361, 9.998439 
1.4451385e+3, 2.544283e+2, -305749.94, -533521.44, 34209.727, 0.038908474, 0.0073564784, -300722.84, 145878.7, 0.000000012932129, 10.001562, 9.998582 
1.4451632e+3, 2.6442665e+2, -258329.56, -555183.6, 19632.031, 0.0691834, 0.03778194, -257036.86, 91580.7, 0.0000016431604, 10.00164, 9.997722 
1.4451869e+3, 2.744241e+2, -139701.11, -430512.25, -6402.062, 0.048311464, -0.028244575, -139560.25, 111083.89, 0.000019343763, 10.001717, 9.997861 
1.4452113e+3, 2.8442198e+2, -12586.24, -365783.3, 77107.76, 0.017662011, 0.003898731, 3513.5598, 156179.88, 0.00010742406, 10.002102, 9.997448 
1.445237e+3, 2.9442027e+2, 187748.83, -211583.98, 58418.38, -0.003851555, 0.03261422, 196119.39, 250803.17, 0.0004097107, 10.002772, 9.997503 
1.4452629e+3, 3.0441868e+2, 282118.94, -152745.22, -684.4186, 0.10158976, 0.14906411, 282120.0, 282120.0, 0.0010616613, 10.003164, 9.997401 
1.4452858e+3, 3.144142e+2, 408741.3, 102314.14, -8356.861, 0.07222577, -0.106977336, 408969.06, 408969.06, 0.0020378157, 10.00314, 9.999159 
1.4548084e+3, 1.2440333e+2, -2064042.1, -1814722.6, 15861.071, -0.12175058, -0.1556104, -1813717.6, -92880.53, 0.011640448, 9.997201, 10.00065 
1.4548361e+3, 1.3440588e+2, -2092716.1, -1827311.8, 89392.9, 0.030788302, 0.055077296, -1800011.0, -177189.97, 0.0068325973, 9.996631, 10.00016 
1.4548597e+3, 1.4440717e+2, -1854808.1, -1464743.6, -9938.185, -0.2828034, 0.09292841, -1464490.5, 60319.7, 0.0028915813, 9.996737, 10.001902 
1.4548874e+3, 1.5440804e+2, -1635719.8, -1289218.1, 35518.87, 0.0072191446, -0.06582734, -1285614.6, 141179.83, 0.00070428615, 9.997498, 10.0020685 
1.454913e+3, 1.6440867e+2, -1649968.8, -1511274.1, 38114.527, 0.086204596, -0.08336685, -1501490.1, -172703.13, 0.000058062662, 9.997848, 9.999719 
1.454937e+3, 1.7440861e+2, -1550631.5, -1407067.1, 32524.307, -0.015813729, -0.09342968, -1400042.5, -169248.23, 0.00000016567238, 9.99785, 9.999752 
1.454962e+3, 1.8440934e+2, -1363922.5, -1213381.8, 35588.094, -0.078935675, -0.009002795, -1205392.6, -72602.305, 0.0, 9.9982, 10.000253 
1.4549877e+3, 1.9441098e+2, -1163913.8, -1046780.3, 65808.266, -0.11422436, 0.08665314, -1017251.7, 17520.902, 0.0, 9.998824, 10.000418 
1.4550135e+3, 2.0441121e+2, -1084064.0, -1077595.5, 43070.934, -0.13221031, 0.12962413, -1037637.5, -100867.8, 0.0, 9.999238, 9.999324 
1.4550392e+3, 2.1440934e+2, -946767.25, -951814.1, 69260.19, -0.101725936, -0.02748761, -879984.56, -41196.242, 0.0, 9.999476, 9.999398 
1.4550646e+3, 2.2440824e+2, -832392.56, -940466.9, 24618.672, -0.09989385, -0.025871089, -827048.8, -86249.266, 0.0, 9.999971, 9.998577 
1.4550887e+3, 2.3440799e+2, -630511.94, -781047.9, 47518.234, -0.13862528, 0.05370607, -616767.3, 26035.412, 0.0, 10.000648, 9.998665 
1.4551137e+3, 2.4440663e+2, -486024.66, -699741.1, 46923.996, -0.11506623, 0.07974515, -476175.8, 68639.34, 0.0, 10.001121, 9.998327 
1.4551398e+3, 2.5440362e+2, -344928.03, -568075.44, 60057.37, -0.004956045, -0.098297074, -329791.13, 117050.734, 0.000000017460069, 10.001355, 9.998449 
1.4551648e+3, 2.644018e+2, -290087.0, -578047.44, 6663.975, 0.055619888, -0.07528191, -289932.84, 58926.6, 0.000002726617, 10.0014515, 9.997655 
1.455189e+3, 2.7440128e+2, -178693.52, -458190.3, 14548.665, 0.058360822, 0.06358759, -177938.25, 72929.36, 0.000025176965, 10.001492, 9.997775 
1.455214e+3, 2.843991e+2, -58295.137, -404110.7, 84478.43, 0.038497403, 0.10206718, -38761.484, 114128.72, 0.00012772984, 10.001866, 9.997296 
1.4552402e+3, 2.9439467e+2, 142768.36, -246792.03, 106990.586, 0.009702897, -0.12529595, 170218.47, 225150.44, 0.0004676586, 10.0025215, 9.997387 
1.4552665e+3, 3.0439243e+2, 281510.13, -97448.01, -12955.89, 0.115350105, -0.09685747, 281952.56, 281952.56, 0.0011983007, 10.002919, 9.9979 
1.4552894e+3, 3.143902e+2, 328880.53, 30056.113, 26141.865, 0.04814898, -0.17787485, 331150.25, 331150.25, 0.002292943, 10.00273, 9.998865 
1.4648058e+3, 1.2437739e+2, -2085960.5, -1798921.8, 1415.2842, -0.06492667, -0.10187356, -1798914.8, -77822.2, 0.012283002, 9.996955, 10.000875 
1.4648327e+3, 1.3437952e+2, -2080641.9, -1778766.5, -20268.543, 0.05365695, 0.027322568, -1777411.8, -154332.39, 0.00723705, 9.9965515, 10.000523 
1.464857e+3, 1.4438099e+2, -1952681.0, -1495706.1, -7866.2383, -0.15841734, 0.06501911, -1495570.9, 29495.035, 0.0030819494, 9.995969, 10.002077 
1.4648846e+3, 1.5438214e+2, -1725050.8, -1294267.6, -63371.813, 0.051397648, -0.09542241, -1285138.6, 141908.44, 0.0007585455, 9.996697, 10.002431 
1.4649108e+3, 1.6438316e+2, -1710761.0, -1531938.9, -42443.523, 0.117535934, -0.10085423, -1522376.3, -193339.9, 0.00006440502, 9.997389, 9.999795 
1.4649351e+3, 1.7438343e+2, -1482462.4, -1369687.4, -20373.947, -0.0068524145, -0.08257657, -1366119.5, -135077.92, 0.00000022299002, 9.9982815, 9.999802 
1.4649603e+3, 1.8438421e+2, -1269208.3, -1143465.6, 46578.31, -0.07866331, -0.0007580408, -1128091.6, 4945.5693, 0.0, 9.998785, 10.000433 
1.4649867e+3, 1.9438569e+2, -1108483.0, -990482.56, 32809.32, -0.09452397, 0.054896355, -981973.7, 53046.387, 0.0, 9.99911, 10.0006485 
1.4650129e+3, 2.0438604e+2, -1075344.6, -1066409.4, 22466.691, -0.10221574, 0.09625998, -1047970.4, -110954.7, 0.0, 9.999247, 9.999409 
1.4650387e+3, 2.1438478e+2, -972385.2, -952573.2, 8347.118, -0.09341701, -0.009788837, -949525.3, -110496.03, 0.0, 9.999234, 9.999517 
1.4650643e+3, 2.2438402e+2, -881492.0, -937039.44, 9793.338, -0.086407535, 0.008391384, -879815.94, -138778.7, 0.0, 9.999541, 9.998798 
1.4650898e+3, 2.3438364e+2, -644606.9, -762697.3, -5899.1333, -0.085891984, 0.052666597, -644312.94, -1272.1652, 0.0, 10.000444, 9.998888 
1.4651152e+3, 2.4438211e+2, -524422.75, -742373.6, 136.75275, -0.058595445, 0.060698856, -524422.6, 20632.37, 0.0, 10.000965, 9.998108 
1.4651407e+3, 2.54379e+2, -400413.75, -615320.94, -30371.328, -0.010012347, -0.099644884, -396204.03, 50879.742, 0.000000044837254, 10.00108, 9.998246 
1.4651662e+3, 2.643772e+2, -261249.13, -563535.94, -37525.867, 0.036207978, -0.06608929, -256660.33, 92441.63, 0.0000038968087, 10.001644, 9.997664 
1.4651911e+3, 2.7437675e+2, 17129.965, -362130.0, -48885.195, 0.07879392, 0.07937811, 23329.736, 274438.66, 0.000030518888, 10.002811, 9.9978075 
1.4652167e+3, 2.8437462e+2, 117243.55, -301318.25, 42806.41, 0.09053914, 0.11950845, 121576.51, 274707.0, 0.00014669313, 10.002996, 9.997461 
1.4652431e+3, 2.9437053e+2, 73061.445, -256022.13, 31295.055, 0.07958262, -0.08876922, 76011.09, 131180.95, 0.00052498176, 10.001957, 9.997586 
1.4652693e+3, 3.0436808e+2, 157078.75, -147827.08, -25973.041, 0.16926852, -0.09484962, 159275.4, 159275.4, 0.0013417992, 10.002036, 9.99796 
1.4652927e+3, 3.1436658e+2, 376043.88, 25128.871, -81762.27, 0.09790868, -0.10065855, 394159.1, 394159.1, 0.0025704885, 10.00317, 9.99861 
1.4748006e+3, 1.2434993e+2, -1989355.6, -1603977.4, -130980.69, -0.36829636, -0.01233842, -1563675.0, 157691.36, 0.012969953, 9.996994, 10.002186 
1.4748292e+3, 1.3435121e+2, -1997617.1, -1592532.4, -47773.348, -0.005974842, -0.102608435, -1586974.5, 36379.758, 0.0076708426, 9.996502, 10.001815 
1.4748555e+3, 1.4435236e+2, -1968368.8, -1548212.3, -16067.6455, 0.039181612, -0.14561675, -1547598.6, -22256.16, 0.0032881629, 9.9960375, 10.001691 
1.4748804e+3, 1.5435527e+2, -1767530.9, -1371856.1, -21665.756, -0.08401634, -0.081071645, -1370673.3, 56639.17, 0.00081847684, 9.996649, 10.001925 
1.474906e+3, 1.643575e+2, -1646477.0, -1407516.9, -28875.236, -0.13054053, 0.020949706, -1404077.1, -74785.27, 0.000071419374, 9.997418, 10.000635 
1.4749326e+3, 1.743586e+2, -1429573.1, -1243446.8, 26989.396, -0.1087905, 0.030744715, -1239612.1, -8326.459, 0.0000002932695, 9.998215, 10.000696 
1.4749593e+3, 1.843591e+2, -1265655.8, -1137784.8, 39976.348, -0.10439456, 0.034467585, -1126315.6, 6966.1787, 0.0, 9.998777, 10.000482 
1.474986e+3, 1.9435857e+2, -1122909.6, -998908.2, 59131.348, -0.1107444, -0.11132323, -975231.56, 60051.414, 0.0, 9.999007, 10.000647 
1.4750122e+3, 2.0435876e+2, -1093395.4, -1070145.3, 2482.8103, -0.12798509, -0.090369046, -1069883.0, -132602.77, 0.0, 9.999099, 9.999451 
1.4750376e+3, 2.1435973e+2, -1006405.75, -968403.75, 20407.973, -0.14621831, 0.022494562, -959520.6, -120247.04, 0.0, 9.9990015, 9.999518 
1.4750639e+3, 2.2435956e+2, -905800.0, -942191.8, 22819.943, -0.11312822, 0.09886329, -894809.6, -153533.5, 0.0, 9.999329, 9.998876 
1.4750911e+3, 2.3435763e+2, -666661.1, -763650.56, 44383.527, -0.018439082, -0.02341711, -649416.7, -6123.075, 0.0, 10.00024, 9.998987 
1.4751168e+3, 2.4435587e+2, -577494.06, -804013.6, -12304.387, -0.013469348, -0.02847672, -576827.7, -31516.623, 0.0, 10.000752, 9.997787 
1.475141e+3, 2.5435424e+2, -460437.84, -686695.7, -11450.319, -0.110446006, -0.010176846, -459859.84, -12530.333, 0.000000082863835, 10.000848, 9.9978695 
1.4751665e+3, 2.643526e+2, -284808.25, -558997.9, -8612.839, -0.12236408, 0.05606556, -284537.97, 64808.953, 0.0000048986644, 10.0014105, 9.997806 
1.4751932e+3, 2.7435058e+2, -5145.7813, -349870.28, 20252.197, -0.03061044, 0.02211415, -3960.0645, 247406.4, 0.00003489947, 10.002562, 9.998007 
1.4752194e+3, 2.8434885e+2, 94388.51, -294923.56, -8484.068, 0.018915962, 0.07909441, 94573.305, 247957.9, 0.00016199093, 10.002757, 9.9976225 
1.4752449e+3, 2.9434747e+2, 51587.043, -245826.8, 12926.985, 0.034868047, 0.12071319, 52147.85, 107548.63, 0.0005771533, 10.001717, 9.997773 
1.475271e+3, 3.0434522e+2, 106219.375, -197979.13, -360.14526, 0.110409126, 0.13531142, 106219.8, 106219.8, 0.0014773308, 10.001793, 9.997732 
1.4752948e+3, 3.1434307e+2, 304527.53, -20935.674, 8179.429, -0.06686375, 0.08399409, 304732.97, 304732.97, 0.002829432, 10.002728, 9.998504 
1.484798e+3, 1.24322616e+2, -2251568.3, -1682032.9, -24135.008, -0.1975288, -0.028813323, -1681011.9, 40625.188, 0.013700781, 9.9949665, 10.002635 
1.4848259e+3, 1.3432454e+2, -1983654.6, -1530349.8, -42024.996, 0.05741683, -0.099635616, -1526486.5, 97129.25, 0.00813248, 9.996313, 10.002358 
1.4848527e+3, 1.4432587e+2, -1890812.8, -1536814.0, 26130.785, 0.13726234, -0.14255191, -1534895.5, -9293.6045, 0.0035089266, 9.996722, 10.00142 
1.4848772e+3, 1.5432836e+2, -1666730.8, -1357344.0, -2958.211, -0.084528625, -0.08879044, -1357315.8, 70262.945, 0.0008836724, 9.99751, 10.0015955 
1.4849032e+3, 1.6433066e+2, -1586514.1, -1326244.0, 1417.9576, -0.1615684, 0.021457633, -1326236.3, 3321.4106, 0.00007901186, 9.997648, 10.00107 
1.4849304e+3, 1.7433259e+2, -1531041.9, -1234699.3, -14185.652, -0.10362931, 0.06587036, -1234021.8, -2480.402, 0.00000037325287, 9.997296, 10.001197 
1.4849575e+3, 1.8433324e+2, -1476739.6, -1243336.3, 28063.098, -0.066324964, 0.059839614, -1240009.5, -106474.56, 0.0, 9.997335, 10.000456 
1.4849849e+3, 1.9433211e+2, -1247823.9, -1062616.0, 10383.508, -0.06905911, -0.1414881, -1062035.6, -26493.264, 0.0, 9.9981575, 10.00062 
1.4850113e+3, 2.0433213e+2, -1092225.3, -1056375.8, -15378.213, -0.09355238, -0.13904323, -1050683.0, -113142.05, 0.0, 9.999074, 9.999548 
1.485037e+3, 2.1433349e+2, -826424.8, -864770.9, -27576.092, -0.13784504, 0.0048067286, -812011.44, 27517.635, 0.0, 10.000175, 9.999657 
1.4850637e+3, 2.2433336e+2, -744274.56, -865976.06, -2915.9875, -0.09848628, 0.07668983, -744204.75, -2673.7908, 0.0, 10.0004425, 9.998857 
1.4850913e+3, 2.3433119e+2, -732978.6, -795641.3, -23679.867, 0.024228232, -0.06567795, -725036.7, -81485.11, 0.0, 9.999788, 9.9989805 
1.4851177e+3, 2.4432965e+2, -675892.0, -812100.5, -13680.549, 0.042231265, -0.06552609, -674531.5, -128964.38, 0.0, 9.9999075, 9.998144 
1.4851424e+3, 2.5432882e+2, -404443.22, -614666.3, 7740.303, -0.063727684, -0.0011818261, -404158.63, 43418.336, 0.00000011463164, 10.001043, 9.998272 
1.485168e+3, 2.6432732e+2, -244066.17, -518322.6, 63313.297, -0.09337124, 0.04806458, -230155.6, 119436.75, 0.000005857849, 10.00161, 9.997981 
1.485195e+3, 2.7432466e+2, -155539.77, -407913.0, 43432.277, -0.04305441, -0.06379546, -148274.42, 103343.27, 0.000039275426, 10.001472, 9.998129 
1.4852212e+3, 2.8432298e+2, -73803.414, -378792.47, 17026.064, 0.00045275217, -0.006847838, -72855.875, 80779.8, 0.00017769585, 10.001614, 9.997595 
1.4852469e+3, 2.9432246e+2, 103152.57, -230292.53, -13791.136, 0.057574052, 0.1319147, 103721.99, 159367.0, 0.000630339, 10.002093, 9.997714 
1.4852735e+3, 3.0432028e+2, 237167.92, -141887.08, 46722.098, 0.15117252, 0.16136178, 242841.94, 242841.94, 0.001603161, 10.002701, 9.997692 
1.4852987e+3, 3.143187e+2, 398501.66, 62829.063, -19312.238, 0.049113173, 0.1675801, 399609.1, 399609.1, 0.0030493059, 10.003208, 9.998843 
1.4947952e+3, 1.24296054e+2, -2244709.0, -1679081.8, -22137.607, -0.067590825, -0.09330798, -1678216.8, 43682.125, 0.014485426, 9.995019, 10.002623 
1.494823e+3, 1.3430014e+2, -2011604.1, -1571323.9, 9551.0205, 0.098311245, 0.07791015, -1571116.9, 52741.016, 0.008627366, 9.996252, 10.002099 
1.4948483e+3, 1.4430197e+2, -1883462.3, -1557704.8, 24229.7, -0.037155252, 0.10345425, -1555912.4, -30072.748, 0.0037456865, 9.996854, 10.001224 
1.494875e+3, 1.543016e+2, -1689238.3, -1404902.8, 40917.02, -0.09198978, -0.098082684, -1399131.8, 28711.625, 0.0009542572, 9.997502, 10.00128 
1.4949015e+3, 1.6430278e+2, -1574659.0, -1317497.1, -29229.23, -0.13181165, -0.08758279, -1314216.8, 15615.933, 0.00008722728, 9.997708, 10.0011 
1.4949277e+3, 1.7430536e+2, -1536988.5, -1234858.4, -15205.928, -0.11527982, 0.01831966, -1234095.0, -2286.1226, 0.0000004647829, 9.997246, 10.001217 
1.4949548e+3, 1.8430671e+2, -1482100.3, -1255361.3, 35994.29, -0.11086308, 0.085353225, -1249784.4, -115988.625, 0.0, 9.997332, 10.0003805 
1.4949828e+3, 1.9430645e+2, -1275939.8, -1091149.3, 54372.34, -0.11379391, -0.022592368, -1076338.0, -40540.867, 0.0, 9.998027, 10.00049 
1.4950103e+3, 2.043063e+2, -1102532.9, -1043887.44, 6962.322, -0.14016011, -0.035719052, -1043072.2, -105275.79, 0.0, 9.998922, 9.999708 
1.495037e+3, 2.1430613e+2, -846218.75, -854701.94, 27951.41, -0.180921, -0.06323297, -822188.94, 17606.418, 0.0, 9.999959, 9.999829 
1.4950638e+3, 2.2430554e+2, -785083.2, -901683.06, -40934.855, -0.16772757, -0.042122692, -772147.3, -30346.615, 0.0, 10.000222, 9.998723 
1.4950903e+3, 2.3430426e+2, -776158.0, -834844.4, -32422.195, -0.08712996, -0.08149689, -761772.25, -117956.94, 0.0, 9.999567, 9.998821 
1.4951171e+3, 2.4430342e+2, -642510.06, -688528.44, 10120.83, -0.033613738, -0.04733202, -640382.56, -94559.13, 0.0, 9.999672, 9.999105 
1.4951442e+3, 2.543028e+2, -364150.47, -481942.1, 68640.44, -0.0054917145, -0.06983052, -332601.66, 115224.48, 0.00000015644366, 10.000825, 9.999292 
1.4951707e+3, 2.6430136e+2, -278944.66, -531026.4, 44040.76, -0.02156279, -0.0715002, -271471.9, 78366.625, 0.000006865855, 10.001358, 9.998013 
1.4951962e+3, 2.742987e+2, -194344.7, -432457.4, 54732.33, -0.10125034, -0.17631428, -182366.53, 69498.24, 0.00004412461, 10.001239, 9.998072 
1.4952219e+3, 2.8429678e+2, -118815.56, -422399.56, 14994.513, -0.115207255, -0.12911515, -118076.76, 35808.79, 0.00019465707, 10.001395, 9.997403 
1.4952485e+3, 2.9429558e+2, 57138.27, -272224.5, 31528.24, -0.017131206, -0.045448057, 60129.15, 116030.96, 0.0006807663, 10.001855, 9.997543 
1.4952762e+3, 3.0429345e+2, 185115.34, -180747.08, 51555.313, 0.11877448, 0.0041985307, 192241.44, 192241.44, 0.0017048066, 10.002415, 9.997559 
1.4953034e+3, 3.1429312e+2, 363677.0, 82804.36, 40962.723, 0.12712279, 0.14498675, 369529.1, 369529.1, 0.0032039285, 10.002811, 9.999174 
1.5047915e+3, 1.24269426e+2, -2202617.8, -1681173.1, 10391.872, 0.07076741, -0.07866598, -1680966.1, 41195.37, 0.015336173, 9.9954, 10.002431 
1.504819e+3, 1.3427377e+2, -1984039.4, -1561705.8, -8779.196, 0.07940958, 0.11491899, -1561523.4, 62594.54, 0.0091627855, 9.9964285, 10.002095 
1.5048443e+3, 1.442757e+2, -1901210.9, -1558465.5, 25993.623, -0.096496455, 0.14780593, -1556505.4, -30406.613, 0.0040015904, 9.996722, 10.001275 
1.5048724e+3, 1.542754e+2, -1845224.1, -1466537.6, 27111.559, -0.029306395, -0.054744672, -1464606.5, -36504.48, 0.001031135, 9.99639, 10.001388 
1.5048997e+3, 1.642764e+2, -1699043.4, -1384791.8, 27943.682, -0.0312576, -0.06398864, -1382326.4, -52234.055, 0.000096309515, 9.996858, 10.001064 
1.5049261e+3, 1.7427853e+2, -1304662.6, -1122463.9, 6498.1016, -0.06695925, -0.002049945, -1122232.4, 109838.76, 0.000000575819, 9.998816, 10.00124 
1.5049535e+3, 1.8427986e+2, -1167743.6, -1134459.3, 62766.22, -0.06890271, 0.072889216, -1086166.4, 47891.918, 0.0, 9.999638, 10.000083 
1.5049818e+3, 1.9428004e+2, -1120349.9, -1046705.3, 31959.951, -0.062199734, 0.042852066, -1034769.9, 1287.2316, 0.0, 9.999239, 10.0001955 
1.5050097e+3, 2.0427984e+2, -1072826.9, -1002428.25, 30089.719, -0.08726544, 0.025439715, -991320.06, -53262.914, 0.0, 9.999015, 9.9999485 
1.5050368e+3, 2.1427894e+2, -938878.7, -869687.6, 23912.695, -0.15343209, -0.10274377, -862227.6, -22166.863, 0.0, 9.999192, 10.000099 
1.5050638e+3, 2.2427817e+2, -863377.2, -945469.6, -21529.46, -0.15368806, -0.10733603, -858073.5, -116006.85, 0.0, 9.999735, 9.998645 
1.5050903e+3, 2.342775e+2, -602518.0, -762023.9, -48516.004, -0.078701824, -0.074508555, -588920.3, 55156.336, 0.0, 10.00082, 9.998708 
1.5051177e+3, 2.4427679e+2, -402047.7, -564604.75, 2887.6064, 0.00025163908, -0.023224808, -401996.4, 144087.67, 0.0, 10.001293, 9.99917 
1.5051457e+3, 2.5427583e+2, -331698.38, -454868.44, -45636.266, 0.0724722, -0.08868398, -316632.34, 131457.58, 0.00000020302433, 10.001005, 9.999383 
1.5051726e+3, 2.642745e+2, -312972.75, -541595.2, -76691.93, 0.050605256, -0.082507655, -289629.7, 60471.594, 0.0000077496, 10.001093, 9.998073 
1.5051974e+3, 2.7427265e+2, -117702.41, -390189.28, -87773.8, -0.09441374, -0.11282505, -91876.375, 160244.58, 0.000048509926, 10.001721, 9.998142 
1.5052235e+3, 2.842707e+2, -6925.179, -349993.03, -73461.79, -0.12319714, -0.07860722, 8143.473, 162284.95, 0.00020995413, 10.002097, 9.997557 
1.5052508e+3, 2.942685e+2, 127253.13, -211458.05, -86901.97, 0.017864555, -0.11229208, 148247.92, 204412.78, 0.00072207046, 10.002264, 9.997735 
1.5052788e+3, 3.0426607e+2, 204209.9, -230170.38, -14409.194, 0.13583893, -0.08042072, 204687.36, 204687.36, 0.0017705777, 10.002783, 9.99706 
1.5053064e+3, 3.1426513e+2, 415329.22, 74504.195, -108153.61, 0.14199843, 0.07088057, 446752.38, 446752.38, 0.0032754042, 10.003295, 9.998913 
1.5147887e+3, 1.2424349e+2, -2199234.0, -1711938.0, 18943.914, 0.16896924, 0.059395928, -1711202.6, 11215.028, 0.016257107, 9.995563, 10.002145 
1.5148135e+3, 1.3424563e+2, -1992740.0, -1552633.9, 57735.715, -0.14252423, 0.011171184, -1545185.9, 79208.01, 0.009740974, 9.996335, 10.002197 
1.5148403e+3, 1.4424725e+2, -1864307.6, -1514922.1, -7286.0547, -0.22491509, 0.0005161357, -1514770.3, 11607.1, 0.0042781597, 9.99684, 10.001525 
1.5148692e+3, 1.5424976e+2, -1821903.1, -1422387.4, 26888.076, -0.03643624, 0.045748796, -1420585.9, 7768.501, 0.0011151112, 9.996396, 10.001693 
1.514897e+3, 1.6425166e+2, -1687543.0, -1376331.3, 73081.22, -0.01566222, 0.10676181, -1360024.3, -29688.625, 0.000106548556, 9.996917, 10.001093 
1.5149252e+3, 1.7425224e+2, -1310876.8, -1128764.6, 94887.336, -0.08174673, 0.011769783, -1088311.0, 144016.02, 0.0000007145684, 9.998779, 10.001216 
1.5149534e+3, 1.8425277e+2, -1198990.6, -1199745.4, 37065.49, -0.08501624, 0.027476102, -1162300.5, -27979.05, 0.0, 9.9996395, 9.999635 
1.5149815e+3, 1.94253e+2, -1173824.4, -1130788.3, 29924.787, -0.042560875, 0.05343617, -1115448.3, -79126.21, 0.0, 9.9991255, 9.999674 
1.5150091e+3, 2.0425282e+2, -1075664.3, -973797.0, 15958.216, -0.07548979, 0.055866607, -971355.56, -33033.137, 0.0, 9.998862, 10.000222 
1.515036e+3, 2.1425198e+2, -948342.4, -834785.75, 45525.43, -0.18587588, -0.10065772, -818788.06, 21535.889, 0.0, 9.998954, 10.000456 
1.5150632e+3, 2.2425136e+2, -906743.2, -975357.9, 600.01074, -0.20198067, -0.10718319, -906737.94, -164410.3, 0.0, 9.999474, 9.998568 
1.5150914e+3, 2.3425087e+2, -645386.6, -798911.5, 9133.139, -0.08233499, -0.042074755, -644845.2, -509.24585, 0.0, 10.000597, 9.998565 
1.5151192e+3, 2.442498e+2, -492065.25, -703734.5, -21442.11, -0.00408805, 0.019466616, -489915.0, 56433.664, 0.0, 10.001077, 9.998324 
1.5151466e+3, 2.542478e+2, -425312.34, -599512.56, -39570.234, 0.032142755, -0.059530824, -416745.13, 31623.506, 0.00000026346208, 10.000781, 9.998503 
1.5151732e+3, 2.6424667e+2, -341266.0, -537623.3, -69089.23, -0.014565338, 0.0015181929, -319393.13, 30988.32, 0.000008336701, 10.000831, 9.998226 
1.5151988e+3, 2.7424648e+2, -140938.34, -374470.84, -40087.29, -0.16714336, 0.115509026, -134248.75, 118136.945, 0.00005112129, 10.00146, 9.998374 
1.5152252e+3, 2.842448e+2, -23555.035, -327588.88, -82314.336, -0.18815716, 0.15106392, -2699.7666, 151702.08, 0.00022272031, 10.001845, 9.99783 
1.5152532e+3, 2.9424098e+2, 110543.6, -193080.25, -57051.82, -0.00930249, -0.07708427, 120909.88, 177345.11, 0.0007570027, 10.002031, 9.997972 
1.5152809e+3, 3.0423775e+2, 108190.73, -359360.16, -8142.401, 0.04792015, -0.09704247, 108332.484, 108332.484, 0.0018115009, 10.002504, 9.996296 
1.5153071e+3, 3.1423494e+2, 305420.5, -37268.297, -19946.107, -0.16703926, -0.062126253, 306577.56, 306577.56, 0.0032857955, 10.002829, 9.998351 
1.524784e+3, 1.2421641e+2, -2116623.5, -1664700.5, 66197.6, 0.12861072, 0.07042626, -1655203.5, 67479.48, 0.017244658, 9.996128, 10.002187 
1.5248097e+3, 1.3421826e+2, -1974455.5, -1565399.5, 41412.355, -0.13281421, 0.0092552, -1561249.0, 63413.14, 0.010359608, 9.996581, 10.001972 
1.5248376e+3, 1.4421892e+2, -1896020.8, -1538711.5, -24171.098, -0.15088487, -0.07617888, -1537083.9, -10428.798, 0.0045741852, 9.996677, 10.00143 
1.5248659e+3, 1.5422224e+2, -1686947.0, -1352575.4, -57904.56, -0.02522552, 0.047714524, -1342831.8, 85792.16, 0.0012060112, 9.997296, 10.001736 
1.5248944e+3, 1.6422422e+2, -1594449.0, -1313639.4, 50380.9, 0.0013459518, 0.11221433, -1304874.0, 25729.242, 0.000118081814, 9.997518, 10.001224 
1.5249239e+3, 1.7422433e+2, -1445260.0, -1169910.1, 50002.01, -0.03195046, -0.04326321, -1161111.3, 71486.586, 0.0000008766353, 9.99779, 10.001399 
1.5249528e+3, 1.8422471e+2, -1409366.4, -1293334.4, 12219.86, -0.029032275, -0.053963102, -1292061.4, -157468.39, 0.0, 9.99815, 9.999725 
1.5249807e+3, 1.942253e+2, -1197134.1, -1135627.3, 13901.036, -0.020896621, 0.0005834011, -1132631.4, -96040.73, 0.0, 9.998921, 9.999757 
1.5250082e+3, 2.0422532e+2, -1031081.06, -986728.94, 32194.922, -0.045991544, 0.032679763, -969811.6, -31221.445, 0.0, 9.999295, 9.9999275 
1.5250355e+3, 2.1422449e+2, -936332.7, -865130.4, -19703.096, -0.114693955, -0.09400893, -860041.75, -19448.594, 0.0, 9.999172, 10.000145 
1.5250635e+3, 2.2422372e+2, -876736.94, -949954.6, -8957.904, -0.120651074, -0.10234143, -875656.94, -133058.66, 0.0, 9.999618, 9.998681 
1.5250923e+3, 2.3422295e+2, -594029.3, -755138.75, -6827.819, -0.050424896, -0.08160769, -593740.44, 50866.88, 0.0, 10.000856, 9.998742 
1.5251203e+3, 2.4422179e+2, -487969.72, -733467.06, -33166.445, -0.0055359816, -0.024947397, -483567.88, 63052.98, 0.0, 10.001275, 9.998007 
1.525147e+3, 2.5422e+2, -462447.5, -653883.44, -51904.28, 0.008192644, -0.04402803, -449280.28, -638.9612, 0.0000003530132, 10.000707, 9.99815 
1.5251736e+3, 2.6421884e+2, -358850.9, -531596.5, 5077.644, -0.022403749, 0.02803012, -358701.78, -8046.805, 0.000008619123, 10.000626, 9.99837 
1.5252003e+3, 2.7421838e+2, -169853.88, -358756.38, -4860.0483, -0.12678908, 0.090026945, -169728.92, 82931.76, 0.000051931653, 10.001142, 9.998623 
1.5252276e+3, 2.8421667e+2, -15453.174, -330188.0, -19417.729, -0.12314498, 0.11153621, -14259.712, 140416.47, 0.00023518385, 10.001922, 9.997789 
1.525256e+3, 2.9421327e+2, 249284.7, -142835.33, -55767.727, 0.04235097, -0.05954767, 257061.8, 313767.7, 0.000791527, 10.003025, 9.9978695 
1.525284e+3, 3.0421054e+2, 256603.27, -272018.22, 24344.95, 0.08941766, -0.03284293, 257722.08, 257722.08, 0.001847163, 10.003439, 9.996456 
1.5253101e+3, 3.1420648e+2, 277468.56, -67192.11, 7254.0986, -0.11524238, -0.13645948, 277621.16, 277621.16, 0.0032816848, 10.00268, 9.998226 
1.5347764e+3, 1.241882e+2, -2076936.4, -1618389.6, -35515.074, -0.33501494, -0.06205648, -1615655.3, 107301.48, 0.018294634, 9.996262, 10.002449 
1.5348077e+3, 1.3419203e+2, -2019219.3, -1660730.5, 66509.81, -0.026026506, 0.13830362, -1648788.9, -23870.025, 0.011016667, 9.996592, 10.00131 
1.534836e+3, 1.4419109e+2, -1901872.6, -1587315.4, -29789.584, -0.043059904, -0.04937186, -1584519.0, -57590.984, 0.0048880493, 9.996825, 10.001032 
1.5348624e+3, 1.5419297e+2, -1716593.8, -1397445.1, -23493.535, -0.1307289, -0.0360127, -1395724.9, 33184.285, 0.0013030368, 9.997234, 10.001459 
1.534891e+3, 1.6419427e+2, -1571328.6, -1284183.8, 38021.48, -0.12530386, -0.034522716, -1279234.6, 51659.555, 0.00013086536, 9.997584, 10.001398 
1.5349218e+3, 1.7419481e+2, -1437562.6, -1144362.6, 71513.86, -0.04462361, -0.16860326, -1127849.8, 105034.09, 0.0000010420176, 9.997746, 10.0015955 
1.534951e+3, 1.8419571e+2, -1367490.1, -1208479.4, 18887.893, -0.046136945, -0.16170678, -1206266.5, -71393.625, 0.0, 9.998154, 10.000308 
1.5349787e+3, 1.9419692e+2, -1162316.1, -1043756.7, 55151.3, -0.12760901, -0.11126017, -1022068.8, 14794.321, 0.0, 9.998831, 10.000432 
1.5350068e+3, 2.041973e+2, -1115134.6, -1116679.0, 13413.276, -0.14272211, -0.044266626, -1102471.3, -163610.94, 0.0, 9.999109, 9.999122 
1.5350352e+3, 2.141964e+2, -1042592.8, -1025401.75, -10039.265, -0.07025627, -0.08307265, -1020781.0, -179912.3, 0.0, 9.99892, 9.999162 
1.535064e+3, 2.2419529e+2, -892078.06, -920873.2, 18102.854, -0.05655099, -0.087293044, -883345.5, -140467.4, 0.0, 9.999352, 9.999009 
1.5350927e+3, 2.3419376e+2, -595195.8, -703294.3, 58540.55, -0.106623694, -0.18979402, -569568.75, 75321.664, 0.0, 10.000617, 9.999218 
1.5351203e+3, 2.441927e+2, -523612.7, -736820.06, -64524.05, -0.14354537, -0.15411864, -505606.2, 41294.83, 0.0, 10.000982, 9.998118 
1.5351465e+3, 2.5419226e+2, -494588.25, -666469.1, -55683.906, -0.13132022, -0.048529778, -478125.28, -29215.686, 0.0000004707298, 10.000487, 9.998164 
1.5351737e+3, 2.6419103e+2, -375616.88, -520497.63, 2365.6255, -0.1255915, 0.0085473275, -375578.25, -24655.322, 0.0000086272985, 10.000426, 9.998543 
1.5352017e+3, 2.7418846e+2, -183245.94, -345698.53, 28015.557, -0.1312767, -0.15933703, -178550.28, 74395.164, 0.000052741245, 10.000965, 9.998798 
1.5352301e+3, 2.8418636e+2, -75340.12, -403166.03, 3118.026, -0.090919524, -0.16685957, -75310.46, 79654.48, 0.00024875673, 10.001692, 9.997404 
1.5352592e+3, 2.9418525e+2, 178375.9, -226596.2, 13035.293, 0.01775593, -0.0697648, 178795.05, 235773.19, 0.00082812813, 10.002747, 9.997429 
1.5352876e+3, 3.0418417e+2, 269719.03, -173117.84, -14123.344, 0.089541696, 0.10893308, 270169.0, 270169.0, 0.0018929114, 10.003141, 9.9972725 
1.5353143e+3, 3.141795e+2, 225233.14, -60192.51, 34285.207, -0.02900894, -0.15631577, 229293.7, 229293.7, 0.0033080117, 10.002202, 9.998495 
1.5447725e+3, 1.24160014e+2, -2109462.8, -1664356.0, -56404.598, -0.30582488, -0.090101235, -1657319.5, 65912.85, 0.019406972, 9.996178, 10.002158 
1.5448055e+3, 1.3416417e+2, -1994540.9, -1692340.5, -13418.014, 0.08277765, 0.17599398, -1691745.9, -66553.11, 0.0117135905, 9.996915, 10.00094 
1.5448329e+3, 1.4416292e+2, -1943048.9, -1618777.9, -25828.44, 0.0031869707, -0.016376587, -1616733.5, -89528.32, 0.0052204016, 9.996606, 10.000923 
1.54486e+3, 1.5416409e+2, -1652679.1, -1372074.8, -23907.287, -0.108173884, -0.068060465, -1370052.4, 59139.457, 0.0014059248, 9.997678, 10.00143 
1.544889e+3, 1.6416517e+2, -1507422.8, -1285822.0, 44463.555, -0.09147713, -0.074481994, -1277233.4, 53945.617, 0.00014487762, 9.998167, 10.0011 
1.5449198e+3, 1.7416622e+2, -1418517.5, -1173545.6, 459.98715, -0.0035313554, -0.12866376, -1173544.8, 59620.99, 0.000001197513, 9.998029, 10.001262 
1.5449494e+3, 1.8416724e+2, -1379941.8, -1198789.8, -32690.502, -0.005058569, -0.09692916, -1193071.0, -57916.535, 0.0, 9.998026, 10.000425 
1.5449776e+3, 1.9416821e+2, -1187362.9, -1033497.8, -62970.953, -0.109094225, -0.084698915, -1011012.25, 26133.686, 0.0, 9.9985895, 10.000611 
1.5450062e+3, 2.041685e+2, -1098095.9, -1096103.5, -78857.266, -0.10449027, -0.039336324, -1018236.1, -79092.7, 0.0, 9.999182, 9.999229 
1.5450357e+3, 2.1416779e+2, -891226.9, -940475.9, -58508.086, 0.030083237, -0.0674233, -852372.56, -11222.637, 0.0, 9.999913, 9.99927 
1.5450647e+3, 2.2416677e+2, -756110.7, -843645.1, 47593.758, 0.05163921, -0.07178735, -735219.3, 7938.8, 0.0, 10.00026, 9.999087 
1.5450932e+3, 2.3416524e+2, -648719.1, -713586.56, 19241.764, -0.08983621, -0.18085562, -643440.9, 1728.9337, 0.0, 10.000221, 9.999318 
1.5451208e+3, 2.4416412e+2, -570503.44, -743845.8, -103295.31, -0.16329603, -0.16392124, -522334.63, 24845.607, 0.000000000009610117, 10.000559, 9.998297 
1.5451473e+3, 2.541635e+2, -350397.44, -577439.5, -111293.43, -0.12893222, -0.09182907, -304942.8, 144246.48, 0.0000005675007, 10.001361, 9.99838 
1.5451749e+3, 2.6416224e+2, -177168.84, -435134.88, -15549.405, -0.10036722, -0.04583098, -176234.95, 174967.44, 0.000008574752, 10.001856, 9.998441 
1.5452033e+3, 2.7415964e+2, -40446.38, -302664.78, -48972.305, -0.10528721, -0.19157849, -31598.768, 221626.0, 0.00005426492, 10.002045, 9.998588 
1.5452322e+3, 2.8415757e+2, -17373.209, -359559.88, -38968.543, -0.055060405, -0.19406821, -12991.542, 142253.19, 0.00026286932, 10.002051, 9.9975 
1.5452616e+3, 2.941565e+2, 50597.375, -273620.75, -37243.223, 0.052653104, -0.10276885, 54820.527, 112079.19, 0.0008685198, 10.001832, 9.99752 
1.545291e+3, 3.0415568e+2, 199275.58, -133968.92, -13620.687, 0.14549881, 0.06360265, 199831.38, 199831.38, 0.0019599411, 10.002329, 9.997944 
1.5453182e+3, 3.1415215e+2, 421407.56, 36341.68, -57805.316, 0.09331663, -0.14352249, 429897.97, 429897.97, 0.003393232, 10.003539, 9.998518 
1.554771e+3, 1.24132104e+2, -2137843.5, -1752193.9, 22909.52, -0.15967152, 0.032138553, -1750837.6, -27330.096, 0.020587768, 9.9963255, 10.0014715 
1.554802e+3, 1.3413456e+2, -2003119.3, -1690521.9, -23766.41, 0.02651541, 0.13680725, -1688725.3, -63240.188, 0.012455585, 9.996845, 10.000991 
1.5548281e+3, 1.4413428e+2, -1908804.0, -1563859.4, -23916.625, -0.18664883, 0.019264411, -1562209.0, -34721.32, 0.0055746003, 9.996664, 10.001276 
1.5548581e+3, 1.5413582e+2, -1636429.3, -1333299.3, 33740.844, -0.10112589, -0.029533913, -1329589.0, 99880.95, 0.001515748, 9.997665, 10.001699 
1.5548882e+3, 1.641373e+2, -1543261.3, -1382894.4, 25319.15, -0.043619335, 0.024455523, -1378991.9, -47537.383, 0.00016035176, 9.998257, 10.000396 
1.5549178e+3, 1.7413868e+2, -1481744.0, -1293518.1, 5155.401, -0.028880382, 0.089938864, -1293377.0, -59934.656, 0.0000013687348, 9.99798, 10.000465 
1.5549473e+3, 1.8413943e+2, -1412104.9, -1254058.9, -32556.367, -0.046225406, 0.15188909, -1247615.1, -112179.06, 0.0, 9.99798, 10.000065 
1.5549764e+3, 1.9413915e+2, -1236856.4, -1099126.1, -26156.424, -0.09914495, 0.0759942, -1094326.0, -56887.07, 0.0, 9.998439, 10.00023 
1.5550059e+3, 2.0413892e+2, -1047781.3, -965793.4, -69127.63, -0.07749513, 0.0452967, -926418.56, 13020.855, 0.0, 9.999053, 10.000195 
1.555036e+3, 2.1413867e+2, -839975.44, -792420.8, -15673.048, 0.062655285, -0.04332781, -787720.0, 53716.54, 0.0, 9.999717, 10.000391 
1.5550652e+3, 2.2413822e+2, -809260.0, -898511.56, 31301.607, 0.055397335, -0.043142885, -799376.6, -55938.793, 0.0, 10.000017, 9.998829 
1.5550932e+3, 2.341372e+2, -710314.8, -798144.44, 32630.164, -0.13757807, -0.060060304, -699519.1, -54071.883, 0.0, 10.000021, 9.99884 
1.555121e+3, 2.4413583e+2, -584353.44, -711778.6, -88120.14, -0.2233181, -0.0583359, -539325.75, 8134.616, 0.0, 10.0002985, 9.99864 
1.555149e+3, 2.5413385e+2, -352071.38, -527706.94, -64470.348, -0.12654349, -0.1678288, -330947.03, 118532.305, 0.0000005355393, 10.001133, 9.99883 
1.555177e+3, 2.6413247e+2, -246033.14, -522431.6, -18768.064, -0.098633714, -0.1350998, -244764.56, 106728.23, 0.000008556659, 10.0016165, 9.997953 
1.555205e+3, 2.741318e+2, -118299.19, -405546.34, -17046.559, -0.16930802, -0.038942765, -117291.11, 136208.67, 0.000056489618, 10.001794, 9.997998 
1.5552334e+3, 2.8413007e+2, -33266.92, -327550.9, -58345.746, -0.1548379, 0.011316546, -22121.225, 133395.53, 0.00027893353, 10.001779, 9.9978485 
1.5552633e+3, 2.941269e+2, 46054.105, -216972.16, -23464.871, -0.012025124, -0.15620913, 48131.035, 105678.85, 0.0009153457, 10.001558, 9.998035 
1.5552929e+3, 3.041251e+2, 182028.81, -99505.305, 10961.557, 0.09474429, -0.13835187, 182454.95, 182454.95, 0.0020537304, 10.002044, 9.99831 
1.5553212e+3, 3.1412405e+2, 322999.78, -33778.61, 26160.742, -0.01573755, -0.13590209, 324907.8, 324907.8, 0.0035465625, 10.002995, 9.998284 
1.5647684e+3, 1.24103084e+2, -2180038.8, -1819461.8, 110984.27, -0.035135765, 0.033270042, -1788039.5, -64249.707, 0.021849003, 9.996233, 10.001078 
1.564799e+3, 1.341051e+2, -1952889.4, -1638981.5, -16173.449, 0.036340244, 0.08493434, -1638150.4, -12378.786, 0.013250772, 9.9970665, 10.001254 
1.5648258e+3, 1.4410497e+2, -1787782.8, -1515698.9, 24769.385, -0.104998596, -0.034389295, -1513462.4, 14310.927, 0.0059556314, 9.997542, 10.001181 
1.5648563e+3, 1.5410717e+2, -1695515.5, -1389470.9, 5457.075, -0.011660811, 0.0048993016, -1389373.6, 40377.246, 0.0016345053, 9.997381, 10.001445 
1.5648864e+3, 1.6410872e+2, -1671501.4, -1454572.9, 28050.834, 0.0015803234, 0.08328696, -1451004.4, -119268.98, 0.00017771397, 9.997416, 10.000316 
1.564916e+3, 1.7410943e+2, -1428439.4, -1273061.8, 39729.73, -0.018993258, 0.08828321, -1263492.3, -29763.15, 0.0000016137079, 9.998356, 10.000431 
1.5649459e+3, 1.8410976e+2, -1293425.6, -1223737.1, 69449.05, -0.017546661, 0.11700053, -1180881.4, -45154.793, 0.0, 9.998897, 9.999834 
1.5649758e+3, 1.9410934e+2, -1162769.6, -1094532.0, 54136.383, -0.026334561, 0.047188424, -1064659.9, -26928.996, 0.0, 9.999054, 9.999971 
1.5650058e+3, 2.0410906e+2, -1054016.3, -971323.7, 16751.348, 0.0040389835, 0.030516198, -968059.2, -28326.977, 0.0, 9.999069, 10.000124 
1.5650357e+3, 2.14109e+2, -903367.06, -819210.4, -51621.33, 0.090324715, -0.035480842, -794690.3, 47038.76, 0.0, 9.999315, 10.000373 
1.5650651e+3, 2.2410879e+2, -856137.44, -889973.5, -14996.787, 0.07869596, -0.023938127, -850447.44, -106718.78, 0.0, 9.9995365, 9.999132 
1.5650937e+3, 2.341082e+2, -729231.44, -761287.94, 18283.684, -0.06620881, -0.034568503, -720945.1, -75212.375, 0.0, 9.999683, 9.999256 
1.565122e+3, 2.4410702e+2, -609419.94, -717726.75, -24322.477, -0.13211936, -0.03881434, -604208.56, -56465.52, 0.0, 10.000088, 9.998704 
1.5651502e+3, 2.5410488e+2, -389965.44, -539630.44, -60061.12, -0.09001463, -0.16811937, -368843.6, 80919.92, 0.00000039469393, 10.000848, 9.9988785 
1.5651785e+3, 2.6410347e+2, -283242.75, -525596.75, -11273.368, -0.07844092, -0.14457168, -282719.47, 69057.164, 0.000008163994, 10.001289, 9.998092 
1.5652068e+3, 2.7410305e+2, -195428.97, -424713.2, 422.9424, -0.122034736, -0.03723649, -195428.19, 58352.64, 0.000058543963, 10.001184, 9.998159 
1.5652354e+3, 2.841014e+2, -121840.266, -389710.97, 9686.683, -0.10830488, 0.02006234, -121490.43, 34306.453, 0.00029613846, 10.001237, 9.997708 
1.5652646e+3, 2.94098e+2, 46396.004, -236954.73, -42242.11, -0.0015964656, -0.14460446, 52559.418, 110389.72, 0.00096601865, 10.001625, 9.997889 
1.5652949e+3, 3.040953e+2, 220529.84, -85738.75, 27487.008, 0.09118298, -0.20647666, 222977.19, 222977.19, 0.0021659639, 10.00231, 9.998275 
1.5653245e+3, 3.1409523e+2, 330062.88, -62931.945, -54519.965, 0.032660373, -0.09924302, 337486.2, 337486.2, 0.0037515424, 10.003121, 9.99804 
1.5747635e+3, 1.2407225e+2, -2157504.0, -1797158.0, 18601.5, -0.22352071, -0.1354482, -1796200.4, -72114.93, 0.023204513, 9.996319, 10.001196 
1.5747952e+3, 1.3407621e+2, -1907792.5, -1553100.4, 36406.73, -0.06488026, 0.06389991, -1549402.0, 76645.61, 0.014108494, 9.997093, 10.001836 
1.5748261e+3, 1.4407529e+2, -1798338.9, -1574193.8, 3825.7595, 0.117509216, -0.15595926, -1574128.4, -46069.758, 0.0063687824, 9.997697, 10.000706 
1.5748546e+3, 1.5407813e+2, -1764735.9, -1519970.8, 6806.197, 0.047155418, 0.036338232, -1519781.6, -89746.88, 0.00176415, 9.997334, 10.00057 
1.5748829e+3, 1.6407941e+2, -1620785.3, -1357825.6, 38269.85, -0.10748777, 0.10409943, -1352369.1, -20346.941, 0.00019721544, 9.997443, 10.000967 
1.5749137e+3, 1.740785e+2, -1376542.0, -1160578.5, 91481.33, -0.10961879, -0.13765523, -1127036.8, 106988.94, 0.0000019795527, 9.998331, 10.001215 
1.5749447e+3, 1.8407828e+2, -1289527.9, -1221705.3, 62097.402, -0.06583387, -0.20438743, -1184863.0, -48838.125, 0.0, 9.998917, 9.999842 
1.5749751e+3, 1.9407895e+2, -1191428.1, -1121509.9, 72595.47, -0.019997427, -0.15246922, -1075894.6, -37875.316, 0.0, 9.998916, 9.999853 
1.575005e+3, 2.0407917e+2, -1156845.5, -1152908.1, 7473.0244, -0.011644368, -0.06215506, -1147148.9, -207129.34, 0.0, 9.99892, 9.998951 
1.5750341e+3, 2.1407863e+2, -1026920.3, -1030488.44, -29488.742, -0.01888238, -0.04734391, -999161.7, -157132.77, 0.0, 9.999115, 9.999024 
1.5750639e+3, 2.2407831e+2, -818294.44, -758382.25, -21381.617, -0.02123163, -0.017329244, -751534.25, -7502.4014, 0.0, 9.9993105, 10.000142 
1.5750942e+3, 2.340782e+2, -678862.8, -600640.5, 37517.31, -0.006856731, -0.102248356, -585555.44, 60470.926, 0.0, 9.999444, 10.000475 
1.5751232e+3, 2.4407768e+2, -667242.8, -772984.7, -13897.133, -0.038870074, -0.097054765, -665446.9, -117418.41, 0.0, 9.999807, 9.998457 
1.575151e+3, 2.5407642e+2, -452546.88, -619770.56, -16037.041, -0.13347785, -0.1005007, -451022.78, -979.9482, 0.00000029448665, 10.0006275, 9.998432 
1.5751792e+3, 2.6407516e+2, -275027.2, -454945.25, -27566.61, -0.16355763, -0.0685431, -270898.25, 81156.77, 0.000007127328, 10.001059, 9.99869 
1.5752083e+3, 2.7407348e+2, -173370.77, -328695.4, 14588.31, -0.11054527, -0.16047655, -172012.48, 82055.086, 0.000059012113, 10.000971, 9.998921 
1.575237e+3, 2.8407162e+2, -198368.55, -504303.38, 4787.653, -0.081933945, -0.13704157, -198293.64, -42208.8, 0.00030982727, 10.001039, 9.997016 
1.5752658e+3, 2.9406977e+2, -50369.492, -380324.6, 1468.7784, -0.07185316, -0.07065815, -50362.953, 7743.5156, 0.0010139557, 10.001376, 9.997024 
1.5752962e+3, 3.0406624e+2, 146605.66, -169666.47, 48278.05, -0.027957385, -0.14175233, 153811.02, 153811.02, 0.002281504, 10.002031, 9.997814 
1.5753272e+3, 3.1406552e+2, 223316.73, -130027.23, 29936.281, -0.061201792, -0.07117832, 225835.08, 225835.08, 0.003972663, 10.002491, 9.997856 
1.5847607e+3, 1.2404217e+2, -2003313.1, -1779153.1, 49237.94, -0.17435452, -0.22628811, -1768814.5, -44437.668, 0.024665277, 9.997631, 10.000663 
1.5847923e+3, 1.3404676e+2, -1862440.0, -1496879.4, 39563.934, -0.055550847, 0.007855175, -1492646.4, 133686.33, 0.0150364665, 9.99725, 10.00214 
1.584824e+3, 1.4404619e+2, -1837317.5, -1625063.8, 5816.1953, 0.16587168, -0.18533401, -1624904.5, -96563.55, 0.0068181083, 9.997563, 10.000423 
1.5848528e+3, 1.5404846e+2, -1702147.0, -1539076.1, -2596.322, 0.11568707, -0.00426707, -1539034.8, -108710.43, 0.0019058621, 9.997959, 10.000144 
1.5848811e+3, 1.640496e+2, -1552542.0, -1329630.3, 68503.805, -0.05350055, 0.07467579, -1310261.1, 22053.236, 0.0002187055, 9.997937, 10.000921 
1.5849118e+3, 1.740489e+2, -1443369.5, -1188491.3, 28304.072, -0.10171266, -0.1448135, -1185386.0, 48929.563, 0.000002466339, 9.997867, 10.001244 
1.5849431e+3, 1.8404885e+2, -1428986.8, -1274149.6, -6658.149, -0.054265063, -0.20435539, -1273863.9, -137550.83, 0.0, 9.997906, 9.999966 
1.5849741e+3, 1.9404949e+2, -1240560.0, -1126878.3, -9416.277, 0.01570747, -0.16534078, -1126103.6, -87796.79, 0.0, 9.998504, 10.00001 
1.585004e+3, 2.040498e+2, -1160550.5, -1169339.8, 4834.519, 0.021390656, -0.07185413, -1158411.6, -218105.38, 0.0, 9.998929, 9.998851 
1.5850331e+3, 2.1404943e+2, -1011043.1, -1035738.7, 31728.041, -0.02721457, -0.029297449, -989344.8, -147029.84, 0.0, 9.999241, 9.998941 
1.585063e+3, 2.2404905e+2, -814191.4, -760592.3, 79708.63, -0.014942811, 0.0007204724, -703298.56, 41020.742, 0.0, 9.999384, 10.000092 
1.5850942e+3, 2.3404858e+2, -663593.06, -606316.94, 11085.228, 0.06717333, -0.109308586, -604246.3, 42071.934, 0.0, 9.9996, 10.000378 
1.585124e+3, 2.4404804e+2, -617794.1, -718369.75, -26925.705, 0.055457223, -0.10770586, -611039.3, -62718.773, 0.0, 10.000036, 9.9987135 
1.5851517e+3, 2.5404754e+2, -400859.03, -565619.44, -15444.939, -0.103786476, -0.06231082, -399423.72, 50903.395, 0.00000023115544, 10.000866, 9.998691 
1.5851803e+3, 2.6404643e+2, -267958.63, -436485.9, -21456.4, -0.13863179, -0.032114036, -265269.75, 87067.414, 0.0000061293663, 10.001059, 9.998805 
1.58521e+3, 2.7404416e+2, -223838.08, -336423.1, -66537.82, -0.005057773, -0.1897041, -192974.81, 61380.0, 0.000060026516, 10.00058, 9.999039 
1.585239e+3, 2.8404236e+2, -194785.38, -486405.06, -2107.1145, 0.023849335, -0.17209437, -194770.14, -38399.004, 0.0003212461, 10.001007, 9.997139 
1.5852676e+3, 2.940412e+2, 146430.27, -269121.4, 21606.416, -0.096143454, -0.04859395, 147550.66, 205936.78, 0.001056996, 10.002657, 9.997158 
1.585298e+3, 3.0403745e+2, 279570.63, -121838.445, 101393.49, -0.07865744, -0.14746898, 303728.16, 303728.16, 0.0023867078, 10.002983, 9.997714 
1.5853307e+3, 3.1403658e+2, 52907.91, -167157.11, 17252.734, 0.1235326, -0.064098045, 54252.28, 54252.28, 0.0041674515, 10.001088, 9.998305 
1.5947604e+3, 1.2401408e+2, -2064644.1, -1976022.9, 2855.1577, -0.060682178, -0.1693205, -1975930.9, -251278.61, 0.026239868, 9.997883, 9.999212 
1.5947904e+3, 1.3401683e+2, -1880780.8, -1534021.5, 64862.527, -0.0119502805, -0.09904139, -1522285.9, 104340.63, 0.016040104, 9.997252, 10.001878 
1.594819e+3, 1.4401755e+2, -1824973.3, -1641719.6, 5079.236, -0.15710309, -0.13450226, -1641579.0, -112957.31, 0.0073062, 9.997724, 10.000241 
1.5948503e+3, 1.5401839e+2, -1692404.8, -1533830.4, 23765.357, 0.050613757, -0.10239758, -1530345.3, -99727.805, 0.002060233, 9.998011, 10.00016 
1.59488e+3, 1.6401964e+2, -1594782.1, -1438388.6, 44230.133, 0.023393169, 0.023694672, -1426746.4, -94138.305, 0.00024185247, 9.998025, 10.000132 
1.5949099e+3, 1.7402092e+2, -1514332.8, -1325370.4, 37183.152, -0.10470507, 0.09073684, -1318317.0, -83720.33, 0.0000030340082, 9.997823, 10.000324 
1.5949407e+3, 1.8402149e+2, -1411635.5, -1237413.0, -4141.6304, -0.12704878, 0.13101675, -1237314.6, -100723.59, 0.0, 9.997899, 10.00022 
1.5949722e+3, 1.9402097e+2, -1235968.8, -1083805.9, 27899.283, -0.049370535, 0.014937668, -1078851.8, -40257.98, 0.0, 9.998367, 10.000368 
1.5950027e+3, 2.0402098e+2, -1107275.8, -1025529.5, 2672.7588, -0.034535594, 0.014564561, -1025442.25, -84850.125, 0.0, 9.998786, 9.999904 
1.5950322e+3, 2.1402158e+2, -969407.5, -887258.9, 55923.74, -0.0627455, 0.03786027, -858946.1, -16360.589, 0.0, 9.998984, 10.000079 
1.5950623e+3, 2.2402121e+2, -928001.4, -945255.7, 72387.375, -0.046169426, 0.057062026, -863728.9, -119139.97, 0.0, 9.999148, 9.9989395 
1.5950936e+3, 2.3401935e+2, -797566.7, -832032.75, 39407.28, 0.030281663, -0.05584337, -771789.1, -125181.4, 0.0, 9.999368, 9.998942 
1.5951237e+3, 2.4401829e+2, -614893.06, -650906.2, -7490.657, 0.006806276, -0.057579193, -613397.1, -64779.594, 0.0, 9.999778, 9.999296 
1.5951525e+3, 2.540182e+2, -382793.2, -460748.13, 32290.941, -0.13482514, -0.051436707, -371154.97, 79461.02, 0.00000009760233, 10.000594, 9.999531 
1.5951817e+3, 2.6401725e+2, -331994.8, -520687.47, -50093.582, -0.13791339, -0.029890245, -319520.75, 33102.324, 0.0000054247644, 10.000838, 9.998336 
1.5952115e+3, 2.7401507e+2, -297132.5, -444009.3, -63674.74, 0.05916292, -0.12463202, -273371.75, -18729.29, 0.0000627863, 10.000377, 9.998401 
1.5952407e+3, 2.8401342e+2, -180341.27, -389757.6, 35324.33, 0.059388883, -0.09213384, -174543.28, -17885.549, 0.0003316825, 10.000731, 9.997932 
1.595269e+3, 2.9401192e+2, 165689.73, -149664.8, 107784.88, -0.23448113, -0.09368051, 199009.08, 257681.8, 0.0010854187, 10.002324, 9.998138 
1.5952997e+3, 3.0400857e+2, 230648.17, -135524.95, 23225.057, -0.23081389, -0.20969915, 232115.38, 232115.38, 0.0024519642, 10.00263, 9.997781 
1.5953338e+3, 3.1400838e+2, 46294.445, -68969.65, -8597.288, 0.28731978, -0.067112856, 46932.168, 46932.168, 0.0042799474, 10.000648, 9.999182 
1.6047584e+3, 1.2398618e+2, -2170630.0, -1954629.0, 46443.22, 0.021550162, -0.052245457, -1945066.4, -220137.75, 0.027939666, 9.996883, 9.9998455 
1.604788e+3, 1.3398685e+2, -1857062.4, -1554106.1, 14459.244, 0.017964806, -0.1579875, -1553417.5, 73504.81, 0.01712635, 9.997585, 10.001573 
1.6048162e+3, 1.4398904e+2, -1860357.3, -1638329.5, 17244.277, -0.17284086, -0.027531946, -1636998.1, -108096.85, 0.007836914, 9.99743, 10.000385 
1.6048482e+3, 1.5398926e+2, -1650955.9, -1475285.9, 13985.78, 0.035902422, -0.090081796, -1474179.4, -43278.383, 0.0022287087, 9.998154, 10.000477 
1.6048786e+3, 1.6399002e+2, -1580472.3, -1475215.5, 69844.195, 0.07212131, -0.012815352, -1440391.3, -107495.52, 0.00026665046, 9.998333, 9.99972 
1.6049083e+3, 1.7399122e+2, -1486589.4, -1362375.1, 59957.56, -0.06131133, 0.09381574, -1338156.1, -103268.87, 0.0000036433328, 9.998247, 9.999857 
1.6049388e+3, 1.8399177e+2, -1368141.8, -1209767.0, 75319.85, -0.09034163, 0.15877202, -1179667.0, -42784.81, 0.0, 9.998157, 10.000285 
1.6049707e+3, 1.939913e+2, -1212762.9, -1056797.6, 61096.95, -0.015312482, 0.028010912, -1035714.0, 3169.9626, 0.0, 9.998431, 10.000526 
1.6050018e+3, 2.0399123e+2, -1117379.4, -996242.4, 26370.104, 0.014750667, 0.00015591814, -990750.9, -49869.08, 0.0, 9.998592, 10.000195 
1.6050313e+3, 2.1399176e+2, -965103.1, -847844.44, -17342.486, -0.017357662, -0.011859681, -845333.3, -2458.735, 0.0, 9.998873, 10.000398 
1.6050619e+3, 2.2399138e+2, -927598.44, -984097.9, 29568.5, -0.0054818983, 0.0059550605, -914953.9, -170075.34, 0.0, 9.999316, 9.998586 
1.6050935e+3, 2.3398975e+2, -710232.3, -823734.94, 37941.85, 0.053763457, -0.0466979, -698717.25, -51819.22, 0.0, 10.000129, 9.998608 
1.605124e+3, 2.4398875e+2, -498623.3, -599826.44, 37841.723, 0.031026507, -0.02167705, -486038.53, 62870.348, 0.0, 10.000595, 9.999259 
1.6051534e+3, 2.5398847e+2, -375286.44, -458140.0, -10011.472, -0.09296463, -0.029089859, -374093.9, 76815.484, 0.000000007673713, 10.000637, 9.999535 
1.6051829e+3, 2.6398736e+2, -300757.63, -500401.6, -83867.09, -0.096373305, -0.023913078, -270202.78, 82714.96, 0.0000049768487, 10.001023, 9.998394 
1.6052125e+3, 2.7398536e+2, -79720.836, -338583.6, -98940.93, 0.07063882, -0.10385368, -46235.7, 208699.98, 0.00006482946, 10.001854, 9.998435 
1.6052423e+3, 2.8398374e+2, 43361.895, -282762.6, 57461.59, 0.09334852, -0.06936112, 53190.164, 210140.84, 0.00033743004, 10.002221, 9.997974 
1.6052723e+3, 2.9398233e+2, 119344.47, -165310.45, 26264.842, -0.11051864, -0.06554975, 121747.62, 180713.08, 0.0010902431, 10.001955, 9.998221 
1.6053031e+3, 3.039795e+2, 189500.8, -154505.42, -78634.305, -0.12395182, -0.1341342, 206623.1, 206623.1, 0.0024554476, 10.002337, 9.997786 
1.6053362e+3, 3.1397834e+2, 501639.84, 199684.13, -194090.11, 0.31792828, -0.084162734, 596558.9, 596558.9, 0.004280213, 10.003545, 9.999642 
1.6147551e+3, 1.2395797e+2, -1927196.9, -1523662.0, 118441.79, -0.07198682, 0.07176184, -1491466.8, 233744.25, 0.02978273, 9.997153, 10.002729 
1.6147846e+3, 1.3395728e+2, -1878781.6, -1609030.3, 17261.02, -0.100767665, -0.13716848, -1607930.3, 19285.307, 0.018308382, 9.9976225, 10.00118 
1.6148153e+3, 1.4396136e+2, -1812256.3, -1562858.0, 18736.95, -0.053630933, 0.18232347, -1561458.1, -32284.27, 0.008418617, 9.997525, 10.000861 
1.6148457e+3, 1.539612e+2, -1614837.4, -1402435.4, 57477.7, -0.060033306, 0.03537146, -1387879.0, 43294.734, 0.0024150687, 9.998162, 10.000975 
1.6148761e+3, 1.639607e+2, -1558075.0, -1470199.0, 48080.73, -0.0647219, -0.040957455, -1449004.0, -115826.14, 0.0002938315, 9.998494, 9.9996805 
1.6149065e+3, 1.7395972e+2, -1492241.4, -1379649.9, 67685.5, -0.09103675, -0.14312427, -1347908.5, -112721.1, 0.000004294035, 9.998252, 9.999744 
1.6149373e+3, 1.8395957e+2, -1375674.1, -1225106.4, 68524.414, -0.089283705, -0.13479726, -1198590.1, -61402.297, 0.0, 9.998158, 10.000175 
1.6149695e+3, 1.9396053e+2, -1234918.5, -1080765.8, 85394.95, -0.0077177864, -0.11647154, -1042807.06, -3630.2883, 0.0, 9.998336, 10.000409 
1.6150007e+3, 2.0396076e+2, -1178481.1, -1083201.9, 17350.088, 0.02117232, -0.086942874, -1080140.8, -138967.08, 0.0, 9.998422, 9.999679 
1.6150305e+3, 2.1395996e+2, -1038301.75, -951343.25, 6027.7505, -0.011110754, -0.17435423, -950927.44, -107745.07, 0.0, 9.998667, 9.999784 
1.6150613e+3, 2.2395957e+2, -941065.2, -943871.6, 41586.37, -0.023646226, -0.14173496, -900858.4, -155670.34, 0.0, 9.999034, 9.998994 
1.6150932e+3, 2.3395966e+2, -710906.1, -764032.7, 85239.82, 0.002439037, -0.07478229, -648186.5, -996.3161, 0.0, 9.999875, 9.999138 
1.6151243e+3, 2.4395934e+2, -576262.4, -709976.25, 25459.566, -0.024812352, 0.016283704, -571578.8, -22382.793, 0.0, 10.000363, 9.998618 
1.615154e+3, 2.539583e+2, -465794.13, -590627.06, 11641.771, -0.115984105, 0.004547634, -464717.72, -13510.122, 0.00000000987263, 10.000393, 9.998744 
1.6151835e+3, 2.639569e+2, -318120.84, -467349.9, -71159.09, -0.16001491, 0.0019989216, -289628.9, 63591.566, 0.000004852571, 10.000736, 9.998751 
1.6152127e+3, 2.7395475e+2, -78331.73, -279676.28, -45700.188, -0.116327524, -0.14350009, -68444.45, 186792.23, 0.00006465758, 10.001629, 9.998935 
1.6152436e+3, 2.839532e+2, -41981.07, -404660.97, 32165.025, -0.034723792, -0.09606175, -39150.54, 118100.18, 0.0003366383, 10.001983, 9.997252 
1.6152765e+3, 2.9395255e+2, 22225.574, -304277.13, 42229.277, 0.08646651, 0.054746725, 27599.0, 86860.945, 0.0010768, 10.001679, 9.997401 
1.6153073e+3, 3.0394998e+2, 126692.766, -198198.7, -56179.36, 0.05166044, 0.06888747, 136132.86, 136132.86, 0.0024101299, 10.001991, 9.997631 
1.6153364e+3, 3.1394693e+2, 415063.3, 176939.95, -78524.67, -0.06300329, -0.07436754, 438626.34, 438626.34, 0.004186122, 10.002925, 9.999751 
1.6247524e+3, 1.23927586e+2, -2138870.3, -1481091.1, 39427.492, 0.06891945, 0.11617994, -1478736.3, 246775.03, 0.03179242, 9.995084, 10.00399 
1.6247821e+3, 1.3392688e+2, -1968617.5, -1664865.9, -49137.785, -0.06971286, -0.10322364, -1657114.6, -29600.74, 0.019603958, 9.997041, 10.001061 
1.624814e+3, 1.4393052e+2, -1797727.0, -1555186.6, -38389.65, 0.07110676, 0.18108684, -1549255.4, -19780.117, 0.009062119, 9.997646, 10.000843 
1.6248439e+3, 1.5392996e+2, -1690394.3, -1430290.8, -60524.305, -0.017002081, -0.011377785, -1416896.9, 14581.627, 0.002624408, 9.997622, 10.001035 
1.6248743e+3, 1.6392931e+2, -1617750.5, -1449352.0, -38953.547, -0.052477542, -0.123410486, -1440777.9, -107295.19, 0.00032476612, 9.997874, 10.000123 
1.624905e+3, 1.7392889e+2, -1380266.5, -1262327.4, -9515.007, -0.068594985, -0.22272797, -1261564.6, -26080.049, 0.000005034694, 9.998756, 10.000297 
1.6249365e+3, 1.8392892e+2, -1267860.6, -1201361.1, 33099.34, -0.037786067, -0.21523228, -1187694.9, -50212.1, 0.0, 9.999025, 9.999931 
1.6249688e+3, 1.9392951e+2, -1201891.0, -1089281.3, 2432.7788, 0.07692159, -0.20101255, -1089228.8, -49752.105, 0.0, 9.998701, 10.000169 
1.625e+3, 2.0392966e+2, -1140934.0, -1098021.1, -16202.87, 0.102631696, -0.15439686, -1092590.5, -151114.53, 0.0, 9.998796, 9.999406 
1.6250296e+3, 2.1392912e+2, -920362.4, -926719.2, -27953.11, -0.010932904, -0.18760465, -895407.56, -51923.336, 0.0, 9.99959, 9.999521 
1.6250604e+3, 2.2392902e+2, -778583.56, -819190.44, 40824.11, -0.046383996, -0.12907198, -753292.75, -7805.247, 0.0, 9.999936, 9.999418 
1.625093e+3, 2.3392941e+2, -715592.1, -713787.5, 47189.754, 0.026052184, -0.08115101, -667491.44, -20006.488, 0.0, 9.999602, 9.99962 
1.6251248e+3, 2.4392918e+2, -674847.56, -759975.5, 38069.67, 0.037544187, -0.0035583717, -660306.44, -110817.53, 0.0, 9.999701, 9.998591 
1.6251548e+3, 2.5392807e+2, -450536.13, -593565.5, 36235.12, -0.067835905, -0.01708307, -441880.16, 9622.759, 0.000000011745934, 10.000537, 9.998653 
1.6251847e+3, 2.6392663e+2, -239783.58, -458906.0, 10752.199, -0.12761106, -0.0031336297, -239257.23, 114259.96, 0.0000048598445, 10.001401, 9.99849 
1.6252147e+3, 2.7392453e+2, 2827.848, -275940.34, -55339.605, -0.09651451, -0.107524544, 13411.742, 268945.88, 0.00006306325, 10.002326, 9.998626 
1.6252461e+3, 2.839228e+2, 69368.875, -318140.5, 13645.521, -0.00056698703, -0.07381978, 69848.79, 227398.61, 0.00033149842, 10.002633, 9.997518 
1.6252789e+3, 2.939216e+2, 101220.56, -234216.52, 39872.746, 0.14894444, -0.0038452263, 105895.016, 165459.13, 0.0010554205, 10.002097, 9.997674 
1.6253099e+3, 3.0391926e+2, 139960.38, -221115.48, 76767.63, 0.101284124, 0.02325133, 155604.03, 155604.03, 0.0023408108, 10.002192, 9.997392 
1.6253398e+3, 3.139162e+2, 412452.1, 96235.54, -25585.725, -0.0027249572, -0.07452067, 414508.9, 414508.9, 0.0040329522, 10.003191, 9.9991 
1.6347472e+3, 1.2389422e+2, -2160727.3, -1546550.9, -179819.44, -0.044150677, -0.0062597045, -1497776.5, 228060.39, 0.03398967, 9.995178, 10.003488 
1.6347796e+3, 1.3389552e+2, -1958543.9, -1643490.4, 31059.479, -0.05493208, -0.054943416, -1640457.5, -12638.743, 0.02102759, 9.997038, 10.001209 
1.634812e+3, 1.4389628e+2, -1801373.4, -1607950.8, -69453.08, 0.062053174, -0.044208866, -1585595.6, -55787.12, 0.009775217, 9.99782, 10.000409 
1.6348423e+3, 1.5389551e+2, -1717787.8, -1489822.6, -53686.813, 0.024860663, -0.21769148, -1477812.0, -45996.28, 0.002860367, 9.997627, 10.000628 
1.6348726e+3, 1.6389593e+2, -1539032.6, -1298393.9, -29816.492, -0.04723157, -0.2458218, -1294754.5, 39055.35, 0.00036087315, 9.997921, 10.001139 
1.6349036e+3, 1.738987e+2, -1307396.0, -1104993.1, 32174.703, -0.11750203, -0.13504635, -1100001.6, 135777.72, 0.000005927034, 9.99873, 10.0013895 
1.6349353e+3, 1.8389979e+2, -1281347.6, -1240596.1, 4590.892, -0.07841704, -0.07258593, -1240085.4, -102318.25, 0.0, 9.999065, 9.999647 
1.634968e+3, 1.9389807e+2, -1246559.8, -1165177.0, 1803.607, 0.11705113, -0.24078436, -1165137.1, -125351.95, 0.0, 9.99862, 9.999694 
1.6349992e+3, 2.0389764e+2, -1163715.6, -1106303.9, -5529.148, 0.12477287, -0.2260552, -1105776.1, -163984.4, 0.0, 9.998627, 9.9994335 
1.6350281e+3, 2.138991e+2, -942171.5, -928874.94, 19749.803, -0.13805866, -0.06878212, -914684.44, -70902.75, 0.0, 9.999395, 9.999605 
1.6350587e+3, 2.2389974e+2, -798353.2, -791807.06, 20024.895, -0.22573431, 0.04358463, -774789.5, -29012.29, 0.0, 9.999648, 9.99974 
1.6350926e+3, 2.3389898e+2, -725461.9, -676822.1, 50035.52, -0.0029649283, -0.06140042, -645509.2, 2272.8667, 0.0, 9.999359, 9.999988 
1.6351253e+3, 2.438983e+2, -686950.1, -714088.5, 48801.215, 0.07532508, -0.073508866, -649866.75, -100078.84, 0.0, 9.999406, 9.9990425 
1.6351554e+3, 2.5389764e+2, -448763.88, -533952.06, 85868.44, -0.08212428, -0.08454029, -395505.78, 56289.88, 0.000000006263202, 10.000314, 9.999163 
1.6351862e+3, 2.6389664e+2, -333220.63, -607340.4, 29043.313, -0.14247264, -0.01524461, -330177.25, 23629.81, 0.000005059976, 10.001187, 9.997581 
1.6352181e+3, 2.738949e+2, -106264.01, -447606.66, 6562.5664, -0.021294232, 0.01116908, -106137.88, 149688.38, 0.000060994436, 10.002075, 9.997572 
1.6352493e+3, 2.8389257e+2, 86279.65, -204383.48, -16531.604, 0.019633561, 0.0019214908, 87216.87, 245064.75, 0.0003219481, 10.002315, 9.998443 
1.6352792e+3, 2.938895e+2, 136351.95, -87498.2, 45615.273, -0.07087024, -0.22685696, 145290.34, 205162.78, 0.0010251604, 10.001805, 9.998813 
1.6353099e+3, 3.0388722e+2, 61891.043, -308490.0, 85840.5, -0.12980506, -0.23541814, 80818.43, 80818.43, 0.002256268, 10.001873, 9.996945 
1.6353455e+3, 3.13886e+2, 258261.0, -103703.984, 86991.4, 0.1909527, -0.098927155, 278082.3, 278082.3, 0.0038509604, 10.002681, 9.997966 
1.6447432e+3, 1.2386235e+2, -1864574.4, -1543113.9, -56804.48, -0.06766447, -0.10351171, -1533371.4, 192774.53, 0.036383986, 9.99784, 10.00223 
1.644778e+3, 1.3386339e+2, -1930504.6, -1699569.9, 65708.445, 0.07057023, -0.11372262, -1682182.8, -54049.508, 0.022584815, 9.997543, 10.000586 
1.6448092e+3, 1.4386392e+2, -1904781.0, -1662742.4, -42346.926, 0.042692352, -0.087788984, -1655547.3, -125420.78, 0.010560797, 9.997117, 10.000382 
1.64484e+3, 1.5386368e+2, -1763736.4, -1505555.4, -25951.244, 0.06419806, -0.2161503, -1502972.8, -70844.29, 0.0031241647, 9.997264, 10.000703 
1.644871e+3, 1.6386455e+2, -1613033.1, -1317684.3, 43204.453, 0.03550936, -0.21536604, -1311494.0, 22624.611, 0.0004029895, 9.997347, 10.001287 
1.6449024e+3, 1.7386743e+2, -1435402.0, -1155801.6, 5030.4014, -0.0514873, -0.103206925, -1155711.1, 80376.2, 0.0000070009137, 9.997799, 10.001502 
1.6449343e+3, 1.8386878e+2, -1395214.4, -1280155.9, -39208.76, -0.03575347, -0.025172476, -1268065.1, -129991.91, 0.0, 9.998242, 9.999748 
1.6449666e+3, 1.9386758e+2, -1187567.8, -1125169.5, -37924.707, 0.09492913, -0.15236619, -1107259.9, -67172.875, 0.0, 9.998997, 9.999764 
1.6449979e+3, 2.038672e+2, -1054232.8, -1046991.56, 13951.21, 0.10493819, -0.13838854, -1036198.8, -94105.766, 0.0, 9.999365, 9.999472 
1.6450278e+3, 2.1386802e+2, -964428.6, -925767.7, 2493.2937, -0.07825201, -0.05170516, -925607.56, -81520.22, 0.0, 9.999215, 9.999689 
1.6450591e+3, 2.2386831e+2, -818745.1, -788985.06, 23439.875, -0.12981924, 0.016470615, -776101.0, -30016.568, 0.0, 9.99944, 9.999876 
1.6450927e+3, 2.3386765e+2, -588892.75, -594665.4, 8550.449, 0.029140245, -0.09231369, -582754.6, 65332.41, 0.0, 10.000222, 10.000149 
1.6451252e+3, 2.4386702e+2, -502231.56, -622416.1, 22751.281, 0.0861634, -0.10745942, -498068.88, 52022.426, 0.0, 10.00065, 9.999078 
1.645156e+3, 2.5386629e+2, -414805.2, -524807.8, -9487.132, -0.047919285, -0.12390219, -413992.97, 38107.117, 0.000000005166704, 10.00056, 9.999119 
1.6451876e+3, 2.6386526e+2, -403357.56, -621198.0, -14494.837, -0.078807615, -0.05975527, -402397.3, -48285.33, 0.000005473011, 10.000638, 9.99774 
1.6452202e+3, 2.7386364e+2, -221020.1, -474195.47, 2387.9968, 0.042600714, -0.036160544, -220997.56, 35132.594, 0.000058881178, 10.001203, 9.997788 
1.6452515e+3, 2.838616e+2, 16775.502, -258936.11, 13523.517, 0.057561975, -0.02300478, 17437.236, 175587.3, 0.0003079229, 10.001915, 9.9982815 
1.6452809e+3, 2.9385898e+2, 227495.16, -70210.24, -65125.664, -0.09527759, -0.1797385, 241118.55, 301290.56, 0.0009851817, 10.002538, 9.998592 
1.645312e+3, 3.0385673e+2, 294133.72, -160457.14, 21025.742, -0.15851502, -0.1871564, 295104.13, 295104.13, 0.0021653068, 10.003281, 9.997297 
1.6453494e+3, 3.1385544e+2, 436901.4, -14849.006, 7898.522, 0.26453418, -0.09473906, 437039.47, 437039.47, 0.0036772299, 10.003915, 9.99797 
1.654741e+3, 1.2383433e+2, -1981285.1, -1840360.3, 68113.19, -0.1652578, 0.035696447, -1812820.9, -86405.76, 0.03897044, 9.998084, 10.000036 
1.6547771e+3, 1.338309e+2, -2033071.0, -1915202.1, 59236.953, 0.2045433, -0.2501748, -1890576.5, -262123.38, 0.024272982, 9.997552, 9.999109 
1.6548045e+3, 1.4383377e+2, -1862792.0, -1590597.9, -60820.32, -0.17180447, 0.06529436, -1577626.0, -47199.516, 0.0114189135, 9.997183, 10.000843 
1.6548364e+3, 1.5383476e+2, -1724450.6, -1426453.4, -7780.9146, -0.03947875, 0.008707888, -1426250.4, 6163.9473, 0.0034161112, 9.997278, 10.00124 
1.6548687e+3, 1.6383538e+2, -1649315.6, -1417121.1, 38252.734, 0.042363036, -0.010020424, -1410981.5, -76574.99, 0.00045137366, 9.99744, 10.000564 
1.654901e+3, 1.738352e+2, -1496468.0, -1272025.6, 34103.688, 0.013370055, -0.12646976, -1266958.1, -30550.646, 0.000008273259, 9.997755, 10.000723 
1.6549328e+3, 1.8383591e+2, -1366179.5, -1225289.3, -25781.412, -0.042864155, -0.08704123, -1220719.8, -82318.83, 0.0, 9.998251, 10.000128 
1.6549638e+3, 1.93838e+2, -1163755.5, -1058306.6, 2330.933, -0.11591912, 0.06483315, -1058255.1, -17872.557, 0.0, 9.998908, 10.000275 
1.6549954e+3, 2.0383833e+2, -1077374.6, -1054495.4, -2497.836, -0.11078734, 0.12252319, -1054225.9, -111846.36, 0.0, 9.999195, 9.9995 
1.6550285e+3, 2.1383582e+2, -997150.44, -943593.0, 9777.328, 0.045075934, -0.12688434, -941863.94, -97461.87, 0.0, 9.999, 9.999672 
1.6550611e+3, 2.2383453e+2, -856684.44, -807579.75, 31598.467, 0.09776755, -0.21401252, -792116.1, -45704.35, 0.0, 9.999184, 9.999871 
1.6550927e+3, 2.3383524e+2, -624399.1, -612394.75, 55786.844, -0.007876184, -0.18408649, -562288.1, 86113.15, 0.0, 9.999981, 10.000147 
1.6551244e+3, 2.438353e+2, -575400.8, -708289.4, 12126.629, -0.088886194, -0.11041967, -574303.3, -23903.473, 0.0, 10.00037, 9.99862 
1.6551563e+3, 2.5383404e+2, -488255.8, -617330.7, 3039.499, -0.09409664, -0.13255972, -488184.28, -35768.813, 0.00000000856411, 10.000314, 9.998592 
1.6551886e+3, 2.638325e+2, -374215.53, -507206.53, -14639.958, -0.07417265, -0.12902917, -372623.0, -18191.346, 0.0000057188686, 10.000399, 9.99864 
1.655221e+3, 2.7383065e+2, -170013.39, -320918.16, 43861.754, -0.03203683, -0.2431918, -158190.83, 98256.82, 0.00005720022, 10.000986, 9.998951 
1.6552527e+3, 2.8382966e+2, -108901.16, -443800.38, 15929.122, -0.04084934, -0.1437645, -108145.21, 50313.395, 0.0002952708, 10.001587, 9.997171 
1.6552836e+3, 2.938296e+2, 90446.63, -296413.0, -11319.838, -0.10872598, 0.09340247, 90777.57, 151243.52, 0.00095047243, 10.002272, 9.997171 
1.6553152e+3, 3.0382726e+2, 287328.94, -72727.75, 28712.078, -0.19372429, 0.12160749, 289604.16, 289604.16, 0.0020977126, 10.002871, 9.998087 
1.6553508e+3, 3.138238e+2, 400601.2, 50510.383, 97312.56, -0.031024126, -0.111024976, 425832.2, 425832.2, 0.0035619375, 10.0033045, 9.998715 
1.6647382e+3, 1.2380299e+2, -2296742.5, -1999713.0, 2673.2256, -0.12789512, 0.10570617, -1999688.9, -272967.53, 0.041736465, 9.995923, 9.999997 
1.6647746e+3, 1.3379924e+2, -1990856.0, -1819087.0, 23984.234, 0.2185947, -0.27511466, -1815801.0, -187039.13, 0.026087236, 9.99749, 9.9998045 
1.6648023e+3, 1.4380325e+2, -1803324.4, -1569722.3, 17011.457, -0.12375099, 0.12295668, -1568489.9, -37765.965, 0.012349877, 9.997655, 10.000739 
1.6648345e+3, 1.5380369e+2, -1548726.3, -1353069.0, -8316.441, -0.019398415, 0.02183319, -1352716.1, 80001.83, 0.003737191, 9.998555, 10.001112 
1.6648673e+3, 1.6380395e+2, -1460889.5, -1367849.8, 37586.555, 0.089861035, -0.0065736156, -1354562.9, -19848.273, 0.00050616945, 9.998937, 10.000166 
1.6648999e+3, 1.7380343e+2, -1400051.1, -1274872.5, 26988.203, 0.08680448, -0.11707664, -1269301.9, -32581.37, 0.000009797576, 9.998629, 10.0002775 
1.6649318e+3, 1.8380384e+2, -1328813.3, -1208759.3, 24318.525, 0.026145266, -0.078913756, -1204020.4, -65302.992, 0.0, 9.998522, 10.000107 
1.6649626e+3, 1.938059e+2, -1099127.0, -1018195.2, -9763.854, -0.12369686, 0.06299411, -1017033.94, 23664.447, 0.0, 9.999322, 10.00034 
1.6649945e+3, 2.0380622e+2, -993659.7, -1011157.56, -33953.055, -0.124825925, 0.11166773, -967346.5, -24651.785, 0.0, 9.999751, 9.9995365 
1.6650282e+3, 2.1380377e+2, -891701.9, -889896.75, -48721.973, 0.10161428, -0.13070734, -842068.94, 2646.6768, 0.0, 9.9997, 9.99971 
1.6650611e+3, 2.2380243e+2, -794945.75, -797727.7, 18935.195, 0.18127848, -0.21686235, -777350.5, -30624.604, 0.0, 9.999703, 9.999672 
1.6650927e+3, 2.3380286e+2, -648587.2, -645522.9, -6951.828, 0.017340047, -0.1942244, -639936.3, 8782.781, 0.0, 9.999912, 9.999933 
1.6651244e+3, 2.438028e+2, -605036.7, -742477.56, -32956.344, -0.08735432, -0.11447255, -597542.8, -46823.188, 0.0, 10.00023, 9.998475 
1.6651568e+3, 2.5380173e+2, -436685.28, -606255.6, -43636.78, -0.0952479, -0.099272825, -426114.8, 26618.932, 0.0000000057748837, 10.000719, 9.998488 
1.665189e+3, 2.6380026e+2, -272816.94, -427027.06, -27539.133, -0.082425565, -0.095321916, -268046.53, 86702.42, 0.0000055479773, 10.0009575, 9.998919 
1.6652213e+3, 2.737983e+2, -175530.83, -303847.6, -68202.555, -0.066773124, -0.24728428, -146052.22, 110712.7, 0.000055377644, 10.000832, 9.999157 
1.665254e+3, 2.8379726e+2, -176448.31, -474756.97, -42793.24, -0.035645425, -0.1595097, -170430.88, -11655.114, 0.00028510438, 10.001112, 9.997168 
1.6652866e+3, 2.9379752e+2, 47132.934, -316176.84, -29534.83, 0.00094570295, 0.11321875, 49518.27, 110299.46, 0.000926934, 10.002013, 9.9971285 
1.6653189e+3, 3.0379486e+2, 252701.5, -77271.945, 63470.273, -0.07914206, 0.10416237, 264488.9, 264488.9, 0.0020635044, 10.002564, 9.998202 
1.6653532e+3, 3.1379217e+2, 215052.2, -5151.1147, -7486.0044, -0.038030274, -0.062632374, 215306.39, 215306.39, 0.0035203707, 10.001881, 9.999007 
1.6747344e+3, 1.2376668e+2, -2101606.5, -1612123.1, -13390.085, -0.17401084, -0.05488144, -1611757.1, 115324.195, 0.044670317, 9.995977, 10.002661 
1.6747698e+3, 1.3376863e+2, -1775156.6, -1394416.6, 52414.324, -0.04020033, -0.17797664, -1387332.9, 241724.61, 0.028026333, 9.997546, 10.002744 
1.6748019e+3, 1.4377242e+2, -1832063.1, -1650272.5, 20095.412, 0.025536366, 0.068423204, -1648077.6, -117059.81, 0.013357116, 9.997741, 10.000146 
1.6748334e+3, 1.5377048e+2, -1607374.6, -1481637.3, 43918.273, -0.0027760803, -0.18529645, -1467816.4, -34777.453, 0.004090086, 9.998578, 10.000221 
1.674866e+3, 1.6377011e+2, -1451426.5, -1373801.6, 14211.348, 0.024313327, -0.2238157, -1371281.6, -36237.402, 0.0005678562, 9.999042, 10.000078 
1.6748983e+3, 1.7377217e+2, -1408461.6, -1283767.6, 23686.475, 0.044526327, -0.06986393, -1279419.9, -42394.027, 0.000011659807, 9.998591, 10.0002365 
1.6749306e+3, 1.8377283e+2, -1358143.6, -1272276.0, 31027.678, 0.013968151, 0.014885462, -1262237.9, -123217.71, 0.0, 9.998524, 9.999679 
1.674963e+3, 1.9377127e+2, -1148507.8, -1095172.9, 32014.115, -0.04981133, -0.1568435, -1080174.3, -39139.418, 0.0, 9.9992075, 9.999875 
1.6749951e+3, 2.0377076e+2, -1005992.8, -1007196.5, -47899.84, -0.07181161, -0.17099428, -958691.0, -15651.397, 0.0, 9.999618, 9.999631 
1.6750267e+3, 2.1377183e+2, -914307.44, -889464.5, -34805.44, -0.03576296, -0.073186785, -864930.44, -19901.469, 0.0, 9.999485, 9.999823 
1.6750589e+3, 2.2377199e+2, -868394.3, -881914.44, 12849.742, -0.028044865, 0.0027850263, -860634.94, -113607.92, 0.0, 9.999411, 9.999232 
1.6750924e+3, 2.3377055e+2, -720485.8, -743287.56, 15504.052, -0.024020327, -0.10902599, -712642.06, -63601.793, 0.0, 9.999687, 9.999371 
1.675125e+3, 2.4376957e+2, -634252.8, -736754.75, -31920.988, -0.06344701, -0.095524214, -625124.94, -74074.69, 0.0, 9.9999485, 9.998646 
1.6751568e+3, 2.5376937e+2, -454629.97, -580515.5, -3643.7725, -0.18063003, -0.024753863, -454524.6, -1470.0001, 0.0000000017385277, 10.00045, 9.99879 
1.6751885e+3, 2.6376846e+2, -345978.47, -509362.78, -43394.27, -0.24893494, 0.03408457, -335168.34, 19895.74, 0.0000048816705, 10.000654, 9.998505 
1.675221e+3, 2.7376628e+2, -241665.48, -400639.2, -48642.156, -0.20367739, -0.083838284, -227963.19, 29120.79, 0.000051551386, 10.000643, 9.998592 
1.6752547e+3, 2.837643e+2, -171211.14, -388162.63, -27757.908, -0.10779474, -0.08947378, -167715.97, -8613.522, 0.0002714196, 10.000794, 9.997914 
1.6752897e+3, 2.9376265e+2, 78229.11, -184610.34, 32993.176, 0.06351035, -0.10645654, 82307.33, 143426.13, 0.0008994481, 10.001707, 9.998188 
1.6753224e+3, 3.0375943e+2, 148623.17, -175509.19, 28525.3, -0.0029558607, -0.21808283, 151114.39, 151114.39, 0.0020333803, 10.002083, 9.997751 
1.675355e+3, 3.1375986e+2, 149972.3, -48025.203, 28488.799, -0.10146548, -0.008437288, 153989.88, 153989.88, 0.0035085906, 10.001498, 9.998891 
1.6847324e+3, 1.2373351e+2, -1969028.4, -1505182.5, 128891.16, 0.009948004, -0.09721017, -1471773.3, 255631.25, 0.04776628, 9.996723, 10.003053 
1.6847672e+3, 1.3373627e+2, -1956708.3, -1438491.0, -10297.645, 0.029378533, -0.1831839, -1438286.5, 191085.42, 0.030093629, 9.996149, 10.003092 
1.6847992e+3, 1.4373957e+2, -2020083.3, -1733292.6, -71556.234, 0.05983166, -0.013241432, -1716430.3, -185092.88, 0.0144471, 9.996399, 10.000236 
1.6848317e+3, 1.53738e+2, -1736114.3, -1539435.6, -2706.9395, 0.0155322505, -0.22968812, -1539398.4, -106043.16, 0.004479329, 9.99767, 10.000272 
1.6848645e+3, 1.637379e+2, -1531255.1, -1429931.5, 10797.48, 0.00845045, -0.23643568, -1428793.6, -93434.87, 0.0006375465, 9.998561, 9.999932 
1.684897e+3, 1.7374022e+2, -1298490.1, -1243289.6, -17999.502, 0.01847826, -0.042974964, -1237939.0, -600.48334, 0.00001399049, 9.999404, 10.000118 
1.6849297e+3, 1.8374078e+2, -1211249.0, -1212544.0, 17034.719, 0.039429188, 0.04171649, -1194849.4, -55515.51, 0.0, 9.999588, 9.999567 
1.684963e+3, 1.9373849e+2, -1195107.8, -1135017.3, 16145.881, 0.062167197, -0.19019723, -1130953.8, -89598.76, 0.0, 9.998958, 9.999722 
1.6849953e+3, 2.0373763e+2, -1123298.6, -1079708.1, -20529.723, 0.03372644, -0.22308809, -1071561.8, -128198.53, 0.0, 9.998884, 9.999484 
1.6850257e+3, 2.1373922e+2, -879814.94, -881664.75, -62609.24, -0.08965285, -0.063221075, -818123.8, 27225.66, 0.0, 9.999778, 9.999724 
1.6850577e+3, 2.2373958e+2, -751388.3, -867103.06, 997.27563, -0.12391252, 0.054528117, -751379.75, -4032.8608, 0.0, 10.000365, 9.9989 
1.6850924e+3, 2.3373784e+2, -649404.6, -749051.4, -7196.9624, -0.014932822, -0.04855285, -648887.5, 476.32242, 0.0, 10.000334, 9.999042 
1.685126e+3, 2.4373665e+2, -571789.7, -673066.44, -10204.669, 0.023729166, -0.05063898, -570771.7, -19396.451, 0.0, 10.00023, 9.998936 
1.6851579e+3, 2.5373626e+2, -485262.66, -562699.1, -17252.416, -0.080217265, -0.03653631, -481592.8, -28214.092, 0.0000000018399801, 10.000073, 9.999099 
1.6851898e+3, 2.6373523e+2, -417451.9, -593857.5, -8010.1416, -0.16069835, 0.014151934, -417088.94, -61700.14, 0.0000039092515, 10.000368, 9.99807 
1.6852222e+3, 2.7373326e+2, -147445.72, -400492.38, -49672.758, -0.18907838, -0.03160018, -138044.31, 119365.38, 0.000046409757, 10.001531, 9.998144 
1.6852559e+3, 2.837313e+2, 37027.03, -246593.06, -14511.712, -0.103484765, -0.022835977, 37767.605, 197195.7, 0.00025645504, 10.002022, 9.998322 
1.6852917e+3, 2.9372954e+2, 42730.9, -142651.03, -30115.709, 0.14363246, -0.10433378, 47500.547, 108943.06, 0.0008664291, 10.001189, 9.998746 
1.6853249e+3, 3.037262e+2, 40173.477, -265446.66, 19142.97, 0.10103799, -0.24476439, 41367.855, 41367.855, 0.0019906836, 10.001445, 9.997475 
1.685358e+3, 3.137262e+2, 399397.2, 68227.44, -33160.82, -0.010209013, -0.018269194, 402685.0, 402685.0, 0.0034818049, 10.003172, 9.99894 
1.6947284e+3, 1.23703234e+2, -2110238.5, -1832500.8, -56846.656, -0.14736323, -0.065058224, -1821316.0, -93623.53, 0.051028147, 9.996899, 10.000649 
1.6947658e+3, 1.3370177e+2, -2131386.8, -1785880.9, -9615.691, 0.26128754, -0.31740266, -1785613.5, -155904.11, 0.032295942, 9.996106, 10.000691 
1.6947939e+3, 1.4370435e+2, -1949093.9, -1605571.8, -50890.49, -0.17079884, -0.13162579, -1598191.3, -66505.695, 0.015627254, 9.996474, 10.001079 
1.6948284e+3, 1.5370643e+2, -1664279.6, -1396051.1, 54991.758, -0.10083079, -0.08341563, -1385214.6, 48450.945, 0.004910431, 9.99769, 10.001249 
1.6948621e+3, 1.6370754e+2, -1523654.8, -1429643.8, 24431.44, -0.12408815, -0.02260733, -1423673.6, -88017.49, 0.0007170378, 9.998625, 9.999901 
1.6948953e+3, 1.7370768e+2, -1313819.9, -1271719.1, 28864.863, -0.11628436, -0.030472944, -1257044.3, -19386.355, 0.000016975888, 9.999387, 9.999929 
1.6949289e+3, 1.8370774e+2, -1194187.5, -1187622.9, -18365.016, -0.04926728, 0.0064096847, -1172249.3, -32590.62, 0.0, 9.999627, 9.999721 
1.6949622e+3, 1.9370753e+2, -1197525.3, -1114688.0, 326.6727, 0.070908755, -0.037949733, -1114686.6, -73027.445, 0.0, 9.998849, 9.99991 
1.6949946e+3, 2.0370696e+2, -1182644.9, -1155355.6, -12335.113, 0.044008445, -0.032208696, -1150606.5, -206941.95, 0.0, 9.998676, 9.99907 
1.6950247e+3, 2.1370588e+2, -943120.06, -972383.1, -14828.591, -0.19278988, -0.08520289, -936919.7, -91242.305, 0.0, 9.999586, 9.999203 
1.6950569e+3, 2.2370511e+2, -801128.06, -897243.56, -11846.682, -0.27072, -0.05140436, -799689.44, -52003.016, 0.0, 10.000064, 9.998832 
1.6950922e+3, 2.3370466e+2, -694877.25, -773760.44, 10897.392, -0.08509559, -0.023912478, -693399.5, -43708.98, 0.0, 10.000041, 9.999009 
1.6951266e+3, 2.437038e+2, -602084.0, -654337.6, -28447.691, 0.031311348, -0.004261021, -589585.94, -37888.867, 0.0, 9.999885, 9.999233 
1.6951595e+3, 2.5370225e+2, -494136.47, -529450.4, -4494.5425, 0.0683976, -0.13499922, -493573.4, -39865.598, 0.0000000033657745, 9.999852, 9.999437 
1.6951922e+3, 2.637006e+2, -493818.56, -682988.06, 15019.275, 0.006821526, -0.14430287, -492633.53, -136910.42, 0.0000030031388, 10.000079, 9.997589 
1.695224e+3, 2.7369905e+2, -223211.05, -500580.6, 16364.622, -0.17047235, -0.09599375, -222248.88, 35495.168, 0.000041455987, 10.001288, 9.997569 
1.6952573e+3, 2.83698e+2, -3454.9414, -255610.53, -54918.465, -0.18081807, 0.024621207, 7986.8916, 167743.39, 0.00024337543, 10.001703, 9.998413 
1.6952924e+3, 2.9369748e+2, 26775.955, -134943.98, -39822.03, 0.07850303, 0.056639485, 36049.934, 97808.484, 0.0008331997, 10.000995, 9.998902 
1.6953261e+3, 3.0369446e+2, -43539.973, -332843.0, 54296.27, 0.046899565, -0.04039878, -33685.355, -33685.355, 0.0019313671, 10.001027, 9.997193 
1.6953611e+3, 3.1369188e+2, 331109.44, 88991.875, 91024.83, -0.07392894, -0.058812615, 361512.7, 361512.7, 0.0034096164, 10.002498, 9.999389 
1.7047241e+3, 1.2367012e+2, -2263285.3, -1998412.9, -133063.55, -0.21101144, -0.09359763, -1943111.9, -215099.36, 0.054460447, 9.996247, 9.999834 
1.7047638e+3, 1.3366744e+2, -1966789.1, -1781675.9, -42131.992, 0.3891618, -0.38793293, -1772537.8, -142492.94, 0.034638863, 9.997563, 10.000022 
1.7047906e+3, 1.4367071e+2, -1715767.3, -1481407.9, -7304.889, -0.20332775, -0.10219518, -1481180.4, 50835.25, 0.016903277, 9.998058, 10.0011635 
1.7048262e+3, 1.5367281e+2, -1662820.1, -1376221.0, -4847.269, -0.0849837, -0.06580961, -1376139.0, 57854.99, 0.00538814, 9.997646, 10.001391 
1.7048605e+3, 1.6367368e+2, -1668659.0, -1496322.5, -24073.436, -0.07828743, -0.037508324, -1493023.0, -157036.84, 0.0008082668, 9.997615, 9.999925 
1.7048945e+3, 1.7367345e+2, -1425557.1, -1319994.5, -31921.168, -0.089161806, -0.08624512, -1311092.6, -73100.88, 0.000020835996, 9.998594, 9.999982 
1.7049283e+3, 1.8367365e+2, -1270940.9, -1228635.5, -85435.01, -0.031484216, -0.037156112, -1161773.5, -21781.49, 0.0, 9.999111, 9.999704 
1.704961e+3, 1.9367424e+2, -1152113.8, -1099171.6, -116108.21, 0.06321202, 0.0068326658, -1006555.2, 35431.43, 0.0, 9.999173, 9.999882 
1.7049934e+3, 2.0367396e+2, -1108567.9, -1125281.6, -65375.617, 0.053455375, 0.04729899, -1051017.1, -107027.0, 0.0, 9.999221, 9.998998 
1.7050247e+3, 2.1367244e+2, -976573.94, -998992.6, -64317.355, -0.13464274, -0.044278763, -922496.44, -76489.375, 0.0, 9.999424, 9.999085 
1.7050575e+3, 2.2367126e+2, -843380.0, -912856.5, -25293.637, -0.18431306, -0.04388135, -835147.2, -87127.84, 0.0, 9.999752, 9.998867 
1.7050928e+3, 2.3367065e+2, -667928.9, -748423.8, -33367.324, -0.011432278, -0.04162711, -655895.94, -5871.756, 0.0, 10.000183, 9.9991 
1.7051274e+3, 2.4366975e+2, -509939.66, -623310.44, -50290.05, 0.10317092, -0.025625307, -490846.94, 61183.582, 0.0, 10.000579, 9.999113 
1.7051601e+3, 2.5366828e+2, -345472.28, -463364.75, -93300.055, 0.10587178, -0.13542911, -294057.47, 159982.81, 0.0000000026261497, 10.000928, 9.999355 
1.7051929e+3, 2.636666e+2, -307353.97, -572938.6, -20397.082, 0.05083921, -0.15114078, -305796.6, 50258.406, 0.0000021613648, 10.001262, 9.997784 
1.7052262e+3, 2.7366477e+2, -179248.72, -457271.84, 5942.261, -0.08854453, -0.14946796, -179121.77, 78954.984, 0.000036656253, 10.00148, 9.997787 
1.70526e+3, 2.8366348e+2, -2166.3074, -301124.06, -29088.477, -0.07799548, -0.044358388, 637.6913, 160729.11, 0.00022921336, 10.001916, 9.99799 
1.7052948e+3, 2.9366282e+2, 238625.39, -92524.516, -110535.53, 0.13485703, 0.027648114, 272131.25, 334229.38, 0.00079328316, 10.002735, 9.9983425 
1.7053281e+3, 3.036603e+2, 226972.55, -186298.03, 8362.285, 0.06825638, 0.007510602, 227141.69, 227141.69, 0.001843639, 10.002803, 9.997332 
1.7053632e+3, 3.136573e+2, 176649.42, 62062.766, -11102.136, -0.011055273, -0.08057034, 177715.19, 177715.19, 0.0032697637, 10.001255, 9.999757 
1.7147222e+3, 1.23634405e+2, -2177066.8, -1840449.3, 104469.52, -0.11491709, -0.16958168, -1810662.8, -82299.64, 0.058051143, 9.996317, 10.000894 
1.7147608e+3, 1.3363387e+2, -1895421.6, -1636193.5, 24592.97, 0.3121407, -0.35465047, -1633881.0, -3508.4922, 0.037118543, 9.997579, 10.001014 
1.7147888e+3, 1.4363901e+2, -1736742.9, -1567297.8, -29508.953, -0.2363159, 0.09934391, -1562305.8, -29982.043, 0.018276531, 9.998229, 10.000492 
1.7148243e+3, 1.5363695e+2, -1717709.6, -1496660.8, -6627.918, -0.07519729, -0.20212413, -1496462.1, -62119.46, 0.005915651, 9.997664, 10.000559 
1.7148595e+3, 1.6363613e+2, -1657290.0, -1478575.8, -15408.525, 0.00992978, -0.29840767, -1477257.0, -140906.13, 0.0009130136, 9.997646, 10.000027 
1.7148939e+3, 1.7363758e+2, -1418784.9, -1288903.3, 15883.465, -0.021494025, -0.20404325, -1286989.0, -48649.465, 0.000025810483, 9.9985285, 10.000223 
1.7149274e+3, 1.8363859e+2, -1285864.8, -1254585.9, -93556.15, -0.06140621, -0.07831662, -1175371.0, -35037.668, 0.0, 9.999087, 9.999537 
1.714959e+3, 1.936387e+2, -1179786.8, -1135982.3, -99701.09, -0.08959244, -0.061606098, -1055806.0, -13469.437, 0.0, 9.999084, 9.999671 
1.7149915e+3, 2.036387e+2, -1118729.5, -1108995.1, -73387.91, -0.09642893, 0.009367118, -1040313.1, -95973.74, 0.0, 9.999062, 9.999187 
1.7150252e+3, 2.136386e+2, -993851.25, -976778.7, -42317.254, -0.05130827, 0.03647985, -942145.3, -95804.59, 0.0, 9.999173, 9.999358 
1.7150591e+3, 2.236378e+2, -877290.3, -913879.1, -22801.23, -0.0022263352, 0.050280385, -866351.5, -118003.51, 0.0, 9.999447, 9.999012 
1.7150941e+3, 2.336358e+2, -690832.0, -750217.5, -78.08446, 0.0719217, -0.09562329, -690831.9, -40466.742, 0.0, 9.999972, 9.999197 
1.7151277e+3, 2.4363448e+2, -590544.25, -711979.5, -51950.38, 0.061516277, -0.10915206, -571352.75, -18976.691, 0.0, 10.000255, 9.998652 
1.7151594e+3, 2.536341e+2, -427009.53, -568829.2, -61740.4, -0.08681531, -0.05402236, -403897.66, 50480.414, 0.0000000000058928205, 10.000654, 9.998762 
1.7151923e+3, 2.6363283e+2, -295336.4, -478275.53, -27404.734, -0.16610996, -0.030040292, -291319.3, 65068.742, 0.0000014626683, 10.000967, 9.998575 
1.7152278e+3, 2.7363023e+2, -144041.83, -327357.38, 31463.188, -0.09174037, -0.20196123, -138792.02, 119617.91, 0.000032258973, 10.001232, 9.9988 
1.7152631e+3, 2.836278e+2, -120342.57, -470818.78, -19486.234, 0.017832752, -0.22657385, -119262.48, 41170.984, 0.00021422842, 10.001587, 9.996985 
1.7152978e+3, 2.9362565e+2, 109606.28, -295431.38, -48131.617, 0.13678502, -0.18510573, 115247.31, 177707.78, 0.0007461243, 10.002443, 9.997092 
1.7153303e+3, 3.0362362e+2, 172549.63, -182227.4, -53137.78, -0.008859204, -0.09907562, 180337.53, 180337.53, 0.0017331633, 10.002337, 9.997571 
1.7153642e+3, 3.1362173e+2, 100430.71, 64842.727, -17138.518, -0.11184743, -0.12231588, 107342.086, 107342.086, 0.0030820344, 10.000608, 10.000072 
1.7247196e+3, 1.2359898e+2, -2162375.3, -1722569.3, 104685.24, 0.048452366, -0.124947496, -1698922.9, 29789.713, 0.06177432, 9.995916, 10.001901 
1.7247577e+3, 1.335985e+2, -1972816.3, -1635794.6, -60578.78, 0.28893238, -0.36385733, -1625236.5, 5482.773, 0.039721623, 9.996877, 10.001338 
1.724787e+3, 1.436044e+2, -1889338.5, -1684342.9, -127227.586, -0.15944862, 0.16758293, -1623461.8, -90798.79, 0.019743169, 9.997345, 10.00013 
1.7248224e+3, 1.536014e+2, -1651950.4, -1491354.1, -106314.63, -0.036192313, -0.19665971, -1438420.9, -3728.2078, 0.006494274, 9.9982, 10.000362 
1.7248578e+3, 1.6360047e+2, -1526821.5, -1374766.3, -41820.05, 0.06543695, -0.305962, -1364023.4, -27321.408, 0.001032908, 9.998354, 10.00041 
1.7248924e+3, 1.7360242e+2, -1482198.3, -1264327.5, -21897.988, 0.0122131305, -0.21254864, -1262148.4, -23464.947, 0.00003215152, 9.997845, 10.000727 
1.7249258e+3, 1.8360364e+2, -1469770.0, -1329372.0, -68516.984, -0.04501028, -0.09850245, -1301476.8, -160803.23, 0.0, 9.9977665, 9.999659 
1.7249577e+3, 1.9360392e+2, -1199870.1, -1134897.8, -82596.8, -0.11433607, -0.07257822, -1078628.3, -35951.863, 0.0, 9.99891, 9.999757 
1.7249905e+3, 2.03604e+2, -1016340.6, -1043724.94, -29464.436, -0.10826662, -0.0048941714, -997542.4, -52864.098, 0.0, 9.99969, 9.999343 
1.7250253e+3, 2.1360369e+2, -846043.75, -889303.94, -33581.613, 0.011895042, -0.01319621, -827729.06, 18950.633, 0.0, 10.000108, 9.99952 
1.72506e+3, 2.2360297e+2, -739987.56, -832713.94, 9830.489, 0.10241062, -0.0023603893, -738956.8, 9728.3955, 0.0, 10.000355, 9.999117 
1.7250948e+3, 2.336017e+2, -617711.1, -705010.06, -8333.533, 0.12398666, -0.081979655, -616922.75, 33774.0, 0.0, 10.000463, 9.999257 
1.7251283e+3, 2.4360047e+2, -551848.5, -718074.25, -25225.621, 0.090889335, -0.07891307, -548104.7, 4603.1567, 0.0, 10.000601, 9.998448 
1.7251602e+3, 2.5359932e+2, -437819.25, -597475.0, -36977.734, -0.0540965, -0.08316494, -429670.75, 25047.682, 0.0000000000049057277, 10.000667, 9.998559 
1.7251937e+3, 2.635978e+2, -282258.5, -462351.3, 35535.063, -0.11091483, -0.078409, -275500.5, 81230.51, 0.0000011502509, 10.001024, 9.99865 
1.72523e+3, 2.7359563e+2, -45771.348, -273818.7, -5780.5625, 0.00032195967, -0.20859437, -45624.914, 213122.48, 0.000029351942, 10.001878, 9.998858 
1.7252657e+3, 2.8359345e+2, -28192.076, -440455.9, -40821.117, 0.098639034, -0.20635423, -24188.963, 136579.98, 0.00020332959, 10.002303, 9.996834 
1.7252995e+3, 2.9359108e+2, 38868.117, -351602.06, -56627.99, 0.10380689, -0.16058399, 46914.777, 109714.85, 0.0007057303, 10.002085, 9.996858 
1.7253318e+3, 3.035892e+2, 156748.55, -176386.47, -12958.344, -0.047513325, -0.054784052, 157251.84, 157251.84, 0.0016357158, 10.002114, 9.997753 
1.7253672e+3, 3.1358674e+2, 324766.3, 129453.586, -67863.99, 0.072849214, -0.14929804, 346031.28, 346031.28, 0.0029145537, 10.002238, 9.999794 
1.734715e+3, 1.2356347e+2, -2088459.9, -1597931.3, -181741.5, -0.08856432, -0.0022415384, -1537934.1, 191130.48, 0.06561491, 9.99603, 10.002757 
1.7347537e+3, 1.3356109e+2, -2010293.9, -1711886.3, -36630.797, 0.15854956, -0.42372203, -1707455.5, -76367.14, 0.042436883, 9.996862, 10.000825 
1.7347853e+3, 1.4356615e+2, -1883549.1, -1679142.4, -128189.94, -0.13496329, 0.06584689, -1617400.1, -84359.086, 0.021297567, 9.997382, 10.000139 
1.73482e+3, 1.5356618e+2, -1619446.3, -1426388.0, -64331.02, -0.11674877, -0.03763569, -1406915.6, 28128.822, 0.0071235094, 9.998215, 10.000797 
1.7348552e+3, 1.6356698e+2, -1452129.4, -1254908.1, -73253.086, -0.088319436, -0.03577422, -1230677.1, 106360.42, 0.0011691477, 9.998488, 10.001174 
1.7348891e+3, 1.7356797e+2, -1429204.6, -1159869.6, -31636.182, -0.11359764, -0.110310555, -1156203.5, 82819.49, 0.00004011834, 9.997855, 10.001444 
1.734923e+3, 1.8356882e+2, -1445342.1, -1276448.8, -53469.594, -0.14354593, -0.08990908, -1260944.3, -119931.27, 0.0, 9.997758, 10.000023 
1.7349564e+3, 1.9356976e+2, -1201420.8, -1101933.3, -27832.44, -0.1460838, -0.030761108, -1094676.3, -51669.203, 0.0, 9.998752, 10.000059 
1.7349902e+3, 2.0356974e+2, -1035159.06, -1039926.1, -26592.938, -0.13304812, 0.0021505535, -1010843.0, -65835.15, 0.0, 9.999501, 9.999459 
1.7350246e+3, 2.1356778e+2, -868469.9, -895374.6, -4235.9253, -0.080028646, -0.18016271, -867818.7, -20796.096, 0.0, 9.999927, 9.999565 
1.7350592e+3, 2.2356689e+2, -785515.1, -862003.4, -712.8086, -0.039593633, -0.18573484, -785508.5, -36478.746, 0.0, 10.000077, 9.999046 
1.7350942e+3, 2.33568e+2, -656896.56, -731191.44, 11780.196, 0.0072387815, -0.025267622, -655073.44, -4050.97, 0.0, 10.0002165, 9.999198 
1.7351286e+3, 2.435674e+2, -591701.9, -720804.6, -35033.43, 0.038886376, 0.039530274, -582807.9, -29778.436, 0.0, 10.000269, 9.998588 
1.7351621e+3, 2.5356394e+2, -459847.78, -585612.3, -14182.108, 0.050141137, -0.21265781, -458268.34, -3207.452, 0.000000000000012544113, 10.000426, 9.998755 
1.7351966e+3, 2.635615e+2, -375207.2, -582196.8, 49196.613, 0.041980997, -0.2846815, -364109.3, -7025.853, 0.0000010511417, 10.000717, 9.997971 
1.7352325e+3, 2.7356097e+2, -144059.42, -409712.44, 50305.465, 0.03636384, -0.17680013, -134852.4, 124236.625, 0.000029114979, 10.001597, 9.998051 
1.7352675e+3, 2.835601e+2, -58723.555, -427079.72, -63442.04, 0.0051022354, -0.008162984, -48103.13, 112997.375, 0.00019954766, 10.00197, 9.997088 
1.7352998e+3, 2.9355836e+2, 20813.287, -313471.72, -39714.22, -0.12065485, 0.052443538, 25466.697, 88591.125, 0.0006841952, 10.001759, 9.997278 
1.7353325e+3, 3.035564e+2, 97278.6, -190670.13, -32018.355, -0.24755637, 0.12309941, 100795.91, 100795.91, 0.0015848163, 10.001677, 9.997845 
1.735371e+3, 3.1355125e+2, 183329.67, 16513.65, -1763.9484, 0.18253219, -0.26150638, 183348.33, 183348.33, 0.0028348158, 10.001515, 9.999331 
1.7447123e+3, 1.2352853e+2, -2014450.8, -1576066.0, -113911.086, 0.022568604, 0.044926547, -1548234.0, 181173.3, 0.06957688, 9.996628, 10.002621 
1.7447512e+3, 1.3352513e+2, -1999499.1, -1721547.0, 56502.004, 0.25085717, -0.45317128, -1710500.3, -79060.25, 0.045260757, 9.997019, 10.000686 
1.7447825e+3, 1.435296e+2, -1834798.0, -1660664.3, 44034.734, -0.1522483, -0.016901556, -1650162.3, -116763.9, 0.022935338, 9.997746, 10.000073 
1.744818e+3, 1.5353072e+2, -1619364.0, -1436366.1, 22722.938, -0.124253236, -0.007520804, -1433586.9, 1805.9233, 0.0078018596, 9.998272, 10.000676 
1.7448533e+3, 1.6353184e+2, -1511156.5, -1295430.6, -47929.848, -0.08257466, 0.038644638, -1285261.0, 52122.402, 0.0013223152, 9.998148, 10.001063 
1.7448871e+3, 1.7353237e+2, -1458007.5, -1182081.8, -109228.164, -0.09039517, -0.07015272, -1144077.1, 95296.15, 0.000049909977, 9.997705, 10.001368 
1.7449212e+3, 1.8353285e+2, -1434721.6, -1256692.3, -89786.31, -0.08577865, -0.08648952, -1219274.4, -77908.8, 0.0000000000000006446772, 9.997776, 10.000139 
1.744956e+3, 1.9353344e+2, -1155061.3, -1061478.4, -100595.06, -0.06964627, -0.079821296, -997324.7, 46035.56, 0.0, 9.999, 10.000201 
1.7449905e+3, 2.0353313e+2, -985818.94, -1012335.6, -104347.32, -0.06064766, -0.08530196, -893891.0, 51471.01, 0.0, 9.999803, 9.999516 
1.7450245e+3, 2.135312e+2, -849966.1, -877223.3, -120873.12, -0.07121738, -0.26928595, -741955.75, 105420.81, 0.0, 10.000009, 9.999657 
1.7450589e+3, 2.2353046e+2, -781024.44, -842127.8, -92412.41, -0.050652605, -0.27266583, -714244.44, 35138.14, 0.0, 10.000006, 9.999233 
1.745094e+3, 2.3353194e+2, -721419.75, -736511.94, -86980.96, 0.01955959, -0.0922084, -641658.1, 9714.151, 0.0, 9.999658, 9.999434 
1.7451291e+3, 2.4353191e+2, -628021.2, -721864.7, -67102.414, 0.082620144, 0.008289978, -593062.6, -39687.555, 0.0, 9.999989, 9.998699 
1.7451635e+3, 2.5352904e+2, -300218.47, -499492.0, -89625.44, 0.10709748, -0.18543625, -265839.53, 189562.92, 0.0, 10.001524, 9.998804 
1.7451985e+3, 2.6352686e+2, -156248.0, -485665.28, -11821.448, 0.10937703, -0.22945617, -155824.31, 201599.45, 0.0000010008785, 10.002234, 9.99791 
1.7452343e+3, 2.73526e+2, -159348.13, -426959.4, -78.19526, 0.07447808, -0.14471625, -159348.1, 100084.91, 0.000030147008, 10.001512, 9.997976 
1.7452693e+3, 2.83525e+2, -106145.29, -424652.13, -29568.418, 0.03388558, 0.0039830147, -103423.58, 58021.66, 0.00019898178, 10.001506, 9.997341 
1.7453021e+3, 2.9352328e+2, 157396.83, -229608.94, -62838.035, -0.086251915, 0.043681905, 167344.16, 230811.19, 0.00068108423, 10.00257, 9.997488 
1.7453347e+3, 3.0352116e+2, 288020.38, -67777.984, -37600.69, -0.20760745, 0.07086757, 291950.6, 291950.6, 0.0015910955, 10.002832, 9.998153 
1.7453736e+3, 3.1351697e+2, 267489.34, 47791.305, -81296.81, 0.27932176, -0.23742816, 294300.4, 294300.4, 0.002872257, 10.002109, 9.9992695 
1.7547084e+3, 1.2349354e+2, -2080238.4, -1729878.1, -66441.32, -0.10890469, -0.03707218, -1717701.5, 12044.898, 0.07366958, 9.996726, 10.001444 
1.7547499e+3, 1.3349067e+2, -1975016.6, -1671157.6, 98853.91, 0.38903284, -0.46563655, -1641828.6, -10054.996, 0.048192136, 9.997022, 10.001027 
1.7547783e+3, 1.4349543e+2, -1818136.9, -1661509.6, 56802.914, -0.39004916, -0.041599117, -1643078.3, -109349.97, 0.024652572, 9.9978895, 10.000007 
1.754816e+3, 1.5349504e+2, -1666965.3, -1546580.0, 52263.492, -0.18343654, -0.109030835, -1527056.6, -91319.8, 0.008527423, 9.998306, 9.999914 
1.754852e+3, 1.6349478e+2, -1578032.4, -1443243.5, -87988.555, -0.07614218, -0.10855742, -1399804.8, -62062.234, 0.0014925194, 9.998196, 10.000023 
1.7548853e+3, 1.7349549e+2, -1533608.8, -1323868.1, -113097.03, -0.04563055, -0.103844486, -1274502.5, -34766.87, 0.00006156021, 9.997651, 10.000416 
1.7549199e+3, 1.8349579e+2, -1443332.0, -1275049.4, -69590.836, -0.018147573, -0.081342205, -1249999.9, -108268.48, 0.0000000010737394, 9.997775, 10.000014 
1.7549556e+3, 1.9349495e+2, -1170122.0, -1077214.8, -43048.227, -0.017220963, -0.21257924, -1060335.3, -16599.172, 0.0, 9.998925, 10.000132 
1.7549907e+3, 2.0349415e+2, -1009626.8, -1026619.8, -108039.375, -0.04708931, -0.26145396, -909750.4, 35990.633, 0.0, 9.99965, 9.999489 
1.7550245e+3, 2.134936e+2, -878674.9, -889272.5, -100315.734, -0.08773602, -0.30790868, -783518.1, 64226.11, 0.0, 9.999796, 9.999679 
1.7550589e+3, 2.2349343e+2, -790505.2, -796691.06, -116401.38, -0.07859374, -0.27704626, -677155.7, 72589.87, 0.0, 9.999727, 9.999679 
1.755094e+3, 2.3349372e+2, -717063.9, -680158.2, -82706.81, 0.022695959, -0.26771772, -613870.7, 37873.563, 0.0, 9.999446, 9.999927 
1.755129e+3, 2.4349402e+2, -677387.6, -757095.7, -30224.684, 0.0477609, -0.15727681, -667222.9, -113479.016, 0.0, 9.9997015, 9.998595 
1.755164e+3, 2.534943e+2, -350757.97, -546296.9, -12883.401, -0.024934579, -0.021982599, -349912.75, 105833.13, 0.0, 10.001273, 9.998603 
1.7551993e+3, 2.6349336e+2, -170944.63, -450888.66, -45666.176, -0.06032948, 0.05543556, -163683.61, 194073.34, 0.00000094846536, 10.001948, 9.99829 
1.755235e+3, 2.734906e+2, -158687.84, -362783.5, -9522.302, -0.02219038, -0.10336717, -158244.53, 101535.93, 0.000030605133, 10.001247, 9.998542 
1.7552708e+3, 2.8348827e+2, -137331.7, -416528.88, -14912.434, 0.0050998093, -0.13289085, -136537.47, 25264.604, 0.0002004244, 10.001193, 9.997545 
1.7553058e+3, 2.9348612e+2, 104136.48, -247684.61, -443.22183, -0.0036695858, -0.15530403, 104137.04, 167963.16, 0.000696978, 10.002179, 9.997547 
1.7553383e+3, 3.0348375e+2, 223709.77, -85998.73, -84334.46, -0.16005975, -0.15397234, 245185.16, 245185.16, 0.0016497148, 10.002351, 9.998249 
1.7553744e+3, 3.1348392e+2, 161183.19, -16502.422, -40344.31, 0.08940536, -0.06628495, 169914.5, 169914.5, 0.0030015628, 10.001477, 9.999108 
1.764704e+3, 1.23456776e+2, -2258780.8, -1850760.9, -7550.8516, -0.13642517, -0.1636365, -1850621.1, -120517.52, 0.07790593, 9.995625, 10.001141 
1.7647468e+3, 1.3345519e+2, -1935164.6, -1640452.5, 45282.652, 0.39013985, -0.46827108, -1633651.8, -1531.9658, 0.05123237, 9.997221, 10.0011425 
1.7647763e+3, 1.4346065e+2, -1787098.4, -1621686.6, -7912.8716, -0.3717189, 0.006963772, -1621309.0, -87241.86, 0.026445003, 9.997994, 10.000241 
1.7648143e+3, 1.5345931e+2, -1724162.4, -1552729.0, 4895.581, -0.15298724, -0.17047323, -1552589.3, -116506.84, 0.009296644, 9.997849, 10.000093 
1.7648503e+3, 1.634586e+2, -1637421.3, -1545419.0, -36789.83, -0.0357659, -0.19686504, -1532516.9, -194424.7, 0.0016790463, 9.998109, 9.999354 
1.7648843e+3, 1.7345934e+2, -1339395.3, -1327082.1, -82890.484, 0.004461372, -0.11012213, -1250119.9, -10030.798, 0.000074904594, 9.99939, 9.999552 
1.7649192e+3, 1.834594e+2, -1170174.0, -1170151.8, -13832.264, 0.053972065, -0.05191953, -1156330.6, -14241.085, 0.000000009428086, 9.999766, 9.99978 
1.7649554e+3, 1.9345808e+2, -1157094.8, -1080392.0, -25317.54, 0.060669713, -0.2149599, -1072789.0, -28690.854, 0.0, 9.999069, 10.000048 
1.7649905e+3, 2.0345734e+2, -1109381.0, -1035478.44, -48894.836, 0.037198987, -0.2662351, -1011142.7, -65040.508, 0.0, 9.998821, 9.999815 
1.7650247e+3, 2.1345776e+2, -900110.8, -852545.4, -41158.016, -0.027874526, -0.25443676, -828792.8, 19303.555, 0.0, 9.999476, 10.000069 
1.7650591e+3, 2.234579e+2, -726766.75, -754371.1, -33221.402, -0.041137114, -0.21776414, -704594.5, 45499.35, 0.0, 10.000126, 9.999769 
1.7650938e+3, 2.3345743e+2, -506720.9, -571470.3, -73323.86, 0.014211218, -0.28787032, -458942.56, 193155.48, 0.0, 10.0008745, 9.999976 
1.7651291e+3, 2.4345729e+2, -446841.13, -670055.4, -271.01517, 0.03689869, -0.21843608, -446840.8, 107260.37, 0.0, 10.001336, 9.998433 
1.7651653e+3, 2.534577e+2, -376333.38, -584153.9, -3160.4897, 0.0019472018, -0.045898497, -376285.3, 79817.02, 0.0, 10.001165, 9.998418 
1.7652012e+3, 2.6345685e+2, -280166.97, -493080.25, -34549.08, -0.009389033, 0.048225038, -274701.06, 83411.94, 0.0000007067664, 10.001178, 9.998362 
1.7652366e+3, 2.7345398e+2, -105963.22, -327153.84, -76739.21, 0.0009144498, -0.13289402, -81947.125, 178191.5, 0.000029110019, 10.001579, 9.998622 
1.7652723e+3, 2.8345177e+2, -40074.594, -315843.47, -50315.97, 0.041043676, -0.17403187, -31180.918, 130977.875, 0.00020337792, 10.001647, 9.998016 
1.7653085e+3, 2.9345024e+2, -380.3097, -243457.86, -62609.09, 0.11946173, -0.17400117, 14798.039, 78972.6, 0.00072560523, 10.001252, 9.998016 
1.7653416e+3, 3.0344737e+2, 133539.03, -186766.2, -80397.14, -0.032944486, -0.22616965, 152586.2, 152586.2, 0.0017290524, 10.001947, 9.997754 
1.7653774e+3, 3.1344712e+2, 520978.0, 85555.16, -154544.72, 0.1167312, -0.10577402, 570254.1, 570254.1, 0.0031406845, 10.004213, 9.998515 
1.7747015e+3, 1.23419374e+2, -2214497.8, -1796073.4, 67506.28, -0.024927976, -0.2424119, -1785451.9, -54983.63, 0.08231803, 9.99575, 10.001473 
1.774742e+3, 1.3341895e+2, -1944742.4, -1667716.8, 114275.15, 0.14956853, -0.44076177, -1626661.8, 5814.581, 0.054393712, 9.997239, 10.000952 
1.7747757e+3, 1.4342494e+2, -1741227.9, -1544985.4, -29527.018, -0.28417137, 0.09661264, -1540638.9, -6220.132, 0.02831169, 9.998069, 10.000733 
1.7748122e+3, 1.534235e+2, -1640963.1, -1385654.9, 10560.741, -0.18109217, -0.19774838, -1385218.8, 51210.74, 0.010105246, 9.99786, 10.001242 
1.774848e+3, 1.6342337e+2, -1652907.9, -1589008.8, -12781.749, -0.11313106, -0.22630899, -1586546.9, -248115.44, 0.0018804772, 9.998157, 9.999033 
1.7748831e+3, 1.7342395e+2, -1392384.0, -1434151.3, -20600.402, -0.072411515, -0.08554045, -1383933.4, -143500.05, 0.00008970714, 9.999378, 9.998822 
1.7749186e+3, 1.8342374e+2, -1191297.9, -1222455.4, -46675.066, -0.033466928, 0.0053331545, -1157670.4, -15230.85, 0.000000028818846, 9.9998, 9.999406 
1.7749543e+3, 1.9342276e+2, -1185992.9, -1123506.3, -37665.98, 0.029818743, -0.09854159, -1105812.1, -61364.67, 0.0, 9.998988, 9.999794 
1.7749898e+3, 2.0342256e+2, -1092053.0, -957936.9, -47189.26, 0.042394813, -0.106938705, -942997.3, 3449.5964, 0.0, 9.998649, 10.000423 
1.7750244e+3, 2.1342352e+2, -884349.0, -766583.6, -3409.2217, -0.016288346, -0.11617105, -766485.0, 81948.96, 0.0, 9.999252, 10.000762 
1.775059e+3, 2.2342375e+2, -791037.2, -830961.5, -19515.688, -0.0827986, -0.093393974, -783082.5, -32653.604, 0.0, 9.999871, 9.99937 
1.7750935e+3, 2.334227e+2, -572410.4, -668919.44, -28648.701, -0.13025002, -0.17100464, -564546.75, 87890.73, 0.0, 10.000686, 9.999405 
1.7751293e+3, 2.434213e+2, -502339.94, -709146.3, -18616.484, -0.09968376, -0.18989672, -500677.47, 53773.29, 0.0, 10.00102, 9.99831 
1.7751671e+3, 2.534194e+2, -416237.22, -610699.8, 6632.9106, 0.06029148, -0.24520501, -416011.25, 40459.844, 0.0, 10.000932, 9.998344 
1.7752038e+3, 2.634176e+2, -348146.9, -565362.7, -35116.72, 0.109711155, -0.22845605, -342610.75, 15879.714, 0.00000032366296, 10.00089, 9.998 
1.7752382e+3, 2.7341616e+2, -183503.81, -408730.63, -38956.387, -0.015095499, -0.21954758, -176956.06, 83550.68, 0.00002512301, 10.001259, 9.998205 
1.7752735e+3, 2.834154e+2, -60370.56, -281812.9, -82828.32, -0.03808149, -0.10837853, -32817.695, 129697.836, 0.00020098852, 10.001315, 9.998411 
1.77531e+3, 2.9341534e+2, 6960.4478, -168731.63, -55851.516, 0.117543295, -0.029168522, 23212.047, 87726.72, 0.0007425487, 10.000997, 9.998651 
1.775344e+3, 3.0341178e+2, -1415.4973, -373415.94, -26996.746, -0.015185136, -0.14465885, 533.4942, 533.4942, 0.0017707977, 10.001557, 9.9966545 
1.7753816e+3, 3.134087e+2, 332158.22, -91143.25, 15997.543, 0.061170228, -0.1680143, 332761.94, 332761.94, 0.0031853206, 10.003344, 9.997691 
1.7847e+3, 1.2338367e+2, -1918977.6, -1665032.9, 109650.11, 0.15931045, -0.13948254, -1624240.3, 106576.6, 0.08696164, 9.997853, 10.00139 
1.7847392e+3, 1.3338216e+2, -1912089.1, -1681993.9, 81057.99, 0.13944755, -0.4198746, -1656306.5, -23469.125, 0.057701517, 9.9976635, 10.000621 
1.7847736e+3, 1.4338793e+2, -1852979.3, -1574899.0, -39041.98, -0.24123296, 0.11055307, -1569521.5, -34738.797, 0.030258754, 9.997208, 10.000938 
1.7848106e+3, 1.5338655e+2, -1586480.0, -1318384.8, -87579.61, -0.11939749, -0.21694915, -1292310.6, 144480.78, 0.0109521225, 9.998045, 10.001619 
1.784847e+3, 1.6338655e+2, -1566715.6, -1524579.0, -81252.734, -0.045614786, -0.26319322, -1461707.6, -122917.055, 0.0020959692, 9.998652, 9.99923 
1.7848827e+3, 1.7338699e+2, -1408827.5, -1419797.6, -59426.09, -0.04189934, -0.15251237, -1354633.9, -113841.51, 0.000105867584, 9.999189, 9.9990015 
1.7849182e+3, 1.8338697e+2, -1241676.9, -1238951.5, -40219.508, -0.004539478, -0.05707292, -1200071.6, -57274.777, 0.0000000562377, 9.999418, 9.999483 
1.7849539e+3, 1.9338687e+2, -1108942.5, -1074630.3, -38162.31, 0.0759312, -0.08060582, -1049945.1, -5147.313, 0.0, 9.999457, 9.999904 
1.7849892e+3, 2.0338704e+2, -980118.8, -939825.2, -5420.466, 0.09805712, -0.048008423, -939108.75, 7686.5396, 0.0, 9.999558, 10.000121 
1.7850241e+3, 2.1338725e+2, -793396.3, -765244.3, -68176.13, 0.0042355373, -0.093668595, -709706.25, 139084.16, 0.0, 10.000046, 10.0004015 
1.7850591e+3, 2.2338693e+2, -745991.94, -836577.3, -100780.25, -0.06376178, -0.09128013, -680794.44, 69996.55, 0.0, 10.000308, 9.999124 
1.7850943e+3, 2.3338583e+2, -658746.25, -735586.3, -121806.62, -0.07483227, -0.1471329, -569444.1, 83355.42, 0.0, 10.000221, 9.99917 
1.7851306e+3, 2.4338423e+2, -581418.3, -722012.56, -64589.95, -0.02050442, -0.17720044, -556250.5, -1436.925, 0.0, 10.000389, 9.99851 
1.7851686e+3, 2.5338185e+2, -375142.1, -560208.3, -49063.41, 0.11236289, -0.3065089, -362939.38, 93897.24, 0.0, 10.0011015, 9.998595 
1.7852053e+3, 2.6338e+2, -256861.88, -526166.94, -48333.434, 0.15346532, -0.3069953, -248450.0, 110405.92, 0.00000018370703, 10.001507, 9.997989 
1.7852396e+3, 2.7337903e+2, -171760.89, -422285.66, -60018.023, 0.016391406, -0.24465317, -158124.64, 102745.13, 0.000020759246, 10.001369, 9.998088 
1.785275e+3, 2.8337836e+2, -27917.672, -268257.34, -51603.535, -0.00619981, -0.11386139, -17306.338, 145572.19, 0.0001926232, 10.00156, 9.998376 
1.785312e+3, 2.9337814e+2, 221424.5, -71150.805, -115872.89, 0.15948915, -0.04415852, 261755.72, 326634.5, 0.00073852565, 10.002498, 9.998592 
1.7853467e+3, 3.0337474e+2, 214892.78, -253325.13, -27977.908, 0.05174957, -0.1456782, 216558.64, 216558.64, 0.001755, 10.002981, 9.996793 
1.785385e+3, 3.1337175e+2, 193925.47, -132396.64, 35193.598, 0.16823187, -0.15965272, 197677.92, 197677.92, 0.0031042786, 10.00225, 9.997953 
1.7946966e+3, 1.23347424e+2, -1929117.4, -1737326.3, -52965.242, -0.04769922, -0.099575125, -1723671.4, 7500.137, 0.09190124, 9.998089, 10.000733 
1.7947376e+3, 1.3334471e+2, -1923628.3, -1738739.5, 60835.188, 0.18284146, -0.42622736, -1720518.3, -87314.37, 0.06119029, 9.997773, 10.000195 
1.7947695e+3, 1.4334962e+2, -1866690.4, -1609658.6, -42528.74, -0.40751365, 0.041911837, -1602804.5, -67645.81, 0.03230053, 9.997245, 10.000678 
1.7948093e+3, 1.5334845e+2, -1626155.3, -1392664.1, -43049.156, -0.09046917, -0.21796331, -1384980.0, 52188.24, 0.011841973, 9.998023, 10.00111 
1.7948467e+3, 1.633481e+2, -1503862.4, -1414910.4, -81787.83, 0.020029295, -0.29581913, -1366287.8, -27117.193, 0.0023264778, 9.998728, 9.999954 
1.7948823e+3, 1.733483e+2, -1331645.6, -1263087.9, -30525.61, -0.021009652, -0.31200147, -1251466.3, -10297.888, 0.00012352158, 9.999191, 10.000085 
1.794918e+3, 1.8334886e+2, -1198565.1, -1152846.3, -54603.848, -0.011720253, -0.2461665, -1116510.0, 26653.176, 0.000000085167756, 9.999437, 10.000061 
1.7949535e+3, 1.9335036e+2, -1095860.1, -1023562.44, -28257.191, 0.0659597, -0.15699992, -1013828.7, 31321.107, 0.0, 9.999355, 10.000303 
1.7949885e+3, 2.0335075e+2, -1083637.9, -1117533.8, -7652.3394, 0.046592984, -0.0753226, -1081990.4, -134843.28, 0.0, 9.9993925, 9.998984 
1.7950234e+3, 2.1334901e+2, -920312.44, -986883.0, -36039.33, -0.093802184, -0.17666316, -904539.1, -55374.105, 0.0, 9.999855, 9.998979 
1.795059e+3, 2.2334747e+2, -804134.5, -891314.9, -115316.766, -0.12804624, -0.20357575, -724444.25, 26735.68, 0.0, 10.000027, 9.998882 
1.795096e+3, 2.3334667e+2, -696051.44, -754510.2, -108511.76, 0.04858736, -0.22865961, -612901.3, 40284.445, 0.0, 9.999971, 9.999159 
1.7951328e+3, 2.4334587e+2, -598056.9, -684683.9, -53796.094, 0.1212509, -0.19663346, -572304.6, -17112.74, 0.0, 10.000082, 9.998914 
1.7951691e+3, 2.5334498e+2, -378738.44, -504684.34, -5295.3276, 0.028773539, -0.22540891, -378516.2, 78683.63, 0.0, 10.000838, 9.999098 
1.7952052e+3, 2.6334384e+2, -286586.16, -512188.94, -63492.066, -0.027398363, -0.19492728, -269944.9, 89266.875, 0.00000013255313, 10.00118, 9.998244 
1.7952406e+3, 2.7334237e+2, -195153.84, -399692.56, -48857.547, -0.045198496, -0.20901369, -184082.66, 77146.3, 0.0000188634, 10.001081, 9.998373 
1.7952766e+3, 2.8334084e+2, -112478.21, -371797.63, -41158.637, -0.03649136, -0.15995365, -106102.36, 57143.39, 0.00018772867, 10.001244, 9.997822 
1.7953138e+3, 2.9333898e+2, 118841.14, -189480.31, -47281.066, 0.0644233, -0.18593033, 125928.76, 191191.97, 0.00073078944, 10.002099, 9.997966 
1.7953491e+3, 3.0333632e+2, 196956.92, -178124.3, -63151.824, -0.037379667, -0.20516267, 207304.23, 207304.23, 0.0017134675, 10.002485, 9.997557 
1.795387e+3, 3.1333622e+2, 210348.94, 52448.92, 80598.07, 0.07892506, -0.060530096, 244222.48, 244222.48, 0.0029593005, 10.001639, 9.999498 
1.8046951e+3, 1.2331039e+2, -1775531.1, -1743605.5, -55962.234, -0.0552722, -0.1399189, -1701374.0, 30159.54, 0.097200245, 9.999519, 10.000006 
1.804736e+3, 1.3330767e+2, -1824020.8, -1697127.6, 35099.63, 0.2212507, -0.4432129, -1688065.9, -54500.188, 0.06490086, 9.998488, 10.000134 
1.8047667e+3, 1.4331207e+2, -1850121.6, -1630597.4, 35266.65, -0.41493902, -0.01759609, -1625071.0, -89544.78, 0.034457777, 9.997461, 10.000436 
1.804808e+3, 1.5331186e+2, -1636741.3, -1430333.6, 30242.182, 0.0060207597, -0.15499735, -1425993.9, 11535.2, 0.0127833225, 9.998085, 10.000818 
1.8048464e+3, 1.6331168e+2, -1519306.1, -1394899.4, 17984.736, 0.1420419, -0.20885321, -1392351.6, -52821.418, 0.0025744103, 9.998512, 10.0001955 
1.8048817e+3, 1.733114e+2, -1348859.1, -1226799.4, -17834.035, 0.036643, -0.30833676, -1224247.0, 17282.74, 0.00014305822, 9.998894, 10.000466 
1.8049173e+3, 1.8331167e+2, -1267478.1, -1206605.9, -84449.37, 0.022484707, -0.28716612, -1147275.4, -3749.339, 0.00000010953618, 9.999045, 9.999883 
1.8049526e+3, 1.9331306e+2, -1152281.9, -1078658.6, -143845.36, 0.07321156, -0.18140289, -966989.4, 78525.94, 0.0, 9.999096, 10.000046 
1.804988e+3, 2.0331334e+2, -1107700.0, -1155116.1, -74100.92, 0.058757402, -0.086040296, -1053606.9, -106091.984, 0.0, 9.999336, 9.998764 
1.8050237e+3, 2.1331155e+2, -903284.44, -999015.3, -38846.84, -0.04128319, -0.16953452, -889504.3, -39971.043, 0.0, 10.000067, 9.998794 
1.8050599e+3, 2.2330992e+2, -733137.7, -859883.7, -51731.324, -0.04165234, -0.19614872, -714704.4, 36844.7, 0.0, 10.000537, 9.998841 
1.8050969e+3, 2.3330876e+2, -586581.3, -705342.9, -79511.586, 0.11472242, -0.2492952, -546724.1, 106833.98, 0.0, 10.000746, 9.999115 
1.8051334e+3, 2.4330808e+2, -482269.0, -617176.8, -3425.672, 0.16569073, -0.21035033, -482182.1, 73381.39, 0.0, 10.000799, 9.99906 
1.8051696e+3, 2.53308e+2, -421419.22, -511915.9, -8086.5693, 0.03338089, -0.16853513, -420702.28, 36862.08, 0.0, 10.00046, 9.999262 
1.805206e+3, 2.6330733e+2, -365693.38, -515900.5, -43417.44, -0.028442323, -0.110036194, -354046.6, 5525.131, 0.00000007008213, 10.0005, 9.998537 
1.8052419e+3, 2.7330568e+2, -137764.25, -348313.47, -67644.234, -0.026076762, -0.16621701, -117904.984, 143684.98, 0.000018211349, 10.001365, 9.998596 
1.8052782e+3, 2.833039e+2, -7761.9043, -307172.25, -3224.881, -0.0116767995, -0.16181922, -7727.174, 155881.63, 0.00018396281, 10.00189, 9.997957 
1.8053156e+3, 2.933017e+2, 117254.49, -183659.39, -2277.897, 0.051566776, -0.22476448, 117271.734, 182901.22, 0.0007176876, 10.002045, 9.99804 
1.8053514e+3, 3.0329967e+2, 164344.0, -212095.28, 5788.9106, -0.01594964, -0.18082489, 164433.0, 164433.0, 0.0016608936, 10.002358, 9.997371 
1.8053892e+3, 3.133003e+2, 296273.97, 38665.164, -44990.44, 0.12566748, 0.090449475, 303905.3, 303905.3, 0.0028185374, 10.002372, 9.999095 
1.8146953e+3, 1.2327283e+2, -1810759.3, -1861621.9, -82173.984, -0.07653421, -0.23064889, -1750171.3, -18271.457, 0.10291468, 9.999693, 9.999107 
1.8147336e+3, 1.3327096e+2, -1801089.1, -1653905.6, -11851.88, 0.1124618, -0.46688372, -1652957.4, -19033.947, 0.06887483, 9.9985075, 10.000423 
1.8147644e+3, 1.4327511e+2, -1837036.9, -1617858.9, 19937.148, -0.42509902, -0.086494066, -1616060.1, -80173.18, 0.036753505, 9.997519, 10.000498 
1.8148066e+3, 1.5327673e+2, -1628761.6, -1423940.0, 70301.34, 0.032470714, -0.040397335, -1402132.3, 35741.957, 0.01378539, 9.998117, 10.000855 
1.8148454e+3, 1.6327745e+2, -1527185.6, -1427963.9, 16367.905, 0.14861003, 0.00054896256, -1425333.6, -85465.375, 0.002842686, 9.998585, 9.999932 
1.8148807e+3, 1.7327644e+2, -1384920.3, -1299149.3, 8843.378, 0.013334295, -0.13119525, -1298247.0, -56371.324, 0.00016504708, 9.998872, 9.999985 
1.8149161e+3, 1.8327555e+2, -1331379.3, -1336916.4, -98722.63, -0.043547094, -0.16011459, -1235386.4, -91502.01, 0.00000012908751, 9.999035, 9.998994 
1.8149509e+3, 1.9327508e+2, -1227177.8, -1219848.3, -130588.1, -0.02729409, -0.14486733, -1092873.5, -46979.746, 0.0, 9.99903, 9.999111 
1.8149868e+3, 2.0327479e+2, -1088293.0, -1073331.4, -65887.51, -0.015949562, -0.07971708, -1014501.3, -66602.36, 0.0, 9.999166, 9.999404 
1.8150246e+3, 2.1327475e+2, -869647.8, -876606.8, 3615.8296, 0.03971085, -0.08123195, -868109.2, -18212.814, 0.0, 9.999841, 9.999741 
1.8150617e+3, 2.2327408e+2, -771203.4, -870460.4, -54938.56, 0.05432748, -0.07138654, -746796.5, 5103.782, 0.0, 10.00024, 9.998914 
1.8150966e+3, 2.3327215e+2, -630460.56, -741401.56, -56386.95, -0.002838454, -0.19197033, -606833.25, 47083.402, 0.0, 10.0005045, 9.998985 
1.8151322e+3, 2.4327078e+2, -541600.25, -670643.0, -25197.2, -0.044726327, -0.20155738, -536854.7, 19074.602, 0.0, 10.000503, 9.998829 
1.8151698e+3, 2.532707e+2, -463792.8, -546176.9, -4112.0483, -0.010595457, -0.15087967, -463588.1, -5655.9487, 0.0, 10.000233, 9.999126 
1.8152069e+3, 2.632703e+2, -403919.3, -522936.03, -32395.326, -0.0063128895, -0.06498525, -395672.97, -35735.07, 0.0000000874347, 10.000187, 9.998641 
1.8152429e+3, 2.73269e+2, -173920.53, -344162.53, -13162.416, -0.074225, -0.1086708, -172908.88, 89043.375, 0.00001648955, 10.001038, 9.998774 
1.8152794e+3, 2.8326756e+2, -27159.258, -263220.7, -13033.163, -0.117193684, -0.09610975, -26441.865, 137524.9, 0.00017264257, 10.001519, 9.998439 
1.8153168e+3, 2.9326606e+2, 117706.7, -109540.305, 27110.234, -0.06300871, -0.16133142, 120896.15, 186875.27, 0.00068283465, 10.001724, 9.998703 
1.8153533e+3, 3.0326447e+2, 5048.8223, -439667.6, -11455.393, -0.10054144, -0.055128343, 5343.7046, 5343.7046, 0.0015899244, 10.001925, 9.996013 
1.8153895e+3, 3.1326205e+2, 58732.543, -237322.55, 1756.4901, -0.14021572, 0.063940085, 58742.96, 58742.96, 0.0027097075, 10.00151, 9.997572 
1.8246956e+3, 1.23236224e+2, -1917852.8, -1879495.0, -44549.098, 0.041343033, -0.22682136, -1850171.8, -117910.2, 0.10907774, 9.998807, 9.999399 
1.8247321e+3, 1.332349e+2, -1792762.1, -1677027.5, -96209.35, 0.11342915, -0.38843942, -1622623.5, 11654.038, 0.07313931, 9.99864, 10.000216 
1.8247631e+3, 1.4323798e+2, -1768181.0, -1596005.0, -3938.5327, -0.32294485, -0.106912225, -1595914.9, -59664.3, 0.039204508, 9.998075, 10.000368 
1.824805e+3, 1.5323938e+2, -1578194.3, -1430633.1, -622.4556, 0.04870627, -0.052277822, -1430630.5, 7609.828, 0.014855209, 9.99863, 10.000549 
1.8248436e+3, 1.6323988e+2, -1476723.6, -1406396.8, -47377.773, 0.12826419, -0.011147268, -1382559.1, -42321.93, 0.0031336718, 9.998937, 9.9999075 
1.8248798e+3, 1.7323951e+2, -1363724.6, -1278710.9, -51509.81, 0.047801476, -0.083906025, -1254433.8, -12194.466, 0.00019006866, 9.998983, 10.000069 
1.8249157e+3, 1.8323898e+2, -1318989.0, -1333694.5, -72359.63, 0.032345768, -0.080199316, -1253609.5, -109364.5, 0.00000015151502, 9.99913, 9.998971 
1.8249504e+3, 1.9323808e+2, -1123809.4, -1172252.0, -67835.81, -0.0033029087, -0.10413984, -1076000.4, -29742.572, 0.0, 9.999776, 9.999073 
1.8249863e+3, 2.0323743e+2, -930112.25, -996500.2, 46488.656, -0.0011741682, -0.0725651, -906183.25, 42082.414, 0.0, 10.000253, 9.999389 
1.8250252e+3, 2.1323714e+2, -772895.5, -825678.06, 20699.803, 0.090437956, -0.10464406, -765746.0, 84518.91, 0.0, 10.000499, 9.999753 
1.8250626e+3, 2.232365e+2, -701623.7, -841283.4, -58761.156, 0.120943084, -0.09156893, -680189.75, 72078.8, 0.0, 10.000715, 9.998898 
1.8250972e+3, 2.3323517e+2, -575028.0, -710765.4, -84986.336, 0.0037641765, -0.15454935, -534136.2, 120144.39, 0.0, 10.000869, 9.999023 
1.8251325e+3, 2.4323387e+2, -482763.53, -670536.6, -26739.22, -0.065379895, -0.14910407, -479030.03, 77263.625, 0.0, 10.001024, 9.998571 
1.8251699e+3, 2.532329e+2, -353386.97, -529529.56, -48704.72, -0.033864103, -0.1530356, -340816.8, 117489.25, 0.0, 10.001141, 9.998795 
1.8252073e+3, 2.6323226e+2, -257408.03, -428202.5, -42984.02, -0.0037251096, -0.082482785, -247200.28, 113114.16, 0.00000011582431, 10.001094, 9.998856 
1.8252443e+3, 2.732318e+2, -185200.66, -321932.78, -58152.258, -0.018811552, -0.06276694, -163813.7, 98505.48, 0.000015405387, 10.000828, 9.999039 
1.8252811e+3, 2.832308e+2, -134304.47, -298434.38, -23393.516, -0.03623314, -0.02419861, -131035.3, 33293.273, 0.00016033727, 10.000727, 9.998575 
1.825318e+3, 2.932292e+2, 12640.988, -160629.27, -66183.484, -0.059459165, -0.10117902, 35028.332, 101371.32, 0.0006397898, 10.000997, 9.998708 
1.8253551e+3, 3.0322745e+2, -15613.933, -353708.66, -27159.215, -0.06411896, -0.04673473, -13446.127, -13446.127, 0.0015189088, 10.001359, 9.996881 
1.8253917e+3, 3.1322473e+2, 144029.22, -116578.0, 27444.832, -0.037977602, -0.03994102, 146888.1, 146888.1, 0.002648064, 10.001691, 9.998363 
1.8346949e+3, 1.2320124e+2, -1786443.0, -1643257.0, -107906.17, 0.008828305, -0.07266704, -1585353.6, 147259.42, 0.11569034, 9.9989195, 10.001074 
1.8347307e+3, 1.331996e+2, -1820508.5, -1756362.6, -109372.5, 0.08627652, -0.20236245, -1674457.5, -39830.13, 0.07769921, 9.998719, 9.999631 
1.8347616e+3, 1.432009e+2, -1783375.5, -1656570.4, -20147.984, -0.2997315, -0.059991293, -1653446.0, -116831.05, 0.04181763, 9.998197, 9.999891 
1.8348026e+3, 1.5319963e+2, -1628332.6, -1546915.8, 32743.92, -0.09192604, -0.19728161, -1535381.1, -96751.85, 0.015997248, 9.99867, 9.999733 
1.834841e+3, 1.6319866e+2, -1442572.5, -1355456.8, -63091.227, -0.07701804, -0.2645538, -1322347.9, 18292.205, 0.0034491862, 9.99902, 10.000219 
1.8348786e+3, 1.7320034e+2, -1313589.3, -1185138.9, -40582.555, 0.011329263, -0.19336514, -1173391.6, 69232.36, 0.00021871291, 9.999013, 10.000701 
1.8349157e+3, 1.8320169e+2, -1264567.4, -1216870.8, -69022.89, 0.08314917, -0.0723615, -1167692.4, -23081.543, 0.00000018976193, 9.999121, 9.999774 
1.8349507e+3, 1.9320184e+2, -1082727.9, -1067103.9, -31794.229, 0.016124867, -0.07052081, -1042175.94, 4433.5024, 0.0, 9.999687, 9.999837 
1.8349865e+3, 2.0320106e+2, -994224.2, -1091436.9, 42094.094, -0.044460732, -0.07446861, -978530.5, -29913.592, 0.0, 10.000087, 9.998818 
1.8350248e+3, 2.1319869e+2, -862723.06, -964979.2, 40022.1, -0.018911242, -0.2296723, -848921.56, 1717.5214, 0.0, 10.000293, 9.998897 
1.8350624e+3, 2.2319722e+2, -752497.0, -876359.06, -64270.742, 0.0021889566, -0.24330693, -725174.56, 27478.9, 0.0, 10.000411, 9.998807 
1.8350983e+3, 2.3319751e+2, -602114.06, -711577.8, -62043.113, 0.008809776, -0.15277247, -574111.9, 80540.53, 0.0, 10.000629, 9.99914 
1.8351342e+3, 2.4319701e+2, -548688.5, -732855.8, -35747.598, -0.041500617, -0.06471477, -541993.2, 14666.43, 0.0, 10.000701, 9.998304 
1.83517e+3, 2.531948e+2, -427270.16, -612384.25, -24394.223, -0.16459385, -0.15157636, -424109.44, 34574.742, 0.0, 10.000843, 9.998372 
1.8352067e+3, 2.6319358e+2, -297231.63, -445310.22, -60611.688, -0.18734829, -0.113909274, -275586.03, 85111.86, 0.000000090536304, 10.000804, 9.99888 
1.8352452e+3, 2.7319413e+2, -196571.63, -298411.63, -43078.21, -0.016364772, -0.019657863, -180793.95, 81897.01, 0.00001528185, 10.000623, 9.999297 
1.8352829e+3, 2.8319353e+2, -201016.17, -369992.66, -37321.168, 0.039248683, 0.055691127, -193140.28, -28444.518, 0.00015301339, 10.000432, 9.998226 
1.8353187e+3, 2.9319102e+2, -73890.32, -250480.69, -24439.75, -0.11415792, -0.0671919, -70570.32, -3848.893, 0.00060731446, 10.000616, 9.998267 
1.8353562e+3, 3.0318886e+2, 64872.586, -60314.17, -31047.254, -0.11924723, -0.11935309, 72149.54, 72149.54, 0.0014671788, 10.000828, 9.999147 
1.8353936e+3, 3.131886e+2, 221572.14, 194629.72, 64348.07, -0.06580117, -0.17230481, 273843.97, 273843.97, 0.0026243378, 10.001078, 10.000781 
1.8446936e+3, 1.23163804e+2, -1719191.1, -1439330.1, 21282.756, 0.028768092, -0.10189447, -1437720.9, 295263.44, 0.12272786, 9.998543, 10.002838 
1.8447286e+3, 1.3316253e+2, -1887840.3, -1845740.3, -172045.94, 0.030235998, -0.15086234, -1693461.4, -58468.43, 0.08254445, 9.998565, 9.999077 
1.8447609e+3, 1.43163e+2, -1737915.4, -1641653.8, -24647.904, -0.20609805, -0.05299327, -1635709.8, -98722.375, 0.04459436, 9.998509, 9.999856 
1.844801e+3, 1.5316138e+2, -1594357.4, -1517636.9, 69099.31, -0.10006383, -0.2366751, -1476964.1, -37960.68, 0.017215712, 9.998842, 9.999852 
1.8448395e+3, 1.6316043e+2, -1480038.9, -1378983.6, 24372.504, -0.09902097, -0.30815554, -1373412.6, -32398.982, 0.0037916328, 9.998807, 10.000162 
1.8448776e+3, 1.7316237e+2, -1369303.6, -1221936.9, -43600.793, 0.023157042, -0.19706224, -1210003.3, 32993.742, 0.00025177147, 9.998698, 10.000598 
1.844915e+3, 1.831639e+2, -1280002.1, -1205504.8, -69710.62, 0.12451311, -0.060066793, -1163715.3, -18732.047, 0.00000025167606, 9.998926, 9.999946 
1.8449508e+3, 1.931641e+2, -998280.2, -1000570.06, -95116.69, 0.055793453, -0.07795355, -904301.56, 142678.19, 0.0, 10.000143, 10.000073 
1.844987e+3, 2.0316339e+2, -946139.94, -1061501.5, -46274.01, -0.003997525, -0.0892932, -929872.4, 19113.484, 0.0, 10.000398, 9.998878 
1.8450244e+3, 2.1316127e+2, -1036872.94, -1048079.56, -26218.09, -0.015306066, -0.215457, -1015666.06, -164658.67, 0.0, 9.999114, 9.998899 
1.8450618e+3, 2.2316015e+2, -996958.1, -969959.3, -12323.918, 0.0024942637, -0.20472972, -965179.94, -212160.13, 0.0, 9.998632, 9.999011 
1.8450986e+3, 2.3316073e+2, -689941.56, -728114.5, -17239.28, 0.01803521, -0.10888407, -683308.7, -28292.818, 0.0, 9.999902, 9.999366 
1.845135e+3, 2.4316047e+2, -541405.6, -718031.75, 30009.879, -0.010588455, -0.019454122, -536446.0, 20574.545, 0.0, 10.000719, 9.998383 
1.8451709e+3, 2.5315836e+2, -453614.72, -625188.8, 27891.377, -0.12987167, -0.09696212, -449194.5, 9849.05, 0.0, 10.000657, 9.998369 
1.8452078e+3, 2.6315686e+2, -303536.97, -450479.7, 47523.39, -0.1531619, -0.088363715, -289506.8, 71552.164, 0.00000009817215, 10.000785, 9.998849 
1.8452461e+3, 2.7315658e+2, -92170.82, -253730.36, 14988.09, -0.025954375, -0.067813, -90792.125, 172266.03, 0.000013983738, 10.001382, 9.99923 
1.8452835e+3, 2.8315565e+2, -72230.516, -307491.9, 23111.607, 0.033309747, -0.023859307, -69981.58, 95084.016, 0.00014297603, 10.001306, 9.998242 
1.8453193e+3, 2.931537e+2, -163853.31, -286609.63, 6320.558, -0.0514324, -0.08599568, -163528.73, -96442.3, 0.00057426473, 9.999957, 9.998345 
1.8453574e+3, 3.031514e+2, -54669.082, -101910.73, 78332.0, -0.0011621892, -0.1695647, 3526.023, 3526.023, 0.0014121899, 9.999919, 9.999311 
1.8453956e+3, 3.1315094e+2, 409549.03, 294427.38, -125020.23, -0.029752214, -0.24030899, 489622.88, 489622.88, 0.0025787351, 10.002302, 10.000886 
1.8546914e+3, 1.23125605e+2, -1600914.3, -1245668.4, 256942.81, -0.121168375, -0.15933007, -1110930.1, 622427.75, 0.13014582, 9.998737, 10.004319 
1.854725e+3, 1.331234e+2, -1939171.8, -1960672.5, -168895.08, -0.20786966, -0.2666206, -1780685.3, -145308.72, 0.08765755, 9.998584, 9.998286 
1.8547599e+3, 1.4312409e+2, -1682887.4, -1552669.6, -32518.916, -0.20601225, -0.11274975, -1545000.4, -7630.8535, 0.04753598, 9.998616, 10.00042 
1.8548001e+3, 1.5312469e+2, -1507528.9, -1353995.0, 91821.555, -0.10946567, -0.17406957, -1311077.5, 128284.42, 0.01851746, 9.998904, 10.000963 
1.8548386e+3, 1.6312534e+2, -1504040.8, -1447225.4, 2003.9597, -0.10581427, -0.135638, -1447154.9, -105798.66, 0.0041650403, 9.998885, 9.999655 
1.8548758e+3, 1.7312561e+2, -1438731.9, -1365628.0, -35284.168, -0.040764704, -0.099727795, -1351376.3, -108017.75, 0.00029041685, 9.998686, 9.999621 
1.8549132e+3, 1.8312545e+2, -1311450.5, -1267572.6, -51453.066, 0.004663782, -0.055422895, -1233576.5, -88213.17, 0.0000003514084, 9.998916, 9.999527 
1.8549505e+3, 1.9312477e+2, -1032427.56, -1047143.4, -39278.277, -0.013558011, -0.12976743, -999824.0, 47545.16, 0.0, 10.000035, 9.999807 
1.8549873e+3, 2.031244e+2, -932254.3, -991129.4, -95376.67, -0.035628602, -0.11288033, -861875.6, 87497.02, 0.0, 10.00022, 9.999446 
1.8550237e+3, 2.1312478e+2, -1013428.44, -952635.5, -62989.875, -0.014944915, -0.066908866, -913091.5, -61720.566, 0.0, 9.998914, 9.99965 
1.8550603e+3, 2.2312503e+2, -995035.94, -907074.56, 5140.542, -0.024519479, 0.013390402, -906775.2, -153405.44, 0.0, 9.99837, 9.999574 
1.8550974e+3, 2.3312487e+2, -691416.44, -676744.94, 47298.387, -0.09812387, -0.016310375, -636216.8, 19154.078, 0.0, 9.999662, 9.999839 
1.8551347e+3, 2.4312441e+2, -568627.5, -701383.6, 23329.313, -0.13311528, 0.017404621, -564647.2, -7271.8716, 0.0, 10.000403, 9.998647 
1.8551725e+3, 2.531234e+2, -468622.5, -597762.3, 40156.234, -0.060845736, 0.017696228, -457154.28, 2231.859, 0.0, 10.000412, 9.998669 
1.8552098e+3, 2.631218e+2, -354839.72, -491447.4, 46878.703, -0.05254592, 0.007821242, -340300.16, 21100.354, 0.00000008466028, 10.000504, 9.998703 
1.8552461e+3, 2.7311903e+2, -155843.86, -315283.78, 58801.07, -0.17410484, -0.20199248, -136504.05, 126918.58, 0.000011476472, 10.001082, 9.99895 
1.8552826e+3, 2.831171e+2, -123717.48, -327977.8, -36359.42, -0.2110988, -0.24028198, -117438.336, 48000.18, 0.00012753508, 10.000931, 9.998286 
1.8553197e+3, 2.931171e+2, -177782.88, -250433.33, -24853.682, -0.04515534, -0.13537145, -170094.16, -102654.125, 0.00053210376, 9.999683, 9.998725 
1.8553583e+3, 3.0311483e+2, -241710.77, -401772.3, 120728.266, 0.060531892, -0.1646716, -176895.97, -176895.97, 0.0013364267, 9.999541, 9.997432 
1.8553974e+3, 3.1311348e+2, 162006.0, -25091.11, -12168.008, -0.12681447, -0.09011277, 162794.03, 162794.03, 0.0024723012, 10.001498, 9.999054 
1.864689e+3, 1.2308748e+2, -1842657.9, -1353154.5, 314846.56, -0.12601611, -0.08045856, -1199118.4, 534612.4, 0.1378835, 9.997066, 10.00433 
1.864723e+3, 1.3308455e+2, -1972236.5, -1956405.6, -209573.7, -0.24549535, -0.29233032, -1754597.9, -118839.38, 0.09301642, 9.998291, 9.998442 
1.8647595e+3, 1.430862e+2, -1643034.1, -1506096.6, -11818.225, -0.08822168, -0.05911909, -1505084.1, 32659.053, 0.050644647, 9.998782, 10.000663 
1.8647993e+3, 1.5308721e+2, -1511930.0, -1323767.4, 12932.783, -0.05356999, -0.11070971, -1322882.6, 116848.266, 0.01991141, 9.998734, 10.001255 
1.8648377e+3, 1.6308801e+2, -1520427.4, -1455292.1, -63198.242, -0.0669276, -0.07260635, -1416763.6, -75040.51, 0.0045744055, 9.998763, 9.999651 
1.8648742e+3, 1.7308792e+2, -1335438.3, -1316141.6, -60635.137, -0.08442682, -0.07331389, -1264392.0, -20663.371, 0.0003360051, 9.999406, 9.9995985 
1.8649116e+3, 1.8308754e+2, -1210817.1, -1222597.1, 16890.7, -0.058515765, -0.050931618, -1198819.0, -53083.18, 0.00000050835786, 9.9996195, 9.999497 
1.8649502e+3, 1.9308695e+2, -1137284.1, -1102220.4, 19287.107, 0.0056521995, -0.11417451, -1093687.8, -45945.59, 0.0, 9.9993305, 9.999775 
1.8649878e+3, 2.0308688e+2, -1062658.9, -1046549.1, -32789.035, 0.047274765, -0.07039805, -1020840.1, -71096.266, 0.0, 9.999278, 9.999525 
1.8650232e+3, 2.1308774e+2, -849428.4, -865433.44, -80933.35, 0.011421298, 0.011885833, -776102.9, 75635.13, 0.0, 9.999978, 9.9997425 
1.8650593e+3, 2.2308809e+2, -715097.6, -740684.3, -6364.6846, -0.03070457, 0.086451165, -713601.8, 40133.547, 0.0, 10.000172, 9.999851 
1.8650967e+3, 2.3308752e+2, -699758.7, -646483.3, -9653.26, -0.11049637, -0.0074810646, -644788.1, 10950.551, 0.0, 9.9994755, 10.000141 
1.8651347e+3, 2.43087e+2, -696269.8, -731621.4, -6510.5366, -0.115151756, -0.007103539, -695108.94, -137366.7, 0.0, 9.999387, 9.998934 
1.8651734e+3, 2.5308657e+2, -429840.63, -548796.8, -12707.333, 0.003572735, 0.025057543, -428498.3, 31248.088, 0.0, 10.000551, 9.99894 
1.8652114e+3, 2.630851e+2, -281913.94, -483634.7, 1662.3016, 0.040117655, 0.017646946, -281900.25, 79859.91, 0.000000065173005, 10.00112, 9.998462 
1.8652473e+3, 2.7308163e+2, -268490.16, -413697.13, -42868.273, -0.10943608, -0.21322934, -256779.02, 7011.6987, 0.000009433609, 10.000497, 9.998558 
1.8652837e+3, 2.8307986e+2, -182945.66, -335059.0, -101039.08, -0.14683107, -0.21998285, -132536.86, 33269.203, 0.00011541226, 10.0004425, 9.99846 
1.8653205e+3, 2.93081e+2, 120198.5, -75300.38, -131693.8, -0.0009694308, -0.023918193, 186455.8, 254250.77, 0.00049646525, 10.0016, 9.998998 
1.8653587e+3, 3.0307826e+2, 87271.266, -275996.4, 110367.02, 0.04874927, -0.105968334, 118173.85, 118173.85, 0.0012601693, 10.001922, 9.997145 
1.8653992e+3, 3.1307623e+2, 21540.918, -125773.42, -2891.2852, -0.031339552, -0.05908102, 21597.643, 21597.643, 0.0023303735, 10.000622, 9.998789 
1.8746845e+3, 1.23048574e+2, -1952071.1, -1584760.5, 155134.08, -0.34867325, -0.009117573, -1528008.1, 206102.84, 0.14588223, 9.997147, 10.0024395 
1.8747224e+3, 1.3304618e+2, -1898660.8, -1810405.8, -158083.14, -0.16967876, -0.22767213, -1690406.8, -54269.8, 0.0986057, 9.998313, 9.999437 
1.8747592e+3, 1.4304948e+2, -1639463.4, -1524357.0, -25201.365, -0.052236583, 0.11254778, -1519081.3, 19025.912, 0.053927336, 9.998886, 10.000485 
1.8747982e+3, 1.5304878e+2, -1547784.1, -1403243.6, 24872.473, -0.06902164, -0.056187168, -1399083.3, 41028.824, 0.021407956, 9.998753, 10.000695 
1.8748362e+3, 1.6304836e+2, -1463977.1, -1352807.6, -59701.332, -0.13572687, -0.1338676, -1326820.9, 15294.503, 0.0050250688, 9.99883, 10.000325 
1.8748724e+3, 1.7304924e+2, -1268430.4, -1179273.3, -22695.521, -0.24510297, -0.12566192, -1173828.5, 70279.18, 0.00038988978, 9.999403, 10.00055 
1.8749097e+3, 1.8304998e+2, -1183147.5, -1165061.4, -6415.32, -0.25106978, -0.06334059, -1163016.9, -16914.824, 0.000000733184, 9.999622, 9.999892 
1.8749496e+3, 1.9305055e+2, -1138961.1, -1079754.3, 19018.2, -0.013309164, -0.030629322, -1074171.6, -26072.348, 0.0, 9.999223, 9.999983 
1.8749878e+3, 2.0305075e+2, -1104942.3, -1106810.8, -30947.156, 0.09327311, 0.03947638, -1074915.3, -124815.125, 0.0, 9.999149, 9.999179 
1.8750226e+3, 2.1305019e+2, -914869.75, -955344.75, -41351.33, -0.06654047, 0.030405145, -889069.4, -36961.473, 0.0, 9.999776, 9.999226 
1.8750583e+3, 2.2304945e+2, -770574.94, -788301.0, -38611.14, -0.18027936, 0.03603893, -739822.6, 14292.785, 0.0, 9.999874, 9.99967 
1.875096e+3, 2.3304863e+2, -738272.5, -669698.75, -21406.871, -0.14975908, -0.0822247, -663564.8, -7444.4683, 0.0, 9.999232, 10.000094 
1.8751343e+3, 2.4304807e+2, -719770.6, -713230.06, 10121.274, -0.11175601, -0.094226465, -705863.9, -147740.58, 0.0, 9.999094, 9.9992075 
1.8751733e+3, 2.5304785e+2, -444203.7, -514772.9, 50038.652, -0.06940152, -0.07450378, -418260.28, 41864.313, 0.0, 10.000283, 9.999303 
1.875212e+3, 2.630467e+2, -357980.16, -577358.4, -24601.469, -0.031288352, -0.047344476, -355255.16, 6881.1953, 0.00000004605578, 10.000828, 9.997969 
1.8752493e+3, 2.730444e+2, -351679.88, -527447.0, -44012.016, 0.009652852, -0.1023342, -341275.2, -77113.13, 0.000008319171, 10.000234, 9.997911 
1.8752861e+3, 2.830438e+2, -217495.77, -334348.66, -81211.72, 0.008071771, 0.036716677, -175877.27, -9708.002, 0.00010877432, 10.000127, 9.998621 
1.8753217e+3, 2.9304513e+2, 81204.65, -67081.38, -54897.438, -0.07403885, 0.22129843, 99316.26, 167470.05, 0.00047256332, 10.001223, 9.999236 
1.8753581e+3, 3.0304128e+2, 87933.93, -159872.45, 55179.38, -0.24164633, -0.021722287, 99665.414, 99665.414, 0.0011935966, 10.00145, 9.998163 
1.8754017e+3, 3.130383e+2, -15027.742, -15511.893, 2165.6914, 0.10898509, -0.19498345, -13090.639, -13090.639, 0.002183187, 9.999869, 9.999894 
1.8846825e+3, 1.2300873e+2, -2004081.5, -1663695.1, 75338.76, -0.23412208, -0.026607519, -1647765.6, 86734.77, 0.15411249, 9.996995, 10.001886 
1.884722e+3, 1.3300692e+2, -1931070.5, -1711129.5, -90206.93, 0.004671914, -0.29177746, -1678865.0, -42344.445, 0.10442951, 9.997566, 10.000486 
1.8847576e+3, 1.4301147e+2, -1643084.9, -1532887.0, 34403.516, -0.08711518, 0.11506954, -1523028.3, 15450.03, 0.057399224, 9.998929, 10.0003805 
1.884797e+3, 1.5301013e+2, -1523103.5, -1411843.0, 57993.5, -0.052294556, -0.09453857, -1387111.8, 53378.863, 0.023018045, 9.999067, 10.000452 
1.8848355e+3, 1.6300957e+2, -1439537.5, -1298586.5, 16004.772, -0.07682249, -0.18863481, -1296792.1, 45703.45, 0.005521801, 9.998796, 10.00072 
1.8848714e+3, 1.730113e+2, -1364705.6, -1161656.9, 1166.906, -0.2127697, -0.15313514, -1161650.1, 82827.52, 0.0004532519, 9.99845, 10.001139 
1.8849087e+3, 1.8301272e+2, -1373722.8, -1254383.4, 24237.225, -0.22764455, -0.059880897, -1249648.8, -103183.93, 0.0000010252129, 9.998309, 9.999901 
1.8849485e+3, 1.9301328e+2, -1156820.1, -1099276.6, 4356.14, -0.01839441, -0.022899427, -1098948.8, -50484.484, 0.0, 9.999149, 9.999869 
1.8849869e+3, 2.0301335e+2, -1029173.4, -1057191.4, -20066.602, 0.08706416, 0.035932064, -1018709.56, -68242.63, 0.0, 9.999623, 9.999289 
1.8850224e+3, 2.1301241e+2, -934192.56, -944966.8, -14119.075, -0.048630316, -0.023085525, -924467.8, -71991.555, 0.0, 9.999562, 9.999399 
1.8850583e+3, 2.2301154e+2, -830020.56, -838732.1, 32173.72, -0.12225423, -0.034489866, -801909.06, -47424.953, 0.0, 9.999572, 9.999457 
1.885096e+3, 2.3301098e+2, -655137.1, -668235.6, 2199.8865, -0.0955133, -0.09189822, -654777.56, 1710.3837, 0.0, 9.999971, 9.999747 
1.8851343e+3, 2.4301048e+2, -561234.7, -649071.0, 60695.324, -0.05549151, -0.07230314, -530234.7, 28256.912, 0.0, 10.000245, 9.999087 
1.8851739e+3, 2.5300983e+2, -453294.7, -537877.3, 31735.514, -0.027706148, -0.086988844, -442711.63, 17786.773, 0.0, 10.000296, 9.999142 
1.8852128e+3, 2.6300868e+2, -397202.97, -537670.4, -32217.34, 0.0057446975, -0.06680358, -390166.2, -27656.424, 0.000000017635879, 10.000338, 9.998456 
1.8852495e+3, 2.730076e+2, -258199.47, -400320.3, -2169.611, 0.007919997, -0.06617781, -258166.36, 6355.478, 0.000007223604, 10.00056, 9.998601 
1.8852866e+3, 2.830072e+2, -153927.0, -339513.2, 70434.74, 0.026583187, 0.066062406, -130222.83, 36303.137, 0.00010058898, 10.000749, 9.998273 
1.8853241e+3, 2.9300663e+2, 15765.259, -173643.33, -6533.0127, 0.065797724, 0.11903436, 15990.325, 84520.57, 0.0004433926, 10.001101, 9.998558 
1.8853596e+3, 3.030028e+2, 113085.58, -92057.43, 45025.07, -0.18591458, -0.10583355, 122532.695, 122532.695, 0.0011175777, 10.00133, 9.998724 
1.8854019e+3, 3.1300196e+2, 118621.31, 68629.33, -130501.08, 0.12723356, -0.13528073, 226498.69, 226498.69, 0.002029412, 10.000683, 10.0001 
1.8946815e+3, 1.229687e+2, -1922794.8, -1577566.3, -50822.758, -0.14074177, -0.06724677, -1570239.9, 164651.64, 0.16258536, 9.997244, 10.002494 
1.8947206e+3, 1.3296694e+2, -1844698.1, -1543181.1, -5429.3325, 0.09628917, -0.46633634, -1543083.4, 93823.375, 0.110513955, 9.997551, 10.001741 
1.894754e+3, 1.4297198e+2, -1630853.4, -1513030.3, 41591.188, -0.37950024, -0.0795442, -1499828.0, 39029.31, 0.06108175, 9.998958, 10.000508 
1.8947956e+3, 1.5297115e+2, -1525490.0, -1418705.6, 74887.03, -0.1387999, -0.23743834, -1380126.1, 60741.164, 0.024752133, 9.999076, 10.000403 
1.8948348e+3, 1.6297153e+2, -1404148.9, -1256367.8, -12202.117, -0.06441009, -0.24243356, -1255367.0, 87497.62, 0.0060684755, 9.998922, 10.000953 
1.8948711e+3, 1.729741e+2, -1345885.6, -1120507.0, -3632.2017, -0.10625518, -0.15448442, -1120448.5, 124390.37, 0.0005270964, 9.998438, 10.001429 
1.8949084e+3, 1.8297566e+2, -1389874.3, -1288534.3, 31214.016, -0.12773943, -0.054282755, -1279691.5, -132866.52, 0.0000013718216, 9.998322, 9.999655 
1.8949467e+3, 1.9297528e+2, -1200823.9, -1164761.0, 45868.32, -0.1476204, -0.074342616, -1133507.3, -84672.016, 0.0, 9.999047, 9.999465 
1.8949845e+3, 2.0297483e+2, -1014578.2, -997903.94, -29575.37, -0.14537278, -0.06278707, -975513.06, -24670.297, 0.0, 9.999484, 9.999769 
1.895022e+3, 2.1297438e+2, -908587.75, -851030.8, -2322.429, -0.0538474, -0.14477704, -850937.25, 1905.9021, 0.0, 9.999375, 10.00014 
1.8950593e+3, 2.2297417e+2, -893066.0, -901360.6, 27719.969, -0.008487177, -0.1251213, -869184.8, -114341.56, 0.0, 9.99928, 9.999166 
1.895096e+3, 2.329746e+2, -728465.3, -764973.0, 35247.508, -0.08845093, -0.03252054, -707025.44, -50184.11, 0.0, 9.999734, 9.999193 
1.8951342e+3, 2.4297433e+2, -650927.2, -774391.25, 48835.48, -0.11391334, 0.0697075, -633946.1, -75099.57, 0.0, 9.999968, 9.998367 
1.8951747e+3, 2.5297233e+2, -540192.4, -659709.9, 50082.54, 0.0010676844, -0.0058608972, -521980.8, -61112.633, 0.0, 10.000042, 9.998427 
1.8952134e+3, 2.629708e+2, -348536.8, -368365.06, -38801.324, 0.0034754295, -0.036293853, -318403.03, 44479.28, 0.0000000071100716, 10.000042, 9.999763 
1.8952478e+3, 2.7297089e+2, -172022.05, -149037.0, 22934.041, -0.2395048, -0.09798735, -134877.06, 129996.836, 0.0000064443307, 10.000259, 10.000468 
1.8952848e+3, 2.8296995e+2, -259672.78, -486244.06, 56777.76, -0.25709212, -0.10168002, -246240.83, -79361.984, 0.0000894982, 10.000424, 9.997425 
1.895327e+3, 2.9296547e+2, -153024.34, -446265.3, 36430.133, 0.2214402, -0.28986683, -148566.3, -79641.3, 0.00040206578, 10.000753, 9.9968605 
1.8953626e+3, 3.029628e+2, 51358.59, -112222.45, 16601.71, -0.062225163, -0.30615303, 53026.477, 53026.477, 0.0010247865, 10.0009, 9.998774 
1.8953995e+3, 3.1296685e+2, -76271.555, -135065.31, -39836.242, -0.24375573, 0.11472126, -56159.82, -56159.82, 0.0018715328, 9.999896, 9.999047 
1.9046792e+3, 1.2293017e+2, -1756702.0, -1560449.8, -41720.047, -0.13354598, -0.10352041, -1551948.9, 183321.44, 0.1713416, 9.998714, 10.001894 
1.9047183e+3, 1.3292994e+2, -1702157.1, -1468132.8, 45684.84, 0.07399488, -0.39459145, -1459530.6, 177739.98, 0.11689223, 9.998515, 10.001836 
1.9047526e+3, 1.4293349e+2, -1699025.5, -1550215.5, 38247.758, -0.37011898, -0.14157651, -1540960.5, -1725.5018, 0.06499328, 9.99847, 10.0005 
1.9047943e+3, 1.5293361e+2, -1612341.1, -1414039.9, 57647.168, -0.11225878, -0.24454719, -1398499.4, 42735.555, 0.026617203, 9.998226, 10.0008745 
1.9048338e+3, 1.629348e+2, -1557091.4, -1348320.0, 21581.121, 0.0036503002, -0.18950431, -1346112.5, -2888.4338, 0.0066676727, 9.997974, 10.000772 
1.9048704e+3, 1.7293638e+2, -1328227.8, -1143755.6, -41920.953, -0.036568645, -0.16774645, -1134676.1, 110531.664, 0.0006122247, 9.99872, 10.00112 
1.9049075e+3, 1.8293725e+2, -1281774.5, -1240051.3, 501.51648, -0.060582157, -0.11575784, -1240045.3, -92844.516, 0.0000017786746, 9.999085, 9.999626 
1.9049458e+3, 1.9293737e+2, -1191863.6, -1156247.3, 18019.71, -0.12590992, -0.08277532, -1148720.9, -99515.01, 0.0, 9.999096, 9.999514 
1.9049838e+3, 2.0293733e+2, -1054326.8, -984645.4, -23733.771, -0.132043, -0.040105637, -977329.6, -26120.61, 0.0, 9.999105, 10.000021 
1.9050217e+3, 2.1293686e+2, -860895.44, -794682.44, -65265.793, -0.027359126, -0.15532511, -754606.5, 98601.84, 0.0, 9.999584, 10.00041 
1.9050592e+3, 2.2293647e+2, -786876.94, -877265.3, -14913.153, 0.025083434, -0.15937597, -784480.0, -29270.621, 0.0, 10.000101, 9.998945 
1.9050965e+3, 2.3293647e+2, -601805.6, -749282.7, -18031.69, -0.07089277, -0.07447576, -599632.94, 57579.277, 0.0, 10.000767, 9.9988165 
1.9051348e+3, 2.4293604e+2, -511958.47, -686076.2, 30534.045, -0.08398808, 0.029215978, -506759.13, 52460.11, 0.0, 10.000859, 9.998528 
1.9051751e+3, 2.529344e+2, -519366.4, -612381.1, 61788.965, 0.05758999, -0.040014453, -488538.06, -27300.408, 0.0, 10.000041, 9.99874 
1.9052137e+3, 2.6293316e+2, -394799.3, -381676.16, 42837.38, 0.07130775, -0.066276684, -344900.75, 18348.164, 0.000000016068412, 9.999657, 9.999868 
1.9052482e+3, 2.7293321e+2, -152796.16, -145386.08, -49708.93, -0.21609941, -0.13093832, -99244.305, 165996.13, 0.000006020835, 10.000356, 10.000472 
1.9052856e+3, 2.8293198e+2, -149883.36, -426792.1, -23697.764, -0.23206578, -0.16773418, -147869.95, 19378.326, 0.00007835106, 10.001126, 9.997507 
1.905329e+3, 2.9292744e+2, 66206.44, -322172.78, 18229.975, 0.2807379, -0.3729586, 67060.25, 136356.02, 0.00035541714, 10.002185, 9.997016 
1.9053645e+3, 3.029261e+2, 310374.47, 27504.332, 64819.867, -0.010381577, -0.27498537, 324520.53, 324520.53, 0.0009238466, 10.002622, 9.99891 
1.9054015e+3, 3.1292835e+2, 138572.38, -93498.74, -76071.01, -0.08587987, -0.029582001, 161284.97, 161284.97, 0.0017193767, 10.001547, 9.998585 
1.914678e+3, 1.2289301e+2, -1923153.4, -1879343.0, -328004.5, -0.20506613, -0.18980564, -1572513.1, 163125.05, 0.18042894, 9.998824, 9.999528 
1.9147144e+3, 1.3289586e+2, -1790692.3, -1638513.6, 70465.57, -0.19867347, -0.07709516, -1610896.8, 26716.355, 0.12358676, 9.998546, 10.000513 
1.914753e+3, 1.4289576e+2, -1676999.4, -1544828.6, 10672.803, -0.23512402, -0.07161045, -1543972.4, -4358.0625, 0.069141634, 9.99864, 10.000457 
1.9147928e+3, 1.5289767e+2, -1533587.4, -1252380.6, 54972.11, -0.11457374, -0.096637405, -1242016.3, 199576.36, 0.028615344, 9.998217, 10.002019 
1.9148318e+3, 1.6289966e+2, -1587917.1, -1432820.1, 23688.326, -0.042300474, -0.008561845, -1429282.9, -85711.97, 0.0073205116, 9.998058, 10.000151 
1.9148684e+3, 1.7289826e+2, -1407889.0, -1303530.4, -2706.7708, -0.1433129, -0.18188566, -1303460.3, -57876.78, 0.00070924795, 9.998697, 10.00003 
1.9149058e+3, 1.8289755e+2, -1267997.0, -1222871.0, -14277.183, -0.19238855, -0.22655153, -1218733.4, -71141.9, 0.0000023137907, 9.999125, 9.99973 
1.9149455e+3, 1.9289961e+2, -1173377.6, -1094105.6, 28298.703, -0.07483612, -0.040794462, -1085040.1, -35464.188, 0.0, 9.99899, 9.999993 
1.9149843e+3, 2.0290078e+2, -1085722.8, -1017324.8, -24372.92, -0.025642063, 0.100314654, -1009528.44, -57961.957, 0.0, 9.998956, 9.999871 
1.9150206e+3, 2.1289971e+2, -907675.94, -846431.25, -35663.082, -0.099947035, -0.051429734, -830047.44, 23525.467, 0.0, 9.99938, 10.000152 
1.9150576e+3, 2.228984e+2, -839810.4, -918241.2, -3642.4863, -0.1621451, -0.13006726, -839641.56, -84058.63, 0.0, 9.999802, 9.998812 
1.9150965e+3, 2.328968e+2, -650568.3, -782643.3, 22989.254, -0.16217358, -0.19271596, -646681.2, 10917.439, 0.0, 10.000488, 9.99872 
1.9151354e+3, 2.4289572e+2, -495851.25, -579735.9, -3165.57, -0.12534687, -0.18123022, -495731.94, 63877.52, 0.0, 10.000539, 9.999415 
1.9151749e+3, 2.5289592e+2, -472416.56, -455940.1, 46120.676, -0.0014155884, -0.17950678, -417327.66, 44280.227, 0.0, 9.999789, 9.999935 
1.9152133e+3, 2.6289588e+2, -508857.0, -554733.4, 38355.785, 0.035518482, -0.12048655, -487103.72, -123494.74, 0.000000038925435, 9.999374, 9.998821 
1.9152498e+3, 2.7289477e+2, -306249.25, -402628.6, -3729.956, -0.096055426, -0.145629, -306105.1, -40485.688, 0.0000054500297, 10.000099, 9.998827 
1.9152883e+3, 2.8289333e+2, -139629.08, -335424.3, -3348.2302, -0.11008717, -0.12951943, -139571.84, 28061.258, 0.00006657065, 10.000825, 9.9982815 
1.9153294e+3, 2.928919e+2, 103275.15, -149898.45, 83073.91, 0.08881915, -0.16557316, 128100.01, 197747.48, 0.0003045757, 10.001781, 9.998395 
1.9153655e+3, 3.0289218e+2, 250811.19, 6513.049, 13639.998, -0.22220424, 0.01897863, 251570.4, 251570.4, 0.0008128925, 10.002183, 9.998966 
1.9154043e+3, 3.128886e+2, 40799.203, -101896.7, -17365.537, -0.0077561294, -0.3309249, 42882.117, 42882.117, 0.0015555571, 10.000772, 9.998865 
1.9246785e+3, 1.2285872e+2, -2135421.3, -2061838.5, -260992.14, 0.030055644, -0.003837549, -1835057.3, -99080.24, 0.18987963, 9.997621, 9.998743 
1.924714e+3, 1.3286108e+2, -1652532.5, -1616834.4, 108537.51, -0.12684308, 0.082942784, -1524688.0, 113267.89, 0.13060497, 9.999689, 10.000171 
1.924752e+3, 1.4285886e+2, -1701825.3, -1614278.6, 136101.06, -0.18353699, -0.07607705, -1515084.8, 24892.352, 0.07352615, 9.99874, 9.999926 
1.9247912e+3, 1.5286097e+2, -1480098.0, -1258778.4, 46299.684, -0.09507305, -0.052341543, -1249483.0, 192471.14, 0.030745408, 9.998742, 10.001709 
1.9248304e+3, 1.6286252e+2, -1489001.4, -1409622.5, 10945.061, -0.012615301, 0.021287128, -1408141.0, -64204.35, 0.008026891, 9.99885, 9.999921 
1.9248675e+3, 1.7286086e+2, -1312637.4, -1278751.9, 25669.086, -0.12473564, -0.16138908, -1264938.1, -18987.451, 0.0008187495, 9.999441, 9.999844 
1.9249053e+3, 1.8285988e+2, -1211554.8, -1206528.9, 60285.004, -0.1511771, -0.21892734, -1148704.5, -744.7805, 0.0000031359323, 9.999525, 9.999659 
1.9249451e+3, 1.9286115e+2, -1142299.6, -1080952.4, 36378.164, -0.016705345, -0.115486264, -1064041.9, -14092.1875, 0.0, 9.99917, 9.999998 
1.9249839e+3, 2.0286192e+2, -1076276.9, -1048153.44, 16213.531, 0.040595554, -0.007876759, -1040753.3, -88809.52, 0.0, 9.999167, 9.999562 
1.9250204e+3, 2.1286134e+2, -785784.6, -833002.06, -23260.746, -0.10097654, -0.067020975, -776250.75, 77697.75, 0.0, 10.000412, 9.999752 
1.9250578e+3, 2.2286037e+2, -656215.3, -790553.0, 13792.01, -0.17106248, -0.09829169, -654814.0, 101142.766, 0.0, 10.000926, 9.999134 
1.9250971e+3, 2.3285852e+2, -683929.5, -738849.25, 41226.875, -0.1113082, -0.23375036, -661854.56, -3881.9678, 0.0, 10.00002, 9.99924 
1.9251361e+3, 2.4285746e+2, -629207.6, -625888.2, 51729.6, -0.043670114, -0.2619491, -575791.7, -15809.736, 0.0, 9.999518, 9.9995985 
1.9251744e+3, 2.528584e+2, -416365.84, -427471.38, -2793.4636, -0.0109563, -0.19367747, -415702.75, 46271.4, 0.0, 10.000137, 9.999981 
1.9252129e+3, 2.6285866e+2, -329653.97, -492842.97, 19665.512, 0.013840918, -0.09195275, -327317.56, 36655.38, 0.000000047147957, 10.0007305, 9.998585 
1.9252512e+3, 2.7285707e+2, -152098.4, -363930.28, 31083.314, -0.013041486, -0.13910969, -147631.56, 118359.04, 0.0000044268, 10.00132, 9.998503 
1.9252905e+3, 2.828556e+2, -9300.221, -239771.9, 98715.36, 0.018959356, -0.118000135, 27200.623, 195205.73, 0.000054025306, 10.001603, 9.998547 
1.9253312e+3, 2.9285526e+2, 100776.25, -116463.56, 73431.516, 0.109939575, -0.07184341, 123268.78, 193275.25, 0.0002523606, 10.001599, 9.998713 
1.9253679e+3, 3.0285457e+2, 188536.94, -59020.39, -9876.536, -0.16176982, 0.0047945967, 188930.34, 188930.34, 0.0006949562, 10.001895, 9.998659 
1.9254069e+3, 3.1285113e+2, 343086.38, 59519.984, -127839.64, 0.09806636, -0.27328044, 392210.1, 392210.1, 0.0013694268, 10.002704, 9.99908 
1.9346742e+3, 1.2282226e+2, -2049055.9, -1882299.9, 23683.238, -0.23060311, -0.029666636, -1879001.5, -142665.28, 0.1997211, 9.997633, 9.99996 
1.9347161e+3, 1.3282518e+2, -1592785.8, -1500773.9, 83266.5, 0.08419496, 0.035668276, -1451649.0, 186653.86, 0.13795441, 9.99968, 10.001056 
1.934749e+3, 1.4282326e+2, -1751882.8, -1752922.5, 108117.16, -0.411525, -0.12263504, -1644284.3, -103966.234, 0.07814733, 9.998877, 9.998905 
1.9347896e+3, 1.5282343e+2, -1605150.4, -1532771.4, 60624.254, -0.18260132, -0.10923955, -1498356.5, -56037.184, 0.033007, 9.99881, 9.999764 
1.9348289e+3, 1.6282302e+2, -1456168.4, -1369430.3, 12901.664, -0.08716604, -0.11960031, -1367551.9, -23227.5, 0.008786739, 9.998961, 10.000149 
1.9348674e+3, 1.7282404e+2, -1251348.0, -1158757.1, 57769.09, -0.10569996, -0.111323066, -1131021.9, 115288.6, 0.00094156526, 9.999463, 10.000665 
1.9349058e+3, 1.8282428e+2, -1213579.4, -1219468.5, 37030.84, -0.10561767, -0.09360109, -1179376.3, -31071.244, 0.0000044945964, 9.999564, 9.99955 
1.9349438e+3, 1.9282216e+2, -1189145.1, -1156493.0, 34445.277, -0.08022765, -0.2906498, -1134700.6, -84375.18, 0.0, 9.999071, 9.999534 
1.934982e+3, 2.0282084e+2, -1135222.8, -1132620.5, 34012.473, -0.097544715, -0.34334725, -1099884.3, -147544.67, 0.0, 9.999003, 9.9990635 
1.9350202e+3, 2.128218e+2, -860590.3, -930812.06, 37570.797, -0.16007145, -0.1957697, -844278.06, 10056.688, 0.0, 10.000169, 9.999197 
1.9350588e+3, 2.2282223e+2, -658854.4, -715310.4, -18649.188, -0.17282663, -0.07774838, -653250.25, 103082.16, 0.0, 10.000583, 9.999814 
1.9350977e+3, 2.328215e+2, -646577.44, -605746.4, 20336.207, -0.061827283, -0.2028591, -597346.06, 60989.79, 0.0, 9.999782, 10.000267 
1.9351362e+3, 2.4282113e+2, -705426.8, -720186.0, 46413.902, -0.015588427, -0.20138207, -665809.5, -105471.555, 0.0, 9.99924, 9.999091 
1.9351739e+3, 2.5282168e+2, -514486.88, -576820.94, 36649.89, -0.097486496, -0.08670175, -497543.63, -35206.332, 0.0, 9.9999075, 9.999066 
1.9352123e+3, 2.6282144e+2, -352043.8, -460974.38, 25743.287, -0.14243443, 0.0064567225, -346266.38, 18075.898, 0.00000001782158, 10.000402, 9.998958 
1.9352518e+3, 2.7281982e+2, -146107.7, -272134.25, 69333.68, -0.09904302, -0.110847116, -115430.89, 150925.4, 0.0000033385966, 10.001003, 9.999274 
1.935292e+3, 2.8281876e+2, -72842.266, -307726.8, 75607.52, -0.021895224, -0.088487744, -50609.258, 117755.37, 0.00004416703, 10.001315, 9.998226 
1.9353333e+3, 2.9281783e+2, 23090.861, -206649.06, 92734.06, 0.13501021, -0.050627626, 55851.23, 126222.44, 0.00021030588, 10.001303, 9.998232 
1.9353712e+3, 3.0281374e+2, 68894.1, -218216.72, -7891.1616, -0.056783825, -0.24346991, 69110.82, 69110.82, 0.0005915191, 10.001516, 9.997746 
1.935407e+3, 3.128137e+2, 219931.16, 9982.092, -22805.252, -0.20580246, -0.10000182, 222379.77, 222379.77, 0.0011872258, 10.001889, 9.999097 
1.9446702e+3, 1.2278206e+2, -1942989.4, -1818841.0, 124177.836, -0.40640604, -0.21490896, -1742086.8, -5357.2817, 0.20999403, 9.998296, 10.000081 
1.9447148e+3, 1.3278724e+2, -1841023.8, -1536797.6, -110177.94, 0.11918834, 0.032743603, -1501087.4, 137583.63, 0.14565058, 9.997541, 10.001853 
1.9447485e+3, 1.4278463e+2, -1827321.3, -1808427.3, -31598.35, -0.30446544, -0.25563684, -1784894.0, -244202.28, 0.083007626, 9.998415, 9.998768 
1.9447885e+3, 1.5278478e+2, -1660912.3, -1655157.1, -40222.883, -0.14436664, -0.16722457, -1617709.0, -175013.23, 0.03539992, 9.99883, 9.998922 
1.9448273e+3, 1.6278417e+2, -1493285.6, -1367878.1, -2561.2227, -0.11456821, -0.1523296, -1367825.9, -23121.602, 0.009600047, 9.998619, 10.000331 
1.9448665e+3, 1.727859e+2, -1353084.3, -1157713.9, -9272.975, -0.08052041, -0.11407877, -1157274.8, 89408.52, 0.0010784023, 9.998547, 10.001116 
1.9449054e+3, 1.8278678e+2, -1330124.8, -1238694.1, -14818.26, -0.027318992, -0.07375801, -1236352.5, -87681.26, 0.0000066792873, 9.99863, 9.999862 
1.9449429e+3, 1.9278465e+2, -1111884.6, -1086195.3, 3233.4, -0.0755044, -0.29392636, -1085794.6, -35103.535, 0.0, 9.999502, 9.999795 
1.9449809e+3, 2.027834e+2, -999598.44, -1061233.5, 86468.59, -0.11773311, -0.3556033, -938619.8, 14084.718, 0.0, 9.999917, 9.999113 
1.9450203e+3, 2.1278441e+2, -940300.3, -968883.06, 104191.35, -0.13322654, -0.20044969, -849424.75, 5275.3696, 0.0, 9.999625, 9.999197 
1.9450594e+3, 2.2278503e+2, -806292.7, -799430.3, 64957.496, -0.107386425, -0.0621763, -737813.44, 18883.809, 0.0, 9.999608, 9.999708 
1.9450979e+3, 2.3278466e+2, -566188.44, -585585.44, -8309.841, -0.027779149, -0.13497569, -563115.3, 95583.125, 0.0, 10.000395, 10.000119 
1.9451363e+3, 2.4278443e+2, -477433.16, -621072.8, 18623.434, 0.008322602, -0.10839663, -475057.84, 85642.28, 0.0, 10.000882, 9.998972 
1.9451742e+3, 2.5278425e+2, -378054.84, -532130.94, 27674.588, -0.08913252, -0.0458423, -373234.84, 89470.56, 0.0, 10.00094, 9.998874 
1.9452131e+3, 2.6278335e+2, -254440.95, -413840.88, 70435.59, -0.12752701, -0.009233679, -227777.13, 136938.86, 0.000000002142629, 10.001049, 9.998978 
1.9452532e+3, 2.7278167e+2, -87593.086, -244683.28, 36988.918, -0.07416493, -0.13521968, -79319.336, 187410.06, 0.0000030022966, 10.001368, 9.999308 
1.9452937e+3, 2.8278062e+2, -13297.273, -294153.72, 53713.125, 0.007983263, -0.10520765, -3375.286, 165361.33, 0.00003904193, 10.001778, 9.998108 
1.9453348e+3, 2.9277974e+2, 199291.03, -133770.63, 50385.45, 0.11510012, -0.04424006, 206746.44, 277488.6, 0.00018459432, 10.002544, 9.998149 
1.9453737e+3, 3.027741e+2, 240562.16, -210765.98, 9314.35, 0.01108965, -0.36062527, 240754.3, 240754.3, 0.00051477127, 10.003042, 9.99705 
1.9454102e+3, 3.1277406e+2, 342066.1, -8002.724, -93235.766, -0.09232916, -0.11371243, 365349.5, 365349.5, 0.0010271312, 10.002997, 9.998468 
1.9546714e+3, 1.2274184e+2, -1954073.1, -1938881.3, 177474.39, -0.20783988, -0.17889968, -1768840.3, -31720.857, 0.22070916, 9.998631, 9.999137 
1.9547099e+3, 1.3274732e+2, -1775118.5, -1442132.3, -73940.09, -0.16625522, 0.09055212, -1426452.0, 212607.89, 0.15369554, 9.997624, 10.002582 
1.9547503e+3, 1.4274262e+2, -1748519.5, -1680648.5, -17233.006, -0.028864024, -0.5009928, -1676523.6, -135421.8, 0.08810495, 9.998572, 9.999565 
1.9547878e+3, 1.5274481e+2, -1637673.5, -1614790.4, -18544.256, -0.11788117, -0.2399743, -1604442.1, -161357.14, 0.037922986, 9.9988575, 9.999188 
1.9548248e+3, 1.62746e+2, -1465730.0, -1338669.1, -27734.754, -0.27853197, -0.071953245, -1332879.1, 12196.774, 0.010466628, 9.998735, 10.000478 
1.9548643e+3, 1.7274642e+2, -1349929.0, -1157946.3, -1867.6993, -0.17419843, -0.16707006, -1157928.1, 89141.086, 0.0012294218, 9.998566, 10.001108 
1.9549039e+3, 1.8274722e+2, -1274455.0, -1131240.8, -1992.8798, -0.08242262, -0.16234627, -1131213.0, 17846.842, 0.000009908067, 9.998669, 10.000577 
1.9549422e+3, 1.9274858e+2, -1062714.3, -961724.56, 47978.266, -0.13438287, -0.12117097, -942565.7, 108481.805, 0.0, 9.999409, 10.000694 
1.9549806e+3, 2.027494e+2, -985352.0, -990007.25, 68508.016, -0.18342134, -0.053603917, -919132.06, 33908.836, 0.0, 9.999734, 9.99969 
1.9550198e+3, 2.1274911e+2, -936133.25, -909208.44, 105440.76, -0.15646836, -0.08089932, -816374.2, 38671.6, 0.0, 9.999408, 9.999708 
1.955059e+3, 2.2274865e+2, -908462.1, -943877.94, 74155.42, -0.14045943, -0.0490928, -849929.7, -92877.43, 0.0, 9.99931, 9.998863 
1.9550973e+3, 2.3274803e+2, -690234.94, -781176.75, 36867.85, -0.1394831, -0.030092252, -677166.6, -18106.117, 0.0, 10.000139, 9.998895 
1.9551359e+3, 2.4274729e+2, -525032.75, -638349.56, 13527.349, -0.14756396, 0.02063157, -523440.28, 37628.445, 0.0, 10.000533, 9.999019 
1.955175e+3, 2.5274613e+2, -385036.56, -484660.63, 46171.215, -0.12901461, -0.061177295, -366929.38, 96149.69, 0.0, 10.000683, 9.999315 
1.9552144e+3, 2.6274464e+2, -321925.13, -488075.28, 62635.355, -0.11515849, -0.09878143, -300958.6, 64133.55, 0.00000003752054, 10.000757, 9.998612 
1.9552547e+3, 2.7274278e+2, -162232.42, -344388.28, 65241.305, -0.08659198, -0.19040306, -141276.36, 125832.0, 0.0000033251551, 10.001135, 9.998733 
1.9552949e+3, 2.8274152e+2, -76827.27, -338072.66, 57682.74, -0.07440669, -0.13925196, -64657.86, 104460.34, 0.000036409245, 10.001406, 9.997982 
1.9553354e+3, 2.9274124e+2, 152961.02, -131958.61, 103784.09, -0.09718449, -0.025691258, 186756.52, 257873.66, 0.00016708692, 10.002139, 9.998348 
1.9553755e+3, 3.0273575e+2, 125546.836, -347962.9, -13189.894, -0.16968182, -0.31792772, 125913.97, 125913.97, 0.00045041088, 10.002582, 9.996344 
1.955417e+3, 3.1273222e+2, 190411.38, -180943.69, -65721.12, 0.21293853, -0.3314764, 201699.34, 201699.34, 0.0008724613, 10.002431, 9.997532 
1.9646719e+3, 1.22703224e+2, -2119267.8, -2015730.9, 226130.66, 0.05920713, -0.10720696, -1835518.6, -98025.95, 0.23177752, 9.99758, 9.999059 
1.964706e+3, 1.3270696e+2, -1730999.9, -1465673.6, -10927.323, -0.31198588, 0.05284039, -1465224.4, 174230.1, 0.1620495, 9.99823, 10.002048 
1.9647507e+3, 1.4270267e+2, -1708810.1, -1598763.1, -20671.346, 0.17884848, -0.4904496, -1595008.3, -53513.953, 0.093428105, 9.9986, 10.000088 
1.964787e+3, 1.527055e+2, -1620849.4, -1521041.1, -39408.035, -0.060437337, -0.2382882, -1507357.4, -63888.836, 0.04057487, 9.998624, 9.999919 
1.9648233e+3, 1.6270699e+2, -1495427.4, -1345540.4, -7063.1196, -0.26842248, -0.09458155, -1345208.3, 246.93388, 0.011385711, 9.998505, 10.00054 
1.9648625e+3, 1.7270689e+2, -1366924.0, -1179247.0, -20469.613, -0.19435726, -0.22788985, -1177040.4, 70414.64, 0.0013940044, 9.998516, 10.000982 
1.964902e+3, 1.8270776e+2, -1305114.5, -1119991.1, -1927.3826, -0.10314587, -0.21792415, -1119971.0, 29475.346, 0.000014255441, 9.998341, 10.000816 
1.9649413e+3, 1.9271038e+2, -1207936.0, -996689.7, -19423.197, -0.0857974, -0.08292746, -994918.7, 56504.133, 0.0, 9.998254, 10.001012 
1.9649805e+3, 2.02712e+2, -1136338.1, -1009235.9, -3041.689, -0.081797734, 0.026777988, -1009163.1, -55754.703, 0.0, 9.998453, 10.0001745 
1.9650196e+3, 2.1271147e+2, -894858.9, -833245.5, 7878.6733, -0.11024983, -0.07652842, -832254.0, 23159.314, 0.0, 9.999425, 10.000226 
1.9650587e+3, 2.2271074e+2, -807291.1, -912936.25, 28280.865, -0.11594324, -0.0981197, -800196.8, -42775.86, 0.0, 10.000084, 9.998709 
1.9650975e+3, 2.3270962e+2, -697785.5, -831520.75, 17934.377, -0.12806308, -0.08964859, -695422.2, -35987.574, 0.0, 10.00027, 9.998495 
1.9651365e+3, 2.427084e+2, -538974.2, -664955.1, 45116.504, -0.11016508, -0.055612445, -524483.7, 36963.965, 0.0, 10.000475, 9.998892 
1.9651762e+3, 2.5270742e+2, -396350.78, -499035.16, 11500.125, -0.060550574, -0.10980676, -395078.56, 68376.875, 0.0, 10.000621, 9.999268 
1.9652161e+3, 2.6270604e+2, -317087.66, -530391.44, 53640.02, -0.027627489, -0.11351405, -304358.3, 61108.9, 0.00000006167767, 10.001003, 9.9982 
1.9652562e+3, 2.7270362e+2, -78624.45, -369547.13, 16538.88, -0.0571134, -0.20095289, -77687.234, 189803.1, 0.000003603985, 10.002007, 9.998134 
1.9652967e+3, 2.8270167e+2, 72757.88, -261254.8, 28414.082, -0.05685809, -0.18308388, 75157.8, 244666.19, 0.00003430298, 10.002417, 9.998022 
1.9653377e+3, 2.9270142e+2, 89014.734, -151663.38, 31216.754, -0.041250538, -0.07386407, 92997.734, 164506.1, 0.00015136057, 10.001646, 9.998464 
1.9653782e+3, 3.0269778e+2, 54026.234, -329713.1, 12117.386, -0.08869885, -0.20349109, 54408.49, 54408.49, 0.00039140965, 10.001844, 9.996835 
1.9654201e+3, 3.1269318e+2, 443600.72, 21974.504, -76707.5, 0.23737568, -0.3714922, 457122.66, 457122.66, 0.0007269925, 10.003784, 9.9983 
1.9746695e+3, 1.2266598e+2, -2012121.5, -1876958.8, -109902.31, -0.035708368, -0.09556194, -1815521.6, -77670.48, 0.24301729, 9.997923, 9.999849 
1.9747037e+3, 1.3266625e+2, -1862331.5, -1742755.4, 39770.94, -0.41018873, -0.09739711, -1730735.8, -90882.234, 0.17062773, 9.998366, 9.999861 
1.974749e+3, 1.4266485e+2, -1667910.9, -1547722.8, -39238.633, 0.08397822, -0.22600153, -1536046.6, 5822.2676, 0.09895461, 9.998734, 10.000383 
1.9747853e+3, 1.5266697e+2, -1532684.1, -1351558.0, -28982.934, -0.11272628, -0.15123339, -1347033.4, 96812.2, 0.04335473, 9.998662, 10.001098 
1.9748226e+3, 1.6266704e+2, -1472357.0, -1324876.3, -22802.348, -0.23095968, -0.22059783, -1321431.3, 24411.822, 0.012356995, 9.998628, 10.000624 
1.9748606e+3, 1.7266728e+2, -1382754.8, -1212177.9, -9741.035, -0.26421863, -0.2972201, -1211623.4, 36217.707, 0.0015709848, 9.998523, 10.000752 
1.9748993e+3, 1.826683e+2, -1319693.6, -1160900.8, -22666.18, -0.2502115, -0.24381605, -1157728.8, -7896.6245, 0.000019593592, 9.998378, 10.000524 
1.97494e+3, 1.9266991e+2, -1239835.8, -1041052.6, -11582.162, -0.069490045, -0.18296042, -1040380.06, 11438.86, 0.0, 9.99816, 10.000753 
1.9749802e+3, 2.0267107e+2, -1140742.4, -971193.5, 13246.881, 0.01905429, -0.11795118, -970164.75, -16355.882, 0.0, 9.998254, 10.000529 
1.975019e+3, 2.1267161e+2, -889369.1, -768419.3, 57394.4, -0.11864494, -0.16976319, -745519.56, 110282.36, 0.0, 9.999194, 10.000781 
1.9750582e+3, 2.2267145e+2, -830129.4, -884918.9, 25550.223, -0.20573246, -0.18314941, -820063.6, -62261.703, 0.0, 9.999751, 9.9990635 
1.975098e+3, 2.3266941e+2, -705487.4, -800777.25, 42550.844, -0.11724231, -0.29863974, -689252.6, -29431.664, 0.0, 10.000059, 9.99881 
1.9751379e+3, 2.4266791e+2, -605921.6, -740130.44, 34803.383, -0.044746183, -0.3024306, -597433.2, -35597.563, 0.0, 10.000193, 9.998515 
1.9751774e+3, 2.5266817e+2, -457511.9, -586946.5, 31006.615, -0.019266808, -0.1783656, -450467.53, 13366.698, 0.0, 10.000444, 9.998751 
1.975217e+3, 2.6266748e+2, -411419.06, -654599.7, 67069.1, -0.043363947, -0.056884557, -394148.06, -28305.7, 0.000000055759365, 10.000695, 9.997493 
1.9752578e+3, 2.7266425e+2, -169714.78, -487521.47, 75141.41, -0.12628679, -0.16376585, -152844.11, 115031.14, 0.0000036492006, 10.001706, 9.997458 
1.9752988e+3, 2.8266132e+2, 20184.516, -295862.38, -5581.4106, -0.12052193, -0.20196733, 20283.053, 190187.69, 0.00003270768, 10.002083, 9.997953 
1.9753408e+3, 2.9266024e+2, 65054.152, -153320.39, 30462.828, 0.08337917, -0.19100438, 69224.03, 141139.64, 0.00013942833, 10.00143, 9.99856 
1.9753812e+3, 3.0266005e+2, 47454.633, -222662.17, 44394.953, -0.0028383336, -0.013300025, 54564.03, 54564.03, 0.00034788318, 10.00136, 9.997788 
1.975422e+3, 3.126566e+2, 492388.34, 329624.7, 28237.006, -0.0031119671, -0.22058336, 497147.88, 497147.88, 0.0006200003, 10.002956, 10.000784 
1.9846676e+3, 1.22625284e+2, -2115686.5, -1785562.1, -165422.75, 0.06592737, -0.35061294, -1716936.0, 21309.512, 0.25424254, 9.996548, 10.001222 
1.9847026e+3, 1.3262567e+2, -1814828.6, -1804713.4, 101209.96, -0.36020362, -0.2847606, -1708434.8, -68186.7, 0.17932345, 9.999026, 9.999144 
1.9847478e+3, 1.426271e+2, -1655944.6, -1523174.4, 61585.516, 0.1227244, -0.09332212, -1499006.9, 43230.11, 0.104643695, 9.99873, 10.000588 
1.984784e+3, 1.5262862e+2, -1583559.0, -1310136.3, 8522.456, -0.075523585, -0.13544077, -1309870.9, 134347.2, 0.046255346, 9.998015, 10.001722 
1.984821e+3, 1.6262828e+2, -1622412.9, -1412919.4, 36884.516, -0.18552487, -0.27891502, -1406615.0, -60396.074, 0.013380272, 9.997682, 10.000463 
1.9848593e+3, 1.7262879e+2, -1390804.3, -1257572.6, 19286.008, -0.23514877, -0.29608828, -1254837.1, -6620.836, 0.0017591557, 9.998657, 10.000368 
1.984898e+3, 1.826298e+2, -1206742.9, -1123504.1, 16539.041, -0.22532406, -0.21577588, -1120338.3, 29870.006, 0.0000256483, 9.999212, 10.000377 
1.9849382e+3, 1.9263057e+2, -1096532.5, -979433.4, 12297.322, -0.08580021, -0.2344621, -978155.9, 74045.516, 0.0, 9.999144, 10.000709 
1.9849785e+3, 2.0263118e+2, -1048261.94, -947162.3, 80748.99, 0.00869632, -0.21551257, -902445.75, 51750.01, 0.0, 9.998976, 10.000354 
1.9850186e+3, 2.1263199e+2, -918994.9, -811240.4, 41527.914, -0.06610855, -0.21359457, -797093.2, 59094.023, 0.0, 9.999118, 10.000527 
1.9850585e+3, 2.2263211e+2, -841936.8, -843508.06, -468.8159, -0.10348031, -0.19830708, -841807.56, -83622.984, 0.0, 9.999459, 9.999485 
1.9850986e+3, 2.3263055e+2, -641847.6, -702876.6, 7028.766, -0.05366206, -0.32572883, -641048.56, 19148.184, 0.0, 10.000208, 9.999406 
1.9851388e+3, 2.4262919e+2, -540082.06, -746693.2, 37520.613, 0.0045167347, -0.3369532, -533479.3, 28729.408, 0.0, 10.000867, 9.998114 
1.9851784e+3, 2.5262836e+2, -349719.8, -621227.44, -16607.033, 0.0067356485, -0.2487605, -348707.8, 115511.43, 0.0, 10.001587, 9.99795 
1.9852187e+3, 2.6262692e+2, -230744.53, -573453.2, 48668.668, -0.007287486, -0.14793032, -223967.05, 142268.56, 0.00000004684117, 10.0019655, 9.997432 
1.98526e+3, 2.7262422e+2, -172254.19, -475438.13, 73306.25, -0.06108653, -0.20366283, -155459.9, 112803.57, 0.000003631824, 10.001637, 9.997567 
1.9853014e+3, 2.8262186e+2, -46691.58, -327427.6, 52447.84, -0.031607505, -0.19607455, -37213.152, 133075.45, 0.000030883682, 10.001642, 9.997933 
1.9853428e+3, 2.9262027e+2, 178401.58, -114138.17, 17188.348, 0.109673046, -0.22151324, 179408.03, 251713.86, 0.00012822116, 10.002313, 9.998383 
1.9853827e+3, 3.0261976e+2, 250519.52, -109123.01, 66396.27, -0.02421949, -0.069288686, 262385.9, 262385.9, 0.0003141248, 10.002649, 9.997955 
1.9854258e+3, 3.126181e+2, 406641.0, 283274.75, -109197.555, 0.14391159, -0.113817655, 470372.84, 470372.84, 0.00054965925, 10.002313, 10.000794 
1.994663e+3, 1.22586295e+2, -1991533.8, -1609335.8, 51645.46, -0.13265274, -0.31994677, -1602480.1, 136145.55, 0.26535824, 9.996715, 10.002635 
1.994702e+3, 1.325851e+2, -1734821.1, -1665521.0, 127901.74, -0.34191766, -0.5217339, -1567658.9, 72980.54, 0.18805622, 9.999135, 10.000124 
1.9947474e+3, 1.4258923e+2, -1616937.8, -1485539.6, 14789.903, 0.14840756, -0.12352682, -1483895.5, 58704.34, 0.11045076, 9.9988985, 10.000787 
1.9947824e+3, 1.5259033e+2, -1575933.9, -1296969.0, -7311.1123, -0.07292729, -0.21068126, -1296777.5, 147809.28, 0.04926506, 9.998033, 10.00181 
1.994818e+3, 1.625906e+2, -1637291.5, -1463989.4, 46427.43, -0.29809096, -0.28314576, -1452335.3, -105751.28, 0.014456319, 9.997766, 10.0000725 
1.9948582e+3, 1.7259137e+2, -1426089.6, -1329370.8, 65981.766, -0.22698255, -0.22293365, -1295924.1, -47343.418, 0.0019582892, 9.998655, 9.999873 
1.9948982e+3, 1.8259214e+2, -1199191.8, -1116763.9, 7972.25, -0.17736314, -0.13633673, -1115999.9, 34575.902, 0.000032105352, 9.999254, 10.0004015 
1.9949359e+3, 1.9259237e+2, -1094627.0, -951011.25, 17814.355, -0.2548206, -0.23076186, -948834.5, 103736.0, 0.0, 9.999048, 10.000945 
1.9949749e+3, 2.0259249e+2, -1127096.6, -1075381.8, 64943.332, -0.2710338, -0.24445565, -1031337.56, -76769.78, 0.0, 9.998816, 9.999552 
1.9950177e+3, 2.1259253e+2, -1022947.75, -986524.56, 60530.938, -0.080914974, -0.21261021, -941524.94, -84954.805, 0.0, 9.998938, 9.999412 
1.9950595e+3, 2.2259264e+2, -856643.94, -805836.6, 11684.883, 0.024664635, -0.1474239, -803278.1, -44708.17, 0.0, 9.999164, 9.9998865 
1.9950989e+3, 2.32593e+2, -610961.9, -588554.9, 52160.65, -0.06586694, -0.16903447, -546408.06, 114153.95, 0.0, 9.999984, 10.000299 
1.9951385e+3, 2.4259202e+2, -634270.1, -863125.8, 47333.79, -0.13310274, -0.17482461, -624866.56, -62297.77, 0.0, 10.000524, 9.997481 
1.995179e+3, 2.5258783e+2, -459412.7, -795866.8, 26452.564, -0.09540749, -0.3210504, -457345.66, 7265.716, 0.0, 10.001355, 9.996861 
1.9952202e+3, 2.6258433e+2, -258356.19, -552967.56, 28722.477, -0.06902415, -0.37210757, -255582.06, 111065.13, 0.000000042002604, 10.001639, 9.997727 
1.9952622e+3, 2.7258348e+2, -163732.67, -384351.97, 75757.414, -0.013567071, -0.3160786, -140223.77, 128432.91, 0.0000035134383, 10.001338, 9.998331 
1.9953038e+3, 2.825828e+2, -123712.4, -400693.66, 48476.81, 0.003828268, -0.17159213, -115473.15, 55191.76, 0.00002820436, 10.001265, 9.997615 
1.9953431e+3, 2.92581e+2, 86666.15, -224799.72, 61421.758, -0.11516256, -0.17607884, 98341.04, 171025.55, 0.00011358975, 10.001958, 9.997795 
1.9953825e+3, 3.0257705e+2, 120209.73, -237246.77, 37085.57, -0.34522063, -0.32036623, 124016.76, 124016.76, 0.0002776181, 10.002075, 9.9973345 
1.9954294e+3, 3.1257802e+2, 111745.69, -148702.0, -15045.407, 0.21534577, -0.029488314, 112611.94, 112611.94, 0.00049017585, 10.00159, 9.998145 
2.0046595e+3, 1.22546725e+2, -1850479.0, -1617459.0, 96309.19, -0.19548026, -0.2549231, -1582806.6, 156204.25, 0.27641812, 9.998056, 10.001933 
2.0047027e+3, 1.3254626e+2, -1767172.9, -1542490.9, 65182.156, -0.12945336, -0.5186155, -1524950.4, 116065.625, 0.1968332, 9.998207, 10.001508 
2.0047444e+3, 1.4255036e+2, -1826336.3, -1586565.4, -16517.887, 0.057183072, -0.2082594, -1585432.8, -42457.164, 0.11636926, 9.997495, 10.000715 
2.0047803e+3, 1.5255114e+2, -1535437.4, -1335996.8, -88326.516, -0.086426966, -0.2854687, -1302504.0, 142463.45, 0.05238356, 9.998557, 10.001287 
2.0048167e+3, 1.6255146e+2, -1463453.5, -1415008.0, -26473.07, -0.2522827, -0.3077773, -1403348.1, -56383.082, 0.015589432, 9.99907, 9.999796 
2.0048574e+3, 1.7255196e+2, -1445585.1, -1365493.6, -9424.48, -0.15979089, -0.25967273, -1364399.6, -115435.805, 0.0021699998, 9.998587, 9.99968 
2.0048977e+3, 1.8255222e+2, -1373627.3, -1252902.4, -29036.549, -0.07972554, -0.19335352, -1246281.6, -95318.47, 0.00003871999, 9.998305, 9.999916 
2.0049356e+3, 1.925521e+2, -1057508.8, -1005666.4, -108356.836, -0.22022898, -0.25785628, -920173.44, 132788.9, 0.0, 9.999636, 10.000286 
2.0049745e+3, 2.0255187e+2, -927872.56, -1008000.25, -90602.08, -0.26587135, -0.25512862, -868871.56, 86092.37, 0.0, 10.000332, 9.999279 
2.0050171e+3, 2.1255136e+2, -919542.0, -953141.44, -61017.86, -0.06282584, -0.25576317, -873053.44, -16082.425, 0.0, 9.999735, 9.999257 
2.0050591e+3, 2.225511e+2, -844729.56, -823986.06, -34231.266, 0.07588997, -0.2064035, -798589.75, -39615.176, 0.0, 9.9993725, 9.999654 
2.0050992e+3, 2.3255154e+2, -625721.94, -621773.94, -102980.98, -0.0132344235, -0.18771693, -520748.06, 140219.73, 0.0, 10.000036, 10.000033 
2.0051396e+3, 2.4255076e+2, -562110.94, -796207.2, -106972.45, -0.0666521, -0.16552119, -520592.44, 42381.027, 0.0, 10.000832, 9.997811 
2.0051807e+3, 2.5254697e+2, -374584.75, -694549.25, -44005.105, -0.05882162, -0.3229041, -368643.0, 96367.4, 0.0, 10.001658, 9.997415 
2.005222e+3, 2.6254374e+2, -219879.36, -529704.7, 8648.807, -0.03921553, -0.38357034, -219638.13, 147404.06, 0.000000029896977, 10.001859, 9.997788 
2.0052634e+3, 2.7254236e+2, -265469.56, -453207.7, -43275.934, 0.025326248, -0.36934727, -255974.2, 13083.641, 0.0000031274246, 10.000683, 9.998192 
2.005305e+3, 2.8254166e+2, -261749.84, -454794.13, -3382.482, 0.076345384, -0.22401224, -261690.6, -90624.016, 0.000025154262, 10.00025, 9.997741 
2.0053454e+3, 2.9254076e+2, 69045.9, -219239.97, 17341.688, -0.05613069, -0.14200638, 70085.336, 143161.53, 0.00009776422, 10.001776, 9.997922 
2.0053855e+3, 3.0253628e+2, 285073.8, -95053.52, 43179.504, -0.26378185, -0.37315366, 289916.97, 289916.97, 0.00024035014, 10.002908, 9.997934 
2.005432e+3, 3.1253618e+2, 168392.73, -220181.81, 28264.38, 0.29603612, -0.22738071, 170437.89, 170437.89, 0.0004337669, 10.002357, 9.997324 
2.0146577e+3, 1.2250396e+2, -2060495.5, -2047766.3, -84773.53, -0.27429485, -0.4397887, -1969118.8, -229691.84, 0.28771394, 9.99823, 9.998523 
2.0147043e+3, 1.3250948e+2, -1634907.9, -1335162.6, 33862.656, 0.1895072, -0.23993357, -1331384.8, 309990.5, 0.20582092, 9.99825, 10.003283 
2.0147385e+3, 1.4251016e+2, -1834955.5, -1629826.6, -21725.379, -0.34746847, -0.36707163, -1627550.9, -84182.58, 0.12247417, 9.9976, 10.00037 
2.0147775e+3, 1.5251088e+2, -1606074.4, -1479015.8, -42620.598, -0.25986835, -0.35470343, -1466043.5, -20681.12, 0.055639356, 9.998568, 10.000251 
2.0148166e+3, 1.6251098e+2, -1448615.5, -1410510.1, -49452.137, -0.21312566, -0.3352421, -1376567.4, -29205.441, 0.016791714, 9.999185, 9.999776 
2.0148565e+3, 1.7251055e+2, -1431910.4, -1328880.3, -22199.104, -0.1427571, -0.39679414, -1324300.8, -74935.42, 0.0023981123, 9.998559, 9.999944 
2.0148964e+3, 1.8251011e+2, -1442682.5, -1412110.4, -17636.797, -0.093176305, -0.3784632, -1404057.1, -252687.06, 0.000045425786, 9.99836, 9.998804 
2.0149364e+3, 1.9250973e+2, -1181066.9, -1244637.9, -48552.926, -0.11263217, -0.3133406, -1154820.5, -101442.664, 0.0, 9.999557, 9.998686 
2.0149763e+3, 2.0250931e+2, -936713.0, -989979.8, -112814.23, -0.13710587, -0.23833185, -847430.94, 107953.23, 0.0, 10.000172, 9.999482 
2.0150162e+3, 2.1250851e+2, -900185.44, -862191.44, -72968.57, -0.13108365, -0.3361466, -805787.5, 51601.984, 0.0, 9.9995165, 9.999989 
2.0150569e+3, 2.2250745e+2, -959583.8, -996067.25, -33900.336, -0.112815894, -0.37248224, -939328.9, -179930.02, 0.0, 9.999073, 9.998623 
2.0150994e+3, 2.3250604e+2, -759898.4, -863580.44, -59706.066, -0.016270243, -0.3882878, -732667.9, -71252.62, 0.0, 9.999856, 9.998467 
2.0151417e+3, 2.425052e+2, -528292.7, -647639.75, -84224.82, 0.0328463, -0.3216357, -484744.38, 78680.3, 0.0, 10.000508, 9.998982 
2.015183e+3, 2.5250557e+2, -268853.63, -410640.97, 2441.9067, -0.024402227, -0.25548592, -268811.56, 196605.84, 0.0, 10.001391, 9.999491 
2.0152237e+3, 2.6250464e+2, -280087.47, -576587.25, -33166.074, -0.093185276, -0.2089602, -276422.84, 91002.1, 0.0000000091701935, 10.001525, 9.997629 
2.0152633e+3, 2.725009e+2, -356617.63, -590225.7, -68246.52, -0.07767107, -0.35642186, -338141.3, -68675.61, 0.0000023642951, 10.0004635, 9.997355 
2.0153044e+3, 2.8249878e+2, -292459.5, -445523.38, 10991.696, -0.018448416, -0.31070337, -291674.22, -120184.95, 0.000021595964, 9.9999485, 9.997942 
2.0153488e+3, 2.9249936e+2, 62753.742, -167496.48, 100797.734, 0.07959343, -0.13693392, 100644.88, 174127.36, 0.000083873885, 10.001475, 9.998429 
2.0153907e+3, 3.0249676e+2, 285133.6, 52150.504, 20854.7, -0.06779458, -0.2626433, 286985.63, 286985.63, 0.00020823472, 10.002315, 9.999208 
2.0154314e+3, 3.1249484e+2, 99144.24, -128735.15, 108412.42, -0.04239835, -0.46563065, 142479.81, 142479.81, 0.0003833975, 10.001428, 9.99836 
2.0246568e+3, 1.2246281e+2, -2058778.6, -2212678.8, -89260.766, -0.21021156, -0.46750346, -2017877.9, -278048.9, 0.29983783, 9.998983, 9.99701 
2.0247017e+3, 1.324721e+2, -1847432.1, -1361315.8, -44521.31, 0.19724613, 0.05193892, -1357271.9, 284470.47, 0.21537028, 9.996498, 10.003912 
2.0247358e+3, 1.4246862e+2, -1882705.9, -1660236.9, -65831.32, -0.3165823, -0.53202075, -1642216.3, -98439.7, 0.12892798, 9.997296, 10.000309 
2.0247765e+3, 1.5247045e+2, -1619711.8, -1532360.0, -66624.766, -0.1977016, -0.36697695, -1496371.4, -50610.77, 0.05909158, 9.998683, 9.9998255 
2.0248166e+3, 1.6247125e+2, -1438586.1, -1405205.3, -59100.03, -0.1145893, -0.25165942, -1360484.1, -12730.371, 0.018083457, 9.99929, 9.999737 
2.0248555e+3, 1.7247026e+2, -1263615.9, -1240758.5, -84656.76, -0.13405798, -0.37165773, -1166762.5, 82998.125, 0.0026487417, 9.999735, 9.999958 
2.0248951e+3, 1.8246932e+2, -1235550.1, -1333113.0, -19465.049, -0.10675969, -0.3956913, -1231810.0, -80041.32, 0.000052423693, 9.999869, 9.998611 
2.0249368e+3, 1.9246839e+2, -1163063.0, -1272803.4, 27972.977, -0.021539591, -0.36123976, -1156344.0, -102561.85, 0.0, 9.9998255, 9.99836 
2.0249778e+3, 2.0246774e+2, -1009710.0, -1026992.3, 21600.049, 0.029359035, -0.2903189, -995086.75, -39296.01, 0.0, 9.999679, 9.9994545 
2.0250164e+3, 2.1246766e+2, -872216.6, -845573.56, -26470.414, -0.067745164, -0.32427037, -829261.56, 28527.629, 0.0, 9.999685, 10.000012 
2.0250562e+3, 2.2246681e+2, -869524.1, -969210.4, 61858.586, -0.10556837, -0.33793753, -839926.56, -80130.4, 0.0, 9.999767, 9.998464 
2.0250994e+3, 2.324644e+2, -717991.1, -866195.2, 115861.92, -0.009721362, -0.43448192, -654561.0, 7260.861, 0.0, 10.000255, 9.998243 
2.0251423e+3, 2.4246314e+2, -514467.84, -613473.6, 140770.7, 0.06259576, -0.4079762, -414749.7, 149085.28, 0.0, 10.000508, 9.999201 
2.0251839e+3, 2.5246447e+2, -406266.16, -443311.2, 76635.94, 0.010316332, -0.2749858, -345946.1, 119872.79, 0.0, 10.000314, 9.999778 
2.0252252e+3, 2.6246423e+2, -419566.8, -652504.8, -8447.479, -0.023809817, -0.17667641, -419260.88, -51440.324, 0.000000001074916, 10.000613, 9.997543 
2.025265e+3, 2.7246043e+2, -122567.53, -497126.0, -44282.105, -0.019248359, -0.3086197, -117403.484, 152459.36, 0.0000018159459, 10.002191, 9.997148 
2.0253062e+3, 2.8245795e+2, 134506.33, -244988.33, 70985.42, 0.028445987, -0.28137568, 147349.67, 319239.7, 0.000018189116, 10.0028715, 9.997923 
2.02535e+3, 2.9245803e+2, 2560.52, -174532.92, 86482.18, 0.107907206, -0.16268818, 37786.53, 111674.09, 0.000072171526, 10.000972, 9.998615 
2.0253937e+3, 3.0245587e+2, 28276.576, -83996.79, 37910.676, 0.122460626, -0.25212657, 39878.703, 39878.703, 0.00017992329, 10.000518, 9.99918 
2.025433e+3, 3.124547e+2, 376016.13, 105414.78, -82120.16, -0.05894805, -0.3679751, 398987.34, 398987.34, 0.00033564074, 10.0028105, 9.999332 
2.0346561e+3, 1.22421004e+2, -1977953.0, -2121083.8, -59411.758, -0.27928483, -0.6066145, -1956505.6, -216265.8, 0.3135409, 9.999246, 9.997547 
2.0346934e+3, 1.3243377e+2, -1875786.8, -1433130.5, -49019.453, -0.31056678, 0.3320112, -1427767.1, 214353.34, 0.22593072, 9.99661, 10.003264 
2.0347367e+3, 1.4242552e+2, -1837140.0, -1614788.5, -22456.605, -0.021936243, -0.7024328, -1612543.1, -68340.51, 0.13594478, 9.9975, 10.000523 
2.0347774e+3, 1.5242991e+2, -1588988.6, -1482733.3, -12619.622, -0.009892867, -0.31959376, -1481255.0, -35092.57, 0.06282382, 9.99874, 10.000133 
2.0348163e+3, 1.6243222e+2, -1431963.9, -1415937.3, -62233.64, -0.12831819, -0.06627663, -1361203.1, -13062.082, 0.019494196, 9.999394, 9.999613 
2.0348541e+3, 1.7243111e+2, -1271173.3, -1269016.9, -57061.992, -0.2651051, -0.17720865, -1213022.9, 37126.836, 0.0029308582, 9.99978, 9.9997425 
2.0348935e+3, 1.8242997e+2, -1178938.5, -1224458.6, -30569.574, -0.29291672, -0.24206692, -1163586.6, -11427.906, 0.00006041413, 9.999909, 9.99934 
2.0349364e+3, 1.9242816e+2, -1105254.3, -1128849.0, 36228.37, -0.072843246, -0.3886021, -1078950.9, -24776.053, 0.0, 9.999727, 9.999395 
2.034978e+3, 2.024272e+2, -1051953.1, -1072122.4, 6005.148, 0.056763433, -0.40507197, -1050300.6, -94117.05, 0.0, 9.999502, 9.999229 
2.0350169e+3, 2.1242869e+2, -946339.3, -950705.75, -12711.85, 0.0033320698, -0.22227691, -935624.56, -77453.46, 0.0, 9.999476, 9.999394 
2.0350565e+3, 2.224291e+2, -870604.9, -889375.8, 64370.99, -0.07004367, -0.09979441, -814938.75, -54771.066, 0.0, 9.999431, 9.999166 
2.0350987e+3, 2.3242645e+2, -683398.5, -728614.5, 152104.55, -0.11753342, -0.32421842, -552231.0, 109958.23, 0.0, 9.999984, 9.999314 
2.035141e+3, 2.4242426e+2, -613157.4, -745838.94, 124806.055, -0.1460005, -0.42750445, -538155.9, 26051.861, 0.0, 10.000196, 9.998443 
2.0351836e+3, 2.524236e+2, -528175.75, -655310.0, 80185.54, -0.07959468, -0.3688536, -489417.4, -23201.785, 0.0, 10.00013, 9.998415 
2.0352261e+3, 2.6242247e+2, -482598.72, -706088.3, 20583.086, -0.018283447, -0.2651205, -480718.88, -112489.75, 0.000000023664393, 10.000297, 9.99732 
2.0352681e+3, 2.724203e+2, -147031.67, -491121.88, 34824.918, 0.044343457, -0.25478584, -143542.47, 126712.54, 0.0000019634658, 10.001938, 9.997312 
2.0353094e+3, 2.824184e+2, 56388.715, -300687.94, 10348.785, 0.024589516, -0.17464586, 56688.395, 228964.77, 0.000016146072, 10.002436, 9.997741 
2.0353493e+3, 2.9241672e+2, -53430.77, -225268.56, 35021.574, -0.10377081, -0.20642911, -46567.3, 27724.908, 0.00006227005, 10.000681, 9.998413 
2.0353937e+3, 3.0241355e+2, -158018.19, -327134.97, 73546.945, 0.042614754, -0.31782857, -130508.41, -130508.41, 0.00015436458, 9.999942, 9.997764 
2.035437e+3, 3.1241348e+2, 332420.7, 218574.63, 35012.188, -0.0052279183, -0.19790608, 342326.44, 342326.44, 0.0002908974, 10.001996, 10.000472 
2.0446557e+3, 1.2238065e+2, -2212038.3, -2105418.0, 590.029, -0.12081373, -0.6331124, -2105414.8, -364776.2, 0.3294151, 9.997094, 9.998719 
2.0446889e+3, 1.3239232e+2, -1797660.8, -1475200.1, -36262.92, -0.44446805, 0.2810995, -1471172.4, 171355.58, 0.23787552, 9.997567, 10.002458 
2.0447354e+3, 1.4238437e+2, -1752663.1, -1585266.9, 35494.01, 0.0974725, -0.6673829, -1578051.9, -33445.18, 0.14372098, 9.9981365, 10.000417 
2.0447761e+3, 1.5238895e+2, -1612414.4, -1483555.9, -25860.475, 0.011825594, -0.2700117, -1478559.6, -31994.322, 0.06692591, 9.998543, 10.00022 
2.0448151e+3, 1.6239133e+2, -1542989.9, -1471361.1, -75354.3, -0.13006839, -0.016950648, -1423743.3, -75199.33, 0.021061258, 9.99862, 9.999617 
2.0448543e+3, 1.7239006e+2, -1405249.8, -1338532.8, -87982.32, -0.17968427, -0.14082767, -1277797.3, -27242.79, 0.003256253, 9.998873, 9.99971 
2.0448942e+3, 1.8238902e+2, -1277769.0, -1225865.4, -42377.59, -0.15023322, -0.205758, -1202124.6, -49562.434, 0.00007088071, 9.999041, 9.999749 
2.044936e+3, 1.9238788e+2, -1086090.5, -1050871.5, -36492.55, -0.06164536, -0.3435606, -1027961.9, 26608.066, 0.0, 9.999581, 9.999993 
2.0449771e+3, 2.0238724e+2, -974506.56, -1032989.2, -54587.41, 0.007958235, -0.36528298, -941821.8, 14752.751, 0.0, 10.000001, 9.999274 
2.045017e+3, 2.1238822e+2, -818624.5, -894239.2, -65540.805, 0.03341064, -0.22481714, -780768.1, 77799.2, 0.0, 10.0003805, 9.999346 
2.0450574e+3, 2.2238855e+2, -692693.6, -794711.25, 44274.79, 0.03192851, -0.10960214, -676158.7, 84405.82, 0.0, 10.000586, 9.99928 
2.0450993e+3, 2.3238665e+2, -594445.6, -666195.94, 44493.92, -0.059205923, -0.27764985, -573165.4, 89412.78, 0.0, 10.0004835, 9.9995165 
2.0451415e+3, 2.4238455e+2, -585820.4, -777510.6, 20190.246, -0.1117947, -0.36841547, -583716.9, -19121.463, 0.0, 10.00056, 9.998063 
2.0451841e+3, 2.5238243e+2, -413727.06, -660046.06, -334.8143, -0.07718702, -0.398413, -413726.6, 52891.645, 0.0, 10.001176, 9.997877 
2.045227e+3, 2.623805e+2, -271472.13, -586328.8, 34158.3, -0.007149503, -0.34586915, -267808.97, 100830.29, 0.00000011200642, 10.001638, 9.997501 
2.0452702e+3, 2.723793e+2, -146387.81, -449118.9, 36517.883, 0.09735706, -0.2717622, -142045.02, 128608.664, 0.000002326167, 10.001741, 9.9977 
2.0453118e+3, 2.8237766e+2, -40425.617, -359405.34, 4933.255, 0.08012948, -0.18822575, -40349.34, 132322.1, 0.000014696717, 10.001801, 9.997648 
2.0453498e+3, 2.9237464e+2, 79846.945, -184361.88, -33624.297, -0.15001625, -0.32087836, 84058.97, 158759.72, 0.00005375532, 10.001714, 9.99819 
2.0453946e+3, 3.023721e+2, 117078.28, -234292.47, 157338.28, 0.07590883, -0.34411216, 177233.3, 177233.3, 0.00013253847, 10.001989, 9.997412 
2.04544e+3, 3.1237218e+2, 400167.53, 198349.08, -127.63532, 0.08868778, -0.15113467, 400167.6, 400167.6, 0.0002539401, 10.002629, 10.000041 
2.0546545e+3, 1.2234446e+2, -2037297.5, -1807350.9, -171370.53, -0.039177455, -0.27634385, -1715958.8, 25040.25, 0.3476065, 9.997348, 10.000712 
2.0546877e+3, 1.3234766e+2, -1839345.8, -1562326.3, 7939.0815, -0.34422836, -0.12253095, -1562099.0, 80866.69, 0.2513395, 9.997663, 10.00164 
2.0547312e+3, 1.4234528e+2, -1764819.5, -1651493.9, 40150.242, -0.1980998, -0.43912062, -1638710.9, -93723.2, 0.15236652, 9.998316, 9.999874 
2.0547718e+3, 1.5234779e+2, -1617964.9, -1511013.0, 710.6222, -0.3028035, -0.21733499, -1511008.3, -64041.004, 0.071473114, 9.998607, 10.000003 
2.0548123e+3, 1.6234855e+2, -1526260.4, -1471082.9, -84519.3, -0.3103458, -0.10770451, -1409763.5, -60800.82, 0.022826005, 9.998757, 9.999559 
2.0548552e+3, 1.7234701e+2, -1397096.3, -1324231.1, -71471.2, -0.00080571166, -0.26582408, -1280442.4, -29466.443, 0.0036400491, 9.998876, 9.999811 
2.0548968e+3, 1.8234624e+2, -1266977.4, -1219105.8, -41068.797, 0.1549599, -0.3068493, -1195506.6, -42524.86, 0.00008593674, 9.999094, 9.999778 
2.0549352e+3, 1.9234726e+2, -1081804.9, -1035754.2, -7049.6294, -0.11973245, -0.24012282, -1034699.2, 20271.502, 0.0, 9.9995365, 10.000127 
2.0549744e+3, 2.023476e+2, -979738.4, -1001846.8, -53773.727, -0.29396304, -0.18457136, -935894.4, 21071.71, 0.0, 9.999824, 9.999572 
2.0550162e+3, 2.1234606e+2, -826806.9, -858815.1, -39310.637, -0.11308137, -0.33275342, -800367.44, 58612.13, 0.0, 10.00015, 9.999701 
2.055058e+3, 2.2234488e+2, -773028.25, -880762.94, 29095.555, 0.02417207, -0.37617013, -765672.7, -4682.7964, 0.0, 10.000248, 9.998847 
2.0551008e+3, 2.3234484e+2, -675521.44, -779121.8, 54100.117, 0.027829524, -0.29408687, -652421.2, 10568.682, 0.0, 10.000248, 9.998855 
2.0551433e+3, 2.4234389e+2, -640025.4, -807892.06, 22096.703, -0.014195006, -0.22855239, -637165.44, -72166.95, 0.0, 10.00022, 9.998011 
2.055185e+3, 2.5234064e+2, -444816.75, -657443.2, 39816.8, -0.11247426, -0.38425273, -437605.16, 29424.107, 0.0, 10.000898, 9.998023 
2.0552276e+3, 2.623381e+2, -290169.16, -538062.75, 28186.66, -0.14888419, -0.426248, -287004.6, 82048.766, 0.00000017468948, 10.001275, 9.998003 
2.0552713e+3, 2.7233735e+2, -142303.02, -387803.38, 55854.605, 0.00042873298, -0.36008948, -130192.73, 140867.25, 0.0000023499456, 10.001507, 9.998238 
2.055313e+3, 2.823356e+2, -124248.87, -428705.9, -13341.092, -0.0057172817, -0.30710465, -123665.39, 49411.23, 0.000012296112, 10.001374, 9.997368 
2.0553511e+3, 2.9233158e+2, 2311.9368, -274284.6, -15579.591, -0.2268024, -0.51383865, 3186.707, 78302.52, 0.000044415407, 10.0014105, 9.997713 
2.055396e+3, 3.0233046e+2, 54696.227, -221890.8, 152076.53, -0.032060836, -0.39446947, 121956.52, 121956.52, 0.00011238554, 10.001419, 9.997752 
2.0554414e+3, 3.1233037e+2, 102773.45, -202431.47, -40919.297, -0.08344447, -0.25824532, 108164.34, 108164.34, 0.00022337346, 10.001747, 9.997691 
2.0646518e+3, 1.22304425e+2, -2217581.0, -1658330.8, -87489.37, 0.124701776, -0.21037048, -1644963.4, 96429.586, 0.36771804, 9.994886, 10.003195 
2.0646873e+3, 1.3230431e+2, -1690321.3, -1605099.5, -35919.68, -0.2110805, -0.3273946, -1591979.8, 51410.652, 0.26616043, 9.999217, 10.000509 
2.0647286e+3, 1.4230491e+2, -1765919.1, -1690680.1, -18315.283, -0.28531745, -0.26453975, -1686458.5, -141075.42, 0.1618756, 9.998442, 9.999555 
2.0647697e+3, 1.5230575e+2, -1658884.6, -1513902.5, -46068.313, -0.32367048, -0.22094673, -1500502.8, -53124.65, 0.07651462, 9.998236, 10.000168 
2.0648116e+3, 1.6230573e+2, -1572327.8, -1481253.0, -53432.62, -0.23242834, -0.20576897, -1456585.6, -107205.34, 0.024829434, 9.998415, 9.999638 
2.064855e+3, 1.7230451e+2, -1322968.4, -1284041.5, -68244.61, 0.07847524, -0.3348573, -1232539.1, 18851.861, 0.0041003036, 9.999385, 9.999827 
2.0648967e+3, 1.8230402e+2, -1171465.3, -1155803.4, -27795.055, 0.23576112, -0.35122955, -1134757.3, 18637.277, 0.000108260756, 9.999685, 9.999914 
2.0649348e+3, 1.9230574e+2, -1125012.6, -1029996.3, -20908.727, -0.07543567, -0.23660737, -1025598.75, 29778.771, 0.0, 9.99913, 10.000357 
2.0649739e+3, 2.0230648e+2, -1109132.0, -1066601.5, -22745.102, -0.26101214, -0.15457605, -1056729.1, -99359.34, 0.0, 9.99895, 9.999539 
2.0650162e+3, 2.1230443e+2, -816596.7, -870067.56, -63685.715, -0.11753698, -0.34100202, -774262.25, 85125.79, 0.0, 10.000306, 9.999541 
2.0650586e+3, 2.2230275e+2, -652934.94, -870116.8, -17946.318, 0.023104368, -0.40549937, -651461.94, 109941.6, 0.0, 10.001269, 9.998429 
2.065102e+3, 2.3230244e+2, -597925.3, -798205.56, -23600.797, 0.09646994, -0.2979467, -595181.8, 68226.41, 0.0, 10.001034, 9.998337 
2.0651451e+3, 2.4230166e+2, -518432.03, -719904.7, 3031.9626, 0.10951146, -0.19367419, -518386.4, 47029.94, 0.0, 10.000923, 9.998278 
2.0651865e+3, 2.522992e+2, -341891.75, -542897.06, 25343.75, -0.06408062, -0.32233632, -338745.53, 128691.555, 0.0, 10.001321, 9.998605 
2.0652288e+3, 2.6229686e+2, -231806.81, -504673.44, 39279.938, -0.15203783, -0.38394064, -226264.9, 143192.27, 0.00000012472299, 10.0016365, 9.998069 
2.0652725e+3, 2.7229515e+2, -101570.02, -371914.6, -13365.515, -0.019696115, -0.40395084, -100910.85, 170562.03, 0.0000018192295, 10.001814, 9.998194 
2.065315e+3, 2.822933e+2, -28200.453, -375913.75, -69786.695, 0.036833122, -0.35962263, -14716.991, 158772.9, 0.000008845643, 10.001994, 9.997444 
2.0653535e+3, 2.9229072e+2, 90149.13, -228222.0, -91541.805, -0.11852974, -0.4220841, 114593.484, 190108.64, 0.000033872344, 10.0020075, 9.997744 
2.0653972e+3, 3.0228898e+2, 240361.05, -66977.33, 156890.5, -0.05650238, -0.39686844, 306302.53, 306302.53, 0.00009226449, 10.002332, 9.998422 
2.0654443e+3, 3.12288e+2, 249919.36, -123499.16, -161803.77, -0.00059093453, -0.4111522, 310274.47, 310274.47, 0.00019361054, 10.002673, 9.997819 
2.0746455e+3, 1.222615e+2, -2039370.9, -1435916.4, 173918.19, -0.105290025, -0.34573558, -1389381.0, 352429.78, 0.38886976, 9.994992, 10.005724 
2.0746867e+3, 1.3226214e+2, -1775527.3, -1807413.6, -28491.898, -0.24171853, -0.3245713, -1758821.3, -115017.69, 0.28190908, 9.999364, 9.998946 
2.0747271e+3, 1.4226307e+2, -1737542.9, -1666726.0, -77918.98, -0.3421345, -0.1302787, -1616547.5, -70751.875, 0.17213808, 9.998593, 9.999646 
2.0747697e+3, 1.5226261e+2, -1598239.9, -1401484.9, -42086.543, -0.17483486, -0.28102323, -1392860.4, 54939.16, 0.08207624, 9.99828, 10.000947 
2.0748122e+3, 1.6226265e+2, -1533422.9, -1431474.9, -39360.414, -0.0585436, -0.32331574, -1418047.1, -68248.33, 0.027111659, 9.998546, 9.999918 
2.074853e+3, 1.7226258e+2, -1321665.5, -1284241.1, -23460.953, -0.068689905, -0.34107277, -1272944.0, -21144.855, 0.0046569863, 9.999403, 9.999813 
2.0748939e+3, 1.8226254e+2, -1147350.4, -1124339.9, -52033.773, -0.080621004, -0.3201419, -1082554.6, 71244.44, 0.00014131474, 9.999766, 10.000091 
2.0749344e+3, 1.9226328e+2, -1119936.0, -1002004.2, -36545.66, -0.052664883, -0.32605115, -991597.44, 64193.75, 0.0000000002137382, 9.999054, 10.000587 
2.074975e+3, 2.0226365e+2, -1161154.9, -1138631.0, -7687.138, -0.05532073, -0.27915016, -1136257.5, -178470.17, 0.0, 9.998787, 9.9991255 
2.0750166e+3, 2.1226305e+2, -890459.7, -977559.25, 4173.2324, -0.11116674, -0.2600702, -890260.2, -30465.348, 0.0, 10.000103, 9.998901 
2.0750585e+3, 2.222619e+2, -737251.0, -962698.44, -20571.488, -0.12641792, -0.21772335, -735389.25, 26418.498, 0.0, 10.000929, 9.99795 
2.0751023e+3, 2.3225942e+2, -669534.75, -881302.3, -19250.023, 0.023235492, -0.28364414, -667799.1, -3965.6318, 0.0, 10.000769, 9.997888 
2.0751457e+3, 2.422577e+2, -533641.44, -667774.25, 133.22089, 0.08766, -0.26453063, -533641.3, 32208.883, 0.0, 10.000569, 9.998803 
2.0751877e+3, 2.5225782e+2, -312471.03, -429497.06, 55113.242, -0.07309371, -0.2205345, -290602.2, 177241.86, 0.0, 10.001101, 9.999488 
2.07523e+3, 2.622566e+2, -310985.13, -579976.94, 28908.629, -0.20096128, -0.21355267, -307913.38, 61939.004, 0.000000021824269, 10.001266, 9.997727 
2.0752737e+3, 2.7225238e+2, -189200.8, -491740.44, 10511.36, -0.11099775, -0.41515315, -188836.03, 83058.13, 0.00000084431264, 10.001557, 9.997494 
2.0753166e+3, 2.8225026e+2, -73019.62, -370385.25, -88218.56, -0.011532584, -0.3714023, -48817.81, 125097.766, 0.000005133315, 10.001591, 9.997665 
2.0753571e+3, 2.922514e+2, 68453.086, -213246.61, -69218.07, -0.0014397476, -0.10080198, 84542.15, 160446.22, 0.000023723636, 10.001733, 9.997982 
2.0753983e+3, 3.0224738e+2, 184251.06, -8826.182, 144389.92, -0.23088074, -0.33653852, 261402.25, 261402.25, 0.00007269807, 10.001647, 9.999119 
2.0754462e+3, 3.1224617e+2, 234794.77, 92951.48, -82429.97, -0.114634424, -0.49662268, 272614.0, 272614.0, 0.00016065389, 10.001707, 9.999724 
2.0846412e+3, 1.2221907e+2, -1706285.3, -1405827.5, 104232.164, -0.16414829, -0.254391, -1373209.3, 369017.03, 0.40993002, 9.997837, 10.004717 
2.0846848e+3, 1.3221961e+2, -2111854.0, -1916061.9, -68092.7, -0.2287288, -0.28680673, -1894709.3, -250488.67, 0.29801235, 9.99683, 9.99942 
2.0847265e+3, 1.4222024e+2, -1791767.3, -1650065.4, -8230.634, -0.19754222, -0.17407428, -1649588.9, -103373.2, 0.18298064, 9.99807, 10.000001 
2.0847689e+3, 1.5221977e+2, -1607113.6, -1403172.8, -47874.426, -0.07988718, -0.33558935, -1392493.6, 55724.754, 0.088167645, 9.998211, 10.000975 
2.084811e+3, 1.6222036e+2, -1598082.0, -1440748.5, -37968.902, 0.02646851, -0.33128408, -1432064.9, -81853.695, 0.029713616, 9.997989, 10.000141 
2.0848519e+3, 1.7222083e+2, -1478193.9, -1328069.8, -28936.406, -0.052156974, -0.32220325, -1322685.4, -70479.13, 0.005333032, 9.99817, 10.000128 
2.0848925e+3, 1.8222092e+2, -1360405.0, -1242247.1, -34831.535, -0.081696525, -0.30458263, -1232743.6, -78538.414, 0.00018960002, 9.99837, 9.999964 
2.0849338e+3, 1.9222084e+2, -1084308.6, -1022143.1, -85415.54, -0.011030895, -0.3590807, -962330.56, 93875.305, 0.000000020895914, 9.999472, 10.000245 
2.0849754e+3, 2.0222086e+2, -940326.44, -1025201.5, -29389.414, 0.029482048, -0.32755506, -931143.4, 27062.688, 0.0, 10.000311, 9.999154 
2.0850176e+3, 2.1222104e+2, -760825.2, -897129.75, 14275.987, -0.056554988, -0.24071597, -759346.0, 100859.67, 0.0, 10.000932, 9.999044 
2.08506e+3, 2.222203e+2, -668028.94, -925885.5, 34933.46, -0.08342274, -0.16570471, -663380.1, 98833.84, 0.0, 10.00137, 9.998004 
2.0851035e+3, 2.3221716e+2, -559974.2, -824317.7, 33130.254, 0.027595501, -0.30172616, -555885.2, 108359.77, 0.0, 10.001483, 9.997945 
2.0851469e+3, 2.4221486e+2, -402854.44, -624450.4, 96858.87, 0.10265008, -0.34053004, -366486.4, 199780.34, 0.0, 10.001549, 9.998628 
2.0851897e+3, 2.522148e+2, -247124.95, -433181.38, 47527.9, 0.0024996533, -0.28360614, -235687.14, 232576.94, 0.0, 10.001701, 9.999173 
2.0852324e+3, 2.6221374e+2, -205988.97, -525458.25, 8061.3594, -0.09528379, -0.2388767, -205785.67, 164486.33, 0.0, 10.00197, 9.997762 
2.0852752e+3, 2.7221027e+2, -44777.63, -408554.94, 11414.79, -0.13590343, -0.37938485, -44419.8, 227887.22, 0.000000115745564, 10.002494, 9.997611 
2.0853184e+3, 2.82208e+2, 119255.28, -286939.16, -42273.42, -0.038850244, -0.3530873, 123608.11, 297937.7, 0.0000020138657, 10.002913, 9.997612 
2.0853609e+3, 2.92208e+2, 213637.48, -140769.88, -106075.21, 0.16121936, -0.18725744, 242960.06, 319288.63, 0.000014504671, 10.002727, 9.998 
2.0854008e+3, 3.022053e+2, 333603.06, 75527.586, 140106.88, -0.15165734, -0.30625963, 395040.2, 395040.2, 0.00005340342, 10.002553, 9.99929 
2.0854482e+3, 3.1220415e+2, 315128.25, 56727.05, -189776.02, -0.0942425, -0.4463988, 415509.3, 415509.3, 0.0001257325, 10.002444, 9.999172 
2.0946385e+3, 1.2217428e+2, -2016911.5, -1934916.9, -187445.6, -0.3022921, -0.20335871, -1784037.6, -41369.977, 0.42994058, 9.998115, 9.999362 
2.0946811e+3, 1.3217682e+2, -1905517.8, -1538938.9, -1691.1843, -0.296349, -0.18644205, -1538931.1, 105709.54, 0.31401625, 9.996847, 10.002334 
2.0947266e+3, 1.4217608e+2, -1727847.8, -1553193.3, 159.96286, -0.0634297, -0.4271548, -1553193.1, -6546.7124, 0.19429262, 9.998212, 10.000603 
2.094766e+3, 1.5217716e+2, -1655007.9, -1511272.4, -40560.15, -0.20429182, -0.37916654, -1500616.8, -51981.926, 0.094824284, 9.998265, 10.000173 
2.0948073e+3, 1.6217887e+2, -1564697.9, -1407153.6, -57615.37, -0.18126766, -0.20945011, -1388331.8, -37714.902, 0.032688897, 9.998137, 10.000301 
2.0948508e+3, 1.7217933e+2, -1430004.5, -1231345.4, -15619.28, 0.0013636285, -0.26151073, -1230124.9, 22486.773, 0.0061590113, 9.99818, 10.000788 
2.0948929e+3, 1.821792e+2, -1380457.8, -1301921.6, -17342.045, 0.06674659, -0.29433173, -1298262.8, -143650.08, 0.00026052183, 9.998445, 9.99952 
2.0949328e+3, 1.9217853e+2, -1158069.5, -1162407.9, -34294.332, -0.08400045, -0.3217033, -1125875.9, -69255.14, 0.00000016154512, 9.999414, 9.9993105 
2.0949739e+3, 2.0217812e+2, -944392.7, -992882.6, -17308.773, -0.17910461, -0.28718975, -938848.2, 19777.24, 0.0, 10.000136, 9.999458 
2.0950183e+3, 2.1217835e+2, -742634.8, -801594.1, 47896.12, -0.08065237, -0.26825204, -715873.1, 144748.03, 0.0, 10.000691, 9.99981 
2.0950623e+3, 2.2217791e+2, -675750.06, -864958.8, 30489.395, -0.018495029, -0.23503418, -670958.3, 91664.86, 0.0, 10.0010395, 9.998579 
2.0951045e+3, 2.3217556e+2, -560914.7, -767547.6, 50338.57, -0.034418065, -0.34499416, -549303.94, 115339.93, 0.0, 10.00123, 9.998456 
2.0951472e+3, 2.42173e+2, -518831.38, -779939.5, 86872.68, -0.03335832, -0.40969458, -492569.56, 74097.96, 0.0, 10.001183, 9.997734 
2.095192e+3, 2.5217023e+2, -379813.63, -658162.7, 67847.46, 0.028887475, -0.49066257, -364156.53, 104539.77, 0.0, 10.001477, 9.997737 
2.0952353e+3, 2.6216838e+2, -240844.0, -513822.78, 10084.923, -0.02974738, -0.44727355, -240471.94, 130243.63, 0.0, 10.001621, 9.998005 
2.0952769e+3, 2.7216837e+2, -32307.865, -315406.03, 47969.906, -0.24782453, -0.31684244, -24400.416, 248315.0, 0.0, 10.002207, 9.998385 
2.0953198e+3, 2.821663e+2, 16073.664, -377319.97, -60915.223, -0.22474967, -0.3012145, 25290.184, 200025.03, 0.00000039293647, 10.002396, 9.997238 
2.095364e+3, 2.921609e+2, 139510.48, -212389.75, -86844.48, 0.19618335, -0.6238393, 159775.56, 236560.27, 0.000007667558, 10.002374, 9.99768 
2.0954038e+3, 3.021615e+2, 182185.88, -50021.3, 112500.62, -0.13832489, -0.38757893, 227749.94, 227749.94, 0.000037309022, 10.001804, 9.998761 
2.0954505e+3, 3.121612e+2, 27096.598, -301256.75, 30909.635, -0.19724716, -0.35631305, 29980.95, 29980.95, 0.00009614077, 10.001501, 9.997129 
2.1046387e+3, 1.2213052e+2, -1955295.0, -1928202.0, -89671.82, -0.09293247, -0.2012178, -1851059.3, -107963.06, 0.44859928, 9.998631, 9.999148 
2.10468e+3, 1.3213412e+2, -1687665.6, -1469636.3, 34061.438, -0.15871666, -0.12469007, -1464438.9, 180621.42, 0.3298663, 9.998325, 10.002373 
2.1047243e+3, 1.4213292e+2, -1734576.4, -1560503.5, -96764.14, -0.072581254, -0.40116644, -1517391.4, 29680.035, 0.20615475, 9.998176, 10.000608 
2.1047646e+3, 1.5213439e+2, -1615246.4, -1453101.6, -122886.92, -0.15900646, -0.347033, -1386953.4, 62100.906, 0.10215144, 9.99839, 10.000531 
2.1048062e+3, 1.6213574e+2, -1530721.4, -1395038.3, -48568.71, -0.111796714, -0.23708965, -1379444.9, -28406.088, 0.036114734, 9.998403, 10.0002365 
2.1048497e+3, 1.7213604e+2, -1279598.4, -1178613.6, -82537.62, 0.021193072, -0.29072106, -1132348.9, 120686.65, 0.007176738, 9.999295, 10.000603 
2.1048921e+3, 1.8213603e+2, -1183508.1, -1224847.1, -93540.69, 0.08328606, -0.29402083, -1108380.5, 46655.16, 0.0003661867, 9.999881, 9.999354 
2.1049328e+3, 1.9213523e+2, -1047111.9, -1125788.4, -84213.56, -0.06096567, -0.31548607, -993501.6, 63543.08, 0.00000091193453, 10.000264, 9.9991455 
2.1049744e+3, 2.0213456e+2, -898995.94, -975690.06, -26763.375, -0.13782705, -0.29403615, -890580.0, 68471.24, 0.0, 10.000423, 9.999461 
2.1050188e+3, 2.1213423e+2, -796695.5, -830522.7, -40394.895, -0.069764614, -0.3322048, -769816.2, 91235.086, 0.0, 10.000281, 9.999841 
2.1050628e+3, 2.2213365e+2, -778427.2, -886159.06, -66400.9, -0.007389904, -0.32323185, -746790.94, 16263.149, 0.0, 10.000233, 9.99881 
2.1051055e+3, 2.32132e+2, -553058.0, -731752.5, -95330.95, -0.021719106, -0.38638294, -511749.5, 153318.89, 0.0, 10.0011635, 9.998718 
2.1051489e+3, 2.4212995e+2, -419038.9, -730134.1, -43871.242, 0.0077291876, -0.41397288, -412970.47, 154117.4, 0.0, 10.001833, 9.997782 
2.1051936e+3, 2.5212735e+2, -393450.84, -667289.75, 403.0694, 0.06246366, -0.47341028, -393450.25, 75666.445, 0.0, 10.001384, 9.99773 
2.1052372e+3, 2.6212576e+2, -299970.97, -519127.06, 51715.65, 0.031685755, -0.40963295, -288380.3, 82753.92, 0.0, 10.0011, 9.998229 
2.1052793e+3, 2.7212596e+2, -114854.22, -326707.94, 31696.5, -0.17200251, -0.28001708, -110213.59, 162917.78, 0.0, 10.001509, 9.998651 
2.1053225e+3, 2.8212386e+2, -25123.861, -357546.6, -52372.293, -0.15584965, -0.29421723, -17067.975, 158081.86, 0.00000006547354, 10.001984, 9.997546 
2.1053661e+3, 2.921178e+2, 149583.92, -189555.19, -91611.12, 0.18322626, -0.69785136, 172748.45, 249953.17, 0.000004738257, 10.002407, 9.997802 
2.105407e+3, 3.0211842e+2, 265252.8, -115040.125, 136643.61, -0.02589915, -0.42795107, 309258.3, 309258.3, 0.00002905632, 10.002799, 9.997841 
2.1054533e+3, 3.12117e+2, 328372.66, -83082.9, 11659.259, -0.104704484, -0.39534914, 328702.78, 328702.78, 0.00007991688, 10.003231, 9.997801 
2.114639e+3, 1.22083895e+2, -1648718.1, -1429017.9, -3306.4702, -0.044070628, -0.70313877, -1428968.1, 314582.13, 0.46656317, 9.998778, 10.004379 
2.1146801e+3, 1.3209122e+2, -1885244.4, -1834961.6, 32756.83, -0.012725348, -0.15324634, -1818810.1, -173327.25, 0.34608045, 9.998492, 9.999184 
2.1147195e+3, 1.4209093e+2, -1754728.9, -1656146.3, -96571.88, -0.45163622, -0.07243362, -1597013.6, -49523.574, 0.21890919, 9.998413, 9.999796 
2.1147642e+3, 1.5209153e+2, -1482228.5, -1230439.3, -104631.57, -0.08473065, -0.22749354, -1192635.4, 256841.05, 0.110347085, 9.998536, 10.002143 
2.1148069e+3, 1.6209063e+2, -1522728.3, -1418489.3, -43352.39, 0.06890024, -0.44233936, -1402815.9, -51336.426, 0.040102176, 9.998569, 9.999998 
2.1148476e+3, 1.720908e+2, -1347778.0, -1335013.3, -40076.508, -0.12333169, -0.4101882, -1300814.0, -47334.96, 0.008443992, 9.999347, 9.999505 
2.1148892e+3, 1.8209122e+2, -1170882.9, -1212669.0, -94643.836, -0.22437786, -0.30468586, -1094853.4, 60622.797, 0.00052604213, 9.99994, 9.999407 
2.1149331e+3, 1.9209076e+2, -1021945.0, -1052090.8, -63952.008, -0.07667812, -0.33813715, -971313.56, 86165.89, 0.0000034897541, 10.000175, 9.999688 
2.1149763e+3, 2.0209002e+2, -952862.94, -1036850.2, -43141.625, -0.01605949, -0.3489972, -934651.4, 24833.814, 0.0, 10.000209, 9.999143 
2.1150184e+3, 2.1208878e+2, -880609.06, -941866.1, -37014.902, -0.15438724, -0.4187964, -863193.75, -1698.31, 0.0, 10.000034, 9.999187 
2.115061e+3, 2.2208762e+2, -846615.3, -948783.44, -54860.168, -0.23161516, -0.41841742, -822737.94, -59232.105, 0.0, 9.999887, 9.998548 
2.1151064e+3, 2.320864e+2, -596272.2, -769416.25, -42421.59, -0.06295708, -0.42146683, -586437.25, 79081.85, 0.0, 10.000932, 9.998575 
2.1151514e+3, 2.4208555e+2, -413329.38, -628307.56, -58037.547, 0.03563805, -0.35530707, -398661.78, 168867.38, 0.0, 10.001454, 9.998653 
2.115194e+3, 2.5208575e+2, -337906.44, -497952.72, -6159.6187, -0.026147997, -0.2592555, -337669.72, 131858.8, 0.0, 10.001161, 9.99899 
2.1152373e+3, 2.6208547e+2, -350529.22, -530156.5, 45008.484, -0.08293708, -0.14927709, -339882.66, 31649.256, 0.0, 10.0007105, 9.998332 
2.115282e+3, 2.7208313e+2, -163777.95, -369987.34, 68626.125, -0.07450981, -0.2600866, -143027.4, 130526.13, 0.0, 10.001261, 9.998467 
2.1153255e+3, 2.820804e+2, -54156.906, -315828.28, -51564.156, -0.09295318, -0.3524815, -44362.445, 131214.94, 0.00000005479561, 10.001542, 9.998047 
2.1153665e+3, 2.920777e+2, 132258.69, -169970.22, -48010.63, -0.054246143, -0.48979068, 139702.1, 217300.56, 0.0000044706885, 10.002143, 9.998072 
2.1154094e+3, 3.020753e+2, 23053.82, -396618.7, 117875.91, -0.1067189, -0.44205016, 53895.74, 53895.74, 0.000027145721, 10.001925, 9.996292 
2.115457e+3, 3.12072e+2, 311799.06, 155192.06, 145116.0, -0.12835643, -0.49547952, 398389.75, 398389.75, 0.00007500438, 10.002136, 9.999936 
2.1246372e+3, 1.2205094e+2, -1451216.0, -1224713.6, -200601.27, -0.19272803, 0.022017654, -1107602.8, 636268.94, 0.48543465, 10.00034, 10.006535 
2.1246785e+3, 1.320475e+2, -2074688.5, -2082607.9, -3619.877, 0.024056548, -0.31214055, -2073283.3, -427373.78, 0.3637423, 9.997915, 9.997742 
2.1247178e+3, 1.4204824e+2, -2038700.4, -1835518.3, 93842.11, -0.35553914, -0.021129914, -1798808.6, -250899.92, 0.23315269, 9.996633, 9.999428 
2.1247634e+3, 1.5204847e+2, -1443206.1, -1207907.8, -19390.566, -0.0074559394, -0.21690589, -1206320.5, 243577.88, 0.1197026, 9.998706, 10.002273 
2.1248066e+3, 1.6204704e+2, -1334928.5, -1374647.5, -34669.766, 0.12748706, -0.4765472, -1314833.1, 37073.38, 0.044803485, 10.000052, 9.999604 
2.1248469e+3, 1.720469e+2, -1358104.4, -1414270.4, -41175.62, -0.13660291, -0.4098255, -1336346.8, -82436.44, 0.01004214, 9.9995985, 9.998844 
2.1248884e+3, 1.8204719e+2, -1297592.8, -1271055.3, -45750.25, -0.2476244, -0.2756255, -1236688.5, -80779.18, 0.0007722133, 9.999043, 9.999437 
2.1249332e+3, 1.9204687e+2, -1100452.6, -1063303.3, -52127.87, -0.04026898, -0.32235652, -1026539.56, 31370.47, 0.000010944595, 9.999492, 9.999957 
2.1249773e+3, 2.0204616e+2, -1019401.3, -1091686.0, -26103.777, 0.08254932, -0.34000474, -1010960.3, -51045.45, 0.0, 9.99987, 9.998917 
2.1250188e+3, 2.1204446e+2, -847775.5, -968868.6, -38239.83, -0.11841248, -0.41613558, -836710.8, 25220.084, 0.0, 10.000475, 9.998765 
2.1250615e+3, 2.2204295e+2, -705175.06, -878024.7, -5907.475, -0.20178598, -0.42305547, -704973.44, 58972.156, 0.0, 10.000839, 9.998578 
2.1251076e+3, 2.3204221e+2, -639744.44, -762277.75, 11089.033, -0.013868253, -0.39995253, -638749.0, 27205.295, 0.0, 10.000517, 9.998824 
2.1251526e+3, 2.4204187e+2, -548405.56, -653788.25, 16734.318, 0.09805505, -0.3114613, -545812.06, 22146.746, 0.0, 10.000381, 9.998985 
2.1251948e+3, 2.5204226e+2, -341062.3, -464714.72, -32457.395, -0.051594414, -0.22306821, -333060.44, 136895.34, 0.0, 10.001009, 9.9992895 
2.125238e+3, 2.6204187e+2, -235942.38, -456540.16, -4761.2725, -0.104831524, -0.14496322, -235839.66, 136119.92, 0.0, 10.001422, 9.998492 
2.1252835e+3, 2.7203912e+2, -211746.88, -381939.13, -4042.7566, 0.0013183724, -0.2981659, -211650.9, 62334.836, 0.0, 10.000906, 9.998549 
2.1253276e+3, 2.8203708e+2, -96505.73, -299439.34, -50663.125, 0.02947737, -0.34360915, -84560.61, 91443.125, 0.000000117451826, 10.001059, 9.998417 
2.1253692e+3, 2.9203627e+2, 290485.66, -45121.14, -91142.734, -0.03505924, -0.324286, 313640.3, 391646.84, 0.0000050467984, 10.003014, 9.998517 
2.1254139e+3, 3.0203238e+2, 320755.16, -335438.28, 101320.31, 0.06295237, -0.42161965, 336043.44, 336043.44, 0.00002697455, 10.004209, 9.995681 
2.1254602e+3, 3.1202972e+2, 215629.47, 65636.664, -8398.531, 0.025084702, -0.3085261, 216098.27, 216098.27, 0.00007158717, 10.0015335, 9.999686 
2.1346743e+3, 1.320036e+2, -2020851.6, -1981153.9, -105940.08, -0.20753798, -0.47878766, -1893219.4, -246885.5, 0.38411817, 9.997978, 9.998374 
2.134719e+3, 1.4200439e+2, -2021954.4, -1834288.1, 95407.87, 0.044873897, -0.2835772, -1794303.0, -245972.19, 0.24951555, 9.996771, 9.999364 
2.134762e+3, 1.5200503e+2, -1524392.1, -1382691.5, 66065.23, -0.060429484, -0.31877503, -1356668.8, 93652.586, 0.13052814, 9.998823, 10.000869 
2.1348044e+3, 1.6200502e+2, -1342911.9, -1442287.5, -44226.133, -0.14950758, -0.33386928, -1326080.4, 26239.4, 0.050404422, 10.000271, 9.999032 
2.1348467e+3, 1.7200434e+2, -1371076.0, -1447516.5, -57098.336, -0.15221068, -0.29039332, -1340586.6, -86257.43, 0.012084308, 9.999626, 9.9986 
2.1348886e+3, 1.8200389e+2, -1293033.0, -1277528.0, -53608.75, -0.15110818, -0.21348664, -1231114.1, -74778.66, 0.001155736, 9.999109, 9.999361 
2.1349326e+3, 1.9200358e+2, -1111962.5, -1073990.5, -23415.531, -0.07875139, -0.25709993, -1062830.9, -4494.855, 0.000030850606, 9.999428, 9.999917 
2.1349761e+3, 2.0200285e+2, -1062675.1, -1132781.6, -19569.48, -0.041620936, -0.26629615, -1057582.5, -97241.36, 0.0, 9.999663, 9.9987335 
2.1350197e+3, 2.1200101e+2, -898878.25, -1019492.06, -3264.9026, -0.07960688, -0.3318724, -898789.94, -36429.926, 0.0, 10.000238, 9.99853 
2.1350634e+3, 2.219996e+2, -736065.94, -851720.4, -18091.549, -0.094836295, -0.32883394, -733301.94, 31072.096, 0.0, 10.000465, 9.99893 
2.1351084e+3, 2.3199932e+2, -635099.44, -699321.4, 9747.404, -0.0043591927, -0.31416848, -633652.56, 32722.172, 0.0, 10.00029, 9.999367 
2.1351524e+3, 2.4199875e+2, -623229.6, -728654.0, 17612.213, 0.0044135246, -0.27309963, -620365.2, -51986.1, 0.0, 10.000042, 9.998631 
2.1351951e+3, 2.519968e+2, -421793.8, -582961.75, 7933.197, -0.14310539, -0.35641578, -421404.25, 48994.684, 0.0, 10.000794, 9.998578 
2.1352385e+3, 2.6199487e+2, -295667.25, -488755.78, -23800.299, -0.21716736, -0.38863286, -292776.84, 79641.695, 0.0, 10.001043, 9.9984455 
2.135284e+3, 2.7199367e+2, -232729.25, -376136.84, -6075.258, -0.07432714, -0.40862432, -232472.34, 41959.035, 0.00000000014169585, 10.000687, 9.998697 
2.1353287e+3, 2.8199315e+2, -165717.48, -322800.72, -15634.323, -0.020644909, -0.30424365, -164176.53, 12259.188, 0.000000256191, 10.000577, 9.998467 
2.1353734e+3, 2.9199317e+2, 265412.8, -20588.94, 22353.746, 0.05144812, -0.2283563, 267149.44, 345580.75, 0.0000052967753, 10.002676, 9.998846 
2.135419e+3, 3.0198857e+2, 194042.73, -366743.53, 41075.46, 0.117353864, -0.44379473, 197035.39, 197035.39, 0.000025200057, 10.003301, 9.995862 
2.1354602e+3, 3.119858e+2, -124104.76, -341081.47, -85286.46, -0.19424216, -0.31902477, -94594.914, -94594.914, 0.00006359548, 10.000367, 9.997401 
2.1446714e+3, 1.3195957e+2, -2166038.5, -1802478.8, -181926.63, -0.17040907, -0.3845705, -1727079.3, -80312.45, 0.40760165, 9.995882, 10.000583 
2.144719e+3, 1.4195994e+2, -1712849.9, -1675931.3, -41870.4, 0.293803, -0.3825724, -1648631.6, -99867.984, 0.26811564, 9.998859, 9.999436 
2.144761e+3, 1.5196072e+2, -1554665.3, -1500193.5, -48057.813, -0.046409883, -0.3199359, -1472190.4, -21433.514, 0.14296411, 9.999116, 9.999826 
2.1448034e+3, 1.6196132e+2, -1520856.4, -1523860.6, -145430.81, -0.19727238, -0.20144376, -1376920.0, -24168.104, 0.057087187, 9.999046, 9.999056 
2.1448466e+3, 1.7196046e+2, -1362647.9, -1385167.6, -147506.77, -0.08870906, -0.22095448, -1225971.9, 28789.494, 0.014719365, 9.999469, 9.999096 
2.1448894e+3, 1.8195958e+2, -1240079.5, -1264424.9, -79734.24, -0.011484018, -0.21345258, -1171594.1, -14823.574, 0.0017550356, 9.999535, 9.999245 
2.1449322e+3, 1.9195879e+2, -1120579.5, -1112191.6, -90182.37, -0.03501851, -0.27428308, -1026105.75, 32670.223, 0.00008036648, 9.999535, 9.999589 
2.1449755e+3, 2.0195797e+2, -1078935.3, -1135804.3, -56663.535, -0.03564958, -0.27135843, -1043972.0, -83189.5, 0.000000018813253, 9.9995365, 9.9987755 
2.1450202e+3, 2.1195702e+2, -895602.4, -998631.7, -28558.156, -0.026016334, -0.26626736, -888216.06, -25422.113, 0.0, 10.000163, 9.998718 
2.1450648e+3, 2.219561e+2, -715674.6, -827110.9, -30467.932, -0.0023489452, -0.23045698, -707888.4, 56915.094, 0.0, 10.000536, 9.999074 
2.1451084e+3, 2.3195517e+2, -620124.94, -677420.3, -71611.016, -0.0052738716, -0.2883579, -571644.0, 95164.64, 0.0, 10.000335, 9.999499 
2.1451521e+3, 2.419541e+2, -591078.2, -685851.25, -30261.957, -0.015049672, -0.31180054, -582239.56, -13423.747, 0.0, 10.0001335, 9.998891 
2.145196e+3, 2.5195238e+2, -500510.56, -585088.06, 11249.852, -0.07745852, -0.3983863, -499039.78, -28207.639, 0.0, 10.000092, 9.998906 
2.1452403e+3, 2.619507e+2, -373530.47, -484947.7, 58887.324, -0.09513302, -0.44188365, -348176.34, 24671.842, 0.0, 10.000309, 9.998836 
2.1452847e+3, 2.719498e+2, -140158.19, -282150.72, 55402.203, -0.06025167, -0.47022745, -121099.62, 153757.2, 0.00000000016893417, 10.001116, 9.999135 
2.1453296e+3, 2.8194967e+2, -18651.773, -305993.5, 103900.234, -0.007347075, -0.34363863, 14980.988, 191838.67, 0.0000002738674, 10.00177, 9.998023 
2.1453765e+3, 2.9194957e+2, 126231.41, -154226.53, 47323.695, 0.15900417, -0.20055875, 134001.4, 212860.38, 0.0000047479944, 10.002012, 9.998239 
2.1454231e+3, 3.0194566e+2, 233065.39, -193661.13, 43801.06, 0.2600101, -0.3939006, 237514.92, 237514.92, 0.000021563434, 10.002791, 9.99734 
2.1454634e+3, 3.119431e+2, 377739.56, -80702.31, -106522.8, -0.03794088, -0.39923996, 401282.06, 401282.06, 0.000054127682, 10.003647, 9.997621 
2.154669e+3, 1.3191552e+2, -1908053.1, -1439543.6, -14232.419, -0.10269436, 0.020205462, -1439111.6, 208096.95, 0.43279883, 9.995968, 10.0041065 
2.1547163e+3, 1.4191441e+2, -1630033.6, -1613456.1, -45566.363, 0.02823623, -0.36150557, -1575430.8, -26218.285, 0.28823382, 9.999309, 9.999654 
2.1547595e+3, 1.519154e+2, -1591612.9, -1613197.9, -46203.09, -0.12507637, -0.21615547, -1554958.5, -103752.37, 0.15688464, 9.999258, 9.998985 
2.154803e+3, 1.6191591e+2, -1459616.9, -1435614.8, -149158.56, -0.20476541, -0.07717703, -1297975.3, 55228.316, 0.06501248, 9.999228, 9.999584 
2.1548465e+3, 1.719151e+2, -1282350.0, -1216968.8, -128260.52, -0.08500046, -0.19711536, -1117298.4, 137910.16, 0.018139776, 9.999471, 10.00025 
2.1548891e+3, 1.8191402e+2, -1236416.0, -1277427.9, -93857.91, -0.015743576, -0.27864867, -1160850.1, -3633.723, 0.0026903055, 9.999614, 9.999123 
2.1549319e+3, 1.9191246e+2, -1169243.0, -1199682.5, -82995.03, -0.050145004, -0.36393693, -1100083.8, -40853.4, 0.00019736934, 9.999478, 9.999016 
2.1549748e+3, 2.0191152e+2, -1085989.5, -1113916.6, -56439.25, -0.08613448, -0.34615746, -1041812.06, -80572.72, 0.0000007869328, 9.999374, 9.999005 
2.1550198e+3, 2.119123e+2, -883008.5, -929750.1, 5418.1807, -0.09351091, -0.2192576, -882388.6, -19154.363, 0.0, 9.999971, 9.999287 
2.1550645e+3, 2.2191232e+2, -773578.7, -871843.75, -43341.8, -0.11819636, -0.12381453, -757193.94, 8041.2344, 0.0, 10.000208, 9.998924 
2.1551074e+3, 2.3190965e+2, -681741.06, -753534.7, -66592.805, -0.15247437, -0.3207471, -641986.2, 25270.39, 0.0, 10.000107, 9.999084 
2.155151e+3, 2.4190786e+2, -595063.4, -603034.4, -46555.19, -0.14282994, -0.41750836, -552323.44, 16946.135, 0.0, 9.999756, 9.999635 
2.155197e+3, 2.5190872e+2, -443364.9, -420388.1, 22225.088, 0.014336924, -0.36367926, -406857.75, 64400.445, 0.0, 9.999888, 10.000136 
2.1552421e+3, 2.619089e+2, -376010.38, -404749.4, 68794.92, 0.05589015, -0.33151305, -320100.28, 53153.29, 0.0, 9.999949, 9.999556 
2.1552856e+3, 2.7190697e+2, -137104.44, -223427.27, 97889.51, -0.106936045, -0.51360095, -73283.31, 201984.5, 0.0, 10.000881, 9.999656 
2.1553303e+3, 2.819058e+2, -164299.81, -480395.16, 96924.6, -0.14552961, -0.49482495, -136946.72, 40331.566, 0.000000100631844, 10.001261, 9.997052 
2.1553785e+3, 2.9190525e+2, -52376.08, -431524.97, 87272.81, 0.12723963, -0.24601501, -33252.145, 46039.715, 0.0000031808167, 10.001615, 9.996524 
2.1554248e+3, 3.0190217e+2, 246336.83, 68238.586, 54689.86, 0.101399004, -0.3299722, 261789.98, 261789.98, 0.000016664693, 10.001851, 9.999558 
2.155468e+3, 3.1190267e+2, 339664.94, 73760.016, 87243.05, -0.028078979, -0.39870447, 365733.56, 365733.56, 0.000045618737, 10.002672, 9.99914 
2.1646655e+3, 1.3186736e+2, -1698717.1, -1428596.4, 67570.76, -0.082934685, -0.0077556996, -1412636.5, 235048.19, 0.45757636, 9.997823, 10.003539 
2.1647136e+3, 1.4186724e+2, -1836610.4, -1614814.0, -196410.05, -0.050864354, -0.25153506, -1500156.6, 49523.27, 0.3088363, 9.997459, 10.00066 
2.164758e+3, 1.5186867e+2, -1816311.8, -1572924.9, -113007.305, -0.07616971, -0.20391318, -1528546.3, -76880.13, 0.17204043, 9.997084, 10.000298 
2.1648023e+3, 1.6186939e+2, -1783361.5, -1546074.3, -57667.363, -0.047429062, -0.13996094, -1532801.9, -179142.92, 0.07433442, 9.996766, 10.00001 
2.1648459e+3, 1.718689e+2, -1287792.8, -1204186.1, -90193.27, -0.0417854, -0.25064054, -1146579.5, 109080.94, 0.022589553, 9.999321, 10.000435 
2.1648891e+3, 1.8186824e+2, -1031503.9, -1168961.0, -124744.64, -0.031234276, -0.3018914, -957807.56, 199856.78, 0.00413868, 10.001016, 9.999188 
2.1649319e+3, 1.9186714e+2, -1035868.6, -1147858.5, -136507.69, -0.031949755, -0.33177447, -944317.7, 115357.52, 0.00045452762, 10.000462, 9.998906 
2.1649751e+3, 2.0186637e+2, -1018122.44, -1075441.5, -48940.24, -0.019368405, -0.2913028, -990067.7, -28384.195, 0.000007502901, 9.9997835, 9.999081 
2.1650198e+3, 2.1186677e+2, -887648.94, -913221.0, -29222.33, -0.07167667, -0.21775416, -868537.8, -4855.9956, 0.0, 9.999851, 9.999463 
2.1650645e+3, 2.218667e+2, -802485.2, -841790.4, -71446.02, -0.10741064, -0.15230832, -748038.1, 17644.543, 0.0, 9.99984, 9.999295 
2.1651077e+3, 2.3186477e+2, -688470.8, -710484.9, -69091.71, -0.119853064, -0.3199731, -629514.9, 38180.883, 0.0, 9.999866, 9.999493 
2.1651517e+3, 2.4186327e+2, -581626.8, -620593.6, -5159.7227, -0.07262634, -0.40414515, -580955.2, -11250.012, 0.0, 9.999935, 9.999431 
2.165197e+3, 2.5186345e+2, -437688.94, -455797.25, -73299.03, 0.030999612, -0.37667075, -372887.0, 98814.92, 0.0, 10.000127, 9.999758 
2.1652424e+3, 2.6186353e+2, -307239.1, -372158.6, -84269.09, 0.069783986, -0.32767758, -249394.27, 124304.734, 0.0, 10.000409, 9.999564 
2.1652873e+3, 2.7186233e+2, -113534.68, -188480.42, -100929.92, -0.0132724475, -0.45098802, -43345.75, 232359.8, 0.0, 10.000944, 9.999864 
2.1653332e+3, 2.8186086e+2, -103416.85, -410111.97, -64098.633, 0.024619998, -0.48978168, -90559.39, 87158.4, 0.0000000029805467, 10.001476, 9.99744 
2.1653801e+3, 2.9185894e+2, 12381.431, -348056.9, 14461.29, 0.14774393, -0.40332505, 12960.707, 92704.98, 0.000001345268, 10.001845, 9.99698 
2.1654263e+3, 3.0185848e+2, 352769.06, 212920.4, 80139.3, 0.09155294, -0.30180007, 389201.28, 389201.28, 0.000010778314, 10.002171, 10.0004 
2.1654715e+3, 3.1185818e+2, 303474.4, 66967.77, -130050.586, 0.08513637, -0.50854003, 360996.53, 360996.53, 0.00003608632, 10.002404, 9.999213 
2.1746626e+3, 1.3181606e+2, -2027000.9, -1976732.5, -104990.3, -0.23798598, -0.3418508, -1893909.9, -245725.36, 0.48078975, 9.998259, 9.998127 
2.174711e+3, 1.4181903e+2, -1727640.4, -1475931.1, -164608.16, -0.14625221, -0.027112816, -1394577.6, 155582.48, 0.32934, 9.997742, 10.001779 
2.1747561e+3, 1.5182054e+2, -1586620.3, -1160802.8, -115781.15, -0.021131206, -0.26996744, -1131357.6, 320778.63, 0.18832743, 9.997092, 10.003598 
2.1748008e+3, 1.6182141e+2, -1738923.3, -1488208.6, -10797.282, 0.06375669, -0.4091218, -1487744.5, -133624.28, 0.0852701, 9.9969015, 10.00034 
2.174845e+3, 1.7182192e+2, -1324514.3, -1295554.1, 24618.371, -0.10291106, -0.37693742, -1281473.0, -25356.611, 0.028395085, 9.999382, 9.999761 
2.1748887e+3, 1.8182234e+2, -1022167.25, -1169878.8, -127226.445, -0.24179398, -0.27708828, -948913.4, 209200.53, 0.006367479, 10.001108, 9.999132 
2.1749316e+3, 1.9182265e+2, -1028008.25, -1119200.5, -156688.22, -0.11760624, -0.18520367, -910416.75, 149695.81, 0.0009868387, 10.000413, 9.999119 
2.1749751e+3, 2.0182231e+2, -1049946.1, -1104808.0, -69163.1, -0.032405667, -0.110916175, -1002972.9, -40855.656, 0.000047582707, 9.999617, 9.998965 
2.1750198e+3, 2.1182032e+2, -932523.06, -955178.0, -15411.072, -0.08872985, -0.2591363, -924724.3, -60587.047, 0.00000000032497088, 9.999628, 9.999283 
2.1750642e+3, 2.2181909e+2, -807969.94, -762412.6, -80896.05, -0.13583, -0.3226816, -701149.44, 64998.277, 0.0, 9.999456, 10.000023 
2.1751083e+3, 2.3182003e+2, -645060.6, -559813.4, -55484.734, -0.044787645, -0.3110059, -532470.4, 135660.38, 0.0, 9.999613, 10.000643 
2.1751523e+3, 2.4181984e+2, -720974.8, -808857.0, -14263.411, -0.010504582, -0.30486903, -718717.8, -148590.38, 0.0, 9.999515, 9.998332 
2.1751955e+3, 2.5181645e+2, -615894.2, -774610.7, -52416.047, -0.14407808, -0.4475361, -600146.3, -127981.93, 0.0, 9.999908, 9.997671 
2.1752402e+3, 2.6181465e+2, -416105.47, -500851.75, -79041.016, -0.2173129, -0.42401063, -368796.03, 5388.073, 0.0, 10.000015, 9.998858 
2.1752891e+3, 2.7181593e+2, -162919.19, -223030.6, -59598.52, 0.065911904, -0.28530216, -126226.65, 149941.28, 0.0, 10.00067, 9.999749 
2.1753372e+3, 2.8181472e+2, -82157.23, -238771.75, -63135.92, 0.24110103, -0.33769995, -59875.363, 118301.445, 0.0, 10.000955, 9.9988575 
2.1753809e+3, 2.9181048e+2, 100878.24, -80820.43, 42443.04, 0.013868123, -0.698184, 110303.59, 190521.88, 0.00000028754212, 10.00149, 9.9989805 
2.1754272e+3, 3.0181324e+2, 176461.83, 35063.24, 55797.734, -0.077269934, -0.35473216, 195827.94, 195827.94, 0.0000061263827, 10.001423, 9.999502 
2.1754743e+3, 3.1181255e+2, 81312.695, -166742.25, 5802.5347, 0.08717937, -0.46409273, 81448.36, 81448.36, 0.000027574106, 10.001457, 9.998043 
2.1847087e+3, 1.4177464e+2, -2046935.9, -1539869.5, 15195.298, 0.00015969126, 0.057661794, -1539414.6, 11180.397, 0.34983045, 9.995192, 10.002178 
2.1847545e+3, 1.5177323e+2, -1437953.1, -1139611.4, -13079.393, 0.06955306, -0.4138044, -1139039.0, 313559.56, 0.2059314, 9.998246, 10.00329 
2.1847993e+3, 1.6177589e+2, -1410668.5, -1334994.0, -40880.85, 0.1421772, -0.36275217, -1317127.5, 37437.02, 0.09816949, 9.99919, 10.000306 
2.1848442e+3, 1.7177585e+2, -1441472.6, -1369520.9, 1783.7236, -0.069038786, -0.36386952, -1369476.6, -112910.65, 0.036017943, 9.998718, 9.999551 
2.184888e+3, 1.8177563e+2, -1390330.6, -1344527.5, -120969.805, -0.2692708, -0.31671327, -1244310.5, -85740.72, 0.009796201, 9.998515, 9.999198 
2.1849316e+3, 1.9177632e+2, -1082578.1, -1119683.4, -176258.4, -0.107976, -0.21142854, -923898.6, 136666.27, 0.0020521113, 9.999889, 9.999373 
2.1849756e+3, 2.0177637e+2, -923846.7, -1047204.1, -77970.31, 0.04873161, -0.11526857, -886108.94, 76457.07, 0.00020967671, 10.000524, 9.998918 
2.1850196e+3, 2.1177404e+2, -997111.5, -1013362.3, -70914.33, -0.04024424, -0.2751019, -933858.56, -69268.5, 0.00000086887735, 9.999312, 9.999036 
2.1850635e+3, 2.2177255e+2, -946173.06, -826113.75, -96409.48, -0.087545246, -0.34679046, -772572.5, -5968.771, 0.0, 9.998469, 10.000074 
2.1851084e+3, 2.3177402e+2, -633438.44, -520487.88, -142310.33, 0.023365574, -0.30184332, -423856.38, 244725.84, 0.0, 9.999559, 10.0009365 
2.185153e+3, 2.4177417e+2, -568558.25, -752422.2, -101374.375, 0.08506445, -0.2759628, -523639.03, 46937.117, 0.0, 10.000617, 9.998198 
2.1851963e+3, 2.5177032e+2, -453448.53, -739427.7, -56748.242, -0.10804737, -0.42854705, -442599.3, 30019.66, 0.0, 10.001183, 9.997312 
2.185241e+3, 2.6176822e+2, -253012.33, -468870.9, 8866.585, -0.18340679, -0.40369198, -252648.73, 121994.37, 0.0, 10.001307, 9.998474 
2.1852899e+3, 2.7176923e+2, -216037.16, -297832.6, -24929.945, 0.08988977, -0.240144, -209037.84, 67592.55, 0.0, 10.000504, 9.9993305 
2.1853377e+3, 2.8176805e+2, -169225.16, -209510.28, -18716.813, 0.25937164, -0.29021254, -161871.5, 16767.371, 0.0, 10.000013, 9.999534 
2.1853817e+3, 2.9176447e+2, 34681.87, -12243.938, -19612.744, 0.020761244, -0.6753146, 41799.477, 122471.695, 0.000000027227998, 10.000571, 9.999913 
2.1854295e+3, 3.017681e+2, 152115.55, -81258.22, 489.9795, 0.04253741, -0.25925305, 152116.58, 152116.58, 0.0000044959556, 10.001618, 9.998657 
2.185477e+3, 3.1176582e+2, 408407.53, 102839.3, -152521.78, 0.14522713, -0.3855671, 471507.38, 471507.38, 0.000025056477, 10.003089, 9.999186 
2.194705e+3, 1.4173251e+2, -1952039.6, -1430034.8, -248476.84, 0.021974888, -0.007046371, -1330672.0, 220327.05, 0.371045, 9.995313, 10.003584 
2.1947524e+3, 1.5172605e+2, -1680027.0, -1600046.9, 78256.87, 0.022445172, -0.655187, -1552154.4, -99094.68, 0.22535217, 9.998387, 9.999509 
2.1947975e+3, 1.6173299e+2, -1414283.1, -1378525.3, -72081.88, -0.020209739, 0.038741566, -1322138.1, 32852.832, 0.113554515, 9.999368, 9.999913 
2.1948433e+3, 1.7173052e+2, -1438474.5, -1357408.0, -14066.246, -0.06487378, -0.20288755, -1355036.6, -98025.05, 0.046104282, 9.998697, 9.999644 
2.1948867e+3, 1.8172765e+2, -1360071.9, -1288670.0, -97649.164, -0.29047775, -0.44050997, -1220400.1, -61363.156, 0.015073848, 9.998542, 9.999573 
2.1949317e+3, 1.9172816e+2, -1056949.3, -1053165.3, -114671.59, -0.13193473, -0.39581433, -940370.0, 120662.29, 0.004138987, 9.999836, 9.999858 
2.1949764e+3, 2.017286e+2, -955885.1, -1075954.5, -114029.414, 0.024605764, -0.2899225, -887052.1, 75977.27, 0.00072646124, 10.000364, 9.998794 
2.1950185e+3, 2.117277e+2, -1060207.1, -1087823.5, -114389.26, -0.07146306, -0.2714946, -958795.7, -93753.164, 0.000022642807, 9.999075, 9.9986315 
2.1950616e+3, 2.2172694e+2, -1041753.1, -936954.8, -94681.55, -0.15237744, -0.22540899, -881140.0, -114087.78, 0.000000000011542125, 9.998092, 9.999494 
2.1951075e+3, 2.3172672e+2, -707124.3, -623784.44, -83368.88, -0.04794997, -0.29434565, -572251.6, 96798.336, 0.0, 9.999342, 10.00033 
2.1951534e+3, 2.417263e+2, -592200.0, -691456.94, -87021.61, 0.009862197, -0.30690604, -541649.9, 29400.973, 0.0, 10.000163, 9.998826 
2.1951985e+3, 2.5172493e+2, -408670.88, -585763.0, -26171.78, -0.017088922, -0.3251332, -404884.0, 68183.42, 0.0, 10.000926, 9.9984865 
2.1952438e+3, 2.6172367e+2, -342622.6, -540083.06, -24659.133, -0.056660745, -0.28106925, -339589.7, 35491.832, 0.0, 10.000838, 9.998193 
2.1952888e+3, 2.7172187e+2, -314832.1, -440501.13, -41264.133, -0.07843071, -0.32764223, -302494.1, -25397.43, 0.0, 10.000259, 9.998447 
2.1953343e+3, 2.8172028e+2, -236171.16, -259057.52, -29102.967, -0.10996338, -0.360141, -216342.48, -37232.426, 0.0, 9.999655, 9.999354 
2.1953823e+3, 2.9172063e+2, -13689.463, -45127.37, 26594.248, -0.0012731985, -0.35245135, 1483.9707, 82591.32, 0.000000020729713, 10.000287, 9.99982 
2.1954322e+3, 3.0172226e+2, -38381.566, -283087.16, 41166.24, 0.08151394, -0.06679878, -31641.893, -31641.893, 0.0000055230016, 10.000841, 9.99761 
2.1954785e+3, 3.1171635e+2, 314658.88, 210390.88, -77937.04, -0.06257147, -0.49798676, 356291.28, 356291.28, 0.000029811183, 10.001896, 10.000444 
2.2047009e+3, 1.4168628e+2, -1654090.4, -1299174.0, -218970.06, 0.014826654, -0.2960113, -1194782.4, 356663.38, 0.39437363, 9.997336, 10.004021 
2.2047515e+3, 1.5168111e+2, -1712614.8, -1856373.6, 95999.64, 0.0580722, -0.5869439, -1664566.9, -211067.9, 0.24751917, 9.999223, 9.997341 
2.2047971e+3, 1.6168633e+2, -1207826.5, -1323228.8, -85629.69, -0.054620523, 0.085770436, -1162271.3, 193179.73, 0.13222682, 10.001126, 9.999494 
2.2048423e+3, 1.7168358e+2, -1255095.9, -1262311.4, -87014.44, -0.049931716, -0.18671028, -1171614.5, 85857.99, 0.059555795, 9.999869, 9.999791 
2.2048865e+3, 1.8168062e+2, -1365799.3, -1265287.4, -89183.766, -0.13907298, -0.45189038, -1213174.4, -53677.555, 0.023171267, 9.998384, 9.999819 
2.2049314e+3, 1.9168086e+2, -1187362.8, -1095124.0, -125664.84, -0.07226347, -0.45414388, -1007382.8, 54111.273, 0.008108057, 9.998845, 10.000071 
2.2049758e+3, 2.0168138e+2, -1092626.8, -1102951.4, -143643.23, 0.020629158, -0.36286917, -954053.06, 9436.81, 0.0021629941, 9.999251, 9.999155 
2.2050181e+3, 2.1168147e+2, -931303.1, -979222.75, -125792.89, -0.03959833, -0.28555697, -827208.56, 38283.617, 0.00023583506, 9.999738, 9.999067 
2.205061e+3, 2.2168112e+2, -791901.2, -854503.7, -12156.498, -0.06931368, -0.21807873, -789623.44, -22125.363, 0.0000019906881, 9.999968, 9.999161 
2.2051072e+3, 2.3167996e+2, -716221.9, -717526.7, -30326.867, -0.01552259, -0.30842957, -686540.4, -17031.994, 0.0, 9.999649, 9.999554 
2.2051531e+3, 2.4167904e+2, -693654.3, -740243.44, -28420.236, 0.04814561, -0.3159596, -680201.8, -108684.56, 0.0, 9.999451, 9.998841 
2.2051992e+3, 2.5167903e+2, -522846.94, -581764.6, -50648.645, 0.024440367, -0.2331027, -493713.03, -20192.896, 0.0, 9.999938, 9.998969 
2.2052449e+3, 2.616785e+2, -360533.56, -541007.1, -57278.53, -0.0006575506, -0.15457794, -343889.53, 31637.65, 0.0, 10.000666, 9.998277 
2.20529e+3, 2.7167556e+2, -30627.457, -324836.47, -47012.086, -0.06335138, -0.3020846, -23297.924, 254254.42, 0.0, 10.002264, 9.998296 
2.205336e+3, 2.816737e+2, 220271.86, -119881.05, -8329.489, -0.05661904, -0.33407173, 220475.7, 400043.84, 0.0, 10.003138, 9.9986315 
2.2053838e+3, 2.9167354e+2, 144171.53, -85115.91, -93572.45, 0.06537943, -0.2566545, 177510.88, 259083.17, 0.00000007580395, 10.0018835, 9.998774 
2.2054327e+3, 3.0167297e+2, -54545.543, -331727.6, -4558.0327, 0.09245623, -0.12179377, -54470.61, -54470.61, 0.0000083740215, 10.000857, 9.997297 
2.2054821e+3, 3.1166962e+2, 309171.7, 279853.75, -166603.13, 0.16616192, -0.2704781, 461759.5, 461759.5, 0.000042885644, 10.00149, 10.001121 
2.2146997e+3, 1.4163993e+2, -1646188.5, -1329654.3, 37083.797, 0.035661336, -0.39968586, -1325367.8, 226528.75, 0.4221777, 9.997288, 10.003666 
2.2147512e+3, 1.5163836e+2, -1778526.5, -1987379.1, 230898.5, 0.08926198, -0.19106624, -1629538.1, -175621.56, 0.27423543, 9.999215, 9.996454 
2.2147976e+3, 1.6163549e+2, -1204800.8, -1357920.8, -98888.414, -0.18429944, -0.22901732, -1156299.4, 199649.7, 0.15564767, 10.001358, 9.999143 
2.2148412e+3, 1.7163497e+2, -1222992.3, -1202476.3, -140302.11, -0.17771603, -0.31627518, -1072057.6, 185891.72, 0.07778218, 9.999918, 10.000211 
2.2148867e+3, 1.8163463e+2, -1359029.8, -1265058.1, -116073.18, 0.00018552794, -0.34330088, -1186821.5, -26872.963, 0.035576556, 9.99844, 9.999797 
2.2149307e+3, 1.9163443e+2, -1215941.4, -1121834.4, -94450.04, -0.05504209, -0.37731513, -1063366.1, -1415.5251, 0.0154146915, 9.998713, 9.999945 
2.2149736e+3, 2.0163462e+2, -1062934.9, -999944.3, -132851.63, -0.1524325, -0.34096316, -894905.7, 69043.16, 0.005714695, 9.999066, 9.999952 
2.2150175e+3, 2.1163525e+2, -870264.5, -806390.25, -95372.766, -0.09232745, -0.32753617, -737749.3, 128191.03, 0.0013616167, 9.9995365, 10.00035 
2.2150615e+3, 2.2163527e+2, -871526.3, -926278.7, -30408.898, -0.04759902, -0.29755703, -857986.0, -90046.62, 0.00013056793, 9.999568, 9.998859 
2.215107e+3, 2.316335e+2, -824098.1, -885791.7, -30957.275, -0.015744863, -0.35926887, -811242.75, -141282.23, 0.0000045921656, 9.999403, 9.998519 
2.2151524e+3, 2.4163224e+2, -806871.9, -862356.1, -39420.586, -0.010175475, -0.31029478, -786410.2, -214432.73, 0.000000030624218, 9.998992, 9.998212 
2.215198e+3, 2.5163257e+2, -586420.9, -647951.75, -18261.506, -0.1047779, -0.15873332, -581409.3, -107430.42, 0.0, 9.999672, 9.998633 
2.2152439e+3, 2.6163226e+2, -405103.13, -527450.6, -27267.715, -0.18998322, -0.039343588, -399301.06, -23317.027, 0.0, 10.000235, 9.998569 
2.2152928e+3, 2.716301e+2, -36103.207, -253955.4, 25342.793, -0.025812639, -0.17428026, -33193.926, 244805.52, 0.0, 10.001928, 9.998934 
2.2153413e+3, 2.81628e+2, 20239.902, -387819.5, -43562.594, 0.12925987, -0.21505278, 24838.625, 204854.67, 0.0, 10.002531, 9.9970665 
2.2153857e+3, 2.916233e+2, -65455.26, -442893.53, -122016.37, 0.05180555, -0.37560138, -29445.879, 52620.836, 0.00000027397763, 10.00157, 9.996455 
2.2154309e+3, 3.016203e+2, -106586.56, -306600.94, -19472.922, -0.20892566, -0.36632317, -104708.37, -104708.37, 0.000015050563, 10.000334, 9.997692 
2.2154847e+3, 3.116235e+2, 96548.44, 101267.33, 36823.883, 0.20249489, 0.026008468, 135807.28, 135807.28, 0.00007034586, 10.000417, 10.000384 
2.2246939e+3, 1.4158826e+2, -2020055.8, -1661541.5, 57979.188, -0.232474, -0.37974006, -1652398.3, -99993.89, 0.45833316, 9.996031, 10.000804 
2.2247522e+3, 1.5159172e+2, -1426266.6, -1598342.0, 134606.83, 0.21192542, -0.10967157, -1352549.9, 101822.96, 0.30885017, 10.000968, 9.998316 
2.2247972e+3, 1.6158767e+2, -1498895.3, -1524046.3, -13478.262, -0.24099943, -0.35713482, -1493037.0, -136622.52, 0.18666483, 9.999181, 9.999004 
2.2248405e+3, 1.7158778e+2, -1320061.8, -1267961.6, -143062.88, -0.1949179, -0.36336407, -1148596.5, 109814.82, 0.103338934, 9.999333, 10.000028 
2.2248864e+3, 1.815884e+2, -1269867.4, -1237259.0, -103745.03, 0.11900782, -0.28085262, -1148544.9, 11858.773, 0.054786276, 9.999098, 9.999683 
2.2249296e+3, 1.9158816e+2, -1119141.1, -1075458.1, -78096.91, -0.013780508, -0.3173222, -1016206.0, 46199.973, 0.028543482, 9.999354, 9.999953 
2.2249727e+3, 2.0158803e+2, -1009395.0, -965591.3, -105887.59, -0.16289629, -0.3205462, -879364.2, 85042.55, 0.013685946, 9.9994, 10.00003 
2.2250168e+3, 2.1158817e+2, -931210.9, -829467.8, -188330.95, -0.079447374, -0.36023444, -685258.7, 181143.14, 0.005262215, 9.999104, 10.000407 
2.2250612e+3, 2.2158791e+2, -943200.6, -978876.5, -143646.17, 0.024888901, -0.35569993, -816289.06, -47886.164, 0.001420654, 9.999123, 9.998725 
2.225107e+3, 2.315866e+2, -737506.3, -863166.0, -106439.32, 0.035621606, -0.35145858, -676736.3, -6315.9873, 0.0002619265, 10.000055, 9.998371 
2.2251524e+3, 2.4158542e+2, -549218.5, -747726.8, -33290.477, 0.034282666, -0.27666992, -543784.3, 28652.059, 0.000035642544, 10.0007925, 9.99814 
2.2251984e+3, 2.5158483e+2, -365455.28, -544024.94, -4265.9634, -0.07756571, -0.21646966, -365353.44, 109090.97, 0.0000011567587, 10.001158, 9.998657 
2.225245e+3, 2.6158386e+2, -274239.84, -497156.47, 16611.352, -0.13296808, -0.1533403, -273008.8, 103445.76, 0.0, 10.00126, 9.998293 
2.2252947e+3, 2.7158222e+2, -175750.64, -360884.2, -37123.85, 0.031995296, -0.19247293, -168583.83, 109884.445, 0.0, 10.001171, 9.998561 
2.2253434e+3, 2.8158042e+2, -192815.17, -498890.72, -112588.945, 0.20837657, -0.17712972, -155861.28, 24623.01, 0.0, 10.001082, 9.997022 
2.2253881e+3, 2.9157498e+2, 48588.965, -368721.38, -69045.29, 0.10897709, -0.40389132, 59716.03, 142255.6, 0.00000073017384, 10.002279, 9.996622 
2.2254339e+3, 3.0157253e+2, 308509.88, -103737.82, 128803.12, -0.06644637, -0.37417522, 345444.22, 345444.22, 0.00002755439, 10.003147, 9.997756 
2.2254848e+3, 3.115735e+2, 244962.23, 112882.266, -25305.78, 0.13150047, -0.13174434, 249644.67, 249644.67, 0.000118261974, 10.00164, 9.999919 
2.234754e+3, 1.5154141e+2, -1216434.4, -1082183.4, -2325.767, 0.23901041, -0.27331054, -1082143.1, 372723.03, 0.35698506, 10.0007305, 10.003269 
2.2347954e+3, 1.6154222e+2, -1501855.1, -1524778.0, -43147.758, -0.4156876, -0.36109382, -1468672.5, -111818.99, 0.23053116, 9.99915, 9.999016 
2.2348398e+3, 1.7154184e+2, -1394205.9, -1400408.3, -138245.34, -0.2294295, -0.34402272, -1259027.0, -166.88051, 0.14104874, 9.999227, 9.999115 
2.2348848e+3, 1.8154183e+2, -1289276.8, -1270927.5, -113211.0, 0.0052739163, -0.26802468, -1166520.0, -5657.226, 0.08532412, 9.999072, 9.99946 
2.2349288e+3, 1.9154195e+2, -1123769.4, -1059984.9, -60505.25, -0.08398046, -0.27180886, -1023481.2, 39379.742, 0.05187056, 9.999245, 10.000121 
2.234972e+3, 2.0154175e+2, -1092879.5, -1085240.5, -127161.92, -0.20363872, -0.2703785, -961840.75, 3021.6636, 0.030293982, 9.999174, 9.999311 
2.2350156e+3, 2.1154006e+2, -1043451.3, -1011586.25, -191744.98, -0.1289595, -0.38782308, -835113.0, 31765.314, 0.015773455, 9.998883, 9.99926 
2.23506e+3, 2.2153883e+2, -1003810.7, -1003231.56, -132771.83, -0.04276615, -0.39977032, -870749.0, -101858.79, 0.0069356123, 9.998702, 9.998749 
2.2351067e+3, 2.315392e+2, -719859.0, -772450.56, -54265.914, -0.011899164, -0.29712775, -685853.4, -14965.019, 0.002541045, 9.999822, 9.999098 
2.2351529e+3, 2.4153866e+2, -598875.6, -736514.56, -31496.154, -0.03339124, -0.21071526, -592010.7, -19116.873, 0.00075579167, 10.000318, 9.998436 
2.2352003e+3, 2.5153595e+2, -388476.06, -519834.53, 19026.617, -0.049342133, -0.4012751, -385775.66, 89140.44, 0.00014769337, 10.00085, 9.998966 
2.235247e+3, 2.6153344e+2, -430926.28, -690549.06, -7370.4614, -0.06860846, -0.4735976, -430717.22, -53779.242, 0.000007045108, 10.000721, 9.997207 
2.2352955e+3, 2.7153194e+2, -326703.53, -611334.9, -28954.143, -0.03492202, -0.35065106, -323788.03, -44830.03, 0.00000000065814787, 10.000906, 9.996956 
2.2353427e+3, 2.815306e+2, -199849.11, -383101.8, -116532.42, -0.022593098, -0.23108149, -143235.14, 37740.258, 0.0, 10.000569, 9.998039 
2.23539e+3, 2.9152814e+2, 111896.84, -105943.0, -3213.823, 0.03619283, -0.37586316, 111944.24, 194940.02, 0.0000012574419, 10.001755, 9.998654 
2.2354394e+3, 3.0152816e+2, 86722.72, -330369.16, 76579.92, 0.14617307, -0.17807621, 100338.64, 100338.64, 0.000044073433, 10.002203, 9.996627 
2.2354837e+3, 3.1152305e+2, 10995.963, -79680.99, 2297.9695, -0.18839054, -0.36119312, 11054.161, 11054.161, 0.00018419352, 10.000484, 9.999117 
2.2447492e+3, 1.5149452e+2, -1595617.9, -1297546.0, 70133.414, -0.16677985, -0.2593632, -1281868.9, 173458.47, 0.42759266, 9.997449, 10.00268 
2.2447965e+3, 1.6149597e+2, -1350322.1, -1374645.3, -70239.11, -0.21845448, -0.35085595, -1291199.5, 66106.96, 0.29616648, 9.999949, 9.99975 
2.2448401e+3, 1.7149585e+2, -1271427.1, -1353013.4, -153383.14, -0.13987666, -0.31035495, -1153505.3, 105806.44, 0.19952731, 10.000236, 9.999025 
2.2448838e+3, 1.8149556e+2, -1183690.6, -1208503.5, -79412.13, -0.01924101, -0.25833187, -1115721.6, 45596.64, 0.13536815, 9.999769, 9.999565 
2.244928e+3, 1.9149609e+2, -1132649.0, -1047898.06, -55939.33, -0.06339589, -0.24298602, -1020096.0, 43216.945, 0.09319166, 9.999088, 10.000309 
2.2449717e+3, 2.0149618e+2, -1179099.4, -1188870.1, -67718.26, -0.10153952, -0.20534258, -1116090.5, -150778.77, 0.06306426, 9.998789, 9.99882 
2.2450157e+3, 2.1149403e+2, -884434.7, -1025411.25, -118800.53, -0.07043592, -0.2882061, -816784.75, 50548.15, 0.0400799, 10.000345, 9.998485 
2.24506e+3, 2.214921e+2, -624183.06, -862083.6, -45892.99, -0.027694464, -0.30336985, -615636.94, 153715.0, 0.023131557, 10.001485, 9.998398 
2.245107e+3, 2.314917e+2, -688592.0, -768791.06, -79787.695, 0.03509093, -0.26136136, -639394.0, 31962.008, 0.011994159, 10.000089, 9.999001 
2.2451536e+3, 2.4149066e+2, -733744.4, -787782.7, -47158.74, 0.099093385, -0.21902505, -706413.0, -133048.11, 0.0054928027, 9.999267, 9.998619 
2.2452016e+3, 2.5148818e+2, -374672.78, -461794.1, 2900.1204, 0.04546712, -0.4204952, -374576.38, 100806.016, 0.002050329, 10.000705, 9.999448 
2.2452487e+3, 2.6148573e+2, -322987.66, -703119.3, -1063.7842, 0.0070244893, -0.49573922, -322984.66, 54418.01, 0.0004876709, 10.001724, 9.996651 
2.2452971e+3, 2.7148333e+2, -160428.38, -631611.3, -2684.9792, -0.008882087, -0.37054515, -160413.08, 119020.41, 0.000047167257, 10.002479, 9.996071 
2.2453442e+3, 2.8148153e+2, 103549.766, -205184.77, -68793.41, -0.0016328192, -0.25270453, 118184.83, 299641.16, 0.00000034188096, 10.002492, 9.998349 
2.2453919e+3, 2.9148e+2, 244491.1, 24487.863, -90106.32, 0.043311834, -0.34897247, 276684.78, 360150.2, 0.0000013302117, 10.002326, 9.999306 
2.2454421e+3, 3.0148003e+2, 9578.629, -408784.94, -25332.44, 0.2483807, -0.19702716, 11106.957, 11106.957, 0.0000584347, 10.0017805, 9.996306 
2.2454871e+3, 3.1147388e+2, 224872.19, 88814.77, -137228.8, 0.06456459, -0.37935138, 310008.9, 310008.9, 0.00025945, 10.001554, 9.999773 
2.2548e+3, 1.6144994e+2, -1393437.5, -1350728.5, -53305.457, 0.035176653, -0.2018909, -1314659.3, 43105.023, 0.39765337, 9.999365, 10.000222 
2.2548418e+3, 1.714496e+2, -1241355.5, -1264500.4, -147524.66, -0.06739019, -0.26935875, -1104950.1, 154818.64, 0.29298013, 10.000189, 9.999773 
2.254883e+3, 1.8144928e+2, -1223907.1, -1219972.5, -138675.61, -0.16767907, -0.2739932, -1083250.3, 78523.055, 0.21888196, 9.9994955, 9.999657 
2.254927e+3, 1.9145001e+2, -1168113.8, -1055737.5, -82740.945, -0.10293648, -0.26287773, -1011909.8, 51857.387, 0.16615056, 9.99881, 10.000399 
2.2549713e+3, 2.0145097e+2, -1254611.0, -1262947.4, -48528.91, -0.07785315, -0.14759897, -1210071.6, -244313.27, 0.12546477, 9.9984455, 9.998454 
2.2550161e+3, 2.1144985e+2, -949527.5, -1108093.9, -42901.92, -0.07533329, -0.09153763, -938664.2, -70896.2, 0.0914258, 10.000123, 9.997998 
2.2550608e+3, 2.2144765e+2, -758862.06, -1045558.1, -69823.9, -0.1391145, -0.066859275, -742760.9, 27027.512, 0.062582165, 10.001056, 9.997345 
2.2551075e+3, 2.3144402e+2, -797679.1, -946069.4, -127263.14, 0.054948997, -0.24466464, -724562.25, -52737.83, 0.039919913, 9.999859, 9.997896 
2.2551543e+3, 2.4144128e+2, -843540.7, -846417.44, -48379.418, 0.20942928, -0.2921021, -796578.25, -222727.73, 0.023601582, 9.998573, 9.998533 
2.2552024e+3, 2.5144145e+2, -384591.16, -389665.8, 69271.88, 0.053058553, -0.2945792, -317810.16, 158033.67, 0.012405956, 10.000339, 10.000108 
2.2552498e+3, 2.6144028e+2, -436448.88, -793885.1, -3968.3384, -0.11051244, -0.2559578, -436404.8, -58552.758, 0.005154125, 10.001136, 9.996297 
2.2552991e+3, 2.7143604e+2, -255342.19, -707077.0, 32939.383, -0.06862978, -0.2992918, -252952.97, 26944.809, 0.0013586987, 10.001982, 9.995777 
2.2553469e+3, 2.814329e+2, -73215.195, -381189.75, -104408.01, -0.01393244, -0.26768625, -41156.477, 140774.89, 0.00015517221, 10.00172, 9.997488 
2.2553936e+3, 2.9143107e+2, 119768.125, -107142.32, -76769.48, -0.03729234, -0.3039912, 143300.64, 227244.48, 0.0000026982873, 10.001855, 9.998588 
2.2554411e+3, 3.0142877e+2, -97592.3, -451683.8, -79254.836, -0.0831711, -0.35844558, -80662.46, -80662.46, 0.000065484004, 10.001075, 9.996323 
2.255491e+3, 3.1142262e+2, 145245.06, 198880.2, 71130.99, 0.21689194, -0.5541849, 248081.05, 248081.05, 0.00034262822, 10.000439, 10.001052 
2.2648391e+3, 1.7140254e+2, -1328219.1, -1220414.0, -33751.297, -0.25017014, -0.41743666, -1210719.1, 49509.62, 0.44342524, 9.998177, 10.001275 
2.2648838e+3, 1.8140827e+2, -1068087.9, -1338117.1, 69909.055, -0.15401053, -0.10479627, -1051062.3, 111110.42, 0.3585124, 10.001658, 9.997791 
2.2649263e+3, 1.9140516e+2, -1219508.9, -1390670.1, -164496.05, -0.07799428, -0.16103779, -1119663.0, -55455.984, 0.29413474, 9.999812, 9.9975 
2.2649695e+3, 2.0140204e+2, -1094887.0, -1199620.6, -136553.22, -0.12032293, -0.2770248, -1001003.9, -34763.766, 0.24160613, 9.999457, 9.998462 
2.2650142e+3, 2.1140087e+2, -664230.5, -854746.56, -30007.994, -0.3647378, -0.2894025, -659615.75, 208631.89, 0.1940874, 10.0019245, 9.998939 
2.2650602e+3, 2.2139941e+2, -395388.22, -840549.06, -25662.79, -0.41940615, -0.25656593, -393913.7, 376344.78, 0.14888066, 10.00394, 9.997389 
2.2651075e+3, 2.313967e+2, -405310.5, -811108.94, -114307.42, -0.06399621, -0.2749825, -375327.16, 296958.75, 0.108788945, 10.00308, 9.997299 
2.2651543e+3, 2.4139374e+2, -408740.22, -753541.94, 24512.182, 0.19475879, -0.26081735, -407006.34, 167309.2, 0.07581198, 10.002086, 9.997509 
2.2652033e+3, 2.513928e+2, -323372.88, -518529.5, 6929.8965, 0.09049887, -0.24417706, -323127.13, 153196.38, 0.048806984, 10.001375, 9.99879 
2.2652513e+3, 2.6139107e+2, -410583.44, -742181.75, -103642.125, -0.0422418, -0.17582636, -380854.97, -2515.1912, 0.026684597, 10.001041, 9.99674 
2.265301e+3, 2.713875e+2, -30991.805, -439741.03, 15214.571, -0.07325927, -0.28071058, -30426.268, 249948.34, 0.010897145, 10.002756, 9.997288 
2.2653489e+3, 2.813846e+2, -18678.008, -434275.03, -70880.28, 0.024965039, -0.29855633, -6921.888, 175480.6, 0.002788968, 10.002397, 9.996827 
2.2653975e+3, 2.9138154e+2, 217091.73, -246047.23, -80724.4, 0.12888075, -0.2871345, 230758.58, 315188.66, 0.0003034348, 10.003347, 9.996926 
2.2654444e+3, 3.0137715e+2, 231602.06, -246353.9, -155690.84, 0.040688507, -0.49509317, 277843.5, 277843.5, 0.000074942734, 10.003176, 9.996742 
2.2654912e+3, 3.113736e+2, 105119.63, 174274.38, -41189.188, 0.23080146, -0.39007032, 193475.66, 193475.66, 0.00045627946, 10.000048, 10.001177 
2.2749718e+3, 2.0135404e+2, -1122241.0, -1382159.5, 38047.7, 0.07450867, -0.07792975, -1116786.0, -150074.66, 0.4526298, 10.000027, 9.996875 
2.275019e+3, 2.1135218e+2, -866444.75, -781576.6, 52151.355, -0.083020754, -0.35690203, -756776.7, 111945.32, 0.38963944, 9.999281, 10.000999 
2.2750701e+3, 2.2135095e+2, -1295900.0, -1272629.0, -164274.63, 0.10897767, -0.4919651, -1119578.4, -348850.7, 0.32267725, 9.997206, 9.997606 
2.2751114e+3, 2.3134938e+2, -1048791.6, -1154966.3, -189580.92, 0.008708008, -0.4095414, -905005.44, -232261.39, 0.25840095, 9.998564, 9.997022 
2.2751535e+3, 2.4134654e+2, -822615.0, -1298470.1, -11668.988, -0.18330622, -0.2471793, -822329.06, -247554.56, 0.20062341, 10.000644, 9.994429 
2.2752047e+3, 2.513422e+2, -672111.75, -1038855.1, -2439.485, 0.02481497, -0.32528958, -672095.56, -195272.7, 0.14660953, 10.000476, 9.995599 
2.275253e+3, 2.6133883e+2, -683566.75, -871984.3, -102030.266, -0.017401049, -0.19962817, -638903.4, -260044.38, 0.09444842, 9.99921, 9.996686 
2.2753032e+3, 2.7133858e+2, 54129.344, -66198.22, 71731.695, -0.165823, -0.25343278, 87587.766, 368442.78, 0.04983968, 10.002035, 10.000229 
2.2753504e+3, 2.8133708e+2, -275877.63, -674032.44, -164437.61, -0.12280899, -0.28486308, -216746.7, -33882.11, 0.019500945, 10.00119, 9.995727 
2.2754024e+3, 2.913314e+2, -92675.38, -691355.06, -28568.367, 0.2611944, -0.3484764, -91315.22, -6391.49, 0.004786881, 10.00255, 9.994217 
2.2754492e+3, 3.0132496e+2, 30385.219, -336802.6, -290435.66, 0.17280115, -0.61509794, 190389.31, 190389.31, 0.0007184054, 10.00189, 9.996682 
2.2754863e+3, 3.1132755e+2, -267517.94, -185121.77, -41802.047, -0.3096036, -0.0027825206, -167628.34, -167628.34, 0.0007782504, 9.998492, 9.9993515 
2.2851567e+3, 2.4129388e+2, -259601.56, -1380.3041, -5778.541, -0.017632816, -0.21692684, -1251.0552, 574044.25, 0.45869297, 9.999394, 10.007866 
2.2852056e+3, 2.5129294e+2, -1017261.56, -1066015.6, -357345.28, 0.23926872, -0.041884884, -683462.8, -206156.84, 0.36361384, 9.997426, 9.9970255 
2.285251e+3, 2.6128817e+2, -1039338.1, -988003.7, 27035.803, -0.045380447, -0.16899781, -976391.7, -597036.8, 0.26167566, 9.996255, 9.997412 
2.2853078e+3, 2.7128786e+2, -26777.9, -171186.27, 59376.32, 0.1516311, -0.17186217, -5499.5107, 275851.4, 0.1640845, 10.001845, 9.999799 
2.285355e+3, 2.8128564e+2, -12632.278, -297871.7, -382615.75, 0.20241188, -0.28297216, 253080.22, 436447.88, 0.0825175, 10.001958, 9.998097 
2.2854029e+3, 2.9128394e+2, 365520.5, -21566.77, 233086.33, 0.022812834, -0.31331268, 474942.8, 560330.8, 0.030766618, 10.003668, 9.998403 
2.2854514e+3, 3.012837e+2, 558287.3, 152102.19, 188808.44, 0.11611998, -0.3260319, 632494.6, 632494.6, 0.009050352, 10.004325, 9.998964 
2.2854885e+3, 3.112827e+2, 98172.38, 126377.11, -2485.7056, -0.04364275, -0.10825924, 126594.5, 126594.5, 0.0039668567, 10.000356, 10.000591 
2.2953066e+3, 2.712283e+2, 49433.887, -328587.03, -133463.05, -0.18338993, -0.7714291, 91804.8, 373736.1, 0.434636, 10.00521, 9.996931 
2.2953624e+3, 2.8122962e+2, -838623.75, -548101.06, -546168.8, 0.64594567, -0.45871106, -128206.43, 55710.773, 0.25417715, 9.995614, 9.999317 
2.2953996e+3, 2.912423e+2, 778200.6, 1144759.8, 375961.13, -0.7616542, -0.12166286, 1379736.4, 1465528.5, 0.121776454, 10.002719, 10.007882 
2.2954515e+3, 3.0125558e+2, -457859.2, -422865.3, 14765.753, -0.48539922, 0.6260338, -417467.47, -417467.47, 0.054076422, 9.997877, 9.997963 
2.2954983e+3, 3.1123763e+2, -246814.31, 196616.77, -386376.9, 0.7164312, -1.1235626, 420372.75, 420372.75, 0.0316889, 9.9973345, 10.002362 
2.3054133e+3, 2.9121006e+2, -582184.25, -1656387.1, -202813.02, -0.14513382, -0.14173059, -545168.06, -459069.4, 0.36180067, 10.00165, 9.988601 
2.3054697e+3, 3.0119693e+2, 139337.81, 189223.9, -479417.7, 0.7373435, -1.2440324, 644346.94, 644346.94, 0.21636835, 10.000372, 10.001804 
2.305491e+3, 3.1121114e+2, -8399.772, -256696.98, 643393.25, -0.13591804, 0.12077183, 522713.2, 522713.2, 0.16956417, 10.000588, 9.998918 
2.3448162e+3, 2.772005e+2, -371143.6, -1283723.8, -780989.1, 0.219037, -0.45397863, 77079.8, 300487.9, 0.47224867, 10.004112, 9.99036 
2.3444097e+3, 2.871977e+2, -536287.9, -73996.484, -304801.25, -0.6436322, 0.047787882, 77391.66, 202827.55, 0.4440203, 9.995192, 10.002876 
2.3585376e+3, 1.7765874e+2, -677572.25, -639462.7, 377295.8, 0.38952065, -0.6408483, -280740.78, 918181.7, 0.4365323, 10.003234, 10.004542 
2.3581582e+3, 1.8766096e+2, -1390999.9, -1128283.9, 30892.682, 0.17628124, 0.14461988, -1124700.1, -23807.287, 0.3776964, 9.997184, 10.000366 
2.357774e+3, 1.9765253e+2, -1555899.4, -1316439.8, 114001.47, -0.055513542, -0.215215, -1270847.0, -267877.03, 0.33361894, 9.995777, 9.999207 
2.3573968e+3, 2.0763299e+2, -1157062.0, -939558.1, 165330.2, -0.9206238, -1.443701, -850418.5, 54738.24, 0.3010926, 9.997484, 10.000293 
2.3570469e+3, 2.176292e+2, -1241815.8, -1065505.6, 261247.3, 0.85102904, -1.3026454, -877940.75, -70750.79, 0.27833492, 9.996348, 9.999484 
2.356673e+3, 2.2763059e+2, -196955.52, -582501.5, -36794.926, 0.68406993, -0.3988202, -193475.38, 515702.75, 0.26130807, 10.0047, 9.998341 
2.3562878e+3, 2.3761964e+2, -871735.3, -1047004.75, 6260.6104, -0.64113164, -0.7965109, -871511.94, -260222.22, 0.24582131, 9.99856, 9.997262 
2.3559245e+3, 2.4761122e+2, -457960.47, -1009614.56, 504118.16, 0.121567726, -0.5288921, -159143.58, 354230.9, 0.23020415, 10.002604, 9.99489 
2.3555574e+3, 2.5760153e+2, -486974.34, -819623.3, 651661.9, 0.14591993, -0.33794537, 19253.758, 434724.5, 0.2100035, 10.0006485, 9.996744 
2.3551731e+3, 2.6759717e+2, 377697.38, 493972.34, 288922.13, -0.42229673, -0.29288104, 730548.2, 1048058.75, 0.17529896, 10.002494, 10.0051155 
2.3547967e+3, 2.775901e+2, -1087477.6, -1256046.4, 582655.0, -0.907985, -0.46080253, -583042.5, -363467.13, 0.13172133, 9.996118, 9.994281 
2.3544186e+3, 2.8757942e+2, 792422.9, 72250.72, -179858.55, -0.036897786, -0.31876144, 834842.75, 956522.75, 0.12173604, 10.007759, 9.997315 
2.3540515e+3, 2.975761e+2, 969282.1, 548791.6, 394466.66, 1.249742, -0.28711256, 1206034.6, 1229748.8, 0.1820784, 10.007619, 10.001072 
2.3536785e+3, 3.0756602e+2, -446520.0, -46085.734, -4274.2114, 0.060266696, -0.6157534, -46040.117, -46040.117, 0.3078207, 9.996707, 10.001411 
2.3692751e+3, 1.5805793e+2, -1383396.9, -668984.75, 149781.5, -0.3404591, 0.116674155, -638852.9, 752162.06, 0.40917808, 9.994043, 10.010744 
2.3689017e+3, 1.6805466e+2, -1909182.5, -1762152.3, -213170.64, -0.10502803, 0.21520996, -1610176.4, -317140.13, 0.31914258, 9.996057, 9.998033 
2.368522e+3, 1.7804033e+2, -1869862.0, -1828498.3, -108983.29, -0.3683696, -0.40413943, -1738251.8, -543072.5, 0.25440106, 9.996028, 9.99708 
2.3681548e+3, 1.880309e+2, -949063.06, -975605.8, -69646.86, 0.6572088, -0.49144864, -891434.44, 205834.77, 0.20803168, 10.000604, 10.000155 
2.3677917e+3, 1.9802819e+2, -193375.42, -656159.0, -44535.0, 2.1425285, -0.12504497, -189128.66, 810163.0, 0.17323133, 10.006248, 9.999376 
2.3674089e+3, 2.0802355e+2, -283869.28, -636058.4, 172182.45, 0.86729527, 0.17318249, -213679.28, 687656.44, 0.14628568, 10.004567, 9.999394 
2.367023e+3, 2.1801831e+2, -650548.7, -795187.7, 59028.594, -0.827409, 0.35497776, -629516.75, 173869.23, 0.12553912, 10.000807, 9.999225 
2.3666582e+3, 2.2801171e+2, -501761.16, -628569.25, -2094.672, -0.17784575, 0.43745628, -501726.56, 203724.16, 0.108313076, 10.001028, 9.999562 
2.3662962e+3, 2.380019e+2, -332700.38, -561257.4, -12592.022, 0.89026326, 0.19056307, -332008.75, 275538.6, 0.092006706, 10.001742, 9.9990425 
2.3659188e+3, 2.4799268e+2, -303982.1, -241566.38, 109734.36, 0.24914773, -0.094532415, -158688.47, 350946.25, 0.07587346, 10.000154, 10.001423 
2.3655422e+3, 2.5798213e+2, -760197.3, -765669.06, 172854.16, -0.63038486, -0.4485919, -590057.4, -178323.4, 0.059166577, 9.997814, 9.99811 
2.3651674e+3, 2.679761e+2, -16584.555, 184148.95, -181145.1, -0.43209538, -0.4689811, 290874.03, 604663.06, 0.040461063, 10.000022, 10.002965 
2.3647986e+3, 2.7797037e+2, -284791.84, -550592.1, 66563.86, 0.072101675, -0.5525408, -269054.2, -53213.22, 0.02269143, 10.000528, 9.996791 
2.3644185e+3, 2.8795826e+2, -16401.041, -645765.4, -206644.75, 0.11582001, -0.5911123, 45383.15, 163342.48, 0.017877188, 10.0030365, 9.994164 
2.3640384e+3, 2.979467e+2, 38541.098, -297942.88, 310564.1, 0.010969387, -0.90003216, 223506.44, 243580.22, 0.038469367, 10.001762, 9.996929 
2.3636626e+3, 3.079413e+2, -195054.9, 21026.213, -36647.137, -0.49186695, -0.58384496, 27072.354, 27072.354, 0.08541018, 9.998443, 10.0006275 
2.3796377e+3, 1.4843053e+2, -1442105.5, -1397213.5, 304815.8, -0.529621, -0.38036218, -1114018.4, 371348.66, 0.38968268, 10.000089, 10.000756 
2.3792681e+3, 1.5842137e+2, -1954102.3, -1692823.8, -80348.77, 0.008949207, -0.8266956, -1670092.4, -282657.72, 0.27836236, 9.995755, 9.999471 
2.3788933e+3, 1.6841958e+2, -1638304.6, -1212111.4, -80210.52, 0.108032115, -0.4096971, -1197515.4, 91941.31, 0.19862524, 9.996153, 10.0018835 
2.378516e+3, 1.7842108e+2, -1518499.8, -1399349.3, -53923.55, -0.023189263, 0.15492488, -1378569.4, -187115.98, 0.1461588, 9.997512, 9.999253 
2.3781428e+3, 1.8841249e+2, -1085430.1, -1260854.6, 90894.36, -0.020771313, 0.1511576, -1046828.44, 46707.547, 0.11113541, 10.0005245, 9.9979925 
2.3777728e+3, 1.983999e+2, -693054.06, -1113426.1, 32138.984, 0.24026035, -0.29378283, -690611.1, 305043.25, 0.08556882, 10.002927, 9.997318 
2.3774011e+3, 2.0839208e+2, -610563.44, -861965.94, 53060.414, 0.26981336, -0.22698614, -599823.44, 297907.66, 0.065839775, 10.002186, 9.998626 
2.3770253e+3, 2.183848e+2, -1046542.06, -1166425.8, 14893.909, -0.10768791, -0.18594602, -1044719.4, -244915.55, 0.050802168, 9.998836, 9.997561 
2.3766555e+3, 2.2837643e+2, -781190.3, -740326.1, 38314.145, 0.037024282, -0.251168, -717336.56, -15450.932, 0.03888462, 9.999044, 9.99961 
2.3762901e+3, 2.3836759e+2, -776203.25, -834481.5, -17416.047, 0.6101795, -0.41552943, -771395.25, -167424.03, 0.028499532, 9.99894, 9.998452 
2.3759128e+3, 2.4836157e+2, -401211.25, -161275.28, -4074.9004, 0.20998234, -0.4558594, -161206.11, 344817.6, 0.019239584, 9.9990425, 10.002316 
2.3755364e+3, 2.5835457e+2, -953118.8, -781361.7, 84713.0, -0.4451854, -0.6101613, -746611.0, -338526.7, 0.01143259, 9.99636, 9.99865 
2.3751628e+3, 2.683496e+2, -281247.5, -136779.95, -186422.05, -0.23806539, -0.45495838, -9086.492, 301042.03, 0.005417436, 9.9992485, 10.000912 
2.374793e+3, 2.783437e+2, -353505.3, -463181.4, -76355.26, 0.04047035, -0.48091447, -314336.25, -102153.85, 0.0017239751, 9.999599, 9.997853 
2.3744124e+3, 2.8833297e+2, 287111.03, -64930.793, -237074.44, -0.16302226, -0.6527527, 406365.66, 520654.25, 0.0009962119, 10.003224, 9.998108 
2.3740363e+3, 2.9832736e+2, 109964.34, -252432.33, 168683.97, -0.08024165, -0.6276734, 176328.36, 192674.61, 0.0037776493, 10.002095, 9.997151 
2.3736657e+3, 3.0832127e+2, 304154.13, -17707.143, 100647.18, -0.18143483, -0.08088936, 333035.28, 333035.28, 0.01110807, 10.003102, 9.998182 
2.3900059e+3, 1.388237e+2, -1746736.0, -1408518.6, 427363.97, -0.44715574, 0.60243493, -1118021.3, 461489.4, 0.42782646, 9.997365, 10.003295 
2.3896343e+3, 1.4880963e+2, -1623468.8, -1530829.8, -59817.43, -0.17899731, -0.24054758, -1501494.6, -19861.137, 0.2998544, 9.998516, 9.999864 
2.3892602e+3, 1.587986e+2, -1574870.4, -1654987.8, 5670.495, 0.020358074, -0.63913053, -1574471.0, -190739.06, 0.19614406, 9.998808, 9.998362 
2.3888859e+3, 1.6879307e+2, -1067328.9, -1157862.0, -16869.834, 0.05646477, -0.44752562, -1064287.6, 221504.36, 0.12585048, 10.001084, 9.999991 
2.3885117e+3, 1.7878936e+2, -756697.8, -1082133.1, -112661.36, 0.03310306, -0.17983107, -721502.3, 466334.97, 0.083471425, 10.003123, 9.998869 
2.3881385e+3, 1.8878135e+2, -797805.06, -1015408.4, -47536.977, 0.04100031, -0.20011123, -787873.56, 302040.72, 0.057587944, 10.002041, 9.999036 
2.3877656e+3, 1.9877128e+2, -1045312.0, -1219737.3, 15000.45, 0.033998527, -0.4432678, -1044031.4, -52022.44, 0.03970386, 9.9998665, 9.998089 
2.3873931e+3, 2.0876274e+2, -860213.06, -1014297.25, 30899.332, 0.016174875, -0.46725428, -854247.6, 39847.906, 0.026570952, 10.000348, 9.99848 
2.3870207e+3, 2.1875457e+2, -611990.4, -874553.56, 42136.234, 0.008339947, -0.46645388, -605394.06, 190785.58, 0.017417854, 10.0014105, 9.998341 
2.3866501e+3, 2.2874841e+2, -490116.84, -501524.94, 96111.086, 0.17083116, -0.39179513, -399540.7, 298701.1, 0.011141793, 10.00061, 10.000545 
2.386281e+3, 2.387415e+2, -641816.25, -672622.56, 149702.2, 0.40285662, -0.39801037, -506726.84, 93583.305, 0.0065593217, 9.999442, 9.999297 
2.3859052e+3, 2.4873514e+2, -378247.88, -252013.84, 63710.977, 0.1491166, -0.42328653, -225448.95, 276919.63, 0.0032030866, 9.999601, 10.0013895 
2.3855305e+3, 2.587287e+2, -551356.94, -556476.4, 75850.32, -0.21013995, -0.44865566, -478023.16, -73597.195, 0.0011282732, 9.998949, 9.998917 
2.3851575e+3, 2.6872241e+2, -329229.25, -260725.81, -71071.44, -0.077222906, -0.36700207, -216083.11, 90397.43, 0.00023273825, 9.999322, 10.00003 
2.3847862e+3, 2.7871504e+2, -402935.94, -337870.8, 23254.164, 0.087793864, -0.46613562, -330414.34, -121868.01, 0.000018977813, 9.998526, 9.9992285 
2.3844069e+3, 2.8870615e+2, 34687.74, 4102.6665, -192327.84, -0.23958285, -0.63386196, 212330.06, 322965.5, 0.000039610317, 10.0006485, 9.999788 
2.3840328e+3, 2.9870367e+2, 47518.05, -347621.22, -74282.29, 0.0072743883, -0.3072643, 61020.96, 73684.83, 0.00031053094, 10.001857, 9.996581 
2.3836653e+3, 3.0869532e+2, 96317.33, -111708.97, -336134.94, 0.2427203, 0.087524086, 344164.13, 344164.13, 0.0010092399, 10.001765, 9.997998 
2.4003743e+3, 1.2919882e+2, -1807674.8, -1928487.8, 425406.88, 0.04960061, -0.16207063, -1438407.0, 235406.69, 0.4904372, 10.000683, 9.99763 
2.4000053e+3, 1.3918415e+2, -1847814.1, -1972771.5, 48136.89, 0.17531356, -0.9439265, -1831421.1, -255465.58, 0.36336103, 9.998955, 9.997219 
2.39963e+3, 1.4918026e+2, -1466749.6, -1386553.0, -60685.734, 0.19544213, -0.6354158, -1353914.6, 124076.56, 0.24041095, 9.999522, 10.000396 
2.3992527e+3, 1.5917756e+2, -1590608.4, -1713902.4, -39719.234, 0.061133977, -0.28447187, -1578920.8, -198904.84, 0.14389461, 9.999161, 9.997647 
2.3988797e+3, 1.6916682e+2, -1321434.5, -1559333.0, 90187.37, -0.004635947, -0.4252926, -1291110.0, -8985.625, 0.08188297, 10.000523, 9.997322 
2.3985076e+3, 1.7915428e+2, -1137847.4, -1441863.4, -36994.375, 0.019753028, -0.78029495, -1133410.5, 50840.83, 0.047678713, 10.001059, 9.99734 
2.3981352e+3, 1.8914886e+2, -890584.6, -892630.44, -60362.97, 0.2455262, -0.6079858, -831235.9, 255066.08, 0.028905774, 10.000687, 10.000489 
2.3977624e+3, 1.9914472e+2, -1218121.8, -1268566.0, 686.6982, 0.42612866, -0.39129934, -1218112.5, -229772.75, 0.017015342, 9.998699, 9.998291 
2.3973876e+3, 2.0913558e+2, -995867.6, -1065202.0, 101121.79, 0.14095351, -0.4823747, -923635.6, -33201.004, 0.00915297, 9.999525, 9.998484 
2.3970143e+3, 2.1912569e+2, -883099.5, -991177.5, 44788.47, -0.06653738, -0.6604784, -866951.5, -74413.27, 0.0045936005, 9.999632, 9.99839 
2.3966421e+3, 2.291234e+2, -551810.4, -374585.4, 42990.09, -0.00046553704, -0.3169397, -364707.7, 329857.2, 0.0022051786, 9.999606, 10.001857 
2.3962703e+3, 2.3912069e+2, -886672.0, -827344.75, 85693.77, 0.06094587, -0.026704589, -766325.7, -169730.92, 0.0009056362, 9.998026, 9.998917 
2.3958972e+3, 2.4911365e+2, -605351.25, -540279.8, 33981.8, 0.0817543, -0.0065390645, -525769.44, -27102.809, 0.00023937336, 9.999043, 9.999558 
2.3955259e+3, 2.5910512e+2, -800694.06, -821880.75, 24002.7, 0.092199214, -0.11379102, -785051.0, -384299.75, 0.000025130046, 9.997955, 9.99758 
2.3951516e+3, 2.690964e+2, -293920.13, -172684.52, -62740.535, 0.061279546, -0.26731375, -146061.88, 156764.0, 0.00000030344088, 9.999364, 10.000576 
2.3947774e+3, 2.790882e+2, -528958.4, -412305.1, 8993.701, -0.04897702, -0.5513849, -411615.78, -206720.55, 0.0000000068303647, 9.9977865, 9.999094 
2.3944001e+3, 2.8908026e+2, -152347.67, -250742.86, -77794.79, -0.31773216, -0.53328055, -109499.445, -2523.205, 0.0000039429096, 10.000205, 9.9982 
2.3940256e+3, 2.990754e+2, -355038.66, -776661.3, -7493.147, -0.45808765, -0.17954579, -354905.53, -345876.44, 0.00006190627, 10.000188, 9.994417 
2.39366e+3, 3.0906284e+2, 308443.84, 258017.13, -37150.527, -0.11331407, -0.34385765, 328128.97, 328128.97, 0.0002690841, 10.001952, 10.000441 
2.410367e+3, 1.295704e+2, -1856886.5, -1893293.5, -29890.17, -0.14764515, -0.2566964, -1840093.0, -169921.13, 0.44510007, 9.998948, 9.998395 
2.409999e+3, 1.3955791e+2, -1547646.3, -1830361.8, -49519.19, 0.06917935, -0.75979775, -1539223.6, 33070.695, 0.31930807, 10.000924, 9.9974165 
2.409624e+3, 1.4955293e+2, -1204178.4, -1313616.0, -162732.17, 0.09664992, -0.5291632, -1087211.8, 387130.8, 0.20041417, 10.001928, 9.999855 
2.409247e+3, 1.5954822e+2, -1145170.3, -1389385.8, -135749.06, -0.023649566, -0.34110886, -1084690.8, 291697.78, 0.110025235, 10.001914, 9.998603 
2.408874e+3, 1.695406e+2, -1103030.9, -1226644.6, 27096.842, -0.0050773653, -0.3557385, -1097351.9, 181112.63, 0.054970514, 10.001053, 9.999402 
2.4085015e+3, 1.7953178e+2, -1258160.4, -1336469.6, 78140.67, 0.02640475, -0.49777195, -1209913.4, -29360.92, 0.027314784, 9.999401, 9.998885 
2.4081282e+3, 1.8952516e+2, -993109.44, -957443.5, 45506.8, 0.19034354, -0.47876132, -926400.25, 156212.88, 0.013986388, 9.999924, 10.000425 
2.4077547e+3, 1.9951893e+2, -939698.0, -1103645.5, 97861.39, 0.29949862, -0.43097997, -894013.8, 90656.83, 0.006556314, 10.000374, 9.998641 
2.4073815e+3, 2.0951079e+2, -834188.94, -988614.0, 174158.44, 0.15874049, -0.42086923, -720894.44, 165864.03, 0.002469395, 10.000619, 9.998521 
2.4070089e+3, 2.195023e+2, -695693.2, -862435.9, 133255.95, -0.03168508, -0.42633995, -621876.94, 166973.53, 0.00078321603, 10.00062, 9.998833 
2.4066353e+3, 2.2949867e+2, -533482.8, -422193.9, 18852.105, 0.0077361367, -0.20429705, -419087.13, 271801.8, 0.00023610769, 9.999799, 10.00149 
2.4062628e+3, 2.3949507e+2, -737751.25, -744943.94, 50327.508, 0.05759306, 0.029688729, -690891.75, -97965.35, 0.000047296035, 9.998818, 9.99914 
2.4058907e+3, 2.4948733e+2, -506809.25, -550109.3, 73682.305, 0.11165025, 0.010922457, -451662.13, 43345.145, 0.0000020598873, 9.999889, 9.999119 
2.4055201e+3, 2.5947848e+2, -354384.66, -533401.75, 114598.95, 0.1684139, -0.0910328, -298481.03, 98616.7, 0.0, 10.000616, 9.998273 
2.405145e+3, 2.6947054e+2, -124857.15, -134749.11, -27844.293, 0.06849137, -0.1556053, -101522.97, 197645.05, 0.0, 10.000674, 10.000227 
2.4047698e+3, 2.7946296e+2, -193105.69, -246042.36, -52405.215, -0.08802016, -0.31380898, -160863.89, 40369.105, 0.0, 9.999926, 9.999234 
2.4043943e+3, 2.8945386e+2, -13886.03, -213713.58, -46346.72, -0.30289012, -0.41188464, -3659.9802, 99660.96, 0.00000028208012, 10.001134, 9.998084 
2.4040215e+3, 2.994471e+2, -165780.92, -600312.4, 197005.61, -0.34436542, -0.20318235, -89762.47, -84374.055, 0.000017512673, 10.000974, 9.995292 
2.403658e+3, 3.0943152e+2, 455239.72, 399500.63, 11738.522, 0.04242502, -0.7228479, 457610.94, 457610.94, 0.0001005609, 10.002499, 10.001262 
2.4203609e+3, 1.2993896e+2, -1724703.6, -1612170.5, 88985.97, 0.010191142, -0.25374937, -1563154.5, 103410.97, 0.41411307, 9.998785, 10.00073 
2.4199924e+3, 1.3993324e+2, -1705174.9, -1859944.5, -60208.066, 0.035923608, -0.3056386, -1684511.6, -115890.75, 0.28877336, 9.999513, 9.997879 
2.4196182e+3, 1.4992556e+2, -1382439.9, -1425152.0, -94033.44, 0.03844344, -0.35491765, -1307367.9, 163327.86, 0.17287979, 10.000443, 9.999668 
2.4192427e+3, 1.5991785e+2, -1292089.0, -1401793.6, -80904.49, 0.028167045, -0.45574886, -1249195.1, 123576.195, 0.08747846, 10.000404, 9.99929 
2.4188688e+3, 1.6991518e+2, -1022482.2, -879909.44, -15042.627, 0.0667339, -0.20699218, -878339.6, 396458.88, 0.038149297, 10.000299, 10.002173 
2.4184951e+3, 1.799124e+2, -1271739.4, -1217696.6, -23053.92, 0.13996999, -0.0040780236, -1209198.4, -32372.297, 0.01570925, 9.998881, 9.999894 
2.4181204e+3, 1.8990317e+2, -1071709.0, -1034970.06, 16443.432, 0.113421224, -0.27022722, -1028685.44, 50225.3, 0.0064830934, 9.999615, 9.999979 
2.4177463e+3, 1.9989313e+2, -1187213.5, -1330482.8, 70018.85, 0.12596521, -0.55899733, -1158677.5, -177672.58, 0.0021827125, 9.99921, 9.997628 
2.4173747e+3, 2.09887e+2, -908130.56, -1051873.4, 152723.52, 0.10958692, -0.3195549, -811212.25, 71863.64, 0.00044835047, 10.000264, 9.998221 
2.4170037e+3, 2.1988109e+2, -934792.7, -1083943.4, 72178.555, 0.0961253, -0.059244607, -905583.56, -120438.51, 0.000068581576, 9.999573, 9.997785 
2.4166296e+3, 2.2987433e+2, -669361.7, -585406.9, -54240.816, 0.16188493, -0.05798961, -558797.4, 128413.586, 0.0000096515805, 9.999525, 10.000397 
2.4162567e+3, 2.3986691e+2, -955141.06, -930639.75, 12170.108, 0.2698662, -0.13306817, -925622.2, -336340.1, 0.00000040342232, 9.997859, 9.998291 
2.415884e+3, 2.4985878e+2, -512727.44, -481163.9, 108511.234, 0.12544699, -0.22845651, -387292.78, 104072.75, 0.0, 9.999651, 9.999658 
2.4155118e+3, 2.598507e+2, -588987.6, -726117.06, 71583.17, -0.06287958, -0.30915034, -558429.8, -164981.19, 0.0, 9.999453, 9.997523 
2.415137e+3, 2.6984584e+2, -344971.16, -408780.06, -57409.992, -0.12732355, 0.03595324, -311196.06, -15698.593, 0.0, 10.00002, 9.998589 
2.4147622e+3, 2.7984017e+2, -531893.4, -582885.44, -58341.418, -0.20561753, 0.24027656, -493720.2, -296168.8, 0.0, 9.998448, 9.997633 
2.4143894e+3, 2.8982747e+2, 42856.176, 23967.209, 9438.927, -0.26785907, -0.29617116, 46764.277, 146427.73, 0.0000000009564638, 10.000784, 9.99981 
2.4140204e+3, 2.998165e+2, -360094.8, -620407.3, 251850.72, -0.17334294, -0.69092596, -206756.03, -204996.44, 0.0000015325257, 9.999485, 9.995849 
2.4136528e+3, 3.0980867e+2, 78735.25, -81140.48, 3708.8284, -0.24038237, -0.4580182, 78821.24, 78821.24, 0.000021924814, 10.001251, 9.998552 
2.4303527e+3, 1.3031124e+2, -1504125.0, -1402390.1, 57904.64, -0.25076646, -0.0735286, -1376183.4, 286735.22, 0.3927152, 10.000074, 10.002366 
2.4299888e+3, 1.4030415e+2, -1540603.6, -1499099.9, 50.785156, 0.26804906, -0.3731739, -1499099.8, 65886.94, 0.26710206, 9.999381, 10.000603 
2.4296127e+3, 1.5029864e+2, -1322424.3, -1195552.9, -28852.02, 0.15879424, -0.4260434, -1189299.8, 277736.13, 0.15331793, 9.9998, 10.001881 
2.4292356e+3, 1.6029297e+2, -1408360.3, -1429877.5, 61444.508, -0.031939898, -0.4492998, -1356739.5, 12349.024, 0.07196278, 9.999366, 9.999601 
2.4288613e+3, 1.702878e+2, -1203434.6, -1219531.3, -18192.463, -0.029749632, -0.26910162, -1191589.8, 79556.84, 0.027363949, 10.000123, 9.999837 
2.4284872e+3, 1.8028243e+2, -1067175.6, -1147100.3, -152614.58, -0.034977447, -0.13610512, -949378.0, 223826.9, 0.009079448, 10.0003605, 9.999655 
2.4281128e+3, 1.902749e+2, -890767.9, -831081.5, -122920.11, 0.016136149, -0.31732768, -734433.7, 340836.75, 0.002868925, 10.000283, 10.001088 
2.427739e+3, 2.0026691e+2, -1011815.94, -1152340.1, 25208.48, 0.04428088, -0.4905815, -1007430.7, -30088.615, 0.00059867656, 9.999891, 9.998547 
2.4273685e+3, 2.1026056e+2, -783788.8, -1023045.1, 125205.29, 0.041989084, -0.28559306, -730248.7, 149166.45, 0.000045539302, 10.00107, 9.998107 
2.4269979e+3, 2.2025418e+2, -579569.75, -903064.0, 21642.162, 0.044197883, -0.056931447, -578128.25, 203360.84, 0.0000022398012, 10.001847, 9.997939 
2.4266239e+3, 2.3024559e+2, -411369.1, -557211.1, -126287.34, 0.16782016, -0.17706849, -338461.56, 345111.06, 0.000000052409952, 10.001664, 9.999584 
2.4262503e+3, 2.4023695e+2, -439180.16, -620907.25, -32597.65, 0.2744907, -0.30972725, -433509.8, 152146.03, 0.0, 10.0010805, 9.998855 
2.4258775e+3, 2.5023052e+2, -359311.28, -387544.4, 38303.117, 0.10714027, -0.2591901, -332606.22, 155117.47, 0.0, 10.0005455, 9.999915 
2.4255049e+3, 2.6022428e+2, -422432.16, -518382.4, -19407.47, -0.09680852, -0.18672927, -418655.34, -28865.834, 0.0, 9.999893, 9.998764 
2.4251303e+3, 2.7021894e+2, -167841.84, -284105.34, -40631.504, -0.16729216, 0.04115502, -155049.56, 136791.64, 0.0, 10.0009, 9.999086 
2.4247569e+3, 2.8021306e+2, -51088.105, -287147.38, 111628.914, -0.14045326, 0.21972351, -6661.5635, 187235.6, 0.0, 10.00133, 9.998291 
2.424386e+3, 2.9020026e+2, 202955.56, 75004.805, 81259.33, -0.08959475, -0.30686593, 242401.31, 338412.94, 0.0, 10.001805, 9.99975 
2.4240178e+3, 3.0018854e+2, -2018.3605, -282517.1, 170037.9, 0.06419156, -0.79584974, 78147.28, 78147.28, 0.000000086511356, 10.001028, 9.997478 
2.4236487e+3, 3.1018695e+2, -36604.527, -154565.0, -227392.36, -0.1022655, 0.005228348, 139332.14, 139332.14, 0.0000026170453, 10.000182, 9.9987135 
2.4407175e+3, 1.2068201e+2, -1929407.6, -2009654.5, -210131.52, -0.15956113, -0.48843426, -1755603.1, 1673.4979, 0.49455008, 9.999129, 9.998179 
2.4403453e+3, 1.3068333e+2, -1612723.0, -1377884.4, 109266.09, -0.33932284, 0.033195708, -1334909.3, 324361.75, 0.3775347, 9.998597, 10.003252 
2.4399847e+3, 1.4067437e+2, -1541329.9, -1349572.6, 335.31427, 0.6158522, -0.5431248, -1349572.0, 211785.64, 0.25111946, 9.998617, 10.002279 
2.4396072e+3, 1.5067194e+2, -1263353.3, -974664.6, -88646.016, 0.3286908, -0.49528947, -949617.7, 513754.9, 0.13882844, 9.999385, 10.003739 
2.4392284e+3, 1.6066854e+2, -1566451.0, -1623534.0, -68981.016, 0.019480946, -0.40729827, -1520340.0, -154939.36, 0.060861234, 9.998891, 9.998459 
2.438854e+3, 1.7065908e+2, -1418036.5, -1672892.9, -43168.79, -0.08647224, -0.41780427, -1410922.9, -143415.47, 0.02025213, 10.000222, 9.996636 
2.43848e+3, 1.8064979e+2, -1151342.0, -1294879.8, -138708.17, -0.12827443, -0.41977412, -1066935.5, 102674.49, 0.0052852775, 10.000305, 9.998681 
2.4381056e+3, 1.9064532e+2, -782476.6, -621535.1, -149936.22, -0.035382997, -0.39611837, -531840.06, 539802.8, 0.0012089658, 10.000425, 10.002449 
2.4377327e+3, 2.0064074e+2, -1084365.8, -1139071.5, 10140.413, 0.097295105, -0.34243017, -1082546.6, -108868.195, 0.00012403581, 9.999349, 9.998863 
2.4373624e+3, 2.1063341e+2, -896408.0, -1041577.0, 139331.42, 0.010273015, -0.28464004, -811888.2, 63871.56, 0.000001917801, 10.000322, 9.998234 
2.436992e+3, 2.206251e+2, -926716.56, -1181419.5, 307.6146, -0.03384401, -0.24362381, -926716.2, -148864.95, 0.000000018702426, 10.000073, 9.996833 
2.4366175e+3, 2.3061506e+2, -566440.4, -734743.25, -141905.72, 0.061755374, -0.43507263, -485610.9, 194339.08, 0.0, 10.0010805, 9.998597 
2.4362431e+3, 2.406059e+2, -681659.2, -847215.5, -57802.24, 0.15351082, -0.5517666, -663475.4, -81435.03, 0.0, 9.999974, 9.997827 
2.4358709e+3, 2.5060308e+2, -444598.72, -427582.06, 14384.006, 0.07813756, -0.13236713, -419378.38, 64697.414, 0.0, 10.000111, 9.999791 
2.4354988e+3, 2.6059946e+2, -560560.56, -536428.6, -20769.893, -0.034506503, 0.19270457, -524474.25, -138358.38, 0.0, 9.998879, 9.999109 
2.435125e+3, 2.7059045e+2, -69295.1, 26478.457, -3235.9849, -0.122262515, -0.149764, 26587.67, 314779.56, 0.0, 10.000546, 10.00135 
2.4347524e+3, 2.8058127e+2, -284300.63, -479837.4, 106509.19, -0.09390308, -0.46783584, -237490.78, -47218.875, 0.0, 10.000179, 9.997531 
2.4343833e+3, 2.9057243e+2, -121261.53, -395394.13, 85947.22, 0.09546324, -0.4101713, -96543.734, -4178.906, 0.0, 10.001025, 9.996867 
2.4340129e+3, 3.0056462e+2, -355706.84, -404572.38, 135361.58, -0.0014366301, -0.2983118, -242590.66, -242590.66, 0.0, 9.998532, 9.997831 
2.43364e+3, 3.1056067e+2, 33367.14, 410666.6, 123045.41, -0.5113677, -0.19475447, 447247.63, 447247.63, 0.00000012758136, 9.998675, 10.003185 
2.4507092e+3, 1.2105759e+2, -2223864.5, -1972713.1, -401829.2, -0.16321136, -0.4712926, -1677294.8, 76294.25, 0.48540562, 9.996209, 10.000303 
2.4503398e+3, 1.3105376e+2, -1837893.9, -1565897.0, 260403.52, -0.02785129, -0.38811305, -1408117.4, 247514.89, 0.3659335, 9.997652, 10.0020485 
2.4499722e+3, 1.410476e+2, -1534498.3, -1466696.9, 53530.316, 0.046191406, -0.5313076, -1437235.5, 120458.82, 0.23856215, 9.999328, 10.000863 
2.4495974e+3, 1.51044e+2, -1313295.4, -1181133.9, -143814.77, 0.035862274, -0.41891804, -1088944.8, 370783.56, 0.1275105, 9.99982, 10.001879 
2.4492224e+3, 1.6103947e+2, -1419786.9, -1532121.1, -162828.66, 0.029012144, -0.31185254, -1303710.3, 58062.816, 0.052560914, 9.999765, 9.998674 
2.4488494e+3, 1.7103101e+2, -1151048.6, -1412322.1, -24716.313, -0.009319871, -0.33102563, -1148731.0, 115136.24, 0.01541553, 10.00138, 9.997923 
2.4484758e+3, 1.810225e+2, -842380.94, -1085244.0, -51728.215, -0.090896994, -0.34416988, -831822.25, 334137.2, 0.0031067657, 10.002079, 9.999291 
2.4481001e+3, 1.9101715e+2, -601615.2, -618421.56, -140714.52, -0.07211427, -0.35292354, -469053.16, 598949.56, 0.00048131414, 10.001969, 10.001765 
2.4477258e+3, 2.0101176e+2, -780757.06, -958515.7, -38357.637, -0.034048714, -0.32348683, -772833.3, 197214.66, 0.000015932997, 10.001211, 9.999201 
2.4473555e+3, 2.1100476e+2, -928234.3, -993357.3, 54749.344, -0.033017736, -0.27464747, -897095.4, -24971.525, 0.0000000054715246, 9.999798, 9.998831 
2.4469851e+3, 2.2099721e+2, -1014468.2, -1084416.1, -18106.23, -0.045120765, -0.22390243, -1010059.2, -235853.56, 0.0, 9.998749, 9.998164 
2.4466114e+3, 2.3098865e+2, -625482.7, -718687.6, -69354.914, 0.046534106, -0.32339004, -588527.44, 87763.6, 0.0, 10.000364, 9.999128 
2.4462378e+3, 2.4098049e+2, -382608.03, -614593.2, 29974.467, 0.12072434, -0.36558163, -378797.66, 199574.47, 0.0, 10.001456, 9.998761 
2.4458654e+3, 2.509759e+2, -347125.34, -384579.75, 96421.19, 0.14269069, -0.12299871, -267629.56, 212790.13, 0.0, 10.000601, 9.999958 
2.4454932e+3, 2.6097122e+2, -399467.5, -369353.06, 90877.71, 0.08585692, 0.089484915, -292293.63, 90173.17, 0.0, 9.999448, 10.000025 
2.4451187e+3, 2.7096173e+2, -166742.03, -29004.826, -14566.541, -0.10408693, -0.30725136, -27481.182, 257066.7, 0.0, 9.999791, 10.001394 
2.4447459e+3, 2.809523e+2, -237074.78, -418210.56, -26090.293, -0.15505986, -0.6480602, -233391.7, -46760.332, 0.0, 10.000156, 9.997999 
2.4443772e+3, 2.9094595e+2, -243138.13, -493372.25, 65356.82, 0.09120935, -0.33159202, -227096.44, -138389.66, 0.0, 10.00018, 9.996672 
2.4440075e+3, 3.009403e+2, -207009.52, -173735.42, 221689.22, 0.107524335, 0.007617634, 31940.15, 31940.15, 0.0, 9.998651, 9.999409 
2.4436323e+3, 3.109348e+2, 39516.566, 727383.5, 76421.31, -0.5360563, -0.14327726, 735771.56, 735771.56, 0.000000000000427524, 9.997138, 10.00616 
2.4607024e+3, 1.21430226e+2, -1936818.0, -1769480.4, -510005.28, 0.17109373, -0.68854225, -1336326.3, 413607.6, 0.4772337, 9.998432, 10.0018 
2.4603347e+3, 1.3142492e+2, -1701981.1, -1575494.6, 228553.63, 0.30006954, -0.7176968, -1401595.5, 250393.23, 0.3557266, 9.999113, 10.001157 
2.4599601e+3, 1.4142142e+2, -1675075.6, -1724238.9, 39911.906, -0.4356788, -0.4570965, -1652782.8, -98756.43, 0.22774403, 9.999273, 9.9989195 
2.4595883e+3, 1.5141569e+2, -1408128.3, -1451101.3, -136178.81, -0.16935731, -0.34796858, -1291751.3, 164337.77, 0.11809006, 10.000302, 9.999539 
2.459217e+3, 1.6140981e+2, -1363495.3, -1496868.9, -85447.4, 0.1769472, -0.20638111, -1321792.1, 36361.305, 0.04605504, 10.000173, 9.998705 
2.4588452e+3, 1.7140374e+2, -1171255.3, -1181821.5, 16880.113, 0.13540079, -0.17598505, -1158850.9, 101368.805, 0.012013259, 10.000261, 10.000019 
2.4584721e+3, 1.813972e+2, -1210372.0, -1287087.5, -89904.055, 0.06562754, -0.1435785, -1150984.9, 11303.062, 0.0018483637, 9.999731, 9.999023 
2.458095e+3, 1.9138937e+2, -846430.3, -904408.8, -172933.42, -0.0670797, -0.30258027, -700073.2, 364286.0, 0.00018026956, 10.001034, 10.000229 
2.4577193e+3, 2.013819e+2, -956191.9, -1127731.9, -80946.17, -0.12473593, -0.35672635, -924026.4, 42401.86, 0.0000007906511, 10.0004835, 9.998387 
2.4573484e+3, 2.1137573e+2, -939811.06, -939791.2, -8510.943, -0.05786583, -0.27149343, -931290.2, -62796.71, 0.0, 9.99955, 9.999315 
2.4569778e+3, 2.2136976e+2, -1148758.1, -1076516.0, -24543.912, 0.039715815, -0.12136763, -1068966.4, -298409.13, 0.0, 9.997711, 9.998698 
2.4566054e+3, 2.3136497e+2, -632607.5, -555275.1, -23970.053, 0.11080717, 0.019162634, -548448.06, 124159.24, 0.0, 9.99985, 10.000394 
2.4562329e+3, 2.4135898e+2, -589461.56, -697090.3, 3071.582, 0.19527343, 0.093169816, -589374.0, -14707.649, 0.0, 10.000132, 9.998795 
2.4558601e+3, 2.5134906e+2, -426469.03, -407901.28, 25504.385, 0.24992026, -0.23670298, -390043.6, 86712.64, 0.0, 10.000055, 10.000023 
2.4554871e+3, 2.6134e+2, -728147.25, -720800.94, 45830.816, 0.19514963, -0.42985052, -678496.3, -299656.63, 0.0, 9.99814, 9.998219 
2.4551113e+3, 2.7133328e+2, -407571.56, -371233.22, -2547.7627, -0.16482984, -0.37910652, -371055.47, -90149.516, 0.0, 9.999229, 9.999253 
2.4547371e+3, 2.8132707e+2, -457486.7, -507801.1, -11729.267, -0.41580045, -0.24844861, -454886.72, -271918.53, 0.0, 9.998744, 9.998036 
2.4543677e+3, 2.9132134e+2, -199572.44, -181332.33, 75822.47, -0.24985555, -0.10718152, -114083.4, -29053.213, 0.0, 9.999361, 9.999157 
2.4540006e+3, 3.0131367e+2, -717647.25, -621873.94, 147708.84, 0.09997645, -0.06683501, -514483.3, -514483.3, 0.0, 9.996218, 9.997468 
2.4536267e+3, 3.1130597e+2, -583939.2, 208865.31, 90359.38, -0.24764703, -0.24129736, 219033.55, 219033.55, 0.0, 9.994141, 10.003907 
2.4706955e+3, 1.2180132e+2, -1602857.0, -1627890.3, -396584.66, -0.011311899, -0.5915402, -1218591.5, 527726.5, 0.46785074, 10.001568, 10.0012455 
2.4703288e+3, 1.3179916e+2, -1433027.1, -1373753.9, 120347.1, 0.27280772, -0.37030485, -1279447.9, 368884.4, 0.34520847, 10.000931, 10.002049 
2.469956e+3, 1.4179294e+2, -1593516.3, -1631813.4, 15495.515, -0.22750537, -0.45647457, -1588031.9, -37641.703, 0.21743059, 9.999558, 9.999417 
2.4695835e+3, 1.5178691e+2, -1234609.5, -1329534.1, -54023.684, -0.122491285, -0.40812716, -1210160.5, 242291.92, 0.109704144, 10.001473, 9.999824 
2.4692112e+3, 1.6178101e+2, -1091745.4, -1324157.5, -19351.379, 0.030722875, -0.28104547, -1090145.1, 264369.84, 0.040704507, 10.001914, 9.999061 
2.4688372e+3, 1.7177494e+2, -1300255.3, -1266526.1, -36307.23, -0.007831523, -0.21889533, -1243357.9, 13223.431, 0.00953522, 9.9994135, 9.999894 
2.4684629e+3, 1.8176876e+2, -1515894.8, -1395515.6, -88976.07, -0.078615814, -0.13154343, -1348283.0, -189636.4, 0.0011160366, 9.997402, 9.9994135 
2.4680892e+3, 1.9176184e+2, -999609.2, -998348.75, -91604.95, -0.035719678, -0.1861423, -907371.8, 153341.45, 0.00006263998, 10.000009, 10.000112 
2.4677151e+3, 2.0175473e+2, -713731.1, -894694.4, -34533.156, -0.041510187, -0.20975658, -707365.1, 255415.63, 0.0000000031066179, 10.001566, 9.999493 
2.4673419e+3, 2.1174729e+2, -688833.94, -736914.3, 8105.497, -0.07791583, -0.31378207, -687504.25, 177346.39, 0.0, 10.000824, 10.00017 
2.4669695e+3, 2.2174051e+2, -757510.94, -815382.56, 49632.09, -0.07628312, -0.28911233, -728995.7, 37920.754, 0.0, 9.9999485, 9.999451 
2.4665989e+3, 2.3173624e+2, -529757.3, -533721.5, 8506.705, 0.101952836, -0.08198264, -523004.84, 145959.13, 0.0, 10.000537, 10.000281 
2.4662276e+3, 2.4173093e+2, -434035.5, -570737.44, -75249.04, 0.21024406, 0.06618475, -400728.84, 170290.11, 0.0, 10.000861, 9.99933 
2.4658523e+3, 2.5172094e+2, -396430.97, -415281.88, -118817.72, 0.1147487, -0.26372248, -286665.44, 186444.52, 0.0, 10.000244, 9.999935 
2.4654777e+3, 2.6171145e+2, -498379.25, -549842.75, -59947.918, 0.021834794, -0.4990012, -458873.9, -83676.62, 0.0, 9.9992695, 9.998884 
2.4651049e+3, 2.7170572e+2, -500879.5, -428503.3, 11922.209, -0.040610492, -0.3590875, -426590.0, -149333.88, 0.0, 9.99849, 9.999274 
2.4647316e+3, 2.8170073e+2, -432334.5, -369331.75, 117299.96, -0.20367758, -0.11461561, -279376.9, -100068.43, 0.0, 9.998246, 9.999244 
2.4643594e+3, 2.916943e+2, 72220.45, 45872.676, 79196.58, -0.42245454, -0.11292661, 139331.38, 220705.1, 0.0, 10.000676, 10.000166 
2.463993e+3, 3.0168518e+2, 131532.94, -240688.4, 41746.04, 0.029380133, -0.2547498, 136157.45, 136157.45, 0.0, 10.001957, 9.99738 
2.4636206e+3, 3.1167468e+2, 310590.9, 424056.63, -81785.82, -0.0015651138, -0.4992989, 466860.38, 466860.38, 0.0, 10.000834, 10.002308 
2.4806897e+3, 1.2217712e+2, -1548657.9, -1594923.6, -207446.67, -0.09737154, -0.12930447, -1363058.3, 379596.28, 0.45571697, 10.001627, 10.000897 
2.4803235e+3, 1.3217291e+2, -1389040.5, -1362521.9, 111338.766, 0.28095484, -0.10428114, -1263655.6, 381026.38, 0.33319858, 10.00138, 10.001896 
2.4799532e+3, 1.421643e+2, -1513303.3, -1537168.6, 813.6688, 0.15701738, -0.43086317, -1513275.6, 33481.96, 0.20679392, 10.000025, 9.999847 
2.4795792e+3, 1.5215835e+2, -1275037.4, -1284244.5, -49738.7, -0.013037189, -0.45716533, -1229689.8, 219124.2, 0.10179194, 10.000842, 10.000486 
2.4792051e+3, 1.621523e+2, -1340234.9, -1481440.0, -128314.19, -0.03842124, -0.38031825, -1264381.9, 86492.42, 0.036105353, 10.00039, 9.998695 
2.4788284e+3, 1.721458e+2, -1298283.1, -1326872.9, -160581.94, -0.13512012, -0.32360232, -1151361.1, 101583.84, 0.0076701324, 9.999809, 9.999245 
2.4784529e+3, 1.8213972e+2, -1394640.5, -1388026.3, -47394.895, -0.1531086, -0.16090828, -1343823.3, -188812.4, 0.000687035, 9.998574, 9.998863 
2.478083e+3, 1.9213486e+2, -1017791.4, -979176.5, -14844.859, 0.05321406, -0.04119739, -974129.3, 82932.38, 0.000019881356, 9.999905, 10.000219 
2.4777119e+3, 2.0212863e+2, -918207.6, -961279.1, -71030.016, 0.19280551, 0.0018973076, -865520.4, 93600.94, 0.0, 10.0001335, 9.99967 
2.4773355e+3, 2.1211925e+2, -729503.8, -661367.7, -76279.91, -0.079171725, -0.39421442, -611893.75, 249306.7, 0.0, 10.000241, 10.00087 
2.4769609e+3, 2.221108e+2, -964927.6, -1025760.9, 4446.63, -0.20900798, -0.5659136, -964604.3, -201328.45, 0.0, 9.999096, 9.998375 
2.4765922e+3, 2.3210488e+2, -702408.44, -742404.8, -886.0825, 0.05778853, -0.4409154, -702388.8, -37046.91, 0.0, 9.999923, 9.999117 
2.4762212e+3, 2.4209899e+2, -758609.0, -839154.4, -114017.25, 0.18075946, -0.24975446, -677960.94, -110554.42, 0.0, 9.99927, 9.998221 
2.4758422e+3, 2.5209233e+2, -527643.8, -502794.1, -153283.39, -0.21450208, -0.2300541, -361432.8, 108039.47, 0.0, 9.999592, 9.999565 
2.4754666e+3, 2.620854e+2, -670663.06, -586072.56, -93226.01, -0.3484239, -0.20534025, -525996.06, -154456.89, 0.0, 9.998056, 9.999197 
2.4750994e+3, 2.7207893e+2, -512419.3, -246300.13, -22987.756, 0.22774673, -0.30234516, -244329.0, 29270.174, 0.0, 9.997756, 10.000835 
2.4747293e+3, 2.8207234e+2, -719254.3, -617465.25, 158068.33, 0.3582229, -0.2858311, -502300.0, -326638.53, 0.0, 9.9968605, 9.998202 
2.4743526e+3, 2.9206333e+2, -123432.5, -157998.25, 174319.48, -0.52601033, -0.46089056, 34458.773, 112209.98, 0.0, 9.9999695, 9.999033 
2.4739854e+3, 3.0205482e+2, -207071.19, -527997.0, 12011.217, -0.36922505, -0.43788204, -206622.27, -206622.27, 0.0, 10.000325, 9.996167 
2.4736157e+3, 3.1204703e+2, 68222.96, 237313.2, -140578.31, -0.12172763, -0.43560204, 316811.2, 316811.2, 0.0, 9.999606, 10.001593 
2.490683e+3, 1.22558154e+2, -1435681.6, -1380687.5, -149584.2, -0.4002259, 0.38953438, -1256094.0, 482830.5, 0.43991777, 10.001718, 10.003278 
2.4903177e+3, 1.3254526e+2, -1497018.1, -1718590.8, 162337.16, 0.10579043, -0.16702563, -1411267.0, 229774.63, 0.31901658, 10.0021, 9.998303 
2.4899453e+3, 1.4253831e+2, -1446902.5, -1584981.6, -44447.633, -0.1232214, -0.06413692, -1433832.1, 109271.82, 0.19536594, 10.000907, 9.999114 
2.4895728e+3, 1.5253037e+2, -1351552.6, -1313746.0, -90758.19, -0.056109823, -0.2737849, -1239943.4, 205234.67, 0.094030365, 10.000147, 10.000626 
2.4891995e+3, 1.6252293e+2, -1377146.8, -1385091.3, -142865.2, 0.010516999, -0.37301713, -1238198.6, 109049.99, 0.032013185, 9.99959, 9.999744 
2.488823e+3, 1.7251723e+2, -966210.0, -1056106.8, -105294.11, -0.08939825, -0.33511537, -896671.7, 352634.2, 0.0062260167, 10.001584, 10.000253 
2.4884477e+3, 1.825115e+2, -846448.9, -1100018.6, -13682.682, -0.16797186, -0.20031819, -845712.7, 305651.34, 0.00043419475, 10.002155, 9.999121 
2.4880764e+3, 1.925055e+2, -968868.8, -1026549.5, -29217.531, -0.0010589064, -0.12982577, -956655.1, 96769.65, 0.0000058323185, 10.00045, 9.999673 
2.4877046e+3, 2.0249863e+2, -1076537.3, -1094625.5, -74177.16, 0.09880839, -0.08021098, -1010854.94, -55363.367, 0.000000000090419006, 9.999213, 9.999193 
2.4873306e+3, 2.1248944e+2, -672631.6, -745584.44, -136808.84, -0.0027006133, -0.36335132, -567519.94, 290053.7, 0.0, 10.000992, 9.999964 
2.4869567e+3, 2.2248107e+2, -542840.06, -750332.25, -165293.31, -0.08479837, -0.49904186, -451432.03, 308219.0, 0.0, 10.001578, 9.99907 
2.486586e+3, 2.3247516e+2, -694579.9, -711074.44, -121537.7, 0.09454698, -0.40816188, -581009.94, 80705.38, 0.0, 9.999769, 9.999461 
2.4862134e+3, 2.424693e+2, -760947.7, -724485.9, -136842.34, 0.14617768, -0.25565737, -604665.4, -40887.105, 0.0, 9.998649, 9.99931 
2.4858354e+3, 2.5246346e+2, -464117.72, -440334.16, -130964.71, -0.19707744, -0.19935606, -320722.44, 145114.06, 0.0, 9.99975, 9.999969 
2.4854597e+3, 2.6245725e+2, -251472.4, -327859.34, -95643.16, -0.34402737, -0.13095026, -186678.72, 181219.02, 0.0, 10.000532, 9.999802 
2.4850911e+3, 2.7245036e+2, -32948.703, -40223.62, -144607.03, 0.1314595, -0.25543758, 108066.62, 378028.9, 0.0, 10.000975, 10.000788 
2.4847217e+3, 2.8244317e+2, -73494.33, -244631.94, 32376.47, 0.324254, -0.3132876, -67574.03, 104455.695, 0.0, 10.000849, 9.998886 
2.4843481e+3, 2.924347e+2, -17776.47, -102173.01, 127444.78, -0.35283306, -0.44996205, 74274.53, 148387.4, 0.0, 10.000503, 9.999241 
2.483981e+3, 3.0242705e+2, -160337.16, -397606.7, 22396.506, -0.24459353, -0.37924877, -158241.61, -158241.61, 0.0, 10.0000925, 9.997183 
2.4836092e+3, 3.1241947e+2, 28341.861, 169459.34, -204534.13, -0.104925975, -0.31217602, 315263.13, 315263.13, 0.0, 9.99922, 10.00145 
2.5006804e+3, 1.2293046e+2, -1260422.0, -1336098.9, -169068.31, -0.22745712, 0.04381057, -1125009.6, 610266.3, 0.42027465, 10.003991, 10.002601 
2.500312e+3, 1.3291827e+2, -1529717.4, -2071177.9, 102016.17, -0.008642578, -0.15019904, -1511134.4, 126258.41, 0.30251706, 10.00325, 9.995197 
2.4999376e+3, 1.4291234e+2, -1480092.0, -1677280.9, -63084.62, -0.32424775, 0.29118085, -1461637.1, 77812.18, 0.18302314, 10.000903, 9.998494 
2.4995662e+3, 1.5290245e+2, -1435535.6, -1367944.6, -101968.03, -0.0235517, -0.12376981, -1294317.5, 147224.06, 0.08629053, 9.999553, 10.000526 
2.4991941e+3, 1.6289416e+2, -1487063.1, -1368099.8, -73590.41, 0.21887806, -0.32141247, -1332957.9, 10660.105, 0.028287582, 9.998545, 10.000341 
2.4988191e+3, 1.7288928e+2, -997408.56, -972318.56, -68389.53, 0.04280447, -0.32731077, -915332.94, 330328.1, 0.0050760456, 10.000885, 10.001175 
2.4984439e+3, 1.8288334e+2, -1031716.1, -1256515.3, -96431.6, -0.0731006, -0.24702717, -996018.7, 151697.11, 0.00028139996, 10.001305, 9.998429 
2.4980691e+3, 1.9287544e+2, -1053226.8, -1136464.6, -133737.06, -0.07386755, -0.31477162, -954782.4, 95009.59, 0.0000014559199, 10.000315, 9.998942 
2.497696e+3, 2.0286746e+2, -1234894.5, -1362297.3, -37103.367, 0.013826752, -0.26226568, -1224876.6, -273006.06, 0.0, 9.999074, 9.9974165 
2.4973261e+3, 2.1285935e+2, -867071.44, -990523.7, -39702.29, 0.1490712, -0.3038547, -855405.5, -1452.7899, 0.0, 10.000496, 9.998468 
2.4969546e+3, 2.2285222e+2, -748486.6, -853472.94, -178378.03, 0.23242335, -0.21197517, -615038.25, 140986.88, 0.0, 10.000316, 9.99897 
2.4965796e+3, 2.3284695e+2, -701312.25, -592999.44, -178864.56, 0.18248092, -0.16415085, -460272.3, 197807.94, 0.0, 9.9993, 10.0004635 
2.4962051e+3, 2.4284129e+2, -893974.94, -739572.56, -125138.664, 0.13857356, -0.07278058, -669737.3, -109600.32, 0.0, 9.997616, 9.999692 
2.4958308e+3, 2.528345e+2, -523024.22, -368464.78, -91252.33, 0.050112303, -0.21756583, -326165.47, 136035.1, 0.0, 9.999031, 10.000764 
2.4954556e+3, 2.6282775e+2, -551536.9, -639656.44, -85757.79, -0.13453777, -0.1903825, -499182.63, -134916.53, 0.0, 9.999329, 9.998211 
2.4950801e+3, 2.7282044e+2, -246404.0, -336011.4, -120244.42, -0.40426406, -0.2088326, -162887.42, 103454.695, 0.0, 10.000413, 9.9990015 
2.4947092e+3, 2.8281406e+2, -241096.9, -292202.97, 9066.573, -0.3875046, -0.07903946, -239536.11, -71129.31, 0.0, 9.999703, 9.999074 
2.4943465e+3, 2.928098e+2, -50161.254, 50091.766, 123902.195, 0.03974778, 0.03649405, 133623.11, 204069.97, 0.0, 9.999663, 10.000636 
2.49398e+3, 3.0280334e+2, -347994.34, -369014.0, -42892.902, 0.29325548, 0.098724775, -314342.44, -314342.44, 0.0, 9.9984665, 9.998124 
2.4935997e+3, 3.1279108e+2, -330421.97, -1645.8152, -117881.22, -0.3971983, -0.44508213, 36251.605, 36251.605, 0.0, 9.997104, 10.001175 
2.5106856e+3, 1.2329738e+2, -1276370.5, -1688523.1, -116666.63, 0.24538982, -0.34279436, -1245637.6, 486034.72, 0.39734322, 10.006107, 9.99733 
2.5103077e+3, 1.3329025e+2, -1299320.0, -1780949.1, 19064.137, -0.2657215, -0.11827123, -1298566.5, 335178.4, 0.28406283, 10.004729, 9.996456 
2.5099337e+3, 1.432809e+2, -1347696.1, -1503232.9, -70094.47, -0.25815237, -0.12211475, -1320769.0, 215068.0, 0.16993596, 10.001523, 9.999403 
2.5095603e+3, 1.5327537e+2, -1429524.4, -1298693.5, -81996.85, 0.115023464, -0.15488404, -1259215.4, 178671.31, 0.078587286, 9.999258, 10.001169 
2.5091872e+3, 1.6326925e+2, -1622239.3, -1526970.1, 63576.19, 0.30132955, -0.12328519, -1495163.0, -155220.05, 0.024857625, 9.997975, 9.999533 
2.5088134e+3, 1.7326207e+2, -1168512.9, -1198104.6, 39298.027, 0.08561081, -0.20515783, -1141317.6, 100692.91, 0.0041356636, 10.000294, 9.999934 
2.5084388e+3, 1.8325426e+2, -981819.94, -1183650.1, -140973.39, -0.08372304, -0.24297425, -909364.5, 234718.63, 0.00018434241, 10.001389, 9.998893 
2.5080642e+3, 1.9324544e+2, -841566.6, -999257.5, -136690.44, -0.023541957, -0.42675564, -762611.94, 283551.97, 0.00000026313862, 10.001564, 9.999313 
2.5076902e+3, 2.0323735e+2, -810098.06, -1049831.1, 18222.357, -0.022870872, -0.42899606, -808720.9, 139519.66, 0.0, 10.001453, 9.998432 
2.507319e+3, 2.1323042e+2, -720790.44, -881160.7, 101589.62, -0.043701816, -0.37402847, -671553.4, 178758.56, 0.0, 10.001245, 9.998926 
2.506947e+3, 2.2322388e+2, -611554.2, -789740.75, -29213.18, 0.0035230222, -0.2203689, -606887.0, 145494.08, 0.0, 10.001105, 9.999077 
2.506573e+3, 2.3321797e+2, -475472.47, -564764.25, -121763.016, 0.14403178, -0.15030925, -390428.38, 264017.56, 0.0, 10.001039, 9.99989 
2.5061986e+3, 2.4321198e+2, -384534.5, -436487.16, -96283.4, 0.16111366, -0.06712341, -310784.88, 245722.28, 0.0, 10.000731, 10.000306 
2.5058237e+3, 2.5320506e+2, -312059.1, -248848.06, -101248.4, 0.03391672, -0.23060022, -174386.86, 284183.2, 0.0, 10.000268, 10.001066 
2.505449e+3, 2.63198e+2, -414139.94, -562639.56, -82079.984, -0.14533477, -0.24612054, -377709.3, -17072.516, 0.0, 10.000108, 9.998401 
2.5050735e+3, 2.7319044e+2, -242311.23, -406052.88, -60553.81, -0.4564618, -0.21739778, -222350.84, 40364.535, 0.0, 10.000658, 9.998469 
2.5047025e+3, 2.83184e+2, -85095.54, -176453.55, 72763.484, -0.4689763, -0.053089198, -44861.24, 119920.375, 0.0, 10.000432, 9.999556 
2.5043407e+3, 2.9318017e+2, -96990.65, 6109.818, 36164.56, 0.18352328, 0.10684687, 17530.227, 84349.61, 0.0, 9.99917, 10.000678 
2.503975e+3, 3.0317453e+2, -236753.05, -237940.06, -147806.48, 0.56073254, 0.22012992, -89538.875, -89538.875, 0.0, 9.998723, 9.998936 
2.5035948e+3, 3.131623e+2, 189159.97, 248281.2, -270250.6, -0.09439466, -0.37254274, 490583.06, 490583.06, 0.0, 10.000387, 10.001379 
2.5206825e+3, 1.2367098e+2, -1655319.4, -2232746.3, -113416.45, 0.072900236, -0.08276065, -1633841.4, 94166.266, 0.3720952, 10.002956, 9.994917 
2.5203028e+3, 1.3366175e+2, -1426987.5, -1706086.8, -54269.47, -0.48924336, -0.20406605, -1416806.5, 213295.44, 0.26429757, 10.002719, 9.99795 
2.5199315e+3, 1.436508e+2, -1354750.8, -1436170.6, -153427.94, 0.02747301, -0.48393756, -1236723.6, 295486.34, 0.15642525, 10.001207, 10.000032 
2.5195548e+3, 1.5364924e+2, -1159629.3, -1131537.9, -230787.44, 0.29236352, -0.17922077, -914369.1, 519852.53, 0.071005836, 10.001237, 10.00135 
2.5191805e+3, 1.6364482e+2, -1386348.9, -1595067.0, 54954.766, 0.44071952, 0.0888661, -1372763.8, -36500.93, 0.021693112, 10.000509, 9.997819 
2.5188082e+3, 1.73635e+2, -1168596.5, -1363143.1, 68626.49, 0.16822848, -0.09886388, -1146824.9, 91534.56, 0.00335279, 10.001199, 9.998311 
2.5184348e+3, 1.8362555e+2, -1034066.6, -1223981.5, -138821.94, 0.03727928, -0.20166606, -960832.4, 179616.34, 0.00011963712, 10.00113, 9.998722 
2.5180602e+3, 1.9361608e+2, -865870.9, -965800.75, -167031.39, 0.11926513, -0.5202447, -741491.4, 301040.22, 0.00000002568285, 10.0012, 9.999689 
2.5176853e+3, 2.0360817e+2, -907975.5, -1036926.44, -9837.019, 0.04275126, -0.5617876, -907229.4, 37373.246, 0.0, 10.000559, 9.998942 
2.5173098e+3, 2.1360213e+2, -783531.25, -802463.9, 36485.23, -0.36876616, -0.5413635, -755304.3, 91357.414, 0.0, 10.000348, 9.999878 
2.5169367e+3, 2.2359581e+2, -969051.9, -1127948.3, -68626.37, -0.41490388, -0.3586225, -943516.3, -194787.63, 0.0, 9.99952, 9.997464 
2.5165662e+3, 2.3358877e+2, -729214.94, -858191.0, -137635.14, 0.062145405, -0.27879632, -641709.1, 9101.995, 0.0, 10.0001545, 9.998254 
2.5161928e+3, 2.4358211e+2, -632375.1, -650299.7, -121046.6, 0.2136954, -0.12878658, -519959.47, 32923.02, 0.0, 9.999588, 9.999366 
2.5158152e+3, 2.5357538e+2, -449572.2, -347285.16, -126982.56, -0.17894769, -0.2581804, -261533.7, 193408.53, 0.0, 9.999597, 10.000673 
2.5154403e+3, 2.6356837e+2, -603114.1, -681392.2, -81196.59, -0.33169287, -0.22857021, -552115.75, -195109.77, 0.0, 9.999083, 9.998037 
2.5150707e+3, 2.7356026e+2, -331233.38, -397832.34, -41163.152, -0.09524541, -0.31884152, -311587.03, -52504.895, 0.0, 9.999976, 9.998776 
2.5147006e+3, 2.8355193e+2, -364434.34, -457381.0, 20960.047, -0.03388161, -0.30803785, -359926.38, -198763.02, 0.0, 9.999331, 9.998107 
2.5143304e+3, 2.9354382e+2, -327890.38, -259173.48, 4101.688, -0.1323064, -0.44887587, -258929.53, -195682.39, 0.0, 9.998425, 9.99915 
2.513963e+3, 3.0353874e+2, -398561.5, -373938.3, -120313.54, 0.071897544, -0.16171932, -265308.1, -265308.1, 0.0, 9.998016, 9.998295 
2.5135896e+3, 3.1353053e+2, 39414.254, 165121.31, -87216.64, -0.14889552, -0.37355107, 209772.7, 209772.7, 0.0, 9.999648, 10.001078 
2.5306788e+3, 1.2404289e+2, -1615072.4, -1629917.0, -58260.59, 0.06781355, -0.044697367, -1563763.3, 160612.48, 0.34545994, 10.000533, 10.000564 
2.530299e+3, 1.3403518e+2, -1515823.4, -1581178.3, -30417.422, -0.3452122, -0.20160148, -1503857.4, 122589.2, 0.24384509, 10.000928, 9.99979 
2.5299257e+3, 1.4402832e+2, -1473439.8, -1660293.4, -101202.18, -0.05571054, -0.09232066, -1429133.4, 99378.75, 0.14280653, 10.001008, 9.998456 
2.5295487e+3, 1.5402108e+2, -880411.8, -1217270.0, -202982.08, 0.009671778, -0.12780388, -785079.5, 645504.1, 0.06363834, 10.004271, 9.999247 
2.529175e+3, 1.6401388e+2, -688915.6, -1224217.6, -48793.05, 0.12428606, -0.037478987, -684504.44, 648148.8, 0.0187796, 10.00515, 9.998164 
2.5288045e+3, 1.7400534e+2, -780999.3, -1144963.0, 21153.799, 0.15633725, -0.13979316, -779774.0, 454960.13, 0.0026956536, 10.003559, 9.998734 
2.528431e+3, 1.8399708e+2, -903776.44, -1171569.9, -162753.64, 0.111839294, -0.13687642, -826919.56, 309893.34, 0.00007576087, 10.002058, 9.998616 
2.5280547e+3, 1.9398876e+2, -833367.9, -1017436.6, -217100.22, 0.083936, -0.26474476, -689599.75, 349292.38, 0.00000000011876218, 10.001652, 9.999137 
2.5276792e+3, 2.0398118e+2, -801065.3, -922287.0, -113900.27, -0.033126906, -0.26779693, -732653.1, 208310.14, 0.0, 10.0009365, 9.999551 
2.5273043e+3, 2.1397457e+2, -771748.0, -778093.25, -100884.02, -0.30948874, -0.32056856, -673986.75, 169037.81, 0.0, 10.000226, 10.00015 
2.5269303e+3, 2.2396797e+2, -835664.8, -926373.0, -173843.42, -0.38247114, -0.24461576, -701356.7, 43733.18, 0.0, 9.999723, 9.99877 
2.5265586e+3, 2.3396085e+2, -686450.5, -768454.44, -114669.06, -0.03820025, -0.23410262, -605673.4, 41493.49, 0.0, 9.999988, 9.9990225 
2.5261855e+3, 2.4395394e+2, -501376.3, -583200.1, -31313.133, 0.11918794, -0.13951185, -490768.38, 58469.816, 0.0, 10.00035, 9.999468 
2.52581e+3, 2.5394738e+2, -254660.25, -333882.5, -63003.504, -0.058882892, -0.16266374, -219850.39, 231449.47, 0.0, 10.001178, 10.000032 
2.5254366e+3, 2.6393977e+2, -140667.33, -411013.78, -7707.475, -0.16445285, -0.163744, -140447.77, 212921.25, 0.0, 10.001916, 9.998554 
2.5250664e+3, 2.739301e+2, 67517.12, -198991.81, -12485.359, -0.008728677, -0.40090546, 68100.75, 323555.66, 0.0, 10.002531, 9.99897 
2.5246957e+3, 2.8392094e+2, 24915.852, -286959.56, 4371.445, 0.038911976, -0.4752148, 24977.111, 182519.53, 0.0, 10.002023, 9.997967 
2.5243226e+3, 2.93912e+2, -101469.695, -245301.5, -19987.494, -0.21496093, -0.6049494, -98743.805, -39106.457, 0.0, 10.000309, 9.99837 
2.523954e+3, 3.0390623e+2, -237803.55, -296285.84, 3822.3757, -0.036955435, -0.31745517, -237554.78, -237554.78, 0.0, 9.999024, 9.998382 
2.5235865e+3, 3.1390288e+2, -151530.61, 60753.855, -8956.576, 0.22151454, 0.023170086, 61131.08, 61131.08, 0.0, 9.998211, 10.001156 
2.5406718e+3, 1.2441669e+2, -1463567.3, -1322450.9, 25959.049, -0.04340458, 0.15711606, -1317827.1, 402894.7, 0.31815657, 10.000661, 10.0034895 
2.5402963e+3, 1.3440986e+2, -1431779.1, -1406281.6, -97166.04, 0.008027183, -0.09425932, -1321031.5, 301747.5, 0.22319712, 10.000928, 10.001292 
2.539919e+3, 1.444056e+2, -1595089.4, -1939594.3, -51873.492, -0.1559763, 0.28406242, -1587448.1, -62630.715, 0.12934339, 10.00101, 9.996534 
2.5395435e+3, 1.5439261e+2, -1267399.4, -1675100.4, -85893.16, -0.23000091, -0.11536451, -1250042.6, 176906.44, 0.05657354, 10.002561, 9.996882 
2.539171e+3, 1.643827e+2, -1003589.44, -1313767.4, -5688.5, -0.08358817, -0.17303574, -1003485.1, 325560.72, 0.016116831, 10.002746, 9.998661 
2.538801e+3, 1.7437598e+2, -895723.8, -1114916.6, -18313.854, 0.17847714, -0.1979353, -894204.25, 336900.88, 0.0021455006, 10.002422, 9.999467 
2.5384274e+3, 1.8436947e+2, -1071035.4, -1372083.1, -159485.6, 0.24316137, -0.0046669007, -1002257.94, 130911.08, 0.000046550977, 10.001459, 9.997534 
2.5380492e+3, 1.9436263e+2, -974338.4, -1208975.3, -198455.92, 0.04917474, 0.10179506, -861117.5, 174127.42, 0.0, 10.00124, 9.998031 
2.5376734e+3, 2.0435537e+2, -940327.6, -1025297.2, -83389.85, -0.02492903, 0.22235736, -889223.8, 48094.62, 0.0, 10.000278, 9.9991045 
2.5373003e+3, 2.1434733e+2, -875379.44, -834724.9, -108620.57, -0.04102486, 0.0138197, -744545.94, 94846.21, 0.0, 9.999673, 9.9999695 
2.536926e+3, 2.2434026e+2, -860157.44, -758987.0, -159053.39, -0.08184173, -0.010329985, -642668.5, 98787.81, 0.0, 9.9989195, 10.000279 
2.5365502e+3, 2.3433366e+2, -663314.06, -516562.25, -108510.66, -0.17540197, -0.1711143, -458947.38, 184568.48, 0.0, 9.999265, 10.001045 
2.5361776e+3, 2.4432744e+2, -752435.75, -824539.9, -16583.861, -0.03270392, -0.059572205, -748804.4, -203228.22, 0.0, 9.99931, 9.998257 
2.5358078e+3, 2.5432086e+2, -455853.06, -547990.94, -33333.31, 0.29421076, -0.011824701, -445058.5, 2585.939, 0.0, 10.000405, 9.998881 
2.5354356e+3, 2.643121e+2, -350702.47, -566714.9, 6890.4116, 0.21748303, -0.030009732, -350482.9, -755.95557, 0.0, 10.000861, 9.997947 
2.5350598e+3, 2.7430043e+2, -75337.234, -277630.63, 18451.688, -0.2739307, -0.4891426, -73667.984, 178161.75, 0.0, 10.001713, 9.998785 
2.5346872e+3, 2.842921e+2, -173412.19, -457094.4, -66994.836, -0.3837463, -0.42334902, -158386.45, -4477.5723, 0.0, 10.001085, 9.997235 
2.5343174e+3, 2.9428643e+2, -224909.88, -330306.06, -55892.31, -0.12341466, -0.22512902, -200789.75, -144815.4, 0.0, 9.999673, 9.998063 
2.533948e+3, 3.0427873e+2, -387428.25, -330926.34, -24564.688, 0.13538599, -0.12537433, -321740.16, -321740.16, 0.0, 9.998002, 9.998589 
2.533578e+3, 3.1427372e+2, -297943.66, 192028.33, 43565.027, 0.18031277, -0.014493556, 195871.7, 195871.7, 0.0, 9.9964905, 10.002855 
2.5506628e+3, 1.2478859e+2, -1756131.1, -1976667.8, 294729.34, -0.5298378, -0.12511301, -1551717.9, 165350.48, 0.29081753, 10.000901, 9.9977865 
2.550291e+3, 1.3478293e+2, -1406114.9, -1547312.0, -60897.11, -0.022390945, -0.06252503, -1383479.3, 235645.95, 0.2027681, 10.001925, 9.999565 
2.549912e+3, 1.4477703e+2, -1395664.5, -1651447.5, -74787.89, -0.39514214, 0.16748747, -1375402.5, 145779.02, 0.11625642, 10.00166, 9.998219 
2.5495404e+3, 1.5476738e+2, -1415219.8, -1581194.9, 9972.453, 0.005674103, -0.05588189, -1414622.6, 8650.064, 0.04988728, 10.000667, 9.998466 
2.5491682e+3, 1.6475767e+2, -1396947.5, -1578276.6, 149411.34, 0.13069338, -0.12368541, -1312844.3, 12521.553, 0.013707004, 10.000318, 9.998027 
2.548795e+3, 1.7474794e+2, -1081314.5, -1319678.5, 103180.49, 0.0047465772, -0.31367245, -1042855.9, 184603.63, 0.0016894786, 10.001626, 9.998467 
2.548421e+3, 1.8474124e+2, -887805.4, -1160422.3, -97216.375, 0.011881201, -0.13103516, -856689.1, 272837.8, 0.000027889511, 10.002117, 9.998686 
2.5480452e+3, 1.9473706e+2, -810516.56, -1041154.3, -39453.652, 0.14833961, 0.18016829, -803954.25, 227620.1, 0.0, 10.001913, 9.998896 
2.5476694e+3, 2.047299e+2, -776696.06, -983214.0, 84732.14, 0.11819296, 0.29791802, -746381.25, 187265.95, 0.0, 10.001478, 9.998834 
2.5472942e+3, 2.1471915e+2, -716300.56, -864125.9, 41713.957, -0.056690592, -0.06355562, -705341.94, 130408.69, 0.0, 10.001095, 9.99913 
2.5469193e+3, 2.2471145e+2, -543346.75, -541481.25, -57358.047, -0.107230216, -0.119148724, -485048.34, 252772.98, 0.0, 10.000763, 10.000898 
2.5465447e+3, 2.3470649e+2, -437631.16, -393084.56, -92743.81, -0.06225159, -0.10234005, -319976.97, 319885.3, 0.0, 10.0006895, 10.001242 
2.546172e+3, 2.447001e+2, -533541.44, -755713.7, -30753.748, 0.0538801, -0.0054386035, -529363.0, 12560.449, 0.0, 10.000801, 9.99809 
2.545802e+3, 2.5469178e+2, -420751.47, -626149.1, -44152.266, 0.28942686, -0.041636717, -411662.7, 32348.127, 0.0, 10.00085, 9.998242 
2.54543e+3, 2.6468313e+2, -357239.88, -476114.84, 13075.07, 0.22835267, -0.055352233, -355818.75, -9724.365, 0.0, 10.000318, 9.998874 
2.5450546e+3, 2.7467358e+2, -369830.28, -397320.75, 30382.043, -0.19741222, -0.30025467, -350228.84, -102050.28, 0.0, 9.999485, 9.999107 
2.5446817e+3, 2.8466576e+2, -386853.25, -502873.6, -18554.598, -0.31944057, -0.22053236, -383958.13, -233704.4, 0.0, 9.999223, 9.997877 
2.5443107e+3, 2.9465964e+2, -232704.28, -325685.88, -28084.637, -0.06825996, -0.053234983, -224879.88, -172557.81, 0.0, 9.999458, 9.998273 
2.5439414e+3, 3.0465183e+2, -53780.336, -28395.818, 36711.55, 0.25533935, -0.03524768, -2244.398, -2244.398, 0.0, 9.999488, 10.000045 
2.5435662e+3, 3.146439e+2, -76129.664, 167941.8, -48625.7, -0.11452506, -0.24905896, 177272.64, 177272.64, 0.0, 9.99829, 10.001945 
2.5606644e+3, 1.2516552e+2, -1903962.5, -2063784.6, -307490.75, 0.2059289, 0.056502216, -1666168.8, 47200.305, 0.26403108, 9.999728, 9.997665 
2.560285e+3, 1.3515566e+2, -1599883.1, -1894821.1, -94144.36, -0.14214091, -0.09860403, -1572394.3, 43080.293, 0.18292536, 10.001448, 9.997288 
2.559907e+3, 1.4514855e+2, -1289922.3, -1403924.8, -106696.46, -0.3841961, 0.047962483, -1225955.4, 291587.88, 0.1037245, 10.001599, 10.000006 
2.5595382e+3, 1.5514281e+2, -1193451.6, -1292708.9, -134409.44, 0.3554782, 0.0019091178, -1099801.1, 319787.5, 0.043632858, 10.001468, 10.000088 
2.559165e+3, 1.651336e+2, -1418197.4, -1711366.9, 117287.266, 0.45144558, -0.047798023, -1377049.9, -55374.29, 0.011545959, 10.000806, 9.996828 
2.5587884e+3, 1.751206e+2, -1337836.0, -1596847.3, 106044.4, -0.1402195, -0.4571401, -1299958.5, -76151.664, 0.0013158798, 10.000614, 9.997013 
2.5584137e+3, 1.8511353e+2, -1017982.75, -1072071.0, -111254.414, -0.16554928, -0.29905576, -930532.6, 195345.0, 0.000016496271, 10.000706, 9.999942 
2.5580418e+3, 1.951116e+2, -876864.6, -956773.1, -111462.375, 0.33707678, 0.08859697, -798411.94, 229484.47, 0.0, 10.001038, 9.999893 
2.5576663e+3, 2.0510419e+2, -1007761.56, -1204888.8, 19011.547, 0.3485004, 0.19363211, -1005944.8, -75974.914, 0.0, 10.000507, 9.99775 
2.557287e+3, 2.1509096e+2, -1012240.3, -1129540.0, -2521.6035, -0.17628753, -0.33561528, -1012186.1, -180084.9, 0.0, 9.999736, 9.997934 
2.556912e+3, 2.2508304e+2, -804513.9, -798645.56, -69045.63, -0.1919265, -0.28438765, -732471.75, 1705.0117, 0.0, 9.999645, 9.99962 
2.5565413e+3, 2.350795e+2, -652072.44, -635829.8, -113190.74, 0.22103499, -0.049325977, -530469.4, 105736.63, 0.0, 9.999898, 9.999911 
2.556168e+3, 2.4507222e+2, -730074.06, -917154.5, -32796.22, 0.27903736, 0.06482163, -724491.3, -186214.5, 0.0, 9.999868, 9.997378 
2.5557926e+3, 2.550607e+2, -604540.2, -780565.6, -41882.367, -0.034175277, -0.2725022, -595083.06, -154689.28, 0.0, 9.999996, 9.99755 
2.5554207e+3, 2.6505372e+2, -481084.56, -469926.9, -28885.943, -0.033118635, -0.104034916, -446086.0, -103622.21, 0.0, 9.999357, 9.999294 
2.5550514e+3, 2.7504972e+2, -446308.47, -383405.13, 10850.847, 0.21459508, 0.11347575, -381585.97, -137085.03, 0.0, 9.9988575, 9.999454 
2.5546783e+3, 2.8504154e+2, -488239.4, -517692.13, -31760.889, 0.13081108, 0.1348764, -467956.9, -321376.66, 0.0, 9.998507, 9.998067 
2.5543022e+3, 2.9503018e+2, -329181.25, -364259.28, -11758.506, -0.22691496, -0.2761647, -325604.4, -276911.53, 0.0, 9.998847, 9.998253 
2.553932e+3, 3.0502436e+2, -153507.66, -115947.41, -24351.947, 0.0056330776, -0.029574731, -103975.125, -103975.125, 0.0, 9.999167, 9.9994955 
2.553559e+3, 3.1501576e+2, -206877.13, -19236.064, 39913.92, -0.11859318, -0.32056192, -11098.696, -11098.696, 0.0, 9.998191, 10.000588 
2.5706542e+3, 1.2553598e+2, -1836971.4, -1729288.1, -214905.94, -0.20975642, 0.17115255, -1561581.8, 148171.33, 0.23823552, 9.998859, 10.000504 
2.5702798e+3, 1.3552774e+2, -1534652.6, -1587819.9, -57606.52, -0.13986869, -0.08852181, -1497791.8, 114035.91, 0.16394834, 10.000733, 9.999761 
2.569905e+3, 1.455195e+2, -1379637.8, -1566211.9, -85385.125, -0.16485292, -0.10703595, -1346461.0, 167444.19, 0.09188186, 10.001422, 9.998915 
2.5695318e+3, 1.555131e+2, -1069964.9, -1354359.8, -161561.9, 0.12314869, -0.08766339, -996936.06, 419029.6, 0.03784501, 10.002829, 9.999025 
2.5691584e+3, 1.6550615e+2, -1096364.6, -1327917.8, -46988.957, 0.24565256, 0.022943377, -1087192.5, 230839.05, 0.009625426, 10.002034, 9.998865 
2.5687844e+3, 1.7549756e+2, -1356482.3, -1428335.9, 62741.66, 0.11299041, -0.10861129, -1320109.4, -99994.82, 0.0010124295, 9.999674, 9.998641 
2.568409e+3, 1.854891e+2, -1272502.5, -1287493.4, -84776.05, 0.0177597, -0.12012875, -1194891.1, -72694.75, 0.000009793076, 9.999307, 9.999155 
2.5680333e+3, 1.9548106e+2, -989095.06, -1120023.8, -141834.08, 0.08049036, -0.21816775, -898346.44, 125927.51, 0.0, 10.000631, 9.999012 
2.5676578e+3, 2.0547388e+2, -917692.5, -1033444.7, -112934.734, 0.09376939, -0.12395616, -848667.44, 77677.47, 0.0, 10.000481, 9.9989605 
2.5672817e+3, 2.1546628e+2, -990802.25, -1044131.0, -39599.29, 0.0044431277, -0.1561473, -969726.75, -141305.16, 0.0, 9.999431, 9.998721 
2.566907e+3, 2.2545823e+2, -815867.3, -921939.0, -7838.8564, -0.032939553, -0.10862982, -815291.1, -84791.875, 0.0, 9.999923, 9.99868 
2.566534e+3, 2.3545018e+2, -492746.78, -720119.5, -61313.348, 0.059698567, -0.17043266, -477266.9, 155307.58, 0.0, 10.001501, 9.998624 
2.5661612e+3, 2.454418e+2, -330267.06, -609463.5, -8965.468, 0.09682512, -0.15518409, -329979.44, 204675.67, 0.0, 10.002042, 9.998443 
2.5657877e+3, 2.554321e+2, -283451.53, -553332.44, 30854.965, 0.00056844373, -0.34394717, -279968.88, 156781.72, 0.0, 10.001785, 9.998274 
2.565415e+3, 2.6542562e+2, -224133.25, -378141.03, 24003.0, 0.012510619, -0.14590387, -220478.95, 118337.7, 0.0, 10.001099, 9.999111 
2.5650448e+3, 2.754215e+2, -262312.38, -355414.0, -33095.64, 0.23518997, 0.13197842, -251746.64, -10885.749, 0.0, 10.000203, 9.999024 
2.564672e+3, 2.854134e+2, -223228.88, -341800.78, -51825.53, 0.17779766, 0.1484763, -203770.23, -60829.56, 0.0, 10.000032, 9.998544 
2.5642958e+3, 2.9540172e+2, -79042.5, -246906.6, -61062.355, -0.16476989, -0.28535053, -59180.52, -14127.441, 0.0, 10.000449, 9.998319 
2.5639248e+3, 3.0539528e+2, -5970.9116, -166929.11, -56972.527, -0.04131386, -0.058352184, 12154.017, 12154.017, 0.0, 10.000579, 9.998497 
2.563552e+3, 3.153893e+2, -68687.08, -249672.34, 102078.92, -0.12845977, 0.07401398, -22764.818, -22764.818, 0.0, 10.000193, 9.998095 
2.5806463e+3, 1.259082e+2, -1730044.8, -1509649.0, 38400.5, -0.25279292, 0.49264005, -1503150.0, 202964.05, 0.21373183, 9.998544, 10.002322 
2.5802755e+3, 1.3589998e+2, -1463133.4, -1338287.4, -27735.768, 0.03582854, -0.079278335, -1332403.0, 275773.63, 0.14603193, 10.000142, 10.002046 
2.579902e+3, 1.4589082e+2, -1569685.8, -1796505.6, -31337.432, 0.114956506, -0.22833301, -1565435.9, -55172.563, 0.080827504, 10.000681, 9.997645 
2.5795248e+3, 1.5588322e+2, -1320517.1, -1625499.9, -97285.055, -0.13181776, -0.19195165, -1292127.3, 120217.94, 0.032553293, 10.00175, 9.9976425 
2.579152e+3, 1.6587871e+2, -1008859.7, -1061532.6, -80373.94, 0.067093946, 0.12712185, -950617.3, 363770.97, 0.007938516, 10.001699, 10.000825 
2.5787815e+3, 1.7587548e+2, -1151976.0, -1153160.5, -66485.33, 0.521145, 0.30544525, -1086080.3, 130332.21, 0.00076767127, 10.000353, 10.00017 
2.5784048e+3, 1.8586501e+2, -1316666.8, -1486393.9, -64692.65, 0.34178415, 0.11056091, -1294820.6, -176308.45, 0.000005913737, 9.999881, 9.997462 
2.5780234e+3, 1.9584925e+2, -1229436.5, -1398907.9, -112960.47, -0.26155686, -0.62603945, -1172962.4, -152295.98, 0.0, 9.999832, 9.997417 
2.5776485e+3, 2.0584337e+2, -944309.94, -913710.3, -137366.23, -0.16883314, -0.3864451, -790794.5, 131930.55, 0.0, 9.999797, 10.000077 
2.5772777e+3, 2.158435e+2, -981250.2, -944771.7, -102272.87, 0.3803341, 0.19629727, -859124.44, -34399.043, 0.0, 9.999143, 9.999518 
2.5769025e+3, 2.2583476e+2, -1031935.3, -1163407.1, 31332.084, 0.2426714, 0.21186307, -1024850.1, -298039.97, 0.0, 9.999257, 9.997275 
2.5765243e+3, 2.3581946e+2, -805735.8, -1017901.1, -10649.608, -0.36633876, -0.45950487, -805202.6, -176244.88, 0.0, 10.000176, 9.997165 
2.5761527e+3, 2.4581078e+2, -443261.06, -528406.1, -18593.377, -0.26139835, -0.45624372, -439377.88, 91660.98, 0.0, 10.00084, 9.999521 
2.5757855e+3, 2.5580573e+2, -389434.38, -517055.56, 21511.871, 0.30815032, -0.33060703, -385905.88, 47177.813, 0.0, 10.000808, 9.998956 
2.5754115e+3, 2.657984e+2, -473830.84, -668627.9, -23984.725, 0.2253992, -0.1587341, -470921.13, -135762.97, 0.0, 10.000226, 9.997519 
2.5750333e+3, 2.7578956e+2, -538295.25, -666317.94, -55648.547, -0.26968914, -0.23322095, -517487.88, -280234.94, 0.0, 9.999204, 9.997341 
2.574661e+3, 2.8578225e+2, -305571.2, -337208.38, -21139.098, -0.25543594, -0.06863342, -294987.34, -155660.78, 0.0, 9.999389, 9.998848 
2.574292e+3, 2.9577476e+2, -158561.27, -283487.78, 5935.6064, 0.027743638, -0.13990045, -158279.89, -116881.33, 0.0, 9.999994, 9.998268 
2.5739208e+3, 3.0576536e+2, -164100.44, -394089.13, -36147.367, 0.1359263, -0.11976235, -158552.97, -158552.97, 0.0, 10.000266, 9.997049 
2.573548e+3, 3.157569e+2, -158742.86, -168940.95, 121272.07, -0.04923784, -0.11878389, -42462.688, -42462.688, 0.0, 9.999228, 9.999079 
2.5906405e+3, 1.2627879e+2, -1879106.3, -1731211.0, 210403.8, -0.16653107, -0.17754774, -1582138.5, 120319.71, 0.19077115, 9.9984255, 10.000624 
2.5902697e+3, 1.3627398e+2, -1662761.8, -1678441.4, 80388.555, 0.098617226, -0.08736718, -1589831.6, 14671.918, 0.12932457, 9.999784, 9.9996 
2.5898957e+3, 1.4626539e+2, -1568749.3, -1686756.6, 18111.941, 0.052888025, -0.12487751, -1566031.9, -59442.68, 0.07062259, 10.0001955, 9.998647 
2.589519e+3, 1.5625739e+2, -1385294.0, -1585588.4, 60603.906, -0.23232138, -0.18112995, -1368384.4, 40287.44, 0.027766839, 10.000938, 9.998321 
2.5891456e+3, 1.6625115e+2, -1048631.4, -1191803.5, -583.3884, -0.11523785, -0.00021275261, -1048629.0, 262104.36, 0.0064744665, 10.001848, 9.999873 
2.5887752e+3, 1.7624564e+2, -875622.75, -1128643.0, -65454.805, 0.31064293, 0.08104401, -859692.94, 353091.97, 0.0005723583, 10.002603, 9.999298 
2.588399e+3, 1.8623714e+2, -959027.94, -1207579.4, -141772.31, 0.3132154, 0.06148199, -894772.9, 220095.33, 0.0000035552432, 10.001812, 9.998462 
2.5880197e+3, 1.9622567e+2, -1148207.6, -1291979.4, -67055.98, -0.012096092, -0.29600716, -1121787.4, -104805.516, 0.0, 9.99997, 9.998129 
2.5876436e+3, 2.0621893e+2, -885395.56, -949931.4, -64027.492, -0.048286222, -0.14454456, -845964.56, 73085.125, 0.0, 10.000415, 9.999569 
2.5872704e+3, 2.1621561e+2, -552097.8, -812057.25, -108270.78, 0.18499742, 0.20658816, -512911.1, 308172.75, 0.0, 10.002277, 9.998986 
2.5868958e+3, 2.2620676e+2, -616488.94, -879511.75, -39732.406, 0.114783265, 0.18184702, -610618.0, 112551.02, 0.0, 10.001642, 9.9981 
2.586519e+3, 2.361935e+2, -852894.8, -995401.56, 32394.86, -0.21616352, -0.3082733, -845876.4, -220580.52, 0.0, 9.999521, 9.997688 
2.5861475e+3, 2.4618532e+2, -581764.4, -594503.5, 55753.613, -0.15411718, -0.28238577, -532017.7, -4644.4263, 0.0, 9.999769, 9.9996195 
2.5857794e+3, 2.5618026e+2, -285760.7, -466732.9, -3078.6343, 0.23676781, -0.12061371, -285708.3, 143711.47, 0.0, 10.001408, 9.9990425 
2.5854054e+3, 2.6617202e+2, -225035.02, -473808.16, -57221.625, 0.13910589, -0.091851555, -212504.33, 118996.05, 0.0, 10.001556, 9.998234 
2.5850263e+3, 2.7616143e+2, -270844.25, -491822.22, 30418.129, -0.29740092, -0.33276278, -266733.6, -33126.543, 0.0, 10.000746, 9.9978485 
2.5846547e+3, 2.8615472e+2, -44006.49, -121467.43, 162803.28, -0.27144274, -0.17460322, 84609.86, 220284.84, 0.0, 10.000707, 9.999722 
2.5842863e+3, 2.9614955e+2, 44114.336, -139240.33, 138016.52, 0.05656298, -0.03674871, 118127.36, 155854.02, 0.0, 10.001049, 9.998799 
2.583916e+3, 3.061396e+2, -48018.684, -311322.84, 125887.71, 0.2212494, -0.09450455, 2482.9827, 2482.9827, 0.0, 10.000873, 9.99737 
2.5835374e+3, 3.1612766e+2, 29657.81, 263151.5, -380004.44, -0.33150613, -0.39904514, 543938.56, 543938.56, 0.0, 9.998884, 10.002283 
2.6006362e+3, 1.2665182e+2, -1833327.5, -2154058.3, 56618.92, 0.11706599, -0.63283575, -1823626.0, -124842.61, 0.16949552, 10.000698, 9.9965105 
2.6002643e+3, 1.3664779e+2, -1561509.3, -1960370.3, 12038.056, 0.19372755, -0.14933673, -1561146.3, 39687.918, 0.11391175, 10.0019655, 9.996618 
2.5998893e+3, 1.4664043e+2, -1322816.3, -1437530.3, 9651.92, 0.044537835, 0.00015118568, -1322009.8, 180900.13, 0.061296463, 10.0015135, 9.999678 
2.5995135e+3, 1.5663218e+2, -1405051.1, -1569357.9, -6068.2515, -0.19793358, -0.19446984, -1404827.4, 162.77873, 0.023481611, 10.000741, 9.998497 
2.5991398e+3, 1.6662356e+2, -1296983.4, -1486375.9, -6120.8545, -0.16207647, -0.17208025, -1296785.9, 10291.405, 0.005220199, 10.000924, 9.998305 
2.5987682e+3, 1.7661452e+2, -1223139.6, -1466953.1, -71031.1, 0.062221352, -0.29192278, -1203955.4, 5214.6616, 0.00041937284, 10.000993, 9.99777 
2.5983936e+3, 1.866092e+2, -1005782.44, -1087521.8, -182570.39, 0.29454538, 0.0036549766, -859563.2, 251662.38, 0.0000020172258, 10.00094, 9.999667 
2.5980175e+3, 1.9660491e+2, -1130519.4, -1230827.8, -141030.64, 0.48686612, 0.22573529, -1030990.25, -17719.617, 0.0, 9.999933, 9.998537 
2.5976396e+3, 2.0659615e+2, -1009829.3, -1173430.4, -7360.9126, 0.23354606, 0.25100803, -1009498.75, -94139.65, 0.0, 10.000399, 9.997991 
2.5972614e+3, 2.1658514e+2, -857994.7, -1116843.3, -61387.387, -0.21860328, -0.036691263, -844174.25, -26704.902, 0.0, 10.001009, 9.99745 
2.596888e+3, 2.2657762e+2, -641774.1, -736875.6, -106511.6, -0.10480239, 0.06866888, -572681.0, 146859.78, 0.0, 10.0009, 9.999402 
2.596517e+3, 2.3657088e+2, -895685.5, -936499.1, -33169.79, 0.2948178, 0.07395414, -877147.8, -255545.64, 0.0, 9.998982, 9.998318 
2.5961438e+3, 2.4656358e+2, -753946.0, -805167.0, 115133.625, 0.1781098, 0.233524, -661608.8, -137933.95, 0.0, 9.99925, 9.998393 
2.59577e+3, 2.5655565e+2, -534728.8, -710681.6, 45929.746, -0.18948305, 0.1971991, -523461.1, -97704.375, 0.0, 10.000311, 9.9978895 
2.595397e+3, 2.6654664e+2, -235743.48, -267551.53, -95026.984, -0.14091839, 0.10037175, -155298.84, 172540.72, 0.0, 10.000706, 10.000016 
2.5950244e+3, 2.765365e+2, -326584.2, -380363.7, 14612.407, 0.10736304, -0.30207208, -322870.3, -92940.94, 0.0, 9.999857, 9.999029 
2.5946516e+3, 2.8653038e+2, -140854.88, -159735.42, 157305.73, 0.02346991, -0.13104151, 7293.5986, 139283.84, 0.0, 10.000104, 9.99973 
2.594278e+3, 2.965262e+2, -107487.78, -226185.73, 132079.27, -0.28774127, 0.08583596, -22036.092, 12001.174, 0.0, 10.000195, 9.9985895 
2.5939074e+3, 3.0651686e+2, -6791.068, -70627.81, 60934.305, -0.010746733, -0.005748998, 30078.436, 30078.436, 0.0, 10.000359, 9.999198 
2.5935307e+3, 3.1651124e+2, -71176.15, 114577.78, -19961.553, -0.31024566, 0.122792795, 116698.68, 116698.68, 0.0, 9.9987755, 10.001272 
2.6106307e+3, 1.2702684e+2, -1414268.0, -1545907.8, -104011.125, -0.10960052, -0.06733891, -1357000.3, 338124.63, 0.14988421, 10.002117, 10.000201 
2.6102617e+3, 1.3701932e+2, -1154408.3, -1521970.0, 21628.56, 0.21436535, -0.21799818, -1153139.9, 444053.8, 0.09979623, 10.004029, 9.998715 
2.6098868e+3, 1.4701207e+2, -1169280.1, -1409067.1, -70122.74, 0.14237082, -0.11399432, -1150279.3, 348985.9, 0.05285716, 10.00281, 9.999269 
2.6095092e+3, 1.5700431e+2, -1426985.3, -1627033.3, -93046.88, -0.074043766, -0.18419644, -1390398.4, 10944.992, 0.019694533, 10.000722, 9.998154 
2.6091346e+3, 1.6699636e+2, -1353576.9, -1397908.5, -52413.785, -0.09074231, -0.1523739, -1318834.6, -15410.869, 0.004163879, 10.000014, 9.999346 
2.6087612e+3, 1.7698804e+2, -1369043.0, -1457619.0, -18453.928, -0.010291093, -0.27209643, -1365352.1, -159844.44, 0.00030229846, 9.999626, 9.998492 
2.6083863e+3, 1.8698199e+2, -1006013.75, -1100272.3, -109747.3, 0.13437001, -0.0723092, -933704.2, 173864.42, 0.0000010444409, 10.000891, 9.99965 
2.6080108e+3, 1.9697677e+2, -735449.3, -1065835.9, -101241.19, 0.29284108, 0.09807608, -706893.8, 302727.53, 0.0, 10.002603, 9.998441 
2.6076347e+3, 2.0696792e+2, -665514.7, -1034990.25, -10515.822, 0.16809152, 0.11999512, -665215.6, 246496.22, 0.0, 10.002746, 9.997854 
2.6072577e+3, 2.1695684e+2, -704327.7, -1056635.1, -2611.5447, -0.13230218, -0.12505539, -704308.4, 109516.98, 0.0, 10.001949, 9.997456 
2.6068836e+3, 2.269493e+2, -323005.5, -515197.47, -53061.434, -0.065834545, -0.06409311, -309329.22, 406567.22, 0.0, 10.00267, 10.000123 
2.606511e+3, 2.3694345e+2, -135190.84, -515525.5, -16791.299, 0.22033973, 0.004011056, -134450.97, 483497.13, 0.0, 10.003809, 9.9989395 
2.606138e+3, 2.4693663e+2, -217836.34, -527458.44, 133427.03, 0.10432297, 0.16923238, -168272.16, 351745.44, 0.0, 10.002792, 9.998599 
2.6057637e+3, 2.569288e+2, -417781.5, -651797.3, 116239.266, -0.25165388, 0.18513423, -369857.84, 52243.14, 0.0, 10.000961, 9.998028 
2.6053905e+3, 2.6692003e+2, -258480.17, -229425.02, -51799.113, -0.1656825, 0.07897065, -190154.84, 134026.06, 0.0, 10.000218, 10.00056 
2.605019e+3, 2.769105e+2, -278748.47, -312715.5, -48809.285, 0.20816202, -0.27086407, -244052.33, -17790.428, 0.0, 9.999861, 9.999527 
2.6046455e+3, 2.8690425e+2, -204159.39, -220428.14, 83376.05, 0.067821346, -0.13519, -128521.85, -196.93216, 0.0, 9.999738, 9.999497 
2.60427e+3, 2.968999e+2, -203304.88, -295336.25, 29076.092, -0.40512788, 0.12535043, -194888.38, -164512.22, 0.0, 9.999523, 9.998465 
2.6039004e+3, 3.0689144e+2, 32792.867, 33320.492, -104594.4, -0.08274532, 0.060288273, 137651.4, 137651.4, 0.0, 10.0000725, 10.000107 
2.6035288e+3, 3.1688353e+2, -83506.516, -223936.67, 124246.59, 0.17108645, -0.097289756, -11007.291, -11007.291, 0.0, 9.999958, 9.998387 
2.6206243e+3, 1.2739965e+2, -1412016.3, -1229176.4, 59842.2, -0.28034475, 0.28680316, -1211332.0, 480153.5, 0.13183987, 10.000678, 10.00328 
2.6202595e+3, 1.3739084e+2, -1321020.6, -1394138.5, -24039.045, 0.3115459, -0.2973205, -1313825.4, 279727.97, 0.08692974, 10.001822, 10.000686 
2.6198846e+3, 1.4738357e+2, -1324996.5, -1592923.8, -181246.6, 0.33652303, -0.2243957, -1233579.1, 262044.13, 0.045284748, 10.002078, 9.998379 
2.6195055e+3, 1.5737645e+2, -1372206.4, -1657973.0, -183849.02, 0.15275401, -0.1591732, -1282246.1, 115452.984, 0.01638905, 10.001347, 9.99767 
2.6191294e+3, 1.6736972e+2, -1156802.0, -1178653.8, -91205.664, 0.07341612, -0.057343964, -1075870.1, 223896.25, 0.0032885466, 10.0008955, 10.000414 
2.6187545e+3, 1.7736281e+2, -1295253.5, -1363862.9, -102120.79, 0.054005023, -0.15209958, -1221829.5, -19996.014, 0.00021471751, 9.999915, 9.999007 
2.618379e+3, 1.8735486e+2, -1057804.9, -1174054.9, -107228.99, 0.008973599, -0.1474108, -993960.4, 109949.34, 0.00000047553752, 10.000782, 9.999184 
2.6180032e+3, 1.9734652e+2, -969997.94, -1256098.6, -107377.41, -0.033318996, -0.25852114, -934181.56, 71808.13, 0.0, 10.00141, 9.997702 
2.6176292e+3, 2.0733845e+2, -838840.06, -1101038.8, -55000.637, 0.07723495, -0.13654985, -827770.1, 80303.29, 0.0, 10.001564, 9.997939 
2.617256e+3, 2.1732995e+2, -994121.2, -1210321.4, -30751.479, 0.22463354, -0.15479048, -989832.3, -179668.78, 0.0, 10.000129, 9.997263 
2.6168805e+3, 2.2732167e+2, -511316.9, -564340.6, -98.527565, 0.060497846, -0.17614746, -511316.72, 200924.8, 0.0, 10.001357, 10.000359 
2.6165038e+3, 2.373135e+2, -423335.44, -657393.1, 11112.108, -0.20285416, -0.38245273, -422809.06, 191505.45, 0.0, 10.002011, 9.998789 
2.616131e+3, 2.4730691e+2, -344279.1, -525330.1, 75911.47, -0.18451013, -0.21383847, -316663.1, 199717.39, 0.0, 10.001785, 9.999041 
2.6157594e+3, 2.5730056e+2, -624386.8, -775338.0, 53953.4, -0.06925821, -0.10947607, -607085.6, -188637.95, 0.0, 9.999778, 9.997712 
2.6153845e+3, 2.6729292e+2, -420400.06, -411157.5, -68686.03, -0.09030836, -0.035125725, -346937.44, -26417.535, 0.0, 9.999635, 9.999542 
2.6150087e+3, 2.7728423e+2, -512809.66, -571688.25, -46236.258, -0.14511488, -0.23270652, -487435.97, -264837.22, 0.0, 9.998982, 9.998136 
2.6146355e+3, 2.8727654e+2, -323971.1, -308825.47, 71803.51, -0.23400222, -0.15852223, -244196.53, -119518.84, 0.0, 9.999198, 9.999086 
2.6142636e+3, 2.972695e+2, -404603.25, -501363.5, 40189.855, -0.36030677, -0.1494595, -390087.75, -363333.0, 0.0, 9.998722, 9.997416 
2.6138932e+3, 3.0726466e+2, -180730.67, -213122.4, -117632.266, -0.12532836, 0.2625403, -78184.57, -78184.57, 0.0, 9.999318, 9.998757 
2.6135167e+3, 3.1725818e+2, -179805.03, -82890.586, -40501.8, -0.4760964, 0.33388218, -68193.25, -68193.25, 0.0, 9.998652, 9.999975 
2.6306173e+3, 1.2777007e+2, -1755543.9, -1649231.3, 128620.52, -0.44531444, -0.002629866, -1563215.6, 124627.76, 0.11528824, 9.999332, 10.000649 
2.6302525e+3, 1.3776189e+2, -1673204.8, -1755615.0, -14005.262, 0.16341566, -0.2772886, -1670889.6, -80970.8, 0.07524984, 9.999996, 9.998989 
2.6298785e+3, 1.4775553e+2, -1367723.5, -1520800.9, -175715.64, 0.2159933, -0.10881596, -1252600.6, 239383.34, 0.038529176, 10.001348, 9.999236 
2.6295012e+3, 1.5774924e+2, -1112622.1, -1482675.8, -132509.08, 0.10395673, -0.03121583, -1070067.0, 323984.56, 0.013527696, 10.002883, 9.998153 
2.6291254e+3, 1.6774184e+2, -953604.1, -1216621.1, -166815.23, 0.10555637, 0.052786052, -872693.7, 423433.06, 0.0025719018, 10.002796, 9.999276 
2.6287502e+3, 1.7773409e+2, -1055660.9, -1303258.5, -214286.44, 0.11096664, -0.013511136, -931982.75, 266221.06, 0.00015054179, 10.0016775, 9.998611 
2.6283738e+3, 1.877264e+2, -888980.25, -1000166.3, -210022.03, 0.0117768925, -0.04218045, -727318.0, 372957.6, 0.0000001940375, 10.001468, 10.000072 
2.6279968e+3, 1.9771835e+2, -936994.25, -1113494.6, -153405.23, -0.14323671, -0.20468083, -848266.25, 154083.36, 0.0, 10.000958, 9.998939 
2.6276228e+3, 2.0771134e+2, -943412.0, -969963.8, -100353.73, 0.020301294, -0.13286483, -855459.9, 48959.355, 0.0, 10.000037, 9.999586 
2.6272497e+3, 2.1770445e+2, -1019274.1, -1055351.9, 25833.629, 0.26366052, -0.116567835, -1005804.6, -199314.98, 0.0, 9.999123, 9.998838 
2.6268739e+3, 2.2769709e+2, -714044.44, -647190.0, 114013.31, 0.0065862937, -0.12392732, -561804.75, 146754.27, 0.0, 9.999797, 10.000573 
2.6264966e+3, 2.3768935e+2, -543003.7, -680801.56, 105818.92, -0.42422587, -0.27262044, -485630.28, 124999.266, 0.0, 10.000878, 9.999216 
2.6261246e+3, 2.476818e+2, -435919.03, -581243.7, 82508.77, -0.29060993, -0.21778582, -398638.16, 114065.555, 0.0, 10.0010805, 9.999048 
2.6257545e+3, 2.5767437e+2, -450076.4, -663658.1, 49576.168, 0.033971306, -0.19505425, -439129.9, -24351.355, 0.0, 10.000717, 9.998059 
2.6253787e+3, 2.6766658e+2, -249530.64, -399880.06, -29804.613, -0.047719732, -0.12137123, -243837.84, 73016.234, 0.0, 10.000987, 9.99902 
2.625001e+3, 2.7765837e+2, -180509.13, -451393.84, 7040.926, -0.2713512, -0.17609425, -180326.25, 38605.746, 0.0, 10.001261, 9.997922 
2.6246285e+3, 2.876496e+2, -98174.27, -267325.63, 104255.18, -0.2808115, -0.17777596, -48503.21, 72518.76, 0.0, 10.000902, 9.998611 
2.6242584e+3, 2.9764083e+2, -180974.22, -387541.72, 44406.207, -0.2018256, -0.26189053, -171832.69, -148719.14, 0.0, 10.000124, 9.997569 
2.6238865e+3, 3.0763698e+2, -56334.918, -216966.9, -20863.793, -0.07806897, 0.25613445, -53669.246, -53669.246, 0.0, 10.000366, 9.998271 
2.6235154e+3, 3.176218e+2, 132402.14, 403467.94, -23127.38, 0.19549567, -0.44947907, 405427.03, 405427.03, 0.0, 9.999151, 10.003155 
2.640612e+3, 1.2814085e+2, -1439634.1, -1807554.9, 87732.1, -0.3735643, -0.27979034, -1419784.9, 264413.0, 0.10017185, 10.00304, 9.997748 
2.6402453e+3, 1.3813345e+2, -1555270.6, -1890371.0, -40211.645, 0.07413924, -0.20890269, -1550512.9, 35767.727, 0.06469282, 10.001694, 9.997249 
2.639872e+3, 1.4812805e+2, -1279531.8, -1349226.5, -87244.7, 0.14116612, 0.032839634, -1220432.5, 267906.88, 0.032530583, 10.001444, 10.000344 
2.639497e+3, 1.5812227e+2, -1345912.6, -1589199.6, -85425.23, 0.11310778, 0.06479532, -1318913.5, 71487.266, 0.011066901, 10.001276, 9.998171 
2.6391217e+3, 1.6811392e+2, -1183250.9, -1477339.8, -101992.95, 0.18533528, 0.13963827, -1151341.0, 141145.94, 0.0019930317, 10.001899, 9.997882 
2.6387462e+3, 1.7810492e+2, -1173694.6, -1480234.0, -122870.97, 0.25240013, 0.088789746, -1130523.8, 64055.207, 0.00010503105, 10.001412, 9.997527 
2.638369e+3, 1.8809807e+2, -857924.0, -834968.8, -119127.055, 0.09777431, 0.10768295, -726767.75, 369874.38, 0.00000008640195, 10.001228, 10.001212 
2.6379913e+3, 1.9809164e+2, -982812.44, -1021227.2, -155998.52, -0.09148131, -0.01675171, -844843.3, 153855.23, 0.0, 10.000302, 9.999834 
2.6376158e+3, 2.0808567e+2, -775400.44, -671148.4, -138074.02, 0.017667402, 0.0035236832, -575688.6, 325064.4, 0.0, 10.000283, 10.001511 
2.6372415e+3, 2.1807982e+2, -996428.75, -933704.2, -42157.344, 0.21600161, -0.08226805, -912522.8, -109714.87, 0.0, 9.99886, 9.99981 
2.6368657e+3, 2.2807445e+2, -768127.5, -670338.44, 105144.4, -0.08047097, 0.06555013, -603276.0, 101582.984, 0.0, 9.999484, 10.000522 
2.63649e+3, 2.3806877e+2, -832830.9, -896155.56, 87864.06, -0.4975109, 0.103292726, -771098.4, -164185.38, 0.0, 9.999298, 9.99849 
2.6361185e+3, 2.480598e+2, -593808.75, -688284.44, 40755.16, -0.3139195, 0.060390737, -578657.5, -69657.98, 0.0, 10.000225, 9.998688 
2.6357484e+3, 2.5804967e+2, -689346.25, -858953.0, 27583.371, 0.034600817, -0.17777342, -684973.06, -273875.22, 0.0, 9.999513, 9.997293 
2.6353732e+3, 2.6804096e+2, -366046.56, -468706.78, -28968.37, -0.020483477, -0.15848047, -358436.47, -45253.125, 0.0, 10.00038, 9.998786 
2.6349962e+3, 2.780326e+2, -436130.34, -686896.25, 13764.349, -0.19573079, -0.22029996, -435377.1, -220111.34, 0.0, 10.000109, 9.99685 
2.6346242e+3, 2.880236e+2, -276814.88, -463003.25, 67673.5, -0.14228486, -0.13392898, -254816.81, -137461.58, 0.0, 10.000241, 9.997549 
2.6342532e+3, 2.980144e+2, -372253.0, -545622.5, 23654.986, -0.09040913, -0.1909384, -369083.4, -349636.66, 0.0, 9.999191, 9.996918 
2.633881e+3, 3.0800605e+2, -14726.555, -47643.863, -4297.0337, 0.0047692624, -0.19759308, -14174.865, -14174.865, 0.0, 10.000149, 9.999463 
2.633507e+3, 3.1799707e+2, -289863.56, -372375.06, -50206.516, -0.015929142, -0.34998935, -266136.78, -266136.78, 0.0, 9.998878, 9.997899 
2.650614e+3, 1.2851296e+2, -1161853.3, -1689759.5, -52299.285, -0.1285512, -0.26289058, -1156721.9, 523829.5, 0.086430125, 10.005242, 9.997486 
2.6502407e+3, 1.3850513e+2, -1293935.3, -1701481.4, -44825.813, -0.08647924, -0.20325026, -1289063.1, 293577.63, 0.055199515, 10.0032835, 9.997815 
2.6498657e+3, 1.4850077e+2, -1153078.0, -1112039.9, -71356.53, -0.03127305, 0.0020169758, -1058310.8, 426375.6, 0.027235242, 10.001507, 10.002 
2.6494905e+3, 1.5849616e+2, -1447959.8, -1456840.5, 7947.3594, 0.034108724, 0.01244192, -1443296.5, -56564.81, 0.0089680515, 9.999716, 9.999844 
2.6491165e+3, 1.6848838e+2, -1222435.6, -1319825.3, 94185.35, 0.15859698, -0.0049127005, -1165101.9, 123705.055, 0.0015322798, 10.000932, 9.999395 
2.648742e+3, 1.7847957e+2, -1001740.2, -1324669.4, 144856.27, 0.23245713, -0.1341054, -946285.06, 244607.56, 0.00007382683, 10.00223, 9.9982 
2.648364e+3, 1.8847209e+2, -849061.75, -1024466.8, 49147.598, 0.08852365, -0.064928874, -836229.6, 256737.13, 0.000000036839044, 10.002064, 9.999546 
2.6479852e+3, 1.9846508e+2, -903995.75, -1120450.9, -45549.06, -0.14029157, -0.05044769, -894801.3, 100234.63, 0.0, 10.001328, 9.998684 
2.6476094e+3, 2.0845792e+2, -561669.8, -730882.5, -145868.23, -0.097213715, -0.020785386, -477647.03, 419458.5, 0.0, 10.002377, 10.00011 
2.6472345e+3, 2.1845093e+2, -371906.66, -696652.06, -189102.52, -0.016194165, -0.084315665, -285031.2, 514141.9, 0.0, 10.003317, 9.999312 
2.646859e+3, 2.2844525e+2, -445126.84, -525100.56, -144226.72, -0.155968, 0.027922697, -335446.4, 365780.94, 0.0, 10.001644, 10.000529 
2.6464844e+3, 2.3843975e+2, -748248.9, -773306.0, -133012.86, -0.36228532, 0.080320776, -627175.8, -23896.176, 0.0, 9.999359, 9.999352 
2.6461127e+3, 2.4843147e+2, -593974.06, -554825.3, -79718.37, -0.2049686, -0.031208906, -492313.3, 13042.594, 0.0, 9.999524, 10.000009 
2.645742e+3, 2.5842214e+2, -488660.88, -657998.7, -19993.633, 0.04132844, -0.27638227, -486332.25, -78890.03, 0.0, 10.000265, 9.998369 
2.645367e+3, 2.684144e+2, -293700.1, -483767.94, -69590.4, -0.04510639, -0.18676607, -270944.94, 38578.184, 0.0, 10.000996, 9.998424 
2.644991e+3, 2.7840692e+2, -195694.69, -534783.7, -54098.36, -0.15409695, -0.107296325, -187272.98, 24329.486, 0.0, 10.001468, 9.99727 
2.6446193e+3, 2.8839803e+2, -59989.07, -328543.22, 65438.63, -0.049473953, -0.06329349, -44892.293, 68795.01, 0.0, 10.001479, 9.99791 
2.6442474e+3, 2.9838872e+2, -37665.86, -315586.78, 114259.16, -0.0027944425, -0.127192, 3276.8904, 19051.11, 0.0, 10.001029, 9.997638 
2.643876e+3, 3.0837736e+2, 194549.56, 108922.375, 54236.586, 0.105360925, -0.49521306, 220834.53, 220834.53, 0.0, 10.00119, 10.000095 
2.6435006e+3, 3.1837663e+2, -39633.453, -474302.84, -109031.805, -0.0049629514, 0.18852744, -13817.36, -13817.36, 0.0, 10.001321, 9.996077 
2.6606154e+3, 1.2888612e+2, -1529198.9, -1835736.4, -51208.996, 0.20322971, -0.19335896, -1520870.4, 156026.72, 0.073999815, 10.002228, 9.997885 
2.6602364e+3, 1.38878e+2, -1516429.9, -1778806.5, -58223.17, -0.13110892, -0.2242166, -1504090.1, 74897.51, 0.046711504, 10.001491, 9.998142 
2.6598594e+3, 1.4887431e+2, -1099201.5, -943526.3, -98799.125, -0.105133295, -0.03686941, -895586.5, 585436.8, 0.022592498, 10.00136, 10.003224 
2.6594839e+3, 1.588709e+2, -1260688.3, -1237514.1, -90680.555, 0.06798816, -0.030614717, -1157683.4, 225369.14, 0.0071954923, 10.000525, 10.000977 
2.6591107e+3, 1.688635e+2, -1072132.9, -1069706.5, 36541.613, 0.19251916, -0.16279192, -1034357.94, 250760.0, 0.001170623, 10.001226, 10.000971 
2.658738e+3, 1.7885512e+2, -1165976.6, -1404475.9, -5225.6274, 0.29912207, -0.4034724, -1165862.1, 21331.516, 0.00005271245, 10.001205, 9.998135 
2.6583594e+3, 1.888467e+2, -1042469.9, -1380483.9, -86460.23, 0.116833374, -0.2881589, -1021638.2, 67644.0, 0.000000014947995, 10.0019045, 9.997171 
2.6579803e+3, 1.9883844e+2, -1162660.8, -1561708.0, -104548.06, -0.1045974, -0.16677617, -1136929.0, -145557.27, 0.0, 10.001005, 9.995815 
2.6576036e+3, 2.0882948e+2, -828023.25, -1124822.0, -96374.51, -0.21503147, -0.072204486, -799475.1, 93989.16, 0.0, 10.001867, 9.997553 
2.657228e+3, 2.1882036e+2, -831208.6, -1160818.1, -162159.36, -0.2599798, -0.1171052, -764807.25, 30749.596, 0.0, 10.001389, 9.996994 
2.6568535e+3, 2.2881302e+2, -579903.44, -581786.3, -186873.58, -0.18002866, -0.098444365, -393968.94, 303658.47, 0.0, 10.000832, 10.000443 
2.6564795e+3, 2.3880623e+2, -902274.1, -805966.0, -157187.97, -0.07850698, -0.20303507, -689721.56, -90030.73, 0.0, 9.998275, 9.999613 
2.6561075e+3, 2.4879974e+2, -513348.94, -263303.44, -47243.64, -0.018257927, -0.29712743, -254674.95, 247069.53, 0.0, 9.999095, 10.002172 
2.6557347e+3, 2.5879315e+2, -669545.75, -682931.1, 3771.4148, -0.0061963843, -0.4800731, -668556.25, -264756.34, 0.0, 9.998913, 9.998813 
2.6553598e+3, 2.6878762e+2, -462080.1, -611947.75, -41974.582, -0.1475645, -0.14595509, -451124.78, -145258.4, 0.0, 10.00025, 9.997802 
2.654985e+3, 2.7878186e+2, -383031.06, -629210.4, -13859.277, -0.25934526, 0.12994641, -382253.25, -174315.27, 0.0, 10.000382, 9.997093 
2.654614e+3, 2.8877333e+2, 17811.6, -52867.344, 63975.46, -0.11101589, 0.066815525, 55559.32, 165574.23, 0.0, 10.001158, 9.999871 
2.6542416e+3, 2.9876423e+2, -154896.89, -342421.28, 132898.5, -0.08132146, -0.16042697, -86014.195, -73921.23, 0.0, 10.00026, 9.997785 
2.65387e+3, 3.087529e+2, 42900.027, -98964.36, 54207.957, 0.031547207, -0.44350848, 61242.008, 61242.008, 0.0, 10.000856, 9.998751 
2.653492e+3, 3.1874743e+2, -123242.36, -450949.44, -38028.773, -0.37681407, -0.16995661, -118887.195, -118887.195, 0.0, 10.000633, 9.996521 
2.6706085e+3, 1.292618e+2, -1745615.0, -1628354.0, -73219.87, 0.012405279, -0.0618468, -1593183.1, 80038.74, 0.062782034, 9.999316, 10.000748 
2.6702306e+3, 1.3925397e+2, -1707900.6, -1779855.1, 53557.227, -0.118803844, -0.2753129, -1679358.6, -104062.55, 0.039146993, 9.999726, 9.999014 
2.6698545e+3, 1.492485e+2, -1287849.6, -1288017.8, -31015.557, -0.06076979, -0.1273058, -1256918.0, 220433.22, 0.018543638, 10.001179, 10.000881 
2.6694795e+3, 1.592432e+2, -1129201.3, -1370288.4, -101933.86, 0.052351736, -0.06897592, -1091880.1, 287524.34, 0.005710664, 10.002236, 9.9992485 
2.6691058e+3, 1.6923535e+2, -1003949.0, -1172867.8, -120032.96, 0.14253585, -0.12724446, -941638.8, 339840.1, 0.0008890518, 10.002189, 9.999821 
2.6687318e+3, 1.7922701e+2, -1143241.0, -1426786.3, -213376.8, 0.17732802, -0.27126417, -1028831.8, 154726.1, 0.000037964888, 10.001409, 9.9978895 
2.6683542e+3, 1.8921886e+2, -931370.6, -1265450.4, -240238.53, 0.049495704, -0.18625659, -805806.9, 279834.9, 0.0000000057994387, 10.002354, 9.99776 
2.667976e+3, 1.9921066e+2, -779697.94, -1235252.0, -177137.39, -0.124166265, -0.124733396, -718926.9, 268800.63, 0.0, 10.002917, 9.997149 
2.6675993e+3, 2.0920275e+2, -684167.7, -897364.7, -61949.184, -0.18997343, -0.066777356, -667474.06, 222332.42, 0.0, 10.002138, 9.999021 
2.667223e+3, 2.1919455e+2, -795837.2, -1027988.2, 29915.258, -0.24753568, -0.10829354, -792044.2, -156.21889, 0.0, 10.000983, 9.998144 
2.6668477e+3, 2.2918664e+2, -614737.94, -671910.0, 18571.924, -0.17395148, -0.12030339, -609234.7, 84730.625, 0.0, 10.000807, 9.999899 
2.666473e+3, 2.3917899e+2, -505482.3, -612939.5, 43580.02, -0.06230203, -0.20749845, -490030.13, 106008.78, 0.0, 10.000841, 9.999745 
2.6661012e+3, 2.4917239e+2, -232338.38, -127181.08, 60965.004, 0.0067304634, -0.30797604, -99253.54, 398840.84, 0.0, 10.000932, 10.002248 
2.6657286e+3, 2.591663e+2, -325407.66, -426044.44, -8833.429, 0.0033488537, -0.43865368, -324638.2, 75507.38, 0.0, 10.000751, 9.999709 
2.6653534e+3, 2.6916158e+2, -407380.63, -513762.94, -4461.36, -0.14083715, -0.10005584, -407193.88, -104990.43, 0.0, 10.00016, 9.998586 
2.6649785e+3, 2.7915654e+2, -422285.63, -519079.34, 96953.58, -0.23530209, 0.19893484, -362320.8, -158053.05, 0.0, 9.999405, 9.998359 
2.6646075e+3, 2.8914782e+2, -103428.71, -58679.957, 105834.445, -0.14433143, 0.050061487, 27119.334, 133466.4, 0.0, 9.999993, 10.000483 
2.6642352e+3, 2.9913864e+2, -82392.766, -253636.5, 56663.367, -0.10182036, -0.21071714, -65341.164, -56914.547, 0.0, 10.000367, 9.998409 
2.663864e+3, 3.0913043e+2, 6016.7065, -181731.1, 27076.086, 0.020622086, -0.16753128, 9843.49, 9843.49, 0.0, 10.000829, 9.998234 
2.6634857e+3, 3.19121e+2, -78794.11, -278135.78, -36858.14, -0.42574996, -0.2258191, -72197.37, -72197.37, 0.0, 10.000097, 9.998026 
2.6806015e+3, 1.2963784e+2, -1471641.1, -1259216.1, -27651.988, 0.03984461, 0.062688805, -1255675.6, 413866.1, 0.05267765, 10.000157, 10.003029 
2.6802254e+3, 1.396302e+2, -1506502.4, -1660836.0, -24890.775, 0.03801373, -0.32670066, -1502587.3, 69014.65, 0.03242507, 10.001092, 9.999132 
2.67985e+3, 1.4962277e+2, -1336135.1, -1599332.4, 196.48056, 0.037236594, -0.21570702, -1336135.0, 137543.84, 0.015032841, 10.002071, 9.998249 
2.6794755e+3, 1.5961516e+2, -1297390.8, -1723110.0, -53434.754, 0.115366526, -0.14488256, -1290786.3, 84974.54, 0.0044764117, 10.002287, 9.996781 
2.679101e+3, 1.6960701e+2, -1051932.4, -1366555.1, -68413.445, 0.11605757, -0.044950265, -1037700.0, 240145.44, 0.00066900725, 10.002695, 9.998217 
2.6787257e+3, 1.7959893e+2, -1141214.5, -1488961.0, -140165.73, 0.10387166, -0.020562004, -1091753.1, 88174.99, 0.000027210404, 10.001779, 9.997284 
2.678349e+3, 1.8959104e+2, -885566.9, -1089624.6, -132836.2, 0.0068003805, 0.017574474, -820098.44, 261907.39, 0.000000001728097, 10.002086, 9.999074 
2.6779723e+3, 1.9958352e+2, -938898.44, -1126113.3, -140083.0, -0.06579017, 0.0034927493, -864025.56, 120053.625, 0.0, 10.001132, 9.99874 
2.6775953e+3, 2.0957744e+2, -651585.56, -579198.0, -98755.17, -0.0628215, -0.005093188, -510213.0, 375921.78, 0.0, 10.001111, 10.001667 
2.6772186e+3, 2.1957135e+2, -993527.3, -1048430.4, -30438.635, -0.050633468, -0.06945219, -979989.9, -191799.11, 0.0, 9.999392, 9.99877 
2.676842e+3, 2.2956355e+2, -745957.1, -837093.06, 1380.5511, -0.13340634, -0.048137203, -745936.25, -55667.285, 0.0, 10.00038, 9.998941 
2.6764658e+3, 2.3955555e+2, -819727.5, -966445.94, 47252.91, -0.1829562, -0.07810451, -805826.1, -213477.2, 0.0, 9.999674, 9.997862 
2.6760942e+3, 2.4954802e+2, -455264.9, -391324.66, 66860.45, -0.06935535, -0.12887654, -349184.0, 145234.27, 0.0, 10.000243, 10.000656 
2.6757225e+3, 2.5954098e+2, -610360.8, -641559.44, -18920.432, 0.025096385, -0.24056514, -601438.25, -204956.1, 0.0, 9.999275, 9.998899 
2.675347e+3, 2.6953623e+2, -372409.34, -294713.38, -41623.676, -0.08940285, -0.024409562, -276625.47, 21908.09, 0.0, 9.999609, 10.000313 
2.6749718e+3, 2.7953106e+2, -608495.44, -618212.2, 82400.07, -0.19858518, 0.10787742, -530810.6, -330220.0, 0.0, 9.998255, 9.998229 
2.6746e+3, 2.8952095e+2, -275374.06, -273107.03, 108438.17, -0.2189515, -0.10437194, -165796.44, -63105.715, 0.0, 9.999452, 9.99923 
2.6742277e+3, 2.9951143e+2, -298094.16, -449646.0, 53346.65, -0.24711342, -0.30293497, -281199.4, -276416.34, 0.0, 9.999392, 9.99752 
2.673859e+3, 3.0951124e+2, -24293.844, -141290.88, 16412.047, 0.1540015, 0.512675, -22035.207, -22035.207, 0.0, 10.000483, 9.998631 
2.6734823e+3, 3.1949732e+2, -263163.4, -293695.63, -100277.12, -0.17807327, -0.0531986, -176997.0, -176997.0, 0.0, 9.998728, 9.998526 
2.6905984e+3, 1.3001168e+2, -1486720.5, -1393186.8, -39415.703, 0.21724182, -0.0048127547, -1378792.0, 287085.75, 0.043619167, 10.000658, 10.001734 
2.69022e+3, 1.400041e+2, -1408285.9, -1645070.4, -48613.188, -0.08931654, -0.30885455, -1398693.9, 169247.03, 0.02648621, 10.001907, 9.998838 
2.6898453e+3, 1.4999653e+2, -1204218.8, -1495809.1, -1733.8425, -0.064330086, -0.24024181, -1204208.5, 265807.84, 0.012009438, 10.002771, 9.9986515 
2.6894715e+3, 1.5998885e+2, -1144973.0, -1603780.5, 29820.008, 0.039767846, -0.20014937, -1143043.0, 229052.77, 0.003455713, 10.00305, 9.9972515 
2.6890966e+3, 1.699819e+2, -830735.94, -1251391.3, 73440.445, 0.005803112, -0.008472782, -818282.94, 455888.22, 0.00049606664, 10.0040655, 9.998392 
2.6887208e+3, 1.7997485e+2, -738899.4, -1250120.6, 30605.984, -0.09447803, 0.124389805, -737073.56, 439172.78, 0.00001910138, 10.004228, 9.997776 
2.688344e+3, 1.89966e+2, -768385.9, -979937.3, -27917.258, -0.03152939, 0.027952386, -764763.8, 313567.94, 0.0000000002885943, 10.002546, 9.99965 
2.6879674e+3, 1.9995761e+2, -1023956.44, -1125776.5, -36105.098, 0.006022738, -0.092147745, -1012453.25, -32041.977, 0.0, 10.000248, 9.999186 
2.687589e+3, 2.0995158e+2, -844293.1, -732784.2, -85360.34, -0.08161941, -0.06322135, -686583.06, 195885.97, 0.0, 9.999959, 10.001202 
2.687211e+3, 2.1994594e+2, -847293.2, -907440.94, -89773.55, -0.17451501, -0.04837901, -782690.06, 1832.8286, 0.0, 9.9999695, 9.999476 
2.6868358e+3, 2.2993927e+2, -534674.8, -633612.06, 3215.6118, -0.15565725, -0.005668972, -534570.4, 152016.95, 0.0, 10.001272, 9.999976 
2.6864612e+3, 2.3993234e+2, -400573.22, -695002.06, 93987.57, -0.13712499, 0.0065161046, -373128.7, 215526.06, 0.0, 10.002114, 9.9985895 
2.6860878e+3, 2.4992388e+2, -475534.44, -558843.25, 104467.016, -0.087253086, -0.054695193, -404723.53, 86012.38, 0.0, 10.000631, 9.9994135 
2.685715e+3, 2.5991556e+2, -616301.3, -640759.5, 47890.87, -0.042593237, -0.15583539, -579102.8, -186287.05, 0.0, 9.999038, 9.999074 
2.6853403e+3, 2.699101e+2, -284318.56, -185062.61, -14366.322, -0.066580616, -0.052329183, -183025.06, 111844.04, 0.0, 9.999817, 10.00103 
2.6849657e+3, 2.7990454e+2, -240692.42, -392888.47, 43288.543, -0.08677892, 0.0051605958, -229241.56, -32316.666, 0.0, 10.000445, 9.998736 
2.6845935e+3, 2.898943e+2, -226755.86, -324490.28, 105386.0, -0.15594578, -0.19175756, -159458.47, -60427.883, 0.0, 9.99998, 9.998644 
2.6842213e+3, 2.9988545e+2, -260606.64, -343100.38, 93105.766, -0.20798132, -0.28382853, -200020.38, -198897.23, 0.0, 9.999149, 9.998364 
2.6838523e+3, 3.0988872e+2, -70729.875, 14344.616, 142978.72, 0.15629509, 0.7449112, 120979.516, 120979.516, 0.0, 9.999287, 10.000308 
2.6834756e+3, 3.1987217e+2, -56347.387, -36355.46, 8121.8096, -0.07945885, -0.20486228, -33471.863, -33471.863, 0.0, 9.999305, 10.000033 
2.700595e+3, 1.3038602e+2, -1528042.8, -1627542.8, 54334.027, 0.41714767, -0.08314652, -1504122.9, 158085.27, 0.03555016, 10.001322, 9.999731 
2.7002153e+3, 1.4037827e+2, -1186246.8, -1629749.6, -51300.83, -0.11062008, -0.22240527, -1180390.0, 383889.44, 0.021269776, 10.003833, 9.998054 
2.699841e+3, 1.5037054e+2, -1100078.1, -1355789.4, -42502.71, -0.085992195, -0.22257684, -1093198.6, 373154.03, 0.009415533, 10.003113, 9.999465 
2.6994678e+3, 1.6036299e+2, -1339355.1, -1633698.0, -23017.477, 0.06378156, -0.24111973, -1337566.1, 30860.387, 0.0026134893, 10.001487, 9.997791 
2.6990926e+3, 1.7035745e+2, -1040539.56, -1265351.0, 44955.957, -0.08069569, 0.008282139, -1031882.94, 238605.48, 0.0003600524, 10.00232, 9.999079 
2.6987168e+3, 1.8035151e+2, -1082525.6, -1391070.4, -39602.246, -0.21266067, 0.1879889, -1077523.8, 95029.96, 0.000012952271, 10.001863, 9.997914 
2.6983398e+3, 1.9034195e+2, -910562.5, -1005682.56, -118989.27, -0.00025947022, -0.023231799, -829980.4, 244663.97, 0.000000000007316074, 10.001507, 9.999916 
2.6979622e+3, 2.0033251e+2, -1224351.3, -1353284.0, -77459.44, 0.17642683, -0.24637648, -1188041.3, -211307.66, 0.0, 9.999512, 9.997989 
2.6975814e+3, 2.1032572e+2, -962651.44, -983835.06, -72358.76, -0.12562339, -0.14651792, -900113.4, -21309.363, 0.0, 10.000045, 9.999413 
2.6972017e+3, 2.2031967e+2, -996387.25, -1021901.25, -23880.646, -0.38294852, -0.035187438, -982069.75, -201203.39, 0.0, 9.999271, 9.998994 
2.6968297e+3, 2.3031488e+2, -487109.5, -380199.75, 62649.21, -0.16875035, 0.04210008, -351299.63, 331608.22, 0.0, 10.000797, 10.001833 
2.696458e+3, 2.4030964e+2, -658689.25, -855565.8, 70914.45, 0.041909408, 0.0770845, -635805.8, -50852.08, 0.0, 10.00063, 9.99817 
2.6960817e+3, 2.5030002e+2, -616801.2, -749968.75, 14688.005, -0.077833064, -0.020140782, -615200.4, -128151.76, 0.0, 10.000289, 9.998213 
2.695706e+3, 2.602904e+2, -885612.94, -903935.94, 23895.988, -0.18606853, -0.15290157, -869182.4, -480039.2, 0.0, 9.997929, 9.997762 
2.6953334e+3, 2.702837e+2, -397686.56, -268516.34, 25148.152, -0.07829793, -0.13397492, -263792.97, 27413.049, 0.0, 9.999302, 10.000626 
2.6949608e+3, 2.8027728e+2, -457578.16, -549243.56, 65897.39, 0.02360729, -0.13787049, -423141.94, -229874.78, 0.0, 9.999348, 9.9981575 
2.6945886e+3, 2.9026905e+2, -296930.06, -316967.38, 81847.13, 0.0375415, -0.1446051, -224490.69, -129135.234, 0.0, 9.999498, 9.998861 
2.6942155e+3, 3.0026162e+2, -340517.9, -230560.44, 98585.98, -0.08020006, -0.1429724, -172659.34, -172659.34, 0.0, 9.998096, 9.999625 
2.6938394e+3, 3.102605e+2, 50197.445, 427995.1, 174234.92, -0.37799376, 0.15662488, 496079.88, 496079.88, 0.0, 9.998703, 10.003397 
2.693467e+3, 3.2025117e+2, -77824.1, 119921.71, 176012.6, -0.24667723, -0.34713152, 222930.66, 222930.66, 0.0, 9.99864, 10.001408 
2.7105886e+3, 1.3076083e+2, -1696251.0, -2002388.6, 189489.05, 0.13758509, -0.11999999, -1605729.8, 52802.676, 0.02841507, 10.001429, 9.997113 
2.7102154e+3, 1.4075327e+2, -994827.2, -1683574.8, -22553.174, -0.05758342, -0.007900141, -994089.44, 566523.8, 0.016713178, 10.005786, 9.996746 
2.7098373e+3, 1.5074463e+2, -1049119.9, -1344026.5, -164633.56, -0.12259666, -0.0675485, -975560.3, 487133.88, 0.0071980846, 10.003492, 9.99937 
2.7094606e+3, 1.6073622e+2, -1444340.6, -1577510.6, -96511.81, -0.13877067, -0.18288305, -1393673.4, -28900.344, 0.0019202423, 10.000266, 9.998774 
2.7090865e+3, 1.7073022e+2, -1256082.0, -1209471.5, 27963.77, -0.10437225, -0.11473819, -1196374.8, 70460.52, 0.00025324232, 10.000152, 10.0005245 
2.7087122e+3, 1.8072455e+2, -1279313.3, -1320585.4, -57386.125, -0.10686856, -0.032036122, -1238965.6, -70071.09, 0.000008369746, 9.999741, 9.999426 
2.708334e+3, 1.9071777e+2, -1050247.0, -983036.75, -120457.47, 0.03499625, -0.063183494, -891584.6, 179376.05, 0.0, 10.000148, 10.000735 
2.7079555e+3, 2.0071079e+2, -1006761.56, -1141734.4, -19435.02, 0.1262312, -0.106484346, -1004018.8, -30990.598, 0.0, 10.000457, 9.999008 
2.7075768e+3, 2.1070331e+2, -649004.2, -814743.5, 73296.125, -0.037318945, -0.106036104, -621240.6, 253861.23, 0.0, 10.001972, 9.999731 
2.7071986e+3, 2.2069615e+2, -454680.44, -737612.8, 152639.77, -0.23071322, -0.09797042, -388032.28, 389139.66, 0.0, 10.00276, 9.999302 
2.7068248e+3, 2.3068963e+2, -396450.53, -454376.6, 110451.74, -0.16571243, -0.0984442, -311227.56, 368002.63, 0.0, 10.001833, 10.000892 
2.7064514e+3, 2.4068306e+2, -564319.06, -797458.9, 15527.088, -0.07841284, -0.10212708, -563289.5, 18000.188, 0.0, 10.001088, 9.998369 
2.706076e+3, 2.5067425e+2, -296001.56, -578290.3, 10752.718, -0.11792283, -0.13053986, -295592.56, 187785.22, 0.0, 10.002353, 9.998432 
2.7057004e+3, 2.6066545e+2, -95329.33, -466899.88, 60880.773, -0.16616814, -0.17935273, -85608.5, 299857.38, 0.0, 10.003028, 9.998296 
2.7053264e+3, 2.7065784e+2, -134824.03, -202797.19, 44714.836, -0.117360614, -0.22622478, -112645.64, 174891.64, 0.0, 10.0012665, 10.000162 
2.7049533e+3, 2.806506e+2, -398827.84, -465645.3, 76040.77, -0.018372096, -0.26749995, -349180.3, -159573.9, 0.0, 9.999381, 9.998731 
2.704582e+3, 2.9064432e+2, -239055.22, -234638.34, 113982.31, 0.0755416, -0.11893625, -122843.08, -31167.916, 0.0, 9.99959, 9.999434 
2.704208e+3, 3.0063817e+2, -94748.22, -22864.025, 95511.1, -0.017922657, -0.028292852, 43243.89, 43243.89, 0.0, 9.999264, 10.000531 
2.7038288e+3, 3.106323e+2, -22439.195, 424712.25, -47737.008, -0.5934391, -0.23964538, 429751.78, 429751.78, 0.0, 9.997965, 10.003795 
2.7034625e+3, 3.2062998e+2, -226045.97, 110668.32, -107015.23, 0.13940522, -0.08387972, 141801.5, 141801.5, 0.0, 9.997218, 10.002068 
2.7205846e+3, 1.3113552e+2, -1471427.4, -2091210.6, 342637.56, 0.15318531, -0.14565869, -1319330.5, 335530.38, 0.022191238, 10.003885, 9.995328 
2.7202153e+3, 1.411282e+2, -1162518.4, -1887996.0, -21636.586, 0.064783975, 0.16020307, -1161873.6, 395073.8, 0.01278431, 10.005109, 9.995689 
2.7198339e+3, 1.51119e+2, -1103636.6, -1390776.1, -233700.8, -0.110679016, 0.070798166, -972928.56, 486104.47, 0.00532732, 10.00324, 9.999171 
2.7194536e+3, 1.6110991e+2, -1390136.3, -1481914.3, -85507.25, -0.17681828, -0.10568935, -1338982.6, 22133.754, 0.0013580795, 10.000427, 9.999349 
2.719081e+3, 1.7110318e+2, -1117613.9, -991360.6, 32640.24, -0.0067092935, -0.24118015, -983421.4, 279759.7, 0.00016970174, 10.000527, 10.001818 
2.7187076e+3, 1.8109754e+2, -1264628.8, -1237914.1, -89538.56, 0.14146575, -0.2691123, -1160742.0, 4494.5845, 0.0000049540654, 9.999581, 10.000073 
2.7183273e+3, 1.9109407e+2, -1011005.7, -873062.1, -152465.38, 0.08997822, -0.06921519, -774693.56, 292580.4, 0.0, 10.000044, 10.001508 
2.7179486e+3, 2.0108996e+2, -1144403.5, -1156999.1, -22970.342, 0.09480074, 0.09699469, -1126883.3, -157567.53, 0.0, 9.999419, 9.999359 
2.7175733e+3, 2.1108247e+2, -647982.4, -670058.06, 59420.086, 0.1654524, -0.021900194, -598583.6, 272799.25, 0.0, 10.001548, 10.000834 
2.717198e+3, 2.2107425e+2, -759674.5, -1058061.1, 81344.164, 0.16236751, -0.16600002, -738939.8, 34517.375, 0.0, 10.001545, 9.997673 
2.7168196e+3, 2.310639e+2, -677078.5, -867934.8, 40509.38, -0.13337591, -0.33652645, -668836.3, 6718.4956, 0.0, 10.001199, 9.998316 
2.716443e+3, 2.4105448e+2, -901527.8, -1067442.4, 35334.16, -0.3445899, -0.4212926, -894316.25, -316671.38, 0.0, 9.999412, 9.997278 
2.7160707e+3, 2.5104776e+2, -351111.6, -478916.22, 71159.43, -0.17819321, -0.32728747, -319373.06, 160339.81, 0.0, 10.00155, 9.999437 
2.715698e+3, 2.6104093e+2, -353161.7, -660520.44, 35420.023, -0.050207943, -0.24248604, -349132.7, 32649.076, 0.0, 10.001657, 9.997641 
2.7153197e+3, 2.710326e+2, -284064.1, -344427.97, -37901.6, -0.20723054, -0.30723348, -265795.25, 18067.045, 0.0, 10.0006695, 9.999443 
2.7149433e+3, 2.8102487e+2, -611334.3, -616867.9, 47652.38, -0.3118783, -0.33522105, -566368.44, -380430.88, 0.0, 9.998238, 9.998243 
2.714572e+3, 2.9102018e+2, -267358.44, -179921.98, 115215.25, -0.19948173, -0.09765156, -100409.38, -12420.316, 0.0, 9.999151, 9.9999895 
2.7141988e+3, 3.010147e+2, -416571.16, -449497.56, 40250.566, -0.22860378, 0.07429951, -389547.06, -389547.06, 0.0, 9.998337, 9.998023 
2.7138236e+3, 3.1100377e+2, -406095.25, -192367.27, -163205.5, -0.20698977, -0.30088195, -104151.93, -104151.93, 0.0, 9.997296, 9.999802 
2.713454e+3, 3.2100078e+2, -527563.2, -256088.66, 2866.5737, 0.1777982, 0.103626944, -256058.39, -256058.39, 0.0, 9.996283, 9.999925 
2.73059e+3, 1.3151008e+2, -1124636.9, -1693966.4, 218007.81, 0.70807385, 0.063210785, -1050747.0, 600454.56, 0.016854309, 10.005352, 9.997305 
2.730208e+3, 1.4150146e+2, -1166343.3, -1735460.6, -70942.47, -0.5488964, 0.04625471, -1157633.4, 395658.78, 0.009467287, 10.004396, 9.997078 
2.7298295e+3, 1.514933e+2, -1095639.5, -1306262.4, -241447.14, -0.17115988, -0.016746799, -937536.4, 517830.6, 0.0037924994, 10.002958, 9.999876 
2.729452e+3, 1.6148548e+2, -1259444.1, -1407001.3, -22463.582, 0.1582535, -0.10369415, -1256100.1, 101339.71, 0.0009170214, 10.001248, 9.9994545 
2.7290756e+3, 1.7147966e+2, -1017914.4, -1010594.7, 69407.664, -0.00809388, -0.0858071, -944750.44, 314749.75, 0.0001065257, 10.001464, 10.001246 
2.7286988e+3, 1.8147461e+2, -994113.4, -1056550.1, -133897.83, -0.14416386, -0.020800013, -887842.75, 273709.8, 0.0000025959862, 10.001142, 10.00058 
2.7283204e+3, 1.9147032e+2, -906776.25, -784644.9, -212314.08, 0.013619084, 0.062265877, -624789.1, 438805.5, 0.0, 10.000475, 10.001989 
2.7279425e+3, 2.0146549e+2, -1054795.4, -1106965.9, -45122.684, 0.119685195, 0.13812251, -1028760.6, -63119.258, 0.0, 9.9999075, 9.999481 
2.7275681e+3, 2.1145764e+2, -581872.75, -743573.4, -6439.7603, 0.09615098, 0.055192128, -581616.7, 286097.53, 0.0, 10.002388, 9.999959 
2.7271932e+3, 2.214494e+2, -363551.06, -804853.6, -148106.4, 0.02118572, -0.043106224, -318453.4, 451336.72, 0.0, 10.003882, 9.998289 
2.7268136e+3, 2.3143956e+2, -638884.06, -785826.5, -134168.05, -0.190663, -0.23758942, -559387.7, 112493.48, 0.0, 10.0011, 9.998947 
2.7264357e+3, 2.4143057e+2, -897681.06, -939069.06, 70361.11, -0.3354479, -0.34059379, -845033.9, -271068.6, 0.0, 9.998777, 9.998475 
2.7260652e+3, 2.5142443e+2, -462252.47, -480530.97, 157840.03, -0.14525095, -0.236962, -313287.3, 162738.56, 0.0, 10.00044, 10.000031 
2.7256936e+3, 2.6141798e+2, -310249.22, -596930.25, 14853.247, 0.014440824, -0.14257762, -309481.72, 68608.2, 0.0, 10.001631, 9.99811 
2.7253145e+3, 2.7140895e+2, -310208.38, -442718.06, -97847.79, -0.1383367, -0.22123714, -258294.3, 21885.014, 0.0, 10.000755, 9.998781 
2.7249363e+3, 2.814007e+2, -349262.75, -423226.5, 35419.348, -0.2561431, -0.25149173, -335037.3, -152776.88, 0.0, 9.999607, 9.9989395 
2.7245638e+3, 2.9139623e+2, -189727.25, -79770.19, 108346.06, -0.28007665, -0.044603217, -13251.771, 71053.0, 0.0, 9.999292, 10.000652 
2.72419e+3, 3.013906e+2, -357942.6, -484238.3, 41258.57, -0.29779506, 0.10441711, -345658.88, -345658.88, 0.0, 9.998886, 9.99753 
2.7238178e+3, 3.113771e+2, -255773.45, -379251.97, -28008.586, 0.09247208, -0.33809093, -249717.3, -249717.3, 0.0, 9.999262, 9.997668 
2.7234435e+3, 3.2137534e+2, -361621.7, -161541.58, 280047.47, 0.05644718, 0.38963225, 35797.918, 35797.918, 0.0, 9.997098, 10.000276 
2.7405939e+3, 1.318849e+2, -1273375.8, -1499902.5, 313524.0, 1.2157314, 0.23654076, -1053283.6, 594256.44, 0.012358647, 10.003155, 9.999675 
2.7402002e+3, 1.418756e+2, -1447332.8, -1724013.6, -100288.53, -0.99139464, -0.031239416, -1414805.3, 134822.2, 0.0067449408, 10.001849, 9.998337 
2.7398255e+3, 1.5186846e+2, -1087607.5, -1212915.4, -266323.7, -0.14153741, -0.09973494, -876667.1, 575025.06, 0.0025850076, 10.0026045, 10.000662 
2.7394506e+3, 1.6186206e+2, -1196328.4, -1422485.4, -5512.645, 0.58773977, -0.08678292, -1196194.1, 157559.5, 0.0005889778, 10.001899, 9.999019 
2.7390704e+3, 1.718574e+2, -1107645.1, -1174293.3, 107572.91, -0.005052337, 0.121758334, -1028352.9, 227455.8, 0.00006228534, 10.001351, 10.000183 
2.7386904e+3, 1.818527e+2, -1188968.5, -1208673.6, -110389.57, -0.4112706, 0.32373935, -1087992.6, 69868.68, 0.0000011486238, 10.000139, 9.999997 
2.7383134e+3, 1.9184671e+2, -859812.3, -721125.75, -224990.16, -0.009902571, 0.20248094, -555035.25, 504880.06, 0.0, 10.000743, 10.002219 
2.7379367e+3, 2.0184028e+2, -1142633.9, -1309965.5, 28870.611, 0.2633462, 0.15112297, -1137792.8, -175817.92, 0.0, 10.000115, 9.997959 
2.737562e+3, 2.1183166e+2, -842780.9, -1071525.1, 124402.11, -0.057782773, 0.1413631, -788165.2, 75896.34, 0.0, 10.001481, 9.998128 
2.7371866e+3, 2.2182344e+2, -745201.8, -956008.2, -146267.33, -0.29509577, 0.16093422, -670316.44, 95825.53, 0.0, 10.001216, 9.998518 
2.736807e+3, 2.3181622e+2, -619379.2, -531167.44, -242487.73, -0.23401545, 0.025822971, -328807.03, 339397.88, 0.0, 10.000288, 10.001034 
2.7364296e+3, 2.4180941e+2, -993354.1, -963096.75, 82402.02, -0.15386058, -0.008380594, -894446.1, -324181.2, 0.0, 9.998119, 9.998617 
2.7360594e+3, 2.5180316e+2, -505379.2, -474026.1, 214729.11, -0.07036696, 0.031216076, -274402.03, 197922.58, 0.0, 10.000107, 10.000188 
2.735688e+3, 2.6179647e+2, -588676.94, -842349.44, -11025.095, -0.0059945746, 0.11370765, -588198.7, -213808.58, 0.0, 10.000339, 9.997008 
2.73531e+3, 2.7178678e+2, -447611.22, -588206.3, -142945.63, 0.044180498, 0.018568872, -358612.84, -82124.74, 0.0, 10.000212, 9.998 
2.734932e+3, 2.8177783e+2, -548979.25, -561722.56, 21437.225, 0.031359076, -0.02431736, -532986.8, -354410.3, 0.0, 9.998575, 9.998445 
2.7345577e+3, 2.9177222e+2, -212813.61, -16843.977, 102801.0, -0.15512004, -0.0045608394, 27189.055, 107814.484, 0.0, 9.998952, 10.001189 
2.7341825e+3, 3.0176583e+2, -479998.0, -530908.2, 42476.92, -0.34067276, 0.032602753, -455932.88, -455932.88, 0.0, 9.998137, 9.997546 
2.7338088e+3, 3.1175444e+2, -240133.94, -275644.16, 15647.445, -0.09081169, -0.3004963, -234222.9, -234222.9, 0.0, 9.999103, 9.99837 
2.733433e+3, 3.2175216e+2, -321293.3, 194745.66, 94733.375, -0.088140026, 0.21893334, 211586.98, 211586.98, 0.0, 9.996119, 10.003124 
2.750584e+3, 1.3225989e+2, -1437697.6, -1387887.4, 230470.4, 0.5978423, 0.11899308, -1180980.3, 462896.0, 0.008685478, 10.001131, 10.001463 
2.7501976e+3, 1.4225607e+2, -1675049.9, -1710318.8, -13297.551, -0.6740623, 0.25434288, -1670598.1, -124693.29, 0.0045926278, 9.999715, 9.999465 
2.749821e+3, 1.522481e+2, -1066814.1, -1140565.3, -101928.92, -0.14488609, 0.03691715, -995295.44, 452682.25, 0.0016782226, 10.002432, 10.001273 
2.7494445e+3, 1.6224097e+2, -959404.9, -1271165.9, 50835.445, 0.2823681, -0.048841655, -951325.1, 398721.06, 0.0003582281, 10.003354, 9.999349 
2.7490646e+3, 1.722367e+2, -1124474.0, -1186904.0, 143989.31, -0.044157524, 0.20817548, -1008355.0, 243741.97, 0.000033741435, 10.00125, 10.000144 
2.7486852e+3, 1.822316e+2, -1282429.9, -1338590.8, 20661.984, -0.29583085, 0.42195022, -1275647.3, -121494.1, 0.00000040337267, 9.999821, 9.999248 
2.7483085e+3, 1.9222328e+2, -715676.5, -836199.06, -96644.73, 0.0061960407, 0.23297776, -662044.75, 394186.75, 0.0, 10.002472, 10.000611 
2.747932e+3, 2.022155e+2, -597807.75, -971655.2, 26426.107, 0.18546523, 0.14302269, -595949.0, 362355.38, 0.0, 10.003425, 9.998705 
2.747556e+3, 2.1220796e+2, -965239.25, -1006992.25, 197196.5, -0.07291586, 0.14379522, -787817.25, 72559.414, 0.0, 9.999972, 9.999365 
2.7471796e+3, 2.2220054e+2, -1168849.4, -1096321.1, 77811.78, -0.27919272, 0.17365482, -1046737.94, -284290.53, 0.0, 9.997893, 9.999191 
2.746801e+3, 2.3219341e+2, -493035.84, -531647.3, -63875.883, -0.2003158, 0.111668356, -445611.97, 218901.06, 0.0, 10.001248, 10.00066 
2.7464247e+3, 2.4218644e+2, -208888.94, -574808.56, 123178.89, -0.12048616, 0.10914974, -171287.34, 395290.3, 0.0, 10.003333, 9.998791 
2.7460542e+3, 2.5217924e+2, -321187.16, -465847.97, 159524.58, -0.06880877, 0.1268075, -218361.13, 250287.13, 0.0, 10.001645, 9.999548 
2.745682e+3, 2.6217192e+2, -531388.3, -731458.06, -98497.74, -0.017227972, 0.18580344, -491035.22, -120314.79, 0.0, 10.000243, 9.997842 
2.7453038e+3, 2.721632e+2, -336737.22, -483786.1, -164181.98, 0.060433283, 0.14072967, -230368.44, 42440.207, 0.0, 10.000642, 9.998558 
2.744926e+3, 2.8215477e+2, -222088.31, -355021.75, 34742.223, 0.08935978, 0.11246169, -213556.06, -38664.46, 0.0, 10.000494, 9.9989605 
2.7445507e+3, 2.9214752e+2, -164395.95, -34221.38, 25314.691, -0.08322601, 0.01981576, -29471.795, 47482.92, 0.0, 9.99941, 10.0008955 
2.7441746e+3, 3.021403e+2, -372628.94, -363294.56, -52112.207, -0.27965578, -0.029447861, -315640.97, -315640.97, 0.0, 9.998274, 9.998662 
2.7437997e+3, 3.1213152e+2, -232201.06, -153264.03, -48601.37, -0.2052839, -0.20127831, -130123.78, -130123.78, 0.0, 9.998527, 9.999555 
2.7434254e+3, 3.2212827e+2, 157949.92, 429999.84, -192839.69, 0.06954534, 0.14913872, 529962.0, 529962.0, 0.0, 9.999221, 10.003274 
2.7605742e+3, 1.3263768e+2, -1289812.8, -1163697.5, 221944.13, 0.13076873, 0.13835894, -996027.0, 644155.1, 0.005822928, 10.001549, 10.002753 
2.760196e+3, 1.4263745e+2, -1622431.1, -1639177.4, -8486.079, -0.1394728, 0.54562914, -1618882.8, -76709.66, 0.0029696852, 9.999943, 9.999828 
2.7598166e+3, 1.526284e+2, -1177910.6, -1136030.5, -46490.504, -0.09676801, 0.16980115, -1105981.9, 338275.34, 0.0010279784, 10.00152, 10.001699 
2.759438e+3, 1.626206e+2, -1189467.1, -1399809.4, -14280.385, 0.0063477545, -0.00069844374, -1188502.1, 157830.22, 0.0002033788, 10.001865, 9.999198 
2.759059e+3, 1.7261651e+2, -1061985.8, -1155156.3, 17660.717, -0.016446294, 0.25741443, -1058750.5, 189628.44, 0.000016580547, 10.001674, 10.000159 
2.7586812e+3, 1.8261082e+2, -1287424.0, -1526677.6, 42220.19, -0.011911055, 0.46755528, -1280192.1, -129752.625, 0.00000009587778, 10.000677, 9.997535 
2.7583048e+3, 1.9260013e+2, -930419.9, -1165258.8, 7578.494, 0.08269033, 0.22632368, -930175.56, 122368.58, 0.0, 10.002033, 9.998553 
2.757928e+3, 2.0259105e+2, -795347.7, -979421.1, 18687.75, 0.13941716, 0.121201396, -793469.6, 161160.27, 0.0, 10.001779, 9.999437 
2.7575502e+3, 2.1258534e+2, -806881.4, -659281.56, 62766.117, 0.04637364, 0.07371901, -636200.06, 220476.52, 0.0, 10.000001, 10.001688 
2.757173e+3, 2.2257918e+2, -1265708.9, -1245822.8, 124178.21, -0.034336194, 0.11390904, -1131190.1, -372459.2, 0.0, 9.997866, 9.998127 
2.756796e+3, 2.3257104e+2, -652416.0, -788040.5, 68504.94, -0.122680515, 0.08481621, -623836.2, 36975.668, 0.0, 10.001076, 9.9989195 
2.7564204e+3, 2.4256282e+2, -590331.3, -986785.9, 115857.914, -0.16678175, 0.1494471, -558956.56, 3937.651, 0.0, 10.001876, 9.9966135 
2.7560484e+3, 2.525535e+2, -554450.8, -742593.7, 99671.16, -0.10699342, 0.08065501, -511468.34, -46479.414, 0.0, 10.0008335, 9.997987 
2.7556744e+3, 2.6254505e+2, -719295.2, -814989.44, -101288.086, -0.077334255, 0.11404766, -655121.6, -288047.66, 0.0, 9.999051, 9.99783 
2.7552953e+3, 2.725385e+2, -345170.8, -329187.97, -154261.69, -0.10781261, 0.15664414, -182710.84, 86426.89, 0.0, 10.000069, 9.999847 
2.7549174e+3, 2.8253123e+2, -493661.0, -618184.75, -11996.227, -0.1175643, 0.20814446, -492515.84, -321307.78, 0.0, 9.999329, 9.997698 
2.7545425e+3, 2.9252186e+2, -375552.1, -321705.84, -36095.48, -0.1536247, 0.03219905, -303598.56, -230301.6, 0.0, 9.9988165, 9.999187 
2.7541664e+3, 3.025138e+2, -495488.9, -371657.25, -93903.945, -0.24696222, -0.003406375, -321094.1, -321094.1, 0.0, 9.997327, 9.999044 
2.753792e+3, 3.1250808e+2, -222749.08, 36760.637, -59881.137, -0.13688521, -0.03954091, 49911.6, 49911.6, 0.0, 9.99788, 10.001146 
2.7534184e+3, 3.2250232e+2, -329527.56, -505881.66, 47334.45, 0.013697962, 0.17390577, -317625.94, -317625.94, 0.0, 9.999124, 9.9968195 
2.770567e+3, 1.3302234e+2, -1464164.6, -1476678.1, 105767.05, -0.22492433, 0.5944273, -1364469.4, 271940.0, 0.0036893364, 10.001391, 10.000627 
2.770191e+3, 1.4301279e+2, -1682068.3, -1752247.3, -8925.244, -0.028906135, 0.22958583, -1680950.9, -142454.08, 0.001804221, 9.999929, 9.999033 
2.7698117e+3, 1.5300657e+2, -1388275.5, -1304010.5, -39350.684, 0.025381854, 0.1937355, -1288492.1, 152066.56, 0.00058557204, 10.000371, 10.001087 
2.769433e+3, 1.6300035e+2, -1314766.3, -1465717.3, -23460.79, 0.019741401, 0.22511226, -1311204.0, 31416.773, 0.00010501939, 10.000967, 9.999187 
2.769054e+3, 1.7299427e+2, -854678.25, -1063066.6, 14190.634, -0.13344654, 0.28787273, -853716.3, 390966.56, 0.0000068884756, 10.003044, 10.000184 
2.7686757e+3, 1.8298797e+2, -786297.9, -1135677.4, -11524.166, -0.17663528, 0.3912295, -785918.1, 360827.7, 0.00000000965895, 10.003423, 9.998905 
2.7682993e+3, 1.929797e+2, -901377.06, -1022742.2, 83214.586, 0.038900424, 0.27717447, -859069.1, 189755.3, 0.0, 10.001603, 9.999785 
2.7679226e+3, 2.0297167e+2, -937900.1, -998351.8, 167472.06, 0.14782657, 0.20934315, -797948.1, 152950.72, 0.0, 10.000521, 9.999921 
2.7675453e+3, 2.1296449e+2, -505796.66, -566828.2, 121899.38, 0.12418509, 0.079663165, -410651.5, 442309.53, 0.0, 10.002229, 10.001295 
2.7671686e+3, 2.2295731e+2, -485116.94, -887093.2, 110415.52, 0.06986728, 0.06589296, -456784.72, 298242.03, 0.0, 10.003193, 9.998055 
2.7667925e+3, 2.3294905e+2, -447560.4, -769480.4, 119405.66, -0.022652408, 0.10710152, -408106.25, 249004.72, 0.0, 10.002738, 9.998314 
2.766417e+3, 2.4294046e+2, -532883.7, -892415.8, 160643.14, -0.07669163, 0.16577809, -471564.56, 87633.52, 0.0, 10.0018425, 9.9973135 
2.7660435e+3, 2.529306e+2, -590900.44, -757015.2, 213224.84, -0.0025070086, 0.059633374, -445127.4, 16169.102, 0.0, 10.000447, 9.998137 
2.7656683e+3, 2.6292205e+2, -530515.7, -621137.94, 125730.836, 0.0013765433, 0.07573669, -442180.47, -78799.055, 0.0, 9.999815, 9.998796 
2.765289e+3, 2.729162e+2, -112695.92, -190937.97, 53516.156, -0.16152337, 0.18550332, -85526.42, 179911.66, 0.0, 10.001439, 10.000203 
2.7649108e+3, 2.829091e+2, -106846.27, -451597.63, 118927.84, -0.21562757, 0.26867172, -69800.83, 97706.89, 0.0, 10.001933, 9.997602 
2.7645355e+3, 2.9289868e+2, -182452.42, -367028.28, 95902.29, -0.12672983, 0.10190858, -141645.23, -72033.99, 0.0, 10.000505, 9.998147 
2.7641594e+3, 3.028903e+2, -183487.28, -176633.8, 82592.43, -0.13068998, 0.10177533, -97397.055, -97397.055, 0.0, 9.999142, 9.999514 
2.763784e+3, 3.1288624e+2, 438.69977, 190956.69, 3315.2358, -0.08270625, 0.21267602, 191014.36, 191014.36, 0.0, 9.99915, 10.001589 
2.7634117e+3, 3.2287687e+2, -345851.38, -764349.9, 337160.28, -0.0070461957, 0.14751804, -158285.4, -158285.4, 0.0, 9.999981, 9.994617 
2.7805617e+3, 1.3340476e+2, -1692463.4, -1790284.8, 52814.508, -0.17762701, 0.79746443, -1669390.6, -36734.035, 0.0021714044, 10.000719, 9.998776 
2.780185e+3, 1.4338785e+2, -1769299.0, -1930743.1, 40611.19, 0.06870927, -0.14475173, -1759658.9, -224836.8, 0.0010072395, 9.999836, 9.997905 
2.779807e+3, 1.53385e+2, -1243461.5, -1335374.9, 12575.718, 0.1701886, 0.22950283, -1241772.0, 195084.89, 0.00030058212, 10.0017, 10.000296 
2.779429e+3, 1.6338034e+2, -1210374.6, -1431651.6, 85047.63, 0.16937819, 0.48262718, -1181464.0, 157442.16, 0.000046417692, 10.001795, 9.999024 
2.779049e+3, 1.7337193e+2, -1052524.1, -1146081.9, 112840.09, -0.19422102, 0.29108396, -977150.8, 263836.4, 0.0000020738605, 10.001687, 10.000254 
2.7786702e+3, 1.8336515e+2, -1044014.7, -1098390.0, 2983.6484, -0.3270512, 0.30151245, -1043851.44, 99199.23, 0.00000000000031198744, 10.001035, 10.000285 
2.7782935e+3, 1.9336052e+2, -827302.7, -743273.6, -2652.985, 0.028100835, 0.32207692, -743189.94, 301900.13, 0.0, 10.001156, 10.001864 
2.7779174e+3, 2.0335422e+2, -1053188.6, -1206111.5, 183078.27, 0.26725933, 0.35676432, -931246.4, 15900.37, 0.0, 10.000499, 9.998477 
2.7775416e+3, 2.1334432e+2, -719555.0, -853849.7, 158452.23, 0.21550517, 0.096920446, -614609.7, 234630.44, 0.0, 10.001654, 9.999564 
2.7771655e+3, 2.233354e+2, -816777.44, -1156184.6, 115317.95, 0.1822798, 0.061526, -781304.2, -29977.797, 0.0, 10.001473, 9.997008 
2.7767897e+3, 2.3332733e+2, -597018.4, -854621.75, 105752.37, 0.13339838, 0.11791598, -559166.4, 94242.96, 0.0, 10.001847, 9.998109 
2.776414e+3, 2.4331923e+2, -685642.0, -897607.94, 125588.94, 0.13380215, 0.21047744, -627293.1, -71802.73, 0.0, 10.000649, 9.997825 
2.776039e+3, 2.533101e+2, -598273.8, -622025.0, 153984.66, 0.21871029, 0.050559726, -455707.5, 1869.1217, 0.0, 9.999941, 9.999273 
2.7756628e+3, 2.6330212e+2, -744094.5, -777161.6, 156210.83, 0.16781136, 0.08384665, -603544.7, -243891.45, 0.0, 9.998751, 9.99818 
2.7752832e+3, 2.7329582e+2, -245170.72, -304664.72, 116207.48, -0.1623794, 0.16892347, -154963.31, 106752.336, 0.0, 10.000857, 9.999646 
2.7749053e+3, 2.8328848e+2, -323774.97, -613618.06, 79784.74, -0.29204497, 0.2928689, -303264.16, -139474.7, 0.0, 10.000848, 9.996978 
2.7745304e+3, 2.9327857e+2, -305948.84, -429129.56, 56486.613, -0.03859498, 0.17406613, -283968.22, -218076.63, 0.0, 9.999847, 9.99796 
2.7741525e+3, 3.0327082e+2, -432575.94, -477041.63, 85277.91, -0.07774, 0.32483065, -366680.34, -366680.34, 0.0, 9.998386, 9.997777 
2.7737743e+3, 3.1326625e+2, -215239.45, -92579.3, 10960.906, -0.29479995, 0.5276864, -91607.53, -91607.53, 0.0, 9.998574, 9.999886 
2.7734062e+3, 3.2325357e+2, -106846.414, 11361.175, 470010.88, 0.04336169, 0.026274033, 425969.8, 425969.8, 0.0, 9.99897, 10.000418 
2.7905634e+3, 1.337777e+2, -1736102.3, -1716699.0, -28850.69, 0.55486965, 0.00008258051, -1695962.4, -66971.68, 0.0011689333, 9.999962, 9.999683 
2.790175e+3, 1.4376912e+2, -1736941.8, -1950207.6, 178927.17, -0.3434715, -0.11383067, -1635282.8, -104202.055, 0.0005049565, 10.0002, 9.997597 
2.7898e+3, 1.5376584e+2, -1064913.6, -1299145.3, 198980.1, -0.15308152, 0.26938435, -951141.6, 481980.63, 0.00013439951, 10.003142, 9.999848 
2.7894238e+3, 1.6376087e+2, -949265.44, -1228080.8, 94623.54, -0.0076989136, 0.50167394, -920185.4, 414989.47, 0.000016423304, 10.003224, 9.999736 
2.7890435e+3, 1.7375259e+2, -1291047.0, -1189935.0, 136360.94, -0.12060389, 0.2790605, -1095059.9, 142191.42, 0.0000003300107, 9.999712, 10.000915 
2.7886647e+3, 1.837453e+2, -1423191.6, -1289313.0, 129244.766, -0.16775322, 0.2119376, -1210701.3, -71383.08, 0.0, 9.998375, 10.000295 
2.788289e+3, 1.9373891e+2, -800983.75, -802296.2, 84600.37, 0.08631447, 0.1434209, -717037.06, 324339.66, 0.0, 10.001523, 10.001364 
2.7879125e+3, 2.0373242e+2, -720966.2, -1008502.44, 122805.05, 0.21903759, 0.18906881, -675656.7, 267781.22, 0.0, 10.002601, 9.998801 
2.7875355e+3, 2.1372476e+2, -801463.3, -916366.2, 162682.83, 0.129833, 0.18136914, -686385.44, 159128.31, 0.0, 10.001176, 9.999375 
2.787159e+3, 2.2371668e+2, -851587.94, -1081940.8, 211001.48, 0.07591122, 0.22070262, -726374.56, 21219.064, 0.0, 10.000716, 9.997906 
2.786784e+3, 2.3370793e+2, -539216.9, -792706.06, 242873.2, 0.068156876, 0.18372808, -392006.0, 257674.63, 0.0, 10.001916, 9.998576 
2.7864084e+3, 2.4369954e+2, -350864.66, -673348.25, 216520.23, 0.071581855, 0.21676546, -242143.63, 309619.13, 0.0, 10.002589, 9.998438 
2.786033e+3, 2.5369084e+2, -155666.38, -406633.7, 170304.16, 0.111028306, 0.12152136, -69608.89, 384235.63, 0.0, 10.002886, 9.9993725 
2.7856565e+3, 2.6368257e+2, -173323.78, -541804.5, 142988.45, 0.081913956, 0.14001802, -124347.055, 231577.72, 0.0, 10.002696, 9.997934 
2.7852786e+3, 2.736748e+2, -132620.8, -375908.4, 72663.74, -0.113573566, 0.1916073, -112570.445, 145434.19, 0.0, 10.002005, 9.99868 
2.7849007e+3, 2.83667e+2, -244639.33, -498638.16, -18716.346, -0.17815113, 0.29382697, -243267.6, -83183.45, 0.0, 10.000969, 9.997708 
2.7845234e+3, 2.936583e+2, -222648.1, -340733.97, -16903.129, -0.022273347, 0.26379943, -220276.17, -158103.81, 0.0, 10.000129, 9.998448 
2.7841452e+3, 3.036503e+2, -248861.52, -443719.88, 126039.93, -0.05068885, 0.3817195, -186984.36, -186984.36, 0.0, 9.999736, 9.99739 
2.7837682e+3, 3.1364375e+2, 11427.338, -137057.78, 85068.47, -0.1939559, 0.5257461, 50094.49, 50094.49, 0.0, 10.000593, 9.998705 
2.7834004e+3, 3.2363138e+2, -70182.516, 465614.5, 389752.84, 0.23910294, -0.010952212, 670660.9, 670660.9, 0.0, 9.997134, 10.004489 
2.8005618e+3, 1.3415293e+2, -1696050.0, -1616717.1, -104085.36, 1.064463, -0.5214195, -1544996.0, 80313.19, 0.0005684971, 9.999859, 10.00041 
2.8001672e+3, 1.4415215e+2, -1442266.6, -1840044.5, 144527.44, -0.5261548, 0.08858438, -1395299.9, 132025.5, 0.00022583413, 10.002431, 9.997227 
2.7997935e+3, 1.5414691e+2, -1256221.5, -1432904.4, 202536.92, -0.40967292, 0.28894135, -1123598.1, 305786.56, 0.00005282333, 10.00205, 9.999417 
2.7994183e+3, 1.6414103e+2, -1231622.8, -1310473.3, -48244.64, -0.13141455, 0.42999145, -1208743.1, 122701.29, 0.000004777361, 10.001157, 10.000094 
2.7990383e+3, 1.7413375e+2, -1158982.9, -1065056.3, -69008.516, 0.08154796, 0.2250907, -1028546.6, 204961.77, 0.00000002399446, 10.000393, 10.001395 
2.7986598e+3, 1.8412592e+2, -1353668.1, -1408126.6, 150998.14, 0.18417042, 0.13973479, -1227463.8, -91883.64, 0.0, 9.999617, 9.998841 
2.7982843e+3, 1.9411671e+2, -992436.9, -1028646.4, 138274.03, 0.2190228, -0.107168145, -871087.4, 166581.63, 0.0, 10.000884, 10.000076 
2.7979076e+3, 2.041099e+2, -968677.44, -1151197.4, 79717.91, 0.19687572, -0.0096123265, -938762.6, 974.1911, 0.0, 10.001057, 9.998554 
2.7975282e+3, 2.1410556e+2, -825415.4, -895265.9, 85323.75, 0.03621449, 0.26094854, -768145.6, 73638.39, 0.0, 10.000896, 9.999634 
2.7971515e+3, 2.2409931e+2, -919668.4, -1054251.5, 238409.58, -0.056301437, 0.45003012, -739235.75, 4610.9673, 0.0, 10.0001745, 9.998297 
2.7967775e+3, 2.340897e+2, -597458.0, -717678.44, 249760.03, -0.06750184, 0.22386816, -400676.6, 245261.23, 0.0, 10.001226, 9.999374 
2.796402e+3, 2.4408089e+2, -637687.44, -933408.7, 202136.13, -0.11409627, 0.23104307, -535104.9, 12917.429, 0.0, 10.001278, 9.997247 
2.7960253e+3, 2.5407237e+2, -370735.13, -601349.56, 167175.33, -0.21598485, 0.21216981, -282957.75, 167147.22, 0.0, 10.00191, 9.998455 
2.7956492e+3, 2.6406348e+2, -510724.03, -892722.6, 115198.31, -0.20110282, 0.2975869, -478673.16, -126477.77, 0.0, 10.001321, 9.996159 
2.7952746e+3, 2.7405322e+2, -361585.53, -641548.25, 50898.45, -0.022635695, 0.22038318, -352619.13, -98314.555, 0.0, 10.001215, 9.997193 
2.7948964e+3, 2.8404465e+2, -369950.47, -519138.56, -67485.266, -0.011778215, 0.32182953, -343953.6, -187562.63, 0.0, 10.000064, 9.997971 
2.794515e+3, 2.9403725e+2, -252258.55, -238595.47, -57577.418, -0.21358396, 0.30722997, -187445.72, -128987.8, 0.0, 9.99953, 9.999412 
2.794137e+3, 3.0402824e+2, -401687.9, -537591.5, 127137.63, -0.21196581, 0.27886418, -325482.06, -325482.06, 0.0, 9.998945, 9.997055 
2.7937672e+3, 3.14017e+2, -116019.08, -214447.92, 130979.45, 0.30631566, -0.04918817, -25313.244, -25313.244, 0.0, 9.999945, 9.998401 
2.7933875e+3, 3.2401267e+2, -450622.84, 152600.66, 98406.47, -0.13776913, 0.27343222, 168248.23, 168248.23, 0.0, 9.995395, 10.003036 
2.8105453e+3, 1.3453673e+2, -1697918.9, -1677954.0, 103580.086, 0.0036858597, 0.28506052, -1583876.5, 37700.766, 0.0002507398, 10.000051, 9.999942 
2.8101724e+3, 1.445353e+2, -1019458.94, -1368872.5, -76057.836, 0.22992016, 0.7418213, -1003621.1, 519969.22, 0.00009142473, 10.004192, 9.999621 
2.8097892e+3, 1.5452594e+2, -1377542.1, -1271264.1, 59679.47, -0.28088382, 0.31431973, -1244494.5, 181176.8, 0.000018191195, 10.000232, 10.001447 
2.80941e+3, 1.6451797e+2, -1540321.8, -1504108.6, -41722.6, -0.2811673, 0.17139743, -1476733.0, -148989.47, 0.000001253609, 9.999187, 9.999723 
2.8090343e+3, 1.745116e+2, -956676.0, -1061961.3, -65414.668, 0.16663034, 0.14652686, -925352.4, 304452.16, 0.0000000065346386, 10.002138, 10.000603 
2.8086564e+3, 1.8450499e+2, -907003.5, -1130257.4, 12368.77, 0.30716544, 0.20058566, -906320.4, 225547.77, 0.0, 10.002409, 9.999382 
2.8082776e+3, 1.9449714e+2, -1080162.8, -1058951.4, 64906.277, 0.15367864, 0.077608004, -1003790.0, 30154.7, 0.0, 10.000199, 10.000211 
2.8079003e+3, 2.0449017e+2, -1061644.9, -1114526.8, 95309.41, 0.07253687, 0.121766284, -989176.75, -53164.313, 0.0, 9.999983, 9.999333 
2.8075233e+3, 2.1448414e+2, -559817.25, -738196.0, 123359.85, 0.018495204, 0.20002854, -496781.8, 341289.88, 0.0, 10.002466, 10.000016 
2.8071475e+3, 2.2447704e+2, -456450.66, -840240.6, 177803.02, -0.029021498, 0.29179472, -386739.84, 353401.06, 0.0, 10.003309, 9.998278 
2.8067732e+3, 2.3446764e+2, -453351.88, -703110.1, 136556.39, -0.026749972, 0.14671864, -393183.88, 249047.52, 0.0, 10.0023575, 9.998963 
2.806397e+3, 2.4445881e+2, -546252.0, -854718.4, 64515.824, -0.10665615, 0.14567852, -533302.2, 11014.906, 0.0, 10.001632, 9.997623 
2.8060195e+3, 2.5445044e+2, -453567.0, -665833.5, 66808.27, -0.29299983, 0.15737596, -434290.5, 12109.126, 0.0, 10.001304, 9.998353 
2.805643e+3, 2.644422e+2, -451265.78, -735497.25, 89024.266, -0.2792659, 0.25526685, -425684.75, -77200.98, 0.0, 10.001041, 9.997421 
2.8052688e+3, 2.744329e+2, -340941.66, -561132.5, 165668.48, 0.00039680753, 0.22050868, -252122.39, -1540.2606, 0.0, 10.000879, 9.997992 
2.804891e+3, 2.8442436e+2, -164283.55, -369848.75, 129760.29, 0.032542177, 0.27910882, -101530.67, 51136.78, 0.0, 10.001088, 9.998566 
2.804508e+3, 2.9441673e+2, 117183.19, -81733.12, 50007.832, -0.2977859, 0.27854544, 129047.58, 183784.4, 0.0, 10.001968, 9.999415 
2.80413e+3, 3.0440703e+2, -31560.914, -301667.2, 196331.98, -0.2581492, 0.18115154, 71683.24, 71683.24, 0.0, 10.001174, 9.997599 
2.8037617e+3, 3.1439438e+2, -193845.98, -245237.13, 193448.55, 0.4855311, -0.27780953, -24393.904, -24393.904, 0.0, 9.99927, 9.99856 
2.803374e+3, 3.2439527e+2, -281307.06, 82065.14, -116527.125, -0.39779213, 0.6237912, 116222.53, 116222.53, 0.0, 9.996997, 10.001864 
2.820534e+3, 1.3491996e+2, -1334572.1, -1558490.0, 527412.75, -0.5905215, 0.9938369, -907365.94, 710479.25, 0.000107448104, 10.002887, 9.999351 
2.8201765e+3, 1.4491642e+2, -1310840.3, -1271812.5, -123920.086, 1.0067707, 1.1971446, -1165879.3, 353991.78, 0.00003510944, 10.001258, 10.001666 
2.8197846e+3, 1.5490413e+2, -1171829.8, -928913.4, -93937.8, -0.056232248, 0.26326218, -896825.5, 525138.8, 0.0000055355054, 10.000701, 10.003537 
2.819403e+3, 1.6489519e+2, -1474165.8, -1574493.1, 36773.86, -0.2554477, -0.034281652, -1462130.5, -138089.61, 0.0000002527922, 10.000161, 9.998772 
2.8190306e+3, 1.748894e+2, -1177440.1, -1269432.8, 36450.61, 0.32716256, 0.08399448, -1164748.1, 61354.57, 0.0, 10.001147, 9.999665 
2.8186527e+3, 1.848842e+2, -1057885.5, -1160404.3, -1130.8192, 0.43396714, 0.31877756, -1057873.1, 70283.51, 0.0, 10.001238, 9.999737 
2.8182703e+3, 1.9487853e+2, -981418.6, -974102.75, 4316.559, 0.091513015, 0.3591656, -972102.7, 58109.848, 0.0, 10.00073, 10.000549 
2.8178927e+3, 2.048712e+2, -1028947.0, -1092220.1, 191978.63, -0.0011238058, 0.359719, -866015.7, 66265.695, 0.0, 10.000327, 9.999257 
2.8175196e+3, 2.148616e+2, -670137.94, -754885.75, 183878.98, 0.102911405, 0.028128693, -523813.6, 310554.63, 0.0, 10.001686, 10.000213 
2.8171453e+3, 2.2485279e+2, -770793.5, -1141938.6, 142228.81, 0.12790278, 0.014331492, -722558.0, 13894.088, 0.0, 10.0019245, 9.996833 
2.81677e+3, 2.3484367e+2, -682911.4, -921723.4, 102261.22, 0.13069272, -0.022346113, -645106.9, -6563.522, 0.0, 10.001389, 9.9978695 
2.816393e+3, 2.4483512e+2, -716829.1, -918656.94, 63892.72, 0.011486178, 0.06367094, -698303.06, -157674.42, 0.0, 10.000532, 9.997676 
2.8160146e+3, 2.548262e+2, -570011.94, -676830.2, 61332.473, -0.21143027, -0.044929054, -542093.25, -99375.69, 0.0, 10.000419, 9.998667 
2.8156376e+3, 2.6481953e+2, -461531.0, -478820.06, 81985.836, -0.25650012, 0.0954034, -387735.22, -42952.168, 0.0, 10.000021, 9.999608 
2.8152618e+3, 2.74814e+2, -264485.63, -214860.6, 168623.75, -0.108276464, 0.1427792, -69233.59, 177602.45, 0.0, 10.00022, 10.000619 
2.8148833e+3, 2.8480667e+2, -394556.7, -618820.44, 151748.55, -0.14274144, 0.26009095, -318005.8, -169096.73, 0.0, 10.000287, 9.997175 
2.8145027e+3, 2.9479694e+2, -58145.73, -276785.9, 96194.76, -0.32595685, 0.13400964, -21848.81, 29158.482, 0.0, 10.001403, 9.998277 
2.814123e+3, 3.0478784e+2, -128095.37, -348282.3, 112261.44, -0.4034904, 0.16427757, -80952.695, -80952.695, 0.0, 10.00061, 9.997534 
2.813748e+3, 3.1477854e+2, -362969.03, -285997.3, 122466.59, -0.11857136, -0.013597561, -196111.73, -196111.73, 0.0, 9.998012, 9.998863 
2.813365e+3, 3.2477617e+2, -443166.94, -24731.719, -68917.42, -0.41583994, 0.5431629, -13673.094, -13673.094, 0.0, 9.996252, 10.001398 
2.8305364e+3, 1.3529702e+2, -1287684.8, -1656367.3, 142254.05, -0.22458771, 0.6035913, -1239178.5, 374946.06, 0.00005064086, 10.0037, 9.998298 
2.8301647e+3, 1.4528732e+2, -1714451.6, -1542019.9, 7551.0205, 0.5048168, 0.312676, -1541689.9, -25473.008, 0.00001538915, 9.998823, 10.000969 
2.8297794e+3, 1.5528107e+2, -1164201.1, -1066570.4, -9456.566, -0.04093262, 0.10077141, -1065662.9, 352600.78, 0.0000020566958, 10.0013485, 10.002284 
2.8294e+3, 1.652752e+2, -1157446.3, -1236623.0, -27277.43, -0.047030367, 0.096483484, -1148958.8, 171355.67, 0.00000005936716, 10.001512, 10.000439 
2.8290248e+3, 1.752694e+2, -1273034.0, -1188293.6, 74182.1, 0.3965846, 0.087164305, -1145234.3, 77138.875, 0.0, 9.999883, 10.000852 
2.8286466e+3, 1.852634e+2, -1168272.1, -1219968.3, 123208.86, 0.36648485, 0.1964093, -1068229.3, 56204.254, 0.0, 10.000451, 9.999737 
2.8282642e+3, 1.9525665e+2, -658994.25, -868489.56, 129122.73, -0.06992685, 0.18455121, -597474.8, 429026.03, 0.0, 10.003093, 10.0001745 
2.827887e+3, 2.0524955e+2, -591064.44, -908614.1, 188644.63, -0.15414196, 0.24358079, -503270.34, 425300.0, 0.0, 10.003377, 9.9990835 
2.8275144e+3, 2.1524107e+2, -700005.94, -854828.1, 175563.48, 0.04100945, 0.11855801, -585544.6, 245106.55, 0.0, 10.001768, 9.999522 
2.82714e+3, 2.2523247e+2, -797596.75, -1058609.8, 142049.2, 0.111864544, 0.11727018, -735204.5, -2469.8533, 0.0, 10.001233, 9.99776 
2.8267643e+3, 2.3522322e+2, -638672.8, -884633.5, 171285.1, 0.081247784, 0.056345537, -550791.25, 84034.88, 0.0, 10.001474, 9.998149 
2.8263876e+3, 2.4521479e+2, -536705.44, -693620.1, 147059.77, 0.0082587665, 0.084944, -448483.1, 88425.96, 0.0, 10.001097, 9.998986 
2.8260094e+3, 2.5520617e+2, -521385.0, -597926.44, 174150.81, -0.095603794, -0.019618731, -381349.38, 57643.78, 0.0, 10.000372, 9.999312 
2.8256324e+3, 2.6519927e+2, -407135.7, -379455.4, 154847.0, -0.092015356, 0.045787323, -237831.27, 103228.945, 0.0, 10.000007, 10.000304 
2.825256e+3, 2.751938e+2, -265683.84, -203151.45, 49719.645, -0.022118887, 0.09747799, -175684.19, 67428.47, 0.0, 10.000121, 10.000757 
2.8248772e+3, 2.8518707e+2, -397906.0, -562488.25, 19978.283, -0.08412622, 0.22390708, -395515.6, -250335.2, 0.0, 9.999935, 9.997747 
2.824497e+3, 2.95178e+2, -310870.16, -433057.8, 43471.04, -0.27581695, 0.17604995, -296982.72, -249708.22, 0.0, 9.9996805, 9.998076 
2.8241163e+3, 3.0516958e+2, -201166.6, -296736.5, 67278.96, -0.4385491, 0.23871724, -166429.67, -166429.67, 0.0, 9.999595, 9.998415 
2.8237376e+3, 3.1516194e+2, -106639.64, -162395.67, 47211.58, -0.36921442, 0.20942709, -79689.59, -79689.59, 0.0, 9.999596, 9.999007 
2.8233582e+3, 3.251559e+2, -46994.246, 29016.662, -141103.95, -0.1343628, 0.44176388, 137143.83, 137143.83, 0.0, 9.999354, 10.000359 
2.8405362e+3, 1.356734e+2, -1692168.8, -1910424.6, -174050.4, 0.18565555, 0.051455267, -1595864.3, 14545.75, 0.00002671971, 10.001078, 9.997874 
2.8401527e+3, 1.4566013e+2, -1492178.9, -1606495.0, 160908.89, 0.05622011, -0.4779172, -1378577.8, 133964.2, 0.000008259606, 10.001066, 9.999444 
2.8397748e+3, 1.5565893e+2, -1217027.8, -1276293.8, 94855.164, 0.06589436, -0.014176504, -1147284.6, 267269.38, 0.0000013335809, 10.001737, 10.000665 
2.839397e+3, 1.6565566e+2, -1100985.8, -1036184.75, -49980.13, 0.24396847, 0.24282098, -1009021.8, 307562.3, 0.000000073245815, 10.001239, 10.001908 
2.8390187e+3, 1.756497e+2, -1141578.5, -997017.6, -25477.7, 0.49695292, 0.069722556, -992658.8, 225980.38, 0.0, 10.000285, 10.001953 
2.8386393e+3, 1.8564251e+2, -1219424.0, -1302697.5, 181174.08, 0.32754353, 0.041853644, -1075163.9, 45544.98, 0.0, 10.000445, 9.999115 
2.838259e+3, 1.9563368e+2, -856455.3, -1051547.6, 172514.14, -0.18049842, -0.15370096, -755818.8, 266978.03, 0.0, 10.002185, 9.999304 
2.8378823e+3, 2.0562719e+2, -811828.2, -1110023.0, 126980.266, -0.26779908, 0.057538476, -765083.75, 159781.45, 0.0, 10.0023575, 9.998159 
2.8375086e+3, 2.1562158e+2, -889938.6, -1056365.3, 108456.77, -0.015239799, 0.27831894, -836450.4, -9523.271, 0.0, 10.001042, 9.998447 
2.8371334e+3, 2.256142e+2, -881661.8, -994091.4, 163395.64, 0.045284875, 0.41730243, -765081.2, -36080.133, 0.0, 10.000318, 9.998617 
2.8367573e+3, 2.3560473e+2, -739910.25, -840490.06, 179181.81, -0.04767152, 0.20971549, -604094.8, 26997.31, 0.0, 10.000472, 9.998915 
2.8363806e+3, 2.4559677e+2, -630382.3, -668318.6, 127218.91, -0.05594241, 0.23014483, -520725.25, 12442.108, 0.0, 10.000264, 9.999541 
2.8360042e+3, 2.5558907e+2, -603637.9, -581539.94, 136336.0, 0.053425647, 0.11477675, -455805.94, -20566.805, 0.0, 9.999691, 9.999726 
2.8356278e+3, 2.6558095e+2, -677373.94, -728496.44, 142811.03, 0.14648843, 0.15071309, -557854.6, -220533.69, 0.0, 9.999249, 9.998209 
2.8352517e+3, 2.7557188e+2, -530299.56, -561001.7, 50675.492, 0.23132297, 0.0026468395, -492701.03, -253284.83, 0.0, 9.999425, 9.998581 
2.834872e+3, 2.8556558e+2, -429480.38, -434239.47, 3043.3875, 0.08491763, 0.22381341, -427996.72, -286515.25, 0.0, 9.999229, 9.998925 
2.8344896e+3, 2.9556015e+2, -363548.0, -335804.13, 37942.84, -0.24793169, 0.38851538, -309276.94, -265740.3, 0.0, 9.998902, 9.999095 
2.834109e+3, 3.0555254e+2, -301375.8, -279354.9, 72544.875, -0.40575647, 0.46764034, -216989.69, -216989.69, 0.0, 9.998802, 9.998855 
2.8337327e+3, 3.155431e+2, -243955.0, -218289.28, 64173.266, -0.14694469, 0.18656993, -165678.34, -165678.34, 0.0, 9.998778, 9.99896 
2.8333515e+3, 3.255348e+2, -247588.11, -229558.3, -66806.99, -0.14405759, 0.22343157, -171160.72, -171160.72, 0.0, 9.998943, 9.998649 
2.850529e+3, 1.3605572e+2, -1649403.8, -1459931.3, 51564.055, 0.049794123, 0.052567046, -1446807.4, 159858.47, 0.0000133144695, 9.999441, 10.001808 
2.8501484e+3, 1.4604716e+2, -1271624.8, -1628953.1, 180497.5, -0.0018887547, -0.08926421, -1196320.0, 312419.06, 0.0000038169696, 10.003094, 9.998326 
2.8497705e+3, 1.560397e+2, -1274278.4, -1490737.1, 165575.13, 0.06662173, -0.09147751, -1184697.9, 226117.64, 0.0000005153316, 10.002089, 9.999049 
2.8493917e+3, 1.660342e+2, -1100915.4, -1144282.5, -36658.46, 0.20994647, 0.076684624, -1080007.6, 232864.53, 0.00000002542409, 10.001673, 10.000955 
2.8490114e+3, 1.7602912e+2, -1032751.6, -1066086.8, -45980.066, 0.3133804, 0.112489335, -1000511.4, 214412.78, 0.0, 10.0015135, 10.000899 
2.8486326e+3, 1.8602258e+2, -989916.3, -1095066.0, 147253.53, 0.1511834, 0.14766882, -886133.5, 230854.63, 0.0, 10.001533, 10.000027 
2.8482544e+3, 1.960144e+2, -901148.44, -1016335.56, 202557.72, -0.18104172, -0.032993868, -748155.56, 270911.8, 0.0, 10.001523, 9.999888 
2.847878e+3, 2.060074e+2, -920881.6, -1147490.9, 121328.72, -0.22907984, 0.09006779, -868178.44, 52961.28, 0.0, 10.001472, 9.998351 
2.8475028e+3, 2.160007e+2, -827184.56, -1026437.3, 149297.22, -0.07205663, 0.23608738, -747325.3, 75886.9, 0.0, 10.001349, 9.998554 
2.8471276e+3, 2.2599338e+2, -661882.4, -741354.3, 220712.2, 0.036091022, 0.30482978, -477357.75, 247926.2, 0.0, 10.001159, 9.999943 
2.8467524e+3, 2.359848e+2, -594841.5, -662069.06, 249140.77, 0.050465252, 0.12139178, -377057.16, 250306.13, 0.0, 10.000913, 9.999946 
2.8463757e+3, 2.4597736e+2, -491668.03, -615928.8, 159652.73, 0.035969302, 0.14540721, -382482.38, 146952.67, 0.0, 10.001145, 9.999523 
2.8459978e+3, 2.559702e+2, -338648.4, -490070.8, 118589.055, 0.02933406, 0.14587659, -273662.94, 157842.75, 0.0, 10.001522, 9.999526 
2.845621e+3, 2.6596236e+2, -332886.9, -586381.75, 149672.61, 0.08522404, 0.22154477, -263504.78, 70082.99, 0.0, 10.001625, 9.998089 
2.845245e+3, 2.759534e+2, -170763.06, -431270.0, 143288.56, 0.159197, 0.18211645, -107373.62, 128310.86, 0.0, 10.001952, 9.998323 
2.8448656e+3, 2.8594634e+2, 14909.402, -175461.72, 74879.1, 0.062019967, 0.31604534, 40831.938, 178588.45, 0.0, 10.001983, 9.999422 
2.8444836e+3, 2.959404e+2, 61233.57, -89065.516, 2131.7632, -0.19618236, 0.43314254, 61263.8, 101077.21, 0.0, 10.001575, 9.999528 
2.844103e+3, 3.0593282e+2, 16329.038, -71693.25, 4066.5996, -0.2960605, 0.4555964, 16516.514, 16516.514, 0.0, 10.000613, 9.99946 
2.8437263e+3, 3.1592387e+2, -138026.81, -152489.89, -37618.652, -0.011416859, 0.2109607, -106950.94, -106950.94, 0.0, 9.999314, 9.99922 
2.8433433e+3, 3.259159e+2, -288417.6, -323590.7, -128502.09, -0.15584655, 0.3018574, -176304.2, -176304.2, 0.0, 9.998699, 9.998256 
2.8605232e+3, 1.364393e+2, -1054576.8, -859707.1, 287696.44, 0.13092265, 0.1791205, -653394.0, 949514.75, 0.0000059672334, 10.002246, 10.004558 
2.860145e+3, 1.4643437e+2, -1376299.5, -1764247.3, 69536.08, 0.05116528, 0.34037432, -1364212.4, 140725.03, 0.0000015122073, 10.002807, 9.99751 
2.8597665e+3, 1.5642075e+2, -1390022.6, -1676314.4, 96240.47, 0.15202677, -0.19557457, -1360678.0, 46397.14, 0.0000000966577, 10.00189, 9.997854 
2.8593865e+3, 1.6641298e+2, -1234102.0, -1381770.8, 1129.275, 0.21387152, -0.11182461, -1234093.4, 75065.06, 0.00000000026919006, 10.001539, 9.999392 
2.8590044e+3, 1.7640848e+2, -1154972.5, -1286980.6, -1317.2737, 0.16179402, 0.13241968, -1154959.3, 56252.145, 0.0, 10.001406, 9.999432 
2.858626e+3, 1.8640321e+2, -954536.4, -966295.0, 194208.11, 0.0336963, 0.31895915, -766118.56, 347146.0, 0.0, 10.001423, 10.000937 
2.85825e+3, 1.9639671e+2, -906217.94, -950631.44, 167250.16, -0.061331484, 0.20906223, -759706.7, 255618.86, 0.0, 10.001322, 10.00041 
2.857874e+3, 2.0638889e+2, -949187.2, -1143629.4, 112102.54, -0.063089214, 0.23001227, -898020.56, 19382.66, 0.0, 10.001262, 9.9984665 
2.8574973e+3, 2.1637945e+2, -918440.6, -1077923.8, 129871.18, -0.028051758, 0.06921078, -845783.94, -26285.01, 0.0, 10.000786, 9.998487 
2.8571224e+3, 2.2637165e+2, -736170.6, -689477.94, 207592.44, 0.113111205, 0.054750785, -503923.16, 217648.39, 0.0, 10.000379, 10.0006075 
2.856749e+3, 2.3636414e+2, -736984.6, -697458.8, 199327.25, 0.32573906, -0.13243118, -516917.13, 106720.0, 0.0, 9.999942, 10.000102 
2.856371e+3, 2.4635737e+2, -719409.44, -811530.56, 152488.03, 0.18769902, 0.0067030825, -606177.25, -80470.65, 0.0, 10.000152, 9.998536 
2.8559905e+3, 2.5635022e+2, -595390.94, -737118.6, 121961.64, -0.1384461, 0.056762245, -525200.44, -97414.484, 0.0, 10.000439, 9.998262 
2.8556126e+3, 2.6634437e+2, -415701.47, -578334.6, 155839.31, -0.23684505, 0.37349215, -321238.97, 8612.801, 0.0, 10.000936, 9.998434 
2.8552362e+3, 2.7633834e+2, -291431.4, -494393.94, 153650.06, -0.20805405, 0.5493473, -208774.72, 23143.871, 0.0, 10.001188, 9.998249 
2.854858e+3, 2.863289e+2, -188819.72, -384862.38, 53271.84, -0.17680058, 0.52280414, -175279.1, -41269.277, 0.0, 10.001249, 9.998259 
2.8544787e+3, 2.963171e+2, -148377.84, -331847.72, -10187.664, -0.18161097, 0.13807973, -147813.89, -111694.19, 0.0, 10.000883, 9.998144 
2.8540966e+3, 3.063091e+2, -95390.195, -122443.19, -73631.734, -0.3178384, 0.18779127, -34052.824, -34052.824, 0.0, 10.000009, 9.99932 
2.8537154e+3, 3.1630343e+2, -375252.1, -288347.22, -90387.445, -0.32687807, 0.24372819, -231510.05, -231510.05, 0.0, 9.997954, 9.99887 
2.853334e+3, 3.2629916e+2, -238678.3, 87558.6, -49863.332, -0.29169506, 0.51582885, 95009.73, 95009.73, 0.0, 9.997609, 10.001518 
2.8705245e+3, 1.3681854e+2, -1000550.44, -1148464.8, 104372.42, 0.45612106, 0.08896527, -946588.6, 652596.06, 0.0000021514043, 10.003896, 10.001824 
2.8701386e+3, 1.4681266e+2, -1251653.6, -1461404.1, -28445.969, -0.18287437, 0.15901446, -1247864.3, 253364.83, 0.00000043033984, 10.00257, 9.999717 
2.8697625e+3, 1.5680297e+2, -1323369.5, -1488029.4, 93876.59, 0.21833682, -0.16783279, -1280835.4, 122491.06, 0.000000019645139, 10.001623, 9.999299 
2.8693825e+3, 1.6679585e+2, -1220445.8, -1378528.8, 44197.137, 0.33024558, -0.07446704, -1208928.1, 96473.98, 0.0, 10.001643, 9.999367 
2.8689992e+3, 1.7679007e+2, -1135610.8, -1324780.5, 125244.51, 0.13940927, 0.09561922, -1073248.3, 134218.33, 0.0, 10.001712, 9.99904 
2.8686208e+3, 1.867836e+2, -917965.94, -1103446.0, 258630.56, -0.014905259, 0.25509572, -735950.7, 373584.4, 0.0, 10.002209, 9.999674 
2.8682455e+3, 1.9677608e+2, -810357.6, -1033749.1, 197086.67, -0.09865988, 0.20877796, -695516.2, 316095.6, 0.0, 10.002379, 9.999405 
2.8678697e+3, 2.0676881e+2, -656877.4, -845690.0, 97601.37, -0.042836335, 0.24252722, -615494.94, 298188.28, 0.0, 10.002563, 9.999882 
2.867493e+3, 2.1676087e+2, -589422.25, -809796.06, 163506.58, 0.02872339, 0.14275807, -502440.28, 313320.06, 0.0, 10.002485, 9.999531 
2.867117e+3, 2.2675325e+2, -570728.06, -681967.06, 168064.02, 0.10138937, 0.12959358, -449319.22, 268513.6, 0.0, 10.001688, 10.000086 
2.8667417e+3, 2.3674566e+2, -685651.1, -731547.5, 117864.86, 0.20335853, 0.029020132, -588521.25, 31382.238, 0.0, 10.000384, 9.9997225 
2.8663635e+3, 2.4673855e+2, -670081.25, -752546.1, 102791.72, 0.075174004, 0.11583366, -600560.56, -78583.91, 0.0, 10.000219, 9.998946 
2.8659838e+3, 2.5673112e+2, -515005.66, -661378.5, 114612.22, -0.21176066, 0.14813985, -452206.0, -28148.479, 0.0, 10.0007105, 9.99869 
2.8656062e+3, 2.667253e+2, -376736.13, -483325.63, 159368.16, -0.29188702, 0.3989422, -261987.61, 64133.492, 0.0, 10.000744, 9.999222 
2.8652298e+3, 2.767198e+2, -357255.06, -479126.8, 142770.17, -0.2585472, 0.6002711, -262960.47, -34779.617, 0.0, 10.000373, 9.998792 
2.864852e+3, 2.8670982e+2, -332677.38, -455291.84, 99545.97, -0.17295024, 0.48462212, -277074.47, -146797.6, 0.0, 10.000195, 9.998305 
2.8644735e+3, 2.9669675e+2, -224250.53, -373875.1, 79868.56, -0.092361726, 0.028587073, -189628.52, -157230.19, 0.0, 10.000258, 9.998202 
2.86409e+3, 3.0668923e+2, -125914.44, -72164.48, 28366.127, -0.28537408, 0.09733386, -59963.867, -59963.867, 0.0, 9.999428, 9.999987 
2.8637055e+3, 3.166851e+2, -252883.23, -123301.8, 13800.506, -0.47976115, 0.3172096, -121848.336, -121848.336, 0.0, 9.998187, 9.999953 
2.8633246e+3, 3.2668117e+2, -219904.44, 312044.16, -8435.193, -0.27136034, 0.4837752, 312177.88, 312177.88, 0.0, 9.996638, 10.003577 
2.880523e+3, 1.3719702e+2, -1398271.0, -1591378.3, 96742.83, 0.6492206, -0.08930367, -1358143.3, 237323.86, 0.00000033823923, 10.002257, 9.999546 
2.8801334e+3, 1.4719069e+2, -1190326.8, -1220202.4, -13056.195, -0.25460798, -0.063718446, -1185425.1, 312098.28, 0.000000039050374, 10.002118, 10.001568 
2.8797585e+3, 1.5718566e+2, -1353647.8, -1374623.0, 7185.307, 0.38314185, -0.093141854, -1351422.5, 48151.867, 0.0000000006124831, 10.000872, 10.00045 
2.8793788e+3, 1.6717935e+2, -1248887.9, -1369306.9, 25020.936, 0.48410198, 0.024792315, -1243895.9, 57743.5, 0.0, 10.001412, 9.999485 
2.878995e+3, 1.7717205e+2, -1111954.0, -1379716.1, 108477.39, 0.22351016, 0.007664976, -1073522.9, 130193.09, 0.0, 10.002188, 9.998407 
2.8786165e+3, 1.8716387e+2, -1071847.6, -1379328.9, 274785.1, 0.0140047455, 0.13728894, -910718.4, 195086.5, 0.0, 10.00217, 9.99774 
2.878241e+3, 1.9715486e+2, -1056424.1, -1318103.3, 197109.0, -0.08931276, 0.105441205, -950681.94, 57221.355, 0.0, 10.001521, 9.99784 
2.8778654e+3, 2.0714897e+2, -765414.3, -743919.8, 122880.35, -0.0044012, 0.26825714, -631317.6, 278643.2, 0.0, 10.0012865, 10.00116 
2.8774896e+3, 2.1714374e+2, -820318.2, -873089.56, 140527.22, 0.1623174, 0.29880553, -703721.0, 108286.94, 0.0, 10.000834, 9.999856 
2.8771114e+3, 2.2713655e+2, -819715.56, -921473.44, 125952.89, 0.074820645, 0.39619833, -734753.44, -20672.79, 0.0, 10.000652, 9.998889 
2.876732e+3, 2.3712839e+2, -906463.75, -988692.5, 89752.43, -0.08717231, 0.33746746, -848856.8, -232691.36, 0.0, 9.999678, 9.9982605 
2.8763545e+3, 2.4712078e+2, -691909.0, -686129.5, 137433.48, -0.14259721, 0.40941837, -551555.4, -33313.727, 0.0, 9.9998255, 9.999589 
2.8759778e+3, 2.5711277e+2, -656030.8, -708508.7, 135179.73, -0.17586486, 0.30337176, -544567.0, -124246.02, 0.0, 9.999755, 9.998829 
2.8756014e+3, 2.6710558e+2, -473703.4, -453426.44, 146758.05, -0.14402246, 0.37793434, -316457.1, 5936.369, 0.0, 9.999887, 9.999791 
2.8752252e+3, 2.770981e+2, -544343.3, -558004.56, 135986.17, -0.059896335, 0.30314326, -415016.34, -190547.11, 0.0, 9.999172, 9.998797 
2.874847e+3, 2.8708974e+2, -380122.78, -383687.38, 100095.53, -0.015535244, 0.30841994, -281793.7, -155243.17, 0.0, 9.9995365, 9.999081 
2.8744677e+3, 2.9708013e+2, -350055.2, -405316.63, 86911.68, -0.008049195, 0.10009045, -286487.78, -257846.25, 0.0, 9.9993515, 9.998414 
2.8740832e+3, 3.0707362e+2, -191543.3, 3713.2168, -28345.568, -0.1898132, 0.2063961, 7744.9214, 7744.9214, 0.0, 9.998673, 10.000835 
2.873698e+3, 3.1706843e+2, -531600.75, -275583.25, -7500.802, -0.32980838, 0.23727857, -275363.7, -275363.7, 0.0, 9.9964905, 9.99971 
2.873313e+3, 3.270598e+2, -585858.75, 102352.15, 4048.2478, -0.3833139, -0.120529875, 102375.96, 102375.96, 0.0, 9.994608, 10.002961 
2.8905147e+3, 1.37579e+2, -1578748.9, -1615136.3, 194496.7, 0.2498942, -0.14258981, -1401596.8, 190114.66, 0.0000000028010363, 10.000701, 10.000165 
2.8901312e+3, 1.4756978e+2, -1407867.0, -1503977.9, -41638.484, 0.014872839, -0.32480103, -1392337.1, 101466.195, 0.0, 10.00139, 9.999964 
2.8897506e+3, 1.5756613e+2, -1552357.0, -1569864.0, -31842.283, 0.22810386, -0.048705272, -1528087.0, -132239.2, 0.0, 9.999866, 9.999621 
2.889371e+3, 1.6756073e+2, -1102382.6, -1125804.1, 58856.12, 0.22040984, 0.07496602, -1054083.5, 243818.66, 0.0, 10.001587, 10.001106 
2.8889897e+3, 1.7755415e+2, -775481.0, -1119902.1, 171172.66, 0.003304651, 0.0007983797, -704881.9, 495084.3, 0.0, 10.003969, 9.999373 
2.8886124e+3, 1.875455e+2, -929015.75, -1400339.6, 233553.05, -0.025375841, 0.08786346, -832889.2, 269171.03, 0.0, 10.003418, 9.997038 
2.888237e+3, 1.9753599e+2, -1098100.5, -1371354.6, 216993.84, 0.018535357, 0.11535793, -978303.56, 25862.004, 0.0, 10.001248, 9.997658 
2.8878602e+3, 2.0752922e+2, -927690.1, -782953.5, 136661.02, 0.10343382, 0.16398907, -700682.25, 205548.25, 0.0, 9.999904, 10.001586 
2.887483e+3, 2.175232e+2, -1044248.44, -929656.1, 177060.13, 0.16924122, 0.10162066, -800852.44, 7430.6094, 0.0, 9.998945, 10.000412 
2.887105e+3, 2.275164e+2, -766295.0, -905328.4, 229869.73, 0.045261085, 0.20687293, -595660.4, 114692.24, 0.0, 10.00092, 9.998922 
2.8867263e+3, 2.3750891e+2, -290925.28, -669829.06, 239082.25, -0.17280145, 0.25727522, -175332.34, 437100.03, 0.0, 10.0036125, 9.998623 
2.886349e+3, 2.4750128e+2, -218042.14, -459391.03, 213727.98, -0.20427811, 0.30692738, -93274.18, 421234.22, 0.0, 10.003017, 9.999646 
2.8859717e+3, 2.5749308e+2, -424283.0, -568170.4, 182032.53, -0.17989312, 0.22338861, -300492.84, 116095.33, 0.0, 10.001079, 9.999214 
2.8855956e+3, 2.674859e+2, -430286.88, -398894.66, 172262.7, -0.06523907, 0.26255703, -241614.45, 77046.53, 0.0, 10.000001, 10.000112 
2.885219e+3, 2.774787e+2, -448546.72, -434873.75, 133477.05, 0.05712579, 0.22760195, -308058.22, -87323.48, 0.0, 9.999414, 9.9995365 
2.8848407e+3, 2.8747174e+2, -301065.03, -248136.5, 137361.22, 0.08177335, 0.2759887, -134713.45, -11909.72, 0.0, 9.999472, 10.000102 
2.884461e+3, 2.974646e+2, -213410.72, -180659.66, 125902.22, 0.07654646, 0.23209573, -70072.49, -45199.176, 0.0, 9.999437, 9.999963 
2.8840765e+3, 3.07458e+2, 29630.004, 238018.4, 51813.94, -0.056388866, 0.19207086, 250190.5, 250190.5, 0.0, 9.999566, 10.002086 
2.8836915e+3, 3.1745136e+2, -21549.037, 37029.434, 86413.24, -0.086568, 0.03517367, 98982.23, 98982.23, 0.0, 9.999579, 10.00047 
2.8833055e+3, 3.2744366e+2, 382500.47, 322733.2, -81106.52, -0.24506676, -0.044228565, 439053.5, 439053.5, 0.0, 10.002025, 10.001133 
2.9005075e+3, 1.3796034e+2, -1379863.4, -1485599.4, 256662.05, 0.11319521, -0.28158462, -1170681.0, 417284.44, 0.00000000011876347, 10.001908, 10.0005 
2.900129e+3, 1.4794947e+2, -1380661.3, -1701112.5, -108328.555, 0.34199828, -0.5195286, -1347477.1, 142601.61, 0.0, 10.002521, 9.998067 
2.8997427e+3, 1.5794624e+2, -1398341.8, -1610493.9, -37287.566, 0.10647709, -0.03609848, -1391979.0, 146.76033, 0.0, 10.001472, 9.998556 
2.8993633e+3, 1.6794164e+2, -968715.44, -907717.9, 113429.7, 0.0011137141, 0.12115503, -820758.25, 473411.97, 0.0, 10.001945, 10.002387 
2.8989854e+3, 1.7793588e+2, -986648.7, -1169677.6, 103706.71, -0.119869255, -0.011114947, -939852.0, 256369.61, 0.0, 10.00236, 9.999797 
2.8986087e+3, 1.8792753e+2, -1128827.4, -1523689.8, 106941.21, 0.0023979696, 0.10713641, -1101724.6, -3412.9063, 0.0, 10.002215, 9.996726 
2.8982335e+3, 1.9791807e+2, -1180010.1, -1440453.0, 132021.67, 0.25819826, 0.13281158, -1124793.4, -124376.734, 0.0, 10.000884, 9.997304 
2.8978547e+3, 2.0790967e+2, -893421.06, -774872.06, 87988.76, 0.2643828, 0.024445869, -728054.6, 174441.44, 0.0, 10.000254, 10.001415 
2.897475e+3, 2.1790135e+2, -1067064.0, -979006.56, 139898.7, 0.20258918, -0.2776925, -876371.8, -71802.15, 0.0, 9.999053, 9.99998 
2.8970993e+3, 2.2789502e+2, -770570.5, -827769.0, 311119.75, 0.052137535, -0.15133849, -486738.28, 219893.88, 0.0, 10.000707, 9.9994755 
2.8967234e+3, 2.3788883e+2, -518150.9, -803534.75, 255772.81, -0.11325273, -0.049298353, -367959.38, 240737.03, 0.0, 10.002273, 9.998309 
2.8963447e+3, 2.4788116e+2, -398793.06, -587812.5, 118725.94, -0.18853419, 0.03991411, -341553.2, 169219.27, 0.0, 10.002112, 9.999099 
2.895965e+3, 2.578726e+2, -685749.4, -789684.8, 110781.414, -0.21228112, -0.06009968, -615352.2, -202495.4, 0.0, 9.999853, 9.998211 
2.8955883e+3, 2.678665e+2, -546962.9, -481651.72, 154814.48, -0.0919924, 0.14277436, -356086.22, -41163.426, 0.0, 9.99942, 9.999772 
2.8952116e+3, 2.7786088e+2, -601355.44, -541755.94, 129065.766, 0.060887627, 0.26383683, -439094.4, -222109.28, 0.0, 9.998601, 9.999181 
2.8948328e+3, 2.878554e+2, -287837.4, -65178.13, 122075.21, 0.046804026, 0.37841266, -11290.805, 107750.76, 0.0, 9.998963, 10.001554 
2.8944525e+3, 2.9784945e+2, -275645.84, -71069.41, 128308.93, -0.013591489, 0.30381775, -9266.002, 11833.349, 0.0, 9.998563, 10.00109 
2.8940666e+3, 3.0784452e+2, 228980.11, 591931.2, 76212.125, -0.2797763, 0.2234112, 607284.6, 607284.6, 0.0, 10.000046, 10.004089 
2.89368e+3, 3.1783992e+2, -176851.78, -357634.3, 215217.36, -0.56372416, 0.1231164, -33814.06, -33814.06, 0.0, 10.000126, 9.997358 
2.8933048e+3, 3.278296e+2, -399991.16, -804568.75, 47754.84, -0.004320303, 0.24067225, -394430.75, -394430.75, 0.0, 10.000342, 9.993838 
2.910504e+3, 1.3834208e+2, -1273474.3, -1394371.4, 176126.58, 0.060400054, -0.1674429, -1147711.6, 436522.72, 0.0000000000007792345, 10.00237, 10.000963 
2.910126e+3, 1.483328e+2, -1240014.4, -1644711.8, -132795.84, 0.38580546, -0.25110677, -1200330.6, 285997.03, 0.0, 10.003454, 9.99805 
2.9097375e+3, 1.5832704e+2, -1131699.8, -1567490.4, -18602.943, -0.10101034, 0.002939708, -1130907.0, 257487.83, 0.0, 10.003594, 9.997869 
2.9093587e+3, 1.6832003e+2, -1065853.9, -1221293.9, 1895.1044, -0.019810896, 0.08651252, -1065830.8, 224635.84, 0.0, 10.002392, 10.000031 
2.908982e+3, 1.7831244e+2, -1286828.5, -1383677.3, -69435.34, 0.08252756, -0.0146192135, -1250599.5, -58058.53, 0.0, 10.000496, 9.99926 
2.908605e+3, 1.8830591e+2, -1054275.4, -1155914.5, 1232.832, 0.10922985, 0.08294943, -1054260.4, 40348.227, 0.0, 10.001214, 9.999764 
2.9082274e+3, 1.9829936e+2, -885121.9, -1120588.5, 134372.47, 0.13906607, 0.13765831, -824201.7, 172476.31, 0.0, 10.002033, 9.99898 
2.9078493e+3, 2.0829153e+2, -621262.94, -872344.75, 30845.314, 0.18110333, 0.14846215, -617529.1, 281227.38, 0.0, 10.002959, 9.999498 
2.90747e+3, 2.1828316e+2, -470394.63, -772459.7, 28935.31, 0.1511118, 0.025243845, -467647.84, 333190.5, 0.0, 10.003365, 9.999361 
2.9070944e+3, 2.2827642e+2, -391581.13, -556181.2, 173985.44, 0.021533953, 0.0583599, -281412.38, 421489.97, 0.0, 10.002834, 10.000366 
2.9067189e+3, 2.3826979e+2, -471895.78, -665041.9, 129982.125, -0.15161552, 0.049454786, -406537.66, 198427.55, 0.0, 10.001927, 9.999483 
2.9063407e+3, 2.4826215e+2, -349956.28, -520640.97, 3903.6848, -0.140864, 0.04735747, -349867.06, 157171.0, 0.0, 10.002106, 9.99961 
2.905961e+3, 2.5825402e+2, -227076.64, -475332.47, 37622.39, -0.099424794, -0.041446604, -221500.34, 187615.34, 0.0, 10.002415, 9.99917 
2.905582e+3, 2.682475e+2, -197780.48, -308431.6, 123625.62, -0.07505759, 0.05968027, -117665.24, 193517.38, 0.0, 10.001594, 10.000003 
2.9052037e+3, 2.7824154e+2, -299693.44, -331645.75, 121000.195, -0.03136348, 0.1461144, -193619.25, 19626.402, 0.0, 10.000218, 9.999901 
2.9048273e+3, 2.8823644e+2, -217507.83, -18697.383, 78588.836, 0.26490822, 0.25604, 8615.992, 123915.97, 0.0, 9.999338, 10.00171 
2.904445e+3, 2.982315e+2, -249706.75, 6798.9204, 15677.185, 0.05271372, 0.27904415, 7753.5303, 25105.383, 0.0, 9.998246, 10.001808 
2.9205e+3, 1.3872439e+2, -1544997.5, -1455091.9, 180095.66, 0.15061185, 0.042792533, -1314423.6, 266075.1, 0.0, 10.000282, 10.001492 
2.920122e+3, 1.4871666e+2, -1413527.4, -1673973.5, -79650.805, 0.42964292, 0.054185566, -1391099.6, 91471.89, 0.0, 10.002078, 9.998464 
2.9197335e+3, 1.587082e+2, -1330384.0, -1761256.3, 25055.074, -0.14366035, 0.02534573, -1328931.9, 55727.313, 0.0, 10.002683, 9.996964 
2.9193553e+3, 1.686983e+2, -1264809.4, -1643972.9, 60656.535, 0.080863655, 0.04670552, -1255342.3, 31421.346, 0.0, 10.00242, 9.99713 
2.9189792e+3, 1.786882e+2, -1281111.1, -1471986.9, 58031.406, 0.4264236, -0.048336077, -1264852.9, -75983.42, 0.0, 10.000985, 9.998421 
2.9186004e+3, 1.8868391e+2, -827753.25, -650052.9, 121168.56, 0.24575189, 0.06742209, -588649.4, 502260.84, 0.0, 10.00119, 10.003182 
2.9182214e+3, 1.9868039e+2, -982767.0, -1077935.1, 135445.5, 0.037605237, 0.111591265, -886790.2, 106152.37, 0.0, 10.001018, 9.999765 
2.9178438e+3, 2.0867383e+2, -901548.7, -1276979.3, 64625.914, 0.07226657, 0.39197645, -890735.56, 4280.6123, 0.0, 10.002321, 9.996988 
2.9174662e+3, 2.1866623e+2, -746351.56, -1095420.6, 67123.1, 0.13719249, 0.56492925, -733889.25, 63212.105, 0.0, 10.002389, 9.997609 
2.9170895e+3, 2.2865866e+2, -471531.13, -488870.4, 164272.48, -0.02087073, 0.50972795, -315699.7, 383471.84, 0.0, 10.00192, 10.0012245 
2.916713e+3, 2.3865092e+2, -704310.1, -723469.06, 104708.66, -0.19789886, 0.2802268, -608743.6, -7503.652, 0.0, 10.000238, 9.999858 
2.9163364e+3, 2.4864373e+2, -443349.03, -442444.4, 19857.84, -0.06110261, 0.23765916, -423033.72, 80270.98, 0.0, 10.00106, 10.000589 
2.9159585e+3, 2.5863642e+2, -413431.44, -513610.94, 30820.926, 0.11597793, 0.10205114, -404708.66, 662.33765, 0.0, 10.001032, 9.999549 
2.9155764e+3, 2.6862878e+2, -261637.75, -225088.47, 65876.34, -0.07683141, 0.018437719, -174998.97, 132441.95, 0.0, 10.000872, 10.000805 
2.9151943e+3, 2.7862108e+2, -500180.47, -457224.78, 90110.086, -0.28249002, -0.17184617, -386068.25, -176555.2, 0.0, 9.999112, 9.999526 
2.9148236e+3, 2.8861505e+2, -414542.75, -286076.7, 49876.527, 0.68680763, -0.044048373, -268985.97, -157407.75, 0.0, 9.998859, 10.000032 
2.914434e+3, 2.9860985e+2, -578232.25, -379589.53, 91963.23, -0.20508492, 0.058351215, -343552.25, -329911.94, 0.0, 9.997139, 9.999653 
2.9304898e+3, 1.3910392e+2, -1753176.3, -1372350.1, 166006.72, -0.18425266, 0.08546337, -1310146.1, 266637.16, 0.0, 9.998028, 10.00317 
2.930115e+3, 1.4909755e+2, -1464039.4, -1451536.1, -33887.4, 0.28988338, 0.024749164, -1423328.5, 55509.547, 0.0, 10.000579, 10.000755 
2.9297313e+3, 1.5909056e+2, -1341377.5, -1585379.9, 124105.27, 0.06419765, -0.05250615, -1289348.8, 91558.48, 0.0, 10.001735, 9.998664 
2.929352e+3, 1.6908179e+2, -1164538.0, -1511299.1, 212412.17, 0.14658825, -0.01885569, -1063729.3, 219268.42, 0.0, 10.002681, 9.997948 
2.9289725e+3, 1.7907248e+2, -1032811.06, -1379114.6, 315791.6, 0.16713926, -0.052548867, -845815.9, 339278.5, 0.0, 10.002706, 9.998268 
2.9285944e+3, 1.8906642e+2, -884187.1, -965743.7, 211919.66, 0.11601804, 0.08341207, -709158.06, 377998.38, 0.0, 10.001972, 10.000672 
2.9282165e+3, 1.9906086e+2, -1077559.5, -1217694.4, 95779.34, 0.05439711, 0.16902377, -1028954.56, -39741.6, 0.0, 10.000684, 9.998984 
2.9278386e+3, 2.0905276e+2, -855045.75, -1163996.5, 124418.69, 0.004636842, 0.25116614, -811171.3, 80127.41, 0.0, 10.002212, 9.997839 
2.9274607e+3, 2.1904418e+2, -521348.44, -925835.9, 209538.53, -0.088881835, 0.28515932, -432372.47, 361017.5, 0.0, 10.003503, 9.998295 
2.9270843e+3, 2.290374e+2, -499177.47, -579179.1, 200186.25, -0.07080591, 0.33853465, -335034.7, 360420.4, 0.0, 10.00185, 10.000758 
2.9267076e+3, 2.3903075e+2, -770664.25, -723225.8, 128345.414, -0.07832619, 0.29375976, -616426.25, -18909.736, 0.0, 9.99942, 10.000348 
2.92633e+3, 2.4902338e+2, -594223.56, -495356.47, 60400.082, -0.045016523, 0.19271606, -466739.75, 32844.35, 0.0, 9.999774, 10.000933 
2.9259518e+3, 2.5901583e+2, -372529.94, -399507.72, 4319.2983, 0.0013554783, 0.028937792, -371855.25, 29797.898, 0.0, 10.000694, 10.000579 
2.9255703e+3, 2.690095e+2, -150633.61, -110554.086, 4985.9263, -0.121472664, -0.016310342, -109943.15, 193767.27, 0.0, 10.001226, 10.001481 
2.9251882e+3, 2.7900305e+2, -36657.168, -174342.27, -3431.7322, -0.26204222, -0.12689413, -36571.684, 169197.9, 0.0, 10.001819, 10.000235 
2.9248163e+3, 2.8899664e+2, -5409.7495, -195609.28, 3076.0847, 0.5988714, -0.016498305, -5360.013, 102479.28, 0.0, 10.001894, 9.999324 
2.924422e+3, 2.9899073e+2, -91387.086, -286115.44, 84508.445, -0.65469843, 0.13917474, -59827.02, -49915.543, 0.0, 10.000757, 9.998658 
2.9404795e+3, 1.394828e+2, -1731587.8, -1222199.6, 183226.78, -0.363487, 0.10145687, -1163140.4, 409931.44, 0.0, 9.997545, 10.004455 
2.9401082e+3, 1.4947711e+2, -1555323.3, -1274129.4, -53114.1, 0.30517077, -0.07093065, -1264431.3, 210685.92, 0.0, 9.99907, 10.002681 
2.9397294e+3, 1.5947239e+2, -1303095.8, -1389370.9, -29733.14, 0.39006802, -0.12441769, -1293841.5, 83319.445, 0.0, 10.00131, 10.000199 
2.9393482e+3, 1.6946581e+2, -1095663.6, -1297598.1, 34652.633, 0.20723619, -0.04257724, -1089882.6, 189343.17, 0.0, 10.002478, 9.999458 
2.938966e+3, 1.7945814e+2, -1163397.4, -1555266.5, 111335.17, -0.08121158, -0.045560624, -1133974.8, 47328.023, 0.0, 10.0023775, 9.997168 
2.9385883e+3, 1.8944956e+2, -1173203.1, -1546602.6, 62934.883, 0.0071947873, 0.13047442, -1162881.1, -79486.37, 0.0, 10.001958, 9.996661 
2.9382116e+3, 1.9944063e+2, -1234849.0, -1490011.9, 58434.293, 0.226453, 0.215446, -1222103.6, -236613.61, 0.0, 10.000562, 9.99715 
2.9378334e+3, 2.0943028e+2, -769531.94, -903122.7, 153467.86, -0.018834991, -0.032134887, -668953.44, 218637.13, 0.0, 10.0019455, 9.999704 
2.937455e+3, 2.1942e+2, -740921.06, -1033786.0, 151235.03, -0.29222044, -0.33373842, -676843.44, 112846.305, 0.0, 10.002095, 9.998223 
2.9370788e+3, 2.2941484e+2, -687245.06, -774660.06, 87043.54, -0.0665443, -0.052989334, -633551.7, 58191.414, 0.0, 10.001185, 9.9996195 
2.9367027e+3, 2.3941004e+2, -1007694.6, -974486.5, 86126.4, 0.18719533, 0.16729654, -903378.2, -309585.2, 0.0, 9.99856, 9.998964 
2.9363224e+3, 2.4940175e+2, -720955.94, -572571.75, 100287.22, -0.08940111, 0.028106472, -522016.1, -26143.307, 0.0, 9.999175, 10.000592 
2.9359415e+3, 2.5939348e+2, -628945.4, -548707.5, 45403.832, -0.3614195, -0.2046317, -528237.4, -130285.71, 0.0, 9.9992485, 10.000203 
2.9355636e+3, 2.6939026e+2, -217654.9, -87757.78, 31702.576, -0.18838611, 0.030355407, -80433.46, 219551.64, 0.0, 10.000604, 10.001931 
2.9351854e+3, 2.7938727e+2, -257845.58, -302244.28, 20678.754, -0.051932167, 0.21677409, -249706.47, -47689.426, 0.0, 10.000542, 9.999947 
2.9348025e+3, 2.8938106e+2, -74082.65, -193239.11, -6413.5024, -0.26460055, 0.33897412, -73738.445, 30347.156, 0.0, 10.001469, 9.99946 
2.934418e+3, 2.9937387e+2, -247026.6, -283828.25, -10103.815, -0.50472546, 0.35091916, -244435.1, -238268.25, 0.0, 9.999694, 9.999074 
2.950474e+3, 1.3986099e+2, -1913336.3, -1355628.5, -195870.27, -0.06328166, 0.14191957, -1293711.6, 275649.88, 0.0, 9.996436, 10.00412 
2.9501018e+3, 1.4985147e+2, -1922775.3, -1713262.8, -61434.953, 0.5129145, -0.24425861, -1696577.1, -225126.23, 0.0, 9.997674, 10.0003605 
2.949721e+3, 1.5984732e+2, -1414392.9, -1523500.5, -180722.95, 0.08672321, -0.04600673, -1280169.3, 93325.375, 0.0, 10.000812, 9.999567 
2.9493424e+3, 1.6984218e+2, -1047348.25, -1180410.3, -229207.19, 0.07422, 0.099177815, -875211.5, 400334.13, 0.0, 10.002283, 10.000418 
2.9489625e+3, 1.798361e+2, -1039623.0, -1395354.1, -189718.53, -0.07237665, 0.15280008, -957432.25, 220173.56, 0.0, 10.002675, 9.998161 
2.9485837e+3, 1.8982561e+2, -1009087.44, -1426957.6, -154682.9, -0.004500687, 0.044920664, -958059.7, 121651.375, 0.0, 10.0028, 9.997117 
2.948206e+3, 1.9981508e+2, -901032.4, -1241322.6, -3201.6917, 0.103690736, -0.07321021, -901002.25, 80815.28, 0.0, 10.002335, 9.998042 
2.9478285e+3, 2.0980877e+2, -594247.9, -736200.9, 81899.875, -0.099867806, -0.007540381, -556848.9, 327032.8, 0.0, 10.002632, 10.000602 
2.9474503e+3, 2.1980241e+2, -585701.25, -842878.25, 4474.5327, -0.3622962, 0.010004745, -585623.44, 200321.97, 0.0, 10.002487, 9.999394 
2.9470733e+3, 2.2979616e+2, -535156.25, -688932.2, -49530.734, -0.11772302, 0.119782336, -520583.53, 167426.81, 0.0, 10.00211, 9.999796 
2.946696e+3, 2.3979004e+2, -486089.5, -614108.6, 459.2848, 0.14629859, 0.1915611, -486087.84, 103985.76, 0.0, 10.001534, 10.000032 
2.9463157e+3, 2.4978277e+2, -485077.8, -408427.6, 100925.41, -0.031616688, 0.075733, -338795.53, 153346.73, 0.0, 10.00039, 10.0012455 
2.9459354e+3, 2.597754e+2, -526502.06, -405280.97, 102451.53, -0.2483877, -0.098047584, -346853.9, 47358.04, 0.0, 9.9993305, 10.001232 
2.9455572e+3, 2.697721e+2, -423441.4, -160311.72, 92841.164, -0.1053427, 0.082665026, -130852.375, 165395.16, 0.0, 9.998937, 10.002301 
2.9451782e+3, 2.7976948e+2, -430247.56, -302236.44, 85889.68, -0.05921748, 0.29813385, -259126.42, -60848.35, 0.0, 9.998845, 10.000808 
2.944792e+3, 2.897635e+2, -103256.24, -171683.55, 129531.16, -0.70738786, 0.38717544, -3496.408, 96845.35, 0.0, 10.000925, 9.99998 
2.9444176e+3, 2.9975697e+2, 341366.2, 62571.316, 40385.313, -0.0119688595, 0.47290388, 347098.4, 349511.16, 0.0, 10.003104, 9.999928 
2.9604694e+3, 1.4023761e+2, -1557628.0, -1306611.4, -274770.75, 0.4804239, 0.0074508847, -1130041.4, 435627.06, 0.00000000001490612, 9.99948, 10.002976 
2.960095e+3, 1.5022573e+2, -1646179.8, -1845457.4, 188492.56, 0.69929, -0.39013064, -1532611.4, -64824.574, 0.0, 10.000784, 9.99794 
2.9597118e+3, 1.6022134e+2, -1456036.3, -1664183.8, 69453.42, -0.20334035, 0.017564088, -1434989.6, -65151.758, 0.0, 10.001079, 9.998466 
2.9593366e+3, 1.7021702e+2, -1066938.8, -1125146.3, -56615.207, -0.022088036, 0.24029756, -1032384.7, 239497.81, 0.0, 10.001906, 10.000962 
2.95896e+3, 1.8021162e+2, -1105134.3, -1318455.0, -74003.27, 0.12838148, 0.3032156, -1081975.9, 91960.01, 0.0, 10.001828, 9.999087 
2.9585797e+3, 1.9019975e+2, -999453.0, -1217438.3, -78208.12, 0.036126994, -0.102803506, -974296.8, 101750.87, 0.0, 10.002106, 9.998828 
2.9582006e+3, 2.0018844e+2, -1057072.5, -1255035.6, 73691.805, 0.03441271, -0.44104686, -1032652.94, -54497.32, 0.0, 10.00111, 9.998518 
2.957824e+3, 2.1018803e+2, -737630.1, -744094.8, 156348.23, -0.124250695, 0.17287335, -584480.8, 295687.7, 0.0, 10.00155, 10.000987 
2.957446e+3, 2.2018738e+2, -853325.0, -955972.75, 45303.145, -0.28700167, 0.7098462, -836190.75, -54006.5, 0.0, 10.000767, 9.999384 
2.9570675e+3, 2.3017867e+2, -632232.44, -662526.6, -28838.441, -0.18289827, 0.52375054, -614805.2, 69468.12, 0.0, 10.001212, 10.000366 
2.956689e+3, 2.4016999e+2, -680083.6, -638524.2, -7783.233, 0.0041572475, 0.25650382, -637114.4, -50754.35, 0.0, 10.000018, 10.00059 
2.9563105e+3, 2.501653e+2, -464132.16, -229518.28, 58715.234, 0.12628156, 0.26618057, -215644.44, 272756.38, 0.0, 9.999914, 10.0026455 
2.955932e+3, 2.601605e+2, -698717.75, -475244.88, 80440.75, 0.19517143, 0.21980152, -449301.47, -58858.33, 0.0, 9.99825, 10.001221 
2.9555503e+3, 2.7015498e+2, -516001.8, -199843.34, 76459.87, -0.009303773, 0.16756386, -182323.16, 110176.03, 0.0, 9.998408, 10.0022 
2.9551673e+3, 2.801498e+2, -620961.75, -398979.63, 116733.14, -0.347601, 0.12030166, -348894.2, -154341.9, 0.0, 9.997721, 10.000637 
2.954786e+3, 2.9014468e+2, -85647.45, -25082.172, 218736.73, -0.7003315, 0.18474406, 165458.19, 262059.11, 0.0, 10.000617, 10.001041 
2.9544133e+3, 3.0013713e+2, 177799.94, -37900.16, 146690.58, -0.14881231, 0.06395596, 252020.64, 252020.64, 0.0, 10.002291, 9.99957 
2.9704615e+3, 1.4061812e+2, -1255043.3, -1411192.0, -7377.4453, 0.12020773, -0.02360123, -1254695.5, 307253.53, 0.00000010737005, 10.002595, 10.000768 
2.970089e+3, 1.5060782e+2, -1199098.4, -1527520.5, 279539.84, 0.45802665, -0.27890062, -1039106.1, 424940.06, 0.0, 10.003367, 9.998889 
2.9697037e+3, 1.6060273e+2, -1367513.8, -1654047.3, 253668.83, -0.6026806, 0.034667145, -1219450.4, 146645.19, 0.0, 10.001769, 9.998218 
2.96933e+3, 1.7059574e+2, -1155009.9, -1321146.8, 143563.23, -0.2330992, 0.112359315, -1072214.6, 195953.7, 0.0, 10.001924, 9.999632 
2.968955e+3, 1.8058833e+2, -1052266.3, -1254153.4, 52000.47, 0.06678395, 0.09678526, -1039659.6, 130584.82, 0.0, 10.001938, 9.999495 
2.9685754e+3, 1.9058034e+2, -910184.94, -1005428.8, 23897.033, 0.09520948, -0.036612786, -904525.4, 167796.25, 0.0, 10.001857, 10.000469 
2.9681957e+3, 2.0057225e+2, -973165.06, -1067373.3, 182526.1, 0.07469286, -0.18141611, -831763.0, 142636.7, 0.0, 10.000892, 9.999961 
2.9678175e+3, 2.1056798e+2, -906566.75, -822105.25, 269006.94, -0.13682596, 0.02435284, -592034.4, 284411.34, 0.0, 10.000308, 10.001087 
2.9674393e+3, 2.2056438e+2, -929187.1, -923316.56, 164475.22, -0.35324368, 0.27665055, -761750.44, 16736.129, 0.0, 9.999795, 10.000126 
2.9670614e+3, 2.3055756e+2, -703280.94, -700257.2, 102301.484, -0.18813416, 0.26953635, -599456.44, 81101.88, 0.0, 10.000554, 10.000522 
2.9666826e+3, 2.405505e+2, -481916.13, -507657.53, 79261.66, -0.02827853, 0.18501194, -414487.0, 168144.02, 0.0, 10.001045, 10.00104 
2.966303e+3, 2.5054634e+2, -348643.03, -207145.55, 44834.59, 0.004587215, 0.26373917, -194135.55, 290534.97, 0.0, 10.000722, 10.002461 
2.965923e+3, 2.6054236e+2, -334801.7, -264209.5, -19880.805, 0.023745073, 0.33032554, -258995.6, 127711.5, 0.0, 10.000409, 10.001662 
2.9655424e+3, 2.705369e+2, -127925.65, -53172.223, -5907.456, -0.082711816, 0.28498286, -52708.26, 236052.13, 0.0, 10.001051, 10.002037 
2.9651603e+3, 2.8053123e+2, -11004.059, -53964.254, 40177.973, -0.3421768, 0.21556199, 13075.3, 203890.67, 0.0, 10.001453, 10.001291 
2.9647815e+3, 2.9052687e+2, 23494.916, 84858.11, 96757.336, -0.5638168, 0.28976434, 155681.89, 248534.97, 0.0, 10.000988, 10.001711 
2.9644066e+3, 3.0051783e+2, -65689.0, -190241.19, -52839.664, -0.30136082, 0.017617453, -46292.934, -46292.934, 0.0, 10.000607, 9.9994 
2.980457e+3, 1.4100103e+2, -1828962.3, -1826061.8, 139473.27, 0.09244094, 0.22293413, -1688031.3, -129823.4, 0.00000019973128, 9.999255, 9.999555 
2.980083e+3, 1.5099129e+2, -1200326.0, -1381211.8, 152721.42, 0.19600467, -0.047993314, -1113276.0, 347017.66, 0.000000000008976791, 10.002772, 10.000188 
2.9796973e+3, 1.6098505e+2, -1225841.3, -1634007.4, 123003.81, -0.76812816, 0.044618156, -1191639.1, 170706.55, 0.0, 10.002995, 9.997795 
2.979324e+3, 1.709755e+2, -1205482.0, -1500666.0, 101891.58, -0.31889808, -0.02216291, -1173727.1, 90716.59, 0.0, 10.002322, 9.998206 
2.9789504e+3, 1.8096635e+2, -1250648.5, -1396844.3, 62557.734, 0.1188718, -0.1035181, -1227534.3, -60995.09, 0.0, 10.000843, 9.999065 
2.9785714e+3, 1.9096333e+2, -1025794.2, -912921.44, -26684.934, 0.23295501, 0.1762219, -906930.7, 161642.27, 0.0, 10.000508, 10.001748 
2.9781914e+3, 2.0095944e+2, -1187303.3, -1111992.1, 98026.55, 0.2654602, 0.3161618, -1044637.44, -74024.17, 0.0, 9.999263, 10.000435 
2.9778114e+3, 2.1094786e+2, -937170.94, -869163.0, 191227.03, -0.11596091, -0.23069264, -708940.1, 163782.5, 0.0, 10.000208, 10.000833 
2.977432e+3, 2.2093831e+2, -1050859.0, -1021978.8, 126924.484, -0.3469623, -0.5730718, -908675.7, -133861.92, 0.0, 9.999234, 9.99972 
2.9770553e+3, 2.3093578e+2, -869885.2, -750692.5, 99753.5, -0.10705122, -0.1758253, -694088.7, -17244.332, 0.0, 9.999456, 10.000643 
2.976677e+3, 2.4093214e+2, -950826.75, -888789.9, 74471.99, 0.04233203, 0.116019845, -839134.75, -260248.31, 0.0, 9.998657, 9.999553 
2.9762933e+3, 2.5092673e+2, -635680.44, -474602.03, 28319.398, -0.31526655, 0.1963096, -469768.22, 11176.195, 0.0, 9.999494, 10.00116 
2.9759106e+3, 2.6092184e+2, -667984.56, -581405.6, 10503.6875, -0.5483083, 0.31080505, -580149.5, -197154.36, 0.0, 9.998957, 10.000169 
2.9755348e+3, 2.7091792e+2, -224975.1, -96421.15, 18197.371, -0.24384966, 0.4456322, -93894.88, 191136.5, 0.0, 10.000543, 10.001928 
2.9751572e+3, 2.8091356e+2, -282274.2, -281982.0, 34723.99, -0.11545845, 0.5198451, -247403.78, -60333.36, 0.0, 10.000206, 10.000304 
2.9747775e+3, 2.909092e+2, -155475.77, -40614.56, 46852.55, -0.36291814, 0.6470881, -23927.447, 65179.86, 0.0, 10.000115, 10.001225 
2.9743987e+3, 3.0089784e+2, -333294.63, -385548.44, 25321.875, -0.51332766, 0.18352635, -323037.3, -323037.3, 0.0, 9.999378, 9.998578 
2.990455e+3, 1.4138389e+2, -2211270.3, -1795051.9, 414629.53, 0.7255939, 0.7967002, -1539235.3, 15230.894, 0.000000019519112, 9.995734, 10.001528 
2.9900745e+3, 1.51371e+2, -1352874.0, -1452653.1, 156823.19, -0.24122043, 0.16680536, -1238196.0, 218396.56, 0.0, 10.001748, 10.000243 
2.9897007e+3, 1.6136009e+2, -1021911.75, -1446125.6, -4647.35, -0.23640242, -0.23108947, -1021860.9, 336835.6, 0.0, 10.003972, 9.998637 
2.9893255e+3, 1.7135367e+2, -1129838.1, -1310362.0, -51457.742, 0.23068482, -0.1130309, -1116200.5, 144554.72, 0.0, 10.002165, 9.999607 
2.9889476e+3, 1.8134834e+2, -1375234.5, -1400895.6, -20635.43, 0.39992666, 0.0890012, -1363766.0, -200960.22, 0.0, 9.999723, 9.999583 
2.9885638e+3, 1.9134443e+2, -1354054.8, -1183767.4, -126868.16, 0.20279962, 0.35766965, -1116120.5, -51271.94, 0.0, 9.998748, 10.000764 
2.988182e+3, 2.013408e+2, -1414901.6, -1204692.1, -6621.176, 0.06593047, 0.6130366, -1204483.9, -237595.97, 0.0, 9.997555, 10.000641 
2.987804e+3, 2.1133544e+2, -768828.0, -704130.6, 138294.33, -0.24174845, 0.6237524, -594452.0, 274487.7, 0.0, 10.000937, 10.00166 
2.987425e+3, 2.2132821e+2, -425710.38, -607653.1, -46690.324, -0.56045586, 0.45242628, -414428.25, 356580.03, 0.0, 10.002873, 10.000862 
2.987045e+3, 2.3132156e+2, -882308.9, -684127.5, -114306.68, -0.38152036, 0.3627108, -631940.4, 41130.418, 0.0, 9.99891, 10.00146 
2.9866657e+3, 2.4131645e+2, -1219751.5, -869973.7, 8504.253, -0.17552856, 0.41399136, -869767.06, -294647.13, 0.0, 9.996015, 10.001021 
2.9862863e+3, 2.5131005e+2, -760504.4, -514268.38, 111174.56, -0.20222278, 0.35180804, -471501.4, 5683.3926, 0.0, 9.998453, 10.001464 
2.985907e+3, 2.6130286e+2, -411031.9, -453254.38, 160275.03, -0.25807682, 0.24901414, -270483.72, 108773.305, 0.0, 10.000514, 10.000385 
2.9855314e+3, 2.712959e+2, -58448.64, -118713.125, 148110.94, -0.022425551, 0.18878116, 62564.082, 343885.66, 0.0, 10.00205, 10.001171 
2.9851538e+3, 2.812895e+2, 131125.19, -171747.64, 55612.543, 0.017221322, 0.18244389, 141013.73, 324395.3, 0.0, 10.003267, 9.999716 
2.98477e+3, 2.912785e+2, 1823.4097, -141978.63, -51657.996, -0.47107807, -0.21090516, 18456.596, 103946.914, 0.0, 10.001815, 9.999927 
2.9843917e+3, 3.0126995e+2, -40265.574, -34080.84, 152037.02, -0.52894133, -0.31192073, 114895.24, 114895.24, 0.0, 10.00014, 10.000905 
3.0004445e+3, 1.417522e+2, -1670978.0, -1565201.0, -107344.734, 0.50809085, 0.35541824, -1498423.0, 52449.64, 0.0, 9.999354, 10.001417 
3.0000678e+3, 1.5175094e+2, -1654104.4, -1584749.3, -263457.7, -0.3143102, 0.79764575, -1353696.8, 99201.65, 0.0, 9.999636, 10.000273 
2.9997045e+3, 1.617493e+2, -1364743.1, -1412369.3, -379988.4, 0.46780258, 1.189688, -1007822.4, 347096.34, 0.0, 10.000636, 10.000436 
2.9993168e+3, 1.7174108e+2, -645846.9, -746397.5, -198992.5, -0.1674862, 0.77460694, -490876.9, 766105.6, 0.0, 10.004019, 10.002459 
2.9989335e+3, 1.8173307e+2, -595218.56, -1105942.3, 23263.643, -0.42422354, 0.49742457, -594161.06, 564887.25, 0.0, 10.005311, 9.998906 
2.9985532e+3, 1.917242e+2, -1002899.3, -1197715.8, -66297.1, -0.061609987, 0.3582554, -982478.56, 78657.95, 0.0, 10.001868, 9.999079 
2.998173e+3, 2.0171373e+2, -1238790.5, -1318039.1, 241811.63, 0.0017060931, 0.12603445, -1033378.2, -70134.96, 0.0, 9.9995365, 9.9988785 
2.9978004e+3, 2.1171352e+2, -887145.9, -649484.06, 413455.63, -0.040597826, 0.5968302, -338121.6, 527131.4, 0.0, 9.999701, 10.00248 
2.997423e+3, 2.2171217e+2, -686833.25, -742175.8, 18793.42, -0.34754995, 0.96780694, -681054.7, 86213.875, 0.0, 10.001129, 10.000713 
2.9970384e+3, 2.31698e+2, -25102.467, -151734.95, -59394.414, -0.23167486, 0.019319654, -1604.8685, 667788.44, 0.0, 10.004367, 10.002313 
2.9966545e+3, 2.4169505e+2, -163273.31, -369616.44, 199298.6, -0.26473778, 0.194024, -42024.95, 529385.1, 0.0, 10.003365, 10.000821 
2.9962742e+3, 2.5169194e+2, 14101.9795, -106587.195, 86680.8, -0.5908792, 0.38546404, 59374.77, 532810.9, 0.0, 10.003713, 10.00154 
2.9959026e+3, 2.6168233e+2, -423058.5, -615934.7, -278896.34, -0.10884574, -0.021424437, -224397.5, 151128.4, 0.0, 10.001191, 9.998832 
2.9955277e+3, 2.7167603e+2, -16258.058, -247923.78, 27563.998, 0.10390049, 0.034708995, -13023.604, 264559.0, 0.0, 10.003206, 9.9994755 
2.99515e+3, 2.8166687e+2, -826550.56, -1002756.94, 101149.08, -0.01242061, -0.05424287, -780514.6, -600842.25, 0.0, 9.9983835, 9.996256 
2.9947615e+3, 2.9166067e+2, -412374.3, -658164.56, 46764.176, -0.7613712, 0.2936089, -403777.63, -322028.34, 0.0, 10.000616, 9.996722 
2.9943916e+3, 3.0165446e+2, 419150.44, 872670.2, -71086.97, 0.1135597, 0.40206152, 883551.6, 883551.6, 0.0, 10.000673, 10.006663 
