coord_x,coord_y,stress_xx,stress_yy,tau_xy,velocity_x,velocity_y,stress_1,eps,damage,lx,ly
4.9981627e+0, 1.2635121e+2, -2086583.5, -2060323.1, -39568.05, -0.09211923, 0.25957447, -2031763.6, -329987.8, 0.0013838684, 9.998143, 9.998518 
4.9998274e+0, 1.3634948e+2, -1745741.6, -1626933.4, 5271.315, 0.038305316, 0.058630936, -1626699.9, -22898.863, 0.00083884824, 9.9988785, 10.0004635 
5.0003743e+0, 1.4635223e+2, -1533222.9, -1405531.9, -6492.215, 0.068315014, 0.24378803, -1405202.6, 100570.35, 0.00038804737, 9.999372, 10.001067 
5.000172e+0, 1.5635473e+2, -1410663.5, -1338579.3, -50140.176, 0.030296713, 0.38387915, -1312871.4, 94870.43, 0.00011853608, 9.999726, 10.000681 
4.99997e+0, 1.6635293e+2, -1418402.6, -1502140.6, -42263.348, 0.0010164718, 0.2446177, -1400780.4, -91026.51, 0.000016042439, 9.999909, 9.998801 
4.9997973e+0, 1.7634839e+2, -1308072.8, -1397139.6, -834.49133, -0.020300739, -0.102827065, -1308064.9, -96270.82, 0.00000013955699, 9.99999, 9.99881 
4.999968e+0, 1.863476e+2, -1193276.8, -1303097.4, 12758.194, -0.011679356, -0.05423734, -1191814.0, -78010.37, 0.0, 10.000159, 9.998703 
5.000332e+0, 1.9634916e+2, -1065755.0, -1193457.4, 1882.6644, 0.014121124, 0.21936332, -1065727.3, -49932.86, 0.0, 10.000374, 9.998679 
5.000564e+0, 2.0634778e+2, -956696.7, -1110279.1, 3387.3374, 0.02914275, 0.22674079, -956622.0, -38813.91, 0.0, 10.000536, 9.998497 
5.000717e+0, 2.1634461e+2, -839773.0, -1005655.8, 9443.765, 0.037491668, 0.04644691, -839237.06, -19400.844, 0.0, 10.000677, 9.998475 
5.000702e+0, 2.2634353e+2, -715988.4, -919155.0, 15119.775, 0.021939132, 0.10488512, -714869.3, 6976.9746, 0.0, 10.0009575, 9.9982605 
5.000581e+0, 2.3634364e+2, -569535.7, -804228.3, 7963.1675, -0.008069672, 0.27833048, -569265.8, 54580.242, 0.0, 10.001318, 9.998203 
5.000653e+0, 2.4634114e+2, -496946.28, -768836.4, 3956.9067, -0.0030279073, 0.234084, -496888.72, 28981.334, 0.0, 10.001359, 9.997755 
5.0008357e+0, 2.5633705e+2, -415791.78, -672421.6, 10923.102, 0.022367517, 0.03471499, -415327.72, 12581.166, 0.0, 10.001215, 9.997813 
5.000743e+0, 2.663347e+2, -267867.3, -509961.1, 17143.92, 0.0047739674, 0.0050511765, -266659.28, 63272.78, 0.0, 10.001384, 9.998175 
5.000499e+0, 2.763336e+2, -119190.66, -388784.8, 3293.9387, -0.03746119, 0.061875742, -119150.414, 112794.695, 0.0000000003138508, 10.001739, 9.998161 
5.000721e+0, 2.86333e+2, -29808.652, -340729.38, -7485.0503, -0.022054728, 0.20935272, -29628.563, 104324.836, 0.0000002419935, 10.001876, 9.997752 
5.0012183e+0, 2.9633242e+2, 60787.688, -259714.48, -9945.595, 0.027309038, 0.36481, 61096.016, 97058.03, 0.000011172337, 10.001881, 9.997633 
5.001102e+0, 3.063278e+2, 47680.016, -318200.88, 30951.156, 0.020481136, 0.17972672, 50279.81, 50279.81, 0.00010028727, 10.001787, 9.996947 
5.00064e+0, 3.1632584e+2, 91402.53, -186128.08, 99650.85, -0.017068597, 0.279163, 123476.63, 123476.63, 0.00033700236, 10.001601, 9.997945 
1.4994457e+1, 1.2634961e+2, -1996071.9, -1864342.4, -18039.96, -0.279934, 0.24514583, -1861916.5, -160119.58, 0.0013567447, 9.998114, 9.999879 
1.4999482e+1, 1.3635121e+2, -1677443.1, -1481875.8, 31496.11, 0.114843935, 0.25133038, -1476928.5, 126853.76, 0.00082020013, 9.998869, 10.001468 
1.500112e+1, 1.4635248e+2, -1611927.0, -1564500.3, 4578.587, 0.20497347, 0.30679274, -1564062.3, -58294.254, 0.00037697676, 9.999355, 9.999987 
1.5000515e+1, 1.563506e+2, -1468800.0, -1455810.3, -37280.227, 0.09070262, 0.122550875, -1424463.4, -16680.223, 0.00011338852, 9.999713, 9.9998865 
1.4999914e+1, 1.6635025e+2, -1339594.9, -1334561.8, -41029.76, 0.0034554908, 0.094202824, -1295971.5, 13811.863, 0.000014715236, 9.999893, 9.999961 
1.4999396e+1, 1.7635068e+2, -1242711.1, -1257327.1, 3430.4006, -0.060765542, 0.13520046, -1241946.0, -30170.498, 0.00000010097208, 9.999974, 9.999779 
1.4999902e+1, 1.8635012e+2, -1213737.0, -1340008.4, 19099.008, -0.035128236, 0.17710464, -1210911.5, -97129.445, 0.0, 10.000137, 9.99846 
1.5000993e+1, 1.96349e+2, -1081040.0, -1220590.5, 10522.036, 0.04211686, 0.2095897, -1080251.1, -64454.29, 0.0, 10.000356, 9.998502 
1.5001689e+1, 2.0634748e+2, -943665.6, -1079045.6, 6632.781, 0.08710883, 0.19512798, -943341.44, -25530.84, 0.0, 10.00052, 9.998722 
1.5002155e+1, 2.1634567e+2, -830682.4, -982328.7, 17414.111, 0.112884566, 0.13622831, -828708.3, -8884.175, 0.0, 10.000659, 9.998647 
1.5002097e+1, 2.2634365e+2, -725238.5, -933122.06, 27148.771, 0.064915836, 0.09723243, -721751.44, 90.71524, 0.0, 10.000938, 9.998175 
1.5001744e+1, 2.363415e+2, -575732.06, -813269.4, 20505.244, -0.024522506, 0.057865415, -573975.0, 49887.785, 0.0, 10.001303, 9.99815 
1.5001956e+1, 2.463397e+2, -485499.47, -740500.4, -3694.3535, -0.009652957, 0.072687894, -485445.97, 40435.79, 0.0, 10.001342, 9.99796 
1.5002501e+1, 2.5633803e+2, -407921.03, -650813.94, 8885.314, 0.06657504, 0.10477049, -407596.44, 20303.373, 0.0, 10.001194, 9.997973 
1.5002233e+1, 2.6633653e+2, -289178.5, -550738.44, 29081.686, 0.014341427, 0.15785994, -285984.06, 43932.902, 0.0, 10.001369, 9.997903 
1.5001492e+1, 2.763351e+2, -141832.14, -430869.38, 15924.747, -0.11306755, 0.21822883, -140957.4, 90975.625, 0.0, 10.001719, 9.997883 
1.5002167e+1, 2.8633335e+2, -34714.47, -346534.78, -8880.525, -0.065897144, 0.26536164, -34461.76, 99490.32, 0.0000001217643, 10.001859, 9.997723 
1.5003651e+1, 2.963312e+2, 75575.96, -224992.89, -8874.598, 0.08129873, 0.26978546, 75837.76, 111812.67, 0.0000103094735, 10.001865, 9.997882 
1.500331e+1, 3.063275e+2, 172282.6, -53854.195, 22837.85, 0.062145416, 0.058170278, 174565.95, 174565.95, 0.00009563605, 10.001769, 9.998774 
1.5001911e+1, 3.1632802e+2, 199900.95, 49119.246, 102739.17, -0.052338365, 0.23325837, 251942.9, 251942.9, 0.00032539197, 10.001565, 9.99958 
2.499398e+1, 1.2634815e+2, -1887184.6, -1718874.6, -30214.088, -0.15631336, 0.27556422, -1713615.0, -11799.315, 0.0013173001, 9.99847, 10.000706 
2.4997893e+1, 1.3635096e+2, -1737469.5, -1438392.6, -23250.979, 0.105142124, 0.3245875, -1436595.9, 167188.0, 0.0007929643, 9.998152, 10.002114 
2.499943e+1, 1.4635189e+2, -1833956.4, -1705881.6, -24587.111, 0.16968234, 0.3356342, -1701323.8, -195551.48, 0.0003608832, 9.997979, 9.999681 
2.4999304e+1, 1.5634862e+2, -1746664.0, -1614517.4, -6366.5483, 0.08824677, 0.04065984, -1614211.4, -206408.55, 0.00010595725, 9.997914, 9.999664 
2.4999484e+1, 1.6634879e+2, -1493750.5, -1375465.9, -6574.9624, 0.031419676, 0.057220552, -1375101.5, -65301.934, 0.000012859101, 9.998693, 10.000258 
2.4999937e+1, 1.7635088e+2, -1222764.6, -1213012.6, -28868.635, -0.0029127898, 0.23484746, -1188611.1, 23165.805, 0.00000006033416, 9.999964, 10.000089 
2.50006e+1, 1.8635048e+2, -1125999.1, -1252554.6, -19408.205, 0.0009770816, 0.2558929, -1123089.6, -9309.628, 0.0, 10.000545, 9.998864 
2.5001365e+1, 1.9634861e+2, -1004863.6, -1147723.9, 18617.063, 0.02578283, 0.17241305, -1002477.4, 13320.912, 0.0, 10.000723, 9.998825 
2.5002298e+1, 2.0634702e+2, -878765.06, -1069377.5, 19656.715, 0.06914043, 0.14957537, -876759.1, 41052.996, 0.0, 10.001058, 9.998529 
2.5003302e+1, 2.1634556e+2, -724037.8, -946885.44, -4502.966, 0.122287914, 0.14393708, -723946.9, 95876.81, 0.0, 10.00146, 9.998504 
2.500331e+1, 2.263433e+2, -705379.94, -911281.44, -9919.553, 0.088857725, 0.08057049, -704903.2, 16940.95, 0.0, 10.001018, 9.998289 
2.500274e+1, 2.363406e+2, -744700.75, -880227.4, 1350.1458, 0.006095083, -0.028517887, -744687.3, -120817.87, 0.0, 10.00008, 9.998281 
2.50031e+1, 2.4633941e+2, -623330.8, -783266.1, 9894.014, 0.023550475, 0.033360954, -622721.06, -96838.22, 0.0, 10.000292, 9.998171 
2.5004008e+1, 2.563391e+2, -396601.8, -626149.56, 20173.328, 0.09870114, 0.17520238, -394842.4, 33047.207, 0.0, 10.001189, 9.998144 
2.500366e+1, 2.6633742e+2, -289026.3, -566471.0, 40717.82, 0.016857505, 0.21652567, -283174.0, 46734.086, 0.0, 10.001441, 9.99776 
2.5002575e+1, 2.76335e+2, -209107.25, -478443.7, 37572.5, -0.15633349, 0.18946266, -203964.1, 27969.229, 0.0, 10.001321, 9.99775 
2.5003356e+1, 2.863329e+2, -90352.695, -368572.34, 26569.816, -0.11192424, 0.20566484, -87838.02, 46117.27, 0.000000049416002, 10.001455, 9.997766 
2.5005198e+1, 2.9633084e+2, 62584.57, -219970.66, 28084.55, 0.056724396, 0.2124966, 65348.984, 101326.03, 0.000009204058, 10.001729, 9.997982 
2.5004894e+1, 3.063278e+2, 217475.33, 19482.178, -6289.97, 0.039456405, 0.037641108, 217674.95, 217674.95, 0.00008931026, 10.001864, 9.999231 
2.5003415e+1, 3.1632924e+2, 272806.94, 120730.52, -27589.438, -0.07463224, 0.26038298, 277657.47, 277657.47, 0.00030907578, 10.001918, 9.999901 
3.499671e+1, 1.2634677e+2, -1866044.3, -1672806.3, -47412.04, 0.26199982, 0.34142736, -1661800.3, 40032.57, 0.0012647449, 9.998463, 10.001026 
3.499505e+1, 1.3634872e+2, -1715239.9, -1392911.0, -33503.355, 0.0032266888, 0.2800769, -1389465.5, 214340.64, 0.0007565008, 9.998156, 10.002425 
3.4995288e+1, 1.4635043e+2, -1799706.3, -1631511.5, -29414.207, -0.045932245, 0.32627785, -1626515.9, -120730.125, 0.00033951344, 9.997968, 10.000196 
3.4996495e+1, 1.5634876e+2, -1722892.4, -1560790.0, -1272.7277, 0.012429039, 0.14194098, -1560780.0, -152979.38, 0.000096218435, 9.997899, 10.00004 
3.499863e+1, 1.6634852e+2, -1533381.3, -1454202.9, 40429.434, 0.073480695, 0.1309868, -1437207.3, -127404.53, 0.000010539653, 9.99868, 9.999723 
3.5001364e+1, 1.7634897e+2, -1246449.1, -1260210.8, 15034.522, 0.1404619, 0.19578998, -1236795.6, -24997.354, 0.000000028001644, 9.999956, 9.999768 
3.500203e+1, 1.8634868e+2, -1052142.1, -1097529.6, -13888.777, 0.08592047, 0.18052453, -1048229.44, 65568.195, 0.0, 10.000537, 9.999933 
3.500144e+1, 1.9634797e+2, -948000.8, -1026383.56, 28211.701, -0.04300114, 0.11102399, -938902.8, 76895.914, 0.0, 10.000709, 9.999666 
3.5002342e+1, 2.0634642e+2, -923013.6, -1155629.4, 34118.418, -0.03488275, 0.08802747, -918112.6, -299.9781, 0.0, 10.001037, 9.997947 
3.5004136e+1, 2.1634428e+2, -758379.44, -1014121.94, 5799.224, 0.056150183, 0.07133815, -758248.0, 61587.047, 0.0, 10.001444, 9.99805 
3.5004315e+1, 2.2634245e+2, -682077.56, -858484.94, -47592.914, 0.08426299, 0.05044689, -670056.6, 51795.758, 0.0, 10.001, 9.998659 
3.500354e+1, 2.363409e+2, -722781.5, -831067.5, -23572.832, 0.075430326, 0.02024996, -717872.44, -94006.29, 0.0, 10.000064, 9.998626 
3.5004056e+1, 2.4634029e+2, -608355.3, -748908.5, 42911.008, 0.08652935, 0.11043988, -596290.25, -70416.56, 0.0, 10.000279, 9.998413 
3.5005328e+1, 2.5634018e+2, -384885.28, -598646.2, 50142.684, 0.10844177, 0.24995573, -373707.63, 54170.527, 0.0, 10.001177, 9.998339 
3.5004994e+1, 2.6633748e+2, -288544.28, -564625.1, 34279.855, 0.0027802214, 0.17975046, -284351.56, 45553.977, 0.0, 10.001438, 9.997774 
3.5003713e+1, 2.763333e+2, -207061.33, -470972.2, 36378.71, -0.17807059, -0.021768635, -202138.55, 29807.326, 0.0, 10.001308, 9.997807 
3.5004252e+1, 2.8633168e+2, -82796.65, -349682.78, 35821.684, -0.17117494, 0.029022912, -78072.26, 55890.668, 0.000000018573564, 10.001444, 9.9979 
3.5005805e+1, 2.9633132e+2, 59610.996, -222484.42, 38408.0, -0.05814834, 0.19461738, 64746.84, 100715.305, 0.000007882482, 10.001717, 9.99797 
3.500583e+1, 3.0632868e+2, 154268.27, -110962.945, -5299.9385, -0.055703945, 0.1138607, 154374.14, 154374.14, 0.00008167381, 10.001859, 9.99834 
3.5005102e+1, 3.1632954e+2, 203456.11, -22660.246, -19837.563, -0.10512228, 0.363828, 205183.3, 205183.3, 0.00028947127, 10.001914, 9.998918 
4.499576e+1, 1.2634568e+2, -2006318.6, -1775307.3, 69799.66, 0.36467052, 0.30488127, -1755855.3, -54016.96, 0.0012008992, 9.997647, 10.000721 
4.499346e+1, 1.3634625e+2, -1656020.4, -1399130.1, 30574.484, 0.0030374401, 0.14269334, -1395541.4, 208285.16, 0.0007119072, 9.998711, 10.002118 
4.4993657e+1, 1.4634852e+2, -1599754.6, -1511705.6, -5815.6426, -0.06842879, 0.24750806, -1511323.1, -5521.092, 0.00031359482, 9.999243, 10.000405 
4.499513e+1, 1.563484e+2, -1482994.3, -1430045.9, -2519.53, 0.00843959, 0.19809186, -1429926.3, -22122.984, 0.000084590996, 9.999479, 10.000179 
4.499778e+1, 1.6634806e+2, -1437882.6, -1435361.9, 62496.43, 0.08292835, 0.18568526, -1374113.1, -64306.35, 0.000007991499, 9.999453, 9.999483 
4.5001155e+1, 1.7634746e+2, -1358393.1, -1336427.0, 53304.43, 0.15834457, 0.16911057, -1292985.9, -81173.32, 0.000000008983813, 9.999285, 9.999569 
4.5002213e+1, 1.8634687e+2, -1233437.8, -1178241.9, -27199.676, 0.11492788, 0.13083522, -1167091.0, -53276.73, 0.0, 9.999264, 9.999994 
4.5001838e+1, 1.9634636e+2, -1143607.4, -1111177.9, -60681.363, -0.0029938575, 0.07457842, -1064582.3, -48769.152, 0.0, 9.999325, 9.999752 
4.5003113e+1, 2.0634495e+2, -1109344.1, -1219658.4, -29534.4, 0.009327043, 0.04853785, -1101934.6, -184108.95, 0.0, 9.999645, 9.998179 
4.5005375e+1, 2.1634293e+2, -934994.4, -1075380.1, -1388.5729, 0.10251737, 0.019948486, -934980.6, -115133.66, 0.0, 10.000129, 9.998262 
4.5005307e+1, 2.2634162e+2, -676932.9, -852017.25, -56164.273, 0.08332303, 0.038215376, -660465.2, 61394.96, 0.0, 10.00102, 9.998693 
4.5003855e+1, 2.3634075e+2, -418254.28, -679801.56, -61010.74, -0.0020891482, 0.07487056, -404722.5, 219145.56, 0.0, 10.002137, 9.998665 
4.5004368e+1, 2.4633992e+2, -392347.78, -640928.25, -19806.326, 0.017805543, 0.1390125, -390779.56, 135098.22, 0.0, 10.001747, 9.998448 
4.500606e+1, 2.5633904e+2, -481026.25, -633514.0, -26790.71, 0.10045008, 0.1982706, -476456.34, -48567.18, 0.0, 10.000466, 9.998444 
4.500653e+1, 2.6633677e+2, -379000.4, -544512.3, -45.912918, 0.05859288, 0.1314323, -379000.4, -49088.383, 0.0, 10.000543, 9.998344 
4.5006287e+1, 2.763337e+2, -153744.66, -391074.53, 39597.35, -0.057258274, -0.016032655, -147312.36, 84628.5, 0.0, 10.001442, 9.998293 
4.5006448e+1, 2.8633234e+2, -21583.258, -330335.38, 41049.91, -0.11830794, 0.04773606, -16218.706, 117735.91, 0.000000014301867, 10.001909, 9.99781 
4.500678e+1, 2.9633176e+2, 109120.336, -216226.55, 21355.783, -0.15215035, 0.20136116, 110516.14, 146478.13, 0.000006661399, 10.002131, 9.997815 
4.5006588e+1, 3.0632868e+2, 100415.21, -199601.97, -28784.033, -0.15855558, 0.115383334, 103151.82, 103151.82, 0.00007403837, 10.001757, 9.997783 
4.5006368e+1, 3.1632853e+2, 14463.994, -194833.06, -18325.113, -0.11973208, 0.3245938, 16056.344, 16056.344, 0.00026986096, 10.000955, 9.998204 
5.4991025e+1, 1.2634495e+2, -2069489.8, -1908579.3, 103635.43, 0.11740959, 0.17177385, -1857834.9, -156003.17, 0.0011290752, 9.997657, 9.999802 
5.499308e+1, 1.3634358e+2, -1718974.3, -1530230.4, 67640.52, 0.09130911, -0.08438248, -1508493.4, 95351.48, 0.0006616755, 9.998713, 10.001218 
5.499448e+1, 1.463462e+2, -1608737.5, -1529973.0, 3009.6887, 0.08612941, 0.10061834, -1529858.1, -24037.117, 0.0002845946, 9.999241, 10.00028 
5.499516e+1, 1.5634753e+2, -1490595.1, -1445493.9, 6691.876, 0.059058372, 0.20893683, -1444522.0, -36711.008, 0.00007188515, 9.999477, 10.000073 
5.4996884e+1, 1.6634741e+2, -1436200.8, -1429968.6, 53875.93, 0.04429271, 0.22240013, -1379118.6, -69306.95, 0.0000055425044, 9.999447, 9.999522 
5.499929e+1, 1.7634635e+2, -1366317.6, -1349336.0, 48878.25, 0.04023807, 0.15577811, -1308216.5, -96396.89, 0.00000000116644, 9.999272, 9.999485 
5.500109e+1, 1.8634509e+2, -1302144.4, -1317290.8, -26337.578, 0.07289823, 0.107162036, -1282312.9, -168482.8, 0.0, 9.999249, 9.999046 
5.5002505e+1, 1.9634375e+2, -1192056.6, -1209840.3, -55234.527, 0.12729904, 0.062430777, -1145002.8, -129161.19, 0.0, 9.999319, 9.999078 
5.500456e+1, 2.0634261e+2, -1035041.06, -1063522.6, -13161.962, 0.18629403, 0.030628435, -1029890.2, -112039.2, 0.0, 9.999638, 9.999255 
5.5006975e+1, 2.1634153e+2, -874842.4, -948030.25, 21117.17, 0.24695519, -0.008693016, -869186.5, -49327.063, 0.0, 10.000117, 9.999144 
5.500624e+1, 2.2634076e+2, -699072.75, -894978.5, -14422.474, 0.071949676, 0.043245457, -698016.6, 23850.684, 0.0, 10.001008, 9.9984045 
5.500365e+1, 2.3634018e+2, -438861.38, -720736.4, -29323.17, -0.24013877, 0.13676625, -435843.22, 188031.8, 0.0, 10.002129, 9.998389 
5.5003995e+1, 2.4633832e+2, -405436.38, -665064.9, -70361.05, -0.19737978, 0.11951171, -387594.22, 138300.92, 0.0, 10.001737, 9.998287 
5.500614e+1, 2.563357e+2, -482144.34, -632071.94, -63321.355, 0.058413602, 0.020220567, -458979.84, -31057.26, 0.0, 10.000452, 9.99846 
5.5008215e+1, 2.6633525e+2, -301266.97, -382275.25, 32750.389, 0.16908316, 0.070246875, -289683.0, 40244.59, 0.0, 10.000539, 9.999461 
5.501023e+1, 2.763361e+2, -91366.26, -258292.17, 71111.6, 0.1896527, 0.2052797, -65180.11, 166738.28, 0.0, 10.00143, 9.99921 
5.5009884e+1, 2.8633487e+2, -45828.504, -379148.75, 48322.066, 0.031213826, 0.26174456, -38964.51, 94965.81, 0.00000001499631, 10.001902, 9.997479 
5.500809e+1, 2.9633215e+2, 87953.88, -258610.0, 27389.59, -0.23803997, 0.23304111, 90105.18, 126062.72, 0.0000057668103, 10.002124, 9.997528 
5.5007136e+1, 3.063278e+2, 84140.21, -231557.89, -59765.555, -0.28205693, 0.040893145, 95075.77, 95075.77, 0.00006728702, 10.001751, 9.997566 
5.500707e+1, 3.1632623e+2, -16893.555, -255024.98, -35891.85, -0.15199187, 0.13535838, -11601.441, -11601.441, 0.00025186205, 10.000938, 9.997796 
6.498776e+1, 1.2634361e+2, -1984812.4, -1883600.6, -3159.7544, -0.004554981, 0.12928703, -1883502.1, -181661.5, 0.0010533662, 9.998304, 9.999658 
6.49919e+1, 1.3634218e+2, -1893680.3, -1639603.9, 16413.717, 0.15778773, -0.111080505, -1638547.9, -34691.95, 0.00060913287, 9.997623, 10.000987 
6.499431e+1, 1.4634474e+2, -1785202.1, -1636056.5, -6622.453, 0.20234966, 0.089998536, -1635763.0, -129929.28, 0.000254567, 9.998119, 10.000093 
6.4995277e+1, 1.5634586e+2, -1519507.6, -1475377.6, -11585.986, 0.13066457, 0.19356129, -1472520.8, -64693.848, 0.00005931439, 9.99935, 9.999928 
6.49966e+1, 1.6634567e+2, -1343422.0, -1376807.9, 18690.178, 0.042383168, 0.20258625, -1335055.5, -25227.797, 0.0000034805446, 10.000045, 9.999599 
6.499822e+1, 1.7634466e+2, -1203800.9, -1274620.1, 15012.764, -0.04959411, 0.13364546, -1200749.9, 11083.685, 0.00000000000024211628, 10.000401, 9.999456 
6.5000236e+1, 1.8634315e+2, -1133439.9, -1311045.8, -39875.29, -0.010392681, 0.099309355, -1124898.1, -11049.849, 0.0, 10.000733, 9.998372 
6.500248e+1, 1.9634137e+2, -973831.7, -1161326.1, -51622.043, 0.10633683, 0.07538546, -960558.44, 55309.527, 0.0, 10.0010605, 9.99857 
6.5004736e+1, 2.0634066e+2, -801571.44, -888251.75, -28294.172, 0.17428963, 0.077877186, -793153.25, 124720.516, 0.0, 10.000972, 9.999814 
6.5006983e+1, 2.1634057e+2, -764177.2, -836406.75, -32764.18, 0.21097684, 0.08170638, -751529.6, 68341.72, 0.0, 10.000629, 9.999661 
6.5006655e+1, 2.2633983e+2, -814458.7, -923780.7, -48556.445, 0.05843374, 0.10046555, -796006.4, -74128.63, 0.0, 10.000099, 9.998646 
6.500481e+1, 2.3633869e+2, -810306.6, -873730.2, -27077.848, -0.20393656, 0.11381269, -800318.94, -176429.28, 0.0, 9.999467, 9.998621 
6.5005195e+1, 2.4633677e+2, -637644.56, -764345.25, -43807.258, -0.1676692, 0.07366171, -623973.25, -98063.71, 0.0, 10.000083, 9.998404 
6.5006983e+1, 2.563344e+2, -332715.25, -550414.44, -18701.078, 0.048748735, -0.013833342, -331120.44, 96813.766, 0.0, 10.001433, 9.998549 
6.500857e+1, 2.6633427e+2, -179524.34, -330666.94, 31013.287, 0.10774294, 0.07012961, -173408.16, 156528.52, 0.0, 10.001409, 9.999394 
6.501004e+1, 2.763355e+2, -215629.23, -317575.0, -20001.934, 0.071755834, 0.25052255, -211845.28, 20079.951, 0.0, 10.000574, 9.999213 
6.50105e+1, 2.8633448e+2, -207173.81, -399349.4, -23081.268, -0.028194087, 0.2961226, -204440.5, -70505.21, 0.000000013847158, 10.0005455, 9.997993 
6.501029e+1, 2.9633182e+2, -40580.793, -260587.23, 13528.334, -0.17144275, 0.22170301, -39752.047, -3791.261, 0.00000502331, 10.000982, 9.998064 
6.5009445e+1, 3.0632782e+2, 59234.98, -178962.23, -30846.492, -0.20267624, 0.011755175, 63164.76, 63164.76, 0.000061202416, 10.001302, 9.998139 
6.5008664e+1, 3.163261e+2, 91600.52, -171248.33, 49838.855, -0.11447681, 0.034379948, 100733.17, 100733.17, 0.00023489993, 10.001549, 9.998074 
7.498585e+1, 1.2634163e+2, -1938307.3, -1788195.0, -33768.434, -0.03394876, 0.17396374, -1780948.5, -79083.164, 0.0009785703, 9.998309, 10.000308 
7.4989843e+1, 1.3634199e+2, -1865438.1, -1581204.5, 1043.4982, 0.18742457, 0.062230233, -1581200.6, 22659.557, 0.0005580426, 9.997623, 10.001388 
7.49931e+1, 1.4634413e+2, -1799327.6, -1666216.3, 38450.055, 0.26484692, 0.21626762, -1655908.0, -150067.45, 0.00022607559, 9.998122, 9.9998865 
7.4995446e+1, 1.5634334e+2, -1529353.4, -1497743.6, 32035.896, 0.20821024, 0.14976259, -1477826.0, -69974.516, 0.000048170983, 9.999356, 9.999773 
7.499687e+1, 1.6634284e+2, -1334890.5, -1356956.4, 31846.076, 0.062106654, 0.12503125, -1312220.3, -2365.59, 0.0000019773436, 10.000036, 9.999739 
7.4997866e+1, 1.7634244e+2, -1200811.5, -1266954.3, 30425.762, -0.12881999, 0.10479834, -1188944.6, 22909.385, 0.0, 10.000396, 9.999511 
7.499959e+1, 1.8634108e+2, -1161840.0, -1369579.4, -28432.643, -0.15239313, 0.107523985, -1158018.8, -44150.05, 0.0, 10.000731, 9.9979725 
7.500174e+1, 1.9633922e+2, -999016.0, -1211491.0, -41616.605, -0.07659332, 0.11529985, -991155.5, 24736.566, 0.0, 10.001052, 9.998231 
7.5003624e+1, 2.0633914e+2, -799247.0, -881129.8, -41750.89, -0.037738327, 0.19159701, -781713.3, 136180.42, 0.0, 10.000961, 9.999868 
7.5005335e+1, 2.1634008e+2, -754920.2, -815003.6, -45501.25, -0.020393737, 0.29039863, -730437.9, 89444.85, 0.0, 10.000619, 9.999814 
7.500647e+1, 2.2633882e+2, -761936.4, -811581.75, -74228.2, 0.026878523, 0.20740229, -708490.3, 13401.208, 0.0, 10.000087, 9.999422 
7.500725e+1, 2.3633628e+2, -761432.06, -769078.0, -39713.773, 0.09134297, 0.0033068042, -725357.7, -101445.61, 0.0, 9.999454, 9.999346 
7.500792e+1, 2.4633525e+2, -610467.1, -705377.4, 6884.6475, 0.09358164, -0.0017560268, -609970.3, -84049.06, 0.0, 10.0000725, 9.998814 
7.5008523e+1, 2.563351e+2, -321535.28, -524544.0, 22930.959, 0.056344334, 0.09712809, -318977.34, 108946.44, 0.0, 10.001423, 9.998732 
7.500755e+1, 2.6633385e+2, -269027.38, -515303.03, -1793.4603, -0.13799925, 0.13216962, -269014.3, 60924.676, 0.0, 10.001402, 9.99813 
7.5005716e+1, 2.7633196e+2, -280621.8, -450963.47, -42965.78, -0.42229894, 0.120141715, -270398.06, -38436.836, 0.0, 10.000567, 9.998301 
7.5008255e+1, 2.8633115e+2, -112250.984, -200781.11, -7938.409, -0.31108543, 0.1499969, -111544.79, 22424.66, 0.000000011324871, 10.000541, 9.999359 
7.5013334e+1, 2.9633075e+2, 53962.47, -61126.918, 29908.041, 0.03163319, 0.16620472, 61270.555, 97242.08, 0.0000042980337, 10.000969, 9.999441 
7.501342e+1, 3.0632886e+2, 151587.95, 13855.807, -20716.596, 0.062102586, 0.030610675, 154636.5, 154636.5, 0.00005527223, 10.001298, 9.999466 
7.5011086e+1, 3.1632817e+2, 158919.0, -31322.14, 64973.965, -0.0360781, 0.022808708, 178991.9, 178991.9, 0.00021800684, 10.001547, 9.999036 
8.4984624e+1, 1.263387e+2, -2058795.4, -1776135.0, -84676.31, 0.06975082, 0.22509219, -1752710.0, -50809.64, 0.0009093487, 9.997178, 10.000939 
8.498797e+1, 1.3633975e+2, -1601994.0, -1407617.4, -54318.977, 0.1578154, 0.13227196, -1393467.9, 210417.45, 0.0005120121, 9.999231, 10.001803 
8.4991455e+1, 1.4634193e+2, -1571818.1, -1567427.5, -15809.177, 0.20968306, 0.27766344, -1553662.0, -47798.508, 0.00020159004, 9.999732, 9.999788 
8.499453e+1, 1.5634057e+2, -1541010.5, -1517010.5, -17438.96, 0.18300208, 0.16529462, -1507841.8, -99962.93, 0.000039447743, 9.999338, 9.99965 
8.49969e+1, 1.6633976e+2, -1435953.1, -1441046.0, -34191.09, 0.08956843, 0.131895, -1404213.8, -94327.266, 0.0000010481418, 9.9994955, 9.999423 
8.499897e+1, 1.7633921e+2, -1277155.6, -1321394.1, -73187.91, -0.034254972, 0.12756148, -1222817.5, -10927.531, 0.0, 9.999947, 9.999353 
8.500055e+1, 1.8633829e+2, -1244887.0, -1317406.6, -101207.0, -0.08047329, 0.1331253, -1173640.4, -59741.313, 0.0, 9.9997635, 9.998798 
8.500179e+1, 1.9633721e+2, -1219732.1, -1244711.4, -22911.002, -0.08371487, 0.1370068, -1206127.6, -190216.61, 0.0, 9.999222, 9.998885 
8.5003316e+1, 2.0633699e+2, -1051197.1, -1058748.9, -2274.6458, -0.08862627, 0.20114169, -1050564.9, -132650.73, 0.0, 9.999473, 9.999369 
8.5005015e+1, 2.1633726e+2, -844945.75, -903159.4, -53790.215, -0.09207612, 0.28473705, -812892.2, 7020.2563, 0.0, 10.000191, 9.999418 
8.500647e+1, 2.2633612e+2, -681679.1, -739848.5, -134843.81, -0.0017114423, 0.21374653, -572819.0, 149101.94, 0.0, 10.000494, 9.999719 
8.500777e+1, 2.3633417e+2, -579776.75, -646472.06, -135481.6, 0.14357, 0.03927007, -473599.06, 150336.14, 0.0, 10.000548, 9.9996605 
8.500841e+1, 2.4633364e+2, -576838.1, -645881.6, -80559.92, 0.13477105, 0.0484554, -523714.8, 2223.7742, 0.0, 10.000118, 9.9992 
8.500868e+1, 2.5633395e+2, -590406.0, -616601.0, -70688.22, 0.030983428, 0.15286879, -531612.1, -103676.336, 0.0, 9.999417, 9.999065 
8.5007674e+1, 2.663323e+2, -552498.6, -652400.56, -50810.08, -0.16768211, 0.1362361, -531198.2, -201244.38, 0.0, 9.999456, 9.998127 
8.5006e+1, 2.7632955e+2, -371316.28, -490356.78, -1607.818, -0.41697606, 0.039601732, -371294.56, -139310.97, 0.0, 9.999925, 9.998341 
8.500864e+1, 2.863289e+2, -230753.44, -224736.28, 21091.754, -0.27829507, 0.06699437, -206439.61, -72449.23, 0.000000007967864, 9.999582, 9.999658 
8.5013723e+1, 2.9632935e+2, -237265.94, -161253.7, -15985.822, 0.08356247, 0.13450032, -158028.63, -122043.44, 0.00000360919, 9.998797, 9.999799 
8.501405e+1, 3.0632874e+2, 11689.184, 12099.348, -76967.195, 0.059634052, 0.07695974, 88861.734, 88861.734, 0.000049311082, 10.0000515, 10.000056 
8.501232e+1, 3.1632853e+2, 318436.72, 87234.42, -52327.574, -0.112133645, 0.06329804, 329728.44, 329728.44, 0.00020061147, 10.002462, 9.999411 
9.4984e+1, 1.2633482e+2, -2015353.0, -1682223.6, -11684.114, 0.2840199, 0.2834525, -1681814.3, 20131.693, 0.0008487389, 9.997165, 10.00159 
9.4986266e+1, 1.3633543e+2, -1568733.1, -1342007.8, 11492.9795, 0.06122477, 0.09698384, -1341426.6, 262504.84, 0.00047347447, 9.999245, 10.002249 
9.498937e+1, 1.463381e+2, -1568795.0, -1562642.1, -31760.203, 0.024989197, 0.27091727, -1533809.8, -27907.13, 0.00018256163, 9.999738, 9.999817 
9.4992465e+1, 1.5633756e+2, -1546850.9, -1531363.8, -25308.855, 0.038591303, 0.23896188, -1512640.4, -104731.5, 0.00003354367, 9.999346, 9.999548 
9.4996625e+1, 1.6633643e+2, -1491179.5, -1554160.5, -17651.566, 0.108641446, 0.22355317, -1486569.6, -176646.67, 0.00000057940093, 9.999491, 9.998648 
9.500154e+1, 1.7633498e+2, -1304804.3, -1378420.8, -60168.188, 0.22559914, 0.20274879, -1271078.4, -59136.89, 0.0, 9.999945, 9.998963 
9.500309e+1, 1.8633474e+2, -1099934.6, -1016126.0, -123075.09, 0.19473001, 0.17755948, -928017.06, 185922.38, 0.0, 9.999762, 10.000867 
9.500258e+1, 1.963353e+2, -1105748.8, -1005932.9, -35507.043, 0.06925269, 0.14012769, -994590.9, 21333.904, 0.0, 9.999214, 10.000526 
9.500378e+1, 2.0633422e+2, -1128046.5, -1216715.1, 24061.31, 0.007274287, 0.10805649, -1121938.0, -204002.94, 0.0, 9.999464, 9.998289 
9.500599e+1, 2.1633215e+2, -913969.94, -1044306.8, -28042.285, -0.016250603, 0.06456808, -908192.6, -88232.19, 0.0, 10.00018, 9.998454 
9.500662e+1, 2.2633177e+2, -695953.6, -766846.25, -133446.03, -0.038881976, 0.12006271, -593326.5, 128639.33, 0.0, 10.000484, 9.999537 
9.5006317e+1, 2.363324e+2, -589967.1, -663843.1, -135980.22, -0.05851437, 0.22223935, -485997.22, 137961.66, 0.0, 10.000533, 9.999548 
9.500667e+1, 2.4633199e+2, -553165.4, -594748.44, -108964.73, -0.0552373, 0.22669685, -463026.28, 62935.195, 0.0, 10.000111, 9.999554 
9.5007426e+1, 2.5633088e+2, -558160.94, -547549.8, -89713.33, -0.039192915, 0.15158042, -462985.3, -35014.95, 0.0, 9.99941, 9.999542 
9.50089e+1, 2.663296e+2, -465311.03, -471418.7, -34018.66, 0.0059579527, 0.08022019, -434209.4, -104228.11, 0.0, 9.999455, 9.999372 
9.5010835e+1, 2.763283e+2, -303054.75, -347606.9, 10409.781, 0.07079109, 0.0067610177, -300742.5, -68749.93, 0.0, 9.999918, 9.999326 
9.5011556e+1, 2.8632778e+2, -285053.53, -336180.8, -10888.184, 0.05270551, 0.048694756, -282831.34, -148833.38, 0.0000000042394483, 9.9995775, 9.998894 
9.501145e+1, 2.9632756e+2, -285520.4, -260024.61, -27832.707, -0.02678921, 0.12720951, -242159.3, -206157.56, 0.000002925069, 9.998791, 9.999124 
9.501135e+1, 3.063274e+2, 2352.0825, -6200.2085, 13968.246, -0.21854126, 0.14923888, 12684.0625, 12684.0625, 0.000043225835, 10.000047, 9.999932 
9.5012236e+1, 3.163272e+2, 300894.72, 55360.836, 38886.652, -0.37356222, 0.15400386, 306906.25, 306906.25, 0.00018229416, 10.002443, 9.999202 
1.04982905e+2, 1.2633191e+2, -1752768.5, -1626748.4, 196585.75, 0.35454056, 0.23005976, -1483321.5, 218649.63, 0.0007977204, 9.99927, 10.000956 
1.04985535e+2, 1.3633212e+2, -1574165.5, -1426368.6, 110291.766, 0.049080495, 0.08108397, -1367506.9, 236457.06, 0.0004431459, 9.999558, 10.001519 
1.04988985e+2, 1.4633445e+2, -1556580.4, -1577977.9, -18008.791, 0.004004677, 0.26341212, -1546332.0, -40392.6, 0.00016917764, 9.999908, 9.999632 
1.04992285e+2, 1.5633348e+2, -1422238.5, -1489417.9, -29796.797, 0.04059126, 0.20771064, -1410927.0, -2977.688, 0.000030278157, 10.000277, 9.999389 
1.04996406e+2, 1.6633259e+2, -1421826.0, -1516296.4, 10743.833, 0.116270326, 0.2193571, -1420619.5, -110657.305, 0.0000004316036, 9.999947, 9.99869 
1.0500115e+2, 1.7633174e+2, -1403685.1, -1416808.6, 28349.193, 0.22840409, 0.25575218, -1381148.1, -169171.8, 0.0, 9.9992285, 9.999044 
1.0500298e+2, 1.8633173e+2, -1084276.9, -972479.7, -77088.414, 0.20969655, 0.23052405, -933156.06, 180815.67, 0.0, 9.999713, 10.00119 
1.0500301e+2, 1.9633222e+2, -839870.44, -846790.5, -124451.99, 0.107572876, 0.15520485, -718830.4, 297125.63, 0.0, 10.0009, 10.000809 
1.0500446e+2, 2.0633101e+2, -938096.0, -1118188.1, -72967.39, 0.06663669, 0.09469571, -912243.25, 5723.2485, 0.0, 10.000741, 9.998347 
1.05006754e+2, 2.163288e+2, -971239.5, -1069162.8, -41562.4, 0.06280568, 0.02900535, -955977.5, -135984.66, 0.0, 9.999781, 9.998473 
1.050068e+2, 2.263285e+2, -847986.94, -877709.25, -108927.9, -0.02463549, 0.11334008, -752911.06, -30912.031, 0.0, 9.999602, 9.999202 
1.05005525e+2, 2.363294e+2, -701980.25, -749258.2, -128532.67, -0.15899567, 0.27570686, -594930.9, 29062.14, 0.0, 9.9999, 9.999268 
1.0500559e+2, 2.4632895e+2, -587491.25, -602156.5, -138007.77, -0.15956585, 0.28258353, -456621.44, 69375.625, 0.0, 9.999833, 9.999638 
1.0500649e+2, 2.563276e+2, -526213.0, -514031.44, -139068.08, -0.07962706, 0.17452753, -380920.8, 47086.8, 0.0, 9.999546, 9.999707 
1.0500884e+2, 2.66327e+2, -421653.0, -375114.94, -91501.78, 0.056906704, 0.1253256, -303969.84, 26040.607, 0.0, 9.999432, 10.000044 
1.05012074e+2, 2.763269e+2, -335284.5, -302967.63, -91906.66, 0.22795413, 0.10706927, -225809.78, 6198.1157, 0.0, 9.999438, 9.999864 
1.0501254e+2, 2.8632605e+2, -191331.86, -322984.44, -102415.91, 0.15527748, 0.10703972, -135412.03, -1396.7086, 0.0000000012344323, 10.000358, 9.9986105 
1.0501126e+2, 2.9632458e+2, 131372.08, -90441.46, -85007.98, -0.07387587, 0.08795391, 160203.17, 196233.55, 0.0000022309773, 10.001789, 9.998845 
1.0501158e+2, 3.0632445e+2, 166546.17, 26622.379, -35840.652, -0.26501793, 0.15212826, 175192.28, 175192.28, 0.00003695323, 10.001375, 9.999518 
1.0501404e+2, 3.1632388e+2, -109281.23, -183211.42, -36972.06, -0.30405572, 0.15967575, -93964.86, -93964.86, 0.0001628002, 9.999804, 9.998833 
1.1498126e+2, 1.2632993e+2, -1887412.1, -1908232.6, 203939.5, 0.25350088, 0.05255857, -1693617.4, 8359.137, 0.0007564603, 9.99928, 9.999019 
1.1498571e+2, 1.3632978e+2, -1709129.1, -1705546.3, 122514.836, 0.108507074, 0.07981599, -1584809.8, 19173.29, 0.00042056636, 9.999554, 9.999607 
1.14990205e+2, 1.4633097e+2, -1588128.6, -1639934.4, -4198.7563, 0.13265549, 0.25465184, -1587790.5, -81816.516, 0.00016082273, 9.999897, 9.999211 
1.1499397e+2, 1.5632835e+2, -1438071.9, -1522759.8, -19704.947, 0.17771737, 0.07324933, -1433711.5, -25711.11, 0.000029173776, 10.00028, 9.999157 
1.1499624e+2, 1.6632819e+2, -1358677.5, -1387454.5, -18436.463, 0.101172425, 0.11938447, -1349679.4, -39675.105, 0.0000005105562, 9.999954, 9.999571 
1.14997745e+2, 1.7632952e+2, -1363750.4, -1334656.0, 11839.621, -0.03885826, 0.28822428, -1330447.0, -118452.68, 0.0, 9.9992285, 9.99961 
1.15000136e+2, 1.8632926e+2, -1187298.1, -1182779.0, -31895.178, -0.048231345, 0.29190522, -1153063.5, -39067.5, 0.0, 9.999699, 9.999753 
1.15003064e+2, 1.9632798e+2, -917379.94, -1004616.1, -88393.15, 0.020071153, 0.18307403, -862428.8, 153575.73, 0.0, 10.00089, 9.999729 
1.1500537e+2, 2.0632738e+2, -856141.0, -946113.06, -111149.734, 0.07978742, 0.16198808, -781218.7, 136789.78, 0.0, 10.000731, 9.999535 
1.1500726e+2, 2.1632713e+2, -904922.25, -929175.4, -70602.08, 0.13302307, 0.17659685, -845412.9, -25402.934, 0.0, 9.999769, 9.999441 
1.1500695e+2, 2.2632635e+2, -882924.44, -947608.9, -98761.586, 0.02786163, 0.19381832, -811344.25, -89323.3, 0.0, 9.999591, 9.998727 
1.1500533e+2, 2.3632519e+2, -734227.56, -814173.6, -118055.766, -0.17071442, 0.19913156, -649561.06, -25523.486, 0.0, 9.999889, 9.998827 
1.1500514e+2, 2.4632454e+2, -603564.3, -631053.0, -149837.48, -0.19020422, 0.21644054, -466842.13, 59203.086, 0.0, 9.999816, 9.999447 
1.1500584e+2, 2.5632417e+2, -538997.8, -536754.6, -146929.0, -0.101588, 0.22418413, -390942.94, 37104.3, 0.0, 9.999532, 9.999558 
1.1500748e+2, 2.6632452e+2, -415537.25, -361920.66, -92899.56, -0.025023308, 0.27362472, -292038.66, 38002.406, 0.0, 9.999429, 10.000135 
1.1500971e+2, 2.7632535e+2, -329004.06, -290040.3, -83260.555, 0.0444826, 0.33721405, -224012.75, 8017.1133, 0.0, 9.999437, 9.999953 
1.15011565e+2, 2.8632367e+2, -178771.97, -293812.0, -48872.418, 0.01929216, 0.23848826, -160813.08, -26770.31, 0.00000000006210851, 10.000347, 9.998815 
1.150131e+2, 2.9632038e+2, 137228.27, -75328.63, -43268.223, -0.071645476, 0.017891522, 145698.45, 181769.45, 0.0000015849012, 10.001777, 9.998954 
1.1501471e+2, 3.0631998e+2, 116566.35, -75411.945, -95314.26, -0.0918346, 0.08657065, 155849.97, 155849.97, 0.000030721083, 10.0013685, 9.99882 
1.1501767e+2, 3.163185e+2, -146376.27, -261018.86, -87681.586, 0.0710476, 0.076203845, -98941.695, -98941.695, 0.00014243544, 9.999804, 9.998301 
1.249806e+2, 1.2632725e+2, -1723972.6, -1879064.8, 8315.483, 0.19448194, 0.058893524, -1723528.0, -21526.348, 0.0007247361, 10.000613, 9.998576 
1.2498574e+2, 1.3632688e+2, -1666733.8, -1743829.4, 39336.08, 0.1307494, 0.12187679, -1650206.5, -46193.344, 0.00040489552, 10.000099, 9.999079 
1.2499044e+2, 1.4632776e+2, -1598803.0, -1647413.9, -11116.307, 0.17155094, 0.2934134, -1596381.5, -90374.0, 0.00015657058, 9.999836, 9.999188 
1.2499408e+2, 1.5632486e+2, -1509525.9, -1553220.6, -4168.753, 0.18690377, 0.08506825, -1509131.8, -101095.48, 0.000029665785, 9.999775, 9.99919 
1.2499596e+2, 1.6632469e+2, -1352657.6, -1341407.9, -30161.436, 0.086245485, 0.107692994, -1316351.4, -6312.989, 0.0000007617598, 9.999811, 9.999956 
1.2499694e+2, 1.7632623e+2, -1252072.8, -1255070.9, -35362.035, -0.07391766, 0.259549, -1218178.0, -6154.2734, 0.0, 9.9998865, 9.999838 
1.2499981e+2, 1.8632582e+2, -1238200.8, -1300328.8, -35600.293, -0.052274026, 0.28787625, -1222017.0, -107987.81, 0.0, 9.999749, 9.998922 
1.250038e+2, 1.9632423e+2, -1170194.9, -1199179.4, -54906.555, 0.076000586, 0.22827746, -1127900.3, -111853.6, 0.0, 9.99947, 9.999078 
1.2500562e+2, 2.063238e+2, -1034534.2, -974987.1, -123121.18, 0.10675343, 0.22473124, -878090.6, 39958.684, 0.0, 9.999261, 10.000045 
1.2500614e+2, 2.1632406e+2, -968519.5, -905781.2, -131675.14, 0.07814795, 0.23893987, -801790.25, 18253.135, 0.0, 9.9991, 9.999925 
1.2500629e+2, 2.2632354e+2, -921595.3, -932865.8, -112719.86, 0.02418501, 0.24645296, -814369.94, -92319.78, 0.0, 9.999177, 9.999029 
1.2500624e+2, 2.3632257e+2, -788501.44, -814428.75, -77177.61, -0.044308364, 0.23635672, -723206.3, -99141.62, 0.0, 9.999405, 9.999059 
1.2500621e+2, 2.4632174e+2, -566666.3, -644250.44, -81919.305, -0.08321102, 0.24152187, -514818.44, 11255.422, 0.0, 10.000199, 9.999173 
1.2500624e+2, 2.5632095e+2, -302414.5, -459741.0, -91370.61, -0.10383453, 0.2396084, -260510.38, 167569.56, 0.0, 10.001313, 9.999231 
1.2500693e+2, 2.6632082e+2, -205445.36, -330769.16, -99753.67, -0.109864354, 0.2900164, -150305.27, 179774.2, 0.0, 10.001175, 9.999509 
1.2500809e+2, 2.763211e+2, -238635.58, -297784.06, -141948.48, -0.102475375, 0.35854778, -123213.25, 108861.81, 0.0, 10.00028, 9.999494 
1.2501074e+2, 2.8631943e+2, -248198.55, -262109.4, -77204.62, -0.058326833, 0.24849603, -177636.69, -43549.746, 0.0, 9.999587, 9.9994 
1.250142e+2, 2.963166e+2, -228253.47, -194531.28, -46144.43, -0.0006560837, 0.0146002015, -162263.92, -126155.25, 0.0000010474641, 9.999021, 9.999464 
1.2501636e+2, 3.0631658e+2, -59439.934, -172526.39, -61061.414, -0.0033874249, 0.10684007, -32762.773, -32762.773, 0.000024841802, 10.000205, 9.998719 
1.250192e+2, 3.1631437e+2, 239498.3, -61097.53, -14065.04, 0.115549356, 0.029439824, 240154.97, 240154.97, 0.00012196453, 10.002395, 9.998427 
1.3498083e+2, 1.2632392e+2, -1651494.9, -1723803.8, -16377.341, 0.14982833, 0.2574615, -1647958.5, 54087.68, 0.0007016644, 10.000595, 9.999648 
1.349856e+2, 1.3632339e+2, -1606289.6, -1619912.3, 22857.186, 0.10271662, 0.21228537, -1589250.5, 14803.565, 0.00039489288, 10.000109, 9.999924 
1.3498966e+2, 1.4632486e+2, -1570176.6, -1592096.0, -15920.464, 0.10660046, 0.38381094, -1561808.3, -55768.313, 0.00015526546, 9.999851, 9.999561 
1.3499252e+2, 1.5632299e+2, -1488314.1, -1509754.3, -4313.438, 0.051105246, 0.24124366, -1487478.9, -79421.7, 0.000031126172, 9.999774, 9.999491 
1.349955e+2, 1.6632205e+2, -1363372.5, -1360445.4, -28277.328, 0.056435656, 0.18213034, -1333593.8, -23529.176, 0.0000011270397, 9.999799, 9.99983 
1.3499871e+2, 1.7632179e+2, -1261902.8, -1274991.4, -32758.98, 0.110677294, 0.16656178, -1235040.8, -22975.574, 0.0, 9.9998865, 9.999701 
1.3500197e+2, 1.8632142e+2, -1254126.3, -1332380.1, -47752.652, 0.184872, 0.21710478, -1231518.0, -117446.26, 0.0, 9.999743, 9.998706 
1.3500516e+2, 1.9632097e+2, -1185280.5, -1229940.3, -63428.934, 0.2617795, 0.29126614, -1140365.6, -124283.39, 0.0, 9.999466, 9.998869 
1.3500519e+2, 2.0632032e+2, -1047065.2, -999463.94, -130740.24, 0.13398798, 0.28368598, -890375.6, 27713.395, 0.0, 9.999254, 9.99988 
1.3500336e+2, 2.1631958e+2, -971120.3, -907798.06, -133711.2, -0.11241928, 0.21363167, -802050.6, 18042.656, 0.0, 9.999084, 9.999918 
1.3500479e+2, 2.2632015e+2, -848833.2, -779197.44, -105569.28, -0.04668376, 0.27015626, -702852.56, 19234.488, 0.0, 9.999166, 10.000089 
1.3500819e+2, 2.3632148e+2, -727154.1, -686487.9, -63062.36, 0.20638093, 0.38637397, -640561.7, -16487.045, 0.0, 9.999401, 9.999939 
1.3500875e+2, 2.4632047e+2, -591628.94, -693514.3, -40746.44, 0.14831065, 0.35563168, -577337.94, -51254.33, 0.0, 10.000191, 9.998838 
1.3500763e+2, 2.5631803e+2, -336784.22, -528795.0, -57683.023, -0.09970306, 0.22022113, -320787.97, 107317.89, 0.0, 10.001304, 9.99876 
1.3500714e+2, 2.6631597e+2, -301593.13, -529353.2, -134475.73, -0.20872892, 0.17528498, -239256.31, 90869.26, 0.0, 10.00117, 9.998149 
1.3500716e+2, 2.763142e+2, -311458.13, -448338.16, -172181.77, -0.22812845, 0.1730538, -194612.97, 37530.38, 0.0, 10.0002775, 9.998462 
1.3501003e+2, 2.8631338e+2, -179741.94, -120579.91, -100909.53, -0.090218835, 0.13796629, -45004.984, 89142.87, 0.0, 9.999589, 10.000372 
1.3501455e+2, 2.963132e+2, -164802.77, -63711.008, -52545.13, 0.12927645, 0.07302371, -41346.83, -5202.8955, 0.0000006413962, 9.999022, 10.000364 
1.3501655e+2, 3.063143e+2, -26373.375, -98638.9, 21620.383, -0.007839126, 0.20818387, -20398.924, -20398.924, 0.000019439243, 10.00019, 9.999231 
1.3501857e+2, 3.1631136e+2, 290965.0, 51109.863, 63657.695, -0.19353391, 0.010591155, 306812.72, 306812.72, 0.00010201916, 10.002379, 9.999204 
1.4498198e+2, 1.2631936e+2, -1638488.5, -1692276.3, -39462.57, 0.20755932, 0.36206302, -1617627.0, 84471.984, 0.0006852014, 10.000575, 9.999875 
1.4498572e+2, 1.3631837e+2, -1466082.1, -1535569.9, -69726.11, 0.060699705, 0.26438478, -1422923.0, 181187.23, 0.00038852147, 10.000996, 10.000076 
1.449896e+2, 1.4632027e+2, -1397242.4, -1434061.8, -126820.62, 0.07042952, 0.43286553, -1287502.3, 218588.11, 0.00015533686, 10.000717, 10.000229 
1.449926e+2, 1.5631941e+2, -1412942.6, -1408888.8, -93028.6, 0.069322534, 0.32830024, -1317865.0, 90230.14, 0.00003278088, 10.000017, 10.000065 
1.4499596e+2, 1.6631849e+2, -1351563.4, -1357289.6, -82373.24, 0.11830578, 0.24654986, -1272003.5, 38098.37, 0.0000015078091, 9.99989, 9.999807 
1.449997e+2, 1.7631765e+2, -1227937.9, -1256400.0, -83975.55, 0.21091671, 0.17229453, -1156996.1, 55112.7, 0.0, 10.000105, 9.999725 
1.4500245e+2, 1.863175e+2, -1192256.6, -1251888.1, -77943.46, 0.25038508, 0.22094965, -1138620.8, -24508.252, 0.0, 9.999951, 9.999156 
1.4500454e+2, 1.963178e+2, -1140343.3, -1165963.9, -44471.37, 0.24821568, 0.3259057, -1106873.9, -90759.305, 0.0, 9.99959, 9.9992485 
1.4500426e+2, 2.0631729e+2, -975083.1, -971580.0, -69733.91, 0.089644775, 0.3201937, -903575.7, 14544.801, 0.0, 9.99978, 9.999817 
1.4500259e+2, 2.1631634e+2, -799046.9, -830726.56, -70699.75, -0.15682971, 0.23383944, -742434.3, 77694.0, 0.0, 10.000292, 9.999865 
1.4500435e+2, 2.2631665e+2, -685583.56, -700899.5, -93258.664, -0.06311048, 0.26713988, -599668.94, 122454.67, 0.0, 10.00029, 10.000086 
1.4500815e+2, 2.363177e+2, -642442.2, -645272.9, -129041.76, 0.23489848, 0.35614684, -514808.0, 109303.65, 0.0, 9.999983, 9.999942 
1.4500925e+2, 2.4631679e+2, -619156.44, -700716.25, -93381.7, 0.19048907, 0.33121204, -558038.6, -31919.336, 0.0, 9.999975, 9.998894 
1.450087e+2, 2.5631467e+2, -502395.8, -603089.7, -88122.36, -0.06350503, 0.22288331, -451252.03, -23112.984, 0.0, 10.000145, 9.998808 
1.450085e+2, 2.663125e+2, -381463.2, -565487.75, -112445.63, -0.16127022, 0.16428132, -328181.7, 1977.3253, 0.0, 10.00061, 9.998169 
1.4500858e+2, 2.7631032e+2, -177943.3, -391602.25, -53014.023, -0.15984233, 0.121085696, -165512.45, 66666.625, 0.0, 10.001229, 9.998392 
1.4501081e+2, 2.8630942e+2, -4057.1528, -108600.77, -31099.197, -0.04619234, 0.115247644, 4494.571, 138680.95, 0.0, 10.001106, 9.999724 
1.4501424e+2, 2.9630938e+2, 21685.672, -30136.568, -97910.56, 0.121235065, 0.12923025, 97055.664, 133240.42, 0.0000003644557, 10.000544, 9.999862 
1.4501625e+2, 3.0631077e+2, 4574.4614, -27451.61, -18048.646, -0.051835384, 0.28523132, 12689.645, 12689.645, 0.000014553311, 10.00016, 9.999732 
1.4501916e+2, 3.1630775e+2, -30440.428, -9111.635, 13161.865, -0.23801845, 0.025744714, -2836.0186, -2836.0186, 0.0000830137, 9.999755, 10.000055 
1.5498394e+2, 1.2631348e+2, -1678088.9, -1776544.5, -28198.674, 0.33705357, 0.37135202, -1670584.5, 31576.219, 0.0006720001, 10.000583, 9.999294 
1.5498604e+2, 1.3631178e+2, -1504922.3, -1615496.5, -58709.484, -0.007870666, 0.27586085, -1479565.4, 124617.16, 0.00038301162, 10.00099, 9.999532 
1.5499014e+2, 1.4631394e+2, -1329781.0, -1291258.1, -155565.25, 0.05187131, 0.43949974, -1153766.4, 352392.84, 0.00015494693, 10.000707, 10.001215 
1.5499428e+2, 1.5631416e+2, -1352623.9, -1283631.6, -114154.69, 0.2315321, 0.34648827, -1198874.8, 209275.52, 0.000033834087, 10.000017, 10.000924 
1.5499732e+2, 1.6631402e+2, -1345727.1, -1345037.8, -75122.93, 0.2613783, 0.30084038, -1270258.8, 39891.49, 0.0000017896223, 9.999888, 9.999892 
1.5499987e+2, 1.7631377e+2, -1212328.3, -1223866.3, -76980.04, 0.21441363, 0.27752018, -1140901.4, 71253.13, 0.0, 10.000103, 9.999949 
1.5500125e+2, 1.8631409e+2, -1116405.1, -1092493.9, -93027.875, 0.13105817, 0.29861656, -1010656.5, 103494.9, 0.0, 9.999943, 10.000256 
1.5500191e+2, 1.9631474e+2, -1074851.0, -1027629.0, -52403.832, 0.023118827, 0.33195803, -993762.7, 22381.277, 0.0, 9.99958, 10.000203 
1.5500276e+2, 2.0631474e+2, -974543.2, -967948.8, -51411.492, -0.03975222, 0.33358067, -919728.9, -1584.9236, 0.0, 9.999768, 9.999847 
1.5500377e+2, 2.1631435e+2, -808535.94, -847562.7, -53955.113, -0.071782954, 0.30092892, -770674.0, 49474.566, 0.0, 10.000279, 9.999755 
1.5500492e+2, 2.2631305e+2, -760942.0, -855745.9, -106852.945, -0.0381528, 0.23859839, -691448.7, 30711.406, 0.0, 10.000283, 9.999026 
1.5500614e+2, 2.3631123e+2, -703818.25, -771162.4, -136902.02, 0.031863965, 0.1454187, -596508.1, 27667.61, 0.0, 9.999977, 9.999081 
1.5500768e+2, 2.4631065e+2, -589943.94, -638532.9, -88087.375, 0.032463156, 0.16721223, -522862.22, 3318.7424, 0.0, 9.999968, 9.999324 
1.5500943e+2, 2.5631085e+2, -464803.1, -522887.47, -77602.48, -0.007587006, 0.24737586, -410986.4, 17193.227, 0.0, 10.000136, 9.999364 
1.5501095e+2, 2.663104e+2, -285147.0, -364028.5, -89766.414, 0.01973736, 0.25499457, -226538.86, 103641.445, 0.0, 10.000605, 9.999555 
1.5501232e+2, 2.7630946e+2, -115201.22, -260305.81, -34548.08, 0.08884964, 0.19910218, -107395.53, 124787.35, 0.0, 10.001224, 9.999296 
1.5501302e+2, 2.8630748e+2, -162957.83, -436889.0, -53461.734, 0.061731786, 0.17925838, -152893.73, -18691.004, 0.0, 10.001098, 9.997475 
1.5501325e+2, 2.9630515e+2, -110534.09, -304449.88, -114170.87, -0.035601985, 0.18342088, -57706.08, -21475.002, 0.00000019831394, 10.00054, 9.99798 
1.5501548e+2, 3.0630597e+2, 36588.21, 41346.594, -32191.514, -0.1469249, 0.33811358, 71246.72, 71246.72, 0.000010333069, 10.000154, 10.000205 
1.5502085e+2, 3.1630346e+2, 35363.125, 128667.484, 3754.9426, -0.053458314, 0.07925162, 128818.35, 128818.35, 0.0000654706, 9.999753, 10.001 
1.6498451e+2, 1.2630981e+2, -1528679.4, -1739534.0, 120561.99, 0.2798155, 0.36913213, -1473950.1, 228246.11, 0.00065764156, 10.001755, 9.998984 
1.649868e+2, 1.3630743e+2, -1694496.9, -1746746.3, 112430.61, 0.027066277, 0.25047934, -1605195.6, -970.8136, 0.00037533525, 9.999863, 9.999172 
1.6499071e+2, 1.4630935e+2, -1488131.0, -1336445.9, 17697.855, 0.099809445, 0.39042437, -1334408.4, 171795.28, 0.00015252095, 9.999482, 10.001493 
1.6499425e+2, 1.5630981e+2, -1333803.3, -1247045.6, 4119.259, 0.22808045, 0.2922209, -1246850.5, 161341.33, 0.000033788867, 10.000023, 10.001173 
1.6499698e+2, 1.6631025e+2, -1337481.0, -1335607.6, 21669.97, 0.23767371, 0.2913866, -1314854.1, -4666.659, 0.0000018950186, 9.999919, 9.999943 
1.6499938e+2, 1.7631081e+2, -1303550.4, -1252694.6, 14277.368, 0.18926115, 0.34291664, -1248960.5, -36773.95, 0.0, 9.999414, 10.000081 
1.6500045e+2, 1.8631124e+2, -1150379.9, -1037855.44, -18921.709, 0.085706525, 0.33474204, -1034758.8, 79422.266, 0.0, 9.999403, 10.000892 
1.6500075e+2, 1.9631161e+2, -1023737.94, -943731.8, -14755.02, -0.055671893, 0.27578375, -941097.44, 75075.414, 0.0, 9.999677, 10.000732 
1.6500223e+2, 2.06312e+2, -1006675.3, -1008173.5, -28310.217, -0.06406664, 0.30496153, -979104.3, -60934.395, 0.0, 9.999651, 9.99963 
1.6500448e+2, 2.1631236e+2, -941573.6, -931911.8, -48749.69, 0.0124613615, 0.37002036, -887754.25, -67583.79, 0.0, 9.999451, 9.9995775 
1.6500565e+2, 2.2631092e+2, -766982.75, -847930.2, -39953.13, 0.012850315, 0.29667738, -750584.9, -28401.33, 0.0, 10.000199, 9.999118 
1.6500619e+2, 2.3630844e+2, -476259.7, -656332.94, 9431.489, -0.036286898, 0.12736279, -475767.06, 148437.11, 0.0, 10.001518, 9.999126 
1.6500764e+2, 2.4630782e+2, -354557.38, -551448.06, 38988.145, -0.054147966, 0.15593542, -347118.06, 179091.63, 0.0, 10.001698, 9.999088 
1.6500965e+2, 2.5630835e+2, -324708.94, -475860.78, -1530.6375, -0.051986266, 0.2932116, -324693.44, 103512.35, 0.0, 10.001184, 9.999182 
1.6501166e+2, 2.6630795e+2, -235241.34, -319822.34, -72517.445, 0.018272111, 0.306091, -193583.84, 136621.28, 0.0, 10.000858, 9.999736 
1.6501369e+2, 2.7630696e+2, -191331.23, -289202.97, -109191.75, 0.13090593, 0.22333153, -120611.11, 111596.14, 0.0, 10.000665, 9.999367 
1.6501427e+2, 2.8630435e+2, -185872.58, -518827.4, -83808.336, 0.06942206, 0.17298941, -165967.16, -31734.14, 0.0, 10.001248, 9.996837 
1.6501391e+2, 2.9630113e+2, 92212.695, -283866.78, -34150.867, -0.107623145, 0.15219778, 95288.695, 131559.14, 0.000000103924, 10.00227, 9.997285 
1.6501634e+2, 3.0630106e+2, 218734.17, 14505.59, -8574.216, -0.16095711, 0.30853948, 219093.52, 219093.52, 0.000006944009, 10.001891, 9.9991865 
1.6502245e+2, 3.1629816e+2, 125880.97, 116897.66, -90264.84, 0.09119419, 0.10549786, 211765.84, 211765.84, 0.000049939055, 10.000611, 10.0005045 
1.7498362e+2, 1.2630835e+2, -1531824.0, -1744108.8, 43805.934, 0.009215075, 0.35735288, -1523139.8, 179065.61, 0.0006375972, 10.001747, 9.998956 
1.7498797e+2, 1.3630538e+2, -1705986.5, -1771574.8, 52608.117, 0.15495965, 0.1915513, -1676788.1, -72551.07, 0.00036289106, 9.999866, 9.999 
1.7499125e+2, 1.4630648e+2, -1517592.9, -1397436.1, 37092.152, 0.20331433, 0.28288066, -1386908.3, 119315.48, 0.00014707113, 9.999481, 10.001075 
1.7499247e+2, 1.5630634e+2, -1359532.8, -1300006.4, 21407.484, 0.043936335, 0.16305853, -1293107.1, 115112.72, 0.00003249045, 10.00002, 10.000812 
1.7499489e+2, 1.663072e+2, -1337400.5, -1334702.8, 640.40204, 0.032661874, 0.21835288, -1334558.5, -24344.736, 0.0000018022155, 9.999915, 9.999951 
1.7499816e+2, 1.7630875e+2, -1301566.8, -1248509.4, -236.41508, 0.12501872, 0.36915913, -1248508.3, -36302.984, 0.0, 9.9994135, 10.000111 
1.7500004e+2, 1.8630897e+2, -1139156.8, -1012334.25, -9389.669, 0.10086409, 0.32767174, -1011642.9, 102559.02, 0.0, 9.999393, 10.001071 
1.7500101e+2, 1.9630839e+2, -1018052.56, -929983.94, -5152.227, -0.00034436936, 0.15776786, -929683.56, 86517.91, 0.0, 9.999668, 10.000832 
1.750026e+2, 2.0630902e+2, -1039215.5, -1073947.3, -37705.74, 0.0072397725, 0.23286399, -1015068.75, -96870.266, 0.0, 9.999643, 9.999183 
1.7500466e+2, 2.1631038e+2, -959541.7, -966532.1, -47304.11, 0.082905956, 0.44050297, -915603.9, -95409.74, 0.0, 9.999439, 9.999346 
1.7500651e+2, 2.2631027e+2, -681561.06, -667900.1, 9711.988, 0.075588465, 0.44032916, -662857.2, 59337.043, 0.0, 10.000187, 10.00036 
1.7500827e+2, 2.3630929e+2, -410477.9, -518080.72, 52398.883, 0.01698439, 0.30019984, -389177.8, 235019.31, 0.0, 10.00151, 10.00008 
1.7500907e+2, 2.4630824e+2, -419384.8, -684635.25, 18310.219, -0.083153374, 0.29590166, -418126.84, 108078.914, 0.0, 10.001691, 9.998177 
1.750093e+2, 2.5630715e+2, -390155.88, -609729.9, -17835.701, -0.20822237, 0.3597683, -388716.56, 39501.203, 0.0, 10.001175, 9.998267 
1.7501064e+2, 2.6630527e+2, -306666.47, -466500.03, -81384.46, -0.17407046, 0.3190356, -272521.3, 57712.08, 0.0, 10.000853, 9.998733 
1.7501265e+2, 2.7630278e+2, -245802.67, -400248.47, -108716.36, -0.041823484, 0.19185163, -189674.08, 42578.227, 0.0, 10.000656, 9.99861 
1.750145e+2, 2.8629994e+2, -121393.16, -383034.5, -45871.5, -0.03573572, 0.09579673, -113583.95, 20693.615, 0.0, 10.001243, 9.997771 
1.750162e+2, 2.9629722e+2, 123284.82, -217188.89, -4604.795, -0.11113477, 0.036002338, 123347.086, 159650.6, 0.00000004563321, 10.002261, 9.997746 
1.7501882e+2, 3.0629602e+2, 46915.19, -342165.9, -57583.242, -0.10649289, 0.19671956, 55258.49, 55258.49, 0.0000044345684, 10.00189, 9.9967375 
1.7502397e+2, 3.1629193e+2, -7820.5625, -161589.52, -136568.02, 0.17326826, 0.11283467, 72017.8, 72017.8, 0.00003672069, 10.000613, 9.998591 
1.8498561e+2, 1.2630664e+2, -1317102.3, -1612113.4, -14112.79, -0.034091804, 0.32768145, -1316428.6, 385791.03, 0.0006079269, 10.003104, 9.999206 
1.8498929e+2, 1.3630413e+2, -1386410.1, -1614117.8, 15799.612, 0.19080608, 0.19491681, -1385319.0, 218925.67, 0.00034396173, 10.002046, 9.99903 
1.8499182e+2, 1.4630473e+2, -1338448.6, -1379488.5, 41814.59, 0.23593286, 0.26993638, -1312390.4, 193847.17, 0.00013809922, 10.001005, 10.0004635 
1.8499212e+2, 1.5630381e+2, -1399623.3, -1371865.3, 7652.072, 0.010099382, 0.133096, -1369895.6, 38348.832, 0.000029920388, 9.999973, 10.000339 
1.849939e+2, 1.6630474e+2, -1374965.3, -1308584.6, -1718.397, -0.03417714, 0.19408438, -1308540.1, 1697.548, 0.0000015280342, 9.999469, 10.000346 
1.8499672e+2, 1.7630687e+2, -1299936.5, -1215999.5, 26219.688, 0.045810804, 0.36479187, -1208482.4, 3739.7437, 0.0, 9.999288, 10.000397 
1.8499924e+2, 1.8630716e+2, -1183882.0, -1077322.6, 21159.633, 0.08824695, 0.33901468, -1073274.8, 40944.563, 0.0, 9.999271, 10.000682 
1.8500152e+2, 1.9630632e+2, -1081737.9, -991603.0, -20295.71, 0.10083568, 0.1805899, -987243.8, 28980.52, 0.0, 9.999362, 10.000555 
1.8500286e+2, 2.0630682e+2, -1029116.44, -1015330.6, -29866.703, 0.07727254, 0.2250518, -991571.75, -73349.984, 0.0, 9.999482, 9.999661 
1.8500368e+2, 2.1630807e+2, -903240.44, -894007.94, 30806.875, 0.033035126, 0.37804583, -867473.4, -47258.88, 0.0, 9.99963, 9.999749 
1.8500608e+2, 2.263086e+2, -725883.0, -703957.3, 82376.27, 0.026235288, 0.42783657, -631817.6, 90391.555, 0.0, 9.999944, 10.000232 
1.8500946e+2, 2.363086e+2, -586787.9, -614779.1, 15813.925, 0.04291014, 0.4017443, -579665.75, 44539.453, 0.0, 10.000349, 9.999975 
1.8501076e+2, 2.4630724e+2, -574197.9, -754678.2, -43475.637, -0.029698223, 0.36718458, -564271.1, -38054.336, 0.0, 10.000608, 9.998217 
1.8501078e+2, 2.56305e+2, -449852.75, -643086.4, -11263.1875, -0.15747006, 0.31472987, -449198.47, -20960.889, 0.0, 10.000786, 9.998224 
1.8501176e+2, 2.6630268e+2, -329370.22, -545786.9, -22084.643, -0.15229316, 0.26511827, -327139.53, 3119.1138, 0.0, 10.000991, 9.998122 
1.8501335e+2, 2.7630016e+2, -197706.2, -425944.16, -19217.127, -0.06322168, 0.19335704, -196099.47, 36181.414, 0.0, 10.001198, 9.998171 
1.8501575e+2, 2.8629777e+2, -84190.75, -289910.16, 61316.492, -0.03112438, 0.12090796, -67301.42, 66999.72, 0.0, 10.001172, 9.9984455 
1.8501852e+2, 2.9629576e+2, -24347.09, -234591.02, 76631.07, -0.040103894, 0.070150405, 619.18066, 36935.836, 0.000000013949684, 10.001015, 9.998228 
1.8502073e+2, 3.06294e+2, -85681.8, -466644.2, 80293.3, -0.069036454, 0.18531103, -69450.4, -69450.4, 0.0000026902987, 10.001237, 9.996199 
1.8502456e+2, 3.1628975e+2, 119065.44, -132921.44, 136963.97, 0.12234037, 0.13413322, 179172.7, 179172.7, 0.000025863523, 10.001623, 9.998304 
1.9499043e+2, 1.2630463e+2, -1280644.4, -1535963.0, -56421.64, 0.13063678, 0.27791852, -1268731.8, 433507.72, 0.0005661583, 10.003101, 9.999731 
1.9499071e+2, 1.3630363e+2, -1368870.3, -1578350.8, -22995.877, 0.1256016, 0.25588423, -1366375.6, 237872.69, 0.00031763376, 10.0020485, 9.999274 
1.9499236e+2, 1.4630406e+2, -1395857.9, -1499150.4, 1364.512, 0.18645859, 0.35027137, -1395839.9, 110405.25, 0.00012543336, 10.001006, 9.999642 
1.9499317e+2, 1.5630224e+2, -1442205.1, -1459410.1, -26184.73, 0.11290843, 0.20369655, -1423246.0, -14980.736, 0.000026112697, 9.9999695, 9.999741 
1.9499397e+2, 1.663029e+2, -1320815.4, -1194734.4, -9551.171, 0.023342613, 0.21902731, -1194015.0, 116244.59, 0.0000011234973, 9.999462, 10.001132 
1.9499499e+2, 1.7630519e+2, -1260987.5, -1135064.9, 22538.668, -0.059318386, 0.32817557, -1131152.4, 81084.75, 0.0, 9.999286, 10.000954 
1.9499803e+2, 1.8630582e+2, -1252305.5, -1218395.3, 23852.273, 0.03637598, 0.36659342, -1206086.0, -91852.39, 0.0, 9.999267, 9.999718 
1.9500226e+2, 1.9630541e+2, -1128414.0, -1087373.8, -15474.511, 0.23380089, 0.34450528, -1082193.0, -65951.32, 0.0, 9.999355, 9.999902 
1.9500293e+2, 2.0630533e+2, -932180.2, -810967.25, -25546.549, 0.13263626, 0.28230593, -805803.1, 112436.67, 0.0, 9.999469, 10.00107 
1.9500153e+2, 2.1630545e+2, -832293.9, -744331.06, 39305.64, -0.14834619, 0.18164559, -729326.94, 90904.99, 0.0, 9.9996195, 10.000783 
1.9500433e+2, 2.2630583e+2, -832439.3, -923327.4, 96175.18, -0.14591588, 0.25895274, -771512.2, -49283.367, 0.0, 9.999935, 9.99873 
1.9500971e+2, 2.3630637e+2, -670899.75, -786400.0, 31343.854, 0.030178713, 0.43031994, -662942.06, -38713.367, 0.0, 10.000337, 9.998803 
1.9501263e+2, 2.4630478e+2, -506543.3, -612170.1, -38256.68, 0.09440686, 0.37016025, -494143.0, 32099.914, 0.0, 10.0006, 9.9992 
1.9501403e+2, 2.563019e+2, -393813.7, -523910.63, -3239.0007, 0.085621774, 0.15712838, -393733.1, 34532.48, 0.0, 10.000774, 9.999048 
1.9501498e+2, 2.663002e+2, -344174.34, -575683.9, -15202.344, 0.069011204, 0.14458923, -343180.34, -12899.287, 0.0, 10.000987, 9.997919 
1.9501573e+2, 2.7629903e+2, -205487.19, -442779.8, -11685.098, 0.051315315, 0.22868617, -204913.16, 27380.014, 0.0, 10.001199, 9.998057 
1.9501795e+2, 2.8629774e+2, -54645.887, -229093.53, 53843.73, 0.06932724, 0.24858221, -39365.355, 94938.59, 0.0, 10.001175, 9.998861 
1.9502091e+2, 2.962967e+2, 8924.383, -163449.61, 75747.47, 0.09443716, 0.2511841, 37480.047, 73790.49, 0.0000000023315327, 10.001005, 9.998722 
1.9502212e+2, 3.0629495e+2, 8547.443, -265393.84, 94463.39, -0.056633033, 0.27055988, 37962.766, 37962.766, 0.0000015022418, 10.00122, 9.997586 
1.9502416e+2, 3.1629172e+2, 208344.72, 57866.418, 151078.86, -0.086449794, 0.17818022, 301882.78, 301882.78, 0.000017298122, 10.001603, 9.999624 
2.0499238e+2, 1.2630288e+2, -1756713.1, -1716019.8, -87536.98, 0.18950321, 0.25989306, -1646496.0, 55760.74, 0.0005126348, 9.999619, 10.000174 
2.0499092e+2, 1.363023e+2, -1778919.1, -1743325.1, -60626.42, 0.090008974, 0.24372162, -1697937.5, -93677.336, 0.00028421695, 9.999092, 9.999568 
2.0499218e+2, 1.4630295e+2, -1675270.9, -1644578.3, 15901.234, 0.15912503, 0.3523492, -1637825.8, -131569.75, 0.000109345194, 9.999136, 9.999547 
2.049931e+2, 1.5630156e+2, -1507323.9, -1497852.6, 40553.98, 0.13210864, 0.25856084, -1461758.6, -53484.496, 0.000021261263, 9.999551, 9.99968 
2.0499381e+2, 1.663021e+2, -1275011.1, -1157802.6, 56711.1, 0.05047488, 0.2547512, -1134855.6, 175413.81, 0.00000067965186, 9.999713, 10.001263 
2.0499462e+2, 1.763039e+2, -1191901.1, -1091244.5, 38764.28, -0.046961382, 0.30302063, -1078046.4, 134203.19, 0.0, 9.999717, 10.001045 
2.0499735e+2, 1.8630467e+2, -1168390.3, -1199242.5, 70644.39, 0.0073290165, 0.36378327, -1111507.4, 2737.5586, 0.0, 9.999935, 9.999528 
2.0500119e+2, 1.963048e+2, -1002725.56, -1044627.6, 86081.836, 0.1461998, 0.41390455, -935081.9, 81167.875, 0.0, 10.000297, 9.9997425 
2.0500247e+2, 2.0630458e+2, -753128.44, -721513.06, 37811.76, 0.07964132, 0.3431837, -696337.7, 221910.83, 0.0, 10.000683, 10.0011015 
2.0500226e+2, 2.1630417e+2, -624669.56, -645193.1, -5010.56, -0.10817272, 0.18610269, -623511.6, 196732.0, 0.0, 10.001049, 10.000775 
2.0500505e+2, 2.2630392e+2, -755106.7, -917499.44, 54787.707, -0.10037575, 0.2161324, -738351.3, -16105.087, 0.0, 10.000603, 9.998447 
2.0500967e+2, 2.3630375e+2, -780737.9, -862066.56, 80449.44, 0.027232716, 0.34501582, -731259.56, -107005.95, 0.0, 9.99968, 9.998602 
2.0501275e+2, 2.4630246e+2, -630172.0, -632366.0, 36635.996, 0.09776074, 0.30417725, -594616.6, -68351.77, 0.0, 9.999583, 9.99955 
2.0501485e+2, 2.5630054e+2, -482669.06, -532551.75, 24869.867, 0.13050914, 0.14807886, -472388.53, -44110.25, 0.0, 10.000016, 9.999354 
2.050166e+2, 2.6629913e+2, -339710.0, -565084.1, 25963.93, 0.13169523, 0.15191387, -336757.53, -6467.1455, 0.0, 10.000981, 9.997994 
2.0501812e+2, 2.7629802e+2, -50293.324, -365428.63, 38688.0, 0.118116304, 0.22993764, -45613.246, 186689.27, 0.0, 10.0022545, 9.998079 
2.0502007e+2, 2.8629676e+2, 50351.766, -215850.02, 33131.477, 0.12027101, 0.27230516, 54413.34, 188727.61, 0.0, 10.002057, 9.998528 
2.0502214e+2, 2.9629576e+2, -11803.956, -195644.89, 2985.1372, 0.11975751, 0.31376237, -11755.497, 24566.836, 0.000000000097020676, 10.00096, 9.998522 
2.0502326e+2, 3.062938e+2, 9013.278, -173511.22, 14821.672, -0.04398486, 0.27449757, 10209.02, 10209.02, 0.0000007350318, 10.000828, 9.998409 
2.0502566e+2, 3.1629142e+2, 201900.14, 130079.73, 14990.249, -0.07749314, 0.18361853, 204903.3, 204903.3, 0.000010898163, 10.001243, 10.00029 
2.1499136e+2, 1.263014e+2, -1733657.4, -1665032.9, -111511.76, 0.11861811, 0.2740604, -1582673.8, 119597.3, 0.00045092413, 9.999605, 10.00053 
2.1498989e+2, 1.3630016e+2, -1754788.8, -1693029.1, -75178.055, 0.07468899, 0.16075109, -1642636.0, -38355.73, 0.00024584652, 9.999091, 9.999914 
2.1499115e+2, 1.463014e+2, -1630868.5, -1551842.9, 30294.615, 0.1415199, 0.2788211, -1541565.9, -35295.93, 0.00009091271, 9.999134, 10.000184 
2.1499194e+2, 1.5630175e+2, -1473632.5, -1426505.6, 55940.863, 0.05653952, 0.29605523, -1389368.0, 18903.322, 0.000015871614, 9.999545, 10.000173 
2.1499343e+2, 1.6630226e+2, -1314023.3, -1236170.3, 56090.11, 0.036809213, 0.29952347, -1206822.5, 103445.016, 0.00000031009594, 9.999702, 10.00073 
2.1499556e+2, 1.7630297e+2, -1219824.6, -1147393.9, 41862.355, 0.07391444, 0.2888369, -1128255.8, 84003.836, 0.0, 9.99971, 10.000663 
2.1499711e+2, 1.863037e+2, -1128507.6, -1114858.3, 82810.46, -0.0103963595, 0.33047348, -1038591.7, 75661.91, 0.0, 9.9999275, 10.000112 
2.1499832e+2, 1.9630447e+2, -979739.5, -995273.8, 101680.95, -0.173292, 0.3881048, -885529.5, 130719.305, 0.0, 10.00029, 10.000084 
2.1500146e+2, 2.0630458e+2, -849652.25, -919006.5, 50923.23, -0.091845356, 0.40974742, -822720.25, 95527.6, 0.0, 10.00067, 9.999751 
2.1500582e+2, 2.1630424e+2, -700765.3, -799622.25, 3913.358, 0.13982245, 0.39395332, -700610.6, 119638.82, 0.0, 10.001034, 9.999722 
2.1500818e+2, 2.2630283e+2, -691361.25, -782504.2, 17900.69, 0.15029722, 0.30012548, -687971.56, 34289.94, 0.0, 10.00059, 9.99938 
2.1500932e+2, 2.3630077e+2, -728364.2, -749743.7, 53678.633, 0.022504749, 0.14663962, -684321.25, -60041.453, 0.0, 9.999665, 9.999377 
2.150111e+2, 2.463003e+2, -650499.44, -675031.44, 51084.234, -0.028958663, 0.17053021, -610229.25, -83946.625, 0.0, 9.999583, 9.999259 
2.1501327e+2, 2.5630078e+2, -497386.34, -561825.1, 46342.094, -0.0340519, 0.28722668, -473163.9, -44887.94, 0.0, 10.0000105, 9.999157 
2.1501654e+2, 2.6629946e+2, -316930.78, -516299.72, 73467.52, 0.025278209, 0.2877315, -292782.84, 37504.063, 0.0, 10.000977, 9.99833 
2.1502048e+2, 2.7629697e+2, -42755.344, -345964.1, 76855.586, 0.12425125, 0.19612955, -24387.17, 207922.25, 0.0, 10.002239, 9.998219 
2.1502207e+2, 2.862947e+2, -24641.125, -368979.1, -10748.055, 0.11275167, 0.19268778, -24305.965, 110026.46, 0.0, 10.002047, 9.997482 
2.1502219e+2, 2.9629293e+2, -73918.2, -326358.22, -29899.385, 0.024574613, 0.25599837, -70425.2, -34072.563, 0.0, 10.000966, 9.997623 
2.150241e+2, 3.0629054e+2, 27106.37, -137227.67, 30762.61, -0.043709327, 0.19882567, 32676.215, 32676.215, 0.00000029764618, 10.0008335, 9.998655 
2.1502894e+2, 3.1628895e+2, 196943.66, 118374.33, 28433.805, 0.11833118, 0.1634565, 206154.0, 206154.0, 0.0000064156898, 10.0012455, 10.00021 
2.249904e+2, 1.2630108e+2, -1570196.1, -1539796.1, -12.804131, 0.01712894, 0.22354475, -1539796.1, 162474.8, 0.00038622326, 10.00053, 10.000943 
2.2498918e+2, 1.363e+2, -1677189.4, -1619618.1, 38567.67, 0.0777764, 0.09049594, -1600278.1, 4000.0847, 0.00020573678, 9.999474, 10.000232 
2.2499046e+2, 1.463014e+2, -1643728.0, -1551366.0, 153476.67, 0.16466324, 0.20678167, -1437273.0, 68993.17, 0.00007189719, 9.99902, 10.000244 
2.2499092e+2, 1.5630227e+2, -1561313.8, -1474675.8, 131839.78, 0.029535554, 0.27134508, -1379220.6, 29041.363, 0.000010694928, 9.998973, 10.000119 
2.2499274e+2, 1.6630241e+2, -1464816.4, -1405506.4, 99668.54, 0.02934109, 0.2874526, -1331174.8, -20911.15, 0.000000092361944, 9.999082, 9.999868 
2.2499557e+2, 1.7630213e+2, -1331730.0, -1280325.4, 59919.555, 0.12752585, 0.26521695, -1240828.3, -28560.328, 0.0, 9.99928, 9.999959 
2.2499707e+2, 1.8630259e+2, -1178198.5, -1099117.9, 87401.8, 0.017549146, 0.28752196, -1042728.44, 71535.3, 0.0, 9.999417, 10.0004635 
2.249977e+2, 1.9630347e+2, -1080085.3, -1021048.44, 84949.0, -0.22451143, 0.32262975, -960635.4, 55619.02, 0.0, 9.999505, 10.000285 
2.2500116e+2, 2.0630361e+2, -1095428.0, -1122885.1, 51454.477, -0.12274637, 0.38264692, -1055902.1, -137647.11, 0.0, 9.999352, 9.998986 
2.2500636e+2, 2.1630326e+2, -1029279.56, -1026204.9, 45226.992, 0.1891378, 0.44012782, -982489.1, -162227.22, 0.0, 9.999074, 9.99911 
2.2500893e+2, 2.2630185e+2, -800255.2, -786098.75, 56318.863, 0.21511492, 0.3496793, -736415.06, -14141.331, 0.0, 9.999635, 9.999815 
2.2500992e+2, 2.362998e+2, -554441.44, -629742.4, 53415.55, 0.064003065, 0.15621436, -526740.7, 97547.89, 0.0, 10.000704, 9.9997015 
2.2501181e+2, 2.4629927e+2, -404553.72, -597905.8, 49962.68, -0.008909137, 0.1798858, -392406.38, 133885.2, 0.0, 10.001453, 9.998886 
2.2501427e+2, 2.5629964e+2, -228137.16, -468312.03, 32608.64, -0.034272555, 0.3207459, -223788.61, 204498.86, 0.0, 10.002018, 9.998831 
2.2501773e+2, 2.6629815e+2, -231640.45, -476216.72, 30079.9, 0.017355667, 0.31761295, -227995.33, 102305.305, 0.0, 10.001568, 9.998322 
2.2502178e+2, 2.7629545e+2, -299473.56, -475117.13, 7240.34, 0.11843484, 0.2090241, -299175.6, -66850.734, 0.0, 10.000504, 9.998168 
2.2502337e+2, 2.8629267e+2, -217525.44, -506117.75, -56083.44, 0.095151775, 0.1776306, -207009.67, -72656.49, 0.0, 10.000911, 9.997088 
2.2502339e+2, 2.962901e+2, 75819.31, -298185.5, -31814.047, -0.01248998, 0.1998658, 78506.21, 114887.734, 0.0, 10.002185, 9.997229 
2.25026e+2, 3.0628738e+2, 277097.2, -48252.742, 32089.777, -0.027789762, 0.14686419, 280232.06, 280232.06, 0.000000091080636, 10.002685, 9.998375 
2.2503203e+2, 3.1628627e+2, 369596.72, 135285.11, -19665.572, 0.22950321, 0.18367262, 371235.75, 371235.75, 0.000003445728, 10.002717, 9.999619 
2.3498942e+2, 1.2630197e+2, -1539486.0, -1477644.0, -41328.47, -0.14140151, 0.10972567, -1456949.6, 245306.22, 0.0003226795, 10.000537, 10.0013685 
2.3498882e+2, 1.3630185e+2, -1659750.6, -1581324.8, 3054.6167, 0.09239562, 0.03291821, -1581206.0, 23048.104, 0.0001666326, 9.999464, 10.000501 
2.3499006e+2, 1.4630294e+2, -1683749.1, -1629070.8, 150529.27, 0.22044158, 0.13594489, -1503418.1, 2826.4875, 0.00005400246, 9.998998, 9.999722 
2.3499e+2, 1.5630311e+2, -1604567.1, -1564473.9, 133155.89, 0.037610557, 0.18428887, -1449864.0, -41617.527, 0.000006396683, 9.998973, 9.999503 
2.349917e+2, 1.6630247e+2, -1546842.6, -1576040.8, 105339.13, 0.013375247, 0.21772988, -1455095.8, -144837.7, 0.000000013163342, 9.9990835, 9.998697 
2.3499465e+2, 1.763014e+2, -1402053.1, -1424956.8, 68386.28, 0.102757916, 0.23171428, -1344166.4, -131891.83, 0.0, 9.999273, 9.99897 
2.3499714e+2, 1.863013e+2, -1173277.4, -1084708.5, 90421.58, 0.07908233, 0.23447056, -1028309.4, 85965.984, 0.0, 9.9994, 10.00057 
2.3499928e+2, 1.9630177e+2, -1076778.3, -1012150.56, 88340.02, -0.019276278, 0.21816708, -950399.9, 65866.82, 0.0, 9.999497, 10.000349 
2.350015e+2, 2.0630164e+2, -1109263.0, -1149032.9, 39237.26, -0.02562764, 0.26008123, -1085159.6, -166889.45, 0.0, 9.999342, 9.998811 
2.3500383e+2, 2.163012e+2, -1043058.56, -1050538.6, 43296.066, 0.026391258, 0.324424, -1003341.25, -183060.36, 0.0, 9.999058, 9.99895 
2.3500727e+2, 2.26301e+2, -806666.3, -797915.7, 95563.16, 0.083315216, 0.36585593, -706627.7, 15655.081, 0.0, 9.999627, 9.999739 
2.3501141e+2, 2.3630093e+2, -564606.0, -647990.5, 92683.445, 0.14103025, 0.3775239, -504669.22, 119610.33, 0.0, 10.000693, 9.999581 
2.3501484e+2, 2.4629942e+2, -438308.2, -667708.2, 69986.27, 0.1456642, 0.33595335, -418642.38, 107649.27, 0.0, 10.00145, 9.99841 
2.3501784e+2, 2.5629702e+2, -263494.94, -537538.0, 47368.74, 0.11801946, 0.24804313, -255538.2, 172775.02, 0.0, 10.002, 9.998364 
2.3502013e+2, 2.662951e+2, -256904.98, -525930.8, -12603.389, 0.098925956, 0.24142909, -256315.83, 74016.086, 0.0, 10.001556, 9.997986 
2.3502198e+2, 2.762934e+2, -316930.84, -510650.28, -20485.064, 0.0855505, 0.26566365, -314788.3, -82439.06, 0.0, 10.0005, 9.997926 
2.3502387e+2, 2.8629056e+2, -201269.86, -471242.3, -8844.341, 0.051042765, 0.22552355, -200980.44, -66603.55, 0.0, 10.000906, 9.997331 
2.3502569e+2, 2.962872e+2, 80474.484, -285984.94, 11117.016, -0.0037565513, 0.14754353, 80811.42, 117220.73, 0.0, 10.002173, 9.997319 
2.3502897e+2, 3.0628434e+2, 222353.69, -160262.97, 32014.967, -0.0018480143, 0.119278476, 225014.0, 225014.0, 0.000000018380936, 10.002678, 9.997609 
2.3503481e+2, 3.1628335e+2, 290902.97, -26640.877, -20788.686, 0.22914563, 0.2463307, 292258.16, 292258.16, 0.0000016180604, 10.002709, 9.998509 
2.4498925e+2, 1.2630233e+2, -2233644.5, -1794170.1, -107366.14, 0.029216802, 0.07739249, -1769342.5, -67091.34, 0.00026302057, 9.995701, 10.001527 
2.4498768e+2, 1.3630347e+2, -1821954.0, -1651360.6, -95496.33, 0.09101756, 0.11352089, -1608614.1, -4374.4663, 0.0001305452, 9.998318, 10.000573 
2.4498907e+2, 1.4630415e+2, -1612357.8, -1621635.3, 44135.754, 0.19334409, 0.18598083, -1572617.8, -66383.48, 0.000038366878, 9.999599, 9.999484 
2.4498962e+2, 1.5630329e+2, -1465234.9, -1521684.6, 46419.05, 0.050038673, 0.15412615, -1439133.3, -30888.615, 0.000003303544, 10.000033, 9.999286 
2.4499115e+2, 1.6630243e+2, -1421986.9, -1535396.1, 69103.88, 0.0033681986, 0.18474148, -1389300.5, -79042.766, 0.00000000018007511, 10.000025, 9.998524 
2.4499345e+2, 1.7630161e+2, -1346299.9, -1423304.6, 103024.48, 0.032900155, 0.24193814, -1274818.3, -62546.42, 0.0, 9.999765, 9.998745 
2.4499653e+2, 1.863011e+2, -1149309.3, -1136093.3, 131628.2, 0.058243703, 0.2448231, -1010907.25, 103369.7, 0.0, 9.999836, 10.000009 
2.4500002e+2, 1.9630073e+2, -1018686.25, -1036683.94, 78086.77, 0.07367163, 0.19992846, -949081.5, 67195.35, 0.0, 10.000123, 9.99988 
2.450022e+2, 2.063002e+2, -887853.6, -1028265.0, 31233.586, 0.03674038, 0.21357623, -881219.4, 37064.227, 0.0, 10.000801, 9.998939 
2.4500364e+2, 2.1629958e+2, -653567.1, -857767.7, 55001.44, -0.028874781, 0.24910203, -639694.9, 180599.56, 0.0, 10.001705, 9.9990015 
2.4500729e+2, 2.2629946e+2, -496455.7, -698645.0, 107367.484, 0.004984912, 0.32380956, -450078.63, 272217.3, 0.0, 10.001976, 9.999289 
2.4501225e+2, 2.3629965e+2, -420733.5, -621995.0, 71218.484, 0.09710637, 0.40571728, -398081.56, 226210.47, 0.0, 10.00187, 9.999192 
2.4501649e+2, 2.4629785e+2, -452157.16, -672564.8, 44538.047, 0.16943139, 0.35044417, -443497.53, 82809.836, 0.0, 10.0013485, 9.998424 
2.4502021e+2, 2.5629482e+2, -469836.34, -640312.06, 56962.656, 0.2267056, 0.1995681, -452554.78, -24220.45, 0.0, 10.000597, 9.998334 
2.450222e+2, 2.6629284e+2, -362388.63, -616811.9, 17966.45, 0.17758892, 0.20757334, -361126.16, -30771.586, 0.0, 10.001001, 9.99763 
2.4502306e+2, 2.7629143e+2, -105582.08, -444391.75, 7844.5186, 0.06470022, 0.2952957, -105400.555, 126970.48, 0.0, 10.0021, 9.997613 
2.4502568e+2, 2.8628886e+2, 44660.652, -348918.47, 33597.023, 0.05966688, 0.29018593, 47507.99, 181904.52, 0.0, 10.002578, 9.997366 
2.4502929e+2, 2.9628566e+2, 152356.48, -255367.81, 31699.184, 0.11267183, 0.2251308, 154806.27, 191232.8, 0.0, 10.002684, 9.997285 
2.4503207e+2, 3.062827e+2, 182838.03, -230960.39, 41950.03, 0.045231257, 0.2148295, 187048.0, 187048.0, 0.000000001915935, 10.002632, 9.997145 
2.4503586e+2, 3.1628078e+2, 202314.16, -150520.19, 296.53653, 0.076877795, 0.30196312, 202314.4, 202314.4, 0.00000063402746, 10.002451, 9.997785 
2.5498977e+2, 1.2630215e+2, -2246823.0, -1816389.5, -8960.939, 0.50624835, 0.12596978, -1816203.1, -113945.81, 0.00020976436, 9.995674, 10.001389 
2.549857e+2, 1.3630481e+2, -1827817.0, -1669810.5, -5685.898, 0.05750026, 0.33048573, -1669606.3, -65370.6, 0.00009902971, 9.998341, 10.000437 
2.5498745e+2, 1.4630498e+2, -1605391.0, -1609128.0, 58209.777, 0.06661183, 0.3548776, -1549019.8, -42784.285, 0.000025643241, 9.999609, 9.999563 
2.549897e+2, 1.5630281e+2, -1453041.1, -1493767.6, 60047.95, 0.053276062, 0.17993368, -1409997.6, -1741.2726, 0.0000014046367, 10.000023, 9.999482 
2.5499105e+2, 1.6630228e+2, -1367711.8, -1418953.5, 57701.4, -0.012021225, 0.18880805, -1330198.8, -19936.172, 0.0, 10.000009, 9.999331 
2.54992e+2, 1.7630278e+2, -1308477.6, -1345389.9, 96652.01, -0.09227003, 0.29953763, -1228535.4, -16275.854, 0.0, 9.999768, 9.999279 
2.5499523e+2, 1.8630198e+2, -1234126.8, -1313363.0, 141252.8, -0.05783853, 0.31869557, -1127041.4, -12772.725, 0.0, 9.999842, 9.99879 
2.5499985e+2, 1.9630033e+2, -1089841.5, -1182516.9, 93582.1, 0.041226584, 0.26679114, -1031753.1, -15467.987, 0.0, 10.000114, 9.998882 
2.5500318e+2, 2.062992e+2, -861304.6, -968569.25, 64916.45, 0.05315976, 0.24001412, -830731.4, 87564.266, 0.0, 10.000782, 9.999357 
2.5500578e+2, 2.1629839e+2, -638110.0, -821700.3, 86032.34, 0.012317186, 0.21685939, -604096.1, 216206.31, 0.0, 10.00169, 9.999257 
2.5500894e+2, 2.2629729e+2, -553937.5, -817248.7, 102096.125, -0.032854747, 0.2258121, -518989.3, 203323.75, 0.0, 10.001971, 9.998477 
2.5501236e+2, 2.3629597e+2, -467036.2, -716601.75, 66044.625, -0.0783428, 0.23947926, -450635.97, 173690.33, 0.0, 10.001862, 9.998548 
2.5501665e+2, 2.4629456e+2, -417846.97, -599577.06, 14476.837, 0.048023228, 0.22283371, -416700.97, 109637.91, 0.0, 10.001342, 9.998928 
2.5502133e+2, 2.562931e+2, -441937.9, -581759.75, 38497.164, 0.27709395, 0.17507277, -432039.25, -3688.2952, 0.0, 10.000595, 9.998736 
2.5502384e+2, 2.6629138e+2, -388186.34, -671577.9, 58242.19, 0.2400041, 0.2173032, -376683.4, -46314.68, 0.0, 10.001006, 9.997252 
2.55025e+2, 2.7628955e+2, -131873.13, -498007.8, 45844.793, 0.044317044, 0.29969698, -126220.05, 106170.26, 0.0, 10.002095, 9.997248 
2.5502878e+2, 2.8628746e+2, 31709.914, -374417.88, 35454.19, 0.10923149, 0.37191412, 34781.766, 169194.1, 0.0, 10.002573, 9.997193 
2.5503406e+2, 2.962853e+2, 140172.22, -277164.38, 34830.36, 0.32055575, 0.428967, 143059.16, 179493.06, 0.0, 10.002669, 9.997142 
2.5503528e+2, 3.062823e+2, 169304.69, -256757.58, 35072.57, 0.10034799, 0.42863047, 172172.48, 172172.48, 0.000000000039700524, 10.002623, 9.996973 
2.5503507e+2, 3.162785e+2, 179019.16, -199545.33, -4378.313, -0.25172865, 0.34397513, 179069.78, 179069.78, 0.00000021774382, 10.002454, 9.997447 
2.649859e+2, 1.2630108e+2, -2151484.0, -1740868.1, -16304.844, 0.52850735, 0.18946658, -1740221.8, -37948.656, 0.00016526908, 9.996198, 10.001653 
2.649832e+2, 1.3630371e+2, -2019232.4, -1733462.3, 6870.2324, 0.04642995, 0.36368346, -1733297.3, -129046.945, 0.000073295, 9.996902, 10.000692 
2.64986e+2, 1.4630394e+2, -1864961.5, -1714597.9, 58905.402, 0.057969786, 0.37282994, -1694269.8, -188020.13, 0.000016155976, 9.9977455, 9.999738 
2.64989e+2, 1.5630229e+2, -1623862.4, -1554350.8, 58925.586, 0.04173993, 0.23246102, -1520694.6, -112428.27, 0.00000046134082, 9.998757, 9.999676 
2.649909e+2, 1.6630213e+2, -1427592.8, -1415619.6, 18085.45, 0.0023388758, 0.25303218, -1402555.6, -92287.64, 0.0, 9.999462, 9.999617 
2.6499245e+2, 1.7630287e+2, -1267000.4, -1302318.1, 16151.584, -0.034774117, 0.35949424, -1260727.9, -48467.37, 0.0, 9.999955, 9.999484 
2.6499555e+2, 1.8630184e+2, -1230925.9, -1345373.5, 87844.1, -0.020638503, 0.3672707, -1183311.0, -69040.15, 0.0, 10.000008, 9.99849 
2.649996e+2, 1.9629976e+2, -1154189.3, -1247701.1, 108717.03, 0.019435544, 0.30045033, -1082600.3, -66308.1, 0.0, 9.999821, 9.998577 
2.6500365e+2, 2.0629823e+2, -975865.94, -1061358.5, 98181.83, 0.054178588, 0.26610026, -911528.56, 6777.6953, 0.0, 10.000158, 9.999021 
2.6500776e+2, 2.1629706e+2, -789187.9, -928199.9, 57176.73, 0.08428849, 0.23997243, -768692.44, 51623.363, 0.0, 10.0008, 9.998952 
2.6501083e+2, 2.2629559e+2, -710009.0, -901703.5, 58186.313, 0.013920187, 0.22985761, -693729.8, 28600.223, 0.0, 10.000939, 9.998394 
2.6501334e+2, 2.3629393e+2, -630353.0, -806949.2, 74874.93, -0.115024075, 0.21653777, -602880.6, 21466.56, 0.0, 10.000788, 9.9984455 
2.6501733e+2, 2.4629268e+2, -422872.3, -629059.94, 22809.33, -0.01956389, 0.235672, -420379.2, 105979.82, 0.0, 10.001422, 9.998689 
2.6502225e+2, 2.562917e+2, -172862.4, -472370.03, -7909.909, 0.21135361, 0.25764763, -172653.64, 255714.23, 0.0, 10.00253, 9.998557 
2.650256e+2, 2.6628968e+2, -80986.016, -505794.2, 32308.754, 0.20995913, 0.26754415, -78542.83, 251844.84, 0.0, 10.003042, 9.99741 
2.6502788e+2, 2.7628708e+2, 35169.242, -402939.34, 54559.914, 0.07146018, 0.25954226, 41861.637, 274275.72, 0.0, 10.003185, 9.997373 
2.6503175e+2, 2.862849e+2, 87245.34, -366287.25, 38629.223, 0.12841283, 0.3238338, 90512.02, 224948.78, 0.0, 10.0030365, 9.9970255 
2.6503646e+2, 2.9628292e+2, 133421.28, -295607.16, 36284.62, 0.2931715, 0.41916305, 136468.38, 172925.34, 0.0, 10.002688, 9.997006 
2.6503783e+2, 3.0628026e+2, 205088.23, -246347.13, 56518.734, 0.084354, 0.4576608, 212056.69, 212056.69, 0.0, 10.0028925, 9.996918 
2.65038e+2, 3.1627566e+2, 318747.38, -137721.11, 18090.236, -0.25234663, 0.30326685, 319463.2, 319463.2, 0.000000083141636, 10.003435, 9.997401 
2.749775e+2, 1.2629911e+2, -2104737.5, -1642525.5, 8312.106, 0.05926717, 0.2697579, -1642376.0, 59922.69, 0.00013112096, 9.996195, 10.002326 
2.7498013e+2, 1.3630018e+2, -1975435.4, -1634555.8, 32598.408, 0.045963347, 0.21313588, -1631466.3, -27182.453, 0.000054122807, 9.996874, 10.001382 
2.749848e+2, 1.4630103e+2, -1849826.5, -1680626.1, 94979.92, 0.15718664, 0.24159518, -1638032.0, -131755.27, 0.000009862749, 9.997729, 9.999981 
2.7498737e+2, 1.5630174e+2, -1609359.5, -1526247.6, 96397.74, 0.0013773629, 0.31338173, -1462830.1, -54555.65, 0.00000011248763, 9.998764, 9.9998665 
2.7499074e+2, 1.6630195e+2, -1443596.3, -1449456.8, 35192.926, 0.032147422, 0.37714753, -1411211.8, -100937.79, 0.0, 9.999465, 9.999383 
2.749947e+2, 1.7630184e+2, -1277329.6, -1320630.0, 32114.53, 0.19314475, 0.41923124, -1260249.0, -47974.094, 0.0, 9.999943, 9.999364 
2.7499735e+2, 1.8630074e+2, -1191379.5, -1259724.8, 78790.63, 0.15809017, 0.38875952, -1139670.0, -25385.908, 0.0, 9.999992, 9.999085 
2.749992e+2, 1.9629903e+2, -1128359.3, -1192242.6, 106699.02, -0.0031694965, 0.3026619, -1048923.4, -32625.297, 0.0, 9.999813, 9.998961 
2.7500358e+2, 2.0629734e+2, -1053024.9, -1218776.1, 121401.86, 0.02699289, 0.29560208, -988908.0, -70592.85, 0.0, 10.000147, 9.997946 
2.7500945e+2, 2.162956e+2, -850563.75, -1052461.6, 79546.39, 0.17436329, 0.318351, -822989.06, -2654.4924, 0.0, 10.000787, 9.998105 
2.75013e+2, 2.2629435e+2, -667931.8, -811635.44, 50923.773, 0.13334344, 0.33433768, -651716.0, 70631.055, 0.0, 10.000927, 9.999019 
2.750151e+2, 2.3629346e+2, -602030.06, -745442.5, 76307.484, -0.022498634, 0.33638716, -569024.25, 55330.73, 0.0, 10.000775, 9.998875 
2.7501854e+2, 2.4629219e+2, -492070.3, -770310.7, 63445.723, -0.04468344, 0.3863485, -478286.0, 48082.293, 0.0, 10.001412, 9.997724 
2.7502286e+2, 2.5629058e+2, -228191.61, -584399.6, 30113.514, 0.01601664, 0.44630718, -225663.78, 202721.67, 0.0, 10.002517, 9.997793 
2.7502728e+2, 2.6628768e+2, -34238.027, -404632.22, 35593.137, 0.075784884, 0.35946342, -30848.709, 299562.78, 0.0, 10.003026, 9.998111 
2.7503175e+2, 2.7628404e+2, 74405.52, -316737.44, 59039.957, 0.13387643, 0.17417976, 83122.86, 315565.4, 0.0, 10.003167, 9.997973 
2.7503464e+2, 2.8628108e+2, 74969.91, -390518.7, 24171.928, 0.10681484, 0.1465516, 76221.734, 210691.73, 0.0, 10.003031, 9.996861 
2.7503642e+2, 2.9627857e+2, 125433.81, -313600.63, 28740.785, 0.019566448, 0.20029508, 127307.3, 163802.73, 0.0, 10.002694, 9.996881 
2.7503976e+2, 3.0627653e+2, 209878.72, -237418.8, 76080.67, -0.015229318, 0.30619654, 222465.1, 222465.1, 0.0, 10.002897, 9.996975 
2.750445e+2, 3.162722e+2, 331324.5, -104697.0, 37548.695, 0.046031486, 0.16992551, 334534.44, 334534.44, 0.000000039236188, 10.003406, 9.997641 
2.8497368e+2, 1.2629735e+2, -1878072.0, -1547391.6, 94231.195, -0.022764668, 0.31057408, -1522424.5, 179894.77, 0.000106857166, 9.997812, 10.002201 
2.8497776e+2, 1.3629788e+2, -1725055.8, -1522193.6, 40553.215, 0.036433097, 0.20783432, -1514387.1, 89921.484, 0.000041325715, 9.998623, 10.001313 
2.849833e+2, 1.4629878e+2, -1737661.6, -1627579.4, 53462.344, 0.19760391, 0.24470362, -1605888.9, -99587.39, 0.0000062880904, 9.998507, 9.99997 
2.8498617e+2, 1.5630028e+2, -1739302.6, -1591045.3, 35580.61, 0.05036557, 0.39519262, -1582948.4, -174655.8, 0.000000028346124, 9.997881, 9.999849 
2.849902e+2, 1.6630006e+2, -1592832.5, -1530444.4, 211.30507, 0.08348811, 0.42138332, -1530443.6, -220148.08, 0.0, 9.998481, 9.9993 
2.8499508e+2, 1.7629878e+2, -1293646.3, -1335862.0, 616.19916, 0.24311417, 0.35629296, -1293637.3, -81331.33, 0.0, 9.999864, 9.999297 
2.84998e+2, 1.8629774e+2, -1088519.5, -1200644.1, 3664.0142, 0.1898364, 0.33150563, -1088399.9, 25914.488, 0.0, 10.000659, 9.999167 
2.8499967e+2, 1.9629687e+2, -939047.06, -1091673.1, -9363.412, -0.0009623249, 0.3216077, -938474.75, 77846.57, 0.0, 10.001071, 9.999046 
2.8500402e+2, 2.0629558e+2, -905869.44, -1125991.1, 54416.695, 0.012612502, 0.3385116, -893151.75, 25182.725, 0.0, 10.001062, 9.998141 
2.8501004e+2, 2.1629393e+2, -838667.06, -1032039.0, 102125.555, 0.15296876, 0.35243028, -794719.44, 25632.46, 0.0, 10.000805, 9.998237 
2.850139e+2, 2.2629255e+2, -699268.75, -864853.4, 63272.195, 0.1347208, 0.3673897, -677859.7, 44506.266, 0.0, 10.000875, 9.998679 
2.8501645e+2, 2.3629136e+2, -569662.5, -762932.25, 18170.623, 0.020282265, 0.37225646, -567969.0, 56408.695, 0.0, 10.001142, 9.998576 
2.8502038e+2, 2.4628967e+2, -488561.44, -772557.44, 46426.74, -0.0017452332, 0.39677992, -481164.4, 45230.37, 0.0, 10.001454, 9.997687 
2.8502518e+2, 2.5628766e+2, -335789.4, -641430.8, 76768.1, 0.033221744, 0.41821367, -317591.06, 110824.35, 0.0, 10.0018015, 9.997747 
2.8502962e+2, 2.6628503e+2, -200609.14, -497581.44, 51636.844, 0.062127955, 0.36790663, -191886.83, 138552.64, 0.0, 10.001936, 9.997999 
2.8503382e+2, 2.76282e+2, -110361.98, -412974.94, 13354.83, 0.08845123, 0.26048657, -109773.74, 122691.95, 0.0, 10.001924, 9.997913 
2.85037e+2, 2.862788e+2, 48570.547, -375750.1, -8790.409, 0.058258854, 0.19251469, 48752.574, 183247.86, 0.0, 10.002729, 9.997109 
2.8503948e+2, 2.9627544e+2, 341050.53, -179685.42, 18897.97, -0.013825916, 0.13969377, 341735.47, 378262.1, 0.0, 10.004049, 9.997147 
2.8504348e+2, 3.0627403e+2, 334411.22, -153686.23, 53416.426, 0.030411711, 0.27950463, 340188.63, 340188.63, 0.0, 10.003655, 9.997183 
2.8504848e+2, 3.1627047e+2, 173494.98, -125111.07, 19915.88, 0.1743724, 0.20578748, 174817.44, 174817.44, 0.000000022768178, 10.002083, 9.998135 
2.9497436e+2, 1.2629585e+2, -1943600.0, -1684688.6, 129288.24, 0.2554273, 0.31401747, -1631184.6, 71149.49, 0.00009036305, 9.997814, 10.001261 
2.949761e+2, 1.3629685e+2, -1781689.1, -1641837.6, 64439.97, 0.0016447537, 0.34948325, -1616673.4, -12348.9795, 0.00003357825, 9.9986315, 10.000488 
2.9498148e+2, 1.4629723e+2, -1758108.1, -1669659.3, 26378.395, 0.16002552, 0.38468948, -1662389.8, -156066.44, 0.0000046865553, 9.998505, 9.999682 
2.9498532e+2, 1.5629788e+2, -1758590.6, -1626158.1, 21533.11, 0.17374328, 0.47939667, -1622744.9, -214424.17, 0.00000001715619, 9.997863, 9.999616 
2.949893e+2, 1.6629644e+2, -1590692.0, -1523008.8, 51136.03, 0.14343677, 0.38865876, -1495530.3, -185197.67, 0.0, 9.998466, 9.99936 
2.9499355e+2, 1.7629367e+2, -1293736.4, -1335212.5, 50349.367, 0.10249841, 0.17047654, -1260021.4, -47667.77, 0.0, 9.999859, 9.999305 
2.9499736e+2, 1.8629289e+2, -1121389.5, -1265676.5, 18330.566, 0.06067225, 0.194848, -1119097.1, -4735.4497, 0.0, 10.000647, 9.998728 
2.950009e+2, 1.9629332e+2, -953791.25, -1120652.8, 4285.445, 0.014685342, 0.35660163, -953681.25, 62680.586, 0.0, 10.001064, 9.99885 
2.9500496e+2, 2.0629296e+2, -806177.1, -916304.56, 43710.863, 0.0006549683, 0.3947429, -790936.8, 127427.31, 0.0, 10.00105, 9.999587 
2.9500943e+2, 2.1629207e+2, -764609.0, -874000.75, 96709.15, 0.0075898203, 0.34298593, -708200.0, 112168.06, 0.0, 10.000787, 9.9993305 
2.9501352e+2, 2.2629017e+2, -792867.1, -1054196.3, 71559.16, 0.0054001203, 0.32966065, -774555.4, -52168.465, 0.0, 10.0008545, 9.997389 
2.9501742e+2, 2.362876e+2, -643019.5, -911531.44, 29692.543, -0.00029410364, 0.32575157, -639775.25, -15360.061, 0.0, 10.001126, 9.997563 
2.9502285e+2, 2.4628517e+2, -426361.13, -642169.75, 58433.73, 0.09631833, 0.2696982, -411555.03, 114883.195, 0.0, 10.001448, 9.998587 
2.9502916e+2, 2.5628287e+2, -289610.94, -544260.75, 90151.68, 0.25022644, 0.17263184, -260926.36, 167531.45, 0.0, 10.001796, 9.998418 
2.9503253e+2, 2.6628163e+2, -266433.13, -633880.75, 49984.258, 0.15812688, 0.2875646, -259755.06, 70717.11, 0.0, 10.001934, 9.997065 
2.9503405e+2, 2.7628106e+2, -161711.88, -519772.03, 20263.484, -0.08097634, 0.5132182, -160568.77, 71915.195, 0.0, 10.001924, 9.99718 
2.9503885e+2, 2.86278e+2, 93302.75, -280832.53, 39122.617, -0.032506853, 0.46052906, 97349.945, 231862.69, 0.0, 10.002723, 9.997764 
2.950455e+2, 2.9627362e+2, 380634.7, -90143.09, 58616.65, 0.17970592, 0.2352466, 387823.28, 424374.1, 0.0, 10.004019, 9.997776 
2.9504898e+2, 3.0627266e+2, 357110.97, -103672.984, -5656.4653, 0.21273853, 0.37554625, 357180.4, 357180.4, 0.0, 10.003641, 9.997535 
2.9505002e+2, 3.1627035e+2, 228533.69, -16607.281, -28515.64, 0.107278466, 0.38745156, 231807.02, 231807.02, 0.000000020269933, 10.002102, 9.998874 
3.0497146e+2, 1.262928e+2, -2243094.0, -1874971.0, 9504.538, 0.2802471, 0.39010963, -1874725.9, -172357.55, 0.000079028214, 9.995968, 10.000842 
3.049737e+2, 1.3629381e+2, -2007099.1, -1782699.4, -34060.934, -0.027660338, 0.4596248, -1777643.3, -173282.11, 0.000029149944, 9.997226, 10.000199 
3.0497974e+2, 1.462938e+2, -1795249.8, -1674868.5, -62903.09, 0.15056586, 0.465482, -1647997.6, -141634.61, 0.000004277796, 9.9981985, 9.999792 
3.0498406e+2, 1.5629421e+2, -1573189.4, -1523711.6, -39059.24, 0.20367394, 0.5239026, -1502216.0, -93855.6, 0.000000032166714, 9.999077, 9.999734 
3.0498838e+2, 1.6629285e+2, -1448217.9, -1423832.9, 29775.479, 0.16153026, 0.4216406, -1403850.3, -93480.266, 0.0, 9.999313, 9.999631 
3.049928e+2, 1.7629038e+2, -1382658.8, -1352246.1, 39463.754, 0.077029146, 0.20481837, -1325160.4, -112772.75, 0.0, 9.999138, 9.999534 
3.0499718e+2, 1.8628955e+2, -1363583.8, -1393026.1, 18415.594, 0.05577864, 0.21983868, -1354728.5, -240332.13, 0.0, 9.999029, 9.998634 
3.050015e+2, 1.9628973e+2, -1255810.6, -1267914.6, 30039.47, 0.0678723, 0.36690095, -1231219.6, -214820.02, 0.0, 9.9990015, 9.998833 
3.050059e+2, 2.0628963e+2, -952335.56, -943036.1, 44738.637, 0.047901675, 0.40881142, -902706.25, 15692.958, 0.0, 9.999857, 9.999979 
3.0501044e+2, 2.1628931e+2, -677542.44, -795529.75, 15272.235, 0.009811233, 0.37327042, -675597.6, 144799.28, 0.0, 10.0012245, 9.999661 
3.0501485e+2, 2.262873e+2, -663258.2, -992237.7, 9765.169, 0.0103698755, 0.3372705, -662968.56, 59447.203, 0.0, 10.001747, 9.997384 
3.050192e+2, 2.3628427e+2, -550189.5, -864914.4, 60669.066, 0.034965787, 0.28619003, -538899.44, 85548.4, 0.0, 10.001756, 9.9975815 
3.0502465e+2, 2.4628207e+2, -361085.88, -592813.25, 97091.59, 0.113006204, 0.24463904, -325783.5, 200684.92, 0.0, 10.00182, 9.998746 
3.0503073e+2, 2.5628042e+2, -260818.14, -517629.56, 72009.85, 0.21973523, 0.19979915, -242004.81, 186477.17, 0.0, 10.001937, 9.998534 
3.0503443e+2, 2.6627928e+2, -186004.48, -611507.5, 58209.535, 0.123623125, 0.32135305, -178185.03, 152311.63, 0.0, 10.002561, 9.996914 
3.050367e+2, 2.762783e+2, 58254.086, -427509.16, 82858.29, -0.09133756, 0.52561796, 71998.61, 304511.25, 0.0, 10.0035, 9.997052 
3.0504215e+2, 2.8627545e+2, 203681.39, -218850.56, 95072.39, -0.011195707, 0.4911766, 224087.75, 358628.0, 0.0, 10.003447, 9.997839 
3.0504948e+2, 2.9627156e+2, 201241.86, -171090.67, 65006.746, 0.23982365, 0.31170133, 212265.23, 248838.73, 0.0, 10.002761, 9.997825 
3.0505243e+2, 3.062704e+2, 256342.67, -164553.86, -56414.484, 0.22690614, 0.43469328, 263772.97, 263772.97, 0.0, 10.003003, 9.997421 
3.0505174e+2, 3.1626785e+2, 489899.3, 140434.69, -115845.0, -0.011446902, 0.43123484, 524813.0, 524813.0, 0.000000016635376, 10.003773, 9.999144 
3.149649e+2, 1.2628828e+2, -2238409.3, -1864943.0, 63857.84, 0.02024269, 0.5456303, -1854325.9, -151905.17, 0.000070953254, 9.995966, 10.000914 
3.1497055e+2, 1.3628875e+2, -1989648.6, -1746633.8, 11262.755, -0.06534985, 0.54312706, -1746112.9, -141694.22, 0.00002673591, 9.997228, 10.000447 
3.14978e+2, 1.4628856e+2, -1759590.3, -1601465.6, -31428.9, 0.15256621, 0.49040654, -1595447.9, -89027.484, 0.0000044998383, 9.9981985, 10.000298 
3.1498238e+2, 1.5628925e+2, -1538391.3, -1451035.0, -9073.269, 0.12368137, 0.52675545, -1450102.5, -41690.813, 0.00000006594377, 9.999075, 10.000234 
3.149873e+2, 1.662893e+2, -1417697.5, -1357949.1, 21779.084, 0.12209895, 0.5192925, -1350853.1, -40445.26, 0.0, 9.999303, 10.000088 
3.1499273e+2, 1.7628889e+2, -1353811.8, -1289798.4, 34088.65, 0.15501374, 0.46212283, -1275045.5, -62637.695, 0.0, 9.999128, 9.999967 
3.149973e+2, 1.8628773e+2, -1344495.9, -1352945.6, 15527.419, 0.16117288, 0.41036278, -1332628.8, -218210.7, 0.0, 9.999025, 9.998912 
3.1500128e+2, 1.9628613e+2, -1245804.0, -1244731.6, 37328.727, 0.14552951, 0.35046107, -1207935.3, -191500.48, 0.0, 9.99899, 9.998998 
3.150067e+2, 2.0628557e+2, -1002986.25, -1041411.75, 95630.734, 0.14038639, 0.37755138, -924657.4, -6217.3403, 0.0, 9.999829, 9.999317 
3.1501302e+2, 2.1628563e+2, -708751.56, -856075.2, 62219.87, 0.14502218, 0.44360152, -685990.5, 134448.1, 0.0, 10.001206, 9.999253 
3.1501788e+2, 2.2628401e+2, -576241.1, -808152.44, 9324.158, 0.13501815, 0.3915172, -575866.8, 146585.5, 0.0, 10.001732, 9.998655 
3.1502175e+2, 2.3628135e+2, -478903.38, -714800.3, 63284.332, 0.11329701, 0.2529127, -462998.38, 161477.19, 0.0, 10.001746, 9.998617 
3.1502575e+2, 2.4628034e+2, -404751.3, -681250.0, 99316.86, 0.036930025, 0.31889325, -372775.16, 153710.72, 0.0, 10.00181, 9.998143 
3.1502983e+2, 2.5628036e+2, -292954.6, -581091.56, 80825.81, -0.070261754, 0.49704984, -271830.66, 156657.67, 0.0, 10.001924, 9.998104 
3.1503528e+2, 2.6627785e+2, -142560.42, -519843.44, 92181.62, -0.051929183, 0.47076416, -121242.25, 209270.61, 0.0, 10.002553, 9.997548 
3.1504154e+2, 2.7627382e+2, 90068.11, -356528.2, 112275.9, 0.042781223, 0.301781, 116705.83, 349257.38, 0.0, 10.003478, 9.99755 
3.1504682e+2, 2.8627107e+2, 164977.8, -294145.28, 67570.766, 0.109460846, 0.28486747, 174715.88, 309293.84, 0.0, 10.003426, 9.997332 
3.1505135e+2, 2.962693e+2, 164252.22, -245904.25, 48218.254, 0.14929329, 0.36699623, 169844.55, 206439.64, 0.0, 10.002754, 9.9973135 
3.1505382e+2, 3.062672e+2, 216820.23, -249692.89, -28147.73, 0.06200904, 0.45633456, 218512.42, 218512.42, 0.0, 10.003013, 9.996834 
3.1505355e+2, 3.1626293e+2, 474911.7, 111335.586, -80885.945, -0.21718265, 0.33402494, 492094.6, 492094.6, 0.000000006756929, 10.003762, 9.99895 
3.2496145e+2, 1.262819e+2, -1951960.3, -1708983.3, 55477.2, -0.013226696, 0.57661515, -1696915.9, 5570.973, 0.000065481014, 9.997851, 10.001075 
3.2496905e+2, 1.3628274e+2, -1880067.9, -1658605.6, -7020.611, 0.032125495, 0.58335227, -1658383.3, -53903.207, 0.000025738174, 9.997828, 10.000763 
3.2497677e+2, 1.462824e+2, -1782606.3, -1562793.9, -52036.777, 0.23016845, 0.47658545, -1551097.5, -44615.895, 0.000005011868, 9.99783, 10.000739 
3.249804e+2, 1.5628281e+2, -1681828.9, -1472653.1, -38684.965, 0.07892344, 0.44060165, -1465728.0, -57254.332, 0.000000115129794, 9.99789, 10.000655 
3.2498565e+2, 1.6628374e+2, -1545653.4, -1396984.4, -24869.934, 0.07687017, 0.48955116, -1392934.4, -82471.734, 0.0, 9.998327, 10.000291 
3.2499206e+2, 1.762849e+2, -1351040.5, -1258572.1, -34657.242, 0.18105921, 0.5696065, -1247024.6, -34574.09, 0.0, 9.999018, 10.000235 
3.2499683e+2, 1.8628427e+2, -1231170.6, -1215815.0, -41949.445, 0.19260256, 0.51728153, -1180846.5, -66391.875, 0.0, 9.999448, 9.99965 
3.2500058e+2, 1.9628255e+2, -1103112.1, -1113437.8, 12110.115, 0.14105825, 0.37325063, -1095110.3, -78641.44, 0.0, 9.999698, 9.999559 
3.2500646e+2, 2.0628151e+2, -1086574.9, -1147643.6, 102488.7, 0.15006895, 0.36147764, -1010168.75, -91689.695, 0.0, 9.999538, 9.998728 
3.2501373e+2, 2.1628088e+2, -1039952.1, -1063322.6, 71810.05, 0.19780593, 0.41848424, -978882.8, -158395.86, 0.0, 9.999139, 9.998827 
3.2501894e+2, 2.2627972e+2, -811601.56, -849420.6, 45.77804, 0.16659835, 0.39440894, -811601.5, -89105.12, 0.0, 9.999803, 9.999303 
3.2502288e+2, 2.3627824e+2, -533248.4, -682690.94, 2383.3542, 0.0837914, 0.30805722, -533210.4, 91296.58, 0.0, 10.00112, 9.99914 
3.2502693e+2, 2.4627739e+2, -441817.34, -734217.4, 19374.658, -0.020319646, 0.38467783, -440539.16, 85976.84, 0.0, 10.001704, 9.997832 
3.2503104e+2, 2.562769e+2, -319638.88, -613654.1, 21364.748, -0.13466327, 0.5455957, -318094.5, 110429.81, 0.0, 10.001825, 9.997927 
3.2503733e+2, 2.6627427e+2, -187008.94, -461963.63, 58538.027, -0.0689055, 0.46961102, -175064.98, 155483.97, 0.0, 10.001904, 9.99826 
3.250449e+2, 2.762702e+2, -85162.82, -370569.97, 79791.71, 0.107724465, 0.23154241, -64370.13, 168214.16, 0.0, 10.0019655, 9.998185 
3.2505018e+2, 2.8626767e+2, 51354.887, -335369.53, 58138.145, 0.14379388, 0.20239836, 59905.992, 194512.73, 0.0, 10.0025835, 9.997455 
3.2505387e+2, 2.962663e+2, 279254.63, -191129.14, 84975.945, 0.08442847, 0.31069896, 294135.0, 330754.44, 0.0, 10.003549, 9.997308 
3.2505712e+2, 3.0626336e+2, 356116.84, -268166.22, 37375.707, 0.02635366, 0.35877687, 358346.56, 358346.56, 0.0, 10.004343, 9.996064 
3.2505834e+2, 3.162588e+2, 611041.3, 111704.23, -32234.33, -0.17216553, 0.2828908, 613113.6, 613113.6, 0.00000000008113795, 10.004977, 9.998369 
3.3496106e+2, 1.2627362e+2, -1929131.9, -1667547.5, 64566.113, 0.15180314, 0.48169154, -1652478.9, 50087.977, 0.000062317085, 9.997875, 10.001348 
3.349691e+2, 1.3627578e+2, -1851832.0, -1599639.6, -7109.574, 0.25460887, 0.577616, -1599439.4, 5106.077, 0.000025687143, 9.997824, 10.001169 
3.3497605e+2, 1.4627534e+2, -1760379.8, -1512830.3, -50670.035, 0.3712507, 0.42292163, -1502860.4, 3686.3462, 0.00000555994, 9.997814, 10.001089 
3.3497807e+2, 1.5627491e+2, -1659970.3, -1426065.9, -31540.307, 0.052722733, 0.26772958, -1421887.5, -13341.466, 0.00000016881297, 9.997887, 10.000975 
3.3498335e+2, 1.6627617e+2, -1549080.5, -1405212.5, -171.56343, 0.0076694055, 0.3365179, -1405212.3, -94678.1, 0.0, 9.99833, 10.000235 
3.349907e+2, 1.7627835e+2, -1344529.5, -1244172.5, -8888.36, 0.14347862, 0.52478576, -1243391.4, -30875.213, 0.0, 9.999011, 10.0003395 
3.3499572e+2, 1.862791e+2, -1150885.1, -1044964.56, -33282.926, 0.13699092, 0.5387033, -1035374.5, 79131.86, 0.0, 9.999431, 10.000831 
3.349993e+2, 1.9627893e+2, -1036645.44, -974705.7, 20331.52, 0.039836656, 0.4343353, -968628.25, 47873.742, 0.0, 9.999694, 10.000514 
3.3500516e+2, 2.0627742e+2, -1124027.4, -1223545.3, 85693.695, 0.062057614, 0.36219308, -1074693.6, -156177.36, 0.0, 9.999531, 9.99821 
3.350125e+2, 2.1627505e+2, -1073233.8, -1129444.3, 66249.625, 0.15708336, 0.29594806, -1029374.3, -208832.06, 0.0, 9.999125, 9.998379 
3.3501807e+2, 2.2627445e+2, -813138.25, -848241.4, 48785.01, 0.094054215, 0.34491324, -778843.56, -56295.34, 0.0, 9.9997835, 9.999321 
3.3502254e+2, 2.3627488e+2, -534532.4, -681653.0, 48376.61, -0.06537687, 0.45057344, -520050.56, 104491.55, 0.0, 10.001103, 9.999156 
3.350281e+2, 2.4627319e+2, -444865.5, -737137.94, 22702.883, -0.07381821, 0.4418626, -443112.53, 83446.29, 0.0, 10.001691, 9.997818 
3.3503434e+2, 2.5627017e+2, -315494.6, -602520.9, 27201.002, 0.009740719, 0.34961727, -312939.53, 115649.94, 0.0, 10.001816, 9.998007 
3.3504054e+2, 2.6626846e+2, -134940.48, -352450.53, 58982.3, 0.05984065, 0.32061678, -119975.8, 210628.94, 0.0, 10.001898, 9.999015 
3.350467e+2, 2.7626747e+2, -32281.93, -258708.22, 86468.18, 0.08932068, 0.31079072, -3038.1978, 229573.08, 0.0, 10.001958, 9.998957 
3.3505213e+2, 2.8626528e+2, 102903.77, -227845.22, 92116.2, 0.078455925, 0.24205993, 126828.3, 261455.11, 0.0, 10.002581, 9.998196 
3.3505687e+2, 2.9626262e+2, 312537.47, -120521.984, 121100.32, 0.030880652, 0.14925015, 344101.3, 380747.34, 0.0, 10.003541, 9.997796 
3.3506227e+2, 3.0625883e+2, 285650.25, -412208.6, 58958.74, 0.103784055, 0.14503896, 290596.34, 290596.34, 0.0, 10.004333, 9.99508 
3.35066e+2, 3.162553e+2, 541013.3, -27731.95, -899.13666, 0.08323716, 0.2678249, 541014.75, 541014.75, 0.0, 10.004952, 9.997421 
3.4495923e+2, 1.2626599e+2, -1964728.4, -1670865.4, 69048.27, 0.19805427, 0.44599968, -1655450.0, 47189.81, 0.00006045153, 9.997569, 10.001473 
3.4496635e+2, 1.3626826e+2, -1975812.5, -1629368.6, -30249.197, 0.24667767, 0.5285703, -1626747.3, -22130.76, 0.000025769237, 9.996842, 10.001439 
3.4497342e+2, 1.4626843e+2, -1816402.8, -1501466.0, -39351.57, 0.35733673, 0.4027876, -1496623.5, 9988.686, 0.000005876301, 9.997262, 10.001432 
3.4497622e+2, 1.56269e+2, -1551105.6, -1335454.3, -29215.787, 0.051992383, 0.31218967, -1331566.3, 77036.56, 0.0000002059256, 9.998466, 10.001319 
3.449817e+2, 1.6627003e+2, -1498569.0, -1336821.1, 2958.0178, 0.002980998, 0.32416305, -1336767.0, -26174.79, 0.0, 9.998488, 10.000627 
3.4498888e+2, 1.762713e+2, -1496723.3, -1278014.9, 28564.79, 0.12137153, 0.38141042, -1274345.6, -61764.242, 0.0, 9.997796, 10.00069 
3.4499457e+2, 1.8627246e+2, -1289814.1, -1108160.1, -4263.8286, 0.12638868, 0.41860625, -1108060.0, 6508.6675, 0.0, 9.998461, 10.000863 
3.4499934e+2, 1.9627354e+2, -990728.5, -942280.5, -43478.75, 0.05963315, 0.43547764, -916733.0, 99821.94, 0.0, 9.999967, 10.000605 
3.4500524e+2, 2.0627254e+2, -903954.9, -1063812.1, 8953.975, 0.054013204, 0.38485163, -903454.94, 15108.872, 0.0, 10.000808, 9.998693 
3.4501192e+2, 2.1627024e+2, -740204.56, -925627.5, 64186.504, 0.0854297, 0.27693996, -720153.8, 100433.164, 0.0, 10.001224, 9.998768 
3.4501788e+2, 2.2626956e+2, -636638.4, -796170.06, 78960.375, 0.03126212, 0.3190361, -604166.4, 118427.586, 0.0, 10.00114, 9.999023 
3.4502336e+2, 2.3626985e+2, -599053.4, -733766.0, 51202.195, -0.07436769, 0.43948764, -581801.56, 42789.71, 0.0, 10.000753, 9.998965 
3.4502977e+2, 2.4626796e+2, -511908.63, -710971.6, 40856.707, -0.039446805, 0.38972405, -503849.28, 22759.605, 0.0, 10.000978, 9.998341 
3.4503672e+2, 2.5626475e+2, -323468.8, -565555.4, 81180.6, 0.080684915, 0.22396563, -298766.53, 129872.38, 0.0, 10.001583, 9.998375 
3.4504282e+2, 2.6626348e+2, -157059.63, -434761.0, 61524.816, 0.09027067, 0.2636896, -144039.27, 186612.25, 0.0, 10.002058, 9.99837 
3.4504834e+2, 2.7626336e+2, 472.75272, -301596.44, -15791.697, 0.032626733, 0.4075403, 1296.0736, 233950.4, 0.0, 10.002439, 9.998428 
3.4505418e+2, 2.8626132e+2, 178583.73, -153324.84, -48937.457, 0.0075438973, 0.35429612, 185648.81, 320318.56, 0.0, 10.002938, 9.998534 
3.4506005e+2, 2.9625827e+2, 333669.6, -75255.6, -53351.492, -0.00648104, 0.19061467, 340515.63, 377206.7, 0.0, 10.0035305, 9.998116 
3.4506676e+2, 3.0625418e+2, 265797.06, -378379.72, -69117.945, 0.13510372, 0.124940574, 273129.72, 273129.72, 0.0, 10.004003, 9.995475 
3.4507167e+2, 3.162516e+2, 461007.5, -53138.145, -27877.244, 0.19241704, 0.30071563, 462514.63, 462514.63, 0.0, 10.004339, 9.997545 
3.5495588e+2, 1.2625897e+2, -1971829.3, -1678034.6, 52377.043, 0.09833307, 0.469068, -1668976.3, 33729.6, 0.00005848329, 9.9975395, 10.001435 
3.5496062e+2, 1.362602e+2, -1968303.4, -1611993.1, -48941.273, -0.012427415, 0.43820253, -1605393.0, -699.80994, 0.000025162211, 9.996839, 10.001557 
3.5496882e+2, 1.4626169e+2, -1792735.1, -1455827.9, 5051.003, 0.16567893, 0.42148626, -1455752.3, 50925.496, 0.0000057861466, 9.997273, 10.001742 
3.549749e+2, 1.5626502e+2, -1525572.1, -1282439.4, 9222.459, 0.06801918, 0.5762413, -1282090.1, 126553.984, 0.00000020730299, 9.998464, 10.001685 
3.549807e+2, 1.6626534e+2, -1440901.3, -1214216.8, -25288.928, 0.053560328, 0.4527987, -1211429.9, 99206.94, 0.0, 9.998476, 10.001472 
3.5498652e+2, 1.7626373e+2, -1456438.6, -1191885.1, 14224.207, 0.09993801, 0.14011478, -1191122.5, 21523.846, 0.0, 9.997787, 10.001285 
3.5499325e+2, 1.8626432e+2, -1370746.3, -1275350.1, 51746.492, 0.14502387, 0.160667, -1252672.0, -138030.42, 0.0, 9.998455, 9.999719 
3.550006e+2, 1.9626628e+2, -1047424.75, -1059062.0, 9606.669, 0.18778525, 0.3755418, -1042012.0, -25383.86, 0.0, 9.99996, 9.999805 
3.550067e+2, 2.062668e+2, -801256.06, -847488.0, 23548.43, 0.115973875, 0.4267437, -791373.94, 127248.19, 0.0, 10.000794, 10.000186 
3.5501203e+2, 2.162664e+2, -656671.8, -748731.06, 78504.54, -0.028987322, 0.35930803, -611697.7, 208923.64, 0.0, 10.001208, 9.99999 
3.5501838e+2, 2.2626504e+2, -682260.94, -887669.6, 62950.38, -0.037182562, 0.3174112, -664503.94, 58129.74, 0.0, 10.001126, 9.998401 
3.550253e+2, 2.3626314e+2, -629112.9, -794377.94, 42665.52, 0.041615535, 0.2773421, -618748.2, 5906.2026, 0.0, 10.000745, 9.998553 
3.5503188e+2, 2.4626169e+2, -440246.75, -558958.0, 61489.707, 0.07095583, 0.23041591, -414138.5, 112527.83, 0.0, 10.000966, 9.999391 
3.5503817e+2, 2.5626048e+2, -277972.22, -467973.0, 102985.99, 0.06563623, 0.16821131, -232861.28, 195811.7, 0.0, 10.001571, 9.999051 
3.550441e+2, 2.662593e+2, -299992.97, -730669.8, 74751.22, 0.01005724, 0.29652545, -287387.6, 43301.934, 0.0, 10.002053, 9.996341 
3.550497e+2, 2.7625802e+2, -126005.53, -563766.44, 1773.3898, -0.07622244, 0.5240638, -125998.35, 106714.586, 0.0, 10.002439, 9.996627 
3.5505626e+2, 2.8625584e+2, 173019.47, -165476.02, -28404.98, -0.080351785, 0.53937435, 175386.53, 310121.56, 0.0, 10.002938, 9.998452 
3.5506326e+2, 2.962532e+2, 340742.13, -55504.188, -30125.713, -0.040290866, 0.42613646, 343019.44, 379774.1, 0.0, 10.003508, 9.998262 
3.550705e+2, 3.0624947e+2, 385033.16, -126446.27, -56498.57, 0.10966833, 0.29333094, 391199.72, 391199.72, 0.0, 10.0039835, 9.997214 
3.5507548e+2, 3.1624788e+2, 540287.75, 117563.47, -3274.3926, 0.12844886, 0.39341888, 540313.1, 540313.1, 0.0, 10.004314, 9.99873 
3.6495334e+2, 1.2625168e+2, -1879789.6, -1653893.0, 121237.664, 0.059934553, 0.37531942, -1601143.1, 101626.97, 0.000055231107, 9.998258, 10.001254 
3.6495727e+2, 1.3625297e+2, -1790652.4, -1530232.5, -8275.437, -0.09048489, 0.35597926, -1529969.8, 74788.44, 0.0000235055, 9.998069, 10.001526 
3.649658e+2, 1.4625488e+2, -1769192.0, -1435134.5, 55405.617, 0.13005263, 0.37645075, -1426184.9, 80555.31, 0.00000526637, 9.997398, 10.001822 
3.64973e+2, 1.5625875e+2, -1804586.5, -1409170.1, 39323.563, 0.13236138, 0.57705754, -1405297.4, 3405.6387, 0.00000017249042, 9.996516, 10.001753 
3.6497903e+2, 1.6625926e+2, -1679692.6, -1340266.1, -40055.445, 0.11823056, 0.47601405, -1335603.3, -24908.52, 0.0, 9.996884, 10.001375 
3.649844e+2, 1.7625766e+2, -1427560.9, -1188703.5, -70986.8, 0.09942985, 0.17326741, -1169199.4, 43505.71, 0.0, 9.99803, 10.001192 
3.6499152e+2, 1.862579e+2, -1351107.6, -1274103.6, 14094.544, 0.11987745, 0.16535206, -1271605.0, -156900.63, 0.0, 9.998623, 9.999647 
3.649997e+2, 1.9625925e+2, -1204519.5, -1135906.8, 47611.016, 0.16165501, 0.32701358, -1111529.8, -94832.87, 0.0, 9.998885, 9.999797 
3.650066e+2, 2.0626026e+2, -978394.1, -886734.94, 32033.67, 0.099051386, 0.40563333, -876649.3, 42036.598, 0.0, 9.999383, 10.000594 
3.6501265e+2, 2.1626104e+2, -807643.8, -784432.9, -2153.3933, -0.029130748, 0.41868472, -784234.75, 36438.45, 0.0, 10.000014, 10.0003195 
3.6501947e+2, 2.2625959e+2, -809639.0, -967797.7, -46058.19, 0.0029070606, 0.358801, -797203.9, -74516.6, 0.0, 10.000327, 9.9982395 
3.6502683e+2, 2.3625673e+2, -682520.2, -837318.2, -30473.705, 0.13570143, 0.24038942, -676737.2, -52019.19, 0.0, 10.000448, 9.998404 
3.6503336e+2, 2.4625559e+2, -413813.1, -556556.25, -13534.869, 0.11200329, 0.23675743, -412541.06, 114186.71, 0.0, 10.001189, 9.999301 
3.6503935e+2, 2.562555e+2, -175325.4, -426662.5, -60606.473, -0.011149284, 0.2917129, -161474.31, 267250.6, 0.0, 10.002309, 9.998981 
3.65046e+2, 2.6625377e+2, -172901.19, -661527.4, -42029.836, -0.047642563, 0.36813557, -169312.3, 161432.84, 0.0, 10.002893, 9.996411 
3.6505297e+2, 2.7625102e+2, -22270.982, -514953.4, 34528.016, -0.027827226, 0.44205496, -19862.97, 212917.34, 0.0, 10.003154, 9.996621 
3.650596e+2, 2.8624874e+2, 115173.82, -244455.53, 35409.215, -0.028061245, 0.4783188, 118627.06, 253431.7, 0.0, 10.002762, 9.997995 
3.6506587e+2, 2.9624695e+2, 90806.36, -213561.52, 6876.7026, -0.04857858, 0.48924428, 90961.65, 127782.664, 0.0, 10.001953, 9.997926 
3.6507326e+2, 3.0624387e+2, 257798.14, -108125.06, -32021.059, 0.051511824, 0.39586478, 260579.08, 260579.08, 0.0, 10.002774, 9.997919 
3.650789e+2, 3.162429e+2, 608618.94, 175124.8, -59277.0, 0.024213867, 0.49191925, 616578.44, 616578.44, 0.0, 10.0046835, 9.998946 
3.7495157e+2, 1.2624413e+2, -1899729.8, -1698756.0, 126424.27, 0.04773214, 0.16669111, -1637747.6, 65084.992, 0.000050234245, 9.998268, 10.000943 
3.7495637e+2, 1.3624662e+2, -1801684.3, -1554552.6, -18652.094, 0.0090370895, 0.28452528, -1553152.9, 51658.293, 0.000020862959, 9.998072, 10.001359 
3.7496436e+2, 1.46248e+2, -1780359.1, -1456928.3, 19006.842, 0.245155, 0.26783004, -1455815.1, 50984.582, 0.000004428325, 9.997393, 10.001677 
3.7497053e+2, 1.5625015e+2, -1823297.3, -1445297.5, 16212.914, 0.2288584, 0.312248, -1444603.4, -35823.582, 0.00000011962439, 9.996507, 10.00151 
3.7497658e+2, 1.662518e+2, -1754339.1, -1495226.4, 2278.931, 0.17920344, 0.3937723, -1495206.3, -184439.78, 0.0, 9.996881, 10.000316 
3.7498254e+2, 1.7625307e+2, -1483533.9, -1305414.0, -30339.563, 0.107525684, 0.4817569, -1300388.0, -87630.06, 0.0, 9.998031, 10.000392 
3.7498936e+2, 1.8625315e+2, -1280574.4, -1125450.3, 22036.768, 0.036852952, 0.43436593, -1122380.5, -7623.472, 0.0, 9.998614, 10.000671 
3.749967e+2, 1.9625244e+2, -1149847.4, -1019494.1, 60961.02, -0.031549983, 0.29044056, -995428.2, 21333.055, 0.0, 9.998874, 10.000601 
3.7500492e+2, 2.0625296e+2, -1029991.1, -991249.5, 55036.89, -0.008733674, 0.32450515, -952274.06, -33518.96, 0.0, 9.999371, 9.999884 
3.7501368e+2, 2.162542e+2, -849337.25, -868637.4, 21131.566, 0.07070281, 0.45468965, -835756.56, -15013.637, 0.0, 10.000004, 9.999747 
3.750212e+2, 2.2625314e+2, -790572.56, -924856.8, -43929.133, 0.13830411, 0.44154185, -777478.56, -54723.55, 0.0, 10.000313, 9.998541 
3.750279e+2, 2.362506e+2, -675486.94, -819612.9, -20126.781, 0.19463272, 0.32530665, -672729.06, -47946.75, 0.0, 10.000436, 9.99853 
3.7503418e+2, 2.4624968e+2, -500547.88, -732932.56, 28019.889, 0.07157869, 0.40552914, -497217.13, 29576.043, 0.0, 10.001174, 9.998096 
3.7504017e+2, 2.5624973e+2, -233381.25, -544422.94, -19872.068, -0.1616577, 0.5928491, -232116.78, 196677.33, 0.0, 10.002297, 9.998177 
3.7504843e+2, 2.6624694e+2, -26901.648, -357291.3, -33926.1, -0.09347332, 0.4788406, -23453.92, 307364.16, 0.0, 10.002888, 9.998505 
3.7505805e+2, 2.7624238e+2, 96619.62, -260758.13, 40311.617, 0.15984172, 0.16406241, 101110.27, 333966.84, 0.0, 10.003123, 9.998382 
3.750641e+2, 2.8624016e+2, 54256.99, -365805.3, 2495.115, 0.14398675, 0.17694399, 54271.81, 189150.3, 0.0, 10.00274, 9.997171 
3.750679e+2, 2.9623955e+2, 37165.113, -325332.9, -10581.701, -0.045145392, 0.3883007, 37473.742, 74363.414, 0.0, 10.001957, 9.997154 
3.7507507e+2, 3.0623737e+2, 236601.89, -157310.0, 38046.68, -0.046727933, 0.43730053, 240243.05, 240243.05, 0.0, 10.002791, 9.997576 
3.7508193e+2, 3.162367e+2, 553710.94, 65909.914, 19154.494, -0.14753245, 0.60003763, 554461.9, 554461.9, 0.0, 10.004659, 9.99821 
3.8494977e+2, 1.2623738e+2, -1979689.4, -1766432.4, 72325.586, 0.061137296, 0.1096986, -1744217.5, -41324.563, 0.000043715605, 9.997854, 10.000673 
3.849544e+2, 1.3624008e+2, -1983104.3, -1659978.5, -92189.39, 0.06464296, 0.2603385, -1635526.8, -30656.031, 0.0000174898, 9.996906, 10.001196 
3.849619e+2, 1.4624096e+2, -1810562.8, -1506353.4, -30740.996, 0.26594102, 0.21945731, -1503278.0, 3586.6885, 0.0000034194288, 9.997332, 10.0013685 
3.849677e+2, 1.5624201e+2, -1532750.6, -1339350.5, -46039.195, 0.19077794, 0.18562281, -1328950.1, 79905.945, 0.00000006772674, 9.998643, 10.001209 
3.84974e+2, 1.6624387e+2, -1418583.3, -1363749.5, -7865.022, 0.116419055, 0.31455624, -1362643.8, -51801.094, 0.0, 9.999315, 10.000044 
3.8498065e+2, 1.7624612e+2, -1267920.0, -1225460.1, 12000.622, 0.03760262, 0.5294692, -1222303.0, -9476.349, 0.0, 9.999614, 10.000176 
3.8498807e+2, 1.8624648e+2, -1126569.4, -1031726.2, 26194.426, -0.0003174257, 0.5101741, -1024972.56, 89850.43, 0.0, 9.999587, 10.000847 
3.8499603e+2, 1.9624561e+2, -1073180.5, -971241.5, 413.7688, -0.0093041165, 0.33242965, -971239.8, 45587.43, 0.0, 9.999349, 10.000705 
3.8500476e+2, 2.0624535e+2, -1043516.75, -1039431.44, 5269.518, 0.03332258, 0.30386242, -1035822.5, -116993.7, 0.0, 9.999454, 9.999514 
3.850139e+2, 2.1624544e+2, -901519.25, -927926.1, -3838.4846, 0.106231265, 0.35379025, -900972.6, -80143.516, 0.0, 9.999788, 9.999446 
3.8502166e+2, 2.2624488e+2, -690344.0, -856690.1, -48942.125, 0.12568776, 0.3969237, -677012.75, 45824.145, 0.0, 10.000919, 9.998714 
3.8502854e+2, 2.3624393e+2, -364474.1, -658530.6, -43415.027, 0.10983947, 0.42204326, -358198.16, 266651.38, 0.0, 10.002525, 9.998629 
3.8503534e+2, 2.4624278e+2, -359096.75, -705956.6, 8884.546, 0.0144607965, 0.49569213, -358869.3, 167993.97, 0.0, 10.002321, 9.99773 
3.8504213e+2, 2.5624144e+2, -441690.75, -673268.56, 22324.404, -0.12907043, 0.5827023, -439558.28, -10680.15, 0.0, 10.000987, 9.997924 
3.8505065e+2, 2.6623875e+2, -272352.47, -407396.63, -13051.824, -0.059257578, 0.4536157, -271102.6, 59797.31, 0.0, 10.000907, 9.999114 
3.850602e+2, 2.7623516e+2, -87369.47, -294428.9, -52902.47, 0.14070119, 0.17734249, -74636.234, 158289.92, 0.0, 10.001617, 9.998876 
3.8506675e+2, 2.8623295e+2, 41541.29, -402149.16, -108706.75, 0.13179003, 0.17918411, 66743.555, 201691.28, 0.0, 10.002781, 9.996902 
3.8507134e+2, 2.9623154e+2, 352040.16, -204332.05, -83955.4, -0.011361398, 0.3415723, 364432.8, 401399.44, 0.0, 10.0042515, 9.996881 
3.850791e+2, 3.0622914e+2, 461957.0, -82226.96, -4204.3735, -0.01038767, 0.39959535, 461989.47, 461989.47, 0.0, 10.004487, 9.9972725 
3.8508636e+2, 3.1622767e+2, 406208.1, -68730.55, -17457.492, -0.1326141, 0.51026344, 406848.94, 406848.94, 0.000000000002787424, 10.003918, 9.997642 
3.949479e+2, 1.2623152e+2, -1999295.9, -1807244.1, 50601.492, 0.079866424, 0.20984855, -1794727.4, -91777.16, 0.000036372046, 9.997854, 10.000395 
3.949513e+2, 1.3623327e+2, -1996239.8, -1686663.6, -119234.16, 0.06443109, 0.2839166, -1646064.6, -41127.445, 0.000013744367, 9.996902, 10.001016 
3.9495838e+2, 1.4623372e+2, -1844219.5, -1575788.3, 18254.453, 0.17396009, 0.23297898, -1574552.5, -67616.92, 0.0000023661473, 9.997328, 10.000895 
3.949645e+2, 1.5623435e+2, -1554801.1, -1388567.8, 235.23976, 0.00053631974, 0.2006941, -1388567.5, 20364.096, 0.000000028035489, 9.998657, 10.000864 
3.9497134e+2, 1.6623546e+2, -1380893.4, -1287911.9, 631.4535, -0.08491038, 0.24208052, -1287907.6, 23015.24, 0.0, 9.999325, 10.00056 
3.949787e+2, 1.7623685e+2, -1242254.0, -1170172.1, 21764.709, -0.12163722, 0.3182691, -1164110.1, 48801.066, 0.0, 9.999605, 10.00056 
3.9498764e+2, 1.8623795e+2, -1175699.4, -1132238.4, 16292.888, -0.00321843, 0.39375782, -1126808.8, -11906.651, 0.0, 9.999579, 10.000161 
3.9499766e+2, 1.9623876e+2, -1115465.4, -1058804.4, -4465.646, 0.21565159, 0.45256948, -1058454.5, -41559.355, 0.0, 9.999347, 10.000106 
3.95006e+2, 2.0623739e+2, -1046972.9, -1043800.1, 15690.495, 0.2131402, 0.34189314, -1029616.0, -110708.52, 0.0, 9.999442, 9.999489 
3.9501333e+2, 2.162347e+2, -904495.6, -930002.94, 16376.28, 0.06783997, 0.11544049, -896492.6, -75560.91, 0.0, 9.999773, 9.999437 
3.9502093e+2, 2.2623485e+2, -690508.94, -853338.94, 11371.803, -0.042661183, 0.22628309, -689718.56, 33214.066, 0.0, 10.000902, 9.998746 
3.9502868e+2, 2.362367e+2, -361336.75, -647877.25, 5660.1875, -0.1284568, 0.5306067, -361225.0, 263694.7, 0.0, 10.002508, 9.99871 
3.9503682e+2, 2.462349e+2, -329828.8, -641843.0, -43746.7, -0.07250998, 0.50868565, -323811.25, 203126.98, 0.0, 10.002307, 9.998178 
3.9504513e+2, 2.5623074e+2, -421062.88, -628233.5, -18054.129, 0.06872812, 0.2694905, -419501.3, 9475.188, 0.0, 10.000978, 9.998237 
3.950526e+2, 2.6622924e+2, -332285.25, -531773.75, 12608.334, 0.041800093, 0.29542673, -331491.53, -501.1786, 0.0, 10.000906, 9.9982605 
3.9505953e+2, 2.7622938e+2, -137738.67, -399460.84, -21029.61, -0.08971161, 0.47532004, -136059.7, 96929.6, 0.0, 10.00162, 9.998153 
3.950675e+2, 2.8622702e+2, 60252.555, -362667.13, -54773.27, -0.07188109, 0.47822523, 67231.2, 202243.5, 0.0, 10.002779, 9.997173 
3.950761e+2, 2.9622298e+2, 361502.9, -175097.53, -36188.91, 0.036477234, 0.3506101, 363932.53, 400983.75, 0.0, 10.004211, 9.997101 
3.950851e+2, 3.0621934e+2, 439300.66, -122183.64, -25556.563, 0.14086403, 0.28542927, 440461.5, 440461.5, 0.0, 10.004456, 9.997014 
3.9509195e+2, 3.1621584e+2, 375151.63, -128052.05, -21172.494, 0.029425249, 0.22704305, 376040.88, 376040.88, 0.000000001718879, 10.003898, 9.997242 
4.0494558e+2, 1.2622398e+2, -2049030.0, -1792324.1, -17626.14, 0.09345553, 0.2436041, -1791119.5, -88094.125, 0.00002910368, 9.997345, 10.000745 
4.04948e+2, 1.3622554e+2, -1860808.3, -1584403.8, -159458.55, 0.0032879594, 0.25343317, -1511592.1, 93419.234, 0.00001003053, 9.997674, 10.001346 
4.049552e+2, 1.4622624e+2, -1789188.0, -1606655.9, 35620.11, 0.094750546, 0.24231902, -1599951.1, -92943.54, 0.0000013962007, 9.997953, 10.0003805 
4.049627e+2, 1.5622704e+2, -1645779.0, -1478739.5, 6734.974, -0.024598148, 0.2770022, -1478468.5, -69464.1, 0.000000006286357, 9.998233, 10.00045 
4.0497032e+2, 1.6622753e+2, -1491893.4, -1311728.8, -22830.42, -0.07596234, 0.26316464, -1308880.8, 2119.618, 0.0, 9.998436, 10.000825 
4.0497804e+2, 1.7622793e+2, -1377943.6, -1216985.4, -23543.576, -0.09713108, 0.21129516, -1213612.4, -616.8099, 0.0, 9.998593, 10.000727 
4.049873e+2, 1.8622898e+2, -1269272.8, -1233849.5, -22749.287, 0.026212877, 0.30470556, -1222730.0, -107742.76, 0.0, 9.999183, 9.999655 
4.0499762e+2, 1.9623037e+2, -1044908.06, -1077317.5, -33134.176, 0.24300449, 0.47163254, -1024228.25, -7250.622, 0.0, 10.000059, 9.999635 
4.0500605e+2, 2.06229e+2, -888953.4, -991820.1, -13435.961, 0.2135627, 0.3937728, -887227.4, 31763.814, 0.0, 10.000633, 9.99927 
4.050133e+2, 2.1622594e+2, -736273.5, -867649.25, -30584.033, 0.026470544, 0.15313879, -729502.5, 91516.58, 0.0, 10.001009, 9.9992695 
4.0502152e+2, 2.2622594e+2, -701903.5, -835525.56, -27027.756, -0.064444765, 0.24451137, -696643.6, 26377.21, 0.0, 10.000723, 9.998957 
4.050303e+2, 2.3622777e+2, -705699.5, -791330.6, -23552.037, -0.09253308, 0.52527326, -699649.2, -74642.19, 0.0, 10.000043, 9.998916 
4.05039e+2, 2.4622582e+2, -541187.1, -720784.5, -86597.984, -0.006405842, 0.47057405, -506234.0, 20791.596, 0.0, 10.000757, 9.998382 
4.0504754e+2, 2.5622153e+2, -215293.45, -519353.53, -82454.586, 0.14568877, 0.19504656, -194372.94, 234691.34, 0.0, 10.002349, 9.998325 
4.0505484e+2, 2.6622015e+2, -98712.49, -505125.22, -48187.887, 0.07828622, 0.27345973, -93077.055, 238002.19, 0.0, 10.00288, 9.997494 
4.0506136e+2, 2.7622062e+2, -17684.586, -413711.8, -77126.2, -0.123490416, 0.56124055, -3194.452, 229885.23, 0.0, 10.002755, 9.997508 
4.050696e+2, 2.8621823e+2, 39173.24, -348055.5, -98653.72, -0.12943226, 0.5803028, 62858.383, 197962.16, 0.0, 10.002525, 9.997397 
4.0507877e+2, 2.9621395e+2, 90752.27, -274616.66, -87426.94, -0.014697093, 0.40570456, 110594.56, 147738.48, 0.0, 10.0022135, 9.99738 
4.0508854e+2, 3.0621067e+2, 183753.66, -191677.77, -57340.707, 0.14041266, 0.3383752, 192316.19, 192316.19, 0.0, 10.00247, 9.99749 
4.0509644e+2, 3.1620649e+2, 299764.47, -109351.82, 2138.5425, 0.12837905, 0.16162306, 299775.63, 299775.63, 0.00000001196501, 10.003139, 9.997737 
4.1494283e+2, 1.2621468e+2, -1980177.0, -1648747.4, 7026.3315, 0.07637139, 0.20284145, -1648598.4, 54520.902, 0.000022517497, 9.99734, 10.001732 
4.1494438e+2, 1.3621686e+2, -1798046.3, -1458709.6, -146866.55, -0.13177854, 0.16896017, -1403974.0, 201119.19, 0.0000067670235, 9.99769, 10.002203 
4.1495243e+2, 1.4621854e+2, -1829304.3, -1689372.5, 44854.57, 0.01680641, 0.24980187, -1676229.0, -169148.63, 0.0000006540361, 9.997952, 9.999813 
4.149623e+2, 1.562201e+2, -1681750.3, -1549458.5, 18221.61, 0.111203544, 0.4176535, -1546994.6, -137920.55, 0.0000000002364484, 9.998218, 9.999971 
4.149709e+2, 1.6622017e+2, -1493643.4, -1312560.1, -18454.229, 0.13731132, 0.379402, -1310698.5, 376.3043, 0.0, 9.998423, 10.000827 
4.1497862e+2, 1.7621934e+2, -1382470.3, -1224579.5, -12822.558, 0.10031363, 0.20867233, -1223544.9, -10465.252, 0.0, 9.998586, 10.000679 
4.14987e+2, 1.8621959e+2, -1295187.8, -1285095.4, 9272.487, 0.07396228, 0.24302956, -1279584.9, -164506.22, 0.0, 9.999172, 9.999307 
4.149959e+2, 1.9622044e+2, -1071654.5, -1128718.0, -737.24567, 0.06326366, 0.39142472, -1071645.0, -54570.32, 0.0, 10.000043, 9.999289 
4.1500482e+2, 2.0622016e+2, -920430.5, -1054039.5, -511.2171, 0.025745843, 0.46092907, -920428.5, -1348.616, 0.0, 10.000618, 9.998852 
4.1501376e+2, 2.1621916e+2, -761385.5, -915732.94, -19665.178, -0.03040809, 0.46642342, -758919.44, 62171.93, 0.0, 10.000992, 9.998947 
4.1502336e+2, 2.2621815e+2, -676415.3, -781573.94, -54573.17, 0.045590453, 0.45087293, -653213.25, 69888.33, 0.0, 10.000716, 9.999331 
4.150333e+2, 2.3621713e+2, -683487.75, -743291.06, -37356.902, 0.2029957, 0.4087814, -665539.1, -40427.824, 0.0, 10.000034, 9.999249 
4.1504183e+2, 2.4621561e+2, -545893.3, -727927.56, -26987.215, 0.19821532, 0.3830872, -541976.6, -14851.499, 0.0, 10.000747, 9.998336 
4.1504937e+2, 2.5621372e+2, -226341.83, -540055.06, -28878.111, 0.09222084, 0.35273463, -223705.67, 205436.42, 0.0, 10.00234, 9.998186 
4.1505736e+2, 2.6621142e+2, -147206.84, -605777.94, -54254.246, 0.03918127, 0.38440126, -140875.36, 190291.48, 0.0, 10.002877, 9.996804 
4.150656e+2, 2.762089e+2, -61167.527, -499730.44, -79702.01, 0.019976022, 0.444571, -47132.1, 186064.42, 0.0, 10.002735, 9.996928 
4.1507286e+2, 2.862067e+2, 49765.97, -320614.22, -110509.84, -0.05888744, 0.4935843, 80232.54, 215453.78, 0.0, 10.002502, 9.997597 
4.150794e+2, 2.962045e+2, 112134.3, -226615.02, -92566.58, -0.17395386, 0.505495, 135778.67, 173023.05, 0.0, 10.0022, 9.997716 
4.1508946e+2, 3.062032e+2, 264023.16, -24794.047, -31715.06, -0.018888852, 0.5542186, 267464.78, 267464.78, 0.0, 10.002468, 9.998636 
4.150997e+2, 3.1619933e+2, 389900.53, 83321.17, 38556.875, 0.13410148, 0.2991846, 394675.28, 394675.28, 0.000000036873733, 10.003115, 9.999072 
4.249407e+2, 1.2620588e+2, -1922159.4, -1638519.6, 110545.28, 0.10874612, 0.12692016, -1600525.4, 102677.75, 0.000016808834, 9.997811, 10.001575 
4.249428e+2, 1.3620849e+2, -1692858.6, -1421333.4, -156189.6, -0.09454338, 0.14831215, -1350149.9, 255023.45, 0.000004238484, 9.998466, 10.002087 
4.2495075e+2, 1.4621031e+2, -1777769.3, -1672437.1, 5453.6987, 0.035964485, 0.25187215, -1672155.5, -164996.22, 0.00000021832761, 9.998341, 9.999743 
4.2496064e+2, 1.562114e+2, -1761525.6, -1603119.6, 16217.486, 0.14998019, 0.3798793, -1601476.4, -192319.16, 0.0, 9.997736, 9.999837 
4.2496976e+2, 1.6621138e+2, -1565959.8, -1417249.8, -3956.2244, 0.19155449, 0.3747489, -1417144.5, -105984.516, 0.0, 9.998231, 10.000199 
4.2497823e+2, 1.7621075e+2, -1296712.0, -1247415.3, -48440.85, 0.15964457, 0.2834097, -1217712.4, -4547.1274, 0.0, 9.999452, 10.000104 
4.2498675e+2, 1.8621024e+2, -1130624.9, -1229313.5, -31094.574, 0.07007383, 0.28152516, -1121644.9, -6473.4204, 0.0, 10.000403, 9.999097 
4.2499542e+2, 1.962098e+2, -919622.1, -1075304.4, -37674.23, -0.044305876, 0.32102796, -910984.4, 106194.38, 0.0, 10.001173, 9.99911 
4.2500484e+2, 2.0620984e+2, -870052.06, -1025471.7, -45470.582, -0.05062022, 0.4260434, -857726.4, 61454.895, 0.0, 10.000949, 9.998887 
4.2501464e+2, 2.162101e+2, -890604.75, -978524.56, -32905.008, 0.0063376846, 0.5566445, -879653.7, -58472.438, 0.0, 10.000106, 9.998944 
4.2502445e+2, 2.2620875e+2, -761108.3, -840931.5, -68377.87, 0.10953945, 0.51574636, -721846.25, 1348.4695, 0.0, 10.000219, 9.999159 
4.2503417e+2, 2.3620638e+2, -559051.6, -699384.3, -92268.57, 0.23874822, 0.35519183, -513300.72, 111915.836, 0.0, 10.000963, 9.9991 
4.2504272e+2, 2.4620502e+2, -445245.63, -684385.2, -63667.758, 0.17867887, 0.3558006, -429351.34, 97878.3, 0.0, 10.001459, 9.998293 
4.2505053e+2, 2.5620422e+2, -304458.22, -574475.44, -71201.945, 0.0015486785, 0.44107428, -286833.16, 142404.77, 0.0, 10.00179, 9.998215 
4.250592e+2, 2.6620212e+2, -277593.56, -607115.94, -77129.586, -0.005592959, 0.45646632, -260433.83, 70826.33, 0.0, 10.0017185, 9.997354 
4.2506838e+2, 2.7619916e+2, -222877.69, -522260.3, -14688.333, 0.09412739, 0.41722447, -222158.78, 11132.337, 0.0, 10.001387, 9.997422 
4.250755e+2, 2.8619674e+2, -131289.19, -410085.25, -13122.915, 0.02067658, 0.4277981, -130672.85, 4644.3525, 0.0, 10.001269, 9.997577 
4.250813e+2, 2.9619458e+2, -14593.675, -286547.1, -11925.524, -0.16118082, 0.44269526, -14071.726, 23269.879, 0.0, 10.001324, 9.997726 
4.2509115e+2, 3.061944e+2, 180191.06, -70978.46, 21707.322, -0.06299745, 0.60799813, 182053.31, 182053.31, 0.0, 10.001914, 9.998591 
4.251019e+2, 3.161918e+2, 368378.63, 114743.234, 6648.1865, 0.06077561, 0.48210728, 368552.78, 368552.78, 0.00000007454206, 10.002795, 9.999439 
4.3493918e+2, 1.2619762e+2, -2018328.5, -1832828.9, 149819.73, 0.16812287, 0.016374664, -1749372.9, -46096.8, 0.000012096729, 9.997794, 10.00025 
4.3494335e+2, 1.3620049e+2, -1770467.6, -1582730.9, -136075.2, 0.11097253, 0.19328141, -1511288.3, 93963.375, 0.0000025410188, 9.998468, 10.000977 
4.349502e+2, 1.4620157e+2, -1746872.1, -1608595.4, -19104.63, 0.14329706, 0.24743395, -1606004.4, -98760.016, 0.000000047491298, 9.998341, 10.000181 
4.3495765e+2, 1.5620095e+2, -1746385.9, -1570487.8, 2482.2712, 0.07610647, 0.16065161, -1570452.6, -161198.7, 0.0, 9.99773, 10.000063 
4.349668e+2, 1.662012e+2, -1657917.4, -1605578.3, 41110.152, 0.069724694, 0.24696332, -1583015.0, -271759.1, 0.0, 9.998221, 9.998912 
4.3497682e+2, 1.762021e+2, -1377299.6, -1412452.0, -3097.2546, 0.07036105, 0.43827996, -1377028.9, -163776.55, 0.0, 9.999443, 9.998975 
4.349865e+2, 1.8620098e+2, -1136041.3, -1237872.0, -3729.5525, 0.0032053087, 0.42314747, -1135904.9, -20639.322, 0.0, 10.000392, 9.999043 
4.3499616e+2, 1.9619848e+2, -921185.9, -1074909.1, -14087.311, -0.09252754, 0.26167783, -919905.56, 97384.37, 0.0, 10.001159, 9.99912 
4.3500602e+2, 2.0619799e+2, -839297.7, -958190.3, -78609.84, -0.030101342, 0.29055166, -800187.56, 119107.62, 0.0, 10.000934, 9.999356 
4.3501595e+2, 2.1619879e+2, -870378.8, -931201.7, -56522.684, 0.12455807, 0.427466, -836605.6, -15317.042, 0.0, 10.000084, 9.999279 
4.3502474e+2, 2.261977e+2, -814926.3, -948664.75, -41635.65, 0.116536304, 0.44079924, -803023.56, -79723.516, 0.0, 10.000201, 9.998428 
4.3503284e+2, 2.3619542e+2, -606372.1, -794690.25, -64618.492, 0.0077936035, 0.3617924, -586331.9, 38991.47, 0.0, 10.00095, 9.998452 
4.350417e+2, 2.4619405e+2, -447875.88, -687689.25, -52107.184, -0.07315387, 0.38898483, -437043.22, 90296.08, 0.0, 10.00145, 9.998275 
4.3505096e+2, 2.561932e+2, -293737.5, -547581.1, -59603.168, -0.1369437, 0.4672336, -280439.2, 148911.83, 0.0, 10.001769, 9.99841 
4.3506032e+2, 2.6619223e+2, -156597.17, -352657.2, -90661.82, -0.06667106, 0.4927496, -121100.23, 210258.77, 0.0, 10.001704, 9.999108 
4.3506974e+2, 2.761912e+2, -116440.516, -300232.22, -24965.959, 0.08781385, 0.47335616, -113109.55, 120255.15, 0.0, 10.001382, 9.99895 
4.3507755e+2, 2.8618833e+2, -146898.44, -443199.7, -12790.446, 0.09596719, 0.38108915, -146347.33, -10954.656, 0.0, 10.001272, 9.997347 
4.3508434e+2, 2.961842e+2, -38898.21, -337042.5, -3437.2424, 0.0087339105, 0.22554517, -38858.59, -1422.8224, 0.0, 10.001323, 9.997382 
4.3509367e+2, 3.0618438e+2, 95673.01, -243293.95, 53692.7, -0.0056482726, 0.5084702, 103974.67, 103974.67, 0.0, 10.001902, 9.997412 
4.3510303e+2, 3.1618378e+2, 321939.44, 26274.34, 49796.184, -0.11374851, 0.6956012, 330100.88, 330100.88, 0.0000001100893, 10.00276, 9.998849 
4.449363e+2, 1.2618954e+2, -1957454.6, -1860193.5, 82675.95, 0.072842434, 0.05115515, -1812906.1, -109552.375, 0.000008573877, 9.998462, 9.999737 
4.4494194e+2, 1.3619141e+2, -1821290.6, -1659147.5, -164296.66, 0.12920254, 0.18114981, -1557008.9, 48332.43, 0.0000015653503, 9.99835, 10.000508 
4.4494882e+2, 1.4619227e+2, -1631281.4, -1557015.6, -39375.543, 0.13322379, 0.23545621, -1540025.6, -32689.852, 0.000000013935479, 9.999154, 10.000142 
4.449562e+2, 1.5619144e+2, -1343704.9, -1384259.8, -56238.766, 0.02199827, 0.13210814, -1304199.6, 105145.45, 0.0, 10.000529, 9.999991 
4.4496584e+2, 1.6619132e+2, -1274250.8, -1465902.1, 20577.295, 0.013497907, 0.206786, -1272066.4, 39283.418, 0.0, 10.001049, 9.9985075 
4.4497666e+2, 1.7619178e+2, -1173092.9, -1355791.3, 37514.77, 0.03243092, 0.39336148, -1165689.8, 47661.008, 0.0, 10.001025, 9.998601 
4.4498712e+2, 1.861907e+2, -1136236.5, -1254037.8, 38269.6, 0.024305314, 0.40843025, -1124895.8, -9531.882, 0.0, 10.000462, 9.998898 
4.4499755e+2, 1.9618854e+2, -1163827.9, -1205565.8, 17788.441, 0.014910151, 0.2967955, -1157275.3, -139889.61, 0.0, 9.999551, 9.998998 
4.4500706e+2, 2.0618759e+2, -1013827.25, -1030785.9, -62310.293, 0.043953426, 0.2765482, -959421.94, -40027.023, 0.0, 9.999687, 9.999457 
4.450159e+2, 2.1618737e+2, -800519.9, -888132.94, -66814.734, 0.08870955, 0.30336732, -764431.3, 56965.09, 0.0, 10.000525, 9.99936 
4.4502476e+2, 2.2618645e+2, -663892.25, -888177.9, -6719.365, 0.041271046, 0.3330098, -663691.1, 59715.28, 0.0, 10.001292, 9.998319 
4.4503364e+2, 2.36185e+2, -462222.88, -737162.56, 8270.9, -0.06008569, 0.3498964, -461974.28, 163447.89, 0.0, 10.001988, 9.998349 
4.450428e+2, 2.4618375e+2, -474594.25, -701192.56, -3873.0964, -0.09643444, 0.39539623, -474528.06, 52909.855, 0.0, 10.001269, 9.998269 
4.450521e+2, 2.5618258e+2, -596372.2, -687781.8, -9724.564, -0.093509234, 0.44470134, -595349.1, -165895.31, 0.0, 9.999668, 9.998459 
4.450611e+2, 2.6618186e+2, -406558.8, -426077.03, -61686.992, -0.06414771, 0.46509737, -353863.72, -22403.998, 0.0, 9.999787, 9.999524 
4.4506988e+2, 2.7618134e+2, -142371.1, -271808.47, -97621.97, -0.016241075, 0.45573583, -89963.53, 143496.05, 0.0, 10.00103, 9.999313 
4.4507837e+2, 2.8617883e+2, -49490.04, -389933.88, -113540.24, 0.02094096, 0.38019478, -15097.962, 120386.01, 0.0, 10.001911, 9.997407 
4.4508666e+2, 2.9617497e+2, 137539.31, -248312.83, -88400.17, 0.05090417, 0.24750228, 156827.9, 194352.47, 0.0, 10.002521, 9.997413 
4.4509596e+2, 3.061745e+2, 67318.336, -293006.34, -1109.7559, 0.035980996, 0.4786788, 67321.76, 67321.76, 0.00000000000009396187, 10.001861, 9.997091 
4.4510454e+2, 3.161731e+2, -15266.437, -119894.04, 58931.703, -0.11259923, 0.6188935, 11221.28, 11221.28, 0.00000013361628, 10.000365, 9.999001 
4.5493206e+2, 1.2618165e+2, -1935519.4, -1815718.0, 86204.41, -0.20858993, 0.2307059, -1770645.9, -67209.59, 0.000006189794, 9.9984665, 10.00004 
4.5493844e+2, 1.3618125e+2, -1810135.3, -1635647.8, -162057.64, -0.05574106, 0.11032503, -1538842.1, 66600.52, 0.0000010596042, 9.998347, 10.000671 
4.5494658e+2, 1.4618237e+2, -1668794.6, -1634330.8, 13313.712, -0.009896493, 0.21445969, -1629786.6, -122352.87, 0.000000007555667, 9.999152, 9.999612 
4.549563e+2, 1.561829e+2, -1369995.0, -1440699.1, -8359.391, -0.02724855, 0.29843703, -1369020.1, 40410.16, 0.0, 10.00054, 9.999598 
4.5496693e+2, 1.6618177e+2, -1236711.1, -1391559.8, 17529.654, 0.010276186, 0.25877482, -1234751.5, 76689.99, 0.0, 10.001062, 9.999012 
4.5497772e+2, 1.7617974e+2, -1144159.9, -1296431.8, 34574.94, 0.03389196, 0.1458638, -1136677.0, 76783.65, 0.0, 10.001027, 9.999008 
4.5498857e+2, 1.861794e+2, -1156764.6, -1293347.1, 2978.954, 0.119698666, 0.2339962, -1156699.6, -41232.93, 0.0, 10.00045, 9.998632 
4.549996e+2, 1.9618005e+2, -1185421.3, -1245623.3, -7880.107, 0.2626567, 0.42717877, -1184406.9, -166941.08, 0.0, 9.999533, 9.99873 
4.550079e+2, 2.061786e+2, -1034960.4, -1070287.0, -33052.82, 0.1578123, 0.38545066, -1015147.25, -95666.78, 0.0, 9.999667, 9.999196 
4.5501444e+2, 2.1617585e+2, -814815.6, -913425.75, -34292.35, -0.1135005, 0.18387808, -804062.75, 17442.297, 0.0, 10.000506, 9.999196 
4.5502436e+2, 2.2617492e+2, -630699.94, -815193.0, 18685.63, -0.13005261, 0.19334401, -628826.44, 94687.305, 0.0, 10.001274, 9.998829 
4.5503643e+2, 2.3617512e+2, -434152.13, -673227.9, 26058.3, 0.01988066, 0.322793, -431344.84, 194168.05, 0.0, 10.0019655, 9.998798 
4.55046e+2, 2.4617416e+2, -476799.03, -702658.6, -66296.34, 0.09307802, 0.37838995, -458777.16, 68748.336, 0.0, 10.001255, 9.998266 
4.5505387e+2, 2.5617245e+2, -604102.2, -702122.8, -56958.566, 0.11361407, 0.37260872, -577970.75, -148423.88, 0.0, 9.9996605, 9.998364 
4.5506144e+2, 2.6617098e+2, -469258.25, -557531.4, -15709.07, -0.010303307, 0.37360695, -466546.0, -134983.31, 0.0, 9.999791, 9.99862 
4.5506886e+2, 2.761696e+2, -197629.9, -384048.88, -50760.727, -0.22646096, 0.36636406, -184704.3, 48871.18, 0.0, 10.001018, 9.9985485 
4.5507798e+2, 2.8616825e+2, -29590.006, -341316.25, -90362.15, -0.2131961, 0.42292026, -5290.3384, 130300.54, 0.0, 10.001882, 9.997755 
4.5508826e+2, 2.9616687e+2, 160265.78, -193468.23, -71715.55, -0.04630818, 0.5012316, 174252.28, 211860.9, 0.0, 10.002487, 9.997807 
4.5509797e+2, 3.0616468e+2, 101386.414, -218180.13, -57228.047, 0.05035029, 0.51259404, 111325.69, 111325.69, 0.00000000000087855477, 10.001845, 9.997612 
4.551064e+2, 3.1615984e+2, 47391.36, 8430.113, 14771.538, 0.02956285, 0.25977165, 52358.496, 52358.496, 0.00000014519496, 10.000374, 9.999878 
4.6492997e+2, 1.2617223e+2, -2011509.9, -1840280.5, 88855.016, -0.2332014, 0.3069731, -1802505.3, -98973.96, 0.0000045812567, 9.997901, 10.000142 
4.6493736e+2, 1.3617085e+2, -1685900.5, -1579936.1, -193607.11, -0.04186212, 0.08666501, -1432192.5, 173352.3, 0.0000007444035, 9.999214, 10.000639 
4.6494603e+2, 1.4617187e+2, -1579555.6, -1629421.3, -4507.3594, -0.015503358, 0.20271656, -1579151.4, -71615.46, 0.0000000034677494, 9.999932, 9.999269 
4.6495697e+2, 1.5617256e+2, -1429237.4, -1501928.3, -21417.418, 0.0009794862, 0.33455482, -1423396.4, -13865.17, 0.0, 10.000274, 9.999306 
4.6496806e+2, 1.6617103e+2, -1323134.6, -1421498.4, -35469.016, 0.052025985, 0.264041, -1311679.0, -133.95963, 0.0, 10.000421, 9.999114 
4.649788e+2, 1.7616831e+2, -1220635.5, -1321010.9, -53103.92, 0.07147455, 0.072466426, -1197755.9, 15813.209, 0.0, 10.00045, 9.999117 
4.6498924e+2, 1.8616809e+2, -1124694.1, -1264037.8, -87160.3, 0.13623296, 0.15960318, -1082781.5, 32792.086, 0.0, 10.000611, 9.998755 
4.6499968e+2, 1.9616936e+2, -986631.7, -1143730.5, -68313.73, 0.24952465, 0.40365192, -961081.3, 56485.492, 0.0, 10.000873, 9.998785 
4.6500802e+2, 2.0616797e+2, -887718.5, -1046407.25, -63769.926, 0.14253636, 0.38856027, -865268.3, 54313.85, 0.0, 10.00088, 9.998777 
4.6501502e+2, 2.161649e+2, -808730.9, -945348.5, -82531.05, -0.113424316, 0.19716749, -769906.75, 51705.027, 0.0, 10.000695, 9.998888 
4.6502516e+2, 2.261641e+2, -777180.2, -821000.25, -44820.465, -0.110593125, 0.20156384, -749201.1, -25581.965, 0.0, 9.999991, 9.999406 
4.650373e+2, 2.3616473e+2, -828500.06, -804271.8, -34714.727, 0.059571076, 0.31675178, -779618.25, -154005.42, 0.0, 9.999006, 9.999323 
4.6504676e+2, 2.4616387e+2, -698219.3, -799004.2, -110085.28, 0.12375432, 0.35486493, -627540.8, -99917.28, 0.0, 9.999691, 9.998357 
4.6505445e+2, 2.5616208e+2, -341241.78, -571334.06, -96774.59, 0.11748772, 0.3305174, -305951.84, 123693.484, 0.0, 10.001446, 9.998403 
4.6506205e+2, 2.6616037e+2, -254782.44, -491280.13, -27382.354, -0.00929407, 0.3239374, -251653.42, 80010.82, 0.0, 10.00142, 9.998293 
4.650696e+2, 2.7615863e+2, -328349.13, -473925.16, -22060.428, -0.21284345, 0.31678456, -325079.53, -91397.85, 0.0, 10.000235, 9.998309 
4.6507886e+2, 2.8615785e+2, -281315.84, -419654.97, -23898.797, -0.21638514, 0.4154932, -277303.56, -141611.05, 0.0, 9.999968, 9.998138 
4.6508926e+2, 2.9615757e+2, -129990.63, -289778.25, -9008.323, -0.08392196, 0.56635714, -129484.375, -91784.91, 0.0, 10.000307, 9.998194 
4.6509892e+2, 3.0615485e+2, -7124.577, -235044.72, -26784.281, 0.008314161, 0.48995373, -4019.3008, -4019.3008, 0.00000000000042122027, 10.000946, 9.997929 
4.651077e+2, 3.161499e+2, 274255.4, 168217.52, 26277.865, 0.052500315, 0.19161996, 280410.25, 280410.25, 0.00000014428599, 10.001718, 10.000326 
4.7493e+2, 1.261613e+2, -2021380.4, -1858830.4, 143626.27, -0.025464948, 0.2819471, -1775077.8, -71438.99, 0.0000033199578, 9.997889, 10.000021 
4.749386e+2, 1.3616025e+2, -1701076.9, -1612544.4, -145758.3, 0.16017053, 0.11270284, -1504478.9, 101168.54, 0.00000048107097, 9.999219, 10.000412 
4.7494724e+2, 1.4616081e+2, -1589178.3, -1655196.5, 6506.0947, 0.10557133, 0.20413256, -1588543.1, -80901.18, 0.000000000765976, 9.999952, 9.999085 
4.749582e+2, 1.5616032e+2, -1443060.1, -1529499.6, -8972.933, 0.09681615, 0.23791243, -1442138.5, -32490.246, 0.0, 10.000269, 9.99912 
4.7496927e+2, 1.6615911e+2, -1347116.0, -1468299.6, -35387.582, 0.12822706, 0.22141512, -1337539.1, -25878.338, 0.0, 10.000408, 9.998798 
4.7497988e+2, 1.7615752e+2, -1237996.8, -1353672.4, -49640.68, 0.12996231, 0.17539962, -1219615.1, -5938.8, 0.0, 10.000438, 9.998898 
4.7498912e+2, 1.8615676e+2, -1087704.4, -1187220.4, -79243.914, 0.05800734, 0.18986787, -1043891.8, 71792.56, 0.0, 10.0006075, 9.999287 
4.7499767e+2, 1.9615644e+2, -957176.3, -1084376.5, -58425.348, -0.038163178, 0.22467096, -934413.8, 83274.86, 0.0, 10.000875, 9.999192 
4.7500733e+2, 2.0615566e+2, -932083.4, -1134076.3, -71378.8, -0.016293287, 0.28320104, -909406.0, 10294.101, 0.0, 10.000862, 9.998184 
4.7501758e+2, 2.1615455e+2, -843647.3, -1012617.9, -91471.38, 0.07327373, 0.34475228, -803614.44, 18101.844, 0.0, 10.000675, 9.998435 
4.7502714e+2, 2.26154e+2, -733220.3, -728710.7, -84306.78, 0.08474302, 0.35991925, -646628.56, 77093.66, 0.0, 9.999985, 10.000044 
4.7503623e+2, 2.3615383e+2, -788444.75, -719124.44, -58447.082, 0.049156424, 0.3308468, -685833.25, -60111.23, 0.0, 9.998996, 9.999913 
4.750451e+2, 2.461529e+2, -687352.2, -774497.3, -44381.875, -0.012914605, 0.32473525, -668728.94, -140996.81, 0.0, 9.999682, 9.998529 
4.7505385e+2, 2.5615147e+2, -331905.47, -548927.44, -40785.418, -0.091526136, 0.3192588, -324493.72, 105255.57, 0.0, 10.001432, 9.998563 
4.7506285e+2, 2.6615e+2, -239750.38, -458020.94, -73502.01, -0.07550284, 0.31852904, -217306.58, 114457.875, 0.0, 10.001412, 9.998525 
4.75072e+2, 2.7614844e+2, -309674.63, -435619.8, -58625.645, 0.002035378, 0.30541298, -286609.34, -52830.496, 0.0, 10.0002365, 9.998571 
4.750809e+2, 2.8614756e+2, -250086.63, -357795.13, -12023.987, -0.009431686, 0.36029112, -248760.66, -112971.32, 0.0, 9.99998, 9.998557 
4.7508967e+2, 2.961471e+2, -102412.12, -235281.83, 8006.2305, -0.07616165, 0.4503875, -101931.43, -64134.332, 0.0, 10.000319, 9.998562 
4.750988e+2, 3.0614495e+2, 1084.966, -218172.77, 1148.8599, -0.100023605, 0.4116854, 1090.9855, 1090.9855, 0.0, 10.000945, 9.998045 
4.751082e+2, 3.1614304e+2, 274119.9, 171204.23, 58346.234, -0.07506016, 0.40285492, 300457.9, 300457.9, 0.00000012581201, 10.001701, 10.000354 
4.849297e+2, 1.2614985e+2, -1643118.5, -1710501.8, 162085.38, 0.024768433, 0.2210717, -1511260.1, 192489.22, 0.0000022837717, 10.000626, 9.999721 
4.8493883e+2, 1.3614924e+2, -1531620.6, -1572337.6, -154914.83, 0.19734278, 0.13750923, -1395732.4, 210021.67, 0.0000002759338, 10.000553, 10.000046 
4.849473e+2, 1.4614955e+2, -1525096.0, -1629120.1, -16841.047, 0.094398804, 0.2206663, -1522437.5, -14686.344, 0.000000000009128432, 10.000415, 9.99904 
4.8495862e+2, 1.561481e+2, -1459444.6, -1538711.8, -26716.043, 0.116614595, 0.1622881, -1451281.0, -41514.707, 0.0, 10.000159, 9.999109 
4.8496982e+2, 1.661471e+2, -1393241.1, -1462332.6, -22723.346, 0.16563785, 0.15585203, -1386437.6, -74661.06, 0.0, 9.999975, 9.999047 
4.849804e+2, 1.7614655e+2, -1302610.1, -1360711.5, 4815.723, 0.16781768, 0.18876474, -1302213.8, -88431.664, 0.0, 9.999892, 9.999112 
4.8498946e+2, 1.8614574e+2, -1159011.9, -1221711.1, -17338.56, 0.059770577, 0.18687972, -1154536.6, -38746.113, 0.0, 10.000118, 9.999285 
4.849978e+2, 1.9614466e+2, -1006032.25, -1103071.3, -42694.957, -0.0951672, 0.14477034, -989922.06, 27879.639, 0.0, 10.000522, 9.999233 
4.8500767e+2, 2.061441e+2, -987672.06, -1124181.3, -50768.07, -0.042284854, 0.20566407, -970861.44, -51050.77, 0.0, 10.000323, 9.99851 
4.850184e+2, 2.1614382e+2, -958532.94, -1036465.75, -3542.2375, 0.13376635, 0.31947106, -958372.25, -136553.8, 0.0, 9.999752, 9.998715 
4.8502746e+2, 2.2614352e+2, -747538.25, -744286.8, 8189.8545, 0.12524912, 0.34950817, -737562.9, -13740.068, 0.0, 9.999925, 9.999965 
4.8503548e+2, 2.3614317e+2, -559209.44, -610612.5, -18589.012, 0.00017057956, 0.3101013, -553191.56, 72633.92, 0.0, 10.000577, 9.999896 
4.8504445e+2, 2.4614249e+2, -519640.7, -647202.2, 18415.94, -0.09161259, 0.3052968, -517035.22, 10797.454, 0.0, 10.000632, 9.998946 
4.85054e+2, 2.5614154e+2, -467672.7, -569088.06, 33451.45, -0.16124986, 0.30913362, -457632.78, -27789.61, 0.0, 10.000306, 9.998967 
4.8506373e+2, 2.6614034e+2, -323590.8, -466135.0, -15106.02, -0.090618476, 0.30181766, -322007.56, 9847.275, 0.0, 10.000701, 9.99881 
4.8507357e+2, 2.761389e+2, -98379.11, -307034.97, 2081.198, 0.07060682, 0.27036217, -98358.35, 135509.61, 0.0, 10.001575, 9.998809 
4.8508248e+2, 2.8613785e+2, 21214.385, -240573.67, 37689.945, 0.053176753, 0.30517712, 26532.613, 162412.2, 0.0, 10.001902, 9.998436 
4.8509073e+2, 2.961371e+2, 111631.52, -147645.33, 12328.924, -0.077291384, 0.37725803, 112216.46, 150106.42, 0.0, 10.001853, 9.998426 
4.850995e+2, 3.0613473e+2, 25949.504, -217634.81, -27229.791, -0.13404253, 0.32652387, 28956.35, 28956.35, 0.0, 10.001167, 9.997941 
4.8510915e+2, 3.1613404e+2, 10175.969, 3234.0532, 6175.114, -0.06473062, 0.45346057, 13788.766, 13788.766, 0.00000009052117, 10.000063, 9.999992 
4.9492902e+2, 1.261378e+2, -1674367.3, -1779707.5, 157940.83, -0.11778582, 0.12140254, -1560545.8, 143317.83, 0.0000015131136, 10.000645, 9.999237 
4.9493805e+2, 1.3613784e+2, -1567895.4, -1647226.4, -157942.9, 0.059760015, 0.1640968, -1444713.4, 161151.19, 0.00000014199817, 10.000551, 9.999534 
4.9494618e+2, 1.4613807e+2, -1518159.6, -1614349.4, -26529.861, -0.06220715, 0.25626075, -1511327.8, -3464.5393, 0.0, 10.000412, 9.999144 
4.9495804e+2, 1.561359e+2, -1447800.6, -1512525.3, -34556.535, 0.040904555, 0.11374327, -1432818.8, -22933.678, 0.0, 10.000154, 9.999291 
4.949696e+2, 1.6613512e+2, -1334163.4, -1341953.0, -28294.783, 0.14445892, 0.07491341, -1309496.6, 2395.0317, 0.0, 9.999981, 9.999872 
4.949804e+2, 1.7613539e+2, -1255174.8, -1262535.0, 5311.1787, 0.17599228, 0.109882444, -1252393.3, -38506.66, 0.0, 9.999891, 9.999787 
4.9499032e+2, 1.8613496e+2, -1200114.4, -1302831.1, -2503.2874, 0.13192272, 0.14710532, -1200053.4, -84161.14, 0.0, 10.000102, 9.998735 
4.9499997e+2, 1.9613396e+2, -1032164.94, -1153919.1, -30282.605, 0.06745405, 0.16542636, -1025049.0, -7143.151, 0.0, 10.000507, 9.998891 
4.9500895e+2, 2.0613328e+2, -900758.1, -940693.44, -74278.78, 0.05065548, 0.15794331, -843809.94, 76103.836, 0.0, 10.000309, 9.999778 
4.950174e+2, 2.1613275e+2, -888047.8, -887718.7, -18352.25, 0.05633615, 0.12320314, -869530.25, -47612.05, 0.0, 9.99974, 9.999743 
4.9502614e+2, 2.2613263e+2, -804932.4, -861293.6, 31197.459, -0.0019758241, 0.16939835, -791072.2, -67150.984, 0.0, 9.999914, 9.999167 
4.950351e+2, 2.3613274e+2, -604549.7, -703155.75, 3210.5342, -0.09837547, 0.25412396, -604445.25, 21478.275, 0.0, 10.000569, 9.999266 
4.9504477e+2, 2.4613263e+2, -473624.56, -549860.56, 4347.8716, -0.12610038, 0.2982156, -473377.4, 54547.953, 0.0, 10.000625, 9.999619 
4.9505484e+2, 2.5613233e+2, -424541.13, -477051.0, 27667.283, -0.10808628, 0.2997957, -412654.22, 17273.213, 0.0, 10.000295, 9.999605 
4.950647e+2, 2.661314e+2, -302510.5, -419280.53, 16087.462, -0.06729945, 0.2732507, -300334.7, 31601.275, 0.0, 10.000688, 9.999139 
4.9507433e+2, 2.7613e+2, -87159.445, -277586.4, 32454.545, -0.014029658, 0.21306993, -81780.16, 152169.13, 0.0, 10.001549, 9.999024 
4.950835e+2, 2.8612873e+2, -28519.303, -337544.63, 34939.813, -0.036068153, 0.25155637, -24618.098, 111345.445, 0.0, 10.001876, 9.997783 
4.9509236e+2, 2.9612753e+2, 66572.4, -238035.16, 8651.457, -0.10121871, 0.34652215, 66817.92, 104796.15, 0.0, 10.00184, 9.997811 
4.9510095e+2, 3.0612412e+2, 2833.1804, -267798.56, -68292.75, -0.10726828, 0.23689711, 19090.014, 19090.014, 0.0, 10.001175, 9.997594 
4.9511045e+2, 3.161229e+2, -41382.8, -105473.266, -27855.607, 0.050462272, 0.34606963, -30968.268, -30968.268, 0.000000050936965, 10.000069, 9.999244 
5.049295e+2, 1.2612692e+2, -1533205.3, -1706926.9, 192156.84, -0.17703865, 0.06900452, -1409189.1, 294777.56, 0.0000009949754, 10.001605, 9.999268 
5.049388e+2, 1.3612686e+2, -1589856.9, -1667500.3, -88230.38, 0.08385312, 0.11053589, -1532285.0, 73683.984, 0.000000065122016, 10.0004425, 9.999447 
5.0494623e+2, 1.4612725e+2, -1531500.1, -1592612.4, 88527.586, -0.083351366, 0.21015728, -1468403.6, 39562.164, 0.0, 10.000201, 9.999393 
5.04958e+2, 1.561254e+2, -1379743.6, -1456994.1, 85407.35, -0.0020546217, 0.07512537, -1324633.5, 85350.5, 0.0, 10.000521, 9.999496 
5.049694e+2, 1.6612484e+2, -1244174.3, -1310207.3, 53847.06, 0.09519142, 0.054531973, -1214027.5, 97961.83, 0.0, 10.000649, 9.999766 
5.0498015e+2, 1.7612526e+2, -1151030.9, -1220498.0, 14012.985, 0.12522855, 0.11462369, -1148310.6, 65674.22, 0.0, 10.000642, 9.999713 
5.0499034e+2, 1.8612492e+2, -1172473.8, -1273376.9, 10950.815, 0.11865994, 0.15575404, -1171298.9, -55308.895, 0.0, 10.00022, 9.998882 
5.050005e+2, 1.9612397e+2, -1159018.6, -1195127.8, 34532.645, 0.116542466, 0.16565512, -1138105.6, -120103.35, 0.0, 9.999552, 9.999068 
5.050092e+2, 2.0612346e+2, -973019.6, -934092.6, -23168.943, 0.07952807, 0.14634685, -923296.8, -3289.2793, 0.0, 9.999633, 10.000151 
5.0501686e+2, 2.1612316e+2, -802435.25, -813369.0, -35507.28, 0.010084065, 0.097102046, -771976.44, 50031.887, 0.0, 10.000183, 10.000041 
5.050259e+2, 2.2612278e+2, -747704.1, -869739.8, 26473.254, -0.044769555, 0.12219523, -742208.75, -18195.305, 0.0, 10.000464, 9.998843 
5.050358e+2, 2.361223e+2, -621495.1, -740373.9, 25966.422, -0.08458821, 0.18048221, -616070.9, 9950.782, 0.0, 10.00058, 9.999003 
5.0504553e+2, 2.4612223e+2, -505636.56, -534665.1, -3022.1685, -0.09247924, 0.22386311, -505325.25, 22697.672, 0.0, 10.000276, 9.99989 
5.050551e+2, 2.5612235e+2, -492870.34, -481529.78, -8102.226, -0.07977231, 0.24072684, -477310.78, -47290.426, 0.0, 9.999705, 9.999857 
5.0506467e+2, 2.6612177e+2, -488511.03, -502332.72, -14066.081, -0.071119286, 0.23202148, -479749.78, -147723.6, 0.0, 9.999384, 9.999195 
5.0507414e+2, 2.761206e+2, -421468.84, -432793.84, -20628.738, -0.06750757, 0.19225724, -405739.53, -171701.33, 0.0, 9.9992285, 9.999073 
5.0508386e+2, 2.8611928e+2, -310490.75, -467063.25, 16563.604, -0.09103587, 0.22272648, -308757.7, -172705.14, 0.0, 9.999912, 9.997838 
5.0509363e+2, 2.961179e+2, -32247.232, -276733.84, 34253.87, -0.12388476, 0.2921091, -27538.762, 10529.268, 0.0, 10.001126, 9.997889 
5.051023e+2, 3.0611444e+2, 102055.734, -191092.7, -26393.014, -0.118133776, 0.16121069, 104413.016, 104413.016, 0.0, 10.001734, 9.997851 
5.051118e+2, 3.1611338e+2, 213504.77, -7835.0933, 44403.41, 0.08829664, 0.26212382, 222080.36, 222080.36, 0.000000020855737, 10.001933, 9.999013 
5.149312e+2, 1.2611729e+2, -1494819.9, -1628825.4, 140422.94, -0.17626688, 0.06910543, -1406233.5, 297824.44, 0.00000067894854, 10.001608, 9.999804 
5.14941e+2, 1.3611633e+2, -1561370.4, -1610816.1, -123000.35, 0.25697538, -0.018966272, -1460632.9, 145433.78, 0.000000029496794, 10.000451, 9.999833 
5.149475e+2, 1.4611714e+2, -1504301.8, -1538971.4, 100004.39, 0.013380036, 0.08512661, -1420140.9, 87917.22, 0.0, 10.000212, 9.999757 
5.1495826e+2, 1.5611659e+2, -1365292.9, -1425676.0, 97878.48, -0.022720696, 0.04475138, -1293055.4, 117007.49, 0.0, 10.000516, 9.999713 
5.149692e+2, 1.6611627e+2, -1319096.9, -1464056.4, 52864.043, 0.007464143, 0.0959917, -1301866.4, 10203.118, 0.0, 10.000642, 9.998714 
5.149796e+2, 1.7611617e+2, -1210802.0, -1343948.8, 12293.948, 0.0011301365, 0.2062617, -1209676.4, 4400.3105, 0.0, 10.000639, 9.998867 
5.1498944e+2, 1.8611564e+2, -1111298.9, -1146120.8, -16674.234, 0.0028430792, 0.21718037, -1104602.4, 11481.272, 0.0, 10.000219, 9.999757 
5.149993e+2, 1.9611473e+2, -1110701.8, -1092453.1, 15734.901, 0.039758347, 0.14500587, -1083388.5, -65297.34, 0.0, 9.99954, 9.999779 
5.150084e+2, 2.0611463e+2, -1012016.8, -1011867.75, -3739.383, 0.031224933, 0.16699381, -1008202.1, -88109.984, 0.0, 9.999619, 9.999622 
5.150168e+2, 2.1611504e+2, -834282.44, -878473.06, -15242.096, -0.018709797, 0.2377914, -829535.2, -7446.0596, 0.0, 10.000178, 9.999597 
5.150267e+2, 2.2611399e+2, -738556.4, -850118.25, 29284.826, -0.017061075, 0.20678766, -731336.4, -7236.738, 0.0, 10.00046, 9.9989805 
5.1503754e+2, 2.361119e+2, -615638.7, -725560.06, 29230.975, 0.025279017, 0.092776656, -608348.9, 17770.713, 0.0, 10.000567, 9.999111 
5.150467e+2, 2.4611129e+2, -516148.63, -553957.5, -26330.082, -0.0064968313, 0.085139066, -502639.3, 25485.875, 0.0, 10.000264, 9.9997635 
5.1505476e+2, 2.561116e+2, -502412.34, -500769.34, -26584.742, -0.087445356, 0.1337717, -474993.44, -44871.746, 0.0, 9.999702, 9.999726 
5.1506364e+2, 2.661114e+2, -503576.3, -534085.06, -21318.54, -0.112402044, 0.1789175, -492616.66, -160491.23, 0.0, 9.999386, 9.998976 
5.1507306e+2, 2.7611068e+2, -427829.7, -448600.47, -18745.275, -0.10374569, 0.20593172, -416785.16, -182650.38, 0.0, 9.99924, 9.9989605 
5.1508343e+2, 2.8610954e+2, -259094.28, -361315.75, 61664.137, -0.12658054, 0.21711443, -230112.75, -93965.94, 0.0, 9.999917, 9.998562 
5.150944e+2, 2.9610816e+2, 16448.81, -170791.7, 78234.36, -0.15969774, 0.21442443, 44834.156, 82993.91, 0.0, 10.001105, 9.998626 
5.1510346e+2, 3.061056e+2, 156145.97, -71827.49, -19100.605, -0.17860146, 0.09732308, 157735.22, 157735.22, 0.0, 10.001705, 9.998685 
5.1511323e+2, 3.1610546e+2, 226824.4, 25346.682, 48685.242, 0.026997376, 0.21239394, 237971.95, 237971.95, 0.0000000053166334, 10.001911, 9.999251 
5.2493256e+2, 1.2610835e+2, -1744459.6, -1761293.1, 144805.05, -0.11767802, 0.118684575, -1607827.0, 96317.38, 0.0000005002885, 9.999946, 9.999696 
5.249419e+2, 1.3610609e+2, -1545937.1, -1625694.9, -163851.55, 0.29310757, -0.07723006, -1417181.3, 188984.19, 0.000000016983103, 10.000649, 9.999638 
5.249478e+2, 1.4610676e+2, -1403026.3, -1489329.5, 38184.59, -0.0027281137, 0.021382282, -1388557.4, 119600.8, 0.0, 10.000902, 9.999765 
5.249591e+2, 1.5610696e+2, -1340517.8, -1416702.5, 2582.7104, -0.00007693817, 0.0548188, -1340430.3, 69725.2, 0.0, 10.000697, 9.999688 
5.249697e+2, 1.6610669e+2, -1392174.0, -1529368.3, -25209.035, 0.011845424, 0.12848306, -1387688.5, -75525.93, 0.0, 10.000265, 9.998452 
5.249792e+2, 1.7610621e+2, -1353488.6, -1434380.5, -9022.246, -0.056677755, 0.22741762, -1352494.5, -138319.36, 0.0, 9.999747, 9.99868 
5.249888e+2, 1.8610562e+2, -1167880.4, -1127658.8, -33426.547, -0.05519697, 0.21785408, -1108759.6, 7422.8687, 0.0, 9.999634, 10.000165 
5.249988e+2, 1.9610485e+2, -1055542.9, -1029876.6, -35838.848, 0.02416158, 0.12020133, -1004642.56, 13544.425, 0.0, 9.999762, 10.000102 
5.250084e+2, 2.0610496e+2, -959496.7, -1024207.94, -28657.594, 0.0466411, 0.16622116, -948630.25, -28443.707, 0.0, 10.000145, 9.999283 
5.250176e+2, 2.161056e+2, -775421.3, -879482.25, -33994.64, 0.01996595, 0.29453114, -765300.3, 56882.652, 0.0, 10.000713, 9.99933 
5.250274e+2, 2.2610445e+2, -712787.4, -801405.75, -3623.6357, 0.013569753, 0.24831904, -712639.44, 11554.503, 0.0, 10.000481, 9.999307 
5.2503765e+2, 2.3610204e+2, -718348.5, -742325.06, 8965.343, 0.025433734, 0.071086645, -715366.94, -89151.734, 0.0, 9.9997225, 9.999405 
5.250467e+2, 2.4610147e+2, -585077.0, -585290.56, -20147.588, -0.010440155, 0.053182285, -565035.9, -36815.887, 0.0, 9.9997835, 9.99978 
5.250549e+2, 2.561021e+2, -403790.7, -451104.53, -13813.067, -0.07964799, 0.12794845, -400053.25, 30160.9, 0.0, 10.000374, 9.999743 
5.250636e+2, 2.661018e+2, -294522.6, -431429.1, 11320.373, -0.12675536, 0.168611, -293592.84, 38624.785, 0.0, 10.000811, 9.998997 
5.2507263e+2, 2.7610087e+2, -147621.81, -305044.03, 30695.037, -0.16189274, 0.16889946, -141848.47, 92379.805, 0.0, 10.001125, 9.999041 
5.250835e+2, 2.860998e+2, -89402.875, -222572.08, 116402.87, -0.1566399, 0.15636532, -21886.262, 114352.09, 0.0, 10.000837, 9.999072 
5.2509546e+2, 2.9609874e+2, -88656.87, -168036.02, 111370.17, -0.11756569, 0.13258962, -10115.41, 28131.951, 0.0, 10.000154, 9.999104 
5.2510434e+2, 3.0609724e+2, -23331.297, -121044.13, -3136.7788, -0.1823286, 0.080532275, -23230.703, -23230.703, 0.0, 10.000314, 9.999016 
5.251137e+2, 3.1609762e+2, 92097.09, -44712.684, 14439.775, -0.06670564, 0.2185803, 93604.555, 93604.555, 0.0000000009665987, 10.001009, 9.999205 
5.349333e+2, 1.2610017e+2, -1800217.0, -1878310.9, 158168.4, -0.04086591, 0.2223696, -1676347.1, 27878.357, 0.00000041209, 9.999949, 9.998892 
5.3494143e+2, 1.3609613e+2, -1603553.8, -1746572.6, -139041.64, 0.17884733, -0.062422898, -1518710.4, 87555.34, 0.000000018082496, 10.000652, 9.998807 
5.3494734e+2, 1.460961e+2, -1427097.8, -1539519.0, 28982.338, -0.14409116, 0.021920556, -1420065.9, 88200.26, 0.0, 10.000901, 9.999422 
5.349603e+2, 1.560965e+2, -1358871.9, -1453820.4, -6625.1177, 0.04998475, 0.107953265, -1358411.9, 51850.33, 0.0, 10.000693, 9.999434 
5.3497076e+2, 1.6609614e+2, -1354032.4, -1451683.3, -47436.188, 0.09010922, 0.15507977, -1334783.5, -22514.951, 0.0, 10.00027, 9.998983 
5.349789e+2, 1.760954e+2, -1320082.6, -1365462.1, -24418.914, -0.0594594, 0.17545286, -1309439.0, -95158.5, 0.0, 9.999747, 9.999154 
5.3498834e+2, 1.8609488e+2, -1174376.4, -1138507.4, -29948.395, -0.0666433, 0.15543365, -1121534.1, -5247.3716, 0.0, 9.999622, 10.000096 
5.3499883e+2, 1.960944e+2, -1062248.9, -1041644.3, -28694.693, 0.053718876, 0.09171424, -1021458.56, -3168.7253, 0.0, 9.999752, 10.000027 
5.350092e+2, 2.0609447e+2, -971263.8, -1048233.5, -8949.291, 0.1105966, 0.14820273, -970236.94, -49946.637, 0.0, 10.00014, 9.999122 
5.350193e+2, 2.160949e+2, -783687.1, -894288.7, -16129.445, 0.114398256, 0.270193, -781382.9, 40906.55, 0.0, 10.0007, 9.999236 
5.3502816e+2, 2.2609419e+2, -679574.3, -729457.44, -33733.523, 0.033944115, 0.24623673, -662563.1, 61733.258, 0.0, 10.000468, 9.999806 
5.350362e+2, 2.3609272e+2, -686409.4, -675704.75, -12526.622, -0.09482169, 0.11046463, -667434.94, -41126.008, 0.0, 9.99972, 9.999864 
5.350454e+2, 2.460927e+2, -575639.5, -564500.4, 1180.7018, -0.1172642, 0.12144548, -564376.6, -36068.645, 0.0, 9.999778, 9.999926 
5.3505534e+2, 2.5609365e+2, -393106.78, -428924.9, 8980.378, -0.07095975, 0.2165949, -390981.3, 39317.12, 0.0, 10.000371, 9.999899 
5.3506446e+2, 2.66093e+2, -278614.6, -394054.22, 22802.896, -0.12874019, 0.19625184, -274273.56, 58029.844, 0.0, 10.000794, 9.999261 
5.3507286e+2, 2.760912e+2, -130495.41, -266272.94, 40876.613, -0.25540173, 0.08227795, -119139.09, 115179.59, 0.0, 10.001111, 9.999313 
5.3508395e+2, 2.860901e+2, -72384.47, -183646.95, 88850.06, -0.19522986, 0.042889167, -23186.475, 113140.85, 0.0, 10.000821, 9.999348 
5.350967e+2, 2.960896e+2, -73906.88, -134741.0, 92479.69, -0.009406319, 0.04856222, -6970.515, 31360.574, 0.0, 10.000142, 9.999338 
5.351051e+2, 3.0608925e+2, -36445.934, -145706.1, 22451.355, -0.14039001, 0.10930228, -32012.414, -32012.414, 0.0, 10.000305, 9.998851 
5.351133e+2, 3.160897e+2, 67698.31, -91830.375, 34684.965, -0.21972847, 0.2670971, 74913.266, 74913.266, 0.000000009099205, 10.000997, 9.998886 
5.4493445e+2, 1.2609023e+2, -1616917.4, -1786615.5, 136188.27, 0.017648945, 0.1960659, -1541308.9, 163014.53, 0.00000036785775, 10.001201, 9.998916 
5.4494184e+2, 1.3608706e+2, -1485848.1, -1699382.0, -95296.914, 0.11377644, 0.0070642713, -1449504.4, 156851.7, 0.000000024396927, 10.001503, 9.998721 
5.4494715e+2, 1.460868e+2, -1431442.1, -1568516.4, 66323.25, -0.25557727, 0.083443545, -1404605.8, 103754.11, 0.0, 10.000991, 9.999178 
5.4496044e+2, 1.5608643e+2, -1483652.5, -1530835.0, 32939.72, 0.034659646, 0.11910372, -1466727.4, -56363.566, 0.0, 9.999909, 9.999285 
5.449708e+2, 1.6608585e+2, -1407199.9, -1403128.6, 19483.096, 0.10479007, 0.11466079, -1385575.1, -73204.92, 0.0, 9.999589, 9.999642 
5.449787e+2, 1.7608525e+2, -1281928.4, -1286719.8, 49649.934, -0.058122974, 0.08339743, -1234616.4, -20239.393, 0.0, 9.999753, 9.999689 
5.449879e+2, 1.8608515e+2, -1168526.1, -1184131.3, 43879.074, -0.07744215, 0.10470088, -1131761.3, -15381.696, 0.0, 9.999868, 9.999665 
5.4499847e+2, 1.9608527e+2, -1054809.5, -1077813.8, 16648.797, 0.030950686, 0.14480664, -1046076.06, -27696.05, 0.0, 9.999974, 9.999671 
5.45009e+2, 2.0608494e+2, -969966.44, -1022073.4, 51511.69, 0.08681377, 0.16148046, -938294.4, -17910.012, 0.0, 10.00004, 9.999349 
5.4501945e+2, 2.1608421e+2, -859899.6, -904862.06, 67295.016, 0.09591751, 0.14745164, -811430.0, 10961.748, 0.0, 10.000063, 9.99947 
5.450281e+2, 2.2608416e+2, -734880.3, -732304.4, 26666.084, 0.0065456047, 0.16458163, -706895.2, 17497.602, 0.0, 9.999986, 10.000018 
5.4503554e+2, 2.360845e+2, -653868.3, -639077.3, 26874.1, -0.14094388, 0.1896538, -618599.7, 7790.1772, 0.0, 9.999855, 10.000048 
5.45045e+2, 2.4608459e+2, -558367.25, -564077.9, 53227.688, -0.13683918, 0.20450324, -507918.34, 20469.656, 0.0, 9.99993, 9.999855 
5.45056e+2, 2.5608447e+2, -431817.78, -453817.25, 41467.453, -0.034015357, 0.20013253, -399915.94, 30471.197, 0.0, 10.0001335, 9.999841 
5.450655e+2, 2.660835e+2, -359804.28, -427781.8, 33681.18, -0.0641643, 0.1505657, -345942.7, -13548.427, 0.0, 10.000211, 9.99931 
5.450742e+2, 2.7608195e+2, -262435.72, -325802.7, 28852.078, -0.18164878, 0.055561677, -251267.3, -16860.018, 0.0, 10.000192, 9.999345 
5.4508483e+2, 2.8608114e+2, -194066.16, -257276.4, 34222.79, -0.14550021, 0.047637507, -179087.13, -42672.824, 0.0, 10.0000515, 9.999211 
5.450967e+2, 2.9608086e+2, -130003.25, -176314.72, 10585.586, -0.008110459, 0.09220422, -127698.375, -89281.39, 0.0, 9.999822, 9.999206 
5.4510516e+2, 3.0608046e+2, -65859.305, -174418.23, -26250.473, -0.1620462, 0.16219334, -59844.926, -59844.926, 0.0, 10.000164, 9.99872 
5.4511404e+2, 3.1607935e+2, 41295.375, -112887.4, -30848.54, -0.2330139, 0.17609628, 47238.406, 47238.406, 0.000000042776854, 10.00085, 9.998813 
5.5493593e+2, 1.2607855e+2, -1551609.6, -1656741.0, 124945.02, 0.030577099, 0.04413685, -1468623.1, 235814.88, 0.0000003291145, 10.001222, 9.999799 
5.54943e+2, 1.3607903e+2, -1434850.6, -1594620.6, -87551.53, 0.08324746, 0.1348866, -1396216.0, 210219.42, 0.000000025104656, 10.00151, 9.999436 
5.549472e+2, 1.4607893e+2, -1443231.9, -1596998.4, 23878.701, -0.3545241, 0.21077213, -1439609.0, 68828.96, 0.0, 10.001004, 9.998979 
5.549595e+2, 1.5607679e+2, -1489865.4, -1543650.6, -1260.0159, -0.05819558, 0.0872366, -1489835.9, -79375.53, 0.0, 9.9999075, 9.999198 
5.5496985e+2, 1.6607586e+2, -1352659.0, -1289212.8, 23846.98, 0.044823766, 0.007217905, -1281249.1, 31218.47, 0.0, 9.999585, 10.000426 
5.549784e+2, 1.7607577e+2, -1239638.1, -1197961.8, 56398.504, -0.067277044, -0.04970434, -1158674.9, 55789.54, 0.0, 9.999748, 10.0003 
5.5498755e+2, 1.8607645e+2, -1225177.4, -1300445.5, 46121.152, -0.10402316, 0.066641554, -1203284.3, -86823.56, 0.0, 9.999862, 9.998871 
5.549976e+2, 1.9607753e+2, -1101293.9, -1172579.3, 21377.738, -0.057554558, 0.27973625, -1095374.4, -76916.99, 0.0, 9.999965, 9.999026 
5.550079e+2, 2.0607631e+2, -927361.4, -931519.2, 50757.297, -0.03800238, 0.20404413, -878640.44, 41828.355, 0.0, 10.0000305, 9.999975 
5.550181e+2, 2.1607356e+2, -823213.7, -826440.25, 69008.16, -0.048467714, -0.0757748, -755799.94, 66690.06, 0.0, 10.000052, 10.000014 
5.5502725e+2, 2.2607432e+2, -742216.8, -743652.7, 19621.926, -0.08189714, 0.004396654, -723299.7, 1183.5056, 0.0, 9.999971, 9.999947 
5.550356e+2, 2.360774e+2, -661918.6, -653342.2, 24215.152, -0.12484859, 0.30789003, -633038.5, -6580.217, 0.0, 9.999845, 9.999955 
5.550456e+2, 2.4607708e+2, -580014.7, -606233.75, 59487.258, -0.08147303, 0.30237415, -532209.56, -3749.4102, 0.0, 9.99992, 9.99957 
5.5505663e+2, 2.5607446e+2, -452076.06, -494401.8, 49983.652, 0.01758528, 0.079105966, -418959.72, 11520.573, 0.0, 10.000128, 9.999564 
5.5506694e+2, 2.6607335e+2, -372101.38, -452553.75, 31462.36, 0.05105391, 0.03115303, -361258.72, -28768.34, 0.0, 10.000207, 9.999142 
5.5507666e+2, 2.7607307e+2, -278618.6, -358309.7, 28612.83, 0.040235005, 0.08438674, -269409.47, -34914.984, 0.0, 10.000185, 9.9991255 
5.550862e+2, 2.8607273e+2, -232178.34, -334714.22, 23873.176, -0.023474861, 0.16418682, -226892.52, -90392.64, 0.0, 10.000044, 9.998684 
5.550954e+2, 2.9607245e+2, -162055.84, -243765.33, 7387.8374, -0.12211792, 0.25750476, -161393.23, -122887.99, 0.0, 9.999825, 9.998741 
5.551044e+2, 3.0607092e+2, -72455.69, -189746.98, -205.52187, -0.257856, 0.2387077, -72455.33, -72455.33, 0.0, 10.000169, 9.998613 
5.551158e+2, 3.160665e+2, 56578.008, -85457.18, -12253.019, -0.14236586, -0.065676264, 57627.293, 57627.293, 0.000000044039766, 10.000863, 9.998997 
5.649365e+2, 1.2606803e+2, -1702848.5, -1677845.8, 144801.69, 0.035557732, -0.029257914, -1545006.8, 159534.17, 0.00000027083397, 9.999971, 10.000251 
5.649442e+2, 1.3607e+2, -1682990.9, -1670809.6, -91203.66, 0.14785889, 0.1693716, -1585493.5, 21031.672, 0.000000017878008, 9.999615, 9.999828 
5.649476e+2, 1.4607035e+2, -1578909.3, -1619852.6, 28583.875, -0.35579747, 0.25061023, -1564222.4, -55698.727, 0.0, 9.999889, 9.999359 
5.64959e+2, 1.5606825e+2, -1380020.4, -1453735.0, 43437.34, -0.12602894, 0.094595596, -1359910.5, 50634.633, 0.0, 10.000502, 9.999529 
5.649696e+2, 1.6606762e+2, -1214780.4, -1222964.6, 58800.813, 0.01210529, 0.028804153, -1159929.5, 152619.72, 0.0, 10.000537, 10.000421 
5.64979e+2, 1.7606796e+2, -1174101.6, -1168904.4, 29830.42, 0.0014048232, 0.015411297, -1141559.6, 72981.945, 0.0, 10.000212, 10.000276 
5.649882e+2, 1.8606827e+2, -1141960.5, -1281511.8, 42963.4, -0.055160057, 0.107684106, -1129794.1, -13252.767, 0.0, 10.000525, 9.998681 
5.649977e+2, 1.9606847e+2, -922689.2, -1102662.3, 57782.86, -0.111079566, 0.25191003, -905734.44, 112812.1, 0.0, 10.001261, 9.998882 
5.650077e+2, 2.0606743e+2, -770767.8, -833252.25, 60303.016, -0.10349444, 0.18801008, -734094.44, 186461.11, 0.0, 10.001009, 10.000178 
5.6501806e+2, 2.1606556e+2, -805492.5, -804001.9, 45718.91, -0.06283398, -0.023690809, -759022.2, 63544.793, 0.0, 10.000118, 10.000135 
5.6502753e+2, 2.260659e+2, -758089.3, -818201.3, -12793.1, -0.05769754, 0.04265986, -755479.94, -30915.354, 0.0, 10.000147, 9.999351 
5.6503636e+2, 2.3606767e+2, -562642.25, -662860.56, -50495.695, -0.071021065, 0.27571428, -541612.5, 84941.1, 0.0, 10.0007715, 9.999443 
5.6504625e+2, 2.4606702e+2, -431558.75, -521594.53, -18791.164, -0.05327632, 0.2516784, -427794.28, 100764.664, 0.0, 10.000882, 9.999687 
5.650567e+2, 2.5606468e+2, -368714.5, -444180.2, -2122.8103, -0.015665691, 0.044171777, -368654.84, 61920.727, 0.0, 10.000656, 9.999655 
5.650669e+2, 2.660639e+2, -381043.1, -470316.72, -14432.868, 0.027177824, 0.035633415, -378767.72, -46185.133, 0.0, 10.000211, 9.999015 
5.650769e+2, 2.7606407e+2, -368574.47, -413936.75, -14125.742, 0.07302578, 0.14135101, -364535.38, -129951.234, 0.0, 9.999625, 9.999011 
5.650865e+2, 2.8606325e+2, -258787.69, -355913.56, 28024.121, 0.0104626175, 0.18672839, -251281.83, -114688.22, 0.0, 9.999896, 9.9986105 
5.6509566e+2, 2.9606205e+2, -31819.113, -190858.72, 42320.316, -0.12269201, 0.19426458, -21258.906, 17348.027, 0.0, 10.000759, 9.998657 
5.6510526e+2, 3.060607e+2, 122873.516, -104930.24, 63876.824, -0.248355, 0.2036208, 139562.17, 139562.17, 0.0, 10.001547, 9.998533 
5.651178e+2, 3.1605676e+2, 272016.88, 46947.164, 35519.477, -0.09976404, -0.048805486, 277489.34, 277489.34, 0.000000021690008, 10.00222, 9.999251 
5.749362e+2, 1.260589e+2, -1706345.9, -1692055.5, 106102.484, 0.0015902267, -0.0135418875, -1592857.9, 111772.25, 0.00000019303324, 9.99999, 10.00015 
5.749454e+2, 1.3606004e+2, -1680105.8, -1666440.1, -98813.21, 0.2990671, 0.11332551, -1574223.8, 32400.773, 0.000000007774616, 9.999616, 9.999862 
5.7494843e+2, 1.4606105e+2, -1511026.8, -1478225.9, 50396.918, -0.26854542, 0.20490089, -1441628.0, 66988.46, 0.0, 9.999886, 10.000334 
5.749589e+2, 1.5606087e+2, -1325544.5, -1338759.0, 64430.707, -0.18124142, 0.14373137, -1267383.1, 143234.22, 0.0, 10.000495, 10.00032 
5.7496995e+2, 1.660612e+2, -1271986.4, -1342653.3, 44872.496, -0.0063149934, 0.18271263, -1250206.0, 62408.29, 0.0, 10.000537, 9.9996 
5.749807e+2, 1.7606182e+2, -1222210.6, -1269763.1, 22656.053, 0.13750224, 0.28054726, -1213144.8, 1463.7014, 0.0, 10.000214, 9.999584 
5.7498986e+2, 1.860606e+2, -1112991.8, -1219199.5, 69561.61, 0.054747842, 0.22792777, -1078580.8, 38040.574, 0.0, 10.000518, 9.999111 
5.749986e+2, 1.9605812e+2, -899963.0, -1051221.5, 80654.31, -0.14436455, 0.06048961, -865026.0, 153621.28, 0.0, 10.001244, 9.999242 
5.750086e+2, 2.060583e+2, -788917.8, -868459.44, 24571.363, -0.12188874, 0.1141032, -781939.56, 138704.83, 0.0, 10.000998, 9.999943 
5.7501924e+2, 2.1606016e+2, -830018.0, -852523.7, 19090.906, 0.038012736, 0.3013074, -819110.3, 3512.658, 0.0, 10.000107, 9.999808 
5.750289e+2, 2.2605887e+2, -836144.25, -977197.0, 9597.463, 0.06429197, 0.2764713, -835494.25, -110857.1, 0.0, 10.000134, 9.998266 
5.7503796e+2, 2.360554e+2, -630061.1, -798729.2, -28583.488, 0.00533546, 0.095731094, -625348.8, 1326.5681, 0.0, 10.000754, 9.998519 
5.750471e+2, 2.4605443e+2, -396825.78, -447215.66, -28671.857, -0.06514871, 0.05390566, -383851.88, 144832.11, 0.0, 10.000872, 10.000204 
5.750561e+2, 2.5605512e+2, -337840.78, -377599.72, -10604.397, -0.14516035, 0.09397046, -335189.25, 95483.68, 0.0, 10.000646, 10.000117 
5.7506543e+2, 2.6605523e+2, -386991.5, -483888.75, -38108.727, -0.14222318, 0.16181186, -373799.7, -41128.773, 0.0, 10.000214, 9.998922 
5.75075e+2, 2.7605486e+2, -368267.88, -417676.56, -29359.596, -0.088239074, 0.22692446, -354601.78, -119925.625, 0.0, 9.999642, 9.998979 
5.750857e+2, 2.8605276e+2, -231191.39, -300831.8, 58446.492, -0.054666933, 0.119504154, -197978.97, -61283.617, 0.0, 9.999907, 9.998983 
5.750973e+2, 2.960497e+2, -12526.912, -147954.64, 76712.06, -0.029526109, -0.09183858, 22081.791, 60803.7, 0.0, 10.000748, 9.998957 
5.751079e+2, 3.0604988e+2, 115373.71, -117636.68, 88818.8, -0.14749062, 0.05918648, 145368.48, 145368.48, 0.00000000021282408, 10.001531, 9.998457 
5.7511985e+2, 3.1604984e+2, 289642.7, 92456.58, 53229.57, -0.12136114, 0.20072022, 303094.16, 303094.16, 0.0000000699572, 10.00218, 9.999586 
5.849354e+2, 1.2605067e+2, -1882585.4, -1784033.1, 106680.71, -0.014142856, 0.0854359, -1715797.9, -11083.902, 0.00000011738098, 9.998821, 10.000075 
5.849454e+2, 1.3605039e+2, -1650372.4, -1652834.0, -78038.805, 0.3261315, 0.07478629, -1573554.8, 33166.98, 0.0000000014227642, 9.999829, 9.999847 
5.849487e+2, 1.460515e+2, -1481253.0, -1428206.0, 34146.1, -0.22320376, 0.16043293, -1411492.3, 97219.805, 0.0, 9.999942, 10.000647 
5.8496e+2, 1.5605275e+2, -1474056.6, -1384662.9, -7115.8003, -0.0735086, 0.21156313, -1384100.0, 26598.861, 0.0, 9.999366, 10.000549 
5.849707e+2, 1.6605304e+2, -1462951.4, -1480023.0, -23073.629, 0.06766231, 0.26127, -1446885.4, -134188.69, 0.0, 9.999419, 9.999197 
5.849805e+2, 1.7605269e+2, -1285501.4, -1334142.5, -15577.444, 0.11248195, 0.30041414, -1280940.4, -66238.65, 0.0, 9.999926, 9.999281 
5.849897e+2, 1.8605131e+2, -1170592.8, -1195953.6, 50062.203, 0.02110972, 0.22011845, -1131630.0, -14915.055, 0.0, 9.999901, 9.99957 
5.8499914e+2, 1.9604924e+2, -1126396.6, -1117039.5, 60176.61, -0.12579449, 0.04803667, -1061359.9, -42625.86, 0.0, 9.999502, 9.999629 
5.8500934e+2, 2.0604962e+2, -955282.3, -979751.75, 4168.159, -0.08814895, 0.12079599, -954591.8, -33862.473, 0.0, 9.999988, 9.999665 
5.8502e+2, 2.1605156e+2, -705933.8, -818195.8, -6947.8774, 0.061172057, 0.34142005, -705505.44, 117204.1, 0.0, 10.001069, 9.99958 
5.8502966e+2, 2.2604991e+2, -712374.56, -906348.3, 29580.617, 0.088956505, 0.286051, -707963.9, 16762.234, 0.0, 10.000938, 9.998364 
5.8503866e+2, 2.3604582e+2, -736755.75, -846065.7, 77804.66, 0.0398443, 0.03397551, -696328.0, -69560.65, 0.0, 10.000005, 9.998557 
5.850477e+2, 2.460449e+2, -561553.9, -570411.44, 85575.41, -0.032154817, 0.017589731, -480292.72, 48483.613, 0.0, 9.99993, 9.99981 
5.8505684e+2, 2.560461e+2, -390858.56, -441761.2, 34147.24, -0.122083515, 0.14794235, -373721.13, 57042.875, 0.0, 10.000449, 9.99977 
5.8506626e+2, 2.6604608e+2, -196878.52, -379702.25, -535.34143, -0.14062902, 0.21014912, -196876.95, 135886.5, 0.0, 10.001466, 9.999033 
5.850759e+2, 2.7604514e+2, 100603.54, -183324.47, 17786.809, -0.11314631, 0.2050282, 101713.46, 336485.44, 0.0, 10.002826, 9.999054 
5.8508706e+2, 2.8604293e+2, 151679.78, -129888.49, 69420.055, -0.046845835, 0.090623654, 167864.8, 304656.06, 0.0, 10.002595, 9.998862 
5.850991e+2, 2.960401e+2, 52152.6, -130891.1, 49093.44, 0.04820252, -0.086127326, 64488.418, 103304.15, 0.0, 10.001254, 9.998828 
5.851096e+2, 3.0604023e+2, -70277.414, -213468.13, 60507.758, -0.062691, 0.07120674, -48133.324, -48133.324, 0.000000006848287, 10.00029, 9.998391 
5.851209e+2, 3.1604055e+2, -68491.63, -53777.254, 12699.138, -0.101946555, 0.2539227, -46458.055, -46458.055, 0.00000018333391, 9.999605, 9.999819 
5.9493417e+2, 1.2604344e+2, -1885253.5, -1793695.9, 118424.22, -0.033608984, 0.27118123, -1712510.1, -7718.72, 0.000000058921596, 9.998834, 10.000007 
5.949442e+2, 1.3604105e+2, -1652567.3, -1661143.9, -43230.66, 0.21591644, 0.052934665, -1613412.6, -6596.578, 0.000000000010343272, 9.999842, 9.999786 
5.949486e+2, 1.460417e+2, -1507551.3, -1484127.5, 10868.122, -0.23623237, 0.11730099, -1479861.8, 28948.596, 0.0, 9.999946, 10.000261 
5.9496194e+2, 1.5604387e+2, -1498960.0, -1435539.6, -24131.846, 0.18595791, 0.2988511, -1427401.5, -16611.92, 0.0, 9.999361, 10.000202 
5.9497166e+2, 1.6604316e+2, -1464169.4, -1479453.8, -6003.916, 0.22052285, 0.2644292, -1462093.0, -149296.72, 0.0, 9.999407, 9.999207 
5.949784e+2, 1.7604055e+2, -1281583.1, -1325475.6, 1216.8094, -0.08680811, 0.07220926, -1281549.4, -66727.85, 0.0, 9.999921, 9.999343 
5.949878e+2, 1.8604039e+2, -1137689.6, -1125619.0, 33156.84, -0.17002097, 0.083815046, -1097952.8, 18869.371, 0.0, 9.999892, 10.000056 
5.949992e+2, 1.9604184e+2, -1100023.0, -1060037.5, 51415.96, -0.07060011, 0.21685795, -1024864.06, -6057.538, 0.0, 9.999493, 10.000026 
5.9501004e+2, 2.0604144e+2, -978056.25, -1023352.9, 43302.07, -0.017093945, 0.21094812, -951837.25, -31027.266, 0.0, 9.999971, 9.999373 
5.950205e+2, 2.1603976e+2, -717956.75, -838913.6, 27902.238, -0.0048618475, 0.0984195, -711830.56, 110995.91, 0.0, 10.00105, 9.999447 
5.950298e+2, 2.2603905e+2, -625761.44, -723224.5, -7458.6416, 0.005551035, 0.07203945, -625193.94, 99637.586, 0.0, 10.000925, 9.999628 
5.950385e+2, 2.360389e+2, -668634.56, -701497.75, 49404.51, 0.019116223, 0.08857509, -633000.8, -6171.141, 0.0, 9.999992, 9.999555 
5.9504837e+2, 2.460384e+2, -653896.4, -761456.0, 103182.984, 0.031052677, 0.14233524, -591319.0, -62482.81, 0.0, 9.999926, 9.998502 
5.950589e+2, 2.5603765e+2, -470267.56, -605893.3, 57731.457, 0.03868044, 0.20922627, -449021.4, -18172.87, 0.0, 10.000446, 9.998645 
5.950694e+2, 2.6603645e+2, -176753.22, -335329.7, 49852.71, 0.017798645, 0.18427436, -162382.94, 170476.94, 0.0, 10.001454, 9.999344 
5.950797e+2, 2.760348e+2, 112138.69, -154314.25, 60310.348, -0.021428686, 0.07706575, 125153.91, 360025.63, 0.0, 10.002804, 9.999265 
5.9509027e+2, 2.8603366e+2, 106071.39, -219739.75, 16648.174, 0.016342241, 0.096113384, 106919.87, 243801.56, 0.0, 10.002574, 9.998256 
5.9510094e+2, 2.960331e+2, 12388.936, -210866.48, 1078.5553, 0.101276845, 0.20593958, 12394.1455, 51282.85, 0.0, 10.001242, 9.998285 
5.951105e+2, 3.060317e+2, -74139.27, -222047.8, 33699.418, -0.003319901, 0.23804274, -66823.1, -66823.1, 0.000000033052434, 10.000291, 9.998334 
5.951209e+2, 3.1602898e+2, -54255.45, -27367.414, -11139.702, -0.072123006, 0.12097948, -23351.918, -23351.918, 0.00000037488923, 9.999617, 9.999997 
6.0493356e+2, 1.2603475e+2, -1727238.6, -1689717.9, 90554.79, -0.026252154, 0.34177524, -1616000.6, 88882.39, 0.000000021349177, 9.999802, 10.000253 
6.049437e+2, 1.3603282e+2, -1667929.9, -1640097.6, -27505.156, 0.19965641, 0.14147556, -1623188.6, -16287.914, 0.0, 9.999618, 10.000037 
6.049482e+2, 1.4603308e+2, -1561090.1, -1528850.0, 26803.275, -0.25090384, 0.164637, -1513692.8, -4795.1226, 0.0, 9.999663, 10.000089 
6.049619e+2, 1.5603448e+2, -1433516.3, -1415037.3, 6910.075, 0.21728958, 0.28731632, -1412739.1, -1855.1957, 0.0, 9.999863, 10.000099 
6.049714e+2, 1.6603373e+2, -1321169.8, -1359063.8, 76036.19, 0.22260618, 0.22632492, -1261755.5, 51134.49, 0.0, 10.000166, 9.999667 
6.0497785e+2, 1.7603153e+2, -1168393.6, -1224701.9, 109557.055, -0.16264449, 0.030016553, -1083431.0, 131478.3, 0.0, 10.000501, 9.999755 
6.049875e+2, 1.8603182e+2, -1094051.3, -1107355.5, 101315.46, -0.20051265, 0.069247894, -999169.8, 117735.0, 0.0, 10.000205, 10.00003 
6.049997e+2, 1.9603372e+2, -1101720.9, -1065151.4, 82887.83, 0.025337, 0.25091925, -998555.5, 20329.633, 0.0, 9.999501, 9.999986 
6.050105e+2, 2.0603292e+2, -1089023.8, -1093899.0, 107491.336, 0.061779834, 0.21362808, -983942.4, -63049.18, 0.0, 9.999286, 9.999221 
6.0502034e+2, 2.1603024e+2, -967694.25, -971002.8, 96694.15, -0.038259577, 0.016824879, -872640.25, -49719.96, 0.0, 9.999385, 9.999344 
6.050297e+2, 2.2603002e+2, -698957.5, -715669.5, 15938.405, -0.05555023, 0.024661452, -689317.56, 35602.61, 0.0, 10.000236, 10.000014 
6.0503894e+2, 2.3603138e+2, -415133.03, -546230.75, 4056.112, -0.013942849, 0.15397109, -415007.66, 211894.9, 0.0, 10.001591, 9.99985 
6.050492e+2, 2.460307e+2, -405691.13, -696537.6, 64861.61, 0.027229091, 0.20198824, -391882.0, 137028.6, 0.0, 10.001867, 9.998012 
6.050601e+2, 2.5602862e+2, -362481.72, -608583.56, 77653.78, 0.06419016, 0.18361029, -340027.88, 90908.19, 0.0, 10.001419, 9.998159 
6.05071e+2, 2.6602688e+2, -249548.61, -412286.8, 84370.78, 0.05141894, 0.15136124, -213702.7, 119250.39, 0.0, 10.001127, 9.998976 
6.050818e+2, 2.7602533e+2, -186000.61, -337815.7, 38145.617, 0.0049634995, 0.089760974, -176954.97, 58010.688, 0.0, 10.00092, 9.998915 
6.0509187e+2, 2.860243e+2, -131990.03, -356048.97, -38764.582, -0.002659308, 0.14321055, -125472.9, 11502.845, 0.0, 10.001032, 9.998061 
6.0510135e+2, 2.9602382e+2, 22725.566, -227420.05, -27014.926, 0.011200717, 0.28046003, 25609.836, 64592.207, 0.00000000003092486, 10.001405, 9.998094 
6.051109e+2, 3.0602163e+2, 114723.945, -125689.336, 28581.482, -0.05234893, 0.24198604, 118075.13, 118075.13, 0.00000008707832, 10.001566, 9.998382 
6.0512185e+2, 3.1601867e+2, 223880.92, 112314.02, -18227.516, -0.03648789, 0.09567045, 226783.38, 226783.38, 0.0000006525611, 10.001513, 10.000041 
6.1493355e+2, 1.2602466e+2, -1686587.8, -1607387.6, 51224.934, -0.012944355, 0.3007843, -1582240.9, 122746.98, 0.0000000039655865, 9.999811, 10.000813 
6.1494404e+2, 1.3602579e+2, -1628468.8, -1558274.1, -31374.264, 0.26773313, 0.34424958, -1546295.3, 60679.33, 0.0, 9.999619, 10.000598 
6.149476e+2, 1.460257e+2, -1558473.6, -1524937.0, 32126.865, -0.2808732, 0.3048447, -1505465.8, 3507.6086, 0.0, 9.999665, 10.000116 
6.149596e+2, 1.5602459e+2, -1423524.0, -1397220.9, 16455.137, 0.0053511616, 0.17354375, -1389307.4, 21674.475, 0.0, 9.999871, 10.000219 
6.1496997e+2, 1.6602473e+2, -1256902.5, -1226295.3, 87928.28, 0.056911003, 0.14562379, -1152348.8, 160628.58, 0.0, 10.000169, 10.000577 
6.149787e+2, 1.7602566e+2, -1114474.1, -1114134.9, 119459.9, -0.12881842, 0.17421731, -994844.5, 220119.97, 0.0, 10.000504, 10.000513 
6.1498886e+2, 1.8602563e+2, -1133999.4, -1186793.3, 72573.15, -0.08373343, 0.17666237, -1083171.6, 33791.375, 0.0, 10.000192, 9.999491 
6.150004e+2, 1.9602492e+2, -1136259.9, -1136006.0, 61066.91, 0.14900286, 0.14890867, -1075065.9, -56096.258, 0.0, 9.999497, 9.999501 
6.1501056e+2, 2.0602405e+2, -1092675.8, -1099301.1, 109274.12, 0.13750215, 0.12819646, -986664.1, -65685.03, 0.0, 9.999276, 9.999188 
6.150196e+2, 2.16023e+2, -975178.4, -983268.3, 106269.51, -0.050549213, 0.09718402, -872876.9, -49885.91, 0.0, 9.99937, 9.999268 
6.1502945e+2, 2.2602287e+2, -736717.8, -788104.5, 65814.375, -0.10834683, 0.1448938, -691759.3, 33232.434, 0.0, 10.000211, 9.999528 
6.1504e+2, 2.3602334e+2, -445706.0, -605062.2, 49764.418, -0.07213813, 0.23028626, -431442.1, 195543.6, 0.0, 10.001572, 9.999455 
6.1505026e+2, 2.460218e+2, -386814.16, -653687.2, 45862.652, -0.055759918, 0.19568026, -379152.53, 149846.86, 0.0, 10.001851, 9.998314 
6.150604e+2, 2.560189e+2, -352833.7, -586537.44, 63204.64, -0.05583886, 0.07015444, -336835.3, 94191.29, 0.0, 10.0014105, 9.998315 
6.150711e+2, 2.6601744e+2, -322431.94, -563990.75, 75966.375, -0.05109998, 0.11034816, -300527.94, 32515.164, 0.0, 10.001127, 9.997934 
6.1508226e+2, 2.7601674e+2, -249748.25, -470003.6, 34122.516, -0.043064833, 0.24080776, -244583.03, -9529.509, 0.0, 10.000919, 9.998007 
6.1509186e+2, 2.8601483e+2, -118091.29, -326655.78, -26114.586, -0.11020924, 0.23531039, -114871.164, 22201.531, 0.0, 10.00103, 9.998264 
6.151003e+2, 2.9601228e+2, 33753.348, -202589.6, -11750.218, -0.23197347, 0.14274049, 34336.094, 73432.12, 0.0000000010306047, 10.001397, 9.998267 
6.1511075e+2, 3.0601e+2, 121151.125, -109896.984, 26912.836, -0.2220927, 0.085025735, 124244.555, 124244.555, 0.00000016756015, 10.001555, 9.998495 
6.1512345e+2, 3.1600964e+2, 213437.97, 95586.03, -17581.268, -0.027922269, 0.18113366, 216004.84, 216004.84, 0.000001002472, 10.00149, 9.999935 
6.249329e+2, 1.2601501e+2, -1983755.5, -1719981.1, 36099.18, 0.05026576, 0.31324783, -1715129.9, -10042.867, 0.00000000008306351, 9.997635, 10.00109 
6.249436e+2, 1.3601717e+2, -1751186.5, -1579401.1, -46383.574, 0.31403098, 0.42558804, -1567677.3, 39385.266, 0.0, 9.998611, 10.000938 
6.2494695e+2, 1.460171e+2, -1646432.1, -1550471.3, 6196.967, -0.2775187, 0.3640695, -1550072.8, -41012.42, 0.0, 9.998991, 10.000265 
6.2495846e+2, 1.5601546e+2, -1545557.4, -1437439.6, -3189.2505, -0.052894127, 0.16314033, -1437345.6, -26271.746, 0.0, 9.998956, 10.000382 
6.249694e+2, 1.6601607e+2, -1424290.5, -1269472.0, 48928.914, 0.05270978, 0.1586194, -1255304.9, 57759.61, 0.0, 9.998863, 10.000909 
6.249797e+2, 1.760182e+2, -1352933.4, -1196985.9, 33404.31, 0.003899488, 0.27350882, -1190131.9, 24908.164, 0.0, 9.998736, 10.000793 
6.249897e+2, 1.8601802e+2, -1277051.8, -1273099.6, -9724.724, 0.022661628, 0.2586941, -1265152.3, -148112.3, 0.0, 9.999281, 9.999338 
6.2499994e+2, 1.9601627e+2, -1037014.44, -1104912.9, 3332.781, 0.115041435, 0.14138032, -1036851.25, -17794.217, 0.0, 10.000249, 9.999353 
6.2500995e+2, 2.0601544e+2, -938724.3, -1038852.44, 52051.61, 0.097596, 0.13932063, -916568.0, 4497.801, 0.0, 10.000391, 9.999065 
6.250197e+2, 2.1601516e+2, -897963.75, -962281.94, 42440.52, -0.005519111, 0.1992906, -876874.3, -53804.742, 0.0, 9.999972, 9.999119 
6.2503016e+2, 2.2601455e+2, -820468.75, -877186.44, 34201.773, -0.042777088, 0.22800043, -804398.0, -79322.29, 0.0, 9.999842, 9.999094 
6.2504107e+2, 2.3601364e+2, -714008.4, -773321.25, 18028.01, -0.02992622, 0.22052954, -708958.75, -81874.664, 0.0, 9.999892, 9.99911 
6.250515e+2, 2.4601199e+2, -525325.5, -666057.4, 16687.24, -0.05051293, 0.16130592, -523373.88, 5723.966, 0.0, 10.000663, 9.998802 
6.250616e+2, 2.560098e+2, -251206.16, -493073.66, 42387.426, -0.098080285, 0.0553971, -243992.86, 187122.78, 0.0, 10.001916, 9.998713 
6.250723e+2, 2.660084e+2, -206321.48, -551256.44, 65989.08, -0.09058774, 0.10951456, -194128.22, 139002.42, 0.0, 10.002117, 9.997543 
6.250835e+2, 2.7600744e+2, -171488.47, -471823.88, 70532.9, -0.045481633, 0.25109953, -155748.89, 79395.92, 0.0, 10.001631, 9.997651 
6.250932e+2, 2.8600514e+2, -27839.096, -290954.66, 45353.273, -0.111312225, 0.22524114, -20240.959, 116926.74, 0.0, 10.001678, 9.9981985 
6.251018e+2, 2.96002e+2, 123498.125, -171462.44, 33548.117, -0.25615567, 0.08637988, 127265.68, 166460.95, 0.000000004235602, 10.002062, 9.998162 
6.2511224e+2, 3.0599952e+2, 143821.1, -138737.9, 25236.01, -0.24971572, 0.025164489, 146057.3, 146057.3, 0.000000262113, 10.001883, 9.998139 
6.251244e+2, 3.1599948e+2, 146837.78, -7669.4736, -58968.695, -0.0775246, 0.19499572, 166771.75, 166771.75, 0.0000013873902, 10.001335, 9.999303 
6.3493145e+2, 1.260058e+2, -1985298.5, -1720512.0, 42859.72, 0.13648981, 0.37928665, -1713747.3, -8567.02, 0.0, 9.997623, 10.001093 
6.349423e+2, 1.3600694e+2, -1744608.5, -1565334.8, -11762.004, 0.3277715, 0.38210377, -1564566.4, 42597.957, 0.0, 9.998608, 10.001039 
6.349462e+2, 1.4600727e+2, -1628149.0, -1512986.9, 1995.5306, -0.25386605, 0.34127283, -1512952.3, -3793.562, 0.0, 9.998991, 10.000523 
6.3495827e+2, 1.5600704e+2, -1531249.4, -1407650.6, -3934.7615, 0.031821504, 0.2551472, -1407525.5, 3634.644, 0.0, 9.998953, 10.000589 
6.349698e+2, 1.6600776e+2, -1443692.5, -1307360.0, 41694.92, 0.19860914, 0.2650113, -1295619.4, 17531.908, 0.0, 9.998853, 10.000653 
6.349806e+2, 1.7600906e+2, -1367416.5, -1227134.5, 33981.63, 0.22332661, 0.32450056, -1219336.3, -4200.13, 0.0, 9.998734, 10.000588 
6.349898e+2, 1.8600893e+2, -1262710.1, -1241091.6, 25358.982, 0.10536759, 0.30934703, -1224334.3, -107198.055, 0.0, 9.999272, 9.999561 
6.349982e+2, 1.9600777e+2, -1024815.9, -1078401.0, 35323.496, -0.08756974, 0.2291897, -1007273.44, 11873.767, 0.0, 10.000243, 9.999538 
6.350087e+2, 2.0600711e+2, -955700.56, -1070498.3, 33673.95, -0.07155298, 0.24829935, -946551.94, -25398.799, 0.0, 10.000375, 9.998856 
6.3502055e+2, 2.1600674e+2, -915101.94, -995985.94, 30047.357, 0.08045483, 0.31950298, -905161.4, -82005.06, 0.0, 9.999963, 9.998892 
6.350317e+2, 2.2600505e+2, -850284.8, -934511.25, 34532.363, 0.12553811, 0.2704441, -837937.0, -112764.73, 0.0, 9.999825, 9.998708 
6.350423e+2, 2.3600239e+2, -734751.56, -814212.3, 26192.908, 0.09926326, 0.12563778, -726894.4, -99697.14, 0.0, 9.999883, 9.998834 
6.35053e+2, 2.4600132e+2, -481193.38, -570974.3, 63223.246, 0.02742501, 0.10061205, -448544.6, 80660.734, 0.0, 10.000648, 9.999463 
6.350637e+2, 2.5600126e+2, -210696.02, -402980.2, 84396.68, -0.07712292, 0.1411108, -178908.03, 252294.61, 0.0, 10.001891, 9.999343 
6.3507456e+2, 2.6599982e+2, -192263.66, -519963.28, 45655.56, -0.081041105, 0.14904109, -186021.75, 147193.89, 0.0, 10.002106, 9.997765 
6.350854e+2, 2.7599737e+2, -160641.89, -447688.44, 56908.28, -0.01823657, 0.12162056, -149771.23, 85468.53, 0.0, 10.001622, 9.997822 
6.350958e+2, 2.8599516e+2, -50548.297, -336858.28, 58675.55, -0.02505963, 0.11378717, -38990.094, 98270.96, 0.0, 10.001672, 9.997888 
6.3510567e+2, 2.9599306e+2, 94612.53, -227096.33, 45349.5, -0.08096583, 0.11104396, 100882.98, 140163.3, 0.000000008608103, 10.002043, 9.99779 
6.351151e+2, 3.0599004e+2, 83246.88, -259634.88, 4352.8594, -0.15018094, 0.061603636, 83302.13, 83302.13, 0.00000035003856, 10.001862, 9.997319 
6.3512444e+2, 3.1598845e+2, 63649.688, -175092.58, -70618.25, -0.20936961, 0.15796046, 82973.92, 82973.92, 0.000001754922, 10.001312, 9.998164 
6.449298e+2, 1.2599744e+2, -1644468.5, -1570721.3, 93899.87, 0.09549408, 0.4225635, -1506714.5, 198547.22, 0.0, 10.000026, 10.000961 
6.4494073e+2, 1.3599738e+2, -1774876.1, -1582577.6, 48264.7, 0.31611404, 0.312783, -1571143.5, 36113.336, 0.0, 9.99842, 10.001006 
6.4494514e+2, 1.4599797e+2, -1799167.1, -1586617.0, 63715.625, -0.20128939, 0.29372826, -1568980.5, -59731.07, 0.0, 9.99778, 10.000604 
6.449578e+2, 1.5599892e+2, -1689642.9, -1480234.1, 42029.113, 0.14004311, 0.31857505, -1472113.6, -60873.105, 0.0, 9.997851, 10.000624 
6.449691e+2, 1.6599935e+2, -1525698.6, -1395800.4, 92024.055, 0.26234528, 0.32278118, -1348113.8, -34878.06, 0.0, 9.998496, 10.000221 
6.4497924e+2, 1.7599939e+2, -1280880.3, -1227107.6, 67657.24, 0.17896964, 0.29883727, -1181190.3, 34044.08, 0.0, 9.999504, 10.00022 
6.4498866e+2, 1.8599926e+2, -1183501.8, -1182881.9, 51514.875, 0.037025418, 0.28922647, -1131676.0, -14441.142, 0.0, 9.999727, 9.999742 
6.4499766e+2, 1.9599894e+2, -1127776.1, -1103489.8, 55507.54, -0.12336724, 0.27576283, -1058812.6, -39575.453, 0.0, 9.999433, 9.999755 
6.450088e+2, 2.059985e+2, -991049.75, -1031562.06, 84595.37, -0.07674416, 0.27774084, -924319.2, -3080.076, 0.0, 9.999893, 9.999354 
6.4502126e+2, 2.1599787e+2, -755285.0, -872692.44, 128611.25, 0.10562932, 0.27485046, -672613.4, 150628.11, 0.0, 10.000862, 9.999307 
6.450324e+2, 2.2599602e+2, -651916.9, -869439.4, 155697.1, 0.14375232, 0.20624612, -570755.5, 154502.81, 0.0, 10.001313, 9.998441 
6.450428e+2, 2.3599328e+2, -532905.6, -748215.1, 152339.61, 0.083492465, 0.0803027, -454021.1, 173264.23, 0.0, 10.001403, 9.998555 
6.450538e+2, 2.459925e+2, -470466.9, -610405.56, 151865.64, 0.033613395, 0.118418045, -373227.16, 156065.72, 0.0, 10.0009165, 9.999063 
6.450653e+2, 2.5599295e+2, -502043.44, -580567.8, 91859.24, -0.011336711, 0.24936639, -441407.47, -10119.255, 0.0, 10.00005, 9.999012 
6.450762e+2, 2.659911e+2, -399415.53, -582362.0, 38137.164, -0.04555547, 0.2149273, -391783.78, -58479.9, 0.0, 10.000524, 9.998097 
6.4508665e+2, 2.7598768e+2, -98726.76, -390794.72, 52278.223, -0.0713726, 0.055639107, -89651.305, 145682.48, 0.0, 10.001931, 9.998063 
6.450973e+2, 2.8598553e+2, -38412.76, -392552.53, 26226.143, -0.054154236, 0.07526731, -36481.094, 100873.7, 0.0, 10.002024, 9.997335 
6.45108e+2, 2.9598424e+2, -56823.082, -350948.9, -6970.2163, -0.011398985, 0.20651215, -56657.992, -17288.139, 0.000000011710588, 10.0012245, 9.997333 
6.451173e+2, 3.059812e+2, 11006.452, -249795.8, 8071.72, -0.07974752, 0.15517707, 11256.029, 11256.029, 0.00000040808163, 10.001169, 9.997721 
6.4512575e+2, 3.1597853e+2, 111764.05, -140272.69, 19658.998, -0.22854556, 0.101130426, 113288.24, 113288.24, 0.0000020474877, 10.001593, 9.998267 
6.5492797e+2, 1.2598994e+2, -1656848.6, -1606703.0, 4198.557, -0.10336513, 0.43763903, -1606353.9, 98976.93, 0.0, 10.000068, 10.000695 
6.5493864e+2, 1.3598856e+2, -1787900.9, -1613533.3, -6711.754, 0.26334074, 0.21518146, -1613275.3, -5935.5864, 0.0, 9.998432, 10.00079 
6.549436e+2, 1.4598918e+2, -1806653.1, -1600793.0, 62835.824, -0.13375174, 0.21626209, -1583129.0, -73796.51, 0.0, 9.997774, 10.000508 
6.5495676e+2, 1.5599112e+2, -1702058.6, -1504342.6, 49779.805, 0.25818247, 0.35126168, -1492516.6, -81201.86, 0.0, 9.997844, 10.000462 
6.549673e+2, 1.6599092e+2, -1570408.8, -1487299.1, 128545.57, 0.22835314, 0.33266664, -1393758.6, -80441.19, 0.0, 9.99849, 9.999596 
6.549756e+2, 1.7598921e+2, -1318601.1, -1307728.9, 101784.914, -0.14511202, 0.19575328, -1211235.0, 4099.1343, 0.0, 9.999511, 9.999664 
6.54986e+2, 1.85989e+2, -1173243.8, -1160405.1, 37220.418, -0.19805731, 0.1972092, -1129054.5, -11718.869, 0.0, 9.999723, 9.999898 
6.549983e+2, 1.9598982e+2, -1112374.0, -1067377.9, 49863.05, -0.008230219, 0.27909297, -1035172.3, -15845.449, 0.0, 9.999416, 10.0000105 
6.550101e+2, 2.0598958e+2, -911236.9, -862821.3, 119420.125, 0.066837385, 0.22672574, -765180.06, 156143.6, 0.0, 9.999879, 10.000521 
6.550216e+2, 2.1598856e+2, -684051.3, -721917.06, 162818.89, 0.056210067, 0.066156976, -539068.2, 284256.9, 0.0, 10.000848, 10.000349 
6.550323e+2, 2.259875e+2, -665684.25, -892233.75, 156650.7, -0.00045142582, 0.036957394, -585644.2, 139689.7, 0.0, 10.001289, 9.998295 
6.5504247e+2, 2.3598632e+2, -554046.1, -789433.44, 152938.61, -0.08746184, 0.084224865, -478757.9, 148590.5, 0.0, 10.001392, 9.998278 
6.5505403e+2, 2.4598551e+2, -572821.2, -824195.5, 116642.81, -0.04465374, 0.21175613, -527035.9, 2324.8752, 0.0, 10.000919, 9.997593 
6.550664e+2, 2.5598487e+2, -590810.6, -765118.56, 68497.32, 0.08405941, 0.38019735, -567114.75, -135742.67, 0.0, 10.0000515, 9.997742 
6.550773e+2, 2.6598233e+2, -366632.44, -517377.0, 89989.02, 0.0057277787, 0.30813763, -324620.72, 8774.106, 0.0, 10.000534, 9.998541 
6.550872e+2, 2.759784e+2, -77865.31, -344101.3, 98481.836, -0.21414356, 0.055209048, -45396.254, 190030.05, 0.0, 10.001916, 9.998392 
6.550978e+2, 2.8597632e+2, -95560.81, -509104.13, -5441.4355, -0.20931232, 0.110140495, -95489.23, 41959.13, 0.0, 10.002013, 9.996539 
6.5510875e+2, 2.9597554e+2, -95393.7, -431039.8, -30344.406, -0.056709904, 0.36682597, -92672.45, -53208.574, 0.000000011654482, 10.001224, 9.996783 
6.551188e+2, 3.0597296e+2, 122819.39, -17908.717, 24946.234, -0.048270524, 0.2995168, 127110.64, 127110.64, 0.00000041978168, 10.001172, 9.999312 
6.55128e+2, 3.159697e+2, 198998.1, 44625.273, 43367.93, -0.16750492, 0.03158965, 210347.1, 210347.1, 0.0000022080383, 10.001577, 9.999545 
6.6492724e+2, 1.2598121e+2, -1971996.6, -1777176.9, -28746.643, -0.078774765, 0.34140268, -1773023.6, -67612.86, 0.0, 9.997982, 10.000534 
6.649375e+2, 1.3598047e+2, -1687841.0, -1576885.4, -14986.167, 0.2732513, 0.19353656, -1574896.9, 32519.658, 0.0, 9.999169, 10.000687 
6.649423e+2, 1.4598109e+2, -1522252.9, -1482674.5, 72835.84, -0.14313929, 0.20908089, -1426987.4, 82422.88, 0.0, 9.999809, 10.000337 
6.6495496e+2, 1.5598252e+2, -1379852.5, -1366735.5, 52651.996, 0.17455281, 0.31126183, -1320235.1, 91162.03, 0.0, 10.000132, 10.000303 
6.649656e+2, 1.6598235e+2, -1360382.8, -1390183.3, 161550.7, 0.14612515, 0.30294448, -1213046.6, 100353.07, 0.0, 9.999952, 9.999555 
6.649748e+2, 1.7598101e+2, -1333149.0, -1317478.4, 175161.67, -0.16627309, 0.2064486, -1149976.9, 65436.34, 0.0, 9.999432, 9.999631 
6.649861e+2, 1.8598081e+2, -1204508.3, -1184373.1, 116198.65, -0.15601343, 0.21245143, -1077806.8, 39608.09, 0.0, 9.999551, 9.999816 
6.64999e+2, 1.9598128e+2, -1019933.2, -1035843.25, 106390.734, 0.09412701, 0.27170813, -921200.5, 98208.414, 0.0, 10.000104, 9.999898 
6.650107e+2, 2.0598073e+2, -920442.94, -902369.06, 107636.27, 0.13381994, 0.20948577, -803391.06, 118018.5, 0.0, 9.999965, 10.000209 
6.6502136e+2, 2.1597941e+2, -918762.5, -865625.5, 39589.242, 0.02279266, 0.05098087, -844516.0, -21100.77, 0.0, 9.99937, 10.000073 
6.6503245e+2, 2.2597872e+2, -855022.0, -979216.6, 18991.041, -0.0476664, 0.07042899, -852182.94, -126761.484, 0.0, 9.999974, 9.99833 
6.650439e+2, 2.3597836e+2, -554861.94, -791822.44, 22574.37, -0.088782236, 0.19687298, -552730.5, 74698.4, 0.0, 10.001396, 9.99826 
6.650555e+2, 2.459769e+2, -426235.38, -799721.25, 4141.729, -0.04025539, 0.28410697, -426189.44, 103257.8, 0.0, 10.002128, 9.997177 
6.650674e+2, 2.5597462e+2, -276777.78, -660154.2, 31583.299, 0.06542416, 0.32896924, -274193.3, 157280.2, 0.0, 10.002406, 9.997331 
6.650785e+2, 2.65972e+2, -147492.14, -439852.4, 79444.336, -0.00574844, 0.28124943, -127299.1, 206199.31, 0.0, 10.002161, 9.998288 
6.650891e+2, 2.759691e+2, -140646.27, -392443.72, 32348.262, -0.19862916, 0.15572122, -136556.92, 98966.04, 0.0, 10.001564, 9.998228 
6.6509974e+2, 2.8596705e+2, -100594.33, -437316.53, -42082.504, -0.1986258, 0.18631713, -95414.664, 42129.1, 0.0, 10.001659, 9.997202 
6.6511035e+2, 2.959656e+2, 96321.91, -273036.34, 36783.484, -0.072684705, 0.3124124, 99949.45, 139511.55, 0.000000008469742, 10.002257, 9.99737 
6.651204e+2, 3.059639e+2, 275537.2, 30267.514, 63328.58, -0.060674362, 0.3161331, 290923.4, 290923.4, 0.00000038345433, 10.0023365, 9.999081 
6.651297e+2, 3.1596157e+2, 239444.4, 34892.316, -52870.87, -0.17265372, 0.16716664, 252301.84, 252301.84, 0.0000022459108, 10.001986, 9.999281 
6.7492753e+2, 1.2597124e+2, -1974223.0, -1782551.6, -5599.188, 0.15146877, 0.12958112, -1782388.3, -76886.484, 0.0, 9.997983, 10.000498 
6.749373e+2, 1.3597322e+2, -1684173.1, -1573632.9, 27278.527, 0.33186883, 0.25156695, -1567267.8, 40218.73, 0.0, 9.999187, 10.000701 
6.749411e+2, 1.459738e+2, -1538693.9, -1520962.1, 81831.92, -0.24710448, 0.27572402, -1447517.3, 61964.81, 0.0, 9.999826, 10.000067 
6.7495203e+2, 1.5597317e+2, -1390228.4, -1391434.4, 62488.637, -0.13146557, 0.19669352, -1328339.8, 83147.45, 0.0, 10.000143, 10.000129 
6.749642e+2, 1.6597363e+2, -1319790.0, -1306051.8, 139314.5, 0.0001324715, 0.23000154, -1173437.1, 140045.3, 0.0, 9.999952, 10.000133 
6.74977e+2, 1.7597486e+2, -1300174.3, -1247925.3, 160848.2, 0.10380797, 0.33179098, -1111093.9, 104376.805, 0.0, 9.999426, 10.000112 
6.749887e+2, 1.8597466e+2, -1231113.0, -1236599.4, 135307.33, 0.14985973, 0.33638132, -1098521.1, 18950.797, 0.0, 9.999539, 9.999463 
6.7499995e+2, 1.9597335e+2, -1057087.0, -1109133.0, 123811.64, 0.17149222, 0.25522453, -956593.1, 62889.863, 0.0, 10.000089, 9.999402 
6.7501044e+2, 2.0597197e+2, -1046360.44, -1161500.0, 82395.18, 0.11194254, 0.22873516, -1003415.3, -81918.97, 0.0, 9.999953, 9.998436 
6.7502046e+2, 2.1597047e+2, -1030508.44, -1095754.9, 25488.832, -0.0074369106, 0.22751352, -1021731.75, -198220.17, 0.0, 9.999361, 9.998499 
6.750328e+2, 2.2596976e+2, -842956.5, -951263.6, 71507.27, -0.012488788, 0.3053237, -807411.1, -81890.62, 0.0, 9.999961, 9.998529 
6.750468e+2, 2.359695e+2, -540622.44, -757364.2, 74299.83, 0.065249674, 0.41953018, -517598.06, 109927.92, 0.0, 10.001374, 9.998507 
6.750584e+2, 2.4596676e+2, -387580.88, -715664.06, 13547.761, 0.032849465, 0.33654082, -387022.4, 142529.14, 0.0, 10.0021105, 9.997764 
6.750684e+2, 2.5596225e+2, -248050.5, -597113.5, 40541.38, -0.07727588, 0.102469906, -243403.73, 188187.88, 0.0, 10.002393, 9.997769 
6.750798e+2, 2.659602e+2, -214321.75, -577757.25, 56036.832, -0.0935748, 0.14079292, -205877.81, 127735.87, 0.0, 10.002156, 9.997344 
6.7509216e+2, 2.7595973e+2, -186739.25, -486388.22, 16263.283, -0.04458903, 0.3515976, -185859.16, 49764.508, 0.0, 10.001556, 9.997585 
6.75103e+2, 2.8595772e+2, 43093.5, -136222.6, -20759.258, -0.039805267, 0.301303, 45465.406, 183106.33, 0.0, 10.001649, 9.999275 
6.751126e+2, 2.9595459e+2, 210735.66, -29297.31, 57262.336, -0.072259344, 0.05502442, 223696.36, 263360.22, 0.0000000040864183, 10.002233, 9.999056 
6.7512214e+2, 3.0595413e+2, 133377.1, -262346.94, 48715.457, -0.12836066, 0.21440971, 139285.95, 139285.95, 0.0000003121116, 10.002324, 9.997076 
6.751307e+2, 3.1595403e+2, 117578.68, -222192.55, -55509.145, -0.27290833, 0.4893961, 126417.4, 126417.4, 0.0000021664218, 10.002002, 9.997506 
6.849249e+2, 1.2596233e+2, -2061174.6, -1853623.1, -16874.61, 0.112357356, 0.07822658, -1852260.1, -146674.16, 0.0, 9.9975195, 10.000231 
6.8493634e+2, 1.3596459e+2, -1833864.9, -1668930.1, 1241.5217, 0.36415565, 0.24887416, -1668920.8, -61350.63, 0.0, 9.998268, 10.000486 
6.849411e+2, 1.4596519e+2, -1698409.4, -1606718.8, 37998.457, -0.17647728, 0.29141146, -1593018.5, -83452.66, 0.0, 9.998769, 9.999988 
6.849519e+2, 1.5596433e+2, -1538332.0, -1473665.1, 28510.482, -0.11020479, 0.196687, -1462890.6, -51317.715, 0.0, 9.999174, 10.0000305 
6.849642e+2, 1.6596456e+2, -1400911.4, -1368691.6, 60845.703, 0.025944168, 0.2219476, -1321859.3, -8288.843, 0.0, 9.999496, 9.999924 
6.8497723e+2, 1.7596552e+2, -1267405.0, -1256704.9, 19962.586, 0.17475986, 0.32109845, -1241387.9, -25826.469, 0.0, 9.999753, 9.999897 
6.8498886e+2, 1.8596514e+2, -1160187.6, -1226094.6, 2153.7156, 0.17793931, 0.32969126, -1160117.3, -42552.68, 0.0, 10.000126, 9.999253 
6.849995e+2, 1.9596373e+2, -1001946.1, -1106387.6, -691.35956, 0.09402744, 0.25685382, -1001941.56, 17635.635, 0.0, 10.000574, 9.999184 
6.850104e+2, 2.0596214e+2, -898381.0, -1142605.9, 9280.627, 0.048328456, 0.24647675, -898028.9, 23564.932, 0.0, 10.0012, 9.997962 
6.850214e+2, 2.1596037e+2, -682439.0, -975895.75, 45858.16, 0.02370281, 0.26558468, -675439.7, 148173.98, 0.0, 10.001956, 9.998071 
6.8503416e+2, 2.2595933e+2, -594068.75, -826644.5, 130656.91, 0.049329504, 0.3274262, -535444.94, 190180.8, 0.0, 10.001649, 9.998572 
6.850482e+2, 2.3595873e+2, -646186.9, -799650.25, 118823.97, 0.11198384, 0.40251032, -581472.9, 46160.227, 0.0, 10.000612, 9.998583 
6.850601e+2, 2.4595602e+2, -524621.8, -744327.06, 67464.086, 0.040746823, 0.30061343, -505559.72, 24097.484, 0.0, 10.001005, 9.9981 
6.850703e+2, 2.5595182e+2, -230428.88, -558933.3, 67636.164, -0.12577854, 0.06249129, -217048.2, 214645.4, 0.0, 10.002383, 9.998038 
6.850819e+2, 2.6595014e+2, -227072.16, -625024.94, 45123.516, -0.10203931, 0.14909054, -222019.78, 111693.75, 0.0, 10.002246, 9.996977 
6.850945e+2, 2.7595013e+2, -278068.97, -567639.4, 47502.145, 0.05309955, 0.44418758, -270475.7, -34753.098, 0.0, 10.001087, 9.997255 
6.851053e+2, 2.8594792e+2, -43236.242, -162083.67, -3870.0547, 0.06521357, 0.37664703, -43110.355, 94631.67, 0.0, 10.000988, 9.999416 
6.851149e+2, 2.9594406e+2, 127547.21, -58949.83, -69432.55, -0.028641354, 0.04564698, 150557.73, 190326.83, 0.0000000009738006, 10.0016165, 9.999149 
6.851247e+2, 3.0594343e+2, 164991.25, -303306.0, -66022.32, -0.12322939, 0.2099499, 174121.33, 174121.33, 0.00000022618863, 10.002777, 9.996579 
6.851335e+2, 3.159428e+2, 432386.13, -94999.984, -61738.285, -0.30312, 0.4824397, 439517.06, 439517.06, 0.0000019194263, 10.004268, 9.997291 
6.9491905e+2, 1.2595464e+2, -2099255.3, -1935725.3, -6082.1006, -0.23363778, 0.19213519, -1935499.3, -229836.92, 0.0, 9.99753, 9.999662 
6.9493455e+2, 1.3595454e+2, -1867334.9, -1738243.5, 27516.145, 0.3549835, 0.18190548, -1732623.0, -124955.49, 0.0, 9.998265, 10.000011 
6.9494224e+2, 1.4595526e+2, -1691445.6, -1589133.9, 50566.707, 0.05966882, 0.24881098, -1568359.9, -58697.93, 0.0, 9.998756, 10.000114 
6.949545e+2, 1.5595607e+2, -1537242.6, -1471909.5, 45830.875, 0.229601, 0.31140885, -1448294.9, -36641.574, 0.0, 9.999177, 10.000042 
6.9496554e+2, 1.6595517e+2, -1476160.6, -1524598.5, 68568.68, 0.21041255, 0.28166592, -1427659.4, -113996.625, 0.0, 9.9994955, 9.998854 
6.949756e+2, 1.7595302e+2, -1335556.5, -1397462.9, 31277.414, 0.032798063, 0.1748007, -1322505.4, -106820.16, 0.0, 9.999747, 9.998934 
6.9498634e+2, 1.8595228e+2, -1163971.3, -1229665.4, 17328.574, -0.08640098, 0.19053724, -1159680.6, -41987.574, 0.0, 10.000108, 9.999236 
6.949976e+2, 1.9595245e+2, -999556.75, -1098935.6, 18827.277, -0.15212375, 0.2764752, -996109.5, 23581.625, 0.0, 10.000563, 9.999241 
6.9501036e+2, 2.0595129e+2, -844081.44, -1026071.3, 36163.785, -0.07343416, 0.26375365, -837158.56, 84542.97, 0.0, 10.0011835, 9.99877 
6.950242e+2, 2.1594916e+2, -635126.94, -873658.94, 69621.375, 0.10230344, 0.16716479, -616293.3, 207427.92, 0.0, 10.001938, 9.998782 
6.9503665e+2, 2.259475e+2, -604706.5, -846254.94, 89439.266, 0.12550728, 0.14183226, -575195.0, 150541.7, 0.0, 10.0016365, 9.998444 
6.9504815e+2, 2.359461e+2, -653967.8, -815770.5, 89927.51, 0.041445374, 0.15111147, -613906.44, 13843.407, 0.0, 10.000609, 9.998475 
6.950604e+2, 2.4594471e+2, -518979.0, -729508.4, 118711.51, -0.030221095, 0.17752564, -465583.44, 64180.65, 0.0, 10.000993, 9.998208 
6.95073e+2, 2.559432e+2, -225254.75, -543129.1, 112723.33, -0.09275113, 0.20241962, -189339.22, 242440.44, 0.0, 10.002362, 9.998157 
6.9508475e+2, 2.6594183e+2, -216900.66, -602267.75, -764.4287, -0.042131566, 0.30288997, -216899.14, 116898.984, 0.0, 10.002238, 9.997137 
6.950959e+2, 2.759404e+2, -278018.5, -570387.3, 11316.747, 0.08666547, 0.4383249, -277581.1, -41761.613, 0.0, 10.0011, 9.997231 
6.9510674e+2, 2.859376e+2, -162030.94, -411998.1, 19410.178, 0.105256274, 0.41527206, -160532.7, -22686.146, 0.0, 10.001002, 9.997691 
6.951173e+2, 2.9593396e+2, 26928.285, -270399.16, -39045.96, 0.040501002, 0.27073324, 31970.416, 71848.125, 0.000000000021633938, 10.001628, 9.99769 
6.951281e+2, 3.059318e+2, 230164.11, -164806.2, -9379.602, -0.060827203, 0.29691646, 230386.73, 230386.73, 0.00000014519733, 10.002765, 9.997536 
6.95138e+2, 3.1592798e+2, 513390.44, 85366.22, 631.6347, -0.29165173, 0.15309168, 513391.38, 513391.38, 0.0000015915516, 10.004216, 9.998555 
7.0491695e+2, 1.2594588e+2, -1764571.9, -1736969.8, -80973.24, -0.30528373, 0.29847762, -1668629.9, 37119.98, 0.0, 9.999663, 10.0 
7.04933e+2, 1.3594455e+2, -1703214.5, -1624419.9, 26719.848, 0.32247096, 0.12931925, -1616213.6, -8451.163, 0.0, 9.9992485, 10.000316 
7.049417e+2, 1.4594498e+2, -1619566.9, -1597758.9, 71764.37, 0.09687641, 0.1749955, -1536074.8, -26316.105, 0.0, 9.999434, 9.999728 
7.0495456e+2, 1.5594605e+2, -1427314.0, -1462905.0, 23894.043, 0.27650878, 0.30195898, -1415316.8, -3567.4758, 0.0, 10.000122, 9.999647 
7.0496553e+2, 1.6594483e+2, -1394268.3, -1531204.3, 43081.78, 0.22644572, 0.28119305, -1381841.8, -68078.664, 0.0, 10.000258, 9.998438 
7.04975e+2, 1.7594197e+2, -1327774.0, -1432769.0, 53195.426, -0.005073719, 0.14419802, -1305533.8, -89740.27, 0.0, 9.999977, 9.998576 
7.049861e+2, 1.8594104e+2, -1173756.0, -1220992.0, 80757.98, -0.108761124, 0.15076558, -1113233.4, 4569.679, 0.0, 9.999984, 9.999355 
7.049984e+2, 1.9594136e+2, -1045335.06, -1107899.0, 88804.13, -0.11366057, 0.24091208, -982464.3, 37334.555, 0.0, 10.000189, 9.999361 
7.050117e+2, 2.059406e+2, -927702.5, -1045079.3, 94859.87, -0.023448508, 0.25058156, -874843.94, 46961.586, 0.0, 10.000514, 9.998965 
7.0502585e+2, 2.1593902e+2, -773585.06, -920653.9, 77352.98, 0.13143332, 0.18953867, -740391.8, 83428.68, 0.0, 10.000904, 9.998958 
7.0503813e+2, 2.2593722e+2, -640225.94, -870882.5, 57709.477, 0.126053, 0.14544614, -626593.0, 99244.125, 0.0, 10.001427, 9.998373 
7.0504916e+2, 2.359352e+2, -451881.0, -728143.9, 60668.063, 0.0077092815, 0.09857266, -439145.25, 188710.34, 0.0, 10.002043, 9.998384 
7.0506173e+2, 2.4593408e+2, -413919.97, -705399.4, 96382.49, -0.034126967, 0.17150554, -384932.3, 144936.31, 0.0, 10.001827, 9.997972 
7.050754e+2, 2.5593352e+2, -431534.13, -663073.1, 61765.59, -0.022856813, 0.31232896, -416087.9, 15790.669, 0.0, 10.001033, 9.997972 
7.0508695e+2, 2.65932e+2, -269137.2, -592931.0, -51888.094, -0.017217753, 0.39292315, -261025.33, 72872.23, 0.0, 10.001731, 9.997444 
7.0509714e+2, 2.7592972e+2, 81782.17, -373400.6, -32152.123, -0.014762068, 0.41235605, 84042.04, 319965.88, 0.0, 10.00347, 9.997441 
7.05108e+2, 2.859268e+2, 189112.61, -332103.22, 12922.969, -0.015708752, 0.40511504, 189432.81, 327386.6, 0.0, 10.003798, 9.996895 
7.05119e+2, 2.9592344e+2, 199593.33, -264542.13, 19979.19, -0.023895605, 0.37015474, 200451.77, 240437.97, 0.0, 10.003145, 9.997001 
7.0513093e+2, 3.059209e+2, 219937.17, -133009.9, 68405.69, -0.04597328, 0.37341544, 232731.28, 232731.28, 0.00000008201181, 10.00254, 9.997861 
7.0514214e+2, 3.1591645e+2, 223865.45, 16902.787, 31703.365, -0.18264897, 0.13204229, 228613.0, 228613.0, 0.0000012936833, 10.001923, 9.9991865 
7.1491843e+2, 1.2593605e+2, -1671593.6, -1552217.9, -109457.25, -0.12421034, 0.39483374, -1487232.0, 218616.63, 0.0, 9.999694, 10.001255 
7.149316e+2, 1.3593465e+2, -1621903.4, -1464391.1, 14696.29, 0.25362286, 0.08926301, -1463031.8, 144822.69, 0.0, 9.999281, 10.001401 
7.149394e+2, 1.4593439e+2, -1683897.1, -1733596.8, 94366.79, -0.08498621, 0.067738324, -1611163.1, -101307.39, 0.0, 9.999446, 9.998791 
7.149521e+2, 1.5593421e+2, -1484780.6, -1583268.8, 47820.04, 0.010729503, 0.16485287, -1465382.6, -53521.594, 0.0, 10.000126, 9.99882 
7.149641e+2, 1.659335e+2, -1376478.0, -1492845.9, 31577.273, 0.055661596, 0.21679528, -1368461.6, -54590.04, 0.0, 10.000253, 9.998705 
7.149756e+2, 1.7593239e+2, -1308584.3, -1395152.1, 46455.27, 0.04723197, 0.2279042, -1288373.4, -72487.61, 0.0, 9.999985, 9.998832 
7.149882e+2, 1.8593143e+2, -1157126.6, -1186202.3, 86914.34, 0.09725922, 0.20804492, -1083542.6, 34351.86, 0.0, 9.999981, 9.999596 
7.1500164e+2, 1.9593051e+2, -1034458.8, -1082885.3, 98644.42, 0.19517076, 0.14977026, -957099.4, 62800.965, 0.0, 10.000175, 9.99954 
7.1501434e+2, 2.0593007e+2, -959936.3, -1105969.0, 107478.31, 0.18492694, 0.2061827, -903018.2, 18887.66, 0.0, 10.00049, 9.998557 
7.1502644e+2, 2.1592991e+2, -802265.25, -975581.2, 93856.43, 0.09700398, 0.32858816, -761178.8, 62732.91, 0.0, 10.000885, 9.9985895 
7.150387e+2, 2.2592843e+2, -643946.9, -873584.3, 78676.586, 0.03676372, 0.33298492, -619577.44, 106349.92, 0.0, 10.001405, 9.998366 
7.150511e+2, 2.3592593e+2, -457914.34, -737876.9, 80549.055, -0.002890339, 0.23969585, -436393.56, 191556.97, 0.0, 10.002028, 9.998325 
7.150641e+2, 2.4592414e+2, -455738.6, -789824.0, 64253.65, 0.01350189, 0.27926084, -443807.0, 86163.77, 0.0, 10.001817, 9.997397 
7.1507734e+2, 2.559228e+2, -464931.22, -732417.4, 41701.977, 0.06738433, 0.39616635, -458580.53, -26590.889, 0.0, 10.001034, 9.997495 
7.1508855e+2, 2.6592076e+2, -237343.42, -525518.2, 12803.463, -0.039774474, 0.42017, -236775.69, 97235.6, 0.0, 10.001725, 9.9979105 
7.150982e+2, 2.7591816e+2, 106994.87, -311744.5, 27623.756, -0.26060483, 0.36456153, 108809.31, 344844.78, 0.0, 10.003432, 9.997884 
7.151089e+2, 2.8591537e+2, 190823.95, -320841.3, -12951.748, -0.30463555, 0.3474618, 191151.6, 329215.16, 0.0, 10.003764, 9.996989 
7.151202e+2, 2.9591247e+2, 201622.42, -256942.77, -2010.8345, -0.22703966, 0.3493714, 201631.25, 241725.84, 0.0, 10.003131, 9.99706 
7.151331e+2, 3.0591068e+2, 199568.22, -174004.11, 44493.53, -0.08744435, 0.43975398, 204794.42, 204794.42, 0.00000004119849, 10.002534, 9.9975815 
7.151458e+2, 3.1590796e+2, 227057.8, 23456.215, 19273.87, -0.015678182, 0.39812207, 228866.28, 228866.28, 0.0000010048329, 10.001923, 9.999231 
7.2491765e+2, 1.2592313e+2, -2142264.5, -1796674.1, -105106.04, -0.012919694, 0.23000343, -1767218.4, -61249.04, 0.0, 9.99653, 10.001107 
7.249303e+2, 1.3592355e+2, -1621158.8, -1477898.4, -90005.375, 0.19600451, 0.1217625, -1434498.8, 173462.14, 0.0, 9.999346, 10.001277 
7.249384e+2, 1.4592342e+2, -1583819.4, -1689467.9, -50095.43, -0.16022046, 0.1201679, -1563842.8, -53880.67, 0.0, 10.000152, 9.998752 
7.2495127e+2, 1.5592201e+2, -1557179.8, -1618280.9, -30062.248, -0.053584803, 0.09638043, -1544869.1, -132890.42, 0.0, 9.999632, 9.9988165 
7.249639e+2, 1.6592151e+2, -1408049.6, -1478057.6, -8699.0625, 0.033400033, 0.15541583, -1406984.9, -92997.766, 0.0, 9.999905, 9.998975 
7.2497636e+2, 1.7592165e+2, -1185343.5, -1311348.9, 2464.714, 0.092938535, 0.26494884, -1185295.4, 30694.455, 0.0, 10.000724, 9.999051 
7.249895e+2, 1.859208e+2, -1020858.3, -1153212.9, 16797.188, 0.1777381, 0.26263082, -1018759.9, 99238.09, 0.0, 10.001055, 9.999307 
7.250032e+2, 1.9591919e+2, -927740.2, -1061370.4, -12211.157, 0.28519922, 0.16389303, -926633.5, 93377.586, 0.0, 10.001039, 9.999271 
7.250156e+2, 2.0591843e+2, -876145.6, -1078219.1, 3553.3914, 0.22679633, 0.20670761, -876083.2, 45937.08, 0.0, 10.001119, 9.9984455 
7.25027e+2, 2.1591821e+2, -755860.3, -966656.06, 9277.7, 0.05187875, 0.3340292, -755452.75, 68574.664, 0.0, 10.001258, 9.998473 
7.2503966e+2, 2.2591703e+2, -624421.5, -876713.56, 11681.394, -0.012299326, 0.38026148, -623881.75, 102159.766, 0.0, 10.001589, 9.998259 
7.250532e+2, 2.3591508e+2, -460207.94, -749288.8, -636.4906, 0.0018583736, 0.35543594, -460206.53, 167854.66, 0.0, 10.002057, 9.998235 
7.2506624e+2, 2.4591301e+2, -360574.6, -737361.06, -16326.107, 0.02008773, 0.366102, -359868.5, 170215.34, 0.0, 10.002442, 9.997457 
7.2507894e+2, 2.5591072e+2, -207575.86, -600341.7, 7326.16, 0.03935965, 0.38472733, -207439.27, 224670.22, 0.0, 10.002766, 9.997569 
7.250905e+2, 2.6590845e+2, -132694.86, -442279.88, 12245.089, -0.04434045, 0.3674275, -132211.28, 201919.94, 0.0, 10.002303, 9.998203 
7.251011e+2, 2.7590615e+2, -183212.5, -420122.38, 9257.883, -0.200324, 0.31014445, -182851.28, 53299.56, 0.0, 10.001302, 9.998165 
7.2511196e+2, 2.859038e+2, -125218.836, -448198.88, -32480.957, -0.25942355, 0.31297988, -121984.73, 16189.875, 0.0, 10.001488, 9.99721 
7.251227e+2, 2.9590148e+2, 126781.91, -276082.47, -15944.705, -0.25577366, 0.35201913, 127411.984, 167613.28, 0.0, 10.002546, 9.99721 
7.251353e+2, 3.0589965e+2, 246083.28, -203827.53, 12723.752, -0.13887884, 0.45539546, 246442.83, 246442.83, 0.000000018939705, 10.003076, 9.997119 
7.2514796e+2, 3.1589738e+2, 390499.88, 69777.44, -25071.729, -0.050161116, 0.5057072, 392447.97, 392447.97, 0.0000007295325, 10.003179, 9.99895 
7.349144e+2, 1.2590694e+2, -2256426.3, -2028104.4, -7762.8105, 0.001883183, -0.21169598, -2027840.8, -321727.5, 0.0, 9.996507, 9.999532 
7.349291e+2, 1.3591127e+2, -1716853.0, -1675367.4, 3276.829, 0.14094147, 0.2263966, -1675110.3, -67027.92, 0.0, 9.999343, 9.999923 
7.349388e+2, 1.4591208e+2, -1521081.4, -1560995.4, -72872.88, -0.14009157, 0.33291718, -1465482.1, 44595.926, 0.0, 10.000158, 9.99963 
7.349522e+2, 1.5590942e+2, -1497788.5, -1498787.6, -43193.926, 0.07051231, 0.09801261, -1455091.3, -42988.9, 0.0, 9.999646, 9.999629 
7.34965e+2, 1.6590883e+2, -1387197.5, -1437069.3, 19989.773, 0.14808524, 0.09574365, -1380174.3, -66064.195, 0.0, 9.999913, 9.999253 
7.349774e+2, 1.7590971e+2, -1172753.1, -1285276.0, 31478.398, 0.122550644, 0.25361535, -1164545.6, 51560.19, 0.0, 10.000722, 9.999233 
7.3499e+2, 1.8590915e+2, -1079037.5, -1270473.8, 14754.356, 0.120717265, 0.31280825, -1077907.1, 40206.41, 0.0, 10.001041, 9.9985075 
7.350028e+2, 1.9590743e+2, -979190.7, -1165841.5, -10696.094, 0.14082186, 0.28339076, -978579.75, 41551.035, 0.0, 10.001029, 9.998558 
7.350153e+2, 2.059057e+2, -863640.5, -1051414.9, 7194.905, 0.087046534, 0.25127, -863365.2, 58783.406, 0.0, 10.001113, 9.998632 
7.350277e+2, 2.1590394e+2, -746529.56, -945651.6, 17415.168, -0.017294876, 0.20557317, -745017.9, 79149.33, 0.0, 10.001248, 9.998622 
7.350411e+2, 2.2590306e+2, -643378.75, -911543.9, 27465.145, -0.034510076, 0.28971472, -640594.7, 85584.33, 0.0, 10.001569, 9.998029 
7.350553e+2, 2.3590273e+2, -473245.9, -772636.4, 18405.402, 0.008989264, 0.4456648, -472118.66, 156068.4, 0.0, 10.00204, 9.998082 
7.3506826e+2, 2.4590066e+2, -315639.94, -639451.6, -5037.3213, -0.026362972, 0.42978588, -315561.6, 214646.23, 0.0, 10.002422, 9.998138 
7.350801e+2, 2.5589737e+2, -166733.13, -509469.9, 17645.715, -0.11798519, 0.27812472, -165827.03, 266410.94, 0.0, 10.00274, 9.998205 
7.3509276e+2, 2.658952e+2, -128481.766, -429110.13, -26483.57, -0.0468769, 0.23572506, -126166.55, 208090.56, 0.0, 10.002285, 9.998303 
7.351059e+2, 2.7589375e+2, -175409.38, -403441.84, -19977.014, 0.14185569, 0.25173905, -173672.5, 62597.16, 0.0, 10.0013, 9.998281 
7.35117e+2, 2.8589213e+2, -99030.7, -395727.94, 6584.245, 0.09230552, 0.30317342, -98884.66, 39401.957, 0.0, 10.001494, 9.997567 
7.3512655e+2, 2.9589048e+2, 144302.5, -237755.7, 24072.244, -0.13170391, 0.37461266, 145813.23, 186119.69, 0.0, 10.002536, 9.9974785 
7.351377e+2, 3.0588782e+2, 195787.08, -302518.84, 17609.271, -0.2118548, 0.42071635, 196408.58, 196408.58, 0.0000000073965225, 10.003054, 9.99645 
7.351487e+2, 3.1588492e+2, 344854.38, -17295.191, -10628.06, -0.30113536, 0.47135758, 345166.0, 345166.0, 0.0000004773962, 10.00315, 9.998362 
7.4491155e+2, 1.2589324e+2, -1925802.3, -1905246.4, -49397.51, -0.052220803, -0.27302298, -1865068.9, -158826.22, 0.0, 9.99894, 9.999194 
7.4492806e+2, 1.3589711e+2, -1785455.0, -1739017.5, 44545.207, 0.12141127, 0.15479831, -1712003.0, -103784.26, 0.0, 9.99901, 9.999643 
7.4493885e+2, 1.4589836e+2, -1607434.5, -1556074.5, -59103.43, -0.11030998, 0.29587385, -1517313.3, -7101.9106, 0.0, 9.999365, 10.000047 
7.4495214e+2, 1.5589671e+2, -1413817.3, -1416081.3, -64973.176, 0.0811206, 0.11908929, -1349966.1, 62259.9, 0.0, 10.000041, 10.000007 
7.449651e+2, 1.6589627e+2, -1341678.0, -1415108.8, -16525.928, 0.14535011, 0.11484006, -1338130.1, -23897.92, 0.0, 10.000229, 9.99925 
7.449777e+2, 1.7589669e+2, -1267273.9, -1331239.9, -28663.307, 0.11283445, 0.22734198, -1256309.3, -40076.97, 0.0, 10.000078, 9.999226 
7.4499047e+2, 1.8589604e+2, -1136880.4, -1301215.0, -10773.762, 0.08406582, 0.28139305, -1136177.0, -17935.938, 0.0, 10.000653, 9.998486 
7.4500334e+2, 1.9589452e+2, -878112.6, -1117805.9, 17280.012, 0.060432684, 0.27543625, -876873.25, 143384.14, 0.0, 10.001724, 9.998555 
7.450162e+2, 2.0589283e+2, -749404.75, -988050.8, 32020.264, 0.033323497, 0.2424309, -745183.1, 177091.55, 0.0, 10.001861, 9.998709 
7.450291e+2, 2.1589097e+2, -728936.2, -926321.1, 32693.453, 0.0056200293, 0.17946103, -723662.0, 100631.086, 0.0, 10.001327, 9.998715 
7.4504274e+2, 2.2589003e+2, -683147.7, -907361.7, 79659.97, -0.0048829187, 0.23930413, -657727.6, 68577.27, 0.0, 10.0012, 9.998235 
7.4505687e+2, 2.3588958e+2, -559523.0, -791113.25, 98968.23, -0.004561889, 0.36541715, -522992.13, 105321.055, 0.0, 10.0013485, 9.998289 
7.450698e+2, 2.4588788e+2, -433028.28, -669650.75, 70441.76, -0.059228003, 0.36133647, -413645.7, 116684.81, 0.0, 10.001503, 9.998374 
7.4508196e+2, 2.5588524e+2, -307883.78, -554543.1, 52776.336, -0.1525227, 0.2528041, -297065.97, 135288.52, 0.0, 10.001672, 9.99841 
7.4509466e+2, 2.6588333e+2, -198372.1, -469789.2, -32795.332, -0.0631781, 0.23068824, -194465.66, 139905.75, 0.0, 10.001836, 9.9982395 
7.4510765e+2, 2.7588183e+2, -76092.05, -362380.97, -36954.727, 0.15577555, 0.2510743, -71398.8, 164985.8, 0.0, 10.002013, 9.998219 
7.4511915e+2, 2.858801e+2, 27351.941, -333768.25, 11601.396, 0.1167621, 0.29077283, 27724.266, 166126.45, 0.0, 10.0023575, 9.997577 
7.451294e+2, 2.9587823e+2, 184985.23, -217430.58, -2883.0854, -0.10758936, 0.33929494, 185005.88, 225428.55, 0.0, 10.002811, 9.997485 
7.451409e+2, 3.058749e+2, 199973.8, -293873.25, -7611.7944, -0.18897323, 0.31546003, 200091.1, 200091.1, 0.0000000015345106, 10.003052, 9.996511 
7.451521e+2, 3.1587198e+2, 339408.38, -28006.006, 13939.838, -0.2734192, 0.35802647, 339936.5, 339936.5, 0.00000026410652, 10.003145, 9.998291 
7.54909e+2, 1.2588228e+2, -1859896.9, -1778106.9, -57642.9, -0.21483749, 0.06921214, -1748325.9, -41970.88, 0.0, 9.998976, 10.000052 
7.549271e+2, 1.358811e+2, -1730007.6, -1625963.9, 47527.38, 0.12442674, -0.09552999, -1607522.1, 847.9566, 0.0, 9.999016, 10.000417 
7.549385e+2, 1.4588223e+2, -1611729.5, -1564865.6, -37114.1, -0.08123806, 0.0021035017, -1544405.5, -34043.086, 0.0, 9.999364, 9.999987 
7.549511e+2, 1.558839e+2, -1417573.0, -1424822.4, -41138.504, -0.033480294, 0.16203935, -1379899.9, 32449.791, 0.0, 10.000044, 9.999947 
7.54964e+2, 1.6588385e+2, -1361409.6, -1457789.4, -24302.447, 0.00953605, 0.2156273, -1355628.4, -41275.1, 0.0, 10.000235, 9.998955 
7.5497717e+2, 1.7588255e+2, -1282250.6, -1363182.3, -29130.432, 0.049301293, 0.18603887, -1272856.0, -56487.027, 0.0, 10.000079, 9.999007 
7.549908e+2, 1.858815e+2, -1085227.8, -1190800.1, 28541.223, 0.053322375, 0.16731426, -1078005.8, 40375.098, 0.0, 10.000641, 9.999248 
7.550048e+2, 1.9588052e+2, -832310.94, -1019378.06, 54040.34, 0.0343101, 0.13910921, -817821.9, 202569.0, 0.0, 10.001708, 9.999239 
7.550183e+2, 2.0587987e+2, -754334.44, -993792.75, 9553.005, 0.054859836, 0.18095624, -753953.94, 168444.47, 0.0, 10.001842, 9.998678 
7.5503147e+2, 2.1587938e+2, -728511.2, -922628.0, 15925.278, 0.10564045, 0.25678977, -727213.4, 97191.445, 0.0, 10.001314, 9.998747 
7.5504464e+2, 2.2587791e+2, -640439.4, -815384.8, 84021.266, 0.061488602, 0.22975641, -606623.0, 119796.086, 0.0, 10.001184, 9.998874 
7.550578e+2, 2.3587573e+2, -522574.25, -710516.0, 106436.48, -0.05013404, 0.117585264, -474561.84, 153877.52, 0.0, 10.001331, 9.998851 
7.5507104e+2, 2.4587466e+2, -451691.44, -704080.0, 74592.266, -0.0911639, 0.16465817, -431294.44, 99157.24, 0.0, 10.001485, 9.998146 
7.550844e+2, 2.558743e+2, -325111.4, -589081.4, 60336.387, -0.08127069, 0.30691445, -311973.97, 120485.32, 0.0, 10.001665, 9.998177 
7.550961e+2, 2.658728e+2, -213179.34, -500772.03, -27267.53, -0.106834814, 0.3483388, -210616.86, 123857.68, 0.0, 10.001837, 9.998026 
7.5510657e+2, 2.758704e+2, -90367.43, -393757.38, -26427.867, -0.15940033, 0.3013425, -88082.54, 148413.52, 0.0, 10.00202, 9.997999 
7.551185e+2, 2.8586775e+2, 3022.9792, -386295.0, 28679.69, -0.18579412, 0.2746171, 5124.3687, 143645.67, 0.0, 10.002366, 9.997212 
7.551314e+2, 2.9586482e+2, 164532.1, -258357.19, 15455.636, -0.1909609, 0.2555277, 165096.2, 205645.3, 0.0, 10.002804, 9.997209 
7.5514495e+2, 3.0586097e+2, 251610.9, -181177.94, -3472.8728, -0.09081464, 0.14853555, 251638.77, 251638.77, 0.00000000001992495, 10.003031, 9.997293 
7.551579e+2, 3.1585863e+2, 371381.75, 40094.926, 27583.857, -0.014758819, 0.17696019, 373662.75, 373662.75, 0.00000011121909, 10.003137, 9.998764 
7.649081e+2, 1.2586972e+2, -1837914.5, -1724097.1, -46759.168, -0.19676296, 0.23723203, -1707351.1, -868.6465, 0.0, 9.9989395, 10.000439 
7.6492584e+2, 1.3586666e+2, -1726622.3, -1586475.6, 19062.889, 0.106691025, -0.151874, -1583929.0, 24580.867, 0.0, 9.998878, 10.000752 
7.649376e+2, 1.4586754e+2, -1629578.0, -1574098.1, -47241.613, -0.10462442, -0.09524503, -1547054.3, -36550.87, 0.0, 9.999243, 9.999983 
7.6495034e+2, 1.5587008e+2, -1414861.3, -1421546.1, -52268.16, -0.11471882, 0.15502651, -1365828.8, 46654.91, 0.0, 10.000053, 9.999966 
7.649635e+2, 1.6587032e+2, -1276511.4, -1387889.3, -27436.39, -0.08065027, 0.22259612, -1270119.6, 44364.723, 0.0, 10.000689, 9.999218 
7.6497716e+2, 1.7586891e+2, -1103644.1, -1248638.3, 5970.5034, -0.011583406, 0.15324292, -1103398.6, 113100.984, 0.0, 10.0011835, 9.999262 
7.6499116e+2, 1.8586797e+2, -1063418.9, -1176277.0, 47509.324, 0.017841775, 0.13201733, -1046082.25, 72428.49, 0.0, 10.000773, 9.999284 
7.6500535e+2, 1.9586727e+2, -1119311.0, -1150747.1, 17911.676, 0.019409366, 0.12836915, -1111198.8, -90678.94, 0.0, 9.99971, 9.999297 
7.650191e+2, 2.0586698e+2, -982032.8, -1075006.1, -15736.209, 0.03677631, 0.18876876, -979441.56, -56917.13, 0.0, 10.000156, 9.998932 
7.650326e+2, 2.1586685e+2, -660303.25, -864274.5, 5549.9727, 0.06735827, 0.27721378, -660152.4, 164374.52, 0.0, 10.001672, 9.998976 
7.6504594e+2, 2.258655e+2, -536897.9, -763035.7, 30033.996, 0.040882453, 0.2498206, -532976.94, 193562.89, 0.0, 10.001886, 9.998895 
7.6505923e+2, 2.3586324e+2, -545446.44, -718626.25, 4413.835, -0.027139742, 0.12866886, -545334.0, 83226.78, 0.0, 10.001164, 9.998875 
7.6507276e+2, 2.4586211e+2, -507436.25, -720979.2, -10095.542, -0.04627182, 0.16328841, -506960.03, 23613.514, 0.0, 10.001058, 9.998236 
7.650864e+2, 2.5586167e+2, -357718.72, -594369.2, -1520.9409, -0.032113187, 0.2892474, -357708.94, 74872.57, 0.0, 10.0014, 9.998265 
7.650982e+2, 2.6586026e+2, -123868.31, -452722.28, -45392.426, -0.11084584, 0.3328705, -117717.734, 216878.33, 0.0, 10.002429, 9.998072 
7.651086e+2, 2.7585807e+2, 190459.39, -253366.44, -34060.438, -0.25403386, 0.29983857, 193058.08, 429674.28, 0.0, 10.003927, 9.998046 
7.6512086e+2, 2.8585535e+2, 223430.47, -278827.66, 6091.4175, -0.2580005, 0.26845184, 223504.33, 362145.4, 0.0, 10.003877, 9.997224 
7.6513445e+2, 2.9585227e+2, 156978.45, -259368.77, 19324.05, -0.1633616, 0.23219867, 157873.42, 198542.67, 0.0, 10.002742, 9.9972315 
7.651485e+2, 3.0584815e+2, 220969.33, -172297.69, 18439.13, -0.020595072, 0.08517606, 221832.0, 221832.0, 0.0, 10.002714, 9.997508 
7.6516217e+2, 3.1584582e+2, 406568.2, 47048.54, 5765.402, 0.081956886, 0.09127408, 406660.63, 406660.63, 0.000000042610136, 10.0034275, 9.998668 
7.749089e+2, 1.2585564e+2, -1844673.5, -1744532.6, -55328.26, -0.024016367, 0.23398185, -1719982.3, -13358.18, 0.00000000003061157, 9.99896, 10.000293 
7.749243e+2, 1.3585387e+2, -1734253.3, -1605316.5, 18116.955, 0.056867685, -0.011274991, -1602819.3, 5818.175, 0.0, 9.998887, 10.000621 
7.749359e+2, 1.4585434e+2, -1625170.4, -1566886.5, -19866.514, -0.19738674, 0.008738074, -1560759.1, -50125.68, 0.0, 9.999249, 10.00003 
7.749498e+2, 1.5585528e+2, -1407118.5, -1407781.0, -21171.098, -0.17791295, 0.09407535, -1386276.1, 26352.229, 0.0, 10.00006, 10.000057 
7.749636e+2, 1.658557e+2, -1219163.1, -1268455.5, -10610.832, -0.13853392, 0.13171864, -1216976.0, 97649.37, 0.0, 10.000687, 10.000039 
7.7497774e+2, 1.7585577e+2, -1054229.1, -1146227.3, 20925.225, -0.08119598, 0.12873426, -1049693.3, 166930.64, 0.0, 10.001182, 9.999968 
7.749914e+2, 1.8585548e+2, -1112535.9, -1274539.1, 5775.53, -0.037403326, 0.17667131, -1112330.3, 6300.1563, 0.0, 10.000758, 9.998616 
7.7500486e+2, 1.9585481e+2, -1160484.3, -1235028.3, -12617.217, -0.0014300193, 0.243165, -1158406.6, -137762.84, 0.0, 9.999703, 9.998723 
7.750186e+2, 2.0585416e+2, -947580.56, -999596.1, 39887.86, -0.03545416, 0.2647068, -925970.7, -3317.9583, 0.0, 10.00014, 9.999457 
7.750324e+2, 2.1585342e+2, -634634.4, -804480.5, 56748.297, -0.11777486, 0.24181145, -617418.9, 207240.1, 0.0, 10.001643, 9.9994 
7.7504665e+2, 2.2585277e+2, -583133.2, -853118.06, 316.02383, -0.07838688, 0.29634082, -583132.8, 143534.4, 0.0, 10.001861, 9.998289 
7.7506113e+2, 2.3585205e+2, -583580.1, -794813.44, -17959.977, 0.0485385, 0.38983044, -582064.0, 46613.883, 0.0, 10.00115, 9.998359 
7.750749e+2, 2.4585018e+2, -479813.75, -660466.9, 1546.9264, 0.05941708, 0.3502805, -479800.5, 50895.75, 0.0, 10.001044, 9.998658 
7.75088e+2, 2.558474e+2, -330443.2, -535507.0, 17801.36, -0.0141165, 0.20190814, -328909.34, 103811.24, 0.0, 10.0013895, 9.998675 
7.751009e+2, 2.6584575e+2, -108593.97, -415987.66, 11501.687, -0.08575667, 0.18710843, -108164.21, 226571.31, 0.0, 10.002406, 9.998335 
7.751135e+2, 2.7584478e+2, 201469.25, -218112.53, 16963.172, -0.1536047, 0.25241467, 202153.94, 438898.6, 0.0, 10.003873, 9.998316 
7.751261e+2, 2.8584296e+2, 245775.67, -222684.27, -37911.793, -0.12885031, 0.27414438, 248823.98, 387585.56, 0.0, 10.003836, 9.997629 
7.7513844e+2, 2.958404e+2, 183246.28, -209354.02, -13639.627, -0.040601246, 0.25226974, 183719.58, 224504.2, 0.0, 10.00276, 9.997566 
7.751516e+2, 3.058363e+2, 200467.9, -220994.23, 47319.99, 0.016348809, 0.112495214, 205715.45, 205715.45, 0.0, 10.002741, 9.997162 
7.751648e+2, 3.158337e+2, 357195.44, -56838.81, 41863.39, -0.006907816, 0.12142723, 361385.88, 361385.88, 0.000000018540863, 10.003427, 9.997958 
7.849081e+2, 1.2584056e+2, -1709474.6, -1681323.9, -54136.723, -0.039518148, 0.12894654, -1639462.8, 67309.125, 0.0000000009851104, 9.999901, 10.000271 
7.84923e+2, 1.3584086e+2, -1644828.0, -1564885.9, 19007.62, 0.020593282, 0.095497854, -1560596.6, 48169.824, 0.0, 9.99952, 10.000587 
7.8493506e+2, 1.458414e+2, -1656029.4, -1572489.1, 2445.1458, -0.19170156, 0.11763737, -1572417.6, -61656.414, 0.0, 9.998999, 10.000112 
7.849493e+2, 1.5584095e+2, -1638050.0, -1508743.5, 5011.976, -0.14587875, 0.05545536, -1508549.5, -95782.3, 0.0, 9.998434, 10.000147 
7.849636e+2, 1.6584107e+2, -1494971.9, -1386312.1, 11400.243, -0.10927204, 0.051998228, -1385128.9, -70362.57, 0.0, 9.998733, 10.00017 
7.8497815e+2, 1.7584163e+2, -1265809.3, -1233334.0, -15292.568, -0.0772533, 0.08572816, -1227266.4, -10505.947, 0.0, 9.999669, 10.000094 
7.8499186e+2, 1.8584172e+2, -1118577.9, -1270371.4, -42660.863, -0.060819898, 0.16208985, -1107410.0, 11353.616, 0.0, 10.000686, 9.99868 
7.850051e+2, 1.9584136e+2, -859296.8, -1081945.0, -7609.589, -0.05395881, 0.25083083, -859037.06, 161737.38, 0.0, 10.00174, 9.998792 
7.8501886e+2, 2.058407e+2, -713481.6, -882533.7, 62318.613, -0.095085785, 0.2694475, -692992.1, 229791.39, 0.0, 10.00173, 9.999495 
7.8503317e+2, 2.1583982e+2, -736157.9, -849234.44, 39650.24, -0.16773617, 0.22634299, -723640.25, 101151.63, 0.0, 10.00093, 9.999435 
7.8504765e+2, 2.2583932e+2, -695709.4, -898596.75, -9457.191, -0.120708235, 0.29004812, -695269.5, 31529.896, 0.0, 10.00105, 9.998365 
7.8506225e+2, 2.3583895e+2, -475948.88, -731387.0, 19240.715, 0.010541558, 0.41118512, -474507.72, 154299.6, 0.0, 10.001842, 9.998459 
7.8507596e+2, 2.4583726e+2, -297652.63, -533914.44, 61930.848, 0.01451758, 0.36556762, -282403.1, 248419.83, 0.0, 10.002134, 9.999 
7.8508914e+2, 2.558345e+2, -210848.55, -441032.6, 68760.64, -0.07180986, 0.18651517, -191872.69, 240971.9, 0.0, 10.002056, 9.9990015 
7.851028e+2, 2.6583272e+2, -238895.4, -459814.1, 61526.457, -0.08425907, 0.13646308, -222915.95, 111943.56, 0.0, 10.001429, 9.998505 
7.8511673e+2, 2.7583158e+2, -288913.66, -435030.06, 59062.945, -0.043423455, 0.16455087, -268025.44, -31154.932, 0.0, 10.000421, 9.9984865 
7.851298e+2, 2.858302e+2, -66782.89, -349373.84, 18979.064, -0.027612086, 0.21137264, -65513.94, 73369.74, 0.0, 10.001584, 9.997842 
7.8514206e+2, 2.9582855e+2, 420910.56, -70902.75, 22123.668, -0.028258227, 0.25745004, 421903.75, 462803.0, 0.0, 10.004294, 9.997777 
7.8515536e+2, 3.0582494e+2, 526204.44, -47430.246, 69441.87, 0.0041427985, 0.1460204, 534491.06, 534491.06, 0.0, 10.004908, 9.997313 
7.8516877e+2, 3.158219e+2, 432400.72, -38056.246, 94634.11, 0.024967693, 0.1026741, 450723.13, 450723.13, 0.00000005666722, 10.00402, 9.997804 
7.949056e+2, 1.2582465e+2, -1701206.3, -1671780.1, -73413.664, -0.29264298, -0.07419162, -1611619.8, 95304.38, 0.0000000034592607, 9.99993, 10.000326 
7.9492223e+2, 1.3582772e+2, -1638412.0, -1557753.6, 3067.7542, -0.015134963, 0.16705312, -1557637.1, 51259.414, 0.0, 9.999545, 10.000627 
7.9493505e+2, 1.4582877e+2, -1645445.5, -1551486.9, -22457.955, -0.09493073, 0.23193681, -1546394.9, -35508.918, 0.0, 9.999004, 10.000253 
7.9494894e+2, 1.5582716e+2, -1632540.9, -1495612.9, -10177.334, -0.030154135, 0.040066406, -1494860.5, -81961.055, 0.0, 9.998426, 10.000241 
7.9496336e+2, 1.658265e+2, -1537945.3, -1471773.6, 45199.426, -0.008321072, -0.016696949, -1448844.6, -133937.89, 0.0, 9.998716, 9.999591 
7.949785e+2, 1.758265e+2, -1299532.3, -1303045.6, 21649.9, -0.013279995, 0.02087159, -1279567.9, -62658.652, 0.0, 9.999666, 9.999618 
7.9499257e+2, 1.8582669e+2, -1064025.1, -1153981.4, -4514.533, -0.06607015, 0.08497422, -1063799.1, 55111.215, 0.0, 10.000671, 9.999486 
7.9500586e+2, 1.9582687e+2, -811771.8, -980896.8, 27682.418, -0.15399767, 0.14993231, -807356.06, 213555.61, 0.0, 10.001728, 9.999492 
7.9502004e+2, 2.0582664e+2, -746749.8, -946743.9, 30357.658, -0.15782353, 0.20110399, -742243.3, 180673.52, 0.0, 10.00171, 9.999063 
7.9503477e+2, 2.1582603e+2, -761865.9, -899353.7, 15990.716, -0.098146856, 0.22763883, -760030.5, 64895.082, 0.0, 10.000915, 9.999099 
7.9504895e+2, 2.2582515e+2, -648075.06, -792486.8, 19322.654, -0.10028231, 0.23047042, -645534.3, 81401.734, 0.0, 10.00102, 9.999108 
7.950625e+2, 2.3582402e+2, -430192.3, -631145.1, 48233.543, -0.14992148, 0.20095958, -419214.78, 209733.61, 0.0, 10.001819, 9.999159 
7.9507613e+2, 2.4582335e+2, -282149.75, -498831.3, 57562.156, -0.19023782, 0.21294302, -267807.5, 263146.03, 0.0, 10.002119, 9.9992485 
7.950897e+2, 2.5582293e+2, -197242.73, -408968.0, 64321.74, -0.22089508, 0.2388909, -179233.72, 253720.58, 0.0, 10.002036, 9.999232 
7.951039e+2, 2.6582116e+2, -232941.34, -444548.94, 21063.412, -0.12259272, 0.17505641, -230865.06, 104103.836, 0.0, 10.001417, 9.998614 
7.951183e+2, 2.758184e+2, -276742.78, -417274.72, 34813.063, 0.06550671, 0.03206156, -268591.53, -31597.281, 0.0, 10.000453, 9.998592 
7.9513204e+2, 2.8581712e+2, -63210.473, -348137.34, 120559.33, 0.03822258, 0.082228065, -19044.908, 119962.555, 0.0, 10.00161, 9.997839 
7.951453e+2, 2.9581675e+2, 417648.94, -66504.414, 114571.82, -0.14212626, 0.25542566, 443392.75, 484405.6, 0.0, 10.004244, 9.997832 
7.951594e+2, 3.058139e+2, 564455.5, 43123.406, 34489.047, -0.07778649, 0.18699415, 566727.25, 566727.25, 0.000000000040257055, 10.00486, 9.997957 
7.95174e+2, 3.1581035e+2, 459858.66, 14914.508, 68107.84, 0.13777797, 0.028427325, 470050.5, 470050.5, 0.00000023885946, 10.004036, 9.99816 
8.0490535e+2, 1.2581098e+2, -2036463.9, -1822972.5, -11581.521, -0.19256248, -0.11167115, -1822346.1, -115291.39, 0.0000000057252847, 9.997586, 10.0004225 
8.0492115e+2, 1.3581386e+2, -1792371.5, -1626443.0, 62941.805, -0.0255629, 0.10356716, -1605269.3, 3760.6619, 0.0, 9.998465, 10.00068 
8.0493397e+2, 1.4581494e+2, -1612668.1, -1552700.3, 26450.123, -0.11862896, 0.1779116, -1542701.1, -31681.785, 0.0, 9.999303, 10.0001 
8.04948e+2, 1.558136e+2, -1383078.4, -1392809.1, 11150.775, -0.050740436, 0.026808709, -1375777.8, 37252.52, 0.0, 10.000214, 10.000085 
8.049627e+2, 1.6581285e+2, -1320095.4, -1381060.9, 80036.9, -0.026100257, -0.02301475, -1264932.9, 50105.84, 0.0, 10.000273, 9.999465 
8.04978e+2, 1.7581256e+2, -1302600.4, -1312535.1, 90754.05, -0.025128504, -0.003573332, -1216677.9, 367.4251, 0.0, 9.999682, 9.999546 
8.0499274e+2, 1.8581286e+2, -1155242.9, -1141314.8, 92151.96, -0.067011274, 0.047816522, -1055864.1, 63180.2, 0.0, 9.999804, 9.999989 
8.0500704e+2, 1.9581348e+2, -968278.0, -1007485.5, 94414.586, -0.14354214, 0.10500035, -891453.44, 129585.53, 0.0, 10.000446, 9.999926 
8.0502135e+2, 2.0581326e+2, -933676.6, -1068024.3, 48151.746, -0.13429058, 0.1531922, -918201.1, 4842.7163, 0.0, 10.00056, 9.998785 
8.0503577e+2, 2.1581236e+2, -872612.56, -975355.44, 45608.758, -0.05899887, 0.17880757, -855287.7, -30230.723, 0.0, 10.000255, 9.998894 
8.050498e+2, 2.2581145e+2, -677767.4, -753335.75, 91682.5, -0.09016148, 0.15977442, -616388.44, 110678.69, 0.0, 10.000586, 9.999586 
8.050636e+2, 2.3581043e+2, -466428.56, -600329.94, 96113.03, -0.19878224, 0.09502092, -416246.38, 212829.34, 0.0, 10.001362, 9.999591 
8.050777e+2, 2.4581024e+2, -361502.78, -542194.7, 56704.777, -0.21914326, 0.13843022, -345181.88, 185894.88, 0.0, 10.001595, 9.999205 
8.050919e+2, 2.5581056e+2, -287174.44, -458471.16, 39211.18, -0.17431901, 0.24385172, -278625.34, 154447.88, 0.0, 10.001444, 9.999179 
8.05106e+2, 2.65809e+2, -109106.42, -399767.06, -4090.2424, -0.097166575, 0.20700607, -109048.875, 226038.03, 0.0, 10.002333, 9.998482 
8.051199e+2, 2.7580598e+2, 224645.13, -190663.1, -11111.1045, 0.002753566, 0.051927134, 224942.19, 462056.13, 0.0, 10.003963, 9.998459 
8.0513424e+2, 2.8580418e+2, 266098.0, -203869.36, 75604.06, -0.017042732, 0.06661581, 277961.06, 417092.44, 0.0, 10.003935, 9.997711 
8.0514884e+2, 2.9580313e+2, 187798.48, -189097.16, 54969.973, -0.12290787, 0.1854844, 195652.17, 236795.22, 0.000000000055201586, 10.002715, 9.997727 
8.0516356e+2, 3.0580083e+2, 330044.22, -63125.297, -55507.93, -0.06547307, 0.167323, 337730.63, 337730.63, 0.000000087608015, 10.003223, 9.9980135 
8.0517817e+2, 3.1579748e+2, 591350.44, 74139.77, -67714.42, 0.10690686, 0.031037519, 600068.8, 600068.8, 0.000001260614, 10.004966, 9.998116 
8.149073e+2, 1.2579979e+2, -2029656.1, -1805934.4, 18146.71, 0.23819904, 0.02842153, -1804472.0, -97310.695, 0.000000004999778, 9.997573, 10.000546 
8.149196e+2, 1.3579936e+2, -1788238.5, -1614087.0, 96999.73, -0.02507578, -0.09998727, -1570812.8, 38352.99, 0.0, 9.998451, 10.000769 
8.1493163e+2, 1.4580001e+2, -1648332.6, -1626142.8, 58799.31, -0.28201032, -0.048827756, -1577400.8, -66240.32, 0.0, 9.999297, 9.9996 
8.1494653e+2, 1.5580031e+2, -1410958.3, -1455033.9, 43811.688, -0.22576569, 0.015186041, -1383954.0, 29204.98, 0.0, 10.00023, 9.999652 
8.149615e+2, 1.6580021e+2, -1294713.0, -1331598.3, 55728.875, -0.17852134, 0.03194856, -1254454.4, 60707.61, 0.0, 10.000284, 9.999799 
8.149767e+2, 1.7579983e+2, -1279010.0, -1264595.3, 72968.63, -0.13005887, 0.008961929, -1198478.9, 18689.379, 0.0, 9.999683, 9.999875 
8.1499237e+2, 1.8580027e+2, -1144769.3, -1114825.4, 115290.48, -0.08310408, 0.04800745, -1013538.75, 105626.234, 0.0, 9.999784, 10.00018 
8.150085e+2, 1.9580115e+2, -959542.94, -985967.6, 117528.91, -0.03948323, 0.11381463, -854486.0, 166670.1, 0.0, 10.00043, 10.000081 
8.150229e+2, 2.0580056e+2, -946066.0, -1088482.8, 34760.957, -0.03703488, 0.12457929, -938034.5, -14870.106, 0.0, 10.000539, 9.998654 
8.15036e+2, 2.1579884e+2, -880602.5, -990837.0, 38539.652, -0.065297104, 0.08116025, -868464.94, -43279.094, 0.0, 10.00025, 9.99879 
8.1505024e+2, 2.2579816e+2, -663046.75, -720562.0, 118744.28, -0.10719707, 0.077620775, -569627.44, 157565.31, 0.0, 10.000575, 9.999817 
8.150654e+2, 2.3579814e+2, -456987.13, -574557.06, 123707.15, -0.15669845, 0.089257166, -378808.13, 250381.58, 0.0, 10.001335, 9.999781 
8.150806e+2, 2.4579795e+2, -387384.6, -591869.6, 48515.813, -0.09329748, 0.14044537, -376457.7, 154734.88, 0.0, 10.0015745, 9.998874 
8.150956e+2, 2.557975e+2, -309341.7, -506202.75, 40209.363, 0.04925504, 0.20227806, -301445.56, 131755.27, 0.0, 10.001449, 9.99885 
8.151091e+2, 2.657962e+2, -136459.6, -456835.75, 56238.145, -0.02024917, 0.23017462, -126874.445, 208338.83, 0.0, 10.002334, 9.998089 
8.151214e+2, 2.7579424e+2, 192722.34, -249210.25, 43786.36, -0.24457014, 0.2208982, 197018.89, 434248.4, 0.0, 10.00393, 9.998073 
8.151363e+2, 2.8579143e+2, 248424.34, -238941.64, 27378.703, -0.21095215, 0.16136642, 249957.56, 389212.88, 0.0, 10.003924, 9.997477 
8.1515294e+2, 2.957878e+2, 175066.81, -224774.75, 19647.148, 0.011376154, 0.046908993, 176029.89, 217319.38, 0.000000045627168, 10.002751, 9.997466 
8.151678e+2, 3.0578566e+2, 298134.97, -135359.45, 9971.658, 0.030744284, 0.08628794, 298364.22, 298364.22, 0.0000007346625, 10.00325, 9.997503 
8.151812e+2, 3.1578344e+2, 554259.4, 2462.7937, 219.68633, -0.09316714, 0.10946729, 554259.44, 554259.44, 0.0000039598476, 10.004941, 9.997636 
8.2490546e+2, 1.2578654e+2, -1877607.4, -1742509.0, -56137.355, 0.2474316, 0.10578115, -1722227.1, -14934.695, 0.0000000017683296, 9.998663, 10.000449 
8.249182e+2, 1.357852e+2, -1684675.0, -1576409.1, -7839.9507, -0.04432751, -0.10072276, -1575844.4, 33461.26, 0.0, 9.999215, 10.000658 
8.2493097e+2, 1.4578567e+2, -1623724.1, -1581392.0, -27005.336, -0.27861086, -0.07464485, -1568246.5, -56944.867, 0.0, 9.999325, 9.999894 
8.2494634e+2, 1.5578644e+2, -1541524.1, -1486787.4, 13991.267, -0.20950049, 0.005104775, -1483418.4, -70123.086, 0.0, 9.9992, 9.999928 
8.2496154e+2, 1.6578686e+2, -1358111.8, -1349456.3, 39902.9, -0.17230555, 0.05562635, -1313647.1, 1646.5493, 0.0, 9.999798, 9.9999075 
8.2497674e+2, 1.7578708e+2, -1089193.5, -1162973.3, 34436.25, -0.15059224, 0.081297584, -1075618.4, 141676.69, 0.0, 10.000944, 9.999964 
8.2499254e+2, 1.857875e+2, -1011317.75, -1044923.8, 44183.668, -0.08976177, 0.11296182, -980849.9, 138441.7, 0.0, 10.000676, 10.00023 
8.2500875e+2, 1.9578792e+2, -1112083.3, -1050817.0, 37017.14, -0.0032316558, 0.12777969, -1033401.6, -12115.616, 0.0, 9.999348, 10.000156 
8.250234e+2, 2.0578723e+2, -990915.2, -1082012.3, 16934.963, -0.013395187, 0.110331975, -987868.9, -64574.8, 0.0, 10.0001135, 9.998901 
8.2503706e+2, 2.1578564e+2, -549569.8, -808762.8, 41761.246, -0.092759654, 0.057301555, -543007.44, 282305.25, 0.0, 10.002428, 9.99899 
8.250518e+2, 2.2578505e+2, -397238.56, -623459.2, 65924.96, -0.110644825, 0.06850458, -379428.88, 347889.6, 0.0, 10.002532, 9.999543 
8.250673e+2, 2.3578507e+2, -525606.6, -637823.0, 32292.82, -0.08271782, 0.111565806, -516977.25, 112338.586, 0.0, 10.000993, 9.999512 
8.2508266e+2, 2.4578443e+2, -462258.1, -649717.5, -12991.669, -0.019377995, 0.1422429, -461362.0, 69961.03, 0.0, 10.001158, 9.998676 
8.2509786e+2, 2.557832e+2, -153932.92, -452766.97, -14628.953, 0.06784046, 0.14612456, -153218.5, 280119.97, 0.0, 10.002614, 9.998654 
8.2511187e+2, 2.6578173e+2, -893.52045, -417955.5, 22758.92, -0.024049968, 0.1761959, 344.74918, 335697.75, 0.0, 10.00338, 9.997851 
8.251251e+2, 2.7578e+2, 130926.88, -306338.63, 13905.13, -0.24534895, 0.21325901, 131368.63, 368736.28, 0.0, 10.003622, 9.9978285 
8.2514006e+2, 2.8577682e+2, 226016.6, -283483.38, -41739.535, -0.21773535, 0.14781709, 229413.36, 368809.9, 0.0000000014340378, 10.003919, 9.997172 
8.2515633e+2, 2.9577243e+2, 375779.97, -162384.72, -52238.484, -0.0075317994, -0.01127522, 380803.75, 422241.06, 0.00000025046575, 10.004281, 9.997156 
8.2517165e+2, 3.0577022e+2, 470743.44, -119139.664, -13493.952, 0.022519683, 0.06961152, 471051.94, 471051.94, 0.0000021405835, 10.004723, 9.996905 
8.2518667e+2, 3.1576753e+2, 556439.44, -44357.523, -38629.383, -0.05133608, 0.10259801, 558913.0, 558913.0, 0.0000082363995, 10.005156, 9.9972105 
8.348995e+2, 1.2577124e+2, -1899206.4, -1794768.9, -36084.254, -0.22687532, 0.11841955, -1783514.3, -76066.48, 0.000000000051048894, 9.998688, 10.000082 
8.3491695e+2, 1.3577144e+2, -1701364.8, -1619403.6, 11371.159, -0.100602016, 0.10457607, -1617855.3, -8406.341, 0.0, 9.999245, 10.00035 
8.3493197e+2, 1.4577207e+2, -1547764.9, -1426360.5, -35026.914, -0.11985845, 0.10413379, -1416979.5, 94462.47, 0.0, 9.999337, 10.000952 
8.349476e+2, 1.5577203e+2, -1472389.3, -1342465.5, 13716.041, -0.013291927, -0.0025888733, -1341033.3, 72405.75, 0.0, 9.999197, 10.000921 
8.349629e+2, 1.6577286e+2, -1367381.5, -1367766.1, 82146.984, -0.020266002, 0.04874851, -1285426.6, 30006.459, 0.0, 9.999791, 9.999786 
8.349783e+2, 1.7577435e+2, -1097545.0, -1182568.4, 72823.24, -0.10007567, 0.21495895, -1055733.1, 161691.88, 0.0, 10.000951, 9.999826 
8.349931e+2, 1.857746e+2, -1019003.7, -1060177.8, -8081.5825, -0.101626486, 0.24229093, -1017474.25, 101949.29, 0.0, 10.000674, 10.000126 
8.3500767e+2, 1.9577384e+2, -1115597.4, -1056632.4, -1970.5752, -0.04959536, 0.1468871, -1056566.6, -35138.504, 0.0, 9.999341, 10.000119 
8.350229e+2, 2.0577326e+2, -948966.5, -992604.3, 102087.35, -0.07612727, 0.11091549, -866392.44, 57039.992, 0.0, 10.000101, 9.999521 
8.3503884e+2, 2.1577278e+2, -517658.88, -735927.44, 118874.18, -0.15674609, 0.10401479, -465419.8, 360017.6, 0.0, 10.0023985, 9.999504 
8.350543e+2, 2.2577213e+2, -456568.75, -739549.9, 4888.979, -0.11579275, 0.12901057, -456484.3, 270959.97, 0.0, 10.0025015, 9.998761 
8.3506924e+2, 2.3577128e+2, -577486.56, -744106.94, -16349.481, 0.010853273, 0.16281116, -575897.44, 53555.906, 0.0, 10.000986, 9.998785 
8.350839e+2, 2.457698e+2, -467764.8, -662135.3, 39906.016, -0.0056865476, 0.14767474, -459890.75, 71576.45, 0.0, 10.001161, 9.9985895 
8.350985e+2, 2.5576773e+2, -162457.13, -466927.44, 38604.914, -0.12816332, 0.077851, -157638.52, 275847.1, 0.0, 10.002598, 9.998565 
8.351143e+2, 2.657656e+2, -8258.403, -431372.84, 31094.82, -0.12383374, 0.048870433, -5985.4453, 329520.13, 0.0, 10.003368, 9.997767 
8.35131e+2, 2.7576327e+2, 123336.03, -321105.38, 25170.72, -0.024988804, 0.036277883, 124757.02, 362284.53, 0.0, 10.003614, 9.997732 
8.3514565e+2, 2.8576046e+2, 199525.86, -337888.03, -29421.525, -0.0555385, 0.030238023, 201131.78, 340686.1, 0.000000023116149, 10.003919, 9.996797 
8.351588e+2, 2.9575709e+2, 349006.44, -218728.73, -35760.273, -0.18508361, 0.008552491, 351250.03, 392836.4, 0.00000079247326, 10.004288, 9.996765 
8.3517516e+2, 3.0575463e+2, 427131.3, -214662.66, 5201.6714, -0.102071784, 0.118485786, 427173.47, 427173.47, 0.000004611285, 10.004739, 9.9962435 
8.3519423e+2, 3.157498e+2, 529372.4, -102944.36, -15335.79, 0.18147203, 0.0037837038, 529744.1, 529744.1, 0.000013939231, 10.005159, 9.99681 
8.448961e+2, 1.2575556e+2, -2045425.6, -1815211.8, -15411.633, -0.37504718, 0.093526594, -1814184.5, -106580.75, 0.0, 9.997468, 10.000528 
8.449155e+2, 1.3575676e+2, -1916414.1, -1676600.8, 83904.99, -0.07969554, 0.138481, -1650159.8, -40565.152, 0.0, 9.997577, 10.000757 
8.449316e+2, 1.457579e+2, -1710626.6, -1477464.3, 35961.727, -0.023457887, 0.15617856, -1472043.8, 39538.844, 0.0, 9.998104, 10.001194 
8.4494734e+2, 1.5575808e+2, -1480298.3, -1320682.8, 20681.39, 0.05394833, 0.047392454, -1318046.5, 95530.89, 0.0, 9.999035, 10.001147 
8.4496295e+2, 1.6575879e+2, -1465539.5, -1414857.0, 66600.414, 0.040549085, 0.07507847, -1368939.5, -53367.125, 0.0, 9.999118, 9.999789 
8.449787e+2, 1.7575984e+2, -1448016.4, -1350842.8, 64045.313, -0.029181112, 0.19823205, -1319040.0, -101472.18, 0.0, 9.998547, 9.99983 
8.449936e+2, 1.857599e+2, -1186643.1, -1150871.5, -4072.8389, -0.06342296, 0.21043365, -1150413.6, -30845.787, 0.0, 9.999564, 10.000039 
8.4500796e+2, 1.9575915e+2, -770185.3, -900800.4, -139.39389, -0.07604653, 0.12497392, -770185.2, 251386.92, 0.0, 10.001757, 10.000028 
8.4502375e+2, 2.0575872e+2, -707455.0, -881000.94, 75866.67, -0.085147455, 0.11077231, -678966.1, 244608.7, 0.0, 10.001776, 9.999482 
8.450408e+2, 2.1575847e+2, -848690.9, -901346.9, 39684.69, -0.087351285, 0.13127019, -827394.94, -1817.4155, 0.0, 10.000148, 9.999454 
8.4505635e+2, 2.2575769e+2, -751023.7, -894878.4, -69120.47, -0.05575463, 0.15274028, -723195.44, 4390.2524, 0.0, 10.000542, 9.998634 
8.450707e+2, 2.3575646e+2, -372609.84, -659610.6, -45155.81, -0.0049077542, 0.15983063, -365672.84, 263925.72, 0.0, 10.002458, 9.998655 
8.450856e+2, 2.4575457e+2, -190466.58, -542555.2, 45534.367, -0.05070452, 0.11573996, -184673.11, 346941.94, 0.0, 10.003126, 9.998465 
8.4510076e+2, 2.557521e+2, -133260.53, -465589.94, 37075.297, -0.16714045, 0.015047675, -129174.57, 304460.66, 0.0, 10.002853, 9.99845 
8.4511733e+2, 2.657498e+2, -78302.305, -464815.97, 24712.584, -0.13155746, -0.01830646, -76728.664, 258926.84, 0.0, 10.00289, 9.9977665 
8.451348e+2, 2.757477e+2, 61335.023, -352430.38, 24504.533, 0.01648589, -0.014757115, 62781.207, 300457.84, 0.0, 10.0032, 9.997715 
8.4515035e+2, 2.8574494e+2, 266190.53, -335005.6, 10871.762, -0.010648124, 0.0030923758, 266387.06, 406090.72, 0.000000104865386, 10.004503, 9.996535 
8.4516436e+2, 2.9574162e+2, 650577.5, -102745.3, 4052.7693, -0.16641214, 0.012118802, 650599.25, 692335.9, 0.000001726478, 10.006487, 9.996504 
8.4518087e+2, 3.0573907e+2, 633504.75, -152072.53, -799.27826, -0.084191546, 0.14461485, 633505.56, 633505.56, 0.000007801111, 10.006322, 9.99591 
8.451995e+2, 3.1573358e+2, 439885.44, -147498.95, -4766.4834, 0.22653688, -0.0036427223, 439924.1, 439924.1, 0.000020095575, 10.004561, 9.996786 
8.548951e+2, 1.2573962e+2, -1958665.9, -1637892.4, -14859.597, -0.21933685, 0.032303132, -1637205.5, 70553.98, 0.0, 9.997476, 10.001744 
8.5491407e+2, 1.357412e+2, -1842600.1, -1520599.6, 89379.34, 0.014084039, -0.002112048, -1497453.9, 112288.42, 0.0, 9.997564, 10.001835 
8.549299e+2, 1.457432e+2, -1748907.0, -1556743.9, 69411.04, -0.0033447847, 0.08028868, -1534294.6, -22571.813, 0.0, 9.998098, 10.000655 
8.5494554e+2, 1.5574467e+2, -1514663.9, -1395219.6, 54511.31, -0.028337914, 0.15423527, -1374082.5, 39627.55, 0.0, 9.999045, 10.000632 
8.5496163e+2, 1.6574469e+2, -1459173.0, -1401611.9, 43562.69, -0.0075479057, 0.13308744, -1378181.0, -62469.684, 0.0, 9.999118, 9.999881 
8.54978e+2, 1.7574356e+2, -1441348.1, -1336423.1, 51252.906, 0.050053574, 0.02760907, -1315542.9, -97819.266, 0.0, 9.998543, 9.999932 
8.5499394e+2, 1.857434e+2, -1193007.1, -1161213.5, 76923.07, 0.012048179, 0.016265474, -1098561.9, 21162.605, 0.0, 9.999551, 9.999975 
8.550095e+2, 1.9574386e+2, -778464.94, -917014.1, 73122.484, -0.09706084, 0.0588675, -747012.8, 274705.1, 0.0, 10.00175, 9.99992 
8.550259e+2, 2.0574364e+2, -758819.94, -984232.1, 11742.925, -0.05524264, 0.106639154, -758209.8, 165511.1, 0.0, 10.001761, 9.998782 
8.550429e+2, 2.1574283e+2, -892071.8, -989796.56, -11124.844, 0.09986843, 0.14217682, -890821.4, -65089.383, 0.0, 10.000141, 9.99885 
8.5505795e+2, 2.2574183e+2, -718940.4, -824227.7, 756.01337, 0.05492494, 0.14247403, -718934.94, 8806.891, 0.0, 10.0005245, 9.999129 
8.5507184e+2, 2.3574062e+2, -344116.16, -595042.25, 22236.826, -0.14141157, 0.102604054, -342160.78, 287590.56, 0.0, 10.002435, 9.999109 
8.550876e+2, 2.4573873e+2, -204447.16, -567625.06, 32694.215, -0.1681405, 0.04621295, -201527.4, 330239.1, 0.0, 10.003108, 9.998302 
8.551047e+2, 2.5573623e+2, -145302.78, -487045.06, 28515.453, -0.064805664, -0.039910037, -142939.75, 290847.2, 0.0, 10.002838, 9.998312 
8.5512096e+2, 2.657344e+2, -73462.77, -454783.44, 33270.406, -0.056621145, -0.025229659, -70581.69, 265221.0, 0.0, 10.002888, 9.997837 
8.551366e+2, 2.7573308e+2, 65083.824, -345219.63, 40910.766, -0.1247156, 0.054281913, 69123.21, 306938.88, 0.00000000023653265, 10.003202, 9.997764 
8.55154e+2, 2.8573018e+2, 253666.08, -357976.44, 84738.03, -0.09279538, 0.06279263, 265188.75, 405033.75, 0.0000002462752, 10.00449, 9.996384 
8.551728e+2, 2.9572597e+2, 632796.3, -127419.86, 70323.9, 0.020834086, -0.0003223571, 639246.9, 681134.94, 0.0000025866734, 10.006432, 9.996362 
8.551886e+2, 3.0572355e+2, 626754.44, -163491.47, -69863.81, 0.05494286, 0.14702874, 632883.44, 632883.44, 0.000010391552, 10.0063095, 9.995838 
8.5520256e+2, 3.1571847e+2, 470175.28, -104860.76, -68281.234, 0.07200101, 0.054005962, 478171.97, 478171.97, 0.000025300873, 10.004646, 9.99704 
8.6489344e+2, 1.257241e+2, -1914133.5, -1589812.3, 25352.807, -0.14664012, -0.016095178, -1587842.4, 120067.21, 0.00000000000000000000885557, 9.997675, 10.001972 
8.6491114e+2, 1.3572629e+2, -1775899.9, -1474636.5, 46020.15, -0.04680604, -0.010492967, -1467763.4, 142122.75, 0.0, 9.99796, 10.00196 
8.6492735e+2, 1.4572823e+2, -1715205.5, -1583814.6, 26402.05, -0.08537001, 0.080606446, -1578707.8, -66839.33, 0.0, 9.998519, 10.000265 
8.6494434e+2, 1.557292e+2, -1497352.3, -1426405.5, 15385.998, -0.0670183, 0.14536561, -1423212.5, -9349.897, 0.0, 9.999332, 10.00028 
8.649609e+2, 1.6572917e+2, -1322771.3, -1311829.3, -14198.519, -0.024844065, 0.12505336, -1302084.1, 13779.553, 0.0, 9.999945, 10.000098 
8.6497736e+2, 1.7572841e+2, -1156478.5, -1179618.9, 3133.849, 0.035510164, 0.034226146, -1156061.6, 61808.36, 0.0, 10.000411, 10.000107 
8.649938e+2, 1.857281e+2, -1091660.1, -1150031.1, 58574.855, 0.004101486, 0.017685732, -1055402.5, 64469.766, 0.0, 10.000409, 9.999638 
8.650104e+2, 1.9572797e+2, -1049997.3, -1081326.3, 28252.236, -0.09357596, 0.037053473, -1033357.5, -11484.48, 0.0, 10.000032, 9.999618 
8.6502707e+2, 2.0572759e+2, -923880.94, -1042408.94, -41303.504, -0.043054923, 0.07132581, -910907.8, 12969.4375, 0.0, 10.000538, 9.99897 
8.650439e+2, 2.1572693e+2, -654753.44, -859466.5, 1223.1436, 0.115661986, 0.10310122, -654746.1, 171138.53, 0.0, 10.001702, 9.998993 
8.650595e+2, 2.2572581e+2, -483057.94, -749517.8, 53002.66, 0.06339324, 0.10424085, -472902.06, 254993.1, 0.0, 10.002311, 9.998781 
8.650743e+2, 2.3572426e+2, -363095.4, -642549.75, 5664.3047, -0.14560892, 0.06542526, -362980.66, 266928.25, 0.0, 10.00247, 9.998765 
8.650908e+2, 2.4572225e+2, -295477.2, -642880.9, -50412.02, -0.13306914, 0.028126244, -288309.72, 243616.58, 0.0, 10.002624, 9.998015 
8.651086e+2, 2.5571978e+2, -169509.8, -529951.06, -64886.52, 0.043969058, -0.025665745, -158184.78, 275762.7, 0.0, 10.00281, 9.998029 
8.651252e+2, 2.6571777e+2, 30110.707, -427639.78, -41869.273, 0.037568837, -0.0068866615, 33908.867, 369874.2, 0.0, 10.003699, 9.997631 
8.6514086e+2, 2.7571604e+2, 329097.9, -239020.23, -58451.42, -0.108715035, 0.053850878, 335049.38, 573031.0, 0.000000010030935, 10.005105, 9.997579 
8.651589e+2, 2.8571296e+2, 335622.38, -295586.78, -25228.432, -0.06867957, 0.03960246, 336629.1, 476641.3, 0.0000004320167, 10.004953, 9.99659 
8.651787e+2, 2.9570872e+2, 244706.42, -292524.2, -15726.35, 0.11628144, -0.046111945, 245166.38, 287220.8, 0.00000324646, 10.003673, 9.996553 
8.651948e+2, 3.057062e+2, 488494.06, -252523.0, -113097.375, 0.092274755, 0.10035681, 505371.13, 505371.13, 0.000012290972, 10.005455, 9.995638 
8.652086e+2, 3.1570145e+2, 1177505.5, 248110.22, -128009.73, -0.03377901, 0.053947117, 1194814.4, 1194814.4, 0.000029689863, 10.00946, 9.997151 
8.748906e+2, 1.2570919e+2, -1967557.5, -1706370.1, 37391.777, -0.20269282, -0.04803544, -1701122.5, 6929.9907, 0.0000000055054987, 9.997691, 10.001167 
8.749067e+2, 1.3571213e+2, -1830148.9, -1590818.3, 59231.527, -0.28529385, 0.116818, -1576961.5, 33063.797, 0.0, 9.997974, 10.001156 
8.749239e+2, 1.4571302e+2, -1736182.4, -1630486.0, 55578.723, -0.28774783, 0.15886562, -1606640.5, -94621.71, 0.0, 9.998531, 9.999939 
8.749436e+2, 1.5571164e+2, -1514000.0, -1461413.1, 46467.06, -0.07382087, 0.018990453, -1434316.1, -20281.102, 0.0, 9.999335, 10.000038 
8.7496096e+2, 1.6571227e+2, -1296062.8, -1257385.1, 1073.4832, -0.023164514, 0.05361077, -1257355.4, 58673.973, 0.0, 9.999948, 10.000471 
8.749766e+2, 1.7571443e+2, -1134534.1, -1135618.5, 19540.156, -0.088934995, 0.2183493, -1115528.6, 102477.984, 0.0, 10.000417, 10.000406 
8.7499315e+2, 1.8571405e+2, -1136230.5, -1240218.4, 42731.07, -0.102997534, 0.21491478, -1120924.3, -913.56665, 0.0, 10.0004, 9.999023 
8.750106e+2, 1.957116e+2, -1085840.4, -1153309.5, 19469.719, -0.07954805, 0.061697837, -1080625.1, -58588.47, 0.0, 10.000021, 9.999129 
8.750275e+2, 2.0571063e+2, -853365.9, -890809.25, 533.30084, -0.061614234, 0.0051617194, -853358.3, 70684.91, 0.0, 10.000515, 10.000023 
8.750439e+2, 2.1571077e+2, -592968.44, -728977.44, 43439.35, -0.04967145, 0.011482338, -580278.5, 245756.98, 0.0, 10.001692, 9.999895 
8.7506074e+2, 2.2570966e+2, -568217.7, -922376.7, 56036.99, -0.04160366, 0.034734987, -559562.75, 168482.88, 0.0, 10.002294, 9.997603 
8.750779e+2, 2.357075e+2, -445486.34, -807374.9, 12309.021, -0.03363171, 0.052850585, -445068.16, 185002.25, 0.0, 10.002442, 9.997648 
8.7509507e+2, 2.4570523e+2, -326945.16, -704081.06, -45997.492, 0.0354348, 0.06378664, -321416.13, 210677.42, 0.0, 10.0026045, 9.997604 
8.751124e+2, 2.557028e+2, -200239.22, -592123.4, -52701.566, 0.14523366, 0.055469964, -193275.53, 240840.67, 0.0, 10.002803, 9.997604 
8.751299e+2, 2.6569995e+2, -3432.5977, -498607.03, 11498.246, 0.13645168, 0.035746355, -3165.7454, 332976.9, 0.0, 10.003702, 9.997143 
8.7514746e+2, 2.7569667e+2, 295168.7, -300533.0, -9311.814, 0.039884906, -0.011876826, 295314.2, 533487.44, 0.000000041048242, 10.005066, 9.997174 
8.7516505e+2, 2.8569332e+2, 370216.6, -220618.88, -75593.586, 0.04185292, -0.059247397, 379734.97, 519938.63, 0.00000075912783, 10.004939, 9.997112 
8.7518245e+2, 2.9568985e+2, 284942.7, -220511.56, -49000.38, 0.11641358, -0.121169694, 289649.13, 331884.0, 0.0000042131296, 10.00372, 9.997026 
8.751997e+2, 3.0568725e+2, 469535.25, -294490.22, 39645.45, 0.027029062, 0.008644615, 471586.97, 471586.97, 0.000014487883, 10.005466, 9.995345 
8.752172e+2, 3.1568238e+2, 1158383.3, 237960.1, 22243.08, -0.12745565, -0.020375676, 1158920.5, 1158920.5, 0.000033960187, 10.009334, 9.997142 
8.8488775e+2, 1.2569322e+2, -2139540.3, -1839056.8, -81054.46, -0.2115304, 0.01796397, -1818587.0, -110378.664, 0.00000006865043, 9.996735, 10.00072 
8.8490456e+2, 1.3569514e+2, -1858224.5, -1652592.3, -46445.58, -0.29921037, 0.13229635, -1642588.4, -32395.557, 0.0, 9.997993, 10.000724 
8.849223e+2, 1.456957e+2, -1755852.6, -1597910.4, -24208.021, -0.28270695, 0.14233465, -1594283.3, -82094.49, 0.0, 9.998218, 10.000314 
8.849424e+2, 1.5569459e+2, -1720899.3, -1522815.8, 18195.316, -0.049658723, -0.0072927256, -1521158.3, -106958.7, 0.0, 9.997753, 10.00038 
8.849601e+2, 1.6569526e+2, -1542144.3, -1391414.6, 1819.042, -0.014582556, 0.023999732, -1391392.8, -75199.89, 0.0, 9.998329, 10.00033 
8.8497627e+2, 1.7569728e+2, -1250779.5, -1207573.6, -25921.527, -0.123150475, 0.18862869, -1195433.3, 22739.69, 0.0, 9.999688, 10.000265 
8.849933e+2, 1.8569696e+2, -1157501.4, -1253630.5, -31264.252, -0.12171021, 0.20019943, -1148227.9, -28050.979, 0.0, 10.000263, 9.998999 
8.850111e+2, 1.9569479e+2, -1055980.6, -1142502.4, -9483.704, -0.04235017, 0.07710991, -1054953.3, -32753.215, 0.0, 10.000242, 9.999098 
8.8502836e+2, 2.056937e+2, -779653.75, -877757.94, -3778.5842, -0.05120747, 0.020894837, -779508.4, 144699.47, 0.0, 10.001117, 9.999822 
8.8504535e+2, 2.1569337e+2, -466935.03, -689913.8, -61390.242, -0.12511759, 0.0011070047, -451150.53, 375054.34, 0.0, 10.00265, 9.9997 
8.850628e+2, 2.2569199e+2, -506570.84, -904721.6, -102780.94, -0.08775962, 0.011245452, -481604.0, 246613.56, 0.0, 10.002769, 9.997495 
8.8508064e+2, 2.356897e+2, -542927.9, -865790.25, -68263.445, 0.03359213, 0.028522188, -529088.06, 101154.85, 0.0, 10.0018215, 9.997546 
8.850982e+2, 2.4568741e+2, -340252.88, -712863.56, -20550.926, 0.09247195, 0.04288516, -339122.8, 193143.17, 0.0, 10.0025215, 9.997585 
8.851156e+2, 2.5568497e+2, 43465.61, -480366.53, -5022.252, 0.10219025, 0.037866935, 43513.754, 477802.25, 0.0, 10.004495, 9.9975605 
8.8513374e+2, 2.6568192e+2, 118216.72, -477444.8, 46543.895, 0.10345313, 0.016122619, 121831.63, 458149.3, 0.0, 10.004704, 9.996804 
8.851524e+2, 2.7567825e+2, 61411.527, -447737.78, 32558.127, 0.10055807, -0.035756804, 63485.05, 301838.1, 0.00000009076283, 10.003614, 9.99686 
8.851701e+2, 2.8567463e+2, 325800.75, -251127.67, -28671.541, 0.07183568, -0.093418986, 327222.16, 467607.9, 0.0000012322637, 10.004675, 9.997029 
8.8518703e+2, 2.9567096e+2, 806872.3, 21482.777, -48160.31, 0.021749422, -0.16554266, 809814.5, 852231.56, 0.000005518115, 10.007351, 9.9969425 
8.8520527e+2, 3.0566794e+2, 698896.94, -190888.38, 27487.414, -0.032020543, -0.07198407, 699745.3, 699745.3, 0.00001701503, 10.007075, 9.995281 
8.852252e+2, 3.1566316e+2, 467697.84, -82038.52, 15356.482, -0.0171446, -0.08381567, 468126.5, 468126.5, 0.0000380096, 10.004527, 9.997255 
8.948844e+2, 1.2567623e+2, -2150067.3, -1858873.6, -37328.14, -0.22186275, 0.18997271, -1854164.6, -145787.8, 0.00000033567557, 9.996727, 10.000587 
8.949047e+2, 1.3567533e+2, -1865417.4, -1666595.6, -4641.523, -0.08938657, 0.04117641, -1666487.4, -56098.484, 0.00000000007521531, 9.997992, 10.0006275 
8.949226e+2, 1.4567631e+2, -1673789.0, -1431713.4, -45807.32, -0.07410191, 0.035971325, -1423335.3, 89042.63, 0.0, 9.99823, 10.0014515 
8.9494056e+2, 1.5567812e+2, -1651564.6, -1379452.6, 7624.5195, -0.012067181, 0.06531152, -1379239.1, 35116.348, 0.0, 9.997752, 10.001366 
8.9495844e+2, 1.6567823e+2, -1592823.5, -1495366.9, 52345.145, -0.021572731, 0.035317924, -1472579.8, -156226.08, 0.0, 9.998324, 9.9996195 
8.949764e+2, 1.7567699e+2, -1294969.8, -1298000.5, 23315.75, -0.08102739, -0.055870317, -1273120.1, -54751.656, 0.0, 9.9996805, 9.999648 
8.9499414e+2, 1.8567687e+2, -1119388.6, -1172112.9, -34660.074, -0.066824235, -0.026337503, -1102204.4, 18166.094, 0.0, 10.000253, 9.999563 
8.950118e+2, 1.9567756e+2, -1026889.44, -1080093.9, -5733.239, 0.0032976135, 0.08145168, -1026278.6, -3915.4097, 0.0, 10.000234, 9.99953 
8.950297e+2, 2.0567681e+2, -882080.94, -1087595.8, 51956.902, -0.025492445, 0.113009684, -869692.3, 54678.953, 0.0, 10.001103, 9.998389 
8.9504796e+2, 2.156748e+2, -560600.06, -877295.0, -8614.981, -0.1287901, 0.070294626, -560365.94, 266026.25, 0.0, 10.00262, 9.998428 
8.9506555e+2, 2.2567289e+2, -445275.88, -771652.3, -141069.48, -0.09404986, 0.03633128, -392753.66, 335656.2, 0.0, 10.002742, 9.998423 
8.950826e+2, 2.3567092e+2, -480431.38, -736351.0, -95178.086, 0.043023128, -0.0066968245, -448915.22, 181510.6, 0.0, 10.001822, 9.998434 
8.951002e+2, 2.456688e+2, -316649.34, -664414.75, 51940.867, 0.030246718, -0.034977663, -309057.4, 223386.13, 0.0, 10.002523, 9.997917 
8.951182e+2, 2.556664e+2, 57571.234, -439119.4, 62588.375, -0.09524827, -0.07026889, 65336.637, 499800.38, 0.0, 10.004445, 9.997868 
8.951367e+2, 2.656637e+2, 100160.19, -510865.8, 1725.9247, -0.07070968, -0.05586261, 100165.06, 436654.94, 0.0, 10.0046835, 9.996588 
8.951557e+2, 2.7566072e+2, 45695.016, -483170.4, 1368.342, 0.06620023, -0.019059977, 45698.555, 284220.22, 0.00000009908021, 10.003625, 9.996613 
8.951742e+2, 2.8565675e+2, 279750.25, -346080.28, 71430.984, 0.014684447, -0.06488154, 287799.7, 428358.63, 0.0000014446077, 10.004671, 9.996379 
8.951924e+2, 2.95652e+2, 753985.3, -71751.5, 43204.434, -0.17990588, -0.1810659, 756239.7, 798840.4, 0.0000064543938, 10.007278, 9.996337 
8.952117e+2, 3.056482e+2, 700378.4, -177799.75, -69503.1, -0.104115196, -0.14388014, 705845.1, 705845.1, 0.000019350595, 10.007031, 9.995393 
8.9523244e+2, 3.1564352e+2, 490332.66, -45408.71, -73777.32, 0.24943857, -0.15682992, 500306.9, 500306.9, 0.00004250188, 10.004573, 9.997484 
9.0488094e+2, 1.2565656e+2, -2104104.8, -1768604.5, -21064.24, -0.24229126, 0.10839497, -1767287.1, -58719.82, 0.0000010657902, 9.9967375, 10.001207 
9.0490246e+2, 1.3565636e+2, -2070880.4, -1703168.0, 61940.164, -0.02100105, -0.03129892, -1693014.8, -82444.625, 0.000000007369457, 9.996311, 10.001188 
9.049207e+2, 1.4565772e+2, -1852576.4, -1521744.5, 4959.0576, -0.025627337, -0.023707107, -1521670.1, -9115.127, 0.0, 9.997021, 10.001414 
9.0493804e+2, 1.556596e+2, -1524123.1, -1323226.8, -34446.297, -0.08080082, 0.018766968, -1317484.6, 97048.086, 0.0, 9.998647, 10.001321 
9.049565e+2, 1.656596e+2, -1473622.1, -1450665.9, 1234.8029, -0.07923319, -0.015431767, -1450599.6, -134066.97, 0.0, 9.999193, 9.99951 
9.049761e+2, 1.7565809e+2, -1411379.8, -1361752.3, 15651.828, -0.030710928, -0.121970646, -1357228.3, -138677.89, 0.0, 9.998917, 9.999578 
9.049947e+2, 1.8565802e+2, -1160051.9, -1166563.5, -18833.861, -0.010497219, -0.097925514, -1144194.5, -23643.441, 0.0, 9.999866, 9.999787 
9.050126e+2, 1.9565894e+2, -792035.94, -948989.4, -19529.914, -0.011912234, 0.009854732, -789642.3, 232897.44, 0.0, 10.001764, 9.999694 
9.050312e+2, 2.0565814e+2, -807074.06, -1113434.6, 37846.21, -0.025760917, 0.061951123, -802468.0, 122081.54, 0.0, 10.001887, 9.997834 
9.0505034e+2, 2.15656e+2, -881630.25, -1086936.3, 39757.02, -0.05030026, 0.057741456, -874200.25, -47624.0, 0.0, 10.000652, 9.997938 
9.050682e+2, 2.256541e+2, -609570.1, -803295.9, -62777.05, -0.029785758, 0.027619904, -591006.06, 137587.77, 0.0, 10.00141, 9.998847 
9.0508515e+2, 2.3565231e+2, -179202.64, -550089.06, -59614.305, 0.02297919, -0.04061863, -169856.1, 460749.22, 0.0, 10.003714, 9.998803 
9.05103e+2, 2.4565007e+2, -124139.734, -605127.3, 34056.293, -0.0049020024, -0.08110625, -121740.34, 410883.16, 0.0, 10.003992, 9.997618 
9.051217e+2, 2.5564736e+2, -215615.77, -601799.06, -5848.411, -0.093744956, -0.11796102, -215527.2, 219120.64, 0.0, 10.002705, 9.997587 
9.051406e+2, 2.6564473e+2, -103643.41, -611353.94, -68504.445, -0.08514405, -0.08494952, -94562.64, 242111.61, 0.0, 10.003297, 9.996563 
9.051595e+2, 2.7564204e+2, 296294.47, -366903.56, -57545.453, -0.0034998374, -0.013828891, 301250.63, 539953.94, 0.00000004360356, 10.005365, 9.996573 
9.05179e+2, 2.8563827e+2, 394790.56, -305084.13, 46373.37, -0.01525915, -0.027830755, 397849.84, 538589.44, 0.0000013076232, 10.005524, 9.99625 
9.051989e+2, 2.956337e+2, 301261.7, -301411.75, 48535.168, -0.09665168, -0.115398616, 305145.34, 347927.16, 0.0000070912574, 10.004217, 9.99623 
9.052182e+2, 3.056294e+2, 419168.5, -308412.06, -65543.09, -0.049379915, -0.12504032, 425025.72, 425025.72, 0.00002203567, 10.005077, 9.995436 
9.052376e+2, 3.1562465e+2, 929460.7, 173967.23, -82050.62, 0.16565469, -0.1491009, 938269.1, 938269.1, 0.00004871428, 10.00756, 9.997555 
9.14877e+2, 1.2563418e+2, -1996095.5, -1550113.3, -36629.55, -0.3136144, -0.23597442, -1547124.8, 161655.4, 0.000002613721, 9.996761, 10.002696 
9.148978e+2, 1.356383e+2, -1982467.1, -1516459.8, 50155.184, -0.11490886, -0.0889736, -1511122.9, 99612.87, 0.00000007607973, 9.996297, 10.002476 
9.149164e+2, 1.4563996e+2, -1943735.9, -1710064.8, 65747.586, -0.16186671, -0.0418409, -1692835.9, -180116.38, 0.0, 9.997015, 10.000127 
9.1493475e+2, 1.5563908e+2, -1603014.3, -1489074.0, 23821.756, -0.27260008, -0.149748, -1484294.0, -69562.88, 0.0, 9.998654, 10.000179 
9.1495454e+2, 1.6563942e+2, -1436079.0, -1373778.4, -12458.639, -0.20221739, -0.1258983, -1371379.4, -54649.668, 0.0, 9.999198, 10.000035 
9.149755e+2, 1.7564067e+2, -1377730.3, -1292503.1, 11209.046, 0.011789188, -0.008259888, -1291053.6, -72335.625, 0.0, 9.998918, 10.000053 
9.149951e+2, 1.8564044e+2, -1167962.9, -1181595.4, 50750.43, 0.030936169, -0.015692815, -1123573.0, -2854.837, 0.0, 9.999861, 9.999687 
9.150135e+2, 1.9563895e+2, -800759.3, -962446.0, 45021.28, -0.103339404, -0.13700171, -789068.5, 233660.4, 0.0, 10.001745, 9.999611 
9.150326e+2, 2.0563784e+2, -789659.0, -1073238.6, -11380.723, -0.0697986, -0.12845072, -789203.0, 135538.73, 0.0, 10.001867, 9.99812 
9.150524e+2, 2.1563697e+2, -865101.9, -1048529.75, 2856.5068, 0.09382825, -0.034104217, -865057.44, -38300.59, 0.0, 10.000635, 9.99821 
9.150709e+2, 2.2563565e+2, -617831.6, -817588.0, 21520.268, 0.09228644, -0.014747, -615539.5, 113229.945, 0.0, 10.001395, 9.998757 
9.1508824e+2, 2.3563388e+2, -193013.72, -572324.5, 19421.268, -0.038412485, -0.07154058, -192021.92, 438759.28, 0.0, 10.003685, 9.998666 
9.151068e+2, 2.4563129e+2, -191503.45, -739497.25, -17270.244, -0.032340076, -0.093431786, -190959.72, 341845.47, 0.0, 10.003967, 9.996707 
9.1512614e+2, 2.5562793e+2, -276309.2, -726020.25, -44931.54, 0.0823284, -0.10328465, -271863.9, 162975.72, 0.0, 10.002697, 9.996738 
9.1514516e+2, 2.6562497e+2, -93837.31, -591132.56, 8604.116, 0.040308807, -0.07106636, -93688.49, 243181.25, 0.0, 10.003294, 9.996704 
9.1516364e+2, 2.756222e+2, 300197.38, -347730.16, 14842.812, -0.12444038, -0.022144504, 300537.22, 539434.44, 0.000000052436313, 10.005315, 9.996731 
9.1518426e+2, 2.856192e+2, 410848.88, -259317.84, -5490.6855, -0.04007911, 0.013865329, 410893.84, 551821.3, 0.000001751838, 10.005471, 9.99659 
9.152065e+2, 2.9561597e+2, 320198.56, -256690.16, 9861.027, 0.23997132, 0.026365405, 320367.06, 363327.5, 0.000008929774, 10.004194, 9.996549 
9.1522497e+2, 3.0561146e+2, 416766.28, -311489.38, 26953.354, 0.11791844, -0.017877327, 417762.5, 417762.5, 0.000026265041, 10.005068, 9.9954195 
9.152409e+2, 3.1560627e+2, 921316.56, 164653.67, 12533.481, -0.26657447, -0.08313699, 921524.1, 921524.1, 0.00005621418, 10.007526, 9.997507 
9.2487353e+2, 1.256149e+2, -2089893.0, -1585112.4, -25281.398, -0.30271775, -0.24604332, -1583849.3, 125116.63, 0.0000053718704, 9.996082, 10.002776 
9.248939e+2, 1.3561872e+2, -1843216.5, -1448302.0, -58658.85, -0.17949419, -0.13352102, -1439773.3, 171150.22, 0.00000033393198, 9.997246, 10.002487 
9.249134e+2, 1.4562036e+2, -1803444.3, -1663164.8, -11242.848, -0.21454144, -0.07642708, -1662269.4, -149361.23, 0.0, 9.998075, 9.999934 
9.249336e+2, 1.5561976e+2, -1603250.6, -1507943.1, 21060.365, -0.2549968, -0.13950604, -1503496.8, -88577.4, 0.0, 9.998742, 10.000003 
9.249542e+2, 1.6562015e+2, -1390889.9, -1346994.5, -29351.98, -0.17191644, -0.10365807, -1332292.0, -15374.332, 0.0, 9.999491, 10.000075 
9.2497504e+2, 1.7562129e+2, -1178118.1, -1193694.8, -44213.555, 0.010062584, 0.00072420086, -1141012.1, 77893.695, 0.0, 10.000278, 10.000076 
9.2499495e+2, 1.8562086e+2, -1130236.5, -1183237.0, -10072.753, 0.022556514, -0.017852055, -1128386.6, -7478.4136, 0.0, 10.000203, 9.999513 
9.250141e+2, 1.956191e+2, -1145843.3, -1142659.5, -25736.113, -0.09873911, -0.14785239, -1118466.0, -95543.26, 0.0, 9.999436, 9.999488 
9.250335e+2, 2.0561801e+2, -1031960.75, -1131007.9, -85455.17, -0.07483279, -0.15977274, -982716.0, -57781.637, 0.0, 9.999954, 9.998643 
9.250532e+2, 2.1561733e+2, -708606.0, -923920.1, -56240.48, 0.062741116, -0.09728889, -694801.0, 132143.67, 0.0, 10.001495, 9.998651 
9.2507243e+2, 2.2561622e+2, -529706.9, -835400.06, -7648.264, 0.06794269, -0.04933109, -529515.6, 199440.63, 0.0, 10.002262, 9.998217 
9.250913e+2, 2.356147e+2, -411341.2, -734617.8, -51046.406, -0.03130811, -0.027352136, -403472.3, 227497.3, 0.0, 10.002432, 9.998155 
9.251105e+2, 2.4561197e+2, -351565.8, -840086.9, -121258.83, -0.00021440802, -0.025884949, -323123.38, 209873.4, 0.0, 10.002967, 9.996499 
9.251299e+2, 2.556082e+2, -126482.01, -673113.56, -97876.08, 0.13267024, -0.05684174, -109485.48, 325550.25, 0.0, 10.003805, 9.996569 
9.251491e+2, 2.6560482e+2, -2246.5867, -507322.38, 20432.234, 0.09188019, -0.07484828, -1421.3734, 335646.75, 0.0, 10.003752, 9.997059 
9.2516816e+2, 2.7560169e+2, -11929.756, -460603.56, 35472.24, -0.08251576, -0.09987295, -9142.628, 229953.69, 0.00000028041134, 10.003009, 9.997064 
9.2518884e+2, 2.855989e+2, 106333.555, -422018.94, -13288.967, -0.024023509, -0.04986311, 106667.586, 247791.89, 0.0000031511508, 10.003442, 9.996451 
9.252107e+2, 2.955964e+2, 397750.44, -235976.03, -31508.027, 0.2166405, 0.050202433, 399313.1, 442465.63, 0.000012359395, 10.004792, 9.996407 
9.252301e+2, 3.0559194e+2, 546324.94, -257754.2, 34101.62, 0.08127947, 0.023887383, 547768.6, 547768.6, 0.00003186198, 10.005995, 9.995341 
9.252479e+2, 3.1558713e+2, 848126.0, 111015.5, 2956.78, -0.29281598, 0.00031116128, 848137.9, 848137.9, 0.000062850515, 10.007099, 9.997344 
9.348702e+2, 1.2559885e+2, -2191928.0, -1794424.0, 22580.053, -0.24998099, 0.07187336, -1793145.5, -84021.9, 0.000009857008, 9.996074, 10.001346 
9.3489075e+2, 1.3559775e+2, -1933881.6, -1640978.3, -15386.874, -0.22486028, -0.15853699, -1640172.1, -29039.64, 0.0000009955157, 9.997268, 10.001154 
9.3491167e+2, 1.4559908e+2, -1735835.4, -1531802.5, 10300.015, -0.19443804, -0.119650215, -1531283.9, -18163.81, 0.00000000002439963, 9.998108, 10.000823 
9.349345e+2, 1.5560168e+2, -1546417.6, -1391608.0, 47344.57, -0.04057385, 0.05356654, -1378276.9, 36819.723, 0.0, 9.998746, 10.000802 
9.3495536e+2, 1.6560185e+2, -1422992.1, -1411760.9, -1507.0085, -0.0012889918, 0.05317748, -1411562.3, -94466.43, 0.0, 9.999484, 9.999634 
9.3497473e+2, 1.7560004e+2, -1208543.4, -1256912.6, -16942.629, -0.050196093, -0.09562171, -1203199.3, 15914.322, 0.0, 10.000278, 9.999641 
9.3499446e+2, 1.8559936e+2, -1149279.3, -1221186.4, -41238.39, -0.050676294, -0.10509123, -1130522.0, -9401.315, 0.0, 10.0001955, 9.999256 
9.3501437e+2, 1.9559948e+2, -1160028.0, -1170076.6, -47661.688, -0.014761408, -0.02285595, -1117126.5, -94005.89, 0.0, 9.999428, 9.999302 
9.350337e+2, 2.0559871e+2, -981350.1, -1026584.75, -30051.813, -0.05434772, -0.031767283, -966355.56, -41228.605, 0.0, 9.999952, 9.999362 
9.350526e+2, 2.1559715e+2, -668118.9, -835967.4, -576.4103, -0.15297146, -0.1285637, -668116.9, 159022.25, 0.0, 10.001476, 9.999265 
9.350729e+2, 2.2559589e+2, -601692.9, -980524.94, -3738.587, -0.11546145, -0.071363315, -601656.0, 127497.234, 0.0, 10.002242, 9.997231 
9.350944e+2, 2.355948e+2, -478591.72, -868270.75, -41292.4, 0.031195184, 0.09000659, -474264.22, 156905.63, 0.0, 10.002404, 9.997251 
9.3511426e+2, 2.4559213e+2, -321730.8, -771918.1, -90744.26, 0.07896103, 0.11598905, -304127.8, 229070.19, 0.0, 10.00294, 9.99698 
9.3513286e+2, 2.5558817e+2, -96499.945, -604643.4, -67590.37, 0.04915076, 0.018738477, -87663.13, 347572.75, 0.0, 10.003778, 9.997053 
9.351526e+2, 2.6558438e+2, 35175.61, -428324.97, -9183.616, 0.058888055, -0.09443061, 35357.5, 372626.53, 0.0000000040089305, 10.003745, 9.997605 
9.3517303e+2, 2.7558056e+2, 22636.547, -390912.4, 13084.431, 0.09848023, -0.23999323, 23050.117, 262349.84, 0.00000059706645, 10.003016, 9.9975395 
9.3519276e+2, 2.8557757e+2, 68731.58, -503006.1, 35557.52, 0.018348629, -0.20609964, 70934.484, 212263.33, 0.000004362159, 10.003455, 9.995888 
9.352118e+2, 2.9557523e+2, 361396.78, -315120.53, 21396.06, -0.15753265, -0.03418425, 362072.78, 405429.44, 0.000015169351, 10.0048065, 9.995855 
9.3523365e+2, 3.0557105e+2, 532667.3, -283302.25, 74527.33, -0.16558923, 0.0018716289, 539418.5, 539418.5, 0.000036464193, 10.00598, 9.995174 
9.3525815e+2, 3.1556717e+2, 812325.94, 61626.043, 49129.254, 0.014629988, 0.0888177, 815527.5, 815527.5, 0.00006780668, 10.00699, 9.997058 
9.448658e+2, 1.255781e+2, -2343903.8, -1912758.6, -76577.86, -0.24629739, 0.13797306, -1899561.3, -190235.67, 0.000016753027, 9.995223, 10.000948 
9.448881e+2, 1.3557586e+2, -2040668.9, -1732665.4, -52542.777, -0.1825778, -0.1645533, -1723948.8, -112600.74, 0.000002343361, 9.996714, 10.000791 
9.4490993e+2, 1.45577e+2, -1840267.8, -1530169.9, -47760.727, -0.13485292, -0.151189, -1522980.5, -9643.72, 0.0000000053592455, 9.99717, 10.001285 
9.449328e+2, 1.555801e+2, -1792199.4, -1460510.4, -43280.355, 0.011481082, 0.026365103, -1454955.9, -39650.285, 0.0, 9.996845, 10.001247 
9.449539e+2, 1.6558057e+2, -1705079.3, -1514152.5, -40434.637, 0.008270145, 0.019064037, -1505942.3, -188641.14, 0.0, 9.997402, 9.999937 
9.449736e+2, 1.755789e+2, -1424404.0, -1328400.6, -5102.168, -0.112020425, -0.1433442, -1328130.1, -108812.3, 0.0, 9.998659, 9.999931 
9.449939e+2, 1.855785e+2, -1212807.4, -1259019.0, -24843.807, -0.103461176, -0.13755862, -1201985.4, -80661.49, 0.0, 9.999797, 9.999184 
9.450147e+2, 1.955789e+2, -957830.06, -1081082.0, -20974.115, 0.0060572755, -0.01944452, -954358.6, 68964.17, 0.0, 10.0008545, 9.999224 
9.4503474e+2, 2.0557824e+2, -766829.2, -928518.06, -705.3381, -0.019518258, -0.011389709, -766826.06, 158502.17, 0.0, 10.00145, 9.999314 
9.4505405e+2, 2.1557666e+2, -641525.3, -826792.25, -34631.73, -0.15262324, -0.103857055, -635263.25, 192076.25, 0.0, 10.001678, 9.9992285 
9.450748e+2, 2.2557503e+2, -688197.44, -1025036.1, -51655.605, -0.120304555, -0.08119655, -680453.9, 48903.043, 0.0, 10.001662, 9.997203 
9.4509643e+2, 2.3557325e+2, -615928.25, -933545.9, -19260.926, 0.044742197, 0.014921551, -614764.5, 16615.674, 0.0, 10.001461, 9.997254 
9.451167e+2, 2.4557084e+2, -423767.25, -781506.9, -1039.246, 0.07549746, 0.04608196, -423764.22, 109641.56, 0.0, 10.002067, 9.997336 
9.4513595e+2, 2.5556785e+2, -142601.94, -592304.06, 6355.9307, -0.000051726063, 0.009197868, -142512.13, 292921.97, 0.0, 10.00331, 9.997364 
9.4515616e+2, 2.6556444e+2, 52634.03, -477505.38, -20970.434, 0.025552463, -0.052002534, 53462.25, 390927.13, 0.000000020942014, 10.00411, 9.997092 
9.4517714e+2, 2.7556062e+2, 216856.06, -351197.94, -75317.13, 0.13115501, -0.14897382, 226672.56, 466171.28, 0.0000007737001, 10.004581, 9.997061 
9.451973e+2, 2.8555706e+2, 325343.28, -366565.78, -16211.471, 0.04537303, -0.15083203, 325722.9, 467255.28, 0.0000047443664, 10.005168, 9.995999 
9.452167e+2, 2.9555377e+2, 518227.97, -225135.38, 11733.733, -0.19061455, -0.083836086, 518413.16, 561978.94, 0.00001594417, 10.00583, 9.995979 
9.4523937e+2, 3.0554917e+2, 509061.1, -286699.4, 70995.6, -0.17880775, -0.100175336, 515345.5, 515345.5, 0.00003839636, 10.005783, 9.995249 
9.452648e+2, 3.1554574e+2, 540235.8, -79059.76, 55838.086, 0.08296429, 0.024291346, 545230.1, 545230.1, 0.00007174272, 10.005157, 9.996975 
9.5486015e+2, 1.2555262e+2, -2291641.8, -1812530.9, -17291.025, -0.33920562, -0.049793433, -1811907.6, -102335.35, 0.00002677623, 9.995252, 10.001624 
9.54886e+2, 1.3555309e+2, -1995770.5, -1639945.6, -1239.645, -0.06348461, -0.1503834, -1639941.3, -28372.066, 0.0000047533053, 9.99671, 10.00143 
9.5490795e+2, 1.4555416e+2, -1840140.5, -1528868.5, -62536.73, -0.04830966, -0.1743355, -1516774.3, -3216.422, 0.000000046136613, 9.997164, 10.001298 
9.549284e+2, 1.5555495e+2, -1786448.6, -1448235.8, -51045.723, -0.116372466, -0.23064086, -1440699.5, -25152.309, 0.0, 9.996842, 10.001333 
9.5494956e+2, 1.655563e+2, -1631704.1, -1360130.4, 5668.032, -0.16364543, -0.2107986, -1360012.1, -42478.53, 0.0, 9.997394, 10.000997 
9.5497143e+2, 1.7555802e+2, -1354296.9, -1182494.3, 44019.875, -0.1919075, -0.14203188, -1171872.0, 47646.13, 0.0, 9.998655, 10.000935 
9.5499325e+2, 1.8555835e+2, -1206852.9, -1247329.5, 12957.897, -0.15061615, -0.11231997, -1203060.0, -81543.086, 0.0, 9.999798, 9.999265 
9.55015e+2, 1.9555745e+2, -957445.7, -1078104.9, 18105.166, -0.04974626, -0.13219544, -954787.5, 68740.805, 0.0, 10.000843, 9.99925 
9.550365e+2, 2.0555666e+2, -825840.2, -1048370.3, 4953.834, 0.013081072, -0.09563206, -825729.94, 99807.625, 0.0, 10.001436, 9.998499 
9.5505774e+2, 2.1555586e+2, -695801.06, -932822.5, -25828.87, 0.044161897, -0.028387915, -693019.06, 134526.75, 0.0, 10.001648, 9.998516 
9.55078e+2, 2.2555363e+2, -628194.75, -894634.8, -62150.53, 0.035607647, -0.0795523, -614410.5, 115156.695, 0.0, 10.001636, 9.998111 
9.5509744e+2, 2.3555014e+2, -556183.2, -807933.5, -22725.617, -0.004868918, -0.24510331, -554148.2, 77451.836, 0.0, 10.001451, 9.998123 
9.551178e+2, 2.4554813e+2, -408497.6, -747576.25, 43294.992, -0.026720528, -0.22838405, -403056.8, 130563.055, 0.0, 10.002057, 9.997573 
9.551389e+2, 2.5554723e+2, -136929.38, -574086.7, 51357.52, -0.03325946, -0.07955352, -130976.91, 304653.16, 0.0, 10.0032835, 9.997501 
9.551598e+2, 2.65545e+2, -55834.445, -699434.94, -5698.321, -0.019385628, 0.05187576, -55783.996, 281871.47, 0.000000028899002, 10.004093, 9.99558 
9.5518047e+2, 2.7554166e+2, 117605.01, -554515.1, -54481.39, 0.008421465, 0.15378085, 121992.57, 361686.5, 0.0000008053044, 10.004566, 9.995674 
9.552024e+2, 2.8553733e+2, 372164.9, -261213.58, 8277.044, 0.03885324, 0.097818, 372273.06, 514008.34, 0.0000046852656, 10.005133, 9.996739 
9.552252e+2, 2.9553214e+2, 558886.6, -125696.12, 35788.574, 0.073789895, -0.09932655, 560752.5, 604531.94, 0.000015636057, 10.005763, 9.9966955 
9.55247e+2, 3.055265e+2, 522779.6, -246906.95, 46468.777, 0.00998879, -0.26884195, 525574.94, 525574.94, 0.00003864153, 10.005734, 9.995546 
9.5526826e+2, 3.1552306e+2, 549369.75, -61903.633, 38669.04, -0.09668011, -0.17283083, 551806.25, 551806.25, 0.0000749125, 10.005166, 9.997089 
9.64857e+2, 1.255271e+2, -2041257.9, -1644109.9, 34426.582, -0.25613192, -0.26064062, -1641147.6, 68671.195, 0.000040530904, 9.996771, 10.00204 
9.648823e+2, 1.3553034e+2, -2031963.3, -1614483.9, 13049.021, -0.07744858, -0.12519109, -1614076.4, -2286.3208, 0.000008656152, 9.99628, 10.001808 
9.6490425e+2, 1.4553186e+2, -1851727.3, -1526261.4, -42104.434, -0.12351385, -0.124244355, -1520902.8, -7128.197, 0.00000019058375, 9.997057, 10.001363 
9.64925e+2, 1.5553117e+2, -1481467.0, -1293708.8, -34274.93, -0.23911203, -0.33523035, -1287647.6, 128130.36, 0.0, 9.998909, 10.001394 
9.6494704e+2, 1.655327e+2, -1355053.4, -1219993.4, -35299.566, -0.25075147, -0.30104312, -1211323.9, 106439.67, 0.0, 9.999267, 10.001055 
9.649701e+2, 1.7553599e+2, -1384006.8, -1187432.0, -74443.64, -0.17721012, -0.0813238, -1162421.9, 57313.29, 0.0, 9.998414, 10.001015 
9.649927e+2, 1.8553676e+2, -1353880.6, -1279237.5, -94992.96, -0.121262, -0.030675493, -1214497.5, -92767.37, 0.0, 9.998622, 9.999615 
9.6501493e+2, 1.9553536e+2, -1103617.3, -1109993.8, -74754.8, -0.077869505, -0.13481903, -1031982.75, -8237.735, 0.0, 9.999676, 9.999595 
9.650369e+2, 2.0553459e+2, -1033595.3, -1135245.0, -75305.97, -0.014162655, -0.11703094, -993567.75, -67813.68, 0.0, 9.999959, 9.998611 
9.650585e+2, 2.1553424e+2, -979411.1, -1055476.6, -39132.188, 0.06430923, -0.016854146, -962874.5, -135115.25, 0.0, 9.999642, 9.99864 
9.6507925e+2, 2.2553234e+2, -751924.8, -916856.2, -29872.852, 0.052535113, -0.059498902, -746680.94, -16903.824, 0.0, 10.000624, 9.998447 
9.6509916e+2, 2.3552905e+2, -359580.88, -679687.3, -39002.76, -0.029887522, -0.23629138, -354897.2, 276908.9, 0.0, 10.002657, 9.998423 
9.6512026e+2, 2.4552687e+2, -257751.69, -724772.0, -36538.414, -0.04500182, -0.22755677, -254910.31, 278917.3, 0.0, 10.003308, 9.997126 
9.651422e+2, 2.5552547e+2, -230101.5, -666264.4, -79680.22, -0.0044514653, -0.08301092, -216001.0, 219842.94, 0.0, 10.002851, 9.997075 
9.651637e+2, 2.6552305e+2, -173351.1, -758863.44, -80061.625, 0.000912312, 0.049755685, -162601.02, 175271.13, 0.000000011800994, 10.003304, 9.995549 
9.651846e+2, 2.7551967e+2, 104229.87, -565187.2, -29104.03, -0.025904387, 0.15550466, 105492.83, 345403.75, 0.0000006359132, 10.004495, 9.995633 
9.652071e+2, 2.8551558e+2, 286191.28, -328987.75, 14711.926, 0.024367344, 0.13474657, 286542.9, 428494.6, 0.000004170383, 10.00465, 9.996508 
9.652307e+2, 2.955108e+2, 285597.22, -278424.16, -29745.467, 0.14026834, 0.0038812053, 287161.6, 331155.6, 0.000014838807, 10.003974, 9.996507 
9.6525294e+2, 3.0550525e+2, 430421.47, -218500.7, -4112.1826, 0.07796991, -0.18085593, 430447.53, 430447.53, 0.000038161408, 10.004787, 9.996194 
9.652743e+2, 3.1550193e+2, 817823.7, 123260.305, 6362.723, -0.08983297, -0.13902344, 817882.0, 817882.0, 0.000076293094, 10.006776, 9.997585 
9.7485614e+2, 1.2550162e+2, -2027861.4, -1624908.3, 23867.557, -0.024498047, -0.50095475, -1623499.4, 86564.9, 0.000058506626, 9.996802, 10.00216 
9.74877e+2, 1.3550772e+2, -2022534.4, -1597924.5, -191.08011, -0.2409707, -0.088368654, -1597924.4, 14084.801, 0.00001444443, 9.99629, 10.001919 
9.7489876e+2, 1.4551024e+2, -1846611.9, -1517305.3, 27514.256, -0.38490373, 0.0032969217, -1515022.3, -1036.6624, 0.0000005546723, 9.997062, 10.001423 
9.749226e+2, 1.5550885e+2, -1478873.5, -1292260.9, 32819.19, -0.37213206, -0.28376925, -1286657.4, 129340.086, 0.0, 9.998924, 10.001398 
9.7494614e+2, 1.6550992e+2, -1419967.6, -1358657.6, -70067.98, -0.26585358, -0.24608578, -1312832.3, 5158.095, 0.0, 9.999282, 10.000096 
9.749695e+2, 1.7551294e+2, -1444710.1, -1315710.6, -102334.75, -0.07823252, 0.04319803, -1259245.0, -39276.652, 0.0, 9.998421, 10.0001335 
9.749923e+2, 1.8551373e+2, -1310758.4, -1187914.1, -57301.47, -0.029320113, 0.10604737, -1165335.4, -43372.055, 0.0, 9.998612, 10.000245 
9.7501445e+2, 1.9551265e+2, -1060183.1, -1016428.1, -36334.508, -0.09266621, -0.031080026, -995893.1, 28079.578, 0.0, 9.9996605, 10.000245 
9.7503585e+2, 2.055121e+2, -962726.9, -987290.0, -90313.97, -0.11622364, -0.076347284, -883863.25, 42114.09, 0.0, 9.999952, 9.999631 
9.750565e+2, 2.1551187e+2, -913317.8, -917487.25, -46461.74, -0.10422787, -0.06509884, -868894.0, -40914.977, 0.0, 9.999637, 9.999591 
9.750785e+2, 2.2551115e+2, -769786.7, -952161.06, 43376.598, -0.08162738, -0.02172947, -759995.5, -30009.23, 0.0, 10.000614, 9.99821 
9.751017e+2, 2.3550993e+2, -384710.34, -723505.4, 32589.531, -0.04830061, 0.030960672, -381603.97, 250394.84, 0.0, 10.00262, 9.99814 
9.75124e+2, 2.4550703e+2, -338201.9, -886183.5, -57193.297, 0.0021495714, 0.04021101, -332296.25, 201732.69, 0.0, 10.003283, 9.996032 
9.751458e+2, 2.5550267e+2, -297812.47, -806295.4, -91593.58, 0.068063214, -0.004641235, -281816.8, 154257.61, 0.0, 10.002846, 9.996117 
9.7516763e+2, 2.6549867e+2, -79456.96, -564376.6, -35162.523, 0.06527394, -0.05403348, -76920.516, 261193.08, 0.00000000004166987, 10.0033045, 9.996885 
9.7518945e+2, 2.754949e+2, 184403.78, -390783.2, 14375.734, 0.005494376, -0.12296339, 184762.86, 424911.28, 0.00000027959933, 10.004461, 9.996848 
9.7521144e+2, 2.8549197e+2, 205263.47, -494744.7, -11947.467, -0.010858344, -0.021277986, 205467.31, 347647.6, 0.0000029871348, 10.004639, 9.995377 
9.752334e+2, 2.9548973e+2, 219907.55, -425972.84, -45189.863, 0.010356068, 0.21255845, 223053.98, 267263.88, 0.0000132142695, 10.004019, 9.995475 
9.752571e+2, 3.0548525e+2, 498543.78, -79042.58, 72012.195, 0.018445011, 0.1356951, 507386.72, 507386.72, 0.000036861016, 10.004797, 9.997148 
9.752825e+2, 3.1548202e+2, 861871.06, 238871.39, 85290.164, 0.050021406, 0.089227505, 873336.5, 873336.5, 0.00007531099, 10.006674, 9.998428 
9.848535e+2, 1.2547918e+2, -2211668.8, -1723714.3, -23947.664, 0.09757632, -0.33917236, -1722541.9, -12252.695, 0.00008108169, 9.995588, 10.002064 
9.848734e+2, 1.3548346e+2, -1977537.4, -1585753.1, -80745.48, -0.24361102, -0.099088795, -1569764.3, 42484.87, 0.000022462764, 9.996643, 10.00183 
9.8489547e+2, 1.4548603e+2, -1918165.1, -1554866.8, -52848.76, -0.38782024, 0.0035769588, -1547335.1, -33109.625, 0.0000013019285, 9.996584, 10.001396 
9.8492056e+2, 1.554862e+2, -1960658.8, -1526196.5, -56107.13, -0.30222186, -0.12709442, -1519067.8, -102842.695, 0.0, 9.995628, 10.00138 
9.8494464e+2, 1.6548695e+2, -1815914.3, -1560990.4, -108442.734, -0.21080273, -0.111473225, -1521101.3, -202880.45, 0.0, 9.996617, 9.999991 
9.84968e+2, 1.7548817e+2, -1335313.0, -1271809.5, -80235.16, -0.10901643, 0.008102155, -1217271.9, 2942.3062, 0.0, 9.999214, 10.000051 
9.849909e+2, 1.8548885e+2, -1121356.4, -1085828.0, -53590.543, -0.08146452, 0.057763427, -1047134.06, 75075.9, 0.0, 9.999865, 10.000343 
9.850135e+2, 1.9548903e+2, -1162929.0, -1054392.6, -75240.836, -0.115943946, 0.036394775, -1015891.1, 8317.15, 0.0, 9.998903, 10.00035 
9.850353e+2, 2.054888e+2, -1029385.06, -1001599.7, -154787.33, -0.14099151, 0.011344418, -860082.9, 66127.12, 0.0, 9.999414, 9.999795 
9.8505634e+2, 2.1548815e+2, -683614.0, -788714.3, -177590.58, -0.15650631, -0.03739508, -550961.75, 277253.88, 0.0, 10.001138, 9.999752 
9.8507935e+2, 2.254876e+2, -614576.1, -893207.1, -103401.07, -0.11790966, 0.026311873, -580396.4, 149825.38, 0.0, 10.001753, 9.998065 
9.8510385e+2, 2.3548713e+2, -562206.75, -820707.25, -110195.305, -0.03418918, 0.16763707, -521608.16, 110620.87, 0.0, 10.001455, 9.998034 
9.85127e+2, 2.4548438e+2, -455673.53, -882606.56, -136047.61, 0.021000074, 0.16941637, -416005.88, 118251.03, 0.0, 10.00222, 9.996568 
9.8514897e+2, 2.5547966e+2, -112525.92, -658188.4, -58010.895, 0.05103865, 0.036076583, -106426.8, 329876.0, 0.0, 10.003865, 9.996643 
9.8517126e+2, 2.6547542e+2, 92947.37, -447708.03, 1932.132, 0.04714773, -0.07634005, 92954.266, 431296.1, 0.0, 10.004345, 9.997185 
9.851937e+2, 2.754716e+2, 119023.74, -388900.4, -26033.047, 0.01702627, -0.1838745, 120354.55, 360730.4, 0.000000039431708, 10.003871, 9.997142 
9.8521596e+2, 2.8546894e+2, 224742.78, -470808.63, -21520.668, -0.01970136, -0.076194175, 225408.0, 367813.0, 0.000001731539, 10.004713, 9.995505 
9.8523796e+2, 2.954672e+2, 606108.8, -228989.94, 29849.566, -0.062879845, 0.19784352, 607174.4, 651604.9, 0.000011242027, 10.006629, 9.995572 
9.852622e+2, 3.054631e+2, 722051.3, -18736.01, 116222.6, -0.03555981, 0.1749071, 739857.56, 739857.56, 0.00003515084, 10.006539, 9.996724 
9.8528844e+2, 3.1546023e+2, 548699.25, 26583.36, 25165.883, 0.08303414, 0.20978956, 549909.44, 549909.44, 0.000073882904, 10.00478, 9.997883 
9.948488e+2, 1.2546006e+2, -2241266.5, -1780960.5, 22761.809, 0.060487434, 0.24842152, -1779837.8, -69346.86, 0.000108580556, 9.995573, 10.001679 
9.9487156e+2, 1.3545755e+2, -1999503.8, -1632351.3, -44505.824, -0.0923657, -0.15548435, -1627033.3, -14523.234, 0.000033028722, 9.996648, 10.001508 
9.9489456e+2, 1.4545915e+2, -1924401.6, -1569979.3, -92671.055, -0.13584834, -0.12819873, -1547211.1, -32716.264, 0.0000026281716, 9.996589, 10.001293 
9.949188e+2, 1.5546316e+2, -1965772.3, -1534562.5, -85088.92, -0.037644006, 0.13612159, -1518379.5, -101918.79, 0.00000000019976186, 9.995615, 10.001331 
9.9494237e+2, 1.6546386e+2, -1765445.1, -1450551.0, -11953.276, -0.09814435, 0.105092436, -1450097.9, -131643.2, 0.0, 9.996593, 10.000759 
9.9496543e+2, 1.7546171e+2, -1285554.9, -1169082.4, 13190.999, -0.28466406, -0.18972117, -1167607.1, 52865.42, 0.0, 9.999215, 10.000755 
9.949886e+2, 1.854621e+2, -1151415.0, -1149480.1, -92727.47, -0.29568714, -0.17996657, -1057715.0, 64755.066, 0.0, 9.999869, 9.999905 
9.95012e+2, 1.954645e+2, -1194312.5, -1120099.1, -106070.414, -0.16009657, 0.068292715, -1044832.1, -20380.854, 0.0, 9.998903, 9.9999 
9.9503505e+2, 2.0546477e+2, -1077891.4, -1099450.1, -92769.195, -0.1033445, 0.14734134, -995277.4, -68826.04, 0.0, 9.999403, 9.999128 
9.95058e+2, 2.1546312e+2, -732451.25, -883287.25, -115269.0, -0.109225005, 0.06539819, -670120.1, 158348.03, 0.0, 10.001106, 9.999118 
9.9508154e+2, 2.2546184e+2, -622134.56, -901750.1, -116691.66, -0.07268635, 0.08637797, -579834.8, 150647.6, 0.0, 10.00172, 9.998023 
9.9510556e+2, 2.354608e+2, -559921.2, -813348.4, -115727.34, -0.0005058644, 0.17779544, -515027.22, 117467.945, 0.0, 10.001442, 9.998092 
9.951289e+2, 2.45459e+2, -313704.72, -582214.94, -74913.1, -0.002568399, 0.162837, -294218.44, 240292.14, 0.0, 10.002195, 9.998641 
9.951517e+2, 2.5545648e+2, 15874.33, -380497.22, 1229.2225, -0.06476902, 0.04260839, 15878.142, 452407.16, 0.0, 10.003817, 9.998575 
9.951745e+2, 2.6545334e+2, 39436.625, -550768.9, -19379.99, -0.06410862, -0.017319068, 40072.3, 378629.44, 0.0, 10.004308, 9.996495 
9.9519736e+2, 2.754496e+2, 75563.664, -476661.16, -39093.883, -0.00813279, -0.042131282, 78317.52, 318911.63, 0.00000000041826836, 10.003859, 9.996548 
9.9522066e+2, 2.8544632e+2, 311166.28, -283826.13, 48342.81, -0.023956321, -0.03852471, 315068.5, 457695.25, 0.0000011020819, 10.00468, 9.996805 
9.952442e+2, 2.9544333e+2, 675234.0, -64061.13, 95289.195, -0.099797286, -0.021551477, 687318.5, 731974.3, 0.000009952612, 10.0065365, 9.996749 
9.952681e+2, 3.0543897e+2, 594464.1, -271849.75, 46582.465, -0.09636385, -0.038196508, 596961.7, 596961.7, 0.000033802113, 10.006484, 9.995013 
9.9529237e+2, 3.1543672e+2, 425656.25, -234896.75, -31506.467, -0.009135135, 0.22887892, 427155.6, 427155.6, 0.00007336009, 10.004804, 9.996076 
1.0048446e+3, 1.2543541e+2, -1936522.0, -1623254.5, -13541.779, -0.0076049604, 0.3647659, -1622670.3, 88069.39, 0.00014134821, 9.997619, 10.001775 
1.00486875e+3, 1.3543206e+2, -1955896.4, -1598015.3, -61597.707, -0.047366604, -0.1374254, -1587710.0, 25054.305, 0.000046426092, 9.996892, 10.001626 
1.0048922e+3, 1.4543347e+2, -1834916.6, -1537045.5, -91284.05, -0.058578853, -0.12973818, -1511296.8, 3453.6145, 0.00000474816, 9.997251, 10.001197 
1.00491576e+3, 1.554378e+2, -1546827.8, -1341003.5, -89327.08, -0.04189576, 0.17560944, -1307643.0, 109071.836, 0.000000004412824, 9.998526, 10.001256 
1.0049396e+3, 1.6543894e+2, -1435628.1, -1217248.6, 6478.0547, -0.12083866, 0.15913372, -1217056.6, 101646.61, 0.0, 9.998531, 10.001429 
1.0049639e+3, 1.7543742e+2, -1497394.0, -1200014.3, 21223.484, -0.2711456, -0.13911426, -1198507.3, 22204.57, 0.0, 9.997455, 10.001392 
1.0049879e+3, 1.8543768e+2, -1419370.5, -1322630.8, -86191.62, -0.27811095, -0.15195242, -1272164.3, -149454.3, 0.0, 9.9982195, 9.999512 
1.0050116e+3, 1.954393e+2, -984686.5, -1062073.9, -99711.336, -0.1683607, 0.055966634, -916424.3, 108276.05, 0.0, 10.000531, 9.999513 
1.0050355e+3, 2.0543939e+2, -830610.5, -1015038.56, -71372.39, -0.09332648, 0.15347014, -806216.44, 120486.57, 0.0, 10.001254, 9.998813 
1.0050595e+3, 2.1543814e+2, -821886.7, -957649.06, -72497.58, -0.0424891, 0.14202552, -790451.44, 38264.92, 0.0, 10.000631, 9.998834 
1.00508325e+3, 2.2543642e+2, -722939.8, -914480.3, -50938.707, -0.023635514, 0.116014056, -710235.7, 20497.936, 0.0, 10.0008745, 9.9983425 
1.0051069e+3, 2.3543422e+2, -480370.88, -738942.4, -27386.639, -0.03386058, 0.057584032, -477502.03, 155253.13, 0.0, 10.001833, 9.998412 
1.00513056e+3, 2.4543281e+2, -293768.47, -538101.25, -28352.406, -0.054460578, 0.050138436, -290521.6, 244244.86, 0.0, 10.00218, 9.998953 
1.0051543e+3, 2.5543204e+2, -228255.36, -461963.56, -82356.89, -0.0788744, 0.0731541, -202149.55, 234620.05, 0.0, 10.001988, 9.998892 
1.00517794e+3, 2.6542974e+2, -179484.44, -650148.94, -131974.55, -0.070425026, 0.08212529, -145004.63, 193786.13, 0.0, 10.002782, 9.996546 
1.0052011e+3, 2.754261e+2, 156305.34, -431788.9, -102947.22, -0.036386486, 0.05876249, 173805.72, 414634.03, 0.0000000020595978, 10.004389, 9.996599 
1.00522526e+3, 2.854226e+2, 301400.3, -271604.9, -40643.605, -0.018569326, 0.035272453, 304268.84, 447130.78, 0.0000010676981, 10.00454, 9.996955 
1.0052501e+3, 2.9541928e+2, 239598.25, -257267.33, -79802.72, -0.009713839, 0.0031112789, 252100.94, 296993.22, 0.000009868184, 10.00347, 9.996896 
1.005274e+3, 3.054145e+2, 321124.4, -394824.9, -84734.5, -0.05922124, -0.06733425, 331016.28, 331016.28, 0.000034076777, 10.004571, 9.995086 
1.00529715e+3, 3.1541166e+2, 810108.5, -53536.277, -43102.277, -0.14591782, 0.13541083, 812254.3, 812254.3, 0.000074814954, 10.007466, 9.996037 
1.0148409e+3, 1.2540495e+2, -1888195.6, -1532759.9, -35485.16, -0.15362532, -0.025505532, -1529251.9, 181786.19, 0.0001798155, 9.997657, 10.002379 
1.0148648e+3, 1.3540705e+2, -1910693.6, -1510011.9, -84666.03, -0.13151348, -0.048847627, -1492856.1, 120155.01, 0.000062927356, 9.996913, 10.002221 
1.0148883e+3, 1.4540914e+2, -1844714.4, -1559495.6, -44710.824, -0.17982495, 0.0059374925, -1552651.0, -37660.336, 0.000007860604, 9.997259, 10.001039 
1.0149114e+3, 1.5541007e+2, -1553665.8, -1359169.5, -43633.9, -0.3408528, -0.010940407, -1349829.0, 67157.94, 0.000000028517778, 9.998542, 10.001123 
1.0149364e+3, 1.654122e+2, -1391153.9, -1130336.9, -37342.03, -0.3027198, 0.047255214, -1125095.9, 193870.55, 0.0, 9.998551, 10.002017 
1.01496324e+3, 1.7541538e+2, -1455779.4, -1118565.3, -13602.356, -0.08091487, 0.15779205, -1118017.5, 102913.89, 0.0, 9.99747, 10.0019455 
1.0149885e+3, 1.854157e+2, -1445417.1, -1374084.4, -1539.6339, -0.039712124, 0.1436856, -1374051.3, -251122.47, 0.0, 9.998209, 9.999164 
1.0150123e+3, 1.9541347e+2, -1011059.25, -1111456.6, -15920.899, -0.15584122, 0.0019859783, -1008595.0, 16359.862, 0.0, 10.000507, 9.999186 
1.0150364e+3, 2.0541272e+2, -831295.94, -1013225.6, -97818.37, -0.12678164, 0.029758018, -788682.94, 138281.56, 0.0, 10.001238, 9.998836 
1.01506084e+3, 2.154132e+2, -818744.8, -951832.4, -92979.445, 0.029173998, 0.18873315, -770950.25, 58010.293, 0.0, 10.00063, 9.998877 
1.0150845e+3, 2.2541134e+2, -679336.44, -818564.44, -17833.17, 0.014525916, 0.11262583, -677088.5, 53887.438, 0.0, 10.000853, 9.99901 
1.0151076e+3, 2.3540741e+2, -443355.47, -656465.9, 7437.1094, -0.14554925, -0.1856096, -443096.25, 189912.75, 0.0, 10.001807, 9.998991 
1.01513185e+3, 2.454059e+2, -391286.34, -735148.2, -38639.96, -0.14664413, -0.16122149, -386997.8, 148025.98, 0.0, 10.002156, 9.997611 
1.015157e+3, 2.5540638e+2, -315315.97, -644833.9, -85123.67, -0.0109249465, 0.122910544, -294625.34, 142398.48, 0.0, 10.001995, 9.997635 
1.0151815e+3, 2.654047e+2, -127916.61, -541534.3, -71937.4, 0.004485348, 0.21247159, -115762.24, 223280.19, 0.0, 10.002775, 9.997294 
1.0152051e+3, 2.754011e+2, 200559.34, -334818.72, -44686.816, -0.08199004, 0.119778425, 204263.63, 445341.2, 0.000000005189716, 10.004365, 9.997277 
1.0152298e+3, 2.8539795e+2, 235277.38, -408150.56, -82333.47, -0.016938172, 0.14368333, 245645.75, 388755.06, 0.0000013068751, 10.004537, 9.996019 
1.01525545e+3, 2.953951e+2, 186139.2, -377673.22, -109662.51, 0.18105121, 0.25515464, 206717.66, 251856.25, 0.000010945694, 10.003509, 9.996051 
1.0152796e+3, 3.0538967e+2, 436898.38, -150701.2, 27017.057, 0.047899432, 0.07562313, 438137.97, 438137.97, 0.000037146, 10.004553, 9.996772 
1.01530254e+3, 3.153851e+2, 892626.5, 159268.47, 71097.29, -0.35812038, -0.06592463, 899455.6, 899455.6, 0.00008031556, 10.007286, 9.997587 
1.0248379e+3, 1.2537816e+2, -2089723.1, -1654292.0, 37611.74, -0.15380277, -0.11951639, -1651067.0, 60234.24, 0.00022439056, 9.99638, 10.002161 
1.0248613e+3, 1.353819e+2, -1847229.9, -1500244.4, -89442.68, -0.19470377, 0.04330438, -1478545.6, 134716.1, 0.0000828242, 9.997435, 10.002039 
1.0248855e+3, 1.4538404e+2, -1786583.5, -1525029.3, -56434.79, -0.20265469, 0.109555826, -1513372.0, 1868.8275, 0.000012107546, 9.997627, 10.001099 
1.02490954e+3, 1.5538378e+2, -1764083.0, -1455401.8, -43013.367, -0.30210143, -0.035407484, -1449520.1, -32273.994, 0.00000009714164, 9.997076, 10.001169 
1.02493495e+3, 1.6538565e+2, -1593215.4, -1281330.5, -81672.79, -0.23883788, 0.020691695, -1261237.5, 57990.883, 0.0, 9.997396, 10.001538 
1.0249618e+3, 1.7538938e+2, -1339148.9, -1111945.9, -142268.48, -0.021390751, 0.23575728, -1043488.0, 177702.98, 0.0, 9.9984865, 10.001502 
1.02498755e+3, 1.8538992e+2, -1290188.0, -1252152.8, -89619.19, 0.008320965, 0.24417779, -1179555.6, -56369.55, 0.0, 9.99907, 9.999585 
1.02501236e+3, 1.9538765e+2, -1171606.6, -1141416.4, -50869.83, -0.12539127, 0.05594086, -1103449.3, -78239.664, 0.0, 9.999202, 9.999608 
1.0250369e+3, 2.053867e+2, -1032708.2, -1089237.5, -133686.03, -0.1244454, 0.033043943, -924331.56, 2888.2114, 0.0, 9.999764, 9.999024 
1.025061e+3, 2.153868e+2, -795350.56, -920427.3, -119909.38, -0.007933432, 0.13670488, -722651.0, 106568.11, 0.0, 10.000706, 9.999056 
1.0250852e+3, 2.2538531e+2, -610992.9, -790532.2, -45824.703, -0.01890359, 0.09174931, -599973.2, 131258.1, 0.0, 10.001341, 9.998968 
1.0251094e+3, 2.3538245e+2, -465592.1, -671992.75, -76158.01, -0.13544245, -0.095196255, -440533.5, 192721.48, 0.0, 10.001679, 9.998944 
1.02513425e+3, 2.4538068e+2, -366528.38, -759827.0, -107911.53, -0.12756582, -0.07565035, -338865.75, 196406.78, 0.0, 10.002491, 9.997276 
1.0251598e+3, 2.5537974e+2, -89171.805, -571813.9, -86451.57, -0.015848003, 0.10058204, -74153.78, 363132.2, 0.0, 10.003706, 9.997311 
1.02518484e+3, 2.6537764e+2, 75373.875, -441380.97, -59256.93, 0.0010161563, 0.16441719, 82081.87, 421390.6, 0.0, 10.004159, 9.997317 
1.0252095e+3, 2.7537456e+2, 139776.47, -358863.6, -88103.43, -0.058508407, 0.12031436, 154885.44, 396225.13, 0.00000000497102, 10.003929, 9.997318 
1.02523424e+3, 2.8537163e+2, 246037.98, -401590.84, -128071.664, -0.026018478, 0.16399111, 270444.94, 413814.56, 0.0000014883768, 10.004608, 9.996027 
1.0252593e+3, 2.9536873e+2, 558641.4, -193300.47, -93025.48, 0.08353937, 0.26929244, 569978.94, 615378.2, 0.000012380366, 10.006054, 9.996089 
1.0252841e+3, 3.0536377e+2, 606416.9, -3004.6028, 33864.336, -0.0014005383, 0.10234004, 608292.9, 608292.9, 0.00004175958, 10.005437, 9.997361 
1.02530874e+3, 3.1535998e+2, 300858.94, -70510.47, -5767.931, -0.2356859, -0.019175781, 300948.5, 300948.5, 0.00008882579, 10.002988, 9.998072 
1.0348354e+3, 1.2535536e+2, -2171222.5, -1819668.3, 79678.48, -0.033251513, 0.10601755, -1802452.4, -90926.516, 0.00027553758, 9.996366, 10.001032 
1.03485815e+3, 1.353568e+2, -1920569.5, -1650477.6, -50425.63, -0.2498335, 0.1457986, -1641370.4, -27855.441, 0.000106410545, 9.997429, 10.00101 
1.0348836e+3, 1.4535832e+2, -1762942.5, -1480554.8, -80037.734, -0.14202222, 0.18399794, -1459447.1, 56053.176, 0.000017580353, 9.9976425, 10.001399 
1.0349103e+3, 1.5535899e+2, -1745691.3, -1420023.4, -60488.414, 0.06930092, 0.10175954, -1409151.5, 8340.377, 0.00000023822265, 9.997085, 10.00141 
1.0349354e+3, 1.6535938e+2, -1703579.4, -1512587.1, -43436.01, 0.06637611, 0.08018044, -1503172.9, -183684.39, 0.0, 9.997403, 9.9999485 
1.0349595e+3, 1.7535949e+2, -1442990.1, -1329475.3, -101402.74, -0.10651766, 0.09315099, -1270026.4, -48536.043, 0.0, 9.99849, 10.000009 
1.03498496e+3, 1.8536037e+2, -1208404.9, -1080101.6, -87888.195, -0.1536766, 0.1453096, -1035442.56, 88039.164, 0.0, 9.999061, 10.000771 
1.03501186e+3, 1.9536187e+2, -1091286.1, -973610.06, -44525.043, -0.09198314, 0.21364331, -958661.94, 66802.58, 0.0, 9.999196, 10.000763 
1.0350369e+3, 2.0536135e+2, -1010111.25, -1039034.6, -101658.85, -0.099124126, 0.1623834, -921890.6, 5577.685, 0.0, 9.999748, 9.999376 
1.0350602e+3, 2.15359e+2, -776560.94, -876567.75, -84119.5, -0.16565529, -0.012416371, -728705.1, 100786.18, 0.0, 10.000683, 9.999369 
1.0350855e+3, 2.253584e+2, -666192.6, -898656.9, -35807.97, -0.138194, 0.051460054, -660801.9, 70696.98, 0.0, 10.001312, 9.9982395 
1.0351122e+3, 2.3535925e+2, -516071.56, -773042.56, -60507.098, -0.027092362, 0.30908546, -502537.22, 130956.24, 0.0, 10.00166, 9.9982605 
1.03513785e+3, 2.4535708e+2, -328685.0, -674131.44, -63381.406, -0.020304544, 0.28993306, -317423.16, 218090.0, 0.0, 10.002459, 9.997881 
1.0351627e+3, 2.553522e+2, -53670.484, -492759.47, -39872.33, -0.10269962, 0.010051305, -50079.17, 387476.38, 0.0, 10.003677, 9.997869 
1.03518814e+3, 2.6534882e+2, 24122.426, -539734.56, -68475.97, -0.08858609, -0.048834268, 32319.135, 371907.47, 0.0, 10.004124, 9.996659 
1.03521414e+3, 2.7534664e+2, 92593.29, -449926.9, -90348.07, 0.011854554, 0.066513464, 107243.69, 348857.25, 0.00000000058486826, 10.003896, 9.996712 
1.0352385e+3, 2.8534383e+2, 298316.4, -278139.44, -71751.83, -0.062439084, 0.10283277, 307113.16, 450755.44, 0.0000014325683, 10.004545, 9.996904 
1.0352616e+3, 2.9534033e+2, 604811.2, -77962.734, -38224.293, -0.2875144, 0.06078661, 606944.44, 652618.4, 0.000013303213, 10.005968, 9.996923 
1.03528745e+3, 3.0533677e+2, 570598.9, -67798.086, -55513.324, -0.20756131, 0.016873688, 575390.2, 575390.2, 0.000045538498, 10.005393, 9.996938 
1.0353157e+3, 3.15336e+2, 270879.75, -145373.39, -87264.375, 0.14764962, 0.24265875, 288433.78, 288433.78, 0.000096721706, 10.0030365, 9.997538 
1.04483165e+3, 1.2533039e+2, -1995338.4, -1762661.4, 3117.4807, -0.107491724, 0.22720192, -1762619.6, -50845.54, 0.0003338259, 9.997688, 10.000784 
1.04485534e+3, 1.3533074e+2, -2051486.3, -1735680.3, -67894.78, -0.23663859, 0.178364, -1721702.3, -107927.375, 0.00013404706, 9.996621, 10.000814 
1.0448817e+3, 1.4533201e+2, -1868031.0, -1527525.3, -55843.383, -0.061544094, 0.20041479, -1518600.8, -2838.6497, 0.000024406929, 9.99691, 10.001429 
1.0449085e+3, 1.5533331e+2, -1555003.9, -1327219.0, -62241.934, 0.108948536, 0.18123722, -1311321.0, 106424.19, 0.0000004785213, 9.998389, 10.001417 
1.0449337e+3, 1.6533314e+2, -1449237.3, -1440569.0, 6589.2026, 0.06426864, 0.12315106, -1437016.3, -117269.76, 0.0, 9.99937, 9.999493 
1.0449582e+3, 1.7533158e+2, -1265099.1, -1291116.6, 29755.846, -0.14395373, 0.014555618, -1245632.8, -23868.445, 0.0, 9.999919, 9.99958 
1.044984e+3, 1.853322e+2, -1103938.4, -1009466.2, 3324.6147, -0.18492857, 0.05192293, -1009349.3, 114408.42, 0.0, 9.999688, 10.000953 
1.0450108e+3, 1.9533469e+2, -1143448.8, -979256.94, -30015.342, -0.0865188, 0.20153914, -973942.0, 51788.473, 0.0, 9.998753, 10.000937 
1.0450366e+3, 2.0533465e+2, -1099648.6, -1084768.3, -74032.18, -0.07094345, 0.18948682, -1017803.3, -90073.42, 0.0, 9.999146, 9.9993515 
1.0450613e+3, 2.1533228e+2, -776034.06, -878711.1, -90032.14, -0.122743174, 0.01616515, -723731.75, 106021.96, 0.0, 10.000698, 9.999345 
1.0450873e+3, 2.2533168e+2, -636298.1, -908255.44, -63849.684, -0.09251238, 0.09181446, -622053.7, 109708.78, 0.0, 10.001621, 9.998024 
1.04511425e+3, 2.353325e+2, -480662.84, -778339.4, -55863.78, 0.0070045143, 0.36954316, -470524.4, 163234.4, 0.0, 10.001999, 9.998062 
1.0451404e+3, 2.4533033e+2, -343230.3, -641542.44, -37970.51, 0.002962899, 0.34125933, -338473.1, 197304.84, 0.0, 10.002184, 9.998239 
1.04516566e+3, 2.5532553e+2, -247099.44, -544177.6, -35634.805, -0.08766601, 0.030636605, -242884.8, 194932.5, 0.0, 10.002174, 9.998236 
1.0451914e+3, 2.6532203e+2, -186240.45, -641341.8, -53547.832, -0.09345483, -0.057278648, -180024.83, 159825.22, 0.0, 10.002685, 9.996652 
1.04521744e+3, 2.7531955e+2, 57289.684, -465281.66, -32968.797, -0.026836865, 0.028587626, 59361.457, 301239.72, 0.0, 10.00365, 9.996722 
1.0452424e+3, 2.8531694e+2, 238403.14, -236761.27, 3084.104, -0.07713554, 0.056585044, 238423.16, 382326.78, 0.0000011586616, 10.003827, 9.997537 
1.0452667e+3, 2.9531425e+2, 252310.58, -179751.61, 13490.132, -0.22161146, 0.027328385, 252731.36, 298657.38, 0.000013262513, 10.003254, 9.997529 
1.0452926e+3, 3.0531105e+2, 310490.66, -244049.69, -37234.145, -0.13854389, 0.015543057, 312979.56, 312979.56, 0.000046936297, 10.003825, 9.99648 
1.0453198e+3, 3.153102e+2, 575605.94, -57047.32, -73274.1, 0.14534326, 0.2780186, 583981.7, 583981.7, 0.00010091263, 10.0053835, 9.997014 
1.05482616e+3, 1.2530322e+2, -1941429.0, -1659517.5, -44159.926, -0.43173409, 0.23899885, -1652761.9, 59283.926, 0.00039971265, 9.997723, 10.001477 
1.0548527e+3, 1.3530372e+2, -2001779.9, -1634455.0, -104637.04, -0.16626278, 0.13493551, -1606739.1, 7302.324, 0.00016604259, 9.996627, 10.00151 
1.0548795e+3, 1.453052e+2, -1886048.6, -1565905.5, -1494.0419, 0.02799326, 0.1568696, -1565898.5, -49873.18, 0.000032768716, 9.996912, 10.001164 
1.0549036e+3, 1.5530694e+2, -1571781.6, -1362739.0, -6020.4253, -0.2088555, 0.20605104, -1362565.8, 55439.42, 0.0000008393984, 9.99839, 10.001174 
1.0549297e+3, 1.6530703e+2, -1400352.8, -1341096.3, 25899.031, -0.27408233, 0.15520152, -1331372.4, -11371.119, 0.0, 9.999377, 10.000172 
1.054958e+3, 1.7530568e+2, -1217500.4, -1197964.6, 50319.457, -0.15276106, -0.0031380414, -1156473.8, 65538.625, 0.0, 9.99994, 10.00021 
1.0549845e+3, 1.8530546e+2, -1160031.3, -1126110.8, -35067.42, -0.10166634, -0.03792796, -1104117.6, 19895.973, 0.0, 9.99969, 10.000151 
1.0550093e+3, 1.9530624e+2, -1200537.9, -1096042.8, -61306.4, -0.12345418, 0.0210976, -1067740.5, -41734.008, 0.0, 9.998744, 10.000141 
1.0550359e+3, 2.0530665e+2, -1130433.0, -1145549.4, -17959.664, -0.05561328, 0.11374592, -1118505.9, -190502.03, 0.0, 9.999133, 9.99894 
1.0550642e+3, 2.1530664e+2, -806356.8, -937737.8, -31194.328, 0.09854036, 0.21528287, -799326.44, 30679.836, 0.0, 10.00068, 9.998949 
1.0550908e+3, 2.253052e+2, -621359.7, -871507.44, -51599.297, 0.09596056, 0.21449131, -611134.06, 120887.71, 0.0, 10.001595, 9.99829 
1.05511576e+3, 2.3530242e+2, -464624.84, -741201.56, -40135.934, -0.04467666, 0.10345052, -458918.2, 175131.45, 0.0, 10.001979, 9.998327 
1.0551418e+3, 2.4530062e+2, -337087.06, -623350.56, -39719.53, -0.0700617, 0.09151192, -331678.13, 204387.6, 0.0, 10.00216, 9.998376 
1.0551688e+3, 2.5529963e+2, -238357.52, -524029.7, -33023.133, 0.008656229, 0.15104128, -234589.8, 203482.05, 0.0, 10.002162, 9.998383 
1.0551947e+3, 2.6529709e+2, -148310.42, -556590.3, -18732.053, -0.03361594, 0.12260605, -147452.8, 192642.73, 0.0, 10.002659, 9.997245 
1.0552195e+3, 2.7529314e+2, 94370.24, -382601.13, 4092.2314, -0.18495324, -0.00009841523, 94405.35, 336540.7, 0.0, 10.003623, 9.997303 
1.0552462e+3, 2.8529096e+2, 263896.38, -179459.4, -20896.732, -0.09251842, 0.020495128, 264879.13, 409034.28, 0.00000079141506, 10.003807, 9.99794 
1.0552744e+3, 2.952903e+2, 281818.2, -123521.484, -6807.7593, 0.22207735, 0.15321365, 281932.47, 328090.13, 0.0000119748265, 10.00327, 9.99791 
1.0552996e+3, 3.0528653e+2, 277744.34, -313529.13, 16445.357, 0.16861938, 0.09265305, 278201.38, 278201.38, 0.00004487003, 10.00383, 9.996002 
1.05532154e+3, 3.1528276e+2, 535215.9, -132986.42, -10093.16, -0.22396457, 0.11003918, 535368.3, 535368.3, 0.00009877793, 10.005345, 9.996513 
1.0648231e+3, 1.2527621e+2, -2184329.3, -1742024.3, 18879.969, -0.4194572, 0.19783327, -1741219.9, -28908.57, 0.00047318285, 9.995917, 10.001778 
1.064849e+3, 1.3527739e+2, -1878551.6, -1541978.9, -73347.6, -0.22269322, 0.12900032, -1526689.1, 87609.586, 0.00020250746, 9.997333, 10.0018015 
1.0648766e+3, 1.4527881e+2, -1715741.1, -1520442.8, 45273.867, -0.020292915, 0.1467271, -1510457.9, 5825.2393, 0.000042863663, 9.998241, 10.0008335 
1.06490135e+3, 1.5528e+2, -1557556.5, -1389844.0, 28938.705, -0.275411, 0.1762835, -1384991.0, 33278.066, 0.0000013547858, 9.998639, 10.000864 
1.0649281e+3, 1.6528031e+2, -1548745.1, -1373326.0, 3162.484, -0.30773807, 0.14370315, -1373269.0, -53006.09, 0.0, 9.998193, 10.000521 
1.0649569e+3, 1.7527984e+2, -1626339.6, -1357255.6, 888.80975, -0.10653553, 0.039847974, -1357252.6, -134988.8, 0.0, 9.996979, 10.000543 
1.06498376e+3, 1.8527943e+2, -1453043.6, -1328759.3, -34491.17, -0.05280074, -0.003640865, -1319829.0, -195562.02, 0.0, 9.997943, 9.999603 
1.0650088e+3, 1.95279e+2, -927467.56, -1023353.7, -45860.125, -0.14358234, -0.0094055785, -909065.4, 117207.04, 0.0, 10.000872, 9.999615 
1.0650361e+3, 2.0527893e+2, -725886.6, -953043.0, 5404.6523, -0.08000081, 0.060527343, -725758.1, 202516.08, 0.0, 10.001918, 9.99892 
1.0650654e+3, 2.1527907e+2, -721423.56, -896826.56, 16923.314, 0.12877505, 0.17810647, -719805.7, 110467.78, 0.0, 10.001266, 9.998946 
1.0650925e+3, 2.252775e+2, -682022.6, -883312.2, 6833.561, 0.13858576, 0.15593635, -681790.94, 50498.07, 0.0, 10.001106, 9.998443 
1.0651176e+3, 2.3527436e+2, -543604.2, -762518.56, 6852.893, -0.028125953, -0.006934355, -543389.9, 90929.62, 0.0, 10.00137, 9.998471 
1.06514394e+3, 2.4527255e+2, -418293.5, -707042.1, -16491.531, -0.053451326, -0.004704438, -417354.66, 118982.6, 0.0, 10.001799, 9.9979725 
1.06517136e+3, 2.5527185e+2, -234078.95, -564443.4, -54072.957, 0.045903932, 0.12537415, -225453.66, 212890.98, 0.0, 10.002378, 9.997999 
1.0651979e+3, 2.6526996e+2, -95200.91, -474111.94, -47832.49, 0.01667908, 0.15388308, -89255.96, 251106.67, 0.0, 10.002775, 9.997757 
1.0652233e+3, 2.75267e+2, 31415.346, -358757.7, -34667.863, -0.12443661, 0.07814705, 34471.73, 276861.88, 0.0, 10.002957, 9.9977865 
1.06525e+3, 2.8526446e+2, 168046.2, -311403.4, -115315.484, -0.0689019, 0.08031639, 194339.53, 338753.13, 0.00000043890876, 10.003521, 9.99717 
1.0652777e+3, 2.9526222e+2, 402245.9, -147997.7, -186421.02, 0.16064432, 0.1338194, 459456.47, 505890.9, 0.000009476754, 10.004456, 9.99717 
1.06530346e+3, 3.0525804e+2, 485926.7, -157044.94, -140480.1, 0.1160464, 0.042418398, 515279.56, 515279.56, 0.000038856502, 10.005022, 9.996501 
1.0653274e+3, 3.1525493e+2, 542211.25, -74833.23, -108839.35, -0.16660812, 0.07490645, 560846.44, 560846.44, 0.00008913124, 10.005162, 9.996997 
1.0748224e+3, 1.252495e+2, -2196550.8, -1763954.8, 61567.863, -0.082740486, 0.09875645, -1755362.9, -42794.355, 0.00055371417, 9.995903, 10.001633 
1.0748444e+3, 1.352519e+2, -1887914.8, -1562007.4, -17753.432, -0.42207342, 0.16384025, -1561043.1, 53501.805, 0.00024334127, 9.997334, 10.001664 
1.0748728e+3, 1.4525296e+2, -1743736.6, -1582431.6, 59492.227, -0.230332, 0.1748343, -1562863.6, -46329.82, 0.00005483326, 9.998256, 10.000402 
1.0749018e+3, 1.5525256e+2, -1585183.4, -1450672.4, 43805.125, -0.10083833, 0.08961697, -1437664.6, -19128.016, 0.000002073113, 9.998652, 10.0004425 
1.07492894e+3, 1.6525298e+2, -1545935.4, -1369206.5, -45767.79, -0.04248128, 0.08661537, -1358057.4, -37526.316, 0.0000000000166348, 9.9981985, 10.000547 
1.0749549e+3, 1.7525414e+2, -1623892.9, -1354156.4, -39948.95, -0.014122647, 0.14172997, -1348364.1, -125845.88, 0.0, 9.996984, 10.000563 
1.0749817e+3, 1.8525416e+2, -1476466.1, -1373516.9, 73594.586, -0.054838184, 0.15430793, -1335181.8, -210664.39, 0.0, 9.997928, 9.999303 
1.07500955e+3, 1.9525301e+2, -950216.5, -1066694.0, 62147.645, -0.16713981, 0.10929452, -923284.4, 103243.64, 0.0, 10.0008545, 9.999327 
1.0750372e+3, 2.0525153e+2, -703676.8, -900660.0, -22516.814, -0.16093604, 0.033041473, -701135.75, 227404.6, 0.0, 10.00189, 9.999294 
1.07506506e+3, 2.1524964e+2, -697658.2, -844031.9, -5713.9487, -0.041866347, -0.088716395, -697435.5, 133119.22, 0.0, 10.001248, 9.999318 
1.0750924e+3, 2.2524858e+2, -680331.5, -875862.56, 13724.924, 0.023464302, -0.08171929, -679372.8, 53191.246, 0.0, 10.001088, 9.998504 
1.0751196e+3, 2.3524821e+2, -543027.2, -759213.5, 18369.877, 0.038405366, 0.027102908, -541477.4, 93091.86, 0.0, 10.001359, 9.998502 
1.0751466e+3, 2.4524611e+2, -486299.84, -845653.56, 4407.6797, 0.03321507, 0.045823924, -486245.8, 50347.203, 0.0, 10.001786, 9.997027 
1.0751735e+3, 2.5524235e+2, -296615.97, -697086.4, -28744.158, 0.011329172, -0.037002947, -294563.34, 144071.14, 0.0, 10.002387, 9.997087 
1.07520096e+3, 2.6524073e+2, -63628.45, -409852.4, -40177.63, 0.04214743, 0.041380648, -59027.176, 281623.22, 0.0, 10.00278, 9.998198 
1.07522875e+3, 2.7524105e+2, 58621.223, -302371.16, -24688.252, 0.12245398, 0.25108397, 60301.83, 302945.1, 0.0, 10.002956, 9.998177 
1.075254e+3, 2.8523755e+2, 37067.305, -580733.6, -80438.07, -0.01903975, 0.23067033, 47368.625, 192046.72, 0.00000018585847, 10.003507, 9.995329 
1.0752769e+3, 2.9523045e+2, 277171.5, -406023.38, -142791.9, -0.36881354, -0.01565084, 305815.0, 352566.66, 0.000006408986, 10.004443, 9.995407 
1.07530445e+3, 3.052259e+2, 571813.25, 31326.78, -127452.445, -0.2780601, -0.124742456, 600360.1, 600360.1, 0.000030310192, 10.004978, 9.997818 
1.0753364e+3, 3.1522655e+2, 616310.9, 103752.555, -91833.41, 0.22546715, 0.15322477, 632267.6, 632267.6, 0.000074543656, 10.0050535, 9.99828 
1.0848192e+3, 1.2522265e+2, -2174676.8, -1784748.0, 40078.73, -0.009627185, 0.06965639, -1780671.1, -67842.88, 0.00064071716, 9.996195, 10.001347 
1.08484164e+3, 1.3522509e+2, -1918921.8, -1608647.8, -47953.26, -0.4190889, 0.17034103, -1601405.6, 13399.917, 0.00028839763, 9.997259, 10.001379 
1.084871e+3, 1.4522588e+2, -1848642.6, -1635801.6, -3008.708, -0.20170382, 0.16967501, -1635759.1, -118961.42, 0.00006873226, 9.997554, 10.000373 
1.0849001e+3, 1.5522514e+2, -1817527.0, -1566626.4, 6946.5083, -0.049815338, 0.054345693, -1566434.3, -147630.42, 0.0000030594845, 9.997081, 10.0004015 
1.08492725e+3, 1.6522552e+2, -1575066.8, -1410405.6, -53443.813, -0.027708886, 0.062033586, -1394580.4, -73781.055, 0.000000000186287, 9.99812, 10.000298 
1.0849529e+3, 1.7522691e+2, -1119596.3, -1139204.6, -74212.49, -0.08277476, 0.16717993, -1054543.1, 168242.5, 0.0, 10.000569, 10.000308 
1.08498044e+3, 1.8522689e+2, -1051739.0, -1158786.3, 45733.34, -0.10929474, 0.1846488, -1034861.56, 89923.15, 0.0, 10.000799, 9.999393 
1.0850098e+3, 1.9522549e+2, -1221819.0, -1186368.5, 60901.414, -0.12025151, 0.103187785, -1140665.3, -113869.086, 0.0, 9.998947, 9.999422 
1.0850381e+3, 2.052239e+2, -1138454.1, -1093103.5, -18028.113, -0.09842292, 0.0066096485, -1086810.1, -158001.47, 0.0, 9.998838, 9.99944 
1.0850658e+3, 2.1522212e+2, -825166.44, -891005.5, -23298.652, -0.041344155, -0.1203207, -817755.8, 13066.868, 0.0, 10.000313, 9.999446 
1.08509354e+3, 2.252212e+2, -657132.56, -872241.56, -15718.6875, 0.008910823, -0.10044046, -655990.0, 76840.6, 0.0, 10.001279, 9.998439 
1.0851212e+3, 2.3522103e+2, -484389.66, -737239.75, -25368.668, 0.049086872, 0.03466481, -481869.5, 152964.23, 0.0, 10.001791, 9.998444 
1.0851489e+3, 2.45219e+2, -366415.22, -783467.3, 12138.707, 0.04968474, 0.06356726, -366062.22, 170794.25, 0.0, 10.002589, 9.997069 
1.08517654e+3, 2.5521526e+2, -115868.05, -605995.2, 47231.637, 0.016941592, -0.021245964, -111358.02, 327539.63, 0.0, 10.0036125, 9.997122 
1.08520426e+3, 2.6521307e+2, 73105.33, -400853.28, 6016.266, 0.047919925, 0.02318469, 73181.68, 414101.16, 0.0, 10.003967, 9.997686 
1.0852322e+3, 2.7521226e+2, 133870.2, -322292.25, -49722.867, 0.13575324, 0.16661449, 139227.2, 382151.72, 0.0, 10.003717, 9.997672 
1.0852578e+3, 2.852086e+2, 97120.836, -545055.56, -37811.05, -0.007424669, 0.15902193, 99339.47, 244300.28, 0.00000007172125, 10.003893, 9.995386 
1.0852814e+3, 2.952025e+2, 275024.4, -398610.53, 25319.438, -0.35894462, 0.0030080096, 275974.75, 323000.16, 0.000003873525, 10.004401, 9.995474 
1.0853093e+3, 3.0519816e+2, 445773.6, -25388.406, 16767.191, -0.24829467, -0.09426995, 446369.53, 446369.53, 0.000022589003, 10.004095, 9.997851 
1.08534105e+3, 3.1519818e+2, 327053.13, -31531.566, -41642.688, 0.286841, 0.1186929, 331825.6, 331825.6, 0.00006145778, 10.003049, 9.998311 
1.094813e+3, 1.2519582e+2, -2204596.0, -1850578.3, 60283.355, -0.25057703, 0.120343834, -1840594.6, -127506.125, 0.000734217, 9.996208, 10.000891 
1.09484084e+3, 1.3519703e+2, -1951180.8, -1679431.9, -7387.7036, -0.22398172, 0.14875793, -1679231.1, -64151.375, 0.00033773432, 9.997272, 10.00089 
1.0948711e+3, 1.4519763e+2, -1820256.1, -1577618.1, -23085.46, 0.060400706, 0.13250725, -1575441.3, -58367.195, 0.0000845864, 9.997558, 10.00077 
1.09489635e+3, 1.5519781e+2, -1794347.1, -1515321.9, -6736.833, -0.13745037, 0.071304634, -1515159.3, -96089.63, 0.0000043925156, 9.9970665, 10.000761 
1.0949229e+3, 1.6519801e+2, -1615474.5, -1495024.4, 38021.43, -0.28510395, 0.07219306, -1484026.6, -162959.98, 0.0000000006358386, 9.998119, 9.99972 
1.09495096e+3, 1.7519817e+2, -1153383.1, -1218824.8, 16804.744, -0.33296132, 0.111341484, -1149320.0, 73745.734, 0.0, 10.000603, 9.999748 
1.09498e+3, 1.8519765e+2, -1015797.06, -1085130.3, -27281.742, -0.23576806, 0.08250115, -1006349.44, 118719.54, 0.0, 10.000807, 9.999893 
1.09500974e+3, 1.9519648e+2, -1187246.5, -1113670.5, -5208.871, -0.018072639, -0.027398849, -1113303.6, -86227.16, 0.0, 9.998942, 9.999923 
1.0950388e+3, 2.051961e+2, -1147980.8, -1109559.0, 34643.8, 0.091668, -0.023692222, -1089156.1, -160077.06, 0.0, 9.998822, 9.999336 
1.0950675e+3, 2.1519643e+2, -834638.9, -908063.7, 32495.68, 0.10900105, 0.07248108, -822323.06, 8754.552, 0.0, 10.000298, 9.999337 
1.09509535e+3, 2.2519535e+2, -676709.75, -906412.1, 487.59525, 0.075443774, 0.09255565, -676708.75, 56379.848, 0.0, 10.00125, 9.998218 
1.0951225e+3, 2.3519285e+2, -500596.72, -767053.2, -4129.412, -0.008500219, 0.017544862, -500532.72, 134579.47, 0.0, 10.001772, 9.998249 
1.0951508e+3, 2.4519125e+2, -303254.53, -642500.5, 48586.984, -0.017343266, 0.046683304, -296433.06, 240694.81, 0.0, 10.002547, 9.998058 
1.0951804e+3, 2.5519046e+2, -59533.29, -471810.28, 85236.19, 0.046107143, 0.15851778, -42606.13, 396529.97, 0.0, 10.003538, 9.998079 
1.095208e+3, 2.65187e+2, -37469.332, -611491.7, -4488.877, 0.02580277, 0.09587871, -37434.23, 303736.5, 0.0, 10.003883, 9.996282 
1.0952338e+3, 2.7518082e+2, 35442.58, -520650.0, -52890.66, -0.07941007, -0.14986014, 40428.375, 283659.4, 0.0, 10.003689, 9.9963255 
1.0952612e+3, 2.8517783e+2, 215836.33, -292849.44, -17508.361, -0.050831653, -0.11848582, 216438.23, 361699.13, 0.000000020931305, 10.003868, 9.99713 
1.09529056e+3, 2.9517782e+2, 384372.0, -157635.48, 45733.008, 0.114795186, 0.1616629, 388203.75, 435465.6, 0.0000023753848, 10.004338, 9.997161 
1.0953172e+3, 3.051742e+2, 366537.63, -186021.47, -24343.41, 0.14692491, 0.10803034, 367608.0, 367608.0, 0.000017958377, 10.004078, 9.996757 
1.0953417e+3, 3.1516987e+2, 273139.38, -177929.55, -72174.83, 0.03421243, -0.004070101, 284406.53, 284406.53, 0.000054202494, 10.003192, 9.99724 
1.1048092e+3, 1.2516783e+2, -1986848.6, -1750023.1, 24930.213, -0.31596252, 0.103257775, -1747427.3, -34068.24, 0.00083503575, 9.997725, 10.000845 
1.104838e+3, 1.3516837e+2, -1962918.8, -1693333.1, 2535.43, -0.22219801, 0.07269671, -1693309.3, -77952.58, 0.0003918232, 9.997224, 10.000817 
1.1048692e+3, 1.4516897e+2, -1765331.5, -1548471.6, 3713.0156, 0.095543995, 0.057049986, -1548408.1, -31056.926, 0.000102570426, 9.997923, 10.000793 
1.1048944e+3, 1.5516992e+2, -1420661.5, -1331747.6, -13567.984, -0.16384566, 0.07042577, -1329723.3, 89616.22, 0.0000061708192, 9.9996195, 10.000788 
1.1049214e+3, 1.6517003e+2, -1396223.0, -1407075.0, 37035.61, -0.31363022, 0.069263786, -1364218.1, -42880.195, 0.0000000015512864, 9.999704, 9.9995575 
1.1049507e+3, 1.7516932e+2, -1501490.8, -1401255.0, 43815.996, -0.30689457, 0.03727392, -1384802.3, -161456.27, 0.0, 9.998287, 9.999607 
1.10497996e+3, 1.8516877e+2, -1371894.0, -1227295.6, -21631.363, -0.19080353, -0.00012303033, -1224129.0, -98779.48, 0.0, 9.998237, 10.000156 
1.1050092e+3, 1.9516836e+2, -1094526.8, -1041368.44, -20170.373, 0.009296653, -0.06041938, -1034581.5, -7232.398, 0.0, 9.99946, 10.000169 
1.1050386e+3, 2.0516829e+2, -942639.9, -1062818.4, 53205.71, 0.10436153, -0.014193826, -922469.75, 6880.346, 0.0, 10.000455, 9.998873 
1.10506825e+3, 2.151685e+2, -730900.06, -907472.44, 18116.275, 0.11150884, 0.117493525, -729060.5, 102292.28, 0.0, 10.001228, 9.998892 
1.1050969e+3, 2.2516721e+2, -586144.4, -832302.5, -31353.006, 0.083400324, 0.12627235, -582213.75, 151152.14, 0.0, 10.001742, 9.9984865 
1.1051245e+3, 2.3516446e+2, -452946.44, -714698.1, -4189.0513, 0.01965189, -0.0020490563, -452879.4, 182510.2, 0.0, 10.001973, 9.99851 
1.10515304e+3, 2.4516298e+2, -428654.25, -678013.25, 26607.25, 0.006409901, 0.014375858, -425846.78, 111556.0, 0.0, 10.001579, 9.99828 
1.1051824e+3, 2.5516266e+2, -469411.44, -645217.1, 2269.2341, 0.039749797, 0.1506644, -469382.16, -29975.795, 0.0, 10.000621, 9.998292 
1.1052102e+3, 2.651593e+2, -417369.8, -777633.56, -21977.229, 0.0007145308, 0.08456673, -416034.1, -74594.3, 0.0, 10.0012, 9.996433 
1.1052368e+3, 2.7515304e+2, -28606.941, -534257.06, 35593.4, -0.10906729, -0.18677439, -26113.766, 217387.84, 0.0, 10.003175, 9.99648 
1.10526524e+3, 2.8515044e+2, 232044.84, -226864.98, 44187.383, -0.023452213, -0.14928429, 236260.81, 381787.47, 0.0000000018761326, 10.003729, 9.997651 
1.1052954e+3, 2.9515126e+2, 218226.89, -182218.36, 17852.574, 0.2516934, 0.16316493, 219021.22, 266538.63, 0.0000017455286, 10.002957, 9.997655 
1.10532224e+3, 3.0514744e+2, 366183.9, -257328.7, -17515.514, 0.22010186, 0.0966086, 366675.56, 366675.56, 0.000016819205, 10.004375, 9.996127 
1.1053457e+3, 3.151421e+2, 901018.44, 61763.336, -41005.215, -0.10573016, -0.05442348, 903017.2, 903017.2, 0.000054859865, 10.007788, 9.996674 
1.11480795e+3, 1.2513873e+2, -1953908.3, -1692888.6, -23640.4, -0.22843117, 0.008693165, -1690764.9, 22874.502, 0.000944546, 9.997776, 10.00121 
1.1148331e+3, 1.3513923e+2, -1938924.0, -1645137.5, -12471.019, -0.4330502, -0.06011401, -1644609.1, -28973.951, 0.00045159098, 9.99723, 10.001146 
1.1148649e+3, 1.4513999e+2, -1787637.8, -1597983.8, 68053.016, -0.12078, -0.055211063, -1576091.6, -58463.914, 0.00012308804, 9.997933, 10.00045 
1.11489415e+3, 1.5514153e+2, -1439068.1, -1379368.1, 50404.297, -0.15038507, 0.05065393, -1350638.1, 68974.38, 0.000008505592, 9.999657, 10.000444 
1.114923e+3, 1.6514164e+2, -1374207.1, -1367234.1, -20400.895, -0.12890108, 0.053290434, -1350023.9, -28411.736, 0.0000000033697685, 9.999728, 9.999822 
1.1149519e+3, 1.751404e+2, -1482342.6, -1362598.4, -7667.6167, -0.013304079, -0.056586925, -1362109.5, -138483.55, 0.0, 9.998288, 9.999874 
1.1149802e+3, 1.8514028e+2, -1372259.9, -1224054.4, 21560.633, 0.01370866, -0.06719676, -1220981.5, -95355.445, 0.0, 9.9982195, 10.000186 
1.1150081e+3, 1.9514118e+2, -1095581.4, -1041595.44, 26377.986, -0.055472005, 0.0005891137, -1030846.94, -3232.9092, 0.0, 9.999452, 10.000172 
1.1150372e+3, 2.0514056e+2, -1004052.9, -1186828.8, 78647.805, -0.07568364, 0.035581376, -974870.4, -45249.14, 0.0, 10.000438, 9.99803 
1.115068e+3, 2.1513847e+2, -790822.25, -1027708.75, 49323.773, -0.045582585, 0.018429836, -780962.6, 50684.688, 0.0, 10.001207, 9.998077 
1.115098e+3, 2.2513692e+2, -539859.1, -726555.06, -24481.813, 0.01757052, 0.0031011233, -536702.1, 196959.73, 0.0, 10.001702, 9.999232 
1.1151274e+3, 2.351359e+2, -406010.72, -609798.9, 5567.053, 0.1135685, -0.025331017, -405858.75, 229807.05, 0.0, 10.001942, 9.999247 
1.1151555e+3, 2.4513428e+2, -468108.13, -758266.6, -11053.976, 0.10263827, -0.03065389, -467687.63, 69992.85, 0.0, 10.001568, 9.997736 
1.11518234e+3, 2.5513202e+2, -498887.66, -718889.4, -29111.756, -0.014017238, -0.03453544, -495100.63, -55394.348, 0.0, 10.00067, 9.997764 
1.11521095e+3, 2.6513007e+2, -304316.66, -548005.2, 51386.035, -0.0437473, -0.01104549, -293924.2, 47802.016, 0.0, 10.001223, 9.997998 
1.1152412e+3, 2.7512848e+2, 72976.195, -311620.56, 109576.57, 0.011513612, 0.023407677, 102004.93, 345745.44, 0.0, 10.003124, 9.998033 
1.1152698e+3, 2.8512618e+2, 184814.23, -315801.34, 11619.28, 0.05360437, 0.0465242, 185083.78, 330844.88, 0.0, 10.003686, 9.997062 
1.1152966e+3, 2.9512316e+2, 187864.42, -264110.06, -6993.886, 0.077549286, 0.03249281, 187972.61, 235761.7, 0.0000018225247, 10.003033, 9.997059 
1.11532435e+3, 3.0511823e+2, 350848.38, -292797.22, 109656.41, -0.006055407, -0.10216452, 369017.4, 369017.4, 0.00001867305, 10.004393, 9.995874 
1.1153528e+3, 3.151146e+2, 855803.4, 16256.764, 93467.18, -0.18842395, -0.0560749, 866083.25, 866083.25, 0.00006276949, 10.007577, 9.996464 
1.1248053e+3, 1.2510867e+2, -2320479.5, -1803316.8, -72287.984, -0.13021289, -0.08239772, -1793402.5, -79470.055, 0.0010643419, 9.994975, 10.001807 
1.12483054e+3, 1.3511036e+2, -1817268.6, -1524509.6, -24315.512, -0.4430482, -0.0870929, -1522503.8, 93409.484, 0.00051804923, 9.997796, 10.001702 
1.1248629e+3, 1.4511137e+2, -1691394.5, -1563389.0, 48800.332, -0.14475127, -0.08230612, -1546906.9, -29004.1, 0.00014661087, 9.998649, 10.00034 
1.1248928e+3, 1.5511233e+2, -1766367.6, -1549042.1, 42585.27, -0.13076434, -0.023636745, -1540995.4, -121100.69, 0.00001150662, 9.997464, 10.000337 
1.1249221e+3, 1.6511257e+2, -1674185.5, -1475763.9, -27770.576, -0.076071315, -0.01821265, -1471950.5, -150056.78, 0.0000000061074554, 9.997516, 10.000142 
1.1249512e+3, 1.7511216e+2, -1390986.9, -1284011.8, -14709.57, 0.06598987, -0.07751211, -1282026.0, -58126.59, 0.0, 9.998768, 10.000182 
1.12497985e+3, 1.8511234e+2, -1165662.5, -1156832.5, 48085.875, 0.084123954, -0.05839679, -1112959.4, 12938.155, 0.0, 9.999773, 9.9999 
1.1250082e+3, 1.9511303e+2, -959272.25, -1006381.4, 24815.984, -0.028210666, 0.018562347, -948612.0, 79277.21, 0.0, 10.000519, 9.9999 
1.1250376e+3, 2.051121e+2, -943983.94, -1124294.3, 85774.01, -0.09062935, 0.02119351, -909699.8, 20198.926, 0.0, 10.000713, 9.9983225 
1.12506814e+3, 2.1510956e+2, -891073.9, -1043903.8, 135845.56, -0.10343699, -0.06950266, -811625.9, 20300.146, 0.0, 10.000384, 9.998361 
1.1250984e+3, 2.2510803e+2, -713088.56, -822444.56, 82540.8, -0.045219142, -0.092596404, -668758.2, 65182.074, 0.0, 10.0005665, 9.999123 
1.12512864e+3, 2.3510747e+2, -514540.1, -673941.25, 43896.96, 0.07989211, -0.063769735, -503250.97, 132691.2, 0.0, 10.00125, 9.999138 
1.1251573e+3, 2.4510583e+2, -379590.7, -734397.56, 3453.6255, 0.088858604, -0.05689262, -379557.06, 158401.25, 0.0, 10.002261, 9.997563 
1.12518445e+3, 2.5510308e+2, -90501.9, -541929.9, 9115.195, -0.014976854, -0.09064782, -90317.92, 349670.88, 0.0, 10.003563, 9.997585 
1.12521365e+3, 2.6510146e+2, 56653.32, -333710.8, 63467.176, -0.00996196, -0.045662, 66712.87, 408718.4, 0.0, 10.0035305, 9.998357 
1.12524465e+3, 2.751009e+2, -36877.938, -325560.16, 29799.771, 0.098935276, 0.05815378, -33833.9, 210175.39, 0.0, 10.002206, 9.998377 
1.1252733e+3, 2.8509852e+2, 45001.715, -416654.38, -70373.6, 0.08190628, 0.06839947, 55490.953, 201522.11, 0.00000000013567501, 10.0028715, 9.99676 
1.12529956e+3, 2.9509434e+2, 517552.9, -136096.34, -74696.54, -0.058763534, -0.031140495, 525980.3, 574051.44, 0.0000024137637, 10.00544, 9.996777 
1.1253281e+3, 3.0508947e+2, 542426.2, -170566.97, 52255.832, -0.11876821, -0.15500998, 546235.7, 546235.7, 0.000022389711, 10.005586, 9.996139 
1.125359e+3, 3.1508726e+2, 260279.06, -235009.61, 67128.625, -0.089230895, 0.0069295154, 269216.03, 269216.03, 0.00007341352, 10.00333, 9.99678 
1.1348011e+3, 1.2507783e+2, -2264897.5, -1678244.5, 2065.819, -0.045370277, -0.16224651, -1678237.3, 36000.063, 0.0011953667, 9.994935, 10.002686 
1.1348302e+3, 1.3508198e+2, -1758545.4, -1405816.5, 84834.87, -0.26057822, -0.0014439658, -1386473.6, 229716.33, 0.00059164723, 9.997807, 10.002516 
1.1348631e+3, 1.450832e+2, -1678492.8, -1540874.8, 2795.2441, 0.014584225, -0.021214038, -1540818.0, -22642.633, 0.00017336896, 9.998666, 10.000488 
1.1348904e+3, 1.5508236e+2, -1757561.4, -1529451.8, 426.2485, -0.11916788, -0.15589383, -1529451.0, -109265.625, 0.000015247707, 9.997457, 10.000476 
1.13491856e+3, 1.6508287e+2, -1651667.8, -1425919.1, 18094.668, -0.17655185, -0.14888428, -1424478.0, -102296.18, 0.000000009421829, 9.9975, 10.000493 
1.13494836e+3, 1.750846e+2, -1364995.1, -1234127.0, 34536.055, -0.09326388, -0.027475756, -1225572.1, -1406.2162, 0.0, 9.998781, 10.00052 
1.13497876e+3, 1.85085e+2, -1208195.0, -1244789.0, 72914.445, -0.003147557, 0.025375355, -1151316.9, -25153.71, 0.0, 9.999774, 9.999295 
1.13500975e+3, 1.9508402e+2, -1002463.44, -1091100.6, 53326.676, 0.0715938, -0.00531621, -977443.25, 50730.51, 0.0, 10.000499, 9.999327 
1.1350397e+3, 2.0508298e+2, -849288.25, -923876.8, 69369.05, 0.041155193, -0.056940526, -807823.9, 122358.32, 0.0, 10.000692, 9.99971 
1.13506876e+3, 2.1508181e+2, -797528.7, -846475.94, 123421.51, -0.08085347, -0.14635046, -696177.75, 136011.34, 0.0, 10.000368, 9.999725 
1.1350983e+3, 2.2508058e+2, -782834.8, -962424.94, 103943.72, -0.12337156, -0.15978608, -735271.06, -1070.0582, 0.0, 10.000544, 9.998173 
1.13512814e+3, 2.3507923e+2, -582376.6, -812517.44, 70614.72, -0.092706084, -0.11769726, -562437.25, 73781.164, 0.0, 10.001238, 9.998194 
1.1351582e+3, 2.4507764e+2, -373684.44, -713207.1, 50222.043, -0.045872897, -0.06744017, -366411.4, 171824.92, 0.0, 10.002223, 9.997727 
1.13518834e+3, 2.5507578e+2, -86476.484, -519725.28, 59300.547, 0.018824017, -0.028762981, -78506.39, 361748.75, 0.0, 10.003504, 9.9977665 
1.13521814e+3, 2.6507348e+2, -3709.3596, -450866.2, 12704.765, 0.082408786, -0.021680024, -3348.6787, 338929.03, 0.0, 10.003491, 9.997574 
1.13524735e+3, 2.7507067e+2, -84262.555, -436762.94, -15196.802, 0.14066857, -0.0638092, -83608.61, 160696.06, 0.0, 10.002255, 9.997591 
1.1352759e+3, 2.8506768e+2, 40544.117, -428877.7, 25506.088, 0.050521087, -0.067831665, 41925.926, 188259.52, 0.0000000018197835, 10.002886, 9.99667 
1.1353037e+3, 2.950646e+2, 496874.13, -152980.61, 23990.701, -0.18212017, -0.046469316, 497758.56, 546122.7, 0.0000031597888, 10.005325, 9.996717 
1.1353334e+3, 3.0506098e+2, 578415.94, -70259.06, -33904.66, -0.15115234, -0.08438176, 580183.25, 580183.25, 0.000026321322, 10.005473, 9.996882 
1.1353646e+3, 3.150601e+2, 326646.97, -113508.555, -9633.107, 0.13613337, 0.13593769, 326857.7, 326857.7, 0.00008294166, 10.003395, 9.997585 
1.1447979e+3, 1.2504946e+2, -1746471.1, -1478664.4, 62928.605, -0.045793805, -0.058115575, -1464614.8, 249900.63, 0.0013373722, 9.998707, 10.002238 
1.14482865e+3, 1.3505207e+2, -1863092.8, -1512499.9, 68149.44, -0.16807793, -0.0010921023, -1499718.8, 116765.33, 0.000672049, 9.997327, 10.002018 
1.1448622e+3, 1.4505282e+2, -1815978.8, -1569082.9, -73560.77, 0.1073954, -0.060166817, -1548827.8, -30353.596, 0.0002032588, 9.997556, 10.000832 
1.1448891e+3, 1.5505266e+2, -1477239.3, -1356129.8, -68715.67, -0.09012387, -0.16104817, -1325094.5, 95382.33, 0.000019742625, 9.999215, 10.000817 
1.1449171e+3, 1.650537e+2, -1278364.8, -1227596.9, -32328.438, -0.18616813, -0.12576753, -1211877.6, 110589.87, 0.000000013934886, 9.99998, 10.00066 
1.1449474e+3, 1.7505585e+2, -1196303.0, -1133827.1, -33636.594, -0.11767029, 0.020233026, -1119160.5, 105286.52, 0.0, 9.999858, 10.000689 
1.1449784e+3, 1.8505603e+2, -1216421.5, -1254978.0, 13390.072, -0.015458593, 0.048527963, -1212227.5, -85781.1, 0.0, 9.999747, 9.999237 
1.14501e+3, 1.9505425e+2, -1129629.3, -1159591.4, 29990.137, 0.09592985, -0.056467988, -1111086.6, -82620.86, 0.0, 9.999655, 9.999264 
1.1450402e+3, 2.0505352e+2, -963658.4, -919864.9, 21608.295, 0.08807289, -0.09900034, -910998.25, 19472.623, 0.0, 9.999651, 10.00024 
1.1450692e+3, 2.1505381e+2, -850433.6, -813519.5, 7040.3438, -0.02713515, -0.09462373, -812222.4, 20239.959, 0.0, 9.999753, 10.000248 
1.145099e+3, 2.25053e+2, -830515.0, -1018682.94, 20833.361, -0.08873765, -0.07697017, -828236.0, -93764.73, 0.0, 10.000363, 9.997871 
1.1451293e+3, 2.35051e+2, -572335.2, -841516.56, 30458.148, -0.103741825, -0.06538708, -568931.9, 67566.09, 0.0, 10.001454, 9.9978895 
1.1451601e+3, 2.4504925e+2, -395389.9, -683950.7, 30412.586, -0.052712563, -0.03518747, -392219.44, 146298.16, 0.0, 10.001901, 9.998084 
1.1451913e+3, 2.5504765e+2, -323887.56, -594652.75, 47265.92, 0.0611889, -0.0062932237, -315873.8, 124657.04, 0.0, 10.001705, 9.9981165 
1.1452212e+3, 2.6504514e+2, -187566.6, -607926.4, 7485.073, 0.09501754, -0.006374191, -187433.36, 155121.69, 0.0, 10.002526, 9.996959 
1.1452496e+3, 2.7504167e+2, 178169.34, -379605.16, -13220.462, 0.046777952, -0.052823883, 178482.53, 423073.22, 0.0, 10.004361, 9.996968 
1.14527866e+3, 2.8503838e+2, 252104.78, -346844.7, 34255.68, -0.024468241, -0.04653337, 254057.6, 400681.38, 0.000000008893574, 10.004426, 9.9964905 
1.1453083e+3, 2.9503536e+2, 98185.34, -366308.72, 22306.387, -0.11095007, -0.002680515, 99254.1, 147908.2, 0.0000036181932, 10.002677, 9.996526 
1.1453384e+3, 3.0503163e+2, 243569.97, -205045.45, -55359.676, -0.0635516, -0.053262684, 250300.44, 250300.44, 0.000028160295, 10.0030575, 9.997117 
1.14536904e+3, 3.150307e+2, 661343.9, 84776.266, -75589.02, 0.11982886, 0.13770217, 671089.0, 671089.0, 0.00008838252, 10.005545, 9.997908 
1.1547953e+3, 1.2502392e+2, -1867115.3, -1744731.0, -25054.334, -0.18470787, 0.24443935, -1739800.5, -25037.387, 0.001489488, 9.998779, 10.000371 
1.1548257e+3, 1.3502073e+2, -1995387.6, -1789312.5, 17623.969, -0.18695633, -0.08728843, -1787816.1, -171021.4, 0.00075867696, 9.997337, 10.000112 
1.1548597e+3, 1.4502025e+2, -1779618.5, -1494619.3, -9863.848, 0.11923728, -0.20335859, -1494278.3, 24520.934, 0.0002361324, 9.997556, 10.001346 
1.1548886e+3, 1.5502323e+2, -1435527.3, -1278896.1, -3889.5913, -0.06192471, -0.039641034, -1278799.6, 141969.31, 0.000024990082, 9.999249, 10.001334 
1.1549177e+3, 1.6502513e+2, -1275913.1, -1226626.5, -41272.24, -0.126321, 0.056549028, -1203200.3, 119549.5, 0.000000023716384, 10.0, 10.000656 
1.1549481e+3, 1.7502594e+2, -1194949.9, -1133541.6, -38063.824, -0.02230099, 0.06936618, -1115341.8, 109399.82, 0.0, 9.999869, 10.000686 
1.15497865e+3, 1.8502551e+2, -1181740.4, -1184771.3, 7440.588, 0.03327287, 0.011658968, -1175662.5, -48916.1, 0.0, 9.999752, 9.999718 
1.1550089e+3, 1.950238e+2, -1096374.5, -1091286.8, 27842.848, 0.026931763, -0.13392448, -1065871.8, -37107.32, 0.0, 9.999655, 9.999735 
1.1550393e+3, 2.0502385e+2, -988883.94, -970613.75, 21584.398, 0.026424877, -0.10462655, -956310.94, -25547.076, 0.0, 9.999642, 9.999895 
1.15506954e+3, 2.1502562e+2, -875445.9, -862410.7, 11731.806, 0.038754884, 0.07977418, -855507.6, -22762.662, 0.0, 9.999738, 9.99992 
1.1551006e+3, 2.2502533e+2, -813635.56, -977556.75, 59555.78, 0.04068293, 0.15070339, -794282.6, -59532.336, 0.0, 10.000335, 9.998169 
1.15513206e+3, 2.3502289e+2, -554626.6, -798694.8, 73986.21, 0.027231218, 0.0880432, -533950.25, 102829.945, 0.0, 10.001426, 9.9981985 
1.155163e+3, 2.4502072e+2, -364943.63, -611895.6, 21067.125, 0.04467423, 0.03659973, -363159.3, 175642.36, 0.0, 10.001862, 9.998598 
1.1551934e+3, 2.550188e+2, -288048.7, -519893.5, 40841.145, 0.0940916, -0.019773725, -281064.6, 159750.2, 0.0, 10.001702, 9.998631 
1.1552229e+3, 2.6501647e+2, -224930.34, -682919.94, 73726.625, 0.02076843, -0.0002190636, -213354.5, 129482.54, 0.0, 10.002513, 9.996452 
1.1552517e+3, 2.7501374e+2, 134008.98, -453585.0, 58495.54, -0.1855465, 0.07554973, 139775.67, 384644.47, 0.0, 10.004284, 9.996499 
1.15528174e+3, 2.8501046e+2, 227106.5, -382934.22, -30687.223, -0.15736388, 0.11387546, 228646.28, 375549.34, 0.000000017330972, 10.004356, 9.996278 
1.15531325e+3, 2.9500657e+2, 92345.914, -396520.06, -35909.61, 0.11219469, 0.09503032, 94969.57, 143910.45, 0.0000033281658, 10.002751, 9.9962845 
1.1553433e+3, 3.050015e+2, 232136.27, -247618.63, 41836.184, 0.118278295, -0.0580689, 235757.19, 235757.19, 0.000026638432, 10.003138, 9.996788 
1.155372e+3, 3.1499922e+2, 643260.06, 53781.01, 28459.387, -0.13905303, 0.030703524, 644630.9, 644630.9, 0.000087310225, 10.005512, 9.997714 
1.1647934e+3, 1.2499354e+2, -2205426.0, -1932772.0, -136441.44, -0.14374019, 0.18517451, -1876222.6, -161164.48, 0.0016512593, 9.996566, 10.00015 
1.1648234e+3, 1.3499068e+2, -1889197.4, -1767208.8, 53711.617, -0.1916245, -0.08743004, -1746930.4, -129840.664, 0.0008513687, 9.998191, 9.999852 
1.16485745e+3, 1.4499043e+2, -1621315.1, -1411992.9, 89774.17, 0.0826004, -0.16872527, -1378765.0, 140327.9, 0.00027198074, 9.998617, 10.001399 
1.1648875e+3, 1.5499353e+2, -1663577.4, -1380958.9, 54501.64, -0.006734584, -0.00096185633, -1370812.8, 50248.242, 0.00003101119, 9.997658, 10.001398 
1.1649172e+3, 1.6499506e+2, -1632565.4, -1385605.1, 3600.8816, -0.04406399, 0.05006182, -1385552.6, -62508.285, 0.00000004774233, 9.9974985, 10.000771 
1.1649475e+3, 1.7499505e+2, -1437521.3, -1237473.4, 11920.561, 0.016987914, -0.031382695, -1236765.5, -11722.76, 0.0, 9.99815, 10.0008 
1.164978e+3, 1.8499495e+2, -1276394.4, -1193175.9, 65537.695, 0.05266864, -0.079080045, -1157154.5, -30110.715, 0.0, 9.998938, 10.000054 
1.1650089e+3, 1.9499472e+2, -1041277.56, -1025807.25, 72438.29, 0.051049784, -0.10972551, -960692.3, 68355.38, 0.0, 9.9998665, 10.000082 
1.16503954e+3, 2.0499499e+2, -880594.0, -961515.06, 58931.18, 0.046009857, -0.05667066, -849570.7, 81475.71, 0.0, 10.000578, 9.999505 
1.1650701e+3, 2.149957e+2, -710453.94, -825732.3, 40716.402, 0.041606765, 0.05884982, -697523.3, 135517.31, 0.0, 10.001059, 9.999533 
1.16510145e+3, 2.2499524e+2, -690266.75, -877859.44, 90779.78, 0.06022662, 0.11552649, -653530.6, 81516.836, 0.0, 10.001008, 9.9985285 
1.16513364e+3, 2.349936e+2, -676048.0, -817657.8, 103766.91, 0.100341566, 0.09652814, -621230.8, 15836.493, 0.0, 10.0004225, 9.998551 
1.1651648e+3, 2.4499176e+2, -510265.34, -703724.7, 48509.953, 0.084612206, 0.07047124, -498782.97, 40302.418, 0.0, 10.000961, 9.9984 
1.1651947e+3, 2.549897e+2, -168572.23, -486536.47, 12446.974, 0.011516366, 0.02096739, -168085.73, 273016.4, 0.0, 10.002626, 9.998418 
1.165225e+3, 2.649872e+2, -125784.875, -622807.56, 36193.793, -0.05867324, 0.027914342, -123163.03, 219963.83, 0.0, 10.003145, 9.996557 
1.16525546e+3, 2.749842e+2, -121285.97, -566165.0, 57873.6, -0.13074687, 0.07155599, -113880.555, 131279.34, 0.0, 10.002486, 9.996591 
1.1652864e+3, 2.849812e+2, 84634.24, -415646.4, 1759.5697, -0.071019545, 0.11602228, 84640.43, 231830.73, 0.0000000141518814, 10.0032215, 9.996599 
1.1653174e+3, 2.9497808e+2, 498594.13, -163130.61, 27150.861, 0.118781984, 0.14234143, 499706.28, 548925.2, 0.0000024439007, 10.005387, 9.996616 
1.1653476e+3, 3.049725e+2, 642787.56, -125608.695, 138435.8, 0.08717625, -0.048133098, 666967.5, 666967.5, 0.00002302521, 10.006289, 9.99611 
1.1653774e+3, 3.1496847e+2, 646405.44, -5854.76, 98059.84, -0.14691055, -0.06399334, 660828.7, 660828.7, 0.00008101599, 10.005796, 9.99717 
1.1747919e+3, 1.2495807e+2, -2101797.0, -1712469.1, -109240.03, 0.05285941, -0.26289287, -1683912.5, 31490.352, 0.0018234614, 9.996539, 10.001675 
1.1748214e+3, 1.3496198e+2, -1784180.5, -1554436.9, 120295.61, -0.19799028, -0.0024962095, -1502976.0, 114391.68, 0.0009506097, 9.998207, 10.0013075 
1.174855e+3, 1.449637e+2, -1646129.9, -1467832.8, 54263.723, -0.026777988, 0.056780327, -1452616.5, 66735.586, 0.00031097958, 9.998633, 10.001009 
1.1748857e+3, 1.5496364e+2, -1690636.4, -1438842.8, 20608.977, 0.057536885, -0.049924772, -1437167.0, -15815.205, 0.00003785508, 9.997662, 10.001 
1.17491566e+3, 1.6496348e+2, -1620902.9, -1357721.8, 26727.154, 0.043316115, -0.15800972, -1355035.0, -31683.871, 0.00000010132158, 9.997482, 10.00097 
1.1749453e+3, 1.7496319e+2, -1422707.5, -1206179.0, 38062.664, -0.017242527, -0.2877554, -1199683.0, 25666.986, 0.0, 9.998144, 10.001019 
1.1749767e+3, 1.8496439e+2, -1265159.4, -1166689.8, 97423.76, 0.024431098, -0.22636041, -1106766.6, 20571.328, 0.0, 9.998925, 10.000241 
1.17500976e+3, 1.9496708e+2, -1029267.1, -998462.44, 108534.92, 0.15109369, 0.013084328, -904242.44, 125072.58, 0.0, 9.999856, 10.000275 
1.1750409e+3, 2.0496702e+2, -913303.56, -1025058.3, 73945.25, 0.12944183, 0.046661444, -876497.7, 54820.305, 0.0, 10.000558, 9.999079 
1.1750703e+3, 2.1496417e+2, -742295.7, -888756.6, 60076.01, -0.03337033, -0.15113972, -720806.44, 112541.72, 0.0, 10.001043, 9.999108 
1.1751013e+3, 2.2496289e+2, -666267.1, -824646.2, 65574.586, -0.044320982, -0.17379504, -642641.25, 92720.625, 0.0, 10.000992, 9.998901 
1.175134e+3, 2.3496322e+2, -647021.75, -759494.94, 83382.58, 0.09772734, -0.03530776, -602683.94, 34674.88, 0.0, 10.000429, 9.998946 
1.1751654e+3, 2.4496242e+2, -572928.75, -835651.44, 109496.85, 0.051508553, 0.06671152, -533277.3, 6091.36, 0.0, 10.000965, 9.997495 
1.1751952e+3, 2.549604e+2, -233732.06, -617258.06, 78978.02, -0.19198352, 0.110358074, -218105.16, 223287.17, 0.0, 10.0026045, 9.997531 
1.175227e+3, 2.6495737e+2, -85515.17, -530858.3, 12034.559, -0.15855832, 0.076656476, -85190.195, 258233.28, 0.0, 10.003109, 9.997207 
1.17526084e+3, 2.749533e+2, -73596.445, -470622.2, 37863.246, 0.15950765, -0.053579036, -70017.79, 175444.77, 0.0, 10.002501, 9.997239 
1.1752922e+3, 2.849508e+2, 134088.38, -315002.8, 81103.46, 0.19126827, -0.02413943, 148286.34, 295770.97, 0.0000000040877755, 10.003227, 9.99729 
1.1753208e+3, 2.9494983e+2, 541637.5, -61958.914, 107389.24, -0.0800529, 0.1428214, 560174.44, 609664.5, 0.0000016760328, 10.005331, 9.997341 
1.1753516e+3, 3.0494437e+2, 568202.7, -259548.27, 116347.23, -0.14756452, -0.027166069, 584245.4, 584245.4, 0.000019776759, 10.006199, 9.995233 
1.17538504e+3, 3.149384e+2, 586965.06, -113719.26, 86245.14, 0.018747088, -0.15047514, 597424.56, 597424.56, 0.00007299509, 10.005731, 9.996459 
1.1847887e+3, 1.24926396e+2, -1975716.3, -1571829.3, -57859.438, 0.061031222, -0.36662772, -1563704.0, 152010.92, 0.0020081834, 9.997071, 10.002379 
1.1848196e+3, 1.3493207e+2, -1884439.9, -1528267.0, 127505.45, -0.15070413, 0.0035947566, -1487327.4, 130332.664, 0.0010574218, 9.997202, 10.00197 
1.18485264e+3, 1.449345e+2, -1797155.1, -1553816.6, 5385.8467, -0.06644797, 0.108162455, -1553697.5, -34060.395, 0.00035351914, 9.99766, 10.000884 
1.1848832e+3, 1.5493402e+2, -1597302.9, -1408388.8, -16676.91, 0.008966784, -0.028987603, -1406927.9, 14715.218, 0.00004562391, 9.998367, 10.000866 
1.18491344e+3, 1.6493379e+2, -1398638.6, -1239331.8, 25866.2, 0.0070347325, -0.14281532, -1235237.3, 88406.41, 0.00000019883093, 9.998955, 10.001074 
1.184944e+3, 1.7493382e+2, -1230496.3, -1100192.9, 27952.39, -0.02217411, -0.25169098, -1094449.8, 131188.9, 0.0, 9.999409, 10.001136 
1.18497595e+3, 1.8493503e+2, -1167791.1, -1105475.0, 77017.68, 0.025692137, -0.20144416, -1053551.5, 74073.94, 0.0, 9.9995365, 10.000365 
1.185009e+3, 1.9493736e+2, -1101278.4, -1019599.06, 76801.44, 0.132978, -0.008745156, -973454.0, 56150.207, 0.0, 9.999305, 10.000394 
1.1850408e+3, 2.0493723e+2, -1067333.0, -1111096.8, 65540.68, 0.1144755, 0.016830595, -1020117.9, -88509.81, 0.0, 9.999546, 9.99898 
1.185071e+3, 2.1493462e+2, -860643.44, -956481.4, 72174.59, -0.022773448, -0.14605446, -821928.7, 11708.97, 0.0, 10.000278, 9.999013 
1.1851024e+3, 2.2493339e+2, -589189.75, -760194.0, 83406.516, -0.048739705, -0.17284746, -555246.25, 180404.4, 0.0, 10.001409, 9.999143 
1.185135e+3, 2.3493345e+2, -267080.88, -549452.1, 84704.08, 0.033759754, -0.08382611, -243620.92, 394026.4, 0.0, 10.002927, 9.999186 
1.1851671e+3, 2.4493246e+2, -261723.61, -730099.44, 123230.3, 0.020354733, 0.008297438, -231280.31, 308378.7, 0.0, 10.003299, 9.997093 
1.1851987e+3, 2.5493032e+2, -276164.8, -684444.4, 122310.805, -0.09233458, 0.083340935, -242327.73, 199358.9, 0.0, 10.002518, 9.997111 
1.18523106e+3, 2.6492745e+2, -125494.85, -518870.03, 57028.51, -0.043146025, 0.07167517, -117394.12, 226322.86, 0.0, 10.002697, 9.997488 
1.18526414e+3, 2.7492383e+2, 142169.75, -335837.1, 50548.48, 0.16696113, -0.043984383, 147456.7, 393206.88, 0.0, 10.003851, 9.997517 
1.18529566e+3, 2.8492102e+2, 267986.97, -312672.9, 69006.875, 0.15934996, -0.03188986, 276075.22, 423850.44, 0.0000000010523148, 10.00442, 9.996729 
1.1853257e+3, 2.9491895e+2, 361530.84, -214055.84, 2897.0854, -0.0708692, 0.08690179, 361545.4, 411338.25, 0.000001528308, 10.004378, 9.996754 
1.1853573e+3, 3.0491373e+2, 355011.97, -344948.75, -29528.943, -0.11393847, -0.035882104, 356255.5, 356255.5, 0.000017829394, 10.004662, 9.995385 
1.1853907e+3, 3.1490922e+2, 544637.06, -94675.17, 1677.7506, 0.061835412, -0.029184088, 544641.5, 544641.5, 0.00006576832, 10.005272, 9.99681 
1.19478345e+3, 1.248992e+2, -1982841.6, -1592011.9, -70257.55, -0.17314358, -0.079563536, -1579765.8, 136222.36, 0.0022081332, 9.997088, 10.002236 
1.19481765e+3, 1.3490108e+2, -1894661.9, -1550086.4, 134446.19, -0.059707236, -0.07265924, -1503836.3, 114129.72, 0.0011730703, 9.997202, 10.001822 
1.1948506e+3, 1.4490284e+2, -1792991.9, -1545534.4, 32979.426, -0.043342184, -0.031165762, -1541214.5, -21265.848, 0.00040013902, 9.997659, 10.000943 
1.1948798e+3, 1.5490472e+2, -1589414.5, -1394964.6, 12106.51, -0.17421241, 0.061700985, -1394213.8, 27720.39, 0.00005450229, 9.998379, 10.000953 
1.19491056e+3, 1.6490614e+2, -1393892.8, -1232124.6, 39726.79, -0.17680772, 0.10596063, -1222895.1, 101025.24, 0.00000035173326, 9.998966, 10.001119 
1.1949435e+3, 1.7490707e+2, -1224334.1, -1092415.9, 45918.715, -0.014249704, 0.08243417, -1078006.3, 147901.14, 0.0, 9.999429, 10.001181 
1.1949756e+3, 1.8490694e+2, -1165467.4, -1101610.4, 66186.83, 0.041948754, -0.0036029117, -1060053.3, 67851.805, 0.0, 9.99954, 10.00039 
1.1950068e+3, 1.9490567e+2, -1100983.5, -1017531.5, 69486.8, -0.019006265, -0.173445, -978205.2, 51709.344, 0.0, 9.999297, 10.000413 
1.1950389e+3, 2.0490569e+2, -1054277.4, -1081682.5, 88776.234, -0.018104771, -0.14631896, -978152.44, -46236.42, 0.0, 9.999536, 9.9991865 
1.195072e+3, 2.1490705e+2, -848318.9, -925929.75, 100227.19, 0.050578352, 0.06591436, -779647.1, 54262.258, 0.0, 10.000257, 9.999233 
1.19510464e+3, 2.2490664e+2, -589995.6, -751957.2, 136867.73, 0.025262432, 0.10794131, -511946.03, 223968.33, 0.0, 10.001364, 9.999222 
1.1951366e+3, 2.3490433e+2, -268937.9, -541668.6, 142562.05, -0.10149888, -0.048299737, -208023.14, 429908.97, 0.0, 10.002875, 9.999265 
1.1951699e+3, 2.4490198e+2, -265776.38, -728491.4, 90891.164, -0.026387881, -0.09841053, -248562.98, 291392.6, 0.0, 10.003252, 9.9971285 
1.1952047e+3, 2.548996e+2, -277244.38, -680691.25, 94454.96, 0.26311645, -0.05434291, -256225.63, 185759.42, 0.0, 10.00249, 9.99715 
1.1952367e+3, 2.6489747e+2, -136587.19, -538367.2, 98124.32, 0.24962999, 0.013432037, -113903.54, 230104.47, 0.0, 10.002679, 9.997365 
1.19526535e+3, 2.748956e+2, 134577.61, -349802.38, 95348.74, -0.09236041, 0.08506759, 152670.88, 398695.5, 0.0, 10.003842, 9.997424 
1.195297e+3, 2.8489178e+2, 151897.84, -553948.2, 65949.28, -0.14967029, 0.083595335, 158006.81, 306069.06, 0.0000000017255024, 10.004419, 9.995074 
1.1953317e+3, 2.9488584e+2, 246502.56, -458414.8, 9886.642, 0.09432999, -0.020115701, 246641.2, 296764.25, 0.0000017953321, 10.004398, 9.995067 
1.1953644e+3, 3.0488086e+2, 420237.75, -212521.83, -1454.6149, 0.13034707, -0.07524708, 420241.1, 420241.1, 0.000017232896, 10.004672, 9.99629 
1.19539514e+3, 3.148807e+2, 621572.7, 73870.69, 34667.26, -0.0317753, 0.272181, 623758.25, 623758.25, 0.00006122674, 10.005232, 9.997988 
1.20478064e+3, 1.2487103e+2, -1963945.6, -1594694.5, -112202.58, -0.16515297, 0.17246948, -1563273.8, 152998.48, 0.0024257244, 9.997278, 10.002123 
1.20481506e+3, 1.3487092e+2, -1960828.9, -1594283.4, 85289.586, -0.01331499, -0.008129339, -1575409.6, 42857.902, 0.0012988481, 9.996805, 10.001709 
1.2048473e+3, 1.4487182e+2, -1898922.1, -1563183.0, 27555.402, -0.087303296, -0.06240238, -1560936.4, -40680.07, 0.00045139206, 9.99679, 10.001241 
1.2048774e+3, 1.5487382e+2, -1740087.3, -1432139.0, 19492.045, -0.17797592, 0.014222403, -1430910.1, -8672.771, 0.00006471426, 9.997195, 10.001268 
1.2049091e+3, 1.6487555e+2, -1586167.5, -1350203.4, 51112.74, -0.1627773, 0.08442366, -1339607.5, -15387.445, 0.00000057087306, 9.997759, 10.000889 
1.2049424e+3, 1.7487699e+2, -1373904.6, -1192476.5, 30806.244, -0.018042063, 0.13476165, -1187388.4, 38816.055, 0.0, 9.998524, 10.000929 
1.2049747e+3, 1.8487671e+2, -1217197.6, -1154094.6, 19385.018, 0.021340333, 0.05927895, -1148615.4, -20410.553, 0.0, 9.999302, 10.000144 
1.2050061e+3, 1.9487463e+2, -1003551.06, -997025.3, -512.758, -0.052352455, -0.1660205, -996985.25, 33237.08, 0.0, 10.000082, 10.000173 
1.2050387e+3, 2.0487452e+2, -894985.8, -956002.4, 23046.56, -0.032893706, -0.15998317, -887259.3, 44964.22, 0.0, 10.000423, 9.999618 
1.2050725e+3, 2.1487638e+2, -810709.44, -859939.9, 45352.63, 0.08339935, 0.062219225, -783722.6, 50485.773, 0.0, 10.000308, 9.9996605 
1.20510586e+3, 2.2487627e+2, -746327.56, -848129.5, 106581.21, 0.07537834, 0.11997438, -679116.44, 57094.168, 0.0, 10.00038, 9.999036 
1.20513864e+3, 2.3487405e+2, -604597.75, -724702.25, 87758.7, -0.062774695, -0.008035362, -558311.56, 79919.28, 0.0, 10.000663, 9.999073 
1.2051724e+3, 2.4487177e+2, -506177.2, -789606.25, 19601.791, -0.014965217, -0.066111214, -504827.97, 35425.78, 0.0, 10.001367, 9.997616 
1.2052068e+3, 2.5486934e+2, -241821.98, -608559.06, 50498.81, 0.22306544, -0.07178829, -234995.5, 207284.39, 0.0, 10.002496, 9.9976425 
1.20523915e+3, 2.6486716e+2, -54611.48, -553344.4, 91899.31, 0.19827116, -0.008277938, -38216.555, 306086.16, 0.0, 10.003483, 9.996871 
1.2052693e+3, 2.748652e+2, 173706.03, -389350.28, 56499.57, -0.102685966, 0.10583588, 179319.48, 425642.38, 0.0, 10.004363, 9.9969015 
1.2053019e+3, 2.8486124e+2, 257758.63, -501368.97, 46099.258, -0.13745165, 0.11281857, 260547.83, 408911.03, 0.000000027832389, 10.005142, 9.995086 
1.2053368e+3, 2.9485506e+2, 452656.75, -356667.63, 97922.71, 0.1020014, -0.0137364045, 464336.16, 514761.25, 0.0000028561938, 10.005809, 9.995085 
1.2053696e+3, 3.0484986e+2, 595575.75, -135083.75, 105215.63, 0.14038149, -0.092420995, 610425.1, 610425.1, 0.000019612638, 10.005907, 9.996227 
1.20540075e+3, 3.1484887e+2, 645804.1, 99021.08, 68048.164, 0.006266544, 0.17848663, 654145.6, 654145.6, 0.000062596526, 10.005342, 9.998107 
1.21478036e+3, 1.24841966e+2, -1974402.3, -1620731.4, -120004.0, 0.07001071, 0.38359573, -1583857.4, 132709.1, 0.0026624324, 9.997293, 10.001938 
1.21481165e+3, 1.3484178e+2, -1971004.1, -1615815.0, 67835.12, -0.026409851, 0.21105336, -1603300.6, 15262.465, 0.0014356553, 9.996805, 10.00156 
1.21484265e+3, 1.448416e+2, -1858071.1, -1478094.0, 41416.637, -0.22309768, 0.027995849, -1473632.0, 46926.063, 0.0005075534, 9.996785, 10.001827 
1.2148763e+3, 1.5484138e+2, -1698745.3, -1345645.8, 37079.85, -0.014181233, -0.17982125, -1341793.9, 80758.03, 0.000076397075, 9.99719, 10.001864 
1.2149088e+3, 1.64842e+2, -1626646.3, -1433824.4, 77464.086, 0.041075498, -0.22156131, -1406559.3, -82016.7, 0.0000008702971, 9.997755, 10.000318 
1.21494055e+3, 1.7484353e+2, -1414694.3, -1277725.4, 60793.13, -0.045671076, -0.1015421, -1254635.3, -28105.469, 0.0, 9.998524, 10.000345 
1.21497326e+3, 1.8484433e+2, -1253826.5, -1229089.5, 46470.16, -0.055145293, -0.015113085, -1193370.0, -64845.875, 0.0, 9.999297, 9.999632 
1.21500686e+3, 1.9484429e+2, -1039689.6, -1070423.8, 30571.701, 0.010782827, 0.013042415, -1020840.1, 9686.693, 0.0, 10.000075, 9.999673 
1.21503994e+3, 2.0484382e+2, -851348.8, -865149.4, 15841.266, 0.049287736, -0.021470219, -840970.25, 91559.44, 0.0, 10.000421, 10.000244 
1.21507265e+3, 2.148429e+2, -766213.06, -766165.75, 42067.508, 0.060955353, -0.14498903, -724121.94, 110411.02, 0.0, 10.0003, 10.000308 
1.2151063e+3, 2.2484247e+2, -778692.6, -915110.4, 113509.87, 0.08665341, -0.12594002, -714474.4, 22063.033, 0.0, 10.000376, 9.998579 
1.2151411e+3, 2.3484263e+2, -638243.1, -793233.7, 100514.71, 0.123568095, 0.029368356, -588818.25, 49724.867, 0.0, 10.000654, 9.998608 
1.2151742e+3, 2.4484172e+2, -448620.34, -664367.9, 59477.53, 0.03453246, 0.09041534, -433310.0, 107243.984, 0.0, 10.001342, 9.998487 
1.21520504e+3, 2.5483963e+2, -179827.95, -477284.34, 93934.96, -0.19265515, 0.025353618, -152647.5, 289923.53, 0.0, 10.002486, 9.998547 
1.2152388e+3, 2.648367e+2, -114331.94, -678396.7, 122195.76, -0.18215571, 0.009928899, -88997.984, 255602.14, 0.0, 10.003483, 9.996015 
1.2152755e+3, 2.7483287e+2, 107434.23, -518891.84, 94198.22, 0.081699766, 0.027550202, 121294.73, 367937.25, 0.0, 10.004328, 9.996029 
1.2153097e+3, 2.848294e+2, 346865.22, -302986.66, 72149.78, 0.13525562, 0.05981124, 354779.28, 503456.4, 0.00000025547132, 10.005082, 9.996477 
1.2153412e+3, 2.9482627e+2, 543516.06, -151987.78, 125570.87, -0.04132812, 0.08997479, 565493.0, 616196.44, 0.000005407341, 10.005739, 9.996524 
1.2153735e+3, 3.0482042e+2, 524632.9, -266089.97, 83425.984, -0.063219965, -0.082190424, 533338.94, 533338.94, 0.000025786676, 10.005836, 9.995364 
1.21540725e+3, 3.148142e+2, 585233.3, -11128.542, 56881.53, 0.115255184, -0.24229793, 590610.25, 590610.25, 0.000070662456, 10.005276, 9.997382 
1.2247775e+3, 1.24810554e+2, -2190065.3, -1776140.0, -44146.727, 0.11538706, 0.305781, -1771484.0, -54610.535, 0.0029179724, 9.996033, 10.001483 
1.2248085e+3, 1.348109e+2, -2041630.1, -1694151.6, 93107.96, -0.003648119, 0.22660264, -1670775.6, -51907.297, 0.0015834377, 9.996513, 10.001164 
1.224839e+3, 1.4481105e+2, -1816167.1, -1464099.1, 58861.285, -0.27895832, 0.0992833, -1454519.0, 66342.54, 0.00056846405, 9.997103, 10.001768 
1.2248741e+3, 1.5481089e+2, -1606099.4, -1308173.1, -1345.6733, 0.024667667, -0.09497441, -1308167.1, 114686.91, 0.00008951281, 9.997858, 10.0018 
1.22490734e+3, 1.6481112e+2, -1539106.4, -1403853.9, 32818.727, 0.0964438, -0.16786449, -1396311.1, -71463.336, 0.0000012652538, 9.998411, 10.000205 
1.2249389e+3, 1.7481174e+2, -1393618.3, -1278888.8, 48708.383, -0.06349231, -0.12815809, -1260999.1, -34156.14, 0.0, 9.998721, 10.000238 
1.224972e+3, 1.8481249e+2, -1285571.5, -1233104.3, 79925.6, -0.08898109, -0.046321735, -1175217.0, -46379.45, 0.0, 9.999034, 9.99973 
1.2250066e+3, 1.948133e+2, -1134805.5, -1104991.4, 104477.805, 0.02066258, 0.057362806, -1014362.5, 16469.73, 0.0, 9.999374, 9.999773 
1.22504026e+3, 2.0481288e+2, -900618.0, -900056.6, 89602.97, 0.05581348, 0.02593376, -810733.94, 122100.266, 0.0, 10.0001335, 10.000142 
1.2250729e+3, 2.1481116e+2, -620748.56, -707532.56, 56095.156, 0.014722856, -0.16597268, -593221.4, 241622.42, 0.0, 10.001354, 10.000202 
1.22510694e+3, 2.2481035e+2, -582915.1, -854541.2, 88155.75, 0.04176886, -0.16443421, -556812.7, 180039.52, 0.0, 10.001869, 9.998273 
1.2251423e+3, 2.348105e+2, -521293.06, -772518.2, 80296.32, 0.13721263, 0.022475569, -497821.7, 141038.16, 0.0, 10.001611, 9.998289 
1.225176e+3, 2.4480982e+2, -320215.34, -564607.0, 74503.305, 0.06135813, 0.104694076, -299293.88, 241575.0, 0.0, 10.002062, 9.998824 
1.2252079e+3, 2.548082e+2, -35663.74, -369161.38, 65826.08, -0.19709578, 0.052811004, -23141.14, 419738.6, 0.0, 10.003311, 9.998891 
1.2252425e+3, 2.648053e+2, -134.08127, -598678.5, 92248.41, -0.1950567, 0.013658476, 13760.796, 358668.2, 0.0, 10.004164, 9.996234 
1.2252798e+3, 2.7480105e+2, 157998.4, -472092.66, 133260.94, 0.07640914, -0.03339934, 185023.28, 431976.88, 0.0000000044422697, 10.004577, 9.996232 
1.22531466e+3, 2.8479803e+2, 332470.13, -249455.05, 111617.305, 0.15781234, 0.0069359923, 353144.6, 502127.97, 0.00000072112067, 10.004726, 9.997014 
1.2253471e+3, 2.9479626e+2, 414529.8, -155693.9, 98767.84, 0.03831676, 0.12334522, 431152.7, 482148.56, 0.00000844286, 10.0046015, 9.9970455 
1.2253794e+3, 3.0479088e+2, 356390.75, -357026.03, 43175.29, 0.0028061192, -0.023094606, 358994.2, 358994.2, 0.00003359969, 10.004725, 9.99527 
1.2254121e+3, 3.147834e+2, 559345.9, -23528.459, 60293.063, 0.096503384, -0.305878, 565517.3, 565517.3, 0.00008320647, 10.005092, 9.997385 
1.2347714e+3, 1.2477681e+2, -2241630.0, -1880407.3, 5528.4546, -0.09248194, -0.07790713, -1880322.6, -163130.34, 0.0031899144, 9.9960165, 10.000777 
1.2348054e+3, 1.3477828e+2, -2087523.3, -1788098.6, 113757.93, 0.041662473, 0.022291742, -1749782.6, -130600.09, 0.0017411282, 9.996508, 10.000523 
1.2348363e+3, 1.4478023e+2, -1869669.5, -1579022.1, 85508.56, -0.26524305, 0.1446844, -1555731.8, -34566.152, 0.0006337289, 9.997114, 10.0009775 
1.234871e+3, 1.547826e+2, -1657286.1, -1421714.6, 28730.564, -0.08176558, 0.28164405, -1418261.1, 4880.6763, 0.00010392506, 9.997885, 10.00101 
1.2349045e+3, 1.6478312e+2, -1511567.9, -1349621.5, 41884.938, -0.022779033, 0.26298907, -1339430.0, -14295.893, 0.0000017603737, 9.998423, 10.000572 
1.2349374e+3, 1.7478172e+2, -1364636.1, -1221358.3, 61584.38, -0.090779416, 0.06074028, -1198526.1, 28617.06, 0.0, 9.998731, 10.00063 
1.2349709e+3, 1.8478125e+2, -1237662.5, -1133799.3, 89268.6, -0.09534097, -0.03380364, -1082455.6, 46688.96, 0.0, 9.999034, 10.000413 
1.2350053e+3, 1.9478174e+2, -1086831.0, -1004612.8, 118535.39, -0.0356272, -0.02918537, -920260.3, 110877.58, 0.0, 9.999371, 10.000465 
1.2350395e+3, 2.0478171e+2, -959948.5, -1021029.44, 131221.56, -0.026467374, -0.01605352, -855760.25, 77376.41, 0.0, 10.00012, 9.999319 
1.23507336e+3, 2.147811e+2, -682919.75, -832146.56, 102374.69, -0.072675966, -0.011191483, -630853.5, 204287.84, 0.0, 10.001332, 9.999357 
1.2351076e+3, 2.2477986e+2, -600915.25, -883616.5, 75729.29, -0.07437359, -0.004373704, -581907.2, 155248.17, 0.0, 10.001833, 9.998092 
1.2351422e+3, 2.3477782e+2, -537427.5, -799842.06, 72390.72, -0.029954094, -0.019380804, -518782.28, 120397.74, 0.0, 10.001585, 9.998114 
1.235178e+3, 2.4477623e+2, -334907.6, -591781.06, 118490.16, 0.0446137, -0.007225204, -288599.03, 252597.66, 0.0, 10.002044, 9.998649 
1.2352147e+3, 2.5477517e+2, -53649.4, -396013.66, 115910.71, 0.15123135, 0.013732513, -18098.336, 425106.28, 0.0, 10.0032625, 9.998732 
1.23524964e+3, 2.64773e+2, 67379.984, -439643.2, 105929.09, 0.10754949, -0.0014595361, 88621.195, 433845.47, 0.0, 10.004083, 9.997364 
1.2352825e+3, 2.7476966e+2, 229203.94, -307571.22, 149732.31, -0.10959656, -0.07462369, 268146.25, 515403.22, 0.000000029118397, 10.004509, 9.997392 
1.2353173e+3, 2.8476706e+2, 311899.9, -284821.3, 103400.984, -0.059487246, -0.03832745, 329309.5, 478591.84, 0.0000010430864, 10.004689, 9.996791 
1.2353541e+3, 2.9476523e+2, 396540.16, -191717.86, 94461.414, 0.28430194, 0.09383454, 411336.44, 462637.1, 0.000011054408, 10.004592, 9.996804 
1.2353868e+3, 3.047612e+2, 391983.84, -284941.0, 52647.934, 0.27779326, 0.07026565, 396054.1, 396054.1, 0.000042319825, 10.004731, 9.995763 
1.23541564e+3, 3.1475574e+2, 599082.94, 60750.59, 76804.31, -0.065052964, -0.056600302, 609826.25, 609826.25, 0.0001004541, 10.005087, 9.997966 
1.2447676e+3, 1.2474434e+2, -2204889.5, -1824007.5, -110326.98, -0.07775827, -0.08139384, -1794358.0, -76846.586, 0.003475539, 9.996105, 10.001116 
1.2448025e+3, 1.3474609e+2, -1983197.1, -1691980.3, 27409.31, 0.08236675, 0.0077725984, -1689422.9, -69925.72, 0.0019075654, 9.99703, 10.000925 
1.2448334e+3, 1.4474802e+2, -1848991.8, -1632691.4, 44348.867, -0.28166074, 0.13601501, -1623951.5, -102470.484, 0.0007030745, 9.997532, 10.000407 
1.2448684e+3, 1.5475021e+2, -1736636.0, -1525277.5, -2502.9883, -0.10576089, 0.31413302, -1525247.9, -101785.53, 0.00011956255, 9.997623, 10.000424 
1.2449027e+3, 1.6475068e+2, -1553705.6, -1353336.1, 19197.07, -0.033087887, 0.3123846, -1351513.5, -26057.129, 0.0000023468863, 9.998064, 10.000718 
1.2449363e+3, 1.7474939e+2, -1330467.3, -1188151.0, 16667.77, -0.07632289, 0.106100686, -1186224.9, 41238.438, 0.0, 9.998895, 10.000778 
1.2449703e+3, 1.8474896e+2, -1163005.4, -1083866.8, 8919.906, -0.08103464, 0.0048901145, -1082873.9, 46589.14, 0.0, 9.999486, 10.000536 
1.2450049e+3, 1.9474944e+2, -1017870.25, -957555.94, -8637.229, -0.044620063, -0.0028746044, -956343.44, 75111.664, 0.0, 9.999784, 10.0005865 
1.2450394e+3, 2.0474944e+2, -989339.8, -1074367.8, 20144.39, -0.04239382, 0.022330875, -984808.75, -51354.13, 0.0, 10.000088, 9.998967 
1.2450741e+3, 2.147488e+2, -846628.5, -952560.5, 23038.527, -0.0789799, 0.06085021, -841834.9, -6372.0806, 0.0, 10.000385, 9.998987 
1.2451088e+3, 2.2474746e+2, -684609.7, -861039.56, 30335.514, -0.08968378, 0.05293501, -679539.5, 57937.254, 0.0, 10.000986, 9.998653 
1.24514356e+3, 2.3474535e+2, -445789.44, -688884.44, 76726.75, -0.074746154, -0.028338699, -423598.34, 215898.9, 0.0, 10.001925, 9.99871 
1.2451799e+3, 2.4474365e+2, -321950.34, -634159.4, 151887.8, 0.037175983, -0.037214868, -260251.0, 281262.88, 0.0, 10.002344, 9.998212 
1.2452183e+3, 2.5474244e+2, -242027.69, -539510.56, 122789.52, 0.25177947, 0.016030315, -197892.8, 245633.53, 0.0, 10.002198, 9.998259 
1.24525405e+3, 2.647405e+2, -135468.66, -483510.56, 84718.695, 0.2257422, 0.024478663, -115942.33, 229602.13, 0.0, 10.0024605, 9.997841 
1.2452866e+3, 2.7473778e+2, 66351.414, -332001.97, 77767.5, -0.06647493, -0.037585568, 80995.06, 328564.4, 0.00000004314659, 10.003157, 9.997874 
1.24532156e+3, 2.8473493e+2, 194923.19, -367720.63, 7414.8213, -0.06356574, -0.036643468, 195020.88, 344617.88, 0.0000012877507, 10.004005, 9.996548 
1.2453585e+3, 2.9473194e+2, 444499.66, -198444.2, -9287.2295, 0.2562372, 0.010065064, 444633.78, 496262.13, 0.000014219949, 10.0050535, 9.996533 
1.245392e+3, 3.0472863e+2, 565766.94, -190435.4, -61457.24, 0.26254404, 0.0686078, 570729.06, 570729.06, 0.000053677315, 10.005878, 9.995858 
1.24542184e+3, 3.1472495e+2, 800982.44, 167388.28, -69098.12, -0.009889988, 0.10871175, 808430.56, 808430.56, 0.00012417929, 10.006431, 9.9980545 
1.2547658e+3, 1.2471343e+2, -2099679.8, -1612975.9, -36003.387, 0.14490493, 0.33231708, -1610327.0, 107502.56, 0.0037739007, 9.996121, 10.002564 
1.2547998e+3, 1.3471447e+2, -1871922.5, -1469758.8, 60236.527, 0.10663896, 0.1975178, -1460930.3, 158880.94, 0.0020822603, 9.997059, 10.002442 
1.2548302e+3, 1.4471443e+2, -1869592.0, -1679291.1, 45026.047, -0.34975842, 0.06962784, -1669175.5, -147368.03, 0.0007764397, 9.997547, 10.000081 
1.2548664e+3, 1.5471362e+2, -1760021.8, -1576122.8, 2564.7566, -0.06032429, -0.015981643, -1576087.0, -152270.84, 0.00013646827, 9.997632, 10.0000725 
1.2549016e+3, 1.6471364e+2, -1562911.8, -1372333.1, 46805.086, 0.055121582, -0.038732413, -1361458.5, -35643.105, 0.0000030208696, 9.998061, 10.00059 
1.2549357e+3, 1.7471471e+2, -1336860.3, -1204272.8, 49070.176, -0.032950204, 0.003998755, -1188087.8, 39715.504, 0.0, 9.998904, 10.000664 
1.25497e+3, 1.847157e+2, -1192613.4, -1145908.9, 17917.037, -0.06310796, 0.06872542, -1139827.4, -10034.98, 0.0, 9.999487, 10.000111 
1.2550047e+3, 1.947165e+2, -1048982.5, -1020121.94, 4241.611, -0.025995042, 0.13450123, -1019511.44, 12271.803, 0.0, 9.999776, 10.00016 
1.2550397e+3, 2.047161e+2, -986392.1, -1063868.6, 27475.424, -0.009602633, 0.14009947, -977637.7, -43850.195, 0.0, 10.000068, 9.999051 
1.255075e+3, 2.1471433e+2, -842562.1, -939082.0, 35507.344, -0.021521885, 0.05756788, -830907.2, 4899.5474, 0.0, 10.000365, 9.99909 
1.2551104e+3, 2.247133e+2, -600608.56, -680176.3, 61833.08, -0.025877213, 0.013015868, -566866.4, 170948.9, 0.0, 10.000956, 9.999911 
1.255146e+3, 2.3471308e+2, -359184.22, -501666.97, 112478.3, -0.021533322, -0.009637815, -297283.94, 342527.88, 0.0, 10.001893, 10.000011 
1.2551822e+3, 2.4471202e+2, -373333.44, -735610.2, 142023.5, 0.024062734, 0.011409478, -324294.1, 217526.89, 0.0, 10.00232, 9.997527 
1.2552191e+3, 2.5471002e+2, -294053.34, -647476.0, 118117.46, 0.111044414, 0.05986027, -258212.02, 185632.77, 0.0, 10.002198, 9.997517 
1.2552558e+3, 2.6470783e+2, -144930.52, -505018.7, 108384.125, 0.15610336, 0.08696691, -114824.67, 231043.05, 0.0, 10.002465, 9.997693 
1.255292e+3, 2.7470538e+2, 57612.77, -349001.53, 105386.914, 0.15573665, 0.06888789, 83303.87, 331193.84, 0.00000005695946, 10.003152, 9.99776 
1.2553272e+3, 2.8470173e+2, 172352.13, -413445.47, 43633.59, 0.1032272, 0.007931207, 175584.38, 325509.97, 0.0000020177047, 10.003997, 9.99624 
1.2553608e+3, 2.9469672e+2, 420013.8, -245099.14, 33121.477, -0.019138968, -0.116714574, 421659.16, 473635.2, 0.000019251584, 10.005034, 9.9962225 
1.255395e+3, 3.046936e+2, 541554.56, -234118.83, -39707.082, -0.020981614, -0.008558337, 543581.94, 543581.94, 0.00006948611, 10.005845, 9.995576 
1.2554303e+3, 3.146914e+2, 765355.44, 114682.81, -38304.516, 0.18254606, 0.20555165, 767602.6, 767602.6, 0.00015603095, 10.006338, 9.997735 
1.264761e+3, 1.24678984e+2, -2216355.0, -1628988.3, 27121.53, 0.09055963, 0.41184315, -1627738.6, 90432.805, 0.004085261, 9.995157, 10.002914 
1.2647964e+3, 1.3468039e+2, -2157608.5, -1568959.9, -29500.518, 0.16699177, 0.2817246, -1567485.1, 52662.94, 0.0022650692, 9.9949465, 10.002771 
1.2648275e+3, 1.4468026e+2, -2114873.8, -1729183.3, -33929.4, -0.26667756, 0.096351966, -1726221.3, -204077.89, 0.00085386867, 9.995578, 10.000683 
1.2648638e+3, 1.5467921e+2, -1769804.5, -1512450.8, -5474.26, -0.06490233, -0.07168966, -1512334.4, -88182.89, 0.00015477135, 9.997277, 10.000675 
1.2648992e+3, 1.6467935e+2, -1590274.4, -1418780.1, 50655.07, 0.030546384, -0.099788636, -1404935.6, -78786.27, 0.0000038088367, 9.998018, 10.000291 
1.2649341e+3, 1.7468087e+2, -1541473.0, -1339410.9, 32014.951, -0.009611687, 0.019782687, -1334459.8, -106324.56, 0.0, 9.997659, 10.000337 
1.2649691e+3, 1.8468173e+2, -1412164.4, -1272987.5, 25171.79, -0.020754825, 0.100039795, -1268574.8, -138448.47, 0.0, 9.998071, 9.999922 
1.2650046e+3, 1.9468181e+2, -1122773.6, -1077145.8, 25408.4, 0.0028599638, 0.11254535, -1065812.0, -33688.285, 0.0, 9.999361, 9.999971 
1.2650402e+3, 2.0468117e+2, -966189.0, -1032672.75, 45576.547, 0.026130533, 0.09369364, -943019.5, -8889.669, 0.0, 10.000115, 9.99924 
1.265076e+3, 2.146797e+2, -845151.56, -919206.44, 55072.496, 0.042284243, 0.020138478, -815816.25, 20329.434, 0.0, 10.000255, 9.99928 
1.2651119e+3, 2.2467907e+2, -644632.25, -713602.6, 64778.063, 0.039913613, 0.0110032195, -605731.94, 132419.0, 0.0, 10.0007105, 9.999798 
1.2651479e+3, 2.3467937e+2, -421030.78, -546559.2, 6793.913, 0.014065779, 0.055838317, -420664.16, 219479.97, 0.0, 10.001536, 9.999874 
1.2651843e+3, 2.4467829e+2, -349673.75, -699105.44, 60.73046, 0.019610835, 0.070446536, -349673.72, 192480.08, 0.0, 10.002377, 9.997749 
1.2652212e+3, 2.5467554e+2, -127590.54, -542585.6, 40405.895, 0.056659255, 0.024625633, -123693.04, 320489.7, 0.0, 10.003231, 9.997741 
1.2652583e+3, 2.646733e+2, 40655.6, -453000.28, 70948.305, 0.10061191, 0.049725298, 50649.965, 396856.56, 0.0000000013824633, 10.0039015, 9.997359 
1.2652956e+3, 2.746715e+2, 214177.97, -313519.63, 46330.71, 0.14742155, 0.13560265, 218214.83, 466439.9, 0.00000022519924, 10.004398, 9.997404 
1.2653318e+3, 2.84668e+2, 303697.6, -335364.28, -1059.4641, 0.13333477, 0.10342096, 303699.34, 453959.25, 0.0000034696202, 10.004838, 9.996368 
1.2653665e+3, 2.9466262e+2, 453471.56, -214313.75, 13947.492, 0.046557717, -0.07262186, 453762.75, 506075.3, 0.000026204709, 10.005199, 9.996355 
1.2654011e+3, 3.0465937e+2, 504794.7, -246302.4, -36683.184, 0.023303175, 0.013914922, 506582.03, 506582.03, 0.00008946822, 10.005581, 9.995613 
1.265436e+3, 3.1465626e+2, 711576.7, 76304.49, -24051.076, 0.13901652, 0.13315965, 712485.94, 712485.94, 0.00019604806, 10.006029, 9.997615 
1.274752e+3, 1.2464098e+2, -2281909.8, -1765940.3, 64248.258, -0.31730467, 0.13052873, -1758060.5, -39524.133, 0.0044096503, 9.995154, 10.001979 
1.2747921e+3, 1.3464384e+2, -2232400.8, -1717785.8, -40895.098, 0.2508846, 0.24986039, -1714556.1, -94048.086, 0.0024558255, 9.994918, 10.001764 
1.2748253e+3, 1.4464551e+2, -2008241.8, -1503848.3, 23763.86, -0.037824344, 0.21971396, -1502731.1, 19757.752, 0.00093550276, 9.995555, 10.002243 
1.2748604e+3, 1.5464717e+2, -1656333.3, -1277597.5, 61205.305, -0.13702665, 0.15998873, -1267952.1, 156514.6, 0.00017466526, 9.997276, 10.00229 
1.2748958e+3, 1.6464798e+2, -1622365.5, -1487439.5, 36900.652, -0.1307974, 0.14086117, -1478007.0, -151550.8, 0.0000047674703, 9.998024, 9.999819 
1.2749316e+3, 1.7464793e+2, -1577375.6, -1415833.3, 19696.418, -0.023393508, 0.1562617, -1413466.4, -185008.25, 0.0, 9.997664, 9.99981 
1.2749676e+3, 1.8464716e+2, -1410356.3, -1269396.1, 69099.1, 0.028555045, 0.09793193, -1241174.0, -110709.78, 0.0, 9.99807, 9.9999485 
1.2750041e+3, 1.9464552e+2, -1119139.3, -1069824.5, 75574.83, 0.022656096, -0.06448545, -1014986.3, 17489.12, 0.0, 9.99936, 10.000023 
1.2750404e+3, 2.0464472e+2, -948410.25, -993318.7, 48806.793, 0.044832442, -0.11315553, -917140.25, 17340.639, 0.0, 10.000104, 9.999517 
1.2750767e+3, 2.1464491e+2, -826226.0, -877346.94, 60861.184, 0.09698676, -0.050809428, -785775.7, 50704.027, 0.0, 10.000243, 9.999573 
1.2751131e+3, 2.2464482e+2, -748660.4, -925270.56, 90606.21, 0.090215504, 0.048923243, -710445.6, 28037.67, 0.0, 10.0006895, 9.998356 
1.2751494e+3, 2.346444e+2, -530850.25, -766237.3, 40286.367, 0.016215738, 0.16998401, -524146.2, 116346.23, 0.0, 10.0015, 9.998383 
1.2751865e+3, 2.446426e+2, -284379.66, -553146.8, 30172.846, 0.004332837, 0.14152807, -281033.97, 261476.4, 0.0, 10.002331, 9.998774 
1.2752245e+3, 2.546392e+2, -55614.656, -382555.44, 73285.07, 0.06463035, -0.07981057, -39939.1, 404599.25, 0.0, 10.003186, 9.998861 
1.2752616e+3, 2.6463708e+2, -978.5524, -532727.75, 86341.69, 0.041117884, -0.07418659, 12689.671, 359249.06, 0.00000001588195, 10.003866, 9.996831 
1.2752977e+3, 2.7463633e+2, 169300.47, -398849.3, 67894.12, -0.08377191, 0.16988486, 177301.17, 425874.06, 0.0000005980084, 10.004363, 9.996836 
1.2753354e+3, 2.8463385e+2, 331350.84, -270034.2, 11893.623, 0.017832885, 0.24571691, 331586.0, 482185.4, 0.0000056683966, 10.004803, 9.996833 
1.2753752e+3, 2.9462945e+2, 483973.5, -140963.88, 30796.764, 0.38228768, 0.117558144, 485487.5, 538127.44, 0.000034400397, 10.005158, 9.996877 
1.2754098e+3, 3.046258e+2, 522358.66, -210806.55, -21630.45, 0.33290508, 0.12683542, 522996.25, 522996.25, 0.0001115904, 10.005578, 9.995863 
1.2754393e+3, 3.1461987e+2, 717365.7, 82885.05, 1734.5321, -0.13426863, -0.06028067, 717370.44, 717370.44, 0.0002415799, 10.00605, 9.997652 
1.2847471e+3, 1.2460465e+2, -2175463.5, -1773945.5, 126332.016, -0.37157714, 0.0057305717, -1737504.3, -18620.059, 0.0047468157, 9.996139, 10.0014515 
1.2847872e+3, 1.3460703e+2, -2062540.0, -1710010.4, -1780.8474, 0.21140434, 0.14293788, -1710001.4, -89137.375, 0.0026545508, 9.996409, 10.001097 
1.2848218e+3, 1.4460865e+2, -1869207.1, -1474228.3, 48645.1, 0.0015733482, 0.15818976, -1468325.4, 54523.063, 0.0010215283, 9.99667, 10.001909 
1.2848578e+3, 1.5461129e+2, -1715062.5, -1344760.5, -67668.47, -0.09884467, 0.23064652, -1332782.3, 92037.88, 0.00019628371, 9.997039, 10.0019455 
1.2848938e+3, 1.6461238e+2, -1645895.5, -1458723.9, -161950.2, -0.108258285, 0.24220195, -1365263.8, -38456.082, 0.0000059623408, 9.997692, 10.000175 
1.2849295e+3, 1.7461187e+2, -1402508.0, -1288353.3, -115146.33, -0.045551594, 0.1735428, -1216914.1, 11897.826, 0.0, 9.998682, 10.000194 
1.284966e+3, 1.8461086e+2, -1209768.4, -1170849.6, -5841.552, 0.004731571, 0.074271366, -1169991.8, -39172.47, 0.0, 9.999443, 9.99996 
1.2850039e+3, 1.946093e+2, -1034149.7, -1029699.25, -6365.4834, 0.04952121, -0.0802971, -1025181.25, 7649.1846, 0.0, 9.999949, 10.000012 
1.285041e+3, 2.0460865e+2, -888027.3, -970332.6, -60880.75, 0.07401399, -0.1107491, -855695.25, 79139.52, 0.0, 10.000546, 9.99946 
1.285077e+3, 2.1460906e+2, -687422.2, -816601.8, -79441.32, 0.068176635, -0.019499391, -649626.6, 187204.47, 0.0, 10.0012245, 9.999516 
1.2851138e+3, 2.2460875e+2, -643665.06, -895276.2, -18913.836, 0.06417688, 0.07283516, -642251.25, 96585.484, 0.0, 10.0015, 9.998172 
1.2851512e+3, 2.346076e+2, -572726.2, -807160.5, 20052.984, 0.06270526, 0.14181975, -571023.3, 69830.06, 0.0, 10.001299, 9.9982 
1.2851891e+3, 2.4460576e+2, -390258.3, -605730.44, 49274.793, 0.06904605, 0.11952448, -379524.7, 163347.61, 0.0, 10.001607, 9.998764 
1.2852274e+3, 2.5460318e+2, -151540.75, -428352.72, 9142.885, 0.08076392, -0.022571145, -151239.11, 293654.3, 0.0, 10.002526, 9.998864 
1.2852651e+3, 2.646011e+2, -62541.055, -524212.03, 614.3943, 0.037459046, -0.02457116, -62540.234, 284372.84, 0.000000012136417, 10.003282, 9.997169 
1.2853017e+3, 2.7459955e+2, 117697.97, -387035.38, 41333.49, -0.075690724, 0.10522785, 121060.44, 369992.56, 0.0000008056202, 10.003845, 9.997169 
1.28534e+3, 2.845971e+2, 311656.16, -246273.13, 19363.0, 0.020149246, 0.15508483, 312327.34, 463284.3, 0.000007765126, 10.004528, 9.9971285 
1.28538e+3, 2.945938e+2, 536434.56, -83321.305, 15042.126, 0.35766897, 0.10653898, 536799.44, 589786.56, 0.000042956985, 10.005382, 9.997165 
1.2854156e+3, 3.0459073e+2, 615991.25, -190589.92, -48552.504, 0.32290217, 0.16586386, 618903.4, 618903.4, 0.00013524634, 10.0063305, 9.99564 
1.2854466e+3, 3.145841e+2, 875976.44, 98299.14, -63999.855, -0.074410416, -0.061367124, 881208.2, 881208.2, 0.0002910185, 10.0074005, 9.997113 
1.2947462e+3, 1.24570526e+2, -2176119.0, -1788016.5, 165767.8, -0.07766991, 0.07317405, -1726852.5, -7642.5225, 0.0050962004, 9.996188, 10.001335 
1.2947819e+3, 1.3457006e+2, -2077337.9, -1748367.0, 8812.148, 0.027933098, -0.043914784, -1748131.1, -126916.85, 0.0028611089, 9.996445, 10.000814 
1.2948166e+3, 1.445696e+2, -2031904.8, -1818754.5, 57686.016, -0.1857406, -0.10632776, -1804144.1, -280921.7, 0.00111182, 9.9966955, 9.999536 
1.294856e+3, 1.5457147e+2, -1882609.6, -1696038.6, -54503.39, 0.035536405, 0.13117296, -1681283.4, -256070.67, 0.000219555, 9.99705, 9.999531 
1.2948933e+3, 1.6457246e+2, -1562618.0, -1286565.4, -129760.984, 0.08859432, 0.19963905, -1235147.4, 92057.41, 0.0000074533, 9.997694, 10.001356 
1.2949276e+3, 1.7457263e+2, -1308709.4, -1095797.4, -77803.125, -0.08914554, 0.06888156, -1070396.6, 158800.22, 0.0, 9.99869, 10.001512 
1.2949644e+3, 1.8457289e+2, -1209997.4, -1172000.1, 10075.604, -0.10933212, 0.027048705, -1169493.8, -38302.67, 0.0, 9.999443, 9.999954 
1.295004e+3, 1.9457318e+2, -1037045.1, -1037246.4, 14152.734, 0.06812645, 0.06423959, -1022992.6, 10195.692, 0.0, 9.999954, 9.999961 
1.2950417e+3, 2.0457296e+2, -916347.4, -1027763.7, -37633.676, 0.09652326, 0.098923855, -904826.9, 30363.877, 0.0, 10.000539, 9.999072 
1.295077e+3, 2.1457219e+2, -719312.4, -877266.75, -52196.688, -0.05575222, 0.112135276, -703622.3, 133576.5, 0.0, 10.001198, 9.999113 
1.295114e+3, 2.2457093e+2, -579728.6, -755121.8, -28398.19, -0.054227233, 0.08287477, -575245.2, 163965.19, 0.0, 10.001467, 9.999149 
1.2951532e+3, 2.345691e+2, -500554.4, -656447.56, 13505.746, 0.13091862, -0.019840747, -499393.0, 141833.23, 0.0, 10.001294, 9.999237 
1.295192e+3, 2.4456789e+2, -457300.94, -745032.44, 77998.266, 0.18809444, 0.012419611, -437517.44, 105721.484, 0.0, 10.001605, 9.997809 
1.29523e+3, 2.5456738e+2, -224696.9, -578656.75, 46390.76, 0.08934832, 0.18281439, -218717.83, 226529.97, 0.0, 10.002518, 9.997837 
1.2952685e+3, 2.6456535e+2, 8601.657, -371863.5, 20783.996, 0.064187415, 0.18295379, 9733.675, 357001.56, 0.000000000043608516, 10.003261, 9.998225 
1.2953076e+3, 2.7456135e+2, 190791.55, -221157.98, 63459.67, 0.12479845, -0.044015966, 200345.75, 449647.28, 0.0000005693752, 10.003788, 9.998333 
1.2953454e+3, 2.8455818e+2, 312627.66, -234372.33, 46626.402, 0.11136591, -0.13510765, 316573.63, 467903.6, 0.000009081058, 10.004478, 9.997239 
1.2953818e+3, 2.9455605e+2, 536892.7, -75418.17, 46637.24, 0.00496951, -0.07018893, 540424.5, 593775.44, 0.000051917952, 10.005346, 9.99724 
1.2954187e+3, 3.0455425e+2, 563551.8, -289857.84, -14185.059, 0.01298522, 0.14387503, 563787.5, 563787.5, 0.00016106354, 10.006292, 9.994974 
1.295457e+3, 3.145488e+2, 789324.8, -58450.668, -14984.039, 0.22625905, 0.10185697, 789589.56, 789589.56, 0.00034496613, 10.007306, 9.9960785 
1.3047428e+3, 1.24533124e+2, -2329765.5, -1820648.6, 56546.664, 0.038951267, 0.050647654, -1814443.8, -94871.57, 0.0054552136, 9.99496, 10.0017 
1.3047779e+3, 1.3453281e+2, -2018258.9, -1711175.6, -106680.484, -0.026783666, -0.05875645, -1677752.8, -56178.2, 0.003073975, 9.996811, 10.0008955 
1.3048136e+3, 1.4453198e+2, -1917531.3, -1778301.9, 6286.469, -0.18809916, -0.1542121, -1778018.6, -254432.98, 0.0012055306, 9.99755, 9.999395 
1.3048534e+3, 1.5453297e+2, -1883456.4, -1712295.0, 62870.813, 0.061978478, 0.010648392, -1691683.4, -266099.72, 0.000244213, 9.997121, 9.99938 
1.3048914e+3, 1.6453367e+2, -1623911.9, -1345854.9, 69691.664, 0.13525745, 0.06790532, -1329365.4, -1786.0165, 0.000009295233, 9.997404, 10.001089 
1.3049267e+3, 1.7453425e+2, -1346481.8, -1145529.4, -1681.9764, -0.033126153, 0.004851989, -1145515.3, 84054.48, 0.0, 9.998568, 10.00123 
1.304964e+3, 1.8453489e+2, -1272875.4, -1236354.8, -15806.008, -0.06459442, 0.03241969, -1230464.0, -98901.35, 0.0, 9.999156, 9.99965 
1.3050036e+3, 1.9453558e+2, -1193040.5, -1145502.4, -37248.258, 0.069439106, 0.13815224, -1125085.5, -91526.09, 0.0, 9.999029, 9.9996605 
1.3050416e+3, 2.0453532e+2, -1061969.6, -1075926.4, -50075.223, 0.08842661, 0.17600271, -1018388.9, -82825.914, 0.0, 9.999446, 9.999266 
1.305078e+3, 2.1453403e+2, -800947.25, -892259.6, -21477.416, -0.029829908, 0.11588274, -796147.9, 41426.285, 0.0, 10.000534, 9.99933 
1.3051157e+3, 2.245325e+2, -569359.44, -752700.25, -22309.076, -0.041029725, 0.049548153, -566683.9, 172903.08, 0.0, 10.001548, 9.999127 
1.3051544e+3, 2.3453072e+2, -334722.47, -580232.5, -64731.777, 0.072451584, -0.045584835, -318700.7, 322900.97, 0.0, 10.002452, 9.999203 
1.3051933e+3, 2.4452947e+2, -247658.48, -656613.75, 262.4349, 0.11174961, -0.007880975, -247658.31, 295956.22, 0.0, 10.0031, 9.997696 
1.3052325e+3, 2.5452885e+2, -100829.766, -533065.1, 28816.92, 0.06167037, 0.16101259, -98917.016, 346708.34, 0.0, 10.003427, 9.997715 
1.3052718e+3, 2.6452702e+2, 68990.164, -312339.38, -905.19977, 0.06516721, 0.17840146, 68992.31, 416635.4, 0.0, 10.003548, 9.998495 
1.3053112e+3, 2.745237e+2, 162631.5, -204149.86, -25817.686, 0.12832959, -0.007700974, 164439.89, 414109.13, 0.00000036080058, 10.003461, 9.998608 
1.3053496e+3, 2.8452048e+2, 214495.28, -307626.4, -52407.29, 0.11151692, -0.10600622, 219703.64, 371401.75, 0.000010970739, 10.003912, 9.997009 
1.3053869e+3, 2.9451743e+2, 474780.66, -134538.61, -77892.67, -0.0053614713, -0.10878214, 484580.5, 538309.6, 0.000062656625, 10.005039, 9.9969845 
1.305425e+3, 3.0451548e+2, 591630.06, -221534.31, -102118.56, 0.01937257, 0.08253555, 604258.2, 604258.2, 0.0001898496, 10.006247, 9.995469 
1.3054647e+3, 3.14511e+2, 839895.8, -12417.645, -25867.96, 0.2736049, 0.08869482, 840680.2, 840680.2, 0.00040445788, 10.007553, 9.996279 
1.3147363e+3, 1.2449231e+2, -2274426.3, -1707384.6, 128620.26, -0.10973293, -0.06868052, -1679574.1, 40398.656, 0.005819013, 9.994954, 10.002487 
1.3147752e+3, 1.3449538e+2, -1981907.0, -1638350.6, -39236.62, 0.037647944, 0.11281309, -1633926.5, -11982.275, 0.0032902497, 9.996823, 10.001388 
1.3148129e+3, 1.444961e+2, -1756648.4, -1457030.0, -11247.096, -0.007815262, 0.03873708, -1456608.4, 67327.266, 0.0013013786, 9.997598, 10.001582 
1.3148496e+3, 1.5449595e+2, -1724822.3, -1386423.1, 48367.754, -0.037793793, -0.1308345, -1379645.5, 46285.996, 0.00026992275, 9.997133, 10.001612 
1.3148873e+3, 1.644961e+2, -1746328.0, -1601324.5, 109197.51, 0.005735975, -0.16072607, -1542751.5, -214821.53, 0.00001153221, 9.997405, 9.999338 
1.3149267e+3, 1.744968e+2, -1478179.8, -1424337.1, 44105.258, 0.104697324, -0.020124063, -1399586.1, -169656.73, 0.0, 9.998588, 9.999309 
1.314965e+3, 1.84497e+2, -1315243.0, -1327290.9, -20971.656, 0.119862296, 0.092080496, -1299447.3, -167513.95, 0.0, 9.999167, 9.9990225 
1.3150021e+3, 1.9449656e+2, -1233335.0, -1228657.3, -41698.766, 0.039930243, 0.14324687, -1189231.9, -155288.9, 0.0, 9.999025, 9.999093 
1.3150404e+3, 2.0449577e+2, -1010868.44, -968164.0, -13996.598, 0.035278734, 0.12249452, -963985.44, -28034.342, 0.0, 9.999435, 10.000012 
1.3150801e+3, 2.1449462e+2, -744615.56, -773280.1, 21104.434, 0.120036945, -0.004261866, -733436.8, 104519.984, 0.0, 10.000522, 10.0001545 
1.3151182e+3, 2.2449352e+2, -642509.06, -896469.4, 9326.482, 0.077962026, -0.026366735, -642167.0, 97798.91, 0.0, 10.001511, 9.99816 
1.3151549e+3, 2.3449242e+2, -412172.84, -736810.7, -27565.44, -0.11951558, 0.05357099, -409848.88, 232130.58, 0.0, 10.002429, 9.99814 
1.3151938e+3, 2.4449053e+2, -209408.64, -568596.3, 11069.703, -0.16347274, 0.054046266, -209067.8, 334930.78, 0.0, 10.003065, 9.998318 
1.315235e+3, 2.5448778e+2, -57699.945, -431752.84, 44101.84, -0.019429298, -0.06087226, -52570.56, 393453.06, 0.0, 10.003378, 9.998433 
1.315275e+3, 2.6448637e+2, 30797.61, -384823.03, -4464.4478, 0.023582961, -0.016460195, 30845.559, 378882.13, 0.0, 10.003511, 9.998018 
1.3153127e+3, 2.744865e+2, 126202.12, -281372.88, -26070.844, -0.061683547, 0.19387613, 127862.99, 377898.56, 0.0000005724453, 10.003464, 9.998077 
1.3153525e+3, 2.8448385e+2, 177900.36, -386750.47, -14351.256, 0.0057178917, 0.20775114, 178264.88, 330326.75, 0.000014379956, 10.003925, 9.996458 
1.3153945e+3, 2.9447794e+2, 431647.34, -215948.78, -29388.6, 0.25767228, -0.025326705, 432978.3, 487098.06, 0.00007548897, 10.005007, 9.996438 
1.3154338e+3, 3.0447465e+2, 688445.7, -12151.177, -51490.91, 0.28216758, -0.011425458, 692209.8, 692209.8, 0.00022179697, 10.0062065, 9.996928 
1.3154703e+3, 3.144712e+2, 914359.7, 165794.73, 30446.943, 0.06910591, -0.058288325, 915596.0, 915596.0, 0.0004672376, 10.007456, 9.997551 
1.3247308e+3, 1.2445161e+2, -2127800.5, -1602820.1, 129546.625, -0.18536462, -0.1331308, -1572593.0, 147775.72, 0.006183249, 9.99581, 10.002795 
1.324771e+3, 1.3445525e+2, -2202505.3, -1739290.9, -79014.81, 0.028644996, 0.10155554, -1726183.5, -103847.35, 0.0035072896, 9.995293, 10.001429 
1.3248107e+3, 1.4445679e+2, -1977611.6, -1492758.8, -121702.16, 0.10651465, 0.07894746, -1463925.1, 60394.32, 0.0013982238, 9.995784, 10.002208 
1.3248467e+3, 1.5445691e+2, -1591301.5, -1254026.3, -188172.44, -0.049940366, -0.12581672, -1169983.3, 256327.7, 0.00029637254, 9.997753, 10.002225 
1.324885e+3, 1.6445711e+2, -1554267.8, -1520622.0, -138212.11, -0.037110064, -0.17452869, -1398212.6, -69904.445, 0.000014169166, 9.998776, 9.999227 
1.3249256e+3, 1.7445762e+2, -1488241.5, -1445594.6, -74730.625, 0.14035815, -0.034181915, -1389204.8, -158894.5, 0.0, 9.998592, 9.999157 
1.3249646e+3, 1.8445759e+2, -1315558.8, -1310560.9, -33418.645, 0.16812395, 0.055112995, -1279547.9, -147231.25, 0.0, 9.9991, 9.999167 
1.3250017e+3, 1.944568e+2, -1004218.94, -1101448.4, -1981.0016, 0.019363519, 0.056863975, -1004178.6, 30150.072, 0.0, 10.000525, 9.999244 
1.3250402e+3, 2.0445615e+2, -778954.5, -868432.1, 14033.554, -0.0055654272, 0.045499954, -776805.1, 159530.83, 0.0, 10.001081, 9.999904 
1.3250804e+3, 2.1445572e+2, -753693.7, -790821.1, -27968.143, 0.11578483, 0.0036374722, -738689.1, 99647.3, 0.0, 10.000522, 10.000032 
1.3251197e+3, 2.2445479e+2, -736744.8, -959336.56, -8938.773, 0.104528226, 0.015279281, -736386.44, 3958.6465, 0.0, 10.000943, 9.998001 
1.3251579e+3, 2.3445323e+2, -405721.72, -752210.2, 16752.66, -0.06877631, 0.0656572, -404913.6, 237450.28, 0.0, 10.002557, 9.9979725 
1.325197e+3, 2.4445118e+2, -167433.53, -524904.44, 31826.611, -0.13322622, 0.048726354, -164622.03, 379761.56, 0.0, 10.003249, 9.9985285 
1.3252376e+3, 2.5444868e+2, -130858.65, -441504.6, 20313.621, -0.06871521, -0.066257566, -129535.945, 316867.38, 0.0, 10.002765, 9.998661 
1.3252775e+3, 2.644468e+2, -84855.375, -521268.28, -25191.203, -0.045009665, -0.042913236, -83406.07, 265014.3, 0.0, 10.003065, 9.997295 
1.3253164e+3, 2.7444562e+2, 202163.98, -331904.16, -66959.36, -0.07433201, 0.11286335, 210431.11, 460866.8, 0.0000009942776, 10.004362, 9.997299 
1.3253571e+3, 2.844428e+2, 393292.66, -244542.81, -29144.492, 0.016743558, 0.13634324, 394621.6, 547085.75, 0.000017913975, 10.005247, 9.996798 
1.3253997e+3, 2.9443824e+2, 550007.7, -112354.76, 13353.3955, 0.25315228, -0.0041313753, 550276.8, 604783.2, 0.00008779618, 10.005624, 9.996852 
1.3254398e+3, 3.0443493e+2, 676119.7, -33625.77, -8234.784, 0.2672038, -0.0046682707, 676215.25, 676215.25, 0.00025326965, 10.006198, 9.996782 
1.3254772e+3, 3.144308e+2, 828935.94, 74200.97, -48989.547, 0.03856459, -0.096757665, 832102.5, 832102.5, 0.00052671705, 10.007081, 9.997106 
1.334726e+3, 1.244113e+2, -2138406.0, -1641416.0, 87643.03, -0.24450913, -0.124056436, -1626413.3, 94343.586, 0.0065457188, 9.995877, 10.0025 
1.3347654e+3, 1.3441233e+2, -2239143.3, -1806784.9, -103794.14, -0.06933202, -0.10286471, -1783158.6, -160408.05, 0.0037237175, 9.99526, 10.000981 
1.3348067e+3, 1.4441389e+2, -2053632.6, -1647497.6, -57515.836, 0.12917028, -0.049940106, -1639509.5, -114770.734, 0.0014951822, 9.995762, 10.001161 
1.3348451e+3, 1.544158e+2, -1660987.3, -1405786.8, -113110.26, 0.0067082685, 0.029388797, -1362870.9, 63851.85, 0.00032323142, 9.997778, 10.001172 
1.334884e+3, 1.6441678e+2, -1444059.9, -1298456.1, -146540.1, -0.012363345, 0.04184781, -1207630.0, 121084.01, 0.000017128494, 9.998803, 10.00074 
1.3349234e+3, 1.7441681e+2, -1370985.8, -1203969.0, -83138.734, 0.060588002, -0.030525735, -1169639.8, 61072.184, 0.00000000003443261, 9.9986, 10.000812 
1.3349625e+3, 1.844167e+2, -1249313.6, -1176195.3, 13390.382, 0.0621381, -0.07754558, -1173820.3, -41107.867, 0.0, 9.999108, 10.000088 
1.3350019e+3, 1.9441639e+2, -939870.9, -970298.7, 52731.023, -0.013945614, -0.12077655, -900202.9, 134513.36, 0.0, 10.000533, 10.000141 
1.3350408e+3, 2.044165e+2, -847281.94, -1009667.6, -5358.6675, -0.0531287, -0.055026095, -847105.3, 89611.7, 0.0, 10.001075, 9.99894 
1.3350792e+3, 2.1441728e+2, -828670.94, -948342.1, -47666.53, -0.04946413, 0.13043118, -812005.56, 26707.652, 0.0, 10.0005245, 9.998953 
1.3351198e+3, 2.2441632e+2, -697906.94, -875140.8, 44297.8, 0.023682257, 0.16895337, -687451.94, 53272.633, 0.0, 10.000928, 9.998586 
1.3351628e+3, 2.3441324e+2, -362289.78, -653587.94, 79315.1, 0.18663569, -0.0023442677, -342093.94, 300660.44, 0.0, 10.00252, 9.998668 
1.3352032e+3, 2.4441144e+2, -188957.69, -557846.94, 14117.3955, 0.16066517, -0.022671936, -188418.2, 356351.53, 0.0, 10.003197, 9.998328 
1.33524e+3, 2.544113e+2, -148472.67, -477904.25, 1882.9014, -0.10464017, 0.12511979, -148461.92, 298304.53, 0.0, 10.002762, 9.998412 
1.3352793e+3, 2.6440823e+2, -152177.64, -661506.0, 16791.795, -0.15847267, 0.08665844, -151624.64, 197170.97, 0.000000000011989131, 10.003065, 9.996335 
1.335322e+3, 2.744015e+2, 124764.24, -480444.25, -12317.197, 0.049236294, -0.21517356, 125014.81, 375880.72, 0.0000012606838, 10.004309, 9.996305 
1.3353632e+3, 2.8439784e+2, 459182.7, -94833.125, -11657.505, 0.113749765, -0.2725298, 459427.88, 612328.8, 0.000020104224, 10.005188, 9.997857 
1.3354027e+3, 2.9439825e+2, 631446.7, 60321.543, 30387.861, 0.0023798826, -0.029914398, 633059.0, 687948.75, 0.00009708737, 10.005607, 9.998049 
1.3354433e+3, 3.0439615e+2, 568412.06, -254782.03, 22196.88, -0.0084925005, 0.095082134, 569010.1, 569010.1, 0.0002806937, 10.006188, 9.995266 
1.335485e+3, 3.1438982e+2, 678919.0, -203846.6, -560.63586, 0.11648428, -0.047426194, 678919.4, 678919.4, 0.00058022287, 10.006945, 9.995256 
1.3447227e+3, 1.2437038e+2, -2148488.0, -1622947.0, 70424.25, -0.15530205, -0.16522227, -1613673.6, 107479.48, 0.0069055543, 9.995718, 10.002698 
1.3447607e+3, 1.3437042e+2, -2035700.8, -1691540.4, -56848.887, -0.12942673, -0.25903463, -1682393.1, -59238.54, 0.0039389143, 9.996579, 10.001136 
1.3448027e+3, 1.4437239e+2, -1886587.9, -1608189.4, 78972.51, 0.111447535, -0.15603627, -1587347.8, -62208.07, 0.0015916337, 9.997098, 10.00078 
1.3448425e+3, 1.5437467e+2, -1755493.3, -1497726.8, 70071.28, -0.0026395454, 0.0025958319, -1479910.1, -52785.734, 0.0003501717, 9.997343, 10.000745 
1.3448821e+3, 1.6437596e+2, -1545662.9, -1283878.9, 3079.964, -0.024657032, 0.040741984, -1283842.6, 45271.25, 0.000020254476, 9.997836, 10.001306 
1.3449216e+3, 1.7437623e+2, -1315134.6, -1108161.4, -16580.566, 0.031037837, -0.07144796, -1106841.5, 124265.39, 0.0000000014653116, 9.998687, 10.001429 
1.3449615e+3, 1.8437645e+2, -1226693.1, -1146567.8, 29424.498, 0.050450865, -0.12727283, -1136923.0, -3820.387, 0.0, 9.999184, 10.000254 
1.345002e+3, 1.9437656e+2, -1124483.6, -1043667.75, 7313.6514, 0.027727611, -0.13965839, -1043011.2, -7908.9717, 0.0, 9.999203, 10.000277 
1.3450417e+3, 2.0437656e+2, -1036168.7, -1152337.6, -63645.055, -0.015151358, -0.072187126, -1008087.6, -70982.8, 0.0, 10.000005, 9.998473 
1.34508e+3, 2.1437645e+2, -677493.8, -931808.2, -67967.09, -0.08905908, 0.07641362, -660468.9, 178641.81, 0.0, 10.001808, 9.998445 
1.3451208e+3, 2.2437526e+2, -466076.34, -773731.7, 21554.145, -0.036787566, 0.12266339, -464573.63, 276551.5, 0.0, 10.0025625, 9.998496 
1.3451649e+3, 2.3437281e+2, -447304.88, -700534.25, -3696.3484, 0.17648481, 0.021329321, -447250.94, 195898.44, 0.0, 10.001964, 9.998611 
1.345206e+3, 2.4437098e+2, -350242.03, -651853.2, -93742.516, 0.18498614, 0.011018133, -323480.78, 221684.48, 0.0, 10.002165, 9.998178 
1.3452435e+3, 2.5436994e+2, -67310.08, -456377.9, -104056.78, -0.06814166, 0.085316755, -41228.36, 405942.47, 0.0, 10.003402, 9.998251 
1.3452832e+3, 2.6436684e+2, 15882.228, -535403.9, -34914.426, -0.12250149, 0.033438005, 18084.652, 367284.44, 0.00000000084805885, 10.004034, 9.99673 
1.3453262e+3, 2.743612e+2, 90917.25, -447727.06, 28232.771, 0.06783714, -0.1989505, 92393.016, 343650.63, 0.0000013212255, 10.003872, 9.9967375 
1.3453679e+3, 2.8435776e+2, 335689.6, -183109.67, 60832.215, 0.11685087, -0.24455826, 342727.06, 496016.78, 0.000021181284, 10.004463, 9.997599 
1.3454083e+3, 2.9435715e+2, 678425.44, 50293.145, -2826.5862, -0.012776041, -0.07770235, 678438.2, 733727.25, 0.00010333953, 10.006071, 9.997756 
1.3454495e+3, 3.0435428e+2, 659684.2, -201005.75, -45146.137, -0.0068972516, -0.019701311, 662045.75, 662045.75, 0.000302126, 10.006768, 9.995359 
1.3454919e+3, 3.1434906e+2, 581609.6, -237863.06, 41385.87, 0.15927415, -0.061935525, 583694.44, 583694.44, 0.00062571664, 10.006211, 9.995378 
1.3547203e+3, 1.243288e+2, -2099635.8, -1528977.3, 65638.79, 0.04011952, -0.2802736, -1521524.6, 200033.27, 0.0072628423, 9.995742, 10.003339 
1.3547568e+3, 1.3432981e+2, -1970851.8, -1565039.3, -20582.455, -0.16599487, -0.36070406, -1563998.0, 59547.34, 0.004152666, 9.996616, 10.001986 
1.3547991e+3, 1.4433265e+2, -1860398.5, -1569257.8, 86685.914, 0.025866793, -0.22864757, -1545402.1, -19883.453, 0.0016872559, 9.997157, 10.001022 
1.3548388e+3, 1.5433371e+2, -1739948.0, -1468552.3, 81463.875, -0.09648346, -0.21144697, -1445977.4, -18463.55, 0.0003769789, 9.997353, 10.000942 
1.3548793e+3, 1.6433473e+2, -1575652.6, -1345884.8, 33127.324, -0.09246787, -0.18941416, -1341203.9, -11697.225, 0.000023370363, 9.99783, 10.000886 
1.3549203e+3, 1.7433594e+2, -1344409.5, -1171150.6, 17884.154, 0.03592146, -0.16287312, -1169323.8, 62170.51, 0.0000000068048798, 9.998693, 10.000994 
1.3549612e+3, 1.8433689e+2, -1269342.6, -1238009.9, 29472.008, 0.111858904, -0.09432286, -1220299.1, -86812.28, 0.0, 9.999191, 9.999624 
1.3550022e+3, 1.9433741e+2, -1168341.5, -1137552.1, 8767.097, 0.13110128, 0.00007193507, -1135230.8, -99744.664, 0.0, 9.999211, 9.99963 
1.3550428e+3, 2.0433636e+2, -1036063.9, -1152870.0, -2641.9736, 0.09249979, -0.001898105, -1036004.1, -98505.49, 0.0, 10.000006, 9.99847 
1.3550824e+3, 2.1433333e+2, -676995.0, -926544.2, 1179.3506, -0.026429655, -0.14965162, -676989.44, 162538.36, 0.0, 10.001786, 9.998492 
1.3551228e+3, 2.2433168e+2, -523389.03, -884069.0, 1840.7194, -0.09422927, -0.11835385, -523379.63, 218166.31, 0.0, 10.002524, 9.997757 
1.355164e+3, 2.3433189e+2, -504661.4, -816802.5, -23228.746, -0.09538132, 0.12553796, -502942.25, 140606.78, 0.0, 10.00195, 9.997821 
1.3552056e+3, 2.4432988e+2, -362209.6, -670766.1, -52303.19, -0.060907107, 0.14354151, -353584.8, 191984.67, 0.0, 10.002138, 9.998062 
1.3552475e+3, 2.5432497e+2, -77721.7, -468297.78, -52463.55, 0.015973143, -0.15977743, -70797.37, 376815.03, 0.0, 10.003359, 9.998191 
1.3552886e+3, 2.6432276e+2, 118922.97, -314101.13, -37540.625, 0.034086175, -0.19120608, 122153.42, 471784.44, 0.000000010268834, 10.003998, 9.99827 
1.3553292e+3, 2.7432418e+2, 206670.97, -207479.22, 21830.037, -0.022518681, 0.11722504, 207818.45, 459435.2, 0.0000015806194, 10.003869, 9.99839 
1.3553713e+3, 2.84322e+2, 234646.7, -386191.56, 110988.9, 0.010501806, 0.16933408, 253891.9, 407528.84, 0.000021972202, 10.004434, 9.996219 
1.355416e+3, 2.9431498e+2, 542155.6, -196050.36, 61777.035, 0.15324056, -0.14185047, 547289.75, 602992.7, 0.00010728907, 10.005912, 9.9961405 
1.3554585e+3, 3.0430955e+2, 735960.6, -6534.796, -59894.727, 0.21342413, -0.31795767, 740761.1, 740761.1, 0.00031695052, 10.006612, 9.996771 
1.355498e+3, 3.1430823e+2, 699314.94, 17564.387, 24894.137, 0.14101498, -0.13404311, 700222.7, 700222.7, 0.0006591052, 10.0061655, 9.997155 
1.364716e+3, 1.24288574e+2, -2264452.8, -1643509.9, 102071.61, 0.0887099, -0.2786522, -1627161.6, 94788.32, 0.0076198755, 9.994762, 10.003022 
1.3647528e+3, 1.342894e+2, -1979521.4, -1571626.1, -20793.234, -0.2160618, -0.37433833, -1570568.9, 53370.465, 0.004366158, 9.996561, 10.001969 
1.364796e+3, 1.442926e+2, -1807487.1, -1533568.8, 3112.2742, -0.0017147, -0.20924635, -1533533.4, -7625.1245, 0.0017823466, 9.9974785, 10.001112 
1.3648361e+3, 1.5429302e+2, -1718602.1, -1451634.9, -15972.355, -0.097048275, -0.2624755, -1450682.6, -22775.094, 0.0004035849, 9.997466, 10.001007 
1.364877e+3, 1.6429363e+2, -1603065.8, -1409909.0, -38575.684, -0.090469636, -0.26234546, -1402490.0, -72585.56, 0.000026350568, 9.997862, 10.000428 
1.3649186e+3, 1.7429474e+2, -1367744.1, -1238074.8, -61554.95, 0.008353577, -0.19640225, -1213508.4, 18387.076, 0.000000016360648, 9.998774, 10.000494 
1.3649604e+3, 1.8429555e+2, -1218774.6, -1250600.9, -52296.918, 0.07613276, -0.096254475, -1180023.4, -46132.438, 0.0, 9.999702, 9.99929 
1.365002e+3, 1.9429596e+2, -971815.94, -1079673.0, -53890.62, 0.109813705, 0.02007617, -949504.8, 86387.266, 0.0, 10.00072, 9.999301 
1.3650434e+3, 2.0429477e+2, -813401.9, -999924.5, -21051.58, 0.09730995, 0.004085377, -811055.44, 126849.375, 0.0, 10.001342, 9.998876 
1.3650844e+3, 2.1429163e+2, -695167.2, -882666.9, 9946.237, 0.018814366, -0.20056157, -694641.06, 145290.4, 0.0, 10.001443, 9.998958 
1.3651252e+3, 2.2428975e+2, -648135.25, -965780.56, 16502.19, -0.058098305, -0.20731214, -647280.25, 94669.72, 0.0, 10.001762, 9.9975605 
1.3651657e+3, 2.3428956e+2, -466589.16, -826919.0, 23047.4, -0.13363135, 0.0200165, -465121.0, 178836.63, 0.0, 10.002336, 9.997565 
1.3652076e+3, 2.4428736e+2, -289296.84, -658756.3, 39540.02, -0.108676575, 0.043055356, -285112.63, 260868.19, 0.0, 10.00274, 9.997853 
1.3652508e+3, 2.542826e+2, -156418.64, -528049.0, 25575.459, 0.039625034, -0.22628886, -154666.8, 293356.97, 0.0, 10.002914, 9.9979925 
1.365293e+3, 2.6428053e+2, 34188.48, -375903.16, -22699.764, 0.08858375, -0.22739796, 35441.152, 385483.47, 0.000000029839093, 10.003512, 9.9980755 
1.3653336e+3, 2.7428195e+2, 312898.84, -178723.98, -96841.37, 0.0072279046, 0.10257109, 331287.16, 583315.5, 0.0000019376148, 10.004703, 9.998184 
1.365376e+3, 2.8427982e+2, 281869.34, -366003.47, -51033.773, 0.029989364, 0.1770961, 285864.7, 439913.44, 0.00002221065, 10.004777, 9.996188 
1.3654208e+3, 2.9427305e+2, 170919.42, -373957.88, 1350.3223, 0.18622923, -0.11123705, 170922.77, 227037.02, 0.00010862789, 10.003361, 9.996143 
1.3654639e+3, 3.042673e+2, 345446.63, -177078.03, -44715.96, 0.24885209, -0.32390183, 349245.63, 349245.63, 0.00032415809, 10.003856, 9.9969225 
1.3655043e+3, 3.142662e+2, 841717.3, 134544.94, -65309.184, 0.13589123, -0.13297719, 847698.2, 847698.2, 0.00067709223, 10.006945, 9.99758 
1.3747092e+3, 1.2424968e+2, -2363419.0, -1850256.9, 123609.06, -0.07727945, -0.1816368, -1822034.4, -99705.05, 0.0079810945, 9.994772, 10.001595 
1.3747485e+3, 1.3424943e+2, -2049930.3, -1715736.1, 47823.227, -0.29834014, -0.2824992, -1709027.3, -84692.53, 0.0045821774, 9.996555, 10.000981 
1.3747936e+3, 1.4425239e+2, -1811367.8, -1549411.3, 1033.6226, 0.012707461, -0.081498, -1549407.1, -23099.55, 0.0018779465, 9.997507, 10.000992 
1.3748343e+3, 1.5425271e+2, -1718784.1, -1456112.5, -15393.787, -0.018998604, -0.14344451, -1455213.4, -26908.18, 0.00043006244, 9.997483, 10.000967 
1.3748753e+3, 1.6425277e+2, -1637002.1, -1485830.9, -9413.09, -0.038250845, -0.1698537, -1485247.0, -154940.98, 0.000029160963, 9.997879, 9.999903 
1.3749166e+3, 1.7425273e+2, -1404737.4, -1318907.0, -26443.102, -0.06683606, -0.16388434, -1311414.4, -79104.9, 0.000000027808229, 9.998787, 9.999935 
1.3749583e+3, 1.8425255e+2, -1221595.3, -1260702.4, -17807.01, -0.07630169, -0.12892565, -1214702.0, -80387.984, 0.0, 9.999718, 9.999215 
1.3750009e+3, 1.9425225e+2, -974063.75, -1084389.5, -14762.232, -0.053672403, -0.079470664, -972122.6, 64197.19, 0.0, 10.000718, 9.99927 
1.3750434e+3, 2.0425181e+2, -760080.2, -887983.56, -17869.01, -0.019813318, -0.05550983, -757630.6, 180692.52, 0.0, 10.001332, 9.999651 
1.3750859e+3, 2.1425126e+2, -636769.6, -760023.5, 14105.279, 0.029023403, -0.08509061, -635176.06, 205146.2, 0.0, 10.001432, 9.999806 
1.3751279e+3, 2.2424944e+2, -630738.44, -922286.3, 32837.44, 0.0499112, -0.14739925, -627085.7, 115251.836, 0.0, 10.001729, 9.997877 
1.3751696e+3, 2.3424594e+2, -452011.78, -789655.1, 45029.613, 0.02732579, -0.27676016, -446109.6, 198264.4, 0.0, 10.002306, 9.997835 
1.3752115e+3, 2.442435e+2, -315801.75, -707823.94, 42756.305, 0.008587952, -0.27769774, -311192.66, 235206.47, 0.0, 10.002711, 9.997532 
1.3752533e+3, 2.5424254e+2, -181913.17, -579513.75, 31895.428, -0.00416322, -0.13261513, -179370.78, 269037.5, 0.0, 10.002905, 9.997644 
1.375296e+3, 2.6423994e+2, -89798.44, -630927.4, 17317.664, 0.032392606, -0.08810381, -89244.79, 261190.66, 0.000000020098472, 10.003498, 9.996334 
1.3753393e+3, 2.7423507e+2, 172422.22, -454724.1, -44473.547, 0.12222849, -0.19859098, 175560.31, 428046.6, 0.000002039425, 10.004632, 9.996324 
1.3753818e+3, 2.8423196e+2, 353751.06, -208755.27, -92790.92, 0.1417745, -0.17319714, 368662.53, 523180.75, 0.000021764165, 10.004741, 9.997288 
1.375423e+3, 2.9423115e+2, 281825.8, -170032.16, -47747.867, 0.08865139, 0.001988871, 286816.22, 343340.97, 0.00010706467, 10.003471, 9.997493 
1.3754663e+3, 3.0422705e+2, 301423.6, -300957.75, 55665.9, 0.1031953, -0.075149246, 306524.47, 306524.47, 0.00032193636, 10.003991, 9.996007 
1.3755108e+3, 3.1422284e+2, 766863.94, 10417.971, 57751.242, 0.10208253, -0.08741723, 771247.56, 771247.56, 0.0006756281, 10.006806, 9.996795 
1.3847032e+3, 1.24207824e+2, -2302505.5, -1861869.0, -89760.85, -0.1602072, -0.08407944, -1844285.8, -121543.875, 0.008351057, 9.995368, 10.001227 
1.3847445e+3, 1.3420707e+2, -2086486.6, -1716029.0, -42873.96, -0.32102346, -0.24773163, -1711131.9, -86379.53, 0.004803759, 9.996233, 10.001134 
1.3847908e+3, 1.4420992e+2, -1894171.3, -1585025.5, -70637.21, 0.032970633, -0.0669055, -1569650.3, -42924.38, 0.0019753822, 9.996923, 10.001027 
1.384832e+3, 1.5421039e+2, -1717856.5, -1452635.9, -89013.0, 0.00034859485, -0.11365622, -1425531.5, 3189.13, 0.00045665295, 9.997475, 10.000997 
1.3848734e+3, 1.6421045e+2, -1611735.3, -1480113.5, -39294.805, -0.02400108, -0.14006245, -1469274.8, -138554.1, 0.00003186285, 9.99809, 9.999837 
1.3849154e+3, 1.742101e+2, -1394374.9, -1323485.5, -23364.832, -0.06469352, -0.15455854, -1316477.4, -83750.86, 0.000000039188958, 9.998904, 9.999846 
1.3849579e+3, 1.8420956e+2, -1230208.1, -1242219.4, 13317.555, -0.08433611, -0.16213892, -1221604.8, -86871.39, 0.0, 9.999561, 9.999416 
1.385001e+3, 1.942088e+2, -1062687.4, -1100680.3, 32104.912, -0.075358875, -0.1811217, -1044379.8, -7639.3394, 0.0, 9.999998, 9.999502 
1.385044e+3, 2.0420828e+2, -889475.8, -981108.06, -793.8878, -0.040710285, -0.16446218, -889468.94, 49275.016, 0.0, 10.000579, 9.999372 
1.3850872e+3, 2.1420813e+2, -666070.25, -811436.0, -60625.125, 0.02452316, -0.12129948, -644105.3, 196636.56, 0.0, 10.00139, 9.999474 
1.38513e+3, 2.2420663e+2, -574259.8, -860293.0, -87178.07, 0.0733836, -0.14730807, -549783.8, 192971.22, 0.0, 10.001968, 9.998187 
1.3851725e+3, 2.3420337e+2, -437111.0, -743727.0, -74128.9, 0.09634169, -0.2841579, -420129.72, 224657.81, 0.0, 10.00224, 9.998183 
1.3852148e+3, 2.4420111e+2, -319810.78, -727104.1, -58346.58, 0.087647595, -0.27617377, -311617.2, 235193.23, 0.0, 10.0027685, 9.997367 
1.3852568e+3, 2.5420022e+2, -85675.97, -555870.44, -65078.207, 0.03170067, -0.104217194, -76834.93, 371985.16, 0.0, 10.003675, 9.997431 
1.3852997e+3, 2.6419708e+2, -24999.13, -608387.4, -28621.424, 0.046429675, -0.093824595, -23598.309, 327253.8, 0.0000000028329297, 10.003988, 9.996248 
1.3853435e+3, 2.7419105e+2, 3280.467, -542237.0, 26685.273, 0.14592913, -0.3175683, 4582.7314, 257495.84, 0.000001898417, 10.0035, 9.996264 
1.3853864e+3, 2.841876e+2, 259160.66, -309294.1, 16006.533, 0.15689203, -0.30046484, 259611.0, 414559.6, 0.000020802903, 10.004331, 9.996794 
1.3854282e+3, 2.9418752e+2, 757988.8, 2143.7893, -70923.96, 0.065039426, 0.002626393, 764586.3, 821536.9, 0.00010360445, 10.007003, 9.996972 
1.3854718e+3, 3.0418342e+2, 810577.56, -102759.914, -34048.656, 0.079940274, -0.027732586, 811845.1, 811845.1, 0.00031450833, 10.007704, 9.995582 
1.3855171e+3, 3.1417844e+2, 603398.3, -67160.04, 7306.833, 0.1163636, -0.07858794, 603477.94, 603477.94, 0.00066250557, 10.005672, 9.996807 
1.3946983e+3, 1.2416254e+2, -2236895.5, -1732928.9, -108041.82, -0.18794137, -0.010343957, -1710743.3, 12449.643, 0.008733579, 9.995399, 10.002097 
1.394741e+3, 1.3416219e+2, -1988153.1, -1513138.6, -13602.812, -0.29322687, -0.27275813, -1512749.4, 112444.09, 0.005033633, 9.996234, 10.00253 
1.3947879e+3, 1.4416502e+2, -1876385.1, -1551724.4, -53971.56, 0.042148776, -0.17732108, -1542987.4, -15823.523, 0.002076125, 9.996935, 10.001253 
1.3948287e+3, 1.5416607e+2, -1709202.5, -1434314.8, -67476.58, -0.05686197, -0.17782979, -1418644.6, 10508.92, 0.00048381835, 9.997475, 10.001123 
1.394871e+3, 1.641667e+2, -1583817.3, -1429002.4, -13355.9375, -0.07474054, -0.16961122, -1427858.5, -96710.9, 0.000034571214, 9.998114, 10.000178 
1.394915e+3, 1.7416687e+2, -1367085.1, -1269362.3, 8395.264, -0.0029602996, -0.16966218, -1268646.4, -35499.688, 0.00000005013657, 9.998912, 10.000216 
1.3949586e+3, 1.8416655e+2, -1194187.0, -1170156.3, 27508.736, 0.03283697, -0.1955715, -1152153.4, -17004.873, 0.0, 9.999571, 9.999907 
1.395002e+3, 1.9416563e+2, -1026210.7, -1026520.6, 48703.117, 0.02804418, -0.28302544, -977662.25, 59491.25, 0.0, 10.000004, 10.00001 
1.3950452e+3, 2.0416427e+2, -980604.44, -1171833.9, 25334.146, 0.015226105, -0.31929648, -977305.1, -38138.78, 0.0, 10.000583, 9.998061 
1.395088e+3, 2.1416236e+2, -771810.75, -1026939.44, -28976.031, -0.013557247, -0.30400452, -768561.2, 72627.67, 0.0, 10.001373, 9.998001 
1.395131e+3, 2.2416139e+2, -559341.6, -826191.2, -78205.91, -0.0027311987, -0.2081232, -538110.9, 205090.45, 0.0, 10.001949, 9.998433 
1.3951744e+3, 2.3416176e+2, -407921.1, -682394.56, -62310.5, 0.06488942, -0.024680527, -394437.84, 250760.84, 0.0, 10.002233, 9.99861 
1.3952178e+3, 2.4416016e+2, -326639.1, -737751.56, -29406.36, 0.11239699, 0.027941464, -324546.34, 222668.34, 0.0, 10.002747, 9.997308 
1.3952613e+3, 2.5415584e+2, -101138.89, -576021.06, -28305.174, 0.12171922, -0.1293911, -99457.72, 349798.56, 0.0, 10.00362, 9.997321 
1.3953042e+3, 2.6415214e+2, 63225.164, -417262.38, -44514.555, 0.111203484, -0.23245032, 67314.39, 418605.28, 0.00000000013798057, 10.003948, 9.997583 
1.3953464e+3, 2.741494e+2, 112366.04, -322990.97, 7003.281, 0.07491621, -0.27695468, 112478.67, 365792.53, 0.0000015564152, 10.003527, 9.997761 
1.3953897e+3, 2.8414622e+2, 131001.78, -578612.94, 100520.234, 0.062324, -0.22699213, 144966.14, 300311.56, 0.000019190054, 10.004339, 9.994941 
1.3954352e+3, 2.9414234e+2, 579677.25, -330137.0, 36435.484, 0.080063, -0.09033872, 581134.06, 638524.6, 0.000100209174, 10.006832, 9.994775 
1.39548e+3, 3.0413672e+2, 785218.8, -113380.48, -89538.83, 0.13805293, -0.1515719, 794053.8, 794053.8, 0.00031025987, 10.00752, 9.995597 
1.395523e+3, 3.1413287e+2, 642608.7, 24218.895, -57499.156, 0.13749461, -0.11391138, 647909.6, 647909.6, 0.00065505016, 10.005629, 9.997459 
1.4046934e+3, 1.2411622e+2, -2389901.5, -1761925.3, -56153.402, -0.14924206, -0.08460199, -1756943.5, -33296.14, 0.009133226, 9.994151, 10.002502 
1.4047372e+3, 1.341172e+2, -2041040.5, -1447787.3, 22112.635, -0.23988394, -0.2953337, -1446964.3, 178668.72, 0.005275387, 9.995471, 10.003352 
1.4047848e+3, 1.4412019e+2, -1894552.5, -1556069.0, -48774.723, 0.052100137, -0.23106398, -1549180.9, -21579.967, 0.0021822979, 9.996797, 10.0012865 
1.4048262e+3, 1.5412125e+2, -1587486.5, -1379800.1, -78425.8, -0.0911894, -0.2276835, -1353512.6, 76078.516, 0.00051218417, 9.998328, 10.001084 
1.404869e+3, 1.6412199e+2, -1429254.1, -1340517.8, -60509.59, -0.11727651, -0.2112874, -1309853.0, 21731.307, 0.000037386584, 9.999115, 10.000303 
1.4049137e+3, 1.7412241e+2, -1360413.0, -1250729.0, -63490.22, -0.0007030773, -0.19863243, -1221674.4, 11905.914, 0.00000006103049, 9.998888, 10.000358 
1.404958e+3, 1.8412232e+2, -1249908.6, -1202808.3, -48911.344, 0.051387534, -0.2049528, -1172072.8, -36492.977, 0.0, 9.999218, 9.999851 
1.4050019e+3, 1.9412166e+2, -967733.1, -1006952.6, -75232.92, 0.013503274, -0.25851533, -909596.25, 127986.86, 0.0, 10.000444, 9.999932 
1.4050457e+3, 2.0412016e+2, -894458.9, -1151673.6, -92969.86, -0.012529676, -0.29176617, -864373.94, 75223.73, 0.0, 10.00127, 9.997869 
1.4050893e+3, 2.1411763e+2, -759141.3, -1044060.4, -58705.266, -0.023697557, -0.31715408, -747519.6, 94107.32, 0.0, 10.001564, 9.997792 
1.405133e+3, 2.241163e+2, -550027.2, -823471.2, -62952.4, -0.0069328584, -0.24348454, -536230.4, 207412.34, 0.0, 10.002032, 9.998405 
1.4051765e+3, 2.341167e+2, -331273.88, -646760.44, -84082.51, 0.041893754, -0.055510312, -310263.66, 335375.34, 0.0, 10.002773, 9.9985895 
1.4052205e+3, 2.441151e+2, -263971.38, -674735.3, -64001.387, 0.09765758, -0.014202253, -254230.27, 293423.94, 0.0, 10.003042, 9.997593 
1.4052646e+3, 2.5411078e+2, -217925.31, -598911.6, -39989.33, 0.15224317, -0.20304711, -213773.17, 235922.06, 0.0, 10.002673, 9.997619 
1.4053081e+3, 2.641075e+2, -43310.23, -474225.22, -60832.965, 0.1464656, -0.27753758, -34886.996, 316838.94, 0.0, 10.0032425, 9.997529 
1.4053503e+3, 2.7410576e+2, 344126.84, -221291.8, -122714.25, 0.054920144, -0.20797257, 369611.22, 623351.5, 0.0000011335358, 10.005169, 9.997664 
1.4053944e+3, 2.8410262e+2, 334130.5, -454457.2, -35561.832, 0.040091615, -0.15860064, 335730.94, 491502.47, 0.000017414142, 10.005627, 9.99517 
1.4054409e+3, 2.9409742e+2, 188872.9, -487598.1, 56092.047, 0.13178541, -0.18159048, 193492.44, 251319.67, 0.00010008261, 10.004011, 9.995048 
1.4054866e+3, 3.0409163e+2, 255950.92, -395467.94, 15970.482, 0.22624561, -0.2614872, 256342.22, 256342.22, 0.0003151815, 10.003989, 9.995362 
1.4055292e+3, 3.1408826e+2, 742019.06, 84559.836, 575.8775, 0.18994066, -0.15240435, 742019.56, 742019.56, 0.0006631916, 10.006267, 9.997561 
1.4146885e+3, 1.2406879e+2, -2397328.5, -1770134.6, -39222.887, -0.055967346, -0.33903158, -1767691.3, -43585.77, 0.009556688, 9.994124, 10.002457 
1.4147334e+3, 1.3407226e+2, -2034556.4, -1427462.6, 73051.89, -0.17219764, -0.31351662, -1418796.0, 207272.95, 0.0055341963, 9.995443, 10.003505 
1.4147814e+3, 1.4407556e+2, -1904690.0, -1583400.9, 4239.6553, 0.04125207, -0.21795885, -1583345.0, -55309.51, 0.0022969088, 9.996816, 10.001093 
1.4148243e+3, 1.5407598e+2, -1599786.3, -1410721.1, -18949.71, -0.12104497, -0.25802785, -1408840.6, 21191.951, 0.0005425403, 9.998349, 10.000863 
1.4148675e+3, 1.6407637e+2, -1431172.3, -1352654.0, -67634.28, -0.17297529, -0.26041457, -1313710.4, 18319.48, 0.000040406845, 9.999149, 10.000204 
1.4149119e+3, 1.7407678e+2, -1365450.9, -1262787.4, -71853.055, -0.073517695, -0.23910746, -1225813.9, 8212.897, 0.00000007226826, 9.998895, 10.000272 
1.4149562e+3, 1.8407695e+2, -1291384.1, -1294020.4, -10637.933, -0.051727884, -0.18691197, -1281983.0, -145956.5, 0.0, 9.999236, 9.999219 
1.4150009e+3, 1.9407691e+2, -1016753.7, -1108877.0, -27451.967, -0.138334, -0.108985245, -1009193.6, 28835.04, 0.0, 10.0004425, 9.999234 
1.4150457e+3, 2.04076e+2, -836897.9, -1029851.3, -82206.56, -0.1416013, -0.08387134, -806624.1, 133413.67, 0.0, 10.001257, 9.998713 
1.4150909e+3, 2.1407393e+2, -691864.2, -898045.6, -46672.72, -0.024025694, -0.1643462, -681791.1, 160264.97, 0.0, 10.001536, 9.998808 
1.4151354e+3, 2.2407144e+2, -576551.0, -871100.94, -39030.67, 0.03722622, -0.24763146, -571466.8, 172611.77, 0.0, 10.001995, 9.998099 
1.4151789e+3, 2.3406851e+2, -368318.03, -712744.4, -53003.867, 0.010556334, -0.3505863, -360345.78, 285759.94, 0.0, 10.002725, 9.998159 
1.4152227e+3, 2.4406624e+2, -228207.55, -596816.3, -75149.96, 0.028483167, -0.37711653, -213475.2, 334651.22, 0.0, 10.003018, 9.998143 
1.4152668e+3, 2.54065e+2, -166419.45, -499289.7, -51623.79, 0.10984607, -0.32468098, -158597.11, 291540.16, 0.0, 10.002701, 9.998292 
1.4153111e+3, 2.640631e+2, -131228.77, -664622.9, 2431.878, 0.13207866, -0.235484, -131217.69, 220939.8, 0.0, 10.003271, 9.99621 
1.4153555e+3, 2.740604e+2, 225143.98, -450066.78, -42397.41, 0.058567617, -0.11552801, 227795.77, 481985.5, 0.0000009024585, 10.005084, 9.996135 
1.4154002e+3, 2.8405702e+2, 459907.8, -173100.25, -80936.69, 0.06273185, -0.09808554, 470092.53, 626316.8, 0.000017253573, 10.005535, 9.997149 
1.4154457e+3, 2.940526e+2, 360641.16, -145019.17, -1834.666, 0.20109034, -0.27061817, 360647.8, 418910.16, 0.00010606929, 10.0040655, 9.997379 
1.4154914e+3, 3.040479e+2, 240099.1, -450909.78, 83627.04, 0.3183976, -0.3471269, 250075.73, 250075.73, 0.00033150185, 10.0040865, 9.994933 
1.415536e+3, 3.140444e+2, 693129.9, -342.71692, 89785.92, 0.21985725, -0.18991484, 704566.1, 704566.1, 0.0006892403, 10.006192, 9.997015 
1.4246833e+3, 1.2402333e+2, -2353035.5, -1801207.8, -43153.406, 0.013621562, -0.35684893, -1797853.5, -73304.46, 0.010011913, 9.994656, 10.001985 
1.424729e+3, 1.3402714e+2, -2033273.4, -1478177.8, 42064.01, -0.14949693, -0.25240391, -1475008.3, 151502.97, 0.0058154534, 9.99568, 10.003038 
1.4247775e+3, 1.4402975e+2, -1965975.8, -1601095.5, -47787.598, 0.00020494986, -0.20282815, -1594940.8, -66455.68, 0.002423067, 9.996349, 10.001195 
1.4248218e+3, 1.5403017e+2, -1833461.9, -1504231.4, -47459.234, -0.100335985, -0.25909194, -1497526.5, -67045.68, 0.00057589856, 9.996662, 10.001035 
1.424866e+3, 1.6403048e+2, -1686450.8, -1481984.8, -84659.58, -0.13617769, -0.27473357, -1451481.9, -119003.68, 0.00004378684, 9.997425, 10.000145 
1.4249104e+3, 1.7403077e+2, -1364447.4, -1270044.9, -94566.44, -0.09146818, -0.25931594, -1211554.3, 22922.229, 0.00000008454083, 9.998938, 10.000198 
1.4249553e+3, 1.8403086e+2, -1207990.4, -1269518.9, -12844.222, -0.08369097, -0.20339994, -1205416.8, -68939.18, 0.0, 9.999879, 9.999077 
1.425001e+3, 1.9403082e+2, -1089267.6, -1159756.9, 8512.711, -0.12438409, -0.10892849, -1088254.3, -49773.055, 0.0, 10.000013, 9.999091 
1.4250466e+3, 2.0403011e+2, -952656.3, -1050604.1, -44246.582, -0.107193716, -0.071921565, -935628.7, 4860.054, 0.0, 10.000311, 9.999023 
1.425092e+3, 2.1402848e+2, -765447.44, -895023.7, -64451.508, -0.013776854, -0.1428247, -738849.0, 103652.08, 0.0, 10.000859, 9.999156 
1.4251368e+3, 2.2402611e+2, -673566.6, -894095.94, -63132.57, 0.033749163, -0.24181205, -656772.2, 87749.05, 0.0, 10.001225, 9.998313 
1.4251809e+3, 2.3402286e+2, -550074.1, -779448.25, -37080.27, 0.008992826, -0.3966594, -544228.75, 102322.19, 0.0, 10.001382, 9.998352 
1.4252253e+3, 2.4402052e+2, -339370.53, -663341.1, -34971.734, 0.018730732, -0.43425968, -335638.44, 212933.88, 0.0, 10.002319, 9.998019 
1.42527e+3, 2.540196e+2, 78459.26, -399233.56, -73561.23, 0.07340974, -0.33528048, 89530.555, 540111.9, 0.0, 10.004466, 9.998127 
1.425315e+3, 2.6401773e+2, 142996.89, -517538.84, -32519.82, 0.10796692, -0.23705046, 144594.05, 497195.6, 0.0000000000791634, 10.005099, 9.996337 
1.4253601e+3, 2.740147e+2, 14062.603, -532875.94, 28595.584, 0.10009829, -0.16230716, 15553.601, 270189.72, 0.0000010199116, 10.003554, 9.996302 
1.4254048e+3, 2.8401142e+2, 182522.6, -283712.3, 17176.15, 0.09518561, -0.15505917, 183154.5, 339824.2, 0.000019779387, 10.003531, 9.9973545 
1.4254496e+3, 2.940078e+2, 624059.5, 5981.4585, -51699.875, 0.11369882, -0.27268988, 628354.2, 687055.1, 0.000118975484, 10.005784, 9.997585 
1.4254959e+3, 3.0400407e+2, 664011.8, -210986.13, -11040.546, 0.22529913, -0.27890378, 664151.06, 664151.06, 0.0003610253, 10.006852, 9.995247 
1.4255425e+3, 3.1399986e+2, 708902.94, 50072.637, 51827.547, 0.28247753, -0.21939893, 712955.06, 712955.06, 0.00073920825, 10.006119, 9.997394 
1.4346783e+3, 1.2398046e+2, -2412393.8, -1928554.4, -33953.816, 0.03246499, -0.086292334, -1926183.3, -201210.36, 0.010506618, 9.994677, 10.0011 
1.4347242e+3, 1.33982e+2, -2113791.0, -1646321.8, 79033.53, -0.19809715, -0.09525873, -1633321.4, -6362.916, 0.006123269, 9.99569, 10.001873 
1.4347728e+3, 1.4398277e+2, -1934600.3, -1542957.5, -39641.348, -0.09694624, -0.1820086, -1538985.4, -10035.847, 0.002563054, 9.996372, 10.001587 
1.434819e+3, 1.5398383e+2, -1795724.5, -1422468.1, -36259.246, -0.039742637, -0.23084146, -1418978.5, 11957.58, 0.0006133788, 9.996644, 10.001607 
1.4348646e+3, 1.639844e+2, -1688350.4, -1486019.9, -34636.137, -0.02220359, -0.25039074, -1480254.9, -147326.48, 0.000047750204, 9.997422, 10.000121 
1.4349096e+3, 1.7398438e+2, -1371264.3, -1285725.5, -35960.61, -0.06940924, -0.25754994, -1272616.5, -37687.363, 0.00000010052836, 9.9989395, 10.000091 
1.4349554e+3, 1.8398406e+2, -1182831.4, -1217841.8, -6885.0684, -0.060847845, -0.25122672, -1181526.0, -44593.086, 0.0, 9.99988, 9.999432 
1.4350025e+3, 1.9398348e+2, -1058767.3, -1098501.3, 15251.12, 0.03590865, -0.2536296, -1053588.4, -14648.503, 0.0, 10.000022, 9.999509 
1.4350486e+3, 2.0398259e+2, -968845.94, -1084029.9, -27533.209, 0.06375107, -0.24714129, -962602.9, -21653.557, 0.0, 10.000307, 9.998797 
1.4350928e+3, 2.1398139e+2, -790312.75, -941466.25, -42110.08, -0.01001053, -0.24544573, -779373.0, 63587.816, 0.0, 10.000837, 9.998846 
1.4351374e+3, 2.2398031e+2, -630734.56, -801448.56, -58872.098, -0.03166286, -0.22713888, -612401.0, 132569.58, 0.0, 10.001205, 9.9989605 
1.4351822e+3, 2.3397954e+2, -498654.66, -667740.56, -30350.492, 0.017820321, -0.21016824, -493371.88, 153604.31, 0.0, 10.001361, 9.99913 
1.4352277e+3, 2.4397773e+2, -395817.5, -776089.56, 34796.44, 0.040992964, -0.20443326, -392659.72, 156333.78, 0.0, 10.002292, 9.997262 
1.4352739e+3, 2.539745e+2, -2295.7227, -543230.2, 10984.071, 0.025761569, -0.24176516, -2072.775, 448954.28, 0.0, 10.004361, 9.9971895 
1.4353196e+3, 2.6397148e+2, 226762.23, -323778.38, -76747.87, 0.06019336, -0.2733108, 237261.02, 590318.06, 0.000000025075328, 10.005007, 9.997717 
1.4353642e+3, 2.739688e+2, 132734.73, -293217.88, -28575.4, 0.15894571, -0.3263467, 134643.19, 389723.56, 0.0000015946384, 10.003578, 9.997941 
1.4354086e+3, 2.839659e+2, 98899.72, -471402.53, 83703.484, 0.114417374, -0.3096867, 110931.09, 268040.1, 0.00002491734, 10.003588, 9.996038 
1.4354528e+3, 2.9396284e+2, 498876.63, -242044.83, 40026.93, -0.13137223, -0.2076568, 501032.75, 560176.7, 0.00013845212, 10.005726, 9.995911 
1.4355e+3, 3.0395988e+2, 716225.94, -77259.34, -24322.143, -0.046171773, -0.0889147, 716970.75, 716970.75, 0.00040666488, 10.0067425, 9.996221 
1.4355493e+3, 3.139549e+2, 769945.9, 199170.4, 26977.463, 0.34880072, -0.22846381, 771218.1, 771218.1, 0.00082100736, 10.006019, 9.998472 
1.4446734e+3, 1.2393347e+2, -2272702.8, -1873469.5, -158755.77, 0.051407486, -0.01653496, -1818036.8, -92601.055, 0.011047917, 9.995688, 10.000991 
1.4447205e+3, 1.339343e+2, -1955412.3, -1615979.5, 17856.244, -0.18657139, -0.056766666, -1615042.8, 12385.283, 0.00646129, 9.996967, 10.001469 
1.4447694e+3, 1.4393428e+2, -1766031.4, -1465157.3, -116905.25, -0.12991458, -0.19864231, -1425073.5, 104353.74, 0.0027186894, 9.997556, 10.001543 
1.4448161e+3, 1.539358e+2, -1692707.9, -1370860.9, -164814.73, -0.0018374667, -0.19901003, -1301436.3, 129973.61, 0.0006559602, 9.997353, 10.001613 
1.4448626e+3, 1.6393682e+2, -1617087.0, -1391936.4, -120907.96, 0.03968965, -0.19623975, -1339309.0, -5911.462, 0.000052490832, 9.997666, 10.000644 
1.4449085e+3, 1.7393719e+2, -1345150.1, -1205934.3, -71371.69, -0.048307266, -0.22078419, -1175846.8, 59545.266, 0.00000012546444, 9.998841, 10.000682 
1.444955e+3, 1.8393697e+2, -1240895.9, -1232375.5, -65528.63, -0.050774377, -0.24270698, -1170968.8, -33575.41, 0.0, 9.999424, 9.999551 
1.4450024e+3, 1.9393606e+2, -1185623.9, -1152223.1, -80893.13, 0.067708686, -0.28272337, -1086324.5, -46921.227, 0.0, 9.99912, 9.999574 
1.4450487e+3, 2.0393522e+2, -1077082.8, -1088322.8, -83640.695, 0.09356871, -0.2928173, -998873.44, -57461.3, 0.0, 9.999365, 9.99922 
1.4450935e+3, 2.1393457e+2, -810826.7, -898714.0, -42053.984, -0.015695745, -0.28177258, -793946.2, 49472.164, 0.0, 10.000475, 9.999314 
1.4451385e+3, 2.2393398e+2, -603945.75, -803780.0, -59744.625, -0.04530677, -0.23334402, -587446.1, 157978.0, 0.0, 10.001462, 9.998816 
1.445184e+3, 2.3393361e+2, -381175.22, -637512.0, -109817.03, 0.033624288, -0.15359405, -340562.94, 306865.38, 0.0, 10.002281, 9.998892 
1.4452302e+3, 2.4393205e+2, -340629.38, -715793.06, -39366.58, 0.06771183, -0.12152653, -336543.1, 212901.3, 0.0, 10.002528, 9.9975605 
1.445277e+3, 2.539289e+2, -322104.56, -657614.7, 22034.549, 0.029157488, -0.18584809, -320663.66, 130812.875, 0.0, 10.001986, 9.99755 
1.445323e+3, 2.639259e+2, -119043.06, -461789.84, -55572.547, 0.045596372, -0.24464414, -110257.78, 243247.11, 0.00000008418799, 10.002507, 9.99797 
1.4453681e+3, 2.7392325e+2, 312791.13, -179388.33, -108361.5, 0.13441774, -0.32028344, 335592.4, 591118.6, 0.0000026621376, 10.004703, 9.998178 
1.4454131e+3, 2.8392026e+2, 424602.6, -311346.53, 6169.06, 0.10206933, -0.32539806, 424654.28, 582209.0, 0.0000320156, 10.005816, 9.996062 
1.4454585e+3, 2.9391706e+2, 433492.5, -272001.88, 68509.81, -0.09882013, -0.24015638, 440083.84, 499675.25, 0.00016295102, 10.005271, 9.995922 
1.4455059e+3, 3.0391452e+2, 470508.94, -183528.48, 14080.458, -0.02501447, -0.082092136, 470811.94, 470811.94, 0.00046630902, 10.005003, 9.996329 
1.445554e+3, 3.1390956e+2, 641072.3, 119057.734, -26218.05, 0.28031105, -0.2316369, 642385.8, 642385.8, 0.0009318949, 10.0052185, 9.998304 
1.4546691e+3, 1.23882174e+2, -2208729.5, -1760249.8, -132124.11, 0.04008554, -0.157388, -1724219.9, 1719.6201, 0.011640448, 9.995769, 10.00173 
1.454718e+3, 1.3388391e+2, -1920457.4, -1554360.4, 62892.016, -0.12291994, -0.1510185, -1543857.5, 84063.62, 0.0068325973, 9.99701, 10.001874 
1.4547671e+3, 1.4388424e+2, -1794517.5, -1538181.1, -125650.195, -0.10634086, -0.25354224, -1486863.8, 43054.23, 0.0028915813, 9.997611, 10.001017 
1.4548135e+3, 1.5388611e+2, -1731621.9, -1457394.8, -174768.17, -0.0065654605, -0.16067442, -1372373.1, 59529.535, 0.00070428615, 9.997378, 10.001007 
1.4548601e+3, 1.638878e+2, -1536288.3, -1233643.5, -87608.92, 0.021837428, -0.10482744, -1210112.3, 123772.99, 0.000058062662, 9.9977, 10.001718 
1.4549074e+3, 1.7388922e+2, -1252958.4, -1019594.44, -26133.277, -0.04691246, -0.14992379, -1016703.75, 219161.33, 0.00000016567238, 9.998856, 10.001958 
1.4549541e+3, 1.838896e+2, -1248839.1, -1249947.5, -73754.23, -0.07489016, -0.17850736, -1175637.0, -37778.418, 0.0, 9.999429, 9.999428 
1.4550003e+3, 1.938886e+2, -1207771.6, -1198821.9, -91113.41, -0.042706154, -0.19591238, -1112073.5, -72202.49, 0.0, 9.999123, 9.999252 
1.4550467e+3, 2.0388797e+2, -1005215.7, -939565.3, -51043.156, -0.032053158, -0.2112126, -911703.6, 30173.967, 0.0, 9.999363, 10.000243 
1.4550933e+3, 2.1388802e+2, -728260.6, -721919.7, 1479.77, -0.05234711, -0.25291672, -721591.4, 122282.19, 0.0, 10.000451, 10.000539 
1.45514e+3, 2.2388722e+2, -672425.1, -939642.06, -30543.498, -0.03476354, -0.25318673, -668978.4, 76902.695, 0.0, 10.001429, 9.997903 
1.4551865e+3, 2.338853e+2, -472287.75, -814021.2, -75066.35, 0.040170357, -0.21130821, -456525.44, 191379.45, 0.0, 10.002225, 9.997708 
1.455233e+3, 2.438837e+2, -260331.92, -542489.5, -54229.02, 0.08075044, -0.17224693, -250268.36, 299654.56, 0.0, 10.002495, 9.99877 
1.4552791e+3, 2.5388277e+2, -215053.88, -436741.06, 3930.0151, 0.060545735, -0.16467354, -214984.23, 236945.78, 0.0, 10.001991, 9.999065 
1.4553253e+3, 2.6388094e+2, -167393.16, -566849.25, 13686.56, 0.0392373, -0.15361811, -166924.77, 187021.11, 0.00000009998625, 10.002522, 9.997243 
1.4553715e+3, 2.7387792e+2, 229894.2, -331504.06, -20621.457, 0.01479238, -0.1689863, 230650.66, 486624.97, 0.00000388955, 10.004614, 9.997176 
1.4554182e+3, 2.8387445e+2, 487925.88, -151716.08, -2346.6802, 0.0408971, -0.22150433, 487934.5, 645941.4, 0.00003943989, 10.005691, 9.997223 
1.4554663e+3, 2.9387054e+2, 521302.72, -72129.875, 50410.58, 0.15201607, -0.34611404, 525554.5, 585597.3, 0.00018869797, 10.005191, 9.997337 
1.4555132e+3, 3.0386817e+2, 423266.78, -273884.28, 17430.955, 0.22574846, -0.22456826, 423702.34, 423702.34, 0.0005342683, 10.004964, 9.995728 
1.4555572e+3, 3.1386396e+2, 543954.56, -76415.766, -12154.879, 0.060407717, -0.21600765, 544192.6, 544192.6, 0.0010665233, 10.005184, 9.99698 
1.4646652e+3, 1.23832434e+2, -2101375.0, -1661061.0, -26834.178, 0.05032495, -0.24783762, -1659431.6, 66993.49, 0.012283002, 9.996297, 10.002159 
1.4647152e+3, 1.3383473e+2, -2065536.4, -1616509.3, 140668.9, -0.03546198, -0.19872555, -1576081.3, 52320.004, 0.00723705, 9.995986, 10.001939 
1.4647643e+3, 1.4383543e+2, -1994446.6, -1619599.3, -33576.824, -0.062594615, -0.2757688, -1616615.4, -86220.26, 0.0030819494, 9.996178, 10.001147 
1.4648108e+3, 1.5383758e+2, -1718192.4, -1434365.0, -29202.602, -0.008248991, -0.1691051, -1431391.5, 985.9568, 0.0007585455, 9.997394, 10.00116 
1.4648578e+3, 1.6383934e+2, -1482865.9, -1218447.6, 58187.004, 0.00563589, -0.11133326, -1206209.6, 128150.23, 0.00006440502, 9.9981165, 10.001617 
1.4649057e+3, 1.7384051e+2, -1366259.1, -1088161.1, 8938.585, -0.036885545, -0.16974747, -1087874.1, 148468.67, 0.00000022299002, 9.998144, 10.001824 
1.4649531e+3, 1.8384095e+2, -1329867.9, -1228165.8, -78237.86, -0.06787914, -0.20867477, -1185705.5, -47370.297, 0.0, 9.998617, 9.999965 
1.4649993e+3, 1.9384053e+2, -1064849.3, -1059130.5, -30842.094, -0.08127564, -0.2307381, -1031015.56, 9324.3125, 0.0, 9.999804, 9.999881 
1.4650461e+3, 2.0384035e+2, -858364.9, -899229.1, 13285.814, -0.07414746, -0.22550048, -854425.2, 87917.09, 0.0, 10.000502, 9.999971 
1.465094e+3, 2.1384059e+2, -754783.0, -780495.4, -57828.64, -0.039848004, -0.2059562, -708398.7, 135941.5, 0.0, 10.000463, 10.0001335 
1.4651412e+3, 2.2383992e+2, -764339.2, -920058.2, -105093.82, -0.008303372, -0.19544844, -711405.7, 34942.15, 0.0, 10.000528, 9.99847 
1.4651875e+3, 2.3383793e+2, -627591.4, -810391.2, -22757.268, 0.011887299, -0.22752924, -624800.8, 23568.033, 0.0, 10.000823, 9.998409 
1.4652343e+3, 2.4383633e+2, -398455.97, -617663.94, 37072.22, 0.024008518, -0.22490363, -392356.1, 158029.2, 0.0, 10.00159, 9.998687 
1.4652812e+3, 2.5383547e+2, -57265.527, -381737.6, -27005.607, 0.017748326, -0.19089547, -55033.227, 397359.72, 0.0, 10.003168, 9.998874 
1.4653282e+3, 2.6383388e+2, 46863.32, -446559.0, -47438.14, 0.009400966, -0.15313295, 51382.68, 405790.53, 0.00000009519612, 10.003929, 9.997389 
1.4653751e+3, 2.7383134e+2, 74059.96, -386173.5, -6548.9717, -0.0052845543, -0.14031602, 74153.13, 330585.56, 0.000004936775, 10.003453, 9.997361 
1.4654227e+3, 2.83828e+2, 169082.98, -272770.97, 11801.681, 0.039656214, -0.19747716, 169397.98, 327860.8, 0.00004547584, 10.003364, 9.997509 
1.465471e+3, 2.9382396e+2, 365035.56, -114328.2, -21424.027, 0.17935008, -0.36536178, 365991.16, 426489.84, 0.00021367862, 10.003984, 9.997623 
1.4655182e+3, 3.0382156e+2, 414635.4, -231142.61, -46927.836, 0.2400876, -0.27877408, 418027.78, 418027.78, 0.00061013346, 10.004706, 9.9961405 
1.465562e+3, 3.1381768e+2, 586881.6, -53948.27, -2153.9216, 0.03296791, -0.2773358, 586888.9, 586888.9, 0.0012242264, 10.005479, 9.996985 
1.4746617e+3, 1.2378473e+2, -2086850.5, -1645908.0, -42166.996, 0.0640081, -0.27343416, -1641911.9, 84975.57, 0.012969953, 9.996357, 10.002237 
1.474712e+3, 1.3378707e+2, -2086448.6, -1659908.8, 128880.92, 0.057804536, -0.19373345, -1623991.3, 4873.773, 0.0076708426, 9.995985, 10.00164 
1.4747609e+3, 1.4378804e+2, -1938864.8, -1504953.5, 5450.523, -0.023221938, -0.2589768, -1504885.1, 25970.732, 0.0032881629, 9.996176, 10.001939 
1.4748079e+3, 1.537904e+2, -1651663.3, -1296085.6, 22034.46, -0.023781266, -0.22582588, -1294725.4, 138106.33, 0.00081847684, 9.997393, 10.0021105 
1.4748555e+3, 1.6379164e+2, -1572739.9, -1412358.4, 62225.207, -0.02930839, -0.21537155, -1391047.8, -56228.656, 0.000071419374, 9.998143, 10.000276 
1.474904e+3, 1.7379111e+2, -1479100.4, -1326846.6, 10916.109, -0.03345119, -0.28243393, -1326067.9, -89243.49, 0.0000002932695, 9.998159, 10.000181 
1.474952e+3, 1.8379101e+2, -1245021.1, -1053716.1, -40923.684, -0.04674293, -0.33501542, -1045329.5, 93493.75, 0.0, 9.998622, 10.001162 
1.4749992e+3, 1.9379188e+2, -953993.7, -829865.6, 16474.66, -0.07252206, -0.3845539, -827716.25, 213092.98, 0.0, 9.999804, 10.001457 
1.4750466e+3, 2.0379238e+2, -967869.25, -1125836.6, 13224.177, -0.061420504, -0.33116776, -966769.9, -23964.232, 0.0, 10.000496, 9.998421 
1.4750946e+3, 2.137924e+2, -898649.7, -1071878.5, -56889.93, 0.0062858067, -0.13749067, -881637.25, -36820.094, 0.0, 10.000432, 9.998147 
1.4751418e+3, 2.2379212e+2, -635897.06, -649789.5, -96466.625, 0.017779525, -0.059726033, -546126.9, 200697.05, 0.0, 10.000506, 10.0003395 
1.4751875e+3, 2.3379143e+2, -459394.03, -458915.78, -10704.772, -0.06734737, -0.1998252, -448447.47, 200373.89, 0.0, 10.000812, 10.000829 
1.4752342e+3, 2.437899e+2, -484783.97, -797968.5, 86123.55, -0.11830389, -0.27207297, -462663.06, 88169.58, 0.0, 10.001586, 9.997455 
1.475283e+3, 2.5378716e+2, -193806.05, -642165.44, 37010.67, -0.109566145, -0.25702605, -190771.47, 262093.1, 0.0, 10.003066, 9.997136 
1.4753315e+3, 2.637849e+2, 90495.91, -330247.66, -54079.91, -0.06109175, -0.2284383, 97335.83, 452224.78, 0.00000007751602, 10.003816, 9.998243 
1.4753789e+3, 2.7378348e+2, 153841.73, -211250.22, -20740.965, 0.04055809, -0.21697833, 155016.27, 411916.13, 0.000005175148, 10.003415, 9.99858 
1.4754263e+3, 2.83781e+2, 135818.5, -348485.25, 27524.281, 0.07174637, -0.2364773, 137377.77, 296300.13, 0.000049192422, 10.003386, 9.996981 
1.4754732e+3, 2.937771e+2, 314288.7, -223735.31, 7812.114, -0.0011199979, -0.31583384, 314402.1, 375362.22, 0.00023939092, 10.003996, 9.996868 
1.4755207e+3, 3.0377454e+2, 503300.0, -48570.453, -16483.857, 0.0367964, -0.2639225, 503791.94, 503791.94, 0.00069365563, 10.004712, 9.997393 
1.4755684e+3, 3.1377104e+2, 664336.4, 108435.32, 26998.283, 0.12354083, -0.37457228, 665644.5, 665644.5, 0.0013912382, 10.005473, 9.998105 
1.4846581e+3, 1.2373666e+2, -1938485.4, -1566807.1, -100988.35, 0.03877488, -0.26727214, -1541140.1, 186218.08, 0.013700781, 9.997341, 10.002315 
1.4847083e+3, 1.3373883e+2, -2007291.6, -1652576.4, 58497.625, 0.079325125, -0.18103996, -1643178.3, -13840.105, 0.00813248, 9.996658, 10.001369 
1.4847568e+3, 1.4374009e+2, -1881931.0, -1447660.8, -26005.498, -0.037302226, -0.21237846, -1446109.0, 85216.96, 0.0035089266, 9.9964485, 10.002194 
1.4848052e+3, 1.5374252e+2, -1646947.4, -1253572.4, -52412.563, -0.019850343, -0.20468883, -1246708.8, 186590.11, 0.0008836724, 9.997261, 10.0024605 
1.4848535e+3, 1.6374362e+2, -1613060.9, -1450189.1, -20518.967, -0.014828981, -0.21960449, -1447643.9, -112357.0, 0.00007901186, 9.997954, 10.000105 
1.4849022e+3, 1.7374258e+2, -1443420.0, -1335480.6, 25067.752, -0.02113239, -0.31029773, -1329943.0, -92644.62, 0.00000037325287, 9.998521, 9.999946 
1.4849508e+3, 1.8374239e+2, -1214394.1, -1037900.9, 6738.9106, -0.017178576, -0.36139464, -1037643.94, 101655.3, 0.0, 9.99883, 10.001169 
1.484999e+3, 1.9374375e+2, -1105631.9, -897270.94, -54097.355, -0.00377229, -0.36643422, -884062.75, 157218.1, 0.0, 9.998744, 10.001501 
1.485047e+3, 2.037444e+2, -1167220.9, -1193390.1, -65298.063, 0.0048856265, -0.30921897, -1113709.4, -170434.03, 0.0, 9.999013, 9.998667 
1.4850946e+3, 2.1374401e+2, -963047.2, -1071857.8, 22888.104, 0.004773122, -0.18415673, -958428.75, -113139.55, 0.0, 9.999857, 9.998424 
1.4851421e+3, 2.2374365e+2, -610257.1, -651766.25, 28231.416, -0.0052560996, -0.12352212, -595972.25, 151324.03, 0.0, 10.0007515, 10.000202 
1.4851889e+3, 2.3374355e+2, -333685.84, -422667.22, -77233.49, -0.040270347, -0.18821056, -289045.0, 360245.3, 0.0, 10.001781, 10.0006075 
1.4852364e+3, 2.437422e+2, -391912.9, -716675.06, -48939.605, -0.06935759, -0.24027644, -384698.28, 166601.98, 0.0, 10.002073, 9.997775 
1.4852852e+3, 2.537391e+2, -432952.28, -712191.5, 40694.785, -0.093363084, -0.30053848, -427142.53, 26191.299, 0.0, 10.00123, 9.9975395 
1.4853337e+3, 2.6373672e+2, -258961.0, -495023.22, 30148.152, -0.06300486, -0.30444267, -255171.53, 100187.055, 0.00000003255528, 10.001399, 9.998275 
1.4853822e+3, 2.7373582e+2, 133416.66, -223833.53, -22773.885, 0.042785812, -0.24310641, 134862.6, 392229.78, 0.0000046218843, 10.003287, 9.998555 
1.48543e+3, 2.8373376e+2, 310905.0, -248484.33, -11313.102, 0.06335336, -0.22194311, 311133.7, 470520.4, 0.00005173912, 10.004525, 9.997118 
1.485477e+3, 2.937302e+2, 427600.44, -154312.42, 20340.746, -0.046177562, -0.2836144, 428310.6, 489731.72, 0.00026710934, 10.004707, 9.997006 
1.4855252e+3, 3.0372733e+2, 580299.1, -31701.02, 15626.599, -0.018239135, -0.25895366, 580697.9, 580697.9, 0.00077574217, 10.005331, 9.997212 
1.4855745e+3, 3.137244e+2, 804556.56, 124052.47, -66441.66, 0.1410042, -0.28723603, 810982.94, 810982.94, 0.0015409762, 10.00667, 9.997637 
1.4946546e+3, 1.2368864e+2, -1925900.8, -1560329.8, -125939.46, -0.057682496, -0.19655624, -1521143.9, 206690.13, 0.014485426, 9.997428, 10.002318 
1.4947042e+3, 1.3369013e+2, -2022448.0, -1689562.1, 29277.303, 0.0075365123, -0.15320817, -1687006.9, -57187.227, 0.008627366, 9.996689, 10.001097 
1.4947523e+3, 1.4369161e+2, -1899165.1, -1494616.5, -7130.993, -0.13107866, -0.12967032, -1494490.9, 37313.855, 0.0037456865, 9.996487, 10.001858 
1.4948024e+3, 1.5369399e+2, -1665455.5, -1297796.4, -21755.951, -0.017518805, -0.099729, -1296513.5, 137265.28, 0.0009542572, 9.997281, 10.00215 
1.4948519e+3, 1.6369535e+2, -1537887.1, -1301667.4, -2596.457, 0.030640075, -0.11469747, -1301638.9, 34124.133, 0.00008722728, 9.997983, 10.001112 
1.4949007e+3, 1.7369506e+2, -1359191.3, -1162873.9, 47460.605, -0.015149249, -0.24883491, -1152002.1, 85761.805, 0.0000004647829, 9.9985285, 10.001129 
1.4949498e+3, 1.8369517e+2, -1294889.6, -1208327.8, 3872.079, -0.0010185984, -0.28443336, -1208154.9, -68392.59, 0.0, 9.99884, 9.999996 
1.4949988e+3, 1.936962e+2, -1210294.9, -1117326.3, -56254.336, 0.10514177, -0.17340793, -1090835.6, -49081.566, 0.0, 9.9987545, 9.999986 
1.495047e+3, 2.0369641e+2, -1028876.4, -907903.25, -40872.438, 0.10707203, -0.15885593, -895388.56, 48362.906, 0.0, 9.999015, 10.000628 
1.4950937e+3, 2.1369545e+2, -791337.9, -711400.4, 55996.4, -0.059982326, -0.33717227, -682571.6, 163185.05, 0.0, 9.99984, 10.000907 
1.4951418e+3, 2.2369465e+2, -754806.06, -948372.5, 61624.293, -0.09972296, -0.37230757, -736852.44, 10911.899, 0.0, 10.0007305, 9.9981785 
1.4951918e+3, 2.3369436e+2, -531839.0, -818663.6, -34847.926, 0.06940081, -0.18819997, -527665.8, 122108.4, 0.0, 10.001715, 9.997921 
1.4952406e+3, 2.436933e+2, -283535.53, -480057.97, -72048.1, 0.13743423, -0.13160497, -259951.78, 291835.03, 0.0, 10.00202, 9.999427 
1.4952876e+3, 2.5369114e+2, -274233.66, -379278.4, 9696.3, 0.03182155, -0.32222682, -273346.13, 180455.92, 0.0, 10.001217, 9.999832 
1.4953354e+3, 2.636893e+2, -302602.66, -590920.2, 83046.08, -0.028780496, -0.37526065, -280393.16, 75425.31, 0.0000000081489935, 10.001416, 9.99761 
1.4953849e+3, 2.7368823e+2, 47773.94, -389254.88, 49240.16, -0.011012232, -0.22346085, 53253.15, 311088.1, 0.000004143463, 10.003233, 9.997445 
1.4954339e+3, 2.836863e+2, 342335.6, -162677.84, -1497.0881, 0.0015721503, -0.15455665, 342340.03, 502195.8, 0.00005511391, 10.004435, 9.997752 
1.495482e+3, 2.9368317e+2, 476757.2, -29730.025, 25060.906, 0.0028211484, -0.26012558, 477994.16, 539876.44, 0.00029485015, 10.004613, 9.997907 
1.4955309e+3, 3.0367994e+2, 466456.34, -249849.94, 55674.85, 0.032054726, -0.26254347, 470757.84, 470757.84, 0.00084531825, 10.0052395, 9.995763 
1.4955804e+3, 3.136775e+2, 658382.94, -145771.27, -5043.656, 0.05726358, -0.06390221, 658414.56, 658414.56, 0.0016557964, 10.006515, 9.995858 
1.5046516e+3, 1.2364109e+2, -2015749.6, -1608942.3, -42435.6, -0.048583012, -0.16875711, -1604562.8, 123737.414, 0.015336173, 9.99684, 10.002261 
1.5047012e+3, 1.3364184e+2, -1942196.6, -1674992.6, 98786.73, 0.018103104, -0.18205121, -1642437.1, -12145.102, 0.0091627855, 9.997339, 10.000885 
1.5047489e+3, 1.436432e+2, -1794294.6, -1478182.8, 84014.51, -0.15591761, -0.14718787, -1457241.1, 75036.305, 0.0040015904, 9.997357, 10.00155 
1.5047999e+3, 1.5364444e+2, -1733398.1, -1367901.6, 65656.38, 0.04051711, -0.19859828, -1356465.3, 77796.13, 0.001031135, 9.996973, 10.00182 
1.5048502e+3, 1.6364549e+2, -1645050.1, -1352316.8, 80433.81, 0.11088942, -0.22491361, -1331672.0, 4576.243, 0.000096309515, 9.997245, 10.00112 
1.5048991e+3, 1.736464e+2, -1334345.8, -1144624.6, 44463.69, -0.022209903, -0.2448189, -1134721.0, 103518.17, 0.000000575819, 9.998673, 10.001183 
1.5049483e+3, 1.8364695e+2, -1208041.5, -1198666.4, -48328.867, -0.050643835, -0.2258275, -1154798.3, -14563.216, 0.0, 9.999581, 9.9997015 
1.5049976e+3, 1.9364713e+2, -1101066.6, -1103380.4, -31584.703, 0.09096544, -0.16500407, -1070617.6, -28380.787, 0.0, 9.999671, 9.99964 
1.5050463e+3, 2.0364712e+2, -867861.8, -767572.0, 13083.8545, 0.11484544, -0.17787479, -765893.1, 178342.9, 0.0, 9.999858, 10.0011835 
1.5050937e+3, 2.1364702e+2, -682201.5, -582706.1, -23487.13, -0.062562175, -0.33723462, -577440.4, 268788.63, 0.0, 10.000265, 10.001584 
1.5051423e+3, 2.2364636e+2, -805846.5, -1016690.4, -39067.133, -0.09979277, -0.3783229, -798840.6, -50606.35, 0.0, 10.000576, 9.997781 
1.505193e+3, 2.3364495e+2, -708176.3, -965277.2, 8557.902, 0.09096717, -0.25279978, -707891.75, -57633.637, 0.0, 10.000772, 9.997367 
1.5052423e+3, 2.4364378e+2, -398935.25, -534371.94, -3593.9854, 0.16628166, -0.17707448, -398839.94, 153434.16, 0.0, 10.00123, 9.99943 
1.5052894e+3, 2.5364324e+2, -125561.375, -297803.16, -82491.8, 0.041747525, -0.2110324, -92427.48, 361847.13, 0.0, 10.0022, 9.999915 
1.5053374e+3, 2.6364186e+2, -119563.28, -533886.5, -54804.72, -0.034019046, -0.20940469, -112436.56, 243851.06, 0.000000012459724, 10.002816, 9.997324 
1.5053876e+3, 2.7363926e+2, -26354.697, -464542.0, -38120.094, -0.02900829, -0.17551756, -23063.166, 235256.28, 0.0000039634065, 10.002891, 9.997094 
1.5054375e+3, 2.8363684e+2, 158866.39, -233720.39, -86608.016, 0.008456165, -0.14037797, 177123.8, 337469.06, 0.000059603837, 10.003105, 9.9979 
1.5054868e+3, 2.9363498e+2, 350915.28, -65365.027, -114898.71, 0.09108949, -0.13593188, 380522.97, 442882.38, 0.0003199668, 10.003647, 9.998123 
1.5055363e+3, 3.0363172e+2, 326624.5, -292881.22, -40761.785, 0.1147082, -0.1609309, 329295.0, 329295.0, 0.00089815125, 10.00418, 9.995972 
1.5055855e+3, 3.1362888e+2, 421649.7, -217719.53, 22657.635, 0.023968477, -0.022569109, 422451.63, 422451.63, 0.0017310733, 10.004698, 9.99624 
1.5146494e+3, 1.23594336e+2, -2021637.0, -1628406.5, -14436.373, 0.05037029, -0.17792992, -1627877.3, 100875.3, 0.016257107, 9.996869, 10.002112 
1.5146993e+3, 1.3359419e+2, -1943670.9, -1686429.0, 120366.96, 0.100056656, -0.27325654, -1638892.3, -8139.9023, 0.009740974, 9.997376, 10.000787 
1.5147464e+3, 1.4359502e+2, -1809559.9, -1529979.8, 71397.32, -0.12843429, -0.26635838, -1512802.3, 19938.975, 0.0042781597, 9.997437, 10.001159 
1.5147978e+3, 1.5359391e+2, -1758509.0, -1424867.1, 53585.82, 0.14586549, -0.5130341, -1416472.0, 18273.482, 0.0011151112, 9.996991, 10.001421 
1.5148483e+3, 1.635941e+2, -1715540.5, -1502745.3, 124005.62, 0.20615795, -0.5596182, -1445748.1, -109006.18, 0.000106548556, 9.997258, 10.000081 
1.5148973e+3, 1.7359668e+2, -1412571.6, -1310236.1, 100502.1, -0.0638932, -0.30110413, -1248626.1, -9902.56, 0.0000007145684, 9.998685, 10.000041 
1.5149465e+3, 1.8359779e+2, -1164970.4, -1116117.1, -40607.996, -0.18605474, -0.184469, -1093155.3, 47561.88, 0.0, 9.999606, 10.000258 
1.5149957e+3, 1.9359663e+2, -1043343.1, -984021.8, -27355.01, -0.061126824, -0.33751887, -973333.3, 69395.27, 0.0, 9.999672, 10.000461 
1.515045e+3, 2.035966e+2, -925760.94, -888879.44, 23506.313, 0.006800042, -0.36262354, -877443.6, 67284.68, 0.0, 9.999857, 10.000353 
1.5150942e+3, 2.1359877e+2, -761731.2, -742059.7, -5939.0693, -0.024015294, -0.18960118, -740405.7, 106300.03, 0.0, 10.000238, 10.0005045 
1.5151435e+3, 2.2359878e+2, -733632.4, -860900.56, -33040.13, -0.028430546, -0.14858525, -725566.06, 23139.514, 0.0, 10.000548, 9.998866 
1.5151928e+3, 2.3359528e+2, -610109.2, -759669.3, 17248.916, 0.010472277, -0.37009233, -608145.6, 42596.44, 0.0, 10.000765, 9.998782 
1.515242e+3, 2.4359363e+2, -498818.3, -747098.94, 24953.473, 0.0046670623, -0.35986456, -496335.22, 56426.805, 0.0, 10.001248, 9.997963 
1.5152903e+3, 2.5359538e+2, -263700.28, -579003.44, -43126.938, -0.06932305, 0.02244832, -257907.81, 196843.38, 0.0, 10.002173, 9.997999 
1.5153396e+3, 2.6359442e+2, -123640.27, -534265.56, -46402.02, -0.09233661, 0.17339273, -118461.99, 238303.14, 0.000000015482238, 10.002779, 9.99734 
1.5153904e+3, 2.7358902e+2, -8221.209, -420672.84, -27560.592, -0.035270404, -0.0997831, -6387.7227, 252431.17, 0.0000037096584, 10.002866, 9.997406 
1.515441e+3, 2.835856e+2, 140077.75, -277069.88, -65419.566, 0.049445454, -0.16908297, 150096.61, 310949.16, 0.000064642, 10.003117, 9.997601 
1.5154915e+3, 2.9358578e+2, 325938.44, -120251.24, -86729.51, 0.19059265, 0.075097375, 342203.8, 405054.25, 0.00034241617, 10.003655, 9.997743 
1.5155412e+3, 3.0358276e+2, 432195.7, -77070.664, -20140.746, 0.20385721, 0.03413288, 432990.97, 432990.97, 0.0009354301, 10.004194, 9.99745 
1.5155898e+3, 3.1357852e+2, 575572.25, 104238.305, 49376.84, -0.00090694206, -0.14650364, 580689.44, 580689.44, 0.0017666068, 10.004694, 9.998454 
1.5246458e+3, 1.2354596e+2, -2124091.5, -1687545.3, -48390.273, 0.050451823, -0.25113967, -1682245.6, 46975.92, 0.017244658, 9.996217, 10.002013 
1.5246972e+3, 1.3354596e+2, -2035127.4, -1722552.6, 71440.195, 0.19667976, -0.34023157, -1706998.8, -75778.03, 0.010359608, 9.996713, 10.000861 
1.5247445e+3, 1.4354734e+2, -1857228.3, -1605579.8, 28704.293, -0.055733867, -0.25933635, -1602347.1, -69142.32, 0.0045741852, 9.997346, 10.00068 
1.5247956e+3, 1.5354551e+2, -1566892.1, -1394153.6, -4222.6143, 0.15262298, -0.52233213, -1394050.5, 41167.207, 0.0012060112, 9.998575, 10.000864 
1.5248461e+3, 1.6354512e+2, -1486961.5, -1415747.9, 83087.78, 0.1866282, -0.58481383, -1360958.8, -23737.72, 0.000118081814, 9.998934, 9.999869 
1.5248957e+3, 1.7354742e+2, -1542908.6, -1388565.5, 128213.48, -0.03941377, -0.33681363, -1316090.4, -76884.65, 0.0000008766353, 9.997863, 9.999899 
1.5249453e+3, 1.8354857e+2, -1450261.0, -1221126.4, 36865.676, -0.14577487, -0.22231178, -1215341.0, -74142.484, 0.0, 9.997513, 10.0005455 
1.5249947e+3, 1.9354798e+2, -1186614.6, -1013481.6, 14170.822, -0.06800469, -0.35405928, -1012329.44, 30873.322, 0.0, 9.998518, 10.000815 
1.5250443e+3, 2.035479e+2, -1068983.0, -1059481.3, 42080.426, -0.010837272, -0.36481696, -1021884.3, -76680.8, 0.0, 9.999318, 9.999437 
1.5250945e+3, 2.1354891e+2, -904777.44, -937051.44, 2060.777, 0.008706785, -0.19424821, -904646.44, -57449.82, 0.0, 9.999802, 9.999373 
1.5251446e+3, 2.2354864e+2, -691410.7, -803800.3, -31819.057, 0.018297309, -0.13435385, -683027.56, 66173.63, 0.0, 10.00068, 9.999194 
1.5251942e+3, 2.3354636e+2, -354236.9, -574169.44, -44171.895, 0.0059495107, -0.28600028, -345696.9, 305525.56, 0.0, 10.002252, 9.99934 
1.5252438e+3, 2.4354473e+2, -287539.3, -717588.6, -66755.945, -0.007426417, -0.27652124, -277415.22, 275825.75, 0.0, 10.003011, 9.997318 
1.5252928e+3, 2.5354436e+2, -290007.56, -684933.0, -70496.52, -0.025009915, -0.022818804, -277800.8, 177452.19, 0.0, 10.002393, 9.997167 
1.5253425e+3, 2.6354265e+2, -151534.44, -488957.16, 415.69186, -0.039121483, 0.08004652, -151533.92, 205740.2, 0.000000009246187, 10.002341, 9.997862 
1.5253931e+3, 2.73539e+2, 113390.38, -276273.84, 45505.324, -0.058076225, -0.092232324, 118633.98, 377941.22, 0.000003574384, 10.003342, 9.998166 
1.5254438e+3, 2.83536e+2, 244782.03, -283339.25, 18236.053, -0.01903309, -0.14600344, 245410.97, 406746.6, 0.00007208154, 10.004086, 9.997091 
1.5254946e+3, 2.935341e+2, 379779.22, -177158.5, -32634.504, 0.12641731, -0.038017962, 381684.97, 445040.78, 0.000366503, 10.004379, 9.997008 
1.5255454e+3, 3.0353034e+2, 532626.56, -17604.156, -4864.935, 0.17710753, -0.11290035, 532669.56, 532669.56, 0.0009645653, 10.004842, 9.997548 
1.5255958e+3, 3.1352815e+2, 766019.3, 270098.5, -34020.805, 0.090217344, -0.109709725, 768342.3, 768342.3, 0.0017750132, 10.005688, 9.99912 
1.5346406e+3, 1.2349594e+2, -2128771.8, -1705881.3, -17308.32, -0.09635965, -0.39261037, -1705174.0, 24533.535, 0.018294634, 9.99625, 10.001872 
1.5346949e+3, 1.334972e+2, -2017770.3, -1689383.6, 86723.09, 0.2938562, -0.37700754, -1667888.1, -36191.742, 0.011016667, 9.996718, 10.00109 
1.5347429e+3, 1.4350031e+2, -1894419.8, -1690293.6, 66289.484, 0.045935467, -0.109501876, -1670655.6, -136988.52, 0.0048880493, 9.997377, 10.000085 
1.534793e+3, 1.534995e+2, -1614222.9, -1498036.1, 43714.914, 0.037171356, -0.19851781, -1483425.8, -47749.703, 0.0013030368, 9.998604, 10.000137 
1.5348433e+3, 1.634989e+2, -1434055.9, -1320574.9, 50034.246, 0.023980001, -0.2691974, -1301665.4, 36017.508, 0.00013086536, 9.998988, 10.000499 
1.5348943e+3, 1.7349881e+2, -1480928.8, -1264122.6, 87487.195, 0.039785985, -0.3427108, -1233223.0, 6461.0186, 0.0000010420176, 9.997875, 10.00075 
1.5349448e+3, 1.8349932e+2, -1448650.5, -1218901.1, 62147.49, 0.052946236, -0.33891088, -1203167.6, -61488.95, 0.0, 9.997515, 10.000561 
1.5349942e+3, 1.935012e+2, -1195268.5, -1030447.0, 55053.277, 0.05095111, -0.21542153, -1013749.75, 29909.13, 0.0, 9.998513, 10.000701 
1.535044e+3, 2.0350108e+2, -1139780.5, -1210613.9, 60030.05, 0.03937185, -0.1819917, -1105498.1, -159836.89, 0.0, 9.99933, 9.998397 
1.5350942e+3, 2.134976e+2, -990468.94, -1114693.0, 22577.016, 0.018858748, -0.34114864, -986493.0, -138792.2, 0.0, 9.999797, 9.9981575 
1.5351452e+3, 2.23496e+2, -720356.25, -861437.5, 19938.76, 0.0183272, -0.3230474, -717592.5, 32127.46, 0.0, 10.000666, 9.998807 
1.5351969e+3, 2.334981e+2, -380238.8, -612776.0, 18958.244, 0.05457591, -0.016135463, -378703.34, 272996.5, 0.0, 10.002184, 9.999109 
1.5352479e+3, 2.4349703e+2, -295142.56, -712606.6, -78521.55, 0.09471961, 0.059355598, -280861.8, 272849.56, 0.0, 10.00292, 9.997397 
1.5352967e+3, 2.5349057e+2, -287504.34, -672430.06, -88635.07, 0.1388994, -0.3080183, -268075.4, 187701.92, 0.0, 10.002361, 9.997269 
1.535346e+3, 2.6348707e+2, -84431.766, -352211.3, 29466.281, 0.09145241, -0.4309, -81227.66, 276584.06, 0.000000028877041, 10.002347, 9.998799 
1.5353957e+3, 2.7348912e+2, 182014.95, -119350.95, 84833.14, -0.11594425, -0.14093673, 204253.98, 464040.7, 0.000004894743, 10.003277, 9.999276 
1.5354459e+3, 2.834877e+2, 182877.88, -392495.3, 29391.469, -0.20264009, -0.066857606, 184375.36, 346173.5, 0.000083823514, 10.003997, 9.996387 
1.5354969e+3, 2.9348025e+2, 302380.28, -330823.63, -17019.613, -0.08468859, -0.4137693, 302837.4, 366711.0, 0.00039698184, 10.004346, 9.995969 
1.5355487e+3, 3.0347496e+2, 456679.7, -171282.84, 26047.303, 0.03971233, -0.53472763, 457758.25, 457758.25, 0.0010000385, 10.004819, 9.996506 
1.5356028e+3, 3.1347743e+2, 704228.2, 178110.83, 17019.773, 0.22438678, 0.024409687, 704778.25, 704778.25, 0.0017890257, 10.005529, 9.998564 
1.5446368e+3, 1.234467e+2, -1974485.4, -1673275.1, -54051.13, -0.14491469, -0.36801517, -1663869.5, 66319.93, 0.019406972, 9.99749, 10.001498 
1.544692e+3, 1.3344719e+2, -1977863.8, -1664829.4, 828.09827, 0.3486692, -0.43017447, -1664827.3, -32642.01, 0.0117135905, 9.996973, 10.001129 
1.5447402e+3, 1.4345036e+2, -1979919.0, -1733336.6, 30080.395, 0.09536868, -0.15921767, -1729720.3, -195564.5, 0.0052204016, 9.9968, 10.000067 
1.5447909e+3, 1.534505e+2, -1765805.0, -1573817.6, 62962.527, 0.03979244, -0.14976266, -1555011.3, -118853.6, 0.0014059248, 9.997571, 10.000118 
1.5448417e+3, 1.6345035e+2, -1572350.8, -1396354.5, 33112.9, 0.020182565, -0.16915514, -1390330.6, -52169.266, 0.00014487762, 9.998078, 10.000417 
1.5448926e+3, 1.734499e+2, -1440624.5, -1255394.3, -14079.083, 0.08686726, -0.26982096, -1254330.3, -14163.695, 0.000001197513, 9.998196, 10.000655 
1.5449433e+3, 1.8345013e+2, -1308938.8, -1148873.3, -36125.805, 0.120973, -0.28936467, -1141097.6, 1065.8557, 0.0, 9.998462, 10.000585 
1.5449932e+3, 1.9345178e+2, -1116795.5, -985058.9, -28771.422, 0.08453097, -0.19179569, -979049.3, 65093.996, 0.0, 9.999018, 10.000769 
1.5450437e+3, 2.0345135e+2, -1066659.3, -1198408.6, 21706.406, 0.049820688, -0.18205139, -1063175.1, -117028.1, 0.0, 9.999934, 9.998189 
1.5450948e+3, 2.1344753e+2, -753097.8, -1029658.1, 49616.918, 0.021248644, -0.34948948, -744465.6, 103724.74, 0.0, 10.0015545, 9.997894 
1.5451464e+3, 2.234455e+2, -534611.0, -811841.2, 62350.83, 0.024553895, -0.34318542, -521233.44, 228980.72, 0.0, 10.00212, 9.998444 
1.5451986e+3, 2.3344697e+2, -599396.56, -759385.8, 39936.74, 0.07979545, -0.06058643, -589981.56, 62218.72, 0.0, 10.00086, 9.998737 
1.5452498e+3, 2.4344575e+2, -595863.1, -807395.0, -32766.852, 0.13532059, 0.0015229018, -590903.75, -36691.258, 0.0, 10.000646, 9.997837 
1.5452994e+3, 2.5344008e+2, -246553.83, -587201.44, -13645.869, 0.18190372, -0.34523216, -246008.08, 210259.94, 0.0, 10.002366, 9.9978485 
1.5453492e+3, 2.6343682e+2, 23196.477, -337065.75, 73697.664, 0.14211486, -0.46237004, 37689.523, 395988.34, 0.00000025317945, 10.003247, 9.998468 
1.5453991e+3, 2.73438e+2, 50259.81, -239758.0, 14050.25, -0.04942343, -0.21063763, 50938.902, 311223.16, 0.000007857334, 10.002614, 9.99877 
1.5454496e+3, 2.8343654e+2, 14582.808, -445961.9, -45694.03, -0.13902314, -0.12598354, 19072.678, 181370.31, 0.00009779398, 10.002729, 9.996625 
1.5455012e+3, 2.934306e+2, 311675.47, -285645.22, -4123.6216, -0.06278866, -0.35174963, 311703.94, 376061.03, 0.00043107895, 10.004241, 9.996326 
1.5455535e+3, 3.0342555e+2, 416077.56, -278265.16, 69598.02, 0.045600325, -0.4385507, 422985.06, 422985.06, 0.001049113, 10.004926, 9.995713 
1.5456077e+3, 3.13424e+2, 450054.34, -32258.496, 47051.18, 0.25590095, -0.17855233, 454601.47, 454601.47, 0.0018371724, 10.004155, 9.997778 
1.5546349e+3, 1.23398654e+2, -2006109.3, -1757227.4, -52142.96, -0.09343474, -0.14069259, -1746744.5, -16080.524, 0.020587768, 9.997576, 10.000873 
1.554689e+3, 1.3339598e+2, -1985304.6, -1688548.3, -25445.98, 0.343826, -0.49598476, -1686382.1, -53695.258, 0.012455585, 9.997008, 10.000951 
1.5547366e+3, 1.4339726e+2, -1934492.0, -1644994.0, 46376.89, 0.05998125, -0.427764, -1637746.0, -103073.586, 0.0055746003, 9.996819, 10.000666 
1.5547894e+3, 1.5339832e+2, -1713404.9, -1466823.1, 94981.586, 0.1482237, -0.40063432, -1434479.4, 2184.1672, 0.001515748, 9.997574, 10.000853 
1.5548413e+3, 1.6339941e+2, -1628320.1, -1515725.8, 39581.707, 0.16596118, -0.30272534, -1503203.8, -164546.84, 0.00016035176, 9.998091, 9.999593 
1.5548907e+3, 1.7340073e+2, -1517720.6, -1418652.9, -8388.41, 0.089407794, -0.11976624, -1417947.6, -177294.61, 0.0000013687348, 9.998206, 9.999532 
1.5549408e+3, 1.8340105e+2, -1306650.8, -1145852.1, -20439.604, 0.034120984, -0.06504362, -1143294.6, -642.27966, 0.0, 9.998469, 10.000601 
1.5549916e+3, 1.9339985e+2, -1103689.9, -954988.5, -5763.438, 0.017616631, -0.2731508, -954765.44, 89889.45, 0.0, 9.999005, 10.000981 
1.5550432e+3, 2.0339885e+2, -1025906.0, -1114587.6, 72907.234, 0.0036534232, -0.35689333, -984914.7, -38254.6, 0.0, 9.999932, 9.998769 
1.555096e+3, 2.133986e+2, -715516.0, -941595.6, 112681.336, -0.0009677866, -0.22882503, -668946.6, 179720.14, 0.0, 10.001506, 9.998527 
1.5551484e+3, 2.2339705e+2, -567161.6, -864783.75, 28624.742, 0.011598012, -0.20020667, -564433.56, 186251.4, 0.0, 10.002054, 9.998112 
1.555199e+3, 2.3339328e+2, -634909.2, -835657.3, -5368.2773, 0.06323513, -0.39125592, -634765.75, 17956.074, 0.0, 10.000869, 9.99821 
1.55525e+3, 2.4339116e+2, -535803.44, -696919.56, 14163.514, 0.09753428, -0.41882712, -534567.8, 20174.629, 0.0, 10.000704, 9.9985695 
1.555301e+3, 2.533924e+2, -178418.25, -445716.56, 52913.91, 0.09826481, -0.16644639, -168324.66, 288405.25, 0.0, 10.002361, 9.998826 
1.5553519e+3, 2.633913e+2, -83323.43, -547620.25, 59453.332, 0.0999101, -0.0675528, -75831.31, 282910.38, 0.0000005877002, 10.003197, 9.997048 
1.5554033e+3, 2.7338588e+2, -82497.57, -514902.4, -5184.7676, 0.10600257, -0.29178253, -82435.414, 178361.67, 0.000010999606, 10.00261, 9.9968815 
1.555455e+3, 2.8338268e+2, 82592.47, -306514.13, -13.510875, 0.117147945, -0.30719778, 82592.47, 245422.14, 0.000111490524, 10.002735, 9.997581 
1.5555073e+3, 2.933842e+2, 407102.8, -69415.19, 54638.113, 0.13111858, 0.05852398, 413287.44, 478101.7, 0.00046487793, 10.004165, 9.997849 
1.5555593e+3, 3.0338085e+2, 352844.6, -385394.6, 49042.824, 0.14703894, 0.0866018, 356088.38, 356088.38, 0.0011102033, 10.004818, 9.995032 
1.555611e+3, 3.1336832e+2, 365932.63, -192455.1, 33569.32, 0.17644946, -0.6437996, 367943.53, 367943.53, 0.0019278155, 10.004089, 9.996711 
1.5646319e+3, 1.23348095e+2, -2207321.3, -1858850.9, -43282.965, -0.066263646, -0.119052, -1853555.3, -122394.2, 0.021849003, 9.99621, 10.000838 
1.564686e+3, 1.3334578e+2, -1933222.8, -1628346.4, -17894.168, 0.3542094, -0.4655056, -1627299.8, 5879.301, 0.013250772, 9.997211, 10.001271 
1.5647335e+3, 1.4334671e+2, -1796979.3, -1562549.9, 74253.2, 0.046970785, -0.45813873, -1541010.0, -5843.2153, 0.0059556314, 9.997698, 10.000806 
1.5647872e+3, 1.5334742e+2, -1694602.4, -1446586.9, 71883.875, 0.18056327, -0.4758934, -1427258.6, 9901.966, 0.0016345053, 9.997662, 10.000945 
1.5648393e+3, 1.6334838e+2, -1678204.9, -1556373.4, 12214.878, 0.20864953, -0.38999838, -1555160.8, -216005.97, 0.00017771397, 9.997824, 9.999442 
1.5648888e+3, 1.7334999e+2, -1497392.3, -1427315.1, 29645.227, 0.07834308, -0.15704122, -1416456.6, -175308.7, 0.0000016137079, 9.998431, 9.99936 
1.564939e+3, 1.833502e+2, -1247223.1, -1183959.6, 56866.137, -0.014616679, -0.07875996, -1150519.8, -7370.5327, 0.0, 9.9991665, 10.000003 
1.5649903e+3, 1.9334814e+2, -980630.0, -970437.4, 3662.5466, -0.044257663, -0.30628857, -969257.8, 75904.484, 0.0, 10.000174, 10.000311 
1.5650426e+3, 2.0334697e+2, -946505.5, -1033327.75, 18453.293, -0.038363382, -0.38453424, -942746.2, 4423.9746, 0.0, 10.000298, 9.999146 
1.5650964e+3, 2.1334776e+2, -1060925.6, -1039982.7, 44121.973, 0.033631355, -0.21036938, -1005106.6, -155941.44, 0.0, 9.998852, 9.999123 
1.5651493e+3, 2.2334667e+2, -987566.6, -1043355.3, 12200.355, 0.06971523, -0.17675105, -985015.25, -233837.94, 0.0, 9.999067, 9.998324 
1.5652004e+3, 2.3334241e+2, -402346.13, -707094.94, 27332.406, 0.035461567, -0.4321646, -399914.16, 253304.08, 0.0, 10.002397, 9.998357 
1.5652516e+3, 2.433401e+2, -44882.387, -495805.03, 21589.152, 0.032959558, -0.47270846, -43851.105, 511389.44, 0.0, 10.004227, 9.998258 
1.5653035e+3, 2.5334176e+2, -80214.38, -441527.8, -44199.902, 0.090665594, -0.14303067, -74885.94, 382339.6, 0.00000000002019788, 10.003225, 9.998436 
1.565355e+3, 2.6334068e+2, -173860.3, -619440.3, -67486.61, 0.13338575, -0.0040579243, -163863.2, 195374.58, 0.0000007451224, 10.002704, 9.996791 
1.5654063e+3, 2.733347e+2, -18038.871, -511083.25, -30004.791, 0.13399835, -0.25624445, -16219.608, 245079.23, 0.000013796674, 10.003171, 9.996637 
1.5654582e+3, 2.8333095e+2, 184222.69, -274727.78, 36917.027, 0.13560618, -0.31189528, 187173.25, 350510.8, 0.0001263984, 10.003503, 9.997435 
1.5655111e+3, 2.933318e+2, 304721.8, -133638.48, -16915.422, 0.14742564, 0.006441545, 305373.56, 370701.72, 0.0005033699, 10.00352, 9.997723 
1.5655635e+3, 3.0332947e+2, 237580.39, -349551.5, -64410.22, 0.15194064, 0.107091956, 244563.34, 244563.34, 0.0011890329, 10.0036335, 9.995847 
1.5656142e+3, 3.1331903e+2, 421278.53, -75534.13, 40809.79, 0.10749372, -0.50770617, 424608.47, 424608.47, 0.0020663976, 10.0040865, 9.997512 
1.5746278e+3, 1.2329459e+2, -2162622.8, -1759971.6, 16271.731, -0.1052483, -0.35047746, -1759315.1, -27630.822, 0.023204513, 9.996186, 10.001527 
1.5746832e+3, 1.3329683e+2, -1868939.5, -1502577.8, 18606.549, 0.36216345, -0.32794356, -1501635.1, 132024.19, 0.014108494, 9.997235, 10.002136 
1.5747312e+3, 1.4329913e+2, -1813706.9, -1612549.4, 74147.55, 0.04097208, -0.21915506, -1588172.4, -52537.56, 0.0063687824, 9.997758, 10.000437 
1.5747842e+3, 1.5329802e+2, -1736472.1, -1539388.0, 70799.5, 0.11768021, -0.35513464, -1516591.3, -78944.71, 0.00176415, 9.997684, 10.0003 
1.5748362e+3, 1.6329733e+2, -1636898.4, -1475116.5, 29105.514, 0.11853172, -0.41997263, -1470039.6, -130385.47, 0.00019721544, 9.997841, 9.999992 
1.5748867e+3, 1.7329773e+2, -1442390.8, -1315700.0, 55017.906, 0.034510534, -0.3848194, -1295143.0, -53491.86, 0.0000019795527, 9.998439, 10.000125 
1.5749377e+3, 1.8329756e+2, -1327366.3, -1355681.9, 90137.66, -0.042789318, -0.34033737, -1250281.3, -106627.02, 0.0, 9.999186, 9.9988165 
1.5749896e+3, 1.9329664e+2, -1091907.3, -1202822.6, 43682.76, -0.12113768, -0.29784793, -1076769.4, -31103.516, 0.0, 10.000175, 9.998718 
1.5750422e+3, 2.0329575e+2, -933981.9, -1007104.56, -23827.94, -0.10476373, -0.26444697, -926902.56, 20774.37, 0.0, 10.000296, 9.999327 
1.575096e+3, 2.1329509e+2, -1025350.0, -965488.44, -9296.809, 0.10429227, -0.28383145, -964077.9, -114393.54, 0.0, 9.998848, 9.999637 
1.5751493e+3, 2.2329444e+2, -939141.94, -940303.0, 106759.766, 0.17649852, -0.26735538, -832961.1, -81270.43, 0.0, 9.999053, 9.999041 
1.575202e+3, 2.3329404e+2, -362051.2, -603717.6, 156713.58, -0.021606646, -0.210575, -284996.03, 368696.5, 0.0, 10.002309, 9.999111 
1.5752546e+3, 2.4329232e+2, -150638.63, -683884.9, 7783.0254, -0.08127998, -0.18669453, -150525.05, 405184.2, 0.0, 10.004089, 9.997031 
1.575307e+3, 2.5328848e+2, -204618.34, -684449.44, -77935.5, 0.13290633, -0.24732183, -192277.25, 265473.2, 0.0000000000119108985, 10.0031595, 9.9967985 
1.5753585e+3, 2.6328546e+2, -126536.12, -522403.97, -54132.93, 0.21631134, -0.23250152, -119267.18, 240514.58, 0.0000007659461, 10.002702, 9.997461 
1.5754083e+3, 2.7328417e+2, 60874.348, -344028.3, -5362.0513, 0.031699233, -0.12948373, 60945.344, 322738.53, 0.00001681118, 10.003154, 9.997794 
1.5754595e+3, 2.8328085e+2, 105182.59, -434327.9, 41224.594, -0.07035338, -0.15992235, 108314.43, 272139.72, 0.00014233156, 10.00348, 9.996351 
1.575513e+3, 2.9327458e+2, 196129.13, -356169.16, -2959.7808, 0.000588027, -0.4088994, 196144.98, 262032.94, 0.0005480967, 10.003506, 9.9962015 
1.5755661e+3, 3.0327243e+2, 376098.44, -62774.47, -42302.38, 0.059790205, -0.28281197, 380138.72, 380138.72, 0.0012879525, 10.003636, 9.997816 
1.5756173e+3, 3.1327453e+2, 571918.3, 245452.92, 63702.117, 0.0056338827, 0.096376106, 583908.0, 583908.0, 0.0022490732, 10.004049, 9.999741 
1.5846245e+3, 1.2324253e+2, -2027716.8, -1712799.4, 64809.223, -0.078465514, -0.42802507, -1699983.4, 32209.7, 0.024665277, 9.997193, 10.001368 
1.5846802e+3, 1.332458e+2, -1918671.4, -1556342.4, -62287.266, 0.37503976, -0.27563095, -1545933.8, 88227.22, 0.0150364665, 9.99703, 10.001859 
1.5847284e+3, 1.4324796e+2, -1919835.4, -1678127.8, -47862.26, 0.03837482, -0.15698616, -1668995.3, -132855.3, 0.0068181083, 9.997094, 10.000307 
1.5847816e+3, 1.5324707e+2, -1682921.5, -1527129.6, -15718.466, 0.08882571, -0.25667295, -1525559.5, -87408.91, 0.0019058621, 9.998105, 10.000182 
1.5848342e+3, 1.6324636e+2, -1473374.0, -1347157.1, -39032.957, 0.08518378, -0.33247453, -1336061.5, 4095.8787, 0.0002187055, 9.998755, 10.000426 
1.5848851e+3, 1.7324625e+2, -1366638.1, -1216819.0, -37359.926, 0.034169126, -0.40226316, -1208019.5, 34134.785, 0.000002466339, 9.998695, 10.000676 
1.5849368e+3, 1.8324582e+2, -1426956.0, -1425935.9, 28380.8, -0.016699884, -0.40607682, -1398060.6, -253902.89, 0.0, 9.998601, 9.998615 
1.5849893e+3, 1.9324517e+2, -1353622.0, -1364014.5, 70864.266, -0.08620099, -0.30438974, -1287763.8, -241593.8, 0.0, 9.998538, 9.998396 
1.5850419e+3, 2.0324433e+2, -1134893.6, -1127190.0, 37180.17, -0.078654855, -0.23842332, -1093662.6, -145479.92, 0.0, 9.999017, 9.999122 
1.5850954e+3, 2.1324334e+2, -794053.7, -874268.56, -6342.296, 0.08696463, -0.27283576, -793555.3, 56638.465, 0.0, 10.000518, 9.999462 
1.5851489e+3, 2.2324267e+2, -615074.06, -765009.75, 103832.65, 0.14016303, -0.25236005, -561973.94, 190225.94, 0.0, 10.001196, 9.999211 
1.5852031e+3, 2.3324288e+2, -631530.56, -705880.9, 118488.06, -0.02728545, -0.15723193, -544522.75, 109671.63, 0.0, 10.000341, 9.999356 
1.5852569e+3, 2.4324124e+2, -687648.2, -915948.7, -31751.72, -0.06852753, -0.14880705, -683314.5, -127105.6, 0.0, 10.000296, 9.997259 
1.5853094e+3, 2.532365e+2, -379589.34, -745768.4, -3128.247, 0.12995352, -0.31854963, -379562.63, 78694.695, 0.0, 10.00186, 9.997004 
1.5853614e+3, 2.6323313e+2, -87867.484, -515002.22, 78608.086, 0.21752845, -0.35003987, -73860.14, 286431.16, 0.0000008447263, 10.003021, 9.9973545 
1.585412e+3, 2.732324e+2, 88176.6, -350328.72, 34741.074, 0.07745374, -0.17562614, 90911.945, 353209.28, 0.000020396094, 10.003432, 9.997615 
1.5854634e+3, 2.8322923e+2, 153691.78, -380489.78, 57642.176, -0.012150216, -0.19313869, 159841.02, 324168.28, 0.00015639696, 10.003692, 9.996612 
1.5855165e+3, 2.9322228e+2, 252561.0, -287708.25, 123090.0, -0.0043191537, -0.54019827, 279283.03, 345676.6, 0.0005898529, 10.003724, 9.996559 
1.5855695e+3, 3.032199e+2, 389744.3, -121836.91, 108627.82, 0.047874633, -0.43899766, 411854.5, 411854.5, 0.0013873818, 10.004007, 9.997233 
1.5856221e+3, 3.1322244e+2, 568839.5, 108341.34, -13919.927, 0.057556313, 0.059457056, 569259.9, 569259.9, 0.0024375285, 10.004612, 9.998525 
1.5946224e+3, 1.2319255e+2, -2094679.4, -1875386.5, 82699.83, -0.0016326135, -0.30351228, -1847695.4, -115014.73, 0.026239868, 9.997293, 10.000201 
1.5946773e+3, 1.3319257e+2, -2027358.4, -1788181.6, -76512.99, 0.37553778, -0.31707436, -1765799.5, -131114.66, 0.016040104, 9.997058, 10.000247 
1.5947253e+3, 1.4319283e+2, -1911873.3, -1666919.0, -26055.586, 0.01748072, -0.29712936, -1664178.1, -127492.12, 0.0073062, 9.997112, 10.000377 
1.5947796e+3, 1.5319444e+2, -1649265.9, -1463396.9, 23934.977, 0.08191196, -0.18655038, -1460364.3, -21689.723, 0.002060233, 9.998128, 10.000611 
1.5948328e+3, 1.6319555e+2, -1445168.4, -1298706.6, -37308.355, 0.09395934, -0.11877644, -1289750.8, 50913.438, 0.00024185247, 9.998795, 10.000741 
1.5948841e+3, 1.7319562e+2, -1344012.4, -1176205.0, -39896.574, 0.05990268, -0.1997968, -1167202.4, 75454.66, 0.0000030340082, 9.998717, 10.000947 
1.594936e+3, 1.8319507e+2, -1368269.9, -1305934.6, 21950.45, 0.042892523, -0.26603997, -1298980.8, -154321.83, 0.0, 9.998609, 9.999435 
1.594989e+3, 1.9319378e+2, -1291216.6, -1233312.8, 70680.91, 0.04654447, -0.31861869, -1185884.0, -139209.84, 0.0, 9.998532, 9.999298 
1.5950419e+3, 2.0319268e+2, -1174043.5, -1209008.6, 81444.695, 0.02494107, -0.30390814, -1108226.1, -159538.31, 0.0, 9.999016, 9.998561 
1.5950945e+3, 2.1319243e+2, -859426.8, -1003056.06, 53741.965, -0.03723008, -0.18322352, -841544.5, 9149.651, 0.0, 10.000486, 9.998593 
1.595148e+3, 2.2319143e+2, -644319.2, -820399.9, 84396.54, -0.061179895, -0.13117908, -610401.0, 142303.75, 0.0, 10.001167, 9.998846 
1.5952036e+3, 2.3318921e+2, -651109.56, -744332.8, 89206.66, -0.0073363744, -0.25414398, -597070.94, 57650.496, 0.0, 10.000328, 9.9991 
1.5952581e+3, 2.4318708e+2, -589259.7, -705696.3, 11285.028, 0.04057831, -0.33816454, -588176.06, -31438.275, 0.0, 10.000269, 9.998716 
1.5953106e+3, 2.531856e+2, -256850.95, -481764.63, 57642.605, 0.07204819, -0.36277178, -242938.45, 215811.06, 0.0, 10.001821, 9.998836 
1.5953633e+3, 2.631833e+2, -147312.73, -631457.3, 96877.84, 0.12614542, -0.36341175, -128647.01, 232123.97, 0.0000012170439, 10.002984, 9.996576 
1.5954168e+3, 2.7317956e+2, -12662.416, -549111.25, 56013.77, 0.2276179, -0.3603378, -6876.103, 255933.56, 0.00002510867, 10.003382, 9.996276 
1.5954696e+3, 2.831761e+2, 237985.83, -193845.7, 62749.17, 0.24307305, -0.382946, 246919.08, 411761.84, 0.00016916991, 10.003642, 9.997917 
1.5955211e+3, 2.9317376e+2, 382443.0, -15235.342, 122906.95, 0.091189384, -0.45318824, 417362.53, 484220.4, 0.0006211066, 10.003715, 9.998436 
1.5955739e+3, 3.031709e+2, 209143.1, -499219.38, 123521.6, 0.07992513, -0.40693536, 230064.42, 230064.42, 0.0014601115, 10.004015, 9.994639 
1.595628e+3, 3.1316447e+2, 277936.66, -476002.6, 26201.37, 0.19481261, -0.44899595, 278846.13, 278846.13, 0.0025756713, 10.004519, 9.994556 
1.6046193e+3, 1.2314027e+2, -2262312.3, -1922389.3, -29089.924, 0.047201775, -0.20889191, -1919917.8, -186721.61, 0.027939666, 9.996006, 10.000494 
1.6046739e+3, 1.3313934e+2, -2082184.1, -1815057.8, -106154.34, 0.35182726, -0.31477457, -1778010.6, -142802.83, 0.01712635, 9.996689, 10.000239 
1.604722e+3, 1.4313896e+2, -1900285.3, -1661121.5, 40340.316, -0.010119925, -0.35942402, -1654500.5, -117285.516, 0.007836914, 9.997205, 10.000364 
1.6047771e+3, 1.531413e+2, -1710366.8, -1494874.1, 58809.746, 0.05365909, -0.1740899, -1479869.3, -40670.914, 0.0022287087, 9.997732, 10.000576 
1.6048309e+3, 1.6314296e+2, -1563777.9, -1364069.5, -58606.03, 0.08185502, -0.047466233, -1348141.5, -6956.9136, 0.00026665046, 9.998021, 10.000665 
1.6048826e+3, 1.7314324e+2, -1459128.8, -1236811.5, -99691.734, 0.08711329, -0.098550476, -1198656.0, 44520.613, 0.0000036433328, 9.997958, 10.000893 
1.6049346e+3, 1.8314284e+2, -1403661.9, -1272258.3, -49728.574, 0.081920356, -0.1637753, -1255560.6, -110383.805, 0.0, 9.998145, 9.99989 
1.6049874e+3, 1.931415e+2, -1207302.1, -1131431.9, -28919.422, 0.03312533, -0.27381325, -1121665.8, -74476.266, 0.0, 9.998835, 9.999852 
1.6050407e+3, 2.031405e+2, -1081388.1, -1146070.0, 20656.396, -0.0036482085, -0.29098767, -1075354.3, -126153.74, 0.0, 9.999581, 9.998716 
1.6050953e+3, 2.1314047e+2, -854030.56, -991137.56, 59740.938, 0.001943819, -0.1519063, -831652.44, 19551.865, 0.0, 10.000493, 9.998667 
1.6051497e+3, 2.2313942e+2, -673097.94, -841488.25, 87571.26, 0.0074230228, -0.10668267, -635812.44, 117403.02, 0.0, 10.00101, 9.998775 
1.605204e+3, 2.331366e+2, -593449.6, -728135.56, 86475.336, -0.00966751, -0.27957603, -551188.5, 104049.62, 0.0, 10.000778, 9.998992 
1.605258e+3, 2.4313436e+2, -482036.3, -632026.2, 40122.86, -0.004676012, -0.37589294, -471977.84, 85277.7, 0.0, 10.000908, 9.998917 
1.6053121e+3, 2.531337e+2, -239227.23, -441595.53, -14319.733, 0.05498011, -0.34150854, -238218.98, 221039.9, 0.00000000023448288, 10.001812, 9.999112 
1.605366e+3, 2.631319e+2, -167730.72, -568022.4, -23994.262, 0.13410781, -0.33397454, -166297.6, 194976.92, 0.0000020682924, 10.002535, 9.997225 
1.6054198e+3, 2.7312803e+2, -34355.746, -477466.94, 57623.805, 0.23324138, -0.41955706, -26984.75, 236327.31, 0.000030669344, 10.002878, 9.997009 
1.6054733e+3, 2.831248e+2, 174891.95, -263691.88, 110748.164, 0.2654898, -0.44269574, 201270.75, 366612.8, 0.00018238496, 10.003376, 9.997568 
1.6055259e+3, 2.9312357e+2, 418012.75, -63285.453, 10155.122, 0.18236075, -0.34637928, 418226.94, 485578.6, 0.0006431345, 10.004237, 9.997856 
1.605579e+3, 3.0312052e+2, 347621.38, -376958.63, -10592.032, 0.17219624, -0.3033533, 347776.16, 347776.16, 0.0014983783, 10.004732, 9.9951315 
1.6056317e+3, 3.1311318e+2, 302878.78, -393266.25, 132629.34, 0.13708237, -0.50255346, 327291.2, 327291.2, 0.0026369567, 10.004399, 9.995175 
1.6146152e+3, 1.23085365e+2, -2124968.5, -1642398.4, 11899.528, 0.028700812, -0.15516295, -1642105.1, 91638.29, 0.02978273, 9.996007, 10.002437 
1.6146697e+3, 1.3308625e+2, -1952355.6, -1552988.6, -82275.0, 0.28221515, -0.2629647, -1536703.0, 99025.96, 0.018308382, 9.996704, 10.002046 
1.6147184e+3, 1.430867e+2, -1902067.8, -1673471.9, 58691.152, -0.06830048, -0.32789102, -1659283.8, -121560.55, 0.008418617, 9.997238, 10.000265 
1.614774e+3, 1.5308772e+2, -1750004.6, -1581278.8, 80943.15, -0.019802371, -0.21963151, -1548727.6, -109006.51, 0.0024150687, 9.997746, 9.999978 
1.6148284e+3, 1.6308852e+2, -1591842.5, -1431171.5, -60243.36, 0.022060884, -0.12477135, -1411092.5, -69373.66, 0.0002938315, 9.998053, 10.000192 
1.6148806e+3, 1.7308906e+2, -1487365.3, -1301241.1, -101129.86, 0.10090965, -0.10477627, -1256870.4, -13156.83, 0.000004294035, 9.997974, 10.000448 
1.6149326e+3, 1.8308908e+2, -1396966.5, -1258699.4, -30941.926, 0.08193543, -0.10479104, -1252091.0, -106378.79, 0.0, 9.998147, 9.999981 
1.6149843e+3, 1.9308841e+2, -1194180.5, -1104184.3, 263.45618, -0.14976668, -0.168478, -1104183.5, -56467.547, 0.0, 9.998833, 10.000042 
1.6150384e+3, 2.0308775e+2, -1025464.5, -1027796.5, 49144.85, -0.19229451, -0.19369613, -977471.8, -27751.117, 0.0, 9.999571, 9.999533 
1.6150972e+3, 2.1308751e+2, -793438.2, -856321.6, 95948.59, 0.17838809, -0.17204407, -723911.0, 127812.96, 0.0, 10.000452, 9.999613 
1.6151537e+3, 2.2308663e+2, -668192.7, -818823.56, 83425.49, 0.315536, -0.17160545, -631114.94, 122617.17, 0.0, 10.000954, 9.998959 
1.6152042e+3, 2.3308487e+2, -594164.25, -725041.1, 80200.42, -0.049432974, -0.24107048, -556092.75, 99653.26, 0.0, 10.000758, 9.999023 
1.6152568e+3, 2.4308293e+2, -545924.06, -766638.56, 65474.484, -0.21576299, -0.2733429, -527962.9, 29800.346, 0.0, 10.000912, 9.9979925 
1.6153137e+3, 2.53081e+2, -323560.44, -612416.7, 25518.861, 0.054303944, -0.25656942, -321323.3, 138460.08, 0.00000000987263, 10.001788, 9.997952 
1.6153693e+3, 2.6307902e+2, -48838.426, -312697.7, -8027.5815, 0.2116585, -0.26924706, -48594.42, 313206.22, 0.0000029451164, 10.002495, 9.998999 
1.6154213e+3, 2.7307725e+2, 136502.78, -120345.79, 67770.39, 0.10084505, -0.381479, 153287.39, 417096.25, 0.000034991983, 10.002869, 9.999468 
1.6154747e+3, 2.8307492e+2, 59195.3, -506033.53, 129271.72, 0.07131838, -0.39308932, 87357.47, 253186.53, 0.00019288166, 10.003382, 9.995901 
1.6155306e+3, 2.9307202e+2, 224017.5, -449788.22, 49677.227, 0.24313289, -0.21229167, 227660.33, 295529.63, 0.0006559229, 10.004164, 9.995237 
1.6155848e+3, 3.0306888e+2, 532868.44, 22336.746, -12088.533, 0.2889754, -0.13304871, 533154.5, 533154.5, 0.001504973, 10.004675, 9.997902 
1.6156337e+3, 3.1306672e+2, 606973.25, 220506.17, 106276.09, -0.103800915, -0.20966348, 634270.44, 634270.44, 0.0026235292, 10.004488, 9.9993515 
1.624612e+3, 1.23030335e+2, -1918287.3, -1503249.4, 101057.414, 0.071502775, -0.17832908, -1479950.9, 254335.11, 0.03179242, 9.99724, 10.002829 
1.6246659e+3, 1.3303225e+2, -1905748.1, -1504128.4, -147330.0, 0.23270398, -0.20653798, -1455878.6, 180383.36, 0.019603958, 9.996915, 10.002284 
1.6247149e+3, 1.4303353e+2, -1963721.3, -1627654.1, -55107.6, -0.10360909, -0.22855952, -1618848.4, -80600.87, 0.009062119, 9.996497, 10.000933 
1.6247708e+3, 1.5303431e+2, -1910418.3, -1571768.3, 63853.46, -0.036997747, -0.21899076, -1560128.5, -119884.45, 0.002624408, 9.996279, 10.000748 
1.6248256e+3, 1.630349e+2, -1777352.8, -1523355.3, 29475.975, 0.013764883, -0.1896584, -1519979.5, -177737.5, 0.00032476612, 9.996802, 10.000155 
1.6248785e+3, 1.7303535e+2, -1369278.3, -1269366.6, 7727.0884, 0.069589786, -0.15889847, -1268772.6, -24532.703, 0.000005034694, 9.998902, 10.000214 
1.6249311e+3, 1.8303546e+2, -1112115.9, -1131747.3, 55535.27, 0.042801287, -0.13347286, -1065535.5, 80703.95, 0.0, 10.000153, 9.999884 
1.6249831e+3, 1.930353e+2, -1093441.1, -1056364.9, 56705.13, -0.16509792, -0.14170782, -1015244.56, 32994.023, 0.0, 9.999546, 10.000016 
1.6250376e+3, 2.030349e+2, -1095708.4, -1041614.56, 88764.28, -0.18229248, -0.1494138, -975867.94, -25626.889, 0.0, 9.998996, 9.999721 
1.625097e+3, 2.1303429e+2, -1037442.6, -946015.56, 82941.09, 0.20236306, -0.1892852, -897024.56, -44776.984, 0.0, 9.998653, 9.999867 
1.6251539e+3, 2.2303346e+2, -937671.6, -936173.8, 60597.848, 0.34928116, -0.20215344, -876320.25, -122065.2, 0.0, 9.999052, 9.999068 
1.6252053e+3, 2.3303261e+2, -558384.06, -700102.25, 56973.23, -0.010463803, -0.1876525, -538320.3, 117940.45, 0.0, 10.000975, 9.999088 
1.6252585e+3, 2.4303101e+2, -377317.22, -724584.75, 45487.223, -0.1812927, -0.17427003, -371457.88, 186817.67, 0.0, 10.002238, 9.997639 
1.6253154e+3, 2.5302824e+2, -312272.44, -658547.06, 43619.863, 0.043627523, -0.19486105, -306862.22, 153443.33, 0.000000010563508, 10.002084, 9.997494 
1.6253711e+3, 2.630259e+2, -81215.734, -329856.72, 8569.187, 0.18086122, -0.21644844, -80920.75, 281407.0, 0.0000032897942, 10.002286, 9.99898 
1.6254245e+3, 2.7302468e+2, 209615.4, -75221.83, -75025.125, 0.113836385, -0.2771828, 228168.31, 492498.9, 0.000036950485, 10.003336, 9.999549 
1.6254784e+3, 2.8302267e+2, 173365.9, -411089.53, -65708.64, 0.10125599, -0.2782999, 180662.25, 347010.3, 0.00019762688, 10.003997, 9.996256 
1.625534e+3, 2.9301932e+2, 202906.03, -412027.2, 34760.418, 0.21031442, -0.17890279, 204864.69, 273256.25, 0.0006573781, 10.003811, 9.995665 
1.6255884e+3, 3.0301613e+2, 496711.53, 13274.16, 55713.94, 0.20995413, -0.13761863, 503049.22, 503049.22, 0.0014841065, 10.004388, 9.997978 
1.6256389e+3, 3.1301582e+2, 935243.06, 407398.5, -78448.22, -0.11899589, -0.026833873, 946655.25, 946655.25, 0.0025528993, 10.006614, 9.999624 
1.63461e+3, 1.22975476e+2, -2006151.5, -1703426.3, 107126.08, 0.13938515, -0.27984872, -1669352.5, 65466.914, 0.03398967, 9.997337, 10.001367 
1.6346623e+3, 1.3297737e+2, -2013736.8, -1737223.5, -165397.94, 0.18704446, -0.14791986, -1659908.0, -23100.64, 0.02102759, 9.996961, 10.000641 
1.6347109e+3, 1.4297941e+2, -1855880.4, -1411984.0, -73474.164, -0.14129893, -0.056684956, -1400138.6, 138651.08, 0.009775217, 9.99652, 10.002413 
1.634767e+3, 1.5298116e+2, -1752969.5, -1246106.5, 57350.05, -0.014243315, -0.16875345, -1239698.5, 201068.31, 0.002860367, 9.996273, 10.002994 
1.6348225e+3, 1.6298224e+2, -1749436.4, -1463413.9, 92623.65, 0.040445313, -0.24015504, -1436039.3, -93286.74, 0.00036087315, 9.996793, 10.000572 
1.6348763e+3, 1.7298213e+2, -1372225.4, -1279967.9, 92340.17, -0.027139554, -0.2630273, -1222875.6, 21879.752, 0.000005927034, 9.9989195, 10.000134 
1.6349302e+3, 1.8298195e+2, -1124791.3, -1165961.0, 49207.85, -0.0642383, -0.25139135, -1092036.1, 54722.645, 0.0, 10.000183, 9.999635 
1.634984e+3, 1.9298215e+2, -1111366.0, -1098803.4, 32782.2, -0.03318094, -0.1970774, -1071706.1, -22948.203, 0.0, 9.999561, 9.9997225 
1.6350383e+3, 2.0298183e+2, -1122437.9, -1094503.0, 70130.29, 0.008188146, -0.16332816, -1036962.75, -86200.33, 0.0, 9.998987, 9.99936 
1.6350941e+3, 2.1298079e+2, -1064879.0, -1004674.75, 73320.99, 0.0654075, -0.20574297, -955517.2, -102742.15, 0.0, 9.998659, 9.999464 
1.6351502e+3, 2.2297989e+2, -938140.25, -940108.06, 115429.99, 0.09365811, -0.20063014, -823690.0, -68905.65, 0.0, 9.999063, 9.999038 
1.6352071e+3, 2.3297973e+2, -558949.8, -694935.4, 133580.27, 0.07665591, -0.121422276, -477053.6, 179729.13, 0.0, 10.000946, 9.999138 
1.6352631e+3, 2.4297851e+2, -376379.25, -708121.4, 52751.855, 0.055416606, -0.079135336, -368192.97, 190600.39, 0.0, 10.002173, 9.997785 
1.635317e+3, 2.5297543e+2, -299458.13, -632774.9, 39002.656, 0.009202646, -0.14907403, -294955.1, 165871.23, 0.0000000028529643, 10.002088, 9.997668 
1.6353719e+3, 2.629726e+2, -182394.56, -553169.44, 39536.31, 0.035509974, -0.1681317, -178225.63, 184630.19, 0.0000035056426, 10.002335, 9.997426 
1.6354287e+3, 2.7297062e+2, 63551.457, -367709.5, -24982.768, 0.22512159, -0.11276331, 64993.875, 329867.78, 0.00003796535, 10.003284, 9.997567 
1.6354842e+3, 2.8296822e+2, 295795.47, -137433.77, -59610.39, 0.2950211, -0.105797015, 303847.9, 470743.5, 0.00019827676, 10.003912, 9.998177 
1.6355366e+3, 2.929654e+2, 413260.16, 10789.743, 27753.543, 0.08551016, -0.23283482, 415164.97, 484085.72, 0.0006510003, 10.003873, 9.998541 
1.63559e+3, 3.0296224e+2, 370672.1, -267506.06, 113773.055, -0.049290136, -0.2792469, 390348.66, 390348.66, 0.0014502516, 10.00447, 9.99601 
1.6356467e+3, 3.129612e+2, 708423.9, -2460.5562, 20753.408, -0.00298289, 0.05487274, 709029.25, 709029.25, 0.0024617722, 10.006356, 9.99692 
1.6446061e+3, 1.2292144e+2, -2514627.3, -1981997.0, 151046.98, 0.20403552, -0.30411005, -1942143.9, -206797.45, 0.036383986, 9.994011, 10.001046 
1.644658e+3, 1.3292316e+2, -2252331.0, -1873179.6, -35842.793, 0.15120083, -0.16628405, -1869821.0, -232481.63, 0.022584815, 9.995422, 10.000447 
1.644707e+3, 1.4292549e+2, -1863372.8, -1408520.5, 69229.58, -0.1579735, -0.038603, -1398217.0, 141103.48, 0.010560797, 9.996439, 10.002479 
1.6447634e+3, 1.5292749e+2, -1682315.6, -1199238.4, 33490.746, -0.018814046, -0.1367775, -1196927.6, 244366.8, 0.0031241647, 9.996707, 10.003105 
1.6448195e+3, 1.6292877e+2, -1699481.4, -1409176.0, 6766.4478, 0.058606036, -0.20403905, -1409018.4, -65740.945, 0.0004029895, 9.997004, 10.000844 
1.6448748e+3, 1.7292888e+2, -1568685.1, -1337511.0, 36287.47, 0.028054567, -0.23551229, -1331948.8, -86671.086, 0.0000070009137, 9.997415, 10.0004635 
1.64493e+3, 1.8292882e+2, -1458389.3, -1315548.3, -13804.458, 0.023779774, -0.23451087, -1314226.4, -166946.63, 0.0, 9.9978485, 9.999733 
1.6449837e+3, 1.929289e+2, -1270357.0, -1171703.5, -20881.658, 0.059105784, -0.19552825, -1167465.6, -118184.91, 0.0, 9.998456, 9.999754 
1.6450381e+3, 2.0292865e+2, -1046048.0, -1084772.4, 68861.93, 0.061417527, -0.14630914, -993877.94, -42592.43, 0.0, 9.999624, 9.99912 
1.6450936e+3, 2.1292816e+2, -613146.94, -818806.4, 82341.31, 0.0010984931, -0.1038613, -584241.94, 269052.4, 0.0, 10.001902, 9.999171 
1.64515e+3, 2.229273e+2, -365660.72, -671857.25, 108140.16, -0.012982229, -0.07513288, -331320.0, 423984.03, 0.0, 10.003025, 9.998971 
1.6452082e+3, 2.3292589e+2, -460324.3, -648973.56, 111786.72, 0.07898888, -0.11996521, -408384.1, 248928.86, 0.0, 10.001623, 9.99913 
1.645265e+3, 2.4292414e+2, -510858.47, -756841.56, 55903.715, 0.11708465, -0.13770159, -498749.5, 60578.434, 0.0, 10.001188, 9.997922 
1.6453196e+3, 2.529221e+2, -152725.03, -547338.2, 39434.418, 0.020081108, -0.11647632, -148822.88, 312528.63, 0.000000004266012, 10.003031, 9.997803 
1.6453746e+3, 2.6291963e+2, 27373.055, -494326.56, 41054.355, 0.013334106, -0.08638756, 30584.002, 393961.97, 0.0000038698868, 10.003962, 9.997045 
1.6454314e+3, 2.7291664e+2, -29317.61, -470158.4, 57160.535, 0.20226708, -0.08374249, -22026.613, 243380.84, 0.000038516282, 10.002897, 9.99705 
1.6454872e+3, 2.8291357e+2, 165459.58, -189910.22, 84327.664, 0.27191526, -0.12210198, 184454.81, 351890.78, 0.00019628393, 10.002976, 9.998264 
1.6455409e+3, 2.92911e+2, 675508.3, 164991.8, 10510.522, 0.059023235, -0.24769184, 675724.6, 745180.1, 0.00064174534, 10.005563, 9.998784 
1.645595e+3, 3.0290803e+2, 671659.8, -124082.74, -4646.5903, -0.098933294, -0.2830961, 671687.0, 671687.0, 0.0014196219, 10.006545, 9.995996 
1.6456513e+3, 3.1290603e+2, 393918.2, -130961.1, 64627.684, -0.035007913, -0.035921838, 401758.6, 401758.6, 0.002387273, 10.00408, 9.997135 
1.6545999e+3, 1.22868456e+2, -2449817.5, -1835816.1, 205629.89, 0.19979624, -0.23360808, -1773313.0, -37447.734, 0.03897044, 9.993952, 10.00208 
1.6546528e+3, 1.3286984e+2, -2155878.8, -1668790.3, 25520.943, 0.11109882, -0.26743403, -1667456.8, -29601.666, 0.024272982, 9.995394, 10.001868 
1.6547033e+3, 1.428719e+2, -1966049.5, -1625071.8, 89964.47, -0.1659283, -0.19603148, -1602791.3, -62953.473, 0.0114189135, 9.996458, 10.000975 
1.6547593e+3, 1.5287332e+2, -1838286.4, -1533047.9, 45198.98, -0.07648544, -0.12888505, -1526495.5, -84668.87, 0.0034161112, 9.996752, 10.00079 
1.6548161e+3, 1.6287448e+2, -1686265.1, -1391876.6, 15101.714, 0.034440495, -0.07255639, -1391103.9, -47286.477, 0.00045137366, 9.997044, 10.000945 
1.6548741e+3, 1.7287561e+2, -1515580.3, -1228592.9, 51876.945, 0.2221023, -0.071189985, -1219503.4, 26303.555, 0.000008273259, 9.997414, 10.001214 
1.6549304e+3, 1.8287607e+2, -1429207.6, -1254155.6, 5377.079, 0.29548213, -0.08011447, -1253990.6, -106188.27, 0.0, 9.997844, 10.000157 
1.6549824e+3, 1.9287549e+2, -1248252.1, -1126396.3, 4216.4463, 0.09488949, -0.13900745, -1126250.5, -76443.086, 0.0, 9.998455, 10.000068 
1.6550365e+3, 2.0287527e+2, -1057480.3, -1100995.5, 139582.84, -0.044985272, -0.101859175, -937969.44, 13841.442, 0.0, 9.999595, 9.999022 
1.6550952e+3, 2.1287635e+2, -635818.5, -854055.7, 170772.05, -0.017523782, 0.115606494, -542279.9, 311526.25, 0.0, 10.00185, 9.998955 
1.655153e+3, 2.2287561e+2, -379855.78, -686479.44, 79563.875, 0.0005036629, 0.17238735, -360439.72, 395375.2, 0.0, 10.002955, 9.998907 
1.6552088e+3, 2.3287119e+2, -463690.38, -653021.25, 59707.125, -0.01284301, -0.17062323, -446434.03, 211416.47, 0.0, 10.001607, 9.999112 
1.655265e+3, 2.4286798e+2, -505220.84, -747160.9, 99979.664, -0.0060396884, -0.33488202, -469252.4, 90625.695, 0.0, 10.001194, 9.997988 
1.6553228e+3, 2.5286818e+2, -159745.69, -541234.75, 114299.52, 0.0502244, -0.099453256, -128121.48, 333760.06, 0.000000008480253, 10.002944, 9.997886 
1.6553792e+3, 2.6286697e+2, 52751.418, -422152.5, 19857.205, 0.08239801, 0.028106663, 53580.266, 417476.16, 0.0000040659907, 10.003868, 9.99759 
1.6554327e+3, 2.7286267e+2, 29423.484, -365317.63, 15507.408, 0.052097302, -0.16587849, 30031.756, 295965.78, 0.00003783163, 10.002965, 9.99774 
1.6554879e+3, 2.828586e+2, 87654.0, -380519.9, 149252.92, 0.047371395, -0.29140323, 131187.53, 299158.6, 0.00019203308, 10.003098, 9.996899 
1.6555466e+3, 2.9285595e+2, 517993.88, -124148.68, 113900.805, 0.088904545, -0.23714276, 537598.6, 607594.9, 0.0006324507, 10.005395, 9.996879 
1.6556023e+3, 3.0285344e+2, 726487.2, 63982.016, -63965.04, -0.0012679623, -0.1725219, 732606.56, 732606.56, 0.0014019057, 10.006233, 9.997437 
1.6556534e+3, 3.128504e+2, 562355.6, 217119.02, -30203.11, -0.21856505, -0.25529164, 564978.06, 564978.06, 0.0023518517, 10.004098, 9.9995165 
1.6645944e+3, 1.2281401e+2, -2142288.3, -1680300.1, 159417.45, 0.16279046, -0.19231495, -1630630.3, 105768.99, 0.041736465, 9.99601, 10.002188 
1.6646484e+3, 1.3281542e+2, -1995485.4, -1545010.4, -110082.17, 0.0849529, -0.26166847, -1519548.9, 118838.08, 0.026087236, 9.996294, 10.002298 
1.6647002e+3, 1.4281724e+2, -1972493.1, -1667157.8, -76217.89, -0.118651524, -0.22141714, -1649189.6, -108818.51, 0.012349877, 9.996585, 10.00062 
1.6647561e+3, 1.5281828e+2, -1860400.5, -1602987.6, 465.3885, -0.07315453, -0.1399199, -1602986.8, -160620.77, 0.003737191, 9.996857, 10.000256 
1.6648129e+3, 1.6281928e+2, -1668130.0, -1393950.6, 59971.535, 0.010253269, -0.06458192, -1381406.9, -37046.684, 0.00050616945, 9.997218, 10.000845 
1.6648713e+3, 1.7282078e+2, -1450144.1, -1196331.3, 40980.363, 0.18994592, -0.02482405, -1189878.6, 56468.016, 0.000009797576, 9.997863, 10.001217 
1.664928e+3, 1.8282144e+2, -1290879.5, -1168061.9, -31613.828, 0.2515785, -0.019774597, -1160402.1, -12061.843, 0.0, 9.998705, 10.000334 
1.664981e+3, 1.9282064e+2, -1010092.44, -983006.5, -40989.133, 0.040467907, -0.12457433, -953380.94, 96964.99, 0.0, 9.99997, 10.000318 
1.6650361e+3, 2.0282015e+2, -909425.44, -1016477.75, 91454.87, -0.0787385, -0.13450545, -856984.44, 95366.125, 0.0, 10.000553, 9.999143 
1.6650961e+3, 2.128208e+2, -964354.6, -1002672.5, 138313.22, 0.028347557, 0.03473565, -843879.7, 10468.643, 0.0, 9.999552, 9.999045 
1.6651548e+3, 2.2282015e+2, -885112.06, -924507.8, 60835.05, 0.0861433, 0.093506105, -840865.3, -84508.98, 0.0, 9.99947, 9.998946 
1.6652104e+3, 2.328169e+2, -473993.4, -655753.94, 34006.375, 0.010911798, -0.13330293, -467839.38, 190544.28, 0.0, 10.0015335, 9.999124 
1.6652668e+3, 2.4281427e+2, -286456.16, -639555.56, 75255.945, -0.012118435, -0.24036677, -271085.94, 289321.47, 0.0, 10.002685, 9.998011 
1.6653252e+3, 2.5281355e+2, -340094.47, -625469.4, 82155.16, 0.08045993, -0.09677413, -318133.28, 144284.8, 0.000000005166368, 10.001691, 9.997913 
1.6653822e+3, 2.6281202e+2, -241737.86, -564598.44, -316.76633, 0.11364608, -0.0021610502, -241737.56, 122697.36, 0.000004032319, 10.001856, 9.997575 
1.665436e+3, 2.7280885e+2, 294853.44, -244387.27, -53766.656, 0.0016205173, -0.08278001, 300162.16, 566626.4, 0.000036832495, 10.004819, 9.997676 
1.6654916e+3, 2.8280503e+2, 467807.75, -275685.3, 23524.924, -0.027219096, -0.14655837, 468551.38, 637051.5, 0.00018747548, 10.00605, 9.996197 
1.6655509e+3, 2.92801e+2, 138401.73, -402546.0, 31058.805, 0.11260118, -0.14366049, 140179.16, 210719.14, 0.00062609103, 10.003198, 9.996024 
1.6656068e+3, 3.027977e+2, 119622.73, -240637.1, -98074.31, 0.054102868, -0.10203537, 144591.22, 144591.22, 0.0014012413, 10.002107, 9.997329 
1.6656579e+3, 3.127937e+2, 748140.6, 287767.8, -188243.28, -0.23042005, -0.27745298, 815311.44, 815311.44, 0.0023630734, 10.005453, 9.999355 
1.6745892e+3, 1.22757845e+2, -2184360.3, -1799213.9, 163374.25, 0.043339726, -0.2025967, -1739248.8, -2297.6943, 0.044670317, 9.996153, 10.001276 
1.6746442e+3, 1.3275981e+2, -2042054.1, -1656900.5, -105261.91, 0.04726348, -0.133311, -1630010.0, 8925.907, 0.028026333, 9.996364, 10.001482 
1.6746974e+3, 1.4276145e+2, -1900562.6, -1528763.6, -72717.93, -0.04175024, -0.098239444, -1515047.3, 25874.848, 0.013357116, 9.996625, 10.001554 
1.6747534e+3, 1.5276231e+2, -1756990.1, -1394982.1, 12174.512, -0.018869787, -0.17240334, -1394573.3, 48339.59, 0.004090086, 9.99688, 10.001675 
1.6748096e+3, 1.6276309e+2, -1687108.6, -1439416.3, 78695.76, -0.025902657, -0.19334674, -1416528.3, -71622.7, 0.0005678562, 9.997242, 10.000523 
1.6748662e+3, 1.7276432e+2, -1506209.1, -1316554.4, 66449.57, -0.09266082, -0.10382905, -1295589.8, -48692.203, 0.000011659807, 9.997877, 10.000386 
1.6749227e+3, 1.8276486e+2, -1294734.4, -1175648.4, 9414.085, -0.13942419, -0.057243504, -1174908.8, -26014.78, 0.0, 9.998702, 10.000284 
1.6749792e+3, 1.9276428e+2, -997849.4, -959213.75, 9332.758, -0.12921403, -0.15403968, -957077.44, 93819.16, 0.0, 9.999974, 10.000481 
1.6750365e+3, 2.0276326e+2, -885693.2, -965115.4, 67761.18, -0.064747326, -0.24106036, -846864.2, 106040.195, 0.0, 10.000544, 9.9995 
1.6750965e+3, 2.127617e+2, -937579.6, -947452.94, 101093.93, 0.118473075, -0.33155885, -841301.9, 13617.75, 0.0, 9.999549, 9.999428 
1.6751556e+3, 2.2276103e+2, -882416.7, -915341.56, 112979.08, 0.21883269, -0.30049634, -784706.94, -27779.322, 0.0, 9.999455, 9.999016 
1.675213e+3, 2.3276284e+2, -481873.34, -662923.94, 116713.88, 0.12645064, -0.019858323, -424693.0, 234221.22, 0.0, 10.001493, 9.999094 
1.6752702e+3, 2.4276271e+2, -292583.88, -642618.3, 57882.367, 0.06527561, 0.12383919, -283260.66, 277657.8, 0.0, 10.00264, 9.998013 
1.6753268e+3, 2.5275838e+2, -328531.53, -618546.6, 44564.574, 0.09231578, -0.09594092, -321838.06, 141121.88, 0.0000000012893336, 10.001765, 9.997925 
1.6753836e+3, 2.6275513e+2, -263253.2, -638515.44, 79316.71, 0.08793493, -0.15385549, -247177.22, 117815.195, 0.0000037522939, 10.001974, 9.997014 
1.6754408e+3, 2.7275488e+2, 226837.55, -359159.56, 65716.77, 0.014026905, 0.1329071, 234116.94, 501116.38, 0.000035456073, 10.0047, 9.996947 
1.6754977e+3, 2.8275248e+2, 422575.94, -321099.7, -37286.21, 0.0017798691, 0.26184478, 424440.7, 593466.4, 0.00018276308, 10.005839, 9.995987 
1.6755539e+3, 2.92746e+2, 158573.64, -397020.25, -72922.89, 0.10890368, 0.027494324, 167985.48, 239072.47, 0.0006199668, 10.003352, 9.995988 
1.6756088e+3, 3.0274093e+2, 78711.65, -402298.84, -18528.44, 0.050992925, -0.059452757, 79424.305, 79424.305, 0.0014084398, 10.002435, 9.996061 
1.6756642e+3, 3.1273642e+2, 585018.7, -36757.29, -21649.535, -0.15125665, -0.119641036, 585771.6, 585771.6, 0.0024031666, 10.005392, 9.9971485 
1.684585e+3, 1.2270049e+2, -2365244.3, -1875957.6, 105468.08, 0.097752936, -0.22818698, -1854191.8, -116676.92, 0.04776628, 9.994879, 10.001357 
1.6846395e+3, 1.3270304e+2, -2182654.0, -1703253.8, -92460.25, 0.010042832, -0.12054955, -1686039.4, -46546.29, 0.030093629, 9.995317, 10.00166 
1.6846934e+3, 1.427047e+2, -1976357.3, -1508153.8, -20460.262, -0.056437027, -0.11447993, -1507261.4, 34216.324, 0.0144471, 9.995859, 10.002068 
1.6847503e+3, 1.527058e+2, -1784212.1, -1338975.8, -1337.7167, 0.03064418, -0.2217132, -1338971.8, 104491.66, 0.004479329, 9.996397, 10.002295 
1.6848074e+3, 1.6270675e+2, -1709753.8, -1448018.9, 54963.766, 0.048832573, -0.26585072, -1436945.1, -91491.734, 0.0006375465, 9.997077, 10.000543 
1.684864e+3, 1.7270778e+2, -1469526.5, -1313297.4, 93449.695, -0.101009615, -0.18228072, -1269614.0, -22166.156, 0.00001399049, 9.998192, 10.000256 
1.6849211e+3, 1.8270832e+2, -1305719.9, -1214655.0, 48694.566, -0.17710418, -0.117355116, -1193521.4, -44075.62, 0.0, 9.998779, 9.999975 
1.6849785e+3, 1.9270813e+2, -1295287.3, -1145456.8, -473.28586, -0.08218347, -0.1377011, -1145455.3, -94007.766, 0.0, 9.998122, 10.000093 
1.6850366e+3, 2.0270734e+2, -1185554.6, -1059373.0, 45471.535, 0.01735835, -0.19305322, -1044694.2, -91240.56, 0.0, 9.998271, 9.999946 
1.6850962e+3, 2.1270576e+2, -768033.4, -784715.7, 97535.02, 0.114427194, -0.35436675, -678483.5, 176981.3, 0.0, 10.000374, 10.00014 
1.6851555e+3, 2.2270498e+2, -562908.0, -803482.75, 124419.484, 0.16432345, -0.3641373, -510136.84, 247334.92, 0.0, 10.001825, 9.998645 
1.685214e+3, 2.3270637e+2, -518392.7, -755759.2, 80313.07, 0.11004356, -0.060658447, -493772.4, 165693.39, 0.0, 10.00157, 9.998421 
1.6852722e+3, 2.4270608e+2, -360110.75, -659821.94, 877.4721, 0.057665616, 0.10406296, -360108.16, 201365.33, 0.0, 10.002112, 9.998146 
1.685329e+3, 2.5270224e+2, 112557.59, -366665.28, 3127.184, 0.0039451546, -0.09797956, 112578.0, 576086.3, 0.00000000078154444, 10.004623, 9.99828 
1.6853863e+3, 2.626991e+2, 249016.94, -424136.53, 37732.387, -0.026062557, -0.15321301, 251125.34, 616664.25, 0.000003157855, 10.005644, 9.996717 
1.6854443e+3, 2.7269796e+2, -32736.533, -536380.5, 26921.088, -0.00071726216, 0.09274178, -31301.62, 236255.11, 0.00003268425, 10.003152, 9.996471 
1.685502e+3, 2.8269523e+2, -57301.83, -527926.56, -25853.191, 0.032473456, 0.20879619, -55885.875, 113701.53, 0.00017626045, 10.002436, 9.996204 
1.685558e+3, 2.9268977e+2, 595633.1, -134805.72, -30527.67, 0.052236337, 0.0326232, 596906.75, 668544.4, 0.0006079652, 10.006141, 9.996445 
1.6856134e+3, 3.0268493e+2, 875848.44, -77720.37, 42565.566, -0.010265141, -0.037045937, 877744.7, 877744.7, 0.001404033, 10.008177, 9.995528 
1.6856706e+3, 3.1268e+2, 571362.06, -181198.38, 87501.14, -0.046107154, -0.057053033, 581401.94, 581401.94, 0.0024306236, 10.005879, 9.995929 
1.6945818e+3, 1.22641824e+2, -2279327.3, -1702908.9, 111704.36, 0.29402432, -0.27776614, -1682018.8, 56073.17, 0.051028147, 9.99488, 10.002569 
1.6946341e+3, 1.3264498e+2, -2094352.9, -1522503.5, -70518.49, -0.040966548, -0.23858547, -1513935.8, 126122.984, 0.032295942, 9.995303, 10.002939 
1.6946879e+3, 1.4264679e+2, -1972192.4, -1501438.4, -1082.4202, -0.19011876, -0.29676577, -1501435.9, 40603.0, 0.015627254, 9.995862, 10.002115 
1.6947468e+3, 1.5264878e+2, -1803317.5, -1381901.9, 20168.158, 0.050199363, -0.29171544, -1380938.9, 63078.945, 0.004910431, 9.9964075, 10.001996 
1.6948059e+3, 1.626503e+2, -1678156.3, -1388036.1, 89190.664, 0.209037, -0.2736531, -1362810.0, -16807.033, 0.0007170378, 9.997098, 10.000945 
1.6948648e+3, 1.7265123e+2, -1423687.5, -1225344.3, 139063.78, 0.15900093, -0.25781193, -1153712.6, 94284.34, 0.000016975888, 9.998217, 10.00085 
1.6949227e+3, 1.8265185e+2, -1344729.8, -1300551.5, 36718.813, 0.12915301, -0.2011536, -1279789.8, -129794.39, 0.0, 9.998798, 9.999379 
1.694979e+3, 1.9265215e+2, -1362265.5, -1286028.4, -25454.197, 0.16648167, -0.080184296, -1278311.0, -226312.1, 0.0, 9.998126, 9.999129 
1.6950361e+3, 2.0265234e+2, -1151992.8, -985677.94, 99464.37, 0.14933422, 0.0015888411, -939188.44, 14810.478, 0.0, 9.998254, 10.000461 
1.6950953e+3, 2.1265277e+2, -703225.06, -646212.3, 180862.11, 0.0019381667, -0.048950277, -491623.88, 364361.7, 0.0, 10.000352, 10.001104 
1.6951546e+3, 2.2265176e+2, -623865.0, -914177.06, 129286.49, -0.093933254, -0.11245227, -574636.7, 183353.89, 0.0, 10.001758, 9.997918 
1.695214e+3, 2.3264769e+2, -612651.4, -944082.9, 71538.84, -0.049214553, -0.23601584, -597869.1, 62167.28, 0.0, 10.001534, 9.997147 
1.695273e+3, 2.4264468e+2, -354814.34, -636717.4, 73528.75, -0.05142587, -0.2693596, -336788.47, 225281.19, 0.0, 10.002059, 9.998331 
1.6953316e+3, 2.5264508e+2, 129027.44, -288827.34, 103812.91, -0.18496045, -0.10727363, 153397.66, 617461.56, 0.0000000023641606, 10.004435, 9.998905 
1.6953896e+3, 2.6264372e+2, 209732.45, -452855.16, -17831.777, -0.23317316, -0.01527236, 210212.0, 576288.7, 0.0000024624633, 10.005412, 9.996634 
1.6954468e+3, 2.726385e+2, -47805.906, -577966.4, -67332.8, -0.061561316, -0.155865, -39387.992, 228745.44, 0.000029126986, 10.003198, 9.996163 
1.6955043e+3, 2.82634e+2, 10681.949, -434940.94, 62210.41, 0.037939277, -0.21808629, 19203.76, 189383.8, 0.00016787497, 10.002637, 9.99675 
1.6955629e+3, 2.926322e+2, 627965.4, -30631.354, 118321.27, -0.066905394, -0.10198721, 648577.44, 720771.0, 0.0005876229, 10.005975, 9.997244 
1.6956203e+3, 3.026292e+2, 818357.06, -106139.96, 2180.7024, -0.13196136, -0.04085719, 818362.2, 818362.2, 0.001372851, 10.007787, 9.99552 
1.6956772e+3, 3.1262434e+2, 522906.03, -241349.34, 20873.61, 0.028296893, -0.031785566, 523475.72, 523475.72, 0.002405643, 10.005713, 9.99559 
1.704577e+3, 1.2258494e+2, -2165663.8, -1611301.8, 218918.72, 0.3180117, -0.26642135, -1535276.4, 203372.47, 0.054460447, 9.995465, 10.002973 
1.7046294e+3, 1.325883e+2, -2031316.1, -1463702.8, -39463.94, -0.04167831, -0.2368696, -1460972.1, 179639.72, 0.034638863, 9.9956045, 10.003214 
1.7046838e+3, 1.4259003e+2, -1987914.3, -1547799.8, -22496.527, -0.1674985, -0.30762124, -1546652.9, -4059.9524, 0.016903277, 9.99593, 10.001757 
1.7047429e+3, 1.5259176e+2, -1853855.4, -1466615.4, -29154.06, 0.042610366, -0.27412003, -1464432.8, -19856.277, 0.00538814, 9.9963255, 10.001449 
1.7048025e+3, 1.6259314e+2, -1751562.6, -1410944.9, 23243.568, 0.20204797, -0.23972774, -1409366.1, -62801.918, 0.0008082668, 9.99654, 10.001059 
1.7048624e+3, 1.725943e+2, -1669745.8, -1307334.9, 46988.695, 0.22088689, -0.23035005, -1301341.6, -52786.75, 0.000020835996, 9.996375, 10.001175 
1.7049214e+3, 1.8259498e+2, -1583057.1, -1399879.3, -25576.328, 0.22304972, -0.18803269, -1396375.3, -245824.19, 0.0, 9.997092, 9.999523 
1.7049782e+3, 1.92595e+2, -1077171.5, -1136018.8, -9252.939, 0.1983657, -0.105631515, -1075750.9, -23194.654, 0.0, 10.000029, 9.999243 
1.7050359e+3, 2.0259494e+2, -676401.25, -818690.94, 116865.51, 0.14684705, -0.034043234, -610728.2, 343830.28, 0.0, 10.001785, 9.999905 
1.7050958e+3, 2.1259533e+2, -743657.5, -753566.9, 63673.516, 0.03362279, -0.015369466, -684746.2, 171802.33, 0.0, 10.000452, 10.00032 
1.7051558e+3, 2.2259407e+2, -874513.7, -1007321.06, -23591.51, -0.04845021, -0.060635768, -870447.44, -111890.805, 0.0, 9.999921, 9.998161 
1.7052153e+3, 2.3258945e+2, -560483.44, -855849.3, 37634.35, -0.061018452, -0.2892045, -555763.6, 104840.09, 0.0, 10.001624, 9.9977045 
1.7052747e+3, 2.4258627e+2, -315894.97, -615156.9, 103000.38, -0.0788307, -0.37522933, -283871.03, 278765.13, 0.0, 10.002319, 9.998351 
1.7053345e+3, 2.525871e+2, -459018.88, -585729.2, 74351.18, -0.11490811, -0.1560546, -424691.0, 39936.78, 0.0000000026261497, 10.00046, 9.9987755 
1.7053935e+3, 2.625859e+2, -513873.75, -774781.8, -36898.805, -0.1113512, -0.052917242, -508755.75, -142115.48, 0.0000018299903, 10.000331, 9.996866 
1.7054509e+3, 2.7258024e+2, 174064.63, -434653.66, -44908.516, -0.03766654, -0.26723948, 177359.92, 446059.16, 0.000025883124, 10.004565, 9.996489 
1.7055088e+3, 2.8257588e+2, 622639.06, -131008.06, 70576.016, 0.012380688, -0.3374629, 629191.25, 799934.8, 0.00015904718, 10.00682, 9.996818 
1.7055684e+3, 2.9257512e+2, 349159.56, -168245.25, 61052.617, 0.017551692, -0.112235755, 356266.03, 429014.47, 0.00056107284, 10.004077, 9.99721 
1.7056271e+3, 3.0257207e+2, 105420.195, -404981.6, -69716.09, 0.053575747, -0.06804373, 114771.44, 114771.44, 0.0013149362, 10.002699, 9.995907 
1.7056833e+3, 3.125669e+2, 467758.75, -183568.42, -13051.252, 0.13277578, -0.13809451, 468020.16, 468020.16, 0.0023190468, 10.004973, 9.996337 
1.7145701e+3, 1.2252994e+2, -2196394.0, -1686437.5, 222216.95, 0.08238008, -0.21914056, -1603193.5, 135990.42, 0.058051143, 9.995524, 10.002409 
1.714625e+3, 1.325334e+2, -2089798.9, -1589459.1, -28544.44, -0.017383069, -0.09436429, -1587836.0, 53313.113, 0.037118543, 9.99564, 10.002305 
1.7146812e+3, 1.425347e+2, -2043319.6, -1671531.1, -8923.064, 0.0016076722, -0.11844718, -1671317.1, -128179.86, 0.018276531, 9.995961, 10.000896 
1.7147386e+3, 1.5253481e+2, -1909176.9, -1590834.0, -13115.02, -0.0072742207, -0.16337045, -1590294.6, -145155.11, 0.005915651, 9.996358, 10.000585 
1.7147969e+3, 1.6253516e+2, -1764018.3, -1439704.6, 14980.391, -0.00297461, -0.16855548, -1439014.1, -91875.38, 0.0009130136, 9.996553, 10.0008545 
1.7148569e+3, 1.7253691e+2, -1670033.3, -1306743.0, 39070.76, 0.05463957, -0.09768554, -1302588.5, -53466.242, 0.000025810483, 9.996368, 10.0011835 
1.7149168e+3, 1.8253776e+2, -1521933.6, -1270172.3, 56676.8, 0.07327341, -0.07448359, -1258001.5, -106888.23, 0.0, 9.997076, 10.0004225 
1.7149761e+3, 1.9253668e+2, -994833.2, -966495.1, 108475.01, -0.010312836, -0.21527117, -871267.7, 181852.03, 0.0, 10.000029, 10.000409 
1.7150359e+3, 2.0253523e+2, -787941.4, -1048363.9, 100479.05, -0.020600082, -0.29645395, -753680.7, 201451.17, 0.0, 10.001777, 9.998332 
1.7150977e+3, 2.1253356e+2, -920291.2, -1115002.4, 11785.556, 0.17670248, -0.24550454, -919580.44, -62428.563, 0.0, 10.000428, 9.99785 
1.7151587e+3, 2.2253206e+2, -805428.7, -857805.9, 13991.583, 0.26465514, -0.2039833, -801925.4, -42757.04, 0.0, 9.999891, 9.999204 
1.7152178e+3, 2.3253147e+2, -414516.78, -541515.56, 108289.76, 0.046454914, -0.23181519, -352481.94, 308687.38, 0.0, 10.001574, 9.99989 
1.7152773e+3, 2.4253045e+2, -327106.4, -628795.1, 59145.9, -0.060269423, -0.23614363, -315925.28, 247251.38, 0.0, 10.002274, 9.9982815 
1.7153375e+3, 2.525284e+2, -506216.5, -698802.6, 3698.1194, 0.15736687, -0.23397936, -506145.5, -40946.28, 0.0000000000058928205, 10.000523, 9.99797 
1.7153974e+3, 2.6252583e+2, -468735.7, -704376.1, 71205.93, 0.26560557, -0.2384645, -448890.06, -81663.086, 0.0000011502823, 10.000427, 9.997306 
1.7154561e+3, 2.7252278e+2, 214335.61, -323715.1, 125621.68, 0.041728288, -0.2655339, 242220.1, 511477.8, 0.000022592492, 10.004445, 9.997311 
1.7155148e+3, 2.8252015e+2, 568902.25, -193555.72, 24793.691, -0.05722441, -0.20120506, 569707.6, 740992.0, 0.0001487385, 10.006606, 9.996491 
1.7155746e+3, 2.9251838e+2, 307645.63, -269248.7, -43339.81, 0.23354582, -0.01793522, 310883.4, 384186.78, 0.000527911, 10.004142, 9.996484 
1.7156337e+3, 3.0251372e+2, 175575.5, -316469.8, -30978.793, 0.4476878, -0.0974555, 177518.22, 177518.22, 0.0012362406, 10.002935, 9.996407 
1.7156892e+3, 3.125074e+2, 572923.4, 54123.926, 86187.484, 0.21633439, -0.38281342, 586866.8, 586866.8, 0.002185604, 10.004894, 9.99801 
1.7245649e+3, 1.224724e+2, -2160857.3, -1699245.6, 111019.875, -0.003479765, -0.2691991, -1673932.9, 65809.82, 0.06177432, 9.995915, 10.002101 
1.7246206e+3, 1.3247545e+2, -2099084.3, -1649753.8, -119997.94, -0.030832522, -0.13785762, -1619715.4, 21998.727, 0.039721623, 9.995835, 10.0017805 
1.7246777e+3, 1.4247656e+2, -2015394.9, -1676224.3, -34439.207, 0.051343285, -0.13897586, -1672762.6, -129057.305, 0.019743169, 9.996228, 10.000736 
1.7247353e+3, 1.5247661e+2, -1740078.0, -1511039.4, 25077.361, -0.013783343, -0.18503572, -1508325.8, -62617.703, 0.006494274, 9.997528, 10.000568 
1.7247938e+3, 1.6247688e+2, -1489631.3, -1332264.4, 74636.85, -0.058008187, -0.1894491, -1302496.3, 45211.52, 0.001032908, 9.998538, 10.000637 
1.7248537e+3, 1.7247829e+2, -1343189.0, -1179510.0, 67478.945, -0.01942634, -0.12811743, -1155278.3, 94416.02, 0.00003215152, 9.998739, 10.000914 
1.724914e+3, 1.8247889e+2, -1252653.8, -1127082.9, 98715.15, 0.0060514864, -0.11780214, -1072878.1, 78808.66, 0.0, 9.998869, 10.000537 
1.7249753e+3, 1.9247785e+2, -1132147.8, -1007152.94, 90200.11, -0.024447167, -0.2752482, -959914.4, 93776.81, 0.0, 9.998977, 10.000634 
1.7250365e+3, 2.024763e+2, -1163416.9, -1262456.3, 26381.08, 0.007519253, -0.3698828, -1156828.1, -201123.9, 0.0, 9.999345, 9.998034 
1.7250982e+3, 2.1247403e+2, -946446.3, -1177649.8, 57453.316, 0.20349643, -0.33351552, -932956.44, -75224.14, 0.0, 10.000471, 9.997398 
1.7251593e+3, 2.2247237e+2, -610668.06, -759418.8, 154078.66, 0.29343107, -0.28064546, -513953.0, 245798.78, 0.0, 10.001215, 9.999239 
1.7252193e+3, 2.3247276e+2, -486105.2, -553981.75, 117552.8, 0.09274975, -0.23197217, -397689.63, 264053.84, 0.0, 10.000992, 10.000082 
1.7252792e+3, 2.4247223e+2, -462434.9, -674568.8, -31720.158, -0.017612452, -0.20330824, -457793.4, 105952.43, 0.0, 10.001267, 9.998448 
1.7253387e+3, 2.524697e+2, -153905.11, -510660.56, -42295.273, 0.12389069, -0.2663833, -148959.34, 316813.6, 0.0, 10.00287, 9.998128 
1.7253987e+3, 2.624671e+2, 55183.164, -405395.72, 116233.7, 0.19842067, -0.29825246, 82853.99, 450653.84, 0.00000064588096, 10.003832, 9.997716 
1.7254595e+3, 2.724651e+2, 63532.465, -340246.06, 161115.72, 0.048925843, -0.2613185, 119940.61, 389757.97, 0.000019485911, 10.003173, 9.997806 
1.7255199e+3, 2.8246278e+2, 65496.418, -487800.34, 5996.0234, -0.016077338, -0.18677203, 65561.39, 237402.36, 0.00013729495, 10.003369, 9.996028 
1.725579e+3, 2.924591e+2, 492168.06, -272949.0, -93374.805, 0.20070834, -0.11154243, 503398.7, 577280.06, 0.0004914049, 10.0058155, 9.995649 
1.7256384e+3, 3.0245402e+2, 784698.44, -10581.583, -94642.305, 0.43362278, -0.18419535, 795806.25, 795806.25, 0.0011527878, 10.007076, 9.996517 
1.7256942e+3, 3.1244954e+2, 688849.94, 227677.13, -22734.5, 0.2441348, -0.32817245, 689968.0, 689968.0, 0.00204503, 10.005167, 9.999087 
1.7345609e+3, 1.22412056e+2, -2161597.5, -1713550.8, 99153.47, 0.025902463, -0.4279664, -1692588.8, 47738.48, 0.06561491, 9.995971, 10.001972 
1.7346156e+3, 1.3241394e+2, -2100136.5, -1662924.5, -124225.37, -0.10183184, -0.40352744, -1630093.6, 12217.787, 0.042436883, 9.995878, 10.00167 
1.7346728e+3, 1.4241517e+2, -1966097.4, -1582934.4, 555.10425, -0.053579547, -0.40853006, -1582933.5, -38632.32, 0.021297567, 9.996264, 10.001361 
1.7347328e+3, 1.5241706e+2, -1668906.9, -1375884.6, 78570.6, 0.0003111269, -0.35633516, -1356146.4, 90136.31, 0.0071235094, 9.997577, 10.001478 
1.7347929e+3, 1.6241837e+2, -1492738.1, -1355481.3, 91362.65, 0.018134985, -0.3082652, -1309842.5, 38427.67, 0.0011691477, 9.998606, 10.000447 
1.7348523e+3, 1.7241843e+2, -1375228.5, -1261901.9, 75896.73, -0.012363798, -0.3281192, -1223849.6, 26420.656, 0.00004011834, 9.9988, 10.000322 
1.7349127e+3, 1.8241832e+2, -1298620.1, -1228303.3, 99376.89, 0.0033824008, -0.32679546, -1158048.9, -5776.6626, 0.0, 9.998895, 9.999829 
1.7349757e+3, 1.9241847e+2, -1187186.1, -1119197.5, 94945.77, 0.13923125, -0.28985694, -1052343.8, 1927.5173, 0.0, 9.998967, 9.99987 
1.7350379e+3, 2.0241803e+2, -1098930.5, -1128882.1, 56977.227, 0.20895143, -0.25727043, -1054993.9, -98717.625, 0.0, 9.999343, 9.998953 
1.7350975e+3, 2.1241657e+2, -846299.06, -965979.0, 102978.69, 0.10042599, -0.28195444, -787036.44, 71254.68, 0.0, 10.000451, 9.998861 
1.7351577e+3, 2.2241491e+2, -675528.1, -887082.3, 153525.84, 0.023520498, -0.28916672, -594867.6, 165440.64, 0.0, 10.001183, 9.998379 
1.7352198e+3, 2.3241334e+2, -602937.94, -795268.06, 111756.92, 0.05629585, -0.28287047, -551667.1, 110658.32, 0.0, 10.000983, 9.998431 
1.7352808e+3, 2.4241176e+2, -444888.2, -633977.56, 12974.104, 0.021966513, -0.26519474, -444002.13, 120339.51, 0.0, 10.001247, 9.998737 
1.7353384e+3, 2.5241074e+2, -94738.66, -375995.22, 23724.791, -0.18783635, -0.261161, -92751.445, 373598.75, 0.0, 10.002816, 9.999081 
1.7353979e+3, 2.6240933e+2, 71676.72, -353851.2, 106827.016, -0.26946962, -0.24858671, 96989.45, 465351.6, 0.0000005296748, 10.003755, 9.998109 
1.7354618e+3, 2.7240726e+2, 76082.65, -313529.13, 133253.33, -0.034384772, -0.2474201, 117297.49, 387676.22, 0.000017873872, 10.003168, 9.997993 
1.7355242e+3, 2.824039e+2, 25261.135, -576597.25, 65604.79, 0.081256665, -0.2617836, 32329.293, 204740.58, 0.00012894116, 10.0033865, 9.995413 
1.7355824e+3, 2.9239765e+2, 400327.53, -428741.9, 11559.685, -0.04758312, -0.3606184, 400488.7, 474969.28, 0.00046374713, 10.005659, 9.994657 
1.7356418e+3, 3.0239305e+2, 745886.94, -51928.22, -120346.17, 0.0758451, -0.30544698, 763645.25, 763645.25, 0.0010951103, 10.006905, 9.996317 
1.7356987e+3, 3.1239212e+2, 758460.5, 328006.7, -109678.35, 0.18225767, -0.11702298, 784795.06, 784795.06, 0.001959409, 10.005372, 9.999674 
1.744556e+3, 1.2235272e+2, -2344803.0, -1812136.4, 83553.0, 0.01771179, -0.4424729, -1799337.9, -58431.273, 0.06957688, 9.994764, 10.00186 
1.7446107e+3, 1.3235411e+2, -2196762.8, -1707555.0, -140731.88, -0.13176884, -0.46601373, -1669959.5, -27063.373, 0.045260757, 9.995204, 10.001688 
1.7446686e+3, 1.4235547e+2, -2008649.0, -1574796.3, 12913.008, -0.06105512, -0.46798253, -1574412.3, -29527.992, 0.022935338, 9.995856, 10.00161 
1.7447305e+3, 1.5235777e+2, -1738900.6, -1372100.4, 51033.195, 0.046785876, -0.40676004, -1365132.5, 81727.14, 0.0078018596, 9.996942, 10.001806 
1.7447916e+3, 1.6235922e+2, -1634103.5, -1437124.8, 6677.4004, 0.08749603, -0.35892296, -1436898.6, -88054.45, 0.0013223152, 9.997702, 10.0003195 
1.7448507e+3, 1.7235877e+2, -1557610.8, -1380568.9, -6550.415, 0.015252888, -0.4027016, -1380326.9, -129477.15, 0.000049909977, 9.997695, 10.000034 
1.7449111e+3, 1.8235831e+2, -1459403.4, -1357893.9, 58165.676, 0.0124967005, -0.39813364, -1331452.1, -178595.88, 0.0000000000000006446772, 9.998015, 9.999367 
1.7449751e+3, 1.9235861e+2, -1174015.0, -1167758.6, 76355.76, 0.18399651, -0.29444948, -1094467.0, -39609.71, 0.0, 9.999295, 9.999379 
1.745038e+3, 2.0235847e+2, -913546.7, -989205.7, 46173.99, 0.2565988, -0.21828851, -891684.4, 65176.74, 0.0, 10.0004, 9.999401 
1.7450975e+3, 2.123576e+2, -715307.6, -818045.5, 37039.19, 0.059606627, -0.2574599, -703346.7, 155521.25, 0.0, 10.000983, 9.999621 
1.745158e+3, 2.2235617e+2, -632296.44, -877717.25, 60318.582, -0.06303673, -0.28128132, -618272.94, 142608.34, 0.0, 10.001531, 9.998275 
1.7452209e+3, 2.3235406e+2, -480196.44, -779315.6, 89268.766, 0.02209007, -0.28946066, -455580.88, 207324.4, 0.0, 10.002018, 9.99804 
1.7452824e+3, 2.4235219e+2, -288686.44, -563698.75, 61294.61, 0.028169088, -0.27574146, -275643.7, 289281.84, 0.0, 10.002346, 9.99869 
1.7453408e+3, 2.5235152e+2, -159014.9, -397430.63, 15582.417, -0.17785114, -0.24513307, -158000.78, 308928.9, 0.0, 10.002339, 9.999159 
1.7454012e+3, 2.623502e+2, -108238.555, -469233.53, 34829.645, -0.23941857, -0.21513666, -104908.82, 264031.06, 0.0000005777565, 10.002642, 9.997851 
1.7454657e+3, 2.723475e+2, 138497.23, -324858.4, 12592.595, 0.023571303, -0.23976831, 138839.22, 409803.06, 0.000017547427, 10.003779, 9.997619 
1.7455284e+3, 2.823437e+2, 246073.11, -359852.88, -21058.88, 0.13232675, -0.30982763, 246804.13, 419804.22, 0.00012448351, 10.004437, 9.99639 
1.7455867e+3, 2.923381e+2, 234926.75, -349438.5, 68269.625, -0.06237644, -0.47939712, 242796.5, 317853.7, 0.0004529115, 10.003838, 9.9960785 
1.7456472e+3, 3.0233455e+2, 378698.4, -331006.72, 65532.45, 0.054209817, -0.37883735, 384698.78, 384698.78, 0.0010860304, 10.004819, 9.995403 
1.7457059e+3, 3.1233108e+2, 1275472.5, 366828.6, -76634.13, 0.15453395, -0.2808527, 1281890.5, 1281890.5, 0.0019707833, 10.009846, 9.997784 
1.7545497e+3, 1.2229479e+2, -2358073.3, -1831272.9, 96776.39, -0.085584454, -0.27743375, -1814057.0, -72579.05, 0.07366958, 9.994732, 10.001743 
1.7546058e+3, 1.322964e+2, -2187966.5, -1685564.3, -120831.29, -0.13625783, -0.28885645, -1658014.3, -14549.459, 0.048192136, 9.995188, 10.001847 
1.7546651e+3, 1.4229794e+2, -2021983.1, -1604682.3, 45613.508, 0.010964736, -0.27608615, -1599754.6, -54304.363, 0.024652572, 9.995861, 10.001404 
1.754728e+3, 1.5229887e+2, -1762372.6, -1422210.1, 93325.35, 0.10719607, -0.3202252, -1398288.1, 49149.94, 0.008527423, 9.996947, 10.001458 
1.7547895e+3, 1.622994e+2, -1640716.9, -1454210.4, 11263.022, 0.12900911, -0.33906206, -1453532.6, -104101.68, 0.0014925194, 9.997712, 10.000201 
1.7548485e+3, 1.7229925e+2, -1559222.3, -1385360.6, -8789.5205, 0.04647993, -0.34517387, -1384917.4, -133484.03, 0.00006156021, 9.997697, 10.000005 
1.754909e+3, 1.8229885e+2, -1470421.3, -1381503.5, 92254.57, 0.0071731387, -0.3274678, -1323553.9, -170114.5, 0.0000000010737394, 9.998016, 9.999204 
1.7549732e+3, 1.9229831e+2, -1191705.9, -1204775.5, 129828.17, 0.082950085, -0.28825352, -1068248.1, -12799.009, 0.0, 9.999293, 9.999127 
1.7550369e+3, 2.022976e+2, -917128.75, -995275.44, 72270.53, 0.12102089, -0.2520699, -874045.2, 83413.78, 0.0, 10.00039, 9.999365 
1.7550984e+3, 2.1229702e+2, -714250.6, -811823.2, 60371.426, 0.05850402, -0.2628658, -685417.25, 174045.53, 0.0, 10.00096, 9.999679 
1.7551601e+3, 2.2229616e+2, -599429.0, -798584.75, 78147.586, 0.0025526062, -0.25826845, -572425.7, 189044.7, 0.0, 10.001482, 9.998843 
1.7552222e+3, 2.3229487e+2, -438116.78, -678657.6, 110695.445, -0.02838629, -0.25555354, -394929.38, 268554.84, 0.0, 10.001957, 9.998762 
1.755284e+3, 2.4229333e+2, -323154.7, -618337.56, 62431.17, -0.027012436, -0.2406762, -310493.56, 255006.19, 0.0, 10.002269, 9.998354 
1.7553458e+3, 2.522919e+2, -213968.97, -505061.28, 18584.814, 0.08684637, -0.21895991, -212787.22, 254724.89, 0.0, 10.002305, 9.99844 
1.7554079e+3, 2.622898e+2, -173003.75, -593872.9, 66809.04, 0.18979473, -0.19320601, -162653.0, 206878.94, 0.000000567496, 10.002598, 9.997017 
1.755471e+3, 2.72286e+2, 55965.664, -463863.47, 65609.836, 0.18616022, -0.23858549, 64118.688, 335689.03, 0.00001712868, 10.003638, 9.996733 
1.7555328e+3, 2.8228214e+2, 377324.7, -50973.37, -25886.502, 0.1269039, -0.33859992, 378883.6, 552490.06, 0.00012290414, 10.004276, 9.998592 
1.7555918e+3, 2.922799e+2, 470754.56, 134703.17, 37627.65, 0.07948225, -0.49206263, 474916.2, 550534.06, 0.00046001052, 10.003862, 9.999395 
1.7556539e+3, 3.0227798e+2, 293941.47, -528442.8, 188022.44, 0.2552467, -0.39262563, 334890.25, 334890.25, 0.0011248797, 10.004902, 9.994012 
1.7557156e+3, 3.1226808e+2, 914858.8, -275026.63, 86925.8, 0.14196727, -0.63963807, 921175.56, 921175.56, 0.002065034, 10.009389, 9.993584 
1.7645442e+3, 1.2223377e+2, -2428367.8, -1828584.3, -25742.578, -0.05854921, -0.21372135, -1827481.4, -85400.27, 0.07790593, 9.994103, 10.00206 
1.7646007e+3, 1.3223623e+2, -2138262.0, -1590991.5, -214230.0, -0.1472974, -0.2017378, -1517105.9, 126951.34, 0.05123237, 9.995214, 10.002522 
1.7646608e+3, 1.422382e+2, -1972400.6, -1574196.0, -10140.611, -0.0066227186, -0.1868886, -1573937.9, -27901.76, 0.026445003, 9.996174, 10.001462 
1.7647243e+3, 1.5223835e+2, -1768527.0, -1445524.4, 48429.207, 0.06622944, -0.29271975, -1438419.4, 9611.603, 0.009296644, 9.996992, 10.001277 
1.7647867e+3, 1.6223831e+2, -1620329.0, -1451313.0, -28017.023, 0.08304825, -0.35202682, -1446789.8, -96760.74, 0.0016790463, 9.997886, 10.000133 
1.7648467e+3, 1.7223825e+2, -1350870.4, -1291307.0, -58789.074, 0.05445796, -0.34672225, -1255186.5, -3155.3162, 0.000074904594, 9.999153, 9.999947 
1.7649081e+3, 1.8223795e+2, -1152229.8, -1198711.9, 55368.84, 0.044618815, -0.32440162, -1115422.0, 38614.125, 0.000000009428086, 10.000074, 9.999466 
1.7649724e+3, 1.9223762e+2, -1050958.6, -1092929.5, 132000.47, 0.06063158, -0.2990971, -938285.9, 117756.51, 0.0, 10.000074, 9.999516 
1.7650363e+3, 2.0223702e+2, -970254.5, -1022774.3, 102540.31, 0.06288025, -0.2718171, -890665.0, 67384.83, 0.0, 10.000039, 9.999344 
1.7650986e+3, 2.1223636e+2, -844856.25, -890607.94, 68118.914, 0.035948236, -0.2788231, -795874.7, 64180.703, 0.0, 10.000141, 9.999526 
1.7651607e+3, 2.2223549e+2, -759869.44, -855763.1, 70163.484, 0.019449491, -0.27131885, -722835.0, 39228.434, 0.0, 10.0002985, 9.999018 
1.7652237e+3, 2.3223455e+2, -609946.8, -728719.1, 65934.77, 0.030922968, -0.25975183, -580596.8, 83476.74, 0.0, 10.000642, 9.999048 
1.7652865e+3, 2.4223308e+2, -491859.47, -704156.94, 11393.261, 0.07080768, -0.25441417, -491249.78, 74838.09, 0.0, 10.001131, 9.998312 
1.7653486e+3, 2.5223097e+2, -280391.56, -552824.1, -2138.961, 0.1859659, -0.284833, -280374.78, 187730.56, 0.0, 10.0019245, 9.998292 
1.765411e+3, 2.6222837e+2, -214628.02, -618800.25, 85331.586, 0.2762563, -0.29573938, -197350.78, 172778.27, 0.00000034930508, 10.0023365, 9.99697 
1.765474e+3, 2.7222463e+2, -230190.38, -602673.7, 132994.08, 0.24525423, -0.3358045, -187579.72, 84588.29, 0.000015383072, 10.001672, 9.996727 
1.765536e+3, 2.822211e+2, 13654.23, -251866.27, 61894.54, 0.18079165, -0.3954468, 27373.39, 201575.75, 0.00012297806, 10.001886, 9.998362 
1.7655966e+3, 2.922198e+2, 598942.9, 161857.7, -91965.27, 0.1373483, -0.4248347, 617504.7, 693711.44, 0.0004780938, 10.004895, 9.999082 
1.7656596e+3, 3.0221832e+2, 679828.1, -208236.25, -19844.41, 0.251401, -0.30469, 680271.3, 680271.3, 0.0011836778, 10.006979, 9.995208 
1.7657225e+3, 3.122085e+2, 448996.7, -391660.66, 108158.6, 0.114320524, -0.69681025, 462689.28, 462689.28, 0.0021736308, 10.005708, 9.994551 
1.7745395e+3, 1.2216949e+2, -2372009.5, -1719077.1, 64.513504, 0.076239854, -0.24945617, -1719077.1, 23640.883, 0.08231803, 9.994122, 10.002818 
1.7745954e+3, 1.3217317e+2, -2049893.5, -1423725.9, -174670.63, -0.1892762, -0.2256106, -1378297.0, 266380.13, 0.054393712, 9.995242, 10.003716 
1.7746553e+3, 1.4217587e+2, -1941921.5, -1521636.5, 14671.811, -0.15800628, -0.2270462, -1521124.9, 25520.424, 0.02831169, 9.996212, 10.001811 
1.7747194e+3, 1.5217605e+2, -1764214.6, -1440878.6, 78955.31, -0.10858335, -0.33686522, -1422628.6, 26011.209, 0.010105246, 9.997007, 10.001303 
1.7747827e+3, 1.62176e+2, -1622490.0, -1460220.0, 13182.487, -0.08619324, -0.3994707, -1459156.1, -108517.65, 0.0018804772, 9.997904, 10.000064 
1.7748454e+3, 1.7217566e+2, -1354579.0, -1307309.9, -8518.055, 0.017198022, -0.40888754, -1305821.8, -53177.773, 0.00008970714, 9.999187, 9.99982 
1.7749088e+3, 1.8217547e+2, -1098378.5, -1098080.3, 63725.49, 0.103779286, -0.38979474, -1034503.7, 120143.6, 0.000000028818846, 10.00012, 10.000135 
1.7749728e+3, 1.9217646e+2, -980573.8, -949380.9, 130877.7, 0.09615932, -0.3255394, -833173.6, 223463.58, 0.0, 10.000084, 10.000498 
1.7750362e+3, 2.0217681e+2, -967153.6, -1020083.25, 102404.086, 0.05825736, -0.27296802, -887849.9, 70783.805, 0.0, 10.0000515, 9.999357 
1.7750978e+3, 2.1217553e+2, -874715.44, -949980.06, 74429.05, -0.025200643, -0.30592084, -828945.9, 31700.318, 0.0, 10.000126, 9.999128 
1.7751604e+3, 2.2217415e+2, -779787.8, -890612.56, 78366.56, -0.03507645, -0.31700024, -739221.8, 23438.955, 0.0, 10.000265, 9.998796 
1.7752255e+3, 2.3217312e+2, -620116.1, -750710.2, 82363.734, 0.16495068, -0.299707, -580306.1, 84367.086, 0.0, 10.000638, 9.998903 
1.7752896e+3, 2.4217147e+2, -477376.94, -674204.9, 34578.19, 0.2800782, -0.31043836, -471479.06, 95210.36, 0.0, 10.001132, 9.998517 
1.7753498e+3, 2.5216877e+2, -255765.14, -506750.75, 29335.88, 0.13057636, -0.43119946, -252381.89, 216327.45, 0.0, 10.001946, 9.998599 
1.7754109e+3, 2.6216593e+2, -161668.17, -524492.2, 68585.445, 0.049106598, -0.5091696, -149136.17, 221596.27, 0.00000011302343, 10.0024, 9.997588 
1.7754748e+3, 2.7216327e+2, -155787.77, -486316.47, 101118.445, 0.18563819, -0.5117966, -127306.8, 145452.7, 0.000012498967, 10.001834, 9.997449 
1.7755385e+3, 2.821605e+2, -110832.91, -555233.44, 125053.086, 0.24993001, -0.46199256, -78060.17, 96729.23, 0.000120940276, 10.002075, 9.99619 
1.7756012e+3, 2.921581e+2, 356716.0, -320201.66, 31734.977, 0.116770804, -0.2853753, 358200.53, 435018.66, 0.00049012183, 10.004802, 9.995814 
1.7756645e+3, 3.0215588e+2, 865263.25, 226079.3, -19137.055, 0.05404186, -0.15151966, 865835.7, 865835.7, 0.0012153322, 10.00676, 9.998302 
1.7757276e+3, 3.12153e+2, 805514.06, 327273.0, 5059.6035, 0.05278742, -0.3585597, 805567.56, 805567.56, 0.002206121, 10.005818, 9.999435 
1.7845333e+3, 1.2210738e+2, -2352836.5, -1744920.6, 231941.88, 0.047616113, -0.30495247, -1666533.9, 76788.6, 0.08696164, 9.994398, 10.002534 
1.7845908e+3, 1.3211039e+2, -2010334.8, -1431627.6, -51165.6, -0.16474083, -0.32432333, -1427138.8, 218149.4, 0.057701517, 9.99562, 10.003474 
1.7846523e+3, 1.4211239e+2, -1890078.6, -1509802.9, 52389.78, -0.069333516, -0.3765402, -1502717.3, 44545.773, 0.030258754, 9.9966345, 10.001688 
1.7847164e+3, 1.5211341e+2, -1668354.1, -1407749.1, 95086.72, -0.11826938, -0.39403933, -1376743.8, 72507.48, 0.0109521225, 9.99773, 10.00118 
1.7847799e+3, 1.6211393e+2, -1558589.4, -1430201.0, 9584.5, -0.16308273, -0.38640893, -1429489.5, -78244.484, 0.0020959692, 9.99835, 10.000052 
1.7848438e+3, 1.7211346e+2, -1566464.9, -1403811.9, -13072.994, 0.028582081, -0.4136895, -1402767.9, -149516.22, 0.000105867584, 9.99772, 9.99986 
1.784908e+3, 1.821131e+2, -1466053.4, -1271778.9, 64797.55, 0.17031357, -0.41519177, -1252149.9, -96893.47, 0.0000000562377, 9.997591, 10.00016 
1.784972e+3, 1.9211395e+2, -1104974.1, -1006333.3, 64711.664, 0.07127005, -0.36589912, -974289.7, 82957.305, 0.0, 9.999227, 10.000519 
1.7850354e+3, 2.0211418e+2, -887561.25, -960493.44, -26122.23, -0.020566314, -0.32847303, -879170.4, 80073.47, 0.0, 10.000509, 9.999546 
1.7850977e+3, 2.1211307e+2, -801792.4, -885214.1, -27505.914, -0.038361646, -0.3702755, -793539.56, 67714.89, 0.0, 10.0005045, 9.999389 
1.785161e+3, 2.2211176e+2, -729985.5, -887221.56, 32064.924, -0.0053971303, -0.38076094, -723698.0, 39570.023, 0.0, 10.000696, 9.998611 
1.7852263e+3, 2.3211063e+2, -500329.22, -732130.0, 25720.89, 0.14048997, -0.33740753, -497509.5, 167773.11, 0.0, 10.001633, 9.998549 
1.7852908e+3, 2.4210903e+2, -263414.66, -570687.4, -26207.973, 0.22153217, -0.32253566, -261195.36, 306104.4, 0.0, 10.0026, 9.998522 
1.7853522e+3, 2.5210652e+2, -12765.596, -374515.84, -47599.375, 0.109028496, -0.43219116, -6607.2705, 462710.56, 0.0, 10.003542, 9.998742 
1.7854142e+3, 2.6210383e+2, 140153.03, -400693.5, -41565.258, 0.041138172, -0.49637747, 143328.77, 514668.56, 0.00000007422919, 10.004564, 9.997398 
1.785478e+3, 2.7210122e+2, 408662.72, -254470.08, -88720.484, 0.13052048, -0.46034995, 420327.44, 693694.8, 0.000009880645, 10.005885, 9.997092 
1.785542e+3, 2.8209817e+2, 493539.03, -303062.22, -64229.688, 0.19905771, -0.39517584, 498684.6, 674085.06, 0.00011610665, 10.006411, 9.99583 
1.7856058e+3, 2.9209462e+2, 307784.47, -377007.8, 10906.605, 0.14041482, -0.30336648, 307958.13, 385399.3, 0.0004890214, 10.004609, 9.995517 
1.7856692e+3, 3.020909e+2, 439303.13, -59121.18, 47869.79, -0.0038704777, -0.27329645, 443859.0, 443859.0, 0.0012024983, 10.004179, 9.997581 
1.7857347e+3, 3.1209046e+2, 1100948.8, 353417.6, -309552.13, 0.07999294, -0.13887915, 1212490.5, 1212490.5, 0.0021336032, 10.008368, 9.998384 
1.794525e+3, 1.2204789e+2, -2449112.0, -1946140.3, 272929.75, -0.22707762, -0.39677662, -1826498.4, -82610.76, 0.09190124, 9.994427, 10.001096 
1.7945872e+3, 1.3204817e+2, -2137614.3, -1689809.1, -421.84702, -0.085187994, -0.5048997, -1689808.8, -43922.785, 0.06119029, 9.995648, 10.001598 
1.7946523e+3, 1.4204784e+2, -1936552.0, -1618531.1, 88168.414, 0.26823297, -0.6461631, -1595723.0, -47834.504, 0.03230053, 9.996687, 10.000911 
1.7947155e+3, 1.520504e+2, -1688018.8, -1457108.9, 138379.4, 0.037648518, -0.46453518, -1392345.3, 57519.49, 0.011841973, 9.997764, 10.000826 
1.7947783e+3, 1.6205223e+2, -1550651.4, -1422534.9, -493.5465, -0.16143432, -0.30536094, -1422532.9, -70684.89, 0.0023264778, 9.998382, 10.000093 
1.7948419e+3, 1.7205171e+2, -1552880.0, -1376443.0, -39568.598, 0.073932484, -0.3537359, -1367975.5, -114121.625, 0.00012352158, 9.997718, 10.000052 
1.7949058e+3, 1.8205085e+2, -1511864.6, -1365466.8, 100675.39, 0.21712962, -0.3959214, -1314192.3, -158329.33, 0.000000085167756, 9.997582, 9.999523 
1.79497e+3, 1.9205004e+2, -1175443.1, -1152653.3, 133012.19, -0.034702916, -0.4195479, -1030548.8, 27323.12, 0.0, 9.999222, 9.999519 
1.7950341e+3, 2.0204918e+2, -867012.6, -916243.8, -9683.193, -0.1995347, -0.4362366, -865176.56, 94703.71, 0.0, 10.000498, 9.999857 
1.7950983e+3, 2.1204892e+2, -744431.8, -763597.2, -28686.607, -0.028048823, -0.47046638, -723769.7, 138110.5, 0.0, 10.000486, 10.000236 
1.7951624e+3, 2.2204831e+2, -744950.6, -910279.6, 54300.344, 0.082036145, -0.46178225, -728711.4, 35173.992, 0.0, 10.000662, 9.99847 
1.7952259e+3, 2.3204711e+2, -548858.7, -820960.06, 64259.51, -0.04556788, -0.37589833, -534446.56, 131455.58, 0.0, 10.00158, 9.997966 
1.79529e+3, 2.4204567e+2, -284723.56, -601592.4, 6655.6904, -0.09988113, -0.29811525, -284583.8, 283335.66, 0.0, 10.00254, 9.998341 
1.7953554e+3, 2.520442e+2, -18444.957, -377875.53, -11551.726, 0.08795997, -0.303384, -18074.078, 451857.03, 0.0, 10.003503, 9.998739 
1.7954202e+3, 2.6204202e+2, 74660.25, -529058.06, -1168.4182, 0.19347966, -0.28482085, 74662.51, 446613.53, 0.000000055568677, 10.004527, 9.996536 
1.7954831e+3, 2.7203846e+2, 295670.22, -452689.88, -32031.9, 0.059496097, -0.22339343, 297038.78, 571029.0, 0.000008641501, 10.005725, 9.99581 
1.7955466e+3, 2.8203437e+2, 538297.75, -168241.42, -100316.08, 0.02131754, -0.21605901, 552264.75, 728297.25, 0.000113550304, 10.006224, 9.996847 
1.7956106e+3, 2.920296e+2, 471767.88, -68809.03, -62787.004, 0.16595283, -0.42947915, 478964.66, 557038.4, 0.00048538248, 10.004749, 9.997565 
1.7956734e+3, 3.02024e+2, 226850.53, -575088.6, 132844.36, 0.0069630826, -0.5896043, 248283.88, 248283.88, 0.0011679232, 10.004492, 9.993893 
1.7957436e+3, 3.1202188e+2, 702928.4, -415345.53, -74202.14, 0.1223862, -0.057691474, 707830.5, 707830.5, 0.002006114, 10.008117, 9.993218 
1.8045184e+3, 1.2198538e+2, -2656237.8, -2074603.1, 7166.525, -0.22556822, -0.40165293, -2074514.9, -330019.75, 0.097200245, 9.993142, 10.000829 
1.8045822e+3, 1.3198525e+2, -2290949.8, -1826209.1, -156613.0, -0.09255999, -0.49398035, -1778358.8, -131859.19, 0.06490086, 9.99488, 10.001029 
1.804649e+3, 1.4198409e+2, -2018610.8, -1683054.0, -2820.1992, 0.3059903, -0.66841537, -1683030.3, -134518.95, 0.034457777, 9.996232, 10.000686 
1.8047133e+3, 1.5198648e+2, -1806851.6, -1522072.4, 67374.32, 0.10015824, -0.4926915, -1506937.0, -56447.68, 0.0127833225, 9.99698, 10.000754 
1.8047768e+3, 1.6198824e+2, -1625887.0, -1452669.8, -64140.145, -0.09733298, -0.33701062, -1431505.4, -79032.13, 0.0025744103, 9.997849, 10.000137 
1.8048403e+3, 1.7198797e+2, -1313596.3, -1251599.6, -124629.64, 0.069012806, -0.36806494, -1154171.1, 100305.25, 0.00014305822, 9.999328, 10.000129 
1.8049042e+3, 1.8198712e+2, -1141668.3, -1215070.9, 21535.674, 0.17762515, -0.40285274, -1135816.4, 20668.77, 0.00000010953618, 10.000242, 9.99927 
1.8049693e+3, 1.9198564e+2, -1182276.4, -1197952.9, 93850.59, -0.011635, -0.45538056, -1095937.4, -37436.066, 0.0, 9.999352, 9.999143 
1.8050341e+3, 2.0198448e+2, -1124292.5, -1057244.0, -21124.24, -0.1293413, -0.47248653, -1051143.6, -90630.266, 0.0, 9.998814, 9.999696 
1.8050988e+3, 2.1198496e+2, -850452.6, -822145.6, -108798.125, 0.0201654, -0.42309618, -726584.25, 135922.63, 0.0, 9.999799, 10.000161 
1.805163e+3, 2.2198458e+2, -744711.94, -909009.06, -61631.543, 0.100148246, -0.38469183, -724162.75, 40346.96, 0.0, 10.000663, 9.998477 
1.8052268e+3, 2.3198202e+2, -638002.44, -860389.4, -15129.611, -0.060793925, -0.43384793, -636977.9, 29558.64, 0.0, 10.000956, 9.997995 
1.8052915e+3, 2.4197961e+2, -452385.84, -733978.0, -24103.832, -0.13042392, -0.43661553, -450337.47, 118224.37, 0.0, 10.00161, 9.997877 
1.8053584e+3, 2.519787e+2, -76693.79, -480615.53, -81144.97, 0.07312841, -0.32011497, -61001.957, 409570.13, 0.0, 10.00343, 9.998065 
1.8054244e+3, 2.619769e+2, 74950.87, -524633.9, -117678.17, 0.20024584, -0.22071508, 97220.01, 469811.38, 0.000000011288781, 10.004521, 9.996565 
1.8054882e+3, 2.719727e+2, -30880.443, -574667.06, -76406.0, 0.13672814, -0.24819478, -20348.81, 254286.52, 0.000008417925, 10.003331, 9.996121 
1.8055525e+3, 2.8196827e+2, 137664.98, -364705.3, -45547.016, 0.15227036, -0.2934209, 141761.08, 318440.94, 0.00011379383, 10.003475, 9.996824 
1.805617e+3, 2.9196453e+2, 895365.5, 121922.945, -125910.8, 0.20810626, -0.38670802, 915346.7, 994058.8, 0.00048344734, 10.007717, 9.997451 
1.8056795e+3, 3.0195954e+2, 1010856.1, -197170.84, 12369.1045, -0.08006377, -0.48202032, 1010982.75, 1010982.75, 0.0011343308, 10.009905, 9.993874 
1.8057516e+3, 3.119552e+2, 493485.56, -469903.8, 176721.5, 0.23668873, -0.16750537, 524879.8, 524879.8, 0.0018924309, 10.00644, 9.993666 
1.8145145e+3, 1.2191922e+2, -2585289.3, -1923054.6, 23559.688, 0.0813228, -0.31412122, -1922217.5, -177063.78, 0.10291468, 9.993115, 10.001886 
1.8145756e+3, 1.3192143e+2, -2231371.0, -1696693.5, -98315.04, -0.21280374, -0.2634923, -1679188.6, -32056.547, 0.06887483, 9.994849, 10.001936 
1.8146417e+3, 1.4192131e+2, -1985360.9, -1612140.3, 25079.566, -0.02836295, -0.41117826, -1610462.5, -61331.445, 0.036753505, 9.996222, 10.001179 
1.8147093e+3, 1.5192166e+2, -1787541.6, -1481120.3, 95047.695, 0.03057259, -0.4721729, -1454032.4, -2906.938, 0.01378539, 9.996974, 10.00104 
1.8147753e+3, 1.6192187e+2, -1623448.5, -1450041.8, -17172.484, 0.0035781476, -0.49170125, -1448357.5, -95235.66, 0.002842686, 9.997857, 10.000153 
1.8148386e+3, 1.7192206e+2, -1314751.5, -1266049.5, -65104.008, -0.0040115337, -0.4657352, -1220891.5, 34229.254, 0.00016504708, 9.999372, 10.000012 
1.8149027e+3, 1.8192178e+2, -1125247.3, -1190396.6, 9466.651, 0.023895688, -0.44225517, -1123899.5, 33224.92, 0.00000012908751, 10.000283, 9.99942 
1.8149696e+3, 1.9192077e+2, -1162619.5, -1159769.3, 57613.613, 0.114080586, -0.4719706, -1103563.1, -44427.97, 0.0, 9.999365, 9.999397 
1.8150358e+3, 2.0192009e+2, -1166661.9, -1149610.6, -6508.086, 0.16546848, -0.4356716, -1147410.5, -186267.4, 0.0, 9.998829, 9.999057 
1.815099e+3, 2.1192108e+2, -922789.94, -971576.1, -65838.18, 0.09142285, -0.23955563, -876971.3, -13835.778, 0.0, 9.99979, 9.999143 
1.8151629e+3, 2.219205e+2, -740587.8, -894468.9, -44818.742, 0.029495686, -0.15798578, -728485.9, 36655.477, 0.0, 10.000636, 9.99859 
1.8152288e+3, 2.3191552e+2, -596131.25, -774416.25, -2650.1887, 0.053410433, -0.50280076, -596091.9, 71092.95, 0.0, 10.000958, 9.998585 
1.815295e+3, 2.4191113e+2, -503979.4, -840504.7, 25353.102, 0.07779668, -0.71675444, -502080.06, 67144.83, 0.0, 10.001604, 9.99715 
1.8153614e+3, 2.5191033e+2, -178575.94, -675742.0, -5073.1646, 0.04691206, -0.4659329, -178524.17, 292714.25, 0.0, 10.003359, 9.99676 
1.8154275e+3, 2.6190877e+2, 111272.695, -429030.97, -129407.02, 0.05704242, -0.2813456, 140667.5, 513925.63, 0.000000012202983, 10.004428, 9.99727 
1.8154931e+3, 2.7190432e+2, 85017.234, -340588.72, -122887.625, 0.30686447, -0.48179677, 117950.86, 393251.06, 0.000008674154, 10.003357, 9.997719 
1.8155593e+3, 2.8190017e+2, 93206.52, -477528.13, 54217.81, 0.50160486, -0.5751525, 98311.37, 275652.5, 0.00011416378, 10.003555, 9.996015 
1.8156248e+3, 2.9189909e+2, 734098.75, -162536.89, 49981.945, 0.2359835, -0.23459856, 736876.3, 816235.06, 0.0004787289, 10.007492, 9.995608 
1.8156874e+3, 3.0189678e+2, 1133978.4, 150611.47, -48446.313, -0.2743361, -0.027140507, 1136359.3, 1136359.3, 0.0011101996, 10.009511, 9.996453 
1.8157576e+3, 3.1188807e+2, 815175.75, 201071.42, 104045.22, 0.20670125, -0.57762384, 832324.8, 832324.8, 0.0018345279, 10.006434, 9.99828 
1.8245092e+3, 1.2185149e+2, -2350761.8, -1748351.5, 18471.375, 0.18813774, -0.32726684, -1747785.6, -1964.7572, 0.10907774, 9.994459, 10.002435 
1.8245706e+3, 1.3185453e+2, -2046287.9, -1587250.5, -126147.3, -0.24344541, -0.22349782, -1554868.5, 92921.88, 0.07313931, 9.995994, 10.002189 
1.824637e+3, 1.4185518e+2, -1861942.9, -1513708.8, -84010.87, -0.11258341, -0.3202055, -1494500.8, 55280.84, 0.039204508, 9.996904, 10.001534 
1.8247056e+3, 1.5185535e+2, -1830201.9, -1454697.6, -30113.463, -0.004314018, -0.43724632, -1452298.0, -521.73376, 0.014855209, 9.996493, 10.001447 
1.8247725e+3, 1.618554e+2, -1816834.8, -1526164.4, -91449.414, 0.00883633, -0.5029124, -1499786.6, -146013.33, 0.0031336718, 9.996453, 10.00031 
1.824837e+3, 1.7185576e+2, -1521966.1, -1358712.6, -114792.52, -0.005254262, -0.46354517, -1299484.0, -43712.867, 0.00019006866, 9.99792, 10.000075 
1.8249023e+3, 1.8185571e+2, -1281249.9, -1255186.1, -83471.25, 0.019332783, -0.42328355, -1183735.6, -25962.705, 0.00000015151502, 9.999172, 9.999511 
1.8249688e+3, 1.9185497e+2, -1140389.8, -1137550.4, -74462.22, 0.100938946, -0.43300435, -1064494.3, -4714.0996, 0.0, 9.999478, 9.999495 
1.8250346e+3, 2.0185415e+2, -1027007.44, -1100737.3, -95342.69, 0.14473917, -0.40723005, -961650.8, 137.48056, 0.0, 9.99987, 9.99889 
1.825099e+3, 2.1185389e+2, -801482.56, -943405.56, -91807.28, 0.074746765, -0.30771253, -756409.1, 107382.766, 0.0, 10.00076, 9.998865 
1.8251637e+3, 2.2185259e+2, -610471.6, -858192.94, -54139.098, 0.027671782, -0.27363512, -599156.44, 166648.14, 0.0, 10.001641, 9.998356 
1.8252303e+3, 2.3184863e+2, -410176.44, -708904.25, -75502.91, 0.06179849, -0.4916778, -392177.7, 275662.1, 0.0, 10.002342, 9.998367 
1.8252972e+3, 2.4184492e+2, -321711.5, -743452.75, -54140.1, 0.094009854, -0.62423056, -314872.28, 255002.14, 0.0, 10.002823, 9.997228 
1.8253645e+3, 2.518432e+2, -262831.9, -694320.3, 9798.299, 0.07118377, -0.4847509, -262609.53, 209286.0, 0.0, 10.002681, 9.996961 
1.8254311e+3, 2.6184103e+2, -90258.72, -503418.1, -63016.42, 0.09117664, -0.3808201, -80861.01, 293058.72, 0.000000024317485, 10.002954, 9.997463 
1.825497e+3, 2.7183744e+2, 289137.53, -221308.66, -154039.58, 0.31397107, -0.51584715, 332020.16, 607973.8, 0.000009914325, 10.004677, 9.997898 
1.8255636e+3, 2.818338e+2, 400890.44, -357005.53, 6262.692, 0.48657992, -0.5554741, 400942.2, 578932.2, 0.000116119154, 10.005802, 9.995755 
1.8256311e+3, 2.9183227e+2, 314826.53, -412066.66, 83119.38, 0.2709181, -0.21718566, 324210.0, 404224.1, 0.00047184274, 10.004815, 9.995178 
1.8256955e+3, 3.0182993e+2, 453290.78, -141844.2, -27473.428, -0.1396698, 0.00040312912, 454556.38, 454556.38, 0.0010942505, 10.00468, 9.996762 
1.8257646e+3, 3.1182075e+2, 1113788.4, 397138.66, -67214.83, 0.20477341, -0.6437692, 1120038.0, 1120038.0, 0.0018293388, 10.008251, 9.998766 
1.8345018e+3, 1.2178193e+2, -2349249.8, -1763106.3, 33896.45, 0.0016288458, -0.47002083, -1761152.5, -14655.03, 0.11569034, 9.994536, 10.0022955 
1.8345667e+3, 1.3178416e+2, -2076029.9, -1652225.4, -71472.62, -0.20120096, -0.40555447, -1640496.5, 7980.955, 0.07769921, 9.996036, 10.001677 
1.8346356e+3, 1.4178534e+2, -1845729.1, -1494434.6, -90767.01, 0.062002562, -0.41575098, -1472368.5, 78097.68, 0.04181763, 9.996955, 10.001655 
1.8347017e+3, 1.5178734e+2, -1795085.8, -1387983.5, -51566.664, -0.017153429, -0.3908657, -1381553.3, 70890.78, 0.015997248, 9.996507, 10.001909 
1.8347675e+3, 1.617888e+2, -1796065.8, -1479087.5, -62055.313, -0.11698044, -0.3579744, -1467371.8, -112943.78, 0.0034491862, 9.996434, 10.000643 
1.8348353e+3, 1.7178907e+2, -1507763.0, -1327468.0, -55028.56, 0.04613451, -0.35350874, -1311999.6, -55572.035, 0.00021871291, 9.997909, 10.000297 
1.8349025e+3, 1.8178886e+2, -1280595.4, -1255068.4, -60995.445, 0.14665456, -0.34221455, -1205515.3, -47084.105, 0.00000018976193, 9.999173, 9.999514 
1.8349662e+3, 1.9178818e+2, -1145291.4, -1149719.6, -62978.68, -0.06875079, -0.34050697, -1084487.9, -24051.154, 0.0, 9.999483, 9.99941 
1.8350308e+3, 2.017867e+2, -1009275.94, -1065042.1, -70160.21, -0.214845, -0.38442746, -961661.25, 787.629, 0.0, 9.99987, 9.999138 
1.8350983e+3, 2.1178354e+2, -775592.06, -887011.8, -54723.04, -0.052052673, -0.6119184, -753210.94, 111264.16, 0.0, 10.000743, 9.999263 
1.8351655e+3, 2.2178094e+2, -656775.0, -943545.6, -27081.414, 0.065371625, -0.71298355, -654239.94, 112258.44, 0.0, 10.001593, 9.997795 
1.8352313e+3, 2.3178121e+2, -486204.84, -856883.94, -45682.516, -0.042923436, -0.41684684, -480657.94, 187844.45, 0.0, 10.002295, 9.997376 
1.835298e+3, 2.4178061e+2, -276295.1, -640303.94, -51624.453, -0.08736137, -0.19893876, -269115.22, 301398.06, 0.0, 10.002779, 9.99796 
1.8353674e+3, 2.5177708e+2, -154828.9, -471811.72, 4978.033, 0.11236766, -0.38123336, -154750.75, 317794.3, 0.0, 10.002686, 9.998489 
1.8354356e+3, 2.6177356e+2, -101286.12, -535808.8, -23289.309, 0.25261897, -0.5044359, -100041.44, 274535.84, 0.00000005809501, 10.002987, 9.997229 
1.8355e+3, 2.7177152e+2, 210363.58, -377645.0, -83339.28, 0.17159459, -0.39012682, 221947.19, 498546.84, 0.000011784874, 10.00464, 9.996845 
1.8355659e+3, 2.8176874e+2, 403928.28, -343306.2, -5825.196, 0.141651, -0.27962404, 403973.7, 582603.56, 0.00011905733, 10.005765, 9.995869 
1.8356356e+3, 2.917644e+2, 381699.25, -308385.72, 38981.543, 0.26218626, -0.2793285, 383894.28, 464570.75, 0.00046266144, 10.004968, 9.995816 
1.8357036e+3, 3.0175975e+2, 387595.63, -330173.9, 43838.83, 0.22324948, -0.28902224, 390263.22, 390263.22, 0.001074552, 10.004899, 9.995365 
1.8357715e+3, 3.1175408e+2, 849343.06, -74120.12, 113692.53, 0.0797172, -0.3571882, 863134.44, 863134.44, 0.0018318689, 10.00791, 9.995689 
1.8444955e+3, 1.2171285e+2, -2329617.5, -1731905.0, -13652.1455, -0.045771606, -0.4901956, -1731593.3, 15580.539, 0.12272786, 9.994568, 10.00251 
1.8445626e+3, 1.3171461e+2, -2244032.5, -1728029.8, -55349.953, -0.1382294, -0.47632435, -1722159.4, -73001.51, 0.08254445, 9.994871, 10.001708 
1.8446326e+3, 1.4171614e+2, -2076501.3, -1602332.5, -59568.51, 0.17270967, -0.4556757, -1594963.6, -43819.906, 0.04459436, 9.995373, 10.001653 
1.8446985e+3, 1.5171844e+2, -1745061.4, -1368307.6, -62661.727, 0.01431676, -0.39692545, -1358159.1, 94959.984, 0.017215712, 9.996866, 10.001878 
1.8447644e+3, 1.6172005e+2, -1577586.1, -1387317.3, -102703.71, -0.13109797, -0.3433849, -1342456.6, 12645.883, 0.0037916328, 9.997999, 10.000515 
1.8448332e+3, 1.7172001e+2, -1532173.0, -1357993.0, -131742.4, 0.075059175, -0.3483405, -1287156.6, -30051.084, 0.00025177147, 9.997834, 10.00012 
1.8449013e+3, 1.8171968e+2, -1446465.0, -1297482.0, -144447.94, 0.19715363, -0.3468186, -1209449.1, -50338.453, 0.00000025167606, 9.997875, 9.999843 
1.8449652e+3, 1.9171944e+2, -1161133.8, -1093603.4, -104373.39, -0.09011448, -0.35372904, -1017669.4, 43440.926, 0.0, 9.999099, 9.999977 
1.84503e+3, 2.0171835e+2, -949723.25, -1015592.3, -79712.78, -0.27587408, -0.4039322, -896409.25, 66708.266, 0.0, 10.0001955, 9.999314 
1.8450989e+3, 2.1171518e+2, -792402.9, -898765.8, -99989.76, -0.040525027, -0.6292143, -732331.44, 132811.81, 0.0, 10.000651, 9.999224 
1.8451673e+3, 2.2171259e+2, -738195.3, -995316.56, -77366.125, 0.12451061, -0.7221732, -716711.44, 50455.41, 0.0, 10.001095, 9.997674 
1.845233e+3, 2.3171288e+2, -577580.06, -920809.7, -47090.973, -0.048134025, -0.40711537, -571236.44, 97936.57, 0.0, 10.001758, 9.997191 
1.8452998e+3, 2.4171232e+2, -303381.06, -637349.5, -30098.82, -0.14182098, -0.17850634, -300690.1, 270494.78, 0.0, 10.00253, 9.998096 
1.84537e+3, 2.5170895e+2, -7089.244, -365667.75, -60312.46, 0.091803014, -0.36699638, 2783.4163, 475996.47, 0.0, 10.00356, 9.998791 
1.8454392e+3, 2.6170555e+2, 109862.086, -432434.3, -120563.625, 0.2590826, -0.49849647, 135457.77, 510700.88, 0.000000097738415, 10.004434, 9.997241 
1.845504e+3, 2.717035e+2, 223270.88, -381395.0, -124726.38, 0.12901233, -0.37298134, 247988.2, 525253.94, 0.000012040099, 10.004772, 9.996755 
1.84557e+3, 2.817008e+2, 360874.28, -367581.56, -8971.242, 0.030154023, -0.25262815, 360984.75, 540280.2, 0.00011536431, 10.0054865, 9.995838 
1.8456401e+3, 2.9169595e+2, 766671.25, -128793.1, -12138.557, 0.097263634, -0.29703015, 766835.75, 848180.6, 0.0004412206, 10.007641, 9.995768 
1.8457095e+3, 3.0169013e+2, 928832.2, -58704.97, -31041.115, 0.16562691, -0.4156005, 929806.94, 929806.94, 0.0010313514, 10.008594, 9.995448 
1.8457784e+3, 3.1168482e+2, 528066.4, -199251.06, 157061.97, 0.122441135, -0.4695142, 560534.06, 560534.06, 0.0017875676, 10.005548, 9.995973 
1.8544908e+3, 1.21644646e+2, -2280533.0, -1652376.3, -37741.074, 0.02804071, -0.33982396, -1650116.8, 97730.0, 0.13014582, 9.994603, 10.003124 
1.854558e+3, 1.3164623e+2, -2202261.5, -1633825.0, -42432.664, -0.0707472, -0.41684535, -1630675.0, 19154.34, 0.08765755, 9.994828, 10.002385 
1.8546279e+3, 1.416478e+2, -2095149.5, -1633661.4, -19310.342, 0.18300919, -0.43204007, -1632854.8, -81042.414, 0.04753598, 9.995334, 10.00146 
1.8546958e+3, 1.5164866e+2, -1787730.5, -1459186.3, 350.49313, 0.07110523, -0.46036506, -1459185.9, -5384.043, 0.01851746, 9.996881, 10.001237 
1.8547629e+3, 1.6164897e+2, -1611937.3, -1476625.9, -92048.18, -0.05018975, -0.46948007, -1430044.3, -74246.29, 0.0041650403, 9.998072, 9.999869 
1.8548308e+3, 1.7164847e+2, -1572513.5, -1450249.9, -141961.08, 0.06350832, -0.46057168, -1356817.6, -99011.13, 0.00029041685, 9.997863, 9.9994755 
1.8548985e+3, 1.8164803e+2, -1403056.9, -1209277.5, -117282.11, 0.14149196, -0.44790384, -1154039.9, 5772.932, 0.0000003514084, 9.997881, 10.000446 
1.8549651e+3, 1.9164869e+2, -1074800.8, -915051.94, -52523.523, 0.011847357, -0.47403216, -899330.1, 162471.48, 0.0, 9.9991, 10.001203 
1.8550321e+3, 2.0164901e+2, -943835.5, -1003690.94, -55474.36, -0.06534677, -0.4662167, -910730.9, 53063.566, 0.0, 10.000194, 9.999399 
1.8551005e+3, 2.1164857e+2, -828151.56, -969024.2, -83406.39, 0.09161345, -0.38236016, -789418.75, 76379.79, 0.0, 10.00063, 9.998754 
1.8551686e+3, 2.2164725e+2, -725014.94, -962069.5, -58236.46, 0.1845009, -0.3267482, -711480.9, 56331.652, 0.0, 10.001065, 9.997919 
1.8552354e+3, 2.3164372e+2, -540975.2, -841956.9, -19498.645, 0.015839359, -0.4438026, -539717.25, 130133.52, 0.0, 10.001741, 9.997744 
1.8553026e+3, 2.4164037e+2, -336481.88, -698687.25, 991.2115, -0.105507925, -0.5147922, -336479.16, 235407.02, 0.0, 10.002493, 9.997696 
1.8553725e+3, 2.5163895e+2, -75463.18, -491196.3, -18534.55, 0.002890445, -0.43672812, -74638.49, 399260.5, 0.0, 10.003486, 9.997966 
1.8554421e+3, 2.6163697e+2, 111955.125, -410959.3, -100608.4, 0.10951809, -0.3765196, 130644.164, 506561.44, 0.00000008463752, 10.004353, 9.997431 
1.8555088e+3, 2.7163365e+2, 263207.53, -286284.2, -111009.66, 0.14020093, -0.4378504, 284786.53, 562736.2, 0.000010139246, 10.004716, 9.9974375 
1.8555759e+3, 2.816303e+2, 341672.06, -391872.97, 41873.402, 0.08388119, -0.42242634, 344054.63, 524037.75, 0.00010415724, 10.005413, 9.995709 
1.8556446e+3, 2.916268e+2, 679052.4, -241223.44, 74632.31, -0.20305501, -0.28108194, 685065.6, 767085.3, 0.00040846644, 10.007338, 9.995144 
1.855714e+3, 3.0162078e+2, 946492.8, 68703.6, -86497.59, -0.24871156, -0.4040444, 954935.1, 954935.1, 0.00096756517, 10.0082, 9.996513 
1.8557857e+3, 3.1161517e+2, 726944.06, 237541.36, -23306.857, 0.32298854, -0.68960977, 728051.5, 728051.5, 0.0016929734, 10.005472, 9.999001 
1.8644853e+3, 1.21574834e+2, -2438369.8, -1703670.6, -81879.28, 0.11581151, -0.26576778, -1694656.1, 53879.797, 0.1378835, 9.993448, 10.003286 
1.864553e+3, 1.3157669e+2, -2121524.0, -1571776.3, -103947.73, -0.04809074, -0.34169567, -1552778.1, 97736.25, 0.09301642, 9.9952545, 10.002662 
1.864623e+3, 1.4157853e+2, -1904640.5, -1547377.4, -106386.67, 0.11033628, -0.34337032, -1518097.0, 34396.742, 0.050644647, 9.99667, 10.001411 
1.8646924e+3, 1.5157877e+2, -1824266.3, -1502573.6, -64774.137, 0.07802989, -0.41415858, -1490020.9, -35531.613, 0.01991141, 9.996741, 10.001002 
1.864761e+3, 1.6157854e+2, -1778599.6, -1549009.8, -122955.68, 0.028246932, -0.46324387, -1495590.6, -139100.25, 0.0045744055, 9.996901, 9.999931 
1.8648288e+3, 1.7157806e+2, -1539648.1, -1411825.8, -121948.95, 0.08491618, -0.46742493, -1338055.4, -79558.05, 0.0003360051, 9.997998, 9.999666 
1.8648964e+3, 1.8157768e+2, -1261601.9, -1147168.9, -63301.035, 0.12746592, -0.45967758, -1119058.1, 41444.246, 0.00000050835786, 9.998886, 10.000389 
1.8649642e+3, 1.9157843e+2, -1124536.8, -959657.25, -97095.78, 0.05304293, -0.46115386, -914723.94, 147767.56, 0.0, 9.998854, 10.001016 
1.8650323e+3, 2.0157883e+2, -1116283.1, -1092392.0, -164253.64, 0.013443638, -0.42977193, -939650.06, 24834.797, 0.0, 9.99904, 9.999345 
1.865101e+3, 2.1157847e+2, -869001.3, -988573.1, -166398.36, 0.11479815, -0.33442056, -751974.44, 114514.664, 0.0, 10.000353, 9.998751 
1.8651697e+3, 2.2157718e+2, -640695.9, -895673.94, -124126.5, 0.17379384, -0.28106946, -590250.0, 178252.98, 0.0, 10.001537, 9.998146 
1.8652372e+3, 2.3157373e+2, -474309.44, -771327.5, -107335.95, 0.042198647, -0.41952142, -439581.06, 230957.55, 0.0, 10.00204, 9.998082 
1.8653053e+3, 2.415705e+2, -336127.88, -681336.8, -78913.81, -0.05162117, -0.50475794, -318943.78, 253627.7, 0.0, 10.002429, 9.997839 
1.8653755e+3, 2.5156915e+2, -196644.48, -544402.2, -46858.145, 0.020091139, -0.42498687, -190441.3, 284142.13, 0.0, 10.002635, 9.998007 
1.8654454e+3, 2.6156715e+2, -83402.99, -512062.4, -81115.984, 0.10076447, -0.3651746, -68566.766, 308034.63, 0.00000006516505, 10.003057, 9.997354 
1.8655132e+3, 2.7156353e+2, 197602.25, -336320.72, -146911.97, 0.14821249, -0.44213516, 235356.31, 513992.78, 0.000008221226, 10.0043545, 9.997263 
1.8655813e+3, 2.8155982e+2, 325626.06, -360470.28, -34001.01, 0.11294688, -0.4629192, 327306.94, 507980.0, 0.00009441217, 10.005142, 9.99605 
1.8656501e+3, 2.9155648e+2, 221623.23, -391318.2, 50119.14, -0.16850364, -0.3575594, 225694.34, 308401.03, 0.00038103323, 10.003899, 9.995758 
1.8657194e+3, 3.0155137e+2, 217214.89, -308302.75, -76365.34, -0.23874189, -0.42448622, 228086.97, 228086.97, 0.0009101106, 10.0032835, 9.99629 
1.8657911e+3, 3.115469e+2, 760976.3, 225472.3, -207155.86, 0.31899044, -0.54047763, 831757.44, 831757.44, 0.0015912101, 10.005828, 9.998744 
1.874479e+3, 1.2150324e+2, -2476640.3, -1768657.8, -43056.734, 0.15877049, -0.28399944, -1766048.8, -16806.055, 0.14588223, 9.993414, 10.002802 
1.8745476e+3, 1.3150597e+2, -2139614.5, -1607550.4, -34099.16, -0.09849363, -0.24123436, -1605374.0, 45839.754, 0.0986057, 9.995265, 10.002378 
1.8746175e+3, 1.4150834e+2, -1889296.8, -1532970.0, -88949.95, -0.08846823, -0.17219049, -1511999.5, 41189.188, 0.053927336, 9.9967375, 10.001483 
1.8746883e+3, 1.515088e+2, -1804998.8, -1464148.1, -67257.22, 0.0070931152, -0.24631785, -1451356.9, 3825.0608, 0.021407956, 9.996746, 10.001266 
1.8747582e+3, 1.6150883e+2, -1724301.9, -1435667.1, -96543.89, 0.07499028, -0.31186515, -1406352.1, -49172.816, 0.0050250688, 9.996892, 10.000715 
1.8748268e+3, 1.7150892e+2, -1464687.1, -1261284.3, -74180.766, 0.11916606, -0.3594393, -1237105.0, 22072.455, 0.00038988978, 9.998014, 10.000694 
1.8748951e+3, 1.815088e+2, -1307087.5, -1248681.6, -52466.387, 0.12991841, -0.37247738, -1217838.5, -56660.387, 0.000000733184, 9.998915, 9.99968 
1.8749626e+3, 1.9150865e+2, -1237892.0, -1196793.5, -98873.9, 0.014333478, -0.31496978, -1116356.0, -53176.066, 0.0, 9.998859, 9.999388 
1.8750304e+3, 2.0150776e+2, -1131666.9, -1130043.0, -132585.52, -0.068858825, -0.2950204, -998267.0, -33078.297, 0.0, 9.999058, 9.999082 
1.8751003e+3, 2.1150503e+2, -839843.56, -929171.94, -110338.92, 0.010229243, -0.46850565, -765471.75, 101741.586, 0.0, 10.000348, 9.999166 
1.87517e+3, 2.2150263e+2, -632200.44, -868234.44, -96015.695, 0.06909172, -0.559779, -598076.0, 171159.73, 0.0, 10.0014925, 9.998358 
1.8752387e+3, 2.3150279e+2, -472635.88, -757094.8, -84981.516, 0.014924203, -0.3500933, -449181.7, 222055.78, 0.0, 10.001993, 9.998202 
1.875308e+3, 2.4150231e+2, -299161.53, -598249.56, -67475.68, -0.009151576, -0.1879691, -284643.44, 288600.5, 0.0, 10.002398, 9.998428 
1.8753788e+3, 2.5149947e+2, -139543.83, -428414.75, -37207.24, 0.10670956, -0.33311135, -134828.42, 340438.66, 0.0, 10.002642, 9.998804 
1.8754491e+3, 2.6149628e+2, -104803.07, -558198.9, -50644.547, 0.18841614, -0.43905348, -99214.93, 278079.44, 0.000000045870156, 10.0030575, 9.99704 
1.875517e+3, 2.7149305e+2, 122300.63, -477241.5, -89666.2, 0.12768795, -0.39483905, 135423.67, 414750.75, 0.0000070990905, 10.004283, 9.996333 
1.8755859e+3, 2.8148922e+2, 360574.06, -266427.1, -48739.47, 0.07897638, -0.38335764, 364340.16, 545705.25, 0.00008834692, 10.005049, 9.99674 
1.8756565e+3, 2.91485e+2, 333220.72, -167064.06, 140.22885, 0.10381063, -0.50703233, 333220.75, 416626.38, 0.0003625571, 10.003933, 9.997282 
1.8757255e+3, 3.0148175e+2, 163179.88, -456539.5, -36877.27, 0.058214657, -0.45416567, 165366.6, 165366.6, 0.00086735765, 10.00343, 9.995204 
1.8757963e+3, 3.114781e+2, 559693.4, -159920.13, -102250.93, 0.27269888, -0.25891215, 573940.3, 573940.3, 0.0015075989, 10.005703, 9.996146 
1.8844733e+3, 1.21431716e+2, -2083549.6, -1632415.3, -24793.271, 0.13189422, -0.2704755, -1631056.8, 118889.695, 0.15411249, 9.99624, 10.002522 
1.8845432e+3, 1.3143434e+2, -2006602.1, -1554675.9, 849.2602, -0.08151057, -0.22910482, -1554674.3, 97243.04, 0.10442951, 9.996187, 10.002343 
1.8846136e+3, 1.4143635e+2, -1953955.5, -1536803.6, -49579.945, -0.1004132, -0.20387441, -1530991.9, 22903.174, 0.057399224, 9.996189, 10.001714 
1.884685e+3, 1.5143748e+2, -1794010.0, -1418390.3, -39282.355, 0.02743695, -0.24242349, -1414326.1, 41555.535, 0.023018045, 9.996658, 10.001623 
1.8847555e+3, 1.6143814e+2, -1680558.6, -1409476.1, -59631.14, 0.12903543, -0.2725529, -1396938.6, -39065.47, 0.005521801, 9.997175, 10.000759 
1.8848246e+3, 1.7143814e+2, -1488333.5, -1288466.9, -115618.07, 0.12139918, -0.3159474, -1235579.4, 24293.346, 0.0004532519, 9.997924, 10.000554 
1.8848935e+3, 1.8143784e+2, -1335658.8, -1278130.1, -147338.67, 0.089911975, -0.33029935, -1156774.3, 5101.635, 0.0000010252129, 9.998785, 9.9995365 
1.8849614e+3, 1.9143751e+2, -1057897.3, -1123772.1, -100776.47, -0.021537533, -0.2768481, -984812.1, 79068.08, 0.0, 10.000154, 9.99926 
1.88503e+3, 2.014365e+2, -819973.0, -981094.75, -48804.875, -0.09917565, -0.26097214, -806342.75, 159547.88, 0.0, 10.00121, 9.9990635 
1.8851002e+3, 2.1143377e+2, -726467.1, -869444.6, -55001.832, -0.03433322, -0.43794945, -707757.0, 160158.08, 0.0, 10.001121, 9.999197 
1.8851706e+3, 2.214314e+2, -673024.75, -869199.06, -56447.945, 0.02423459, -0.53090173, -657941.8, 111994.49, 0.0, 10.001139, 9.998518 
1.8852404e+3, 2.3143168e+2, -464389.9, -726272.8, -43092.25, 0.0037142308, -0.33562902, -457481.44, 214454.38, 0.0, 10.001937, 9.998439 
1.8853104e+3, 2.4143115e+2, -262149.53, -589979.4, -38669.766, 0.0020697822, -0.19168139, -257649.94, 316291.8, 0.0, 10.002702, 9.998338 
1.8853812e+3, 2.5142792e+2, -83622.05, -432675.2, -88673.07, 0.08771997, -0.34948465, -62387.445, 413581.7, 0.0, 10.00317, 9.998517 
1.8854518e+3, 2.614245e+2, -9535.078, -475303.22, -124267.984, 0.14821324, -0.46779928, 21545.854, 399544.56, 0.000000017506215, 10.003553, 9.997372 
1.8855204e+3, 2.7142185e+2, 89239.45, -412343.7, -68580.1, 0.086004145, -0.4248608, 98447.195, 378470.25, 0.0000060063785, 10.0037155, 9.997049 
1.88559e+3, 2.8141865e+2, 217395.69, -326141.06, 20190.275, 0.06670214, -0.40878528, 218144.66, 400198.6, 0.00008095807, 10.004033, 9.996818 
1.8856618e+3, 2.9141462e+2, 480998.2, -129572.586, -49724.016, 0.19573045, -0.49016088, 485021.13, 569116.0, 0.00034116884, 10.0050955, 9.996981 
1.8857305e+3, 3.014119e+2, 544228.25, -244619.39, -110280.67, 0.10533259, -0.37253127, 559355.4, 559355.4, 0.00082416914, 10.005933, 9.995457 
1.8858007e+3, 3.1140727e+2, 540320.2, -172340.05, -344.28412, 0.17228954, -0.31115827, 540320.4, 540320.4, 0.0014347035, 10.00556, 9.996139 
1.8944676e+3, 1.2136026e+2, -2058937.0, -1625618.9, -24552.098, -0.063427016, -0.23316516, -1624232.1, 126414.48, 0.16258536, 9.996417, 10.002502 
1.8945397e+3, 1.3136178e+2, -1982319.9, -1518117.0, -2155.41, -0.01704037, -0.32309127, -1518107.0, 134517.55, 0.110513955, 9.996225, 10.002611 
1.8946113e+3, 1.4136238e+2, -1928445.3, -1488508.5, -38158.727, 0.069550015, -0.47086328, -1485223.3, 69390.19, 0.06108175, 9.996188, 10.00207 
1.8946823e+3, 1.5136474e+2, -1767374.8, -1368710.0, -15462.42, 0.13029824, -0.42012823, -1368111.1, 88477.33, 0.024752133, 9.996671, 10.001969 
1.894753e+3, 1.6136642e+2, -1728848.1, -1518450.6, -36673.633, 0.1596732, -0.347551, -1512241.4, -153669.56, 0.0060684755, 9.99721, 9.999997 
1.894822e+3, 1.7136559e+2, -1585215.5, -1493496.1, -86056.58, 0.07123463, -0.3470413, -1441842.5, -181258.0, 0.0005270964, 9.997936, 9.999145 
1.8948908e+3, 1.8136464e+2, -1307091.8, -1219521.0, -104886.13, -0.020861857, -0.34273267, -1149647.9, 12949.686, 0.0000013718216, 9.998787, 9.999938 
1.8949609e+3, 1.9136499e+2, -960894.44, -920280.2, -45248.01, -0.07847203, -0.34493348, -890991.3, 173601.34, 0.0, 10.000143, 10.000663 
1.8950309e+3, 2.0136507e+2, -802729.4, -947085.25, -35801.996, -0.10661428, -0.32402772, -794337.8, 172252.75, 0.0, 10.001211, 9.999299 
1.8951012e+3, 2.1136445e+2, -756994.56, -931260.9, -60103.34, -0.039747525, -0.25870326, -738275.94, 130320.586, 0.0, 10.001105, 9.998784 
1.8951714e+3, 2.2136316e+2, -669879.06, -856898.94, -39698.43, 0.013691267, -0.22215658, -661801.25, 108807.35, 0.0, 10.001108, 9.998619 
1.8952419e+3, 2.3136038e+2, -446414.75, -681585.56, -8416.334, -0.016252382, -0.36141515, -446113.94, 226520.16, 0.0, 10.0019, 9.998766 
1.8953124e+3, 2.4135733e+2, -319607.5, -695116.5, -21379.213, -0.045571357, -0.46887997, -318394.22, 256267.98, 0.0, 10.002637, 9.997648 
1.895383e+3, 2.5135458e+2, -179931.53, -620294.2, -66216.86, -0.038115196, -0.46329075, -170190.06, 306498.7, 0.0, 10.003111, 9.99726 
1.8954533e+3, 2.613518e+2, 45533.707, -353171.3, -109831.13, -0.022974033, -0.45825952, 73786.78, 452500.88, 0.0000000047191073, 10.003516, 9.99823 
1.895523e+3, 2.7134988e+2, 233097.47, -119419.42, -61630.246, 0.0015842344, -0.52335423, 243561.61, 524287.5, 0.000005166435, 10.003737, 9.999054 
1.8955936e+3, 2.8134778e+2, 194937.5, -380817.06, 37741.97, 0.042309947, -0.5199918, 197401.03, 380143.38, 0.000071967086, 10.004061, 9.99643 
1.8956658e+3, 2.9134494e+2, 343997.13, -397141.75, 1577.4376, 0.1202015, -0.33342618, 344000.5, 428777.78, 0.0003124226, 10.005009, 9.995192 
1.8957344e+3, 3.0134174e+2, 603779.8, -84240.04, -105870.336, -0.082878016, -0.19368269, 619702.3, 619702.3, 0.0007712102, 10.00578, 9.996629 
1.8958043e+3, 3.1133512e+2, 640179.75, 36389.535, 52158.492, -0.010309887, -0.5568099, 644652.3, 644652.3, 0.0013630136, 10.005568, 9.997566 
1.9044627e+3, 1.2128813e+2, -2275851.5, -1692843.5, -21422.754, -0.09629513, -0.22549929, -1692057.4, 59296.0, 0.1713416, 9.994824, 10.0027275 
1.9045359e+3, 1.3129011e+2, -2088104.6, -1523351.0, -17949.967, 0.030731391, -0.3053272, -1522781.1, 130544.27, 0.11689223, 9.995311, 10.0030155 
1.9046079e+3, 1.4129037e+2, -1982282.0, -1511979.1, -36889.016, 0.13783273, -0.51744014, -1509103.3, 46213.69, 0.06499328, 9.995814, 10.002078 
1.9046792e+3, 1.512926e+2, -1796887.8, -1410907.0, -56653.37, 0.17391323, -0.45763734, -1402763.4, 54529.973, 0.026617203, 9.996585, 10.001719 
1.9047502e+3, 1.6129412e+2, -1717863.0, -1526862.1, -83450.82, 0.18474895, -0.3791777, -1495538.4, -136259.81, 0.0066676727, 9.997341, 9.999874 
1.9048198e+3, 1.7129311e+2, -1524602.6, -1470672.1, -41734.35, 0.06922621, -0.38805175, -1447949.5, -186656.16, 0.0006122247, 9.99838, 9.999082 
1.9048895e+3, 1.8129216e+2, -1252556.3, -1181667.8, -4401.6577, -0.024864638, -0.3852714, -1181395.5, -18088.584, 0.0000017786746, 9.999114, 10.000041 
1.9049609e+3, 1.9129317e+2, -1148039.6, -989017.56, -33096.098, -0.004179661, -0.34054637, -982404.56, 82892.35, 0.0, 9.998769, 10.000856 
1.9050318e+3, 2.0129381e+2, -1159264.5, -1099753.1, -79680.41, 0.013552795, -0.2783829, -1044453.75, -77163.74, 0.0, 9.998694, 9.999457 
1.9051015e+3, 2.1129316e+2, -877923.44, -976231.8, -74463.6, -0.037323248, -0.2263416, -837853.4, 31442.338, 0.0, 10.000224, 9.998896 
1.9051716e+3, 2.2129168e+2, -623268.3, -860377.56, -40230.035, -0.07270267, -0.2110304, -616628.5, 154681.25, 0.0, 10.001546, 9.998382 
1.9052431e+3, 2.3128848e+2, -522288.7, -769076.3, -69779.76, -0.03339627, -0.3476934, -503924.78, 169415.45, 0.0, 10.001605, 9.998304 
1.9053146e+3, 2.4128531e+2, -439747.7, -733255.8, -89456.49, -0.009604498, -0.4402814, -414631.97, 160738.47, 0.0, 10.00173, 9.99782 
1.9053853e+3, 2.5128323e+2, -219912.84, -572763.5, -24145.777, -0.06439296, -0.41881168, -218268.2, 259120.83, 0.0, 10.002557, 9.997845 
1.9054559e+3, 2.6128083e+2, 33050.797, -367290.84, -616.4076, -0.08671017, -0.41391262, 33051.746, 412461.2, 0.000000010394208, 10.003474, 9.998146 
1.9055268e+3, 2.7127838e+2, 303982.78, -138656.64, -106220.016, -0.014030937, -0.4951447, 328152.6, 609580.75, 0.0000047983326, 10.004458, 9.9985695 
1.9055979e+3, 2.812758e+2, 344905.5, -300954.78, -111616.09, 0.04066166, -0.5024152, 363650.7, 547100.3, 0.00006418243, 10.005066, 9.996492 
1.9056699e+3, 2.9127258e+2, 275522.75, -398030.75, -48158.27, 0.06800624, -0.38289976, 278948.6, 364434.66, 0.0002819671, 10.004415, 9.9954605 
1.9057393e+3, 3.0126834e+2, 422965.38, -175368.92, -68625.06, -0.07779655, -0.35722676, 430735.34, 430735.34, 0.0007120659, 10.004547, 9.9966 
1.9058113e+3, 3.1126395e+2, 860290.5, 133940.75, -5792.919, 0.07861289, -0.4948434, 860336.75, 860336.75, 0.0012902811, 10.007114, 9.997495 
1.9144581e+3, 1.21215165e+2, -2258315.8, -1642826.8, 14767.019, -0.01421716, -0.27147412, -1642472.6, 109595.69, 0.18042894, 9.99472, 10.003198 
1.914531e+3, 1.3121969e+2, -2062555.1, -1465777.0, 2157.1816, 0.036988236, -0.14675649, -1465769.1, 188247.88, 0.12358676, 9.995258, 10.003495 
1.9146027e+3, 1.4122078e+2, -2005059.9, -1563157.4, -12708.937, 0.06060761, -0.29457074, -1562792.1, -6790.8574, 0.069141634, 9.995837, 10.001697 
1.9146751e+3, 1.512212e+2, -1861801.9, -1541353.9, -25670.441, 0.12441328, -0.33592388, -1539310.5, -81315.24, 0.028615344, 9.996574, 10.000818 
1.9147472e+3, 1.6122124e+2, -1676925.6, -1450989.4, -50341.23, 0.16776103, -0.3616125, -1440280.4, -80286.51, 0.0073205116, 9.997375, 10.0003805 
1.9148183e+3, 1.7122075e+2, -1427396.1, -1276532.6, 541.616, 0.09394009, -0.43573782, -1276530.8, -14531.744, 0.00070924795, 9.998405, 10.000404 
1.9148892e+3, 1.8122049e+2, -1260493.0, -1204568.5, -1449.239, 0.053108133, -0.44951677, -1204531.0, -40527.945, 0.0000023137907, 9.999139, 9.999873 
1.9149612e+3, 1.9122204e+2, -1221954.8, -1143592.5, -47716.113, 0.18274994, -0.25994644, -1121032.4, -55039.867, 0.0, 9.99877, 9.999797 
1.9150326e+3, 2.012227e+2, -1158336.8, -1101311.6, -48214.55, 0.23635508, -0.12336592, -1073809.9, -105820.53, 0.0, 9.998702, 9.999445 
1.9151016e+3, 2.1122003e+2, -838561.94, -891573.25, -8847.805, -0.0456684, -0.32437333, -837124.2, 32887.78, 0.0, 10.000206, 9.999486 
1.9151711e+3, 2.2121719e+2, -666097.3, -940892.2, -19355.621, -0.2528534, -0.46982685, -664740.6, 107297.016, 0.0, 10.001504, 9.997852 
1.9152443e+3, 2.312159e+2, -606521.25, -943091.7, -66056.72, -0.06782859, -0.30730793, -594020.94, 80034.055, 0.0, 10.001597, 9.997117 
1.915317e+3, 2.4121466e+2, -375059.94, -603583.8, -67144.35, 0.074725464, -0.15258068, -356792.06, 219277.88, 0.0, 10.001746, 9.998704 
1.915388e+3, 2.512134e+2, -77337.99, -269542.06, 9436.986, -0.032882433, -0.2370276, -76875.76, 401198.6, 0.0, 10.002521, 9.999949 
1.9154592e+3, 2.6121122e+2, -41013.973, -492997.6, 24680.143, -0.08815943, -0.3321654, -39670.332, 340418.6, 0.000000037334786, 10.003352, 9.997343 
1.9155313e+3, 2.7120703e+2, 109392.09, -513857.4, -67504.33, 0.007403474, -0.36275348, 116619.695, 398751.1, 0.000004529137, 10.004332, 9.996057 
1.9156027e+3, 2.8120288e+2, 359345.6, -253315.28, -114419.41, 0.024550576, -0.37584293, 380016.9, 564190.06, 0.000056297726, 10.004986, 9.9968605 
1.9156733e+3, 2.911979e+2, 407240.44, -144272.45, -69170.766, -0.003389899, -0.5907793, 415783.5, 502001.44, 0.0002488072, 10.00449, 9.997175 
1.9157448e+3, 3.0119216e+2, 370751.1, -307649.25, -18377.13, 0.049605183, -0.7811909, 371248.56, 371248.56, 0.00064305536, 10.004654, 9.995636 
1.9158189e+3, 3.1119508e+2, 756860.9, -13994.158, 158927.28, 0.14190076, -0.011795932, 788341.3, 788341.3, 0.0011992955, 10.006824, 9.996617 
1.9244532e+3, 1.2114124e+2, -2245299.0, -1638555.1, 37330.035, 0.05077284, -0.36301482, -1636267.0, 116522.98, 0.18987963, 9.994796, 10.0032215 
1.9245265e+3, 1.3114662e+2, -1975121.8, -1450702.1, -57591.293, 0.055095483, -0.13549194, -1444452.0, 210280.05, 0.13060497, 9.995944, 10.003311 
1.9245987e+3, 1.4114805e+2, -1854272.6, -1494493.8, -97033.99, 0.05031816, -0.2356982, -1469991.9, 86722.484, 0.07352615, 9.996878, 10.001705 
1.9246715e+3, 1.5114793e+2, -1710871.4, -1461197.5, -56412.023, 0.09210245, -0.33537158, -1449043.4, 9668.954, 0.030745408, 9.99758, 10.000882 
1.9247442e+3, 1.6114761e+2, -1561999.4, -1368455.0, -35107.156, 0.13296953, -0.40831366, -1362283.6, -1570.3726, 0.008026891, 9.998063, 10.0006075 
1.924816e+3, 1.7114788e+2, -1448548.3, -1250151.1, -59285.285, 0.08659753, -0.43400753, -1233785.4, 28925.684, 0.0008187495, 9.998122, 10.000716 
1.9248879e+3, 1.8114813e+2, -1395349.0, -1288135.8, -117702.836, 0.07298447, -0.411076, -1212407.0, -47696.316, 0.0000031359323, 9.998297, 9.999705 
1.92496e+3, 1.9114882e+2, -1170263.6, -1168023.6, -134642.67, 0.19429405, -0.26648945, -1034496.3, 32212.904, 0.0, 9.999338, 9.9993515 
1.9250318e+3, 2.0114878e+2, -927903.7, -982469.75, -84975.93, 0.24277599, -0.17279074, -865938.3, 102775.086, 0.0, 10.000256, 9.99951 
1.9251019e+3, 2.1114655e+2, -780111.8, -822205.2, -56170.777, -0.02074566, -0.3564076, -741174.2, 129556.86, 0.0, 10.000437, 9.999848 
1.9251725e+3, 2.2114427e+2, -749181.44, -944961.4, -60376.367, -0.20945843, -0.4774708, -732059.44, 40690.887, 0.0, 10.000783, 9.99817 
1.925246e+3, 2.3114324e+2, -507928.6, -865437.25, -19286.63, -0.06272572, -0.3185435, -506891.16, 167873.47, 0.0, 10.002143, 9.997389 
1.9253188e+3, 2.4114193e+2, -191958.97, -540640.6, 11590.817, 0.03959238, -0.1826402, -191574.1, 385205.7, 0.0, 10.003117, 9.998475 
1.9253898e+3, 2.5114003e+2, -156315.22, -370705.1, -91319.63, -0.059103284, -0.28172052, -122691.02, 356101.16, 0.0, 10.002254, 9.999383 
1.9254617e+3, 2.6113743e+2, -309168.97, -654483.56, -153553.33, -0.07042467, -0.36430204, -250765.31, 130047.53, 0.000000047062436, 10.00165, 9.997056 
1.9255354e+3, 2.7113384e+2, -122289.695, -627996.6, -96031.516, 0.09485897, -0.32132643, -104667.79, 178184.28, 0.000003850436, 10.002757, 9.996026 
1.9256076e+3, 2.8113016e+2, 228965.73, -284814.6, -50883.535, 0.105368584, -0.2969335, 233956.64, 418847.56, 0.000046891015, 10.003962, 9.997134 
1.9256775e+3, 2.9112548e+2, 544946.94, -38692.523, -93670.836, -0.05809408, -0.51822907, 559612.06, 646542.06, 0.00021221074, 10.005276, 9.997519 
1.9257508e+3, 3.0111977e+2, 628581.44, -215561.28, -65296.867, 0.10802991, -0.710636, 633602.5, 633602.5, 0.00056543294, 10.006557, 9.9953575 
1.9258259e+3, 3.1112093e+2, 557453.0, -120131.484, 144840.22, 0.27821776, -0.08025731, 587115.44, 587115.44, 0.0010845602, 10.005484, 9.996536 
1.9344476e+3, 1.2106644e+2, -2275355.5, -1697217.8, 90691.98, 0.019945906, -0.485911, -1683324.8, 70192.03, 0.1997211, 9.994825, 10.002734 
1.9345221e+3, 1.3107051e+2, -2040976.1, -1570213.0, -19493.633, 0.04776231, -0.3043881, -1569407.1, 86066.7, 0.13795441, 9.995946, 10.002368 
1.9345957e+3, 1.410718e+2, -1823132.8, -1449194.4, -70096.65, 0.073069476, -0.3636985, -1436486.4, 120973.055, 0.07814733, 9.996937, 10.002014 
1.9346686e+3, 1.510726e+2, -1628857.1, -1304022.6, -29119.9, 0.055403985, -0.4657869, -1301432.9, 158013.19, 0.033007, 9.997613, 10.001982 
1.9347413e+3, 1.6107331e+2, -1554518.9, -1370233.8, -27997.092, 0.043822274, -0.5088015, -1366074.3, -4638.579, 0.008786739, 9.99813, 10.000567 
1.9348134e+3, 1.710745e+2, -1500607.0, -1365800.1, -58797.293, 0.02268436, -0.38107368, -1343758.9, -80328.9, 0.00094156526, 9.998147, 9.999915 
1.9348854e+3, 1.81075e+2, -1408727.5, -1316942.6, -93370.336, 0.0048514768, -0.26844674, -1258795.9, -93365.11, 0.0000044945964, 9.9983, 9.999506 
1.9349574e+3, 1.910735e+2, -1159390.4, -1144438.6, -88496.05, 0.00594946, -0.35448226, -1063103.3, 4344.0386, 0.0, 9.999331, 9.999517 
1.9350295e+3, 2.01072e+2, -919530.3, -967089.94, -68103.03, 0.0038909581, -0.41913423, -871174.8, 98287.4, 0.0, 10.00026, 9.999615 
1.9351023e+3, 2.1107262e+2, -775412.3, -810537.6, -48555.04, 0.010332068, -0.3302143, -741341.3, 130112.59, 0.0, 10.000424, 9.999937 
1.9351754e+3, 2.2107272e+2, -683707.9, -800767.2, -27519.148, 0.017856473, -0.2508198, -677561.25, 95888.94, 0.0, 10.000742, 9.999181 
1.9352481e+3, 2.3107041e+2, -409433.44, -642383.75, 35226.652, -0.039855175, -0.36582574, -404223.03, 271247.22, 0.0, 10.00206, 9.99896 
1.9353202e+3, 2.4106735e+2, -288120.84, -715655.44, 1708.0378, -0.12555343, -0.48146984, -288114.0, 289384.7, 0.0, 10.003006, 9.997329 
1.9353908e+3, 2.5106344e+2, -359273.47, -790782.4, -126985.33, -0.15458722, -0.52624524, -324677.66, 154861.42, 0.0, 10.002242, 9.996507 
1.9354631e+3, 2.6105997e+2, -294692.28, -642278.06, -133650.56, -0.060968187, -0.49635062, -249244.56, 132331.14, 0.00000001774195, 10.001724, 9.997106 
1.9355391e+3, 2.7105898e+2, 13296.157, -350381.56, -42894.527, 0.20812552, -0.35085347, 18286.93, 301875.78, 0.0000029980988, 10.002769, 9.997929 
1.9356127e+3, 2.8105748e+2, 235488.34, -254010.81, -13102.3, 0.23258154, -0.25062317, 235838.8, 421444.72, 0.000038855138, 10.003886, 9.997381 
1.9356818e+3, 2.9105446e+2, 481345.9, -149084.95, -35668.76, -0.12843911, -0.24972741, 483357.56, 570988.2, 0.00018079358, 10.005175, 9.996812 
1.935757e+3, 3.0105036e+2, 625127.06, -195324.47, -57444.902, 0.085553326, -0.23977576, 629129.6, 629129.6, 0.0004949677, 10.006438, 9.995556 
1.9358316e+3, 3.110415e+2, 602116.4, -33239.47, -1771.6495, 0.3131856, -0.6714832, 602121.3, 602121.3, 0.0009681278, 10.005533, 9.997099 
1.9444433e+3, 1.2099298e+2, -1999525.4, -1604479.5, 135943.31, 0.0330477, -0.49089468, -1562219.5, 192011.89, 0.20999403, 9.996796, 10.002618 
1.9445178e+3, 1.3099563e+2, -2042586.4, -1631775.6, 23204.084, 0.039522186, -0.40048414, -1630469.1, 25733.875, 0.14565058, 9.996232, 10.001739 
1.944592e+3, 1.4099649e+2, -2001354.1, -1553010.6, -2652.4219, 0.1018164, -0.45165122, -1552994.9, 5198.5234, 0.083007626, 9.995828, 10.001773 
1.9446656e+3, 1.5099742e+2, -1764621.6, -1362427.8, -33186.16, 0.079440385, -0.54190296, -1359707.9, 100471.44, 0.03539992, 9.996654, 10.002032 
1.944739e+3, 1.6099826e+2, -1654297.0, -1431358.6, -94743.516, 0.062927, -0.5735792, -1396534.6, -34366.3, 0.009600047, 9.997504, 10.000449 
1.9448113e+3, 1.7099963e+2, -1474982.3, -1380790.6, -104011.6, 0.028100906, -0.4005256, -1313709.3, -49546.71, 0.0010784023, 9.998438, 9.999672 
1.9448838e+3, 1.8100029e+2, -1239859.4, -1211732.9, -83034.09, -0.0051436247, -0.26217857, -1141579.5, 24583.479, 0.0000066792873, 9.999363, 9.99971 
1.9449565e+3, 1.9099875e+2, -972905.4, -997895.25, -47435.813, -0.035654258, -0.39447364, -936346.5, 131830.64, 0.0, 10.0003805, 10.000012 
1.9450293e+3, 2.0099726e+2, -795088.75, -915952.6, -38503.652, -0.049802307, -0.49020773, -783864.94, 186325.02, 0.0, 10.001156, 9.999534 
1.9451027e+3, 2.1099782e+2, -736169.5, -845324.7, -80158.805, 0.0015689535, -0.36633316, -693772.1, 178411.84, 0.0, 10.000928, 9.999454 
1.945176e+3, 2.2099787e+2, -708824.44, -811519.0, -89502.88, 0.048218556, -0.2579956, -656985.94, 117196.68, 0.0, 10.000571, 9.999186 
1.9452494e+3, 2.3099567e+2, -645807.56, -719954.5, -106248.125, 0.0063593592, -0.38674116, -570350.56, 105850.86, 0.0, 10.000288, 9.999279 
1.9453222e+3, 2.4099277e+2, -654972.3, -866422.1, -167348.34, -0.06205646, -0.5107679, -562749.7, 15478.398, 0.0, 10.000382, 9.997555 
1.9453931e+3, 2.5098917e+2, -367916.56, -774366.4, -117073.484, -0.1266244, -0.53889537, -336606.7, 143659.2, 0.0, 10.002096, 9.996686 
1.9454655e+3, 2.609861e+2, -9941.006, -492604.7, 24321.736, -0.07595634, -0.49236724, -8718.515, 373580.8, 0.000000002142629, 10.003627, 9.997214 
1.945542e+3, 2.709852e+2, 127200.11, -298546.8, 7295.304, 0.20608935, -0.33942133, 127325.08, 411636.2, 0.0000028456998, 10.003565, 9.997903 
1.9456165e+3, 2.809834e+2, 159984.2, -304805.75, -41046.758, 0.27827066, -0.25403655, 163581.3, 349911.94, 0.000034901273, 10.003427, 9.997256 
1.9456871e+3, 2.9097995e+2, 328463.4, -211295.42, -28015.219, -0.0461138, -0.289811, 329913.6, 418273.78, 0.00016127495, 10.004082, 9.996904 
1.9457626e+3, 3.009761e+2, 485787.75, -225623.88, -3019.4026, 0.10616633, -0.27837235, 485800.56, 485800.56, 0.00044009267, 10.005315, 9.995888 
1.9458355e+3, 3.1096822e+2, 832613.25, 100822.31, -76882.77, 0.10978377, -0.6366431, 840603.4, 840603.4, 0.00085808296, 10.00702, 9.997305 
1.9544397e+3, 1.20921634e+2, -1955887.0, -1561606.1, 125838.914, 0.0062308996, -0.31679675, -1524866.6, 230059.69, 0.22070916, 9.99694, 10.002936 
1.9545135e+3, 1.3092239e+2, -2058591.3, -1670987.6, -1556.8096, 0.0049787546, -0.39682922, -1670981.4, -14066.159, 0.15369554, 9.996272, 10.001422 
1.9545877e+3, 1.409225e+2, -2056961.0, -1670459.3, 7078.054, 0.099692225, -0.47781807, -1670329.8, -111416.77, 0.08810495, 9.995832, 10.000963 
1.9546627e+3, 1.5092245e+2, -1850694.6, -1529051.6, 4269.0195, 0.1459121, -0.5578182, -1528995.0, -68083.49, 0.037922986, 9.996616, 10.000882 
1.9547375e+3, 1.609224e+2, -1671121.1, -1469092.5, -63089.477, 0.1670094, -0.589929, -1451009.5, -88097.78, 0.010466628, 9.997513, 10.000186 
1.9548103e+3, 1.7092322e+2, -1450164.8, -1335653.6, -66659.95, 0.08732905, -0.49383566, -1305035.8, -40126.04, 0.0012294218, 9.998459, 9.999973 
1.9548832e+3, 1.8092388e+2, -1193694.5, -1122180.8, -47204.49, 0.016741721, -0.3944084, -1098719.3, 68188.83, 0.000009908067, 9.999389, 10.000312 
1.9549575e+3, 1.9092448e+2, -915652.94, -881792.56, -5596.485, 0.0477188, -0.38805643, -880891.5, 188008.11, 0.0, 10.000388, 10.000808 
1.9550313e+3, 2.0092441e+2, -820428.9, -962614.7, -32033.611, 0.05780755, -0.3899028, -813545.1, 157352.8, 0.0, 10.001129, 9.999227 
1.9551028e+3, 2.109222e+2, -814870.6, -1000904.6, -89889.72, -0.059216946, -0.45258382, -778534.1, 94386.96, 0.0, 10.000894, 9.998403 
1.9551745e+3, 2.2091985e+2, -775773.8, -947837.56, -100563.2, -0.13093914, -0.48331973, -729463.56, 45482.62, 0.0, 10.000556, 9.99826 
1.9552499e+3, 2.3091896e+2, -704651.4, -842724.9, -109392.4, 0.047906768, -0.39412662, -644332.94, 32624.477, 0.0, 10.00029, 9.998436 
1.9553247e+3, 2.4091797e+2, -560643.9, -672554.5, -126340.43, 0.17512622, -0.30805615, -478422.13, 100546.39, 0.0, 10.00039, 9.998881 
1.9553961e+3, 2.5091672e+2, -178567.8, -374069.0, -45743.074, -0.008184081, -0.34997982, -168394.31, 312582.88, 0.0, 10.002064, 9.999452 
1.9554682e+3, 2.6091507e+2, -4526.586, -462933.84, 35158.242, -0.1317025, -0.3634328, -1845.7491, 381144.84, 0.00000003752054, 10.003544, 9.99746 
1.955544e+3, 2.7091208e+2, 14560.117, -531679.9, -4870.5503, 0.07896557, -0.30346942, 14603.542, 299626.8, 0.0000033025865, 10.003553, 9.996311 
1.9556193e+3, 2.8090817e+2, 125999.33, -378882.94, -36708.33, 0.2282724, -0.29745838, 128654.305, 315718.34, 0.00003384968, 10.003443, 9.996739 
1.9556928e+3, 2.9090282e+2, 373405.94, -126590.195, 2926.8894, 0.14559865, -0.5406384, 373423.1, 462534.63, 0.00014987633, 10.004115, 9.997474 
1.9557679e+3, 3.008979e+2, 529657.4, -144506.66, 48440.37, 0.109610684, -0.71717966, 533120.2, 533120.2, 0.00039378912, 10.005352, 9.996429 
1.9558395e+3, 3.108985e+2, 823606.3, 78884.26, -102225.68, -0.18258223, -0.24376048, 837383.7, 837383.7, 0.00074388616, 10.007052, 9.997127 
1.9644362e+3, 1.2084601e+2, -2350789.8, -1696524.1, 2209.5027, 0.1124075, -0.3545542, -1696516.6, 59146.473, 0.23177752, 9.994148, 10.003059 
1.9645096e+3, 1.3084646e+2, -2116587.0, -1726834.1, -154435.11, 0.030659048, -0.4464778, -1673060.3, -15403.076, 0.1620495, 9.996007, 10.001163 
1.964584e+3, 1.4084692e+2, -1817690.5, -1576277.0, -128288.81, 0.09444728, -0.46295208, -1520835.8, 38817.37, 0.093428105, 9.997579, 10.000781 
1.9646598e+3, 1.508471e+2, -1738508.5, -1490013.9, -75483.266, 0.17549948, -0.50176895, -1468882.0, -7231.0737, 0.04057487, 9.997466, 10.000731 
1.9647351e+3, 1.6084708e+2, -1702935.8, -1487916.4, -65012.625, 0.22421017, -0.51943076, -1469787.9, -106136.28, 0.011385711, 9.997316, 10.00015 
1.9648084e+3, 1.7084707e+2, -1497215.8, -1349316.1, -76014.57, 0.106593266, -0.5076189, -1317215.1, -51559.977, 0.0013940044, 9.998113, 10.000039 
1.964882e+3, 1.8084711e+2, -1269565.8, -1157308.9, -89758.03, 0.012967016, -0.47589594, -1107574.6, 60083.055, 0.000014255441, 9.998858, 10.000331 
1.9649576e+3, 1.9084838e+2, -1118495.4, -982580.25, -117767.71, 0.10113944, -0.39972478, -914569.2, 155075.06, 0.0, 9.999003, 10.000787 
1.9650324e+3, 2.0084892e+2, -1076372.4, -1055186.5, -172720.56, 0.16114932, -0.34241357, -892734.3, 78903.42, 0.0, 9.999239, 9.999503 
1.9651036e+3, 2.1084665e+2, -868697.2, -971769.94, -140384.81, -0.0006508401, -0.45364442, -770687.94, 102972.37, 0.0, 10.000289, 9.998894 
1.9651753e+3, 2.2084422e+2, -666722.7, -886776.2, -56991.82, -0.12072532, -0.52917856, -652838.4, 122846.38, 0.0, 10.001271, 9.998334 
1.9652505e+3, 2.3084319e+2, -522610.6, -785421.94, -30728.28, 0.038877763, -0.4353385, -519065.63, 158631.88, 0.0, 10.001664, 9.99817 
1.9653256e+3, 2.4084207e+2, -352426.94, -603142.5, -25473.588, 0.18396722, -0.33615226, -349864.9, 229845.45, 0.0, 10.001943, 9.998614 
1.965399e+3, 2.5084108e+2, -194834.86, -410792.22, -122723.27, 0.089223295, -0.3257777, -139349.78, 342368.78, 0.0, 10.002081, 9.99919 
1.9654721e+3, 2.608395e+2, -170820.3, -523807.7, -197483.64, -0.016473351, -0.31717372, -82455.89, 301276.94, 0.00000006167767, 10.002325, 9.997627 
1.9655465e+3, 2.708358e+2, -32733.65, -503977.1, -150120.17, 0.03064772, -0.3621189, 11025.4795, 296794.8, 0.0000036021574, 10.00302, 9.996754 
1.9656219e+3, 2.808315e+2, 210188.98, -328051.63, -51313.055, 0.14925502, -0.42275795, 215037.23, 402848.38, 0.00003313062, 10.003982, 9.996827 
1.9656986e+3, 2.9082727e+2, 566561.44, -33939.664, -20456.775, 0.27401906, -0.5467365, 567257.5, 657107.2, 0.00014074842, 10.005452, 9.997466 
1.9657734e+3, 3.0082318e+2, 679119.1, -94031.34, -14400.398, 0.100744575, -0.6389396, 679387.25, 679387.25, 0.00035355065, 10.006471, 9.996244 
1.965845e+3, 3.1082252e+2, 782865.4, -9463.602, -209947.97, -0.32193157, -0.23648866, 835058.44, 835058.44, 0.0006377529, 10.007055, 9.996528 
1.974432e+3, 1.2076511e+2, -2371693.5, -1712686.9, 31663.158, 0.30930674, -0.6617184, -1711169.1, 45282.44, 0.24301729, 9.994036, 10.002984 
1.9745061e+3, 1.3076724e+2, -2135412.5, -1758085.5, -79638.87, 0.10476303, -0.5658858, -1741965.6, -83531.29, 0.17062773, 9.99597, 10.00097 
1.974581e+3, 1.4076957e+2, -1771538.3, -1508464.3, -108542.72, 0.051173266, -0.39747965, -1469462.4, 90954.11, 0.09895461, 9.997669, 10.001245 
1.9746566e+3, 1.5077135e+2, -1666296.4, -1360220.5, -87709.33, 0.13552266, -0.35967553, -1336868.1, 125530.22, 0.04335473, 9.997524, 10.001636 
1.974732e+3, 1.6077237e+2, -1679025.3, -1446510.4, -54515.67, 0.19499919, -0.34366843, -1434363.3, -69976.06, 0.012356995, 9.997348, 10.000421 
1.9748059e+3, 1.7077118e+2, -1510560.6, -1383227.9, -39981.77, 0.06076887, -0.43826142, -1371714.8, -105315.58, 0.0015709848, 9.998131, 9.999804 
1.9748801e+3, 1.8076989e+2, -1310974.0, -1243633.8, -76237.42, -0.04461226, -0.5044221, -1193962.3, -25549.414, 0.000019593592, 9.99886, 9.999738 
1.9749562e+3, 1.9077037e+2, -1179756.8, -1106156.6, -111062.29, 0.09644371, -0.4277772, -1025956.4, 44455.113, 0.0, 9.998992, 9.999942 
1.975032e+3, 2.007708e+2, -1023749.06, -943777.9, -147085.52, 0.22597568, -0.34664893, -831339.75, 141069.78, 0.0, 9.999228, 10.000275 
1.9751051e+3, 2.1077107e+2, -738518.0, -695894.7, -94444.99, 0.14798923, -0.36826664, -620386.7, 254015.55, 0.0, 10.000262, 10.000802 
1.975178e+3, 2.2077073e+2, -605227.75, -751346.06, -36258.977, 0.041870296, -0.39888242, -596724.94, 179675.81, 0.0, 10.001233, 9.999283 
1.9752513e+3, 2.3076817e+2, -509941.4, -754295.44, -19976.928, -0.029276025, -0.4983339, -508319.0, 170105.13, 0.0, 10.001639, 9.998396 
1.9753253e+3, 2.4076518e+2, -467295.6, -837355.94, -24957.615, -0.033374052, -0.5586742, -465620.0, 114833.695, 0.0, 10.001921, 9.997018 
1.9754012e+3, 2.5076258e+2, -399353.66, -836128.8, -114997.08, 0.1385664, -0.44567695, -370926.6, 111560.21, 0.0, 10.002078, 9.996273 
1.9754764e+3, 2.6075983e+2, -175218.31, -529638.3, -175226.14, 0.21176119, -0.34406257, -103214.38, 281305.28, 0.000000055759365, 10.00231, 9.997594 
1.9755493e+3, 2.707567e+2, 110128.01, -208337.63, -115852.16, 0.027535904, -0.49295723, 147813.48, 434358.38, 0.000003648922, 10.003024, 9.998782 
1.9756244e+3, 2.8075355e+2, 252614.39, -240909.69, -11269.918, 0.023004878, -0.6033137, 252871.61, 441441.9, 0.00003226355, 10.003981, 9.997428 
1.9757043e+3, 2.9075247e+2, 528520.5, -103357.805, 33398.69, 0.3189182, -0.3904514, 530280.94, 620862.56, 0.00013377074, 10.005399, 9.99702 
1.9757791e+3, 3.0075097e+2, 580637.7, -243865.1, -8480.9375, 0.03981435, -0.16407983, 580724.9, 580724.9, 0.0003257089, 10.006247, 9.995318 
1.9758534e+3, 3.1074196e+2, 687955.6, -148649.95, -61622.133, -0.17523879, -0.47798073, 692470.2, 692470.2, 0.0005644554, 10.006797, 9.995701 
1.9844268e+3, 1.2068707e+2, -2112533.8, -1633314.0, 74099.58, 0.334701, -0.7169233, -1622117.9, 135096.73, 0.25424254, 9.995894, 10.002843 
1.9845022e+3, 1.3068952e+2, -2080821.4, -1728561.6, 13581.476, 0.1310613, -0.59168833, -1728038.8, -68842.78, 0.17932345, 9.996324, 10.001003 
1.9845782e+3, 1.4069228e+2, -1885004.6, -1566752.8, -44173.64, 0.07501189, -0.37973845, -1560735.1, 440.56873, 0.104643695, 9.996936, 10.001138 
1.984654e+3, 1.5069413e+2, -1690780.9, -1389789.9, -124971.555, 0.1574436, -0.3157588, -1344666.5, 118491.62, 0.046255346, 9.997446, 10.001464 
1.9847293e+3, 1.6069515e+2, -1583004.9, -1376585.0, -137639.13, 0.21185163, -0.29348496, -1307757.6, 57389.87, 0.013380272, 9.9979105, 10.000629 
1.9848035e+3, 1.7069398e+2, -1446123.4, -1294974.8, -76225.84, 0.0385633, -0.42732546, -1263209.1, 3946.801, 0.0017591557, 9.998337, 10.000304 
1.984878e+3, 1.8069272e+2, -1320181.1, -1240544.3, -61489.69, -0.09967682, -0.52887195, -1207106.4, -37940.055, 0.0000256483, 9.998767, 9.9998 
1.9849548e+3, 1.9069289e+2, -1140082.4, -1115571.0, -59624.316, 0.054412253, -0.46516204, -1066955.9, 4212.934, 0.0, 9.999388, 9.999685 
1.9850312e+3, 2.006931e+2, -927278.06, -915069.7, -69640.31, 0.21463794, -0.3831829, -851266.56, 121903.375, 0.0, 9.999972, 10.000107 
1.9851057e+3, 2.1069357e+2, -717065.5, -700951.2, -148990.2, 0.19416668, -0.37292263, -559800.44, 315361.2, 0.0, 10.00048, 10.000659 
1.9851796e+3, 2.206934e+2, -637102.3, -758981.6, -217540.48, 0.12838882, -0.377192, -472127.16, 305032.2, 0.0, 10.000987, 9.999346 
1.9852528e+3, 2.3069102e+2, -506412.66, -723708.7, -224086.77, 0.0038700136, -0.47222307, -366024.0, 313156.16, 0.0, 10.0015545, 9.998639 
1.9853269e+3, 2.4068815e+2, -456427.56, -841510.94, -201467.16, -0.04517828, -0.5314145, -370291.47, 210916.63, 0.0, 10.002055, 9.996918 
1.9854032e+3, 2.5068477e+2, -394114.88, -876043.6, -144114.34, 0.13854298, -0.45833382, -354307.5, 128941.77, 0.0, 10.002307, 9.995888 
1.9854787e+3, 2.606814e+2, -122021.79, -495243.38, -62598.266, 0.2304213, -0.3957157, -111802.375, 273486.2, 0.00000004684117, 10.002635, 9.997675 
1.9855528e+3, 2.706791e+2, 205907.03, -116712.14, -80917.695, 0.068707705, -0.49740693, 225064.78, 512369.28, 0.0000036318193, 10.00349, 9.999185 
1.9856288e+3, 2.8067666e+2, 305361.3, -238873.0, -62208.047, 0.06822485, -0.5525652, 312381.38, 501703.22, 0.00003070429, 10.004447, 9.997217 
1.9857083e+3, 2.906748e+2, 359778.72, -262647.94, -58680.68, 0.26194713, -0.3600211, 365262.66, 456606.22, 0.00012535621, 10.004583, 9.996313 
1.9857828e+3, 3.006725e+2, 273411.56, -416031.72, -115271.87, -0.06922877, -0.15459979, 292173.9, 292173.9, 0.00030197084, 10.004248, 9.99509 
1.9858603e+3, 3.1066373e+2, 390832.2, -297432.84, 491.98712, -0.015261695, -0.44196516, 390832.53, 390832.53, 0.00051651534, 10.00476, 9.995667 
1.9944201e+3, 1.2061272e+2, -2111491.0, -1661158.6, 41329.527, 0.07786525, -0.45748186, -1657397.0, 100547.86, 0.26535824, 9.996047, 10.002519 
1.9944976e+3, 1.3061377e+2, -2060710.9, -1693491.6, 41763.914, 0.06593353, -0.48654675, -1688801.6, -28864.746, 0.18805622, 9.996347, 10.001234 
1.9945757e+3, 1.4061517e+2, -1936027.6, -1674805.8, -23117.959, 0.14282763, -0.40467772, -1672775.6, -110847.375, 0.11045076, 9.996941, 10.000396 
1.994652e+3, 1.5061526e+2, -1789196.1, -1592077.3, -104756.64, 0.22565028, -0.38854748, -1546803.8, -82872.2, 0.04926506, 9.997453, 10.000038 
1.9947276e+3, 1.6061509e+2, -1574261.1, -1361681.3, -124795.8, 0.25292435, -0.38820207, -1304045.8, 61890.0, 0.014456319, 9.997925, 10.000726 
1.9948015e+3, 1.7061529e+2, -1357834.4, -1115070.4, -60080.508, 0.019245172, -0.48348412, -1101015.1, 166912.1, 0.0019582892, 9.998347, 10.001537 
1.9948758e+3, 1.8061541e+2, -1265364.1, -1130328.0, -42682.887, -0.1785942, -0.55464464, -1117967.9, 51951.746, 0.000032105352, 9.998781, 10.000552 
1.9949529e+3, 1.9061585e+2, -1116157.0, -1063925.3, -33020.902, -0.043427862, -0.5088107, -1047941.0, 23975.896, 0.0, 9.99938, 10.000045 
1.9950299e+3, 2.006158e+2, -1001466.75, -1067387.9, -49898.03, 0.10765516, -0.44943672, -974625.9, -706.3033, 0.0, 9.999962, 9.999068 
1.9951053e+3, 2.1061413e+2, -870314.44, -1012815.4, -126125.55, 0.12518072, -0.46404073, -796705.4, 79233.02, 0.0, 10.000451, 9.998533 
1.9951802e+3, 2.2061227e+2, -697962.8, -876097.94, -195092.63, 0.118049435, -0.45940667, -572567.9, 205390.83, 0.0, 10.000944, 9.998564 
1.995255e+3, 2.3061176e+2, -498242.94, -695486.56, -195023.11, 0.10254273, -0.37123263, -378323.53, 301640.72, 0.0, 10.001501, 9.99886 
1.99533e+3, 2.4061081e+2, -390552.38, -688050.0, -186865.45, 0.09609885, -0.28466743, -300460.44, 281513.44, 0.0, 10.001984, 9.998006 
1.9954047e+3, 2.5060743e+2, -273212.97, -624467.9, -133575.08, 0.080166064, -0.374125, -228188.42, 255820.05, 0.0, 10.002304, 9.997616 
1.9954795e+3, 2.6060385e+2, -104085.19, -464823.56, -48364.52, 0.05325149, -0.45950827, -97713.46, 288330.13, 0.000000042002604, 10.002662, 9.997871 
1.9955565e+3, 2.7060238e+2, 136203.28, -260061.28, -46920.66, 0.12202214, -0.40659848, 141683.25, 429736.8, 0.0000035134383, 10.003477, 9.998208 
1.9956344e+3, 2.8060037e+2, 225848.23, -383258.44, -47337.406, 0.21693668, -0.3245852, 229505.17, 419575.16, 0.000028091472, 10.004357, 9.996269 
1.9957109e+3, 2.9059482e+2, 299191.84, -403471.6, -59741.406, 0.089919075, -0.41202167, 304234.94, 396364.7, 0.00011180879, 10.004643, 9.995319 
1.9957854e+3, 3.0058908e+2, 297919.44, -386670.03, -130073.02, -0.2078998, -0.48457912, 321800.47, 321800.47, 0.0002701443, 10.004351, 9.995235 
1.9958654e+3, 3.1058705e+2, 408996.47, -272989.22, 121003.71, 0.025856437, -0.18340364, 429829.6, 429829.6, 0.00046908043, 10.0048065, 9.995814 
2.0044157e+3, 1.2053437e+2, -2003306.3, -1642322.5, -153150.83, 0.009944343, -0.3634068, -1586102.5, 172614.11, 0.27641812, 9.996909, 10.002384 
2.0044938e+3, 1.305356e+2, -1994991.8, -1586997.8, -100645.695, 0.07200335, -0.4323133, -1563520.9, 97183.7, 0.1968332, 9.996404, 10.002087 
2.0045725e+3, 1.4053729e+2, -2018895.3, -1682980.3, -91549.08, 0.19632135, -0.3886027, -1659650.1, -96959.69, 0.11636926, 9.996243, 10.000672 
2.0046495e+3, 1.505368e+2, -1793991.1, -1620382.4, -75464.82, 0.26256236, -0.4189564, -1592165.4, -127465.88, 0.05238356, 9.997527, 9.999812 
2.0047258e+3, 1.6053616e+2, -1472681.4, -1340701.0, -48110.75, 0.279772, -0.44347098, -1325025.1, 41683.668, 0.015589432, 9.998736, 10.000481 
2.0048004e+3, 1.7053662e+2, -1319432.4, -1128303.1, -96529.99, 0.084333725, -0.48500457, -1088034.6, 180663.92, 0.0021699998, 9.998741, 10.001261 
2.0048751e+3, 1.8053703e+2, -1280488.4, -1140851.6, -164394.19, -0.086367995, -0.50711733, -1032064.2, 138625.17, 0.00003871999, 9.998696, 10.000519 
2.004952e+3, 1.9053738e+2, -1095510.1, -1040411.7, -178284.31, -0.036387492, -0.47395447, -887560.6, 185125.19, 0.0, 9.999464, 10.000163 
2.0050289e+3, 2.0053713e+2, -980558.9, -1076984.0, -194703.44, 0.03662349, -0.4378821, -828187.6, 146501.88, 0.0, 10.0001955, 9.998888 
2.005105e+3, 2.1053468e+2, -899404.5, -1073107.9, -171537.67, 0.082678616, -0.48984417, -793984.5, 82731.234, 0.0, 10.000452, 9.998118 
2.0051809e+3, 2.2053221e+2, -754573.3, -914935.56, -131583.94, 0.12635899, -0.5150509, -680665.7, 98076.5, 0.0, 10.000609, 9.998458 
2.0052566e+3, 2.3053196e+2, -577791.7, -721845.9, -133187.67, 0.15726964, -0.40438926, -498402.6, 182343.23, 0.0, 10.000907, 9.998965 
2.0053321e+3, 2.4053136e+2, -454632.75, -694300.06, -133368.39, 0.16688496, -0.29973465, -395169.9, 187582.86, 0.0, 10.001423, 9.998237 
2.0054068e+3, 2.505283e+2, -190243.13, -548943.4, -164765.05, 0.07195788, -0.38417467, -126048.61, 358733.56, 0.0, 10.002713, 9.997936 
2.0054819e+3, 2.60525e+2, 56477.652, -395935.3, -163373.31, 0.005236383, -0.46277097, 109305.6, 496119.34, 0.000000029896977, 10.00381, 9.997787 
2.0055598e+3, 2.7052307e+2, 128730.945, -299186.88, -149763.98, 0.1242188, -0.42302403, 175938.02, 464767.28, 0.0000031274062, 10.003589, 9.997882 
2.0056379e+3, 2.8052065e+2, 92370.17, -480085.88, -77686.61, 0.20096345, -0.35442683, 102725.51, 293576.94, 0.000025067697, 10.003573, 9.995985 
2.0057143e+3, 2.9051536e+2, 328289.88, -450213.94, -57166.555, -0.03244523, -0.3717871, 332465.28, 425376.7, 0.00009638725, 10.005111, 9.994774 
2.0057908e+3, 3.0050963e+2, 630007.1, -217395.02, -137205.94, -0.19086744, -0.39297375, 651668.94, 651668.94, 0.00023464039, 10.006581, 9.995334 
2.0058708e+3, 3.1050622e+2, 652739.75, -68723.555, 87855.43, 0.050331563, -0.2956804, 663284.2, 663284.2, 0.0004178184, 10.006102, 9.996601 
2.0144136e+3, 1.20450795e+2, -1994813.1, -1639166.9, -196760.94, 0.1384241, -0.504601, -1551780.8, 207761.72, 0.28771394, 9.996978, 10.002455 
2.0144907e+3, 1.3045444e+2, -1889362.0, -1407389.1, -112524.82, 0.14015497, -0.4537272, -1382412.6, 279092.72, 0.20582092, 9.996392, 10.003646 
2.0145686e+3, 1.4045843e+2, -1927311.8, -1495373.3, -72242.38, 0.19727212, -0.33233944, -1483611.0, 79853.91, 0.12247417, 9.996203, 10.002055 
2.0146465e+3, 1.504588e+2, -1715849.8, -1457780.0, -16369.729, 0.23544341, -0.39633784, -1456745.8, 8715.496, 0.055639356, 9.997523, 10.000933 
2.0147242e+3, 1.6045853e+2, -1504761.5, -1416138.4, -25197.21, 0.25572914, -0.44679385, -1409475.4, -42011.27, 0.016791714, 9.998775, 9.999943 
2.0148003e+3, 1.7045808e+2, -1448387.5, -1403030.0, -99965.01, 0.21572815, -0.42320895, -1323203.5, -53734.12, 0.0023981123, 9.998768, 9.999362 
2.0148762e+3, 1.804575e+2, -1342769.1, -1273451.4, -152490.7, 0.16015348, -0.3815094, -1151730.5, 19745.455, 0.000045425786, 9.998706, 9.999606 
2.0149522e+3, 1.9045748e+2, -1106423.6, -1060922.5, -142391.14, 0.055068824, -0.35606182, -939475.94, 134000.38, 0.0, 9.9994545, 10.000029 
2.0150283e+3, 2.0045704e+2, -937344.3, -986939.4, -177677.3, -0.031801857, -0.3460232, -782742.5, 192737.6, 0.0, 10.000192, 9.999509 
2.0151047e+3, 2.1045516e+2, -819523.4, -900607.6, -161660.05, 0.041698154, -0.44646242, -693399.25, 184095.16, 0.0, 10.000423, 9.999317 
2.0151813e+3, 2.204531e+2, -723479.5, -845508.0, -125016.36, 0.12716685, -0.5323208, -645382.9, 134128.28, 0.0, 10.000584, 9.998949 
2.0152572e+3, 2.3045161e+2, -582160.94, -732042.4, -119922.81, 0.15206024, -0.55177504, -515688.78, 165837.36, 0.0, 10.000907, 9.998898 
2.0153332e+3, 2.4044986e+2, -492533.5, -765958.0, -103263.33, 0.14658818, -0.5438353, -457916.97, 125627.664, 0.0, 10.001393, 9.997759 
2.0154093e+3, 2.5044754e+2, -260956.67, -680181.6, -111231.94, 0.0810624, -0.48050666, -233272.0, 252298.03, 0.0, 10.002645, 9.997069 
2.0154859e+3, 2.6044485e+2, 14023.15, -460498.94, -149636.89, 0.037666183, -0.41771272, 57268.793, 444866.88, 0.0000000091701935, 10.00371, 9.997392 
2.0155625e+3, 2.704415e+2, 135016.44, -278677.78, -160114.77, 0.0652169, -0.5222413, 189746.2, 479374.16, 0.0000023642779, 10.003554, 9.998039 
2.0156394e+3, 2.8043807e+2, 99225.766, -454324.5, -57249.953, 0.025476987, -0.58040494, 105084.73, 296745.06, 0.000021544598, 10.003526, 9.996183 
2.015718e+3, 2.9043597e+2, 299490.6, -486541.0, 13056.526, -0.15441813, -0.27775794, 299707.4, 393400.03, 0.000082946346, 10.005, 9.994579 
2.015798e+3, 3.0043286e+2, 583559.06, -245570.1, -111948.13, -0.10927624, -0.0072842687, 598408.25, 598408.25, 0.0002038182, 10.006299, 9.995271 
2.0158756e+3, 3.104245e+2, 713834.06, 143565.63, 1751.33, -0.04526357, -0.4602246, 713839.44, 713839.44, 0.00037008172, 10.005781, 9.998192 
2.0244105e+3, 1.2037031e+2, -2347186.0, -1811366.1, -24496.314, 0.26166818, -0.5572408, -1810248.5, -49916.7, 0.29983783, 9.994739, 10.001873 
2.0244877e+3, 1.303742e+2, -1834086.1, -1375334.3, -22326.742, 0.21422361, -0.4834751, -1374250.1, 288043.28, 0.21537028, 9.996677, 10.003793 
2.024565e+3, 1.4037876e+2, -1622329.0, -1356631.3, -68825.66, 0.16653109, -0.32148048, -1339861.3, 224385.64, 0.12892798, 9.998258, 10.00216 
2.0246439e+3, 1.5037936e+2, -1623802.6, -1413367.8, -112370.72, 0.22251794, -0.3637556, -1364644.0, 101595.734, 0.05909158, 9.998142, 10.000972 
2.0247224e+3, 1.6037917e+2, -1642748.8, -1488382.4, -180698.47, 0.2846055, -0.40716276, -1369073.4, -832.21185, 0.018083457, 9.997865, 9.999877 
2.0247991e+3, 1.7037831e+2, -1511078.8, -1447959.8, -158055.9, 0.28061777, -0.4060259, -1318343.4, -48092.5, 0.0026487417, 9.998424, 9.999208 
2.0248756e+3, 1.8037729e+2, -1313598.0, -1299282.5, -88039.125, 0.24967024, -0.38979703, -1218110.6, -45848.3, 0.000052423693, 9.999081, 9.999245 
2.024952e+3, 1.9037649e+2, -1109779.3, -1124329.5, -86907.164, 0.118028104, -0.39033478, -1029843.25, 44427.23, 0.0, 9.999694, 9.999477 
2.0250286e+3, 2.0037559e+2, -914774.94, -956180.4, -156701.83, 0.004092089, -0.39365318, -777414.2, 198864.77, 0.0, 10.000263, 9.999686 
2.0251049e+3, 2.1037467e+2, -701764.0, -757105.7, -184582.58, 0.031621125, -0.46394527, -542789.7, 335492.4, 0.0, 10.000856, 10.000093 
2.0251815e+3, 2.2037344e+2, -615345.7, -798414.75, -180105.3, 0.082771145, -0.5182562, -504849.34, 275439.63, 0.0, 10.001352, 9.998899 
2.0252578e+3, 2.303714e+2, -563789.2, -807880.3, -229257.67, 0.12560609, -0.5330987, -426115.28, 256196.58, 0.0, 10.001404, 9.998135 
2.0253342e+3, 2.4036899e+2, -498286.22, -785897.25, -223624.44, 0.14751625, -0.52855396, -376219.75, 208119.27, 0.0, 10.00144, 9.997597 
2.0254111e+3, 2.503666e+2, -351002.34, -686272.44, -157955.8, 0.067645855, -0.4869526, -288308.2, 198055.2, 0.0, 10.001883, 9.997389 
2.0254883e+3, 2.6036403e+2, -174034.84, -558674.8, -140174.08, 0.006509959, -0.43774775, -128372.17, 260017.03, 0.000000001074916, 10.002447, 9.997327 
2.0255652e+3, 2.703607e+2, 24627.436, -378263.25, -191161.33, 0.032732867, -0.5012102, 100892.16, 391311.8, 0.0000018159459, 10.002997, 9.997624 
2.0256424e+3, 2.8035718e+2, 124458.13, -393346.13, -97060.516, 0.006363358, -0.5481416, 142053.84, 334507.7, 0.000018169021, 10.003485, 9.996621 
2.0257221e+3, 2.9035485e+2, 197372.84, -397656.56, 38232.477, -0.14493181, -0.36755586, 199819.34, 294304.94, 0.00007164026, 10.003711, 9.995806 
2.0258032e+3, 3.003523e+2, 322870.22, -268645.66, 5631.0283, -0.054290507, -0.16451113, 322923.8, 322923.8, 0.00017680386, 10.004035, 9.99621 
2.0258799e+3, 3.103477e+2, 486307.3, 59433.69, 39103.67, -0.06958233, -0.30119872, 489859.84, 489859.84, 0.00032414193, 10.004075, 9.998443 
2.0344055e+3, 1.20293975e+2, -2472547.3, -2025133.5, 66425.09, 0.31485805, -0.4863844, -2015480.0, -254407.16, 0.3135409, 9.994541, 10.000503 
2.0344844e+3, 1.3029528e+2, -1951186.8, -1565630.4, 53652.406, 0.26250914, -0.5070759, -1558303.5, 104760.695, 0.22593072, 9.996667, 10.002156 
2.0345621e+3, 1.4029822e+2, -1701210.8, -1523590.8, -50797.48, 0.06076201, -0.3514109, -1510089.5, 54947.09, 0.13594478, 9.99836, 10.000806 
2.0346417e+3, 1.5029828e+2, -1701109.5, -1578041.3, -131922.39, 0.20039381, -0.32820502, -1494007.6, -26970.049, 0.06282382, 9.998173, 9.999792 
2.0347206e+3, 1.6029778e+2, -1617891.9, -1436368.4, -180399.2, 0.34145597, -0.3244565, -1325185.8, 43857.375, 0.019494196, 9.997859, 10.000243 
2.034797e+3, 1.7029716e+2, -1391821.3, -1204562.0, -130150.234, 0.25100586, -0.43605632, -1137862.0, 133182.7, 0.0029308582, 9.998433, 10.00088 
2.0348734e+3, 1.802962e+2, -1293724.8, -1259385.6, -64154.18, 0.14137256, -0.54270196, -1210143.1, -37093.188, 0.00006041413, 9.999086, 9.9995165 
2.0349516e+3, 1.9029443e+2, -1178900.3, -1266443.3, -60279.84, 0.12336753, -0.5752481, -1148176.1, -73107.39, 0.0, 9.999689, 9.998506 
2.0350297e+3, 2.0029272e+2, -934537.2, -997163.5, -134852.95, 0.107975036, -0.57713974, -827409.6, 149676.98, 0.0, 10.000259, 9.999407 
2.0351055e+3, 2.1029307e+2, -679288.5, -707478.9, -158592.42, 0.031049442, -0.5415211, -534166.1, 344913.34, 0.0, 10.00084, 10.000444 
2.0351814e+3, 2.2029318e+2, -657334.1, -879019.2, -171066.94, -0.0327816, -0.47687244, -564338.56, 216737.36, 0.0, 10.001324, 9.99836 
2.0352583e+3, 2.3029117e+2, -663487.3, -1013018.1, -223382.55, 0.058853127, -0.36960733, -554628.44, 128475.07, 0.0, 10.001393, 9.996733 
2.0353355e+3, 2.4028851e+2, -500424.88, -788139.5, -214300.88, 0.14170879, -0.28509954, -386174.1, 198962.73, 0.0, 10.001429, 9.997588 
2.0354122e+3, 2.5028542e+2, -259358.78, -501037.75, -135234.19, 0.018325787, -0.41087803, -198840.97, 288321.84, 0.0, 10.0019, 9.998656 
2.0354894e+3, 2.602824e+2, -158290.31, -523459.88, -122895.9, -0.10745326, -0.50644535, -120782.83, 268404.44, 0.000000023664393, 10.002438, 9.997572 
2.0355675e+3, 2.702803e+2, -29629.932, -500296.03, -166664.92, -0.016563507, -0.39713624, 23409.76, 314617.94, 0.0000019634658, 10.003032, 9.996773 
2.0356463e+3, 2.802774e+2, 160536.19, -319076.6, -88620.83, 0.07661938, -0.32410666, 176387.3, 369625.03, 0.000016139144, 10.003498, 9.997122 
2.0357268e+3, 2.9027233e+2, 345849.44, -73069.06, 44013.656, -0.02883774, -0.5815324, 350423.78, 445712.3, 0.00006199918, 10.00364, 9.99807 
2.0358068e+3, 3.0026874e+2, 412822.5, -15444.665, -4950.5107, -0.08326118, -0.7257763, 412879.72, 412879.72, 0.00015215047, 10.003756, 9.998079 
2.0358841e+3, 3.102724e+2, 465979.72, 1335.1399, 26646.887, -0.03487687, -0.12679502, 467502.88, 467502.88, 0.00028018243, 10.004147, 9.998005 
2.0444007e+3, 1.20215e+2, -2015629.3, -1864873.5, -72526.02, 0.25857303, -0.4403759, -1835648.0, -73802.87, 0.3294151, 9.997941, 9.999957 
2.0444822e+3, 1.3021529e+2, -1798561.8, -1582027.0, -25744.69, 0.31943807, -0.47985014, -1579008.1, 84839.164, 0.23787552, 9.998108, 10.001328 
2.0445605e+3, 1.4021687e+2, -1726253.0, -1558878.3, -81694.85, 0.083586216, -0.39272076, -1525614.3, 40218.996, 0.14372098, 9.998295, 10.000578 
2.04464e+3, 1.5021679e+2, -1561569.0, -1483042.0, -79134.586, 0.20865285, -0.39924717, -1433965.8, 33868.316, 0.06692591, 9.999013, 10.000047 
2.044719e+3, 1.6021642e+2, -1359982.3, -1321037.8, -44270.09, 0.33337566, -0.4023748, -1292146.8, 77689.96, 0.021061258, 9.999666, 10.00017 
2.0447953e+3, 1.702161e+2, -1236371.1, -1176779.1, -125551.484, 0.1949411, -0.45326763, -1077536.5, 194300.42, 0.003256253, 9.9997015, 10.000462 
2.0448716e+3, 1.8021531e+2, -1221819.1, -1252739.5, -184153.05, 0.056463536, -0.5025029, -1052478.4, 121363.8, 0.00007088071, 9.999703, 9.999265 
2.044951e+3, 1.9021302e+2, -1131817.4, -1250130.6, -142992.89, 0.12065734, -0.5707604, -1036227.44, 39638.547, 0.0, 10.000051, 9.998438 
2.0450304e+3, 2.0021087e+2, -914749.5, -1001091.25, -157757.75, 0.1856584, -0.60842794, -794362.4, 183526.17, 0.0, 10.000457, 9.999285 
2.0451066e+3, 2.1021158e+2, -658598.2, -710914.4, -209965.06, 0.06336492, -0.52065784, -473168.06, 406711.3, 0.0, 10.001051, 10.000315 
2.0451824e+3, 2.2021207e+2, -623543.2, -879210.06, -246442.53, -0.05026324, -0.40364373, -473752.22, 308121.25, 0.0, 10.001625, 9.998214 
2.0452595e+3, 2.3020959e+2, -582242.06, -995544.2, -241863.97, 0.039522175, -0.3214409, -470769.16, 213136.44, 0.0, 10.002043, 9.996539 
2.045337e+3, 2.402065e+2, -354845.97, -720651.9, -161064.72, 0.13176928, -0.26787025, -294037.34, 291905.66, 0.0, 10.002431, 9.997569 
2.0454141e+3, 2.502035e+2, -134076.0, -422503.06, -137742.14, 0.01582217, -0.40018877, -78864.266, 409102.25, 0.0, 10.00267, 9.998826 
2.0454918e+3, 2.602005e+2, -78884.67, -481304.4, -170116.08, -0.10256297, -0.5055959, -16608.502, 373380.44, 0.00000011200642, 10.002964, 9.997608 
2.0455706e+3, 2.701979e+2, 97352.28, -450638.8, -182635.83, -0.01672177, -0.43405107, 152642.94, 444657.66, 0.000002326167, 10.00396, 9.996661 
2.0456503e+3, 2.801947e+2, 339682.5, -231095.1, -102461.195, 0.08190961, -0.38234955, 357518.16, 551565.7, 0.0000146886705, 10.004716, 9.997143 
2.04573e+3, 2.9019076e+2, 262261.75, -88656.94, -106688.11, 0.015595874, -0.5406376, 292151.72, 388238.63, 0.00005357594, 10.002963, 9.998287 
2.0458099e+3, 3.0018845e+2, 119533.87, -136483.44, -210526.48, -0.0012342333, -0.57735914, 237914.38, 237914.38, 0.00013038765, 10.001663, 9.998251 
2.0458893e+3, 3.1018952e+2, 665477.5, 103229.99, -178955.42, 0.033092517, -0.22787933, 717603.8, 717603.8, 0.0002430803, 10.005506, 9.998049 
2.054396e+3, 1.20132655e+2, -1952872.8, -1788947.4, -87775.94, -0.01409765, -0.43989974, -1750816.4, 11841.279, 0.3476065, 9.998157, 10.000413 
2.0544802e+3, 1.3013391e+2, -1775091.8, -1562062.9, -23969.094, 0.345154, -0.40395042, -1559399.3, 105247.06, 0.2513395, 9.998188, 10.00149 
2.0545599e+3, 1.4013445e+2, -1651611.4, -1425289.3, -62436.332, 0.2174205, -0.46021646, -1409207.5, 157431.92, 0.15236652, 9.9983015, 10.001636 
2.0546389e+3, 1.5013488e+2, -1428374.4, -1226099.0, -40588.777, 0.22800541, -0.58356917, -1218258.4, 250370.25, 0.071473114, 9.999041, 10.001916 
2.0547172e+3, 1.6013514e+2, -1384890.9, -1385652.1, -29011.795, 0.22198254, -0.6521347, -1356257.3, 14363.242, 0.022826005, 9.999722, 9.999693 
2.0547937e+3, 1.7013511e+2, -1420033.4, -1568744.0, -124362.25, 0.082609795, -0.4552178, -1349493.3, -76866.3, 0.0036400491, 9.999745, 9.99775 
2.0548701e+3, 1.8013455e+2, -1279314.9, -1378258.3, -180281.86, -0.035079736, -0.2603003, -1141840.0, 32799.883, 0.00008593674, 9.999726, 9.998395 
2.0549504e+3, 1.901322e+2, -1074720.6, -1133520.4, -125180.016, 0.08654079, -0.37407267, -975534.4, 101129.33, 0.0, 10.000055, 9.999238 
2.055031e+3, 2.0012987e+2, -911925.8, -994262.6, -139509.0, 0.20523554, -0.48974472, -807637.7, 171048.5, 0.0, 10.000454, 9.9993305 
2.055108e+3, 2.1013008e+2, -707674.1, -807296.94, -183963.19, 0.105662785, -0.4054752, -566897.94, 313784.75, 0.0, 10.001023, 9.999666 
2.0551844e+3, 2.2012998e+2, -621334.44, -861585.9, -227877.77, -0.0018112262, -0.30426094, -483858.78, 298824.0, 0.0, 10.001569, 9.998363 
2.0552614e+3, 2.3012668e+2, -526410.7, -873192.4, -222889.3, 0.043575365, -0.3731947, -417411.7, 267306.88, 0.0, 10.002012, 9.997395 
2.0553386e+3, 2.4012296e+2, -361428.72, -718498.5, -151918.95, 0.0888682, -0.4473923, -305540.75, 281217.25, 0.0, 10.002366, 9.997614 
2.0554167e+3, 2.5012064e+2, -191788.2, -532464.8, -125456.81, 0.027369132, -0.4538078, -150573.8, 338201.97, 0.0, 10.00263, 9.99809 
2.0554954e+3, 2.6011813e+2, -99998.91, -514529.75, -145847.14, -0.026838824, -0.45151642, -53827.266, 336968.1, 0.00000017468948, 10.002917, 9.997404 
2.0555747e+3, 2.701138e+2, 116625.414, -397900.66, -135279.98, 0.00197732, -0.5784417, 150025.31, 442862.7, 0.0000023499456, 10.003894, 9.997061 
2.0556538e+3, 2.801096e+2, 299485.4, -279469.0, -126956.16, -0.00601768, -0.656866, 326101.4, 520980.75, 0.000012284369, 10.004573, 9.996875 
2.0557322e+3, 2.901096e+2, 196899.03, -270096.2, -179358.7, -0.04493696, -0.32610074, 257834.23, 354718.9, 0.0000442123, 10.003157, 9.996948 
2.0558128e+3, 3.0011e+2, 67355.08, -315325.78, -167187.56, 0.12835425, 0.06402384, 130106.84, 130106.84, 0.00011002207, 10.001986, 9.99686 
2.0558953e+3, 3.1010073e+2, 609183.0, 72277.28, 67283.99, 0.08796724, -0.5326886, 617486.44, 617486.44, 0.00021291227, 10.005108, 9.998043 
2.0643938e+3, 1.20050505e+2, -1843993.8, -1727207.1, -26965.262, -0.044823855, -0.4744246, -1721281.8, 42181.063, 0.36771804, 9.998784, 10.000656 
2.0644778e+3, 1.3005286e+2, -1835593.8, -1607329.5, -37044.36, 0.32499176, -0.3154046, -1601468.3, 63971.59, 0.26616043, 9.997903, 10.0012245 
2.0645577e+3, 1.4005221e+2, -1868340.6, -1522560.0, -85407.44, 0.2611636, -0.47225907, -1502614.9, 64829.996, 0.1618756, 9.996843, 10.001568 
2.0646377e+3, 1.5005262e+2, -1530209.8, -1263579.3, -150089.16, 0.26089606, -0.5990315, -1196146.6, 273286.4, 0.07651462, 9.998303, 10.002013 
2.0647171e+3, 1.600529e+2, -1354119.9, -1386530.6, -256783.69, 0.24022552, -0.6649988, -1113030.8, 258393.19, 0.024829434, 10.000009, 9.999572 
2.0647937e+3, 1.7005242e+2, -1312266.4, -1550847.6, -238146.45, 0.106553294, -0.4844813, -1165203.9, 108232.15, 0.0041003036, 10.000629, 9.997449 
2.0648703e+3, 1.8005157e+2, -1114950.3, -1303912.0, -140658.78, -0.0031986886, -0.2972176, -1039986.4, 135466.55, 0.000108260756, 10.00088, 9.998346 
2.0649505e+3, 1.9004992e+2, -1028716.44, -1093450.5, -116692.234, 0.08953814, -0.35306513, -939985.56, 137484.67, 0.0, 10.00029, 9.999402 
2.0650305e+3, 2.0004818e+2, -1013872.44, -1044171.3, -143504.58, 0.1867853, -0.4208989, -884719.9, 94767.19, 0.0, 9.999755, 9.999329 
2.0651084e+3, 2.1004756e+2, -774338.2, -854570.94, -148069.11, 0.11766967, -0.40753323, -661047.3, 220443.67, 0.0, 10.000632, 9.999531 
2.065186e+3, 2.2004664e+2, -609159.75, -846893.44, -170916.88, 0.045167696, -0.379496, -519839.4, 263658.78, 0.0, 10.001614, 9.99844 
2.0652634e+3, 2.3004387e+2, -527181.0, -844734.1, -216580.78, 0.0727299, -0.41918838, -417411.03, 268117.03, 0.0, 10.00189, 9.997644 
2.0653409e+3, 2.4004069e+2, -402892.75, -735147.9, -174136.28, 0.10007165, -0.4568445, -328350.8, 259210.75, 0.0, 10.002074, 9.997636 
2.0654193e+3, 2.5003812e+2, -236241.5, -575639.1, -127097.14, 0.050273553, -0.47395724, -193922.94, 295660.63, 0.0, 10.00243, 9.997885 
2.0654982e+3, 2.6003546e+2, -124711.586, -548970.5, -108821.22, 0.024585791, -0.46528426, -98427.61, 293178.4, 0.00000012472299, 10.002848, 9.9972 
2.0655781e+3, 2.700317e+2, -8455.904, -475129.1, -126830.39, 0.041760452, -0.51730514, 23785.955, 317428.22, 0.0000018192295, 10.003124, 9.996894 
2.0656575e+3, 2.800275e+2, 122689.65, -401491.88, -153711.84, -0.011254847, -0.5752922, 164439.14, 360122.66, 0.000008841573, 10.00351, 9.996551 
2.0657353e+3, 2.9002497e+2, 484031.47, -192904.13, -189062.19, -0.13075213, -0.45118514, 533255.5, 630967.8, 0.00003371266, 10.005404, 9.996392 
2.0658167e+3, 3.000242e+2, 816234.94, 36255.965, -120142.48, 0.09351249, -0.13011387, 834321.44, 834321.44, 0.00009018925, 10.007142, 9.996811 
2.0658997e+3, 3.1001645e+2, 344820.94, -3024.6255, 115858.61, 0.1774546, -0.6236765, 379877.47, 379877.47, 0.00018456778, 10.003045, 9.998522 
2.0743948e+3, 1.19968556e+2, -1845952.9, -1730503.8, -8807.997, 0.17448643, -0.55569774, -1729835.6, 34423.26, 0.38886976, 9.998781, 10.000624 
2.0744744e+3, 1.299723e+2, -1891725.3, -1698881.1, -92110.79, 0.21305786, -0.20482843, -1661955.5, 4270.647, 0.28190908, 9.997885, 10.000462 
2.0745529e+3, 1.399702e+2, -1970598.0, -1714529.1, -83598.016, 0.15739286, -0.41282567, -1689653.6, -121404.73, 0.17213808, 9.996795, 10.000196 
2.0746358e+3, 1.4996988e+2, -1667365.1, -1535169.3, -87791.03, 0.2746101, -0.4293832, -1491375.4, -21125.611, 0.08207624, 9.998287, 10.0000305 
2.0747183e+3, 1.5996946e+2, -1338851.1, -1357111.9, -220232.95, 0.36742806, -0.42069405, -1127559.4, 244691.9, 0.027111659, 10.000019, 9.999769 
2.0747957e+3, 1.6996785e+2, -1146822.5, -1211747.0, -221651.95, 0.25674492, -0.53399414, -955268.25, 318998.22, 0.0046569863, 10.000649, 9.999771 
2.0748726e+3, 1.7996614e+2, -1045412.3, -1170163.3, -147561.23, 0.13138998, -0.62687266, -947584.7, 228698.52, 0.00014131474, 10.000923, 9.999246 
2.0749506e+3, 1.8996602e+2, -1062608.5, -1167207.9, -141283.45, 0.112130515, -0.5150323, -964255.4, 114031.54, 0.0000000002137382, 10.0003, 9.998894 
2.075029e+3, 1.9996575e+2, -1018715.56, -1053150.3, -137591.14, 0.10009708, -0.39813915, -897268.7, 83023.01, 0.0, 9.999751, 9.999268 
2.0751084e+3, 2.09964e+2, -756389.94, -810354.0, -102174.61, 0.07386747, -0.5195928, -677694.7, 204610.11, 0.0, 10.0006, 9.99985 
2.0751876e+3, 2.1996206e+2, -616286.5, -847591.8, -147409.72, 0.06060869, -0.6191236, -544575.44, 239744.75, 0.0, 10.001555, 9.998462 
2.0752653e+3, 2.2996098e+2, -553753.5, -893476.75, -205022.28, 0.101911865, -0.46588683, -457368.8, 228966.9, 0.0, 10.001863, 9.997324 
2.0753428e+3, 2.3995936e+2, -408626.1, -744599.2, -165155.67, 0.12392265, -0.32384238, -341037.03, 247319.97, 0.0, 10.00206, 9.99758 
2.0754214e+3, 2.499557e+2, -220628.03, -546726.06, -110019.375, 0.0578519, -0.46409264, -186981.23, 303410.2, 0.0, 10.002439, 9.998082 
2.075501e+3, 2.599524e+2, -148322.5, -584172.56, -100830.23, 0.021972205, -0.5302336, -126126.62, 266294.94, 0.000000021824269, 10.002791, 9.996984 
2.0755813e+3, 2.699509e+2, -52729.855, -572621.8, -113320.24, 0.07305892, -0.2985422, -29103.285, 265332.25, 0.00000084431264, 10.003146, 9.996216 
2.0756608e+3, 2.7994722e+2, 90225.875, -465966.84, -114704.86, 0.010698062, -0.23772433, 112953.04, 309423.9, 0.000005133315, 10.003505, 9.996107 
2.075739e+3, 2.8993735e+2, 440361.97, -226804.47, -94633.43, -0.2677296, -0.8352098, 453525.44, 552091.2, 0.000023660526, 10.005151, 9.9962845 
2.0758215e+3, 2.999328e+2, 802155.1, 149251.98, -146304.11, -0.114085786, -0.92154413, 833440.2, 834047.75, 0.000071130155, 10.006553, 9.997858 
2.0759025e+3, 3.0993694e+2, 413864.4, 95140.6, -158189.78, 0.1825276, -0.38320327, 479047.0, 479047.0, 0.00015300709, 10.00327, 9.999077 
2.0843942e+3, 1.1988426e+2, -2056877.3, -1820348.9, -114041.47, 0.35231182, -0.6697761, -1774321.0, -9240.221, 0.40993002, 9.997371, 10.000541 
2.0844722e+3, 1.2988843e+2, -1732672.9, -1658033.9, -186339.1, 0.17101558, -0.26511976, -1505313.9, 161730.39, 0.29801235, 9.999211, 10.000372 
2.084551e+3, 1.3988662e+2, -1453367.8, -1504221.0, -119092.85, 0.11911782, -0.42914176, -1357017.5, 212047.97, 0.18298064, 10.000695, 9.999883 
2.084634e+3, 1.4988586e+2, -1489063.0, -1512857.1, -41394.098, 0.23712344, -0.43906826, -1457890.3, 13182.282, 0.088167645, 9.999793, 9.99946 
2.0847169e+3, 1.5988508e+2, -1523006.6, -1419996.5, -80292.08, 0.34307402, -0.4313385, -1376109.9, -3030.8225, 0.029713616, 9.998631, 9.999983 
2.0847954e+3, 1.698843e+2, -1307253.3, -1176325.1, -155223.95, 0.28803596, -0.5453279, -1073325.5, 201759.2, 0.005333032, 9.999068, 10.00077 
2.0848733e+3, 1.7988347e+2, -1189201.6, -1200801.6, -177780.5, 0.21584547, -0.6313814, -1017126.56, 159964.55, 0.00018960002, 9.999769, 9.999592 
2.0849511e+3, 1.8988307e+2, -1046246.44, -1189835.4, -187351.14, 0.14637028, -0.53304046, -917404.7, 161693.05, 0.000000020895914, 10.000553, 9.998611 
2.085029e+3, 1.9988234e+2, -814109.1, -975716.25, -160961.98, 0.082594976, -0.4359151, -714807.2, 266300.22, 0.0, 10.00125, 9.999076 
2.0851089e+3, 2.0988046e+2, -646995.7, -763691.1, -143132.4, 0.06951069, -0.55905116, -550775.2, 332347.13, 0.0, 10.00138, 9.999793 
2.0851889e+3, 2.198786e+2, -608291.6, -817479.4, -199447.2, 0.075526394, -0.6524804, -487676.56, 297460.6, 0.0, 10.001498, 9.998699 
2.0852672e+3, 2.2987792e+2, -463517.7, -796341.8, -218088.06, 0.10712557, -0.50196606, -355602.63, 331544.66, 0.0, 10.002247, 9.997809 
2.085345e+3, 2.3987664e+2, -291095.53, -708443.56, -140423.72, 0.12317297, -0.35653803, -248246.84, 340916.84, 0.0, 10.0029545, 9.997397 
2.0854238e+3, 2.4987295e+2, -215659.8, -640805.6, -155470.92, 0.06766418, -0.42868972, -164872.78, 326329.25, 0.0, 10.002891, 9.997214 
2.0855036e+3, 2.598695e+2, -146824.31, -588865.44, -180194.08, 0.048140615, -0.44454277, -82678.27, 310558.94, 0.0, 10.002823, 9.996936 
2.0855847e+3, 2.6986742e+2, 68368.16, -428479.3, -117021.414, 0.10983546, -0.32257164, 94550.25, 389804.13, 0.000000115745564, 10.00361, 9.996984 
2.085665e+3, 2.7986345e+2, 253356.64, -311286.03, -36235.266, 0.074896306, -0.37109506, 255672.5, 452961.13, 0.0000020138657, 10.004287, 9.996798 
2.0857431e+3, 2.8985524e+2, 135602.44, -307946.4, 8069.5127, -0.21916705, -0.8579287, 135749.19, 235114.89, 0.000014484927, 10.002777, 9.996866 
2.0858249e+3, 2.9985207e+2, 67458.21, -273265.94, -9340.385, -0.13129406, -0.82900375, 67714.07, 69107.88, 0.000052170788, 10.001768, 9.997271 
2.0859072e+3, 3.0985412e+2, 836233.2, 238007.13, -231484.63, 0.16588958, -0.3858827, 915344.6, 915344.6, 0.00011918466, 10.006463, 9.998507 
2.0943916e+3, 1.1979782e+2, -2096879.3, -1868317.0, -53476.953, 0.37226576, -0.7521168, -1856423.8, -90496.55, 0.42994058, 9.997221, 10.000286 
2.0944712e+3, 1.2980051e+2, -1676967.0, -1574439.9, -115556.12, 0.17786907, -0.53801626, -1499286.8, 168615.55, 0.31401625, 9.999253, 10.001016 
2.0945518e+3, 1.3980107e+2, -1379562.4, -1385820.8, -109486.766, 0.12553655, -0.5342139, -1273160.1, 296737.94, 0.19429262, 10.000881, 10.000785 
2.0946325e+3, 1.4980032e+2, -1404251.9, -1356342.6, -86021.86, 0.117278814, -0.65179807, -1291002.3, 180900.58, 0.094824284, 9.999879, 10.000576 
2.0947129e+3, 1.5979958e+2, -1501207.8, -1373069.3, -91163.266, 0.114490725, -0.73387283, -1325713.1, 48194.625, 0.032688897, 9.998618, 10.000322 
2.094793e+3, 1.6980171e+2, -1345141.5, -1251663.6, -124090.42, 0.16603723, -0.5239357, -1165801.9, 110088.69, 0.0061590113, 9.999047, 10.000267 
2.0948727e+3, 1.7980361e+2, -1210958.5, -1242610.3, -150075.9, 0.21283917, -0.29507646, -1075876.4, 102000.14, 0.00026052183, 9.999757, 9.99931 
2.0949517e+3, 1.8980102e+2, -1055168.4, -1207715.8, -154192.89, 0.166955, -0.39992505, -959415.56, 120487.766, 0.00000016154512, 10.000547, 9.998493 
2.0950302e+3, 1.9979778e+2, -836974.56, -1018711.06, -146866.58, 0.10852516, -0.5364734, -755138.4, 226797.6, 0.0, 10.001233, 9.998787 
2.0951101e+3, 2.097968e+2, -683273.25, -829014.94, -137263.3, 0.08279948, -0.5316863, -600736.94, 283207.72, 0.0, 10.001338, 9.999363 
2.09519e+3, 2.1979605e+2, -589024.2, -764133.2, -182590.6, 0.06249854, -0.4936731, -474081.5, 311869.3, 0.0, 10.00144, 9.999092 
2.0952685e+3, 2.2979459e+2, -388958.44, -627306.06, -182640.47, 0.063525185, -0.5190186, -290049.84, 397913.22, 0.0, 10.002187, 9.998999 
2.0953472e+3, 2.3979264e+2, -323196.44, -752739.1, -133347.1, 0.06256464, -0.52381444, -285167.13, 304813.9, 0.0, 10.00286, 9.997138 
2.0954263e+3, 2.4978976e+2, -344999.9, -905307.94, -157269.45, 0.054637633, -0.3757804, -303875.3, 188141.33, 0.0, 10.00287, 9.99541 
2.0955063e+3, 2.5978646e+2, -152852.42, -590248.56, -163916.84, 0.05671282, -0.23938063, -98241.914, 295813.5, 0.0, 10.002778, 9.996945 
2.0955881e+3, 2.6978153e+2, 176788.5, -168469.69, -74432.78, 0.11138071, -0.54562104, 192151.55, 488246.44, 0.0, 10.003457, 9.998843 
2.0956697e+3, 2.797767e+2, 316602.4, -98099.41, -59030.797, 0.12447252, -0.86490786, 324841.47, 522973.34, 0.00000039293647, 10.003943, 9.998423 
2.0957476e+3, 2.897773e+2, 208776.1, -154114.47, -64574.086, -0.031773787, -0.59395194, 219924.17, 320049.25, 0.000007650347, 10.002763, 9.997934 
2.0958272e+3, 2.9977813e+2, -44040.746, -527124.2, 45821.453, -0.08369046, -0.17509484, -39732.902, -37614.418, 0.000036311332, 10.001887, 9.99546 
2.0959128e+3, 3.0976692e+2, 638213.4, 19847.926, 35625.35, 0.112883285, -0.74249566, 640259.06, 640259.06, 0.00009098789, 10.005628, 9.9974165 
2.1043889e+3, 1.1971391e+2, -1858738.9, -1676309.9, 69352.86, 0.38181743, -0.63931423, -1652938.6, 113812.234, 0.44859928, 9.998265, 10.001655 
2.1044688e+3, 1.2971444e+2, -1754251.1, -1577833.1, -44998.45, 0.0865647, -0.70466775, -1567018.4, 101725.09, 0.3298663, 9.998431, 10.001338 
2.1045515e+3, 1.3971691e+2, -1683498.6, -1483020.4, -69354.055, 0.17900391, -0.54844874, -1461366.6, 109353.46, 0.20615475, 9.998277, 10.001245 
2.1046317e+3, 1.4971678e+2, -1447738.9, -1312748.4, -100590.68, 0.10616113, -0.66231805, -1259106.9, 213611.34, 0.10215144, 9.999261, 10.001213 
2.1047112e+3, 1.5971637e+2, -1275311.0, -1269308.9, -125530.87, 0.025686163, -0.756948, -1146743.3, 227976.64, 0.036114734, 10.000205, 10.00029 
2.104792e+3, 1.697183e+2, -1220907.0, -1268738.9, -173995.77, 0.1347362, -0.5173395, -1069191.3, 207516.25, 0.007176738, 10.000233, 9.9995775 
2.1048728e+3, 1.7971984e+2, -1165266.8, -1221182.4, -200910.34, 0.25734368, -0.26926306, -990378.3, 188320.89, 0.0003661867, 10.000068, 9.9993105 
2.1049522e+3, 1.8971735e+2, -1073824.6, -1131355.3, -152953.81, 0.21486029, -0.4194936, -946954.7, 133767.8, 0.00000091193453, 10.00005, 9.999259 
2.105031e+3, 1.9971442e+2, -994309.25, -1092097.0, -82853.01, 0.14832206, -0.5864965, -946999.0, 35750.426, 0.0, 10.000136, 9.998813 
2.1051113e+3, 2.0971364e+2, -793809.2, -976944.8, -94979.78, 0.117002904, -0.50154704, -753445.9, 131313.84, 0.0, 10.000984, 9.998519 
2.1051916e+3, 2.1971287e+2, -558440.44, -790880.9, -172633.05, 0.0938949, -0.39043766, -466551.75, 320218.03, 0.0, 10.00183, 9.998719 
2.1052703e+3, 2.2971079e+2, -407273.9, -617513.6, -249648.05, 0.05427337, -0.47957283, -241516.8, 447270.16, 0.0, 10.001988, 9.999156 
2.1053489e+3, 2.3970836e+2, -409264.38, -755942.7, -241815.48, 0.02096869, -0.5511952, -285078.44, 305728.97, 0.0, 10.002107, 9.9974785 
2.1054284e+3, 2.497057e+2, -345249.88, -846117.8, -151332.39, 0.029589485, -0.42432895, -303077.16, 189761.58, 0.0, 10.002625, 9.995932 
2.1055087e+3, 2.597025e+2, -121542.484, -558987.25, -48585.086, 0.06161568, -0.32526115, -116211.33, 278664.06, 0.0, 10.002918, 9.997096 
2.1055901e+3, 2.6969814e+2, -127508.94, -341895.88, -79806.79, 0.11049764, -0.55750436, -101062.734, 195849.63, 0.0, 10.001482, 9.998598 
2.1056716e+3, 2.796949e+2, -181489.53, -315992.94, -155054.08, 0.13532743, -0.7047251, -79730.71, 119206.734, 0.00000006547354, 10.000423, 9.998623 
2.105751e+3, 2.89696e+2, 280157.56, -39404.906, -192049.1, 0.06040553, -0.43688014, 370202.06, 471126.88, 0.000004735315, 10.00292, 9.998641 
2.105831e+3, 2.9969412e+2, 437482.0, -202364.64, -81535.17, 0.014843845, -0.3587165, 447708.5, 450650.84, 0.000028510507, 10.004777, 9.99631 
2.105913e+3, 3.0968612e+2, -123443.79, -186689.78, 126658.96, -0.05971658, -0.7058485, -24519.836, -24519.836, 0.00007646736, 9.999676, 9.99887 
2.1143864e+3, 1.1963299e+2, -1673823.6, -1397002.4, 113338.195, 0.30766743, -0.30671412, -1356519.0, 411028.7, 0.46656317, 9.998319, 10.005199 
2.1144643e+3, 1.296307e+2, -1763100.0, -1587160.5, -57316.133, -0.1793577, -0.74472654, -1570135.9, 99428.2, 0.34608045, 9.9984, 10.001294 
2.11455e+3, 1.3963425e+2, -1703309.5, -1503208.4, -49091.313, 0.23410113, -0.47053584, -1491813.5, 79717.27, 0.21890919, 9.998185, 10.00112 
2.1146314e+3, 1.4963543e+2, -1444790.6, -1313423.3, -56408.75, 0.18337686, -0.44835967, -1292525.8, 180991.78, 0.110347085, 9.999263, 10.001215 
2.1147114e+3, 1.5963574e+2, -1292780.1, -1321274.1, -108005.39, 0.054747745, -0.46394002, -1198086.1, 177427.33, 0.040102176, 10.000279, 9.999889 
2.1147925e+3, 1.6963395e+2, -1276576.9, -1398574.5, -179434.39, 0.17565493, -0.51770645, -1148056.4, 129480.06, 0.008443992, 10.000287, 9.998662 
2.1148732e+3, 1.7963186e+2, -1143092.4, -1177311.4, -207598.8, 0.32211673, -0.5718051, -951899.25, 227663.11, 0.00052604213, 10.000079, 9.999606 
2.1149524e+3, 1.896319e+2, -957270.1, -889425.5, -148958.16, 0.2650463, -0.59886223, -770575.9, 310980.9, 0.0000034897541, 10.000051, 10.000921 
2.1150312e+3, 1.9963211e+2, -973034.94, -1044571.3, -67016.17, 0.16958316, -0.5867975, -932839.1, 50710.05, 0.0, 10.00012, 9.999148 
2.1151122e+3, 2.0963088e+2, -887913.94, -1164768.4, -53142.836, 0.14536296, -0.4641549, -878063.5, 7504.81, 0.0, 10.00095, 9.997249 
2.1151936e+3, 2.1962905e+2, -647686.25, -953364.0, -150860.02, 0.13111058, -0.3382209, -585773.0, 201821.61, 0.0, 10.001733, 9.997649 
2.115272e+3, 2.296264e+2, -472922.9, -741327.75, -239516.08, 0.051896077, -0.39095408, -332574.34, 357045.06, 0.0, 10.001931, 9.998336 
2.11535e+3, 2.3962365e+2, -363394.94, -646477.06, -226436.9, -0.042572226, -0.453276, -237901.28, 353742.25, 0.0, 10.002045, 9.998259 
2.1154304e+3, 2.4962077e+2, -183205.03, -494974.75, -124471.984, -0.031917688, -0.5545451, -139607.16, 354061.94, 0.0, 10.002557, 9.998377 
2.1155113e+3, 2.5961754e+2, -116805.32, -516791.2, -75093.45, 0.027982367, -0.6501946, -103171.945, 292526.8, 0.0, 10.002786, 9.997447 
2.1155913e+3, 2.6961657e+2, -251546.03, -621463.2, -138374.19, 0.0876476, -0.4084023, -205513.08, 92199.805, 0.0, 10.0015745, 9.996637 
2.1156712e+3, 2.796165e+2, -220949.53, -451701.03, -123699.6, 0.07060195, -0.055330973, -167171.05, 32547.035, 0.00000005479561, 10.000659, 9.997574 
2.1157531e+3, 2.8961185e+2, 255627.23, -35499.17, -58747.313, 0.018656103, -0.3603741, 267035.03, 368792.84, 0.0000044705935, 10.002673, 9.998791 
2.1158364e+3, 2.9960263e+2, 511921.7, 160143.66, -144470.8, 0.078675, -1.1193188, 563648.06, 567488.56, 0.00002695633, 10.003914, 9.999197 
2.1159102e+3, 3.096102e+2, 91191.41, 150839.58, -48118.83, -0.31187916, -0.3311838, 177627.3, 177627.3, 0.00007316576, 10.000125, 10.000988 
2.1243845e+3, 1.1954996e+2, -1520328.0, -1383560.4, 14077.858, 0.20939733, -0.31138012, -1382126.4, 386236.8, 0.48543465, 10.000796, 10.004371 
2.1244621e+3, 1.29547e+2, -1826752.0, -1642173.6, -51080.543, -0.19067182, -0.7845072, -1628980.5, 41403.13, 0.3637423, 9.99814, 10.000869 
2.124549e+3, 1.39551e+2, -1528667.6, -1465022.3, -47363.336, 0.2821821, -0.41758224, -1439783.9, 132563.25, 0.23315269, 9.999643, 10.000757 
2.1246311e+3, 1.4955205e+2, -1464526.1, -1331021.1, -88478.38, 0.25968185, -0.3901088, -1286938.9, 187397.33, 0.1197026, 9.999183, 10.001139 
2.1247114e+3, 1.5955204e+2, -1546172.8, -1425253.0, -138718.22, 0.14923283, -0.43503863, -1334391.5, 41944.2, 0.044803485, 9.998439, 10.00005 
2.1247917e+3, 1.6955008e+2, -1462404.6, -1443716.0, -130513.45, 0.18416691, -0.5374298, -1322212.8, -43854.418, 0.01004214, 9.998829, 9.999046 
2.124872e+3, 1.7954805e+2, -1218293.3, -1204763.6, -71056.1, 0.24463324, -0.6196086, -1140151.0, 40230.355, 0.0007722133, 9.99952, 9.999684 
2.1249521e+3, 1.8954831e+2, -852640.9, -871874.5, -118344.98, 0.22731167, -0.60571206, -743522.6, 338851.72, 0.000010944595, 10.000911, 10.000623 
2.1250322e+3, 1.9954865e+2, -681697.7, -909492.44, -168452.27, 0.19319196, -0.5564241, -592251.06, 392115.78, 0.0, 10.0021515, 9.999093 
2.1251133e+3, 2.0954712e+2, -806620.6, -1099408.6, -107544.9, 0.15113012, -0.47583452, -771363.56, 115025.03, 0.0, 10.001405, 9.997474 
2.1251944e+3, 2.1954507e+2, -833231.6, -1041775.8, -86381.69, 0.121022314, -0.39181322, -802098.9, -13682.221, 0.0, 10.000462, 9.997652 
2.1252735e+3, 2.2954263e+2, -622852.56, -841054.5, -119121.52, 0.083954476, -0.40544704, -570420.4, 120020.19, 0.0, 10.001028, 9.998081 
2.1253523e+3, 2.3954011e+2, -401117.53, -649771.9, -90387.07, 0.03279654, -0.4333162, -371733.7, 220729.84, 0.0, 10.001726, 9.998388 
2.1254319e+3, 2.4953736e+2, -314886.88, -500860.03, -111809.34, -0.025546309, -0.56129676, -262450.5, 232034.95, 0.0, 10.001408, 9.998888 
2.1255122e+3, 2.5953448e+2, -323761.63, -602476.5, -149144.67, -0.029260965, -0.6635089, -258999.92, 137509.7, 0.0, 10.001302, 9.997572 
2.1255933e+3, 2.6953334e+2, -9051.252, -526398.0, -133284.42, 0.07758317, -0.42523873, 23267.9, 321795.06, 0.0, 10.003345, 9.996432 
2.1256739e+3, 2.7953255e+2, 365412.84, -177969.61, -49087.78, 0.10382345, -0.13185468, 369811.7, 570353.2, 0.000000117451826, 10.0047245, 9.997498 
2.1257539e+3, 2.8952822e+2, -115186.195, -203505.56, -34985.914, -0.009099997, -0.40490833, -103006.805, -427.65744, 0.0000050467984, 10.000091, 9.998872 
2.1258357e+3, 2.995211e+2, -534987.8, -376787.3, -65606.89, 0.05757311, -0.9594937, -353120.28, -348477.8, 0.00002692745, 9.996828, 9.998941 
2.1259145e+3, 3.0952707e+2, 952331.3, 496316.56, -162938.92, -0.19343579, -0.2791541, 1004567.5, 1004567.5, 0.00007081512, 10.006361, 10.000345 
2.1344626e+3, 1.2946332e+2, -1895691.4, -1759056.8, 12260.345, 0.083110295, -0.8102073, -1757965.3, -86762.85, 0.38411817, 9.998118, 9.999916 
2.1345486e+3, 1.3946705e+2, -1556243.9, -1538862.6, -36632.62, 0.2799411, -0.38160694, -1509903.9, 63266.047, 0.24951555, 9.999748, 10.000067 
2.1346304e+3, 1.4946623e+2, -1475894.5, -1356764.1, -119841.53, 0.29843846, -0.5106319, -1282501.0, 192676.72, 0.13052814, 9.999211, 10.000953 
2.134711e+3, 1.5946473e+2, -1499307.9, -1324322.1, -146761.1, 0.28174663, -0.7110663, -1240953.0, 136238.55, 0.050404422, 9.998412, 10.000785 
2.1347898e+3, 1.6946647e+2, -1340557.8, -1193507.6, -102304.6, 0.13193098, -0.5901675, -1141047.9, 138126.56, 0.012084308, 9.998832, 10.0007715 
2.1348687e+3, 1.794684e+2, -1221606.0, -1216451.5, -32308.057, -0.020143898, -0.40846667, -1186618.0, -5462.2593, 0.001155736, 9.999537, 9.999597 
2.1349512e+3, 1.8946661e+2, -1014561.2, -1209553.3, -57218.926, 0.068504915, -0.43161038, -999010.9, 84164.24, 0.000030850606, 10.000914, 9.998304 
2.1350342e+3, 1.9946398e+2, -723076.8, -987399.1, -158252.2, 0.18324158, -0.489236, -649057.6, 336145.47, 0.0, 10.002115, 9.998577 
2.135114e+3, 2.0946226e+2, -695323.94, -861943.5, -146262.47, 0.11471598, -0.53251016, -610308.94, 276912.88, 0.0, 10.001372, 9.999122 
2.1351936e+3, 2.1946077e+2, -766664.1, -892695.44, -95059.65, 0.031930782, -0.54326946, -715630.2, 73607.69, 0.0, 10.000416, 9.998696 
2.1352747e+3, 2.294593e+2, -610084.75, -809669.94, -83003.414, 0.12135286, -0.50809216, -580077.0, 111175.65, 0.0, 10.001005, 9.998309 
2.1353555e+3, 2.3945744e+2, -434810.75, -710351.25, -86018.45, 0.19501278, -0.47805187, -410162.34, 183108.53, 0.0, 10.001689, 9.997988 
2.1354336e+3, 2.4945505e+2, -395440.56, -671200.5, -127209.65, 0.014585919, -0.47444272, -345722.1, 149569.98, 0.0, 10.001421, 9.997711 
2.1355122e+3, 2.5945273e+2, -337765.22, -624838.0, -115109.49, -0.13979091, -0.42664045, -297310.06, 100002.74, 0.0, 10.001279, 9.997427 
2.135596e+3, 2.6944876e+2, 33838.035, -382232.88, -38071.523, 0.043493483, -0.5493461, 37292.99, 336645.7, 0.00000000014169585, 10.003106, 9.997538 
2.135679e+3, 2.79444e+2, 343632.22, -103399.766, -111691.414, 0.16163944, -0.76038533, 369984.94, 571385.44, 0.000000256191, 10.004219, 9.998246 
2.1357536e+3, 2.894442e+2, -86025.45, -199912.61, -239524.6, -0.03645824, -0.5984183, 103231.3, 206630.2, 0.0000052967753, 10.00032, 9.998793 
2.1358308e+3, 2.994462e+2, -600891.94, -674565.75, 42897.01, -0.10450297, -0.1529428, -581185.8, -575806.0, 0.000025183504, 9.997556, 9.996529 
2.1359223e+3, 3.0943626e+2, 576304.06, 17622.375, 265737.8, -0.024621442, -0.69204557, 682512.06, 682512.06, 0.00006321881, 10.00509, 9.997659 
2.1444634e+3, 1.2938094e+2, -1632906.6, -1605605.6, 35644.805, 0.2952719, -0.71546394, -1581086.9, 90925.23, 0.40760165, 9.999868, 10.000421 
2.1445471e+3, 1.3938332e+2, -1760739.1, -1626107.4, 54842.37, 0.26401916, -0.45998427, -1606595.1, -32606.664, 0.26811564, 9.998288, 10.000075 
2.1446286e+3, 1.4938225e+2, -1593783.4, -1456136.9, -31879.656, 0.2670906, -0.5852112, -1449111.9, 26888.35, 0.14296411, 9.998581, 10.000461 
2.1447097e+3, 1.5938087e+2, -1362529.8, -1267697.5, -63298.754, 0.29876143, -0.7325228, -1236024.9, 141989.94, 0.057087187, 9.999391, 10.0007105 
2.1447892e+3, 1.6938308e+2, -1064834.5, -1006414.8, -89579.84, 0.1320437, -0.6005314, -941402.75, 338588.16, 0.014719365, 10.00051, 10.001268 
2.1448687e+3, 1.7938529e+2, -952056.9, -1082852.4, -103332.62, -0.041917272, -0.42691922, -895166.06, 286800.66, 0.0017550356, 10.001388, 9.999619 
2.1449514e+3, 1.893829e+2, -1118794.5, -1329884.4, -57287.06, 0.056175295, -0.4657723, -1104249.8, -20255.363, 0.00008036648, 10.000508, 9.997672 
2.1450347e+3, 1.9937968e+2, -1122478.8, -1188324.9, -47487.69, 0.19205168, -0.53079253, -1097617.6, -111586.89, 0.000000018813253, 9.99941, 9.998501 
2.1451142e+3, 2.0937875e+2, -816763.4, -855262.06, -90878.14, 0.102703236, -0.5371709, -743118.3, 144922.83, 0.0, 10.000261, 9.999699 
2.1451938e+3, 2.193782e+2, -606466.9, -790068.06, -102354.875, 0.00031835085, -0.5047252, -560776.1, 229271.08, 0.0, 10.001399, 9.998931 
2.1452753e+3, 2.2937682e+2, -505529.47, -780128.94, -123122.56, 0.10476043, -0.45412812, -458410.16, 233652.17, 0.0, 10.001813, 9.998123 
2.1453571e+3, 2.3937479e+2, -397028.16, -719798.44, -154176.45, 0.20991117, -0.4181546, -335219.34, 258864.02, 0.0, 10.0020685, 9.997741 
2.1454355e+3, 2.4937166e+2, -295849.0, -652399.44, -167861.23, 0.054525074, -0.46032256, -229258.03, 266854.28, 0.0, 10.00223, 9.997451 
2.1455139e+3, 2.5936866e+2, -211356.73, -548253.3, -97648.234, -0.09281868, -0.46352297, -185100.11, 213039.38, 0.0, 10.002074, 9.997573 
2.1455967e+3, 2.6936573e+2, -389600.72, -517981.38, -53755.668, 0.0133138895, -0.5304621, -370064.88, -69896.336, 0.00000000016893417, 9.999903, 9.998148 
2.145679e+3, 2.7936214e+2, -526786.56, -516661.3, -139731.11, 0.09796063, -0.67442864, -381901.16, -179696.67, 0.0000002738674, 9.998198, 9.998317 
2.1457556e+3, 2.8936154e+2, 289131.88, -65400.965, -277448.03, 0.011152302, -0.55245864, 441108.22, 545321.5, 0.0000047479944, 10.003108, 9.998371 
2.1458347e+3, 2.9936346e+2, 845849.7, -3982.2524, -16631.426, 0.021240205, -0.08184382, 846175.06, 852372.3, 0.00002151286, 10.007556, 9.996351 
2.1459219e+3, 3.0935332e+2, -490328.28, -399428.34, 304881.56, -0.10375562, -0.6504108, -136627.66, -136627.66, 0.00005359743, 9.997358, 9.9985 
2.1544638e+3, 1.2930053e+2, -1534532.3, -1421670.3, 15758.408, 0.35987028, -0.44605273, -1419511.3, 253295.77, 0.43279883, 10.000004, 10.002627 
2.1545441e+3, 1.3929985e+2, -1701919.0, -1529127.1, 12097.566, 0.15517384, -0.6890958, -1528284.3, 46517.63, 0.28823382, 9.998312, 10.00086 
2.1546255e+3, 1.4930037e+2, -1659965.0, -1592230.4, 6945.092, 0.1221813, -0.6080893, -1591525.6, -114725.06, 0.15688464, 9.998588, 9.999496 
2.1547073e+3, 1.5930091e+2, -1421924.8, -1402249.6, -28838.502, 0.14309043, -0.46238515, -1381617.0, -2815.4233, 0.06501248, 9.999453, 9.999709 
2.1547896e+3, 1.6929998e+2, -1117110.6, -1124672.8, -43248.492, 0.14881864, -0.5569878, -1077478.1, 203328.9, 0.018139776, 10.000553, 10.000427 
2.1548718e+3, 1.792985e+2, -944815.8, -1080798.8, -101252.625, 0.14971301, -0.68474793, -890844.44, 291972.1, 0.0026903055, 10.001438, 9.999613 
2.1549529e+3, 1.8929698e+2, -1038282.4, -1169615.4, -101945.53, 0.16924255, -0.71420336, -982684.75, 102149.17, 0.00019736934, 10.000535, 9.99876 
2.1550336e+3, 1.9929567e+2, -1094209.9, -1133438.0, -55886.88, 0.18011054, -0.6829294, -1054595.1, -67744.086, 0.0000007869328, 9.999423, 9.998873 
2.1551143e+3, 2.0929639e+2, -854783.8, -931153.9, -39171.043, 0.09021613, -0.49972868, -838265.44, 50583.46, 0.0, 10.000242, 9.99919 
2.1551949e+3, 2.1929707e+2, -655181.06, -871938.7, -71636.06, -0.010427877, -0.29399848, -633645.7, 157201.39, 0.0, 10.001319, 9.998405 
2.1552761e+3, 2.2929494e+2, -558954.3, -875782.4, -107110.18, 0.013507553, -0.2587534, -526141.8, 166729.33, 0.0, 10.001747, 9.9974985 
2.1553575e+3, 2.3929198e+2, -418505.9, -744379.2, -142493.03, 0.060593672, -0.2654832, -364987.9, 229914.27, 0.0, 10.001986, 9.997609 
2.1554375e+3, 2.4928726e+2, -271997.44, -583419.7, -154235.89, 0.06542251, -0.49809378, -208540.45, 288404.4, 0.0, 10.002146, 9.997966 
2.155517e+3, 2.592826e+2, -201530.25, -495992.06, -137001.7, 0.03757414, -0.7222464, -147648.23, 251338.63, 0.0, 10.001944, 9.997991 
2.155596e+3, 2.692834e+2, -353156.44, -483360.56, -143801.0, -0.042734127, -0.43663138, -260407.28, 40574.26, 0.0, 10.00008, 9.9983 
2.155675e+3, 2.79285e+2, -508489.6, -564737.0, -91811.95, -0.096649244, -0.05736546, -440590.5, -237620.05, 0.000000100631844, 9.99858, 9.997795 
2.155759e+3, 2.8928018e+2, 171330.06, -236335.7, -24677.508, 0.07517587, -0.2688327, 172818.45, 277838.75, 0.0000031808088, 10.002785, 9.997354 
2.1558443e+3, 2.9927418e+2, 776910.06, 140320.64, -102499.32, 0.2365722, -0.56846553, 793006.8, 800087.9, 0.000016571294, 10.006349, 9.997903 
2.1559153e+3, 3.092775e+2, -243423.0, -52919.15, -128460.14, -0.49656054, -0.11334405, 11750.586, 11750.586, 0.000044960958, 9.998043, 10.000568 
2.164465e+3, 1.2922063e+2, -1527881.9, -1388950.4, 59868.223, 0.51608, -0.29670444, -1366711.8, 306883.56, 0.45757636, 9.99987, 10.003245 
2.1645418e+3, 1.3921832e+2, -1495010.5, -1447415.8, 23911.875, 0.03724116, -0.7585044, -1437477.5, 138123.2, 0.3088363, 9.999963, 10.00089 
2.164624e+3, 1.4921878e+2, -1445257.9, -1596536.8, 30933.6, 0.047936805, -0.6158586, -1439177.0, 38424.035, 0.17204043, 10.000595, 9.9985 
2.1647073e+3, 1.5921944e+2, -1279007.1, -1409013.6, -3157.1228, 0.17044935, -0.3647093, -1278930.5, 100672.49, 0.07433442, 10.000827, 9.9990015 
2.16479e+3, 1.6921768e+2, -1269971.6, -1233474.0, -7180.5967, 0.22135162, -0.4989449, -1232112.1, 49504.855, 0.022589553, 9.999629, 10.000115 
2.1648723e+3, 1.7921545e+2, -1394270.1, -1288009.4, -15290.635, 0.24945065, -0.68417, -1285852.9, -102218.87, 0.00413868, 9.998303, 9.9997015 
2.164953e+3, 1.8921465e+2, -1084531.1, -1133286.3, -34050.773, 0.20031029, -0.68224895, -1067031.3, 18612.09, 0.00045452762, 9.999962, 9.999289 
2.1650335e+3, 1.9921416e+2, -719811.06, -948489.75, -29209.674, 0.1383045, -0.6116627, -716139.0, 271512.38, 0.000007502901, 10.001968, 9.998917 
2.1651143e+3, 2.0921417e+2, -715609.2, -931180.75, -42265.637, 0.043776926, -0.4552996, -707618.6, 182038.14, 0.0, 10.001488, 9.9985895 
2.165195e+3, 2.1921389e+2, -776519.2, -948006.8, -62684.76, -0.044755735, -0.2954699, -756049.1, 35616.105, 0.0, 10.000566, 9.998244 
2.1652772e+3, 2.2921178e+2, -633631.44, -864166.4, -34319.695, 0.016635174, -0.28407454, -628630.75, 65057.61, 0.0, 10.001033, 9.997918 
2.1653594e+3, 2.3920922e+2, -454361.53, -741412.94, -15395.549, 0.11570362, -0.29035652, -453538.2, 142176.6, 0.0, 10.001645, 9.997798 
2.165439e+3, 2.4920557e+2, -446260.25, -674585.25, -80382.32, 0.08372231, -0.41454154, -420800.44, 76948.55, 0.0, 10.000989, 9.99789 
2.1655175e+3, 2.592018e+2, -430318.5, -615348.56, -84509.79, 0.0015069661, -0.54794854, -397530.16, 2254.7417, 0.0, 10.000407, 9.997913 
2.1655974e+3, 2.6920122e+2, 36606.395, -302862.9, -95315.25, -0.014860492, -0.3915217, 61537.734, 363330.0, 0.0, 10.002791, 9.998234 
2.165678e+3, 2.7920163e+2, 417183.75, -140222.5, -60076.473, 0.03162744, -0.12106886, 423585.22, 627376.3, 0.0000000029805467, 10.005032, 9.997603 
2.16576e+3, 2.8919822e+2, -197801.72, -432631.5, -1196.6443, 0.05105762, -0.16728818, -197795.63, -91968.24, 0.0000013452404, 10.000345, 9.99717 
2.1658428e+3, 2.9919237e+2, -765823.2, -611628.06, -17288.238, 0.06775012, -0.44876733, -609713.5, -601826.75, 0.000010696579, 9.995764, 9.997848 
2.1659186e+3, 3.0919352e+2, 855597.44, 447245.13, -197432.4, -0.34655812, -0.20430876, 935441.44, 935441.44, 0.000035506215, 10.005748, 10.00028 
2.1744668e+3, 1.2914129e+2, -1575134.1, -1510241.4, 20405.285, 0.72686136, -0.2946143, -1504358.4, 170017.44, 0.48078975, 10.000102, 10.001679 
2.17454e+3, 1.3913903e+2, -1536934.0, -1545130.0, 56606.152, -0.1277995, -0.63661706, -1484277.6, 92105.42, 0.32934, 10.000059, 9.999925 
2.174624e+3, 1.491375e+2, -1496803.4, -1735043.0, 53916.973, 0.014439878, -0.59935427, -1485169.3, -6767.4233, 0.18832743, 10.000666, 9.997511 
2.17471e+3, 1.591362e+2, -1293256.3, -1465819.5, -16326.399, 0.35073143, -0.45724198, -1291725.1, 88696.52, 0.0852701, 10.000934, 9.998565 
2.1747905e+3, 1.6913614e+2, -1246245.1, -1194256.8, -60568.242, 0.3251265, -0.431042, -1154340.3, 128080.89, 0.028395085, 9.999668, 10.000375 
2.1748699e+3, 1.7913619e+2, -1385059.8, -1273259.9, -16475.398, 0.21474265, -0.41119164, -1270882.5, -86464.2, 0.006367479, 9.998318, 9.999796 
2.1749519e+3, 1.8913582e+2, -1090242.3, -1147050.3, 57753.074, 0.12162829, -0.36638436, -1054286.4, 32136.9, 0.0009868387, 9.999965, 9.999193 
2.1750341e+3, 1.9913498e+2, -744405.3, -998578.56, 3774.8674, 0.030565323, -0.31734607, -744349.25, 244084.42, 0.000047582707, 10.001959, 9.99858 
2.1751145e+3, 2.0913203e+2, -769891.7, -1037449.3, -77959.84, -0.06376099, -0.39826068, -748833.5, 141632.25, 0.00000000032497088, 10.001455, 9.997877 
2.1751943e+3, 2.191287e+2, -778253.3, -934823.25, -74323.09, -0.13491692, -0.48983946, -748591.75, 43909.76, 0.0, 10.000494, 9.998368 
2.1752785e+3, 2.2912727e+2, -545570.1, -671669.0, 38.89261, 0.07760667, -0.5100331, -545570.06, 148944.97, 0.0, 10.00099, 9.99926 
2.1753629e+3, 2.3912632e+2, -429549.2, -669563.8, -16556.094, 0.30925724, -0.47230253, -428412.56, 168110.95, 0.0, 10.00157, 9.99832 
2.1754397e+3, 2.4912594e+2, -491619.9, -772604.7, -113801.6, 0.08252378, -0.23934785, -451311.53, 47219.836, 0.0, 10.001014, 9.997202 
2.1755156e+3, 2.5912502e+2, -459748.25, -684853.4, -59965.832, -0.20533682, -0.01816516, -444770.5, -44225.633, 0.0, 10.000448, 9.997415 
2.1756005e+3, 2.6911923e+2, -13177.847, -358026.94, 28971.797, 0.04926628, -0.3558728, -10760.781, 291839.47, 0.0, 10.002585, 9.997953 
2.175686e+3, 2.7911332e+2, 341164.38, -168426.83, -90752.8, 0.34323794, -0.6977732, 356844.06, 561499.75, 0.0, 10.004486, 9.997664 
2.1757588e+3, 2.8911498e+2, -140767.53, -378677.2, -228655.8, -0.088216014, -0.26702082, -1974.953, 104667.22, 0.00000028754212, 10.000623, 9.997407 
2.1758334e+3, 2.9911527e+2, -730596.94, -734419.1, 47140.563, -0.42414993, 0.09328418, -685328.75, -676685.94, 0.0000061160813, 9.996647, 9.996559 
2.1759301e+3, 3.0910453e+2, 526743.94, 50908.93, 288362.53, 0.23627567, -0.6163163, 662668.2, 662668.2, 0.000027415272, 10.004513, 9.998156 
2.1845423e+3, 1.3905805e+2, -1479629.4, -1561564.3, 33126.887, 0.10698967, -0.5091507, -1467911.8, 109272.836, 0.34983045, 10.000949, 9.999294 
2.1846245e+3, 1.4905722e+2, -1393218.8, -1610382.3, -23100.09, 0.009359143, -0.42129144, -1390788.8, 88406.28, 0.2059314, 10.001253, 9.998088 
2.1847099e+3, 1.5905452e+2, -1436517.9, -1515491.1, 12766.922, 0.34438854, -0.46934596, -1434505.3, -53279.97, 0.09816949, 9.999811, 9.998762 
2.1847901e+3, 1.6905437e+2, -1202242.5, -1206503.0, -54929.348, 0.32056808, -0.43131363, -1149402.1, 133823.86, 0.036017943, 10.000167, 10.000044 
2.1848692e+3, 1.7905459e+2, -1036640.7, -1130366.4, -26042.326, 0.21550557, -0.36292538, -1029890.75, 155331.63, 0.009796201, 10.000834, 9.999566 
2.1849519e+3, 1.8905415e+2, -999388.1, -1111155.1, 65651.44, 0.12368232, -0.31014317, -969056.3, 118171.39, 0.0020521113, 10.000628, 9.999114 
2.1850349e+3, 1.9905326e+2, -1008255.5, -1123254.4, 4382.8438, 0.039893784, -0.2613679, -1008088.7, -18850.338, 0.00020967671, 10.000154, 9.998588 
2.1851149e+3, 2.0905013e+2, -944199.1, -1115471.6, -71693.93, -0.05158044, -0.36252895, -918150.2, -26878.508, 0.00000086887735, 10.000241, 9.997924 
2.1851948e+3, 2.1904668e+2, -772622.1, -920878.56, -316.14093, -0.11750622, -0.47350386, -772621.5, 20686.83, 0.0, 10.000471, 9.998481 
2.185279e+3, 2.2904563e+2, -500655.44, -621655.3, 38702.29, 0.064256996, -0.4758704, -489335.38, 205982.39, 0.0, 10.001179, 9.999514 
2.1853638e+3, 2.3904508e+2, -352718.47, -611044.56, -51414.188, 0.26933265, -0.42171523, -342861.7, 254460.38, 0.0, 10.001993, 9.998525 
2.185441e+3, 2.4904445e+2, -249136.6, -636363.3, -141334.39, 0.066459455, -0.2311231, -203038.58, 296293.53, 0.0, 10.002583, 9.997391 
2.1855171e+3, 2.5904334e+2, -129185.68, -518914.38, -29688.352, -0.18711366, -0.04899364, -126937.08, 274410.34, 0.0, 10.002693, 9.99747 
2.1856013e+3, 2.6903823e+2, -380927.13, -560084.4, 55175.047, 0.03577805, -0.30033562, -365298.25, -61900.945, 0.0, 10.000175, 9.997721 
2.1856865e+3, 2.79033e+2, -586931.7, -607425.7, -24107.453, 0.32485664, -0.5615815, -570983.8, -365536.6, 0.0, 9.998066, 9.997748 
2.1857612e+3, 2.8903353e+2, 337094.97, -99762.086, -134384.86, -0.03292697, -0.27209598, 375123.7, 482565.66, 0.000000027227998, 10.003702, 9.99784 
2.1858367e+3, 2.9903284e+2, 1035647.44, 87541.19, 78301.57, -0.38478705, -0.036719874, 1042070.6, 1051519.1, 0.0000044959556, 10.008879, 9.996334 
2.185929e+3, 3.0902392e+2, -649292.4, -469014.1, 285322.78, 0.17711234, -0.5092602, -259930.67, -259930.67, 0.000025054562, 9.9962015, 9.998599 
2.1945491e+3, 1.3897508e+2, -1525290.8, -1637781.4, 191028.1, 0.697656, -0.37025797, -1382399.8, 195609.39, 0.371045, 10.000916, 9.999017 
2.1946254e+3, 1.489781e+2, -1269079.4, -1322414.5, -60787.125, 0.007657103, -0.045155305, -1229367.5, 250612.03, 0.22535217, 10.001274, 10.000367 
2.1947068e+3, 1.5897454e+2, -1377337.4, -1393113.9, -13635.348, 0.09160239, -0.37300858, -1369472.9, 12539.351, 0.113554515, 9.999821, 9.9996 
2.1947886e+3, 1.6897225e+2, -1270157.8, -1352189.5, -19745.115, 0.16806418, -0.503058, -1265652.5, 18379.76, 0.046104282, 10.000184, 9.999013 
2.1948698e+3, 1.7897034e+2, -1073016.1, -1218300.4, -14713.3545, 0.21311605, -0.5540417, -1071541.0, 114507.85, 0.015073848, 10.000887, 9.998936 
2.1949528e+3, 1.8896957e+2, -999113.4, -1113766.6, 51460.3, 0.17360617, -0.5134833, -979404.25, 108653.43, 0.004138987, 10.000644, 9.999089 
2.1950357e+3, 1.9896899e+2, -989688.94, -1086493.4, -4960.7607, 0.116711184, -0.4362926, -989435.4, 630.27747, 0.00072646124, 10.000158, 9.998837 
2.195116e+3, 2.0896825e+2, -898383.0, -1014378.2, -60390.848, 0.045080997, -0.3585625, -872650.2, 19426.916, 0.000022642807, 10.000215, 9.99863 
2.1951959e+3, 2.1896742e+2, -776078.75, -912075.1, 12329.125, -0.033236463, -0.26507005, -774970.06, 19119.414, 0.000000000011542125, 10.0004015, 9.998575 
2.195279e+3, 2.289664e+2, -562527.94, -742910.75, 73208.82, -0.03928577, -0.21134672, -536555.56, 159544.86, 0.0, 10.001141, 9.998701 
2.1953627e+3, 2.3896506e+2, -383756.22, -635457.44, -24098.846, -0.016771741, -0.17060846, -381469.66, 216644.05, 0.0, 10.001832, 9.998429 
2.1954426e+3, 2.4896134e+2, -197942.48, -503127.4, -115551.96, 0.0018848933, -0.35476306, -159127.75, 341021.0, 0.0, 10.002467, 9.99836 
2.1955213e+3, 2.5895742e+2, -122678.13, -463505.5, -69781.23, -0.03567294, -0.54053104, -108944.48, 293241.84, 0.0, 10.00253, 9.997918 
2.1956001e+3, 2.6895759e+2, -386978.25, -596986.4, -52594.965, -0.071692266, -0.2592707, -374542.63, -70352.766, 0.0, 10.000292, 9.997403 
2.1956812e+3, 2.7895844e+2, -539336.4, -578975.06, 28136.475, -0.00064957736, 0.106561646, -524739.6, -318552.63, 0.0, 9.998373, 9.997794 
2.1957664e+3, 2.8895357e+2, 316373.6, -64307.543, 160555.16, 0.13068366, -0.17329302, 375046.06, 483275.34, 0.000000020729713, 10.00336, 9.998251 
2.1958481e+3, 2.9894632e+2, 913635.4, 108037.64, -17591.898, -0.097116046, -0.6381113, 914019.4, 924312.4, 0.000005523001, 10.007735, 9.996999 
2.1959199e+3, 3.089463e+2, -502407.7, -269181.84, -226140.98, -0.35081118, -0.31553233, -131357.5, -131357.5, 0.000029796238, 9.996693, 9.999716 
2.2045504e+3, 1.3889252e+2, -1546293.4, -1686260.1, 261675.03, 0.7612656, -0.369072, -1345405.0, 233419.92, 0.39437363, 10.001052, 9.998733 
2.2046253e+3, 1.4889528e+2, -1454263.0, -1332310.4, -31674.514, -0.007719204, -0.12328651, -1324574.3, 156222.38, 0.24751917, 9.999172, 10.00134 
2.204705e+3, 1.5889432e+2, -1371391.0, -1339080.4, -32481.846, -0.026148306, -0.28841275, -1318958.1, 63843.38, 0.13222682, 9.9995985, 10.000135 
2.204788e+3, 1.6889188e+2, -1321637.3, -1414874.9, 6786.3604, 0.15020882, -0.42569262, -1321145.9, -36322.957, 0.059555795, 9.999929, 9.9987335 
2.2048709e+3, 1.7888916e+2, -1208670.4, -1302678.8, 61905.91, 0.3138947, -0.5343828, -1177946.0, 8901.985, 0.023171267, 10.000014, 9.998783 
2.2049534e+3, 1.8888812e+2, -1079887.5, -1170847.0, 112658.36, 0.2197851, -0.5078404, -1003875.25, 84984.18, 0.008108057, 10.000163, 9.998938 
2.2050351e+3, 1.9888736e+2, -966771.3, -1083527.5, 57841.67, 0.08041242, -0.43449768, -942968.75, 47900.258, 0.0021629941, 10.000338, 9.99878 
2.2051157e+3, 2.0888703e+2, -816084.1, -956271.9, -31054.256, 0.00636397, -0.32454857, -809513.0, 83363.13, 0.00023583506, 10.000692, 9.998801 
2.205196e+3, 2.1888667e+2, -683803.0, -857591.3, 16768.855, -0.04760927, -0.19678187, -682199.75, 112684.016, 0.0000019906881, 10.001006, 9.9986515 
2.2052795e+3, 2.2888528e+2, -629103.5, -779968.94, 101327.58, -0.039177984, -0.18082388, -578213.75, 118683.75, 0.0, 10.000714, 9.99865 
2.2053638e+3, 2.3888317e+2, -587183.4, -708268.56, 65573.9, 0.012387576, -0.21592441, -558477.2, 40440.12, 0.0, 10.000321, 9.998658 
2.2054443e+3, 2.4888031e+2, -403525.78, -516083.3, -35979.36, 0.042652957, -0.37519777, -393007.75, 107936.66, 0.0, 10.000722, 9.999091 
2.2055233e+3, 2.5887802e+2, -260436.05, -485143.4, -25243.938, 0.0151345115, -0.4628908, -257635.02, 145331.42, 0.0, 10.001383, 9.99833 
2.2056013e+3, 2.688782e+2, -35038.12, -415612.56, -18924.27, -0.08313591, -0.19554918, -34099.418, 270867.88, 0.0, 10.002647, 9.997524 
2.2056809e+3, 2.7887782e+2, 208358.75, -207751.02, 113762.02, -0.08196145, 0.02952878, 237429.64, 444403.47, 0.0, 10.003466, 9.997891 
2.2057676e+3, 2.8887233e+2, -120906.25, -261908.1, 238781.75, 0.11635129, -0.31530374, 57564.92, 166590.03, 0.00000007580395, 10.000306, 9.998363 
2.2058514e+3, 2.9886836e+2, -582891.94, -538878.06, 14280.454, 0.060943842, -0.49113682, -534650.7, -523590.44, 0.0000083740215, 9.997101, 9.997693 
2.2059219e+3, 3.0886796e+2, 553187.8, 343172.72, -224667.95, -0.16611215, -0.3044201, 696176.75, 696176.75, 0.00004287026, 10.003462, 10.000676 
2.2145462e+3, 1.3881202e+2, -1493207.1, -1591691.4, 5937.5366, 0.26365575, -0.34156176, -1492850.5, 86764.484, 0.4221777, 10.001099, 9.998961 
2.2146232e+3, 1.488078e+2, -1496691.6, -1399029.5, -14298.071, -0.08923104, -0.74956167, -1396979.3, 84676.234, 0.27423543, 9.999088, 10.000808 
2.2147043e+3, 1.588135e+2, -1361848.3, -1321179.8, -19052.146, -0.03783918, -0.21753582, -1313648.9, 69947.24, 0.15564767, 9.999591, 10.000295 
2.2147886e+3, 1.688133e+2, -1277280.6, -1317706.3, 17517.248, 0.2514058, -0.18190052, -1270746.3, 14851.092, 0.07778218, 9.999911, 9.999412 
2.2148722e+3, 1.7881128e+2, -1184542.6, -1259306.4, 64311.52, 0.4802805, -0.2817793, -1147537.9, 40079.598, 0.035576556, 10.000044, 9.999071 
2.2149533e+3, 1.8880977e+2, -1104616.8, -1224669.4, 122904.91, 0.23416942, -0.28587985, -1027863.06, 61770.176, 0.0154146915, 10.000174, 9.998565 
2.2150335e+3, 1.9880822e+2, -991819.75, -1135334.5, 67294.48, -0.106566764, -0.25357872, -965202.0, 26447.428, 0.005714695, 10.000332, 9.998429 
2.2151142e+3, 2.0880646e+2, -840077.2, -1002062.75, -11555.596, -0.195628, -0.2571291, -839257.0, 54412.22, 0.0013616167, 10.00067, 9.998498 
2.2151953e+3, 2.1880466e+2, -695810.9, -867910.8, 16768.771, -0.20270184, -0.24441384, -694192.25, 101496.836, 0.00013056793, 10.000939, 9.998613 
2.2152805e+3, 2.2880231e+2, -589527.4, -695389.6, 89699.98, 0.021088278, -0.36553988, -538305.75, 159403.31, 0.0000045921656, 10.000694, 9.999242 
2.2153665e+3, 2.387995e+2, -564309.3, -640348.4, 59417.246, 0.2697065, -0.5260256, -531788.8, 67943.945, 0.000000030624218, 10.000245, 9.999155 
2.2154458e+3, 2.488007e+2, -388351.97, -468369.72, -12389.688, 0.14355147, -0.32383138, -386477.5, 115247.61, 0.0, 10.000654, 9.99945 
2.2155237e+3, 2.588035e+2, -264906.9, -445985.3, -1513.3306, -0.061275862, 0.06562983, -264894.25, 138808.6, 0.0, 10.001186, 9.998688 
2.215604e+3, 2.688e+2, -37563.61, -363121.16, 29987.504, -0.05049441, -0.085675105, -34824.473, 270907.4, 0.0, 10.00241, 9.9979925 
2.2156848e+3, 2.7879253e+2, 162194.72, -222424.45, 73729.51, -0.027016135, -0.5995842, 175843.9, 383641.44, 0.0, 10.003138, 9.997935 
2.2157656e+3, 2.887893e+2, -142038.02, -313990.72, 90703.89, -0.0808869, -0.6909325, -103037.85, 6797.1167, 0.00000027397763, 10.0003605, 9.997968 
2.2158484e+3, 2.987962e+2, -471749.78, -387074.13, 38535.234, 0.059481837, 0.21533552, -372162.88, -360387.7, 0.000015050563, 9.997462, 9.9985485 
2.2159289e+3, 3.0878934e+2, 491974.16, 328351.44, 150143.73, 0.20499286, -0.38693744, 581148.9, 581148.9, 0.000070341266, 10.002995, 10.000792 
2.2245476e+3, 1.38737e+2, -1453076.1, -1692995.9, -68377.875, 0.2777096, 0.18850917, -1434956.6, 145400.97, 0.45833313, 10.002293, 9.997738 
2.2246248e+3, 1.4872801e+2, -1433492.5, -1396492.9, 15661.853, 0.15351565, -0.6581928, -1390753.5, 91688.71, 0.30885017, 9.999794, 10.000525 
2.2247048e+3, 1.5873215e+2, -1324156.6, -1334957.0, 26957.25, 0.06808258, -0.2525934, -1302064.0, 82332.195, 0.18666483, 10.000099, 9.999942 
2.2247884e+3, 1.6873209e+2, -1254331.6, -1341069.9, -9056.438, 0.2530164, -0.16802008, -1253396.1, 33001.645, 0.103338934, 10.000284, 9.999053 
2.2248715e+3, 1.787307e+2, -1147574.6, -1251712.8, -35774.195, 0.42131653, -0.17108633, -1136469.4, 51944.684, 0.054786276, 10.000356, 9.998978 
2.2249526e+3, 1.8872921e+2, -1084123.3, -1160369.8, 43540.668, 0.18361433, -0.19685848, -1064374.5, 26052.852, 0.028543482, 10.000068, 9.999057 
2.2250329e+3, 1.987276e+2, -1055797.6, -1124026.3, 68966.016, -0.12281543, -0.2221306, -1012969.75, -20528.707, 0.013685946, 9.99972, 9.998795 
2.2251143e+3, 2.0872569e+2, -946465.06, -1048925.0, 24394.889, -0.17594533, -0.25297108, -940953.3, -46492.113, 0.005262215, 9.999925, 9.998536 
2.225196e+3, 2.187237e+2, -774469.5, -904644.0, 77657.58, -0.14411582, -0.26331964, -738230.3, 58252.43, 0.001420654, 10.000379, 9.99864 
2.225281e+3, 2.2872147e+2, -557908.4, -668065.44, 114344.27, 0.029530935, -0.38031524, -486068.6, 212432.1, 0.0002619265, 10.000855, 9.999355 
2.2253662e+3, 2.3871893e+2, -424226.7, -572079.56, 52714.664, 0.20973341, -0.5183903, -407356.88, 193164.1, 0.000035642544, 10.001195, 9.999171 
2.2254455e+3, 2.4872026e+2, -379730.16, -459739.7, -50235.117, 0.083111525, -0.30814818, -355516.97, 146995.78, 0.0000011567587, 10.000668, 9.999516 
2.2255234e+3, 2.5872293e+2, -430148.44, -492203.94, -29937.771, -0.08467485, 0.059884023, -418060.16, -13567.76, 0.0, 9.999902, 9.998987 
2.225605e+3, 2.6871967e+2, -299860.16, -406447.22, 19272.027, -0.033785813, -0.123548314, -296482.6, 10035.504, 0.0, 10.000266, 9.998719 
2.2256868e+3, 2.7871302e+2, -189261.7, -338098.97, 51145.098, 0.040100064, -0.6317283, -173381.08, 35194.055, 0.0, 10.000488, 9.998421 
2.2257668e+3, 2.887102e+2, 4983.844, -235804.17, 55307.563, -0.0038458433, -0.6956658, 17080.0, 127688.56, 0.00000073017384, 10.001329, 9.998043 
2.2258493e+3, 2.987172e+2, 289332.94, 26071.143, 83520.42, 0.16347393, 0.18034229, 313594.16, 326142.06, 0.00002755439, 10.002488, 9.998967 
2.2259288e+3, 3.0871037e+2, 177069.5, 108740.29, 116616.71, 0.036384083, -0.4219274, 264423.13, 264423.13, 0.00011826196, 10.001113, 10.000193 
2.2346306e+3, 1.4865756e+2, -1438607.4, -1380647.3, 14710.449, 0.7632152, 0.32281312, -1377127.5, 106014.195, 0.35698506, 9.999642, 10.000827 
2.2347067e+3, 1.5865026e+2, -1389588.3, -1474745.1, 35524.848, 0.2537157, -0.39781708, -1376714.6, 8486.794, 0.23053116, 10.000056, 9.998928 
2.234787e+3, 1.6864781e+2, -1372321.9, -1587365.1, -347.13638, 0.12054824, -0.41609144, -1372321.3, -85093.08, 0.14104874, 10.000246, 9.997386 
2.2348684e+3, 1.7864701e+2, -1187314.5, -1332383.5, -41675.61, 0.08577692, -0.21831885, -1176194.4, 13047.321, 0.08532412, 10.000333, 9.998433 
2.234951e+3, 1.886463e+2, -988120.06, -956497.0, 29239.795, 0.034106508, -0.24818355, -939067.44, 152175.88, 0.05187056, 10.000057, 10.000513 
2.2350335e+3, 1.9864555e+2, -988328.4, -974938.7, 63730.92, -0.0153666185, -0.32576603, -917551.94, 75691.18, 0.030293982, 9.999685, 9.999845 
2.2351159e+3, 2.086446e+2, -924342.75, -1001123.7, 44085.95, 0.028889762, -0.31758863, -904274.7, -9021.06, 0.015773455, 9.99991, 9.998875 
2.2351985e+3, 2.1864347e+2, -782004.56, -897953.0, 90782.56, 0.07236182, -0.26564148, -732263.94, 65003.664, 0.0069356123, 10.000295, 9.998718 
2.235281e+3, 2.2864239e+2, -591609.0, -720130.3, 133328.22, -0.036797382, -0.2531917, -507863.38, 191412.58, 0.002541045, 10.000782, 9.99903 
2.2353633e+3, 2.3864092e+2, -486939.78, -646259.06, 46388.242, -0.17163576, -0.24255994, -474417.4, 126869.65, 0.00075579167, 10.000965, 9.998765 
2.2354436e+3, 2.4863927e+2, -410275.22, -488822.0, -78503.12, -0.15339643, -0.30952036, -361769.7, 141535.17, 0.00014769337, 10.0005245, 9.999379 
2.235523e+3, 2.5863758e+2, -438188.75, -476657.97, -50622.656, -0.121397614, -0.36776203, -403269.66, 2054.5137, 0.000007045108, 9.9997835, 9.99914 
2.2356047e+3, 2.6863733e+2, -261099.97, -299090.72, 40367.418, -0.07109566, -0.3116045, -235481.97, 71843.49, 0.00000000065814787, 10.000163, 9.999496 
2.2356872e+3, 2.786375e+2, -163284.53, -228727.47, 47211.906, 0.05147105, -0.22467186, -138563.34, 70758.12, 0.0, 10.000271, 9.999262 
2.2357705e+3, 2.8863478e+2, -5689.7876, -206035.39, 89900.76, 0.24512628, -0.34863952, 28735.838, 140083.78, 0.0000012574419, 10.001128, 9.998332 
2.2358525e+3, 2.9863253e+2, 268833.88, 10424.118, 79462.26, 0.25708306, -0.41973338, 291313.38, 304682.78, 0.000044073433, 10.002397, 9.99889 
2.235925e+3, 3.086334e+2, 87337.04, -75728.72, -57024.15, -0.41786584, -0.17260662, 105299.7, 105299.7, 0.00018419352, 10.001168, 9.998871 
2.2446206e+3, 1.4856933e+2, -1557123.3, -1348538.1, -168172.56, -0.10757998, -0.10348675, -1254944.5, 229074.2, 0.42759266, 9.998283, 10.002166 
2.244707e+3, 1.5856895e+2, -1480029.6, -1398345.1, -99746.35, 0.3778356, -0.28033048, -1331403.3, 54600.008, 0.29616648, 9.998881, 10.000141 
2.2447889e+3, 1.6856742e+2, -1391384.4, -1555303.0, 8552.805, 0.31527117, -0.25964546, -1390939.3, -102920.91, 0.19952731, 9.999943, 9.997751 
2.2448689e+3, 1.7856571e+2, -1099802.6, -1268916.8, 83609.99, 0.11136387, -0.19058968, -1065445.8, 124593.69, 0.13536815, 10.000953, 9.998593 
2.2449507e+3, 1.8856429e+2, -967755.2, -970810.25, 43563.96, 0.04456203, -0.28251782, -925692.0, 166355.38, 0.09319166, 10.000328, 10.000328 
2.245033e+3, 1.985631e+2, -1021435.25, -1007532.4, -4620.4487, 0.019151887, -0.38782755, -1006136.94, -12085.939, 0.06306426, 9.999488, 9.999731 
2.245116e+3, 2.0856276e+2, -870422.44, -970088.44, -41962.78, 0.061493546, -0.30900258, -855107.9, 40947.54, 0.0400799, 10.000259, 9.998934 
2.245199e+3, 2.1856248e+2, -593490.06, -782015.6, -18376.613, 0.085457355, -0.1783663, -591715.5, 206345.73, 0.023131557, 10.0014925, 9.998955 
2.2452807e+3, 2.285613e+2, -682593.75, -708310.1, 11902.3, -0.052241232, -0.21783707, -677930.56, 22138.688, 0.011994159, 9.999898, 9.999546 
2.2453623e+3, 2.3855948e+2, -912500.94, -841118.5, 17195.988, -0.17241973, -0.2757065, -837191.94, -235110.0, 0.0054928027, 9.997979, 9.998877 
2.2454433e+3, 2.4855743e+2, -585568.7, -595237.94, -68701.99, -0.13259937, -0.3728011, -521531.4, -17427.979, 0.002050329, 9.999404, 9.999197 
2.2455229e+3, 2.5855508e+2, -287107.7, -407880.66, -73472.92, -0.11902842, -0.47655785, -252390.02, 153739.63, 0.0004876709, 10.000833, 9.999113 
2.2456038e+3, 2.6855588e+2, -257322.17, -248575.17, -25592.102, -0.12016839, -0.34170014, -226985.56, 81137.56, 0.000047167257, 9.999971, 9.999945 
2.245686e+3, 2.785585e+2, -364748.28, -285142.8, -5261.9727, 0.03470339, -0.061853997, -284796.5, -74698.586, 0.00000034188096, 9.998717, 9.999621 
2.2457713e+3, 2.8855574e+2, -46705.59, -245504.3, 42732.145, 0.26638374, -0.18034291, -37909.438, 74211.72, 0.0000013302117, 10.000931, 9.998156 
2.2458531e+3, 2.9854962e+2, 248837.47, -47191.1, -22194.012, 0.11542639, -0.6311429, 250492.17, 264668.5, 0.0000584347, 10.002447, 9.998477 
2.245929e+3, 3.0855125e+2, 324419.44, 1882.5223, -189758.3, -0.23580058, -0.22316393, 412180.53, 412180.53, 0.00025944764, 10.002904, 9.998581 
2.2547059e+3, 1.5848804e+2, -1354451.6, -1139061.0, -59110.004, 0.35923868, 0.12922941, -1123905.8, 262897.72, 0.39765337, 9.9983635, 10.003185 
2.2547936e+3, 1.6849114e+2, -1243640.5, -1220163.4, 28015.264, 0.8318525, 0.33146274, -1201526.8, 87239.1, 0.29298013, 9.999848, 10.000297 
2.2548735e+3, 1.7848684e+2, -1084664.1, -1170256.1, 75182.01, 0.47846583, -0.078206666, -1040951.0, 149855.6, 0.21888196, 10.000764, 9.99941 
2.2549523e+3, 1.8848298e+2, -1098948.0, -1247645.6, 7142.788, 0.1866823, -0.31078544, -1098605.6, -5764.5347, 0.16615056, 10.000276, 9.998369 
2.2550315e+3, 1.9847997e+2, -1126887.3, -1210904.6, -15566.9375, -0.06909186, -0.42355496, -1124095.6, -129228.16, 0.12546477, 9.99942, 9.9983635 
2.2551143e+3, 2.0848e+2, -892782.0, -1011473.25, 9546.534, -0.11492719, -0.2435205, -892019.06, 4849.4463, 0.0914258, 10.000221, 9.998666 
2.255198e+3, 2.184806e+2, -601111.1, -742484.94, -12492.371, -0.1394517, -0.014050668, -600015.75, 198848.89, 0.062582165, 10.001316, 9.999334 
2.2552805e+3, 2.2847831e+2, -601793.3, -530365.4, -70440.91, -0.05631411, -0.26547334, -487102.06, 213777.47, 0.039919913, 9.9998455, 10.000846 
2.2553627e+3, 2.38475e+2, -892200.0, -770100.0, -16341.562, 0.10216485, -0.5763277, -767950.75, -165048.02, 0.023601582, 9.997871, 9.999408 
2.2554445e+3, 2.4847473e+2, -623675.3, -639799.2, 8729.407, 0.07217856, -0.4998541, -619854.6, -114945.984, 0.012405956, 9.999268, 9.998951 
2.2555235e+3, 2.5847465e+2, -371393.22, -474837.88, -80020.805, -0.13316528, -0.33981133, -327834.25, 79081.984, 0.005154125, 10.000382, 9.998865 
2.2556025e+3, 2.6847532e+2, -289654.88, -242786.0, -85637.14, -0.21723135, -0.23077953, -177434.78, 131476.92, 0.0013586987, 9.999669, 10.000125 
2.2556838e+3, 2.784769e+2, -382474.22, -300449.7, -14537.312, -0.046549726, -0.06710421, -297949.44, -87052.91, 0.00015517221, 9.998655, 9.999531 
2.25577e+3, 2.884736e+2, -101763.266, -333303.6, 141792.63, 0.089709096, -0.18165958, -34481.86, 78441.84, 0.0000026982873, 10.000868, 9.997559 
2.2558516e+3, 2.9846832e+2, 204606.28, -128769.61, -11112.667, -0.28011674, -0.50615025, 204976.3, 219945.58, 0.000065484004, 10.002439, 9.997897 
2.255935e+3, 3.0846357e+2, 345324.4, 42511.45, 77198.04, 0.11669191, -0.65732855, 363869.28, 363869.28, 0.00034259763, 10.002911, 9.998866 
2.2647834e+3, 1.6839197e+2, -1715086.6, -1355910.6, -156001.94, 0.07073034, -0.99568367, -1297615.4, -7877.982, 0.44342524, 9.995937, 10.001147 
2.2648701e+3, 1.7840348e+2, -1448537.4, -1365081.1, -235327.06, 0.23009971, 0.06715687, -1167811.3, 23820.006, 0.3585124, 9.998081, 9.999359 
2.2649516e+3, 1.8840146e+2, -1244413.6, -1296241.9, -271021.2, 0.16949044, 0.03245792, -998070.5, 95577.09, 0.29413474, 9.999359, 9.99857 
2.2650322e+3, 1.9839646e+2, -851952.25, -977760.3, -104189.22, 0.015022887, -0.3231538, -793150.44, 202539.48, 0.24160613, 10.001211, 9.999212 
2.2651148e+3, 2.0839587e+2, -888636.94, -894675.44, -23578.168, -0.02965306, -0.30035895, -867885.5, 29806.754, 0.1940874, 9.999729, 9.9997425 
2.265198e+3, 2.1839634e+2, -1065479.0, -955715.44, 44420.543, -0.06101133, -0.1758598, -939991.3, -140305.95, 0.14888066, 9.997927, 9.999498 
2.2652803e+3, 2.2839408e+2, -759664.44, -720497.2, -130327.305, 0.01304903, -0.35201055, -608290.3, 93413.36, 0.108788945, 9.999248, 9.999835 
2.2653626e+3, 2.3839098e+2, -377451.22, -530217.2, -178187.11, 0.14504568, -0.5599584, -259965.66, 343765.06, 0.07581198, 10.001512, 9.999388 
2.265443e+3, 2.4839175e+2, -529851.1, -490168.44, -152290.81, 0.042597126, -0.45340395, -356431.88, 149292.58, 0.048806984, 9.999388, 9.999991 
2.2655205e+3, 2.5839275e+2, -983956.2, -741999.56, -145112.5, -0.18554476, -0.2501855, -674050.94, -266333.94, 0.026684597, 9.996012, 9.999142 
2.265602e+3, 2.6839197e+2, -422058.2, -325317.94, -84685.836, -0.14512023, -0.2946399, -276161.88, 33562.945, 0.010897145, 9.998786, 9.999997 
2.2656853e+3, 2.7839094e+2, -22722.322, -162964.06, -59497.625, 0.14164755, -0.37220076, -881.76666, 210852.53, 0.002788968, 10.001282, 9.99921 
2.2657718e+3, 2.8838855e+2, 133368.22, -239622.16, 125678.67, 0.11450669, -0.36310667, 171763.19, 285516.63, 0.0003034348, 10.002564, 9.997383 
2.2658536e+3, 2.9838648e+2, 244124.05, -111151.55, -3337.899, -0.30676037, -0.40239456, 244155.4, 259924.25, 0.000074942734, 10.002768, 9.997837 
2.2659402e+3, 3.0837816e+2, 376143.66, -198933.89, 122118.64, 0.28306678, -0.73128766, 401001.28, 401001.28, 0.0004558169, 10.004184, 9.996611 
2.2750351e+3, 1.9831233e+2, -809950.0, -777343.3, -50214.215, 0.18312652, -0.10512474, -740852.1, 255668.94, 0.4526298, 10.000943, 10.001847 
2.2751169e+3, 2.0831016e+2, -718558.1, -652788.9, -49419.496, 0.24133633, -0.49641013, -626312.9, 272216.4, 0.38963944, 10.000519, 10.002078 
2.2751987e+3, 2.1830985e+2, -942455.9, -915729.56, 36350.24, 0.21950248, -0.62612826, -890364.0, -89841.99, 0.32267725, 9.998856, 9.999315 
2.2752802e+3, 2.2830825e+2, -946387.25, -1152402.3, -26430.465, 0.104360595, -0.52166593, -943050.44, -240505.69, 0.25840095, 9.999429, 9.99672 
2.2753619e+3, 2.3830679e+2, -516599.3, -666507.0, -120659.48, -0.07899441, -0.31669664, -449508.13, 155062.13, 0.20062341, 10.000953, 9.998716 
2.2754396e+3, 2.4830857e+2, -395761.25, -202621.64, -223993.0, -0.21974011, -0.27058488, -55268.105, 451280.94, 0.14660953, 9.999323, 10.002333 
2.2755149e+3, 2.5830993e+2, -932671.4, -651440.1, -192065.3, -0.33199078, -0.19234663, -554018.3, -145491.06, 0.09444842, 9.996095, 9.999712 
2.2756025e+3, 2.6830676e+2, -457697.2, -377225.34, 61142.566, 0.03232349, -0.4828463, -344267.4, -33713.277, 0.04983968, 9.998709, 9.999661 
2.2756897e+3, 2.7830184e+2, -191826.89, -308980.4, -54185.383, 0.47923404, -0.8896557, -170608.34, 41991.34, 0.019500945, 10.000445, 9.998583 
2.2757746e+3, 2.8830156e+2, 42540.477, -278305.06, 115521.81, 0.20323348, -0.66406316, 79806.234, 194406.83, 0.004786881, 10.001979, 9.997371 
2.2758584e+3, 2.9830524e+2, 259639.34, -35827.355, -42513.438, -0.08544147, -0.20929804, 265634.78, 282198.16, 0.00071836304, 10.002644, 9.998384 
2.2759439e+3, 3.0829528e+2, -51572.555, -962320.6, 98668.37, 0.27544034, -0.51881874, -41005.652, -41005.652, 0.0007705204, 10.003752, 9.991536 
2.285356e+3, 2.3823728e+2, -502356.34, -337258.75, 475089.53, -0.7163377, 0.036593165, 62400.27, 667639.75, 0.45869297, 9.999843, 10.003908 
2.2854476e+3, 2.4823044e+2, -573560.8, -966372.56, 226137.17, 0.54938674, -0.39808166, -470444.94, 36855.777, 0.36361384, 10.001187, 9.995883 
2.2855191e+3, 2.5822288e+2, -158800.53, -735689.94, -108292.45, 0.07142655, -0.61209404, -139142.0, 270226.03, 0.26167566, 10.004105, 9.995343 
2.2856021e+3, 2.6822e+2, 16315.015, -340807.03, -54559.234, -0.060919087, -0.6101084, 24464.326, 335862.84, 0.1640845, 10.003247, 9.997816 
2.2856809e+3, 2.7821836e+2, -874942.06, -832258.1, -319046.84, -0.18675953, -0.47330734, -533840.25, -320420.5, 0.0825175, 9.996536, 9.996894 
2.2857708e+3, 2.8821608e+2, -390978.13, -521259.78, 49307.504, -0.20455576, -0.37387618, -374421.0, -258978.28, 0.0307656, 9.999062, 9.997144 
2.2858635e+3, 2.9821765e+2, 441805.8, 314852.5, -208258.16, 0.20628032, -0.18372445, 596046.25, 613473.2, 0.009010491, 10.002731, 10.000798 
2.2859438e+3, 3.0821413e+2, -340468.4, -513763.47, 100985.26, 0.1705097, -0.32464352, -294052.75, -294052.75, 0.003686943, 9.999154, 9.996853 
2.2956096e+3, 2.6813132e+2, -232863.05, -757759.94, -45428.703, 0.39212063, -0.8161918, -228960.31, 83300.79, 0.4346313, 10.00279, 9.995161 
2.2956653e+3, 2.781403e+2, -901636.3, -1127178.1, -532672.3, -1.4207325, 0.6677298, -469928.5, -255735.27, 0.25412926, 9.997634, 9.994304 
2.2957613e+3, 2.8813344e+2, -267811.4, -464169.28, 229380.69, -1.0261194, 0.36417398, -116481.625, -216.91513, 0.1212573, 9.99998, 9.997049 
2.2958681e+3, 2.9812682e+2, 287377.66, 631588.9, -219517.5, 0.41830412, -0.3115753, 738424.6, 756752.4, 0.051486894, 10.000082, 10.004403 
2.2959417e+3, 3.081365e+2, 627724.5, 1410622.9, -241524.27, 0.05263119, -0.06206139, 1479137.1, 1479137.1, 0.024084488, 9.99976, 10.009928 
2.3058045e+3, 2.8802982e+2, 1664540.0, -259333.94, -182909.8, 1.840099, -1.7491353, 1681775.5, 1799025.6, 0.3502433, 10.02458, 9.9868765 
2.3058508e+3, 2.980351e+2, -2593724.3, -957925.4, -418204.66, -0.28309283, -0.647228, -857209.25, -838002.3, 0.186309, 9.981068, 10.002478 
2.3059484e+3, 3.080409e+2, 1114834.8, 1005024.0, 199879.5, 0.40628907, -0.4103959, 1267212.9, 1267212.9, 0.10696935, 10.006408, 10.004595 
2.3158191e+3, 2.9794788e+2, -442774.75, -581591.5, -1279606.8, -1.674161, -0.9557529, 769304.7, 789324.56, 0.47807428, 10.000955, 9.9976635 
2.315959e+3, 3.0793846e+2, 255579.05, -1343446.6, 1498973.4, 0.87309664, -1.0392163, 1154931.1, 1154931.1, 0.32152438, 10.011415, 9.986154 
2.3471153e+3, 2.7792156e+2, -202825.36, 253850.31, 73360.13, -0.041984588, -0.042096514, 265345.5, 481649.1, 0.44274884, 9.996223, 10.007107 
2.3467466e+3, 2.879047e+2, 640867.0, 213186.13, -667442.1, -0.21391034, -1.2991049, 1127888.0, 1246335.5, 0.34111875, 10.007479, 9.999892 
2.3464128e+3, 2.9791084e+2, 985073.56, 963972.1, 266322.4, 1.3235219, -0.5858717, 1241054.1, 1261429.3, 0.25812036, 10.006738, 10.005525 
2.3460655e+3, 3.0789545e+2, -1071521.1, -579357.2, 229002.05, -1.6713253, -1.5504113, -489287.0, -489287.0, 0.1976074, 9.993651, 9.998756 
2.3606792e+3, 1.7831926e+2, -497739.75, -816132.1, 86577.78, 0.09826731, -1.2238859, -475720.22, 716658.5, 0.43639565, 10.007592, 10.000552 
2.360322e+3, 1.8831587e+2, -594342.25, -1455134.4, -9264.209, 0.21383077, -0.47449803, -594242.56, 500186.1, 0.37759662, 10.008313, 9.993084 
2.3599675e+3, 1.9830571e+2, -192972.98, -815952.8, 33477.836, 0.97445047, -0.27201608, -191179.11, 805372.9, 0.3335345, 10.009188, 9.996988 
2.3596072e+3, 2.0829904e+2, -177820.55, -262209.94, -168563.02, 0.9276755, -0.43843865, -46251.38, 852355.1, 0.3009696, 10.0048895, 10.003446 
2.3592375e+3, 2.182941e+2, -515821.28, -436435.53, -489309.28, -0.056774516, -0.7178387, 14788.179, 815422.2, 0.27811456, 10.001015, 10.002808 
2.358885e+3, 2.2828893e+2, -413686.13, -681592.7, -37006.277, -0.13033786, -0.6652448, -408668.4, 294017.6, 0.2609959, 10.002895, 9.998396 
2.3585425e+3, 2.3828542e+2, 203822.02, -219655.45, 212344.39, 0.72541046, -0.26366904, 291955.66, 896685.5, 0.24555828, 10.00688, 9.999822 
2.3581831e+3, 2.4828082e+2, -279641.72, -327460.47, 231693.48, 0.9260405, -0.120116964, -70627.21, 436149.3, 0.2299864, 10.001082, 10.000761 
2.3578215e+3, 2.582738e+2, -1011262.56, -303960.4, 505239.75, 0.8425463, -0.18132435, -40897.387, 367947.06, 0.20963623, 9.993539, 10.003978 
2.3574603e+3, 2.682727e+2, -222802.61, 721883.3, 155466.98, 0.5779435, -0.54526895, 746810.75, 1057655.8, 0.17414537, 9.994882, 10.010774 
2.3571078e+3, 2.782675e+2, -811516.1, -783887.0, 193446.77, 0.16677816, -1.0919275, -603762.1, -390879.28, 0.12391047, 9.996714, 9.997227 
2.3567554e+3, 2.8825298e+2, 91677.02, -1512582.4, -606710.06, 0.5515846, -0.9105215, 295285.44, 410323.03, 0.080246575, 10.00756, 9.986458 
2.3564132e+3, 2.9824102e+2, 815916.25, 40430.87, -60956.96, 1.1495948, -0.6601818, 820678.56, 837851.1, 0.052445866, 10.007579, 9.996622 
2.3560627e+3, 3.082326e+2, -717740.5, -2789.87, -155703.84, -0.8878552, -0.8939208, 29647.998, 29647.998, 0.03523741, 9.99361, 10.003072 
2.3713794e+3, 1.5868774e+2, -1111875.5, -1011971.3, 186799.47, 0.42880285, -0.19655396, -868560.4, 516224.1, 0.40914327, 10.0009575, 10.003496 
2.3710345e+3, 1.6867016e+2, -1769825.1, -1355975.5, -166399.56, 1.1269697, -1.5147082, -1297369.4, -10416.947, 0.31913835, 9.995636, 10.001202 
2.370679e+3, 1.7867453e+2, -1970047.4, -1410222.4, -296207.56, 1.0293708, -0.631023, -1282593.6, -93685.22, 0.25439996, 9.993605, 10.001147 
2.3703155e+3, 1.8866828e+2, -1874726.8, -1497846.3, -255178.73, 0.45180452, -0.6613075, -1369070.6, -278094.38, 0.20803122, 9.994373, 9.999505 
2.3699485e+3, 1.9865891e+2, -1454502.0, -1258155.8, -50365.125, -0.24496698, -0.91836935, -1245990.3, -252913.28, 0.17323056, 9.996572, 9.999455 
2.3695947e+3, 2.0865066e+2, -969034.6, -965091.56, 25238.564, 0.28225112, -1.0611228, -941747.7, -46593.617, 0.14628343, 9.999196, 9.999531 
2.3692451e+3, 2.1864305e+2, -503333.25, -553450.9, 41205.93, 1.2116989, -1.1672148, -480164.78, 317056.56, 0.1255341, 10.001361, 10.000884 
2.3688884e+3, 2.286356e+2, -903852.2, -573158.75, 162176.77, 0.9456705, -1.4625447, -506900.56, 192395.31, 0.10829949, 9.997135, 10.002 
2.3685285e+3, 2.386278e+2, -1416233.8, -708062.06, -57532.656, 0.25781703, -1.7892407, -703418.5, -102043.36, 0.09199207, 9.992797, 10.002332 
2.368164e+3, 2.4862315e+2, -545328.3, -216855.63, -253914.16, -0.17862311, -1.9220937, -78691.61, 424722.2, 0.075866595, 9.997919, 10.002776 
2.3678026e+3, 2.586177e+2, 243548.88, -69099.55, -85609.59, -0.43772346, -1.9404435, 265455.6, 670914.06, 0.05915535, 10.004364, 9.99989 
2.3674467e+3, 2.6861545e+2, 266422.34, 68000.5, -293051.34, -0.15802523, -1.6196228, 476600.97, 784078.56, 0.04039812, 10.003308, 10.000669 
2.3671001e+3, 2.786135e+2, -887611.8, -1161634.4, -23386.629, 0.24436556, -1.0970865, -885630.2, -676133.44, 0.0216832, 9.997967, 9.993883 
2.3667522e+3, 2.886012e+2, -494947.5, -1587435.1, 84792.07, 0.36977983, -0.6982288, -488405.63, -376771.38, 0.009412611, 10.002846, 9.98794 
2.366409e+3, 2.985878e+2, 591080.06, -157597.36, 676337.25, 0.61376166, -0.5434254, 989762.4, 1003548.06, 0.0041559828, 10.006363, 9.995657 
2.366055e+3, 3.0857956e+2, -969339.0, -184385.75, 199401.47, -0.3027002, -0.5594154, -136636.47, -136636.47, 0.0021001585, 9.992466, 10.00216 
2.3817366e+3, 1.4904381e+2, -1063637.0, -1682177.0, 89497.11, 1.1400279, -1.0945699, -1050947.9, 428321.75, 0.3896646, 10.006696, 9.994974 
2.3813733e+3, 1.5903507e+2, -1325202.1, -1670873.3, -26081.879, 0.3094724, -0.882583, -1323245.3, 58125.258, 0.2783617, 10.001594, 9.996872 
2.3810147e+3, 1.6902862e+2, -1453685.1, -1354935.5, -47660.492, 0.11476032, -0.80230397, -1335685.3, -52241.94, 0.19862524, 9.998494, 9.999825 
2.380658e+3, 1.7902401e+2, -1598189.6, -1167530.0, -98159.26, 0.07921408, -0.6682112, -1146212.1, 39283.4, 0.1461588, 9.995869, 10.001779 
2.380305e+3, 1.8902099e+2, -1245279.8, -678469.3, -77791.27, 0.5294107, -0.7275047, -667986.8, 419533.72, 0.11113541, 9.996268, 10.0045805 
2.3799516e+3, 1.990182e+2, -1082874.1, -762911.1, -26149.893, 0.9818562, -0.80226815, -760788.06, 228754.17, 0.08556882, 9.997679, 10.00248 
2.3795903e+3, 2.0901293e+2, -1023818.0, -1042768.0, 37570.492, 0.52377236, -0.7174356, -994546.2, -102950.2, 0.065839775, 9.999075, 9.999049 
2.3792276e+3, 2.1900716e+2, -711769.4, -780392.7, -30062.367, -0.033287838, -0.56336594, -700462.7, 93193.766, 0.050802168, 10.000313, 9.99959 
2.3788719e+3, 2.2900341e+2, -977410.06, -773072.5, -52740.082, 0.18633752, -0.34722805, -760263.1, -64562.695, 0.038884565, 9.997407, 10.0003605 
2.3785183e+3, 2.3899889e+2, -1290884.0, -820111.6, -63835.863, 0.53145266, -0.16452467, -811609.1, -213858.0, 0.028499383, 9.994396, 10.000806 
2.3781644e+3, 2.4899314e+2, -476303.25, -140636.7, -26142.512, 0.68542033, -0.37508798, -138612.88, 361186.44, 0.019239577, 9.998236, 10.003013 
2.3778127e+3, 2.5898582e+2, -70648.7, -459183.72, -42007.91, 0.7842685, -0.5890539, -66158.75, 335702.16, 0.011432521, 10.002971, 9.997756 
2.3774506e+3, 2.6897448e+2, -128333.65, -807369.06, -422846.3, 0.53291523, -0.66923475, 74432.05, 378405.97, 0.0054169293, 10.003433, 9.994493 
2.3770913e+3, 2.7896222e+2, -500184.2, -831737.4, -47755.145, 0.121090375, -0.75711375, -493442.84, -287343.8, 0.0016776762, 9.999909, 9.995266 
2.3767424e+3, 2.8895348e+2, 165464.36, -179027.8, 374487.7, -0.3362235, -0.7059944, 405419.38, 513611.1, 0.0003201632, 10.002606, 9.997768 
2.3764022e+3, 2.9895025e+2, 474012.84, 90445.984, 411062.4, -0.1529261, -0.33892, 735829.6, 746061.44, 0.00007603425, 10.004028, 9.998583 
2.3760451e+3, 3.0893722e+2, -1125847.5, -816285.5, -447544.0, 0.012558225, -0.55768126, -497513.13, -497513.13, 0.00005569383, 9.993468, 9.997506 
2.3920768e+3, 1.3939683e+2, -1482988.5, -1283090.9, -242751.17, -0.09171409, -1.5666763, -1120517.5, 453302.72, 0.42779988, 9.999189, 10.003594 
2.39173e+3, 1.4939667e+2, -1290663.3, -1437563.5, -73603.69, 0.8635942, -1.057742, -1260130.5, 215695.55, 0.29985303, 10.001816, 9.999132 
2.3913686e+3, 1.593907e+2, -990604.6, -1217474.6, -28593.275, 0.22704476, -0.92173314, -987056.4, 390834.94, 0.19614404, 10.003064, 9.999564 
2.3910086e+3, 1.6938655e+2, -1050114.9, -1071807.8, -42226.76, 0.121486045, -0.76384765, -1017363.75, 262573.8, 0.12585048, 10.000953, 10.000837 
2.3906499e+3, 1.7938258e+2, -1229848.6, -1003808.8, 27178.555, 0.14946836, -0.6244205, -1000586.9, 181393.66, 0.083471425, 9.998378, 10.001772 
2.3902954e+3, 1.893771e+2, -991228.44, -702553.94, 21461.89, 0.42412084, -0.8058867, -700967.06, 383061.5, 0.057587944, 9.998779, 10.003028 
2.3899417e+3, 1.9937174e+2, -858260.7, -742130.3, -64522.117, 0.7202007, -0.9855103, -713393.0, 272682.0, 0.03970386, 9.999725, 10.001537 
2.3895822e+3, 2.0936707e+2, -921093.6, -976366.44, -55301.816, 0.42360342, -0.8314748, -886907.2, 1219.8732, 0.026570952, 9.999738, 9.999165 
2.3892216e+3, 2.1936236e+2, -780088.94, -807518.9, -116199.36, 0.03755232, -0.5809661, -676797.94, 113383.46, 0.017417854, 9.999848, 9.9996 
2.388864e+3, 2.2935854e+2, -718182.25, -651816.3, -159030.86, 0.21003327, -0.37198642, -522543.38, 169680.8, 0.011141793, 9.999246, 10.000303 
2.3885088e+3, 2.3935363e+2, -760257.06, -668319.0, -12314.679, 0.5068945, -0.19571063, -666698.06, -72421.66, 0.0065593217, 9.998546, 9.999809 
2.388156e+3, 2.4934727e+2, -538960.56, -375084.9, 57745.652, 0.6087696, -0.28863472, -356781.2, 139555.06, 0.0032030866, 9.998804, 10.001026 
2.3878059e+3, 2.5933993e+2, -704497.44, -821861.75, -3577.7566, 0.6823143, -0.36274874, -704388.44, -305984.25, 0.0011282732, 9.998927, 9.997157 
2.387447e+3, 2.6932868e+2, -240644.31, -816585.4, -145045.3, 0.51606065, -0.42285234, -206178.55, 94334.29, 0.00023273825, 10.002584, 9.994764 
2.3870884e+3, 2.7931613e+2, 284032.75, -213756.36, 280231.9, 0.15546286, -0.60234404, 409942.72, 612578.8, 0.000017743454, 10.004391, 9.997282 
2.3867351e+3, 2.893071e+2, -593561.94, -273346.6, 371454.3, -0.40274408, -0.7813109, -28963.518, 75767.35, 0.0000009389277, 9.99634, 10.000073 
2.3863898e+3, 2.9930514e+2, -1669177.5, -833085.6, 161568.16, -0.2834101, -0.43527555, -802950.06, -796193.3, 0.0000005244, 9.988895, 9.999503 
2.3860388e+3, 3.0929452e+2, 623805.56, 344633.5, -334393.0, 0.18885693, -0.55904573, 846577.0, 846577.0, 0.000004734229, 10.00419, 10.000284 
2.4024458e+3, 1.2976362e+2, -1657914.1, -1755078.1, -82646.59, 1.4683886, -0.8044687, -1610628.1, 57620.645, 0.49041504, 10.000684, 9.998699 
2.402078e+3, 1.3975975e+2, -1693784.6, -1571032.3, -37540.19, 0.72670716, -0.4632621, -1560462.0, 9823.419, 0.36336, 9.998585, 10.000366 
2.4017207e+3, 1.4975339e+2, -1481605.4, -1263810.9, 86337.05, 0.45228294, -0.6896693, -1233738.0, 238608.1, 0.24041094, 9.998521, 10.002257 
2.4013643e+3, 1.5974684e+2, -1391162.1, -1167887.8, -43154.9, 0.23260503, -0.91891795, -1159837.0, 214571.98, 0.14389461, 9.998502, 10.002062 
2.4010038e+3, 1.6974431e+2, -1251436.4, -1035985.4, -148235.34, 0.25038016, -0.75938827, -960466.5, 315967.75, 0.08188297, 9.998826, 10.002048 
2.4006435e+3, 1.7974173e+2, -1218088.6, -1032458.4, -51357.652, 0.30868235, -0.5672048, -1019196.9, 159262.84, 0.047678713, 9.998658, 10.001388 
2.4002866e+3, 1.8973392e+2, -1171094.8, -1016503.9, 30107.977, 0.2928362, -0.8221783, -1010847.06, 69684.52, 0.028905774, 9.998587, 10.000811 
2.3999304e+3, 1.997256e+2, -1104416.0, -1014284.5, -46343.523, 0.27240342, -1.0823376, -994707.8, -12098.572, 0.017015342, 9.998712, 10.000089 
2.3995745e+3, 2.0972058e+2, -1041611.1, -1017908.25, -55063.0, 0.297417, -0.9328404, -973435.7, -88768.43, 0.00915297, 9.998835, 9.999324 
2.3992181e+3, 2.1971585e+2, -857158.2, -834111.56, -140722.13, 0.3317338, -0.6979542, -704441.75, 82281.95, 0.0045936005, 9.999263, 9.999702 
2.3988584e+3, 2.2971044e+2, -561305.75, -539896.8, -215856.53, 0.34747276, -0.68069845, -334479.5, 354298.28, 0.0022051786, 10.0001745, 10.000615 
2.3984997e+3, 2.3970407e+2, -512290.13, -636750.5, -65885.28, 0.33840582, -0.67418885, -483892.13, 106948.766, 0.0009056362, 10.000628, 9.999028 
2.3981448e+3, 2.4969739e+2, -482667.0, -598225.75, 30182.123, 0.19705546, -0.6229956, -475258.8, 17652.807, 0.00023937336, 10.000285, 9.998769 
2.3977932e+3, 2.5969037e+2, -575953.25, -714686.5, 12663.09, 0.09945938, -0.5240675, -574806.9, -179822.5, 0.000025130046, 9.999579, 9.997601 
2.3974404e+3, 2.6968262e+2, -57521.277, -373876.44, -16955.773, 0.20629422, -0.4685865, -56615.09, 240436.05, 0.00000030344088, 10.002289, 9.997961 
2.3970874e+3, 2.796744e+2, 256071.6, -67967.79, 104223.125, 0.22180407, -0.5264003, 286698.8, 485822.4, 0.0, 10.003425, 9.998796 
2.3967282e+3, 2.8966296e+2, -629374.7, -523380.06, -15694.0625, -0.12924542, -0.8801302, -521105.16, -419859.44, 0.0, 9.997027, 9.998063 
2.3963745e+3, 2.9965657e+2, -1359990.4, -684074.1, 284002.7, -0.1827343, -0.7440588, -580587.8, -577269.3, 0.0000000023623323, 9.990921, 9.999598 
2.3960383e+3, 3.0965734e+2, 1079419.8, 1254310.1, 505807.03, 0.2618469, -0.14673133, 1680175.3, 1680175.3, 0.00000030342272, 10.004207, 10.006607 
2.4124348e+3, 1.3012432e+2, -1327040.5, -1380262.9, -180098.34, 0.78917986, -0.43181407, -1171597.9, 493128.72, 0.4450993, 10.003002, 10.001723 
2.4120693e+3, 1.4012162e+2, -1615660.4, -1503996.4, -14494.349, 0.64415556, -0.1895638, -1502145.6, 64603.03, 0.31930807, 9.998858, 10.000885 
2.4117127e+3, 1.5011361e+2, -1772883.5, -1548929.3, 139461.44, 0.55300033, -0.4302576, -1482053.5, -13227.347, 0.20041417, 9.997365, 10.000391 
2.4113569e+3, 1.6010515e+2, -1701503.4, -1343382.5, -40145.004, 0.4737692, -0.70355517, -1338937.4, 31970.947, 0.110025235, 9.99663, 10.001525 
2.4109977e+3, 1.7010087e+2, -1316664.6, -1008409.9, -128572.51, 0.4837686, -0.74345136, -961823.2, 311125.0, 0.054970514, 9.998132, 10.002518 
2.4106385e+3, 1.80097e+2, -1092540.3, -991851.75, -68717.66, 0.5172609, -0.70606357, -957009.94, 217974.16, 0.027314784, 9.999633, 10.00118 
2.4102814e+3, 1.9009204e+2, -1171878.8, -1113956.4, -20063.219, 0.5381454, -0.6044293, -1107685.8, -30652.162, 0.013986388, 9.999008, 9.999927 
2.4099249e+3, 2.0008616e+2, -1226308.9, -1155481.5, -38464.84, 0.5223333, -0.5284834, -1138610.6, -159518.13, 0.006556314, 9.998253, 9.999329 
2.409567e+3, 2.1007836e+2, -1156600.5, -1127606.1, -49663.465, 0.3458479, -0.5944989, -1090367.1, -209193.06, 0.002469395, 9.998303, 9.99882 
2.4092095e+3, 2.2007038e+2, -939189.25, -924609.25, -89402.28, 0.21325088, -0.6365491, -842200.25, -58942.902, 0.00078321603, 9.998937, 9.999224 
2.4088533e+3, 2.3006377e+2, -359974.25, -509430.56, -150672.48, 0.32318538, -0.6760836, -266516.53, 418804.75, 0.00023610769, 10.001879, 9.999982 
2.4084973e+3, 2.400569e+2, -6421.4478, -445731.13, -88200.58, 0.39779064, -0.6722036, 10625.192, 598013.25, 0.000047296035, 10.00438, 9.99851 
2.4081402e+3, 2.500502e+2, -224402.84, -572457.44, -54386.32, 0.1598498, -0.54183906, -216102.5, 273358.16, 0.0000020598873, 10.002529, 9.997856 
2.4077854e+3, 2.6004308e+2, -503111.63, -598197.25, 4359.6914, -0.037381597, -0.4070852, -502912.16, -111376.89, 0.0, 9.999788, 9.998276 
2.4074343e+3, 2.7003512e+2, -414926.53, -366169.66, -11747.221, 0.17997274, -0.5053549, -363486.97, -69885.74, 0.0, 9.999135, 9.999497 
2.4070832e+3, 2.8002736e+2, -384191.13, -312833.47, -61067.785, 0.36095968, -0.64780784, -277785.7, -82120.0, 0.0, 9.998752, 9.999369 
2.4067234e+3, 2.9001766e+2, -99680.086, -326230.06, -206873.8, 0.09924753, -0.8220831, 22900.805, 120672.66, 0.0, 10.00089, 9.997579 
2.4063677e+3, 3.0001107e+2, 210460.25, 502.15216, 244973.28, 0.018961059, -0.6382983, 372000.44, 372000.44, 0.0, 10.002023, 9.998942 
2.406033e+3, 3.1000936e+2, -490992.66, 451006.56, 365245.5, 0.45360652, -0.28510267, 576031.2, 576031.2, 0.0000000009255763, 9.993721, 10.006073 
2.4224235e+3, 1.30479e+2, -1627128.3, -1364400.8, -254355.16, 0.19767612, -0.6104319, -1209490.1, 451765.56, 0.4141129, 9.998556, 10.004006 
2.4220616e+3, 1.404804e+2, -1505154.9, -1439485.3, -135049.2, 0.572487, -0.15021409, -1333336.5, 229900.69, 0.28877336, 9.999801, 10.001046 
2.4217053e+3, 1.5047227e+2, -1653018.1, -1637741.1, 57439.914, 0.635133, -0.30910486, -1587434.0, -122116.61, 0.17287979, 9.998832, 9.999074 
2.4213494e+3, 1.6046324e+2, -1585118.3, -1356201.3, -20999.865, 0.64260364, -0.52688426, -1354290.8, 13116.116, 0.08747846, 9.997724, 10.000901 
2.4209909e+3, 1.7045748e+2, -1370109.9, -1026461.5, -87346.23, 0.64606744, -0.70717263, -1005534.8, 263926.03, 0.038149297, 9.997742, 10.00254 
2.4206328e+3, 1.8045253e+2, -1331551.8, -1149792.1, -88537.28, 0.663407, -0.76899946, -1113794.0, 57713.61, 0.01570925, 9.99819, 10.000755 
2.4202764e+3, 1.9045e+2, -1160107.8, -1174104.4, -60529.6, 0.74311274, -0.3780875, -1106173.3, -32635.748, 0.0064830934, 9.999377, 9.999331 
2.4199197e+3, 2.0044641e+2, -1010532.6, -1133691.1, -63751.082, 0.7613129, -0.009807829, -983476.6, -7898.5195, 0.0021827125, 10.0001, 9.998583 
2.4195594e+3, 2.1043599e+2, -1056346.4, -1159013.3, -72107.01, 0.37333986, -0.27181357, -1019166.8, -141485.11, 0.00044835047, 9.999341, 9.998099 
2.4192004e+3, 2.2042507e+2, -983345.06, -1014369.25, -60932.586, 0.031453744, -0.5463941, -935981.06, -156191.98, 0.000068581576, 9.998939, 9.998606 
2.4188478e+3, 2.3041797e+2, -570188.75, -682600.4, -41273.42, 0.2637138, -0.57653385, -556662.3, 125194.23, 0.0000096515805, 10.000759, 9.999326 
2.4184962e+3, 2.4041109e+2, -302353.2, -642045.4, -75232.99, 0.49076217, -0.5180919, -286436.8, 297486.28, 0.00000040342232, 10.002565, 9.998047 
2.4181369e+3, 2.5040457e+2, -307160.78, -644620.9, -119429.88, 0.2089494, -0.3352004, -269170.4, 216823.08, 0.0, 10.002096, 9.99757 
2.4177791e+3, 2.603975e+2, -356295.7, -477485.8, -39324.055, -0.044398896, -0.20272307, -344654.03, 43412.9, 0.0, 10.000549, 9.998761 
2.417428e+3, 2.703876e+2, -300153.25, -243624.13, -10272.972, 0.23939146, -0.55872303, -241815.13, 48335.016, 0.0, 9.999611, 10.000126 
2.4170771e+3, 2.8037852e+2, -397074.72, -356639.56, -46306.957, 0.49788445, -0.8510287, -326329.1, -134101.58, 0.0, 9.998768, 9.999093 
2.4167195e+3, 2.903724e+2, -183812.97, -360766.28, -102728.5, 0.24296938, -0.64085054, -136712.11, -42414.707, 0.0, 10.00023, 9.997693 
2.4163657e+3, 3.0036718e+2, -9150.531, -246725.56, 132638.36, 0.21560627, -0.3289096, 50116.465, 50116.465, 0.0, 10.001065, 9.997738 
2.4160177e+3, 3.103577e+2, -786130.94, -323031.03, -154488.84, 0.10550112, -0.4412746, -276224.78, -276224.78, 0.0, 9.994266, 10.000571 
2.4324167e+3, 1.3083336e+2, -1816564.5, -1584502.0, -186675.36, 0.41707724, -0.89843816, -1480735.8, 177033.75, 0.39271492, 9.997883, 10.001842 
2.4320559e+3, 1.4083044e+2, -1389875.4, -1391515.1, -118393.39, 0.61820894, -0.69775116, -1272299.0, 287500.25, 0.26710206, 10.000845, 10.000891 
2.4316983e+3, 1.5082501e+2, -1410129.4, -1402714.0, -3999.794, 0.59383506, -0.6662181, -1400967.8, 60886.938, 0.15331793, 10.000008, 10.000211 
2.4313405e+3, 1.6081937e+2, -1448649.4, -1312566.8, -38099.37, 0.551968, -0.61787724, -1302626.1, 61286.926, 0.07196278, 9.998734, 10.000746 
2.4309814e+3, 1.7081572e+2, -1452106.9, -1205543.1, -116626.164, 0.55172694, -0.47441953, -1159119.1, 106834.9, 0.027363949, 9.997803, 10.001239 
2.4306229e+3, 1.8081145e+2, -1462386.6, -1266653.1, -52376.887, 0.5407916, -0.3607976, -1253518.8, -85519.22, 0.009079448, 9.99754, 10.000243 
2.430267e+3, 1.9080453e+2, -1035224.94, -1104752.9, 24575.783, 0.4628242, -0.40271288, -1027415.4, 42649.32, 0.002868925, 10.000201, 9.999402 
2.4299113e+3, 2.0079704e+2, -727820.25, -1066478.8, -54077.91, 0.40778324, -0.40894663, -719394.56, 252742.52, 0.00059867656, 10.00234, 9.997964 
2.4295534e+3, 2.107877e+2, -954384.94, -1231578.8, -146042.61, 0.39557868, -0.45387185, -891642.5, -17407.371, 0.000045539302, 10.000576, 9.997003 
2.4291962e+3, 2.2077839e+2, -1015934.3, -1025217.3, -76629.89, 0.36386633, -0.4958156, -943805.5, -167474.14, 0.0000022398012, 9.99872, 9.998615 
2.4288425e+3, 2.3077211e+2, -858441.0, -756967.2, 4312.481, 0.42033896, -0.4834069, -756784.2, -78394.4, 0.000000052409952, 9.998537, 9.999866 
2.4284895e+3, 2.4076577e+2, -810609.6, -795779.8, 22618.625, 0.46235886, -0.43290916, -779391.7, -198942.3, 0.0, 9.998723, 9.998821 
2.4281318e+3, 2.5075874e+2, -489501.56, -660909.3, 13844.95, 0.21908174, -0.35314506, -488390.47, -5868.6333, 0.0, 10.000553, 9.998193 
2.427775e+3, 2.6075137e+2, -167726.13, -371726.53, 55926.984, 0.013118859, -0.29387498, -153399.77, 231197.05, 0.0, 10.001793, 9.99887 
2.4274221e+3, 2.7074236e+2, -257215.34, -302812.28, -11864.434, 0.2643373, -0.5054911, -254312.94, 32365.457, 0.0, 10.000255, 9.9994 
2.4270695e+3, 2.8073385e+2, -478397.6, -410777.38, -56916.066, 0.5114675, -0.66908336, -378386.56, -189630.56, 0.0, 9.998276, 9.998951 
2.4267115e+3, 2.9072803e+2, -699247.1, -527681.0, -51842.563, 0.27807364, -0.4738047, -513232.4, -422412.7, 0.0, 9.996348, 9.9984045 
2.426357e+3, 3.0072227e+2, -856701.3, -639613.2, 234029.53, 0.19113772, -0.27293003, -490181.22, -490181.22, 0.0, 9.9952345, 9.99783 
2.4260098e+3, 3.1071424e+2, -109815.31, -228469.63, -82860.53, 0.24912487, -0.15195748, -67232.805, -67232.805, 0.0, 9.9998865, 9.998529 
2.4427718e+3, 1.2119531e+2, -2466218.5, -2205195.5, 30765.752, 0.88197136, -0.97065675, -2201618.3, -449411.03, 0.49453825, 9.995411, 9.998821 
2.4424092e+3, 1.3118967e+2, -1938951.6, -1727955.9, -172144.86, 0.50920236, -0.95585287, -1631553.8, 22717.926, 0.37753466, 9.997579, 10.000468 
2.4420503e+3, 1.4118358e+2, -1513000.3, -1467586.4, -67703.68, 0.63881934, -0.9722324, -1418883.3, 137451.38, 0.25111946, 9.999784, 10.000681 
2.4416909e+3, 1.5117903e+2, -1454857.6, -1378437.5, -62999.426, 0.5331138, -0.8908181, -1342966.3, 115414.984, 0.13882844, 9.999435, 10.000682 
2.4413317e+3, 1.6117506e+2, -1467121.4, -1386017.3, -143239.08, 0.44075197, -0.6967949, -1277700.5, 82723.49, 0.060861234, 9.998929, 10.00013 
2.4409722e+3, 1.7117298e+2, -1249088.6, -1266662.6, -207444.19, 0.44106895, -0.28636917, -1050245.4, 212211.23, 0.02025213, 9.99992, 9.999785 
2.4406135e+3, 1.811691e+2, -1078112.5, -1144747.6, -87085.72, 0.39538974, -0.020878859, -1018188.5, 146314.1, 0.0052852775, 10.000463, 9.999673 
2.4402581e+3, 1.9115789e+2, -1074986.3, -1110476.1, 24090.988, 0.153413, -0.4986528, -1062810.3, 3791.674, 0.0012089658, 9.999878, 9.999517 
2.439903e+3, 2.0114686e+2, -1136477.9, -1313053.1, -135812.08, 0.040607985, -0.863025, -1062779.0, -94075.96, 0.00012403581, 9.999751, 9.9975195 
2.4395478e+3, 2.1113947e+2, -1113126.6, -1395443.4, -204614.42, 0.43282795, -0.6511116, -1005703.5, -134916.67, 0.000001917801, 9.999866, 9.996222 
2.4391927e+3, 2.211324e+2, -879387.2, -941312.1, -55299.344, 0.7365775, -0.418328, -846972.25, -74106.59, 0.000000018702426, 9.999582, 9.998778 
2.4388364e+3, 2.3112676e+2, -715757.7, -618232.4, 15582.791, 0.5531153, -0.39621145, -615803.0, 59113.707, 0.0, 9.999211, 10.000497 
2.438481e+3, 2.4112074e+2, -710485.56, -659215.94, 32781.996, 0.35922986, -0.38631263, -643235.8, -66264.67, 0.0, 9.999009, 9.999631 
2.4381259e+3, 2.5111315e+2, -482797.7, -558239.5, 63341.81, 0.2007733, -0.45852736, -446795.78, 32250.1, 0.0, 10.00016, 9.99909 
2.437771e+3, 2.611057e+2, -323634.6, -495001.63, 8817.907, 0.06998042, -0.4630893, -323182.06, 57938.49, 0.0, 10.000893, 9.998477 
2.4374157e+3, 2.710986e+2, -441969.4, -540716.7, -80467.164, 0.22188585, -0.37124786, -396935.84, -113742.625, 0.0, 9.999586, 9.998109 
2.4370605e+3, 2.810914e+2, -485688.66, -400048.5, -122225.14, 0.40348142, -0.31986076, -313359.75, -128093.27, 0.0, 9.998134, 9.999113 
2.4367009e+3, 2.910841e+2, -481098.63, -315738.56, -105421.04, 0.22706464, -0.3656415, -264442.53, -177102.73, 0.0, 9.997367, 9.999385 
2.4363448e+3, 3.010776e+2, -573429.1, -406399.38, 315075.84, 0.005182474, -0.3210836, -163957.92, -163957.92, 0.0, 9.9966955, 9.998758 
2.4360038e+3, 3.1107208e+2, -60966.086, -97353.48, 367147.72, 0.22902016, -0.054433014, 288438.44, 288438.44, 0.0, 9.999795, 9.999455 
2.4527575e+3, 1.2155129e+2, -2082669.0, -1690735.1, -117209.78, 0.48775744, -0.597973, -1658357.6, 90384.83, 0.48539653, 9.996279, 10.002477 
2.452399e+3, 1.3154927e+2, -1676663.9, -1434562.0, -64097.758, 0.36193737, -0.49835625, -1418639.0, 232122.08, 0.36593348, 9.998158, 10.003014 
2.4520434e+3, 1.4154628e+2, -1475541.1, -1449372.5, -29110.686, 0.61719227, -0.37421522, -1430540.9, 122247.766, 0.23856215, 10.000129, 10.000633 
2.4516836e+3, 1.5153731e+2, -1534529.5, -1563697.1, -102630.336, 0.49569783, -0.60985476, -1445452.0, 9422.83, 0.1275105, 9.999568, 9.999232 
2.4513242e+3, 1.6152889e+2, -1475302.8, -1542724.4, -132011.6, 0.4075289, -0.7227337, -1372765.8, -15807.063, 0.052560914, 9.999532, 9.998728 
2.450967e+3, 1.7152396e+2, -1076187.0, -1342902.6, -169775.63, 0.44022658, -0.4517163, -993655.75, 265362.06, 0.01541553, 10.001807, 9.998339 
2.4506098e+3, 1.8151833e+2, -753069.56, -1037650.5, -168641.2, 0.43110046, -0.2519919, -674710.0, 486370.97, 0.0031067657, 10.002914, 9.999226 
2.4502526e+3, 1.9150905e+2, -1121054.6, -1129459.1, -137700.3, 0.28151342, -0.5310226, -987492.44, 75674.71, 0.00048131414, 9.999555, 9.999539 
2.4498962e+3, 2.0150037e+2, -1406605.1, -1268043.6, -173401.56, 0.20539276, -0.7126203, -1150594.9, -185346.47, 0.000015932997, 9.997155, 9.999061 
2.449541e+3, 2.1149592e+2, -1048754.1, -1099654.8, -111257.65, 0.43555707, -0.42619228, -960073.0, -92776.09, 0.0000000054715246, 9.999169, 9.998575 
2.4491853e+3, 2.214904e+2, -696182.5, -832922.0, 47613.496, 0.58913964, -0.2035534, -681236.8, 88118.37, 0.0, 10.000766, 9.998946 
2.4488279e+3, 2.3148122e+2, -698442.2, -754507.56, 27138.898, 0.3523665, -0.41825494, -687457.56, -16016.649, 0.0, 9.999959, 9.999201 
2.448472e+3, 2.4147272e+2, -714418.6, -670335.8, 16620.834, 0.16117108, -0.5686357, -664771.5, -91250.88, 0.0, 9.999022, 9.999543 
2.4481189e+3, 2.5146693e+2, -674132.9, -589761.2, 32354.611, 0.1933011, -0.49963987, -578782.56, -103205.09, 0.0, 9.998592, 9.999626 
2.4477652e+3, 2.6146096e+2, -719864.06, -636412.44, -64624.004, 0.20344812, -0.41044495, -601214.2, -223576.4, 0.0, 9.997953, 9.998926 
2.4474075e+3, 2.7145347e+2, -792328.2, -684238.6, -114647.62, 0.22402936, -0.3928427, -611535.94, -331817.88, 0.0, 9.997052, 9.99836 
2.4470508e+3, 2.8144637e+2, -549109.06, -406170.3, -5420.956, 0.2877645, -0.34672326, -405965.03, -224172.48, 0.0, 9.997595, 9.99933 
2.4466951e+3, 2.914408e+2, 314974.4, 76401.805, 7992.882, 0.22966248, -0.23103279, 315241.9, 399086.9, 0.0, 10.002779, 9.999478 
2.4463414e+3, 3.0143407e+2, 556637.6, 109396.38, 183017.34, 0.15626879, -0.20195583, 621983.3, 621983.3, 0.0, 10.004558, 9.998525 
2.4459942e+3, 3.1142455e+2, -791397.56, -319718.2, 259155.06, 0.16657299, -0.34089258, -205155.69, -205155.69, 0.0, 9.994326, 10.000504 
2.4627464e+3, 1.21906884e+2, -1695029.1, -1464846.9, -23970.707, 0.2542452, -0.4424594, -1462377.1, 282895.5, 0.4772223, 9.998385, 10.004242 
2.46239e+3, 1.3190725e+2, -1536978.1, -1273747.4, -12933.848, 0.25737417, -0.23201688, -1273113.4, 374148.56, 0.3557266, 9.998863, 10.004324 
2.4620366e+3, 1.419058e+2, -1599316.8, -1549372.3, -113494.26, 0.5809808, -0.02745319, -1458135.4, 91135.89, 0.22774403, 9.999417, 10.000178 
2.4616764e+3, 1.5189429e+2, -1518136.8, -1665291.9, -151049.48, 0.44297615, -0.4355224, -1423697.6, 27682.746, 0.11809006, 10.000185, 9.998238 
2.4613173e+3, 1.6188306e+2, -1393489.8, -1604183.8, -65381.625, 0.3571301, -0.7339991, -1374849.9, -21359.965, 0.04605504, 10.000538, 9.997822 
2.460962e+3, 1.7187567e+2, -1363212.6, -1586749.1, -7256.9155, 0.41444322, -0.618226, -1362977.3, -107406.29, 0.012013259, 10.000274, 9.9974 
2.460606e+3, 1.8186851e+2, -1189078.8, -1293609.3, -81098.77, 0.4545464, -0.4822973, -1144862.6, 12786.184, 0.0018483637, 10.0001135, 9.998818 
2.4602476e+3, 1.918615e+2, -1166364.6, -1170558.0, -134590.94, 0.4309514, -0.5079656, -1033854.06, 25865.953, 0.00018026956, 9.999337, 9.99936 
2.4598897e+3, 2.0185547e+2, -1061765.3, -922557.06, -85746.94, 0.40928105, -0.4593075, -881719.9, 80059.49, 0.0000007906511, 9.998759, 10.000661 
2.4595335e+3, 2.1185324e+2, -772282.6, -684904.6, -20553.096, 0.39009404, -0.18337634, -680311.56, 183486.31, 0.0, 9.999867, 10.001086 
2.4591772e+3, 2.218485e+2, -718904.06, -875703.06, 8627.604, 0.324266, -0.04339732, -718430.75, 47410.586, 0.0, 10.000738, 9.998673 
2.4588192e+3, 2.3183556e+2, -778412.06, -985761.75, -13606.361, 0.08400756, -0.49725762, -777523.0, -109557.59, 0.0, 10.000233, 9.997485 
2.4584629e+3, 2.4182454e+2, -668420.9, -683282.5, 5783.462, -0.04793143, -0.773942, -666435.44, -96364.14, 0.0, 9.999479, 9.999243 
2.458111e+3, 2.5182113e+2, -614128.0, -524727.06, 36790.605, 0.16732585, -0.49021602, -511533.88, -39428.484, 0.0, 9.9988365, 9.999964 
2.4577577e+3, 2.618166e+2, -647431.44, -539933.7, -93292.695, 0.3183214, -0.29489538, -486014.25, -111861.875, 0.0, 9.99816, 9.999504 
2.4573982e+3, 2.718075e+2, -638205.6, -524137.5, -151280.61, 0.22256824, -0.5164369, -419496.88, -143247.86, 0.0, 9.997721, 9.999148 
2.457041e+3, 2.8180033e+2, -445902.3, -365686.47, 108826.03, 0.16626751, -0.5244505, -289812.72, -111488.98, 0.0, 9.998313, 9.999284 
2.4566917e+3, 2.9179823e+2, 217505.38, -34259.973, 207680.13, 0.1949346, -0.024685547, 334475.5, 414814.66, 0.0, 10.002352, 9.998946 
2.456343e+3, 3.0178988e+2, 315422.72, -170194.19, -44582.887, 0.47858268, -0.05101964, 319481.8, 319481.8, 0.0, 10.003556, 9.997107 
2.455982e+3, 3.1177017e+2, -774670.06, -319681.84, -136941.06, 0.114210084, -1.0906955, -281645.5, -281645.5, 0.0, 9.994462, 10.0004425 
2.472741e+3, 1.2226486e+2, -1619033.3, -1525799.0, 11721.477, 0.40633196, -0.42076653, -1524348.0, 217412.55, 0.46784535, 10.00017, 10.00248 
2.4723835e+3, 1.3225971e+2, -1587132.8, -1483636.5, -18121.264, 0.29013467, -0.5002511, -1480555.4, 163249.38, 0.34520847, 9.999587, 10.001675 
2.4720293e+3, 1.42254e+2, -1577676.6, -1549591.9, -115076.66, 0.53646415, -0.5452399, -1447704.0, 98152.8, 0.21743059, 9.999602, 10.000089 
2.4716699e+3, 1.5224658e+2, -1341716.5, -1460700.1, -98001.87, 0.3591069, -0.626893, -1286562.6, 161365.2, 0.109704144, 10.000962, 9.999297 
2.4713111e+3, 1.622392e+2, -1169839.1, -1327031.6, -53328.832, 0.24646269, -0.66030383, -1153454.6, 196546.16, 0.040704507, 10.001411, 9.999302 
2.470954e+3, 1.7223306e+2, -1379635.1, -1413366.5, 17117.334, 0.29823628, -0.5677197, -1372470.5, -120403.586, 0.00953522, 9.99938, 9.999017 
2.4705972e+3, 1.8222664e+2, -1482214.3, -1454196.6, 61367.848, 0.35553062, -0.44749108, -1405259.0, -251122.7, 0.0011160366, 9.99819, 9.998639 
2.4702403e+3, 1.9221991e+2, -1218093.6, -1307267.4, 20967.406, 0.4146151, -0.33765584, -1213409.6, -157201.52, 0.00006263998, 9.999461, 9.998363 
2.4698839e+3, 2.022129e+2, -847738.5, -869655.0, 36062.094, 0.4470744, -0.29725263, -821006.44, 137271.23, 0.0000000031066179, 10.000473, 10.000186 
2.4695279e+3, 2.1220584e+2, -692983.4, -690349.3, 14196.899, 0.40468833, -0.4529032, -677408.5, 182927.14, 0.0, 10.000618, 10.000686 
2.4691716e+3, 2.2219847e+2, -744886.9, -897874.75, -19222.95, 0.33103284, -0.54599524, -742508.44, 19892.238, 0.0, 10.000612, 9.998576 
2.4688144e+3, 2.3218945e+2, -730282.75, -954368.94, -13246.405, 0.1951879, -0.60926265, -729502.44, -65009.563, 0.0, 10.000527, 9.997557 
2.4684578e+3, 2.4218138e+2, -536881.9, -565384.25, 41126.836, 0.08968094, -0.6125518, -507607.06, 58967.71, 0.0, 10.000158, 9.999723 
2.4681033e+3, 2.521772e+2, -540954.94, -437804.16, 64583.86, 0.09495787, -0.44304532, -406729.1, 61886.234, 0.0, 9.999127, 10.000417 
2.4677485e+3, 2.6217175e+2, -616678.44, -584806.94, -35841.066, 0.16367307, -0.34339714, -561518.6, -190847.84, 0.0, 9.998645, 9.998949 
2.4673918e+3, 2.7216244e+2, -379542.94, -503247.38, -143235.4, 0.325614, -0.49447975, -285375.66, -12606.208, 0.0, 9.99994, 9.998225 
2.4670364e+3, 2.8215495e+2, -120089.984, -214218.73, 80746.31, 0.34604353, -0.48272887, -73693.016, 101154.83, 0.0, 10.0005865, 9.999221 
2.4666849e+3, 2.92151e+2, -259919.4, -244516.28, 184235.73, 0.08180554, -0.18825735, -67821.2, 9060.413, 0.0, 9.998995, 9.999119 
2.4663366e+3, 3.0214208e+2, -482566.47, -551928.1, -107776.21, 0.4449877, -0.27589846, -404028.6, -404028.6, 0.0, 9.998073, 9.997124 
2.4659729e+3, 3.1212455e+2, -31447.28, 50057.617, -225523.78, 0.14915414, -1.1032902, 238481.39, 238481.39, 0.0, 9.999511, 10.000556 
2.4827376e+3, 1.226224e+2, -1564023.8, -1649819.4, 14227.221, 0.5835747, -0.4749389, -1561726.0, 176525.31, 0.45571485, 10.002074, 9.999917 
2.4823774e+3, 1.3261333e+2, -1494105.5, -1636432.4, -15158.2, 0.26983008, -0.68768436, -1492509.0, 147829.42, 0.33319858, 10.001836, 9.998975 
2.4820217e+3, 1.426048e+2, -1382756.1, -1460156.3, -64498.27, 0.3986129, -0.83871436, -1346238.3, 196182.78, 0.20679392, 10.001199, 9.999986 
2.4816638e+3, 1.5260023e+2, -1310831.6, -1359829.0, -75221.21, 0.28047708, -0.70880276, -1256220.1, 188245.3, 0.10179194, 10.00078, 10.000121 
2.4813055e+3, 1.6259569e+2, -1186103.5, -1203612.4, -134979.92, 0.19468452, -0.55843943, -1059594.4, 286916.34, 0.036105353, 10.0007, 10.00053 
2.4809465e+3, 1.7259085e+2, -1062882.4, -1098757.5, -137102.3, 0.21166259, -0.48598963, -942549.2, 306012.06, 0.0076701324, 10.0008745, 10.000463 
2.4805889e+3, 1.8258531e+2, -1093191.9, -1308121.5, -46464.793, 0.25647548, -0.36338624, -1083577.0, 67043.086, 0.000687035, 10.001047, 9.998261 
2.4802335e+3, 1.925786e+2, -992464.0, -1303942.9, -13911.274, 0.34646186, -0.1859732, -991843.94, 60849.363, 0.000019881356, 10.001475, 9.99741 
2.4798779e+3, 2.0257014e+2, -760049.1, -932358.0, -8566.649, 0.41806138, -0.20521258, -759624.25, 195152.06, 0.0, 10.001529, 9.99925 
2.4795222e+3, 2.1255791e+2, -788320.25, -851523.25, -31569.65, 0.40622702, -0.7829615, -775253.0, 81625.78, 0.0, 10.000467, 9.99965 
2.4791665e+3, 2.22548e+2, -842899.9, -940673.7, -58388.305, 0.38906893, -1.0675842, -815634.8, -56668.773, 0.0, 9.999915, 9.998625 
2.4788103e+3, 2.325441e+2, -725858.25, -891086.1, -28988.748, 0.3691078, -0.6696893, -720919.9, -59905.61, 0.0, 10.000296, 9.998108 
2.4784537e+3, 2.4253967e+2, -486816.53, -489102.3, -8075.861, 0.27429166, -0.36525035, -479803.1, 83261.73, 0.0, 10.000264, 10.000206 
2.478095e+3, 2.5253367e+2, -486208.6, -377839.7, -6645.2944, -0.028030284, -0.418721, -377433.72, 87688.23, 0.0, 9.999343, 10.000734 
2.4777386e+3, 2.6252675e+2, -655010.2, -732837.1, -53050.52, -0.07945943, -0.43757114, -628131.44, -260941.25, 0.0, 9.998923, 9.997813 
2.4773869e+3, 2.7251816e+2, -459559.63, -716429.8, -82073.58, 0.4537745, -0.3739599, -435575.4, -166293.36, 0.0, 10.000133, 9.996677 
2.4770334e+3, 2.8250957e+2, -126043.1, -226225.6, 79310.76, 0.6008915, -0.36523867, -82329.61, 89041.62, 0.0, 10.000564, 9.999161 
2.4766755e+3, 2.9250053e+2, -249871.0, -174902.42, 135372.67, -0.13798492, -0.625141, -71920.234, 1537.7614, 0.0, 9.998771, 9.999709 
2.476326e+3, 3.0249357e+2, -405097.13, -385387.06, -97623.27, 0.1982305, -0.60355806, -297122.66, -297122.66, 0.0, 9.998005, 9.998322 
2.47597e+3, 3.1249088e+2, 130101.234, 273714.9, -222562.7, 0.5305636, -0.07762033, 435767.8, 435767.8, 0.0, 9.9999, 10.001954 
2.4927378e+3, 1.2297816e+2, -1519589.5, -1820847.4, 82998.57, 0.9275407, -0.7279152, -1498236.4, 236522.73, 0.4399175, 10.003659, 9.997595 
2.4923728e+3, 1.3297161e+2, -1440096.6, -1813738.3, -12350.995, 0.15728512, -0.47742903, -1439688.8, 197146.13, 0.31901658, 10.003206, 9.997128 
2.4920142e+3, 1.429644e+2, -1288394.9, -1461203.1, -63448.293, 0.06716985, -0.36306855, -1267601.3, 271311.53, 0.19536594, 10.002225, 9.999465 
2.4916586e+3, 1.529573e+2, -1311354.1, -1392501.4, -99411.125, 0.3099565, -0.4460441, -1244555.5, 196426.1, 0.094030365, 10.000905, 9.999817 
2.491302e+3, 1.6295092e+2, -1230759.3, -1259134.9, -108575.25, 0.44394803, -0.4459133, -1135448.8, 207595.0, 0.032013185, 10.000545, 10.000198 
2.4909437e+3, 1.7294595e+2, -891655.0, -1053951.3, -132619.7, 0.37003186, -0.34809414, -817326.44, 427766.3, 0.0062260167, 10.002222, 10.000116 
2.4905857e+3, 1.8293987e+2, -724519.9, -1081648.5, -98104.07, 0.29612213, -0.28048247, -699345.06, 447807.97, 0.00043419475, 10.0033865, 9.998675 
2.4902287e+3, 1.9293171e+2, -666191.9, -1076239.4, -62989.1, 0.23619005, -0.3045893, -656734.0, 392500.34, 0.0000058323185, 10.003423, 9.998026 
2.4898723e+3, 2.0292321e+2, -635913.5, -929974.6, -98658.42, 0.25661913, -0.3508746, -605880.56, 345436.13, 0.000000000090419006, 10.002637, 9.998729 
2.4895161e+3, 2.1291389e+2, -891497.2, -1001751.6, -144390.81, 0.40861872, -0.5492474, -792067.9, 61332.42, 0.0, 10.000199, 9.998738 
2.4891602e+3, 2.2290547e+2, -937194.9, -892636.44, -69365.0, 0.4635782, -0.66462123, -842060.56, -86583.14, 0.0, 9.998879, 9.999442 
2.488804e+3, 2.3290002e+2, -687455.0, -734093.5, -4858.7383, 0.34953573, -0.5406217, -686954.25, -29421.58, 0.0, 9.999968, 9.999341 
2.4884473e+3, 2.4289434e+2, -493415.97, -543504.25, -33397.945, 0.22765496, -0.4214735, -476715.28, 82875.38, 0.0, 10.000457, 9.99972 
2.488089e+3, 2.5288767e+2, -506332.7, -503804.94, -104919.56, 0.05987958, -0.44898376, -400141.63, 61515.004, 0.0, 9.99971, 9.999681 
2.4877326e+3, 2.6288077e+2, -499033.44, -573338.6, -90950.01, 0.029826857, -0.43731645, -437940.3, -74215.266, 0.0, 9.999619, 9.998573 
2.4873799e+3, 2.7287373e+2, -281296.56, -483842.1, 3523.3298, 0.35413983, -0.344697, -281235.28, -15438.841, 0.0, 10.000726, 9.997984 
2.4870262e+3, 2.828659e+2, -141735.47, -230357.39, 139971.72, 0.44574246, -0.33031878, -39228.367, 128647.18, 0.0, 10.000433, 9.999193 
2.4866685e+3, 2.928564e+2, -486026.6, -326978.38, 120013.37, -0.016674139, -0.5955855, -262532.72, -192561.64, 0.0, 9.997304, 9.999375 
2.4863175e+3, 3.0284995e+2, -550214.44, -368759.3, 26415.09, 0.26411873, -0.52900773, -364992.2, -364992.2, 0.0, 9.9966955, 9.999033 
2.4859615e+3, 3.128487e+2, 343519.1, 439879.9, -125726.266, 0.27902412, 0.063824296, 526341.44, 526341.44, 0.0, 10.001127, 10.002481 
2.5027356e+3, 1.23334706e+2, -1681717.9, -1994097.4, -74894.21, 1.0034494, -0.70735675, -1664690.0, 66580.695, 0.42027396, 10.001924, 9.997157 
2.5023678e+3, 1.3333024e+2, -1757333.5, -2032449.0, -87390.85, 0.07712592, -0.25184727, -1731921.1, -98591.2, 0.3025169, 10.000539, 9.996893 
2.5020072e+3, 1.4332424e+2, -1627805.5, -1694247.3, -33746.402, -0.13718967, 0.02306992, -1613671.9, -78272.8, 0.18302314, 9.999746, 9.99892 
2.5016534e+3, 1.5331475e+2, -1403923.3, -1506403.3, -71306.04, 0.3502828, -0.23724389, -1367356.1, 70135.7, 0.08629053, 10.000525, 9.999172 
2.5012985e+3, 1.633067e+2, -1207989.9, -1302657.4, -28668.422, 0.6287837, -0.34418935, -1199985.0, 139584.9, 0.028287582, 10.000944, 9.999694 
2.5009406e+3, 1.7330146e+2, -1113514.9, -1221451.3, -25028.059, 0.47862273, -0.22697876, -1107993.9, 133625.81, 0.0050760456, 10.000958, 9.999568 
2.5005823e+3, 1.8329467e+2, -1026773.9, -1193514.9, -29036.922, 0.31132153, -0.1992785, -1021862.0, 121821.46, 0.00028139996, 10.001162, 9.998985 
2.5002244e+3, 1.9328508e+2, -932623.6, -1136948.4, -16256.229, 0.13432348, -0.42502657, -931338.3, 114434.695, 0.0000014559199, 10.001302, 9.998635 
2.499867e+3, 2.0327672e+2, -892510.56, -1120392.0, -136562.5, 0.1219258, -0.46452627, -828598.0, 119255.69, 0.0, 10.001148, 9.998146 
2.49951e+3, 2.1327104e+2, -980066.6, -1140369.5, -177552.7, 0.40520272, -0.21912941, -865412.5, -15499.087, 0.0, 9.999995, 9.997889 
2.4991533e+3, 2.2326443e+2, -810421.1, -738285.75, -7631.753, 0.5082639, -0.13513866, -737487.1, 14490.613, 0.0, 9.999348, 10.00028 
2.4987966e+3, 2.3325619e+2, -608751.56, -561430.1, 45209.824, 0.25273424, -0.40550706, -534063.8, 119986.34, 0.0, 9.999931, 10.000545 
2.4984404e+3, 2.4324825e+2, -593523.44, -699293.06, -60477.695, 0.117550895, -0.5432139, -566069.25, -9945.309, 0.0, 10.000212, 9.998784 
2.498084e+3, 2.5324112e+2, -592199.06, -705574.94, -100561.31, 0.20922603, -0.47929272, -533448.25, -75250.67, 0.0, 9.999795, 9.998268 
2.4977277e+3, 2.6323465e+2, -378248.84, -336828.75, -32818.633, 0.22032455, -0.40518683, -318731.97, 41530.324, 0.0, 9.999671, 10.000179 
2.4973719e+3, 2.7322924e+2, -191901.95, -179371.61, 37109.65, 0.0915815, -0.3735262, -148001.97, 114308.89, 0.0, 10.000208, 10.000331 
2.4970168e+3, 2.8322324e+2, -235871.58, -297956.1, 17971.652, 0.102544, -0.31259775, -231044.61, -66675.35, 0.0, 9.999856, 9.9990225 
2.4966629e+3, 2.9321632e+2, -505709.22, -424598.7, -2387.1968, 0.32008973, -0.2538706, -424528.47, -358084.7, 0.0, 9.997538, 9.9986 
2.4963093e+3, 3.0320844e+2, -464424.84, -311575.63, 135994.84, 0.39366648, -0.2949275, -232002.42, -232002.42, 0.0, 9.997187, 9.999206 
2.4959485e+3, 3.131989e+2, 238856.9, 274112.47, 82984.586, -0.5310715, -0.54888195, 341320.88, 341320.88, 0.0, 10.000888, 10.001466 
2.512728e+3, 1.2369146e+2, -1495193.1, -1517453.0, -108444.91, 0.7116533, -0.23040675, -1397308.5, 330493.78, 0.3973418, 10.001879, 10.001379 
2.5123623e+3, 1.3368732e+2, -1598793.5, -1530758.4, -112262.61, 0.18075873, -0.14902893, -1447472.5, 182368.47, 0.2840625, 9.999822, 10.000992 
2.5120017e+3, 1.4368205e+2, -1734165.0, -1762971.1, 68059.16, 0.0442629, -0.021288872, -1679001.5, -147108.13, 0.16993596, 9.999107, 9.998743 
2.511648e+3, 1.5367217e+2, -1440368.5, -1626501.5, 38106.996, 0.3756516, -0.22129326, -1432869.0, 1123.9967, 0.078587286, 10.000695, 9.998243 
2.511292e+3, 1.6366377e+2, -1164217.3, -1296774.4, 8627.141, 0.530703, -0.298359, -1163658.1, 172417.52, 0.024857625, 10.00132, 9.999546 
2.510933e+3, 1.7365816e+2, -1219022.9, -1276741.8, 2549.8586, 0.35479587, -0.19883052, -1218910.5, 19217.014, 0.0041356636, 10.000255, 9.999521 
2.5105754e+3, 1.8365146e+2, -1250221.8, -1283889.9, 40221.805, 0.26197356, -0.1603637, -1223453.3, -83263.52, 0.00018434241, 9.99955, 9.999139 
2.5102198e+3, 1.9364303e+2, -1177634.1, -1229846.5, 45903.74, 0.30392867, -0.27802524, -1150932.4, -108663.484, 0.00000026313862, 9.999514, 9.998856 
2.5098628e+3, 2.0363468e+2, -1116519.4, -1233947.3, -73243.53, 0.35506296, -0.3220019, -1081361.4, -137011.4, 0.0, 9.999644, 9.998081 
2.509504e+3, 2.1362703e+2, -993400.0, -1164597.0, -99671.06, 0.45997527, -0.24794324, -947615.75, -101187.01, 0.0, 9.999974, 9.997732 
2.5091466e+3, 2.2361965e+2, -732194.3, -742562.8, 81873.89, 0.46573398, -0.20952818, -655340.7, 93160.28, 0.0, 10.00006, 9.999907 
2.5087905e+3, 2.336125e+2, -659326.8, -637602.25, 72125.58, 0.27597374, -0.31885397, -575525.56, 75038.305, 0.0, 9.999808, 10.000076 
2.5084347e+3, 2.436051e+2, -623018.8, -664112.4, -41022.76, 0.19363251, -0.3911556, -597684.9, -45053.996, 0.0, 9.999802, 9.999218 
2.5080785e+3, 2.535978e+2, -507797.6, -603763.25, -15042.979, 0.3110429, -0.3940887, -505494.8, -50793.332, 0.0, 10.000108, 9.99882 
2.507722e+3, 2.6359048e+2, -404007.88, -399716.84, 41659.74, 0.3105188, -0.40481248, -360147.4, -3374.9219, 0.0, 9.999711, 9.99973 
2.5073647e+3, 2.735833e+2, -521917.38, -401982.34, -19600.49, 0.10483438, -0.48934028, -398860.38, -140019.08, 0.0, 9.998214, 9.999763 
2.507009e+3, 2.8357685e+2, -514524.97, -420179.94, -80507.68, 0.07869207, -0.451544, -374042.6, -213137.58, 0.0, 9.997902, 9.99912 
2.5066558e+3, 2.935717e+2, -224293.47, -275737.5, -69808.88, 0.38082758, -0.2378817, -175618.56, -112657.71, 0.0, 9.999409, 9.998718 
2.5063017e+3, 3.0356473e+2, -175097.4, -145466.61, 89838.64, 0.4347865, -0.20931977, -69229.95, -69229.95, 0.0, 9.999063, 9.999443 
2.5059426e+3, 3.1355408e+2, -522984.0, -127249.26, 95585.586, -0.32361427, -0.60598034, -105371.09, -105371.09, 0.0, 9.995811, 10.001157 
2.5227186e+3, 1.2404742e+2, -2068743.4, -1557739.4, -116832.52, 0.42135176, 0.040921047, -1532294.5, 192037.42, 0.37209317, 9.995722, 10.003872 
2.5223568e+3, 1.3404375e+2, -1576711.1, -1312256.8, -188091.39, 0.32001722, -0.09164186, -1214565.8, 411790.72, 0.26429707, 9.9988, 10.003472 
2.5219977e+3, 1.4403886e+2, -1627529.8, -1721186.8, -65028.97, 0.31535012, -0.0766404, -1594222.9, -65823.664, 0.15642524, 9.999889, 9.998658 
2.5216427e+3, 1.5402961e+2, -1700471.5, -1804318.0, -8759.173, 0.4594055, -0.1941938, -1699737.9, -269244.44, 0.071005836, 9.999139, 9.997784 
2.521286e+3, 1.6402125e+2, -1472606.0, -1470513.6, -43312.176, 0.45959273, -0.23409902, -1428235.0, -95659.33, 0.021693112, 9.999286, 9.999327 
2.5209257e+3, 1.740148e+2, -1262109.8, -1322310.5, -63754.246, 0.22997715, -0.20423515, -1221707.4, 12926.895, 0.00335279, 10.000072, 9.999299 
2.5205684e+3, 1.8400817e+2, -1149961.9, -1235756.8, -25229.475, 0.21262085, -0.15227276, -1143092.8, -6396.7544, 0.00011963712, 10.000239, 9.99914 
2.520215e+3, 1.9400121e+2, -1160885.9, -1226266.1, -21334.576, 0.4733316, -0.1325609, -1154540.0, -115777.17, 0.00000002568285, 9.999644, 9.998823 
2.5198585e+3, 2.039929e+2, -1119606.1, -1229462.0, -126322.125, 0.5810144, -0.17699994, -1036786.6, -95943.08, 0.0, 9.9995985, 9.998133 
2.519498e+3, 2.1398295e+2, -979028.25, -1152805.1, -108596.734, 0.47260347, -0.35058507, -926838.1, -83895.76, 0.0, 10.000064, 9.997767 
2.5191396e+3, 2.2397466e+2, -743903.75, -839366.6, 68664.85, 0.38698536, -0.37371266, -708010.1, 37012.82, 0.0, 10.000354, 9.999111 
2.5187847e+3, 2.33969e+2, -671934.44, -757530.56, 61386.184, 0.30962896, -0.23851448, -639899.75, 7174.5635, 0.0, 10.000189, 9.9990835 
2.5184292e+3, 2.4396265e+2, -550341.4, -544030.44, -56223.004, 0.28919032, -0.1879054, -490874.4, 58256.645, 0.0, 9.999929, 9.999986 
2.5180727e+3, 2.5395536e+2, -505310.38, -492505.03, -42687.082, 0.3506461, -0.29576606, -455743.13, -4548.3755, 0.0, 9.999648, 9.999808 
2.5177157e+3, 2.6394686e+2, -574932.0, -641802.8, -46996.96, 0.34203458, -0.42050228, -550690.4, -197415.1, 0.0, 9.99921, 9.998316 
2.5173578e+3, 2.7393678e+2, -638307.1, -655440.2, -76486.83, 0.21880017, -0.6251442, -569908.56, -314530.34, 0.0, 9.998257, 9.998008 
2.5170016e+3, 2.8392887e+2, -448617.97, -363216.0, -35949.023, 0.16878192, -0.6460035, -350098.5, -192639.86, 0.0, 9.998221, 9.999369 
2.5166476e+3, 2.9392463e+2, -178200.44, -197563.38, -13887.209, 0.222646, -0.3973725, -170953.08, -111451.15, 0.0, 9.999469, 9.999236 
2.516295e+3, 3.0391997e+2, -141820.56, -97876.02, -22758.654, 0.46385545, -0.18312642, -88213.87, -88213.87, 0.0, 9.999134, 9.999746 
2.5159365e+3, 3.139094e+2, -468030.3, -93221.164, 19734.932, 0.087988235, -0.5905184, -92184.92, -92184.92, 0.0, 9.996192, 10.00119 
2.5327027e+3, 1.2440338e+2, -2341678.5, -1758271.3, 26523.215, 0.023954183, 0.0552293, -1757068.0, -36225.78, 0.34545785, 9.9945545, 10.002309 
2.5323516e+3, 1.3439763e+2, -1679625.3, -1502302.5, -81275.22, 0.5747822, -0.088605784, -1470687.1, 152208.08, 0.24384461, 9.998792, 10.001659 
2.5319967e+3, 1.4439222e+2, -1486352.4, -1503964.1, -130664.39, 0.83956265, -0.08400986, -1364197.5, 160747.22, 0.14280652, 10.000305, 10.000026 
2.5316384e+3, 1.543861e+2, -1661175.4, -1582186.5, -81150.4, 0.80792457, -0.060625605, -1531430.1, -104427.836, 0.06363834, 9.998536, 9.999596 
2.53128e+3, 1.6437848e+2, -1633323.4, -1586995.5, 20827.893, 0.6366508, -0.11123777, -1579008.8, -249934.86, 0.0187796, 9.998352, 9.998974 
2.5309202e+3, 1.7436954e+2, -1273838.9, -1389321.0, -6697.9404, 0.28812686, -0.27071378, -1273451.8, -42294.89, 0.0026956536, 10.00025, 9.99875 
2.530563e+3, 1.8436153e+2, -1092110.4, -1257142.5, -69687.66, 0.1986569, -0.30587375, -1066620.5, 66612.89, 0.00007576087, 10.000864, 9.99868 
2.5302076e+3, 1.9435473e+2, -1154311.5, -1267152.6, -94491.695, 0.42768866, -0.22760452, -1100677.6, -65375.984, 0.00000000011876218, 9.999885, 9.998418 
2.529851e+3, 2.0434745e+2, -1033730.7, -1062895.5, -138030.13, 0.51055557, -0.20145127, -909514.8, 27857.22, 0.0, 9.999656, 9.999242 
2.529491e+3, 2.1433961e+2, -837780.9, -944112.44, -93507.34, 0.40534392, -0.28344345, -783381.7, 56063.453, 0.0, 10.000431, 9.999017 
2.5291333e+3, 2.2433165e+2, -708155.6, -880694.56, 87023.305, 0.32311308, -0.3181016, -671887.44, 69633.195, 0.0, 10.000867, 9.9985695 
2.5287786e+3, 2.3432407e+2, -625518.25, -815908.94, 67741.375, 0.27927747, -0.29819635, -603875.9, 39717.32, 0.0, 10.000867, 9.998347 
2.5284225e+3, 2.4431635e+2, -553099.9, -614299.8, -108243.82, 0.26182428, -0.31367892, -471213.94, 74451.58, 0.0, 10.0001955, 9.999378 
2.5280645e+3, 2.5430852e+2, -700575.4, -644468.56, -159003.92, 0.27690646, -0.41907853, -511062.25, -63325.313, 0.0, 9.998564, 9.99928 
2.5277075e+3, 2.64301e+2, -741795.25, -692948.9, -121792.14, 0.31517413, -0.43994653, -593155.25, -243345.42, 0.0, 9.997966, 9.998554 
2.5273517e+3, 2.742935e+2, -567217.94, -598551.8, -77301.35, 0.39889857, -0.4100024, -504011.88, -252123.86, 0.0, 9.998647, 9.998214 
2.5269958e+3, 2.8428593e+2, -313781.72, -296654.28, 32744.084, 0.33899006, -0.4095465, -271372.56, -117407.555, 0.0, 9.999173, 9.999351 
2.526639e+3, 2.9427892e+2, -182884.16, -206479.61, 15462.407, 0.076796934, -0.4231906, -175232.66, -119200.32, 0.0, 9.999486, 9.999157 
2.526286e+3, 3.0427265e+2, -102190.31, -210115.36, -96601.6, 0.22999339, -0.31338283, -45501.023, -45501.023, 0.0, 10.000001, 9.998548 
2.5259304e+3, 3.1426552e+2, 132537.64, 93415.26, -155606.53, 0.26142406, -0.26036105, 269807.7, 269807.7, 0.0, 10.000773, 10.000262 
2.542691e+3, 1.2475806e+2, -2033712.9, -1772687.4, 12909.732, -0.101701096, -0.02046945, -1772050.4, -54686.813, 0.31815544, 9.997401, 10.00084 
2.5423455e+3, 1.3475165e+2, -1948459.1, -1757147.4, 5196.275, 0.7553016, -0.10598851, -1757006.3, -137577.8, 0.22319694, 9.997628, 10.000187 
2.5419933e+3, 1.447462e+2, -1590978.8, -1441587.5, -128579.5, 1.139387, -0.07377997, -1367581.6, 153898.45, 0.12934339, 9.999007, 10.001107 
2.5416332e+3, 1.5474202e+2, -1206297.8, -1230791.9, -137435.16, 0.9940604, 0.011079979, -1080565.1, 342950.1, 0.05657354, 10.00116, 10.000821 
2.5412738e+3, 1.6473491e+2, -1196512.6, -1412492.3, -7137.926, 0.7437263, -0.043965098, -1196276.9, 129302.88, 0.016116831, 10.001524, 9.998644 
2.540915e+3, 1.747246e+2, -1286526.5, -1450237.0, 6716.7085, 0.36602706, -0.309024, -1286251.4, -58574.754, 0.0021455006, 10.000396, 9.998267 
2.540557e+3, 1.8471566e+2, -1246698.8, -1361194.8, -86528.88, 0.2131372, -0.4010031, -1200194.3, -70430.83, 0.000046550977, 9.999932, 9.998421 
2.5402e+3, 1.9470851e+2, -1211997.3, -1325677.4, -65329.93, 0.32037717, -0.33029428, -1182241.8, -150405.47, 0.0, 9.999632, 9.998142 
2.5398427e+3, 2.0470211e+2, -925350.8, -899084.75, -66232.82, 0.3696328, -0.2466363, -844695.44, 89201.875, 0.0, 9.999908, 10.000255 
2.5394845e+3, 2.1469665e+2, -733362.25, -781996.06, -72164.85, 0.319869, -0.19658984, -681527.5, 154416.17, 0.0, 10.000662, 10.000028 
2.5391275e+3, 2.2468886e+2, -761622.2, -980446.06, 53929.97, 0.269868, -0.23478049, -749052.94, -11036.88, 0.0, 10.000811, 9.997921 
2.5387728e+3, 2.3467878e+2, -771679.8, -970825.56, 52247.754, 0.22083598, -0.4027944, -758804.56, -118689.7, 0.0, 10.000219, 9.997604 
2.5384155e+3, 2.4466935e+2, -670454.2, -784584.25, -168259.89, 0.18820707, -0.50548136, -549845.9, -7638.697, 0.0, 9.999873, 9.998369 
2.5380558e+3, 2.546608e+2, -660473.7, -746046.6, -192949.66, 0.1444491, -0.58226997, -505623.47, -61332.504, 0.0, 9.999349, 9.998212 
2.537699e+3, 2.646548e+2, -517546.75, -488942.66, -82298.11, 0.26261202, -0.42877027, -419713.1, -73361.805, 0.0, 9.999069, 9.999435 
2.5373462e+3, 2.7465183e+2, -419211.44, -421707.56, -47100.355, 0.5861003, -0.04832374, -373342.6, -124958.05, 0.0, 9.999196, 9.99917 
2.5369903e+3, 2.8464505e+2, -303579.0, -337921.72, 39063.984, 0.50186545, 0.0028350947, -278078.94, -127627.06, 0.0, 9.99943, 9.998951 
2.5366303e+3, 2.946339e+2, -192975.47, -267912.38, 28062.625, -0.12617436, -0.38262886, -183631.58, -131073.55, 0.0, 9.999653, 9.998659 
2.5362757e+3, 3.0462357e+2, -245080.56, -534099.5, -64083.965, -0.18222372, -0.53477615, -231508.6, -231508.6, 0.0, 10.000086, 9.996299 
2.5359234e+3, 3.146194e+2, 81038.73, -27427.719, -135381.38, 0.06290326, 0.03709465, 172645.69, 172645.69, 0.0, 10.000778, 9.999459 
2.552687e+3, 1.2510923e+2, -1814619.0, -1630826.4, -14464.786, 0.2771292, -0.298005, -1629695.0, 84221.49, 0.29081568, 9.998609, 10.001455 
2.5523356e+3, 1.3510592e+2, -1916563.3, -1650881.9, 3462.043, 0.6541836, -0.13711144, -1650836.8, -34888.555, 0.20276766, 9.997447, 10.001003 
2.5519818e+3, 1.4510077e+2, -1648571.8, -1516365.3, 37248.906, 0.78688663, -0.08633919, -1506592.9, 11404.619, 0.116256416, 9.998844, 10.000555 
2.5516266e+3, 1.5509431e+2, -1006758.0, -1186418.9, -5284.5254, 0.6889356, -0.16480975, -1006602.7, 413455.53, 0.04988728, 10.002843, 10.000307 
2.5512692e+3, 1.6508786e+2, -878510.3, -1181068.9, -101736.97, 0.62100405, -0.16063474, -847482.6, 474637.78, 0.013707004, 10.003399, 9.999345 
2.5509113e+3, 1.7508131e+2, -1201948.0, -1318869.1, -74155.92, 0.5671654, -0.11877859, -1165980.1, 58204.402, 0.0016894786, 10.000588, 9.999074 
2.5505522e+3, 1.8507391e+2, -1219429.9, -1175373.1, -38757.543, 0.4118709, -0.17190419, -1152821.3, -26567.457, 0.000027889511, 9.999386, 9.999949 
2.5501925e+3, 1.9506603e+2, -1094881.4, -1101078.5, 22210.29, 0.19737595, -0.31536365, -1075554.5, -47229.24, 0.0, 9.999722, 9.999632 
2.5498348e+3, 2.0505865e+2, -966068.8, -1068585.8, 39644.098, 0.19904037, -0.32737473, -952526.94, -22131.814, 0.0, 10.000284, 9.998906 
2.5494796e+3, 2.1505201e+2, -764780.56, -944500.0, -35907.246, 0.385557, -0.25098643, -757872.0, 74588.086, 0.0, 10.001082, 9.998709 
2.5491235e+3, 2.2504404e+2, -766872.5, -978325.6, -2636.4958, 0.42260396, -0.24329394, -766839.6, -32301.209, 0.0, 10.000761, 9.997957 
2.548767e+3, 2.3503481e+2, -903820.94, -1022569.06, 8193.548, 0.3345915, -0.3310948, -903258.25, -266628.3, 0.0, 9.99927, 9.9977 
2.5484094e+3, 2.4502632e+2, -719448.3, -797762.1, -94713.61, 0.26320544, -0.34865594, -656116.56, -117401.625, 0.0, 9.999514, 9.998436 
2.5480503e+3, 2.5501868e+2, -353908.88, -601141.06, -87550.82, 0.1972688, -0.32742015, -326045.3, 114746.96, 0.0, 10.001466, 9.998182 
2.5476933e+3, 2.6501155e+2, -98650.83, -293275.4, -29433.275, 0.2568195, -0.2798538, -94297.0, 248566.08, 0.0, 10.001965, 9.999389 
2.5473392e+3, 2.7500552e+2, -168617.78, -304230.34, -46414.32, 0.49005097, -0.18869843, -154253.63, 90667.55, 0.0, 10.00093, 9.999141 
2.5469828e+3, 2.849988e+2, -175365.47, -305096.03, 53050.4, 0.38320613, -0.11599147, -156434.28, -9446.489, 0.0, 10.000436, 9.99869 
2.546624e+3, 2.9499057e+2, -99957.95, -252919.39, 43530.03, -0.1570434, -0.18563133, -88437.74, -39367.58, 0.0, 10.00042, 9.998392 
2.546271e+3, 3.049804e+2, -123390.234, -355078.06, 44867.805, -0.024619255, -0.35531348, -115004.8, -115004.8, 0.0, 10.000421, 9.997357 
2.5459167e+3, 3.1497264e+2, -116422.516, -181944.22, 135305.38, 0.031732656, -0.22281668, -9968.362, -9968.362, 0.0, 9.999711, 9.998895 
2.5626826e+3, 1.2546274e+2, -1837700.1, -1591731.4, -85438.76, 0.6057029, -0.32089835, -1564966.3, 145484.47, 0.26402712, 9.998239, 10.001991 
2.562326e+3, 1.3546008e+2, -1688079.3, -1507117.3, -75043.25, 0.5204115, -0.16834848, -1480047.0, 132423.45, 0.18292353, 9.998825, 10.00149 
2.5619715e+3, 1.4545462e+2, -1662405.4, -1583177.0, 68160.62, 0.46947852, -0.15519242, -1543954.9, -29432.9, 0.10372423, 9.998988, 10.000031 
2.5616196e+3, 1.5544663e+2, -1563504.3, -1525677.4, 52170.676, 0.45783806, -0.34138945, -1489097.6, -72496.625, 0.043632858, 9.999166, 9.999679 
2.5612643e+3, 1.6544108e+2, -1384572.4, -1334854.4, -198706.7, 0.5530164, -0.25882384, -1159457.8, 159199.83, 0.011545959, 9.9995, 10.000155 
2.5609067e+3, 1.754378e+2, -1336050.3, -1299196.0, -168667.14, 0.73207283, 0.01905142, -1147952.4, 72740.6, 0.0013158798, 9.999311, 9.999824 
2.560547e+3, 1.8543166e+2, -1115340.0, -1007163.2, -90546.82, 0.56641805, -0.0011662521, -955779.9, 166967.72, 0.000016496271, 9.999592, 10.001005 
2.560185e+3, 1.9542332e+2, -966162.56, -938977.6, -101509.12, 0.097747736, -0.31440434, -850155.0, 174661.36, 0.0, 10.000169, 10.000532 
2.5598276e+3, 2.05415e+2, -1070649.6, -1298276.9, -85911.945, 0.08461865, -0.39547512, -1041864.5, -114968.27, 0.0, 10.000333, 9.99731 
2.5594747e+3, 2.1540685e+2, -1019250.5, -1247492.8, -101669.59, 0.45527294, -0.32200423, -980530.7, -151547.1, 0.0, 10.000109, 9.997101 
2.5591192e+3, 2.2539897e+2, -864202.56, -980727.6, -99717.61, 0.5735656, -0.2527554, -806974.3, -75909.32, 0.0, 9.9999, 9.998359 
2.5587612e+3, 2.3539144e+2, -880890.6, -971619.4, -53341.027, 0.44925871, -0.21468168, -856232.2, -223091.52, 0.0, 9.999256, 9.998061 
2.558404e+3, 2.4538448e+2, -677993.56, -754533.7, -33910.95, 0.35421306, -0.10716321, -665130.94, -129918.94, 0.0, 9.9996805, 9.998663 
2.5580463e+3, 2.553783e+2, -400605.3, -603495.75, -24378.115, 0.27112982, 0.035271887, -397717.28, 39559.957, 0.0, 10.001049, 9.998376 
2.5576887e+3, 2.6536903e+2, -193608.27, -398768.2, -73926.69, 0.22685179, -0.11438532, -169745.33, 169621.02, 0.0, 10.00156, 9.998863 
2.557331e+3, 2.7535737e+2, -191826.66, -377388.6, -73072.805, 0.22379573, -0.54195595, -166506.22, 74967.766, 0.0, 10.001026, 9.998597 
2.556975e+3, 2.853506e+2, -155909.84, -314584.16, 58534.793, 0.136803, -0.4405776, -136653.36, 6889.154, 0.0, 10.000627, 9.998546 
2.5566188e+3, 2.9534826e+2, -110852.56, -269165.28, 66315.04, -0.08881262, 0.10341156, -86745.12, -41171.09, 0.0, 10.000381, 9.998306 
2.55627e+3, 3.05341e+2, 96579.086, 80355.234, 32783.793, 0.45754963, 0.07248313, 122239.64, 122239.64, 0.0, 10.000499, 10.000319 
2.5559142e+3, 3.1532773e+2, 148415.52, 295107.63, 165887.77, 0.41423172, -0.64132994, 403140.72, 403140.72, 0.0, 10.000032, 10.002016 
2.5726777e+3, 1.2582001e+2, -1751292.6, -1541357.8, -47357.344, 0.87841064, 0.14227411, -1531169.4, 175789.27, 0.23822951, 9.998682, 10.002175 
2.5723186e+3, 1.3581203e+2, -1554432.3, -1420059.1, -44493.203, 0.46318448, -0.25630352, -1406662.4, 202357.53, 0.16394517, 9.999647, 10.001761 
2.571964e+3, 1.4580543e+2, -1626837.3, -1526018.8, 16245.808, 0.4197578, -0.38450214, -1523465.5, -12386.911, 0.091881, 9.999052, 10.000396 
2.571613e+3, 1.5579958e+2, -1798237.9, -1590017.8, 11209.774, 0.6544048, -0.39016762, -1589416.0, -176277.83, 0.037844982, 9.997332, 10.000124 
2.5712574e+3, 1.6579436e+2, -1640626.0, -1370723.9, -137021.06, 0.71095425, -0.330907, -1313356.0, 1833.9622, 0.009625426, 9.997394, 10.0009 
2.5708985e+3, 1.7579e+2, -1367932.3, -1241792.1, -114872.35, 0.6545193, -0.22692482, -1173814.6, 43418.156, 0.0010124295, 9.998796, 10.000449 
2.5705403e+3, 1.8578327e+2, -1204301.4, -1264106.5, -87608.84, 0.56987584, -0.23303092, -1141632.5, -22336.08, 0.000009793076, 9.99991, 9.999083 
2.5701827e+3, 1.9577493e+2, -999039.8, -1151123.1, -183943.31, 0.43949875, -0.35788235, -876040.06, 145333.42, 0.0, 10.000791, 9.998775 
2.5698248e+3, 2.0576696e+2, -1035276.3, -1235963.3, -244255.11, 0.37365997, -0.35180187, -871556.56, 51897.676, 0.0, 10.000384, 9.997707 
2.5694674e+3, 2.1575941e+2, -1138528.1, -1245624.1, -215632.66, 0.40059912, -0.26352075, -969894.2, -144357.19, 0.0, 9.99904, 9.997622 
2.5691104e+3, 2.257525e+2, -887830.1, -792484.56, -120062.95, 0.40608752, -0.22415917, -710976.06, 16630.342, 0.0, 9.998891, 10.000123 
2.5687537e+3, 2.357462e+2, -712607.2, -708170.4, -44293.676, 0.3755899, -0.23763253, -666039.56, -36374.285, 0.0, 9.999622, 9.999687 
2.5683966e+3, 2.4573947e+2, -628767.1, -723270.94, 1760.3864, 0.28486624, -0.18624727, -628734.3, -97000.914, 0.0, 9.999999, 9.998719 
2.5680393e+3, 2.5573277e+2, -533592.9, -657505.4, -2189.8826, 0.15911601, -0.096809104, -533554.2, -99749.16, 0.0, 10.000104, 9.998454 
2.5676823e+3, 2.6572505e+2, -328521.5, -457776.2, -46452.44, 0.09913337, -0.0996645, -313559.13, 22322.35, 0.0, 10.000641, 9.998882 
2.5673246e+3, 2.757161e+2, -120602.93, -333265.66, -31887.531, 0.09534811, -0.2515847, -115924.51, 122040.87, 0.0, 10.001494, 9.998663 
2.5669685e+3, 2.8570825e+2, 4768.7495, -135667.39, 97263.31, 0.02704001, -0.30115783, 54512.047, 194552.84, 0.0, 10.001307, 9.999439 
2.5666127e+3, 2.9570258e+2, -89493.02, -175926.89, 154923.06, -0.09594598, -0.16923358, 28128.031, 70225.94, 0.0, 10.00017, 9.999049 
2.566265e+3, 3.0569696e+2, 69025.266, -7683.193, 103154.65, 0.5211681, -0.025570542, 140725.25, 140725.25, 0.0, 10.00064, 9.999639 
2.565908e+3, 3.156886e+2, 632403.6, 717063.5, -1892.0055, 0.294739, -0.2068273, 717105.75, 717105.75, 0.0, 10.002554, 10.003693 
2.5826722e+3, 1.2617499e+2, -1637785.4, -1488236.8, 39379.82, 1.0181682, 0.2558456, -1478500.9, 224981.63, 0.2137232, 9.999635, 10.002106 
2.5823116e+3, 1.3616523e+2, -1569628.9, -1443826.5, 13798.801, 0.4172415, -0.31416544, -1442330.8, 163226.83, 0.14602876, 9.999615, 10.001557 
2.5819567e+3, 1.4615841e+2, -1674371.9, -1513432.9, -15232.523, 0.42045873, -0.4669016, -1512003.9, -4386.394, 0.08082658, 9.998584, 10.000705 
2.5816056e+3, 1.5615372e+2, -1851629.4, -1591866.1, -22136.564, 0.83480644, -0.38903067, -1589993.3, -180327.5, 0.032553192, 9.99687, 10.000335 
2.5812492e+3, 1.661482e+2, -1582596.0, -1320595.3, -85391.36, 0.7979684, -0.38117167, -1295221.8, 16497.2, 0.007938516, 9.997692, 10.001105 
2.5808895e+3, 1.7614238e+2, -1218667.9, -1181674.6, -111324.18, 0.4708064, -0.45123544, -1087321.0, 126451.97, 0.00076767127, 9.999875, 10.000348 
2.5805333e+3, 1.8613504e+2, -1251352.8, -1485313.3, -97792.3, 0.51244193, -0.418874, -1215861.0, -100014.61, 0.000005913737, 10.000445, 9.997309 
2.58018e+3, 1.9612679e+2, -1236074.8, -1445203.3, -118998.16, 0.7607677, -0.35911998, -1182227.4, -164296.06, 0.0, 9.999944, 9.997166 
2.579821e+3, 2.0611927e+2, -1116804.4, -1177719.5, -198926.25, 0.6398084, -0.27640104, -946017.5, -26006.514, 0.0, 9.999402, 9.998588 
2.5794587e+3, 2.1611243e+2, -1154116.9, -1144393.6, -137531.23, 0.28331247, -0.19527367, -1011638.1, -189552.53, 0.0, 9.998465, 9.998601 
2.5791007e+3, 2.2610636e+2, -776409.2, -561687.75, -19593.031, 0.19250153, -0.19901684, -559914.56, 164229.06, 0.0, 9.998875, 10.001726 
2.5787458e+3, 2.3610093e+2, -573345.6, -483482.8, -13336.883, 0.25316387, -0.28551522, -481545.22, 144643.92, 0.0, 9.999896, 10.001103 
2.578389e+3, 2.4609384e+2, -587737.06, -704927.0, -20069.592, 0.15823323, -0.3335271, -584395.3, -56135.95, 0.0, 10.000278, 9.998715 
2.578031e+3, 2.5608593e+2, -528674.0, -657595.4, -9324.0, -0.040658914, -0.3665471, -528003.2, -97659.77, 0.0, 10.000144, 9.99844 
2.5776747e+3, 2.66081e+2, -322029.4, -442357.97, -30382.188, -0.06852824, -0.0976412, -314793.28, 17603.023, 0.0, 10.00061, 9.999015 
2.577319e+3, 2.7607793e+2, -129625.586, -311024.8, -16361.221, 0.0068340143, 0.31850046, -128161.71, 106267.414, 0.0, 10.001307, 9.998913 
2.576963e+3, 2.8606823e+2, 69546.88, 29921.404, 16400.967, -0.039175265, 0.0025234222, 75454.49, 211970.75, 0.0, 10.001156, 10.000659 
2.576606e+3, 2.960549e+2, -34787.914, -58843.027, 65546.99, -0.19333158, -0.76184237, 19825.889, 58459.293, 0.0, 10.000143, 9.999873 
2.576257e+3, 3.060502e+2, -113591.32, -416904.84, 124334.54, 0.2892514, -0.40674308, -69138.8, -69138.8, 0.0, 10.00075, 9.996783 
2.5759017e+3, 3.160478e+2, 338269.2, 87796.16, -73393.27, 0.000104371495, 0.2903459, 358190.38, 358190.38, 0.0, 10.002614, 9.999347 
2.5926653e+3, 1.2652479e+2, -1603020.3, -1551118.6, 75614.0, 0.9661678, -0.4166207, -1497126.3, 202916.6, 0.19075981, 10.000343, 10.001183 
2.5923055e+3, 1.365223e+2, -1595688.0, -1526382.5, 32364.41, 0.49041516, -0.14680824, -1513619.3, 88441.62, 0.12932202, 9.999756, 10.000822 
2.5919497e+3, 1.4651667e+2, -1685031.9, -1508225.5, -36284.152, 0.50921446, -0.14851686, -1501069.0, 3044.8733, 0.07062224, 9.998466, 10.000805 
2.5915965e+3, 1.5650973e+2, -1858723.3, -1594815.8, -25414.648, 0.8430023, -0.29131135, -1592390.5, -186208.13, 0.027766796, 9.996823, 10.000333 
2.5912392e+3, 1.6650315e+2, -1617281.9, -1486142.3, 39713.703, 0.62698996, -0.31150988, -1475053.3, -166806.27, 0.0064744665, 9.998087, 9.999777 
2.5908804e+3, 1.7649688e+2, -1128945.0, -1250202.6, -45279.492, 0.11419881, -0.2918886, -1113902.9, 96405.29, 0.0005723583, 10.000958, 9.999358 
2.5905246e+3, 1.8649012e+2, -1096837.6, -1282294.9, -137558.3, 0.17077635, -0.22426347, -1023672.0, 88705.41, 0.0000035552432, 10.00094, 9.998467 
2.5901708e+3, 1.9648312e+2, -1233988.4, -1297201.5, -92297.0, 0.54226863, -0.1439747, -1168036.1, -153585.47, 0.0, 9.999314, 9.998485 
2.5898123e+3, 2.0647623e+2, -1106341.1, -938643.1, -88098.86, 0.5425028, -0.1666777, -900869.5, 15648.165, 0.0, 9.998481, 10.000668 
2.5894508e+3, 2.1646957e+2, -1096599.3, -938841.94, 23128.217, 0.32319725, -0.251224, -935521.06, -116941.164, 0.0, 9.998094, 10.000194 
2.5890943e+3, 2.2646354e+2, -884420.94, -808428.7, 161304.56, 0.29801276, -0.20477116, -680705.56, 39933.78, 0.0, 9.998991, 9.999964 
2.5887412e+3, 2.3645805e+2, -568877.94, -644151.7, 48365.24, 0.38950238, -0.11919953, -545230.8, 77463.695, 0.0, 10.000635, 9.999634 
2.588384e+3, 2.464509e+2, -472344.9, -602017.4, -47607.727, 0.20881252, -0.13261281, -456743.38, 68024.37, 0.0, 10.000879, 9.999124 
2.588024e+3, 2.564429e+2, -482667.7, -596802.75, -23357.393, -0.11467252, -0.21411692, -478072.66, -51221.9, 0.0, 10.000304, 9.998771 
2.5876686e+3, 2.6643687e+2, -367705.94, -492206.03, -17130.799, -0.11296067, -0.04982391, -365391.8, -36479.543, 0.0, 10.000433, 9.998748 
2.5873145e+3, 2.7643242e+2, -227667.47, -409668.94, -34062.67, 0.088127464, 0.256071, -221501.34, 9456.358, 0.0, 10.00086, 9.998445 
2.586959e+3, 2.8642228e+2, -158307.64, -298168.3, -146862.11, 0.121061474, 0.01742854, -65576.57, 67475.586, 0.0, 10.000563, 9.998674 
2.5866017e+3, 2.964086e+2, -182801.25, -305117.22, -248457.72, 0.010313927, -0.606023, 11914.835, 47090.902, 0.0, 9.999904, 9.998285 
2.5862512e+3, 3.0640352e+2, -29802.416, -308469.47, -60005.9, 0.2141482, -0.28699568, -17430.506, -17430.506, 0.0, 10.001049, 9.997376 
2.585898e+3, 3.163975e+2, 232742.3, -157570.2, -154473.53, -0.00590016, -0.0010011297, 286479.66, 286479.66, 0.0, 10.002725, 9.997611 
2.6026574e+3, 1.2687816e+2, -1809653.3, -1688656.9, -89430.8, 0.7952713, -0.59559923, -1641183.3, 55395.566, 0.16948058, 9.999022, 10.000696 
2.6022995e+3, 1.3687861e+2, -1716358.1, -1639710.6, -86652.59, 0.5093668, -0.006069565, -1583285.4, 15289.316, 0.113908455, 9.999196, 10.000245 
2.6019427e+3, 1.4687361e+2, -1586680.6, -1472946.4, -162704.11, 0.5713985, 0.07450055, -1357457.8, 143166.36, 0.061296355, 9.999193, 10.000736 
2.6015875e+3, 1.5686572e+2, -1570752.4, -1485564.8, -129462.81, 0.8193618, -0.16896202, -1391869.0, 10832.692, 0.023481611, 9.998924, 10.000077 
2.60123e+3, 1.668586e+2, -1553027.3, -1547418.6, 85994.58, 0.48810428, -0.19256046, -1464182.6, -159410.9, 0.005220199, 9.998933, 9.99895 
2.6008722e+3, 1.7685205e+2, -1432371.1, -1467754.3, 55988.863, -0.1311885, -0.1173997, -1391345.1, -184508.69, 0.00041937284, 9.999193, 9.998718 
2.600516e+3, 1.8684588e+2, -1239881.1, -1209713.9, -136855.64, -0.0965519, -0.031135615, -1087113.1, 21787.643, 0.0000020172258, 9.999348, 9.999737 
2.600161e+3, 1.9684006e+2, -1175375.4, -1112484.4, -118003.6, 0.27120432, 0.035650343, -1021808.3, -10845.57, 0.0, 9.9990425, 9.999889 
2.5998032e+3, 2.0683387e+2, -854573.7, -622832.44, -138811.42, 0.4075413, -0.08114242, -557886.56, 355129.3, 0.0, 9.999372, 10.002406 
2.5994435e+3, 2.1682754e+2, -793884.7, -678903.1, -73594.33, 0.4039446, -0.31250942, -643005.94, 172058.4, 0.0, 9.999686, 10.00121 
2.599089e+3, 2.2682138e+2, -933094.3, -1090121.6, 123761.01, 0.45277378, -0.19660977, -865043.4, -147915.14, 0.0, 9.999766, 9.997664 
2.5987372e+3, 2.3681553e+2, -826061.3, -982707.2, 63523.84, 0.5267348, 0.07758286, -803539.0, -184341.55, 0.0, 9.999792, 9.997725 
2.598379e+3, 2.4680853e+2, -571879.9, -612886.5, -93692.37, 0.26428396, 0.13878022, -496473.6, 24798.354, 0.0, 10.00003, 9.999463 
2.5980175e+3, 2.5680104e+2, -516981.66, -595946.56, -85518.39, -0.17874089, 0.06801746, -462271.44, -38922.867, 0.0, 9.999988, 9.998936 
2.5976625e+3, 2.6679248e+2, -403367.06, -564083.25, -56045.73, -0.12049951, -0.0052300193, -385752.97, -60321.43, 0.0, 10.000413, 9.998269 
2.5973105e+3, 2.767838e+2, -297511.5, -558287.06, -69165.31, 0.21020977, -0.077725865, -280302.47, -52787.813, 0.0, 10.000868, 9.997427 
2.596956e+3, 2.867738e+2, -344780.47, -782073.0, -181787.61, 0.3788144, -0.055462617, -279080.25, -149465.36, 0.0, 10.000957, 9.995178 
2.596599e+3, 2.9676318e+2, -255379.38, -620564.06, -203690.98, 0.3463639, -0.027108971, -164421.02, -132698.3, 0.0, 10.000599, 9.995795 
2.5962457e+3, 3.067567e+2, 192144.95, 105459.63, 36667.04, 0.16094053, 0.098431304, 205574.28, 205574.28, 0.0, 10.001237, 10.000135 
2.5958946e+3, 3.1674808e+2, 305541.97, 56316.047, 3777.076, -0.010443215, -0.14271115, 305599.2, 305599.2, 0.0, 10.002438, 9.999225 
2.6126465e+3, 1.2723804e+2, -1738775.3, -1559185.6, -92261.1, 0.42417365, 0.22482207, -1520235.6, 172838.67, 0.14986803, 9.999016, 10.001706 
2.6122913e+3, 1.3723053e+2, -1653530.8, -1527845.8, -84594.05, 0.4259676, -0.071687944, -1485306.4, 109830.86, 0.09979259, 9.999255, 10.001035 
2.611936e+3, 1.4722537e+2, -1528632.6, -1470988.9, -146959.06, 0.5800605, -0.022995036, -1350052.1, 147136.06, 0.05285704, 9.999718, 10.000479 
2.611581e+3, 1.5722084e+2, -1355112.9, -1361632.1, -132943.38, 0.8284386, 0.09395028, -1225389.3, 173847.63, 0.019694533, 10.000319, 10.000265 
2.611225e+3, 1.6721445e+2, -1347262.5, -1248591.3, 55024.723, 0.65931445, 0.02882907, -1224023.4, 77270.5, 0.004163879, 9.999478, 10.00074 
2.6108685e+3, 1.7720753e+2, -1489263.1, -1328881.8, 79875.8, 0.2907817, -0.10071133, -1295888.1, -92535.31, 0.00030229846, 9.998087, 10.000196 
2.6105112e+3, 1.872009e+2, -1381790.9, -1256513.0, -46275.527, 0.21534531, -0.1242485, -1241273.5, -135854.14, 0.0000010444409, 9.998287, 9.999917 
2.6101542e+3, 1.9719456e+2, -1156432.3, -1107328.8, -52704.84, 0.30830336, -0.11817172, -1073737.6, -66250.695, 0.0, 9.999184, 9.999851 
2.6097974e+3, 2.0718867e+2, -785310.06, -747602.7, -115972.99, 0.43562698, -0.12086851, -648960.9, 260579.3, 0.0, 10.000526, 10.00099 
2.60944e+3, 2.1718298e+2, -530651.9, -663372.0, -162617.8, 0.56152624, -0.158668, -421375.34, 390210.88, 0.0, 10.001976, 10.000204 
2.6090834e+3, 2.2717552e+2, -727862.0, -909464.4, -32041.262, 0.46936548, -0.18318142, -722374.56, -8715.494, 0.0, 10.0008335, 9.998382 
2.6087275e+3, 2.3716763e+2, -990480.8, -1035390.1, 7166.377, 0.3077884, -0.18110384, -989365.0, -373623.44, 0.0, 9.998556, 9.99795 
2.60837e+3, 2.4716087e+2, -894309.75, -946046.9, -92251.16, 0.08257127, -0.009666251, -824368.8, -306550.66, 0.0, 9.998592, 9.997866 
2.608011e+3, 2.5715458e+2, -657928.0, -806412.25, -160521.47, -0.1819937, 0.19157556, -555311.3, -135419.92, 0.0, 9.999633, 9.9976635 
2.6076576e+3, 2.671457e+2, -426817.88, -595468.56, -154668.95, -0.01817399, 0.13851589, -334980.66, -13001.126, 0.0, 10.000354, 9.998076 
2.6073065e+3, 2.7713588e+2, -285469.9, -549541.2, -162575.19, 0.3721947, -0.037235077, -208067.97, 16004.965, 0.0, 10.000949, 9.997442 
2.6069516e+3, 2.8712675e+2, -19522.549, -495870.22, -109001.6, 0.4059865, -0.0015222114, 4235.145, 130397.44, 0.0, 10.00265, 9.996314 
2.6065937e+3, 2.9711816e+2, 361600.0, -244369.48, 58303.074, 0.2044585, 0.13742876, 367158.63, 395407.2, 0.0, 10.004516, 9.996481 
2.6062405e+3, 3.0711085e+2, 181419.56, 10329.382, 138572.58, 0.12348265, 0.22687562, 258725.08, 258725.08, 0.0, 10.001586, 9.999294 
2.605892e+3, 3.1710213e+2, -416595.1, -232353.38, 22100.766, 0.38381404, 0.05333468, -229739.36, -229739.36, 0.0, 9.997262, 9.99971 
2.622637e+3, 1.2759517e+2, -1740871.5, -1462127.3, -19726.344, 0.22098579, 0.6424808, -1460738.3, 228849.0, 0.13182648, 9.998556, 10.002641 
2.6222837e+3, 1.375835e+2, -1908595.9, -1590574.5, -9723.7705, 0.42911568, -0.15760638, -1590277.5, 1406.9244, 0.086927354, 9.997295, 10.001479 
2.6219293e+3, 1.4757834e+2, -1730928.6, -1644327.3, -60681.32, 0.583714, -0.074129075, -1613081.5, -119344.6, 0.045284707, 9.998646, 9.999783 
2.6215747e+3, 1.5757574e+2, -1325967.9, -1372083.5, -99026.01, 0.77327603, 0.3003804, -1247350.6, 148420.0, 0.01638905, 10.000635, 10.00004 
2.62122e+3, 1.675697e+2, -1196095.5, -1031936.6, -61984.56, 0.8004182, 0.19540249, -1011161.2, 286659.13, 0.0032885466, 9.999884, 10.002048 
2.6208645e+3, 1.775625e+2, -1430800.1, -1196765.9, -90863.18, 0.71563506, -0.10380485, -1165630.6, 34244.313, 0.00021471751, 9.998032, 10.0011425 
2.6205063e+3, 1.8755548e+2, -1419756.4, -1285816.6, -169847.0, 0.5342351, -0.20987722, -1170213.4, -68269.96, 0.00000047553752, 9.998068, 9.999826 
2.6201475e+3, 1.9754867e+2, -1264225.3, -1217832.3, -168313.67, 0.3505761, -0.2553313, -1071124.3, -67108.51, 0.0, 9.998695, 9.999334 
2.6197916e+3, 2.0754291e+2, -996965.25, -1037510.5, -167318.73, 0.46312118, -0.13421881, -848695.5, 57375.54, 0.0, 9.99987, 9.999323 
2.6194364e+3, 2.1753758e+2, -751819.94, -897268.06, -178291.83, 0.6585066, 0.018030657, -631990.75, 176128.4, 0.0, 10.000998, 9.999078 
2.6190773e+3, 2.2752869e+2, -661895.5, -743306.0, -163727.52, 0.41047516, -0.18480046, -533889.1, 176311.97, 0.0, 10.000706, 9.999586 
2.6187167e+3, 2.3751867e+2, -838613.44, -921316.75, -123701.46, -0.0077628414, -0.51531994, -749535.0, -137240.13, 0.0, 9.999422, 9.998322 
2.6183602e+3, 2.4751203e+2, -894786.94, -1167869.8, -96398.66, -0.13833717, -0.2309093, -864186.9, -349812.47, 0.0, 9.999538, 9.995891 
2.6180047e+3, 2.5750673e+2, -704646.6, -1006304.56, -105626.54, -0.1647469, 0.2628884, -671338.9, -254891.13, 0.0, 10.000069, 9.996088 
2.617653e+3, 2.6749817e+2, -379580.28, -586957.6, -95318.67, 0.110390306, 0.30786583, -342425.1, -23888.86, 0.0, 10.000729, 9.997961 
2.6173028e+3, 2.7748847e+2, -196264.58, -437361.22, -82659.01, 0.4984618, 0.15424885, -170647.2, 49981.7, 0.0, 10.001257, 9.998071 
2.6169464e+3, 2.8748065e+2, 169736.3, -33209.707, -17344.045, 0.2587762, 0.09427023, 171207.88, 293906.4, 0.0, 10.002353, 9.999636 
2.6165876e+3, 2.9747364e+2, 348426.13, -54929.855, 65375.71, -0.2468727, 0.07280927, 358757.53, 383517.0, 0.0, 10.003573, 9.998243 
2.6162362e+3, 3.0746537e+2, -82149.57, -493121.3, -52651.31, 0.17457457, 0.20517811, -75511.414, -75511.414, 0.0, 10.001362, 9.995965 
2.615885e+3, 3.17453e+2, -325282.47, -209373.45, 20022.658, 0.58822703, -0.038346447, -206012.13, -206012.13, 0.0, 9.997931, 9.999576 
2.6326314e+3, 1.2794623e+2, -1678251.8, -1383877.3, -30568.72, 0.41668054, 0.16208336, -1380736.4, 305400.47, 0.11527306, 9.99874, 10.003128 
2.6322767e+3, 1.3793994e+2, -1981121.9, -1642796.0, 18572.791, 0.6663472, -0.123804554, -1641779.5, -53594.46, 0.07524718, 9.99684, 10.001349 
2.6319215e+3, 1.4793396e+2, -1868927.5, -1880403.8, 88518.87, 0.6141305, -0.008608222, -1785961.0, -295712.47, 0.038529117, 9.998435, 9.998262 
2.6315668e+3, 1.5792847e+2, -1351279.6, -1527490.6, -17061.963, 0.52504885, 0.22922637, -1349642.8, 42670.004, 0.013527696, 10.001084, 9.998738 
2.6312128e+3, 1.6792145e+2, -1235790.6, -1196521.0, -148373.05, 0.68153745, 0.15718582, -1066489.3, 227888.27, 0.0025719018, 10.000238, 10.000745 
2.6308578e+3, 1.7791402e+2, -1476155.0, -1336353.0, -212314.55, 0.8648761, -0.03758052, -1182728.5, 13712.6455, 0.00015054179, 9.998219, 10.000093 
2.630499e+3, 1.8790746e+2, -1461738.3, -1355339.9, -249121.0, 0.64393014, -0.037435118, -1153801.1, -55294.07, 0.0000001940375, 9.997998, 9.999377 
2.6301393e+3, 1.9790128e+2, -1299078.3, -1236951.6, -261881.3, 0.31762388, 0.013929381, -1004297.8, -3725.4182, 0.0, 9.998469, 9.999308 
2.629783e+3, 2.078949e+2, -1032233.94, -961471.2, -209717.67, 0.3122052, 0.012361969, -784171.25, 118460.445, 0.0, 9.999246, 10.000135 
2.6294282e+3, 2.1788861e+2, -855162.1, -902726.4, -175013.36, 0.41486222, -0.007777598, -702322.44, 102365.4, 0.0, 10.000101, 9.999463 
2.6290706e+3, 2.2788095e+2, -689977.06, -827808.25, -209316.75, 0.2849126, -0.06155363, -538522.8, 168238.78, 0.0, 10.000821, 9.998947 
2.628712e+3, 2.3787281e+2, -547261.56, -781323.6, -232164.48, 0.07509162, -0.15458408, -404299.13, 204542.05, 0.0, 10.001427, 9.998311 
2.6283568e+3, 2.478652e+2, -507997.94, -797565.94, -133659.56, 0.078933656, -0.07407762, -455735.53, 55186.22, 0.0, 10.001413, 9.997523 
2.6280025e+3, 2.5785816e+2, -446489.63, -725159.56, -13820.75, 0.16140248, 0.092775896, -445805.84, -32805.723, 0.0, 10.001184, 9.997465 
2.627649e+3, 2.6785073e+2, -179631.1, -425848.53, 75426.695, 0.18060434, 0.17227015, -158362.03, 156713.88, 0.0, 10.001829, 9.998534 
2.627296e+3, 2.7784312e+2, 31749.766, -259964.75, 89999.54, 0.22777045, 0.18487808, 57281.703, 274432.16, 0.0, 10.002536, 9.998668 
2.6269403e+3, 2.8783545e+2, -13564.3955, -56671.332, 29140.943, 0.12168147, 0.094989195, 1127.7772, 120346.87, 0.0, 10.0008135, 10.000214 
2.6265836e+3, 2.9782796e+2, -352397.34, -326640.56, 9110.39, -0.09792777, -0.029901125, -323743.9, -302459.94, 0.0, 9.998475, 9.998829 
2.6262322e+3, 3.0781972e+2, -65766.734, -417456.72, 56947.406, 0.26274234, 0.049958866, -56775.4, -56775.4, 0.0, 10.001204, 9.9965515 
2.625877e+3, 3.1780785e+2, 607863.56, 286154.75, 274586.03, 0.24501109, -0.18627293, 765241.2, 765241.2, 0.0, 10.004172, 9.999961 
2.6426253e+3, 1.2829894e+2, -1699900.6, -1499809.4, -193103.83, 0.53317374, -0.068770066, -1382373.5, 300299.44, 0.10014656, 9.999206, 10.002002 
2.6422694e+3, 1.38295e+2, -1638867.3, -1587573.0, -221356.66, 0.80499554, -0.040795762, -1390382.6, 194321.86, 0.06468665, 9.999715, 10.000381 
2.6419145e+3, 1.4828835e+2, -1652838.9, -1804379.1, 8127.372, 0.6219112, 0.037981708, -1652404.3, -165630.31, 0.03253027, 10.000047, 9.997998 
2.6415598e+3, 1.5828097e+2, -1508296.9, -1674305.8, 3274.02, 0.35035616, 0.10956738, -1508232.4, -119377.64, 0.011066901, 10.000307, 9.99811 
2.6412052e+3, 1.6827358e+2, -1308383.6, -1367473.1, -152676.03, 0.5671931, 0.09991254, -1182420.0, 108508.81, 0.0019930317, 10.000335, 9.999519 
2.6408505e+3, 1.782663e+2, -1321856.4, -1384741.8, -151121.78, 0.88838387, 0.046920285, -1198941.0, -5941.3755, 0.00010503105, 9.999815, 9.998994 
2.6404917e+3, 1.8826011e+2, -1171967.3, -1249529.9, -104254.99, 0.6648562, 0.15125947, -1099514.1, -4450.9233, 0.00000008640195, 10.000137, 9.999071 
2.6401317e+3, 1.9825432e+2, -1000895.4, -1092374.4, -96685.18, 0.2777863, 0.27969232, -939676.4, 57447.22, 0.0, 10.000516, 9.999316 
2.639775e+3, 2.0824715e+2, -833465.8, -758509.5, -78716.05, 0.16531737, 0.1455317, -708804.94, 190384.0, 0.0, 10.00015, 10.001088 
2.639419e+3, 2.1823981e+2, -906345.44, -896898.9, -78928.766, 0.14043713, -0.062563784, -822552.2, -21298.014, 0.0, 9.9996195, 9.999739 
2.639064e+3, 2.2823383e+2, -852463.75, -1009949.6, -96264.336, 0.17902213, 0.10842023, -806839.2, -103521.91, 0.0, 10.000143, 9.998028 
2.6387087e+3, 2.382281e+2, -660344.94, -832053.1, -95794.61, 0.2294246, 0.34650964, -617561.8, -12181.667, 0.0, 10.000628, 9.998354 
2.638355e+3, 2.4821925e+2, -387135.97, -456869.4, -53161.8, 0.38878992, 0.1413495, -358427.0, 149034.56, 0.0, 10.001018, 10.000053 
2.638001e+3, 2.5820982e+2, -323554.66, -449643.9, 41871.77, 0.52924, -0.17092039, -310916.56, 98629.14, 0.0, 10.001086, 9.999411 
2.6376444e+3, 2.6820388e+2, -194432.44, -358233.38, 115134.21, 0.17333697, -0.053236775, -135040.39, 176563.52, 0.0, 10.001395, 9.999214 
2.6372874e+3, 2.781988e+2, -88968.28, -296288.84, 65465.113, -0.25307807, 0.15098691, -70027.04, 143628.56, 0.0, 10.0016, 9.998879 
2.636934e+3, 2.8819048e+2, -119691.58, -204905.55, -88530.06, 0.029504249, 0.04002075, -64049.246, 51685.105, 0.0, 10.000486, 9.999364 
2.6365805e+3, 2.981816e+2, -281530.84, -258174.25, -15470.423, 0.3594789, -0.15880723, -250469.13, -232651.88, 0.0, 9.998806, 9.999146 
2.636227e+3, 3.0817443e+2, 145556.5, 25259.31, 209758.16, 0.25226128, -0.18621084, 303619.6, 303619.6, 0.0, 10.001176, 9.999615 
2.6358697e+3, 3.1816998e+2, 507548.94, 222710.83, 159873.56, -0.32176337, 0.07161626, 579239.06, 579239.06, 0.0, 10.003552, 9.999822 
2.6526174e+3, 1.2865436e+2, -1933807.6, -2111635.5, -162923.63, 0.4457538, 0.23390242, -1837115.0, -157924.13, 0.08639467, 9.999755, 9.997376 
2.652263e+3, 1.3864443e+2, -1548004.1, -1717645.8, -252227.34, 0.69237864, 0.075598374, -1366717.5, 214576.63, 0.055188555, 10.001117, 9.998789 
2.6519093e+3, 1.4863819e+2, -1284956.9, -1204261.6, -41172.797, 0.6501304, -0.015968248, -1186962.6, 296388.16, 0.027234113, 10.000786, 10.001805 
2.6515555e+3, 1.5863289e+2, -1352271.6, -1305112.0, 19082.84, 0.5528577, -0.087173305, -1298357.6, 87039.984, 0.008968034, 10.000114, 10.0007305 
2.651199e+3, 1.6862783e+2, -1257239.9, -1304986.6, -63448.34, 0.5217642, 0.035118796, -1213322.1, 74129.9, 0.0015322798, 10.000556, 9.999828 
2.6508415e+3, 1.786227e+2, -1063749.3, -1195441.9, -27503.93, 0.52308327, 0.17913339, -1058235.9, 131272.8, 0.00007382683, 10.001316, 9.999563 
2.6504853e+3, 1.8861616e+2, -826714.44, -982222.56, 59623.97, 0.50707674, 0.18268411, -806485.25, 285087.22, 0.000000036839044, 10.002083, 9.999969 
2.6501292e+3, 1.9860947e+2, -659730.3, -874797.44, 63462.758, 0.4577378, 0.15588906, -642400.0, 351236.38, 0.0, 10.002647, 9.999769 
2.649772e+3, 2.0860271e+2, -738717.2, -792458.0, 4476.2417, 0.39361256, 0.110990435, -738346.94, 157354.02, 0.0, 10.001156, 10.000358 
2.6494142e+3, 2.1859604e+2, -959432.7, -921347.56, -4358.4624, 0.33788842, 0.04719292, -920855.2, -123090.49, 0.0, 9.999256, 9.99974 
2.649058e+3, 2.285899e+2, -892750.2, -872909.75, 82698.984, 0.29104036, 0.12556744, -799538.1, -99710.87, 0.0, 9.9992075, 9.999419 
2.648703e+3, 2.3858394e+2, -725576.06, -743677.56, 156737.22, 0.27692017, 0.228564, -577628.5, 24260.3, 0.0, 9.999669, 9.999419 
2.648349e+3, 2.4857603e+2, -450136.72, -446773.47, 172912.6, 0.39464608, 0.083722554, -275534.3, 228424.64, 0.0, 10.000422, 10.000405 
2.647996e+3, 2.5856766e+2, -340016.63, -477610.78, 172570.67, 0.51328754, -0.13433377, -223035.16, 182996.55, 0.0, 10.001063, 9.999228 
2.6476386e+3, 2.685601e+2, -482550.4, -634253.3, 132910.73, 0.15447746, -0.07540972, -405370.13, -97262.414, 0.0, 10.000021, 9.997976 
2.6472807e+3, 2.7855307e+2, -590624.25, -651090.3, 16326.553, -0.25173575, 0.05381103, -586497.56, -376315.88, 0.0, 9.998652, 9.99786 
2.6469272e+3, 2.8854468e+2, -295481.72, -379522.44, -121702.945, 0.002142902, 0.021431835, -208749.14, -96483.79, 0.0, 9.999685, 9.998539 
2.6465738e+3, 2.9853627e+2, 40434.12, -94340.01, -61102.293, 0.32370496, -0.065546684, 64011.37, 78359.23, 0.0, 10.001001, 9.999199 
2.646222e+3, 3.0852956e+2, -55978.566, 109781.06, 93106.695, 0.3637053, -0.16793841, 151552.44, 151552.44, 0.0, 9.999032, 10.001213 
2.645864e+3, 3.185285e+2, -306505.72, -136007.33, -11019.554, -0.26954964, 0.28344104, -135298.06, -135298.06, 0.0, 9.997856, 10.000083 
2.662612e+3, 1.2900934e+2, -1586684.4, -2221225.5, 28377.602, 0.38889405, 0.3124937, -1585417.8, 90290.25, 0.07395735, 10.00341, 9.99486 
2.662257e+3, 1.3899626e+2, -1467423.0, -1765655.3, 102110.2, 0.5608199, 0.07709361, -1435812.5, 142039.64, 0.04669646, 10.00204, 9.997996 
2.6619038e+3, 1.489903e+2, -1196250.3, -928203.5, 133322.78, 0.66412616, -0.08125847, -873183.94, 606717.0, 0.022590311, 10.000373, 10.003939 
2.6615512e+3, 1.5898634e+2, -1454858.4, -1211286.5, 29164.305, 0.74047357, -0.21176137, -1207843.1, 174083.16, 0.007195384, 9.998796, 10.002018 
2.6611927e+3, 1.6898268e+2, -1345013.0, -1335553.5, -62801.61, 0.48231912, 0.0006115504, -1277303.8, 6665.4453, 0.001170623, 9.999884, 9.999948 
2.660833e+3, 1.7897895e+2, -1070055.3, -1162178.4, -50649.68, 0.18327452, 0.25674897, -1047654.75, 138361.61, 0.00005271245, 10.001114, 9.999893 
2.6604795e+3, 1.88972e+2, -857549.2, -908450.25, -3393.3816, 0.36621875, 0.14696616, -857323.94, 230756.88, 0.000000014947995, 10.0014925, 10.000759 
2.660127e+3, 1.9896455e+2, -829311.7, -943103.75, -50551.523, 0.6296837, -0.03386888, -810098.5, 180049.2, 0.0, 10.001424, 9.999897 
2.6597688e+3, 2.0895877e+2, -841742.6, -930229.94, -122407.84, 0.62491184, 0.056311395, -755828.0, 136378.48, 0.0, 10.000819, 9.999583 
2.6594093e+3, 2.1895334e+2, -874575.3, -876331.4, -49057.76, 0.5453281, 0.1761672, -826387.7, -32124.586, 0.0, 9.999823, 9.999783 
2.6590523e+3, 2.2894666e+2, -678124.2, -588151.3, 56674.805, 0.3994908, 0.084832355, -560778.9, 135547.88, 0.0, 9.999901, 10.001038 
2.6586962e+3, 2.3893993e+2, -610139.25, -594490.75, 94359.78, 0.25380176, -0.046175696, -507631.4, 90758.25, 0.0, 10.000062, 10.0002575 
2.6583424e+3, 2.4893375e+2, -471444.66, -508374.63, 101166.52, 0.29686227, -0.023124004, -387071.8, 113372.18, 0.0, 10.000496, 9.999951 
2.657989e+3, 2.5892732e+2, -453561.34, -656525.94, 75856.04, 0.34541413, 0.005158541, -428344.03, -25843.035, 0.0, 10.000813, 9.998126 
2.6576322e+3, 2.689172e+2, -561482.8, -882074.06, 28626.193, 0.14737935, -0.039073672, -558946.8, -254340.94, 0.0, 10.000371, 9.996114 
2.6572752e+3, 2.789067e+2, -571261.6, -805252.6, 5183.5386, -0.07720259, -0.07711526, -571146.9, -364429.9, 0.0, 9.999484, 9.996407 
2.6569203e+3, 2.8889883e+2, -284711.88, -469845.97, -50256.45, -0.049716208, 0.04163346, -271949.13, -163148.55, 0.0, 10.000154, 9.997701 
2.6565653e+3, 2.9889172e+2, 15692.523, -130703.695, -44491.723, -0.015200238, 0.15407604, 28153.484, 39028.77, 0.0, 10.000917, 9.999001 
2.6562175e+3, 3.0888492e+2, 2987.38, 212648.06, -14496.711, 0.6084397, 0.0031256329, 213645.67, 213645.67, 0.0, 9.999099, 10.0019 
2.655859e+3, 3.188815e+2, -182047.14, 3900.173, 223328.36, 0.037982732, 0.1454845, 152834.89, 152834.89, 0.0, 9.998321, 10.000848 
2.672611e+3, 1.2936291e+2, -1205536.8, -1683751.8, 40804.313, 0.46660328, -0.24289235, -1202080.0, 470143.78, 0.062735535, 10.004729, 9.997909 
2.6722518e+3, 1.3935483e+2, -1366552.3, -1658456.4, 188231.9, 0.43017063, -0.20297399, -1274316.9, 300003.97, 0.039129134, 10.0025, 9.998524 
2.6718974e+3, 1.4934888e+2, -1459138.3, -1431873.5, 171985.14, 0.62030923, -0.11989929, -1272981.3, 203396.3, 0.018540569, 10.000209, 10.000481 
2.6715443e+3, 1.593435e+2, -1678561.8, -1575558.8, 42265.96, 0.8328989, -0.062114634, -1560435.9, -182010.19, 0.005710546, 9.99836, 9.99972 
2.6711866e+3, 1.6933706e+2, -1437020.8, -1452837.6, 10789.95, 0.5789423, -0.0043513095, -1431551.4, -151059.03, 0.0008890518, 9.999574, 9.999286 
2.670829e+3, 1.793307e+2, -1077657.9, -1204182.0, -35365.52, 0.26410282, 0.04833237, -1068443.6, 114116.51, 0.000037964888, 10.001234, 9.999532 
2.6704746e+3, 1.8932363e+2, -935863.2, -974697.6, -61622.355, 0.38267022, -0.045931656, -890671.25, 193957.3, 0.0000000057994387, 10.0010805, 10.000502 
2.670121e+3, 1.9931681e+2, -914272.25, -923709.7, -132916.69, 0.57284284, -0.15387976, -785990.56, 200702.56, 0.0, 10.000578, 10.000434 
2.6697615e+3, 2.0931278e+2, -762436.44, -729759.1, -152812.92, 0.48866454, -0.011475353, -592413.9, 296320.94, 0.0, 10.000683, 10.0010195 
2.6694015e+3, 2.1930893e+2, -679732.7, -728278.9, -32952.605, 0.354299, 0.14768235, -663078.3, 127696.8, 0.0, 10.000933, 10.000256 
2.6690453e+3, 2.293018e+2, -579204.2, -645485.2, 17553.266, 0.26355398, 0.062086225, -574842.56, 118001.32, 0.0, 10.001035, 10.000091 
2.66869e+3, 2.3929419e+2, -539431.44, -676423.94, -30938.465, 0.2017602, -0.066434816, -532768.4, 62147.83, 0.0, 10.00105, 9.999209 
2.668337e+3, 2.4928704e+2, -511995.47, -664265.0, -73574.43, 0.29525045, -0.037483897, -482254.34, 14730.902, 0.0, 10.000803, 9.998731 
2.6679838e+3, 2.5927997e+2, -490552.9, -674904.56, -113483.37, 0.39232805, 0.00765579, -436527.3, -37473.81, 0.0, 10.000569, 9.998109 
2.6676282e+3, 2.6927134e+2, -262011.95, -549843.56, -44941.77, 0.25089, -0.019253138, -255158.0, 45981.918, 0.0, 10.001632, 9.997775 
2.667272e+3, 2.7926242e+2, -45184.28, -448970.88, 36869.074, 0.111112334, -0.05052666, -41845.438, 161385.19, 0.0, 10.0026655, 9.997309 
2.6669165e+3, 2.8925487e+2, -77492.13, -387419.0, 19035.576, 0.103971146, 0.093543716, -76327.35, 28984.486, 0.0, 10.001662, 9.99754 
2.6665604e+3, 2.992478e+2, -97730.03, -223265.16, 47452.08, 0.08429963, 0.24056692, -81811.73, -74423.484, 0.0, 10.000303, 9.998663 
2.6662108e+3, 3.092405e+2, 168620.23, 209031.56, 7138.048, 0.58286124, 0.10787699, 210255.33, 210255.33, 0.0, 10.000619, 10.001133 
2.665851e+3, 3.1923443e+2, 83946.16, 160539.3, 227678.02, -0.090673104, 0.039906498, 353119.13, 353119.13, 0.0, 10.000046, 10.00108 
2.6826066e+3, 1.2971753e+2, -1915943.4, -1907073.8, -82579.52, 0.43883345, -0.58359736, -1828810.0, -160072.9, 0.052628297, 9.999076, 9.999089 
2.6822487e+3, 1.3971353e+2, -1067581.4, -1568094.3, -136594.67, 0.4382964, -0.25976858, -1032730.2, 538067.5, 0.032406047, 10.004856, 9.997999 
2.6818925e+3, 1.4970706e+2, -1020618.94, -1522863.0, -118596.5, 0.59629893, -0.052586086, -994022.75, 478842.03, 0.015029365, 10.004553, 9.997759 
2.6815376e+3, 1.5970011e+2, -1134014.3, -1503733.0, -72784.09, 0.8005172, 0.082585245, -1120201.8, 254731.56, 0.004476244, 10.002932, 9.998014 
2.6811814e+3, 1.6969137e+2, -1121325.6, -1337072.6, 29283.271, 0.6380882, -0.028226871, -1117421.6, 159596.17, 0.00066900725, 10.001901, 9.998963 
2.6808253e+3, 1.7968269e+2, -1151232.0, -1292149.5, 1017.2632, 0.3969834, -0.16945487, -1151224.6, 27877.848, 0.000027210404, 10.000961, 9.999066 
2.6804692e+3, 1.8967576e+2, -1138114.5, -1128641.8, -66258.51, 0.39929628, -0.19997364, -1066950.5, 14222.712, 0.000000001728097, 9.999947, 9.999986 
2.6801133e+3, 1.9966975e+2, -1141174.3, -996236.9, -135762.83, 0.4318338, -0.19796312, -914811.9, 68423.13, 0.0, 9.998869, 10.000762 
2.6797536e+3, 2.096668e+2, -844134.56, -614252.4, -180910.66, 0.28767952, -0.05854215, -514857.0, 370407.66, 0.0, 9.99945, 10.00241 
2.679394e+3, 2.1966389e+2, -809025.06, -780058.25, -93594.73, 0.11679702, 0.07853591, -699832.94, 87460.734, 0.0, 9.999999, 10.000357 
2.6790386e+3, 2.296564e+2, -695957.0, -846635.9, -13960.663, 0.10885789, 0.04267789, -694674.44, -5307.29, 0.0, 10.000862, 9.998794 
2.6786846e+3, 2.396481e+2, -593395.0, -855823.25, -17234.373, 0.14547828, -0.02461195, -592268.06, -818.94806, 0.0, 10.001337, 9.997847 
2.6783317e+3, 2.496393e+2, -522507.97, -811884.94, -28698.773, 0.30616507, -0.02920621, -519689.25, -26149.053, 0.0, 10.001336, 9.997464 
2.677979e+3, 2.5963092e+2, -386632.72, -568867.4, -15613.101, 0.44946513, -0.021384075, -385304.72, 10321.831, 0.0, 10.001037, 9.998615 
2.6776248e+3, 2.69625e+2, -97422.02, -161064.48, 38698.363, 0.36876947, 0.011813797, -79141.81, 218538.5, 0.0, 10.001414, 10.000556 
2.6772702e+3, 2.7961928e+2, -56953.73, -282910.34, 30464.576, 0.27311444, 0.04777294, -52918.414, 146814.02, 0.0, 10.001835, 9.998857 
2.6769143e+3, 2.8961182e+2, -112835.54, -386748.94, -51397.527, 0.3453, 0.14390877, -103508.805, -1697.1978, 0.0, 10.001325, 9.997714 
2.6765573e+3, 2.9960418e+2, -132066.1, -318557.8, 16099.959, 0.35888848, 0.23589396, -130686.38, -126792.914, 0.0, 10.000396, 9.99797 
2.6762024e+3, 3.0959612e+2, 37235.59, -67096.12, 23703.166, 0.3152478, 0.18214862, 42368.223, 42368.223, 0.0, 10.000617, 9.999242 
2.675843e+3, 3.1958732e+2, 52673.7, 117054.4, 81649.06, -0.32336476, -0.008764259, 172629.58, 172629.58, 0.0, 9.999935, 10.00084 
2.6925966e+3, 1.3007297e+2, -2325097.0, -2512642.0, 229956.84, 0.250348, -0.46633923, -2170528.3, -505265.56, 0.043572687, 9.997981, 9.995474 
2.6922524e+3, 1.4006987e+2, -961407.9, -1642932.8, -85655.0, 0.8534607, 0.24858716, -950807.5, 616518.3, 0.02646959, 10.006124, 9.996863 
2.6918927e+3, 1.5006167e+2, -665302.6, -1246106.8, -219633.14, 0.6288908, 0.22867425, -591600.25, 877805.75, 0.012006565, 10.006556, 9.998709 
2.6915324e+3, 1.6005306e+2, -664353.0, -1132727.0, -144163.14, 0.42060977, 0.09638256, -623537.1, 747947.7, 0.0034556251, 10.005546, 9.999297 
2.691177e+3, 1.7004521e+2, -813636.4, -1023800.8, -31342.572, 0.5415079, -0.06998533, -809061.75, 464493.06, 0.00049606664, 10.0033045, 10.000428 
2.690822e+3, 1.800378e+2, -1128979.6, -1239304.6, -24882.607, 0.61869776, -0.19974071, -1123627.3, 51995.48, 0.00001910138, 10.000937, 9.999427 
2.6904622e+3, 1.9003178e+2, -1324815.3, -1314125.3, -84682.23, 0.40235516, -0.07834518, -1234619.5, -156930.27, 0.0000000002885943, 9.99909, 9.999112 
2.6901025e+3, 2.0002618e+2, -1363511.6, -1185635.3, -127488.39, 0.21218972, 0.051468857, -1119128.0, -139376.11, 0.0, 9.997687, 10.000026 
2.6897454e+3, 2.1002097e+2, -1072376.3, -817022.6, -169917.64, 0.25094843, 0.04811584, -732159.1, 149643.05, 0.0, 9.998267, 10.001595 
2.6893887e+3, 2.2001596e+2, -908049.94, -801719.8, -116528.53, 0.30796656, 0.026054282, -726801.25, 57048.34, 0.0, 9.999215, 10.00057 
2.6890355e+3, 2.3000918e+2, -620677.2, -676289.6, 21942.21, 0.32705933, -0.035161953, -613062.44, 72851.48, 0.0, 10.000808, 9.999984 
2.688682e+3, 2.4000227e+2, -363162.34, -594200.1, 67401.086, 0.3429129, -0.078561254, -344937.0, 243043.48, 0.0, 10.002277, 9.99918 
2.688327e+3, 2.4999592e+2, -240619.27, -512465.63, 123759.88, 0.2731865, 0.025687626, -192717.47, 297328.16, 0.0, 10.002577, 9.998917 
2.6879725e+3, 2.5998938e+2, -167587.64, -424074.2, 192215.38, 0.23311964, 0.120966025, -64761.484, 327350.97, 0.0, 10.002381, 9.998957 
2.687619e+3, 2.6998216e+2, -255244.53, -316439.1, 127262.14, 0.31156355, 0.09102313, -154953.14, 139227.66, 0.0, 10.000699, 9.999819 
2.6872653e+3, 2.7997488e+2, -484080.16, -532270.9, 15004.082, 0.4074749, 0.047209304, -479790.5, -283541.53, 0.0, 9.999107, 9.998446 
2.6869094e+3, 2.8996643e+2, -288022.47, -469834.75, -66183.2, 0.4550071, 0.053630233, -266482.44, -168146.69, 0.0, 10.000139, 9.9977 
2.686552e+3, 2.999583e+2, -43817.395, -316956.13, -27869.83, 0.39823827, 0.09848413, -41002.69, -40582.758, 0.0, 10.001201, 9.997575 
2.6861945e+3, 3.099514e+2, -98278.34, -241499.88, -962.698, 0.102580875, 0.23710312, -98271.875, -98271.875, 0.0, 10.000159, 9.998258 
2.6858386e+3, 3.199412e+2, 33948.32, -770.45856, 135197.23, -0.13226427, 0.013528463, 152896.08, 152896.08, 0.0, 10.000292, 9.999849 
2.7025914e+3, 1.3042834e+2, -1468082.3, -2241633.5, 305176.6, 0.26300135, -0.2467216, -1362183.4, 299609.03, 0.035513308, 10.004585, 9.994157 
2.7022526e+3, 1.4042509e+2, -1468630.3, -1903930.8, 95459.4, 0.99605614, 0.54649466, -1448616.5, 115241.74, 0.021259079, 10.002595, 9.996776 
2.7018908e+3, 1.5041615e+2, -1175816.8, -1384167.3, -130436.984, 0.5582487, 0.3889744, -1113060.0, 352883.78, 0.009413858, 10.002536, 9.999685 
2.7015278e+3, 1.604069e+2, -1079971.6, -1231666.5, -117257.73, 0.1367858, 0.10476755, -1016168.75, 351857.9, 0.0026132823, 10.002252, 10.000206 
2.701173e+3, 1.7040002e+2, -1081274.6, -1046511.6, -117670.06, 0.5022702, -0.056758, -944946.25, 325138.25, 0.00036005196, 10.001016, 10.001373 
2.7008182e+3, 1.8039383e+2, -1284902.4, -1297026.8, -145162.56, 0.807098, -0.14393678, -1145675.5, 26463.03, 0.000012952271, 9.999796, 9.999588 
2.7004552e+3, 1.9038865e+2, -1120541.5, -1268080.6, -118528.58, 0.40064415, 0.08552311, -1054701.0, 19498.408, 0.000000000007316074, 10.000702, 9.998664 
2.700093e+3, 2.0038325e+2, -917168.4, -1067092.4, -66175.234, 0.014072828, 0.29425073, -892138.06, 84124.96, 0.0, 10.001169, 9.999168 
2.6997378e+3, 2.103757e+2, -796906.94, -816857.94, -78343.68, 0.25087738, 0.16736813, -727906.2, 150429.34, 0.0, 10.000731, 10.000407 
2.6993844e+3, 2.2036836e+2, -758566.8, -719769.25, -7359.466, 0.52122974, 0.0061840443, -718420.1, 61983.957, 0.0, 10.000195, 10.000669 
2.6990324e+3, 2.3036243e+2, -574437.8, -485741.38, 96594.04, 0.5743192, -0.08899097, -423801.44, 258656.52, 0.0, 10.000394, 10.001491 
2.69868e+3, 2.4035715e+2, -474960.3, -458478.63, 78398.18, 0.5295944, -0.12508397, -387889.38, 196616.13, 0.0, 10.000692, 10.000879 
2.6983228e+3, 2.5035402e+2, -257851.16, -288793.13, 71193.3, 0.20305534, 0.09909021, -200467.23, 286067.06, 0.0, 10.001456, 10.000992 
2.6979655e+3, 2.6035014e+2, -275439.5, -494037.34, 77432.16, -0.065101326, 0.30046925, -250790.7, 137780.98, 0.0, 10.001713, 9.998803 
2.697612e+3, 2.7034032e+2, -408116.66, -627232.3, -1071.0923, 0.1904697, 0.17285529, -408111.44, -117441.91, 0.0, 10.000661, 9.997709 
2.697259e+3, 2.8033e+2, -508623.3, -673109.75, -21094.21, 0.4729678, 0.0044496446, -505961.22, -313188.75, 0.0, 9.999484, 9.997305 
2.6969036e+3, 2.9032004e+2, -246915.4, -470760.22, -22178.25, 0.47706202, -0.10261512, -244739.17, -149868.84, 0.0, 10.000497, 9.997528 
2.696546e+3, 3.0031118e+2, -35230.656, -347628.66, -19371.637, 0.2878783, -0.10810548, -34034.016, -34034.016, 0.0, 10.001395, 9.99728 
2.6961863e+3, 3.1030658e+2, -76825.08, -273702.66, -50877.938, -0.11447455, 0.293304, -64454.3, -64454.3, 0.0, 10.000477, 9.997894 
2.6958373e+3, 3.2029584e+2, -61637.36, -248485.98, 343692.1, 0.29614744, 0.08720834, 201101.72, 201101.72, 0.0, 10.000473, 9.998082 
2.712596e+3, 1.3078275e+2, -837793.7, -1392346.0, 88883.61, 0.64791894, 0.031761184, -823895.75, 834439.0, 0.028385773, 10.00664, 9.999044 
2.7122414e+3, 1.4077733e+2, -1484218.8, -1638697.3, 62567.363, 0.3583633, 0.20285103, -1462057.0, 98339.81, 0.016707214, 10.001292, 9.999224 
2.711883e+3, 1.5077102e+2, -1401953.8, -1449480.9, -45617.03, 0.30469412, 0.23357542, -1374281.8, 88180.23, 0.007197425, 10.000787, 10.000074 
2.7115244e+3, 1.6076437e+2, -1352174.5, -1440142.5, -72181.59, 0.34584978, 0.21139431, -1311631.8, 52897.035, 0.0019202074, 10.000707, 9.999518 
2.7111685e+3, 1.7075716e+2, -1387380.0, -1385659.6, -140168.72, 0.6728871, 0.17179711, -1246348.5, 20250.42, 0.00025324232, 9.999733, 9.999671 
2.710812e+3, 1.8075049e+2, -1294127.5, -1220782.9, -119683.84, 0.8986268, 0.1429816, -1132279.0, 36384.313, 0.000008369746, 9.999371, 10.000317 
2.710452e+3, 1.9074577e+2, -717498.6, -792758.25, 25205.871, 0.5330155, 0.20877811, -709836.75, 360874.28, 0.0, 10.002265, 10.00117 
2.710092e+3, 2.007409e+2, -362435.34, -734871.1, 45673.125, 0.19011888, 0.2837651, -356916.06, 615845.3, 0.0, 10.00472, 9.999729 
2.7097347e+3, 2.1073376e+2, -479538.66, -784013.4, -20470.771, 0.28152406, 0.28202468, -478168.5, 396664.88, 0.0, 10.003459, 9.999306 
2.7093783e+3, 2.2072662e+2, -586603.56, -713681.2, 52397.016, 0.4192631, 0.25230426, -567785.7, 209117.86, 0.0, 10.001714, 9.999972 
2.7090245e+3, 2.3072048e+2, -705281.6, -603981.25, 101907.195, 0.4289648, 0.20505494, -540831.1, 138127.9, 0.0, 9.999741, 10.000993 
2.7086717e+3, 2.4071456e+2, -848656.94, -669262.75, 67011.46, 0.4236853, 0.14998625, -646995.1, -65983.62, 0.0, 9.998263, 10.000597 
2.7083182e+3, 2.5070846e+2, -576497.44, -463001.13, 24133.844, 0.36021525, 0.09854188, -458082.47, 24982.566, 0.0, 9.999362, 10.000807 
2.7079633e+3, 2.607023e+2, -474533.6, -624449.0, -73184.92, 0.27179462, 0.0898246, -444731.16, -59609.785, 0.0, 10.000511, 9.998475 
2.7076066e+3, 2.7069405e+2, -417647.13, -687813.9, -135122.98, 0.198036, 0.14687346, -361665.72, -74457.15, 0.0, 10.000845, 9.997199 
2.7072504e+3, 2.806853e+2, -238896.22, -484209.75, -68268.29, 0.22303028, 0.15127906, -221177.63, -31878.186, 0.0, 10.001099, 9.997811 
2.7068976e+3, 2.906761e+2, 39361.844, -192407.06, 14691.501, 0.38360044, 0.007433162, 40289.402, 131673.52, 0.0, 10.001885, 9.998756 
2.7065423e+3, 3.0066732e+2, 169688.06, -184532.3, 46422.41, 0.33676064, -0.085381456, 175670.9, 175670.9, 0.0, 10.002542, 9.997841 
2.7061808e+3, 3.1066144e+2, 287506.4, -90711.836, 20870.504, -0.22003493, 0.17839615, 288654.56, 288654.56, 0.0, 10.002971, 9.997943 
2.7058336e+3, 3.2064962e+2, -297075.94, -451421.72, 279325.2, 0.5177669, -0.10414458, -84458.88, -84458.88, 0.0, 9.999263, 9.997258 
2.7225956e+3, 1.3113895e+2, -1064369.4, -1199164.6, 79584.016, 0.69988286, 0.2293028, -1027478.7, 627374.8, 0.022154305, 10.003696, 10.001802 
2.7222326e+3, 1.4113127e+2, -1527482.0, -1535949.9, -23071.172, 0.0040427726, -0.051901877, -1508259.5, 48662.69, 0.012776013, 10.000454, 10.000339 
2.7218762e+3, 1.5112683e+2, -1442706.9, -1455157.1, -63940.754, 0.22224922, 0.12691198, -1384688.9, 74283.87, 0.005326737, 10.00044, 10.000203 
2.7215207e+3, 1.6112211e+2, -1390570.3, -1543478.0, -96682.83, 0.5437891, 0.30546007, -1343765.3, 17261.998, 0.0013580788, 10.000818, 9.9987545 
2.721163e+3, 1.7111476e+2, -1169080.0, -1423037.5, -90394.19, 0.75282717, 0.36439824, -1140191.1, 122914.984, 0.00016970174, 10.001858, 9.998384 
2.7208057e+3, 1.811078e+2, -857846.75, -943576.7, 35993.14, 0.85557276, 0.38797265, -844739.3, 320439.0, 0.0000049540654, 10.002094, 10.000908 
2.7204487e+3, 1.9110334e+2, -742544.5, -577826.9, 108203.95, 0.62181425, 0.3096781, -524203.84, 543012.9, 0.0, 10.001131, 10.003188 
2.7200916e+3, 2.010988e+2, -919251.6, -979266.25, -28743.78, 0.3800864, 0.26698244, -907706.0, 61550.813, 0.0, 10.000795, 9.999941 
2.7197313e+3, 2.1109235e+2, -694380.56, -987035.5, -99993.84, 0.30150542, 0.39095142, -663477.94, 207846.73, 0.0, 10.002405, 9.998423 
2.7193722e+3, 2.2108582e+2, -471912.1, -772813.9, -8083.259, 0.24331276, 0.5098115, -471695.1, 301697.44, 0.0, 10.002993, 9.998956 
2.719016e+3, 2.3107935e+2, -585632.75, -670917.44, 8828.962, 0.21064644, 0.5352733, -584728.3, 90723.67, 0.0, 10.001092, 9.999888 
2.718662e+3, 2.4107225e+2, -777717.3, -746489.9, 43860.125, 0.25025564, 0.4674037, -715547.2, -138031.36, 0.0, 9.999233, 9.999603 
2.7183133e+3, 2.5106174e+2, -615520.1, -578651.7, 60852.695, 0.58219355, 0.060767762, -533502.3, -53893.62, 0.0, 9.999517, 9.999934 
2.7179623e+3, 2.6105216e+2, -574540.06, -725966.25, -54879.992, 0.741286, -0.21482176, -556742.25, -175045.78, 0.0, 10.000048, 9.998008 
2.717601e+3, 2.7104658e+2, -432948.63, -685471.2, -123920.586, 0.20114385, 0.11027486, -382296.88, -98534.875, 0.0, 10.000693, 9.997291 
2.7172413e+3, 2.8104097e+2, -160190.55, -321499.3, -42580.465, -0.18129432, 0.3873397, -149640.63, 36183.918, 0.0, 10.001094, 9.998938 
2.7168918e+3, 2.910334e+2, 125956.02, 50757.086, 26901.078, 0.23617244, 0.23821273, 134588.45, 222474.95, 0.0, 10.0015955, 10.000579 
2.7165392e+3, 3.0102536e+2, 155154.53, -88981.016, 36053.875, 0.41094193, 0.06175366, 160367.64, 160367.64, 0.0, 10.001993, 9.998766 
2.716177e+3, 3.1101596e+2, 244751.45, -74219.3, 19337.037, -0.23765829, -0.07326515, 245919.45, 245919.45, 0.0, 10.002508, 9.998278 
2.715825e+3, 3.2100412e+2, -350757.9, -507145.47, -223108.08, 0.38203102, -0.37420744, -192537.89, -192537.89, 0.0, 9.999029, 9.996981 
2.7325878e+3, 1.3149932e+2, -1369656.0, -1674625.6, 38193.168, 0.24569422, 0.32163653, -1364945.6, 286376.1, 0.01679534, 10.002953, 9.9988365 
2.7322325e+3, 1.4148915e+2, -1639158.6, -1710319.1, -43501.39, 0.5938428, 0.043121193, -1618540.0, -65116.48, 0.009449948, 10.0002, 9.999262 
2.7318737e+3, 1.514836e+2, -1479769.6, -1493196.5, -34234.207, 0.57904345, 0.15151054, -1451596.8, 3883.9897, 0.0037904787, 10.000286, 10.000004 
2.7315158e+3, 1.614784e+2, -1270962.4, -1363022.3, -19956.738, 0.56927484, 0.26570302, -1266822.4, 90712.81, 0.0009170093, 10.001118, 9.999834 
2.7311566e+3, 1.7147242e+2, -830315.7, -1064601.8, 62710.125, 0.4545102, 0.31103173, -814586.4, 445010.13, 0.0001065257, 10.003367, 10.000105 
2.7307984e+3, 1.8146652e+2, -594157.2, -899197.4, 79269.82, 0.3766855, 0.35584456, -574787.56, 586869.8, 0.0000025959862, 10.004267, 10.000159 
2.7304408e+3, 1.914609e+2, -1072096.4, -1007455.25, -16939.879, 0.44234347, 0.3845902, -1003285.0, 60430.12, 0.0, 10.0000305, 10.000775 
2.7300844e+3, 2.0145515e+2, -1429418.0, -1233984.6, -43399.875, 0.47621414, 0.38930354, -1224780.4, -259008.08, 0.0, 9.997325, 9.999858 
2.729728e+3, 2.1144804e+2, -726321.8, -862754.75, 32405.326, 0.38910127, 0.34438956, -719016.1, 148822.97, 0.0, 10.001586, 9.9996605 
2.729371e+3, 2.214409e+2, -224416.48, -723133.9, 20543.889, 0.3089773, 0.3411166, -223571.66, 546335.9, 0.0, 10.004997, 9.998325 
2.7290136e+3, 2.3143339e+2, -392312.22, -768778.44, -66332.57, 0.30479258, 0.41877803, -380966.47, 291016.72, 0.0, 10.0032625, 9.99816 
2.7286574e+3, 2.4142568e+2, -540105.8, -713390.44, -7570.5454, 0.34769323, 0.4306877, -539775.7, 34282.62, 0.0, 10.001232, 9.998856 
2.7283064e+3, 2.5141633e+2, -582044.4, -597641.7, 40936.832, 0.5300852, 0.180571, -548170.0, -72029.055, 0.0, 9.999915, 9.999606 
2.7279544e+3, 2.6140738e+2, -694051.1, -765648.25, -19024.285, 0.61694455, -0.0072190254, -689310.06, -311087.88, 0.0, 9.999159, 9.9981575 
2.7275956e+3, 2.714007e+2, -443148.78, -637026.1, -47758.344, 0.23492038, 0.17299992, -432022.8, -151728.66, 0.0, 10.000399, 9.997767 
2.727238e+3, 2.8139412e+2, -135069.2, -283038.34, -6067.6436, -0.001594402, 0.32189924, -134820.81, 47541.89, 0.0, 10.001159, 9.999171 
2.726888e+3, 2.9138666e+2, -95852.77, -60564.71, -42725.797, 0.40013918, 0.18200013, -31983.148, 52443.902, 0.0, 10.000109, 10.000526 
2.7265343e+3, 3.0137965e+2, -232556.64, -205884.0, -94667.11, 0.52911025, 0.08305119, -123618.44, -123618.44, 0.0, 9.999049, 9.999371 
2.726172e+3, 3.1137326e+2, -220299.42, -179363.89, -80964.98, -0.17478208, 0.14265983, -116319.65, -116319.65, 0.0, 9.998821, 9.999317 
2.7258188e+3, 3.2136247e+2, 114138.72, -229085.72, -338049.94, 0.37081224, -0.14330167, 321641.94, 321641.94, 0.0, 10.002011, 9.997443 
2.742582e+3, 1.3185778e+2, -1816978.6, -2103645.0, -152877.23, 0.0694829, 0.34656852, -1750750.8, -102940.65, 0.01228236, 10.00079, 9.996919 
2.7422306e+3, 1.4184701e+2, -1272833.1, -1622664.1, -94699.74, 0.9430521, 0.1415049, -1248842.9, 301079.7, 0.0067188637, 10.003127, 9.998449 
2.741871e+3, 1.5184058e+2, -1166406.1, -1360884.1, -47831.234, 0.8092718, 0.18040945, -1155278.9, 296706.3, 0.0025804993, 10.002521, 9.999839 
2.741511e+3, 1.6183484e+2, -1135101.8, -1215392.4, -6698.2876, 0.58481324, 0.22484389, -1134546.8, 219493.55, 0.00058886944, 10.0016985, 10.000571 
2.7411506e+3, 1.7182982e+2, -1071759.9, -1038476.9, 20734.871, 0.19944271, 0.23485193, -1028531.3, 227557.33, 0.00006228534, 10.001079, 10.0013895 
2.740791e+3, 1.818245e+2, -1192809.6, -1348396.1, -121535.39, -0.035251375, 0.28814515, -1126302.4, 31840.28, 0.0000011486238, 10.000851, 9.998725 
2.7404332e+3, 1.9181782e+2, -1055512.4, -1295930.3, -219912.53, 0.29203722, 0.43763047, -925098.7, 135120.6, 0.0, 10.001424, 9.998117 
2.7400768e+3, 2.018109e+2, -864513.44, -979526.2, -21084.379, 0.5365063, 0.5007847, -860770.06, 101523.03, 0.0, 10.001289, 9.999696 
2.739724e+3, 2.1180308e+2, -599112.75, -658704.8, 93227.79, 0.4520387, 0.27533838, -531035.25, 333323.63, 0.0, 10.00185, 10.000934 
2.73937e+3, 2.2179517e+2, -637183.8, -995932.75, -84313.35, 0.38814917, 0.11945793, -618356.5, 148072.98, 0.0, 10.002481, 9.997668 
2.7390116e+3, 2.317866e+2, -644142.6, -1065486.8, -170072.97, 0.45741802, 0.22239476, -584061.06, 84460.06, 0.0, 10.002293, 9.996592 
2.7386537e+3, 2.4177854e+2, -543413.6, -792964.56, -37271.258, 0.47887298, 0.32852274, -537966.0, 32639.07, 0.0, 10.001539, 9.998168 
2.7382988e+3, 2.5177166e+2, -472764.88, -571841.3, 10494.569, 0.3715766, 0.35411635, -471665.44, 1000.3855, 0.0, 10.00077, 9.999375 
2.7379444e+3, 2.6176438e+2, -547108.2, -673696.6, 5895.036, 0.28703004, 0.34468076, -546834.25, -172103.17, 0.0, 10.0000725, 9.998351 
2.7375907e+3, 2.7175537e+2, -370242.28, -538484.0, 4553.3906, 0.29797685, 0.2417529, -370119.13, -93301.055, 0.0, 10.000617, 9.998342 
2.737237e+3, 2.8174657e+2, -219084.39, -373544.7, -21171.732, 0.37674645, 0.13707432, -216234.97, -37331.03, 0.0, 10.000794, 9.998727 
2.7368847e+3, 2.9173815e+2, -213386.0, -237853.42, -88832.91, 0.6866612, -0.0011229728, -135948.38, -54963.332, 0.0, 9.999811, 9.999455 
2.7365285e+3, 3.0173212e+2, -218211.75, -147311.36, -112252.14, 0.6418598, 0.056624986, -65044.7, -65044.7, 0.0, 9.998918, 9.999842 
2.736165e+3, 3.1173286e+2, -104981.375, 31019.605, -99525.76, -0.13043994, 0.6992329, 83557.26, 83557.26, 0.0, 9.998934, 10.000716 
2.7358153e+3, 3.217225e+2, 235706.97, -80282.55, 29133.115, 0.42140546, 0.34816644, 238370.48, 238370.48, 0.0, 10.002399, 9.998307 
2.7525792e+3, 1.3221118e+2, -1756016.0, -1907514.4, 34720.055, 0.36802813, 0.17189212, -1748438.0, -104087.07, 0.008608207, 10.000464, 9.998429 
2.7522242e+3, 1.4220399e+2, -1024841.3, -1411340.4, -51630.754, 0.4960908, 0.20376016, -1018063.0, 528359.5, 0.0045651533, 10.004423, 9.999283 
2.7518666e+3, 1.5219761e+2, -997834.8, -1246805.6, -62891.0, 0.68759096, 0.21511704, -982850.1, 465633.38, 0.0016728605, 10.003534, 10.00014 
2.751508e+3, 1.6219135e+2, -1138357.1, -1301459.1, -60386.543, 0.7454143, 0.21867737, -1118433.5, 232110.58, 0.00035813765, 10.002031, 9.99982 
2.7511457e+3, 1.7218477e+2, -1388495.4, -1335462.0, -99055.92, 0.3624604, 0.1969846, -1259435.0, -6825.6597, 0.000033741435, 9.999517, 10.000103 
2.7507854e+3, 1.8217826e+2, -1533727.0, -1577051.6, -125786.36, 0.12667942, 0.22900775, -1427751.4, -273074.5, 0.00000040337267, 9.998779, 9.998147 
2.7504307e+3, 1.9217132e+2, -856423.1, -1236672.1, -122084.89, 0.40551648, 0.38938347, -820600.6, 236155.64, 0.0, 10.00296, 9.997775 
2.7500755e+3, 2.0216422e+2, -324450.13, -802565.8, -56116.58, 0.5850603, 0.47991505, -317952.0, 640880.8, 0.0, 10.005358, 9.998956 
2.749719e+3, 2.1215601e+2, -656971.06, -806388.6, -70666.82, 0.38022912, 0.31879276, -628844.06, 232061.78, 0.0, 10.001965, 9.999876 
2.749363e+3, 2.2214822e+2, -977149.0, -1034675.1, -188582.64, 0.29112697, 0.20443961, -815148.5, -52172.516, 0.0, 9.999624, 9.998763 
2.7490073e+3, 2.3214136e+2, -667423.6, -861503.94, -140358.73, 0.5231302, 0.2891256, -593825.6, 71219.43, 0.0, 10.001207, 9.998512 
2.7486515e+3, 2.4213421e+2, -373091.1, -678406.8, 46185.582, 0.6495995, 0.35750246, -366257.47, 200858.34, 0.0, 10.00256, 9.998461 
2.748295e+3, 2.5212634e+2, -215145.17, -497703.94, 69469.18, 0.43825093, 0.32490507, -198989.39, 270198.97, 0.0, 10.002759, 9.998918 
2.7479398e+3, 2.621184e+2, -207089.34, -513788.84, 43652.08, 0.29320627, 0.28886953, -200997.42, 170264.53, 0.0, 10.002443, 9.998293 
2.7475858e+3, 2.7210972e+2, -284864.25, -480020.88, 17889.271, 0.35526016, 0.21475397, -283237.94, -9892.214, 0.0, 10.001165, 9.998458 
2.7472317e+3, 2.8210118e+2, -397453.44, -511710.3, -41846.605, 0.47995356, 0.14845014, -383766.63, -208337.63, 0.0, 9.999824, 9.99823 
2.746877e+3, 2.92093e+2, -429837.7, -430736.22, -105111.26, 0.670704, 0.11146798, -325174.75, -247663.06, 0.0, 9.998732, 9.998637 
2.74652e+3, 3.0208635e+2, -338943.3, -257752.42, -81124.94, 0.5657092, 0.17943469, -207632.69, -207632.69, 0.0, 9.998323, 9.999367 
2.746159e+3, 3.120844e+2, 56292.816, 69782.37, -135079.14, -0.01770881, 0.5929249, 198285.02, 198285.02, 0.0, 10.000207, 10.000379 
2.7458107e+3, 3.2207486e+2, 21640.059, -185893.27, 58654.043, 0.40409073, 0.33439517, 37069.945, 37069.945, 0.0, 10.000954, 9.998274 
2.762577e+3, 1.3256705e+2, -1336614.5, -1520294.1, 225184.31, 0.63638896, 0.1375455, -1185261.9, 455601.53, 0.0057468615, 10.002581, 10.00007 
2.7622178e+3, 1.4256077e+2, -1385281.5, -1560826.1, 19906.006, 0.16080408, 0.15164348, -1383052.5, 159868.64, 0.0029430704, 10.001845, 9.999488 
2.761862e+3, 1.5255477e+2, -1172814.8, -1352286.4, -81023.27, 0.5589981, 0.21555366, -1141648.5, 303332.3, 0.0010233618, 10.002429, 9.999942 
2.7615047e+3, 1.6254818e+2, -1138090.4, -1422427.6, -140193.27, 0.8133076, 0.2377792, -1080594.1, 266452.16, 0.00020334231, 10.002561, 9.998741 
2.761141e+3, 1.7253986e+2, -1088252.6, -1337709.5, -161465.0, 0.5084833, 0.16600975, -1008951.3, 240178.39, 0.000016580547, 10.002218, 9.998792 
2.7607808e+3, 1.8253209e+2, -1099637.1, -1407786.5, -5060.2305, 0.2998001, 0.17324366, -1099554.0, 51656.293, 0.00000009587778, 10.001944, 9.997786 
2.7604282e+3, 1.9252522e+2, -811631.94, -1207093.9, 70357.71, 0.48451567, 0.33773303, -799487.4, 253800.58, 0.0, 10.003227, 9.997853 
2.7600738e+3, 2.0251794e+2, -609422.4, -1055422.3, -34891.23, 0.5606055, 0.45016557, -606709.3, 348657.25, 0.0, 10.003905, 9.997918 
2.7597135e+3, 2.1250927e+2, -678906.1, -975034.9, -110951.13, 0.28802055, 0.38341257, -641948.3, 215501.14, 0.0, 10.0025015, 9.998456 
2.7593556e+3, 2.2250174e+2, -644317.56, -729652.6, -109638.51, 0.17985794, 0.34191176, -569336.8, 190182.78, 0.0, 10.001286, 10.000063 
2.7590027e+3, 2.3249674e+2, -387620.1, -462428.56, -75857.84, 0.5549312, 0.3918598, -340446.03, 321116.5, 0.0, 10.001982, 10.000885 
2.758649e+3, 2.4249057e+2, -386268.97, -664032.06, 25579.727, 0.770865, 0.39838672, -383932.94, 179685.1, 0.0, 10.002387, 9.998644 
2.758293e+3, 2.5248092e+2, -338830.22, -619699.75, 31639.275, 0.5469047, 0.23067571, -335310.25, 130399.55, 0.0, 10.002183, 9.998359 
2.7579364e+3, 2.6247185e+2, -330538.44, -601365.25, -27741.22, 0.36914787, 0.1245276, -327726.06, 40070.7, 0.0, 10.001711, 9.99805 
2.757581e+3, 2.724643e+2, -343057.63, -527016.0, -53553.504, 0.3828503, 0.17327411, -328603.03, -58731.082, 0.0, 10.000838, 9.9983 
2.7572247e+3, 2.824569e+2, -424658.0, -591738.1, -97185.125, 0.42067796, 0.25319847, -380042.34, -208096.08, 0.0, 9.999912, 9.997644 
2.7568677e+3, 2.924496e+2, -387183.16, -494056.66, -147044.64, 0.46982762, 0.37002966, -284166.7, -210144.9, 0.0, 9.999371, 9.997904 
2.75651e+3, 3.024412e+2, -323968.63, -381712.3, -26892.771, 0.35738108, 0.35512754, -313384.1, -313384.1, 0.0, 9.998982, 9.998204 
2.756155e+3, 3.1243023e+2, -38743.42, -137082.58, -43639.324, 0.17326394, 0.005373362, -22170.793, -22170.793, 0.0, 10.000239, 9.998944 
2.755803e+3, 3.2242346e+2, -71294.73, -287782.1, 94417.12, 0.13539326, 0.13726604, -35902.46, -35902.46, 0.0, 10.000605, 9.997717 
2.7725774e+3, 1.3292763e+2, -1121678.5, -1230173.0, 136299.94, 0.984694, 0.32537368, -1029227.3, 608093.25, 0.0036140862, 10.003215, 10.001774 
2.7722135e+3, 1.4291608e+2, -1593435.5, -1771973.9, 61846.52, 0.27285734, -0.23889759, -1574104.6, -34677.098, 0.0017772738, 10.000876, 9.998508 
2.771856e+3, 1.5291145e+2, -1354763.4, -1635341.4, -14248.889, 0.39802042, 0.13444105, -1354041.6, 87442.55, 0.0005815394, 10.002012, 9.998199 
2.7714983e+3, 1.629054e+2, -1083167.8, -1448129.1, -101559.17, 0.53137434, 0.33433902, -1056810.0, 286740.75, 0.00010498673, 10.003146, 9.998282 
2.7711377e+3, 1.7289576e+2, -829702.9, -1232283.5, -102761.97, 0.44709745, 0.15526398, -804989.2, 440654.3, 0.0000068884756, 10.004072, 9.998625 
2.7707785e+3, 1.8288751e+2, -696216.56, -1132274.9, 47832.504, 0.33634916, 0.10490833, -691031.3, 456693.66, 0.00000000965895, 10.004374, 9.998501 
2.770423e+3, 1.9288194e+2, -729489.25, -1070542.8, 132498.1, 0.27310798, 0.32067317, -684064.4, 365721.44, 0.0, 10.003368, 9.998724 
2.770068e+3, 2.0287526e+2, -781670.7, -1160424.9, 59592.156, 0.29662874, 0.4566265, -772515.9, 179341.17, 0.0, 10.002823, 9.997708 
2.7697116e+3, 2.1286604e+2, -590384.3, -1006029.3, 15327.195, 0.40990445, 0.40605938, -589819.9, 264130.53, 0.0, 10.003435, 9.997788 
2.769355e+3, 2.2285752e+2, -346696.44, -668041.06, 4013.029, 0.46185887, 0.34793863, -346646.3, 409386.75, 0.0, 10.003699, 9.999316 
2.768998e+3, 2.3285049e+2, -278887.88, -499525.63, -54189.305, 0.46576667, 0.28996435, -266297.3, 391795.84, 0.0, 10.003141, 10.000059 
2.7686423e+3, 2.4284323e+2, -432916.94, -749851.0, -46185.9, 0.492748, 0.26075348, -426323.56, 133835.72, 0.0, 10.002358, 9.9980545 
2.7682874e+3, 2.5283468e+2, -517510.4, -764457.4, -59358.242, 0.4743427, 0.25074962, -503983.53, -41736.89, 0.0, 10.001228, 9.997816 
2.7679315e+3, 2.628265e+2, -507270.53, -645368.44, -101981.086, 0.43720886, 0.24821465, -453161.44, -88832.35, 0.0, 10.000338, 9.998402 
2.767575e+3, 2.728193e+2, -393229.63, -490240.38, -100099.84, 0.3817357, 0.27738476, -330502.13, -64101.72, 0.0, 10.000231, 9.998846 
2.7672178e+3, 2.8281218e+2, -298770.34, -504330.16, -69216.63, 0.33422318, 0.3406942, -277636.38, -109164.64, 0.0, 10.000668, 9.997872 
2.76686e+3, 2.9280502e+2, 87706.24, -250717.77, -75258.04, 0.23940624, 0.464351, 103687.31, 174231.4, 0.0, 10.002586, 9.998009 
2.766503e+3, 3.0279627e+2, 231350.05, -112183.79, 24216.477, 0.19010034, 0.40741742, 233048.72, 233048.72, 0.0, 10.002811, 9.998194 
2.7661517e+3, 3.1278333e+2, -193443.9, -224497.72, 60262.38, 0.47457626, -0.12047652, -146740.28, -146740.28, 0.0, 9.999259, 9.998799 
2.7657953e+3, 3.2277846e+2, -437816.28, -344013.4, 308618.06, 0.061002184, 0.19561541, -78753.26, -78753.26, 0.0, 9.99758, 9.998781 
2.7825737e+3, 1.332853e+2, -1511471.0, -1425155.4, -128292.234, 1.0209495, 0.3411599, -1332956.3, 300853.75, 0.0021056875, 10.000609, 10.00166 
2.7822095e+3, 1.4327216e+2, -1689940.1, -1901098.4, -146205.83, 0.4125784, -0.37545317, -1615177.6, -79241.48, 0.0009841461, 10.00058, 9.997766 
2.7818507e+3, 1.5326816e+2, -1433533.4, -1763109.6, -62911.582, 0.30054146, 0.11739636, -1421932.8, 16058.045, 0.00029689056, 10.00186, 9.997397 
2.7814928e+3, 1.6326232e+2, -1141657.0, -1491096.8, -83330.125, 0.30128813, 0.392204, -1122802.8, 217254.22, 0.0000463179, 10.002827, 9.998137 
2.7811345e+3, 1.7325225e+2, -912543.2, -1269080.5, -72508.05, 0.36921218, 0.16492444, -898361.5, 343789.94, 0.0000020738605, 10.0035095, 9.998635 
2.780776e+3, 1.8324393e+2, -802379.8, -1136222.8, 13906.474, 0.30516288, 0.08833346, -801801.5, 342429.16, 0.00000000000031198744, 10.003443, 9.998926 
2.7804178e+3, 1.9323899e+2, -844622.25, -1054652.1, 34766.64, 0.049172685, 0.29939282, -839016.8, 207264.3, 0.0, 10.002278, 9.999356 
2.7800617e+3, 2.0323274e+2, -983448.6, -1286112.8, -9012.878, 0.057327174, 0.44647017, -983180.5, -34834.36, 0.0, 10.001557, 9.99746 
2.77971e+3, 2.1322344e+2, -802425.4, -1151104.3, -2786.7888, 0.55972576, 0.4161316, -802403.06, 48041.008, 0.0, 10.002165, 9.997404 
2.7793548e+3, 2.2321397e+2, -642707.8, -952562.75, -24924.67, 0.7352084, 0.33322176, -640715.7, 111822.33, 0.0, 10.002279, 9.998048 
2.7789932e+3, 2.3320419e+2, -569209.9, -809604.75, -60901.24, 0.31084993, 0.14487225, -554661.7, 99962.234, 0.0, 10.001881, 9.998538 
2.7786344e+3, 2.4319555e+2, -632213.3, -930654.6, -40911.617, 0.11148364, 0.102857925, -626706.56, -70001.12, 0.0, 10.001354, 9.997304 
2.778281e+3, 2.531887e+2, -592256.4, -853252.6, -42256.15, 0.34991217, 0.31810647, -585585.44, -126802.76, 0.0, 10.000943, 9.997348 
2.777926e+3, 2.6318184e+2, -455436.06, -564777.06, -60367.17, 0.46743986, 0.4578701, -428662.97, -67805.95, 0.0, 10.000449, 9.998909 
2.7775687e+3, 2.7317464e+2, -308503.6, -366040.1, -76724.96, 0.35160494, 0.42012095, -255330.83, 7596.936, 0.0, 10.000448, 9.999599 
2.777211e+3, 2.8316748e+2, -267837.1, -428614.84, -4334.797, 0.19939473, 0.41724288, -267720.3, -102722.27, 0.0, 10.000619, 9.998416 
2.776854e+3, 2.9316017e+2, 11603.126, -236697.67, 8075.0156, -0.014189808, 0.47087604, 11865.457, 78935.5, 0.0, 10.001847, 9.998461 
2.776498e+3, 3.031519e+2, 160440.0, -81778.57, -61142.695, 0.026139379, 0.42240256, 174999.02, 174999.02, 0.0, 10.002028, 9.998789 
2.7761483e+3, 3.1314164e+2, -151883.9, -130611.85, -80505.164, 0.8227092, 0.086880155, -60043.152, -60043.152, 0.0, 9.999208, 9.999478 
2.7757877e+3, 3.2313734e+2, -248591.44, -11749.137, 345558.6, 0.13315013, 0.33294967, 235116.31, 235116.31, 0.0, 9.9977665, 10.001011 
2.7925614e+3, 1.3363658e+2, -1923988.0, -2123393.5, -153783.89, 0.42296818, 0.069492735, -1840414.8, -210039.88, 0.0011186468, 9.999923, 9.997197 
2.7922058e+3, 1.4363009e+2, -1569481.4, -1659630.4, -166972.8, 0.64009184, 0.21507072, -1441606.1, 90846.45, 0.00048972236, 10.000597, 9.99942 
2.791848e+3, 1.5362413e+2, -1254039.3, -1377364.8, -28032.078, 0.48761168, 0.24766035, -1247966.5, 186544.44, 0.00013198199, 10.001795, 10.000081 
2.79149e+3, 1.6361775e+2, -1103220.4, -1397293.8, -41165.816, 0.3927177, 0.2876689, -1097566.5, 239007.33, 0.000016324802, 10.002763, 9.998811 
2.7911302e+3, 1.7361014e+2, -938442.4, -1253719.4, -30799.63, 0.28336498, 0.28278142, -935461.7, 303186.13, 0.000000329992, 10.00321, 9.998884 
2.7907717e+3, 1.8360208e+2, -927990.3, -1288979.9, -15387.868, 0.18680888, 0.2552672, -927335.56, 213390.58, 0.0, 10.00295, 9.998122 
2.7904138e+3, 1.9359346e+2, -1041975.25, -1263981.5, -48963.11, 0.1195445, 0.20570856, -1031656.2, 11153.998, 0.0, 10.001409, 9.9983425 
2.7900577e+3, 2.0358585e+2, -1086281.8, -1263327.4, -50600.45, 0.18692961, 0.24659155, -1072840.4, -127954.23, 0.0, 10.000556, 9.998088 
2.7897042e+3, 2.1357907e+2, -939418.94, -1124459.4, -7020.1147, 0.48607236, 0.3837465, -939153.0, -92196.01, 0.0, 10.000836, 9.998222 
2.7893478e+3, 2.23571e+2, -849655.06, -1043268.6, -25587.992, 0.56607133, 0.39028987, -846330.44, -97293.875, 0.0, 10.000811, 9.998128 
2.7889866e+3, 2.3356083e+2, -820770.3, -949042.7, -29099.385, 0.21812949, 0.18098615, -814477.6, -163348.78, 0.0, 10.000229, 9.998369 
2.788628e+3, 2.435521e+2, -760637.2, -898217.5, 69770.54, 0.071109295, 0.11417915, -731447.7, -178236.05, 0.0, 10.000072, 9.998137 
2.7882746e+3, 2.5354567e+2, -559223.25, -736708.8, 120694.664, 0.28911072, 0.28893107, -498157.88, -42877.09, 0.0, 10.000724, 9.998261 
2.7879202e+3, 2.635386e+2, -402543.1, -614095.6, 117536.39, 0.4159839, 0.40262794, -350194.66, 7161.6313, 0.0, 10.001134, 9.998234 
2.787563e+3, 2.7353036e+2, -254707.8, -450161.53, 30285.664, 0.33758667, 0.37165087, -250122.58, 9319.93, 0.0, 10.001306, 9.998595 
2.7872062e+3, 2.8352332e+2, -229137.53, -331562.94, 34206.504, 0.26806426, 0.4165381, -218764.31, -57249.61, 0.0, 10.000572, 9.999092 
2.7868494e+3, 2.9351786e+2, -414536.25, -337922.8, 62511.41, 0.16986527, 0.5753042, -302914.6, -239346.58, 0.0, 9.998481, 9.999385 
2.7864933e+3, 3.0351016e+2, -449083.6, -404127.75, 24477.262, 0.2046764, 0.54547006, -393373.25, -393373.25, 0.0, 9.997977, 9.998522 
2.7861413e+3, 3.1349906e+2, 15335.852, -97614.67, -66565.51, 0.80223125, 0.17935088, 46155.617, 46155.617, 0.0, 10.000572, 9.9990425 
2.78578e+3, 3.234938e+2, -214003.83, -47997.652, 128035.48, 0.20016626, 0.37459016, 21585.615, 21585.615, 0.0, 9.998258, 10.000507 
2.802554e+3, 1.3399053e+2, -1668054.1, -2253546.5, -58817.445, 0.2073201, 0.0040214537, -1662203.9, -35289.49, 0.00053370156, 10.002769, 9.994938 
2.8022015e+3, 1.439885e+2, -1212070.5, -1327951.0, 39641.742, 0.6948485, 0.6625379, -1199807.1, 329149.25, 0.00021694425, 10.00239, 10.000824 
2.8018445e+3, 1.5398094e+2, -1201813.1, -1136094.6, 63888.086, 0.6071658, 0.3576111, -1097110.9, 333908.8, 0.000051471703, 10.001241, 10.001997 
2.8014868e+3, 1.6397409e+2, -1367644.6, -1523924.8, -30683.197, 0.4837871, 0.24652418, -1361836.4, -28754.244, 0.0000047386497, 10.0009575, 9.99881 
2.8011262e+3, 1.7396808e+2, -1144897.3, -1365404.4, -51480.293, 0.22476196, 0.4040695, -1133470.6, 101674.234, 0.00000002399446, 10.001835, 9.998783 
2.800767e+3, 1.839599e+2, -1073641.8, -1455464.0, -86600.14, 0.09771578, 0.40347338, -1054918.3, 82307.95, 0.0, 10.002384, 9.997249 
2.80041e+3, 1.9394824e+2, -931685.44, -1315985.1, -82162.875, 0.21482901, 0.1366692, -914856.1, 124481.95, 0.0, 10.002633, 9.997391 
2.8000534e+3, 2.0393948e+2, -797705.3, -1054875.5, -27397.46, 0.3041616, 0.0894013, -794818.94, 146603.83, 0.0, 10.002244, 9.998709 
2.7996975e+3, 2.1393481e+2, -765714.8, -940718.3, -559.5769, 0.3491523, 0.34895712, -765713.06, 77756.01, 0.0, 10.001601, 9.999117 
2.79934e+3, 2.2392823e+2, -776729.44, -987495.0, -50585.73, 0.31463695, 0.44460648, -765217.2, -19684.355, 0.0, 10.001228, 9.998314 
2.79898e+3, 2.3391849e+2, -651598.5, -853915.1, -55643.254, 0.15883204, 0.2625472, -637304.75, 10319.875, 0.0, 10.001334, 9.998494 
2.7986225e+3, 2.4391006e+2, -559478.2, -688288.3, 60300.45, 0.10644052, 0.1727594, -535655.4, 14049.068, 0.0, 10.000962, 9.999155 
2.7982685e+3, 2.5390357e+2, -511610.8, -578202.6, 84636.36, 0.23485784, 0.21910493, -453956.56, -2189.582, 0.0, 10.000465, 9.999475 
2.7979138e+3, 2.63896e+2, -616385.9, -861336.7, 69781.21, 0.3154644, 0.2640861, -597901.56, -244056.13, 0.0, 10.000289, 9.996944 
2.797558e+3, 2.7388647e+2, -458627.16, -734133.44, 32291.576, 0.32315752, 0.26100978, -454892.94, -198942.67, 0.0, 10.000698, 9.9969425 
2.7972016e+3, 2.838798e+2, -242722.89, -262117.95, -27418.13, 0.40012586, 0.40160292, -223337.84, -65314.746, 0.0, 10.000139, 9.999788 
2.796845e+3, 2.938771e+2, -366211.25, -196876.61, -32592.479, 0.5547102, 0.7328413, -190820.05, -130770.09, 0.0, 9.998293, 10.000453 
2.7964878e+3, 3.0386975e+2, -529557.25, -557210.0, 79682.87, 0.49719533, 0.7231736, -462510.1, -462510.1, 0.0, 9.99791, 9.997508 
2.796132e+3, 3.1385562e+2, -96413.5, -295850.34, 40859.96, 0.45946905, 0.18095464, -88366.9, -88366.9, 0.0, 10.000421, 9.997758 
2.7957734e+3, 3.2384872e+2, -442932.8, -487426.34, -155408.44, 0.30372822, 0.41206217, -308186.9, -308186.9, 0.0, 9.99813, 9.997538 
2.8125563e+3, 1.3434944e+2, -1249070.8, -1629150.1, 18172.959, 0.7237791, 0.14054155, -1248203.8, 375195.94, 0.00022993704, 10.0037985, 9.998738 
2.812194e+3, 1.4434734e+2, -1165216.5, -1363848.4, 67958.17, 0.2761902, 0.62384355, -1144191.4, 381241.75, 0.00008657647, 10.0029545, 10.000311 
2.811838e+3, 1.5434028e+2, -1343260.3, -1332134.6, 42409.37, 0.51001734, 0.49214658, -1294924.8, 132570.86, 0.000017626811, 10.000819, 10.000858 
2.8114817e+3, 1.6433267e+2, -1574789.8, -1741947.0, 8691.365, 0.5834934, 0.42445257, -1574339.0, -244768.47, 0.0000012440483, 10.000042, 9.997755 
2.8111225e+3, 1.7432436e+2, -1338017.4, -1569916.6, -16197.137, 0.36365995, 0.45902494, -1336891.5, -105229.98, 0.0000000065346386, 10.0009985, 9.997779 
2.810764e+3, 1.8431589e+2, -1047369.6, -1364707.9, -37398.176, 0.20590392, 0.456018, -1043021.9, 90726.03, 0.0, 10.002259, 9.99791 
2.810407e+3, 1.9430672e+2, -704822.3, -1130629.6, 343.65732, 0.18670514, 0.37029704, -704822.0, 331011.47, 0.0, 10.003877, 9.998056 
2.81005e+3, 2.0429821e+2, -514227.03, -898786.8, -21188.871, 0.22915396, 0.31113923, -513063.06, 424849.06, 0.0, 10.004099, 9.998886 
2.809693e+3, 2.1429092e+2, -631577.1, -870038.75, -24471.885, 0.29587588, 0.3093129, -629091.6, 210887.14, 0.0, 10.002496, 9.999167 
2.8093356e+3, 2.2428358e+2, -636467.94, -896917.5, -13224.226, 0.31089303, 0.32029024, -635798.2, 106249.62, 0.0, 10.0021105, 9.998502 
2.8089774e+3, 2.3427558e+2, -349286.44, -693516.25, -13535.517, 0.26203778, 0.3004915, -348755.03, 295369.97, 0.0, 10.003357, 9.998615 
2.80862e+3, 2.4426751e+2, -336166.03, -656699.44, -22792.002, 0.28043267, 0.2729133, -334553.5, 211650.8, 0.0, 10.002839, 9.998458 
2.808264e+3, 2.5425956e+2, -636359.56, -723099.25, -85264.37, 0.37661695, 0.24874046, -584068.8, -135784.64, 0.0, 9.999993, 9.998698 
2.807908e+3, 2.642522e+2, -771396.25, -784648.6, -9631.308, 0.4301301, 0.28696483, -766331.94, -415972.25, 0.0, 9.998583, 9.998289 
2.8075522e+3, 2.742451e+2, -573300.1, -630820.0, 75273.93, 0.42528486, 0.37929013, -521479.03, -269043.78, 0.0, 9.999231, 9.99836 
2.8071952e+3, 2.8423822e+2, -452779.3, -461385.34, -13038.622, 0.4489472, 0.47095582, -443352.03, -288843.3, 0.0, 9.99911, 9.998916 
2.8068364e+3, 2.9423207e+2, -472915.5, -376948.88, -128918.56, 0.49424422, 0.5719374, -287373.5, -230799.89, 0.0, 9.998102, 9.999314 
2.8064787e+3, 3.0422497e+2, -429151.66, -312606.88, 94356.42, 0.43527257, 0.5632766, -259979.3, -259979.3, 0.0, 9.997779, 9.999236 
2.806125e+3, 3.1421572e+2, -231464.7, -154767.33, 232471.75, 0.43715408, 0.32326043, 42497.523, 42497.523, 0.0, 9.998615, 9.999591 
2.8057674e+3, 3.2420886e+2, -57404.48, -332074.5, 70083.016, 0.3916274, 0.49008274, -40556.047, -40556.047, 0.0, 10.000894, 9.99728 
2.822554e+3, 1.3470761e+2, -1464415.3, -1495573.1, -103755.32, 0.84524876, 0.23752953, -1375075.8, 244812.33, 0.0000972814, 10.001355, 10.000809 
2.8221866e+3, 1.4470394e+2, -1526469.5, -1643074.0, -144469.5, -0.0007173569, 0.47808394, -1428981.5, 92949.97, 0.000033283075, 10.000944, 9.999354 
2.8218323e+3, 1.5469772e+2, -1275792.4, -1416934.6, -124669.49, 0.4405801, 0.5121328, -1203105.8, 220883.27, 0.000005457652, 10.001793, 9.999801 
2.8214765e+3, 1.6469003e+2, -1381770.1, -1723340.8, -40347.88, 0.6430433, 0.51887244, -1377068.8, -50999.53, 0.0000002527922, 10.001699, 9.99708 
2.8211185e+3, 1.7468047e+2, -1372960.8, -1647209.3, 9053.097, 0.47692332, 0.4709511, -1372662.3, -144485.17, 0.0, 10.001035, 9.997225 
2.8207606e+3, 1.8467234e+2, -1133240.6, -1343387.9, 49329.06, 0.29072514, 0.5084715, -1122237.4, 8024.261, 0.0, 10.0014, 9.998477 
2.820404e+3, 1.9466572e+2, -796917.8, -1098006.4, 68893.086, 0.1450034, 0.6059014, -781902.94, 250418.56, 0.0, 10.002913, 9.998746 
2.8200462e+3, 2.0465736e+2, -687554.7, -1004283.94, -86534.89, 0.13237056, 0.53342754, -665454.2, 268942.06, 0.0, 10.003016, 9.998678 
2.8196883e+3, 2.1464713e+2, -763431.75, -955129.5, -99059.195, 0.24827462, 0.25016063, -721441.1, 115046.48, 0.0, 10.001697, 9.998961 
2.819331e+3, 2.2463898e+2, -762567.75, -945155.94, 12886.535, 0.32470173, 0.18558343, -761662.75, -23100.047, 0.0, 10.001186, 9.998619 
2.8189754e+3, 2.3463282e+2, -552802.06, -770808.6, 35743.12, 0.37233904, 0.32822582, -547091.4, 93531.945, 0.0, 10.001866, 9.998806 
2.8186178e+3, 2.4462497e+2, -586442.3, -908699.6, -83392.28, 0.43776464, 0.3699739, -566141.3, -23437.271, 0.0, 10.001691, 9.997283 
2.818259e+3, 2.5461522e+2, -668042.25, -878316.7, -113519.914, 0.53517747, 0.29380023, -618451.94, -173644.73, 0.0, 10.000388, 9.997439 
2.817902e+3, 2.646086e+2, -494706.4, -405017.7, 69876.82, 0.56966263, 0.37158525, -366833.22, -19957.934, 0.0, 9.999415, 10.000501 
2.8175464e+3, 2.7460515e+2, -371298.84, -259641.34, 107542.4, 0.54077816, 0.58790994, -194299.89, 54606.484, 0.0, 9.999435, 10.0008135 
2.8171876e+3, 2.8459737e+2, -589837.25, -744788.7, -58543.496, 0.40486294, 0.5542652, -570205.7, -419219.63, 0.0, 9.999103, 9.996977 
2.816825e+3, 2.945848e+2, -579535.06, -671528.56, -137862.89, 0.17030963, 0.22760819, -480198.16, -427078.94, 0.0, 9.998416, 9.997142 
2.816468e+3, 3.0457854e+2, -132694.73, 230529.23, 151103.81, 0.172241, 0.24756773, 285169.8, 285169.8, 0.0, 9.998078, 10.002831 
2.8161195e+3, 3.1457913e+2, 31202.928, 403312.47, 252281.16, 0.6429785, 0.6049429, 530725.6, 530725.6, 0.0, 9.998551, 10.003464 
2.815761e+3, 3.2457238e+2, 75819.805, -54666.402, 200388.47, 0.28932455, 0.49481767, 221318.72, 221318.72, 0.0, 10.000872, 9.999205 
2.8325433e+3, 1.3506247e+2, -1763462.4, -1925560.0, -205662.16, 0.3293743, 0.19674473, -1623455.0, -7052.108, 0.000045595905, 10.000491, 9.998288 
2.8321826e+3, 1.4505391e+2, -1608368.1, -1660562.0, -113399.68, 0.18833487, 0.06665864, -1518101.3, 396.15204, 0.000014265849, 10.000287, 9.999547 
2.831828e+3, 1.5504816e+2, -1197803.9, -1367442.8, -82913.7, 0.4564488, 0.13661627, -1164010.4, 256537.98, 0.0000019516297, 10.002286, 9.999895 
2.831472e+3, 1.6504234e+2, -1155120.5, -1444524.4, -99425.12, 0.5678814, 0.25340036, -1124254.9, 198354.31, 0.00000005936716, 10.002522, 9.99859 
2.8311124e+3, 1.7503612e+2, -1275275.0, -1439852.3, -17806.02, 0.42194486, 0.39563078, -1273370.6, -48687.65, 0.0, 10.000998, 9.9986725 
2.8307557e+3, 1.8502939e+2, -1192837.5, -1354991.5, 137414.27, 0.30313483, 0.4922096, -1114364.6, 12389.171, 0.0, 10.000891, 9.998653 
2.8304008e+3, 1.950223e+2, -901259.7, -1141293.3, 144389.77, 0.24226916, 0.54550457, -833520.1, 195299.81, 0.0, 10.002155, 9.998819 
2.8300428e+3, 2.050136e+2, -836797.44, -1119811.1, -122303.65, 0.2010477, 0.45574245, -791268.5, 139632.6, 0.0, 10.0021925, 9.998274 
2.8296822e+3, 2.1500312e+2, -903464.44, -1081763.8, -140547.86, 0.16513692, 0.2050117, -826176.9, 6821.943, 0.0, 10.000995, 9.998429 
2.829324e+3, 2.2499521e+2, -832073.25, -855276.2, 27826.232, 0.19757974, 0.13991599, -813526.9, -78454.695, 0.0, 10.000175, 9.999726 
2.8289685e+3, 2.349898e+2, -793789.06, -772200.75, 70163.305, 0.28644416, 0.2571059, -712006.2, -74883.41, 0.0, 9.999714, 9.99984 
2.8286108e+3, 2.44983e+2, -708405.44, -815742.6, 32390.682, 0.30594006, 0.29458562, -699388.5, -160198.45, 0.0, 10.000213, 9.998623 
2.828251e+3, 2.5497457e+2, -376852.38, -599650.44, 92316.64, 0.2563175, 0.23351447, -343572.1, 97704.664, 0.0, 10.001791, 9.998673 
2.8278938e+3, 2.6496807e+2, -223232.2, -374909.97, 218749.48, 0.32008815, 0.32874337, -67548.15, 275796.13, 0.0, 10.001735, 9.999576 
2.827539e+3, 2.7496374e+2, -346606.34, -354252.1, 109340.25, 0.45892617, 0.5690982, -241022.16, 4367.4937, 0.0, 10.000091, 9.999833 
2.8271806e+3, 2.8495583e+2, -464075.97, -580461.6, -22741.809, 0.43409166, 0.5287477, -459790.03, -312319.72, 0.0, 9.999542, 9.997882 
2.8268182e+3, 2.9494375e+2, -252275.98, -417201.53, 40546.523, 0.21829444, 0.16982953, -242846.81, -193253.95, 0.0, 10.000266, 9.997987 
2.8264606e+3, 3.049375e+2, 40474.62, 205626.98, 266792.03, 0.17924596, 0.21021047, 402329.9, 402329.9, 0.0, 9.999741, 10.001855 
2.8261107e+3, 3.149379e+2, -121815.15, 219040.2, 82817.94, 0.56091577, 0.6586746, 238097.11, 238097.11, 0.0, 9.997984, 10.002463 
2.8257525e+3, 3.249301e+2, -162174.33, -18407.04, 35720.938, 0.12152873, 0.4128402, -10020.867, -10020.867, 0.0, 9.998625, 10.000513 
2.8425357e+3, 1.354173e+2, -1543997.3, -1987103.1, -150165.19, 0.085379474, 0.08113441, -1497902.5, 115020.086, 0.000024215351, 10.002732, 9.996782 
2.8421783e+3, 1.45408e+2, -1167603.9, -1425414.6, 44841.92, 0.2371106, -0.057473667, -1160027.0, 354998.16, 0.0000074734667, 10.003226, 9.999742 
2.841824e+3, 1.5540095e+2, -1175001.3, -1340104.4, 76082.9, 0.4203126, -0.13046513, -1145288.1, 271797.66, 0.0000012508747, 10.002379, 10.000035 
2.841467e+3, 1.6539589e+2, -1082854.9, -1310332.4, -50422.72, 0.46687537, 0.024943417, -1072179.1, 246958.27, 0.000000073245815, 10.002595, 9.999479 
2.841107e+3, 1.7539226e+2, -865058.8, -1129639.3, -35997.32, 0.33668658, 0.32559547, -860248.7, 360935.53, 0.0, 10.003344, 9.999667 
2.8407505e+3, 1.8538643e+2, -918270.4, -1205703.4, 140664.92, 0.28074017, 0.45550776, -860887.3, 262358.22, 0.0, 10.002726, 9.998786 
2.8403974e+3, 1.9537863e+2, -996946.1, -1172436.8, 166019.1, 0.3207365, 0.41611984, -896910.75, 128409.08, 0.0, 10.001451, 9.998938 
2.840039e+3, 2.0536987e+2, -1023680.75, -1252028.8, -118644.664, 0.24962841, 0.33662653, -973196.75, -45792.082, 0.0, 10.001095, 9.997896 
2.8396758e+3, 2.1535993e+2, -879394.75, -1105903.5, -97012.83, 0.0744077, 0.17831494, -843524.9, -14023.073, 0.0, 10.001314, 9.998111 
2.8393164e+3, 2.2535244e+2, -684638.0, -678179.3, 61749.277, 0.05665216, 0.1258569, -619575.0, 111996.984, 0.0, 10.000743, 10.000666 
2.8389606e+3, 2.3534717e+2, -705415.5, -618880.06, 60071.08, 0.17697227, 0.16345178, -588116.5, 45501.313, 0.0, 9.999856, 10.00082 
2.8386027e+3, 2.453415e+2, -599144.4, -568812.44, 52219.8, 0.08949298, 0.17720632, -529600.9, 6068.6025, 0.0, 10.000122, 10.000365 
2.8382424e+3, 2.553352e+2, -295062.75, -370402.53, 72798.11, -0.15256093, 0.14364718, -250765.67, 186963.05, 0.0, 10.00153, 10.000377 
2.8378853e+3, 2.653286e+2, -431569.66, -722131.0, 83120.6, -0.06865602, 0.24680638, -409472.0, -69672.766, 0.0, 10.001368, 9.99737 
2.8375313e+3, 2.7532172e+2, -530329.6, -687683.4, 24810.238, 0.3014908, 0.44759578, -526510.44, -284631.28, 0.0, 9.999877, 9.997653 
2.837174e+3, 2.853144e+2, -292896.56, -241336.78, -13533.349, 0.46841833, 0.46328932, -238000.45, -94048.06, 0.0, 9.999607, 10.000184 
2.8368145e+3, 2.9530638e+2, -61027.332, -82238.03, 35853.605, 0.45107114, 0.27331537, -34243.453, 11780.864, 0.0, 10.000518, 10.000175 
2.836455e+3, 3.0529907e+2, -229337.02, -384730.34, 166991.06, 0.27005973, 0.306785, -122852.28, -122852.28, 0.0, 9.999868, 9.997741 
2.836099e+3, 3.1529292e+2, -400895.06, -380017.3, 18428.404, 0.21454088, 0.5149171, -369276.56, -369276.56, 0.0, 9.998057, 9.99832 
2.8357434e+3, 3.2528505e+2, -107613.195, 108442.72, 190686.9, -0.06659193, 0.41316545, 219575.73, 219575.73, 0.0, 9.998576, 10.001401 
2.852535e+3, 1.357741e+2, -1354914.9, -1804748.4, 28715.832, 0.29454625, -0.06399112, -1353089.3, 256343.81, 0.0000129351465, 10.003597, 9.997635 
2.8521726e+3, 1.457732e+2, -996630.7, -1305114.9, 34114.82, -0.100596465, 0.58929294, -992903.0, 518547.5, 0.000003738906, 10.004209, 10.000108 
2.8518185e+3, 1.5576115e+2, -1180551.9, -1331076.9, 82154.96, 0.2726499, 0.004491025, -1144396.8, 269157.6, 0.00000051506584, 10.002272, 10.00016 
2.8514627e+3, 1.6575356e+2, -1123513.1, -1438348.9, 79963.29, 0.38614467, -0.043126434, -1104368.0, 211261.63, 0.00000002542409, 10.002775, 9.998518 
2.851104e+3, 1.75749e+2, -687375.2, -1143584.3, 50444.832, 0.2326962, 0.27949834, -681863.9, 535822.0, 0.0, 10.004989, 9.998779 
2.850747e+3, 1.857427e+2, -650172.25, -951252.6, 47378.266, 0.17434922, 0.3476088, -642892.75, 476858.03, 0.0, 10.004049, 9.999878 
2.850391e+3, 1.9573492e+2, -1030028.5, -1080112.3, 90973.984, 0.21781844, 0.21547173, -960712.75, 61111.008, 0.0, 10.000765, 9.999897 
2.8500324e+3, 2.0572779e+2, -1053643.5, -1130845.5, -8885.203, 0.20910002, 0.19643505, -1052634.1, -128741.37, 0.0, 10.000294, 9.999115 
2.8496715e+3, 2.1572086e+2, -718675.8, -907245.0, 49829.145, 0.13410178, 0.23504744, -706318.3, 119643.11, 0.0, 10.001894, 9.999193 
2.849313e+3, 2.257135e+2, -614609.94, -773411.8, 107718.77, 0.19743697, 0.21445283, -560190.7, 167839.89, 0.0, 10.001773, 9.999508 
2.8489563e+3, 2.3570603e+2, -717158.94, -752029.94, 47178.906, 0.36836362, 0.15076616, -684296.9, -54198.75, 0.0, 10.0003195, 9.999674 
2.848598e+3, 2.456989e+2, -655511.2, -705442.44, 45367.85, 0.26885203, 0.12478359, -628693.4, -96528.44, 0.0, 10.000208, 9.999382 
2.8482383e+3, 2.5569195e+2, -414284.2, -527188.44, -42566.293, -0.046265226, 0.11458992, -400034.6, 34197.516, 0.0, 10.0011425, 9.999481 
2.8478804e+3, 2.656847e+2, -461725.13, -646397.3, -106301.07, -0.023849636, 0.13783476, -413256.84, -76950.71, 0.0, 10.000774, 9.998173 
2.847524e+3, 2.7567703e+2, -521484.34, -603023.5, -53777.996, 0.25728217, 0.18267635, -494768.88, -256381.11, 0.0, 9.999597, 9.998367 
2.8471673e+3, 2.8567052e+2, -255331.56, -266381.63, -133.68584, 0.428765, 0.25908625, -255329.94, -114876.35, 0.0, 10.0000515, 9.999797 
2.84681e+3, 2.956648e+2, 98893.69, -50978.625, -89988.46, 0.5000115, 0.32578704, 141061.55, 183569.03, 0.0, 10.001831, 9.999749 
2.8464493e+3, 3.0565715e+2, -74483.83, -401295.63, -52272.06, 0.27188066, 0.37147388, -66326.74, -66326.74, 0.0, 10.001348, 9.996904 
2.8460893e+3, 3.1564814e+2, -282698.34, -413686.38, -20750.852, 0.021380516, 0.3783924, -279489.66, -279489.66, 0.0, 9.9993, 9.997475 
2.845738e+3, 3.2564124e+2, -404467.22, 14623.244, 224641.05, 0.25651687, 0.39708775, 112279.586, 112279.586, 0.0, 9.996334, 10.0018425 
2.8625327e+3, 1.3613345e+2, -1495447.3, -1816695.1, 88826.32, 0.37545475, 0.048133872, -1472522.4, 133394.77, 0.0000059381787, 10.002438, 9.998094 
2.8621677e+3, 1.4613576e+2, -1245477.9, -1411492.5, -60487.11, -0.30052692, 0.9770879, -1225777.4, 282123.13, 0.0000015122073, 10.002474, 10.000203 
2.8618133e+3, 1.5612103e+2, -1231727.1, -1353343.9, -5597.1523, 0.17403011, 0.10471073, -1231470.1, 178557.72, 0.0000000966577, 10.001935, 10.000164 
2.861458e+3, 1.6611207e+2, -1311630.3, -1575842.0, 143495.97, 0.30862477, -0.058483787, -1248689.8, 63425.703, 0.00000000026919006, 10.001708, 9.998083 
2.861101e+3, 1.7610681e+2, -1157000.0, -1406985.3, 183164.0, 0.14237724, 0.2382215, -1060244.6, 153933.06, 0.0, 10.001939, 9.998439 
2.8607428e+3, 1.8610021e+2, -978808.2, -1025263.9, 42395.973, 0.06486905, 0.26129758, -953694.0, 162550.39, 0.0, 10.001423, 10.000643 
2.860384e+3, 1.9609256e+2, -1062778.0, -1007582.94, 60439.563, 0.10070696, 0.06560749, -968738.25, 49577.375, 0.0, 10.000158, 10.000689 
2.8600258e+3, 2.0608704e+2, -990525.6, -977266.56, 67098.99, 0.16045861, 0.11790797, -916470.4, 3898.3455, 0.0, 10.000215, 10.000204 
2.8596678e+3, 2.1608281e+2, -725070.56, -807913.2, 79678.836, 0.21858718, 0.31134647, -676689.6, 145721.4, 0.0, 10.001421, 10.0001 
2.85931e+3, 2.260752e+2, -760622.5, -1001681.56, 45376.13, 0.36038265, 0.29900214, -752364.0, -27881.309, 0.0, 10.001461, 9.99809 
2.8589523e+3, 2.3606533e+2, -762335.44, -942381.6, 35684.563, 0.5766788, 0.1395411, -755520.8, -128946.69, 0.0, 10.00074, 9.998167 
2.8585944e+3, 2.4605644e+2, -749097.7, -925169.6, 137190.52, 0.49711388, 0.09660624, -674125.8, -145464.95, 0.0, 10.000321, 9.99782 
2.8582355e+3, 2.5604805e+2, -606959.44, -771438.75, 70860.76, 0.20630144, 0.10554439, -580642.1, -149896.22, 0.0, 10.000472, 9.998129 
2.857876e+3, 2.6603985e+2, -404520.28, -435199.5, -76010.3, 0.13602322, 0.019771013, -342317.2, -9492.891, 0.0, 10.000372, 9.999821 
2.8575167e+3, 2.760318e+2, -372824.34, -376896.34, -49102.215, 0.23189174, -0.14120577, -325715.94, -90816.86, 0.0, 9.999945, 9.999757 
2.85716e+3, 2.8602585e+2, -363355.5, -500825.34, 79943.65, 0.32821655, 0.019706517, -326660.47, -189698.97, 0.0, 10.000097, 9.998165 
2.8568044e+3, 2.960212e+2, -114828.71, -320216.2, -8965.896, 0.42613268, 0.3577623, -114438.055, -75421.42, 0.0, 10.001077, 9.998267 
2.8564435e+3, 3.0601338e+2, -77643.805, -281570.94, -107943.734, 0.18876685, 0.4017842, -31120.268, -31120.268, 0.0, 10.000797, 9.997994 
2.8560814e+3, 3.1600374e+2, -205895.58, -259947.61, -74478.3, -0.07794358, 0.24160215, -153691.4, -153691.4, 0.0, 9.9993105, 9.998532 
2.8557348e+3, 3.2599786e+2, -351933.13, 52668.484, 85108.79, 0.93614143, 0.30096602, 69842.33, 69842.33, 0.0, 9.996582, 10.002012 
2.8725284e+3, 1.3649417e+2, -1589124.5, -1905166.1, 66489.766, 0.38217437, 0.31728005, -1575706.0, 26676.502, 0.0000021414692, 10.0019455, 9.997733 
2.872165e+3, 1.4648987e+2, -1352123.9, -1462052.4, -63211.38, -0.111456186, 0.60620034, -1323322.1, 181107.56, 0.00000043033984, 10.001712, 10.000228 
2.871809e+3, 1.5647866e+2, -1245996.4, -1332154.6, -11321.458, 0.2137065, 0.08621746, -1244533.6, 161995.55, 0.000000019645139, 10.001703, 10.000422 
2.8714526e+3, 1.6647208e+2, -1245385.1, -1283756.8, 131822.6, 0.29334256, 0.02379531, -1131359.5, 177232.11, 0.0, 10.001029, 10.000418 
2.8710952e+3, 1.7646812e+2, -1308812.8, -1259029.1, 223670.75, 0.14396289, 0.2355633, -1058869.4, 151764.47, 0.0, 9.999927, 10.00043 
2.8707367e+3, 1.8646261e+2, -1252262.5, -1187461.0, 122798.336, 0.07478208, 0.2999009, -1092860.9, 19829.002, 0.0, 9.999647, 10.0004 
2.8703773e+3, 1.9645604e+2, -1138615.6, -1081304.3, 126839.94, 0.09606422, 0.25423485, -979923.3, 34831.53, 0.0, 9.9997835, 10.000372 
2.8700203e+3, 2.0644987e+2, -1010467.7, -1034454.9, 140890.58, 0.19702497, 0.28618667, -881061.2, 35754.094, 0.0, 10.000294, 9.999761 
2.8696632e+3, 2.1644393e+2, -811050.0, -893349.9, 102954.445, 0.31046057, 0.36129606, -741326.44, 77546.516, 0.0, 10.001025, 9.999697 
2.8693047e+3, 2.2643557e+2, -719805.75, -914910.44, 60140.965, 0.33938313, 0.26060966, -702757.06, 18193.334, 0.0, 10.001465, 9.998674 
2.868945e+3, 2.3642564e+2, -590785.56, -803528.2, 103674.21, 0.33672383, 0.050521027, -548620.0, 74421.13, 0.0, 10.001683, 9.998664 
2.8685874e+3, 2.4641766e+2, -642749.6, -806047.06, 241774.98, 0.37991667, 0.05282878, -469208.88, 55908.957, 0.0, 10.000762, 9.998425 
2.868231e+3, 2.5641057e+2, -759685.3, -802498.56, 259134.31, 0.4109735, 0.15878065, -521074.94, -93886.266, 0.0, 9.999244, 9.998509 
2.8678715e+3, 2.6640207e+2, -562887.5, -608666.06, 164979.56, 0.31745788, 0.090525776, -419216.94, -89946.09, 0.0, 9.99971, 9.998943 
2.8675106e+3, 2.7639273e+2, -222111.56, -396665.47, 82984.945, 0.1683285, -0.09089205, -188956.92, 42401.72, 0.0, 10.001379, 9.998929 
2.8671527e+3, 2.863854e+2, -378006.03, -549111.7, 135084.77, 0.2478519, -0.0028415946, -303661.47, -170226.19, 0.0, 10.000207, 9.997769 
2.8667971e+3, 2.9637918e+2, -644312.75, -607059.8, 116832.7, 0.43321073, 0.23883879, -507378.1, -471872.22, 0.0, 9.997607, 9.997956 
2.8664365e+3, 3.0637214e+2, -437077.66, -393236.47, 95220.46, 0.21464674, 0.3612281, -317446.03, -317446.03, 0.0, 9.998075, 9.99853 
2.866075e+3, 3.1636456e+2, -8122.9443, -116356.125, 86262.32, -0.046122503, 0.3714102, 39592.65, 39592.65, 0.0, 10.000469, 9.998955 
2.8657278e+3, 3.2635728e+2, 185787.84, 228768.61, 122301.336, 0.98376805, 0.31541452, 331453.3, 331453.3, 0.0, 10.000676, 10.0012245 
2.8825247e+3, 1.3685401e+2, -1448532.6, -1769698.3, 97378.695, 0.39780572, 0.36650527, -1421313.8, 177540.95, 0.00000033679078, 10.002643, 9.998319 
2.8821623e+3, 1.4684603e+2, -1537608.5, -1563797.0, 91121.12, 0.11738387, 0.27772185, -1458645.6, 42290.99, 0.000000039050374, 10.0005045, 10.000102 
2.8818038e+3, 1.5683803e+2, -1425538.4, -1404993.6, 121766.445, 0.22505672, 0.10099855, -1293067.0, 109944.48, 0.0000000006124831, 10.000412, 10.000542 
2.8814465e+3, 1.6683313e+2, -1269707.3, -1106389.8, 168398.66, 0.247992, 0.115000896, -1000895.5, 304160.84, 0.0, 10.000058, 10.002096 
2.8810886e+3, 1.7682977e+2, -1272496.8, -1089802.8, 179967.38, 0.1302572, 0.2099785, -979326.75, 227759.92, 0.0, 9.999531, 10.001779 
2.88073e+3, 1.8682517e+2, -1247275.4, -1228472.5, 92410.31, 0.07578329, 0.3313899, -1144986.6, -35852.5, 0.0, 9.999903, 9.99998 
2.8803712e+3, 1.9681972e+2, -1029783.44, -1079057.5, 107673.13, 0.10997012, 0.42734572, -943964.6, 67227.46, 0.0, 10.000768, 9.999905 
2.8800148e+3, 2.0681258e+2, -1024188.1, -1126627.8, 128160.984, 0.23183541, 0.42567506, -937390.9, -24128.447, 0.0, 10.000578, 9.998991 
2.8796586e+3, 2.1680455e+2, -969732.2, -1027594.8, 103628.445, 0.38549772, 0.36090475, -891072.25, -75732.87, 0.0, 10.000191, 9.999178 
2.8792986e+3, 2.2679585e+2, -824932.8, -873862.9, 44371.23, 0.2510279, 0.20029333, -798728.9, -81309.66, 0.0, 10.000346, 9.9995 
2.8789368e+3, 2.3678666e+2, -669715.0, -744802.4, 69592.66, -0.004522472, -0.026474988, -628184.9, -8682.853, 0.0, 10.000731, 9.999524 
2.8785798e+3, 2.4678019e+2, -629462.75, -683058.75, 130683.43, 0.18038554, 0.027151989, -522858.0, -1296.219, 0.0, 10.0003605, 9.99946 
2.8782254e+3, 2.5677502e+2, -664658.25, -690547.4, 151815.72, 0.5790633, 0.21509622, -525236.25, -101625.5, 0.0, 9.999615, 9.999098 
2.8778663e+3, 2.667666e+2, -667141.44, -851272.9, 175779.45, 0.45140433, 0.22665071, -560777.06, -235083.13, 0.0, 9.99983, 9.997218 
2.8775045e+3, 2.7675626e+2, -415573.47, -658294.56, 116466.72, 0.07391471, 0.11140107, -368729.16, -140932.34, 0.0, 10.000784, 9.997416 
2.8771457e+3, 2.8674692e+2, -383082.66, -533818.0, 42991.832, 0.14968894, 0.054629758, -371682.94, -241790.81, 0.0, 10.000089, 9.9979315 
2.8767887e+3, 2.967381e+2, -539556.94, -544465.94, 65368.895, 0.45844188, 0.0202371, -476596.47, -444612.94, 0.0, 9.998267, 9.998071 
2.876429e+3, 3.067329e+2, -360879.9, -341828.2, 180248.88, 0.27359104, 0.3122584, -170853.64, -170853.64, 0.0, 9.998536, 9.998666 
2.8760698e+3, 3.1672934e+2, -29618.635, -140480.92, 156017.77, 0.026780905, 0.7204281, 80522.43, 80522.43, 0.0, 10.000386, 9.998831 
2.8757164e+3, 3.267186e+2, 15607.817, -30981.875, 120311.305, 0.3788213, 0.40477473, 114858.72, 114858.72, 0.0, 10.000319, 9.999591 
2.8925216e+3, 1.3721424e+2, -1291050.8, -1427238.5, -90615.78, 0.450021, 0.08681477, -1245795.6, 349523.53, 0.00000000011162854, 10.002535, 10.000732 
2.8921592e+3, 1.4720792e+2, -1659561.8, -1668400.9, 157492.64, 0.46362197, 0.102694444, -1506426.8, -9046.551, 0.0, 9.999848, 9.999704 
2.8917968e+3, 1.572024e+2, -1557874.8, -1516386.3, 191456.27, 0.16636707, 0.22534993, -1344553.6, 54884.434, 0.0, 9.99969, 10.000131 
2.8914386e+3, 1.6719641e+2, -1401550.9, -1265807.3, 204099.58, 0.100207955, 0.20132507, -1118590.3, 182904.78, 0.0, 9.999549, 10.001246 
2.8910807e+3, 1.7719045e+2, -1352793.8, -1215373.5, 175973.14, 0.0508959, 0.12956835, -1095171.9, 108377.76, 0.0, 9.9993515, 10.000996 
2.8907236e+3, 1.8718468e+2, -1202102.3, -1237214.1, 127136.95, 0.076760806, 0.18178467, -1091314.9, 14292.876, 0.0, 10.000324, 9.999717 
2.8903672e+3, 1.9717881e+2, -913228.5, -1057378.4, 110764.6, 0.17949805, 0.26830044, -853153.56, 154515.39, 0.0, 10.001707, 9.999599 
2.89001e+3, 2.0717093e+2, -977267.0, -1132173.5, 60860.426, 0.31414363, 0.21569638, -956216.5, -46470.805, 0.0, 10.000993, 9.998762 
2.8896523e+3, 2.1716203e+2, -1109875.5, -1119549.3, 60887.234, 0.4340165, 0.091553755, -1053633.4, -241803.11, 0.0, 9.999311, 9.998979 
2.8892916e+3, 2.2715534e+2, -1018286.9, -966174.0, 47569.67, 0.2725369, 0.13977645, -937992.0, -224096.89, 0.0, 9.999022, 9.9994955 
2.8889298e+3, 2.371493e+2, -862428.7, -839432.5, 37285.33, -0.005106557, 0.22347477, -811912.6, -195958.64, 0.0, 9.999415, 9.999502 
2.8885728e+3, 2.4714144e+2, -700366.44, -741449.25, 58603.957, 0.110459074, 0.14816424, -658808.2, -140781.98, 0.0, 9.99999, 9.999228 
2.8882176e+3, 2.5713313e+2, -514840.9, -612513.44, 23326.783, 0.40594375, 0.03287342, -509555.8, -89454.266, 0.0, 10.000641, 9.9991255 
2.8878602e+3, 2.671259e+2, -543016.94, -661551.7, 88275.98, 0.46133658, 0.089124866, -495958.06, -173786.05, 0.0, 10.000145, 9.998356 
2.8875008e+3, 2.7711868e+2, -580291.25, -634036.3, 131841.66, 0.3655911, 0.17773092, -472611.38, -248365.53, 0.0, 9.999236, 9.998312 
2.887141e+3, 2.871097e+2, -355635.4, -481460.16, 129090.93, 0.31900316, 0.110574976, -274942.63, -148608.36, 0.0, 10.0001, 9.998289 
2.8867814e+3, 2.971001e+2, -11571.163, -287884.5, 158803.56, 0.32349205, -0.02701932, 60761.684, 89190.625, 0.0, 10.001895, 9.998076 
2.8864217e+3, 3.070935e+2, -47590.535, -301992.13, 216155.61, 0.18041839, 0.19266956, 76013.96, 76013.96, 0.0, 10.00119, 9.9976635 
2.8860644e+3, 3.1708843e+2, -227614.66, -311436.06, 112479.33, 0.11839102, 0.55777234, -149491.58, -149491.58, 0.0, 9.999386, 9.998158 
2.8857082e+3, 3.2707816e+2, -344479.2, -39701.676, 80060.195, 0.3883268, 0.24783072, -19951.047, -19951.047, 0.0, 9.997119, 10.001119 
2.9025173e+3, 1.3757692e+2, -1413190.5, -1309986.5, -267931.94, 0.5241165, 0.076838344, -1088732.6, 503030.44, 0.00000000011825356, 10.000986, 10.002279 
2.902155e+3, 1.4756963e+2, -1401956.1, -1602956.4, 67514.055, 0.60525703, -0.037650947, -1381384.3, 112446.58, 0.0, 10.001892, 9.999166 
2.9017907e+3, 1.5756635e+2, -1301307.6, -1460011.1, 100798.38, 0.16269292, 0.3488414, -1252374.5, 143497.02, 0.0, 10.001762, 9.999514 
2.9014316e+3, 1.6755937e+2, -1301127.9, -1321753.0, 110880.84, 0.053857442, 0.29633737, -1200081.1, 97858.08, 0.0, 10.000718, 10.000289 
2.9010737e+3, 1.7755102e+2, -1410327.3, -1335420.5, 123244.23, 0.023711413, 0.06586401, -1244064.4, -44047.57, 0.0, 9.999374, 10.000157 
2.900718e+3, 1.875443e+2, -1337100.4, -1316118.9, 154080.06, 0.09226811, 0.0649377, -1172172.9, -70090.35, 0.0, 9.999473, 9.999584 
2.900363e+3, 1.9753799e+2, -1136686.6, -1178394.0, 146521.67, 0.2372117, 0.116081595, -1009542.06, -5396.0747, 0.0, 10.000238, 9.999475 
2.9000047e+3, 2.0752953e+2, -1074888.1, -1170158.9, 51055.125, 0.3472464, 0.009725033, -1052696.9, -146470.45, 0.0, 10.000299, 9.998831 
2.8996453e+3, 2.1752025e+2, -1013801.94, -1077924.0, 93127.74, 0.426611, -0.1602248, -947370.94, -139057.17, 0.0, 10.000004, 9.998927 
2.899285e+3, 2.2751549e+2, -921386.4, -962956.9, 110143.555, 0.29167163, 0.11337996, -830084.06, -119719.03, 0.0, 9.999882, 9.999104 
2.898924e+3, 2.375122e+2, -797364.7, -854554.1, 83010.16, 0.0815792, 0.5148904, -738162.25, -125757.94, 0.0, 10.000071, 9.999083 
2.8985658e+3, 2.4750215e+2, -681290.75, -785894.4, 112445.23, 0.046271496, 0.26810312, -609578.8, -95081.68, 0.0, 10.000356, 9.998746 
2.898209e+3, 2.5748962e+2, -502622.63, -602586.0, 86449.164, 0.10754649, -0.22279325, -452746.28, -36136.883, 0.0, 10.00071, 9.999162 
2.8978536e+3, 2.6748413e+2, -388478.28, -365937.13, 74642.086, 0.42852607, -0.11592336, -301719.5, 16943.004, 0.0, 10.000256, 10.000332 
2.897498e+3, 2.7748096e+2, -441630.47, -397510.75, 107923.59, 0.8035969, 0.1867432, -309415.56, -88719.414, 0.0, 9.999447, 9.999839 
2.897137e+3, 2.8747335e+2, -309148.3, -397847.1, 168575.16, 0.5432516, 0.16268179, -179186.33, -56418.85, 0.0, 10.000156, 9.998836 
2.896774e+3, 2.974639e+2, -78661.695, -343766.56, 203899.17, 0.056855038, 0.010787218, 31983.363, 56838.633, 0.0, 10.00156, 9.997843 
2.8964147e+3, 3.0745348e+2, -188037.45, -556215.8, 154551.25, -0.008119278, -0.04457538, -131762.5, -131762.5, 0.0, 10.001055, 9.995962 
2.896058e+3, 3.1744307e+2, -297899.56, -448087.72, 69736.99, 0.22277485, -0.038790535, -270512.6, -270512.6, 0.0, 9.999382, 9.997202 
2.895704e+3, 3.2743642e+2, -60087.043, 525823.06, -6679.7715, 0.8673368, -0.14460969, 525899.2, 525899.2, 0.0, 9.99722, 10.0049515 
2.9125103e+3, 1.3794361e+2, -1439446.8, -1320903.4, -101613.055, 0.39949706, 0.61530113, -1262538.6, 325640.66, 0.0000000000007792345, 10.000761, 10.002323 
2.9121476e+3, 1.4792928e+2, -1329404.6, -1627613.0, 41162.027, 0.29039216, -0.16146469, -1323827.4, 166488.9, 0.0, 10.002628, 9.99865 
2.9117897e+3, 1.5792768e+2, -1195047.1, -1463183.3, 45638.625, 0.4390875, 0.44908008, -1187492.0, 204848.5, 0.0, 10.0027075, 9.9990425 
2.91143e+3, 1.6792056e+2, -1247403.1, -1331408.8, 6298.3945, 0.4136359, 0.41794425, -1246933.5, 47476.39, 0.0, 10.001229, 9.999982 
2.9110694e+3, 1.7791171e+2, -1411328.3, -1329333.5, 49281.117, 0.27721456, 0.16985261, -1306226.3, -109732.91, 0.0, 9.999317, 10.0002365 
2.9107118e+3, 1.879059e+2, -1351357.8, -1216496.6, 154659.16, 0.21132693, 0.18994702, -1115207.5, -16658.979, 0.0, 9.998893, 10.000554 
2.9103553e+3, 1.979009e+2, -1243675.9, -1113720.1, 168920.67, 0.210381, 0.28254306, -997710.9, 2885.282, 0.0, 9.998983, 10.00053 
2.9099968e+3, 2.0789392e+2, -1035382.2, -993432.75, 131654.08, 0.21773508, 0.1988219, -881093.06, 21565.49, 0.0, 9.999861, 10.000273 
2.9096374e+3, 2.1788605e+2, -836525.6, -926840.2, 197492.05, 0.21138945, 0.050757267, -679093.94, 125634.77, 0.0, 10.0009165, 9.999539 
2.9092792e+3, 2.2787853e+2, -832291.4, -1088781.9, 187599.55, 0.2649637, 0.12935105, -733291.3, -26484.469, 0.0, 10.001191, 9.997621 
2.908921e+3, 2.3787135e+2, -691362.8, -888756.8, 136252.4, 0.31146258, 0.28830263, -621816.5, -12931.716, 0.0, 10.001146, 9.998335 
2.9085618e+3, 2.478629e+2, -516616.0, -606287.94, 195301.06, 0.17165, 0.17503537, -361070.4, 149891.7, 0.0, 10.00105, 9.999643 
2.9082024e+3, 2.5785357e+2, -431127.63, -513181.53, 201637.06, 0.0037763868, -0.06857932, -266386.0, 146657.6, 0.0, 10.000948, 9.999664 
2.9078466e+3, 2.6784724e+2, -404256.34, -440695.72, 127480.445, 0.32496747, -0.013005581, -293700.2, 21406.027, 0.0, 10.000447, 9.999722 
2.9074913e+3, 2.7784216e+2, -368954.03, -358164.3, 82384.94, 0.7807719, 0.15070581, -280997.78, -63838.695, 0.0, 9.999937, 9.999865 
2.9071313e+3, 2.8783527e+2, -227965.9, -214085.2, 188200.06, 0.58780897, 0.114469424, -32697.576, 86523.96, 0.0, 10.000136, 10.000084 
2.9067686e+3, 2.978273e+2, -218560.78, -205165.6, 205151.02, 0.10677218, -0.025672618, -6602.8784, 14688.865, 0.0, 9.999739, 9.999656 
2.922502e+3, 1.3830572e+2, -1762094.3, -1497105.1, 1890.8103, 0.20147157, 0.73743254, -1497091.6, 87544.54, 0.0, 9.998682, 10.002101 
2.9221413e+3, 1.482902e+2, -1758203.0, -1821938.4, 74552.695, 0.11517376, -0.15881293, -1708992.6, -222205.42, 0.0, 9.999664, 9.998732 
2.921787e+3, 1.5828946e+2, -1553905.1, -1644466.3, 124177.71, 0.59983265, 0.5321242, -1467009.9, -78206.984, 0.0, 10.000303, 9.998952 
2.921427e+3, 1.6828232e+2, -1310661.9, -1394630.1, 61572.203, 0.6355782, 0.5288037, -1278122.1, 12751.092, 0.0, 10.000933, 9.999698 
2.9210645e+3, 1.7827332e+2, -1140185.5, -1208936.0, 119840.31, 0.45593074, 0.29417533, -1049887.8, 143071.47, 0.0, 10.00123, 10.000145 
2.9207057e+3, 1.8826795e+2, -1033867.4, -1025241.9, 171921.97, 0.27448162, 0.34373215, -857578.56, 237431.16, 0.0, 10.000926, 10.000879 
2.920348e+3, 1.9826366e+2, -979229.44, -923702.5, 105788.266, 0.1464326, 0.45774522, -842095.2, 154953.81, 0.0, 10.000537, 10.001084 
2.919989e+3, 2.0825815e+2, -882356.1, -792016.75, 22066.055, 0.080953844, 0.4214599, -786915.06, 112179.15, 0.0, 10.000378, 10.001397 
2.9196298e+3, 2.1825182e+2, -887096.5, -915094.8, 37308.66, 0.019295016, 0.30615857, -861247.06, -60100.617, 0.0, 10.000424, 9.999851 
2.9192737e+3, 2.2824132e+2, -906102.56, -1260912.6, 66790.734, 0.23424733, 0.14287464, -893946.1, -190694.05, 0.0, 10.001289, 9.9963875 
2.9189178e+3, 2.382299e+2, -583589.94, -888496.94, 98205.19, 0.5204649, -0.02364724, -554697.56, 50672.32, 0.0, 10.002117, 9.99787 
2.9185578e+3, 2.4822423e+2, -379190.88, -416282.2, 144266.4, 0.30147865, 0.08165725, -252282.98, 255137.42, 0.0, 10.001466, 10.000747 
2.9181966e+3, 2.582199e+2, -465842.5, -486508.4, 127726.97, -0.042895786, 0.22416191, -348031.2, 61423.43, 0.0, 10.000534, 10.000042 
2.917839e+3, 2.6821184e+2, -541503.06, -665658.2, 72274.36, 0.17330196, 0.18350922, -508306.28, -196770.6, 0.0, 10.000179, 9.998312 
2.9174826e+3, 2.78203e+2, -408495.56, -411862.1, 82468.75, 0.53808945, 0.08098179, -327692.9, -114066.15, 0.0, 9.9998045, 9.999569 
2.9171246e+3, 2.8819683e+2, -157653.4, -19684.223, 201367.52, 0.5329534, 0.028264701, 124187.37, 239868.77, 0.0, 9.999951, 10.001502 
2.9167634e+3, 2.9819095e+2, -37135.63, 232665.73, 108499.43, 0.24701542, -0.10734099, 270884.44, 288613.72, 0.0, 9.999451, 10.002824 
2.9324937e+3, 1.3866071e+2, -1911622.3, -1629960.4, -13593.27, 0.21398152, 0.20736714, -1629305.9, -48152.797, 0.0, 9.997887, 10.001575 
2.932135e+3, 1.4865454e+2, -1799681.9, -1616510.1, 106299.61, 0.28556314, 0.13194174, -1567783.5, -84566.24, 0.0, 9.998376, 10.000774 
2.9317766e+3, 1.58653e+2, -1619317.3, -1520897.6, 194154.2, 0.27892137, 0.5588338, -1369814.0, 15425.673, 0.0, 9.999154, 10.000364 
2.9314184e+3, 1.686465e+2, -1317068.9, -1393987.1, 177326.66, 0.34139797, 0.5742755, -1174078.8, 113223.97, 0.0, 10.000835, 9.999767 
2.931059e+3, 1.7863846e+2, -1009851.25, -1256824.3, 218303.0, 0.31656772, 0.45829228, -882528.8, 306850.3, 0.0, 10.002572, 9.999181 
2.9307005e+3, 1.8863016e+2, -1009300.56, -1338703.8, 163053.97, 0.18039528, 0.4491941, -942241.06, 149220.61, 0.0, 10.002482, 9.997983 
2.9303423e+3, 1.9862203e+2, -954803.25, -1183898.6, 13285.69, 0.08133379, 0.46355373, -954035.3, 39507.457, 0.0, 10.00186, 9.998668 
2.929985e+3, 2.0861445e+2, -930961.7, -1012466.7, -149715.78, 0.22141874, 0.40590012, -816551.1, 79061.59, 0.0, 10.000881, 9.999642 
2.929627e+3, 2.1860705e+2, -965865.06, -981552.6, -179207.25, 0.36526078, 0.31781864, -794330.0, 3349.29, 0.0, 9.999975, 9.999621 
2.9292694e+3, 2.285998e+2, -653678.0, -834450.0, -14932.571, 0.30076003, 0.28846243, -652452.8, 47295.535, 0.0, 10.001687, 9.999136 
2.9289117e+3, 2.385923e+2, -214584.83, -521471.34, 53388.2, 0.23257688, 0.2498179, -205562.3, 396259.16, 0.0, 10.003808, 9.99959 
2.928553e+3, 2.4858637e+2, -307127.38, -439426.56, -17855.93, 0.25420928, 0.2971949, -304759.8, 199116.61, 0.0, 10.002204, 10.000235 
2.9281932e+3, 2.5858095e+2, -562838.75, -519613.34, -65662.12, 0.2643038, 0.3623211, -472098.47, -66173.46, 0.0, 9.999793, 10.00018 
2.9278338e+3, 2.6857325e+2, -570839.4, -561163.56, -9161.856, 0.32981902, 0.2639993, -555640.75, -247640.92, 0.0, 9.999434, 9.999401 
2.9274744e+3, 2.7856496e+2, -388025.1, -342702.38, 66881.09, 0.41299468, 0.116248325, -294747.75, -84666.8, 0.0, 9.999643, 10.000137 
2.9271165e+3, 2.8855947e+2, -346281.13, -219548.13, 123473.51, 0.42878693, 0.16170977, -144130.55, -31996.215, 0.0, 9.999052, 10.000605 
2.926756e+3, 2.9855356e+2, -138251.44, 93482.34, -124484.664, 0.26207945, 0.09766066, 147678.88, 161868.81, 0.0, 9.99904, 10.002125 
2.942486e+3, 1.3901965e+2, -1774360.4, -1591812.3, 78910.836, 0.27730754, 0.0095401835, -1562430.3, 15202.419, 0.0, 9.998982, 10.0013 
2.9421288e+3, 1.4901818e+2, -1468721.5, -1350344.8, 141453.53, 0.40696082, 0.34927478, -1256195.6, 223456.89, 0.0, 10.00021, 10.00171 
2.9417676e+3, 1.5901506e+2, -1285695.8, -1302595.6, 121870.55, 0.022105522, 0.51918334, -1171982.5, 209705.81, 0.0, 10.001207, 10.000873 
2.9414108e+3, 1.6900897e+2, -1206078.6, -1360331.3, 76948.414, 0.12037513, 0.55849147, -1174257.5, 109489.78, 0.0, 10.0017, 9.999572 
2.941054e+3, 1.790017e+2, -1149186.0, -1445557.9, 83878.37, 0.2247113, 0.536712, -1127093.8, 58723.01, 0.0, 10.002153, 9.99808 
2.9406956e+3, 1.8899126e+2, -1220856.6, -1698783.8, 98512.336, 0.10272163, 0.4959123, -1201347.3, -113424.24, 0.0, 10.002149, 9.995671 
2.9403374e+3, 1.9898005e+2, -1086018.6, -1487777.3, 70493.21, 0.021338496, 0.42512164, -1074008.8, -83970.914, 0.0, 10.002005, 9.9965105 
2.9399812e+3, 2.0897025e+2, -898453.56, -1208672.3, -38710.664, 0.3680333, 0.3509461, -893696.0, -1561.676, 0.0, 10.002038, 9.997735 
2.9396248e+3, 2.1896137e+2, -696987.75, -860350.9, 7000.9414, 0.71703047, 0.28917024, -696688.25, 97531.63, 0.0, 10.001879, 9.999534 
2.9392648e+3, 2.2895798e+2, -436663.16, -382996.16, 163593.97, 0.3133293, 0.4467809, -244049.63, 452197.38, 0.0, 10.001692, 10.002227 
2.938905e+3, 2.3895527e+2, -411834.0, -435788.2, 86880.26, -0.16908814, 0.6039991, -336109.16, 262157.7, 0.0, 10.001684, 10.001198 
2.9385477e+3, 2.4894808e+2, -557887.1, -657767.5, -75569.586, 0.17267206, 0.540575, -517247.03, -16910.11, 0.0, 10.000896, 9.999371 
2.93819e+3, 2.589401e+2, -558963.8, -504307.28, -61830.063, 0.64231837, 0.41356778, -464035.3, -61619.63, 0.0, 9.999761, 10.000307 
2.937829e+3, 2.689334e+2, -390391.72, -274496.53, 14193.561, 0.53369725, 0.29406473, -272783.6, 31692.676, 0.0, 9.999824, 10.001176 
2.9374665e+3, 2.789271e+2, -306112.5, -263558.94, 49284.355, 0.30216, 0.18536985, -231154.72, -24621.887, 0.0, 10.000042, 10.0004835 
2.9371077e+3, 2.8892225e+2, -415226.28, -458349.16, 91207.79, 0.25617355, 0.41200155, -343066.0, -234477.97, 0.0, 9.999442, 9.998789 
2.9367492e+3, 2.989148e+2, -320348.03, -285440.25, -9915.974, 0.26496318, 0.41785678, -282820.16, -272148.34, 0.0, 9.999063, 9.999499 
2.952479e+3, 1.3938524e+2, -1726896.8, -1616811.9, 156366.61, 0.26727507, 0.25984994, -1506082.8, 67966.67, 0.0, 9.999451, 10.000929 
2.952124e+3, 1.4937945e+2, -1515997.8, -1625831.0, 185077.05, 0.4672571, 0.34404764, -1377861.6, 98246.305, 0.0, 10.000937, 9.999489 
2.9517648e+3, 1.5937215e+2, -1266928.6, -1497610.1, 81670.18, 0.15877585, 0.31364593, -1240941.8, 137238.75, 0.0, 10.002178, 9.999082 
2.951409e+3, 1.693642e+2, -1224790.3, -1502525.0, -26413.652, 0.34151277, 0.2962554, -1222300.6, 57960.28, 0.0, 10.002116, 9.9984045 
2.9510525e+3, 1.7935629e+2, -1153644.9, -1398288.6, -29586.375, 0.48776808, 0.28715128, -1150117.6, 32222.813, 0.0, 10.001876, 9.998549 
2.9506928e+3, 1.893487e+2, -1063762.1, -1334034.9, 68638.79, 0.22925223, 0.32197577, -1047329.7, 37085.793, 0.0, 10.001955, 9.998278 
2.950333e+3, 1.9934063e+2, -939237.06, -1242827.6, 153741.9, 0.0037978787, 0.33978134, -874980.5, 111514.4, 0.0, 10.00223, 9.998096 
2.9499766e+3, 2.0933175e+2, -672791.56, -1072011.3, 138921.5, 0.24538703, 0.30452618, -629207.5, 259373.31, 0.0, 10.003433, 9.998015 
2.9496196e+3, 2.19323e+2, -354043.56, -706821.7, 179546.19, 0.49859035, 0.25275773, -278738.5, 511926.34, 0.0, 10.004259, 9.99945 
2.949259e+3, 2.2931695e+2, -524322.94, -531596.7, 187906.97, 0.18741249, 0.22945789, -340017.63, 352699.94, 0.0, 10.001543, 10.001277 
2.948898e+3, 2.393118e+2, -872308.6, -667047.25, 44286.938, -0.16938074, 0.2234718, -657899.6, -63137.99, 0.0, 9.998528, 10.001139 
2.9485402e+3, 2.4930625e+2, -779599.4, -662691.6, -11807.399, 0.15173641, 0.25655237, -661511.0, -164692.63, 0.0, 9.998894, 10.000326 
2.9481828e+3, 2.5930017e+2, -508137.94, -485332.78, 60066.55, 0.5707855, 0.25938073, -435596.1, -36714.668, 0.0, 10.000093, 10.000298 
2.9478222e+3, 2.6929232e+2, -300683.28, -384165.47, 53602.676, 0.46200842, 0.12628104, -274486.44, 26470.049, 0.0, 10.00107, 9.999835 
2.9474604e+3, 2.7928492e+2, -52370.33, -164114.3, -44423.113, 0.23873194, 0.01957308, -36862.402, 166164.44, 0.0, 10.001844, 10.000323 
2.9471007e+3, 2.8928253e+2, -103318.78, -143812.72, 54214.742, 0.17197971, 0.39186648, -65693.664, 39365.125, 0.0, 10.000866, 10.000268 
2.946743e+3, 2.9927772e+2, -188094.03, -152108.61, 136057.47, 0.40045673, 0.5484139, -32859.3, -25740.268, 0.0, 9.999639, 10.000136 
2.9624715e+3, 1.3974823e+2, -1765850.4, -1671850.3, 74681.04, 0.19655977, 0.40249822, -1630610.5, -60119.77, 0.0, 9.999384, 10.000573 
2.9621187e+3, 1.4973919e+2, -1512260.1, -1793118.0, 194836.8, 0.43088543, 0.27287495, -1412519.0, 60058.152, 0.0, 10.001718, 9.997956 
2.9617625e+3, 1.5972862e+2, -1179055.8, -1614620.1, 135488.38, 0.29105058, 0.061755538, -1140349.8, 234329.28, 0.0, 10.003489, 9.9976425 
2.9614064e+3, 1.6971982e+2, -1199370.4, -1604718.4, 19700.354, 0.49730608, 0.08050006, -1198415.1, 78356.86, 0.0, 10.002812, 9.997355 
2.9610497e+3, 1.7971183e+2, -1102595.8, -1309482.9, 48246.72, 0.6328157, 0.12602112, -1091897.6, 86959.11, 0.0, 10.001974, 9.999106 
2.960689e+3, 1.8970652e+2, -855410.7, -953297.5, 75694.02, 0.3127664, 0.19731775, -814215.1, 266690.28, 0.0, 10.002193, 10.000773 
2.960329e+3, 1.9970113e+2, -791325.4, -995850.06, 106835.42, 0.027207835, 0.24634333, -745697.9, 237255.33, 0.0, 10.00251, 9.999649 
2.959972e+3, 2.0969371e+2, -716508.8, -1019138.5, 111990.76, 0.12730211, 0.25992954, -679573.5, 205448.67, 0.0, 10.002819, 9.998672 
2.9596144e+3, 2.1968547e+2, -575514.7, -850114.0, 100321.6, 0.22078268, 0.20063421, -542768.44, 244330.83, 0.0, 10.002898, 9.999124 
2.959253e+3, 2.2967584e+2, -625605.7, -759878.4, 64285.91, 0.049748015, -0.058432985, -599790.6, 89396.445, 0.0, 10.001622, 9.999674 
2.9588914e+3, 2.3966715e+2, -675376.56, -611184.4, 19785.928, -0.090182014, -0.29125696, -605575.8, -14309.09, 0.0, 10.000055, 10.000789 
2.9585326e+3, 2.4966386e+2, -472242.47, -375751.4, 6058.254, 0.11232723, -0.109740786, -375372.53, 117930.41, 0.0, 10.000418, 10.0015545 
2.9581743e+3, 2.5966048e+2, -390142.06, -478592.84, 46972.79, 0.33735555, 0.07236012, -369851.34, 25490.01, 0.0, 10.00113, 9.999841 
2.9578155e+3, 2.6965073e+2, -422799.63, -693744.7, 83504.63, 0.2886354, -0.07875553, -399131.25, -101691.16, 0.0, 10.001309, 9.997597 
2.9574552e+3, 2.7964112e+2, -120891.15, -195644.3, 14657.334, 0.17304717, -0.23348181, -118119.92, 81417.13, 0.0, 10.001378, 10.000327 
2.9570943e+3, 2.8964183e+2, 63328.28, 243005.77, 26901.283, 0.089372255, 0.24580738, 246946.97, 348482.88, 0.0, 10.000674, 10.003023 
2.9567382e+3, 2.9964125e+2, -69808.55, 80949.22, 78977.78, 0.5467002, 0.5765907, 114746.64, 118295.39, 0.0, 9.999696, 10.001708 
2.972462e+3, 1.4010529e+2, -1703978.0, -1629457.4, 100059.766, -0.0847109, 0.28587592, -1559945.5, 7041.9146, 0.0, 9.999722, 10.000709 
2.9721117e+3, 1.500967e+2, -1392167.5, -1619008.8, 267703.56, 0.1720382, 0.12472402, -1214848.6, 254219.31, 0.0, 10.002022, 9.999009 
2.9717606e+3, 1.6008578e+2, -1053626.0, -1506831.1, 152914.88, 0.33287868, -0.20631416, -1006857.6, 364315.72, 0.0, 10.00412, 9.998084 
2.971401e+3, 1.7008041e+2, -1168012.9, -1618859.0, 558.69775, 0.29136118, 0.16462567, -1168012.1, 105227.26, 0.0, 10.003133, 9.997115 
2.971041e+3, 1.8007508e+2, -1103971.5, -1353998.8, 71941.48, 0.19419637, 0.51483315, -1084749.4, 90555.19, 0.0, 10.002112, 9.998751 
2.9706848e+3, 1.9006722e+2, -842356.25, -1016734.25, 67133.875, 0.27515045, 0.38864234, -819504.9, 257872.63, 0.0, 10.002542, 10.000192 
2.9703292e+3, 2.0005934e+2, -705110.44, -913688.2, 13415.739, 0.38640106, 0.21978657, -704251.06, 275197.22, 0.0, 10.00288, 10.000058 
2.9699713e+3, 2.1005245e+2, -728675.3, -913027.56, 1468.2445, 0.44974637, 0.18990256, -728663.6, 152847.11, 0.0, 10.002226, 9.999703 
2.9696122e+3, 2.2004554e+2, -697214.1, -797501.25, 5420.8555, 0.42739815, 0.15253493, -696921.94, 86651.56, 0.0, 10.001526, 10.000176 
2.969249e+3, 2.3003766e+2, -505087.75, -635476.5, 52856.824, 0.12184349, -0.0147542, -486352.7, 199292.52, 0.0, 10.00209, 10.000344 
2.9688865e+3, 2.4003012e+2, -308999.38, -525694.9, 55973.168, -0.1256967, -0.15213564, -295395.38, 292320.53, 0.0, 10.002919, 10.00002 
2.9685283e+3, 2.5002635e+2, -169633.33, -462820.2, -29785.334, 0.092339806, 0.15143752, -166637.98, 323125.47, 0.0, 10.003462, 9.999496 
2.9681706e+3, 2.6002246e+2, 9346.278, -265882.75, -109713.6, 0.33845925, 0.4295015, 47728.438, 439539.5, 0.0, 10.003732, 10.000067 
2.967811e+3, 2.7001435e+2, -120471.9, -254518.9, 36162.52, 0.3139185, 0.23099858, -111338.47, 182548.95, 0.0, 10.002076, 10.000272 
2.9674497e+3, 2.8000617e+2, -193375.28, -115799.1, 139908.9, 0.19398028, 0.0072981645, -9401.041, 186562.73, 0.0, 10.000341, 10.0014 
2.9670858e+3, 2.9000413e+2, -55874.1, 112068.43, 76089.086, -0.12342278, 0.24230209, 141414.08, 239399.1, 0.0, 10.000162, 10.002388 
2.9667297e+3, 3.000014e+2, -18342.205, 13403.541, -27817.463, 0.35013098, 0.43517795, 29558.146, 29573.793, 0.0, 10.000491, 10.000865 
2.982456e+3, 1.4046186e+2, -1375670.1, -1499570.1, -29542.979, -0.14193733, 0.26910222, -1368986.4, 194504.84, 0.0, 10.002124, 10.000447 
2.9821065e+3, 1.504538e+2, -1469329.6, -1566974.6, 165300.55, 0.060378287, 0.09674081, -1345792.3, 119774.19, 0.0, 10.001141, 9.999785 
2.9817572e+3, 1.6044426e+2, -1472978.4, -1643693.8, -13786.459, 0.33946604, -0.1979116, -1471872.1, -104212.89, 0.0, 10.000978, 9.998664 
2.981395e+3, 1.7044131e+2, -1339122.9, -1634626.6, -110248.125, 0.07547039, 0.34300977, -1302523.8, -32820.0, 0.0, 10.00168, 9.997704 
2.981033e+3, 1.8043762e+2, -1134055.4, -1413555.6, 78328.664, -0.18006487, 0.82599455, -1113601.1, 58154.06, 0.0, 10.002125, 9.998328 
2.9806808e+3, 1.9042782e+2, -1022405.1, -1205395.4, 100580.66, 0.2525147, 0.58976436, -977930.3, 95918.3, 0.0, 10.001759, 9.999266 
2.9803285e+3, 2.004181e+2, -924156.5, -985157.8, 35878.21, 0.6935806, 0.27900162, -907566.44, 68372.27, 0.0, 10.001237, 10.000357 
2.9799694e+3, 2.104113e+2, -875830.4, -877124.9, 7807.2803, 0.70386237, 0.1785712, -868643.56, 9356.526, 0.0, 10.000762, 10.0006485 
2.9796088e+3, 2.2040565e+2, -788157.3, -721556.7, 37736.285, 0.62322134, 0.15648216, -704528.7, 75521.73, 0.0, 10.000408, 10.001227 
2.9792455e+3, 2.304007e+2, -475414.97, -498266.38, 79833.164, 0.19638015, 0.1716332, -406194.03, 275901.6, 0.0, 10.001802, 10.001406 
2.9788822e+3, 2.4039508e+2, -360080.9, -673251.7, 63086.89, -0.19073504, 0.18290958, -347850.0, 236300.69, 0.0, 10.003112, 9.998908 
2.978525e+3, 2.5038987e+2, -439782.2, -878648.6, 41649.508, 0.04868562, 0.56963253, -435864.5, 50354.375, 0.0, 10.002845, 9.996941 
2.978168e+3, 2.6038492e+2, -121546.44, -249430.77, -16916.074, 0.36825883, 0.9188794, -119346.68, 268935.38, 0.0, 10.002509, 10.000763 
2.9778072e+3, 2.7037996e+2, 100605.12, 311547.38, -7933.6553, 0.37850958, 0.7219975, 311845.34, 602164.25, 0.0, 10.001624, 10.004373 
2.977444e+3, 2.803746e+2, -116244.96, 19097.63, 66422.18, 0.1983617, 0.43755695, 46248.855, 238607.34, 0.0, 10.000467, 10.00226 
2.9770768e+3, 2.9036742e+2, -201769.13, -189619.98, 48685.05, -0.44115955, 0.300202, -146632.0, -52207.07, 0.0, 10.000188, 10.000294 
2.9767194e+3, 3.0036047e+2, -196267.4, -250783.83, 10492.274, -0.082568794, 0.27382785, -194317.78, -194317.78, 0.0, 10.000088, 9.999219 
2.9924595e+3, 1.408156e+2, -1285051.4, -1619209.8, -168933.19, 0.5257499, 0.28331268, -1214530.3, 345499.72, 0.0, 10.003427, 9.99902 
2.992103e+3, 1.5080851e+2, -1534724.4, -1604789.3, 19818.479, 0.25942037, 0.2556055, -1529507.0, -67406.61, 0.0, 10.000679, 9.9997835 
2.9917496e+3, 1.6080543e+2, -1578969.9, -1490439.3, -85354.58, 0.24028765, 0.5521804, -1438554.5, -74423.41, 0.0, 9.999364, 10.000503 
2.9913905e+3, 1.7079927e+2, -1269137.0, -1242984.4, -113889.08, 0.1888211, 0.47692326, -1141423.4, 124769.15, 0.0, 10.00062, 10.000909 
2.991031e+3, 1.8079318e+2, -1029254.0, -1179975.3, 73267.44, 0.033702493, 0.44362897, -999508.3, 168746.44, 0.0, 10.002066, 9.999952 
2.9906747e+3, 1.9078685e+2, -1080798.5, -1236838.4, 92219.625, 0.14290003, 0.5202069, -1038022.9, 32298.115, 0.0, 10.001405, 9.9992075 
2.990319e+3, 2.0078038e+2, -1101680.4, -1028148.4, 25356.955, 0.39516973, 0.5510077, -1020252.2, -47864.754, 0.0, 9.999831, 10.000738 
2.9899597e+3, 2.1077529e+2, -1006611.75, -805761.2, 28629.29, 0.41208795, 0.5277589, -801760.06, 72676.58, 0.0, 9.999284, 10.00185 
2.9895985e+3, 2.2076963e+2, -924526.7, -795051.1, 99277.35, 0.28530127, 0.438624, -741268.94, 35221.867, 0.0, 9.999488, 10.001164 
2.9892394e+3, 2.3076351e+2, -581456.56, -648229.56, 122702.305, 0.08745453, 0.41493815, -487679.72, 190870.31, 0.0, 10.001482, 10.000545 
2.988881e+3, 2.4075787e+2, -203516.39, -446892.28, 19322.66, -0.026064731, 0.4383867, -201991.83, 378613.16, 0.0, 10.003532, 10.000265 
2.988521e+3, 2.5075105e+2, -343930.94, -543973.0, 87148.87, 0.04677547, 0.4244803, -311290.25, 171385.0, 0.0, 10.0022335, 9.999558 
2.9881606e+3, 2.6074448e+2, -432514.75, -396314.63, 188423.22, 0.15670641, 0.44935632, -225124.13, 159619.55, 0.0, 10.000325, 10.000841 
2.987801e+3, 2.707407e+2, -191433.77, -55077.87, 57730.45, 0.33960468, 0.55050886, -33919.164, 252861.36, 0.0, 10.000579, 10.002382 
2.9874393e+3, 2.8073642e+2, -72290.74, -35927.01, -83388.73, 0.32074958, 0.5387163, 31238.996, 220059.22, 0.0, 10.001082, 10.001613 
2.9870713e+3, 2.9072773e+2, -184665.95, -148573.48, -48310.836, -0.32854757, 0.22312945, -115048.375, -24146.93, 0.0, 10.000152, 10.000649 
2.9867125e+3, 3.007204e+2, -438094.8, -265886.16, -48104.32, -0.006001152, 0.14237276, -253359.95, -253359.95, 0.0, 9.99789, 10.000312 
3.0024543e+3, 1.411714e+2, -1370040.8, -1624464.8, -104461.63, 0.32497215, 0.39993894, -1332646.8, 223899.95, 0.0, 10.0027485, 9.999271 
3.0020958e+3, 1.511605e+2, -1404958.3, -1465506.9, 188636.97, 0.10359315, -0.079238124, -1244181.6, 214473.7, 0.0, 10.001258, 10.000442 
3.001743e+3, 1.6115962e+2, -1591749.1, -1306984.3, 155354.69, 0.2793377, 0.37456444, -1238635.0, 122027.76, 0.0, 9.998408, 10.002241 
3.0013824e+3, 1.7115287e+2, -1162907.1, -904690.6, 111864.99, -0.02363922, 0.020593524, -862969.44, 399746.34, 0.0, 10.000021, 10.003555 
3.0010262e+3, 1.811457e+2, -1009690.75, -1044273.2, 216576.45, 0.0044359886, -0.36757383, -809716.4, 355061.94, 0.0, 10.001591, 10.001142 
3.0006716e+3, 1.9114313e+2, -1144575.3, -1281196.9, 110219.53, 0.34429947, 0.05431814, -1083214.5, -16398.002, 0.0, 10.000918, 9.999181 
3.000314e+3, 2.0113717e+2, -1005959.6, -1087635.8, 55398.082, 0.5265771, 0.1887757, -977974.0, -9086.49, 0.0, 10.000879, 9.999849 
2.99995e+3, 2.111341e+2, -869209.06, -729181.7, -91105.86, 0.16176933, 0.38959697, -684294.56, 186628.33, 0.0, 10.00015, 10.001964 
2.9995883e+3, 2.2113058e+2, -899109.1, -864104.4, -54610.223, -0.06798869, 0.5246327, -824260.4, -51299.508, 0.0, 9.999996, 10.000445 
2.999236e+3, 2.3112363e+2, -523894.2, -720113.9, 106644.016, 0.199878, 0.48803535, -477095.47, 197935.1, 0.0, 10.002281, 9.999656 
2.9988828e+3, 2.4111834e+2, -211110.75, -192118.03, -4017.5825, 0.45550516, 0.48821762, -191303.14, 385776.84, 0.0, 10.002353, 10.002579 
2.9985178e+3, 2.5111187e+2, -220717.97, -70672.26, -37461.152, 0.18983251, 0.15644938, -61839.484, 417287.1, 0.0, 10.001307, 10.003234 
2.9981515e+3, 2.611045e+2, -544395.5, -533356.3, 96300.86, -0.10877547, -0.17233808, -442417.0, -61227.707, 0.0, 9.999908, 10.00009 
2.997792e+3, 2.710997e+2, -566727.9, -692847.1, 90508.695, 0.033587027, 0.15463816, -519477.3, -236223.22, 0.0, 9.999973, 9.998281 
2.9974326e+3, 2.8109595e+2, -244252.52, -239555.78, -16577.45, 0.20673233, 0.5115457, -225161.19, -39854.87, 0.0, 10.000419, 10.000525 
2.997068e+3, 2.9109156e+2, -68722.96, 39181.78, -100649.34, -0.0092604235, 0.564427, 99427.26, 186774.3, 0.0, 10.000442, 10.001761 
2.996707e+3, 3.010862e+2, -189025.17, 190831.92, -258295.86, 0.361587, 0.4753928, 321511.53, 321511.53, 0.0, 9.998284, 10.003195 
