coord_x,coord_y,stress_xx,stress_yy,tau_xy,velocity_x,velocity_y,stress_1,eps,damage,lx,ly
5.000032e+0, 1.2559971e+2, -1695012.8, -1623952.3, 4437.851, 0.0138241835, 0.2155633, -1623676.1, 85471.47, 0.0013143772, 9.999783, 10.000727 
4.9999887e+0, 1.3559972e+2, -1639584.6, -1690331.6, -2398.3894, -0.006864028, 0.26541594, -1639471.5, -28324.646, 0.0008064585, 10.000112, 9.999439 
4.9999905e+0, 1.455992e+2, -1546226.1, -1620965.8, -10450.561, -0.010809417, 0.2841207, -1544792.4, -31638.557, 0.00037918316, 10.000194, 9.999199 
5.000016e+0, 1.5559863e+2, -1462554.5, -1526516.0, -4779.128, -0.0025921124, 0.30388996, -1462199.4, -47036.11, 0.00011767186, 10.000081, 9.9992285 
5.00008e+0, 1.655982e+2, -1319438.4, -1350094.1, 2817.1428, 0.0005620395, 0.31120574, -1319181.8, -2013.5713, 0.000016018055, 10.000147, 9.999737 
5.00018e+0, 1.755977e+2, -1188860.4, -1233832.4, 1178.6029, -0.00007277101, 0.28276035, -1188829.5, 30341.557, 0.00000013955699, 10.0003605, 9.999759 
5.000211e+0, 1.855974e+2, -1068142.6, -1106338.4, -6038.543, -0.0007739463, 0.26922545, -1067210.8, 53961.51, 0.0, 10.000437, 9.999926 
5.000187e+0, 1.9559737e+2, -975689.7, -1012132.3, -10032.001, -0.0014830952, 0.26921967, -973110.56, 50060.56, 0.0, 10.000403, 9.999916 
5.0002044e+0, 2.0559709e+2, -878582.56, -932233.1, -1660.4845, -0.0032386635, 0.25921625, -878531.25, 46642.074, 0.0, 10.000474, 9.999757 
5.000254e+0, 2.1559662e+2, -755542.8, -817579.5, 10216.334, -0.0059188595, 0.23173718, -753903.7, 73274.555, 0.0, 10.000626, 9.999798 
5.000305e+0, 2.2559652e+2, -603744.3, -629488.0, 8280.279, -0.0054670894, 0.21226858, -601311.0, 127866.25, 0.0, 10.000719, 10.000372 
5.000357e+0, 2.3559675e+2, -502473.94, -534928.9, -1355.6726, -0.0024638295, 0.19381252, -502417.4, 128753.85, 0.0, 10.000763, 10.000327 
5.0005066e+0, 2.455966e+2, -432828.75, -538469.06, 845.0904, 0.0032913378, 0.18909222, -432821.97, 100350.055, 0.0, 10.000947, 9.999542 
5.0007355e+0, 2.555962e+2, -292455.94, -421668.8, 4238.989, 0.011244613, 0.18832256, -292317.03, 142861.08, 0.0, 10.001245, 9.999527 
5.000787e+0, 2.6559573e+2, -189330.25, -354650.53, -2423.119, 0.007423952, 0.2081663, -189294.73, 147888.89, 0.0, 10.001424, 9.999228 
5.0007e+0, 2.7559534e+2, -83087.664, -260272.39, -10820.035, -0.0057520494, 0.24083537, -82429.375, 156758.89, 0.0, 10.0015135, 9.99916 
5.0008196e+0, 2.8559417e+2, -35852.26, -328924.34, -2558.425, -0.0069124964, 0.27753264, -35829.926, 105372.445, 0.000000004221918, 10.001777, 9.997888 
5.0011027e+0, 2.9559237e+2, 119800.555, -204711.84, 8984.866, 0.0012355752, 0.30400753, 120049.125, 163273.78, 0.0000065845143, 10.00218, 9.997874 
5.0012666e+0, 3.0558982e+2, 171616.3, -215729.83, 7004.469, 0.0034347938, 0.2895026, 171742.92, 171742.92, 0.00007539241, 10.002463, 9.99733 
5.001332e+0, 3.155877e+2, 355596.75, 121627.82, 2729.444, 0.00029537757, 0.3406466, 355628.6, 355628.6, 0.00026927676, 10.002656, 9.999556 
1.5000093e+1, 1.2559983e+2, -1708963.5, -1652280.6, 14245.429, 0.041231368, 0.23023725, -1648901.9, 60244.19, 0.0012897267, 9.99978, 10.000533 
1.4999966e+1, 1.3559954e+2, -1651980.3, -1715612.8, 8833.899, -0.020568432, 0.26833484, -1650776.6, -39626.883, 0.0007892631, 10.000111, 9.999267 
1.4999971e+1, 1.4559893e+2, -1536271.4, -1599722.1, -15139.04, -0.03245216, 0.27987662, -1532844.4, -19686.945, 0.00036879338, 10.000192, 9.999346 
1.5000048e+1, 1.555985e+2, -1453438.6, -1507220.8, -8500.233, -0.007763016, 0.29989344, -1452127.1, -36962.855, 0.00011270428, 10.00008, 9.999362 
1.500024e+1, 1.6559815e+2, -1321963.1, -1354955.4, 10578.699, 0.0016555969, 0.3106939, -1318862.5, -1694.5896, 0.000014709239, 10.000146, 9.999703 
1.500054e+1, 1.7559768e+2, -1191934.3, -1239715.8, 8581.162, -0.00023125949, 0.28958398, -1190439.9, 28730.83, 0.00000010097208, 10.000359, 9.99972 
1.5000634e+1, 1.8559729e+2, -1075990.9, -1122093.0, -7456.9272, -0.0023530328, 0.2728353, -1074814.8, 46358.71, 0.0, 10.000435, 9.999819 
1.5000562e+1, 1.9559704e+2, -981430.3, -1023842.5, -10872.606, -0.004487148, 0.2616969, -978805.5, 44369.773, 0.0, 10.000402, 9.999836 
1.5000615e+1, 2.0559697e+2, -856147.6, -885349.25, 3926.0005, -0.009719468, 0.25937584, -855629.0, 69546.016, 0.0, 10.000472, 10.00008 
1.5000762e+1, 2.1559705e+2, -735724.3, -776045.0, 15766.406, -0.017748846, 0.2555498, -730291.3, 96882.03, 0.0, 10.000625, 10.000084 
1.5000916e+1, 2.255969e+2, -621774.75, -666559.3, 9836.444, -0.016427454, 0.23272508, -619709.5, 109463.13, 0.0, 10.000717, 10.000118 
1.5001072e+1, 2.3559664e+2, -519181.53, -569472.1, 876.9561, -0.007373003, 0.19129595, -519166.25, 112006.16, 0.0, 10.000762, 10.000091 
1.5001519e+1, 2.4559647e+2, -426142.3, -524405.4, 11962.983, 0.009820344, 0.18840231, -424706.84, 108466.83, 0.0, 10.000946, 9.999639 
1.5002206e+1, 2.5559634e+2, -286776.75, -409651.88, 14981.072, 0.033730455, 0.20896451, -284976.63, 150199.47, 0.0, 10.001244, 9.99961 
1.5002361e+1, 2.6559576e+2, -205216.95, -387396.38, 787.60443, 0.02224687, 0.22213131, -205213.55, 131969.84, 0.0, 10.001423, 9.999003 
1.5002099e+1, 2.7559486e+2, -97314.8, -289530.7, -6750.441, -0.017231053, 0.22813092, -97078.016, 142116.03, 0.0, 10.001513, 9.99896 
1.500246e+1, 2.8559378e+2, -13954.346, -283095.28, 12559.84, -0.020751579, 0.26327574, -13369.494, 127837.69, 0.0000000059189293, 10.001776, 9.998203 
1.5003309e+1, 2.9559246e+2, 139827.0, -162803.47, 23774.953, 0.0037375626, 0.30859634, 141683.39, 184906.25, 0.0000065077284, 10.002179, 9.998162 
1.5003799e+1, 3.0559006e+2, 159798.98, -239944.38, 14150.738, 0.010288368, 0.30551225, 160299.28, 160299.28, 0.00007423676, 10.002462, 9.997165 
1.5003996e+1, 3.1558785e+2, 344027.94, 98075.016, 14360.934, 0.00079315034, 0.364179, 344863.63, 344863.63, 0.0002657484, 10.002655, 9.999394 
2.499994e+1, 1.2559977e+2, -1708937.8, -1668481.1, 4664.808, 0.04414096, 0.24484617, -1667950.1, 41196.008, 0.0012539346, 9.999852, 10.000388 
2.4999811e+1, 1.3559921e+2, -1700943.8, -1753739.8, 4552.1865, -0.03378195, 0.2726727, -1700554.1, -89400.65, 0.0007642556, 9.999838, 9.999137 
2.499997e+1, 1.4559856e+2, -1551510.5, -1592438.1, -19688.293, -0.043588463, 0.27684656, -1543577.1, -30415.5, 0.0003536966, 10.000024, 9.999477 
2.5000316e+1, 1.5559825e+2, -1401602.3, -1469006.6, -14547.556, -0.004192103, 0.29668093, -1398596.6, 16569.723, 0.00010549485, 10.00038, 9.99948 
2.5000566e+1, 1.6559796e+2, -1285032.6, -1342662.1, -543.8415, 0.0057536964, 0.30985755, -1285027.4, 32141.883, 0.000012859098, 10.000423, 9.999655 
2.5000772e+1, 1.7559749e+2, -1214851.3, -1256254.3, -3694.6633, -0.0063969214, 0.2933919, -1214524.1, 4648.569, 0.00000006033416, 10.000225, 9.999671 
2.50009e+1, 1.8559703e+2, -1110919.1, -1141992.6, -15023.77, -0.007812544, 0.275285, -1104843.4, 16332.85, 0.0, 10.000208, 9.999791 
2.5000966e+1, 1.955967e+2, -992073.1, -1031123.0, -12295.923, -0.0010424578, 0.2584761, -988524.0, 34654.848, 0.0, 10.0003395, 9.999817 
2.5001124e+1, 2.055967e+2, -851124.4, -871147.6, -1235.079, -0.0052071093, 0.25797087, -851048.5, 74129.3, 0.0, 10.000456, 10.000186 
2.5001347e+1, 2.1559696e+2, -738948.3, -767437.1, -5810.809, -0.018443188, 0.261924, -737808.7, 89365.16, 0.0, 10.000558, 10.000175 
2.5001642e+1, 2.255968e+2, -624696.06, -679881.94, -11542.488, -0.017009135, 0.2380192, -622379.1, 106794.33, 0.0, 10.000749, 10.000012 
2.5001994e+1, 2.3559636e+2, -489679.56, -566173.75, -9476.06, -0.0038709487, 0.18976504, -488523.16, 142652.28, 0.0, 10.001012, 9.999992 
2.5002563e+1, 2.4559614e+2, -402251.34, -507161.16, 3395.9316, 0.0124940965, 0.18638301, -402141.53, 131035.32, 0.0, 10.001085, 9.99969 
2.5003308e+1, 2.5559613e+2, -317849.94, -419998.56, 3280.582, 0.031340532, 0.2110082, -317744.7, 117433.12, 0.0, 10.001011, 9.999652 
2.50037e+1, 2.655955e+2, -235783.42, -419458.7, -1978.2816, 0.020807061, 0.22663426, -235762.13, 101423.71, 0.0, 10.001288, 9.998849 
2.5003827e+1, 2.7559444e+2, -57782.74, -286137.2, -4294.825, -0.012601868, 0.2344317, -57701.99, 181496.98, 0.0, 10.001852, 9.998819 
2.5004438e+1, 2.855934e+2, 43646.953, -240932.77, 5781.0225, -0.01728506, 0.26961613, 43764.344, 184976.33, 0.0000000086392555, 10.00211, 9.998332 
2.5005412e+1, 2.955922e+2, 139769.14, -149935.66, 2932.6902, -0.000838311, 0.31418455, 139798.81, 183024.25, 0.0000063841276, 10.002124, 9.998278 
2.500614e+1, 3.0558982e+2, 129116.164, -267559.6, -8829.988, 0.005936467, 0.31387046, 129312.62, 129312.62, 0.00007243093, 10.002308, 9.99705 
2.5006646e+1, 3.155876e+2, 333353.56, 80476.516, -561.7057, 0.0012020074, 0.38459244, 333354.8, 333354.8, 0.00026027678, 10.002637, 9.999282 
3.499957e+1, 1.2559952e+2, -1715565.5, -1682326.1, 2161.2957, 0.021169566, 0.2589212, -1682186.3, 26961.717, 0.0012062672, 9.999852, 10.000293 
3.499952e+1, 1.3559878e+2, -1706434.9, -1765670.1, 4828.4507, -0.04711227, 0.27862203, -1706043.9, -94885.98, 0.00073077687, 9.99984, 9.999054 
3.4999985e+1, 1.4559808e+2, -1543454.3, -1575991.0, -6493.9077, -0.044905934, 0.2754065, -1542206.0, -29039.316, 0.00033350204, 10.000026, 9.99959 
3.5000813e+1, 1.5559788e+2, -1394892.1, -1454525.6, -2407.0938, 0.007475616, 0.29458305, -1394795.1, 20374.34, 0.000095918134, 10.000377, 9.999581 
3.5001057e+1, 1.6559762e+2, -1289850.4, -1352009.5, -8202.908, 0.012183206, 0.30868447, -1288786.1, 28386.213, 0.000010539653, 10.000421, 9.999592 
3.500087e+1, 1.7559709e+2, -1218818.8, -1264435.3, -10353.166, -0.01911409, 0.2940822, -1216578.9, 2598.0117, 0.000000028001644, 10.000225, 9.999615 
3.500101e+1, 1.8559664e+2, -1107340.0, -1134425.4, -10181.9375, -0.017769217, 0.27662283, -1103939.4, 17240.965, 0.0, 10.000208, 9.999844 
3.5001403e+1, 1.9559635e+2, -989531.2, -1025230.2, -7268.6455, 0.008534058, 0.259741, -988107.94, 35073.91, 0.0, 10.000337, 9.999858 
3.500173e+1, 2.0559627e+2, -859242.6, -887606.25, 2683.3472, 0.009754741, 0.2549994, -858991.0, 66190.52, 0.0, 10.000455, 10.000073 
3.5002005e+1, 2.1559633e+2, -746122.8, -782308.6, -1494.4691, -0.0084952, 0.250908, -746061.2, 81118.62, 0.0, 10.000558, 10.000073 
3.5002482e+1, 2.2559616e+2, -621788.75, -673742.3, -1612.5864, -0.007968299, 0.22819164, -621738.75, 107440.97, 0.0, 10.000748, 10.000054 
3.5003126e+1, 2.3559585e+2, -486911.3, -560367.7, -189.4981, 0.0076172487, 0.1891051, -486910.8, 144269.56, 0.0, 10.001012, 10.000033 
3.5003632e+1, 2.4559565e+2, -401802.13, -506077.13, 420.76297, 0.010814088, 0.18274097, -401800.44, 131381.17, 0.0, 10.001085, 9.999698 
3.5004047e+1, 2.555955e+2, -317968.0, -419977.28, 1853.7944, 0.0037888994, 0.1945924, -317934.34, 117248.89, 0.0, 10.00101, 9.999653 
3.500481e+1, 2.6559493e+2, -241902.22, -432025.2, 19162.86, 0.0025625543, 0.2218345, -239990.0, 97200.96, 0.0, 10.001288, 9.998762 
3.5005882e+1, 2.7559412e+2, -63612.73, -297961.7, 15841.558, 0.00753178, 0.25969228, -62546.723, 176656.31, 0.0, 10.001851, 9.998739 
3.500675e+1, 2.8559297e+2, 39396.023, -249295.53, 6171.143, 0.0027253274, 0.29637396, 39527.88, 180744.67, 0.000000011844628, 10.002109, 9.998276 
3.5007417e+1, 2.9559153e+2, 135379.86, -158619.5, 4101.699, -0.012915699, 0.3207375, 135437.08, 178669.5, 0.0000061783935, 10.002122, 9.998219 
3.500829e+1, 3.0558905e+2, 124711.79, -276583.78, 3303.9575, -0.009861464, 0.3145964, 124738.99, 124738.99, 0.00006978909, 10.002308, 9.996988 
3.5009277e+1, 3.1558695e+2, 328963.22, 71302.47, 15907.194, 0.00026579187, 0.40184888, 329941.6, 329941.6, 0.00025241746, 10.002637, 9.999219 
4.4998935e+1, 1.2559862e+2, -1747204.4, -1691077.5, -31823.55, -0.015073554, 0.2520985, -1676711.0, 32445.484, 0.0011480161, 9.999608, 10.000352 
4.49995e+1, 1.3559799e+2, -1727285.3, -1768212.4, -15270.092, -0.0246006, 0.27601525, -1722215.9, -111050.1, 0.0006895071, 9.999666, 9.999122 
4.5000175e+1, 1.4559734e+2, -1568682.1, -1576895.9, -12624.133, -0.017657133, 0.27044502, -1559513.6, -46339.93, 0.00030865482, 9.9998045, 9.999691 
4.5000884e+1, 1.5559724e+2, -1441086.3, -1466614.0, -9952.167, -0.0049001193, 0.289699, -1437664.9, -22489.797, 0.00008435172, 10.000016, 9.999673 
4.500119e+1, 1.6559704e+2, -1327485.5, -1374643.6, -25991.002, -0.004624538, 0.30794072, -1315971.9, 1205.7738, 0.000007991499, 10.000182, 9.999552 
4.500121e+1, 1.7559654e+2, -1208003.9, -1262868.3, -26189.85, -0.01236192, 0.30030376, -1197509.4, 21673.46, 0.000000008983813, 10.000316, 9.999582 
4.5001438e+1, 1.8559611e+2, -1067432.8, -1105485.1, -18274.473, -0.0074041467, 0.28064898, -1060078.0, 61108.03, 0.0, 10.000441, 9.99993 
4.500183e+1, 1.9559582e+2, -951849.4, -998746.1, -13007.71, 0.006354256, 0.25450107, -948483.06, 74703.58, 0.0, 10.00056, 9.999933 
4.5002228e+1, 2.0559569e+2, -843945.7, -892830.0, -4103.985, 0.0062676147, 0.24788794, -843603.56, 81583.055, 0.0, 10.000614, 9.999961 
4.5002636e+1, 2.1559569e+2, -745051.0, -793592.5, -8296.062, -0.004199238, 0.24805439, -743672.3, 83513.836, 0.0, 10.000617, 9.999968 
4.5003226e+1, 2.2559546e+2, -637654.5, -684758.1, -7508.7397, -0.003702886, 0.22572722, -636486.5, 92700.36, 0.0, 10.000654, 10.000025 
4.5003963e+1, 2.3559509e+2, -531890.75, -585543.6, -11481.69, 0.005385822, 0.18373938, -529536.94, 101650.99, 0.0, 10.000718, 10.000002 
4.5004615e+1, 2.4559481e+2, -417877.3, -520557.88, -14935.763, 0.0045838966, 0.17679678, -415748.9, 117440.74, 0.0, 10.001003, 9.999638 
4.50052e+1, 2.5559464e+2, -255316.77, -396381.94, -18841.879, -0.0045912587, 0.19082513, -252843.45, 182348.3, 0.0, 10.001469, 9.999594 
4.5006216e+1, 2.655941e+2, -194309.55, -410664.9, 893.82806, -0.002565809, 0.22212826, -194305.86, 142893.66, 0.0, 10.001622, 9.998749 
4.5007598e+1, 2.7559328e+2, -111156.68, -322209.75, 2841.308, 0.010098008, 0.26483655, -111118.44, 128092.87, 0.0, 10.001531, 9.998727 
4.5008698e+1, 2.8559217e+2, -10429.127, -274374.3, -1519.2732, 0.003950306, 0.3023282, -10420.382, 130804.69, 0.000000014278152, 10.001771, 9.998266 
4.5009544e+1, 2.9559067e+2, 157895.58, -148894.11, -168.5094, -0.02038939, 0.32455578, 157895.67, 201136.58, 0.0000058442592, 10.002282, 9.998209 
4.5010647e+1, 3.0558807e+2, 161703.69, -258708.8, 1426.0428, -0.017715298, 0.31011084, 161708.53, 161708.53, 0.0000661976, 10.002562, 9.996989 
4.5011878e+1, 3.1558597e+2, 330774.8, 71706.67, 22645.654, -0.0038214664, 0.39453724, 332739.4, 332739.4, 0.00024196846, 10.002651, 9.999216 
5.4998034e+1, 1.255971e+2, -1731870.5, -1660550.8, -32263.684, -0.0667685, 0.22653392, -1648121.4, 61050.3, 0.0010818627, 9.999614, 10.000559 
5.499974e+1, 1.3559683e+2, -1712726.0, -1737580.3, -12960.8125, 0.032933574, 0.26511422, -1707197.3, -96020.27, 0.0006423977, 9.999664, 9.999333 
5.500053e+1, 1.4559634e+2, -1562572.6, -1563456.9, -4532.596, 0.03710548, 0.26163504, -1558460.6, -45277.625, 0.00028050644, 9.999802, 9.999784 
5.500053e+1, 1.5559636e+2, -1434786.4, -1454003.9, -1873.7515, -0.042434264, 0.28187165, -1434605.4, -19422.227, 0.00007169208, 10.000019, 9.999758 
5.5000967e+1, 1.6559625e+2, -1328738.4, -1377383.0, -20989.885, -0.04551276, 0.3077246, -1320933.5, -3748.3916, 0.0000055425044, 10.000183, 9.999533 
5.5001783e+1, 1.7559585e+2, -1209403.9, -1264756.1, -21108.969, 0.0135057885, 0.31257528, -1202272.6, 16917.791, 0.00000000116644, 10.000312, 9.999572 
5.5002177e+1, 1.8559542e+2, -1059425.0, -1087963.3, -13661.872, 0.022482248, 0.2876014, -1053939.3, 67253.96, 0.0, 10.000437, 10.000052 
5.500224e+1, 1.9559506e+2, -944241.8, -982995.1, -8613.723, -0.00847473, 0.24260844, -942413.5, 80779.73, 0.0, 10.000561, 10.000041 
5.500262e+1, 2.0559494e+2, -851721.75, -908962.3, -4009.1787, -0.016519856, 0.2365456, -851442.3, 73750.74, 0.0, 10.000614, 9.99985 
5.500324e+1, 2.1559499e+2, -752980.25, -809885.0, -7885.7524, -0.006142443, 0.25309303, -751907.7, 75285.266, 0.0, 10.000616, 9.999856 
5.500387e+1, 2.2559465e+2, -644885.94, -699538.1, -5099.8506, -0.0048073265, 0.23034433, -644414.1, 84780.78, 0.0, 10.000653, 9.999924 
5.500452e+1, 2.3559403e+2, -538969.9, -600184.06, -8074.1387, -0.010965718, 0.17373301, -537922.8, 93275.29, 0.0, 10.000717, 9.999902 
5.50055e+1, 2.4559367e+2, -427043.13, -539540.2, 2597.8562, -0.0070489077, 0.16882114, -426983.16, 106217.805, 0.0, 10.001003, 9.999508 
5.5006766e+1, 2.555935e+2, -263936.66, -414132.7, -2481.7703, 0.0051853918, 0.19952054, -263895.66, 171307.73, 0.0, 10.001468, 9.999473 
5.500791e+1, 2.655929e+2, -190306.22, -402094.38, -2691.293, 0.0046986416, 0.22715734, -190272.03, 146939.52, 0.0, 10.001621, 9.998808 
5.500898e+1, 2.7559197e+2, -107317.484, -313963.06, 626.71606, -0.0052895444, 0.24997403, -107315.586, 131908.22, 0.0, 10.00153, 9.998784 
5.5010295e+1, 2.855909e+2, -8037.6543, -269221.75, 17601.813, -0.014068483, 0.28762615, -6856.7656, 134380.05, 0.000000014996283, 10.001771, 9.9983015 
5.501179e+1, 2.955896e+2, 160462.14, -143234.3, 18199.367, -0.023946682, 0.32558346, 161548.86, 204799.77, 0.0000053587105, 10.002281, 9.998248 
5.50132e+1, 3.0558693e+2, 165951.92, -249561.83, 4600.7017, -0.018459897, 0.29978067, 166002.86, 166002.86, 0.00006167391, 10.002561, 9.997053 
5.5014443e+1, 3.1558466e+2, 334764.78, 80070.87, 30168.176, -0.012539966, 0.36139292, 338289.4, 338289.4, 0.00022898198, 10.002651, 9.999274 
6.499732e+1, 1.255958e+2, -1809400.1, -1686355.3, -12277.536, -0.07017368, 0.20889857, -1685142.1, 24042.074, 0.0010116006, 9.999032, 10.000662 
6.499934e+1, 1.355958e+2, -1714419.4, -1726338.3, 832.6969, 0.03034458, 0.2632459, -1714361.5, -103174.91, 0.00059264415, 9.9996, 9.99944 
6.500034e+1, 1.4559536e+2, -1552882.3, -1554225.3, -3193.0286, 0.035287477, 0.25637293, -1550290.9, -37098.746, 0.0002512883, 9.999849, 9.9998255 
6.5000445e+1, 1.5559532e+2, -1455967.1, -1459699.1, -4704.395, -0.045008086, 0.26925695, -1452772.3, -37579.605, 0.000059186506, 9.999854, 9.999799 
6.500103e+1, 1.6559528e+2, -1360748.5, -1388713.3, -21964.55, -0.045577988, 0.29795003, -1348693.5, -31499.361, 0.0000034805446, 9.999947, 9.999569 
6.5002036e+1, 1.7559505e+2, -1236015.5, -1273409.1, -17731.492, 0.018303784, 0.3139459, -1228944.6, -9746.306, 0.00000000000024211628, 10.000112, 9.999608 
6.500257e+1, 1.8559463e+2, -1077977.0, -1093687.3, -11284.884, 0.025203299, 0.28769046, -1072082.5, 49118.31, 0.0, 10.000297, 10.000081 
6.500272e+1, 1.9559419e+2, -951292.75, -983616.1, -13569.347, -0.01330966, 0.23166673, -946351.7, 76849.53, 0.0, 10.000501, 10.000065 
6.500322e+1, 2.0559405e+2, -849596.7, -912728.06, -13102.1, -0.019502299, 0.22600894, -846985.5, 78215.66, 0.0, 10.00065, 9.999807 
6.5003985e+1, 2.1559414e+2, -735922.3, -806746.2, -11706.238, -0.000095823525, 0.25231934, -734037.56, 93163.35, 0.0, 10.000755, 9.99981 
6.5004694e+1, 2.2559379e+2, -612858.4, -692822.1, -2877.878, -0.0011950377, 0.23379391, -612754.94, 116448.17, 0.0, 10.000911, 9.9998455 
6.5005356e+1, 2.355931e+2, -488949.53, -585668.25, -4086.2336, -0.018820876, 0.17653707, -488777.22, 142429.6, 0.0, 10.001102, 9.999816 
6.5006536e+1, 2.4559258e+2, -416298.44, -562209.25, 6602.018, -0.013527487, 0.17270851, -416000.3, 117211.37, 0.0, 10.001197, 9.999259 
6.5008163e+1, 2.555922e+2, -316410.8, -465158.6, -7585.6514, 0.010270663, 0.20583853, -316024.97, 119192.36, 0.0, 10.001218, 9.999242 
6.500947e+1, 2.6559147e+2, -211355.27, -404610.16, -14459.1455, 0.007819296, 0.22861578, -210279.44, 126947.02, 0.0, 10.001444, 9.998876 
6.501056e+1, 2.7559048e+2, -58238.563, -283564.97, -10118.598, -0.014802619, 0.2409281, -57785.086, 181452.83, 0.0, 10.001838, 9.998844 
6.501214e+1, 2.855894e+2, 35885.887, -252295.9, 10431.364, -0.022186872, 0.2770337, 36262.98, 177513.72, 0.000000013847158, 10.00209, 9.998264 
6.501408e+1, 2.9558814e+2, 150595.3, -150885.48, 4929.8994, -0.02004493, 0.32034442, 150675.89, 193941.02, 0.0000047556837, 10.002226, 9.998222 
6.501568e+1, 3.0558544e+2, 144415.03, -246376.89, -15888.55, -0.015698954, 0.28700668, 145059.95, 145059.95, 0.00005639522, 10.002355, 9.997173 
6.501692e+1, 3.1558326e+2, 318691.22, 84321.08, 17817.574, -0.021659521, 0.34570757, 320038.03, 320038.03, 0.00021376522, 10.002489, 9.99938 
7.499678e+1, 1.2559468e+2, -1809044.5, -1685755.1, 7342.2617, -0.027954994, 0.19707833, -1685319.5, 23874.977, 0.00094218313, 9.999032, 10.000666 
7.499831e+1, 1.3559487e+2, -1713198.0, -1724921.9, 21379.719, -0.03419498, 0.2698603, -1696891.1, -85696.18, 0.0005443152, 9.999604, 9.999449 
7.499959e+1, 1.4559434e+2, -1553653.1, -1556388.1, -2905.481, -0.024530513, 0.25459114, -1551809.5, -38608.1, 0.00022371147, 9.999851, 9.999809 
7.500061e+1, 1.5559414e+2, -1457248.8, -1461420.9, -3987.5364, -0.013413801, 0.2521423, -1454834.5, -39631.133, 0.00004811655, 9.99985, 9.999788 
7.500137e+1, 1.6559413e+2, -1354597.5, -1375000.8, -15589.682, -0.005961969, 0.2788207, -1346168.1, -28963.672, 0.0000019773436, 9.999943, 9.999664 
7.500198e+1, 1.7559409e+2, -1229706.3, -1260604.0, -11175.082, 0.0008368583, 0.30398843, -1226088.1, -6881.661, 0.0, 10.000113, 9.999696 
7.5002617e+1, 1.8559372e+2, -1082320.6, -1102883.0, -3517.1663, -0.00023969883, 0.28059712, -1081735.8, 39473.152, 0.0, 10.000298, 10.000017 
7.500327e+1, 1.9559316e+2, -955726.6, -992249.4, -5886.843, -0.008379593, 0.22196634, -954801.25, 68409.375, 0.0, 10.000499, 10.000007 
7.5004035e+1, 2.0559303e+2, -848199.06, -909369.6, -9037.011, -0.0030133273, 0.21649686, -846891.94, 78319.016, 0.0, 10.0006485, 9.999831 
7.500487e+1, 2.1559319e+2, -734568.3, -803859.6, -7403.617, 0.013168905, 0.24576811, -733786.06, 93424.15, 0.0, 10.000755, 9.99983 
7.5005674e+1, 2.2559288e+2, -616744.06, -700819.2, 4402.575, 0.006135034, 0.23604509, -616514.2, 112697.36, 0.0, 10.00091, 9.999791 
7.5006455e+1, 2.3559228e+2, -494140.44, -596357.6, 2826.172, -0.018935787, 0.19207834, -494062.38, 137151.75, 0.0, 10.001102, 9.9997425 
7.500772e+1, 2.4559152e+2, -441932.8, -615306.75, 7299.975, -0.015427146, 0.18805537, -441626.0, 91595.86, 0.0, 10.001197, 9.998895 
7.500938e+1, 2.5559068e+2, -340180.8, -514387.13, -5980.444, 0.010284946, 0.20988916, -339975.75, 95257.81, 0.0, 10.001218, 9.998904 
7.50109e+1, 2.6558974e+2, -205989.98, -393307.34, 254.77324, 0.0063685356, 0.22666311, -205989.64, 131254.61, 0.0, 10.001443, 9.998954 
7.501236e+1, 2.7558887e+2, -53866.895, -274203.9, 4274.5444, -0.01921583, 0.23749308, -53784.0, 185469.66, 0.0, 10.001837, 9.998909 
7.5014234e+1, 2.8558767e+2, 28199.723, -268115.78, 15431.834, -0.021305647, 0.27031043, 29001.23, 170268.1, 0.000000011324871, 10.00209, 9.998156 
7.501641e+1, 2.955863e+2, 144408.11, -163683.23, 9894.214, -0.009473654, 0.30878127, 144725.53, 188009.03, 0.000004098041, 10.002226, 9.998135 
7.501809e+1, 3.0558363e+2, 156694.88, -220363.84, -11208.2, -0.010075515, 0.27221042, 157027.73, 157027.73, 0.000050636227, 10.002353, 9.997352 
7.50193e+1, 3.1558177e+2, 329363.47, 107310.49, 26687.793, -0.03232143, 0.34809905, 332525.94, 332525.94, 0.00019685416, 10.002486, 9.999538 
8.499619e+1, 1.2559351e+2, -1794897.8, -1681334.6, -5030.852, 0.0033478206, 0.21328875, -1681112.3, 28093.941, 0.00087835814, 9.999139, 10.000646 
8.499747e+1, 1.3559364e+2, -1742372.8, -1739301.8, 8320.483, -0.068748765, 0.2796772, -1732376.3, -121169.06, 0.0005011039, 9.999406, 9.999445 
8.499895e+1, 1.45593e+2, -1597755.6, -1576290.8, -29321.598, -0.058325697, 0.2534064, -1555799.1, -42584.57, 0.00020010647, 9.999543, 9.999822 
8.500051e+1, 1.5559281e+2, -1495091.3, -1478074.4, -27576.773, 0.004873127, 0.25075737, -1457723.3, -42506.63, 0.000039437622, 9.999584, 9.999803 
8.500146e+1, 1.6559283e+2, -1368070.1, -1372623.4, -29413.098, 0.015665371, 0.27626932, -1340845.8, -23628.629, 0.0000010481418, 9.999812, 9.999743 
8.5002e+1, 1.7559285e+2, -1212907.4, -1244785.8, -27006.508, -0.01224881, 0.29884118, -1197487.3, 21730.795, 0.0, 10.000195, 9.999764 
8.50028e+1, 1.8559247e+2, -1080605.9, -1111560.1, -27535.514, -0.013611737, 0.2764776, -1064495.9, 56724.74, 0.0, 10.00035, 9.999932 
8.500382e+1, 1.9559188e+2, -986559.3, -1015328.5, -30986.398, 0.004644839, 0.22203535, -966781.44, 56442.14, 0.0, 10.000322, 9.999933 
8.500469e+1, 2.0559175e+2, -870615.44, -914451.75, -29483.91, 0.0065641166, 0.21900935, -855795.25, 69428.54, 0.0, 10.00047, 9.999882 
8.5005456e+1, 2.1559197e+2, -731383.9, -797838.6, -26080.156, -0.0041902796, 0.24933451, -722371.06, 104850.766, 0.0, 10.000758, 9.99987 
8.500644e+1, 2.2559161e+2, -622439.0, -719165.06, -18729.748, -0.00947927, 0.2396452, -618938.94, 110284.76, 0.0, 10.000938, 9.999651 
8.5007614e+1, 2.3559086e+2, -513764.84, -621289.2, -27036.705, -0.010178622, 0.19545408, -507349.34, 123878.79, 0.0, 10.001035, 9.999604 
8.500904e+1, 2.4559e+2, -447850.8, -632330.44, -15583.081, -0.0040976615, 0.19285136, -446543.78, 86693.56, 0.0, 10.001217, 9.998768 
8.501069e+1, 2.5558904e+2, -311740.03, -514061.44, -10681.825, 0.0065544588, 0.21734089, -311177.66, 124072.58, 0.0, 10.001471, 9.998785 
8.50124e+1, 2.6558807e+2, -172780.53, -378732.22, 4885.888, 0.00020361584, 0.23395365, -172664.69, 164596.69, 0.0, 10.001677, 9.998941 
8.501421e+1, 2.7558714e+2, -54308.344, -276348.84, 1818.9945, -0.01744606, 0.24213338, -54293.44, 184977.27, 0.0, 10.001841, 9.998893 
8.501634e+1, 2.8558588e+2, 12377.447, -283930.7, 7821.1665, -0.016100597, 0.27319834, 12583.747, 153868.3, 0.000000007967864, 10.002016, 9.998084 
8.501867e+1, 2.955844e+2, 137417.81, -174516.44, 4913.8726, -0.005608375, 0.311883, 137495.19, 180797.47, 0.0000034232567, 10.002209, 9.998069 
8.5020506e+1, 3.055817e+2, 174886.11, -208627.28, -19537.44, -0.009571121, 0.27215838, 175878.84, 175878.84, 0.00004462947, 10.002463, 9.99738 
8.5021895e+1, 3.1558e+2, 368041.44, 126486.984, 10606.22, -0.035053354, 0.3640436, 368506.25, 368506.25, 0.00017880679, 10.0027485, 9.999545 
9.49955e+1, 1.2559228e+2, -1798128.0, -1688121.1, 3195.2861, 0.02105015, 0.25738704, -1688028.4, 21191.322, 0.00082284986, 9.999139, 10.000599 
9.4996816e+1, 1.3559206e+2, -1743638.8, -1741851.9, 18012.65, -0.07436573, 0.29242268, -1724710.5, -113486.91, 0.00046510532, 9.999406, 9.999428 
9.499841e+1, 1.455913e+2, -1594650.8, -1569672.3, -27538.697, -0.06747812, 0.2526716, -1551923.0, -38690.945, 0.00018171112, 9.999542, 9.999867 
9.500013e+1, 1.5559131e+2, -1491706.4, -1471558.8, -24990.379, 0.008130566, 0.2645023, -1454688.1, -39455.777, 0.000033543416, 9.999586, 9.999846 
9.5001304e+1, 1.6559137e+2, -1363620.9, -1363711.1, -14754.041, 0.01794874, 0.28955308, -1348911.9, -31679.93, 0.00000057940093, 9.999814, 9.9998045 
9.50021e+1, 1.755913e+2, -1209703.0, -1237761.4, -13247.337, -0.02143655, 0.2986841, -1204436.8, 14796.049, 0.0, 10.000194, 9.999813 
9.5003134e+1, 1.8559088e+2, -1088022.6, -1126583.0, -28481.613, -0.01569773, 0.27574846, -1072909.1, 48327.05, 0.0, 10.000348, 9.99983 
9.5004344e+1, 1.9559032e+2, -992711.44, -1028197.8, -31201.176, 0.024874648, 0.2317746, -974561.25, 48678.895, 0.0, 10.000323, 9.999845 
9.500518e+1, 2.0559022e+2, -865088.9, -903071.1, -18600.297, 0.008554397, 0.23338619, -857497.44, 67742.27, 0.0, 10.00047, 9.99996 
9.5005727e+1, 2.1559052e+2, -727179.9, -789083.1, -15474.376, -0.052595966, 0.26304597, -723527.2, 103708.6, 0.0, 10.000758, 9.999931 
9.500699e+1, 2.2558998e+2, -638462.7, -752287.75, -15176.48, -0.04864465, 0.24472025, -636473.94, 92765.58, 0.0, 10.000938, 9.999424 
9.500882e+1, 2.3558885e+2, -528471.56, -651571.56, -23061.465, 0.007249244, 0.18631202, -524293.06, 106955.82, 0.0, 10.001034, 9.999396 
9.5010495e+1, 2.4558797e+2, -440175.22, -616250.7, -6154.6826, 0.019975461, 0.18706234, -439960.34, 93297.85, 0.0, 10.001216, 9.9988785 
9.5012075e+1, 2.555873e+2, -304880.7, -499702.97, -1270.4303, -0.0017977455, 0.22816944, -304872.4, 130394.99, 0.0, 10.00147, 9.998883 
9.5013964e+1, 2.655864e+2, -180007.75, -393625.6, 11037.439, -0.011462512, 0.25046003, -179438.97, 157838.95, 0.0, 10.001677, 9.99884 
9.501613e+1, 2.755853e+2, -61048.63, -290200.28, 7958.8843, -0.009953901, 0.2548314, -60772.53, 178516.56, 0.0, 10.001841, 9.998798 
9.5018446e+1, 2.85584e+2, 10034.467, -288761.5, 14731.321, -0.007204439, 0.28559807, 10758.998, 152062.78, 0.0000000042394483, 10.002016, 9.998051 
9.502084e+1, 2.9558253e+2, 134400.77, -180696.02, 12324.864, -0.008769954, 0.3289277, 134882.11, 178203.58, 0.000002739973, 10.002209, 9.998027 
9.5022917e+1, 3.0557972e+2, 166430.63, -225655.39, -8700.493, -0.014763804, 0.28599572, 166623.6, 166623.6, 0.000038513957, 10.002462, 9.997263 
9.5024675e+1, 3.155781e+2, 357742.88, 105974.555, 24730.805, -0.032179475, 0.39342666, 360149.13, 360149.13, 0.00016003304, 10.002746, 9.999405 
1.04994476e+2, 1.2559034e+2, -1819638.5, -1689985.4, -33579.73, 0.014134486, 0.28671503, -1681804.6, 27435.455, 0.0007762847, 9.998956, 10.000673 
1.0499623e+2, 1.3558999e+2, -1791245.3, -1753123.1, -8116.264, -0.055552546, 0.297952, -1751467.1, -140222.25, 0.00043669788, 9.999029, 9.999532 
1.0499796e+2, 1.4558925e+2, -1629182.5, -1572014.8, -45249.0, -0.05072247, 0.24869585, -1547077.5, -33824.684, 0.00016867174, 9.999244, 9.999995 
1.0499961e+2, 1.5558954e+2, -1484595.9, -1454584.6, -36670.688, -0.001453111, 0.27702382, -1429968.1, -14717.955, 0.000030278157, 9.999577, 9.999968 
1.0500096e+2, 1.6558969e+2, -1366184.5, -1356266.1, -21616.098, 0.0049221716, 0.30003756, -1339047.6, -21798.99, 0.0000004316036, 9.999758, 9.999883 
1.0500212e+2, 1.7558953e+2, -1259871.4, -1254056.4, -18455.81, -0.020018341, 0.29249305, -1238280.5, -19030.695, 0.0, 9.999815, 9.999884 
1.0500334e+2, 1.855891e+2, -1139348.8, -1159866.6, -33494.598, -0.013847532, 0.26991746, -1114577.3, 6676.0283, 0.0, 10.000032, 9.999753 
1.0500461e+2, 1.9558859e+2, -988733.2, -1034389.7, -34621.574, 0.016273424, 0.23947932, -970091.2, 53166.41, 0.0, 10.000384, 9.999772 
1.0500561e+2, 2.0558847e+2, -849651.75, -895995.9, -24153.898, -0.0006896346, 0.24088582, -839352.06, 85905.3, 0.0, 10.000577, 9.999957 
1.05006404e+2, 2.1558866e+2, -745445.6, -799019.75, -27112.441, -0.054922502, 0.2595004, -734119.25, 93134.41, 0.0, 10.000638, 9.99992 
1.0500786e+2, 2.25588e+2, -674370.25, -790793.2, -28434.996, -0.04787445, 0.23957783, -667796.5, 61462.293, 0.0, 10.000783, 9.999234 
1.0500984e+2, 2.3558675e+2, -545920.94, -679483.06, -33237.34, 0.00795984, 0.18696778, -538106.9, 93163.71, 0.0, 10.000998, 9.999222 
1.0501173e+2, 2.4558584e+2, -429084.56, -601603.1, -12076.328, 0.020326367, 0.19010027, -428243.3, 105036.7, 0.0, 10.001252, 9.998962 
1.0501357e+2, 2.5558525e+2, -290151.66, -484540.75, -9733.718, -0.0021936444, 0.2305514, -289665.47, 145622.06, 0.0, 10.001536, 9.998956 
1.0501567e+2, 2.6558432e+2, -176678.78, -406352.94, -2590.2068, -0.011700494, 0.2546683, -176649.58, 160648.63, 0.0, 10.00176, 9.9987135 
1.0501802e+2, 2.7558312e+2, -55459.254, -300851.78, -7635.7446, -0.009383267, 0.26321915, -55221.887, 184089.06, 0.0, 10.001936, 9.99868 
1.0502052e+2, 2.8558186e+2, 29647.31, -277011.1, 1882.1484, -0.007149636, 0.29734495, 29658.863, 170984.66, 0.0000000012344323, 10.002139, 9.998073 
1.0502311e+2, 2.9558042e+2, 156879.86, -168356.28, 4113.245, -0.010397212, 0.34345713, 156931.88, 200274.31, 0.0000020653147, 10.002354, 9.998043 
1.05025426e+2, 3.0557746e+2, 178259.7, -228758.2, -10703.147, -0.015229497, 0.29067844, 178540.95, 178540.95, 0.00003243676, 10.002579, 9.997188 
1.0502751e+2, 3.155758e+2, 361473.25, 95468.22, 28254.238, -0.026783507, 0.40233955, 364441.2, 364441.2, 0.00014091349, 10.002822, 9.999297 
1.149931e+2, 1.2558769e+2, -1806453.5, -1662697.3, -32681.295, -0.019456137, 0.3004018, -1655616.3, 53651.16, 0.0007384457, 9.998957, 10.00086 
1.1499566e+2, 1.3558741e+2, -1776135.1, -1721189.1, -4819.7534, -0.0145126525, 0.2955067, -1720769.6, -109498.52, 0.00041537013, 9.999026, 9.999752 
1.1499761e+2, 1.4558682e+2, -1614800.3, -1541799.5, -32453.75, -0.010252547, 0.24061793, -1529458.0, -16180.963, 0.00016046493, 9.999242, 10.000204 
1.1499895e+2, 1.5558751e+2, -1470385.4, -1425609.5, -24361.193, -0.025187049, 0.28828815, -1414911.4, 358.87418, 0.000029173738, 9.999578, 10.000166 
1.1500043e+2, 1.6558778e+2, -1358568.3, -1340866.0, -19458.313, -0.02448405, 0.30820915, -1328340.4, -11073.108, 0.0000005105562, 9.99976, 9.999988 
1.1500204e+2, 1.7558752e+2, -1252903.9, -1239691.8, -15587.031, -0.009052987, 0.28030387, -1229368.6, -10099.858, 0.0, 9.999815, 9.999983 
1.1500342e+2, 1.8558712e+2, -1143053.3, -1167473.4, -20158.227, -0.008855073, 0.2585236, -1131695.5, -10423.327, 0.0, 10.000032, 9.9997015 
1.15004614e+2, 1.9558673e+2, -992652.6, -1042529.6, -21821.465, -0.021396844, 0.2449405, -984453.44, 38822.53, 0.0, 10.000384, 9.999717 
1.15005985e+2, 2.055865e+2, -855513.06, -907998.75, -21826.182, -0.021681031, 0.2414867, -847622.8, 77654.125, 0.0, 10.000577, 9.999875 
1.15007475e+2, 2.1558636e+2, -751254.0, -811045.56, -24424.346, -0.011662966, 0.23875478, -742545.3, 84730.21, 0.0, 10.000638, 9.999838 
1.1500905e+2, 2.2558567e+2, -685026.8, -812894.25, -20441.277, -0.0076146293, 0.22414915, -681838.5, 47443.063, 0.0, 10.000783, 9.999083 
1.1501067e+2, 2.355845e+2, -555840.2, -700025.94, -24918.81, -0.008570355, 0.19767053, -551655.06, 79638.16, 0.0, 10.000998, 9.999082 
1.1501275e+2, 2.455836e+2, -425314.84, -593636.3, -1389.5953, -0.0037309888, 0.20209678, -425303.38, 107999.445, 0.0, 10.001251, 9.999018 
1.1501518e+2, 2.5558287e+2, -287181.97, -478163.4, 725.0069, 0.005209373, 0.22435862, -287179.22, 148131.5, 0.0, 10.001535, 9.999001 
1.1501755e+2, 2.6558185e+2, -187080.44, -428021.1, 3812.784, -0.0006886389, 0.24632005, -187020.11, 150302.19, 0.0, 10.00176, 9.998565 
1.1501989e+2, 2.7558064e+2, -65234.03, -321297.06, -948.2318, -0.01630678, 0.2670567, -65230.52, 174105.81, 0.0, 10.001936, 9.99854 
1.1502257e+2, 2.8557938e+2, 35266.125, -265010.78, 9993.398, -0.016667558, 0.30824253, 35598.344, 176948.88, 0.00000000006210851, 10.002138, 9.998156 
1.1502545e+2, 2.9557806e+2, 162175.83, -156739.2, 12271.687, -0.011137038, 0.35586867, 162647.34, 206012.4, 0.0000014487281, 10.002352, 9.998123 
1.15028046e+2, 3.0557498e+2, 175657.9, -233722.45, -1827.1171, -0.011842102, 0.28677216, 175666.06, 175666.06, 0.000026628812, 10.002577, 9.997154 
1.150304e+2, 3.155732e+2, 355784.47, 83988.695, 40592.133, -0.02010153, 0.39033625, 361717.3, 361717.3, 0.00012196141, 10.002821, 9.999219 
1.2499164e+2, 1.2558472e+2, -1865213.6, -1669390.0, -30224.117, -0.036852203, 0.28359637, -1664831.3, 44465.79, 0.000709113, 9.998461, 10.001054 
1.249947e+2, 1.3558488e+2, -1804353.6, -1709833.4, -537.9644, 0.0029384217, 0.3008176, -1709830.4, -98534.46, 0.00040043768, 9.998727, 9.999975 
1.2499692e+2, 1.4558445e+2, -1643345.9, -1543648.4, -27106.621, 0.010067254, 0.2448849, -1536755.0, -23454.73, 0.0001562618, 9.998994, 10.000311 
1.2499833e+2, 1.555852e+2, -1509445.3, -1432557.9, -27073.156, -0.030077355, 0.28885207, -1423981.6, -8688.7295, 0.000029665673, 9.999258, 10.000273 
1.2499993e+2, 1.6558553e+2, -1395264.1, -1344838.5, -32004.127, -0.03427563, 0.30322367, -1329308.8, -12019.685, 0.0000007617598, 9.999448, 10.000112 
1.2500176e+2, 1.7558533e+2, -1278828.0, -1239013.0, -26478.125, -0.0074353134, 0.26856217, -1225793.5, -6503.6567, 0.0, 9.999579, 10.000101 
1.2500335e+2, 1.8558507e+2, -1168136.5, -1173955.9, -16788.072, -0.009008604, 0.25101522, -1154007.8, -32715.998, 0.0, 9.999835, 9.999752 
1.2500478e+2, 1.9558485e+2, -1019204.4, -1051311.0, -10976.344, -0.033956055, 0.25048178, -1015810.6, 7483.1504, 0.0, 10.000185, 9.999753 
1.2500645e+2, 2.0558448e+2, -887479.94, -945503.2, -19870.246, -0.026311466, 0.24389622, -881327.6, 43968.46, 0.0, 10.000452, 9.999678 
1.2500831e+2, 2.15584e+2, -761385.06, -837090.6, -31302.92, 0.0075832773, 0.22502548, -750118.5, 77180.164, 0.0, 10.000659, 9.999649 
1.2501007e+2, 2.2558323e+2, -669993.4, -810482.44, -22662.47, 0.010469713, 0.21426539, -666428.1, 62877.617, 0.0, 10.000906, 9.99904 
1.2501173e+2, 2.3558223e+2, -531558.9, -693271.06, -18995.227, -0.011743182, 0.20738877, -529357.6, 101958.39, 0.0, 10.001185, 9.999037 
1.2501396e+2, 2.4558127e+2, -414214.3, -600289.6, 214.90355, -0.013296071, 0.21573536, -414214.06, 119111.97, 0.0, 10.00138, 9.99891 
1.2501666e+2, 2.5558037e+2, -299249.9, -495955.5, -9823.492, 0.0011298498, 0.23018296, -298760.53, 136575.31, 0.0, 10.001504, 9.998894 
1.250193e+2, 2.655792e+2, -197523.17, -442908.8, -8269.264, 0.00003555851, 0.2475128, -197244.81, 140104.06, 0.0, 10.00173, 9.998477 
1.2502192e+2, 2.7557787e+2, -56728.938, -326781.53, -8369.285, -0.011247415, 0.26546338, -56469.813, 182894.22, 0.0, 10.002034, 9.998455 
1.2502483e+2, 2.8557658e+2, 54718.62, -257869.2, -391.837, -0.011973849, 0.30570927, 54719.11, 196097.66, 0.0, 10.00228, 9.9981365 
1.2502787e+2, 2.9557523e+2, 179667.66, -149258.14, -6509.2617, -0.010987199, 0.35492077, 179796.4, 223189.03, 0.00000094519226, 10.002477, 9.998116 
1.2503059e+2, 3.0557203e+2, 174342.31, -225127.06, -23136.773, -0.012233223, 0.2703086, 175677.89, 175677.89, 0.000021325412, 10.002528, 9.997237 
1.2503311e+2, 3.155703e+2, 305191.16, 62077.285, 31470.648, -0.014183057, 0.36967123, 309198.9, 309198.9, 0.00010374891, 10.002462, 9.999242 
1.3499008e+2, 1.2558141e+2, -1852410.5, -1641446.9, -20655.117, -0.039578155, 0.23776996, -1639443.5, 69885.21, 0.0006877832, 9.998455, 10.001249 
1.3499336e+2, 1.355824e+2, -1787935.1, -1676959.9, 9748.909, -0.0049719545, 0.31460416, -1676110.0, -64790.65, 0.0003909241, 9.998732, 10.000198 
1.3499591e+2, 1.4558211e+2, -1642186.1, -1542292.9, -17265.502, 0.008398461, 0.26189518, -1539392.9, -26070.338, 0.00015498626, 9.998999, 10.000318 
1.3499771e+2, 1.555826e+2, -1508632.3, -1430180.9, -17498.52, -0.01734561, 0.27869242, -1426454.9, -11136.679, 0.000031126136, 9.999255, 10.000291 
1.3499947e+2, 1.6558293e+2, -1385741.1, -1324487.4, -27042.025, -0.025471976, 0.28464583, -1314257.5, 3056.9854, 0.0000011270397, 9.999445, 10.000253 
1.3500126e+2, 1.7558295e+2, -1268727.6, -1218539.4, -20882.205, -0.016088927, 0.25673494, -1210987.3, 8325.769, 0.0, 9.999581, 10.000241 
1.3500313e+2, 1.855829e+2, -1156722.5, -1150654.4, -3571.5183, -0.015141056, 0.24736345, -1149002.1, -27689.936, 0.0, 9.999837, 9.999912 
1.3500509e+2, 1.9558294e+2, -1009957.5, -1032283.9, 1972.3248, -0.021991592, 0.2564465, -1009784.6, 13526.311, 0.0, 10.000185, 9.999884 
1.3500701e+2, 2.0558245e+2, -909655.4, -991545.2, -12190.493, -0.015230325, 0.248192, -907879.1, 17435.803, 0.0, 10.000452, 9.999361 
1.3500893e+2, 2.1558155e+2, -782247.5, -880153.3, -23286.813, 0.0024086807, 0.21822523, -776991.0, 50332.258, 0.0, 10.000657, 9.999354 
1.3501093e+2, 2.2558069e+2, -665548.4, -801104.9, -12137.456, 0.0057874806, 0.20991468, -664470.2, 64861.168, 0.0, 10.000906, 9.9991045 
1.3501301e+2, 2.3557988e+2, -528100.8, -686107.0, -8773.108, -0.0020326248, 0.21595266, -527615.2, 103723.7, 0.0, 10.001185, 9.999086 
1.350154e+2, 2.4557889e+2, -432782.75, -639055.0, 4767.4185, -0.00872485, 0.23097871, -432672.63, 100677.08, 0.0, 10.00138, 9.998644 
1.35018e+2, 2.5557774e+2, -317081.53, -533216.5, -4687.839, -0.01499353, 0.24804787, -316979.9, 118383.02, 0.0, 10.001505, 9.998638 
1.3502093e+2, 2.6557636e+2, -199379.56, -446676.1, 3181.8098, -0.010227942, 0.25809082, -199338.63, 138039.28, 0.0, 10.00173, 9.99845 
1.3502413e+2, 2.7557483e+2, -58865.4, -330939.16, 3029.022, 0.0052896817, 0.258593, -58831.684, 180562.33, 0.0, 10.002033, 9.998426 
1.3502729e+2, 2.8557336e+2, 46344.945, -275214.38, 6953.943, 0.0063690282, 0.29000366, 46495.258, 187905.08, 0.0, 10.00228, 9.998018 
1.3503034e+2, 2.9557192e+2, 172601.34, -163927.08, 372.19376, -0.010918273, 0.34033963, 172601.75, 216026.9, 0.0000005800232, 10.002476, 9.998015 
1.3503307e+2, 3.0556864e+2, 188366.33, -195412.78, -25765.926, -0.017284723, 0.24070074, 190088.45, 190088.45, 0.000016654767, 10.002527, 9.997441 
1.350356e+2, 3.1556708e+2, 313657.2, 80857.67, 32004.598, -0.01059969, 0.33984643, 317976.94, 317976.94, 0.00008670888, 10.002459, 9.9993725 
1.4498863e+2, 1.2557843e+2, -1862189.9, -1643918.9, -9805.107, -0.024988726, 0.2223824, -1643479.3, 65878.195, 0.0006728006, 9.998377, 10.00127 
1.4499195e+2, 1.3557965e+2, -1801528.4, -1675237.9, 7997.3955, -0.013628164, 0.31514785, -1674733.5, -63387.367, 0.00038500954, 9.998601, 10.000274 
1.4499466e+2, 1.4557944e+2, -1673798.8, -1544891.1, -23802.021, -0.0025952084, 0.2600329, -1540636.6, -27288.04, 0.00015511648, 9.998726, 10.000432 
1.4499672e+2, 1.5558001e+2, -1573427.8, -1449862.6, -15804.462, -0.017249342, 0.27381036, -1447873.3, -32530.057, 0.00003278088, 9.99876, 10.000394 
1.4499877e+2, 1.6558036e+2, -1437839.5, -1350832.4, -20797.996, -0.021269113, 0.27871963, -1346116.5, -28777.342, 0.0000015078091, 9.999093, 10.000241 
1.450009e+2, 1.7558037e+2, -1258411.6, -1214780.8, -26639.44, -0.013303018, 0.25137785, -1202164.0, 17173.877, 0.0, 9.999657, 10.000231 
1.4500307e+2, 1.8558036e+2, -1141684.6, -1141632.8, -25828.303, -0.010391774, 0.24343975, -1115830.4, 5506.626, 0.0, 9.999931, 9.999928 
1.4500526e+2, 1.9558042e+2, -1039859.75, -1045715.56, -30951.623, -0.012888805, 0.25440818, -1011697.9, 11637.416, 0.0, 9.999975, 9.999893 
1.4500739e+2, 2.0557992e+2, -950755.06, -1023372.1, -37067.586, -0.011867997, 0.24959907, -935176.06, -9836.336, 0.0, 10.000221, 9.999254 
1.4500946e+2, 2.1557896e+2, -793479.7, -896987.56, -32400.889, -0.007831931, 0.2244511, -784173.94, 43175.242, 0.0, 10.000629, 9.999252 
1.4501178e+2, 2.2557804e+2, -656370.94, -799836.0, -18276.426, -0.0040081833, 0.21673696, -654079.25, 75278.75, 0.0, 10.000982, 9.999077 
1.4501429e+2, 2.3557718e+2, -514483.63, -683069.1, -22365.48, -0.0002162973, 0.21994512, -511566.94, 119799.016, 0.0, 10.001294, 9.999055 
1.4501692e+2, 2.4557617e+2, -413661.0, -637409.8, -8432.158, -0.0022774616, 0.24017474, -413343.66, 120033.24, 0.0, 10.001544, 9.998576 
1.4501968e+2, 2.5557506e+2, -286890.47, -526160.7, -2745.0295, -0.009819668, 0.26921996, -286858.97, 148531.1, 0.0, 10.001744, 9.998571 
1.450228e+2, 2.6557362e+2, -171660.39, -438240.03, 14126.9, -0.0067944108, 0.2762936, -170913.84, 166491.89, 0.0, 10.001942, 9.998406 
1.4502622e+2, 2.755719e+2, -48437.402, -330733.53, 12076.418, 0.0067804, 0.26129192, -47921.723, 191501.47, 0.0, 10.002127, 9.998383 
1.4502954e+2, 2.8557032e+2, 28077.816, -295070.9, 11018.848, 0.008509839, 0.28939185, 28453.105, 169893.05, 0.0, 10.002203, 9.997919 
1.4503272e+2, 2.9556885e+2, 125237.06, -196882.63, 6080.4233, -0.0066676745, 0.34719637, 125351.8, 168807.63, 0.00000034163278, 10.002193, 9.997925 
1.4503548e+2, 3.0556548e+2, 164140.78, -197792.89, -25237.209, -0.017791996, 0.23927535, 165892.06, 165892.06, 0.000012640429, 10.002319, 9.997525 
1.4503804e+2, 3.1556407e+2, 325109.56, 86211.28, 25415.508, -0.015467864, 0.34364456, 327783.47, 327783.47, 0.000071064576, 10.002538, 9.999371 
1.549873e+2, 1.2557577e+2, -1872680.4, -1665863.6, -2150.5815, 0.0039871046, 0.23695043, -1665841.3, 43542.0, 0.0006609735, 9.998378, 10.001119 
1.5499043e+2, 1.3557662e+2, -1807512.3, -1686426.0, 15955.25, -0.023984702, 0.30231208, -1684358.9, -72982.586, 0.00037997565, 9.998596, 10.000199 
1.5499318e+2, 1.455764e+2, -1658673.9, -1512578.3, -22592.748, -0.023762982, 0.2392919, -1509164.1, 4214.3193, 0.00015479715, 9.998722, 10.000655 
1.5499535e+2, 1.555774e+2, -1559439.5, -1421405.6, -13245.502, -0.031132998, 0.27426726, -1420146.1, -4778.2935, 0.000033834087, 9.998763, 10.000588 
1.5499787e+2, 1.6557783e+2, -1448993.0, -1374516.5, 400.31177, -0.022990255, 0.28566623, -1374514.4, -57151.254, 0.0000017896223, 9.999095, 10.000078 
1.550007e+2, 1.7557763e+2, -1269842.5, -1238246.1, -6481.6416, 0.00023822732, 0.252886, -1236968.1, -17603.541, 0.0, 9.999656, 10.000071 
1.5500315e+2, 1.8557741e+2, -1150907.3, -1160304.6, -24223.273, 0.0045031686, 0.23931539, -1130931.1, -9564.839, 0.0, 9.999929, 9.999802 
1.5500528e+2, 1.9557728e+2, -1047716.3, -1062055.9, -28452.22, -0.0072306674, 0.24405518, -1025544.44, -2177.5188, 0.0, 9.999975, 9.999781 
1.5500756e+2, 2.0557687e+2, -943636.6, -1008594.44, -21762.707, -0.016603569, 0.24784283, -937019.56, -11649.0625, 0.0, 10.000221, 9.999356 
1.5500994e+2, 2.1557622e+2, -787143.7, -883907.56, -17130.807, -0.023580877, 0.24378915, -784200.44, 43176.082, 0.0, 10.000629, 9.999342 
1.5501261e+2, 2.2557525e+2, -664750.9, -817310.25, -6614.348, -0.019510405, 0.23486997, -664464.6, 64921.09, 0.0, 10.000982, 9.998957 
1.550155e+2, 2.355741e+2, -522186.0, -698905.25, -10787.329, -0.0066327094, 0.21945955, -521529.97, 109867.195, 0.0, 10.001293, 9.998947 
1.5501854e+2, 2.4557315e+2, -404775.78, -618856.6, -931.5188, 0.005418791, 0.24339193, -404771.75, 128635.94, 0.0, 10.001544, 9.998704 
1.5502168e+2, 2.5557238e+2, -278589.66, -508870.4, 4889.7583, 0.015931994, 0.2935609, -278485.88, 156931.45, 0.0, 10.001744, 9.99869 
1.550249e+2, 2.65571e+2, -176020.5, -447182.3, 21121.453, 0.009814945, 0.30210444, -174385.16, 163047.3, 0.0, 10.001942, 9.998345 
1.550282e+2, 2.7556905e+2, -52787.88, -339612.66, 18623.496, -0.007354897, 0.27347347, -51583.715, 187867.95, 0.0, 10.002127, 9.998322 
1.550316e+2, 2.855674e+2, 22749.92, -306400.1, 10594.433, -0.006094046, 0.30339614, 23090.572, 164559.63, 0.0, 10.002204, 9.997841 
1.55035e+2, 2.9556602e+2, 119972.56, -208216.28, 6562.641, 0.0018061314, 0.3752476, 120103.734, 163588.44, 0.00000019535571, 10.002195, 9.997847 
1.5503784e+2, 3.0556256e+2, 161311.64, -203328.61, -16803.404, -0.013995932, 0.26575565, 162084.34, 162084.34, 0.000009261703, 10.002318, 9.997487 
1.5504041e+2, 3.155612e+2, 315302.2, 66482.516, 36326.73, -0.031558026, 0.37985623, 320497.28, 320497.28, 0.000056915687, 10.002535, 9.999236 
1.6498576e+2, 1.2557296e+2, -1897812.5, -1681525.3, -18816.6, 0.020473769, 0.26696023, -1679900.4, 29511.361, 0.000647907, 9.9982195, 10.001087 
1.6498876e+2, 1.3557361e+2, -1854304.6, -1705292.9, 9249.366, -0.03529336, 0.30971476, -1704721.0, -93314.336, 0.00037279638, 9.998259, 10.000232 
1.6499174e+2, 1.4557333e+2, -1674052.3, -1512691.0, -25936.643, -0.03385315, 0.23437561, -1508624.5, 4784.5425, 0.0001524271, 9.998586, 10.00072 
1.6499439e+2, 1.5557447e+2, -1501361.5, -1387208.3, -28973.541, -0.022821842, 0.27658087, -1380275.4, 35121.14, 0.000033788867, 9.999134, 10.000644 
1.6499718e+2, 1.6557492e+2, -1413208.8, -1362247.8, -16571.29, -0.013542877, 0.2899572, -1357333.1, -39941.7, 0.0000018950186, 9.999362, 10.000033 
1.6500016e+2, 1.7557465e+2, -1320918.6, -1268165.3, -14792.9795, -0.0033336123, 0.25546852, -1264300.3, -44906.387, 0.0, 9.999328, 10.000023 
1.6500284e+2, 1.8557435e+2, -1209717.9, -1198436.9, -27275.955, -0.0004890314, 0.2415608, -1176224.4, -54827.863, 0.0, 9.999568, 9.999714 
1.6500531e+2, 1.9557416e+2, -1046442.2, -1070712.4, -28483.84, -0.0043656984, 0.24721467, -1027616.2, -4217.861, 0.0, 10.000024, 9.999699 
1.6500792e+2, 2.0557374e+2, -913787.44, -993468.1, -19717.299, -0.012967937, 0.25317332, -909175.25, 16226.845, 0.0, 10.0004225, 9.999363 
1.6501062e+2, 2.1557312e+2, -765020.8, -872691.3, -22778.066, -0.025097659, 0.2520999, -760400.3, 67007.164, 0.0, 10.000779, 9.999348 
1.6501357e+2, 2.2557214e+2, -665292.3, -819280.75, -17439.748, -0.022467457, 0.24240313, -663341.9, 66074.9, 0.0, 10.000986, 9.998941 
1.6501668e+2, 2.3557092e+2, -554460.56, -715862.94, -13462.501, -0.008118563, 0.22350432, -553345.4, 78083.52, 0.0, 10.001078, 9.998935 
1.6501999e+2, 2.4556997e+2, -433613.88, -628768.2, -594.9975, 0.0066560907, 0.24664246, -433612.06, 99827.25, 0.0, 10.001328, 9.998739 
1.6502345e+2, 2.5556928e+2, -282057.44, -506520.13, -1988.3463, 0.020809162, 0.29804304, -282039.84, 153408.36, 0.0, 10.001703, 9.998725 
1.6502686e+2, 2.655679e+2, -179807.67, -450786.75, 7836.599, 0.011945641, 0.30910856, -179581.22, 157881.83, 0.0, 10.001924, 9.998328 
1.6503021e+2, 2.75566e+2, -69759.664, -349627.75, 8574.187, -0.01297778, 0.28410226, -69497.23, 169985.17, 0.0, 10.002018, 9.998305 
1.6503379e+2, 2.855644e+2, 23640.479, -308705.88, 3965.6165, -0.009272719, 0.31806582, 23687.791, 165187.44, 0.0, 10.002222, 9.997815 
1.6503742e+2, 2.9556298e+2, 163362.66, -189788.31, 3467.0347, 0.009436772, 0.3949821, 163396.69, 206911.55, 0.00000010392393, 10.002505, 9.997822 
1.6504028e+2, 3.0555946e+2, 190730.44, -191457.55, -21820.482, -0.012039844, 0.2769164, 191972.2, 191972.2, 0.0000064948904, 10.00253, 9.997465 
1.6504274e+2, 3.1555808e+2, 277331.9, 33574.594, 34283.21, -0.042774208, 0.39265856, 282061.88, 282061.88, 0.00004432351, 10.0023365, 9.999104 
1.7498402e+2, 1.2557003e+2, -1891549.3, -1667844.1, -16926.387, 0.023602668, 0.3131187, -1666570.6, 42872.277, 0.0006289189, 9.998217, 10.001183 
1.7498688e+2, 1.3557065e+2, -1843858.8, -1683893.8, 12097.789, -0.04906072, 0.33783317, -1682984.0, -71547.086, 0.00036083558, 9.99826, 10.000378 
1.7499031e+2, 1.4557022e+2, -1680798.0, -1527037.0, -5392.8545, -0.034476414, 0.24550036, -1526848.1, -13407.746, 0.00014701553, 9.998587, 10.000621 
1.749938e+2, 1.555712e+2, -1507703.1, -1400134.6, -9500.345, 0.0068078754, 0.28105587, -1399302.0, 16127.296, 0.00003249045, 9.999133, 10.000556 
1.7499675e+2, 1.6557163e+2, -1408087.8, -1351312.8, -17932.943, 0.0065292823, 0.29192767, -1346122.9, -28698.607, 0.0000018022155, 9.99936, 10.00011 
1.7499927e+2, 1.7557144e+2, -1316201.1, -1258450.8, -14849.194, -0.024697736, 0.2589222, -1254856.3, -35430.75, 0.0, 9.999328, 10.00009 
1.7500216e+2, 1.855712e+2, -1213204.4, -1205594.8, -10192.268, -0.026278786, 0.25008795, -1198520.3, -77092.55, 0.0, 9.999567, 9.999665 
1.7500533e+2, 1.9557105e+2, -1050186.5, -1078333.0, -11480.664, -0.0046779434, 0.2641188, -1046097.7, -22668.145, 0.0, 10.000023, 9.999646 
1.7500845e+2, 2.0557049e+2, -920169.5, -1006511.75, -6241.635, -0.0015461348, 0.26572236, -919720.6, 5713.862, 0.0, 10.000422, 9.999274 
1.7501152e+2, 2.1556965e+2, -770731.56, -884232.6, -9822.29, -0.0129753575, 0.24947485, -769887.8, 57554.266, 0.0, 10.000777, 9.999269 
1.7501463e+2, 2.2556868e+2, -659137.4, -806390.5, -14066.68, -0.013440751, 0.23933364, -657805.7, 71645.55, 0.0, 10.000986, 9.99903 
1.7501779e+2, 2.3556766e+2, -548607.7, -703925.56, -9320.389, -0.0050676935, 0.23195744, -548050.4, 83410.89, 0.0, 10.001079, 9.999016 
1.7502128e+2, 2.4556668e+2, -437379.7, -636799.4, 13513.773, 0.0010259824, 0.24989301, -436468.1, 97003.75, 0.0, 10.001329, 9.998684 
1.75025e+2, 2.5556573e+2, -285515.56, -513706.84, 11612.625, 0.004409763, 0.282894, -284926.13, 150556.58, 0.0, 10.001703, 9.998675 
1.7502865e+2, 2.6556435e+2, -177752.22, -446749.1, 11297.937, -0.0006253779, 0.29738948, -177278.55, 160219.05, 0.0, 10.0019245, 9.998356 
1.7503226e+2, 2.755627e+2, -67875.734, -345798.22, 12734.019, -0.010375318, 0.29292083, -67293.49, 172221.92, 0.0, 10.002018, 9.998331 
1.7503609e+2, 2.8556117e+2, 24941.406, -305621.03, 14657.641, -0.0016157273, 0.33349928, 25590.076, 167121.83, 0.0, 10.002221, 9.997837 
1.7503998e+2, 2.955598e+2, 164695.44, -186414.52, 13392.122, 0.014886581, 0.40699783, 165205.5, 208751.89, 0.00000004563321, 10.002503, 9.997847 
1.7504281e+2, 3.055561e+2, 190590.1, -191832.9, -29029.416, -0.013162443, 0.2734013, 192781.14, 192781.14, 0.000004309572, 10.00253, 9.997463 
1.7504501e+2, 3.1555465e+2, 268780.34, 14965.77, 28840.852, -0.04964329, 0.38220426, 272016.28, 272016.28, 0.000033325945, 10.002339, 9.998975 
1.8498196e+2, 1.2556651e+2, -1925551.6, -1678950.3, -19792.693, 0.009716747, 0.3182286, -1677371.8, 32106.475, 0.0006001509, 9.99796, 10.001229 
1.8498535e+2, 1.3556738e+2, -1816689.6, -1659102.5, 4509.941, -0.034356188, 0.35605323, -1658973.5, -47504.215, 0.00034227368, 9.998395, 10.000483 
1.8498912e+2, 1.455669e+2, -1680144.0, -1534340.1, -11176.532, -0.014983161, 0.2566831, -1533488.4, -20015.166, 0.00013807035, 9.998624, 10.000553 
1.849927e+2, 1.5556765e+2, -1578239.3, -1440779.3, -13225.62, 0.005833559, 0.27647966, -1439518.3, -24053.69, 0.000029920388, 9.998678, 10.000496 
1.8499583e+2, 1.6556807e+2, -1461291.5, -1367867.4, -23694.781, -0.00012124061, 0.28665173, -1362201.4, -44741.934, 0.0000015280342, 9.998956, 10.000191 
1.8499863e+2, 1.7556809e+2, -1299269.4, -1242025.6, -20106.307, -0.025029289, 0.26583472, -1235669.3, -16210.792, 0.0, 9.999409, 10.000164 
1.8500184e+2, 1.8556789e+2, -1186920.8, -1196155.6, -8906.16, -0.024313914, 0.25849128, -1181506.3, -60045.97, 0.0, 9.999762, 9.999637 
1.8500537e+2, 1.9556762e+2, -1050336.5, -1081197.1, -8880.098, -0.003987522, 0.26551145, -1047963.75, -24500.672, 0.0, 10.000033, 9.999621 
1.8500884e+2, 2.0556705e+2, -934614.94, -1010349.6, 522.23474, 0.00095845846, 0.26361027, -934611.3, -9143.014, 0.0, 10.000309, 9.999302 
1.8501227e+2, 2.1556622e+2, -796689.44, -894484.25, 5308.511, -0.00617796, 0.24699777, -796402.1, 31073.37, 0.0, 10.000589, 9.9992895 
1.8501566e+2, 2.2556524e+2, -672233.5, -821971.9, -4613.893, -0.0052987994, 0.23971462, -672091.5, 57393.34, 0.0, 10.000936, 9.998947 
1.8501906e+2, 2.355642e+2, -516467.56, -697173.9, -12677.35, 0.0020511383, 0.23769021, -515582.53, 115912.98, 0.0, 10.001337, 9.998938 
1.8502273e+2, 2.4556312e+2, -397609.6, -619174.1, 7088.1035, -0.00006104927, 0.25143352, -397383.06, 136123.78, 0.0, 10.00161, 9.99867 
1.8502659e+2, 2.5556207e+2, -275773.38, -510950.75, 7770.5493, -0.010719768, 0.2731617, -275516.9, 160001.58, 0.0, 10.00178, 9.998658 
1.8503046e+2, 2.655607e+2, -184777.05, -457093.5, -1485.0365, -0.011783479, 0.29095456, -184768.94, 152764.77, 0.0, 10.001907, 9.998293 
1.8503433e+2, 2.7555913e+2, -75102.11, -355080.28, -6734.0566, -0.0029704657, 0.30052313, -74940.234, 164611.34, 0.0, 10.001994, 9.998279 
1.8503831e+2, 2.8555763e+2, 17869.848, -298757.22, 90.77732, 0.0043311664, 0.34239367, 17869.873, 159437.31, 0.0, 10.002129, 9.997928 
1.8504226e+2, 2.9555625e+2, 140902.67, -188039.73, 3437.4783, 0.00286396, 0.40901592, 140938.6, 184519.56, 0.000000013949684, 10.002297, 9.997933 
1.8504518e+2, 3.0555245e+2, 175860.78, -198217.77, -46513.367, -0.022909446, 0.26100248, 181557.55, 181557.55, 0.0000026617806, 10.002427, 9.997469 
1.8504761e+2, 3.155509e+2, 284486.38, 7501.2983, 13148.544, -0.033434283, 0.3593701, 285109.16, 285109.16, 0.00002394661, 10.002514, 9.998839 
1.9497961e+2, 1.255624e+2, -1925938.4, -1679793.3, -2278.2014, -0.022870274, 0.281855, -1679772.1, 29745.646, 0.000559594, 9.997959, 10.001224 
1.9498418e+2, 1.3556378e+2, -1812461.5, -1650442.1, 20278.324, 0.008516978, 0.36456236, -1647942.6, -36438.953, 0.00031629903, 9.998395, 10.000543 
1.9498815e+2, 1.4556333e+2, -1682696.1, -1539601.1, -9060.755, 0.024213165, 0.26828343, -1539029.8, -25522.266, 0.00012542125, 9.998623, 10.000517 
1.9499105e+2, 1.555638e+2, -1580355.8, -1445139.6, -10091.032, -0.026378458, 0.2628245, -1444390.6, -28888.328, 0.000026112697, 9.998678, 10.000466 
1.9499445e+2, 1.6556425e+2, -1455601.0, -1355783.4, -6668.391, -0.034295022, 0.27407762, -1355339.8, -37842.883, 0.0000011234973, 9.998955, 10.000275 
1.9499825e+2, 1.7556459e+2, -1293736.9, -1230441.6, -3281.1963, -0.004750064, 0.27633682, -1230272.0, -10779.322, 0.0, 9.999408, 10.000243 
1.9500189e+2, 1.8556441e+2, -1187703.1, -1197560.1, 1400.866, 0.0048549855, 0.2669643, -1187508.0, -66013.89, 0.0, 9.999761, 9.999627 
1.9500542e+2, 1.955639e+2, -1050428.8, -1081208.4, 1487.9146, -0.0026927968, 0.25143877, -1050357.0, -26858.057, 0.0, 10.000033, 9.999622 
1.9500908e+2, 2.0556338e+2, -924601.94, -989347.0, 10975.107, -0.0059267683, 0.24694288, -922792.1, 2711.396, 0.0, 10.000308, 9.999447 
1.9501288e+2, 2.1556284e+2, -788274.8, -876855.6, 16207.186, -0.005239343, 0.24462737, -785402.56, 42105.17, 0.0, 10.000588, 9.999411 
1.9501668e+2, 2.2556184e+2, -690210.2, -859224.5, 10493.893, 0.0013457772, 0.24359904, -689561.1, 39956.48, 0.0, 10.000936, 9.998692 
1.9502051e+2, 2.3556055e+2, -533264.5, -731863.25, 2049.599, 0.012821175, 0.2406597, -533243.4, 98288.31, 0.0, 10.001336, 9.9987 
1.9502437e+2, 2.4555933e+2, -395839.53, -615482.06, 13429.329, 0.002936233, 0.2512835, -395021.5, 138522.84, 0.0, 10.00161, 9.998695 
1.9502823e+2, 2.5555825e+2, -274881.22, -508930.16, 14145.627, -0.024901824, 0.26867, -274029.38, 161526.23, 0.0, 10.001779, 9.9986725 
1.9503225e+2, 2.655568e+2, -195668.0, -479786.9, 1769.6022, -0.021943644, 0.28966486, -195656.97, 141914.5, 0.0, 10.001907, 9.998137 
1.9503646e+2, 2.7555516e+2, -84509.164, -374903.8, -3256.0513, 0.008327048, 0.30722052, -84472.664, 155118.25, 0.0, 10.001995, 9.998142 
1.9504048e+2, 2.855537e+2, 29148.18, -275314.53, 6562.093, 0.0076668486, 0.34520176, 29289.547, 170896.3, 0.0, 10.002129, 9.998089 
1.9504426e+2, 2.9555237e+2, 151292.97, -166253.31, 10142.028, -0.026182711, 0.40083683, 151616.56, 195235.3, 0.0000000023315327, 10.002296, 9.998084 
1.9504742e+2, 3.055485e+2, 176609.16, -196712.02, -43426.676, -0.04105462, 0.23946062, 181594.2, 181594.2, 0.0000014940416, 10.002427, 9.997479 
1.950505e+2, 3.1554684e+2, 274359.8, -13705.924, 17796.316, 0.0031358164, 0.32480276, 275455.1, 275455.1, 0.000016254342, 10.002515, 9.998693 
2.0497769e+2, 1.255581e+2, -1879272.0, -1652333.5, -16629.557, -0.025972871, 0.25692317, -1651121.5, 58437.816, 0.0005079089, 9.99826, 10.001267 
2.0498256e+2, 1.355597e+2, -1837091.8, -1650125.8, 7967.9517, 0.017500281, 0.34994227, -1649786.8, -38243.996, 0.00028337847, 9.998175, 10.00065 
2.049867e+2, 1.4555936e+2, -1722175.3, -1559811.6, -16907.348, 0.032862566, 0.26047656, -1558069.6, -44523.95, 0.00010934245, 9.998358, 10.000506 
2.049897e+2, 1.5555988e+2, -1569577.5, -1440950.3, -15833.513, -0.035295796, 0.26093456, -1439029.9, -23489.154, 0.000021261263, 9.998756, 10.000458 
2.0499338e+2, 1.6556035e+2, -1437275.9, -1346314.9, -10143.131, -0.043922935, 0.2731657, -1345197.5, -27662.123, 0.00000067965186, 9.999077, 10.00028 
2.0499763e+2, 1.7556067e+2, -1304178.0, -1234464.6, -13025.684, -0.002041025, 0.27329805, -1232110.4, -12579.19, 0.0, 9.999332, 10.000253 
2.0500164e+2, 1.8556048e+2, -1203776.4, -1201257.9, -10621.87, 0.009794655, 0.26266128, -1191820.9, -70288.61, 0.0, 9.999633, 9.999663 
2.050054e+2, 1.9556001e+2, -1057206.3, -1080773.8, -7343.357, -0.003499277, 0.24610895, -1055105.4, -31568.771, 0.0, 9.99997, 9.999655 
2.0500939e+2, 2.055595e+2, -927857.0, -993149.1, -3222.6682, -0.0060906718, 0.24234596, -927698.3, -2157.0054, 0.0, 10.000296, 9.999427 
2.0501351e+2, 2.1555896e+2, -785590.3, -877074.6, -10100.891, 0.000049200673, 0.24238485, -784488.3, 43057.785, 0.0, 10.000614, 9.999397 
2.0501767e+2, 2.2555804e+2, -678988.44, -846174.1, -3787.0713, 0.0046527386, 0.24588022, -678902.75, 50652.45, 0.0, 10.000979, 9.99876 
2.0502181e+2, 2.3555687e+2, -521969.22, -719916.3, 11320.812, 0.008071845, 0.24894112, -521323.88, 110243.53, 0.0, 10.001386, 9.998758 
2.0502588e+2, 2.4555562e+2, -411563.28, -636976.75, 15717.076, -0.004295999, 0.25783405, -410472.66, 123107.99, 0.0, 10.001562, 9.99857 
2.0502983e+2, 2.5555432e+2, -316313.34, -541911.7, 5458.0083, -0.030076576, 0.26723146, -316181.38, 119413.164, 0.0, 10.00155, 9.998555 
2.0503409e+2, 2.6555282e+2, -212089.13, -484656.72, 2100.728, -0.023228774, 0.2858144, -212072.94, 125538.13, 0.0, 10.001781, 9.998165 
2.0503859e+2, 2.7555123e+2, -52222.582, -356228.63, 10017.15, 0.012434657, 0.30583847, -51892.867, 187736.75, 0.0, 10.002203, 9.998171 
2.0504273e+2, 2.8554976e+2, 58477.1, -256815.28, 11957.994, 0.0117905205, 0.3447146, 58929.977, 200574.92, 0.0, 10.002312, 9.998129 
2.0504649e+2, 2.955485e+2, 134364.16, -169731.1, 6837.8755, -0.026476283, 0.40085799, 134517.83, 178174.52, 0.000000000097020676, 10.00216, 9.998126 
2.0504977e+2, 3.0554473e+2, 165375.03, -190442.64, -39005.42, -0.041665975, 0.2424272, 169600.7, 169600.7, 0.00000072960836, 10.002298, 9.997585 
2.0505318e+2, 3.1554317e+2, 291603.13, -11812.785, 29782.426, 0.013464141, 0.32915285, 294498.84, 294498.84, 0.000010315381, 10.002659, 9.998638 
2.149762e+2, 1.2555361e+2, -1873213.8, -1639734.1, -18331.672, -0.00046055572, 0.2437498, -1638303.6, 71299.086, 0.0004482875, 9.99826, 10.001354 
2.1498047e+2, 1.3555512e+2, -1826603.9, -1628092.8, 5908.4404, -0.007965566, 0.31206262, -1627917.0, -16330.234, 0.00024549337, 9.998174, 10.000802 
2.1498485e+2, 1.4555497e+2, -1721313.3, -1557724.8, -1911.5009, 0.010153368, 0.23304331, -1557702.4, -44114.414, 0.00009091261, 9.998357, 10.000522 
2.1498859e+2, 1.5555587e+2, -1568780.9, -1439134.0, -855.5195, -0.021308836, 0.2708677, -1439128.4, -23548.652, 0.000015871614, 9.998755, 10.00047 
2.149926e+2, 1.6555633e+2, -1442338.4, -1356971.1, -475.61996, -0.029548312, 0.28405446, -1356968.4, -39393.492, 0.00000031009594, 9.999078, 10.000207 
2.1499683e+2, 1.7555629e+2, -1308529.9, -1243651.8, -3174.1213, -0.017397802, 0.25677815, -1243496.9, -23922.793, 0.0, 9.999332, 10.00019 
2.1500106e+2, 1.8555613e+2, -1197982.3, -1189239.6, 2090.3157, -0.0101054795, 0.24550314, -1188765.6, -67190.7, 0.0, 9.999633, 9.999746 
2.1500534e+2, 1.9555594e+2, -1052365.9, -1070768.3, 5477.946, -0.0067898068, 0.24951304, -1050858.6, -27282.508, 0.0, 9.99997, 9.999723 
2.1500973e+2, 2.0555541e+2, -940806.1, -1019969.44, 8823.759, -0.000070574824, 0.24974664, -939834.56, -14252.914, 0.0, 10.000296, 9.999243 
2.1501423e+2, 2.1555458e+2, -796192.75, -898975.94, 2198.271, 0.009306634, 0.24035005, -796145.75, 31444.756, 0.0, 10.000613, 9.999247 
2.1501864e+2, 2.2555384e+2, -651659.4, -789175.06, 11514.522, 0.0040698014, 0.2464545, -650701.94, 78895.57, 0.0, 10.000978, 9.999152 
2.15023e+2, 2.3555318e+2, -497461.75, -668642.4, 25812.8, -0.012404706, 0.26258066, -493654.06, 137948.64, 0.0, 10.001385, 9.999111 
2.1502727e+2, 2.4555194e+2, -430919.0, -677131.6, 15149.757, -0.02200556, 0.27117786, -429990.34, 103625.54, 0.0, 10.001562, 9.998295 
2.1503142e+2, 2.5555024e+2, -333580.34, -577909.2, 5899.313, -0.026954653, 0.26889783, -333437.97, 102197.31, 0.0, 10.001551, 9.998308 
2.1503593e+2, 2.6554868e+2, -197626.78, -454574.5, 18043.553, -0.01646101, 0.27975985, -196365.89, 141286.63, 0.0, 10.0017805, 9.998372 
2.1504076e+2, 2.7554724e+2, -39280.33, -328963.47, 24970.73, 0.0091855535, 0.29614663, -37143.61, 202524.2, 0.0, 10.002202, 9.998359 
2.150451e+2, 2.8554586e+2, 52734.67, -268849.3, 5949.574, 0.0163712, 0.34057894, 52844.707, 194526.92, 0.0, 10.002311, 9.998047 
2.1504892e+2, 2.9554465e+2, 130124.91, -179396.05, 2159.1897, 0.00029763492, 0.40925923, 130139.97, 173834.89, 0.0, 10.002163, 9.998058 
2.1505223e+2, 3.0554116e+2, 179561.28, -160755.31, -25358.94, -0.02627823, 0.27013215, 181440.55, 181440.55, 0.0000002906552, 10.002298, 9.997788 
2.1505567e+2, 3.1554e+2, 293862.47, -6410.6245, 43802.793, -0.0030100425, 0.37160298, 300121.8, 300121.8, 0.0000060416633, 10.002657, 9.998676 
2.2497444e+2, 1.2554945e+2, -1908912.4, -1669534.4, 290.56567, 0.0058118263, 0.24464333, -1669534.1, 40108.895, 0.0003850475, 9.998071, 10.001241 
2.2497857e+2, 1.3555081e+2, -1810270.6, -1624924.5, 7186.235, -0.023230843, 0.3041583, -1624646.3, -13017.587, 0.00020561775, 9.998307, 10.00076 
2.249832e+2, 1.4555068e+2, -1692705.4, -1544607.4, 506.01547, -0.000040770658, 0.22865647, -1544605.6, -30975.578, 0.00007189719, 9.998556, 10.000516 
2.2498746e+2, 1.555517e+2, -1560137.4, -1436014.9, -709.977, -0.01361562, 0.27840045, -1436010.8, -20389.994, 0.000010694928, 9.998819, 10.000462 
2.2499181e+2, 1.6555212e+2, -1439540.9, -1363300.0, -1745.0178, -0.01913764, 0.29324794, -1363260.0, -45643.74, 0.000000092361944, 9.99913, 10.000139 
2.2499622e+2, 1.7555197e+2, -1291472.4, -1242510.0, -4152.2666, -0.017029684, 0.26033673, -1242160.4, -22543.604, 0.0, 9.99948, 10.000127 
2.2500072e+2, 1.8555173e+2, -1177973.6, -1178540.8, -2309.8105, -0.014787475, 0.24346095, -1175930.0, -54311.746, 0.0, 9.999765, 9.999756 
2.2500527e+2, 1.9555148e+2, -1047366.3, -1067300.6, -4521.4043, -0.012606243, 0.24145728, -1046388.75, -22768.957, 0.0, 10.000001, 9.999733 
2.2501004e+2, 2.0555101e+2, -936715.1, -1019747.7, 6355.3267, -0.00012473461, 0.24854116, -936231.5, -10606.688, 0.0, 10.000331, 9.999228 
2.2501501e+2, 2.1555035e+2, -778292.5, -891122.06, 11993.167, 0.020335298, 0.2565545, -777031.75, 50600.96, 0.0, 10.00074, 9.99924 
2.2501965e+2, 2.2554964e+2, -648374.6, -771496.3, 11313.048, 0.0101278415, 0.25840378, -647343.75, 82295.45, 0.0, 10.000932, 9.999296 
2.2502404e+2, 2.355489e+2, -551768.06, -680095.06, 7095.9897, -0.024282847, 0.25317815, -551376.9, 80267.336, 0.0, 10.000948, 9.999243 
2.2502857e+2, 2.455477e+2, -480075.94, -706203.8, -561.6743, -0.030825391, 0.2620937, -480074.56, 53582.438, 0.0, 10.001247, 9.998247 
2.250332e+2, 2.5554615e+2, -304225.38, -568210.25, 6816.5635, -0.015929395, 0.27779263, -304049.47, 131626.31, 0.0, 10.001771, 9.998269 
2.2503787e+2, 2.6554462e+2, -167775.33, -429661.97, 18100.81, -0.009203796, 0.28867388, -166530.19, 171162.38, 0.0, 10.001941, 9.9984665 
2.250426e+2, 2.7554312e+2, -89051.39, -343331.0, 16589.336, -0.0064279623, 0.29016498, -87973.664, 151733.94, 0.0, 10.001819, 9.998445 
2.2504716e+2, 2.855417e+2, 879.2199, -300973.94, -6001.339, 0.008227851, 0.33111626, 998.4893, 142720.92, 0.0, 10.001986, 9.997983 
2.2505143e+2, 2.955405e+2, 158103.45, -171718.72, -8552.014, 0.024466395, 0.4070299, 158325.05, 202061.03, 0.0, 10.00238, 9.998008 
2.250548e+2, 3.0553728e+2, 219133.64, -117010.58, -35920.203, -0.008017006, 0.28533572, 222929.19, 222929.19, 0.000000085825576, 10.002463, 9.998011 
2.2505803e+2, 3.1553638e+2, 244803.27, -24267.086, 34608.65, -0.01494947, 0.39285934, 249183.44, 249183.44, 0.0000031779714, 10.002295, 9.998728 
2.3497237e+2, 1.2554562e+2, -1932341.9, -1716937.6, 11825.44, -0.0087362155, 0.26140773, -1716290.4, -6610.457, 0.00032214387, 9.998066, 10.000917 
2.3497681e+2, 1.355468e+2, -1827846.4, -1660262.9, 16183.289, -0.028799262, 0.32679442, -1658714.4, -47045.79, 0.00016659255, 9.998302, 10.000519 
2.3498178e+2, 1.455465e+2, -1695258.0, -1549786.6, 10452.108, 0.0018743451, 0.24770068, -1549039.5, -35367.668, 0.00005400246, 9.998555, 10.000482 
2.3498628e+2, 1.5554734e+2, -1562426.3, -1441260.6, 9380.688, -0.0129865045, 0.28374124, -1440538.6, -24874.834, 0.000006396683, 9.998821, 10.000425 
2.34991e+2, 1.6554773e+2, -1443604.3, -1371795.9, 11356.622, -0.013611305, 0.300888, -1370042.5, -52382.98, 0.000000013163342, 9.99913, 10.00008 
2.3499587e+2, 1.7554769e+2, -1295619.0, -1251005.5, 8958.765, -0.0012735107, 0.28396875, -1249273.8, -29614.473, 0.0, 9.999479, 10.000069 
2.350006e+2, 1.8554726e+2, -1182728.0, -1188313.1, 6560.3735, -0.0048367498, 0.25652206, -1178390.5, -56728.035, 0.0, 9.999765, 9.999689 
2.3500519e+2, 1.9554664e+2, -1050951.9, -1074877.8, 4716.2417, -0.021303196, 0.22203109, -1050055.8, -26388.146, 0.0, 10.000001, 9.9996805 
2.3501031e+2, 2.0554632e+2, -925934.6, -997316.4, 21778.467, -0.006756566, 0.23871519, -919814.75, 5856.242, 0.0, 10.000331, 9.999381 
2.3501588e+2, 2.1554625e+2, -768682.25, -871010.5, 26747.69, 0.03269153, 0.2908996, -762112.44, 65560.43, 0.0, 10.000739, 9.999378 
2.3502071e+2, 2.2554544e+2, -655928.44, -786813.9, 11909.925, 0.022285117, 0.28192925, -654853.56, 74826.8, 0.0, 10.000931, 9.999191 
2.3502496e+2, 2.3554404e+2, -557911.94, -692840.56, 8797.521, -0.028022114, 0.22093192, -557340.75, 74351.23, 0.0, 10.000948, 9.999155 
2.3502982e+2, 2.4554291e+2, -467763.94, -680741.5, 19175.447, -0.031513073, 0.23053816, -466051.25, 67652.805, 0.0, 10.001247, 9.998422 
2.3503514e+2, 2.5554198e+2, -292978.5, -544615.25, 25289.64, 0.0024569351, 0.29357398, -290462.06, 145254.05, 0.0, 10.00177, 9.998431 
2.3503989e+2, 2.6554063e+2, -168881.7, -431879.3, 13264.136, -0.0017149292, 0.31234232, -168214.42, 169516.84, 0.0, 10.00194, 9.998451 
2.3504414e+2, 2.7553886e+2, -89920.45, -345281.4, 12911.026, -0.034823585, 0.288092, -89269.33, 150479.64, 0.0, 10.001819, 9.998431 
2.3504892e+2, 2.855373e+2, -2302.688, -307634.84, 8901.92, -0.013191699, 0.31668136, -2043.3738, 139722.22, 0.0, 10.001986, 9.997938 
2.3505403e+2, 2.9553604e+2, 155512.56, -177139.73, 5370.0635, 0.04561129, 0.3939839, 155599.23, 199379.22, 0.0, 10.002379, 9.997972 
2.3505746e+2, 3.0553308e+2, 235886.4, -82077.664, -42639.465, 0.012575777, 0.2875056, 241505.14, 241505.14, 0.000000016806371, 10.002463, 9.99825 
2.3506023e+2, 3.155324e+2, 249740.17, -14186.673, 28405.508, -0.024625251, 0.39322913, 252762.73, 252762.73, 0.0000014346882, 10.0022955, 9.998796 
2.4497052e+2, 1.2554127e+2, -1893901.9, -1719371.1, -19772.416, -0.017889915, 0.28252304, -1717159.1, -7436.4053, 0.00026278105, 9.998418, 10.000731 
2.449752e+2, 1.3554215e+2, -1791663.6, -1655624.3, -8654.852, -0.035610106, 0.3299766, -1655075.8, -43361.117, 0.00013053669, 9.998606, 10.000405 
2.4498044e+2, 1.4554177e+2, -1669573.3, -1540549.0, -9664.488, 0.0033352028, 0.24965039, -1539829.1, -26110.494, 0.000038366878, 9.998745, 10.000454 
2.4498518e+2, 1.5554264e+2, -1557909.5, -1442188.8, -9745.395, -0.0068868897, 0.29263392, -1441373.9, -25663.793, 0.000003303544, 9.998866, 10.000398 
2.4499018e+2, 1.6554302e+2, -1445879.9, -1379402.9, -972.48175, -0.008143318, 0.31077725, -1379388.6, -61682.51, 0.00000000018007511, 9.999144, 10.000022 
2.4499537e+2, 1.7554288e+2, -1289990.0, -1254348.1, -4022.8823, -0.0011111978, 0.29103118, -1253899.6, -34192.797, 0.0, 9.999545, 10.000014 
2.450004e+2, 1.8554243e+2, -1166834.5, -1181230.8, -7842.02, -0.004791865, 0.26392284, -1163387.9, -41677.477, 0.0, 9.999877, 9.999683 
2.450053e+2, 1.9554183e+2, -1028021.2, -1063333.4, -5030.3022, -0.017229738, 0.2317867, -1027318.56, -3603.133, 0.0, 10.000156, 9.999685 
2.4501061e+2, 2.0554157e+2, -914388.5, -976359.75, 13705.384, -0.0087525025, 0.24681874, -911492.75, 14225.103, 0.0, 10.000344, 9.999518 
2.450163e+2, 2.155416e+2, -800826.8, -872524.5, 17186.467, 0.016442971, 0.29465646, -796920.0, 30798.078, 0.0, 10.000459, 9.999503 
2.4502143e+2, 2.2554076e+2, -689047.8, -813496.5, 1124.8046, 0.011908881, 0.2819569, -689037.6, 40688.25, 0.0, 10.00075, 9.999096 
2.4502614e+2, 2.3553923e+2, -529747.94, -688040.8, -1061.4896, -0.016321765, 0.21689974, -529740.8, 101998.83, 0.0, 10.00118, 9.999077 
2.4503127e+2, 2.4553812e+2, -431757.2, -642153.0, 12783.815, -0.01845981, 0.2244836, -430983.28, 102767.73, 0.0, 10.001404, 9.998611 
2.4503672e+2, 2.555374e+2, -325781.78, -540913.8, 19565.924, 0.000008805927, 0.28782707, -324016.78, 111743.336, 0.0, 10.001461, 9.998606 
2.4504165e+2, 2.6553607e+2, -224319.5, -468118.3, -3629.7231, -0.00195993, 0.30848816, -224265.48, 113509.26, 0.0, 10.0016, 9.998366 
2.4504611e+2, 2.7553427e+2, -98058.65, -357692.06, -9102.248, -0.01839374, 0.28692567, -97739.94, 142053.9, 0.0, 10.0018, 9.998356 
2.4505098e+2, 2.8553268e+2, -2203.6143, -297342.16, -2370.5176, -0.0036923857, 0.31113207, -2184.576, 139626.17, 0.0, 10.001942, 9.99803 
2.4505608e+2, 2.9553142e+2, 112508.1, -188250.69, 3893.325, 0.029000219, 0.37942854, 112558.49, 156382.9, 0.0, 10.002044, 9.998056 
2.4505973e+2, 3.0552858e+2, 212495.9, -89177.65, -53439.637, 0.0014040351, 0.28095928, 221682.66, 221682.66, 0.0000000018495133, 10.002285, 9.998287 
2.4506296e+2, 3.1552774e+2, 290740.3, -6434.984, 2015.995, 0.002168034, 0.3677465, 290753.97, 290753.97, 0.00000052479436, 10.002629, 9.998689 
2.5496888e+2, 1.255364e+2, -1896891.6, -1724755.4, -10101.215, -0.022473853, 0.30758098, -1724164.6, -14393.046, 0.00020966213, 9.998414, 10.000697 
2.549737e+2, 1.3553688e+2, -1790025.3, -1652804.5, -2339.3208, -0.04539369, 0.3134557, -1652764.8, -40997.65, 0.00009902935, 9.998607, 10.000424 
2.549792e+2, 1.4553651e+2, -1670506.9, -1542816.5, -5716.8013, 0.0024895289, 0.23452912, -1542561.0, -28790.387, 0.000025643241, 9.998747, 10.000438 
2.5498417e+2, 1.5553766e+2, -1559364.3, -1444549.1, -4847.3774, 0.0042465525, 0.3052309, -1444344.9, -28585.42, 0.0000014046367, 9.998863, 10.000383 
2.549894e+2, 1.6553798e+2, -1450620.6, -1388731.6, 13986.499, -0.0031973503, 0.3231355, -1385717.6, -67961.67, 0.0, 9.999142, 9.999959 
2.5499478e+2, 1.7553756e+2, -1293678.9, -1262357.3, 10791.631, -0.017448533, 0.28183374, -1258999.1, -39239.633, 0.0, 9.999547, 9.999958 
2.5500017e+2, 1.8553723e+2, -1162332.8, -1172122.6, 2585.6685, -0.0157288, 0.2658968, -1161691.8, -39929.59, 0.0, 9.999878, 9.999745 
2.5500563e+2, 1.9553706e+2, -1023502.7, -1053919.1, 5252.6743, -0.0008782851, 0.27080652, -1022621.1, 1142.1366, 0.0, 10.000156, 9.99975 
2.55011e+2, 2.0553675e+2, -906138.1, -959056.8, 18016.56, -0.006471932, 0.27284673, -900586.6, 25178.822, 0.0, 10.000343, 9.999638 
2.550163e+2, 2.1553637e+2, -793179.8, -856552.75, 22254.889, -0.02870946, 0.26789457, -786145.3, 41623.016, 0.0, 10.000458, 9.999614 
2.5502187e+2, 2.2553557e+2, -694985.6, -825760.1, 17354.969, -0.02147592, 0.25813743, -692721.7, 37054.277, 0.0, 10.000749, 9.999012 
2.550276e+2, 2.3553444e+2, -534681.4, -698082.7, 14455.195, 0.010203513, 0.24087496, -533412.44, 98374.76, 0.0, 10.001179, 9.999008 
2.5503293e+2, 2.4553338e+2, -417329.47, -612072.9, 14809.687, 0.0077136625, 0.24411325, -416209.66, 117588.24, 0.0, 10.001403, 9.998818 
2.5503796e+2, 2.5553238e+2, -312605.63, -513393.2, 22076.91, -0.023448065, 0.26100075, -310206.9, 125600.914, 0.0, 10.00146, 9.9987955 
2.5504318e+2, 2.6553103e+2, -235342.56, -491158.97, 3861.9678, -0.010428862, 0.27727383, -235284.28, 102538.64, 0.0, 10.001601, 9.998208 
2.550485e+2, 2.7552935e+2, -107577.22, -377905.75, -1758.7913, 0.041324425, 0.2863134, -107565.77, 132276.45, 0.0, 10.001801, 9.998217 
2.550533e+2, 2.8552786e+2, 13807.632, -264341.6, 1180.0153, 0.035591144, 0.3142913, 13812.638, 155670.58, 0.0, 10.001943, 9.998256 
2.5505757e+2, 2.9552665e+2, 126701.08, -158723.14, 8150.5625, -0.025056465, 0.36362472, 126933.64, 170802.97, 0.0, 10.002044, 9.99826 
2.550616e+2, 3.0552384e+2, 201271.17, -112915.805, -40331.65, -0.04117416, 0.2656567, 206365.86, 206365.86, 0.000000000039700524, 10.002286, 9.998124 
2.550662e+2, 3.155225e+2, 271478.3, -47280.883, 14617.759, 0.06343522, 0.3171272, 272147.25, 272147.25, 0.00000015406697, 10.002632, 9.998407 
2.649674e+2, 1.255311e+2, -1888299.0, -1719785.8, -13428.76, -0.01438423, 0.3099317, -1718722.3, -8898.298, 0.00016490842, 9.998469, 10.000704 
2.6497227e+2, 1.3553157e+2, -1793744.6, -1648453.9, -6739.7896, -0.04747739, 0.30719817, -1648141.9, -36322.63, 0.000073287774, 9.998555, 10.00048 
2.64978e+2, 1.4553125e+2, -1659727.3, -1542357.3, -4245.075, 0.0051198034, 0.23179202, -1542203.9, -28381.533, 0.000016155976, 9.998841, 10.000395 
2.6498333e+2, 1.5553239e+2, -1497868.1, -1419105.0, -5630.397, 0.013806019, 0.30672207, -1418704.6, -2893.492, 0.00000046134082, 9.999304, 10.000345 
2.6498875e+2, 1.6553265e+2, -1398112.0, -1366615.5, 11093.662, 0.0012246881, 0.3216506, -1363100.4, -45292.176, 0.0, 9.9995165, 9.99993 
2.6499417e+2, 1.7553213e+2, -1298021.3, -1267182.6, 10242.209, -0.028682295, 0.2726854, -1264091.0, -44278.16, 0.0, 9.999529, 9.999934 
2.6499987e+2, 1.8553184e+2, -1179482.9, -1175464.8, 6600.698, -0.026858471, 0.26011094, -1170574.1, -48759.203, 0.0, 9.99974, 9.999789 
2.6500577e+2, 1.9553183e+2, -1027110.75, -1050880.5, 7337.9463, 0.000821367, 0.2767313, -1025027.94, -1213.4254, 0.0, 10.000112, 9.999792 
2.6501137e+2, 2.0553152e+2, -896064.44, -949102.0, 10606.353, -0.00455995, 0.27250355, -894022.06, 31794.527, 0.0, 10.000391, 9.999684 
2.6501676e+2, 2.1553098e+2, -769837.4, -840303.4, 9621.185, -0.03703789, 0.24681602, -768547.4, 59273.188, 0.0, 10.000597, 9.999659 
2.6502258e+2, 2.2553024e+2, -687206.06, -819399.75, 12201.708, -0.025800552, 0.24129741, -686089.25, 43738.316, 0.0, 10.000791, 9.999036 
2.6502877e+2, 2.3552938e+2, -562039.06, -708071.5, 16909.49, 0.021248914, 0.24864821, -560106.6, 71730.22, 0.0, 10.000977, 9.999038 
2.650343e+2, 2.4552839e+2, -448730.78, -615631.44, 9280.834, 0.018258605, 0.2518704, -448216.28, 85630.49, 0.0, 10.001137, 9.998922 
2.650393e+2, 2.555273e+2, -332777.53, -512184.1, 9179.147, -0.026218917, 0.24858324, -332309.13, 103547.805, 0.0, 10.001274, 9.998894 
2.6504472e+2, 2.6552594e+2, -251213.3, -501441.03, -1262.2952, -0.011821171, 0.2616993, -251206.92, 86665.04, 0.0, 10.001503, 9.998184 
2.6505044e+2, 2.7552435e+2, -107626.125, -379797.1, 2734.1042, 0.053055983, 0.2817049, -107598.66, 132292.3, 0.0, 10.00181, 9.998199 
2.6505542e+2, 2.8552288e+2, 32274.393, -246105.83, -384.1235, 0.048400465, 0.3080233, 32274.922, 174181.22, 0.0, 10.002031, 9.998338 
2.650597e+2, 2.9552165e+2, 150350.95, -139557.03, -3939.262, -0.020851586, 0.34578636, 150404.47, 194321.73, 0.0, 10.002173, 9.998328 
2.650639e+2, 3.0551898e+2, 201674.36, -125013.47, -49303.02, -0.040561784, 0.2670412, 208952.89, 208952.89, 0.0, 10.002343, 9.998013 
2.6506886e+2, 3.1551737e+2, 245111.16, -83127.24, 8394.805, 0.07052868, 0.30345923, 245325.72, 245325.72, 0.000000038019415, 10.002552, 9.9981985 
2.7496606e+2, 1.2552543e+2, -1884861.8, -1712522.3, -6634.001, 0.0037882684, 0.28913668, -1712267.3, -2387.3418, 0.00012966055, 9.998469, 10.000753 
2.749709e+2, 1.3552624e+2, -1787956.0, -1635167.4, -3674.3162, -0.042008705, 0.31210494, -1635079.0, -23207.773, 0.00005392466, 9.99855, 10.000572 
2.749769e+2, 1.4552599e+2, -1665373.8, -1553030.6, 12885.726, 0.010980355, 0.24237168, -1551571.6, -37697.977, 0.0000098627, 9.998837, 10.000324 
2.749827e+2, 1.5552688e+2, -1502105.3, -1428074.5, 10725.992, 0.019965064, 0.29737177, -1426551.8, -10686.719, 0.00000011248763, 9.999305, 10.000283 
2.749883e+2, 1.6552705e+2, -1397685.5, -1365998.3, 11212.075, 0.0031389594, 0.3063907, -1362432.4, -44569.418, 0.0, 9.999517, 9.999934 
2.7499366e+2, 1.7552657e+2, -1297756.4, -1266362.4, 11314.617, -0.035262547, 0.26392156, -1262709.5, -42842.875, 0.0, 9.999528, 9.99994 
2.7499947e+2, 1.8552628e+2, -1178184.9, -1172316.4, 20533.785, -0.038537405, 0.24677126, -1154508.3, -32639.443, 0.0, 9.999738, 9.999812 
2.7500573e+2, 1.9552615e+2, -1025785.7, -1048116.06, 21050.863, -0.012593491, 0.24975638, -1013122.3, 10746.928, 0.0, 10.000112, 9.999811 
2.7501178e+2, 2.0552583e+2, -897886.0, -952857.7, 18356.135, -0.0036796047, 0.24586597, -892320.06, 33551.266, 0.0, 10.00039, 9.999659 
2.7501765e+2, 2.1552537e+2, -771074.7, -842806.06, 17505.621, -0.009166031, 0.23151368, -767030.56, 60844.18, 0.0, 10.000596, 9.999641 
2.750236e+2, 2.2552477e+2, -678163.0, -800516.25, 19205.32, -0.001759955, 0.23156865, -675219.25, 54661.484, 0.0, 10.000791, 9.999166 
2.750297e+2, 2.3552404e+2, -553309.3, -689894.3, 23875.719, 0.016668925, 0.2402957, -549256.0, 82632.57, 0.0, 10.000977, 9.999163 
2.750354e+2, 2.4552315e+2, -448544.84, -615338.6, 14328.648, 0.012911285, 0.24751845, -447322.88, 86574.805, 0.0, 10.001138, 9.998924 
2.7504075e+2, 2.5552213e+2, -332155.13, -511070.56, 14599.764, -0.009266372, 0.25031868, -330971.6, 104935.89, 0.0, 10.001275, 9.998901 
2.7504626e+2, 2.655208e+2, -243513.1, -485531.2, 10049.687, -0.0068174093, 0.26189318, -243096.5, 94825.35, 0.0, 10.001504, 9.998294 
2.750519e+2, 2.7551925e+2, -100741.33, -365179.38, 14094.693, 0.017481098, 0.27315608, -99992.2, 139947.84, 0.0, 10.001808, 9.998301 
2.7505732e+2, 2.855177e+2, 27814.293, -254974.19, 4996.7554, 0.034731906, 0.2920688, 27902.557, 169858.45, 0.0, 10.002029, 9.998278 
2.750625e+2, 2.9551637e+2, 145952.73, -148725.31, 1460.9799, 0.03964391, 0.32594422, 145959.98, 189928.2, 0.0, 10.002173, 9.998265 
2.7506664e+2, 3.0551404e+2, 197235.34, -134624.36, -41663.383, 0.0016941966, 0.28496215, 202386.05, 202386.05, 0.0, 10.002344, 9.997946 
2.7507097e+2, 3.1551242e+2, 235067.5, -104361.12, 15656.115, 0.02329391, 0.32721868, 235788.11, 235788.11, 0.00000000643165, 10.002554, 9.998053 
2.8496468e+2, 1.2551993e+2, -1837211.4, -1700325.3, 15765.657, -0.0007737599, 0.270747, -1698532.9, 11400.435, 0.00010364884, 9.998842, 10.000658 
2.849698e+2, 1.3552095e+2, -1719986.9, -1608159.5, 2010.9768, -0.026524121, 0.3199347, -1608123.4, 3799.4792, 0.000040612387, 9.999042, 10.000522 
2.84976e+2, 1.4552067e+2, -1630861.6, -1547226.0, 16320.847, 0.023085847, 0.25641018, -1544153.9, -30228.37, 0.0000062724685, 9.999122, 10.000227 
2.8498173e+2, 1.5552126e+2, -1534084.4, -1453357.6, 11312.206, 0.00097018044, 0.29087317, -1451802.4, -35882.203, 0.000000028346124, 9.999128, 10.000195 
2.8498754e+2, 1.655214e+2, -1419449.9, -1375720.5, 10126.3955, -0.0128481565, 0.29930562, -1373489.4, -55570.83, 0.0, 9.999366, 9.999941 
2.8499344e+2, 1.755211e+2, -1259222.1, -1247224.4, 10275.791, -0.020712664, 0.2733034, -1241324.6, -21404.129, 0.0, 9.999791, 9.999945 
2.8499958e+2, 1.8552074e+2, -1130893.8, -1154331.6, 19115.203, -0.022686163, 0.252377, -1120191.1, 1731.8888, 0.0, 10.000084, 9.999768 
2.8500587e+2, 1.9552037e+2, -1005231.56, -1042761.5, 13978.837, -0.019165834, 0.23539715, -1000597.1, 23328.559, 0.0, 10.000273, 9.99977 
2.8501213e+2, 2.0552005e+2, -892893.9, -948711.56, 6363.006, -0.009307766, 0.23308484, -892177.7, 33750.145, 0.0, 10.000417, 9.999675 
2.8501835e+2, 2.1551979e+2, -779908.94, -844769.06, 8699.222, 0.0049270717, 0.2374899, -778762.44, 49167.08, 0.0, 10.000525, 9.999662 
2.8502446e+2, 2.2551925e+2, -687605.2, -795516.25, 11348.23, 0.009652908, 0.23978788, -686424.7, 43510.008, 0.0, 10.000684, 9.999251 
2.850305e+2, 2.3551853e+2, -561359.6, -684904.3, 12758.223, 0.00732114, 0.23769833, -560055.9, 71886.55, 0.0, 10.000882, 9.999243 
2.8503644e+2, 2.4551761e+2, -451864.22, -618227.9, 1695.3898, 0.0060808784, 0.24126428, -451846.94, 82104.76, 0.0, 10.001121, 9.998913 
2.850422e+2, 2.555166e+2, -315122.47, -502960.6, 865.2073, 0.005217169, 0.24642052, -315118.5, 120843.37, 0.0, 10.001393, 9.998899 
2.8504786e+2, 2.6551545e+2, -223409.05, -455905.56, -1953.433, 0.0011992898, 0.2632012, -223392.63, 114581.9, 0.0, 10.001556, 9.998471 
2.850534e+2, 2.7551413e+2, -115349.64, -353734.56, 7094.0986, -0.0034744202, 0.28180867, -115138.72, 124850.63, 0.0, 10.001629, 9.998465 
2.850591e+2, 2.855125e+2, -19857.492, -291664.84, -2821.403, 0.022712067, 0.29128245, -19828.209, 122177.87, 0.0, 10.001762, 9.998155 
2.8506485e+2, 2.955108e+2, 105586.13, -180957.7, -11290.579, 0.06746882, 0.302423, 106030.32, 150053.1, 0.0, 10.001953, 9.998149 
2.8506917e+2, 3.0550882e+2, 193432.02, -120001.43, -43886.625, 0.02059733, 0.2927425, 199461.02, 199461.02, 0.0, 10.002249, 9.998093 
2.8507328e+2, 3.1550738e+2, 251445.67, -84916.35, 28292.203, -0.0011893699, 0.34191915, 253808.8, 253808.8, 0.00000000043435586, 10.002617, 9.998156 
2.9496324e+2, 1.2551463e+2, -1853643.5, -1734965.6, 28777.396, -0.029498812, 0.25565904, -1728355.8, -18371.63, 0.000085497144, 9.998845, 10.00042 
2.9496908e+2, 1.355157e+2, -1733352.4, -1636511.3, 8666.8955, -0.0036043453, 0.3305677, -1635741.8, -23767.809, 0.000032281903, 9.999044, 10.000326 
2.9497528e+2, 1.4551534e+2, -1640149.3, -1566545.9, 16203.595, 0.038798433, 0.27382383, -1563136.6, -49158.613, 0.0000046245973, 9.999122, 10.000094 
2.949804e+2, 1.5551558e+2, -1543250.4, -1471683.5, 12212.988, -0.044011332, 0.28829253, -1469656.6, -53680.414, 0.00000001715619, 9.9991255, 10.000071 
2.9498658e+2, 1.655157e+2, -1419413.8, -1374794.4, 25978.117, -0.047169298, 0.30141303, -1362861.0, -44886.246, 0.0, 9.999362, 9.999949 
2.9499358e+2, 1.7551568e+2, -1259425.5, -1247082.5, 25823.248, 0.013781159, 0.30067477, -1226703.5, -6729.37, 0.0, 9.999788, 9.999947 
2.9500005e+2, 1.8551522e+2, -1139326.5, -1171331.0, 26226.299, 0.01952069, 0.27673706, -1124606.0, -2628.331, 0.0, 10.000082, 9.999653 
2.9500613e+2, 1.9551449e+2, -1012695.8, -1058088.8, 21080.674, -0.019285591, 0.23388225, -1004416.06, 19567.84, 0.0, 10.000272, 9.999666 
2.950124e+2, 2.0551418e+2, -888996.06, -940477.94, 10449.3955, -0.021699842, 0.23417658, -886956.0, 39030.133, 0.0, 10.000417, 9.999731 
2.9501885e+2, 2.1551424e+2, -775866.44, -836406.6, 13115.31, 0.004954126, 0.2645565, -773147.3, 54837.613, 0.0, 10.000525, 9.99972 
2.950251e+2, 2.2551373e+2, -684642.5, -789353.1, 18769.74, 0.008113657, 0.2658241, -681379.6, 48609.836, 0.0, 10.000684, 9.999294 
2.9503125e+2, 2.3551281e+2, -558721.2, -679376.25, 20400.67, -0.007209216, 0.24087699, -555365.1, 76633.24, 0.0, 10.000882, 9.999281 
2.9503748e+2, 2.455118e+2, -453721.56, -622078.9, 11906.657, -0.0028052693, 0.23326579, -452883.66, 81125.12, 0.0, 10.001121, 9.998886 
2.9504374e+2, 2.5551075e+2, -315957.78, -504589.8, 10875.576, 0.016837236, 0.23677367, -315332.8, 120687.234, 0.0, 10.001392, 9.998889 
2.9504952e+2, 2.655098e+2, -206433.2, -420428.97, 624.93994, 0.011858437, 0.26531577, -206431.38, 131598.64, 0.0, 10.001556, 9.998715 
2.9505497e+2, 2.7550897e+2, -99739.0, -321066.53, 9843.381, -0.010567408, 0.3074294, -99302.086, 140736.84, 0.0, 10.001628, 9.99869 
2.9506075e+2, 2.8550726e+2, -33233.363, -319342.53, 4110.038, 0.011657008, 0.3055408, -33174.332, 108882.57, 0.0, 10.001761, 9.997965 
2.9506674e+2, 2.9550496e+2, 93554.914, -205860.42, -3626.3945, 0.062708616, 0.27523288, 93598.83, 137679.77, 0.0, 10.001953, 9.997978 
2.9507136e+2, 3.055033e+2, 218037.6, -68859.914, -29884.377, 0.016059017, 0.29089734, 221117.4, 221117.4, 0.0, 10.002249, 9.998444 
2.9507586e+2, 3.1550232e+2, 276021.75, -34583.285, 41392.82, -0.004642863, 0.3474472, 281443.34, 281443.34, 0.0, 10.00262, 9.9985 
3.049625e+2, 1.2550916e+2, -1790831.3, -1724076.0, 11052.712, -0.01283424, 0.25924057, -1722293.6, -12256.436, 0.000073591786, 9.999361, 10.000245 
3.0496812e+2, 1.3551003e+2, -1715962.0, -1643212.9, -11556.997, -0.014050161, 0.32611507, -1641421.0, -29391.424, 0.000027638554, 9.999229, 10.000191 
3.0497438e+2, 1.4550959e+2, -1623936.1, -1569068.9, 2813.3198, 0.026596485, 0.27343428, -1568925.0, -54890.38, 0.000004191702, 9.999279, 10.000001 
3.049797e+2, 1.5550978e+2, -1496067.8, -1459249.3, 2386.587, -0.043460064, 0.2928919, -1459095.1, -43061.883, 0.000000032166714, 9.9994955, 9.999978 
3.0498615e+2, 1.6550985e+2, -1373209.5, -1362463.1, 21499.824, -0.043707754, 0.30992562, -1345675.3, -27642.691, 0.0, 9.999723, 9.999859 
3.0499345e+2, 1.7550977e+2, -1239187.3, -1247031.1, 12847.242, 0.01092356, 0.3128222, -1229676.6, -9643.773, 0.0, 9.99997, 9.99986 
3.0500016e+2, 1.855093e+2, -1133675.4, -1168876.3, 7236.2466, 0.01800669, 0.29115558, -1132245.9, -10209.181, 0.0, 10.000122, 9.99965 
3.0500644e+2, 1.9550854e+2, -1023222.44, -1062915.8, 10663.218, -0.013106283, 0.24892639, -1020539.25, 3503.5198, 0.0, 10.000199, 9.999667 
3.0501288e+2, 2.0550822e+2, -889288.56, -938097.06, 5164.8374, -0.015955877, 0.24655914, -888748.0, 37297.02, 0.0, 10.000404, 9.999753 
3.0501947e+2, 2.1550827e+2, -746638.2, -819729.8, 4867.1177, 0.0036195496, 0.27231437, -746315.56, 81728.516, 0.0, 10.000715, 9.999743 
3.0502588e+2, 2.255078e+2, -651886.8, -766205.44, 7166.3125, 0.004286543, 0.27132306, -651439.3, 78608.734, 0.0, 10.000877, 9.99936 
3.0503213e+2, 2.3550692e+2, -549050.7, -667682.2, 10787.44, -0.009993788, 0.24565367, -548077.75, 83978.18, 0.0, 10.000918, 9.999344 
3.0503857e+2, 2.455059e+2, -464214.3, -628002.5, 8363.633, -0.002887673, 0.23577587, -463788.34, 70277.984, 0.0, 10.001052, 9.9988785 
3.0504507e+2, 2.5550482e+2, -334617.4, -513671.44, 8355.75, 0.020695304, 0.23581877, -334228.3, 101850.195, 0.0, 10.001265, 9.998888 
3.050511e+2, 2.6550397e+2, -219183.33, -415300.28, -12371.844, 0.018049661, 0.26514536, -218405.95, 119681.83, 0.0, 10.001421, 9.998816 
3.050566e+2, 2.7550328e+2, -106736.03, -313541.4, -13876.332, -0.003372742, 0.31192052, -105809.1, 134285.58, 0.0, 10.001534, 9.998786 
3.0506247e+2, 2.8550157e+2, -41253.035, -322347.38, -12773.043, 0.012422173, 0.30508178, -40673.816, 101438.72, 0.0, 10.001704, 9.997972 
3.0506858e+2, 2.9549912e+2, 88375.82, -207592.08, -5680.0713, 0.051069383, 0.2615376, 88484.79, 132622.88, 0.0, 10.001915, 9.997985 
3.050735e+2, 3.054977e+2, 213827.5, -62119.74, -30711.014, 0.007385973, 0.29653853, 217204.11, 217204.11, 0.0, 10.002182, 9.998523 
3.0507854e+2, 3.1549653e+2, 266530.28, -26169.875, 18897.84, 0.007007742, 0.32586548, 267745.38, 267745.38, 0.0, 10.002499, 9.998616 
3.1496248e+2, 1.2550355e+2, -1798865.1, -1741033.5, 13038.787, 0.04700734, 0.281355, -1738229.8, -28137.467, 0.00006650563, 9.999363, 10.000128 
3.149669e+2, 1.3550392e+2, -1721576.4, -1654960.5, -16188.109, -0.05933679, 0.30750522, -1651235.0, -39145.188, 0.000025576577, 9.99923, 10.00011 
3.149732e+2, 1.4550343e+2, -1627542.0, -1576378.1, 10774.522, -0.014730779, 0.25625, -1574201.8, -60106.53, 0.000004447986, 9.999278, 9.999951 
3.1497964e+2, 1.5550385e+2, -1500257.1, -1467554.1, 10719.923, 0.0009210389, 0.3040012, -1464353.5, -48262.29, 0.00000006594377, 9.999494, 9.999922 
3.1498626e+2, 1.6550383e+2, -1387738.5, -1392140.6, 30832.902, -0.0040840358, 0.32410917, -1359028.1, -40936.473, 0.0, 9.999722, 9.999656 
3.14993e+2, 1.7550339e+2, -1252471.9, -1274246.4, 21978.094, -0.029735815, 0.31045142, -1238832.3, -18735.686, 0.0, 9.999969, 9.999674 
3.1499982e+2, 1.8550295e+2, -1126147.9, -1153052.4, 10062.588, -0.027734756, 0.29631364, -1122800.8, -700.59393, 0.0, 10.000121, 9.99976 
3.1500673e+2, 1.9550258e+2, -1016065.8, -1047784.8, 14110.602, -0.0012782855, 0.2802225, -1010697.2, 13405.169, 0.0, 10.000198, 9.999772 
3.1501353e+2, 2.0550223e+2, -890457.6, -940220.5, 16986.543, 0.007187922, 0.26998538, -885212.2, 40892.508, 0.0, 10.000402, 9.99974 
3.1502014e+2, 2.1550189e+2, -747462.1, -821160.06, 16271.484, 0.0003753504, 0.2609344, -744029.5, 84077.445, 0.0, 10.000714, 9.999734 
3.1502667e+2, 2.2550143e+2, -645690.8, -753401.44, 8839.383, -0.0024150365, 0.256434, -644970.2, 85140.336, 0.0, 10.000877, 9.999448 
3.1503314e+2, 2.3550086e+2, -542882.6, -655118.6, 12711.738, -0.0014557857, 0.25201443, -541460.94, 90654.2, 0.0, 10.000919, 9.99943 
3.150397e+2, 2.4549995e+2, -463383.47, -626468.6, 16179.959, 0.00540197, 0.24867731, -461793.72, 72330.7, 0.0, 10.001053, 9.998889 
3.1504628e+2, 2.5549883e+2, -334113.8, -512393.97, 16086.331, 0.016441412, 0.24345069, -332673.97, 103463.32, 0.0, 10.001264, 9.998898 
3.1505248e+2, 2.6549783e+2, -222301.89, -421599.5, -8204.336, 0.019110313, 0.26274362, -221964.72, 116183.12, 0.0, 10.00142, 9.998773 
3.1505835e+2, 2.75497e+2, -108827.86, -317956.34, -9324.239, 0.017150473, 0.29578167, -108412.945, 131743.56, 0.0, 10.001534, 9.998755 
3.150643e+2, 2.8549537e+2, -27316.215, -293692.78, -5030.7, 0.024394777, 0.29039416, -27221.24, 114951.69, 0.0, 10.001705, 9.998168 
3.1507027e+2, 2.9549325e+2, 101226.26, -181595.94, 2168.3713, 0.03246434, 0.26047167, 101242.88, 145437.28, 0.0, 10.001918, 9.998162 
3.1507552e+2, 3.0549198e+2, 200876.7, -89603.66, -19229.568, -0.005948597, 0.30859026, 202144.16, 202144.16, 0.0, 10.002185, 9.998333 
3.1508127e+2, 3.1549e+2, 259088.58, -41796.125, 29353.965, 0.03077987, 0.27912527, 261925.58, 261925.58, 0.0, 10.0025, 9.998508 
3.2496202e+2, 1.2549749e+2, -1795887.5, -1752984.5, 74.05518, 0.061076432, 0.28499898, -1752984.4, -42832.633, 0.00006287029, 9.999442, 10.000007 
3.249661e+2, 1.3549778e+2, -1695792.4, -1652021.0, -37597.77, -0.07274402, 0.31037292, -1630402.9, -18252.287, 0.000025189593, 9.999449, 10.000024 
3.2497254e+2, 1.4549723e+2, -1584572.5, -1557301.1, 1170.2306, -0.026471697, 0.2598262, -1557251.0, -43094.594, 0.0000050024137, 9.99958, 9.999936 
3.2497942e+2, 1.554976e+2, -1450977.4, -1445653.5, 3063.3025, 0.011118402, 0.3011992, -1444257.1, -28104.604, 0.000000115129794, 9.99984, 9.999905 
3.2498625e+2, 1.6549747e+2, -1357767.4, -1387035.3, 25707.73, 0.007682053, 0.31720203, -1342820.3, -24666.371, 0.0, 9.999968, 9.999573 
3.2499292e+2, 1.7549692e+2, -1254901.3, -1283897.0, 26005.049, -0.03422134, 0.30198413, -1239625.8, -19465.854, 0.0, 9.9999895, 9.999597 
3.2499987e+2, 1.8549652e+2, -1119566.3, -1145951.8, 16706.54, -0.034087323, 0.293452, -1111471.5, 10691.744, 0.0, 10.000151, 9.999794 
3.2500708e+2, 1.9549629e+2, -980195.44, -1027343.75, 14535.871, 0.0024900322, 0.28895757, -976074.25, 48089.84, 0.0, 10.000431, 9.999801 
3.2501402e+2, 2.0549592e+2, -869382.25, -934413.9, 13177.989, 0.013086502, 0.27793247, -866813.3, 59353.21, 0.0, 10.000566, 9.999701 
3.2502082e+2, 2.1549545e+2, -769238.9, -835394.7, 10381.845, 0.0015794471, 0.25786835, -767647.94, 60522.25, 0.0, 10.000581, 9.999701 
3.250275e+2, 2.2549494e+2, -662702.1, -758030.0, 19.82384, -0.0006067381, 0.24763691, -662702.1, 67472.15, 0.0, 10.000746, 9.999479 
3.2503417e+2, 2.3549438e+2, -523379.63, -641615.0, -366.39188, 0.0051570325, 0.2417697, -523378.5, 108800.1, 0.0, 10.001036, 9.999466 
3.2504088e+2, 2.454936e+2, -438087.38, -604451.0, 2947.743, 0.010218677, 0.24442215, -438035.16, 96151.414, 0.0, 10.001184, 9.998977 
3.2504752e+2, 2.554927e+2, -334832.94, -503783.22, 8594.195, 0.01415624, 0.2517548, -334396.88, 101800.336, 0.0, 10.001221, 9.998978 
3.250539e+2, 2.6549166e+2, -232540.81, -434857.7, -11833.418, 0.018793436, 0.2690556, -231851.03, 106357.04, 0.0, 10.001386, 9.998698 
3.2506004e+2, 2.754906e+2, -95602.43, -319210.16, -15378.795, 0.025893347, 0.28834608, -94549.695, 145669.42, 0.0, 10.001658, 9.998688 
3.2506618e+2, 2.8548893e+2, -4199.8296, -283300.5, -20364.94, 0.034025792, 0.28058314, -2721.704, 139514.42, 0.0, 10.001867, 9.998161 
3.250723e+2, 2.9548687e+2, 115744.43, -176683.06, -28262.025, 0.03647444, 0.2566903, 118450.805, 162707.69, 0.0, 10.002027, 9.998143 
3.2507777e+2, 3.054857e+2, 202753.48, -112166.12, -51948.95, -0.006773175, 0.32874545, 211101.66, 211101.66, 0.0, 10.002299, 9.998122 
3.2508382e+2, 3.154833e+2, 276452.7, -42387.617, -5901.121, 0.029979955, 0.2751337, 276561.88, 276561.88, 0.0, 10.002658, 9.998427 
3.349611e+2, 1.2549102e+2, -1804775.6, -1771890.4, 9566.982, 0.026125073, 0.27146128, -1769309.6, -59094.2, 0.000061273975, 9.999445, 9.999876 
3.3496574e+2, 1.3549158e+2, -1702390.0, -1665169.8, -36729.766, -0.055764906, 0.33432713, -1642604.5, -30392.541, 0.000025556885, 9.999446, 9.999935 
3.3497226e+2, 1.4549102e+2, -1584643.8, -1556805.8, 11239.074, -0.009754493, 0.2834596, -1552834.6, -38616.715, 0.0000055599335, 9.9995775, 9.999941 
3.34979e+2, 1.5549096e+2, -1450238.8, -1444044.5, 12757.205, -0.01407122, 0.28541392, -1434013.9, -17796.53, 0.00000016881297, 9.99984, 9.999915 
3.3498603e+2, 1.6549076e+2, -1355036.1, -1381423.4, 26581.941, -0.009647728, 0.2900614, -1338553.6, -20334.596, 0.0, 9.999968, 9.999611 
3.349932e+2, 1.7549036e+2, -1252658.6, -1278953.8, 27537.758, -0.0033929746, 0.28675637, -1235290.9, -15067.717, 0.0, 9.999988, 9.999632 
3.3500034e+2, 1.8549001e+2, -1123238.8, -1153187.8, 27396.59, -0.0019030542, 0.2819132, -1106991.3, 15234.931, 0.0, 10.000149, 9.999745 
3.350075e+2, 1.9548972e+2, -983988.6, -1035011.94, 24851.45, -0.0019766358, 0.27526987, -973885.1, 50342.914, 0.0, 10.000429, 9.999748 
3.350145e+2, 2.0548935e+2, -874060.6, -943936.56, 13830.421, 0.0014524723, 0.27071217, -871422.8, 54807.855, 0.0, 10.000565, 9.999636 
3.3502144e+2, 2.1548894e+2, -773585.8, -844472.1, 11644.679, 0.0066922996, 0.26304826, -771721.94, 56511.93, 0.0, 10.000581, 9.999638 
3.3502835e+2, 2.2548828e+2, -664272.2, -761419.44, 10912.553, 0.008958371, 0.24504027, -663061.44, 67177.86, 0.0, 10.000746, 9.999456 
3.3503523e+2, 2.3548748e+2, -524119.1, -643151.94, 10152.318, 0.009400695, 0.21523803, -523259.4, 108986.93, 0.0, 10.001036, 9.999455 
3.3504206e+2, 2.4548683e+2, -426675.3, -580821.5, 4277.611, 0.011080371, 0.22327103, -426556.72, 107696.06, 0.0, 10.001185, 9.999139 
3.3504874e+2, 2.5548637e+2, -324388.6, -482110.06, 10381.1045, 0.013397262, 0.26059163, -323708.25, 112550.15, 0.0, 10.001221, 9.999126 
3.3505526e+2, 2.6548544e+2, -239909.03, -450186.16, -1777.0845, 0.016800433, 0.2839024, -239894.02, 98374.55, 0.0, 10.001386, 9.998592 
3.3506164e+2, 2.7548414e+2, -103107.88, -334730.22, -5501.912, 0.022697786, 0.2889548, -102977.266, 137305.28, 0.0, 10.001658, 9.998581 
3.350681e+2, 2.8548223e+2, -18658.324, -313272.2, -14671.116, 0.040500242, 0.27498758, -17929.54, 124372.625, 0.0, 10.001867, 9.997955 
3.3507457e+2, 2.9547998e+2, 101020.43, -207256.58, -21852.207, 0.06183867, 0.25099644, 102561.72, 146887.11, 0.0, 10.002027, 9.997933 
3.3508018e+2, 3.054789e+2, 186739.48, -145977.38, -38285.656, 0.0043154233, 0.3575508, 191088.16, 191088.16, 0.0, 10.0023, 9.997889 
3.3508626e+2, 3.154764e+2, 272973.0, -50804.992, 6812.859, 0.0038089133, 0.31044403, 273116.28, 273116.28, 0.0, 10.002662, 9.998368 
3.449603e+2, 1.254845e+2, -1792561.5, -1761991.6, 651.0748, -0.0011232638, 0.27782962, -1761977.8, -51697.77, 0.000060228966, 9.999509, 9.999913 
3.449654e+2, 1.3548507e+2, -1673868.8, -1643807.8, -42450.75, -0.039766915, 0.33336067, -1613805.1, -1529.1373, 0.000025763518, 9.999607, 10.000004 
3.4497207e+2, 1.454845e+2, -1569065.9, -1559748.5, 13885.867, 0.006412397, 0.2867123, -1549760.6, -35478.92, 0.000005876301, 9.999729, 9.999847 
3.449787e+2, 1.5548445e+2, -1448139.4, -1452269.5, 7941.398, -0.03103166, 0.29530758, -1441998.9, -25717.064, 0.0000002059256, 9.999894, 9.999832 
3.4498584e+2, 1.6548419e+2, -1340163.4, -1366782.0, 14682.558, -0.026058167, 0.29484677, -1333655.6, -15371.722, 0.0, 10.000037, 9.999678 
3.449934e+2, 1.7548372e+2, -1221481.4, -1257283.8, 17687.139, 0.0073374184, 0.27753097, -1214217.4, 6070.5405, 0.0, 10.000173, 9.999691 
3.4500077e+2, 1.8548332e+2, -1100121.4, -1149897.1, 23425.77, 0.0150345415, 0.27089763, -1090830.8, 31460.324, 0.0, 10.00034, 9.999675 
3.4500802e+2, 1.9548304e+2, -973459.44, -1037410.8, 19066.277, 0.0043028696, 0.27235025, -968206.56, 56086.61, 0.0, 10.000534, 9.9996805 
3.4501508e+2, 2.0548265e+2, -864396.3, -945279.9, 887.1839, -0.0006303882, 0.27121627, -864386.6, 61909.68, 0.0, 10.000658, 9.999581 
3.4502196e+2, 2.1548218e+2, -756531.3, -842009.44, -105.83092, -0.0022360994, 0.26292384, -756531.2, 71768.984, 0.0, 10.000723, 9.999587 
3.4502912e+2, 2.2548151e+2, -646690.75, -752159.6, 8204.116, 0.004542607, 0.2447144, -646056.4, 84249.56, 0.0, 10.000863, 9.999463 
3.4503642e+2, 2.3548071e+2, -518784.5, -639236.7, 9062.036, 0.019117167, 0.21550676, -518106.53, 114206.445, 0.0, 10.001067, 9.999468 
3.4504333e+2, 2.4548014e+2, -416436.22, -564971.75, -5080.594, 0.02119925, 0.22367716, -416262.63, 118055.984, 0.0, 10.001208, 9.999236 
3.4504998e+2, 2.5547975e+2, -306536.53, -463493.47, -3473.941, 0.012246614, 0.2604518, -306459.7, 129863.125, 0.0, 10.0013, 9.999216 
3.4505665e+2, 2.6547882e+2, -237290.97, -461341.0, -11235.5, 0.012362298, 0.28408846, -236728.95, 101604.26, 0.0, 10.001457, 9.998482 
3.450633e+2, 2.7547738e+2, -108442.164, -349109.3, -15560.685, 0.021845445, 0.29033956, -107440.24, 132908.61, 0.0, 10.001672, 9.998476 
3.4507e+2, 2.8547546e+2, -15027.027, -310569.22, -18222.553, 0.042397954, 0.276708, -13907.699, 128461.33, 0.0, 10.001887, 9.997965 
3.4507668e+2, 2.9547322e+2, 112319.04, -201887.55, -9085.48, 0.065856524, 0.2514334, 112581.53, 156973.56, 0.0, 10.002104, 9.997933 
3.4508252e+2, 3.0547222e+2, 178651.61, -171693.56, -12065.523, 0.009309561, 0.37823543, 179066.64, 179066.64, 0.0, 10.002338, 9.997694 
3.4508896e+2, 3.1546947e+2, 262931.88, -55448.918, 34056.51, 0.013595398, 0.3291104, 266534.1, 266534.1, 0.0, 10.002593, 9.998369 
3.549596e+2, 1.254779e+2, -1778510.1, -1731085.1, 14323.332, -0.022332363, 0.30262786, -1727094.9, -16749.238, 0.00005843651, 9.999501, 10.000129 
3.5496515e+2, 1.3547818e+2, -1657693.1, -1610286.3, -38554.36, -0.0263735, 0.30761793, -1588731.6, 23611.15, 0.000025162195, 9.999607, 10.000235 
3.5497195e+2, 1.4547774e+2, -1581834.9, -1586669.9, 20076.443, 0.0202606, 0.26980615, -1564030.9, -49683.22, 0.0000057861466, 9.999731, 9.999662 
3.5497847e+2, 1.5547802e+2, -1460443.8, -1477474.1, 14380.5205, -0.040574733, 0.33015266, -1452246.4, -35900.32, 0.00000020730299, 9.999892, 9.9996605 
3.549857e+2, 1.6547774e+2, -1334243.4, -1354323.4, 19905.13, -0.042200524, 0.33100364, -1321989.5, -3641.065, 0.0, 10.000036, 9.9997635 
3.5499346e+2, 1.7547695e+2, -1215959.0, -1245903.4, 23140.768, -0.0026510723, 0.27461034, -1203369.3, 16984.934, 0.0, 10.000173, 9.999769 
3.550011e+2, 1.8547648e+2, -1106360.0, -1162827.6, 30807.984, 0.01587544, 0.2607043, -1092805.3, 29552.586, 0.0, 10.0003395, 9.999587 
3.550087e+2, 1.954763e+2, -979358.06, -1049657.6, 26372.893, 0.020542916, 0.28007463, -970564.3, 53795.316, 0.0, 10.000534, 9.999598 
3.550158e+2, 2.0547585e+2, -867544.0, -951769.0, 3359.3525, 0.0062414943, 0.2793766, -867410.2, 58953.3, 0.0, 10.000657, 9.999537 
3.550225e+2, 2.1547519e+2, -759176.2, -847544.9, 2798.1946, -0.025360355, 0.25753638, -759087.7, 69281.484, 0.0, 10.000723, 9.999549 
3.550298e+2, 2.254746e+2, -644288.8, -747327.8, 15965.723, -0.014143182, 0.24647397, -641871.7, 88502.62, 0.0, 10.000864, 9.999496 
3.550376e+2, 2.3547408e+2, -516642.25, -634773.1, 16581.879, 0.033752974, 0.24212377, -514358.8, 118019.875, 0.0, 10.001066, 9.999498 
3.5504475e+2, 2.4547346e+2, -414046.44, -559820.25, -1803.1199, 0.039897367, 0.2453266, -414024.13, 120360.09, 0.0, 10.001207, 9.999272 
3.5505128e+2, 2.5547284e+2, -304338.2, -458798.28, -1.2898809, 0.010185664, 0.25155994, -304338.2, 132052.3, 0.0, 10.0013, 9.9992485 
3.55058e+2, 2.6547182e+2, -245224.39, -477877.84, -3327.6309, 0.00503747, 0.26987386, -245176.81, 93225.2, 0.0, 10.001457, 9.998368 
3.5506496e+2, 2.7547044e+2, -115500.13, -363739.44, -7424.0303, 0.022801971, 0.2929763, -115278.3, 125139.63, 0.0, 10.001671, 9.998376 
3.5507187e+2, 2.8546864e+2, 434.278, -278498.66, -10316.696, 0.039458547, 0.28582686, 815.33386, 143252.03, 0.0, 10.001887, 9.998185 
3.550786e+2, 2.9546654e+2, 126936.68, -171789.97, -1218.9431, 0.04838985, 0.25668174, 126941.65, 171398.67, 0.0, 10.002105, 9.99814 
3.5508484e+2, 3.0546567e+2, 167440.7, -195184.27, -2961.8088, 0.0071177543, 0.39046624, 167464.89, 167464.89, 0.0, 10.002339, 9.997533 
3.55092e+2, 3.1546268e+2, 266418.25, -47692.227, 42899.043, 0.05576483, 0.33095455, 272171.72, 272171.72, 0.0, 10.00259, 9.998424 
3.6495888e+2, 1.2547089e+2, -1827377.1, -1756342.1, 26611.998, -0.025150333, 0.29964563, -1747478.5, -37064.375, 0.000055122826, 9.999173, 10.0001135 
3.6496475e+2, 1.3547121e+2, -1654681.4, -1606299.8, -54194.36, -0.02721271, 0.30461273, -1571142.3, 41268.855, 0.000023501116, 9.999617, 10.000257 
3.6497173e+2, 1.4547083e+2, -1561619.5, -1574996.9, -141.07935, 0.02016081, 0.2710127, -1561618.0, -47202.51, 0.00000526637, 9.999861, 9.99968 
3.649785e+2, 1.5547115e+2, -1450055.1, -1470846.1, 9380.06, -0.033186987, 0.33399907, -1446448.8, -30035.363, 0.00000017249042, 9.999956, 9.999676 
3.6498588e+2, 1.6547088e+2, -1320577.5, -1353591.5, 19607.432, -0.03797625, 0.33939224, -1311453.9, 6961.7104, 0.0, 10.0001545, 9.999712 
3.649937e+2, 1.7547013e+2, -1179457.0, -1234003.8, 12284.88, -0.012179276, 0.2892373, -1176818.0, 43603.46, 0.0, 10.000447, 9.999719 
3.650014e+2, 1.8546957e+2, -1085969.9, -1160316.3, 9950.588, 0.003112207, 0.27296427, -1084661.1, 37765.02, 0.0, 10.000511, 9.999521 
3.650091e+2, 1.9546923e+2, -1005127.1, -1068732.9, 7390.598, 0.013282604, 0.28286514, -1004279.7, 20149.904, 0.0, 10.000385, 9.999538 
3.6501643e+2, 2.0546874e+2, -876856.6, -949278.75, -2698.7483, 0.008377252, 0.2801415, -876756.2, 49677.355, 0.0, 10.000563, 9.9996 
3.6502346e+2, 2.154682e+2, -715624.0, -819513.75, 4126.7017, -0.010638022, 0.26239547, -715460.3, 112977.55, 0.0, 10.000991, 9.999612 
3.6503085e+2, 2.2546767e+2, -607925.9, -729023.75, 12321.052, -0.004187525, 0.25459427, -606685.0, 123757.26, 0.0, 10.00111, 9.999503 
3.6503854e+2, 2.3546718e+2, -529870.8, -640635.75, 11200.108, 0.024407344, 0.25288144, -528749.7, 103696.72, 0.0, 10.000974, 9.999503 
3.6504582e+2, 2.4546653e+2, -436371.3, -573505.25, -4644.3, 0.033079788, 0.25153774, -436214.2, 98238.336, 0.0, 10.001066, 9.999247 
3.650527e+2, 2.5546575e+2, -297971.25, -458144.88, -7684.1045, 0.023906915, 0.24702425, -297603.44, 138856.69, 0.0, 10.001353, 9.999228 
3.6505967e+2, 2.6546472e+2, -227885.48, -463891.75, -7057.424, 0.017983817, 0.2649358, -227674.63, 110796.78, 0.0, 10.001551, 9.99842 
3.650666e+2, 2.754635e+2, -110664.83, -355947.47, 1345.06, 0.017073097, 0.29685178, -110657.45, 129828.24, 0.0, 10.00168, 9.9984255 
3.650737e+2, 2.8546172e+2, 4201.8525, -278387.5, -1348.3585, 0.033228796, 0.29102612, 4208.286, 146712.58, 0.0, 10.001919, 9.998171 
3.6508086e+2, 2.9545957e+2, 146641.58, -163811.34, -10029.684, 0.057135005, 0.2554122, 146965.27, 191491.11, 0.0, 10.002245, 9.998128 
3.6508724e+2, 3.0545872e+2, 169301.78, -190905.97, -18825.738, 0.015536719, 0.38913962, 170283.0, 170283.0, 0.0, 10.0023365, 9.997564 
3.650944e+2, 3.154557e+2, 233558.97, -35488.19, 40785.617, 0.05513646, 0.32674435, 239605.88, 239605.88, 0.0, 10.002242, 9.998676 
3.7495822e+2, 1.2546352e+2, -1845931.8, -1792794.9, 54258.44, -0.010788181, 0.26900068, -1758949.3, -48464.047, 0.00005010573, 9.999165, 9.999867 
3.749642e+2, 1.3546413e+2, -1668634.1, -1633886.5, -38249.938, -0.042840786, 0.3240288, -1609249.5, 3231.6582, 0.000020857056, 9.999611, 10.000071 
3.7497148e+2, 1.4546376e+2, -1546577.5, -1543326.4, 3312.596, 0.0055102855, 0.2901952, -1541262.0, -26776.775, 0.000004428325, 9.999858, 9.999898 
3.7497866e+2, 1.5546383e+2, -1435958.5, -1441771.1, 13339.928, -0.009793623, 0.3070947, -1425212.0, -8728.154, 0.00000011962439, 9.999956, 9.999875 
3.7498623e+2, 1.6546366e+2, -1333345.6, -1380416.0, 30532.37, -0.014435649, 0.32008803, -1318330.4, 154.92195, 0.0, 10.000155, 9.999528 
3.74994e+2, 1.7546321e+2, -1191798.1, -1259780.0, 22775.512, -0.021627191, 0.32109183, -1184873.3, 35616.504, 0.0, 10.000447, 9.999542 
3.7500164e+2, 1.8546258e+2, -1089070.1, -1166894.8, 5261.719, -0.023858065, 0.30757177, -1088716.0, 33779.785, 0.0, 10.000511, 9.999476 
3.7500915e+2, 1.9546182e+2, -1007497.75, -1073784.0, 3802.4392, -0.017706094, 0.2806958, -1007280.3, 17222.822, 0.0, 10.000385, 9.999504 
3.7501696e+2, 2.0546138e+2, -865010.2, -924735.9, 13564.305, 0.005273199, 0.27333242, -862073.94, 64432.52, 0.0, 10.000563, 9.999769 
3.75025e+2, 2.1546121e+2, -704416.4, -796078.5, 19423.305, 0.040898617, 0.27754882, -700470.44, 128035.94, 0.0, 10.00099, 9.999773 
3.7503234e+2, 2.2546075e+2, -609372.0, -731842.0, 7101.946, 0.03357398, 0.2693904, -608961.56, 121548.28, 0.0, 10.001109, 9.999484 
3.750392e+2, 2.3546006e+2, -531195.6, -643413.8, 6748.561, -0.008804137, 0.24799764, -530791.25, 101724.836, 0.0, 10.000974, 9.999484 
3.7504655e+2, 2.454593e+2, -442454.97, -586239.5, 6119.77, 0.00063054956, 0.24235637, -442194.97, 92328.61, 0.0, 10.001067, 9.999159 
3.7505436e+2, 2.5545853e+2, -303039.2, -468763.7, 2796.3464, 0.05256701, 0.24683729, -302992.0, 133539.77, 0.0, 10.001353, 9.999154 
3.750615e+2, 2.6545763e+2, -212940.13, -432855.38, -2532.391, 0.05047585, 0.26908466, -212910.95, 125630.484, 0.0, 10.001551, 9.998633 
3.7506816e+2, 2.754566e+2, -97100.414, -327443.0, 6295.7266, 0.00448672, 0.30149865, -96928.47, 143623.8, 0.0, 10.001678, 9.998622 
3.750755e+2, 2.8545478e+2, -12692.572, -313011.97, 10661.048, 0.022994928, 0.29230413, -12314.592, 130257.24, 0.0, 10.001917, 9.997934 
3.7508345e+2, 2.954523e+2, 131225.19, -195653.11, 1304.578, 0.09059695, 0.24898757, 131230.39, 175828.63, 0.0, 10.002244, 9.99791 
3.750898e+2, 3.054514e+2, 184693.11, -159066.08, -22836.371, 0.033778094, 0.3755212, 186203.52, 186203.52, 0.0, 10.002337, 9.997783 
3.750962e+2, 3.1544858e+2, 264894.94, 29335.262, 36075.645, 0.011416871, 0.31143218, 270296.03, 270296.03, 0.0, 10.002244, 9.999121 
3.849576e+2, 1.254559e+2, -1781090.8, -1766918.8, 41939.957, -0.010600171, 0.25666192, -1731470.5, -20911.102, 0.00004363311, 9.999632, 9.99982 
3.8496372e+2, 1.3545668e+2, -1667919.4, -1633538.8, -46829.543, -0.051442098, 0.3301832, -1600844.0, 11709.849, 0.000017489165, 9.999615, 10.000072 
3.8497114e+2, 1.4545634e+2, -1548292.6, -1537141.3, -2901.5232, -0.011269834, 0.2939869, -1536431.5, -21874.053, 0.0000034194288, 9.999815, 9.999961 
3.849787e+2, 1.554562e+2, -1393437.0, -1415050.5, -4829.2817, -0.017314637, 0.28393474, -1392407.0, 24150.146, 0.00000006772674, 10.00022, 9.999931 
3.849865e+2, 1.6545598e+2, -1312279.0, -1383962.4, 4594.1426, -0.016382845, 0.29596484, -1311985.8, 6573.717, 0.0, 10.000359, 9.999406 
3.849944e+2, 1.7545563e+2, -1223927.9, -1287777.9, 1509.7529, -0.022909954, 0.31816244, -1223892.3, -3328.1626, 0.0, 10.00028, 9.999431 
3.8500208e+2, 1.854551e+2, -1097678.9, -1163364.5, -9436.274, -0.025639024, 0.3160444, -1096350.3, 26219.535, 0.0, 10.000419, 9.999546 
3.850097e+2, 1.9545442e+2, -951013.44, -1038823.75, -2258.1143, -0.020286333, 0.29211208, -950955.44, 73620.6, 0.0, 10.000739, 9.999574 
3.8501763e+2, 2.05454e+2, -827309.7, -901269.94, 7959.2236, 0.0046833972, 0.28089404, -826462.8, 100116.12, 0.0, 10.000798, 9.999817 
3.8502583e+2, 2.1545382e+2, -752365.44, -813778.75, 4342.8013, 0.044258736, 0.27625707, -752059.9, 76519.12, 0.0, 10.000638, 9.999822 
3.850333e+2, 2.2545336e+2, -661539.94, -748348.94, -10580.077, 0.038300425, 0.26530686, -660269.06, 70312.82, 0.0, 10.000713, 9.999561 
3.850402e+2, 2.3545277e+2, -524018.03, -632038.4, -3532.1113, -0.004878975, 0.24571463, -523902.66, 108684.41, 0.0, 10.000988, 9.999556 
3.8504773e+2, 2.4545203e+2, -430070.72, -592165.7, 3983.3374, 0.0043906616, 0.24285556, -429972.88, 104621.88, 0.0, 10.001203, 9.999053 
3.8505575e+2, 2.5545117e+2, -307349.72, -481519.47, -1044.6174, 0.056661945, 0.2509923, -307343.44, 129260.91, 0.0, 10.001369, 9.99906 
3.850631e+2, 2.654503e+2, -207933.39, -415652.25, -13384.788, 0.057007443, 0.27097154, -207074.47, 131539.36, 0.0, 10.001521, 9.998766 
3.850699e+2, 2.7544934e+2, -91183.53, -311022.44, -10313.604, 0.015405091, 0.29659992, -90700.734, 149922.36, 0.0, 10.00166, 9.998745 
3.8507745e+2, 2.8544757e+2, -32235.785, -335480.8, 1422.1948, 0.030659812, 0.29419985, -32229.115, 110413.08, 0.0, 10.001838, 9.997819 
3.8508558e+2, 2.9544517e+2, 95743.3, -225338.63, 627.21075, 0.08841964, 0.26792055, 95744.516, 140413.67, 0.0, 10.002053, 9.997798 
3.8509205e+2, 3.0544403e+2, 173111.22, -169019.36, -36724.906, 0.030429613, 0.38273865, 177008.94, 177008.94, 0.0, 10.002276, 9.997744 
3.8509864e+2, 3.154411e+2, 315184.66, 73442.734, 2244.0435, 0.020535912, 0.30794892, 315205.47, 315205.47, 0.000000000002787424, 10.002503, 9.999299 
3.949571e+2, 1.2544803e+2, -1770701.8, -1744596.1, 51875.074, -0.025150895, 0.26240942, -1704156.9, 6479.8115, 0.0000362571, 9.999629, 9.999974 
3.9496332e+2, 1.354489e+2, -1654541.4, -1605666.1, -47343.035, -0.05389805, 0.32347292, -1576825.6, 35803.727, 0.000013744367, 9.999614, 10.000263 
3.9497074e+2, 1.4544857e+2, -1554849.0, -1550545.3, 11977.776, -0.031162586, 0.28235337, -1540527.6, -25895.223, 0.0000023661473, 9.999814, 9.99987 
3.9497852e+2, 1.5544824e+2, -1399736.8, -1427863.9, 9463.262, -0.056392223, 0.26401567, -1396849.4, 19784.387, 0.000000028035489, 10.000218, 9.999845 
3.9498657e+2, 1.6544786e+2, -1316535.1, -1392590.4, 1484.7301, -0.044449203, 0.26688403, -1316506.1, 2131.721, 0.0, 10.000357, 9.999347 
3.949947e+2, 1.7544737e+2, -1227264.9, -1294535.4, -679.6631, -0.016378887, 0.2806498, -1227258.0, -6613.4185, 0.0, 10.000279, 9.999385 
3.9500272e+2, 1.854471e+2, -1085002.0, -1136888.1, 2657.1812, -0.0026728308, 0.298356, -1084866.3, 37781.67, 0.0, 10.000418, 9.999728 
3.9501068e+2, 1.9544704e+2, -938890.8, -1013590.7, 9201.546, 0.005103931, 0.31700805, -937774.06, 86874.16, 0.0, 10.000739, 9.999747 
3.9501843e+2, 2.0544665e+2, -832685.6, -912234.7, 1932.0121, 0.0062715374, 0.30320293, -832638.75, 94012.195, 0.0, 10.000798, 9.999742 
3.95026e+2, 2.1544597e+2, -756790.7, -823035.4, -794.7241, -0.00047414194, 0.25850132, -756781.2, 71874.48, 0.0, 10.000638, 9.999758 
3.9503372e+2, 2.2544554e+2, -649587.75, -723564.56, -187.48897, 0.009666782, 0.24210529, -649587.25, 81071.15, 0.0, 10.000714, 9.999732 
3.9504156e+2, 2.3544535e+2, -512847.8, -608851.25, 6597.7153, 0.035226513, 0.24613346, -512396.53, 120262.79, 0.0, 10.000988, 9.999715 
3.950493e+2, 2.454447e+2, -438924.47, -610350.7, 10082.76, 0.043607704, 0.253135, -438333.5, 96332.72, 0.0, 10.001202, 9.998928 
3.950569e+2, 2.5544372e+2, -315689.34, -498396.16, 5155.902, 0.036428038, 0.25925285, -315543.97, 121133.94, 0.0, 10.001368, 9.998944 
3.9506444e+2, 2.6544273e+2, -204125.2, -407403.44, -8325.825, 0.037519902, 0.27060798, -203784.77, 134903.73, 0.0, 10.001519, 9.998823 
3.950719e+2, 2.7544168e+2, -87177.87, -303104.7, -5242.301, 0.048248116, 0.28292695, -87050.664, 153647.36, 0.0, 10.001661, 9.998798 
3.9507952e+2, 2.854401e+2, -31638.256, -334782.1, 9130.794, 0.05505615, 0.29702976, -31363.482, 111351.766, 0.0, 10.00184, 9.997823 
3.9508724e+2, 2.9543808e+2, 95215.625, -226094.97, 8549.408, 0.051409546, 0.31096688, 95442.945, 140181.61, 0.0, 10.002052, 9.997793 
3.950941e+2, 3.0543667e+2, 152601.47, -210992.31, -28534.473, 0.0055683046, 0.4099886, 154827.2, 154827.2, 0.0, 10.002274, 9.997456 
3.9510173e+2, 3.154332e+2, 310047.7, 62157.395, 10069.201, 0.07764107, 0.3115681, 310456.0, 310456.0, 0.000000001718879, 10.002506, 9.99922 
4.0495652e+2, 1.2543999e+2, -1796847.3, -1756474.8, 54118.98, -0.037256427, 0.26938164, -1718899.9, -8184.3813, 0.000028702449, 9.999446, 9.999981 
4.04963e+2, 1.3544068e+2, -1629377.0, -1587428.8, -67732.984, -0.055736877, 0.30626768, -1537496.8, 75212.41, 0.000010028613, 9.99976, 10.000319 
4.0497053e+2, 1.4544035e+2, -1540586.8, -1548257.6, -7742.576, -0.041256282, 0.26795503, -1535781.8, -21069.953, 0.0000013962007, 9.999931, 9.999829 
4.0497854e+2, 1.5544017e+2, -1433668.6, -1448132.0, -7032.729, -0.065287076, 0.2659352, -1430812.9, -14100.558, 0.000000006286357, 10.000003, 9.999809 
4.0498677e+2, 1.6543975e+2, -1344035.9, -1398532.6, -14703.82, -0.04905912, 0.26425484, -1340321.8, -21605.123, 0.0, 10.000136, 9.999413 
4.0499502e+2, 1.7543912e+2, -1215196.4, -1281496.8, -7515.7856, -0.01601639, 0.25650173, -1214355.1, 6369.3794, 0.0, 10.000331, 9.99945 
4.0500316e+2, 1.8543893e+2, -1075355.8, -1125073.1, 243.38527, -0.0012080689, 0.27632615, -1075354.5, 47372.504, 0.0, 10.000453, 9.999792 
4.0501133e+2, 1.9543916e+2, -966973.7, -1019842.06, -2727.7886, 0.0049552997, 0.31676897, -966833.3, 57891.637, 0.0, 10.000515, 9.999812 
4.050191e+2, 2.0543882e+2, -848051.75, -912231.44, -14321.613, -0.00042942358, 0.30401686, -845000.94, 81726.016, 0.0, 10.000661, 9.999807 
4.0502658e+2, 2.1543805e+2, -717864.56, -797263.25, -6403.038, -0.018406667, 0.24238122, -717351.5, 111380.74, 0.0, 10.000875, 9.999821 
4.0503448e+2, 2.2543764e+2, -612664.0, -709332.44, -4724.049, -0.0005055777, 0.22581385, -612433.75, 118301.336, 0.0, 10.000983, 9.9997 
4.050427e+2, 2.3543754e+2, -512585.34, -611518.4, -13282.706, 0.048745245, 0.2440903, -510833.03, 121902.48, 0.0, 10.001002, 9.999689 
4.050506e+2, 2.45437e+2, -447601.66, -605481.94, -7404.0127, 0.057328343, 0.2568258, -447255.2, 87486.38, 0.0, 10.001103, 9.999009 
4.0505818e+2, 2.554361e+2, -324080.38, -494296.72, 3064.475, 0.030634185, 0.26119116, -324025.22, 112726.97, 0.0, 10.001274, 9.999018 
4.050659e+2, 2.65435e+2, -211027.63, -426707.13, -8452.09, 0.02919503, 0.26887247, -210696.9, 128066.77, 0.0, 10.00154, 9.998681 
4.050737e+2, 2.7543378e+2, -62844.973, -306273.94, -20381.072, 0.051467523, 0.27600226, -61150.363, 179625.42, 0.0, 10.001892, 9.998666 
4.0508154e+2, 2.8543222e+2, 9681.514, -305054.22, -13305.748, 0.059053764, 0.294735, 10243.024, 153035.72, 0.0, 10.002082, 9.9979105 
4.050893e+2, 2.9543042e+2, 112207.516, -209204.9, -7315.6753, 0.047098566, 0.32087153, 112373.945, 157187.34, 0.0, 10.002131, 9.997871 
4.0509638e+2, 3.054287e+2, 146000.63, -246371.33, -34457.973, 0.003614107, 0.4022027, 149003.73, 149003.73, 0.0, 10.002367, 9.997168 
4.0510452e+2, 3.1542507e+2, 339162.22, 62913.727, 2696.6917, 0.09459115, 0.315513, 339188.53, 339188.53, 0.00000001196501, 10.002764, 9.999101 
4.1495585e+2, 1.2543176e+2, -1807607.4, -1777441.0, 77124.7, -0.048115827, 0.277363, -1713938.5, -3142.6597, 0.000021697306, 9.999441, 9.99984 
4.1496274e+2, 1.3543199e+2, -1635576.0, -1599971.8, -56900.926, -0.057339765, 0.2777087, -1558153.1, 54640.496, 0.000006740833, 9.999758, 10.000234 
4.1497043e+2, 1.4543174e+2, -1540085.5, -1546788.9, -5276.1646, -0.04210475, 0.25057125, -1537186.5, -22390.729, 0.0000006540361, 9.999929, 9.999841 
4.1497877e+2, 1.5543199e+2, -1432504.6, -1445359.1, -4121.5513, -0.043927595, 0.2904724, -1431296.6, -14503.759, 0.0000000002364484, 10.000001, 9.999829 
4.149871e+2, 1.6543168e+2, -1331393.3, -1371732.9, -7622.253, -0.030234367, 0.28853577, -1330001.1, -11205.3125, 0.0, 10.000134, 9.999598 
4.149953e+2, 1.7543086e+2, -1203149.6, -1256046.4, -326.1479, -0.022406157, 0.2454586, -1203147.6, 17656.248, 0.0, 10.000329, 9.999625 
4.1500342e+2, 1.8543059e+2, -1079431.8, -1133150.8, 2634.4668, -0.02211341, 0.24986029, -1079302.9, 43504.277, 0.0, 10.000451, 9.999737 
4.1501155e+2, 1.9543077e+2, -970366.0, -1026626.0, 93.70981, -0.020955697, 0.29162475, -970365.8, 54440.465, 0.0, 10.000514, 9.999765 
4.150196e+2, 2.0543057e+2, -833826.2, -882450.94, -6225.5054, -0.01582105, 0.28317437, -833041.75, 93765.22, 0.0, 10.00066, 10.000012 
4.1502756e+2, 2.1543007e+2, -704823.06, -769982.2, 1514.9104, -0.010102704, 0.22796658, -704787.9, 124020.99, 0.0, 10.0008745, 10.000009 
4.1503552e+2, 2.2542967e+2, -629220.94, -743350.56, -4055.7554, 0.007179777, 0.216526, -629077.0, 101734.88, 0.0, 10.000981, 9.999467 
4.150436e+2, 2.3542939e+2, -527342.44, -642070.56, -12272.181, 0.035604045, 0.23939055, -526044.44, 106771.305, 0.0, 10.001002, 9.999479 
4.1505158e+2, 2.454289e+2, -427735.75, -564122.2, -1092.0491, 0.04525026, 0.25376323, -427727.0, 107093.96, 0.0, 10.001102, 9.999293 
4.1505954e+2, 2.5542825e+2, -306185.16, -456909.34, 9587.848, 0.038311627, 0.25717086, -305577.7, 131249.55, 0.0, 10.001273, 9.999275 
4.1506743e+2, 2.654271e+2, -234806.48, -475709.7, 4544.472, 0.031207321, 0.26602212, -234720.78, 104118.57, 0.0, 10.001539, 9.998345 
4.1507536e+2, 2.754256e+2, -85153.05, -352010.2, -7492.8306, 0.025686717, 0.27545726, -84942.83, 155913.55, 0.0, 10.00189, 9.998352 
4.1508347e+2, 2.8542393e+2, 21265.5, -280421.56, -11645.312, 0.042756394, 0.28748494, 21714.35, 164588.8, 0.0, 10.002079, 9.99808 
4.1509166e+2, 2.9542214e+2, 123401.02, -186148.77, -5307.107, 0.07322011, 0.2992092, 123491.984, 168385.17, 0.0, 10.002132, 9.99803 
4.1509894e+2, 3.0542016e+2, 126220.94, -288296.2, -19683.973, 0.022603177, 0.36089158, 127153.56, 127153.56, 0.0, 10.002371, 9.996879 
4.1510704e+2, 3.1541666e+2, 328532.28, 40553.473, 16345.166, 0.07096686, 0.31343305, 329457.03, 329457.03, 0.000000036873733, 10.002765, 9.998947 
4.249552e+2, 1.2542306e+2, -1786615.4, -1765702.6, 69697.195, -0.06352965, 0.27615455, -1705681.8, 5198.757, 0.000015823704, 9.999582, 9.999851 
4.249625e+2, 1.3542333e+2, -1641261.4, -1596385.6, -65395.324, -0.053242948, 0.2749456, -1549685.9, 63191.754, 0.0000041887733, 9.999694, 10.000288 
4.2497027e+2, 1.4542313e+2, -1558351.0, -1559048.3, -14224.678, -0.045054145, 0.24963674, -1544470.6, -29591.13, 0.00000021832761, 9.99982, 9.999809 
4.2497876e+2, 1.5542325e+2, -1439086.6, -1451148.8, -16584.459, -0.039583378, 0.28126356, -1427470.6, -10592.379, 0.0, 9.999969, 9.999805 
4.2498726e+2, 1.6542302e+2, -1322737.4, -1349245.4, -19948.342, -0.026382873, 0.2798613, -1312041.4, 6838.8877, 0.0, 10.000115, 9.999762 
4.249955e+2, 1.7542246e+2, -1200612.0, -1237261.5, -14561.024, -0.028475672, 0.24520299, -1195531.1, 25353.975, 0.0, 10.000271, 9.999782 
4.2500374e+2, 1.8542223e+2, -1086585.8, -1139114.9, -13841.986, -0.033491224, 0.24722831, -1083161.5, 39726.523, 0.0, 10.000414, 9.999714 
4.2501196e+2, 1.9542226e+2, -967068.94, -1027295.5, -14090.758, -0.032987088, 0.27749848, -963935.25, 60953.895, 0.0, 10.000546, 9.999744 
4.250202e+2, 2.0542212e+2, -836782.2, -874380.5, -23982.05, -0.018372947, 0.27056438, -825109.25, 101780.25, 0.0, 10.000599, 10.000097 
4.250284e+2, 2.1542181e+2, -741740.0, -778600.25, -25418.996, 0.0051191174, 0.22769535, -728772.75, 100116.44, 0.0, 10.000582, 10.000091 
4.250365e+2, 2.2542144e+2, -665894.5, -765616.4, -24588.557, 0.017788963, 0.21813053, -660161.3, 70730.74, 0.0, 10.00075, 9.999426 
4.2504448e+2, 2.3542106e+2, -519550.56, -642206.94, -18874.338, 0.022797788, 0.2343183, -516711.88, 116185.44, 0.0, 10.001073, 9.999445 
4.2505258e+2, 2.4542056e+2, -405576.44, -543216.8, -12300.103, 0.03104289, 0.24331377, -404485.9, 130416.6, 0.0, 10.001211, 9.999385 
4.2506078e+2, 2.5541997e+2, -311429.03, -449775.84, -15724.467, 0.04096617, 0.24212135, -309664.28, 127243.23, 0.0, 10.001196, 9.999361 
4.2506894e+2, 2.654189e+2, -254900.36, -488433.8, -3613.2927, 0.03414464, 0.25216967, -254844.47, 84074.664, 0.0, 10.001413, 9.998318 
4.2507708e+2, 2.7541736e+2, -95471.57, -359955.38, 6668.838, 0.015106194, 0.26756242, -95303.52, 145632.78, 0.0, 10.001832, 9.998326 
4.2508548e+2, 2.8541565e+2, 20706.203, -291583.8, -6948.4473, 0.034962542, 0.2816319, 20860.73, 163815.8, 0.0, 10.002122, 9.997983 
4.2509395e+2, 2.9541376e+2, 142568.89, -186771.25, -19975.354, 0.08194608, 0.29160014, 143776.02, 188751.08, 0.0, 10.002306, 9.997941 
4.2510143e+2, 3.0541155e+2, 157036.42, -273047.5, -22465.621, 0.026113896, 0.33393365, 158206.73, 158206.73, 0.0, 10.002581, 9.996882 
4.2510977e+2, 3.1540838e+2, 358085.34, 64952.637, 33014.176, 0.05914105, 0.32424474, 361757.6, 361757.6, 0.00000007454206, 10.002924, 9.999039 
4.3495455e+2, 1.2541394e+2, -1776232.3, -1743800.1, 85057.516, -0.085211486, 0.26678073, -1673426.8, 37542.79, 0.0000113764345, 9.99958, 10.000002 
4.3496227e+2, 1.3541475e+2, -1627702.4, -1568590.6, -60922.18, -0.043533295, 0.2993234, -1530433.4, 82527.555, 0.0000025044064, 9.999694, 10.00048 
4.3497002e+2, 1.454145e+2, -1564414.0, -1570991.1, -8651.775, -0.0501846, 0.2658721, -1558446.9, -43483.863, 0.000000047491298, 9.999818, 9.999728 
4.349786e+2, 1.5541396e+2, -1444460.8, -1461757.8, -10946.04, -0.05363781, 0.23721254, -1439159.0, -22190.28, 0.0, 9.999966, 9.999734 
4.3498722e+2, 1.6541377e+2, -1312914.6, -1328374.6, -14035.385, -0.039089907, 0.23719878, -1304621.4, 14348.825, 0.0, 10.0001135, 9.999906 
4.3499574e+2, 1.7541389e+2, -1191241.9, -1217413.6, -8410.77, -0.034458246, 0.25611514, -1188772.0, 32196.383, 0.0, 10.00027, 9.999919 
4.3500412e+2, 1.8541382e+2, -1086675.4, -1138638.9, -8826.382, -0.035465322, 0.2689184, -1085217.1, 37752.633, 0.0, 10.000411, 9.999718 
4.3501252e+2, 1.9541362e+2, -967033.2, -1026778.5, -9100.106, -0.031767122, 0.27420527, -965677.9, 59295.664, 0.0, 10.0005455, 9.999749 
4.350209e+2, 2.0541343e+2, -839527.94, -879796.6, -24530.6, -0.0089527, 0.26588395, -827926.75, 99047.875, 0.0, 10.000598, 10.00006 
4.350292e+2, 2.1541329e+2, -743649.94, -782628.25, -25349.262, 0.0264973, 0.241234, -731163.9, 97809.44, 0.0, 10.000583, 10.000062 
4.3503737e+2, 2.2541298e+2, -655655.9, -744302.3, -12447.919, 0.030650996, 0.230431, -653941.06, 77034.41, 0.0, 10.00075, 9.999573 
4.3504542e+2, 2.3541257e+2, -510268.72, -622649.0, -7261.289, 0.010056451, 0.22899422, -509801.47, 123178.89, 0.0, 10.001071, 9.999579 
4.3505362e+2, 2.4541195e+2, -412777.8, -557816.7, -13074.268, 0.014261543, 0.22563325, -411608.66, 123377.625, 0.0, 10.001209, 9.999285 
4.3506196e+2, 2.5541118e+2, -316991.88, -461600.13, -15699.166, 0.03809134, 0.2162942, -315307.16, 121685.875, 0.0, 10.001197, 9.999279 
4.3507037e+2, 2.6541018e+2, -235636.19, -448721.94, 11898.329, 0.03738208, 0.22754341, -234973.86, 104029.17, 0.0, 10.001415, 9.99859 
4.3507895e+2, 2.7540904e+2, -78459.89, -323924.28, 21572.545, 0.018433599, 0.25262105, -76578.42, 164437.31, 0.0, 10.001828, 9.998575 
4.350876e+2, 2.8540736e+2, -4568.0522, -343086.44, -415.95547, 0.034294665, 0.27733403, -4567.541, 138467.17, 0.0, 10.002118, 9.997631 
4.350962e+2, 2.9540524e+2, 119904.375, -233873.36, -12832.224, 0.07354585, 0.29793447, 120369.21, 165428.23, 0.0, 10.002307, 9.997618 
4.351039e+2, 3.0540287e+2, 177045.5, -231464.92, -9702.033, 0.014428266, 0.32124332, 177275.8, 177275.8, 0.0, 10.002581, 9.997168 
4.3511268e+2, 3.1540027e+2, 380687.3, 112595.46, 43893.645, 0.05600783, 0.34181178, 387690.9, 387690.9, 0.0000001100893, 10.002921, 9.999367 
4.449541e+2, 1.2540446e+2, -1772142.8, -1742017.1, 78475.27, -0.08979918, 0.24400085, -1677172.1, 33888.758, 0.000008277144, 9.999608, 10.000002 
4.449619e+2, 1.3540544e+2, -1655481.8, -1576383.5, -89435.16, -0.039453737, 0.2889278, -1518143.1, 94908.016, 0.0000015575915, 9.999478, 10.000531 
4.449696e+2, 1.4540537e+2, -1588175.0, -1571204.8, -25461.834, -0.06505153, 0.26417342, -1552851.4, -37799.633, 0.000000013935479, 9.999606, 9.999828 
4.4497848e+2, 1.5540479e+2, -1438627.4, -1448112.6, -14546.683, -0.061224483, 0.22267257, -1428069.8, -11012.215, 0.0, 9.99996, 9.99983 
4.449873e+2, 1.6540463e+2, -1310574.4, -1325235.9, -22818.988, -0.041517105, 0.22164302, -1293937.5, 25121.252, 0.0, 10.000122, 9.999923 
4.449959e+2, 1.7540488e+2, -1211106.8, -1224748.0, -26522.938, -0.035774264, 0.25038293, -1190541.5, 30514.793, 0.0, 10.000124, 9.999939 
4.4500443e+2, 1.8540491e+2, -1112345.5, -1140488.0, -25758.51, -0.034601275, 0.26760554, -1097065.5, 25991.281, 0.0, 10.000191, 9.999812 
4.45013e+2, 1.954048e+2, -994924.7, -1030096.44, -19512.492, -0.027087986, 0.27227658, -986242.7, 38816.887, 0.0, 10.000311, 9.999839 
4.4502148e+2, 2.0540468e+2, -853978.6, -890254.75, -31519.828, -0.0051295725, 0.26737377, -835750.6, 91309.766, 0.0, 10.000514, 10.000029 
4.4502988e+2, 2.1540456e+2, -715921.2, -772175.75, -32111.773, 0.025051655, 0.2498301, -701359.94, 127699.516, 0.0, 10.000786, 10.000035 
4.4503814e+2, 2.2540428e+2, -630046.8, -721652.7, -21162.66, 0.02748788, 0.23893791, -625394.1, 105666.99, 0.0, 10.000881, 9.999664 
4.4504634e+2, 2.354039e+2, -539984.1, -627347.5, -20033.777, 0.008158061, 0.23082443, -535609.1, 97455.81, 0.0, 10.000826, 9.999665 
4.450547e+2, 2.4540325e+2, -436169.38, -575043.44, -21478.98, 0.011125255, 0.2229264, -432923.2, 102147.734, 0.0, 10.001074, 9.999232 
4.4506326e+2, 2.554024e+2, -263815.9, -441032.66, -21053.168, 0.031461943, 0.21089058, -261349.14, 175729.52, 0.0, 10.001584, 9.999233 
4.450719e+2, 2.654014e+2, -189038.02, -422745.38, -6189.589, 0.03144645, 0.22192088, -188874.2, 150214.55, 0.0, 10.00172, 9.998622 
4.4508064e+2, 2.7540034e+2, -118600.95, -340037.94, -14021.808, 0.016980864, 0.24914366, -117716.6, 123384.23, 0.0, 10.001539, 9.998604 
4.4508952e+2, 2.8539872e+2, -51110.188, -368141.66, -19809.615, 0.031798676, 0.2790752, -49877.188, 93242.11, 0.0, 10.001809, 9.997608 
4.450985e+2, 2.9539663e+2, 140945.33, -225660.88, -8699.391, 0.0651857, 0.3076242, 141151.64, 186294.84, 0.0, 10.002459, 9.997601 
4.4510645e+2, 3.05394e+2, 208123.38, -212215.77, -12481.438, 0.0024909843, 0.3059478, 208493.67, 208493.67, 0.00000000000009396187, 10.002775, 9.997207 
4.4511545e+2, 3.153917e+2, 365397.8, 109977.0, 20787.74, 0.049836606, 0.35088348, 367078.6, 367078.6, 0.00000013361628, 10.002796, 9.999409 
4.5495382e+2, 1.253946e+2, -1783127.1, -1763853.0, 83920.49, -0.07840291, 0.20645286, -1689018.0, 22136.87, 0.0000061456926, 9.999604, 9.999853 
4.5496136e+2, 1.3539538e+2, -1661537.6, -1589064.0, -93402.03, -0.042489294, 0.2417304, -1525115.8, 88032.76, 0.0000010596042, 9.999477, 10.000444 
4.5496893e+2, 1.4539568e+2, -1568530.9, -1530081.4, -11837.727, -0.09158978, 0.243013, -1526729.1, -11583.198, 0.000000007555667, 9.999604, 10.000113 
4.5497844e+2, 1.5539573e+2, -1420136.4, -1409577.4, -1293.6544, -0.062600106, 0.23875318, -1409421.3, 7723.5933, 0.0, 9.999959, 10.000095 
4.5498753e+2, 1.6539565e+2, -1318623.5, -1341464.5, -22652.98, -0.033526346, 0.23446003, -1304675.0, 14471.028, 0.0, 10.00012, 9.999812 
4.5499605e+2, 1.753954e+2, -1218156.6, -1238982.9, -25890.629, -0.03334711, 0.22746888, -1200663.5, 20485.41, 0.0, 10.000123, 9.999842 
4.5500463e+2, 1.8539548e+2, -1099855.5, -1114144.3, -21030.412, -0.032186512, 0.2423334, -1084789.1, 38360.145, 0.0, 10.000189, 9.999993 
4.5501336e+2, 1.9539578e+2, -982941.56, -1004958.2, -14506.726, -0.0194078, 0.27175456, -975739.2, 49408.086, 0.0, 10.00031, 10.000012 
4.5502198e+2, 2.0539582e+2, -855961.1, -894094.0, -21279.953, -0.007083216, 0.2752775, -846455.44, 80691.4, 0.0, 10.000513, 10.000003 
4.550304e+2, 2.1539563e+2, -717708.4, -775681.75, -22218.268, 0.0008046158, 0.25360987, -710172.75, 118974.73, 0.0, 10.000785, 10.000012 
4.5503885e+2, 2.2539537e+2, -627686.8, -716760.94, -23345.78, 0.008123144, 0.24356796, -621938.94, 109210.08, 0.0, 10.000881, 9.999698 
4.5504725e+2, 2.3539506e+2, -537429.94, -622357.9, -21406.197, 0.016406542, 0.23965332, -532339.6, 100811.55, 0.0, 10.000827, 9.9997 
4.5505592e+2, 2.4539445e+2, -436723.44, -576320.56, -2448.248, 0.0208107, 0.23480783, -436680.5, 98476.016, 0.0, 10.001075, 9.999223 
4.550647e+2, 2.5539362e+2, -265288.34, -443229.56, -3141.443, 0.020754883, 0.22530067, -265232.9, 171931.66, 0.0, 10.00158, 9.999221 
4.5507345e+2, 2.653925e+2, -203628.16, -452489.56, -13380.471, 0.016201518, 0.23488203, -202910.8, 136265.6, 0.0, 10.001718, 9.998419 
4.550821e+2, 2.7539116e+2, -130861.12, -366604.8, -19718.947, 0.01038596, 0.2569881, -129223.09, 111968.44, 0.0, 10.001544, 9.998419 
4.5509127e+2, 2.8538963e+2, -30081.115, -325299.7, 4411.3677, 0.02684166, 0.28683016, -30015.21, 113193.6, 0.0, 10.001813, 9.9979 
4.5510086e+2, 2.9538786e+2, 159994.38, -185430.95, 14368.684, 0.055969283, 0.3202852, 160591.05, 205818.84, 0.0, 10.002457, 9.997878 
4.551091e+2, 3.0538493e+2, 193716.69, -240998.27, -11994.5205, -0.010574767, 0.28771833, 194047.38, 194047.38, 0.00000000000087855477, 10.00277, 9.997011 
4.5511812e+2, 3.153826e+2, 349047.1, 76269.375, 19431.014, 0.039413873, 0.3469125, 350424.28, 350424.28, 0.00000014519496, 10.002795, 9.999178 
4.6495324e+2, 1.2538461e+2, -1820031.1, -1781197.6, 70772.016, -0.08150242, 0.1856033, -1727227.1, -15975.5, 0.000004581255, 9.999351, 9.999857 
4.6496087e+2, 1.3538541e+2, -1650972.1, -1579213.1, -104672.85, -0.038846683, 0.21830857, -1504441.3, 108804.41, 0.0000007444035, 9.99953, 10.000487 
4.6496832e+2, 1.4538595e+2, -1564558.0, -1515889.1, -21154.643, -0.110020325, 0.23801373, -1507979.4, 7261.299, 0.0000000034677494, 9.999579, 10.000222 
4.6497813e+2, 1.5538627e+2, -1478886.3, -1426028.8, -23899.785, -0.06471271, 0.24832618, -1416825.0, 412.3457, 0.0, 9.999505, 10.000201 
4.6498743e+2, 1.6538624e+2, -1384743.5, -1365586.9, -43210.906, -0.028265849, 0.24277058, -1330905.5, -11667.496, 0.0, 9.999633, 9.999882 
4.649961e+2, 1.7538595e+2, -1239786.6, -1241334.9, -32969.805, -0.03088398, 0.22159468, -1207581.9, 13659.958, 0.0, 9.999939, 9.999914 
4.650048e+2, 1.8538606e+2, -1097567.8, -1097884.1, -25193.527, -0.031933397, 0.23174043, -1072531.9, 50709.266, 0.0, 10.000139, 10.00013 
4.6501365e+2, 1.9538654e+2, -983358.7, -990832.7, -21595.682, -0.0203596, 0.26421088, -965179.06, 60057.813, 0.0, 10.000245, 10.00014 
4.650224e+2, 2.0538665e+2, -873779.5, -908657.06, -26099.256, -0.01004637, 0.27217215, -859829.06, 67406.695, 0.0, 10.000417, 9.999949 
4.6503106e+2, 2.1538648e+2, -742124.44, -793142.44, -29530.55, -0.0051721605, 0.2561974, -728610.9, 100626.45, 0.0, 10.000642, 9.999961 
4.6503967e+2, 2.2538617e+2, -621215.2, -709878.75, -35975.05, 0.003428758, 0.24226342, -608454.9, 122784.33, 0.0, 10.00091, 9.999731 
4.6504828e+2, 2.3538578e+2, -478484.38, -590311.6, -33990.32, 0.016517792, 0.22611673, -468963.47, 164277.8, 0.0, 10.001217, 9.999731 
4.6505708e+2, 2.4538516e+2, -409160.78, -572812.6, -15286.987, 0.019980228, 0.22429779, -407745.03, 127501.586, 0.0, 10.001307, 9.999135 
4.6506608e+2, 2.553844e+2, -325424.4, -482129.16, -22141.807, 0.014458231, 0.23134391, -322355.9, 114898.73, 0.0, 10.00121, 9.999131 
4.6507502e+2, 2.653832e+2, -243410.36, -478201.44, -29543.59, 0.012493823, 0.24110502, -239749.97, 99517.56, 0.0, 10.001472, 9.998361 
4.6508393e+2, 2.7538168e+2, -62183.12, -339356.88, -25272.943, 0.015806768, 0.24906866, -59897.563, 181387.1, 0.0, 10.002041, 9.998367 
4.6509337e+2, 2.8538013e+2, 50246.31, -279095.3, 489.90192, 0.032676917, 0.2769317, 50247.04, 193548.56, 0.0, 10.002333, 9.997968 
4.6510327e+2, 2.9537854e+2, 154354.02, -180520.08, -6271.527, 0.055012833, 0.31943777, 154471.44, 199789.47, 0.0, 10.002384, 9.997947 
4.6511167e+2, 3.053754e+2, 166909.95, -254287.38, -38699.688, -0.021120233, 0.26089016, 170436.17, 170436.17, 0.00000000000042122027, 10.002587, 9.997008 
4.6512082e+2, 3.153732e+2, 358279.4, 71250.734, 4112.864, 0.023014253, 0.33533645, 358338.34, 358338.34, 0.00000014428599, 10.002898, 9.999094 
4.749524e+2, 1.2537447e+2, -1810535.9, -1759299.9, 85387.13, -0.10270285, 0.18137369, -1695770.5, 15580.635, 0.0000033199578, 9.999341, 10.0000105 
4.749605e+2, 1.353755e+2, -1639111.3, -1554522.8, -97716.016, -0.02855804, 0.22026175, -1490340.6, 123001.914, 0.00000048107097, 9.999529, 10.000658 
4.749678e+2, 1.4537622e+2, -1569181.8, -1525266.5, -23752.318, -0.120841675, 0.25069642, -1514877.4, 458.91272, 0.000000000765976, 9.9995775, 10.000158 
4.749776e+2, 1.5537637e+2, -1482496.3, -1433434.4, -25921.205, -0.069157176, 0.2504519, -1422276.8, -4941.4697, 0.0, 9.999505, 10.000151 
4.749871e+2, 1.6537645e+2, -1367264.3, -1329267.4, -31610.504, -0.027302647, 0.24517842, -1311385.4, 7949.4956, 0.0, 9.999632, 10.000131 
4.7499606e+2, 1.7537649e+2, -1222823.8, -1206011.3, -21400.172, -0.028956385, 0.23330721, -1191425.5, 29909.469, 0.0, 9.999939, 10.000156 
4.750049e+2, 1.853767e+2, -1090997.8, -1084157.5, -21137.555, -0.034441162, 0.23679383, -1066165.1, 57167.508, 0.0, 10.000138, 10.000224 
4.750138e+2, 1.953771e+2, -977151.2, -977959.7, -17213.473, -0.030394366, 0.24959043, -960337.2, 64991.117, 0.0, 10.000245, 10.000229 
4.7502276e+2, 2.0537719e+2, -879799.56, -920981.6, -17611.297, -0.014597521, 0.2576011, -873295.4, 54031.824, 0.0, 10.000416, 9.999866 
4.7503182e+2, 2.1537709e+2, -747909.7, -804895.94, -20891.139, 0.006278171, 0.25765258, -741071.56, 88257.336, 0.0, 10.000641, 9.999881 
4.7504067e+2, 2.2537668e+2, -618995.25, -705084.9, -24610.23, 0.012581086, 0.23535073, -612456.6, 118875.06, 0.0, 10.000909, 9.999765 
4.750494e+2, 2.3537602e+2, -476683.44, -586098.1, -23131.28, 0.008302337, 0.19051354, -471994.25, 161341.11, 0.0, 10.001214, 9.999762 
4.7505826e+2, 2.4537538e+2, -421061.38, -597492.75, -19276.615, 0.008510589, 0.19195959, -418979.8, 116361.39, 0.0, 10.001306, 9.998966 
4.7506726e+2, 2.5537476e+2, -336510.38, -505729.84, -24992.432, 0.011836766, 0.22951119, -332896.38, 104452.54, 0.0, 10.001212, 9.998969 
4.7507653e+2, 2.6537356e+2, -237620.3, -466571.25, -8300.149, 0.019312484, 0.24094789, -237319.78, 102042.41, 0.0, 10.001473, 9.99844 
4.7508612e+2, 2.7537185e+2, -57302.05, -328911.6, -4862.9824, 0.03223468, 0.22557902, -57215.01, 184165.28, 0.0, 10.002039, 9.99844 
4.750959e+2, 2.853702e+2, 39904.5, -300432.72, 2066.0093, 0.048474867, 0.24971269, 39917.043, 183314.55, 0.0, 10.002332, 9.997822 
4.751057e+2, 2.953686e+2, 145202.97, -199723.73, -3853.6575, 0.06154295, 0.30571958, 145246.02, 190659.8, 0.0, 10.002385, 9.997815 
4.7511414e+2, 3.053653e+2, 179701.23, -227305.98, -26978.775, -0.02983209, 0.22590023, 181481.75, 181481.75, 0.0, 10.002586, 9.997194 
4.7512347e+2, 3.153634e+2, 362827.9, 81100.305, 12928.7, -0.0015821864, 0.31156152, 363419.97, 363419.97, 0.00000012581201, 10.002896, 9.999163 
4.8495156e+2, 1.2536468e+2, -1803056.3, -1753198.1, 99689.9, -0.12163793, 0.19909726, -1675367.6, 36079.95, 0.0000022837717, 9.999384, 10.000031 
4.8496005e+2, 1.353656e+2, -1689032.5, -1574118.4, -100613.125, -0.010498208, 0.22476691, -1515712.1, 97727.83, 0.0000002759338, 9.9991665, 10.000699 
4.8496717e+2, 1.4536643e+2, -1609056.3, -1532695.3, -19704.676, -0.124654196, 0.25786382, -1527910.4, -12477.724, 0.000000000009128432, 9.999253, 10.000264 
4.8497713e+2, 1.5536655e+2, -1465163.0, -1413585.4, -9202.842, -0.06918318, 0.24627393, -1411992.6, 5438.788, 0.0, 9.999574, 10.000255 
4.8498675e+2, 1.6536671e+2, -1349392.3, -1315217.9, -15545.604, -0.027383924, 0.24099196, -1309204.5, 10225.715, 0.0, 9.99973, 10.00018 
4.849958e+2, 1.7536691e+2, -1246945.0, -1212232.5, -20309.46, -0.035309844, 0.23970893, -1202873.4, 18555.408, 0.0, 9.999749, 10.000206 
4.8500487e+2, 1.8536715e+2, -1121103.0, -1091897.5, -27172.502, -0.03819524, 0.24033485, -1075652.5, 47773.457, 0.0, 9.999902, 10.000285 
4.8501408e+2, 1.9536746e+2, -984299.1, -975111.2, -25918.885, -0.022863291, 0.23844075, -953382.3, 72039.45, 0.0, 10.000168, 10.000286 
4.8502326e+2, 2.053675e+2, -894640.5, -937796.2, -27948.143, -0.0051344912, 0.24174447, -880909.6, 46511.52, 0.0, 10.000355, 9.99978 
4.850324e+2, 2.1536736e+2, -778260.0, -828794.44, -31002.262, 0.009053393, 0.24566562, -763532.56, 65890.97, 0.0, 10.000472, 9.999799 
4.8504144e+2, 2.2536689e+2, -655808.7, -728824.75, -33499.477, 0.011252748, 0.225639, -642768.2, 88658.82, 0.0, 10.000682, 9.999711 
4.8505044e+2, 2.353662e+2, -515949.88, -610739.0, -39145.605, 0.0052917046, 0.18213369, -501873.94, 131557.39, 0.0, 10.00097, 9.99971 
4.8505947e+2, 2.4536553e+2, -430831.2, -599915.06, -38991.668, 0.0045191417, 0.18297862, -422272.72, 113164.6, 0.0, 10.001229, 9.998986 
4.8506853e+2, 2.553649e+2, -298133.3, -485204.34, -30246.709, 0.006871235, 0.2178314, -293364.44, 144080.33, 0.0, 10.001468, 9.998986 
4.8507816e+2, 2.6536366e+2, -202119.56, -459266.44, 311.3742, 0.018811028, 0.23117137, -202119.17, 137339.14, 0.0, 10.0017605, 9.998352 
4.850883e+2, 2.7536196e+2, -54957.043, -337111.06, -9106.334, 0.04120645, 0.22178227, -54663.45, 186813.78, 0.0, 10.002096, 9.998356 
4.8509827e+2, 2.8536028e+2, 41425.332, -293984.9, -13312.499, 0.05637, 0.24618323, 41952.875, 185447.19, 0.0, 10.002317, 9.997873 
4.851081e+2, 2.9535875e+2, 155943.13, -188977.53, -4401.0967, 0.058918234, 0.29800528, 155999.28, 201508.86, 0.0, 10.002435, 9.997865 
4.851167e+2, 3.0535522e+2, 185660.3, -231847.7, -22504.227, -0.03611478, 0.20096315, 186869.8, 186869.8, 0.0, 10.002659, 9.9971285 
4.8512638e+2, 3.153535e+2, 356799.5, 54724.598, -4035.1165, -0.0023382804, 0.31377906, 356853.38, 356853.38, 0.00000009052117, 10.002956, 9.998953 
4.9495074e+2, 1.253552e+2, -1812516.0, -1770870.5, 96293.445, -0.14103661, 0.23964033, -1693174.1, 18366.89, 0.0000015131136, 9.999375, 9.999914 
4.9495944e+2, 1.3535567e+2, -1695584.8, -1587893.5, -107693.75, 0.013674057, 0.2307968, -1521334.5, 92203.91, 0.00000014199817, 9.9991665, 10.000606 
4.9496642e+2, 1.4535654e+2, -1589558.3, -1492177.3, -7619.684, -0.12329933, 0.2585926, -1491584.6, 23945.521, 0.0, 9.999252, 10.000543 
4.9497673e+2, 1.5535685e+2, -1446713.8, -1375393.4, 2371.7166, -0.065551154, 0.23695499, -1375314.6, 42211.105, 0.0, 9.999574, 10.000516 
4.9498644e+2, 1.6535705e+2, -1359361.9, -1336198.4, -15006.882, -0.029299533, 0.23143452, -1328823.9, -9300.061, 0.0, 9.999732, 10.000036 
4.9499542e+2, 1.7535722e+2, -1256514.8, -1232302.5, -19086.246, -0.05095758, 0.2404461, -1221806.8, -283.40512, 0.0, 9.99975, 10.000068 
4.9500474e+2, 1.8535742e+2, -1119197.1, -1087735.8, -17099.367, -0.044086292, 0.2417006, -1080231.9, 43289.16, 0.0, 9.999901, 10.000315 
4.9501446e+2, 1.9535765e+2, -982619.9, -971450.2, -15959.769, 0.0016770047, 0.23096666, -960126.3, 65390.95, 0.0, 10.000167, 10.000311 
4.9502385e+2, 2.0535758e+2, -900544.75, -950069.4, -23694.977, 0.01775086, 0.22516926, -891034.3, 36483.28, 0.0, 10.000355, 9.999696 
4.9503282e+2, 2.1535726e+2, -783990.06, -840938.06, -26316.555, 0.0028529468, 0.22032195, -773691.25, 55830.04, 0.0, 10.000473, 9.999715 
4.9504203e+2, 2.2535682e+2, -665715.1, -749552.25, -22734.443, -0.0009481281, 0.21290544, -659947.0, 71578.22, 0.0, 10.000682, 9.999569 
4.950514e+2, 2.3535627e+2, -525370.2, -630198.94, -28481.0, 0.0070625823, 0.20073254, -518131.97, 115397.2, 0.0, 10.000969, 9.9995775 
4.9506074e+2, 2.453556e+2, -416618.84, -570265.5, -30315.943, 0.007366303, 0.1971269, -410853.56, 124681.375, 0.0, 10.001228, 9.999191 
4.9506992e+2, 2.5535482e+2, -284660.25, -457387.53, -21380.133, -0.00088099175, 0.19645372, -282053.16, 155489.05, 0.0, 10.001468, 9.999178 
4.9507985e+2, 2.6535362e+2, -219506.34, -495645.22, 12586.772, 0.01073946, 0.21189694, -218933.81, 120622.17, 0.0, 10.001761, 9.998101 
4.950904e+2, 2.7535197e+2, -71613.52, -371343.03, 3124.4792, 0.042508524, 0.23707032, -71580.95, 169994.53, 0.0, 10.002094, 9.998122 
4.951006e+2, 2.8535038e+2, 57797.227, -259196.8, -9212.086, 0.056172833, 0.26557997, 58064.71, 201656.7, 0.0, 10.002314, 9.998114 
4.951104e+2, 2.9534882e+2, 171708.48, -156043.42, -28.634874, 0.04721097, 0.29617724, 171708.48, 217314.02, 0.0, 10.002434, 9.998092 
4.9511933e+2, 3.0534512e+2, 164078.97, -276407.34, -11536.8, -0.040390264, 0.18561268, 164380.92, 164380.92, 0.0, 10.002658, 9.996822 
4.9512956e+2, 3.153435e+2, 323161.88, -14127.637, 5121.7896, 0.017708912, 0.337127, 323239.63, 323239.63, 0.000000050936965, 10.002952, 9.998482 
5.0495e+2, 1.2534519e+2, -1896029.3, -1805577.3, 81004.77, -0.123669975, 0.25443634, -1758028.4, -46388.773, 0.0000009949754, 9.998779, 9.999964 
5.049587e+2, 1.3534552e+2, -1700029.5, -1585290.5, -113758.08, 0.025413102, 0.22663084, -1515254.5, 98383.664, 0.000000065122016, 9.999115, 10.0006485 
5.049655e+2, 1.4534649e+2, -1579759.4, -1482948.8, -14703.089, -0.14395137, 0.26145762, -1480765.0, 34863.73, 0.0, 9.999299, 10.000584 
5.049763e+2, 1.5534689e+2, -1483198.1, -1388333.8, -23259.385, -0.056478642, 0.2407455, -1382937.9, 34686.21, 0.0, 9.999303, 10.000558 
5.049862e+2, 1.6534713e+2, -1388158.5, -1338338.1, -38238.137, -0.013397055, 0.23316698, -1317612.0, 2009.2465, 0.0, 9.999482, 10.000143 
5.049952e+2, 1.7534736e+2, -1240167.6, -1213755.5, -23579.432, -0.049924243, 0.23872012, -1199935.9, 21683.559, 0.0, 9.999815, 10.000165 
5.050046e+2, 1.853475e+2, -1118668.4, -1105795.1, -21568.348, -0.048056282, 0.23823708, -1089723.5, 33894.285, 0.0, 9.999982, 10.000152 
5.0501454e+2, 1.9534756e+2, -1017434.94, -1005672.1, -34633.508, 0.0014815927, 0.22701374, -976424.2, 49192.06, 0.0, 10.000003, 10.000156 
5.0502414e+2, 2.0534745e+2, -913439.94, -952884.56, -39149.74, 0.019293385, 0.22196057, -889325.4, 38291.785, 0.0, 10.000251, 9.999727 
5.050334e+2, 2.1534716e+2, -749468.3, -821426.2, -33552.066, 0.00429835, 0.21881631, -736251.44, 93368.4, 0.0, 10.000697, 9.999742 
5.050428e+2, 2.253467e+2, -644645.2, -754228.44, -31080.094, -0.0002584339, 0.21459392, -636444.0, 95180.13, 0.0, 10.000891, 9.999436 
5.050523e+2, 2.3534606e+2, -549789.3, -656403.3, -35843.793, 0.006148685, 0.20665897, -538859.1, 94770.516, 0.0, 10.000863, 9.999448 
5.050619e+2, 2.4534535e+2, -433353.94, -576271.1, -36188.906, 0.010140897, 0.20263273, -424712.8, 110923.26, 0.0, 10.001105, 9.999209 
5.050716e+2, 2.5534454e+2, -267044.7, -446917.5, -41306.18, 0.010362534, 0.19814427, -258012.63, 179630.53, 0.0, 10.001581, 9.999195 
5.0508165e+2, 2.653433e+2, -207442.88, -490957.16, -9778.013, 0.013200034, 0.21400942, -207106.05, 132550.55, 0.0, 10.001849, 9.998091 
5.0509214e+2, 2.7534172e+2, -95698.625, -384506.6, -1800.3617, 0.020877032, 0.24261288, -95687.41, 145988.31, 0.0, 10.001936, 9.998108 
5.0510263e+2, 2.8534007e+2, 30253.594, -280943.25, -17383.076, 0.038952697, 0.27190158, 31221.58, 174914.4, 0.0, 10.002162, 9.998037 
5.05113e+2, 2.9533845e+2, 176688.13, -161098.05, -31608.947, 0.060075037, 0.30241087, 179620.53, 225328.19, 0.0, 10.002501, 9.998025 
5.051222e+2, 3.0533472e+2, 192571.52, -244731.36, -35223.48, -0.027715871, 0.18392938, 195390.48, 195390.48, 0.0, 10.002776, 9.996984 
5.051324e+2, 3.153334e+2, 325266.5, -16856.11, 12408.474, 0.0025381276, 0.35241526, 325715.97, 325715.97, 0.000000020855737, 10.002983, 9.998448 
5.1494926e+2, 1.2533464e+2, -1881830.1, -1774189.8, 93744.39, -0.07303071, 0.24413045, -1719914.5, -8170.937, 0.00000067894854, 9.998771, 10.000183 
5.1495785e+2, 1.3533515e+2, -1687350.6, -1559000.8, -101478.72, 0.023859546, 0.21363698, -1503107.5, 110631.84, 0.000000029496794, 9.999113, 10.00083 
5.1496434e+2, 1.453363e+2, -1593750.9, -1511688.9, -14771.22, -0.18870707, 0.2675288, -1509111.0, 6617.7363, 0.0, 9.999298, 10.000387 
5.1497567e+2, 1.5533657e+2, -1495592.8, -1413940.5, -23063.123, -0.0433758, 0.25757203, -1407876.5, 9849.941, 0.0, 9.999302, 10.000382 
5.1498604e+2, 1.6533689e+2, -1363056.0, -1286114.6, -26133.678, 0.019544585, 0.2461386, -1278077.6, 41645.12, 0.0, 9.999481, 10.000502 
5.1499516e+2, 1.7533731e+2, -1216552.4, -1164751.5, -11478.526, -0.032834433, 0.2350817, -1162321.9, 59395.082, 0.0, 9.999815, 10.000502 
5.150046e+2, 1.8533741e+2, -1143304.1, -1156969.5, -20890.67, -0.050966766, 0.23053691, -1128157.1, -4441.2603, 0.0, 9.999982, 9.999801 
5.150143e+2, 1.9533719e+2, -1040898.75, -1054349.6, -33291.027, -0.023790514, 0.22653396, -1013660.6, 12058.226, 0.0, 10.000002, 9.999823 
5.150242e+2, 2.0533708e+2, -903394.4, -931728.6, -22388.266, -0.0008717722, 0.2316318, -891067.3, 36652.633, 0.0, 10.000249, 9.999873 
5.150342e+2, 2.1533707e+2, -740133.1, -801619.4, -17367.29, 0.01290774, 0.24105704, -735566.75, 94152.46, 0.0, 10.000695, 9.999878 
5.150438e+2, 2.2533655e+2, -653505.2, -772557.44, -32239.797, 0.012669398, 0.23097791, -645335.2, 86388.5, 0.0, 10.00089, 9.999311 
5.1505315e+2, 2.3533557e+2, -558248.56, -674588.0, -36220.14, 0.0020634986, 0.20003067, -547893.7, 85839.06, 0.0, 10.000866, 9.999323 
5.1506305e+2, 2.4533473e+2, -444575.4, -600183.94, -18429.719, 0.012228322, 0.19930755, -442422.47, 93318.266, 0.0, 10.001107, 9.999043 
5.150734e+2, 2.5533402e+2, -277778.75, -469143.8, -24003.686, 0.039789673, 0.22228192, -274813.8, 162933.72, 0.0, 10.00158, 9.999043 
5.150836e+2, 2.6533282e+2, -192246.83, -459255.06, -6793.297, 0.02579366, 0.23703058, -192074.11, 147686.0, 0.0, 10.001848, 9.998309 
5.150937e+2, 2.7533117e+2, -81577.85, -355502.84, 1564.2504, -0.023309037, 0.23902975, -81568.92, 160209.02, 0.0, 10.001937, 9.998306 
5.151044e+2, 2.853294e+2, 3352.777, -336817.25, -4859.394, 0.004467045, 0.26577622, 3422.1802, 147218.94, 0.0, 10.002161, 9.997654 
5.1511586e+2, 2.953276e+2, 151353.48, -212792.63, -18849.998, 0.095311224, 0.31591555, 152326.66, 198142.53, 0.0, 10.002497, 9.997671 
5.1512516e+2, 3.0532402e+2, 234325.95, -156872.48, -27492.406, 0.0003784593, 0.1946752, 236248.6, 236248.6, 0.0, 10.002771, 9.997589 
5.151348e+2, 3.1532323e+2, 351667.7, 39108.375, 17182.063, -0.04687657, 0.35855788, 352609.4, 352609.4, 0.0000000053166334, 10.002978, 9.998836 
5.2494794e+2, 1.2532386e+2, -1878776.8, -1746971.8, 80577.43, -0.07592904, 0.23901764, -1708778.9, 3071.2202, 0.0000005002885, 9.998684, 10.00041 
5.2495694e+2, 1.3532467e+2, -1724353.4, -1556700.9, -113812.93, 0.04703497, 0.2197619, -1499175.8, 114666.52, 0.000000016983103, 9.998773, 10.00101 
5.249634e+2, 1.45326e+2, -1644228.6, -1539316.4, -24700.47, -0.19613667, 0.28435546, -1533791.9, -17962.064, 0.0, 9.998966, 10.000358 
5.2497494e+2, 1.5532608e+2, -1514217.0, -1425712.1, -20977.969, -0.040400974, 0.25680232, -1420991.6, -3161.559, 0.0, 9.9991865, 10.000358 
5.2498555e+2, 1.6532642e+2, -1370261.1, -1276641.1, -23106.193, 0.028985774, 0.2429807, -1271248.9, 48577.22, 0.0, 9.999375, 10.000618 
5.249949e+2, 1.7532708e+2, -1249044.6, -1167878.8, -27278.121, -0.023110978, 0.24353987, -1159563.1, 62254.453, 0.0, 9.999537, 10.000613 
5.250045e+2, 1.8532719e+2, -1171801.8, -1173941.3, -34584.785, -0.047332376, 0.23881808, -1138270.3, -14454.334, 0.0, 9.999801, 9.999772 
5.250143e+2, 1.9532685e+2, -1021778.6, -1048637.4, -22933.994, -0.03107319, 0.22372831, -1008631.4, 17188.707, 0.0, 10.000148, 9.999791 
5.2502435e+2, 2.0532668e+2, -897895.2, -938806.56, -7726.696, -0.010109541, 0.22897595, -896484.56, 31337.39, 0.0, 10.000328, 9.999786 
5.2503467e+2, 2.153267e+2, -794650.5, -837381.06, -20381.914, 0.009039264, 0.24924675, -786487.9, 43333.57, 0.0, 10.000361, 9.999794 
5.2504456e+2, 2.2532612e+2, -688557.75, -790634.1, -38262.35, 0.013261794, 0.24074829, -675808.0, 56018.188, 0.0, 10.000654, 9.9993 
5.250542e+2, 2.3532507e+2, -513260.9, -654760.06, -33748.2, 0.006428164, 0.20252101, -505623.97, 128211.56, 0.0, 10.001183, 9.999306 
5.250644e+2, 2.453241e+2, -408462.0, -610156.1, -14042.644, 0.015091894, 0.20265666, -407489.0, 128356.01, 0.0, 10.001473, 9.998798 
5.2507496e+2, 2.5532323e+2, -298091.34, -505139.84, -25933.076, 0.03632194, 0.23409519, -294892.6, 142961.77, 0.0, 10.0015545, 9.998808 
5.250854e+2, 2.6532194e+2, -203800.67, -454572.03, -20235.67, 0.023874862, 0.24463506, -202178.28, 137689.48, 0.0, 10.001726, 9.9984 
5.250957e+2, 2.7532023e+2, -70411.195, -340509.44, -21247.748, -0.01676395, 0.23112504, -68749.92, 173134.98, 0.0, 10.001973, 9.998391 
5.251066e+2, 2.8531846e+2, 1302.0947, -352269.13, -18137.342, 0.0059877206, 0.2589773, 2230.0605, 146133.98, 0.0, 10.002211, 9.997524 
5.251182e+2, 2.9531664e+2, 134171.23, -234030.48, -13686.994, 0.079720795, 0.32554558, 134679.31, 180603.25, 0.0, 10.002435, 9.997555 
5.2512777e+2, 3.0531308e+2, 230748.31, -124263.59, -29683.898, -0.012160392, 0.1970794, 233213.19, 233213.19, 0.0, 10.0026, 9.997895 
5.251377e+2, 3.1531236e+2, 317275.5, 32907.926, -9659.571, -0.040063012, 0.33227992, 317603.25, 317603.25, 0.00000000056215, 10.002697, 9.998928 
5.3494596e+2, 1.2531286e+2, -1863064.5, -1713635.6, 79258.09, -0.13906473, 0.23873563, -1679427.6, 32531.451, 0.00000041209, 9.998681, 10.00064 
5.349562e+2, 1.353141e+2, -1711858.4, -1531222.0, -110067.96, 0.09403369, 0.24557938, -1479159.3, 134787.47, 0.000000018082496, 9.998774, 10.001185 
5.3496265e+2, 1.4531562e+2, -1635008.5, -1519785.9, -16544.678, -0.16668016, 0.31293127, -1517457.3, -1525.333, 0.0, 9.998963, 10.000493 
5.3497404e+2, 1.5531537e+2, -1505392.3, -1407199.8, -13171.161, -0.04852526, 0.23901485, -1405463.8, 12471.02, 0.0, 9.999186, 10.000485 
5.3498477e+2, 1.6531569e+2, -1379278.5, -1295151.1, -17444.691, 0.013302486, 0.22376278, -1291677.3, 28253.977, 0.0, 9.999374, 10.000491 
5.349945e+2, 1.7531662e+2, -1257092.5, -1184410.8, -21022.514, -0.02142016, 0.26408625, -1178768.3, 43153.02, 0.0, 9.9995365, 10.000501 
5.350044e+2, 1.8531686e+2, -1151614.6, -1131637.6, -21623.426, -0.03771179, 0.26306006, -1117807.3, 6110.566, 0.0, 9.999798, 10.000064 
5.350145e+2, 1.9531651e+2, -1002729.4, -1008874.9, -10316.72, -0.02096208, 0.21882525, -995037.56, 30882.52, 0.0, 10.000147, 10.000065 
5.350247e+2, 2.0531622e+2, -920382.1, -985216.06, -6654.469, -0.009076439, 0.2145845, -919706.2, 8216.931, 0.0, 10.000327, 9.999468 
5.3503484e+2, 2.15316e+2, -816107.7, -881965.94, -18573.395, -0.0076139774, 0.24329245, -811230.75, 18695.775, 0.0, 10.000361, 9.999488 
5.350451e+2, 2.2531544e+2, -681279.06, -775671.06, -18504.64, 0.0010937108, 0.24335416, -677781.06, 54150.535, 0.0, 10.000655, 9.999403 
5.350555e+2, 2.3531458e+2, -507049.97, -641735.44, -14494.157, 0.018865384, 0.21397476, -505507.84, 128430.17, 0.0, 10.001182, 9.999396 
5.350658e+2, 2.4531348e+2, -431256.28, -657419.06, -11124.317, 0.01841571, 0.21286343, -430710.4, 105238.484, 0.0, 10.001473, 9.998474 
5.350761e+2, 2.5531217e+2, -320046.78, -551222.56, -22623.2, 0.0003138406, 0.23418069, -317853.66, 120109.96, 0.0, 10.001556, 9.998491 
5.350869e+2, 2.6531065e+2, -205986.88, -459526.16, -10908.238, 0.0070330864, 0.23723641, -205518.42, 134461.08, 0.0, 10.001727, 9.998365 
5.350982e+2, 2.7530885e+2, -72586.75, -344994.16, -11896.732, 0.03784463, 0.21855895, -72068.17, 169928.45, 0.0, 10.001973, 9.998361 
5.3510916e+2, 2.8530714e+2, 8915.152, -336011.56, -9725.85, 0.041711845, 0.25128666, 9189.173, 153203.55, 0.0, 10.002208, 9.997637 
5.3511995e+2, 2.953056e+2, 141446.97, -218154.81, -5169.9746, 0.015841784, 0.33257568, 141521.28, 187553.19, 0.0, 10.002432, 9.997665 
5.3512985e+2, 3.05302e+2, 231781.34, -121446.81, -26032.133, -0.06406048, 0.19269766, 233689.55, 233689.55, 0.0, 10.002596, 9.997916 
5.35141e+2, 3.1530076e+2, 304243.63, 6125.3335, -8012.0215, 0.016966833, 0.27541327, 304458.8, 304458.8, 0.0000000000003731001, 10.002695, 9.998745 
5.449446e+2, 1.2530226e+2, -1868764.1, -1719439.1, 100712.37, -0.14780255, 0.24658869, -1668732.3, 43330.754, 0.00000036785775, 9.998656, 10.000611 
5.449551e+2, 1.3530327e+2, -1736307.6, -1552666.0, -102179.75, 0.11287206, 0.23965156, -1507112.3, 106941.21, 0.000000024396927, 9.998647, 10.0011 
5.4496145e+2, 1.453049e+2, -1645901.5, -1504525.5, -9947.625, -0.17736062, 0.31362665, -1503829.0, 12208.298, 0.0, 9.998801, 10.000676 
5.4497313e+2, 1.5530485e+2, -1514841.5, -1392129.0, -4092.997, -0.05046906, 0.24156417, -1391992.6, 26044.496, 0.0, 9.999037, 10.00066 
5.449841e+2, 1.6530515e+2, -1400474.0, -1322960.0, -7900.7056, 0.014836787, 0.2230072, -1322162.9, -2128.9448, 0.0, 9.999307, 10.000333 
5.4499406e+2, 1.7530583e+2, -1258133.1, -1201646.6, -14234.72, -0.022006197, 0.2557089, -1198262.1, 23764.87, 0.0, 9.999602, 10.00035 
5.450042e+2, 1.8530609e+2, -1142454.6, -1114228.3, -22831.324, -0.034447897, 0.25638345, -1101500.3, 22523.236, 0.0, 9.999805, 10.000179 
5.4501474e+2, 1.9530597e+2, -1027455.5, -1008511.2, -25102.953, -0.008495978, 0.22258072, -991152.75, 34870.168, 0.0, 9.999925, 10.0001745 
5.450251e+2, 2.0530562e+2, -947684.06, -1012325.56, -20270.568, 0.0018494412, 0.21454498, -941853.44, -13827.221, 0.0, 10.0002, 9.999343 
5.4503536e+2, 2.153051e+2, -787582.7, -882052.25, -17785.803, -0.007844459, 0.22614424, -784345.1, 45687.664, 0.0, 10.000617, 9.999364 
5.4504585e+2, 2.2530445e+2, -651264.44, -767697.8, -13143.393, -0.0037448844, 0.22750296, -649799.2, 82239.586, 0.0, 10.000889, 9.999345 
5.450566e+2, 2.3530371e+2, -532825.7, -660604.9, -21319.742, 0.0152645325, 0.21623977, -529362.4, 104681.875, 0.0, 10.001033, 9.999338 
5.450672e+2, 2.453026e+2, -462786.4, -681175.06, -17666.88, 0.015439094, 0.22038631, -461366.44, 74688.99, 0.0, 10.001294, 9.998397 
5.450777e+2, 2.5530118e+2, -310302.63, -555267.5, -10994.8545, -0.0027048176, 0.23544529, -309810.13, 128261.42, 0.0, 10.001661, 9.998412 
5.4508877e+2, 2.6529944e+2, -186631.88, -462527.5, 5294.691, 0.0052241017, 0.23126334, -186530.3, 153558.72, 0.0, 10.001914, 9.998255 
5.451002e+2, 2.7529746e+2, -67234.37, -354089.53, -1573.8523, 0.03816678, 0.20390092, -67225.734, 174882.16, 0.0, 10.002061, 9.998256 
5.451114e+2, 2.852958e+2, 10872.458, -326295.78, -4541.863, 0.039373163, 0.24162382, 10933.629, 155058.81, 0.0, 10.002185, 9.997714 
5.451222e+2, 2.9529452e+2, 125388.8, -217396.92, -2639.383, 0.007046478, 0.34146434, 125409.12, 171549.27, 0.0, 10.002286, 9.99774 
5.4513234e+2, 3.05291e+2, 217846.78, -132317.45, -24885.012, -0.068838164, 0.20708126, 219606.44, 219606.44, 0.0, 10.00252, 9.997878 
5.451438e+2, 3.1528935e+2, 312592.38, -15077.77, -13670.942, 0.020970503, 0.25364706, 313161.78, 313161.78, 0.000000000015387011, 10.002862, 9.998518 
5.549437e+2, 1.252921e+2, -1888593.9, -1760769.6, 91655.55, -0.10466249, 0.2639202, -1712943.3, -781.77313, 0.0000003291145, 9.998657, 10.000327 
5.5495363e+2, 1.3529219e+2, -1760464.6, -1603917.4, -101760.62, 0.10227386, 0.20163548, -1553808.9, 60353.406, 0.000000025104656, 9.998651, 10.000747 
5.5495965e+2, 1.4529386e+2, -1629758.8, -1471070.9, -1052.7096, -0.23087077, 0.28553724, -1471063.9, 45081.836, 0.0, 9.9988, 10.000906 
5.549722e+2, 1.5529455e+2, -1499739.8, -1360425.3, 4629.5625, -0.047083244, 0.2650425, -1360271.6, 57865.523, 0.0, 9.999035, 10.000879 
5.5498356e+2, 1.6529481e+2, -1414476.0, -1351373.5, 3114.7842, 0.03350649, 0.24163042, -1351220.1, -31086.215, 0.0, 9.999304, 10.000139 
5.549936e+2, 1.7529476e+2, -1271660.4, -1229391.8, -3259.752, -0.025437102, 0.21845281, -1229141.8, -7007.0293, 0.0, 9.9996, 10.00016 
5.5500394e+2, 1.8529488e+2, -1146870.3, -1123187.9, -18512.734, -0.03852449, 0.21860765, -1113053.3, 11079.632, 0.0, 9.9998045, 10.000118 
5.550148e+2, 1.9529518e+2, -1031475.94, -1016808.75, -20326.256, 0.00593348, 0.23459356, -1002533.56, 23595.096, 0.0, 9.999924, 10.000118 
5.5502546e+2, 2.0529486e+2, -943295.4, -1003134.9, -4722.7104, 0.02224718, 0.22832133, -942924.94, -14793.599, 0.0, 10.000199, 9.999407 
5.5503607e+2, 2.1529399e+2, -783757.4, -873917.0, -2414.7466, 0.007670458, 0.19829372, -783692.75, 46447.367, 0.0, 10.000616, 9.99942 
5.5504674e+2, 2.2529322e+2, -666575.75, -799268.06, -7844.4663, -0.0018765688, 0.19392906, -666113.6, 66034.125, 0.0, 10.000888, 9.999128 
5.550574e+2, 2.3529251e+2, -547136.44, -690474.44, -15678.86, -0.0045019765, 0.20944834, -545441.5, 88712.74, 0.0, 10.001034, 9.999133 
5.5506843e+2, 2.452915e+2, -451278.97, -657493.75, -4053.1294, 0.005656347, 0.22494255, -451199.34, 84965.28, 0.0, 10.001295, 9.998559 
5.5507964e+2, 2.552902e+2, -299737.6, -533243.4, 2447.9924, 0.025724465, 0.23750074, -299711.94, 138466.4, 0.0, 10.001661, 9.998563 
5.550908e+2, 2.6528838e+2, -199981.31, -490069.84, 10622.773, 0.017715907, 0.22656831, -199592.83, 140603.64, 0.0, 10.001913, 9.998066 
5.5510175e+2, 2.752861e+2, -80048.15, -380617.66, 3931.0852, -0.013863108, 0.18775438, -79996.75, 162222.06, 0.0, 10.00206, 9.998074 
5.5511314e+2, 2.8528443e+2, 13484.938, -320579.3, -954.50854, -0.00037448228, 0.23046735, 13487.666, 157724.14, 0.0, 10.002184, 9.997754 
5.551249e+2, 2.952834e+2, 127492.5, -212449.22, 1313.0428, 0.049099196, 0.351814, 127497.57, 173746.45, 0.0, 10.002283, 9.997775 
5.5513525e+2, 3.0528006e+2, 210163.14, -147005.53, -11912.963, -0.02985549, 0.23906165, 210560.03, 210560.03, 0.0, 10.002514, 9.99778 
5.5514616e+2, 3.152781e+2, 292218.53, -54924.7, -2648.559, -0.02551719, 0.2668944, 292238.72, 292238.72, 0.0000000020600701, 10.0028515, 9.998249 
5.6494194e+2, 1.2528136e+2, -1997544.9, -1799570.5, 59562.55, -0.096040785, 0.27548817, -1783032.1, -70765.75, 0.00000027083397, 9.997852, 10.000448 
5.649524e+2, 1.3528126e+2, -1761841.5, -1602219.5, -93178.266, 0.11679193, 0.19090638, -1559344.0, 54924.664, 0.000000017878008, 9.998631, 10.000768 
5.6495845e+2, 1.4528291e+2, -1598186.0, -1467368.3, -747.8349, -0.24720466, 0.27631062, -1467364.0, 48888.418, 0.0, 9.999068, 10.000802 
5.6497127e+2, 1.5528361e+2, -1492121.3, -1367471.8, -21212.467, -0.046367, 0.266152, -1363960.8, 54283.52, 0.0, 9.999134, 10.000782 
5.6498295e+2, 1.6528386e+2, -1411134.9, -1338727.9, -19355.809, 0.041018385, 0.24151598, -1333878.5, -13637.514, 0.0, 9.99928, 10.000237 
5.649932e+2, 1.7528379e+2, -1280959.0, -1223768.4, -4170.2964, -0.021406839, 0.20722546, -1223465.9, -1224.776, 0.0, 9.999495, 10.00025 
5.650038e+2, 1.8528382e+2, -1158778.8, -1151643.1, -14056.372, -0.036439285, 0.20626368, -1140708.9, -16468.654, 0.0, 9.999822, 9.999914 
5.6501484e+2, 1.9528401e+2, -997573.1, -1022283.06, -27014.258, 0.007610361, 0.22960745, -980222.6, 46015.74, 0.0, 10.000252, 9.999923 
5.650258e+2, 2.0528366e+2, -897423.44, -969812.94, -17015.621, 0.026011446, 0.22524793, -893623.3, 34617.938, 0.0, 10.000466, 9.999507 
5.650367e+2, 2.1528287e+2, -795315.75, -869030.56, -12088.989, 0.015683917, 0.19287284, -793383.8, 36864.42, 0.0, 10.000492, 9.999514 
5.650476e+2, 2.2528206e+2, -703063.8, -833214.2, -11619.565, 0.0057213614, 0.18958469, -702034.6, 30221.518, 0.0, 10.000709, 9.998981 
5.6505847e+2, 2.3528126e+2, -547749.56, -706716.2, -14442.021, -0.0016569197, 0.20916475, -546448.1, 87816.55, 0.0, 10.001099, 9.99899 
5.6506974e+2, 2.4528019e+2, -439098.0, -651574.3, -6539.5337, 0.0060586096, 0.22723971, -438896.9, 97378.83, 0.0, 10.001379, 9.998559 
5.6508124e+2, 2.5527894e+2, -314446.1, -540100.0, -12215.998, 0.02576544, 0.2410256, -313786.7, 124502.26, 0.0, 10.001559, 9.998565 
5.650925e+2, 2.6527712e+2, -219846.84, -495794.97, -4232.392, 0.0136702135, 0.23117015, -219781.94, 120524.625, 0.0, 10.001761, 9.998099 
5.6510365e+2, 2.7527487e+2, -89396.695, -381163.5, 5170.8594, -0.025414923, 0.19294333, -89305.086, 153023.31, 0.0, 10.00198, 9.998108 
5.651152e+2, 2.8527313e+2, 8941.303, -327164.7, 2983.1628, -0.008852952, 0.228662, 8967.778, 153314.56, 0.0, 10.0021715, 9.997714 
5.651272e+2, 2.9527196e+2, 131966.44, -214463.36, -969.3767, 0.05343341, 0.33765247, 131969.16, 178330.08, 0.0, 10.002333, 9.997738 
5.6513774e+2, 3.0526888e+2, 203501.5, -132472.44, -6147.2964, -0.023516145, 0.24961543, 203613.94, 203613.94, 0.0, 10.002391, 9.997939 
5.651488e+2, 3.1526718e+2, 220880.81, -88454.914, 19151.693, -0.03200607, 0.28153697, 222062.02, 222062.02, 0.000000017271022, 10.002357, 9.998258 
5.749395e+2, 1.2527008e+2, -1960009.6, -1721754.9, 75341.59, -0.1289557, 0.27949753, -1699929.4, 12448.378, 0.00000019303324, 9.997852, 10.000982 
5.7495147e+2, 1.3527055e+2, -1733472.0, -1544072.8, -63711.09, 0.1564217, 0.20882158, -1524635.9, 89736.266, 0.000000007774616, 9.9986315, 10.001167 
5.749577e+2, 1.4527209e+2, -1629990.4, -1533004.6, 2162.3223, -0.22601372, 0.28731534, -1532956.4, -16599.4, 0.0, 9.999066, 10.000353 
5.749704e+2, 1.5527202e+2, -1521866.3, -1429084.4, -18595.193, -0.049030297, 0.24420443, -1425496.4, -7137.851, 0.0, 9.999134, 10.00036 
5.7498217e+2, 1.6527228e+2, -1384047.4, -1282473.9, -11526.633, 0.036224823, 0.2218106, -1281182.3, 39172.727, 0.0, 9.999279, 10.000624 
5.749928e+2, 1.7527293e+2, -1255307.5, -1170459.1, 4101.2827, -0.010320611, 0.22220835, -1170261.3, 52084.68, 0.0, 9.999494, 10.000617 
5.750037e+2, 1.8527296e+2, -1183576.4, -1202883.3, 2124.5505, -0.028504172, 0.21963058, -1183345.4, -59000.242, 0.0, 9.99982, 9.999563 
5.7501495e+2, 1.9527245e+2, -1021434.4, -1071529.9, -11164.5205, -0.0037330023, 0.20786554, -1019058.8, 7293.0063, 0.0, 10.00025, 9.999585 
5.7502615e+2, 2.0527202e+2, -888138.06, -950273.5, -16289.063, 0.012703554, 0.20555833, -884126.8, 44229.063, 0.0, 10.000465, 9.999641 
5.7503724e+2, 2.1527173e+2, -786138.6, -850141.8, -10841.033, 0.015848402, 0.20924029, -784352.2, 46005.02, 0.0, 10.000492, 9.999643 
5.750484e+2, 2.2527103e+2, -708659.8, -844940.4, 2945.5505, 0.018390486, 0.21370547, -708596.2, 23767.791, 0.0, 10.000709, 9.998901 
5.7505983e+2, 2.3526996e+2, -553615.1, -718872.2, -0.07632072, 0.022966187, 0.21508346, -553615.1, 80760.49, 0.0, 10.001098, 9.998906 
5.750712e+2, 2.452687e+2, -450374.2, -674922.56, 89.38823, 0.016139098, 0.22713916, -450374.16, 86014.69, 0.0, 10.001378, 9.9984 
5.7508254e+2, 2.5526732e+2, -324881.3, -561784.1, -5404.9556, -0.0020513318, 0.24612683, -324758.06, 113645.28, 0.0, 10.001559, 9.998416 
5.750941e+2, 2.6526567e+2, -202610.1, -459943.6, 3729.0112, -0.0070906603, 0.24502103, -202556.06, 137863.22, 0.0, 10.0017605, 9.998346 
5.751059e+2, 2.752638e+2, -73228.17, -346761.5, 13078.614, 0.0009825063, 0.2184586, -72604.26, 169832.6, 0.0, 10.001976, 9.998346 
5.751176e+2, 2.852619e+2, -466.49316, -345180.97, 8822.78, 0.01190237, 0.23584157, -240.8266, 144215.48, 0.0, 10.002165, 9.997594 
5.751292e+2, 2.952602e+2, 123179.164, -231170.64, 5008.451, 0.021587221, 0.30036515, 123249.94, 169726.2, 0.0, 10.002325, 9.997626 
5.751399e+2, 3.0525753e+2, 231003.56, -74011.86, -7801.307, -0.049226906, 0.2396736, 231202.97, 231202.97, 0.00000000021282408, 10.002385, 9.998343 
5.751514e+2, 3.152565e+2, 239491.9, -48609.527, 15415.064, -0.0035746556, 0.29911706, 240314.36, 240314.36, 0.0000000699572, 10.002352, 9.998534 
5.8493745e+2, 1.2525842e+2, -1874500.0, -1665765.8, 61850.67, -0.143821, 0.264187, -1648815.1, 63676.82, 0.00000011738098, 9.998377, 10.001113 
5.8495015e+2, 1.3525909e+2, -1767658.6, -1558111.6, -92715.94, 0.17596292, 0.21162051, -1522979.0, 91504.88, 0.0000000014227642, 9.998386, 10.001188 
5.849566e+2, 1.4526063e+2, -1689538.6, -1559667.0, -28487.504, -0.22533141, 0.2897121, -1553693.0, -37224.45, 0.0, 9.998651, 10.000369 
5.8496946e+2, 1.5526043e+2, -1528763.0, -1429955.6, -14922.643, -0.047871966, 0.22972141, -1427751.1, -9279.496, 0.0, 9.999077, 10.00038 
5.849815e+2, 1.6526069e+2, -1367692.8, -1276343.4, -8070.348, 0.037548304, 0.20771599, -1275635.9, 44832.324, 0.0, 9.999399, 10.0006075 
5.8499235e+2, 1.7526147e+2, -1236546.6, -1162998.8, -23222.182, -0.009551077, 0.22334284, -1156280.3, 66177.64, 0.0, 9.99963, 10.000602 
5.8500355e+2, 1.8526153e+2, -1176720.6, -1194686.1, -20609.547, -0.028763603, 0.22206272, -1163221.4, -38764.586, 0.0, 9.999846, 9.999607 
5.8501506e+2, 1.9526094e+2, -1047800.94, -1079422.4, -4508.062, -0.0054000015, 0.19950442, -1047170.8, -20707.027, 0.0, 10.000049, 9.999627 
5.8502656e+2, 2.0526052e+2, -913903.3, -969667.4, -8156.184, 0.009816576, 0.19734767, -912734.9, 15733.129, 0.0, 10.000319, 9.999578 
5.850377e+2, 2.1526025e+2, -767531.7, -848110.9, -17622.76, 0.011823331, 0.21084784, -763846.1, 66623.28, 0.0, 10.00065, 9.99958 
5.850492e+2, 2.2525954e+2, -689529.9, -843454.1, -7510.4385, 0.019519536, 0.2208508, -689164.3, 43312.207, 0.0, 10.000874, 9.998832 
5.8506095e+2, 2.352584e+2, -572697.75, -735625.0, -9645.935, 0.034730453, 0.22345458, -572128.6, 62360.082, 0.0, 10.001, 9.998838 
5.8507264e+2, 2.4525705e+2, -474834.13, -689967.94, -4199.667, 0.026273383, 0.22752249, -474752.2, 61750.87, 0.0, 10.0012245, 9.99837 
5.85084e+2, 2.5525546e+2, -330138.3, -567259.2, -309.4444, -0.0047553456, 0.23035647, -330137.9, 108381.22, 0.0, 10.001536, 9.998389 
5.8509576e+2, 2.6525387e+2, -211998.44, -462586.4, -466.78784, -0.012212476, 0.2342847, -211997.56, 128537.14, 0.0, 10.001688, 9.998363 
5.8510774e+2, 2.7525222e+2, -113485.0, -363829.2, -8329.768, 0.0030871588, 0.23172429, -113208.14, 129341.96, 0.0, 10.00169, 9.998366 
5.8511955e+2, 2.852504e+2, -47317.055, -347773.97, -7697.8335, 0.011706411, 0.24174353, -47119.96, 97449.08, 0.0, 10.001757, 9.997772 
5.851312e+2, 2.9524848e+2, 71410.51, -236483.95, 10275.414, 0.010156302, 0.2706954, 71753.05, 118342.945, 0.0, 10.001885, 9.997802 
5.851421e+2, 3.0524614e+2, 196801.98, -77870.805, -3829.8486, -0.05057189, 0.2266124, 196855.38, 196855.38, 0.000000006848287, 10.002096, 9.998456 
5.8515394e+2, 3.1524515e+2, 245765.13, -41931.23, -3988.6973, 0.0194165, 0.28002325, 245820.4, 245820.4, 0.00000018333391, 10.002379, 9.998566 
5.9493583e+2, 1.2524635e+2, -1893792.8, -1706260.0, 45169.574, -0.14353043, 0.22767487, -1695947.5, 16661.285, 0.000000058921596, 9.998379, 10.0008335 
5.949485e+2, 1.3524687e+2, -1793173.8, -1611842.9, -91259.484, 0.17441022, 0.1981805, -1573867.3, 40736.543, 0.000000000010343272, 9.998389, 10.000819 
5.94955e+2, 1.4524855e+2, -1655484.8, -1488751.5, -12062.71, -0.24662513, 0.2824641, -1487883.3, 28703.697, 0.0, 9.998648, 10.000857 
5.949686e+2, 1.5524882e+2, -1495886.8, -1361773.9, 1033.471, -0.043464344, 0.22309916, -1361765.9, 56817.42, 0.0, 9.999076, 10.000849 
5.94981e+2, 1.6524908e+2, -1397721.1, -1338746.0, 472.26498, 0.044592675, 0.19949776, -1338742.1, -18161.926, 0.0, 9.999399, 10.000179 
5.9499186e+2, 1.752494e+2, -1264805.9, -1221823.1, -14522.979, -0.01951412, 0.21042481, -1217376.3, 5200.662, 0.0, 9.99963, 10.000197 
5.9500325e+2, 1.8524952e+2, -1146085.8, -1131172.0, -13110.564, -0.03786284, 0.21347922, -1123546.0, 1028.8857, 0.0, 9.999846, 10.000043 
5.9501517e+2, 1.9524951e+2, -1018268.1, -1018408.8, 3129.421, 0.0021383464, 0.2043272, -1015208.25, 11366.004, 0.0, 10.00005, 10.000047 
5.950269e+2, 2.0524913e+2, -931999.6, -1007227.4, 4171.7314, 0.016903784, 0.20031846, -931768.94, -3191.2522, 0.0, 10.000319, 9.999321 
5.950383e+2, 2.1524847e+2, -785301.06, -885018.75, -5399.2397, 0.003217187, 0.19783914, -785009.56, 45575.24, 0.0, 10.000649, 9.999328 
5.9505e+2, 2.2524762e+2, -693598.25, -851915.94, -2925.1816, 0.008633929, 0.21108267, -693544.2, 39049.367, 0.0, 10.000874, 9.998775 
5.9506196e+2, 2.3524664e+2, -576483.94, -743642.4, -4735.1665, 0.03353398, 0.2343514, -576349.9, 58253.992, 0.0, 10.001, 9.998783 
5.9507394e+2, 2.4524519e+2, -467863.34, -675614.3, 7433.4893, 0.035950053, 0.2285647, -467597.72, 69020.625, 0.0, 10.0012245, 9.998468 
5.9508574e+2, 2.5524336e+2, -323944.22, -554046.9, 11059.19, 0.016407663, 0.1945218, -323413.9, 115222.38, 0.0, 10.001534, 9.998482 
5.9509754e+2, 2.652417e+2, -226930.58, -493119.97, -414.45212, -0.0025389588, 0.1996448, -226929.94, 113722.805, 0.0, 10.001685, 9.998155 
5.9510916e+2, 2.752402e+2, -127296.13, -392363.34, -7956.9106, -0.019009965, 0.23265278, -127057.49, 115610.63, 0.0, 10.001688, 9.998172 
5.951211e+2, 2.8523853e+2, -15083.739, -280468.2, -3191.6465, -0.010150792, 0.24609928, -15045.361, 129639.66, 0.0, 10.001756, 9.998236 
5.951332e+2, 2.9523686e+2, 101990.875, -171592.31, 14611.643, 0.017309513, 0.24914975, 102769.05, 149471.0, 0.0, 10.00188, 9.998251 
5.951444e+2, 3.052347e+2, 184000.58, -102537.234, 6432.1978, -0.02895725, 0.21189122, 184144.89, 184144.89, 0.000000033052434, 10.002088, 9.998291 
5.951565e+2, 3.1523317e+2, 230836.98, -71670.984, 4786.5337, 0.0359529, 0.22886038, 230912.7, 230912.7, 0.00000037488923, 10.002374, 9.998364 
6.0493416e+2, 1.252345e+2, -1933724.9, -1719173.1, 37061.254, -0.13539034, 0.21699175, -1712951.6, -227.48048, 0.000000021349177, 9.998079, 10.000888 
6.0494703e+2, 1.3523494e+2, -1748053.8, -1595667.1, -55412.027, 0.17304079, 0.18383816, -1577648.4, 37071.418, 0.0, 9.998723, 10.000769 
6.0495365e+2, 1.4523652e+2, -1601304.4, -1464982.9, 10669.431, -0.2641197, 0.26266864, -1464152.9, 52550.977, 0.0, 9.999031, 10.000835 
6.049677e+2, 1.5523687e+2, -1510754.9, -1370990.0, -15548.352, -0.03581524, 0.2133439, -1369281.3, 49418.184, 0.0, 9.998983, 10.00083 
6.049804e+2, 1.6523716e+2, -1430386.3, -1358696.5, -13814.756, 0.05590583, 0.19473249, -1356126.5, -35430.094, 0.0, 9.999194, 10.000141 
6.0499144e+2, 1.7523743e+2, -1267038.6, -1226886.4, 97.37668, -0.023065448, 0.20530355, -1226886.1, -4192.215, 0.0, 9.999633, 10.000161 
6.0500306e+2, 1.8523754e+2, -1138368.5, -1123008.5, -7249.5176, -0.042020984, 0.20690489, -1120127.4, 4564.532, 0.0, 9.999881, 10.000083 
6.0501534e+2, 1.9523755e+2, -1028889.56, -1019494.75, -20894.686, 0.009820426, 0.19536501, -1002776.0, 23914.547, 0.0, 9.99996, 10.000082 
6.050272e+2, 2.0523715e+2, -952995.75, -1026008.3, -18465.154, 0.026018936, 0.19100645, -948591.5, -19897.193, 0.0, 10.000212, 9.999244 
6.0503894e+2, 2.1523641e+2, -794627.56, -897759.1, -14715.005, 0.0043577747, 0.19004634, -792569.06, 38133.6, 0.0, 10.000622, 9.999253 
6.0505086e+2, 2.2523555e+2, -682234.3, -839400.44, -8620.426, 0.0056879916, 0.20252162, -681762.9, 50948.586, 0.0, 10.000921, 9.998837 
6.0506296e+2, 2.3523462e+2, -554838.25, -726478.1, -1489.7894, 0.03016945, 0.22304192, -554825.3, 79895.43, 0.0, 10.00112, 9.998843 
6.050751e+2, 2.4523316e+2, -469078.1, -681132.4, 10029.859, 0.038017556, 0.21664286, -468604.75, 68130.3, 0.0, 10.001238, 9.9984255 
6.050873e+2, 2.552313e+2, -364294.56, -578291.06, 2684.116, 0.029304216, 0.18435389, -364260.9, 74492.77, 0.0, 10.001278, 9.998439 
6.050992e+2, 2.6522964e+2, -264258.56, -502295.47, -5801.739, 0.0075395913, 0.18632579, -264117.25, 76652.99, 0.0, 10.00139, 9.998234 
6.051107e+2, 2.7522814e+2, -139088.72, -389305.4, 7762.1533, -0.024765449, 0.21110201, -138848.16, 103937.08, 0.0, 10.00157, 9.99825 
6.0512275e+2, 2.8522652e+2, -20934.773, -281805.22, 6493.1924, -0.017569955, 0.22519322, -20773.254, 124028.266, 0.0, 10.001708, 9.99825 
6.051351e+2, 2.952249e+2, 91616.984, -175818.16, -8932.058, 0.022336315, 0.23850343, 91914.97, 138732.48, 0.00000000003092486, 10.001804, 9.998258 
6.051465e+2, 3.0522302e+2, 165401.66, -112536.01, -21488.82, -0.015925745, 0.22493388, 167053.25, 167053.25, 0.00000008707832, 10.001965, 9.9982815 
6.0515887e+2, 3.152211e+2, 204897.13, -84423.14, -13468.788, 0.046557125, 0.20127042, 205522.8, 205522.8, 0.0000006525611, 10.002196, 9.998363 
6.149323e+2, 1.2522288e+2, -1906715.3, -1662369.8, 41272.535, -0.12365315, 0.23092265, -1655586.8, 57251.332, 0.0000000039655865, 9.998076, 10.001279 
6.1494577e+2, 1.3522331e+2, -1728786.3, -1556339.0, -30966.615, 0.17131577, 0.16898352, -1550946.9, 63884.832, 0.0, 9.998725, 10.001039 
6.1495256e+2, 1.4522459e+2, -1639083.9, -1543654.1, 9121.191, -0.27862242, 0.23008817, -1542790.3, -25971.266, 0.0, 9.999031, 10.000296 
6.149668e+2, 1.5522459e+2, -1546994.0, -1446247.0, -16984.703, -0.025357656, 0.20031244, -1443460.6, -24640.87, 0.0, 9.998983, 10.000314 
6.1497974e+2, 1.6522491e+2, -1405724.5, -1307601.8, 2531.5532, 0.07120972, 0.193493, -1307536.5, 13280.063, 0.0, 9.999193, 10.000492 
6.149911e+2, 1.7522557e+2, -1243274.0, -1177942.0, 16241.677, -0.020661052, 0.20794968, -1174127.1, 48681.766, 0.0, 9.999634, 10.000497 
6.1500293e+2, 1.852256e+2, -1163449.5, -1175440.1, -4566.967, -0.04193909, 0.20225698, -1161908.1, -37100.504, 0.0, 9.999882, 9.9997225 
6.150153e+2, 1.9522505e+2, -1053209.6, -1070263.3, -17699.143, 0.017117843, 0.17278565, -1042090.44, -15277.894, 0.0, 9.99996, 9.999733 
6.150276e+2, 2.0522454e+2, -945839.4, -1011250.2, -3253.8555, 0.03668242, 0.16966425, -945677.94, -16860.268, 0.0, 10.000212, 9.999345 
6.1503965e+2, 2.1522409e+2, -787390.7, -882653.56, 476.23526, 0.014746213, 0.1873927, -787388.3, 43434.66, 0.0, 10.000621, 9.999357 
6.150518e+2, 2.2522335e+2, -669851.2, -813329.3, -1318.3877, 0.010274519, 0.1952565, -669839.06, 62991.145, 0.0, 10.000919, 9.999017 
6.15064e+2, 2.3522234e+2, -542629.44, -701095.44, 5773.037, 0.024349833, 0.18999617, -542419.4, 92419.81, 0.0, 10.00112, 9.999018 
6.1507636e+2, 2.4522096e+2, -482068.75, -708238.4, 11358.426, 0.032215454, 0.19180661, -481499.75, 55353.355, 0.0, 10.001238, 9.9982395 
6.1508864e+2, 2.5521928e+2, -376856.06, -604317.1, 4329.978, 0.033366606, 0.19840851, -376773.66, 62097.703, 0.0, 10.001277, 9.9982605 
6.151006e+2, 2.6521766e+2, -239300.1, -450409.6, 695.1357, 0.016982151, 0.19354528, -239297.8, 101589.49, 0.0, 10.00139, 9.99859 
6.151124e+2, 2.7521604e+2, -115236.586, -339343.22, 14070.742, -0.01490073, 0.16924672, -114356.59, 128544.81, 0.0, 10.001567, 9.998594 
6.151245e+2, 2.8521433e+2, -50567.605, -342743.4, 9968.837, -0.0109419245, 0.18101598, -50227.87, 94690.57, 0.0, 10.001705, 9.997832 
6.1513686e+2, 2.9521275e+2, 62515.31, -236308.53, -4945.362, 0.02330542, 0.236562, 62597.13, 109533.74, 0.0000000010306047, 10.001803, 9.997843 
6.151485e+2, 3.0521113e+2, 174407.33, -93348.89, -12933.592, -0.013810307, 0.26227194, 175030.61, 175030.61, 0.00000016756015, 10.001962, 9.998414 
6.1516106e+2, 3.152089e+2, 215786.7, -59442.89, -6363.299, 0.05011977, 0.19930212, 215933.73, 215933.73, 0.000001002472, 10.002186, 9.998539 
6.2493044e+2, 1.2521115e+2, -1885240.3, -1662889.9, 48113.65, -0.1276447, 0.2273201, -1652925.3, 60026.145, 0.00000000008306351, 9.998271, 10.001182 
6.249447e+2, 1.3521142e+2, -1740589.6, -1582169.9, -39611.598, 0.19291575, 0.1675341, -1572817.4, 42129.79, 0.0, 9.99873, 10.000859 
6.249517e+2, 1.4521241e+2, -1629524.1, -1547166.4, -13807.574, -0.26638928, 0.21530531, -1544913.1, -27975.85, 0.0, 9.999132, 10.000223 
6.2496597e+2, 1.552124e+2, -1486689.9, -1425173.5, -5319.2246, -0.03215643, 0.18893278, -1424717.0, -5778.6733, 0.0, 9.999432, 10.000242 
6.24979e+2, 1.6521272e+2, -1355693.9, -1289684.6, 18212.22, 0.06291957, 0.18800785, -1284993.3, 35941.824, 0.0, 9.999563, 10.000437 
6.2499076e+2, 1.752134e+2, -1260504.9, -1192753.8, 938.2104, -0.013313135, 0.20925494, -1192740.8, 30186.686, 0.0, 9.999543, 10.000439 
6.2500286e+2, 1.8521331e+2, -1183233.8, -1198868.6, -21954.002, -0.034157753, 0.20215061, -1167746.9, -42819.277, 0.0, 9.999805, 9.999598 
6.250154e+2, 1.9521256e+2, -1007807.06, -1061824.1, -17706.889, 0.010763707, 0.16403809, -1002520.1, 24414.791, 0.0, 10.00033, 9.999613 
6.250279e+2, 2.0521201e+2, -893964.3, -981716.5, -1704.7196, 0.030065354, 0.16081385, -893931.2, 35009.297, 0.0, 10.000548, 9.999385 
6.2504023e+2, 2.1521167e+2, -803457.6, -885736.2, -2557.95, 0.020582424, 0.18617824, -803378.2, 27566.178, 0.0, 10.000491, 9.999399 
6.250527e+2, 2.2521096e+2, -705105.2, -820939.2, -6919.706, 0.019064225, 0.19263905, -704693.3, 28257.611, 0.0, 10.000637, 9.999101 
6.2506515e+2, 2.3520994e+2, -559056.0, -699546.75, -7307.3936, 0.027063401, 0.17798431, -558676.94, 76282.93, 0.0, 10.000966, 9.999103 
6.250775e+2, 2.4520867e+2, -490227.0, -707350.2, -4014.1482, 0.029146727, 0.18208909, -490152.8, 46820.1, 0.0, 10.001161, 9.998282 
6.2508976e+2, 2.5520715e+2, -380805.66, -601460.5, 6138.4473, 0.024520809, 0.20079052, -380635.03, 58354.637, 0.0, 10.001229, 9.998303 
6.25102e+2, 2.6520556e+2, -246780.89, -451828.13, 1644.4426, 0.014989618, 0.19752006, -246767.7, 94237.375, 0.0, 10.001328, 9.9986105 
6.251141e+2, 2.7520388e+2, -130258.01, -344364.9, -10214.288, 0.0022828395, 0.16607922, -129771.83, 113247.67, 0.0, 10.001453, 9.998615 
6.2512636e+2, 2.8520212e+2, -61664.465, -346319.88, -9667.587, 0.004656574, 0.16684361, -61336.508, 83700.73, 0.0, 10.001621, 9.9978485 
6.2513864e+2, 2.9520038e+2, 67571.836, -232598.9, 6986.012, 0.017373996, 0.20692308, 67734.336, 114790.89, 0.000000004235602, 10.001833, 9.997854 
6.2515044e+2, 3.0519894e+2, 172580.1, -99128.664, 7583.0693, -0.01738648, 0.2561737, 172791.56, 172791.56, 0.000000262113, 10.001971, 9.99837 
6.251633e+2, 3.1519666e+2, 196610.69, -64430.316, -999.0916, 0.066933684, 0.18519232, 196614.52, 196614.52, 0.0000013873902, 10.002036, 9.998576 
6.3492846e+2, 1.2519927e+2, -1926858.8, -1749278.9, 43632.09, -0.15247294, 0.20241578, -1739137.5, -26073.078, 0.0, 9.998271, 10.000588 
6.3494384e+2, 1.3519928e+2, -1785183.6, -1674914.0, -22137.475, 0.23783594, 0.18006267, -1670635.8, -55569.453, 0.0, 9.99873, 10.000223 
6.3495123e+2, 1.4520009e+2, -1601607.5, -1489466.5, -2558.9883, -0.22729105, 0.21907614, -1489408.1, 27650.443, 0.0, 9.999132, 10.00062 
6.3496506e+2, 1.5520032e+2, -1459732.5, -1369820.9, 5402.8877, -0.05727986, 0.17906016, -1369497.4, 49557.496, 0.0, 9.9994335, 10.000622 
6.349783e+2, 1.6520059e+2, -1388194.6, -1357546.6, 16970.752, 0.029420953, 0.1779655, -1350005.1, -28953.059, 0.0, 9.999565, 9.99997 
6.349904e+2, 1.752009e+2, -1292269.0, -1258778.0, 400.20224, -0.0016099889, 0.2094569, -1258773.1, -35723.48, 0.0, 9.999543, 9.999986 
6.350028e+2, 1.852007e+2, -1175877.0, -1183499.0, -2479.0737, -0.018984996, 0.2069683, -1175141.6, -50089.83, 0.0, 9.9998045, 9.999703 
6.350155e+2, 1.9520006e+2, -1000300.7, -1046398.56, 1484.2423, -0.009528903, 0.16907737, -1000253.0, 26804.754, 0.0, 10.00033, 9.999719 
6.350281e+2, 2.0519954e+2, -895337.6, -984709.3, -4269.7734, 0.005554551, 0.16428122, -895134.1, 33928.656, 0.0, 10.000549, 9.999365 
6.350407e+2, 2.1519914e+2, -804831.06, -888867.25, -4586.281, 0.021349935, 0.18614686, -804581.56, 26485.342, 0.0, 10.000492, 9.999377 
6.350534e+2, 2.2519845e+2, -705881.56, -822539.0, 5369.59, 0.031350333, 0.19428639, -705634.9, 27438.691, 0.0, 10.000636, 9.99909 
6.3506615e+2, 2.3519747e+2, -559545.5, -700441.0, 4844.2065, 0.037692323, 0.18646114, -559379.1, 75703.52, 0.0, 10.000965, 9.999097 
6.350786e+2, 2.4519628e+2, -471412.28, -668279.0, -1714.0065, 0.028215887, 0.18718293, -471397.38, 65697.03, 0.0, 10.001161, 9.998551 
6.3509077e+2, 2.551949e+2, -362387.06, -563465.8, 8575.832, 0.003115546, 0.19263901, -362022.0, 77086.49, 0.0, 10.001229, 9.998564 
6.3510317e+2, 2.651934e+2, -268217.6, -496637.66, 6230.981, 0.0018294434, 0.19863366, -268047.75, 73075.75, 0.0, 10.001329, 9.998302 
6.3511574e+2, 2.7519172e+2, -150972.52, -387496.53, -5338.724, 0.024573872, 0.19854702, -150852.08, 92287.47, 0.0, 10.001453, 9.998319 
6.351282e+2, 2.851898e+2, -31987.396, -283992.16, -1908.6362, 0.026715793, 0.1802921, -31972.941, 113185.0, 0.0, 10.001617, 9.998278 
6.351403e+2, 2.9518783e+2, 95517.32, -172323.55, 14548.342, 0.0056195, 0.15299411, 96305.23, 143482.36, 0.000000008608103, 10.001823, 9.998273 
6.3515234e+2, 3.0518663e+2, 156281.36, -130997.26, 9846.144, -0.025212625, 0.21119592, 156618.42, 156618.42, 0.00000035003856, 10.001962, 9.998156 
6.3516563e+2, 3.1518432e+2, 189684.4, -78913.81, 312.72208, 0.09286701, 0.16163673, 189684.77, 189684.77, 0.0000017531552, 10.002036, 9.998478 
6.4492697e+2, 1.2518679e+2, -1880799.0, -1740471.8, -19467.518, -0.1471935, 0.19001554, -1737821.1, -24635.646, 0.0, 9.998645, 10.000469 
6.449427e+2, 1.351866e+2, -1759348.9, -1680293.3, -26203.666, 0.23699519, 0.16484368, -1672396.6, -57206.914, 0.0, 9.998983, 10.000064 
6.4495045e+2, 1.4518726e+2, -1584971.5, -1475933.0, -9401.504, -0.22711788, 0.19597687, -1475128.3, 42055.27, 0.0, 9.999223, 10.000669 
6.449645e+2, 1.5518785e+2, -1470294.1, -1369861.8, -28621.984, -0.051665697, 0.18557218, -1362277.6, 56898.99, 0.0, 9.999339, 10.000667 
6.4497787e+2, 1.6518809e+2, -1393099.9, -1366513.8, -16144.356, 0.035724293, 0.18460847, -1358894.0, -37720.277, 0.0, 9.99956, 9.999911 
6.4499015e+2, 1.7518806e+2, -1248528.6, -1244342.0, -2380.1323, 0.0034204263, 0.18737996, -1243265.5, -20090.975, 0.0, 9.999872, 9.999927 
6.450027e+2, 1.8518785e+2, -1142779.1, -1168331.0, 9989.399, -0.014201561, 0.18608187, -1139337.4, -14160.3125, 0.0, 10.000036, 9.999697 
6.450158e+2, 1.9518748e+2, -1039294.3, -1066038.4, 4860.3076, -0.0052688317, 0.17800936, -1038438.44, -11257.677, 0.0, 10.000067, 9.999711 
6.450286e+2, 2.0518704e+2, -935689.44, -1000479.0, -8171.271, 0.007039574, 0.1791036, -934674.8, -5489.708, 0.0, 10.000257, 9.999397 
6.450413e+2, 2.151865e+2, -787999.6, -877399.4, -4500.679, 0.018344054, 0.18415011, -787773.6, 43416.363, 0.0, 10.000593, 9.999407 
6.450541e+2, 2.2518574e+2, -689520.56, -826081.8, 6430.9927, 0.024976647, 0.1885874, -689218.4, 43979.195, 0.0, 10.000798, 9.998988 
6.4506704e+2, 2.3518474e+2, -578259.4, -720417.25, -1037.0308, 0.02861561, 0.1890967, -578251.8, 56955.945, 0.0, 10.000884, 9.998999 
6.4507973e+2, 2.4518359e+2, -479321.84, -651099.56, -16999.766, 0.026851103, 0.18832225, -477655.66, 59563.344, 0.0, 10.001016, 9.998738 
6.450922e+2, 2.551823e+2, -355490.7, -539582.6, -13058.513, 0.019419689, 0.18349342, -354569.0, 84662.15, 0.0, 10.001188, 9.998748 
6.451046e+2, 2.6518086e+2, -268539.5, -505443.25, -8490.92, 0.015747575, 0.18976605, -268235.56, 73009.91, 0.0, 10.001365, 9.998224 
6.451171e+2, 2.7517918e+2, -142937.69, -391636.84, -3197.449, 0.016943015, 0.19922319, -142896.58, 100365.516, 0.0, 10.001544, 9.998247 
6.451296e+2, 2.851773e+2, -32819.277, -268881.72, -7315.358, 0.018610956, 0.177802, -32592.799, 112687.73, 0.0, 10.001546, 9.998416 
6.45142e+2, 2.9517528e+2, 40301.97, -184091.89, -12293.86, 0.017694188, 0.13596424, 40973.504, 88272.77, 0.000000011710588, 10.00138, 9.998405 
6.4515424e+2, 3.051743e+2, 108016.02, -150016.02, -5794.8696, -0.010368872, 0.20801029, 108146.1, 108146.1, 0.00000040808163, 10.001613, 9.998193 
6.451677e+2, 3.1517193e+2, 230313.14, -39388.246, 1548.6128, 0.08831538, 0.14926238, 230322.03, 230322.03, 0.0000020409286, 10.00223, 9.998655 
6.5492594e+2, 1.2517366e+2, -1854563.8, -1687058.0, -29471.32, -0.11396896, 0.18947086, -1682024.0, 31290.574, 0.0, 9.99865, 10.0008335 
6.549412e+2, 1.3517337e+2, -1736041.8, -1632244.8, -13807.73, 0.18854514, 0.12099023, -1630439.4, -15121.976, 0.0, 9.998984, 10.000393 
6.5494925e+2, 1.4517397e+2, -1606608.4, -1520768.3, -5374.9614, -0.26823357, 0.14478005, -1520433.0, -3120.9988, 0.0, 9.999222, 10.000361 
6.549642e+2, 1.5517499e+2, -1490961.3, -1412759.0, -24400.934, -0.015649742, 0.20916323, -1405770.0, 13533.1455, 0.0, 9.999339, 10.000373 
6.549779e+2, 1.6517529e+2, -1368987.8, -1316443.9, -4702.5815, 0.08202469, 0.20902938, -1316026.4, 5273.5884, 0.0, 9.999559, 10.000256 
6.549901e+2, 1.751749e+2, -1224864.5, -1195270.5, 9028.756, 0.0011477454, 0.14285456, -1192733.4, 30568.646, 0.0, 9.999872, 10.000264 
6.550028e+2, 1.8517476e+2, -1151752.8, -1186895.5, 10673.954, -0.021099739, 0.13905175, -1148764.9, -23461.395, 0.0, 10.000035, 9.99957 
6.550161e+2, 1.9517487e+2, -1048091.1, -1084361.3, 5958.4546, 0.022935746, 0.19075334, -1047137.4, -19833.408, 0.0, 10.000067, 9.999585 
6.550291e+2, 2.0517455e+2, -929818.9, -988292.6, 4206.6543, 0.03423301, 0.20529273, -929517.75, -210.38255, 0.0, 10.000257, 9.999481 
6.5504175e+2, 2.151738e+2, -782428.5, -865879.1, 7780.5977, 0.0112423375, 0.18042827, -781709.3, 49604.305, 0.0, 10.000593, 9.999486 
6.5505457e+2, 2.2517286e+2, -702871.6, -853980.4, 9327.734, -0.0002980732, 0.17583132, -702298.0, 31024.844, 0.0, 10.000798, 9.998796 
6.5506756e+2, 2.3517178e+2, -591167.25, -747563.8, 2228.5735, 0.00011960511, 0.18607178, -591135.5, 44199.445, 0.0, 10.000885, 9.998812 
6.550807e+2, 2.451706e+2, -471907.22, -636040.44, -10556.041, 0.024563788, 0.18552311, -471231.13, 66115.48, 0.0, 10.001017, 9.998841 
6.550938e+2, 2.5516933e+2, -348102.25, -524382.5, -6630.1465, 0.07090944, 0.17291561, -347853.25, 91504.3, 0.0, 10.001189, 9.998852 
6.5510637e+2, 2.6516792e+2, -258464.67, -484233.88, -1871.6235, 0.05481906, 0.17103876, -258449.16, 82921.766, 0.0, 10.001364, 9.998371 
6.5511835e+2, 2.751663e+2, -133534.33, -370925.25, 3370.7278, -0.018761817, 0.1706924, -133486.48, 109900.42, 0.0, 10.001538, 9.998391 
6.551308e+2, 2.8516454e+2, -43342.23, -290027.1, -13706.613, -0.018132363, 0.16130883, -42582.98, 102821.79, 0.0, 10.001542, 9.998273 
6.5514374e+2, 2.9516274e+2, 30783.992, -204733.28, -18073.635, 0.050016608, 0.15249296, 32162.895, 79585.914, 0.000000011654482, 10.001383, 9.998262 
6.551562e+2, 3.0516195e+2, 126793.72, -110576.11, 17206.588, 0.023741953, 0.24267776, 128034.516, 128034.516, 0.00000041978168, 10.001611, 9.998465 
6.551696e+2, 3.1515956e+2, 257990.3, 22128.783, 23371.13, 0.055111423, 0.15041843, 260283.8, 260283.8, 0.000002202322, 10.002213, 9.999086 
6.649246e+2, 1.2516035e+2, -1865297.6, -1668847.4, -32619.195, -0.10245498, 0.17291994, -1663572.9, 49872.297, 0.0, 9.998475, 10.001041 
6.6494006e+2, 1.3516052e+2, -1723802.1, -1603877.5, -6918.467, 0.18007287, 0.12815769, -1603479.6, 11962.885, 0.0, 9.998972, 10.000594 
6.6494846e+2, 1.4516097e+2, -1602231.3, -1532732.1, -5930.7407, -0.26692584, 0.13598265, -1532229.6, -14791.356, 0.0, 9.999314, 10.000235 
6.649637e+2, 1.551618e+2, -1477250.1, -1420100.4, -12011.613, -0.005588704, 0.191847, -1417678.4, 1753.5125, 0.0, 9.999494, 10.000247 
6.6497755e+2, 1.6516212e+2, -1351466.5, -1301492.9, 5725.59, 0.091495894, 0.19587, -1300845.3, 20583.633, 0.0, 9.999653, 10.000313 
6.649899e+2, 1.7516194e+2, -1232777.3, -1192742.3, -2785.2146, 0.0033362175, 0.14534602, -1192549.4, 30879.512, 0.0, 9.999792, 10.0003195 
6.6500276e+2, 1.8516183e+2, -1158356.8, -1189571.1, -9524.754, -0.019131148, 0.14260231, -1155680.0, -30250.234, 0.0, 9.9999895, 9.999573 
6.650163e+2, 1.9516182e+2, -1022141.94, -1071770.6, -4615.3833, 0.030479357, 0.18164922, -1021716.4, 5714.6626, 0.0, 10.000246, 9.999585 
6.650295e+2, 2.0516141e+2, -904290.6, -983273.1, -2996.4783, 0.041442994, 0.19132955, -904177.06, 25258.207, 0.0, 10.0004635, 9.999415 
6.6504234e+2, 2.1516061e+2, -778519.7, -871067.2, -11060.049, 0.012534832, 0.16950852, -777216.25, 54225.945, 0.0, 10.000651, 9.999422 
6.6505533e+2, 2.2515973e+2, -699695.7, -847222.7, -11881.099, -0.00037485518, 0.16890335, -698744.94, 34706.4, 0.0, 10.000798, 9.998842 
6.650685e+2, 2.3515874e+2, -584553.9, -739192.56, -1206.6781, 0.0029539086, 0.18367691, -584544.5, 50918.09, 0.0, 10.000909, 9.998858 
6.650818e+2, 2.4515757e+2, -461919.56, -630071.4, -5195.1104, 0.028951861, 0.18235068, -461759.2, 75714.77, 0.0, 10.001081, 9.998851 
6.650951e+2, 2.5515625e+2, -329593.94, -514272.03, -8462.29, 0.0753137, 0.16414379, -329207.0, 110278.31, 0.0, 10.001311, 9.998862 
6.651077e+2, 2.6515487e+2, -256413.86, -473091.9, -16661.45, 0.05765161, 0.1613472, -255140.16, 86358.055, 0.0, 10.001334, 9.998461 
6.651197e+2, 2.7515337e+2, -182231.31, -384436.84, -15856.381, -0.01884184, 0.16482875, -180995.45, 62517.45, 0.0, 10.001162, 9.99848 
6.651323e+2, 2.8515163e+2, -83181.7, -314116.84, -26359.742, -0.016545445, 0.15593451, -80211.125, 65319.52, 0.0, 10.00129, 9.998228 
6.6514534e+2, 2.9514977e+2, 74642.8, -188953.23, -23792.168, 0.057073653, 0.14354295, 76773.06, 124323.05, 0.000000008469742, 10.001709, 9.998213 
6.651579e+2, 3.0514908e+2, 153684.73, -99357.94, 6378.067, 0.026068328, 0.24634369, 153845.39, 153845.39, 0.00000038345433, 10.001803, 9.998448 
6.651713e+2, 3.1514668e+2, 178079.66, 2186.2107, -9486.39, 0.039281752, 0.15710986, 178589.81, 178589.81, 0.0000022156387, 10.001583, 9.999251 
6.749229e+2, 1.251469e+2, -1862016.4, -1662158.6, -34269.42, -0.11742375, 0.13619271, -1656445.8, 57131.324, 0.0, 9.998476, 10.001088 
6.7493933e+2, 1.3514811e+2, -1718241.6, -1593058.3, 11797.728, 0.21130025, 0.18809156, -1591956.1, 23608.627, 0.0, 9.998975, 10.000668 
6.749482e+2, 1.4514838e+2, -1598528.1, -1525584.8, 724.03894, -0.2231457, 0.17151667, -1525577.5, -8015.8247, 0.0, 9.999316, 10.000283 
6.74963e+2, 1.551483e+2, -1474548.0, -1413974.4, -5309.915, -0.022651616, 0.13319705, -1413512.4, 6050.2715, 0.0, 9.999492, 10.000291 
6.7497694e+2, 1.6514857e+2, -1368593.1, -1336488.0, 10791.839, 0.06241989, 0.144345, -1333197.6, -11637.325, 0.0, 9.99965, 10.000073 
6.749897e+2, 1.7514919e+2, -1249225.3, -1226799.5, 2421.7734, 0.009585269, 0.1949658, -1226541.0, -2986.045, 0.0, 9.999791, 10.000086 
6.750029e+2, 1.8514907e+2, -1149320.5, -1170902.3, -139.78409, -0.008458753, 0.19722913, -1149319.6, -23763.97, 0.0, 9.9999895, 9.999701 
6.750164e+2, 1.9514835e+2, -1013485.8, -1053716.4, 4812.628, 0.016798008, 0.15098955, -1012918.1, 14643.782, 0.0, 10.000245, 9.999709 
6.750299e+2, 2.0514764e+2, -919782.94, -1015369.4, 3709.8254, 0.027873812, 0.13752066, -919639.1, 9929.432, 0.0, 10.000463, 9.999195 
6.750431e+2, 2.1514699e+2, -793440.3, -901966.2, -4217.858, 0.021663062, 0.1514614, -793276.6, 38299.074, 0.0, 10.00065, 9.99921 
6.750564e+2, 2.2514632e+2, -680177.94, -806631.6, -7876.0474, 0.023879612, 0.1677754, -679689.3, 53893.688, 0.0, 10.000798, 9.999122 
6.7506975e+2, 2.351456e+2, -565249.6, -699170.2, 2923.233, 0.03577737, 0.18184164, -565185.9, 70404.67, 0.0, 10.000909, 9.999133 
6.750829e+2, 2.451445e+2, -467819.1, -642282.44, 3353.5037, 0.039356768, 0.17889096, -467754.66, 69846.41, 0.0, 10.0010805, 9.998768 
6.7509604e+2, 2.5514308e+2, -335731.47, -526447.5, 138.5168, 0.034345537, 0.1574513, -335731.34, 103882.93, 0.0, 10.001308, 9.99878 
6.751088e+2, 2.6514173e+2, -254314.69, -468387.56, -23165.11, 0.025134686, 0.16080831, -251836.64, 89790.57, 0.0, 10.001333, 9.998494 
6.751211e+2, 2.7514043e+2, -179633.22, -379526.2, -21983.525, 0.013603803, 0.17998138, -177244.11, 66395.984, 0.0, 10.0011635, 9.998513 
6.751339e+2, 2.851386e+2, -80108.32, -307477.88, -10622.347, 0.020394508, 0.16040485, -79613.14, 66045.016, 0.0, 10.001289, 9.998274 
6.751469e+2, 2.9513642e+2, 76118.65, -184045.94, -8092.1763, 0.04070247, 0.11112735, 76370.1, 124050.05, 0.0000000040864183, 10.001701, 9.99825 
6.751594e+2, 3.051357e+2, 132958.6, -141418.89, -1553.4763, -0.0014809658, 0.22183257, 132967.39, 132967.39, 0.0000003121116, 10.001799, 9.998162 
6.751729e+2, 3.1513342e+2, 172703.3, -10556.082, -17896.586, 0.036911696, 0.17167173, 174434.67, 174434.67, 0.0000020914758, 10.00159, 9.999162 
6.849216e+2, 1.2513407e+2, -1816840.6, -1666557.1, -16362.986, -0.114935845, 0.13251443, -1664796.1, 48906.113, 0.0, 9.998899, 10.000854 
6.849384e+2, 1.3513526e+2, -1717622.5, -1613516.9, 28097.01, 0.21210395, 0.20499061, -1606417.9, 9272.942, 0.0, 9.999069, 10.000482 
6.849477e+2, 1.4513533e+2, -1587788.5, -1511931.1, 6052.859, -0.20698772, 0.17101869, -1511451.1, 6238.7437, 0.0, 9.999355, 10.000358 
6.849626e+2, 1.5513521e+2, -1432433.6, -1386060.8, 1455.435, -0.026366733, 0.1221264, -1386015.1, 33674.89, 0.0, 9.999749, 10.000358 
6.8497664e+2, 1.6513546e+2, -1333453.5, -1342726.0, 13720.307, 0.052235134, 0.13745382, -1323607.3, -1919.3425, 0.0, 9.999993, 9.999865 
6.8498963e+2, 1.7513601e+2, -1219327.6, -1235415.6, 7135.1323, 0.008743199, 0.20432767, -1216619.1, 7065.0234, 0.0, 10.000097, 9.999878 
6.85003e+2, 1.8513578e+2, -1111861.0, -1151952.9, 4690.077, -0.0034400807, 0.20363574, -1111319.8, 14366.485, 0.0, 10.000244, 9.999707 
6.850168e+2, 1.9513485e+2, -984561.56, -1038758.06, 359.08582, 0.0227912, 0.13697107, -984559.2, 43134.313, 0.0, 10.000441, 9.999717 
6.850304e+2, 2.0513411e+2, -911569.44, -1015170.75, -2850.5073, 0.032295752, 0.120771885, -911491.06, 18209.346, 0.0, 10.000537, 9.999161 
6.850437e+2, 2.1513356e+2, -811849.9, -914628.94, 2869.2954, 0.02226473, 0.14854324, -811769.8, 19937.186, 0.0, 10.000541, 9.999176 
6.8505716e+2, 2.2513293e+2, -697477.06, -807796.9, -19.071476, 0.028272655, 0.16844632, -697477.06, 36236.95, 0.0, 10.0006485, 9.999186 
6.8507075e+2, 2.3513222e+2, -568702.0, -693601.4, -5559.9365, 0.050970193, 0.17671096, -568455.0, 67266.42, 0.0, 10.000854, 9.999197 
6.8508404e+2, 2.4513121e+2, -481249.47, -640140.25, -8546.716, 0.049567044, 0.17515983, -480791.06, 56940.02, 0.0, 10.000952, 9.998844 
6.8509704e+2, 2.5512993e+2, -382873.66, -540496.1, -133.89755, 0.024730142, 0.16111018, -382873.53, 56869.29, 0.0, 10.000948, 9.998857 
6.8510985e+2, 2.6512864e+2, -289357.6, -487087.66, -21069.229, 0.017580384, 0.16676809, -287137.47, 54617.96, 0.0, 10.0011015, 9.998477 
6.8512255e+2, 2.7512732e+2, -145796.13, -364931.6, -23760.873, 0.028764155, 0.18375544, -143249.33, 100519.73, 0.0, 10.001405, 9.998496 
6.851354e+2, 2.851255e+2, -44029.848, -283272.8, -10430.836, 0.035589334, 0.16177663, -43575.93, 102210.99, 0.0, 10.001509, 9.998335 
6.8514836e+2, 2.951233e+2, 39634.75, -195298.02, -7185.758, 0.034913257, 0.10912208, 39854.332, 87662.04, 0.0000000009738006, 10.001424, 9.998306 
6.85161e+2, 3.0512244e+2, 89788.586, -182372.56, 2125.1553, -0.010401664, 0.2107269, 89805.18, 89805.18, 0.00000022618863, 10.001589, 9.997981 
6.851747e+2, 3.1511986e+2, 232799.33, 19476.424, -7717.2954, 0.037267786, 0.15002692, 233078.16, 233078.16, 0.0000018666766, 10.001999, 9.99917 
6.949207e+2, 1.2512192e+2, -1852834.9, -1743150.9, -27340.586, -0.0983788, 0.16417432, -1736713.6, -22893.816, 0.0, 9.998907, 10.000324 
6.949371e+2, 1.3512208e+2, -1750278.8, -1680342.5, 34607.332, 0.18136643, 0.17816645, -1666112.8, -50292.41, 0.0, 9.999065, 10.000024 
6.9494694e+2, 1.4512186e+2, -1581521.6, -1497969.3, 21208.8, -0.21950762, 0.13335262, -1492894.0, 24928.457, 0.0, 9.999351, 10.000456 
6.9496244e+2, 1.5512258e+2, -1425672.5, -1372587.8, 16677.545, -0.017625647, 0.1590116, -1367783.1, 52030.29, 0.0, 9.999751, 10.000449 
6.949767e+2, 1.6512279e+2, -1346488.5, -1370494.4, 17553.676, 0.060082186, 0.17588897, -1337226.4, -15415.146, 0.0, 9.999996, 9.999673 
6.949896e+2, 1.7512245e+2, -1232911.8, -1263033.3, 11025.665, 0.000026873355, 0.17369875, -1229307.3, -5490.898, 0.0, 10.000094, 9.99969 
6.950032e+2, 1.8512197e+2, -1120563.1, -1169331.9, 11813.461, -0.005198787, 0.16187276, -1117852.1, 7969.0303, 0.0, 10.00024, 9.99959 
6.9501746e+2, 1.9512135e+2, -992586.7, -1055383.5, 7561.201, 0.048106175, 0.13920535, -991689.1, 36136.617, 0.0, 10.000441, 9.999603 
6.950311e+2, 2.051208e+2, -901267.3, -994055.0, -3005.5237, 0.05453209, 0.14057496, -901170.06, 28660.629, 0.0, 10.000537, 9.999306 
6.950441e+2, 2.1512033e+2, -801780.06, -894078.25, 2927.6738, 0.014020715, 0.16058618, -801687.25, 30148.873, 0.0, 10.000542, 9.999317 
6.950577e+2, 2.251196e+2, -707721.2, -829525.4, 7607.1597, 0.01242283, 0.17098017, -707247.9, 26596.396, 0.0, 10.000649, 9.999036 
6.950716e+2, 2.3511863e+2, -578825.1, -714820.7, 2080.9883, 0.0486805, 0.1685953, -578793.3, 57061.7, 0.0, 10.0008545, 9.999052 
6.950851e+2, 2.4511771e+2, -465082.63, -606593.75, -8812.907, 0.05912629, 0.17117833, -464535.9, 73328.01, 0.0, 10.000952, 9.999075 
6.9509816e+2, 2.5511685e+2, -366862.5, -507264.03, -270.37457, 0.044588376, 0.17466223, -366861.97, 73009.0, 0.0, 10.000948, 9.999085 
6.9511116e+2, 2.651156e+2, -294284.38, -496872.84, -9882.214, 0.033635356, 0.17891589, -293803.47, 48079.43, 0.0, 10.0011, 9.998411 
6.95124e+2, 2.75114e+2, -151321.81, -375114.84, -12473.794, 0.027350081, 0.1767982, -150628.7, 93271.0, 0.0, 10.001399, 9.998429 
6.951369e+2, 2.8511223e+2, -39510.137, -272994.47, -13680.633, 0.029695826, 0.16024055, -38711.277, 107205.62, 0.0, 10.001505, 9.998407 
6.951498e+2, 2.9511043e+2, 44656.613, -185149.03, -10265.212, 0.03805489, 0.13559258, 45114.242, 93047.71, 0.000000000021633938, 10.001425, 9.998376 
6.9516265e+2, 3.0510932e+2, 83545.94, -194751.67, 17156.887, -0.0027249083, 0.21233208, 84599.66, 84599.66, 0.00000014519733, 10.001587, 9.997897 
6.951767e+2, 3.151061e+2, 237302.03, 31790.305, 7097.906, 0.037943047, 0.09484886, 237546.89, 237546.89, 0.0000015881137, 10.0019865, 9.999261 
7.0491964e+2, 1.2510896e+2, -1872166.1, -1768293.8, -68851.414, -0.090254605, 0.17242524, -1733986.8, -20040.578, 0.0, 9.998843, 10.000183 
7.0493627e+2, 1.3510887e+2, -1676440.9, -1652176.5, 38005.465, 0.16174768, 0.16980006, -1624413.8, -8464.821, 0.0, 9.999605, 9.999957 
7.049466e+2, 1.4510842e+2, -1505872.1, -1479935.8, 19509.629, -0.21721183, 0.112315565, -1469477.5, 48476.12, 0.0, 9.99995, 10.000289 
7.0496225e+2, 1.5510921e+2, -1411652.5, -1384404.4, -5098.868, -0.014513344, 0.16280973, -1383481.5, 36462.688, 0.0, 9.999929, 10.000281 
7.0497674e+2, 1.6510938e+2, -1337926.4, -1363549.9, -6612.0376, 0.06286352, 0.18273844, -1336320.8, -14378.347, 0.0, 10.000044, 9.999696 
7.0498985e+2, 1.751089e+2, -1202753.6, -1245674.4, 2863.7856, 0.0036966323, 0.1630876, -1202563.4, 21385.117, 0.0, 10.000291, 9.999714 
7.0500356e+2, 1.8510836e+2, -1099203.4, -1167206.8, 11321.087, -0.0019841816, 0.14931487, -1097368.1, 28585.684, 0.0, 10.000423, 9.999516 
7.050179e+2, 1.951078e+2, -996262.1, -1065436.9, 9928.676, 0.04862288, 0.13935833, -994865.25, 33093.082, 0.0, 10.000451, 9.999528 
7.050317e+2, 2.0510729e+2, -895790.1, -987057.3, -3930.1519, 0.057107594, 0.14523377, -895621.2, 34341.9, 0.0, 10.000557, 9.999344 
7.0504487e+2, 2.1510682e+2, -770746.25, -874928.6, -6154.8325, 0.023728583, 0.16170777, -770383.94, 61584.402, 0.0, 10.000737, 9.999354 
7.050584e+2, 2.2510606e+2, -688742.0, -825867.6, -1982.2257, 0.01830895, 0.17211181, -688713.4, 45263.29, 0.0, 10.000804, 9.998986 
7.050723e+2, 2.3510508e+2, -595458.8, -728330.94, -348.8871, 0.03975755, 0.17339386, -595457.94, 40530.01, 0.0, 10.000764, 9.999002 
7.050859e+2, 2.4510416e+2, -478443.7, -605588.9, -13809.596, 0.05108997, 0.17465897, -476961.06, 61035.902, 0.0, 10.000828, 9.999141 
7.050992e+2, 2.551033e+2, -355815.28, -494552.38, -17670.584, 0.052491482, 0.17216958, -353600.0, 86403.77, 0.0, 10.000993, 9.999151 
7.0511234e+2, 2.6510215e+2, -294038.4, -492665.66, -26530.193, 0.04527832, 0.17777137, -290555.9, 51459.18, 0.0, 10.001083, 9.998447 
7.051253e+2, 2.7510065e+2, -191270.27, -390110.78, -21818.709, 0.031037282, 0.1843613, -188904.27, 55126.637, 0.0, 10.001107, 9.9984665 
7.0513827e+2, 2.8509894e+2, -75694.836, -289228.34, -23891.436, 0.03176476, 0.16916741, -73054.37, 72993.266, 0.0, 10.001251, 9.998418 
7.051513e+2, 2.9509705e+2, 58312.656, -177736.8, -25142.852, 0.044414416, 0.13772152, 60961.035, 109025.44, 0.0, 10.001515, 9.9983835 
7.051644e+2, 3.0509576e+2, 88369.09, -198256.98, 5188.636, 0.0053155287, 0.20137258, 88462.984, 88462.984, 0.00000008201181, 10.001645, 9.997846 
7.051785e+2, 3.150926e+2, 195433.75, 23806.258, -3788.5796, 0.0409754, 0.093741536, 195517.33, 195517.33, 0.0000012936833, 10.001645, 9.999371 
7.1491843e+2, 1.2509519e+2, -1854871.6, -1731658.9, -53748.934, -0.09317485, 0.15599658, -1711507.8, 2573.753, 0.0, 9.998839, 10.000436 
7.149357e+2, 1.350957e+2, -1651997.5, -1602950.0, 66852.33, 0.15098822, 0.17981921, -1556265.3, 59811.105, 0.0, 9.999612, 10.000292 
7.149467e+2, 1.4509504e+2, -1535979.0, -1544172.8, 18306.65, -0.20205684, 0.10803795, -1521316.4, -3233.3154, 0.0, 9.999958, 9.999845 
7.1496224e+2, 1.5509515e+2, -1442840.4, -1448620.1, -5732.4854, -0.017321378, 0.13358127, -1439310.5, -19228.305, 0.0, 9.999927, 9.999842 
7.149767e+2, 1.6509525e+2, -1321523.4, -1328924.5, 2862.5337, 0.06010292, 0.15805271, -1320545.5, 1535.7849, 0.0, 10.000041, 9.999935 
7.149903e+2, 1.7509535e+2, -1185935.4, -1211188.0, 12296.443, 0.018978907, 0.1720527, -1180937.1, 43143.49, 0.0, 10.000292, 9.999949 
7.15004e+2, 1.8509498e+2, -1101662.8, -1172688.3, 12142.244, 0.005579835, 0.16565494, -1099644.4, 26439.639, 0.0, 10.000424, 9.999477 
7.1501815e+2, 1.9509421e+2, -998966.4, -1071059.9, 10908.836, 0.024068827, 0.13774562, -997351.9, 30739.229, 0.0, 10.000451, 9.999491 
7.1503204e+2, 2.0509355e+2, -900682.75, -997312.7, 2579.2034, 0.039437227, 0.13511245, -900613.94, 29483.598, 0.0, 10.000556, 9.999274 
7.1504587e+2, 2.1509302e+2, -775437.56, -884939.25, 377.73007, 0.050566114, 0.15202229, -775436.25, 56667.133, 0.0, 10.000738, 9.999286 
7.150595e+2, 2.2509237e+2, -685214.1, -818908.44, -3802.748, 0.045200717, 0.17180504, -685106.06, 49004.902, 0.0, 10.000806, 9.999034 
7.150729e+2, 2.350916e+2, -592098.06, -721736.3, -1807.3646, 0.024167499, 0.19070448, -592072.9, 44047.258, 0.0, 10.000766, 9.999047 
7.1508646e+2, 2.4509057e+2, -485001.66, -619518.5, -7735.254, 0.025581248, 0.18558343, -484558.3, 53571.906, 0.0, 10.00083, 9.999045 
7.1510017e+2, 2.550893e+2, -362438.7, -508447.1, -11510.598, 0.048452914, 0.15421982, -361536.8, 78604.17, 0.0, 10.000993, 9.999056 
7.1511346e+2, 2.6508823e+2, -284599.97, -473209.13, -25733.305, 0.052214377, 0.1635709, -281152.03, 60999.746, 0.0, 10.001084, 9.998581 
7.151264e+2, 2.7508724e+2, -181863.22, -370715.6, -20890.291, 0.03894676, 0.2056414, -179580.0, 64582.676, 0.0, 10.001107, 9.9986 
7.1513957e+2, 2.8508553e+2, -79313.16, -296435.28, -14235.529, 0.040680468, 0.18823272, -78383.78, 67795.33, 0.0, 10.00125, 9.998369 
7.15153e+2, 2.9508322e+2, 54219.59, -185497.05, -15343.627, 0.053582083, 0.11668558, 55197.707, 103397.95, 0.0, 10.001513, 9.998331 
7.151661e+2, 3.0508184e+2, 86618.58, -201607.83, 5318.6016, 0.013464035, 0.1778657, 86716.69, 86716.69, 0.00000004119849, 10.001643, 9.997824 
7.1518016e+2, 3.1507942e+2, 203762.88, 40892.26, -3953.2537, 0.043875854, 0.14289764, 203858.77, 203858.77, 0.0000010048329, 10.001645, 9.999489 
7.249174e+2, 1.2508096e+2, -1798870.0, -1702625.3, -70034.62, -0.099545196, 0.12947941, -1665773.5, 48447.02, 0.0, 9.999213, 10.000455 
7.2493523e+2, 1.3508189e+2, -1652054.0, -1590168.6, 44251.21, 0.14527054, 0.18399175, -1567114.9, 49096.094, 0.0, 9.999557, 10.000405 
7.2494686e+2, 1.4508125e+2, -1557345.1, -1557344.9, -13672.436, -0.18092805, 0.11062067, -1543672.6, -25455.299, 0.0, 9.999825, 9.999818 
7.249621e+2, 1.5508121e+2, -1425864.0, -1443768.3, -6062.5083, -0.02275374, 0.12394377, -1424004.4, -3785.9084, 0.0, 10.000058, 9.999811 
7.2497666e+2, 1.6508126e+2, -1299942.3, -1319766.5, 10457.347, 0.047087323, 0.144585, -1295445.8, 26772.326, 0.0, 10.0001955, 9.999924 
7.2499055e+2, 1.750814e+2, -1193814.4, -1216392.0, 661.5829, 0.019155225, 0.16334553, -1193795.0, 30421.846, 0.0, 10.000245, 9.999937 
7.2500443e+2, 1.850811e+2, -1107836.6, -1171623.9, -7495.368, 0.0070862467, 0.16267139, -1106967.6, 19251.844, 0.0, 10.000365, 9.999514 
7.250185e+2, 1.9508041e+2, -980983.6, -1058480.5, -3062.0303, 0.014338056, 0.14118256, -980862.9, 47362.938, 0.0, 10.000558, 9.999525 
7.2503257e+2, 2.0507973e+2, -884751.3, -995655.56, -7213.815, 0.031236498, 0.13628115, -884284.06, 45948.684, 0.0, 10.000691, 9.99922 
7.250467e+2, 2.1507902e+2, -774767.94, -890515.7, -8419.7705, 0.056254137, 0.14261502, -774158.7, 58081.72, 0.0, 10.000768, 9.999232 
7.250604e+2, 2.2507839e+2, -679138.75, -810488.06, -16970.43, 0.055459943, 0.16409494, -676981.56, 57266.223, 0.0, 10.000824, 9.999083 
7.2507375e+2, 2.350778e+2, -574842.2, -708070.25, -15000.149, 0.030176308, 0.19632523, -573174.2, 63080.734, 0.0, 10.000861, 9.999095 
7.2508734e+2, 2.4507679e+2, -475475.53, -621240.1, -14734.838, 0.026915237, 0.19297083, -474000.97, 64264.082, 0.0, 10.000922, 9.998988 
7.251011e+2, 2.550754e+2, -364262.22, -515304.88, -15639.773, 0.04444247, 0.15198354, -362659.8, 77618.19, 0.0, 10.001006, 9.9990015 
7.251146e+2, 2.650743e+2, -276610.72, -459416.6, -32356.416, 0.04945004, 0.16019385, -271052.7, 71236.06, 0.0, 10.001097, 9.99867 
7.2512764e+2, 2.750735e+2, -163279.52, -352138.25, -30987.482, 0.043441292, 0.21005271, -158325.14, 85972.36, 0.0, 10.001193, 9.998687 
7.251409e+2, 2.8507185e+2, -71424.445, -296638.4, -19814.63, 0.049634907, 0.1949998, -69694.414, 76618.945, 0.0, 10.001322, 9.998333 
7.251545e+2, 2.9506943e+2, 47831.17, -192280.81, -20296.88, 0.06482502, 0.11909688, 49534.797, 97870.35, 0.0, 10.001485, 9.998298 
7.251678e+2, 3.050679e+2, 76112.28, -215244.38, -6853.764, 0.022156602, 0.1696408, 76273.42, 76273.42, 0.000000018939705, 10.001609, 9.997746 
7.251818e+2, 3.1506568e+2, 214753.33, 50584.395, -20599.572, 0.040257793, 0.16487421, 217298.66, 217298.66, 0.0000007295325, 10.001704, 9.999527 
7.3491645e+2, 1.250663e+2, -1814984.6, -1736324.8, -67545.68, -0.11402689, 0.0919472, -1697492.9, 16870.395, 0.0, 9.999214, 10.000224 
7.349348e+2, 1.3506748e+2, -1660977.9, -1607229.3, 56456.313, 0.14477228, 0.18302219, -1571577.1, 44775.2, 0.0, 9.999551, 10.000291 
7.349469e+2, 1.450671e+2, -1529790.4, -1499386.9, -4964.0317, -0.15344788, 0.121098876, -1498596.9, 19759.314, 0.0, 9.999822, 10.000217 
7.349621e+2, 1.5506743e+2, -1398082.8, -1386803.8, 3154.6584, -0.0326818, 0.13359305, -1385981.4, 34371.184, 0.0, 10.000061, 10.000201 
7.3497665e+2, 1.6506743e+2, -1318481.0, -1359249.4, 12197.691, 0.022043131, 0.14201117, -1315110.1, 7242.5415, 0.0, 10.000198, 9.999652 
7.3499066e+2, 1.7506705e+2, -1212665.3, -1255638.8, 2535.3914, 0.004077139, 0.13738586, -1212516.1, 11840.822, 0.0, 10.000245, 9.999668 
7.350048e+2, 1.8506671e+2, -1100239.5, -1155743.0, -462.98315, 0.002209092, 0.14067435, -1100235.6, 26124.531, 0.0, 10.000364, 9.999623 
7.350191e+2, 1.9506644e+2, -973368.1, -1042856.1, 4073.8726, 0.018685415, 0.14945516, -973130.1, 55232.125, 0.0, 10.000558, 9.999632 
7.350333e+2, 2.0506583e+2, -887484.25, -1001558.7, -4645.9644, 0.03191479, 0.14858027, -887295.3, 43073.24, 0.0, 10.000692, 9.99918 
7.350473e+2, 2.1506487e+2, -777357.94, -896184.2, -5770.657, 0.040890638, 0.13350566, -777078.4, 55300.824, 0.0, 10.000769, 9.999194 
7.3506117e+2, 2.2506417e+2, -675565.5, -803469.75, -15845.253, 0.0488063, 0.14910372, -673631.75, 60755.246, 0.0, 10.000825, 9.999131 
7.350749e+2, 2.3506373e+2, -571288.2, -701120.8, -13664.474, 0.056567773, 0.19068645, -569865.6, 66526.47, 0.0, 10.000862, 9.999143 
7.350885e+2, 2.4506284e+2, -476635.7, -623786.6, -11634.6455, 0.05372398, 0.19675171, -475721.47, 62679.938, 0.0, 10.000922, 9.998971 
7.3510206e+2, 2.550615e+2, -365623.7, -517796.84, -12419.0, 0.040027626, 0.16468357, -364616.8, 75797.94, 0.0, 10.001005, 9.998985 
7.3511547e+2, 2.6506037e+2, -273648.78, -452847.1, -28760.055, 0.036865186, 0.16739681, -269146.13, 73279.81, 0.0, 10.001095, 9.998715 
7.3512876e+2, 2.7505943e+2, -160260.83, -345940.25, -27194.004, 0.044495404, 0.19853789, -156360.03, 88075.14, 0.0, 10.001193, 9.99873 
7.3514235e+2, 2.8505784e+2, -72932.17, -299900.78, -13522.6455, 0.058297507, 0.18977703, -72129.34, 74320.85, 0.0, 10.001322, 9.998311 
7.351561e+2, 2.950557e+2, 46322.555, -195126.97, -14002.981, 0.0767421, 0.14353737, 47131.953, 95602.27, 0.0, 10.001483, 9.99828 
7.351694e+2, 3.0505392e+2, 66090.086, -235198.72, -3449.4348, 0.029653806, 0.1763715, 66129.58, 66129.58, 0.0000000073965225, 10.001605, 9.997611 
7.351834e+2, 3.1505147e+2, 210656.36, 42906.94, -17056.88, 0.02879279, 0.16045083, 212373.14, 212373.14, 0.0000004773962, 10.0017, 9.9994755 
7.449159e+2, 1.2505184e+2, -1799702.5, -1724113.4, -67094.17, -0.095004074, 0.08193351, -1684901.0, 29603.496, 0.0, 9.999299, 10.000267 
7.44934e+2, 1.3505307e+2, -1647122.4, -1584660.1, 83411.2, 0.11391939, 0.16451643, -1526824.9, 89667.6, 0.0, 9.9995775, 10.000433 
7.4494666e+2, 1.450528e+2, -1530420.5, -1502372.4, 13862.046, -0.16143622, 0.107223086, -1496677.6, 21817.719, 0.0, 9.999827, 10.000194 
7.449622e+2, 1.5505338e+2, -1392999.3, -1387456.6, -9452.401, -0.027635178, 0.14559656, -1380377.6, 40112.51, 0.0, 10.000109, 10.000174 
7.4497694e+2, 1.6505335e+2, -1300633.5, -1350185.6, -11590.705, 0.024730772, 0.15349407, -1298056.4, 24434.193, 0.0, 10.0003195, 9.999656 
7.449908e+2, 1.750527e+2, -1181188.5, -1240536.8, -741.88104, -0.008652914, 0.122399695, -1181179.1, 43317.676, 0.0, 10.000461, 9.999668 
7.450051e+2, 1.850523e+2, -1071086.0, -1142078.9, 3785.0542, -0.0111534465, 0.1178464, -1070884.8, 55615.766, 0.0, 10.000566, 9.99962 
7.4501973e+2, 1.9505212e+2, -962117.7, -1037955.1, -338.98874, 0.018251998, 0.1371758, -962116.1, 66385.5, 0.0, 10.000637, 9.999628 
7.45034e+2, 2.0505159e+2, -885583.7, -1005479.4, -14769.985, 0.03368745, 0.14637394, -883791.0, 46716.62, 0.0, 10.000727, 9.999137 
7.4504805e+2, 2.1505068e+2, -770842.6, -897830.0, -16272.135, 0.034478445, 0.14084303, -768790.6, 63727.78, 0.0, 10.000834, 9.99915 
7.4506193e+2, 2.2504994e+2, -657605.3, -782821.44, -26774.047, 0.042557586, 0.14923191, -652120.6, 82405.86, 0.0, 10.000896, 9.999238 
7.4507576e+2, 2.3504938e+2, -556705.3, -682121.8, -20528.4, 0.058259714, 0.16761005, -553430.7, 83101.08, 0.0, 10.000912, 9.999249 
7.450895e+2, 2.4504858e+2, -479757.88, -628463.1, -16407.244, 0.057670522, 0.17981978, -477969.13, 60571.063, 0.0, 10.000916, 9.998942 
7.45103e+2, 2.550476e+2, -381816.3, -529078.75, -18338.57, 0.04071203, 0.18244609, -379566.97, 60984.617, 0.0, 10.000909, 9.998955 
7.451166e+2, 2.6504645e+2, -281514.25, -448758.56, -29986.805, 0.038146842, 0.1837255, -276300.2, 66262.65, 0.0, 10.001006, 9.998787 
7.4513006e+2, 2.750452e+2, -152333.36, -334046.63, -26738.229, 0.050368633, 0.17839012, -148480.66, 96093.42, 0.0, 10.001213, 9.998801 
7.451437e+2, 2.8504363e+2, -72273.11, -305274.7, -14363.411, 0.06378673, 0.17197938, -71391.016, 75197.68, 0.0, 10.00135, 9.99826 
7.451576e+2, 2.9504183e+2, 33277.406, -207325.23, -17182.377, 0.07676248, 0.16486892, 34498.273, 83104.53, 0.0, 10.001418, 9.998227 
7.45171e+2, 3.0503985e+2, 51593.125, -252001.63, -4642.7974, 0.03193657, 0.18328609, 51664.11, 51664.11, 0.0000000015345106, 10.001548, 9.997523 
7.451852e+2, 3.150372e+2, 216366.1, 42737.277, -15367.592, 0.036830474, 0.15680455, 217715.77, 217715.77, 0.00000026410652, 10.001753, 9.999449 
7.549157e+2, 1.2503769e+2, -1778909.3, -1680200.6, -63396.926, -0.0448938, 0.10432246, -1649211.8, 65431.723, 0.0, 9.999294, 10.00057 
7.54933e+2, 1.3503873e+2, -1619714.1, -1527130.6, 93446.68, 0.04978519, 0.12733828, -1469138.1, 147493.17, 0.0, 9.999575, 10.000829 
7.54946e+2, 1.450384e+2, -1562047.1, -1568346.3, 23882.361, -0.20787983, 0.067621306, -1541107.6, -22472.836, 0.0, 9.999828, 9.999741 
7.549625e+2, 1.5503906e+2, -1424281.6, -1452780.5, 1207.4437, -0.0075996364, 0.16086161, -1424230.6, -3599.7043, 0.0, 10.00011, 9.999724 
7.549775e+2, 1.6503908e+2, -1280833.6, -1309518.6, -6504.155, 0.05550869, 0.18011239, -1279427.8, 43203.44, 0.0, 10.00032, 9.999934 
7.5499123e+2, 1.750384e+2, -1161720.0, -1200445.8, 4541.3584, -0.019731898, 0.11804964, -1161194.5, 63441.71, 0.0, 10.000462, 9.999943 
7.550054e+2, 1.8503787e+2, -1079426.3, -1159529.9, 6273.654, -0.03406875, 0.09392792, -1078937.9, 47702.543, 0.0, 10.000566, 9.999501 
7.5502026e+2, 1.9503748e+2, -970415.6, -1055339.3, 2171.038, 0.012774413, 0.10459301, -970360.1, 58283.723, 0.0, 10.000637, 9.999509 
7.5503474e+2, 2.0503703e+2, -888969.8, -1012628.7, -11105.426, 0.036305506, 0.12979516, -887980.4, 42669.305, 0.0, 10.000726, 9.999088 
7.550488e+2, 2.1503647e+2, -774207.3, -904951.1, -12422.584, 0.036366727, 0.16412736, -773037.44, 59620.582, 0.0, 10.000834, 9.999103 
7.5506276e+2, 2.2503571e+2, -646131.56, -759071.9, -26391.234, 0.036118366, 0.16424282, -640268.94, 94397.195, 0.0, 10.000896, 9.999401 
7.550764e+2, 2.3503476e+2, -545365.4, -658634.6, -20187.982, 0.035731003, 0.12747294, -541874.8, 94799.055, 0.0, 10.000912, 9.999411 
7.5509024e+2, 2.4503405e+2, -482625.34, -634581.94, -16793.404, 0.03904982, 0.14281344, -480791.56, 57889.75, 0.0, 10.000916, 9.998899 
7.5510395e+2, 2.550336e+2, -384712.16, -535387.06, -18511.174, 0.04585141, 0.20529951, -382471.28, 58217.133, 0.0, 10.00091, 9.998911 
7.5511765e+2, 2.650325e+2, -274819.94, -435043.66, -22296.225, 0.052393403, 0.2089794, -271775.13, 70924.24, 0.0, 10.001006, 9.998881 
7.5513136e+2, 2.7503082e+2, -145740.66, -319972.94, -18967.979, 0.05963916, 0.14961535, -143699.6, 101014.55, 0.0, 10.001211, 9.998899 
7.551451e+2, 2.8502926e+2, -78109.02, -316822.13, -11977.135, 0.06482682, 0.14207573, -77509.586, 69219.17, 0.0, 10.0013485, 9.998182 
7.551589e+2, 2.9502788e+2, 27822.348, -219237.08, -14519.97, 0.06543878, 0.18407144, 28672.775, 77415.94, 0.0, 10.001421, 9.998144 
7.5517255e+2, 3.0502573e+2, 49161.37, -258011.92, 3246.4045, 0.029201303, 0.19114754, 49195.676, 49195.676, 0.00000000001992495, 10.001552, 9.997481 
7.5518715e+2, 3.150229e+2, 215977.27, 42100.008, -6992.0464, 0.05947525, 0.15247935, 216257.98, 216257.98, 0.000000109993245, 10.001752, 9.999446 
7.6491493e+2, 1.2502341e+2, -1765829.1, -1698099.4, -50558.547, -0.06009169, 0.106295794, -1671112.0, 43670.715, 0.0, 9.999488, 10.000355 
7.649326e+2, 1.3502435e+2, -1593818.4, -1528908.0, 70368.49, 0.04338455, 0.13335413, -1483870.9, 132901.22, 0.0, 9.999815, 10.000701 
7.6494616e+2, 1.4502393e+2, -1532114.3, -1556287.5, -4507.346, -0.18329264, 0.07070445, -1531301.3, -12524.617, 0.0, 10.000044, 9.99972 
7.649627e+2, 1.550244e+2, -1407281.3, -1447678.1, 5380.0537, -0.010750494, 0.14802969, -1406577.0, 14196.839, 0.0, 10.000238, 9.999699 
7.649777e+2, 1.6502437e+2, -1282914.6, -1319372.9, -5643.6333, 0.044516463, 0.16768564, -1282060.9, 40713.797, 0.0, 10.000343, 9.999857 
7.6499164e+2, 1.750238e+2, -1181373.3, -1218525.1, -21596.828, -0.017517364, 0.12358594, -1171462.5, 53316.94, 0.0, 10.000363, 9.9998665 
7.6500595e+2, 1.8502328e+2, -1091380.1, -1156382.5, -24366.164, -0.029401328, 0.10204451, -1083260.6, 43522.973, 0.0, 10.000445, 9.99958 
7.650208e+2, 1.9502285e+2, -971961.3, -1047392.2, -13433.345, 0.00861574, 0.0995811, -969640.44, 59146.684, 0.0, 10.000589, 9.999587 
7.650354e+2, 2.0502241e+2, -892379.1, -1007939.94, -16721.56, 0.03165948, 0.121050365, -890008.2, 40784.133, 0.0, 10.000676, 9.999145 
7.6504964e+2, 2.1502197e+2, -789677.25, -906368.6, -10590.849, 0.03973763, 0.16111602, -788723.8, 44075.53, 0.0, 10.000703, 9.999156 
7.650636e+2, 2.2502124e+2, -665499.9, -770823.44, -27891.217, 0.03932976, 0.16175999, -658569.9, 76237.445, 0.0, 10.000775, 9.999378 
7.650773e+2, 2.3502022e+2, -549480.75, -663320.2, -35807.4, 0.030368254, 0.120574, -539154.5, 97661.65, 0.0, 10.0008955, 9.999386 
7.6509106e+2, 2.4501953e+2, -470522.38, -619063.3, -37079.316, 0.0323704, 0.13471475, -461780.94, 77042.39, 0.0, 10.0009575, 9.998986 
7.6510483e+2, 2.5501916e+2, -370398.72, -518658.56, -29473.227, 0.04491422, 0.19886537, -364754.5, 76074.414, 0.0, 10.000966, 9.998998 
7.651187e+2, 2.6501814e+2, -274863.47, -442149.53, -27959.256, 0.054675974, 0.20394708, -270314.22, 72525.46, 0.0, 10.001037, 9.998817 
7.6513255e+2, 2.7501637e+2, -156618.78, -332775.84, -36596.297, 0.06263276, 0.14620595, -149318.5, 95537.15, 0.0, 10.001168, 9.998832 
7.6514643e+2, 2.8501487e+2, -72066.58, -304692.38, -30170.418, 0.06728318, 0.14199236, -68217.31, 78652.766, 0.0, 10.001349, 9.998265 
7.651603e+2, 2.950136e+2, 58053.81, -195234.86, -21228.51, 0.06617378, 0.18785165, 59820.676, 108703.69, 0.0, 10.001587, 9.998229 
7.651742e+2, 3.0501136e+2, 79049.38, -240704.14, 4527.29, 0.027150717, 0.17988092, 79113.48, 79113.48, 0.0, 10.001743, 9.997507 
7.651888e+2, 3.1500876e+2, 228211.77, 51048.863, -1083.5742, 0.049601264, 0.1650787, 228218.39, 228218.39, 0.000000028836135, 10.001821, 9.999475 
7.749135e+2, 1.2500902e+2, -1818994.5, -1807334.3, -41515.65, -0.14836392, 0.08828589, -1771241.4, -56319.47, 0.00000000003061157, 9.999482, 9.999608 
7.749329e+2, 1.3500997e+2, -1640381.3, -1625365.0, 81740.61, 0.0951764, 0.18459414, -1550788.4, 66126.32, 0.0, 9.999815, 10.000038 
7.7494717e+2, 1.450094e+2, -1502464.8, -1495769.3, 1824.2438, -0.08599482, 0.11856655, -1495304.5, 23616.299, 0.0, 10.000048, 10.0001335 
7.749626e+2, 1.550094e+2, -1378539.1, -1388334.0, 12594.283, -0.037788507, 0.10654385, -1369923.5, 50995.555, 0.0, 10.000239, 10.000106 
7.7497756e+2, 1.6500923e+2, -1313559.9, -1383063.3, -5189.1284, -0.0100189, 0.11543495, -1313174.6, 9746.2295, 0.0, 10.000343, 9.99942 
7.749921e+2, 1.7500891e+2, -1211821.0, -1281758.8, -20958.623, -0.002697498, 0.13917626, -1206021.3, 18905.104, 0.0, 10.000363, 9.999433 
7.750067e+2, 1.8500857e+2, -1071941.4, -1115993.1, -19222.814, 0.002560975, 0.14251515, -1064732.8, 62196.98, 0.0, 10.000444, 9.999859 
7.750214e+2, 1.9500823e+2, -952634.7, -1007228.44, -8170.469, 0.0055893916, 0.12193258, -951438.1, 77493.07, 0.0, 10.000588, 9.999864 
7.750359e+2, 2.0500778e+2, -881609.4, -985455.94, -16086.003, 0.019236194, 0.1200862, -879174.7, 51760.6, 0.0, 10.000675, 9.999299 
7.7505034e+2, 2.1500722e+2, -778974.8, -884289.8, -9918.7, 0.044137422, 0.13234381, -778048.8, 54893.355, 0.0, 10.000703, 9.999308 
7.750645e+2, 2.2500655e+2, -679921.9, -801068.25, -23773.16, 0.051589202, 0.14199625, -675423.75, 59526.16, 0.0, 10.000776, 9.99917 
7.7507824e+2, 2.3500577e+2, -563976.8, -693450.8, -31346.41, 0.04136493, 0.145862, -556786.94, 80171.49, 0.0, 10.000895, 9.99918 
7.7509207e+2, 2.4500503e+2, -455888.06, -588637.4, -36906.617, 0.03684263, 0.15472604, -446317.38, 92648.69, 0.0, 10.000957, 9.999196 
7.751058e+2, 2.5500435e+2, -355552.3, -488052.0, -29232.318, 0.037457716, 0.1639581, -349389.66, 91583.234, 0.0, 10.000966, 9.999208 
7.751196e+2, 2.6500326e+2, -290025.03, -473632.7, -23081.254, 0.044691436, 0.1696353, -287167.97, 55815.688, 0.0, 10.001037, 9.998601 
7.7513367e+2, 2.7500185e+2, -172008.63, -364941.88, -31360.52, 0.059486557, 0.16787067, -167039.11, 77959.28, 0.0, 10.001169, 9.9986105 
7.7514786e+2, 2.8500044e+2, -55378.715, -270306.16, -21124.652, 0.07065117, 0.17131211, -53322.11, 93690.27, 0.0, 10.001349, 9.998502 
7.7516204e+2, 2.9499903e+2, 74612.18, -160196.38, -12112.257, 0.076330036, 0.17634398, 75235.32, 124260.95, 0.0, 10.001583, 9.998472 
7.7517587e+2, 3.0499676e+2, 84452.83, -228137.88, 7340.678, 0.02393776, 0.14996628, 84625.12, 84625.12, 0.0, 10.001738, 9.997597 
7.7519023e+2, 3.1499484e+2, 232521.67, 60378.84, 1675.689, 0.0074517834, 0.19359142, 232537.98, 232537.98, 0.0000000029769756, 10.001819, 9.999539 
7.84913e+2, 1.2499407e+2, -1795804.5, -1818125.3, -79965.07, -0.15581934, 0.08332934, -1726224.8, -11157.133, 0.0000000009851104, 9.999736, 9.9994135 
7.8493285e+2, 1.3499492e+2, -1601183.5, -1620368.8, 84680.87, 0.09345503, 0.17945477, -1525553.6, 91508.56, 0.0, 10.000144, 9.999914 
7.849476e+2, 1.4499432e+2, -1464727.0, -1475975.5, -612.711, -0.062917545, 0.11812658, -1464693.8, 54374.68, 0.0, 10.0002985, 10.00015 
7.849628e+2, 1.549943e+2, -1373602.1, -1384304.4, -19045.025, -0.0438128, 0.102273636, -1359170.8, 61895.95, 0.0, 10.000266, 10.000121 
7.8497773e+2, 1.6499412e+2, -1316852.1, -1384848.8, -34988.535, -0.025283804, 0.11011346, -1302064.4, 21004.209, 0.0, 10.000321, 9.999417 
7.849925e+2, 1.7499381e+2, -1197193.9, -1275537.1, -18452.941, -0.0062910216, 0.13657424, -1193065.0, 32008.986, 0.0, 10.000466, 9.999426 
7.850072e+2, 1.8499357e+2, -1061980.8, -1110214.6, -11860.748, 0.006180141, 0.14617431, -1059222.0, 67855.11, 0.0, 10.000508, 9.999867 
7.850219e+2, 1.9499332e+2, -971567.3, -1015268.5, -21226.93, 0.011272948, 0.13525584, -962954.25, 66123.73, 0.0, 10.000454, 9.999872 
7.8503656e+2, 2.0499289e+2, -887148.8, -968379.94, -34707.63, 0.021637268, 0.12659511, -874339.25, 56742.11, 0.0, 10.000553, 9.999475 
7.850511e+2, 2.1499228e+2, -751948.2, -851818.94, -27009.473, 0.038028806, 0.11626013, -745111.6, 87975.734, 0.0, 10.000806, 9.99948 
7.850653e+2, 2.2499162e+2, -670972.0, -807764.8, -40837.652, 0.04763532, 0.12519836, -659707.94, 75386.73, 0.0, 10.000886, 9.999071 
7.8507924e+2, 2.3499095e+2, -585265.7, -714695.75, -40940.137, 0.050049584, 0.14973885, -573403.1, 63700.336, 0.0, 10.000797, 9.99908 
7.85093e+2, 2.4499021e+2, -465798.16, -585438.94, -44201.63, 0.047504462, 0.16032246, -451239.38, 87871.89, 0.0, 10.0008545, 9.999267 
7.8510684e+2, 2.5498942e+2, -337444.3, -471743.84, -47124.453, 0.039500337, 0.15284789, -322558.7, 118559.45, 0.0, 10.001059, 9.999276 
7.851207e+2, 2.6498833e+2, -269745.9, -467708.4, -39847.063, 0.043665215, 0.1543876, -262026.28, 81102.72, 0.0, 10.001192, 9.998567 
7.851349e+2, 2.74987e+2, -160888.34, -363478.72, -34986.117, 0.060829964, 0.16102158, -155016.63, 90127.29, 0.0, 10.001263, 9.998575 
7.8514916e+2, 2.8498566e+2, -50983.117, -261807.53, -21744.688, 0.07149775, 0.17345695, -48763.707, 98393.38, 0.0, 10.001352, 9.998558 
7.851635e+2, 2.9498437e+2, 60534.105, -160695.61, -26042.215, 0.074220605, 0.18744144, 63558.34, 112726.99, 0.0, 10.001459, 9.998528 
7.8517747e+2, 3.0498195e+2, 65728.94, -230623.8, -16420.68, 0.023622816, 0.13574293, 66636.02, 66636.02, 0.0, 10.001581, 9.997655 
7.85192e+2, 3.1497997e+2, 220515.86, 56074.6, -24784.822, 0.008818018, 0.1728131, 224170.25, 224170.25, 0.0, 10.001731, 9.999552 
7.9491353e+2, 1.2497863e+2, -1769722.6, -1764936.4, -66610.13, -0.08275979, 0.09585655, -1700676.4, 14543.122, 0.0000000034592607, 9.999739, 9.999777 
7.9493237e+2, 1.3497914e+2, -1571471.0, -1558488.6, 99009.79, 0.036970608, 0.11693167, -1465757.5, 151457.02, 0.0, 10.000143, 10.0003395 
7.949473e+2, 1.449787e+2, -1491618.5, -1531763.5, -2751.9116, -0.11667907, 0.06808247, -1491430.8, 27788.775, 0.0, 10.0002985, 9.999766 
7.949631e+2, 1.5497912e+2, -1400388.1, -1439768.5, -20359.049, -0.029813489, 0.13571581, -1391755.3, 29461.262, 0.0, 10.000265, 9.999741 
7.9497826e+2, 1.6497909e+2, -1286627.5, -1322256.8, -29697.322, -0.0013976793, 0.1528073, -1269811.4, 53406.145, 0.0, 10.000321, 9.999848 
7.9499274e+2, 1.7497855e+2, -1167083.3, -1213247.3, -12997.553, -0.02821353, 0.11611178, -1163675.3, 61547.086, 0.0, 10.000466, 9.999854 
7.9500747e+2, 1.8497825e+2, -1080462.1, -1148580.4, -14215.538, -0.019194035, 0.11293079, -1077614.5, 49611.086, 0.0, 10.000508, 9.999604 
7.9502255e+2, 1.9497812e+2, -990164.6, -1053729.1, -23520.56, 0.024877956, 0.13939361, -982407.94, 46819.383, 0.0, 10.000453, 9.999609 
7.950372e+2, 2.0497777e+2, -873551.3, -940134.1, -25619.049, 0.038316913, 0.1406462, -864834.94, 66395.375, 0.0, 10.000552, 9.999669 
7.950517e+2, 2.1497716e+2, -738449.6, -823571.6, -17845.475, 0.021338033, 0.112626545, -734859.8, 98374.79, 0.0, 10.000804, 9.999676 
7.95066e+2, 2.249765e+2, -670885.5, -807590.8, -44506.508, 0.027269349, 0.111286104, -657672.75, 77568.71, 0.0, 10.000886, 9.999073 
7.9508e+2, 2.349758e+2, -585085.5, -714644.3, -44369.617, 0.05599086, 0.13270657, -571347.2, 65903.87, 0.0, 10.000798, 9.999081 
7.950941e+2, 2.4497513e+2, -470379.2, -595046.2, -36605.004, 0.06378437, 0.15191597, -460425.8, 78832.9, 0.0, 10.0008545, 9.999201 
7.951079e+2, 2.5497448e+2, -342354.03, -481640.44, -39382.777, 0.050237387, 0.16519025, -331989.88, 109274.61, 0.0, 10.001057, 9.999209 
7.95122e+2, 2.6497334e+2, -260288.95, -447917.13, -37343.777, 0.05051083, 0.15794614, -253129.56, 90146.02, 0.0, 10.001191, 9.998704 
7.9513615e+2, 2.7497175e+2, -151158.03, -343416.2, -32241.576, 0.06517711, 0.12617508, -145895.2, 99396.945, 0.0, 10.001262, 9.998714 
7.951505e+2, 2.8497055e+2, -59097.14, -278646.8, -17712.605, 0.0687956, 0.14920609, -57677.324, 89626.8, 0.0, 10.001352, 9.998443 
7.951649e+2, 2.9496974e+2, 52598.03, -177687.78, -21920.639, 0.059847463, 0.22192407, 54666.06, 103977.875, 0.0, 10.001462, 9.99841 
7.9517907e+2, 3.049669e+2, 68425.08, -226393.95, -10764.653, 0.024769332, 0.1385127, 68817.6, 68817.6, 0.0, 10.001587, 9.997682 
7.951941e+2, 3.1496426e+2, 219058.38, 51825.176, -18520.412, 0.0475193, 0.102405086, 221084.89, 221084.89, 0.0, 10.001736, 9.999521 
8.0491376e+2, 1.2496278e+2, -1737829.8, -1731040.8, -73079.58, -0.039845865, 0.09189386, -1661276.9, 54098.44, 0.0000000057252847, 9.999876, 9.999945 
8.049321e+2, 1.3496344e+2, -1577771.6, -1537755.1, 75418.5, 0.0032558413, 0.105913915, -1479735.9, 137631.86, 0.0, 9.999997, 10.000552 
8.0494726e+2, 1.4496313e+2, -1530879.1, -1558862.6, -31715.984, -0.13890593, 0.06463108, -1510205.6, 9165.648, 0.0, 10.000065, 9.999693 
8.0496347e+2, 1.5496348e+2, -1423764.6, -1459600.8, -26017.217, -0.019204058, 0.13295178, -1410092.3, 11277.976, 0.0, 10.000141, 9.999664 
8.049787e+2, 1.6496351e+2, -1275977.4, -1290941.0, -25020.6, 0.01586975, 0.14974757, -1257343.9, 66026.52, 0.0, 10.000282, 10.000082 
8.0499315e+2, 1.7496324e+2, -1146241.4, -1176796.4, -23076.979, -0.030680832, 0.11286697, -1133843.0, 91528.836, 0.0, 10.000497, 10.000089 
8.050079e+2, 1.84963e+2, -1068007.4, -1149855.5, -31095.656, -0.029827686, 0.109269336, -1057533.8, 69840.29, 0.0, 10.000627, 9.999538 
8.05023e+2, 1.949628e+2, -964243.94, -1049068.1, -25620.717, 0.017760066, 0.13495474, -957106.0, 72271.09, 0.0, 10.000666, 9.999538 
8.0503786e+2, 2.0496237e+2, -857736.6, -931291.75, -23140.61, 0.038160846, 0.13147381, -851062.2, 80318.78, 0.0, 10.000656, 9.999679 
8.050525e+2, 2.1496168e+2, -767129.4, -836122.56, -29541.959, 0.031290244, 0.09438159, -756208.56, 77177.32, 0.0, 10.000603, 9.999685 
8.050668e+2, 2.2496113e+2, -692958.3, -802683.25, -60016.21, 0.035761043, 0.09568543, -666507.56, 68883.84, 0.0, 10.000668, 9.999211 
8.0508083e+2, 2.349607e+2, -567162.4, -690570.2, -49989.563, 0.051393885, 0.13243495, -549453.9, 87943.74, 0.0, 10.000855, 9.999218 
8.050949e+2, 2.4496002e+2, -465645.13, -609343.56, -38096.887, 0.057617992, 0.15133011, -456169.8, 83235.72, 0.0, 10.000959, 9.999052 
8.05109e+2, 2.5495905e+2, -363763.16, -508620.5, -47334.31, 0.054117482, 0.14783597, -349667.56, 91747.64, 0.0, 10.000982, 9.99906 
8.0512315e+2, 2.649579e+2, -263534.7, -434563.66, -47035.95, 0.056079175, 0.139197, -251452.52, 91974.08, 0.0, 10.001105, 9.9988365 
8.0513746e+2, 2.7495658e+2, -131788.75, -319353.53, -42506.793, 0.06411201, 0.12222166, -122605.3, 122834.445, 0.0, 10.001332, 9.998845 
8.051519e+2, 2.8495544e+2, -41238.13, -278196.03, -27807.275, 0.06394072, 0.1480467, -38018.656, 109432.24, 0.0, 10.001511, 9.998369 
8.051663e+2, 2.9495445e+2, 73345.516, -175726.5, -29210.559, 0.053917944, 0.21029463, 76725.39, 126185.92, 0.0, 10.001639, 9.998338 
8.051808e+2, 3.0495143e+2, 97695.28, -212921.19, -15984.332, 0.028335342, 0.11030104, 98515.664, 98515.664, 0.0, 10.001791, 9.997675 
8.0519617e+2, 3.1494898e+2, 245209.98, 54610.516, -26473.219, 0.06717289, 0.09653968, 248818.66, 248818.66, 0.0, 10.001958, 9.999433 
8.149137e+2, 1.2494657e+2, -1739678.9, -1734816.5, -67568.59, -0.03329416, 0.07324104, -1669635.4, 45899.39, 0.000000004999778, 9.999875, 9.99992 
8.14932e+2, 1.3494784e+2, -1578447.0, -1538054.4, 78949.53, -0.008464716, 0.14738655, -1476758.9, 140762.94, 0.0, 9.999993, 10.000551 
8.1494737e+2, 1.4494768e+2, -1514412.4, -1524921.0, -29358.22, -0.12984414, 0.10928232, -1489842.0, 29681.594, 0.0, 10.000065, 9.999927 
8.149637e+2, 1.5494741e+2, -1407077.5, -1425573.4, -22909.63, -0.012033431, 0.09435316, -1391619.6, 29907.875, 0.0, 10.000143, 9.999898 
8.149791e+2, 1.6494748e+2, -1273336.4, -1285570.4, -17181.713, 0.025850952, 0.10037746, -1261215.3, 62311.887, 0.0, 10.000282, 10.000118 
8.1499386e+2, 1.7494786e+2, -1143944.3, -1171398.5, -14977.936, -0.014411247, 0.12631963, -1137354.6, 88167.73, 0.0, 10.000494, 10.000127 
8.150085e+2, 1.8494785e+2, -1059325.8, -1131345.5, -29684.707, -0.026417926, 0.13539664, -1048667.8, 78854.38, 0.0, 10.000624, 9.999667 
8.1502336e+2, 1.9494739e+2, -955289.44, -1030606.2, -24326.732, -0.010067543, 0.12238316, -948115.44, 81411.48, 0.0, 10.000666, 9.999665 
8.150383e+2, 2.0494673e+2, -870090.6, -957210.2, -25600.664, 0.020757861, 0.099230535, -863124.7, 68408.48, 0.0, 10.000657, 9.999501 
8.150534e+2, 2.1494587e+2, -779605.2, -862073.5, -31897.494, 0.06671159, 0.06184414, -768707.7, 64833.25, 0.0, 10.000603, 9.999508 
8.150678e+2, 2.2494552e+2, -673887.5, -763297.3, -53355.86, 0.07223223, 0.07873914, -648983.7, 86560.64, 0.0, 10.000669, 9.999481 
8.150815e+2, 2.349457e+2, -548089.3, -651056.44, -43145.56, 0.036342494, 0.14847198, -532400.75, 105142.375, 0.0, 10.000855, 9.999489 
8.1509554e+2, 2.4494494e+2, -481956.56, -643408.0, -37412.742, 0.028980061, 0.15840325, -473708.4, 65843.15, 0.0, 10.000959, 9.998818 
8.151099e+2, 2.549432e+2, -380239.06, -543012.5, -46356.402, 0.050766945, 0.1016536, -367963.03, 73607.04, 0.0, 10.000982, 9.998823 
8.1512433e+2, 2.6494205e+2, -254828.34, -416460.16, -38459.293, 0.060098153, 0.09892691, -246143.81, 97437.99, 0.0, 10.001104, 9.998961 
8.1513876e+2, 2.7494153e+2, -123072.52, -301302.34, -33725.543, 0.057067804, 0.14885584, -116904.28, 128682.31, 0.0, 10.001331, 9.99897 
8.1515324e+2, 2.8494036e+2, -43359.45, -282951.56, -22939.637, 0.055541556, 0.16991179, -41182.875, 106414.42, 0.0, 10.001511, 9.998337 
8.1516796e+2, 2.9493856e+2, 71340.375, -180151.0, -24026.496, 0.054160096, 0.15420209, 73615.195, 123229.76, 0.0, 10.001639, 9.998308 
8.151826e+2, 3.049355e+2, 94428.875, -219302.23, -9312.788, 0.033063535, 0.051572975, 94705.07, 94705.07, 0.0, 10.001789, 9.997632 
8.151981e+2, 3.149341e+2, 235332.63, 34425.883, -19700.129, 0.06754453, 0.14968605, 237246.13, 237246.13, 0.0000000016901937, 10.001957, 9.999294 
8.249135e+2, 1.2493075e+2, -1675365.0, -1714814.0, -59581.086, -0.059003957, 0.079798855, -1632328.4, 83362.04, 0.0000000017683296, 10.000364, 9.99982 
8.2493186e+2, 1.3493204e+2, -1600256.6, -1558063.8, 76981.25, -0.007452435, 0.16520628, -1499340.5, 118337.15, 0.0, 9.9998865, 10.000464 
8.2494766e+2, 1.4493194e+2, -1532606.5, -1517214.8, -19426.566, -0.10127298, 0.13121867, -1504015.3, 15663.534, 0.0, 9.999869, 10.000073 
8.249639e+2, 1.5493158e+2, -1358908.1, -1385436.9, -18806.66, -0.013501637, 0.08815096, -1349158.8, 72524.22, 0.0, 10.0004015, 10.000049 
8.2497936e+2, 1.6493168e+2, -1229942.1, -1259476.8, -27642.223, 0.015441895, 0.08986733, -1213369.9, 110311.77, 0.0, 10.000559, 10.000164 
8.2499427e+2, 1.7493233e+2, -1165749.0, -1177324.9, -25223.512, -0.011299573, 0.13758272, -1145657.9, 80016.59, 0.0, 10.000324, 10.000168 
8.250091e+2, 1.8493237e+2, -1099353.4, -1143629.0, -36271.414, -0.020232692, 0.14722927, -1078997.6, 48676.035, 0.0, 10.000319, 9.999729 
8.2502395e+2, 1.9493175e+2, -967029.9, -1029182.2, -35970.844, -0.012270204, 0.11201057, -950570.44, 79109.27, 0.0, 10.000555, 9.999728 
8.2503897e+2, 2.0493111e+2, -871263.1, -960942.5, -40856.06, 0.016714884, 0.08833797, -855441.4, 76244.625, 0.0, 10.000663, 9.999473 
8.25054e+2, 2.1493043e+2, -776931.4, -864077.7, -36012.313, 0.06770394, 0.07329653, -763975.75, 69716.66, 0.0, 10.000635, 9.999478 
8.2506853e+2, 2.2493008e+2, -663994.8, -747938.3, -50753.035, 0.076469585, 0.08742911, -640106.9, 95588.56, 0.0, 10.000691, 9.999576 
8.250824e+2, 2.3493007e+2, -544808.3, -638847.9, -54069.39, 0.041792728, 0.1284243, -520173.66, 117521.305, 0.0, 10.000833, 9.999583 
8.250965e+2, 2.449293e+2, -484311.53, -647435.1, -51269.547, 0.029316785, 0.13410725, -469535.94, 70167.34, 0.0, 10.000957, 9.998792 
8.2511085e+2, 2.5492775e+2, -369700.53, -540817.6, -45233.758, 0.03938354, 0.09818837, -358479.16, 83241.65, 0.0, 10.001067, 9.998796 
8.251253e+2, 2.6492664e+2, -237439.33, -405601.9, -28361.582, 0.045806095, 0.09956803, -232784.83, 110947.414, 0.0, 10.001214, 9.998982 
8.2514e+2, 2.74926e+2, -112646.05, -293726.47, -31375.426, 0.04881457, 0.13640045, -107363.78, 138373.72, 0.0, 10.001393, 9.998992 
8.251548e+2, 2.849248e+2, -38159.61, -282405.06, -26294.988, 0.053047452, 0.1527732, -35360.813, 112387.72, 0.0, 10.001555, 9.998319 
8.251696e+2, 2.94923e+2, 78969.555, -178198.22, -26727.53, 0.057362646, 0.14108534, 81717.984, 131483.97, 0.0, 10.001699, 9.998292 
8.2518446e+2, 3.0491996e+2, 104319.56, -210592.39, -8243.283, 0.036613524, 0.039568514, 104535.195, 104535.195, 0.0, 10.00184, 9.997667 
8.252e+2, 3.1491894e+2, 230452.58, 23744.328, -13613.603, 0.061548986, 0.16867478, 231345.31, 231345.31, 0.000000023716037, 10.001959, 9.99922 
8.349132e+2, 1.2491539e+2, -1687100.1, -1740699.4, -75318.0, -0.1238386, 0.11370429, -1633955.9, 81885.47, 0.000000000051048894, 10.000369, 9.99964 
8.349319e+2, 1.3491611e+2, -1612500.8, -1584163.1, 58414.46, 0.005486237, 0.15962379, -1538223.6, 79611.47, 0.0, 9.999888, 10.000284 
8.34948e+2, 1.44916e+2, -1528398.3, -1508854.4, -437.85437, -0.052958064, 0.13006042, -1508844.6, 10991.815, 0.0, 9.999871, 10.00013 
8.3496416e+2, 1.5491597e+2, -1354809.6, -1376454.9, 1456.25, -0.02400945, 0.11412498, -1354712.0, 67124.38, 0.0, 10.0004, 10.000111 
8.349796e+2, 1.6491617e+2, -1226212.0, -1251795.1, -36106.254, -0.016312515, 0.11891127, -1200698.4, 123135.41, 0.0, 10.000558, 10.000217 
8.3499444e+2, 1.7491667e+2, -1162013.5, -1170204.5, -33923.15, -0.022028482, 0.14723483, -1131939.5, 93888.55, 0.0, 10.000326, 10.0002165 
8.3500946e+2, 1.849166e+2, -1099689.4, -1144641.6, -27768.875, -0.012274972, 0.14476115, -1086440.3, 41388.066, 0.0, 10.0003195, 9.999722 
8.350247e+2, 1.9491592e+2, -967692.44, -1030226.44, -27284.666, 0.010418818, 0.10389109, -957461.5, 72373.77, 0.0, 10.000553, 9.9997225 
8.350397e+2, 2.0491551e+2, -863050.4, -943753.56, -42213.066, 0.025646653, 0.098779395, -845005.1, 86834.086, 0.0, 10.000662, 9.999591 
8.3505434e+2, 2.149154e+2, -768403.06, -846820.44, -37530.227, 0.034802716, 0.12759893, -753336.2, 80503.914, 0.0, 10.000636, 9.999596 
8.3506894e+2, 2.2491485e+2, -669479.8, -759809.3, -45852.91, 0.04854932, 0.12098942, -650283.5, 85561.07, 0.0, 10.000692, 9.999494 
8.350834e+2, 2.349139e+2, -550561.5, -650948.75, -48969.61, 0.066593386, 0.07386131, -530630.8, 107221.99, 0.0, 10.000833, 9.9995 
8.3509773e+2, 2.4491318e+2, -472475.06, -622934.75, -47345.242, 0.057433695, 0.07968233, -458816.75, 81043.65, 0.0, 10.000956, 9.9989605 
8.351117e+2, 2.5491267e+2, -357713.06, -516190.88, -41075.05, 0.019744935, 0.13562973, -347699.72, 94167.76, 0.0, 10.001068, 9.998966 
8.351262e+2, 2.6491165e+2, -242804.16, -416861.94, -21747.535, 0.012831883, 0.13949713, -240128.08, 103749.96, 0.0, 10.001213, 9.998906 
8.351413e+2, 2.7491003e+2, -118459.99, -305567.5, -24636.479, 0.038498413, 0.08639986, -115270.47, 130621.81, 0.0, 10.001391, 9.998912 
8.351563e+2, 2.8490874e+2, -39288.41, -284166.75, -20895.508, 0.055502877, 0.0980735, -37518.188, 110386.23, 0.0, 10.001553, 9.998308 
8.351714e+2, 2.9490778e+2, 77877.38, -179913.95, -21192.004, 0.06256898, 0.16901812, 79607.875, 129522.85, 0.0, 10.001698, 9.9982815 
8.3518636e+2, 3.0490482e+2, 111789.75, -194666.02, -3545.438, 0.03795141, 0.07213575, 111830.766, 111830.766, 0.0, 10.001838, 9.997778 
8.352018e+2, 3.149034e+2, 229801.64, 22509.191, -8615.738, 0.04689702, 0.1520297, 230159.13, 230159.13, 0.00000010288848, 10.001958, 9.999212 
8.449133e+2, 1.2489983e+2, -1749799.0, -1791010.5, -73530.82, -0.1308113, 0.13171095, -1694041.3, 21952.43, 0.0, 10.000025, 9.999461 
8.44932e+2, 1.3490008e+2, -1529351.4, -1565213.4, 54763.195, -0.006381386, 0.14997913, -1489658.4, 128334.76, 0.0, 10.000552, 10.000093 
8.4494823e+2, 1.4489998e+2, -1419014.0, -1450669.9, -3478.9905, -0.046005573, 0.12833938, -1418636.3, 101358.17, 0.0, 10.0006, 10.000177 
8.449645e+2, 1.5490021e+2, -1381183.5, -1383220.3, -1879.8368, -0.0224285, 0.13406914, -1380063.9, 41926.953, 0.0, 10.000194, 10.000164 
8.4498e+2, 1.6490038e+2, -1287929.8, -1285028.8, -42894.848, -0.018295927, 0.13451223, -1243559.9, 80428.35, 0.0, 10.00015, 10.000186 
8.449948e+2, 1.7490053e+2, -1140493.3, -1163170.4, -47179.41, -0.026330734, 0.13105966, -1103309.0, 122677.16, 0.0, 10.000488, 10.000186 
8.4500986e+2, 1.8490043e+2, -1056954.3, -1117805.3, -42144.48, -0.015940826, 0.12484158, -1035400.25, 92586.64, 0.0, 10.000586, 9.999778 
8.450252e+2, 1.9490007e+2, -982333.5, -1030767.5, -36589.363, 0.010526225, 0.110130586, -962672.9, 67317.76, 0.0, 10.000424, 9.999781 
8.450402e+2, 2.0489985e+2, -887309.75, -944777.8, -47312.965, 0.026432484, 0.11457716, -860688.94, 71303.86, 0.0, 10.000449, 9.999686 
8.45055e+2, 2.1489973e+2, -756988.3, -830673.4, -44582.49, 0.033028673, 0.13512033, -735995.1, 97998.07, 0.0, 10.000669, 9.999691 
8.4506965e+2, 2.248991e+2, -658884.3, -760763.7, -53510.914, 0.046180338, 0.116102725, -635943.94, 100054.63, 0.0, 10.000792, 9.999439 
8.450843e+2, 2.348979e+2, -556925.44, -660176.56, -54953.266, 0.065166384, 0.052302603, -533151.6, 104857.32, 0.0, 10.000815, 9.999445 
8.450986e+2, 2.4489726e+2, -468559.6, -607943.1, -51591.367, 0.058294326, 0.062649675, -451541.4, 88474.22, 0.0, 10.000927, 9.999077 
8.451128e+2, 2.5489718e+2, -340879.6, -495063.13, -49523.086, 0.024514345, 0.14548105, -326343.44, 115675.125, 0.0, 10.001128, 9.999082 
8.4512746e+2, 2.6489612e+2, -243426.45, -427913.63, -34604.668, 0.014363689, 0.1463443, -237149.17, 106880.09, 0.0, 10.001256, 9.998809 
8.4514254e+2, 2.7489403e+2, -137425.8, -325756.1, -39203.613, 0.02932627, 0.059453405, -129590.96, 116457.16, 0.0, 10.00131, 9.998811 
8.4515774e+2, 2.8489277e+2, -55706.47, -289072.7, -33254.53, 0.04450329, 0.072931044, -51060.223, 97000.49, 0.0, 10.001429, 9.998334 
8.45173e+2, 2.948922e+2, 66228.12, -182357.73, -31124.098, 0.05913668, 0.18177618, 70065.75, 120133.33, 0.0, 10.001604, 9.998308 
8.451881e+2, 3.0488926e+2, 115710.164, -176101.06, -10886.558, 0.03548936, 0.07964099, 116115.74, 116115.74, 0.00000000024035085, 10.001794, 9.997926 
8.4520364e+2, 3.148877e+2, 234587.78, 27633.373, -13881.5625, 0.033963416, 0.12973635, 235514.75, 235514.75, 0.00000026211356, 10.001979, 9.999236 
8.5491383e+2, 1.2488409e+2, -1763221.0, -1819128.6, -49563.51, -0.08305294, 0.13453963, -1734271.8, -18124.703, 0.0, 10.000025, 9.999269 
8.549322e+2, 1.3488397e+2, -1544450.4, -1596773.6, 74250.49, -0.043272275, 0.1359833, -1491887.4, 126264.05, 0.0, 10.000553, 9.999877 
8.5494846e+2, 1.448839e+2, -1415487.9, -1444360.0, -18951.629, -0.08189754, 0.12614241, -1406100.3, 114052.23, 0.0, 10.000603, 10.00022 
8.549648e+2, 1.5488434e+2, -1377478.1, -1376537.5, -17012.814, -0.010184724, 0.14865826, -1359988.5, 62157.516, 0.0, 10.000196, 10.000208 
8.5498035e+2, 1.6488436e+2, -1295817.1, -1302093.1, -30439.773, 0.008520933, 0.13685411, -1268354.0, 55790.72, 0.0, 10.000152, 10.000068 
8.549953e+2, 1.7488395e+2, -1148625.5, -1180062.8, -34373.652, -0.024333991, 0.08916394, -1126547.0, 99601.6, 0.0, 10.000488, 10.000071 
8.550103e+2, 1.8488389e+2, -1048171.2, -1099604.0, -48195.48, -0.03141965, 0.08787597, -1019260.4, 108888.62, 0.0, 10.000586, 9.999904 
8.550254e+2, 1.9488423e+2, -973332.44, -1012573.06, -42960.742, -0.012087838, 0.13028671, -945723.7, 84422.02, 0.0, 10.000425, 9.999905 
8.550406e+2, 2.0488411e+2, -882175.7, -934390.56, -39698.555, 0.018443802, 0.13537641, -860769.2, 71377.26, 0.0, 10.00045, 9.999758 
8.550559e+2, 2.1488348e+2, -752129.56, -820268.56, -36766.516, 0.06106779, 0.09743198, -736074.2, 98077.19, 0.0, 10.000667, 9.9997635 
8.5507065e+2, 2.2488283e+2, -661235.6, -765484.75, -53081.676, 0.0683512, 0.074198246, -638965.06, 97191.91, 0.0, 10.00079, 9.999408 
8.550848e+2, 2.3488213e+2, -558723.06, -664535.94, -54232.664, 0.0381555, 0.06214966, -535864.9, 102298.48, 0.0, 10.000817, 9.999414 
8.550993e+2, 2.4488157e+2, -464088.28, -599147.2, -44284.637, 0.032186095, 0.081479706, -450862.84, 89306.086, 0.0, 10.000929, 9.999137 
8.551142e+2, 2.548812e+2, -336912.6, -486677.78, -42041.297, 0.05194976, 0.12914759, -325918.1, 116255.62, 0.0, 10.001127, 9.999141 
8.55129e+2, 2.6488003e+2, -252164.92, -445695.6, -32644.002, 0.04846472, 0.12164992, -246807.0, 97378.61, 0.0, 10.001254, 9.998688 
8.551437e+2, 2.7487805e+2, -145923.17, -343618.0, -37038.676, 0.02084604, 0.05435484, -139211.72, 106993.17, 0.0, 10.00131, 9.998689 
8.5515887e+2, 2.848768e+2, -51605.125, -280905.8, -26444.23, 0.020007964, 0.07580012, -48594.945, 99622.445, 0.0, 10.001429, 9.99839 
8.551744e+2, 2.9487622e+2, 70391.41, -173722.19, -24090.582, 0.046312697, 0.18014576, 72746.1, 122969.734, 0.0, 10.001604, 9.998368 
8.551898e+2, 3.0487326e+2, 127794.984, -150367.38, -3519.7468, 0.028222516, 0.06323783, 127839.516, 127839.516, 0.0000000059514194, 10.00179, 9.998104 
8.552054e+2, 3.1487173e+2, 237614.77, 34608.594, -6475.271, 0.021086311, 0.09825324, 237821.11, 237821.11, 0.0000005093443, 10.001976, 9.999286 
8.649141e+2, 1.24867804e+2, -1698416.5, -1785500.1, -76135.98, -0.07572179, 0.13137333, -1654251.0, 62056.082, 0.00000000000000000000885557, 10.000461, 9.999289 
8.649324e+2, 1.3486774e+2, -1590159.6, -1619771.8, 58115.926, -0.051237516, 0.14052019, -1544993.4, 73317.484, 0.0, 10.000245, 9.9998665 
8.649489e+2, 1.4486778e+2, -1466166.3, -1453830.0, -33852.98, -0.07938666, 0.13595442, -1425587.8, 94722.77, 0.0, 10.000191, 10.000354 
8.64965e+2, 1.5486817e+2, -1346060.8, -1345887.9, -25050.02, -0.010297881, 0.13865334, -1320924.1, 101379.555, 0.0, 10.000346, 10.000347 
8.6498064e+2, 1.6486815e+2, -1269054.6, -1300520.8, -24814.418, 0.010020972, 0.12248887, -1255406.0, 68896.65, 0.0, 10.000384, 9.999968 
8.649957e+2, 1.7486778e+2, -1183052.1, -1207953.3, -27310.873, -0.017481294, 0.08832916, -1165487.8, 60819.34, 0.0, 10.0003, 9.9999695 
8.650108e+2, 1.8486775e+2, -1084994.4, -1108963.1, -48365.37, -0.02477818, 0.09009253, -1047150.75, 81156.56, 0.0, 10.000297, 9.999979 
8.6502576e+2, 1.9486807e+2, -975964.44, -1005356.06, -47117.625, -0.011067168, 0.123679586, -941304.0, 88999.484, 0.0, 10.000371, 9.999981 
8.65041e+2, 2.048679e+2, -887259.94, -938869.44, -42647.51, 0.01892087, 0.122022584, -863217.94, 69086.36, 0.0, 10.000423, 9.99974 
8.650565e+2, 2.1486723e+2, -784737.1, -837918.4, -46465.74, 0.0657946, 0.08028887, -757791.5, 76518.4, 0.0, 10.000452, 9.999746 
8.6507136e+2, 2.2486664e+2, -687973.6, -778286.94, -63740.38, 0.07013047, 0.064394064, -655015.25, 81299.945, 0.0, 10.000607, 9.999409 
8.6508554e+2, 2.3486611e+2, -547935.1, -659192.5, -63122.23, 0.029853782, 0.070986815, -519427.2, 118892.96, 0.0, 10.000892, 9.999415 
8.6510015e+2, 2.4486557e+2, -446957.22, -585568.94, -55324.805, 0.021544898, 0.086005256, -427583.13, 112742.586, 0.0, 10.001024, 9.999185 
8.651152e+2, 2.5486493e+2, -352392.72, -488731.72, -54237.746, 0.04669695, 0.105594784, -333448.4, 108883.62, 0.0, 10.0009985, 9.999188 
8.651302e+2, 2.648638e+2, -277823.22, -465545.53, -40715.543, 0.04769409, 0.10079297, -269372.75, 74971.11, 0.0, 10.001111, 9.99862 
8.651451e+2, 2.7486208e+2, -142772.56, -350022.22, -41648.336, 0.02400258, 0.068095624, -134716.19, 111645.305, 0.0, 10.001367, 9.998617 
8.6516035e+2, 2.8486085e+2, -33087.12, -265152.4, -30548.771, 0.018487213, 0.09211624, -29133.092, 119240.88, 0.0, 10.001527, 9.99845 
8.651759e+2, 2.9486004e+2, 72185.72, -165295.92, -28239.572, 0.030528037, 0.16590582, 75497.58, 125879.38, 0.0, 10.001585, 9.998435 
8.651914e+2, 3.0485708e+2, 121623.74, -149808.47, -9248.445, 0.01150095, 0.04404864, 121938.49, 121938.49, 0.000000027135602, 10.001733, 9.998136 
8.652073e+2, 3.1485587e+2, 227046.16, 18384.494, -23044.379, 0.0137154935, 0.106274694, 229560.84, 229560.84, 0.00000083365, 10.001952, 9.999186 
8.749142e+2, 1.2485097e+2, -1681496.4, -1750644.1, -80980.35, -0.11426263, 0.123257786, -1628018.1, 88455.195, 0.0000000055054987, 10.000461, 9.999529 
8.749329e+2, 1.3485144e+2, -1575950.6, -1590223.1, 49071.86, -0.032138668, 0.16435182, -1533498.9, 84972.43, 0.0, 10.000244, 10.00007 
8.7494946e+2, 1.4485167e+2, -1450378.1, -1421850.3, -28510.55, -0.0396499, 0.15840562, -1404234.6, 116233.68, 0.0, 10.000194, 10.000572 
8.7496525e+2, 1.5485172e+2, -1330022.3, -1312958.5, -19204.93, -0.022579761, 0.10422661, -1300475.6, 121988.2, 0.0, 10.000346, 10.000573 
8.7498075e+2, 1.6485181e+2, -1274181.9, -1311762.8, -28201.934, -0.01375331, 0.09190135, -1259083.8, 65377.816, 0.0, 10.000385, 9.99989 
8.749961e+2, 1.7485207e+2, -1188569.4, -1220115.8, -30600.854, -0.006751495, 0.12829056, -1169915.8, 56545.41, 0.0, 10.000303, 9.999886 
8.750113e+2, 1.8485202e+2, -1083018.6, -1105400.8, -45918.047, 0.0028267829, 0.13130535, -1046947.56, 81514.11, 0.0, 10.000298, 10.000003 
8.7502635e+2, 1.9485164e+2, -973863.1, -1001330.75, -44647.953, 0.012690014, 0.09124366, -940884.44, 89579.195, 0.0, 10.000371, 10.000009 
8.750415e+2, 2.0485128e+2, -894428.25, -954079.1, -42116.434, 0.02723594, 0.075450756, -872646.0, 59820.023, 0.0, 10.000424, 9.999636 
8.7505674e+2, 2.1485099e+2, -791995.8, -853482.7, -45868.23, 0.047395136, 0.08276914, -767521.0, 66947.68, 0.0, 10.000453, 9.9996395 
8.7507176e+2, 2.2485055e+2, -685992.75, -774439.2, -53480.67, 0.051549826, 0.08547003, -660819.44, 75653.54, 0.0, 10.000607, 9.999435 
8.7508655e+2, 2.3484993e+2, -546351.4, -655525.4, -52481.797, 0.03917906, 0.079125434, -525214.6, 113264.4, 0.0, 10.00089, 9.999442 
8.751012e+2, 2.4484923e+2, -444886.6, -580920.3, -56231.125, 0.025483571, 0.07712849, -424652.5, 115833.234, 0.0, 10.001021, 9.999217 
8.751159e+2, 2.5484842e+2, -349723.4, -483719.88, -55004.65, 0.009826913, 0.074992955, -330036.72, 112456.49, 0.0, 10.000999, 9.999222 
8.751309e+2, 2.648474e+2, -279081.75, -468820.1, -31025.846, 0.013127264, 0.083235614, -274137.28, 70366.58, 0.0, 10.001113, 9.998597 
8.751466e+2, 2.7484617e+2, -144721.77, -353959.72, -31559.926, 0.037134163, 0.09958409, -140065.13, 106452.77, 0.0, 10.001365, 9.998591 
8.7516207e+2, 2.848449e+2, -29289.857, -256630.45, -27988.135, 0.03770772, 0.12121145, -25894.906, 122635.53, 0.0, 10.001524, 9.99851 
8.7517726e+2, 2.948436e+2, 76901.29, -155620.02, -25689.334, 0.012059367, 0.13957667, 79705.67, 130247.68, 0.0, 10.001585, 9.998502 
8.751929e+2, 3.0484068e+2, 114180.32, -165019.38, -404.21713, -0.013974357, 0.021850385, 114180.91, 114180.91, 0.00000006425192, 10.001732, 9.998032 
8.752092e+2, 3.1484e+2, 209376.83, -16160.69, -13455.703, 0.008723996, 0.14705408, 210176.77, 210176.77, 0.0000011924308, 10.001942, 9.998953 
8.8491476e+2, 1.24834515e+2, -1681332.1, -1726200.9, -63173.492, -0.10527588, 0.12649472, -1636727.8, 79907.836, 0.00000006865042, 10.000358, 9.999746 
8.84933e+2, 1.3483508e+2, -1573211.6, -1569141.9, 59778.715, -0.039088372, 0.15941258, -1511363.4, 107267.7, 0.0, 10.000179, 10.000245 
8.849496e+2, 1.4483537e+2, -1460335.9, -1431139.3, -15352.058, -0.04040601, 0.15284565, -1424552.8, 96074.195, 0.0, 10.000144, 10.000532 
8.849656e+2, 1.5483531e+2, -1338698.3, -1321589.9, -25644.87, -0.022088284, 0.09267009, -1303110.1, 119513.875, 0.0, 10.000307, 10.000533 
8.8498116e+2, 1.6483548e+2, -1273982.6, -1305991.1, -48524.1, -0.014370696, 0.08554582, -1238891.6, 85729.96, 0.0, 10.000363, 9.99994 
8.849964e+2, 1.7483594e+2, -1186966.5, -1214246.8, -41580.465, -0.010521629, 0.13849705, -1156846.1, 69773.06, 0.0, 10.000292, 9.999931 
8.850117e+2, 1.848359e+2, -1083520.0, -1110279.8, -47448.15, 0.0055997143, 0.14155312, -1047601.25, 81018.33, 0.0, 10.000314, 9.999962 
8.85027e+2, 1.9483529e+2, -966623.4, -1002172.7, -51451.785, 0.031158376, 0.08468151, -929962.5, 100660.94, 0.0, 10.000441, 9.9999695 
8.8504213e+2, 2.0483488e+2, -882948.9, -947905.7, -50707.297, 0.043321636, 0.06468068, -855210.3, 77416.016, 0.0, 10.000501, 9.99964 
8.850572e+2, 2.148347e+2, -786725.06, -850190.44, -46249.34, 0.04232512, 0.08077014, -762368.9, 72259.27, 0.0, 10.000486, 9.999645 
8.850723e+2, 2.248343e+2, -694338.5, -774628.25, -42253.34, 0.04400752, 0.08582882, -676199.94, 60432.098, 0.0, 10.000534, 9.999469 
8.8508743e+2, 2.3483366e+2, -578901.2, -667372.25, -41245.82, 0.048484508, 0.07569823, -562655.3, 75982.88, 0.0, 10.000649, 9.999476 
8.851022e+2, 2.4483296e+2, -476343.47, -599459.5, -50675.37, 0.035717454, 0.07322965, -458168.28, 82476.64, 0.0, 10.000821, 9.9991865 
8.8511676e+2, 2.5483215e+2, -344422.1, -484650.0, -54697.645, 0.0042368346, 0.07384135, -325610.25, 117042.234, 0.0, 10.001052, 9.99919 
8.8513196e+2, 2.6483116e+2, -264046.16, -454930.25, -28967.982, -0.000071261114, 0.08027527, -259746.9, 84916.14, 0.0, 10.001188, 9.998656 
8.8514775e+2, 2.748299e+2, -161057.95, -354910.38, -23427.285, 0.024524884, 0.09017957, -158266.92, 88409.984, 0.0, 10.0012245, 9.998652 
8.8516337e+2, 2.8482866e+2, -53100.83, -274710.4, -19520.605, 0.027144782, 0.11349584, -51394.484, 97294.89, 0.0, 10.0013895, 9.99845 
8.851788e+2, 2.948274e+2, 86621.21, -157915.27, -26484.523, 0.0061218827, 0.14264023, 89456.74, 140157.72, 0.0, 10.001681, 9.998439 
8.8519454e+2, 3.0482456e+2, 121274.81, -154542.88, -6184.928, -0.016747558, 0.03177114, 121413.44, 121413.44, 0.00000010587227, 10.001749, 9.9980955 
8.8521093e+2, 3.1482387e+2, 151463.28, -49997.74, -7577.0337, 0.0025104685, 0.15286177, 151747.86, 151747.86, 0.0000015115112, 10.001569, 9.9989 
8.949156e+2, 1.24818504e+2, -1668386.6, -1699522.8, -65680.3, -0.05383856, 0.14467266, -1616454.6, 100338.445, 0.00000033535434, 10.000358, 9.99993 
8.9493287e+2, 1.3481869e+2, -1563476.9, -1548718.6, 52484.17, -0.07166187, 0.12582827, -1503097.4, 115692.56, 0.00000000007521531, 10.000178, 10.000386 
8.949493e+2, 1.448189e+2, -1481205.6, -1475218.3, -10394.684, -0.081443906, 0.11945154, -1467394.8, 53391.67, 0.0, 10.000147, 10.000229 
8.94966e+2, 1.5481898e+2, -1359703.5, -1365791.6, -19742.22, -0.0106304735, 0.10417864, -1342772.1, 80012.03, 0.0, 10.000309, 10.000229 
8.949817e+2, 1.6481914e+2, -1261891.5, -1281411.4, -51074.57, 0.0063681607, 0.10348414, -1219652.8, 105129.62, 0.0, 10.000364, 10.000109 
8.9499646e+2, 1.7481941e+2, -1174289.6, -1188357.8, -44467.332, -0.029065395, 0.119547985, -1136303.5, 90477.29, 0.0, 10.000293, 10.000109 
8.950117e+2, 1.848194e+2, -1090787.8, -1125896.5, -43373.03, -0.016965218, 0.121608816, -1061551.4, 67229.414, 0.0, 10.000316, 9.999854 
8.950275e+2, 1.9481908e+2, -974297.1, -1018450.6, -47205.934, 0.044044863, 0.10339424, -944260.7, 86521.984, 0.0, 10.000442, 9.999858 
8.9504284e+2, 2.0481873e+2, -874917.94, -931389.56, -51783.4, 0.0668718, 0.08902381, -844172.56, 88612.52, 0.0, 10.000501, 9.999754 
8.9505774e+2, 2.1481834e+2, -778388.94, -833085.75, -47333.58, 0.049746625, 0.07463228, -751071.06, 83716.92, 0.0, 10.000487, 9.9997635 
8.950728e+2, 2.2481789e+2, -691522.4, -769036.9, -38415.254, 0.04640549, 0.0662615, -675709.94, 61082.137, 0.0, 10.000534, 9.999507 
8.9508814e+2, 2.3481734e+2, -576161.3, -662161.7, -37044.555, 0.057205904, 0.06102224, -562404.9, 76392.52, 0.0, 10.000651, 9.999512 
8.951032e+2, 2.4481675e+2, -482829.66, -613398.56, -42206.7, 0.051409625, 0.0739515, -470374.38, 70428.81, 0.0, 10.000822, 9.999091 
8.9511806e+2, 2.5481611e+2, -351403.06, -499194.22, -45863.523, 0.027985059, 0.100774206, -338327.28, 104482.5, 0.0, 10.001051, 9.999091 
8.951332e+2, 2.6481497e+2, -254727.22, -435303.88, -27525.803, 0.006766307, 0.09167664, -250624.6, 94196.78, 0.0, 10.001186, 9.998792 
8.951486e+2, 2.7481326e+2, -151172.28, -334411.16, -21886.309, -0.012253689, 0.042218532, -148594.42, 98243.89, 0.0, 10.001224, 9.998794 
8.951644e+2, 2.8481206e+2, -65409.21, -300217.3, -8255.882, -0.011629632, 0.07072232, -65119.29, 83731.32, 0.0, 10.001389, 9.998277 
8.951805e+2, 2.9481137e+2, 73138.305, -184796.0, -14774.359, 0.010181288, 0.17294289, 73981.81, 124840.57, 0.0, 10.001676, 9.998259 
8.951965e+2, 3.0480862e+2, 134598.78, -124725.53, -12121.512, -0.0000008775662, 0.071815826, 135164.14, 135164.14, 0.00000013409642, 10.00174, 9.998304 
8.952124e+2, 3.1480744e+2, 158351.89, -34801.73, -13404.109, -0.0056465077, 0.122685455, 159277.64, 159277.64, 0.0000016978646, 10.001566, 9.999005 
9.049159e+2, 1.24802604e+2, -1658551.8, -1706892.8, -42487.703, -0.05256615, 0.15130292, -1633840.6, 83107.32, 0.0000010631732, 10.000474, 9.999825 
9.049333e+2, 1.348024e+2, -1512514.8, -1541260.3, 48553.605, -0.06257851, 0.10754429, -1476251.3, 142697.14, 0.000000007369457, 10.000602, 10.000233 
9.0494984e+2, 1.4480247e+2, -1437351.4, -1465568.3, -20088.781, -0.066524535, 0.099097975, -1426911.8, 94034.71, 0.0, 10.000499, 10.000126 
9.049662e+2, 1.5480256e+2, -1390871.0, -1392456.6, -14635.571, -0.01342512, 0.09588644, -1377006.8, 45937.754, 0.0, 10.000145, 10.000125 
9.0498185e+2, 1.6480272e+2, -1301686.5, -1300822.5, -36917.18, 0.0055887974, 0.10141953, -1264334.8, 60608.125, 0.0, 10.000093, 10.000106 
9.04997e+2, 1.7480299e+2, -1161152.1, -1181649.4, -43858.844, -0.00871132, 0.11769787, -1126360.4, 100580.75, 0.0, 10.000383, 10.000111 
9.050123e+2, 1.8480293e+2, -1068494.1, -1119634.1, -50529.8, 0.0017621802, 0.11680297, -1037432.94, 91508.76, 0.0, 10.00049, 9.999812 
9.050278e+2, 1.9480251e+2, -985259.56, -1028769.4, -49363.266, 0.03761466, 0.092149206, -953069.94, 77875.01, 0.0, 10.000388, 9.999812 
9.050431e+2, 2.0480222e+2, -883380.8, -922442.6, -49939.12, 0.055086922, 0.0806603, -849289.2, 83657.54, 0.0, 10.000388, 9.99987 
9.050582e+2, 2.1480207e+2, -768482.56, -814988.44, -45904.13, 0.053376563, 0.07956935, -740277.9, 94669.04, 0.0, 10.000499, 9.999882 
9.050734e+2, 2.2480167e+2, -688933.5, -776771.06, -40010.223, 0.052810963, 0.074962124, -673441.2, 63509.223, 0.0, 10.000591, 9.999427 
9.0508866e+2, 2.3480098e+2, -579999.25, -673584.0, -47755.76, 0.05274815, 0.06287619, -559932.56, 79025.1, 0.0, 10.000667, 9.999426 
9.051039e+2, 2.4480031e+2, -487945.22, -614747.9, -50225.746, 0.047721326, 0.069934405, -470461.72, 70502.805, 0.0, 10.000783, 9.9991 
9.051191e+2, 2.5479963e+2, -366755.44, -505343.56, -46033.777, 0.037466243, 0.09228349, -352858.3, 90112.9, 0.0, 10.000941, 9.999102 
9.051344e+2, 2.6479852e+2, -266856.9, -436747.56, -31182.697, 0.015490485, 0.085056126, -261314.3, 83667.914, 0.0, 10.001085, 9.998831 
9.051497e+2, 2.7479693e+2, -150785.05, -330131.1, -33386.57, -0.018896304, 0.044453453, -144771.53, 102226.26, 0.0, 10.001209, 9.99883 
9.051656e+2, 2.8479573e+2, -80843.3, -310620.16, -15314.433, -0.024184018, 0.073026575, -79827.1, 69183.17, 0.0, 10.001295, 9.99825 
9.0518194e+2, 2.9479492e+2, 22659.604, -211634.89, -11287.175, 0.001138764, 0.165723, 23202.107, 74222.35, 0.0, 10.001341, 9.998235 
9.05198e+2, 3.047923e+2, 105661.65, -118714.484, -9600.465, -0.003761654, 0.07116816, 106071.67, 106071.67, 0.0000001316986, 10.001456, 9.998483 
9.05214e+2, 3.147914e+2, 172497.56, -19933.096, -13236.087, -0.0054694978, 0.13069914, 173403.73, 173403.73, 0.0000016698094, 10.001628, 9.999079 
9.149159e+2, 1.2478688e+2, -1684753.9, -1763249.8, -34094.023, -0.10812658, 0.14662302, -1672013.3, 45086.348, 0.0000026057617, 10.000482, 9.999435 
9.149344e+2, 1.3478625e+2, -1543447.0, -1606067.5, 52675.605, -0.013758528, 0.10455882, -1513478.8, 105627.266, 0.00000007607973, 10.000604, 9.999787 
9.1495097e+2, 1.4478609e+2, -1431091.0, -1453108.5, -33115.18, 0.002898038, 0.09191293, -1407202.6, 113904.125, 0.0, 10.0005, 10.000211 
9.149661e+2, 1.5478608e+2, -1384031.6, -1378642.4, -28146.531, -0.030315448, 0.068370156, -1353061.8, 70043.08, 0.0, 10.000146, 10.00022 
9.149817e+2, 1.6478626e+2, -1313739.3, -1326632.0, -27088.602, -0.016945371, 0.08022695, -1292340.5, 32762.316, 0.0, 10.000095, 9.999928 
9.14998e+2, 1.7478672e+2, -1173592.5, -1207787.9, -33216.84, 0.049664274, 0.13283332, -1153331.3, 73768.68, 0.0, 10.000383, 9.999931 
9.150134e+2, 1.8478653e+2, -1067078.1, -1116707.8, -54415.355, 0.0612245, 0.12698236, -1032086.5, 97015.57, 0.0, 10.000489, 9.999833 
9.15028e+2, 1.9478561e+2, -983453.0, -1025336.1, -53630.855, 0.011785665, 0.05130855, -946820.1, 84289.82, 0.0, 10.000389, 9.999836 
9.1504306e+2, 2.0478539e+2, -875578.1, -906633.25, -46527.18, 0.0075263176, 0.04002082, -842055.9, 91055.13, 0.0, 10.000389, 9.999979 
9.1505873e+2, 2.1478593e+2, -760602.44, -798858.25, -42382.01, 0.052760776, 0.09531786, -733231.8, 101872.86, 0.0, 10.000499, 9.999992 
9.150741e+2, 2.2478569e+2, -702687.2, -805526.44, -37731.973, 0.06304351, 0.11140926, -690328.44, 46778.535, 0.0, 10.000591, 9.999229 
9.150892e+2, 2.347846e+2, -594060.44, -703255.4, -45054.15, 0.035513423, 0.0806864, -577871.2, 61247.574, 0.0, 10.000669, 9.999222 
9.151045e+2, 2.4478361e+2, -480093.9, -598987.1, -44252.242, 0.024940161, 0.06139113, -465431.4, 75697.21, 0.0, 10.000784, 9.9992075 
9.1512007e+2, 2.547827e+2, -358467.8, -488748.25, -39953.055, 0.032824636, 0.050049864, -347191.44, 95944.984, 0.0, 10.000943, 9.999215 
9.1513556e+2, 2.647818e+2, -270578.16, -444873.06, -26339.428, 0.025368143, 0.06094074, -266684.72, 78460.61, 0.0, 10.001085, 9.998775 
9.151511e+2, 2.7478093e+2, -155410.31, -339365.22, -28329.73, 0.0017352985, 0.09344394, -151146.27, 96009.12, 0.0, 10.001206, 9.998769 
9.15167e+2, 2.847797e+2, -74444.41, -296025.03, -13500.568, -0.012965305, 0.11805851, -73624.87, 75543.484, 0.0, 10.001289, 9.998354 
9.1518307e+2, 2.947781e+2, 29582.564, -195929.06, -9400.798, -0.01939536, 0.12452827, 29973.771, 81158.87, 0.0, 10.001334, 9.998345 
9.151992e+2, 3.0477566e+2, 115911.0, -95927.79, -2803.74, -0.026224995, 0.032752223, 115948.1, 115948.1, 0.00000009563079, 10.001449, 9.998643 
9.152156e+2, 3.147757e+2, 175691.44, -11621.96, -5825.2686, -0.0013228797, 0.16855529, 175872.44, 175872.44, 0.0000014046396, 10.001619, 9.99914 
9.249165e+2, 1.2477053e+2, -1660351.9, -1755863.1, -62108.957, -0.10443123, 0.12271385, -1629761.3, 87497.04, 0.000005355975, 10.0006695, 9.999393 
9.249349e+2, 1.3476999e+2, -1567254.1, -1626917.3, 47922.477, -0.008256623, 0.09705897, -1540636.6, 78627.664, 0.00000033393198, 10.000483, 9.9997015 
9.2495155e+2, 1.4476983e+2, -1445782.9, -1467398.8, -32313.52, 0.014810087, 0.09346463, -1422517.8, 98747.55, 0.0, 10.000432, 10.000145 
9.249666e+2, 1.5476972e+2, -1329430.9, -1358941.6, -39781.703, -0.020186286, 0.064906545, -1301756.3, 121508.49, 0.0, 10.000551, 10.000158 
9.2498213e+2, 1.6476977e+2, -1253921.3, -1304388.4, -33875.406, -0.00830256, 0.07099437, -1236914.1, 88349.75, 0.0, 10.000537, 9.9998665 
9.249984e+2, 1.7477012e+2, -1180637.0, -1218303.6, -31330.133, 0.057106204, 0.11728519, -1162915.3, 64346.54, 0.0, 10.000367, 9.9998665 
9.2501384e+2, 1.8476991e+2, -1090041.5, -1126568.8, -50339.637, 0.06605909, 0.11376757, -1054754.9, 74509.24, 0.0, 10.000327, 9.999843 
9.250284e+2, 1.9476911e+2, -975936.3, -1019942.3, -51075.402, 0.011888486, 0.04951836, -942326.1, 88944.98, 0.0, 10.000435, 9.99985 
9.2504346e+2, 2.0476891e+2, -862105.2, -905651.1, -47730.26, 0.003750426, 0.040874995, -831416.4, 101856.0, 0.0, 10.000506, 9.999928 
9.2505914e+2, 2.1476933e+2, -759052.7, -803898.8, -55675.7, 0.045982663, 0.08959396, -721454.25, 113812.95, 0.0, 10.000535, 9.99994 
9.250746e+2, 2.2476907e+2, -701062.3, -806355.06, -49533.24, 0.05587771, 0.10729339, -681423.3, 55846.52, 0.0, 10.00061, 9.999214 
9.2508984e+2, 2.3476808e+2, -585663.9, -700817.75, -43403.176, 0.030987797, 0.086928405, -571137.1, 68143.73, 0.0, 10.000733, 9.999207 
9.251053e+2, 2.4476705e+2, -471432.16, -599189.2, -39211.96, 0.020285636, 0.06799577, -460357.06, 80933.93, 0.0, 10.000863, 9.999168 
9.251209e+2, 2.5476602e+2, -352560.1, -490591.78, -46523.824, 0.024692656, 0.046265114, -338343.44, 104956.83, 0.0, 10.001004, 9.999173 
9.251366e+2, 2.647651e+2, -272128.88, -442510.53, -39601.074, 0.020043515, 0.057443846, -263374.4, 81934.88, 0.0, 10.001061, 9.998802 
9.251523e+2, 2.7476433e+2, -179341.67, -347279.03, -35473.023, 0.0056149364, 0.10138451, -172156.22, 75161.86, 0.0, 10.001027, 9.998799 
9.2516816e+2, 2.8476325e+2, -105817.05, -306129.56, -18197.996, -0.009957179, 0.13100658, -104177.23, 45153.086, 0.0, 10.001053, 9.998397 
9.251842e+2, 2.947617e+2, 3899.7205, -203233.63, -18874.31, -0.027479278, 0.13698481, 5605.529, 56952.273, 0.0, 10.001137, 9.998391 
9.2520046e+2, 3.0475926e+2, 86388.06, -103333.74, -15815.24, -0.03304462, 0.04375896, 87697.39, 87697.39, 0.00000004550982, 10.001218, 9.998703 
9.252171e+2, 3.1475908e+2, 127681.13, -37341.086, -26072.824, 0.0021671136, 0.15215062, 131702.53, 131702.53, 0.0000009683944, 10.001303, 9.999115 
9.3491775e+2, 1.24753594e+2, -1638539.9, -1710805.4, -67063.37, -0.04608825, 0.07711525, -1598494.8, 118928.95, 0.000009813605, 10.0006695, 9.999703 
9.3493503e+2, 1.3475366e+2, -1547626.3, -1586874.0, 40498.02, -0.046547793, 0.085787, -1522248.0, 97174.695, 0.0000009955157, 10.000486, 9.999975 
9.3495154e+2, 1.4475377e+2, -1460275.3, -1498921.1, -28484.963, -0.032071162, 0.10498243, -1445177.8, 76243.6, 0.00000000002439963, 10.000437, 9.999927 
9.3496746e+2, 1.5475352e+2, -1344963.9, -1391525.9, -35357.594, 0.015630974, 0.08561677, -1325910.9, 97512.66, 0.0, 10.000551, 9.999935 
9.34983e+2, 1.6475332e+2, -1250702.8, -1297771.0, -40147.04, 0.03085615, 0.07368737, -1227700.5, 97724.914, 0.0, 10.000537, 9.999912 
9.349983e+2, 1.747532e+2, -1177000.8, -1211135.8, -37943.938, 0.013526926, 0.07121118, -1152462.4, 74963.89, 0.0, 10.000368, 9.999916 
9.3501365e+2, 1.8475313e+2, -1090360.9, -1127708.8, -47006.45, 0.015325991, 0.0771787, -1058455.0, 70972.21, 0.0, 10.000329, 9.999835 
9.3502903e+2, 1.9475307e+2, -976105.44, -1020745.56, -47530.543, 0.036969114, 0.08634992, -945915.1, 85513.0, 0.0, 10.000436, 9.999845 
9.350443e+2, 2.0475279e+2, -876374.25, -935523.75, -47214.465, 0.043192465, 0.083042406, -850236.6, 83193.85, 0.0, 10.000506, 9.999723 
9.350595e+2, 2.1475232e+2, -773672.6, -834565.94, -55051.563, 0.032962076, 0.0628374, -741209.2, 94224.93, 0.0, 10.000536, 9.999729 
9.350749e+2, 2.2475186e+2, -689878.5, -783558.6, -45280.387, 0.030849745, 0.06313636, -671570.25, 65868.305, 0.0, 10.000611, 9.999371 
9.3509066e+2, 2.3475142e+2, -574016.9, -676918.5, -38989.195, 0.038133066, 0.081972815, -560912.7, 78530.98, 0.0, 10.000734, 9.999371 
9.351063e+2, 2.4475065e+2, -484236.44, -625867.56, -34112.973, 0.032654602, 0.089238524, -476448.3, 65003.25, 0.0, 10.000863, 9.998985 
9.351218e+2, 2.5474954e+2, -366008.28, -518522.3, -40878.56, 0.012842916, 0.07874825, -355742.53, 87720.06, 0.0, 10.001003, 9.998982 
9.3513745e+2, 2.6474842e+2, -265032.66, -427620.1, -40524.695, -0.00022323574, 0.07346302, -255491.81, 89982.11, 0.0, 10.0010605, 9.998906 
9.351531e+2, 2.747473e+2, -171573.86, -331151.6, -36539.96, -0.006305008, 0.07136138, -163604.92, 83880.516, 0.0, 10.001027, 9.998911 
9.351691e+2, 2.8474638e+2, -106709.625, -307547.56, -14940.41, -0.015185143, 0.11375348, -105604.29, 43891.555, 0.0, 10.001051, 9.998389 
9.351854e+2, 2.9474556e+2, 2144.3555, -205500.48, -15350.953, -0.026001731, 0.19761737, 3273.0986, 54778.582, 0.0, 10.00113, 9.998379 
9.352017e+2, 3.047431e+2, 81732.74, -110704.516, -12436.199, -0.027147822, 0.09985386, 82533.1, 82533.1, 0.000000010385675, 10.001207, 9.998657 
9.3521845e+2, 3.147416e+2, 118145.63, -55044.406, -21668.078, 0.004443145, 0.08436644, 120815.41, 120815.41, 0.00000050425, 10.001293, 9.998999 
9.4491863e+2, 1.24737054e+2, -1632123.1, -1691352.4, -64135.504, -0.018631956, 0.0679478, -1591095.0, 126490.47, 0.000016619406, 10.000644, 9.999849 
9.4493544e+2, 1.347371e+2, -1535684.3, -1568638.0, 27310.863, -0.057072442, 0.064819284, -1520264.9, 99318.945, 0.0000023427797, 10.000516, 10.000085 
9.449518e+2, 1.447373e+2, -1463981.0, -1509253.1, -34761.926, -0.04775441, 0.09025743, -1445134.8, 76446.945, 0.0000000053592455, 10.000451, 9.999847 
9.4496804e+2, 1.5473722e+2, -1363852.0, -1409640.1, -31304.22, 0.022408884, 0.09599911, -1347963.5, 75619.58, 0.0, 10.000463, 9.999852 
9.4498366e+2, 1.6473694e+2, -1256006.0, -1300970.5, -36542.383, 0.03950741, 0.08184674, -1235583.8, 90001.92, 0.0, 10.0005045, 9.999906 
9.449987e+2, 1.747365e+2, -1146350.9, -1196395.4, -38936.746, -0.00015359266, 0.04611707, -1125089.4, 102499.77, 0.0, 10.000581, 9.999913 
9.4501394e+2, 1.847364e+2, -1052679.9, -1113097.1, -47903.195, 0.00011531723, 0.052245207, -1026255.6, 103334.516, 0.0, 10.000605, 9.999802 
9.450296e+2, 1.9473667e+2, -959851.5, -1016846.8, -50516.21, 0.043465126, 0.0996375, -930349.1, 101239.2, 0.0, 10.000566, 9.999808 
9.45045e+2, 2.0473643e+2, -874544.1, -944682.06, -47242.383, 0.05311646, 0.10304084, -850777.06, 82813.82, 0.0, 10.000563, 9.999633 
9.4506e+2, 2.1473557e+2, -771123.2, -843509.75, -46585.91, 0.026069809, 0.054403067, -748323.25, 87274.984, 0.0, 10.000598, 9.999638 
9.4507545e+2, 2.2473498e+2, -686055.25, -784501.0, -36769.56, 0.01914867, 0.04611686, -673838.0, 63766.05, 0.0, 10.00065, 9.999345 
9.450913e+2, 2.3473464e+2, -577242.06, -681416.9, -44592.62, 0.034517635, 0.078643106, -560761.25, 78846.88, 0.0, 10.000725, 9.999344 
9.4510704e+2, 2.4473393e+2, -496196.75, -634285.1, -41465.645, 0.033311594, 0.094848104, -484702.13, 56913.438, 0.0, 10.0007925, 9.998961 
9.4512266e+2, 2.5473285e+2, -390484.5, -532808.7, -36411.875, 0.013555747, 0.087964974, -381709.94, 61916.797, 0.0, 10.000847, 9.99896 
9.451384e+2, 2.6473165e+2, -287754.44, -439829.47, -36731.98, -0.0041324343, 0.0811201, -279347.03, 66291.484, 0.0, 10.000911, 9.998894 
9.45154e+2, 2.7473047e+2, -178539.64, -335914.72, -41934.68, -0.020017706, 0.072444186, -168063.02, 79587.85, 0.0, 10.000985, 9.9988985 
9.4517004e+2, 2.8472954e+2, -118424.03, -311689.8, -25882.297, -0.02430537, 0.11636627, -115017.88, 34643.39, 0.0, 10.000964, 9.998403 
9.451864e+2, 2.947289e+2, -40177.402, -224008.23, -25078.17, -0.01468671, 0.21053287, -36817.65, 14852.321, 0.0, 10.000833, 9.998395 
9.452029e+2, 3.0472657e+2, 38995.965, -126698.78, -10199.495, -0.013853773, 0.123840354, 39621.44, 39621.44, 0.00000000032400083, 10.000895, 9.998698 
9.452195e+2, 3.1472498e+2, 98541.29, -66725.305, -12980.914, -0.0034387372, 0.094606556, 99554.664, 99554.664, 0.00000016973306, 10.001169, 9.998978 
9.549192e+2, 1.2472102e+2, -1632482.6, -1694908.9, -66589.57, -0.031250946, 0.099079885, -1590153.6, 127589.04, 0.000026449812, 10.000654, 9.999821 
9.549361e+2, 1.347204e+2, -1540028.8, -1577602.9, 22193.977, -0.04053179, 0.033801388, -1529737.9, 90009.07, 0.0000047469885, 10.000514, 10.000025 
9.549524e+2, 1.4472048e+2, -1461062.9, -1502718.8, -34210.285, -0.032286156, 0.04825184, -1441839.0, 79906.68, 0.000000046136613, 10.000448, 9.999894 
9.549683e+2, 1.5472086e+2, -1360204.5, -1402510.8, -30738.656, -0.00025056567, 0.096161045, -1344043.8, 79698.88, 0.0, 10.000464, 9.999901 
9.549839e+2, 1.6472071e+2, -1259977.3, -1309903.5, -33958.406, 0.016408218, 0.095849045, -1242793.9, 82950.32, 0.0, 10.000506, 9.999844 
9.549994e+2, 1.7472003e+2, -1150527.4, -1205462.6, -36247.664, 0.015398902, 0.041951366, -1132515.8, 95234.3, 0.0, 10.000582, 9.999851 
9.5501477e+2, 1.8471979e+2, -1056917.1, -1122333.3, -49681.23, 0.0200069, 0.039387457, -1030143.75, 99608.805, 0.0, 10.000606, 9.999738 
9.5503e+2, 1.9472003e+2, -964219.75, -1026379.6, -52406.004, 0.03135111, 0.08946071, -934370.6, 97380.64, 0.0, 10.000567, 9.9997425 
9.550453e+2, 2.0471981e+2, -873248.3, -942335.4, -46610.66, 0.033156488, 0.10055948, -849776.25, 83977.125, 0.0, 10.000564, 9.999649 
9.550606e+2, 2.147191e+2, -769608.4, -840648.4, -45887.277, 0.024565754, 0.06398707, -747099.9, 88659.46, 0.0, 10.000599, 9.999658 
9.550761e+2, 2.2471842e+2, -700152.9, -814070.94, -34666.926, 0.020139407, 0.056157973, -690432.6, 47333.54, 0.0, 10.000651, 9.999142 
9.5509183e+2, 2.3471776e+2, -591445.7, -711640.75, -41806.863, 0.020270709, 0.0765192, -578334.4, 61439.605, 0.0, 10.000728, 9.999136 
9.5510775e+2, 2.4471693e+2, -487373.13, -616548.56, -39266.08, 0.0220507, 0.084917516, -476373.84, 65408.86, 0.0, 10.000794, 9.999083 
9.5512366e+2, 2.5471592e+2, -381218.5, -513702.53, -34180.008, 0.025709575, 0.075345986, -372920.06, 70872.266, 0.0, 10.000847, 9.999091 
9.5513934e+2, 2.647149e+2, -296504.8, -457849.44, -33802.19, 0.0070492593, 0.08104061, -289709.34, 56093.586, 0.0, 10.00091, 9.998772 
9.5515484e+2, 2.7471387e+2, -188036.48, -355020.44, -38619.984, -0.03646999, 0.10160667, -179537.08, 68277.43, 0.0, 10.000982, 9.99877 
9.551708e+2, 2.8471282e+2, -117291.87, -308323.2, -30140.389, -0.038361806, 0.13669254, -112649.234, 37177.37, 0.0, 10.000959, 9.998428 
9.5518744e+2, 2.9471168e+2, -38489.727, -219936.73, -29289.113, 0.005400286, 0.180507, -33879.047, 17960.596, 0.0, 10.000829, 9.998425 
9.5520395e+2, 3.0470967e+2, 46230.16, -109141.55, 441.61667, 0.005770753, 0.119107224, 46231.414, 46231.414, 0.0, 10.000883, 9.998825 
9.552205e+2, 3.14709e+2, 99845.33, -58060.406, -783.8764, -0.024160406, 0.17017636, 99849.22, 99849.22, 0.000000027453995, 10.001143, 9.99905 
9.649197e+2, 1.2470489e+2, -1638720.3, -1699722.6, -57386.418, -0.04640254, 0.10599509, -1604232.9, 113668.234, 0.00003990401, 10.000622, 9.999803 
9.6493685e+2, 1.3470422e+2, -1551531.1, -1588390.4, 29788.715, -0.0132419765, 0.040937636, -1534931.9, 84973.65, 0.000008636752, 10.000461, 9.999975 
9.649531e+2, 1.4470416e+2, -1466293.9, -1511359.4, -21054.004, -0.0015746244, 0.046658356, -1457988.4, 63916.95, 0.00000019058375, 10.000441, 9.999837 
9.649686e+2, 1.5470429e+2, -1347309.1, -1402026.8, -25706.666, -0.0148779135, 0.074289836, -1337126.8, 86777.53, 0.0, 10.000579, 9.999847 
9.649842e+2, 1.6470408e+2, -1248430.3, -1312574.5, -35945.625, -0.0075825183, 0.07516705, -1232328.8, 93577.63, 0.0, 10.000624, 9.999768 
9.65e+2, 1.7470358e+2, -1158557.3, -1217693.5, -39473.215, 0.021317909, 0.04720077, -1138806.0, 89105.15, 0.0, 10.000565, 9.999775 
9.650155e+2, 1.8470334e+2, -1060560.1, -1123570.4, -49997.66, 0.03166522, 0.048812494, -1032969.25, 96944.43, 0.0, 10.000579, 9.999742 
9.650305e+2, 1.9470339e+2, -948008.2, -1017576.94, -47726.145, 0.022015177, 0.07819452, -923735.5, 108178.38, 0.0, 10.000675, 9.99975 
9.6504575e+2, 2.0470311e+2, -862536.56, -950157.94, -45490.88, 0.018736305, 0.088280424, -843190.3, 90726.37, 0.0, 10.000694, 9.999533 
9.650611e+2, 2.147025e+2, -774285.3, -856432.56, -55276.48, 0.02255767, 0.07290244, -746492.9, 89429.484, 0.0, 10.000626, 9.999536 
9.650768e+2, 2.2470176e+2, -705263.2, -822961.3, -40206.723, 0.023981925, 0.07069611, -692839.56, 45090.277, 0.0, 10.000644, 9.999084 
9.6509266e+2, 2.3470095e+2, -590895.7, -717400.8, -36502.043, 0.0226441, 0.07935837, -581118.9, 58820.49, 0.0, 10.000758, 9.999081 
9.6510845e+2, 2.4470006e+2, -483078.22, -611713.7, -34708.098, 0.018632127, 0.08421498, -474310.9, 67637.58, 0.0, 10.0008135, 9.999106 
9.651243e+2, 2.5469914e+2, -386068.47, -513080.94, -37616.965, 0.011574373, 0.080231644, -375763.63, 68193.65, 0.0, 10.000802, 9.999117 
9.651401e+2, 2.6469815e+2, -317700.44, -470104.84, -37922.77, -0.004671566, 0.090556055, -308785.6, 37181.836, 0.0, 10.000773, 9.998753 
9.651557e+2, 2.7469715e+2, -227437.67, -376002.3, -35425.184, -0.030910244, 0.11413134, -219422.92, 28556.117, 0.0, 10.000722, 9.998751 
9.6517175e+2, 2.84696e+2, -147254.84, -316248.16, -23203.969, -0.03121453, 0.14180124, -144126.69, 5865.051, 0.0, 10.000727, 9.998486 
9.6518815e+2, 2.9469475e+2, -38574.92, -213034.16, -20698.463, -0.0034487473, 0.16787271, -36152.81, 15853.039, 0.0, 10.0008, 9.998486 
9.6520466e+2, 3.0469307e+2, 27928.035, -99199.86, 10705.604, -0.004103286, 0.12577495, 28823.264, 28823.264, 0.0, 10.000678, 9.998992 
9.652212e+2, 3.146929e+2, -9811.123, -96943.07, 12655.776, -0.02113461, 0.20996632, -8010.1187, -8010.1187, 0.00000000015790982, 10.00033, 9.999175 
9.7492003e+2, 1.246887e+2, -1640184.9, -1702031.6, -61778.234, -0.07041326, 0.08560886, -1602022.8, 116037.3, 0.000057479218, 10.000618, 9.999788 
9.749377e+2, 1.3468865e+2, -1554624.6, -1595434.0, 24025.305, 0.023634324, 0.087229826, -1543508.5, 76550.52, 0.000014404859, 10.000463, 9.999927 
9.74954e+2, 1.4468841e+2, -1477136.4, -1534783.1, -16025.088, 0.043273054, 0.087018415, -1472981.1, 49078.887, 0.0000005546723, 10.000443, 9.999676 
9.749691e+2, 1.5468754e+2, -1358647.4, -1425708.0, -20431.818, -0.021671847, 0.029980857, -1352912.6, 71154.87, 0.0, 10.000579, 9.999686 
9.749846e+2, 1.646871e+2, -1255009.5, -1326569.4, -38102.293, -0.03280354, 0.019117517, -1238521.0, 87550.76, 0.0, 10.000625, 9.999672 
9.750005e+2, 1.7468719e+2, -1165048.1, -1231572.1, -41897.65, 0.017093996, 0.061692584, -1144814.5, 83257.336, 0.0, 10.000566, 9.99968 
9.7501606e+2, 1.8468712e+2, -1055595.6, -1113694.3, -47089.313, 0.03445241, 0.08027469, -1029316.25, 100756.89, 0.0, 10.00058, 9.999809 
9.7503114e+2, 1.946868e+2, -942512.9, -1006749.2, -44670.625, 0.014986411, 0.06610372, -919612.5, 112463.31, 0.0, 10.000677, 9.999825 
9.750464e+2, 2.0468636e+2, -879477.3, -985954.75, -48692.77, 0.009366294, 0.06693824, -860567.94, 73512.445, 0.0, 10.000696, 9.999286 
9.750618e+2, 2.1468577e+2, -791815.6, -893596.94, -58345.805, 0.01963248, 0.0806171, -765284.75, 70802.3, 0.0, 10.0006275, 9.99928 
9.7507745e+2, 2.2468506e+2, -699509.7, -811695.44, -36587.113, 0.029996747, 0.08884157, -688632.2, 49462.707, 0.0, 10.000647, 9.999161 
9.7509354e+2, 2.346842e+2, -584843.9, -704906.44, -32400.229, 0.040691856, 0.08739588, -576658.4, 63445.59, 0.0, 10.000758, 9.999167 
9.7510934e+2, 2.4468334e+2, -488173.34, -622151.94, -35132.96, 0.022575604, 0.09282233, -479519.47, 62593.324, 0.0, 10.000812, 9.999036 
9.751247e+2, 2.5468245e+2, -391506.06, -524133.78, -37725.69, -0.028148068, 0.10110305, -381526.03, 62595.4, 0.0, 10.0008, 9.9990425 
9.751405e+2, 2.6468146e+2, -313149.5, -459992.47, -39339.81, -0.039134137, 0.10828842, -303274.3, 42857.598, 0.0, 10.000771, 9.998824 
9.7515666e+2, 2.746803e+2, -222419.55, -365102.53, -36778.156, -0.0055830413, 0.11145609, -213497.47, 34646.816, 0.0, 10.000719, 9.998827 
9.7517276e+2, 2.8467923e+2, -142129.81, -304723.8, -20287.502, -0.00499467, 0.13346645, -139636.69, 10519.896, 0.0, 10.000722, 9.998568 
9.7518855e+2, 2.9467815e+2, -34102.86, -201430.86, -17400.67, -0.04062899, 0.17014752, -32312.496, 19856.482, 0.0, 10.000789, 9.998571 
9.752049e+2, 3.0467674e+2, 39939.285, -70943.37, -1290.0441, -0.043271825, 0.14130811, 39954.29, 39954.29, 0.0, 10.000663, 9.999194 
9.752218e+2, 3.1467664e+2, 13.470419, -73637.664, 1013.2916, 0.00088494364, 0.2130266, 27.408638, 27.408638, 0.0, 10.000317, 9.999341 
9.8492086e+2, 1.2467276e+2, -1648188.0, -1724070.1, -47704.33, -0.048411924, 0.08126606, -1625176.4, 93039.48, 0.00007951568, 10.000642, 9.999626 
9.849382e+2, 1.3467275e+2, -1493134.5, -1587027.4, 25637.393, 0.012016398, 0.104594395, -1486590.4, 133625.34, 0.000022398126, 10.0009775, 9.999736 
9.849546e+2, 1.4467238e+2, -1400582.6, -1506510.4, -23274.238, 0.028166039, 0.10453498, -1395694.5, 126523.65, 0.0000013019285, 10.001007, 9.999598 
9.8496985e+2, 1.546712e+2, -1347405.9, -1428120.1, -21307.566, -0.008486772, 0.02583847, -1342126.3, 82101.164, 0.0, 10.00069, 9.999615 
9.8498535e+2, 1.6467062e+2, -1266142.9, -1342341.3, -30325.78, -0.015977008, 0.009153649, -1255547.1, 70685.76, 0.0, 10.000593, 9.999578 
9.85001e+2, 1.7467074e+2, -1146437.6, -1232846.8, -34095.977, 0.009343013, 0.06264125, -1134604.3, 93629.02, 0.0, 10.000737, 9.999587 
9.850165e+2, 1.8467061e+2, -1034800.06, -1110014.6, -45533.19, 0.021872144, 0.084890485, -1013351.6, 116883.48, 0.0, 10.000751, 9.999752 
9.850318e+2, 1.9467022e+2, -954867.25, -1018860.9, -53028.99, 0.0194766, 0.06710134, -924929.7, 107308.71, 0.0, 10.000619, 9.999768 
9.850471e+2, 2.046697e+2, -891318.4, -1000713.9, -52413.0, 0.017416183, 0.067371644, -870260.1, 63983.57, 0.0, 10.000654, 9.999205 
9.850624e+2, 2.1466903e+2, -761210.7, -887824.25, -49387.53, 0.015773576, 0.0832856, -744225.0, 92026.3, 0.0, 10.000877, 9.999199 
9.850782e+2, 2.246683e+2, -666465.4, -802775.8, -30514.684, 0.022408102, 0.09407696, -659946.1, 78313.734, 0.0, 10.000904, 9.999097 
9.8509425e+2, 2.346674e+2, -597017.3, -717920.06, -37996.75, 0.038880225, 0.09584567, -586067.56, 54201.85, 0.0, 10.000706, 9.999103 
9.8511e+2, 2.4466656e+2, -520719.34, -633273.2, -42391.76, 0.023142023, 0.10492969, -506539.5, 35738.52, 0.0, 10.000569, 9.999076 
9.8512536e+2, 2.5466576e+2, -431848.47, -538394.75, -37001.07, -0.029479068, 0.117196724, -420259.38, 24026.19, 0.0, 10.000502, 9.999087 
9.851411e+2, 2.6466474e+2, -354479.34, -477769.53, -35127.344, -0.037987784, 0.117329456, -345173.4, 1122.7467, 0.0, 10.000479, 9.998841 
9.851574e+2, 2.746634e+2, -251944.81, -377268.66, -37382.992, 0.002953536, 0.100958675, -241640.95, 6669.084, 0.0, 10.000509, 9.998843 
9.8517334e+2, 2.8466237e+2, -173496.23, -311018.3, -24143.008, -0.0019284193, 0.12294363, -169380.9, -19059.102, 0.0, 10.00047, 9.998645 
9.8518896e+2, 2.9466158e+2, -93461.74, -220918.34, -21859.848, -0.057035424, 0.18189308, -89816.836, -37485.543, 0.0, 10.000343, 9.9986515 
9.852051e+2, 3.0466032e+2, -10214.855, -73249.95, -13127.372, -0.059327606, 0.15373372, -7590.2935, -7590.2935, 0.0, 10.000225, 9.999388 
9.8522204e+2, 3.1465992e+2, -16767.389, -62669.563, -11968.663, 0.005195608, 0.17552395, -13834.093, -13834.093, 0.0, 10.00012, 9.999511 
9.949221e+2, 1.2465717e+2, -1670591.9, -1770887.0, -34047.06, 0.013064749, 0.09520235, -1660126.1, 58241.734, 0.00010622788, 10.000642, 9.999305 
9.949386e+2, 1.3465653e+2, -1516961.0, -1636743.0, 38607.234, -0.04833202, 0.092295066, -1505595.8, 114779.36, 0.00003292342, 10.0009775, 9.999394 
9.9495476e+2, 1.4465605e+2, -1400077.4, -1506064.5, -34437.555, -0.04803948, 0.09791361, -1389870.8, 132508.56, 0.0000026281716, 10.001009, 9.999599 
9.9497086e+2, 1.5465534e+2, -1346089.0, -1425813.6, -33287.473, 0.023331963, 0.06226627, -1334018.1, 90365.54, 0.00000000019976186, 10.000692, 9.99963 
9.9498653e+2, 1.6465472e+2, -1272406.6, -1355905.4, -25693.07, 0.04226211, 0.04597034, -1265134.1, 61254.77, 0.0, 10.000594, 9.999486 
9.950017e+2, 1.7465425e+2, -1152483.1, -1246171.4, -28997.4, -0.002158351, 0.050371777, -1144234.4, 84160.484, 0.0, 10.00074, 9.9994955 
9.9501705e+2, 1.846539e+2, -1047144.94, -1136482.1, -50846.93, -0.0068959245, 0.06299257, -1024132.7, 106266.36, 0.0, 10.000753, 9.99957 
9.950326e+2, 1.9465366e+2, -967498.8, -1045722.3, -58614.496, 0.034950953, 0.08038545, -936145.06, 96256.27, 0.0, 10.000621, 9.999583 
9.9504805e+2, 2.0465316e+2, -885706.5, -989527.8, -45186.426, 0.042488746, 0.08859129, -868794.7, 65611.72, 0.0, 10.000655, 9.999281 
9.950633e+2, 2.1465237e+2, -755142.44, -875379.0, -41623.297, 0.010592839, 0.081489205, -742139.56, 94275.164, 0.0, 10.000877, 9.999285 
9.9507886e+2, 2.246515e+2, -680522.7, -832169.1, -38055.637, 0.0010466713, 0.087523244, -671508.5, 66915.87, 0.0, 10.000905, 9.998896 
9.950947e+2, 2.3465057e+2, -611457.2, -748461.0, -45475.977, 0.017460156, 0.1042219, -597736.4, 42699.145, 0.0, 10.000708, 9.998892 
9.951105e+2, 2.4464975e+2, -510634.3, -612803.5, -44801.84, 0.019659532, 0.119629346, -493771.56, 48672.465, 0.0, 10.000571, 9.999216 
9.951262e+2, 2.5464907e+2, -420739.84, -515918.22, -39019.773, 0.0050239433, 0.12892441, -406788.2, 37661.277, 0.0, 10.000504, 9.999241 
9.951419e+2, 2.64648e+2, -357091.28, -483752.13, -33765.55, -0.0036530676, 0.11885683, -348652.25, -2192.2544, 0.0, 10.000481, 9.9988 
9.951578e+2, 2.7464643e+2, -255642.52, -384296.72, -35630.21, -0.005187023, 0.083112374, -246434.0, 2042.2379, 0.0, 10.000505, 9.998797 
9.951736e+2, 2.8464544e+2, -169611.63, -301258.9, -27706.686, -0.021897864, 0.109635964, -164018.1, -13530.662, 0.0, 10.000462, 9.998716 
9.9518925e+2, 2.9464507e+2, -88876.9, -210280.16, -25183.43, -0.055689342, 0.2023735, -83860.24, -31367.414, 0.0, 10.000338, 9.998728 
9.9520546e+2, 3.0464384e+2, 1476.0238, -47785.895, -16135.751, -0.055538733, 0.1641853, 6290.719, 6290.719, 0.0, 10.000218, 9.999566 
9.95222e+2, 3.1464273e+2, -7324.202, -40180.09, -14522.43, -0.009391114, 0.09647362, -1825.4886, -1825.4886, 0.0, 10.000107, 9.999673 
1.0049231e+3, 1.2464112e+2, -1590406.8, -1741114.8, -56355.465, 0.026573148, 0.09358229, -1571664.3, 146860.89, 0.00013782152, 10.001229, 9.999227 
1.00493945e+3, 1.3464046e+2, -1546080.6, -1660325.3, 35726.387, -0.050407816, 0.09474548, -1535828.4, 84704.984, 0.000046236724, 10.000818, 9.9993105 
1.0049556e+3, 1.4463994e+2, -1442028.6, -1533629.4, -27838.2, -0.05458331, 0.10410236, -1434232.0, 88306.08, 0.00000474816, 10.0007515, 9.999535 
1.0049717e+3, 1.5463915e+2, -1296168.3, -1408868.5, -32949.99, 0.02269013, 0.070029214, -1287241.8, 137300.92, 0.000000004412824, 10.001064, 9.999568 
1.00498736e+3, 1.6463846e+2, -1209312.5, -1339026.1, -31919.043, 0.045375533, 0.054219708, -1201883.5, 124665.18, 0.0, 10.001085, 9.999364 
1.0050024e+3, 1.7463788e+2, -1155023.4, -1260950.5, -37660.574, 0.0006567208, 0.05878051, -1142998.9, 85557.15, 0.0, 10.000781, 9.999374 
1.0050177e+3, 1.8463741e+2, -1060028.9, -1149538.3, -52577.332, -0.007349723, 0.06993693, -1035737.44, 94823.79, 0.0, 10.000695, 9.999508 
1.00503325e+3, 1.9463708e+2, -936887.4, -1037420.56, -50888.887, 0.028530529, 0.08313169, -915624.9, 116939.35, 0.0, 10.000859, 9.999526 
1.00504875e+3, 2.0463648e+2, -852970.0, -978764.06, -35010.28, 0.039490454, 0.088773094, -843882.6, 90687.36, 0.0, 10.000903, 9.999235 
1.0050642e+3, 2.1463567e+2, -767979.56, -886793.06, -41534.414, 0.021706657, 0.0820653, -754900.0, 81678.8, 0.0, 10.000813, 9.999237 
1.00507975e+3, 2.2463483e+2, -702545.6, -838623.0, -41732.074, 0.011178116, 0.09103415, -690766.8, 47821.4, 0.0, 10.000736, 9.998932 
1.0050953e+3, 2.3463397e+2, -613150.8, -744414.44, -31566.795, 0.0088008, 0.11278469, -605954.06, 34644.313, 0.0, 10.000676, 9.998934 
1.00511104e+3, 2.4463314e+2, -508949.94, -613769.7, -25878.363, 0.0102307005, 0.124527484, -502909.13, 39697.863, 0.0, 10.000591, 9.999199 
1.00512676e+3, 2.546323e+2, -425859.13, -520314.53, -33088.195, 0.0157014, 0.120530844, -415421.53, 29192.21, 0.0, 10.000479, 9.999222 
1.0051425e+3, 2.646312e+2, -370428.88, -488386.0, -30419.8, 0.010259255, 0.10974813, -363046.06, -16421.738, 0.0, 10.000382, 9.998815 
1.0051581e+3, 2.746298e+2, -284471.72, -396272.56, -28033.393, -0.0071354397, 0.08727159, -277836.34, -29197.219, 0.0, 10.000299, 9.998814 
1.0051739e+3, 2.846288e+2, -201452.73, -304212.88, -20179.672, -0.025497613, 0.10971783, -197631.98, -46982.207, 0.0, 10.000191, 9.998825 
1.0051896e+3, 2.9462835e+2, -121707.85, -212920.69, -16136.854, -0.04507742, 0.17953661, -118937.18, -66281.63, 0.0, 10.000057, 9.998843 
1.00520566e+3, 3.0462718e+2, -39498.938, -70612.7, -11760.083, -0.043307163, 0.1430382, -35554.125, -35554.125, 0.0, 9.999951, 9.999537 
1.0052219e+3, 3.1462613e+2, -45549.996, -64040.07, -24992.934, -0.011148331, 0.082088284, -28147.004, -28147.004, 0.0, 9.999869, 9.999622 
1.014924e+3, 1.2462464e+2, -1578123.6, -1715427.1, -72483.65, -0.01736501, 0.07403918, -1546940.9, 171746.8, 0.00017450533, 10.001229, 9.999404 
1.0149408e+3, 1.3462453e+2, -1533683.5, -1634041.4, 20064.246, 0.004745506, 0.11251419, -1529820.8, 90869.06, 0.000062540406, 10.000816, 9.999492 
1.014957e+3, 1.4462405e+2, -1451433.9, -1553161.5, -16769.783, 0.008414826, 0.12394252, -1448740.6, 73953.086, 0.000007860604, 10.000751, 9.999402 
1.0149724e+3, 1.5462273e+2, -1305775.6, -1429363.0, -21233.064, -0.0105529865, 0.049011935, -1302229.5, 122474.445, 0.000000028517778, 10.001066, 9.999427 
1.0149879e+3, 1.6462189e+2, -1219559.1, -1361161.6, -43202.74, -0.007715327, 0.033544138, -1207418.9, 119292.86, 0.0, 10.001088, 9.999211 
1.0150033e+3, 1.7462164e+2, -1165494.4, -1283158.0, -49540.582, 0.017166412, 0.08730995, -1147414.3, 81302.055, 0.0, 10.000782, 9.999221 
1.0150187e+3, 1.8462119e+2, -1055915.6, -1141479.6, -47665.32, 0.020398192, 0.10543107, -1034648.56, 96072.695, 0.0, 10.000696, 9.999563 
1.0150338e+3, 1.9462049e+2, -931974.94, -1027694.06, -45293.01, -0.00013934512, 0.076099664, -913940.7, 118785.99, 0.0, 10.00086, 9.999592 
1.0150493e+3, 2.0461974e+2, -864700.4, -1003646.25, -38930.117, 0.0076456554, 0.069086395, -854536.4, 80197.555, 0.0, 10.000904, 9.9990635 
1.0150653e+3, 2.1461894e+2, -780508.9, -913160.4, -45502.668, 0.048149988, 0.08432608, -766400.8, 70342.39, 0.0, 10.0008135, 9.999056 
1.0150809e+3, 2.2461824e+2, -684016.1, -800356.7, -44616.723, 0.051673334, 0.10348351, -668875.9, 69875.37, 0.0, 10.000736, 9.999195 
1.015096e+3, 2.3461765e+2, -593322.94, -703567.94, -34051.473, 0.012227601, 0.121860415, -583653.5, 57104.33, 0.0, 10.000676, 9.999215 
1.0151114e+3, 2.4461675e+2, -520879.75, -638805.5, -30195.178, -0.005312525, 0.12098344, -513597.84, 29168.85, 0.0, 10.000592, 9.999027 
1.0151271e+3, 2.546155e+2, -439313.2, -547874.4, -37031.805, 0.0030569867, 0.093472056, -427884.3, 16893.875, 0.0, 10.000476, 9.999034 
1.0151428e+3, 2.646144e+2, -366403.13, -479332.47, -32779.473, 0.00403362, 0.090276256, -357578.03, -10789.082, 0.0, 10.000378, 9.998879 
1.01515844e+3, 2.746135e+2, -279174.0, -385285.44, -29951.656, -0.004478743, 0.11139082, -271303.44, -22504.658, 0.0, 10.0002985, 9.99889 
1.0151742e+3, 2.846125e+2, -192262.5, -285243.5, -24403.639, -0.015358127, 0.12255839, -186246.78, -35437.85, 0.0, 10.00019, 9.998957 
1.0151898e+3, 2.9461145e+2, -113181.75, -193775.17, -20365.313, -0.027041916, 0.11763952, -108327.92, -55508.633, 0.0, 10.00005, 9.998979 
1.01520576e+3, 3.0461034e+2, -56216.13, -102441.44, -13463.572, -0.024176892, 0.09323246, -52580.652, -52580.652, 0.0, 9.999939, 9.999326 
1.01522185e+3, 3.1460994e+2, -64121.79, -99711.66, -25283.717, -0.0047287857, 0.121770404, -50998.67, -50998.67, 0.0, 9.999856, 9.999383 
1.024925e+3, 1.2460856e+2, -1587674.4, -1717876.9, -68162.766, -0.041290354, 0.08319148, -1558518.9, 160327.97, 0.0002164286, 10.001155, 9.999422 
1.024942e+3, 1.346085e+2, -1467133.1, -1600817.8, 11960.979, 0.019446636, 0.12744972, -1466071.4, 154776.42, 0.00008198819, 10.001268, 9.999501 
1.0249583e+3, 1.44608e+2, -1383379.1, -1531199.9, -21149.61, 0.03302697, 0.13913758, -1380412.6, 142439.22, 0.000012107449, 10.001265, 9.999305 
1.02497354e+3, 1.5460648e+2, -1304267.9, -1439809.8, -22650.553, -0.012709555, 0.0539608, -1300582.9, 124281.32, 0.00000009714164, 10.001124, 9.999327 
1.0249889e+3, 1.6460553e+2, -1228403.0, -1369450.8, -47514.574, -0.01807407, 0.036188208, -1213890.1, 112982.81, 0.0, 10.001045, 9.999175 
1.02500424e+3, 1.7460531e+2, -1131940.9, -1271025.1, -45392.61, 0.021291, 0.09662185, -1118437.3, 110439.57, 0.0, 10.001029, 9.999186 
1.02501966e+3, 1.8460481e+2, -1019207.3, -1135038.6, -36098.074, 0.030887114, 0.11583247, -1008878.56, 122003.59, 0.0, 10.000998, 9.999462 
1.0250348e+3, 1.9460396e+2, -924419.06, -1035324.4, -46370.953, 0.0062174075, 0.08159513, -907585.75, 125303.38, 0.0, 10.000961, 9.999491 
1.0250502e+3, 2.0460314e+2, -864011.6, -1000810.25, -45311.473, 0.009303756, 0.07080196, -850364.6, 84532.45, 0.0, 10.000899, 9.999085 
1.025066e+3, 2.1460234e+2, -779843.8, -909738.2, -36641.695, 0.044086844, 0.0827546, -770220.56, 66685.664, 0.0, 10.000805, 9.999083 
1.0250816e+3, 2.2460167e+2, -686805.9, -793605.44, -35154.7, 0.05013834, 0.1012957, -676272.94, 62640.594, 0.0, 10.000684, 9.999265 
1.0250967e+3, 2.3460118e+2, -609325.44, -703074.44, -40523.918, 0.023079395, 0.12340635, -594237.0, 46681.79, 0.0, 10.000533, 9.999287 
1.025112e+3, 2.4460031e+2, -552233.75, -657013.5, -40698.7, 0.003660952, 0.122899264, -538283.0, 4644.443, 0.0, 10.000391, 9.998998 
1.0251273e+3, 2.5459898e+2, -473800.66, -568001.5, -36744.414, -0.0066965516, 0.09108942, -461163.3, -16223.383, 0.0, 10.000255, 9.9990015 
1.025143e+3, 2.645979e+2, -393668.22, -480605.72, -23750.998, -0.010238563, 0.0855832, -387602.72, -40652.113, 0.0, 10.000141, 9.998983 
1.02515854e+3, 2.745971e+2, -306841.34, -385654.34, -18920.395, -0.0068353047, 0.10655382, -302534.53, -53575.496, 0.0, 10.000055, 9.999003 
1.0251743e+3, 2.8459623e+2, -218057.5, -289171.22, -15035.99, -0.0072652753, 0.11593175, -215009.03, -64040.883, 0.0, 9.999978, 9.999031 
1.0251899e+3, 2.9459518e+2, -128797.08, -193288.84, -15393.973, -0.0098238345, 0.107321195, -125311.02, -72333.03, 0.0, 9.999908, 9.99905 
1.0252057e+3, 3.0459425e+2, -84816.99, -111853.11, -5689.015, -0.010394964, 0.09419057, -83668.664, -83668.664, 0.0, 9.999723, 9.999364 
1.0252214e+3, 3.14594e+2, -128221.36, -127767.41, 95.17953, -0.01103847, 0.13344164, -127748.26, -127748.26, 0.0, 9.999403, 9.999409 
1.0349259e+3, 1.2459296e+2, -1599487.0, -1740792.4, -65299.402, -0.05305792, 0.12351836, -1573932.5, 145069.33, 0.0002637313, 10.001148, 9.999268 
1.034943e+3, 1.3459246e+2, -1478658.1, -1624793.0, 16322.092, -0.0069593256, 0.13925213, -1476857.4, 144149.48, 0.00010469639, 10.001268, 9.999336 
1.0349593e+3, 1.4459181e+2, -1387390.9, -1540211.9, -26571.666, 0.018455215, 0.14907335, -1382902.6, 140109.5, 0.000017566988, 10.0012665, 9.999243 
1.0349748e+3, 1.5459044e+2, -1308259.3, -1448372.4, -28129.771, 0.01568262, 0.08525289, -1302822.8, 122200.43, 0.00000023822265, 10.001125, 9.999269 
1.03499025e+3, 1.6458946e+2, -1222898.0, -1358315.6, -48556.086, 0.014030784, 0.06261504, -1207287.1, 119744.66, 0.0, 10.001045, 9.999251 
1.0350052e+3, 1.7458898e+2, -1125879.0, -1258751.3, -46354.043, 0.012265189, 0.087115556, -1111306.1, 117730.945, 0.0, 10.00103, 9.9992695 
1.0350205e+3, 1.8458833e+2, -1037407.2, -1173318.5, -38324.934, 0.022428745, 0.10154208, -1027345.06, 103698.38, 0.0, 10.0009985, 9.999199 
1.03503615e+3, 1.9458753e+2, -943628.9, -1075540.5, -48311.664, 0.046997312, 0.099130526, -927827.8, 105223.37, 0.0, 10.000962, 9.999214 
1.0350515e+3, 2.045867e+2, -849166.8, -970167.0, -49549.754, 0.04448266, 0.09318467, -831465.6, 103593.47, 0.0, 10.000899, 9.999295 
1.03506655e+3, 2.1458586e+2, -763422.6, -876004.44, -40771.84, 0.010011837, 0.07783213, -750208.06, 86859.28, 0.0, 10.000806, 9.999314 
1.0350818e+3, 2.2458516e+2, -694918.3, -811048.1, -41288.695, 0.0067616813, 0.08576633, -681735.1, 57339.582, 0.0, 10.000686, 9.999145 
1.0350974e+3, 2.3458463e+2, -618667.2, -722899.25, -46344.203, 0.04033392, 0.11761179, -601041.8, 40039.105, 0.0, 10.000534, 9.99915 
1.0351127e+3, 2.4458385e+2, -544845.5, -641867.06, -45657.324, 0.035615068, 0.12921523, -526738.8, 16350.116, 0.0, 10.000391, 9.999103 
1.0351276e+3, 2.545828e+2, -465449.7, -551156.44, -41324.863, -0.014393797, 0.11161166, -448770.25, -3671.2854, 0.0, 10.000256, 9.999117 
1.03514284e+3, 2.6458174e+2, -384337.94, -461127.38, -26670.525, -0.03306889, 0.09530847, -375983.63, -28874.426, 0.0, 10.000139, 9.999118 
1.03515856e+3, 2.745807e+2, -298228.66, -366144.66, -21639.291, -0.014408893, 0.07622102, -291920.0, -42800.465, 0.0, 10.000047, 9.999142 
1.0351743e+3, 2.8457993e+2, -217720.48, -286067.66, -16728.215, -0.001514182, 0.09204037, -213845.84, -62718.56, 0.0, 9.999967, 9.999059 
1.0351899e+3, 2.945795e+2, -128181.42, -190281.44, -16379.104, 0.0048940815, 0.143734, -124126.19, -70994.25, 0.0, 9.9999, 9.999075 
1.0352054e+3, 3.045788e+2, -68065.484, -75953.01, -16199.577, -0.0037077486, 0.14114489, -55336.527, -55336.527, 0.0, 9.999718, 9.999614 
1.03522055e+3, 3.145782e+2, -111246.625, -91689.516, -10653.474, -0.030671094, 0.11912428, -87007.2, -87007.2, 0.0, 9.999398, 9.99966 
1.04492724e+3, 1.2457727e+2, -1559440.5, -1732300.5, -47579.004, -0.045488417, 0.14314458, -1547209.9, 171946.36, 0.00031664252, 10.001468, 9.999172 
1.0449443e+3, 1.3457653e+2, -1420022.6, -1608069.0, 40085.625, -0.018634586, 0.14467907, -1411834.3, 209329.28, 0.00013079311, 10.00172, 9.999233 
1.0449607e+3, 1.4457579e+2, -1332519.3, -1526083.3, -17624.205, 0.0066080573, 0.15559255, -1330927.6, 192242.19, 0.000024312307, 10.001697, 9.999132 
1.0449762e+3, 1.5457441e+2, -1287022.4, -1450600.8, -24407.836, 0.019480173, 0.100798815, -1283458.0, 141723.56, 0.0000004785213, 10.001324, 9.999157 
1.0449915e+3, 1.6457339e+2, -1203372.1, -1346044.0, -37424.113, 0.025036229, 0.079222456, -1194151.4, 133039.0, 0.0, 10.001167, 9.999277 
1.04500644e+3, 1.7457284e+2, -1086623.3, -1235727.8, -38869.918, 0.019458115, 0.09577996, -1077098.6, 152096.39, 0.0, 10.001283, 9.999306 
1.04502164e+3, 1.8457207e+2, -1015520.9, -1179319.4, -35782.836, 0.02671858, 0.100923054, -1008045.06, 123157.484, 0.0, 10.001222, 9.999049 
1.0450371e+3, 1.9457099e+2, -956046.5, -1099264.1, -37187.523, 0.049508467, 0.08725895, -946966.25, 86247.19, 0.0, 10.000955, 9.999055 
1.04505226e+3, 2.0457013e+2, -856997.9, -965490.25, -34653.242, 0.043720137, 0.08283126, -846874.06, 88347.62, 0.0, 10.00081, 9.99937 
1.0450672e+3, 2.1456955e+2, -755611.44, -862489.44, -37114.91, 0.004365085, 0.08507593, -743987.06, 93239.766, 0.0, 10.000819, 9.999399 
1.04508236e+3, 2.2456887e+2, -692339.25, -814307.25, -45909.69, -0.00062141754, 0.09399228, -676990.06, 62243.613, 0.0, 10.000723, 9.9991045 
1.0450979e+3, 2.3456812e+2, -626651.94, -731962.94, -44958.5, 0.034503236, 0.10658698, -610069.7, 31172.883, 0.0, 10.000502, 9.999104 
1.04511306e+3, 2.4456732e+2, -555433.9, -638395.75, -41498.715, 0.03551118, 0.1154028, -538239.3, 5011.5815, 0.0, 10.000282, 9.999178 
1.0451278e+3, 2.5456652e+2, -487278.5, -552380.8, -40278.33, -0.0039533353, 0.11499589, -468042.38, -22783.79, 0.0, 10.000067, 9.999199 
1.0451429e+3, 2.6456562e+2, -415806.38, -465228.2, -26851.846, -0.02131937, 0.105170794, -404025.5, -56758.184, 0.0, 9.999876, 9.999216 
1.0451584e+3, 2.7456456e+2, -340145.78, -375485.4, -24755.13, -0.011809759, 0.07953215, -327401.13, -78124.016, 0.0, 9.999711, 9.999239 
1.0451741e+3, 2.845639e+2, -272958.84, -299453.4, -18356.854, -0.0030219709, 0.09113042, -263568.44, -112284.234, 0.0, 9.99953, 9.999176 
1.0451896e+3, 2.945636e+2, -201415.97, -211551.88, -11970.735, 0.004633322, 0.14150105, -193484.58, -140196.64, 0.0, 9.999338, 9.999198 
1.0452049e+3, 3.0456305e+2, -127464.48, -90957.55, -12838.273, -0.0014695023, 0.14250839, -86894.87, -86894.87, 0.0, 9.999252, 9.999734 
1.04522e+3, 3.1456262e+2, -119282.83, -83377.6, -16816.941, -0.024187582, 0.12499396, -76731.32, -76731.32, 0.0, 9.999291, 9.999767 
1.054929e+3, 1.24561556e+2, -1561346.5, -1736631.3, -39511.83, -0.02474461, 0.13944435, -1552851.6, 166458.02, 0.0003754383, 10.001469, 9.999143 
1.054946e+3, 1.3456081e+2, -1422272.9, -1613376.1, 49735.758, -0.01618336, 0.1437987, -1410103.8, 211213.36, 0.00016041061, 10.001722, 9.999197 
1.0549623e+3, 1.4456e+2, -1343875.8, -1549977.5, -30480.59, -0.0038115932, 0.15888304, -1339462.5, 183862.08, 0.000032450233, 10.001698, 9.998968 
1.0549773e+3, 1.545584e+2, -1298925.8, -1475159.4, -38770.195, -0.002234319, 0.100216694, -1290773.8, 134565.45, 0.0000008393984, 10.001323, 9.998989 
1.05499245e+3, 1.6455735e+2, -1205349.5, -1350284.8, -34414.805, 0.013641377, 0.0858276, -1197592.9, 129755.4, 0.0, 10.001167, 9.9992485 
1.05500795e+3, 1.74557e+2, -1087772.1, -1238592.6, -34803.92, 0.042665306, 0.12279528, -1080128.1, 149222.22, 0.0, 10.001285, 9.999286 
1.0550231e+3, 1.8455607e+2, -1017967.9, -1184869.6, -45976.36, 0.04397232, 0.114173375, -1006140.9, 125218.07, 0.0, 10.001224, 9.999011 
1.05503775e+3, 1.945544e+2, -958669.4, -1105119.3, -47828.047, 0.013645346, 0.04635172, -944433.4, 88941.98, 0.0, 10.000956, 9.999015 
1.0550527e+3, 2.0455347e+2, -861499.06, -975411.8, -35454.402, 0.0061239004, 0.0404093, -851365.6, 84018.74, 0.0, 10.000812, 9.999301 
1.0550682e+3, 2.1455343e+2, -760256.5, -872369.6, -37312.457, 0.02566045, 0.10379033, -748973.94, 88410.51, 0.0, 10.000819, 9.999332 
1.05508335e+3, 2.2455287e+2, -689770.9, -809072.9, -54397.8, 0.026890676, 0.124897674, -668691.7, 70698.69, 0.0, 10.000723, 9.999141 
1.055098e+3, 2.3455168e+2, -623412.8, -725629.2, -53362.535, 0.0064222957, 0.090647064, -600631.9, 40771.547, 0.0, 10.000503, 9.999147 
1.0551129e+3, 2.4455076e+2, -552249.25, -632228.94, -49454.645, 0.004033533, 0.0829212, -528639.2, 14773.852, 0.0, 10.000283, 9.999221 
1.05512805e+3, 2.545502e+2, -484227.88, -546198.94, -47880.234, 0.023105366, 0.10289518, -458181.66, -12763.191, 0.0, 10.000067, 9.999242 
1.0551432e+3, 2.6454955e+2, -411509.5, -456241.72, -32449.045, 0.022787193, 0.11525586, -394465.16, -47040.42, 0.0, 9.999875, 9.99928 
1.0551583e+3, 2.7454886e+2, -335715.16, -366122.56, -29883.402, -0.0009229674, 0.11328366, -317390.2, -67958.336, 0.0, 9.99971, 9.999305 
1.0551734e+3, 2.8454816e+2, -260280.42, -272430.94, -24952.357, -0.012931238, 0.11118549, -240674.39, -89235.44, 0.0, 9.999526, 9.999364 
1.0551887e+3, 2.945475e+2, -188501.0, -183457.2, -18551.75, -0.009466207, 0.10533412, -167256.73, -113811.12, 0.0, 9.999331, 9.999394 
1.0552042e+3, 3.0454704e+2, -127532.76, -89709.31, -10904.418, -0.0031782894, 0.10339232, -86790.79, -86790.79, 0.0, 9.999246, 9.999746 
1.0552196e+3, 3.1454724e+2, -119618.875, -83627.41, -13738.493, 0.0029756592, 0.15125385, -78982.63, -78982.63, 0.0, 9.999289, 9.999767 
1.0649308e+3, 1.24545634e+2, -1467066.4, -1704791.4, -47627.816, -0.019452881, 0.120389394, -1457879.3, 261585.36, 0.00044023, 10.002176, 9.99902 
1.0649478e+3, 1.3454485e+2, -1441327.1, -1637302.0, 36299.254, -0.019406114, 0.134191, -1434819.6, 186653.58, 0.0001936281, 10.001656, 9.999064 
1.0649637e+3, 1.445441e+2, -1377134.1, -1567594.4, -39669.87, -0.006869192, 0.16264535, -1369201.9, 154278.7, 0.00004209593, 10.001477, 9.998953 
1.0649788e+3, 1.5454254e+2, -1243845.0, -1449577.8, -36421.973, -0.0030645602, 0.10911574, -1237587.4, 187907.63, 0.0000013547506, 10.001707, 9.998979 
1.0649939e+3, 1.6454141e+2, -1139357.5, -1327270.3, -29567.365, 0.013145668, 0.091198094, -1134815.0, 192689.67, 0.0, 10.00166, 9.999167 
1.06500916e+3, 1.7454085e+2, -1093560.3, -1250889.3, -35012.117, 0.04072608, 0.11438985, -1086120.5, 143387.92, 0.0, 10.0012865, 9.9992 
1.06502414e+3, 1.8453982e+2, -1038183.9, -1199722.6, -48000.113, 0.040273607, 0.105020486, -1024997.4, 106520.24, 0.0, 10.001107, 9.998964 
1.0650387e+3, 1.9453827e+2, -930560.6, -1096230.8, -50422.977, 0.007307703, 0.052110925, -916420.9, 117112.56, 0.0, 10.00117, 9.998971 
1.0650536e+3, 2.0453732e+2, -825336.06, -955797.56, -37184.996, 0.0029789605, 0.045106083, -815481.7, 120060.83, 0.0, 10.001052, 9.99932 
1.0650691e+3, 2.145371e+2, -772713.7, -876040.5, -32381.922, 0.0323011, 0.08797209, -763404.1, 74139.56, 0.0, 10.000724, 9.999352 
1.0650841e+3, 2.2453654e+2, -725092.6, -823519.5, -47601.164, 0.033316683, 0.10754556, -705838.3, 33711.242, 0.0, 10.000469, 9.999164 
1.0650984e+3, 2.3453559e+2, -650599.75, -736009.7, -48853.406, 0.00078867667, 0.0951507, -628417.4, 13143.501, 0.0, 10.000304, 9.99917 
1.0651132e+3, 2.4453478e+2, -570246.1, -636979.9, -46276.125, -0.00082171825, 0.093965486, -546561.94, -2991.9382, 0.0, 10.000142, 9.999255 
1.06512815e+3, 2.5453413e+2, -494003.44, -546760.75, -45537.504, 0.03446363, 0.10121416, -467756.06, -22179.69, 0.0, 9.999981, 9.999279 
1.0651432e+3, 2.6453352e+2, -421592.75, -449388.0, -30579.043, 0.039369255, 0.11010262, -401901.34, -54319.105, 0.0, 9.999756, 9.999384 
1.06515795e+3, 2.74533e+2, -364963.63, -367682.66, -25311.916, 0.0072597917, 0.11628631, -340974.72, -91387.47, 0.0, 9.999456, 9.999415 
1.06517285e+3, 2.8453237e+2, -298511.9, -285168.2, -20526.52, -0.012662416, 0.11674326, -270256.47, -118663.22, 0.0, 9.99924, 9.9994135 
1.0651879e+3, 2.9453173e+2, -214961.97, -191156.55, -24661.328, -0.016246445, 0.10692689, -175675.77, -122075.74, 0.0, 9.999127, 9.99944 
1.06520325e+3, 3.0453125e+2, -148815.67, -86570.26, -13866.895, -0.007036044, 0.09438533, -83620.78, -83620.78, 0.0, 9.9990425, 9.999866 
1.06521875e+3, 3.1453156e+2, -153126.63, -85022.445, -9106.71, 0.013314979, 0.13789614, -83825.75, -83825.75, 0.0, 9.998997, 9.999897 
1.0749329e+3, 1.2452959e+2, -1482921.8, -1737576.4, -69982.13, -0.036517665, 0.08755208, -1464957.1, 254663.16, 0.00051082077, 10.002177, 9.998794 
1.0749492e+3, 1.345287e+2, -1458017.6, -1671281.1, 16263.354, -0.028774591, 0.115643434, -1456784.5, 164846.64, 0.00023041679, 10.001653, 9.998833 
1.0749653e+3, 1.4452814e+2, -1367982.3, -1548349.1, -32245.342, -0.003032836, 0.16687465, -1362390.9, 161246.45, 0.000053336094, 10.001475, 9.999085 
1.0749806e+3, 1.5452689e+2, -1233214.6, -1427966.9, -27714.053, 0.016426293, 0.12792638, -1229347.6, 196300.73, 0.0000020676762, 10.001708, 9.999126 
1.0749956e+3, 1.6452561e+2, -1148802.3, -1347380.6, -43056.16, 0.023193475, 0.09554483, -1139868.6, 187790.39, 0.0000000000166348, 10.001662, 9.999029 
1.0750102e+3, 1.7452441e+2, -1104145.1, -1273110.6, -49424.47, 0.013273451, 0.07044366, -1090749.8, 138918.97, 0.0, 10.0012865, 9.999047 
1.07502505e+3, 1.845234e+2, -1042299.5, -1208617.3, -47058.465, 0.0143494345, 0.073218465, -1029907.94, 101770.28, 0.0, 10.001107, 9.998903 
1.07504e+3, 1.9452263e+2, -934271.44, -1104262.9, -48558.113, 0.029541213, 0.10390237, -921378.7, 112308.56, 0.0, 10.00117, 9.998917 
1.0750549e+3, 2.045217e+2, -817711.0, -940576.7, -49759.04, 0.033810105, 0.09644628, -800087.2, 135608.77, 0.0, 10.001053, 9.999425 
1.0750697e+3, 2.1452059e+2, -764716.4, -859874.8, -45378.99, 0.024472447, 0.03888852, -746545.8, 91158.44, 0.0, 10.000725, 9.999464 
1.07508436e+3, 2.2451992e+2, -724737.75, -823064.25, -54599.8, 0.018360022, 0.0433905, -700428.8, 39281.895, 0.0, 10.00047, 9.9991665 
1.0750989e+3, 2.3451985e+2, -650752.3, -736578.4, -55168.832, 0.016149372, 0.11901199, -623771.7, 17943.088, 0.0, 10.000304, 9.999167 
1.0751134e+3, 2.4451934e+2, -568362.75, -633247.7, -52252.17, 0.019569824, 0.1465104, -539300.75, 4421.009, 0.0, 10.000142, 9.999282 
1.0751282e+3, 2.5451827e+2, -491980.84, -542392.25, -51116.36, 0.030289814, 0.1093069, -460193.5, -14461.265, 0.0, 9.99998, 9.9993105 
1.07514285e+3, 2.645175e+2, -411991.47, -429150.53, -41202.41, 0.029064214, 0.090666175, -378484.8, -30745.164, 0.0, 9.999754, 9.999524 
1.07515745e+3, 2.7451703e+2, -354738.8, -346495.72, -35963.617, 0.012796898, 0.09112543, -314418.25, -64675.203, 0.0, 9.999455, 9.999562 
1.0751721e+3, 2.8451666e+2, -303800.9, -296108.75, -24639.875, -0.0030362734, 0.10902046, -275016.6, -123269.66, 0.0, 9.999239, 9.999339 
1.075187e+3, 2.9451632e+2, -221379.3, -204186.31, -27776.785, -0.0174565, 0.1424, -183706.19, -129954.87, 0.0, 9.9991255, 9.999352 
1.0752023e+3, 3.0451572e+2, -135375.38, -57751.797, -14625.601, -0.014232445, 0.11190031, -55087.527, -55087.527, 0.0, 9.999038, 10.000066 
1.0752178e+3, 3.1451562e+2, -137817.9, -51895.055, -9859.175, 0.0075249774, 0.09417324, -50778.28, -50778.28, 0.0, 9.99899, 10.000129 
1.08493485e+3, 1.24513865e+2, -1505966.8, -1750689.1, -87585.375, -0.040599763, 0.096558385, -1477850.5, 241924.08, 0.0005868495, 10.002029, 9.998774 
1.084951e+3, 1.345127e+2, -1396170.9, -1644198.8, 17150.873, -0.034070745, 0.09907456, -1394990.5, 226797.34, 0.00027068684, 10.00209, 9.998807 
1.084967e+3, 1.4451215e+2, -1292509.0, -1513822.1, -20636.832, -0.0059419894, 0.15551403, -1290601.1, 233192.53, 0.00006622561, 10.002004, 9.999067 
1.0849823e+3, 1.545111e+2, -1230263.6, -1429069.8, -29373.777, 0.017878948, 0.13953286, -1226014.5, 199788.39, 0.000003027, 10.001741, 9.999103 
1.0849972e+3, 1.6450979e+2, -1162425.8, -1361406.4, -55051.22, 0.021253867, 0.10659337, -1148210.5, 179603.56, 0.000000000186287, 10.001602, 9.998961 
1.08501144e+3, 1.7450823e+2, -1061795.9, -1260212.1, -55630.773, -0.0010534356, 0.05249212, -1047262.94, 182564.19, 0.0, 10.001613, 9.998978 
1.0850261e+3, 1.8450716e+2, -989446.5, -1183033.0, -45545.785, 0.002596915, 0.05378129, -979266.2, 152570.77, 0.0, 10.0014715, 9.998902 
1.08504124e+3, 1.945067e+2, -936008.9, -1105092.9, -42779.426, 0.03803242, 0.11635548, -925801.56, 108041.37, 0.0, 10.001159, 9.998916 
1.0850561e+3, 2.0450579e+2, -846568.0, -958018.2, -52571.063, 0.04540551, 0.11116474, -825683.7, 110167.89, 0.0, 10.000871, 9.9993925 
1.0850703e+3, 2.145043e+2, -783283.94, -872221.56, -59551.04, 0.01824367, 0.02032551, -753430.44, 84432.88, 0.0, 10.000613, 9.999433 
1.08508475e+3, 2.245036e+2, -729427.6, -813422.5, -66649.195, 0.010069164, 0.016585734, -692647.56, 47222.66, 0.0, 10.000386, 9.999273 
1.0850993e+3, 2.3450387e+2, -658140.56, -727349.4, -58780.203, 0.024546454, 0.11431592, -624535.2, 17335.871, 0.0, 10.000199, 9.999281 
1.08511366e+3, 2.4450354e+2, -589665.3, -640592.9, -52569.484, 0.03150836, 0.15547289, -556717.1, -12840.945, 0.0, 9.999984, 9.999307 
1.085128e+3, 2.5450253e+2, -526367.1, -556408.44, -52705.223, 0.029743457, 0.12162415, -486583.94, -40697.402, 0.0, 9.999733, 9.999332 
1.0851425e+3, 2.6450175e+2, -440447.8, -436777.1, -46726.414, 0.024546038, 0.09854376, -391850.03, -43955.777, 0.0, 9.999533, 9.9995775 
1.0851569e+3, 2.7450123e+2, -359662.1, -342745.38, -48336.965, 0.0147594465, 0.08573318, -302132.28, -52233.895, 0.0, 9.999395, 9.999617 
1.0851715e+3, 2.8450093e+2, -304010.0, -289189.13, -34773.008, 0.0062186685, 0.104459524, -261045.7, -109144.18, 0.0, 9.999208, 9.999401 
1.0851863e+3, 2.9450083e+2, -240216.14, -205929.33, -27455.514, 0.00006771026, 0.15440772, -190704.52, -136801.03, 0.0, 9.998966, 9.999416 
1.0852013e+3, 3.0450016e+2, -167492.03, -65120.305, -9249.261, 0.0008693799, 0.11276321, -64291.348, -64291.348, 0.0, 9.998782, 10.000138 
1.08521655e+3, 3.1450003e+2, -176812.64, -60257.492, -15055.858, 0.007887177, 0.084702924, -58344.086, -58344.086, 0.0, 9.998677, 10.000221 
1.094937e+3, 1.2449849e+2, -1493530.4, -1723525.1, -88852.55, -0.034941904, 0.14699903, -1463203.4, 256723.73, 0.00066827383, 10.002024, 9.998963 
1.0949531e+3, 1.3449685e+2, -1383234.5, -1617386.4, 19753.492, -0.03656556, 0.08499287, -1381579.8, 240362.95, 0.00031450897, 10.00209, 9.998991 
1.09496884e+3, 1.444962e+2, -1305004.1, -1540293.8, -30120.016, -0.016521543, 0.12833855, -1301209.6, 222739.2, 0.000080840386, 10.002006, 9.998885 
1.0949839e+3, 1.5449525e+2, -1244611.9, -1459037.5, -39498.563, 0.0010072992, 0.14380492, -1237567.4, 188390.6, 0.0000043066148, 10.001741, 9.998897 
1.09499864e+3, 1.6449398e+2, -1162304.6, -1361330.3, -55469.36, 0.0065186135, 0.124436766, -1147889.3, 180080.14, 0.0000000006358386, 10.001602, 9.998962 
1.0950131e+3, 1.7449233e+2, -1060917.8, -1258751.4, -55537.027, -0.0029916945, 0.060688, -1046393.4, 183589.53, 0.0, 10.001614, 9.998987 
1.09502755e+3, 1.8449114e+2, -985161.4, -1174964.0, -57546.34, 0.004521182, 0.047044516, -969076.94, 162916.52, 0.0, 10.001474, 9.998958 
1.0950424e+3, 1.9449054e+2, -931790.5, -1096905.9, -55108.98, 0.03274542, 0.09005984, -915087.06, 118913.055, 0.0, 10.001161, 9.998972 
1.09505676e+3, 2.0448962e+2, -858341.0, -982838.4, -62968.43, 0.03731687, 0.08957809, -832046.4, 103962.69, 0.0, 10.000872, 9.999222 
1.0950709e+3, 2.1448828e+2, -795700.2, -898434.3, -69708.01, 0.013039314, 0.03101668, -760477.5, 77543.2, 0.0, 10.000614, 9.999252 
1.0950851e+3, 2.2448757e+2, -714671.0, -783379.6, -74383.1, 0.007853972, 0.026210772, -667092.0, 72935.82, 0.0, 10.000388, 9.999479 
1.0950994e+3, 2.3448764e+2, -641945.5, -694157.4, -65937.15, 0.025825849, 0.08256095, -597134.4, 44894.94, 0.0, 10.0002, 9.999509 
1.0951137e+3, 2.4448746e+2, -588060.44, -637505.6, -61787.035, 0.03469975, 0.12266968, -546233.44, -2200.458, 0.0, 9.999985, 9.999329 
1.0951277e+3, 2.5448695e+2, -525512.75, -554939.4, -61598.9, 0.03216398, 0.13767144, -476894.34, -30855.156, 0.0, 9.999734, 9.999343 
1.095142e+3, 2.6448628e+2, -442801.75, -441575.3, -51502.117, 0.025082912, 0.13225088, -390682.75, -42636.78, 0.0, 9.999532, 9.999546 
1.0951562e+3, 2.7448556e+2, -362586.34, -347858.72, -52571.895, 0.012733452, 0.098754875, -302137.4, -52084.29, 0.0, 9.999391, 9.999584 
1.09517075e+3, 2.8448516e+2, -291930.63, -262905.94, -42923.54, 0.01446003, 0.102943905, -232107.81, -80051.01, 0.0, 9.999202, 9.999585 
1.0951856e+3, 2.944852e+2, -226568.34, -177306.02, -35425.293, 0.034307886, 0.14516747, -158790.39, -104734.06, 0.0, 9.998963, 9.999615 
1.0952004e+3, 3.0448455e+2, -170267.34, -71325.59, -12842.449, 0.035783295, 0.09820386, -69685.84, -69685.84, 0.0, 9.998783, 10.000095 
1.0952153e+3, 3.1448478e+2, -178184.14, -64114.99, -18007.59, 0.011738654, 0.10875576, -61339.73, -61339.73, 0.0, 9.998681, 10.000194 
1.104939e+3, 1.2448302e+2, -1472851.0, -1711908.6, -67874.99, -0.041692354, 0.16112275, -1454923.9, 265155.38, 0.00075577793, 10.002158, 9.998979 
1.10495545e+3, 1.344812e+2, -1362027.6, -1605940.1, 30639.76, -0.021863135, 0.08072886, -1358237.6, 263858.1, 0.00036234639, 10.00223, 9.999003 
1.1049711e+3, 1.4448048e+2, -1286769.3, -1541271.9, -33430.06, -0.0063307, 0.12103884, -1282451.4, 241650.8, 0.00009737699, 10.002174, 9.998796 
1.1049856e+3, 1.544794e+2, -1220826.9, -1458081.9, -35468.426, -0.017159533, 0.13102801, -1215638.0, 210474.84, 0.0000060098255, 10.001951, 9.998802 
1.10500015e+3, 1.6447808e+2, -1138614.5, -1351783.3, -40546.777, -0.013308558, 0.11423914, -1131162.6, 196962.06, 0.0000000015512864, 10.001775, 9.998943 
1.1050149e+3, 1.7447653e+2, -1053934.8, -1257178.5, -42446.8, 0.00850545, 0.06288984, -1045426.06, 184711.31, 0.0, 10.00167, 9.998971 
1.1050293e+3, 1.8447535e+2, -982825.5, -1173506.3, -55931.8, 0.021089204, 0.047948048, -967630.1, 164517.92, 0.0, 10.00149, 9.9989605 
1.10504344e+3, 1.9447456e+2, -922902.7, -1091927.5, -58060.38, 0.021645753, 0.07323034, -904880.44, 129275.74, 0.0, 10.00122, 9.998977 
1.1050575e+3, 2.0447364e+2, -855214.2, -985789.9, -63739.375, 0.019325554, 0.07575018, -829259.44, 106905.74, 0.0, 10.000913, 9.999182 
1.1050714e+3, 2.1447255e+2, -806168.5, -908305.5, -60405.977, 0.013796321, 0.045280837, -778136.6, 60038.59, 0.0, 10.000564, 9.999209 
1.10508546e+3, 2.2447188e+2, -727414.6, -785145.6, -61660.723, 0.01753732, 0.044328466, -688197.4, 51984.723, 0.0, 10.000283, 9.999517 
1.1050996e+3, 2.3447174e+2, -655326.8, -695860.5, -67237.16, 0.032423742, 0.07514249, -605368.44, 36816.684, 0.0, 10.000089, 9.999551 
1.1051136e+3, 2.4447152e+2, -592811.06, -626507.75, -68410.055, 0.039411608, 0.1048881, -539205.2, 4983.477, 0.0, 9.999895, 9.999447 
1.1051274e+3, 2.544712e+2, -521310.34, -539104.94, -60597.605, 0.036114626, 0.12804446, -468960.34, -22767.746, 0.0, 9.999704, 9.999466 
1.1051415e+3, 2.6447073e+2, -461736.78, -457048.38, -48718.09, 0.029486993, 0.13275817, -410618.13, -62419.695, 0.0, 9.99943, 9.999488 
1.1051555e+3, 2.7447003e+2, -416328.22, -381146.38, -52698.266, 0.019229352, 0.11197269, -343180.6, -92974.414, 0.0, 9.999055, 9.9995165 
1.1051698e+3, 2.844697e+2, -333257.3, -261584.13, -39877.97, 0.021943009, 0.11610811, -243806.23, -91596.805, 0.0, 9.998828, 9.999774 
1.1051845e+3, 2.9446974e+2, -237996.11, -160159.97, -31847.904, 0.04144004, 0.14211753, -148789.83, -94582.5, 0.0, 9.998788, 9.999816 
1.1051992e+3, 3.0446905e+2, -180693.83, -89431.99, -8804.275, 0.04363421, 0.08243909, -88590.38, -88590.38, 0.0, 9.99877, 9.999977 
1.1052141e+3, 3.1446946e+2, -168655.22, -69495.28, -20120.822, 0.02282251, 0.12437049, -65568.05, -65568.05, 0.0, 9.998791, 10.000103 
1.11494094e+3, 1.24467425e+2, -1484420.0, -1734792.3, -68529.05, -0.064634435, 0.1317883, -1466890.4, 253340.52, 0.00085057894, 10.002153, 9.998824 
1.11495785e+3, 1.344658e+2, -1373730.0, -1630125.0, 33471.99, 0.009700586, 0.08686558, -1369432.3, 252814.2, 0.00041499882, 10.002229, 9.998837 
1.1149735e+3, 1.4446507e+2, -1286071.8, -1540014.0, -41423.65, 0.02482986, 0.13457848, -1279485.5, 244767.52, 0.00011616446, 10.002174, 9.998805 
1.1149873e+3, 1.5446356e+2, -1219832.1, -1456081.3, -44143.85, -0.037404124, 0.10133022, -1211853.3, 214413.73, 0.000008247579, 10.001951, 9.998816 
1.1150016e+3, 1.6446215e+2, -1141320.9, -1358010.1, -45279.5, -0.0393282, 0.07594313, -1132239.9, 196039.66, 0.0000000033697685, 10.001777, 9.9989 
1.1150167e+3, 1.744609e+2, -1056811.9, -1263645.3, -46711.27, 0.032783896, 0.05899673, -1046751.9, 183538.02, 0.0, 10.001671, 9.998926 
1.1150311e+3, 1.8445978e+2, -986331.5, -1181157.9, -66372.22, 0.05166781, 0.05638057, -965869.3, 166430.98, 0.0, 10.001491, 9.998908 
1.1150444e+3, 1.944588e+2, -926203.25, -1099457.0, -68786.88, 0.0045149736, 0.06580409, -902214.3, 132096.38, 0.0, 10.001223, 9.998924 
1.11505814e+3, 2.0445791e+2, -848609.75, -973212.56, -77468.1, -0.008828513, 0.06979818, -811499.06, 124820.56, 0.0, 10.0009165, 9.999267 
1.115072e+3, 2.1445714e+2, -799079.56, -894477.25, -74066.625, 0.019851755, 0.06303629, -758681.6, 79644.86, 0.0, 10.0005665, 9.999304 
1.1150859e+3, 2.2445655e+2, -736277.56, -804226.94, -69663.85, 0.038160726, 0.07046059, -692745.25, 47587.543, 0.0, 10.000285, 9.999385 
1.1150997e+3, 2.3445617e+2, -665110.9, -716686.9, -74500.35, 0.043768723, 0.09093734, -612061.56, 30276.783, 0.0, 10.000091, 9.999408 
1.1151135e+3, 2.4445577e+2, -578213.1, -596422.56, -75372.76, 0.045055076, 0.1016112, -511397.16, 32945.824, 0.0, 9.999895, 9.999654 
1.1151272e+3, 2.544554e+2, -505559.06, -506364.03, -67263.18, 0.041064855, 0.09425925, -438697.16, 7649.322, 0.0, 9.999703, 9.999691 
1.115141e+3, 2.64455e+2, -467572.6, -469242.34, -62067.813, 0.03724496, 0.101560466, -406334.03, -57982.656, 0.0, 9.99943, 9.999405 
1.1151547e+3, 2.7445465e+2, -423321.2, -396120.16, -65838.68, 0.032808065, 0.12485524, -342491.9, -92134.38, 0.0, 9.999056, 9.9994135 
1.1151687e+3, 2.8445446e+2, -319402.1, -233320.16, -41170.723, 0.02762728, 0.14317293, -216799.78, -64440.36, 0.0, 9.99883, 9.999968 
1.1151831e+3, 2.9445451e+2, -223338.25, -129858.65, -32346.176, 0.023059087, 0.14566769, -119757.586, -65401.203, 0.0, 9.998788, 10.000025 
1.1151979e+3, 3.0445364e+2, -194781.88, -118735.1, -7320.374, 0.026251828, 0.066058464, -118036.84, -118036.84, 0.0, 9.998769, 9.999777 
1.115213e+3, 3.144541e+2, -180021.58, -92572.29, -17652.773, 0.03853172, 0.13773608, -89143.305, -89143.305, 0.0, 9.998788, 9.999947 
1.12494335e+3, 1.24452166e+2, -1431392.9, -1731293.4, -58659.652, -0.053070903, 0.11880718, -1420327.5, 300051.72, 0.00095378526, 10.002615, 9.998625 
1.1249602e+3, 1.3445044e+2, -1361429.1, -1647096.6, 43332.594, 0.0064355657, 0.08495327, -1355000.8, 267396.1, 0.00047316175, 10.002414, 9.998632 
1.1249757e+3, 1.4444968e+2, -1270187.6, -1530859.3, -35760.508, 0.0152906915, 0.13885324, -1265370.8, 259033.19, 0.00013752929, 10.002278, 9.998818 
1.1249895e+3, 1.5444802e+2, -1178571.1, -1433977.9, -38640.613, -0.02490535, 0.08862627, -1172853.1, 253565.5, 0.00001111389, 10.002226, 9.998836 
1.1250037e+3, 1.6444659e+2, -1103208.3, -1340884.3, -41221.59, -0.025294457, 0.061554104, -1096262.0, 232169.23, 0.0000000061074554, 10.002044, 9.998889 
1.1250183e+3, 1.744455e+2, -1052931.0, -1263097.9, -40654.035, 0.023425901, 0.061229363, -1045341.1, 185099.58, 0.0, 10.001704, 9.998914 
1.1250324e+3, 1.8444443e+2, -996429.56, -1184272.0, -57178.53, 0.03630384, 0.0632486, -980393.56, 152057.2, 0.0, 10.001414, 9.998922 
1.12504564e+3, 1.9444336e+2, -929489.5, -1099319.9, -54768.83, 0.004449315, 0.062813126, -913359.1, 121102.66, 0.0, 10.001192, 9.99894 
1.1250592e+3, 2.0444246e+2, -839611.44, -967483.94, -64460.79, -0.0011850715, 0.064944565, -812756.5, 123714.16, 0.0, 10.000974, 9.999278 
1.12507276e+3, 2.1444179e+2, -769625.7, -878719.7, -67605.12, 0.0253751, 0.06631345, -737306.0, 101170.9, 0.0, 10.000763, 9.999316 
1.1250863e+3, 2.2444119e+2, -708669.7, -795030.56, -62785.12, 0.04168048, 0.075187206, -675649.6, 64833.56, 0.0, 10.000493, 9.999348 
1.1250999e+3, 2.344407e+2, -659080.7, -717798.7, -60507.16, 0.04535158, 0.089401394, -621185.94, 21303.441, 0.0, 10.000151, 9.99937 
1.1251134e+3, 2.4444024e+2, -587251.7, -599310.44, -63354.176, 0.04772557, 0.094615914, -529640.6, 14853.915, 0.0, 9.999829, 9.999665 
1.1251269e+3, 2.5443983e+2, -529455.0, -516316.8, -71213.98, 0.048742466, 0.08256813, -451369.6, -4871.1694, 0.0, 9.999534, 9.999704 
1.1251404e+3, 2.6443952e+2, -481409.0, -465635.75, -69562.43, 0.044721477, 0.091281764, -403514.3, -55011.598, 0.0, 9.999291, 9.9994955 
1.1251538e+3, 2.7443936e+2, -407747.38, -377815.34, -59470.43, 0.033546053, 0.124262795, -331456.72, -80949.81, 0.0, 9.999117, 9.999509 
1.12516746e+3, 2.8443927e+2, -311776.22, -237407.44, -31563.43, 0.022221472, 0.14975372, -225817.56, -73309.41, 0.0, 9.998916, 9.999898 
1.1251816e+3, 2.9443926e+2, -243798.16, -148529.06, -43594.504, 0.012236666, 0.154466, -131591.7, -77085.375, 0.0, 9.998687, 9.999946 
1.12519644e+3, 3.0443826e+2, -219129.14, -116155.31, -14282.713, 0.020477317, 0.061713554, -114210.98, -114210.98, 0.0, 9.99854, 9.999905 
1.1252118e+3, 3.1443897e+2, -206158.48, -80240.414, 1117.644, 0.05341434, 0.14364015, -80230.5, -80230.5, 0.0, 9.998501, 10.00017 
1.1349464e+3, 1.244373e+2, -1449110.3, -1767506.6, -69543.125, -0.0057699108, 0.12183566, -1434583.6, 285939.88, 0.0010657869, 10.002613, 9.998378 
1.1349623e+3, 1.3443519e+2, -1379457.3, -1683946.0, 35476.426, -0.032872822, 0.075033024, -1375378.5, 247167.61, 0.00053702114, 10.002411, 9.998382 
1.1349774e+3, 1.4443436e+2, -1269655.5, -1529416.8, -38218.89, -0.0373378, 0.13321896, -1264149.1, 260405.4, 0.00016162105, 10.002276, 9.998829 
1.1349922e+3, 1.5443282e+2, -1176632.6, -1430181.5, -40810.652, 0.01930387, 0.09318152, -1170225.8, 256341.78, 0.000014669085, 10.002226, 9.998861 
1.13500625e+3, 1.6443145e+2, -1101715.6, -1338486.8, -53922.5, 0.028748741, 0.07166492, -1090013.6, 238565.56, 0.000000009421829, 10.002046, 9.998905 
1.13501966e+3, 1.7443037e+2, -1051280.8, -1260579.4, -53990.23, -0.019153506, 0.069937825, -1038174.25, 192414.89, 0.0, 10.001708, 9.99893 
1.1350332e+3, 1.844293e+2, -990289.25, -1172683.0, -66562.69, -0.025295243, 0.06880221, -968581.44, 164017.64, 0.0, 10.001418, 9.999001 
1.135047e+3, 1.9442828e+2, -923427.4, -1087173.6, -63672.72, 0.020314919, 0.063923605, -901582.5, 133026.48, 0.0, 10.001194, 9.999023 
1.1350606e+3, 2.0442735e+2, -844155.75, -977186.0, -73107.8, 0.040981874, 0.061083604, -811832.56, 124785.43, 0.0, 10.000974, 9.999212 
1.1350736e+3, 2.1442655e+2, -774476.5, -889421.06, -76093.74, 0.029992446, 0.055725537, -736589.9, 102036.16, 0.0, 10.000765, 9.999243 
1.13508664e+3, 2.2442588e+2, -704596.56, -787158.75, -76042.94, 0.028022664, 0.05952761, -659352.2, 81280.7, 0.0, 10.000495, 9.999402 
1.1351e+3, 2.3442543e+2, -654474.4, -708673.06, -73558.96, 0.037379965, 0.07098752, -603181.75, 39456.316, 0.0, 10.000152, 9.999433 
1.1351133e+3, 2.4442498e+2, -599614.4, -625394.7, -74522.73, 0.047348224, 0.083559476, -536875.2, 7768.0215, 0.0, 9.99983, 9.999486 
1.1351266e+3, 2.544246e+2, -542932.5, -544376.4, -81709.17, 0.058181282, 0.091753244, -461942.1, -15293.791, 0.0, 9.999534, 9.999512 
1.1351398e+3, 2.644243e+2, -463566.7, -428674.84, -75556.52, 0.051022746, 0.101501614, -368576.28, -19924.066, 0.0, 9.99929, 9.99975 
1.1351527e+3, 2.7442417e+2, -387695.25, -336655.13, -65017.063, 0.021705976, 0.111767836, -292329.0, -41674.867, 0.0, 9.999119, 9.999791 
1.1351663e+3, 2.844241e+2, -334061.03, -284327.2, -39559.445, 0.0059339474, 0.13697337, -262468.2, -109812.62, 0.0, 9.998918, 9.999575 
1.1351803e+3, 2.9442397e+2, -269313.25, -201223.23, -51037.813, 0.0071422523, 0.16726431, -173917.44, -119260.29, 0.0, 9.998685, 9.999585 
1.135195e+3, 3.0442294e+2, -188985.66, -52872.355, -14990.587, 0.024013879, 0.06889564, -51240.95, -51240.95, 0.0, 9.998536, 10.000341 
1.1352105e+3, 3.1442416e+2, -165371.94, 4745.1533, 819.6467, 0.06571558, 0.15291499, 4749.1025, 4749.1025, 0.0, 9.998499, 10.000755 
1.14494935e+3, 1.2442228e+2, -1423475.4, -1759054.1, -80326.07, 0.018520884, 0.116614945, -1405239.1, 315431.25, 0.001186206, 10.002807, 9.9983425 
1.1449647e+3, 1.3442016e+2, -1338746.1, -1667651.3, 43515.4, -0.040905587, 0.07050287, -1333086.3, 289606.9, 0.00060623896, 10.002705, 9.998352 
1.1449795e+3, 1.4441933e+2, -1233770.9, -1514551.8, -22286.463, -0.061963305, 0.13271154, -1232012.9, 292688.5, 0.00018835878, 10.002533, 9.998808 
1.14499435e+3, 1.5441772e+2, -1173728.9, -1431460.1, -29196.615, 0.021634463, 0.08821272, -1170462.8, 256252.23, 0.000018936791, 10.002258, 9.998837 
1.1450084e+3, 1.6441636e+2, -1104868.4, -1344136.4, -48584.223, 0.037891563, 0.0682109, -1095379.4, 233347.63, 0.000000013934886, 10.002042, 9.998868 
1.1450214e+3, 1.7441532e+2, -1024015.5, -1251734.9, -52804.145, -0.027460419, 0.07514063, -1012367.0, 218370.06, 0.0, 10.001913, 9.998892 
1.1450346e+3, 1.8441428e+2, -946489.75, -1140853.9, -68978.8, -0.036410168, 0.07437547, -924497.9, 208248.8, 0.0, 10.001674, 9.999096 
1.1450484e+3, 1.9441326e+2, -900321.3, -1064220.0, -65190.656, 0.02409114, 0.059726767, -877554.3, 157201.36, 0.0, 10.001303, 9.999127 
1.14506155e+3, 2.0441233e+2, -846480.8, -984970.7, -70966.07, 0.048240535, 0.053450067, -816574.1, 120190.44, 0.0, 10.000988, 9.999151 
1.1450744e+3, 2.1441148e+2, -782520.7, -900885.25, -73619.016, 0.026537832, 0.052709933, -747245.06, 91528.305, 0.0, 10.000743, 9.999173 
1.1450872e+3, 2.2441082e+2, -707933.94, -785422.0, -78417.89, 0.020511223, 0.05819724, -659211.0, 81569.36, 0.0, 10.00046, 9.99943 
1.1451001e+3, 2.3441039e+2, -655514.5, -705379.94, -78634.37, 0.033888023, 0.06818909, -597954.75, 44830.28, 0.0, 10.000129, 9.999466 
1.145113e+3, 2.4440996e+2, -604081.7, -633401.25, -74841.77, 0.0464087, 0.08213763, -542477.44, 2312.6528, 0.0, 9.999825, 9.9994335 
1.1451261e+3, 2.5440952e+2, -543832.1, -551055.75, -72651.7, 0.057984874, 0.09500694, -474702.53, -27906.967, 0.0, 9.999555, 9.999455 
1.14513904e+3, 2.6440918e+2, -460210.28, -422296.75, -66219.18, 0.050545815, 0.10003365, -372374.34, -23574.469, 0.0, 9.999294, 9.999792 
1.14515185e+3, 2.7440897e+2, -394597.75, -334629.5, -72779.31, 0.019279178, 0.09386619, -285899.75, -35097.496, 0.0, 9.999049, 9.999839 
1.14516504e+3, 2.844089e+2, -353981.2, -297252.63, -47937.633, 0.0061634807, 0.119334325, -269916.38, -117112.88, 0.0, 9.998796, 9.999545 
1.145179e+3, 2.9440898e+2, -293372.8, -217067.19, -36179.12, 0.016189849, 0.17018996, -202640.86, -147836.63, 0.0, 9.998538, 9.999547 
1.1451935e+3, 3.044078e+2, -217534.17, -60854.78, 3766.9067, 0.033422835, 0.062572725, -60764.27, -60764.27, 0.0, 9.998317, 10.000392 
1.1452088e+3, 3.14409e+2, -203860.25, 6855.1196, -11873.425, 0.06744259, 0.13670754, 7522.054, 7522.054, 0.0, 9.998149, 10.000937 
1.1549521e+3, 1.2440713e+2, -1411961.8, -1732553.1, -86818.2, 0.015725123, 0.099667564, -1389960.8, 330858.72, 0.0013141764, 10.002796, 9.998529 
1.1549676e+3, 1.3440537e+2, -1325047.4, -1638833.0, 39702.637, -0.01831966, 0.071957, -1320101.9, 302735.66, 0.0006802459, 10.002704, 9.99855 
1.1549821e+3, 1.4440468e+2, -1237227.6, -1522867.9, -32544.186, -0.05812523, 0.13847813, -1233566.8, 291277.3, 0.00021757523, 10.002537, 9.99875 
1.1549962e+3, 1.5440279e+2, -1178655.5, -1442538.8, -40036.797, -0.017989472, 0.07420317, -1172714.8, 254145.75, 0.000023929451, 10.00226, 9.998761 
1.15501e+3, 1.6440132e+2, -1110915.1, -1357192.4, -54441.766, 0.0009132977, 0.051272817, -1099417.0, 229457.08, 0.000000023716384, 10.002044, 9.998778 
1.1550234e+3, 1.7440037e+2, -1030428.8, -1264913.0, -58114.008, -0.003037656, 0.07652347, -1016816.25, 214067.61, 0.0, 10.001912, 9.998802 
1.1550366e+3, 1.8439938e+2, -939074.5, -1125778.8, -83098.94, 0.001801211, 0.08005938, -907446.44, 225446.55, 0.0, 10.001674, 9.9992 
1.1550496e+3, 1.9439833e+2, -891383.1, -1046743.9, -79848.695, 0.015929604, 0.050773676, -857663.06, 177238.33, 0.0, 10.001307, 9.999247 
1.15506224e+3, 2.0439741e+2, -849789.56, -992951.1, -81134.57, 0.020834941, 0.042658243, -813173.2, 123736.72, 0.0, 10.000992, 9.999095 
1.155075e+3, 2.1439666e+2, -787049.94, -910515.5, -83306.76, 0.014943072, 0.05644209, -745095.94, 93822.63, 0.0, 10.000744, 9.999107 
1.1550875e+3, 2.2439602e+2, -708044.75, -785767.5, -91142.93, 0.018634526, 0.07013097, -647824.1, 93101.336, 0.0, 10.000459, 9.999428 
1.15510024e+3, 2.343956e+2, -655003.7, -704892.75, -91124.11, 0.03404863, 0.080670945, -585471.56, 57458.48, 0.0, 10.000131, 9.999469 
1.1551129e+3, 2.4439517e+2, -599102.06, -623733.4, -84958.055, 0.044226654, 0.09045959, -525571.7, 19363.232, 0.0, 9.999827, 9.999499 
1.1551255e+3, 2.543947e+2, -538369.06, -540688.8, -82292.96, 0.048180003, 0.09273254, -457227.78, -10287.696, 0.0, 9.999558, 9.999525 
1.1551382e+3, 2.6439422e+2, -471281.7, -446162.2, -75008.95, 0.042978317, 0.086973034, -382668.72, -33723.1, 0.0, 9.999297, 9.999627 
1.1551509e+3, 2.743937e+2, -407479.3, -361142.25, -81093.52, 0.025011687, 0.07056302, -299972.53, -49021.508, 0.0, 9.999047, 9.999658 
1.1551641e+3, 2.8439367e+2, -336614.28, -260567.36, -56447.293, 0.020927459, 0.09781337, -230531.44, -77579.71, 0.0, 9.998793, 9.999799 
1.1551777e+3, 2.943942e+2, -273486.94, -176669.3, -44394.26, 0.036478423, 0.16479173, -159395.05, -104447.57, 0.0, 9.998541, 9.999824 
1.1551919e+3, 3.0439287e+2, -240045.19, -109380.664, -2060.4941, 0.046542484, 0.043932382, -109348.18, -109348.18, 0.0, 9.998323, 10.000056 
1.1552068e+3, 3.1439355e+2, -218681.63, -25375.89, -17129.205, 0.05857352, 0.10147345, -23869.773, -23869.773, 0.0, 9.998154, 10.000714 
1.164955e+3, 1.2439246e+2, -1356973.1, -1702114.1, -68792.734, -0.00032289824, 0.10015217, -1343766.8, 377197.16, 0.0014487223, 10.003158, 9.998564 
1.16497055e+3, 1.3439073e+2, -1300138.3, -1622845.1, 46859.184, 0.0021222925, 0.071147405, -1293471.8, 329509.22, 0.0007585872, 10.002856, 9.998587 
1.1649848e+3, 1.4439003e+2, -1224132.0, -1524324.5, -31300.896, -0.048431735, 0.13844724, -1220903.0, 304084.3, 0.00024917058, 10.00266, 9.99868 
1.1649984e+3, 1.5438807e+2, -1136044.4, -1430769.9, -39436.727, -0.04632479, 0.07504399, -1130858.8, 296146.16, 0.000029664654, 10.00259, 9.998683 
1.165012e+3, 1.6438657e+2, -1067808.3, -1333662.1, -54769.996, -0.03010021, 0.0514626, -1056966.9, 272052.1, 0.00000004774233, 10.002329, 9.998802 
1.1650254e+3, 1.7438562e+2, -1041266.56, -1266836.1, -50328.086, 0.009423452, 0.073317684, -1030547.0, 200481.48, 0.0, 10.001824, 9.998831 
1.1650384e+3, 1.8438463e+2, -963548.75, -1138137.0, -70319.12, 0.02655688, 0.07628813, -938748.94, 194288.47, 0.0, 10.001509, 9.999194 
1.16505094e+3, 1.943836e+2, -871418.06, -1037844.56, -76233.11, 0.012216059, 0.050684303, -841777.75, 193267.7, 0.0, 10.001447, 9.99924 
1.1650632e+3, 2.0438269e+2, -820928.44, -976813.4, -85923.66, 0.007414951, 0.042216197, -782862.7, 154191.23, 0.0, 10.001182, 9.999114 
1.1650755e+3, 2.143819e+2, -797444.0, -913217.2, -82559.1, 0.015909832, 0.050035115, -754499.75, 84563.2, 0.0, 10.000663, 9.999127 
1.16508804e+3, 2.2438128e+2, -725993.8, -790349.9, -80126.234, 0.024823379, 0.061194297, -671825.8, 69243.84, 0.0, 10.0003195, 9.999464 
1.1651003e+3, 2.343809e+2, -642790.75, -694459.75, -77614.52, 0.03402049, 0.07346438, -586824.06, 56249.184, 0.0, 10.000196, 9.999508 
1.1651127e+3, 2.4438049e+2, -577457.56, -613631.5, -75496.75, 0.0398538, 0.083686344, -517911.44, 27166.277, 0.0, 9.999979, 9.999495 
1.165125e+3, 2.5438002e+2, -526868.75, -536112.3, -79091.75, 0.041177575, 0.08458076, -452263.88, -5180.451, 0.0, 9.999642, 9.9995165 
1.16513744e+3, 2.6437947e+2, -471730.72, -446644.6, -69648.375, 0.037149187, 0.0759051, -388418.84, -39329.61, 0.0, 9.999295, 9.999624 
1.1651499e+3, 2.7437893e+2, -423512.0, -369113.97, -63114.62, 0.025774598, 0.055540893, -327587.16, -76492.586, 0.0, 9.998938, 9.999656 
1.1651627e+3, 2.8437895e+2, -357492.75, -274921.06, -38178.664, 0.023742585, 0.086632304, -259974.1, -106879.05, 0.0, 9.998669, 9.99976 
1.16517626e+3, 2.943795e+2, -281376.06, -185048.2, -49621.71, 0.035279155, 0.16513689, -164059.56, -108968.92, 0.0, 9.9985075, 9.999781 
1.1651902e+3, 3.0437806e+2, -246449.36, -120678.484, -10593.332, 0.04196348, 0.03446561, -119792.48, -119792.48, 0.0, 9.998316, 9.999982 
1.16520494e+3, 3.1437853e+2, -222371.06, -17105.262, -3740.0222, 0.055341884, 0.080155894, -17037.14, -17037.14, 0.0, 9.998085, 10.000805 
1.17495775e+3, 1.2437835e+2, -1365341.9, -1719818.5, -82241.39, -0.030092334, 0.11878588, -1347190.8, 373912.34, 0.001589411, 10.003159, 9.998443 
1.1749736e+3, 1.3437629e+2, -1309399.1, -1642181.6, 35185.71, 0.019491695, 0.06823342, -1305719.6, 317403.44, 0.0008411694, 10.002856, 9.998455 
1.17498755e+3, 1.4437544e+2, -1230292.5, -1536717.9, -35037.047, -0.033976026, 0.13236108, -1226337.4, 298793.4, 0.0002831922, 10.002658, 9.998596 
1.1750009e+3, 1.5437363e+2, -1141423.4, -1441760.3, -42400.62, -0.06406063, 0.09065764, -1135552.1, 291595.34, 0.000036181405, 10.00259, 9.998607 
1.175014e+3, 1.6437216e+2, -1058308.8, -1314882.9, -73247.76, -0.05563915, 0.06904779, -1038870.4, 290290.56, 0.00000010132158, 10.002332, 9.998931 
1.1750272e+3, 1.7437111e+2, -1030446.0, -1245630.0, -69788.95, 0.009745385, 0.066282056, -1009794.0, 221376.5, 0.0, 10.001828, 9.998976 
1.17504e+3, 1.8437009e+2, -970986.3, -1154531.4, -74418.555, 0.037089296, 0.06383158, -944605.06, 188574.38, 0.0, 10.001513, 9.99908 
1.1750522e+3, 1.9436914e+2, -880643.44, -1056971.3, -78927.03, 0.012601131, 0.058811594, -850475.8, 184711.58, 0.0, 10.001446, 9.999108 
1.17506444e+3, 2.043682e+2, -815030.06, -964763.7, -104950.516, 0.007381596, 0.051395055, -760979.7, 176216.55, 0.0, 10.001182, 9.999197 
1.17507644e+3, 2.1436727e+2, -789889.3, -898611.6, -102551.52, 0.0282481, 0.034390148, -728181.75, 111024.31, 0.0, 10.000667, 9.999227 
1.17508836e+3, 2.243666e+2, -720270.5, -779832.06, -86107.805, 0.038052667, 0.032820392, -658939.0, 82273.52, 0.0, 10.000324, 9.999534 
1.1751006e+3, 2.3436631e+2, -637341.0, -683866.8, -82240.14, 0.033705346, 0.04701778, -575136.94, 68077.44, 0.0, 10.000198, 9.99958 
1.17511265e+3, 2.4436596e+2, -582732.9, -624792.75, -87639.03, 0.032968443, 0.06190082, -513635.9, 31582.48, 0.0, 9.999979, 9.999418 
1.17512465e+3, 2.5436547e+2, -533031.7, -548689.1, -91218.09, 0.03641793, 0.07082826, -449307.0, -2081.6501, 0.0, 9.99964, 9.999431 
1.1751367e+3, 2.6436502e+2, -460835.8, -424103.44, -82268.13, 0.032641035, 0.06709673, -358176.3, -8945.77, 0.0, 9.999295, 9.99978 
1.1751488e+3, 2.7436465e+2, -410611.88, -343892.75, -75413.75, 0.019704271, 0.048170228, -294789.63, -43556.758, 0.0, 9.998943, 9.999827 
1.1751614e+3, 2.8436464e+2, -379517.34, -322492.7, -43880.563, 0.012738018, 0.08450989, -298674.75, -145441.19, 0.0, 9.998675, 9.999431 
1.1751746e+3, 2.9436493e+2, -306384.88, -237670.84, -54693.37, 0.014019553, 0.17085697, -207438.63, -152204.95, 0.0, 9.998509, 9.999419 
1.17518835e+3, 3.0436334e+2, -232868.83, -92562.445, -17847.756, 0.021106165, 0.034340836, -90327.71, -90327.71, 0.0, 9.998316, 10.000175 
1.175203e+3, 3.14364e+2, -193273.14, 42408.273, -10332.535, 0.053407636, 0.07578643, 42860.395, 42860.395, 0.0, 9.998088, 10.001213 
1.18496105e+3, 1.2436459e+2, -1344763.4, -1723515.0, -62426.83, -0.0348212, 0.14083353, -1334739.3, 386499.16, 0.0017368259, 10.00336, 9.99832 
1.18497655e+3, 1.343622e+2, -1240373.5, -1623489.0, 56028.37, 0.009850984, 0.073541746, -1232347.8, 390913.44, 0.00092832, 10.003395, 9.998323 
1.1849903e+3, 1.4436123e+2, -1162699.5, -1507014.9, -20190.162, -0.049107805, 0.13039562, -1161519.6, 363750.78, 0.0003198089, 10.003137, 9.998568 
1.1850035e+3, 1.5435947e+2, -1160920.8, -1453447.1, -24643.084, -0.047506187, 0.09806512, -1158859.4, 268427.25, 0.0000435681, 10.002466, 9.998586 
1.1850163e+3, 1.6435805e+2, -1088915.4, -1325839.8, -51517.0, -0.03478568, 0.07907249, -1078198.3, 251101.39, 0.00000019883093, 10.002106, 9.998963 
1.18502915e+3, 1.7435697e+2, -979289.75, -1216384.9, -55774.453, -0.00021356331, 0.0698577, -966824.6, 264484.34, 0.0, 10.00216, 9.999016 
1.1850416e+3, 1.8435591e+2, -911042.6, -1124855.0, -64610.402, 0.017247535, 0.061647847, -893035.06, 240282.92, 0.0, 10.001922, 9.999085 
1.1850536e+3, 1.9435494e+2, -901291.8, -1066360.8, -59726.766, 0.009991854, 0.051597323, -881947.8, 153378.66, 0.0, 10.001303, 9.999113 
1.1850656e+3, 2.0435402e+2, -847678.25, -977772.6, -79349.48, 0.011388765, 0.044777904, -810121.94, 127213.086, 0.0, 10.000946, 9.999221 
1.1850771e+3, 2.1435317e+2, -749579.8, -875962.5, -82225.47, 0.024790198, 0.03612873, -709068.8, 130274.96, 0.0, 10.000931, 9.999254 
1.1850889e+3, 2.2435251e+2, -661897.4, -745358.56, -71277.26, 0.03059377, 0.029571153, -621033.25, 120316.73, 0.0, 10.000699, 9.999589 
1.1851006e+3, 2.3435207e+2, -634659.06, -676121.94, -69025.28, 0.026241904, 0.02129054, -583319.1, 60033.527, 0.0, 10.000189, 9.999638 
1.18511245e+3, 2.443517e+2, -616681.9, -646899.44, -74332.99, 0.026262848, 0.034530822, -555937.7, -10580.935, 0.0, 9.99977, 9.999367 
1.18512414e+3, 2.543514e+2, -561524.1, -568927.06, -76579.4, 0.03213155, 0.06859429, -488556.8, -41194.094, 0.0, 9.999474, 9.9993725 
1.185136e+3, 2.64351e+2, -464508.03, -422345.16, -68260.72, 0.032226823, 0.072553925, -371984.63, -22617.088, 0.0, 9.999256, 9.99981 
1.1851478e+3, 2.7435052e+2, -379936.66, -324821.88, -71565.53, 0.02433873, 0.038390048, -275691.38, -24320.988, 0.0, 9.999138, 9.999864 
1.1851601e+3, 2.8435043e+2, -354243.63, -320865.53, -38891.688, 0.015460542, 0.06834983, -295233.34, -141861.56, 0.0, 9.998895, 9.999335 
1.18517295e+3, 2.9435068e+2, -314857.25, -253514.52, -31015.76, 0.006175479, 0.16043474, -240565.81, -185193.05, 0.0, 9.998503, 9.999313 
1.1851864e+3, 3.043491e+2, -262090.28, -114698.6, 6762.3813, 0.013326306, 0.03413622, -114388.99, -114388.99, 0.0, 9.99815, 10.000103 
1.185201e+3, 3.1434983e+2, -221854.25, 42606.234, -8506.503, 0.06479947, 0.089653835, 42879.57, 42879.57, 0.0, 9.997831, 10.001337 
1.1949646e+3, 1.2435125e+2, -1353760.9, -1741094.8, -62789.227, -0.013795212, 0.16722171, -1343836.6, 377532.63, 0.0018922538, 10.003356, 9.998201 
1.1949796e+3, 1.343486e+2, -1249678.5, -1642988.5, 57293.1, -0.027376974, 0.08712928, -1241502.6, 381892.2, 0.00102056, 10.003395, 9.998189 
1.194993e+3, 1.4434744e+2, -1160428.9, -1503424.9, -43767.777, -0.09506131, 0.13281938, -1154932.0, 370473.63, 0.0003592124, 10.0031395, 9.998592 
1.19500645e+3, 1.543457e+2, -1158179.1, -1448636.6, -50529.742, 0.002323128, 0.097652435, -1149639.6, 277781.9, 0.00005194898, 10.002469, 9.998618 
1.1950192e+3, 1.6434428e+2, -1093257.9, -1335532.9, -51822.06, 0.031452987, 0.08206428, -1082638.8, 246795.8, 0.00000035173326, 10.002108, 9.998897 
1.1950311e+3, 1.7434324e+2, -983913.25, -1226298.1, -54075.76, -0.020222235, 0.08359274, -972396.25, 259047.38, 0.0, 10.002161, 9.998947 
1.19504295e+3, 1.8434216e+2, -902389.7, -1107405.1, -86903.38, -0.032957383, 0.06926259, -870509.8, 262943.03, 0.0, 10.001923, 9.999206 
1.1950548e+3, 1.9434102e+2, -891305.4, -1046495.25, -83743.55, 0.0035185064, 0.02989186, -854734.0, 180728.19, 0.0, 10.001305, 9.9992485 
1.1950665e+3, 2.0434014e+2, -849645.0, -982621.56, -81959.32, 0.018468935, 0.023521993, -810596.5, 126873.53, 0.0, 10.000948, 9.9991865 
1.1950779e+3, 2.1433967e+2, -752575.2, -882454.2, -83207.84, 0.006076788, 0.054234013, -711965.25, 127510.586, 0.0, 10.000931, 9.99921 
1.1950892e+3, 2.2433902e+2, -659337.44, -740127.7, -89647.09, 0.0029289247, 0.050061237, -601404.7, 140077.17, 0.0, 10.000698, 9.999626 
1.1951007e+3, 2.3433816e+2, -631505.2, -669878.44, -88336.3, 0.011474258, -0.0032318681, -560295.9, 83192.06, 0.0, 10.00019, 9.9996805 
1.1951121e+3, 2.4433772e+2, -618465.3, -651418.9, -85970.31, 0.019307164, 0.002313657, -547407.06, -1914.49, 0.0, 9.999773, 9.999335 
1.1951236e+3, 2.5433782e+2, -563133.4, -573779.5, -87051.34, 0.026832677, 0.07681122, -481242.5, -33746.984, 0.0, 9.999478, 9.999337 
1.1951353e+3, 2.6433745e+2, -470798.94, -436740.0, -72243.164, 0.033816446, 0.09103899, -379546.3, -30045.992, 0.0, 9.999261, 9.99971 
1.1951471e+3, 2.7433658e+2, -387136.2, -339962.7, -75128.68, 0.03954921, 0.026934206, -284805.22, -33298.258, 0.0, 9.999137, 9.999761 
1.1951592e+3, 2.843363e+2, -344376.3, -300422.9, -52145.34, 0.03168254, 0.039413914, -265812.4, -112302.89, 0.0, 9.998895, 9.999476 
1.1951715e+3, 2.9433674e+2, -303973.9, -231847.69, -44073.14, 0.0066267448, 0.13341416, -210963.55, -155455.47, 0.0, 9.998506, 9.999461 
1.1951846e+3, 3.043353e+2, -286322.75, -165924.61, -3835.1123, 0.012937327, 0.03262172, -165802.56, -165802.56, 0.0, 9.998154, 9.999749 
1.1951991e+3, 3.1433606e+2, -234806.66, 15398.599, -18387.666, 0.089608386, 0.12760636, 16742.693, 16742.693, 0.0, 9.997832, 10.00115 
1.20496824e+3, 1.2433744e+2, -1245347.6, -1687601.6, -70399.625, -0.023711205, 0.14472869, -1234411.6, 487092.44, 0.0020569195, 10.004098, 9.99821 
1.2049829e+3, 1.3433507e+2, -1258935.5, -1648721.9, 58487.016, -0.026792519, 0.09180621, -1250348.8, 373178.66, 0.0011183886, 10.003337, 9.998178 
1.2049959e+3, 1.4433393e+2, -1197275.6, -1521927.8, -38544.4, -0.10419877, 0.14232202, -1192762.3, 332775.78, 0.00040151636, 10.002891, 9.998584 
1.205009e+3, 1.5433207e+2, -1103356.4, -1422549.5, -48945.293, 0.00028022486, 0.09575681, -1096019.8, 331535.38, 0.000061428385, 10.002849, 9.998613 
1.2050215e+3, 1.6433063e+2, -1026472.75, -1303209.4, -46279.64, 0.032734893, 0.07696817, -1018938.4, 310629.94, 0.00000057087306, 10.002567, 9.998896 
1.2050332e+3, 1.7432967e+2, -1011426.1, -1239972.5, -43527.58, -0.018265694, 0.08675186, -1003416.8, 228159.94, 0.0, 10.001975, 9.998942 
1.2050448e+3, 1.843286e+2, -948860.9, -1124447.9, -79777.58, -0.03122356, 0.07310826, -918028.25, 215557.52, 0.0, 10.001581, 9.999252 
1.2050563e+3, 1.9432741e+2, -867203.56, -1028834.25, -83445.74, 0.0024776715, 0.024166383, -831853.9, 203741.5, 0.0, 10.001446, 9.999302 
1.2050675e+3, 2.0432663e+2, -809255.1, -952522.5, -75363.34, 0.015180061, 0.017613094, -776912.8, 160689.55, 0.0, 10.001181, 9.999281 
1.2050786e+3, 2.1432635e+2, -772728.06, -881262.1, -65976.41, 0.0012890667, 0.060316022, -741567.94, 98037.77, 0.0, 10.000746, 9.999308 
1.2050897e+3, 2.2432575e+2, -710915.94, -771125.2, -76377.68, -0.0016643951, 0.05722858, -658924.06, 82687.35, 0.0, 10.00037, 9.999571 
1.2051009e+3, 2.3432471e+2, -652699.9, -687035.2, -83819.69, 0.009474568, -0.008848384, -584307.8, 59312.0, 0.0, 10.000074, 9.999618 
1.205112e+3, 2.4432425e+2, -599220.94, -631132.56, -74551.56, 0.019675607, -0.0062980433, -538936.9, 6687.735, 0.0, 9.999859, 9.999433 
1.20512314e+3, 2.5432453e+2, -516695.88, -538831.3, -65063.9, 0.028567638, 0.07759339, -461765.06, -14140.198, 0.0, 9.999744, 9.999449 
1.2051346e+3, 2.643242e+2, -447238.75, -439004.13, -48594.492, 0.035009924, 0.09245511, -394352.84, -44723.418, 0.0, 9.999482, 9.999587 
1.20514624e+3, 2.7432305e+2, -411830.5, -367023.44, -54314.246, 0.038379718, 0.017138906, -330673.63, -79034.54, 0.0, 9.999034, 9.999624 
1.2051579e+3, 2.843227e+2, -362730.34, -295194.25, -33378.56, 0.03042826, 0.024713991, -281481.66, -127839.414, 0.0, 9.998709, 9.9996 
1.2051699e+3, 2.9432333e+2, -290439.06, -209374.72, -27116.152, 0.007825086, 0.12262499, -201140.69, -145502.44, 0.0, 9.998531, 9.999602 
1.20518275e+3, 3.04322e+2, -294303.53, -193078.19, 12599.331, 0.012633932, 0.03317376, -191533.55, -191533.55, 0.0, 9.9982, 9.999539 
1.2051969e+3, 3.1432244e+2, -261135.5, -865.75903, 9619.961, 0.08910272, 0.11992953, -510.67523, -510.67523, 0.0, 9.997669, 10.001116 
1.2149719e+3, 1.2432326e+2, -1236450.9, -1669607.9, -99707.06, -0.06505705, 0.07447256, -1214601.8, 507040.2, 0.0022312582, 10.0041, 9.998333 
1.2149867e+3, 1.3432164e+2, -1251531.9, -1633774.9, 29179.78, 0.010750188, 0.08745803, -1249317.1, 374341.1, 0.0012220372, 10.003339, 9.99828 
1.214999e+3, 1.4432077e+2, -1199710.6, -1527781.9, -42318.555, -0.07714033, 0.1595679, -1194339.9, 331327.03, 0.0004466493, 10.002893, 9.998544 
1.2150113e+3, 1.5431866e+2, -1106041.3, -1428812.9, -50758.473, -0.053425666, 0.09230154, -1098247.3, 329439.1, 0.00007201624, 10.002851, 9.9985695 
1.2150235e+3, 1.643171e+2, -1022210.06, -1295128.9, -67824.13, -0.031153552, 0.06360115, -1006284.2, 323416.4, 0.0000008702971, 10.002569, 9.99895 
1.2150354e+3, 1.7431627e+2, -1006942.5, -1231403.5, -66259.46, 0.004409606, 0.07967551, -988842.7, 242865.22, 0.0, 10.001977, 9.999001 
1.2150469e+3, 1.8431531e+2, -950439.06, -1128401.4, -86558.96, 0.020771652, 0.07385149, -915282.8, 218433.42, 0.0, 10.001583, 9.999226 
1.21505775e+3, 1.9431418e+2, -868846.3, -1033252.4, -88826.945, 0.006830241, 0.033684514, -830022.25, 205703.5, 0.0, 10.001449, 9.99927 
1.2150686e+3, 2.0431346e+2, -793772.5, -921377.0, -91605.37, 0.0014058979, 0.026121465, -745940.2, 191791.55, 0.0, 10.0011835, 9.999494 
1.2150795e+3, 2.143133e+2, -756161.1, -847307.75, -82911.46, 0.009272411, 0.055313874, -707123.5, 132609.53, 0.0, 10.000747, 9.99954 
1.2150903e+3, 2.2431272e+2, -720915.25, -792349.6, -88308.164, 0.015437868, 0.05205643, -661374.6, 80363.55, 0.0, 10.000371, 9.999426 
1.21510096e+3, 2.3431168e+2, -664189.75, -711960.4, -94873.766, 0.019170092, 0.0031498722, -590240.8, 53507.387, 0.0, 10.000078, 9.999446 
1.2151118e+3, 2.4431124e+2, -583611.44, -599592.75, -79070.055, 0.026210958, 0.007123569, -512129.28, 33623.54, 0.0, 9.999862, 9.999648 
1.215123e+3, 2.543116e+2, -499386.84, -503104.72, -68826.81, 0.037149314, 0.07197409, -432393.88, 15356.772, 0.0, 9.999744, 9.999694 
1.21513404e+3, 2.6431122e+2, -457108.28, -459794.75, -64081.137, 0.03611092, 0.07806228, -394356.3, -44601.43, 0.0, 9.999482, 9.999445 
1.215145e+3, 2.7430996e+2, -423180.1, -391637.56, -69966.445, 0.018936863, 0.0077068293, -335686.88, -83919.93, 0.0, 9.999037, 9.9994545 
1.2151565e+3, 2.8430966e+2, -355860.22, -281941.0, -39449.637, 0.0093418425, 0.022206713, -264842.44, -111072.14, 0.0, 9.998713, 9.99969 
1.2151686e+3, 2.9431045e+2, -282521.44, -193541.67, -33073.094, 0.010748585, 0.12776738, -182595.3, -126831.586, 0.0, 9.998533, 9.99971 
1.2151809e+3, 3.043091e+2, -297673.88, -200750.8, -5625.8423, 0.013873923, 0.03709256, -200425.34, -200425.34, 0.0, 9.998202, 9.999487 
1.21519424e+3, 3.1430903e+2, -252056.92, 17087.41, -7986.2437, 0.059558272, 0.07358029, 17324.176, 17324.176, 0.0, 9.997672, 10.001238 
1.2249757e+3, 1.243102e+2, -1243775.3, -1680925.9, -72525.12, -0.087724164, 0.058387395, -1232057.3, 489712.28, 0.0024143148, 10.0040865, 9.9982605 
1.2249903e+3, 1.3430859e+2, -1207240.5, -1624141.5, 39252.54, 0.01801655, 0.082013294, -1203577.0, 420209.22, 0.0013311396, 10.003696, 9.998172 
1.2250022e+3, 1.4430767e+2, -1136056.6, -1487886.4, -24392.33, -0.07657555, 0.15368308, -1134373.5, 391421.5, 0.0004943066, 10.003294, 9.998623 
1.2250142e+3, 1.5430573e+2, -1098368.8, -1414812.1, -22655.05, -0.05966528, 0.090826765, -1096755.0, 331057.78, 0.000083587045, 10.00286, 9.99866 
1.2250259e+3, 1.643042e+2, -1041917.94, -1308411.1, -46291.387, -0.041489586, 0.06181487, -1034105.9, 295720.72, 0.0000012652538, 10.002451, 9.998916 
1.2250372e+3, 1.7430325e+2, -995868.2, -1230310.9, -53392.58, -0.005183872, 0.07163444, -984281.1, 247554.1, 0.0, 10.002072, 9.998961 
1.22504845e+3, 1.843023e+2, -925622.2, -1112444.1, -65486.02, 0.016402368, 0.067713454, -904954.1, 228889.44, 0.0, 10.001738, 9.99926 
1.2250592e+3, 1.9430135e+2, -863961.7, -1026155.2, -61745.027, 0.012689073, 0.040551286, -843131.4, 192720.05, 0.0, 10.001463, 9.999311 
1.2250698e+3, 2.0430066e+2, -797936.0, -917273.3, -74891.625, 0.010562671, 0.03140423, -761849.2, 176007.7, 0.0, 10.001129, 9.999548 
1.2250802e+3, 2.1430035e+2, -756806.8, -841120.9, -80139.09, 0.012938366, 0.040326796, -708412.8, 131446.44, 0.0, 10.000715, 9.999598 
1.2250907e+3, 2.2429982e+2, -715941.9, -788754.3, -80796.71, 0.018788101, 0.03653157, -663728.0, 78136.21, 0.0, 10.0004015, 9.999435 
1.2251012e+3, 2.3429903e+2, -643227.2, -700867.3, -74328.87, 0.028661571, 0.012594584, -592326.6, 51545.652, 0.0, 10.000218, 9.999454 
1.2251118e+3, 2.4429867e+2, -568788.44, -587924.3, -58418.582, 0.035762947, 0.02012244, -519159.44, 26716.963, 0.0, 9.999945, 9.999688 
1.22512266e+3, 2.542988e+2, -523411.88, -509562.38, -63486.934, 0.038754243, 0.061103262, -452623.66, -4748.1343, 0.0, 9.999558, 9.999739 
1.2251334e+3, 2.642984e+2, -485560.72, -472003.13, -63144.75, 0.031370327, 0.06206079, -415274.34, -65394.504, 0.0, 9.999282, 9.999456 
1.22514404e+3, 2.7429736e+2, -407689.94, -382942.44, -57028.297, 0.01012331, 0.010283164, -336960.94, -85070.43, 0.0, 9.99914, 9.999463 
1.2251553e+3, 2.8429708e+2, -333242.84, -271826.13, -23285.49, 0.007686953, 0.02899928, -263995.97, -110102.375, 0.0, 9.998873, 9.999681 
1.2251672e+3, 2.9429775e+2, -296392.38, -201437.05, -25369.61, 0.030535778, 0.122044526, -195084.0, -139195.92, 0.0, 9.998445, 9.999699 
1.2251792e+3, 3.0429646e+2, -322723.75, -211507.52, -6377.453, 0.02362929, 0.039125644, -211143.02, -211143.02, 0.0, 9.998025, 9.999497 
1.2251915e+3, 3.1429616e+2, -249272.6, 38012.69, -4118.8086, 0.02607602, 0.048642825, 38071.73, 38071.73, 0.0, 9.997606, 10.001413 
1.2349797e+3, 1.242984e+2, -1262851.9, -1720767.8, -86808.69, -0.09149452, 0.1004375, -1246947.6, 474938.1, 0.0026041055, 10.0040865, 9.997988 
1.2349936e+3, 1.3429597e+2, -1229456.4, -1670953.3, 24402.318, -0.0053640963, 0.0752706, -1228111.8, 395798.6, 0.0014447864, 10.003698, 9.99785 
1.2350051e+3, 1.4429477e+2, -1122681.0, -1461035.0, -41126.547, -0.10313555, 0.124569856, -1117753.8, 408167.94, 0.00054404186, 10.003297, 9.998807 
1.2350175e+3, 1.542933e+2, -1082773.6, -1383132.9, -39458.6, -0.019661382, 0.09157253, -1077676.4, 350257.28, 0.00009593835, 10.002862, 9.998878 
1.23502865e+3, 1.6429195e+2, -1050301.3, -1326685.9, -61113.047, 0.00042388003, 0.07217473, -1037391.2, 292554.6, 0.0000017602412, 10.002454, 9.99879 
1.2350389e+3, 1.7429067e+2, -1005385.06, -1251296.6, -67992.875, -0.04684917, 0.062434465, -987837.6, 244120.64, 0.0, 10.002076, 9.998816 
1.2350496e+3, 1.8428963e+2, -918255.25, -1098508.6, -76757.586, -0.044167724, 0.05454044, -889998.9, 243968.58, 0.0, 10.001742, 9.999354 
1.2350608e+3, 1.9428897e+2, -855668.7, -1009588.44, -72532.17, 0.01937118, 0.045186173, -826875.4, 209096.66, 0.0, 10.001464, 9.999426 
1.2350713e+3, 2.0428827e+2, -805249.5, -932714.5, -90615.42, 0.04175097, 0.034106623, -758198.5, 179779.02, 0.0, 10.001129, 9.999442 
1.23508096e+3, 2.1428756e+2, -764739.94, -858624.0, -96143.03, 0.011824801, 0.015121848, -704691.1, 135293.02, 0.0, 10.000718, 9.999476 
1.23509094e+3, 2.2428703e+2, -704314.3, -765796.44, -88524.125, 0.007965352, 0.010385961, -641345.56, 100643.64, 0.0, 10.000405, 9.999592 
1.23510145e+3, 2.3428676e+2, -630588.44, -675093.25, -81126.484, 0.037748393, 0.02006716, -568717.9, 75274.055, 0.0, 10.000219, 9.999631 
1.23511195e+3, 2.4428646e+2, -577953.25, -607350.2, -72375.96, 0.048067536, 0.03337725, -518798.3, 27196.912, 0.0, 9.999945, 9.999555 
1.23512216e+3, 2.5428617e+2, -533999.06, -532405.44, -77296.95, 0.032303274, 0.04461527, -455901.22, -7901.7886, 0.0, 9.999561, 9.999581 
1.2351326e+3, 2.6428574e+2, -474836.63, -450509.16, -68092.14, 0.019529436, 0.043882266, -393502.84, -43498.52, 0.0, 9.999284, 9.999604 
1.2351432e+3, 2.742852e+2, -395613.3, -358231.78, -61331.574, 0.011581439, 0.025052894, -312806.2, -60796.277, 0.0, 9.99914, 9.999634 
1.2351543e+3, 2.8428498e+2, -339997.34, -286216.16, -37856.707, 0.02436561, 0.04536626, -266671.47, -112659.07, 0.0, 9.998873, 9.999583 
1.23516604e+3, 2.9428518e+2, -304856.03, -219162.9, -40101.516, 0.06280684, 0.10443814, -203324.22, -147312.58, 0.0, 9.998444, 9.9995775 
1.2351774e+3, 3.0428407e+2, -319218.06, -204159.39, -20788.963, 0.03814579, 0.03800181, -200518.42, -200518.42, 0.0, 9.998024, 9.999549 
1.2351887e+3, 3.142838e+2, -235506.75, 66185.98, -17242.535, -0.01074272, 0.0507372, 67168.234, 67168.234, 0.0, 9.997607, 10.001607 
1.2449839e+3, 1.2428699e+2, -1232207.4, -1709216.1, -64996.11, -0.10328662, 0.14249828, -1223509.8, 498488.38, 0.0027990257, 10.004314, 9.997955 
1.2449975e+3, 1.3428403e+2, -1192186.8, -1661746.4, 62680.01, -0.0008733273, 0.07181, -1183963.9, 440063.2, 0.0015621677, 10.003993, 9.997771 
1.24500856e+3, 1.4428252e+2, -1096584.4, -1458139.1, -10156.802, -0.108277686, 0.0989864, -1096299.3, 429741.78, 0.00059554225, 10.003519, 9.998719 
1.24502026e+3, 1.5428123e+2, -1096165.6, -1398992.1, -32801.27, -0.018780645, 0.09114073, -1092653.4, 335398.38, 0.00010892916, 10.002812, 9.998792 
1.2450311e+3, 1.6427992e+2, -1059491.0, -1324623.1, -48346.746, 0.004535351, 0.07937153, -1050950.1, 279113.22, 0.0000023447426, 10.002364, 9.998846 
1.2450411e+3, 1.7427856e+2, -972419.44, -1227853.8, -38747.773, -0.04197836, 0.05564944, -966671.06, 265404.88, 0.0, 10.002272, 9.998882 
1.24505155e+3, 1.8427747e+2, -887403.44, -1087431.4, -50636.066, -0.04210142, 0.040815987, -875315.6, 258769.7, 0.0, 10.001971, 9.999319 
1.2450621e+3, 1.9427681e+2, -871206.06, -1021632.0, -58902.754, 0.013282438, 0.033901397, -850886.2, 185204.22, 0.0, 10.001378, 9.999384 
1.24507226e+3, 2.0427611e+2, -828554.25, -944035.94, -74365.234, 0.036891777, 0.02442303, -792145.25, 145950.9, 0.0, 10.000971, 9.99944 
1.2450818e+3, 2.142754e+2, -751391.25, -851659.56, -70851.35, 0.020243352, 0.00629015, -714730.56, 125372.15, 0.0, 10.000809, 9.999479 
1.24509156e+3, 2.2427489e+2, -681639.25, -753243.3, -63346.895, 0.019027773, 0.0028624726, -644677.1, 97430.414, 0.0, 10.000555, 9.999605 
1.2451017e+3, 2.3427466e+2, -634989.8, -674943.06, -68237.31, 0.03736557, 0.013838005, -583865.1, 60244.95, 0.0, 10.000181, 9.99965 
1.2451117e+3, 2.4427436e+2, -590038.7, -616957.6, -63295.16, 0.042332776, 0.027558247, -538787.8, 7325.8438, 0.0, 9.99988, 9.999519 
1.2451217e+3, 2.5427404e+2, -520452.56, -530046.56, -60444.535, 0.029498486, 0.038946386, -464614.97, -16496.44, 0.0, 9.999673, 9.999542 
1.24513194e+3, 2.6427367e+2, -458624.5, -439304.16, -50164.55, 0.021349544, 0.048410017, -397878.13, -47755.254, 0.0, 9.999382, 9.999633 
1.2451424e+3, 2.7427337e+2, -416348.25, -363959.75, -53300.836, 0.02007772, 0.05084263, -330764.47, -78638.09, 0.0, 9.9989805, 9.99967 
1.2451531e+3, 2.8427318e+2, -377633.66, -304302.7, -35632.72, 0.033027094, 0.06663853, -289840.4, -135711.19, 0.0, 9.998615, 9.999582 
1.2451643e+3, 2.9427302e+2, -328053.8, -230566.31, -31212.191, 0.06282907, 0.0917595, -221429.55, -165297.95, 0.0, 9.998286, 9.999574 
1.2451753e+3, 3.0427206e+2, -337167.75, -221910.64, -12119.257, 0.034003608, 0.049302325, -220650.1, -220650.1, 0.0, 9.997941, 9.999466 
1.2451864e+3, 3.1427184e+2, -240028.33, 65258.723, -17552.768, -0.005138517, 0.07156516, 66264.625, 66264.625, 0.0, 9.997572, 10.0016165 
1.254988e+3, 1.2427609e+2, -1218258.1, -1681000.4, -76190.97, -0.12119312, 0.18757527, -1206036.0, 516069.7, 0.0029987288, 10.004317, 9.99815 
1.2550019e+3, 1.3427284e+2, -1180960.3, -1639153.8, 50143.434, 0.03077963, 0.0723999, -1175536.9, 448598.5, 0.0016831512, 10.003996, 9.997926 
1.2550122e+3, 1.4427102e+2, -1121439.0, -1510498.8, -35946.34, -0.09326984, 0.07732385, -1118145.6, 408006.4, 0.0006488858, 10.003521, 9.998359 
1.2550227e+3, 1.5426953e+2, -1122908.6, -1455573.6, -59809.91, -0.05710013, 0.08896689, -1112482.3, 315684.38, 0.00012258759, 10.002816, 9.998403 
1.2550332e+3, 1.6426817e+2, -1042887.2, -1291769.8, -54337.027, -0.029402575, 0.08346577, -1031541.4, 298637.44, 0.0000030126384, 10.00237, 9.99907 
1.2550439e+3, 1.7426701e+2, -952858.06, -1188241.0, -42558.93, 0.008085668, 0.051612876, -945399.44, 286788.25, 0.0, 10.0022745, 9.999154 
1.255054e+3, 1.8426591e+2, -898838.06, -1111612.8, -72054.266, 0.020978348, 0.027060565, -876733.8, 257463.03, 0.0, 10.001972, 9.999153 
1.2550633e+3, 1.9426489e+2, -884403.44, -1050218.0, -81760.87, -0.005730323, 0.006499694, -850869.94, 185336.38, 0.0, 10.001383, 9.999186 
1.2550728e+3, 2.0426418e+2, -821237.6, -930224.7, -82113.555, -0.0040543606, 0.0019757578, -777180.75, 161031.89, 0.0, 10.000976, 9.999534 
1.2550828e+3, 2.142639e+2, -742810.0, -834528.56, -77210.36, 0.03747293, 0.013901991, -698866.6, 141348.02, 0.0, 10.000811, 9.999597 
1.2550925e+3, 2.2426343e+2, -690310.8, -771469.25, -77267.81, 0.051192936, 0.014201075, -643614.7, 98604.45, 0.0, 10.000555, 9.99948 
1.2551019e+3, 2.3426272e+2, -644468.56, -695447.6, -82250.06, 0.027276762, -0.0060047554, -583848.94, 60377.734, 0.0, 10.000183, 9.999508 
1.2551114e+3, 2.4426234e+2, -585807.8, -609145.3, -71092.85, 0.018310191, 0.0025458743, -525432.44, 20799.105, 0.0, 9.999883, 9.999573 
1.2551215e+3, 2.542624e+2, -515441.72, -520140.0, -67367.48, 0.029885817, 0.0440097, -450382.44, -2149.517, 0.0, 9.999674, 9.999611 
1.2551315e+3, 2.6426223e+2, -464380.7, -451809.7, -63823.766, 0.035877556, 0.07517353, -393962.66, -43727.066, 0.0, 9.999383, 9.999547 
1.2551415e+3, 2.7426192e+2, -422537.66, -377624.13, -67091.95, 0.033664413, 0.08653849, -329330.38, -77090.3, 0.0, 9.998982, 9.999576 
1.2551518e+3, 2.8426158e+2, -371759.84, -293213.13, -46914.16, 0.032774303, 0.091838464, -271303.7, -117059.37, 0.0, 9.998618, 9.999658 
1.2551624e+3, 2.942612e+2, -321257.72, -217657.6, -42359.73, 0.032870278, 0.08444827, -202542.83, -146294.47, 0.0, 9.99829, 9.999661 
1.255173e+3, 3.0426052e+2, -350446.94, -250251.78, -24750.809, 0.011949591, 0.07318037, -244471.19, -244471.19, 0.0, 9.997944, 9.99927 
1.2551843e+3, 3.1426027e+2, -251435.0, 41429.36, -28081.855, 0.035872784, 0.1148356, 44097.73, 44097.73, 0.0, 9.997572, 10.001453 
1.2649925e+3, 1.2426485e+2, -1148064.6, -1648463.6, -62978.76, -0.122237295, 0.1587048, -1140260.0, 581954.44, 0.0032038123, 10.004807, 9.998137 
1.2650059e+3, 1.342618e+2, -1206399.4, -1658728.9, 43652.43, 0.044628985, 0.06936458, -1202225.1, 422017.06, 0.0018081634, 10.003853, 9.99786 
1.2650156e+3, 1.442599e+2, -1160879.9, -1538645.3, -31772.43, -0.09309195, 0.07352646, -1158226.3, 368033.7, 0.0007044779, 10.003291, 9.998276 
1.2650256e+3, 1.5425818e+2, -1065535.3, -1437634.4, -32661.102, -0.05835975, 0.07095757, -1062690.1, 365586.97, 0.00013709594, 10.003253, 9.998315 
1.2650357e+3, 1.6425678e+2, -965083.06, -1250832.3, -24809.182, -0.029036585, 0.06350619, -962945.06, 367344.75, 0.0000037895563, 10.002891, 9.999099 
1.2650461e+3, 1.742558e+2, -977736.94, -1195607.0, -30934.773, 0.015938846, 0.04627129, -973429.75, 258866.75, 0.0, 10.002085, 9.999193 
1.2650558e+3, 1.8425472e+2, -959224.9, -1148701.4, -62155.43, 0.029936457, 0.025062779, -940655.44, 193650.05, 0.0, 10.001594, 9.999081 
1.2650646e+3, 1.942535e+2, -869596.8, -1052038.4, -63216.82, -0.005359116, -0.0070435293, -849832.94, 186484.58, 0.0, 10.001524, 9.9991045 
1.2650739e+3, 2.0425278e+2, -772465.9, -899803.8, -60162.832, -0.0062301345, -0.011807431, -748537.44, 189786.77, 0.0, 10.001282, 9.999594 
1.2650836e+3, 2.1425271e+2, -739392.75, -824655.3, -59098.895, 0.041076396, 0.015172476, -709153.56, 131170.13, 0.0, 10.0008, 9.999669 
1.2650931e+3, 2.242523e+2, -712225.5, -789537.1, -57915.957, 0.05690899, 0.020647151, -681249.94, 61077.688, 0.0, 10.000438, 9.999413 
1.2651019e+3, 2.3425145e+2, -642791.4, -703462.3, -58731.42, 0.0300884, -0.0075719827, -607023.75, 37313.46, 0.0, 10.000234, 9.999429 
1.2651113e+3, 2.4425101e+2, -573294.94, -598666.75, -46515.563, 0.020865273, -0.0016004584, -537766.44, 8576.34, 0.0, 9.999949, 9.999612 
1.2651211e+3, 2.5425112e+2, -528130.2, -520544.8, -44870.5, 0.035305377, 0.044603936, -479307.0, -30964.121, 0.0, 9.999563, 9.999661 
1.2651308e+3, 2.6425105e+2, -492778.38, -475958.78, -43630.535, 0.038917735, 0.08103948, -439934.94, -89589.61, 0.0, 9.999233, 9.999453 
1.2651403e+3, 2.7425072e+2, -430546.47, -393033.47, -48360.227, 0.027866382, 0.097594924, -359919.78, -107568.74, 0.0, 9.998979, 9.999472 
1.2651503e+3, 2.842503e+2, -362349.13, -284192.9, -31027.89, 0.022420064, 0.10052758, -273372.84, -119016.63, 0.0, 9.998665, 9.999697 
1.2651606e+3, 2.942499e+2, -321794.22, -212101.48, -29490.77, 0.023170406, 0.08455914, -204675.63, -148315.25, 0.0, 9.998262, 9.999713 
1.2651707e+3, 3.0424955e+2, -360015.94, -257101.86, -6851.8516, 0.0027043484, 0.107065104, -256647.69, -256647.69, 0.0, 9.997889, 9.999249 
1.2651819e+3, 3.1424916e+2, -253271.13, 37361.46, 4516.0166, 0.032746226, 0.13504434, 37431.613, 37431.613, 0.0, 9.997573, 10.001424 
1.2749976e+3, 1.24253385e+2, -1163873.9, -1680945.5, -96347.72, -0.10573227, 0.058069043, -1146504.5, 575818.8, 0.00341522, 10.004806, 9.997914 
1.2750098e+3, 1.3425098e+2, -1225933.3, -1700074.0, 7341.612, 0.040530153, 0.061831396, -1225819.6, 398527.3, 0.0019377389, 10.003856, 9.997576 
1.2750186e+3, 1.4424922e+2, -1147155.1, -1512077.0, -36358.117, -0.108313404, 0.08774119, -1143567.9, 382795.97, 0.00076273916, 10.003297, 9.998456 
1.2750293e+3, 1.5424725e+2, -1050333.8, -1407165.6, -34407.457, -0.023820385, 0.03815845, -1047046.25, 381336.34, 0.0001526722, 10.003255, 9.998523 
1.275039e+3, 1.6424577e+2, -976647.6, -1275465.1, -53489.86, 0.0043870914, 0.020044295, -967361.25, 363034.7, 0.000004722807, 10.0028925, 9.99893 
1.275048e+3, 1.7424497e+2, -990705.44, -1223760.1, -61767.523, -0.018010642, 0.039136793, -975347.06, 257054.88, 0.0, 10.0020895, 9.998999 
1.275057e+3, 1.8424395e+2, -957384.25, -1146442.3, -67355.305, -0.015112945, 0.034552768, -935842.25, 198568.61, 0.0, 10.001598, 9.999094 
1.2750664e+3, 1.9424267e+2, -866912.3, -1047333.56, -66002.44, 0.013478082, -0.006607877, -845345.1, 191078.48, 0.0, 10.001527, 9.999136 
1.2750755e+3, 2.0424192e+2, -770933.8, -897064.94, -77574.35, 0.029302925, -0.016724782, -734024.1, 204406.42, 0.0, 10.001283, 9.999613 
1.2750843e+3, 2.1424186e+2, -737422.7, -821520.2, -77692.15, 0.030884538, 0.009630196, -691130.25, 149299.4, 0.0, 10.000803, 9.99969 
1.2750933e+3, 2.2424152e+2, -712845.9, -791854.3, -66686.086, 0.03601732, 0.021535305, -674841.3, 67591.65, 0.0, 10.000441, 9.999395 
1.2751023e+3, 2.3424082e+2, -643929.7, -706379.9, -66288.48, 0.04497415, 0.008880726, -601880.1, 42561.527, 0.0, 10.000235, 9.999409 
1.2751116e+3, 2.4424037e+2, -571908.25, -596363.06, -60359.992, 0.048787497, 0.014993567, -522549.66, 23897.64, 0.0, 9.999951, 9.999627 
1.2751207e+3, 2.542403e+2, -525915.7, -516876.13, -58813.19, 0.0448113, 0.04075836, -462409.3, -13960.784, 0.0, 9.999565, 9.999685 
1.2751299e+3, 2.642401e+2, -499613.1, -491429.4, -52738.434, 0.030419938, 0.066835664, -442624.3, -92172.13, 0.0, 9.999237, 9.999346 
1.275139e+3, 2.7423963e+2, -438146.63, -410070.2, -56608.75, 0.0035567745, 0.08572797, -365784.97, -113325.65, 0.0, 9.998981, 9.999353 
1.2751487e+3, 2.8423923e+2, -361693.22, -283704.94, -44485.67, 0.0019200327, 0.09385447, -263542.34, -109077.305, 0.0, 9.998667, 9.9997 
1.2751588e+3, 2.9423895e+2, -320954.47, -210195.88, -43499.16, 0.031255715, 0.091202, -195154.69, -138686.64, 0.0, 9.9982605, 9.999727 
1.2751687e+3, 3.0423906e+2, -350928.75, -237459.95, -17751.787, 0.0045646057, 0.15013058, -234747.58, -234747.58, 0.0, 9.997884, 9.999387 
1.2751791e+3, 3.1423843e+2, -248419.4, 48438.957, -3057.6763, -0.012533133, 0.1413315, 48470.45, 48470.45, 0.0, 9.997567, 10.001503 
1.2850022e+3, 1.24243e+2, -1217426.9, -1705594.5, -79851.52, -0.0989126, 0.026228733, -1204697.3, 517726.2, 0.0036338656, 10.004435, 9.997923 
1.2850139e+3, 1.3424054e+2, -1157105.1, -1672054.3, 38479.3, 0.04089409, 0.031233948, -1154245.6, 470201.9, 0.002072192, 10.004353, 9.997528 
1.2850222e+3, 1.4423881e+2, -1055281.9, -1469438.3, -951.80096, -0.122310236, 0.061894156, -1055279.6, 471184.9, 0.00082385837, 10.003938, 9.99844 
1.2850325e+3, 1.5423708e+2, -1081346.3, -1423819.1, -16677.693, -0.014575493, 0.037378255, -1080536.0, 347945.4, 0.00016942424, 10.003051, 9.998507 
1.2850419e+3, 1.6423562e+2, -1035874.06, -1308693.1, -39373.813, 0.015475597, 0.02554697, -1030305.25, 300189.5, 0.00000585612, 10.002506, 9.998887 
1.28505e+3, 1.742346e+2, -944378.8, -1206230.0, -36627.492, -0.033218715, 0.027480919, -939351.94, 293150.97, 0.0, 10.002429, 9.998955 
1.2850587e+3, 1.8423353e+2, -885549.2, -1115773.1, -35433.59, -0.034572355, 0.021404758, -880219.0, 254293.45, 0.0, 10.0021105, 9.999057 
1.285068e+3, 1.9423242e+2, -879545.5, -1057260.0, -39346.9, 0.01918646, -0.00030289104, -871223.56, 165300.33, 0.0, 10.001458, 9.9991 
1.2850767e+3, 2.0423168e+2, -810792.56, -918858.75, -53494.758, 0.042062, -0.006712884, -788791.0, 149739.86, 0.0, 10.001021, 9.999588 
1.2850851e+3, 2.1423143e+2, -728686.1, -819580.8, -56847.35, 0.026134545, 0.0019137171, -701352.4, 139179.3, 0.0, 10.000874, 9.999668 
1.2850936e+3, 2.2423103e+2, -687614.0, -782743.0, -47616.793, 0.025943717, 0.0106639275, -667875.1, 74660.37, 0.0, 10.000628, 9.999367 
1.2851027e+3, 2.3423044e+2, -643646.44, -709444.8, -48518.367, 0.045674272, 0.014027281, -617924.94, 26618.344, 0.0, 10.000251, 9.999379 
1.2851115e+3, 2.4423002e+2, -581612.8, -604252.9, -46735.24, 0.05240451, 0.024408493, -544846.2, 1702.6107, 0.0, 9.999899, 9.9995985 
1.2851202e+3, 2.542298e+2, -525533.2, -519786.06, -49665.57, 0.040929325, 0.03993589, -472911.0, -24359.902, 0.0, 9.999582, 9.999658 
1.285129e+3, 2.6422957e+2, -497572.2, -492233.78, -40982.004, 0.02292834, 0.06161192, -453834.16, -103278.92, 0.0, 9.999259, 9.999329 
1.285138e+3, 2.7422908e+2, -447285.16, -416097.03, -37746.23, -0.0022568041, 0.08154529, -390850.53, -138288.22, 0.0, 9.998926, 9.999339 
1.2851472e+3, 2.842286e+2, -378908.47, -295869.13, -26653.059, -0.0010916134, 0.08482614, -288050.5, -133481.69, 0.0, 9.998566, 9.999664 
1.285157e+3, 2.942282e+2, -336906.25, -221538.73, -30301.352, 0.03226067, 0.07470413, -214064.31, -157491.2, 0.0, 9.998167, 9.999694 
1.2851664e+3, 3.0422866e+2, -369057.75, -224764.75, -6853.0894, 0.0032284874, 0.15990718, -224440.0, -224440.0, 0.0, 9.997668, 9.999577 
1.2851763e+3, 3.1422797e+2, -317997.2, 24831.217, 14244.623, -0.020401021, 0.123334736, 25422.066, 25422.066, 0.0, 9.997048, 10.001591 
1.2950066e+3, 1.2423377e+2, -1200755.6, -1672089.0, -81025.766, -0.10131476, 0.06446401, -1187215.6, 535298.0, 0.0038599654, 10.004438, 9.998153 
1.2950182e+3, 1.3423058e+2, -1144205.6, -1645515.9, 34946.19, 0.04498599, -0.021343121, -1141781.3, 482761.94, 0.0022114497, 10.004353, 9.99771 
1.295026e+3, 1.4422873e+2, -1070345.3, -1501204.8, -32379.172, -0.13622642, -0.0033660159, -1067925.5, 458635.88, 0.00088770315, 10.003939, 9.998221 
1.2950353e+3, 1.542277e+2, -1097860.1, -1459408.4, -50483.72, -0.030387484, 0.067653656, -1090943.4, 337629.8, 0.0001872894, 10.003056, 9.9982605 
1.2950441e+3, 1.642264e+2, -1029587.2, -1297442.6, -45223.13, 0.004067069, 0.07964427, -1022158.06, 308427.7, 0.0000072252774, 10.002513, 9.998962 
1.2950525e+3, 1.7422478e+2, -936707.1, -1191341.3, -39815.41, -0.030653473, 0.011557464, -930626.7, 301972.22, 0.0, 10.002432, 9.999057 
1.295061e+3, 1.8422353e+2, -891783.8, -1129455.1, -58911.273, -0.029575821, -0.014051361, -877982.94, 256627.03, 0.0, 10.002112, 9.998962 
1.2950693e+3, 1.9422276e+2, -886539.25, -1073059.5, -64358.723, 0.011624623, 0.01153934, -866487.9, 170130.33, 0.0, 10.001462, 9.99899 
1.2950778e+3, 2.0422205e+2, -814879.6, -928654.94, -60879.68, 0.03190967, 0.01778969, -788445.4, 150179.6, 0.0, 10.001026, 9.999519 
1.295086e+3, 2.142214e+2, -732721.8, -828766.56, -62585.023, 0.026442137, -0.0075158626, -701857.94, 138771.61, 0.0, 10.000876, 9.999604 
1.2950942e+3, 2.2422083e+2, -690669.7, -789758.56, -61386.73, 0.026220568, -0.011309626, -661328.25, 81306.89, 0.0, 10.00063, 9.999319 
1.2951027e+3, 2.3422036e+2, -646227.4, -715669.7, -62562.453, 0.032030005, 0.008038143, -609397.0, 35244.875, 0.0, 10.000254, 9.999336 
1.2951112e+3, 2.4421996e+2, -586423.56, -615303.8, -58510.25, 0.031979933, 0.026774568, -540597.9, 6049.4634, 0.0, 9.999902, 9.999522 
1.2951197e+3, 2.5421968e+2, -530686.4, -531328.44, -60795.945, 0.024192067, 0.042296313, -470210.6, -21560.035, 0.0, 9.999584, 9.999578 
1.2951283e+3, 2.642194e+2, -492808.56, -483196.34, -52406.668, 0.016239949, 0.06494505, -435375.84, -84721.28, 0.0, 9.999262, 9.999391 
1.295137e+3, 2.74219e+2, -441863.38, -404804.94, -48983.348, 0.008414871, 0.08442829, -370963.38, -118303.12, 0.0, 9.998924, 9.999418 
1.295146e+3, 2.8421837e+2, -384252.4, -307100.9, -40041.684, 0.011400706, 0.07389951, -290076.06, -135408.34, 0.0, 9.998565, 9.999589 
1.2951551e+3, 2.9421765e+2, -342006.6, -233655.75, -43674.457, 0.026342377, 0.037443772, -218243.58, -161567.88, 0.0, 9.998172, 9.999609 
1.2951641e+3, 3.0421835e+2, -351833.3, -189863.1, -28263.123, -0.001241929, 0.138677, -185072.97, -185072.97, 0.0, 9.997671, 9.999816 
1.2951736e+3, 3.1421778e+2, -313626.78, 35983.176, -5248.148, 0.0052920245, 0.08906055, 36061.938, 36061.938, 0.0, 9.997039, 10.001673 
1.305011e+3, 1.24224626e+2, -1131249.0, -1628966.8, -54090.082, -0.11610303, 0.06482677, -1125438.5, 597164.7, 0.0040922295, 10.00488, 9.998236 
1.3050225e+3, 1.3422163e+2, -1173164.3, -1655640.5, 45998.895, 0.05265898, -0.0063719973, -1168817.9, 455812.94, 0.0023548575, 10.004139, 9.997744 
1.3050297e+3, 1.4421973e+2, -1119408.9, -1529843.6, -25429.637, -0.14191698, 0.0072020246, -1117839.4, 408809.97, 0.0009538797, 10.003624, 9.998176 
1.3050385e+3, 1.5421844e+2, -1049771.4, -1441714.0, -29954.38, -0.049721774, 0.057312008, -1047495.4, 381168.0, 0.0002061118, 10.003411, 9.99821 
1.3050468e+3, 1.6421703e+2, -960962.7, -1270111.9, -15371.613, -0.011698171, 0.06452749, -960200.25, 370476.72, 0.000008878666, 10.003011, 9.998909 
1.3050549e+3, 1.7421553e+2, -951799.7, -1204027.8, -20978.975, -0.018367756, 0.014040324, -950066.7, 282622.53, 0.0, 10.002354, 9.999006 
1.305063e+3, 1.8421428e+2, -923191.75, -1145711.6, -44812.914, -0.010883888, -0.007544173, -914506.0, 220194.25, 0.0, 10.001903, 9.998952 
1.305071e+3, 1.9421338e+2, -848303.4, -1055099.1, -43199.426, 0.006359933, 0.0033390108, -839641.8, 197067.7, 0.0, 10.001728, 9.998985 
1.3050787e+3, 2.0421258e+2, -763894.56, -914126.3, -33269.813, 0.015410284, 0.0041240947, -756856.44, 181860.67, 0.0, 10.001421, 9.999429 
1.3050868e+3, 2.142119e+2, -731717.56, -839113.94, -37719.34, 0.016041776, -0.013428902, -719793.75, 120928.33, 0.0, 10.000931, 9.999507 
1.3050948e+3, 2.2421128e+2, -709030.4, -805227.06, -38617.84, 0.019421969, -0.014139463, -695445.75, 47282.484, 0.0, 10.000533, 9.999259 
1.3051029e+3, 2.3421071e+2, -649445.56, -723343.3, -41113.22, 0.025564428, 0.0012417437, -631117.7, 13618.126, 0.0, 10.000259, 9.99928 
1.305111e+3, 2.4421023e+2, -585324.7, -619879.1, -38101.4, 0.025853356, 0.018216511, -560766.3, -14024.34, 0.0, 9.999932, 9.9994755 
1.3051191e+3, 2.5420994e+2, -541414.75, -541909.3, -38729.813, 0.018238422, 0.035142984, -502931.4, -54185.81, 0.0, 9.999534, 9.99953 
1.3051274e+3, 2.6420963e+2, -509099.4, -486183.88, -30436.932, 0.01457753, 0.05831901, -465119.53, -114370.02, 0.0, 9.999129, 9.9994335 
1.305136e+3, 2.742093e+2, -467698.84, -411431.72, -29632.78, 0.016602125, 0.07631395, -398704.56, -145950.14, 0.0, 9.998723, 9.999469 
1.3051446e+3, 2.842087e+2, -409192.78, -316026.7, -16790.297, 0.016865456, 0.061325487, -313093.13, -158331.38, 0.0, 9.998381, 9.999616 
1.3051532e+3, 2.9420793e+2, -348314.6, -233273.64, -12771.663, 0.012265973, 0.019289348, -231872.81, -175102.72, 0.0, 9.998115, 9.999639 
1.3051616e+3, 3.0420884e+2, -351405.44, -174896.94, -10167.305, -0.00819721, 0.13490131, -174313.2, -174313.2, 0.0, 9.997612, 9.999947 
1.3051708e+3, 3.1420812e+2, -352125.13, 6849.467, 4809.883, 0.041179854, 0.060565956, 6913.903, 6913.903, 0.0, 9.9968195, 10.001578 
1.3150157e+3, 1.2421567e+2, -1136772.0, -1640196.8, -78645.63, -0.14198811, 0.029131303, -1124772.0, 597919.25, 0.0043284823, 10.004879, 9.99816 
1.3150269e+3, 1.3421372e+2, -1181303.0, -1673905.0, 17616.738, 0.0636765, 0.07478631, -1180673.8, 444036.0, 0.0025012714, 10.004144, 9.997617 
1.3150333e+3, 1.4421184e+2, -1109921.9, -1511712.4, -35538.395, -0.14011635, 0.09246823, -1106802.8, 419925.0, 0.0010219278, 10.00363, 9.998299 
1.3150416e+3, 1.5420933e+2, -1039962.06, -1421887.8, -38344.17, -0.07311698, 0.0074290354, -1036150.5, 392601.1, 0.000225761, 10.003412, 9.998346 
1.3150495e+3, 1.6420758e+2, -973398.4, -1296726.4, -39490.24, -0.032641374, -0.018606491, -968645.06, 362122.88, 0.000010883995, 10.003013, 9.998726 
1.3150574e+3, 1.7420691e+2, -965574.3, -1233956.8, -46128.652, 0.0030015972, 0.034443326, -957867.2, 274906.28, 0.0, 10.0023575, 9.998799 
1.3150653e+3, 1.8420586e+2, -917746.6, -1135599.5, -53307.61, 0.020606412, 0.040352628, -905402.0, 229380.95, 0.0, 10.001906, 9.99902 
1.3150726e+3, 1.942043e+2, -841286.2, -1041408.06, -50097.883, 0.0030577325, -0.024286775, -829445.44, 207352.17, 0.0, 10.00173, 9.999079 
1.31508e+3, 2.0420325e+2, -771844.6, -931466.7, -51324.176, -0.007739673, -0.04690501, -756766.4, 182040.72, 0.0, 10.001423, 9.99931 
1.3150875e+3, 2.1420293e+2, -740792.4, -858937.7, -56473.336, -0.0054931385, -0.016136425, -718141.0, 122668.2, 0.0, 10.000934, 9.99937 
1.3150953e+3, 2.2420236e+2, -713619.4, -815967.0, -49853.72, 0.0050782785, 0.0015951999, -693349.8, 49464.965, 0.0, 10.000537, 9.999185 
1.3151032e+3, 2.342015e+2, -653999.2, -733394.1, -51287.5, 0.026056327, -0.0059509035, -628840.7, 15984.33, 0.0, 10.00026, 9.999211 
1.315111e+3, 2.4420087e+2, -586973.4, -623787.3, -52321.008, 0.033355445, -0.00093363604, -549915.9, -3083.2175, 0.0, 9.999933, 9.999449 
1.3151188e+3, 2.5420058e+2, -542587.4, -544668.7, -52876.824, 0.02148824, 0.018840665, -490740.97, -41904.695, 0.0, 9.999534, 9.999512 
1.3151266e+3, 2.642003e+2, -507823.56, -484012.97, -44713.758, 0.01657874, 0.042491715, -449646.72, -98806.59, 0.0, 9.999129, 9.999449 
1.3151346e+3, 2.7419993e+2, -465739.28, -408753.78, -43410.28, 0.02224903, 0.05805375, -385320.72, -132475.73, 0.0, 9.998728, 9.999486 
1.3151428e+3, 2.8419942e+2, -400297.8, -298851.47, -25797.79, 0.015669689, 0.04724531, -292668.0, -137816.8, 0.0, 9.998385, 9.999733 
1.315151e+3, 2.941989e+2, -339982.5, -214579.67, -21401.633, -0.010627234, 0.018794049, -211027.8, -154170.9, 0.0, 9.998107, 9.999772 
1.3151592e+3, 3.0420005e+2, -350319.22, -170809.28, -37046.184, -0.019107113, 0.14648946, -163464.44, -163464.44, 0.0, 9.997602, 9.99998 
1.3151681e+3, 3.1419906e+2, -369051.13, -29547.088, -19937.346, 0.0844592, 0.045583773, -28380.28, -28380.28, 0.0, 9.996823, 10.001327 
1.3250205e+3, 1.2420758e+2, -1149615.5, -1656422.1, -58595.88, -0.14675017, 0.036154393, -1142929.0, 579841.3, 0.0045672385, 10.004836, 9.998069 
1.325031e+3, 1.3420537e+2, -1147472.1, -1672881.1, 32306.82, 0.0628177, 0.069634356, -1145493.0, 479298.84, 0.0026495592, 10.004445, 9.9974785 
1.3250372e+3, 1.442034e+2, -1052679.8, -1479065.3, -17261.87, -0.14924234, 0.08414122, -1051982.1, 474828.56, 0.0010913622, 10.004004, 9.998342 
1.3250452e+3, 1.5420106e+2, -1024147.06, -1407969.3, -25932.998, -0.06605177, 0.010166971, -1022402.8, 406429.4, 0.00024614425, 10.003495, 9.998402 
1.3250527e+3, 1.641993e+2, -979159.25, -1310588.5, -33526.508, -0.023917587, -0.01630907, -975801.8, 355046.75, 0.000013287297, 10.003021, 9.998626 
1.32506e+3, 1.7419836e+2, -939100.3, -1233468.4, -34353.855, -0.005430738, 0.021828735, -935144.25, 297712.7, 0.0, 10.002593, 9.998689 
1.3250671e+3, 1.8419723e+2, -882123.75, -1117549.9, -32219.365, 0.005848848, 0.02529142, -877794.0, 257073.25, 0.0, 10.002149, 9.999027 
1.3250743e+3, 1.9419584e+2, -847495.56, -1042057.06, -33957.54, -0.003791858, -0.02519103, -841739.1, 195140.84, 0.0, 10.001678, 9.999099 
1.3250813e+3, 2.0419478e+2, -793975.9, -952933.75, -38627.348, -0.009251682, -0.044605132, -785086.44, 153802.95, 0.0, 10.001318, 9.999212 
1.3250884e+3, 2.1419422e+2, -724141.3, -862723.06, -42100.61, -0.005134623, -0.025589446, -712353.9, 128539.91, 0.0, 10.001101, 9.999264 
1.3250959e+3, 2.2419356e+2, -687580.56, -807468.7, -35693.387, 0.004625286, -0.011773684, -677758.5, 65141.94, 0.0, 10.000735, 9.999146 
1.3251033e+3, 2.3419273e+2, -669243.6, -744301.6, -35311.043, 0.020838896, -0.012220964, -655243.06, -10332.936, 0.0, 10.000172, 9.999179 
1.3251106e+3, 2.4419206e+2, -623383.2, -644172.06, -33670.99, 0.025609894, -0.0075843777, -598538.75, -51620.777, 0.0, 9.999696, 9.999422 
1.3251181e+3, 2.5419164e+2, -572008.4, -560948.0, -35077.63, 0.014065515, 0.0016285544, -530967.25, -82044.54, 0.0, 9.999343, 9.999491 
1.3251255e+3, 2.6419136e+2, -521169.84, -481636.3, -25123.352, 0.009935443, 0.022696303, -469435.78, -118509.32, 0.0, 9.999002, 9.999526 
1.3251333e+3, 2.7419117e+2, -468224.75, -400347.78, -19381.59, 0.0172958, 0.04631973, -395203.44, -142274.0, 0.0, 9.998672, 9.999571 
1.325141e+3, 2.841907e+2, -413574.66, -298111.7, -1879.1716, 0.013219948, 0.03613531, -298081.1, -143146.34, 0.0, 9.998265, 9.999795 
1.325149e+3, 2.9419023e+2, -385229.38, -228501.33, -3150.024, -0.009733892, -0.0011036553, -228438.05, -171497.28, 0.0, 9.997765, 9.999841 
1.3251567e+3, 3.0419153e+2, -380498.53, -162686.5, -22914.469, -0.014218805, 0.1330803, -160301.94, -160301.94, 0.0, 9.9973, 10.000181 
1.325165e+3, 3.1419098e+2, -365961.1, -36528.906, 9332.657, 0.08966576, 0.05148748, -36264.73, -36264.73, 0.0, 9.996883, 10.001248 
1.3350256e+3, 1.2420044e+2, -1157209.4, -1672753.8, -70204.19, -0.13047436, 0.085264444, -1147820.4, 575019.6, 0.004808446, 10.004839, 9.997955 
1.3350354e+3, 1.3419668e+2, -1158448.0, -1695816.3, 17076.406, 0.050344303, -0.019503063, -1157905.9, 466970.3, 0.0027991398, 10.004445, 9.997321 
1.335041e+3, 1.441945e+2, -1055284.5, -1484917.5, -36673.336, -0.1700007, -0.016041344, -1052176.5, 474720.7, 0.0011616626, 10.0040045, 9.9983015 
1.335049e+3, 1.5419368e+2, -1025370.0, -1411743.9, -45494.508, -0.029961273, 0.063830666, -1020085.44, 408819.4, 0.00026710884, 10.003499, 9.998374 
1.3350561e+3, 1.641922e+2, -980470.25, -1314492.3, -50420.31, 0.013369697, 0.06977433, -973025.3, 357893.16, 0.000016044773, 10.003025, 9.998598 
1.3350621e+3, 1.7418994e+2, -940328.4, -1237194.4, -50832.832, -0.043210052, -0.022698054, -931865.44, 301073.6, 0.00000000003443261, 10.002597, 9.998662 
1.3350688e+3, 1.8418844e+2, -885081.94, -1125024.0, -50427.14, -0.054832373, -0.051485505, -874914.8, 260037.81, 0.0, 10.002153, 9.998974 
1.3350758e+3, 1.94188e+2, -850762.25, -1050108.8, -52003.15, -0.014595013, -0.00040175198, -838011.8, 198944.69, 0.0, 10.001683, 9.999042 
1.335083e+3, 2.0418718e+2, -799189.0, -964555.25, -48010.617, 0.0098092435, 0.009665116, -786260.8, 152703.03, 0.0, 10.001321, 9.999132 
1.3350898e+3, 2.1418585e+2, -729801.8, -874763.1, -50469.73, 0.01600398, -0.041190274, -713961.25, 127014.36, 0.0, 10.001101, 9.999182 
1.3350967e+3, 2.2418487e+2, -688023.56, -808799.5, -55930.117, 0.017071346, -0.053245287, -666101.8, 76883.27, 0.0, 10.000735, 9.999138 
1.3351034e+3, 2.341844e+2, -669041.6, -744623.4, -56209.188, 0.009481378, -0.01786108, -639100.5, 5890.6274, 0.0, 10.000174, 9.999176 
1.3351102e+3, 2.4418382e+2, -625121.9, -648893.5, -47094.492, 0.0024493868, -0.0021891913, -588436.44, -41438.566, 0.0, 9.9997, 9.999389 
1.3351174e+3, 2.5418314e+2, -574091.25, -566374.9, -47408.387, -0.0037566803, -0.015975509, -522667.9, -73662.83, 0.0, 9.999347, 9.999452 
1.3351244e+3, 2.6418284e+2, -511413.16, -462393.38, -36522.625, -0.0050308104, -0.00069122814, -442918.78, -91910.016, 0.0, 9.999005, 9.999658 
1.3351318e+3, 2.7418295e+2, -458070.34, -378831.88, -30405.129, 0.0012754686, 0.039858345, -368509.6, -115501.36, 0.0, 9.998668, 9.999721 
1.3351394e+3, 2.8418255e+2, -414377.53, -298812.94, -18794.887, 0.008077632, 0.027355265, -295833.06, -140820.2, 0.0, 9.99826, 9.999793 
1.335147e+3, 2.9418176e+2, -385633.34, -229680.75, -20207.424, 0.012705535, -0.037169807, -227104.92, -170083.06, 0.0, 9.997765, 9.999833 
1.3351542e+3, 3.0418324e+2, -355606.16, -111479.24, -36842.563, 0.005027821, 0.09696412, -106040.3, -106040.3, 0.0, 9.9973, 10.000533 
1.3351615e+3, 3.141837e+2, -361822.97, -25467.873, -1851.6613, 0.05769396, 0.080354474, -25457.68, -25457.68, 0.0, 9.996872, 10.001331 
1.3450305e+3, 1.2419312e+2, -1157048.9, -1674283.4, -47331.88, -0.120498404, 0.07965396, -1152753.1, 570158.2, 0.0050535635, 10.004849, 9.997939 
1.34504e+3, 1.3418932e+2, -1140964.6, -1693230.0, 43034.12, 0.057797015, -0.023430886, -1137631.4, 487316.88, 0.002950302, 10.004592, 9.997268 
1.345045e+3, 1.4418711e+2, -1032179.25, -1484123.6, -14809.124, -0.17769076, -0.017035943, -1031694.5, 495275.28, 0.0012324875, 10.0042095, 9.998209 
1.3450524e+3, 1.5418617e+2, -1008774.94, -1414226.5, -30012.64, -0.034993697, 0.062507704, -1006565.4, 422413.06, 0.0002883995, 10.00366, 9.998279 
1.3450591e+3, 1.6418466e+2, -959248.56, -1303540.6, -32743.053, 0.007628038, 0.06990361, -956162.3, 374830.06, 0.00001901083, 10.003169, 9.998604 
1.3450646e+3, 1.7418246e+2, -915332.25, -1223170.8, -29784.855, -0.054213863, -0.018200994, -912476.94, 320535.38, 0.0000000014653116, 10.002762, 9.998679 
1.3450707e+3, 1.8418095e+2, -863487.06, -1123135.1, -30003.33, -0.06493035, -0.047966357, -860065.2, 274960.9, 0.0, 10.002338, 9.998898 
1.3450776e+3, 1.9418032e+2, -827257.75, -1048002.3, -34519.457, -0.015505201, -0.0049981605, -821985.6, 215045.77, 0.0, 10.001885, 9.998959 
1.3450842e+3, 2.0417944e+2, -787647.4, -957232.6, -25565.938, 0.011990451, 0.0032415527, -783877.0, 155162.19, 0.0, 10.001393, 9.999146 
1.3450907e+3, 2.141782e+2, -764461.3, -888445.0, -20410.002, 0.012439535, -0.041496467, -761187.9, 79862.16, 0.0, 10.00085, 9.9992075 
1.3450971e+3, 2.2417721e+2, -737657.75, -840710.4, -24853.12, 0.010355355, -0.053512767, -731977.06, 11082.598, 0.0, 10.00043, 9.999065 
1.3451035e+3, 2.3417659e+2, -674013.25, -755386.56, -31570.191, 0.0031283973, -0.025996067, -663201.56, -18134.32, 0.0, 10.000178, 9.999099 
1.34511e+3, 2.4417594e+2, -604299.8, -636746.8, -24240.912, -0.0021450513, -0.013836588, -591354.44, -44279.92, 0.0, 9.999837, 9.999405 
1.3451166e+3, 2.541753e+2, -568706.3, -560950.5, -20897.916, -0.004504236, -0.025461752, -543573.75, -94492.8, 0.0, 9.999374, 9.9994755 
1.3451234e+3, 2.6417503e+2, -522995.0, -462702.7, -10545.04, -0.006063658, -0.010570918, -460911.6, -109827.46, 0.0, 9.998906, 9.999702 
1.3451302e+3, 2.7417514e+2, -488146.16, -387406.22, -12599.883, -0.0061586415, 0.026915608, -385854.22, -132770.78, 0.0, 9.998439, 9.999771 
1.3451375e+3, 2.8417483e+2, -446830.44, -296938.97, -3282.2888, 0.00072839076, 0.011319551, -296867.13, -141779.98, 0.0, 9.997965, 9.999947 
1.3451447e+3, 2.9417413e+2, -416305.66, -224955.53, 7473.465, 0.015130935, -0.059166472, -224664.1, -167569.55, 0.0, 9.997474, 10.000004 
1.3451514e+3, 3.0417567e+2, -387292.94, -97695.914, -5677.1685, 0.0125211105, 0.057658385, -97584.664, -97584.664, 0.0, 9.996961, 10.000791 
1.345158e+3, 3.141767e+2, -429045.2, -58161.254, 22654.947, 0.053264707, 0.071537554, -56782.53, -56782.53, 0.0, 9.996415, 10.001327 
1.3550355e+3, 1.2418568e+2, -1152338.8, -1664480.8, -54208.48, -0.1157215, 0.019464985, -1146663.8, 576319.94, 0.0053053484, 10.00485, 9.998007 
1.3550448e+3, 1.3418332e+2, -1137481.5, -1686698.9, 32468.535, 0.08373555, 0.055473816, -1135568.8, 489438.8, 0.0031041957, 10.004595, 9.997312 
1.3550492e+3, 1.4418122e+2, -1042493.25, -1506312.9, -35130.84, -0.17380084, 0.07900866, -1039847.44, 487180.66, 0.001303801, 10.004211, 9.998055 
1.3550557e+3, 1.5417863e+2, -1020285.9, -1438965.8, -51037.86, -0.08042365, 0.008283244, -1014154.06, 414898.22, 0.0003097354, 10.003662, 9.998109 
1.3550618e+3, 1.6417676e+2, -956141.44, -1298045.8, -49260.766, -0.04088589, -0.014012686, -949185.56, 381884.06, 0.000021994929, 10.003173, 9.99864 
1.3550676e+3, 1.7417596e+2, -910798.2, -1214960.9, -45553.797, -0.039774872, 0.033178903, -904122.25, 328954.22, 0.0000000068048798, 10.002766, 9.9987335 
1.3550736e+3, 1.8417472e+2, -870317.0, -1138173.3, -47547.035, -0.026249155, 0.033795975, -862127.4, 272960.13, 0.0, 10.002341, 9.998794 
1.3550796e+3, 1.9417284e+2, -834855.1, -1064573.8, -51941.61, -0.0073203766, -0.037597425, -823656.56, 213447.64, 0.0, 10.001887, 9.998844 
1.3550855e+3, 2.0417161e+2, -780178.25, -942554.9, -46215.67, -0.0030317865, -0.062346615, -767945.8, 171169.13, 0.0, 10.001395, 9.999248 
1.3550913e+3, 2.1417129e+2, -755431.7, -870505.8, -41272.87, -0.015311202, -0.027267031, -742159.4, 98957.64, 0.0, 10.000853, 9.9993305 
1.3550973e+3, 2.2417057e+2, -746871.2, -860541.7, -35434.324, -0.015182641, -0.013960298, -736730.0, 6394.248, 0.0, 10.000432, 9.998929 
1.3551037e+3, 2.3416927e+2, -685315.9, -779085.3, -40697.43, 0.0011948089, -0.036096677, -670116.3, -24977.938, 0.0, 10.000178, 9.998937 
1.3551098e+3, 2.441684e+2, -600131.94, -628320.8, -40361.508, 0.010572001, -0.04148246, -571474.75, -24326.87, 0.0, 9.999837, 9.999463 
1.355116e+3, 2.541681e+2, -562890.06, -549005.2, -37295.246, 0.010339959, -0.02766067, -518011.7, -68861.15, 0.0, 9.999373, 9.999558 
1.3551225e+3, 2.6416788e+2, -526828.9, -470780.63, -26942.303, 0.005236817, -0.008168322, -459930.1, -108777.12, 0.0, 9.998905, 9.999648 
1.3551287e+3, 2.7416775e+2, -492839.66, -397338.4, -28507.74, -0.006747719, 0.009110616, -389475.97, -136320.73, 0.0, 9.998439, 9.999703 
1.3551353e+3, 2.841675e+2, -425933.47, -253887.03, -19996.145, -0.010094101, -0.010041104, -251593.56, -96435.55, 0.0, 9.997965, 10.000243 
1.3551418e+3, 2.9416725e+2, -393293.63, -176706.86, -9247.997, -0.0020387229, -0.06939033, -176312.69, -119152.91, 0.0, 9.997471, 10.000338 
1.3551483e+3, 3.041687e+2, -376191.38, -74588.125, -24552.693, 0.008057626, 0.012927507, -72602.43, -72602.43, 0.0, 9.996959, 10.000952 
1.3551548e+3, 3.1416985e+2, -434027.13, -68879.06, 6212.3823, 0.07175782, 0.029633537, -68773.4, -68773.4, 0.0, 9.996415, 10.001254 
1.3650405e+3, 1.24179296e+2, -1072677.9, -1644149.1, -22883.68, -0.12153441, 0.006451401, -1071763.0, 651282.56, 0.0055670203, 10.005481, 9.997843 
1.3650496e+3, 1.3417701e+2, -1127357.6, -1703145.9, 41862.918, 0.08510698, 0.07015053, -1124329.9, 500739.8, 0.0032625922, 10.004759, 9.99712 
1.3650532e+3, 1.4417492e+2, -1045399.1, -1502642.4, -27418.38, -0.18051815, 0.10001717, -1043760.9, 483329.9, 0.0013759416, 10.004171, 9.998099 
1.3650593e+3, 1.5417208e+2, -995025.06, -1419425.8, -25954.074, -0.089497834, -0.00027012397, -993443.75, 435672.6, 0.00033093715, 10.003805, 9.998174 
1.3650651e+3, 1.6417012e+2, -934025.75, -1300424.0, -20212.094, -0.04773258, -0.028756917, -932914.1, 398220.03, 0.000024852021, 10.003381, 9.998524 
1.3650705e+3, 1.7416947e+2, -906075.56, -1227275.3, -30660.703, -0.0368688, 0.04477914, -903175.0, 329965.28, 0.000000016360648, 10.002861, 9.998603 
1.3650759e+3, 1.8416819e+2, -873180.06, -1138784.4, -38054.41, -0.019637026, 0.048927262, -867835.4, 267316.28, 0.0, 10.002319, 9.998799 
1.3650814e+3, 1.9416605e+2, -853342.56, -1071315.5, -33011.934, -0.0064482214, -0.05134945, -848452.6, 188717.69, 0.0, 10.001752, 9.998863 
1.3650867e+3, 2.0416471e+2, -801977.94, -956891.5, -25043.016, -0.0051993383, -0.084086195, -798030.2, 141151.52, 0.0, 10.001264, 9.999211 
1.3650921e+3, 2.1416458e+2, -753867.9, -874050.06, -32225.502, -0.016461615, -0.027322052, -745772.3, 95410.234, 0.0, 10.000883, 9.99929 
1.3650978e+3, 2.2416392e+2, -735299.6, -844147.25, -22027.533, -0.015202602, -0.008329714, -731010.94, 12178.031, 0.0, 10.000467, 9.9990225 
1.3651037e+3, 2.341626e+2, -703965.25, -776348.8, -8439.902, 0.0023406907, -0.04680836, -702994.2, -57791.414, 0.0, 10.000001, 9.999041 
1.3651097e+3, 2.441617e+2, -639970.8, -648723.9, -2441.4363, 0.013238083, -0.057735167, -639335.94, -92123.94, 0.0, 9.999571, 9.999451 
1.3651155e+3, 2.5416145e+2, -590763.7, -564439.75, -7816.752, 0.014824794, -0.03591243, -562293.56, -113079.15, 0.0, 9.999194, 9.9995365 
1.3651212e+3, 2.6416123e+2, -545289.44, -470975.88, -1008.2982, 0.008190006, -0.020522913, -470962.2, -119745.12, 0.0, 9.998745, 9.999722 
1.3651271e+3, 2.74161e+2, -523380.3, -402433.4, 6998.301, -0.010388968, -0.020883642, -402029.8, -148810.0, 0.0, 9.998192, 9.999785 
1.3651331e+3, 2.8416088e+2, -456760.88, -255796.1, 17288.262, -0.017555194, -0.034384854, -254319.7, -99098.85, 0.0, 9.997701, 10.000357 
1.3651392e+3, 2.9416108e+2, -410279.6, -170916.98, 12322.536, -0.0081794, -0.0633313, -170284.28, -113065.88, 0.0, 9.997296, 10.000461 
1.3651451e+3, 3.0416226e+2, -385444.56, -58762.926, -15489.624, 0.0079849465, -0.020437038, -58030.13, -58030.13, 0.0, 9.996809, 10.001132 
1.365151e+3, 3.1416345e+2, -464530.38, -79425.24, 18634.643, 0.06809995, -0.01994189, -78525.64, -78525.64, 0.0, 9.996187, 10.001291 
1.3750458e+3, 1.24174e+2, -1100100.8, -1701063.3, -46820.355, -0.13855934, 0.03960782, -1096475.0, 626621.3, 0.0058407784, 10.005481, 9.997451 
1.3750541e+3, 1.341705e+2, -1156764.0, -1764700.9, 13900.877, 0.06253375, 0.023100091, -1156446.4, 468687.47, 0.0034270638, 10.00476, 9.996697 
1.3750573e+3, 1.441682e+2, -1029168.06, -1469640.9, -43181.105, -0.19774991, 0.047814526, -1024974.8, 502182.25, 0.0014494876, 10.004174, 9.998326 
1.3750635e+3, 1.5416653e+2, -974202.7, -1377317.4, -40168.27, -0.06388374, 0.034714475, -970239.06, 458931.2, 0.0003520012, 10.003809, 9.998462 
1.3750687e+3, 1.6416478e+2, -951949.3, -1338816.9, -39900.145, -0.014544893, 0.023666091, -947877.0, 383308.75, 0.000027536262, 10.003385, 9.99826 
1.3750732e+3, 1.7416303e+2, -927399.9, -1272612.5, -50568.063, -0.04569863, 0.018392682, -920144.94, 313058.16, 0.000000027808229, 10.002865, 9.998291 
1.375078e+3, 1.841614e+2, -865534.06, -1123830.3, -59883.414, -0.045334563, -0.00094798784, -852326.1, 282891.94, 0.0, 10.002321, 9.998901 
1.375083e+3, 1.9415992e+2, -842707.4, -1050463.5, -54756.984, -0.012898692, -0.047446355, -829158.94, 208070.53, 0.0, 10.001756, 9.999005 
1.3750881e+3, 2.0415878e+2, -813313.1, -981518.3, -40447.816, 0.0051642624, -0.0633057, -804092.25, 135146.98, 0.0, 10.001267, 9.999042 
1.3750933e+3, 2.141581e+2, -767543.3, -903044.44, -46579.887, 0.0074715586, -0.040920377, -753075.75, 88170.47, 0.0, 10.000884, 9.999091 
1.3750985e+3, 2.2415733e+2, -713805.0, -800057.25, -39302.06, 0.008405931, -0.035344977, -698582.94, 44670.504, 0.0, 10.000468, 9.999326 
1.3751037e+3, 2.341565e+2, -679082.1, -725169.06, -25829.416, 0.006085134, -0.058071803, -667511.1, -22250.613, 0.0, 10.000002, 9.999392 
1.3751091e+3, 2.4415581e+2, -646203.7, -662125.3, -16690.656, 0.0057609584, -0.06323833, -635672.5, -88405.37, 0.0, 9.999571, 9.999359 
1.3751146e+3, 2.5415537e+2, -600511.75, -584187.6, -21249.365, 0.008390841, -0.04900545, -569586.7, -120313.94, 0.0, 9.99919, 9.999404 
1.3751198e+3, 2.6415503e+2, -532507.6, -444084.53, -20283.492, 0.0020949815, -0.045849275, -439653.7, -88377.05, 0.0, 9.998742, 9.999908 
1.375125e+3, 2.7415484e+2, -507741.28, -370753.4, -12447.872, -0.017164843, -0.064161465, -369631.47, -116353.52, 0.0, 9.998194, 10.000003 
1.3751306e+3, 2.8415498e+2, -461084.72, -265709.63, 2718.5059, -0.022474382, -0.06308582, -265671.78, -110395.28, 0.0, 9.997703, 10.000288 
1.3751365e+3, 2.9415557e+2, -417216.53, -184109.94, -1429.2692, -0.0070892894, -0.03805547, -184101.19, -126830.484, 0.0, 9.997289, 10.000374 
1.375142e+3, 3.0415636e+2, -373382.47, -32934.246, -36335.785, 0.008835247, -0.040111497, -29099.352, -29099.352, 0.0, 9.996804, 10.001312 
1.375147e+3, 3.1415734e+2, -453500.7, -58133.285, -1607.3417, 0.04290805, -0.08272103, -58126.75, -58126.75, 0.0, 9.996193, 10.001435 
1.3850512e+3, 1.2416864e+2, -1098164.6, -1702595.6, -50847.18, -0.15524472, 0.048653703, -1093917.0, 629231.5, 0.0061269603, 10.005508, 9.997426 
1.3850589e+3, 1.3416484e+2, -1142266.9, -1759987.5, 34666.73, 0.055929303, 0.0043402463, -1140327.5, 484861.22, 0.0035981506, 10.00487, 9.996676 
1.3850616e+3, 1.441625e+2, -1009856.75, -1468954.9, -5414.4116, -0.20067659, 0.029977785, -1009792.94, 517419.38, 0.001524834, 10.004344, 9.998249 
1.3850676e+3, 1.5416104e+2, -954111.06, -1376242.6, -28544.861, -0.051859032, 0.045345455, -952189.6, 477034.34, 0.00037302377, 10.003984, 9.998384 
1.3850723e+3, 1.6415928e+2, -935787.7, -1329667.4, -41612.625, -0.00071226165, 0.03750774, -931439.4, 399800.03, 0.000030085705, 10.00349, 9.99827 
1.385076e+3, 1.7415723e+2, -932027.7, -1272788.9, -28916.717, -0.049203686, 0.00070972636, -929591.25, 303667.78, 0.000000039188958, 10.002825, 9.998308 
1.3850802e+3, 1.841555e+2, -875780.75, -1135261.4, -26377.316, -0.057465266, -0.027215458, -873126.5, 262148.22, 0.0, 10.00228, 9.998843 
1.3850848e+3, 1.941542e+2, -826985.1, -1050066.8, -36567.06, -0.020960381, -0.049898762, -821144.06, 216140.77, 0.0, 10.001896, 9.9989395 
1.3850895e+3, 2.0415309e+2, -794770.75, -976836.1, -27159.861, 0.0045556948, -0.05732449, -790805.5, 148489.03, 0.0, 10.001414, 9.9990015 
1.3850942e+3, 2.1415223e+2, -782382.6, -914268.2, -22077.941, 0.018641027, -0.04857697, -778784.9, 62518.438, 0.0, 10.000801, 9.999054 
1.385099e+3, 2.2415142e+2, -734632.7, -799872.94, -13296.129, 0.022785213, -0.05075557, -732027.0, 11283.776, 0.0, 10.000282, 9.999415 
1.3851038e+3, 2.341507e+2, -686823.7, -716766.7, -18128.582, 0.011407649, -0.07314281, -678283.7, -32967.613, 0.0, 9.999899, 9.999498 
1.3851087e+3, 2.4415009e+2, -663425.9, -666325.6, -16684.832, 0.0046908967, -0.07680766, -648128.06, -100806.4, 0.0, 9.999438, 9.9993925 
1.3851136e+3, 2.541497e+2, -644985.06, -602377.2, -10556.402, 0.0044851825, -0.059430283, -599905.2, -150577.95, 0.0, 9.998874, 9.999431 
1.3851185e+3, 2.6414943e+2, -573348.94, -449327.34, -4603.2617, 0.001616779, -0.05713459, -449156.72, -97826.086, 0.0, 9.998402, 10.000035 
1.3851234e+3, 2.7414933e+2, -517821.25, -360042.16, -3175.148, -0.0051692175, -0.08030051, -359978.28, -106647.76, 0.0, 9.998058, 10.00014 
1.3851283e+3, 2.841496e+2, -483483.2, -276970.84, 6377.6797, -0.009346958, -0.07188053, -276774.06, -121446.484, 0.0, 9.997553, 10.000281 
1.3851336e+3, 2.9415038e+2, -484519.28, -217985.7, 6466.046, -0.008572717, -0.029917764, -217828.94, -160508.14, 0.0, 9.996837, 10.000358 
1.3851385e+3, 3.041508e+2, -431184.16, -60175.418, -23907.564, 0.0066822544, -0.070117585, -58641.17, -58641.17, 0.0, 9.9964075, 10.001315 
1.3851433e+3, 3.14152e+2, -431179.2, -41548.336, -1577.8477, 0.04042946, -0.08586707, -41541.95, -41541.95, 0.0, 9.996325, 10.001483 
1.3950565e+3, 1.24163285e+2, -1075096.5, -1654495.3, -71811.055, -0.17040573, 0.032692026, -1066328.9, 656872.94, 0.0064252405, 10.005508, 9.99776 
1.3950637e+3, 1.341601e+2, -1116851.4, -1707638.3, 9711.524, 0.06382074, 0.012933742, -1116691.8, 508542.16, 0.003776078, 10.004872, 9.997035 
1.395066e+3, 1.4415786e+2, -1035127.0, -1522539.5, -20706.99, -0.19110015, 0.04551078, -1034248.9, 493007.3, 0.0016024085, 10.004348, 9.99788 
1.3950714e+3, 1.5415569e+2, -984193.2, -1439234.6, -42528.39, -0.053416427, 0.03295563, -980252.56, 449024.03, 0.00039418213, 10.003985, 9.997952 
1.3950758e+3, 1.641537e+2, -916684.7, -1290637.4, -66355.91, -0.0063103135, 0.014123136, -905259.3, 426035.28, 0.000032562886, 10.003492, 9.998538 
1.3950789e+3, 1.7415212e+2, -907572.4, -1223754.0, -54414.293, -0.04779915, -0.009170952, -898469.9, 334837.9, 0.00000005013657, 10.0028305, 9.998643 
1.3950825e+3, 1.8415052e+2, -890104.5, -1166723.0, -42314.242, -0.05651782, -0.03095535, -883776.44, 251545.14, 0.0, 10.002286, 9.998625 
1.3950865e+3, 1.9414893e+2, -845445.6, -1089328.5, -51209.043, -0.03120071, -0.058207013, -835129.44, 202206.63, 0.0, 10.001898, 9.99867 
1.3950907e+3, 2.041477e+2, -789022.9, -965569.9, -49776.88, -0.00787506, -0.06571159, -775955.6, 163391.72, 0.0, 10.001416, 9.999079 
1.395095e+3, 2.14147e+2, -774020.5, -898159.4, -45332.348, 0.01712138, -0.05036284, -759228.75, 82124.94, 0.0, 10.000805, 9.999163 
1.3950993e+3, 2.2414617e+2, -742084.56, -816757.4, -28627.95, 0.028073521, -0.05484378, -732372.44, 10988.637, 0.0, 10.000287, 9.999298 
1.3951038e+3, 2.3414518e+2, -696470.7, -737115.4, -32214.314, 0.017755676, -0.09173498, -678704.2, -33334.9, 0.0, 9.999898, 9.999359 
1.3951081e+3, 2.4414453e+2, -652983.25, -644708.8, -36957.664, 0.009052228, -0.097987, -611657.5, -64282.15, 0.0, 9.999436, 9.999542 
1.3951124e+3, 2.5414446e+2, -632203.9, -576673.8, -31078.059, 0.0026838307, -0.06782287, -562764.6, -113386.55, 0.0, 9.998876, 9.999606 
1.3951169e+3, 2.641444e+2, -568548.6, -440407.34, -17190.734, 0.005889148, -0.05542214, -438141.22, -86761.83, 0.0, 9.998404, 10.000096 
1.3951217e+3, 2.7414447e+2, -514862.0, -352599.56, -14787.714, 0.02230022, -0.06810484, -351262.9, -97885.17, 0.0, 9.998052, 10.0001955 
1.3951263e+3, 2.841448e+2, -481826.2, -271985.1, -18291.398, 0.018421117, -0.059654206, -270402.6, -115028.28, 0.0, 9.997545, 10.0003195 
1.3951303e+3, 2.9414535e+2, -481791.0, -213681.9, -18837.508, -0.011991119, -0.041099392, -212364.84, -154995.39, 0.0, 9.996841, 10.000385 
1.395135e+3, 3.041454e+2, -441266.13, -83279.39, -27445.012, 0.0019242468, -0.11216478, -81187.55, -81187.55, 0.0, 9.996414, 10.001154 
1.3951397e+3, 3.1414738e+2, -433494.5, -45220.836, -2339.6553, 0.054928783, -0.035091043, -45206.74, -45206.74, 0.0, 9.996318, 10.001463 
1.4050621e+3, 1.2415861e+2, -1049608.3, -1640971.4, -35876.004, -0.17928386, 0.01898019, -1047439.7, 675807.4, 0.0067370594, 10.005681, 9.99777 
1.4050688e+3, 1.3415557e+2, -1057278.6, -1675137.8, 17475.705, 0.06541127, 0.011519717, -1056784.8, 568492.56, 0.003962538, 10.005269, 9.997067 
1.4050704e+3, 1.4415336e+2, -992317.25, -1508069.5, -17286.975, -0.19135451, 0.046642188, -991738.44, 535560.7, 0.0016834773, 10.00467, 9.997823 
1.4050752e+3, 1.5415095e+2, -1004837.44, -1455925.8, -11753.182, -0.061980292, 0.01676282, -1004531.4, 424790.6, 0.00041584228, 10.003874, 9.997891 
1.405079e+3, 1.6414888e+2, -941189.94, -1300755.5, -24813.66, -0.016071534, -0.008191599, -939485.6, 391855.2, 0.000035020938, 10.003317, 9.998553 
1.4050817e+3, 1.7414741e+2, -869755.56, -1202804.4, -35786.01, -0.047869045, -0.021867689, -865953.8, 367398.84, 0.00000006103049, 10.003079, 9.998667 
1.405085e+3, 1.8414585e+2, -842520.56, -1147797.4, -34088.875, -0.04945233, -0.038538266, -838760.3, 296605.7, 0.0, 10.002632, 9.998587 
1.4050886e+3, 1.941442e+2, -847588.1, -1095111.4, -27171.973, -0.021438368, -0.06703923, -844640.44, 192740.9, 0.0, 10.001905, 9.998626 
1.4050922e+3, 2.0414294e+2, -805109.56, -982682.75, -19073.35, -0.0032079879, -0.0719832, -803083.94, 136309.25, 0.0, 10.001347, 9.998994 
1.4050958e+3, 2.1414226e+2, -748069.75, -895403.0, -29078.885, 0.0057812426, -0.04897744, -742538.2, 98861.664, 0.0, 10.001027, 9.999074 
1.4050996e+3, 2.2414133e+2, -711978.75, -806226.8, -22352.691, 0.015640752, -0.055676695, -706946.1, 36461.977, 0.0, 10.000512, 9.999261 
1.4051037e+3, 2.3414014e+2, -724180.94, -754233.56, -19475.201, 0.024973547, -0.107906684, -714609.0, -69190.91, 0.0, 9.999725, 9.999325 
1.4051075e+3, 2.4413952e+2, -691611.4, -653302.3, -17230.727, 0.02576151, -0.11405297, -646692.6, -99268.71, 0.0, 9.999129, 9.999631 
1.4051114e+3, 2.5413975e+2, -636168.9, -567385.9, -16778.67, 0.015146685, -0.064111054, -563511.2, -114087.42, 0.0, 9.9988, 9.999706 
1.4051154e+3, 2.641398e+2, -580871.2, -439484.63, -10313.405, 0.0147470925, -0.048615698, -438736.28, -87312.22, 0.0, 9.998291, 10.000156 
1.4051194e+3, 2.7413973e+2, -586096.44, -380050.2, -8932.926, 0.027371623, -0.07801237, -379663.63, -126240.11, 0.0, 9.997535, 10.000256 
1.4051235e+3, 2.8414017e+2, -557392.56, -297037.7, -7761.9663, 0.02099671, -0.069439694, -296806.5, -141387.14, 0.0, 9.996979, 10.00042 
1.4051272e+3, 2.94141e+2, -495652.38, -209225.33, -2908.7815, -0.007846268, -0.035163257, -209195.8, -151783.94, 0.0, 9.996697, 10.000485 
1.4051314e+3, 3.0414084e+2, -461958.2, -105498.77, -708.633, 0.010642555, -0.12502714, -105497.37, -105497.37, 0.0, 9.9963255, 10.001043 
1.4051357e+3, 3.1414312e+2, -497817.66, -64466.664, 27100.676, 0.048516437, -0.0066361055, -62778.434, -62778.434, 0.0, 9.995827, 10.001567 
1.4150676e+3, 1.2415468e+2, -1071051.4, -1685073.1, -49677.26, -0.18263753, 0.007068522, -1067058.3, 656225.9, 0.007066557, 10.00568, 9.997466 
1.4150742e+3, 1.3415137e+2, -1077538.8, -1717260.9, 1048.1246, 0.061013103, 0.00062448217, -1077537.0, 547781.0, 0.004161057, 10.005269, 9.9967785 
1.4150749e+3, 1.4414908e+2, -974997.56, -1472844.1, -47201.84, -0.20131998, 0.033933952, -970561.8, 556778.75, 0.0017702604, 10.004672, 9.998065 
1.415079e+3, 1.541469e+2, -983255.75, -1412593.8, -42097.355, -0.07804339, -0.0032734142, -979167.0, 450192.72, 0.0004386595, 10.003879, 9.998187 
1.4150822e+3, 1.6414486e+2, -956712.5, -1334656.5, -36045.355, -0.030538771, -0.029670702, -953305.44, 378072.38, 0.00003754099, 10.003323, 9.998319 
1.4150849e+3, 1.7414318e+2, -889190.75, -1244098.5, -45021.023, -0.049845934, -0.03711345, -883568.75, 349824.44, 0.00000007226826, 10.003082, 9.998383 
1.4150877e+3, 1.8414158e+2, -832997.4, -1128742.4, -60500.074, -0.037436128, -0.049722154, -821099.6, 314307.97, 0.0, 10.002633, 9.998718 
1.4150909e+3, 1.941401e+2, -834908.25, -1070314.0, -54798.535, 0.0073659797, -0.07643643, -822777.2, 214643.3, 0.0, 10.00191, 9.998795 
1.4150937e+3, 2.0413888e+2, -821405.06, -1018098.94, -32747.031, 0.017905075, -0.076393194, -816096.4, 123335.78, 0.0, 10.001352, 9.998749 
1.4150967e+3, 2.1413799e+2, -767761.4, -936737.9, -40896.023, -0.015563227, -0.044879995, -758384.0, 83057.61, 0.0, 10.001027, 9.998791 
1.4150998e+3, 2.241369e+2, -709784.4, -801880.25, -50245.504, -0.014764175, -0.053691782, -687677.9, 55774.01, 0.0, 10.000512, 9.999292 
1.4151034e+3, 2.341356e+2, -719340.2, -745419.4, -48663.68, 0.03257881, -0.121456556, -681999.4, -36536.844, 0.0, 9.999729, 9.999384 
1.415107e+3, 2.4413507e+2, -688960.25, -649252.44, -30375.764, 0.05382144, -0.12487262, -632817.7, -85350.23, 0.0, 9.999133, 9.999658 
1.4151105e+3, 2.5413558e+2, -634896.3, -564121.5, -28166.643, 0.040138524, -0.0478842, -554280.3, -104815.88, 0.0, 9.9987955, 9.999732 
1.4151138e+3, 2.6413563e+2, -577788.6, -432565.4, -36338.984, 0.026852926, -0.036414195, -423979.94, -72515.15, 0.0, 9.998286, 10.000207 
1.415117e+3, 2.741352e+2, -581623.75, -372737.8, -36146.566, 0.0109339375, -0.11047821, -366659.7, -113191.484, 0.0, 9.997541, 10.000303 
1.4151202e+3, 2.841357e+2, -544275.94, -271814.78, -18792.555, -0.00092840416, -0.1012582, -270524.72, -115061.7, 0.0, 9.996985, 10.000591 
1.4151241e+3, 2.941373e+2, -484200.9, -183906.86, -12083.417, 0.0002808014, -0.010410257, -183421.42, -125973.36, 0.0, 9.996689, 10.000665 
1.4151278e+3, 3.041371e+2, -469252.66, -119274.88, -17278.611, 0.028905917, -0.106507085, -118423.9, -118423.9, 0.0, 9.996318, 10.000954 
1.4151312e+3, 3.141391e+2, -482711.25, -35463.875, 9342.6045, 0.022396907, -0.009396215, -35268.8, -35268.8, 0.0, 9.995835, 10.001762 
1.4250734e+3, 1.2415136e+2, -1018003.94, -1671697.5, -26543.178, -0.18631952, 0.0017377936, -1016927.94, 706387.2, 0.0074189906, 10.006103, 9.9973545 
1.4250793e+3, 1.3414776e+2, -1092536.1, -1733962.1, 35779.566, 0.05957911, -0.025400043, -1090546.5, 534805.44, 0.004375294, 10.005208, 9.996693 
1.4250796e+3, 1.4414541e+2, -993019.9, -1476168.6, -8415.719, -0.20291549, 0.0051181135, -992873.3, 534501.56, 0.0018650297, 10.004526, 9.998113 
1.425083e+3, 1.5414347e+2, -937292.94, -1383153.5, -20015.371, -0.08016522, -0.01586681, -936396.25, 492995.1, 0.00046351412, 10.004164, 9.998251 
1.4250857e+3, 1.6414142e+2, -915473.9, -1330530.4, -15813.008, -0.030808149, -0.03901648, -914872.25, 416537.25, 0.00004027467, 10.003675, 9.998176 
1.425088e+3, 1.7413944e+2, -908749.06, -1271493.8, -15989.25, -0.045789666, -0.061441757, -908045.6, 325382.94, 0.00000008454083, 10.003027, 9.99822 
1.4250903e+3, 1.8413776e+2, -853004.94, -1137781.9, -34514.977, -0.033742465, -0.07157588, -848881.44, 286562.72, 0.0, 10.002495, 9.998722 
1.4250928e+3, 1.9413657e+2, -802247.75, -1051792.0, -40346.71, 0.0044725705, -0.07156158, -795886.56, 241567.84, 0.0, 10.002124, 9.998817 
1.4250952e+3, 2.0413539e+2, -790307.1, -1009202.9, -17735.963, 0.015530327, -0.0656306, -788879.4, 150586.33, 0.0, 10.001594, 9.9986925 
1.4250976e+3, 2.1413422e+2, -798543.25, -958381.44, -10228.75, -0.007690299, -0.05762806, -797891.3, 43586.7, 0.0, 10.000847, 9.998729 
1.4251004e+3, 2.2413304e+2, -751900.0, -827591.7, -15239.956, -0.0052880016, -0.070103645, -748946.75, -5457.434, 0.0, 10.000246, 9.999243 
1.4251032e+3, 2.3413195e+2, -704342.25, -743334.44, -22028.389, 0.031441554, -0.11336735, -694421.56, -48923.05, 0.0, 9.999855, 9.999337 
1.4251062e+3, 2.4413146e+2, -667565.56, -635191.5, -8709.24, 0.052896045, -0.11070939, -632997.25, -85494.195, 0.0, 9.999265, 9.999691 
1.425109e+3, 2.541318e+2, -689618.1, -585430.6, -5992.2173, 0.05431412, -0.054168936, -585087.1, -135586.14, 0.0, 9.998399, 9.999776 
1.4251119e+3, 2.641318e+2, -651626.56, -469237.6, -11826.829, 0.04263829, -0.04988252, -468473.88, -116972.06, 0.0, 9.997785, 10.000196 
1.4251146e+3, 2.7413148e+2, -585117.7, -376384.78, -16366.279, 0.009479788, -0.111672655, -375109.34, -121604.54, 0.0, 9.997524, 10.000287 
1.4251173e+3, 2.8413212e+2, -528622.44, -256813.19, -5571.6055, -0.00546988, -0.09277166, -256699.03, -101200.28, 0.0, 9.997061, 10.000658 
1.4251205e+3, 2.9413378e+2, -532197.25, -199717.11, -7556.4443, 0.013081724, 0.0012814873, -199545.45, -142062.81, 0.0, 9.996329, 10.000729 
1.425124e+3, 3.041335e+2, -545068.6, -156458.2, -9196.369, 0.04701501, -0.107292056, -156240.69, -156240.69, 0.0, 9.995802, 10.000946 
1.4251266e+3, 3.1413543e+2, -502446.06, -8277.919, 24199.768, 0.00716401, -0.01860358, -7095.6675, -7095.6675, 0.0, 9.995542, 10.00209 
1.4350796e+3, 1.24148704e+2, -1014019.1, -1662514.6, -58245.68, -0.19054288, 0.0010224289, -1008829.25, 714510.56, 0.007798346, 10.0061, 9.99742 
1.4350845e+3, 1.3414483e+2, -1085153.8, -1718773.5, 1085.4745, 0.05995196, -0.06559933, -1085151.9, 540226.6, 0.004607423, 10.005209, 9.996797 
1.4350842e+3, 1.4414242e+2, -1002538.25, -1497155.4, -24785.807, -0.19735117, -0.039175298, -1001299.3, 526102.44, 0.0019692578, 10.004531, 9.997967 
1.4350873e+3, 1.5414068e+2, -948128.25, -1406875.5, -34141.33, -0.06913527, -0.021343136, -945601.3, 483815.25, 0.0004912836, 10.0041685, 9.998087 
1.4350894e+3, 1.6413863e+2, -919014.25, -1339353.3, -40166.727, -0.017872144, -0.03654274, -915210.44, 416225.0, 0.00004342746, 10.00368, 9.998114 
1.435091e+3, 1.7413622e+2, -911590.75, -1279067.4, -40746.434, -0.03635759, -0.09476989, -907126.94, 326331.7, 0.00000010052836, 10.003033, 9.998166 
1.4350928e+3, 1.8413447e+2, -860547.56, -1155004.9, -49652.434, -0.03855077, -0.10423202, -852400.44, 283075.0, 0.0, 10.0025, 9.998602 
1.4350946e+3, 1.9413368e+2, -810489.06, -1070066.6, -54307.004, -0.02962237, -0.052970365, -799585.4, 237897.55, 0.0, 10.002128, 9.998692 
1.4350966e+3, 2.0413254e+2, -781218.0, -991409.6, -44805.914, -0.010454305, -0.04007394, -772065.4, 167428.4, 0.0, 10.001596, 9.998815 
1.435099e+3, 2.1413097e+2, -787655.2, -937365.0, -38350.176, 0.027725495, -0.08634347, -778403.06, 63105.875, 0.0, 10.000852, 9.998872 
1.435101e+3, 2.2412975e+2, -760013.25, -845945.7, -31020.889, 0.04217704, -0.10423547, -749985.2, -6464.6914, 0.0, 10.000252, 9.999116 
1.435103e+3, 2.3412913e+2, -715000.44, -765976.44, -36282.34, 0.02142776, -0.0845544, -696148.3, -50622.004, 0.0, 9.999855, 9.999183 
1.435105e+3, 2.4412866e+2, -664595.44, -629697.56, -39135.5, 0.023346016, -0.072878525, -604297.3, -56766.344, 0.0, 9.999266, 9.999729 
1.4351076e+3, 2.5412843e+2, -684810.06, -577381.56, -37833.87, 0.05745776, -0.08241473, -565394.8, -115861.06, 0.0, 9.998405, 9.999829 
1.43511e+3, 2.641283e+2, -654906.2, -477768.03, -22544.021, 0.061364643, -0.0877706, -474943.9, -123408.58, 0.0, 9.99779, 10.000136 
1.435112e+3, 2.7412862e+2, -590532.8, -386665.63, -24701.146, 0.021252612, -0.08141662, -383715.47, -130182.07, 0.0, 9.997519, 10.00022 
1.4351144e+3, 2.8412932e+2, -532659.5, -264597.84, -30191.193, 0.005039534, -0.045016456, -261239.55, -105712.74, 0.0, 9.997056, 10.0006075 
1.4351171e+3, 2.941305e+2, -535859.06, -209599.47, -33530.742, 0.029363798, -0.0017565312, -206189.06, -148673.0, 0.0, 9.996337, 10.000658 
1.4351201e+3, 3.0413002e+2, -537881.5, -143328.8, -19744.549, 0.06436774, -0.12660494, -142343.19, -142343.19, 0.0, 9.995808, 10.001034 
1.4351222e+3, 3.1413212e+2, -471825.1, 57943.336, 13831.146, 0.00052084343, -0.03426093, 58304.195, 58304.195, 0.0, 9.995529, 10.002552 
1.4450856e+3, 1.2414644e+2, -1044392.94, -1668660.3, -35815.688, -0.18172015, -0.017572816, -1042344.9, 681015.8, 0.00820582, 10.005857, 9.997493 
1.4450897e+3, 1.3414277e+2, -1050139.4, -1687618.9, 22194.37, 0.051796682, -0.07575433, -1049367.6, 576029.0, 0.0048579536, 10.005392, 9.996922 
1.4450887e+3, 1.4414033e+2, -964764.2, -1497348.0, 4019.059, -0.20788707, -0.05152285, -964733.9, 562686.06, 0.002083542, 10.004873, 9.997799 
1.4450915e+3, 1.5413822e+2, -937252.06, -1422585.5, -6627.5156, -0.06554936, -0.05188054, -937161.6, 492277.22, 0.00052260055, 10.004336, 9.997897 
1.4450935e+3, 1.6413605e+2, -904656.9, -1334176.5, -17861.975, -0.0098095825, -0.06787554, -903915.4, 427543.88, 0.0000471708, 10.003789, 9.9980955 
1.4450942e+3, 1.7413387e+2, -884453.9, -1265919.4, -15753.194, -0.037588906, -0.10351766, -883804.44, 349675.9, 0.00000012546444, 10.003221, 9.998165 
1.4450954e+3, 1.8413216e+2, -840535.2, -1154016.9, -15636.35, -0.043439742, -0.104582585, -839757.2, 295739.7, 0.0, 10.002677, 9.998523 
1.4450967e+3, 1.9413118e+2, -809308.56, -1079160.6, -17354.59, -0.03084728, -0.06396239, -808197.0, 229309.42, 0.0, 10.002179, 9.998603 
1.445098e+3, 2.0412996e+2, -775227.75, -992066.1, -19251.916, -0.011964549, -0.052610364, -773531.75, 165986.63, 0.0, 10.001654, 9.998781 
1.4450997e+3, 2.1412848e+2, -755103.0, -924799.3, -26522.887, 0.02080679, -0.08731982, -751054.2, 90478.71, 0.0, 10.00109, 9.998842 
1.4451014e+3, 2.2412731e+2, -731456.6, -833734.4, -19520.475, 0.03696163, -0.09820244, -727857.6, 15686.62, 0.0, 10.000455, 9.999101 
1.4451028e+3, 2.3412667e+2, -735527.8, -777340.6, -14786.63, 0.027613556, -0.07927254, -730827.1, -85276.82, 0.0, 9.999722, 9.999168 
1.4451043e+3, 2.4412614e+2, -691969.9, -649593.8, -18355.941, 0.03186147, -0.07040637, -642748.44, -95192.76, 0.0, 9.999106, 9.999669 
1.4451061e+3, 2.5412577e+2, -652487.9, -569358.44, -26649.314, 0.0555024, -0.08444841, -561548.94, -111989.305, 0.0, 9.998659, 9.999763 
1.4451079e+3, 2.6412565e+2, -617233.7, -461888.84, -11519.193, 0.06308598, -0.08762812, -461039.3, -109477.74, 0.0, 9.998058, 10.000116 
1.4451097e+3, 2.7412602e+2, -631840.5, -407781.28, -10046.654, 0.046364613, -0.07110456, -407331.72, -153772.88, 0.0, 9.997241, 10.000208 
1.4451116e+3, 2.8412676e+2, -598602.3, -297010.97, -11323.276, 0.03168371, -0.034203988, -296586.44, -141033.97, 0.0, 9.996607, 10.0006 
1.4451134e+3, 2.9412782e+2, -551429.1, -219559.63, -11620.071, 0.027933277, -0.0009997438, -219153.27, -161610.19, 0.0, 9.996241, 10.000636 
1.4451158e+3, 3.0412742e+2, -563580.44, -169628.95, -2243.8223, 0.06456461, -0.111440256, -169616.17, -169616.17, 0.0, 9.995693, 10.000907 
1.4451177e+3, 3.141291e+2, -547083.7, 41637.777, 10726.719, 0.024933523, -0.043255474, 41833.156, 41833.156, 0.0, 9.99493, 10.002727 
1.4550917e+3, 1.2414462e+2, -1039299.1, -1657804.4, -53391.934, -0.16098836, -0.053805333, -1034723.94, 688653.06, 0.00863955, 10.0058565, 9.997569 
1.455095e+3, 1.3414165e+2, -1040458.25, -1667540.9, 3401.446, 0.035167363, -0.057633426, -1040439.75, 584966.0, 0.005126164, 10.005393, 9.997059 
1.4550933e+3, 1.4413919e+2, -978118.5, -1525886.0, -17600.758, -0.23445894, -0.033687856, -977553.56, 549875.7, 0.002207845, 10.004876, 9.9976015 
1.4550959e+3, 1.5413614e+2, -952368.3, -1454908.6, -27315.633, -0.069882944, -0.1066015, -950887.94, 478569.78, 0.0005577145, 10.004338, 9.997675 
1.4550972e+3, 1.6413374e+2, -902658.2, -1331510.6, -39718.15, -0.0071232026, -0.13162203, -899010.7, 432469.7, 0.000051543706, 10.003794, 9.998113 
1.4550973e+3, 1.741324e+2, -880765.0, -1259958.1, -37509.555, -0.049672578, -0.08835205, -877090.2, 356403.34, 0.00000016567238, 10.003226, 9.998204 
1.4550981e+3, 1.8413086e+2, -842863.44, -1160554.0, -35221.254, -0.04934229, -0.07330305, -839005.44, 296502.9, 0.0, 10.002683, 9.998476 
1.4550991e+3, 1.9412911e+2, -812489.25, -1087241.6, -36163.508, -0.00083516305, -0.103713185, -807809.06, 229715.89, 0.0, 10.002184, 9.998547 
1.4551e+3, 2.0412767e+2, -787832.4, -1019471.5, -40483.113, 0.009835303, -0.102509506, -780961.06, 158578.3, 0.0, 10.0016575, 9.998592 
1.4551003e+3, 2.1412674e+2, -768653.9, -953892.7, -47652.375, -0.027493998, -0.061697334, -757114.25, 84435.79, 0.0, 10.001093, 9.998642 
1.4551012e+3, 2.2412568e+2, -724867.56, -820895.4, -46336.516, -0.01988542, -0.05344695, -706155.1, 37405.53, 0.0, 10.000457, 9.999188 
1.4551027e+3, 2.3412456e+2, -726683.6, -760155.3, -41872.438, 0.048850555, -0.096441194, -698326.3, -52755.777, 0.0, 9.999724, 9.999286 
1.455104e+3, 2.4412388e+2, -702491.2, -672567.6, -35494.285, 0.07663794, -0.101805754, -649010.6, -101433.35, 0.0, 9.999109, 9.999511 
1.4551048e+3, 2.5412387e+2, -665365.5, -596416.5, -42412.953, 0.04815888, -0.061344054, -576234.3, -126655.41, 0.0, 9.998659, 9.9995775 
1.4551058e+3, 2.6412377e+2, -616356.94, -460427.13, -39865.523, 0.047599204, -0.05116369, -450826.13, -99245.28, 0.0, 9.998058, 10.000127 
1.4551073e+3, 2.7412373e+2, -629033.25, -403468.25, -39525.08, 0.08291216, -0.07982825, -396742.9, -143161.5, 0.0, 9.997246, 10.0002365 
1.4551085e+3, 2.8412434e+2, -594456.44, -290102.72, -25529.62, 0.07284285, -0.05873329, -287976.13, -132400.1, 0.0, 9.996613, 10.000646 
1.4551094e+3, 2.941257e+2, -549596.44, -215073.3, -24141.826, 0.009488365, 0.003011483, -213340.02, -155776.0, 0.0, 9.996236, 10.0006695 
1.4551114e+3, 3.041256e+2, -588249.1, -220531.89, -28288.521, 0.047470126, -0.062233087, -218368.38, -218368.38, 0.0, 9.99569, 10.00056 
1.4551131e+3, 3.141265e+2, -556629.6, 19528.326, -19243.785, 0.07658661, -0.043296915, 20170.357, 20170.357, 0.0, 9.994938, 10.002572 
1.4650974e+3, 1.2414342e+2, -1048833.9, -1669494.6, -27432.521, -0.16913468, -0.08024913, -1047623.7, 675763.25, 0.00909569, 10.005825, 9.997503 
1.4651003e+3, 1.3414049e+2, -1043212.06, -1669273.1, 17054.24, 0.039187767, -0.07954671, -1042747.9, 582667.5, 0.0054104007, 10.005379, 9.997053 
1.4650983e+3, 1.4413807e+2, -978773.25, -1527032.8, -6560.579, -0.22671632, -0.05111041, -978694.75, 548743.9, 0.0023415787, 10.004878, 9.997592 
1.4651e+3, 1.5413511e+2, -953078.8, -1455877.0, -641.3894, -0.08013568, -0.11435055, -953078.0, 476388.75, 0.0005965109, 10.004338, 9.997666 
1.4651008e+3, 1.641327e+2, -899647.1, -1336817.0, -5953.9, -0.02224614, -0.13611847, -899566.06, 431923.47, 0.000056441775, 10.003846, 9.998049 
1.4651006e+3, 1.7413124e+2, -856565.06, -1255615.4, -12302.49, -0.052612383, -0.09849834, -856186.2, 377317.44, 0.00000022299002, 10.003427, 9.998136 
1.4651008e+3, 1.8412958e+2, -815646.7, -1153111.3, -18333.887, -0.045229137, -0.08885756, -814653.56, 320865.72, 0.0, 10.002895, 9.998423 
1.4651014e+3, 1.9412774e+2, -812595.7, -1092865.1, -19525.016, 0.003484942, -0.12489115, -811242.0, 226294.63, 0.0, 10.002209, 9.998494 
1.4651017e+3, 2.0412621e+2, -807134.1, -1042977.9, -20187.084, 0.011478889, -0.12325838, -805418.7, 134133.36, 0.0, 10.001588, 9.998464 
1.4651014e+3, 2.1412523e+2, -782406.9, -975665.1, -22974.889, -0.03326745, -0.073163025, -779713.1, 61850.863, 0.0, 10.001065, 9.998505 
1.4651015e+3, 2.2412416e+2, -720909.2, -819407.25, -27783.879, -0.02789008, -0.05973384, -713612.56, 29962.762, 0.0, 10.000487, 9.999184 
1.4651026e+3, 2.3412304e+2, -710588.06, -751229.1, -32324.234, 0.045870464, -0.103583865, -692727.7, -47142.656, 0.0, 9.999831, 9.999294 
1.4651032e+3, 2.4412233e+2, -696119.44, -678270.75, -22480.684, 0.07782387, -0.1061953, -663007.8, -115415.91, 0.0, 9.999193, 9.999431 
1.4651033e+3, 2.5412232e+2, -684148.4, -614909.8, -22337.293, 0.05265926, -0.057660796, -608329.0, -158734.84, 0.0, 9.998572, 9.999492 
1.4651039e+3, 2.6412222e+2, -631947.7, -467991.72, -22525.787, 0.051963314, -0.04408687, -464953.22, -113356.87, 0.0, 9.997952, 10.000125 
1.4651047e+3, 2.7412212e+2, -614951.44, -396186.84, -25055.566, 0.08166821, -0.07807967, -393353.88, -139756.81, 0.0, 9.99734, 10.00024 
1.4651053e+3, 2.8412268e+2, -583278.25, -283736.53, -7516.0684, 0.0743542, -0.06389028, -283548.06, -127955.71, 0.0, 9.996686, 10.000654 
1.4651057e+3, 2.9412404e+2, -587846.4, -233388.27, -9181.804, 0.026371527, -0.0035272029, -233150.58, -175569.63, 0.0, 9.995975, 10.0006695 
1.465107e+3, 3.041244e+2, -632056.94, -236842.06, -2489.183, 0.06844072, -0.024515433, -236826.39, -236826.39, 0.0, 9.99537, 10.000602 
1.4651081e+3, 3.14125e+2, -542061.56, 45323.17, 33909.402, 0.074504964, -0.039704833, 47274.266, 47274.266, 0.0, 9.994958, 10.002739 
1.4751029e+3, 1.2414289e+2, -1063580.0, -1699921.3, -45113.027, -0.20466155, -0.09851682, -1060397.8, 662992.44, 0.009570671, 10.005826, 9.997293 
1.475106e+3, 1.3413939e+2, -1053815.9, -1691423.1, -847.766, 0.06233785, -0.1395729, -1053814.8, 571609.7, 0.0057087983, 10.00538, 9.9969015 
1.4751036e+3, 1.4413704e+2, -967056.8, -1503452.3, -27684.064, -0.18690144, -0.10185378, -965631.8, 561815.56, 0.0024839125, 10.004881, 9.997753 
1.4751042e+3, 1.5413517e+2, -939041.0, -1427750.5, -21599.434, -0.09668232, -0.07720056, -938088.25, 491377.28, 0.0006387448, 10.004342, 9.997859 
1.4751044e+3, 1.6413295e+2, -909503.0, -1358661.0, -23255.67, -0.055186443, -0.0838788, -908302.1, 423184.53, 0.00006173706, 10.00385, 9.997898 
1.4751041e+3, 1.7413041e+2, -868617.25, -1282190.0, -28480.492, -0.047130313, -0.13331752, -866665.2, 366845.13, 0.0000002932695, 10.003432, 9.9979515 
1.475104e+3, 1.8412837e+2, -819063.7, -1161898.4, -43735.64, -0.03199312, -0.14993216, -813572.25, 321957.1, 0.0, 10.002901, 9.998361 
1.4751033e+3, 1.9412705e+2, -815330.1, -1100312.6, -45607.71, -0.017429804, -0.1278078, -808209.1, 229332.3, 0.0, 10.002215, 9.998442 
1.475103e+3, 2.0412558e+2, -811783.75, -1054221.1, -40626.48, -0.0070284097, -0.11526707, -805156.9, 134399.56, 0.0, 10.001594, 9.998385 
1.4751028e+3, 2.1412396e+2, -787699.9, -987841.2, -42384.81, 0.0013789001, -0.12054321, -779093.94, 62480.883, 0.0, 10.001068, 9.998421 
1.4751026e+3, 2.2412272e+2, -727334.44, -833787.8, -51722.09, 0.010669183, -0.115506046, -706343.5, 37244.695, 0.0, 10.00049, 9.999084 
1.475102e+3, 2.3412207e+2, -717128.5, -766116.9, -56368.58, 0.01929622, -0.10092751, -680162.25, -34568.32, 0.0, 9.999836, 9.999191 
1.4751019e+3, 2.441215e+2, -696058.9, -679370.25, -45056.195, 0.036438238, -0.084613785, -641892.2, -94292.32, 0.0, 9.999196, 9.999422 
1.475102e+3, 2.5412112e+2, -683916.75, -615011.44, -44572.836, 0.06759859, -0.072477624, -593128.3, -143522.78, 0.0, 9.998573, 9.999491 
1.475102e+3, 2.6412094e+2, -632674.1, -470272.94, -44453.43, 0.07485607, -0.064882174, -458901.16, -107292.8, 0.0, 9.997954, 10.00011 
1.4751016e+3, 2.741212e+2, -616123.25, -399002.9, -46630.836, 0.044272088, -0.066444054, -389411.72, -135805.48, 0.0, 9.99734, 10.000221 
1.4751016e+3, 2.841217e+2, -585889.25, -289649.38, -32570.678, 0.037438292, -0.050709035, -286110.6, -130508.64, 0.0, 9.996686, 10.000614 
1.4751022e+3, 2.9412276e+2, -591160.6, -241216.8, -34740.684, 0.07534024, -0.019747788, -237801.25, -180206.89, 0.0, 9.995976, 10.000615 
1.475103e+3, 3.041237e+2, -600989.3, -173746.67, -18394.615, 0.124523185, 0.0030775554, -172956.17, -172956.17, 0.0, 9.995374, 10.001034 
1.4751026e+3, 3.141247e+2, -509295.0, 113040.77, 15934.201, 0.02111285, -0.02259452, 113448.484, 113448.484, 0.0, 9.994957, 10.003205 
1.4851087e+3, 1.2414305e+2, -1074319.1, -1697879.9, -25066.855, -0.19878462, -0.091653004, -1073313.1, 650075.1, 0.0100637525, 10.005724, 9.997355 
1.4851113e+3, 1.3413937e+2, -1060345.8, -1679463.4, 39647.023, 0.060146768, -0.16342175, -1057817.3, 567605.94, 0.0060207318, 10.005272, 9.997034 
1.4851084e+3, 1.4413697e+2, -985898.2, -1527914.5, 12520.472, -0.18782291, -0.13244687, -985609.1, 541837.4, 0.0026344701, 10.00482, 9.997613 
1.4851086e+3, 1.5413524e+2, -942093.94, -1446821.5, -7422.891, -0.10009433, -0.07664546, -941984.8, 487479.44, 0.0006843618, 10.004399, 9.997699 
1.4851081e+3, 1.6413304e+2, -895481.7, -1350555.4, -17357.29, -0.059400257, -0.07371909, -894820.56, 436664.9, 0.00006739827, 10.003943, 9.997908 
1.4851075e+3, 1.7413032e+2, -866268.44, -1278237.5, -7994.5703, -0.050835803, -0.14493859, -866113.4, 367396.94, 0.00000037325287, 10.003438, 9.997974 
1.4851066e+3, 1.8412814e+2, -822174.2, -1173019.8, -21187.191, -0.039039597, -0.17318524, -820899.4, 314631.03, 0.0, 10.002923, 9.998273 
1.4851056e+3, 1.9412675e+2, -794869.0, -1101179.0, -27388.938, -0.033402115, -0.1473023, -792439.3, 245103.84, 0.0, 10.002404, 9.998343 
1.4851046e+3, 2.0412524e+2, -782066.25, -1039302.4, -22639.07, -0.017833091, -0.13245374, -780089.0, 159469.39, 0.0, 10.001797, 9.998388 
1.485104e+3, 2.1412362e+2, -787167.2, -986005.06, -18092.357, 0.0153656015, -0.13864599, -785534.4, 56042.137, 0.0, 10.001067, 9.998433 
1.4851032e+3, 2.2412238e+2, -738218.25, -849175.0, -20599.293, 0.02840071, -0.13036147, -734517.4, 9072.727, 0.0, 10.000462, 9.998992 
1.4851019e+3, 2.3412172e+2, -696429.4, -767678.3, -25534.443, 0.011177457, -0.10647276, -688223.4, -42626.69, 0.0, 10.00003, 9.999086 
1.485101e+3, 2.441211e+2, -662878.4, -662912.0, -21027.053, 0.016174382, -0.08901916, -641868.1, -94264.805, 0.0, 9.999425, 9.999424 
1.4851005e+3, 2.5412068e+2, -682983.0, -613330.25, -21289.416, 0.054379772, -0.08586219, -607338.5, -157729.2, 0.0, 9.998577, 9.999499 
1.4850998e+3, 2.6412052e+2, -650301.94, -483259.3, -16514.945, 0.06925993, -0.07545742, -481642.2, -130030.27, 0.0, 9.997854, 10.000068 
1.4850989e+3, 2.741208e+2, -624063.9, -407816.03, -20800.328, 0.04688115, -0.06205952, -405833.5, -152224.4, 0.0, 9.99731, 10.0001745 
1.4850983e+3, 2.8412125e+2, -585119.1, -287145.63, -10893.898, 0.04268099, -0.05549772, -286747.88, -131142.02, 0.0, 9.996685, 10.00063 
1.4850982e+3, 2.9412198e+2, -594852.56, -241374.3, -9824.139, 0.07543277, -0.056764383, -241101.47, -183500.72, 0.0, 9.995947, 10.0006275 
1.4850985e+3, 3.0412334e+2, -615566.0, -168163.42, 5154.1973, 0.12826283, 0.0025663557, -168104.06, -168104.06, 0.0, 9.995221, 10.001145 
1.4850974e+3, 3.1412435e+2, -569731.75, 83397.11, 9612.756, 0.040448323, -0.033301048, 83538.555, 83538.555, 0.0, 9.994547, 10.003198 
1.495115e+3, 1.2414397e+2, -1052816.8, -1653069.6, -43998.45, -0.15353769, -0.06081074, -1049608.9, 673771.6, 0.010577594, 10.005725, 9.997667 
1.4951162e+3, 1.3414049e+2, -1032423.06, -1621823.6, 21339.523, 0.03332316, -0.15319999, -1031651.5, 593759.7, 0.0063476353, 10.005276, 9.997429 
1.495113e+3, 1.4413786e+2, -1015449.44, -1590988.8, -5055.9136, -0.22821677, -0.14429703, -1015405.0, 512030.8, 0.002793906, 10.004826, 9.997179 
1.4951131e+3, 1.541354e+2, -976896.06, -1520459.1, -23701.408, -0.09156713, -0.11112213, -975864.5, 453597.6, 0.0007337359, 10.004403, 9.997193 
1.4951125e+3, 1.6413306e+2, -883943.2, -1327911.0, -36539.043, -0.036826625, -0.1038567, -880956.1, 450529.3, 0.00007357566, 10.003947, 9.998062 
1.4951108e+3, 1.7413095e+2, -850888.7, -1247331.8, -27475.145, -0.06375708, -0.1342303, -848993.56, 384509.8, 0.00000046463128, 10.003441, 9.998187 
1.4951093e+3, 1.8412885e+2, -829985.75, -1190293.0, -41319.043, -0.066164844, -0.15959541, -825308.1, 310214.13, 0.0, 10.002926, 9.998154 
1.4951079e+3, 1.9412683e+2, -804442.06, -1122641.4, -47090.074, -0.04511022, -0.18287452, -797619.5, 239922.03, 0.0, 10.002409, 9.998195 
1.4951065e+3, 2.0412521e+2, -775892.4, -1028239.0, -49511.527, -0.021677699, -0.17444836, -766525.6, 173032.19, 0.0, 10.001802, 9.998463 
1.495105e+3, 2.1412422e+2, -779286.9, -971566.94, -45489.426, 0.009210686, -0.12834889, -769068.06, 72501.2, 0.0, 10.001074, 9.99853 
1.4951035e+3, 2.2412312e+2, -743806.75, -862254.5, -37500.43, 0.025572533, -0.10554675, -732932.44, 10648.88, 0.0, 10.000466, 9.9989 
1.495102e+3, 2.3412198e+2, -704019.8, -783729.9, -41148.37, 0.020132579, -0.12002404, -686589.5, -40996.03, 0.0, 10.00003, 9.998977 
1.4951004e+3, 2.4412113e+2, -662856.6, -663151.8, -50831.887, 0.015668482, -0.11840094, -612172.1, -64569.69, 0.0, 9.999424, 9.999423 
1.4950988e+3, 2.541209e+2, -681889.94, -612119.94, -52119.98, 0.013875493, -0.097688414, -584287.7, -134681.75, 0.0, 9.99858, 9.999507 
1.4950974e+3, 2.641208e+2, -654606.25, -493352.5, -36820.83, 0.035804555, -0.076277934, -485342.66, -133735.13, 0.0, 9.997858, 9.999997 
1.4950967e+3, 2.7412105e+2, -629463.0, -419365.66, -39811.316, 0.08700223, -0.06456237, -412074.8, -158468.69, 0.0, 9.99731, 10.000096 
1.4950955e+3, 2.8412125e+2, -580506.8, -278282.84, -36757.75, 0.08751799, -0.07714423, -273876.47, -118271.89, 0.0, 9.996686, 10.000692 
1.4950936e+3, 2.9412168e+2, -589431.44, -231350.36, -36525.867, 0.028251134, -0.11368725, -227662.55, -170061.75, 0.0, 9.99595, 10.000695 
1.4950931e+3, 3.0412328e+2, -628410.6, -196228.81, -19292.512, 0.08130842, -0.026134735, -195369.3, -195369.3, 0.0, 9.995226, 10.000951 
1.495093e+3, 3.141241e+2, -603261.06, 12973.388, -17632.496, 0.12810248, -0.058858063, 13477.499, 13477.499, 0.0, 9.994549, 10.002714 
1.5051208e+3, 1.241452e+2, -1069460.6, -1675196.0, -3884.4675, -0.13678746, -0.06738924, -1069435.8, 653932.2, 0.011115857, 10.005674, 9.997538 
1.5051214e+3, 1.3414197e+2, -1011478.06, -1618011.1, 29423.574, 0.022278542, -0.12898828, -1010054.06, 615342.8, 0.006691715, 10.005451, 9.99737 
1.5051177e+3, 1.4413925e+2, -984282.94, -1577728.9, -7296.4307, -0.23754357, -0.1252264, -984193.25, 543229.1, 0.0029634042, 10.005051, 9.99716 
1.5051176e+3, 1.5413633e+2, -972266.44, -1519653.3, 9039.426, -0.08136795, -0.13693906, -972117.25, 457334.84, 0.00078746496, 10.004443, 9.997179 
1.5051165e+3, 1.6413383e+2, -897216.06, -1340959.4, 8765.489, -0.023809914, -0.1400085, -897042.94, 434433.4, 0.00008055033, 10.003886, 9.998001 
1.5051141e+3, 1.7413205e+2, -861693.4, -1259530.6, -2958.6594, -0.07279925, -0.13306585, -861671.4, 371820.53, 0.00000057502143, 10.003398, 9.998122 
1.505112e+3, 1.8413004e+2, -836728.5, -1198042.1, -25729.125, -0.08031319, -0.14418146, -834905.5, 300604.8, 0.0, 10.002901, 9.998112 
1.5051104e+3, 1.941278e+2, -809398.06, -1129524.1, -24420.02, -0.040409584, -0.18566272, -807545.94, 229985.94, 0.0, 10.002396, 9.998153 
1.5051083e+3, 2.0412607e+2, -759782.3, -1013249.5, -27173.568, -0.01539297, -0.1874792, -756901.8, 182647.06, 0.0, 10.0018835, 9.998526 
1.5051061e+3, 2.1412517e+2, -731968.5, -940212.94, -25686.758, -0.0074168476, -0.13932638, -728846.9, 112711.79, 0.0, 10.001364, 9.998605 
1.505104e+3, 2.2412415e+2, -713301.06, -852212.1, -18482.852, 0.004764202, -0.11183983, -710883.9, 32686.025, 0.0, 10.000698, 9.998857 
1.5051019e+3, 2.3412302e+2, -737353.4, -805937.4, -18866.418, 0.0217848, -0.11897124, -732506.06, -86923.555, 0.0, 9.999829, 9.99892 
1.5050998e+3, 2.4412213e+2, -699317.4, -678963.9, -24457.982, 0.024890002, -0.12055881, -662649.94, -115057.74, 0.0, 9.999168, 9.999437 
1.5050973e+3, 2.5412172e+2, -648687.25, -593651.9, -25708.227, 0.009206845, -0.11681024, -583511.4, -133914.84, 0.0, 9.998799, 9.999527 
1.5050954e+3, 2.6412162e+2, -608851.6, -470708.1, -13410.509, 0.028573316, -0.09861798, -469418.28, -117820.21, 0.0, 9.998172, 10.0 
1.505094e+3, 2.7412197e+2, -647853.0, -428108.97, -11594.926, 0.09356009, -0.072880216, -427498.84, -173903.39, 0.0, 9.997186, 10.000094 
1.5050921e+3, 2.8412217e+2, -610595.7, -289599.0, 1276.8873, 0.09452075, -0.08964048, -289593.9, -133999.97, 0.0, 9.996469, 10.000718 
1.5050896e+3, 2.941224e+2, -561435.25, -214114.28, -1759.9961, 0.01647112, -0.14926761, -214105.36, -156514.16, 0.0, 9.996128, 10.000728 
1.5050884e+3, 3.0412415e+2, -589537.5, -175452.56, 9942.191, 0.07122289, -0.052498613, -175213.98, -175213.98, 0.0, 9.995485, 10.000968 
1.5050876e+3, 3.1412485e+2, -642530.44, -40805.977, 23308.387, 0.15848587, -0.09628296, -39904.453, -39904.453, 0.0, 9.9944315, 10.0024 
1.5151264e+3, 1.2414683e+2, -1107141.9, -1754780.8, -16127.626, -0.14751148, -0.10821821, -1106740.5, 616609.56, 0.01168036, 10.00568, 9.996986 
1.515127e+3, 1.3414389e+2, -1045938.8, -1690006.5, 19881.035, 0.025631936, -0.09124596, -1045325.75, 580053.75, 0.0070538525, 10.005452, 9.996876 
1.515123e+3, 1.4414118e+2, -958270.0, -1524251.8, -30071.303, -0.21787067, -0.0762662, -956676.75, 570728.6, 0.003143352, 10.0050535, 9.997527 
1.5151222e+3, 1.5413804e+2, -940364.5, -1454937.9, -14661.99, -0.06997839, -0.15450679, -939947.06, 489486.78, 0.00084576773, 10.004448, 9.997622 
1.5151204e+3, 1.6413543e+2, -915021.75, -1379800.0, -11008.258, -0.020524489, -0.18157296, -914761.1, 416697.03, 0.00008854679, 10.003892, 9.997732 
1.5151176e+3, 1.7413364e+2, -884400.0, -1308192.9, -21750.666, -0.07887289, -0.14123206, -883286.6, 350189.03, 0.00000071310234, 10.003403, 9.997787 
1.515115e+3, 1.841317e+2, -834692.94, -1195047.6, -45073.246, -0.08278909, -0.12761661, -829140.75, 306353.7, 0.0, 10.002905, 9.998132 
1.515113e+3, 1.9412962e+2, -805493.06, -1122283.0, -43577.1, -0.0201446, -0.1571847, -799608.0, 237906.22, 0.0, 10.002398, 9.998203 
1.5151103e+3, 2.0412782e+2, -756224.3, -1006349.8, -46793.387, 0.00033750565, -0.17232797, -747756.9, 191774.77, 0.0, 10.0018835, 9.998574 
1.5151072e+3, 2.141265e+2, -728714.0, -933873.7, -45060.023, -0.03479753, -0.17071362, -719253.56, 122291.0, 0.0, 10.001364, 9.99865 
1.5151042e+3, 2.2412544e+2, -713338.1, -853022.94, -49728.65, -0.033944763, -0.14816463, -697443.1, 46112.664, 0.0, 10.000699, 9.998852 
1.5151018e+3, 2.3412481e+2, -737457.75, -807523.94, -51013.063, 0.016223446, -0.103467606, -710606.7, -65042.605, 0.0, 9.999833, 9.998908 
1.5150991e+3, 2.4412403e+2, -697251.4, -675940.3, -39184.08, 0.04305549, -0.09635962, -645988.8, -98415.836, 0.0, 9.999172, 9.999457 
1.5150964e+3, 2.5412312e+2, -647055.5, -590380.4, -38532.703, 0.038485143, -0.14343546, -570887.1, -121305.586, 0.0, 9.998798, 9.999551 
1.5150937e+3, 2.641229e+2, -604314.7, -461360.53, -47488.22, 0.045996778, -0.141907, -447023.25, -95439.336, 0.0, 9.998171, 10.000066 
1.5150908e+3, 2.7412364e+2, -642551.2, -418386.53, -47421.48, 0.066828564, -0.086787574, -408767.4, -155189.78, 0.0, 9.9971895, 10.00016 
1.5150882e+3, 2.8412396e+2, -610271.94, -290694.3, -12461.157, 0.06415157, -0.093218446, -290209.16, -134634.63, 0.0, 9.996474, 10.00071 
1.515086e+3, 2.9412407e+2, -561741.44, -215481.0, -13295.011, 0.038373217, -0.16343029, -214971.28, -157398.7, 0.0, 9.996129, 10.000719 
1.515084e+3, 3.041258e+2, -574293.8, -144640.47, -26158.064, 0.09570893, -0.07791932, -143053.78, -143053.78, 0.0, 9.995486, 10.001181 
1.515082e+3, 3.1412655e+2, -651376.06, -61208.695, -17729.797, 0.13151483, -0.13673668, -60676.54, -60676.54, 0.0, 9.994438, 10.002258 
1.5251322e+3, 1.2414887e+2, -1081813.0, -1761453.3, -23305.61, -0.14919212, -0.11336012, -1081014.8, 642314.56, 0.012270635, 10.005944, 9.996812 
1.5251325e+3, 1.3414577e+2, -1055346.0, -1705548.6, 42370.676, 0.035284992, -0.102386035, -1052596.5, 572764.75, 0.0074333353, 10.005438, 9.996776 
1.5251282e+3, 1.4414306e+2, -961708.4, -1514949.4, -5446.9233, -0.19950083, -0.08659997, -961654.75, 565732.56, 0.0033329425, 10.004984, 9.997624 
1.5251265e+3, 1.5414022e+2, -909085.75, -1426574.8, -14316.481, -0.074354224, -0.14664716, -908690.0, 520722.1, 0.00090819603, 10.004608, 9.997739 
1.5251243e+3, 1.6413766e+2, -887672.94, -1369991.4, -19536.574, -0.0313112, -0.17133377, -886882.9, 444552.5, 0.00009758992, 10.004097, 9.997701 
1.525121e+3, 1.7413563e+2, -888248.0, -1315456.1, -10407.701, -0.07514593, -0.15160689, -887994.56, 345461.03, 0.0000008739153, 10.003401, 9.997738 
1.5251179e+3, 1.8413362e+2, -849110.06, -1194329.9, -18598.605, -0.07735018, -0.14488298, -848111.0, 287364.06, 0.0, 10.002774, 9.9981985 
1.525115e+3, 1.9413175e+2, -822301.75, -1121375.8, -15151.056, -0.030436978, -0.16157472, -821536.1, 215956.38, 0.0, 10.002245, 9.9982815 
1.525112e+3, 2.0413004e+2, -781389.1, -1014355.8, -19111.795, -0.013266845, -0.17374778, -779831.7, 159677.1, 0.0, 10.001696, 9.998609 
1.5251084e+3, 2.1412864e+2, -762361.56, -946840.7, -19477.734, -0.034588814, -0.18297914, -760327.5, 81194.88, 0.0, 10.001121, 9.998676 
1.525105e+3, 2.2412753e+2, -736517.75, -863317.0, -30899.115, -0.028270366, -0.16675419, -729388.9, 14145.127, 0.0, 10.000537, 9.998858 
1.5251017e+3, 2.3412693e+2, -720564.06, -798452.44, -32095.059, 0.015124686, -0.12178786, -709042.94, -63500.863, 0.0, 9.999948, 9.998915 
1.5250984e+3, 2.4412619e+2, -677525.06, -659682.75, -13323.718, 0.04165325, -0.111680426, -652569.3, -105018.88, 0.0, 9.999281, 9.999515 
1.5250953e+3, 2.5412542e+2, -685048.25, -601766.75, -9664.197, 0.046254214, -0.15160719, -600660.0, -151102.17, 0.0, 9.998509, 9.999612 
1.5250918e+3, 2.6412526e+2, -643435.56, -474160.66, -22646.03, 0.050014608, -0.14987794, -471183.38, -119623.836, 0.0, 9.997878, 10.000118 
1.525088e+3, 2.741259e+2, -603071.94, -393389.97, -24999.246, 0.049307153, -0.1052012, -390450.66, -136897.31, 0.0, 9.997437, 10.000213 
1.5250847e+3, 2.8412625e+2, -562641.1, -262220.8, 13658.305, 0.050112344, -0.11635781, -261601.13, -106051.2, 0.0, 9.9967785, 10.000757 
1.525082e+3, 2.9412645e+2, -601452.7, -228057.06, 17176.75, 0.060857624, -0.1810598, -227268.58, -169721.75, 0.0, 9.9958315, 10.000775 
1.5250796e+3, 3.0412826e+2, -614430.4, -141257.89, 3660.9521, 0.11533912, -0.10257449, -141229.58, -141229.58, 0.0, 9.995116, 10.001381 
1.5250762e+3, 3.1412944e+2, -622554.44, -60199.95, 7718.0864, 0.11303322, -0.13524424, -60094.043, -60094.043, 0.0, 9.994694, 10.002141 
1.5351382e+3, 1.2415138e+2, -1069697.4, -1736460.3, -45553.805, -0.14210865, -0.0839257, -1066599.5, 656705.7, 0.012885672, 10.005948, 9.996984 
1.5351382e+3, 1.3414767e+2, -1036449.3, -1667131.4, 22577.453, 0.050135225, -0.15991476, -1035642.1, 589699.44, 0.007829742, 10.005444, 9.997037 
1.5351333e+3, 1.4414494e+2, -972172.56, -1538251.3, -21249.322, -0.18336213, -0.1531607, -971376.06, 555991.7, 0.0035315151, 10.00499, 9.997463 
1.535131e+3, 1.541429e+2, -922646.0, -1455180.0, -28913.018, -0.094549045, -0.11482563, -921080.8, 508305.6, 0.0009741015, 10.004608, 9.997543 
1.535128e+3, 1.641406e+2, -874765.75, -1343828.1, -45221.31, -0.056216057, -0.11205707, -870445.8, 460961.84, 0.00010755989, 10.004097, 9.997881 
1.5351245e+3, 1.7413804e+2, -872848.5, -1284554.1, -36854.367, -0.06220562, -0.1639432, -869575.44, 363856.1, 0.0000010362653, 10.003404, 9.99795 
1.5351209e+3, 1.8413584e+2, -840751.56, -1178103.9, -39437.813, -0.064735286, -0.1938224, -836202.44, 299249.53, 0.0, 10.002777, 9.99831 
1.5351169e+3, 1.9413422e+2, -814562.44, -1106731.6, -35006.008, -0.07092337, -0.19727264, -810426.75, 227039.81, 0.0, 10.00225, 9.998382 
1.5351133e+3, 2.0413274e+2, -780031.8, -1012954.94, -40734.79, -0.055910837, -0.19130865, -773113.44, 166367.02, 0.0, 10.001699, 9.998617 
1.5351097e+3, 2.1413158e+2, -762093.44, -947130.25, -40875.484, -0.008110647, -0.17703539, -753466.1, 88026.21, 0.0, 10.0011215, 9.998675 
1.535106e+3, 2.241304e+2, -735073.1, -860893.44, -52856.656, 0.019748917, -0.16825522, -715815.7, 27688.996, 0.0, 10.000538, 9.998876 
1.5351015e+3, 2.3412931e+2, -719082.1, -796196.94, -53563.195, 0.017961392, -0.17310874, -691641.9, -46125.098, 0.0, 9.9999485, 9.998931 
1.5350974e+3, 2.441286e+2, -670760.9, -646601.7, -40971.57, 0.021114388, -0.16531293, -615966.1, -68441.33, 0.0, 9.999284, 9.999605 
1.5350935e+3, 2.5412855e+2, -678189.9, -588633.44, -37561.598, 0.032290682, -0.14106573, -574965.44, -125439.69, 0.0, 9.998512, 9.9997015 
1.5350895e+3, 2.6412863e+2, -640034.0, -468489.44, -39035.355, 0.039906904, -0.12341636, -460024.56, -108499.22, 0.0, 9.997882, 10.000156 
1.5350853e+3, 2.7412882e+2, -599964.56, -388319.16, -40205.46, 0.040617414, -0.12988625, -380938.84, -127415.7, 0.0, 9.99744, 10.000247 
1.5350816e+3, 2.8412902e+2, -555881.1, -248839.63, -19413.69, 0.051591888, -0.15938848, -247617.0, -92096.43, 0.0, 9.99678, 10.00085 
1.5350781e+3, 2.9412958e+2, -593960.94, -213058.45, -17536.049, 0.082204565, -0.20058948, -212252.83, -154738.45, 0.0, 9.9958315, 10.000879 
1.5350749e+3, 3.0413148e+2, -600555.44, -113956.83, -12250.17, 0.1287593, -0.12740833, -113648.625, -113648.625, 0.0, 9.99512, 10.001568 
1.5350708e+3, 3.141335e+2, -625425.7, -68878.35, -7327.0557, 0.10069811, -0.09608614, -68781.91, -68781.91, 0.0, 9.994703, 10.002078 
1.5451443e+3, 1.2415414e+2, -1040944.25, -1715521.4, -21219.377, -0.13192129, -0.08826128, -1040277.44, 683001.3, 0.013527188, 10.006122, 9.997044 
1.5451436e+3, 1.3415079e+2, -997129.94, -1630291.3, 41792.83, 0.0442129, -0.14395829, -994383.25, 630927.9, 0.008245077, 10.005644, 9.997192 
1.5451384e+3, 1.441481e+2, -962932.75, -1538881.1, -3848.0266, -0.18381496, -0.13863708, -962907.06, 564429.5, 0.0037400543, 10.005078, 9.997415 
1.5451355e+3, 1.5414575e+2, -956738.44, -1479312.5, -2843.2007, -0.092355, -0.124119334, -956723.0, 472635.44, 0.0010434753, 10.004408, 9.997474 
1.5451321e+3, 1.6414338e+2, -908811.94, -1345508.1, -18804.574, -0.05105937, -0.12898517, -908003.7, 423376.47, 0.00011839293, 10.003801, 9.998012 
1.545128e+3, 1.7414114e+2, -880052.8, -1270954.5, -15899.6875, -0.055115364, -0.16689573, -879407.2, 353993.66, 0.0000011877057, 10.003283, 9.9981 
1.5451236e+3, 1.8413907e+2, -831875.0, -1160085.0, -17447.879, -0.0590325, -0.19573367, -830950.06, 304469.25, 0.0, 10.002781, 9.998431 
1.5451193e+3, 1.9413741e+2, -798636.4, -1085924.1, -12031.803, -0.07123363, -0.21529086, -798133.4, 239300.33, 0.0, 10.002304, 9.998497 
1.545115e+3, 2.0413594e+2, -777255.3, -1009334.25, -22691.941, -0.057890903, -0.21454057, -775057.4, 164389.8, 0.0, 10.00171, 9.998636 
1.5451108e+3, 2.1413489e+2, -785165.9, -956836.25, -22875.895, -0.0061921147, -0.19057652, -782169.9, 59288.676, 0.0, 10.000959, 9.998686 
1.5451065e+3, 2.2413377e+2, -756598.94, -856054.56, -26305.488, 0.023772148, -0.18338342, -750069.9, -6599.5723, 0.0, 10.000327, 9.999009 
1.5451016e+3, 2.3413265e+2, -722020.1, -781949.75, -17684.967, 0.022451686, -0.20544203, -717190.56, -71708.625, 0.0, 9.999862, 9.99907 
1.5450968e+3, 2.44132e+2, -668411.8, -641823.9, -10292.936, 0.025888786, -0.19897424, -638304.94, -90816.016, 0.0, 9.999285, 9.999637 
1.545092e+3, 2.541322e+2, -671562.94, -582999.7, -13743.106, 0.036029268, -0.15434438, -580916.06, -131427.92, 0.0, 9.9985485, 9.999722 
1.5450874e+3, 2.641323e+2, -638069.4, -462509.53, -9379.15, 0.04432404, -0.13524365, -462009.88, -110522.38, 0.0, 9.997876, 10.000199 
1.5450828e+3, 2.741323e+2, -617914.1, -392284.9, -9491.79, 0.049078297, -0.16453776, -391886.3, -138399.64, 0.0, 9.997299, 10.000287 
1.5450783e+3, 2.8413257e+2, -579164.0, -262007.27, -4931.057, 0.058106404, -0.19129696, -261930.63, -106447.01, 0.0, 9.996631, 10.000831 
1.545074e+3, 2.941334e+2, -595257.56, -215329.61, -13849.448, 0.07739666, -0.19999935, -214825.42, -157350.7, 0.0, 9.9958315, 10.000863 
1.5450698e+3, 3.0413494e+2, -579878.8, -95543.6, 41.44208, 0.11595495, -0.16347255, -95543.6, -95543.6, 0.0, 9.995228, 10.001641 
1.5450656e+3, 3.141371e+2, -603805.7, -63426.39, -2532.5022, 0.10606788, -0.1256173, -63414.523, -63414.523, 0.0, 9.994877, 10.00203 
1.5551504e+3, 1.2415721e+2, -1042929.4, -1720677.1, -43517.61, -0.11969083, -0.12295548, -1040146.56, 683103.06, 0.014202735, 10.006128, 9.997006 
1.5551491e+3, 1.3415511e+2, -992736.4, -1622027.5, 23134.078, 0.01830577, -0.058887687, -991887.06, 633382.8, 0.008684901, 10.005649, 9.997247 
1.5551433e+3, 1.4415254e+2, -958786.56, -1531921.5, -29108.977, -0.2001821, -0.047258522, -957311.94, 569981.8, 0.003961801, 10.005085, 9.99746 
1.5551402e+3, 1.5414883e+2, -952854.3, -1473136.9, -28264.926, -0.06961084, -0.17184205, -951323.3, 478004.22, 0.0011175096, 10.004415, 9.997514 
1.5551363e+3, 1.6414614e+2, -902310.9, -1333909.3, -39206.81, -0.018238405, -0.21755162, -898778.2, 432574.0, 0.00013028484, 10.003807, 9.99809 
1.5551312e+3, 1.741449e+2, -873604.56, -1259052.9, -35585.44, -0.05456046, -0.16123001, -870346.75, 363016.56, 0.0000013544981, 10.003286, 9.998181 
1.5551263e+3, 1.8414329e+2, -822814.7, -1142355.9, -35867.336, -0.061068024, -0.15321727, -818838.2, 316539.06, 0.0, 10.002783, 9.998552 
1.555122e+3, 1.9414131e+2, -789828.56, -1068010.9, -30080.227, -0.033139315, -0.21650979, -786613.1, 250780.8, 0.0, 10.002303, 9.998622 
1.555117e+3, 2.0413966e+2, -775679.7, -1006106.25, -50219.09, -0.020969905, -0.24302055, -765210.6, 174198.48, 0.0, 10.001709, 9.99866 
1.5551116e+3, 2.1413858e+2, -784033.56, -955052.8, -50952.613, -0.028735561, -0.22254518, -770003.94, 71417.06, 0.0, 10.000959, 9.998699 
1.5551063e+3, 2.2413762e+2, -739304.4, -821257.9, -44212.547, -0.015236291, -0.21146432, -719999.75, 23431.281, 0.0, 10.00033, 9.999248 
1.5551014e+3, 2.3413691e+2, -703813.94, -744702.06, -34351.715, 0.02790854, -0.21907076, -684283.0, -38845.3, 0.0, 9.999862, 9.999327 
1.5550964e+3, 2.4413638e+2, -670461.9, -646821.1, -36337.438, 0.054136205, -0.21322241, -620429.9, -72986.73, 0.0, 9.999286, 9.999603 
1.5550908e+3, 2.5413626e+2, -674867.56, -591452.7, -40464.973, 0.05673767, -0.1920434, -575048.8, -125603.19, 0.0, 9.998553, 9.999662 
1.5550856e+3, 2.6413625e+2, -633944.4, -455551.16, -30588.969, 0.06288177, -0.18502216, -450451.84, -99005.484, 0.0, 9.997881, 10.000246 
1.5550803e+3, 2.741364e+2, -614618.56, -386052.22, -29772.07, 0.07223472, -0.20763792, -382237.9, -128793.63, 0.0, 9.997299, 10.000331 
1.5550749e+3, 2.841368e+2, -587796.5, -280993.0, -32914.566, 0.06724206, -0.21158662, -277501.6, -122062.195, 0.0, 9.996634, 10.0007 
1.5550694e+3, 2.941379e+2, -603443.5, -235087.92, -42405.11, 0.046193015, -0.18147331, -230269.28, -172840.77, 0.0, 9.995841, 10.000724 
1.5550648e+3, 3.0413866e+2, -583179.5, -104823.48, -13239.45, 0.076632135, -0.21254528, -104457.33, -104457.33, 0.0, 9.995236, 10.0015745 
1.5550607e+3, 3.1414017e+2, -605496.0, -67829.38, -13361.741, 0.1262152, -0.23365179, -67497.53, -67497.53, 0.0, 9.994879, 10.002001 
1.5651569e+3, 1.2416153e+2, -993280.5, -1713362.3, -4096.0313, -0.1220314, -0.115388066, -993257.2, 729949.7, 0.014924806, 10.006555, 9.99685 
1.5651546e+3, 1.3415918e+2, -965886.25, -1617613.9, 55111.785, 0.014107184, -0.06809439, -961258.75, 663970.94, 0.009157469, 10.005877, 9.997168 
1.5651484e+3, 1.4415658e+2, -935163.4, -1508767.8, -4213.971, -0.19128387, -0.05966023, -935132.4, 592121.4, 0.004201504, 10.005199, 9.997564 
1.5651447e+3, 1.5415311e+2, -927226.6, -1446614.5, 1999.0858, -0.06628371, -0.17270464, -927218.94, 502065.94, 0.0011982755, 10.004533, 9.997637 
1.56514e+3, 1.6415046e+2, -889084.75, -1329118.5, -4856.788, -0.016779924, -0.21699312, -889031.1, 442277.5, 0.00014367163, 10.003908, 9.998072 
1.5651345e+3, 1.7414908e+2, -869279.6, -1260730.9, -9940.206, -0.051997907, -0.17313212, -869027.4, 364293.97, 0.0000015912761, 10.003335, 9.998145 
1.5651292e+3, 1.8414746e+2, -830659.8, -1136271.5, -18248.666, -0.052296143, -0.16897203, -829574.0, 305761.44, 0.0, 10.002688, 9.998639 
1.5651242e+3, 1.9414566e+2, -835274.0, -1078947.6, -15291.895, -0.010618751, -0.22407845, -834318.06, 203032.31, 0.0, 10.0019455, 9.998717 
1.5651187e+3, 2.0414412e+2, -825897.44, -1021512.8, -34482.766, 0.00095326046, -0.24786434, -819996.9, 119367.625, 0.0, 10.0013275, 9.998737 
1.5651126e+3, 2.1414307e+2, -790567.94, -950443.4, -31740.84, -0.027388165, -0.23250137, -784496.8, 56879.438, 0.0, 10.000882, 9.998767 
1.5651065e+3, 2.241422e+2, -729087.7, -793515.75, -24993.02, -0.022752028, -0.22496022, -720529.25, 22855.895, 0.0, 10.000303, 9.999451 
1.5651011e+3, 2.3414168e+2, -735977.94, -735803.3, -19264.03, 0.027239922, -0.2332122, -716626.44, -71237.43, 0.0, 9.999539, 9.999542 
1.5650955e+3, 2.4414127e+2, -714889.5, -663009.2, -17001.229, 0.056228142, -0.230638, -657934.25, -110541.36, 0.0, 9.998961, 9.999647 
1.5650895e+3, 2.541411e+2, -659758.0, -581595.56, -14995.14, 0.056206275, -0.21778916, -578817.5, -129421.55, 0.0, 9.998648, 9.999684 
1.5650836e+3, 2.6414105e+2, -604077.7, -442683.16, -11937.141, 0.06335562, -0.21395996, -441805.03, -90407.91, 0.0, 9.998094, 10.000232 
1.5650776e+3, 2.741412e+2, -631398.0, -396390.38, -17998.73, 0.07945822, -0.23056339, -395019.88, -141624.98, 0.0, 9.997196, 10.000309 
1.5650716e+3, 2.841417e+2, -607924.4, -295710.9, -14811.634, 0.07472195, -0.22620171, -295009.8, -139620.14, 0.0, 9.996519, 10.000653 
1.5650654e+3, 2.941428e+2, -559408.2, -218409.72, -16703.418, 0.042602047, -0.18913211, -217593.47, -160215.02, 0.0, 9.996165, 10.000681 
1.56506e+3, 3.0414313e+2, -543749.44, -103840.55, 10392.479, 0.06565659, -0.25680372, -103595.17, -103595.17, 0.0, 9.995586, 10.001411 
1.5650555e+3, 3.1414473e+2, -635698.06, -84760.125, 3755.226, 0.1341506, -0.2475698, -84734.53, -84734.53, 0.0, 9.994682, 10.001978 
1.5751633e+3, 1.24167114e+2, -1012704.5, -1755619.1, -34164.723, -0.13903327, -0.06806424, -1011136.7, 712013.6, 0.015705358, 10.006563, 9.996556 
1.5751608e+3, 1.3416308e+2, -981665.44, -1651277.6, 29159.477, 0.029105468, -0.16567546, -980398.06, 644791.6, 0.009670614, 10.00588, 9.996935 
1.575154e+3, 1.4416032e+2, -923493.56, -1485531.9, -30103.56, -0.15971664, -0.16917804, -921885.8, 605329.94, 0.004463632, 10.005203, 9.997724 
1.575149e+3, 1.5415856e+2, -912504.56, -1418047.0, -23367.29, -0.08160589, -0.12950727, -911426.8, 517803.72, 0.0012877403, 10.00454, 9.997831 
1.5751436e+3, 1.641564e+2, -896073.44, -1345843.4, -27213.586, -0.045511555, -0.13241464, -894432.9, 436816.97, 0.0001589103, 10.003916, 9.997954 
1.575138e+3, 1.7415372e+2, -879474.75, -1283017.6, -31540.805, -0.04768466, -0.2016463, -877024.44, 356250.22, 0.0000019351096, 10.003338, 9.9979925 
1.575132e+3, 1.8415162e+2, -827006.0, -1129476.5, -45471.97, -0.033711642, -0.23983377, -820317.8, 314975.72, 0.0, 10.002689, 9.998686 
1.5751263e+3, 1.9415045e+2, -830085.8, -1069759.6, -42908.836, -0.0041573592, -0.23743854, -822635.44, 214667.5, 0.0, 10.00195, 9.998779 
1.5751201e+3, 2.041493e+2, -817070.44, -1004750.8, -51865.207, 0.0073356894, -0.22997774, -803691.3, 135622.19, 0.0, 10.001332, 9.998851 
1.5751137e+3, 2.1414831e+2, -782177.7, -933743.5, -47906.88, -0.0034226943, -0.22154438, -768305.06, 73019.57, 0.0, 10.000884, 9.998882 
1.5751071e+3, 2.2414745e+2, -717533.56, -770385.25, -52171.098, -0.00043783852, -0.22463302, -685477.4, 57855.51, 0.0, 10.000304, 9.99961 
1.5751006e+3, 2.3414695e+2, -723736.3, -711789.2, -47402.016, 0.020364925, -0.24803537, -669985.8, -24649.846, 0.0, 9.999543, 9.999706 
1.5750943e+3, 2.4414663e+2, -706144.44, -646283.7, -29345.787, 0.03292262, -0.25116217, -634297.44, -86958.87, 0.0, 9.998965, 9.999761 
1.5750879e+3, 2.5414667e+2, -652489.06, -566750.8, -25406.428, 0.033651695, -0.23101462, -559787.75, -110448.17, 0.0, 9.998647, 9.999788 
1.5750813e+3, 2.6414666e+2, -610026.2, -455843.44, -42406.91, 0.044493977, -0.22212003, -444949.44, -93609.26, 0.0, 9.998095, 10.000142 
1.5750748e+3, 2.7414677e+2, -637068.5, -410948.56, -50528.598, 0.0706866, -0.235556, -400171.16, -146831.88, 0.0, 9.997206, 10.000206 
1.5750682e+3, 2.8414714e+2, -604201.25, -290710.25, -29048.426, 0.08013573, -0.23676324, -288041.3, -132706.17, 0.0, 9.996529, 10.000684 
1.5750618e+3, 2.9414806e+2, -556564.1, -213189.55, -28832.477, 0.06385048, -0.22235714, -210785.38, -153460.16, 0.0, 9.996166, 10.000718 
1.5750557e+3, 3.0414823e+2, -561684.7, -141870.19, -20632.922, 0.08037523, -0.2950392, -140858.56, -140858.56, 0.0, 9.995588, 10.001151 
1.5750502e+3, 3.1415057e+2, -633684.56, -83807.3, -25037.951, 0.12565966, -0.18636933, -82669.58, -82669.58, 0.0, 9.994694, 10.001981 
1.5851699e+3, 1.24172576e+2, -971692.06, -1738370.5, -22228.707, -0.14308466, -0.09044668, -971048.1, 752047.0, 0.016550096, 10.006869, 9.996527 
1.5851666e+3, 1.3416854e+2, -971539.0, -1641044.5, 63794.223, 0.024613623, -0.19265582, -965514.56, 659619.7, 0.010228085, 10.005936, 9.996977 
1.5851593e+3, 1.4416581e+2, -930226.2, -1494832.1, 16034.435, -0.14810036, -0.19031656, -929771.2, 597388.75, 0.00475046, 10.005189, 9.9976635 
1.5851536e+3, 1.5416414e+2, -895177.5, -1418168.4, 3041.4226, -0.07640951, -0.13679038, -895159.8, 534014.94, 0.0013868851, 10.004699, 9.997752 
1.5851477e+3, 1.6416197e+2, -870320.75, -1324985.4, -10331.73, -0.041272577, -0.13785182, -870086.06, 461108.13, 0.00017601055, 10.004058, 9.998029 
1.5851413e+3, 1.7415923e+2, -891636.75, -1278935.5, 1351.074, -0.0376439, -0.22326419, -891632.06, 341587.25, 0.0000023797534, 10.003214, 9.998078 
1.5851347e+3, 1.8415715e+2, -848455.75, -1138933.9, -934.2633, -0.024304314, -0.2632213, -848452.75, 286785.2, 0.0, 10.002542, 9.998691 
1.5851283e+3, 1.9415617e+2, -809108.4, -1059982.6, -3475.8025, -0.0042893896, -0.24165219, -809060.25, 228185.86, 0.0, 10.002099, 9.998774 
1.5851216e+3, 2.0415515e+2, -784866.6, -976590.94, -16884.861, 0.008736165, -0.22760713, -783390.94, 155864.77, 0.0, 10.001501, 9.998962 
1.5851146e+3, 2.1415414e+2, -802245.44, -929389.8, -13229.543, 0.014330234, -0.2306641, -800883.44, 40382.96, 0.0, 10.000688, 9.999005 
1.5851076e+3, 2.2415332e+2, -752303.2, -781991.8, -19561.488, 0.019314447, -0.24001922, -742591.3, 682.8946, 0.0, 10.000047, 9.999653 
1.5851003e+3, 2.3415287e+2, -705933.0, -699452.1, -24513.664, 0.022574866, -0.26251063, -677965.6, -32688.701, 0.0, 9.99965, 9.999739 
1.5850931e+3, 2.441526e+2, -680546.7, -623976.56, -12124.483, 0.02701718, -0.26469442, -621487.44, -74208.68, 0.0, 9.999099, 9.999848 
1.5850863e+3, 2.5415272e+2, -692994.4, -575482.5, -10126.229, 0.03207095, -0.24326836, -574616.3, -125337.98, 0.0, 9.998325, 9.999881 
1.5850793e+3, 2.6415274e+2, -666293.25, -489804.34, -28617.441, 0.04124231, -0.2363292, -485280.03, -134001.11, 0.0, 9.997742, 10.000077 
1.585072e+3, 2.741527e+2, -610834.0, -406885.13, -35423.598, 0.0582603, -0.25510103, -400907.66, -147627.81, 0.0, 9.997426, 10.000126 
1.5850648e+3, 2.841531e+2, -549355.94, -261060.36, -13558.277, 0.07440333, -0.2523056, -260424.14, -105148.266, 0.0, 9.996894, 10.0007105 
1.5850581e+3, 2.941542e+2, -572263.7, -216841.31, -14837.546, 0.08567462, -0.22327016, -216222.98, -158958.89, 0.0, 9.996044, 10.000751 
1.5850514e+3, 3.041543e+2, -593146.9, -178437.86, -1769.7349, 0.09533187, -0.29495496, -178430.31, -178430.31, 0.0, 9.995466, 10.0009575 
1.5850449e+3, 3.141565e+2, -535563.0, -24296.465, 3996.8535, 0.09329771, -0.17912552, -24265.223, -24265.223, 0.0, 9.9953165, 10.002088 
1.5951769e+3, 1.2417804e+2, -956364.5, -1705720.1, -61385.703, -0.13620661, -0.17434439, -951369.25, 771670.6, 0.01745755, 10.00687, 9.996753 
1.5951724e+3, 1.3417552e+2, -949527.75, -1597144.3, 28166.088, 0.0019486481, -0.15434362, -948305.06, 676758.44, 0.010829101, 10.005945, 9.997275 
1.5951644e+3, 1.4417307e+2, -948673.6, -1535734.8, -4655.186, -0.15523566, -0.12953106, -948636.7, 578450.0, 0.0050619445, 10.005199, 9.997377 
1.5951587e+3, 1.5416987e+2, -919655.94, -1469181.6, -15474.431, -0.052792355, -0.1916801, -919220.56, 509896.47, 0.0014957283, 10.004698, 9.997404 
1.5951522e+3, 1.6416728e+2, -853280.44, -1289667.6, -41098.49, -0.006971391, -0.22774655, -849443.56, 481697.38, 0.00019476046, 10.004056, 9.998273 
1.5951447e+3, 1.7416559e+2, -869580.6, -1235384.0, -30415.564, -0.022968661, -0.23810697, -867068.94, 366086.5, 0.0000028938316, 10.0032215, 9.998375 
1.5951373e+3, 1.8416403e+2, -850036.44, -1144769.5, -19109.842, -0.02442095, -0.24139112, -848802.56, 286366.53, 0.0, 10.00255, 9.998648 
1.5951304e+3, 1.941628e+2, -814090.8, -1071492.5, -19857.451, -0.010727155, -0.23754704, -812567.9, 224612.27, 0.0, 10.002102, 9.998694 
1.5951231e+3, 2.0416158e+2, -777161.5, -961474.5, -46007.85, 0.0051647923, -0.24052988, -766315.4, 172876.05, 0.0, 10.001503, 9.999066 
1.5951154e+3, 2.1416056e+2, -793065.8, -911761.4, -43324.992, 0.025339546, -0.25846702, -778934.25, 62267.535, 0.0, 10.000692, 9.9991255 
1.5951076e+3, 2.2415976e+2, -756696.6, -792913.25, -35204.34, 0.03583045, -0.26983202, -735216.4, 7993.082, 0.0, 10.0000515, 9.999577 
1.5951e+3, 2.3415937e+2, -712323.7, -713795.1, -38191.063, 0.032726754, -0.27651745, -674861.25, -29649.084, 0.0, 9.999653, 9.9996395 
1.5950924e+3, 2.4415913e+2, -676785.7, -617438.06, -39043.35, 0.03682213, -0.27140284, -598071.9, -50858.066, 0.0, 9.999102, 9.999893 
1.5950848e+3, 2.5415927e+2, -687433.5, -566067.75, -38208.383, 0.050452005, -0.2550389, -555040.9, -105828.016, 0.0, 9.998332, 9.999944 
1.5950772e+3, 2.641592e+2, -668111.7, -495815.03, -40921.207, 0.05303919, -0.25659648, -486590.0, -135375.95, 0.0, 9.997749, 10.000033 
1.5950692e+3, 2.7415898e+2, -615078.5, -416154.97, -45870.12, 0.040756874, -0.28816125, -406087.22, -152870.13, 0.0, 9.997426, 10.000064 
1.5950616e+3, 2.8415948e+2, -548260.3, -259696.28, -42201.754, 0.056001786, -0.27259558, -253651.03, -98438.46, 0.0, 9.996895, 10.00072 
1.5950543e+3, 2.941611e+2, -569204.4, -214269.78, -45857.438, 0.10633368, -0.19424763, -208440.75, -151244.6, 0.0, 9.9960575, 10.000763 
1.595047e+3, 3.041612e+2, -601833.4, -199270.22, -9578.066, 0.10906082, -0.25644112, -199042.47, -199042.47, 0.0, 9.995477, 10.000811 
1.5950395e+3, 3.141623e+2, -524185.94, -405.86127, 4370.742, 0.033662606, -0.23554638, -369.39166, -369.39166, 0.0, 9.995314, 10.0022545 
1.6051836e+3, 1.2418483e+2, -973887.94, -1714550.0, -35796.41, -0.14240943, -0.19649309, -972161.94, 750810.1, 0.018424228, 10.006759, 9.996744 
1.6051784e+3, 1.341825e+2, -906364.94, -1571176.5, 37473.06, -0.0045040804, -0.16275708, -904259.4, 720734.56, 0.011472228, 10.006229, 9.997318 
1.6051699e+3, 1.4418013e+2, -903312.44, -1506188.3, 3953.058, -0.1448143, -0.133724, -903286.5, 623729.56, 0.005397912, 10.005484, 9.997444 
1.6051632e+3, 1.5417677e+2, -950557.94, -1476007.6, 22527.703, -0.051568966, -0.21909899, -949593.9, 479453.88, 0.0016143164, 10.004455, 9.997472 
1.605156e+3, 1.641742e+2, -902222.7, -1314783.3, 11103.767, -0.009170891, -0.25714803, -901924.06, 429147.63, 0.00021509804, 10.003731, 9.998255 
1.605148e+3, 1.7417276e+2, -842993.3, -1225554.8, -2020.8334, -0.022394426, -0.23835532, -842982.6, 390101.6, 0.0000034510517, 10.003421, 9.998344 
1.60514e+3, 1.8417127e+2, -797295.2, -1108990.0, -2765.2837, -0.020854969, -0.23581892, -797270.6, 337826.53, 0.0, 10.002871, 9.998737 
1.6051325e+3, 1.9416986e+2, -823188.3, -1064803.1, 8272.55, -0.003593076, -0.25936788, -822905.44, 214204.02, 0.0, 10.001994, 9.998791 
1.6051245e+3, 2.0416868e+2, -800732.25, -964824.06, -10905.382, 0.010213237, -0.27095488, -800010.7, 139109.72, 0.0, 10.001308, 9.999135 
1.6051161e+3, 2.1416788e+2, -760088.5, -888525.25, -12769.9795, 0.020539163, -0.27101448, -758831.2, 82297.21, 0.0, 10.000889, 9.999188 
1.6051078e+3, 2.2416714e+2, -717834.8, -781650.56, -4964.2017, 0.030418517, -0.27521396, -717451.0, 25684.494, 0.0, 10.000353, 9.999508 
1.6050997e+3, 2.3416658e+2, -718830.44, -725836.2, -7468.732, 0.03917083, -0.28976876, -714083.94, -68943.695, 0.0, 9.99965, 9.999557 
1.6050915e+3, 2.4416627e+2, -689597.1, -625754.56, -13134.947, 0.047407288, -0.28818187, -623157.75, -76014.734, 0.0, 9.999027, 9.99987 
1.6050832e+3, 2.5416642e+2, -660676.1, -555123.0, -18945.572, 0.054330606, -0.26873952, -551825.5, -102683.586, 0.0, 9.998528, 9.999924 
1.605075e+3, 2.6416638e+2, -638074.2, -480148.03, -19307.19, 0.055065416, -0.26572496, -477821.9, -126679.22, 0.0, 9.997953, 10.000041 
1.6050667e+3, 2.7416623e+2, -637247.2, -425962.88, -19878.59, 0.04754186, -0.29237732, -424108.88, -170963.69, 0.0, 9.997273, 10.000068 
1.6050583e+3, 2.8416663e+2, -573481.5, -279477.28, -18733.902, 0.054562677, -0.28188255, -278288.34, -123146.77, 0.0, 9.996758, 10.0006485 
1.6050503e+3, 2.9416803e+2, -518474.22, -198124.3, -31009.383, 0.07913334, -0.21666087, -195150.25, -138022.8, 0.0, 9.996446, 10.000685 
1.6050425e+3, 3.0416828e+2, -557127.6, -183554.84, 4775.3735, 0.08914962, -0.25711417, -183493.81, -183493.81, 0.0, 9.995811, 10.000755 
1.6050348e+3, 3.141691e+2, -583679.56, -11183.414, 31350.416, 0.050597288, -0.26380357, -9471.754, -9471.754, 0.0, 9.994831, 10.002412 
1.6151902e+3, 1.2419295e+2, -991743.56, -1752380.6, -60006.73, -0.16143236, -0.16165203, -987038.75, 735852.7, 0.019450935, 10.006763, 9.996483 
1.6151847e+3, 1.3418953e+2, -923202.56, -1604262.8, 17692.607, 0.0029203116, -0.21371774, -922743.25, 702181.25, 0.01215968, 10.006224, 9.997093 
1.6151756e+3, 1.4418711e+2, -876040.5, -1448998.8, -33356.93, -0.11927644, -0.1969241, -874105.0, 652841.94, 0.005760472, 10.005481, 9.997841 
1.6151674e+3, 1.5418482e+2, -917304.4, -1409933.6, -16302.957, -0.07202604, -0.22084051, -916765.44, 512201.53, 0.0017438689, 10.004466, 9.997922 
1.6151594e+3, 1.6418265e+2, -919614.3, -1354634.0, -3170.9146, -0.046086192, -0.23002483, -919591.2, 411395.72, 0.00023744388, 10.003745, 9.997975 
1.6151513e+3, 1.7418073e+2, -867166.0, -1276683.4, -13399.16, -0.035485104, -0.22535685, -866728.06, 366277.72, 0.0000040571285, 10.003423, 9.997993 
1.6151431e+3, 1.841789e+2, -782566.44, -1078755.8, -33804.574, -0.014466963, -0.24609694, -778757.25, 356264.88, 0.0, 10.002871, 9.998947 
1.6151346e+3, 1.941774e+2, -804296.2, -1027546.94, -24475.19, 0.015657874, -0.30516842, -801644.5, 235389.4, 0.0, 10.002, 9.999044 
1.615126e+3, 2.0417635e+2, -797788.75, -961248.44, -28122.047, 0.022644337, -0.31714618, -793085.9, 145956.92, 0.0, 10.001317, 9.999157 
1.6151169e+3, 2.1417604e+2, -759123.5, -888364.4, -28042.67, -0.00010573061, -0.26936477, -753301.06, 87745.445, 0.0, 10.000895, 9.999188 
1.615108e+3, 2.2417542e+2, -722030.4, -791997.4, -30233.307, 0.003142129, -0.25767434, -710776.44, 32276.38, 0.0, 10.000358, 9.999436 
1.6150993e+3, 2.341745e+2, -723530.75, -737093.06, -33254.34, 0.04195565, -0.30169848, -696373.25, -51311.695, 0.0, 9.999654, 9.999479 
1.6150907e+3, 2.4417394e+2, -695669.6, -640044.0, -31799.635, 0.058583252, -0.31404394, -625610.25, -78543.43, 0.0, 9.999032, 9.999771 
1.6150817e+3, 2.5417408e+2, -667434.75, -570421.7, -36359.31, 0.04312349, -0.2845678, -558307.4, -109241.3, 0.0, 9.99853, 9.999818 
1.615073e+3, 2.641742e+2, -634797.44, -474961.63, -42924.258, 0.046278063, -0.26401293, -464163.7, -113098.1, 0.0, 9.997957, 10.000076 
1.6150641e+3, 2.741743e+2, -632475.56, -418766.8, -44131.824, 0.07687753, -0.26781926, -410012.03, -156947.02, 0.0, 9.997282, 10.000114 
1.6150554e+3, 2.8417444e+2, -583535.4, -302909.3, -30694.084, 0.06850848, -0.28031594, -299591.3, -144527.36, 0.0, 9.996767, 10.000484 
1.615046e+3, 2.941749e+2, -530811.44, -224897.52, -42738.836, 0.0037075467, -0.29114866, -219038.73, -161979.58, 0.0, 9.9964485, 10.000501 
1.6150378e+3, 3.0417544e+2, -553778.56, -177305.11, -30050.395, 0.035285365, -0.29569966, -174921.55, -174921.55, 0.0, 9.995812, 10.000799 
1.6150305e+3, 3.1417674e+2, -574303.5, 5943.8345, 688.93604, 0.13879377, -0.2597146, 5944.6523, 5944.6523, 0.0, 9.994839, 10.002526 
1.6251971e+3, 1.2420174e+2, -990167.5, -1748856.1, -17807.525, -0.15456185, -0.15938263, -989749.75, 733054.25, 0.020543952, 10.006773, 9.996502 
1.6251907e+3, 1.34198e+2, -981146.2, -1626667.5, 82963.4, 0.005010906, -0.24764341, -970654.1, 654185.56, 0.012897131, 10.005804, 9.997139 
1.625181e+3, 1.4419557e+2, -932120.44, -1478725.9, 31796.215, -0.102247715, -0.23076393, -930277.0, 596585.0, 0.0061535276, 10.005111, 9.997812 
1.625172e+3, 1.5419355e+2, -872224.56, -1392478.9, 13117.562, -0.07107772, -0.22433041, -871894.0, 556986.0, 0.0018866021, 10.004798, 9.99788 
1.6251633e+3, 1.6419142e+2, -851522.44, -1323969.0, 16117.367, -0.05127634, -0.22587377, -850973.25, 479926.47, 0.00026266553, 10.004225, 9.997953 
1.6251546e+3, 1.7418922e+2, -887042.2, -1288482.1, 28949.512, -0.033836044, -0.24553989, -884965.25, 347955.53, 0.0000047593935, 10.003299, 9.997972 
1.6251458e+3, 1.8418732e+2, -825351.56, -1103204.3, 12477.029, -0.011690682, -0.27406082, -824792.44, 310145.8, 0.0, 10.002596, 9.99891 
1.6251367e+3, 1.9418591e+2, -779321.3, -1019742.94, -301.9295, 0.0120984325, -0.317546, -779320.94, 257628.39, 0.0, 10.002193, 9.999003 
1.6251275e+3, 2.0418486e+2, -745514.9, -936530.25, -13812.866, 0.017983312, -0.32602876, -744521.2, 194437.03, 0.0, 10.001681, 9.99915 
1.6251178e+3, 2.1418443e+2, -742740.0, -881080.8, -14504.874, 0.0007858574, -0.29123253, -741235.56, 99727.25, 0.0, 10.001013, 9.99918 
1.6251083e+3, 2.2418383e+2, -719583.6, -791743.94, -18745.771, 0.004793286, -0.2778751, -715004.44, 27964.59, 0.0, 10.0003805, 9.999425 
1.6250992e+3, 2.3418309e+2, -702205.7, -728064.44, -17995.072, 0.037456114, -0.30090392, -692976.75, -48000.375, 0.0, 9.999807, 9.999465 
1.6250898e+3, 2.4418254e+2, -671231.9, -637670.5, -10343.154, 0.051928487, -0.3080182, -634738.94, -87756.88, 0.0, 9.999243, 9.999684 
1.6250803e+3, 2.5418246e+2, -651505.25, -572987.06, -14744.599, 0.040165707, -0.29323804, -570309.56, -121325.664, 0.0, 9.998687, 9.9997225 
1.6250709e+3, 2.6418254e+2, -614202.06, -461793.4, -26474.92, 0.045750227, -0.2726593, -457325.44, -106341.66, 0.0, 9.998089, 10.000101 
1.6250615e+3, 2.7418283e+2, -609283.9, -403054.94, -29061.168, 0.07611446, -0.259682, -399037.97, -146057.03, 0.0, 9.997426, 10.000151 
1.625052e+3, 2.841829e+2, -573537.7, -300930.66, -2288.639, 0.06499602, -0.27842593, -300911.44, -145931.11, 0.0, 9.996851, 10.000456 
1.6250424e+3, 2.9418305e+2, -544607.2, -234860.19, -4422.7476, -0.0041900356, -0.31810915, -234797.05, -177818.14, 0.0, 9.99637, 10.000467 
1.6250336e+3, 3.041839e+2, -557977.75, -169852.28, -332.45212, 0.040047932, -0.29352692, -169852.0, -169852.0, 0.0, 9.995745, 10.000881 
1.6250254e+3, 3.1418502e+2, -554275.4, 13078.52, 34054.543, 0.13647494, -0.28144, 15115.28, 15115.28, 0.0, 9.994988, 10.002503 
1.6352041e+3, 1.2421126e+2, -970904.8, -1707413.8, -57472.094, -0.12706049, -0.18288422, -966447.06, 756261.8, 0.021711336, 10.006774, 9.99679 
1.6351964e+3, 1.3420786e+2, -958976.8, -1582713.9, 46455.766, 0.0012372202, -0.2673061, -955535.75, 669204.1, 0.013690081, 10.0058155, 9.997439 
1.6351862e+3, 1.4420551e+2, -961624.9, -1543447.3, 17183.268, -0.09348951, -0.23898913, -961117.8, 565643.94, 0.006580263, 10.005125, 9.99736 
1.6351771e+3, 1.54203e+2, -908472.8, -1468571.4, 1371.2126, -0.050703105, -0.22897054, -908469.5, 520317.1, 0.002044343, 10.0048, 9.997358 
1.6351677e+3, 1.6420056e+2, -836314.06, -1292844.3, -17036.438, -0.02749409, -0.24250966, -835679.2, 495130.34, 0.00029165714, 10.004225, 9.998169 
1.635158e+3, 1.741983e+2, -866258.9, -1247847.6, -5970.294, -0.019113403, -0.29659662, -866165.5, 366663.66, 0.0000056119284, 10.003306, 9.998247 
1.6351484e+3, 1.8419647e+2, -843570.7, -1143872.5, -4382.5225, -0.013120497, -0.31808648, -843506.75, 291338.72, 0.0, 10.002605, 9.998627 
1.6351387e+3, 1.9419537e+2, -801676.25, -1067894.6, -15179.365, -0.013664994, -0.29868984, -800813.56, 236042.52, 0.0, 10.002198, 9.998672 
1.6351289e+3, 2.041942e+2, -747707.94, -942513.44, -37901.758, -0.003544397, -0.3002833, -740593.5, 198273.52, 0.0, 10.001685, 9.999108 
1.635119e+3, 2.1419306e+2, -743595.0, -884379.75, -39054.38, 0.02221537, -0.33505124, -733486.9, 107390.33, 0.0, 10.001017, 9.999157 
1.635109e+3, 2.2419232e+2, -716048.06, -786322.3, -39891.156, 0.03389338, -0.3332476, -698025.75, 44858.258, 0.0, 10.000386, 9.999461 
1.6350988e+3, 2.3419231e+2, -698449.8, -722278.94, -38712.145, 0.025001552, -0.28833187, -669860.25, -24975.03, 0.0, 9.999814, 9.999503 
1.6350888e+3, 2.4419199e+2, -676597.1, -650483.5, -30345.06, 0.026954902, -0.27163336, -630505.44, -83616.09, 0.0, 9.999247, 9.999596 
1.635079e+3, 2.5419143e+2, -658045.75, -588024.5, -34287.47, 0.044734757, -0.29426593, -574031.3, -125135.36, 0.0, 9.99869, 9.9996195 
1.6350691e+3, 2.6419124e+2, -612780.7, -460577.25, -50091.156, 0.052672055, -0.2908144, -445571.38, -94673.375, 0.0, 9.998094, 10.000109 
1.6350587e+3, 2.7419168e+2, -607347.3, -400984.3, -52828.844, 0.045701273, -0.2685575, -388246.4, -135352.55, 0.0, 9.997431, 10.000163 
1.6350487e+3, 2.8419194e+2, -566253.7, -287533.8, -19634.168, 0.04380155, -0.27665198, -286157.5, -131265.8, 0.0, 9.996856, 10.000546 
1.6350393e+3, 2.941923e+2, -536324.6, -219712.89, -22070.305, 0.05195834, -0.2968909, -218181.81, -161294.08, 0.0, 9.996377, 10.00057 
1.6350299e+3, 3.0419353e+2, -549090.8, -152943.3, -28075.406, 0.10034342, -0.25081095, -150963.45, -150963.45, 0.0, 9.9957485, 10.000997 
1.6350195e+3, 3.14194e+2, -567508.06, -15920.406, 7904.949, 0.044487998, -0.31380382, -15807.142, -15807.142, 0.0, 9.994992, 10.002303 
1.6452108e+3, 1.2422141e+2, -1016172.75, -1730535.3, -24402.516, -0.11129902, -0.22169161, -1015340.1, 707266.56, 0.022959346, 10.006472, 9.996773 
1.6452022e+3, 1.3421822e+2, -917895.25, -1565570.6, 58734.566, -0.019113403, -0.2830765, -912612.0, 712024.06, 0.014541315, 10.006122, 9.99741 
1.6451915e+3, 1.442159e+2, -908573.6, -1535629.1, 27940.193, -0.099744156, -0.2425633, -907331.1, 619326.9, 0.007041693, 10.005574, 9.997197 
1.645182e+3, 1.54213e+2, -928275.2, -1497930.5, 36449.414, -0.03835264, -0.25305742, -925952.44, 502734.63, 0.0022175754, 10.004752, 9.997178 
1.645172e+3, 1.6421041e+2, -861059.94, -1303271.6, 19266.824, -0.010260947, -0.27395487, -860222.06, 470489.66, 0.00032486784, 10.00405, 9.998179 
1.6451615e+3, 1.7420828e+2, -834630.7, -1229745.6, 11154.722, -0.016719375, -0.31578416, -834316.06, 398413.38, 0.000006638936, 10.003514, 9.99827 
1.645151e+3, 1.842065e+2, -812386.4, -1152996.8, 11056.402, -0.018967682, -0.32452935, -812027.8, 322717.97, 0.0, 10.002927, 9.998408 
1.6451408e+3, 1.942053e+2, -809682.8, -1099038.3, 6478.677, -0.019063082, -0.292185, -809537.8, 227221.25, 0.0, 10.002263, 9.9984255 
1.6451305e+3, 2.04204e+2, -745387.5, -931471.9, -10902.636, -0.007034998, -0.29515794, -744750.9, 194020.52, 0.0, 10.00166, 9.999195 
1.6451201e+3, 2.1420275e+2, -717880.06, -859301.1, -3732.1528, 0.022765951, -0.35123873, -717781.6, 122999.5, 0.0, 10.001142, 9.999268 
1.6451095e+3, 2.2420193e+2, -693977.25, -789151.06, -4148.7056, 0.034892637, -0.35736656, -693796.75, 48991.508, 0.0, 10.000599, 9.999338 
1.6450986e+3, 2.342019e+2, -678181.7, -728591.5, -16945.281, 0.021217564, -0.30130535, -673015.06, -28224.438, 0.0, 10.000025, 9.999357 
1.645088e+3, 2.4420159e+2, -657548.44, -636041.44, -15419.902, 0.022584299, -0.27707866, -627995.7, -81200.7, 0.0, 9.999358, 9.99964 
1.6450776e+3, 2.5420108e+2, -672781.8, -588474.56, -8752.801, 0.045315877, -0.2974234, -587575.44, -138774.95, 0.0, 9.998563, 9.999677 
1.645067e+3, 2.6420096e+2, -634879.8, -474339.13, -13550.694, 0.05317789, -0.29520425, -473203.4, -122400.98, 0.0, 9.997957, 10.000077 
1.6450562e+3, 2.7420127e+2, -583167.3, -393799.4, -20176.426, 0.03858189, -0.27889496, -391673.53, -138874.17, 0.0, 9.997619, 10.00012 
1.6450456e+3, 2.8420147e+2, -541936.8, -282095.44, -1453.919, 0.036294743, -0.28377756, -282087.3, -127289.63, 0.0, 9.997052, 10.000488 
1.6450356e+3, 2.94202e+2, -573149.9, -241905.25, -17292.082, 0.058006965, -0.2863274, -241004.98, -184211.97, 0.0, 9.996146, 10.000526 
1.6450258e+3, 3.0420336e+2, -562996.1, -131693.55, -17056.168, 0.12435219, -0.23324808, -131020.1, -131020.1, 0.0, 9.995536, 10.001244 
1.6450146e+3, 3.1420374e+2, -525565.6, -6366.153, 29022.594, 0.026796963, -0.33098662, -4748.8643, -4748.8643, 0.0, 9.995329, 10.002204 
1.6552174e+3, 1.2423224e+2, -1038401.25, -1776658.5, -42102.387, -0.10861041, -0.27423054, -1036007.94, 686489.0, 0.02429147, 10.006472, 9.996457 
1.6552079e+3, 1.3422911e+2, -942699.75, -1616034.4, 45385.574, -0.05552662, -0.29330721, -939654.3, 684873.3, 0.015451736, 10.00612, 9.99706 
1.6551968e+3, 1.4422677e+2, -901895.56, -1521743.3, -2084.7473, -0.120702796, -0.24009275, -901888.56, 624661.8, 0.0075377785, 10.005574, 9.997293 
1.6551869e+3, 1.5422358e+2, -917726.8, -1478263.8, 5177.494, -0.0345523, -0.29599446, -917679.0, 510902.4, 0.0024059785, 10.00476, 9.997312 
1.6551761e+3, 1.6422091e+2, -872874.6, -1330643.0, -2138.0486, -0.00016048782, -0.3197988, -872864.6, 457741.72, 0.00036227127, 10.004061, 9.997989 
1.655165e+3, 1.7421915e+2, -849250.94, -1262087.3, -8979.224, -0.026155584, -0.30517346, -849055.75, 383566.03, 0.0000078515695, 10.00352, 9.998047 
1.6551538e+3, 1.8421735e+2, -823577.75, -1177672.1, -13412.099, -0.029450256, -0.29572463, -823070.44, 311568.84, 0.0, 10.002931, 9.998238 
1.6551432e+3, 1.9421563e+2, -820875.8, -1123794.9, -17844.805, -0.0054667713, -0.29688933, -819828.2, 216830.06, 0.0, 10.002267, 9.998255 
1.6551323e+3, 2.0421425e+2, -730786.56, -902951.44, -30291.76, 0.0060433894, -0.30877742, -725612.4, 213058.92, 0.0, 10.001666, 9.99939 
1.655121e+3, 2.1421346e+2, -701062.6, -826517.0, -22868.87, 0.002234865, -0.34133095, -697023.9, 143651.17, 0.0, 10.001148, 9.999491 
1.6551097e+3, 2.242126e+2, -712528.1, -829794.0, -25254.451, 0.007845192, -0.35198203, -707320.56, 35361.742, 0.0, 10.000605, 9.999058 
1.6550986e+3, 2.3421179e+2, -700586.8, -776565.2, -37332.297, 0.02591679, -0.33869508, -685313.6, -40620.73, 0.0, 10.000029, 9.999027 
1.6550875e+3, 2.442113e+2, -645541.8, -612738.6, -43485.28, 0.03778884, -0.32241288, -582664.6, -35965.33, 0.0, 9.999362, 9.9998 
1.6550761e+3, 2.542114e+2, -657329.0, -558875.94, -37554.81, 0.041426547, -0.3030697, -546186.25, -97487.98, 0.0, 9.99857, 9.999877 
1.655065e+3, 2.6421148e+2, -639089.25, -485819.97, -26520.553, 0.047021534, -0.28637004, -481360.8, -130662.93, 0.0, 9.997966, 9.999996 
1.6550538e+3, 2.742115e+2, -589742.44, -409861.13, -31243.404, 0.052630145, -0.290218, -404589.03, -151890.75, 0.0, 9.997625, 10.000009 
1.6550426e+3, 2.842115e+2, -556524.0, -314001.47, -33048.176, 0.040299136, -0.29911503, -309578.7, -154879.64, 0.0, 9.997056, 10.000268 
1.6550314e+3, 2.9421195e+2, -587004.25, -272092.4, -51019.805, 0.014929012, -0.28633603, -264032.8, -207337.05, 0.0, 9.99615, 10.0003195 
1.6550213e+3, 3.042133e+2, -535676.8, -76232.44, -25679.018, 0.11322617, -0.24276558, -74801.66, -74801.66, 0.0, 9.995538, 10.001625 
1.6550104e+3, 3.142143e+2, -524399.94, -6325.617, 17914.254, 0.08185384, -0.31434453, -5706.907, -5706.907, 0.0, 9.995337, 10.002202 
1.6652238e+3, 1.242436e+2, -1055146.1, -1788323.1, -45158.957, -0.0980299, -0.28865966, -1052375.1, 670008.94, 0.025708362, 10.006379, 9.996421 
1.665214e+3, 1.3424028e+2, -981270.9, -1641855.1, 63950.72, -0.055806115, -0.3198918, -975136.8, 649280.1, 0.01642211, 10.005889, 9.996992 
1.6652025e+3, 1.44238e+2, -926415.4, -1528971.5, 16751.955, -0.10895248, -0.2610159, -925950.0, 600489.4, 0.008069225, 10.005388, 9.997332 
1.6651915e+3, 1.5423498e+2, -899086.25, -1463961.0, 16550.484, -0.047883466, -0.30251452, -898601.75, 529866.6, 0.0026096683, 10.004868, 9.997356 
1.6651802e+3, 1.642323e+2, -846870.8, -1333466.3, 10144.502, -0.019231085, -0.32339478, -846659.4, 483834.16, 0.0004037398, 10.004307, 9.997849 
1.6651684e+3, 1.7423025e+2, -835775.9, -1273220.3, 7618.92, -0.026094059, -0.32047027, -835643.25, 396868.88, 0.000009289499, 10.00369, 9.997888 
1.665157e+3, 1.8422839e+2, -804200.25, -1160220.9, 9590.986, -0.021843515, -0.31172305, -803942.06, 330588.38, 0.0, 10.00303, 9.998309 
1.6651455e+3, 1.9422689e+2, -808461.94, -1107702.5, 22591.64, -0.0052873953, -0.2995076, -806765.94, 229780.94, 0.0, 10.002312, 9.9983425 
1.665134e+3, 2.0422557e+2, -732177.8, -919612.8, 16391.76, 0.0018961114, -0.30409503, -730755.1, 207804.48, 0.0, 10.001728, 9.999244 
1.6651222e+3, 2.142246e+2, -688037.2, -838840.4, -4401.7666, -0.0027766102, -0.33671176, -687908.8, 152657.02, 0.0, 10.00132, 9.999323 
1.6651104e+3, 2.2422367e+2, -684119.56, -807230.1, -17732.133, 0.005456685, -0.3498252, -681616.44, 60957.61, 0.0, 10.000764, 9.999134 
1.6650988e+3, 2.342229e+2, -697056.3, -764153.1, -777.8405, 0.030780597, -0.34223214, -697047.3, -52463.76, 0.0, 10.000009, 9.999122 
1.6650869e+3, 2.442224e+2, -645000.2, -615178.06, 4976.9077, 0.040213063, -0.3310533, -614369.4, -67779.74, 0.0, 9.999379, 9.999774 
1.6650748e+3, 2.5422242e+2, -607892.9, -539227.6, -6949.8213, 0.029506313, -0.31624442, -538531.25, -89941.92, 0.0, 9.99893, 9.999838 
1.665063e+3, 2.642224e+2, -587905.56, -468406.63, -2962.5288, 0.036970608, -0.30042988, -468333.25, -117743.62, 0.0, 9.99835, 9.999929 
1.6650516e+3, 2.7422243e+2, -600168.75, -422607.47, -5248.5874, 0.06359938, -0.29773295, -422452.47, -169861.97, 0.0, 9.997589, 9.999937 
1.6650397e+3, 2.8422245e+2, -573971.8, -327295.47, -3542.211, 0.04577245, -0.30033013, -327244.63, -172653.34, 0.0, 9.99696, 10.000221 
1.6650273e+3, 2.9422283e+2, -533798.56, -249357.98, -8525.544, -0.01533572, -0.28960398, -249102.67, -192514.56, 0.0, 9.99653, 10.000291 
1.6650169e+3, 3.0422378e+2, -484505.78, -51834.473, 12013.256, 0.10627639, -0.28404266, -51501.176, -51501.176, 0.0, 9.995893, 10.001619 
1.6650057e+3, 3.142253e+2, -614479.25, -80486.63, 14636.391, 0.112034075, -0.3033831, -80085.766, -80085.766, 0.0, 9.994855, 10.001923 
1.6752304e+3, 1.2425554e+2, -1040179.56, -1755981.5, -64859.87, -0.08402589, -0.2658337, -1034350.0, 687917.2, 0.02720673, 10.006384, 9.996643 
1.6752201e+3, 1.3425176e+2, -967764.75, -1614182.0, 45623.715, -0.02395517, -0.36324418, -964560.5, 659742.94, 0.017452728, 10.005896, 9.997181 
1.6752082e+3, 1.4424954e+2, -927476.8, -1532715.8, -2975.141, -0.06816376, -0.30531707, -927462.2, 598862.6, 0.00863787, 10.005396, 9.997304 
1.675196e+3, 1.542472e+2, -901689.0, -1470932.6, -3070.1074, -0.07725824, -0.27476367, -901672.44, 526675.5, 0.002829975, 10.004872, 9.997308 
1.675184e+3, 1.6424455e+2, -853208.56, -1347749.3, -13107.523, -0.065679125, -0.28699008, -852861.44, 477511.88, 0.0004494662, 10.00431, 9.997751 
1.6751723e+3, 1.7424163e+2, -842653.7, -1288581.0, -15445.366, -0.018105023, -0.35997832, -842119.4, 390280.84, 0.000011018415, 10.003692, 9.997783 
1.6751602e+3, 1.8423967e+2, -783406.06, -1118239.0, -17105.863, 0.0016068885, -0.3697285, -782534.44, 351884.5, 0.0, 10.003033, 9.998597 
1.6751477e+3, 1.9423907e+2, -785318.44, -1061439.9, -4430.8594, -0.018394701, -0.30028567, -785247.4, 251178.06, 0.0, 10.002316, 9.998659 
1.6751353e+3, 2.0423791e+2, -764785.44, -988836.9, 10.45984, -0.019113392, -0.28210956, -764785.44, 173651.48, 0.0, 10.001732, 9.998768 
1.6751236e+3, 2.1423617e+2, -726425.0, -918926.4, -18867.791, 0.007181988, -0.3371075, -724593.1, 115860.39, 0.0, 10.001319, 9.998775 
1.6751115e+3, 2.2423513e+2, -655277.0, -748004.9, -44221.688, 0.026487628, -0.3504223, -637569.3, 104894.17, 0.0, 10.000764, 9.999542 
1.6750987e+3, 2.3423515e+2, -662005.25, -693305.25, -28377.75, 0.034684394, -0.31321335, -645248.1, -784.8702, 0.0, 10.000014, 9.999606 
1.6750862e+3, 2.4423479e+2, -658601.3, -645982.6, -12201.744, 0.029378071, -0.30415156, -638555.5, -92088.586, 0.0, 9.999387, 9.999559 
1.6750735e+3, 2.5423408e+2, -626550.0, -579985.06, -22444.299, 0.0092536695, -0.3366265, -570928.4, -122454.14, 0.0, 9.998935, 9.9995575 
1.6750613e+3, 2.6423374e+2, -591400.0, -477439.3, -29439.904, 0.022398852, -0.33686277, -470283.34, -119805.09, 0.0, 9.998355, 9.9998665 
1.6750492e+3, 2.74234e+2, -602018.3, -428699.28, -32820.402, 0.07170271, -0.30228746, -422692.44, -170215.6, 0.0, 9.997597, 9.999894 
1.6750367e+3, 2.8423423e+2, -564834.5, -310290.0, -19869.846, 0.05292221, -0.28760022, -308748.28, -154273.16, 0.0, 9.996965, 10.000338 
1.6750237e+3, 2.9423454e+2, -523269.5, -229185.84, -22685.383, -0.035151515, -0.29434744, -227446.2, -170975.39, 0.0, 9.996533, 10.000429 
1.6750127e+3, 3.042347e+2, -512770.3, -112110.234, -23152.969, 0.10097421, -0.35799572, -110776.734, -110776.734, 0.0, 9.995897, 10.001205 
1.6750008e+3, 3.1423655e+2, -651327.25, -158939.73, -35357.035, 0.12199786, -0.29549602, -156413.8, -156413.8, 0.0, 9.994862, 10.001382 
1.685237e+3, 1.2426802e+2, -1024640.44, -1737145.6, -22772.951, -0.06868624, -0.27013025, -1023913.3, 698231.1, 0.028780062, 10.006458, 9.996735 
1.6852261e+3, 1.3426432e+2, -951182.4, -1601244.1, 77974.96, -0.02786302, -0.36506483, -941960.06, 682219.7, 0.018542225, 10.006, 9.99722 
1.6852139e+3, 1.4426209e+2, -920193.44, -1540016.5, 18594.863, -0.05853881, -0.30451536, -919636.06, 606565.06, 0.009245359, 10.005498, 9.997204 
1.685201e+3, 1.5425958e+2, -902727.7, -1484207.8, 12743.098, -0.080274925, -0.27884266, -902448.56, 525777.6, 0.0030689416, 10.004923, 9.997191 
1.6851883e+3, 1.6425686e+2, -854629.5, -1345563.5, -33.987293, -0.07365586, -0.2930163, -854629.5, 475622.84, 0.0005001529, 10.004289, 9.997776 
1.6851759e+3, 1.74254e+2, -857629.1, -1291602.4, 6975.5503, -0.020785132, -0.36427674, -857517.0, 374761.66, 0.000013127097, 10.003573, 9.997818 
1.6851631e+3, 1.8425202e+2, -796581.06, -1123466.0, 2594.984, 0.0009848449, -0.37537453, -796560.44, 337736.66, 0.0, 10.002939, 9.998605 
1.68515e+3, 1.9425139e+2, -771907.7, -1054609.3, -7985.541, -0.022291051, -0.31071493, -771682.25, 264621.25, 0.0, 10.002408, 9.998661 
1.6851372e+3, 2.0425023e+2, -759589.44, -989092.56, 226.37675, -0.020214869, -0.2927101, -759589.25, 178725.95, 0.0, 10.001781, 9.998741 
1.685125e+3, 2.1424852e+2, -771671.4, -943794.3, 17770.691, 0.01766896, -0.34238392, -769855.8, 70476.57, 0.0, 10.001024, 9.998744 
1.6851121e+3, 2.2424752e+2, -696129.56, -758179.1, 2706.242, 0.03742166, -0.35285375, -696011.75, 46330.37, 0.0, 10.000445, 9.999625 
1.6850987e+3, 2.3424764e+2, -642123.3, -673572.5, -10584.271, 0.030478062, -0.31477177, -638893.0, 5447.4736, 0.0, 10.00011, 9.999695 
1.6850856e+3, 2.4424735e+2, -621205.9, -623438.8, -2716.9363, 0.020478066, -0.30449352, -619384.94, -73041.93, 0.0, 9.999627, 9.999598 
1.6850725e+3, 2.5424665e+2, -623058.3, -574844.06, 8434.829, 0.010079759, -0.33782354, -573411.0, -125061.01, 0.0, 9.998946, 9.999586 
1.6850595e+3, 2.642462e+2, -596330.9, -484248.94, 12250.697, 0.024661873, -0.34733605, -482925.53, -132570.53, 0.0, 9.9983425, 9.9998255 
1.6850469e+3, 2.742463e+2, -568531.9, -417829.66, 8137.3936, 0.063498646, -0.3262379, -417391.53, -165036.02, 0.0, 9.997851, 9.999845 
1.6850337e+3, 2.8424662e+2, -533484.2, -296747.16, 15177.533, 0.043480314, -0.2973793, -295778.06, -141425.23, 0.0, 9.997189, 10.000321 
1.6850202e+3, 2.9424727e+2, -555658.94, -245572.75, 2374.0308, -0.029489264, -0.27030465, -245554.58, -189209.33, 0.0, 9.996317, 10.00042 
1.6850087e+3, 3.0424678e+2, -546498.25, -147637.36, 2731.4116, 0.116474494, -0.3887168, -147618.66, -147618.66, 0.0, 9.995749, 10.001032 
1.6849957e+3, 3.1424874e+2, -570838.2, -123333.39, -4110.4966, 0.1070433, -0.2958039, -123295.64, -123295.64, 0.0, 9.995428, 10.001353 
1.6952436e+3, 1.2428106e+2, -1026272.3, -1741854.1, -40730.02, -0.056005888, -0.29930896, -1023961.5, 698054.1, 0.030422661, 10.006472, 9.996697 
1.6952316e+3, 1.3427792e+2, -957086.25, -1615206.5, 60549.273, -0.06518822, -0.3282042, -951561.9, 672484.06, 0.019688314, 10.006012, 9.997118 
1.6952191e+3, 1.4427562e+2, -931932.75, -1566368.6, -3127.5303, -0.07811883, -0.26169682, -931917.4, 594151.0, 0.009892233, 10.005506, 9.997021 
1.695206e+3, 1.5427215e+2, -915108.75, -1511701.1, -8890.487, -0.06032997, -0.3128736, -914976.3, 513126.4, 0.0033283737, 10.004929, 9.997002 
1.6951928e+3, 1.6426927e+2, -844144.94, -1325449.1, -26549.74, -0.047487523, -0.33901542, -842684.8, 487445.63, 0.00055682205, 10.004293, 9.997913 
1.6951793e+3, 1.7426732e+2, -845416.44, -1268286.8, -19935.969, -0.033604074, -0.33600816, -844478.7, 387669.16, 0.000015753496, 10.003579, 9.997976 
1.695166e+3, 1.8426548e+2, -814313.25, -1162044.5, -17948.613, -0.022311386, -0.3319319, -813389.3, 320775.9, 0.0, 10.002944, 9.99834 
1.6951525e+3, 1.9426389e+2, -792530.94, -1098665.1, -27408.46, -0.017987506, -0.33024874, -790096.4, 246084.58, 0.0, 10.002411, 9.998359 
1.6951391e+3, 2.0426252e+2, -731672.0, -932315.75, -27181.814, -0.0032197642, -0.33423364, -728054.8, 210139.42, 0.0, 10.001784, 9.999131 
1.695126e+3, 2.1426158e+2, -739674.2, -878899.4, -10406.849, 0.027479313, -0.35194218, -738900.6, 101302.18, 0.0, 10.001028, 9.999189 
1.6951126e+3, 2.2426078e+2, -711688.56, -792408.25, -10871.185, 0.037700318, -0.35637233, -710250.06, 31960.426, 0.0, 10.000451, 9.999389 
1.6950987e+3, 2.3426032e+2, -662444.2, -717198.3, -22027.541, 0.018703029, -0.3462671, -654682.7, -10467.297, 0.0, 10.0001135, 9.999395 
1.695085e+3, 2.4426003e+2, -601955.06, -584503.5, -26161.543, 0.013563734, -0.33161235, -565650.94, -19432.625, 0.0, 9.999629, 9.999866 
1.6950716e+3, 2.542601e+2, -600491.6, -529159.56, -16016.712, 0.030538501, -0.31992626, -525728.25, -77510.945, 0.0, 9.998949, 9.999901 
1.695058e+3, 2.6425976e+2, -597611.6, -488572.6, -5769.4473, 0.042475305, -0.33187598, -488268.16, -138047.52, 0.0, 9.998346, 9.999795 
1.6950445e+3, 2.742592e+2, -571816.1, -427059.0, -9179.956, 0.037895504, -0.36937776, -426479.16, -174251.84, 0.0, 9.997858, 9.99978 
1.6950306e+3, 2.8425956e+2, -543481.2, -319358.5, -15898.007, 0.016933214, -0.32949904, -318236.4, -164011.22, 0.0, 9.997194, 10.000165 
1.6950168e+3, 2.942609e+2, -567368.3, -270849.3, -28025.754, 0.002188151, -0.21784055, -268223.7, -212011.27, 0.0, 9.996318, 10.000247 
1.6950047e+3, 3.0425993e+2, -541966.5, -139762.8, -8310.102, 0.15200213, -0.37645653, -139591.17, -139591.17, 0.0, 9.995753, 10.001085 
1.6949907e+3, 3.1426165e+2, -533452.5, -48255.992, -32657.4, 0.06895083, -0.31407034, -46067.77, -46067.77, 0.0, 9.995437, 10.001865 
1.7052503e+3, 1.2429467e+2, -957451.94, -1722800.9, -26940.158, -0.048440024, -0.31663445, -956504.8, 765376.0, 0.032130357, 10.007039, 9.996553 
1.7052375e+3, 1.3429153e+2, -929577.9, -1624972.3, 64809.875, -0.08885558, -0.32403827, -923589.25, 700322.9, 0.020888068, 10.006315, 9.996903 
1.7052247e+3, 1.4428917e+2, -910360.7, -1548273.0, 3831.5781, -0.08522341, -0.25450036, -910337.7, 615597.75, 0.010577674, 10.005628, 9.997086 
1.7052111e+3, 1.5428557e+2, -903202.56, -1496110.0, 17123.174, -0.055753514, -0.32791746, -902708.44, 525261.94, 0.0036092114, 10.0049715, 9.997087 
1.7051971e+3, 1.642827e+2, -843855.56, -1332178.9, 1467.6727, -0.039524484, -0.35443026, -843851.2, 486146.75, 0.0006204103, 10.004327, 9.99785 
1.7051828e+3, 1.7428097e+2, -833420.75, -1271196.6, -9803.12, -0.033674322, -0.32143742, -833201.3, 398812.56, 0.000019065685, 10.0037, 9.997898 
1.7051688e+3, 1.8427905e+2, -802362.9, -1159580.4, -7488.6304, -0.022718204, -0.31689262, -802205.94, 331826.03, 0.0, 10.003042, 9.998309 
1.705155e+3, 1.9427705e+2, -804798.5, -1107523.4, 2155.8184, -0.008299967, -0.35480666, -804783.1, 231268.28, 0.0, 10.002342, 9.99833 
1.7051409e+3, 2.0427564e+2, -737393.56, -924667.9, 1164.5062, 0.005144362, -0.36624104, -737386.3, 200678.63, 0.0, 10.001702, 9.999222 
1.7051269e+3, 2.1427515e+2, -717120.8, -857184.06, -8055.3, 0.01871754, -0.34764367, -716659.06, 123410.02, 0.0, 10.001139, 9.999284 
1.7051129e+3, 2.2427449e+2, -691635.5, -773161.9, -5534.415, 0.02462974, -0.34588516, -691261.5, 50813.723, 0.0, 10.000551, 9.999471 
1.7050987e+3, 2.3427378e+2, -683765.1, -718510.56, 9710.57, 0.018643217, -0.3695475, -681235.44, -37153.055, 0.0, 9.999931, 9.999472 
1.7050846e+3, 2.4427348e+2, -642320.3, -590671.8, 8189.353, 0.018782707, -0.36493126, -589404.44, -43319.28, 0.0, 9.999297, 9.999982 
1.7050704e+3, 2.5427386e+2, -636487.3, -532888.0, 3166.933, 0.03096957, -0.33274472, -532791.3, -84710.266, 0.0, 9.998647, 10.000018 
1.7050563e+3, 2.6427373e+2, -626094.25, -488188.88, 18061.729, 0.041332826, -0.33692116, -485862.53, -135780.14, 0.0, 9.998094, 9.999918 
1.7050423e+3, 2.7427325e+2, -592045.8, -423040.3, 27776.09, 0.03863011, -0.38022217, -418592.38, -166504.19, 0.0, 9.9976635, 9.9999 
1.7050277e+3, 2.8427362e+2, -561006.2, -332322.38, 20176.408, 0.01636855, -0.33978447, -330555.88, -176470.14, 0.0, 9.997096, 10.000122 
1.705013e+3, 2.942749e+2, -564524.4, -277961.25, 16273.52, -0.0019933707, -0.22936971, -277040.06, -220965.7, 0.0, 9.996377, 10.000169 
1.7050004e+3, 3.042737e+2, -548597.1, -157709.13, 45292.26, 0.13938202, -0.4006418, -152529.73, -152529.73, 0.0, 9.995773, 10.000952 
1.7049861e+3, 3.1427568e+2, -538605.8, -3290.9392, -12498.866, 0.06648895, -0.3005889, -2999.2668, -2999.2668, 0.0, 9.995201, 10.002286 
1.7152573e+3, 1.2430887e+2, -975851.7, -1760727.9, -53050.16, -0.04966955, -0.32257962, -972282.25, 749457.7, 0.033897642, 10.007042, 9.996294 
1.7152438e+3, 1.3430521e+2, -951996.5, -1672901.5, 37779.016, -0.10061907, -0.3499346, -950022.06, 673755.75, 0.022137616, 10.006323, 9.996572 
1.7152302e+3, 1.443028e+2, -889532.44, -1506092.6, -21121.62, -0.08184209, -0.28040463, -888809.75, 636992.06, 0.011300071, 10.005635, 9.997375 
1.7152159e+3, 1.5429981e+2, -879290.9, -1447669.0, -8082.041, -0.06585465, -0.32587606, -879176.0, 548653.44, 0.003911794, 10.004976, 9.997418 
1.7152014e+3, 1.642971e+2, -861509.56, -1369976.1, -22704.955, -0.04875141, -0.3414108, -860497.7, 469357.47, 0.0006917009, 10.004329, 9.997591 
1.7151868e+3, 1.7429495e+2, -854503.2, -1315994.4, -33181.57, -0.022752322, -0.31942886, -852129.6, 379747.1, 0.00002326, 10.003701, 9.997591 
1.715172e+3, 1.8429284e+2, -789303.1, -1133397.3, -33280.5, -0.0029882598, -0.32858172, -786113.8, 347783.44, 0.0, 10.003043, 9.998489 
1.7151573e+3, 1.9429088e+2, -789255.06, -1076159.1, -23859.926, 0.005923115, -0.38407534, -787284.4, 248630.77, 0.0, 10.002343, 9.998547 
1.7151426e+3, 2.0428956e+2, -751184.25, -954314.6, -20109.266, 0.004949789, -0.38857168, -749212.6, 188714.97, 0.0, 10.001704, 9.999019 
1.7151278e+3, 2.1428922e+2, -733490.7, -892498.25, -28327.885, -0.0078152, -0.3306928, -728594.7, 111336.82, 0.0, 10.001142, 9.999042 
1.7151132e+3, 2.2428866e+2, -665040.06, -719234.5, -27729.58, -0.0013715106, -0.32283235, -653366.3, 88570.42, 0.0, 10.000554, 9.999842 
1.7150989e+3, 2.3428798e+2, -654126.44, -657572.9, -12637.233, 0.028857283, -0.38416794, -643095.5, 846.29565, 0.0, 9.999931, 9.999892 
1.7150842e+3, 2.4428765e+2, -644874.06, -596798.75, -15397.544, 0.034380235, -0.40320045, -592290.06, -46345.887, 0.0, 9.999298, 9.99994 
1.7150688e+3, 2.5428793e+2, -641115.7, -544809.5, -20055.568, 0.011569687, -0.37593442, -540799.94, -92858.02, 0.0, 9.998654, 9.999934 
1.7150542e+3, 2.6428807e+2, -606149.7, -449407.88, 2356.5679, 0.021930393, -0.36254463, -449372.44, -99431.48, 0.0, 9.998102, 10.000182 
1.7150402e+3, 2.7428833e+2, -571100.06, -380761.3, 12465.305, 0.06469164, -0.35871798, -379948.44, -128009.47, 0.0, 9.997665, 10.000191 
1.7150252e+3, 2.8428876e+2, -556898.2, -324458.3, -5404.479, 0.04025937, -0.3285843, -324332.72, -170397.23, 0.0, 9.997097, 10.000177 
1.715009e+3, 2.942892e+2, -563201.94, -277821.56, -8435.467, -0.04321219, -0.30566242, -277572.44, -221640.14, 0.0, 9.996386, 10.000167 
1.7149957e+3, 3.04288e+2, -570510.1, -206467.5, 24779.182, 0.077216335, -0.4585205, -204788.61, -204788.61, 0.0, 9.995785, 10.000613 
1.7149815e+3, 3.142906e+2, -517889.2, 39398.375, -51133.914, 0.10243062, -0.26375794, 44051.32, 44051.32, 0.0, 9.9952, 10.002582 
1.7252643e+3, 1.2432318e+2, -967576.3, -1748680.5, -53614.066, -0.050636247, -0.33962038, -963913.5, 757685.4, 0.035719637, 10.007083, 9.996356 
1.7252502e+3, 1.3431954e+2, -926714.6, -1660307.4, 56376.44, -0.10827903, -0.3639731, -922407.4, 701229.1, 0.023433682, 10.006511, 9.996567 
1.725236e+3, 1.4431715e+2, -862065.9, -1489287.1, -2306.9292, -0.07170202, -0.29257798, -862057.4, 663602.9, 0.012057635, 10.005817, 9.997402 
1.7252208e+3, 1.543143e+2, -877840.4, -1443566.6, -12180.248, -0.0683784, -0.32844272, -877578.25, 550108.56, 0.004235924, 10.004975, 9.997446 
1.7252056e+3, 1.6431166e+2, -872454.75, -1365470.4, -23463.932, -0.054242898, -0.34293818, -871340.56, 458371.34, 0.00077133346, 10.004213, 9.997677 
1.7251904e+3, 1.7430949e+2, -870243.6, -1313537.6, -5770.0996, -0.019034715, -0.33205596, -870168.5, 361565.0, 0.000028574825, 10.003552, 9.997679 
1.7251751e+3, 1.8430744e+2, -812090.0, -1144934.4, 1342.1428, 0.004320663, -0.33902127, -812084.6, 321668.97, 0.0, 10.002892, 9.998482 
1.7251597e+3, 1.9430566e+2, -807722.06, -1086977.8, -7082.6436, 0.009723637, -0.3736653, -807542.56, 228227.44, 0.0, 10.002227, 9.998528 
1.7251442e+3, 2.0430434e+2, -760739.56, -953214.25, 509.57813, 0.0070685092, -0.37870324, -760738.2, 177044.25, 0.0, 10.0016165, 9.999067 
1.7251289e+3, 2.1430376e+2, -739128.3, -889469.8, 12636.223, -0.005330505, -0.35002738, -738073.6, 101714.5, 0.0, 10.001081, 9.999089 
1.7251137e+3, 2.2430323e+2, -676541.1, -714229.56, 8714.478, -0.0022984885, -0.3457146, -674623.7, 67169.18, 0.0, 10.000432, 9.999932 
1.7250985e+3, 2.3430297e+2, -691558.44, -664504.56, -969.95294, 0.01976924, -0.37657997, -664469.8, -20675.357, 0.0, 9.99963, 9.999987 
1.7250831e+3, 2.4430276e+2, -669762.75, -593474.5, -1339.3942, 0.02393216, -0.39296263, -593451.0, -47655.535, 0.0, 9.999065, 10.000073 
1.7250675e+3, 2.5430283e+2, -609195.25, -514637.38, 9615.665, 0.008007583, -0.39920232, -513669.47, -65875.02, 0.0, 9.998813, 10.000063 
1.7250523e+3, 2.6430297e+2, -575946.25, -422804.9, 25887.137, 0.021965787, -0.3948838, -418547.28, -68754.305, 0.0, 9.998261, 10.000286 
1.7250375e+3, 2.743036e+2, -614373.0, -389807.3, 20489.78, 0.06549494, -0.3691703, -387953.1, -136165.08, 0.0, 9.997322, 10.000292 
1.7250219e+3, 2.8430414e+2, -610236.56, -334945.25, 4492.5522, 0.04485604, -0.33702952, -334871.94, -181088.61, 0.0, 9.996669, 10.00031 
1.7250055e+3, 2.943045e+2, -557434.56, -263783.34, 10117.048, -0.0340272, -0.3352281, -263435.2, -207654.36, 0.0, 9.996381, 10.000264 
1.7249912e+3, 3.0430362e+2, -574348.56, -236320.33, 43710.727, 0.05648083, -0.4466506, -230759.53, -230759.53, 0.0, 9.995882, 10.0003605 
1.7249767e+3, 3.143056e+2, -521491.8, 57466.24, -43331.65, 0.10392432, -0.29328606, 60691.395, 60691.395, 0.0, 9.995093, 10.002756 
1.7352715e+3, 1.2433771e+2, -944305.0, -1699496.8, -70849.42, -0.055432443, -0.36512995, -937715.7, 783741.06, 0.03759583, 10.007095, 9.996694 
1.7352566e+3, 1.3433458e+2, -906790.0, -1618405.9, 34843.41, -0.113425024, -0.3674667, -905088.0, 718400.0, 0.024774536, 10.006519, 9.996852 
1.735242e+3, 1.4433227e+2, -877657.9, -1522135.0, -33257.918, -0.056515735, -0.2925522, -875946.1, 649564.8, 0.012848167, 10.005821, 9.997174 
1.7352258e+3, 1.5432909e+2, -895761.0, -1482380.9, -43480.297, -0.064523995, -0.33502665, -892555.75, 534986.4, 0.004580384, 10.00498, 9.997179 
1.7352097e+3, 1.643264e+2, -843339.1, -1306562.4, -48458.887, -0.057245277, -0.35796815, -838324.0, 491243.72, 0.0008595265, 10.004218, 9.99808 
1.7351939e+3, 1.7432457e+2, -838251.44, -1248363.8, -30507.684, -0.022587335, -0.35860085, -835994.44, 395589.9, 0.000035257945, 10.003555, 9.998126 
1.735178e+3, 1.8432283e+2, -825505.6, -1173935.8, -23606.117, -0.0004004216, -0.34791008, -823913.6, 309687.53, 0.0, 10.002893, 9.998283 
1.7351618e+3, 1.9432138e+2, -824089.5, -1122979.1, -31514.107, 0.0031619058, -0.32621273, -820802.9, 214813.55, 0.0, 10.002233, 9.998279 
1.7351459e+3, 2.0431998e+2, -740673.94, -913292.5, -19510.086, 0.010652147, -0.3392947, -738496.25, 199133.5, 0.0, 10.001621, 9.99934 
1.7351304e+3, 2.1431878e+2, -717622.2, -844919.1, -6804.5586, 0.024102874, -0.40329182, -717259.5, 122379.625, 0.0, 10.001079, 9.999398 
1.7351143e+3, 2.243182e+2, -689752.94, -741687.75, -20068.889, 0.01978006, -0.4109263, -682901.6, 58742.324, 0.0, 10.00043, 9.999746 
1.7350979e+3, 2.3431864e+2, -706673.1, -697736.56, -29988.367, -0.008400411, -0.34801283, -671885.4, -28244.316, 0.0, 9.999636, 9.999758 
1.7350818e+3, 2.4431874e+2, -648195.44, -550706.06, -11229.688, -0.011698619, -0.33709332, -549429.25, -3789.4214, 0.0, 9.999072, 10.000365 
1.7350665e+3, 2.5431854e+2, -585922.4, -466867.13, 1377.8744, 0.019385768, -0.4034017, -466851.2, -19211.734, 0.0, 9.998813, 10.000393 
1.7350508e+3, 2.643185e+2, -581441.9, -434471.6, -6825.047, 0.039739948, -0.43337438, -434155.34, -84516.17, 0.0, 9.99826, 10.000208 
1.7350347e+3, 2.7431893e+2, -620738.94, -405568.88, -13968.229, 0.039432615, -0.40985593, -404665.88, -153029.67, 0.0, 9.997331, 10.000181 
1.7350185e+3, 2.843197e+2, -593377.75, -303198.6, -7414.2295, 0.029537836, -0.36458516, -303009.28, -149379.03, 0.0, 9.99668, 10.000524 
1.7350024e+3, 2.943207e+2, -542435.75, -234795.6, 585.56104, 0.026159942, -0.32027724, -234794.48, -179173.25, 0.0, 9.996387, 10.000463 
1.7349872e+3, 3.0432048e+2, -586834.0, -263019.75, 16171.949, 0.07573025, -0.36378637, -262214.1, -262214.1, 0.0, 9.995883, 10.000178 
1.7349714e+3, 3.143207e+2, -522088.25, 54787.25, -82698.95, 0.06746989, -0.37181705, 66408.586, 66408.586, 0.0, 9.995097, 10.002737 
1.7452787e+3, 1.2435357e+2, -866377.5, -1668538.0, -11858.496, -0.069819845, -0.3750471, -866202.25, 855098.06, 0.039525848, 10.0077, 9.996622 
1.745263e+3, 1.3435043e+2, -897706.6, -1628153.5, 61025.402, -0.12262539, -0.36479524, -892643.4, 730688.56, 0.02615643, 10.006658, 9.9967165 
1.745248e+3, 1.4434801e+2, -888719.5, -1528063.5, -14380.36, -0.04383242, -0.29416242, -888396.2, 636960.06, 0.013667241, 10.005754, 9.997164 
1.7452309e+3, 1.5434474e+2, -889395.0, -1479260.1, -6416.5044, -0.06691728, -0.3446203, -889325.2, 538063.4, 0.0049422863, 10.005029, 9.997175 
1.7452139e+3, 1.6434209e+2, -828560.56, -1286574.4, -9474.023, -0.065799996, -0.36877412, -828364.7, 501049.0, 0.00095562957, 10.004268, 9.998193 
1.7451973e+3, 1.7434046e+2, -843542.6, -1237588.9, -16046.123, -0.025132088, -0.3616793, -842890.3, 388537.47, 0.000043460277, 10.003465, 9.998242 
1.7451808e+3, 1.8433878e+2, -839517.6, -1182156.8, -9892.631, -0.002711781, -0.34972352, -839232.25, 294211.56, 0.0000000000000006446772, 10.002807, 9.998267 
1.745164e+3, 1.9433722e+2, -810947.75, -1119679.0, -2249.2197, -0.0072762715, -0.33549413, -810931.3, 224529.2, 0.0, 10.002339, 9.998249 
1.7451474e+3, 2.0433582e+2, -725535.3, -889442.94, 6641.1616, 0.0030603039, -0.35130614, -725266.7, 212206.94, 0.0, 10.0016575, 9.999485 
1.7451312e+3, 2.1433483e+2, -762931.44, -849066.7, 6880.148, 0.033770792, -0.4117641, -762385.3, 77095.12, 0.0, 10.000695, 9.999553 
1.7451146e+3, 2.2433433e+2, -748058.44, -767597.6, 1539.0211, 0.032782566, -0.42072377, -747938.0, -6453.6187, 0.0, 10.000023, 9.999763 
1.7450975e+3, 2.343347e+2, -693285.94, -691074.1, 8247.269, -0.01015409, -0.3652331, -683858.94, -40376.387, 0.0, 9.999729, 9.999757 
1.745081e+3, 2.4433485e+2, -627731.25, -531114.2, 26972.66, -0.016365353, -0.35257006, -524094.25, 21386.799, 0.0, 9.999173, 10.000449 
1.745065e+3, 2.5433487e+2, -658206.6, -491195.4, 20866.94, 0.026457394, -0.40425292, -488627.7, -41149.164, 0.0, 9.998276, 10.000482 
1.7450488e+3, 2.6433492e+2, -665800.3, -471120.3, 6720.021, 0.045026843, -0.42870888, -470888.63, -121411.48, 0.0, 9.997667, 10.00024 
1.7450319e+3, 2.7433532e+2, -604859.3, -394825.03, 9596.162, 0.028130274, -0.41647756, -394387.5, -142912.53, 0.0, 9.99743, 10.000205 
1.7450152e+3, 2.8433594e+2, -550110.0, -272710.03, 16972.95, 0.028660318, -0.3888451, -271675.4, -118205.27, 0.0, 9.996939, 10.000607 
1.744999e+3, 2.9433694e+2, -580590.1, -245764.56, 12481.429, 0.06333992, -0.3544086, -245299.94, -189838.86, 0.0, 9.996097, 10.0005245 
1.7449827e+3, 3.0433747e+2, -643997.25, -282761.2, 33770.69, 0.066631675, -0.32949317, -279631.2, -279631.2, 0.0, 9.99546, 10.000245 
1.7449664e+3, 3.14337e+2, -517847.1, 50083.652, -50295.047, 0.053491578, -0.41605136, 54503.31, 54503.31, 0.0, 9.995158, 10.002674 
1.7552862e+3, 1.24370724e+2, -898873.4, -1733882.6, -46691.035, -0.09724329, -0.3711695, -896270.7, 824859.6, 0.04150442, 10.0077, 9.996161 
1.7552695e+3, 1.3436712e+2, -934442.9, -1705395.6, 22854.764, -0.13535777, -0.3563178, -933765.94, 689402.25, 0.027572295, 10.0066595, 9.996186 
1.7552538e+3, 1.4436439e+2, -875878.5, -1501624.5, -41431.668, -0.033545103, -0.29693535, -873147.1, 652048.94, 0.014508556, 10.005758, 9.997347 
1.7552358e+3, 1.5436123e+2, -872461.1, -1445442.5, -33361.953, -0.07618062, -0.35740992, -870525.1, 556701.06, 0.005317603, 10.005034, 9.997406 
1.755218e+3, 1.6435869e+2, -839802.44, -1311879.5, -39434.605, -0.08040643, -0.37577647, -836530.94, 492719.1, 0.0010581071, 10.004273, 9.998017 
1.7552008e+3, 1.7435712e+2, -856228.9, -1266812.1, -45902.273, -0.027274847, -0.34291312, -851159.7, 380104.4, 0.00005308817, 10.003474, 9.998039 
1.7551835e+3, 1.8435524e+2, -827878.3, -1160364.0, -27725.836, -0.003852889, -0.34545392, -825582.1, 307699.56, 0.0000000010737394, 10.002814, 9.998415 
1.7551662e+3, 1.943532e+2, -799085.8, -1095558.0, -19060.645, -0.021814175, -0.3977955, -797865.4, 237436.89, 0.0, 10.002338, 9.998416 
1.7551489e+3, 2.0435193e+2, -725176.4, -888681.44, -27827.76, -0.015353373, -0.41072354, -720570.0, 216744.0, 0.0, 10.001654, 9.999494 
1.7551318e+3, 2.1435185e+2, -762239.0, -849624.7, -28586.102, 0.02400273, -0.37828663, -753718.5, 85594.266, 0.0, 10.0007, 9.999548 
1.7551148e+3, 2.2435153e+2, -732621.06, -737895.6, -10335.728, 0.036413662, -0.37914756, -724591.44, 16723.357, 0.0, 10.0000305, 9.999965 
1.7550974e+3, 2.3435107e+2, -678256.4, -660568.6, -1622.8214, 0.013295245, -0.42666698, -660421.0, -17101.637, 0.0, 9.999729, 9.999968 
1.7550804e+3, 2.4435106e+2, -637601.75, -551752.75, -4603.652, 0.008268534, -0.43592104, -551506.6, -6187.039, 0.0, 9.999171, 10.00031 
1.7550634e+3, 2.5435176e+2, -668501.44, -514760.34, -11933.574, 0.027535422, -0.4007344, -513839.56, -66527.21, 0.0, 9.998282, 10.000319 
1.7550464e+3, 2.6435226e+2, -654624.06, -450481.94, -3039.464, 0.036712676, -0.38185826, -450436.7, -101128.86, 0.0, 9.997676, 10.000379 
1.7550294e+3, 2.7435258e+2, -593251.8, -372347.9, 2036.7882, 0.03186792, -0.3916441, -372329.13, -121023.78, 0.0, 9.997434, 10.000359 
1.7550123e+3, 2.8435275e+2, -554544.3, -283307.03, -12455.11, 0.04220735, -0.4112751, -282736.3, -129432.266, 0.0, 9.9969425, 10.000534 
1.7549953e+3, 2.943531e+2, -585395.56, -258766.34, -19567.479, 0.07403387, -0.43533522, -257598.3, -202297.03, 0.0, 9.996107, 10.000432 
1.7549779e+3, 3.0435443e+2, -619604.56, -234590.89, 20882.04, 0.02510736, -0.34224, -233461.63, -233461.63, 0.0, 9.995468, 10.000573 
1.7549616e+3, 3.1435478e+2, -527458.56, 29542.188, -57159.02, 0.058246512, -0.38149828, 35347.3, 35347.3, 0.0, 9.995158, 10.002535 
1.7652936e+3, 1.24388374e+2, -909025.56, -1735985.5, -40537.07, -0.10188621, -0.3645382, -907043.2, 813913.4, 0.043527838, 10.007633, 9.996178 
1.765276e+3, 1.343845e+2, -927140.94, -1704340.3, 56538.21, -0.16005562, -0.3739111, -923049.5, 699946.94, 0.029017886, 10.006734, 9.996157 
1.7652595e+3, 1.443816e+2, -865876.4, -1503990.3, 9758.548, -0.038710702, -0.3253898, -865727.2, 659298.75, 0.015367533, 10.005868, 9.997276 
1.7652409e+3, 1.5437867e+2, -872850.75, -1453209.5, -3112.6191, -0.0657733, -0.3565754, -872834.06, 554220.44, 0.0057025505, 10.005071, 9.997334 
1.7652224e+3, 1.6437611e+2, -833961.44, -1316785.0, -15325.803, -0.06916759, -0.36801282, -833475.5, 495603.22, 0.0011650403, 10.004352, 9.997944 
1.7652044e+3, 1.7437424e+2, -823964.25, -1259333.5, -13400.275, -0.035123073, -0.35647076, -823552.2, 407543.2, 0.00006375854, 10.003734, 9.997963 
1.7651863e+3, 1.8437228e+2, -801415.06, -1140186.5, 5943.128, -0.016629657, -0.36841416, -801310.8, 331802.94, 0.000000009428086, 10.002967, 9.998478 
1.7651683e+3, 1.9437034e+2, -841864.8, -1107921.0, 6629.672, -0.020568471, -0.4151108, -841699.7, 193433.0, 0.0, 10.002012, 9.9984865 
1.7651504e+3, 2.0436913e+2, -780731.44, -918222.1, -6162.588, -0.012417568, -0.42625034, -780455.75, 156688.23, 0.0, 10.001287, 9.999466 
1.7651325e+3, 2.1436898e+2, -742450.0, -844107.44, -10019.1045, 0.012086148, -0.3958449, -741471.94, 97671.67, 0.0, 10.000856, 9.999509 
1.7651148e+3, 2.2436869e+2, -697396.56, -705630.2, 6767.6675, 0.02744116, -0.3974491, -693591.9, 47553.355, 0.0, 10.00021, 10.000098 
1.7650972e+3, 2.3436838e+2, -733087.56, -670575.9, 9723.986, 0.03082055, -0.4462997, -669098.2, -25950.299, 0.0, 9.999286, 10.000112 
1.7650795e+3, 2.443684e+2, -719695.3, -597606.56, 7640.9526, 0.032575715, -0.45508578, -597130.25, -51982.54, 0.0, 9.998637, 10.000251 
1.7650616e+3, 2.543691e+2, -665456.9, -521623.5, 6543.543, 0.03175409, -0.4133105, -521326.44, -74184.89, 0.0, 9.998342, 10.000242 
1.765044e+3, 2.6436967e+2, -627629.0, -431782.28, 18131.895, 0.031988647, -0.38489515, -430117.72, -80980.92, 0.0, 9.997839, 10.000427 
1.7650267e+3, 2.743701e+2, -642262.06, -389216.28, 15480.967, 0.036426958, -0.3872297, -388272.7, -137139.67, 0.0, 9.997071, 10.000416 
1.7650093e+3, 2.843703e+2, -607578.25, -296190.16, 1849.3173, 0.055746876, -0.41654614, -296179.16, -143047.67, 0.0, 9.996527, 10.000645 
1.7649916e+3, 2.9437053e+2, -556224.7, -231090.83, 8928.781, 0.08649622, -0.4604357, -230845.81, -175716.97, 0.0, 9.996251, 10.000551 
1.764973e+3, 3.0437216e+2, -574247.06, -191658.56, 52889.625, -0.010437659, -0.35360393, -184481.64, -184481.64, 0.0, 9.995692, 10.000757 
1.7649567e+3, 3.143727e+2, -594981.56, -43701.29, -27456.15, 0.07142389, -0.3914536, -42337.23, -42337.23, 0.0, 9.994874, 10.002166 
1.7753014e+3, 1.2440657e+2, -883784.75, -1677521.5, -66779.58, -0.08975135, -0.35412467, -878205.6, 842572.75, 0.04560438, 10.007624, 9.996598 
1.7752823e+3, 1.3440257e+2, -900683.2, -1645652.8, 22797.89, -0.19744784, -0.41536212, -899986.1, 722830.7, 0.030497953, 10.006732, 9.996561 
1.7752652e+3, 1.4439964e+2, -887812.75, -1549572.9, -20595.152, -0.059583645, -0.37695128, -887172.4, 637673.7, 0.016244665, 10.005868, 9.996963 
1.7752463e+3, 1.54397e+2, -897618.9, -1505828.1, -32503.2, -0.037357334, -0.34300083, -895886.8, 530986.94, 0.0060952366, 10.005073, 9.996973 
1.775227e+3, 1.6439435e+2, -832486.7, -1315125.1, -38275.04, -0.03461082, -0.34697387, -829470.2, 499429.63, 0.0012748988, 10.004355, 9.997955 
1.7752078e+3, 1.7439185e+2, -821041.6, -1254718.5, -35908.477, -0.048967265, -0.4002179, -818088.5, 412833.16, 0.00007495648, 10.003737, 9.997994 
1.7751889e+3, 1.8438984e+2, -802776.56, -1144487.1, -28603.49, -0.040534213, -0.416258, -800398.8, 332541.22, 0.000000028818846, 10.00297, 9.998448 
1.7751706e+3, 1.9438861e+2, -842712.75, -1112323.4, -28630.303, -0.0050339713, -0.39050058, -839706.0, 195246.38, 0.0, 10.00202, 9.998454 
1.7751518e+3, 2.0438734e+2, -784316.3, -928355.75, -22741.732, 0.009441844, -0.40130207, -780811.06, 156153.08, 0.0, 10.001296, 9.999393 
1.7751332e+3, 2.1438621e+2, -747382.2, -855835.75, -25016.049, -0.002381008, -0.46172374, -741890.06, 97083.05, 0.0, 10.000859, 9.999429 
1.7751147e+3, 2.2438581e+2, -693001.8, -697693.44, -25883.176, 0.006347939, -0.4716805, -669358.4, 71617.35, 0.0, 10.000212, 10.000154 
1.7750965e+3, 2.3438652e+2, -726955.6, -660461.9, -24138.172, 0.041678336, -0.42549723, -652623.4, -9654.552, 0.0, 9.999293, 10.000178 
1.7750782e+3, 2.4438679e+2, -717329.7, -595406.8, -4115.697, 0.055443954, -0.41332513, -595268.06, -50301.777, 0.0, 9.998647, 10.000263 
1.77506e+3, 2.5438678e+2, -664638.7, -521772.72, -3503.2317, 0.039494645, -0.44358113, -521686.84, -74719.984, 0.0, 9.998346, 10.00024 
1.7750418e+3, 2.6438707e+2, -630761.3, -439817.7, -8871.068, 0.031076403, -0.43747202, -439406.44, -90441.61, 0.0, 9.997843, 10.000372 
1.7750238e+3, 2.7438787e+2, -644490.06, -396439.2, -12276.43, 0.038000192, -0.400661, -395833.1, -144874.58, 0.0, 9.997079, 10.000364 
1.7750059e+3, 2.8438842e+2, -585711.5, -253273.66, -9095.859, 0.06547817, -0.40310624, -253024.97, -100071.74, 0.0, 9.996535, 10.0009365 
1.7749879e+3, 2.9438916e+2, -531999.1, -183081.64, -1667.9537, 0.10276697, -0.43151948, -183073.67, -128128.83, 0.0, 9.996259, 10.000878 
1.7749685e+3, 3.0439052e+2, -571488.75, -187729.7, 22825.408, -0.037563525, -0.3686816, -186376.84, -186376.84, 0.0, 9.995697, 10.000784 
1.7749518e+3, 3.1439096e+2, -634674.1, -128712.37, -36190.063, 0.0805831, -0.41077533, -126136.91, -126136.91, 0.0, 9.994881, 10.001581 
1.7853086e+3, 1.244253e+2, -894423.44, -1668665.6, -26586.916, -0.12688047, -0.38257617, -893511.56, 827082.0, 0.047752205, 10.007504, 9.996718 
1.7852889e+3, 1.3442154e+2, -916639.9, -1641208.4, 35918.18, -0.20139529, -0.42986488, -914863.7, 707765.5, 0.032022964, 10.006579, 9.996663 
1.7852712e+3, 1.4441858e+2, -908035.0, -1561489.3, -3421.0874, -0.033185184, -0.39841655, -908017.1, 616641.4, 0.017144209, 10.005745, 9.996938 
1.7852512e+3, 1.5441588e+2, -904795.9, -1512668.4, 7242.102, -0.034603853, -0.36842388, -904709.6, 521977.3, 0.006496065, 10.005043, 9.996939 
1.7852314e+3, 1.6441318e+2, -841047.94, -1330156.8, 12874.377, -0.041555014, -0.36937392, -840709.25, 488004.34, 0.0013868973, 10.004348, 9.997854 
1.7852116e+3, 1.7441067e+2, -840063.2, -1275699.0, 4765.994, -0.047156077, -0.41177118, -840011.0, 390725.03, 0.00008622847, 10.003661, 9.997886 
1.785192e+3, 1.8440862e+2, -807108.2, -1154405.4, -661.0421, -0.035692476, -0.42356867, -807106.94, 325648.25, 0.0000000562377, 10.002977, 9.998375 
1.7851727e+3, 1.9440727e+2, -807037.75, -1102872.8, -4657.0835, -0.005141777, -0.40073845, -806964.5, 227803.88, 0.0, 10.002302, 9.998382 
1.7851533e+3, 2.0440593e+2, -745796.94, -910610.06, 7939.6226, 0.01012937, -0.41454974, -745415.4, 191365.23, 0.0, 10.001567, 9.999383 
1.7851341e+3, 2.1440476e+2, -763011.7, -864265.5, 10298.48, 0.006377556, -0.47856054, -761974.9, 76814.984, 0.0, 10.000759, 9.999418 
1.7851149e+3, 2.2440428e+2, -720752.06, -729708.75, 1786.3489, 0.012642827, -0.4879446, -720408.94, 20384.516, 0.0, 10.000103, 9.999985 
1.7850958e+3, 2.3440486e+2, -689718.94, -662171.06, -14991.394, 0.03266384, -0.43520495, -655586.6, -12798.382, 0.0, 9.999637, 10.0 
1.785077e+3, 2.444051e+2, -662721.6, -567566.56, -233.11551, 0.045891043, -0.41837806, -567566.0, -22779.584, 0.0, 9.999017, 10.000275 
1.7850584e+3, 2.5440514e+2, -684618.0, -529187.8, 1263.5781, 0.047275934, -0.4475246, -529177.56, -82390.91, 0.0, 9.998201, 10.000258 
1.7850396e+3, 2.6440543e+2, -676845.4, -455546.78, -2907.2727, 0.03948634, -0.44529802, -455508.6, -106724.08, 0.0, 9.997499, 10.000428 
1.7850207e+3, 2.744062e+2, -660640.44, -397858.13, 1787.9385, 0.028569574, -0.41731757, -397845.94, -147067.67, 0.0, 9.9969425, 10.00042 
1.7850022e+3, 2.8440684e+2, -610635.44, -268048.56, 5388.679, 0.062916495, -0.41006875, -267963.8, -115191.805, 0.0, 9.996378, 10.000911 
1.7849843e+3, 2.9440784e+2, -602232.7, -216524.3, -14428.867, 0.13117817, -0.40602544, -215985.28, -161224.1, 0.0, 9.995776, 10.00088 
1.7849639e+3, 3.0440888e+2, -623965.7, -172751.78, 1427.8429, -0.04051682, -0.39762363, -172747.27, -172747.27, 0.0, 9.995166, 10.001142 
1.7849465e+3, 3.1440985e+2, -654716.7, -129009.9, -479.96838, 0.07436411, -0.41935882, -129009.46, -129009.46, 0.0, 9.994705, 10.001662 
1.7953151e+3, 1.24444626e+2, -908210.94, -1692192.1, -54060.41, -0.21321966, -0.44374925, -904500.7, 815901.06, 0.049988136, 10.007496, 9.996554 
1.7952958e+3, 1.344414e+2, -930151.56, -1667729.0, 2305.4502, -0.17435281, -0.4201206, -930144.4, 692289.1, 0.033602856, 10.006577, 9.996484 
1.7952776e+3, 1.444384e+2, -892772.0, -1528804.6, -29791.07, 0.036352154, -0.39348277, -891379.7, 633083.44, 0.018071437, 10.005745, 9.997164 
1.7952561e+3, 1.5443528e+2, -886780.44, -1476001.6, -18862.037, -0.05670687, -0.42967546, -886177.2, 540316.75, 0.006907319, 10.005047, 9.99719 
1.7952353e+3, 1.644326e+2, -855886.75, -1362580.9, -12854.439, -0.08745852, -0.43094876, -855560.9, 472959.4, 0.0015010897, 10.004352, 9.997631 
1.7952153e+3, 1.7443067e+2, -856853.9, -1312415.0, -20610.383, -0.03104643, -0.39335704, -855923.4, 374615.88, 0.00009729449, 10.003666, 9.997633 
1.7951952e+3, 1.8442851e+2, -814814.3, -1172610.1, -25557.459, -0.0052716318, -0.39367157, -812997.94, 319561.97, 0.000000085167756, 10.002984, 9.998249 
1.7951748e+3, 1.9442633e+2, -813941.06, -1119983.6, -29024.371, -0.02067788, -0.4437515, -811212.8, 223367.92, 0.0, 10.002311, 9.998261 
1.7951547e+3, 2.0442489e+2, -741918.5, -905201.7, -21210.611, -0.008984822, -0.46318752, -739208.2, 197385.34, 0.0, 10.001575, 9.999418 
1.7951351e+3, 2.1442454e+2, -758684.3, -857779.5, -19201.021, 0.036854785, -0.44906852, -755093.94, 83500.71, 0.0, 10.000767, 9.99946 
1.7951153e+3, 2.2442397e+2, -747159.5, -786810.75, -15702.772, 0.04392476, -0.44991797, -741694.2, -1094.814, 0.0, 10.00011, 9.999591 
1.7950952e+3, 2.3442335e+2, -718593.6, -724128.9, -31326.664, 0.0040035797, -0.47513095, -689912.56, -47305.84, 0.0, 9.999641, 9.999574 
1.7950755e+3, 2.4442329e+2, -661839.6, -567166.06, -28943.084, 0.004978107, -0.46819618, -559018.9, -14410.344, 0.0, 9.99902, 10.0002775 
1.7950566e+3, 2.5442407e+2, -681096.0, -523648.88, -28145.752, 0.053005558, -0.42386934, -518768.72, -72167.336, 0.0, 9.998205, 10.000297 
1.7950372e+3, 2.644246e+2, -664599.56, -432349.47, -23528.664, 0.055062424, -0.40905768, -429989.8, -81393.21, 0.0, 9.997506, 10.0005865 
1.7950173e+3, 2.744249e+2, -648649.7, -376035.03, -17841.525, 0.009868602, -0.4411251, -374872.3, -124278.93, 0.0, 9.996953, 10.0005665 
1.7949985e+3, 2.844254e+2, -633714.5, -318386.47, -16342.627, 0.049532607, -0.43938652, -317541.75, -164952.9, 0.0, 9.996385, 10.000563 
1.7949803e+3, 2.9442662e+2, -624981.1, -265224.7, -37691.984, 0.16563496, -0.37997887, -261318.08, -206739.78, 0.0, 9.995779, 10.000546 
1.7949592e+3, 3.044271e+2, -576692.4, -75381.26, -18063.465, -0.024570527, -0.44004157, -74731.23, -74731.23, 0.0, 9.995167, 10.001811 
1.7949408e+3, 3.1442916e+2, -595721.4, -10178.657, 16964.342, 0.04632851, -0.42420438, -9687.578, -9687.578, 0.0, 9.994718, 10.002475 
1.8053226e+3, 1.24465205e+2, -931448.25, -1702543.5, -23233.738, -0.2134277, -0.45668873, -930748.9, 789450.25, 0.0523217, 10.007345, 9.9965515 
1.805302e+3, 1.3446207e+2, -950696.2, -1677499.1, 36665.754, -0.18513168, -0.42435595, -948851.1, 673379.06, 0.035245255, 10.006441, 9.996481 
1.8052833e+3, 1.4445898e+2, -905241.6, -1533332.0, 13088.459, 0.034878444, -0.4056048, -904969.0, 619291.56, 0.019031944, 10.00566, 9.997171 
1.805261e+3, 1.5445586e+2, -886599.9, -1474767.5, 7416.2373, -0.067234635, -0.44202954, -886506.4, 539784.44, 0.007332509, 10.005049, 9.997195 
1.8052395e+3, 1.644531e+2, -860221.06, -1378742.1, 5425.5107, -0.097541206, -0.44373885, -860164.25, 468153.47, 0.0016183633, 10.004386, 9.997501 
1.805219e+3, 1.7445104e+2, -866272.7, -1332009.5, 4745.5176, -0.03007523, -0.4061384, -866224.3, 364114.25, 0.000108108106, 10.00367, 9.997495 
1.8051982e+3, 1.8444882e+2, -808183.06, -1169700.3, 11433.6045, -0.0016603634, -0.4060993, -807821.8, 324538.2, 0.000000109468616, 10.003035, 9.998242 
1.8051772e+3, 1.9444662e+2, -785980.25, -1106209.6, 15959.739, -0.02458898, -0.4562052, -785186.8, 249193.47, 0.0, 10.002505, 9.9982605 
1.8051563e+3, 2.0444508e+2, -719572.5, -922069.6, 10670.295, -0.014795846, -0.4731011, -719011.8, 217382.3, 0.0, 10.001851, 9.999167 
1.805136e+3, 2.1444453e+2, -737592.7, -876972.6, -10728.292, 0.035947233, -0.45258132, -736771.75, 101626.21, 0.0, 10.001041, 9.999194 
1.8051155e+3, 2.2444382e+2, -724461.4, -783508.4, 574.7318, 0.04588875, -0.45228395, -724455.8, 15948.748, 0.0, 10.000301, 9.99952 
1.8050948e+3, 2.3444307e+2, -722288.8, -733068.9, 11187.292, 0.006378692, -0.48284584, -715260.75, -72848.07, 0.0, 9.999649, 9.999508 
1.8050745e+3, 2.4444287e+2, -683625.7, -597284.2, 13169.787, 0.0053160074, -0.47556594, -595320.06, -50904.293, 0.0, 9.998956, 10.000101 
1.8050548e+3, 2.5444356e+2, -693797.4, -549703.6, -2720.2788, 0.048194654, -0.42394567, -549652.3, -103242.125, 0.0, 9.998206, 10.000115 
1.8050347e+3, 2.6444396e+2, -664375.1, -433386.25, -6152.5874, 0.051110927, -0.40959802, -433222.47, -84815.945, 0.0, 9.997515, 10.000575 
1.8050145e+3, 2.744442e+2, -659385.3, -382208.34, -12608.41, 0.015696533, -0.45089763, -381636.0, -131232.14, 0.0, 9.996883, 10.000557 
1.804995e+3, 2.8444466e+2, -650325.4, -331262.72, -5757.9697, 0.05687527, -0.4478165, -331158.84, -178759.6, 0.0, 9.996292, 10.000518 
1.804976e+3, 2.9444593e+2, -633112.4, -271602.66, -4412.713, 0.16184041, -0.3787084, -271548.78, -217160.47, 0.0, 9.995736, 10.000523 
1.8049543e+3, 3.0444595e+2, -604578.6, -95665.38, -1010.5263, -0.024538841, -0.4810661, -95663.375, -95663.375, 0.0, 9.995009, 10.001746 
1.8049355e+3, 3.144485e+2, -640692.7, 694.7326, 12614.397, 0.050863106, -0.40715262, 942.7286, 942.7286, 0.0, 9.99427, 10.002765 
1.8153307e+3, 1.24486975e+2, -927632.5, -1687109.5, -46964.773, -0.14089912, -0.42760068, -924739.3, 795246.56, 0.05475711, 10.007327, 9.996674 
1.815308e+3, 1.3448352e+2, -942058.2, -1656939.8, 3380.8447, -0.23277792, -0.4415931, -942042.2, 679977.06, 0.03695724, 10.006441, 9.996624 
1.8152884e+3, 1.4448032e+2, -918777.25, -1563095.3, -10583.381, -0.032514267, -0.43260235, -918603.44, 605447.1, 0.02003281, 10.005667, 9.996966 
1.815266e+3, 1.5447755e+2, -902167.5, -1508533.0, -15365.358, -0.06687162, -0.41000953, -901778.4, 524299.56, 0.007776306, 10.005053, 9.9969635 
1.815244e+3, 1.6447465e+2, -862963.56, -1386386.8, -21022.209, -0.075203, -0.41259256, -862120.56, 465985.84, 0.0017405321, 10.004392, 9.997448 
1.8152225e+3, 1.744718e+2, -866975.2, -1337227.0, -21558.514, -0.04396242, -0.4479216, -865988.9, 364145.13, 0.00011889224, 10.003683, 9.997455 
1.815201e+3, 1.844695e+2, -799905.9, -1156202.9, -8385.471, -0.02329073, -0.45739096, -799708.6, 332446.9, 0.00000012626741, 10.003047, 9.998331 
1.8151797e+3, 1.944681e+2, -778473.8, -1092540.6, -3712.7068, -0.017823363, -0.4399237, -778429.94, 255737.92, 0.0, 10.00251, 9.998354 
1.8151581e+3, 2.0446645e+2, -756013.06, -999223.25, -18838.982, -0.00915849, -0.4468715, -754562.44, 181620.64, 0.0, 10.001854, 9.998638 
1.8151367e+3, 2.1446471e+2, -775837.4, -959188.06, -40009.27, 0.0041571273, -0.4877566, -767487.2, 70712.8, 0.0, 10.00105, 9.998628 
1.8151157e+3, 2.2446375e+2, -707280.75, -750404.25, -22985.545, 0.019697629, -0.4927002, -697326.7, 42882.445, 0.0, 10.000309, 9.999745 
1.8150948e+3, 2.3446393e+2, -702305.44, -693366.06, -12265.044, 0.03837265, -0.45897594, -684781.6, -42574.613, 0.0, 9.999653, 9.999781 
1.8150738e+3, 2.4446377e+2, -708134.06, -650043.75, -14021.45, 0.04480511, -0.44246936, -646836.44, -102627.36, 0.0, 9.9989605, 9.999739 
1.815053e+3, 2.544635e+2, -720835.06, -608614.25, -29877.068, 0.032559626, -0.44905803, -601155.7, -154941.66, 0.0, 9.998215, 9.999709 
1.8150319e+3, 2.6446348e+2, -676094.06, -459552.88, -29172.56, 0.02806861, -0.4467936, -455691.56, -107476.445, 0.0, 9.9975195, 10.000394 
1.8150115e+3, 2.7446395e+2, -670408.4, -406178.0, -34865.75, 0.04324022, -0.44421685, -401654.84, -151444.73, 0.0, 9.996885, 10.000394 
1.8149914e+3, 2.8446454e+2, -631407.25, -294506.84, -25760.537, 0.08157876, -0.4345226, -292548.5, -140344.61, 0.0, 9.996299, 10.00077 
1.8149713e+3, 2.9446566e+2, -611208.1, -231059.95, -26243.348, 0.12020768, -0.4063541, -229256.81, -175064.31, 0.0, 9.995753, 10.000795 
1.814949e+3, 3.044653e+2, -661325.7, -215726.39, -31481.436, -0.037018217, -0.52152586, -213513.23, -213513.23, 0.0, 9.995018, 10.000917 
1.81493e+3, 3.144675e+2, -657711.7, -34723.773, 21309.398, 0.07467729, -0.3962658, -33995.734, -33995.734, 0.0, 9.994267, 10.002523 
1.8253382e+3, 1.2450931e+2, -997569.7, -1726742.5, -4161.1, -0.10269092, -0.4208152, -997545.94, 722220.3, 0.05729781, 10.006864, 9.996611 
1.8253145e+3, 1.3450573e+2, -936557.5, -1657441.1, 25427.607, -0.24437997, -0.44252974, -935661.75, 686139.25, 0.038746744, 10.006509, 9.996586 
1.8252939e+3, 1.4450237e+2, -892003.1, -1558541.1, 4286.7896, -0.04488224, -0.44359618, -891975.56, 631858.3, 0.021082507, 10.005901, 9.996882 
1.8252711e+3, 1.5449959e+2, -913524.94, -1523383.4, 8751.001, -0.05565434, -0.4148099, -913399.44, 512462.0, 0.008244365, 10.00502, 9.996876 
1.8252486e+3, 1.6449662e+2, -866919.5, -1390087.4, 17314.893, -0.06154011, -0.41896147, -866347.06, 461543.25, 0.0018702041, 10.004377, 9.997428 
1.8252262e+3, 1.7449363e+2, -819132.0, -1316071.8, 18033.404, -0.053415805, -0.46584454, -818478.44, 411440.1, 0.00013011991, 10.004024, 9.997434 
1.825204e+3, 1.844912e+2, -761976.4, -1160896.5, 13934.605, -0.037951045, -0.47717547, -761490.2, 370451.1, 0.00000013249935, 10.00341, 9.998121 
1.8251821e+3, 1.9448967e+2, -797950.8, -1126406.1, -5157.1904, -0.01610182, -0.4485021, -797869.9, 236085.5, 0.0, 10.002485, 9.998132 
1.8251601e+3, 2.0448788e+2, -773192.75, -1016857.25, -13265.296, -0.0042450386, -0.45485196, -772472.75, 163499.64, 0.0, 10.00178, 9.998551 
1.8251379e+3, 2.1448591e+2, -739259.06, -950319.2, -85.4498, -0.0035813188, -0.5089573, -739259.0, 98732.07, 0.0, 10.001343, 9.998546 
1.825116e+3, 2.2448485e+2, -669006.5, -751288.1, 13854.611, 0.011221812, -0.5117303, -666736.3, 73265.02, 0.0, 10.000658, 9.99957 
1.8250945e+3, 2.3448506e+2, -712846.4, -718154.56, -9324.189, 0.043439545, -0.4564532, -705805.9, -63806.734, 0.0, 9.99967, 9.9996 
1.8250729e+3, 2.4448478e+2, -725960.25, -672895.94, -13251.006, 0.05341404, -0.43631208, -669770.94, -125768.45, 0.0, 9.998902, 9.999608 
1.8250512e+3, 2.5448418e+2, -702353.6, -614659.56, -9118.622, 0.03353486, -0.46133906, -613721.44, -167711.06, 0.0, 9.998407, 9.999574 
1.8250296e+3, 2.64484e+2, -647724.3, -460093.38, 232.52106, 0.029060336, -0.4651991, -460093.06, -112079.74, 0.0, 9.997777, 10.000265 
1.8250084e+3, 2.744844e+2, -666987.7, -418434.16, -3369.6511, 0.05063905, -0.45290172, -418388.5, -168379.75, 0.0, 9.996972, 10.000266 
1.8249877e+3, 2.8448495e+2, -625372.06, -292914.66, 5756.502, 0.07695559, -0.44117883, -292815.03, -140811.84, 0.0, 9.996348, 10.000756 
1.824967e+3, 2.94486e+2, -589804.5, -220928.05, -17551.328, 0.09079476, -0.42068663, -220094.83, -166102.17, 0.0, 9.995902, 10.0007925 
1.8249443e+3, 3.0448577e+2, -682303.44, -252949.38, -31860.697, -0.011560309, -0.5069731, -250597.98, -250597.98, 0.0, 9.994993, 10.000672 
1.8249238e+3, 3.144874e+2, -720405.5, -41724.973, 97573.71, 0.07310435, -0.41382036, -27975.383, -27975.383, 0.0, 9.993739, 10.002729 
1.835345e+3, 1.2453225e+2, -1015749.7, -1762649.1, -10277.131, -0.10173803, -0.43296236, -1015608.3, 703931.75, 0.059950706, 10.006862, 9.9963665 
1.8353212e+3, 1.3452871e+2, -954182.0, -1689488.1, 11400.752, -0.22280769, -0.42912373, -954005.25, 667570.06, 0.040623225, 10.006493, 9.996376 
1.8353002e+3, 1.4452514e+2, -893139.4, -1557115.4, -27912.123, -0.0074697435, -0.44091824, -891968.06, 631642.44, 0.022190293, 10.005888, 9.9969015 
1.8352763e+3, 1.5452199e+2, -909757.56, -1517945.8, -24131.447, -0.03641114, -0.45332575, -908801.56, 516839.47, 0.008742967, 10.005029, 9.99691 
1.835253e+3, 1.64519e+2, -865107.44, -1390466.5, 3131.471, -0.057243135, -0.45924202, -865088.8, 462580.47, 0.002010524, 10.004392, 9.997419 
1.8352303e+3, 1.7451645e+2, -819648.2, -1318505.6, 4768.1836, -0.059222896, -0.46162483, -819602.6, 410090.03, 0.00014250535, 10.004026, 9.997417 
1.8352073e+3, 1.8451382e+2, -796685.7, -1233899.5, -19680.865, -0.046779294, -0.46780017, -795801.56, 335916.28, 0.00000012564814, 10.003411, 9.9976225 
1.8351845e+3, 1.9451135e+2, -832791.25, -1202361.8, -38883.863, -0.019817268, -0.48073918, -828744.44, 204998.42, 0.0, 10.002498, 9.997606 
1.8351619e+3, 2.0450933e+2, -748792.1, -969898.44, -29479.463, -0.000270203, -0.49500957, -744929.2, 190832.73, 0.0, 10.001793, 9.998869 
1.8351392e+3, 2.1450809e+2, -713192.94, -897656.9, -15734.351, 0.011312349, -0.5165361, -711860.5, 125911.44, 0.0, 10.001346, 9.998908 
1.8351166e+3, 2.2450702e+2, -708747.25, -834841.0, -21680.422, 0.018830517, -0.5104197, -705123.7, 34658.207, 0.0, 10.00066, 9.998997 
1.835094e+3, 2.3450641e+2, -755096.6, -808776.3, -45355.977, 0.02144445, -0.47508517, -729234.1, -87444.43, 0.0, 9.999679, 9.998976 
1.8350716e+3, 2.4450584e+2, -718511.06, -659959.2, -31596.87, 0.0318006, -0.45621818, -646160.25, -102363.79, 0.0, 9.998911, 9.999695 
1.8350497e+3, 2.5450554e+2, -692503.56, -595814.44, -26410.914, 0.049913254, -0.46062323, -589070.6, -143270.73, 0.0, 9.998411, 9.999702 
1.8350276e+3, 2.6450536e+2, -653592.94, -474347.75, -28506.203, 0.05246258, -0.4651703, -469923.5, -122121.5, 0.0, 9.997782, 10.000167 
1.8350053e+3, 2.7450547e+2, -673464.44, -435143.75, -32381.107, 0.037560347, -0.4778927, -430822.4, -181021.58, 0.0, 9.996982, 10.000149 
1.8349837e+3, 2.8450575e+2, -643209.4, -332290.4, -11062.832, 0.04298986, -0.46887496, -331897.28, -180099.05, 0.0, 9.996356, 10.0004835 
1.8349625e+3, 2.945068e+2, -608631.06, -261506.16, -35712.13, 0.07021564, -0.42195565, -257870.19, -204080.4, 0.0, 9.995906, 10.000513 
1.8349399e+3, 3.0450734e+2, -657728.9, -203844.23, -79882.125, 0.05042376, -0.4330541, -190195.69, -190195.69, 0.0, 9.994997, 10.00101 
1.8349174e+3, 3.1450817e+2, -679159.8, 38955.082, 69072.836, 0.04681432, -0.45483932, 45538.59, 45538.59, 0.0, 9.993755, 10.003279 
1.8453518e+3, 1.24555424e+2, -994160.1, -1741453.6, -11657.5, -0.103421465, -0.43667597, -993978.3, 725334.3, 0.06272308, 10.007, 9.996444 
1.8453275e+3, 1.3455199e+2, -1031047.5, -1713625.5, 21166.416, -0.19694293, -0.4355001, -1030391.8, 590954.7, 0.04259548, 10.005894, 9.996497 
1.845306e+3, 1.4454839e+2, -979817.4, -1600294.8, 4551.0283, 0.02485474, -0.45543745, -979784.0, 543597.6, 0.023364278, 10.005291, 9.996889 
1.8452814e+3, 1.5454513e+2, -872210.5, -1501651.6, 4470.4, -0.046318013, -0.4744154, -872178.75, 553234.1, 0.009277789, 10.005304, 9.996888 
1.8452573e+3, 1.6454211e+2, -803575.25, -1368923.1, 16939.785, -0.076426715, -0.47861755, -803068.1, 524373.2, 0.0021645315, 10.004854, 9.997343 
1.8452342e+3, 1.7453961e+2, -850268.75, -1342053.5, 12858.345, -0.05000625, -0.4689002, -849932.75, 379531.47, 0.00015696966, 10.003857, 9.997335 
1.8452108e+3, 1.8453686e+2, -842297.75, -1270405.6, 761.5998, -0.031667124, -0.47524193, -842296.4, 289194.22, 0.00000011027377, 10.003164, 9.997489 
1.8451871e+3, 1.9453411e+2, -793134.44, -1198513.1, 8275.272, -0.025592469, -0.5038406, -792965.56, 240553.34, 0.0, 10.00284, 9.997465 
1.8451637e+3, 2.0453201e+2, -695961.4, -957821.5, 12727.422, -0.010618138, -0.51351494, -695344.25, 240194.89, 0.0, 10.002216, 9.998746 
1.8451406e+3, 2.1453092e+2, -737935.6, -923314.5, -9171.186, 0.015998373, -0.5049524, -737483.06, 100064.51, 0.0, 10.001238, 9.998781 
1.8451172e+3, 2.2452973e+2, -739215.8, -867472.56, -18374.496, 0.024067275, -0.49797815, -736635.3, 2923.4446, 0.0, 10.000531, 9.998833 
1.8450937e+3, 2.3452859e+2, -698753.25, -800600.5, -9744.035, 0.009327373, -0.49745703, -697829.44, -56257.984, 0.0, 10.000151, 9.998803 
1.8450706e+3, 2.4452777e+2, -642508.9, -634496.44, 11432.963, 0.013150323, -0.4895484, -626388.1, -82807.57, 0.0, 9.999483, 9.999592 
1.8450479e+3, 2.5452757e+2, -692450.4, -606266.94, -776.7673, 0.040372286, -0.47597203, -606259.94, -160676.81, 0.0, 9.998462, 9.999605 
1.8450253e+3, 2.645274e+2, -675992.25, -490371.47, -6910.058, 0.053629454, -0.46936002, -490114.6, -142529.77, 0.0, 9.997655, 10.000116 
1.8450025e+3, 2.7452746e+2, -657273.0, -432828.47, -6014.9766, 0.04473561, -0.47972956, -432667.38, -183083.42, 0.0, 9.997119, 10.000096 
1.8449798e+3, 2.8452763e+2, -647635.75, -341309.5, 22509.865, 0.034736313, -0.481049, -339664.25, -188081.0, 0.0, 9.996358, 10.000419 
1.8449578e+3, 2.945283e+2, -700723.06, -312539.34, 11395.3, 0.040050663, -0.45628196, -312205.13, -258626.86, 0.0, 9.995306, 10.000449 
1.8449351e+3, 3.0452955e+2, -717467.2, -210549.67, -34547.742, 0.106855445, -0.4077494, -208205.98, -208205.98, 0.0, 9.994495, 10.001204 
1.844911e+3, 3.1453007e+2, -643825.4, 63918.516, 102983.92, 0.03156225, -0.48021144, 78599.2, 78599.2, 0.0, 9.993967, 10.003346 
1.8553588e+3, 1.245789e+2, -976114.7, -1693143.0, -40661.992, -0.1104213, -0.4339004, -973816.1, 745266.9, 0.06561351, 10.006975, 9.9968 
1.8553337e+3, 1.345756e+2, -1003207.56, -1653499.8, -19852.604, -0.16990967, -0.459842, -1002602.06, 618511.75, 0.044666037, 10.005904, 9.996906 
1.8553115e+3, 1.4457212e+2, -981999.8, -1608561.9, 2091.4375, 0.04975215, -0.4850899, -981992.8, 541154.1, 0.024608336, 10.005309, 9.996826 
1.8552862e+3, 1.5456903e+2, -879698.06, -1516249.0, 4188.2534, -0.082836576, -0.47956905, -879670.5, 545506.56, 0.009852337, 10.005299, 9.996792 
1.8552618e+3, 1.6456595e+2, -814888.3, -1391003.3, -19454.986, -0.11681486, -0.47884825, -814232.06, 512974.56, 0.0023345754, 10.004846, 9.997197 
1.8552382e+3, 1.7456311e+2, -858930.4, -1362966.3, -24579.023, -0.02734784, -0.48699266, -857734.6, 371498.47, 0.00017453232, 10.003866, 9.9971895 
1.8552144e+3, 1.8456033e+2, -826866.06, -1242334.1, -12341.987, 0.0046416842, -0.498443, -826499.75, 304759.9, 0.00000010372912, 10.003178, 9.997677 
1.85519e+3, 1.9455786e+2, -778237.3, -1169159.5, -3722.948, -0.033948965, -0.51786834, -778201.9, 255082.23, 0.0, 10.002843, 9.997667 
1.8551657e+3, 2.0455576e+2, -734270.44, -1038531.3, -22872.375, -0.034905847, -0.51097304, -732560.6, 202744.08, 0.0, 10.002218, 9.998193 
1.8551417e+3, 2.1455437e+2, -777857.75, -1009172.75, -44876.363, 0.010197143, -0.47579026, -769456.56, 67861.84, 0.0, 10.001247, 9.998189 
1.8551178e+3, 2.2455288e+2, -722719.0, -836111.8, -32403.625, 0.0266321, -0.4755852, -714112.44, 25220.055, 0.0, 10.000541, 9.999045 
1.8550937e+3, 2.3455152e+2, -680521.0, -764405.1, -22780.584, 0.0065919603, -0.5233641, -674733.75, -33388.633, 0.0, 10.0001545, 9.999051 
1.8550698e+3, 2.4455048e+2, -663414.2, -679148.25, -25099.652, -0.003378065, -0.5357748, -644977.56, -101622.0, 0.0, 9.999486, 9.999286 
1.855046e+3, 2.5455007e+2, -714451.75, -654408.25, -38389.8, 0.0040307655, -0.50722, -635695.2, -190334.28, 0.0, 9.998468, 9.999272 
1.8550228e+3, 2.6455e+2, -675908.44, -492305.8, -27193.875, 0.032865547, -0.47762427, -488362.75, -141000.0, 0.0, 9.997661, 10.000101 
1.8549998e+3, 2.7455032e+2, -655928.75, -432097.88, -25006.525, 0.0716982, -0.45876828, -429338.16, -179979.06, 0.0, 9.997125, 10.0001 
1.8549764e+3, 2.8455037e+2, -637745.44, -322761.7, -15827.032, 0.050479706, -0.47799027, -321968.44, -170609.22, 0.0, 9.996363, 10.0005455 
1.8549526e+3, 2.945505e+2, -690124.4, -292937.1, -28161.09, -0.001981643, -0.5242689, -290950.38, -237591.14, 0.0, 9.995313, 10.000584 
1.8549302e+3, 3.0455226e+2, -712505.3, -202945.14, -54752.023, 0.15786651, -0.43405518, -197128.45, -197128.45, 0.0, 9.994504, 10.001253 
1.854905e+3, 3.1455356e+2, -678295.9, -11581.327, 64852.406, 0.039690483, -0.42688128, -5331.612, -5331.612, 0.0, 9.993981, 10.002822 
1.8653657e+3, 1.246028e+2, -1060638.3, -1730552.5, -664.5186, -0.06938524, -0.45655626, -1060637.6, 658210.6, 0.068608806, 10.006357, 9.996828 
1.8653397e+3, 1.3459975e+2, -939899.25, -1612623.6, -13236.038, -0.17957924, -0.46521285, -939638.94, 681237.7, 0.046827987, 10.006336, 9.996979 
1.865317e+3, 1.4459638e+2, -902259.75, -1568534.9, 5.263815, 0.028665846, -0.48134077, -902259.75, 620648.8, 0.025920196, 10.005878, 9.996825 
1.8652914e+3, 1.5459327e+2, -934394.8, -1542918.6, 8097.847, -0.0787832, -0.477792, -934287.06, 490651.9, 0.010466972, 10.004926, 9.996787 
1.8652664e+3, 1.645901e+2, -895445.9, -1429477.5, -11795.221, -0.106473036, -0.4855463, -895185.5, 431783.8, 0.002521873, 10.004293, 9.997197 
1.8652421e+3, 1.7458709e+2, -833913.94, -1351205.5, -8582.092, -0.032665335, -0.51012665, -833771.56, 395225.63, 0.00019602719, 10.004043, 9.997183 
1.8652177e+3, 1.8458435e+2, -777498.2, -1220956.0, 1950.2529, 0.00027079627, -0.5163476, -777489.6, 353533.78, 0.00000012857653, 10.0035305, 9.997652 
1.8651928e+3, 1.9458216e+2, -799461.3, -1181949.6, -6126.434, -0.018456195, -0.50458676, -799363.2, 233682.19, 0.0, 10.002711, 9.997642 
1.8651679e+3, 2.0458002e+2, -764141.4, -1062397.3, -22710.293, -0.021622896, -0.49741185, -762422.0, 172644.5, 0.0, 10.002058, 9.998105 
1.8651429e+3, 2.1457815e+2, -733739.2, -998482.0, -10452.663, -0.0039389273, -0.49817452, -733327.1, 103757.33, 0.0, 10.0016, 9.998092 
1.8651183e+3, 2.2457652e+2, -669749.5, -816882.6, 13042.812, 0.009808749, -0.5040447, -668602.25, 70497.64, 0.0, 10.000936, 9.998985 
1.8650939e+3, 2.3457539e+2, -703795.2, -781965.75, -193.14844, 0.014756918, -0.522497, -703794.75, -62684.34, 0.0, 10.000026, 9.998991 
1.8650693e+3, 2.4457434e+2, -696502.75, -701785.3, -10245.609, 0.0053106043, -0.52950686, -688563.44, -145442.53, 0.0, 9.999291, 9.999221 
1.8650444e+3, 2.5457364e+2, -677520.2, -644394.9, -5260.4126, -0.011867371, -0.52362514, -643579.56, -198450.6, 0.0, 9.99876, 9.999199 
1.8650204e+3, 2.645734e+2, -629166.2, -475660.34, 14204.145, 0.021204948, -0.500205, -474357.1, -127224.92, 0.0, 9.998011, 10.000045 
1.864997e+3, 2.7457386e+2, -678745.0, -447814.1, 11318.294, 0.09080724, -0.46541077, -447260.7, -198132.77, 0.0, 9.996994, 10.000053 
1.8649726e+3, 2.84574e+2, -676736.06, -330303.06, 11962.641, 0.05284684, -0.47549412, -329890.47, -178763.6, 0.0, 9.996052, 10.000641 
1.8649475e+3, 2.9457417e+2, -690509.1, -282077.13, -1449.004, -0.05120207, -0.52958703, -282072.0, -228945.83, 0.0, 9.995267, 10.000677 
1.864925e+3, 3.0457577e+2, -674934.7, -174350.42, -16018.011, 0.18643132, -0.4614352, -173838.39, -173838.39, 0.0, 9.99472, 10.001343 
1.8648991e+3, 3.1457707e+2, -682504.4, -50212.195, 72461.74, 0.054146294, -0.46209422, -42014.246, -42014.246, 0.0, 9.994115, 10.002489 
1.8753728e+3, 1.24627165e+2, -1078465.0, -1771174.3, 6428.7744, 0.0071264305, -0.50048965, -1078405.4, 640202.5, 0.07169591, 10.006377, 9.996541 
1.8753456e+3, 1.3462442e+2, -958934.1, -1649791.6, -15240.861, -0.22225583, -0.45334977, -958598.06, 662036.7, 0.04907173, 10.0063305, 9.996726 
1.8753222e+3, 1.4462118e+2, -900254.25, -1560586.4, -34150.47, -0.033241026, -0.44780475, -898492.75, 624173.5, 0.027294587, 10.005868, 9.996887 
1.8752967e+3, 1.5461789e+2, -928461.3, -1531645.0, -27544.533, -0.039010838, -0.47023824, -927206.1, 497492.0, 0.011120294, 10.0049305, 9.996864 
1.8752712e+3, 1.6461459e+2, -886423.5, -1413837.0, -22465.55, -0.051839992, -0.49849957, -885468.3, 441260.7, 0.0027269602, 10.004304, 9.997301 
1.8752459e+3, 1.7461154e+2, -826422.6, -1337148.9, -18099.207, -0.064682156, -0.5374807, -825782.0, 402974.47, 0.00022197718, 10.0040455, 9.99728 
1.8752207e+3, 1.8460889e+2, -793310.2, -1254383.5, -27966.22, -0.041887853, -0.5283564, -791620.06, 339161.97, 0.00000020880177, 10.00353, 9.997425 
1.8751958e+3, 1.9460696e+2, -815740.06, -1217154.3, -36188.13, 0.018830214, -0.46629557, -812503.7, 220299.14, 0.0, 10.002714, 9.9974 
1.8751705e+3, 2.046047e+2, -740114.75, -1014219.75, -39550.348, 0.0260429, -0.4746703, -734522.1, 200302.64, 0.0, 10.002062, 9.998436 
1.8751442e+3, 2.1460225e+2, -708724.4, -947731.56, -26710.611, -0.026516346, -0.56915414, -705775.7, 131070.19, 0.0, 10.001601, 9.998441 
1.8751189e+3, 2.246006e+2, -692710.0, -865565.75, -19801.463, -0.025725953, -0.57954866, -690470.7, 48390.676, 0.0, 10.0009365, 9.998652 
1.8750942e+3, 2.3460013e+2, -728246.8, -834559.8, -33206.61, 0.03252405, -0.49580815, -718727.25, -77859.23, 0.0, 10.0000305, 9.998629 
1.8750688e+3, 2.4459925e+2, -684617.0, -679279.9, -29662.688, 0.03810783, -0.47296402, -652165.94, -109288.48, 0.0, 9.999297, 9.999375 
1.8750432e+3, 2.5459814e+2, -664677.75, -620351.8, -24047.705, -0.008323138, -0.52599365, -609811.75, -164923.61, 0.0, 9.998768, 9.999362 
1.8750183e+3, 2.645976e+2, -636085.56, -492152.84, -22653.0, 0.017360516, -0.53713334, -488671.75, -141777.73, 0.0, 9.998017, 9.99993 
1.874994e+3, 2.7459794e+2, -685455.7, -464355.5, -27118.412, 0.10062783, -0.50053114, -461077.97, -212186.42, 0.0, 9.997002, 9.999938 
1.8749686e+3, 2.845984e+2, -672107.5, -322597.63, -18311.953, 0.041691754, -0.4731651, -321640.84, -170753.52, 0.0, 9.996057, 10.000694 
1.8749422e+3, 2.945992e+2, -686634.94, -276079.25, -27213.322, -0.1080282, -0.46889466, -274283.3, -221403.47, 0.0, 9.995272, 10.000718 
1.8749198e+3, 3.0459997e+2, -664907.6, -157526.4, -34947.34, 0.18952611, -0.49415052, -155130.63, -155130.63, 0.0, 9.994733, 10.001455 
1.8748936e+3, 3.14601e+2, -687615.4, -66879.445, 1675.6698, 0.09332527, -0.5311082, -66874.92, -66874.92, 0.0, 9.994137, 10.002365 
1.8853794e+3, 1.2465224e+2, -1003712.0, -1733213.3, 19221.832, -0.0003402496, -0.49575865, -1003205.9, 715155.9, 0.07487837, 10.006962, 9.996519 
1.885352e+3, 1.3464943e+2, -993003.7, -1665839.5, 3673.3235, -0.20629436, -0.45471352, -992983.6, 627405.9, 0.051395528, 10.006096, 9.996727 
1.8853278e+3, 1.4464621e+2, -960125.7, -1588192.8, -14299.526, -0.016728304, -0.44766632, -959800.25, 562620.6, 0.028728575, 10.005447, 9.996898 
1.8853016e+3, 1.546429e+2, -908176.3, -1520442.5, -13592.095, -0.039931003, -0.47312102, -907874.7, 516578.25, 0.011811109, 10.005072, 9.996871 
1.8852757e+3, 1.6463965e+2, -844019.7, -1387031.5, -6310.0137, -0.058021154, -0.49916503, -843946.4, 482536.9, 0.0029501475, 10.004573, 9.9973545 
1.8852498e+3, 1.7463674e+2, -840348.75, -1337607.4, -5449.862, -0.064523615, -0.52941, -840289.06, 388220.25, 0.00025263958, 10.003926, 9.997333 
1.885224e+3, 1.8463406e+2, -830102.6, -1267985.8, -19018.137, -0.043661404, -0.5274719, -829278.1, 301256.78, 0.0000003626038, 10.0032625, 9.9974575 
1.8851984e+3, 1.9463192e+2, -833266.44, -1222484.9, -9603.306, 0.006598518, -0.4909537, -833029.6, 199528.08, 0.0, 10.0025835, 9.997425 
1.8851724e+3, 2.0462967e+2, -749416.1, -1007010.7, -3351.6384, 0.016915109, -0.5016721, -749372.56, 185206.58, 0.0, 10.00195, 9.998537 
1.8851459e+3, 2.1462755e+2, -734768.94, -948471.25, -8947.571, -0.01753112, -0.57277405, -734394.94, 102201.805, 0.0, 10.001375, 9.998544 
1.8851197e+3, 2.2462597e+2, -722546.75, -884954.06, -11145.474, -0.014412351, -0.5783872, -721785.44, 16826.184, 0.0, 10.000757, 9.998604 
1.885094e+3, 2.3462531e+2, -724136.6, -838561.25, -3226.12, 0.028858228, -0.5090758, -724045.75, -83425.07, 0.0, 10.000089, 9.998571 
1.8850681e+3, 2.4462447e+2, -671145.94, -664265.56, 13021.765, 0.033164665, -0.48314935, -654237.2, -111607.13, 0.0, 9.999357, 9.999447 
1.885042e+3, 2.5462362e+2, -690593.94, -624189.94, 11184.539, 0.0015545514, -0.5163881, -622356.7, -177718.7, 0.0, 9.998556, 9.999435 
1.8850164e+3, 2.6462308e+2, -668092.9, -505827.3, 6236.3315, 0.028654736, -0.5310368, -505588.0, -158944.14, 0.0, 9.997794, 9.999942 
1.884991e+3, 2.7462316e+2, -676347.06, -458590.0, 9619.541, 0.09536104, -0.5178335, -458165.88, -209522.11, 0.0, 9.997063, 9.999945 
1.8849644e+3, 2.8462377e+2, -648391.56, -301073.25, 24007.432, 0.030676886, -0.4844896, -299421.66, -148783.31, 0.0, 9.996181, 10.00078 
1.8849374e+3, 2.946249e+2, -694597.25, -273770.75, 21231.287, -0.10127877, -0.45493355, -272702.3, -220075.2, 0.0, 9.995195, 10.000769 
1.8849145e+3, 3.0462512e+2, -680053.94, -180633.6, 17997.824, 0.20052499, -0.52484864, -179985.84, -179985.84, 0.0, 9.9947, 10.00131 
1.8848878e+3, 3.1462637e+2, -654970.25, -48436.543, -17843.004, 0.0803196, -0.53068364, -47912.09, -47912.09, 0.0, 9.994355, 10.002384 
1.8953855e+3, 1.2467801e+2, -994636.06, -1706325.4, -1789.8561, -0.08483276, -0.45088333, -994631.56, 723478.3, 0.07817629, 10.006953, 9.996715 
1.8953587e+3, 1.3467483e+2, -980017.7, -1634564.3, -28144.451, -0.13899603, -0.46787003, -978809.75, 641330.5, 0.053807937, 10.006097, 9.996943 
1.8953343e+3, 1.4467154e+2, -963835.5, -1596884.4, -29754.344, 0.06708256, -0.47690788, -962440.06, 559732.0, 0.030223614, 10.005454, 9.996838 
1.8953063e+3, 1.5466832e+2, -912971.7, -1531747.4, -27774.93, -0.07914208, -0.48479882, -911727.44, 512475.94, 0.012538785, 10.005076, 9.996794 
1.8952796e+3, 1.6466527e+2, -843776.25, -1387090.1, -29884.734, -0.11963168, -0.48770347, -842137.4, 484094.88, 0.0031912243, 10.004573, 9.997356 
1.895254e+3, 1.7466265e+2, -840410.06, -1337542.1, -29157.41, -0.03520712, -0.48947588, -838705.75, 389550.03, 0.00028803415, 10.003922, 9.997336 
1.8952277e+3, 1.8465981e+2, -812244.7, -1231391.4, -44070.625, -0.009410879, -0.5161371, -807661.1, 322621.3, 0.0000005824179, 10.003261, 9.997712 
1.8952003e+3, 1.9465698e+2, -814093.5, -1184705.8, -34506.797, -0.052428383, -0.57350355, -810908.06, 221401.95, 0.0, 10.002588, 9.997684 
1.8951736e+3, 2.0465492e+2, -757645.9, -1026189.44, -24505.746, -0.045151073, -0.573142, -755427.94, 178901.67, 0.0, 10.001956, 9.9984045 
1.8951476e+3, 2.1465398e+2, -745128.94, -970600.25, -29426.373, 0.020661924, -0.5126662, -741351.75, 94986.125, 0.0, 10.001374, 9.998394 
1.895121e+3, 2.2465256e+2, -706735.3, -853085.1, -35198.133, 0.040335435, -0.5059588, -698710.0, 39641.625, 0.0, 10.000757, 9.998825 
1.8950939e+3, 2.3465087e+2, -707288.4, -805642.6, -27259.227, 0.0036378962, -0.5611387, -700238.7, -59869.668, 0.0, 10.000093, 9.998797 
1.895067e+3, 2.4464992e+2, -671916.6, -667972.5, -16074.744, -0.008654666, -0.55670804, -653749.3, -111370.1, 0.0, 9.999363, 9.999421 
1.8950407e+3, 2.5465e+2, -691586.94, -628362.56, -17868.393, 0.01732457, -0.49508482, -623662.06, -179282.66, 0.0, 9.998562, 9.999406 
1.8950143e+3, 2.6464975e+2, -658016.8, -487309.6, -20436.217, 0.054542553, -0.48308167, -484897.2, -138514.58, 0.0, 9.997801, 10.000068 
1.8949878e+3, 2.746495e+2, -666464.3, -441653.47, -18111.428, 0.07256925, -0.5176807, -440203.72, -191818.23, 0.0, 9.997074, 10.000058 
1.8949604e+3, 2.8464997e+2, -639411.75, -285010.0, -12957.008, 0.01873506, -0.50965655, -284536.9, -134155.92, 0.0, 9.996188, 10.000888 
1.8949333e+3, 2.946511e+2, -690259.7, -267329.2, -10773.848, -0.028072923, -0.48990107, -267054.9, -214685.77, 0.0, 9.995203, 10.000811 
1.8949094e+3, 3.0465114e+2, -709322.75, -245086.73, 9441.747, 0.21683341, -0.553423, -244894.78, -244894.78, 0.0, 9.994712, 10.000864 
1.8948814e+3, 3.1465316e+2, -638179.9, -18012.08, -80907.73, 0.019565707, -0.44384408, -7630.5596, -7630.5596, 0.0, 9.9943695, 10.002589 
1.9053924e+3, 1.24703944e+2, -1013959.1, -1721394.4, 26262.797, -0.07677997, -0.4528123, -1012985.44, 704869.9, 0.0816025, 10.006862, 9.996649 
1.9053648e+3, 1.3470072e+2, -970323.06, -1635742.4, -28445.172, -0.12916243, -0.46864402, -969109.3, 650777.6, 0.056314785, 10.006212, 9.996878 
1.9053397e+3, 1.4469753e+2, -928904.0, -1558650.0, -21354.23, 0.06874896, -0.47241235, -928180.75, 593737.0, 0.031780038, 10.005623, 9.997016 
1.9053113e+3, 1.5469444e+2, -897335.7, -1502987.5, -1807.9423, -0.07849476, -0.48458195, -897330.3, 526616.56, 0.013300929, 10.005101, 9.996977 
1.905284e+3, 1.6469145e+2, -860644.94, -1390465.6, -3749.2266, -0.118819706, -0.4929155, -860618.4, 465356.5, 0.003448384, 10.004441, 9.997394 
1.9052577e+3, 1.7468879e+2, -880754.56, -1353724.4, -3049.711, -0.03320724, -0.5018036, -880734.9, 347264.44, 0.00032772185, 10.003634, 9.997363 
1.9052307e+3, 1.8468605e+2, -837912.1, -1225146.9, -13800.135, -0.0079074595, -0.5260496, -837420.94, 292603.9, 0.00000084087617, 10.003007, 9.997875 
1.9052029e+3, 1.9468352e+2, -803190.2, -1160464.0, -11440.947, -0.054087974, -0.5706508, -802824.2, 229224.92, 0.0, 10.002585, 9.99785 
1.9051756e+3, 2.0468152e+2, -757930.94, -1028605.94, -7648.3965, -0.047804613, -0.5708043, -757714.94, 176353.0, 0.0, 10.001967, 9.998381 
1.9051488e+3, 2.146804e+2, -782981.7, -992480.25, -5556.8486, 0.020455062, -0.5245672, -782834.4, 53243.945, 0.0, 10.001133, 9.998358 
1.9051217e+3, 2.2467901e+2, -740402.4, -849948.56, -4647.041, 0.03977336, -0.5218351, -740205.6, -2113.692, 0.0, 10.000446, 9.998994 
1.9050938e+3, 2.3467754e+2, -718699.25, -791346.7, -1028.579, -0.0014797244, -0.5711354, -718684.7, -78578.0, 0.0, 9.999933, 9.998971 
1.9050662e+3, 2.4467672e+2, -682919.9, -664491.1, 2477.481, -0.013929907, -0.56437445, -664163.9, -122048.555, 0.0, 9.999253, 9.9994955 
1.9050391e+3, 2.5467688e+2, -713714.94, -630853.9, 7293.661, 0.018370239, -0.50161254, -630216.75, -186101.75, 0.0, 9.998379, 9.9994755 
1.9050121e+3, 2.6467675e+2, -681667.25, -485563.06, 12403.9795, 0.055081308, -0.48719332, -484781.6, -138664.36, 0.0, 9.997586, 10.000181 
1.9049846e+3, 2.7467662e+2, -685795.0, -438014.72, 13021.611, 0.065116435, -0.52148783, -437332.28, -189213.23, 0.0, 9.99689, 10.00017 
1.9049567e+3, 2.846771e+2, -627095.56, -259803.06, 15527.954, 0.021573551, -0.52381223, -259147.75, -109033.69, 0.0, 9.996194, 10.001056 
1.904929e+3, 2.9467824e+2, -642143.06, -231760.81, 24844.941, 0.003067519, -0.51861954, -230262.14, -178160.47, 0.0, 9.995484, 10.000917 
1.9049038e+3, 3.0467865e+2, -705057.8, -264637.72, 69291.52, 0.18185276, -0.5407047, -253993.31, -253993.31, 0.0, 9.994839, 10.000668 
1.9048758e+3, 3.1468046e+2, -667149.56, -9685.593, -42474.37, 0.036430918, -0.43967304, -6952.9634, -6952.9634, 0.0, 9.994081, 10.002783 
1.9154002e+3, 1.247301e+2, -1034417.06, -1765484.4, 11444.916, 0.004712874, -0.4961874, -1034237.94, 683359.56, 0.08513715, 10.006874, 9.996341 
1.9153707e+3, 1.3472709e+2, -993057.94, -1683938.9, -51358.426, -0.17211422, -0.45789316, -989260.94, 630368.2, 0.05890342, 10.006216, 9.996549 
1.9153446e+3, 1.4472416e+2, -904039.5, -1503448.3, -40058.066, -0.0025137453, -0.43777803, -901374.25, 620283.44, 0.033389654, 10.005619, 9.997403 
1.9153167e+3, 1.5472125e+2, -870621.56, -1444313.3, -21144.656, -0.042022407, -0.4740359, -869843.25, 553840.1, 0.01409144, 10.005092, 9.997386 
1.915289e+3, 1.6471817e+2, -858066.44, -1384706.8, -33734.01, -0.06292596, -0.51385343, -855914.44, 469797.03, 0.0037179252, 10.0044365, 9.9974375 
1.9152611e+3, 1.7471515e+2, -877528.56, -1349525.0, -32982.57, -0.05739279, -0.5610655, -875234.9, 352504.8, 0.0003707467, 10.003641, 9.997391 
1.9152334e+3, 1.8471278e+2, -831710.06, -1214855.3, -29607.354, -0.036970146, -0.5536026, -829435.7, 300326.56, 0.0000011196438, 10.003015, 9.997944 
1.9152059e+3, 1.9471142e+2, -798518.0, -1150872.6, -26745.166, -0.003136986, -0.4885247, -796499.5, 235276.38, 0.0, 10.002583, 9.997919 
1.915178e+3, 2.0470937e+2, -753856.7, -1020345.9, -37700.51, 0.0037791107, -0.5013534, -748625.8, 185169.33, 0.0, 10.001965, 9.99844 
1.9151495e+3, 2.1470681e+2, -778079.9, -984359.75, -35811.67, -0.017003423, -0.60464114, -772039.56, 63778.797, 0.0, 10.001139, 9.998413 
1.9151215e+3, 2.2470531e+2, -731405.0, -833716.56, -23383.656, -0.013318703, -0.6195563, -726313.94, 11518.706, 0.0, 10.000453, 9.9991045 
1.9150938e+3, 2.3470522e+2, -710158.2, -774699.25, -19282.186, 0.01256193, -0.5403272, -704836.3, -65001.8, 0.0, 9.999934, 9.999086 
1.9150658e+3, 2.447048e+2, -671440.0, -641845.7, -29021.781, 0.015426552, -0.509653, -624066.44, -82226.96, 0.0, 9.999255, 9.999652 
1.9150373e+3, 2.5470424e+2, -701923.75, -608938.9, -24652.643, 0.002702499, -0.5357325, -602807.1, -158961.56, 0.0, 9.998386, 9.999623 
1.9150093e+3, 2.6470402e+2, -673808.7, -472224.9, -13440.042, 0.029348748, -0.5415706, -471332.78, -125484.305, 0.0, 9.997595, 10.000271 
1.9149816e+3, 2.7470443e+2, -677552.94, -423934.22, -12396.855, 0.07375659, -0.53029764, -423329.72, -175484.19, 0.0, 9.996899, 10.000265 
1.914953e+3, 2.847051e+2, -610174.2, -227467.52, -10588.168, 0.03957721, -0.5287148, -227174.81, -77336.07, 0.0, 9.996202, 10.001276 
1.9149242e+3, 2.9470626e+2, -628653.3, -208686.67, 505.63477, -0.012364051, -0.5417511, -208686.08, -156860.33, 0.0, 9.9955015, 10.00107 
1.9148977e+3, 3.047076e+2, -700076.94, -258554.92, 44221.715, 0.09024784, -0.4808079, -254169.36, -254169.36, 0.0, 9.994853, 10.000705 
1.9148707e+3, 3.1470823e+2, -656595.6, 10361.308, -86159.58, 0.11958882, -0.5048269, 21311.877, 21311.877, 0.0, 9.994083, 10.002922 
1.9254074e+3, 1.2475718e+2, -989116.6, -1734456.1, 29347.326, 0.021845553, -0.49988177, -987962.9, 729368.8, 0.08872604, 10.007215, 9.996388 
1.9253768e+3, 1.347541e+2, -987719.75, -1677780.1, -19445.695, -0.17072885, -0.4705658, -987172.25, 632191.6, 0.06153923, 10.006262, 9.996566 
1.92535e+3, 1.4475125e+2, -924221.3, -1499119.1, 2692.8403, -0.014691284, -0.448389, -924208.7, 597182.8, 0.035032902, 10.005426, 9.997524 
1.9253218e+3, 1.5474845e+2, -912130.1, -1450703.0, 1986.6652, -0.030891301, -0.4850621, -912122.75, 511293.2, 0.014900007, 10.004749, 9.997505 
1.9252935e+3, 1.6474551e+2, -883035.75, -1379957.9, -17592.281, -0.046126332, -0.5243091, -882413.75, 443028.9, 0.003995007, 10.004196, 9.997584 
1.9252647e+3, 1.7474264e+2, -848636.94, -1318747.8, -9561.447, -0.057206508, -0.5701895, -848442.56, 379026.78, 0.00041594863, 10.003772, 9.997537 
1.9252364e+3, 1.847404e+2, -811374.44, -1199805.8, -5064.006, -0.03838422, -0.5616324, -811308.44, 318182.47, 0.0000014320457, 10.003137, 9.997987 
1.9252086e+3, 1.9473906e+2, -841380.94, -1167712.5, -5605.8765, 0.011857083, -0.4953742, -841284.7, 190219.47, 0.0, 10.0022745, 9.997951 
1.9251798e+3, 2.0473708e+2, -798799.8, -1029904.5, -16040.542, 0.017464122, -0.5081081, -797691.75, 135831.11, 0.0, 10.001608, 9.998545 
1.9251505e+3, 2.1473458e+2, -767735.7, -967448.7, -11952.567, -0.025595445, -0.6130154, -767022.9, 68522.51, 0.0, 10.001162, 9.998515 
1.9251218e+3, 2.2473317e+2, -725392.2, -826657.4, -4426.2026, -0.025889287, -0.62670916, -725199.1, 12359.791, 0.0, 10.000481, 9.999138 
1.9250937e+3, 2.3473316e+2, -766054.3, -798185.8, -6842.8677, 0.018271115, -0.5435304, -764657.75, -125097.69, 0.0, 9.999538, 9.999114 
1.9250648e+3, 2.4473278e+2, -727935.4, -648392.5, -18498.783, 0.028888447, -0.5182453, -644300.9, -102736.38, 0.0, 9.998782, 9.999833 
1.9250357e+3, 2.5473225e+2, -712260.0, -593344.75, -12929.078, 0.009364367, -0.5572693, -591955.25, -148385.45, 0.0, 9.998231, 9.999804 
1.9250068e+3, 2.647322e+2, -677971.7, -466253.44, -3821.3467, 0.024541844, -0.5578434, -466184.47, -120613.54, 0.0, 9.997537, 10.000338 
1.9249783e+3, 2.747329e+2, -704799.5, -429316.9, -4834.9976, 0.05953294, -0.52842975, -429232.06, -181666.3, 0.0, 9.996683, 10.00033 
1.9249491e+3, 2.847335e+2, -627323.0, -228013.1, -3016.5352, 0.04048228, -0.5393025, -227990.31, -78430.53, 0.0, 9.996056, 10.001341 
1.9249201e+3, 2.947345e+2, -604459.94, -189598.14, -2869.5386, 0.014888106, -0.5749478, -189578.28, -138029.63, 0.0, 9.995641, 10.001132 
1.9248919e+3, 3.047366e+2, -652338.06, -191380.13, 44868.66, 0.036760274, -0.45804664, -187053.31, -187053.31, 0.0, 9.994994, 10.001096 
1.924865e+3, 3.1473693e+2, -664869.75, -4411.17, -61329.8, 0.14571016, -0.5498101, 1235.6012, 1235.6012, 0.0, 9.994077, 10.002823 
1.9354141e+3, 1.2478513e+2, -970479.7, -1687387.3, 3975.1514, -0.018686282, -0.47319505, -970457.7, 746600.6, 0.092306525, 10.007208, 9.996736 
1.9353834e+3, 1.3478176e+2, -968212.75, -1632752.3, -53233.12, -0.13096157, -0.5038186, -963975.56, 655115.6, 0.06417899, 10.006267, 9.996876 
1.9353557e+3, 1.4477882e+2, -933105.5, -1518542.8, -22251.008, 0.023117268, -0.49870387, -932261.0, 588858.1, 0.03668475, 10.005436, 9.997383 
1.9353265e+3, 1.547761e+2, -922212.5, -1473094.9, -22482.693, -0.044111416, -0.514551, -921296.5, 501847.94, 0.015714997, 10.004754, 9.997351 
1.9352974e+3, 1.6477346e+2, -866658.5, -1346645.5, -33249.17, -0.06517041, -0.5242758, -864366.2, 460802.25, 0.0042753993, 10.004197, 9.997815 
1.9352686e+3, 1.747712e+2, -831951.2, -1284285.4, -25084.525, -0.035160143, -0.5339252, -830564.3, 396624.5, 0.0004625084, 10.00377, 9.997776 
1.9352397e+3, 1.847688e+2, -811424.3, -1200564.6, -36680.707, -0.015340752, -0.5530924, -807996.94, 321214.47, 0.0000018185868, 10.003136, 9.997984 
1.9352104e+3, 1.9476648e+2, -840813.75, -1168698.6, -36970.098, -0.007244538, -0.58450526, -836696.94, 194536.78, 0.0, 10.00228, 9.997942 
1.9351812e+3, 2.0476468e+2, -789078.1, -1011917.8, -32238.982, -0.0044390154, -0.58407706, -784507.75, 148743.19, 0.0, 10.001613, 9.998668 
1.9351518e+3, 2.1476369e+2, -759018.7, -949374.2, -27601.398, -0.007405003, -0.55284464, -755097.25, 80162.92, 0.0, 10.001159, 9.998643 
1.9351225e+3, 2.2476248e+2, -728844.06, -834358.25, -38392.883, -0.00085382734, -0.5489783, -716353.0, 20918.896, 0.0, 10.000479, 9.999087 
1.935093e+3, 2.347613e+2, -769067.94, -806649.0, -40836.06, 0.014424212, -0.5798584, -742906.6, -103622.68, 0.0, 9.999545, 9.999055 
1.9350636e+3, 2.4476063e+2, -713732.06, -621925.2, -38697.94, 0.026268464, -0.5869626, -607789.9, -66499.19, 0.0, 9.998791, 10.000013 
1.9350341e+3, 2.547609e+2, -697385.4, -565323.9, -32902.9, 0.03847913, -0.56742346, -557580.25, -114291.586, 0.0, 9.9982395, 9.999994 
1.9350044e+3, 2.6476127e+2, -674363.8, -460791.72, -35143.992, 0.040497553, -0.53752357, -455157.3, -109871.63, 0.0, 9.997541, 10.000375 
1.9349745e+3, 2.7476192e+2, -702537.5, -426868.53, -35785.387, 0.018630194, -0.51444304, -422298.88, -175018.28, 0.0, 9.996689, 10.000346 
1.934945e+3, 2.8476217e+2, -633224.0, -243649.75, -18737.22, 0.021573687, -0.554523, -242750.63, -93472.38, 0.0, 9.996065, 10.001231 
1.9349164e+3, 2.9476276e+2, -603737.94, -194419.63, -18675.54, 0.08725594, -0.62173295, -193569.3, -142297.16, 0.0, 9.995663, 10.001091 
1.9348869e+3, 3.0476552e+2, -596028.25, -78652.414, 11491.433, 0.024137411, -0.47638643, -78397.305, -78397.305, 0.0, 9.995009, 10.001864 
1.9348584e+3, 3.14767e+2, -686478.3, -52376.73, -68059.305, 0.07961636, -0.5259896, -45154.066, -45154.066, 0.0, 9.994085, 10.002491 
1.945421e+3, 1.2481361e+2, -977276.44, -1676270.9, 45473.61, -0.033568844, -0.48794362, -974330.56, 742448.4, 0.095840335, 10.007118, 9.996862 
1.94539e+3, 1.3481052e+2, -945717.7, -1611926.0, -32436.924, -0.11876633, -0.49924424, -944142.1, 674666.8, 0.0667926, 10.006412, 9.996948 
1.9453613e+3, 1.4480764e+2, -903999.4, -1502774.1, -1975.998, 0.030486679, -0.4910978, -903992.9, 616843.3, 0.038326453, 10.005649, 9.997392 
1.9453312e+3, 1.5480475e+2, -913219.8, -1467034.1, 7878.008, -0.03667562, -0.5220348, -913107.8, 509755.28, 0.016528286, 10.004819, 9.997359 
1.9453016e+3, 1.6480213e+2, -875842.06, -1342808.9, 6400.3237, -0.054576512, -0.5344535, -875754.4, 449132.8, 0.0045568524, 10.004106, 9.997883 
1.9452725e+3, 1.7480005e+2, -862533.2, -1290992.9, 2044.9692, -0.018905284, -0.5339384, -862523.44, 364382.63, 0.0005101697, 10.003529, 9.997844 
1.9452427e+3, 1.8479772e+2, -829080.9, -1191625.3, -18915.734, -0.006490328, -0.55548966, -828096.6, 300831.0, 0.0000023367377, 10.002943, 9.9981365 
1.9452126e+3, 1.9479539e+2, -820918.06, -1141412.3, -8771.216, -0.020209083, -0.6036582, -820678.2, 210271.34, 0.0, 10.002345, 9.998096 
1.9451827e+3, 2.0479366e+2, -789883.2, -1015350.3, -1652.7415, -0.014077869, -0.6005509, -789871.06, 143095.02, 0.0, 10.001625, 9.998635 
1.945153e+3, 2.1479288e+2, -817440.6, -981617.0, -9649.012, 0.013728052, -0.54436207, -816875.5, 18098.672, 0.0, 10.000778, 9.998603 
1.945123e+3, 2.2479175e+2, -774155.2, -838966.8, -22006.838, 0.022786628, -0.5388469, -767389.06, -30403.91, 0.0, 10.000097, 9.999237 
1.9450925e+3, 2.3479043e+2, -750973.8, -780597.9, -10062.893, 0.010467633, -0.59493953, -747878.94, -108881.586, 0.0, 9.999599, 9.999205 
1.9450623e+3, 2.447898e+2, -697399.9, -621596.75, -8593.85, 0.017500183, -0.6057363, -620634.6, -79630.59, 0.0, 9.9989395, 9.999941 
1.9450323e+3, 2.5479016e+2, -722373.0, -585886.06, -22617.068, 0.04809549, -0.56487584, -582235.8, -139234.03, 0.0, 9.998108, 9.999915 
1.945002e+3, 2.6479062e+2, -680964.4, -444326.22, -31256.82, 0.04473183, -0.5313594, -440267.22, -95269.05, 0.0, 9.997416, 10.000546 
1.944971e+3, 2.7479127e+2, -666980.7, -390513.8, -21675.936, -0.002494937, -0.5252694, -388824.66, -141832.47, 0.0, 9.996855, 10.000513 
1.944941e+3, 2.8479162e+2, -634180.7, -256568.63, 2971.2166, 0.0146425525, -0.558143, -256545.25, -107556.35, 0.0, 9.996117, 10.001116 
1.9449121e+3, 2.9479247e+2, -673544.56, -231055.47, 2442.4036, 0.1227274, -0.5867668, -231042.0, -180060.95, 0.0, 9.995201, 10.00106 
1.9448815e+3, 3.047947e+2, -616425.75, -48678.574, 22240.807, 0.0133805, -0.51377785, -47808.652, -47808.652, 0.0, 9.994702, 10.002216 
1.9448525e+3, 3.1479695e+2, -632367.2, -61510.64, -56479.094, 0.061597105, -0.51238775, -55976.395, -55976.395, 0.0, 9.994613, 10.0021715 
1.9554281e+3, 1.24842644e+2, -983764.5, -1686379.8, 26809.48, -0.032797202, -0.53873086, -982743.06, 733750.4, 0.0993317, 10.007127, 9.996784 
1.9553961e+3, 1.348403e+2, -957394.56, -1633620.5, -56452.504, -0.13092117, -0.46101227, -952714.2, 665803.4, 0.06938059, 10.006408, 9.996802 
1.9553667e+3, 1.4483762e+2, -896573.4, -1485635.1, -31140.76, 0.01171635, -0.43268934, -894931.7, 625611.5, 0.03995701, 10.005647, 9.997517 
1.9553362e+3, 1.5483437e+2, -902641.6, -1447335.3, -22314.03, -0.01174938, -0.5105903, -901729.06, 520843.38, 0.017339326, 10.00483, 9.99749 
1.9553061e+3, 1.6483149e+2, -880321.0, -1356009.0, -14588.28, -0.018763045, -0.55418485, -879874.06, 444725.1, 0.004839333, 10.004119, 9.997787 
1.9552761e+3, 1.7482916e+2, -868784.6, -1305790.4, -18440.182, -0.008570981, -0.56640106, -868007.9, 358612.94, 0.0005590258, 10.003533, 9.997743 
1.9552457e+3, 1.8482712e+2, -808973.06, -1150806.6, -40232.637, -0.0112821665, -0.56694484, -804301.7, 324337.88, 0.000003033972, 10.002943, 9.998418 
1.9552149e+3, 1.9482565e+2, -800165.75, -1099518.0, -30439.896, -0.028244434, -0.5579477, -797101.8, 233550.8, 0.0, 10.002347, 9.998384 
1.9551842e+3, 2.0482391e+2, -802797.1, -1044332.44, -32572.725, -0.012873158, -0.56268704, -798481.6, 134187.8, 0.0, 10.001631, 9.998436 
1.955154e+3, 2.1482213e+2, -830445.4, -1011556.2, -39965.375, 0.036848973, -0.58509904, -822018.44, 12669.164, 0.0, 10.000787, 9.998395 
1.9551232e+3, 2.2482093e+2, -749667.8, -791268.0, -39719.316, 0.044402912, -0.5919755, -725631.9, 11067.108, 0.0, 10.000107, 9.999562 
1.9550921e+3, 2.3482054e+2, -726628.2, -731837.25, -27834.701, 0.0062077423, -0.58908814, -701276.44, -62575.38, 0.0, 9.999603, 9.99954 
1.9550611e+3, 2.4482015e+2, -719945.5, -670277.3, -38928.8, 0.0023328501, -0.57624024, -648935.8, -108230.11, 0.0, 9.998944, 9.999606 
1.9550303e+3, 2.5482002e+2, -745919.3, -637420.06, -52908.395, 0.03583326, -0.54941434, -615891.6, -173181.53, 0.0, 9.998116, 9.999559 
1.9549993e+3, 2.6482022e+2, -659640.2, -402699.9, -51851.664, 0.03567037, -0.53881615, -392630.63, -47921.31, 0.0, 9.997422, 10.000831 
1.9549678e+3, 2.7482083e+2, -644093.94, -347554.28, -42480.42, -0.0031305482, -0.56390494, -341588.8, -94886.77, 0.0, 9.99687, 10.000803 
1.954937e+3, 2.8482175e+2, -641282.0, -274834.56, -32338.553, 0.01981843, -0.5504968, -272002.63, -123309.57, 0.0, 9.996128, 10.000987 
1.9549072e+3, 2.9482362e+2, -675647.9, -236379.95, -31826.2, 0.116055794, -0.46379656, -234086.03, -183410.02, 0.0, 9.995201, 10.001025 
1.954876e+3, 3.0482396e+2, -623807.56, -65795.29, 17772.35, 0.0044115284, -0.5748612, -65229.82, -65229.82, 0.0, 9.994706, 10.002098 
1.9548473e+3, 3.1482622e+2, -641224.7, -90812.48, -18142.908, 0.0781104, -0.55379534, -90215.09, -90215.09, 0.0, 9.994656, 10.001952 
1.965435e+3, 1.2487326e+2, -959379.6, -1679104.5, 67564.29, -0.057892576, -0.53561527, -953091.94, 763100.75, 0.10281707, 10.007366, 9.996723 
1.9654025e+3, 1.3487062e+2, -987578.8, -1660781.8, -17320.154, -0.11992704, -0.4746114, -987133.5, 631086.25, 0.07196942, 10.006257, 9.996684 
1.9653723e+3, 1.4486781e+2, -920157.1, -1494193.6, 17784.752, 0.018774563, -0.45207617, -919606.7, 600640.0, 0.041590802, 10.005482, 9.997532 
1.9653411e+3, 1.5486477e+2, -866317.6, -1427500.3, 18559.203, -0.0038918224, -0.5125642, -865704.5, 556569.8, 0.018153235, 10.005084, 9.997502 
1.9653103e+3, 1.6486195e+2, -832072.94, -1327215.4, 21177.611, -0.011858072, -0.5497911, -831168.8, 493131.47, 0.0051237894, 10.004435, 9.997831 
1.9652796e+3, 1.748596e+2, -868691.7, -1300051.4, 26471.477, -0.0063157496, -0.5683066, -867073.3, 359248.75, 0.00060907775, 10.003515, 9.997788 
1.9652486e+3, 1.8485759e+2, -834068.0, -1165959.5, 5686.2637, -0.0075347233, -0.567328, -833970.6, 294370.28, 0.0000039260876, 10.0027895, 9.998385 
1.9652173e+3, 1.9485618e+2, -813971.7, -1109948.3, -8092.134, -0.015539939, -0.54705256, -813750.6, 216603.2, 0.0, 10.002273, 9.998346 
1.9651859e+3, 2.0485447e+2, -782301.0, -1016581.7, -16405.797, -0.004282742, -0.55399114, -781157.75, 151212.36, 0.0, 10.0016985, 9.998591 
1.9651549e+3, 2.1485266e+2, -779407.75, -968974.5, 1074.7798, 0.026884073, -0.59504765, -779401.6, 54985.934, 0.0, 10.001065, 9.998551 
1.9651233e+3, 2.2485144e+2, -724139.0, -789784.44, 1667.304, 0.03323032, -0.6056927, -724096.7, 12302.299, 0.0, 10.000334, 9.99946 
1.9650917e+3, 2.348511e+2, -748662.75, -753855.94, -19213.035, 0.012904185, -0.5880524, -731871.6, -93470.2, 0.0, 9.999504, 9.999434 
1.96506e+3, 2.4485072e+2, -738334.4, -675601.7, -34766.31, 0.010653881, -0.56851584, -660143.44, -119737.36, 0.0, 9.998807, 9.999634 
1.9650283e+3, 2.548506e+2, -726304.94, -624282.7, -21478.72, 0.028216785, -0.54691356, -619945.2, -177534.77, 0.0, 9.99824, 9.999586 
1.9649966e+3, 2.6485065e+2, -639449.4, -394098.16, -16173.334, 0.028032314, -0.54737735, -393036.63, -48625.945, 0.0, 9.997572, 10.000815 
1.9649647e+3, 2.7485117e+2, -658882.56, -356416.34, -31166.52, 0.009283609, -0.5814276, -353238.3, -106833.71, 0.0, 9.99678, 10.000782 
1.9649333e+3, 2.848523e+2, -641559.3, -280133.75, -30138.396, 0.027147489, -0.5417845, -277637.8, -129244.24, 0.0, 9.996153, 10.0009365 
1.9649023e+3, 2.9485455e+2, -601121.2, -200990.48, -22634.635, 0.08365488, -0.41255385, -199714.16, -149341.13, 0.0, 9.99572, 10.001015 
1.964871e+3, 3.0485377e+2, -597082.2, -91547.52, 21221.432, -0.0015293659, -0.6223289, -90658.25, -90658.25, 0.0, 9.99506, 10.001749 
1.9648418e+3, 3.148566e+2, -688857.8, -70694.3, 7735.2114, 0.09237829, -0.5036533, -70597.516, -70597.516, 0.0, 9.994147, 10.002334 
1.9754419e+3, 1.249053e+2, -966266.25, -1686707.3, 32039.0, -0.10562878, -0.4879685, -964844.25, 751033.75, 0.10633602, 10.0073595, 9.996671 
1.975409e+3, 1.349015e+2, -993903.6, -1675079.0, -56334.496, -0.09099191, -0.5334028, -989276.06, 628639.4, 0.07458662, 10.00627, 9.996584 
1.975378e+3, 1.4489831e+2, -925929.1, -1508991.6, 4136.0913, 0.04528143, -0.5384597, -925899.8, 594046.44, 0.04324245, 10.005499, 9.99742 
1.9753462e+3, 1.5489589e+2, -874249.2, -1444555.5, 5011.3765, -0.011192952, -0.52518666, -874205.2, 547763.75, 0.018975172, 10.005086, 9.997386 
1.9753145e+3, 1.6489348e+2, -821170.1, -1304870.3, -12765.454, -0.030340957, -0.5233181, -820833.44, 503157.7, 0.0054111416, 10.004433, 9.997988 
1.975283e+3, 1.7489128e+2, -855751.94, -1276525.0, -7824.88, -0.012335928, -0.5429829, -855606.5, 370404.3, 0.0006601677, 10.003526, 9.997946 
1.9752513e+3, 1.8488902e+2, -855408.56, -1214546.1, -13290.809, 0.003044752, -0.5581502, -854917.4, 273115.13, 0.000004997438, 10.002804, 9.998047 
1.9752197e+3, 1.9488698e+2, -836658.4, -1159892.1, -26088.633, 0.016037097, -0.568019, -834566.3, 195487.03, 0.0, 10.002281, 9.998002 
1.9751878e+3, 2.0488535e+2, -748109.5, -947946.06, -38937.055, 0.0104030315, -0.5718003, -740790.9, 191277.45, 0.0, 10.001704, 9.999063 
1.9751553e+3, 2.148844e+2, -744997.56, -899336.1, -21918.547, -0.015198478, -0.5756401, -741945.1, 92129.89, 0.0, 10.001069, 9.999029 
1.9751231e+3, 2.248832e+2, -759984.8, -866613.6, -28757.219, -0.00942155, -0.58213645, -752723.6, -16637.422, 0.0, 10.0003395, 9.998932 
1.9750912e+3, 2.3488203e+2, -785433.3, -832949.5, -49138.9, 0.02889554, -0.5922088, -754610.5, -116511.31, 0.0, 9.999513, 9.99889 
1.975059e+3, 2.4488147e+2, -711125.94, -621948.94, -55423.004, 0.040811844, -0.5817332, -595404.9, -55299.04, 0.0, 9.998816, 10.0 
1.9750264e+3, 2.5488174e+2, -697982.6, -568830.94, -42050.277, 0.024672324, -0.5573909, -556346.6, -114242.766, 0.0, 9.99825, 9.999964 
1.974994e+3, 2.6488185e+2, -661074.3, -442075.1, -45868.824, 0.021478362, -0.55695415, -432856.06, -88752.68, 0.0, 9.9975815, 10.000483 
1.9749616e+3, 2.7488214e+2, -682162.8, -407229.53, -61585.656, 0.03318078, -0.57783455, -394064.6, -147963.52, 0.0, 9.996787, 10.000433 
1.9749294e+3, 2.8488314e+2, -639931.4, -278903.7, -46965.86, 0.034811206, -0.53224605, -272893.97, -124802.15, 0.0, 9.996159, 10.000944 
1.9748974e+3, 2.9488507e+2, -598471.3, -202181.53, -37896.74, 0.021074086, -0.4377277, -198590.06, -148515.95, 0.0, 9.995745, 10.000997 
1.974866e+3, 3.0488387e+2, -636736.7, -180615.44, -17777.238, -0.0042390926, -0.65425116, -179923.63, -179923.63, 0.0, 9.995085, 10.001128 
1.974836e+3, 3.1488693e+2, -620452.0, 69003.86, -8806.05, 0.10753576, -0.45595866, 69116.31, 69116.31, 0.0, 9.994153, 10.003293 
1.985449e+3, 1.2493767e+2, -1006094.44, -1700561.4, 60522.086, -0.10121976, -0.48629534, -1000859.44, 714701.1, 0.109905854, 10.00706, 9.996707 
1.9854154e+3, 1.3493374e+2, -943191.4, -1647429.4, -22939.17, -0.08577594, -0.5415963, -942444.94, 675153.4, 0.07724095, 10.006665, 9.99658 
1.9853835e+3, 1.4493038e+2, -868087.06, -1491295.5, 42274.938, 0.034077086, -0.5604239, -865232.44, 654398.4, 0.04491553, 10.005976, 9.997316 
1.9853511e+3, 1.5492797e+2, -900361.44, -1468921.3, 43124.547, -0.0056275656, -0.5349728, -897109.1, 524544.9, 0.019806387, 10.004962, 9.997276 
1.9853188e+3, 1.6492553e+2, -853157.06, -1323666.4, 21174.9, -0.020688685, -0.525258, -852206.06, 471470.47, 0.005701695, 10.004234, 9.9979515 
1.9852866e+3, 1.7492333e+2, -817684.56, -1261689.8, 11740.861, -0.013727382, -0.54273933, -817374.3, 408322.22, 0.00071223103, 10.003807, 9.9979105 
1.9852543e+3, 1.8492103e+2, -798759.25, -1187174.9, 10433.459, -0.0019546892, -0.5596615, -798479.2, 329239.34, 0.000006217688, 10.003197, 9.998044 
1.9852221e+3, 1.949189e+2, -820034.8, -1151662.3, 21050.436, 0.015141191, -0.57608527, -818703.94, 211035.88, 0.0, 10.0023985, 9.997999 
1.9851895e+3, 2.0491724e+2, -753847.4, -959565.94, 2073.0776, 0.013450846, -0.5790907, -753826.44, 177928.83, 0.0, 10.001708, 9.998979 
1.9851565e+3, 2.1491627e+2, -742105.6, -907002.06, -22373.084, -0.008441764, -0.5735314, -739123.94, 94638.336, 0.0, 10.001132, 9.998944 
1.9851236e+3, 2.2491503e+2, -744625.7, -862617.94, -39483.82, -0.003294278, -0.5789901, -732632.25, 3141.826, 0.0, 10.000464, 9.998898 
1.9850908e+3, 2.3491375e+2, -761145.25, -824617.6, -23128.617, 0.03118727, -0.59707385, -753611.6, -115823.42, 0.0, 9.999699, 9.998855 
1.9850579e+3, 2.4491315e+2, -687756.1, -610829.4, -18028.082, 0.041630626, -0.5878566, -606814.06, -67018.97, 0.0, 9.998981, 9.999993 
1.9850248e+3, 2.5491345e+2, -688624.3, -564185.5, -33220.99, 0.025403818, -0.55867314, -555872.0, -114079.57, 0.0, 9.998319, 9.999961 
1.9849916e+3, 2.6491347e+2, -661422.94, -459521.06, -49743.17, 0.021787906, -0.5563759, -447931.0, -104138.41, 0.0, 9.997658, 10.000324 
1.9849585e+3, 2.7491367e+2, -664812.6, -416488.9, -52705.06, 0.035537627, -0.573866, -405765.66, -159973.64, 0.0, 9.996989, 10.000268 
1.9849256e+3, 2.849145e+2, -621321.3, -267401.28, -25623.807, 0.031756576, -0.53967357, -265555.75, -117770.94, 0.0, 9.996281, 10.00096 
1.9848926e+3, 2.9491603e+2, -639143.8, -226050.69, -16826.025, 0.002754175, -0.4810816, -225366.47, -175596.16, 0.0, 9.995489, 10.000954 
1.984861e+3, 3.0491546e+2, -721972.0, -273845.38, -789.8174, 0.029121786, -0.6090163, -273844.0, -273844.0, 0.0, 9.994727, 10.000658 
1.9848296e+3, 3.1491742e+2, -591952.06, 139437.39, 22118.414, 0.0571084, -0.4799931, 140105.67, 140105.67, 0.0, 9.994108, 10.003796 
1.9954565e+3, 1.2497042e+2, -1003257.56, -1690141.8, 46693.99, -0.059162, -0.5214469, -1000097.9, 715141.5, 0.113517664, 10.007063, 9.996788 
1.995422e+3, 1.3496728e+2, -940428.6, -1639304.0, -36747.453, -0.101711735, -0.5046743, -938501.7, 678767.4, 0.07992552, 10.006672, 9.996635 
1.995389e+3, 1.4496385e+2, -875048.44, -1506267.6, 5570.382, -0.009143652, -0.5258533, -874999.3, 644302.4, 0.04660706, 10.005984, 9.997208 
1.9953564e+3, 1.549609e+2, -906560.44, -1484948.4, 5511.172, 0.010250718, -0.5429483, -906507.94, 514822.06, 0.020646539, 10.004974, 9.997162 
1.9953233e+3, 1.6495812e+2, -867280.6, -1356989.1, 5683.3784, 0.012045588, -0.5525995, -867214.6, 456141.84, 0.0059957765, 10.004248, 9.997718 
1.9952904e+3, 1.7495574e+2, -832632.1, -1295452.5, -3149.6787, -0.011156031, -0.5645081, -832610.7, 392768.44, 0.0007655101, 10.003816, 9.997677 
1.9952571e+3, 1.8495356e+2, -776905.7, -1144066.1, -18790.54, -0.021386888, -0.5706525, -775946.5, 351452.8, 0.0000075719613, 10.003203, 9.998339 
1.995224e+3, 1.9495189e+2, -797560.06, -1107963.5, -8324.602, -0.016518828, -0.5721968, -797337.0, 232077.31, 0.0, 10.002408, 9.998297 
1.995191e+3, 2.0495005e+2, -796039.6, -1050659.0, -19151.758, 0.005462119, -0.57664204, -794607.2, 136824.75, 0.0, 10.0017185, 9.99835 
1.995158e+3, 2.1494828e+2, -785574.06, -999594.56, -42412.53, 0.043687955, -0.5873285, -777475.56, 55974.07, 0.0, 10.001138, 9.998308 
1.9951245e+3, 2.2494692e+2, -712677.3, -798854.4, -66986.42, 0.0481493, -0.59478873, -676117.9, 59345.1, 0.0, 10.000471, 9.999334 
1.9950904e+3, 2.3494618e+2, -729002.44, -760609.25, -50843.633, 0.019506639, -0.60253173, -691562.8, -54093.51, 0.0, 9.999706, 9.999292 
1.9950566e+3, 2.4494566e+2, -714151.0, -668454.6, -42555.914, 0.013488661, -0.5868981, -643001.2, -103526.29, 0.0, 9.99899, 9.999596 
1.995023e+3, 2.549456e+2, -715076.0, -622031.06, -57565.863, 0.028808534, -0.5520193, -594538.9, -153061.69, 0.0, 9.998327, 9.999561 
1.9949892e+3, 2.649455e+2, -660234.0, -459861.38, -74911.8, 0.028295657, -0.545817, -434951.44, -91472.07, 0.0, 9.997665, 10.00032 
1.9949552e+3, 2.749456e+2, -662842.9, -417311.9, -77534.266, 0.013823717, -0.5690687, -394877.78, -149399.14, 0.0, 9.997005, 10.0002575 
1.9949216e+3, 2.8494614e+2, -618115.6, -264478.88, -56533.367, 0.015880888, -0.5649029, -255661.16, -108187.13, 0.0, 9.996294, 10.000977 
1.9948885e+3, 2.9494733e+2, -643632.44, -237183.73, -49774.676, 0.030913856, -0.54589343, -231176.98, -181713.56, 0.0, 9.995493, 10.000877 
1.9948564e+3, 3.0494845e+2, -744332.06, -322091.97, -26150.42, 0.100273915, -0.478513, -320478.56, -320478.56, 0.0, 9.99473, 10.000328 
1.9948228e+3, 3.149486e+2, -606950.44, 104598.83, -28718.758, -0.034684442, -0.50691015, 105756.06, 105756.06, 0.0, 9.9941225, 10.003551 
2.005464e+3, 1.2500396e+2, -971529.1, -1668516.3, 61979.797, -0.036405563, -0.52769846, -966060.5, 748849.94, 0.1171599, 10.007311, 9.996836 
2.0054287e+3, 1.3500096e+2, -949824.5, -1636712.6, -20147.648, -0.08365833, -0.5018614, -949234.06, 667704.3, 0.08263617, 10.006593, 9.996688 
2.0053948e+3, 1.4499745e+2, -884638.2, -1510737.0, 16476.385, -0.018070767, -0.53374064, -884204.9, 634766.75, 0.04831834, 10.005931, 9.997197 
2.0053613e+3, 1.5499452e+2, -858954.56, -1462542.1, 21785.137, 0.0018043173, -0.5465209, -858169.25, 562830.44, 0.021498218, 10.005322, 9.997147 
2.0053278e+3, 1.6499165e+2, -817530.9, -1342567.6, 37704.484, 0.009152342, -0.5598697, -814837.06, 508190.13, 0.006294828, 10.00464, 9.997626 
2.0052943e+3, 1.7498903e+2, -828834.1, -1303652.1, 37551.96, -0.0053309295, -0.58404833, -825882.56, 399169.3, 0.00082040846, 10.00389, 9.997582 
2.0052604e+3, 1.849868e+2, -774359.06, -1146123.6, 11617.623, -0.015752034, -0.5891511, -773996.3, 353076.25, 0.000009033603, 10.00324, 9.998304 
2.0052266e+3, 1.9498523e+2, -760491.56, -1093509.4, -2116.6802, -0.01916283, -0.576016, -760478.1, 268608.16, 0.0, 10.002682, 9.998262 
2.0051928e+3, 2.0498331e+2, -766718.94, -1051438.5, -8978.74, 0.0032047827, -0.5803768, -766436.06, 164668.89, 0.0, 10.001988, 9.998213 
2.0051591e+3, 2.1498126e+2, -792223.5, -1018125.1, 2309.5156, 0.050658233, -0.6059239, -792199.9, 40926.35, 0.0, 10.001163, 9.998167 
2.005125e+3, 2.2497985e+2, -710686.25, -794262.44, -17635.914, 0.055941366, -0.6108898, -707117.2, 28022.879, 0.0, 10.000473, 9.999363 
2.0050901e+3, 2.3497935e+2, -695060.0, -740787.0, -32304.434, 0.019047813, -0.5990855, -678346.75, -41202.99, 0.0, 9.999928, 9.99932 
2.0050555e+3, 2.4497874e+2, -687963.75, -671524.2, -33612.992, 0.006863402, -0.5842935, -645140.5, -105990.555, 0.0, 9.999241, 9.999452 
2.0050213e+3, 2.5497836e+2, -715290.75, -637806.0, -30162.113, 0.020182276, -0.5684817, -627449.25, -186293.44, 0.0, 9.998398, 9.999416 
2.0049869e+3, 2.6497817e+2, -662499.8, -469202.38, -36116.45, 0.024758715, -0.5569167, -462674.7, -119515.88, 0.0, 9.997691, 10.000241 
2.0049523e+3, 2.7497843e+2, -650932.94, -419709.3, -43771.195, 0.020592565, -0.5557447, -411700.72, -166544.05, 0.0, 9.997127, 10.000179 
2.004918e+3, 2.8497872e+2, -605966.9, -270704.3, -39017.25, 0.01493761, -0.5661304, -266223.44, -119068.84, 0.0, 9.996434, 10.000863 
2.0048837e+3, 2.9497942e+2, -645505.0, -254238.64, -44720.1, 0.009059824, -0.58328146, -249192.4, -200043.52, 0.0, 9.995556, 10.000727 
2.0048513e+3, 3.0498153e+2, -728151.4, -285438.4, 8098.6494, 0.10848598, -0.41977376, -285290.28, -285290.28, 0.0, 9.994721, 10.000582 
2.0048167e+3, 3.149806e+2, -656624.4, 35713.234, 8388.752, -0.051199745, -0.58504564, 35814.863, 35814.863, 0.0, 9.993983, 10.00314 
2.0154712e+3, 1.250383e+2, -971504.5, -1665957.8, 35892.566, -0.033117596, -0.50789136, -969654.3, 744919.44, 0.12086052, 10.007326, 9.996852 
2.0154357e+3, 1.3503486e+2, -948806.3, -1630392.6, -44144.055, -0.03704027, -0.52994037, -945959.1, 670646.3, 0.08539494, 10.00659, 9.996736 
2.015401e+3, 1.4503121e+2, -882334.56, -1504258.5, -4352.7534, 0.0010107965, -0.57938176, -882304.1, 636335.8, 0.050064784, 10.00593, 9.997247 
2.0153663e+3, 1.550288e+2, -853784.56, -1454565.8, -197.43802, -0.029293453, -0.5453345, -853784.5, 566878.75, 0.022370355, 10.005336, 9.997197 
2.015332e+3, 1.6502608e+2, -814030.5, -1339698.5, 9699.082, -0.025622966, -0.54860497, -813851.6, 508837.4, 0.0066026514, 10.004656, 9.997641 
2.0152982e+3, 1.7502318e+2, -826458.6, -1302068.5, 9688.733, 0.003054583, -0.6016703, -826261.3, 398454.2, 0.00087769906, 10.003901, 9.99759 
2.0152639e+3, 1.8502069e+2, -797528.0, -1196728.1, -8830.743, 0.011805577, -0.61437017, -797332.75, 329406.06, 0.000010560831, 10.003246, 9.997956 
2.0152293e+3, 1.9501893e+2, -784286.4, -1144852.6, -21999.027, 0.0042194393, -0.58615065, -782949.1, 245806.75, 0.0, 10.0026865, 9.99791 
2.0151947e+3, 2.0501699e+2, -743822.9, -1006476.9, -38822.754, 0.0053292415, -0.5898915, -738204.7, 192570.08, 0.0, 10.001996, 9.99852 
2.0151599e+3, 2.1501511e+2, -769114.2, -973253.8, -27757.408, 0.014301093, -0.62957186, -765407.25, 67385.69, 0.0, 10.001172, 9.998473 
2.0151252e+3, 2.2501373e+2, -735865.4, -849959.9, -37402.258, 0.022175524, -0.6271075, -724697.4, 10108.982, 0.0, 10.0004835, 9.998978 
2.0150901e+3, 2.3501313e+2, -720778.94, -796938.5, -51763.023, 0.02846253, -0.5865827, -694597.7, -57785.168, 0.0, 9.999936, 9.998933 
2.0150548e+3, 2.450123e+2, -679750.1, -657464.3, -64421.934, 0.020307967, -0.57989293, -603228.75, -64407.67, 0.0, 9.999249, 9.999547 
2.0150194e+3, 2.5501156e+2, -707630.75, -625628.4, -61507.016, -0.0015393374, -0.60797083, -592709.3, -151880.11, 0.0, 9.998409, 9.999497 
2.0149843e+3, 2.650114e+2, -672875.56, -493856.5, -57565.742, 0.010476751, -0.58906484, -476943.44, -134111.53, 0.0, 9.997701, 10.000069 
2.0149498e+3, 2.7501202e+2, -660240.06, -442729.94, -64329.01, 0.05572211, -0.5353796, -425128.8, -180301.42, 0.0, 9.997139, 10.000018 
2.0149145e+3, 2.8501213e+2, -623192.06, -309699.78, -72737.164, 0.029159088, -0.5434749, -293645.3, -146817.53, 0.0, 9.996444, 10.000593 
2.0148784e+3, 2.9501227e+2, -661053.06, -290278.6, -80614.81, -0.068124175, -0.5900362, -273509.53, -224681.64, 0.0, 9.995567, 10.000476 
2.0148453e+3, 3.0501455e+2, -665352.4, -158536.33, -20178.451, 0.04516263, -0.44071648, -157734.2, -157734.2, 0.0, 9.994732, 10.001451 
2.0148118e+3, 3.1501496e+2, -694719.5, -44977.895, -67224.18, 0.068958275, -0.5537309, -38095.586, -38095.586, 0.0, 9.993988, 10.002585 
2.0254786e+3, 1.2507324e+2, -963105.8, -1662899.5, 70349.96, -0.024272004, -0.5282506, -956103.6, 758126.5, 0.12470131, 10.007432, 9.996824 
2.0254426e+3, 1.3506989e+2, -950954.06, -1626469.4, -6867.437, -0.010036101, -0.5436003, -950884.25, 665376.75, 0.08825677, 10.0065775, 9.996765 
2.0254068e+3, 1.4506611e+2, -885970.56, -1517612.5, 40147.715, 0.00888127, -0.6007391, -883428.94, 634867.9, 0.051877327, 10.005971, 9.9971285 
2.0253716e+3, 1.5506369e+2, -826734.25, -1455353.0, 32417.715, -0.030764697, -0.555674, -825066.94, 595253.9, 0.023277763, 10.005595, 9.997064 
2.0253368e+3, 1.6506094e+2, -769035.9, -1322496.1, 21918.936, -0.028254936, -0.54962707, -768169.1, 554177.56, 0.0069251885, 10.0049925, 9.997593 
2.025302e+3, 1.7505808e+2, -791508.7, -1290004.5, 17146.145, 0.006278427, -0.5956288, -790919.6, 433453.34, 0.00093885825, 10.004167, 9.997542 
2.0252673e+3, 1.8505545e+2, -783395.9, -1198403.1, 11222.993, 0.021141095, -0.6154729, -783092.56, 343305.06, 0.000012160716, 10.003385, 9.997875 
2.0252322e+3, 1.9505338e+2, -795549.56, -1159418.0, 15714.539, 0.019742409, -0.6082784, -794872.2, 233545.47, 0.0, 10.002653, 9.997824 
2.0251969e+3, 2.0505145e+2, -738971.94, -1003143.8, -4014.6887, 0.011550662, -0.606403, -738910.94, 191525.63, 0.0, 10.002029, 9.998525 
2.025161e+3, 2.1504988e+2, -719981.75, -948620.25, -15706.574, -0.004042985, -0.6149314, -718907.8, 113544.086, 0.0, 10.001509, 9.998478 
2.0251253e+3, 2.2504848e+2, -692297.2, -835626.0, -25953.56, -0.0008295985, -0.6118268, -687742.4, 46723.246, 0.0, 10.000815, 9.998914 
2.0250899e+3, 2.350475e+2, -723640.75, -805385.25, -17499.852, 0.021457115, -0.6002716, -720051.94, -83576.92, 0.0, 9.99995, 9.998865 
2.0250541e+3, 2.4504657e+2, -679475.06, -654403.6, -21008.525, 0.021061853, -0.60208476, -642475.06, -103990.62, 0.0, 9.999243, 9.999569 
2.0250179e+3, 2.5504598e+2, -665385.06, -602730.2, -23859.229, -0.0023900971, -0.6176756, -594679.06, -154188.1, 0.0, 9.9986925, 9.999516 
2.0249821e+3, 2.6504585e+2, -643346.5, -491542.16, -21571.045, 0.0064906445, -0.5912071, -488536.47, -146042.77, 0.0, 9.997959, 9.999958 
2.0249467e+3, 2.7504635e+2, -684546.94, -466172.7, -24061.281, 0.05063604, -0.5358112, -463552.97, -219062.03, 0.0, 9.997027, 9.999908 
2.0249107e+3, 2.850465e+2, -659336.4, -324853.5, -22623.205, 0.03296362, -0.5376587, -323330.28, -176838.84, 0.0, 9.996191, 10.000608 
2.0248741e+3, 2.9504675e+2, -673787.4, -289051.44, -9823.196, -0.051883537, -0.5686653, -288800.8, -240311.31, 0.0, 9.995453, 10.000537 
2.0248395e+3, 3.0504858e+2, -661856.56, -114308.86, 41940.695, 0.005788555, -0.49103656, -111114.945, -111114.945, 0.0, 9.9945755, 10.001828 
2.0248058e+3, 3.1505033e+2, -783218.2, -119492.38, -70622.48, 0.10315384, -0.5018551, -112061.13, -112061.13, 0.0, 9.993523, 10.002295 
2.0354863e+3, 1.2510878e+2, -973274.5, -1675361.8, 36785.527, -0.011955077, -0.583617, -971352.4, 742527.2, 0.12877569, 10.007421, 9.996735 
2.035449e+3, 1.3510597e+2, -949025.1, -1625581.4, -36679.53, -0.003619768, -0.5427247, -947042.3, 668863.06, 0.091285676, 10.006609, 9.996759 
2.0354128e+3, 1.4510208e+2, -900699.56, -1556879.6, 26273.307, 0.0041268473, -0.5992388, -899649.25, 618293.75, 0.053792614, 10.006008, 9.996843 
2.0353775e+3, 1.5509912e+2, -847190.44, -1499440.6, 18482.807, -0.0062658433, -0.5771429, -846667.06, 573305.5, 0.024237912, 10.005599, 9.996762 
2.0353419e+3, 1.6509625e+2, -778212.4, -1340350.6, -8384.156, -0.0028180745, -0.5624369, -778087.4, 543913.0, 0.007269264, 10.004985, 9.997477 
2.0353062e+3, 1.7509367e+2, -798468.6, -1306244.9, -13012.324, 0.003691464, -0.5680962, -798135.4, 425889.13, 0.0010058502, 10.004169, 9.997431 
2.0352705e+3, 1.8509099e+2, -771465.75, -1176963.9, -15594.153, 0.012938997, -0.5949884, -770866.94, 355182.53, 0.000013938443, 10.003395, 9.99802 
2.0352349e+3, 1.9508854e+2, -784284.06, -1139275.0, -11004.902, 0.027734512, -0.6415263, -783943.25, 244128.86, 0.0, 10.002663, 9.997959 
2.0351988e+3, 2.0508662e+2, -758070.44, -1045698.0, -22785.229, 0.021472517, -0.6285225, -756276.6, 173814.44, 0.0, 10.002037, 9.998231 
2.0351624e+3, 2.150855e+2, -739497.1, -990717.25, -33790.324, -0.0064491066, -0.562942, -735031.5, 97072.336, 0.0, 10.001512, 9.998189 
2.0351261e+3, 2.2508402e+2, -675314.94, -802614.6, -57151.2, -0.014689676, -0.5667346, -653422.06, 80696.375, 0.0, 10.000821, 9.999141 
2.0350894e+3, 2.350824e+2, -706222.4, -772549.7, -48894.164, -0.0020469564, -0.64076495, -680305.9, -44173.734, 0.0, 9.999961, 9.999088 
2.035053e+3, 2.4508148e+2, -682636.3, -664089.4, -41244.582, 0.009521224, -0.649907, -631088.56, -92947.62, 0.0, 9.999252, 9.9995 
2.0350167e+3, 2.550815e+2, -668068.2, -611363.3, -43882.023, 0.016733518, -0.5975602, -587471.2, -147329.11, 0.0, 9.998701, 9.9994545 
2.0349799e+3, 2.6508138e+2, -645861.7, -500038.47, -56760.27, 0.01165672, -0.563972, -480549.7, -138404.45, 0.0, 9.997969, 9.999898 
2.0349433e+3, 2.7508134e+2, -687614.94, -475970.7, -59629.664, 0.0019290601, -0.55781317, -460326.7, -216178.33, 0.0, 9.997037, 9.999839 
2.0349067e+3, 2.8508165e+2, -637646.0, -282084.38, -50655.863, 0.026061263, -0.5478036, -275008.4, -128862.1, 0.0, 9.996197, 10.000902 
2.0348705e+3, 2.9508287e+2, -646349.9, -236228.3, -36976.082, 0.06494822, -0.5181345, -232921.23, -184786.88, 0.0, 9.995466, 10.0008955 
2.0348339e+3, 3.0508342e+2, -671605.6, -137368.4, 1342.1178, -0.012701846, -0.57652664, -137365.03, -137365.03, 0.0, 9.994583, 10.001668 
2.0347987e+3, 3.1508592e+2, -766768.25, -85526.44, -107603.836, 0.048326246, -0.49437284, -68934.26, -68934.26, 0.0, 9.993518, 10.002533 
2.0454936e+3, 1.2514508e+2, -1015262.0, -1718519.8, 46452.09, -0.0033036943, -0.59893095, -1012207.0, 701315.75, 0.133125, 10.007235, 9.9964905 
2.0454559e+3, 1.3514239e+2, -861756.2, -1594937.4, -29419.104, -0.007080114, -0.5331888, -860577.6, 754970.9, 0.09451559, 10.007358, 9.99662 
2.045419e+3, 1.4513835e+2, -794455.1, -1504031.4, 19357.482, -0.006989685, -0.5949257, -793927.5, 723660.0, 0.055834465, 10.006801, 9.996827 
2.0453832e+3, 1.5513523e+2, -856147.8, -1505672.0, 28256.615, 0.018030878, -0.5873059, -854920.9, 564697.2, 0.025264336, 10.005552, 9.996739 
2.045347e+3, 1.6513227e+2, -822370.75, -1365939.8, 21230.064, 0.023653364, -0.57705307, -821542.8, 500103.63, 0.0076404964, 10.004703, 9.997435 
2.0453103e+3, 1.7512968e+2, -791138.8, -1307336.3, 20634.783, -0.00088089245, -0.57746696, -790315.25, 433355.56, 0.0010804819, 10.004244, 9.997386 
2.0452738e+3, 1.8512705e+2, -736641.06, -1164540.0, 9588.809, -0.0024802461, -0.59729904, -736426.25, 389269.56, 0.00001608478, 10.003656, 9.997977 
2.0452376e+3, 1.9512461e+2, -746931.9, -1125444.8, 374.04587, 0.021474449, -0.6356363, -746931.5, 280786.9, 0.0, 10.002941, 9.997918 
2.0452008e+3, 2.051227e+2, -734717.1, -1026505.0, -3299.5676, 0.02222902, -0.6243768, -734679.8, 195057.6, 0.0, 10.002169, 9.998298 
2.045164e+3, 2.1512154e+2, -759587.7, -992914.8, 10241.11, -0.0011435988, -0.5693817, -759139.06, 72611.18, 0.0, 10.001347, 9.998252 
2.0451267e+3, 2.2512002e+2, -690777.0, -806983.0, -8054.8203, -0.013755737, -0.5770577, -690221.4, 43543.39, 0.0, 10.000706, 9.999164 
2.0450895e+3, 2.3511846e+2, -664476.7, -749287.06, -15161.958, -0.013257525, -0.64885575, -661847.6, -26069.426, 0.0, 10.000238, 9.999112 
2.0450522e+3, 2.4511762e+2, -649514.5, -642357.7, -16236.513, 0.0020757504, -0.65245664, -629309.94, -91523.7, 0.0, 9.999458, 9.999548 
2.0450152e+3, 2.5511777e+2, -711636.5, -626659.06, -10490.173, 0.027928863, -0.5917085, -625383.25, -185597.11, 0.0, 9.998381, 9.999502 
2.0449778e+3, 2.6511762e+2, -697921.6, -517508.38, -12151.449, 0.017120587, -0.5668468, -516693.6, -174904.13, 0.0, 9.9975815, 9.999962 
2.04494e+3, 2.751174e+2, -683119.4, -466333.1, -6210.8096, -0.018785931, -0.58308035, -466155.3, -222361.39, 0.0, 9.997041, 9.999901 
2.0449029e+3, 2.8511786e+2, -618667.75, -270574.88, -5889.8687, 0.023755405, -0.56499696, -270475.22, -124684.49, 0.0, 9.996321, 10.000918 
2.0448664e+3, 2.9511935e+2, -651798.8, -232828.13, -14527.568, 0.11555412, -0.5050755, -232324.98, -184548.97, 0.0, 9.995407, 10.000946 
2.044828e+3, 3.0511963e+2, -708142.2, -155538.02, 6442.21, -0.043098163, -0.59808403, -155462.92, -155462.92, 0.0, 9.99434, 10.0016575 
2.0447922e+3, 3.1512251e+2, -766327.1, -26452.402, -58887.125, 0.058500998, -0.4669226, -21794.857, -21794.857, 0.0, 9.993271, 10.003056 
2.0555007e+3, 1.2518214e+2, -1035463.2, -1770953.3, 43470.11, -0.00366233, -0.577863, -1032902.9, 680256.7, 0.13771658, 10.007286, 9.996108 
2.0554632e+3, 1.3517909e+2, -881430.94, -1631092.4, -24674.92, -0.01852454, -0.5194985, -880619.6, 734570.1, 0.09793211, 10.007352, 9.996363 
2.0554255e+3, 1.4517494e+2, -784423.8, -1477426.0, -23848.21, -0.022512129, -0.5909855, -783604.1, 733625.6, 0.05800218, 10.006784, 9.997032 
2.055389e+3, 1.5517198e+2, -840033.44, -1475108.3, -16924.236, 0.0401196, -0.5869936, -839582.7, 579674.56, 0.026361438, 10.00557, 9.996943 
2.0553517e+3, 1.6516899e+2, -818327.06, -1363697.3, 4151.119, 0.048369482, -0.5921948, -818295.5, 502989.8, 0.008042254, 10.004726, 9.99744 
2.0553145e+3, 1.7516614e+2, -790436.56, -1308328.4, 3741.7104, -0.0078144325, -0.6198767, -790409.5, 432902.6, 0.0011643015, 10.004251, 9.997377 
2.0552771e+3, 1.8516356e+2, -752248.75, -1197592.5, -16490.74, -0.02427877, -0.61984754, -751638.94, 373698.13, 0.000018863731, 10.0036545, 9.997753 
2.0552403e+3, 1.9516157e+2, -761682.44, -1156793.6, -25106.174, 0.0015280007, -0.59347856, -760093.56, 267263.66, 0.0, 10.002939, 9.997705 
2.0552029e+3, 2.0515959e+2, -707086.75, -971022.3, -32815.246, 0.013901061, -0.59682983, -703068.0, 226308.3, 0.0, 10.002172, 9.998678 
2.0551653e+3, 2.1515791e+2, -732414.4, -939345.8, -19280.875, 0.011070603, -0.63164496, -730633.25, 100758.54, 0.0, 10.001354, 9.998617 
2.0551275e+3, 2.251565e+2, -702371.4, -833890.06, -24655.195, 0.00093523716, -0.6389498, -697901.3, 35503.945, 0.0, 10.000714, 9.998978 
2.0550896e+3, 2.3515561e+2, -676364.1, -775643.8, -31895.117, -0.013670864, -0.62415504, -667000.5, -31586.438, 0.0, 10.000241, 9.998932 
2.0550518e+3, 2.4515492e+2, -638623.8, -621653.75, -56149.88, -0.0022280063, -0.6109282, -573351.44, -35930.258, 0.0, 9.999462, 9.99969 
2.0550136e+3, 2.551547e+2, -700421.75, -606244.25, -50464.984, 0.03022173, -0.601481, -584310.75, -144886.69, 0.0, 9.998389, 9.99964 
2.0549753e+3, 2.6515445e+2, -684453.0, -492226.44, -32602.576, 0.022904119, -0.59980804, -486847.38, -145420.1, 0.0, 9.997589, 10.000135 
2.054937e+3, 2.7515444e+2, -668943.5, -440491.3, -26392.178, -0.011530785, -0.61121666, -437481.97, -194053.53, 0.0, 9.997051, 10.000076 
2.0548992e+3, 2.8515488e+2, -636514.44, -311449.03, -41089.79, 0.024477115, -0.5907802, -306335.53, -160909.6, 0.0, 9.996332, 10.000635 
2.0548616e+3, 2.9515606e+2, -670022.1, -274438.13, -51360.14, 0.094154134, -0.5345725, -267878.63, -220462.42, 0.0, 9.995419, 10.000656 
2.0548218e+3, 3.051571e+2, -699213.75, -136606.42, -38941.688, -0.083798915, -0.54475594, -133923.81, -133923.81, 0.0, 9.994336, 10.001791 
2.0547853e+3, 3.1515902e+2, -718526.4, 70671.85, -40487.04, 0.07823131, -0.5258851, 72743.46, 72743.46, 0.0, 9.993274, 10.003725 
2.0655084e+3, 1.2521954e+2, -915282.9, -1704727.4, 45804.324, -0.027900813, -0.56448567, -912634.2, 800159.06, 0.1424752, 10.008293, 9.996081 
2.0654705e+3, 1.3521643e+2, -918479.44, -1638443.5, 6839.217, 0.00996931, -0.5228978, -918414.44, 696409.4, 0.10148734, 10.007046, 9.996458 
2.065432e+3, 1.452123e+2, -851557.75, -1510335.0, 8504.122, -0.005073673, -0.5968753, -851448.0, 665415.56, 0.06027405, 10.006315, 9.997016 
2.0653942e+3, 1.5520938e+2, -775795.06, -1445136.0, -112.78972, 0.016411941, -0.5848887, -775795.06, 643095.7, 0.027523953, 10.006041, 9.996921 
2.0653567e+3, 1.6520639e+2, -723668.0, -1311967.8, 13387.013, 0.022362294, -0.59036404, -723363.5, 597555.06, 0.008475231, 10.005362, 9.997489 
2.0653188e+3, 1.752035e+2, -777620.0, -1296192.1, 15939.241, -0.0006753241, -0.6250287, -777130.5, 445814.78, 0.0012584648, 10.004316, 9.997428 
2.0652808e+3, 1.8520096e+2, -773957.0, -1197115.3, 11072.793, -0.008045398, -0.6303264, -773667.44, 351302.44, 0.000022594946, 10.003463, 9.997847 
2.065243e+3, 1.95199e+2, -778136.7, -1153838.9, 23443.447, 0.0042447797, -0.60736233, -776679.5, 250309.72, 0.0, 10.002785, 9.997798 
2.0652048e+3, 2.051971e+2, -705369.9, -962932.44, 14300.933, 0.007055036, -0.6117884, -704578.25, 224429.44, 0.0, 10.002157, 9.998738 
2.0651665e+3, 2.1519546e+2, -696224.6, -914646.9, 3954.2373, -0.0004755314, -0.64682025, -696153.06, 134869.7, 0.0, 10.001575, 9.998678 
2.0651282e+3, 2.2519416e+2, -686359.06, -813706.2, -3202.9927, -0.005401197, -0.6507664, -686278.56, 46756.66, 0.0, 10.000774, 9.999084 
2.0650896e+3, 2.3519345e+2, -737470.5, -793150.9, 9842.644, -0.0062605096, -0.62718153, -735781.8, -100739.58, 0.0, 9.999775, 9.999034 
2.065051e+3, 2.4519283e+2, -690220.5, -641550.4, -7785.1646, 0.0033941548, -0.61377364, -640335.44, -103286.4, 0.0, 9.999091, 9.999731 
2.065012e+3, 2.5519255e+2, -653817.44, -578816.56, -10205.378, 0.020252394, -0.6138873, -577452.7, -138399.77, 0.0, 9.9986925, 9.9996805 
2.064973e+3, 2.651924e+2, -623676.2, -449573.2, -459.3124, 0.014702061, -0.61102325, -449571.97, -108516.91, 0.0, 9.997952, 10.000251 
2.0649341e+3, 2.7519262e+2, -683178.9, -434502.75, 1400.1953, -0.0014261841, -0.60944736, -434494.88, -191441.84, 0.0, 9.9969015, 10.000188 
2.0648955e+3, 2.8519297e+2, -661499.3, -331703.97, -3396.6294, 0.026381064, -0.5991701, -331669.0, -186617.78, 0.0, 9.9962, 10.000558 
2.0648567e+3, 2.9519373e+2, -622996.7, -260502.44, -691.1611, 0.06350521, -0.5767075, -260501.13, -213455.06, 0.0, 9.995783, 10.000574 
2.0648164e+3, 3.0519515e+2, -650058.5, -112082.37, -12428.194, -0.06844595, -0.54042536, -111795.41, -111795.41, 0.0, 9.994674, 10.001794 
2.0647788e+3, 3.1519645e+2, -760625.06, 32218.572, 21109.01, 0.10049302, -0.58544815, 32780.188, 32780.188, 0.0, 9.993067, 10.003559 
2.0755158e+3, 1.2525734e+2, -903414.8, -1671711.9, -434.48486, -0.07176934, -0.5594784, -903414.56, 809009.06, 0.14733274, 10.008294, 9.996349 
2.075478e+3, 1.352544e+2, -893349.06, -1584741.5, -33487.098, 0.06905732, -0.5391134, -891730.94, 722719.7, 0.10513289, 10.007075, 9.996838 
2.075439e+3, 1.4525037e+2, -864556.06, -1542445.3, -710.4007, 0.035872653, -0.6089137, -864555.3, 651933.8, 0.06262346, 10.006342, 9.996782 
2.0753996e+3, 1.5524736e+2, -793239.7, -1480191.5, -9856.378, -0.04836583, -0.5823957, -793098.25, 625420.5, 0.028741732, 10.006034, 9.996686 
2.075361e+3, 1.6524442e+2, -719848.4, -1301668.8, -24472.295, -0.047081772, -0.5751091, -718820.8, 601725.8, 0.008937545, 10.005349, 9.997569 
2.0753233e+3, 1.7524175e+2, -770640.44, -1283247.0, -21732.277, 0.018874275, -0.59738314, -769720.75, 452850.25, 0.0013632493, 10.004319, 9.997519 
2.0752847e+3, 1.8523915e+2, -747097.25, -1144266.5, -13412.016, 0.040747363, -0.63038653, -746644.9, 377949.9, 0.000027570632, 10.003471, 9.998208 
2.0752458e+3, 1.952369e+2, -752895.4, -1104144.5, -989.9845, 0.02648755, -0.67222404, -752892.56, 273722.38, 0.0, 10.002792, 9.998138 
2.0752071e+3, 2.0523515e+2, -721950.25, -999171.9, -6598.673, 0.0011413981, -0.6647131, -721793.25, 206838.9, 0.0, 10.002161, 9.99849 
2.0751677e+3, 2.152341e+2, -713302.94, -949906.25, -16755.775, -0.035287537, -0.61737275, -712122.25, 118521.88, 0.0, 10.001571, 9.998441 
2.0751287e+3, 2.2523293e+2, -660639.3, -761068.56, -39456.336, -0.032133237, -0.6158726, -646992.3, 85663.27, 0.0, 10.000774, 9.999448 
2.0750894e+3, 2.3523192e+2, -711790.94, -742631.4, -26211.4, 0.00815058, -0.65810204, -696800.3, -62136.51, 0.0, 9.999783, 9.999379 
2.07505e+3, 2.4523127e+2, -693636.4, -651808.6, -22371.648, 0.01794055, -0.65954447, -642097.6, -105426.99, 0.0, 9.9991, 9.999659 
2.0750102e+3, 2.5523123e+2, -657380.5, -589291.2, -25706.15, -0.0033663549, -0.6281212, -580676.25, -142002.67, 0.0, 9.998701, 9.999607 
2.0749708e+3, 2.652313e+2, -619691.94, -443974.25, -40457.66, -0.007857989, -0.60014886, -435106.7, -94432.92, 0.0, 9.997959, 10.000288 
2.074931e+3, 2.752318e+2, -679249.75, -429252.66, -37749.746, 0.011671328, -0.57819694, -423676.75, -181007.92, 0.0, 9.996909, 10.000222 
2.0748916e+3, 2.85232e+2, -651586.9, -314403.0, -19818.645, 0.028652146, -0.5900302, -313242.1, -168574.44, 0.0, 9.996209, 10.000675 
2.074852e+3, 2.9523224e+2, -612045.9, -242989.28, -19586.842, 0.01941918, -0.63086814, -241952.67, -195286.11, 0.0, 9.995801, 10.0006895 
2.0748118e+3, 3.052337e+2, -658321.06, -132030.16, -77773.8, 0.010180337, -0.5922678, -120777.555, -120777.555, 0.0, 9.994683, 10.001655 
2.0747717e+3, 3.1523612e+2, -849573.6, -155497.86, -20055.232, 0.0986667, -0.50563043, -154918.86, -154918.86, 0.0, 9.993074, 10.002269 
2.0855244e+3, 1.2529601e+2, -911096.94, -1686584.5, 34075.32, -0.051992208, -0.58358264, -909602.56, 802441.1, 0.15225354, 10.008339, 9.996206 
2.0854852e+3, 1.3529323e+2, -817733.25, -1550009.3, -15632.826, 0.052204587, -0.5429482, -817399.7, 796670.0, 0.10884126, 10.0077, 9.996802 
2.0854451e+3, 1.4528933e+2, -800136.06, -1508952.1, 19321.6, 0.012774413, -0.59726363, -799609.75, 716497.3, 0.06503073, 10.006832, 9.996778 
2.0854056e+3, 1.5528616e+2, -834169.1, -1500579.9, 25207.873, -0.036266364, -0.5853698, -833216.94, 584921.25, 0.030003127, 10.005755, 9.996678 
2.0853664e+3, 1.6528316e+2, -775772.6, -1322706.0, 14059.172, -0.029885096, -0.5865385, -775411.44, 544755.3, 0.009424282, 10.004942, 9.997618 
2.0853274e+3, 1.7528051e+2, -761559.0, -1272593.4, 13628.419, 0.015081762, -0.60901016, -761195.8, 460994.94, 0.0014774919, 10.004358, 9.997571 
2.085288e+3, 1.8527807e+2, -702480.0, -1099552.9, 17726.148, 0.028090367, -0.63917863, -701690.2, 422522.5, 0.000033957953, 10.003681, 9.998412 
2.0852485e+3, 1.9527608e+2, -719606.75, -1065508.8, 18505.14, 0.015788848, -0.6765491, -718619.56, 307610.3, 0.0, 10.002927, 9.998337 
2.085209e+3, 2.052744e+2, -734303.06, -1000930.25, 15379.251, -0.003664318, -0.671586, -733418.94, 194827.38, 0.0, 10.002063, 9.998524 
2.085169e+3, 2.152733e+2, -779459.0, -976878.44, 24307.355, -0.030979402, -0.63196015, -776510.2, 53748.99, 0.0, 10.001101, 9.998479 
2.0851292e+3, 2.2527224e+2, -701446.44, -758265.44, 6761.946, -0.02898712, -0.6309433, -700652.8, 31616.895, 0.0, 10.000402, 9.999644 
2.0850891e+3, 2.3527145e+2, -676383.0, -704036.2, 7334.462, 0.0016110353, -0.66856027, -674558.1, -40282.758, 0.0, 9.999938, 9.999567 
2.085049e+3, 2.4527098e+2, -673276.56, -636664.44, 11900.942, 0.0096343625, -0.6638042, -633136.06, -96855.38, 0.0, 9.999222, 9.9997015 
2.0850088e+3, 2.5527105e+2, -715835.0, -612261.94, 16795.154, -0.0050085806, -0.6231915, -609606.5, -171323.78, 0.0, 9.9982815, 9.999649 
2.0849682e+3, 2.6527113e+2, -661137.1, -450124.2, 6721.9014, -0.005077119, -0.6046006, -449910.28, -109627.22, 0.0, 9.99762, 10.000408 
2.084928e+3, 2.7527145e+2, -630916.25, -393026.6, 15081.7295, 0.013787768, -0.6079994, -392074.25, -149795.27, 0.0, 9.9971895, 10.000334 
2.0848876e+3, 2.8527188e+2, -634332.0, -301171.13, 29261.54, 0.017224614, -0.6029953, -298620.6, -154345.16, 0.0, 9.996309, 10.000716 
2.0848472e+3, 2.9527268e+2, -721193.44, -291703.78, 22797.36, -0.005451941, -0.5929601, -290497.1, -244227.73, 0.0, 9.995038, 10.000721 
2.0848069e+3, 3.0527338e+2, -677424.6, -136031.33, -31194.861, 0.067941874, -0.63035744, -134239.81, -134239.81, 0.0, 9.994533, 10.0016985 
2.0847651e+3, 3.15276e+2, -667110.44, -128620.75, 29038.135, 0.051214177, -0.52620906, -127059.39, -127059.39, 0.0, 9.994592, 10.001721 
2.0955335e+3, 1.2533553e+2, -944098.25, -1755059.0, 5434.6753, 0.015144856, -0.6321414, -944061.8, 767592.44, 0.15723322, 10.008348, 9.995704 
2.0954919e+3, 1.3533285e+2, -845924.94, -1602712.0, -36297.95, -0.030366685, -0.536683, -844188.0, 769493.5, 0.11260661, 10.0077, 9.996399 
2.0954512e+3, 1.4532912e+2, -789017.06, -1484544.0, -16977.99, -0.06391827, -0.56668085, -788602.9, 727115.06, 0.06748528, 10.006839, 9.996956 
2.0954122e+3, 1.5532574e+2, -820033.75, -1473793.6, -12359.429, 0.04193596, -0.59293276, -819800.2, 597949.3, 0.031296745, 10.005773, 9.996856 
2.0953721e+3, 1.6532256e+2, -773319.2, -1321809.0, -6809.201, 0.05974692, -0.6204175, -773234.7, 546544.56, 0.009928387, 10.004958, 9.99762 
2.0953313e+3, 1.7531979e+2, -760446.56, -1272982.0, -7278.0127, -0.0118344305, -0.655387, -760343.25, 461461.56, 0.0015988474, 10.004366, 9.997567 
2.095291e+3, 1.8531767e+2, -698398.9, -1092223.9, -9398.583, -0.03965758, -0.65546834, -698174.7, 425649.44, 0.000041748972, 10.003681, 9.998465 
2.095251e+3, 1.953164e+2, -716547.3, -1058533.5, -8825.296, -0.024795925, -0.62603384, -716319.7, 309515.28, 0.0, 10.002919, 9.99839 
2.095211e+3, 2.0531473e+2, -715178.9, -961247.56, -19696.53, -0.0076502464, -0.63714314, -713612.25, 214238.66, 0.0, 10.002058, 9.9988 
2.0951705e+3, 2.15313e+2, -759979.06, -938130.8, -9763.508, 0.00921487, -0.68762, -759445.6, 70422.98, 0.0, 10.001103, 9.998746 
2.0951296e+3, 2.2531201e+2, -698716.44, -755006.56, -9663.911, 0.0015713221, -0.6919217, -697103.56, 34774.594, 0.0, 10.000408, 9.999665 
2.0950888e+3, 2.3531197e+2, -674357.4, -701560.9, -9795.437, -0.026471464, -0.65935117, -671197.3, -37319.43, 0.0, 9.999941, 9.999585 
2.0950478e+3, 2.4531184e+2, -662739.25, -616811.3, -23185.123, -0.020971538, -0.62797743, -607142.56, -71262.47, 0.0, 9.999226, 9.999838 
2.0950072e+3, 2.5531194e+2, -704573.25, -591952.3, -17845.328, 0.014562622, -0.5994068, -589192.3, -151310.73, 0.0, 9.998291, 9.999786 
2.094966e+3, 2.6531172e+2, -646263.1, -422568.66, -9900.137, 0.022066835, -0.6252645, -422131.38, -82247.336, 0.0, 9.997629, 10.000594 
2.094925e+3, 2.7531153e+2, -616380.8, -367402.3, -2655.6384, 0.0032115106, -0.70219034, -367374.0, -125489.25, 0.0, 9.997204, 10.000505 
2.0948835e+3, 2.853126e+2, -636803.5, -308796.34, -20144.227, -0.008634256, -0.637266, -307563.8, -163688.36, 0.0, 9.996316, 10.000663 
2.094842e+3, 2.9531503e+2, -726840.3, -302460.53, -24226.559, -0.010140786, -0.45387036, -301081.97, -255227.3, 0.0, 9.995029, 10.000653 
2.0948015e+3, 3.0531412e+2, -662077.9, -107352.57, -26365.37, 0.10164603, -0.6616634, -106102.27, -106102.27, 0.0, 9.994542, 10.001894 
2.094759e+3, 3.1531653e+2, -626167.56, -57534.105, -21698.896, 0.003198415, -0.6010496, -56707.28, -56707.28, 0.0, 9.994647, 10.002186 
2.1055417e+3, 1.2537625e+2, -937886.0, -1765089.5, 15626.988, 0.018760886, -0.6207635, -937590.9, 773663.8, 0.16227995, 10.00851, 9.995556 
2.1054998e+3, 1.353733e+2, -843888.94, -1609324.3, 705.683, -0.0288949, -0.54501617, -843888.3, 769397.1, 0.116426356, 10.00779, 9.996303 
2.1054581e+3, 1.4536959e+2, -767322.2, -1469294.1, 16116.465, -0.06223166, -0.5669354, -766952.4, 748369.06, 0.069975, 10.007, 9.996989 
2.105418e+3, 1.5536618e+2, -771298.7, -1444226.4, 11253.954, 0.050564457, -0.59960675, -771110.5, 646242.4, 0.03260837, 10.006107, 9.996896 
2.1053772e+3, 1.6536306e+2, -724296.8, -1287022.1, 25582.418, 0.06326448, -0.62754685, -723136.2, 596245.56, 0.010440913, 10.005256, 9.997715 
2.1053357e+3, 1.7536044e+2, -740713.44, -1252841.6, 31199.842, -0.025104182, -0.6566166, -738819.7, 482586.2, 0.0017242159, 10.00446, 9.997658 
2.1052945e+3, 1.8535838e+2, -718010.7, -1103976.8, 22464.318, -0.053344496, -0.6542427, -716707.56, 406717.56, 0.000050741073, 10.003561, 9.99844 
2.1052536e+3, 1.9535705e+2, -769258.5, -1085065.6, 16959.006, -0.024687948, -0.62561107, -768350.44, 257086.77, 0.0, 10.002566, 9.998376 
2.1052127e+3, 2.0535551e+2, -742005.4, -941402.3, 6146.5005, -0.005579143, -0.6377084, -741816.1, 185635.53, 0.0, 10.001737, 9.999089 
2.1051714e+3, 2.1535404e+2, -747914.25, -900989.25, 15982.304, 0.004288207, -0.6901248, -746263.4, 83202.234, 0.0, 10.001056, 9.9990225 
2.1051301e+3, 2.2535318e+2, -711243.3, -761115.9, 22340.973, 0.0014485667, -0.6943259, -702699.2, 28774.69, 0.0, 10.000327, 9.9996605 
2.1050887e+3, 2.3535317e+2, -730616.4, -728098.94, 19668.676, -0.012927285, -0.6586395, -709648.75, -76174.52, 0.0, 9.9995575, 9.999585 
2.1050468e+3, 2.4535306e+2, -695483.4, -610890.3, 3294.5273, -0.011730182, -0.6332142, -610762.2, -75286.17, 0.0, 9.998913, 10.000028 
2.1050054e+3, 2.5535318e+2, -681029.94, -560040.75, 12005.6, 0.0062352996, -0.61869776, -558861.0, -121384.74, 0.0, 9.998368, 9.999967 
2.1049637e+3, 2.6535317e+2, -643144.56, -406395.63, 20628.365, 0.014159245, -0.6401073, -404611.66, -65134.887, 0.0, 9.997591, 10.000722 
2.104922e+3, 2.7535328e+2, -692438.56, -388847.4, 22488.871, 0.008715938, -0.6985419, -387190.56, -145715.48, 0.0, 9.996621, 10.000636 
2.1048796e+3, 2.8535444e+2, -678789.56, -311188.47, 6565.0884, -0.0048979144, -0.6370674, -311071.25, -167606.42, 0.0, 9.995955, 10.000818 
2.1048371e+3, 2.953569e+2, -643040.2, -248084.95, 19254.246, -0.013889262, -0.4675777, -247148.52, -201704.9, 0.0, 9.995548, 10.000775 
2.1047959e+3, 3.05356e+2, -603881.06, -67671.15, 36486.23, 0.075839326, -0.68434286, -65199.848, -65199.848, 0.0, 9.994895, 10.001993 
2.1047531e+3, 3.1535897e+2, -721491.75, -70183.81, -16249.786, 0.00057819573, -0.57449347, -69778.64, -69778.64, 0.0, 9.993856, 10.002476 
2.1155496e+3, 1.2541808e+2, -933057.2, -1744892.0, -13410.526, -0.030396817, -0.56283224, -932835.75, 778010.25, 0.16738737, 10.008522, 9.99569 
2.115508e+3, 1.354145e+2, -837058.2, -1591227.0, -21052.133, 0.041611, -0.565863, -836471.0, 776410.8, 0.120279305, 10.0078, 9.99644 
2.1154656e+3, 1.4541073e+2, -774530.3, -1483535.6, -13653.597, 0.0019315071, -0.592446, -774267.5, 740650.44, 0.072474115, 10.0070095, 9.996882 
2.1154235e+3, 1.5540743e+2, -776736.1, -1457761.8, -19731.377, -0.0030582035, -0.6056783, -776164.94, 640784.0, 0.03391794, 10.006119, 9.996799 
2.1153817e+3, 1.6540456e+2, -712222.06, -1263469.8, -2384.4075, -0.007665313, -0.6119611, -712211.75, 606763.5, 0.010951559, 10.00526, 9.997878 
2.1153401e+3, 1.7540233e+2, -730607.56, -1231229.3, 2631.7058, -0.025512384, -0.61794657, -730593.75, 490401.34, 0.0018502448, 10.004455, 9.997811 
2.1152984e+3, 1.8540005e+2, -726011.75, -1120182.5, -13756.158, -0.019582665, -0.63770425, -725532.25, 397484.34, 0.000060592425, 10.003554, 9.998334 
2.1152566e+3, 1.9539803e+2, -774993.44, -1098553.5, -18145.24, 0.010863464, -0.67027545, -773979.06, 251057.55, 0.0, 10.002569, 9.998284 
2.1152143e+3, 2.0539671e+2, -720987.94, -900563.06, -17771.193, 0.0011071144, -0.6691792, -719246.2, 207802.55, 0.0, 10.001744, 9.999368 
2.1151718e+3, 2.153963e+2, -728574.56, -862601.2, -8116.6987, -0.043941464, -0.64325446, -728084.8, 100966.555, 0.0, 10.001059, 9.999287 
2.1151298e+3, 2.253956e+2, -713714.25, -768234.56, -5640.5894, -0.027633378, -0.64237005, -713136.8, 17921.186, 0.0, 10.000331, 9.999612 
2.1150886e+3, 2.3539494e+2, -731739.9, -733008.06, -8019.0254, 0.040695854, -0.665803, -724329.94, -91264.82, 0.0, 9.999564, 9.999551 
2.1150464e+3, 2.4539456e+2, -678527.8, -578414.3, -16824.03, 0.035307895, -0.6782635, -575662.7, -40593.48, 0.0, 9.9989195, 10.000249 
2.1150032e+3, 2.5539473e+2, -665240.44, -530470.0, -9210.507, -0.03176797, -0.6823316, -529843.44, -92775.59, 0.0, 9.998378, 10.000167 
2.1149607e+3, 2.6539537e+2, -638321.3, -399179.53, -16838.195, -0.029127104, -0.64785516, -397999.75, -58937.547, 0.0, 9.997599, 10.00077 
2.1149187e+3, 2.7539667e+2, -685991.56, -377333.13, -14482.311, 0.030237425, -0.59163713, -376655.1, -135604.47, 0.0, 9.996625, 10.000716 
2.1148759e+3, 2.8539735e+2, -652298.75, -258496.03, -9384.698, 0.028613726, -0.60404754, -258272.52, -115227.78, 0.0, 9.99596, 10.00118 
2.1148327e+3, 2.9539797e+2, -617731.94, -202272.8, 4240.8604, -0.01706753, -0.6520522, -202229.52, -157190.84, 0.0, 9.995572, 10.0010805 
2.1147898e+3, 3.0539903e+2, -604619.4, -73808.305, -974.44183, -0.017337598, -0.6840781, -73806.516, -73806.516, 0.0, 9.994911, 10.0019455 
2.1147478e+3, 3.1540206e+2, -715896.4, -54578.91, -91475.414, 0.07069278, -0.5671923, -42159.008, -42159.008, 0.0, 9.9938345, 10.002596 
2.1255581e+3, 1.2546048e+2, -895660.56, -1716691.4, 21992.39, -0.036350496, -0.5635081, -895071.9, 815358.75, 0.1725117, 10.008857, 9.995721 
2.125516e+3, 1.3545682e+2, -818956.75, -1578719.5, 14898.017, 0.047015842, -0.5733083, -818664.75, 793802.25, 0.1241157, 10.007962, 9.996457 
2.1254727e+3, 1.4545321e+2, -760282.7, -1471452.8, 24088.139, 0.0059162644, -0.5867402, -759467.75, 755033.75, 0.07494144, 10.007115, 9.996919 
2.1254295e+3, 1.5544984e+2, -747683.5, -1438239.0, 27927.234, -0.02392604, -0.6084617, -746555.94, 669976.94, 0.035201356, 10.006317, 9.996836 
2.1253867e+3, 1.65447e+2, -703411.0, -1260469.6, 38888.066, -0.025905196, -0.6137603, -700709.3, 617850.0, 0.011450025, 10.005335, 9.99786 
2.1253443e+3, 1.7544484e+2, -769395.8, -1250876.9, 31136.865, -0.014625146, -0.60909957, -767390.56, 453188.28, 0.0019736413, 10.004196, 9.997798 
2.1253018e+3, 1.8544261e+2, -759662.1, -1123930.3, 21044.482, -0.004006423, -0.62845427, -758450.4, 364149.56, 0.000070876886, 10.003274, 9.998442 
2.125259e+3, 1.9544058e+2, -771904.44, -1085098.0, 30637.57, 0.009684039, -0.6710341, -768935.56, 255684.14, 0.0, 10.0025425, 9.998387 
2.1252161e+3, 2.0543931e+2, -709091.7, -890301.6, 33536.66, -0.0020885826, -0.671567, -703084.2, 223547.06, 0.0, 10.001811, 9.999404 
2.1251729e+3, 2.1543899e+2, -723111.3, -855749.8, 24759.47, -0.037356723, -0.63850313, -718640.2, 109992.83, 0.0, 10.001082, 9.99932 
2.1251301e+3, 2.2543836e+2, -718835.2, -765939.6, 18408.08, -0.02353731, -0.63532615, -712494.8, 18144.414, 0.0, 10.00028, 9.99965 
2.1250878e+3, 2.3543768e+2, -750984.1, -737334.9, 21751.63, 0.03397045, -0.66237843, -721362.4, -88715.76, 0.0, 9.999414, 9.999591 
2.1250449e+3, 2.4543734e+2, -703216.56, -569477.5, 21834.248, 0.032317843, -0.6823397, -566003.1, -31352.979, 0.0, 9.998665, 10.000431 
2.1250014e+3, 2.5543758e+2, -706211.1, -530144.6, 25842.459, -0.020800017, -0.6954526, -526429.94, -89782.766, 0.0, 9.998014, 10.000341 
2.124958e+3, 2.654384e+2, -676489.44, -415669.66, 7127.404, -0.027820405, -0.6504196, -415475.03, -76835.27, 0.0, 9.997334, 10.000782 
2.1249148e+3, 2.7543998e+2, -686773.25, -375335.5, 6192.7583, 0.0056631714, -0.5699102, -375212.4, -134585.83, 0.0, 9.9966135, 10.000733 
2.1248716e+3, 2.854405e+2, -648011.1, -233816.47, 12800.232, 0.0256913, -0.6082509, -233421.27, -90799.24, 0.0, 9.995896, 10.001377 
2.1248285e+3, 2.9544076e+2, -655594.0, -195120.5, 15196.147, 0.034748994, -0.7133328, -194619.56, -150000.95, 0.0, 9.995209, 10.001302 
2.1247841e+3, 3.0544317e+2, -623690.06, -64146.332, 10657.976, -0.06453299, -0.6260762, -63943.395, -63943.395, 0.0, 9.994703, 10.00211 
2.124742e+3, 3.1544536e+2, -673148.6, -62680.91, -70103.77, 0.091908865, -0.6078854, -54733.914, -54733.914, 0.0, 9.994254, 10.0023365 
2.135567e+3, 1.255034e+2, -902115.8, -1725254.1, -11320.385, -0.010750517, -0.61529225, -901960.2, 808048.94, 0.17757332, 10.008875, 9.995654 
2.1355234e+3, 1.355002e+2, -827821.5, -1592218.0, -13185.856, -0.002691834, -0.568246, -827594.06, 784447.7, 0.1278705, 10.007968, 9.996351 
2.1354793e+3, 1.454969e+2, -752643.06, -1452162.1, -2575.558, -0.039993223, -0.55481875, -752633.56, 761439.75, 0.077334225, 10.007113, 9.9970665 
2.1354358e+3, 1.5549335e+2, -740250.5, -1420019.9, -456.14413, -0.016889505, -0.6084301, -740250.2, 675855.5, 0.036437646, 10.006311, 9.996965 
2.1353923e+3, 1.6549028e+2, -717045.06, -1288715.5, -2109.7534, -0.00004433398, -0.63033926, -717037.25, 601097.3, 0.01192814, 10.005333, 9.997668 
2.1353486e+3, 1.7548795e+2, -780146.4, -1275799.6, -9239.96, 0.004357036, -0.62621844, -779974.2, 440183.22, 0.002091513, 10.004203, 9.997625 
2.135305e+3, 1.8548597e+2, -738366.44, -1083215.4, -4950.649, -0.005677964, -0.62554854, -738295.4, 383880.4, 0.000081117694, 10.003284, 9.998718 
2.1352613e+3, 1.954846e+2, -752847.0, -1047682.5, 4496.8467, -0.025071647, -0.63204527, -752778.44, 271409.44, 0.0, 10.002547, 9.998645 
2.1352178e+3, 2.0548318e+2, -722878.44, -920530.8, 7208.9575, -0.01399838, -0.6478829, -722615.9, 203584.83, 0.0, 10.001814, 9.999198 
2.1351746e+3, 2.1548209e+2, -736412.6, -884453.56, -1162.187, 0.020259282, -0.6725614, -736403.5, 91807.54, 0.0, 10.001082, 9.9991255 
2.1351309e+3, 2.2548139e+2, -711126.25, -751894.8, -12969.722, 0.010535561, -0.66967005, -707350.0, 22868.076, 0.0, 10.000284, 9.999746 
2.1350867e+3, 2.3548129e+2, -743208.0, -723781.9, -9596.942, -0.033043936, -0.64913994, -719840.5, -87620.695, 0.0, 9.999421, 9.999682 
2.135043e+3, 2.4548128e+2, -692906.6, -550914.5, -2478.0273, -0.01921738, -0.646478, -550871.3, -16651.51, 0.0, 9.9986725, 10.000557 
2.135e+3, 2.5548166e+2, -695450.56, -511089.38, 1266.8756, 0.039556403, -0.65761566, -511080.7, -74865.6, 0.0, 9.998024, 10.00047 
2.1349558e+3, 2.6548222e+2, -677977.4, -421521.56, -20665.965, 0.017016962, -0.6489096, -419866.94, -81656.38, 0.0, 9.997341, 10.000741 
2.1349107e+3, 2.75483e+2, -689625.06, -384784.0, -22226.162, -0.068831004, -0.63838995, -383172.0, -142967.5, 0.0, 9.996624, 10.000666 
2.1348672e+3, 2.8548375e+2, -646479.8, -233931.88, -15277.467, -0.01478182, -0.64988106, -233366.89, -91168.91, 0.0, 9.995906, 10.001374 
2.1348247e+3, 2.9548514e+2, -646502.44, -178416.16, -10898.75, 0.14509846, -0.64183605, -178162.53, -133978.44, 0.0, 9.995213, 10.001417 
2.1347788e+3, 3.0548838e+2, -592773.7, -1533.6492, -7146.509, -0.0643879, -0.50732154, -1447.2797, -1447.2797, 0.0, 9.994706, 10.002541 
2.1347351e+3, 3.154889e+2, -730273.3, -188427.73, -44230.633, 0.008509339, -0.6888471, -184840.95, -184840.95, 0.0, 9.99428, 10.001463 
2.1455762e+3, 1.2554815e+2, -865991.9, -1718937.8, 20161.984, -0.01006264, -0.60433775, -865515.56, 844054.7, 0.1824817, 10.009298, 9.995493 
2.1455312e+3, 1.3554446e+2, -828462.75, -1612015.4, 18611.576, -0.010670662, -0.58161116, -828020.94, 783587.3, 0.13148415, 10.008096, 9.996133 
2.145486e+3, 1.455412e+2, -757455.75, -1443519.3, 32263.965, -0.037651762, -0.5591128, -755941.8, 757697.8, 0.07961949, 10.007049, 9.99716 
2.1454419e+3, 1.5553786e+2, -760077.0, -1418566.0, 31393.031, -0.0077189715, -0.6010294, -758583.75, 657085.8, 0.037611168, 10.006133, 9.997059 
2.1453975e+3, 1.655348e+2, -735767.5, -1302103.5, 29022.04, 0.009050865, -0.62362486, -734284.1, 583414.25, 0.0123793, 10.00523, 9.997622 
2.1453528e+3, 1.755323e+2, -763766.3, -1272538.4, 31375.406, 0.008436723, -0.6294092, -761838.7, 457884.28, 0.0022014482, 10.004342, 9.997579 
2.1453081e+3, 1.855303e+2, -707821.25, -1063623.9, 38528.55, -0.0041012764, -0.63079774, -703696.94, 418044.56, 0.00009083706, 10.003479, 9.998756 
2.1452637e+3, 1.9552897e+2, -737244.56, -1036169.7, 30237.344, -0.024424907, -0.632803, -734216.6, 289535.8, 0.0, 10.002642, 9.998675 
2.1452194e+3, 2.0552757e+2, -737674.5, -932476.7, 28577.168, -0.009036745, -0.6478093, -733568.8, 192196.56, 0.0, 10.001737, 9.99915 
2.1451755e+3, 2.1552639e+2, -784635.2, -912456.0, 30505.55, 0.03499637, -0.6759277, -777728.0, 50049.2, 0.0, 10.000776, 9.999078 
2.145131e+3, 2.255257e+2, -736040.4, -755140.56, 29181.102, 0.020843256, -0.67066544, -714886.4, 14897.603, 0.0, 10.000079, 9.999821 
2.145086e+3, 2.3552577e+2, -713071.6, -701309.25, 30135.686, -0.040099308, -0.6416584, -676486.25, -44702.316, 0.0, 9.9995985, 9.99975 
2.1450415e+3, 2.4552578e+2, -683128.75, -551553.56, 21801.121, -0.027598757, -0.6367449, -548035.3, -14251.617, 0.0, 9.998767, 10.0005045 
2.1449979e+3, 2.5552607e+2, -753294.3, -543055.6, 12342.521, 0.044139568, -0.6520741, -542333.5, -106553.24, 0.0, 9.997648, 10.000429 
2.1449529e+3, 2.6552656e+2, -720676.44, -427043.75, 4428.425, 0.021969888, -0.6532407, -426977.0, -89200.95, 0.0, 9.996987, 10.000872 
2.1449073e+3, 2.7552736e+2, -673731.94, -364690.88, 15044.929, -0.0717943, -0.65426713, -363960.2, -124190.96, 0.0, 9.996684, 10.000772 
2.144863e+3, 2.8552815e+2, -630994.4, -240723.23, 14505.946, -0.013923401, -0.6550886, -240184.81, -98422.78, 0.0, 9.9960785, 10.001243 
2.1448198e+3, 2.9552963e+2, -649595.9, -190045.42, 9442.867, 0.15025909, -0.6285982, -189851.47, -146103.14, 0.0, 9.99524, 10.001322 
2.144773e+3, 3.0553272e+2, -605816.4, 1129.5436, -2589.664, -0.08586205, -0.50715685, 1140.5927, 1140.5927, 0.0, 9.994582, 10.002616 
2.1447292e+3, 3.15533e+2, -744706.5, -185150.38, -4755.564, 0.0149712, -0.7155979, -185109.95, -185109.95, 0.0, 9.994144, 10.001547 
2.1555851e+3, 1.2559448e+2, -890820.94, -1760278.6, -22269.375, -0.030385524, -0.54573375, -890250.94, 818865.6, 0.1871678, 10.009252, 9.995234 
2.1555392e+3, 1.3558955e+2, -851968.2, -1661247.8, -18615.666, 0.013676006, -0.6111047, -851540.25, 759626.5, 0.13491483, 10.008092, 9.995798 
2.1554936e+3, 1.455861e+2, -754515.1, -1438375.0, 2506.3755, 0.002643162, -0.5932538, -754505.94, 758694.1, 0.081774764, 10.007065, 9.997194 
2.155448e+3, 1.5558328e+2, -755476.3, -1411580.9, -418.73868, 0.0022791193, -0.5868088, -755476.06, 659749.0, 0.038709816, 10.006147, 9.997103 
2.1554026e+3, 1.6558039e+2, -729720.7, -1292838.9, -3237.8083, 0.0032877005, -0.59719265, -729702.06, 587549.7, 0.012797833, 10.005242, 9.997683 
2.155357e+3, 1.7557779e+2, -758763.5, -1265395.9, -989.28156, -0.0008393565, -0.6201795, -758761.56, 460515.22, 0.002301663, 10.004352, 9.997625 
2.1553116e+3, 1.855755e+2, -720171.06, -1092196.4, 8274.673, 0.00021181596, -0.6431159, -719987.06, 401310.97, 0.0000996374, 10.003487, 9.998559 
2.1552664e+3, 1.9557373e+2, -749286.7, -1062956.3, 139.43819, 0.0075559667, -0.66903406, -749286.6, 274026.9, 0.0, 10.0026455, 9.998492 
2.1552213e+3, 2.0557243e+2, -730988.5, -921396.7, -6326.446, 0.010004925, -0.66871727, -730778.56, 194547.22, 0.0, 10.001744, 9.999226 
2.1551758e+3, 2.1557178e+2, -777528.06, -901464.25, -3314.0276, 0.00850663, -0.6507437, -777439.56, 49893.07, 0.0, 10.000788, 9.99915 
2.1551308e+3, 2.2557122e+2, -731735.44, -749638.6, 12173.794, 0.009149077, -0.6407108, -725576.4, 3761.8345, 0.0, 10.000089, 9.999856 
2.155086e+3, 2.3557101e+2, -710404.3, -698218.9, 11470.975, 0.011287669, -0.63954854, -691323.0, -59983.12, 0.0, 9.999604, 9.99977 
2.1550405e+3, 2.4557073e+2, -699202.6, -587380.75, -20424.793, 0.004818344, -0.652448, -583766.8, -50424.02, 0.0, 9.998773, 10.000258 
2.1549946e+3, 2.5557065e+2, -767597.4, -575670.56, -28281.875, -0.0099117225, -0.67922425, -571589.8, -136245.94, 0.0, 9.997657, 10.000204 
2.1549495e+3, 2.6557136e+2, -697967.2, -383182.4, -7493.3706, -0.013110648, -0.6633261, -383004.13, -45666.92, 0.0, 9.996997, 10.00117 
2.1549046e+3, 2.7557293e+2, -652893.44, -325258.16, 1678.1232, 0.000466785, -0.61656505, -325249.56, -85927.92, 0.0, 9.996696, 10.0010395 
2.1548593e+3, 2.8557366e+2, -649773.4, -282572.25, -18779.295, 0.027971523, -0.62218696, -281614.34, -140299.36, 0.0, 9.996086, 10.000954 
2.154814e+3, 2.9557407e+2, -672130.5, -239354.58, -22586.652, 0.039134294, -0.67390895, -238178.97, -194866.52, 0.0, 9.995246, 10.000982 
2.154767e+3, 3.0557582e+2, -627995.0, -48154.703, -25200.883, -0.12722994, -0.6495717, -47061.49, -47061.49, 0.0, 9.994591, 10.002276 
2.1547242e+3, 3.1557855e+2, -654943.3, -5959.26, 39332.473, 0.07505832, -0.58885413, -3584.1592, -3584.1592, 0.0, 9.994168, 10.0027685 
2.1655942e+3, 1.2564094e+2, -954228.2, -1763649.8, -12126.597, -0.006784889, -0.5346113, -954046.56, 754615.94, 0.19158992, 10.008616, 9.995513 
2.1655473e+3, 1.3563617e+2, -840356.75, -1636028.6, 24583.633, 0.0040222793, -0.60214186, -839597.94, 771112.1, 0.13813196, 10.008137, 9.995948 
2.1655007e+3, 1.4563261e+2, -728602.1, -1447326.3, 48462.117, -0.0010335587, -0.5877251, -725349.2, 787394.94, 0.08377982, 10.0073805, 9.996972 
2.1654543e+3, 1.5562953e+2, -734024.7, -1422659.0, 30158.537, 0.008338707, -0.58508116, -732706.44, 682065.9, 0.039721742, 10.006408, 9.996899 
2.165408e+3, 1.6562656e+2, -695069.6, -1272517.0, 20893.291, 0.005680438, -0.59600747, -694314.6, 622485.4, 0.013178597, 10.005474, 9.997709 
2.1653613e+3, 1.7562398e+2, -724131.94, -1245698.3, 20179.502, -0.0100861015, -0.6184541, -723352.4, 495471.9, 0.0023907796, 10.004583, 9.997646 
2.165315e+3, 1.8562165e+2, -706435.3, -1092394.0, 31185.377, -0.0032835277, -0.64158916, -703931.8, 416913.88, 0.00010718323, 10.003615, 9.998493 
2.1652691e+3, 1.956198e+2, -762418.56, -1076953.9, 31509.389, 0.022483965, -0.66785073, -759293.06, 263568.97, 0.0, 10.002593, 9.998419 
2.1652229e+3, 2.0561841e+2, -722303.94, -926944.56, 29095.361, 0.019027216, -0.66769063, -718247.6, 206627.67, 0.0, 10.001851, 9.999134 
2.1651767e+3, 2.1561766e+2, -704588.1, -875113.7, 18986.64, -0.007457962, -0.64961356, -702499.7, 124383.5, 0.0, 10.001331, 9.999067 
2.1651308e+3, 2.2561705e+2, -682474.1, -724737.2, 23510.684, -0.004900388, -0.6393662, -671994.06, 56895.09, 0.0, 10.000427, 9.999862 
2.1650852e+3, 2.3561686e+2, -766390.25, -724854.9, 20440.61, 0.021761496, -0.6379781, -716482.94, -85592.26, 0.0, 9.999223, 9.999769 
2.165039e+3, 2.4561654e+2, -742528.5, -616315.9, -723.0301, 0.015130669, -0.64970595, -616311.75, -83417.69, 0.0, 9.998514, 10.000183 
2.1649924e+3, 2.556164e+2, -695203.56, -548931.9, 3747.56, -0.021026634, -0.67547655, -548835.94, -113939.945, 0.0, 9.998192, 10.000128 
2.1649465e+3, 2.65617e+2, -654589.75, -371860.22, 11627.604, -0.01972164, -0.65964055, -371382.8, -34492.59, 0.0, 9.997339, 10.001081 
2.1649009e+3, 2.756185e+2, -747825.7, -379549.44, -7647.03, 0.022449909, -0.60979295, -379390.72, -140515.61, 0.0, 9.996085, 10.00096 
2.1648552e+3, 2.8561926e+2, -723037.5, -310274.2, -14035.709, 0.03222004, -0.61461866, -309797.47, -168929.19, 0.0, 9.995555, 10.001018 
2.1648087e+3, 2.9561958e+2, -634897.6, -224279.33, 5986.397, -0.016697535, -0.6791449, -224192.06, -181325.7, 0.0, 9.995518, 10.000954 
2.164762e+3, 3.056208e+2, -651704.7, -112196.66, -8484.368, -0.086148344, -0.6798906, -112063.26, -112063.26, 0.0, 9.994659, 10.0018015 
2.1647178e+3, 3.1562367e+2, -729255.7, 25399.11, 82992.87, 0.07185531, -0.56837434, 34418.42, 34418.42, 0.0, 9.993378, 10.003362 
2.1756032e+3, 1.2568766e+2, -920896.7, -1673534.3, -28610.34, 0.04782179, -0.56021565, -919810.7, 788396.1, 0.19571874, 10.008601, 9.996198 
2.175555e+3, 1.3568415e+2, -811660.7, -1567922.4, 7179.0107, -0.034671456, -0.5612037, -811592.5, 798647.1, 0.14111073, 10.008136, 9.996464 
2.1755075e+3, 1.4568056e+2, -759109.6, -1508059.3, 13826.602, -0.04078173, -0.55031055, -758854.44, 753419.1, 0.08561741, 10.007379, 9.996521 
2.1754608e+3, 1.5567656e+2, -764510.9, -1485738.4, -4061.684, 0.010478645, -0.59404707, -764488.0, 649823.94, 0.040638015, 10.006396, 9.996472 
2.1754134e+3, 1.6567327e+2, -697310.4, -1276470.5, -10768.299, 0.013892045, -0.6157586, -697110.25, 619232.8, 0.013518637, 10.005468, 9.997687 
2.1753657e+3, 1.756708e+2, -724444.94, -1248351.4, -12184.252, -0.019883953, -0.6228626, -724161.75, 494204.0, 0.0024681387, 10.004587, 9.997629 
2.1753183e+3, 1.8566868e+2, -702080.75, -1087128.4, -6193.572, -0.014263268, -0.6278521, -701981.1, 418404.0, 0.00011320747, 10.003628, 9.998526 
2.1752717e+3, 1.9566707e+2, -759232.5, -1075246.5, -4675.4443, 0.02160262, -0.6328433, -759163.4, 263235.66, 0.0, 10.00261, 9.998425 
2.1752249e+3, 2.056654e+2, -738719.06, -964885.5, 10715.693, 0.01881349, -0.6469552, -738212.44, 186202.45, 0.0, 10.001863, 9.99887 
2.1751778e+3, 2.1566395e+2, -722081.44, -912293.75, -529.7038, -0.014239052, -0.6708802, -722080.0, 104349.51, 0.0, 10.00133, 9.998815 
2.1751308e+3, 2.2566317e+2, -684699.0, -730715.6, -20665.566, -0.022465317, -0.66423386, -676780.8, 51656.543, 0.0, 10.000428, 9.999823 
2.1750842e+3, 2.356632e+2, -767459.7, -729998.5, -22071.15, -0.008845541, -0.63685036, -719781.4, -89344.17, 0.0, 9.99923, 9.999733 
2.1750374e+3, 2.456631e+2, -735297.8, -604671.8, -12563.48, 0.004068554, -0.62920177, -603474.44, -71036.15, 0.0, 9.998524, 10.00026 
2.1749909e+3, 2.556632e+2, -690272.06, -542239.4, -10861.907, 0.0113164745, -0.640581, -541446.6, -107009.09, 0.0, 9.998203, 10.000172 
2.1749438e+3, 2.6566336e+2, -688344.9, -444809.38, -36868.14, 0.0011694967, -0.6421714, -439350.38, -102914.24, 0.0, 9.997347, 10.000579 
2.1748967e+3, 2.7566394e+2, -777952.7, -443907.28, -52087.58, -0.011138314, -0.6362614, -435973.7, -197542.58, 0.0, 9.996087, 10.00052 
2.1748504e+3, 2.856648e+2, -691579.44, -247245.39, -16367.334, -0.003344755, -0.634411, -246643.31, -106220.055, 0.0, 9.99556, 10.001451 
2.1748042e+3, 2.956661e+2, -612752.8, -183034.05, -2831.6543, -0.011365749, -0.64118713, -183015.39, -140604.8, 0.0, 9.995533, 10.001232 
2.1747579e+3, 3.056676e+2, -699324.3, -213846.36, -62140.137, 0.043863058, -0.58192134, -206018.77, -206018.77, 0.0, 9.994666, 10.001103 
2.1747105e+3, 3.156684e+2, -734524.06, 16205.217, 29588.334, 0.016247187, -0.6209179, 17369.57, 17369.57, 0.0, 9.993365, 10.003307 
2.1856116e+3, 1.2573567e+2, -940126.3, -1682582.0, 14740.793, 0.039759744, -0.5575482, -939833.75, 767902.8, 0.19953163, 10.008479, 9.996177 
2.185563e+3, 1.3573217e+2, -822465.3, -1579345.1, 15777.331, -0.025079966, -0.5467306, -822136.56, 787632.8, 0.14383797, 10.00811, 9.996384 
2.1855149e+3, 1.4572848e+2, -765732.6, -1503912.0, 1786.197, -0.02274432, -0.5448848, -765728.3, 746076.0, 0.087281324, 10.007313, 9.99658 
2.1854667e+3, 1.557245e+2, -789497.56, -1492300.9, 14845.566, 0.0034597826, -0.5927413, -789184.1, 624658.2, 0.041457213, 10.006202, 9.996519 
2.1854185e+3, 1.6572116e+2, -725272.44, -1296404.4, 30188.945, 0.00653751, -0.6164578, -723681.2, 592192.56, 0.0138189215, 10.005308, 9.997623 
2.1853702e+3, 1.7571864e+2, -729933.25, -1258331.9, 25225.563, -0.007488325, -0.6248142, -728731.7, 489165.44, 0.0025344947, 10.004586, 9.997559 
2.1853222e+3, 1.8571642e+2, -678596.44, -1091640.1, 19915.607, -0.004963157, -0.62563765, -677638.44, 442279.03, 0.00011769383, 10.003861, 9.99838 
2.1852742e+3, 1.9571474e+2, -692021.5, -1057350.1, 8360.316, 0.010268677, -0.62252945, -691830.3, 330102.13, 0.0000000000000090331685, 10.003139, 9.99829 
2.1852265e+3, 2.0571293e+2, -700193.9, -946232.8, 28014.15, 0.011752435, -0.6415511, -697044.5, 226904.86, 0.0, 10.002132, 9.998865 
2.185179e+3, 2.1571136e+2, -783635.06, -942928.6, 34477.19, 0.0017947203, -0.67984605, -776493.1, 49471.695, 0.0, 10.000917, 9.998801 
2.1851313e+3, 2.2571048e+2, -731289.75, -765248.1, 22294.074, -0.01141715, -0.6742901, -720245.4, 7727.991, 0.0, 10.000165, 9.99971 
2.1850832e+3, 2.3571047e+2, -698898.6, -709286.7, 15219.617, -0.023802109, -0.6385503, -688011.1, -58037.28, 0.0, 9.999759, 9.999618 
2.185036e+3, 2.4571031e+2, -683202.75, -591586.7, 16976.834, -0.009209285, -0.62446594, -588542.0, -56566.22, 0.0, 9.998938, 10.000149 
2.1849887e+3, 2.5571033e+2, -757357.9, -587354.5, 3861.2524, 0.021792656, -0.62883407, -587266.8, -153291.05, 0.0, 9.997802, 10.000052 
2.1849412e+3, 2.6571032e+2, -724451.44, -477756.16, -14310.318, 0.013662596, -0.63627434, -476928.8, -140952.5, 0.0, 9.99717, 10.000436 
2.184893e+3, 2.7571052e+2, -668148.1, -407297.7, -2213.6694, -0.015268606, -0.65207297, -407278.9, -169304.1, 0.0, 9.996915, 10.00037 
2.1848457e+3, 2.8571132e+2, -639029.56, -232762.23, 20803.438, -0.017856972, -0.64289564, -231699.75, -91732.125, 0.0, 9.995972, 10.001349 
2.1847989e+3, 2.9571298e+2, -770455.25, -266223.1, -8946.553, -0.025212226, -0.60167444, -266064.4, -224112.88, 0.0, 9.994487, 10.001163 
2.1847527e+3, 3.0571422e+2, -793672.0, -242895.63, -34015.668, 0.10727424, -0.57439625, -240802.78, -240802.78, 0.0, 9.993952, 10.001246 
2.1847036e+3, 3.1571487e+2, -651496.9, 22715.988, 78942.42, -0.03442179, -0.6388745, 31835.86, 31835.86, 0.0, 9.994083, 10.003004 
2.1956193e+3, 1.2578484e+2, -974015.8, -1763075.8, 1268.6886, -0.019886777, -0.5301925, -974013.75, 733239.7, 0.2030295, 10.008505, 9.995573 
2.1955715e+3, 1.3578036e+2, -864898.3, -1660635.1, 4165.23, 0.023012811, -0.5539296, -864876.5, 744421.7, 0.14632362, 10.008058, 9.995819 
2.1955226e+3, 1.4577654e+2, -743343.6, -1446582.0, -33732.023, 0.0402805, -0.5648341, -741729.3, 769605.5, 0.0887836, 10.007268, 9.997037 
2.1954727e+3, 1.557733e+2, -760102.9, -1431435.1, -23027.71, -0.012912152, -0.58254933, -759313.94, 654050.25, 0.042189106, 10.006213, 9.996934 
2.1954235e+3, 1.6577014e+2, -729540.7, -1311495.9, 3738.4324, -0.014042443, -0.6014928, -729516.6, 585876.56, 0.014085629, 10.005332, 9.997509 
2.195375e+3, 1.7576733e+2, -737859.94, -1277857.6, -1220.3282, 0.023960976, -0.624643, -737857.2, 479562.06, 0.0025925045, 10.004595, 9.997423 
2.1953262e+3, 1.857648e+2, -700613.7, -1138879.0, -6040.991, 0.02112388, -0.6333649, -700530.44, 418912.75, 0.000121067525, 10.003863, 9.998056 
2.195277e+3, 1.9576277e+2, -711446.9, -1098452.6, -18286.84, -0.011637628, -0.6340502, -710584.7, 310877.88, 0.00000000000007150772, 10.003138, 9.998012 
2.1952285e+3, 2.05761e+2, -683655.1, -914176.9, -16414.56, -0.0017951198, -0.6494637, -682492.1, 240986.77, 0.0, 10.002137, 9.999085 
2.1951802e+3, 2.1575974e+2, -768169.2, -915321.1, -7670.2896, 0.038998187, -0.677336, -767770.44, 57719.62, 0.0, 10.000932, 9.998986 
2.1951316e+3, 2.2575885e+2, -742880.5, -793614.25, 8005.303, 0.026394917, -0.67099684, -741647.3, -14149.034, 0.0, 10.000179, 9.999511 
2.195083e+3, 2.3575856e+2, -712665.44, -740427.0, -1261.0374, -0.024633758, -0.6430427, -712608.25, -83106.71, 0.0, 9.999765, 9.999404 
2.1950346e+3, 2.4575807e+2, -704482.5, -637983.5, -26012.637, -0.02578813, -0.63481236, -629017.06, -97509.7, 0.0, 9.998942, 9.99983 
2.1949863e+3, 2.5575778e+2, -776423.0, -629362.1, -37080.277, 0.008585252, -0.6407356, -620541.7, -187029.98, 0.0, 9.9978075, 9.9997635 
2.1949382e+3, 2.6575777e+2, -708424.9, -447524.25, -24454.928, 0.017529476, -0.64207053, -445251.8, -109740.164, 0.0, 9.997178, 10.000643 
2.1948901e+3, 2.757582e+2, -656547.6, -388019.78, -14868.101, 0.012106213, -0.6545923, -387199.06, -149692.44, 0.0, 9.996931, 10.000498 
2.1948418e+3, 2.8575873e+2, -686203.75, -334144.5, -37244.69, -0.010957034, -0.64006394, -330247.5, -190745.1, 0.0, 9.995981, 10.000651 
2.194793e+3, 2.9576004e+2, -801754.9, -331188.44, -64127.77, -0.06317766, -0.5688863, -322605.78, -281114.25, 0.0, 9.994481, 10.000722 
2.1947463e+3, 3.0576053e+2, -717321.56, -85702.59, -26383.346, 0.09398076, -0.6604471, -84602.45, -84602.45, 0.0, 9.993953, 10.002328 
2.1946977e+3, 3.15763e+2, -693709.56, -69887.69, 19298.883, -0.006419266, -0.62689924, -69291.22, -69291.22, 0.0, 9.994102, 10.002361 
2.2056279e+3, 1.2583402e+2, -907589.7, -1696969.3, -3742.2632, -0.037771933, -0.5449521, -907571.94, 799199.3, 0.20624754, 10.008996, 9.995804 
2.2055793e+3, 1.3582984e+2, -942177.75, -1681833.5, 45809.26, 0.03731287, -0.5592434, -939351.44, 669461.1, 0.14859915, 10.007358, 9.996013 
2.2055298e+3, 1.4582595e+2, -840557.3, -1496628.4, 30367.268, 0.06513609, -0.5794942, -839154.7, 671694.94, 0.0901496, 10.006564, 9.996997 
2.2054787e+3, 1.5582274e+2, -738118.9, -1424718.0, 11170.558, -0.020991512, -0.59016806, -737937.2, 674942.0, 0.042850856, 10.006398, 9.996889 
2.2054288e+3, 1.6581959e+2, -676577.8, -1293712.6, 16182.199, -0.028123502, -0.602907, -676153.8, 638754.75, 0.014327656, 10.005741, 9.997434 
2.2053796e+3, 1.7581673e+2, -723618.6, -1278642.0, 13470.265, 0.025472587, -0.62275785, -723291.9, 493643.2, 0.0026455706, 10.004731, 9.99735 
2.2053298e+3, 1.8581411e+2, -713776.2, -1147025.1, 23808.404, 0.029398799, -0.6339903, -712471.75, 406487.97, 0.00012398776, 10.003786, 9.998036 
2.20528e+3, 1.95812e+2, -749540.8, -1120060.4, 31151.781, -0.0044171712, -0.6403822, -746940.0, 274039.97, 0.00000000000029186663, 10.002894, 9.997978 
2.2052304e+3, 2.0581014e+2, -686902.4, -933912.56, 23464.807, -0.0007238386, -0.652702, -684693.1, 238304.2, 0.0, 10.002198, 9.998919 
2.2051814e+3, 2.158088e+2, -675724.2, -886925.7, 3911.0835, 0.032046933, -0.67142826, -675651.8, 149357.77, 0.0, 10.001641, 9.9988365 
2.2051321e+3, 2.2580783e+2, -666169.94, -753567.06, 18754.344, 0.026310073, -0.66777176, -662315.5, 64702.84, 0.0, 10.000698, 9.999534 
2.2050828e+3, 2.3580743e+2, -754557.3, -759651.9, 25812.053, -0.008245662, -0.6509572, -731167.2, -102145.49, 0.0, 9.999478, 9.999407 
2.2050335e+3, 2.458068e+2, -747829.75, -678518.56, 15805.162, -0.01612422, -0.6478417, -675084.56, -144055.58, 0.0, 9.998734, 9.999649 
2.2049841e+3, 2.5580627e+2, -712959.8, -618032.5, 14893.465, -0.0041980906, -0.654843, -615750.7, -182714.63, 0.0, 9.998331, 9.999587 
2.2049353e+3, 2.658063e+2, -664997.25, -434537.8, 22094.926, 0.008961646, -0.6455627, -432438.63, -97401.83, 0.0, 9.997516, 10.0005665 
2.2048867e+3, 2.758068e+2, -741919.75, -436943.94, 8672.884, 0.02693094, -0.6367067, -436697.47, -199666.61, 0.0, 9.996384, 10.0004225 
2.2048377e+3, 2.858073e+2, -750571.1, -370529.06, -5146.0527, 0.006286955, -0.61889845, -370459.38, -231432.64, 0.0, 9.995567, 10.000599 
2.2047876e+3, 2.9580837e+2, -719184.06, -289446.63, 18426.7, -0.05657636, -0.56549305, -288657.94, -247640.38, 0.0, 9.995046, 10.000734 
2.20474e+3, 3.058083e+2, -674897.94, -63352.5, 43147.51, 0.059593946, -0.7144689, -60323.24, -60323.24, 0.0, 9.994241, 10.002339 
2.2046915e+3, 3.158121e+2, -854168.6, -152645.66, -33109.105, 0.01301994, -0.54148847, -151086.52, -151086.52, 0.0, 9.993027, 10.002309 
2.215637e+3, 1.2588336e+2, -875408.9, -1604732.6, -49103.0, -0.028441103, -0.58844, -872117.8, 834170.2, 0.2092454, 10.008888, 9.996657 
2.2155865e+3, 1.3588046e+2, -895502.5, -1574848.6, -4089.7107, 0.021570645, -0.56182605, -895477.9, 712836.25, 0.15070778, 10.007379, 9.996775 
2.2155361e+3, 1.458766e+2, -864333.25, -1560131.4, 23332.908, 0.05737444, -0.58965844, -863551.7, 646799.1, 0.09141001, 10.006612, 9.9965315 
2.2154851e+3, 1.558728e+2, -768265.8, -1489438.9, 2853.723, -0.02255236, -0.6124724, -768254.5, 644133.25, 0.04346167, 10.006393, 9.996449 
2.2154343e+3, 1.6586949e+2, -682507.44, -1303254.6, -20432.99, -0.03776548, -0.6171493, -681835.56, 632583.8, 0.014553657, 10.005726, 9.997377 
2.2153841e+3, 1.7586675e+2, -725257.2, -1283504.8, -23133.156, 0.000035769208, -0.6187779, -724300.2, 492144.72, 0.0026965067, 10.004733, 9.997317 
2.2153334e+3, 1.8586427e+2, -696021.7, -1113524.1, -9059.649, 0.021815052, -0.6285061, -695825.2, 422642.66, 0.00012701306, 10.003796, 9.998263 
2.2152832e+3, 1.9586231e+2, -736622.7, -1096807.3, -912.46747, 0.028775973, -0.6421967, -736620.4, 283865.28, 0.0, 10.002905, 9.998135 
2.2152327e+3, 2.0586026e+2, -723304.8, -1012470.2, 3024.5007, 0.012710568, -0.6516862, -723273.2, 199232.36, 0.0, 10.002206, 9.998378 
2.2151823e+3, 2.1585844e+2, -708895.1, -956782.56, -17519.26, -0.01770414, -0.6620778, -707663.1, 116860.95, 0.0, 10.00164, 9.99836 
2.2151323e+3, 2.2585733e+2, -650446.7, -722176.7, -26064.809, -0.00971422, -0.6640142, -641975.8, 84558.22, 0.0, 10.000698, 9.999751 
2.2150823e+3, 2.3585701e+2, -739794.3, -731716.6, -16881.947, 0.024928587, -0.6622932, -718397.1, -89862.164, 0.0, 9.999486, 9.999598 
2.2150324e+3, 2.4585637e+2, -750533.2, -687308.44, 577.19293, 0.018953037, -0.6639022, -687303.2, -156761.5, 0.0, 9.998744, 9.999587 
2.2149824e+3, 2.558558e+2, -717629.7, -631329.0, -2422.3213, -0.01750939, -0.6709773, -631261.06, -198711.42, 0.0, 9.998342, 9.999494 
2.2149326e+3, 2.6585567e+2, -690583.0, -490495.5, -21727.287, -0.013033367, -0.6465936, -488163.34, -153610.66, 0.0, 9.997523, 10.000181 
2.2148831e+3, 2.7585626e+2, -762264.8, -480484.16, -35220.027, 0.026473697, -0.5989988, -476148.7, -239599.95, 0.0, 9.996385, 10.000126 
2.2148332e+3, 2.8585696e+2, -707120.3, -281928.8, -26173.027, 0.033870988, -0.5780778, -280323.75, -141782.28, 0.0, 9.995569, 10.001209 
2.214783e+3, 2.9585797e+2, -683870.56, -221507.56, 843.764, -0.00031212476, -0.58926773, -221506.02, -180976.31, 0.0, 9.995063, 10.001195 
2.2147337e+3, 3.058575e+2, -753671.0, -231007.2, -2308.7522, -0.00032571206, -0.739186, -230997.0, -230997.0, 0.0, 9.994253, 10.001185 
2.2146846e+3, 3.1586072e+2, -817705.5, -75953.375, -102006.766, 0.02451073, -0.51277435, -62180.984, -62180.984, 0.0, 9.993015, 10.002845 
2.2256453e+3, 1.2593414e+2, -1023340.75, -1685377.6, 4498.3384, -0.0065364256, -0.61609, -1023310.2, 682478.94, 0.2120827, 10.007682, 9.996536 
2.2255935e+3, 1.3593149e+2, -834631.9, -1549081.5, 134.8448, -0.013794982, -0.55860394, -834631.9, 773181.8, 0.15269348, 10.00791, 9.996726 
2.2255427e+3, 1.4592753e+2, -770205.25, -1513503.4, 16885.883, 0.02826556, -0.5909709, -769821.8, 740029.5, 0.09259459, 10.007353, 9.996492 
2.2254913e+3, 1.5592366e+2, -788228.3, -1503504.8, 21213.861, -0.021656012, -0.6162986, -787599.7, 624289.0, 0.044038244, 10.006276, 9.9964075 
2.2254397e+3, 1.6592029e+2, -732519.4, -1330272.8, 4422.034, -0.030766016, -0.62272316, -732486.7, 581434.3, 0.014770123, 10.005394, 9.997349 
2.2253884e+3, 1.7591749e+2, -740003.5, -1294130.1, 3078.06, -0.0028688367, -0.62634176, -739986.44, 475960.94, 0.0027470877, 10.00465, 9.997283 
2.2253372e+3, 1.85915e+2, -689151.06, -1121640.8, 5162.5093, 0.017051298, -0.63087696, -689089.44, 428881.38, 0.0001305405, 10.003896, 9.9981575 
2.225286e+3, 1.9591302e+2, -709830.0, -1093962.8, -10393.944, 0.028247204, -0.63427246, -709548.94, 310439.94, 0.000000000039864764, 10.003138, 9.99804 
2.2252348e+3, 2.0591094e+2, -716070.1, -1006334.2, 8431.331, 0.01518924, -0.6434617, -715825.44, 206183.6, 0.0, 10.00225, 9.998396 
2.2251835e+3, 2.1590906e+2, -761683.5, -981206.2, 25779.154, -0.01405825, -0.6605808, -758696.8, 65331.152, 0.0, 10.001279, 9.9983635 
2.2251329e+3, 2.259078e+2, -686520.1, -752844.75, 14157.478, -0.008191424, -0.66837114, -683624.5, 42414.695, 0.0, 10.000513, 9.999627 
2.225082e+3, 2.359073e+2, -689793.75, -719652.3, -1485.1693, 0.02390118, -0.6713934, -689720.06, -61678.027, 0.0, 9.9998865, 9.999485 
2.2250313e+3, 2.4590671e+2, -716453.9, -668963.3, 14279.9795, 0.02733229, -0.6638871, -665000.2, -134951.77, 0.0, 9.998976, 9.9995985 
2.2249804e+3, 2.5590628e+2, -786991.3, -663020.7, 16748.602, 0.007293392, -0.6541514, -660797.8, -228743.02, 0.0, 9.997865, 9.999502 
2.22493e+3, 2.659061e+2, -750146.7, -523454.0, 13422.084, 0.00036503354, -0.63750225, -522662.06, -188603.3, 0.0, 9.997139, 10.000136 
2.2248791e+3, 2.7590644e+2, -722403.94, -464075.22, 23797.416, 0.010815956, -0.60840994, -461901.28, -225844.16, 0.0, 9.996676, 10.000094 
2.2248289e+3, 2.8590718e+2, -658171.9, -246260.55, 20996.87, 0.03301176, -0.5868404, -245193.02, -107143.414, 0.0, 9.995859, 10.001311 
2.2247784e+3, 2.9590824e+2, -726119.8, -239682.44, 8733.689, 0.041358735, -0.60266095, -239525.67, -199488.1, 0.0, 9.994769, 10.001209 
2.2247273e+3, 3.059083e+2, -854183.3, -303221.0, 13386.042, -0.025252197, -0.6825779, -302895.97, -302895.97, 0.0, 9.993672, 10.000965 
2.2246772e+3, 3.159101e+2, -815973.06, 7926.194, -9730.106, 0.043540206, -0.58651537, 8041.089, 8041.089, 0.0, 9.992679, 10.003579 
2.2356531e+3, 1.2598619e+2, -1070158.8, -1805665.9, 10132.473, 0.01836549, -0.62571496, -1070019.1, 635257.5, 0.21480407, 10.007712, 9.995662 
2.2356008e+3, 1.3598293e+2, -878443.4, -1639614.5, 2558.3613, -0.06602669, -0.5506163, -878434.75, 728875.75, 0.1545996, 10.007895, 9.996041 
2.2355495e+3, 1.4597882e+2, -755492.3, -1476947.3, -20053.502, -0.018311746, -0.5842514, -754935.3, 754414.7, 0.09373473, 10.00733, 9.996779 
2.2354974e+3, 1.5597527e+2, -773118.25, -1467695.1, -16958.482, -0.02038925, -0.6045486, -772704.44, 638677.9, 0.044596363, 10.006261, 9.996663 
2.2354454e+3, 1.659719e+2, -734354.3, -1333620.9, -23369.787, -0.011905753, -0.62133497, -733444.3, 579969.7, 0.014982464, 10.005388, 9.997332 
2.2353931e+3, 1.759689e+2, -743779.1, -1303218.4, -24764.082, 0.012708152, -0.6438001, -742685.06, 472757.8, 0.0027989182, 10.00465, 9.997223 
2.2353408e+3, 1.8596624e+2, -717610.5, -1182796.8, -22639.82, 0.014258549, -0.63939995, -716511.25, 400957.66, 0.0001349934, 10.0039, 9.997738 
2.2352888e+3, 1.959641e+2, -732356.6, -1142493.4, -37883.934, -0.003365744, -0.61694, -728886.7, 290603.06, 0.0000000005492505, 10.00314, 9.997708 
2.2352368e+3, 2.0596212e+2, -679245.75, -931464.0, -26587.05, 0.007983019, -0.6284314, -676473.56, 245034.58, 0.0, 10.002252, 9.998912 
2.2351854e+3, 2.1596055e+2, -731427.44, -919934.44, -8289.176, 0.03936182, -0.66656697, -731063.7, 92458.45, 0.0, 10.001281, 9.998786 
2.2351335e+3, 2.2595917e+2, -718637.8, -821759.8, -8518.169, 0.027653955, -0.6805248, -717938.94, 7595.9624, 0.0, 10.000518, 9.999154 
2.2350813e+3, 2.3595823e+2, -718599.1, -781848.7, -26016.367, -0.0120326895, -0.67831284, -709272.94, -81729.28, 0.0, 9.999892, 9.999058 
2.2350298e+3, 2.4595772e+2, -710722.8, -659083.6, -27838.066, 0.009840886, -0.6474955, -646934.7, -117384.64, 0.0, 9.99898, 9.999667 
2.234979e+3, 2.5595772e+2, -779261.06, -649117.8, -23572.361, 0.070390314, -0.6034672, -644979.8, -213427.55, 0.0, 9.997869, 9.9995985 
2.2349274e+3, 2.659574e+2, -729230.0, -482336.75, -4758.862, 0.048806943, -0.61891896, -482245.06, -148689.06, 0.0, 9.997144, 10.00042 
2.2348756e+3, 2.7595723e+2, -704956.7, -431987.28, 4182.725, -0.021441286, -0.6693604, -431923.22, -196366.05, 0.0, 9.99669, 10.000312 
2.2348242e+3, 2.8595778e+2, -688851.25, -313012.4, -21951.455, 0.0018429137, -0.64799607, -311734.63, -174182.34, 0.0, 9.995868, 10.000852 
2.2347732e+3, 2.9595903e+2, -759818.4, -309927.94, -35698.777, 0.06536363, -0.60093194, -307112.88, -267570.53, 0.0, 9.994765, 10.000731 
2.2347209e+3, 3.0596066e+2, -802739.4, -195471.39, -28942.408, -0.011527077, -0.5398975, -194095.13, -194095.13, 0.0, 9.993662, 10.001714 
2.2346696e+3, 3.159616e+2, -754215.4, 129728.336, -12285.86, 0.023522684, -0.61815774, 129899.06, 129899.06, 0.0, 9.992697, 10.004412 
2.2456609e+3, 1.2603831e+2, -1008506.75, -1785849.8, 1172.8638, 0.013841185, -0.6001067, -1008505.0, 696260.8, 0.21743028, 10.008358, 9.995486 
2.2456084e+3, 1.3603465e+2, -892059.4, -1650163.4, 23474.67, -0.07997541, -0.55646724, -891333.2, 715470.4, 0.15645939, 10.007816, 9.996007 
2.2455564e+3, 1.460305e+2, -793420.56, -1480187.8, -11980.905, -0.022882644, -0.60043204, -793211.6, 715631.9, 0.09485847, 10.006984, 9.996919 
2.2455034e+3, 1.560272e+2, -804745.1, -1469712.1, -17243.686, -0.01566519, -0.6107812, -804298.25, 606574.94, 0.04515014, 10.005981, 9.996782 
2.2454505e+3, 1.6602397e+2, -759269.9, -1344570.1, -14946.058, -0.0057995934, -0.6176711, -758888.44, 554015.0, 0.015194928, 10.005215, 9.997337 
2.2453977e+3, 1.7602107e+2, -749859.6, -1304716.1, -16229.101, 0.015263133, -0.6309503, -749385.4, 465546.3, 0.0028534452, 10.004608, 9.997231 
2.2453447e+3, 1.8601827e+2, -722130.56, -1179247.1, 14.293413, 0.01717539, -0.64049786, -722130.56, 394828.13, 0.00014076948, 10.003849, 9.997785 
2.2452918e+3, 1.9601588e+2, -751433.0, -1146797.5, 15014.092, 0.0020803888, -0.6466297, -750863.6, 268117.97, 0.0000000024737916, 10.002992, 9.997748 
2.245239e+3, 2.0601404e+2, -694993.5, -933928.44, 15069.851, 0.014014153, -0.6494789, -694046.75, 226952.17, 0.0, 10.002127, 9.998954 
2.2451866e+3, 2.1601282e+2, -732644.4, -916009.0, -44.721397, 0.04598004, -0.6549497, -732644.4, 90365.3, 0.0, 10.001258, 9.998822 
2.2451338e+3, 2.2601144e+2, -734701.4, -832755.0, 11479.804, 0.03791412, -0.66694254, -733375.3, -8352.851, 0.0, 10.000427, 9.99912 
2.245081e+3, 2.360103e+2, -760575.06, -805690.0, 24982.537, 0.0028448526, -0.6827293, -749473.0, -122439.44, 0.0, 9.999625, 9.99902 
2.2450288e+3, 2.460097e+2, -726750.3, -667434.56, 25747.041, 0.019505626, -0.65708154, -657817.75, -128776.88, 0.0, 9.998878, 9.999656 
2.2449768e+3, 2.560097e+2, -737557.75, -627976.3, 24404.955, 0.070245534, -0.6080935, -622786.9, -191744.03, 0.0, 9.998157, 9.999601 
2.2449246e+3, 2.6600948e+2, -700956.7, -456369.94, 39280.46, 0.05027425, -0.6174007, -450216.34, -117171.11, 0.0, 9.997292, 10.000524 
2.244872e+3, 2.7600944e+2, -750613.2, -443891.3, 34035.887, -0.012136381, -0.6668712, -440159.84, -205114.94, 0.0, 9.996339, 10.000396 
2.2448198e+3, 2.860099e+2, -744323.0, -350929.78, 9566.562, 0.009162798, -0.653049, -350697.28, -213655.92, 0.0, 9.995542, 10.000745 
2.2447678e+3, 2.9601106e+2, -761341.56, -320413.53, 19910.895, 0.067028955, -0.6031624, -319516.22, -280483.1, 0.0, 9.994803, 10.000637 
2.2447143e+3, 3.0601272e+2, -771285.94, -136230.6, 19264.88, -0.011897459, -0.5512245, -135646.72, -135646.72, 0.0, 9.993695, 10.002101 
2.244662e+3, 3.160139e+2, -809747.9, 90637.01, 22129.756, 0.022160912, -0.64564806, 91180.586, 91180.586, 0.0, 9.992376, 10.004294 
2.2556686e+3, 1.2609065e+2, -989639.7, -1733568.8, -9934.588, -0.015084726, -0.5466018, -989507.0, 714747.56, 0.21995261, 10.00837, 9.99584 
2.2556162e+3, 1.3608678e+2, -873230.9, -1592429.8, 4528.7607, -0.06742565, -0.57301366, -873202.3, 733089.9, 0.15827757, 10.007769, 9.996444 
2.2555634e+3, 1.4608265e+2, -799185.75, -1483191.5, -46644.805, 0.0013775434, -0.6341209, -796019.56, 712311.9, 0.09597667, 10.006945, 9.996918 
2.2555093e+3, 1.5607947e+2, -804725.3, -1470701.3, -51624.063, -0.009073445, -0.63092047, -800747.4, 609613.5, 0.045707796, 10.005983, 9.9967785 
2.2554556e+3, 1.6607653e+2, -757579.44, -1343914.9, -36645.207, -0.009705425, -0.6113765, -755298.06, 557090.94, 0.015410268, 10.005222, 9.997341 
2.255402e+3, 1.7607394e+2, -747339.7, -1298694.0, -38676.813, 0.005596558, -0.5919847, -744639.8, 469774.28, 0.0029113332, 10.0046, 9.997279 
2.2553484e+3, 1.8607107e+2, -693161.94, -1117186.4, -31142.354, 0.02388327, -0.63575506, -690886.94, 425553.8, 0.0001480046, 10.003836, 9.99822 
2.2552949e+3, 1.9606835e+2, -728137.6, -1097332.9, -16576.736, 0.04000057, -0.71844935, -727394.9, 291070.25, 0.0000000066937957, 10.002982, 9.9980955 
2.2552413e+3, 2.0606661e+2, -723805.3, -995183.25, -16705.19, 0.03117716, -0.7026308, -722780.9, 197701.19, 0.0, 10.002128, 9.998534 
2.2551872e+3, 2.160658e+2, -754489.44, -964473.75, -30812.688, 0.0076984614, -0.62652004, -750061.4, 72429.805, 0.0, 10.0012665, 9.998487 
2.255134e+3, 2.2606458e+2, -707804.1, -779474.94, -17443.27, 0.0246305, -0.6289003, -703784.25, 20718.297, 0.0, 10.000433, 9.999485 
2.2550812e+3, 2.3606338e+2, -737664.25, -760331.1, -4291.424, 0.06722421, -0.68533474, -736878.94, -110366.49, 0.0, 9.999629, 9.999331 
2.2550279e+3, 2.460625e+2, -733404.56, -683641.94, -1487.6262, 0.054087494, -0.69325465, -683597.5, -155075.7, 0.0, 9.998883, 9.999544 
2.2549741e+3, 2.560622e+2, -744080.6, -644906.8, -4314.6304, 0.0039912406, -0.66922426, -644719.5, -214192.03, 0.0, 9.998167, 9.999483 
2.2549212e+3, 2.6606232e+2, -706612.5, -470719.0, 1818.5955, 0.004443764, -0.6318251, -470705.0, -138177.7, 0.0, 9.997297, 10.000424 
2.2548686e+3, 2.76063e+2, -755676.3, -455258.6, -2027.3837, 0.041242342, -0.59485644, -455244.94, -220723.97, 0.0, 9.996338, 10.00032 
2.2548157e+3, 2.8606337e+2, -726661.4, -315391.5, -19170.367, 0.055651564, -0.6000369, -314499.84, -177982.25, 0.0, 9.995541, 10.000992 
2.2547622e+3, 2.960641e+2, -738935.94, -278211.8, -12105.563, 0.04156354, -0.6169159, -277893.97, -239382.67, 0.0, 9.994817, 10.000923 
2.2547078e+3, 3.060643e+2, -774126.1, -144981.39, -32337.152, -0.025227519, -0.7275891, -143323.67, -143323.67, 0.0, 9.993702, 10.00204 
2.2546545e+3, 3.1606755e+2, -879671.5, -53725.78, -18570.402, 0.03814768, -0.5977255, -53308.457, -53308.457, 0.0, 9.992367, 10.00331 
2.265677e+3, 1.2614343e+2, -950383.5, -1700333.1, 22544.22, -0.041704923, -0.55794907, -949706.44, 754030.75, 0.22233075, 10.008702, 9.995912 
2.2656238e+3, 1.3613974e+2, -922396.8, -1598737.9, 20329.822, -0.033343103, -0.5826629, -921786.3, 683985.94, 0.16002008, 10.007297, 9.996617 
2.2655703e+3, 1.4613587e+2, -862655.0, -1512183.4, -24702.5, 0.038422547, -0.6289855, -861716.9, 646092.75, 0.09707132, 10.006464, 9.99693 
2.2655152e+3, 1.5613273e+2, -795191.3, -1461603.4, -29327.326, -0.011176917, -0.62049496, -793903.2, 615936.56, 0.04626498, 10.0060425, 9.996809 
2.2654605e+3, 1.6612981e+2, -737861.06, -1310471.9, -11273.981, -0.017129572, -0.6092575, -737639.2, 574228.2, 0.015627874, 10.005264, 9.997547 
2.2654063e+3, 1.7612727e+2, -783757.75, -1293999.4, -749.1889, 0.014212125, -0.6049559, -783756.6, 430134.4, 0.0029718287, 10.004258, 9.997473 
2.265352e+3, 1.8612461e+2, -750256.4, -1130780.8, -972.05927, 0.032685813, -0.6426158, -750253.9, 365661.7, 0.0001564385, 10.003389, 9.99834 
2.2652976e+3, 1.9612218e+2, -774227.25, -1106348.0, -8609.251, 0.039741132, -0.7076137, -774004.25, 243933.11, 0.000000012732063, 10.002614, 9.998208 
2.2652432e+3, 2.0612045e+2, -745441.6, -1001098.8, 4802.9897, 0.030593537, -0.6965917, -745351.44, 174602.69, 0.0, 10.001965, 9.9985695 
2.2651885e+3, 2.161195e+2, -733401.94, -950530.56, 20229.012, 0.011753066, -0.6372302, -731533.4, 90431.19, 0.0, 10.0014, 9.998516 
2.2651345e+3, 2.2611827e+2, -691938.56, -770105.44, 22945.135, 0.025528045, -0.63978684, -685700.94, 38274.99, 0.0, 10.00054, 9.9994955 
2.2650805e+3, 2.3611717e+2, -757799.5, -766631.1, 11544.276, 0.061477993, -0.6869557, -749855.3, -123870.086, 0.0, 9.999482, 9.999357 
2.2650264e+3, 2.461164e+2, -753110.2, -677029.4, 24393.787, 0.050557613, -0.6933403, -669879.9, -141886.47, 0.0, 9.998684, 9.999682 
2.2649722e+3, 2.5611618e+2, -752934.4, -636602.25, 38566.23, 0.007149033, -0.67226875, -624978.3, -194980.61, 0.0, 9.998057, 9.99959 
2.2649184e+3, 2.6611626e+2, -719056.9, -484245.3, 43283.605, 0.010796637, -0.63819206, -476520.8, -144522.77, 0.0, 9.997251, 10.000351 
2.264865e+3, 2.7611685e+2, -765868.56, -465953.34, 41315.89, 0.051075693, -0.60431474, -460365.8, -226372.44, 0.0, 9.9963, 10.000262 
2.2648112e+3, 2.8611735e+2, -725766.0, -298986.78, 28097.648, 0.064881764, -0.6013366, -297144.9, -161155.89, 0.0, 9.995485, 10.001128 
2.2647569e+3, 2.9611838e+2, -731298.5, -256732.89, 23805.045, 0.0461805, -0.60077065, -255541.77, -217562.25, 0.0, 9.994799, 10.001076 
2.2647017e+3, 3.061183e+2, -741853.06, -154153.56, -22667.719, -0.023678735, -0.7306398, -153280.56, -153280.56, 0.0, 9.994036, 10.001813 
2.2646472e+3, 3.161222e+2, -789758.6, -29294.414, -3425.4634, 0.047073543, -0.5062774, -29278.986, -29278.986, 0.0, 9.993069, 10.003137 
2.2756854e+3, 1.2619668e+2, -963436.6, -1721663.9, -15394.496, -0.07224724, -0.6188034, -963124.2, 740089.5, 0.22450861, 10.008666, 9.99578 
2.2756316e+3, 1.3619354e+2, -926350.2, -1603811.3, -20337.73, 0.016697582, -0.5852363, -925740.2, 679503.8, 0.16163377, 10.00729, 9.99658 
2.2755772e+3, 1.4619002e+2, -863324.2, -1513480.5, -38040.066, 0.08505688, -0.5928765, -861106.06, 646172.7, 0.09810585, 10.006464, 9.996925 
2.275521e+3, 1.5618686e+2, -795209.8, -1458455.1, -45343.56, -0.022608416, -0.5859974, -792124.2, 617186.1, 0.04680561, 10.006026, 9.996841 
2.2754656e+3, 1.6618381e+2, -715273.9, -1260605.3, -47218.594, -0.029372897, -0.6112044, -711215.56, 600123.3, 0.01584302, 10.005247, 9.997906 
2.2754106e+3, 1.7618108e+2, -763576.25, -1251771.6, -36460.023, 0.038006425, -0.66153574, -760868.3, 452494.3, 0.0030332282, 10.004252, 9.997768 
2.2753555e+3, 1.8617885e+2, -761599.2, -1157136.9, -29073.967, 0.042766325, -0.65824425, -759473.5, 355909.94, 0.00016557239, 10.003396, 9.9981575 
2.2752999e+3, 1.9617723e+2, -780017.6, -1122420.1, -35267.438, 0.0041494826, -0.62300307, -776422.9, 240976.52, 0.00000001851255, 10.002626, 9.998095 
2.2752446e+3, 2.0617545e+2, -714224.7, -938159.94, -14895.132, 0.01401695, -0.6379038, -713238.25, 206177.84, 0.0, 10.001967, 9.999002 
2.2751902e+3, 2.1617384e+2, -710757.0, -902543.06, -1538.823, 0.055179115, -0.6859987, -710744.6, 110685.875, 0.0, 10.00139, 9.998853 
2.275135e+3, 2.261725e+2, -716666.25, -821627.7, -16058.998, 0.038042456, -0.6967184, -714264.25, 9179.194, 0.0, 10.000536, 9.999146 
2.275079e+3, 2.3617162e+2, -774802.25, -804909.06, -25748.354, -0.014460209, -0.6868176, -760029.75, -134577.28, 0.0, 9.99949, 9.999093 
2.2750247e+3, 2.461713e+2, -725969.1, -623684.7, 596.2847, 0.01059121, -0.6569621, -623681.25, -96224.81, 0.0, 9.9986925, 10.000048 
2.2749707e+3, 2.561716e+2, -729304.94, -590865.94, 13578.539, 0.08086949, -0.6170726, -589546.7, -160092.34, 0.0, 9.998066, 9.999903 
2.274916e+3, 2.6617128e+2, -723139.7, -494965.72, 6275.1855, 0.06896987, -0.6384649, -494793.25, -163334.78, 0.0, 9.997255, 10.0002775 
2.2748609e+3, 2.7617082e+2, -769251.56, -475549.03, 4424.8228, 0.012691157, -0.70013535, -475482.38, -242018.92, 0.0, 9.996305, 10.0001955 
2.2748062e+3, 2.8617167e+2, -725560.9, -300939.1, 402.94138, 0.034571417, -0.6585136, -300938.72, -165482.05, 0.0, 9.99549, 10.001115 
2.274752e+3, 2.9617375e+2, -731334.4, -259045.94, -2682.2278, 0.083284415, -0.5508854, -259030.7, -221591.9, 0.0, 9.994803, 10.001061 
2.2746955e+3, 3.0617493e+2, -766821.6, -211182.97, -57930.94, -0.007058281, -0.536835, -205207.36, -205207.36, 0.0, 9.994052, 10.001416 
2.2746399e+3, 3.161753e+2, -741632.75, 62697.273, -31345.455, 0.015283708, -0.62314373, 63916.984, 63916.984, 0.0, 9.9931, 10.003756 
2.2856939e+3, 1.2625147e+2, -976663.9, -1722263.9, -3573.9539, -0.047999337, -0.6056367, -976646.75, 726029.9, 0.22642976, 10.008539, 9.995833 
2.2856386e+3, 1.3624798e+2, -922255.7, -1590915.5, -2841.6516, 0.02336659, -0.6175908, -922243.56, 682465.94, 0.1630686, 10.007283, 9.996686 
2.2855835e+3, 1.4624469e+2, -872434.44, -1509495.3, 9624.637, 0.08901683, -0.6090512, -872289.06, 634453.06, 0.09903973, 10.006371, 9.996992 
2.2855268e+3, 1.5624177e+2, -831804.1, -1466982.6, 7601.0366, -0.009720977, -0.5835026, -831713.2, 577059.1, 0.047304682, 10.005729, 9.996922 
2.2854705e+3, 1.6623887e+2, -744417.9, -1255283.0, -11077.278, -0.021754863, -0.60508746, -744177.75, 566621.56, 0.01604566, 10.004967, 9.998075 
2.2854148e+3, 1.7623629e+2, -771918.4, -1237979.8, -12622.73, 0.032108948, -0.65862685, -771576.75, 441244.66, 0.0030926869, 10.004125, 9.997921 
2.2853586e+3, 1.8623409e+2, -754836.8, -1146890.8, 6710.601, 0.034838606, -0.66037816, -754721.94, 360119.8, 0.00017479192, 10.003419, 9.998214 
2.2853023e+3, 1.9623247e+2, -750102.0, -1100631.4, 14746.644, 0.00048943894, -0.6301099, -749482.7, 267375.25, 0.000000023014687, 10.002807, 9.998154 
2.2852466e+3, 2.0623079e+2, -721648.9, -929037.0, 20723.889, 0.015086506, -0.64064986, -719598.25, 199275.36, 0.0, 10.001867, 9.99911 
2.2851911e+3, 2.1622936e+2, -801419.94, -935155.6, 11232.208, 0.062108617, -0.68087286, -800483.1, 20403.064, 0.0, 10.000726, 9.998946 
2.285135e+3, 2.2622801e+2, -781955.5, -850885.9, 10033.331, 0.041074637, -0.6966296, -780524.75, -57625.617, 0.0, 10.000083, 9.999161 
2.2850786e+3, 2.3622704e+2, -736149.1, -784323.56, 25037.494, -0.021408852, -0.6966556, -725493.44, -100584.26, 0.0, 9.999752, 9.9991045 
2.2850232e+3, 2.462268e+2, -693594.2, -605617.56, 38505.223, 0.0051913327, -0.6582186, -591145.44, -64232.86, 0.0, 9.998909, 10.000065 
2.2849685e+3, 2.562273e+2, -774485.25, -607180.8, 26748.318, 0.085094534, -0.6005466, -603008.4, -174099.3, 0.0, 9.997738, 9.999946 
2.284913e+3, 2.66227e+2, -751762.7, -489480.72, 26403.346, 0.07373095, -0.62760115, -486849.16, -155936.73, 0.0, 9.996981, 10.000444 
2.2848569e+3, 2.7622652e+2, -736192.06, -444617.28, 41108.266, 0.014955044, -0.7060043, -438932.38, -206015.55, 0.0, 9.996471, 10.000326 
2.2848018e+3, 2.862274e+2, -696127.9, -299680.38, 37386.594, 0.036443613, -0.6614823, -296185.47, -161275.23, 0.0, 9.995752, 10.000995 
2.2847466e+3, 2.9622936e+2, -730034.94, -271671.13, 24638.195, 0.07653883, -0.5512721, -270350.56, -233456.25, 0.0, 9.994875, 10.000937 
2.2846897e+3, 3.0623087e+2, -788465.5, -235722.89, -28386.2, 0.0085982755, -0.49281538, -234268.94, -234268.94, 0.0, 9.993969, 10.001286 
2.2846326e+3, 3.1622976e+2, -699970.6, 122152.1, 38148.004, 0.0031167134, -0.7201676, 123918.445, 123918.445, 0.0, 9.993224, 10.0041 
2.2957028e+3, 1.2630755e+2, -975989.06, -1702073.6, -35744.164, 0.011373241, -0.5430176, -974233.7, 727894.56, 0.2280313, 10.0084715, 9.99601 
2.2956455e+3, 1.3630305e+2, -913417.9, -1568456.9, -39111.64, -0.005767497, -0.6741945, -911090.8, 693077.94, 0.16427816, 10.007268, 9.99688 
2.2955893e+3, 1.4629993e+2, -865796.8, -1495433.3, -11416.618, 0.058848, -0.66574997, -865589.9, 640609.75, 0.09983444, 10.00637, 9.9971 
2.2955327e+3, 1.5629746e+2, -826812.6, -1453898.6, -15381.471, 0.022245452, -0.60595626, -826435.56, 581790.3, 0.047733538, 10.005716, 9.99702 
2.2954756e+3, 1.6629493e+2, -746433.75, -1258699.3, -41097.195, 0.00073671463, -0.59217507, -743157.6, 567092.06, 0.016221885, 10.004958, 9.998058 
2.2954182e+3, 1.7629272e+2, -770414.5, -1236389.9, -41825.94, -0.00051454734, -0.6056822, -766690.0, 445578.72, 0.0031459476, 10.004126, 9.997934 
2.2953616e+3, 1.8629022e+2, -737836.44, -1112151.0, -15138.856, 0.011195293, -0.6521437, -737225.1, 377066.22, 0.00018337466, 10.003416, 9.998456 
2.2953051e+3, 1.9628787e+2, -738481.5, -1074811.4, -9398.149, 0.025642293, -0.7199856, -738219.06, 278094.2, 0.00000002796664, 10.002794, 9.99834 
2.2952484e+3, 2.0628649e+2, -736464.75, -960656.6, -21173.52, 0.0310512, -0.6977318, -734482.56, 183844.25, 0.0, 10.001866, 9.998897 
2.2951914e+3, 2.1628597e+2, -808846.75, -955165.5, -26454.59, 0.03308435, -0.6249176, -804210.6, 16121.909, 0.0, 10.00074, 9.998805 
2.295135e+3, 2.2628473e+2, -756178.6, -801170.5, -959.9472, 0.035665836, -0.64333093, -756158.1, -33814.05, 0.0, 10.000094, 9.999499 
2.2950788e+3, 2.3628335e+2, -717760.4, -748393.5, 9318.84, 0.0386167, -0.7180964, -715148.25, -90791.88, 0.0, 9.999756, 9.999352 
2.2950222e+3, 2.4628285e+2, -716971.2, -655786.4, -6319.849, 0.031949446, -0.69736695, -655140.4, -128777.54, 0.0, 9.998911, 9.999722 
2.2949655e+3, 2.562832e+2, -790267.0, -642166.56, -15189.585, 0.016002255, -0.62210786, -640624.75, -212261.88, 0.0, 9.997743, 9.999705 
2.2949094e+3, 2.6628348e+2, -722727.75, -431747.16, 6476.46, 0.02385992, -0.60353965, -431603.06, -101242.46, 0.0, 9.996986, 10.000841 
2.2948538e+3, 2.7628404e+2, -711878.44, -398493.1, 20051.113, 0.059559867, -0.617754, -397215.38, -164861.47, 0.0, 9.996485, 10.000639 
2.2947976e+3, 2.8628454e+2, -712666.94, -337423.1, 2529.8936, 0.071729526, -0.608209, -337406.06, -203055.73, 0.0, 9.995762, 10.000733 
2.2947407e+3, 2.962852e+2, -747992.6, -310090.88, -12214.8, 0.022017196, -0.60205346, -309750.44, -273403.5, 0.0, 9.994874, 10.000676 
2.2946836e+3, 3.062858e+2, -777103.94, -213647.67, -62260.723, 0.019618055, -0.6285065, -206850.0, -206850.0, 0.0, 9.993969, 10.001441 
2.2946258e+3, 3.162881e+2, -709349.7, 96447.74, 36155.863, 0.013069741, -0.532609, 98066.79, 98066.79, 0.0, 9.993247, 10.003915 
2.3057114e+3, 1.2636417e+2, -1044806.25, -1718756.8, 3977.2954, 0.06723831, -0.53695405, -1044782.75, 656791.06, 0.22921602, 10.00776, 9.996233 
2.3056526e+3, 1.3635975e+2, -911052.94, -1549439.0, -56.450153, -0.010936779, -0.6808651, -911052.94, 692560.1, 0.1651961, 10.007207, 9.997062 
2.3055954e+3, 1.4635684e+2, -861764.3, -1491400.4, 29179.475, 0.03867969, -0.65715694, -860414.94, 645226.4, 0.10044358, 10.006402, 9.99711 
2.305538e+3, 1.563543e+2, -857980.75, -1467245.1, 20752.691, 0.026257697, -0.60610074, -857274.7, 550393.75, 0.048060894, 10.005488, 9.997034 
2.3054802e+3, 1.6635172e+2, -777077.5, -1269546.5, -3603.2993, 0.008246759, -0.6001468, -777051.1, 532641.9, 0.016355744, 10.004735, 9.998087 
2.3054221e+3, 1.7634949e+2, -775016.8, -1233555.0, -2040.9862, -0.004534315, -0.6168354, -775007.75, 436704.66, 0.0031875405, 10.00408, 9.9979725 
2.3053648e+3, 1.8634714e+2, -752855.2, -1103512.8, 19075.654, 0.006878758, -0.65730715, -751820.56, 361913.2, 0.00019047805, 10.003251, 9.99859 
2.3053077e+3, 1.9634499e+2, -799919.94, -1091862.6, 15929.324, 0.02932391, -0.7164937, -799053.3, 216700.13, 0.000000034904282, 10.002324, 9.9984455 
2.30525e+3, 2.063436e+2, -760898.0, -978622.3, 8415.555, 0.029429937, -0.693608, -760573.2, 157194.0, 0.0, 10.001731, 9.998836 
2.3051922e+3, 2.1634302e+2, -725023.94, -918386.5, 12395.954, 0.01786719, -0.62207615, -724232.5, 95541.67, 0.0, 10.001338, 9.998766 
2.305135e+3, 2.2634181e+2, -703228.75, -761699.9, 29869.893, 0.027920347, -0.6396187, -690668.0, 31117.172, 0.0, 10.000403, 9.999619 
2.305078e+3, 2.3634055e+2, -800202.25, -776384.8, 25076.496, 0.0521851, -0.7132824, -760533.0, -136737.13, 0.0, 9.9991455, 9.999452 
2.3050207e+3, 2.4634004e+2, -779959.2, -687162.94, 20880.766, 0.03932698, -0.69601756, -682680.9, -156878.5, 0.0, 9.998488, 9.999707 
2.3049632e+3, 2.5634032e+2, -728924.44, -614328.94, 34739.21, 0.0000778634, -0.62569076, -604620.4, -176816.98, 0.0, 9.998176, 9.999685 
2.3049062e+3, 2.6634058e+2, -678533.06, -414322.97, 40762.234, 0.011284525, -0.6034663, -408177.16, -78375.79, 0.0, 9.997311, 10.000802 
2.30485e+3, 2.7634117e+2, -764491.06, -425207.47, 23254.422, 0.06931906, -0.6111024, -423621.03, -191826.47, 0.0, 9.996136, 10.000621 
2.3047931e+3, 2.863418e+2, -748143.9, -342654.13, 15464.011, 0.07344092, -0.594857, -342065.25, -208275.69, 0.0, 9.995473, 10.000834 
2.3047353e+3, 2.9634267e+2, -718656.2, -287193.1, 23910.375, -0.0063572903, -0.5753754, -285872.1, -250088.67, 0.0, 9.995042, 10.000751 
2.3046777e+3, 3.0634236e+2, -730013.06, -187509.11, -24155.283, 0.053311635, -0.6951615, -186435.7, -186435.7, 0.0, 9.994282, 10.001468 
2.3046187e+3, 3.1634572e+2, -695231.06, 55869.035, 72105.945, -0.0321009, -0.49780875, 62728.59, 62728.59, 0.0, 9.993556, 10.003483 
2.3157194e+3, 1.2642136e+2, -1031022.4, -1685693.3, -8085.3125, 0.11824718, -0.57982385, -1030922.56, 670091.3, 0.22984415, 10.007762, 9.9964905 
2.3156597e+3, 1.364179e+2, -901459.1, -1530086.0, -18793.143, -0.0009189544, -0.6478216, -900897.8, 702146.1, 0.1657218, 10.007211, 9.997221 
2.3156016e+3, 1.4641525e+2, -867531.0, -1504760.4, -1972.9207, 0.023611104, -0.5981826, -867524.94, 637544.5, 0.100804076, 10.006405, 9.99701 
2.3155431e+3, 1.564122e+2, -863468.44, -1479129.0, -9942.585, 0.0066977562, -0.5885752, -863307.94, 543793.06, 0.04825251, 10.005484, 9.996958 
2.3154849e+3, 1.6640918e+2, -774410.44, -1263525.3, -26282.807, 0.0036618917, -0.62554085, -773002.2, 536127.3, 0.016431803, 10.004727, 9.998135 
2.3154263e+3, 1.7640659e+2, -773232.56, -1229031.4, -26127.78, 0.015863711, -0.6827568, -771739.75, 439412.56, 0.0032125083, 10.00407, 9.998011 
2.3153679e+3, 1.8640475e+2, -751702.5, -1102625.3, -14439.4, 0.0179429, -0.6728794, -751109.3, 362059.8, 0.00019542017, 10.003253, 9.998599 
2.3153096e+3, 1.9640364e+2, -796965.8, -1089762.9, -15048.282, 0.01186272, -0.6293862, -796194.44, 218985.52, 0.000000043907978, 10.0023365, 9.998457 
2.3152515e+3, 2.0640202e+2, -755300.8, -969588.4, -4738.668, 0.011808528, -0.63539314, -755196.06, 161999.83, 0.0, 10.001737, 9.998897 
2.3151934e+3, 2.164004e+2, -723335.06, -914183.56, -4988.1694, 0.015476086, -0.67115045, -723204.75, 96007.09, 0.0, 10.001329, 9.998801 
2.315135e+3, 2.2639923e+2, -711121.06, -778456.6, -16623.777, 0.016938295, -0.682128, -707240.6, 13982.306, 0.0, 10.000401, 9.999508 
2.3150769e+3, 2.363986e+2, -802365.7, -784118.0, -17020.48, 0.0184867, -0.6820501, -773930.1, -150701.77, 0.0, 9.999154, 9.999396 
2.315019e+3, 2.4639833e+2, -757910.06, -644730.06, 9459.999, 0.027995141, -0.65484285, -643944.8, -118712.86, 0.0, 9.998498, 9.999996 
2.3149614e+3, 2.5639862e+2, -714592.6, -589007.75, 18006.543, 0.037645686, -0.611676, -586476.94, -159245.47, 0.0, 9.998189, 9.999855 
2.3149036e+3, 2.6639825e+2, -713194.8, -488910.4, -6034.0547, 0.035747133, -0.62941957, -488748.2, -159512.4, 0.0, 9.997317, 10.000289 
2.3148458e+3, 2.763978e+2, -791166.8, -480567.84, -18228.373, 0.03955824, -0.6900467, -479501.72, -248261.33, 0.0, 9.99613, 10.000246 
2.3147881e+3, 2.8639904e+2, -713943.9, -272619.06, -1002.1757, 0.03883864, -0.62273693, -272616.78, -139387.64, 0.0, 9.995471, 10.001319 
2.3147303e+3, 2.964018e+2, -686740.06, -226594.94, 2378.546, -0.005204044, -0.46596834, -226582.64, -191378.7, 0.0, 9.995061, 10.001161 
2.3146726e+3, 3.0640063e+2, -740760.56, -214857.36, -58901.89, 0.11039939, -0.6787716, -208341.0, -208341.0, 0.0, 9.994297, 10.001275 
2.3146115e+3, 3.164021e+2, -721341.44, -2357.293, 35051.61, -0.07285457, -0.64719886, -652.5138, -652.5138, 0.0, 9.993564, 10.003083 
2.3257273e+3, 1.264801e+2, -1028193.25, -1695760.6, 45066.438, 0.1406323, -0.58925605, -1025164.6, 675273.1, 0.22974889, 10.007853, 9.996354 
2.3256667e+3, 1.3647671e+2, -894227.75, -1543997.4, 11041.532, -0.010057119, -0.62556773, -894040.2, 708428.3, 0.16572616, 10.007361, 9.997031 
2.3256077e+3, 1.4647411e+2, -853681.1, -1486910.9, 13750.008, 0.009646093, -0.56960505, -853382.75, 651110.9, 0.10083472, 10.006463, 9.997114 
2.3255485e+3, 1.5647073e+2, -873653.56, -1471937.9, 19553.64, 0.01413584, -0.60054505, -873015.1, 533512.1, 0.04826846, 10.005363, 9.997062 
2.3254892e+3, 1.6646779e+2, -798437.06, -1264399.0, 20435.701, 0.009876277, -0.6395035, -797542.56, 511012.4, 0.01643517, 10.004519, 9.998224 
2.3254299e+3, 1.764655e+2, -804564.4, -1236209.1, 22612.842, 0.008119902, -0.67436814, -803382.94, 407192.2, 0.00321741, 10.003827, 9.998075 
2.3253709e+3, 1.8646368e+2, -765793.1, -1118709.6, 28836.205, 0.007346662, -0.65928894, -763452.5, 349139.72, 0.00019790453, 10.003202, 9.998509 
2.3253118e+3, 1.9646244e+2, -760602.94, -1078289.0, 20784.299, 0.0043890364, -0.619536, -759248.9, 255355.8, 0.000000051889515, 10.002619, 9.998396 
2.3252529e+3, 2.064608e+2, -749054.75, -952479.5, 30481.125, 0.005904062, -0.6290984, -744585.6, 172034.98, 0.0, 10.001725, 9.999017 
2.325194e+3, 2.1645926e+2, -814902.9, -947355.06, 33336.42, 0.010834429, -0.669158, -806985.75, 11649.8955, 0.0, 10.00066, 9.998894 
2.325135e+3, 2.2645812e+2, -759468.5, -808174.9, 25027.867, 0.008322738, -0.6756828, -748900.75, -28254.338, 0.0, 10.000101, 9.999445 
2.3250759e+3, 2.3645753e+2, -709936.75, -745888.6, 27364.424, 0.0037172704, -0.6643165, -695172.1, -72520.29, 0.0, 9.999822, 9.999335 
2.3250176e+3, 2.4645719e+2, -701830.56, -620329.06, 38478.926, 0.020822342, -0.6394651, -605032.94, -80376.766, 0.0, 9.998899, 9.999968 
2.3249595e+3, 2.564573e+2, -801109.2, -632601.94, 24074.723, 0.04782172, -0.6068903, -629229.9, -202572.98, 0.0, 9.99761, 9.999831 
2.3249006e+3, 2.6645696e+2, -762049.1, -505955.03, 19732.441, 0.044779137, -0.62712437, -504443.53, -175782.64, 0.0, 9.996961, 10.000341 
2.3248418e+3, 2.764565e+2, -716879.4, -442332.78, 47971.395, 0.03342767, -0.6887906, -434192.16, -203527.28, 0.0, 9.996635, 10.000262 
2.3247835e+3, 2.8645757e+2, -687564.44, -273218.7, 48490.496, 0.020466523, -0.6327515, -267619.56, -134963.88, 0.0, 9.995716, 10.001193 
2.3247246e+3, 2.9646015e+2, -772655.25, -276107.5, 5288.2974, -0.01992224, -0.47982264, -276051.2, -241418.69, 0.0, 9.9945135, 10.0010805 
2.3246667e+3, 3.0645958e+2, -759216.75, -204443.97, -45825.773, 0.12945369, -0.64186436, -200684.11, -200684.11, 0.0, 9.994095, 10.001441 
2.3246053e+3, 3.1646118e+2, -678450.4, 15315.385, 59874.76, -0.069663964, -0.6037821, 20444.89, 20444.89, 0.0, 9.993874, 10.003055 
2.3357348e+3, 1.2654011e+2, -1047501.75, -1759413.5, 31923.762, 0.13666557, -0.5817225, -1046073.06, 653775.6, 0.22876827, 10.007893, 9.995894 
2.3356736e+3, 1.3653624e+2, -923969.1, -1602139.0, -6066.167, -0.03492553, -0.6111644, -923914.9, 677971.7, 0.16507533, 10.007333, 9.996569 
2.3356138e+3, 1.4653346e+2, -841763.56, -1458050.9, -21965.979, -0.0036458925, -0.5645557, -840981.6, 662931.6, 0.10044871, 10.0064335, 9.997352 
2.3355542e+3, 1.5652992e+2, -859338.94, -1440541.3, -16155.599, 0.042599022, -0.6363983, -858890.25, 547057.06, 0.04806713, 10.005356, 9.997284 
2.3354939e+3, 1.6652745e+2, -790306.9, -1249962.1, -3705.4282, 0.023585996, -0.6432669, -790277.0, 517693.3, 0.01635231, 10.004525, 9.998325 
2.3354334e+3, 1.7652601e+2, -798883.56, -1227665.6, -1900.7813, -0.024853576, -0.6024831, -798875.1, 411107.72, 0.003200127, 10.003836, 9.998132 
2.3353735e+3, 1.8652378e+2, -778475.56, -1146966.5, 7981.9844, -0.021970326, -0.62173945, -778302.75, 333701.4, 0.00019783615, 10.003205, 9.998317 
2.3353142e+3, 1.9652134e+2, -771320.1, -1100253.5, -1779.2615, 0.005874012, -0.6803874, -771310.5, 242717.33, 0.000000054038466, 10.002612, 9.998251 
2.3352544e+3, 2.0651996e+2, -737873.4, -930730.44, -8316.188, 0.009931411, -0.6685515, -737515.44, 178526.05, 0.0, 10.001727, 9.999168 
2.3351946e+3, 2.1651946e+2, -804049.25, -929094.2, -908.16, 0.0020484263, -0.6190651, -804042.7, 14003.939, 0.0, 10.000672, 9.999015 
2.335135e+3, 2.2651838e+2, -760200.7, -813503.4, 15653.654, 0.0016737629, -0.6235705, -755943.56, -35886.754, 0.0, 10.000113, 9.999405 
2.3350757e+3, 2.3651722e+2, -715207.94, -759461.9, 11722.012, 0.006279162, -0.66074204, -712294.75, -90227.56, 0.0, 9.999827, 9.999242 
2.3350161e+3, 2.4651651e+2, -726637.56, -673419.0, -11311.421, 0.01668257, -0.6496815, -671114.6, -147038.66, 0.0, 9.998901, 9.999604 
2.3349565e+3, 2.5651637e+2, -816200.0, -665447.94, -19937.354, 0.028035045, -0.61130404, -662855.75, -236775.17, 0.0, 9.997612, 9.999608 
2.3348975e+3, 2.665166e+2, -718261.8, -416881.47, 7302.369, 0.038195614, -0.5945162, -416704.63, -88627.27, 0.0, 9.9969635, 10.000954 
2.3348387e+3, 2.7651733e+2, -686413.0, -384548.72, 29811.379, 0.05225785, -0.60091895, -381632.78, -151564.94, 0.0, 9.996654, 10.000653 
2.3347788e+3, 2.8651723e+2, -743985.9, -394203.6, -236.33142, 0.017575638, -0.6266566, -394203.44, -262133.27, 0.0, 9.995727, 10.0003605 
2.3347186e+3, 2.965174e+2, -819137.4, -371264.66, -35492.832, -0.05781599, -0.63324505, -368469.38, -334396.78, 0.0, 9.994502, 10.000436 
2.3346604e+3, 3.065191e+2, -718289.9, -119287.82, -50762.74, 0.110620536, -0.5728509, -115016.37, -115016.37, 0.0, 9.994089, 10.00203 
2.334599e+3, 3.1652123e+2, -670002.5, 27963.947, 27474.086, -0.040345486, -0.53876996, 29043.74, 29043.74, 0.0, 9.993887, 10.003139 
2.3457427e+3, 1.2660062e+2, -964807.94, -1691415.1, 29820.057, 0.09225917, -0.5731203, -963586.1, 735669.9, 0.22677892, 10.008533, 9.996062 
2.3456809e+3, 1.3659671e+2, -970757.8, -1625737.1, 22962.26, -0.0012175712, -0.60762364, -969953.8, 631340.8, 0.16366492, 10.006925, 9.996603 
2.3456201e+3, 1.4659406e+2, -900264.75, -1468024.9, 25668.309, 0.026841238, -0.5587643, -899106.7, 604213.4, 0.09957764, 10.005902, 9.997526 
2.3455591e+3, 1.5659063e+2, -870059.3, -1431167.4, 29907.645, 0.0395967, -0.6369223, -868469.7, 536883.06, 0.04761575, 10.0052185, 9.997412 
2.345498e+3, 1.6658816e+2, -794338.8, -1265293.4, 38865.504, 0.01759348, -0.639178, -791153.0, 516222.94, 0.016172556, 10.00456, 9.9981985 
2.345437e+3, 1.765867e+2, -792731.25, -1234142.1, 24994.232, -0.019197982, -0.5858728, -791320.5, 418068.8, 0.003158669, 10.003925, 9.998041 
2.3453765e+3, 1.8658447e+2, -779390.1, -1130476.6, 40662.727, -0.019879777, -0.60881114, -774742.1, 336668.3, 0.0001949189, 10.003132, 9.998462 
2.3453164e+3, 1.9658202e+2, -817461.56, -1111638.8, 52080.29, -0.0024437627, -0.68148196, -808513.56, 204919.94, 0.00000004796778, 10.0022545, 9.998342 
2.3452559e+3, 2.0658056e+2, -759392.7, -960806.56, 38731.906, -0.0022732546, -0.66768926, -752201.3, 163246.61, 0.0, 10.00167, 9.998986 
2.3451951e+3, 2.1658002e+2, -732874.44, -911655.2, 22100.213, -0.009899079, -0.6048466, -730183.0, 87271.195, 0.0, 10.00124, 9.998858 
2.345135e+3, 2.2657888e+2, -719734.75, -794831.6, 33014.6, -0.0021906788, -0.60585004, -707284.7, 12180.317, 0.0, 10.0004, 9.9993925 
2.3450752e+3, 2.365777e+2, -789101.7, -797134.06, 30208.047, 0.014846715, -0.6456965, -762644.0, -141168.19, 0.0, 9.999335, 9.999217 
2.345015e+3, 2.4657686e+2, -763780.0, -698831.06, 15833.907, 0.017010253, -0.64066905, -695176.5, -171690.97, 0.0, 9.998684, 9.999532 
2.3449542e+3, 2.5657654e+2, -730216.8, -631539.75, 28671.709, 0.010712925, -0.610278, -623813.75, -198322.34, 0.0, 9.9982395, 9.999536 
2.3448943e+3, 2.665768e+2, -672171.8, -401231.06, 34121.863, 0.02491996, -0.585634, -396999.9, -69511.52, 0.0, 9.9973135, 10.00089 
2.3448347e+3, 2.7657765e+2, -767803.75, -428184.47, 4765.982, 0.055001367, -0.5726001, -428117.6, -198639.58, 0.0, 9.99612, 10.000607 
2.3447745e+3, 2.865775e+2, -779002.25, -406716.53, -1446.1936, 0.024903502, -0.6053661, -406710.9, -275230.34, 0.0, 9.995474, 10.000393 
2.3447134e+3, 2.965773e+2, -731784.44, -336151.34, 31803.094, -0.050802194, -0.6454568, -333611.16, -300125.78, 0.0, 9.995137, 10.000368 
2.3446544e+3, 3.065788e+2, -676039.4, -122466.87, 5120.359, 0.076919414, -0.58753324, -122419.51, -122419.51, 0.0, 9.994488, 10.001813 
2.344593e+3, 3.1658044e+2, -706005.3, 35959.277, 29737.19, -0.0088393055, -0.5891107, 37149.203, 37149.203, 0.0, 9.993539, 10.003357 
2.3557502e+3, 1.2666157e+2, -932544.44, -1622879.6, -14870.722, 0.014229909, -0.57309127, -932224.25, 766435.7, 0.22374976, 10.008487, 9.99669 
2.3556885e+3, 1.3665812e+2, -950605.6, -1574453.6, -21655.078, 0.077219926, -0.61228615, -949854.8, 650838.44, 0.16146903, 10.006876, 9.997013 
2.3556265e+3, 1.4665578e+2, -895284.56, -1458423.5, 3336.7236, 0.08989579, -0.55156726, -895264.75, 607450.44, 0.09820433, 10.005891, 9.997607 
2.355564e+3, 1.5665263e+2, -864945.0, -1427098.1, 6508.7944, 0.009578815, -0.6087176, -864869.6, 539875.7, 0.046905234, 10.0052395, 9.997432 
2.3555022e+3, 1.6664979e+2, -814737.2, -1313213.5, 16848.996, -0.0044843615, -0.6291677, -814168.4, 492604.38, 0.015891504, 10.004578, 9.99786 
2.3554412e+3, 1.7664762e+2, -808516.0, -1267633.4, 2097.6257, 0.018906267, -0.61690587, -808506.44, 400287.75, 0.0030910568, 10.003922, 9.997816 
2.3553799e+3, 1.8664575e+2, -750079.75, -1071062.0, 8898.991, 0.008191704, -0.6160242, -749833.25, 360977.88, 0.00018864853, 10.003133, 9.998873 
2.3553184e+3, 1.9664429e+2, -797016.9, -1073357.6, 21868.188, -0.021054143, -0.62937254, -795297.06, 217526.44, 0.000000035210917, 10.002268, 9.998602 
2.3552571e+3, 2.0664251e+2, -792507.4, -1033631.06, 23377.8, -0.029298926, -0.6311881, -790261.75, 124579.62, 0.0, 10.001682, 9.998483 
2.355196e+3, 2.1664087e+2, -762076.4, -974398.4, 3835.0657, -0.02582383, -0.6256306, -762007.1, 54851.887, 0.0, 10.001244, 9.998429 
2.3551352e+3, 2.2663961e+2, -719003.9, -795457.2, -6161.954, -0.003951113, -0.62020844, -718510.44, 360.99036, 0.0, 10.000404, 9.999389 
2.3550744e+3, 2.3663884e+2, -785711.0, -793579.44, -5948.0894, 0.027492194, -0.6194253, -782513.75, -161635.31, 0.0, 9.999345, 9.999239 
2.3550135e+3, 2.4663813e+2, -748523.3, -670112.56, -653.05505, 0.021294702, -0.6125076, -670107.06, -147221.44, 0.0, 9.998692, 9.999728 
2.3549521e+3, 2.5663778e+2, -724807.0, -624712.06, 7351.4204, -0.006391913, -0.6029237, -624175.0, -199284.94, 0.0, 9.998254, 9.999578 
2.3548912e+3, 2.6663736e+2, -726673.25, -517132.3, -13399.601, 0.0034467163, -0.60301876, -516278.9, -189383.69, 0.0, 9.99732, 10.0000925 
2.3548305e+3, 2.766372e+2, -804270.44, -503604.25, -38669.113, 0.040154498, -0.6103451, -498710.63, -269813.0, 0.0, 9.996115, 10.000094 
2.3547697e+3, 2.8663823e+2, -711067.44, -266375.56, -15412.834, 0.044424914, -0.5628558, -265842.0, -134954.5, 0.0, 9.995472, 10.001361 
2.3547088e+3, 2.9664013e+2, -690790.4, -257597.47, 18210.453, 0.0045196824, -0.4897033, -256833.28, -223964.95, 0.0, 9.99516, 10.000899 
2.354648e+3, 3.0663818e+2, -754753.3, -291922.47, -30541.986, 0.021394815, -0.7239916, -289915.72, -289915.72, 0.0, 9.994508, 10.000643 
2.3545864e+3, 3.1664056e+2, -684573.94, 80360.81, 22167.375, -0.020869669, -0.55788803, 81002.67, 81002.67, 0.0, 9.993536, 10.003666 
2.3657581e+3, 1.2672399e+2, -976385.6, -1634444.9, 18313.44, 0.0044096964, -0.58288103, -975876.4, 722172.56, 0.21977809, 10.008007, 9.996814 
2.3656951e+3, 1.3672067e+2, -1011247.44, -1604299.8, -4906.636, 0.097060576, -0.60463476, -1011206.9, 588874.25, 0.15856291, 10.006359, 9.997022 
2.365632e+3, 1.4671844e+2, -917034.8, -1460052.8, 47832.234, 0.09994465, -0.5381648, -912853.7, 589248.4, 0.09637259, 10.005678, 9.997693 
2.365569e+3, 1.5671542e+2, -822702.44, -1399449.1, 49673.195, 0.0027031302, -0.58885884, -818455.56, 585675.0, 0.045952518, 10.005517, 9.997485 
2.3655069e+3, 1.6671251e+2, -789211.44, -1308585.8, 57192.99, -0.008953199, -0.61597335, -782988.0, 523170.97, 0.015511886, 10.004795, 9.997784 
2.365445e+3, 1.7671007e+2, -836531.1, -1290947.1, 59792.17, 0.026659163, -0.61840343, -828795.3, 379387.5, 0.0029962468, 10.0037775, 9.997723 
2.3653828e+3, 1.8670815e+2, -771152.3, -1100529.4, 51237.95, 0.015388639, -0.60860234, -763365.8, 346834.97, 0.00017869432, 10.003078, 9.998693 
2.3653206e+3, 1.9670674e+2, -766682.94, -1074434.4, 24600.83, -0.021252416, -0.5985621, -764728.8, 247484.27, 0.000000020158883, 10.002549, 9.998455 
2.3652585e+3, 2.0670481e+2, -760756.25, -1016487.1, 38442.668, -0.030527314, -0.60952055, -755102.4, 159129.8, 0.0, 10.001898, 9.998494 
2.3651971e+3, 2.167029e+2, -773242.56, -981420.1, 52054.77, -0.024166472, -0.63078624, -760951.9, 55299.9, 0.0, 10.00118, 9.998408 
2.3651356e+3, 2.2670156e+2, -713442.75, -810197.8, 39022.65, -0.009057933, -0.6226066, -699666.0, 18599.092, 0.0, 10.000523, 9.999228 
2.3650737e+3, 2.367008e+2, -716574.1, -774841.1, 28782.479, 0.012510208, -0.60221595, -704754.1, -84481.86, 0.0, 9.999888, 9.999104 
2.365012e+3, 2.467e+2, -701850.6, -650168.1, 23289.504, 0.013546277, -0.59715396, -641221.9, -118941.734, 0.0, 9.999029, 9.9997 
2.3649502e+3, 2.5669947e+2, -760322.6, -647890.7, 14060.629, 0.0008092823, -0.6007857, -646159.0, -221873.47, 0.0, 9.998042, 9.999517 
2.3648882e+3, 2.6669887e+2, -744237.2, -553184.7, 8099.5884, 0.00055392453, -0.60294896, -552841.94, -226549.13, 0.0, 9.997326, 9.99984 
2.3648266e+3, 2.7669847e+2, -727891.2, -488734.84, 23618.707, 0.019781534, -0.60835785, -486424.63, -258126.17, 0.0, 9.996739, 9.999892 
2.3647654e+3, 2.866994e+2, -636329.7, -220354.53, 24321.64, 0.045499016, -0.5645263, -218937.3, -88648.36, 0.0, 9.995948, 10.001444 
2.3647042e+3, 2.9670134e+2, -712366.5, -264179.63, -10673.802, 0.035089444, -0.49069473, -263925.56, -231657.5, 0.0, 9.995001, 10.000928 
2.3646419e+3, 3.066997e+2, -813609.56, -325303.56, -26995.988, 0.001274722, -0.69148576, -323815.63, -323815.63, 0.0, 9.99413, 10.000594 
2.3645796e+3, 3.1670237e+2, -705110.56, 47260.336, 121273.06, -0.024788935, -0.4970349, 66325.0, 66325.0, 0.0, 9.993504, 10.00345 
2.3757663e+3, 1.2678762e+2, -998854.4, -1673199.0, -31872.127, 0.042395536, -0.60599744, -997351.4, 700074.1, 0.21506624, 10.007915, 9.996516 
2.3757009e+3, 1.3678432e+2, -1024549.2, -1651173.4, -48251.992, 0.066104196, -0.586606, -1020855.44, 578603.7, 0.15509225, 10.006389, 9.996692 
2.3756371e+3, 1.46782e+2, -905084.8, -1448900.4, 43949.074, 0.066092715, -0.51934826, -901555.94, 599925.1, 0.09416526, 10.005723, 9.997758 
2.3755744e+3, 1.5677899e+2, -818541.4, -1391402.5, 39489.387, 0.014886135, -0.5754517, -815832.06, 587676.75, 0.044792302, 10.005507, 9.997551 
2.3755115e+3, 1.6677618e+2, -781764.4, -1292366.1, 19083.926, 0.0007458326, -0.6000286, -781052.06, 524483.3, 0.015044018, 10.004785, 9.997903 
2.3754482e+3, 1.7677392e+2, -835497.9, -1293767.9, 24115.494, 0.0078115896, -0.59582454, -834232.3, 373324.78, 0.0028760547, 10.003794, 9.997698 
2.3753855e+3, 1.8677154e+2, -817966.06, -1203275.6, 31856.852, 0.0044726413, -0.58898985, -815349.94, 294230.63, 0.0001653837, 10.003097, 9.997982 
2.375323e+3, 1.9676934e+2, -801458.0, -1149629.4, 5680.575, -0.0058693043, -0.58756274, -801365.4, 210236.94, 0.0000000080542115, 10.002557, 9.997938 
2.3752604e+3, 2.0676745e+2, -726755.7, -948559.1, 13046.667, -0.009029591, -0.600708, -725990.9, 187629.36, 0.0, 10.001904, 9.9989605 
2.3751983e+3, 2.1676598e+2, -749403.9, -934554.06, 26600.092, -0.008321588, -0.6218966, -745658.06, 69975.39, 0.0, 10.001186, 9.998731 
2.3751357e+3, 2.267646e+2, -735040.8, -857867.1, 15814.825, -0.01831745, -0.61377203, -733037.25, -15390.225, 0.0, 10.00053, 9.998899 
2.375073e+3, 2.367635e+2, -737307.8, -821033.0, 2984.8186, -0.031109223, -0.59429646, -737201.56, -117543.46, 0.0, 9.999896, 9.998785 
2.3750106e+3, 2.4676237e+2, -719746.7, -689293.56, -14710.442, -0.005962029, -0.5949008, -683348.3, -161678.56, 0.0, 9.999033, 9.999432 
2.3749483e+3, 2.567615e+2, -771351.94, -673190.94, -21781.838, 0.03207356, -0.6036833, -668574.7, -244896.16, 0.0, 9.998048, 9.999344 
2.3748855e+3, 2.6676124e+2, -722502.0, -510499.0, -14828.872, 0.016138181, -0.58318853, -509466.78, -183785.17, 0.0, 9.997331, 10.0001335 
2.3748228e+3, 2.7676138e+2, -718996.25, -475282.84, 368.0181, -0.011005434, -0.5619774, -475282.28, -247601.97, 0.0, 9.996757, 9.999979 
2.374761e+3, 2.867608e+2, -698009.44, -352552.63, -13288.809, 0.02479822, -0.62027544, -352042.22, -222355.55, 0.0, 9.995961, 10.000533 
2.374699e+3, 2.967606e+2, -748796.5, -340025.72, -52369.164, 0.042146333, -0.67585105, -333423.16, -301733.78, 0.0, 9.994997, 10.000412 
2.374636e+3, 3.0676386e+2, -729909.3, -148764.88, -56092.453, 0.019281052, -0.43620068, -143400.31, -143400.31, 0.0, 9.994113, 10.001818 
2.3745732e+3, 3.1676355e+2, -750662.56, -45977.17, 106922.875, 0.0027325856, -0.64228845, -30110.857, -30110.857, 0.0, 9.993495, 10.002816 
2.385774e+3, 1.2685262e+2, -1107738.6, -1723318.1, -13999.16, 0.10190279, -0.5572514, -1107420.5, 589370.1, 0.2098478, 10.006871, 9.996632 
2.385707e+3, 1.3684893e+2, -947947.7, -1612382.1, -4141.954, 0.02863998, -0.5770619, -947921.9, 650905.4, 0.15121518, 10.007008, 9.996654 
2.3856428e+3, 1.468463e+2, -835980.06, -1434615.1, 86384.07, 0.027554471, -0.5270328, -823764.0, 677087.94, 0.09167095, 10.006328, 9.997569 
2.3855798e+3, 1.5684323e+2, -869726.4, -1435934.6, 66981.84, 0.036270816, -0.5692667, -861910.4, 540969.94, 0.04346575, 10.005219, 9.997379 
2.3855162e+3, 1.668404e+2, -821454.06, -1321922.9, 31963.857, 0.023972243, -0.58096117, -819420.9, 485486.28, 0.014504404, 10.004556, 9.997807 
2.3854521e+3, 1.7683814e+2, -794161.56, -1283385.4, 22975.176, 0.0022232062, -0.566733, -793084.94, 413844.16, 0.0027355675, 10.004126, 9.997606 
2.3853886e+3, 1.8683551e+2, -769808.0, -1186713.4, 55257.523, 0.0003829484, -0.5773168, -762608.4, 346346.22, 0.00014974258, 10.003463, 9.997916 
2.3853254e+3, 1.9683294e+2, -789457.25, -1152612.9, 70621.48, 0.007921136, -0.6052849, -776207.2, 234772.28, 0.0000000017673162, 10.002684, 9.997853 
2.3852624e+3, 2.0683105e+2, -726073.1, -962250.56, 63853.594, 0.0034268026, -0.6048534, -709915.0, 203082.53, 0.0, 10.001975, 9.99883 
2.3851992e+3, 2.168298e+2, -740725.4, -942185.7, 35426.19, -0.006643329, -0.5916774, -734677.3, 80331.82, 0.0, 10.001302, 9.998619 
2.385136e+3, 2.2682823e+2, -722253.9, -856021.3, 25737.842, -0.01754708, -0.59400946, -717472.6, -448.45, 0.0, 10.000641, 9.998857 
2.3850727e+3, 2.3682676e+2, -730156.6, -824546.0, 31999.16, -0.025923956, -0.6054294, -720331.25, -101293.14, 0.0, 9.999981, 9.998717 
2.3850095e+3, 2.4682547e+2, -693939.4, -693339.75, 20464.127, -0.006430087, -0.6085267, -673173.25, -152122.05, 0.0, 9.999287, 9.999278 
2.3849463e+3, 2.5682455e+2, -705706.44, -655653.3, 21674.93, 0.023623962, -0.60710615, -647572.0, -224511.19, 0.0, 9.998566, 9.999212 
2.3848829e+3, 2.6682425e+2, -668673.94, -486925.34, 17779.463, 0.010457727, -0.5801215, -485202.44, -160138.53, 0.0, 9.997717, 10.000106 
2.3848194e+3, 2.7682447e+2, -718183.75, -480156.3, 8894.2295, -0.009341329, -0.5509214, -479824.44, -252762.64, 0.0, 9.996791, 9.999926 
2.3847567e+3, 2.8682354e+2, -707008.5, -373012.4, 20533.328, 0.018619606, -0.6279078, -371754.8, -242683.44, 0.0, 9.995976, 10.0003805 
2.3846936e+3, 2.9682273e+2, -726832.6, -338271.2, 33316.42, 0.02258981, -0.728082, -335435.22, -304354.56, 0.0, 9.995195, 10.000324 
2.3846301e+3, 3.068272e+2, -708455.5, -131320.17, -7954.971, 0.03035928, -0.37264797, -131210.55, -131210.55, 0.0, 9.994235, 10.001875 
2.3845667e+3, 3.1682593e+2, -777135.56, -33709.273, 58218.04, 0.016811155, -0.67447996, -29177.816, -29177.816, 0.0, 9.993208, 10.0030365 
2.3957813e+3, 1.2691876e+2, -1084281.3, -1670135.0, -12574.469, 0.17010236, -0.4602214, -1084011.5, 612134.7, 0.20433791, 10.006829, 9.997061 
2.3957133e+3, 1.3691443e+2, -934014.75, -1588260.1, -7237.084, -0.014282244, -0.5759706, -933934.7, 664251.7, 0.1470722, 10.007005, 9.996833 
2.3956485e+3, 1.469113e+2, -859124.6, -1490009.3, 46330.22, -0.014029747, -0.5571828, -855740.4, 644475.0, 0.08897081, 10.006337, 9.997149 
2.3955852e+3, 1.5690811e+2, -893249.1, -1492420.3, 29998.436, 0.06334559, -0.5693322, -891751.0, 510494.44, 0.042016312, 10.005231, 9.996987 
2.3955208e+3, 1.669052e+2, -838766.75, -1363940.5, 16289.503, 0.056389246, -0.5587702, -838262.0, 466012.06, 0.0139135495, 10.004572, 9.997513 
2.395456e+3, 1.7690277e+2, -802665.8, -1305755.9, 5893.075, 0.0066332663, -0.53140956, -802596.75, 403701.56, 0.0025818418, 10.00414, 9.997448 
2.3953919e+3, 1.8690005e+2, -734417.25, -1116877.3, 26424.434, 0.0018091497, -0.5723845, -732600.2, 375722.97, 0.00013311963, 10.003473, 9.998393 
2.3953281e+3, 1.9689745e+2, -770426.5, -1115567.6, 41725.676, 0.019201763, -0.64952284, -765453.75, 244891.97, 0.000000000116293294, 10.002689, 9.998108 
2.3952642e+3, 2.0689555e+2, -773150.7, -1063215.4, 38637.03, 0.007106937, -0.6201335, -768092.4, 144272.5, 0.0, 10.001984, 9.998135 
2.3952001e+3, 2.1689425e+2, -775836.94, -1018607.7, 11678.375, -0.01912422, -0.542175, -775276.44, 39103.098, 0.0, 10.001312, 9.998093 
2.3951367e+3, 2.268924e+2, -705927.75, -824872.25, 2040.6589, -0.006913093, -0.5644284, -705892.75, 10504.232, 0.0, 10.0006485, 9.999069 
2.395073e+3, 2.3689054e+2, -718157.56, -802187.06, 6834.372, 0.024479816, -0.6353621, -717605.4, -99192.44, 0.0, 9.999987, 9.998871 
2.3950088e+3, 2.4688928e+2, -697052.7, -702269.4, -7172.8696, 0.010177652, -0.63745993, -692028.6, -171603.53, 0.0, 9.999292, 9.999218 
2.3949441e+3, 2.5688854e+2, -712527.5, -673426.2, -7268.613, -0.028280998, -0.6110434, -672118.7, -249685.67, 0.0, 9.998576, 9.999087 
2.39488e+3, 2.6688784e+2, -694738.9, -543685.44, -18787.742, -0.016970698, -0.5956904, -541383.75, -216943.05, 0.0, 9.997725, 9.999715 
2.3948164e+3, 2.7688757e+2, -731463.06, -509843.56, -26502.584, 0.028000563, -0.57586455, -506718.28, -280274.2, 0.0, 9.996796, 9.9997225 
2.3947525e+3, 2.8688774e+2, -661912.25, -281047.1, -10222.745, 0.027609875, -0.57892627, -280772.9, -152329.94, 0.0, 9.995978, 10.001015 
2.394688e+3, 2.9688796e+2, -702777.8, -290469.25, 731.26056, -0.031539347, -0.6330804, -290467.94, -260027.39, 0.0, 9.995199, 10.000653 
2.394624e+3, 3.0688915e+2, -794547.9, -311280.56, -46532.836, 0.032140043, -0.5448024, -306840.78, -306840.78, 0.0, 9.994235, 10.000643 
2.3945598e+3, 3.1689e+2, -704733.2, 117525.13, -32140.305, 0.03230986, -0.5290522, 118779.51, 118779.51, 0.0, 9.993196, 10.0040865 
2.4057876e+3, 1.2698449e+2, -1130005.4, -1694030.5, 23385.422, 0.17150871, -0.4470683, -1129037.5, 566466.3, 0.19870909, 10.006398, 9.997063 
2.4057202e+3, 1.3698041e+2, -956042.5, -1607579.6, 5659.0557, -0.0063333907, -0.5326693, -955993.3, 641548.1, 0.1427804, 10.006832, 9.996772 
2.4056545e+3, 1.46977e+2, -863024.75, -1510457.5, 25007.854, -0.012594803, -0.5293627, -862060.25, 637512.94, 0.086138286, 10.006376, 9.996982 
2.4055903e+3, 1.5697353e+2, -868533.75, -1495367.9, 25983.871, 0.060424265, -0.5540027, -867458.5, 534147.5, 0.04048697, 10.005472, 9.996848 
2.4055254e+3, 1.6697045e+2, -797397.4, -1343593.4, 46744.133, 0.058580436, -0.55304855, -793425.8, 510210.1, 0.013292077, 10.004863, 9.99751 
2.4054602e+3, 1.769679e+2, -765986.56, -1289018.8, 50980.508, 0.017659126, -0.5359864, -761063.8, 444597.25, 0.0024218005, 10.004401, 9.997435 
2.4053952e+3, 1.8696529e+2, -709386.06, -1108320.0, 41843.215, 0.0077071567, -0.5632789, -705044.5, 402640.34, 0.000116737436, 10.003666, 9.998356 
2.4053305e+3, 1.969629e+2, -757164.9, -1112901.9, 24150.182, 0.013838772, -0.61495674, -755532.9, 254172.48, 0.000000000004061441, 10.002803, 9.998069 
2.4052662e+3, 2.0696078e+2, -751922.9, -1059124.5, 46051.566, 0.0066261115, -0.60000306, -745168.0, 166558.2, 0.0, 10.002162, 9.998074 
2.4052016e+3, 2.169591e+2, -735346.25, -1005498.3, 59885.387, -0.00654257, -0.55369645, -722666.44, 91077.9, 0.0, 10.001624, 9.998029 
2.4051373e+3, 2.269572e+2, -685803.44, -819545.06, 45497.934, 0.0053648786, -0.5735345, -671793.06, 43968.965, 0.0, 10.000812, 9.999024 
2.4050727e+3, 2.3695548e+2, -739728.8, -817296.9, 33255.766, 0.031467967, -0.62658095, -727423.2, -109646.555, 0.0, 9.999865, 9.998823 
2.4050078e+3, 2.4695417e+2, -712326.0, -714278.0, 19794.295, 0.014277943, -0.6262234, -693483.6, -173694.42, 0.0, 9.999212, 9.999171 
2.4049427e+3, 2.5695333e+2, -700628.9, -672400.94, 18714.695, -0.025477776, -0.6054956, -663074.7, -241276.25, 0.0, 9.998683, 9.999041 
2.4048777e+3, 2.6695248e+2, -667708.1, -532291.0, 17247.676, -0.013476853, -0.602691, -530128.75, -206321.25, 0.0, 9.997923, 9.999695 
2.4048132e+3, 2.7695203e+2, -696829.25, -494567.06, 35654.445, 0.033047248, -0.5956713, -488466.0, -262653.84, 0.0, 9.997046, 9.999703 
2.4047484e+3, 2.8695244e+2, -648481.8, -278224.34, 26399.738, 0.021743897, -0.5680563, -276351.5, -148542.78, 0.0, 9.996093, 10.000976 
2.404683e+3, 2.9695302e+2, -716695.94, -294195.56, -13096.491, -0.04529829, -0.58293134, -293790.0, -263986.56, 0.0, 9.995094, 10.000676 
2.4046184e+3, 3.069534e+2, -768922.75, -277067.6, -4142.146, 0.048560925, -0.5894636, -277032.72, -277032.72, 0.0, 9.994324, 10.000831 
2.404553e+3, 3.1695393e+2, -682593.3, 96368.51, 55796.1, 0.036668755, -0.6155688, 100344.82, 100344.82, 0.0, 9.993497, 10.003789 
2.4157934e+3, 1.2704998e+2, -1139525.9, -1739268.4, 31613.256, 0.11873779, -0.504209, -1137864.1, 556998.06, 0.19307163, 10.006442, 9.996732 
2.4157272e+3, 1.3704693e+2, -968409.56, -1645773.5, 10850.833, 0.04009724, -0.4534044, -968235.75, 628656.06, 0.13843253, 10.00683, 9.996512 
2.415661e+3, 1.4704339e+2, -860529.7, -1508329.4, -7397.793, 0.020123128, -0.45420513, -860445.2, 638479.9, 0.08324321, 10.006365, 9.9970045 
2.4155952e+3, 1.5703946e+2, -863254.3, -1487447.1, -4095.9087, 0.03103028, -0.526753, -863227.44, 537734.44, 0.03892063, 10.005474, 9.996903 
2.4155298e+3, 1.6703616e+2, -781471.06, -1312639.0, 29428.492, 0.035912897, -0.5623773, -779845.56, 523147.22, 0.012659306, 10.004865, 9.997724 
2.4154647e+3, 1.7703353e+2, -761483.0, -1279455.3, 29972.873, 0.034232624, -0.5758414, -759754.4, 445263.28, 0.002261507, 10.004395, 9.997506 
2.415399e+3, 1.8703116e+2, -744607.9, -1182179.1, 9001.502, 0.016266892, -0.54960585, -744422.8, 362617.28, 0.00010154104, 10.003664, 9.997852 
2.415333e+3, 1.9702919e+2, -777156.94, -1157311.5, -4576.6763, -0.0076236576, -0.5106247, -777101.8, 231957.02, 0.000000000003904099, 10.0028105, 9.997763 
2.4152681e+3, 2.0702673e+2, -715865.9, -986761.56, 27214.766, 0.0025349814, -0.5491637, -713158.9, 197922.95, 0.0, 10.002169, 9.9985695 
2.4152033e+3, 2.1702433e+2, -712590.2, -958468.6, 37516.9, 0.027228286, -0.6228009, -706993.1, 106110.83, 0.0, 10.001619, 9.998357 
2.4151379e+3, 2.2702262e+2, -706920.8, -864974.5, 10107.304, 0.017540999, -0.6175852, -706277.06, 8842.661, 0.0, 10.0008135, 9.998714 
2.415072e+3, 2.3702149e+2, -756587.75, -855739.7, 869.69696, -0.0054993927, -0.5792191, -756580.1, -139450.1, 0.0, 9.999874, 9.998557 
2.4150069e+3, 2.470201e+2, -714722.2, -721785.6, -491.29327, 0.0070180916, -0.57599115, -714688.2, -195543.81, 0.0, 9.999219, 9.999119 
2.4149416e+3, 2.5701886e+2, -697457.8, -668858.56, -4651.282, 0.031907044, -0.58979505, -668121.1, -246963.45, 0.0, 9.998691, 9.999064 
2.4148758e+3, 2.6701808e+2, -642394.5, -482551.53, -16751.771, 0.02055979, -0.6003141, -480814.8, -157650.08, 0.0, 9.997929, 10.000036 
2.4148096e+3, 2.770178e+2, -685732.6, -474898.38, 1674.3857, 0.00019408863, -0.61057657, -474885.06, -249718.89, 0.0, 9.997056, 9.999837 
2.4147439e+3, 2.870176e+2, -702583.75, -391913.53, -13051.982, -0.00088393607, -0.60121614, -391366.16, -264196.38, 0.0, 9.996094, 10.000196 
2.414678e+3, 2.9701778e+2, -738450.3, -338566.3, -50345.855, -0.013402835, -0.58066064, -332325.13, -303154.25, 0.0, 9.995087, 10.000378 
2.4146128e+3, 3.0702013e+2, -650811.06, -34699.77, -30198.178, 0.085033104, -0.47926444, -33223.17, -33223.17, 0.0, 9.9943285, 10.002497 
2.4145459e+3, 3.1702062e+2, -797361.25, -150062.86, 2764.458, -0.0007409784, -0.6419046, -150051.05, -150051.05, 0.0, 9.993524, 10.002088 
2.4257995e+3, 1.2711613e+2, -1058802.6, -1690764.1, 32251.137, 0.08763548, -0.4846001, -1057161.0, 637053.4, 0.1874563, 10.007078, 9.996759 
2.4257341e+3, 1.3711284e+2, -981044.2, -1651094.6, 26918.16, 0.06746438, -0.4596851, -979964.5, 616281.7, 0.13408488, 10.006691, 9.996543 
2.4256675e+3, 1.4710933e+2, -885753.9, -1508147.1, -3189.9646, 0.043701753, -0.46628532, -885737.56, 612541.94, 0.08034262, 10.006104, 9.997128 
2.4256003e+3, 1.5710573e+2, -861019.0, -1475163.6, 6383.4688, 0.02522279, -0.5165792, -860952.6, 539360.7, 0.037354566, 10.005439, 9.997003 
2.4255341e+3, 1.671026e+2, -786150.5, -1312967.8, 40351.484, 0.027268829, -0.53990144, -783077.7, 519265.06, 0.012031157, 10.004826, 9.997738 
2.4254687e+3, 1.7710002e+2, -783235.0, -1287516.5, 26551.313, 0.035499085, -0.54823077, -781840.9, 422526.2, 0.0021057022, 10.00424, 9.997521 
2.4254024e+3, 1.870975e+2, -746946.4, -1182299.4, 18784.605, 0.021372823, -0.53892064, -746137.3, 360253.5, 0.00008815149, 10.00365, 9.997855 
2.4253356e+3, 1.9709527e+2, -741176.44, -1138760.8, 37107.977, -0.0011422102, -0.5235425, -737742.7, 270669.13, 0.0000000000084542815, 10.003057, 9.997768 
2.4252701e+3, 2.0709294e+2, -701127.25, -973686.06, 56952.082, 0.0093015805, -0.5515102, -689705.56, 220728.02, 0.0, 10.002249, 9.998618 
2.4252048e+3, 2.1709082e+2, -749756.8, -970392.9, 35345.85, 0.034848485, -0.60158235, -744232.7, 68220.24, 0.0, 10.001345, 9.9984045 
2.4251387e+3, 2.2708903e+2, -721060.94, -867815.0, 15024.253, 0.023068883, -0.60686517, -719538.56, -5069.382, 0.0, 10.000705, 9.998744 
2.425072e+3, 2.370877e+2, -710772.44, -829869.8, 29942.387, -0.0029346962, -0.59223694, -703668.4, -87187.04, 0.0, 10.000178, 9.998586 
2.4250059e+3, 2.4708635e+2, -694723.44, -707590.2, 40522.16, 0.01149023, -0.5849395, -660127.1, -141632.03, 0.0, 9.999343, 9.999154 
2.4249399e+3, 2.570853e+2, -741164.7, -683013.3, 42364.727, 0.042652562, -0.5819881, -660706.5, -240199.75, 0.0, 9.998367, 9.99912 
2.4248736e+3, 2.6708463e+2, -664110.94, -478196.25, 22305.87, 0.026012534, -0.5910563, -475557.47, -153044.89, 0.0, 9.997722, 10.000163 
2.4248064e+3, 2.7708432e+2, -662379.94, -455743.4, 21554.305, -0.004718571, -0.6140117, -453519.0, -229005.16, 0.0, 9.997185, 9.999905 
2.4247397e+3, 2.87084e+2, -682978.7, -395216.0, 25192.1, -0.0059156753, -0.6094517, -393027.2, -266508.63, 0.0, 9.996288, 10.000078 
2.4246731e+3, 2.9708436e+2, -709787.0, -319839.53, 38770.984, -0.013007098, -0.5665312, -316022.06, -287503.06, 0.0, 9.99527, 10.000414 
2.4246071e+3, 3.0708665e+2, -607465.0, 28860.97, 15874.213, 0.10203761, -0.49421918, 29256.734, 29256.734, 0.0, 9.994448, 10.002873 
2.4245393e+3, 3.1708813e+2, -799017.8, -189231.47, -29073.668, 0.0035147811, -0.5779058, -187848.42, -187848.42, 0.0, 9.993681, 10.001741 
2.4358064e+3, 1.2718298e+2, -1035373.9, -1657971.5, 19757.305, 0.06798002, -0.40761793, -1034747.56, 658812.5, 0.18183278, 10.007113, 9.997017 
2.4357405e+3, 1.371784e+2, -967296.44, -1619202.0, 12553.216, 0.0760883, -0.53740054, -967054.75, 628547.94, 0.12975168, 10.00666, 9.996777 
2.4356733e+3, 1.4717503e+2, -874380.94, -1486212.9, -26211.613, 0.057967972, -0.549319, -873260.0, 624374.7, 0.077467434, 10.00609, 9.997294 
2.4356057e+3, 1.571724e+2, -850163.1, -1459278.1, -16565.088, 0.037876777, -0.51897657, -849712.94, 549947.1, 0.035812162, 10.005457, 9.997107 
2.4355388e+3, 1.6716973e+2, -795097.06, -1336102.6, 19363.438, 0.029040972, -0.48941284, -794404.9, 507281.13, 0.011418029, 10.004837, 9.997576 
2.4354726e+3, 1.7716734e+2, -786568.44, -1293728.5, 5498.908, 0.021969324, -0.4633192, -786508.9, 417200.66, 0.0019573544, 10.004231, 9.997486 
2.4354057e+3, 1.8716428e+2, -718535.3, -1122573.6, -2286.1353, 0.023261385, -0.5325398, -718522.4, 387214.78, 0.00007680817, 10.003641, 9.998272 
2.4353388e+3, 1.9716121e+2, -724935.44, -1104888.4, 13472.389, 0.02898599, -0.6414418, -724458.4, 283305.63, 0.00000000002968512, 10.003051, 9.998007 
2.4352722e+3, 2.0715944e+2, -727491.7, -1029389.5, 23310.238, 0.024725487, -0.5992639, -725702.44, 184078.95, 0.0, 10.002248, 9.998239 
2.4352059e+3, 2.1715848e+2, -764879.06, -1003786.75, 5465.178, 0.016329871, -0.49607745, -764754.1, 47038.023, 0.0, 10.001348, 9.998177 
2.4351391e+3, 2.2715637e+2, -696548.6, -818933.8, -3272.1094, 0.022808407, -0.5468291, -696461.2, 17349.91, 0.0, 10.000709, 9.99908 
2.4350722e+3, 2.3715402e+2, -690385.25, -788869.25, 7052.4917, 0.03610024, -0.6644891, -689882.75, -74051.766, 0.0, 10.000179, 9.998869 
2.4350052e+3, 2.4715292e+2, -686715.94, -692576.56, 2593.293, 0.02575599, -0.6512153, -685733.25, -167891.31, 0.0, 9.999345, 9.999258 
2.4349378e+3, 2.5715265e+2, -735985.9, -674644.06, 8598.61, 0.0027037538, -0.58059675, -673461.56, -253615.52, 0.0, 9.998373, 9.999177 
2.4348706e+3, 2.6715207e+2, -671617.44, -495649.13, 1796.989, 0.0022110566, -0.574615, -495630.78, -173779.06, 0.0, 9.997725, 10.000045 
2.4348037e+3, 2.771516e+2, -660787.7, -455372.97, -4221.006, 0.021187685, -0.6028242, -455286.25, -231430.56, 0.0, 9.997192, 9.999906 
2.434736e+3, 2.8715172e+2, -641645.7, -312746.38, -14436.749, 0.006992925, -0.5900694, -312113.88, -186258.83, 0.0, 9.996296, 10.000644 
2.4346678e+3, 2.971526e+2, -683495.8, -269380.94, 5052.4155, -0.05377194, -0.5446043, -269319.3, -241471.72, 0.0, 9.995282, 10.000757 
2.4346013e+3, 3.071526e+2, -685427.7, -133830.03, -17860.09, 0.09697099, -0.65607595, -133252.34, -133252.34, 0.0, 9.994447, 10.001759 
2.4345326e+3, 3.171551e+2, -708700.56, 38.76177, -22300.516, 0.005709903, -0.54423755, 739.7551, 739.7551, 0.0, 9.9936695, 10.003049 
2.4458133e+3, 1.2724951e+2, -975950.1, -1624693.4, 44841.336, 0.042222165, -0.45392424, -972865.4, 720041.4, 0.17615157, 10.007538, 9.997086 
2.4457471e+3, 1.372454e+2, -1001179.06, -1627134.6, 34989.133, 0.094271466, -0.5443091, -999229.4, 595715.75, 0.12541673, 10.006317, 9.996887 
2.4456792e+3, 1.4724226e+2, -897702.5, -1480613.6, 8457.713, 0.07509347, -0.54759544, -897579.8, 599395.44, 0.07461905, 10.005829, 9.9974575 
2.445611e+3, 1.5723981e+2, -810916.0, -1426590.3, 14870.532, 0.037438318, -0.5128965, -810557.0, 588442.0, 0.03429851, 10.005677, 9.997221 
2.4455437e+3, 1.6723707e+2, -777638.8, -1332864.0, 43241.586, 0.028460829, -0.491755, -774291.25, 526734.8, 0.010823147, 10.004982, 9.997526 
2.4454765e+3, 1.772345e+2, -811743.2, -1305292.8, 36784.676, 0.028085005, -0.47926694, -809016.6, 394035.22, 0.0018173645, 10.004058, 9.997489 
2.4454091e+3, 1.8723169e+2, -739275.1, -1108321.4, 27416.053, 0.030975332, -0.5348973, -737249.5, 367827.66, 0.00006739381, 10.003399, 9.998484 
2.4453418e+3, 1.9722904e+2, -741751.25, -1092736.3, 27323.447, 0.037214175, -0.6205401, -739636.9, 267462.8, 0.00000000008671795, 10.002855, 9.99818 
2.4452744e+3, 2.0722724e+2, -737871.94, -1032745.4, 44247.816, 0.029932601, -0.5875001, -731375.4, 177742.0, 0.0, 10.002176, 9.998248 
2.4452068e+3, 2.1722609e+2, -749528.44, -990174.6, 53324.92, 0.01711751, -0.50438565, -738241.56, 72888.66, 0.0, 10.001432, 9.998226 
2.4451394e+3, 2.2722416e+2, -697485.75, -795537.75, 49590.086, 0.024473038, -0.55033565, -676778.5, 36368.848, 0.0, 10.000605, 9.999288 
2.4450721e+3, 2.3722214e+2, -740013.5, -789894.56, 50661.715, 0.042666145, -0.6547759, -708486.0, -93322.055, 0.0, 9.999745, 9.999068 
2.4450041e+3, 2.4722116e+2, -697798.25, -679462.2, 46158.414, 0.027915735, -0.6459753, -641570.1, -124396.9, 0.0, 9.999193, 9.999419 
2.444936e+3, 2.5722092e+2, -673961.3, -631818.2, 54836.598, -0.0034794903, -0.5875711, -594144.0, -174967.38, 0.0, 9.998747, 9.9992895 
2.4448682e+3, 2.6722032e+2, -657475.7, -496278.28, 48677.402, -0.00016445247, -0.5841473, -482719.44, -161536.56, 0.0, 9.997858, 9.999973 
2.4448006e+3, 2.7721974e+2, -718023.3, -481097.28, 45105.99, 0.030784536, -0.6096427, -472800.53, -249612.58, 0.0, 9.9967985, 9.999915 
2.4447322e+3, 2.872201e+2, -640026.8, -279787.84, 23146.477, 0.009580196, -0.5927461, -278306.7, -153122.06, 0.0, 9.996174, 10.000926 
2.4446626e+3, 2.972212e+2, -622905.44, -234765.4, 18676.531, -0.07203714, -0.5498413, -233868.8, -206695.02, 0.0, 9.995676, 10.000804 
2.4445957e+3, 3.0722037e+2, -684929.2, -208624.78, -2577.5293, 0.100847736, -0.70115584, -208610.83, -208610.83, 0.0, 9.994777, 10.001084 
2.4445258e+3, 3.17223e+2, -626674.1, 121944.66, 50667.92, -0.029106637, -0.5211349, 125358.39, 125358.39, 0.0, 9.993882, 10.003781 
2.45582e+3, 1.2731595e+2, -972029.3, -1627293.0, 8369.197, 0.010090674, -0.59141284, -971922.44, 720330.4, 0.17038013, 10.00754, 9.997059 
2.4557534e+3, 1.3731375e+2, -993454.56, -1622931.0, 3137.3335, 0.11577045, -0.4916789, -993438.94, 600835.8, 0.12105695, 10.006345, 9.996902 
2.455685e+3, 1.4731085e+2, -884256.8, -1463101.6, 4494.5693, 0.091282554, -0.47777012, -884221.9, 612080.8, 0.07178277, 10.005853, 9.997578 
2.4556164e+3, 1.5730794e+2, -804391.25, -1412844.9, 3782.8289, 0.024746701, -0.50173455, -804367.75, 593963.06, 0.032806132, 10.005665, 9.997324 
2.4555483e+3, 1.6730466e+2, -778359.5, -1332403.0, 9062.744, 0.025044374, -0.53944045, -778211.25, 522151.56, 0.010244057, 10.004965, 9.99754 
2.4554804e+3, 1.7730156e+2, -811209.8, -1304731.4, 6275.583, 0.049525626, -0.5804354, -811130.0, 391263.53, 0.0016850051, 10.004054, 9.997497 
2.4554123e+3, 1.8729971e+2, -738125.25, -1106480.8, 8209.981, 0.042733256, -0.5417359, -737942.4, 366468.56, 0.00005957078, 10.003396, 9.998501 
2.4553442e+3, 1.9729862e+2, -735979.0, -1079423.1, 6292.833, 0.024577077, -0.4762935, -735863.75, 270556.78, 0.00000000016280782, 10.002845, 9.998281 
2.4552761e+3, 2.0729625e+2, -714333.25, -983015.6, 17366.047, 0.026111115, -0.52522665, -713215.44, 195227.23, 0.0, 10.002168, 9.998595 
2.4552083e+3, 2.1729365e+2, -730314.25, -950173.9, 25880.65, 0.034415316, -0.6194596, -727308.8, 83158.414, 0.0, 10.001427, 9.998507 
2.4551399e+3, 2.272924e+2, -692819.6, -787634.94, 17907.652, 0.026764562, -0.61091495, -689550.1, 22927.969, 0.0, 10.000608, 9.999343 
2.4550714e+3, 2.3729196e+2, -732099.9, -777205.3, 21802.354, 0.014951704, -0.56334895, -723284.4, -108803.39, 0.0, 9.999757, 9.999152 
2.4550031e+3, 2.4729097e+2, -682522.75, -650730.2, 29209.082, 0.018487483, -0.57151043, -633372.0, -116882.0, 0.0, 9.999202, 9.999615 
2.4549349e+3, 2.5729e+2, -661983.1, -610086.44, 31911.563, 0.024087632, -0.60241693, -594904.94, -176405.95, 0.0, 9.998755, 9.999437 
2.454866e+3, 2.6728922e+2, -660024.25, -503122.56, 6474.581, 0.01848566, -0.62138706, -502855.84, -182349.08, 0.0, 9.99786, 9.999928 
2.4547972e+3, 2.7728873e+2, -719514.7, -483658.47, 9749.799, 0.019187242, -0.63902813, -483256.13, -260744.6, 0.0, 9.996791, 9.999904 
2.454728e+3, 2.8728908e+2, -641975.6, -285588.38, 4910.8975, 0.0012338879, -0.61807036, -285520.72, -161012.8, 0.0, 9.996175, 10.000889 
2.4546582e+3, 2.972902e+2, -637837.56, -272407.9, -6666.7446, -0.05994216, -0.5690186, -272286.34, -245789.27, 0.0, 9.995699, 10.000538 
2.4545904e+3, 3.0729e+2, -693727.8, -231010.53, -42012.61, 0.10708173, -0.6274898, -227226.92, -227226.92, 0.0, 9.994789, 10.000927 
2.4545196e+3, 3.172908e+2, -693117.9, -16183.485, 4589.323, -0.026486123, -0.62819153, -16152.374, -16152.374, 0.0, 9.993879, 10.002836 
2.4658276e+3, 1.2738496e+2, -972868.0, -1654849.9, 42260.977, 0.025870563, -0.5881477, -970259.1, 721316.06, 0.16449775, 10.007619, 9.99679 
2.4657595e+3, 1.373823e+2, -943746.7, -1620034.3, 28049.111, 0.09625736, -0.50667703, -942585.3, 651016.94, 0.11664376, 10.006806, 9.996699 
2.4656907e+3, 1.4737931e+2, -856721.7, -1453126.3, 34850.91, 0.07835318, -0.4911592, -854692.1, 640939.56, 0.068931945, 10.006058, 9.997549 
2.4656218e+3, 1.5737642e+2, -844144.56, -1429372.5, 22715.148, 0.036145747, -0.50846714, -843264.2, 554395.44, 0.03131759, 10.005363, 9.997354 
2.465553e+3, 1.673734e+2, -804920.1, -1319186.1, 24994.252, 0.034450933, -0.5365096, -803708.2, 495981.06, 0.009672975, 10.004671, 9.99777 
2.4654844e+3, 1.7737061e+2, -810488.0, -1284091.0, 36926.88, 0.046450276, -0.5675831, -807626.1, 394090.63, 0.0015578917, 10.003979, 9.997671 
2.4654156e+3, 1.8736877e+2, -764486.06, -1125117.6, 44157.066, 0.03884766, -0.5313636, -759158.06, 344576.66, 0.00005281826, 10.003245, 9.998443 
2.4653468e+3, 1.9736755e+2, -782816.2, -1097124.8, 36069.91, 0.024425175, -0.46967724, -778729.94, 227016.17, 0.00000000021615258, 10.002504, 9.998322 
2.465278e+3, 2.0736547e+2, -739956.94, -952126.94, 44252.496, 0.025932133, -0.5158564, -731097.1, 176668.3, 0.0, 10.00181, 9.998978 
2.4652092e+3, 2.1736325e+2, -751385.56, -925592.0, 53037.11, 0.034014337, -0.60854226, -736508.9, 73276.68, 0.0, 10.001139, 9.998811 
2.46514e+3, 2.2736214e+2, -699817.9, -789043.06, 44249.71, 0.023021972, -0.59906787, -681594.8, 30200.615, 0.0, 10.000556, 9.999356 
2.4650708e+3, 2.3736174e+2, -693989.4, -752341.94, 45924.547, 0.0072238045, -0.5477293, -668756.8, -54958.5, 0.0, 9.999996, 9.999206 
2.465002e+3, 2.4736086e+2, -676074.0, -628370.94, 51460.273, 0.018813489, -0.55591774, -595503.4, -79697.2, 0.0, 9.999168, 9.999782 
2.4649334e+3, 2.5736e+2, -725858.4, -621924.5, 50981.664, 0.038640335, -0.59167343, -601092.44, -183278.67, 0.0, 9.99824, 9.9996 
2.4648635e+3, 2.6735932e+2, -678423.4, -496029.97, 31667.287, 0.026681093, -0.61410284, -490688.3, -170868.13, 0.0, 9.997669, 10.000067 
2.4647938e+3, 2.7735892e+2, -650982.1, -439437.13, 48835.86, 0.011659057, -0.63351643, -428707.4, -206883.69, 0.0, 9.997215, 10.000003 
2.4647242e+3, 2.8735918e+2, -600196.06, -269970.06, 47890.53, 0.004468165, -0.622713, -263165.03, -139343.95, 0.0, 9.996485, 10.000845 
2.464654e+3, 2.9736006e+2, -653720.75, -289795.25, 34263.02, -0.029020693, -0.58861506, -286597.53, -260785.08, 0.0, 9.995638, 10.000444 
2.4645847e+3, 3.073604e+2, -651072.3, -219948.97, 13375.874, 0.07128685, -0.58054084, -219534.38, -219534.38, 0.0, 9.995131, 10.000834 
2.4645135e+3, 3.1736115e+2, -653731.7, -72330.21, 8087.8286, -0.0374023, -0.5815357, -72217.73, -72217.73, 0.0, 9.994478, 10.002159 
2.4758354e+3, 1.2745595e+2, -994736.75, -1716344.4, 16492.182, 0.07187435, -0.48435393, -994360.0, 696518.8, 0.15846707, 10.007626, 9.996316 
2.4757656e+3, 1.3745111e+2, -961743.25, -1676278.0, 3353.2893, 0.041761514, -0.5746079, -961727.5, 631199.75, 0.11212855, 10.006831, 9.996302 
2.475696e+3, 1.4744778e+2, -862168.1, -1474855.9, 12624.829, 0.041945927, -0.5678994, -861908.1, 633052.4, 0.066024505, 10.006081, 9.997381 
2.4756272e+3, 1.5744533e+2, -845222.1, -1434954.5, -252.88953, 0.06596579, -0.526885, -845222.0, 551763.0, 0.029806614, 10.005364, 9.997318 
2.4755576e+3, 1.6744317e+2, -777697.94, -1263124.3, 774.8978, 0.052795347, -0.48975858, -777696.75, 521309.4, 0.009097942, 10.004666, 9.998162 
2.4754877e+3, 1.7744139e+2, -790882.56, -1243318.5, 10595.199, 0.021603229, -0.4593414, -790634.56, 410389.13, 0.0014324416, 10.003973, 9.997957 
2.4754182e+3, 1.8743871e+2, -774380.1, -1146022.5, 16955.725, 0.021415547, -0.5095813, -773608.1, 329441.5, 0.000046539175, 10.003242, 9.998304 
2.4753492e+3, 1.9743599e+2, -784582.3, -1101263.8, 10745.607, 0.034044974, -0.58626384, -784218.1, 220857.56, 0.00000000023303823, 10.002501, 9.998298 
2.4752796e+3, 2.0743494e+2, -713080.2, -897474.7, 19996.709, 0.028151607, -0.5507428, -710936.56, 196148.78, 0.0, 10.00181, 9.999355 
2.47521e+3, 2.1743473e+2, -731143.44, -884634.2, 29213.541, 0.015007035, -0.4787277, -725771.3, 83315.23, 0.0, 10.001138, 9.999095 
2.4751404e+3, 2.2743317e+2, -701281.8, -793771.75, 23867.463, 0.013711732, -0.52139074, -695485.9, 15614.559, 0.0, 10.000559, 9.999325 
2.4750708e+3, 2.3743139e+2, -692777.5, -751740.3, 21684.082, 0.018252641, -0.60694104, -685661.7, -72545.195, 0.0, 9.999999, 9.99921 
2.4750009e+3, 2.4743076e+2, -666970.1, -611485.3, 15239.713, 0.028142698, -0.5977361, -607575.1, -92452.836, 0.0, 9.999172, 9.999898 
2.4749312e+3, 2.5743085e+2, -713846.3, -599160.3, 19209.064, 0.03711602, -0.553907, -596028.44, -178906.92, 0.0, 9.998245, 9.999758 
2.4748611e+3, 2.6743054e+2, -655943.1, -451350.66, 14388.247, 0.02370792, -0.5594871, -450343.72, -131220.13, 0.0, 9.997672, 10.000375 
2.4747905e+3, 2.7743042e+2, -634819.5, -410460.4, 28333.154, 0.008474124, -0.5848429, -406937.66, -185813.4, 0.0, 9.99723, 10.000197 
2.4747205e+3, 2.8743035e+2, -604650.75, -282378.03, 13402.891, 0.019755276, -0.6074396, -281821.6, -158696.75, 0.0, 9.996493, 10.000758 
2.4746498e+3, 2.9743063e+2, -649266.6, -279410.16, 3833.7898, 0.01950699, -0.6265977, -279370.44, -254247.97, 0.0, 9.995627, 10.000524 
2.4745786e+3, 3.074319e+2, -650117.7, -221168.72, 2537.2837, -0.013213707, -0.53413236, -221153.7, -221153.7, 0.0, 9.995139, 10.000826 
2.4745074e+3, 3.1743285e+2, -584535.5, 58600.2, -78591.99, -0.06993595, -0.50316477, 68064.95, 68064.95, 0.0, 9.99452, 10.003045 
2.485843e+3, 1.2752622e+2, -975811.0, -1705051.6, 27105.746, 0.0891005, -0.49761078, -974804.9, 715384.8, 0.15221699, 10.00772, 9.99635 
2.4857722e+3, 1.3752158e+2, -897066.25, -1642439.5, 38321.15, 0.024768254, -0.57018816, -895101.25, 697134.8, 0.10743996, 10.007302, 9.996307 
2.4857019e+3, 1.4751814e+2, -829395.6, -1471060.6, 51162.613, 0.026337534, -0.5655202, -825341.8, 668928.56, 0.06300653, 10.006363, 9.997269 
2.4856323e+3, 1.575155e+2, -865167.6, -1453251.9, 43762.727, 0.06759983, -0.5313937, -861928.8, 534368.25, 0.028242992, 10.005256, 9.997243 
2.485562e+3, 1.6751333e+2, -804691.3, -1273785.5, 36551.92, 0.057694796, -0.49509764, -801860.25, 496458.56, 0.008506645, 10.00447, 9.99818 
2.4854915e+3, 1.7751157e+2, -807248.5, -1241382.5, 22180.305, 0.023368549, -0.46168917, -806118.25, 394217.94, 0.0013053208, 10.00382, 9.998043 
2.4854212e+3, 1.8750909e+2, -776028.4, -1115219.3, 38141.758, 0.02382877, -0.51074594, -771792.3, 330567.53, 0.000040263076, 10.003099, 9.998582 
2.4853513e+3, 1.975066e+2, -792495.75, -1082441.4, 58232.715, 0.03926785, -0.59022254, -781237.44, 223145.83, 0.00000000017417703, 10.002357, 9.998492 
2.4852811e+3, 2.0750563e+2, -734797.25, -915778.6, 56310.316, 0.026339108, -0.5490395, -718707.4, 187685.39, 0.0, 10.001699, 9.99928 
2.4852107e+3, 2.175055e+2, -740195.1, -887309.4, 35244.504, 0.0032230797, -0.46448874, -732187.4, 76206.98, 0.0, 10.001073, 9.999105 
2.4851406e+3, 2.275041e+2, -711599.6, -770384.7, 34554.83, 0.009134438, -0.50582904, -695627.44, 14779.238, 0.0, 10.000371, 9.999573 
2.4850705e+3, 2.3750249e+2, -729923.6, -744736.56, 49742.844, 0.027836774, -0.597105, -687038.9, -74618.055, 0.0, 9.999642, 9.999428 
2.485e+3, 2.4750195e+2, -684031.3, -605597.94, 45506.707, 0.030416945, -0.5931323, -584741.25, -70315.8, 0.0, 9.998999, 10.00002 
2.4849293e+3, 2.575021e+2, -686374.4, -571452.1, 51047.15, 0.025668588, -0.55274177, -552052.4, -135628.56, 0.0, 9.998377, 9.999882 
2.4848583e+3, 2.6750204e+2, -643867.56, -430625.2, 42340.957, 0.018472878, -0.54794925, -422525.7, -104101.66, 0.0, 9.997696, 10.000503 
2.4847876e+3, 2.7750218e+2, -663014.25, -410445.4, 40989.848, 0.016665127, -0.5578299, -403959.63, -183537.25, 0.0, 9.996984, 10.000313 
2.4847168e+3, 2.8750217e+2, -623754.5, -282368.28, 27311.006, 0.032000154, -0.58277744, -280197.2, -157774.94, 0.0, 9.996327, 10.000835 
2.4846455e+3, 2.9750234e+2, -624681.9, -251020.69, 33121.094, 0.03352134, -0.61955774, -248107.56, -223686.94, 0.0, 9.995729, 10.000668 
2.4845733e+3, 3.0750376e+2, -620945.9, -197288.14, 43122.973, -0.050684392, -0.5294303, -192943.33, -192943.33, 0.0, 9.995302, 10.000907 
2.4845022e+3, 3.1750363e+2, -496648.7, 147733.1, -53035.973, -0.019317068, -0.6051649, 152069.06, 152069.06, 0.0, 9.994928, 10.003456 
2.4958506e+3, 1.2759615e+2, -941930.2, -1648623.9, 15494.212, 0.08502309, -0.589843, -941590.7, 747913.2, 0.14566168, 10.007744, 9.996771 
2.4957792e+3, 1.3759346e+2, -879301.94, -1601981.1, 17245.928, 0.033289433, -0.5075741, -878890.6, 712640.3, 0.10250856, 10.007264, 9.996604 
2.495708e+3, 1.475901e+2, -835916.2, -1485912.4, 10805.206, 0.023651604, -0.5023814, -835736.6, 657827.9, 0.05983273, 10.006342, 9.997173 
2.495637e+3, 1.5758677e+2, -871867.5, -1472652.0, 7168.7393, 0.04572423, -0.52701545, -871781.94, 523815.84, 0.026605247, 10.005264, 9.9971075 
2.4955662e+3, 1.6758382e+2, -823188.5, -1317103.1, 13892.944, 0.051934168, -0.5441961, -822798.0, 474829.44, 0.007892707, 10.004482, 9.997878 
2.4954954e+3, 1.7758134e+2, -811615.9, -1252961.6, -453.66257, 0.046344087, -0.55563515, -811615.44, 388037.06, 0.0011752933, 10.003825, 9.997963 
2.4954243e+3, 1.8757999e+2, -732439.0, -1027080.06, 11291.426, 0.041926682, -0.52810997, -732006.94, 369658.0, 0.00003377425, 10.003104, 9.999187 
2.4953532e+3, 1.9757922e+2, -767422.0, -1032593.9, 30859.861, 0.039383236, -0.49306047, -763878.0, 239793.03, 0.00000000005180779, 10.00236, 9.998836 
2.4952824e+3, 2.0757742e+2, -768089.06, -986800.3, 32974.473, 0.020954175, -0.5171439, -763225.75, 142463.39, 0.0, 10.001703, 9.998794 
2.4952114e+3, 2.1757554e+2, -756685.1, -922784.0, 12354.806, -0.0030925942, -0.56028813, -755771.2, 51937.453, 0.0, 10.001073, 9.998864 
2.4951406e+3, 2.275749e+2, -677550.75, -701210.25, 8061.007, 0.008385855, -0.54728246, -675065.4, 34648.555, 0.0, 10.000373, 10.00005 
2.4950698e+3, 2.3757496e+2, -702139.06, -689286.8, 23046.857, 0.03345763, -0.51787704, -671787.0, -60075.18, 0.0, 9.999646, 9.999809 
2.4949986e+3, 2.4757434e+2, -675024.94, -589111.8, 21379.914, 0.024994573, -0.543429, -584085.4, -70368.88, 0.0, 9.999003, 10.0001335 
2.494927e+3, 2.5757375e+2, -680066.2, -561296.0, 26152.443, 0.002641397, -0.5883495, -555792.44, -140071.17, 0.0, 9.998384, 9.99995 
2.4948557e+3, 2.6757365e+2, -648454.8, -442520.7, 14027.182, 0.0108105345, -0.5819325, -441569.6, -123847.266, 0.0, 9.997701, 10.000422 
2.4947844e+3, 2.775741e+2, -661187.44, -407669.22, 12662.567, 0.03699233, -0.55620855, -407038.34, -187319.06, 0.0, 9.996983, 10.000335 
2.4947129e+3, 2.8757462e+2, -607365.06, -248441.45, 3049.2332, 0.039506704, -0.5454425, -248415.56, -126701.836, 0.0, 9.996323, 10.001074 
2.4946406e+3, 2.9757535e+2, -610720.1, -222943.64, 14421.308, 0.0042060423, -0.550723, -222408.06, -198702.3, 0.0, 9.995728, 10.000863 
2.4945687e+3, 3.0757552e+2, -611292.25, -180543.97, 23727.244, -0.024671156, -0.59614646, -179240.92, -179240.92, 0.0, 9.995311, 10.00102 
2.4944966e+3, 3.1757724e+2, -571309.6, -18821.354, -24422.55, -0.051580068, -0.48759386, -17743.865, -17743.865, 0.0, 9.994973, 10.002294 
2.5058582e+3, 1.2766783e+2, -895118.75, -1639541.0, 36936.254, 0.06727585, -0.59747225, -893290.56, 795510.8, 0.13874292, 10.008123, 9.996656 
2.505786e+3, 1.3766515e+2, -943176.8, -1641932.1, 12239.258, 0.040319115, -0.5017175, -942962.5, 647866.44, 0.09730279, 10.006763, 9.99657 
2.505714e+3, 1.4766186e+2, -877858.2, -1491077.6, 11152.756, 0.030738577, -0.4966841, -877655.44, 615206.1, 0.05648961, 10.005951, 9.99732 
2.5056422e+3, 1.576586e+2, -849320.94, -1446296.8, 22636.934, 0.043933846, -0.5286138, -848463.8, 546429.8, 0.024890915, 10.005355, 9.997242 
2.5055704e+3, 1.6765568e+2, -797571.5, -1294721.4, 53924.84, 0.048519302, -0.5537455, -791789.6, 505133.16, 0.0072583025, 10.004621, 9.997962 
2.5054988e+3, 1.7765316e+2, -806800.2, -1245897.5, 61878.793, 0.044647206, -0.5735723, -798246.7, 400701.22, 0.001043535, 10.003844, 9.997999 
2.5054273e+3, 1.8765189e+2, -736292.4, -1040435.75, 46337.23, 0.039995283, -0.53148633, -729389.4, 371570.88, 0.000027156255, 10.003132, 9.99908 
2.5053555e+3, 1.9765128e+2, -757119.9, -1029979.7, 20372.467, 0.036787998, -0.4716123, -755607.2, 247358.67, 0.0000000000010010511, 10.002446, 9.99881 
2.505284e+3, 2.0764944e+2, -759456.1, -962928.44, 41078.18, 0.025311299, -0.507048, -751476.0, 153507.9, 0.0, 10.001682, 9.998964 
2.5052124e+3, 2.1764746e+2, -774168.0, -915948.2, 61734.008, 0.010908975, -0.57611156, -751055.44, 55948.42, 0.0, 10.000894, 9.998995 
2.5051406e+3, 2.27647e+2, -708786.2, -714723.06, 45207.773, 0.011560587, -0.54919577, -666449.5, 42558.414, 0.0, 10.000157, 10.000058 
2.505069e+3, 2.3764737e+2, -728933.9, -694968.6, 29676.602, 0.020013621, -0.4906172, -677759.0, -66755.305, 0.0, 9.999437, 9.999867 
2.504997e+3, 2.4764678e+2, -687225.0, -575750.0, 25405.91, 0.015331321, -0.52652967, -570232.9, -57224.977, 0.0, 9.998842, 10.000299 
2.5049254e+3, 2.5764608e+2, -685082.0, -546442.4, 32259.537, 0.00416075, -0.59634763, -539303.56, -124290.74, 0.0, 9.998281, 10.000099 
2.5048533e+3, 2.676462e+2, -652866.1, -434067.6, 27181.475, 0.011239819, -0.5835367, -430741.4, -113728.984, 0.0, 9.99763, 10.000511 
2.5047812e+3, 2.776468e+2, -658625.56, -396642.06, 38866.445, 0.03393195, -0.5423626, -390997.66, -171990.08, 0.0, 9.996963, 10.000417 
2.504709e+3, 2.876474e+2, -576054.06, -230517.28, 25347.81, 0.027989587, -0.531983, -228667.72, -107665.91, 0.0, 9.996531, 10.001093 
2.504636e+3, 2.9764816e+2, -548876.25, -191968.64, 20108.09, -0.019936271, -0.53443956, -190839.33, -167845.89, 0.0, 9.996152, 10.000869 
2.5045642e+3, 3.0764836e+2, -560156.2, -140034.17, 20743.852, 0.008752004, -0.5866049, -139012.4, -139012.4, 0.0, 9.995599, 10.001157 
2.5044906e+3, 3.176501e+2, -577479.0, -65801.87, 23331.111, -0.1215433, -0.48446792, -64740.23, -64740.23, 0.0, 9.99513, 10.00189 
2.5158656e+3, 1.2774085e+2, -928249.8, -1711262.4, -8293.793, 0.03432099, -0.5472426, -928162.0, 759923.7, 0.13146444, 10.008056, 9.996143 
2.5157928e+3, 1.3773681e+2, -956343.1, -1683326.3, -24751.041, 0.047379423, -0.5392795, -955501.44, 634626.75, 0.09184912, 10.006771, 9.996284 
2.5157198e+3, 1.4773364e+2, -850714.3, -1446191.6, -6903.104, 0.04617363, -0.53327894, -850634.3, 641525.1, 0.053004697, 10.005976, 9.997637 
2.515647e+3, 1.5773101e+2, -823627.7, -1397126.4, 848.0748, 0.056033064, -0.53291935, -823626.44, 570557.8, 0.023118276, 10.005363, 9.997578 
2.5155747e+3, 1.677287e+2, -770822.56, -1241196.5, 25005.207, 0.045198925, -0.5304089, -769497.0, 526709.25, 0.006612594, 10.0046215, 9.998334 
2.5155023e+3, 1.7772678e+2, -800497.56, -1233390.3, 32282.053, 0.021949088, -0.5286591, -798103.44, 400121.72, 0.00091272616, 10.003841, 9.998089 
2.51543e+3, 1.8772468e+2, -786879.25, -1146582.0, 20976.896, 0.021131348, -0.524981, -785660.06, 314586.88, 0.000020743495, 10.003132, 9.998354 
2.5153577e+3, 1.9772285e+2, -780491.1, -1079735.4, -3892.333, 0.030572038, -0.51868975, -780440.5, 221826.14, 0.0, 10.002446, 9.99847 
2.5152853e+3, 2.0772177e+2, -707991.5, -857547.8, 12836.239, 0.038076393, -0.51467055, -706897.8, 197378.84, 0.0, 10.001684, 9.999689 
2.5152135e+3, 2.1772115e+2, -744792.8, -855601.9, 32998.48, 0.042130258, -0.5152576, -735710.44, 70570.87, 0.0, 10.000892, 9.999413 
2.5151408e+3, 2.2772032e+2, -738839.94, -779023.75, 18222.262, 0.017582715, -0.5145956, -731807.4, -23517.648, 0.0, 10.00016, 9.999618 
2.5150678e+3, 2.3771966e+2, -745560.75, -733026.25, 4252.9067, -0.0137603935, -0.5155065, -731719.5, -121422.55, 0.0, 9.999448, 9.999604 
2.5149956e+3, 2.4771918e+2, -672394.1, -547768.7, 3954.4092, 0.0017333212, -0.54212695, -547643.4, -35343.336, 0.0, 9.998849, 10.000491 
2.5149235e+3, 2.5771907e+2, -669419.25, -516253.8, 8672.654, 0.029737426, -0.57538855, -515764.28, -101465.24, 0.0, 9.998285, 10.000307 
2.5148505e+3, 2.677195e+2, -635091.5, -398169.0, 107.99129, 0.019084195, -0.55143404, -398168.94, -81874.21, 0.0, 9.997629, 10.00076 
2.5147775e+3, 2.7772033e+2, -650081.9, -379570.9, 16146.443, 0.0031533604, -0.5143766, -378610.56, -160323.02, 0.0, 9.996961, 10.000538 
2.5147048e+3, 2.8772038e+2, -591642.25, -266069.75, 10679.954, -0.004559951, -0.54565716, -265719.78, -145432.2, 0.0, 9.996538, 10.000849 
2.5146317e+3, 2.977206e+2, -560149.25, -222153.27, 1792.7004, -0.03512858, -0.57794213, -222143.75, -199858.25, 0.0, 9.996176, 10.000653 
2.51456e+3, 3.0772224e+2, -549300.06, -121654.664, -5577.414, 0.043761812, -0.48200896, -121581.93, -121581.93, 0.0, 9.995612, 10.001279 
2.5144857e+3, 3.1772155e+2, -516854.7, 59590.62, 17392.32, -0.09564779, -0.65513575, 60114.902, 60114.902, 0.0, 9.995126, 10.002756 
2.5258732e+3, 1.2781444e+2, -974181.44, -1729455.9, 8261.832, 0.02198179, -0.5176417, -974091.06, 713274.44, 0.12388326, 10.007595, 9.996241 
2.5257993e+3, 1.3781016e+2, -935040.5, -1663370.9, 27590.744, 0.056110475, -0.54310393, -933996.8, 655413.1, 0.08620948, 10.006857, 9.996377 
2.5257257e+3, 1.4780697e+2, -823658.0, -1426313.4, 53631.137, 0.051906195, -0.5431004, -818922.5, 672518.3, 0.049425934, 10.006125, 9.997701 
2.5256523e+3, 1.5780446e+2, -815133.9, -1389741.5, 44224.832, 0.05027248, -0.5375308, -811750.06, 581714.44, 0.021314405, 10.005405, 9.997605 
2.525579e+3, 1.6780223e+2, -782899.75, -1255551.3, 39245.453, 0.04183592, -0.52291816, -779663.25, 515822.9, 0.0059667677, 10.004578, 9.998253 
2.5255057e+3, 1.7780034e+2, -818734.25, -1244537.8, 21398.682, 0.026083069, -0.50722647, -817661.56, 379843.3, 0.0007859094, 10.003731, 9.998062 
2.5254327e+3, 1.8779817e+2, -796759.1, -1143424.1, 44570.613, 0.022095809, -0.513995, -791120.4, 308406.97, 0.000014969731, 10.0030365, 9.998418 
2.5253597e+3, 1.977962e+2, -785148.25, -1075971.8, 66383.63, 0.025007436, -0.5273543, -770712.06, 230836.39, 0.0, 10.002394, 9.998519 
2.525287e+3, 2.0779523e+2, -716102.2, -859418.2, 56573.492, 0.03591947, -0.5124932, -696461.6, 207095.69, 0.0, 10.001625, 9.999702 
2.5252143e+3, 2.1779485e+2, -755456.4, -859058.7, 30717.055, 0.0477876, -0.49076852, -747033.75, 58526.063, 0.0, 10.000816, 9.999422 
2.5251406e+3, 2.2779392e+2, -742064.25, -783985.8, 27653.346, 0.020162433, -0.49655184, -728325.44, -20756.088, 0.0, 10.000159, 9.999581 
2.525067e+3, 2.3779304e+2, -730778.9, -724607.0, 40984.37, -0.017675163, -0.51413417, -686592.56, -77013.625, 0.0, 9.99955, 9.99961 
2.524994e+3, 2.4779266e+2, -671336.4, -536644.5, 42365.914, -0.002124766, -0.53654313, -524426.94, -12846.001, 0.0, 9.9988165, 10.00058 
2.5249213e+3, 2.577927e+2, -700204.0, -525258.06, 39975.652, 0.02903269, -0.5585435, -516556.3, -102978.43, 0.0, 9.998055, 10.000353 
2.524848e+3, 2.677931e+2, -643790.4, -411087.06, 14184.822, 0.012070227, -0.53773445, -410225.6, -94651.12, 0.0, 9.997613, 10.000676 
2.524774e+3, 2.777938e+2, -610844.94, -364670.13, 5787.9883, -0.012969963, -0.5070923, -364534.1, -146965.05, 0.0, 9.997252, 10.000497 
2.524701e+3, 2.8779387e+2, -564438.8, -243175.73, 12033.61, -0.0100422185, -0.5354826, -242725.63, -123157.28, 0.0, 9.99669, 10.00093 
2.524628e+3, 2.9779416e+2, -573411.3, -225908.72, 27881.896, -0.021332616, -0.57019895, -223685.83, -202120.19, 0.0, 9.996082, 10.000668 
2.524555e+3, 3.0779588e+2, -534108.0, -125113.89, 18192.01, 0.012996191, -0.45876172, -124306.31, -124306.31, 0.0, 9.9957695, 10.001176 
2.524481e+3, 3.177964e+2, -461942.0, 100850.625, 23397.816, -0.05971086, -0.5008715, 101821.7, 101821.7, 0.0, 9.99544, 10.002889 
2.5358805e+3, 1.2788863e+2, -937768.06, -1656969.1, -13997.652, 0.021971023, -0.5025602, -937495.75, 749144.44, 0.116077945, 10.007571, 9.996775 
2.535806e+3, 1.3788491e+2, -912478.8, -1614991.8, 2879.2173, 0.06395365, -0.5217047, -912467.0, 676209.94, 0.08044675, 10.006825, 9.996725 
2.5357315e+3, 1.4788166e+2, -833206.06, -1449456.5, 27582.129, 0.048888754, -0.5330308, -831974.0, 658734.44, 0.045796726, 10.006111, 9.997542 
2.5356573e+3, 1.578788e+2, -830878.5, -1425193.4, 15788.232, 0.029998682, -0.542783, -830459.4, 562276.3, 0.019503297, 10.0054, 9.997367 
2.5355834e+3, 1.678762e+2, -813911.5, -1322285.0, 8596.991, 0.038751233, -0.52815276, -813766.1, 480996.03, 0.0053307586, 10.00458, 9.997795 
2.5355095e+3, 1.7787398e+2, -826018.0, -1262331.0, -5578.2676, 0.051522795, -0.5048026, -825946.7, 370838.84, 0.00066605373, 10.003737, 9.99794 
2.5354356e+3, 1.8787237e+2, -746438.3, -1040985.3, 21824.213, 0.038681347, -0.49834964, -744830.06, 353971.44, 0.000010195159, 10.00304, 9.999122 
2.535362e+3, 1.9787113e+2, -762043.75, -1028335.3, 39669.625, 0.018764552, -0.5008384, -756259.75, 244553.27, 0.0, 10.002391, 9.99885 
2.535288e+3, 2.0786974e+2, -760315.6, -952636.6, 25521.969, 0.020080363, -0.5018882, -756986.4, 145840.8, 0.0, 10.001626, 9.999064 
2.5352144e+3, 2.1786852e+2, -779959.3, -912462.9, 3372.955, 0.027943501, -0.50206745, -779873.5, 24965.96, 0.0, 10.000823, 9.999055 
2.5351405e+3, 2.2786781e+2, -718412.3, -737479.75, 5784.4233, 0.0197397, -0.49383113, -716794.75, -9947.924, 0.0, 10.000165, 9.9999 
2.5350666e+3, 2.378675e+2, -714032.4, -691717.0, 16103.12, 0.0068656662, -0.4858821, -683283.75, -74433.664, 0.0, 9.999553, 9.999837 
2.5349927e+3, 2.4786717e+2, -672624.94, -540865.06, 12219.239, 0.0027409045, -0.50980365, -539741.44, -28890.242, 0.0, 9.998819, 10.000552 
2.534919e+3, 2.5786704e+2, -709567.06, -546924.44, 14906.983, -0.0009176224, -0.54537946, -545569.44, -132719.69, 0.0, 9.99806, 10.000204 
2.534845e+3, 2.6786688e+2, -675447.0, -479329.06, 184.99, -0.010395668, -0.5437399, -479328.88, -164476.33, 0.0, 9.997619, 10.000208 
2.5347713e+3, 2.7786705e+2, -624916.4, -398024.88, -12458.409, -0.013448721, -0.52287656, -397342.84, -180489.38, 0.0, 9.997266, 10.000264 
2.5346977e+3, 2.8786784e+2, -535354.94, -185051.55, -15237.079, 0.01428689, -0.49792382, -184390.03, -65545.1, 0.0, 9.996695, 10.001328 
2.534624e+3, 2.9786882e+2, -558428.5, -193422.88, 6963.849, 0.02334078, -0.5031815, -193290.06, -172456.03, 0.0, 9.996071, 10.000899 
2.5345492e+3, 3.07869e+2, -554873.25, -170707.17, 8939.181, -0.09717062, -0.53288, -170499.27, -170499.27, 0.0, 9.995774, 10.000864 
2.5344765e+3, 3.1787145e+2, -538993.8, -73873.01, 24378.275, -0.048489224, -0.33610588, -72598.766, -72598.766, 0.0, 9.995489, 10.001672 
2.5458878e+3, 1.2796374e+2, -946278.8, -1660698.4, 26210.94, 0.028252993, -0.5112744, -945318.44, 740585.9, 0.108118586, 10.00744, 9.996807 
2.5458124e+3, 1.3796009e+2, -950594.75, -1638543.5, 19899.877, 0.07542129, -0.5220128, -950019.56, 637920.44, 0.074606955, 10.006517, 9.996711 
2.5457373e+3, 1.4795683e+2, -881049.3, -1490481.4, 42484.215, 0.05533758, -0.52303314, -878101.94, 611870.2, 0.04214698, 10.005833, 9.997379 
2.5456622e+3, 1.5795392e+2, -858223.4, -1448838.0, 28944.828, 0.02873911, -0.52336633, -856808.25, 535192.44, 0.0177023, 10.005249, 9.997274 
2.5455877e+3, 1.6795117e+2, -815609.0, -1316604.4, 41496.09, 0.036349613, -0.5222176, -812195.25, 481833.03, 0.0047123344, 10.004541, 9.997849 
2.545513e+3, 1.7794879e+2, -818014.5, -1257143.5, 56907.355, 0.050815187, -0.5178394, -810759.6, 385292.97, 0.0005554718, 10.003791, 9.997948 
2.5454384e+3, 1.8794724e+2, -756783.75, -1056772.3, 54441.824, 0.040950537, -0.4959879, -747209.25, 350858.8, 0.0000065919644, 10.00302, 9.99902 
2.545364e+3, 1.9794618e+2, -786287.56, -1046499.0, 21162.0, 0.02424869, -0.47332355, -784577.8, 215500.8, 0.0, 10.002258, 9.998786 
2.5452894e+3, 2.0794462e+2, -770293.4, -959380.6, 23848.293, 0.017655978, -0.48685902, -767331.9, 134762.27, 0.0, 10.001573, 9.999042 
2.545215e+3, 2.1794313e+2, -769075.3, -909004.44, 41380.08, 0.01508182, -0.51026917, -757754.25, 46354.633, 0.0, 10.000911, 9.999033 
2.5451404e+3, 2.2794248e+2, -716030.3, -738541.8, 37254.07, 0.01679623, -0.4937516, -688368.75, 17747.139, 0.0, 10.000197, 9.999874 
2.545066e+3, 2.3794231e+2, -728743.25, -702620.94, 24131.838, 0.020325145, -0.46739516, -688242.4, -80124.48, 0.0, 9.999474, 9.999797 
2.5449914e+3, 2.4794194e+2, -655395.2, -543487.9, 11224.267, 0.0064041717, -0.48709077, -542373.2, -32253.615, 0.0, 9.99899, 10.000449 
2.544917e+3, 2.5794172e+2, -642767.44, -523629.8, 9774.16, -0.01395884, -0.5235702, -522833.25, -110713.8, 0.0, 9.998563, 10.000119 
2.5448427e+3, 2.6794136e+2, -634759.3, -463670.53, 19516.408, -0.01593037, -0.5364237, -461472.5, -147348.44, 0.0, 9.997921, 10.000167 
2.5447685e+3, 2.7794126e+2, -634946.3, -407676.34, 36493.266, -0.004620257, -0.5338839, -401960.28, -185833.3, 0.0, 9.997223, 10.000216 
2.5446942e+3, 2.8794226e+2, -534256.1, -192573.63, 13919.555, 0.011818655, -0.48037225, -192007.5, -73891.125, 0.0, 9.99674, 10.001253 
2.5446197e+3, 2.9794356e+2, -527406.3, -184019.42, 3290.1545, 0.0052651484, -0.44386747, -183987.89, -163885.61, 0.0, 9.996309, 10.000848 
2.544545e+3, 3.0794254e+2, -539535.06, -170730.02, 14129.775, -0.08819061, -0.58662146, -170189.45, -170189.45, 0.0, 9.995916, 10.0007925 
2.5444722e+3, 3.179432e+2, -569467.44, -143487.13, 61288.0, -0.012808169, -0.5610461, -134844.64, -134844.64, 0.0, 9.995531, 10.001165 
2.555895e+3, 1.2803964e+2, -967464.56, -1709726.9, -7693.5073, 0.03655408, -0.5342195, -967384.8, 717774.4, 0.1000648, 10.007387, 9.996474 
2.555819e+3, 1.3803576e+2, -964693.8, -1679827.9, -9061.701, 0.08719159, -0.5375643, -964579.0, 622619.5, 0.06872671, 10.006518, 9.996428 
2.555743e+3, 1.4803253e+2, -889081.9, -1518077.3, 22347.303, 0.067746416, -0.51276976, -888288.9, 600942.5, 0.03850055, 10.005848, 9.997186 
2.5556675e+3, 1.5802974e+2, -856164.3, -1448176.3, 7003.672, 0.04115838, -0.48462495, -856081.5, 535178.3, 0.015926106, 10.00525, 9.997281 
2.5555918e+3, 1.6802706e+2, -783828.8, -1252465.8, 13714.535, 0.033291575, -0.50733835, -783427.8, 509857.5, 0.0041179983, 10.004543, 9.998292 
2.5555164e+3, 1.7802466e+2, -811735.5, -1246761.4, 27034.578, 0.027789889, -0.5427559, -810061.94, 385245.63, 0.00045537742, 10.003798, 9.998018 
2.555441e+3, 1.8802279e+2, -810988.56, -1173026.6, 25299.143, 0.031468183, -0.5041748, -809229.2, 288098.5, 0.0000041140547, 10.003032, 9.9982195 
2.555366e+3, 1.9802135e+2, -812734.56, -1104789.3, -5117.2725, 0.038681712, -0.44583955, -812644.94, 186699.67, 0.0, 10.002268, 9.9983835 
2.5552908e+3, 2.0801987e+2, -733373.25, -885902.4, -23.213434, 0.026563544, -0.46789998, -733373.25, 167984.94, 0.0, 10.001581, 9.999544 
2.5552154e+3, 2.1801862e+2, -750747.06, -872908.94, 16014.417, 0.00817652, -0.5149678, -748682.6, 54685.965, 0.0, 10.000915, 9.999282 
2.5551403e+3, 2.2801784e+2, -740843.8, -792371.75, 9556.779, 0.011066707, -0.49587032, -739128.44, -33751.316, 0.0, 10.000203, 9.999504 
2.5550652e+3, 2.3801742e+2, -749178.06, -748384.9, -67.4429, 0.02068169, -0.45873794, -748379.2, -140996.44, 0.0, 9.999484, 9.99948 
2.5549904e+3, 2.4801692e+2, -668295.1, -573012.44, -4765.5107, 0.008946651, -0.46846166, -572774.7, -63388.1, 0.0, 9.998997, 10.000246 
2.554915e+3, 2.5801662e+2, -643243.9, -527982.06, -10211.508, -0.010372214, -0.4936229, -527084.4, -115696.75, 0.0, 9.998571, 10.000088 
2.5548404e+3, 2.680164e+2, -605873.94, -406143.03, -8682.365, -0.0041463533, -0.5146874, -405766.3, -92377.02, 0.0, 9.997927, 10.000562 
2.5547653e+3, 2.7801642e+2, -625963.25, -390576.28, 12878.827, 0.013589609, -0.5366367, -389873.75, -174484.5, 0.0, 9.997225, 10.000335 
2.5546905e+3, 2.8801706e+2, -576055.9, -281340.66, -2433.767, -0.022227742, -0.4861572, -281320.56, -163937.13, 0.0, 9.996743, 10.000645 
2.5546148e+3, 2.9801825e+2, -551732.9, -237758.7, -13618.746, -0.08708347, -0.4027233, -237169.08, -217796.69, 0.0, 9.996318, 10.000478 
2.554542e+3, 3.0801657e+2, -534956.75, -164081.72, -4533.1753, 0.06980753, -0.6059456, -164026.33, -164026.33, 0.0, 9.995924, 10.000837 
2.554467e+3, 3.180171e+2, -475442.97, 53724.996, 27185.104, -0.04769658, -0.611096, 55117.918, 55117.918, 0.0, 9.99552, 10.002527 
2.5659022e+3, 1.2811615e+2, -1004913.0, -1721586.8, -17466.45, 0.06674645, -0.5050941, -1004487.56, 679923.44, 0.09199464, 10.007002, 9.99658 
2.565825e+3, 1.3811213e+2, -948203.25, -1664024.9, 3494.966, 0.061074622, -0.53312725, -948186.2, 638265.06, 0.062855065, 10.006573, 9.996509 
2.5657484e+3, 1.4810887e+2, -879399.94, -1513041.4, 48845.29, 0.051288582, -0.5126112, -875656.75, 612827.4, 0.034886934, 10.0059, 9.997193 
2.5656727e+3, 1.5810609e+2, -867982.2, -1454513.8, 43017.19, 0.052634656, -0.4810517, -864844.0, 525668.2, 0.01419084, 10.005166, 9.997276 
2.565596e+3, 1.6810347e+2, -794897.1, -1263394.4, 28237.045, 0.039096627, -0.49360797, -793201.4, 499335.75, 0.0035537356, 10.004493, 9.998239 
2.5655198e+3, 1.7810112e+2, -809940.44, -1253927.4, 11808.585, 0.017975198, -0.5194256, -809626.56, 384932.47, 0.0003661317, 10.003848, 9.997942 
2.5654435e+3, 1.8809897e+2, -807768.06, -1188516.5, 32698.01, 0.020070072, -0.49596548, -804980.44, 291601.5, 0.000002561901, 10.003132, 9.998062 
2.5653678e+3, 1.9809715e+2, -802375.8, -1112121.5, 41675.332, 0.031125333, -0.4572981, -796866.5, 201735.83, 0.0, 10.002397, 9.998269 
2.565292e+3, 2.0809571e+2, -721460.06, -882996.9, 30144.672, 0.026465751, -0.46857104, -716018.06, 184597.4, 0.0, 10.00168, 9.999513 
2.565216e+3, 2.180946e+2, -745068.0, -875866.44, 10739.647, 0.015638303, -0.4969764, -744192.06, 58432.324, 0.0, 10.000984, 9.999226 
2.5651404e+3, 2.2809365e+2, -719533.3, -796684.44, 9023.051, 0.010770577, -0.48449838, -718492.1, -13857.51, 0.0, 10.000418, 9.999369 
2.5650644e+3, 2.3809297e+2, -699454.06, -735595.4, 16400.86, 0.010094114, -0.46068752, -693121.1, -86478.195, 0.0, 9.99988, 9.999374 
2.564989e+3, 2.4809238e+2, -649274.06, -570371.0, 24239.947, 0.008338615, -0.47108847, -563519.2, -54871.363, 0.0, 9.999162, 10.000181 
2.5649133e+3, 2.5809205e+2, -672045.75, -545615.25, 27091.297, 0.003759169, -0.49178544, -540054.75, -129405.33, 0.0, 9.998396, 10.000049 
2.564838e+3, 2.680919e+2, -611979.06, -406954.9, 8781.609, 0.0011050092, -0.50395983, -406579.47, -93929.484, 0.0, 9.997881, 10.000575 
2.5647625e+3, 2.78092e+2, -598627.7, -378343.13, 3890.145, 0.005525738, -0.5185447, -378274.44, -163625.81, 0.0, 9.997422, 10.000321 
2.5646868e+3, 2.8809237e+2, -569912.0, -289396.03, 11817.739, -0.028583493, -0.48777914, -288899.06, -172253.6, 0.0, 9.9968405, 10.00054 
2.5646108e+3, 2.9809323e+2, -572562.56, -257710.1, 36684.59, -0.089137375, -0.4243914, -253492.34, -234854.61, 0.0, 9.996227, 10.0003805 
2.564538e+3, 3.0809173e+2, -599756.44, -202269.52, 42914.9, 0.09990773, -0.6017087, -197688.97, -197688.97, 0.0, 9.995515, 10.00077 
2.5644612e+3, 3.1809485e+2, -520804.84, 165489.9, 45417.656, -0.113542184, -0.35338748, 168482.5, 168482.5, 0.0, 9.994634, 10.003722 
2.5759092e+3, 1.2819317e+2, -984119.5, -1666971.9, -31733.045, 0.10776827, -0.4415899, -982648.0, 701011.44, 0.08402486, 10.0069065, 9.99701 
2.5758305e+3, 1.3818915e+2, -925667.56, -1618355.3, -15419.236, 0.0052052303, -0.5123206, -925324.5, 660373.6, 0.0570688, 10.006549, 9.996836 
2.5757536e+3, 1.4818583e+2, -868137.3, -1493478.4, 20642.916, 0.012913791, -0.5182068, -867456.56, 620273.7, 0.03134995, 10.005894, 9.997334 
2.5756776e+3, 1.58183e+2, -871288.25, -1462227.4, 15034.235, 0.06326603, -0.5042773, -870906.0, 518852.1, 0.012517263, 10.0051565, 9.997231 
2.5756004e+3, 1.681804e+2, -827595.25, -1332322.1, 3819.5945, 0.051407732, -0.4805359, -827566.4, 464217.56, 0.003026083, 10.004489, 9.997769 
2.5755233e+3, 1.7817812e+2, -823122.1, -1282516.1, -12717.9795, 0.017378913, -0.45705414, -822770.3, 371036.7, 0.0002880152, 10.003848, 9.997748 
2.5754464e+3, 1.8817575e+2, -780716.75, -1134481.3, 5429.222, 0.006107626, -0.4748657, -780633.5, 315197.25, 0.0000016628666, 10.003136, 9.998434 
2.5753698e+3, 1.981736e+2, -794971.5, -1098985.3, 14242.1, 0.004526318, -0.50239414, -794305.75, 203546.34, 0.0, 10.002401, 9.99836 
2.5752935e+3, 2.0817213e+2, -757003.1, -960371.5, 3658.2532, 0.018648528, -0.48516926, -756937.4, 142929.05, 0.0, 10.001692, 9.998979 
2.5752172e+3, 2.1817106e+2, -766966.5, -925064.9, -12860.559, 0.034351338, -0.4581525, -765927.2, 35949.37, 0.0, 10.000996, 9.998885 
2.5751403e+3, 2.2816989e+2, -713230.5, -786531.2, -9977.632, 0.014761641, -0.46087143, -711896.6, -8008.073, 0.0, 10.000425, 9.999437 
2.575064e+3, 2.381689e+2, -693615.5, -725383.4, -6385.614, -0.011706538, -0.4742286, -692379.94, -86481.18, 0.0, 9.999883, 9.999446 
2.5749877e+3, 2.4816826e+2, -645281.3, -563189.56, -5923.7305, 0.0045760283, -0.49516425, -562764.3, -54860.598, 0.0, 9.999163, 10.000233 
2.574912e+3, 2.5816795e+2, -676937.3, -557514.6, 1161.7628, 0.027383724, -0.51758224, -557503.3, -147598.27, 0.0, 9.998399, 9.999968 
2.5748354e+3, 2.6816776e+2, -640299.8, -467715.84, -9116.387, -0.0013544194, -0.50464207, -467235.63, -155328.78, 0.0, 9.997884, 10.00016 
2.574759e+3, 2.7816787e+2, -608742.6, -401617.25, -16941.926, -0.033401717, -0.48175907, -400240.63, -186334.17, 0.0, 9.997427, 10.000162 
2.5746837e+3, 2.8816813e+2, -540220.0, -229399.5, -13481.404, -0.0023103717, -0.4846584, -228815.86, -112912.695, 0.0, 9.996842, 10.000953 
2.574608e+3, 2.981685e+2, -559567.44, -232378.86, 12206.353, 0.015639279, -0.5049104, -231924.11, -214026.05, 0.0, 9.996228, 10.000557 
2.5745317e+3, 3.0816793e+2, -609747.94, -218384.47, 12294.19, -0.038917407, -0.5838546, -217998.64, -217998.64, 0.0, 9.99549, 10.000674 
2.574456e+3, 3.1817046e+2, -561338.44, 95808.805, -788.4635, -0.05832017, -0.3892759, 95809.75, 95809.75, 0.0, 9.994563, 10.003282 
2.5859153e+3, 1.2827007e+2, -1056289.9, -1680832.4, 5323.0405, 0.11059494, -0.4509468, -1056244.5, 626662.8, 0.07628043, 10.006212, 9.997243 
2.5858366e+3, 1.3826671e+2, -950917.94, -1611342.4, 3452.4963, 0.0028901056, -0.47713533, -950899.94, 634039.5, 0.05145675, 10.006247, 9.997028 
2.5857592e+3, 1.4826344e+2, -893729.75, -1498873.5, 18490.635, 0.012143697, -0.4891182, -893165.25, 593805.56, 0.027942179, 10.005667, 9.997403 
2.5856823e+3, 1.5826045e+2, -902510.06, -1476011.6, 10152.39, 0.0659443, -0.49597296, -902330.4, 486669.34, 0.010929547, 10.0049305, 9.997243 
2.5856045e+3, 1.6825773e+2, -862213.3, -1362255.6, 18310.867, 0.048801877, -0.47874647, -861543.7, 429483.44, 0.0025420696, 10.004311, 9.997648 
2.5855267e+3, 1.782553e+2, -845059.2, -1298121.4, 20395.955, 0.008505647, -0.4556681, -844142.9, 348908.84, 0.00022139605, 10.003724, 9.997699 
2.5854492e+3, 1.88253e+2, -784063.3, -1126223.1, 25333.207, 0.006642068, -0.46784365, -782197.8, 312876.38, 0.0000011356803, 10.003076, 9.998517 
2.585372e+3, 1.9825096e+2, -791829.75, -1097674.5, 16770.793, 0.016579695, -0.4911096, -790912.9, 206181.17, 0.0, 10.002428, 9.998353 
2.5852948e+3, 2.0824927e+2, -741359.2, -976102.7, 21519.531, 0.018064154, -0.48225328, -739402.75, 159707.9, 0.0, 10.0019045, 9.998766 
2.5852177e+3, 2.182479e+2, -718609.5, -916309.56, 23857.701, 0.017366158, -0.4639176, -715771.2, 85352.83, 0.0, 10.001396, 9.998749 
2.5851408e+3, 2.2824669e+2, -691819.2, -775265.75, 24096.836, 0.008570763, -0.46601444, -685360.6, 17775.709, 0.0, 10.000574, 9.99944 
2.5850636e+3, 2.3824571e+2, -725203.4, -744404.1, 24727.537, -0.001144401, -0.47615516, -708277.94, -103131.86, 0.0, 9.999688, 9.999406 
2.5849867e+3, 2.4824505e+2, -641566.0, -577295.2, 16952.549, 0.0083891405, -0.4882065, -573097.8, -65946.16, 0.0, 9.999262, 10.000086 
2.58491e+3, 2.5824466e+2, -606793.0, -535888.3, 9250.925, 0.020267537, -0.5013428, -534701.2, -125547.23, 0.0, 9.998939, 9.999853 
2.5848332e+3, 2.682443e+2, -597430.56, -454001.13, 12239.535, -0.0056710257, -0.49910384, -452964.2, -141806.77, 0.0, 9.998214, 10.0000925 
2.5847563e+3, 2.7824417e+2, -619471.75, -411793.38, 28392.1, -0.03164784, -0.4902689, -407981.8, -194823.08, 0.0, 9.99738, 10.000112 
2.5846803e+3, 2.882444e+2, -548486.0, -233949.1, 13546.641, 0.0069431807, -0.49490798, -233366.73, -118211.016, 0.0, 9.996792, 10.000945 
2.584604e+3, 2.9824477e+2, -556944.9, -224227.34, 5885.5396, 0.033097394, -0.51709795, -224123.27, -206972.55, 0.0, 9.99622, 10.000615 
2.5845262e+3, 3.082448e+2, -614644.4, -189588.05, 14562.837, -0.0835974, -0.5563415, -189089.7, -189089.7, 0.0, 9.995329, 10.000946 
2.584451e+3, 3.1824544e+2, -610341.6, -5259.5703, 33218.504, 0.022139344, -0.5651452, -3441.3655, -3441.3655, 0.0, 9.994573, 10.002577 
2.595921e+3, 1.2834707e+2, -1044019.44, -1668094.9, 7988.2114, 0.08524577, -0.5072059, -1043917.25, 638235.56, 0.06884878, 10.006227, 9.997328 
2.595843e+3, 1.383448e+2, -945047.06, -1602901.9, -5689.259, 0.038840223, -0.43304572, -944997.9, 639177.5, 0.046091665, 10.006228, 9.997096 
2.5957647e+3, 1.4834164e+2, -893662.5, -1501484.8, -10296.862, 0.037970867, -0.43622425, -893488.06, 592717.94, 0.024711901, 10.005653, 9.997395 
2.595687e+3, 1.5833846e+2, -898894.06, -1469514.8, -16078.302, 0.060036924, -0.46286047, -898441.44, 489795.4, 0.009450976, 10.004923, 9.997293 
2.5956085e+3, 1.6833544e+2, -851342.3, -1340895.5, -3517.8438, 0.033738066, -0.4861737, -851317.0, 438949.2, 0.0021079122, 10.00431, 9.997798 
2.59553e+3, 1.7833275e+2, -841831.9, -1293320.9, -2433.1292, -0.0064488715, -0.50385964, -841818.75, 350473.94, 0.00016634166, 10.003727, 9.997733 
2.595452e+3, 1.8833078e+2, -796538.5, -1154603.3, 709.60614, 0.019241586, -0.47083986, -796537.1, 297775.38, 0.00000077863837, 10.003081, 9.9983225 
2.5953746e+3, 1.983292e+2, -797709.94, -1111790.3, -5457.552, 0.05996548, -0.4304423, -797615.2, 198713.55, 0.0, 10.002432, 9.998258 
2.5952965e+3, 2.083271e+2, -735857.1, -966698.4, 3768.6877, 0.022491254, -0.46337122, -735795.6, 162552.95, 0.0, 10.001908, 9.998832 
2.595218e+3, 2.1832512e+2, -717112.75, -913932.7, 849.147, -0.032556705, -0.51321757, -717109.06, 83257.95, 0.0, 10.001394, 9.998769 
2.5951406e+3, 2.2832403e+2, -697464.8, -787988.6, -10160.043, -0.0063900137, -0.49752748, -696338.5, 6039.6094, 0.0, 10.000575, 9.999354 
2.5950631e+3, 2.3832338e+2, -735968.9, -769153.25, -2040.7903, 0.03944062, -0.46526894, -735843.8, -131458.64, 0.0, 9.999694, 9.999236 
2.594986e+3, 2.4832268e+2, -665724.94, -630396.56, 5554.3843, 0.018401986, -0.44970948, -629543.9, -123151.88, 0.0, 9.9992695, 9.999721 
2.5949082e+3, 2.5832218e+2, -615754.25, -558297.06, -9449.827, -0.020866223, -0.44348618, -556782.8, -148386.03, 0.0, 9.99895, 9.999697 
2.594831e+3, 2.6832148e+2, -577161.4, -413630.4, -20963.824, -0.011547035, -0.4880293, -410985.72, -100583.625, 0.0, 9.998218, 10.00037 
2.5947538e+3, 2.783209e+2, -617130.1, -408098.5, 526.34985, 0.014660144, -0.545089, -408097.2, -195691.61, 0.0, 9.99738, 10.000139 
2.5946766e+3, 2.883211e+2, -582646.3, -305722.94, -7658.1987, -0.006074306, -0.5196492, -305511.3, -191107.5, 0.0, 9.99679, 10.000456 
2.594599e+3, 2.9832187e+2, -562596.7, -234693.5, -23070.021, -0.05545473, -0.4620705, -233078.33, -216681.38, 0.0, 9.996209, 10.000551 
2.5945222e+3, 3.083223e+2, -573275.1, -101361.47, -23346.432, -0.0006277033, -0.5001979, -100209.3, -100209.3, 0.0, 9.995313, 10.001563 
2.5944453e+3, 3.183227e+2, -617733.0, -28875.744, 50653.492, -0.004971283, -0.5795021, -24550.303, -24550.303, 0.0, 9.9946, 10.002406 
2.6059267e+3, 1.2842523e+2, -1004332.5, -1663911.0, 46521.105, 0.06299569, -0.51408005, -1001067.44, 680319.1, 0.0617711, 10.006537, 9.997209 
2.605849e+3, 1.384229e+2, -967105.3, -1620180.5, 16587.986, 0.048085235, -0.43156785, -966684.25, 616726.25, 0.04101785, 10.006069, 9.997053 
2.60577e+3, 1.4841986e+2, -919301.0, -1505400.5, 1492.387, 0.037687775, -0.4277099, -919297.2, 566143.25, 0.02169255, 10.005427, 9.997473 
2.6056913e+3, 1.5841681e+2, -915411.7, -1465800.3, 423.72495, 0.04241424, -0.44888565, -915411.4, 472058.8, 0.008098294, 10.004758, 9.9973955 
2.6056123e+3, 1.6841388e+2, -860633.06, -1329635.6, 16079.178, 0.031919573, -0.47472578, -860082.5, 429415.88, 0.0017272314, 10.004181, 9.997934 
2.6055333e+3, 1.7841125e+2, -850948.4, -1290581.6, 14557.084, 0.013981477, -0.49828362, -850466.9, 341056.94, 0.00012243769, 10.003639, 9.997792 
2.6054552e+3, 1.8840922e+2, -807888.9, -1170642.5, 20953.69, 0.028768996, -0.4654331, -806682.56, 286861.7, 0.00000050618763, 10.003056, 9.998221 
2.6053768e+3, 1.9840758e+2, -796893.8, -1114314.4, 20897.166, 0.05251266, -0.421874, -795524.0, 200037.34, 0.0, 10.002458, 9.998224 
2.6052982e+3, 2.0840552e+2, -749642.4, -965515.1, 31134.922, 0.023611847, -0.45337608, -745241.56, 152339.25, 0.0, 10.001786, 9.998896 
2.6052195e+3, 2.1840358e+2, -757949.94, -933406.8, 25597.031, -0.018686322, -0.5030125, -754291.9, 45306.85, 0.0, 10.001118, 9.998766 
2.605141e+3, 2.284024e+2, -693301.1, -801041.3, 10000.906, -0.0048141275, -0.4848545, -692380.7, 9229.93, 0.0, 10.000673, 9.999215 
2.6050627e+3, 2.3840165e+2, -662289.2, -745702.3, 16687.34, 0.02605969, -0.44901547, -659074.6, -55455.832, 0.0, 10.0002575, 9.999123 
2.604985e+3, 2.4840079e+2, -640282.3, -628437.0, 40369.477, 0.013607676, -0.44003987, -593558.06, -87930.67, 0.0, 9.999494, 9.999622 
2.604907e+3, 2.5840008e+2, -664865.75, -588738.4, 41648.656, -0.012660621, -0.44110575, -570379.94, -162745.94, 0.0, 9.998648, 9.999631 
2.6048288e+3, 2.6839945e+2, -589136.7, -419996.97, 15077.162, -0.006711053, -0.47696716, -418663.5, -109024.695, 0.0, 9.998142, 10.00036 
2.604751e+3, 2.7839896e+2, -576480.9, -394987.9, 16121.928, 0.014852678, -0.52452695, -393566.94, -181925.47, 0.0, 9.997692, 10.000076 
2.6046732e+3, 2.8839886e+2, -576865.6, -322627.7, 19718.09, -0.010939992, -0.5127017, -321107.47, -207464.9, 0.0, 9.996922, 10.000273 
2.6045948e+3, 2.9839933e+2, -586665.9, -251014.86, 21236.129, -0.06801528, -0.46881756, -249676.63, -234037.78, 0.0, 9.996072, 10.000502 
2.604518e+3, 3.0840012e+2, -556734.56, -78967.37, -10014.86, 0.040357403, -0.47631094, -78757.53, -78757.53, 0.0, 9.995369, 10.001688 
2.6044393e+3, 3.18401e+2, -615933.3, -14972.83, 60689.27, -0.03700998, -0.5129358, -8905.257, -8905.257, 0.0, 9.99456, 10.002518 
2.6159328e+3, 1.2850434e+2, -1018089.25, -1698835.0, 28433.006, 0.042722646, -0.49015954, -1016903.75, 663707.06, 0.055067804, 10.006518, 9.99697 
2.6158544e+3, 1.3850127e+2, -979103.1, -1641441.8, -2659.1274, 0.03257308, -0.46055683, -979092.5, 603550.4, 0.03625773, 10.006018, 9.996933 
2.615775e+3, 1.4849831e+2, -913314.1, -1492674.0, -22756.637, 0.015643753, -0.45120004, -912421.6, 572250.8, 0.01890063, 10.005406, 9.997575 
2.6156953e+3, 1.5849558e+2, -906339.75, -1450579.8, -22522.883, 0.016224148, -0.44961783, -905409.25, 481290.06, 0.0068788184, 10.004765, 9.9975 
2.6156163e+3, 1.6849303e+2, -853162.75, -1315888.1, -4005.063, 0.040605836, -0.44742757, -853128.06, 435595.75, 0.0014003686, 10.004183, 9.998031 
2.6155373e+3, 1.7849073e+2, -847631.44, -1282404.6, -6756.741, 0.06104114, -0.44720444, -847526.5, 343219.53, 0.00008883098, 10.003629, 9.997855 
2.6154578e+3, 1.884883e+2, -809489.0, -1174706.9, -764.303, 0.034123667, -0.45450425, -809487.44, 283282.47, 0.0000003029647, 10.003055, 9.998197 
2.6153785e+3, 1.9848613e+2, -796229.6, -1114809.1, -1408.1464, 0.0014330853, -0.46135175, -796223.44, 198568.38, 0.0, 10.0024605, 9.998221 
2.6152995e+3, 2.0848453e+2, -746760.1, -961175.06, 6110.1235, 0.023077305, -0.44980925, -746586.1, 150221.25, 0.0, 10.001789, 9.998926 
2.6152208e+3, 2.1848322e+2, -760808.6, -940222.75, 4379.9897, 0.051890478, -0.43629, -760701.75, 38118.02, 0.0, 10.001117, 9.998722 
2.6151416e+3, 2.284818e+2, -706608.25, -830857.1, -3858.3977, 0.009980143, -0.43074566, -706488.56, -5654.216, 0.0, 10.000678, 9.99901 
2.615062e+3, 2.384805e+2, -666226.5, -756553.6, -3998.9067, -0.042003546, -0.4305128, -666049.8, -63202.305, 0.0, 10.000264, 9.999047 
2.614984e+3, 2.4847932e+2, -629385.56, -606679.06, 6848.447, -0.0046884553, -0.46068123, -604773.44, -99915.25, 0.0, 9.999494, 9.999774 
2.6149058e+3, 2.5847843e+2, -665013.06, -590084.94, 14443.325, 0.046200562, -0.49446827, -587397.2, -180531.28, 0.0, 9.998648, 9.999623 
2.614827e+3, 2.684782e+2, -612117.25, -469166.66, -1042.8531, 0.0077373614, -0.46381336, -469159.03, -160291.33, 0.0, 9.998144, 10.000024 
2.614748e+3, 2.784783e+2, -586296.2, -418204.25, -6295.9604, -0.03855343, -0.4230922, -417968.78, -207102.23, 0.0, 9.9977, 9.999916 
2.6146698e+3, 2.8847766e+2, -567352.1, -303576.7, -14017.88, -0.004772178, -0.47113127, -302833.8, -189961.9, 0.0, 9.99692, 10.000407 
2.6145914e+3, 2.984771e+2, -593461.5, -264693.9, -7901.391, 0.0098204, -0.5376579, -264504.1, -249627.9, 0.0, 9.996065, 10.000414 
2.6145127e+3, 3.0847794e+2, -587245.0, -143401.1, -36904.934, 0.01707882, -0.508238, -140353.42, -140353.42, 0.0, 9.995368, 10.001248 
2.6144335e+3, 3.1847897e+2, -634107.2, -45980.227, 9092.468, -0.015994266, -0.49485642, -45839.69, -45839.69, 0.0, 9.99453, 10.00232 
2.625939e+3, 1.2858377e+2, -1024732.44, -1689738.6, 39267.746, 0.02937874, -0.4705441, -1022421.75, 657411.3, 0.0487588, 10.006373, 9.997103 
2.62586e+3, 1.3858059e+2, -1016585.9, -1647625.9, 26828.39, 0.034867432, -0.46414465, -1015447.4, 566418.3, 0.031822126, 10.005674, 9.997055 
2.6257798e+3, 1.4857775e+2, -938284.5, -1492660.5, 14617.188, 0.016588751, -0.45391503, -937899.4, 545994.75, 0.016340237, 10.005174, 9.997683 
2.6256996e+3, 1.5857516e+2, -906751.06, -1443011.9, 12761.913, 0.013132552, -0.444938, -906447.56, 479472.06, 0.005791835, 10.004731, 9.997564 
2.6256198e+3, 1.6857268e+2, -867741.0, -1324772.3, 22915.338, 0.035066564, -0.4384761, -866594.9, 421349.06, 0.0011247458, 10.004098, 9.998007 
2.6255405e+3, 1.7857037e+2, -872412.75, -1285707.5, 14321.117, 0.05457103, -0.43510425, -871917.1, 318049.13, 0.00006410776, 10.003429, 9.997925 
2.6254603e+3, 1.8856804e+2, -822101.06, -1157093.3, 31178.426, 0.03013091, -0.45104015, -819223.9, 272765.06, 0.00000016598092, 10.002872, 9.998403 
2.6253805e+3, 1.9856592e+2, -807016.3, -1111157.6, 41466.203, -0.00058123603, -0.46856242, -801464.2, 192545.42, 0.0, 10.002354, 9.998297 
2.625301e+3, 2.0856431e+2, -755677.2, -983488.25, 39567.88, 0.02080093, -0.4469896, -749000.44, 147025.3, 0.0, 10.00181, 9.99876 
2.6252216e+3, 2.1856302e+2, -747219.9, -942792.9, 27149.883, 0.05174065, -0.41796193, -743520.8, 54518.063, 0.0, 10.001257, 9.998633 
2.6251417e+3, 2.2856148e+2, -707448.44, -828328.25, 31609.088, 0.014855061, -0.4207062, -699681.9, 372.41476, 0.0, 10.000665, 9.999031 
2.625062e+3, 2.3856005e+2, -694961.8, -768135.6, 42975.844, -0.033704177, -0.4338991, -675108.3, -73039.93, 0.0, 10.000062, 9.999063 
2.624983e+3, 2.485589e+2, -637113.7, -611108.25, 40705.305, -0.0030939812, -0.4591962, -581379.3, -77300.73, 0.0, 9.999448, 9.9997635 
2.6249042e+3, 2.5855803e+2, -643252.8, -584522.3, 41031.043, 0.04233371, -0.4849662, -563431.0, -157345.17, 0.0, 9.998823, 9.999575 
2.624825e+3, 2.685577e+2, -603088.44, -479557.56, 40747.07, 0.0103723975, -0.45661336, -467327.78, -159238.4, 0.0, 9.998275, 9.9998865 
2.6247454e+3, 2.7855766e+2, -585330.7, -421735.2, 44600.18, -0.027974037, -0.41742098, -410366.2, -200276.05, 0.0, 9.99773, 9.999874 
2.6246664e+3, 2.8855723e+2, -533275.5, -273406.66, 30179.584, -0.001713536, -0.45085433, -269947.8, -157854.55, 0.0, 9.9971, 10.0005245 
2.624587e+3, 2.985568e+2, -548485.06, -253466.9, 36054.31, 0.005138325, -0.50954896, -249124.61, -235028.9, 0.0, 9.996423, 10.000317 
2.624508e+3, 3.0855665e+2, -561252.1, -180906.16, 8137.3135, 0.031721834, -0.54321265, -180732.14, -180732.14, 0.0, 9.995768, 10.000795 
2.624428e+3, 3.1855747e+2, -565823.2, -19320.688, 17685.738, -0.028868733, -0.5161567, -18748.945, -18748.945, 0.0, 9.995035, 10.002255 
2.6359448e+3, 1.2866367e+2, -1000075.9, -1640183.1, 15539.334, 0.018519359, -0.45260236, -999698.9, 679352.8, 0.04286679, 10.006347, 9.997466 
2.6358655e+3, 1.3866085e+2, -1001094.4, -1611971.9, 3924.037, 0.04656783, -0.44657454, -1001069.2, 580010.25, 0.027719585, 10.005639, 9.997317 
2.635785e+3, 1.4865811e+2, -934409.06, -1481877.8, -1736.2378, 0.032947373, -0.43955395, -934403.56, 548702.9, 0.014011582, 10.005144, 9.997774 
2.6357043e+3, 1.5865557e+2, -910696.8, -1443858.9, -7008.221, 0.026213028, -0.43530798, -910604.75, 474526.88, 0.004833348, 10.004689, 9.9975815 
2.6356235e+3, 1.6865282e+2, -880693.0, -1346607.9, -1398.5421, 0.016873328, -0.44562143, -880688.8, 406470.06, 0.0008961675, 10.004071, 9.997872 
2.635543e+3, 1.7865027e+2, -869855.9, -1279206.0, -7056.4395, 0.003974592, -0.45779714, -869734.3, 319449.84, 0.000046516947, 10.00342, 9.997976 
2.635463e+3, 1.886484e+2, -797242.1, -1105033.3, 12919.497, 0.018856168, -0.45249572, -796700.8, 294500.66, 0.00000008213487, 10.002866, 9.998766 
2.6353827e+3, 1.9864684e+2, -800685.4, -1096654.1, 21736.518, 0.038238846, -0.44488564, -799097.5, 194118.17, 0.0, 10.002343, 9.998403 
2.6353025e+3, 2.0864484e+2, -780454.9, -1035677.8, 19388.229, 0.014800383, -0.44523787, -778990.44, 116245.945, 0.0, 10.00181, 9.9984045 
2.635222e+3, 2.186429e+2, -756423.1, -963675.7, 6934.728, -0.0148665635, -0.4482336, -756191.3, 41065.168, 0.0, 10.00126, 9.998491 
2.6351422e+3, 2.2864144e+2, -691775.06, -796769.1, 9846.254, 0.012399362, -0.4529156, -690859.6, 8411.122, 0.0, 10.000665, 9.99925 
2.6350626e+3, 2.386403e+2, -689533.75, -757479.25, 20326.752, 0.048590444, -0.45674258, -683917.06, -82635.47, 0.0, 10.000061, 9.999139 
2.6349825e+3, 2.4863952e+2, -650342.06, -639833.7, 16828.264, 0.015918463, -0.43369302, -627458.44, -124169.65, 0.0, 9.99945, 9.999567 
2.634902e+3, 2.5863898e+2, -648808.7, -599163.7, 18327.184, -0.03016206, -0.41063008, -593131.0, -187837.08, 0.0, 9.998832, 9.999473 
2.6348227e+3, 2.6863787e+2, -598492.3, -471863.1, 19909.473, 0.0017415824, -0.4584883, -468806.56, -161502.39, 0.0, 9.998278, 9.999941 
2.6347438e+3, 2.7863693e+2, -580591.9, -413147.6, 22867.486, 0.052865464, -0.5154663, -410080.8, -200767.94, 0.0, 9.99773, 9.999935 
2.6346633e+3, 2.8863752e+2, -526767.3, -261527.31, 5248.689, -0.00514302, -0.45200685, -261423.48, -150116.92, 0.0, 9.997103, 10.000607 
2.6345822e+3, 2.9863852e+2, -554754.56, -269909.03, 11039.529, -0.09851147, -0.37478474, -269481.84, -256185.44, 0.0, 9.996432, 10.000201 
2.634504e+3, 3.0863637e+2, -594276.0, -254973.33, -15175.882, 0.1001566, -0.5721702, -254295.92, -254295.92, 0.0, 9.995785, 10.000281 
2.6344225e+3, 3.186373e+2, -527499.8, 50355.234, -41961.023, -0.06574478, -0.49237347, 53386.34, 53386.34, 0.0, 9.995067, 10.002725 
2.645951e+3, 1.2874448e+2, -1012668.3, -1645039.6, 46371.484, 0.022062935, -0.43938714, -1009286.0, 668974.5, 0.037411045, 10.006215, 9.997493 
2.6458707e+3, 1.3874157e+2, -1041424.0, -1624725.3, 22170.902, 0.060836542, -0.4435143, -1040582.5, 539706.06, 0.02395942, 10.005307, 9.997388 
2.6457897e+3, 1.4873888e+2, -997314.44, -1500020.6, 21472.951, 0.044727497, -0.44050375, -996398.94, 485916.06, 0.01191534, 10.004651, 9.997883 
2.6457086e+3, 1.5873642e+2, -986329.06, -1463143.6, 16425.914, 0.033263862, -0.43831643, -985763.9, 398575.44, 0.003998574, 10.004096, 9.997731 
2.6456273e+3, 1.6873384e+2, -933634.25, -1348348.5, 38036.484, 0.019305356, -0.44995388, -930174.5, 356190.22, 0.00070967455, 10.00361, 9.998079 
2.645546e+3, 1.7873144e+2, -902469.0, -1281891.9, 50520.17, 0.0013739553, -0.4626243, -895857.44, 292530.72, 0.00003425103, 10.003145, 9.998087 
2.645465e+3, 1.8872961e+2, -833127.6, -1128307.4, 52627.82, 0.013914259, -0.45422962, -824025.25, 266380.28, 0.000000036221024, 10.002652, 9.998705 
2.6453847e+3, 1.9872802e+2, -828438.94, -1108821.1, 36037.86, 0.033919193, -0.44305712, -823881.06, 168539.19, 0.0, 10.002155, 9.998406 
2.645304e+3, 2.08726e+2, -799557.5, -1034896.56, 51612.547, 0.015875367, -0.44973972, -788735.9, 105705.0, 0.0, 10.001641, 9.998487 
2.6452228e+3, 2.1872404e+2, -772787.94, -963917.44, 65014.773, -0.008866127, -0.4600233, -752769.2, 43691.77, 0.0, 10.00112, 9.998554 
2.6451427e+3, 2.2872266e+2, -708875.3, -802501.7, 60206.74, 0.016244268, -0.46017256, -679423.6, 19050.979, 0.0, 10.000542, 9.999268 
2.6450622e+3, 2.387216e+2, -706389.3, -766883.75, 58947.15, 0.051842142, -0.45665443, -670382.0, -69897.22, 0.0, 9.999955, 9.999122 
2.6449814e+3, 2.4872075e+2, -645339.2, -648084.94, 60511.324, 0.020169444, -0.43281284, -586185.2, -83692.27, 0.0, 9.999535, 9.999467 
2.6449007e+3, 2.587201e+2, -609945.06, -582690.9, 66080.445, -0.025409382, -0.41034245, -528847.06, -124347.82, 0.0, 9.999115, 9.999446 
2.6448208e+3, 2.6871896e+2, -577300.75, -451843.34, 65911.08, 0.004879957, -0.46381584, -423582.16, -117072.57, 0.0, 9.998387, 10.000023 
2.644741e+3, 2.78718e+2, -599527.7, -419635.7, 71426.414, 0.05497927, -0.5282734, -394725.2, -186206.89, 0.0, 9.997594, 9.999954 
2.64466e+3, 2.887187e+2, -531891.25, -274713.06, 45826.24, -0.005666743, -0.44698924, -266791.34, -156279.78, 0.0, 9.99712, 10.000505 
2.6445785e+3, 2.9871982e+2, -518062.6, -257046.72, 38678.27, -0.097341426, -0.3455449, -251435.86, -238935.1, 0.0, 9.996713, 10.000151 
2.6444998e+3, 3.0871737e+2, -535418.3, -221998.63, 40577.297, 0.08968956, -0.56996477, -216830.45, -216830.45, 0.0, 9.996176, 10.000316 
2.6444173e+3, 3.1871882e+2, -510321.3, 83416.95, -4911.6987, -0.0588808, -0.44778547, 83457.586, 83457.586, 0.0, 9.995084, 10.00294 
2.6559567e+3, 1.2882607e+2, -1027600.06, -1673433.9, 12734.078, 0.030612363, -0.42732745, -1027349.1, 650111.7, 0.032400627, 10.006173, 9.99731 
2.655876e+3, 1.3882278e+2, -1046741.75, -1635874.4, -5595.549, 0.07612659, -0.45266166, -1046688.6, 532804.06, 0.02054631, 10.005287, 9.997323 
2.655794e+3, 1.4882009e+2, -991207.75, -1488629.9, 2570.335, 0.052747954, -0.45429796, -991194.44, 490324.72, 0.010049274, 10.004643, 9.997967 
2.655712e+3, 1.5881775e+2, -971178.8, -1430677.8, -1504.4318, 0.033677377, -0.451486, -971173.9, 412368.38, 0.003280853, 10.004086, 9.997962 
2.6556307e+3, 1.6881569e+2, -902969.75, -1283187.8, 20974.4, 0.036760762, -0.4497179, -901816.25, 383745.7, 0.0005596387, 10.003598, 9.998534 
2.655549e+3, 1.7881383e+2, -895845.56, -1266141.8, 31542.605, 0.036422025, -0.44963598, -893177.94, 294401.75, 0.000025614043, 10.003132, 9.998204 
2.6554674e+3, 1.8881156e+2, -864592.9, -1193259.6, 34044.535, 0.01248, -0.45717713, -861103.5, 228498.61, 0.000000014940245, 10.002646, 9.998264 
2.655386e+3, 1.9880942e+2, -835198.7, -1123083.9, 18346.146, -0.009025574, -0.4653533, -834034.2, 157589.23, 0.0, 10.0021515, 9.998312 
2.6553053e+3, 2.0880778e+2, -767906.5, -968502.94, 33094.242, 0.024709526, -0.46014607, -762587.7, 131051.82, 0.0, 10.001635, 9.998949 
2.6552245e+3, 2.1880643e+2, -759254.44, -933288.25, 45036.074, 0.06277924, -0.45274577, -748290.75, 47362.074, 0.0, 10.001104, 9.998774 
2.6551428e+3, 2.2880507e+2, -722698.4, -831993.3, 38151.258, 0.023182571, -0.44265753, -710698.5, -13032.066, 0.0, 10.000542, 9.999066 
2.655061e+3, 2.3880386e+2, -713189.44, -784687.8, 39444.895, -0.025965724, -0.43527675, -695704.2, -96025.54, 0.0, 9.999968, 9.998996 
2.6549807e+3, 2.4880251e+2, -645000.3, -649657.4, 45290.684, 0.01126284, -0.45876175, -601978.4, -100286.9, 0.0, 9.99954, 9.999456 
2.6549003e+3, 2.5880137e+2, -606196.4, -577096.0, 45253.598, 0.059176613, -0.48604813, -544111.0, -140408.84, 0.0, 9.99912, 9.999484 
2.6548192e+3, 2.68801e+2, -570667.5, -438696.66, 34879.1, 0.018284604, -0.47045013, -430045.44, -124340.02, 0.0, 9.998386, 10.000115 
2.6547372e+3, 2.7880096e+2, -602883.7, -426947.38, 46619.7, -0.031482138, -0.44708195, -415357.53, -207651.95, 0.0, 9.997591, 9.9999075 
2.6546568e+3, 2.8880072e+2, -555149.06, -324127.6, 30880.723, -0.0010058617, -0.43759415, -320071.0, -210362.47, 0.0, 9.997119, 10.000169 
2.654576e+3, 2.988006e+2, -515287.72, -254066.69, 21815.219, 0.020949142, -0.43382895, -252257.38, -240547.16, 0.0, 9.996719, 10.000171 
2.6544943e+3, 3.0879983e+2, -485834.6, -123469.29, 18795.926, -0.01962058, -0.5345601, -122496.95, -122496.95, 0.0, 9.99619, 10.000988 
2.6544124e+3, 3.188017e+2, -542291.7, 19899.982, -94737.67, -0.005714445, -0.4192797, 35435.39, 35435.39, 0.0, 9.995066, 10.002517 
2.6659623e+3, 1.2890813e+2, -1077422.6, -1682015.6, 27190.611, 0.035240717, -0.42520437, -1076202.1, 600454.25, 0.027830008, 10.005723, 9.997468 
2.665881e+3, 1.3890475e+2, -1058729.1, -1625280.0, 28127.133, 0.081541434, -0.47349107, -1057336.1, 521352.6, 0.01747112, 10.005119, 9.997475 
2.665798e+3, 1.4890224e+2, -1006881.25, -1483218.4, 45476.414, 0.055083938, -0.46978092, -1002578.44, 478135.03, 0.008401625, 10.004477, 9.998081 
2.6657158e+3, 1.589001e+2, -999963.4, -1435828.4, 42444.016, 0.033438034, -0.4558537, -995868.7, 386866.03, 0.0026693025, 10.003853, 9.998035 
2.665634e+3, 1.6889814e+2, -940462.56, -1301234.0, 43775.12, 0.037783742, -0.4470794, -935227.0, 349527.06, 0.00043955114, 10.003346, 9.9985285 
2.665552e+3, 1.7889632e+2, -929146.9, -1274496.5, 28575.193, 0.040197622, -0.44181424, -926798.5, 259973.2, 0.00001925341, 10.002876, 9.998266 
2.6654696e+3, 1.8889412e+2, -893852.06, -1190352.9, 56465.78, 0.018880202, -0.45295754, -883462.75, 205330.48, 0.0000000057994387, 10.0023775, 9.99841 
2.665388e+3, 1.9889206e+2, -869035.7, -1127855.0, 73851.16, -0.0009976116, -0.4650967, -849445.9, 141367.81, 0.0, 10.001875, 9.99841 
2.6653063e+3, 2.088905e+2, -811098.1, -986872.8, 68703.71, 0.031343546, -0.4564335, -787431.06, 105398.195, 0.0, 10.001332, 9.998965 
2.665225e+3, 2.188892e+2, -801454.5, -950347.9, 53404.234, 0.06935555, -0.44417533, -784280.7, 10561.495, 0.0, 10.000806, 9.998797 
2.665143e+3, 2.2888789e+2, -723420.8, -831568.3, 56264.395, 0.02616176, -0.43237334, -699458.4, -2602.7813, 0.0, 10.000538, 9.999069 
2.665061e+3, 2.3888665e+2, -663237.8, -754325.44, 69659.07, -0.026996827, -0.42476144, -625555.3, -26687.637, 0.0, 10.000289, 9.999046 
2.66498e+3, 2.4888527e+2, -629010.8, -629106.94, 80190.945, 0.014867278, -0.4605464, -548867.94, -47987.426, 0.0, 9.999599, 9.999566 
2.6648992e+3, 2.5888407e+2, -645771.8, -592522.3, 88299.66, 0.06965406, -0.5009287, -526920.7, -124029.35, 0.0, 9.998837, 9.999512 
2.6648173e+3, 2.6888385e+2, -555342.4, -444888.56, 67133.445, 0.010846018, -0.46336827, -413185.0, -108291.05, 0.0, 9.998554, 9.9999895 
2.6647347e+3, 2.7888393e+2, -503679.06, -386646.16, 61607.297, -0.056321345, -0.4139783, -360194.2, -153300.61, 0.0, 9.99831, 9.999835 
2.664654e+3, 2.888834e+2, -502839.44, -299827.44, 57916.98, 0.0123235835, -0.43019223, -284466.66, -175567.53, 0.0, 9.997487, 10.000155 
2.664573e+3, 2.9888296e+2, -528356.94, -239931.83, 73780.125, 0.06686906, -0.4587011, -222154.36, -211250.92, 0.0, 9.996546, 10.000349 
2.6644894e+3, 3.088831e+2, -481600.63, -70074.35, 65302.277, -0.08798629, -0.5112855, -59960.543, -59960.543, 0.0, 9.996003, 10.001443 
2.6644078e+3, 3.1888497e+2, -455245.44, -36984.355, -75840.55, 0.01843658, -0.40902233, -23657.324, -23657.324, 0.0, 9.996096, 10.001625 
2.6759678e+3, 1.289907e+2, -1052430.8, -1627745.6, 8281.1, 0.036642384, -0.43095398, -1052311.5, 623535.7, 0.0236779, 10.005692, 9.997863 
2.6758856e+3, 1.3898748e+2, -1042704.1, -1586812.8, 6498.8896, 0.07602284, -0.49895605, -1042626.5, 535250.4, 0.014709215, 10.005083, 9.997758 
2.675802e+3, 1.4898527e+2, -999724.1, -1467159.3, 21850.014, 0.05024801, -0.48375547, -998704.94, 481193.88, 0.0069509964, 10.004459, 9.998203 
2.6757193e+3, 1.5898336e+2, -1005733.5, -1448003.1, 20662.24, 0.03180441, -0.45278013, -1004770.25, 377147.6, 0.0021493041, 10.003847, 9.997957 
2.6756364e+3, 1.6898109e+2, -967933.94, -1359518.3, 27257.9, 0.025639271, -0.4444928, -966045.6, 317895.8, 0.0003426699, 10.003347, 9.99813 
2.6755542e+3, 1.7897893e+2, -927340.25, -1271778.4, 12596.16, 0.017831115, -0.441701, -926880.25, 259083.45, 0.000014309305, 10.002876, 9.998287 
2.675472e+3, 1.8897732e+2, -849969.3, -1098820.1, 38816.05, 0.032401502, -0.4420795, -844055.25, 243923.56, 0.000000001728097, 10.002371, 9.999044 
2.67539e+3, 1.989759e+2, -855556.3, -1097476.1, 54214.613, 0.050001778, -0.44292647, -843962.3, 146029.27, 0.0, 10.001861, 9.998628 
2.6753074e+3, 2.0897408e+2, -840125.7, -1048354.56, 47890.66, 0.033458646, -0.43980205, -829639.4, 62371.43, 0.0, 10.001334, 9.998545 
2.675225e+3, 2.1897233e+2, -811451.6, -974485.44, 38304.227, 0.012378896, -0.43666315, -802900.7, -8871.235, 0.0, 10.000816, 9.998629 
2.6751432e+3, 2.2897102e+2, -708581.0, -802715.2, 48967.883, 0.02706885, -0.42977816, -687727.8, 8314.351, 0.0, 10.000543, 9.999267 
2.6750615e+3, 2.3896998e+2, -648696.7, -724319.8, 53279.395, 0.046950303, -0.4241328, -621175.2, -23123.283, 0.0, 10.000285, 9.999256 
2.6749793e+3, 2.4896903e+2, -614489.8, -599483.4, 49706.473, 0.028750217, -0.4367587, -556717.0, -56656.92, 0.0, 9.9995985, 9.999771 
2.674897e+3, 2.5896826e+2, -645570.75, -594530.1, 67217.234, -0.00095445116, -0.45099348, -548151.56, -146084.94, 0.0, 9.998843, 9.999497 
2.674815e+3, 2.6896748e+2, -580431.4, -499854.16, 60129.13, -0.018361485, -0.44296247, -467764.03, -163688.45, 0.0, 9.998562, 9.999611 
2.674733e+3, 2.7896687e+2, -507979.97, -400685.63, 42656.59, -0.015922345, -0.43253908, -385793.75, -179710.63, 0.0, 9.998327, 9.999733 
2.6746514e+3, 2.8896677e+2, -477960.72, -250757.45, 19993.996, 0.034271583, -0.42397386, -249011.39, -140928.05, 0.0, 9.997494, 10.000492 
2.6745686e+3, 2.9896706e+2, -505788.44, -192242.4, 44812.64, 0.03559164, -0.412764, -185963.42, -175884.2, 0.0, 9.996538, 10.000683 
2.6744848e+3, 3.0896708e+2, -472253.97, -48019.297, 49385.12, -0.11652583, -0.49897414, -42346.242, -42346.242, 0.0, 9.995986, 10.001606 
2.6744035e+3, 3.189686e+2, -544683.2, -240559.6, -8131.1133, 0.01922146, -0.4192015, -240342.36, -240342.36, 0.0, 9.996167, 10.000195 
2.6859733e+3, 1.2907398e+2, -1087817.3, -1639562.9, 46442.137, 0.07663852, -0.46422586, -1083935.4, 591094.75, 0.019908814, 10.005396, 9.997921 
2.6858896e+3, 1.390713e+2, -1100639.1, -1610031.6, 29158.42, 0.050775256, -0.4836586, -1098975.5, 478079.97, 0.012228592, 10.004648, 9.997806 
2.6858062e+3, 1.4906907e+2, -1047229.0, -1488552.0, 39767.07, 0.038194142, -0.4699651, -1043674.25, 435403.28, 0.005672915, 10.004124, 9.998215 
2.685723e+3, 1.5906708e+2, -1029373.1, -1454295.4, 35336.22, 0.048246108, -0.45155126, -1026454.6, 354643.06, 0.0017057457, 10.003665, 9.997999 
2.6856396e+3, 1.6906478e+2, -984065.0, -1359454.4, 67106.58, 0.038520254, -0.4500425, -972429.3, 310692.06, 0.00026316094, 10.003207, 9.998196 
2.6855567e+3, 1.7906263e+2, -942743.6, -1272829.6, 74591.414, 0.020995762, -0.4501059, -926670.44, 258473.08, 0.000010321066, 10.002748, 9.99834 
2.685474e+3, 1.890612e+2, -879636.6, -1110486.3, 68498.516, 0.03719261, -0.4343667, -860841.7, 226315.67, 0.0000000002885943, 10.002161, 9.999063 
2.6853913e+3, 1.9905996e+2, -895343.3, -1113985.9, 49801.82, 0.059330437, -0.41854477, -884533.94, 104634.87, 0.0, 10.001581, 9.998646 
2.6853085e+3, 2.0905803e+2, -843853.0, -1049451.5, 65355.207, 0.03447215, -0.42537397, -824836.8, 66351.945, 0.0, 10.00131, 9.998545 
2.6852256e+3, 2.1905614e+2, -769822.3, -947512.4, 81552.555, 0.0034965503, -0.43561807, -738067.75, 55140.727, 0.0, 10.001079, 9.998685 
2.6851436e+3, 2.2905493e+2, -708221.75, -788819.7, 89574.375, 0.025255973, -0.42958814, -650298.6, 44921.66, 0.0, 10.000491, 9.999384 
2.6850614e+3, 2.3905401e+2, -708545.9, -744816.56, 85556.65, 0.056942277, -0.42184886, -639223.6, -41994.785, 0.0, 9.999844, 9.999326 
2.6849785e+3, 2.490532e+2, -625863.7, -608267.94, 64510.047, 0.029435135, -0.42244446, -551958.56, -52722.418, 0.0, 9.999539, 9.999737 
2.6848954e+3, 2.590525e+2, -584246.56, -562903.75, 68688.195, -0.012778276, -0.42482924, -504062.97, -102820.8, 0.0, 9.999261, 9.999511 
2.684813e+3, 2.6905164e+2, -572410.5, -487381.25, 86785.086, -0.022518495, -0.4307479, -433256.63, -130004.77, 0.0, 9.998586, 9.999682 
2.684731e+3, 2.7905092e+2, -573865.4, -422714.2, 95975.79, -0.006604742, -0.43851832, -376129.94, -170869.55, 0.0, 9.997839, 9.999814 
2.6846483e+3, 2.8905103e+2, -482923.06, -242954.55, 58072.18, 0.042275824, -0.41494006, -229639.89, -122381.516, 0.0, 9.997421, 10.000577 
2.6845652e+3, 2.9905155e+2, -436233.53, -168949.1, 63513.402, 0.03582975, -0.38542068, -154624.45, -145372.42, 0.0, 9.997065, 10.0005865 
2.6844808e+3, 3.0905113e+2, -396485.6, -52862.652, 30404.44, -0.13580014, -0.48584345, -50193.145, -50193.145, 0.0, 9.996689, 10.00123 
2.6843998e+3, 3.190521e+2, -551543.2, -218502.66, -4257.6987, 0.039836414, -0.43149507, -218448.23, -218448.23, 0.0, 9.996018, 10.000415 
2.695979e+3, 1.291579e+2, -1105535.3, -1667190.4, 15444.32, 0.13652956, -0.5136589, -1105110.9, 569095.2, 0.016483702, 10.005338, 9.997755 
2.6958936e+3, 1.39156e+2, -1109798.5, -1629130.1, 4772.5234, 0.0115011595, -0.43979082, -1109754.8, 466471.16, 0.009999378, 10.004635, 9.997684 
2.6958096e+3, 1.4915356e+2, -1052928.3, -1501827.9, 23050.824, 0.022310684, -0.43781966, -1051747.8, 426502.56, 0.0045458525, 10.00412, 9.998128 
2.6957265e+3, 1.591512e+2, -1020877.1, -1435588.6, 19109.209, 0.0769367, -0.45251513, -1019998.44, 360275.5, 0.0013259735, 10.003655, 9.998134 
2.6956427e+3, 1.6914915e+2, -955921.9, -1298834.5, 50342.79, 0.06984249, -0.46139222, -948683.9, 333610.4, 0.00019687769, 10.003193, 9.99862 
2.6955593e+3, 1.7914732e+2, -942636.9, -1269896.8, 53955.28, 0.043284446, -0.4642192, -933970.75, 250341.63, 0.000007082741, 10.002732, 9.998369 
2.6954755e+3, 1.8914568e+2, -916062.2, -1188964.5, 45146.996, 0.032834295, -0.42924204, -908787.4, 177542.14, 0.000000000007316074, 10.00217, 9.998522 
2.6953924e+3, 1.9914421e+2, -902342.0, -1134735.5, 34007.484, 0.03033622, -0.39336932, -897467.7, 90877.55, 0.0, 10.001604, 9.998494 
2.6953092e+3, 2.0914239e+2, -815387.2, -992825.44, 58837.8, 0.035919398, -0.41317907, -797649.94, 92713.3, 0.0, 10.001317, 9.998932 
2.6952267e+3, 2.1914066e+2, -754932.56, -913857.25, 67696.68, 0.03838391, -0.4410018, -730005.75, 62373.957, 0.0, 10.001063, 9.998925 
2.6951435e+3, 2.2913958e+2, -708025.3, -788459.6, 64458.875, 0.018428182, -0.4315212, -672266.4, 22123.977, 0.0, 10.000488, 9.99939 
2.6950604e+3, 2.3913874e+2, -714066.7, -759352.25, 66493.52, -0.0005180644, -0.41617724, -666466.44, -70067.74, 0.0, 9.999853, 9.999223 
2.6949775e+3, 2.4913767e+2, -644438.9, -649125.9, 55032.832, 0.017797679, -0.41770977, -591699.7, -93290.51, 0.0, 9.999545, 9.999455 
2.694895e+3, 2.591367e+2, -579493.94, -555459.3, 51271.58, 0.035926774, -0.42258382, -514815.53, -114397.22, 0.0, 9.999268, 9.999561 
2.6948115e+3, 2.6913625e+2, -535120.7, -410120.47, 56937.7, -0.0006715667, -0.42721152, -388073.75, -85650.94, 0.0, 9.998583, 10.000216 
2.6947284e+3, 2.791361e+2, -557997.8, -388214.88, 73404.766, -0.03192117, -0.4290391, -360879.7, -156454.98, 0.0, 9.9978285, 10.000058 
2.6946455e+3, 2.8913614e+2, -498395.28, -275653.8, 45687.844, 0.033269722, -0.40296763, -266646.72, -160222.66, 0.0, 9.997418, 10.000357 
2.6945624e+3, 2.9913628e+2, -477741.38, -260525.1, 50548.348, 0.06381593, -0.37878922, -249338.14, -240915.52, 0.0, 9.997083, 9.99995 
2.694477e+3, 3.09135e+2, -467691.06, -209606.19, 11631.234, -0.13292518, -0.47127035, -209083.06, -209083.06, 0.0, 9.996723, 10.000139 
2.6943952e+3, 3.191355e+2, -388385.0, 123366.37, -67782.875, 0.03640474, -0.42864445, 132192.19, 132192.19, 0.0, 9.995995, 10.00278 
2.7059835e+3, 1.2924269e+2, -1175774.9, -1692299.1, 13084.623, 0.119937584, -0.49700186, -1175443.6, 497932.03, 0.013376243, 10.004792, 9.997845 
2.705898e+3, 1.3924083e+2, -1147338.3, -1636497.9, 18463.818, 0.04048902, -0.42813975, -1146642.3, 428752.97, 0.007999944, 10.004321, 9.997782 
2.7058133e+3, 1.4923838e+2, -1084848.9, -1507721.3, 50303.18, 0.040501077, -0.4368075, -1078947.4, 398472.22, 0.0035536136, 10.00386, 9.99821 
2.7057296e+3, 1.5923598e+2, -1052112.4, -1443105.3, 51873.24, 0.07538126, -0.46128199, -1045347.3, 334095.97, 0.0010011813, 10.003411, 9.998198 
2.7056456e+3, 1.6923407e+2, -999253.6, -1315681.8, 62169.285, 0.0731793, -0.45870876, -987477.4, 293984.9, 0.00014158584, 10.002883, 9.9986515 
2.7055615e+3, 1.7923239e+2, -991693.5, -1289932.9, 47895.914, 0.055541575, -0.4489483, -984190.4, 199288.72, 0.000004518096, 10.002385, 9.998396 
2.7054775e+3, 1.8923067e+2, -908956.9, -1185578.5, 68335.375, 0.03716247, -0.42450315, -892996.5, 192500.56, 0.0, 10.002224, 9.998516 
2.7053937e+3, 1.9922905e+2, -831181.7, -1095140.4, 84690.27, 0.024843203, -0.4014575, -806345.9, 181168.13, 0.0, 10.002074, 9.998537 
2.7053106e+3, 2.092273e+2, -804791.75, -976331.8, 92799.43, 0.037077013, -0.42041242, -764196.3, 125334.62, 0.0, 10.001346, 9.999029 
2.7052274e+3, 2.192257e+2, -824951.9, -941071.8, 84144.44, 0.04910236, -0.44448614, -780780.5, 10765.518, 0.0, 10.000559, 9.998979 
2.7051437e+3, 2.2922465e+2, -729239.44, -802356.2, 79165.11, 0.015547795, -0.42901108, -678599.0, 14957.399, 0.0, 10.000362, 9.999352 
2.70506e+3, 2.3922382e+2, -658269.3, -732794.1, 78714.18, -0.01836301, -0.40925792, -608443.2, -12878.315, 0.0, 10.000243, 9.999215 
2.7049768e+3, 2.4922264e+2, -630642.3, -640423.1, 81759.63, 0.013124565, -0.42199805, -553626.94, -56050.53, 0.0, 9.999637, 9.999469 
2.704894e+3, 2.5922158e+2, -624519.8, -571625.6, 93767.14, 0.049338106, -0.43920326, -500647.22, -101060.58, 0.0, 9.99894, 9.999604 
2.70481e+3, 2.692213e+2, -536938.06, -404006.97, 70272.9, 0.0047122226, -0.42849123, -373746.38, -72157.13, 0.0, 9.998546, 10.000273 
2.704726e+3, 2.7922136e+2, -503695.88, -358585.7, 56123.938, -0.036407553, -0.4132744, -339412.16, -135823.17, 0.0, 9.998191, 10.000084 
2.7046427e+3, 2.8922123e+2, -456972.53, -258979.53, 36815.85, 0.038521368, -0.40583342, -252355.42, -146765.05, 0.0, 9.997722, 10.000322 
2.704559e+3, 2.9922113e+2, -472641.3, -276932.44, 60465.234, 0.07638052, -0.4011902, -259758.47, -252166.75, 0.0, 9.997205, 9.999777 
2.7044734e+3, 3.0922005e+2, -500892.5, -267464.28, 73782.42, -0.13371147, -0.43728548, -246098.6, -246098.6, 0.0, 9.996681, 9.99976 
2.7043912e+3, 3.1922016e+2, -325583.22, 234254.02, -16660.053, 0.051076114, -0.41865733, 234749.36, 234749.36, 0.0, 9.996083, 10.003496 
2.7159873e+3, 1.293282e+2, -1157863.6, -1654479.9, -3728.8162, 0.05294772, -0.4377914, -1157835.6, 514704.13, 0.010580561, 10.004779, 9.998111 
2.715903e+3, 1.393259e+2, -1132956.0, -1603340.1, 997.38873, 0.116695724, -0.4396134, -1132953.9, 441608.56, 0.0062213396, 10.004298, 9.998022 
2.7158174e+3, 1.4932355e+2, -1072978.4, -1481779.9, 32844.09, 0.080535024, -0.45755607, -1070356.4, 406228.63, 0.0026880675, 10.003847, 9.998397 
2.7157325e+3, 1.5932135e+2, -1054373.4, -1446993.8, 32681.592, 0.04928548, -0.47513792, -1051671.6, 326934.63, 0.0007269862, 10.003403, 9.998177 
2.7156478e+3, 1.6931951e+2, -1019025.4, -1359274.6, 42182.523, 0.054533724, -0.44461012, -1013873.75, 266751.88, 0.000096515505, 10.00289, 9.99835 
2.7155638e+3, 1.7931786e+2, -987145.7, -1285012.5, 36248.754, 0.058987863, -0.4099572, -982797.9, 199845.44, 0.000002610615, 10.002401, 9.998424 
2.7154794e+3, 1.893161e+2, -878177.56, -1121928.6, 65944.62, 0.04909803, -0.42135724, -861480.6, 223179.45, 0.0, 10.002221, 9.998957 
2.7153954e+3, 1.9931445e+2, -822319.56, -1071482.9, 68755.52, 0.038511943, -0.44031605, -804606.06, 182069.52, 0.0, 10.002048, 9.998714 
2.7153116e+3, 2.0931277e+2, -819265.9, -1006269.7, 60372.973, 0.036026146, -0.4444428, -801468.6, 87223.71, 0.0, 10.001342, 9.998827 
2.7152273e+3, 2.1931122e+2, -832511.5, -960789.6, 64757.34, 0.03344603, -0.44334027, -805506.0, -14798.386, 0.0, 10.000572, 9.998838 
2.7151436e+3, 2.2931015e+2, -732630.44, -812457.06, 76795.0, 0.017244339, -0.42129293, -685995.8, 6722.7363, 0.0, 10.000372, 9.99928 
2.71506e+3, 2.3930927e+2, -652231.1, -720737.0, 65934.7, 0.0020455993, -0.40179262, -612183.0, -17455.39, 0.0, 10.000241, 9.999301 
2.714976e+3, 2.4930811e+2, -610379.1, -598651.2, 54613.97, 0.0138647845, -0.43685743, -549587.25, -52849.23, 0.0, 9.999635, 9.999758 
2.714892e+3, 2.593071e+2, -624567.0, -573547.44, 72672.77, 0.022671428, -0.47307095, -522037.2, -123290.23, 0.0, 9.998944, 9.999591 
2.714808e+3, 2.6930678e+2, -569417.06, -473015.38, 56782.633, -0.007401285, -0.43387616, -446734.1, -145982.72, 0.0, 9.998548, 9.999801 
2.714724e+3, 2.7930668e+2, -516737.16, -388316.38, 39791.863, -0.020604555, -0.39021417, -376986.28, -174232.28, 0.0, 9.9981985, 9.999879 
2.7146405e+3, 2.8930616e+2, -445150.94, -236729.84, 16090.916, 0.059295293, -0.42636126, -235494.89, -130736.625, 0.0, 9.997728, 10.000474 
2.714556e+3, 2.9930592e+2, -445532.47, -221875.89, 39587.523, 0.074782096, -0.45581877, -215075.61, -208315.8, 0.0, 9.997206, 10.000156 
2.7144694e+3, 3.093065e+2, -463499.66, -188186.97, 56094.297, -0.14536452, -0.3789681, -177196.63, -177196.63, 0.0, 9.996669, 10.000313 
2.714387e+3, 3.193061e+2, -443126.06, -5203.862, -33490.613, 0.07257456, -0.41839343, -2657.4353, -2657.4353, 0.0, 9.996065, 10.001859 
2.7259916e+3, 1.2941387e+2, -1183779.0, -1661115.0, 18953.432, 0.04671467, -0.42443284, -1183027.6, 488673.16, 0.008107109, 10.004562, 9.99817 
2.7259067e+3, 1.394115e+2, -1179494.5, -1614954.9, 14894.75, 0.14046481, -0.44004956, -1178985.6, 394738.6, 0.004668448, 10.003927, 9.998119 
2.7258208e+3, 1.4940932e+2, -1116835.0, -1489039.3, 44950.754, 0.09288372, -0.45321825, -1111483.3, 364261.8, 0.0019504804, 10.003488, 9.998516 
2.7257353e+3, 1.594073e+2, -1088478.5, -1452158.6, 42984.62, 0.04384389, -0.46325123, -1083467.1, 294297.2, 0.00050255813, 10.003124, 9.998273 
2.7256504e+3, 1.6940548e+2, -1021854.5, -1354971.1, 70457.14, 0.05155344, -0.43727228, -1007565.1, 272218.38, 0.000061398336, 10.0028515, 9.998396 
2.7255657e+3, 1.794038e+2, -960073.4, -1265869.9, 81254.56, 0.061961826, -0.40872568, -939823.8, 241977.55, 0.0000013215272, 10.002564, 9.998474 
2.725481e+3, 1.8940198e+2, -912135.25, -1133182.6, 91279.61, 0.04971181, -0.42939714, -879315.1, 204503.27, 0.0, 10.00197, 9.998997 
2.725397e+3, 1.9940028e+2, -914607.75, -1108067.4, 70562.875, 0.036282588, -0.4569335, -891605.44, 94228.59, 0.0, 10.001386, 9.998778 
2.725312e+3, 2.0939878e+2, -822346.06, -999951.7, 73065.71, 0.030090896, -0.44939864, -796150.9, 91697.984, 0.0, 10.001292, 9.998892 
2.7252278e+3, 2.1939741e+2, -739529.2, -916547.3, 92978.375, 0.025519663, -0.4351919, -699668.4, 90194.14, 0.0, 10.001218, 9.998829 
2.7251437e+3, 2.293961e+2, -722473.06, -820278.5, 102853.336, 0.0185086, -0.4280528, -657488.6, 34387.215, 0.0, 10.000502, 9.999162 
2.7250597e+3, 2.3939493e+2, -731264.9, -762015.0, 88096.98, 0.013536878, -0.42571563, -657211.4, -63323.73, 0.0, 9.999718, 9.999267 
2.7249753e+3, 2.4939393e+2, -624669.9, -600375.25, 61816.438, 0.011848383, -0.44673207, -549523.94, -53627.297, 0.0, 9.999519, 9.999799 
2.724891e+3, 2.593931e+2, -564367.8, -546898.25, 62869.05, 0.0068142056, -0.46570924, -492160.06, -94256.32, 0.0, 9.999373, 9.999565 
2.724806e+3, 2.6939264e+2, -549514.06, -477372.44, 62004.332, -0.008716827, -0.43092492, -441710.16, -141800.42, 0.0, 9.998751, 9.99967 
2.7247217e+3, 2.793923e+2, -543293.9, -409234.1, 69778.875, -0.0048072166, -0.39736998, -379506.06, -177591.3, 0.0, 9.998057, 9.999799 
2.7246377e+3, 2.8939173e+2, -448058.4, -241770.5, 40201.652, 0.050870318, -0.43591604, -234212.83, -130293.09, 0.0, 9.99773, 10.000435 
2.7245525e+3, 2.993915e+2, -405735.2, -185077.1, 43031.69, 0.043861493, -0.46200806, -176982.22, -171061.3, 0.0, 9.99741, 10.000307 
2.7244663e+3, 3.093925e+2, -428572.13, -126727.66, 36551.438, -0.096956454, -0.37209094, -122364.57, -122364.57, 0.0, 9.996723, 10.000705 
2.7243823e+3, 3.1939209e+2, -425100.7, -79237.74, -21777.604, 0.023993365, -0.43054324, -77871.88, -77871.88, 0.0, 9.996553, 10.00111 
2.735996e+3, 1.2949987e+2, -1192594.9, -1674404.1, -6787.4526, 0.07772056, -0.43929538, -1192499.3, 478358.97, 0.0059755193, 10.004534, 9.998091 
2.73591e+3, 1.3949764e+2, -1179943.4, -1617148.4, -4888.621, 0.12457374, -0.4331004, -1179888.6, 392992.1, 0.0033545906, 10.003925, 9.998106 
2.735824e+3, 1.4949563e+2, -1111202.0, -1481283.4, 31240.979, 0.08531752, -0.43174773, -1108583.4, 366316.75, 0.0013465952, 10.003499, 9.998567 
2.7357382e+3, 1.5949379e+2, -1075111.1, -1426655.5, 31571.049, 0.053521644, -0.43281174, -1072298.4, 304619.3, 0.00032767563, 10.00313, 9.998447 
2.735653e+3, 1.6949193e+2, -1001725.44, -1312168.9, 61034.73, 0.05972601, -0.43589318, -990156.8, 288779.28, 0.000035830955, 10.002844, 9.998695 
2.735568e+3, 1.794902e+2, -960086.06, -1262143.6, 63763.99, 0.06299109, -0.4383039, -947177.25, 233776.3, 0.00000054868656, 10.002545, 9.998511 
2.735483e+3, 1.8948829e+2, -934032.56, -1179342.1, 66347.586, 0.039926693, -0.44549584, -917237.7, 165734.42, 0.0, 10.00197, 9.998681 
2.7353978e+3, 1.9948655e+2, -915082.7, -1113015.0, 57457.465, 0.018160734, -0.45151278, -899612.56, 85376.54, 0.0, 10.0014, 9.998739 
2.7353132e+3, 2.0948532e+2, -800311.94, -956206.6, 73391.055, 0.020331156, -0.4370478, -771198.4, 115802.31, 0.0, 10.001298, 9.999191 
2.7352285e+3, 2.1948421e+2, -734765.44, -904117.5, 78682.37, 0.023926986, -0.4241953, -703851.9, 85159.305, 0.0, 10.001204, 9.998923 
2.735144e+3, 2.2948246e+2, -736034.1, -848034.0, 70650.49, 0.018245317, -0.45060366, -701881.5, -10853.012, 0.0, 10.000497, 9.998975 
2.735059e+3, 2.3948082e+2, -743046.44, -788815.94, 68427.99, 0.012531872, -0.47655156, -693777.9, -100733.07, 0.0, 9.999724, 9.999082 
2.7349743e+3, 2.494801e+2, -638602.56, -631855.1, 58170.6, 0.0073474795, -0.44842303, -576960.5, -81908.33, 0.0, 9.999526, 9.999581 
2.7348897e+3, 2.5947964e+2, -565126.75, -550922.0, 48668.67, 0.00018969722, -0.41430274, -508840.2, -111783.125, 0.0, 9.99938, 9.999536 
2.7348047e+3, 2.6947892e+2, -534362.0, -446191.78, 33937.844, 0.00077676796, -0.4214151, -434641.7, -135577.17, 0.0, 9.998749, 9.999886 
2.7347198e+3, 2.7947828e+2, -542159.75, -406855.9, 50122.88, 0.010900489, -0.43630436, -390311.1, -189239.89, 0.0, 9.9980545, 9.999819 
2.7346346e+3, 2.8947794e+2, -467364.25, -282560.94, 29680.627, 0.007949116, -0.43042082, -277911.03, -174836.38, 0.0, 9.997728, 10.000158 
2.7345487e+3, 2.994779e+2, -414896.28, -204999.16, 23213.97, -0.0267881, -0.41293216, -202462.42, -197387.3, 0.0, 9.99741, 10.000173 
2.734464e+3, 3.0947784e+2, -422339.25, -111664.04, 5036.035, 0.029002506, -0.43297324, -111582.43, -111582.43, 0.0, 9.996711, 10.000816 
2.734378e+3, 3.1947833e+2, -382919.3, -11436.432, 22913.344, -0.041186433, -0.4203905, -10028.455, -10028.455, 0.0, 9.996619, 10.0015545 
2.7460003e+3, 1.2958626e+2, -1239262.6, -1679756.3, -260.00333, 0.09336419, -0.44493458, -1239262.5, 430749.38, 0.004203411, 10.0041275, 9.998252 
2.7459136e+3, 1.395843e+2, -1199924.1, -1610181.5, 16993.197, 0.119819574, -0.4256159, -1199221.5, 372810.0, 0.002289661, 10.0037155, 9.998254 
2.7458268e+3, 1.4958236e+2, -1121623.6, -1475162.6, 60958.82, 0.08466104, -0.42981568, -1111408.0, 362642.25, 0.00087763084, 10.003384, 9.998662 
2.745741e+3, 1.5958051e+2, -1080139.8, -1419642.3, 60305.95, 0.06179029, -0.43722373, -1069745.8, 306322.03, 0.00019950236, 10.003059, 9.998527 
2.7456552e+3, 1.6957878e+2, -1040009.9, -1326122.4, 74870.43, 0.062306054, -0.43387455, -1021602.0, 256483.17, 0.000018874509, 10.002565, 9.998732 
2.74557e+3, 1.7957711e+2, -1024555.5, -1290290.0, 64808.32, 0.058205124, -0.43069565, -1009592.3, 170509.48, 0.0000001651746, 10.002094, 9.998532 
2.7454844e+3, 1.8957521e+2, -943444.94, -1186303.5, 80552.44, 0.0359458, -0.43855438, -919156.1, 162964.64, 0.0, 10.001922, 9.998654 
2.745399e+3, 1.9957344e+2, -865161.9, -1089975.4, 86630.14, 0.016835669, -0.44393393, -835653.0, 148485.3, 0.0, 10.001752, 9.998727 
2.745314e+3, 2.095722e+2, -817576.9, -965050.1, 87786.695, 0.022652525, -0.43022457, -776668.0, 109482.03, 0.0, 10.001185, 9.999183 
2.7452293e+3, 2.1957102e+2, -820593.75, -943905.06, 72717.59, 0.029294914, -0.42027098, -786911.75, 1248.9886, 0.0, 10.000612, 9.998932 
2.745144e+3, 2.2956926e+2, -738192.06, -849200.0, 69919.555, 0.012276927, -0.44962585, -704424.4, -14246.445, 0.0, 10.000487, 9.998969 
2.7450585e+3, 2.3956756e+2, -654544.44, -754551.75, 79915.06, -0.0029758487, -0.477307, -610278.4, -18084.043, 0.0, 10.000373, 9.999002 
2.7449736e+3, 2.4956678e+2, -622827.25, -644823.1, 72844.38, 0.0017626747, -0.44184533, -560155.25, -65952.125, 0.0, 9.999728, 9.999393 
2.7448887e+3, 2.595662e+2, -621129.25, -583164.25, 63137.26, 0.0066066636, -0.40172383, -536217.6, -140008.05, 0.0, 9.999023, 9.999483 
2.744803e+3, 2.695654e+2, -530231.44, -433555.53, 38959.97, 0.007979356, -0.41994154, -419809.38, -121592.31, 0.0, 9.998737, 9.999975 
2.7447176e+3, 2.7956474e+2, -481433.94, -376769.22, 47668.875, 0.015852869, -0.44512066, -358313.2, -158089.75, 0.0, 9.998474, 9.999821 
2.7446318e+3, 2.895645e+2, -454121.5, -288572.0, 35627.266, -0.011427124, -0.42178687, -281230.38, -179004.03, 0.0, 9.997879, 10.000042 
2.7445456e+3, 2.9956445e+2, -445024.44, -231590.36, 38583.496, -0.059818726, -0.3917258, -224829.6, -220602.31, 0.0, 9.997261, 10.000059 
2.7444613e+3, 3.0956385e+2, -377547.53, -100007.86, 8145.5435, 0.09864786, -0.45893162, -99769.0, -99769.0, 0.0, 9.997066, 10.000723 
2.7443743e+3, 3.195647e+2, -402967.84, 1228.4402, 33615.668, -0.02109261, -0.4034143, 4005.07, 4005.07, 0.0, 9.99639, 10.001749 
2.756004e+3, 1.2967303e+2, -1209884.5, -1628839.0, -13082.605, 0.097363025, -0.44668442, -1209476.4, 459685.63, 0.0027935007, 10.004167, 9.998583 
2.755917e+3, 1.396715e+2, -1184379.1, -1576439.5, 4333.558, 0.12140636, -0.41605175, -1184331.3, 386845.28, 0.0014695107, 10.003704, 9.998492 
2.75583e+3, 1.4966951e+2, -1114130.9, -1459948.5, 50023.688, 0.08785387, -0.44034111, -1107040.1, 366155.53, 0.00053448754, 10.00338, 9.99877 
2.7557436e+3, 1.5966757e+2, -1080087.3, -1421414.4, 44871.7, 0.06767803, -0.46649987, -1074286.9, 300927.4, 0.00011179386, 10.003064, 9.998514 
2.7556574e+3, 1.6966602e+2, -1051065.5, -1351693.6, 55811.715, 0.060299587, -0.43182254, -1041038.44, 236192.19, 0.000008820601, 10.002574, 9.998553 
2.7555716e+3, 1.7966455e+2, -1023351.94, -1290189.9, 53337.707, 0.04813695, -0.3943076, -1013085.4, 166160.78, 0.000000030933013, 10.002103, 9.99853 
2.7554858e+3, 1.8966268e+2, -930107.8, -1158700.4, 76548.7, 0.036247104, -0.41313297, -906841.94, 174422.56, 0.0, 10.00192, 9.998846 
2.7554005e+3, 1.9966087e+2, -868570.2, -1094197.0, 72418.35, 0.028673982, -0.4364198, -847326.56, 135955.42, 0.0, 10.001737, 9.998707 
2.755315e+3, 2.0965935e+2, -838106.3, -1008582.4, 63782.21, 0.035041828, -0.42873892, -816884.5, 68412.37, 0.0, 10.001187, 9.998885 
2.7552295e+3, 2.1965794e+2, -824299.94, -954908.94, 59632.984, 0.037518695, -0.4180402, -801169.3, -13858.955, 0.0, 10.000624, 9.998853 
2.755144e+3, 2.296565e+2, -725270.5, -825342.9, 68609.69, 0.00031071168, -0.42348358, -690389.56, -1065.7639, 0.0, 10.000497, 9.99913 
2.7550584e+3, 2.3965517e+2, -653888.3, -753691.75, 65851.23, -0.033829942, -0.43064466, -621167.0, -29830.49, 0.0, 10.000371, 9.99901 
2.754973e+3, 2.4965388e+2, -635737.5, -671161.44, 44239.082, -0.005039766, -0.43084288, -605796.44, -112446.625, 0.0, 9.999723, 9.999215 
2.7548873e+3, 2.5965276e+2, -628295.9, -598808.1, 43850.164, 0.024890728, -0.42807254, -567289.5, -171928.1, 0.0, 9.999024, 9.999377 
2.7548015e+3, 2.6965213e+2, -534256.0, -443456.8, 30467.059, 0.012147737, -0.424035, -434181.3, -136813.89, 0.0, 9.99874, 9.999908 
2.7547157e+3, 2.7965167e+2, -480890.47, -378193.94, 31182.61, 0.0048964964, -0.4202653, -369467.25, -170095.72, 0.0, 9.998482, 9.999809 
2.7546293e+3, 2.896513e+2, -451755.66, -282657.47, 9123.169, -0.0028180876, -0.4127276, -282166.7, -180791.28, 0.0, 9.997872, 10.000087 
2.7545425e+3, 2.996511e+2, -456691.84, -251928.66, 22856.336, -0.04410707, -0.40298155, -249408.38, -246030.39, 0.0, 9.997241, 9.99993 
2.754458e+3, 3.0965054e+2, -400614.66, -153433.97, 2930.8762, 0.08869778, -0.43351367, -153399.22, -153399.22, 0.0, 9.997084, 10.00035 
2.7543706e+3, 3.196507e+2, -423253.44, -22475.586, -39087.96, 0.01719698, -0.41957763, -18698.918, -18698.918, 0.0, 9.996323, 10.001614 
2.7660075e+3, 1.2976074e+2, -1185401.1, -1620936.6, 20545.877, 0.074176386, -0.4545555, -1184434.1, 483868.0, 0.0017290416, 10.004347, 9.998549 
2.7659202e+3, 1.3975912e+2, -1228919.0, -1597754.8, 28050.32, 0.12773407, -0.42853025, -1226798.0, 343519.63, 0.0008737822, 10.003398, 9.998492 
2.765833e+3, 1.4975724e+2, -1157156.8, -1479490.9, 76264.64, 0.09455323, -0.44180125, -1140023.3, 332312.7, 0.00029906613, 10.003082, 9.998777 
2.7657464e+3, 1.5975541e+2, -1105870.1, -1432692.9, 62397.457, 0.07118729, -0.45764026, -1094362.3, 279991.47, 0.000056233035, 10.002885, 9.998522 
2.7656597e+3, 1.6975376e+2, -1051896.8, -1352052.4, 78021.516, 0.05972183, -0.43076968, -1032827.5, 243543.39, 0.0000035428636, 10.002573, 9.9985485 
2.7655733e+3, 1.7975222e+2, -1006717.0, -1282959.9, 85432.12, 0.04404814, -0.39985397, -982431.0, 195956.19, 0.000000001954365, 10.002227, 9.998518 
2.7654874e+3, 1.8975042e+2, -959156.2, -1178746.5, 98062.09, 0.037745092, -0.40667245, -921740.06, 158665.11, 0.0, 10.001751, 9.998789 
2.7654016e+3, 1.9974865e+2, -931139.8, -1126730.5, 81413.24, 0.036509864, -0.42006648, -901687.2, 80735.44, 0.0, 10.00132, 9.998682 
2.7653158e+3, 2.0974705e+2, -828090.25, -1005249.2, 86596.945, 0.032068025, -0.4180817, -792793.4, 91644.734, 0.0, 10.0012665, 9.998867 
2.76523e+3, 2.1974556e+2, -743708.9, -918809.9, 95692.6, 0.023605594, -0.41292793, -701559.06, 84893.19, 0.0, 10.001194, 9.998823 
2.765144e+3, 2.2974409e+2, -720748.2, -828932.3, 91360.9, -0.0065462976, -0.41631672, -668667.0, 19799.02, 0.0, 10.000557, 9.999074 
2.765058e+3, 2.397427e+2, -727395.06, -791253.25, 74973.9, -0.03139741, -0.42228627, -677834.6, -87355.52, 0.0, 9.999881, 9.998986 
2.7649722e+3, 2.4974132e+2, -648934.4, -678855.4, 59972.223, -0.0055334666, -0.43020916, -602084.8, -109591.77, 0.0, 9.999644, 9.999198 
2.7648863e+3, 2.597401e+2, -574117.3, -578810.2, 70015.48, 0.021321036, -0.43573627, -506408.94, -111903.414, 0.0, 9.999429, 9.999317 
2.7648e+3, 2.697394e+2, -523636.8, -453144.34, 53458.87, 0.0032946605, -0.42774275, -424358.16, -127845.8, 0.0, 9.998881, 9.999771 
2.7647138e+3, 2.7973884e+2, -513802.94, -400531.9, 47064.766, -0.004658642, -0.41959992, -383528.63, -185011.23, 0.0, 9.998288, 9.999746 
2.7646273e+3, 2.8973842e+2, -444207.63, -278516.97, 18368.832, 0.025132291, -0.41606385, -276505.0, -175983.36, 0.0, 9.997929, 10.000085 
2.76454e+3, 2.9973814e+2, -406994.6, -223424.05, 35050.777, 0.008664816, -0.4109985, -216959.17, -214434.78, 0.0, 9.997569, 9.999966 
2.7644536e+3, 3.0973768e+2, -416342.4, -157137.0, 45676.1, 0.013561995, -0.4382378, -149323.66, -149323.66, 0.0, 9.996964, 10.00038 
2.7643666e+3, 3.1973764e+2, -418286.0, -34073.61, -22114.215, 0.0071078204, -0.43645382, -32804.965, -32804.965, 0.0, 9.996424, 10.001481 
2.7760112e+3, 1.2984921e+2, -1210484.0, -1665673.6, -18746.742, 0.0322776, -0.46434534, -1209713.3, 457720.66, 0.0009765852, 10.004314, 9.998258 
2.775923e+3, 1.3984714e+2, -1232453.9, -1619991.9, 5803.592, 0.13454536, -0.45790574, -1232367.0, 337087.84, 0.0004707008, 10.00346, 9.998311 
2.7758357e+3, 1.4984548e+2, -1156801.4, -1489390.1, 69863.86, 0.10282285, -0.4386795, -1142721.8, 328749.8, 0.0001493871, 10.003124, 9.9986925 
2.7757487e+3, 1.598439e+2, -1103399.6, -1429693.8, 52733.87, 0.07333401, -0.4219902, -1095088.8, 278398.47, 0.000024304103, 10.002892, 9.998541 
2.775662e+3, 1.69842e+2, -1042848.8, -1334399.8, 65869.51, 0.059345867, -0.42957416, -1028657.8, 246848.27, 0.0000010959823, 10.002576, 9.99867 
2.7755752e+3, 1.7984018e+2, -1009987.6, -1290935.0, 69531.13, 0.04244922, -0.4359815, -993721.3, 183803.2, 0.00000000000031093438, 10.00223, 9.998463 
2.7754888e+3, 1.8983844e+2, -976514.2, -1217900.5, 80034.055, 0.039852053, -0.41529307, -952389.25, 127153.484, 0.0, 10.001761, 9.998516 
2.775403e+3, 1.998368e+2, -931225.6, -1130394.8, 73097.164, 0.03932396, -0.39483568, -907277.7, 74282.17, 0.0, 10.001332, 9.998652 
2.7753165e+3, 2.0983528e+2, -812691.75, -974272.6, 87556.68, 0.014540626, -0.39907503, -774346.7, 109227.12, 0.0, 10.001268, 9.99908 
2.7752304e+3, 2.1983382e+2, -746404.9, -921899.06, 82246.11, -0.011441107, -0.4082082, -713885.7, 71701.37, 0.0, 10.001181, 9.998811 
2.7751443e+3, 2.2983196e+2, -740152.4, -869143.0, 63644.84, -0.0078613395, -0.42942187, -714036.94, -26432.11, 0.0, 10.000555, 9.998801 
2.775058e+3, 2.3983021e+2, -731316.7, -800647.1, 57387.133, 0.00040546453, -0.447878, -698937.44, -109315.83, 0.0, 9.999884, 9.998922 
2.7749717e+3, 2.4982911e+2, -638928.75, -659543.25, 53735.945, -0.00092168833, -0.43648672, -594520.44, -102887.98, 0.0, 9.999648, 9.999331 
2.774885e+3, 2.5982818e+2, -575423.44, -583450.2, 55933.434, -0.0077020936, -0.42274588, -523359.6, -129717.914, 0.0, 9.9994335, 9.999285 
2.774798e+3, 2.6982713e+2, -540237.25, -487265.84, 29799.748, -0.019629477, -0.43356863, -473882.8, -178230.66, 0.0, 9.998878, 9.99954 
2.7747115e+3, 2.7982616e+2, -524479.4, -421253.25, 28636.72, -0.011011843, -0.44590664, -413841.16, -216179.86, 0.0, 9.99828, 9.99961 
2.774625e+3, 2.8982574e+2, -450179.47, -291383.72, 5785.8003, 0.07471439, -0.4313128, -291173.2, -191508.0, 0.0, 9.997927, 10.0 
2.774538e+3, 2.9982555e+2, -387224.56, -186160.88, 16799.152, 0.09555374, -0.41613978, -184766.95, -183100.14, 0.0, 9.9975815, 10.000217 
2.7744487e+3, 3.0982512e+2, -380941.3, -77883.01, 21175.824, -0.13889495, -0.48925897, -76410.53, -76410.53, 0.0, 9.996937, 10.000938 
2.7743632e+3, 3.1982622e+2, -433374.16, -70656.01, -41613.03, 0.064554065, -0.41276047, -65943.164, -65943.164, 0.0, 9.996427, 10.001239 
2.786015e+3, 1.2993827e+2, -1294134.5, -1705891.3, -8304.111, 0.044583123, -0.44244966, -1293967.0, 372594.88, 0.00048962387, 10.003736, 9.9982605 
2.7859265e+3, 1.3993596e+2, -1170906.6, -1596338.5, 28082.46, 0.12265614, -0.45812428, -1169060.9, 399523.97, 0.00022221683, 10.00391, 9.998256 
2.7858385e+3, 1.499342e+2, -1127928.5, -1490785.9, 89261.87, 0.09438499, -0.43502015, -1107159.1, 363443.34, 0.00006336457, 10.003394, 9.99855 
2.7857512e+3, 1.5993258e+2, -1117867.4, -1441932.5, 70153.18, 0.074352175, -0.41104516, -1103332.6, 269286.28, 0.000008291806, 10.00282, 9.998489 
2.7856642e+3, 1.6993064e+2, -1063033.6, -1343255.5, 77764.97, 0.06443172, -0.42378816, -1042899.6, 231738.47, 0.00000018034233, 10.002436, 9.998676 
2.785577e+3, 1.7992872e+2, -1024625.6, -1295038.8, 76849.13, 0.04942654, -0.43813702, -1004311.8, 172345.2, 0.0, 10.002115, 9.99849 
2.7854902e+3, 1.89927e+2, -950644.25, -1199988.8, 104324.29, 0.038671818, -0.41905165, -912753.5, 165921.27, 0.0, 10.001921, 9.99856 
2.7854037e+3, 1.9992541e+2, -877719.56, -1102586.8, 114059.71, 0.029676843, -0.39688978, -829994.06, 150697.16, 0.0, 10.001699, 9.998663 
2.7853173e+3, 2.0992385e+2, -833265.44, -991229.1, 114973.195, 0.007119574, -0.40213782, -772759.06, 109946.8, 0.0, 10.001163, 9.999012 
2.785231e+3, 2.1992227e+2, -825409.3, -960879.5, 94041.234, -0.013636382, -0.41446745, -777248.8, 7471.391, 0.0, 10.000645, 9.998799 
2.7851442e+3, 2.2992043e+2, -739193.25, -865136.8, 89723.04, -0.00673681, -0.43742517, -692549.0, -5811.107, 0.0, 10.00055, 9.998829 
2.7850577e+3, 2.3991868e+2, -647987.7, -759434.0, 100750.17, 0.0052129496, -0.45607665, -588577.56, 177.02678, 0.0, 10.000456, 9.998927 
2.784971e+3, 2.4991761e+2, -600178.94, -645670.06, 87419.14, 0.001959875, -0.4383621, -532594.75, -41829.75, 0.0, 9.999938, 9.999285 
2.784884e+3, 2.5991666e+2, -588130.0, -598101.5, 77781.945, -0.008131833, -0.41986263, -515174.16, -122399.97, 0.0, 9.999387, 9.999205 
2.784797e+3, 2.6991537e+2, -510447.56, -487441.13, 54809.645, -0.023238087, -0.43848017, -442940.56, -148153.86, 0.0, 9.999151, 9.999404 
2.7847093e+3, 2.799142e+2, -444811.6, -395837.22, 56726.24, -0.013005053, -0.45817226, -358538.6, -161740.48, 0.0, 9.99889, 9.999486 
2.784623e+3, 2.8991368e+2, -414817.3, -289565.56, 28458.67, 0.08264791, -0.4403702, -283402.66, -184599.6, 0.0, 9.9982395, 9.999859 
2.7845353e+3, 2.9991347e+2, -392488.38, -178177.22, 29696.309, 0.10774877, -0.4217523, -174138.42, -173333.22, 0.0, 9.997504, 10.000307 
2.784445e+3, 3.0991322e+2, -383732.66, -43919.52, 7897.318, -0.1528535, -0.49957377, -43736.082, -43736.082, 0.0, 9.996772, 10.001248 
2.7843598e+3, 3.1991464e+2, -431098.25, -89655.05, -18474.297, 0.12617226, -0.4086645, -88658.375, -88658.375, 0.0, 9.996535, 10.001053 
2.7960187e+3, 1.300278e+2, -1275199.0, -1671266.9, 1191.5706, 0.091011286, -0.39989823, -1275195.5, 390491.1, 0.00020986312, 10.003756, 9.998488 
2.7959296e+3, 1.4002548e+2, -1166471.5, -1590501.9, 20680.465, 0.09598707, -0.43598485, -1165465.4, 402243.3, 0.00008714671, 10.0039215, 9.998291 
2.7958414e+3, 1.5002343e+2, -1138319.1, -1516733.0, 66123.43, 0.07245067, -0.42874396, -1127097.6, 342631.2, 0.000020796237, 10.003409, 9.998366 
2.7957538e+3, 1.6002153e+2, -1125349.8, -1460317.1, 52852.707, 0.07107678, -0.41683054, -1117208.4, 254539.6, 0.0000018268473, 10.00283, 9.99836 
2.7956662e+3, 1.7001961e+2, -1068939.9, -1358098.6, 65874.56, 0.07332297, -0.41550815, -1054639.9, 219127.23, 0.0000000041088697, 10.002444, 9.998571 
2.7955788e+3, 1.800178e+2, -1016561.06, -1280040.6, 68079.83, 0.06398727, -0.415977, -1000009.8, 175775.47, 0.0, 10.00212, 9.998592 
2.7954918e+3, 1.9001609e+2, -929513.75, -1156748.5, 98214.55, 0.033530496, -0.419263, -892947.9, 184853.63, 0.0, 10.001922, 9.9988575 
2.7954048e+3, 2.0001449e+2, -878488.44, -1102423.4, 99074.5, 0.00746382, -0.4220482, -840948.44, 138868.56, 0.0, 10.00169, 9.99867 
2.795318e+3, 2.100127e+2, -854618.75, -1037081.2, 93030.625, 0.009271407, -0.42445293, -815550.94, 66283.484, 0.0, 10.001166, 9.998697 
2.7952313e+3, 2.2001098e+2, -824103.2, -961033.75, 83094.336, 0.011274507, -0.4278149, -784901.56, -1050.4441, 0.0, 10.000655, 9.998795 
2.7951446e+3, 2.300095e+2, -717463.9, -821872.8, 89233.74, -0.0051080817, -0.43864873, -666285.7, 19579.45, 0.0, 10.000556, 9.999125 
2.7950576e+3, 2.4000807e+2, -645274.94, -754400.6, 89052.38, -0.017633554, -0.4478855, -595399.1, -7520.9546, 0.0, 10.000456, 9.998963 
2.7949706e+3, 2.5000674e+2, -617458.06, -681637.75, 64770.797, 0.003904521, -0.43833548, -577263.6, -87372.555, 0.0, 9.999936, 9.99904 
2.7948833e+3, 2.600055e+2, -596773.9, -617320.7, 62628.76, 0.019410076, -0.42766088, -543581.5, -151678.28, 0.0, 9.99939, 9.999073 
2.7947956e+3, 2.700042e+2, -513040.97, -494734.13, 47675.76, -0.00714094, -0.44071007, -455341.03, -161425.08, 0.0, 9.999156, 9.999353 
2.794708e+3, 2.80003e+2, -451229.94, -413055.63, 39790.375, -0.01568354, -0.45485666, -388011.22, -192083.61, 0.0, 9.998904, 9.999363 
2.7946204e+3, 2.9000226e+2, -429748.34, -320784.44, 503.92288, 0.041028097, -0.4431883, -320782.1, -222846.88, 0.0, 9.998239, 9.999646 
2.794532e+3, 3.0000183e+2, -405931.2, -200732.88, 1284.2032, 0.041079905, -0.4252432, -200724.83, -200724.83, 0.0, 9.9974785, 10.000167 
2.7944428e+3, 3.1000197e+2, -393087.8, -56958.88, -22544.926, 0.00024550164, -0.45488068, -55453.48, -55453.48, 0.0, 9.996739, 10.001177 
2.7943552e+3, 3.2000247e+2, -441227.88, -110293.2, 47454.785, 0.042565167, -0.447325, -103622.82, -103622.82, 0.0, 9.996538, 10.000908 
2.8060222e+3, 1.3011722e+2, -1263149.4, -1657400.8, 18909.52, 0.108541064, -0.38636738, -1262244.5, 402567.38, 0.00007198371, 10.003802, 9.998562 
2.805933e+3, 1.4011507e+2, -1204148.6, -1601495.9, 18229.357, 0.09473702, -0.41020918, -1203314.1, 363518.1, 0.000025492809, 10.003633, 9.998355 
2.8058442e+3, 1.5011297e+2, -1168719.1, -1527485.3, 61365.14, 0.0743953, -0.41222188, -1158513.3, 310339.3, 0.000004397771, 10.003185, 9.9984 
2.805756e+3, 1.60111e+2, -1134391.1, -1459112.5, 64893.703, 0.080066465, -0.41155162, -1121902.8, 248969.36, 0.00000013286218, 10.002745, 9.998409 
2.805668e+3, 1.7010912e+2, -1061391.3, -1348122.0, 94493.15, 0.07831516, -0.41012472, -1033051.7, 239838.81, 0.0, 10.002475, 9.998624 
2.8055805e+3, 1.8010736e+2, -999899.75, -1265599.0, 103827.28, 0.06327309, -0.40873575, -964140.0, 210767.84, 0.0, 10.002216, 9.998641 
2.8054932e+3, 1.9010565e+2, -947213.06, -1166066.1, 116259.625, 0.033051703, -0.41421402, -896982.25, 179941.84, 0.0, 10.001805, 9.998849 
2.8054062e+3, 2.0010398e+2, -916217.2, -1119800.5, 101944.81, 0.009775855, -0.4205604, -873945.4, 104994.68, 0.0, 10.001425, 9.998679 
2.805319e+3, 2.101022e+2, -832909.9, -1024449.4, 112338.25, 0.012199681, -0.4255301, -781059.44, 99898.21, 0.0, 10.001309, 9.9987135 
2.8052318e+3, 2.201005e+2, -747532.0, -920747.25, 119642.06, 0.014669399, -0.4277903, -686440.25, 96534.01, 0.0, 10.001172, 9.998819 
2.8051448e+3, 2.3009917e+2, -698479.1, -811099.56, 110773.96, -0.0007092811, -0.42357877, -630524.7, 54462.31, 0.0, 10.000684, 9.999135 
2.8050578e+3, 2.4009787e+2, -682059.94, -770508.94, 95020.23, -0.011236359, -0.42186588, -621476.75, -34477.723, 0.0, 10.0002, 9.998974 
2.80497e+3, 2.500963e+2, -591625.3, -669928.2, 82927.92, 0.010396534, -0.43558112, -539071.4, -50057.633, 0.0, 10.000122, 9.999029 
2.8048828e+3, 2.6009482e+2, -513326.5, -583459.06, 91897.414, 0.027229378, -0.4451524, -450032.3, -59004.52, 0.0, 9.999996, 9.99901 
2.8047946e+3, 2.7009365e+2, -493257.25, -500805.3, 69747.914, -0.0015961913, -0.4321426, -427181.34, -134141.7, 0.0, 9.999361, 9.999212 
2.8047064e+3, 2.8009257e+2, -484973.34, -437032.94, 56857.723, -0.013693256, -0.42467344, -399299.25, -204248.34, 0.0, 9.998705, 9.999295 
2.8046182e+3, 2.900914e+2, -407098.3, -311925.9, 27477.744, 0.033751745, -0.450022, -304562.38, -207500.34, 0.0, 9.998406, 9.999625 
2.804529e+3, 3.0009064e+2, -330729.78, -186444.27, 33820.8, 0.02839442, -0.45687622, -178910.02, -178910.02, 0.0, 9.998095, 9.999965 
2.80444e+3, 3.100913e+2, -306084.0, -59946.16, -13681.765, 0.030190708, -0.4022787, -59187.984, -59187.984, 0.0, 9.997532, 10.000773 
2.804351e+3, 3.200911e+2, -429401.75, -80028.87, 64282.406, -0.016030418, -0.43795827, -68576.7, -68576.7, 0.0, 9.996517, 10.001123 
2.8160256e+3, 1.3020663e+2, -1263212.5, -1665247.0, 16064.726, 0.10173874, -0.39202726, -1262571.5, 401365.0, 0.000016905276, 10.003838, 9.99849 
2.8159365e+3, 1.4020479e+2, -1204279.8, -1594758.5, 7950.9126, 0.11044103, -0.3825892, -1204117.9, 361836.9, 0.0000044627095, 10.003602, 9.998416 
2.815847e+3, 1.5020281e+2, -1157374.4, -1503066.4, 44541.54, 0.09411509, -0.38900948, -1151727.5, 316246.38, 0.00000037420037, 10.003179, 9.998572 
2.815759e+3, 1.602009e+2, -1117349.9, -1429044.8, 52403.508, 0.09887829, -0.3979503, -1108775.4, 261216.78, 0.0000000005064632, 10.002766, 9.998607 
2.8156704e+3, 1.7019913e+2, -1045236.06, -1319234.1, 86193.36, 0.077871785, -0.40630347, -1020377.0, 251631.72, 0.0, 10.002492, 9.998815 
2.8155822e+3, 1.8019742e+2, -1001744.25, -1270910.8, 91021.2, 0.046424236, -0.41216332, -973854.4, 200170.53, 0.0, 10.002221, 9.998604 
2.8154945e+3, 1.9019565e+2, -965387.7, -1205868.8, 100640.55, 0.03655297, -0.40454847, -928828.0, 147214.88, 0.0, 10.001812, 9.998573 
2.8154072e+3, 2.0019393e+2, -913409.5, -1116029.0, 93615.52, 0.032079738, -0.3971576, -876778.94, 101281.29, 0.0, 10.001432, 9.998702 
2.8153202e+3, 2.101923e+2, -811865.4, -982102.2, 109977.51, 0.0145067675, -0.40810707, -757914.75, 122160.91, 0.0, 10.001313, 9.999003 
2.8152326e+3, 2.2019076e+2, -747839.56, -919563.5, 107320.305, -0.002639799, -0.41647053, -696260.94, 85829.29, 0.0, 10.001162, 9.998834 
2.8151453e+3, 2.3018941e+2, -716681.75, -849644.8, 90166.26, 0.007030683, -0.3936112, -671137.6, 12966.163, 0.0, 10.000685, 9.998871 
2.815058e+3, 2.4018806e+2, -680881.7, -770578.7, 84350.2, 0.019728733, -0.377558, -630198.25, -44081.2, 0.0, 10.000208, 9.998971 
2.8149703e+3, 2.5018626e+2, -575374.25, -637799.1, 82008.56, 0.01990048, -0.4293455, -518839.22, -30706.326, 0.0, 10.000126, 9.999249 
2.8148824e+3, 2.6018465e+2, -513552.13, -585985.75, 77465.805, 0.012347348, -0.47188428, -464255.13, -74107.414, 0.0, 10.000002, 9.998992 
2.8147936e+3, 2.7018374e+2, -511679.75, -538858.9, 42450.742, -0.0071994103, -0.4115924, -480696.44, -188538.73, 0.0, 9.999359, 9.998954 
2.8147048e+3, 2.8018287e+2, -486499.47, -438540.94, 38747.824, -0.004958494, -0.36385277, -416952.66, -222785.05, 0.0, 9.998694, 9.99929 
2.8146166e+3, 2.9018113e+2, -394518.78, -286324.66, 18727.547, 0.06556354, -0.4630065, -283174.78, -186991.36, 0.0, 9.998405, 9.999804 
2.8145275e+3, 3.001798e+2, -347254.9, -227168.89, 19136.59, 0.06676033, -0.52800936, -224193.08, -224193.08, 0.0, 9.998119, 9.999675 
2.814436e+3, 3.101812e+2, -356580.56, -173601.08, -36132.68, -0.08932069, -0.33173603, -166724.45, -166724.45, 0.0, 9.997568, 9.999977 
2.8143474e+3, 3.2018045e+2, -383275.1, 24381.088, -31588.184, 0.053816043, -0.387129, 26814.25, 26814.25, 0.0, 9.99647, 10.001868 
2.8260294e+3, 1.302967e+2, -1283469.5, -1686083.5, 35213.594, 0.12610981, -0.3876029, -1280412.9, 382641.22, 0.00000202772, 10.003745, 9.998392 
2.8259394e+3, 1.4029482e+2, -1257485.8, -1612541.4, 29457.656, 0.10078468, -0.37751198, -1255058.4, 310015.22, 0.00000028941432, 10.003205, 9.998485 
2.82585e+3, 1.50293e+2, -1174389.1, -1489707.8, 70999.97, 0.0958471, -0.3824795, -1159139.6, 307951.16, 0.0000000018666946, 10.0029745, 9.99876 
2.825761e+3, 1.6029125e+2, -1107581.8, -1412989.5, 76748.016, 0.113391235, -0.39055, -1089380.0, 279727.13, 0.0, 10.002788, 9.998704 
2.8256726e+3, 1.7028952e+2, -1057134.0, -1328396.8, 96000.9, 0.08204876, -0.39695376, -1026596.7, 244526.94, 0.0, 10.002425, 9.998784 
2.825584e+3, 1.802878e+2, -1021936.8, -1279857.6, 91406.67, 0.041335847, -0.4013126, -992827.7, 180312.33, 0.0, 10.002075, 9.998614 
2.8254962e+3, 1.9028597e+2, -952340.5, -1194288.8, 118842.516, 0.03563339, -0.40145257, -903732.0, 171426.34, 0.0, 10.0018835, 9.998617 
2.8254086e+3, 2.0028424e+2, -870815.6, -1086502.5, 130108.17, 0.035333846, -0.39941123, -809666.94, 167508.8, 0.0, 10.001695, 9.998775 
2.825321e+3, 2.1028282e+2, -799097.94, -968967.7, 135833.23, 0.01712722, -0.39576122, -723831.06, 155358.14, 0.0, 10.001375, 9.999062 
2.8252333e+3, 2.2028145e+2, -762382.1, -925207.06, 119060.625, 0.0007478792, -0.39224544, -699560.7, 81641.7, 0.0, 10.001059, 9.998844 
2.8251457e+3, 2.3027988e+2, -699580.06, -847502.4, 110035.76, 0.010874905, -0.38663158, -640958.75, 42259.37, 0.0, 10.000832, 9.998814 
2.8250578e+3, 2.4027835e+2, -621361.44, -733945.94, 119228.805, 0.024801737, -0.38487715, -545804.06, 39429.133, 0.0, 10.0005865, 9.999038 
2.82497e+3, 2.5027686e+2, -551966.06, -608371.94, 116346.66, 0.021011587, -0.42062047, -460452.88, 26793.193, 0.0, 10.000211, 9.99941 
2.8248817e+3, 2.6027548e+2, -533705.9, -590434.75, 104782.13, 0.008823687, -0.4494206, -453516.94, -64258.66, 0.0, 9.999841, 9.999039 
2.8247926e+3, 2.702744e+2, -475331.53, -527584.5, 77587.65, -0.012220429, -0.40263057, -419589.63, -128319.71, 0.0, 9.9996395, 9.998894 
2.8247035e+3, 2.8027335e+2, -389905.2, -395495.2, 84940.21, -0.004991344, -0.3662648, -307714.0, -114432.48, 0.0, 9.999382, 9.999251 
2.824615e+3, 2.902716e+2, -331800.0, -263893.44, 50684.117, 0.07963638, -0.456639, -236840.94, -141543.9, 0.0, 9.998873, 9.999732 
2.8245252e+3, 3.002703e+2, -324506.9, -232119.94, 37896.215, 0.08130995, -0.51570547, -218564.27, -218564.27, 0.0, 9.998343, 9.999534 
2.8244326e+3, 3.1027135e+2, -326846.94, -187845.98, 13404.313, -0.1467169, -0.32673493, -186565.16, -186565.16, 0.0, 9.997899, 9.999718 
2.8243443e+3, 3.202701e+2, -268333.25, 49223.78, -18810.16, 0.103248484, -0.40654814, 50334.1, 50334.1, 0.0, 9.997397, 10.001588 
2.836033e+3, 1.3038734e+2, -1289567.4, -1697771.8, 12908.439, 0.17394762, -0.37393886, -1289159.5, 373006.44, 0.0000000446266, 10.003741, 9.998314 
2.8359416e+3, 1.4038517e+2, -1249439.8, -1598671.0, 17065.008, 0.06647472, -0.3864788, -1248607.9, 315580.66, 0.000000000017311715, 10.003216, 9.998575 
2.8358522e+3, 1.5038356e+2, -1158622.3, -1461100.9, 66163.016, 0.078751974, -0.38871375, -1144783.1, 321420.44, 0.0, 10.002989, 9.998951 
2.8357637e+3, 1.6038202e+2, -1107918.0, -1415937.6, 66675.29, 0.12184471, -0.38940904, -1094104.6, 274113.22, 0.0, 10.002795, 9.998681 
2.8356746e+3, 1.7038023e+2, -1072314.0, -1361633.3, 82603.61, 0.091211386, -0.38285077, -1050391.1, 219844.47, 0.0, 10.002431, 9.998554 
2.8355858e+3, 1.8037845e+2, -1016607.0, -1269828.3, 82788.01, 0.046932306, -0.37884715, -991942.7, 180310.55, 0.0, 10.002079, 9.998682 
2.8354976e+3, 1.9037662e+2, -929366.1, -1148534.5, 113516.73, 0.029331181, -0.40449104, -881169.6, 193100.92, 0.0, 10.00189, 9.998928 
2.8354096e+3, 2.0037493e+2, -866064.3, -1075657.9, 120467.85, 0.019818164, -0.4237879, -811190.0, 165096.75, 0.0, 10.001689, 9.998853 
2.835322e+3, 2.1037376e+2, -809480.06, -990330.0, 123816.92, 0.020031517, -0.38697135, -746584.1, 131714.44, 0.0, 10.001372, 9.998918 
2.8352344e+3, 2.2037254e+2, -761906.7, -923706.75, 109685.37, 0.018567009, -0.35711515, -706514.0, 73796.76, 0.0, 10.001055, 9.9988575 
2.835146e+3, 2.3037058e+2, -691018.8, -829510.1, 102467.97, 0.00973567, -0.40239012, -636592.94, 45736.93, 0.0, 10.000829, 9.9989395 
2.835058e+3, 2.4036874e+2, -615002.9, -719555.1, 107612.164, 0.00465563, -0.44243005, -547641.4, 36705.992, 0.0, 10.00058, 9.999142 
2.8349698e+3, 2.5036803e+2, -546913.44, -598172.94, 101428.93, 0.013662072, -0.40761617, -467926.2, 18427.088, 0.0, 10.000211, 9.99948 
2.8348812e+3, 2.6036736e+2, -523638.16, -572102.44, 93387.336, 0.012926954, -0.37449235, -451390.28, -63031.0, 0.0, 9.999849, 9.999163 
2.8347918e+3, 2.7036566e+2, -462958.7, -504191.94, 70957.21, -0.017875815, -0.40796217, -409683.7, -119307.5, 0.0, 9.999645, 9.999054 
2.8347024e+3, 2.8036398e+2, -393836.03, -408861.06, 71298.91, -0.019282848, -0.44167393, -329654.94, -137262.06, 0.0, 9.999402, 9.999151 
2.8346133e+3, 2.90363e+2, -356187.63, -316745.97, 30513.613, 0.07218683, -0.4244177, -300135.13, -205733.17, 0.0, 9.998881, 9.999366 
2.8345233e+3, 3.003623e+2, -321993.2, -225288.44, 19927.523, 0.07403661, -0.3988871, -221343.02, -221343.02, 0.0, 9.998334, 9.999587 
2.8344303e+3, 3.1036162e+2, -301505.8, -134768.75, -803.15546, -0.13058747, -0.41532588, -134764.88, -134764.88, 0.0, 9.997893, 10.000087 
2.8343412e+3, 3.2036048e+2, -391656.88, -216217.28, -36215.02, 0.07760495, -0.45955098, -209035.6, -209035.6, 0.0, 9.9974375, 9.999746 
2.846036e+3, 1.3047817e+2, -1314584.1, -1696313.8, 14677.734, 0.14421684, -0.37028936, -1314020.6, 347255.16, 0.0, 10.00351, 9.998435 
2.8459448e+3, 1.4047608e+2, -1277926.0, -1601754.9, 33902.77, 0.10531667, -0.38802204, -1274414.6, 288883.22, 0.0, 10.0029745, 9.998671 
2.8458548e+3, 1.5047455e+2, -1190700.5, -1473443.0, 83061.28, 0.081202656, -0.38641262, -1168105.3, 297206.88, 0.0, 10.002757, 9.998978 
2.8457657e+3, 1.604731e+2, -1133230.9, -1420521.1, 75390.41, 0.08989485, -0.38244244, -1114648.9, 252676.83, 0.0, 10.002589, 9.998749 
2.8456765e+3, 1.7047137e+2, -1076256.3, -1352440.3, 106914.37, 0.08522209, -0.37847653, -1039705.56, 229637.31, 0.0, 10.00236, 9.998649 
2.8455877e+3, 1.8046962e+2, -1004835.1, -1253666.6, 124852.47, 0.06469509, -0.3783799, -952991.3, 218368.77, 0.0, 10.002121, 9.998769 
2.845499e+3, 1.904679e+2, -936693.6, -1147680.3, 141425.2, 0.033059742, -0.39897162, -865750.2, 207626.42, 0.0, 10.001823, 9.998966 
2.845411e+3, 2.0046629e+2, -883014.3, -1073133.1, 134015.98, 0.01178089, -0.41289055, -813767.4, 161624.48, 0.0, 10.001525, 9.99895 
2.845323e+3, 2.1046516e+2, -822409.44, -981987.3, 150455.4, 0.019660793, -0.3846608, -731895.4, 145507.64, 0.0, 10.001223, 9.999046 
2.845235e+3, 2.2046399e+2, -771457.94, -915545.1, 154123.48, 0.024792237, -0.36206636, -673371.2, 106043.41, 0.0, 10.000937, 9.998967 
2.8451464e+3, 2.3046212e+2, -698458.1, -824553.9, 146495.48, 0.005370454, -0.40479404, -602019.44, 79413.375, 0.0, 10.000744, 9.999013 
2.8450578e+3, 2.4046038e+2, -620896.3, -716187.5, 144998.53, -0.0078026787, -0.4416908, -515915.97, 67533.63, 0.0, 10.000515, 9.999195 
2.8449696e+3, 2.5045976e+2, -557982.2, -602011.1, 130894.164, 0.009417249, -0.40116185, -447264.13, 38191.098, 0.0, 10.000131, 9.999491 
2.8448805e+3, 2.6045915e+2, -530279.3, -558992.1, 124511.875, 0.020141616, -0.36186418, -419298.9, -31838.332, 0.0, 9.99974, 9.999303 
2.844791e+3, 2.7045763e+2, -452448.06, -472498.5, 111203.484, -0.010653716, -0.40105134, -350818.8, -61343.46, 0.0, 9.999604, 9.999291 
2.8447014e+3, 2.8045604e+2, -386208.78, -402848.75, 109866.3, -0.018959727, -0.44389108, -284347.88, -92857.125, 0.0, 9.99944, 9.999177 
2.8446117e+3, 2.9045492e+2, -351234.53, -333722.88, 75925.77, 0.04457606, -0.4263233, -266049.75, -172547.89, 0.0, 9.999, 9.999191 
2.8445208e+3, 3.0045417e+2, -291426.56, -221121.0, 78141.76, 0.04014663, -0.38723665, -170589.17, -170589.17, 0.0, 9.998598, 9.999484 
2.844429e+3, 3.104538e+2, -197381.6, -94227.97, 31947.41, -0.046662867, -0.3649566, -85135.14, -85135.14, 0.0, 9.998656, 9.999996 
2.844338e+3, 3.204518e+2, -296730.4, -200774.05, -34508.69, 0.025350414, -0.4794375, -189652.69, -189652.69, 0.0, 9.998221, 9.999474 
2.8560382e+3, 1.3056926e+2, -1307654.1, -1667946.0, -7708.577, 0.055266723, -0.3759636, -1307489.3, 352894.38, 0.0, 10.003451, 9.998657 
2.8559482e+3, 1.4056744e+2, -1268878.9, -1589789.6, 20573.652, 0.19915724, -0.38344398, -1267565.3, 294837.34, 0.0, 10.003003, 9.998739 
2.8558573e+3, 1.5056595e+2, -1195223.3, -1486614.9, 77548.13, 0.10038735, -0.37462524, -1175870.6, 288546.47, 0.0, 10.00277, 9.998882 
2.8557673e+3, 1.6056448e+2, -1123629.6, -1397749.0, 69018.64, 0.027552605, -0.3680832, -1107232.6, 259198.27, 0.0, 10.002576, 9.998912 
2.8556785e+3, 1.7056288e+2, -1051323.4, -1300273.8, 98777.7, 0.06421238, -0.38387722, -1016892.56, 251553.55, 0.0, 10.0023575, 9.999008 
2.8555897e+3, 1.8056127e+2, -1000912.8, -1245533.1, 114504.086, 0.08780191, -0.39814153, -955679.06, 214782.42, 0.0, 10.00212, 9.998826 
2.855501e+3, 1.9055974e+2, -951933.8, -1178340.9, 130656.52, 0.04479953, -0.3854502, -892261.2, 180215.92, 0.0, 10.001816, 9.99876 
2.8554118e+3, 2.0055827e+2, -876865.1, -1056866.1, 123508.13, 0.0081838425, -0.3735764, -814044.3, 160447.39, 0.0, 10.001509, 9.99907 
2.855324e+3, 2.1055701e+2, -797567.0, -930000.7, 139407.63, 0.015952768, -0.38951597, -709449.3, 167053.64, 0.0, 10.00122, 9.999405 
2.8552353e+3, 2.2055578e+2, -760597.75, -890974.0, 144788.77, 0.020618137, -0.4034182, -666999.0, 111515.06, 0.0, 10.000927, 9.999142 
2.8551468e+3, 2.305545e+2, -697521.75, -822840.0, 139313.08, -0.0032041592, -0.39188498, -607425.2, 73102.016, 0.0, 10.000743, 9.999025 
2.8550577e+3, 2.4055324e+2, -618871.75, -715099.44, 132990.5, -0.020573577, -0.3834308, -525559.25, 56981.03, 0.0, 10.000526, 9.999198 
2.854969e+3, 2.5055197e+2, -560652.8, -607908.3, 114645.445, 0.007872546, -0.40399778, -467225.66, 17326.463, 0.0, 10.00013, 9.999453 
2.85488e+3, 2.605509e+2, -520058.1, -537796.25, 115077.91, 0.031198459, -0.4167171, -413508.0, -26945.684, 0.0, 9.999738, 9.999451 
2.8547904e+3, 2.7055034e+2, -431936.7, -429632.72, 108301.9, 0.010372191, -0.3784602, -322476.7, -33909.883, 0.0, 9.999601, 9.999587 
2.8547004e+3, 2.8054962e+2, -374443.03, -378826.47, 97742.78, -0.0037978615, -0.36116096, -278867.4, -88293.74, 0.0, 9.99944, 9.999344 
2.8546095e+3, 2.9054734e+2, -349761.4, -329540.2, 59846.258, -0.008024847, -0.47116047, -278956.5, -186359.8, 0.0, 9.998993, 9.999225 
2.8545183e+3, 3.0054578e+2, -312345.4, -266747.03, 74715.59, -0.032476738, -0.504079, -211429.5, -211429.5, 0.0, 9.998607, 9.999167 
2.854429e+3, 3.105483e+2, -238031.0, -186815.83, 38857.336, 0.11953392, -0.13470922, -165886.97, -165886.97, 0.0, 9.998692, 9.999344 
2.854335e+3, 3.205436e+2, -161390.66, 79567.43, -114671.4, -0.06589654, -0.5277985, 125415.56, 125415.56, 0.0, 9.998221, 10.001402 
2.8660408e+3, 1.3066055e+2, -1396143.6, -1693619.1, 7166.32, 0.040487714, -0.38712347, -1395971.1, 263518.2, 0.0, 10.002768, 9.998811 
2.865951e+3, 1.4065912e+2, -1273555.1, -1574592.5, 30630.959, 0.19499238, -0.3704022, -1270470.0, 291034.3, 0.0, 10.002896, 9.998894 
2.8658596e+3, 1.5065767e+2, -1216861.1, -1482837.8, 95127.48, 0.104943685, -0.36993682, -1186340.6, 277177.5, 0.0, 10.002564, 9.999005 
2.8657693e+3, 1.6065623e+2, -1168840.1, -1407731.6, 97261.875, 0.034816045, -0.37288833, -1134249.8, 231282.13, 0.0, 10.002217, 9.999014 
2.8656802e+3, 1.7065477e+2, -1093376.1, -1312718.4, 112367.94, 0.055424426, -0.38079304, -1046030.4, 221515.44, 0.0, 10.002037, 9.999077 
2.865591e+3, 1.8065333e+2, -1031553.3, -1249567.1, 112442.51, 0.06999938, -0.38568017, -983953.0, 185606.8, 0.0, 10.001863, 9.998923 
2.865502e+3, 1.9065185e+2, -980622.7, -1180243.5, 143030.11, 0.044410184, -0.3775371, -906020.56, 165554.13, 0.0, 10.00157, 9.998865 
2.865413e+3, 2.0065044e+2, -900760.25, -1055000.9, 153329.6, 0.02075281, -0.37221235, -806248.7, 167340.13, 0.0, 10.001291, 9.999186 
2.8653243e+3, 2.1064924e+2, -806489.44, -923657.9, 154897.61, 0.017012116, -0.3918981, -699467.56, 176131.75, 0.0, 10.001116, 9.999496 
2.8652358e+3, 2.2064808e+2, -755374.0, -877253.1, 144419.11, 0.013964346, -0.40581807, -659563.75, 118045.734, 0.0, 10.0009165, 9.999241 
2.865147e+3, 2.3064701e+2, -724116.7, -826042.3, 140508.86, -0.0036555335, -0.3818803, -625613.94, 54006.824, 0.0, 10.000521, 9.99911 
2.865058e+3, 2.4064595e+2, -662817.3, -721131.4, 142471.7, -0.014694145, -0.36322945, -546549.7, 35082.434, 0.0, 10.000164, 9.99933 
2.8649688e+3, 2.5064462e+2, -552892.5, -589931.44, 135644.89, 0.006944494, -0.40189174, -434508.72, 49135.633, 0.0, 10.000124, 9.9995775 
2.8648797e+3, 2.6064348e+2, -469060.06, -499817.1, 143733.36, 0.023694275, -0.43058732, -339884.84, 45770.004, 0.0, 10.00003, 9.99957 
2.8647897e+3, 2.706433e+2, -417781.78, -410479.97, 123982.66, 0.0046353494, -0.37185764, -290094.47, -2438.0125, 0.0, 9.999648, 9.999696 
2.8646994e+3, 2.806428e+2, -391027.13, -374687.1, 102101.086, -0.0019071714, -0.33584154, -280429.7, -90769.02, 0.0, 9.999281, 9.999445 
2.8646085e+3, 2.9064035e+2, -279384.53, -286561.38, 71424.59, -0.00027037694, -0.47278625, -211458.28, -119772.836, 0.0, 9.999441, 9.999302 
2.864517e+3, 3.0063865e+2, -176886.53, -206854.73, 91056.53, -0.027035013, -0.5239921, -99589.46, -99589.46, 0.0, 9.999563, 9.999119 
2.8644273e+3, 3.1064174e+2, -211492.48, -199063.63, 87263.72, 0.09865363, -0.082799554, -117793.336, -117793.336, 0.0, 9.998988, 9.999115 
2.864333e+3, 3.2063627e+2, -34375.082, 192700.17, -99634.38, -0.07875284, -0.5499799, 230218.19, 230218.19, 0.0, 9.998877, 10.001861 
2.8760433e+3, 1.3075209e+2, -1379825.9, -1670780.0, 16455.8, 0.07484288, -0.3965187, -1378898.1, 279694.13, 0.0, 10.002817, 9.998943 
2.8759527e+3, 1.407511e+2, -1264958.1, -1544950.3, 27367.309, 0.1166866, -0.35336116, -1262308.3, 298295.0, 0.0, 10.002845, 9.999122 
2.8758618e+3, 1.507497e+2, -1199730.9, -1444038.4, 80654.3, 0.095393494, -0.37519327, -1175506.3, 287109.84, 0.0, 10.002548, 9.999279 
2.8757718e+3, 1.6074827e+2, -1165234.4, -1404256.3, 87185.44, 0.090286836, -0.39504063, -1136812.4, 227816.8, 0.0, 10.0022335, 9.999031 
2.8756815e+3, 1.7074704e+2, -1105721.3, -1339231.0, 107259.67, 0.056198426, -0.3683414, -1063931.6, 202710.42, 0.0, 10.002038, 9.998896 
2.875592e+3, 1.807458e+2, -1024328.5, -1230920.9, 104517.1, 0.021069795, -0.34531924, -980676.0, 187979.03, 0.0, 10.001846, 9.99906 
2.875503e+3, 1.9074424e+2, -954522.1, -1126767.4, 131718.52, 0.033318903, -0.37593323, -883269.8, 187399.8, 0.0, 10.001572, 9.99923 
2.8754142e+3, 2.0074277e+2, -894686.06, -1042897.0, 144319.72, 0.044200152, -0.40475717, -806557.75, 166125.58, 0.0, 10.001292, 9.999269 
2.875325e+3, 2.1074179e+2, -816625.4, -945343.06, 148725.6, 0.020332158, -0.3906253, -718930.6, 155761.67, 0.0, 10.001116, 9.99935 
2.8752363e+3, 2.2074084e+2, -754646.4, -873217.1, 132543.53, -0.001723013, -0.37493497, -668733.44, 107967.83, 0.0, 10.000905, 9.999274 
2.8751472e+3, 2.3073965e+2, -713825.1, -804016.7, 124720.01, 0.004521803, -0.37703863, -626298.5, 52415.176, 0.0, 10.000518, 9.999263 
2.8750578e+3, 2.4073853e+2, -645716.6, -685622.44, 135976.31, 0.011947522, -0.38188642, -528237.1, 52488.13, 0.0, 10.000162, 9.999575 
2.8749686e+3, 2.507378e+2, -533536.94, -551102.56, 135183.72, 0.0040698186, -0.39236364, -406851.03, 75880.6, 0.0, 10.000129, 9.999843 
2.874879e+3, 2.6073706e+2, -461177.6, -487708.2, 134153.98, -0.012252422, -0.39823177, -339634.66, 45103.023, 0.0, 10.000046, 9.999646 
2.8747886e+3, 2.7073637e+2, -424751.28, -424794.53, 106695.41, -0.03140284, -0.38413325, -318077.5, -31332.8, 0.0, 9.999645, 9.999599 
2.8746983e+3, 2.8073555e+2, -388306.56, -370207.25, 97043.78, -0.017265499, -0.3777187, -281792.1, -93039.24, 0.0, 9.999283, 9.9994755 
2.8746083e+3, 2.907341e+2, -267649.3, -267430.94, 83519.02, 0.077088095, -0.42179182, -184021.03, -93253.77, 0.0, 9.999462, 9.999424 
2.874517e+3, 3.0073303e+2, -151962.97, -162444.39, 79306.64, 0.069117546, -0.42722332, -77724.06, -77724.06, 0.0, 9.999598, 9.999407 
2.874423e+3, 3.107338e+2, -194496.56, -158149.0, 64878.855, -0.15994859, -0.2517978, -108946.586, -108946.586, 0.0, 9.998968, 9.999404 
2.8743327e+3, 3.2073075e+2, -144546.86, -41786.953, -42666.625, 0.057479188, -0.45161492, -26381.125, -26381.125, 0.0, 9.998897, 10.000241 
2.8860462e+3, 1.3084422e+2, -1369955.9, -1660631.8, 25457.984, 0.09770376, -0.3919672, -1367743.1, 289946.03, 0.0, 10.002858, 9.998995 
2.885954e+3, 1.4084318e+2, -1380230.1, -1590050.0, 41364.215, 0.07564078, -0.35864148, -1372370.0, 187330.56, 0.0, 10.002008, 9.999214 
2.8858635e+3, 1.508419e+2, -1263959.3, -1465920.9, 89680.875, 0.07880307, -0.37745428, -1229885.4, 231827.11, 0.0, 10.00207, 9.999358 
2.8857738e+3, 1.608406e+2, -1168654.6, -1393931.3, 84967.57, 0.10253386, -0.39375302, -1140201.3, 223523.27, 0.0, 10.002159, 9.999137 
2.8856835e+3, 1.7083943e+2, -1122537.9, -1334759.5, 117388.516, 0.06543903, -0.37066647, -1070409.8, 195326.73, 0.0, 10.001869, 9.999006 
2.8855932e+3, 1.8083824e+2, -1059206.9, -1239259.9, 129078.69, 0.021438355, -0.35181695, -991860.94, 175887.72, 0.0, 10.001571, 9.999133 
2.8855038e+3, 1.9083677e+2, -969847.44, -1128679.8, 138556.66, 0.026946073, -0.3782034, -889561.1, 180201.42, 0.0, 10.001445, 9.999277 
2.885415e+3, 2.008354e+2, -890545.4, -1037378.44, 133800.88, 0.037927333, -0.40086904, -811342.56, 160432.98, 0.0, 10.001305, 9.999301 
2.8853258e+3, 2.1083447e+2, -835489.94, -953096.3, 144628.48, 0.021154033, -0.38498974, -738167.5, 135616.83, 0.0, 10.000981, 9.999362 
2.8852367e+3, 2.2083357e+2, -778357.7, -869059.7, 138643.78, 0.0034952054, -0.36922625, -677836.1, 97956.805, 0.0, 10.000676, 9.999413 
2.8851473e+3, 2.3083247e+2, -695622.8, -769930.75, 134966.17, 0.005571821, -0.38235697, -592790.06, 85013.98, 0.0, 10.000535, 9.999488 
2.885058e+3, 2.4083148e+2, -607138.25, -648863.5, 149906.75, 0.010499244, -0.39461786, -476649.34, 103164.74, 0.0, 10.00035, 9.999736 
2.884968e+3, 2.50831e+2, -555396.44, -551840.94, 136268.14, -0.0016323287, -0.38974002, -417338.94, 64479.258, 0.0, 9.999939, 9.9999275 
2.8848782e+3, 2.608305e+2, -515747.7, -496656.84, 129420.28, -0.016895963, -0.38263318, -376430.44, 7391.7554, 0.0, 9.999605, 9.999792 
2.884788e+3, 2.7082977e+2, -412758.34, -404791.47, 114361.32, -0.024495332, -0.3854329, -294344.25, -8514.628, 0.0, 9.999673, 9.99972 
2.8846973e+3, 2.8082895e+2, -329001.0, -313902.7, 122102.414, -0.004471264, -0.39634836, -199116.28, -11278.219, 0.0, 9.999575, 9.99972 
2.8846073e+3, 2.908279e+2, -259022.84, -245930.77, 135699.77, 0.07286314, -0.42185134, -116619.25, -26771.275, 0.0, 9.999454, 9.999572 
2.884516e+3, 3.0082715e+2, -151277.23, -159928.73, 113348.664, 0.057625137, -0.4045306, -42171.81, -42171.81, 0.0, 9.999598, 9.999423 
2.884422e+3, 3.108275e+2, -109600.76, -145273.19, 50728.09, -0.16292211, -0.25582695, -73664.586, -73664.586, 0.0, 9.999679, 9.999158 
2.884332e+3, 3.208248e+2, -56140.48, -9244.036, -17432.824, 0.10511013, -0.3932331, -3473.7278, -3473.7278, 0.0, 9.999544, 10.000166 
2.8960487e+3, 1.3093677e+2, -1383014.6, -1667460.0, -14386.734, 0.10963168, -0.38301492, -1382288.8, 274492.88, 0.0, 10.002774, 9.998986 
2.8959554e+3, 1.4093544e+2, -1378973.3, -1592460.5, 31215.168, 0.059809018, -0.37744632, -1374502.8, 184293.31, 0.0, 10.00203, 9.999187 
2.8958648e+3, 1.5093432e+2, -1268138.1, -1477079.8, 96981.73, 0.05822941, -0.373366, -1230062.1, 230744.89, 0.0, 10.002079, 9.999278 
2.895775e+3, 1.609332e+2, -1158311.4, -1369350.3, 80996.2, 0.084670484, -0.3725678, -1130809.3, 232008.5, 0.0, 10.002145, 9.999313 
2.895685e+3, 1.7093195e+2, -1098177.3, -1284877.4, 104003.99, 0.07923652, -0.38872686, -1051773.6, 213055.56, 0.0, 10.001871, 9.999349 
2.8955948e+3, 1.8093069e+2, -1057974.1, -1238780.4, 120264.74, 0.05556045, -0.39974165, -997923.44, 168917.61, 0.0, 10.001579, 9.999133 
2.895505e+3, 1.9092949e+2, -985687.3, -1161967.9, 134740.89, 0.02302482, -0.38229457, -912818.8, 156034.88, 0.0, 10.001444, 9.999051 
2.8954154e+3, 2.0092835e+2, -893630.9, -1039572.44, 125193.31, 0.004257223, -0.3668907, -821694.44, 149171.19, 0.0, 10.0012865, 9.999295 
2.8953263e+3, 2.1092726e+2, -824726.9, -930615.75, 131958.6, 0.02065197, -0.37668958, -735487.7, 137387.72, 0.0, 10.00098, 9.9995165 
2.8952372e+3, 2.2092627e+2, -762802.2, -836728.4, 130322.65, 0.027111882, -0.38805607, -664302.1, 110582.26, 0.0, 10.000675, 9.999636 
2.8951472e+3, 2.309255e+2, -675698.7, -728414.4, 130344.5, -0.0041577225, -0.39543155, -569073.75, 107818.07, 0.0, 10.000533, 9.999775 
2.8950575e+3, 2.409248e+2, -602560.25, -639663.9, 137214.89, -0.027233673, -0.4003752, -482648.72, 96249.94, 0.0, 10.00035, 9.9998 
2.8949675e+3, 2.5092423e+2, -563957.94, -567889.75, 119191.51, -0.008269504, -0.3953847, -446716.13, 34188.18, 0.0, 9.999932, 9.999821 
2.8948778e+3, 2.6092377e+2, -499996.34, -464697.34, 126900.27, 0.011539291, -0.38606265, -354225.1, 28683.84, 0.0, 9.999607, 10.0000105 
2.8947875e+3, 2.7092355e+2, -387871.5, -354915.13, 114985.02, 0.027125446, -0.37347382, -255233.56, 29677.486, 0.0, 9.999678, 10.000059 
2.894697e+3, 2.8092307e+2, -292670.16, -244573.78, 110229.75, 0.03500498, -0.38742688, -155799.48, 31116.063, 0.0, 9.999597, 10.000187 
2.894605e+3, 2.9092166e+2, -248850.94, -218430.31, 142723.14, -0.029691316, -0.48511776, -90109.28, -1181.1116, 0.0, 9.999433, 9.999766 
2.894514e+3, 3.0092087e+2, -176919.94, -203483.7, 119685.086, -0.08540666, -0.4769114, -69782.016, -69782.016, 0.0, 9.999559, 9.99914 
2.8944242e+3, 3.1092292e+2, -173418.0, -274883.47, 51711.86, 0.16132483, -0.08971759, -151708.16, -151708.16, 0.0, 9.999674, 9.998269 
2.8943297e+3, 3.209175e+2, 79544.01, 278748.72, -34093.67, -0.028062005, -0.4803849, 284422.25, 284422.25, 0.0, 9.999521, 10.002156 
2.9060504e+3, 1.3102928e+2, -1504290.3, -1695900.9, -20406.092, 0.098077625, -0.38463596, -1502141.1, 153733.9, 0.0, 10.001808, 9.999258 
2.9059574e+3, 1.410281e+2, -1383657.5, -1590207.0, 45411.32, 0.0650891, -0.38373807, -1374114.4, 183772.78, 0.0, 10.001978, 9.9992285 
2.9058665e+3, 1.5102695e+2, -1306566.6, -1510126.8, 112123.42, 0.060409896, -0.37475374, -1256917.4, 202981.8, 0.0, 10.001878, 9.999148 
2.9057765e+3, 1.6102576e+2, -1217311.6, -1399617.0, 86869.03, 0.08243221, -0.3703645, -1182547.5, 179363.58, 0.0, 10.001746, 9.999297 
2.9056862e+3, 1.7102455e+2, -1121096.9, -1287542.0, 90792.82, 0.07847582, -0.38843274, -1081155.6, 182766.53, 0.0, 10.0016775, 9.999424 
2.905596e+3, 1.8102337e+2, -1052439.5, -1224658.3, 96766.04, 0.05862131, -0.3999602, -1009017.0, 156915.95, 0.0, 10.001566, 9.999237 
2.9055062e+3, 1.9102235e+2, -1005519.94, -1159065.9, 128753.48, 0.02576646, -0.37501946, -932387.75, 135555.78, 0.0, 10.001252, 9.999164 
2.9054162e+3, 2.0102131e+2, -936868.75, -1056479.3, 137666.97, 0.004077016, -0.35693374, -846577.8, 123376.38, 0.0, 10.00097, 9.999332 
2.9053268e+3, 2.1102002e+2, -835249.7, -935217.5, 136704.22, 0.01698926, -0.38916293, -739678.0, 132288.2, 0.0, 10.000905, 9.999521 
2.9052377e+3, 2.2101894e+2, -738915.7, -812517.9, 122938.14, 0.023147352, -0.4139924, -647388.7, 126587.516, 0.0, 10.000783, 9.999751 
2.905147e+3, 2.3101863e+2, -691659.2, -712432.75, 114195.74, -0.008751826, -0.39333338, -587378.8, 88600.23, 0.0, 10.00032, 9.999988 
2.905057e+3, 2.4101833e+2, -656406.4, -654997.1, 122911.64, -0.02877684, -0.376397, -532788.1, 45193.914, 0.0, 9.999937, 9.999893 
2.9049674e+3, 2.510176e+2, -537472.5, -546931.94, 116685.58, -0.000475989, -0.39368016, -425420.8, 54568.6, 0.0, 10.00008, 9.999893 
2.904877e+3, 2.6101705e+2, -428143.3, -402216.6, 126843.02, 0.023829425, -0.40277845, -287676.22, 94318.51, 0.0, 9.999982, 10.000258 
2.9047868e+3, 2.7101737e+2, -464316.8, -343864.72, 107213.97, 0.027594777, -0.37516937, -281119.2, 2872.3738, 0.0, 9.998947, 10.000485 
2.9046956e+3, 2.8101742e+2, -435776.13, -279999.16, 132687.89, 0.033037234, -0.37394512, -204028.31, -18037.59, 0.0, 9.998484, 10.000472 
2.904604e+3, 2.9101637e+2, -231701.75, -147039.05, 147727.69, -0.05124055, -0.47198042, -35697.32, 52302.86, 0.0, 9.99929, 10.000321 
2.9160514e+3, 1.3112184e+2, -1477768.3, -1630651.0, -13441.827, 0.07177224, -0.38930392, -1476595.4, 178372.97, 0.0, 10.001768, 9.999723 
2.915959e+3, 1.4112107e+2, -1376398.5, -1577489.6, 45338.117, 0.08331465, -0.3816046, -1366649.1, 190326.1, 0.0, 10.001988, 9.9993105 
2.9158682e+3, 1.5111971e+2, -1318465.5, -1535089.5, 104974.375, 0.07598461, -0.3831326, -1275942.8, 183047.0, 0.0, 10.001878, 9.998978 
2.9157782e+3, 1.6111828e+2, -1230329.5, -1423698.3, 82972.63, 0.088372126, -0.38354233, -1199607.6, 161396.8, 0.0, 10.001733, 9.999139 
2.9156876e+3, 1.7111723e+2, -1130464.3, -1307287.0, 89432.266, 0.06696079, -0.3717911, -1093119.1, 169895.77, 0.0, 10.001677, 9.9992895 
2.915597e+3, 1.8111625e+2, -1039351.75, -1197571.6, 89582.16, 0.037475497, -0.36065692, -998948.7, 166075.47, 0.0, 10.001566, 9.999423 
2.915507e+3, 1.9111533e+2, -976584.44, -1101449.3, 115892.04, 0.03322827, -0.3601512, -907378.06, 159654.27, 0.0, 10.001262, 9.999556 
2.9154173e+3, 2.0111431e+2, -931669.0, -1047249.25, 131050.08, 0.029177418, -0.37013918, -846232.7, 122809.0, 0.0, 10.000976, 9.999393 
2.9153273e+3, 2.1111277e+2, -844076.75, -953767.9, 134770.17, 0.007402358, -0.41908076, -753419.6, 117637.055, 0.0, 10.000904, 9.999395 
2.9152375e+3, 2.2111157e+2, -740072.75, -811392.8, 110519.41, -0.011065563, -0.44653344, -659602.75, 113465.47, 0.0, 10.000767, 9.999767 
2.9151472e+3, 2.3111185e+2, -681514.8, -691409.2, 95100.33, -0.0061009713, -0.37651294, -591233.06, 83832.73, 0.0, 10.00032, 10.000133 
2.915057e+3, 2.4111202e+2, -646018.3, -635780.3, 119934.95, 0.003155356, -0.32431868, -520855.2, 56209.117, 0.0, 9.999947, 10.00002 
2.914967e+3, 2.5111106e+2, -520217.06, -510765.75, 123618.305, 0.01645261, -0.38389888, -391782.8, 87290.6, 0.0, 10.000079, 10.00014 
2.9148766e+3, 2.6111042e+2, -408881.16, -367530.66, 100227.09, 0.011489821, -0.43166268, -285868.56, 95211.01, 0.0, 10.0, 10.00049 
2.9147846e+3, 2.711112e+2, -434069.63, -278691.6, 62375.45, -0.029289946, -0.39097172, -256749.89, 26321.898, 0.0, 9.998933, 10.000943 
2.914693e+3, 2.811119e+2, -441804.34, -285928.5, 168156.45, -0.026621249, -0.35121465, -178526.42, 6538.085, 0.0, 9.998461, 10.000443 
2.9146037e+3, 2.9111198e+2, -168779.17, -35468.684, 141348.06, 0.024060741, -0.3671938, 54152.098, 141217.03, 0.0, 9.999371, 10.001054 
2.9260525e+3, 1.3121419e+2, -1553198.9, -1650605.3, -4681.5493, 0.082880445, -0.39325398, -1552974.4, 101089.51, 0.0, 10.001181, 9.999869 
2.92596e+3, 1.4121367e+2, -1396579.1, -1579818.9, 22958.86, 0.06752944, -0.3724197, -1393746.4, 162321.75, 0.0, 10.001816, 9.999379 
2.9258695e+3, 1.5121232e+2, -1354265.4, -1549443.0, 77381.64, 0.06179015, -0.37477356, -1327309.0, 130773.26, 0.0, 10.001617, 9.999005 
2.925779e+3, 1.6121095e+2, -1277121.4, -1440919.6, 74273.72, 0.077864684, -0.37605616, -1248458.0, 111638.71, 0.0, 10.001386, 9.99919 
2.9256886e+3, 1.712099e+2, -1160767.6, -1314807.6, 95390.16, 0.053797826, -0.3700155, -1115185.1, 146921.88, 0.0, 10.001434, 9.999356 
2.925598e+3, 1.8120892e+2, -1051535.6, -1197257.4, 96367.87, 0.024115587, -0.36393705, -1003584.8, 160531.47, 0.0, 10.001449, 9.999484 
2.9255077e+3, 1.9120805e+2, -963642.0, -1086033.1, 101043.06, 0.03034044, -0.3670196, -906708.0, 159415.86, 0.0, 10.001308, 9.99964 
2.9254177e+3, 2.0120712e+2, -905298.1, -1025232.7, 104585.69, 0.035072267, -0.3763046, -844707.4, 123424.7, 0.0, 10.001114, 9.999478 
2.925328e+3, 2.1120584e+2, -860673.06, -952286.94, 119765.72, 0.0051466753, -0.4064944, -778253.25, 91891.36, 0.0, 10.000747, 9.999483 
2.9252374e+3, 2.2120482e+2, -784791.8, -828938.3, 107590.164, -0.018397493, -0.42390344, -697033.94, 75120.695, 0.0, 10.00044, 9.999805 
2.925147e+3, 2.3120481e+2, -662010.9, -677131.9, 85707.65, -0.004047596, -0.38737756, -583530.94, 90623.87, 0.0, 10.00043, 10.000179 
2.9250565e+3, 2.4120483e+2, -580971.8, -589799.56, 107257.98, 0.011934166, -0.356983, -478036.9, 98117.45, 0.0, 10.000325, 10.000156 
2.9249665e+3, 2.5120443e+2, -544611.56, -492192.03, 112026.57, 0.01567675, -0.3841621, -403350.06, 74808.195, 0.0, 9.999774, 10.000419 
2.9248756e+3, 2.6120418e+2, -504067.8, -415921.5, 81899.97, 0.0030649137, -0.40894347, -366989.03, 13171.365, 0.0, 9.999349, 10.000476 
2.9247832e+3, 2.7120456e+2, -319840.9, -227602.16, 9744.493, -0.049048334, -0.39903116, -226583.95, 55572.395, 0.0, 9.999726, 10.000916 
2.9246914e+3, 2.8120512e+2, -249703.77, -176411.08, 112654.625, -0.04385915, -0.38463756, -94592.16, 89558.805, 0.0, 9.999688, 10.000616 
2.9246026e+3, 2.912059e+2, -274101.88, -57447.15, 64744.38, 0.05685893, -0.35517812, -39573.668, 46570.25, 0.0, 9.998493, 10.001344 
2.9360536e+3, 1.3130632e+2, -1557004.5, -1660338.3, 24914.637, 0.11515621, -0.39962894, -1551311.1, 101850.4, 0.0, 10.001192, 9.999795 
2.9359612e+3, 1.4130597e+2, -1396561.9, -1571777.5, 29798.129, 0.02764875, -0.36009863, -1391632.9, 163531.77, 0.0, 10.001782, 9.99945 
2.9358703e+3, 1.5130486e+2, -1343824.9, -1525637.0, 65995.43, 0.026737578, -0.35528383, -1322395.3, 134781.05, 0.0, 10.001607, 9.999174 
2.9357797e+3, 1.6130367e+2, -1263019.3, -1412391.8, 72140.44, 0.05437078, -0.3540347, -1233867.8, 125320.63, 0.0, 10.001389, 9.999384 
2.9356894e+3, 1.713025e+2, -1147193.5, -1284800.9, 97011.77, 0.037780985, -0.3822179, -1097063.4, 164135.88, 0.0, 10.001426, 9.999567 
2.9355988e+3, 1.8130137e+2, -1057021.4, -1204148.8, 92405.55, 0.015394439, -0.4021672, -1012473.25, 150736.14, 0.0, 10.001429, 9.999447 
2.9355085e+3, 1.9130051e+2, -975859.94, -1110389.1, 95201.516, 0.01763135, -0.39084792, -926557.56, 138660.1, 0.0, 10.001302, 9.999477 
2.9354185e+3, 2.0129974e+2, -898553.7, -1008993.0, 94249.07, 0.020682493, -0.3771633, -844539.2, 122685.805, 0.0, 10.001104, 9.999595 
2.9353282e+3, 2.1129923e+2, -841005.56, -910759.0, 105199.61, 0.010525016, -0.35647509, -765052.06, 104178.24, 0.0, 10.000743, 9.99977 
2.935238e+3, 2.2129862e+2, -781542.1, -821310.06, 102778.81, -0.0019372539, -0.35416794, -696741.56, 74494.56, 0.0, 10.000435, 9.99986 
2.9351473e+3, 2.3129748e+2, -666499.06, -684270.75, 85946.08, -0.006706025, -0.4250657, -588980.7, 84265.26, 0.0, 10.000421, 10.000134 
2.9350564e+3, 2.4129678e+2, -571201.75, -569974.9, 93629.67, -0.0061348416, -0.46964127, -476956.66, 98295.266, 0.0, 10.000324, 10.000295 
2.9349658e+3, 2.5129768e+2, -522003.72, -447880.1, 89345.88, -0.0013034838, -0.3909973, -388214.13, 89029.586, 0.0, 9.999782, 10.000722 
2.934875e+3, 2.6129842e+2, -518357.53, -449900.6, 83369.36, -0.008986335, -0.32916775, -394006.72, -14769.922, 0.0, 9.999369, 10.000232 
2.9347828e+3, 2.712975e+2, -352901.03, -303876.6, 26487.664, -0.033171576, -0.39950827, -292299.4, -11054.092, 0.0, 9.999762, 10.000371 
2.9346913e+3, 2.8129685e+2, -203670.16, -109226.836, 69779.74, -0.02598969, -0.48083138, -72192.35, 111059.05, 0.0, 9.999799, 10.00103 
2.9346004e+3, 2.9129866e+2, -260265.05, -11446.502, 26194.61, 0.025905892, -0.40238935, -8718.743, 76513.95, 0.0, 9.99842, 10.001695 
2.9460543e+3, 1.3139842e+2, -1571098.6, -1655068.1, 19115.852, 0.11980676, -0.37442967, -1566951.6, 85308.3, 0.0, 10.001035, 9.999913 
2.9459623e+3, 1.4139792e+2, -1457660.9, -1578421.5, 23661.992, 0.013588025, -0.36376548, -1453190.0, 101073.86, 0.0, 10.001263, 9.999656 
2.9458714e+3, 1.5139705e+2, -1372190.1, -1514808.0, 50973.184, 0.02315846, -0.35735366, -1355845.1, 100427.72, 0.0, 10.001304, 9.999397 
2.945781e+3, 1.6139603e+2, -1275670.0, -1408307.8, 60040.01, 0.06252096, -0.35769403, -1252529.5, 105753.51, 0.0, 10.001254, 9.999479 
2.9456905e+3, 1.7139502e+2, -1182296.1, -1294399.9, 77348.72, 0.04996846, -0.37534758, -1142825.0, 117467.35, 0.0, 10.001149, 9.999637 
2.9456e+3, 1.8139404e+2, -1109900.9, -1218283.4, 69321.45, 0.024842853, -0.39072752, -1076102.6, 86198.72, 0.0, 10.001015, 9.999552 
2.9455093e+3, 1.9139315e+2, -1013809.7, -1117534.4, 87858.84, 0.015434578, -0.39184016, -963648.1, 100661.45, 0.0, 10.000987, 9.999583 
2.945419e+3, 2.0139243e+2, -915110.0, -1005616.75, 93699.93, 0.014316348, -0.38559544, -856307.94, 110008.61, 0.0, 10.000932, 9.999706 
2.9453287e+3, 2.1139205e+2, -847008.8, -901422.5, 89796.85, 0.016496977, -0.3616042, -780387.7, 87932.875, 0.0, 10.000641, 9.999887 
2.945238e+3, 2.213916e+2, -781545.0, -815412.2, 88577.914, 0.012437329, -0.352369, -708296.6, 62028.27, 0.0, 10.0004015, 9.999921 
2.9451472e+3, 2.3139058e+2, -672204.9, -682127.25, 81074.01, -0.0014173073, -0.4185705, -595940.4, 76393.125, 0.0, 10.00035, 10.000188 
2.9450563e+3, 2.4138986e+2, -586382.3, -575666.56, 82769.85, -0.0054498157, -0.4679517, -498081.34, 76258.016, 0.0, 10.000207, 10.000314 
2.9449654e+3, 2.5139064e+2, -505462.2, -438710.22, 54220.43, 0.006846696, -0.4034933, -408416.66, 67915.664, 0.0, 9.999884, 10.000739 
2.944874e+3, 2.6139143e+2, -471602.28, -418965.9, 59703.27, 0.0033771563, -0.34398973, -380037.44, -1712.4015, 0.0, 9.999649, 10.000315 
2.944782e+3, 2.7139065e+2, -338396.38, -295664.9, 59894.1, -0.026664473, -0.4058672, -253439.77, 26891.84, 0.0, 9.999844, 10.000398 
2.9446903e+3, 2.8138968e+2, -206639.83, -122703.98, 75995.19, -0.027814727, -0.5106249, -77858.445, 104481.836, 0.0, 9.999825, 10.000924 
2.9445985e+3, 2.913918e+2, -162301.67, 28449.84, -29572.596, 0.03764221, -0.37850544, 32929.344, 117248.2, 0.0, 9.999118, 10.001628 
2.9560548e+3, 1.3149051e+2, -1555857.0, -1616377.6, 29216.553, 0.10419063, -0.31867164, -1544054.4, 107304.08, 0.0, 10.001009, 10.00019 
2.955963e+3, 1.414897e+2, -1445912.8, -1540694.4, 29143.729, 0.015448152, -0.3701285, -1437668.6, 115696.016, 0.0, 10.001207, 9.999941 
2.9558724e+3, 1.5148902e+2, -1359522.1, -1480416.8, 48333.875, 0.04123381, -0.36953005, -1342574.0, 112796.85, 0.0, 10.001268, 9.999651 
2.955782e+3, 1.614881e+2, -1277048.5, -1406053.4, 55920.66, 0.09463857, -0.37624112, -1256183.0, 101196.82, 0.0, 10.001232, 9.999506 
2.9556915e+3, 1.7148747e+2, -1184685.9, -1298349.5, 72577.45, 0.08243936, -0.35341066, -1149336.8, 110049.66, 0.0, 10.001143, 9.999613 
2.9556006e+3, 1.8148682e+2, -1095597.4, -1187830.5, 65433.48, 0.044726647, -0.34256187, -1061662.3, 99730.586, 0.0, 10.001012, 9.999763 
2.95551e+3, 1.9148593e+2, -992667.3, -1070526.0, 87212.65, 0.021960804, -0.3755361, -936089.9, 127310.28, 0.0, 10.000973, 9.999912 
2.9554194e+3, 2.0148516e+2, -911060.75, -992174.8, 86265.305, 0.016823148, -0.39956492, -856294.25, 109112.46, 0.0, 10.000909, 9.99981 
2.9553288e+3, 2.1148439e+2, -850794.94, -908342.94, 76648.555, 0.020617764, -0.4128774, -797697.44, 69717.42, 0.0, 10.000635, 9.999844 
2.955238e+3, 2.2148387e+2, -777597.9, -805545.9, 83906.625, 0.018132003, -0.4095895, -706509.6, 62910.668, 0.0, 10.000394, 9.999992 
2.9551473e+3, 2.3148407e+2, -662053.44, -659802.3, 78545.68, 0.012380948, -0.36708862, -582374.1, 89043.44, 0.0, 10.000345, 10.000343 
2.9550564e+3, 2.4148406e+2, -589912.44, -585067.7, 71890.875, 0.013307217, -0.35615093, -515558.4, 57858.637, 0.0, 10.000214, 10.000247 
2.9549652e+3, 2.514833e+2, -522322.22, -473785.7, 41067.906, 0.03715241, -0.42509976, -450351.5, 25072.752, 0.0, 9.999883, 10.0005 
2.9548734e+3, 2.6148316e+2, -436949.03, -351005.16, 60198.707, 0.03693453, -0.45493856, -320014.47, 57410.508, 0.0, 9.999664, 10.000774 
2.9547814e+3, 2.7148414e+2, -286499.56, -193135.66, 76107.586, -0.0330354, -0.41367865, -150533.95, 128879.4, 0.0, 9.999866, 10.001092 
2.9546896e+3, 2.8148392e+2, -252337.42, -224201.63, 54241.844, -0.06632941, -0.4628807, -182233.08, -818.7493, 0.0, 9.999847, 10.000217 
2.9545978e+3, 2.914844e+2, -214304.03, -87133.945, -48650.13, 0.062492654, -0.38172016, -70657.18, 12755.2, 0.0, 9.999151, 10.000816 
2.9660553e+3, 1.31582e+2, -1586393.9, -1634337.1, 22547.854, 0.08783741, -0.33024284, -1577455.9, 73006.055, 0.0, 10.000813, 10.00016 
2.9659638e+3, 1.4158128e+2, -1527229.6, -1576227.0, 15995.841, 0.052416407, -0.3686929, -1522470.0, 29997.355, 0.0, 10.000629, 9.999979 
2.9658732e+3, 1.5158051e+2, -1415666.1, -1493019.4, 23754.02, 0.040459055, -0.38938347, -1408954.1, 45520.184, 0.0, 10.000817, 9.9997835 
2.9657823e+3, 1.615798e+2, -1311164.0, -1400283.8, 30870.371, 0.057932865, -0.39463788, -1301515.4, 54965.64, 0.0, 10.000898, 9.999709 
2.9656917e+3, 1.715793e+2, -1211001.1, -1297560.9, 55980.082, 0.043663237, -0.37401652, -1183521.4, 74964.875, 0.0, 10.000899, 9.99974 
2.9656008e+3, 1.8157881e+2, -1110799.1, -1182025.4, 50902.367, 0.022733226, -0.35849917, -1084288.6, 76202.5, 0.0, 10.00084, 9.99989 
2.9655105e+3, 1.9157824e+2, -1017909.7, -1062302.8, 63287.176, 0.025699269, -0.37786332, -973039.44, 89455.99, 0.0, 10.000707, 10.0001 
2.96542e+3, 2.0157759e+2, -955125.9, -1013713.7, 50509.83, 0.028031433, -0.39901024, -926029.94, 38470.73, 0.0, 10.000606, 9.999809 
2.965329e+3, 2.1157686e+2, -858434.75, -913412.25, 39541.785, 0.014450282, -0.4084945, -837765.56, 28743.162, 0.0, 10.000585, 9.999836 
2.965238e+3, 2.2157641e+2, -749357.56, -778583.6, 53168.316, 0.007170855, -0.40394238, -708830.7, 59683.098, 0.0, 10.000524, 10.000118 
2.9651472e+3, 2.315767e+2, -667065.7, -648195.4, 46666.586, 0.019593952, -0.3687032, -610019.7, 60490.402, 0.0, 10.00024, 10.000479 
2.9650563e+3, 2.4157679e+2, -616865.44, -597130.2, 43046.94, 0.030177625, -0.35678136, -562834.4, 9673.972, 0.0, 10.000013, 10.000268 
2.9649645e+3, 2.5157604e+2, -485782.75, -475930.06, 21914.867, 0.036972016, -0.4162822, -458394.66, 16121.401, 0.0, 10.000204, 10.000339 
2.964873e+3, 2.6157585e+2, -343830.06, -292476.3, 32017.48, 0.0362325, -0.44559398, -277111.5, 99406.08, 0.0, 10.000235, 10.000908 
2.9647812e+3, 2.71577e+2, -321514.06, -190720.19, 11323.713, 0.005386412, -0.4077888, -189747.06, 88756.516, 0.0, 9.99954, 10.001267 
2.9646888e+3, 2.8157687e+2, -349909.8, -273643.4, -14115.026, -0.025195125, -0.46198604, -271114.9, -90611.73, 0.0, 9.999191, 10.0002 
2.9645965e+3, 2.915767e+2, -74060.9, -26390.125, -24627.8, 0.011636116, -0.42416975, -15952.284, 66554.62, 0.0, 10.000162, 10.00075 
2.9760554e+3, 1.316727e+2, -1599661.3, -1672367.1, -2829.5247, 0.07247999, -0.4183543, -1599551.4, 50021.01, 0.0, 10.000859, 9.999875 
2.9759648e+3, 1.416724e+2, -1547483.0, -1598382.1, 18343.133, 0.11474857, -0.38801047, -1541561.4, 10013.202, 0.0, 10.000545, 9.9998665 
2.9758734e+3, 1.5167144e+2, -1417486.1, -1486689.3, 26902.41, 0.024811512, -0.4320753, -1408258.4, 45325.254, 0.0, 10.000774, 9.999847 
2.975782e+3, 1.616711e+2, -1290579.9, -1351636.1, 30526.188, -0.03418954, -0.42060944, -1277936.0, 77650.516, 0.0, 10.000874, 10.000054 
2.9756913e+3, 1.7167062e+2, -1198136.5, -1264830.1, 53712.2, -0.049790625, -0.4287002, -1168261.4, 89329.77, 0.0, 10.000874, 9.999976 
2.975601e+3, 1.8167023e+2, -1110342.5, -1176049.3, 44704.59, -0.02865462, -0.41951337, -1087717.5, 71877.055, 0.0, 10.000818, 9.999941 
2.9755107e+3, 1.9167012e+2, -1013685.7, -1054496.4, 56457.965, 0.024942834, -0.39493784, -974058.7, 87536.15, 0.0, 10.0007105, 10.000152 
2.97542e+3, 2.0166968e+2, -959549.44, -1025569.6, 47153.69, 0.038163386, -0.3921999, -934999.7, 28599.205, 0.0, 10.000617, 9.9997225 
2.975329e+3, 2.1166939e+2, -854825.6, -904857.3, 38221.38, -0.0007507216, -0.35911313, -834161.44, 31441.414, 0.0, 10.000579, 9.999897 
2.9752377e+3, 2.2166912e+2, -738511.44, -751808.06, 46739.355, -0.015070597, -0.34596932, -697949.94, 69655.89, 0.0, 10.0005045, 10.000312 
2.975147e+3, 2.316685e+2, -658773.7, -630232.25, 35290.21, 0.019951137, -0.4197751, -606436.56, 63173.754, 0.0, 10.000236, 10.000605 
2.975056e+3, 2.4166822e+2, -611500.1, -584892.8, 42929.133, 0.039546497, -0.4580732, -553253.2, 18358.623, 0.0, 10.000009, 10.000355 
2.974964e+3, 2.516689e+2, -491778.1, -490764.22, 32451.582, 0.0038551083, -0.3689323, -458815.6, 14791.325, 0.0, 10.000215, 10.000232 
2.9748723e+3, 2.616695e+2, -355399.72, -319342.88, 13924.322, -0.001894517, -0.30929813, -314591.7, 61010.81, 0.0, 10.000247, 10.000718 
2.974781e+3, 2.7166915e+2, -347155.44, -240659.69, -16472.494, 0.090647034, -0.3921817, -238169.97, 39433.227, 0.0, 9.999526, 10.000932 
2.974689e+3, 2.816685e+2, -294512.97, -152594.25, 436.75394, 0.09614924, -0.5082788, -152592.9, 27014.158, 0.0, 9.999181, 10.001034 
2.974595e+3, 2.9166916e+2, -23352.172, 72521.0, 30838.563, -0.09818873, -0.4980163, 81583.83, 163182.44, 0.0, 10.00022, 10.0013895 
2.986056e+3, 1.3176528e+2, -1442103.3, -1606509.0, -89596.055, 0.022555152, -0.27541545, -1402713.5, 245951.19, 0.0, 10.001987, 9.999785 
2.985964e+3, 1.417643e+2, -1674717.9, -1628833.4, 5011.1255, 0.07854273, -0.31904235, -1628292.5, -77618.14, 0.0, 9.999549, 10.0001335 
2.9858735e+3, 1.5176441e+2, -1601635.5, -1553361.3, 39656.91, 0.09292367, -0.28062567, -1531073.5, -78400.52, 0.0, 9.999424, 10.000037 
2.9857835e+3, 1.6176364e+2, -1536408.6, -1482000.3, 27360.506, 0.1462056, -0.31426835, -1470621.3, -115941.14, 0.0, 9.999247, 9.999939 
2.9856932e+3, 1.7176309e+2, -1372336.6, -1342540.3, 34307.227, 0.1560658, -0.3266286, -1320036.0, -63350.664, 0.0, 9.99966, 10.000024 
2.985602e+3, 1.817624e+2, -1209332.9, -1216649.0, 18273.877, 0.10316773, -0.35721284, -1194354.5, -35662.6, 0.0, 10.000119, 9.999994 
2.985511e+3, 1.9176164e+2, -1059356.9, -1084442.9, 21206.014, 0.042781517, -0.3931895, -1047262.0, 13436.576, 0.0, 10.000433, 10.00008 
2.9854205e+3, 2.0176138e+2, -929933.25, -981860.44, 20056.146, 0.033113807, -0.38137084, -923089.0, 39611.793, 0.0, 10.0006895, 9.999992 
2.9853296e+3, 2.1176133e+2, -850893.56, -878109.56, 19653.094, 0.047897916, -0.35094047, -840597.1, 24104.98, 0.0, 10.000494, 10.000125 
2.9852384e+3, 2.217612e+2, -788288.9, -768032.5, 26967.62, 0.049505398, -0.34099182, -749353.9, 17349.742, 0.0, 10.000126, 10.000385 
2.9851472e+3, 2.317608e+2, -659629.4, -622379.25, 16055.734, 0.059209093, -0.3976849, -616414.06, 52292.223, 0.0, 10.000195, 10.00068 
2.9850557e+3, 2.4176064e+2, -550260.94, -548442.5, 20890.596, 0.049816873, -0.43124795, -528441.4, 42265.816, 0.0, 10.000399, 10.000417 
2.9849637e+3, 2.5176126e+2, -491383.38, -481899.38, 19737.197, -0.014129546, -0.3584921, -466342.53, 6360.15, 0.0, 10.000179, 10.00031 
2.984872e+3, 2.6176175e+2, -395668.7, -345162.78, 6499.02, -0.02302276, -0.30919954, -344339.9, 30359.059, 0.0, 9.9999895, 10.00067 
2.9847807e+3, 2.7176142e+2, -277939.94, -226792.61, -15313.459, 0.13057707, -0.38139912, -222558.31, 54142.504, 0.0, 10.000069, 10.000776 
2.9846886e+3, 2.8176123e+2, -139185.13, -74496.89, 12435.92, 0.13745141, -0.44602442, -72188.54, 106512.65, 0.0, 10.000224, 10.001093 
2.984594e+3, 2.9176152e+2, -15156.971, 3815.3145, -23838.066, -0.17567706, -0.45853555, 19985.365, 100681.91, 0.0, 10.000523, 10.000847 
2.996058e+3, 1.3185531e+2, -1633626.3, -1708814.9, 71951.67, 0.06441272, -0.40384516, -1590039.5, 57742.156, 0.0, 10.0007, 9.999712 
2.9959634e+3, 1.4185502e+2, -1694505.6, -1603424.4, 74706.08, 0.098862916, -0.39330903, -1561472.5, -11686.742, 0.0, 9.999243, 10.000466 
2.9958722e+3, 1.5185535e+2, -1296677.4, -1402811.3, -23114.07, 0.053521674, -0.3465112, -1291862.0, 159920.19, 0.0, 10.001472, 10.000097 
2.9957807e+3, 1.6185407e+2, -1146007.6, -1351936.5, -50538.066, 0.007983095, -0.40707996, -1134273.4, 219520.94, 0.0, 10.00215, 9.999447 
2.9956907e+3, 1.7185321e+2, -1122185.4, -1240630.0, -2046.5465, -0.012891093, -0.42415446, -1122150.0, 133653.17, 0.0, 10.00143, 9.999884 
2.995601e+3, 1.8185398e+2, -1087879.5, -1157263.8, -29013.145, 0.031927828, -0.30784672, -1077346.5, 80449.37, 0.0, 10.00092, 10.0000305 
2.995511e+3, 1.9185296e+2, -964002.0, -1056358.0, 5253.9673, 0.029454991, -0.3651635, -963704.06, 96100.89, 0.0, 10.00114, 9.999944 
2.9954204e+3, 2.0185292e+2, -896041.06, -909607.3, 513.6358, 0.0025235608, -0.35486504, -896021.7, 65782.81, 0.0, 10.000665, 10.000507 
2.9953295e+3, 2.1185236e+2, -931000.25, -879108.0, -5663.5894, 0.055187304, -0.41785896, -878497.06, -14687.342, 0.0, 9.999773, 10.000468 
2.9952377e+3, 2.2185208e+2, -826856.1, -794155.7, -7683.716, 0.020508196, -0.43854856, -792440.2, -26627.947, 0.0, 9.999889, 10.000321 
2.9951468e+3, 2.318532e+2, -673049.25, -624998.5, -24174.969, 0.030007683, -0.3420841, -614940.94, 52861.055, 0.0, 10.000082, 10.000716 
2.9950556e+3, 2.4185371e+2, -528303.3, -528352.5, -3673.5088, 0.037836835, -0.30893686, -524654.3, 45142.953, 0.0, 10.000509, 10.0005 
2.9949635e+3, 2.5185302e+2, -460496.94, -431536.63, 8155.8633, -0.018925736, -0.39445046, -429397.72, 42405.668, 0.0, 10.000241, 10.000621 
2.9948714e+3, 2.618527e+2, -386034.16, -331979.13, 7580.5986, -0.024415238, -0.44953224, -330936.16, 42870.03, 0.0, 10.00001, 10.000755 
2.9947802e+3, 2.718539e+2, -272693.4, -231480.73, -5452.2896, 0.11327428, -0.36986515, -230771.61, 45023.797, 0.0, 10.000117, 10.0007305 
2.994688e+3, 2.8185505e+2, -208414.28, -198481.97, 18559.707, 0.06940872, -0.2718083, -184235.48, -6449.88, 0.0, 10.000185, 10.0002365 
2.9945934e+3, 2.9185504e+2, -141232.66, -203585.05, 812.7674, -0.23110466, -0.1980721, -141222.06, -61432.336, 0.0, 10.000358, 9.999469 
