coord_x,coord_y,stress_xx,stress_yy,tau_xy,velocity_x,velocity_y,stress_1,eps,damage,lx,ly
4.9992356e+0, 1.2662877e+2, -1778034.6, -1474932.9, 12320.101, 0.0040905545, 0.35822028, -1474432.9, 224626.48, 0.002661235, 9.998329, 10.002451 
4.99893e+0, 1.3662793e+2, -1641872.0, -1515096.5, -7630.1455, -0.07354574, 0.09222495, -1514638.9, 86415.336, 0.0015827751, 9.999296, 10.001026 
4.999171e+0, 1.4662819e+2, -1675641.8, -1690847.8, 7027.1987, -0.04980361, 0.13113059, -1672891.6, -169839.53, 0.0007101352, 9.999308, 9.999136 
4.9997488e+0, 1.5662627e+2, -1621404.1, -1552389.0, 65479.617, 0.036175594, -0.01024839, -1512880.6, -107801.89, 0.00020845665, 9.998742, 9.999686 
4.999703e+0, 1.6662794e+2, -1342393.6, -1076349.3, 78210.82, 0.03245315, 0.03948732, -1055060.6, 251999.77, 0.000030560015, 9.99873, 10.00229 
4.999326e+0, 1.7663138e+2, -1209575.4, -970876.06, 28872.873, -0.019327974, 0.12872936, -967433.25, 241586.34, 0.0000010193884, 9.99901, 10.002205 
4.9995223e+0, 1.8663317e+2, -1124984.4, -923503.8, -15552.712, -0.0052920613, 0.11098914, -922310.3, 188684.72, 0.0, 9.999117, 10.001804 
5.000011e+0, 1.9663392e+2, -1059416.0, -895937.56, -58229.24, 0.043263562, -0.011641597, -877317.7, 135663.08, 0.0, 9.999127, 10.001318 
5.000127e+0, 2.0663285e+2, -1036139.5, -1081469.4, -44554.016, 0.027106455, -0.12000891, -1008816.8, -93828.56, 0.0, 9.999683, 9.999101 
5.0000286e+0, 2.1663068e+2, -814165.25, -923646.2, -36966.734, -0.025289359, -0.27219304, -802852.25, 14156.327, 0.0, 10.000533, 9.999103 
5.000119e+0, 2.2663045e+2, -676810.06, -805998.7, -34142.65, -0.02984145, -0.20534648, -668341.75, 50671.242, 0.0, 10.000805, 9.9991045 
5.0003123e+0, 2.3663113e+2, -586461.75, -716043.6, -25649.629, -0.008735017, -0.07354445, -581569.4, 39440.76, 0.0, 10.000769, 9.999068 
5.000479e+0, 2.4663128e+2, -454896.2, -599967.5, -5305.431, -0.0026412427, 0.036959074, -454702.4, 68307.836, 0.0, 10.000986, 9.99909 
5.000656e+0, 2.5663102e+2, -317382.5, -508359.0, -2038.3596, -0.004102045, 0.07839268, -317360.75, 107653.15, 0.0, 10.001367, 9.998864 
5.000905e+0, 2.6662996e+2, -239770.92, -516385.97, -4661.258, 0.0070406683, 0.14276317, -239692.4, 87336.516, 0.000000019594776, 10.001644, 9.997999 
5.001179e+0, 2.7662858e+2, -106671.06, -396421.0, -21314.768, 0.023177896, 0.17705296, -105111.484, 123938.36, 0.00000068486895, 10.0018635, 9.998043 
5.001338e+0, 2.866267e+2, 62604.805, -249812.81, -5954.9976, 0.017650602, 0.17565249, 62718.273, 193787.67, 0.0000056407102, 10.002295, 9.998167 
5.00142e+0, 2.96624e+2, 255586.7, -83789.89, 7548.979, -0.0018097135, 0.062751636, 255754.53, 288848.16, 0.00003698917, 10.002844, 9.998372 
5.001501e+0, 3.0662557e+2, 351112.88, 93038.95, -19603.516, 0.013000629, 0.32655883, 352593.5, 352593.5, 0.00018828975, 10.002709, 9.999318 
5.001516e+0, 3.1661952e+2, 126993.836, -243735.7, -55023.098, 0.041890316, -0.20540567, 134987.9, 134987.9, 0.00054298056, 10.002122, 9.997295 
1.4997664e+1, 1.2662515e+2, -1809285.1, -1511222.1, 33354.9, 0.009774257, 0.018067425, -1507535.1, 191552.67, 0.0025654268, 9.998223, 10.002259 
1.4996792e+1, 1.3662708e+2, -1640816.4, -1501715.5, 23214.426, -0.22146901, 0.06466067, -1497943.5, 103120.945, 0.001528762, 9.999261, 10.001142 
1.4997521e+1, 1.4662986e+2, -1565387.1, -1445415.1, -18494.725, -0.14665076, 0.25312877, -1442628.8, 60408.867, 0.0006838554, 9.999243, 10.000859 
1.4999239e+1, 1.5663053e+2, -1540992.5, -1370296.6, 54179.496, 0.10770936, 0.2173564, -1354552.1, 50482.094, 0.00019662829, 9.998685, 10.000968 
1.4999133e+1, 1.6663054e+2, -1430684.5, -1243824.3, 84154.43, 0.100467116, 0.10943687, -1211511.9, 95518.92, 0.00002664921, 9.998667, 10.001179 
1.4998002e+1, 1.7663012e+2, -1294101.9, -1134988.8, 41776.55, -0.056229934, -0.060536224, -1124686.9, 84341.445, 0.00000066228677, 9.998963, 10.001109 
1.4998543e+1, 1.8663111e+2, -1212671.4, -1083167.4, -18875.018, -0.017095901, -0.05053394, -1080472.5, 30543.285, 0.0, 9.999033, 10.00075 
1.5000033e+1, 1.966328e+2, -1126766.8, -1016963.4, -47312.13, 0.1303174, 0.032769334, -999390.0, 13608.609, 0.0, 9.999054, 10.000526 
1.5000376e+1, 2.066328e+2, -1016836.9, -1020953.75, -15245.18, 0.08099048, 0.036571067, -1003511.8, -88514.57, 0.0, 9.999606, 9.999557 
1.500008e+1, 2.1663181e+2, -798422.44, -868170.56, -4507.1084, -0.07600719, -0.027293578, -798132.4, 18872.506, 0.0, 10.000444, 9.999529 
1.5000339e+1, 2.2663142e+2, -665212.06, -756586.0, -40179.35, -0.08995152, -0.016271671, -650057.6, 68950.984, 0.0, 10.000711, 9.999491 
1.5000911e+1, 2.366313e+2, -574123.0, -665648.2, -19651.44, -0.027033355, 0.010451545, -570082.0, 50928.67, 0.0, 10.000677, 9.999461 
1.5001446e+1, 2.4663019e+2, -448599.94, -571067.44, 4890.4536, -0.0073849084, -0.03824776, -448404.97, 74615.16, 0.0, 10.000923, 9.999325 
1.5001966e+1, 2.5662845e+2, -317192.7, -484595.25, 15634.347, -0.012361267, -0.15580237, -315745.06, 109289.52, 0.0, 10.00127, 9.999079 
1.5002719e+1, 2.666271e+2, -270410.2, -563312.8, -1288.6842, 0.020715388, -0.11707081, -270404.5, 56647.688, 0.0000000045160005, 10.00158, 9.997711 
1.5003549e+1, 2.7662602e+2, -132417.84, -430767.88, -8503.543, 0.07039761, -0.009398475, -132175.67, 96895.836, 0.0000004592844, 10.001786, 9.99785 
1.5003996e+1, 2.8662482e+2, 92422.48, -170863.81, 11312.263, 0.05156063, 0.033094563, 92907.625, 223992.69, 0.00000436483, 10.00223, 9.998744 
1.5004264e+1, 2.9662317e+2, 272206.8, -27869.73, 28800.809, -0.005779198, -0.019843128, 274946.06, 308045.1, 0.000032381515, 10.002754, 9.998805 
1.5004496e+1, 3.0662465e+2, 288088.06, -16165.765, -43640.695, 0.03858579, 0.25642014, 294223.94, 294223.94, 0.00017490126, 10.00264, 9.998604 
1.5004522e+1, 3.166188e+2, 78102.875, -304159.1, -60993.156, 0.1242135, -0.1661035, 87598.95, 87598.95, 0.00051276234, 10.001966, 9.99696 
2.4995536e+1, 1.2662508e+2, -1761459.0, -1586021.1, 134650.05, -0.059309065, -0.07402641, -1513037.8, 186043.33, 0.0024531346, 9.998986, 10.001367 
2.499599e+1, 1.3662672e+2, -1838501.6, -1670916.3, 62620.01, -0.17312819, 0.03200036, -1650102.6, -49035.184, 0.001461298, 9.998231, 10.000477 
2.4996507e+1, 1.4663008e+2, -1634676.5, -1380010.8, -26936.549, -0.12416999, 0.2539295, -1377192.8, 125843.086, 0.0006489441, 9.998349, 10.001728 
2.4997315e+1, 1.5663199e+2, -1464306.8, -1263806.1, -20305.762, 0.038184173, 0.253855, -1261770.3, 143247.2, 0.0001814002, 9.998916, 10.001581 
2.4997763e+1, 1.6663194e+2, -1364481.6, -1254213.8, 45377.465, 0.06717496, 0.13727094, -1237941.4, 69072.7, 0.000022322774, 9.999317, 10.00078 
2.4997993e+1, 1.7663074e+2, -1240149.0, -1161092.9, 51660.793, 0.018394953, -0.07399613, -1135572.5, 73447.09, 0.00000035252413, 9.999577, 10.00062 
2.4998371e+1, 1.8663093e+2, -1139487.6, -1153812.6, 27495.605, 0.01743224, -0.06839004, -1118236.9, -7219.683, 0.0, 9.999986, 9.999804 
2.4998915e+1, 1.9663185e+2, -972710.6, -1017650.3, 5215.5635, 0.04660131, 0.02562082, -972113.25, 40897.844, 0.0, 10.000436, 9.999848 
2.4999876e+1, 2.0663229e+2, -842836.5, -873870.2, 64711.914, 0.026547315, 0.06856768, -791807.06, 123198.164, 0.0, 10.000527, 10.000121 
2.5001022e+1, 2.1663234e+2, -777764.5, -810719.6, 77518.82, -0.02018361, 0.048755646, -714991.3, 102009.3, 0.0, 10.000381, 9.999951 
2.5001422e+1, 2.2663178e+2, -740573.56, -819465.2, 19530.184, -0.029450456, 0.037575066, -736003.44, -16997.986, 0.0, 10.000288, 9.999265 
2.5001442e+1, 2.3663083e+2, -654285.4, -728628.6, -5277.5503, -0.016041297, -0.000032076747, -653912.56, -32896.723, 0.0, 10.000215, 9.999251 
2.500227e+1, 2.466295e+2, -520761.56, -602227.4, 20165.902, 0.0105262445, -0.062542155, -516043.03, 6984.6885, 0.0, 10.000415, 9.999349 
2.5003526e+1, 2.5662786e+2, -381862.38, -505500.9, 8458.079, 0.043816246, -0.17618966, -381286.44, 43754.94, 0.0, 10.000783, 9.999162 
2.500449e+1, 2.666268e+2, -308147.78, -527809.0, 32759.488, 0.06660217, -0.14160389, -303366.22, 23688.457, 0.00000000030772893, 10.001099, 9.998181 
2.500531e+1, 2.7662605e+2, -160845.03, -404518.44, 80654.85, 0.088572316, -0.048194177, -136567.44, 92500.29, 0.000000332103, 10.001428, 9.998197 
2.5006372e+1, 2.8662482e+2, 50149.92, -223282.66, 107193.586, 0.07691184, -0.006850163, 87162.76, 218245.05, 0.000003312623, 10.002071, 9.998462 
2.5007558e+1, 2.9662302e+2, 266662.22, -55498.242, 49053.09, 0.04778661, -0.05223516, 273965.63, 307066.2, 0.000027299557, 10.00283, 9.998577 
2.50078e+1, 3.0662414e+2, 343782.66, 4415.4956, -29370.66, 0.08790264, 0.20019548, 346305.78, 346305.78, 0.00015832737, 10.003054, 9.99855 
2.500722e+1, 3.1661963e+2, 258610.72, -166383.19, -7372.5596, 0.15306807, -0.08794332, 258738.58, 258738.58, 0.0004751241, 10.003001, 9.997403 
3.4992763e+1, 1.2662849e+2, -1885236.4, -1824587.3, 86950.13, -0.26139662, 0.055438407, -1762825.5, -63785.902, 0.0023328552, 9.9989195, 9.999758 
3.4996396e+1, 1.3662687e+2, -1926999.5, -1852043.9, 46792.63, 0.0286915, -0.0032795859, -1829570.6, -228507.08, 0.001385082, 9.998235, 9.999227 
3.4995994e+1, 1.4662877e+2, -1633528.5, -1370834.9, -10324.76, -0.02662902, 0.11930154, -1370429.8, 132617.81, 0.00060841354, 9.998318, 10.001807 
3.499382e+1, 1.5663068e+2, -1456624.1, -1242968.3, 5184.4014, -0.21924011, 0.109897934, -1242842.5, 162185.72, 0.00016439817, 9.9989, 10.001729 
3.4995487e+1, 1.6663215e+2, -1340438.9, -1198474.0, 50618.81, -0.10719099, 0.1151321, -1182274.0, 124735.805, 0.000017966355, 9.9992895, 10.00118 
3.4999162e+1, 1.7663312e+2, -1227439.6, -1131741.0, 67198.51, 0.16336317, 0.08579086, -1097096.8, 111897.61, 0.00000014192928, 9.999563, 10.000831 
3.4998894e+1, 1.8663251e+2, -1196147.8, -1260649.5, 41011.35, 0.057759915, 0.04316654, -1176225.4, -65224.617, 0.0, 9.999942, 9.999091 
3.4996518e+1, 1.9663104e+2, -1012461.4, -1089283.8, 23562.732, -0.25052932, -0.028098648, -1005810.1, 7208.732, 0.0, 10.000388, 9.999382 
3.4998494e+1, 2.0663124e+2, -797004.44, -760972.56, 53298.855, -0.17515056, -0.034847144, -722727.1, 192286.11, 0.0, 10.000456, 10.000931 
3.5002732e+1, 2.166322e+2, -746994.2, -729769.44, 77412.68, 0.100489676, -0.040850952, -660491.56, 156504.89, 0.0, 10.000313, 10.00054 
3.5003266e+1, 2.2663143e+2, -801277.2, -926069.7, 12146.342, 0.11361991, -0.05634786, -800105.94, -81101.68, 0.0, 10.00021, 9.99857 
3.5001773e+1, 2.3662975e+2, -707298.94, -819178.25, -237.37859, -0.016351359, -0.09316956, -707298.44, -86273.33, 0.0, 10.000136, 9.998667 
3.5002843e+1, 2.4662927e+2, -537453.7, -625990.0, 29151.254, 0.013365324, -0.039338622, -528717.44, -5684.7974, 0.0, 10.000367, 9.999209 
3.5005242e+1, 2.566293e+2, -385976.44, -496207.8, 25659.482, 0.12369583, 0.02860387, -380296.2, 44737.895, 0.0, 10.0007105, 9.99926 
3.5006166e+1, 2.6662907e+2, -218538.78, -338154.06, 39884.04, 0.11178682, 0.06487418, -206459.77, 120576.29, 0.00000000006499392, 10.001078, 9.999496 
3.5006306e+1, 2.7662864e+2, -101183.02, -268404.34, 101102.44, 0.031277202, 0.06335988, -53597.47, 175441.17, 0.0000002836276, 10.001371, 9.999161 
3.500832e+1, 2.8662664e+2, -31691.242, -378546.9, 130945.58, 0.05261522, 0.04935438, 12191.665, 143253.14, 0.000002745044, 10.002019, 9.997417 
3.5011178e+1, 2.9662347e+2, 201155.89, -173588.88, 77811.05, 0.113856405, -0.028452864, 216670.1, 249768.61, 0.000022379118, 10.00276, 9.997797 
3.5011283e+1, 3.0662388e+2, 392654.0, 106977.47, -35181.414, 0.11867824, 0.14294787, 396922.84, 396922.84, 0.00013928866, 10.00304, 9.999265 
3.500941e+1, 3.1662205e+2, 342394.34, 11412.979, 6276.3115, 0.0453171, 0.048282526, 342513.3, 342513.3, 0.00043208257, 10.002972, 9.998644 
4.4991508e+1, 1.2662946e+2, -1840223.6, -1754457.9, -40869.363, -0.2711335, 0.090815626, -1738101.8, -39073.242, 0.0022111118, 9.999033, 10.000183 
4.499486e+1, 1.3662748e+2, -1925666.4, -1826998.4, 53922.95, 0.06404407, -0.041338842, -1803246.6, -202194.34, 0.0013064536, 9.998145, 9.999446 
4.4994393e+1, 1.466283e+2, -1678472.1, -1471340.4, 67606.234, -0.0130186, 0.008410363, -1451227.3, 51818.566, 0.00056747237, 9.998349, 10.001109 
4.499243e+1, 1.5662937e+2, -1468730.1, -1318532.9, 6024.558, -0.25308925, -0.014365831, -1318291.6, 86744.41, 0.00014805637, 9.999108, 10.0011215 
4.4994572e+1, 1.6663112e+2, -1353168.3, -1204137.1, 1007.78656, -0.117709704, 0.045704532, -1204130.4, 102886.336, 0.000013959289, 9.999202, 10.001185 
4.4998866e+1, 1.7663297e+2, -1311273.5, -1169017.6, -18894.76, 0.21149151, 0.103099585, -1166550.8, 42444.418, 0.000000037538413, 9.998968, 10.000867 
4.4998914e+1, 1.8663244e+2, -1307608.0, -1296900.6, 8895.791, 0.11191669, 0.060157944, -1291871.8, -180871.45, 0.0, 9.999101, 9.999253 
4.4996655e+1, 1.9663073e+2, -1153524.6, -1144838.1, 45240.555, -0.21968012, -0.05039327, -1103732.8, -90713.72, 0.0, 9.999371, 9.999492 
4.499855e+1, 2.0663072e+2, -955767.25, -854012.9, 47290.246, -0.15888776, -0.07602295, -835428.9, 79587.39, 0.0, 9.999435, 10.000783 
4.5002696e+1, 2.1663146e+2, -888356.3, -810688.7, -2636.2163, 0.11687963, -0.090116434, -810599.3, 6404.0986, 0.0, 9.9993925, 10.00043 
4.5003715e+1, 2.2663082e+2, -760917.44, -893327.0, -15603.739, 0.13122877, -0.09286162, -759103.44, -40093.19, 0.0, 10.000441, 9.998681 
4.5003015e+1, 2.3662946e+2, -419394.7, -669514.56, 16001.787, 0.001487424, -0.10897487, -418375.1, 202652.81, 0.0, 10.002072, 9.998761 
4.5003983e+1, 2.4662939e+2, -306416.97, -507200.75, 48689.004, 0.01707373, -0.020675559, -295233.1, 227798.92, 0.0, 10.001933, 9.999268 
4.500585e+1, 2.5662988e+2, -353189.9, -470963.3, 58243.125, 0.10825334, 0.08797634, -329252.06, 95778.0, 0.0, 10.000895, 9.999348 
4.5007402e+1, 2.6662976e+2, -148545.72, -258546.94, 77842.96, 0.1167506, 0.10918651, -108233.19, 218796.53, 0.00000000016705606, 10.001364, 9.999906 
4.5008808e+1, 2.766293e+2, 107381.88, -136786.33, 55354.508, 0.08406818, 0.066518545, 119344.98, 348375.28, 0.00000025698242, 10.002669, 9.999445 
4.5010749e+1, 2.8662738e+2, -26524.797, -409007.0, 71323.75, 0.08913262, 0.06651397, -13657.503, 117395.414, 0.0000023157831, 10.002202, 9.99712 
4.501284e+1, 2.966244e+2, -94779.555, -345745.7, 69817.9, 0.10460075, 0.03724973, -76664.086, -43573.695, 0.000017842196, 10.000856, 9.997534 
4.5013443e+1, 3.0662367e+2, 173625.0, 4852.2285, -8423.153, 0.11155807, 0.10474724, 174044.34, 174044.34, 0.0001190779, 10.001517, 9.9993 
4.5012805e+1, 3.166227e+2, 407453.84, 103619.69, -32184.75, 0.08540318, 0.0931964, 410825.7, 410825.7, 0.00038609168, 10.003161, 9.999188 
5.4991174e+1, 1.2662818e+2, -1659229.9, -1409284.1, -92547.31, -0.24845356, 0.048267882, -1378747.4, 320298.8, 0.0020867882, 9.999142, 10.002509 
5.499113e+1, 1.3662861e+2, -1796414.4, -1576050.4, 34912.332, -0.14478125, -0.07436706, -1570651.5, 30381.219, 0.0012253985, 9.998211, 10.001137 
5.499154e+1, 1.4662878e+2, -1780976.8, -1693767.5, 92610.51, -0.15447266, -0.07306139, -1635009.6, -131979.55, 0.00052635156, 9.998388, 9.999564 
5.499289e+1, 1.5662807e+2, -1559820.9, -1513201.6, 34359.586, -0.13669278, -0.119043045, -1494991.1, -89950.51, 0.00013276051, 9.999136, 9.999771 
5.4994756e+1, 1.666289e+2, -1382740.6, -1266019.8, -13996.293, -0.035783067, -0.07039993, -1264364.9, 42669.457, 0.0000106646075, 9.999203, 10.000761 
5.499691e+1, 1.7663026e+2, -1324976.3, -1195411.5, -20667.078, 0.10364732, -0.01990486, -1192194.8, 16827.154, 0.000000007551507, 9.998962, 10.000688 
5.4998255e+1, 1.8663082e+2, -1236225.6, -1144049.0, 14220.524, 0.12261037, -0.011548834, -1141905.0, -30889.625, 0.0, 9.99908, 10.000313 
5.4999113e+1, 1.9663094e+2, -1106486.6, -1042103.56, 56987.15, 0.07368278, -0.041859936, -1008844.1, 4167.8945, 0.0, 9.9993515, 10.000205 
5.499992e+1, 2.0663068e+2, -1038209.8, -1016695.56, 40046.14, 0.020343352, -0.057889573, -985986.94, -70972.4, 0.0, 9.999397, 9.999684 
5.5000705e+1, 2.166301e+2, -949560.7, -927376.06, 8994.476, -0.03524182, -0.096628055, -924187.6, -107166.234, 0.0, 9.99935, 9.999648 
5.5002564e+1, 2.2662994e+2, -700431.1, -761781.75, 42554.633, -0.0428285, -0.07314499, -678648.1, 40375.426, 0.0, 10.000412, 9.9995985 
5.5005e+1, 2.3662998e+2, -369933.6, -556135.4, 65787.02, -0.020574223, -0.042112, -349035.78, 271987.94, 0.0, 10.002027, 9.99956 
5.50055e+1, 2.4662986e+2, -294212.22, -476871.03, 4122.185, -0.038816243, -0.0037947975, -294119.22, 228906.22, 0.0, 10.001909, 9.999489 
5.5005056e+1, 2.5662956e+2, -355979.38, -459986.56, 36884.85, -0.07557435, 0.0027003263, -344226.66, 80802.55, 0.0, 10.000824, 9.999455 
5.500795e+1, 2.6662886e+2, -189157.6, -337193.78, 123286.29, 0.021565255, -0.005189532, -119376.56, 207658.75, 0.00000000012003064, 10.001339, 9.999377 
5.5012655e+1, 2.7662802e+2, 73034.33, -194811.77, 92973.49, 0.18819141, -0.03944133, 102143.34, 331186.03, 0.00000017731924, 10.002611, 9.999074 
5.5013525e+1, 2.8662705e+2, 688.7643, -348883.6, 13505.01, 0.13218044, 0.044559047, 1209.7263, 132266.34, 0.0000014956321, 10.002186, 9.997542 
5.501237e+1, 2.966257e+2, -82502.71, -310673.6, 42426.87, -0.044688508, 0.14168194, -74869.1, -41792.18, 0.000012909044, 10.000812, 9.997798 
5.5014044e+1, 3.0662343e+2, 128445.02, -80925.73, 51604.797, 0.00594976, 0.07959455, 140473.33, 140473.33, 0.00009809619, 10.001489, 9.998721 
5.501692e+1, 3.166216e+2, 391763.03, 81998.98, 39735.246, 0.15243308, 0.030524496, 396778.88, 396778.88, 0.00033776127, 10.003116, 9.999057 
6.4989436e+1, 1.2662753e+2, -1965146.8, -1541192.5, -12756.389, -0.22107042, 0.014402392, -1540809.0, 158242.75, 0.0019618457, 9.996979, 10.0026455 
6.499005e+1, 1.3662843e+2, -1553022.9, -1438502.3, -64375.266, -0.14815691, -0.08233509, -1409606.1, 191426.6, 0.0011414166, 9.999787, 10.001324 
6.499097e+1, 1.4662828e+2, -1574324.5, -1594940.8, -13787.281, -0.11683367, -0.12121668, -1567417.9, -64386.51, 0.0004823892, 9.999815, 9.999554 
6.4992803e+1, 1.5662745e+2, -1667458.1, -1576570.6, 35567.613, -0.020176658, -0.17626551, -1564306.6, -159265.84, 0.00011742101, 9.998447, 9.999665 
6.499402e+1, 1.6662794e+2, -1537896.8, -1402242.0, 45677.297, 0.013669519, -0.12420725, -1388295.5, -81256.04, 0.000008467286, 9.998405, 10.000207 
6.499489e+1, 1.7662884e+2, -1342098.5, -1247415.5, 21317.805, 0.005585232, -0.06688952, -1242837.3, -33801.984, 0.000000004638606, 9.999035, 10.000295 
6.499682e+1, 1.8662974e+2, -1155930.5, -1044635.56, 37673.01, 0.060339667, -0.038579434, -1033082.6, 77942.96, 0.0, 9.9993725, 10.000851 
6.4999276e+1, 1.9663063e+2, -1050468.8, -975762.3, 31711.23, 0.14757878, -0.044472195, -964116.9, 48895.95, 0.0, 9.999558, 10.000564 
6.500017e+1, 2.0663035e+2, -1028363.7, -1074083.5, 27732.074, 0.092357844, -0.043825604, -1015284.1, -100267.11, 0.0, 9.999733, 9.999128 
6.50002e+1, 2.1662939e+2, -898782.06, -942113.0, 33933.227, -0.04321224, -0.0666211, -880187.6, -63156.57, 0.0, 9.999867, 9.999296 
6.500264e+1, 2.2662954e+2, -726315.9, -699649.6, 101803.195, -0.04755844, -0.03570738, -610310.2, 108719.49, 0.0, 9.99991, 10.00027 
6.5006363e+1, 2.3663028e+2, -639039.2, -627560.2, 90028.94, 0.021840982, 0.000218892, -543088.0, 77932.3, 0.0, 9.99992, 10.0000925 
6.5007097e+1, 2.4662976e+2, -508026.84, -607394.8, -20400.04, 0.0013330863, -0.009518211, -504001.8, 19023.002, 0.0, 10.000548, 9.999257 
6.5006256e+1, 2.566285e+2, -273173.28, -450234.8, -27810.441, -0.06734555, -0.07394914, -268907.94, 156129.69, 0.0, 10.001516, 9.999196 
6.5009224e+1, 2.6662755e+2, -201326.77, -401595.06, 70131.78, 0.009827583, -0.067158416, -179209.89, 147838.03, 0.00000000000043891748, 10.001507, 9.998855 
6.5014243e+1, 2.766268e+2, -180473.5, -350214.25, 28697.355, 0.17030466, -0.042342465, -175753.03, 53303.816, 0.00000007111923, 10.001019, 9.998768 
6.5015113e+1, 2.8662616e+2, -31905.043, -281664.16, -41412.69, 0.10690974, 0.047107894, -25217.451, 105847.82, 0.00000065443334, 10.001597, 9.998291 
6.50138e+1, 2.966254e+2, 232758.47, -97530.35, 10522.514, -0.072354004, 0.12780903, 233093.36, 266169.06, 0.000008482825, 10.002713, 9.998346 
6.501621e+1, 3.0662242e+2, 358642.47, -37670.168, 72054.96, -0.015221798, 0.0020992244, 371336.44, 371336.44, 0.00007932554, 10.003359, 9.998116 
6.5020424e+1, 3.1662083e+2, 458161.53, 67608.516, 37274.723, 0.16544725, 0.03655954, 461687.22, 461687.22, 0.00029245962, 10.003757, 9.998654 
7.498584e+1, 1.266274e+2, -2092662.3, -1819760.4, 77482.28, -0.3107633, -0.012923965, -1799296.1, -100249.65, 0.001839182, 9.99704, 10.000702 
7.499139e+1, 1.366269e+2, -1638049.4, -1628518.1, 18963.828, -0.011305217, -0.06560968, -1613730.3, -12677.839, 0.0010576415, 9.999844, 9.999992 
7.4992424e+1, 1.4662685e+2, -1461279.9, -1366461.3, -70374.305, 0.030378358, -0.12976871, -1329016.6, 174032.5, 0.00043753645, 9.999845, 10.001108 
7.499197e+1, 1.5662754e+2, -1584708.0, -1407727.5, 1586.8767, 0.035320662, -0.18146004, -1407713.3, -2677.3542, 0.00010224, 9.998461, 10.000819 
7.499213e+1, 1.6662833e+2, -1587285.6, -1503461.0, 67639.12, -0.03135174, -0.10813878, -1465801.4, -158770.28, 0.000007138289, 9.998398, 9.9995165 
7.499263e+1, 1.7662872e+2, -1379767.6, -1329388.8, 47046.855, -0.14064597, -0.03531474, -1301212.4, -92177.19, 0.00000003688298, 9.999051, 9.999724 
7.499443e+1, 1.8662922e+2, -1155298.0, -1043605.6, 40583.137, -0.13048239, -0.022727607, -1030417.1, 80613.66, 0.0, 9.999373, 10.000859 
7.4996966e+1, 1.9662984e+2, -1054500.8, -979268.75, 42993.094, -0.054074895, -0.057359345, -959758.9, 53262.59, 0.0, 9.999539, 10.000549 
7.4999094e+1, 2.0662983e+2, -1034690.44, -1080133.1, 29631.04, -0.0017225735, -0.028334286, -1020072.06, -105048.766, 0.0, 9.999702, 9.999101 
7.500099e+1, 2.1662937e+2, -901807.8, -939299.94, 42823.535, 0.03443629, 0.00018966226, -873807.0, -56774.742, 0.0, 9.9998255, 9.999336 
7.5003725e+1, 2.2662969e+2, -705087.44, -646652.5, 97410.36, 0.056517955, 0.02262475, -574172.2, 144855.88, 0.0, 9.999871, 10.000652 
7.5006896e+1, 2.3663034e+2, -633953.1, -605131.0, 101621.53, 0.07155621, 0.0129194325, -516903.8, 104113.914, 0.0, 9.999865, 10.000274 
7.50085e+1, 2.466291e+2, -562477.25, -709167.06, 13623.858, 0.075068906, -0.03795049, -561222.6, -38192.82, 0.0, 10.0005045, 9.998575 
7.500931e+1, 2.5662678e+2, -327358.75, -551820.1, 4511.404, 0.073538974, -0.14221732, -327268.13, 97786.8, 0.0, 10.001468, 9.998522 
7.5011045e+1, 2.6662585e+2, -240633.84, -477237.72, 47678.5, 0.02939353, -0.07515233, -231387.4, 95679.66, 0.0, 10.001481, 9.998347 
7.5013345e+1, 2.7662563e+2, -206827.5, -393283.44, 26424.809, -0.03749315, 0.0545552, -203154.88, 25917.74, 0.000000009748358, 10.000966, 9.998498 
7.501524e+1, 2.8662485e+2, 42122.93, -121389.31, -2580.502, -0.053375714, 0.0733755, 42163.645, 173242.11, 0.00000018808618, 10.001571, 9.999402 
7.501694e+1, 2.9662356e+2, 282556.47, 16107.19, 53006.184, -0.04315226, -0.0076098824, 292714.03, 325800.2, 0.000005696117, 10.0026655, 9.999151 
7.5019836e+1, 3.066205e+2, 306143.44, -141439.98, 86849.83, -0.0017976507, -0.1281051, 322405.1, 322405.1, 0.00006525944, 10.003337, 9.997411 
7.5022995e+1, 3.1662017e+2, 396953.0, -34929.84, 67553.05, 0.021610562, 0.096575, 407272.72, 407272.72, 0.00025509726, 10.003653, 9.997997 
8.498432e+1, 1.2662703e+2, -1888787.4, -1794854.0, 74701.78, -0.24737698, -0.038535956, -1753581.0, -54536.293, 0.0017199421, 9.998747, 10.000047 
8.4990865e+1, 1.366262e+2, -2147817.0, -1913218.1, 101566.336, 0.122427136, -0.06902898, -1875356.8, -274297.56, 0.0009794245, 9.996525, 9.999633 
8.4991485e+1, 1.466262e+2, -1770371.8, -1452158.5, 19026.094, 0.07548557, -0.14593264, -1451025.0, 52030.516, 0.0003977733, 9.99744, 10.001684 
8.498999e+1, 1.5662771e+2, -1331725.5, -1235437.5, 6981.577, -0.080749586, -0.17348544, -1234934.0, 170097.88, 0.000088897265, 9.999978, 10.001272 
8.499067e+1, 1.6662848e+2, -1375998.1, -1430002.9, 48926.836, -0.092195734, -0.107392095, -1347117.0, -40090.453, 0.000006071428, 9.9999695, 9.999266 
8.499253e+1, 1.7662834e+2, -1464660.5, -1398932.6, 58264.41, -0.029542575, -0.062146857, -1364902.8, -155866.75, 0.000000076650345, 9.998589, 9.999473 
8.499424e+1, 1.8662854e+2, -1272435.1, -1136898.9, 82454.16, -0.051451914, -0.049278107, -1097937.4, 13098.624, 0.0, 9.998731, 10.000531 
8.4995943e+1, 1.9662908e+2, -1052074.5, -1004733.3, 52753.375, -0.113382, -0.058647495, -970583.4, 42446.13, 0.0, 9.999676, 10.000307 
8.499874e+1, 2.0662908e+2, -911891.56, -1005871.4, 42172.617, -0.04248211, -0.024651464, -895742.06, 19288.807, 0.0, 10.000477, 9.999243 
8.500208e+1, 2.1662873e+2, -706836.94, -840370.1, 49641.78, 0.099339984, 0.002767819, -690404.5, 126632.97, 0.0, 10.0011425, 9.999387 
8.500457e+1, 2.2662881e+2, -621380.56, -653267.7, 45235.715, 0.118394196, 0.024793172, -589360.94, 129676.016, 0.0, 10.00065, 10.000229 
8.500658e+1, 2.366291e+2, -700937.7, -673636.8, -9844.129, 0.07277158, 0.020489857, -670457.44, -49424.426, 0.0, 9.999567, 9.999941 
8.5008764e+1, 2.4662805e+2, -627958.06, -733424.5, -18051.863, 0.078358784, -0.0014001267, -624953.9, -101910.12, 0.0, 10.000021, 9.998641 
8.5011095e+1, 2.5662622e+2, -347440.78, -557009.8, 13135.614, 0.11629706, -0.06113774, -346620.66, 78442.24, 0.0, 10.001318, 9.998554 
8.501303e+1, 2.66625e+2, -216046.66, -490705.0, 52585.7, 0.06914067, -0.011695071, -206322.92, 120754.22, 0.0, 10.001752, 9.998131 
8.501481e+1, 2.7662405e+2, -116048.03, -375145.94, 46035.35, -0.019857097, 0.06634353, -108111.766, 120977.59, 0.0, 10.001691, 9.998281 
8.5017085e+1, 2.8662258e+2, 44913.563, -152485.34, -3441.023, -0.02999845, 0.041889053, 44973.527, 176074.6, 0.000000024133003, 10.00172, 9.99912 
8.501965e+1, 2.9662073e+2, 145874.48, -78788.375, -59666.23, 0.0056739114, -0.06584314, 160737.44, 193850.66, 0.0000041706858, 10.001851, 9.99889 
8.5023e+1, 3.06618e+2, 163463.58, -227879.81, -27722.19, 0.029875956, -0.13516822, 165417.63, 165417.63, 0.00005536609, 10.002432, 9.997254 
8.502634e+1, 3.1661826e+2, 314804.63, -91075.82, -23637.389, 0.02271312, 0.16018777, 316176.56, 316176.56, 0.00022562832, 10.0031595, 9.997842 
9.498461e+1, 1.2662646e+2, -1844901.9, -1705762.8, -27793.861, -0.12471033, -0.056490235, -1700416.3, -1370.2235, 0.0016117445, 9.998759, 10.00065 
9.4988215e+1, 1.3662621e+2, -2102768.0, -1831255.6, 47815.438, 0.18880247, -0.09967249, -1823081.0, -222026.66, 0.00091292575, 9.996568, 10.000175 
9.4987875e+1, 1.4662625e+2, -1793633.5, -1500052.1, 114654.2, -0.043644097, -0.17789243, -1460582.0, 42469.824, 0.00036647206, 9.997443, 10.001349 
9.498672e+1, 1.5662795e+2, -1346316.4, -1272366.1, 85760.37, -0.42389378, -0.15342627, -1215949.6, 189079.0, 0.00007896108, 10.000008, 10.001001 
9.49895e+1, 1.6662844e+2, -1363587.9, -1405003.3, -8872.602, -0.22021815, -0.114150874, -1361767.1, -54742.023, 0.000005121987, 9.999972, 9.999435 
9.499436e+1, 1.7662768e+2, -1461543.8, -1394565.8, 23519.502, 0.2812432, -0.14691241, -1387131.9, -178093.86, 0.00000007826353, 9.998594, 9.999501 
9.4996023e+1, 1.866277e+2, -1322982.4, -1237863.6, 115156.695, 0.24278371, -0.11403025, -1157653.5, -46612.293, 0.0, 9.998712, 9.999846 
9.4996e+1, 1.966283e+2, -1090464.0, -1080500.9, 92342.79, -0.09003113, -0.052030377, -993005.4, 20032.102, 0.0, 9.99966, 9.999794 
9.49989e+1, 2.0662816e+2, -897967.06, -968142.44, 63712.08, -0.08608213, -0.029667484, -860319.8, 54720.043, 0.0, 10.000439, 9.999518 
9.500329e+1, 2.166274e+2, -710238.44, -840330.2, 70518.52, 0.093328506, -0.06671559, -679347.7, 137699.63, 0.0, 10.001109, 9.999403 
9.5005006e+1, 2.2662687e+2, -716698.6, -841004.5, -1072.3468, 0.08309784, -0.03334708, -716689.4, 2367.503, 0.0, 10.000608, 9.99896 
9.5005274e+1, 2.3662646e+2, -771934.4, -810873.2, -33650.99, -0.028575363, 0.014312808, -752526.44, -131458.94, 0.0, 9.99952, 9.9990225 
9.500773e+1, 2.4662657e+2, -575725.56, -613116.2, 26328.852, -0.03837771, 0.09851484, -562129.6, -39062.613, 0.0, 9.999975, 9.999486 
9.501141e+1, 2.5662687e+2, -305209.84, -457698.9, 59335.0, 0.004826989, 0.1656855, -284842.4, 140219.3, 0.0, 10.001268, 9.99926 
9.501498e+1, 2.6662502e+2, -218002.02, -489404.34, 46802.723, 0.07737073, 0.121154696, -210157.72, 116920.85, 0.0, 10.001728, 9.998152 
9.501847e+1, 2.7662194e+2, -139919.94, -413046.66, 50501.41, 0.16447832, -0.014506758, -130881.3, 98226.91, 0.0, 10.001639, 9.998046 
9.5020485e+1, 2.8661937e+2, -72242.07, -391911.84, -3581.1274, 0.124960445, -0.045656938, -72201.96, 58931.34, 0.000000004406078, 10.001705, 9.997479 
9.5021677e+1, 2.9661694e+2, 43356.824, -279915.16, -42906.563, 0.010329748, -0.049772933, 48954.7, 82111.43, 0.0000031909003, 10.001799, 9.997534 
9.5025444e+1, 3.0661488e+2, 187812.81, -172800.1, -183.99275, 0.018739583, -0.018934488, 187812.9, 187812.9, 0.000047523536, 10.002413, 9.997641 
9.5030016e+1, 3.1661502e+2, 321604.78, -56010.555, 25681.912, 0.043755233, 0.23055388, 323343.4, 323343.4, 0.00020078661, 10.003072, 9.998125 
1.0498424e+2, 1.2662458e+2, -2011998.8, -1765011.4, -36694.875, 0.031188749, -0.19602773, -1759674.9, -60614.797, 0.0015258539, 9.997505, 10.0008545 
1.0498531e+2, 1.3662621e+2, -1676381.6, -1601696.8, -1889.6764, 0.10651615, -0.08108747, -1601649.0, -597.7557, 0.00086255383, 9.999377, 10.000402 
1.04985036e+2, 1.4662616e+2, -1636336.4, -1457456.4, 80319.805, -0.12860899, -0.16296959, -1426685.0, 76366.19, 0.00034425873, 9.998667, 10.001052 
1.04985476e+2, 1.5662722e+2, -1864735.1, -1553476.0, 43623.57, -0.3733448, -0.167579, -1547477.8, -142441.84, 0.00007295785, 9.996587, 10.000725 
1.0498879e+2, 1.6662748e+2, -1693154.1, -1544339.0, -27763.086, -0.16830863, -0.14742057, -1539328.3, -232294.19, 0.0000044141693, 9.997633, 9.999601 
1.0499365e+2, 1.7662674e+2, -1203476.6, -1261904.1, -10406.091, 0.2665832, -0.19602464, -1201678.6, 7366.56, 0.000000050630582, 10.000343, 9.99956 
1.0499565e+2, 1.8662685e+2, -1081323.3, -1167659.5, 78427.7, 0.2443597, -0.13359793, -1034968.3, 76080.086, 0.0, 10.000565, 9.999433 
1.0499616e+2, 1.9662756e+2, -1152482.5, -1142313.6, 68251.23, -0.02160297, -0.019899705, -1078957.8, -65912.0, 0.0, 9.999364, 9.999512 
1.04999155e+2, 2.0662743e+2, -1071644.4, -997146.9, 82153.98, -0.030442167, -0.013030412, -944191.75, -29144.818, 0.0, 9.999013, 10.000005 
1.0500346e+2, 2.1662664e+2, -977598.0, -931527.8, 93716.62, 0.10223064, -0.103141576, -858056.8, -41004.766, 0.0, 9.999117, 9.999733 
1.0500513e+2, 2.26626e+2, -877116.7, -979810.44, 56657.6, 0.079460435, -0.0632633, -852000.6, -132937.25, 0.0, 9.999772, 9.998414 
1.0500541e+2, 2.3662545e+2, -628573.7, -791292.0, 76350.86, -0.022415355, 0.027285188, -598358.8, 22718.87, 0.0, 10.000727, 9.998575 
1.0500845e+2, 2.4662545e+2, -344145.06, -501756.9, 156503.45, -0.04059603, 0.11913671, -247726.27, 275352.3, 0.0, 10.001564, 9.999486 
1.05013005e+2, 2.5662562e+2, -158352.83, -392425.22, 107280.75, -0.01032682, 0.17291562, -116623.06, 308450.63, 0.0, 10.002299, 9.999211 
1.0501683e+2, 2.6662356e+2, -194618.98, -503693.63, 20953.906, 0.07943007, 0.12347068, -193204.88, 133887.55, 0.0, 10.002008, 9.9979105 
1.0502028e+2, 2.7662027e+2, -220432.78, -484971.94, 5563.1904, 0.20547487, -0.008730932, -220315.84, 8808.542, 0.0, 10.001231, 9.997745 
1.0502296e+2, 2.8661743e+2, -19434.898, -427416.7, 55047.926, 0.17303875, -0.019476939, -12137.935, 119015.37, 0.0000000012345152, 10.002332, 9.996939 
1.0502517e+2, 2.9661477e+2, 396783.6, -152265.55, 73578.87, 0.053139877, -0.0010236229, 406473.0, 439654.47, 0.0000025074758, 10.004411, 9.997155 
1.0502877e+2, 3.0661303e+2, 421224.38, -39666.977, 98698.66, 0.039942913, 0.0703867, 441471.0, 441471.0, 0.000040782536, 10.003924, 9.997833 
1.0503248e+2, 3.1661236e+2, 198403.3, -80644.016, 102559.516, 0.03875305, 0.21943878, 232042.3, 232042.3, 0.0001788825, 10.002074, 9.998442 
1.1498267e+2, 1.2662114e+2, -2018263.8, -1794458.1, 14065.742, 0.088899836, -0.4747, -1793577.6, -94488.19, 0.0014675308, 9.997571, 10.000624 
1.1498203e+2, 1.3662611e+2, -1672554.8, -1606263.1, 47556.18, -0.17644003, -0.018597253, -1581441.4, 19609.076, 0.0008305489, 9.99943, 10.000346 
1.14982925e+2, 1.4662592e+2, -1659361.4, -1504550.1, -5941.7705, -0.22208577, -0.094898894, -1504322.4, -1268.9855, 0.00033210375, 9.998663, 10.000731 
1.14985935e+2, 1.566255e+2, -1877790.3, -1585343.0, -508.83633, -0.00051361823, -0.22001034, -1585342.1, -180288.17, 0.00007103606, 9.99661, 10.000491 
1.1498833e+2, 1.6662559e+2, -1681981.1, -1527666.9, 72845.88, 0.0062439274, -0.21092573, -1498712.0, -191658.52, 0.0000041839003, 9.997651, 9.999715 
1.1499029e+2, 1.7662545e+2, -1192099.3, -1245553.3, 73936.54, -0.11981925, -0.21453579, -1140207.3, 68850.87, 0.000000024917117, 10.00037, 9.999664 
1.1499302e+2, 1.866259e+2, -1096929.3, -1190360.6, 29873.238, -0.088476434, -0.111761555, -1088194.4, 22863.887, 0.0, 10.000525, 9.999296 
1.14996195e+2, 1.9662681e+2, -1155506.3, -1143330.4, 34174.93, 0.029799705, 0.0346197, -1114705.4, -101650.67, 0.0, 9.999343, 9.999516 
1.1499933e+2, 2.066269e+2, -1029151.56, -900180.0, 80412.5, 0.074394174, 0.02556717, -861590.2, 53461.984, 0.0, 9.998975, 10.000691 
1.1500239e+2, 2.166264e+2, -940271.7, -843460.9, 106016.8, 0.072861455, -0.105624095, -775321.7, 41730.086, 0.0, 9.999071, 10.0003605 
1.1500479e+2, 2.2662616e+2, -870563.56, -957472.25, 88515.07, 0.059003547, -0.061368376, -815411.6, -96355.24, 0.0, 9.999732, 9.998588 
1.1500682e+2, 2.3662604e+2, -634970.25, -793108.8, 116162.164, 0.033237573, 0.053830728, -573520.5, 47543.555, 0.0, 10.000673, 9.9985895 
1.15010776e+2, 2.4662465e+2, -413665.8, -632951.5, 180302.98, 0.0231309, 0.055225614, -312285.63, 210793.3, 0.0, 10.001508, 9.998613 
1.1501572e+2, 2.5662243e+2, -222300.98, -512143.25, 128690.72, 0.01955391, -0.039440867, -173409.23, 251689.77, 0.0, 10.002243, 9.998417 
1.1501849e+2, 2.6662064e+2, -231855.17, -577047.56, -14301.937, 0.031632803, -0.0023686425, -231263.63, 95855.016, 0.0, 10.00199, 9.997417 
1.15020074e+2, 2.7661905e+2, -251574.05, -540677.6, -1940.605, 0.048601698, 0.084282964, -251561.02, -22422.8, 0.0, 10.00119, 9.997386 
1.1502429e+2, 2.8661683e+2, 13106.695, -351823.22, 131077.72, 0.06317343, 0.12001359, 55307.78, 186469.2, 0.00000000007947066, 10.0023, 9.997472 
1.1502993e+2, 2.9661414e+2, 418197.4, -88573.15, 133886.53, 0.07581876, 0.08668778, 451394.94, 484582.66, 0.000001910546, 10.004333, 9.997631 
1.1503277e+2, 3.066125e+2, 420837.53, -32396.238, 25121.105, 0.0349266, 0.14284326, 422225.66, 422225.66, 0.000034748213, 10.003897, 9.997891 
1.1503328e+2, 3.1661025e+2, 210321.92, -34179.64, 54790.63, -0.116272, 0.12760124, 222038.56, 222038.56, 0.00015878698, 10.001987, 9.998798 
1.24980405e+2, 1.2661996e+2, -2056015.3, -1791344.8, -50885.723, 0.12507883, -0.39654368, -1781898.5, -82792.84, 0.0014351123, 9.997245, 10.000794 
1.2498015e+2, 1.3662471e+2, -2019625.9, -1743533.0, -6463.7524, -0.17819437, 0.008963397, -1743381.8, -142315.23, 0.00081633194, 9.996934, 10.000605 
1.2498152e+2, 1.4662427e+2, -1771448.1, -1558605.6, -56478.457, -0.18554509, -0.10299706, -1544547.4, -41476.26, 0.00033045214, 9.997897, 10.000727 
1.2498512e+2, 1.5662384e+2, -1450588.1, -1378975.5, -34368.64, 0.11391183, -0.22490063, -1365150.1, 39921.824, 0.00007352079, 9.999537, 10.000496 
1.2498738e+2, 1.6662446e+2, -1369217.3, -1347365.5, 100028.664, 0.04784482, -0.18175483, -1257667.8, 49398.52, 0.0000047035833, 9.999676, 9.999975 
1.249888e+2, 1.7662503e+2, -1382983.6, -1317604.5, 90870.52, -0.23124091, -0.1332707, -1253722.6, -44659.73, 0.000000012759114, 9.998967, 9.99985 
1.24991864e+2, 1.8662514e+2, -1351904.9, -1318115.0, 12160.207, -0.1657551, -0.07197072, -1314193.9, -203128.64, 0.0, 9.998797, 9.999252 
1.2499587e+2, 1.9662516e+2, -1229647.3, -1192674.4, 22381.846, 0.088547125, -0.0079649165, -1182131.6, -169062.7, 0.0, 9.998899, 9.99939 
1.2499912e+2, 2.0662488e+2, -956303.56, -919952.3, 58139.71, 0.122588925, -0.020991992, -877213.44, 37857.08, 0.0, 9.99971, 10.000198 
1.2500197e+2, 2.1662427e+2, -707099.25, -775239.06, -14992.673, 0.035853207, -0.11339139, -703946.4, 113126.38, 0.0, 10.000856, 9.999969 
1.2500516e+2, 2.2662403e+2, -611832.06, -804358.7, -53731.0, 0.042493653, -0.067940265, -597851.8, 121224.43, 0.0, 10.001382, 9.998841 
1.2500854e+2, 2.3662393e+2, -496876.78, -711850.8, -33774.566, 0.09829346, 0.026992053, -491695.34, 129385.62, 0.0, 10.001555, 9.998723 
1.2501276e+2, 2.466222e+2, -506226.47, -720565.4, 46112.805, 0.09531325, 0.011791572, -496726.8, 26372.773, 0.0, 10.00106, 9.998226 
1.2501736e+2, 2.5661948e+2, -531281.5, -698563.9, 26915.865, 0.060456563, -0.094857484, -527057.4, -101930.49, 0.0, 10.0002775, 9.998086 
1.250203e+2, 2.6661777e+2, -327281.75, -611514.7, -49074.67, 0.05208483, -0.04023482, -319047.25, 8098.6987, 0.0, 10.001288, 9.997518 
1.2502238e+2, 2.766166e+2, 57997.98, -375855.16, -4143.8057, 0.060350537, 0.07660172, 58037.555, 287198.22, 0.0, 10.003261, 9.997515 
1.25027e+2, 2.8661442e+2, 115999.94, -288341.1, 126010.31, 0.076703936, 0.103540055, 152055.19, 283238.13, 0.00000000021645001, 10.002946, 9.997597 
1.2503299e+2, 2.966116e+2, -4931.5444, -284952.38, 89241.82, 0.09945094, 0.0465012, 21091.227, 54301.332, 0.0000014014497, 10.00139, 9.997697 
1.2503575e+2, 3.0661008e+2, 88807.055, -234174.97, -54955.44, 0.053343546, 0.12951724, 97901.65, 97901.65, 0.000028996776, 10.001777, 9.997537 
1.250358e+2, 3.1660724e+2, 395959.5, 66732.87, -64558.66, -0.118374996, 0.08465863, 408166.3, 408166.3, 0.00013884061, 10.0032, 9.998918 
1.3497706e+2, 1.266211e+2, -2021500.8, -1717332.8, -82308.664, 0.03503313, 0.044026628, -1696488.3, 2620.1646, 0.0014283952, 9.997243, 10.0013 
1.3497941e+2, 1.3662201e+2, -1967805.4, -1644396.8, -1812.1683, 0.039308418, -0.0019493069, -1644386.6, -43287.543, 0.000819765, 9.996977, 10.00126 
1.3498063e+2, 1.4662123e+2, -1750575.8, -1523801.6, 2392.4563, -0.08013374, -0.19150746, -1523776.4, -20672.217, 0.00033887546, 9.997928, 10.000952 
1.3498288e+2, 1.5662238e+2, -1430969.6, -1341826.6, 19207.436, -0.0795308, -0.17912588, -1337864.1, 67224.79, 0.0000801792, 9.999552, 10.000743 
1.3498577e+2, 1.666241e+2, -1349934.0, -1302011.5, 68934.46, -0.09281796, -0.053073138, -1252992.6, 54079.094, 0.0000062149566, 9.999656, 10.000296 
1.3498895e+2, 1.7662548e+2, -1361592.4, -1274504.5, 75177.52, -0.1269846, 0.043200545, -1231170.8, -22110.857, 0.000000017143847, 9.99898, 10.000136 
1.3499199e+2, 1.8662457e+2, -1350103.8, -1314413.9, 10987.556, -0.047968816, -0.01087153, -1311302.5, -200233.33, 0.0, 9.998791, 9.999284 
1.3499498e+2, 1.966226e+2, -1246297.8, -1226267.4, 36795.016, 0.09434298, -0.15031126, -1198148.9, -185060.7, 0.0, 9.998892, 9.999165 
1.3499837e+2, 2.0662129e+2, -1082133.4, -1171002.1, 98487.12, 0.06473565, -0.15667911, -1018520.9, -103418.59, 0.0, 9.999668, 9.998496 
1.3500197e+2, 2.1662022e+2, -811745.5, -978339.94, 28188.988, -0.06254525, -0.12788548, -807104.94, 10010.141, 0.0, 10.000799, 9.9986 
1.3500604e+2, 2.266196e+2, -595779.8, -763950.0, -51820.85, -0.019776452, -0.0801972, -581093.94, 138028.78, 0.0, 10.001347, 9.999139 
1.3501038e+2, 2.3661916e+2, -482051.6, -673895.1, -29659.791, 0.11329481, -0.052788034, -477570.72, 143557.69, 0.0, 10.001521, 9.999 
1.3501419e+2, 2.4661815e+2, -505783.84, -711566.0, 11054.228, 0.1218658, -0.012269365, -505191.72, 17948.93, 0.0, 10.001025, 9.998304 
1.3501778e+2, 2.5661677e+2, -526512.06, -676016.94, 18320.469, 0.061790723, 0.006783071, -524299.75, -99142.7, 0.0, 10.000224, 9.998266 
1.350221e+2, 2.66615e+2, -286992.84, -519006.72, 23723.9, 0.09276473, 0.009873016, -284591.88, 42582.105, 0.0, 10.001253, 9.998168 
1.3502695e+2, 2.7661288e+2, 83725.836, -304519.78, 55205.9, 0.17768389, -0.02928165, 91423.13, 320615.3, 0.0, 10.003186, 9.99804 
1.350309e+2, 2.866102e+2, 97811.28, -317560.47, 60626.41, 0.1577686, -0.06568472, 106479.25, 237697.7, 0.000000004047862, 10.002913, 9.99741 
1.3503426e+2, 2.9660714e+2, -31575.305, -329078.94, 52057.06, 0.07427529, -0.1254412, -22729.404, 10519.919, 0.0000011638989, 10.001343, 9.997418 
1.3503756e+2, 3.066058e+2, 29990.516, -342762.5, -2535.0388, 0.04663914, 0.025212161, 30007.756, 30007.756, 0.00002379093, 10.001729, 9.996811 
1.350397e+2, 3.1660324e+2, 376664.6, 46214.8, 10569.447, -0.07212712, 0.088710636, 377002.3, 377002.3, 0.00011909773, 10.003124, 9.998813 
1.4497308e+2, 1.266188e+2, -2200574.5, -1735894.5, -69716.984, -0.00092533074, 0.18091471, -1725660.1, -26521.654, 0.0014440229, 9.995713, 10.001914 
1.4497699e+2, 1.3661924e+2, -1808988.1, -1495992.0, 2204.9783, 0.063966475, 0.007630978, -1495976.5, 105152.46, 0.00083842565, 9.997744, 10.00191 
1.4497897e+2, 1.4661855e+2, -1685747.9, -1517509.0, -3714.9116, -0.063537605, -0.18846476, -1517427.0, -14294.974, 0.00035495815, 9.998482, 10.00073 
1.449816e+2, 1.5662014e+2, -1598678.8, -1441643.6, -40943.984, -0.10511347, -0.10666777, -1431609.4, -26495.82, 0.00008912459, 9.998483, 10.000576 
1.4498466e+2, 1.6662164e+2, -1541548.3, -1363853.8, -39917.266, -0.09315937, -0.012003592, -1355298.6, -48200.97, 0.000008328298, 9.998208, 10.000566 
1.4498788e+2, 1.7662245e+2, -1524237.5, -1326787.4, -36652.62, -0.06843843, -0.00017787103, -1320203.1, -111113.52, 0.0000000715251, 9.9977455, 10.000372 
1.4499153e+2, 1.866215e+2, -1260308.3, -1248922.0, -24085.078, 0.0038232848, -0.078440115, -1229866.4, -118769.305, 0.0, 9.999314, 9.999479 
1.449954e+2, 1.9661976e+2, -796143.1, -1002167.5, -7114.7393, 0.10004165, -0.21190424, -795897.7, 217213.9, 0.0, 10.001943, 9.999237 
1.4499873e+2, 2.0661843e+2, -815214.94, -1093238.5, 73322.73, 0.03516994, -0.19823973, -797062.8, 118063.83, 0.0, 10.00172, 9.99804 
1.4500175e+2, 2.166172e+2, -968747.25, -1103283.8, 91582.99, -0.11668717, -0.13916461, -922382.5, -105239.41, 0.0, 9.999933, 9.998161 
1.4500651e+2, 2.266163e+2, -782781.8, -875455.4, 63772.05, -0.047117878, -0.089828424, -750289.9, -31135.29, 0.0, 10.000165, 9.998939 
1.4501216e+2, 2.3661551e+2, -497139.03, -702146.56, 29034.514, 0.14385006, -0.07437144, -493106.3, 128057.516, 0.0, 10.001514, 9.998809 
1.45016e+2, 2.466146e+2, -393856.03, -669511.56, 13866.13, 0.16192219, -0.009028858, -393160.28, 130015.57, 0.0, 10.001844, 9.9982 
1.4501889e+2, 2.566136e+2, -326276.4, -578663.6, 7785.255, 0.08568052, 0.05567125, -326036.5, 99153.14, 0.0, 10.001606, 9.998264 
1.4502382e+2, 2.6661175e+2, -178633.9, -425737.1, 59356.113, 0.11357743, 0.029907735, -165115.64, 162090.11, 0.0, 10.001814, 9.998543 
1.4502989e+2, 2.7660936e+2, -30159.434, -328763.3, 52380.22, 0.20479529, -0.07563105, -21237.62, 207986.58, 0.0, 10.002266, 9.998321 
1.4503372e+2, 2.866067e+2, 58207.14, -365096.47, 3408.8228, 0.16148454, -0.10609769, 58234.59, 189485.3, 0.000000009906891, 10.002755, 9.997166 
1.4503618e+2, 2.9660398e+2, 233221.16, -220989.11, -11694.645, 0.041668616, -0.112457775, 233522.05, 266803.03, 0.0000010398929, 10.003249, 9.997239 
1.4504012e+2, 3.0660224e+2, 249448.53, -251043.73, 7453.2544, 0.058622733, 0.016401073, 249559.5, 249559.5, 0.000019274365, 10.003297, 9.996683 
1.4504384e+2, 3.165997e+2, 374254.97, 68047.31, 58815.5, 0.04005859, 0.08923142, 385163.47, 385163.47, 0.00010043125, 10.003008, 9.999018 
1.5496814e+2, 1.266131e+2, -2140691.0, -1628874.8, -11361.51, -0.09918993, 0.011125033, -1628622.6, 70572.62, 0.0014662774, 9.995782, 10.002617 
1.5497266e+2, 1.3661642e+2, -1758359.8, -1402228.3, 70307.3, -0.15868089, 0.042770725, -1388850.8, 212304.77, 0.0008607167, 9.99778, 10.002543 
1.5497631e+2, 1.4661625e+2, -1733455.3, -1615970.4, -8719.595, -0.19354776, -0.089067414, -1615326.8, -112172.15, 0.00037131715, 9.998483, 10.000052 
1.549811e+2, 1.5661708e+2, -1633239.5, -1518962.3, -38150.324, -0.01729867, -0.014502352, -1507396.6, -102250.38, 0.00009663115, 9.998508, 10.000032 
1.5498386e+2, 1.6661707e+2, -1528989.3, -1333348.5, -63367.895, -0.0076661496, -0.062219385, -1314617.1, -7472.7725, 0.000009881803, 9.998192, 10.000784 
1.5498541e+2, 1.7661601e+2, -1508052.6, -1290966.8, -31673.012, -0.1038594, -0.25833437, -1286440.1, -77288.586, 0.00000020107916, 9.997738, 10.000622 
1.5499032e+2, 1.8661599e+2, -1240832.3, -1206196.0, 73197.07, -0.06358614, -0.2725453, -1148296.3, -37147.62, 0.0, 9.999303, 9.99978 
1.5499702e+2, 1.9661665e+2, -774261.5, -949514.2, 71561.09, 0.05196163, -0.19568595, -748753.56, 264385.75, 0.0, 10.001917, 9.999609 
1.5500005e+2, 2.066163e+2, -766753.8, -985538.6, -7.590404, -0.01829699, -0.1426821, -766753.8, 148389.56, 0.0, 10.001686, 9.998799 
1.5500109e+2, 2.1661521e+2, -936524.4, -1027029.5, 45697.695, -0.19007243, -0.14310329, -917464.6, -100308.09, 0.0, 9.999892, 9.998704 
1.5500632e+2, 2.2661413e+2, -841420.94, -987753.56, 110767.73, -0.09313841, -0.09252456, -781836.4, -62665.063, 0.0, 10.000123, 9.998191 
1.5501381e+2, 2.3661296e+2, -550279.06, -805618.5, 76572.44, 0.14528689, -0.0401006, -529076.7, 92110.87, 0.0, 10.001479, 9.998118 
1.5501799e+2, 2.4661155e+2, -419086.9, -714828.56, -421.5301, 0.16530158, 0.021177648, -419086.3, 104119.19, 0.0, 10.001814, 9.997904 
1.5502049e+2, 2.5660992e+2, -349493.97, -616810.2, 6877.2524, 0.07343696, 0.05107018, -349317.16, 75908.14, 0.0, 10.001558, 9.998028 
1.5502521e+2, 2.6660803e+2, -173008.84, -406629.16, 71727.41, 0.060911763, 0.021383977, -152744.44, 174497.42, 0.0, 10.001787, 9.998684 
1.5503113e+2, 2.766059e+2, -35655.004, -326729.66, 74266.8, 0.0900615, -0.06931647, -17801.172, 211456.47, 0.0, 10.002208, 9.998363 
1.5503535e+2, 2.8660384e+2, 34556.965, -405867.0, 18088.326, 0.03652066, -0.024033729, 35298.61, 166579.05, 0.000000005626964, 10.00272, 9.996901 
1.5503857e+2, 2.9660192e+2, 217911.67, -243779.47, 11009.096, -0.06170524, 0.074954584, 218174.03, 251480.14, 0.00000084127635, 10.003202, 9.997108 
1.5504327e+2, 3.0659944e+2, 274837.0, -183186.88, -7386.977, 0.031423204, 0.1038786, 274956.1, 274956.1, 0.000015268795, 10.003246, 9.997163 
1.5504776e+2, 3.1659663e+2, 395610.06, 134225.25, 73388.79, 0.1092339, 0.09891912, 414805.66, 414805.66, 0.00008386637, 10.002925, 9.999503 
1.6496493e+2, 1.2660797e+2, -1925071.6, -1611647.4, 7164.638, -0.08580411, -0.07318082, -1611483.8, 87760.414, 0.0014745225, 9.997628, 10.001848 
1.6497043e+2, 1.366121e+2, -1830951.3, -1476899.1, -31740.781, -0.14006592, 0.09719412, -1474076.1, 127124.82, 0.00086981576, 9.997467, 10.002176 
1.649746e+2, 1.4661224e+2, -1819859.8, -1596428.4, -102509.13, -0.16607842, -0.022118181, -1556524.4, -53327.023, 0.00037795518, 9.997636, 10.00059 
1.6497974e+2, 1.5661284e+2, -1684944.3, -1503218.0, -48967.13, 0.024296373, -0.021798797, -1490863.5, -85674.03, 0.000098805474, 9.997981, 10.000391 
1.649826e+2, 1.6661267e+2, -1458895.4, -1350852.0, -59773.363, 0.016314613, -0.07160831, -1324305.8, -17116.436, 0.000009884257, 9.998881, 10.000333 
1.649842e+2, 1.7661163e+2, -1196673.8, -1177018.3, -82781.734, -0.111447595, -0.22451398, -1103482.9, 105714.836, 0.0000002904704, 10.000026, 10.0003 
1.6498931e+2, 1.8661171e+2, -1152060.1, -1132424.8, 26321.994, -0.11443824, -0.23157394, -1114149.1, -2955.2883, 0.0, 9.999792, 10.000045 
1.6499637e+2, 1.966125e+2, -1207275.6, -1122515.9, 4280.6665, -0.045253143, -0.16764052, -1122300.3, -109118.32, 0.0, 9.998797, 9.999922 
1.6500008e+2, 2.0661242e+2, -1090924.5, -1073596.3, -103919.664, -0.055443037, -0.13494055, -977980.2, -62798.773, 0.0, 9.99917, 9.999406 
1.6500197e+2, 2.1661177e+2, -844354.1, -928806.4, -72110.58, -0.10765547, -0.15298222, -803016.0, 14172.234, 0.0, 10.000297, 9.999184 
1.6500737e+2, 2.2661054e+2, -731932.25, -956240.9, 63608.43, -0.03859541, -0.12519471, -715150.06, 4053.5823, 0.0, 10.000972, 9.997993 
1.6501467e+2, 2.3660901e+2, -580435.5, -839668.06, 56321.496, 0.09165084, -0.089711756, -568727.75, 52495.74, 0.0, 10.00137, 9.99793 
1.6501923e+2, 2.4660742e+2, -412058.9, -734906.56, -12958.201, 0.10264717, -0.025762437, -411539.66, 111704.28, 0.0, 10.001962, 9.997696 
1.6502239e+2, 2.5660574e+2, -205749.86, -570466.0, -10852.657, 0.055006254, 0.02203206, -205427.2, 219837.95, 0.0, 10.002644, 9.997823 
1.6502707e+2, 2.666039e+2, -92651.375, -399354.16, 37279.11, 0.03671339, 0.018960733, -88185.21, 239097.31, 0.0, 10.002463, 9.998413 
1.6503263e+2, 2.7660182e+2, -104338.59, -382400.22, 5729.4023, 0.041307915, -0.042755585, -104220.59, 125078.36, 0.0, 10.001827, 9.998162 
1.6503754e+2, 2.8659987e+2, -70736.61, -454343.8, -13881.156, 0.02473791, 0.021870187, -70234.97, 61086.117, 0.00000000009995645, 10.001989, 9.996918 
1.6504209e+2, 2.965982e+2, 135120.56, -282101.53, -17296.059, 0.004968369, 0.14705321, 135836.34, 169180.69, 0.00000051342266, 10.002631, 9.99712 
1.6504654e+2, 3.065951e+2, 245323.3, -206108.27, -64423.914, 0.04810855, 0.11800654, 254337.27, 254337.27, 0.000011747977, 10.003062, 9.997103 
1.6505024e+2, 3.1659248e+2, 431091.2, 122762.79, -31366.758, 0.051768865, 0.13918221, 434249.8, 434249.8, 0.00007014343, 10.003284, 9.99925 
1.7496316e+2, 1.266034e+2, -2075185.1, -1928481.1, -18354.355, -0.053627193, -0.07248904, -1926219.6, -226934.2, 0.0014574766, 9.997655, 9.99966 
1.7497014e+2, 1.3660628e+2, -1925888.6, -1679714.0, -34703.758, 0.07105638, 0.17111848, -1674915.3, -73650.14, 0.00085594517, 9.997497, 10.000767 
1.7497382e+2, 1.4660642e+2, -1692137.0, -1336630.3, -95653.516, -0.020359615, 0.007850486, -1312527.6, 190733.42, 0.0003688444, 9.997652, 10.00237 
1.7497727e+2, 1.5660733e+2, -1591466.8, -1311000.0, -26326.273, -0.035837837, -0.13462469, -1308550.3, 96693.66, 0.00009401229, 9.997988, 10.001708 
1.7498071e+2, 1.6660856e+2, -1535975.4, -1510047.5, -19191.18, -0.07523079, -0.03830162, -1499851.9, -192619.94, 0.000008393363, 9.998876, 9.999245 
1.7498402e+2, 1.7660943e+2, -1257163.0, -1305592.9, -47676.47, -0.14623186, 0.107174985, -1227904.5, -18676.756, 0.00000020811186, 10.00004, 9.99941 
1.7498836e+2, 1.8660873e+2, -1136278.6, -1101616.5, -15867.624, -0.20219035, 0.050327703, -1095449.8, 15782.093, 0.0, 9.999792, 10.00026 
1.7499326e+2, 1.9660732e+2, -1191649.3, -1086760.0, -15710.402, -0.24780694, -0.1289809, -1084457.5, -71217.984, 0.0, 9.998777, 10.000178 
1.7499864e+2, 2.0660685e+2, -1066094.4, -1013822.56, -65881.555, -0.12678926, -0.17135823, -969082.06, -53841.793, 0.0, 9.999133, 9.999834 
1.7500427e+2, 2.1660677e+2, -819618.56, -872202.2, -28537.291, 0.08140803, -0.17674036, -807107.9, 10131.092, 0.0, 10.000273, 9.999584 
1.750095e+2, 2.2660553e+2, -713448.5, -907996.44, 75009.61, 0.066024825, -0.185808, -687886.56, 31364.75, 0.0, 10.000931, 9.998343 
1.7501454e+2, 2.3660359e+2, -566954.56, -804108.06, 78705.79, -0.069531046, -0.22636154, -543211.06, 78060.89, 0.0, 10.001332, 9.998194 
1.750195e+2, 2.4660219e+2, -426685.28, -756454.7, 8123.4336, -0.07766349, -0.14840133, -426485.28, 96805.875, 0.0, 10.001925, 9.997562 
1.7502442e+2, 2.5660104e+2, -229634.36, -609190.4, 10662.275, -0.01730601, -0.035104133, -229335.08, 195974.73, 0.0, 10.002596, 9.997581 
1.7502928e+2, 2.665993e+2, -140055.66, -491559.44, 8359.881, 0.002825445, 0.021634938, -139856.95, 187471.27, 0.0, 10.0024395, 9.997789 
1.750342e+2, 2.7659705e+2, -141903.8, -453286.78, -6082.932, 0.0035093906, 0.0038331456, -141785.02, 87563.266, 0.0, 10.001796, 9.997691 
1.7504013e+2, 2.8659478e+2, -51126.746, -414852.72, 2731.7258, 0.07340349, 0.039630983, -51106.23, 80266.15, 0.0, 10.001992, 9.997189 
1.7504653e+2, 2.965928e+2, 135356.11, -273617.7, 10546.548, 0.17461772, 0.10747936, 135627.9, 169023.92, 0.00000027417164, 10.002594, 9.997197 
1.750498e+2, 3.065892e+2, 205960.58, -281679.22, -59075.844, 0.05609302, 0.054147378, 213015.34, 213015.34, 0.000009335192, 10.003041, 9.996592 
1.7505088e+2, 3.1658733e+2, 350761.47, -23743.23, 1888.8517, -0.23810266, 0.20737766, 350770.97, 350770.97, 0.000059812894, 10.003209, 9.998276 
1.8496078e+2, 1.2659858e+2, -2142600.5, -1941924.0, -59497.348, -0.027790347, -0.035717513, -1925610.3, -226276.72, 0.0014119628, 9.997108, 9.9998255 
1.8496765e+2, 1.3660114e+2, -1957196.8, -1674597.0, 89637.26, 0.0902021, 0.14809856, -1648563.4, -47248.02, 0.0008198644, 9.997185, 10.000953 
1.849715e+2, 1.4660148e+2, -1711077.6, -1379392.5, 17260.5, -0.016472604, 0.013364044, -1378496.8, 124813.95, 0.0003462985, 9.997661, 10.002069 
1.8497525e+2, 1.5660244e+2, -1543716.3, -1312742.9, -75966.37, -0.056223333, -0.09481595, -1289997.6, 115297.91, 0.000084445885, 9.998416, 10.0014925 
1.8497941e+2, 1.6660376e+2, -1489052.4, -1455963.6, -39002.98, -0.09985423, 0.004868663, -1430141.1, -122858.88, 0.000006352812, 9.999082, 9.999511 
1.849837e+2, 1.7660479e+2, -1295563.5, -1304107.1, 15377.089, -0.16344188, 0.14392039, -1283875.9, -74601.32, 0.000000056960435, 9.999697, 9.999587 
1.8498829e+2, 1.8660407e+2, -1118201.4, -1113895.8, 28057.47, -0.19406408, 0.085795715, -1087908.6, 23371.17, 0.0, 10.000006, 10.000071 
1.8499313e+2, 1.9660252e+2, -1008034.9, -1021167.44, -4217.005, -0.20341335, -0.08742353, -1006797.4, 6493.2305, 0.0, 10.000135, 9.999974 
1.8499888e+2, 2.066019e+2, -892689.44, -963728.5, -52027.87, -0.0798134, -0.120792724, -865212.6, 50081.586, 0.0, 10.000468, 9.999533 
1.8500511e+2, 2.1660167e+2, -742541.3, -858285.7, -81769.33, 0.10998301, -0.11056352, -700236.56, 117058.37, 0.0, 10.0009, 9.999375 
1.8501043e+2, 2.2660032e+2, -699491.06, -879683.5, -19311.682, 0.07007011, -0.13360773, -697444.6, 21862.51, 0.0, 10.000918, 9.998552 
1.8501535e+2, 2.3659836e+2, -645876.06, -820318.1, -30169.896, -0.08641572, -0.19685198, -640805.56, -19479.744, 0.0, 10.000688, 9.998398 
1.8502071e+2, 2.4659719e+2, -553123.9, -807015.6, -65133.043, -0.10045695, -0.11019258, -537389.8, -14047.561, 0.0, 10.001011, 9.997655 
1.8502633e+2, 2.565964e+2, -364035.9, -667509.1, -57421.375, -0.03457655, 0.029533302, -353534.38, 71823.39, 0.0, 10.001647, 9.997634 
1.8503173e+2, 2.665943e+2, -139159.13, -520118.2, -41250.387, -0.0023145147, 0.06521321, -134743.7, 192636.03, 0.0, 10.002569, 9.997531 
1.8503705e+2, 2.7659133e+2, 111560.86, -351231.3, -36671.85, 0.02060187, 0.0010380283, 114448.734, 343855.78, 0.0, 10.003628, 9.997508 
1.8504308e+2, 2.865889e+2, 225343.36, -263441.72, -16743.268, 0.079619914, 0.015991302, 225916.22, 357348.0, 0.0, 10.003811, 9.997353 
1.8504933e+2, 2.9658708e+2, 276646.7, -191275.25, -26598.252, 0.15202568, 0.08083427, 278153.78, 311605.9, 0.00000021710767, 10.003503, 9.997325 
1.8505286e+2, 3.065835e+2, 299442.88, -216462.5, -49007.438, 0.03472439, 0.02114248, 304056.97, 304056.97, 0.0000079127085, 10.003584, 9.996788 
1.85055e+2, 3.1658188e+2, 419663.8, -43947.445, 59561.516, -0.17612943, 0.17890266, 427193.56, 427193.56, 0.00005116492, 10.00388, 9.997836 
1.9495751e+2, 1.2659352e+2, -1964340.3, -1572355.5, -79075.43, -0.0956963, 0.032934036, -1557004.8, 142383.5, 0.0013384911, 9.997115, 10.002358 
1.9496278e+2, 1.3659668e+2, -1833037.9, -1410679.3, 99269.59, -0.1278, 0.0211236, -1388510.9, 212840.92, 0.0007672974, 9.997167, 10.002769 
1.9496746e+2, 1.4659747e+2, -1881877.4, -1732951.1, 40687.227, -0.20052055, -0.003425624, -1722560.3, -219214.55, 0.00031672008, 9.997653, 9.999648 
1.9497348e+2, 1.5659826e+2, -1668133.5, -1570160.0, -43732.56, -0.087302715, 0.10654963, -1553479.1, -148135.52, 0.000073711046, 9.998415, 9.999725 
1.9497856e+2, 1.6659838e+2, -1376577.3, -1222536.6, -18782.7, -0.1048075, 0.0676327, -1220279.5, 87060.19, 0.0000047225935, 9.999077, 10.001117 
1.9498308e+2, 1.765978e+2, -1207921.3, -1121332.4, 41986.953, -0.20837443, -0.11447078, -1104316.6, 105021.3, 0.0000000036456946, 9.999691, 10.000844 
1.9498903e+2, 1.8659775e+2, -1164440.9, -1207568.6, 27883.545, -0.13404068, -0.121690154, -1150755.8, -39418.594, 0.0, 9.99999, 9.99944 
1.9499578e+2, 1.9659804e+2, -1057624.6, -1121832.4, 7345.093, 0.035714682, -0.048061796, -1056795.1, -43459.08, 0.0, 10.000122, 9.999292 
1.9500059e+2, 2.0659754e+2, -968217.0, -1112591.9, -39192.87, 0.032247998, 0.016572006, -958263.6, -42920.234, 0.0, 10.000434, 9.998527 
1.9500433e+2, 2.1659642e+2, -807351.1, -983879.8, -63720.91, -0.07043427, 0.03800298, -786753.4, 30603.46, 0.0, 10.00086, 9.998533 
1.9501007e+2, 2.2659494e+2, -702340.25, -873163.56, -33335.598, -0.06906286, 0.034133736, -696065.44, 23305.518, 0.0, 10.00087, 9.998618 
1.950169e+2, 2.3659329e+2, -644797.44, -807145.8, -28895.418, -0.009226008, -0.0049971514, -639807.9, -18422.527, 0.0, 10.000642, 9.998509 
1.9502275e+2, 2.4659237e+2, -537709.1, -765594.44, -45580.973, -0.0092849955, 0.08477362, -528930.3, -5532.7383, 0.0, 10.000971, 9.997958 
1.9502796e+2, 2.5659174e+2, -350378.97, -629795.8, -26384.215, -0.046193767, 0.210436, -347909.44, 77500.11, 0.0, 10.001606, 9.997912 
1.9503419e+2, 2.6658893e+2, -131973.05, -499968.84, -5273.573, -0.021976711, 0.15218607, -131897.48, 195539.47, 0.0, 10.002549, 9.997679 
1.9504097e+2, 2.765847e+2, 111910.98, -339970.4, 1327.1722, 0.03736058, -0.04912728, 111914.875, 341389.6, 0.0, 10.003581, 9.997611 
1.9504616e+2, 2.8658214e+2, 223832.39, -260195.06, -31553.018, -0.004943072, -0.052375227, 225880.63, 357380.13, 0.0, 10.003785, 9.997386 
1.9505036e+2, 2.9658094e+2, 277275.53, -177089.14, -28315.035, -0.10907037, 0.07121961, 279033.25, 312545.97, 0.0000002787285, 10.0034485, 9.997447 
1.9505557e+2, 3.0657804e+2, 361482.06, -78819.414, -42258.164, -0.062325258, 0.021203408, 365501.13, 365501.13, 0.000006930128, 10.003556, 9.997742 
1.9506215e+2, 3.1657636e+2, 424742.25, -13993.138, 89990.02, 0.12746729, 0.0739475, 442482.94, 442482.94, 0.00004299831, 10.00381, 9.998069 
2.0495456e+2, 1.2658885e+2, -1953156.5, -1589538.9, 15721.531, -0.1059678, 0.04182923, -1588860.4, 110572.66, 0.0012408808, 9.997303, 10.002148 
2.0496015e+2, 1.3659126e+2, -1711564.5, -1382806.8, -25464.633, -0.1497928, -0.024462502, -1380846.0, 220557.58, 0.0007023467, 9.998131, 10.0025015 
2.0496546e+2, 1.4659205e+2, -1794334.6, -1753141.4, -54470.633, -0.20676905, -0.0044786795, -1715503.4, -212104.5, 0.0002832004, 9.998533, 9.999084 
2.0497216e+2, 1.5659268e+2, -1646837.0, -1605975.4, -15067.184, -0.07339575, 0.14635095, -1601020.4, -195619.81, 0.000063005726, 9.998761, 9.999311 
2.0497781e+2, 1.6659266e+2, -1373865.6, -1185412.4, 2605.9985, -0.07730676, 0.09000256, -1185376.4, 122021.91, 0.0000035155435, 9.998936, 10.001441 
2.0498282e+2, 1.7659202e+2, -1280631.8, -1131549.0, -43371.313, -0.17007796, -0.12811479, -1119849.5, 89546.695, 0.0000000004928599, 9.999082, 10.001071 
2.0498925e+2, 1.8659224e+2, -1288846.8, -1286596.1, -68538.555, -0.070023045, -0.10653037, -1219173.6, -107780.27, 0.0, 9.999226, 9.999262 
2.0499648e+2, 1.9659293e+2, -1179629.6, -1203378.3, -63036.63, 0.13251735, 0.023359437, -1127358.8, -113968.61, 0.0, 9.999384, 9.999085 
2.050013e+2, 2.0659223e+2, -1041119.3, -1184000.5, -36774.42, 0.07951681, 0.098378144, -1032209.94, -116809.7, 0.0, 10.000091, 9.998204 
2.0500486e+2, 2.165907e+2, -797144.94, -1007761.25, -24621.244, -0.11112411, 0.11014687, -794304.94, 23113.67, 0.0, 10.001056, 9.998277 
2.0501086e+2, 2.2658908e+2, -642113.56, -834065.6, 4429.579, -0.09166506, 0.0972508, -642011.4, 77421.9, 0.0, 10.001243, 9.998704 
2.0501827e+2, 2.365874e+2, -586178.1, -769355.1, 4455.107, 0.046151854, 0.046559505, -586069.9, 35376.35, 0.0, 10.001007, 9.998591 
2.0502445e+2, 2.4658625e+2, -477466.75, -723646.5, 16678.49, 0.047587294, 0.10286026, -476341.94, 47117.516, 0.0, 10.001329, 9.998074 
2.0502993e+2, 2.5658527e+2, -287724.0, -588622.06, 12786.866, -0.027334794, 0.18107682, -287181.6, 138292.39, 0.0, 10.00199, 9.998011 
2.050364e+2, 2.6658276e+2, -204963.42, -528683.25, 22952.154, -0.027183399, 0.14699766, -203344.19, 124154.78, 0.0, 10.002021, 9.997736 
2.0504344e+2, 2.7657926e+2, -149976.27, -451964.9, 9531.773, 0.02272063, 0.009614662, -149675.7, 79855.65, 0.0, 10.001721, 9.997736 
2.0504884e+2, 2.8657687e+2, -26378.475, -332837.6, -5470.2954, -0.014731983, -0.004277623, -26280.861, 105272.5, 0.0, 10.001867, 9.99781 
2.0505321e+2, 2.9657552e+2, 134481.75, -202154.02, 23353.521, -0.10676139, 0.06415947, 136094.13, 169659.58, 0.00000036340376, 10.002288, 9.99783 
2.0505872e+2, 3.0657315e+2, 315997.4, -68991.36, 18120.92, -0.075374074, 0.036039844, 316848.44, 316848.44, 0.000006339283, 10.003115, 9.998018 
2.0506634e+2, 3.1657085e+2, 463878.66, 3858.2922, 84450.766, 0.15639102, -0.0034887686, 478892.2, 478892.2, 0.00003635789, 10.004104, 9.998036 
2.149516e+2, 1.2658459e+2, -2162856.5, -2027273.9, 28705.826, -0.15890102, -0.0077574896, -2021446.6, -321978.84, 0.0011227193, 9.997315, 9.999141 
2.1495971e+2, 1.3658497e+2, -1869722.5, -1721560.1, 6198.3423, -0.02079434, 0.022083104, -1721301.3, -119831.27, 0.0006268979, 9.998176, 10.000157 
2.1496531e+2, 1.4658527e+2, -1700402.4, -1565371.4, -51711.027, -0.08858324, 0.019858763, -1547843.5, -44373.82, 0.0002465844, 9.998561, 10.0003605 
2.1497115e+2, 1.5658571e+2, -1577538.4, -1467412.4, -2289.2827, -0.065375805, 0.023071514, -1467364.9, -61898.195, 0.000052325075, 9.998781, 10.000254 
2.1497703e+2, 1.6658653e+2, -1445700.5, -1329717.9, 2691.844, -0.06499184, 0.070865504, -1329655.5, -22196.945, 0.000002586899, 9.998918, 10.000458 
2.1498276e+2, 1.7658743e+2, -1338017.9, -1244738.6, -33726.863, -0.09558344, 0.10222848, -1233821.8, -24372.484, 0.000000000052014764, 9.999063, 10.0002985 
2.149888e+2, 1.8658753e+2, -1275660.3, -1254484.3, -66933.25, -0.049341407, 0.12933622, -1197306.8, -85858.11, 0.0, 9.999201, 9.999497 
2.1499507e+2, 1.9658713e+2, -1162881.5, -1165013.4, -47303.76, 0.041302174, 0.12771174, -1116631.6, -103178.61, 0.0, 9.999368, 9.999358 
2.150009e+2, 2.0658603e+2, -1019924.2, -1134069.9, -4717.574, 0.01903906, 0.12915267, -1019729.56, -104264.94, 0.0, 10.000064, 9.998559 
2.1500649e+2, 2.1658446e+2, -780402.6, -962351.4, 8934.711, -0.06692885, 0.10147312, -779964.94, 37515.883, 0.0, 10.001009, 9.9986105 
2.1501267e+2, 2.2658266e+2, -643084.94, -823180.44, -9887.064, -0.046116795, 0.049503904, -642543.8, 76951.164, 0.0, 10.001186, 9.998805 
2.1501923e+2, 2.3658067e+2, -588864.75, -762006.94, 6966.9146, 0.032488544, -0.0427488, -588584.9, 32923.813, 0.0, 10.000952, 9.998669 
2.1502566e+2, 2.465788e+2, -486182.9, -735524.2, 36882.723, 0.02561911, -0.05641418, -480841.6, 42686.44, 0.0, 10.001306, 9.998005 
2.1503204e+2, 2.5657696e+2, -302702.75, -602934.56, 36416.965, -0.026982976, -0.053535704, -298348.66, 127202.12, 0.0, 10.001921, 9.997946 
2.1503821e+2, 2.665758e+2, -213162.47, -539406.7, 7689.462, -0.059505537, 0.053525653, -212981.33, 114584.195, 0.0, 10.001993, 9.997673 
2.1504429e+2, 2.7657488e+2, -151968.4, -446790.3, 7977.4897, -0.07568047, 0.17895032, -151752.7, 77824.62, 0.0, 10.001681, 9.99779 
2.1505097e+2, 2.86573e+2, 33640.76, -204300.33, 3823.3271, -0.0012224383, 0.15986903, 33702.18, 165296.14, 0.0, 10.001853, 9.998699 
2.1505775e+2, 2.965708e+2, 174311.34, -111967.0, 45116.5, 0.10440908, 0.05536188, 181253.22, 214863.97, 0.0000004878426, 10.0022545, 9.998468 
2.1506222e+2, 3.0656883e+2, 282769.47, -131871.94, 53299.78, -0.048270505, 0.06789229, 289511.25, 289511.25, 0.0000063211505, 10.00309, 9.997599 
2.150674e+2, 3.165655e+2, 425773.28, -61893.914, 135330.78, -0.17418183, -0.03319203, 460811.03, 460811.03, 0.0000317033, 10.004045, 9.997617 
2.2494802e+2, 1.2657766e+2, -2374903.8, -2111123.8, -198761.16, -0.16502151, 0.06901745, -2004474.5, -304933.78, 0.0009915447, 9.99577, 9.999315 
2.2495946e+2, 1.3657767e+2, -1842599.1, -1685117.4, -9538.855, 0.1353693, 0.047366958, -1684541.6, -82997.08, 0.000545711, 9.998275, 10.000351 
2.2496536e+2, 1.4657833e+2, -1586200.9, -1445740.0, -57800.4, 0.03671355, 0.03798794, -1425013.4, 78525.1, 0.00020902291, 9.999059, 10.000949 
2.2496963e+2, 1.5657881e+2, -1534114.1, -1399525.1, -66237.57, -0.098464616, -0.0098806005, -1372395.3, 33137.035, 0.000042237294, 9.998875, 10.000679 
2.2497594e+2, 1.6657996e+2, -1460299.3, -1386858.5, -38048.03, -0.06703736, 0.07672506, -1370701.3, -63178.113, 0.0000020119714, 9.999028, 10.000015 
2.2498323e+2, 1.7658131e+2, -1325300.0, -1282604.4, -42221.242, 0.035783406, 0.19837777, -1256640.9, -47127.074, 0.0, 9.999333, 9.999913 
2.2498934e+2, 1.8658105e+2, -1126083.8, -1178843.0, -49005.59, 0.036671236, 0.20314047, -1096808.8, 14708.047, 0.0, 10.000214, 9.999526 
2.2499484e+2, 1.9657983e+2, -868891.2, -1016301.5, -58621.746, -0.015974952, 0.11700913, -848421.25, 165105.81, 0.0, 10.001363, 9.999416 
2.2500114e+2, 2.0657882e+2, -836779.3, -1013457.4, -36929.965, -0.01671231, 0.10958235, -829370.7, 86165.79, 0.0, 10.00118, 9.998853 
2.2500786e+2, 2.1657781e+2, -870629.8, -978478.3, -33960.168, 0.010538063, 0.1094207, -860827.1, -43280.5, 0.0, 10.000271, 9.998856 
2.250144e+2, 2.2657606e+2, -718297.2, -861153.2, -38403.25, 0.036948938, 0.051969416, -708627.94, 10932.442, 0.0, 10.000677, 9.998791 
2.2502087e+2, 2.365738e+2, -471403.78, -706640.8, -43725.355, 0.064847775, -0.06597413, -463539.16, 158037.83, 0.0, 10.001762, 9.998657 
2.2502732e+2, 2.4657203e+2, -440013.38, -720565.4, -21934.395, 0.046654675, -0.06733027, -438308.84, 85286.914, 0.0, 10.001645, 9.997948 
2.2503375e+2, 2.5657046e+2, -447316.56, -671125.3, -26524.525, 0.0055056014, -0.034122225, -444216.0, -18599.684, 0.0, 10.000912, 9.997967 
2.2504027e+2, 2.665696e+2, -273529.66, -529814.94, -8772.781, -0.020857122, 0.08294602, -273229.72, 54398.11, 0.0, 10.001413, 9.998019 
2.250469e+2, 2.7656907e+2, 2017.0627, -343191.9, 9394.919, -0.027356368, 0.20923102, 2272.5579, 231908.1, 0.0, 10.002611, 9.998054 
2.2505365e+2, 2.8656703e+2, 126332.78, -187974.22, -47490.27, 0.047128495, 0.18154074, 133351.6, 265005.25, 0.00000000075483947, 10.0026, 9.998457 
2.2506021e+2, 2.965644e+2, 105860.66, -171908.7, -94775.445, 0.1485037, 0.05865011, 135116.81, 168792.55, 0.00000073344995, 10.001891, 9.998236 
2.2506481e+2, 3.06563e+2, 130228.125, -207917.02, -51151.56, -0.040121596, 0.13709508, 137796.47, 137796.47, 0.000007274646, 10.002038, 9.997587 
2.2507094e+2, 3.1655934e+2, 253412.55, -112764.17, 42802.063, -0.15196759, -0.0022068701, 258349.1, 258349.1, 0.000030117351, 10.002698, 9.997925 
2.3494351e+2, 1.2656799e+2, -2127264.0, -1609401.5, -128724.06, -0.22297648, 0.27079135, -1579169.8, 120483.42, 0.0008595536, 9.995824, 10.002731 
2.3495923e+2, 1.3656919e+2, -1645119.6, -1287122.8, 67902.15, 0.27056602, 0.048212152, -1274676.3, 326952.75, 0.00046458573, 9.998313, 10.003072 
2.3496535e+2, 1.46571e+2, -1591014.5, -1451032.8, -71732.0, 0.11822544, 0.041215427, -1420802.8, 82804.32, 0.00017252294, 9.9990425, 10.000918 
2.3496737e+2, 1.56572e+2, -1531178.0, -1398638.9, -66786.09, -0.22712722, 0.04834301, -1370823.1, 34774.555, 0.000033446406, 9.998897, 10.000675 
2.3497444e+2, 1.6657285e+2, -1457817.8, -1378337.8, -32862.723, -0.1325359, 0.10409705, -1366510.0, -58917.45, 0.0000017722703, 9.999016, 10.000081 
2.3498416e+2, 1.765736e+2, -1320931.3, -1272248.1, -21606.195, 0.18313852, 0.15612258, -1264042.1, -54452.023, 0.0000000001389195, 9.99933, 9.999986 
2.3499072e+2, 1.8657276e+2, -1146789.4, -1215890.9, -8968.041, 0.1417381, 0.11293803, -1145644.5, -34046.29, 0.0, 10.000186, 9.999289 
2.3499556e+2, 1.9657096e+2, -880689.2, -1038564.2, -24464.736, -0.09247251, -0.0076778345, -876985.0, 136627.6, 0.0, 10.00135, 9.99927 
2.3500179e+2, 2.0657057e+2, -823373.94, -975175.6, -76121.87, -0.07903366, 0.035428684, -791778.4, 123838.04, 0.0, 10.001135, 9.999136 
2.3500885e+2, 2.1657082e+2, -861938.1, -951234.25, -51470.13, 0.069816194, 0.13358079, -838449.4, -20833.635, 0.0, 10.000228, 9.999064 
2.3501593e+2, 2.2656935e+2, -737717.1, -887995.8, 605.4063, 0.112315476, 0.10446191, -737714.7, -18085.574, 0.0, 10.000625, 9.9986315 
2.3502305e+2, 2.3656684e+2, -489421.6, -731279.5, -8161.975, 0.094756454, -0.019479968, -489146.47, 132504.36, 0.0, 10.001707, 9.998517 
2.350292e+2, 2.465659e+2, -446004.22, -723323.94, -55006.957, 0.057141565, 0.066336416, -435491.94, 88171.32, 0.0, 10.001607, 9.997945 
2.3503488e+2, 2.565657e+2, -449792.9, -660660.7, -39143.188, 0.014934042, 0.23755777, -442761.28, -17090.12, 0.0, 10.000848, 9.998068 
2.3504245e+2, 2.6656413e+2, -224390.33, -420488.47, 32452.842, 0.045086544, 0.2349967, -219159.17, 108527.016, 0.0, 10.001385, 9.998782 
2.3505104e+2, 2.7656168e+2, 23862.2, -280897.72, 49743.24, 0.11374781, 0.100069635, 31775.85, 261482.16, 0.0, 10.002541, 9.998514 
2.3505667e+2, 2.8655905e+2, 27645.531, -386692.8, -78449.35, 0.07770122, 0.06715742, 42001.453, 173733.47, 0.00000003119879, 10.002572, 9.997106 
2.350605e+2, 2.9655635e+2, 23782.732, -335101.16, -108659.19, -0.026209412, 0.07266532, 54117.41, 87877.625, 0.0000012360658, 10.001854, 9.997137 
2.3506634e+2, 3.065556e+2, 154455.39, -146332.75, -28122.9, -0.10221788, 0.24105543, 157062.22, 157062.22, 0.000009095323, 10.002, 9.998025 
2.3507652e+2, 3.1655234e+2, 309107.94, 27903.473, 75654.24, 0.1129534, 0.09250227, 328169.56, 328169.56, 0.00003154515, 10.0026, 9.998936 
2.4494186e+2, 1.2655883e+2, -1834309.9, -1387113.9, 133274.31, -0.047104917, 0.2626084, -1350408.0, 349337.75, 0.0007335385, 9.997486, 10.00346 
2.4495663e+2, 1.3656028e+2, -1655829.0, -1241448.6, 108358.58, 0.19954793, 0.013477978, -1214824.1, 386891.72, 0.00038622954, 9.998024, 10.003528 
2.4496335e+2, 1.465626e+2, -1716779.5, -1485828.6, -138424.94, 0.06547935, 0.027750231, -1421037.5, 82650.62, 0.00013762695, 9.998069, 10.001148 
2.4496655e+2, 1.5656406e+2, -1668838.8, -1443647.8, -116939.27, -0.14330092, 0.054437697, -1393908.6, 11766.609, 0.000025817635, 9.9978695, 10.000858 
2.4497394e+2, 1.6656497e+2, -1498549.4, -1412094.4, -41790.188, -0.07017034, 0.114841335, -1395196.8, -87526.01, 0.0000016011192, 9.998797, 9.999953 
2.4498355e+2, 1.7656554e+2, -1184916.4, -1215121.8, -61430.688, 0.14516906, 0.16244829, -1136759.1, 72912.15, 0.0000000006420841, 10.000296, 9.999914 
2.4499056e+2, 1.8656483e+2, -1136281.9, -1167310.1, -46354.707, 0.11453833, 0.11670658, -1102914.0, 8763.343, 0.0, 10.000078, 9.999668 
2.449961e+2, 1.9656338e+2, -1212573.5, -1161044.5, -23349.828, -0.048871342, -0.008145205, -1152038.0, -138350.89, 0.0, 9.998916, 9.9995985 
2.4500252e+2, 2.0656319e+2, -1051442.5, -1073503.9, -51056.586, -0.035903685, 0.035082553, -1010238.56, -94549.67, 0.0, 9.999521, 9.999239 
2.4500956e+2, 2.1656364e+2, -744625.3, -887591.06, -49390.637, 0.08070696, 0.14354439, -729221.8, 88465.016, 0.0, 10.001015, 9.999121 
2.4501695e+2, 2.2656243e+2, -635104.44, -871733.75, 6668.006, 0.11318421, 0.15460728, -634916.7, 84783.22, 0.0, 10.001463, 9.9983425 
2.4502458e+2, 2.3656021e+2, -558549.2, -780857.4, -21993.154, 0.10071958, 0.08412257, -556394.3, 65327.63, 0.0, 10.001307, 9.998367 
2.4503079e+2, 2.4655935e+2, -466968.47, -679655.0, -64929.797, 0.07769498, 0.15984721, -448713.3, 75018.87, 0.0, 10.001229, 9.998431 
2.4503627e+2, 2.5655916e+2, -367448.16, -576263.8, -14962.756, 0.055636305, 0.28452, -366381.47, 59355.195, 0.0, 10.001216, 9.998476 
2.45044e+2, 2.6655743e+2, -243263.11, -435647.44, 73177.52, 0.069469504, 0.24914913, -218592.2, 109159.91, 0.0, 10.001273, 9.998736 
2.4505292e+2, 2.7655476e+2, -150448.95, -374515.56, 17924.889, 0.10912119, 0.09343204, -149024.06, 80750.53, 0.0, 10.001384, 9.998428 
2.4505891e+2, 2.8655192e+2, -82470.164, -479419.25, -90465.445, 0.07680816, 0.065219134, -62825.152, 68977.86, 0.00000009388162, 10.001991, 9.996747 
2.4506305e+2, 2.96549e+2, 156130.52, -299017.84, -63407.844, -0.0047126776, 0.08192853, 164798.92, 198633.56, 0.0000018075962, 10.0028925, 9.99688 
2.4506876e+2, 3.06548e+2, 214554.39, -110832.55, 26641.59, -0.07482647, 0.23400071, 216721.28, 216721.28, 0.000010445255, 10.002383, 9.998086 
2.4507912e+2, 3.1654492e+2, 113833.445, 543.7392, 78234.96, 0.20168966, 0.092617445, 153777.14, 153777.14, 0.00003251449, 10.00098, 9.999522 
2.5494283e+2, 1.2655035e+2, -1966753.4, -1673049.3, 131069.805, 0.27504608, 0.05062479, -1623064.3, 76752.336, 0.0006147494, 9.99753, 10.001479 
2.5495154e+2, 1.3655096e+2, -1779788.3, -1504976.4, 127162.78, -0.124573536, -0.06057327, -1455163.9, 146640.5, 0.00031221876, 9.99805, 10.001708 
2.5495926e+2, 1.4655316e+2, -1683907.8, -1420664.1, -151274.14, -0.16468394, -0.0060645468, -1351766.3, 152015.02, 0.00010529937, 9.998079, 10.00159 
2.5496697e+2, 1.5655488e+2, -1642633.6, -1391387.3, -110470.88, 0.09857289, -0.0008487039, -1349723.3, 56042.348, 0.000019009012, 9.997876, 10.001213 
2.5497425e+2, 1.6655616e+2, -1525179.0, -1462683.0, 11847.669, 0.070059076, 0.10165119, -1460512.4, -152754.03, 0.0000013062046, 9.99878, 9.999614 
2.5498125e+2, 1.765572e+2, -1194006.4, -1233328.3, -15528.701, -0.12712319, 0.2285396, -1188613.5, 21142.383, 0.000000000635992, 10.000298, 9.999785 
2.5498864e+2, 1.865574e+2, -1069638.1, -1027014.44, -94977.65, -0.09548684, 0.22237337, -950986.94, 160766.27, 0.0, 10.000066, 10.00064 
2.549963e+2, 1.9655703e+2, -1156770.6, -1043083.7, -47696.59, 0.065572634, 0.108467355, -1025723.8, -11972.514, 0.0, 9.998902, 10.000416 
2.550032e+2, 2.065566e+2, -1068136.0, -1096260.0, 2295.0242, 0.0720806, 0.10013907, -1067949.9, -152195.11, 0.0, 9.999471, 9.999107 
2.5500974e+2, 2.1655607e+2, -759963.75, -914669.9, 2230.804, -0.012083182, 0.12428337, -759931.56, 57830.27, 0.0, 10.000989, 9.998949 
2.5501725e+2, 2.2655512e+2, -666655.7, -926111.44, -4566.358, -0.012740458, 0.19056416, -666575.4, 53198.957, 0.0, 10.001416, 9.997992 
2.5502533e+2, 2.365538e+2, -574842.1, -804779.4, -22316.98, 0.033209775, 0.2424249, -572696.2, 49094.793, 0.0, 10.00126, 9.998227 
2.5503194e+2, 2.4655241e+2, -403075.44, -537644.25, -69479.17, 0.060242582, 0.2131486, -373640.94, 150161.88, 0.0, 10.001194, 9.99942 
2.5503778e+2, 2.565509e+2, -325654.22, -477399.28, -11949.984, 0.07438077, 0.107859, -324718.94, 101093.95, 0.0, 10.0011635, 9.99918 
2.5504476e+2, 2.6654953e+2, -306459.38, -560558.3, 72732.34, 0.008902045, 0.1275024, -287113.63, 40712.188, 0.0, 10.001246, 9.997892 
2.5505242e+2, 2.7654812e+2, -202635.44, -469524.53, 31919.045, -0.093719535, 0.18344833, -198871.11, 30970.23, 0.0, 10.001323, 9.997809 
2.5506014e+2, 2.8654552e+2, -45847.664, -393063.5, -61831.844, -0.012293438, 0.17067233, -35165.36, 96702.16, 0.00000013919723, 10.001952, 9.997355 
2.5506762e+2, 2.9654217e+2, 181954.67, -230279.6, -37110.96, 0.1503214, 0.084936455, 185268.9, 219169.2, 0.0000021199414, 10.002828, 9.997381 
2.5507188e+2, 3.0654007e+2, 192618.42, -149281.45, -28099.24, -0.012590331, 0.116901144, 194912.38, 194912.38, 0.000010666905, 10.002358, 9.99783 
2.550785e+2, 3.165368e+2, 117967.92, 19166.672, 38646.504, 0.014125087, -0.01419075, 131288.69, 131288.69, 0.00003213242, 10.000941, 9.999667 
2.649427e+2, 1.2654392e+2, -1587547.5, -1602768.9, 97872.4, 0.36059186, 0.027018193, -1496990.4, 202882.39, 0.0005062773, 10.000616, 10.000463 
2.6494834e+2, 1.3654381e+2, -1965401.8, -1721074.4, 169236.03, -0.2077247, -0.03815059, -1634516.3, -32642.361, 0.0002464049, 9.9973135, 10.000579 
2.6495683e+2, 1.4654534e+2, -1758529.5, -1477003.6, -19834.678, -0.18971996, 0.009285181, -1475613.1, 28245.709, 0.00007758306, 9.99766, 10.001406 
2.6496702e+2, 1.5654646e+2, -1318280.5, -1248541.8, -43080.906, 0.20636648, -0.026491687, -1227986.9, 177860.86, 0.000013419433, 10.000158, 10.001095 
2.649744e+2, 1.6654766e+2, -1302121.4, -1342438.4, 61630.875, 0.1356389, 0.06298148, -1257436.0, 50404.586, 0.0000010267595, 10.000256, 9.999732 
2.6498017e+2, 1.7654887e+2, -1374892.0, -1305224.6, 58860.07, -0.197151, 0.1964944, -1271663.1, -61827.832, 0.0000000012219834, 9.99899, 9.999923 
2.6498786e+2, 1.865495e+2, -1185485.3, -1062271.1, -46291.98, -0.13504104, 0.21667778, -1046817.4, 65011.99, 0.0, 9.999181, 10.000826 
2.6499662e+2, 1.965497e+2, -962294.1, -930859.06, -61223.9, 0.14887062, 0.14160171, -883367.4, 130456.695, 0.0, 10.000158, 10.000584 
2.6500374e+2, 2.0654935e+2, -877136.44, -990062.25, 21234.348, 0.11936781, 0.12711588, -873275.56, 42551.496, 0.0, 10.000733, 9.999224 
2.6501e+2, 2.1654864e+2, -743811.4, -892042.25, 22548.047, -0.08508288, 0.12231961, -740457.4, 77377.86, 0.0, 10.001044, 9.999075 
2.6501754e+2, 2.265477e+2, -743373.75, -928528.5, 18227.121, -0.08811581, 0.1684785, -741596.5, -21750.041, 0.0, 10.00074, 9.9983015 
2.6502588e+2, 2.365466e+2, -727455.75, -851036.6, 42135.164, 0.026253335, 0.21332681, -714456.94, -92597.266, 0.0, 10.000093, 9.998474 
2.6503286e+2, 2.4654506e+2, -476713.8, -581187.75, 4619.268, 0.0570507, 0.16187531, -476509.97, 47362.133, 0.0, 10.000723, 9.999348 
2.6503903e+2, 2.565432e+2, -201621.52, -423398.34, -26322.838, 0.04139015, 0.026172379, -198540.05, 227344.84, 0.0, 10.002052, 9.999114 
2.6504597e+2, 2.665418e+2, -209358.8, -536439.25, 36795.742, -0.031559374, 0.061922144, -205270.47, 122628.15, 0.0, 10.002013, 9.997685 
2.6505336e+2, 2.765407e+2, -224272.19, -488497.47, 40432.707, -0.119830206, 0.1688102, -218223.5, 11689.573, 0.0, 10.001219, 9.997725 
2.650618e+2, 2.8653866e+2, -88696.586, -361484.8, 5728.0522, -0.0088956645, 0.18479322, -88576.36, 43357.523, 0.00000017298198, 10.001429, 9.997826 
2.650705e+2, 2.965359e+2, 111663.75, -223112.31, 3002.7715, 0.19297591, 0.11144012, 111690.68, 145650.16, 0.0000022646286, 10.002167, 9.997748 
2.6507452e+2, 3.0653292e+2, 189021.25, -222396.44, -39704.063, 0.007993919, 0.072551094, 192817.88, 192817.88, 0.000010678338, 10.0026245, 9.99721 
2.6508042e+2, 3.1652933e+2, 353745.0, 73971.39, -19830.072, 0.022534797, -0.02433752, 355143.53, 355143.53, 0.000032089163, 10.002793, 9.999162 
2.7494106e+2, 1.265395e+2, -1587297.1, -1610713.5, -48132.223, 0.0992729, 0.18392643, -1549469.5, 150445.52, 0.00041453895, 10.000648, 10.000392 
2.749468e+2, 1.365388e+2, -1986594.9, -1772876.0, 73995.36, -0.10578074, 0.087562375, -1749757.5, -147833.33, 0.00019313562, 9.997345, 10.000205 
2.7495596e+2, 1.4653917e+2, -1813968.4, -1594610.9, 68492.53, -0.05589247, 0.08243616, -1574981.3, -71060.97, 0.000056136425, 9.997671, 10.000594 
2.7496666e+2, 1.565389e+2, -1357326.0, -1332805.8, 35453.64, 0.13589168, -0.0118536865, -1307552.3, 98368.695, 0.000009372096, 10.0001745, 10.00051 
2.7497417e+2, 1.6653948e+2, -1259475.0, -1253845.5, 7641.6387, 0.07719049, 0.0053684716, -1248516.6, 59400.08, 0.0000008660051, 10.000256, 10.000338 
2.7498007e+2, 1.7654048e+2, -1348361.1, -1247238.8, 27433.746, -0.11823095, 0.057345927, -1240275.6, -30365.488, 0.000000004874734, 9.998979, 10.000324 
2.7498794e+2, 1.8654108e+2, -1236086.5, -1157147.8, -13442.979, -0.053712305, 0.09479723, -1154921.3, -43014.816, 0.0, 9.99914, 10.000193 
2.749969e+2, 1.9654143e+2, -998591.7, -999645.2, -23012.408, 0.14873649, 0.09614207, -976100.0, 37804.64, 0.0, 10.000135, 10.000119 
2.7500403e+2, 2.0654152e+2, -858684.0, -944926.0, 29016.246, 0.062376186, 0.12733607, -849830.4, 66074.164, 0.0, 10.0007, 9.999552 
2.7501017e+2, 2.1654129e+2, -720337.6, -832610.44, 34922.77, -0.18657087, 0.13531664, -710361.3, 107545.766, 0.0, 10.000996, 9.999508 
2.7501774e+2, 2.2654013e+2, -689182.25, -802276.75, -11680.573, -0.15534842, 0.087873906, -687988.44, 31928.035, 0.0, 10.000682, 9.999197 
2.750261e+2, 2.3653845e+2, -693539.9, -768587.9, 32408.28, 0.03108451, -0.012598288, -681482.1, -59552.38, 0.0, 10.000042, 9.999065 
2.7503332e+2, 2.4653715e+2, -558373.7, -739864.06, 51205.348, 0.023417016, -0.0025890083, -544923.5, -20982.188, 0.0, 10.000681, 9.998276 
2.7503985e+2, 2.5653592e+2, -270086.66, -552276.4, 16341.232, -0.09608436, 0.031314444, -269143.5, 156809.83, 0.0, 10.001991, 9.99826 
2.7504742e+2, 2.665343e+2, -187156.4, -476466.63, 250.22606, -0.09911728, 0.05467142, -187156.19, 140814.31, 0.0, 10.00196, 9.998122 
2.7505565e+2, 2.7653247e+2, -202067.77, -432393.1, 24445.828, -0.029824432, 0.045629974, -199501.77, 30489.0, 0.00000000009324417, 10.001176, 9.998131 
2.750638e+2, 2.865312e+2, -63869.652, -307543.0, 29396.21, 0.033933982, 0.102266565, -60373.52, 71629.89, 0.00000023612336, 10.001419, 9.9981985 
2.7507156e+2, 2.9653007e+2, 120289.016, -197970.23, 33281.883, 0.064631104, 0.15362054, 123732.21, 157745.73, 0.0000024951785, 10.002125, 9.997944 
2.7507642e+2, 3.065265e+2, 119768.984, -349350.22, -35979.066, -0.075157285, 0.097850025, 122512.36, 122512.36, 0.000011113361, 10.002573, 9.99635 
2.7508438e+2, 3.1652248e+2, 258189.27, -97384.586, -10690.007, 0.11162399, 0.048452415, 258510.36, 258510.36, 0.000032683794, 10.002689, 9.998026 
2.8493938e+2, 1.2653165e+2, -2069492.0, -1820531.8, -118499.84, 0.041111723, 0.08512107, -1773147.0, -73159.164, 0.0003410361, 9.997254, 10.000581 
2.8494614e+2, 1.3653211e+2, -1677141.3, -1630138.0, 9588.75, -0.010691608, 0.10733504, -1628257.1, -26269.346, 0.00015204525, 9.999509, 10.000134 
2.849554e+2, 1.4653218e+2, -1538832.5, -1498400.4, 90977.52, 0.025168749, 0.09303875, -1425419.9, 78567.3, 0.000040681283, 9.999717, 10.000266 
2.8496516e+2, 1.5653114e+2, -1576888.8, -1464771.0, 75741.22, 0.044281866, -0.047522463, -1426599.8, -20605.21, 0.0000066741927, 9.998779, 10.000277 
2.8497294e+2, 1.665316e+2, -1454492.1, -1323633.4, 14178.185, 0.0006288901, -0.04474002, -1322114.8, -14124.13, 0.00000074756446, 9.998815, 10.000555 
2.849797e+2, 1.7653276e+2, -1276949.3, -1200831.3, -592.03174, -0.070473775, 0.005491475, -1200826.6, 9154.883, 0.000000006090155, 9.9994135, 10.000439 
2.8498775e+2, 1.8653327e+2, -1197728.0, -1183764.6, -4367.2773, -0.005827665, 0.052225474, -1182511.3, -70530.914, 0.0, 9.999602, 9.999784 
2.8499648e+2, 1.965334e+2, -1107185.1, -1086490.6, -9982.165, 0.12634791, 0.0722564, -1082460.5, -68476.86, 0.0, 9.999537, 9.999812 
2.8500372e+2, 2.0653382e+2, -988474.2, -969117.3, 48172.676, 0.017559072, 0.12878314, -929660.44, -13679.773, 0.0, 9.999635, 9.999897 
2.8501013e+2, 2.1653424e+2, -871817.3, -870580.56, 44072.137, -0.22363342, 0.16642843, -827122.5, -9146.82, 0.0, 9.9998045, 9.999818 
2.8501827e+2, 2.2653311e+2, -689767.44, -793050.2, -29170.652, -0.16334751, 0.104429245, -682098.1, 37885.863, 0.0, 10.000642, 9.999278 
2.8502735e+2, 2.3653108e+2, -433263.9, -640015.0, -53617.98, 0.06489737, -0.039304797, -420186.06, 201814.25, 0.0, 10.001817, 9.999093 
2.8503457e+2, 2.4652964e+2, -449329.13, -722017.56, -12244.397, 0.037015103, -0.027310403, -448780.4, 75233.69, 0.0, 10.001571, 9.997973 
2.8504074e+2, 2.5652847e+2, -493596.72, -683803.75, -1413.7751, -0.13046025, 0.044424023, -493586.2, -67559.34, 0.0, 10.000558, 9.99805 
2.8504878e+2, 2.6652694e+2, -348839.03, -526335.06, -323.99, -0.09081655, 0.06917472, -348838.44, -20795.861, 0.0, 10.000724, 9.998377 
2.8505805e+2, 2.7652514e+2, -141623.67, -384717.28, 3253.3003, 0.08022393, 0.0365434, -141580.14, 88480.67, 0.0000000018932573, 10.00151, 9.998298 
2.8506613e+2, 2.8652352e+2, 948.19763, -335481.25, -6499.3457, 0.09167217, 0.08288787, 1073.7091, 133151.06, 0.00000028816427, 10.002119, 9.997676 
2.850732e+2, 2.96522e+2, 173582.72, -207033.75, -75014.914, -0.006282991, 0.1481135, 187833.67, 221926.97, 0.0000027347362, 10.002651, 9.997628 
2.8507882e+2, 3.065187e+2, 265724.88, -230348.83, -104006.164, -0.12443476, 0.102422506, 286648.2, 286648.2, 0.000011990512, 10.0033455, 9.996805 
2.850886e+2, 3.1651554e+2, 416227.88, -24525.967, -16487.646, 0.21711369, 0.097446926, 416843.78, 416843.78, 0.000033758955, 10.003788, 9.998 
2.9493722e+2, 1.265205e+2, -2041173.3, -1770511.3, -49023.19, 0.06789083, -0.2674532, -1761905.6, -61815.54, 0.00028049768, 9.997285, 10.000914 
2.9494613e+2, 1.3652372e+2, -1659648.9, -1607289.0, 79255.52, 0.020543834, 0.012537701, -1550001.5, 52063.31, 0.000119661214, 9.99956, 10.00027 
2.94955e+2, 1.4652425e+2, -1524218.4, -1472671.0, 46128.973, -0.008072648, 0.031969737, -1445603.8, 58456.527, 0.000029635712, 9.999735, 10.000436 
2.9496232e+2, 1.5652311e+2, -1570224.8, -1449303.1, 51594.813, -0.13008769, -0.13638453, -1430281.0, -24211.902, 0.0000047316526, 9.998771, 10.000388 
2.949704e+2, 1.6652396e+2, -1469682.6, -1351202.8, 33150.96, -0.14678289, -0.087456726, -1342557.9, -34495.203, 0.00000054097734, 9.998797, 10.000373 
2.9497895e+2, 1.7652582e+2, -1286921.8, -1224693.3, 24183.08, -0.10341674, 0.048488554, -1216400.4, -6351.7417, 0.0000000012704189, 9.999429, 10.000265 
2.9498714e+2, 1.8652612e+2, -1213211.0, -1213236.9, -12341.372, -0.041841023, 0.092987314, -1200882.6, -88831.95, 0.0, 9.99959, 9.999589 
2.949952e+2, 1.9652553e+2, -1119348.0, -1106575.0, -6903.706, 0.028879656, 0.06045464, -1103556.8, -89494.84, 0.0, 9.999515, 9.999685 
2.9500264e+2, 2.0652615e+2, -971022.1, -921932.7, 50856.188, -0.06447043, 0.12341307, -890008.0, 26048.273, 0.0, 9.999588, 10.000244 
2.950098e+2, 2.1652739e+2, -865727.56, -845073.75, 61576.086, -0.2510705, 0.21035746, -792964.6, 25077.197, 0.0, 9.99975, 10.000018 
2.9501903e+2, 2.2652659e+2, -749570.7, -899903.5, 11041.976, -0.1604579, 0.21096075, -748764.0, -28714.324, 0.0, 10.000569, 9.998578 
2.950295e+2, 2.3652449e+2, -481410.2, -722390.2, -15487.843, 0.08448964, 0.13313147, -480418.88, 141652.22, 0.0, 10.001743, 9.998562 
2.9503644e+2, 2.4652258e+2, -421035.6, -655302.8, -55797.883, 0.05668434, 0.09441351, -408424.5, 115664.98, 0.0, 10.0015335, 9.998452 
2.950415e+2, 2.5652075e+2, -469462.06, -627723.4, -25080.525, -0.11993785, 0.052787904, -465582.5, -39476.043, 0.0, 10.000527, 9.998454 
2.9504997e+2, 2.6651952e+2, -344712.06, -513371.9, 25976.383, -0.057877723, 0.08747786, -340801.94, -12685.219, 0.0, 10.000705, 9.998476 
2.9506037e+2, 2.7651855e+2, -156084.78, -407063.75, 35018.246, 0.14603664, 0.13081303, -151290.39, 78834.15, 0.0000000016821552, 10.001472, 9.998165 
2.9506853e+2, 2.8651568e+2, -98354.26, -534292.6, 7674.2104, 0.11146526, 0.13212688, -98219.2, 33936.316, 0.00000022409213, 10.002088, 9.996326 
2.950752e+2, 2.9651174e+2, 107318.51, -339743.8, -43109.453, -0.08776839, 0.089628994, 111437.52, 145636.47, 0.0000026529046, 10.002623, 9.996736 
2.950816e+2, 3.0650946e+2, 383784.16, 27766.525, -86337.87, -0.19926487, 0.081427276, 403617.1, 403617.1, 0.000012335517, 10.003301, 9.998593 
2.9509255e+2, 3.1650817e+2, 479903.6, 126510.79, -80.12301, 0.20568264, 0.09158374, 479903.63, 479903.63, 0.000034800534, 10.003712, 9.999069 
3.049355e+2, 1.2651217e+2, -1638057.6, -1594991.0, -9379.014, 0.027939657, -0.3354172, -1593037.1, 107132.734, 0.00022859985, 10.000126, 10.000759 
3.0494508e+2, 1.3651524e+2, -1720612.5, -1651463.4, 64616.51, -0.020235853, -0.047527794, -1612752.9, -10605.752, 0.00009393993, 9.999194, 10.000152 
3.0495423e+2, 1.4651614e+2, -1589610.4, -1436623.1, 20863.9, -0.016155202, -0.020854946, -1433828.8, 70309.914, 0.000021636553, 9.999005, 10.001029 
3.049611e+2, 1.5651636e+2, -1457869.4, -1343567.3, 45837.91, -0.15096106, -0.10897103, -1327456.0, 78676.86, 0.0000030875526, 9.999327, 10.00084 
3.0496928e+2, 1.665172e+2, -1423642.6, -1358723.3, 59948.32, -0.15659277, -0.065152615, -1323010.9, -14884.447, 0.0000002653173, 9.999239, 10.000107 
3.0497825e+2, 1.7651822e+2, -1378660.6, -1289189.8, 38994.426, -0.086551666, 0.010906106, -1274580.3, -64459.05, 0.0, 9.998894, 10.000076 
3.0498654e+2, 1.8651861e+2, -1250825.5, -1225849.6, 28927.838, -0.041791357, 0.06837116, -1206829.4, -94706.8, 0.0, 9.999303, 9.999646 
3.0499452e+2, 1.9651861e+2, -1029082.7, -1059589.8, 42688.973, -0.011526694, 0.09044179, -999003.94, 15124.037, 0.0, 10.000112, 9.999725 
3.0500248e+2, 2.0651884e+2, -867549.0, -879529.25, 86018.68, -0.07464464, 0.11685061, -787312.1, 128813.12, 0.0, 10.000332, 10.000179 
3.0501035e+2, 2.1651915e+2, -807062.56, -830242.94, 58126.89, -0.1877928, 0.11774075, -759381.6, 58737.188, 0.0, 10.000204, 9.999908 
3.0501977e+2, 2.2651845e+2, -854617.44, -978435.0, 42092.207, -0.11177125, 0.14853811, -841663.4, -121536.33, 0.0, 9.999967, 9.998329 
3.0502996e+2, 2.365171e+2, -794951.75, -892374.1, 37604.086, 0.06815081, 0.16705634, -782125.56, -159981.22, 0.0, 9.999678, 9.998385 
3.050372e+2, 2.4651547e+2, -552835.25, -694935.8, 2544.2153, 0.033131965, 0.15191363, -552789.75, -28628.877, 0.0, 10.000536, 9.998654 
3.0504277e+2, 2.5651366e+2, -232313.2, -495270.3, 7215.8975, -0.12140104, 0.089891806, -232115.33, 194062.03, 0.0, 10.00209, 9.998603 
3.050513e+2, 2.665122e+2, -94911.22, -427141.6, 44695.035, -0.08591816, 0.108398646, -89003.44, 239186.0, 0.0, 10.00257, 9.998169 
3.0506152e+2, 2.765108e+2, -32539.744, -377042.9, 16819.723, 0.07012849, 0.14196445, -31720.5, 198479.78, 0.00000000014964384, 10.002452, 9.997899 
3.0507043e+2, 2.8650743e+2, -43671.477, -502073.63, 54274.813, 0.08021476, 0.10285695, -37332.984, 94902.03, 0.00000013461268, 10.002441, 9.996371 
3.0507836e+2, 2.9650304e+2, 85967.31, -340789.06, 97076.086, -0.01860943, 0.011460469, 107011.86, 141293.44, 0.0000024042524, 10.002454, 9.996798 
3.0508494e+2, 3.0650157e+2, 329590.16, 14263.425, 29526.275, -0.16630758, 0.0707929, 332331.1, 332331.1, 0.000011969342, 10.002861, 9.99872 
3.0509531e+2, 3.1650013e+2, 410405.28, 80709.5, -34005.94, 0.13983496, 0.055674285, 413876.25, 413876.25, 0.00003458678, 10.003265, 9.998982 
3.1493384e+2, 1.2650676e+2, -1671924.9, -1674137.0, -51418.594, -0.17951053, -0.1101647, -1621600.4, 78626.31, 0.00018624985, 10.000178, 10.000185 
3.149427e+2, 1.3650686e+2, -1743538.0, -1699150.6, 37483.9, -0.18789583, -0.064677514, -1677782.9, -75549.64, 0.00007443096, 9.999207, 9.999816 
3.1495297e+2, 1.4650795e+2, -1524204.3, -1301319.0, 27248.492, -0.05697963, -0.056741394, -1298036.3, 206185.05, 0.000015949841, 9.999003, 10.00196 
3.1496137e+2, 1.5651087e+2, -1402277.3, -1235355.4, 59225.797, -0.07352282, 0.03288576, -1216476.5, 189709.92, 0.00000170519, 9.999353, 10.001573 
3.1496945e+2, 1.6651125e+2, -1445104.9, -1402964.4, 39696.92, -0.076436, 0.016687686, -1379092.4, -70909.45, 0.000000057148895, 9.999238, 9.9998045 
3.149774e+2, 1.7650995e+2, -1394306.0, -1320991.3, 35055.668, -0.0704867, -0.10923485, -1306927.1, -96727.766, 0.0, 9.99889, 9.99986 
3.1498578e+2, 1.8651074e+2, -1230139.0, -1180396.3, 55254.31, -0.05971441, -0.020355064, -1144673.8, -32477.684, 0.0, 9.999289, 9.999967 
3.1499442e+2, 1.965127e+2, -1018318.7, -1029132.2, 72930.12, -0.04935652, 0.1634075, -950595.2, 63586.504, 0.0, 10.000077, 9.999951 
3.15003e+2, 2.0651194e+2, -911747.8, -955851.1, 75350.28, -0.060785674, 0.11060669, -855288.7, 60898.86, 0.0, 10.00027, 9.999683 
3.1501168e+2, 2.1650957e+2, -843457.56, -891860.6, 56867.53, -0.0862105, -0.1058815, -805855.94, 12350.094, 0.0, 10.000148, 9.99951 
3.1502023e+2, 2.2650883e+2, -845211.3, -948845.5, 26405.238, -0.0726971, -0.07627459, -838871.3, -118655.97, 0.0, 9.999923, 9.998554 
3.1502873e+2, 2.3650889e+2, -787961.1, -868572.56, 41853.97, -0.037544396, 0.06349968, -770160.9, -147940.64, 0.0, 9.999635, 9.998572 
3.1503668e+2, 2.4650824e+2, -557278.75, -701255.94, 55969.992, -0.087460056, 0.13924047, -538080.75, -13851.853, 0.0, 10.000522, 9.998618 
3.1504434e+2, 2.565071e+2, -248419.17, -515773.84, 58932.746, -0.18623446, 0.15241063, -236005.1, 190234.95, 0.0, 10.002032, 9.998491 
3.150527e+2, 2.665049e+2, -145788.02, -525445.3, 36112.035, -0.21614717, 0.13842268, -142383.66, 185876.7, 0.0, 10.002538, 9.997512 
3.1506136e+2, 2.765019e+2, -62273.582, -429009.06, 19653.164, -0.20106308, 0.070820175, -61223.387, 169064.38, 0.00000000001473293, 10.002407, 9.997565 
3.150716e+2, 2.8649876e+2, 47492.563, -303668.72, 48266.473, -0.056648042, -0.008208102, 54005.89, 186322.19, 0.000000108201135, 10.002406, 9.997749 
3.1508246e+2, 2.9649583e+2, 139916.83, -212221.7, 104867.24, 0.12996687, -0.09289087, 168780.53, 203123.7, 0.0000022594174, 10.0023775, 9.99772 
3.1508875e+2, 3.0649483e+2, 223287.8, -190516.73, 45726.633, -0.08088618, 0.06234509, 228280.48, 228280.48, 0.00001165084, 10.002802, 9.997336 
3.1509656e+2, 3.164915e+2, 321405.28, -80395.695, -16757.729, -0.090654634, -0.0108181, 322102.97, 322102.97, 0.000033846463, 10.003174, 9.997913 
3.2493216e+2, 1.2650006e+2, -2055102.5, -1830915.0, -32108.418, -0.22190088, 0.0041383333, -1826407.0, -126111.87, 0.00015560584, 9.997415, 10.000445 
3.2494113e+2, 1.3650015e+2, -1757948.1, -1672882.3, 93777.32, -0.24622919, 0.011033281, -1612443.1, -10144.223, 0.000061447354, 9.998959, 10.000116 
3.2495195e+2, 1.4650053e+2, -1538172.5, -1353645.4, 49389.41, -0.060508553, -0.041672416, -1341257.6, 163035.64, 0.000012624197, 9.999094, 10.001561 
3.249605e+2, 1.565029e+2, -1532095.1, -1330078.8, -22817.785, -0.051448546, 0.029229293, -1327533.5, 78731.28, 0.0000008198343, 9.998599, 10.0012865 
3.2496876e+2, 1.6650312e+2, -1484848.4, -1399595.4, -35660.83, -0.04854326, -0.0025668957, -1386645.6, -78383.32, 0.000000004124255, 9.998874, 10.000002 
3.2497686e+2, 1.7650186e+2, -1284512.1, -1250146.1, -12881.568, -0.0449857, -0.14046289, -1245853.8, -35576.715, 0.0, 9.999562, 10.000025 
3.2498533e+2, 1.8650281e+2, -1165294.1, -1133801.4, 22746.285, -0.052621923, -0.05100384, -1121882.9, -9611.851, 0.0, 9.999677, 10.000092 
3.2499397e+2, 1.9650497e+2, -1105661.6, -1063525.4, 13614.28, -0.06824409, 0.14104274, -1059509.4, -45255.76, 0.0, 9.999452, 10.000011 
3.2500312e+2, 2.0650409e+2, -1016892.0, -1031465.44, 28135.178, -0.04475911, 0.08546055, -995115.25, -78853.85, 0.0, 9.999653, 9.999463 
3.2501262e+2, 2.1650146e+2, -863698.94, -911895.4, 21346.424, 0.0012832189, -0.13647756, -855604.1, -37319.926, 0.0, 10.000055, 9.999416 
3.250208e+2, 2.2650087e+2, -738496.0, -835239.25, 19849.314, -0.030060837, -0.11768624, -734581.75, -14290.936, 0.0, 10.000382, 9.999116 
3.250282e+2, 2.3650135e+2, -604138.06, -733680.2, 57361.996, -0.10240894, 0.0065725655, -582389.25, 39900.004, 0.0, 10.000691, 9.998992 
3.250371e+2, 2.465006e+2, -510109.1, -730756.5, 101736.1, -0.12493697, 0.0811962, -470360.97, 53937.938, 0.0, 10.001066, 9.9981575 
3.2504675e+2, 2.5649908e+2, -353099.97, -614873.0, 60581.707, -0.11966322, 0.10062881, -339759.5, 86555.945, 0.0, 10.001519, 9.99806 
3.250554e+2, 2.6649675e+2, -251401.38, -603503.8, 26235.55, -0.16292426, 0.10660554, -249457.28, 78881.54, 0.0, 10.001931, 9.997265 
3.250635e+2, 2.7649376e+2, -84762.6, -452665.5, 26612.598, -0.22201009, 0.065700404, -82847.52, 147520.45, 0.00000000010851988, 10.002314, 9.997444 
3.2507357e+2, 2.8649095e+2, 38891.1, -243870.3, 25471.56, -0.08184374, -0.008391534, 41167.293, 173560.14, 0.00000014601811, 10.002063, 9.99833 
3.2508454e+2, 2.9648852e+2, 34296.723, -218045.05, 20920.053, 0.15092647, -0.09987554, 36019.313, 70432.09, 0.000002235968, 10.001454, 9.998125 
3.250914e+2, 3.0648804e+2, 46517.39, -339370.84, 22815.996, -0.043555114, 0.12044614, 47861.723, 47861.723, 0.000011376777, 10.001866, 9.996763 
3.2509944e+2, 3.1648415e+2, 263397.78, -104847.945, -12924.842, -0.09417799, 0.04281545, 263850.88, 263850.88, 0.000032649332, 10.002767, 9.997937 
3.349301e+2, 1.2649198e+2, -1970561.8, -1658069.6, 26041.582, -0.20186038, 0.009788496, -1655914.4, 44461.457, 0.00013659472, 9.997426, 10.001624 
3.3494025e+2, 1.3649501e+2, -1686303.4, -1529342.1, 138472.45, -0.24521494, 0.1758087, -1448656.8, 153688.58, 0.000054929977, 9.998984, 10.001086 
3.34951e+2, 1.4649379e+2, -1655407.9, -1596521.0, 22383.969, -0.07539105, 0.015208455, -1588978.5, -84622.51, 0.000011796083, 9.999095, 9.99989 
3.349583e+2, 1.5649252e+2, -1623379.1, -1519212.1, -30626.588, -0.1449615, -0.11386687, -1510874.9, -104507.8, 0.00000057438905, 9.998601, 9.999985 
3.3496693e+2, 1.6649288e+2, -1439422.0, -1304293.1, -13681.11, -0.12961654, -0.11551559, -1302922.0, 5441.811, 0.00000000201948, 9.998868, 10.00066 
3.3497643e+2, 1.7649397e+2, -1244674.3, -1169345.3, 12548.078, -0.05802561, -0.08346597, -1167310.1, 43044.035, 0.0, 9.999567, 10.00058 
3.3498496e+2, 1.8649478e+2, -1177607.5, -1150637.5, 8961.49, -0.06823052, -0.026072271, -1147931.4, -35583.53, 0.0, 9.999639, 9.999995 
3.3499295e+2, 1.9649538e+2, -1114042.0, -1076370.6, 13162.373, -0.12500626, 0.020909408, -1072227.4, -57883.445, 0.0, 9.999433, 9.999932 
3.3500254e+2, 2.0649529e+2, -1018231.94, -1024625.7, 39298.863, -0.07690388, 0.04290201, -982000.1, -65653.4, 0.0, 9.999614, 9.999527 
3.3501303e+2, 2.1649472e+2, -858145.94, -884821.2, 40615.36, 0.026578031, 0.01826205, -828734.3, -10380.285, 0.0, 9.999991, 9.999631 
3.3502126e+2, 2.2649452e+2, -683279.25, -709063.7, 26191.602, -0.030067757, 0.015822629, -666978.9, 53375.52, 0.0, 10.00033, 10.000009 
3.3502823e+2, 2.3649448e+2, -567421.4, -645119.4, 72795.09, -0.17685197, -0.0016139006, -523757.5, 98594.14, 0.0, 10.000635, 9.999629 
3.350382e+2, 2.464926e+2, -573736.0, -857110.3, 114062.875, -0.13096026, -0.01688767, -533528.7, -9158.076, 0.0, 10.001041, 9.997301 
3.350498e+2, 2.5648963e+2, -408289.97, -722050.2, 82006.01, 0.022809017, -0.059767723, -388149.28, 38253.426, 0.0, 10.001488, 9.997338 
3.350593e+2, 2.6648772e+2, -245360.5, -588366.6, 36270.81, 0.025401909, 0.015487942, -241567.03, 86857.555, 0.0, 10.001919, 9.997376 
3.350676e+2, 2.764863e+2, -85975.125, -443409.44, 39503.49, -0.056883197, 0.119477354, -81661.28, 148780.77, 0.000000000044508567, 10.002261, 9.997534 
3.350761e+2, 2.8648394e+2, 27013.791, -265856.53, -2161.6282, -0.050917815, 0.09189401, 27029.744, 159494.89, 0.00000018850986, 10.0020485, 9.998187 
3.3508444e+2, 2.9648128e+2, 20770.746, -243341.17, 11629.378, -0.017944315, -0.0064437753, 21281.82, 55771.01, 0.0000021997091, 10.001436, 9.997964 
3.350927e+2, 3.0648112e+2, 53519.477, -317411.28, 53458.984, -0.112780124, 0.24654445, 61070.34, 61070.34, 0.000010801098, 10.001842, 9.996922 
3.3510348e+2, 3.1647795e+2, 315535.3, 36217.875, 26608.69, 0.0084281815, 0.21428911, 318047.56, 318047.56, 0.000030818417, 10.002637, 9.998964 
3.4492898e+2, 1.2648249e+2, -1586332.8, -1517912.4, 11344.907, -0.18638863, -0.070232466, -1516080.4, 184384.81, 0.00012625929, 10.000267, 10.001216 
3.4493983e+2, 1.3648576e+2, -1783249.8, -1588275.4, -36544.82, -0.1509092, 0.13882306, -1581650.8, 20782.578, 0.000053424294, 9.998367, 10.000987 
3.4495023e+2, 1.4648454e+2, -1820505.8, -1621476.4, -78246.555, 0.007674739, -0.043071505, -1594398.5, -89954.78, 0.0000131995685, 9.997733, 10.000374 
3.4495634e+2, 1.5648349e+2, -1676242.4, -1502068.0, 20045.307, -0.17396799, -0.19772115, -1499790.9, -93339.1, 0.00000089811203, 9.998053, 10.000366 
3.4496516e+2, 1.6648433e+2, -1484865.4, -1333769.3, 93937.66, -0.17576024, -0.16118763, -1288769.4, 19674.244, 0.0000000015154811, 9.998587, 10.000593 
3.4497568e+2, 1.7648607e+2, -1302694.3, -1201642.9, 52761.59, -0.06869943, -0.059579108, -1179116.3, 31312.14, 0.0, 9.999195, 10.000533 
3.449845e+2, 1.8648641e+2, -1204205.6, -1167758.5, 16312.63, -0.06434924, -0.04627164, -1161524.0, -49097.77, 0.0, 9.999467, 9.999965 
3.449925e+2, 1.9648589e+2, -1105112.1, -1076148.5, 20091.904, -0.1153947, -0.10662055, -1065863.3, -51431.4, 0.0, 9.999505, 9.999903 
3.450021e+2, 2.064862e+2, -993798.75, -1017244.75, 66563.69, -0.08749287, -0.042220358, -937933.6, -21501.555, 0.0, 9.99979, 9.999498 
3.4501263e+2, 2.164868e+2, -831969.6, -880189.8, 51523.566, -0.01744919, 0.0554107, -799194.1, 19236.455, 0.0, 10.000192, 9.999572 
3.450217e+2, 2.2648676e+2, -654553.94, -712408.06, -8610.941, -0.03191574, 0.07867985, -653299.5, 67131.2, 0.0, 10.000608, 9.999848 
3.450299e+2, 2.3648629e+2, -513965.56, -626136.75, -48099.977, -0.09350063, 0.03578495, -496164.75, 126267.52, 0.0, 10.001038, 9.999562 
3.4504014e+2, 2.4648416e+2, -453926.9, -748647.25, 41381.266, -0.06765933, -0.02835848, -448226.88, 76225.1, 0.0, 10.001647, 9.997756 
3.4505156e+2, 2.56481e+2, -255031.33, -603275.9, 94710.08, 0.009899934, -0.13398755, -230940.17, 195542.86, 0.0, 10.002341, 9.997748 
3.450615e+2, 2.6647946e+2, -157261.63, -522936.06, 80094.836, 0.032888573, -0.04882585, -140487.64, 188013.55, 0.0, 10.002426, 9.997581 
3.450707e+2, 2.764788e+2, -86639.56, -427486.4, 79148.32, 0.03216219, 0.110495776, -69157.16, 161356.0, 0.0, 10.0021925, 9.997676 
3.450786e+2, 2.8647667e+2, 41067.113, -285965.78, 33581.15, -0.011501714, 0.11792118, 44479.758, 177014.95, 0.00000016974016, 10.002274, 9.997936 
3.4508556e+2, 2.964739e+2, 163962.55, -199418.31, 33104.89, -0.098085076, 0.03249754, 166953.86, 201515.66, 0.0000019719364, 10.002536, 9.997735 
3.4509474e+2, 3.0647284e+2, 186002.52, -264671.38, 100800.07, -0.13438901, 0.20908926, 207520.56, 207520.56, 0.000009630792, 10.002778, 9.99684 
3.4510702e+2, 3.1646958e+2, 399500.2, 140705.6, 38845.97, 0.092070304, 0.16414396, 405205.3, 405205.3, 0.000028581368, 10.002908, 9.999561 
3.5492864e+2, 1.2647155e+2, -1717810.3, -1814509.4, -54036.832, -0.28659153, -0.23326916, -1693650.0, 6913.184, 0.00012021515, 10.0003605, 9.999138 
3.5493955e+2, 1.3647236e+2, -1859431.8, -1752810.0, -99556.26, -0.0301299, -0.09261457, -1693189.5, -90626.87, 0.000054251253, 9.998396, 9.999843 
3.5494936e+2, 1.4647284e+2, -1635028.9, -1242963.0, -72947.27, 0.12733048, -0.2082629, -1229830.4, 274725.16, 0.000015580335, 9.997755, 10.002966 
3.5495442e+2, 1.5647575e+2, -1524195.0, -1196053.9, 38177.86, -0.18627498, -0.21779492, -1191670.6, 214848.38, 0.0000017221554, 9.99809, 10.002453 
3.5496327e+2, 1.6647743e+2, -1539347.8, -1444523.8, 111103.26, -0.2361734, -0.14447582, -1371139.1, -62636.49, 0.000000007086625, 9.998576, 9.999837 
3.5497436e+2, 1.7647812e+2, -1347080.8, -1296339.1, 77771.39, -0.1322347, -0.07354091, -1239904.9, -29404.47, 0.0, 9.999202, 9.99988 
3.549838e+2, 1.8647763e+2, -1209466.4, -1169490.5, 13764.302, -0.0929433, -0.114353076, -1165209.6, -52703.05, 0.0, 9.999432, 9.999969 
3.549924e+2, 1.964765e+2, -1109920.6, -1076852.1, 27646.441, -0.08660733, -0.23775406, -1061172.9, -46655.54, 0.0, 9.999469, 9.999914 
3.550017e+2, 2.0647681e+2, -1009601.4, -1039481.7, 77374.84, -0.11856511, -0.16702853, -945737.5, -29219.926, 0.0, 9.999743, 9.999369 
3.5501134e+2, 2.1647778e+2, -858842.0, -925262.56, 71166.6, -0.17665541, -0.019811325, -813518.2, 4994.9814, 0.0, 10.000146, 9.999284 
3.550219e+2, 2.2647768e+2, -747294.8, -894655.5, 4229.057, -0.082252115, 0.07942227, -747173.56, -26654.898, 0.0, 10.000564, 9.998619 
3.550329e+2, 2.3647685e+2, -574924.94, -745804.3, -25101.512, 0.094816975, 0.12159838, -571313.94, 51216.645, 0.0, 10.001006, 9.998757 
3.5504273e+2, 2.4647525e+2, -337788.44, -499149.8, 63375.168, 0.017941482, 0.045326997, -315873.88, 208669.28, 0.0, 10.001613, 9.999485 
3.5505185e+2, 2.5647312e+2, -156918.47, -385938.84, 118942.87, -0.20528165, -0.12943389, -106322.664, 320234.44, 0.0, 10.002285, 9.999268 
3.5506192e+2, 2.6647198e+2, -144278.4, -486545.03, 67751.516, -0.18103454, -0.086505875, -131355.0, 197213.81, 0.0, 10.002387, 9.997847 
3.5507256e+2, 2.7647135e+2, -83214.96, -410337.03, 78906.555, -0.0094956225, 0.049813263, -65176.28, 165404.0, 0.0, 10.0021515, 9.99781 
3.5508093e+2, 2.8646922e+2, 13516.61, -342771.88, 38188.316, -0.015830446, 0.07436136, 17563.803, 150166.63, 0.00000011654808, 10.002269, 9.997549 
3.550878e+2, 2.9646626e+2, 138543.5, -249881.53, 48108.207, -0.14316471, 0.0053326213, 144413.22, 179045.06, 0.0000016005947, 10.00252, 9.997397 
3.550974e+2, 3.0646315e+2, 167074.05, -293746.06, 106407.734, -0.15292981, 0.0058510746, 190458.0, 190458.0, 0.000008029012, 10.002745, 9.996654 
3.551097e+2, 3.1645942e+2, 404685.9, 174788.83, 65311.074, 0.037697643, -0.07340861, 421944.4, 421944.4, 0.00002594716, 10.002823, 9.99983 
3.6492798e+2, 1.264618e+2, -2208744.8, -1965655.9, -66520.72, -0.19818182, -0.2446096, -1948643.3, -247985.11, 0.00011678404, 9.996631, 9.999898 
3.6493674e+2, 1.3646236e+2, -1944188.5, -1700774.0, 57859.605, -0.0956793, -0.2298246, -1687720.8, -85065.65, 0.000055597222, 9.997423, 10.00066 
3.6494702e+2, 1.4646342e+2, -1606167.9, -1281352.1, 69228.09, 0.10347582, -0.29692197, -1267213.0, 237429.89, 0.000017763748, 9.998183, 10.002494 
3.6495402e+2, 1.5646699e+2, -1414278.8, -1185830.9, -59090.63, -0.079357624, -0.19206579, -1171451.5, 235152.08, 0.000002786188, 9.999029, 10.002072 
3.64963e+2, 1.6646849e+2, -1450129.5, -1386872.4, -32730.084, -0.14728454, -0.1272385, -1372985.8, -64396.188, 0.00000008230677, 9.9991255, 9.999969 
3.6497313e+2, 1.7646855e+2, -1403586.9, -1311472.5, -9413.591, -0.15213113, -0.1322764, -1310520.3, -99927.77, 0.0, 9.998766, 9.999986 
3.6498287e+2, 1.8646821e+2, -1245008.5, -1200881.8, -35312.188, -0.11410493, -0.15491545, -1181306.9, -68709.266, 0.0, 9.9992485, 9.999842 
3.6499256e+2, 1.9646761e+2, -1013130.2, -1039654.9, -39921.836, -0.048740905, -0.2130981, -984325.44, 30279.217, 0.0, 10.000171, 9.999834 
3.6500213e+2, 2.0646782e+2, -888069.56, -953134.2, 19321.277, -0.080071464, -0.16158801, -882764.5, 33840.45, 0.0, 10.000465, 9.999613 
3.6501166e+2, 2.1646836e+2, -812779.7, -882105.25, 30277.662, -0.16880693, -0.07885332, -801418.1, 17184.617, 0.0, 10.000377, 9.999471 
3.6502236e+2, 2.2646813e+2, -760470.0, -907807.9, 43373.633, -0.08282488, 0.002220177, -748649.9, -28040.813, 0.0, 10.0005, 9.99856 
3.650338e+2, 2.3646733e+2, -618244.4, -772415.94, 91465.945, 0.10352486, 0.05426436, -575713.06, 46907.86, 0.0, 10.000733, 9.998705 
3.650439e+2, 2.4646617e+2, -445601.4, -550215.56, 140496.63, 0.016002692, 0.024524445, -347990.75, 176640.05, 0.0, 10.000865, 9.9994955 
3.6505315e+2, 2.5646475e+2, -347822.34, -463336.22, 59284.34, -0.22816081, -0.08273898, -322811.56, 103828.66, 0.0, 10.000915, 9.999393 
3.650633e+2, 2.6646364e+2, -295791.3, -486355.94, -25830.52, -0.20754276, -0.08151245, -292352.13, 36298.26, 0.0, 10.001028, 9.998507 
3.6507404e+2, 2.764626e+2, -184624.11, -399182.4, 11563.784, -0.026396774, -0.04569937, -184002.66, 46659.465, 0.0, 10.001187, 9.998357 
3.6508328e+2, 2.8646082e+2, 42352.023, -335986.78, 44676.664, -0.016614474, -0.008952345, 47556.145, 180236.52, 0.000000055764154, 10.002492, 9.997492 
3.6509153e+2, 2.964585e+2, 406753.56, -130141.945, 53247.348, -0.11616963, -0.002741683, 411983.5, 446686.28, 0.0000011854916, 10.004412, 9.997309 
3.6510113e+2, 3.0645415e+2, 339219.38, -269015.97, 57112.78, -0.12266835, -0.10083753, 344535.75, 344535.75, 0.000006614604, 10.004173, 9.996142 
3.6511216e+2, 3.1645024e+2, 337769.28, 78030.43, -15392.673, 0.017510312, -0.1408118, 338678.3, 338678.3, 0.000023524617, 10.002639, 9.999264 
3.7492648e+2, 1.2645338e+2, -1951679.9, -1434161.4, -21922.904, -0.038886797, -0.08611907, -1433234.4, 267514.28, 0.000116595606, 9.9966345, 10.003542 
3.749313e+2, 1.3645583e+2, -1737985.6, -1286021.1, 90537.91, -0.40079084, -0.26700065, -1268559.1, 334150.13, 0.000057458026, 9.997474, 10.003483 
3.749431e+2, 1.4645629e+2, -1859002.1, -1802307.8, 95749.54, -0.12114999, -0.312727, -1730797.4, -226092.03, 0.000019792478, 9.998173, 9.998921 
3.7495488e+2, 1.5645719e+2, -1613258.0, -1607672.3, -27745.361, 0.08851667, -0.12501049, -1582579.5, -175873.56, 0.000003853391, 9.999066, 9.999159 
3.749641e+2, 1.6645749e+2, -1381367.1, -1243637.9, -50872.082, 0.034844723, -0.111011386, -1226885.4, 81819.92, 0.00000020238203, 9.999125, 10.000951 
3.7497178e+2, 1.7645738e+2, -1345674.9, -1194789.1, -12021.458, -0.1780504, -0.22964785, -1193837.3, 16867.121, 0.0, 9.998777, 10.000782 
3.7498164e+2, 1.8645807e+2, -1264531.8, -1236381.1, -4727.977, -0.17801979, -0.17153874, -1235608.4, -122908.38, 0.0, 9.999228, 9.999607 
3.749928e+2, 1.9645914e+2, -1026918.4, -1059483.5, -5283.975, -0.052198626, -0.040038824, -1026082.5, -11388.38, 0.0, 10.000134, 9.999712 
3.7500334e+2, 2.0645918e+2, -855950.8, -876962.5, 12047.155, -0.017002273, -0.03053356, -850472.06, 66222.43, 0.0, 10.0004225, 10.000158 
3.7501338e+2, 2.1645854e+2, -774005.5, -789760.4, 34720.77, -0.0446201, -0.12311369, -746279.75, 72419.59, 0.0, 10.000326, 10.000129 
3.75023e+2, 2.264581e+2, -693192.9, -755090.25, 47624.996, -0.07834343, -0.151242, -667344.0, 53357.863, 0.0, 10.000442, 9.999638 
3.750325e+2, 2.3645768e+2, -575386.94, -673738.3, 103377.984, -0.112270005, -0.16992152, -510084.47, 112619.59, 0.0, 10.000688, 9.999406 
3.750435e+2, 2.4645695e+2, -569033.5, -793925.56, 139698.7, -0.11780518, -0.09220214, -502147.88, 22566.932, 0.0, 10.000814, 9.997847 
3.7505537e+2, 2.5645596e+2, -442000.56, -652070.75, 68301.27, -0.11270688, 0.008375674, -421746.25, 4985.335, 0.0, 10.000882, 9.998114 
3.750656e+2, 2.6645446e+2, -226880.72, -338274.22, -24481.266, -0.095318384, -0.032750115, -221737.84, 107007.82, 0.0, 10.001012, 9.99953 
3.750749e+2, 2.764526e+2, -125789.73, -266704.1, 32466.012, -0.071696274, -0.1840114, -118669.49, 112089.35, 0.0, 10.001145, 9.999286 
3.7508535e+2, 2.8645152e+2, 54896.46, -305830.97, 114243.8, -0.0680885, -0.1286491, 88033.836, 220801.22, 0.00000003400916, 10.002468, 9.997714 
3.7509644e+2, 2.9645076e+2, 406703.97, -123550.414, 113443.445, -0.08053086, 0.011493744, 429954.72, 464729.34, 0.0000008994765, 10.004372, 9.997379 
3.7510556e+2, 3.064457e+2, 272647.03, -390441.2, -5020.464, -0.10764483, -0.113407835, 272685.03, 272685.03, 0.000005653841, 10.004115, 9.995331 
3.7511405e+2, 3.1644186e+2, 232893.48, -117935.97, -42008.8, -0.08254616, -0.055317193, 237853.55, 237853.55, 0.000021891798, 10.002557, 9.997951 
3.8492396e+2, 1.2644507e+2, -1996498.8, -1445032.6, 132158.13, 0.067323424, -0.028114898, -1414997.0, 285834.2, 0.00011972094, 9.996287, 10.003633 
3.8492846e+2, 1.3644765e+2, -1790392.5, -1297035.0, -81657.64, -0.40510872, -0.21475023, -1283870.8, 318918.7, 0.000060093465, 9.997053, 10.003613 
3.8494062e+2, 1.4644794e+2, -1958427.0, -1884811.3, -12928.697, -0.15632991, -0.2644265, -1882606.6, -377819.75, 0.000021868578, 9.997626, 9.998624 
3.8495344e+2, 1.5644786e+2, -1764645.3, -1704735.5, 90313.016, 0.090615414, -0.14662759, -1639539.3, -232741.73, 0.000004862859, 9.998137, 9.998938 
3.849632e+2, 1.6644807e+2, -1474696.0, -1287729.1, 96973.18, 0.07373443, -0.13486664, -1246516.9, 62281.367, 0.00000029520132, 9.998465, 10.000975 
3.8497108e+2, 1.7644839e+2, -1359819.4, -1193645.9, 63406.55, -0.11506891, -0.21280836, -1172215.8, 38577.887, 0.0, 9.998638, 10.000861 
3.8498098e+2, 1.8644954e+2, -1294319.6, -1210455.6, 102812.836, -0.1430194, -0.13385755, -1141352.6, -28568.396, 0.0, 9.99885, 9.999967 
3.8499224e+2, 1.9645096e+2, -1165897.1, -1095193.5, 129746.84, -0.0639225, -0.003200115, -996068.6, 18705.4, 0.0, 9.99904, 9.999998 
3.8500315e+2, 2.064509e+2, -1041301.06, -970847.5, 129032.03, -0.010470317, -0.013397771, -872320.06, 44454.633, 0.0, 9.999164, 10.000121 
3.8501373e+2, 2.1644995e+2, -928093.5, -860809.94, 102108.25, 0.017279685, -0.13475671, -786944.25, 31838.047, 0.0, 9.999246, 10.000165 
3.8502353e+2, 2.264495e+2, -713856.0, -702733.75, 106152.12, -0.04701212, -0.19624053, -601997.2, 118785.62, 0.0, 10.000031, 10.0001955 
3.8503295e+2, 2.364493e+2, -471104.16, -577702.44, 109223.945, -0.15801534, -0.24875635, -402868.66, 219911.39, 0.0, 10.001215, 9.999808 
3.850448e+2, 2.4644873e+2, -491602.28, -815675.25, 168171.67, -0.10815572, -0.1434602, -420106.03, 104684.9, 0.0, 10.001598, 9.997316 
3.8505793e+2, 2.5644785e+2, -386737.7, -683601.56, 171859.36, 0.028163107, 0.022934275, -308084.44, 118726.266, 0.0, 10.001508, 9.997598 
3.8506815e+2, 2.6644617e+2, -98711.6, -299610.7, 76042.516, 0.014598976, -0.0016285046, -73174.74, 255653.17, 0.0, 10.001985, 9.999328 
3.8507673e+2, 2.76444e+2, 98849.38, -172252.11, 34955.44, -0.07972149, -0.16661853, 103283.95, 334127.94, 0.0, 10.002751, 9.999159 
3.8508794e+2, 2.864429e+2, 164768.97, -227635.78, 115337.12, -0.08368004, -0.121668465, 196158.38, 329010.5, 0.000000026095549, 10.003121, 9.9979315 
3.8510057e+2, 2.9644233e+2, 262008.61, -161550.7, 98102.71, -0.04076639, 0.013626773, 283627.25, 318483.97, 0.0000006696504, 10.003254, 9.997646 
3.8510972e+2, 3.064375e+2, 247490.64, -348021.75, 2670.8276, -0.078390956, -0.12618428, 247502.63, 247502.63, 0.0000049598348, 10.003699, 9.995824 
3.8511738e+2, 3.164346e+2, 462921.53, -29414.49, 57637.055, -0.083454125, -0.017253602, 469579.0, 469579.0, 0.000021460863, 10.004231, 9.997755 
3.949201e+2, 1.2643681e+2, -2257644.8, -1979833.6, 179010.19, 0.023751512, -0.07720336, -1892157.1, -191251.52, 0.0001233599, 9.996276, 9.999965 
3.949281e+2, 1.3643762e+2, -1975052.3, -1683639.0, -53427.06, -0.1599413, -0.08513753, -1674152.6, -71255.234, 0.00006261113, 9.997077, 10.000946 
3.9493936e+2, 1.4643827e+2, -1748175.5, -1450089.3, 533.1917, -0.05990393, -0.15475196, -1450088.3, 54800.504, 0.000023583854, 9.997626, 10.001609 
3.9494947e+2, 1.5643899e+2, -1586920.1, -1345883.4, 113825.1, -0.13579431, -0.25418326, -1300628.4, 106250.02, 0.000005569423, 9.998172, 10.001387 
3.949602e+2, 1.6644014e+2, -1537677.6, -1416241.9, 96329.04, -0.088489585, -0.20439363, -1363091.6, -54222.38, 0.00000035120044, 9.998457, 10.000097 
3.949709e+2, 1.764416e+2, -1402134.4, -1280509.8, 74800.17, -0.008139261, -0.08462354, -1244920.8, -34060.773, 0.0, 9.998635, 10.000267 
3.949809e+2, 1.8644258e+2, -1236911.9, -1081452.1, 106636.15, -0.04753341, -0.04763949, -1027222.94, 85627.96, 0.0, 9.998805, 10.000876 
3.9499068e+2, 1.9644308e+2, -1122284.4, -994113.6, 141132.75, -0.13732752, -0.09615516, -903197.75, 111646.11, 0.0, 9.998996, 10.000712 
3.9500144e+2, 2.0644298e+2, -1092661.0, -1063847.3, 125820.67, -0.10925103, -0.10840481, -951611.3, -34765.723, 0.0, 9.999107, 9.999509 
3.9501265e+2, 2.1644251e+2, -975066.44, -939453.8, 115233.63, -0.028170722, -0.121614814, -840658.8, -21806.445, 0.0, 9.999171, 9.999658 
3.9502382e+2, 2.2644229e+2, -719754.06, -702401.4, 147093.31, -0.030080598, -0.14024313, -563728.75, 157123.63, 0.0, 9.999974, 10.000228 
3.9503506e+2, 2.3644209e+2, -469823.7, -563849.5, 152599.22, -0.08187636, -0.19336994, -357159.63, 265690.1, 0.0, 10.001165, 9.999929 
3.9504752e+2, 2.4644141e+2, -459913.3, -739455.4, 159559.06, -0.0058927536, -0.1370559, -387564.0, 137296.02, 0.0, 10.001557, 9.99786 
3.950607e+2, 2.5644034e+2, -375080.25, -646996.0, 178329.0, 0.14203939, -0.044736587, -286793.22, 140085.44, 0.0, 10.0014515, 9.997877 
3.9507085e+2, 2.6643875e+2, -203092.47, -504134.63, 102086.59, 0.07646168, 0.00805577, -171739.23, 157158.38, 0.0, 10.001933, 9.997948 
3.9507934e+2, 2.7643678e+2, 14553.983, -340551.84, 66985.47, -0.10553756, 0.0012192128, 26769.586, 257687.58, 0.0, 10.00272, 9.99802 
3.9509085e+2, 2.8643495e+2, 176895.55, -193522.47, 115989.93, -0.119184695, 0.007333276, 210218.1, 343152.7, 0.000000010243951, 10.003089, 9.99818 
3.9510387e+2, 2.9643318e+2, 283694.2, -99267.56, 113477.9, -0.048444137, -0.0002842186, 314794.0, 349743.1, 0.00000051187845, 10.0031805, 9.998112 
3.9511347e+2, 3.0642954e+2, 364337.34, -92601.945, 19538.092, -0.082976066, -0.14469062, 365171.25, 365171.25, 0.0000058228006, 10.003649, 9.997599 
3.951217e+2, 3.1642854e+2, 514325.88, 96711.52, 102629.09, -0.09850748, -0.01650929, 538184.06, 538184.06, 0.00002601799, 10.004161, 9.998651 
4.0491703e+2, 1.2642635e+2, -2028837.8, -1956404.8, 35299.797, 0.002605971, -0.09028081, -1942047.4, -241040.28, 0.00012458346, 9.998191, 9.99921 
4.0492684e+2, 1.3642645e+2, -1891151.1, -1706848.3, -37933.1, -0.0299378, -0.09169016, -1699346.3, -96335.664, 0.00006386204, 9.997917, 10.000384 
4.0493762e+2, 1.464279e+2, -1712251.9, -1325409.0, 4153.0176, 0.017373832, -0.1124498, -1325364.4, 179629.67, 0.000024485202, 9.997415, 10.002564 
4.0494692e+2, 1.5642947e+2, -1716123.9, -1317001.1, -43485.914, -0.13878557, -0.2210093, -1312318.1, 94654.22, 0.000005781208, 9.996892, 10.002202 
4.0495798e+2, 1.6643085e+2, -1716729.1, -1497682.5, -48200.465, -0.08916083, -0.18274997, -1487545.3, -178585.47, 0.0000003430959, 9.99722, 10.000127 
4.049695e+2, 1.7643224e+2, -1494144.4, -1321067.0, -19254.46, 0.026928553, -0.0727808, -1318950.9, -107999.62, 0.0, 9.997993, 10.000294 
4.0497985e+2, 1.8643302e+2, -1259362.8, -1079301.8, 3699.2126, -0.016340656, -0.0638272, -1079225.8, 33717.45, 0.0, 9.99859, 10.000997 
4.0498972e+2, 1.9643322e+2, -1106681.3, -976320.2, -26450.145, -0.13023382, -0.15466197, -971157.94, 43779.863, 0.0, 9.999055, 10.000811 
4.0500075e+2, 2.0643322e+2, -1012005.2, -1024727.5, -26773.8, -0.11239012, -0.15837507, -990847.25, -73908.75, 0.0, 9.999667, 9.999506 
4.0501237e+2, 2.164331e+2, -810833.6, -869571.0, -1665.3688, -0.024831308, -0.13412766, -810786.44, 8156.651, 0.0, 10.000339, 9.999577 
4.050243e+2, 2.2643308e+2, -650537.44, -714039.44, 43185.85, -0.01010554, -0.105022185, -628686.75, 92256.99, 0.0, 10.0006485, 9.99982 
4.050364e+2, 2.3643304e+2, -545872.44, -628667.44, 3985.9028, -0.041458484, -0.10186022, -545681.0, 77262.08, 0.0, 10.000762, 9.999678 
4.0504894e+2, 2.4643233e+2, -459219.1, -647117.94, 8243.119, 0.006085119, -0.08437619, -458858.16, 66093.29, 0.0, 10.001161, 9.998687 
4.0506184e+2, 2.564312e+2, -287878.22, -529330.25, 40892.38, 0.09928116, -0.0809186, -281140.7, 145824.39, 0.0, 10.001739, 9.99854 
4.0507257e+2, 2.664296e+2, -165753.11, -558962.56, 37229.707, 0.030431604, -0.023524512, -162259.19, 166725.34, 0.0, 10.0025, 9.9973 
4.0508217e+2, 2.764275e+2, 66057.98, -377020.84, 41052.5, -0.1231305, 0.025894688, 69829.5, 300838.78, 0.0, 10.003333, 9.997476 
4.0509397e+2, 2.864256e+2, 177151.36, -174959.0, 74509.96, -0.10631513, 0.037249606, 192269.28, 325297.47, 0.0000000008315615, 10.003008, 9.998346 
4.0510696e+2, 2.9642376e+2, 132581.1, -143726.4, 63219.64, 0.005449911, 0.0031473618, 146358.86, 181402.34, 0.00000071034475, 10.002023, 9.99836 
4.051168e+2, 3.0642083e+2, 246565.92, -100068.41, -32635.264, -0.058065865, -0.10820423, 249611.73, 249611.73, 0.0000094188645, 10.00262, 9.998046 
4.051258e+2, 3.164199e+2, 519656.53, 104779.36, -48346.207, -0.09876906, -0.01400831, 525215.9, 525215.9, 0.00003801625, 10.004145, 9.998722 
4.1491443e+2, 1.2641346e+2, -1854525.9, -1613114.9, 33958.496, -0.1112041, -0.07627524, -1608429.0, 92708.766, 0.00012201354, 9.998266, 10.001528 
4.1492444e+2, 1.3641419e+2, -1763849.8, -1461007.4, -50063.727, -0.08022888, -0.23177351, -1452945.8, 150182.84, 0.00006271878, 9.997984, 10.002041 
4.1493514e+2, 1.464168e+2, -1788744.8, -1485627.0, -20202.998, 0.014967966, -0.1426101, -1484286.4, 20816.53, 0.000024127196, 9.997429, 10.001456 
4.1494572e+2, 1.5641934e+2, -1772704.3, -1432337.6, -50284.086, 0.03654496, -0.044348102, -1425064.4, -17985.484, 0.0000053776757, 9.996888, 10.0014105 
4.149565e+2, 1.6642022e+2, -1660409.1, -1375302.0, -23686.39, 0.02818944, -0.07083938, -1373347.6, -64277.77, 0.0000002359893, 9.997193, 10.00098 
4.1496676e+2, 1.7642032e+2, -1447378.8, -1227199.4, 13644.189, -0.06272302, -0.17635891, -1226357.1, -15289.281, 0.0, 9.998004, 10.000934 
4.1497767e+2, 1.8642081e+2, -1306911.3, -1175664.3, 16522.31, -0.10799029, -0.18497093, -1173616.3, -60554.465, 0.0, 9.998581, 10.000339 
4.149892e+2, 1.9642137e+2, -1144244.9, -1046008.2, -3794.8286, -0.1011456, -0.17651434, -1045861.8, -30806.441, 0.0, 9.999022, 10.000344 
4.1500098e+2, 2.064217e+2, -979154.0, -948201.4, -5490.7427, -0.06586793, -0.15999293, -947256.2, -30203.322, 0.0, 9.999622, 10.000056 
4.1501278e+2, 2.1642181e+2, -793794.5, -821173.44, 25452.914, -0.02784474, -0.16791888, -778583.25, 40470.3, 0.0, 10.00028, 9.999937 
4.1502473e+2, 2.2642197e+2, -721807.94, -849957.7, 43263.402, -0.043125037, -0.08630011, -708569.75, 12486.525, 0.0, 10.000597, 9.998912 
4.1503674e+2, 2.3642206e+2, -595708.7, -720482.1, 15984.774, -0.09068047, 0.016854597, -593693.44, 29367.51, 0.0, 10.000711, 9.999072 
4.1504893e+2, 2.4642147e+2, -386590.9, -485800.13, 26474.666, -0.12552111, 0.010199627, -379968.1, 145097.1, 0.0, 10.001118, 9.999812 
4.1506115e+2, 2.5642037e+2, -225440.19, -390451.72, 69062.734, -0.15224612, -0.091813415, -200350.13, 226720.17, 0.0, 10.001696, 9.999516 
4.1507316e+2, 2.6641864e+2, -163930.25, -544553.5, 64801.715, -0.17233315, -0.099027865, -153200.14, 175888.9, 0.0, 10.0024605, 9.997415 
4.1508496e+2, 2.7641636e+2, 62380.137, -368507.1, 69538.78, -0.1895968, -0.08372227, 73324.67, 304441.78, 0.0, 10.003265, 9.997566 
4.1509718e+2, 2.8641495e+2, 181889.31, -162063.42, 31893.04, -0.10121131, -0.028719734, 184821.6, 317954.03, 0.00000000001177225, 10.00299, 9.998445 
4.1510954e+2, 2.9641408e+2, 128337.82, -149094.77, 43866.35, 0.049445845, 0.022435065, 135108.53, 170248.86, 0.0000013022876, 10.002002, 9.998334 
4.1511947e+2, 3.0641142e+2, 194244.9, -209127.11, 22133.514, -0.062498834, -0.013595475, 195455.77, 195455.77, 0.000014524035, 10.002625, 9.9972925 
4.151293e+2, 3.16409e+2, 460704.16, 6138.806, 25748.525, -0.18878984, 0.00043209785, 462158.0, 462158.0, 0.000053920798, 10.004051, 9.998087 
4.2491147e+2, 1.2640132e+2, -2098382.3, -1623936.0, 156764.53, -0.12107563, -0.12564902, -1576817.9, 124439.09, 0.000114420596, 9.996132, 10.002484 
4.2492133e+2, 1.3640325e+2, -2056567.9, -1541749.3, -68612.33, -0.07060305, -0.23062636, -1532761.9, 70473.086, 0.00005866896, 9.995716, 10.002582 
4.2493182e+2, 1.464062e+2, -1976730.8, -1622043.3, -13630.988, -0.003593836, -0.10533136, -1621520.3, -116313.55, 0.00002226237, 9.996329, 10.001054 
4.2494345e+2, 1.564082e+2, -1724260.4, -1447878.5, -3449.689, 0.10132168, -0.024648512, -1447835.4, -40645.348, 0.0000044458184, 9.997385, 10.001065 
4.249547e+2, 1.6640878e+2, -1494316.5, -1296682.9, 33126.21, 0.07621543, -0.06545645, -1291278.3, 17905.502, 0.00000009724189, 9.998339, 10.000968 
4.2496493e+2, 1.7640866e+2, -1267349.0, -1145319.6, -7966.175, -0.10573782, -0.19015567, -1144801.8, 66380.5, 0.0, 9.99926, 10.000892 
4.2497617e+2, 1.8640904e+2, -1214118.1, -1160375.5, -32333.912, -0.14876162, -0.19423205, -1145204.5, -32026.375, 0.0, 9.999352, 10.000068 
4.2498833e+2, 1.9640951e+2, -1174895.9, -1083517.9, -29787.879, -0.079195604, -0.16590387, -1074665.1, -59490.62, 0.0, 9.998915, 10.000135 
4.2500046e+2, 2.0641005e+2, -1039266.4, -946010.25, -7562.722, -0.04813525, -0.13642892, -945400.94, -28230.932, 0.0, 9.999079, 10.000329 
4.2501238e+2, 2.1641052e+2, -878912.75, -836552.75, -9792.936, -0.054670658, -0.13332412, -834398.4, -15232.397, 0.0, 9.999586, 10.000164 
4.250247e+2, 2.2641063e+2, -803979.7, -886177.06, 40941.273, -0.07399493, -0.06763726, -787067.25, -65898.67, 0.0, 10.000018, 9.998942 
4.2503718e+2, 2.3641048e+2, -636201.1, -730437.94, 71852.71, -0.09927425, 0.0077886274, -597395.4, 25779.955, 0.0, 10.000394, 9.999156 
4.250495e+2, 2.4641001e+2, -408328.94, -459609.6, 87981.11, -0.16175932, -0.01042954, -342328.13, 182849.44, 0.0, 10.000803, 10.000149 
4.250617e+2, 2.5640923e+2, -266934.66, -372438.6, 64515.277, -0.24209307, -0.11344019, -236350.03, 190828.22, 0.0, 10.001241, 9.999863 
4.2507446e+2, 2.6640776e+2, -296348.4, -559956.25, 58229.66, -0.2270418, -0.13409358, -284058.72, 45134.47, 0.0, 10.001337, 9.997855 
4.2508754e+2, 2.764057e+2, -208607.38, -461170.4, 76563.52, -0.14944379, -0.1371698, -187210.22, 44007.24, 0.0, 10.001247, 9.9979 
4.250998e+2, 2.8640437e+2, 19590.328, -304660.38, 24187.242, -0.09046775, -0.058694143, 21384.629, 154618.53, 0.0000000012455732, 10.002155, 9.997866 
4.2511147e+2, 2.9640338e+2, 330143.78, -110625.86, -21752.164, -0.039871376, 0.03913239, 331214.66, 366461.0, 0.0000019825331, 10.003636, 9.997816 
4.251221e+2, 3.0640054e+2, 409673.16, -114348.78, -5381.615, -0.13379723, 0.012109695, 409728.4, 409728.4, 0.000019596095, 10.004147, 9.997215 
4.251341e+2, 3.163974e+2, 478700.5, 30230.13, 30509.492, -0.10925288, -0.038861383, 480766.56, 480766.56, 0.00006922057, 10.004119, 9.9982195 
4.3490782e+2, 1.2639e+2, -2130062.5, -1688541.8, 147009.9, -0.12665398, -0.2356082, -1644071.9, 57291.715, 0.00010246441, 9.996138, 10.002036 
4.3491748e+2, 1.3639374e+2, -2097717.8, -1629522.3, -70363.09, -0.04225999, -0.084917255, -1619176.4, -15847.568, 0.000052240124, 9.995727, 10.001975 
4.3492746e+2, 1.4639613e+2, -1959779.1, -1584168.5, 26624.713, -0.08599263, -0.004283395, -1582290.6, -76985.09, 0.000019361623, 9.996316, 10.001321 
4.3493992e+2, 1.56396e+2, -1712107.1, -1429963.6, 41703.227, -0.008928183, -0.16598365, -1423928.6, -16622.271, 0.0000034941986, 9.997413, 10.001176 
4.3495235e+2, 1.6639642e+2, -1554851.8, -1423476.0, 63170.473, -0.00593175, -0.1769641, -1398029.9, -88727.4, 0.000000032016867, 9.998343, 10.000096 
4.3496388e+2, 1.763973e+2, -1317456.1, -1250631.9, 25379.275, -0.15093799, -0.114510044, -1242086.0, -30791.338, 0.0, 9.999263, 10.000169 
4.3497524e+2, 1.8639769e+2, -1215186.5, -1151335.9, -53311.434, -0.18751627, -0.0909193, -1121121.5, -7829.208, 0.0, 9.999308, 10.000151 
4.34987e+2, 1.9639763e+2, -1176106.9, -1076412.9, -36927.66, -0.11620933, -0.1266012, -1064224.5, -48929.523, 0.0, 9.998877, 10.000201 
4.3499905e+2, 2.0639825e+2, -1051416.3, -956878.3, 6440.5044, -0.10637662, -0.08771374, -956441.56, -39151.68, 0.0, 9.999019, 10.000282 
4.350111e+2, 2.1639922e+2, -880694.3, -826705.94, 13067.932, -0.15555364, -0.033605345, -823709.2, -4428.5596, 0.0, 9.99953, 10.0002575 
4.3502402e+2, 2.2639914e+2, -749807.6, -756910.8, 49496.266, -0.15227784, -0.04297547, -703735.75, 17544.584, 0.0, 9.999948, 9.999863 
4.350375e+2, 2.3639832e+2, -593244.75, -627862.7, 89267.56, -0.11426132, -0.12348162, -519623.53, 103662.836, 0.0, 10.000338, 9.999887 
4.3505052e+2, 2.4639794e+2, -444295.47, -525686.25, 98886.195, -0.1489271, -0.13907629, -378058.22, 147230.28, 0.0, 10.000766, 9.999713 
4.3506315e+2, 2.5639775e+2, -291936.66, -413521.72, 81802.055, -0.23205286, -0.14398739, -250811.05, 176477.95, 0.0, 10.001192, 9.999604 
4.350763e+2, 2.663969e+2, -244125.0, -447389.9, 49769.223, -0.18594033, -0.1313139, -232593.27, 96703.75, 0.0, 10.00132, 9.998636 
4.3508983e+2, 2.7639556e+2, -174533.81, -388909.47, 85292.195, -0.06250264, -0.14151777, -144739.92, 86571.06, 0.0, 10.001235, 9.9984045 
4.3510172e+2, 2.8639382e+2, -67984.016, -483152.25, 75681.984, -0.12582155, -0.0571595, -54618.074, 78715.19, 0.000000012355592, 10.002145, 9.996644 
4.3511254e+2, 2.963918e+2, 250131.98, -264203.34, 32493.225, -0.3062828, 0.05725414, 252176.63, 287537.44, 0.0000027659546, 10.003583, 9.996788 
4.3512455e+2, 3.0638826e+2, 443132.7, -39141.824, -11213.456, -0.3164322, -0.024022788, 443393.25, 443393.25, 0.000024042205, 10.004119, 9.997746 
4.3513978e+2, 3.163849e+2, 525081.75, 143775.28, 48584.71, 0.022059761, -0.1494747, 531174.9, 531174.9, 0.00008110824, 10.004049, 9.999031 
4.4490534e+2, 1.2637968e+2, -1966878.9, -1680960.6, 113070.29, -0.054938663, -0.19413021, -1641650.1, 59812.25, 0.000089493355, 9.997584, 10.001383 
4.44915e+2, 1.3638204e+2, -1947337.1, -1641927.1, -135607.33, 0.07143976, -0.0919444, -1590406.4, 13037.103, 0.000044922584, 9.99714, 10.001205 
4.4492406e+2, 1.4638406e+2, -1738762.0, -1461093.1, 12272.422, -0.12658754, -0.024197778, -1460551.8, 44872.258, 0.00001621496, 9.9977665, 10.001465 
4.449367e+2, 1.5638423e+2, -1500904.6, -1312790.9, -1708.118, -0.13300006, -0.1695213, -1312775.4, 94645.07, 0.0000027558995, 9.9988, 10.001311 
4.4495028e+2, 1.6638464e+2, -1513344.9, -1404920.5, 35708.188, -0.05810608, -0.18585481, -1394217.1, -84800.69, 0.000000035556127, 9.99863, 10.000087 
4.4496325e+2, 1.7638539e+2, -1536138.5, -1351142.3, 55414.39, -0.060822412, -0.13654116, -1335813.4, -124402.99, 0.0, 9.997748, 10.000205 
4.449748e+2, 1.8638615e+2, -1347047.6, -1181401.0, 34220.996, -0.10221412, -0.09501475, -1174609.8, -61205.16, 0.0, 9.998247, 10.00046 
4.449862e+2, 1.9638674e+2, -1067862.3, -1000579.75, 56552.27, -0.11213107, -0.09758193, -968419.06, 46981.723, 0.0, 9.999509, 10.000421 
4.449985e+2, 2.0638716e+2, -906174.6, -928205.9, 100798.28, -0.11918525, -0.06615547, -815791.8, 101605.43, 0.0, 10.000199, 9.999907 
4.4501114e+2, 2.1638744e+2, -758619.8, -803311.4, 71205.4, -0.14922798, -0.0421283, -706336.2, 113058.38, 0.0, 10.000524, 9.999938 
4.4502437e+2, 2.2638689e+2, -616111.5, -678048.6, 66695.58, -0.14725156, -0.092751935, -573545.4, 147851.94, 0.0, 10.000802, 9.99999 
4.450381e+2, 2.3638575e+2, -490070.97, -577583.25, 37773.2, -0.11883579, -0.21849237, -476022.13, 147382.19, 0.0, 10.001041, 9.999895 
4.4505152e+2, 2.4638541e+2, -468037.5, -603134.0, 16788.242, -0.12843724, -0.19523284, -465982.5, 59425.5, 0.0, 10.000894, 9.999114 
4.450646e+2, 2.563855e+2, -416992.63, -523652.16, -19346.33, -0.167873, -0.11323138, -413591.94, 13818.453, 0.0, 10.000554, 9.99915 
4.4507793e+2, 2.6638487e+2, -212487.1, -383892.6, -44267.582, -0.15438426, -0.08584428, -201729.6, 127686.8, 0.0, 10.001329, 9.999064 
4.4509137e+2, 2.7638367e+2, 72450.54, -233745.7, -41779.777, -0.10251839, -0.121329166, 78048.94, 309474.97, 0.0, 10.002775, 9.998728 
4.4510403e+2, 2.8638166e+2, 69500.24, -443584.13, -8861.854, -0.15567382, -0.061605185, 69653.25, 203103.58, 0.00000003062236, 10.003199, 9.996409 
4.4511616e+2, 2.9637912e+2, 149678.75, -327771.5, 3902.6536, -0.27158332, 0.022575334, 149710.66, 185194.5, 0.0000032981313, 10.002965, 9.996643 
4.4512808e+2, 3.0637556e+2, 270521.72, -96136.516, -33343.91, -0.30180943, -0.06941642, 273529.34, 273529.34, 0.000027025699, 10.00282, 9.997977 
4.4514328e+2, 3.163731e+2, 343164.94, 79595.98, -12195.369, 0.043704983, -0.12599576, 343728.03, 343728.03, 0.00008857609, 10.002681, 9.999253 
4.5490372e+2, 1.2637053e+2, -2024348.9, -1808665.6, 80163.89, -0.007985288, 0.0103538595, -1782134.4, -80582.53, 0.00007906838, 9.997624, 10.000486 
4.5491365e+2, 1.36368e+2, -2011031.8, -1785213.5, -137671.14, 0.20580219, -0.26364064, -1720072.6, -116492.15, 0.00003857364, 9.997187, 10.000201 
4.549214e+2, 1.4636979e+2, -1731014.5, -1451112.6, 51608.188, -0.1848822, -0.17826161, -1441900.3, 63663.7, 0.000013268856, 9.997794, 10.001519 
4.549337e+2, 1.5637295e+2, -1485427.5, -1285819.9, 35793.207, -0.32876572, -0.029003736, -1279595.6, 127936.445, 0.0000020825275, 9.998826, 10.001482 
4.549483e+2, 1.6637358e+2, -1450893.6, -1278354.5, -4755.3604, -0.13482483, -0.0812072, -1278223.5, 31301.324, 0.00000004449902, 9.998638, 10.000953 
4.5496288e+2, 1.7637286e+2, -1476573.1, -1232768.9, 37326.715, 0.11650483, -0.26518813, -1227182.1, -15651.404, 0.0, 9.997765, 10.001013 
4.549748e+2, 1.863743e+2, -1315416.9, -1105280.3, 78951.73, 0.058730822, -0.2196074, -1078922.9, 34593.258, 0.0, 9.998207, 10.000999 
4.5498568e+2, 1.9637683e+2, -1049249.9, -950724.9, 105429.016, -0.12566195, -0.07889425, -883616.94, 131874.5, 0.0, 9.999465, 10.000781 
4.5499855e+2, 2.063768e+2, -966792.9, -1038896.0, 106485.59, -0.14238451, -0.06841615, -890421.56, 27070.414, 0.0, 10.000133, 9.999181 
4.5501238e+2, 2.1637517e+2, -818540.5, -909105.8, 87965.12, -0.08678654, -0.16244075, -764886.94, 54621.098, 0.0, 10.000443, 9.999249 
4.550257e+2, 2.263739e+2, -672770.56, -779897.9, 72281.83, -0.10711955, -0.21813181, -636369.06, 85150.33, 0.0, 10.000733, 9.999326 
4.550388e+2, 2.3637274e+2, -543172.0, -677758.4, 49573.32, -0.16594651, -0.28012076, -526883.56, 96645.336, 0.0, 10.000995, 9.9992285 
4.5505232e+2, 2.463724e+2, -528083.3, -718771.7, -1496.6322, -0.15018232, -0.18399468, -528071.56, -2535.589, 0.0, 10.000855, 9.998341 
4.55066e+2, 2.5637248e+2, -468610.38, -620390.5, -18260.775, -0.09554184, -0.025962044, -466444.3, -38901.953, 0.0, 10.000509, 9.998509 
4.550792e+2, 2.663716e+2, -212048.84, -376731.63, 9034.671, -0.16977185, 0.00079986174, -211554.67, 117996.31, 0.0, 10.001303, 9.999126 
4.5509213e+2, 2.7637005e+2, 73294.66, -217044.2, 11783.0, -0.31667122, -0.07953133, 73772.06, 305334.2, 0.0, 10.00271, 9.998874 
4.5510662e+2, 2.8636798e+2, 114976.0, -338459.9, -21376.545, -0.22787349, -0.07420571, 115981.54, 249565.94, 0.000000022691747, 10.003149, 9.997159 
4.551219e+2, 2.9636547e+2, 192795.47, -232409.81, 2097.6897, -0.0022688084, -0.057334516, 192805.81, 228420.45, 0.0000033719941, 10.002933, 9.997319 
4.5513257e+2, 3.0636242e+2, 265611.75, -102873.47, -37954.72, -0.14546137, -0.12695675, 269480.53, 269480.53, 0.000028147611, 10.002814, 9.99793 
4.5514455e+2, 3.163619e+2, 317940.38, 36948.008, -8700.924, -0.12210293, 0.016757904, 318209.56, 318209.56, 0.00009103987, 10.002647, 9.998974 
4.6489963e+2, 1.2635735e+2, -2456639.3, -1945657.6, 43086.195, -0.008931841, -0.057578456, -1942050.0, -240369.38, 0.000072079085, 9.994337, 10.001137 
4.6491167e+2, 1.3635561e+2, -1809171.6, -1649713.5, -60765.934, 0.23711063, -0.30469102, -1629196.8, -25497.777, 0.000033639506, 9.998385, 10.000563 
4.6491924e+2, 1.463571e+2, -1686823.9, -1492304.5, 73074.97, -0.2018403, -0.23256128, -1467911.5, 37774.42, 0.000010536622, 9.998358, 10.000966 
4.649318e+2, 1.563599e+2, -1981376.1, -1571770.9, 4705.038, -0.24023396, -0.06795392, -1571716.9, -164056.77, 0.0000014175026, 9.99562, 10.001066 
4.649466e+2, 1.6636087e+2, -1767213.4, -1385197.0, -2880.6616, -0.047517344, -0.09044167, -1385175.4, -75525.32, 0.000000030371112, 9.996285, 10.00135 
4.6496135e+2, 1.7636083e+2, -1270343.3, -1099648.4, -9092.491, 0.12743422, -0.24546537, -1099165.4, 112483.3, 0.0, 9.999041, 10.00131 
4.649735e+2, 1.8636212e+2, -1122450.3, -1055267.0, -34492.7, 0.038337123, -0.2076603, -1040711.5, 72923.836, 0.0, 9.99972, 10.000612 
4.6498471e+2, 1.96364e+2, -1123943.1, -1028246.5, -83143.86, -0.14947264, -0.09090161, -980165.9, 35451.004, 0.0, 9.999128, 10.000415 
4.6499842e+2, 2.0636363e+2, -1035300.1, -1073746.3, -50101.19, -0.1424123, -0.09683603, -1000860.75, -83240.586, 0.0, 9.999665, 9.9991665 
4.6501336e+2, 2.1636185e+2, -761564.0, -888125.0, -34240.285, -0.046004876, -0.20435503, -752894.44, 66742.59, 0.0, 10.000858, 9.999195 
4.6502674e+2, 2.2636078e+2, -690890.9, -808644.06, -34928.14, -0.069533706, -0.22669768, -681310.0, 40337.44, 0.0, 10.000699, 9.99914 
4.6503925e+2, 2.3636e+2, -730870.7, -784858.94, -25770.969, -0.1559885, -0.2310264, -720544.25, -96889.086, 0.0, 9.9997835, 9.999074 
4.6505305e+2, 2.4635948e+2, -536206.6, -712806.9, 25968.885, -0.15171373, -0.15279157, -532467.1, -6804.072, 0.0, 10.000752, 9.998432 
4.650676e+2, 2.56359e+2, -129568.484, -455149.16, 57775.023, -0.10012436, -0.059840385, -119620.16, 308051.78, 0.0, 10.002827, 9.9985285 
4.6508095e+2, 2.6635757e+2, -76838.82, -364468.97, 55950.285, -0.17881913, -0.06414514, -66338.6, 263347.5, 0.0, 10.002452, 9.998661 
4.6509367e+2, 2.7635545e+2, -251861.78, -404987.3, 16487.496, -0.32571235, -0.15562671, -250106.64, -18402.133, 0.0, 10.00061, 9.998594 
4.6510893e+2, 2.863539e+2, -127642.66, -369032.6, 18099.764, -0.20701914, -0.13232063, -126293.055, 7428.054, 0.00000001636591, 10.001115, 9.997927 
4.6512556e+2, 2.9635254e+2, 255504.9, -134686.56, 29548.129, 0.06282488, -0.0741165, 257729.83, 293467.44, 0.0000038591365, 10.0030775, 9.997917 
4.651363e+2, 3.063495e+2, 463665.94, -96106.164, -47786.332, -0.13721403, -0.12688635, 467716.03, 467716.03, 0.00002953643, 10.004544, 9.997153 
4.6514827e+2, 3.1634843e+2, 650646.44, 71235.25, -105148.164, -0.15009403, 0.046401065, 669138.0, 669138.0, 0.00009245115, 10.005477, 9.997849 
4.7489253e+2, 1.2633988e+2, -2299967.5, -1607902.0, 161148.44, -0.17990735, -0.4100444, -1572218.3, 129632.73, 0.00006757851, 9.994294, 10.003467 
4.7490892e+2, 1.3634498e+2, -1678701.5, -1378604.6, 71090.695, 0.109487996, -0.20152958, -1362615.6, 241181.73, 0.000029630666, 9.998393, 10.002413 
4.7491747e+2, 1.4634617e+2, -1764657.6, -1660758.0, -31945.826, -0.23145732, -0.17505762, -1651721.6, -145933.53, 0.00000816001, 9.998381, 9.999804 
4.7493073e+2, 1.5634501e+2, -2049880.4, -1717697.4, -67574.74, 0.07715161, -0.28898755, -1704477.1, -296672.16, 0.0000009257674, 9.995632, 10.000063 
4.74945e+2, 1.6634642e+2, -1773497.3, -1394420.4, 97718.74, 0.15254278, -0.22165419, -1370713.0, -60919.91, 0.000000014696447, 9.996269, 10.001295 
4.7495848e+2, 1.7634928e+2, -1285317.5, -1131541.5, 84510.68, -0.08113337, -0.0775281, -1094176.3, 117588.44, 0.0, 9.999047, 10.001087 
4.7497076e+2, 1.863496e+2, -1216036.9, -1245773.6, -62261.742, -0.22172266, -0.054905053, -1166892.8, -53130.383, 0.0, 9.9997015, 9.999316 
4.7498307e+2, 1.9634822e+2, -1198000.4, -1178708.6, -92462.2, -0.23770998, -0.13342588, -1095390.5, -79613.41, 0.0, 9.99911, 9.999393 
4.749979e+2, 2.0634766e+2, -995977.25, -980706.2, -8444.533, -0.17041111, -0.15389128, -976957.0, -59175.133, 0.0, 9.999616, 9.99983 
4.7501397e+2, 2.1634746e+2, -726615.8, -803353.5, 5136.12, -0.08233814, -0.16616568, -726273.56, 93507.85, 0.0, 10.000805, 9.999804 
4.7502738e+2, 2.2634748e+2, -676891.9, -770686.75, -74741.914, -0.0883291, -0.12193247, -635552.56, 86229.07, 0.0, 10.000655, 9.999426 
4.7503933e+2, 2.3634754e+2, -713655.25, -734622.56, -40915.066, -0.13611588, -0.07197456, -681902.06, -58118.98, 0.0, 9.999717, 9.999454 
4.750536e+2, 2.4634662e+2, -476490.56, -580804.5, 101904.375, -0.18129987, -0.10263064, -414171.13, 111618.33, 0.0, 10.000714, 9.999359 
4.7506922e+2, 2.5634497e+2, -92851.49, -367917.28, 121832.89, -0.23334354, -0.21582036, -46649.39, 381150.66, 0.0, 10.00277, 9.999159 
4.7508296e+2, 2.6634267e+2, -150972.14, -505383.25, -18735.955, -0.23253329, -0.27870107, -149984.42, 179837.95, 0.0, 10.002401, 9.997713 
4.750957e+2, 2.763399e+2, -306116.06, -509041.75, -30379.338, -0.1916327, -0.34485942, -301665.7, -69812.69, 0.0, 10.000577, 9.997893 
4.7511077e+2, 2.863393e+2, -70996.74, -255874.02, 87216.35, -0.1450942, -0.23248304, -36346.46, 97513.945, 0.0000000367379, 10.001126, 9.998701 
4.7512695e+2, 2.9634008e+2, 280820.44, -75225.625, 104422.6, -0.116403684, -0.041596655, 309186.06, 345040.84, 0.000004901276, 10.003032, 9.998355 
4.7513908e+2, 3.0633658e+2, 352000.03, -307918.56, -13450.694, -0.32140556, -0.07788265, 352274.06, 352274.06, 0.000032485186, 10.004461, 9.995734 
4.7515395e+2, 3.163328e+2, 507892.78, -213020.81, -73702.67, -0.15497878, -0.03017938, 515350.63, 515350.63, 0.00009636561, 10.005419, 9.995924 
4.8488843e+2, 1.2632637e+2, -1939193.5, -1434773.0, 203357.88, -0.1317341, -0.38087907, -1363001.1, 338984.94, 0.00006360682, 9.996762, 10.003465 
4.8490512e+2, 1.3633223e+2, -2103909.8, -1576203.9, -45254.984, 0.043449942, -0.09853864, -1572351.0, 31576.043, 0.000025765483, 9.995428, 10.002491 
4.8491403e+2, 1.4633332e+2, -1931714.0, -1698781.0, -170880.69, -0.34428814, -0.10588216, -1608451.3, -102533.414, 0.000006126259, 9.997064, 10.000174 
4.849291e+2, 1.5633212e+2, -1372504.8, -1364622.9, -106328.695, 0.13190812, -0.26160964, -1262162.1, 145771.05, 0.0000005794279, 10.000173, 10.000294 
4.8494372e+2, 1.6633339e+2, -1230582.4, -1199723.0, 101083.15, 0.20244962, -0.18389188, -1112898.8, 197023.92, 0.0000000048834687, 10.00028, 10.0007 
4.8495653e+2, 1.7633602e+2, -1387248.1, -1240520.0, 42399.668, -0.14957918, -0.005465106, -1229149.1, -17251.049, 0.0, 9.998602, 10.000554 
4.8496962e+2, 1.8633571e+2, -1320838.8, -1305974.5, -54416.94, -0.26928952, -0.014505762, -1258484.5, -144583.23, 0.0, 9.999022, 9.999228 
4.8498356e+2, 1.9633362e+2, -974171.9, -1073883.4, -4978.8125, -0.1755663, -0.16186933, -973923.94, 41997.688, 0.0, 10.000667, 9.999357 
4.849985e+2, 2.063331e+2, -873765.5, -907446.3, 75773.06, -0.108411245, -0.18193004, -812984.06, 104940.914, 0.0, 10.000396, 9.999958 
4.8501378e+2, 2.163334e+2, -987302.4, -918416.2, 46281.348, -0.083704606, -0.15823159, -895167.94, -75248.58, 0.0, 9.998972, 9.999897 
4.850273e+2, 2.2633359e+2, -874632.25, -881522.7, -48090.473, -0.090689965, -0.09375768, -829863.75, -107945.2, 0.0, 9.999366, 9.999286 
4.850399e+2, 2.3633361e+2, -552543.75, -666940.2, -52999.02, -0.1037219, -0.034950584, -531764.2, 92157.234, 0.0, 10.000864, 9.999364 
4.8505476e+2, 2.4633247e+2, -442498.2, -542057.6, 63234.93, -0.14033733, -0.09382431, -411800.1, 114128.47, 0.0, 10.0008545, 9.999555 
4.8507088e+2, 2.5633058e+2, -493038.88, -543265.6, 17208.766, -0.19452408, -0.25324896, -487708.47, -59769.06, 0.0, 9.999952, 9.999307 
4.8508504e+2, 2.6632842e+2, -405736.84, -658792.4, -119657.71, -0.17843215, -0.28990632, -358117.44, -28156.674, 0.0, 10.000781, 9.997442 
4.8509818e+2, 2.7632603e+2, -23675.252, -407151.47, -86595.44, -0.10491758, -0.28803846, -5027.353, 226962.64, 0.0, 10.002657, 9.997596 
4.8511294e+2, 2.8632516e+2, 154267.55, -197326.25, 19590.61, -0.12629642, -0.16882966, 155355.75, 289357.4, 0.00000008825205, 10.002894, 9.998248 
4.8512843e+2, 2.9632536e+2, 131431.88, -180137.14, -60098.78, -0.22355151, 0.011220611, 142622.44, 178624.19, 0.0000056074396, 10.002161, 9.998045 
4.85142e+2, 3.0632213e+2, 157303.39, -327964.5, -83840.57, -0.3848516, -0.020662712, 171380.33, 171380.33, 0.000034672463, 10.002804, 9.996384 
4.851599e+2, 3.1631756e+2, 346155.06, -241950.42, -36375.285, -0.028389266, -0.11730979, 348396.38, 348396.38, 0.00009943883, 10.004102, 9.996347 
4.948871e+2, 1.2631695e+2, -2102134.8, -1784643.1, 90686.7, 0.024408389, 0.043287694, -1760565.8, -58481.5, 0.00005696404, 9.996822, 10.00103 
4.9490002e+2, 1.363173e+2, -2230817.8, -1833323.8, -67157.66, -0.017653542, 0.003096365, -1822283.9, -218195.2, 0.00002106699, 9.995407, 10.000736 
4.9490866e+2, 1.4631851e+2, -1797527.6, -1419478.0, -52358.39, -0.60097283, -0.02511858, -1412360.6, 93715.766, 0.000004231548, 9.997057, 10.002094 
4.9492675e+2, 1.563213e+2, -1261122.9, -1141802.8, -6186.71, -0.1387804, 0.029889468, -1141482.9, 266560.9, 0.00000029436407, 10.000211, 10.001804 
4.9494258e+2, 1.6632189e+2, -1305124.3, -1361316.6, 30197.574, 0.044500493, 0.03667594, -1291973.8, 18063.889, 0.0000000005507737, 10.000306, 9.999579 
4.9495554e+2, 1.7632097e+2, -1443871.3, -1358317.5, -1581.7074, -0.124545984, -0.02935318, -1358288.3, -146239.16, 0.0, 9.998602, 9.999745 
4.9496993e+2, 1.8632045e+2, -1245367.8, -1140437.6, 4601.6, -0.14870551, -0.09154413, -1140236.1, -26183.951, 0.0, 9.998983, 10.000383 
4.9498594e+2, 1.9632009e+2, -910037.25, -935905.6, 46052.46, -0.014655135, -0.17812265, -875137.1, 140913.84, 0.0, 10.000642, 10.000319 
4.95e+2, 2.063199e+2, -905575.25, -962198.8, 16247.92, -0.00591929, -0.18621057, -901244.2, 16805.8, 0.0, 10.000345, 9.99961 
4.9501273e+2, 2.1631974e+2, -1020539.94, -978582.94, 11190.695, -0.09811957, -0.17582805, -975784.75, -155734.39, 0.0, 9.998927, 9.999511 
4.950264e+2, 2.2631909e+2, -923482.75, -970085.7, 6017.087, -0.12986712, -0.14389756, -922718.4, -200660.19, 0.0, 9.999312, 9.998703 
4.9504077e+2, 2.3631811e+2, -601267.25, -755581.5, -3600.3333, -0.1147072, -0.12558888, -601183.25, 22887.71, 0.0, 10.00081, 9.998782 
4.9505627e+2, 2.46317e+2, -482277.88, -617593.06, 23859.613, -0.08503801, -0.12941732, -478194.06, 47886.887, 0.0, 10.000825, 9.999051 
4.9507242e+2, 2.5631568e+2, -526165.6, -601791.2, 1220.0162, -0.0489102, -0.17892994, -526145.94, -98055.4, 0.0, 9.999907, 9.998929 
4.9508706e+2, 2.663147e+2, -380837.06, -599165.94, -53014.547, -0.06736127, -0.10792797, -368644.94, -38542.82, 0.0, 10.000747, 9.997869 
4.951008e+2, 2.7631375e+2, -20456.086, -390450.3, -22475.754, -0.11936199, -0.002459763, -19095.77, 213020.89, 0.0, 10.002614, 9.99773 
4.9511516e+2, 2.8631142e+2, 32985.76, -443694.28, -12211.873, -0.20350923, 0.05973079, 33298.406, 167442.19, 0.00000018947561, 10.002872, 9.996566 
4.9512976e+2, 2.9630837e+2, 51068.707, -342423.3, -66911.09, -0.3209361, 0.0825456, 62135.32, 98312.83, 0.000005616016, 10.002138, 9.9969425 
4.95145e+2, 3.0630606e+2, 338930.66, 53358.473, -32958.543, -0.37979946, 0.040049195, 342685.1, 342685.1, 0.000033520122, 10.002786, 9.999012 
4.951657e+2, 3.163025e+2, 516600.06, 125560.945, -5370.951, 0.110082515, -0.22101404, 516673.8, 516673.8, 0.00009575545, 10.004045, 9.9988985 
5.0488394e+2, 1.2630321e+2, -2270000.5, -1945671.3, -18368.678, 0.07044514, 0.13176134, -1944634.3, -242412.55, 0.000046012723, 9.996036, 10.000301 
5.0489724e+2, 1.3630214e+2, -1894765.5, -1730121.9, 134.84969, 0.045642488, 0.012655337, -1730121.8, -125879.14, 0.000015500982, 9.997957, 10.000222 
5.04906e+2, 1.4630316e+2, -1610304.5, -1321853.5, 16154.584, -0.63016486, -0.016667956, -1320951.6, 185280.83, 0.0000026245805, 9.998317, 10.002154 
5.049247e+2, 1.5630671e+2, -1667257.0, -1334737.3, -104869.16, -0.21938409, 0.11186893, -1304426.9, 103764.24, 0.00000011750303, 9.997414, 10.001828 
5.0494105e+2, 1.663071e+2, -1693195.9, -1551444.5, -110821.92, -0.0014756267, 0.10189412, -1490772.3, -180586.34, 0.000000000026416515, 9.997657, 9.999549 
5.049545e+2, 1.7630541e+2, -1440498.1, -1357491.4, -66597.05, -0.080454655, -0.037552267, -1320523.8, -108319.586, 0.0, 9.998627, 9.99974 
5.0496924e+2, 1.8630506e+2, -1235066.4, -1107441.0, -23274.04, -0.11176982, -0.09799679, -1103329.1, 10876.221, 0.0, 9.998938, 10.000631 
5.049853e+2, 1.9630545e+2, -1157544.3, -1027250.44, -62854.613, -0.04697074, -0.13172272, -1001872.1, 14324.336, 0.0, 9.998834, 10.000558 
5.049997e+2, 2.0630556e+2, -1005994.56, -994117.6, -117680.35, -0.027618816, -0.13009694, -882226.0, 35966.273, 0.0, 9.999585, 9.999753 
5.050129e+2, 2.1630536e+2, -741397.7, -835315.94, -91357.44, -0.059198774, -0.13446987, -685637.06, 134555.14, 0.0, 10.000817, 9.999576 
5.0502694e+2, 2.2630414e+2, -645020.94, -896331.5, -37321.805, -0.113414094, -0.1335375, -639595.44, 82610.27, 0.0, 10.00148, 9.998167 
5.050415e+2, 2.363022e+2, -496131.6, -757761.06, -61426.113, -0.16944979, -0.15731347, -482427.6, 141800.58, 0.0, 10.0017605, 9.998311 
5.0505716e+2, 2.4630103e+2, -425219.78, -597617.75, -62728.035, -0.09625857, -0.14206523, -404811.66, 121427.58, 0.0, 10.00125, 9.998983 
5.0507355e+2, 2.563002e+2, -472371.47, -582784.4, -45844.87, 0.05563751, -0.13390847, -455817.88, -27573.303, 0.0, 10.00031, 9.998865 
5.050887e+2, 2.6629925e+2, -292155.16, -566769.1, -1882.6068, -0.007076219, -0.05212157, -292142.25, 38113.52, 0.0, 10.001404, 9.997773 
5.051031e+2, 2.7629808e+2, 129222.86, -327975.2, -39138.63, -0.20154515, 0.039360255, 132549.14, 364821.4, 0.00000000061010413, 10.003691, 9.997638 
5.051182e+2, 2.8629512e+2, 173875.98, -379544.78, -57006.363, -0.23383468, 0.043125045, 179687.05, 313991.63, 0.00000027597625, 10.003854, 9.996534 
5.051336e+2, 2.962912e+2, 131547.19, -308617.5, 7278.0024, -0.17206408, -0.014898054, 131667.5, 168012.47, 0.0000049400037, 10.002718, 9.996896 
5.0514925e+2, 3.062895e+2, 363522.28, 54797.25, 45752.12, -0.23754787, 0.010326205, 370159.9, 370159.9, 0.000029285811, 10.002999, 9.998928 
5.051692e+2, 3.162864e+2, 532632.7, 165101.38, -164323.56, 0.062106628, -0.19948763, 595386.94, 595386.94, 0.000085740525, 10.004008, 9.999202 
5.1487833e+2, 1.2628488e+2, -2192198.3, -1788375.9, -16356.705, -0.1196313, -0.12720892, -1787714.5, -85313.48, 0.00003362694, 9.996057, 10.001365 
5.148968e+2, 1.3628691e+2, -1826662.0, -1601711.3, 74018.16, 0.18873657, -0.06371781, -1579541.1, 24845.973, 0.0000102900585, 9.9980135, 10.001074 
5.14906e+2, 1.4628738e+2, -1739008.4, -1601163.9, -20898.773, -0.47942227, -0.07535581, -1598065.0, -91680.3, 0.0000014940234, 9.998366, 10.000215 
5.149228e+2, 1.5628822e+2, -1776816.4, -1560100.3, -126188.29, -0.16424304, -0.02713468, -1502130.4, -93754.03, 0.00000003629146, 9.997407, 10.000283 
5.1493895e+2, 1.6628896e+2, -1625314.9, -1402188.8, -76953.055, 0.014741634, 0.004030076, -1378222.9, -67854.32, 0.0, 9.997623, 10.000587 
5.1495343e+2, 1.7628938e+2, -1382259.3, -1239063.1, -29321.002, -0.070599675, -0.02691104, -1233291.9, -20928.719, 0.0, 9.998636, 10.000547 
5.149672e+2, 1.8628962e+2, -1283308.0, -1203925.6, -33276.164, -0.21792082, -0.023363627, -1191822.0, -77462.4, 0.0, 9.998924, 9.999972 
5.1498145e+2, 1.9628972e+2, -1196317.8, -1104046.9, -55026.563, -0.32758448, -0.024358356, -1078374.3, -62016.55, 0.0, 9.998813, 10.000043 
5.149974e+2, 2.0628995e+2, -974559.5, -915054.2, -75431.17, -0.22462617, -0.019939851, -863720.0, 54632.58, 0.0, 9.999524, 10.000324 
5.150143e+2, 2.1629013e+2, -714917.6, -771888.06, -45456.184, -0.01732516, -0.04578807, -689758.94, 130587.58, 0.0, 10.000775, 10.000032 
5.150288e+2, 2.2628856e+2, -687306.4, -969962.9, -32762.629, -0.08913935, -0.07257928, -683558.56, 38804.05, 0.0, 10.00142, 9.99769 
5.150418e+2, 2.3628582e+2, -529705.1, -814635.1, -52506.473, -0.322409, -0.12961948, -520337.3, 104055.78, 0.0, 10.001704, 9.997948 
5.150572e+2, 2.4628456e+2, -402886.56, -543076.9, -103809.44, -0.22668038, -0.1298404, -347723.06, 178680.27, 0.0, 10.001217, 9.999374 
5.15074e+2, 2.5628412e+2, -456955.78, -546633.44, -60181.47, 0.06253354, -0.12425769, -426745.78, 1656.1918, 0.0, 10.00029, 9.999124 
5.150898e+2, 2.6628214e+2, -341569.9, -663447.56, 80526.49, -0.050513837, -0.11976636, -322548.1, 7873.6064, 0.0, 10.001385, 9.997118 
5.1510483e+2, 2.7627903e+2, 89172.72, -388431.22, 37956.074, -0.40510824, -0.15354325, 92170.34, 324626.75, 0.0000000018853024, 10.003594, 9.997269 
5.1512176e+2, 2.8627622e+2, 274546.13, -156402.83, -106007.805, -0.27518806, -0.20646812, 299211.0, 433695.03, 0.00000034894228, 10.003793, 9.998097 
5.151396e+2, 2.962738e+2, 198285.48, -168616.16, -18515.088, 0.13946387, -0.2726945, 199217.44, 235722.83, 0.0000043002137, 10.002708, 9.997864 
5.151545e+2, 3.062724e+2, 179391.72, -328121.25, 82944.39, -0.028569482, -0.10489415, 192603.63, 192603.63, 0.00002546161, 10.003008, 9.996292 
5.151703e+2, 3.1626916e+2, 388789.1, -103729.04, -120298.07, -0.25076872, -0.07158607, 416601.47, 416601.47, 0.0000772697, 10.003892, 9.997406 
5.2487445e+2, 1.2626866e+2, -2031011.6, -1686729.4, -42074.39, -0.16199785, -0.15696591, -1681662.1, 20901.936, 0.000024083258, 9.997048, 10.001587 
5.2489537e+2, 1.3627198e+2, -1927108.5, -1618916.4, 23044.217, 0.29343224, 0.0014532487, -1617202.9, -12667.072, 0.000006343457, 9.997169, 10.001372 
5.2490515e+2, 1.462724e+2, -1806967.6, -1669501.8, -43654.992, -0.3799084, -0.011991734, -1656810.0, -150275.86, 0.00000066930806, 9.998059, 9.999891 
5.2492106e+2, 1.562722e+2, -1541043.9, -1476766.3, -42705.46, -0.15910538, -0.03639586, -1455457.4, -46920.344, 0.000000004981165, 9.999154, 10.000012 
5.249371e+2, 1.6627279e+2, -1383036.3, -1278940.6, 25898.238, -0.0145229865, -0.011284636, -1272853.3, 37676.703, 0.0, 9.9992485, 10.00066 
5.249518e+2, 1.762737e+2, -1359279.1, -1223045.3, -8823.264, -0.0929504, -0.0012468335, -1222476.1, -9957.476, 0.0, 9.998769, 10.0006 
5.2496606e+2, 1.8627386e+2, -1304630.3, -1235316.9, -13028.873, -0.2169673, 0.0030811033, -1232948.8, -118433.17, 0.0, 9.998867, 9.999787 
5.249808e+2, 1.9627354e+2, -1143172.6, -1100471.8, -6927.313, -0.2942704, -0.02116046, -1099376.0, -82858.11, 0.0, 9.99928, 9.99984 
5.2499735e+2, 2.0627354e+2, -978566.8, -971763.3, -29636.365, -0.19055918, -0.0016374843, -945334.06, -26817.43, 0.0, 9.999732, 9.999839 
5.250149e+2, 2.1627364e+2, -826358.94, -866702.56, -92337.02, -0.0012454345, 0.013436695, -752016.06, 68498.58, 0.0, 10.000186, 9.999668 
5.2502954e+2, 2.2627231e+2, -813982.25, -971349.5, -80352.91, -0.089591615, -0.0025515687, -780203.9, -57676.242, 0.0, 10.000301, 9.998216 
5.250426e+2, 2.3627e+2, -718853.25, -862150.0, -35260.51, -0.33573768, -0.06848568, -710646.8, -86095.72, 0.0, 10.000228, 9.998329 
5.2505815e+2, 2.4626848e+2, -396386.75, -600063.8, -77242.37, -0.26197034, -0.08024496, -370407.2, 156156.4, 0.0, 10.00152, 9.9988365 
5.250753e+2, 2.5626737e+2, -2368.5242, -374520.22, -116710.16, -0.0001444438, -0.087224804, 31204.168, 459774.34, 0.0, 10.003618, 9.998703 
5.250914e+2, 2.662651e+2, -100932.59, -508160.38, 30145.969, -0.09286895, -0.11183908, -98713.06, 231878.55, 0.0, 10.002858, 9.997479 
5.251069e+2, 2.7626196e+2, -355411.06, -559752.75, 58683.195, -0.3853964, -0.18624614, -339757.47, -107133.47, 0.00000000009174081, 10.000353, 9.997655 
5.251243e+2, 2.862598e+2, -140634.69, -308155.1, -72270.13, -0.2391324, -0.21642886, -113766.04, 20878.064, 0.00000033351301, 10.000741, 9.998522 
5.2514255e+2, 2.9625836e+2, 247178.64, -114858.04, -81542.64, 0.15775476, -0.22788717, 264697.06, 301352.78, 0.0000041079616, 10.002915, 9.998133 
5.2515805e+2, 3.0625638e+2, 250233.56, -357066.38, 89572.4, -0.0076357774, -0.09663716, 263169.3, 263169.3, 0.000024461535, 10.003763, 9.995733 
5.251734e+2, 3.1625253e+2, 353488.0, -141594.55, 6634.356, -0.3086157, -0.071952306, 353576.88, 353576.88, 0.000074947064, 10.003726, 9.9972315 
5.3487176e+2, 1.2625451e+2, -2071725.9, -1774497.1, -119800.336, -0.1710861, 0.0446965, -1732223.1, -29511.955, 0.000017799504, 9.997083, 10.00096 
5.348928e+2, 1.3625741e+2, -1953961.5, -1664520.4, 38211.75, 0.31046817, 0.21713229, -1659560.6, -54871.902, 0.0000036805177, 9.997135, 10.001075 
5.349033e+2, 1.4625822e+2, -1711426.1, -1474592.8, -2678.1199, -0.39264482, 0.18192151, -1474562.5, 32118.252, 0.00000019448485, 9.998065, 10.001228 
5.349194e+2, 1.5625872e+2, -1463415.0, -1323406.6, -3044.51, -0.25743118, 0.09177578, -1323340.5, 85331.77, 0.00000000000050979853, 9.999183, 10.001053 
5.349352e+2, 1.6625874e+2, -1444348.1, -1409443.8, 1422.962, -0.14401099, 0.06614409, -1409385.9, -98716.625, 0.0, 9.999264, 9.999756 
5.349497e+2, 1.7625831e+2, -1410232.4, -1333070.3, -17718.795, -0.19813101, 0.034980506, -1329196.0, -116524.83, 0.0, 9.998785, 9.999839 
5.3496563e+2, 1.8625768e+2, -1286186.6, -1192884.8, -1413.9133, -0.16120535, -0.025535483, -1192863.4, -78189.57, 0.0, 9.998852, 10.000085 
5.349831e+2, 1.9625682e+2, -1143991.8, -1097239.1, 14388.125, -0.002099217, -0.13057885, -1093166.1, -76488.53, 0.0, 9.999254, 9.999877 
5.349993e+2, 2.0625633e+2, -1094004.4, -1200503.5, -16780.219, 0.01962579, -0.075674616, -1091423.0, -172738.08, 0.0, 9.999687, 9.998287 
5.3501457e+2, 2.1625596e+2, -914558.25, -1039681.1, -72506.414, -0.062226236, 0.04564466, -881353.75, -60658.246, 0.0, 10.000141, 9.998502 
5.3502923e+2, 2.2625543e+2, -717832.3, -763389.06, -88345.51, -0.16423126, 0.07780478, -649375.94, 73324.35, 0.0, 10.000261, 9.999666 
5.3504366e+2, 2.3625463e+2, -646913.06, -704813.6, -22817.836, -0.26520112, 0.02001206, -639001.8, -14299.199, 0.0, 10.000191, 9.999429 
5.3505987e+2, 2.4625269e+2, -506740.25, -819112.56, -642.353, -0.25497591, -0.0004211679, -506738.9, 19981.871, 0.0, 10.001481, 9.997351 
5.350772e+2, 2.562499e+2, -90326.28, -543210.44, -52581.47, -0.18271579, -0.02712125, -84301.53, 344448.1, 0.0, 10.003557, 9.997574 
5.350935e+2, 2.6624814e+2, -6360.452, -304125.8, -68473.04, -0.18151338, -0.033731487, 8630.628, 339396.5, 0.0, 10.002826, 9.998897 
5.351091e+2, 2.7624685e+2, -274655.9, -392079.38, -7540.4165, -0.2179651, -0.06481514, -274173.66, -41398.047, 0.0, 10.000351, 9.998809 
5.351257e+2, 2.8624576e+2, -186142.64, -409377.84, 4237.0957, -0.18913583, 0.0016783085, -186062.25, -51276.45, 0.00000019037492, 10.000769, 9.997814 
5.351426e+2, 2.9624474e+2, 207443.94, -184044.13, -4091.866, -0.14123324, 0.10746835, 207486.7, 244283.2, 0.0000040138116, 10.002857, 9.997685 
5.351598e+2, 3.0624133e+2, 336053.7, -165154.77, 86127.19, -0.2033675, 0.0359115, 350440.75, 350440.75, 0.000024849203, 10.003709, 9.997074 
5.3517807e+2, 3.162363e+2, 437789.7, 52602.81, 24111.912, -0.2487137, -0.19624056, 439293.2, 439293.2, 0.000076016775, 10.003654, 9.998593 
5.4486966e+2, 1.262396e+2, -2081895.6, -1751317.5, -169548.16, -0.06924711, 0.16898645, -1679821.8, 23042.852, 0.000013143151, 9.9969, 10.001216 
5.448897e+2, 1.3624178e+2, -1978665.4, -1644201.4, 107089.33, 0.3089985, 0.23774733, -1612851.8, -8006.824, 0.000002162896, 9.996828, 10.001366 
5.4490125e+2, 1.4624281e+2, -1801655.3, -1518677.1, 76510.91, -0.36387104, 0.21319877, -1499315.0, 7518.6284, 0.000000029643958, 9.997449, 10.001223 
5.4491866e+2, 1.5624376e+2, -1567004.1, -1371274.9, -45109.645, -0.20929404, 0.16891462, -1361378.9, 47442.805, 0.0, 9.998465, 10.001067 
5.4493463e+2, 1.6624363e+2, -1466429.8, -1422269.6, -63389.418, -0.113206506, 0.12732047, -1377224.8, -66404.75, 0.0, 9.999135, 9.9997225 
5.4494894e+2, 1.7624268e+2, -1298428.0, -1278851.0, -24832.957, -0.18814684, 0.046249, -1261947.0, -49120.77, 0.0, 9.999565, 9.999827 
5.449654e+2, 1.8624191e+2, -1098425.9, -1097054.3, 34384.69, -0.1254129, -0.028100591, -1063348.5, 51480.363, 0.0, 10.000101, 10.00015 
5.4498386e+2, 1.9624126e+2, -925756.94, -987709.7, 24241.22, 0.08015266, -0.1213992, -917399.2, 99430.53, 0.0, 10.000723, 9.999925 
5.449999e+2, 2.0624049e+2, -934487.0, -1161351.5, 44743.87, 0.047330383, -0.07713145, -925981.2, -7141.1294, 0.0, 10.000945, 9.997952 
5.4501414e+2, 2.1623954e+2, -822957.3, -1023252.94, 70804.44, -0.1475001, 0.01797311, -800455.8, 20401.715, 0.0, 10.000893, 9.998253 
5.450297e+2, 2.2623913e+2, -566136.3, -660990.1, 43453.16, -0.18080139, 0.05793584, -549239.94, 173620.5, 0.0, 10.001174, 9.99993 
5.4504615e+2, 2.362389e+2, -416686.8, -575120.8, 12835.5625, -0.1053491, 0.030402463, -415653.7, 209202.05, 0.0, 10.001684, 9.999603 
5.450624e+2, 2.4623671e+2, -500342.13, -860417.7, 82022.414, -0.1526996, 0.0008191167, -482538.38, 44338.355, 0.0, 10.001708, 9.99696 
5.450787e+2, 2.5623325e+2, -421715.1, -739440.0, 92245.36, -0.2816418, -0.05760038, -396875.38, 32038.955, 0.0, 10.001445, 9.99724 
5.450952e+2, 2.6623166e+2, -140762.81, -378319.25, -4568.2983, -0.24281746, -0.027479066, -140675.0, 190255.0, 0.0, 10.0019455, 9.99881 
5.45112e+2, 2.7623105e+2, 89900.54, -233172.08, -55776.355, -0.09204147, 0.019891966, 99258.875, 332192.6, 0.0, 10.002925, 9.998665 
5.4512835e+2, 2.8622964e+2, 157322.78, -300606.7, -8677.918, -0.1282696, 0.089843266, 157487.17, 292434.75, 0.00000011177434, 10.003378, 9.997302 
5.451442e+2, 2.9622766e+2, 279358.25, -186422.31, -21205.94, -0.29007015, 0.14752926, 280321.7, 317290.0, 0.0000045059896, 10.003523, 9.997343 
5.451626e+2, 3.0622396e+2, 278337.38, -121957.12, 3623.6768, -0.2603415, 0.02982867, 278370.2, 278370.2, 0.00002637506, 10.003005, 9.9977045 
5.451823e+2, 3.1622002e+2, 220659.77, -4360.9956, -123102.984, -0.095313236, -0.15585771, 274921.47, 274921.47, 0.000078136196, 10.001949, 9.999021 
5.5486786e+2, 1.2622398e+2, -1989946.1, -1556597.4, -253714.77, 0.031731993, 0.22923964, -1439626.8, 263396.8, 0.000010165176, 9.996901, 10.002543 
5.548859e+2, 1.3622509e+2, -1911271.4, -1501626.1, 116058.92, 0.23806708, 0.06285305, -1471030.0, 133973.67, 0.0000015959415, 9.996824, 10.002343 
5.54899e+2, 1.4622614e+2, -1896935.0, -1720547.1, 109187.28, -0.34804228, 0.07603146, -1668384.3, -161391.6, 0.000000016896806, 9.997462, 9.999832 
5.549187e+2, 1.5622732e+2, -1643614.5, -1533529.8, -3854.5317, -0.063286364, 0.19284186, -1533395.0, -124409.48, 0.0, 9.998475, 9.999951 
5.549353e+2, 1.6622743e+2, -1404781.3, -1296322.1, -52492.707, 0.0281523, 0.17598622, -1275077.6, 35904.945, 0.0, 9.999144, 10.000581 
5.549494e+2, 1.762267e+2, -1247661.6, -1173057.8, -3903.4504, -0.109804966, 0.031381123, -1172854.1, 40129.945, 0.0, 9.999563, 10.000554 
5.549654e+2, 1.8622664e+2, -1109574.6, -1114431.4, 52983.496, -0.15152577, -0.00004078826, -1058963.9, 56016.348, 0.0, 10.000077, 10.000043 
5.5498296e+2, 1.9622688e+2, -930530.7, -991674.5, 49507.188, -0.09430134, 0.0105128335, -902916.6, 114057.45, 0.0, 10.000692, 9.999917 
5.549988e+2, 2.06226e+2, -874087.94, -1027452.44, 38177.402, -0.15818983, -0.007898452, -865109.94, 53872.574, 0.0, 10.000911, 9.998887 
5.550136e+2, 2.1622431e+2, -783844.9, -929462.6, 76131.41, -0.3066444, -0.07731419, -751310.9, 69690.25, 0.0, 10.000834, 9.998927 
5.550309e+2, 2.2622336e+2, -641926.1, -802428.25, 58312.367, -0.18995157, -0.068453856, -622977.56, 100031.195, 0.0, 10.00111, 9.998988 
5.5504996e+2, 2.3622273e+2, -479076.2, -689525.7, 34097.89, 0.09614124, -0.041161582, -473689.38, 151321.3, 0.0, 10.001619, 9.998849 
5.5506575e+2, 2.4622054e+2, -459178.53, -765270.2, 67379.8, -0.005503009, -0.07427903, -445002.75, 82028.77, 0.0, 10.001666, 9.997633 
5.550795e+2, 2.562173e+2, -400341.9, -684759.1, 92885.734, -0.35086837, -0.1757481, -372694.53, 56370.477, 0.0, 10.0014, 9.997638 
5.550965e+2, 2.6621553e+2, -252810.94, -603642.5, 27570.72, -0.3212386, -0.09458408, -250657.45, 80427.555, 0.0, 10.001917, 9.997273 
5.551154e+2, 2.7621457e+2, -18728.36, -445629.63, -16208.437, -0.053409796, 0.06966274, -18113.848, 214984.27, 0.0, 10.002871, 9.9972315 
5.551321e+2, 2.862115e+2, 132702.45, -351335.8, -5417.001, -0.102080904, 0.05701429, 132763.06, 267891.84, 0.00000024371042, 10.0033655, 9.996965 
5.5514723e+2, 2.9620707e+2, 259048.05, -230206.33, -11776.605, -0.3588756, -0.09778138, 259331.34, 296502.25, 0.0000058589785, 10.003513, 9.997056 
5.551658e+2, 3.062043e+2, 271268.53, -126755.54, -35899.285, -0.2501712, -0.11197444, 274480.5, 274480.5, 0.000029893921, 10.002972, 9.997681 
5.551859e+2, 3.162035e+2, 187135.64, -63494.504, -126693.99, 0.042434778, 0.022593394, 240020.56, 240020.56, 0.00008260639, 10.001908, 9.998631 
5.648646e+2, 1.2620813e+2, -2052565.5, -1570759.9, -184092.25, 0.04720484, 0.1876715, -1508472.8, 194705.95, 0.000007999431, 9.996377, 10.002705 
5.6488323e+2, 1.3620974e+2, -1641264.6, -1371376.0, 118823.33, 0.2055305, 0.0603239, -1326517.8, 278635.0, 0.00000128022, 9.99865, 10.002365 
5.6489784e+2, 1.4621037e+2, -1731332.9, -1704634.9, 90126.52, -0.27512226, 0.06282785, -1626874.1, -119728.27, 0.000000037787355, 9.99888, 9.999258 
5.649177e+2, 1.5621032e+2, -1767420.6, -1643802.5, 28510.578, 0.020301055, 0.11154634, -1637543.9, -228392.52, 0.0, 9.99785, 9.999496 
5.649345e+2, 1.6621043e+2, -1559836.4, -1348945.9, 7359.949, 0.09804186, 0.10528314, -1348689.4, -37540.625, 0.0, 9.997986, 10.00078 
5.649493e+2, 1.7621052e+2, -1331355.0, -1195826.9, -7374.028, -0.04107392, 0.024183, -1195426.9, 17715.625, 0.0, 9.998908, 10.000715 
5.6496525e+2, 1.8621092e+2, -1266834.1, -1199610.4, 24039.94, -0.11482871, 0.03681648, -1191898.1, -76762.67, 0.0, 9.999044, 9.9999485 
5.6498235e+2, 1.9621141e+2, -1228063.5, -1136489.4, 18258.104, -0.119308345, 0.077583924, -1132983.4, -115854.484, 0.0, 9.998667, 9.999889 
5.6499887e+2, 2.0621046e+2, -1076043.0, -1099992.8, 4729.315, -0.1698702, 0.040144317, -1075143.0, -156005.97, 0.0, 9.99942, 9.999105 
5.65015e+2, 2.1620853e+2, -765405.56, -904042.1, -21501.88, -0.24818707, -0.07535498, -762147.3, 59007.92, 0.0, 10.000898, 9.9990635 
5.650326e+2, 2.2620718e+2, -634033.2, -876245.44, -50068.21, -0.14971454, -0.072385095, -624091.5, 99076.08, 0.0, 10.001495, 9.998295 
5.6505114e+2, 2.3620608e+2, -533364.2, -772218.06, -63589.8, 0.069418885, -0.025093459, -517489.78, 107687.516, 0.0, 10.001495, 9.998335 
5.650674e+2, 2.4620429e+2, -431172.2, -694868.0, -29022.75, -0.00014760623, -0.025017457, -428015.7, 99179.07, 0.0, 10.001628, 9.998126 
5.6508213e+2, 2.5620186e+2, -300930.8, -597202.1, -24058.982, -0.25039035, -0.09276181, -298989.8, 130229.12, 0.0, 10.001911, 9.997992 
5.650993e+2, 2.6619968e+2, -222201.06, -643758.56, -11897.521, -0.24659027, -0.040090684, -221865.55, 109377.51, 0.0, 10.002376, 9.99677 
5.65118e+2, 2.7619755e+2, -30335.0, -487744.88, 6698.2573, -0.07639105, 0.055808593, -30236.932, 203031.1, 0.0, 10.002968, 9.996881 
5.6513506e+2, 2.8619426e+2, 64444.55, -344964.22, 54054.99, -0.10577864, 0.019231258, 71461.27, 206760.77, 0.00000046127252, 10.0027275, 9.997316 
5.651508e+2, 2.9619032e+2, 55046.277, -291615.4, 88368.84, -0.26588804, -0.124920316, 76272.97, 113607.87, 0.000007819883, 10.001958, 9.997381 
5.6516933e+2, 3.0618814e+2, 157893.19, -207495.97, 96419.86, -0.15827934, -0.083743066, 181775.7, 181775.7, 0.0000355406, 10.002283, 9.997473 
5.651884e+2, 3.1618732e+2, 348685.16, -27333.28, -5363.223, 0.04733951, 0.072301015, 348761.66, 348761.66, 0.00009138609, 10.003186, 9.998272 
5.748592e+2, 1.2619202e+2, -2122383.8, -1720987.4, -154254.38, -0.15945953, 0.032364145, -1668556.9, 34773.066, 0.0000055281434, 9.996405, 10.001653 
5.7488155e+2, 1.361959e+2, -1707912.6, -1516543.6, 193461.02, 0.15267076, 0.24266104, -1396397.9, 208893.23, 0.00000085256136, 9.998677, 10.001352 
5.748977e+2, 1.4619565e+2, -1708187.3, -1662810.4, 41662.836, -0.19316658, 0.18892176, -1638058.8, -130766.53, 0.00000002938157, 9.998908, 9.999532 
5.749153e+2, 1.5619273e+2, -1756254.3, -1617189.8, 2727.5852, -0.010847544, -0.07307358, -1617136.3, -207817.11, 0.0, 9.99784, 9.999683 
5.7493204e+2, 1.661926e+2, -1592657.6, -1417652.0, 37131.31, 0.04277407, -0.086672306, -1410099.8, -98781.195, 0.0, 9.99798, 10.000313 
5.749484e+2, 1.7619412e+2, -1359445.1, -1257464.3, 27722.73, -0.035411816, 0.019837793, -1250415.3, -37113.477, 0.0, 9.998919, 10.000287 
5.749649e+2, 1.8619482e+2, -1270873.9, -1202811.0, 5613.1426, -0.0669627, 0.08344597, -1202351.3, -87057.164, 0.0, 9.999027, 9.999933 
5.749818e+2, 1.9619489e+2, -1240992.5, -1150889.1, 17016.916, -0.048273075, 0.08542075, -1147782.4, -130488.88, 0.0, 9.998615, 9.999816 
5.7499975e+2, 2.0619391e+2, -1117012.0, -1174174.1, 55122.137, -0.032507744, 0.07447396, -1083501.8, -164198.7, 0.0, 9.99937, 9.998622 
5.750182e+2, 2.1619214e+2, -806732.44, -978622.9, 32395.46, -0.025439711, 0.023648044, -800829.7, 20490.555, 0.0, 10.000845, 9.998581 
5.750346e+2, 2.2619054e+2, -666975.1, -928299.2, -54273.62, -0.10760428, 0.041922845, -656151.5, 67185.9, 0.0, 10.00143, 9.997967 
5.750497e+2, 2.36189e+2, -562651.2, -816910.3, -55849.02, -0.23740926, 0.07901062, -550924.56, 74430.555, 0.0, 10.001427, 9.998061 
5.750673e+2, 2.4618787e+2, -412542.9, -652784.06, -23686.674, -0.19095463, 0.1411598, -410229.78, 117137.13, 0.0, 10.001606, 9.998429 
5.750863e+2, 2.5618687e+2, -284911.3, -553223.3, -7476.696, -0.03702077, 0.1867675, -284703.13, 144673.2, 0.0, 10.001863, 9.998319 
5.7510364e+2, 2.6618403e+2, -190448.16, -573033.4, 7111.902, -0.067177415, 0.13206594, -190316.0, 141087.94, 0.0, 10.002349, 9.997272 
5.7511973e+2, 2.761799e+2, 4977.3784, -408124.63, 27670.422, -0.2153344, -0.022079248, 6822.558, 240266.77, 0.0, 10.002931, 9.997451 
5.7513696e+2, 2.8617784e+2, 131940.36, -193518.78, 17923.299, -0.19449423, -0.022699513, 132924.44, 268385.56, 0.0000006054728, 10.002681, 9.99838 
5.7515484e+2, 2.9617715e+2, 113754.96, -165035.11, 72931.414, -0.07173605, 0.055108752, 131681.14, 169144.13, 0.000009300432, 10.001936, 9.998263 
5.7517296e+2, 3.061752e+2, 132793.77, -256950.5, 126531.29, -0.029638186, 0.100278914, 170269.05, 170269.05, 0.000039992523, 10.0022745, 9.997138 
5.751897e+2, 3.1617123e+2, 319923.13, -75766.3, 55157.543, -0.1697105, -0.02108007, 327468.0, 327468.0, 0.00009939411, 10.0031395, 9.997964 
5.8485574e+2, 1.2617591e+2, -2165483.0, -1870145.0, -146535.88, -0.15360235, -0.057086304, -1809778.1, -106297.42, 0.0000029888902, 9.996655, 10.000509 
5.848795e+2, 1.361796e+2, -1801908.6, -1677716.4, 198997.98, 0.100267805, 0.256708, -1531351.1, 74100.79, 0.00000032572908, 9.998529, 10.0003195 
5.8489734e+2, 1.4617935e+2, -1625056.6, -1592210.8, -23179.955, -0.13838679, 0.23575439, -1580225.5, -72770.5, 0.0000000021906112, 9.999354, 9.999796 
5.849138e+2, 1.5617669e+2, -1468458.8, -1452585.4, -71407.266, -0.029033119, -0.031487912, -1388675.0, 20802.496, 0.0, 9.9997015, 9.999912 
5.849304e+2, 1.6617645e+2, -1354922.8, -1314026.3, 14278.204, -0.0026183769, -0.05998149, -1309534.6, 1942.1664, 0.0, 9.999656, 10.000215 
5.8494735e+2, 1.7617768e+2, -1304063.9, -1244871.3, 22919.031, -0.04885245, 0.026703946, -1237034.6, -23572.121, 0.0, 9.99936, 10.000158 
5.849649e+2, 1.8617782e+2, -1140893.3, -1195933.8, 6379.815, -0.025703533, 0.067393765, -1140163.4, -24702.518, 0.0, 10.000157, 9.999439 
5.849829e+2, 1.9617718e+2, -833773.5, -1003030.5, -28698.947, 0.050464034, 0.050401513, -829039.75, 188428.55, 0.0, 10.0016165, 9.999389 
5.850009e+2, 2.0617636e+2, -782019.4, -1008241.25, 25610.326, 0.03344052, 0.0722383, -779156.3, 140320.48, 0.0, 10.001651, 9.998661 
5.850188e+2, 2.1617529e+2, -810316.2, -972968.9, 33769.06, -0.045863744, 0.085425824, -803583.9, 17903.336, 0.0, 10.000795, 9.99864 
5.8503544e+2, 2.261737e+2, -767006.7, -978160.4, -15608.384, -0.123218864, 0.102604255, -765859.1, -42354.316, 0.0, 10.0007515, 9.997956 
5.850515e+2, 2.361717e+2, -595457.94, -835955.9, -4439.9707, -0.18928665, 0.09377931, -595376.0, 30152.094, 0.0, 10.001212, 9.998039 
5.8506936e+2, 2.4617045e+2, -439557.2, -672196.9, 30778.24, -0.13303478, 0.14786027, -435554.1, 91987.234, 0.0, 10.001447, 9.998376 
5.850883e+2, 2.561696e+2, -321713.47, -567228.25, 13876.192, -0.0041343216, 0.21303388, -320931.7, 108617.414, 0.0, 10.0015955, 9.998351 
5.851059e+2, 2.6616728e+2, -224720.8, -517812.94, 42277.9, -0.044890672, 0.17646742, -218744.19, 112826.34, 0.0, 10.001806, 9.997909 
5.8512247e+2, 2.76164e+2, -80585.85, -389660.63, 58774.406, -0.18951362, 0.040199365, -69786.51, 163815.4, 0.0, 10.002087, 9.997982 
5.8513963e+2, 2.86162e+2, 80117.68, -227720.14, -10150.287, -0.17293616, 0.026374945, 80452.0, 216069.98, 0.00000055145284, 10.002364, 9.998294 
5.851573e+2, 2.961609e+2, 205227.22, -131038.516, -43809.35, -0.054010645, 0.07617496, 210841.08, 248464.52, 0.000008781072, 10.002616, 9.998162 
5.851757e+2, 3.061588e+2, 234858.14, -221436.48, 25671.172, -0.01598539, 0.117380776, 236297.86, 236297.86, 0.000039088463, 10.0030365, 9.997006 
5.851933e+2, 3.161543e+2, 384082.44, -27073.623, -33079.535, -0.13802576, -0.05167694, 386726.84, 386726.84, 0.00009935942, 10.0035, 9.998117 
5.94854e+2, 1.2615973e+2, -2239300.5, -2024688.1, -110155.38, -0.023905998, -0.073446006, -1978212.5, -274580.9, 0.000001124367, 9.996679, 9.999432 
5.948772e+2, 1.3616079e+2, -1875570.4, -1827074.5, 262078.75, 0.001596757, 0.09504706, -1588124.4, 17511.305, 0.000000025767086, 9.998524, 9.999296 
5.9489644e+2, 1.4616144e+2, -1605647.1, -1555860.9, -17299.244, -0.1753998, 0.19487034, -1550440.1, -42805.582, 0.0, 9.999365, 10.000041 
5.94913e+2, 1.5616216e+2, -1445900.5, -1414012.6, -56086.742, -0.094746925, 0.24185617, -1371647.6, 37978.625, 0.0, 9.999733, 10.000163 
5.9492934e+2, 1.6616206e+2, -1334850.5, -1271103.4, -4001.877, -0.08777403, 0.19869936, -1270853.1, 40769.523, 0.0, 9.999653, 10.000513 
5.94946e+2, 1.761612e+2, -1291125.6, -1221480.3, 23651.432, -0.12789513, 0.050079376, -1214207.6, -583.096, 0.0, 9.999373, 10.000316 
5.949649e+2, 1.8615986e+2, -1211424.1, -1337687.5, 57239.703, -0.047946107, -0.009289857, -1189338.5, -73702.35, 0.0, 10.00014, 9.998473 
5.9498525e+2, 1.9615822e+2, -893418.25, -1121004.0, 20770.111, 0.11405604, -0.034113362, -891538.25, 126115.945, 0.0, 10.001591, 9.998592 
5.95002e+2, 2.0615779e+2, -743653.5, -919354.1, -12102.01, -0.026982402, 0.027738582, -742823.9, 176834.88, 0.0, 10.001612, 9.9992895 
5.9501654e+2, 2.1615805e+2, -777110.1, -893284.2, 12936.168, -0.36031348, 0.11317841, -775687.06, 45968.71, 0.0, 10.000748, 9.999211 
5.95035e+2, 2.2615671e+2, -751902.06, -938655.4, -3983.7065, -0.24857816, 0.11318048, -751817.06, -28147.318, 0.0, 10.000712, 9.998248 
5.950561e+2, 2.3615417e+2, -588208.25, -810936.7, 15224.308, 0.14765753, 0.024079619, -587172.44, 38523.9, 0.0, 10.001165, 9.998236 
5.9507334e+2, 2.46152e+2, -469892.8, -730721.3, 30205.91, 0.11314478, -0.00020963518, -466440.44, 61277.76, 0.0, 10.001424, 9.997986 
5.9508806e+2, 2.5615007e+2, -344319.5, -604787.2, 24224.924, -0.19901392, -0.00737985, -342085.63, 87651.48, 0.0, 10.001554, 9.998114 
5.9510595e+2, 2.6614955e+2, -175703.88, -408932.78, 48196.46, -0.22373106, 0.09936747, -166136.61, 165606.13, 0.0, 10.001777, 9.998671 
5.951259e+2, 2.761497e+2, -47724.957, -314254.56, 73503.41, -0.066362314, 0.23387854, -28798.242, 204944.06, 0.0, 10.002056, 9.998515 
5.9514296e+2, 2.8614664e+2, -5715.789, -403953.1, -8790.65, -0.09847453, 0.15911832, -5521.8394, 130248.586, 0.0000003359344, 10.002354, 9.997089 
5.95158e+2, 2.961417e+2, 124742.54, -288030.13, -30870.514, -0.25541022, -0.056593593, 127038.516, 164853.48, 0.0000069145076, 10.002571, 9.997105 
5.951775e+2, 3.0613908e+2, 230612.39, -217548.27, 39880.3, -0.15338221, -0.026237283, 234133.53, 234133.53, 0.00003524991, 10.002987, 9.997059 
5.951987e+2, 3.1613645e+2, 415970.56, 57592.855, 8050.9414, 0.017403496, -0.01740483, 416151.34, 416151.34, 0.00009503452, 10.0034275, 9.998733 
6.0485226e+2, 1.2614186e+2, -2028626.0, -1896916.3, -258683.55, 0.07218916, -0.0070487815, -1695836.5, 7973.158, 0.00000033090242, 9.997987, 9.999696 
6.0487413e+2, 1.3614209e+2, -1952383.3, -1830479.9, 200691.7, -0.112596296, 0.05068445, -1681688.3, -75868.51, 0.000000000013925105, 9.997855, 9.999594 
6.04895e+2, 1.4614311e+2, -1795936.1, -1591249.0, -26639.566, -0.17056473, 0.15068401, -1587838.8, -80024.98, 0.0, 9.997819, 10.000545 
6.049124e+2, 1.5614514e+2, -1640823.8, -1463976.3, -56233.465, -0.049791053, 0.27906966, -1447610.0, -37817.266, 0.0, 9.998208, 10.000556 
6.0492903e+2, 1.6614516e+2, -1448703.1, -1381155.1, -19926.016, -0.05275045, 0.2551324, -1375715.3, -63926.016, 0.0, 9.999109, 10.000016 
6.049459e+2, 1.7614363e+2, -1191690.5, -1223207.3, -61110.26, -0.11758377, 0.091272324, -1144339.5, 69459.83, 0.0, 10.000275, 9.999868 
6.049651e+2, 1.8614192e+2, -1182195.5, -1331154.5, -565.3676, -0.048286267, 0.016435558, -1182193.4, -66378.945, 0.0, 10.000365, 9.998413 
6.049858e+2, 1.9614e+2, -1165579.9, -1254163.6, 19938.346, 0.10538397, -0.030642802, -1161299.0, -143465.77, 0.0, 9.999732, 9.998571 
6.050026e+2, 2.0613945e+2, -1033075.9, -1057001.5, -29519.357, -0.029572604, 0.017038707, -1013187.44, -93348.57, 0.0, 9.999612, 9.999312 
6.0501695e+2, 2.1613961e+2, -915270.94, -958855.75, -52479.574, -0.34185898, 0.09356444, -880238.94, -58401.605, 0.0, 9.999784, 9.99923 
6.050361e+2, 2.2613841e+2, -736997.2, -924510.0, -42085.02, -0.21546939, 0.102992915, -727984.9, -4134.7144, 0.0, 10.000787, 9.998307 
6.0505825e+2, 2.3613615e+2, -412258.13, -712743.44, -54021.73, 0.19164537, 0.035320807, -402841.16, 223032.6, 0.0, 10.002323, 9.998348 
6.050754e+2, 2.4613419e+2, -302931.0, -608043.94, -47146.77, 0.13625501, 0.0067180805, -295811.88, 232080.27, 0.0, 10.002401, 9.998352 
6.050894e+2, 2.561324e+2, -327951.7, -568750.44, -7251.2837, -0.21621878, -0.02207386, -327733.53, 102174.14, 0.0, 10.001548, 9.998362 
6.0510755e+2, 2.661316e+2, -268767.7, -529039.44, 5290.89, -0.22475307, 0.087285645, -268660.2, 63257.105, 0.0, 10.0014515, 9.998012 
6.0512835e+2, 2.7613127e+2, -118214.98, -414428.88, -81203.72, -0.010370921, 0.24312949, -97414.516, 136511.1, 0.0, 10.001843, 9.997939 
6.051458e+2, 2.8612828e+2, 7400.5293, -382587.8, -131269.02, -0.041901957, 0.19489484, 47468.65, 183423.4, 0.00000016006682, 10.002384, 9.997221 
6.05161e+2, 2.9612386e+2, 194566.78, -246963.45, -70919.53, -0.22762857, 0.012963212, 205678.39, 243673.25, 0.0000052467194, 10.003013, 9.997178 
6.051805e+2, 3.061207e+2, 249652.92, -216181.34, 32015.127, -0.15061796, -0.00479762, 251842.9, 251842.9, 0.000031105017, 10.003153, 9.996988 
6.0520196e+2, 3.1611815e+2, 364289.94, 58309.844, -23227.521, 0.03730003, 0.019022055, 366043.13, 366043.13, 0.00008936624, 10.002971, 9.998963 
6.1485004e+2, 1.2612228e+2, -1895911.6, -1629752.1, -277311.3, 0.020704536, 0.1505613, -1455241.6, 248774.64, 0.000000091949275, 9.99803, 10.001502 
6.1487025e+2, 1.3612355e+2, -1836679.6, -1587232.9, 193772.25, -0.2997451, 0.13654624, -1481514.1, 124489.09, 0.0, 9.9978485, 10.001262 
6.1489296e+2, 1.4612441e+2, -1741027.8, -1481508.6, -23742.957, -0.17539096, 0.10422342, -1479354.3, 28637.967, 0.0, 9.997826, 10.001299 
6.149118e+2, 1.5612552e+2, -1597683.6, -1383863.8, -33510.113, 0.055220746, 0.06608505, -1378735.0, 31242.475, 0.0, 9.998237, 10.001096 
6.1492926e+2, 1.661256e+2, -1543777.5, -1572510.9, 21405.076, 0.046073038, 0.09713601, -1532364.8, -220387.34, 0.0, 9.999091, 9.998712 
6.1494684e+2, 1.7612484e+2, -1264353.1, -1379450.3, -19707.543, -0.06332988, 0.1407727, -1261072.3, -47083.84, 0.0, 10.000297, 9.998787 
6.149653e+2, 1.8612388e+2, -1124825.3, -1202361.8, -29696.297, -0.0722272, 0.13863091, -1114758.6, 1238.0428, 0.0, 10.000327, 9.999312 
6.149843e+2, 1.9612263e+2, -1120130.1, -1153006.8, 4487.7085, -0.028513808, 0.07060284, -1119528.5, -101524.04, 0.0, 9.999701, 9.999281 
6.150023e+2, 2.0612139e+2, -1080759.1, -1144403.3, -28557.504, -0.02656236, 0.049461354, -1069824.0, -149807.69, 0.0, 9.999563, 9.998735 
6.150198e+2, 2.1612e+2, -959719.56, -1039488.1, -36947.44, -0.043563686, 0.027057517, -945235.94, -123204.12, 0.0, 9.999733, 9.998703 
6.1503845e+2, 2.2611883e+2, -755648.56, -949686.0, 12990.805, -0.06770684, 0.07113989, -754782.75, -30736.96, 0.0, 10.000728, 9.998163 
6.1505777e+2, 2.3611766e+2, -420943.44, -717474.8, 1222.1484, -0.09976365, 0.12497689, -420938.38, 205121.47, 0.0, 10.002264, 9.998345 
6.1507547e+2, 2.4611694e+2, -234961.94, -458128.4, -85602.25, -0.11290342, 0.16208757, -205908.89, 322154.75, 0.0, 10.00236, 9.999401 
6.150921e+2, 2.5611642e+2, -285092.7, -472359.66, -31626.652, -0.1109717, 0.15828462, -279895.63, 150166.3, 0.0, 10.0015135, 9.999042 
6.1511034e+2, 2.6611358e+2, -414438.38, -826824.6, 15151.112, -0.09909504, 0.14233857, -413882.47, -81788.63, 0.0, 10.0014305, 9.9959755 
6.1512965e+2, 2.7610907e+2, -241506.92, -658165.44, -57152.902, -0.07876019, 0.078985214, -233809.48, 339.72644, 0.0, 10.001792, 9.996288 
6.151481e+2, 2.861072e+2, 98862.516, -187395.94, -110366.39, -0.058088243, 0.14116108, 136472.64, 272641.47, 0.00000012615395, 10.0023575, 9.998575 
6.1516595e+2, 2.961072e+2, 269277.34, -80824.84, -45159.84, -0.04483092, 0.26607355, 275008.72, 313172.56, 0.000004351736, 10.002966, 9.99834 
6.1518455e+2, 3.0610368e+2, 225686.44, -257255.5, 21123.428, -0.071052745, 0.1765043, 226608.6, 226608.6, 0.000027213431, 10.003118, 9.996727 
6.15203e+2, 3.160995e+2, 345788.34, 39145.063, -3056.2795, -0.17958623, 0.061150607, 345818.8, 345818.8, 0.00008209888, 10.002898, 9.998865 
6.2484807e+2, 1.2610376e+2, -1668823.5, -1447742.1, -160748.31, -0.02768552, 0.24842164, -1363195.0, 341010.38, 0.000000014013729, 9.999277, 10.002152 
6.248678e+2, 1.3610521e+2, -1934032.1, -1566649.0, 189686.98, -0.27222148, 0.1830577, -1486288.1, 119895.54, 0.0, 9.996888, 10.001869 
6.2489164e+2, 1.4610557e+2, -1849130.3, -1535995.0, 8873.485, -0.043859627, 0.07663514, -1535743.8, -27569.268, 0.0, 9.997109, 10.001264 
6.2491065e+2, 1.5610601e+2, -1409122.3, -1297673.5, -72195.26, 0.05614985, -0.02563074, -1262198.4, 147967.69, 0.0, 9.99957, 10.001037 
6.249288e+2, 1.6610605e+2, -1385527.5, -1531013.5, -22564.467, 0.033602737, 0.022412438, -1382108.3, -69940.6, 0.0, 10.000317, 9.998411 
6.2494755e+2, 1.761057e+2, -1354406.1, -1442673.1, 1073.3896, 0.012584143, 0.13326408, -1354393.1, -140215.78, 0.0, 9.99977, 9.998604 
6.24966e+2, 1.8610522e+2, -1125415.6, -1150653.6, 5340.9736, -0.0153266555, 0.1625999, -1124331.9, -8151.122, 0.0, 10.0000925, 9.999783 
6.249841e+2, 1.9610453e+2, -912994.25, -1013812.25, 55.11723, -0.07744651, 0.102574915, -912994.25, 105187.4, 0.0, 10.00095, 9.999636 
6.250026e+2, 2.061031e+2, -844609.56, -1093006.5, -31815.652, -0.038863853, 0.07987323, -840599.25, 79596.55, 0.0, 10.001452, 9.998178 
6.2502176e+2, 2.1610108e+2, -707353.8, -965324.8, -47867.395, 0.08069686, 0.04671986, -698758.25, 123461.61, 0.0, 10.001679, 9.99827 
6.2504023e+2, 2.2609979e+2, -629930.25, -847940.75, 43425.555, 0.012622273, 0.07922516, -621598.7, 102634.85, 0.0, 10.0014105, 9.998533 
6.250584e+2, 2.3609886e+2, -614932.25, -781420.3, 57236.664, -0.17909482, 0.12231856, -597153.5, 29088.248, 0.0, 10.000802, 9.998611 
6.250764e+2, 2.4609803e+2, -458432.4, -618119.75, -88034.77, -0.18064635, 0.1596279, -419426.88, 108820.445, 0.0, 10.001043, 9.99894 
6.250943e+2, 2.560971e+2, -259677.8, -501664.03, -153103.95, -0.055163905, 0.16147129, -185529.55, 244722.94, 0.0, 10.001866, 9.998671 
6.251127e+2, 2.6609397e+2, -324055.78, -760373.7, -42269.047, -0.027253773, 0.122890145, -319998.63, 12288.167, 0.0, 10.001951, 9.9961815 
6.251314e+2, 2.7608925e+2, -265541.22, -648423.0, 39394.293, -0.06030985, 0.019393299, -261530.0, -27188.588, 0.0, 10.001533, 9.996479 
6.2515026e+2, 2.8608787e+2, 37059.797, -224689.11, 28947.191, -0.05447821, 0.11885631, 40222.887, 176580.33, 0.000000116905284, 10.001961, 9.998513 
6.25169e+2, 2.960885e+2, 264869.38, -90017.625, -26083.143, -0.02960426, 0.31897745, 266776.16, 305124.78, 0.000004287332, 10.002955, 9.998287 
6.2518775e+2, 3.0608472e+2, 282451.9, -192426.66, 9070.044, -0.065800436, 0.18656477, 282625.06, 282625.06, 0.000025789028, 10.0033455, 9.997059 
6.252064e+2, 3.1608114e+2, 412270.8, 74938.484, 10531.577, -0.1446153, 0.09650315, 412599.28, 412599.28, 0.000077607845, 10.003314, 9.998915 
6.348462e+2, 1.260865e+2, -1696218.4, -1526492.9, -233545.98, -0.17707336, 0.28806937, -1362869.4, 341505.16, 0.0000000049225286, 9.999365, 10.001575 
6.3486683e+2, 1.3608713e+2, -1969709.9, -1641082.5, 111612.81, -0.06757378, 0.1873997, -1606759.8, -399.42975, 0.0, 9.996889, 10.001359 
6.3489115e+2, 1.4608662e+2, -1914672.0, -1669849.1, 93340.445, 0.18342906, 0.06974697, -1638322.3, -129961.63, 0.0, 9.997098, 10.000353 
6.3490874e+2, 1.5608652e+2, -1454384.3, -1400102.3, 16444.303, -0.1037827, 0.0015816757, -1395509.3, 14850.008, 0.0, 9.999601, 10.000321 
6.349274e+2, 1.6608644e+2, -1333104.5, -1416583.4, -50392.24, -0.15094236, 0.02403592, -1309410.4, 2950.3765, 0.0, 10.000298, 9.999203 
6.3494796e+2, 1.7608614e+2, -1304527.4, -1341526.0, -10313.649, 0.06264396, 0.06327644, -1301846.6, -87480.09, 0.0, 9.999777, 9.999296 
6.349671e+2, 1.8608588e+2, -1125727.3, -1146714.3, 33715.83, 0.07245783, 0.0822788, -1100909.8, 15457.475, 0.0, 10.000074, 9.999818 
6.3498497e+2, 1.9608559e+2, -917947.3, -1018328.3, 34092.9, -0.09168563, 0.057859723, -907463.2, 110902.1, 0.0, 10.000924, 9.999617 
6.350035e+2, 2.0608452e+2, -892348.0, -1176229.0, -28907.72, -0.10867366, 0.10234053, -889434.2, 30943.629, 0.0, 10.001386, 9.997637 
6.3502246e+2, 2.1608278e+2, -744415.8, -1024949.8, -38066.098, -0.018493684, 0.15001817, -739342.3, 83059.17, 0.0, 10.001605, 9.997894 
6.3504136e+2, 2.2608128e+2, -580384.1, -728806.9, 15567.669, -0.025866885, 0.12927268, -578768.9, 145644.77, 0.0, 10.001341, 9.999384 
6.350601e+2, 2.3607978e+2, -582519.7, -703003.2, 45049.848, -0.10369675, 0.02967915, -567538.06, 58881.586, 0.0, 10.000752, 9.999174 
6.350782e+2, 2.460775e+2, -598122.7, -900443.8, -60935.246, -0.121018425, 0.005404825, -586302.8, -57860.477, 0.0, 10.00101, 9.99702 
6.3509583e+2, 2.5607458e+2, -368204.0, -717062.4, -121883.625, -0.09698566, -0.0014215744, -329839.5, 100637.91, 0.0, 10.001821, 9.997217 
6.3511443e+2, 2.6607284e+2, -165452.92, -420839.94, -62387.375, -0.05597791, 0.03181477, -151027.4, 181468.45, 0.0, 10.001913, 9.998529 
6.351336e+2, 2.760718e+2, -140211.89, -370585.84, 33814.047, -0.0064416802, 0.05962061, -135351.27, 99152.89, 0.0, 10.001462, 9.99842 
6.351521e+2, 2.8607017e+2, -64364.902, -427602.1, 57283.52, -0.07759329, 0.1286859, -55545.277, 80976.69, 0.0000001448745, 10.001925, 9.997141 
6.3517004e+2, 2.96068e+2, 172767.08, -260815.31, 11988.632, -0.2339222, 0.19084401, 173098.31, 211645.56, 0.000005079309, 10.002875, 9.997153 
6.351899e+2, 3.0606407e+2, 335279.78, -74338.78, 5625.3345, -0.1998491, 0.047597177, 335357.03, 335357.03, 0.000027806449, 10.0033045, 9.99789 
6.3521147e+2, 3.1606328e+2, 402029.6, 91500.66, 22259.633, 0.005543843, 0.15455864, 403617.13, 403617.13, 0.00008070611, 10.003162, 9.999097 
6.448451e+2, 1.2606782e+2, -2027093.4, -1756322.8, -231410.56, -0.11377405, 0.2471014, -1623603.5, 80951.84, 0.0000000021351345, 9.9973955, 10.000948 
6.448651e+2, 1.3606812e+2, -1576011.4, -1504680.0, 49255.984, -0.06771059, 0.16590255, -1479532.9, 127012.99, 0.0, 9.99984, 10.000861 
6.448902e+2, 1.4606752e+2, -1528581.1, -1538408.3, 92627.79, 0.24083182, 0.08752752, -1440736.6, 67812.03, 0.0, 9.999973, 9.999874 
6.4490825e+2, 1.560674e+2, -1580329.8, -1502250.5, 39183.734, -0.072865084, 0.06672621, -1485977.8, -75428.85, 0.0, 9.998908, 9.999958 
6.449271e+2, 1.660673e+2, -1473145.5, -1425870.9, -35028.547, -0.14668216, 0.07508825, -1407250.4, -94700.91, 0.0, 9.999081, 9.999727 
6.449477e+2, 1.76067e+2, -1234068.1, -1263653.0, -24344.295, 0.047227643, 0.063491926, -1220374.4, -5821.696, 0.0, 10.000064, 9.999697 
6.449675e+2, 1.860664e+2, -1120494.0, -1208414.5, -1829.7189, 0.08777562, 0.061549906, -1120456.0, -3898.9932, 0.0, 10.000387, 9.999244 
6.449863e+2, 1.9606549e+2, -1052348.3, -1136602.6, -58258.74, -0.01246373, 0.033426356, -1022581.2, -4017.9668, 0.0, 10.000236, 9.999135 
6.4500475e+2, 2.0606461e+2, -1009210.0, -1197555.6, -92407.734, -0.06215039, 0.098294996, -971444.5, -50870.37, 0.0, 10.000432, 9.99795 
6.4502317e+2, 2.1606356e+2, -836829.2, -1042380.44, -54403.18, -0.063936174, 0.18627127, -823318.4, -728.6378, 0.0, 10.000846, 9.998146 
6.450421e+2, 2.2606194e+2, -630986.4, -737742.94, -22604.377, -0.055207748, 0.13549167, -626397.44, 98204.07, 0.0, 10.000921, 9.999529 
6.450613e+2, 2.3605981e+2, -574357.44, -689160.8, -53708.8, -0.045151327, -0.040016495, -553148.75, 73463.13, 0.0, 10.000765, 9.999264 
6.4507985e+2, 2.4605738e+2, -633403.8, -968377.1, -71704.62, -0.05049831, -0.059388842, -618700.06, -90062.375, 0.0, 10.000986, 9.996568 
6.450978e+2, 2.560546e+2, -444501.4, -792539.44, -37357.46, -0.06442254, -0.006330024, -440536.72, -9862.031, 0.0, 10.001463, 9.996872 
6.4511645e+2, 2.6605326e+2, -199948.94, -389895.94, -41499.242, -0.023211163, 0.057764597, -191278.08, 141410.58, 0.0, 10.001468, 9.998957 
6.451356e+2, 2.760527e+2, -153624.22, -338979.9, -89401.74, 0.062459502, 0.09493567, -117531.52, 117157.0, 0.000000000000000000046744374, 10.001202, 9.998764 
6.4515406e+2, 2.8605065e+2, -192865.94, -517383.8, -30226.57, -0.03154309, 0.120521605, -190074.56, -53364.84, 0.00000034821963, 10.001166, 9.996885 
6.451719e+2, 2.9604742e+2, -71597.49, -395734.06, -8168.2856, -0.2511323, 0.095102444, -71391.78, -32644.934, 0.0000068469953, 10.001261, 9.997005 
6.451918e+2, 3.0604413e+2, 115029.375, -111455.016, 11203.445, -0.24659295, -0.010121766, 115582.23, 115582.23, 0.00003362725, 10.001493, 9.998505 
6.4521384e+2, 3.1604478e+2, 223003.78, 13078.512, -19187.867, 0.0053153154, 0.18012415, 224743.2, 224743.2, 0.0000931735, 10.001887, 9.999169 
6.5484476e+2, 1.2604758e+2, -2078428.6, -1857200.6, -109105.89, 0.087411635, 0.11337309, -1812445.5, -107697.16, 0.0000000012982254, 9.997375, 10.000265 
6.5486234e+2, 1.3604817e+2, -1605293.1, -1574497.1, 124566.07, -0.3428699, 0.11764698, -1464380.9, 142359.38, 0.0, 9.999889, 10.000353 
6.5488863e+2, 1.460482e+2, -1522064.4, -1537034.3, 39732.758, 0.06597634, 0.12517667, -1489117.8, 19621.588, 0.0, 10.000022, 9.999864 
6.549091e+2, 1.5604867e+2, -1578408.1, -1501784.6, 11373.634, 0.1010909, 0.16585435, -1500132.0, -89396.92, 0.0, 9.99892, 9.999958 
6.549277e+2, 1.6604875e+2, -1458651.5, -1394278.8, -2338.3357, -0.0043053315, 0.1800888, -1394193.9, -81460.64, 0.0, 9.999073, 9.999946 
6.5494645e+2, 1.760484e+2, -1225898.3, -1251770.3, 13490.351, -0.08967975, 0.14026055, -1220143.9, -5408.9526, 0.0, 10.000083, 9.999769 
6.5496683e+2, 1.860468e+2, -1206685.1, -1381021.0, -14868.396, -0.022662623, 0.10064803, -1205426.1, -88676.05, 0.0, 10.000362, 9.998071 
6.549878e+2, 1.9604427e+2, -1123460.0, -1270287.8, -56808.09, 0.10472839, 0.025911408, -1104047.4, -85272.19, 0.0, 10.000183, 9.99824 
6.5500647e+2, 2.0604338e+2, -939987.75, -1043568.6, -82113.71, 0.05056769, 0.07097265, -894696.25, 26088.139, 0.0, 10.000382, 9.999035 
6.550237e+2, 2.160434e+2, -779555.06, -911466.5, -35583.387, -0.111602664, 0.15757799, -770568.56, 52215.902, 0.0, 10.000793, 9.99907 
6.550424e+2, 2.260418e+2, -683569.1, -830435.4, -34669.742, -0.12702325, 0.100567006, -675796.25, 49000.41, 0.0, 10.0008545, 9.99892 
6.5506214e+2, 2.3603898e+2, -614272.25, -755479.7, -52329.492, -0.051552266, -0.08509471, -596993.9, 29824.21, 0.0, 10.000699, 9.9988365 
6.550812e+2, 2.4603759e+2, -571402.5, -828321.0, -58691.973, -0.01822186, -0.035803277, -558629.56, -29796.074, 0.0, 10.000937, 9.997551 
6.5509987e+2, 2.5603703e+2, -398946.47, -687836.25, -17556.533, -0.0099191815, 0.13824034, -397883.44, 32962.41, 0.0, 10.001423, 9.997607 
6.551185e+2, 2.6603517e+2, -294977.56, -588028.2, -57673.695, 0.026347144, 0.19461472, -284035.7, 48830.023, 0.0, 10.001466, 9.997601 
6.551371e+2, 2.7603233e+2, -236733.84, -505291.47, -91706.8, 0.083546765, 0.13936907, -208405.97, 26485.8, 0.0000000002377775, 10.001171, 9.99764 
6.5515584e+2, 2.860296e+2, -139369.77, -400899.63, -30033.455, 0.013863173, 0.10352853, -135965.13, 953.1148, 0.0000008000927, 10.001145, 9.997692 
6.5517426e+2, 2.960268e+2, -26716.047, -284666.63, 2678.0256, -0.1522207, 0.036860924, -26688.246, 12258.396, 0.0000102684735, 10.001192, 9.997797 
6.5519315e+2, 3.060249e+2, 143653.2, -50073.434, 21924.516, -0.26597628, 0.012630593, 146103.47, 146103.47, 0.000043739914, 10.001484, 9.998935 
6.552136e+2, 3.160259e+2, 209640.28, 1867.2112, 2249.0046, -0.23883972, 0.20494613, 209664.63, 209664.63, 0.00011264645, 10.001823, 9.999125 
6.648442e+2, 1.2602729e+2, -1638204.9, -1728263.4, -114854.15, 0.13697726, 0.10376547, -1559868.4, 145076.27, 0.00000000035571668, 10.000734, 9.999534 
6.648618e+2, 1.360274e+2, -1647760.0, -1663933.4, 34494.094, -0.37966353, 0.12643981, -1620417.4, -13471.549, 0.0, 9.999874, 9.999758 
6.6488814e+2, 1.4602746e+2, -1638062.6, -1557925.5, -77072.85, 0.066774175, 0.14918232, -1511128.0, -2182.6628, 0.0, 9.999095, 10.000155 
6.6490823e+2, 1.5602817e+2, -1561970.5, -1464387.4, -87146.46, 0.12948258, 0.18402857, -1413303.4, -2366.0115, 0.0, 9.9989195, 10.000208 
6.6492724e+2, 1.6602838e+2, -1418821.1, -1367155.4, -34136.36, 0.040311832, 0.19692841, -1350179.0, -37245.31, 0.0, 9.999313, 10.000017 
6.649471e+2, 1.7602813e+2, -1233873.3, -1243012.5, -43644.797, -0.031797424, 0.16110516, -1194559.5, 20374.852, 0.0, 9.999981, 9.999874 
6.649673e+2, 1.860267e+2, -1178034.5, -1347794.9, -28677.691, -0.012981512, 0.12229728, -1173320.9, -56373.035, 0.0, 10.000477, 9.998243 
6.6498744e+2, 1.960243e+2, -1015049.7, -1204846.9, 17338.52, 0.019673739, 0.044329096, -1013478.75, 5492.484, 0.0, 10.000858, 9.99837 
6.6500646e+2, 2.0602302e+2, -885250.8, -1012452.56, -9989.152, 0.0024977515, 0.042907897, -884471.1, 36511.617, 0.0, 10.000744, 9.999071 
6.6502494e+2, 2.1602236e+2, -853650.44, -947354.75, -53962.19, -0.031837463, 0.057309035, -829039.0, -6051.2725, 0.0, 10.000293, 9.999061 
6.6504395e+2, 2.2602098e+2, -757649.3, -903515.56, -53750.543, -0.039677355, 0.043639313, -739982.4, -14982.955, 0.0, 10.000506, 9.998588 
6.6506314e+2, 2.3601909e+2, -567496.7, -761047.0, -61462.47, -0.03855016, -0.01743137, -549628.6, 77387.8, 0.0, 10.001136, 9.99859 
6.650823e+2, 2.4601805e+2, -450578.28, -702628.25, -63602.04, -0.030815745, 0.046671446, -435438.4, 93589.16, 0.0, 10.001474, 9.9981575 
6.6510123e+2, 2.5601745e+2, -336203.72, -605990.4, -64490.63, -0.017313905, 0.15961134, -321580.3, 109455.83, 0.0, 10.001625, 9.998076 
6.6512e+2, 2.660151e+2, -280817.75, -653850.1, -86444.63, 0.01235097, 0.18218453, -261759.23, 71301.19, 0.0, 10.001871, 9.996955 
6.651385e+2, 2.760115e+2, -126601.55, -508755.25, -81201.266, 0.05533007, 0.111854255, -110063.35, 125032.875, 0.0000000023427176, 10.002171, 9.997132 
6.651574e+2, 2.8600875e+2, -14511.105, -284585.06, -12573.4, 0.031047259, 0.07046768, -13927.009, 123194.96, 0.0000014418595, 10.0017605, 9.998196 
6.6517633e+2, 2.9600647e+2, -33360.836, -232037.63, -10151.276, -0.04384529, 0.0031462102, -32843.51, 6299.31, 0.00001478289, 10.000908, 9.998293 
6.6519505e+2, 3.060054e+2, 72258.125, -78962.18, 24471.213, -0.19216822, 0.034929417, 76119.58, 76119.58, 0.00005712128, 10.000975, 9.998982 
6.6521466e+2, 3.1600598e+2, 166399.33, -16559.004, -50216.89, -0.29871908, 0.18659335, 179276.16, 179276.16, 0.00013832969, 10.001518, 9.999149 
6.748432e+2, 1.2600692e+2, -1684962.8, -1840152.4, -114627.02, -0.07817179, 0.215017, -1624136.8, 81007.78, 0.0000000023126079, 10.000808, 9.998725 
6.7486334e+2, 1.3600582e+2, -1692790.3, -1753981.1, -2576.227, -0.22377358, 0.19067477, -1692682.0, -85519.6, 0.0, 9.999874, 9.999131 
6.748886e+2, 1.4600544e+2, -1600442.6, -1483544.3, -93779.86, 0.1935602, 0.16877519, -1431490.3, 77675.45, 0.0, 9.9991045, 10.000666 
6.749054e+2, 1.560059e+2, -1521975.1, -1390725.9, -84007.42, -0.060750067, 0.12993433, -1349749.3, 61406.336, 0.0, 9.998955, 10.000699 
6.7492557e+2, 1.6600618e+2, -1418488.3, -1368869.3, -15221.308, -0.0777524, 0.12617515, -1364572.0, -51421.176, 0.0, 9.999323, 10.000002 
6.749492e+2, 1.7600623e+2, -1223590.9, -1221626.6, -13943.124, 0.17706181, 0.120613776, -1208631.1, 6519.6807, 0.0, 9.999982, 10.00002 
6.7496866e+2, 1.8600611e+2, -1073612.5, -1129905.1, -20148.678, 0.06718911, 0.12583885, -1067144.1, 50005.633, 0.0, 10.000467, 9.999745 
6.7498493e+2, 1.9600569e+2, -934397.06, -1026708.5, 33853.004, -0.32736385, 0.09722934, -923313.1, 95836.79, 0.0, 10.0008135, 9.999615 
6.7500466e+2, 2.0600368e+2, -967670.4, -1172189.1, -32171.55, -0.26351678, 0.024481354, -962729.06, -41561.12, 0.0, 10.0006895, 9.998003 
6.750269e+2, 2.1600044e+2, -926443.56, -1088389.1, -61560.176, 0.12677981, -0.11152243, -905699.8, -82500.66, 0.0, 10.000247, 9.9981165 
6.750465e+2, 2.2599956e+2, -769819.25, -914548.9, -33469.07, 0.16110058, -0.032579955, -762454.25, -37244.87, 0.0, 10.000446, 9.99854 
6.750642e+2, 2.3600015e+2, -579962.25, -770795.5, -32267.906, -0.055151395, 0.15964033, -574653.75, 52552.816, 0.0, 10.00107, 9.998554 
6.750827e+2, 2.4599887e+2, -444792.88, -679566.6, -62215.773, -0.14151575, 0.19044636, -429324.63, 99894.36, 0.0, 10.001428, 9.998335 
6.751018e+2, 2.5599614e+2, -332481.9, -586694.25, -53867.484, -0.13662088, 0.0721036, -321538.53, 109704.98, 0.0, 10.001573, 9.998233 
6.751207e+2, 2.6599327e+2, -287446.03, -654787.06, -79074.0, -0.11073272, 0.033317044, -271147.66, 62123.625, 0.0, 10.00182, 9.996972 
6.751395e+2, 2.7599022e+2, -131558.63, -506737.75, -67712.016, -0.07560717, 0.014629732, -119712.086, 115590.1, 0.0000000015372758, 10.002122, 9.997168 
6.751586e+2, 2.859881e+2, 5524.086, -248353.6, -50394.066, -0.03126613, 0.0198754, 15161.346, 152483.02, 0.0000017821444, 10.001777, 9.998439 
6.75178e+2, 2.9598653e+2, -23119.467, -206963.02, -31041.045, 0.013277823, 0.004143838, -18019.805, 21314.56, 0.000018938834, 10.000886, 9.998478 
6.7519706e+2, 3.059857e+2, 43152.68, -130493.77, 42708.043, -0.097341105, 0.06740856, 53088.176, 53088.176, 0.000072643445, 10.000942, 9.998637 
6.752163e+2, 3.159848e+2, 158621.47, -17332.96, -28843.695, -0.30800337, 0.10302851, 163229.08, 163229.08, 0.00017199374, 10.001458, 9.999166 
6.8484235e+2, 1.2598541e+2, -1931291.0, -1939709.1, -77131.875, -0.14492758, 0.2114542, -1858253.4, -152898.83, 0.0000000036242784, 9.999016, 9.99892 
6.848635e+2, 1.3598455e+2, -1807756.3, -1785083.5, 44879.035, -0.14123996, 0.1905782, -1750131.3, -142762.06, 0.0, 9.998992, 9.99934 
6.8488854e+2, 1.4598416e+2, -1554863.8, -1466160.5, 9487.871, 0.26615554, 0.15828578, -1465157.0, 44215.152, 0.0, 9.999428, 10.000631 
6.849047e+2, 1.5598395e+2, -1297720.1, -1288391.6, -32606.242, -0.09259777, 0.054073665, -1260117.8, 151250.95, 0.0, 10.000506, 10.000661 
6.849246e+2, 1.6598436e+2, -1273147.8, -1287073.5, 8455.124, -0.14103039, 0.06105731, -1269157.5, 44205.492, 0.0, 10.000273, 10.000107 
6.8494827e+2, 1.7598517e+2, -1338685.1, -1265375.1, 9374.095, 0.12733899, 0.119431145, -1264195.5, -48839.05, 0.0, 9.999137, 10.000131 
6.8496835e+2, 1.859855e+2, -1247080.0, -1179484.8, -9200.554, 0.052189123, 0.14849538, -1178254.8, -60902.914, 0.0, 9.999134, 10.000046 
6.849855e+2, 1.959853e+2, -1045533.7, -1044247.9, -56358.0, -0.294966, 0.113149114, -988529.1, 30821.756, 0.0, 9.999901, 9.999929 
6.8500555e+2, 2.0598367e+2, -974405.9, -1139774.9, -106578.195, -0.22918971, 0.045953933, -922199.2, -834.604, 0.0, 10.000493, 9.998317 
6.850275e+2, 2.1598095e+2, -804636.75, -1002128.9, -42739.08, 0.12663671, -0.07083905, -795784.44, 27604.625, 0.0, 10.000961, 9.998364 
6.850472e+2, 2.2597978e+2, -715321.2, -930055.2, 27182.828, 0.16240641, -0.011415204, -711933.6, 13468.404, 0.0, 10.000995, 9.998175 
6.850654e+2, 2.3597954e+2, -654576.1, -843080.2, -6271.7354, -0.02525907, 0.13375357, -654367.7, -26959.203, 0.0, 10.000704, 9.9982395 
6.85084e+2, 2.4597803e+2, -545255.25, -718685.94, -38161.617, -0.11850062, 0.15109725, -537229.56, -7806.6704, 0.0, 10.000691, 9.998424 
6.851029e+2, 2.5597554e+2, -422284.9, -616404.2, -43192.277, -0.14536507, 0.04865372, -413108.25, 18335.404, 0.0, 10.000899, 9.998352 
6.85122e+2, 2.659728e+2, -357704.53, -655181.75, -43572.895, -0.13087486, -0.0018730334, -351453.56, -17983.959, 0.0, 10.00119, 9.9972725 
6.851411e+2, 2.7596965e+2, -198799.44, -510917.4, -27115.264, -0.083898276, -0.05522621, -196461.31, 39039.063, 0.00000000039754933, 10.001533, 9.997426 
6.851603e+2, 2.8596774e+2, -26843.736, -275017.2, -35786.023, -0.030362278, -0.03652636, -21786.531, 115731.15, 0.0000019350068, 10.00161, 9.998335 
6.851792e+2, 2.959666e+2, 62386.844, -183427.23, -49068.07, 0.021599978, 0.000121759884, 71819.58, 111346.125, 0.00002262457, 10.001552, 9.99832 
6.851989e+2, 3.059651e+2, 130096.12, -156939.11, 46345.16, -0.05046196, 0.040462956, 137393.55, 137393.55, 0.000089239016, 10.00182, 9.998035 
6.8521863e+2, 3.1596288e+2, 239580.28, 2838.1604, -62490.395, -0.24536665, 0.00054715143, 255062.72, 255062.72, 0.00021107856, 10.002084, 9.999004 
6.9484156e+2, 1.259628e+2, -1841029.4, -1747665.4, -58547.707, -0.15228982, 0.08709425, -1719467.1, -13892.365, 0.00000000017840025, 9.999011, 10.00023 
6.948621e+2, 1.3596377e+2, -1734150.5, -1627164.6, 49002.44, -0.18732965, 0.12433294, -1608112.9, -548.34534, 0.0, 9.9989805, 10.000422 
6.9488776e+2, 1.459637e+2, -1594871.5, -1553799.8, 45102.363, 0.23017615, 0.10830278, -1524778.1, -15214.045, 0.0, 9.999447, 10.000022 
6.949061e+2, 1.5596232e+2, -1328312.4, -1365870.3, 8637.952, -0.015780577, -0.05141157, -1326421.0, 85155.34, 0.0, 10.000562, 10.000106 
6.9492435e+2, 1.6596301e+2, -1257925.4, -1260616.9, -40378.42, -0.20464171, 0.0006383285, -1218870.4, 94699.016, 0.0, 10.000296, 10.000277 
6.9494385e+2, 1.7596507e+2, -1334199.5, -1254867.1, -21782.002, -0.2380632, 0.16696152, -1249280.0, -33730.047, 0.0, 9.999131, 10.000205 
6.9496584e+2, 1.8596496e+2, -1313251.3, -1311045.8, 15766.83, -0.11771879, 0.19491675, -1296343.1, -178789.86, 0.0, 9.99911, 9.999153 
6.949892e+2, 1.9596317e+2, -1096591.6, -1141503.8, -22973.531, 0.067453064, 0.090349086, -1086922.0, -67348.29, 0.0, 9.999866, 9.999278 
6.95009e+2, 2.05963e+2, -862717.5, -898111.06, -94345.76, 0.05715073, 0.10705136, -784423.2, 137149.63, 0.0, 10.000449, 9.999998 
6.950265e+2, 2.1596378e+2, -711315.56, -795995.44, -23605.088, -0.07851984, 0.1746424, -705180.0, 118378.18, 0.0, 10.000908, 9.999806 
6.950458e+2, 2.2596163e+2, -771706.75, -1032791.7, 10964.784, -0.08082175, 0.10761946, -771247.06, -45669.53, 0.0, 10.000936, 9.997496 
6.950664e+2, 2.359573e+2, -706395.25, -935526.7, -9739.625, 0.00061630015, -0.08887097, -705982.0, -78360.164, 0.0, 10.000642, 9.997632 
6.950858e+2, 2.459556e+2, -548691.3, -715758.3, -34945.344, -0.013954477, -0.06491241, -541676.3, -12037.795, 0.0, 10.0006485, 9.9984665 
6.951044e+2, 2.5595564e+2, -421311.53, -605382.1, -29397.2, -0.095923774, 0.08023339, -416730.63, 14906.366, 0.0, 10.000859, 9.998448 
6.951237e+2, 2.6595357e+2, -323378.44, -577434.0, -34111.86, -0.09317816, 0.067749664, -318878.0, 14777.793, 0.0, 10.001164, 9.997817 
6.9514334e+2, 2.7594993e+2, -176052.36, -452538.63, -10023.583, -0.026967125, -0.093057156, -175689.44, 60000.977, 0.0000000054780975, 10.001484, 9.997851 
6.9516206e+2, 2.8594774e+2, -63314.797, -344283.38, -43171.207, -0.0251999, -0.09426057, -56831.1, 80878.914, 0.0000023643158, 10.00158, 9.997873 
6.951798e+2, 2.9594654e+2, 24871.637, -257902.36, -40848.703, -0.08669166, -0.016196225, 30654.27, 70374.15, 0.00002690697, 10.001534, 9.997817 
6.9520026e+2, 3.0594367e+2, 68296.31, -277056.28, 57009.78, -0.106459394, -0.04780031, 77463.95, 77463.95, 0.0001063767, 10.001795, 9.997219 
6.952214e+2, 3.159401e+2, 202633.05, -54531.938, -31796.465, -0.20433535, -0.13803853, 206506.1, 206506.1, 0.00025077065, 10.0020075, 9.998645 
7.048417e+2, 1.2594098e+2, -1838050.3, -1632845.3, -28627.59, -0.006620003, 0.06341445, -1628926.4, 76861.89, 0.0, 9.998522, 10.001267 
7.048612e+2, 1.3594212e+2, -1707449.3, -1518795.5, 3407.6755, -0.15683302, 0.02511459, -1518734.0, 89035.836, 0.0, 9.998743, 10.001283 
7.0488656e+2, 1.4594278e+2, -1757243.3, -1646702.3, 37990.887, 0.2252693, 0.0491507, -1634904.6, -125142.77, 0.0, 9.998395, 9.999892 
7.049062e+2, 1.5594214e+2, -1706229.0, -1559948.5, 28658.416, 0.07015489, -0.024184968, -1554534.3, -142763.77, 0.0, 9.998036, 9.999982 
7.049246e+2, 1.6594237e+2, -1488361.3, -1416580.9, -24335.463, -0.14308678, 0.007795038, -1409108.5, -95338.97, 0.0, 9.998913, 9.999868 
7.049431e+2, 1.7594308e+2, -1154054.9, -1208236.6, -61077.1, -0.2864806, 0.079810545, -1114330.1, 101432.984, 0.0, 10.000549, 9.999838 
7.049654e+2, 1.859429e+2, -1097167.0, -1213063.1, -6417.685, -0.14214776, 0.12370411, -1096812.6, 20954.977, 0.0, 10.00062, 9.999099 
7.049898e+2, 1.9594198e+2, -1137074.1, -1166693.0, 10277.458, 0.16117305, 0.109709665, -1133857.3, -114075.86, 0.0, 9.999603, 9.999236 
7.050095e+2, 2.0594217e+2, -950392.1, -918693.4, -61470.49, 0.10691638, 0.15400118, -871061.9, 50716.227, 0.0, 9.999756, 10.000193 
7.0502627e+2, 2.1594298e+2, -725608.5, -776291.94, -114498.68, -0.18235229, 0.2059785, -633680.6, 190083.31, 0.0, 10.000699, 10.000043 
7.050459e+2, 2.2594087e+2, -696756.1, -933936.06, -88054.43, -0.17463815, 0.101873495, -667639.75, 58141.57, 0.0, 10.001181, 9.998054 
7.0506763e+2, 2.359366e+2, -570424.0, -812637.4, -25327.623, 0.03273728, -0.1435409, -567803.9, 60017.953, 0.0, 10.001332, 9.99814 
7.050875e+2, 2.4593522e+2, -425009.2, -650053.0, 6025.5166, 0.052569505, -0.11509602, -424847.97, 104986.64, 0.0, 10.001476, 9.998514 
7.0510596e+2, 2.559357e+2, -308205.03, -546345.9, 1997.6537, -0.05884514, 0.06961005, -308188.28, 123640.98, 0.0, 10.001618, 9.998486 
7.0512533e+2, 2.659338e+2, -271388.34, -562115.25, -23678.383, -0.058536142, 0.074489884, -269472.47, 64375.035, 0.0, 10.001569, 9.997727 
7.051453e+2, 2.7593008e+2, -198541.27, -470036.53, -56505.594, 0.029900659, -0.082618006, -187250.47, 48633.223, 0.000000016182126, 10.001366, 9.997783 
7.0516366e+2, 2.85928e+2, -52535.035, -342749.44, -68706.26, -0.025738424, -0.06973738, -37091.156, 100811.96, 0.0000030357212, 10.001664, 9.997846 
7.051806e+2, 2.9592702e+2, 132088.56, -206948.94, -46521.004, -0.19464667, 0.03157976, 138356.08, 178267.38, 0.000031447165, 10.002275, 9.997808 
7.052019e+2, 3.0592328e+2, 122509.04, -256991.58, 93730.73, -0.13151743, -0.082505435, 144396.7, 144396.7, 0.00012178939, 10.002187, 9.997172 
7.052247e+2, 3.1591934e+2, 131945.5, -92925.14, 45976.793, -0.048853647, -0.21170121, 140982.67, 140982.67, 0.00028489507, 10.001537, 9.99861 
7.1484256e+2, 1.2591995e+2, -1773169.4, -1505561.3, -4871.722, 0.19961643, 0.14771958, -1505472.6, 200522.4, 0.0, 9.998558, 10.002121 
7.148607e+2, 1.3591956e+2, -1653869.5, -1419979.1, 8064.721, -0.09892318, -0.11783112, -1419701.4, 188284.83, 0.0, 9.998793, 10.00194 
7.1488476e+2, 1.4592136e+2, -1726824.6, -1588451.5, 12920.103, 0.19558102, -0.027871773, -1587255.5, -77289.33, 0.0, 9.99842, 10.000277 
7.1490484e+2, 1.559235e+2, -1689152.5, -1523518.4, 27747.918, 0.114296846, 0.1378616, -1518993.5, -107042.78, 0.0, 9.998027, 10.000238 
7.14925e+2, 1.6592245e+2, -1562251.9, -1562401.1, 35228.656, -0.004315482, 0.084034376, -1527097.8, -213134.55, 0.0, 9.998884, 9.99888 
7.149461e+2, 1.7591916e+2, -1210031.0, -1329761.6, -2108.0383, -0.05937485, -0.14365838, -1209993.9, 6001.787, 0.0, 10.000572, 9.998994 
7.1496683e+2, 1.8591933e+2, -1041611.94, -1096784.5, -49878.266, -0.065680176, -0.07139604, -1012199.56, 105795.766, 0.0, 10.000616, 9.999898 
7.1498716e+2, 1.9592178e+2, -1101694.5, -1081023.0, -14864.691, -0.067326605, 0.17086066, -1073253.9, -53280.285, 0.0, 9.999553, 9.999847 
7.1500695e+2, 2.059213e+2, -1051773.5, -1113889.6, -30278.518, -0.13300906, 0.19325481, -1039456.5, -117477.27, 0.0, 9.999694, 9.99888 
7.1502644e+2, 2.1591862e+2, -809552.1, -931630.5, -77715.3, -0.23587455, 0.025301086, -771771.06, 52234.617, 0.0, 10.000623, 9.99901 
7.150473e+2, 2.2591753e+2, -580853.8, -676962.44, -87225.086, -0.16414398, -0.02784668, -529321.8, 196691.42, 0.0, 10.001107, 9.999855 
7.15069e+2, 2.3591743e+2, -463568.16, -577929.1, -14579.394, 0.02262465, -0.03363903, -461738.75, 166269.89, 0.0, 10.001275, 9.999782 
7.1508884e+2, 2.4591684e+2, -429013.03, -647215.75, 5234.4365, 0.030382928, -0.0021547116, -428887.53, 101123.766, 0.0, 10.001428, 9.998559 
7.151074e+2, 2.5591573e+2, -316255.94, -552437.4, 9290.674, -0.08757072, 0.019935632, -315891.06, 116129.58, 0.0, 10.0015745, 9.998466 
7.1512675e+2, 2.6591343e+2, -320844.38, -660551.25, -37151.48, -0.07822664, 0.020835493, -316828.8, 17215.79, 0.0, 10.001548, 9.997063 
7.151467e+2, 2.759101e+2, -246059.27, -557769.4, -53543.063, 0.021865537, -0.031587757, -237118.52, -1037.9622, 0.000000020828322, 10.001314, 9.997208 
7.151648e+2, 2.8590846e+2, -29273.477, -287218.53, -49639.51, -0.08667166, 0.02965257, -20050.512, 118046.93, 0.0000037854625, 10.001634, 9.998242 
7.1518147e+2, 2.959079e+2, 154685.17, -151528.08, -21527.053, -0.35175642, 0.13903289, 156191.14, 196292.69, 0.00003581413, 10.00224, 9.998207 
7.1520376e+2, 3.0590388e+2, 165988.19, -155917.6, 65225.813, -0.17984599, -0.06479459, 178702.34, 178702.34, 0.00013427089, 10.002146, 9.997882 
7.152277e+2, 3.1590036e+2, 136404.77, -54372.48, 47580.05, 0.073054254, -0.22153491, 147612.81, 147612.81, 0.00030993187, 10.001417, 9.998928 
7.2484165e+2, 1.258989e+2, -1655187.8, -1487439.9, 106079.77, 0.21959955, 0.10090218, -1436081.6, 270115.53, 0.0, 9.999499, 10.001815 
7.2485965e+2, 1.3589814e+2, -1772608.9, -1519651.9, -7642.6646, -0.042941693, -0.15580168, -1519421.1, 88772.07, 0.0, 9.99817, 10.0015545 
7.2488314e+2, 1.4589988e+2, -1735061.6, -1623902.1, -13705.271, 0.18854734, -0.043055736, -1622237.4, -112061.69, 0.0, 9.998498, 9.999999 
7.2490346e+2, 1.5590185e+2, -1402573.6, -1410946.3, -58386.6, 0.07506866, 0.13704789, -1348223.5, 63939.387, 0.0, 10.000107, 10.000007 
7.249246e+2, 1.6590089e+2, -1360120.3, -1462421.6, -22181.877, 0.011817945, 0.0995313, -1355517.8, -41342.2, 0.0, 10.000249, 9.998914 
7.249472e+2, 1.7589779e+2, -1383478.8, -1405429.5, 4305.979, 0.062893294, -0.111441985, -1382664.3, -166458.22, 0.0, 9.999346, 9.999065 
7.249675e+2, 1.8589796e+2, -1241651.1, -1166529.0, -54815.39, 0.011797502, -0.05734799, -1137640.4, -19436.002, 0.0, 9.999121, 10.000142 
7.249859e+2, 1.959002e+2, -1113345.0, -1063883.9, -66596.85, -0.1367401, 0.14069352, -1017574.0, 2608.0898, 0.0, 9.999372, 10.000053 
7.25006e+2, 2.0589936e+2, -1082510.5, -1155728.0, -7593.5073, -0.19095902, 0.12874639, -1081731.3, -159539.81, 0.0, 9.999598, 9.998642 
7.2502726e+2, 2.1589613e+2, -942811.6, -1018301.7, 15133.871, -0.16944154, -0.067312665, -939890.6, -115665.914, 0.0, 9.999794, 9.998819 
7.2504854e+2, 2.2589582e+2, -723204.0, -697831.94, -24967.549, -0.08491095, -0.056762807, -682512.4, 43713.402, 0.0, 9.999923, 10.000282 
7.2506976e+2, 2.3589751e+2, -620154.8, -611500.6, -64970.08, 0.04002737, 0.07105188, -550713.7, 77491.05, 0.0, 10.000018, 10.000158 
7.250896e+2, 2.4589674e+2, -550719.75, -710986.7, -65828.88, 0.009729183, 0.07109825, -527147.8, 3061.0396, 0.0, 10.000613, 9.998512 
7.2510844e+2, 2.558941e+2, -314734.47, -550866.4, -79344.31, -0.13468002, -0.05651219, -290550.34, 141681.94, 0.0, 10.001577, 9.998476 
7.251279e+2, 2.6589185e+2, -268086.75, -567382.0, -99324.49, -0.12452037, -0.08145254, -238124.34, 96129.78, 0.0, 10.001627, 9.997661 
7.2514766e+2, 2.7588978e+2, -250067.67, -500399.97, -33076.094, 0.003272305, -0.06802466, -245771.13, -9495.217, 0.000000011844985, 10.001041, 9.997729 
7.2516656e+2, 2.8588837e+2, -107682.76, -370248.94, 27933.549, -0.049361505, 0.015586212, -104743.89, 33548.035, 0.000004675658, 10.001299, 9.99783 
7.2518474e+2, 2.958873e+2, 119450.39, -200793.81, -19547.16, -0.23556545, 0.1118455, 120639.1, 160944.44, 0.000040299925, 10.002141, 9.997915 
7.252064e+2, 3.058841e+2, 162236.5, -39579.883, 4261.71, -0.09662166, -0.049741495, 162326.45, 162326.45, 0.000144157, 10.001606, 9.998943 
7.252279e+2, 3.158826e+2, -29072.17, -73476.805, 2964.579, 0.034857284, -0.10977487, -28875.121, -28875.121, 0.00032506365, 9.999999, 9.999487 
7.348388e+2, 1.2587783e+2, -1750527.3, -1692083.4, 58388.66, -0.04665426, -0.08388575, -1656012.5, 50381.625, 0.0, 9.999542, 10.000381 
7.34858e+2, 1.3587803e+2, -1881520.3, -1747043.4, -48251.348, -0.036995392, -0.082856245, -1731521.9, -123131.96, 0.0, 9.998176, 9.999991 
7.3488134e+2, 1.4587827e+2, -1805295.8, -1763305.4, 42558.094, 0.15239538, 0.0024740992, -1736845.4, -226454.9, 0.0, 9.99848, 9.999045 
7.3490185e+2, 1.5587713e+2, -1454305.6, -1527965.9, 1567.6467, -0.10758895, -0.03451504, -1454272.3, -41864.2, 0.0, 10.00015, 9.999181 
7.349234e+2, 1.6587754e+2, -1277374.5, -1298081.8, -64237.86, -0.1506224, 0.044492986, -1222661.3, 91746.19, 0.0, 10.000281, 10.000026 
7.349464e+2, 1.75879e+2, -1315185.6, -1261320.9, -21335.234, 0.035133917, 0.17812386, -1253894.3, -37500.207, 0.0, 9.999334, 10.000061 
7.3496705e+2, 1.8587884e+2, -1268821.0, -1214946.9, -49145.727, 0.045311492, 0.17204559, -1185840.1, -67445.86, 0.0, 9.999088, 9.9998255 
7.3498577e+2, 1.9587734e+2, -1137128.6, -1098733.4, -52530.99, -0.096275255, 0.027713848, -1062002.0, -41595.95, 0.0, 9.999315, 9.999839 
7.350064e+2, 2.0587637e+2, -1029022.2, -1034518.2, -4977.5195, -0.11429191, -0.034310557, -1026084.44, -103670.27, 0.0, 9.999548, 9.999499 
7.3502845e+2, 2.1587558e+2, -899166.9, -916294.6, 27780.248, -0.03792087, -0.07427987, -878660.44, -54239.445, 0.0, 9.999745, 9.999542 
7.3504955e+2, 2.258759e+2, -798847.06, -842439.06, -27178.97, 0.013745319, 0.018023398, -785803.94, -59385.918, 0.0, 9.999869, 9.999317 
7.350698e+2, 2.3587681e+2, -690634.25, -744571.06, -53270.65, 0.037647706, 0.16635357, -657894.56, -29484.613, 0.0, 9.99996, 9.999273 
7.350896e+2, 2.4587493e+2, -565404.7, -730237.1, -32851.715, -0.060841054, 0.100614496, -559098.5, -28671.719, 0.0, 10.0005665, 9.998403 
7.3510903e+2, 2.558709e+2, -323415.8, -548489.2, -41742.074, -0.24638826, -0.15636788, -315923.72, 116539.19, 0.0, 10.001492, 9.998532 
7.3512846e+2, 2.6586923e+2, -152752.16, -313034.44, -124985.805, -0.23592977, -0.22067323, -84420.9, 250053.5, 0.0, 10.001565, 9.999438 
7.35148e+2, 2.7586913e+2, -146053.95, -281704.3, -44838.453, -0.0792468, -0.18605027, -132572.66, 103897.26, 0.000000051096855, 10.001028, 9.999241 
7.351687e+2, 2.8586775e+2, -186309.27, -533255.5, 53979.89, 0.021601321, -0.11094618, -178104.78, -39617.543, 0.0000058850314, 10.001298, 9.996709 
7.3519003e+2, 2.958653e+2, 42636.637, -341717.9, 13404.834, 0.06875732, -0.040601734, 43103.58, 83624.84, 0.000043990698, 10.002061, 9.9969845 
7.352096e+2, 3.0586404e+2, 246551.1, 145490.0, -57237.38, 0.05198713, -0.033437498, 272371.4, 272371.4, 0.00014888895, 10.001564, 10.000236 
7.3522526e+2, 3.1586623e+2, 17798.064, 27916.426, -27522.77, -0.2593938, 0.1480015, 50841.137, 50841.137, 0.00032724263, 9.999988, 10.000185 
7.448374e+2, 1.2585731e+2, -2016181.6, -1886536.3, 24386.688, -0.057715982, -0.10765162, -1882100.8, -175508.52, 0.0, 9.99801, 9.999778 
7.448575e+2, 1.358573e+2, -1568026.6, -1668102.4, -45549.11, -0.018412087, -0.05459919, -1550399.8, 58194.31, 0.0, 10.000652, 9.999329 
7.448805e+2, 1.4585698e+2, -1500266.0, -1623036.4, 99819.24, 0.12246344, 0.006686487, -1444467.5, 66132.97, 0.0, 10.000597, 9.998986 
7.449012e+2, 1.5585518e+2, -1668521.6, -1633382.6, 116281.77, -0.11286213, -0.09268871, -1533350.5, -120728.43, 0.0, 9.998689, 9.99916 
7.449225e+2, 1.6585593e+2, -1558214.9, -1400712.4, 54344.164, -0.1578918, 0.005024965, -1383781.6, -69164.54, 0.0, 9.99821, 10.000325 
7.44945e+2, 1.758584e+2, -1375394.1, -1261874.8, 28624.94, -0.0027979265, 0.20869009, -1255065.3, -38471.1, 0.0, 9.998793, 10.000322 
7.449663e+2, 1.8585801e+2, -1219920.8, -1225273.1, 12563.7, 0.044801936, 0.18472567, -1209751.4, -91154.21, 0.0, 9.999572, 9.99952 
7.4498653e+2, 1.9585542e+2, -980701.6, -1050454.6, -2093.712, -0.010359311, -0.04046512, -980638.9, 39981.855, 0.0, 10.000499, 9.999602 
7.4500734e+2, 2.0585486e+2, -853431.06, -877986.5, 16747.453, -0.021536827, -0.083031796, -844942.94, 77681.02, 0.0, 10.000447, 10.000137 
7.4502856e+2, 2.1585567e+2, -869549.5, -844293.44, 24141.322, 0.00549389, -0.025886131, -829676.8, -5063.236, 0.0, 9.999701, 10.000058 
7.4504936e+2, 2.2585574e+2, -812919.8, -919287.9, 16558.086, 0.0045883106, 0.052869145, -810401.9, -83788.2, 0.0, 10.000079, 9.998687 
7.450697e+2, 2.3585512e+2, -543039.1, -735988.25, 696.09503, -0.026282374, 0.10886208, -543036.6, 85586.3, 0.0, 10.001242, 9.998715 
7.450899e+2, 2.458531e+2, -514532.13, -687323.25, 22137.666, -0.09467697, 0.045862164, -511740.97, 18901.02, 0.0, 10.000836, 9.998569 
7.4511e+2, 2.5585e+2, -621892.6, -675241.75, 23978.043, -0.18535188, -0.13334528, -612699.7, -180030.73, 0.0, 9.999367, 9.998689 
7.451298e+2, 2.6584882e+2, -381739.25, -414317.94, -75518.15, -0.17283686, -0.16346605, -320773.6, 13902.969, 0.0, 9.999945, 9.999526 
7.451495e+2, 2.7584884e+2, 4434.703, -196533.6, -128937.54, -0.07900998, -0.12362457, 67419.06, 304091.03, 0.00000017449423, 10.002006, 9.999355 
7.451703e+2, 2.8584722e+2, -51378.832, -434836.6, -50391.688, 0.015324671, -0.08958535, -44867.24, 93822.664, 0.0000070145306, 10.002084, 9.9970045 
7.4519175e+2, 2.9584432e+2, -128244.945, -395506.1, 427.00955, 0.103374906, -0.094746955, -128244.266, -87519.25, 0.000045380526, 10.000766, 9.997236 
7.4521136e+2, 3.058436e+2, 164434.13, 60687.996, -70748.0, 0.10066323, -0.02743516, 200288.45, 200288.45, 0.00014698785, 10.001191, 9.999838 
7.452272e+2, 3.158454e+2, 377391.6, 136575.94, -167143.25, -0.19877644, 0.15721624, 462981.13, 462981.13, 0.00031794576, 10.002736, 9.999615 
7.548372e+2, 1.2583753e+2, -2001962.8, -1846740.3, 112024.984, 0.101807326, 0.04685344, -1788068.4, -81278.12, 0.0, 9.9979725, 10.000066 
7.54858e+2, 1.3583593e+2, -1545862.0, -1631579.3, 44077.82, -0.04100628, -0.08092732, -1527241.3, 81564.94, 0.0, 10.000696, 9.999557 
7.5488055e+2, 1.4583594e+2, -1429085.5, -1488841.1, 20370.81, 0.051103264, -0.043877177, -1422801.8, 88004.16, 0.0, 10.00065, 9.999886 
7.5490123e+2, 1.5583618e+2, -1612654.5, -1517115.4, 58689.945, 0.010023046, -0.026747085, -1489211.8, -76408.78, 0.0, 9.998684, 9.999964 
7.549218e+2, 1.6583622e+2, -1596310.3, -1476860.6, 72020.23, -0.062105596, -0.010870197, -1443022.8, -128219.9, 0.0, 9.998197, 9.999807 
7.5494295e+2, 1.7583606e+2, -1413875.8, -1339626.6, 58218.598, -0.103195205, -0.016478295, -1307703.1, -90897.76, 0.0, 9.998786, 9.999791 
7.5496507e+2, 1.858355e+2, -1240229.1, -1264075.6, 42662.773, -0.04474614, -0.020397758, -1207854.8, -89042.055, 0.0, 9.999557, 9.999262 
7.5498784e+2, 1.9583443e+2, -1003150.7, -1083169.4, 33864.55, 0.06704761, -0.06549081, -990742.9, 30082.732, 0.0, 10.0004425, 9.999404 
7.550084e+2, 2.0583494e+2, -834346.3, -829453.56, -17601.281, 0.038936347, -0.011189845, -814129.5, 108690.49, 0.0, 10.000403, 10.000494 
7.550275e+2, 2.1583645e+2, -857474.7, -801972.7, 5803.452, -0.08567717, 0.07981315, -801372.4, 23429.719, 0.0, 9.999629, 10.000381 
7.550479e+2, 2.2583547e+2, -845722.9, -969029.25, 56150.01, -0.15781926, 0.054636978, -823985.8, -97174.13, 0.0, 10.0, 9.998385 
7.550693e+2, 2.3583251e+2, -569728.44, -775897.75, 42918.035, -0.20004214, -0.09144114, -561151.06, 67691.664, 0.0, 10.001177, 9.998472 
7.5509036e+2, 2.4583133e+2, -491485.56, -632561.56, -39505.793, -0.14485787, -0.082530394, -481176.06, 49677.816, 0.0, 10.000808, 9.998958 
7.5511116e+2, 2.5583124e+2, -605341.94, -641304.5, -15968.325, -0.015417803, 0.00056514237, -599275.06, -166422.84, 0.0, 9.999367, 9.998921 
7.551316e+2, 2.6583043e+2, -486267.5, -628897.3, 213.45636, 0.0030679707, 0.07656904, -486267.2, -151405.36, 0.0, 9.999938, 9.998054 
7.551518e+2, 2.7582896e+2, -92304.65, -380440.16, -51670.215, -0.058179185, 0.1114485, -83319.055, 153562.1, 0.0000002213921, 10.001936, 9.998125 
7.551712e+2, 2.8582692e+2, 56050.414, -206645.45, -103187.41, -0.11272471, 0.076826684, 91735.18, 230634.23, 0.000006961638, 10.002057, 9.998588 
7.5518996e+2, 2.958244e+2, -35684.367, -203961.61, -33569.652, -0.16631073, -0.049175084, -29234.75, 11682.579, 0.000043984805, 10.000761, 9.998559 
7.552116e+2, 3.058228e+2, 24489.354, -219704.48, -13494.061, -0.0042580278, -0.029422296, 25232.768, 25232.768, 0.00014087572, 10.001161, 9.997919 
7.5523293e+2, 3.1582046e+2, 243725.05, -119601.72, -84374.51, 0.07206323, -0.061400637, 262363.06, 262363.06, 0.0003026816, 10.00265, 9.997892 
7.64837e+2, 1.258168e+2, -1656754.3, -1670329.9, 132436.6, 0.18410292, 0.12039913, -1530931.6, 176065.17, 0.0, 10.000269, 10.000174 
7.64858e+2, 1.3581485e+2, -1844277.1, -1772538.4, 29380.377, -0.005523091, -0.044988114, -1762041.6, -153026.23, 0.0, 9.998618, 9.999595 
7.6487994e+2, 1.458149e+2, -1724647.6, -1589458.4, -41699.004, 0.038997788, -0.027953008, -1577631.0, -66617.375, 0.0, 9.998442, 10.000259 
7.649007e+2, 1.5581572e+2, -1459207.5, -1407863.8, -53840.055, 0.04712784, 0.01174153, -1373888.4, 39115.395, 0.0, 9.999581, 10.000284 
7.649211e+2, 1.6581547e+2, -1356231.9, -1376904.0, -8954.581, -0.024182325, -0.0060145804, -1352892.4, -37887.15, 0.0, 9.999912, 9.999667 
7.64942e+2, 1.758144e+2, -1299275.8, -1296453.8, -4026.3616, -0.108894974, -0.090769805, -1293598.3, -76582.62, 0.0, 9.999624, 9.999683 
7.649642e+2, 1.8581402e+2, -1285946.5, -1277228.9, 21819.975, -0.061092585, -0.07591762, -1259336.6, -140314.88, 0.0, 9.999207, 9.999341 
7.6498735e+2, 1.9581394e+2, -1251255.6, -1195599.5, 27851.627, 0.06547587, -0.029720943, -1184056.1, -163029.48, 0.0, 9.998706, 9.99947 
7.65008e+2, 2.0581472e+2, -1053605.8, -943791.75, -27664.264, 0.03404979, 0.051203042, -937216.3, -14196.778, 0.0, 9.99894, 10.000414 
7.6502687e+2, 2.1581592e+2, -847761.7, -804403.6, -46186.285, -0.10865904, 0.12004548, -775061.56, 49943.902, 0.0, 9.999722, 10.000323 
7.6504785e+2, 2.2581486e+2, -786911.25, -895691.06, 54125.77, -0.16506422, 0.06846809, -764568.75, -37553.72, 0.0, 10.000214, 9.998782 
7.6507044e+2, 2.3581208e+2, -645764.5, -770306.25, 76815.53, -0.16518585, -0.097491734, -609150.1, 19892.422, 0.0, 10.000477, 9.998847 
7.6509184e+2, 2.4581112e+2, -415204.97, -561696.56, -9880.055, -0.08939438, -0.09854424, -414541.63, 116508.664, 0.0, 10.0011835, 9.999264 
7.651124e+2, 2.5581133e+2, -178925.36, -409784.0, 961.9833, 0.040805634, -0.015903452, -178921.36, 254123.56, 0.0, 10.002194, 9.9991455 
7.65133e+2, 2.6581058e+2, -194554.08, -578012.44, 82596.15, 0.0350279, 0.0997518, -177519.75, 157536.67, 0.0, 10.002331, 9.997251 
7.651536e+2, 2.7580896e+2, -160160.19, -492334.78, 62653.63, -0.06349375, 0.2004483, -148735.6, 88346.28, 0.00000016204108, 10.001811, 9.9974165 
7.651726e+2, 2.8580654e+2, 57184.477, -173788.9, -45745.555, -0.16436881, 0.14261937, 65914.66, 205017.77, 0.000006290961, 10.001925, 9.9988785 
7.651905e+2, 2.9580346e+2, 228125.69, -52543.41, -76363.0, -0.27084398, -0.06966903, 247556.88, 288679.38, 0.00004165623, 10.00248, 9.998768 
7.65213e+2, 3.0580163e+2, 157135.5, -273032.1, -17727.203, -0.043367554, -0.0214746, 157864.8, 157864.8, 0.0001338161, 10.002574, 9.996873 
7.652365e+2, 3.1579843e+2, 129643.63, -238417.02, -36250.086, 0.19956586, -0.042095833, 133179.9, 133179.9, 0.00028593253, 10.002154, 9.997305 
7.748365e+2, 1.2579514e+2, -1657998.8, -1676450.4, 45420.8, 0.061395008, 0.10756971, -1620876.4, 86335.266, 0.00000000003061157, 10.000295, 10.000115 
7.748571e+2, 1.3579418e+2, -1859265.5, -1796252.9, -25824.715, 0.03521085, 0.058073655, -1787021.5, -177801.17, 0.0, 9.99859, 9.999444 
7.7487844e+2, 1.457939e+2, -1738902.6, -1617193.6, -5779.7944, 0.03051101, 0.060105313, -1616919.8, -105696.74, 0.0, 9.998429, 10.000079 
7.7489936e+2, 1.5579382e+2, -1464868.0, -1429010.3, -9002.022, -0.056427017, 0.028678076, -1426877.3, -13652.792, 0.0, 9.999615, 10.000126 
7.7492046e+2, 1.6579372e+2, -1334683.0, -1334778.8, -25938.842, -0.097553045, 0.018079113, -1308792.0, 6432.471, 0.0, 9.999926, 9.999948 
7.7494216e+2, 1.7579347e+2, -1277946.6, -1252456.1, -9854.941, -0.06750865, -0.012051526, -1249090.5, -31865.684, 0.0, 9.999625, 9.999985 
7.749636e+2, 1.8579368e+2, -1259505.1, -1217764.1, -2057.7805, -0.056835957, 0.024912547, -1217663.0, -98439.45, 0.0, 9.999184, 9.999762 
7.7498484e+2, 1.9579406e+2, -1234195.9, -1148871.0, 18144.031, -0.06951745, 0.07485484, -1145173.0, -123950.39, 0.0, 9.998654, 9.999817 
7.750058e+2, 2.0579423e+2, -1101656.8, -1027274.2, -4249.348, -0.0900127, 0.10902737, -1027032.2, -103810.25, 0.0, 9.998872, 9.999873 
7.7502656e+2, 2.1579409e+2, -886797.5, -868938.3, -13047.93, -0.11569374, 0.09562525, -862056.94, -36833.902, 0.0, 9.999655, 9.99991 
7.750491e+2, 2.2579394e+2, -725486.5, -750646.75, 58182.69, -0.07535104, 0.09885871, -678539.44, 48683.63, 0.0, 10.000138, 9.999816 
7.750728e+2, 2.3579365e+2, -587277.8, -632882.0, 94733.92, 0.016646158, 0.076909445, -512640.44, 116583.45, 0.0, 10.000404, 9.999826 
7.7509415e+2, 2.4579242e+2, -409991.16, -532446.2, 22030.96, 0.015485647, -0.008557235, -406148.16, 125083.7, 0.0, 10.001106, 9.999502 
7.7511376e+2, 2.5579038e+2, -174790.06, -385696.72, 39413.855, -0.056800134, -0.17293397, -167665.17, 265581.1, 0.0, 10.002126, 9.999346 
7.751339e+2, 2.6578933e+2, -218955.31, -615083.1, 58209.82, -0.11421911, -0.08363387, -210578.67, 124681.43, 0.0, 10.00227, 9.997027 
7.751546e+2, 2.7578884e+2, -186601.66, -536079.94, 51558.086, -0.15148312, 0.15094538, -179154.08, 58121.504, 0.00000014054619, 10.001756, 9.997148 
7.7517426e+2, 2.8578603e+2, -10737.766, -303053.06, -29306.285, -0.20696886, 0.110470526, -7828.5947, 131474.69, 0.0000059856334, 10.001877, 9.998012 
7.7519304e+2, 2.9578143e+2, 165724.95, -179133.64, -50120.28, -0.2788934, -0.16558781, 172861.53, 214202.67, 0.00003958502, 10.002461, 9.99791 
7.752154e+2, 3.0578014e+2, 136287.03, -309197.78, -32034.89, -0.0720325, -0.01044248, 138578.88, 138578.88, 0.00012614808, 10.002545, 9.996636 
7.752378e+2, 3.1577885e+2, 147031.95, -191982.9, -22125.574, 0.07919973, 0.17967951, 148469.86, 148469.86, 0.00026824357, 10.002099, 9.997656 
7.848361e+2, 1.2577364e+2, -1719503.3, -1670489.6, 50253.39, 0.038280845, 0.08382698, -1639085.9, 68336.84, 0.0000000009851104, 9.999719, 10.000435 
7.848565e+2, 1.3577315e+2, -1636842.6, -1662606.8, 888.52625, 0.04715874, 0.054204125, -1636812.0, -27386.24, 0.0, 10.000009, 9.999674 
7.8487724e+2, 1.4577284e+2, -1565507.8, -1559551.6, 80139.14, 0.014349088, 0.05343059, -1482335.3, 29094.42, 0.0, 9.999736, 9.999842 
7.848986e+2, 1.5577269e+2, -1560041.4, -1497399.6, 61161.453, -0.06386932, 0.038610175, -1460005.8, -46571.69, 0.0, 9.999068, 9.999917 
7.849201e+2, 1.6577287e+2, -1439855.8, -1355370.5, 46789.195, -0.07878493, 0.05207003, -1334576.1, -19144.346, 0.0, 9.999081, 10.000208 
7.849422e+2, 1.7577313e+2, -1264094.5, -1214509.0, 48349.645, -0.017377181, 0.045637503, -1184966.0, 32460.186, 0.0, 9.999596, 10.000251 
7.849633e+2, 1.857734e+2, -1151910.0, -1138241.5, 44731.477, -0.02850191, 0.06202799, -1099825.1, 19597.662, 0.0, 9.999799, 10.000014 
7.849837e+2, 1.957735e+2, -1066375.1, -1042146.25, 43739.94, -0.09833405, 0.058397852, -1008874.1, 12548.545, 0.0, 9.999699, 10.000046 
7.850048e+2, 2.0577328e+2, -972998.4, -989879.3, 70671.18, -0.114724025, 0.054652013, -910265.4, 13159.26, 0.0, 9.999861, 9.999653 
7.8502667e+2, 2.1577267e+2, -831714.9, -864680.44, 72273.31, -0.09151331, 0.01805518, -774068.6, 51361.035, 0.0, 10.000133, 9.999708 
7.850495e+2, 2.2577262e+2, -762087.56, -760277.94, 96993.53, -0.021383539, 0.03415275, -664185.0, 63244.375, 0.0, 9.999848, 9.99989 
7.8507316e+2, 2.3577282e+2, -768436.0, -713494.4, 54899.848, 0.08552537, 0.054263037, -679575.94, -50149.28, 0.0, 9.999135, 9.999881 
7.8509474e+2, 2.4577197e+2, -682910.56, -683451.4, -16076.8955, 0.054541804, 0.015949817, -667101.8, -135669.08, 0.0, 9.999322, 9.999318 
7.8511465e+2, 2.5577027e+2, -467035.78, -541719.9, -45521.047, -0.08080098, -0.09727458, -445500.03, -12053.619, 0.0, 10.000184, 9.999206 
7.851351e+2, 2.6576895e+2, -435438.8, -661006.7, -39691.41, -0.13557403, -0.057927687, -428658.44, -93196.805, 0.0, 10.000525, 9.997554 
7.851559e+2, 2.7576774e+2, -337974.94, -554847.5, 1679.8572, -0.12569141, 0.052120473, -337961.9, -100482.234, 0.0000001311964, 10.000486, 9.997626 
7.8517616e+2, 2.857652e+2, -143921.13, -409678.2, 14033.86, -0.1602212, 0.039074205, -143182.1, -3676.15, 0.0000058891046, 10.001144, 9.997633 
7.8519595e+2, 2.9576167e+2, 113006.59, -238860.0, 13354.533, -0.22175787, -0.08756672, 113512.72, 155051.38, 0.00003747181, 10.002253, 9.997598 
7.852178e+2, 3.0576056e+2, 154937.05, -259954.39, 40613.605, -0.07213183, 0.073997036, 158875.33, 158875.33, 0.00011815031, 10.00248, 9.997016 
7.85239e+2, 3.1575957e+2, 181782.78, -93371.766, 83428.81, 0.0012579627, 0.25732014, 205102.6, 205102.6, 0.00025099175, 10.001968, 9.998405 
7.9483575e+2, 1.2575254e+2, -1663127.0, -1560637.9, 38539.766, -0.0033741551, 0.05603672, -1547762.9, 159864.72, 0.0000000034592607, 9.999759, 10.001169 
7.9485595e+2, 1.3575192e+2, -1580682.1, -1556999.5, 13760.006, -0.024591917, -0.06106756, -1550687.3, 58943.023, 0.0, 10.000062, 10.00037 
7.948764e+2, 1.457518e+2, -1584607.4, -1607906.3, 49109.19, -0.062718734, -0.055730645, -1545784.8, -34152.02, 0.0, 9.999772, 9.999493 
7.948981e+2, 1.5575238e+2, -1578139.5, -1538501.9, 46351.996, -0.031710226, 0.035041325, -1507909.5, -94277.68, 0.0, 9.999081, 9.999628 
7.9491985e+2, 1.6575299e+2, -1427396.1, -1325812.6, 61852.055, -0.02116992, 0.09209093, -1296570.1, 19056.316, 0.0, 9.999062, 10.000422 
7.949421e+2, 1.7575344e+2, -1247437.1, -1184396.9, 71338.5, -0.0055076806, 0.08403555, -1137925.3, 79693.89, 0.0, 9.99961, 10.000453 
7.9496324e+2, 1.8575321e+2, -1151251.9, -1129048.4, 36055.492, -0.025471441, 0.035160556, -1102424.3, 17195.164, 0.0, 9.999765, 10.0000925 
7.949837e+2, 1.9575226e+2, -1065264.5, -1032320.25, 46487.914, -0.0821416, -0.08306549, -999472.44, 22154.277, 0.0, 9.999664, 10.000129 
7.9500496e+2, 2.0575184e+2, -976850.3, -981021.06, 74603.69, -0.09719457, -0.11503975, -904302.9, 19324.824, 0.0, 9.99979, 9.999748 
7.9502696e+2, 2.1575162e+2, -838520.25, -866107.2, 84764.32, -0.0818877, -0.12166801, -766434.44, 59191.47, 0.0, 10.000076, 9.999726 
7.9504913e+2, 2.257509e+2, -833817.1, -891616.7, 64617.477, -0.050751064, -0.12655307, -791931.2, -64297.46, 0.0, 9.999774, 9.9990225 
7.950715e+2, 2.3574968e+2, -834628.25, -841992.4, 38330.66, -0.008208118, -0.16086125, -799803.2, -170153.42, 0.0, 9.999093, 9.999022 
7.950933e+2, 2.4574983e+2, -731624.5, -777422.56, 10755.022, -0.026862308, -0.02612935, -729224.56, -197572.25, 0.0, 9.99929, 9.99869 
7.951148e+2, 2.5575086e+2, -508081.9, -616767.9, -9841.685, -0.0878679, 0.19567099, -507197.94, -73551.43, 0.0, 10.000136, 9.998715 
7.951361e+2, 2.6574928e+2, -350612.75, -476422.38, -46418.36, -0.09053015, 0.16351457, -335340.34, 321.3631, 0.0, 10.00049, 9.9988365 
7.951573e+2, 2.757456e+2, -259576.58, -387629.84, 9643.853, -0.047173172, -0.0986755, -258854.36, -21160.19, 0.000000103459534, 10.000466, 9.998785 
7.9517823e+2, 2.8574407e+2, -142760.83, -402258.2, 51978.773, -0.07693536, -0.06795223, -132736.42, 6974.6, 0.0000054454867, 10.0011215, 9.997695 
7.9519886e+2, 2.9574412e+2, 111253.01, -226108.11, 58836.65, -0.16586311, 0.15182537, 121219.81, 162936.58, 0.00003447301, 10.002176, 9.9977255 
7.9522014e+2, 3.0574268e+2, 216047.66, -118018.15, 17070.627, -0.10459152, 0.2250362, 216917.69, 216917.69, 0.000110157955, 10.002424, 9.9980135 
7.952397e+2, 3.1574035e+2, 253780.19, 62851.32, 82426.13, -0.15011123, 0.17112249, 284440.8, 284440.8, 0.00023714651, 10.001947, 9.999487 
8.048353e+2, 1.2573183e+2, -1809062.0, -1667550.8, 129856.734, 0.03259475, -0.036023308, -1590424.1, 117401.03, 0.0000000057252847, 9.998918, 10.000851 
8.0485594e+2, 1.3573165e+2, -1747982.5, -1665863.5, 19716.768, 0.027541671, -0.07725167, -1661374.9, -51546.855, 0.0, 9.999023, 10.000139 
8.04876e+2, 1.4573179e+2, -1630124.8, -1585191.8, 51219.355, -0.043872017, -0.056491453, -1551728.3, -39899.46, 0.0, 9.999274, 9.999886 
8.048975e+2, 1.5573291e+2, -1458175.8, -1445161.0, 87103.13, -0.02874455, 0.050325837, -1364322.5, 49498.234, 0.0, 9.999756, 9.999943 
8.0491924e+2, 1.657333e+2, -1351770.1, -1317323.3, 122248.33, -0.017274138, 0.08361801, -1211091.0, 104726.234, 0.0, 9.999699, 10.000177 
8.0494153e+2, 1.75733e+2, -1328283.9, -1251239.1, 87063.57, 0.005897688, 0.027258204, -1194556.3, 23262.074, 0.0, 9.99918, 10.000205 
8.04963e+2, 1.8573263e+2, -1209589.9, -1176225.5, 45136.4, -0.0039352635, -0.012914539, -1144787.1, -24966.66, 0.0, 9.999459, 9.999908 
8.04984e+2, 1.9573201e+2, -986566.0, -1016830.44, 23720.68, -0.048177045, -0.07704197, -973561.9, 48263.21, 0.0, 10.00031, 9.999924 
8.0500543e+2, 2.0573157e+2, -836964.7, -909025.1, 42446.89, -0.07271095, -0.10360571, -817318.0, 106508.13, 0.0, 10.0007305, 9.999789 
8.0502737e+2, 2.1573107e+2, -740738.25, -817958.8, 34995.066, -0.07801456, -0.14363192, -727238.94, 98587.35, 0.0, 10.000746, 9.999733 
8.050493e+2, 2.2573012e+2, -709561.2, -891257.0, 23374.78, -0.059908744, -0.14158297, -706602.25, 21234.438, 0.0, 10.000882, 9.99849 
8.0507135e+2, 2.3572877e+2, -583054.3, -774789.56, 13740.876, -0.028090002, -0.1368234, -582074.56, 47781.086, 0.0, 10.001056, 9.998536 
8.0509347e+2, 2.4572873e+2, -483409.75, -654625.0, 55765.285, -0.026158221, -0.0019520449, -466848.72, 65011.992, 0.0, 10.000975, 9.998727 
8.0511564e+2, 2.5572947e+2, -419600.34, -566570.9, 71972.63, -0.041425385, 0.18709727, -390225.78, 43631.492, 0.0, 10.000709, 9.998788 
8.051375e+2, 2.6572806e+2, -270603.75, -407954.1, 25321.277, -0.018757278, 0.1523364, -266084.34, 69785.71, 0.0, 10.00091, 9.9991045 
8.0515903e+2, 2.757249e+2, -95358.28, -279669.97, -2746.6038, 0.03706924, -0.08563521, -95317.36, 142579.02, 0.00000004701224, 10.001468, 9.999044 
8.051802e+2, 2.8572378e+2, -115412.63, -382267.56, 16865.344, 0.00757953, -0.028746016, -114350.96, 25558.662, 0.000004093495, 10.001279, 9.997756 
8.0520093e+2, 2.957241e+2, -114156.734, -324812.2, 12509.787, -0.09036896, 0.21052448, -113416.44, -71502.09, 0.000029631305, 10.000589, 9.997807 
8.052221e+2, 3.0572185e+2, 137128.5, -141488.72, -20796.287, -0.11296835, 0.19416986, 138672.2, 138672.2, 0.000101928716, 10.001821, 9.998147 
8.052418e+2, 3.157192e+2, 601715.5, 229381.63, -28214.389, -0.24782564, 0.09545279, 603841.3, 603841.3, 0.00022883086, 10.004355, 9.999471 
8.1483454e+2, 1.2571172e+2, -1913265.6, -1885540.3, 108692.24, 0.030581165, -0.19139163, -1789830.3, -81817.0, 0.000000004999778, 9.998935, 9.999342 
8.148563e+2, 1.3571253e+2, -1834682.5, -1842174.1, 29045.047, 0.1482316, 0.002196362, -1809142.8, -199125.05, 0.0, 9.999017, 9.998927 
8.14876e+2, 1.4571305e+2, -1555270.3, -1431107.9, 64284.246, 0.01669817, 0.058642577, -1403821.6, 108194.69, 0.0, 9.999275, 10.000946 
8.148965e+2, 1.557144e+2, -1386323.9, -1305515.1, 111742.086, -0.11157681, 0.08447292, -1227096.9, 186902.81, 0.0, 9.999792, 10.000886 
8.14918e+2, 1.6571388e+2, -1403329.0, -1426844.4, 96935.9, -0.12523447, 0.025041863, -1317440.4, -1437.0757, 0.0, 9.999711, 9.999418 
8.149404e+2, 1.757118e+2, -1378892.4, -1357458.9, 75888.8, -0.039047055, -0.13772804, -1291533.9, -73510.36, 0.0, 9.999184, 9.999474 
8.1496245e+2, 1.8571165e+2, -1250627.0, -1252115.1, 73946.8, -0.017933682, -0.09254022, -1177420.5, -57394.297, 0.0, 9.999418, 9.99941 
8.149843e+2, 1.9571285e+2, -1023886.0, -1088346.1, 60347.203, -0.053889453, 0.07378477, -987701.44, 34315.836, 0.0, 10.00028, 9.999448 
8.1500596e+2, 2.0571256e+2, -852296.7, -921892.56, 37279.9, -0.09374495, 0.08878131, -836097.7, 87921.336, 0.0, 10.000653, 9.999737 
8.1502765e+2, 2.1571103e+2, -754066.44, -830307.4, 41246.02, -0.13252714, -0.04993358, -736022.8, 90007.51, 0.0, 10.00068, 9.99968 
8.150499e+2, 2.2571032e+2, -734918.9, -924072.0, 23820.1, -0.105985746, -0.0133686075, -731965.3, -3927.2522, 0.0, 10.000798, 9.998307 
8.150724e+2, 2.3571002e+2, -602150.6, -798320.25, 25045.777, -0.033996552, 0.11642174, -599003.44, 31041.488, 0.0, 10.000983, 9.99841 
8.150947e+2, 2.4570861e+2, -442318.22, -558280.3, 39544.94, -0.0011988913, 0.08437115, -430116.63, 101941.68, 0.0, 10.000923, 9.999415 
8.1511694e+2, 2.5570622e+2, -382664.5, -485623.1, 69292.61, 0.006052565, -0.10789685, -347821.22, 86256.81, 0.0, 10.000683, 9.999363 
8.15139e+2, 2.6570535e+2, -320875.94, -503456.06, 41583.91, 0.027662167, -0.08083179, -311851.03, 24235.229, 0.0, 10.000878, 9.998461 
8.151609e+2, 2.7570552e+2, -148711.11, -373350.22, 22588.588, 0.06637888, 0.07994945, -146462.23, 91624.68, 0.000000004527389, 10.001398, 9.998433 
8.151819e+2, 2.8570426e+2, -112240.85, -376947.13, -15643.65, 0.035062548, 0.1484562, -111319.55, 28782.61, 0.0000024308686, 10.001279, 9.997796 
8.15202e+2, 2.9570174e+2, -113935.87, -332696.97, -216.31656, -0.05220948, 0.10578624, -113935.65, -71805.38, 0.00002455122, 10.000616, 9.9977455 
8.1522363e+2, 3.0569825e+2, 88189.625, -231986.97, 75283.25, -0.14744219, -0.0013125704, 105007.61, 105007.61, 0.000096502125, 10.001782, 9.997536 
8.1524473e+2, 3.1569636e+2, 497246.97, 59979.65, 86177.086, -0.4139012, 0.035229802, 513617.94, 513617.94, 0.00022897159, 10.004153, 9.998401 
8.248337e+2, 1.2569141e+2, -1839223.8, -1849258.3, 7129.489, 0.03996546, -0.22667632, -1835523.1, -127311.664, 0.0000000017683296, 9.999419, 9.999357 
8.248549e+2, 1.356931e+2, -1740795.0, -1788462.4, 34756.938, 0.09059611, 0.041865397, -1722485.0, -112277.55, 0.0, 9.999617, 9.999005 
8.2487506e+2, 1.4569347e+2, -1519763.0, -1430734.0, 85355.43, -0.0151711255, 0.088881396, -1378982.8, 133224.98, 0.0, 9.999594, 10.000793 
8.2489693e+2, 1.5569411e+2, -1446746.4, -1351280.1, 26184.344, -0.032063834, 0.058782596, -1344569.9, 69628.94, 0.0, 9.999452, 10.000732 
8.249182e+2, 1.6569361e+2, -1399511.4, -1424198.8, 9068.296, -0.06921515, 0.0082149645, -1396538.4, -80335.73, 0.0, 9.99974, 9.999416 
8.249393e+2, 1.756921e+2, -1207466.9, -1278384.9, 33525.563, -0.109940775, -0.09605008, -1194127.3, 24090.326, 0.0, 10.000373, 9.999441 
8.249615e+2, 1.8569197e+2, -1122687.6, -1195281.9, 89095.54, -0.09034657, -0.045164213, -1062779.3, 57440.387, 0.0, 10.00032, 9.999363 
8.249845e+2, 1.9569278e+2, -1117551.8, -1141153.1, 97495.414, -0.02926297, 0.088083185, -1031145.44, -8931.8955, 0.0, 9.999681, 9.999369 
8.2500666e+2, 2.0569232e+2, -1021952.56, -1068165.3, 85256.09, -0.04525538, 0.119750634, -956727.1, -32508.137, 0.0, 9.999763, 9.999162 
8.2502824e+2, 2.156908e+2, -839078.56, -928562.3, 38233.668, -0.114899494, 0.04182025, -824967.7, 1266.5038, 0.0, 10.000344, 9.999167 
8.2505053e+2, 2.2569e+2, -743683.4, -878710.9, 32000.25, -0.09573108, 0.06925425, -736483.5, -8241.571, 0.0, 10.000522, 9.998754 
8.2507324e+2, 2.3568954e+2, -667669.8, -784456.7, 66615.234, -0.010667214, 0.13502963, -637477.8, -7231.791, 0.0, 10.000344, 9.998812 
8.250958e+2, 2.4568759e+2, -506856.78, -619151.7, 78703.734, 0.030699726, 0.045530654, -466325.3, 65937.086, 0.0, 10.000615, 9.999141 
8.2511824e+2, 2.5568444e+2, -317849.75, -479120.03, 27359.18, 0.043008458, -0.19469336, -313334.72, 120954.41, 0.0, 10.001253, 9.999123 
8.251402e+2, 2.6568365e+2, -240487.16, -484629.8, 1740.9282, 0.04071242, -0.13962671, -240474.75, 95822.734, 0.0, 10.001507, 9.998294 
8.2516193e+2, 2.7568445e+2, -152626.28, -392464.44, 8064.6494, 0.033967055, 0.09809666, -152355.4, 85938.44, 0.0, 10.00144, 9.998283 
8.2518315e+2, 2.8568295e+2, -9310.759, -347948.75, -9684.682, 0.0011747284, 0.16067058, -9034.014, 131277.4, 0.000001518397, 10.002079, 9.997608 
8.2520396e+2, 2.9567957e+2, 255989.08, -168578.4, -21344.416, -0.04575826, 0.048432738, 257059.44, 299406.4, 0.000022024158, 10.003224, 9.997614 
8.2522607e+2, 3.056764e+2, 193781.52, -143639.47, 88208.1, -0.104267776, -0.03770199, 215449.33, 215449.33, 0.000096275304, 10.002338, 9.997873 
8.252478e+2, 3.156751e+2, -139053.6, -255915.84, 145285.55, -0.2924972, 0.026340423, -40889.426, -40889.426, 0.000237805, 9.999813, 9.998317 
8.348324e+2, 1.2567094e+2, -1717738.3, -1600214.8, -13126.652, -0.06373363, -0.13459416, -1598766.4, 109653.74, 0.000000000051048894, 9.999436, 10.001054 
8.348517e+2, 1.3567348e+2, -1622228.5, -1555780.8, 48021.453, -0.21014546, 0.0402978, -1530610.4, 79785.48, 0.0, 9.999672, 10.000574 
8.348729e+2, 1.4567317e+2, -1621103.4, -1649712.3, 73778.03, -0.20663947, 0.028302217, -1560255.9, -47853.836, 0.0, 9.999631, 9.999271 
8.348983e+2, 1.5567203e+2, -1539057.1, -1544549.9, 26622.045, 0.15301263, -0.031011974, -1515040.3, -100621.875, 0.0, 9.999457, 9.999402 
8.349198e+2, 1.6567247e+2, -1346958.0, -1310536.5, 27945.451, 0.10459864, 0.0314382, -1295391.9, 21023.705, 0.0, 9.999719, 10.000209 
8.349384e+2, 1.7567404e+2, -1150209.5, -1165779.1, 62518.66, -0.25274622, 0.15759188, -1094992.9, 123406.336, 0.0, 10.000399, 10.000202 
8.3496016e+2, 1.8567373e+2, -1098041.5, -1144070.4, 59221.598, -0.2727087, 0.13448909, -1057519.6, 62879.86, 0.0, 10.000318, 9.999718 
8.3498424e+2, 1.9567175e+2, -1100265.0, -1101008.6, 81497.445, -0.034119714, -0.045616638, -1019138.5, 3275.9922, 0.0, 9.999656, 9.999659 
8.350071e+2, 2.0567077e+2, -1108751.8, -1232944.0, 101832.46, 0.01671167, -0.02190758, -1051576.0, -127149.4, 0.0, 9.999696, 9.998061 
8.3502907e+2, 2.1567044e+2, -914185.75, -1070555.0, 64359.637, -0.07810679, 0.124540284, -891103.44, -64665.72, 0.0, 10.000283, 9.9982195 
8.3505136e+2, 2.2566931e+2, -681428.4, -732755.9, 17965.35, -0.07623686, 0.108686805, -675765.1, 52682.4, 0.0, 10.000446, 9.999796 
8.3507365e+2, 2.356674e+2, -608852.56, -656612.7, 67133.734, -0.011109668, -0.07348929, -561478.2, 68979.8, 0.0, 10.00031, 9.999711 
8.3509636e+2, 2.4566571e+2, -598008.94, -797757.6, 96312.03, 0.017844725, -0.116613604, -559135.7, -26663.215, 0.0, 10.000569, 9.997937 
8.351193e+2, 2.5566402e+2, -404122.34, -646905.44, 56038.18, 0.021048095, -0.0897511, -391812.03, 42679.707, 0.0, 10.001198, 9.998001 
8.351411e+2, 2.6566285e+2, -224219.6, -438867.34, -3964.2695, -0.025575208, -0.039996848, -224146.4, 112358.81, 0.0, 10.001458, 9.998631 
8.3516204e+2, 2.756618e+2, -139311.58, -355786.75, 15853.473, -0.11020167, -0.015624952, -138156.72, 100359.33, 0.0, 10.001399, 9.998557 
8.351839e+2, 2.8566003e+2, -40722.707, -403285.97, 30595.063, -0.14125091, 0.023369847, -38159.055, 102376.94, 0.0000012583888, 10.002041, 9.997245 
8.352065e+2, 2.9565743e+2, 226509.19, -213399.53, 22533.04, -0.12629828, 0.027742084, 227660.38, 270225.53, 0.00002264607, 10.003153, 9.997343 
8.352291e+2, 3.0565608e+2, 275159.7, 35825.965, -5050.048, -0.044247832, 0.06680039, 275266.2, 275266.2, 0.00010212621, 10.0023, 9.999125 
8.352506e+2, 3.1565577e+2, -82136.42, -145462.17, 73902.28, -0.024935812, 0.10984383, -33399.76, -33399.76, 0.00025358543, 9.999851, 9.999059 
8.4483105e+2, 1.2564987e+2, -1865427.6, -1594178.1, -25881.451, -0.06583615, -0.04199337, -1591730.8, 116903.14, 0.0, 9.998095, 10.001745 
8.4485084e+2, 1.3565211e+2, -1601966.6, -1468833.9, -55518.48, -0.24439584, 0.03199693, -1448720.5, 161886.06, 0.0, 9.999486, 10.001263 
8.448722e+2, 1.456517e+2, -1607254.9, -1683913.5, -39690.055, -0.25308728, -0.0018177341, -1590407.8, -77795.555, 0.0, 9.999908, 9.998899 
8.4489745e+2, 1.5565063e+2, -1528854.1, -1579303.9, -11003.665, 0.11296241, -0.015270068, -1526558.5, -111928.93, 0.0, 9.999703, 9.999044 
8.4491944e+2, 1.656512e+2, -1327543.9, -1283755.6, 33631.02, 0.10084279, 0.067183875, -1265520.0, 51106.24, 0.0, 9.999769, 10.000374 
8.449392e+2, 1.7565292e+2, -1206988.8, -1176339.6, 8506.601, -0.1948897, 0.19308975, -1174136.9, 44470.855, 0.0, 9.999937, 10.000354 
8.449608e+2, 1.8565245e+2, -1109592.6, -1156613.5, -43634.223, -0.22600104, 0.15051098, -1083538.1, 37071.344, 0.0, 10.000266, 9.999657 
8.449841e+2, 1.9565012e+2, -955997.94, -1039435.94, -64207.184, -0.05676023, -0.059045058, -921146.5, 101481.92, 0.0, 10.000681, 9.999589 
8.4500706e+2, 2.0564915e+2, -971016.0, -1152799.3, 7363.3926, 0.009626654, -0.03714796, -970718.25, -46078.145, 0.0, 10.000581, 9.998189 
8.4502995e+2, 2.1564904e+2, -952077.1, -1080751.5, 49632.047, 0.0017663508, 0.122659765, -935157.8, -108509.79, 0.0, 9.999985, 9.998297 
8.450524e+2, 2.256479e+2, -712399.0, -759526.0, 20520.164, -0.0006569034, 0.109535664, -704716.44, 23941.781, 0.0, 10.000297, 9.999673 
8.450745e+2, 2.3564589e+2, -476185.6, -604813.4, -34201.22, -0.005689931, -0.07039923, -467657.2, 163013.84, 0.0, 10.001288, 9.999588 
8.450972e+2, 2.4564467e+2, -466771.63, -723395.7, 7612.97, 0.00319173, -0.06390139, -466545.97, 66136.26, 0.0, 10.001419, 9.998039 
8.451203e+2, 2.556439e+2, -447889.06, -654054.1, 51995.086, 0.02360353, 0.042236414, -435518.16, -824.1391, 0.0, 10.000841, 9.998118 
8.451426e+2, 2.6564246e+2, -261371.77, -450606.25, 51207.996, -0.009446758, 0.057404757, -248403.33, 88306.02, 0.0, 10.001181, 9.998681 
8.451642e+2, 2.7564034e+2, -11220.113, -281237.7, 40636.68, -0.074150175, -0.03347776, -5237.013, 233491.61, 0.0000000050987805, 10.002235, 9.998661 
8.4518635e+2, 2.8563863e+2, 44208.477, -313030.97, 83074.29, -0.11340976, -0.01492877, 62582.01, 203328.05, 0.0000017148438, 10.002411, 9.997687 
8.4520894e+2, 2.9563698e+2, 64975.51, -239690.98, 117409.76, -0.12510481, 0.036744617, 104971.33, 147735.9, 0.000025404524, 10.001828, 9.997794 
8.452313e+2, 3.0563644e+2, 230411.64, -13099.203, 33531.543, -0.03627204, 0.14858258, 234944.58, 234944.58, 0.00011213178, 10.002097, 9.9988985 
8.452527e+2, 3.1563514e+2, 352502.94, 40443.62, -3061.066, 0.04467417, 0.11563025, 352532.97, 352532.97, 0.0002740536, 10.002925, 9.998868 
8.548293e+2, 1.2562832e+2, -1905505.0, -1672712.8, 1482.8386, -0.0764796, 0.056735653, -1672703.3, 36147.887, 0.0, 9.998084, 10.001209 
8.5485244e+2, 1.3562903e+2, -1629872.4, -1519458.5, -6549.727, -0.042692386, 0.020877672, -1519071.4, 91768.055, 0.0, 9.99947, 10.000917 
8.548729e+2, 1.4562911e+2, -1543225.8, -1557445.1, -53895.84, -0.18854715, 0.004369816, -1495972.8, 16865.285, 0.0, 9.999925, 9.999765 
8.54894e+2, 1.5563e+2, -1468154.9, -1466649.3, -8174.137, -0.21813646, 0.10196303, -1459193.3, -44361.344, 0.0, 9.999751, 9.999798 
8.549169e+2, 1.6562986e+2, -1366688.0, -1364403.4, 35136.996, -0.14316249, 0.11196032, -1330390.1, -13556.546, 0.0, 9.999768, 9.999821 
8.549413e+2, 1.756287e+2, -1242151.9, -1249838.4, 20256.305, 0.01653889, 0.0008930421, -1225377.5, -6533.969, 0.0, 9.999939, 9.999848 
8.549635e+2, 1.8562815e+2, -1148417.1, -1231864.1, -32032.238, 0.004596724, -0.0016545836, -1137539.1, -16689.25, 0.0, 10.000239, 9.999155 
8.54984e+2, 1.956279e+2, -983370.75, -1096580.4, -45082.47, -0.14743944, 0.048060823, -967611.7, 55243.18, 0.0, 10.000675, 9.999202 
8.550065e+2, 2.0562747e+2, -886486.8, -967603.7, -21297.266, -0.1108787, 0.074116424, -881235.25, 43623.707, 0.0, 10.000536, 9.999485 
8.550307e+2, 2.1562669e+2, -876809.6, -913124.8, 37314.844, 0.07013456, 0.0360655, -853469.06, -26604.787, 0.0, 9.999933, 9.999474 
8.550536e+2, 2.2562584e+2, -818830.75, -961909.25, 52873.52, 0.078114636, 0.066078834, -801412.3, -72538.82, 0.0, 10.000216, 9.998325 
8.550754e+2, 2.3562485e+2, -566025.44, -778529.3, 7034.43, -0.049072303, 0.12388507, -565792.8, 65093.555, 0.0, 10.001229, 9.9984255 
8.5509795e+2, 2.4562441e+2, -382202.06, -531951.56, -19609.27, -0.065095164, 0.1880624, -379676.88, 153215.53, 0.0, 10.001352, 9.999387 
8.55121e+2, 2.5562412e+2, -366121.53, -475106.2, 38468.83, 0.00541963, 0.20808442, -353911.03, 80984.42, 0.0, 10.000797, 9.999371 
8.5514444e+2, 2.656225e+2, -281613.78, -480856.47, 84756.836, 0.05368144, 0.15980381, -250437.08, 86472.63, 0.0, 10.001132, 9.998498 
8.551681e+2, 2.756198e+2, -28321.25, -301197.75, 83223.33, 0.08051853, 0.030553954, -4942.3594, 233990.95, 0.0000001292932, 10.002169, 9.998558 
8.5519016e+2, 2.8561857e+2, 124343.63, -136827.16, 57539.6, 0.019217435, 0.03171644, 136458.45, 277402.06, 0.000003149254, 10.002366, 9.9989195 
8.552111e+2, 2.956181e+2, 138086.94, -89086.984, 102996.08, -0.10962836, 0.07844728, 177830.3, 220777.2, 0.000029423773, 10.001822, 9.998837 
8.5523254e+2, 3.0561742e+2, 113016.375, -238469.83, 59134.363, -0.1291692, 0.21298821, 122698.484, 122698.484, 0.00012255802, 10.002042, 9.997366 
8.5525376e+2, 3.1561318e+2, 250358.6, -129767.016, 41531.305, -0.15719706, 0.044104565, 254843.27, 254843.27, 0.0002958026, 10.002768, 9.997766 
8.648284e+2, 1.2560654e+2, -1676833.4, -1625150.9, 33189.273, -0.051448703, 0.12301223, -1608929.1, 100139.586, 0.00000000000000000000885557, 9.999918, 10.000648 
8.648525e+2, 1.3560693e+2, -1643804.5, -1575598.6, 12569.7705, 0.016757516, 0.10132975, -1573355.9, 37705.914, 0.0, 9.999566, 10.00049 
8.648729e+2, 1.4560688e+2, -1547802.4, -1497259.3, -48540.23, -0.16195859, 0.061709322, -1467806.0, 45254.29, 0.0, 9.999634, 10.000313 
8.648932e+2, 1.5560764e+2, -1375526.4, -1365949.1, -41751.637, -0.28859782, 0.09318628, -1328712.4, 86339.07, 0.0, 10.000155, 10.000292 
8.649163e+2, 1.6560735e+2, -1309785.1, -1353778.8, 12430.4795, -0.19246486, 0.07257831, -1306515.8, 10537.505, 0.0, 10.000231, 9.999667 
8.649418e+2, 1.7560607e+2, -1254973.6, -1275719.5, 15315.375, 0.07713282, -0.034890424, -1246849.0, -27783.916, 0.0, 9.99993, 9.999675 
8.6496425e+2, 1.8560578e+2, -1215478.3, -1275862.9, 11978.488, 0.081096984, 0.0024445262, -1213188.9, -92118.305, 0.0, 9.999836, 9.999043 
8.6498445e+2, 1.9560611e+2, -1108695.5, -1166262.9, 19816.309, -0.122788206, 0.122312345, -1102533.8, -79461.625, 0.0, 9.999866, 9.999107 
8.65007e+2, 2.0560578e+2, -837023.6, -903439.94, 33122.297, -0.12559712, 0.14293669, -823329.06, 101745.57, 0.0, 10.00071, 9.999834 
8.6503124e+2, 2.1560471e+2, -535267.0, -715530.3, 2814.5986, 0.023931745, 0.04185016, -535223.06, 291856.7, 0.0, 10.002142, 9.999763 
8.6505425e+2, 2.2560382e+2, -609133.7, -881722.5, 14440.729, 0.058188163, 0.065959714, -608370.8, 120718.49, 0.0, 10.001742, 9.998142 
8.650764e+2, 2.3560297e+2, -774980.44, -897570.44, 46114.543, 0.005083057, 0.15617152, -759570.6, -128467.37, 0.0, 9.999876, 9.998259 
8.6509895e+2, 2.4560256e+2, -574269.4, -597732.0, 54802.836, -0.024964599, 0.22092967, -529956.3, 3153.331, 0.0, 9.999925, 9.999619 
8.6512166e+2, 2.5560233e+2, -246877.34, -390951.03, 17923.537, -0.043254763, 0.22301659, -244681.03, 190430.83, 0.0, 10.001509, 9.999602 
8.6514544e+2, 2.6560116e+2, -128399.195, -363237.47, 54985.83, 0.0053538317, 0.18604682, -116162.266, 220958.56, 0.0000000005766255, 10.001989, 9.998891 
8.651702e+2, 2.7559912e+2, -88751.836, -291406.3, 83647.89, 0.11279234, 0.08313221, -58685.848, 180450.4, 0.000000514823, 10.001576, 9.998911 
8.651929e+2, 2.8559765e+2, 45011.164, -197672.63, 27107.395, 0.079805546, 0.057642233, 48002.152, 189150.19, 0.0000053955687, 10.001913, 9.998723 
8.652139e+2, 2.9559636e+2, 278156.5, -39679.61, -38008.12, -0.057948053, 0.0430114, 282638.47, 325798.13, 0.000034560046, 10.002867, 9.998674 
8.652353e+2, 3.0559564e+2, 237010.55, -206434.53, -69062.97, -0.09512655, 0.18915956, 247517.58, 247517.58, 0.00013278387, 10.00299, 9.997133 
8.652564e+2, 3.155913e+2, 198858.56, -114514.19, -9067.918, -0.13366494, 0.027939137, 199120.75, 199120.75, 0.00031510062, 10.002222, 9.998127 
8.7482804e+2, 1.2558454e+2, -1705951.5, -1700081.1, -451.64554, -0.11230734, 0.15340826, -1700046.6, 9238.817, 0.0000000055054987, 9.999978, 10.000102 
8.7485063e+2, 1.3558595e+2, -1669333.3, -1626575.3, 4648.1563, -0.1314371, 0.26986656, -1626075.8, -14803.358, 0.0, 9.999563, 10.000136 
8.7487197e+2, 1.4558518e+2, -1539788.5, -1485525.4, -32919.074, -0.23080184, 0.17244858, -1469998.0, 43279.395, 0.0, 9.99965, 10.000387 
8.74895e+2, 1.5558359e+2, -1363817.8, -1343437.0, -17203.469, -0.1392623, -0.04310494, -1333632.3, 81655.445, 0.0, 10.000165, 10.00044 
8.7491775e+2, 1.655837e+2, -1289148.5, -1314871.8, -4694.9663, -0.08694538, -0.04824003, -1288318.4, 28966.504, 0.0, 10.000243, 9.999931 
8.7494045e+2, 1.7558506e+2, -1234211.4, -1238810.5, 10283.716, -0.06347716, 0.085787624, -1225973.3, -6701.137, 0.0, 9.999953, 9.999919 
8.7496287e+2, 1.8558547e+2, -1201535.9, -1241029.6, 8344.813, -0.047676086, 0.17015474, -1199845.1, -78574.914, 0.0, 9.99981, 9.999295 
8.749853e+2, 1.9558479e+2, -1096823.8, -1134797.5, 29804.186, -0.03686797, 0.16025124, -1080472.4, -57192.867, 0.0, 9.999833, 9.99934 
8.7500817e+2, 2.0558402e+2, -894315.4, -1005457.0, 81673.55, -0.08244669, 0.15937398, -851100.1, 74187.08, 0.0, 10.000636, 9.99917 
8.7503135e+2, 2.1558306e+2, -584871.2, -802939.25, 54508.176, -0.1798694, 0.13635196, -572005.44, 255288.92, 0.0, 10.002074, 9.999197 
8.750544e+2, 2.255819e+2, -552771.3, -749621.06, -62010.79, -0.104922794, 0.109729, -534865.6, 194439.58, 0.0, 10.001675, 9.9990835 
8.750774e+2, 2.3558035e+2, -721308.2, -776904.75, -11753.7705, 0.10801996, 0.035119127, -718925.44, -87604.48, 0.0, 9.999831, 9.99911 
8.750999e+2, 2.4557933e+2, -641929.5, -728832.8, 109443.23, 0.0690184, 0.0434859, -567627.75, -34294.855, 0.0, 9.999884, 9.998737 
8.7512195e+2, 2.555786e+2, -311190.06, -509371.0, 79784.21, -0.17531742, 0.085701235, -283062.44, 152280.48, 0.0, 10.001444, 9.998819 
8.7514555e+2, 2.6557836e+2, -69962.516, -233158.77, 35380.105, -0.19354959, 0.1294763, -62622.42, 274720.8, 0.0000000691861, 10.001946, 9.999807 
8.7517047e+2, 2.7557832e+2, -44464.42, -182099.86, 75803.93, -0.029170364, 0.13084655, -10899.945, 228437.64, 0.000001269736, 10.0015, 9.9997 
8.751943e+2, 2.8557613e+2, -66854.05, -418140.2, 55888.49, 0.021100322, 0.07779879, -58176.71, 83180.984, 0.000008177336, 10.001858, 9.997238 
8.752172e+2, 2.95572e+2, 176078.42, -240346.72, 2284.658, -0.021003837, -0.06928171, 176090.95, 219492.28, 0.000040999803, 10.002808, 9.99733 
8.7523943e+2, 3.055712e+2, 298132.78, -61359.242, -94591.16, 0.0078123, 0.0755413, 321502.78, 321502.78, 0.000144102, 10.002923, 9.998155 
8.752601e+2, 3.1556898e+2, 304965.8, 115402.47, -16525.588, -0.017849715, 0.026702728, 306395.7, 306395.7, 0.00033147624, 10.002187, 9.999723 
8.84828e+2, 1.25562e+2, -1869475.1, -1796188.4, 718.49414, -0.063900694, 0.13592209, -1796181.4, -86676.81, 0.00000006865043, 9.99893, 9.999953 
8.8484997e+2, 1.355634e+2, -1681112.6, -1644809.8, 16411.86, -0.14690469, 0.26327175, -1638490.4, -26996.953, 0.0, 9.999528, 10.000035 
8.848716e+2, 1.4556272e+2, -1584253.1, -1523535.3, -8425.653, -0.21467619, 0.18794607, -1522387.8, -8889.172, 0.0, 9.999422, 10.000236 
8.848954e+2, 1.555611e+2, -1549443.6, -1451451.0, -25876.967, -0.04742526, -0.014832501, -1445037.5, -29527.578, 0.0, 9.998964, 10.000279 
8.8491803e+2, 1.6556126e+2, -1439945.0, -1371564.9, -11590.116, -0.020485587, -0.012190779, -1369653.9, -52147.62, 0.0, 9.999148, 10.000068 
8.849399e+2, 1.7556289e+2, -1241842.6, -1227106.9, -19443.492, -0.10257702, 0.1339772, -1213682.0, 5808.3057, 0.0, 9.9998455, 10.00005 
8.8496244e+2, 1.8556301e+2, -1130079.6, -1212722.5, -28942.883, -0.08921129, 0.18970312, -1120951.5, 538.061, 0.0, 10.000322, 9.999244 
8.849858e+2, 1.9556172e+2, -993310.8, -1091526.6, -45810.45, -0.0034529252, 0.123128, -975260.8, 48242.563, 0.0, 10.000573, 9.99928 
8.8500875e+2, 2.055608e+2, -1010665.44, -1074854.9, 24047.973, -0.048773404, 0.11827395, -1002655.6, -77142.95, 0.0, 9.99989, 9.999054 
8.8503146e+2, 2.1556014e+2, -1122934.1, -1071935.1, 29488.307, -0.19673954, 0.13523524, -1058450.3, -230931.2, 0.0, 9.99842, 9.99911 
8.8505477e+2, 2.2555916e+2, -898624.4, -874815.25, -72086.54, -0.110726885, 0.11325802, -813656.94, -84128.766, 0.0, 9.999127, 9.999446 
8.850786e+2, 2.3555776e+2, -443217.47, -605876.0, -80076.01, 0.15820518, 0.01820331, -410412.53, 221128.73, 0.0, 10.001587, 9.999436 
8.8510144e+2, 2.4555679e+2, -299218.66, -579640.6, 66875.95, 0.11858011, 0.025478387, -284086.44, 249465.8, 0.0, 10.002305, 9.998598 
8.851235e+2, 2.55556e+2, -287675.3, -514795.44, 79244.914, -0.16685697, 0.07385086, -262759.22, 172803.92, 0.00000000006372724, 10.001669, 9.998678 
8.851469e+2, 2.6555568e+2, -215295.42, -329543.13, -10689.927, -0.20471297, 0.1320721, -214303.8, 123261.586, 0.00000025387644, 10.00107, 9.999562 
8.8517135e+2, 2.7555564e+2, -198702.55, -279413.88, -64558.47, -0.041304242, 0.15995848, -162924.28, 76637.81, 0.0000021793016, 10.000551, 9.999481 
8.851955e+2, 2.855533e+2, -201146.39, -466149.9, 5733.5093, 0.009083414, 0.09277893, -201022.39, -59438.81, 0.00001103343, 10.000876, 9.997374 
8.852194e+2, 2.9554895e+2, 47208.402, -284985.2, 54025.254, -0.02819653, -0.09228874, 55773.777, 99400.67, 0.00004783983, 10.001862, 9.99747 
8.852419e+2, 3.0554765e+2, 244207.16, -121343.64, -67823.41, -0.019127803, 0.01607138, 256385.23, 256385.23, 0.00015540064, 10.002688, 9.997869 
8.852623e+2, 3.1554633e+2, 464668.66, 207931.67, -94574.914, -0.061459817, 0.085775845, 495745.72, 495745.72, 0.00034465065, 10.003222, 9.999872 
8.948276e+2, 1.2553887e+2, -1855916.8, -1760973.8, 2147.0762, -0.019952087, 0.066956244, -1760925.3, -51199.223, 0.00000033567557, 9.998913, 10.000198 
8.948504e+2, 1.3553949e+2, -1669521.8, -1614622.9, 39161.434, -0.06693122, 0.09280026, -1594248.8, 17473.725, 0.00000000007521531, 9.999517, 10.000242 
8.9487165e+2, 1.4553978e+2, -1608149.1, -1582991.9, -33745.918, -0.16240777, 0.12650342, -1559556.5, -45835.42, 0.0, 9.9994545, 9.999817 
8.9489424e+2, 1.5554033e+2, -1578624.5, -1513590.9, -33930.652, -0.07217534, 0.18575454, -1499111.6, -83395.3, 0.0, 9.998967, 9.999854 
8.9491695e+2, 1.6554026e+2, -1442548.8, -1379869.1, 10228.609, -0.055403296, 0.18991566, -1378242.3, -60526.598, 0.0, 9.999156, 10.000008 
8.9494e+2, 1.7553954e+2, -1244018.6, -1234526.4, 13264.56, -0.0854489, 0.1029507, -1225184.4, -5464.636, 0.0, 9.999853, 9.999997 
8.949629e+2, 1.8553844e+2, -1160805.0, -1271140.0, -25020.656, -0.08891821, 0.0563188, -1155396.3, -33667.26, 0.0, 10.0002985, 9.998856 
8.9498574e+2, 1.955369e+2, -1023180.8, -1146173.5, -34777.027, -0.075225644, 0.00587712, -1014028.44, 9715.127, 0.0, 10.000538, 9.998923 
8.9500844e+2, 2.0553617e+2, -988614.06, -1016279.75, -37822.527, -0.07466749, 0.016524235, -962174.2, -36423.5, 0.0, 9.999835, 9.999484 
8.950311e+2, 2.1553598e+2, -1104403.6, -1017865.2, -12115.996, -0.08449137, 0.036012005, -1016200.9, -188447.58, 0.0, 9.998356, 9.999512 
8.9505494e+2, 2.2553572e+2, -927835.75, -920725.2, 15132.857, -0.015893074, 0.080424905, -908735.56, -178978.3, 0.0, 9.999058, 9.9991665 
8.950798e+2, 2.3553525e+2, -469437.6, -644530.44, 11607.3545, 0.107056856, 0.104801655, -468671.47, 163092.34, 0.0, 10.001515, 9.999206 
8.951034e+2, 2.4553493e+2, -266642.4, -500672.6, 36572.95, 0.07658761, 0.15639815, -261060.13, 272707.94, 0.0, 10.0022545, 9.999166 
8.9512616e+2, 2.555345e+2, -268278.72, -454374.06, 61179.254, -0.0786021, 0.18617803, -249967.64, 185804.81, 0.0000000002378373, 10.001583, 9.999135 
8.9514923e+2, 2.655333e+2, -313638.0, -527721.75, -35644.098, -0.09074375, 0.20487782, -307859.38, 29926.35, 0.00000030747992, 10.001041, 9.998216 
8.9517254e+2, 2.7553132e+2, -282665.1, -455683.6, -73372.65, 0.013101692, 0.17257936, -255739.8, -15931.653, 0.0000026197797, 10.000558, 9.99827 
8.951962e+2, 2.855292e+2, -84187.0, -231987.88, 39028.438, -0.01225437, 0.10257747, -74514.16, 67311.016, 0.000013141425, 10.00091, 9.998966 
8.952203e+2, 2.9552692e+2, 146508.47, -77910.34, 96142.65, -0.13912201, -0.035727307, 182063.6, 225902.5, 0.00005419451, 10.001847, 9.998902 
8.952427e+2, 3.0552495e+2, 133417.48, -332896.94, -52083.465, -0.21993768, 0.007408225, 139163.97, 139163.97, 0.000166228, 10.002622, 9.99644 
8.9526284e+2, 3.155224e+2, 377526.44, 37937.39, -55101.21, -0.3576473, 0.09883342, 386243.3, 386243.3, 0.00035724125, 10.003179, 9.998719 
9.0482694e+2, 1.2551533e+2, -1739425.3, -1696425.9, -43161.652, 0.00040546138, 0.029721823, -1669705.6, 40248.906, 0.0000010657902, 9.999672, 10.000283 
9.048496e+2, 1.3551578e+2, -1770464.4, -1652378.3, -35997.17, -0.051146865, 0.03137878, -1642270.1, -30317.395, 0.000000007369457, 9.998774, 10.000346 
9.048711e+2, 1.4551654e+2, -1675925.8, -1590566.6, -58880.9, -0.12746957, 0.09570994, -1560524.0, -46577.117, 0.0, 9.998889, 10.0000305 
9.04894e+2, 1.5551777e+2, -1422990.4, -1415158.1, -24907.715, -0.034009986, 0.20056757, -1393860.6, 22075.121, 0.0, 9.999942, 10.000056 
9.049168e+2, 1.6551766e+2, -1320343.4, -1336277.0, 43901.156, -0.020706952, 0.19666862, -1283692.0, 34243.88, 0.0, 10.000066, 9.999868 
9.049398e+2, 1.7551622e+2, -1310693.5, -1277600.4, 27706.14, -0.06591192, 0.055220153, -1261876.0, -41928.688, 0.0, 9.999449, 9.999891 
9.049629e+2, 1.85515e+2, -1269900.6, -1291734.5, 36405.99, -0.06678755, -0.015103119, -1242810.0, -120853.18, 0.0, 9.999411, 9.99914 
9.0498626e+2, 1.9551381e+2, -1102045.1, -1157807.4, 68138.53, -0.033986315, -0.059053443, -1056304.1, -32338.22, 0.0, 9.999873, 9.999167 
9.0500903e+2, 2.0551312e+2, -929576.5, -1017228.3, 39807.637, -0.018237662, -0.0440729, -914196.3, 11776.457, 0.0, 10.000367, 9.999219 
9.0503126e+2, 2.1551265e+2, -755376.56, -881816.2, -296.17734, -0.018743662, -0.023984881, -755375.9, 72603.75, 0.0, 10.000885, 9.9992285 
9.050551e+2, 2.2551231e+2, -670657.4, -819566.4, 72732.92, 0.01278292, 0.036318153, -641027.5, 88957.664, 0.0, 10.000924, 9.998962 
9.050803e+2, 2.3551191e+2, -612485.7, -735066.8, 59747.82, 0.06724481, 0.08964268, -588182.25, 43808.867, 0.0, 10.000625, 9.999014 
9.0510446e+2, 2.4551155e+2, -521465.25, -604069.5, 29080.852, 0.05221937, 0.13854386, -512254.4, 21740.701, 0.0, 10.000421, 9.999334 
9.051276e+2, 2.5551108e+2, -443179.6, -523262.8, 14409.236, -0.023565691, 0.14541902, -440665.88, -4666.9453, 0.0, 10.000315, 9.9992695 
9.0515095e+2, 2.6550964e+2, -280586.66, -574100.8, -3311.0015, -0.04173704, 0.16164897, -280549.3, 57466.91, 0.0000002007212, 10.001544, 9.997656 
9.0517455e+2, 2.755072e+2, 170755.56, -293464.97, 821.77466, -0.0044075, 0.1427901, 170757.02, 410803.38, 0.0000025589381, 10.003914, 9.99777 
9.0519816e+2, 2.855056e+2, 387483.28, 52777.21, 55605.59, -0.05602433, 0.11863397, 396479.4, 538538.2, 0.000014744336, 10.003908, 9.999479 
9.052218e+2, 2.9550463e+2, 191735.31, 267.83145, 25182.996, -0.17497784, 0.06430124, 194992.14, 239049.02, 0.00006127167, 10.001933, 9.999392 
9.0524477e+2, 3.0550176e+2, 41597.25, -434722.06, -43974.305, -0.2520595, 0.023194399, 45622.977, 45622.977, 0.00017932737, 10.002231, 9.995934 
9.0526646e+2, 3.154984e+2, 481897.13, 25134.303, -1637.9894, -0.34986925, 0.084460676, 481903.0, 481903.0, 0.0003744975, 10.004171, 9.998153 
9.148255e+2, 1.2549181e+2, -1734865.0, -1703447.6, -92604.35, -0.1378621, 0.058182016, -1625229.0, 84957.12, 0.000002613721, 9.999745, 10.000196 
9.1484743e+2, 1.354924e+2, -1772253.9, -1655636.0, -63558.703, -0.15886474, 0.07911389, -1627691.6, -15508.421, 0.00000007607973, 9.99877, 10.000324 
9.1486967e+2, 1.45493e+2, -1615396.0, -1466307.5, -24965.898, -0.1731352, 0.08337606, -1462237.9, 51938.496, 0.0, 9.998891, 10.000884 
9.148945e+2, 1.5549347e+2, -1361582.1, -1294452.5, 19397.934, 0.014278429, 0.024693383, -1289250.4, 126917.11, 0.0, 9.999969, 10.000872 
9.149175e+2, 1.6549352e+2, -1333900.4, -1369285.4, 13727.03, 0.031238865, 0.010795914, -1329199.8, -11033.6875, 0.0, 10.000088, 9.99963 
9.1493905e+2, 1.7549308e+2, -1324824.1, -1306301.5, 11935.432, -0.09417948, -0.00618637, -1300455.6, -80284.0, 0.0, 9.999444, 9.999698 
9.1496235e+2, 1.8549281e+2, -1202993.0, -1148272.9, 49249.438, -0.0744862, -0.022587975, -1119294.0, 2878.201, 0.0, 9.999389, 10.000137 
9.1498727e+2, 1.9549254e+2, -1045490.5, -1031451.56, 93121.63, 0.06648172, -0.07442002, -945085.2, 79084.51, 0.0, 9.999834, 10.000055 
9.1501033e+2, 2.0549175e+2, -1009683.75, -1171182.4, 54671.027, 0.06581869, -0.05886098, -992917.06, -66739.266, 0.0, 10.000312, 9.998188 
9.1503185e+2, 2.1549031e+2, -835716.44, -1030118.06, 23432.395, -0.052088533, -0.033480898, -832931.9, -4735.421, 0.0, 10.000807, 9.998246 
9.150552e+2, 2.2548905e+2, -688556.56, -846259.3, 54664.73, -0.0748381, -0.010074769, -671461.25, 58749.574, 0.0, 10.0008745, 9.998805 
9.150802e+2, 2.354878e+2, -630884.56, -763401.7, 54713.355, -0.014325138, -0.025918864, -611214.4, 21008.363, 0.0, 10.000581, 9.998841 
9.151043e+2, 2.4548684e+2, -538497.75, -635050.5, 20657.547, -0.011776112, -0.017755838, -534263.75, -31.830648, 0.0, 10.0004, 9.999133 
9.151277e+2, 2.5548592e+2, -458807.4, -553042.25, 20773.459, -0.054126646, -0.03292747, -454431.25, -18190.549, 0.0, 10.0003, 9.999075 
9.1515195e+2, 2.6548478e+2, -270125.7, -549593.3, 81052.41, -0.10230413, 0.013818772, -248319.95, 89935.79, 0.00000011562638, 10.001531, 9.99783 
9.151771e+2, 2.7548325e+2, 167661.9, -280076.66, 88887.25, -0.15030318, 0.06775383, 184662.72, 424940.44, 0.0000025826089, 10.003824, 9.997908 
9.1520095e+2, 2.8548244e+2, 341570.03, -25442.271, -24911.113, -0.18031545, 0.13899766, 343253.2, 485538.25, 0.000017158924, 10.003832, 9.99898 
9.1522366e+2, 2.9548204e+2, 160127.61, -71227.7, -34325.1, -0.19578579, 0.19223848, 165112.84, 209394.03, 0.000070174305, 10.001948, 9.998898 
9.1524774e+2, 3.054782e+2, 58479.348, -390210.88, 26725.504, -0.17863217, 0.0609602, 60065.6, 60065.6, 0.0001960741, 10.002203, 9.996244 
9.1527265e+2, 3.1547388e+2, 464109.06, 17607.87, 90682.44, -0.17813437, -0.00573816, 481823.47, 481823.47, 0.0003976008, 10.004051, 9.998154 
9.248241e+2, 1.2546939e+2, -1850914.3, -1772339.9, 4507.426, -0.20908265, 0.06694731, -1772082.1, -61677.504, 0.0000053718704, 9.998983, 10.000095 
9.2484695e+2, 1.3546969e+2, -1748340.4, -1651283.8, 14195.221, -0.08694003, 0.06539401, -1649250.3, -36846.293, 0.00000033393198, 9.998954, 10.00027 
9.248692e+2, 1.4547014e+2, -1668095.0, -1455567.4, 67637.62, -0.07652686, 0.040138613, -1435867.5, 78529.95, 0.0, 9.998382, 10.0012045 
9.248931e+2, 1.5547033e+2, -1696480.5, -1421619.8, 54174.137, -0.0011433307, -0.07804954, -1411327.6, 5062.116, 0.0, 9.997528, 10.001175 
9.2491615e+2, 1.6547057e+2, -1634842.0, -1523219.1, 62881.793, -0.00993065, -0.082246155, -1494953.0, -176566.61, 0.0, 9.998058, 9.99955 
9.249386e+2, 1.7547083e+2, -1284929.8, -1297842.4, 62096.66, -0.091732174, -0.023737533, -1228954.6, -8567.474, 0.0, 9.999765, 9.9996 
9.249624e+2, 1.8547097e+2, -1076279.8, -1109622.0, 49370.71, -0.049308874, 0.01682456, -1040841.44, 81544.66, 0.0, 10.0003605, 9.999932 
9.2498744e+2, 1.9547085e+2, -1034332.94, -1043918.3, -11397.675, 0.09475619, 0.00046499152, -1026761.25, -2375.9604, 0.0, 10.000001, 9.999882 
9.250108e+2, 2.0546989e+2, -990066.2, -1159465.1, -7710.0234, 0.07843475, 0.0072423923, -989716.0, -63321.14, 0.0, 10.000437, 9.998212 
9.2503285e+2, 2.1546803e+2, -723872.94, -974429.44, 29066.459, -0.068233654, -0.011498553, -720545.2, 107869.56, 0.0, 10.001564, 9.998266 
9.250565e+2, 2.2546643e+2, -519173.22, -786942.7, 74135.51, -0.09549149, -0.011210982, -500018.13, 230412.81, 0.0, 10.002136, 9.998603 
9.250815e+2, 2.3546498e+2, -404157.6, -680072.44, 58492.848, -0.02477176, -0.028414931, -392269.56, 240175.28, 0.0, 10.002249, 9.998611 
9.2510563e+2, 2.454635e+2, -265199.16, -594301.6, 24522.512, -0.028904878, -0.020102201, -263381.94, 271078.84, 0.0, 10.002668, 9.998324 
9.251291e+2, 2.5546178e+2, -57872.13, -439137.63, -30454.719, -0.09191136, -0.034771573, -55454.793, 381025.4, 0.0, 10.003403, 9.998362 
9.251536e+2, 2.6546067e+2, -54713.84, -377782.06, 34109.363, -0.14695384, 0.016505927, -51151.863, 287342.16, 0.00000007319143, 10.002714, 9.998443 
9.2517895e+2, 2.7545983e+2, -228953.48, -406643.88, 64552.113, -0.1867877, 0.078566186, -207978.64, 32526.254, 0.0000027897247, 10.000825, 9.998479 
9.252033e+2, 2.8545892e+2, -59512.64, -298291.3, -21106.209, -0.19706105, 0.15304011, -57661.367, 84852.445, 0.000020132902, 10.001415, 9.998269 
9.2522675e+2, 2.954579e+2, 422335.8, -17899.273, -57235.332, -0.18020953, 0.21226692, 429655.34, 474176.8, 0.00008107723, 10.004062, 9.998249 
9.252514e+2, 3.054539e+2, 441323.56, -133358.83, 14968.981, -0.14776212, 0.062396735, 441713.2, 441713.2, 0.00021792427, 10.004501, 9.996909 
9.2527694e+2, 3.1545052e+2, 320197.4, -32168.99, 80682.51, -0.08864581, 0.023563962, 337792.9, 337792.9, 0.00042958252, 10.00296, 9.998342 
9.348221e+2, 1.2544787e+2, -1857510.6, -1773134.9, -9760.405, -0.3364761, 0.01890769, -1772020.6, -61408.707, 0.000009857008, 9.998943, 10.000103 
9.34848e+2, 1.3544795e+2, -1744419.3, -1650063.5, 17262.527, 0.117565, -0.006379052, -1647004.5, -34392.27, 0.0000009955157, 9.998993, 10.000254 
9.3486965e+2, 1.4544833e+2, -1684539.9, -1504218.3, 29037.467, 0.110943034, -0.017883815, -1499657.8, 14948.966, 0.00000000002439963, 9.998433, 10.000852 
9.348893e+2, 1.5544847e+2, -1723839.0, -1472445.8, 33089.223, -0.13675112, -0.1050143, -1468163.4, -51562.324, 0.0, 9.997497, 10.000845 
9.3491244e+2, 1.654489e+2, -1630912.3, -1506605.6, 121120.76, -0.20308834, -0.082999945, -1432622.0, -114025.55, 0.0, 9.998025, 9.99968 
9.349383e+2, 1.7544952e+2, -1280817.4, -1289276.1, 129163.32, -0.10916973, 0.0020125678, -1155814.1, 64778.81, 0.0, 9.999769, 9.999658 
9.349629e+2, 1.8544956e+2, -1181262.9, -1324386.9, 31089.508, -0.042480957, 0.1053187, -1174801.3, -52203.625, 0.0, 10.000347, 9.998467 
9.3498653e+2, 1.9544883e+2, -1135420.9, -1244194.5, -17244.123, -0.0060135624, 0.17525995, -1132752.6, -108140.86, 0.0, 9.99996, 9.9985285 
9.350102e+2, 2.054476e+2, -915765.94, -998618.6, 26840.533, -0.033363707, 0.16051559, -907830.8, 18792.793, 0.0, 10.000403, 9.999333 
9.3503404e+2, 2.1544582e+2, -659620.06, -828083.6, 74724.914, -0.11300785, 0.039145984, -631251.6, 197382.97, 0.0, 10.001503, 9.999305 
9.3505865e+2, 2.2544453e+2, -548165.0, -828548.3, 73129.53, -0.09986766, 0.032356203, -530237.6, 200407.6, 0.0, 10.002058, 9.998353 
9.35084e+2, 2.3544346e+2, -436905.94, -731903.5, 69480.22, -0.0069239177, 0.07971043, -421360.6, 211296.86, 0.0, 10.002176, 9.998292 
9.3510824e+2, 2.4544145e+2, -368793.0, -797455.3, 46708.99, -0.04821451, 0.12378843, -363762.4, 170919.53, 0.0, 10.002617, 9.996954 
9.351316e+2, 2.554385e+2, -156367.92, -631796.2, -1001.1359, -0.18889286, 0.12478292, -156365.83, 280352.34, 0.0, 10.0033455, 9.997071 
9.351556e+2, 2.654372e+2, 17343.639, -219570.88, -40347.992, -0.22416162, 0.15932395, 24026.63, 362758.03, 0.00000003612581, 10.002678, 9.999547 
9.351801e+2, 2.7543697e+2, -161006.47, -264097.88, 8178.844, -0.165632, 0.17452958, -160361.63, 80365.81, 0.0000027028154, 10.000816, 9.999463 
9.352052e+2, 2.8543523e+2, -126073.97, -431043.72, 76135.86, -0.15991442, 0.17004289, -108123.2, 34620.426, 0.000022320448, 10.001395, 9.997366 
9.352308e+2, 2.9543227e+2, 354048.03, -146446.94, 46338.453, -0.19490258, 0.12448815, 358302.13, 403078.8, 0.00009274373, 10.004001, 9.997397 
9.352553e+2, 3.0542886e+2, 498189.88, 5111.1123, -44935.91, -0.21685855, 0.02105969, 502251.56, 502251.56, 0.00024507797, 10.004421, 9.997896 
9.352792e+2, 3.1542823e+2, 338675.03, 25926.215, 39171.08, -0.18780412, 0.1546949, 343506.47, 343506.47, 0.00047301076, 10.002882, 9.9987755 
9.448216e+2, 1.2542638e+2, -1952648.4, -1770767.0, -18009.97, -0.22452872, 0.015341773, -1769000.8, -58178.58, 0.000016753027, 9.998077, 10.000545 
9.4484645e+2, 1.3542654e+2, -1845105.4, -1660678.0, 12863.091, 0.108577766, -0.040321864, -1659785.3, -46966.523, 0.000002343361, 9.998141, 10.000596 
9.4486797e+2, 1.4542687e+2, -1668275.6, -1584088.4, 40602.66, 0.08178347, -0.03241437, -1567697.4, -52883.22, 0.0000000053592455, 9.998931, 10.000055 
9.448883e+2, 1.5542662e+2, -1342286.4, -1376472.1, -3113.233, -0.13377842, -0.079505116, -1342005.1, 74810.85, 0.0, 10.000491, 10.000058 
9.449118e+2, 1.6542676e+2, -1266567.4, -1323082.4, 79233.89, -0.1771896, -0.050570954, -1210703.0, 108111.63, 0.0, 10.000487, 9.999755 
9.449381e+2, 1.7542718e+2, -1366305.1, -1324681.9, 72581.6, -0.06840286, 0.0069331774, -1269987.1, -49175.895, 0.0, 9.999153, 9.999712 
9.449629e+2, 1.8542677e+2, -1358335.4, -1491028.1, 30154.572, -0.0332606, 0.09957201, -1351804.1, -228983.05, 0.0, 9.999488, 9.997731 
9.4498646e+2, 1.9542542e+2, -990463.4, -1253800.9, 27206.57, -0.067283906, 0.17951578, -987681.94, 37162.457, 0.0, 10.001296, 9.997818 
9.450108e+2, 2.0542404e+2, -691675.4, -851535.0, 59543.09, -0.072529204, 0.16894768, -671934.94, 254922.66, 0.0, 10.0017805, 9.999676 
9.4503593e+2, 2.1542262e+2, -691793.06, -804544.2, 36627.883, -0.04715782, 0.048117258, -680939.1, 147923.84, 0.0, 10.001122, 9.999642 
9.450609e+2, 2.2542143e+2, -674373.8, -916799.75, 32136.133, -0.039352804, 0.048248358, -670186.2, 60686.125, 0.0, 10.001312, 9.998107 
9.4508576e+2, 2.3542026e+2, -441945.28, -755370.3, 18498.807, -0.04253668, 0.10908624, -440857.22, 192029.45, 0.0, 10.002242, 9.998092 
9.4511014e+2, 2.4541831e+2, -395766.53, -816100.75, 48128.266, -0.09638697, 0.17036866, -390326.25, 144584.4, 0.0, 10.002451, 9.996908 
9.451343e+2, 2.554156e+2, -348086.94, -726040.94, 89632.71, -0.18552133, 0.1952215, -327907.7, 109036.01, 0.0, 10.002038, 9.997051 
9.4515836e+2, 2.6541373e+2, -56401.484, -282815.78, 27804.408, -0.187553, 0.18953997, -53037.008, 285923.63, 0.000000027783642, 10.002288, 9.999301 
9.451826e+2, 2.7541235e+2, 156444.77, -135871.28, -29053.133, -0.10586654, 0.1139084, 159304.38, 400270.44, 0.000002328807, 10.003105, 9.999242 
9.452079e+2, 2.8541046e+2, 99387.67, -345860.6, 82291.72, -0.106242314, 0.11105381, 114110.19, 257094.89, 0.000023776485, 10.003043, 9.997162 
9.45234e+2, 2.9540807e+2, 71007.37, -299061.63, 89965.07, -0.17263964, 0.14726608, 91719.02, 136733.22, 0.00010396813, 10.002136, 9.997243 
9.4525874e+2, 3.0540496e+2, 228141.52, -82159.95, -21756.375, -0.20608962, 0.061428122, 229659.52, 229659.52, 0.00027441463, 10.0023775, 9.99829 
9.452829e+2, 3.1540355e+2, 436247.13, 73014.266, 2118.38, -0.12330827, 0.082742736, 436259.47, 436259.47, 0.0005237484, 10.00354, 9.998802 
9.548223e+2, 1.254053e+2, -1896567.5, -1655244.5, -23794.732, 0.01011202, 0.084308855, -1652920.6, 58111.477, 0.00002677623, 9.998094, 10.001319 
9.5484185e+2, 1.3540561e+2, -1804177.6, -1565634.5, 21291.959, -0.17267942, -0.037162438, -1563749.0, 49272.887, 0.0000047533053, 9.998102, 10.001262 
9.548639e+2, 1.4540565e+2, -1762496.6, -1775303.8, 94850.92, -0.23137766, -0.021059142, -1673833.4, -158812.63, 0.000000046136613, 9.99891, 9.998756 
9.548897e+2, 1.5540478e+2, -1420376.8, -1553925.8, 58069.06, -0.05556156, 0.00013329026, -1398659.1, 18375.254, 0.0, 10.000556, 9.998812 
9.5491433e+2, 1.6540426e+2, -1254470.3, -1310673.6, 21353.08, 0.011338974, 0.021154638, -1247278.1, 71762.05, 0.0, 10.000542, 9.999813 
9.549379e+2, 1.7540395e+2, -1365302.4, -1320561.8, 31305.758, -0.017182805, -0.0032782801, -1304455.1, -83414.43, 0.0, 9.999144, 9.999744 
9.549621e+2, 1.8540272e+2, -1358960.3, -1491193.5, 92882.7, -0.07239909, 0.0077666794, -1311065.5, -188010.28, 0.0, 9.999477, 9.997738 
9.5498705e+2, 1.954006e+2, -995565.7, -1257430.1, 97588.42, -0.14638685, 0.011771304, -963198.3, 61884.58, 0.0, 10.001264, 9.99781 
9.550125e+2, 2.0539927e+2, -728740.7, -918365.1, 28365.713, -0.08859779, 0.028184071, -724588.4, 202508.08, 0.0, 10.001735, 9.999241 
9.5503837e+2, 2.1539852e+2, -734937.9, -875965.44, 19583.146, 0.07778266, 0.017127125, -732269.06, 96830.39, 0.0, 10.001042, 9.999192 
9.5506305e+2, 2.2539724e+2, -697087.44, -948786.94, 60627.92, 0.03584303, 0.043218054, -683245.0, 47866.313, 0.0, 10.001247, 9.997918 
9.550867e+2, 2.353954e+2, -463098.44, -785514.4, 57273.016, -0.17812449, 0.05792772, -453226.88, 179905.66, 0.0, 10.002176, 9.997923 
9.551114e+2, 2.4539405e+2, -310981.22, -627467.7, 27700.445, -0.229382, 0.1199958, -308575.03, 226572.02, 0.0, 10.002402, 9.998222 
9.551369e+2, 2.55393e+2, -271494.88, -559054.94, 79815.16, -0.13378172, 0.18129247, -250826.88, 186330.34, 0.0, 10.002002, 9.998216 
9.551618e+2, 2.6539028e+2, -169635.45, -506408.13, 54035.844, -0.08254698, 0.11459453, -161177.7, 178004.27, 0.000000030362223, 10.002244, 9.997784 
9.5518625e+2, 2.7538598e+2, 46538.773, -352808.53, 5499.9795, -0.06761891, -0.1037229, 46614.504, 287835.56, 0.000002140531, 10.003055, 9.997778 
9.5521104e+2, 2.8538442e+2, 125921.03, -276761.72, 41969.625, -0.09788638, -0.027694797, 130248.805, 273486.7, 0.000025776937, 10.002986, 9.99766 
9.552363e+2, 2.953852e+2, 95222.7, -238552.1, 64146.68, -0.16277528, 0.27315402, 107126.24, 152361.69, 0.00011523108, 10.002088, 9.997682 
9.552616e+2, 3.0538222e+2, 209116.64, -100721.234, 20998.633, -0.16221333, 0.1858381, 210533.31, 210533.31, 0.00030332356, 10.002296, 9.998199 
9.552877e+2, 3.153772e+2, 401884.44, 24852.752, 59184.363, -0.017422177, -0.14725548, 410956.6, 410956.6, 0.0005765504, 10.003446, 9.998513 
9.648216e+2, 1.253831e+2, -1937851.9, -1687836.0, -8127.535, 0.14656973, 0.07973972, -1687572.1, 23677.69, 0.000040530904, 9.997848, 10.001221 
9.648401e+2, 1.3538337e+2, -1606978.1, -1475901.9, -53663.285, -0.21898681, -0.038810384, -1456734.6, 156505.31, 0.000008656152, 9.999476, 10.001214 
9.6486276e+2, 1.4538336e+2, -1631138.9, -1732579.9, 49240.008, -0.2744133, -0.014103546, -1611168.9, -95929.22, 0.00000019058375, 9.999905, 9.998569 
9.6489024e+2, 1.553823e+2, -1600217.5, -1659453.4, 82718.55, 0.006555109, 0.009025789, -1541974.3, -124718.914, 0.0, 9.999417, 9.9986315 
9.649151e+2, 1.6538152e+2, -1388836.0, -1439349.4, 47641.508, 0.06962305, 0.03710404, -1360170.5, -40905.133, 0.0, 9.999897, 9.999239 
9.649376e+2, 1.7538074e+2, -1094258.5, -1250042.8, 1039.6425, -0.057218384, 0.025433425, -1094251.5, 127020.66, 0.0, 10.001259, 9.99921 
9.6496195e+2, 1.8537945e+2, -1004845.06, -1243122.3, 103805.95, -0.13204928, 0.019059842, -965965.7, 157319.42, 0.0, 10.001575, 9.998433 
9.6498805e+2, 1.9537753e+2, -992894.7, -1185186.6, 147943.5, -0.15588841, -0.024226146, -912599.94, 112704.73, 0.0, 10.0009775, 9.9984455 
9.6501404e+2, 2.0537609e+2, -895996.3, -1114096.8, 70343.33, -0.0752612, 0.001694581, -875277.0, 52043.1, 0.0, 10.001098, 9.998197 
9.650399e+2, 2.1537487e+2, -679389.75, -959683.9, 4358.5737, 0.09004814, 0.050083537, -679322.0, 150011.52, 0.0, 10.001909, 9.998195 
9.6506464e+2, 2.2537322e+2, -546491.8, -862847.94, 63405.895, 0.028696373, 0.07960999, -534256.8, 197093.56, 0.0, 10.002217, 9.998046 
9.650884e+2, 2.3537111e+2, -462616.3, -764614.3, 74637.805, -0.21789707, 0.051781174, -445176.9, 188194.34, 0.0, 10.002091, 9.998105 
9.6511346e+2, 2.4536948e+2, -305572.5, -602144.9, 13302.007, -0.2526388, 0.06506531, -304977.06, 230408.73, 0.0, 10.002342, 9.998427 
9.651397e+2, 2.5536814e+2, -120953.766, -465704.3, -25011.365, -0.09381158, 0.080646455, -119148.664, 318247.53, 0.0, 10.002958, 9.998391 
9.651649e+2, 2.6536545e+2, -94182.93, -575513.8, -43684.99, -0.03864734, 0.05713059, -90250.266, 249172.05, 0.000000012060779, 10.003207, 9.996851 
9.6518916e+2, 2.7536145e+2, -10322.544, -478149.2, -61188.94, -0.07389571, -0.03861882, -2451.812, 239011.67, 0.0000023356135, 10.003084, 9.996903 
9.6521384e+2, 2.853594e+2, 97673.95, -256543.13, -42507.97, -0.10000619, 0.017937753, 102703.72, 246188.73, 0.000028836348, 10.002644, 9.997964 
9.652388e+2, 2.953591e+2, 92391.41, -207589.6, -45482.88, -0.105024256, 0.17790747, 99135.85, 144625.55, 0.00012696916, 10.001933, 9.99797 
9.6526426e+2, 3.0535704e+2, 197854.86, -74491.734, -4782.491, -0.09851372, 0.15406023, 197938.81, 197938.81, 0.00033102813, 10.002077, 9.998484 
9.6529126e+2, 3.1535342e+2, 316942.06, 8373.277, 32995.13, 0.03804386, -0.06387219, 320430.78, 320430.78, 0.0006275745, 10.002766, 9.998718 
9.7481877e+2, 1.253594e+2, -1998258.3, -1811950.0, 41379.96, 0.051332317, -0.021361396, -1803172.9, -91694.78, 0.000058506626, 9.997844, 10.000367 
9.748411e+2, 1.3535981e+2, -1653124.9, -1581695.1, 5800.4033, -0.077197276, -0.043287538, -1581227.1, 32245.926, 0.00001444443, 9.999519, 10.000464 
9.7486466e+2, 1.4536008e+2, -1555805.8, -1589129.9, 22334.377, -0.09204877, -0.0077963094, -1544603.0, -29132.898, 0.0000005546723, 9.999956, 9.999532 
9.748898e+2, 1.5535927e+2, -1541440.5, -1535718.0, 71837.36, 0.010197891, -0.054555845, -1466684.9, -49206.535, 0.0, 9.999406, 9.99949 
9.749139e+2, 1.6535848e+2, -1475507.0, -1614901.0, 92348.0, -0.051152848, -0.003395602, -1429506.9, -110016.87, 0.0, 9.999878, 9.998044 
9.7493714e+2, 1.7535762e+2, -1167955.5, -1407829.0, 53774.594, -0.23959103, 0.09593264, -1156452.0, 65053.324, 0.0, 10.001278, 9.998118 
9.7496235e+2, 1.8535697e+2, -904535.0, -1037402.44, 75404.25, -0.26304287, 0.13399528, -870473.75, 253036.73, 0.0, 10.001585, 9.999842 
9.749892e+2, 1.9535634e+2, -909019.5, -1002067.56, 132534.67, -0.14471965, 0.0754186, -815080.3, 210428.38, 0.0, 10.000938, 9.9997225 
9.7501516e+2, 2.0535456e+2, -1016606.7, -1359325.3, 94443.91, -0.08045964, 0.094653904, -992303.94, -64776.406, 0.0, 10.001067, 9.996532 
9.750404e+2, 2.1535167e+2, -798184.8, -1196691.9, 38765.094, -0.060535647, 0.14323875, -794448.94, 35116.723, 0.0, 10.001861, 9.996596 
9.7506547e+2, 2.2534932e+2, -516255.34, -789624.25, 52614.94, -0.11394863, 0.15210697, -506478.3, 225111.55, 0.0, 10.002173, 9.998567 
9.750905e+2, 2.3534733e+2, -444316.16, -708029.6, 75216.97, -0.22428603, 0.08690024, -424371.1, 209232.08, 0.0, 10.002011, 9.998532 
9.7511625e+2, 2.4534462e+2, -370632.75, -728286.6, 29829.781, -0.21949883, 0.015545626, -368161.88, 167464.48, 0.0, 10.002301, 9.997581 
9.751426e+2, 2.5534108e+2, -185190.88, -590939.56, 2888.4954, -0.11589286, -0.10395602, -185170.31, 252489.53, 0.0, 10.002916, 9.997554 
9.751675e+2, 2.653392e+2, -124705.67, -625730.8, -51475.086, -0.104321785, 0.0081980685, -119471.82, 220209.73, 0.0000000034767167, 10.003156, 9.996527 
9.7519135e+2, 2.7533856e+2, -41148.113, -529274.44, -56861.09, -0.17130011, 0.28445527, -34611.97, 207082.52, 0.0000028342504, 10.00303, 9.996578 
9.7521603e+2, 2.853354e+2, 99465.7, -245134.55, -69404.266, -0.15373644, 0.23674314, 112918.875, 256645.2, 0.000032308424, 10.002615, 9.998056 
9.7524124e+2, 2.9532993e+2, 98829.32, -193833.22, -58090.375, -0.06719519, -0.124725305, 109937.98, 155713.0, 0.00013866213, 10.001931, 9.998066 
9.7526664e+2, 3.0532935e+2, 231101.83, 5137.5737, 19650.438, -0.07438771, -0.033088934, 232797.95, 232797.95, 0.0003577468, 10.002037, 9.999047 
9.752934e+2, 3.1533197e+2, 346717.16, 93046.805, 70080.586, -0.050446495, 0.3103503, 364790.38, 364790.38, 0.00067534257, 10.002673, 9.99934 
9.848164e+2, 1.2533498e+2, -2104482.3, -1855044.3, -4971.5015, 0.07088534, -0.04929421, -1854945.3, -143226.84, 0.00008108169, 9.99708, 10.0004425 
9.8484015e+2, 1.353363e+2, -1897350.0, -1690014.3, 2561.4634, -0.030238532, 0.011023768, -1689982.6, -76276.12, 0.000022462764, 9.997796, 10.000557 
9.8486435e+2, 1.453369e+2, -1750185.1, -1656271.3, -4462.7305, -0.039711952, 0.06456819, -1656059.6, -140358.97, 0.0000013019285, 9.998502, 9.999771 
9.848889e+2, 1.5533602e+2, -1529984.5, -1504129.3, -21468.771, -0.014637199, -0.015725622, -1491996.3, -74287.32, 0.0, 9.999369, 9.999721 
9.8491347e+2, 1.6533506e+2, -1481905.9, -1627904.1, 58800.785, -0.07705774, 0.011653884, -1461169.1, -141447.69, 0.0, 9.999879, 9.997953 
9.8493814e+2, 1.7533392e+2, -1351934.0, -1503914.3, 91439.44, -0.1978147, 0.092799045, -1309030.6, -87292.24, 0.0, 10.000057, 9.998044 
9.84964e+2, 1.8533322e+2, -1051717.4, -1126298.1, 74825.27, -0.20715222, 0.1357567, -1005405.2, 118338.734, 0.0, 10.000651, 9.9996805 
9.8499054e+2, 1.9533269e+2, -819960.8, -976064.7, 2932.0537, -0.13057576, 0.105086416, -819905.75, 205835.72, 0.0, 10.001621, 9.999572 
9.850164e+2, 2.0533076e+2, -829643.9, -1262782.8, 8482.508, -0.11865207, 0.11572627, -829477.9, 98283.164, 0.0, 10.002316, 9.996597 
9.850417e+2, 2.1532753e+2, -663894.06, -1122406.5, 71918.08, -0.15791386, 0.120802455, -652878.3, 176922.66, 0.0, 10.002743, 9.99668 
9.850673e+2, 2.2532511e+2, -422965.8, -772729.0, 102031.36, -0.17963913, 0.12991495, -395377.72, 336448.16, 0.0, 10.0029335, 9.998321 
9.8509336e+2, 2.353233e+2, -329569.5, -678200.06, 61372.258, -0.17686565, 0.10664005, -319081.16, 314757.63, 0.0, 10.002909, 9.998306 
9.851194e+2, 2.4532042e+2, -311221.94, -738574.75, 37770.29, -0.15869911, 0.048855983, -307909.4, 227955.23, 0.0, 10.002887, 9.997226 
9.8514533e+2, 2.5531647e+2, -206416.92, -637138.2, 33825.94, -0.12794903, -0.07962587, -203776.64, 234126.78, 0.0, 10.002927, 9.997231 
9.8517025e+2, 2.6531446e+2, -114175.0, -558422.3, 24045.88, -0.13623135, 0.010556697, -112877.26, 227047.69, 0.00000001775074, 10.002954, 9.997092 
9.851943e+2, 2.7531412e+2, -13530.242, -454810.97, 70469.59, -0.16553251, 0.25689712, -2549.9375, 239382.48, 0.000003544514, 10.002954, 9.99713 
9.852191e+2, 2.8531086e+2, 157117.42, -262385.97, 78160.0, -0.12867635, 0.19365829, 171206.66, 315170.16, 0.000035208486, 10.0032, 9.997661 
9.852443e+2, 2.9530495e+2, 320059.44, -135138.69, 44017.58, -0.03792855, -0.17022507, 324276.84, 370292.78, 0.00014828933, 10.003655, 9.997641 
9.852694e+2, 3.0530405e+2, 386103.53, -14729.469, 72200.49, -0.06893045, -0.049704492, 398712.13, 398712.13, 0.000381165, 10.003501, 9.998208 
9.852957e+2, 3.153058e+2, 313166.75, 189.50137, 307.74826, -0.07771373, 0.2901237, 313167.06, 313167.06, 0.00071712484, 10.002745, 9.99868 
9.94814e+2, 1.2530994e+2, -2032817.8, -1706446.3, 8205.437, 0.10070955, 0.008406147, -1706240.1, 5729.808, 0.000108580556, 9.997089, 10.001456 
9.948371e+2, 1.3531287e+2, -1833337.5, -1546346.0, 30575.938, -0.122408845, 0.12802461, -1543124.5, 70815.086, 0.000033028722, 9.997756, 10.001561 
9.948617e+2, 1.4531393e+2, -1789122.8, -1732854.6, 19414.068, -0.17139845, 0.20588495, -1726806.4, -210876.03, 0.0000026281716, 9.998477, 9.999261 
9.948873e+2, 1.5531266e+2, -1553844.8, -1562021.5, 15745.142, -0.12756093, 0.13333641, -1541665.9, -123719.4, 0.00000000019976186, 9.999398, 9.999312 
9.949136e+2, 1.6531129e+2, -1406087.4, -1473617.5, 58609.0, -0.061984725, 0.08515342, -1372213.0, -52253.758, 0.0, 9.999893, 9.999004 
9.9494064e+2, 1.7530966e+2, -1284687.0, -1366198.8, 103391.2, 0.027715407, 0.011728414, -1214308.8, 7662.204, 0.0, 10.00006, 9.998988 
9.949667e+2, 1.8530811e+2, -1177759.6, -1383485.9, 104500.81, -0.009174983, 0.018715216, -1133989.8, -10004.389, 0.0, 10.000632, 9.997926 
9.9499196e+2, 1.9530658e+2, -936952.6, -1213643.4, 43149.53, -0.15958923, 0.061252628, -930379.6, 95623.38, 0.0, 10.0015955, 9.997955 
9.950176e+2, 2.0530476e+2, -711670.5, -1003681.8, 17376.684, -0.23743387, 0.06630949, -710640.06, 217380.27, 0.0, 10.002259, 9.998403 
9.950436e+2, 2.1530254e+2, -558718.9, -880053.0, 91076.99, -0.24879144, -0.0057526515, -534699.94, 295338.97, 0.0, 10.002642, 9.998393 
9.9507e+2, 2.2530068e+2, -502610.63, -914750.7, 95129.625, -0.21066098, 0.025931988, -481712.6, 250344.89, 0.0, 10.002835, 9.99739 
9.9509686e+2, 2.3529904e+2, -404988.75, -814768.2, 65442.94, -0.12836942, 0.111386456, -394791.1, 239286.42, 0.0, 10.002827, 9.997406 
9.9512273e+2, 2.4529687e+2, -309467.1, -726486.9, 33159.484, -0.12249903, 0.1602395, -306846.84, 229253.92, 0.0, 10.002845, 9.99733 
9.9514776e+2, 2.5529405e+2, -204819.94, -622586.06, 41954.047, -0.18167862, 0.1384757, -200648.36, 237479.88, 0.0, 10.002872, 9.99736 
9.951728e+2, 2.6529124e+2, -24974.824, -362198.34, 19828.863, -0.18261477, 0.06666155, -23812.883, 316340.06, 0.000000028595345, 10.002907, 9.998461 
9.951978e+2, 2.7528816e+2, 66023.15, -271931.03, 75842.984, -0.13051967, -0.09230497, 82263.27, 324440.0, 0.000003781716, 10.002879, 9.998422 
9.952228e+2, 2.8528574e+2, 92967.51, -383610.16, 88297.016, -0.08863248, -0.09250449, 108800.555, 252998.23, 0.000036350866, 10.003143, 9.996857 
9.952478e+2, 2.9528382e+2, 264447.06, -252127.47, 66833.16, -0.059183028, 0.016138026, 272953.7, 319170.2, 0.00015374523, 10.003659, 9.996836 
9.952725e+2, 3.0528098e+2, 236633.45, -326891.8, 44085.563, -0.11914708, 0.09465856, 240061.48, 240061.48, 0.00039693914, 10.003511, 9.996057 
9.9529785e+2, 3.1527534e+2, 165339.0, -277924.9, -9603.174, -0.16075228, -0.092106074, 165546.95, 165546.95, 0.00074757636, 10.00263, 9.99682 
1.00481175e+3, 1.2528501e+2, -1938447.3, -1645648.6, 92501.375, 0.14757599, 0.02985869, -1618873.9, 93340.55, 0.00014134821, 9.997679, 10.001585 
1.004835e+3, 1.3528767e+2, -1720135.6, -1474292.8, 23989.658, -0.1342155, 0.105357714, -1471973.8, 142213.36, 0.000046426092, 9.998464, 10.00171 
1.00486055e+3, 1.4528897e+2, -1700810.5, -1685336.3, 21078.232, -0.15678696, 0.19784449, -1670620.0, -154443.55, 0.00000474816, 9.999082, 9.999286 
1.004887e+3, 1.5528855e+2, -1523578.1, -1545678.4, 36241.426, -0.09618562, 0.21168461, -1496739.6, -78553.99, 0.000000004412824, 9.999609, 9.999322 
1.004914e+3, 1.6528736e+2, -1336601.5, -1393746.6, 67589.85, -0.024090994, 0.15965845, -1291793.0, 28402.32, 0.0, 10.000164, 9.999429 
1.00494124e+3, 1.7528534e+2, -1154230.5, -1257622.1, 54541.43, 0.05756349, 0.004704411, -1130778.4, 91428.39, 0.0, 10.000764, 9.999396 
1.00496754e+3, 1.8528341e+2, -1191192.1, -1453738.1, 90773.336, 0.008721676, -0.019008132, -1162864.4, -38639.17, 0.0, 10.000813, 9.997356 
1.00499295e+3, 1.9528142e+2, -1159936.4, -1380568.8, 107270.016, -0.15419553, 0.03711367, -1116380.8, -90129.76, 0.0, 10.000323, 9.997421 
1.005019e+3, 2.0527965e+2, -887095.44, -1009333.7, 108507.375, -0.2377829, 0.034498096, -823677.8, 104589.43, 0.0, 10.000709, 9.99911 
1.0050457e+3, 2.1527788e+2, -623892.44, -835749.3, 88543.61, -0.25134367, -0.06461801, -591760.0, 238516.48, 0.0, 10.001862, 9.999073 
1.0050725e+3, 2.252763e+2, -607886.9, -996249.1, 58440.953, -0.20658398, -0.02382095, -599283.25, 133009.34, 0.0, 10.002247, 9.997115 
1.00509934e+3, 2.3527475e+2, -551751.1, -915683.9, 64878.965, -0.108665325, 0.09960551, -540531.0, 93785.49, 0.0, 10.001943, 9.997141 
1.00512534e+3, 2.4527292e+2, -380625.66, -720052.1, 94770.09, -0.104131125, 0.17914216, -355957.97, 180379.53, 0.0, 10.002173, 9.997701 
1.0051506e+3, 2.5527078e+2, -174097.52, -563232.25, 111632.13, -0.1768325, 0.18361785, -144347.72, 294009.1, 0.0, 10.002898, 9.997752 
1.00517586e+3, 2.652679e+2, -23304.197, -364042.34, 30647.582, -0.16674238, 0.09163831, -20569.557, 319811.03, 0.000000017098808, 10.002946, 9.998424 
1.0052008e+3, 2.7526423e+2, -10606.3545, -313308.6, -24177.26, -0.08248784, -0.12733749, -8687.447, 233722.89, 0.000003428396, 10.002378, 9.998374 
1.005226e+3, 2.8526175e+2, 62028.61, -401046.03, 33813.113, -0.065707415, -0.12712075, 64484.574, 208915.86, 0.00003625069, 10.002935, 9.996838 
1.0052514e+3, 2.9526034e+2, 382933.47, -198899.75, 52490.28, -0.10262303, 0.03478396, 387630.97, 434075.75, 0.00015665985, 10.004478, 9.996811 
1.0052761e+3, 3.052571e+2, 411094.13, -285378.28, 60038.625, -0.18182209, 0.09258166, 416231.78, 416231.78, 0.00040740802, 10.004888, 9.995681 
1.0053008e+3, 3.1524992e+2, 385000.66, -188143.7, 106651.94, -0.1997951, -0.21008429, 404203.3, 404203.3, 0.0007694706, 10.004201, 9.99668 
1.01480916e+3, 1.2526035e+2, -1992253.8, -1764230.3, 107813.73, 0.088983916, 0.0072250133, -1721326.5, -8876.521, 0.0001798155, 9.9977, 10.000764 
1.0148337e+3, 1.3526073e+2, -1761482.6, -1576992.0, 59517.92, -0.123914145, -0.069061056, -1559457.6, 54990.414, 0.000062927356, 9.998525, 10.000978 
1.0148609e+3, 1.45262e+2, -1663655.5, -1617918.9, 32837.004, -0.050317068, 0.032225903, -1600771.9, -84333.2, 0.000007860604, 9.99912, 9.999733 
1.014888e+3, 1.5526374e+2, -1495738.8, -1488218.5, 60003.867, 0.035196222, 0.2188523, -1431857.0, -13430.952, 0.000000028517778, 9.99961, 9.999716 
1.0149143e+3, 1.6526335e+2, -1348352.0, -1421553.4, 83015.016, -0.011695502, 0.241138, -1294227.3, 26201.166, 0.0, 10.0001745, 9.999234 
1.0149399e+3, 1.7526102e+2, -1158369.1, -1276302.6, 81417.33, -0.15844019, 0.06997039, -1116808.0, 105636.98, 0.0, 10.000801, 9.999251 
1.0149662e+3, 1.8525906e+2, -1148335.8, -1364333.3, 65063.777, -0.20666175, 0.02037451, -1130251.1, -5788.0107, 0.0, 10.00081, 9.997971 
1.0149932e+3, 1.9525728e+2, -1127063.6, -1300988.3, 93851.38, -0.16734836, 0.03415097, -1086078.6, -59593.75, 0.0, 10.00027, 9.997994 
1.01502046e+3, 2.0525546e+2, -923159.94, -1066982.0, 146108.94, -0.17351143, 0.019083813, -832224.4, 96276.82, 0.0, 10.000637, 9.99875 
1.01504795e+3, 2.1525353e+2, -657095.7, -889696.7, 134925.77, -0.21950649, -0.060024947, -595264.8, 235248.89, 0.0, 10.001799, 9.998733 
1.0150747e+3, 2.2525194e+2, -595825.06, -951191.8, 39594.566, -0.21568517, -0.022352934, -591466.94, 141064.31, 0.0, 10.002162, 9.997463 
1.0151008e+3, 2.3525049e+2, -537495.44, -869569.7, 59868.54, -0.16771974, 0.07601983, -527031.6, 107523.336, 0.0, 10.00187, 9.997493 
1.0151271e+3, 2.4524878e+2, -347808.94, -635140.44, 115695.63, -0.15361476, 0.11756095, -307015.13, 229558.36, 0.0, 10.002106, 9.998313 
1.0151537e+3, 2.5524667e+2, -144553.88, -487373.63, 142678.92, -0.17016032, 0.06523061, -92942.17, 345646.5, 0.0, 10.002837, 9.9983015 
1.0151791e+3, 2.652445e+2, -121403.78, -559059.25, 4900.7334, -0.14024173, 0.08306151, -121348.91, 219259.58, 0.000000011022683, 10.002903, 9.997107 
1.01520345e+3, 2.7524212e+2, -95829.56, -493580.56, -33199.39, -0.06882886, 0.12408551, -93077.52, 149556.27, 0.0000031084232, 10.002387, 9.997134 
1.0152286e+3, 2.852389e+2, 105682.3, -308490.25, 88730.15, -0.10121336, 0.07666272, 123890.87, 268554.1, 0.000035475463, 10.002932, 9.997472 
1.0152548e+3, 2.9523486e+2, 406668.8, -117223.45, 116441.6, -0.22401345, -0.08739152, 431383.5, 478080.72, 0.000157892, 10.004345, 9.997432 
1.01527974e+3, 3.0523244e+2, 476690.03, -117087.44, 32667.963, -0.31433085, -0.039077666, 478481.94, 478481.94, 0.0004149796, 10.004751, 9.996902 
1.0153042e+3, 3.15229e+2, 464545.03, 7228.0464, 94342.234, -0.30663842, -0.09058813, 483242.88, 483242.88, 0.0007870268, 10.00408, 9.998077 
1.02480605e+3, 1.2523486e+2, -1945063.9, -1808208.6, 54817.695, -0.004360836, -0.013531019, -1788958.9, -76262.27, 0.00022439056, 9.998301, 10.000173 
1.0248321e+3, 1.3523486e+2, -1911973.9, -1714796.0, 6981.932, -0.08348269, -0.06645528, -1714549.1, -99848.05, 0.0000828242, 9.997766, 10.000402 
1.02486044e+3, 1.4523558e+2, -1779634.9, -1645279.1, 21689.94, 0.053014077, -0.00756746, -1641864.4, -125167.79, 0.000012107546, 9.998194, 9.999992 
1.0248875e+3, 1.552368e+2, -1475476.0, -1449049.0, 25954.406, 0.01843976, 0.10148625, -1433138.1, -14452.868, 0.00000009714164, 9.999619, 9.999978 
1.0249138e+3, 1.652366e+2, -1386480.1, -1457696.0, 27306.62, -0.06817309, 0.13579264, -1377215.1, -56528.668, 0.0, 9.999996, 9.999068 
1.0249398e+3, 1.7523505e+2, -1363538.5, -1392282.9, 13053.483, -0.1754144, 0.0625033, -1358495.4, -135795.84, 0.0, 9.999466, 9.9991 
1.0249669e+3, 1.8523367e+2, -1223820.8, -1355486.5, 16907.12, -0.18143903, 0.056805495, -1221684.4, -96970.8, 0.0, 10.000097, 9.998376 
1.0249948e+3, 1.9523227e+2, -873923.4, -1129799.0, 20120.883, -0.10918806, 0.06870569, -872350.8, 154379.31, 0.0, 10.001809, 9.998422 
1.0250222e+3, 2.052307e+2, -739638.25, -966768.2, 66962.96, -0.109380566, 0.051245365, -721366.06, 207378.25, 0.0, 10.0018425, 9.99886 
1.0250495e+3, 2.1522886e+2, -867461.8, -978916.9, 79883.85, -0.16999751, -0.027139181, -825788.2, 4969.204, 0.0, 10.0002985, 9.998848 
1.0250763e+3, 2.2522752e+2, -762575.7, -967610.6, 63720.383, -0.1953765, 0.0013439066, -744386.4, -11614.271, 0.0, 10.000738, 9.998035 
1.0251029e+3, 2.3522653e+2, -343785.4, -711591.7, 87509.18, -0.18840937, 0.089670435, -324026.5, 310762.97, 0.0, 10.002933, 9.998063 
1.0251296e+3, 2.4522491e+2, -132278.94, -503865.28, 105514.58, -0.1755737, 0.101338215, -104407.82, 432397.78, 0.0, 10.003475, 9.998553 
1.0251564e+3, 2.5522256e+2, -187651.67, -484339.72, 91438.53, -0.15802105, 0.00045532276, -161734.53, 277087.78, 0.0, 10.0024395, 9.998514 
1.025182e+3, 2.6522046e+2, -154956.45, -622645.7, 17455.197, -0.1301454, 0.035996065, -154305.89, 186536.44, 0.00000001218603, 10.00286, 9.996697 
1.0252067e+3, 2.7521846e+2, 195107.6, -396107.28, 31473.7, -0.08714799, 0.15460683, 196778.39, 439644.84, 0.0000027111198, 10.004565, 9.996756 
1.0252323e+3, 2.852152e+2, 346100.6, -212626.38, 137745.52, -0.11590718, 0.13203877, 378213.9, 523112.16, 0.00003356216, 10.0046835, 9.997283 
1.0252587e+3, 2.9521072e+2, 240671.5, -217663.67, 91585.27, -0.20670928, -0.057150736, 258294.6, 305233.22, 0.00015613875, 10.0033, 9.997242 
1.0252838e+3, 3.0520847e+2, 234610.03, -208132.86, -37083.215, -0.2824961, 0.0075192647, 237694.55, 237694.55, 0.0004183757, 10.002983, 9.997127 
1.0253084e+3, 3.1520584e+2, 417043.72, 26029.799, -69472.21, -0.26733768, 0.015087081, 429020.16, 429020.16, 0.0008004131, 10.003572, 9.99845 
1.0348021e+3, 1.2520851e+2, -1967316.4, -1864848.1, 5135.476, -0.2588807, -0.032856554, -1864591.4, -151636.78, 0.00027553758, 9.998356, 9.999752 
1.0348302e+3, 1.3521026e+2, -1949089.4, -1780926.1, -11460.748, -0.064018324, 0.13191661, -1780148.6, -165204.19, 0.000106410545, 9.99773, 9.999963 
1.0348591e+3, 1.4520986e+2, -1769458.4, -1624739.1, 67572.31, 0.08953858, 0.097914174, -1598094.0, -81145.51, 0.000017580353, 9.998191, 10.000137 
1.0348849e+3, 1.5520774e+2, -1459249.0, -1421611.0, 83667.414, -0.20425797, -0.14810589, -1354672.3, 64291.184, 0.00000023822265, 9.99964, 10.000159 
1.034912e+3, 1.6520701e+2, -1395252.0, -1479696.3, -1191.9178, -0.25101894, -0.1668556, -1395235.1, -74265.25, 0.0, 10.000012, 9.998909 
1.0349408e+3, 1.752075e+2, -1379239.6, -1422545.6, -1140.9037, -0.039121415, -0.018942134, -1379209.6, -156239.66, 0.0, 9.999454, 9.9989 
1.03496924e+3, 1.8520732e+2, -1213045.0, -1326673.1, 74260.91, 0.034131218, 0.096961506, -1176357.6, -51382.348, 0.0, 10.000071, 9.998585 
1.0349974e+3, 1.9520643e+2, -863524.5, -1101337.1, 85256.195, -0.025731204, 0.13701382, -836118.4, 190868.16, 0.0, 10.001777, 9.998633 
1.0350243e+3, 2.0520532e+2, -708697.8, -888489.0, 1157.6853, -0.089007266, 0.12674265, -708690.4, 220306.39, 0.0, 10.001781, 9.999427 
1.0350499e+3, 2.1520384e+2, -833476.6, -898312.9, 30247.695, -0.15368915, 0.026735904, -821556.8, 9450.753, 0.0, 10.000251, 9.999425 
1.0350771e+3, 2.2520307e+2, -720746.3, -861875.1, 139425.84, -0.19755821, 0.042608723, -635045.25, 97969.84, 0.0, 10.000658, 9.9988 
1.0351054e+3, 2.3520282e+2, -303711.2, -610085.3, 172302.36, -0.22706406, 0.12842952, -226345.9, 408674.72, 0.0, 10.002849, 9.998802 
1.0351327e+3, 2.4520129e+2, -158929.11, -533246.7, 60637.664, -0.22433096, 0.12157828, -149351.17, 387683.28, 0.0, 10.0033655, 9.9984045 
1.03515856e+3, 2.5519842e+2, -200274.61, -504299.7, 60992.44, -0.18625058, -0.017611394, -188494.92, 250562.75, 0.0, 10.002407, 9.998396 
1.0351844e+3, 2.6519582e+2, -133229.77, -560952.6, 74564.47, -0.17763796, -0.04742011, -120603.73, 220477.83, 0.00000000560088, 10.002795, 9.9971485 
1.0352102e+3, 2.751934e+2, 200922.88, -349187.7, 98710.94, -0.1936462, -0.01914795, 218099.1, 461206.56, 0.0000022721786, 10.00442, 9.997146 
1.0352364e+3, 2.851907e+2, 261273.08, -361619.03, 81359.805, -0.17286387, 0.046540804, 271724.63, 416861.4, 0.00003115889, 10.004563, 9.996318 
1.03526294e+3, 2.951878e+2, 173034.72, -356055.22, 54263.215, -0.11570894, 0.11262688, 178542.6, 225712.16, 0.00015172908, 10.003286, 9.996301 
1.0352882e+3, 3.0518517e+2, 187774.05, -310734.5, -15149.676, -0.15103313, 0.22110501, 188234.03, 188234.03, 0.0004166064, 10.003013, 9.996403 
1.03531264e+3, 3.1518075e+2, 362150.88, -64990.5, -27356.748, -0.2132211, 0.12008587, 363895.84, 363895.84, 0.0008060773, 10.0034895, 9.997859 
1.0448003e+3, 1.2518114e+2, -2187714.0, -1918588.8, -135165.55, -0.18483381, 0.04444784, -1862424.3, -149196.2, 0.0003338259, 9.996611, 10.000235 
1.0448278e+3, 1.3518316e+2, -1825398.4, -1671256.9, -82258.445, -0.10706901, 0.19210216, -1635605.1, -20393.088, 0.00013404706, 9.998347, 10.000425 
1.0448572e+3, 1.451826e+2, -1684155.1, -1555464.8, 44782.844, 0.060116854, 0.10614533, -1541414.8, -24199.44, 0.000024406929, 9.998662, 10.000384 
1.04488365e+3, 1.5518028e+2, -1717764.5, -1516689.5, 48603.49, -0.18798481, -0.17969985, -1505557.4, -86326.71, 0.0000004785213, 9.997747, 10.000417 
1.04491174e+3, 1.6517988e+2, -1622745.0, -1568079.1, 8602.299, -0.19721773, -0.18889022, -1566757.5, -245522.45, 0.0, 9.998358, 9.9991 
1.0449414e+3, 1.751811e+2, -1217444.1, -1318355.9, 27607.566, 0.033878483, 0.01270351, -1210385.0, 12845.543, 0.0, 10.000456, 9.999126 
1.0449701e+3, 1.851812e+2, -1098722.5, -1210196.1, 116171.08, 0.09465635, 0.11482316, -1025609.4, 99623.47, 0.0, 10.00059, 9.999133 
1.04499795e+3, 1.9518015e+2, -1248287.4, -1228463.0, 142741.72, -0.0035148656, 0.08520725, -1095289.8, -68047.26, 0.0, 9.9988785, 9.999162 
1.045025e+3, 2.0517933e+2, -1079418.3, -1067838.0, 73629.43, -0.0655696, 0.080500126, -999771.4, -70521.63, 0.0, 9.999248, 9.999413 
1.0450514e+3, 2.1517858e+2, -645976.0, -806344.7, 46185.742, -0.09165018, 0.05298813, -633625.75, 197630.92, 0.0, 10.001546, 9.999426 
1.0450787e+3, 2.2517803e+2, -520966.5, -738074.56, 123055.27, -0.15574028, 0.08039011, -465427.3, 267835.2, 0.0, 10.001909, 9.999048 
1.0451068e+3, 2.351776e+2, -637660.1, -745210.2, 104226.76, -0.2590189, 0.12321846, -574153.56, 61114.637, 0.0, 10.000441, 9.999034 
1.0451343e+3, 2.4517623e+2, -561179.75, -737913.0, -9125.468, -0.25014925, 0.12351655, -560709.8, -23428.633, 0.0, 10.000634, 9.998321 
1.0451615e+3, 2.5517383e+2, -215527.34, -517497.06, -14849.925, -0.12828468, 0.041655257, -214798.83, 224503.16, 0.0, 10.002329, 9.998342 
1.04518786e+3, 2.6517138e+2, -106837.625, -507636.4, 7461.5786, -0.11711556, 0.010322232, -106698.766, 234625.81, 0.0000000009945924, 10.002805, 9.997508 
1.0452133e+3, 2.7516866e+2, -117676.38, -463839.56, 11818.884, -0.20697172, -0.023247493, -117273.32, 126077.78, 0.0000020282196, 10.00206, 9.997493 
1.04523964e+3, 2.8516614e+2, -49052.926, -513653.7, 31088.717, -0.18843813, 0.04111135, -46981.86, 98396.77, 0.000028619394, 10.002429, 9.996303 
1.045267e+3, 2.951638e+2, 251780.95, -314876.72, 55531.473, -0.06212208, 0.16259131, 257171.66, 304578.7, 0.00014518836, 10.003814, 9.996326 
1.04529284e+3, 3.0516094e+2, 459307.1, -193093.53, 71739.94, -0.07866253, 0.25058493, 467102.7, 467102.7, 0.00040815727, 10.004935, 9.996288 
1.04531765e+3, 3.1515563e+2, 678694.44, 85793.67, 78362.59, -0.1708476, 0.07565638, 688876.6, 688876.6, 0.0007976403, 10.005659, 9.997863 
1.0548001e+3, 1.2515275e+2, -2081771.3, -1687265.4, -112316.19, 0.10401065, 0.22908285, -1657530.1, 55986.973, 0.00039971265, 9.996578, 10.001825 
1.0548246e+3, 1.3515349e+2, -1722887.9, -1458097.5, -12447.62, -0.27204052, 0.10123064, -1457513.6, 157990.34, 0.00016604259, 9.998353, 10.001883 
1.0548544e+3, 1.451538e+2, -1657049.5, -1511157.5, 956.2521, -0.104469284, 0.016235013, -1511151.3, 6345.1924, 0.000032768716, 9.99871, 10.000667 
1.0548837e+3, 1.5515466e+2, -1701139.9, -1482604.5, 18907.979, 0.024355896, 0.020991549, -1480980.6, -61495.49, 0.0000008393984, 9.997742, 10.000657 
1.0549126e+3, 1.6515544e+2, -1584137.6, -1480572.0, 82012.484, 0.04343475, 0.085835114, -1435362.5, -113882.94, 0.0, 9.998329, 9.999711 
1.0549416e+3, 1.7515597e+2, -1170800.8, -1227535.0, 109970.07, -0.0086542675, 0.15570785, -1085598.0, 137882.56, 0.0, 10.000479, 9.999739 
1.05496936e+3, 1.8515535e+2, -1036765.3, -1079101.0, 44262.418, -0.05379723, 0.11033179, -1008869.56, 116616.48, 0.0, 10.000582, 10.000036 
1.05499595e+3, 1.9515353e+2, -1192648.1, -1104991.0, 85733.27, -0.09924457, -0.08566321, -1052532.9, -25036.145, 0.0, 9.998843, 10.000026 
1.05502404e+3, 2.0515287e+2, -1129889.9, -1161629.5, 152950.95, -0.09191068, -0.08746006, -991987.6, -62485.34, 0.0, 9.999196, 9.9987955 
1.0550537e+3, 2.1515316e+2, -697936.94, -900809.25, 134647.13, -0.03138704, 0.05062188, -630793.3, 200710.86, 0.0, 10.001483, 9.998811 
1.05508104e+3, 2.2515255e+2, -553735.7, -786063.75, 61768.203, -0.11495262, 0.11858909, -538334.56, 195178.9, 0.0, 10.001821, 9.998762 
1.0551066e+3, 2.35151e+2, -661796.94, -786075.56, 56857.85, -0.33473197, 0.073389314, -639709.75, -4178.388, 0.0, 10.000396, 9.9987755 
1.0551345e+3, 2.4514979e+2, -569374.56, -743673.6, 48378.75, -0.3053691, 0.10584369, -556846.9, -19302.309, 0.0, 10.000585, 9.998305 
1.0551648e+3, 2.551489e+2, -224556.9, -525988.44, 53636.164, -0.040335745, 0.17168829, -215297.42, 224257.03, 0.0, 10.002278, 9.99831 
1.05519176e+3, 2.6514706e+2, -99046.47, -473048.97, -22801.596, -0.0042509763, 0.19423604, -97661.46, 243910.13, 0.000000000012280949, 10.002731, 9.997778 
1.0552156e+3, 2.7514428e+2, -100941.59, -423013.22, -4623.3677, -0.18508215, 0.12586595, -100875.24, 142721.97, 0.0000016155456, 10.002033, 9.9977865 
1.055242e+3, 2.8514156e+2, 9559.401, -390964.88, 77790.91, -0.21565466, 0.11197732, 24137.553, 169760.83, 0.00002530106, 10.002425, 9.997148 
1.05527066e+3, 2.951388e+2, 299839.56, -202684.16, 114257.49, -0.09542109, 0.106308825, 324598.16, 372248.9, 0.00013660945, 10.003757, 9.997128 
1.0552973e+3, 3.051357e+2, 476338.47, -132644.06, 95438.78, -0.11780759, 0.1125011, 490945.13, 490945.13, 0.00039395937, 10.004828, 9.996755 
1.0553227e+3, 3.1513047e+2, 692325.2, 152738.9, 119269.59, -0.24241453, -0.10268135, 717512.7, 717512.7, 0.00077768165, 10.005492, 9.998407 
1.0647983e+3, 1.2512411e+2, -1883736.1, -1582122.8, 54867.08, 0.22306716, 0.19544472, -1572451.9, 141344.05, 0.00047318285, 9.997877, 10.00193 
1.0648225e+3, 1.351244e+2, -1809284.9, -1492992.8, 52400.855, -0.27198088, 0.018657457, -1484537.4, 131249.61, 0.00020250746, 9.997726, 10.001944 
1.0648524e+3, 1.451252e+2, -1776835.4, -1538378.3, -17102.287, -0.11797488, -0.036275547, -1537157.9, -19382.063, 0.000042863663, 9.997757, 10.000938 
1.0648818e+3, 1.5512756e+2, -1633416.6, -1416077.1, -11819.998, 0.055608183, 0.08935933, -1415436.1, 4316.117, 0.0000013547858, 9.998066, 10.000954 
1.06491104e+3, 1.6512875e+2, -1598693.6, -1454774.9, 103173.37, 0.08024449, 0.16941431, -1400945.3, -79202.49, 0.0, 9.998089, 10.000006 
1.0649408e+3, 1.7512883e+2, -1538858.5, -1370443.4, 93308.96, 0.0086480165, 0.16573249, -1328963.0, -105215.64, 0.0, 9.997813, 10.000043 
1.064969e+3, 1.8512835e+2, -1274779.5, -1162175.6, -23940.875, -0.04784407, 0.10493621, -1157296.9, -31545.502, 0.0, 9.998807, 10.000324 
1.06499575e+3, 1.951272e+2, -853941.25, -909740.25, -39896.05, -0.109059885, -0.052438255, -833157.3, 194599.23, 0.0, 10.001029, 10.000315 
1.06502414e+3, 2.0512679e+2, -813987.5, -1000018.06, 48272.46, -0.10583385, -0.04534439, -802207.4, 127552.445, 0.0, 10.0013275, 9.9988785 
1.0650542e+3, 2.15127e+2, -940176.2, -1009373.0, 68556.17, -0.034183156, 0.07906168, -897982.7, -66220.19, 0.0, 9.999786, 9.998883 
1.065082e+3, 2.2512634e+2, -859728.7, -926521.9, 28733.713, -0.08984576, 0.13440906, -849068.94, -115296.805, 0.0, 9.999686, 9.998829 
1.0651078e+3, 2.3512474e+2, -580389.06, -738005.06, 40003.395, -0.26536644, 0.08121063, -570817.4, 64972.35, 0.0, 10.000923, 9.998853 
1.0651361e+3, 2.4512374e+2, -410995.7, -644112.3, 96693.8, -0.24835321, 0.11884427, -376109.2, 161691.84, 0.0, 10.001577, 9.9985075 
1.0651665e+3, 2.5512317e+2, -299103.63, -539723.5, 102223.1, -0.05441878, 0.19960375, -261540.05, 178267.89, 0.0, 10.001674, 9.998506 
1.0651941e+3, 2.6512152e+2, -158670.55, -500466.7, 11269.775, -0.02487636, 0.22564605, -158299.36, 183524.84, 0.0, 10.002311, 9.997794 
1.06521875e+3, 2.7511877e+2, 99242.6, -320500.88, -1927.6011, -0.14138389, 0.15647642, 99251.45, 343101.63, 0.00000091217555, 10.003388, 9.997836 
1.0652455e+3, 2.8511608e+2, 247345.0, -243578.97, 80352.37, -0.17864174, 0.12989058, 260162.11, 406037.1, 0.00002073869, 10.003924, 9.99744 
1.06527396e+3, 2.9511335e+2, 346671.56, -145987.2, 66270.07, -0.1354264, 0.099349774, 355430.2, 403330.25, 0.000124748, 10.003933, 9.997432 
1.0653014e+3, 3.0511028e+2, 296922.47, -240209.81, 1047.5929, -0.13748771, 0.10264026, 296924.5, 296924.5, 0.00037313413, 10.003666, 9.99658 
1.0653279e+3, 3.1510508e+2, 332450.72, -27774.021, -42678.805, -0.14759044, -0.09534729, 337438.2, 337438.2, 0.0007478321, 10.003037, 9.9983425 
1.0747945e+3, 1.250952e+2, -1973315.1, -1774722.8, -134.2409, 0.025431182, -0.075807504, -1774722.6, -60659.145, 0.00055371417, 9.997925, 10.000574 
1.0748215e+3, 1.3509604e+2, -1916230.8, -1707634.8, 48168.543, -0.15472208, -0.05296623, -1697049.0, -80989.586, 0.00024334127, 9.997704, 10.000477 
1.0748512e+3, 1.450969e+2, -1753443.6, -1493642.1, -13777.802, -0.026551785, -0.04507379, -1492913.5, 25138.977, 0.00005483326, 9.997766, 10.0012455 
1.0748778e+3, 1.5509886e+2, -1606681.1, -1368950.9, 5111.2056, -0.15801397, 0.012562853, -1368841.0, 51191.105, 0.000002073113, 9.998096, 10.001266 
1.07490696e+3, 1.6509987e+2, -1601678.5, -1463043.1, 85490.84, -0.14765671, 0.05865088, -1422298.9, -100274.62, 0.0000000000166348, 9.998099, 9.999943 
1.074939e+3, 1.7509972e+2, -1542176.9, -1380919.1, 88536.35, 0.039106704, 0.03752157, -1341799.5, -117769.1, 0.0, 9.997823, 9.999967 
1.074969e+3, 1.851002e+2, -1302043.0, -1210987.4, 52190.76, 0.06342831, 0.0943051, -1187257.3, -61228.33, 0.0, 9.998778, 10.000002 
1.07499704e+3, 1.9510122e+2, -880097.44, -955130.4, 46284.55, -0.08186145, 0.18337506, -858034.2, 169986.83, 0.0, 10.000993, 10.000019 
1.07502505e+3, 2.0510122e+2, -770936.4, -900508.5, -17477.7, -0.15176743, 0.21136944, -768620.25, 161401.2, 0.0, 10.001278, 9.999588 
1.07505284e+3, 2.1510015e+2, -896946.94, -907688.44, 17059.79, -0.14675936, 0.13456248, -884432.44, -52401.15, 0.0, 9.99973, 9.99961 
1.07508145e+3, 2.2509943e+2, -839976.8, -870056.56, 69114.336, -0.12983225, 0.12621279, -784284.9, -50246.844, 0.0, 9.99962, 9.999249 
1.0751105e+3, 2.3509896e+2, -561477.3, -682133.25, 91299.32, -0.10115583, 0.14221561, -512374.8, 123668.01, 0.0, 10.000852, 9.999271 
1.0751389e+3, 2.4509811e+2, -398449.06, -600588.1, 95570.586, -0.12790577, 0.1581312, -360418.7, 177631.89, 0.0, 10.001501, 9.998845 
1.07516676e+3, 2.5509673e+2, -278490.6, -490475.94, 112934.98, -0.20907599, 0.12454252, -229600.22, 210462.7, 0.0, 10.00164, 9.998862 
1.07519455e+3, 2.650948e+2, -181741.78, -535305.56, 44640.383, -0.20988868, 0.112579, -176192.66, 165889.7, 0.000000000031670343, 10.0022545, 9.997583 
1.0752223e+3, 2.7509215e+2, 72486.34, -360338.5, 43463.668, -0.12979293, 0.07909104, 76807.76, 320917.38, 0.00000057346807, 10.003316, 9.997601 
1.0752499e+3, 2.8508982e+2, 226043.17, -272493.4, 72938.375, -0.13837178, 0.10770636, 236495.28, 382628.16, 0.00001665899, 10.003861, 9.997271 
1.0752771e+3, 2.9508758e+2, 331229.38, -172160.64, 74783.04, -0.23247346, 0.14321828, 342104.13, 390257.8, 0.00011166727, 10.003903, 9.997271 
1.0753046e+3, 3.0508474e+2, 245658.33, -345805.94, -25466.6, -0.19083567, 0.21151772, 246752.81, 246752.81, 0.00034834223, 10.003669, 9.9958515 
1.07533254e+3, 3.150795e+2, 272752.03, -145520.98, -47194.566, -0.011034209, 0.0867665, 278010.97, 278010.97, 0.0007120697, 10.003012, 9.99755 
1.0847913e+3, 1.2506635e+2, -2315563.0, -1940151.1, -131999.63, 0.019521128, -0.15826157, -1898385.0, -184043.47, 0.00064071716, 9.995579, 10.000579 
1.0848194e+3, 1.350677e+2, -2001354.9, -1754631.9, 39173.65, -0.090605654, -0.076685786, -1748561.4, -132227.42, 0.00028839763, 9.997144, 10.00043 
1.0848494e+3, 1.4506875e+2, -1746173.0, -1525748.1, 7758.4717, 0.008399603, -0.029142965, -1525475.4, -7147.9565, 0.00006873226, 9.997988, 10.000912 
1.0848758e+3, 1.5507045e+2, -1621995.8, -1414249.6, -43269.62, -0.15645607, 0.036169603, -1405597.6, 14715.242, 0.0000030594845, 9.998163, 10.000919 
1.0849051e+3, 1.6507109e+2, -1524254.5, -1402221.0, 27709.309, -0.15836422, 0.053138576, -1396224.0, -73915.31, 0.000000000186287, 9.998528, 10.000153 
1.0849372e+3, 1.7507055e+2, -1339241.4, -1261030.8, 39068.523, 0.02569335, -0.025402976, -1244858.9, -20543.072, 0.0, 9.999122, 10.000165 
1.0849679e+3, 1.850715e+2, -1266373.8, -1191541.6, 60251.477, 0.066098236, 0.066548094, -1158033.8, -31723.063, 0.0, 9.999011, 10.000024 
1.08499706e+3, 1.950738e+2, -1288502.6, -1150787.4, 67012.18, -0.03948353, 0.28341442, -1123561.6, -95266.9, 0.0, 9.998185, 10.000029 
1.0850254e+3, 2.0507424e+2, -1098622.6, -1014838.5, -2041.3469, -0.11199779, 0.3337297, -1014788.8, -84496.72, 0.0, 9.998844, 9.999969 
1.0850531e+3, 2.1507269e+2, -693374.0, -768961.2, -7484.108, -0.15719001, 0.17207639, -692640.1, 139664.02, 0.0, 10.000955, 9.999968 
1.085082e+3, 2.2507192e+2, -543468.94, -697050.44, 31838.125, -0.11815435, 0.12651768, -537130.4, 197179.1, 0.0, 10.001532, 9.9995165 
1.0851122e+3, 2.3507176e+2, -575231.06, -660122.1, 27646.416, 0.0032995609, 0.15128762, -567021.4, 69287.81, 0.0, 10.000633, 9.999529 
1.0851408e+3, 2.4507087e+2, -504222.13, -641296.5, 44412.24, -0.04578524, 0.14558578, -491090.53, 47225.754, 0.0, 10.000732, 9.998936 
1.085168e+3, 2.5506917e+2, -254104.56, -467971.5, 32342.252, -0.25830474, 0.07063784, -249320.58, 191010.89, 0.0, 10.001772, 9.998951 
1.08519614e+3, 2.6506734e+2, -154020.33, -533317.44, -25576.178, -0.28312463, 0.07534381, -152303.48, 190046.25, 0.000000020287489, 10.002491, 9.997482 
1.08522534e+3, 2.7506533e+2, -2255.683, -407290.16, -32324.389, -0.1256713, 0.112240635, 307.7893, 244679.98, 0.0000009638229, 10.002851, 9.997499 
1.0852533e+3, 2.8506297e+2, 139455.5, -352291.72, -837.77795, -0.14703943, 0.15994333, 139456.92, 285854.38, 0.000015514439, 10.0034275, 9.99693 
1.08528e+3, 2.9506016e+2, 344757.25, -196149.56, -28256.68, -0.3304998, 0.17023219, 346229.38, 394655.56, 0.00010314159, 10.004143, 9.996982 
1.0853082e+3, 3.0505744e+2, 449062.63, -218315.02, -97650.34, -0.24932235, 0.2526505, 463057.3, 463057.3, 0.00032925647, 10.00495, 9.99611 
1.0853378e+3, 3.1505284e+2, 687416.0, 82702.49, -72301.57, 0.087992065, 0.16733564, 695940.44, 695940.44, 0.00068507076, 10.005763, 9.997784 
1.0947881e+3, 1.250377e+2, -2213730.0, -1717753.3, -116042.77, 0.13039559, -0.0392991, -1691945.8, 22684.207, 0.000734217, 9.995535, 10.002122 
1.0948162e+3, 1.3503969e+2, -1899473.5, -1540338.1, 103410.96, -0.14326607, -0.044293758, -1512690.0, 103918.13, 0.00033773432, 9.997131, 10.001907 
1.0948466e+3, 1.4504105e+2, -1821683.4, -1687550.9, 9727.442, -0.082331724, 0.015953515, -1686849.1, -168251.14, 0.0000845864, 9.998009, 9.999791 
1.09487586e+3, 1.5504237e+2, -1700606.3, -1578318.3, -30284.836, 0.019375857, 0.15794569, -1571229.1, -150635.22, 0.0000043925156, 9.998169, 9.99979 
1.09490536e+3, 1.650425e+2, -1484310.6, -1328674.8, 43162.547, 0.009305626, 0.15818848, -1317506.0, 5089.225, 0.0000000006358386, 9.998561, 10.000645 
1.09493546e+3, 1.7504136e+2, -1297018.6, -1186433.5, 67866.09, -0.0777233, -0.032565054, -1154187.0, 70416.31, 0.0, 9.999167, 10.000659 
1.09496534e+3, 1.8504229e+2, -1243980.1, -1142370.8, 22828.537, -0.09070611, 0.015425294, -1137477.5, -10881.079, 0.0, 9.999004, 10.000361 
1.0949954e+3, 1.9504508e+2, -1271173.5, -1105190.5, 42994.25, -0.027840573, 0.24973726, -1094715.0, -66138.59, 0.0, 9.998143, 10.000361 
1.0950252e+3, 2.0504591e+2, -1105267.5, -1018626.1, 70267.77, -0.037250623, 0.32155302, -979398.4, -48827.586, 0.0, 9.998797, 9.999969 
1.0950546e+3, 2.1504472e+2, -703007.7, -771616.56, 76408.38, -0.114746384, 0.19400826, -653556.3, 179023.8, 0.0, 10.000877, 9.9999895 
1.0950837e+3, 2.250439e+2, -551516.7, -695707.6, -8133.9355, -0.103826955, 0.13950902, -551059.3, 183525.98, 0.0, 10.001452, 9.999563 
1.0951128e+3, 2.3504323e+2, -578047.1, -657601.8, 1004.7625, -0.0025643585, 0.10613828, -578034.44, 58553.9, 0.0, 10.000592, 9.999568 
1.0951415e+3, 2.4504212e+2, -519386.47, -664425.3, 76859.336, -0.056650966, 0.084338255, -486234.6, 52362.746, 0.0, 10.000696, 9.998795 
1.0951698e+3, 2.5504053e+2, -269721.53, -490406.2, 78107.33, -0.25705662, 0.03361853, -244874.42, 195738.25, 0.0, 10.001726, 9.99882 
1.0951986e+3, 2.650393e+2, -166238.23, -542049.3, -15943.089, -0.29615906, 0.106192425, -165563.1, 177062.39, 0.00000010014453, 10.002421, 9.997456 
1.09522775e+3, 2.7503827e+2, -4825.673, -410666.97, -9128.451, -0.18303233, 0.2432495, -4620.4536, 240017.36, 0.0000018004142, 10.002838, 9.997484 
1.09525576e+3, 2.8503546e+2, 102792.71, -426784.1, 19549.656, -0.25032648, 0.27435163, 103513.414, 250182.19, 0.000016749296, 10.003417, 9.996425 
1.0952827e+3, 2.9503095e+2, 297696.72, -279294.78, 8194.753, -0.48833868, 0.16381292, 297813.1, 346531.0, 0.00009991722, 10.004071, 9.996449 
1.0953122e+3, 3.0502835e+2, 512323.72, -58175.246, -70327.914, -0.36847797, 0.22878006, 520865.47, 520865.47, 0.00031874943, 10.004837, 9.997259 
1.0953435e+3, 3.150252e+2, 745501.06, 226570.44, -29225.28, 0.055780426, 0.17365026, 747141.75, 747141.75, 0.00067001267, 10.005663, 9.998825 
1.1047849e+3, 1.2500888e+2, -2054809.4, -1596021.1, -144717.78, 0.22286807, 0.12970664, -1554186.8, 160733.73, 0.00083503575, 9.9964285, 10.0025215 
1.1048128e+3, 1.3501017e+2, -2045144.9, -1565547.8, -11765.449, -0.12323653, 0.011166607, -1565259.3, 51642.703, 0.0003918232, 9.995919, 10.002324 
1.1048432e+3, 1.4501134e+2, -2046417.5, -1780455.6, -73797.086, -0.13349722, 0.026334098, -1761351.3, -242459.38, 0.000102570426, 9.996403, 9.999927 
1.1048746e+3, 1.5501267e+2, -1722126.1, -1570872.1, -29842.92, 0.09360613, 0.15414973, -1565197.0, -144309.16, 0.0000061708192, 9.997948, 9.999944 
1.1049046e+3, 1.6501343e+2, -1487456.6, -1266423.0, 73865.02, 0.10334033, 0.17924415, -1244011.1, 78871.695, 0.0000000015512864, 9.998272, 10.001208 
1.1049337e+3, 1.7501357e+2, -1503926.8, -1218718.4, 89837.68, -0.06699245, 0.06010512, -1192779.5, 32098.258, 0.0, 9.997471, 10.001247 
1.10496365e+3, 1.8501455e+2, -1384513.6, -1194705.8, 73169.79, -0.108672746, 0.07639403, -1169774.0, -42904.773, 0.0, 9.997966, 10.000508 
1.1049943e+3, 1.9501616e+2, -1023784.06, -966927.06, 68912.8, -0.033517018, 0.17508438, -920809.25, 108049.91, 0.0, 9.999761, 10.00053 
1.1050247e+3, 2.0501682e+2, -886551.75, -917103.0, 111748.75, -0.034647718, 0.22518304, -789039.4, 141815.22, 0.0, 10.000319, 9.999933 
1.10505484e+3, 2.1501648e+2, -876765.0, -858748.56, 100772.99, -0.1034593, 0.18804839, -766582.0, 66274.414, 0.0, 9.999702, 9.999956 
1.1050845e+3, 2.2501573e+2, -735541.8, -817716.0, 4040.7476, -0.10431852, 0.1592953, -735343.6, -482.19986, 0.0, 10.000339, 9.999255 
1.1051138e+3, 2.3501441e+2, -366434.9, -588771.75, -26072.54, -0.038063377, 0.090899095, -363418.4, 273453.06, 0.0, 10.002198, 9.99926 
1.10514306e+3, 2.4501322e+2, -230061.23, -545712.3, 34159.242, -0.06344534, 0.08786591, -226406.89, 312475.06, 0.0, 10.002774, 9.998609 
1.1051723e+3, 2.5501215e+2, -230397.38, -490835.22, 16629.475, -0.17428307, 0.10818247, -229339.84, 211553.56, 0.0, 10.002083, 9.998642 
1.1052017e+3, 2.6501077e+2, -146096.63, -509037.53, -30766.771, -0.22950563, 0.16040601, -143506.98, 199399.9, 0.00000018749917, 10.002462, 9.997662 
1.1052306e+3, 2.750089e+2, 156950.92, -310127.66, -22362.438, -0.23071063, 0.19489397, 158019.13, 402943.2, 0.0000025324416, 10.003862, 9.997682 
1.1052593e+3, 2.850058e+2, 212855.06, -380031.34, 5732.2524, -0.27675855, 0.19253325, 212910.47, 359866.97, 0.000018771152, 10.00421, 9.99636 
1.10528775e+3, 2.9500157e+2, 205206.58, -331221.1, 9971.454, -0.3549674, 0.11760549, 205391.88, 254395.69, 0.0001004821, 10.003473, 9.996377 
1.10531725e+3, 3.0499926e+2, 375814.53, -104171.28, -27009.678, -0.2778488, 0.20687501, 377329.63, 377329.63, 0.00031553788, 10.003788, 9.99746 
1.1053473e+3, 3.1499627e+2, 653636.06, 203207.8, -76857.08, -0.08682958, 0.14348212, 666389.2, 666389.2, 0.00066362176, 10.004942, 9.999006 
1.11478135e+3, 1.24979906e+2, -2113820.8, -1718856.6, -184693.94, 0.19499037, 0.32908276, -1645948.3, 69264.734, 0.000944546, 9.996447, 10.001663 
1.1148093e+3, 1.349792e+2, -2108125.3, -1686253.1, -27975.652, -0.06691786, 0.09842516, -1684406.0, -67190.95, 0.00045159098, 9.995888, 10.001508 
1.1148391e+3, 1.449797e+2, -1935671.1, -1556962.4, -23708.594, -0.19415867, 0.009217499, -1555483.9, -36275.14, 0.00012308804, 9.99642, 10.001455 
1.1148718e+3, 1.5498143e+2, -1613127.5, -1349088.3, 34063.22, 0.0033833075, 0.024029423, -1344764.6, 76429.11, 0.000008505592, 9.997958, 10.001465 
1.1149027e+3, 1.6498393e+2, -1441561.1, -1177120.9, 35811.137, 0.06050963, 0.115880474, -1172357.0, 150813.34, 0.0000000033697685, 9.998294, 10.001814 
1.11493215e+3, 1.7498717e+2, -1460873.3, -1132642.0, 64504.395, 0.01569651, 0.24936031, -1120420.6, 104718.445, 0.0, 9.9974785, 10.00184 
1.1149624e+3, 1.8498828e+2, -1385014.0, -1194645.3, 133556.7, -0.039075177, 0.24941306, -1125825.3, 1303.8494, 0.0, 9.997962, 10.000507 
1.1149933e+3, 1.9498707e+2, -1030200.06, -971518.7, 140060.52, -0.109764054, 0.06435271, -857758.6, 171383.5, 0.0, 9.999722, 10.000517 
1.1150238e+3, 2.04987e+2, -898900.44, -933548.75, 79074.97, -0.15567014, 0.046298575, -835274.1, 95868.91, 0.0, 10.0002775, 9.999839 
1.1150538e+3, 2.1498795e+2, -893746.56, -880164.2, 83520.4, -0.17309147, 0.14604956, -803159.3, 29973.889, 0.0, 9.9996395, 9.999841 
1.1150842e+3, 2.2498745e+2, -790484.9, -917691.75, 68353.73, -0.17304459, 0.1808164, -760720.06, -25582.26, 0.0, 10.000279, 9.998596 
1.11511484e+3, 2.3498538e+2, -422735.47, -689305.56, 50585.766, -0.14636454, 0.10482934, -413458.88, 223699.06, 0.0, 10.002125, 9.998607 
1.1151454e+3, 2.4498428e+2, -259953.3, -590230.3, 4680.155, -0.11379009, 0.15351494, -259886.98, 279282.66, 0.0, 10.002698, 9.99834 
1.1151756e+3, 2.54984e+2, -254209.48, -535842.9, 109.126755, -0.0715436, 0.27949205, -254209.44, 186964.72, 0.0, 10.00206, 9.998346 
1.115205e+3, 2.649817e+2, -121690.13, -452271.66, 17253.555, -0.14413416, 0.23785214, -120792.086, 222401.73, 0.00000020790911, 10.002433, 9.998067 
1.1152335e+3, 2.749773e+2, 170925.11, -257252.47, 40834.188, -0.32885656, -0.02089417, 174784.56, 420014.13, 0.0000030041272, 10.003756, 9.998097 
1.1152634e+3, 2.8497413e+2, 219025.06, -343878.13, -23740.705, -0.28704128, -0.06961846, 220024.56, 367283.78, 0.000021469468, 10.004108, 9.996658 
1.1152947e+3, 2.94972e+2, 232057.25, -285286.38, -5007.6226, -0.018531157, 0.03897162, 232105.72, 281389.75, 0.000104494604, 10.003513, 9.996675 
1.1153234e+3, 3.049702e+2, 333985.78, -195414.13, 14299.975, -0.044738058, 0.19511491, 334371.75, 334371.75, 0.00031800722, 10.003812, 9.9968195 
1.11534886e+3, 3.1496602e+2, 574186.5, 81726.04, -16214.097, -0.43962267, 0.074618846, 574719.8, 574719.8, 0.00066336675, 10.004756, 9.99826 
1.12477675e+3, 1.2494894e+2, -2283207.8, -1800541.8, -124093.02, 0.15397237, 0.30367917, -1770506.5, -54985.973, 0.0010643419, 9.99527, 10.00168 
1.12480685e+3, 1.3494916e+2, -1964017.8, -1603699.0, 79443.52, 0.06649051, 0.15362948, -1586960.8, 30553.537, 0.00051804923, 9.9968195, 10.001623 
1.1248362e+3, 1.4495006e+2, -1786206.0, -1414374.6, 101312.055, -0.14780566, 0.06653653, -1388562.3, 130940.3, 0.00014661087, 9.997146, 10.002083 
1.1248684e+3, 1.5495157e+2, -1807605.5, -1372522.4, 72550.6, -0.03755132, -0.0048815706, -1360743.4, 60742.94, 0.00001150662, 9.996324, 10.002092 
1.1248997e+3, 1.649543e+2, -1705981.8, -1305033.5, 23642.732, 0.02318072, 0.08092794, -1303644.3, 19816.08, 0.0000000061074554, 9.996483, 10.001808 
1.12493016e+3, 1.7495824e+2, -1423900.0, -1113211.4, -4789.1387, 0.064850174, 0.28334674, -1113137.5, 112287.164, 0.0, 9.997727, 10.001851 
1.1249611e+3, 1.8495962e+2, -1311028.3, -1149756.0, 85921.016, 0.022763217, 0.30749083, -1112559.3, 14853.171, 0.0, 9.998431, 10.000591 
1.1249923e+3, 1.9495831e+2, -1180906.1, -1035609.25, 86304.555, -0.114051834, 0.10523269, -995446.9, 33978.14, 0.0, 9.998645, 10.000601 
1.1250233e+3, 2.0495816e+2, -990754.1, -966300.25, 32579.398, -0.18817139, 0.07182561, -943728.94, -12303.114, 0.0, 9.999601, 9.999938 
1.12505406e+3, 2.1495906e+2, -637369.1, -741699.56, 35746.668, -0.19753744, 0.15598217, -626296.44, 207119.81, 0.0, 10.001342, 9.999967 
1.12508535e+3, 2.2495861e+2, -525784.75, -774360.8, 76335.6, -0.17197986, 0.1824991, -504214.5, 231205.1, 0.0, 10.002021, 9.998749 
1.1251172e+3, 2.3495676e+2, -476217.5, -692925.44, 106048.234, -0.10271579, 0.111538716, -432957.44, 204479.05, 0.0, 10.001665, 9.998802 
1.12514794e+3, 2.4495545e+2, -387754.53, -682119.2, 79926.95, -0.08063123, 0.14155449, -367452.66, 171997.16, 0.0, 10.001953, 9.998065 
1.1251776e+3, 2.549545e+2, -153504.0, -519026.2, 64522.96, -0.11036353, 0.22961631, -142448.61, 299012.5, 0.0, 10.002892, 9.998061 
1.12520754e+3, 2.649521e+2, -30521.398, -389439.7, 89467.84, -0.15540552, 0.18041484, -9456.031, 334025.97, 0.00000016860811, 10.002982, 9.998232 
1.12523764e+3, 2.7494803e+2, -38731.51, -337283.34, 79609.08, -0.20768797, -0.062377624, -18830.29, 226683.56, 0.0000038179373, 10.002227, 9.998278 
1.1252678e+3, 2.8494495e+2, 70473.77, -401601.94, 39089.51, -0.19142033, -0.11797166, 73688.63, 221229.69, 0.000026281929, 10.003022, 9.996788 
1.1252981e+3, 2.949427e+2, 507163.0, -137604.45, 29398.578, -0.10938779, -0.03241715, 508500.7, 558065.2, 0.000113230664, 10.00534, 9.99681 
1.1253269e+3, 3.049408e+2, 501265.63, -187732.61, -9024.148, -0.14260457, 0.1368008, 501383.78, 501383.78, 0.00032691128, 10.005287, 9.996158 
1.1253533e+3, 3.1493637e+2, 215483.78, -187452.63, -64490.344, -0.35927305, 0.06335761, 225553.86, 225553.86, 0.000669369, 10.002691, 9.997414 
1.1347707e+3, 1.24915764e+2, -2206629.3, -1631322.4, -53279.246, 0.013863096, 0.021059917, -1626429.9, 89415.13, 0.0011953667, 9.995248, 10.002842 
1.1348053e+3, 1.349202e+2, -1881354.1, -1427355.4, 144555.34, 0.21676216, 0.17195372, -1385235.9, 232561.47, 0.00059164723, 9.996809, 10.002834 
1.13483444e+3, 1.4492272e+2, -1805282.5, -1461909.0, 65019.844, -0.051071506, 0.20130944, -1450009.4, 69760.69, 0.00017336896, 9.997174, 10.001747 
1.13486454e+3, 1.5492328e+2, -1831440.4, -1425576.1, 48312.24, -0.07584693, 0.07361175, -1419904.5, 1859.2616, 0.000015247707, 9.996333, 10.001729 
1.1348952e+3, 1.649247e+2, -1750499.4, -1397312.6, 64037.6, -0.068812355, 0.07833187, -1386060.3, -62309.094, 0.000000009421829, 9.996483, 10.001173 
1.1349275e+3, 1.7492683e+2, -1467245.6, -1206587.4, 47727.805, 0.022336217, 0.16176695, -1198123.1, 27610.932, 0.0, 9.99774, 10.001204 
1.1349596e+3, 1.8492861e+2, -1295420.8, -1123279.0, 85670.16, 0.02039186, 0.24680986, -1087910.3, 39808.86, 0.0, 9.998455, 10.000761 
1.1349912e+3, 1.9492988e+2, -1174235.4, -1015000.8, 99049.67, -0.09387993, 0.28842345, -967536.44, 62171.375, 0.0, 9.998611, 10.00076 
1.1350231e+3, 2.0493037e+2, -981467.0, -935883.6, 90553.97, -0.18107499, 0.2977023, -865297.1, 66405.39, 0.0, 9.999553, 10.00017 
1.1350552e+3, 2.1492988e+2, -633038.56, -713828.9, 104314.54, -0.22570406, 0.2211135, -561570.9, 272133.97, 0.0, 10.001255, 10.000202 
1.1350875e+3, 2.2492929e+2, -472593.3, -638414.44, 53907.547, -0.15446086, 0.17153741, -456609.06, 279097.3, 0.0, 10.001916, 9.99973 
1.13512024e+3, 2.3492849e+2, -422330.8, -562071.94, 97011.42, 0.037500422, 0.10694165, -372647.56, 265060.22, 0.0, 10.001583, 9.999742 
1.13515064e+3, 2.4492669e+2, -415664.5, -725167.8, 106555.03, -0.019940933, 0.057383534, -382527.75, 157195.38, 0.0, 10.00189, 9.997799 
1.1351784e+3, 2.549238e+2, -182093.8, -560261.44, 103500.016, -0.32567176, -0.022939136, -155620.33, 286133.25, 0.0, 10.002812, 9.997816 
1.1352091e+3, 2.6492187e+2, -41559.074, -400069.53, 56337.707, -0.30275014, -0.0087911775, -32914.4, 310857.38, 0.00000020663475, 10.002928, 9.998187 
1.13524266e+3, 2.7492082e+2, -41050.51, -347998.34, 58744.227, 0.057897717, 0.05214177, -30192.06, 215586.9, 0.0000055002247, 10.002253, 9.998196 
1.1352723e+3, 2.84918e+2, 67040.89, -409774.44, 115351.32, -0.054108195, 0.033609226, 93480.62, 241284.66, 0.00003348498, 10.003032, 9.996724 
1.1352983e+3, 2.9491347e+2, 482092.25, -154160.05, 122395.11, -0.6384209, -0.10593669, 504825.03, 554671.94, 0.00012692227, 10.005188, 9.996768 
1.13532774e+3, 3.049109e+2, 438557.97, -290463.22, -110356.016, -0.5929537, 0.029434077, 454896.97, 454896.97, 0.00034325424, 10.005168, 9.995509 
1.1353597e+3, 3.149073e+2, 170632.73, -305417.25, -145623.0, -0.008627799, 0.10753408, 211645.28, 211645.28, 0.00068567495, 10.002803, 9.996547 
1.14476636e+3, 1.2488566e+2, -2151144.5, -1599782.9, 56126.953, 0.039839365, 0.013514405, -1594127.4, 122013.62, 0.0013373722, 9.99558, 10.002917 
1.14480175e+3, 1.348908e+2, -2111549.3, -1527598.0, 106767.33, 0.27206555, 0.22426818, -1508689.4, 109397.77, 0.000672049, 9.995157, 10.002961 
1.1448308e+3, 1.4489347e+2, -2034424.1, -1592483.4, -1583.8063, -0.047756255, 0.27040595, -1592477.6, -72418.38, 0.0002032588, 9.995695, 10.001561 
1.1448618e+3, 1.5489392e+2, -1705115.3, -1386281.4, -26157.64, -0.014194057, 0.15268052, -1384149.6, 37905.496, 0.000019742625, 9.997302, 10.001525 
1.1448932e+3, 1.6489473e+2, -1501885.6, -1299695.6, 40997.95, -0.012611281, 0.117328174, -1291698.8, 32349.277, 0.000000013934886, 9.998283, 10.000975 
1.1449254e+3, 1.7489576e+2, -1350626.1, -1172182.1, 47052.8, -0.0016103897, 0.109834865, -1160535.3, 65504.2, 0.0, 9.998632, 10.00101 
1.144958e+3, 1.8489741e+2, -1226689.1, -1073810.5, 89379.76, -0.0012836645, 0.18729106, -1032641.5, 95382.945, 0.0, 9.998868, 10.000897 
1.1449906e+3, 1.9489962e+2, -1099372.5, -957245.5, 86740.77, -0.029840617, 0.30601105, -916175.2, 113828.63, 0.0, 9.999051, 10.000934 
1.1450233e+3, 2.0490013e+2, -1045792.0, -974699.44, 104877.85, -0.08803429, 0.3141818, -899507.75, 32489.96, 0.0, 9.999144, 10.000106 
1.1450559e+3, 2.1489882e+2, -945407.2, -869823.6, 85215.34, -0.1603139, 0.16204894, -814395.94, 19611.652, 0.0, 9.999143, 10.000151 
1.14508875e+3, 2.248982e+2, -764487.75, -760233.25, -5975.155, -0.1093787, 0.10592216, -756017.94, -20008.523, 0.0, 9.999822, 9.999905 
1.1451218e+3, 2.3489821e+2, -466274.75, -562373.9, -34530.973, 0.06572017, 0.10560691, -455153.8, 182850.23, 0.0, 10.001183, 9.999934 
1.1451526e+3, 2.4489671e+2, -400895.38, -682864.6, -22569.465, 0.0020900131, 0.06051577, -399100.28, 140916.14, 0.0, 10.00184, 9.998113 
1.1451809e+3, 2.548935e+2, -302832.0, -578490.3, 3580.7053, -0.29747194, -0.0814397, -302785.47, 139262.98, 0.0, 10.0018215, 9.998162 
1.14521205e+3, 2.6489183e+2, -83689.516, -463453.53, -13615.064, -0.29022127, -0.039764304, -83202.02, 260863.4, 0.00000038376965, 10.002816, 9.997808 
1.1452459e+3, 2.7489161e+2, 314951.22, -219819.42, -44232.266, 0.026296709, 0.14206299, 318585.1, 564653.7, 0.0000075917305, 10.004877, 9.997814 
1.1452761e+3, 2.8488895e+2, 375637.63, -239374.64, 5221.092, -0.06962037, 0.14746207, 375681.94, 523775.25, 0.00004126663, 10.005061, 9.996916 
1.1453031e+3, 2.9488385e+2, 210448.97, -262303.13, 15521.842, -0.56930673, -0.066173315, 210958.05, 261097.47, 0.00014270528, 10.003222, 9.996969 
1.1453333e+3, 3.0488107e+2, 294872.53, -346685.2, -143913.7, -0.49250585, 0.03136453, 325676.16, 325676.16, 0.00036444867, 10.0041065, 9.99564 
1.14536576e+3, 3.1487763e+2, 882493.06, 33754.22, -152466.81, 0.06559866, 0.10945187, 909051.06, 909051.06, 0.000712375, 10.007717, 9.996509 
1.15476355e+3, 1.2485889e+2, -2226520.0, -1747803.5, 85197.08, 0.17205684, 0.291767, -1733093.1, -16686.662, 0.001489488, 9.995551, 10.001908 
1.154796e+3, 1.3486122e+2, -2181906.8, -1671195.5, 94538.7, 0.17189434, 0.31979895, -1654257.0, -35875.813, 0.00075867696, 9.995151, 10.001973 
1.1548252e+3, 1.4486238e+2, -2042793.6, -1615916.8, 51793.28, -0.19961496, 0.2741767, -1609722.5, -89352.97, 0.0002361324, 9.995709, 10.0014 
1.15486026e+3, 1.5486345e+2, -1706562.3, -1399987.9, 40569.71, 0.08976061, 0.23021616, -1394710.0, 27650.865, 0.000024990082, 9.997337, 10.001419 
1.15489304e+3, 1.6486436e+2, -1476684.6, -1253574.1, 45658.883, 0.13570504, 0.19365919, -1244591.8, 79759.28, 0.000000023716384, 9.998313, 10.001277 
1.1549236e+3, 1.7486504e+2, -1329991.1, -1129664.5, 64281.52, -0.049866427, 0.12266404, -1110811.9, 115528.67, 0.0, 9.998636, 10.001299 
1.1549561e+3, 1.8486615e+2, -1221561.5, -1066242.9, 89351.84, -0.090571895, 0.13011792, -1025518.44, 102808.81, 0.0, 9.9988785, 10.000946 
1.1549903e+3, 1.9486758e+2, -1099355.6, -952238.0, 97406.375, 0.01891285, 0.1646857, -903735.75, 126576.61, 0.0, 9.999022, 10.000986 
1.15502365e+3, 2.0486754e+2, -1072395.5, -1022553.75, 93167.76, 0.031893276, 0.12872615, -951031.5, -18720.61, 0.0, 9.99911, 9.999793 
1.1550561e+3, 2.1486586e+2, -977447.1, -924309.2, 90580.85, -0.055120755, -0.028668666, -856481.1, -22156.684, 0.0, 9.999082, 9.999809 
1.15508884e+3, 2.2486538e+2, -818792.44, -854148.56, 39132.098, -0.08702523, -0.023908228, -793530.6, -57202.047, 0.0, 9.999743, 9.999296 
1.15512185e+3, 2.3486607e+2, -520940.16, -656748.9, 23244.379, -0.06038743, 0.1043087, -517071.94, 121251.836, 0.0, 10.0011015, 9.999325 
1.1551538e+3, 2.4486554e+2, -352257.6, -561671.3, -30497.436, -0.062746264, 0.14312312, -347906.6, 192422.44, 0.0, 10.001754, 9.998985 
1.1551848e+3, 2.5486362e+2, -250315.6, -458262.88, 7356.55, -0.092464305, 0.040394913, -250055.67, 192289.92, 0.0, 10.001769, 9.999014 
1.1552161e+3, 2.6486203e+2, -139987.28, -564989.0, 56616.81, -0.17653844, 0.079409, -132574.34, 211788.0, 0.0000005356376, 10.002754, 9.997139 
1.1552473e+3, 2.7486056e+2, 250541.33, -321283.6, 41316.285, -0.32315853, 0.2086205, 253511.14, 499892.28, 0.000008957139, 10.004742, 9.997182 
1.1552792e+3, 2.8485793e+2, 394546.44, -173613.97, -64591.1, -0.28245318, 0.22328906, 401796.94, 550203.56, 0.00004715214, 10.004948, 9.997421 
1.1553118e+3, 2.9485404e+2, 248397.97, -193153.05, -39863.55, -0.0342224, 0.078728, 251968.02, 302407.7, 0.00015606491, 10.003256, 9.997433 
1.15534276e+3, 3.0485144e+2, 339091.2, -246091.16, -12246.166, 0.03914887, 0.13844167, 339347.34, 339347.34, 0.00038615367, 10.004085, 9.996332 
1.1553711e+3, 3.1484732e+2, 890044.7, 103381.03, -170.80814, -0.2010373, 0.07618021, 890044.75, 890044.75, 0.00074454554, 10.007496, 9.997087 
1.1647604e+3, 1.24828644e+2, -1905926.4, -1614630.8, -1869.427, 0.20073754, 0.3961757, -1614618.8, 102087.875, 0.0016512593, 9.99784, 10.001712 
1.16479166e+3, 1.3482967e+2, -1994798.6, -1610856.5, -18369.863, 0.15665081, 0.32064003, -1609979.6, 8713.669, 0.0008513687, 9.996567, 10.0017 
1.1648212e+3, 1.448303e+2, -1937727.0, -1550244.0, 71623.2, -0.19600905, 0.2311705, -1537428.9, -16742.39, 0.00027198074, 9.996379, 10.001521 
1.1648578e+3, 1.5483226e+2, -1698015.6, -1381291.3, 64960.992, 0.110706605, 0.26253638, -1368485.4, 54184.35, 0.00003101119, 9.997342, 10.001541 
1.16489135e+3, 1.6483368e+2, -1506854.4, -1237270.4, 53967.477, 0.16283007, 0.25911283, -1226868.1, 97785.83, 0.00000004774233, 9.997976, 10.001549 
1.1649223e+3, 1.7483452e+2, -1359490.4, -1112413.5, 56535.227, -0.031849295, 0.1768115, -1100091.9, 126547.734, 0.0, 9.998301, 10.001579 
1.16495505e+3, 1.8483508e+2, -1254066.0, -1142655.1, 80626.92, -0.06445712, 0.14144003, -1100361.6, 28269.375, 0.0, 9.998906, 10.000411 
1.16499014e+3, 1.9483523e+2, -1016209.6, -972952.3, 34677.367, 0.06727186, 0.10321875, -953711.44, 76918.336, 0.0, 9.999848, 10.000447 
1.1650237e+3, 2.0483506e+2, -857755.5, -889083.5, 27132.984, 0.07016549, 0.069043994, -842089.6, 90540.09, 0.0, 10.0004635, 10.000048 
1.165056e+3, 2.148345e+2, -712933.4, -760553.0, 50994.9, -0.058371328, -0.0046514818, -680463.7, 154167.48, 0.0, 10.000755, 10.000115 
1.1650887e+3, 2.2483438e+2, -702770.6, -828126.56, 59036.434, -0.11132142, 0.031862717, -679345.0, 57287.51, 0.0, 10.000673, 9.999026 
1.1651223e+3, 2.3483448e+2, -672152.4, -759003.7, 54964.152, -0.073929474, 0.12933107, -645529.1, -6893.147, 0.0, 10.0001955, 9.999057 
1.1651552e+3, 2.4483386e+2, -509048.7, -636856.06, 7876.15, -0.046958078, 0.17330356, -508565.16, 32078.092, 0.0, 10.000671, 9.998992 
1.1651873e+3, 2.5483248e+2, -193903.56, -429770.25, -30075.818, -0.03830574, 0.12219555, -190128.94, 252525.78, 0.0, 10.002148, 9.999029 
1.165219e+3, 2.6483095e+2, -95862.914, -514432.66, 41310.445, -0.15528928, 0.1555627, -91824.766, 252845.67, 0.00000056359414, 10.0029335, 9.997398 
1.16525024e+3, 2.7482906e+2, 10141.147, -409191.47, 76447.74, -0.3985721, 0.21981166, 23643.428, 270336.03, 0.0000092835935, 10.00297, 9.997435 
1.1652831e+3, 2.8482652e+2, 206294.02, -247794.84, -41952.008, -0.30513924, 0.2209629, 210137.33, 358854.66, 0.00004992713, 10.0035715, 9.997581 
1.1653176e+3, 2.9482326e+2, 482818.94, -56203.49, -58690.5, 0.15041189, 0.12356594, 489135.3, 539879.75, 0.00016456094, 10.004777, 9.997637 
1.16534896e+3, 3.0482057e+2, 585399.1, -87876.6, 37117.313, 0.17957021, 0.14537308, 587439.2, 587439.2, 0.00040402194, 10.005605, 9.9966955 
1.165376e+3, 3.1481585e+2, 646928.0, 2069.0042, 7127.56, -0.3514992, -0.0048080105, 647006.75, 647006.75, 0.00077403296, 10.005744, 9.997246 
1.1747568e+3, 1.2479471e+2, -1854457.6, -1519257.5, -8329.76, 0.03666238, 0.30106142, -1519050.6, 197992.94, 0.0018234614, 9.997892, 10.002343 
1.17478855e+3, 1.3479607e+2, -1954710.0, -1538278.6, -64136.332, 0.18247259, 0.21077108, -1528624.5, 90399.51, 0.0009506097, 9.996607, 10.002182 
1.1748187e+3, 1.4479725e+2, -1910007.0, -1492925.1, 101010.39, -0.085111365, 0.13150102, -1469749.8, 51260.03, 0.00031097958, 9.996376, 10.001915 
1.17485404e+3, 1.5480036e+2, -1670380.9, -1328870.5, 109330.64, -0.00861041, 0.24010754, -1296868.4, 126112.66, 0.00003785508, 9.997358, 10.001894 
1.1748878e+3, 1.6480273e+2, -1491942.8, -1210313.5, 60365.11, 0.0030417587, 0.30665338, -1197920.1, 127035.84, 0.00000010132158, 9.9979925, 10.001725 
1.1749209e+3, 1.7480429e+2, -1346821.4, -1083820.6, 73481.586, 0.0056742164, 0.2752597, -1064682.8, 162252.73, 0.0, 9.998287, 10.001783 
1.1749549e+3, 1.8480434e+2, -1331743.9, -1298167.0, 107632.46, 0.02910627, 0.22848576, -1206021.5, -77087.11, 0.0, 9.998887, 9.999351 
1.17499e+3, 1.9480261e+2, -1101265.6, -1138176.0, 76449.87, 0.062088866, 0.112072855, -1041074.94, -10119.351, 0.0, 9.999801, 9.999336 
1.1750233e+3, 2.0480274e+2, -808927.1, -777470.0, 31069.438, -0.024597637, 0.12635495, -758374.75, 174578.95, 0.0, 10.000416, 10.00084 
1.1750552e+3, 2.1480481e+2, -666013.7, -647405.6, 66786.305, -0.22318377, 0.23306663, -589278.4, 245648.84, 0.0, 10.000681, 10.000933 
1.1750883e+3, 2.2480512e+2, -707571.56, -821683.94, 32368.4, -0.2305006, 0.26877463, -699029.56, 37892.496, 0.0, 10.000601, 9.999106 
1.1751229e+3, 2.3480342e+2, -675648.0, -751783.06, 42144.87, -0.033309583, 0.17828704, -656923.56, -17982.65, 0.0, 10.000133, 9.999138 
1.1751562e+3, 2.4480179e+2, -574806.3, -761060.3, 55336.0, -0.009384217, 0.157522, -559606.44, -18648.121, 0.0, 10.000615, 9.998168 
1.1751882e+3, 2.548001e+2, -257661.11, -550937.0, 32458.314, -0.17031942, 0.16030717, -254111.75, 188863.56, 0.0, 10.002094, 9.998224 
1.1752208e+3, 2.647986e+2, -33899.402, -365896.34, 37203.844, -0.26436532, 0.18564722, -29781.387, 315208.44, 0.0000005132723, 10.00285, 9.998459 
1.17525436e+3, 2.7479714e+2, 76485.06, -257197.97, 84410.15, -0.28751856, 0.17823848, 96622.59, 343625.97, 0.000009280944, 10.002909, 9.9985075 
1.17528774e+3, 2.8479478e+2, 180010.48, -287555.34, -4184.2314, -0.21041903, 0.15693022, 180047.94, 329072.9, 0.00005048516, 10.003508, 9.997338 
1.1753207e+3, 2.9479146e+2, 461844.38, -87928.41, -6839.3086, -0.024637332, 0.07622032, 461929.44, 512984.22, 0.00016806574, 10.004717, 9.997451 
1.175352e+3, 3.0478835e+2, 586484.7, -60377.332, 39871.63, -0.07321374, 0.049861047, 588933.0, 588933.0, 0.00041272835, 10.005505, 9.996928 
1.1753803e+3, 3.147837e+2, 633601.7, -9014.243, 27721.982, -0.52248794, -0.11841162, 634795.4, 634795.4, 0.00078705506, 10.005684, 9.997192 
1.1847534e+3, 1.2476249e+2, -2222664.0, -1721661.0, 153881.55, 0.03202593, 0.255097, -1678171.8, 39186.574, 0.0020081834, 9.995481, 10.002116 
1.18478514e+3, 1.3476393e+2, -1852305.3, -1532646.5, -25032.906, 0.14581485, 0.21228613, -1530698.1, 88642.09, 0.0010574218, 9.997506, 10.001786 
1.1848168e+3, 1.44765e+2, -1639222.5, -1384615.6, 92321.52, -0.004566516, 0.15051727, -1354663.1, 166664.61, 0.00035351914, 9.99833, 10.001715 
1.18485145e+3, 1.5476778e+2, -1629386.3, -1326757.1, 40055.227, -0.0023491038, 0.24503458, -1321545.3, 101755.59, 0.00004562391, 9.997724, 10.001726 
1.1848855e+3, 1.6476998e+2, -1548465.5, -1264641.0, -19933.412, -0.011081814, 0.31314942, -1263247.9, 62030.13, 0.00000019883093, 9.997717, 10.001491 
1.1849193e+3, 1.7477146e+2, -1340108.1, -1101569.9, -48280.688, 0.020295538, 0.29644433, -1092168.4, 135092.06, 0.0, 9.998427, 10.001591 
1.1849538e+3, 1.8477172e+2, -1314539.8, -1247740.4, 34929.72, 0.043235485, 0.26324427, -1232811.8, -103554.35, 0.0, 9.998831, 9.999721 
1.184989e+3, 1.9477054e+2, -1199258.8, -1137593.8, 99074.44, 0.04118583, 0.1634867, -1064665.0, -33394.117, 0.0, 9.998933, 9.999753 
1.1850228e+3, 2.0477085e+2, -1009445.75, -883779.1, 83704.31, -0.036115855, 0.17827563, -841949.0, 91317.45, 0.0, 9.999076, 10.000761 
1.18505545e+3, 2.1477254e+2, -875302.6, -757185.8, 42892.613, -0.17992109, 0.25624958, -743253.4, 91991.055, 0.0, 9.999278, 10.000856 
1.1850892e+3, 2.247725e+2, -787969.06, -882452.6, -9516.568, -0.17081454, 0.2711112, -787020.06, -49777.28, 0.0, 10.00015, 9.9989 
1.185124e+3, 2.3477054e+2, -450521.4, -665652.6, -36424.484, -0.0056345235, 0.17517312, -444521.6, 194742.14, 0.0, 10.001779, 9.998931 
1.1851576e+3, 2.4476874e+2, -344936.1, -669936.9, -6280.0205, -0.00909986, 0.15786785, -344814.8, 196467.92, 0.0, 10.002286, 9.997988 
1.1851897e+3, 2.5476697e+2, -341045.38, -612120.06, 3159.7253, -0.19044527, 0.17200355, -341008.56, 102292.63, 0.0, 10.001618, 9.998032 
1.1852232e+3, 2.6476532e+2, -179699.98, -406794.9, 17492.719, -0.24682122, 0.17837903, -178360.45, 166956.63, 0.0000005059796, 10.001718, 9.998725 
1.1852582e+3, 2.7476367e+2, 50390.547, -238304.11, -8875.39, -0.17206094, 0.12648772, 50663.145, 297994.56, 0.000009346627, 10.002599, 9.998783 
1.1852918e+3, 2.8476176e+2, 186810.3, -257810.45, -77559.26, -0.13790774, 0.1258651, 199951.28, 349299.94, 0.000050141156, 10.00345, 9.997564 
1.185324e+3, 2.9475954e+2, 405038.34, -92344.16, -62600.152, -0.1354054, 0.13878404, 412796.16, 464165.1, 0.0001673022, 10.004233, 9.997651 
1.1853566e+3, 3.0475652e+2, 567319.25, -64186.324, -4477.317, -0.14993054, 0.10841101, 567351.0, 567351.0, 0.000408151, 10.005328, 9.996992 
1.18538834e+3, 3.147519e+2, 756371.4, 28502.04, -55152.586, -0.32137546, -0.060287762, 760526.7, 760526.7, 0.00077294465, 10.00659, 9.997024 
1.1947498e+3, 1.2473227e+2, -2312328.3, -1885445.9, 229117.77, 0.100197904, 0.2579816, -1785754.4, -68106.625, 0.0022081332, 9.995393, 10.001029 
1.19478114e+3, 1.3473354e+2, -1944212.4, -1725944.1, 62593.23, -0.01534943, 0.32726166, -1709268.3, -89629.14, 0.0011730703, 9.997519, 10.000452 
1.19481504e+3, 1.447337e+2, -1693173.3, -1508654.4, 65608.664, -0.019670455, 0.28863853, -1487704.8, 33933.957, 0.00040013902, 9.998382, 10.00084 
1.1948502e+3, 1.5473463e+2, -1685926.9, -1450788.6, 21343.793, 0.08805351, 0.2831316, -1448866.9, -25238.543, 0.00005450229, 9.997745, 10.000872 
1.1948842e+3, 1.6473539e+2, -1587915.3, -1347060.4, -3280.265, 0.074008286, 0.2810938, -1347015.6, -21395.504, 0.00000035173326, 9.997721, 10.000921 
1.1949173e+3, 1.7473596e+2, -1383574.1, -1190515.6, -16652.875, -0.03505761, 0.2308827, -1189089.8, 38525.285, 0.0, 9.99842, 10.000986 
1.1949515e+3, 1.8473716e+2, -1187838.0, -986483.1, 31780.47, -0.079916805, 0.23742688, -981586.2, 148014.03, 0.0, 9.998838, 10.00151 
1.19498715e+3, 1.9473907e+2, -1076445.1, -875719.8, 107849.71, -0.049131233, 0.2620208, -828758.94, 202816.3, 0.0, 9.998897, 10.001574 
1.19502224e+3, 2.0473939e+2, -1076371.6, -1010547.3, 82090.79, -0.020116627, 0.22741872, -955016.8, -21449.027, 0.0, 9.999027, 9.999911 
1.1950567e+3, 2.1473783e+2, -950947.44, -896415.44, 54541.68, 0.012255116, 0.07075887, -862704.1, -27122.986, 0.0, 9.999205, 9.999935 
1.19509116e+3, 2.2473669e+2, -833556.8, -961617.0, 43138.0, 0.0067864214, 0.046183676, -820381.06, -82788.17, 0.0, 10.00008, 9.998391 
1.1951256e+3, 2.3473595e+2, -497906.03, -746553.75, 30548.643, -0.038208604, 0.12282526, -494207.84, 145395.28, 0.0, 10.001701, 9.998414 
1.195159e+3, 2.4473481e+2, -326632.06, -618022.75, -36586.246, -0.09794477, 0.17863561, -322108.6, 219507.11, 0.0, 10.002223, 9.998377 
1.1951917e+3, 2.5473315e+2, -320003.78, -554961.6, -16141.805, -0.16911265, 0.16212402, -318900.0, 124731.664, 0.0, 10.001559, 9.998453 
1.1952259e+3, 2.6473117e+2, -223960.6, -486916.63, 42317.3, -0.16816407, 0.14089583, -217318.3, 128332.71, 0.0000006389743, 10.001664, 9.998202 
1.1952616e+3, 2.7472872e+2, 8779.68, -315490.0, 31503.69, -0.0993196, 0.06327967, 11811.994, 259487.33, 0.000009277396, 10.00256, 9.998272 
1.1952954e+3, 2.847275e+2, 221137.17, -175825.02, -55140.81, -0.1283188, 0.12827896, 228654.27, 378341.5, 0.000049688064, 10.003398, 9.998156 
1.1953271e+3, 2.947275e+2, 437235.9, -10533.527, -25201.357, -0.25492075, 0.29595232, 438649.8, 490336.25, 0.00016439366, 10.004159, 9.998252 
1.1953622e+3, 3.04725e+2, 525963.6, -107849.94, 37609.1, -0.13232352, 0.3010019, 528187.44, 528187.44, 0.00039443024, 10.005161, 9.996765 
1.1953994e+3, 3.1472042e+2, 700431.8, -25428.674, 7367.6777, 0.10471453, 0.15513206, 700506.56, 700506.56, 0.0007374405, 10.006341, 9.996763 
1.2047466e+3, 1.2469935e+2, -2087032.0, -1794919.5, 47746.227, 0.1857237, 0.27734455, -1787313.4, -69343.85, 0.0024257244, 9.997004, 10.000881 
1.2047781e+3, 1.347008e+2, -1959348.4, -1753895.4, -25017.049, -0.06308702, 0.3873172, -1750893.1, -130931.125, 0.0012988481, 9.997496, 10.000275 
1.2048139e+3, 1.44701e+2, -1794449.0, -1565963.3, 9001.987, 0.05649731, 0.3648178, -1565609.3, -43647.656, 0.00045139206, 9.997724, 10.000766 
1.204848e+3, 1.5470102e+2, -1707667.4, -1462818.8, 6014.9575, 0.117623, 0.27327958, -1462671.0, -38713.723, 0.00006471426, 9.99761, 10.000851 
1.204882e+3, 1.6470128e+2, -1562364.1, -1367891.1, 84291.4, 0.08028205, 0.23482245, -1336442.0, -10488.499, 0.00000057087306, 9.998041, 10.000623 
1.2049162e+3, 1.7470175e+2, -1293595.4, -1176987.6, 79408.76, -0.026795628, 0.20573495, -1136777.1, 91173.76, 0.0, 9.999175, 10.00071 
1.2049508e+3, 1.8470307e+2, -1053567.8, -908960.06, 58527.477, -0.07529378, 0.22927131, -888240.75, 241694.61, 0.0, 9.999697, 10.001631 
1.20498605e+3, 1.9470516e+2, -967814.7, -804244.9, -2813.7043, -0.060288183, 0.25834846, -804196.44, 227710.31, 0.0, 9.999559, 10.00174 
1.2050215e+3, 2.0470528e+2, -992700.44, -1035935.6, -49648.67, -0.021927176, 0.22253917, -960167.25, -26265.168, 0.0, 9.999884, 9.999323 
1.205057e+3, 2.1470307e+2, -766663.0, -875757.1, -69890.12, 0.04790531, 0.0637584, -732553.4, 103371.67, 0.0, 10.000759, 9.99933 
1.20509215e+3, 2.2470182e+2, -667665.0, -862855.56, -25858.725, 0.049558625, 0.053962097, -664297.4, 73641.305, 0.0, 10.001134, 9.998568 
1.20512694e+3, 2.3470154e+2, -591633.4, -768851.1, 1222.714, -0.020440105, 0.15941112, -591624.94, 48317.965, 0.0, 10.000958, 9.998623 
1.205161e+3, 2.4470054e+2, -473956.38, -688344.94, -65550.65, -0.068732485, 0.21714702, -455502.34, 86450.945, 0.0, 10.001205, 9.998382 
1.205194e+3, 2.5469857e+2, -266637.4, -530654.6, -88432.9, -0.102889046, 0.17084084, -239754.06, 204217.81, 0.00000000020898414, 10.001923, 9.998447 
1.2052284e+3, 2.6469654e+2, -117487.664, -470086.34, -6.3018217, -0.10615259, 0.16019192, -117487.664, 228504.52, 0.00000074892756, 10.002557, 9.997879 
1.20526455e+3, 2.7469435e+2, 67761.29, -324065.06, -11075.619, -0.08120363, 0.14288966, 68074.11, 316089.28, 0.000008958339, 10.003131, 9.9979315 
1.2052988e+3, 2.8469288e+2, 215918.83, -173435.55, -114248.68, -0.11894336, 0.19804657, 246967.06, 396997.3, 0.000049074697, 10.003343, 9.998197 
1.2053311e+3, 2.9469198e+2, 283095.25, -78461.44, -144774.66, -0.21631038, 0.27447942, 333921.13, 385959.4, 0.00016160097, 10.00308, 9.998301 
1.20536685e+3, 3.0468962e+2, 326602.84, -159377.77, -30812.002, -0.08630277, 0.26891884, 328548.6, 328548.6, 0.00038111117, 10.003593, 9.997165 
1.2054053e+3, 3.146877e+2, 483510.6, -80034.86, -48030.344, 0.16462031, 0.35714778, 487574.84, 487574.84, 0.00070032355, 10.00464, 9.9972 
1.2147432e+3, 1.2466338e+2, -2018255.9, -1657834.6, -29088.277, 0.12017616, 0.29209477, -1655502.1, 62825.58, 0.0026624324, 9.9970455, 10.001793 
1.2147759e+3, 1.3466571e+2, -1890259.3, -1608869.9, -4430.534, -0.031538993, 0.39085785, -1608800.1, 11509.226, 0.0014356553, 9.997493, 10.00127 
1.21481284e+3, 1.4466688e+2, -1733089.6, -1439177.0, -1197.593, 0.18539469, 0.37069198, -1439172.1, 83124.38, 0.0005075534, 9.9977255, 10.001636 
1.2148449e+3, 1.5466693e+2, -1648487.3, -1343932.4, 10249.091, 0.025775397, 0.19943418, -1343587.9, 80700.01, 0.000076397075, 9.997622, 10.001665 
1.2148788e+3, 1.6466762e+2, -1561591.6, -1370768.9, 117341.71, -0.058130547, 0.16336638, -1314944.0, 11333.87, 0.0000008702971, 9.998061, 10.000591 
1.2149157e+3, 1.7466894e+2, -1297981.9, -1188192.8, 126616.32, 0.00047553674, 0.22539252, -1105083.3, 123183.695, 0.0, 9.999177, 10.000635 
1.2149514e+3, 1.8466944e+2, -1151969.8, -1114853.4, 47416.15, 0.011360824, 0.23988901, -1082493.0, 47768.93, 0.0, 9.999706, 10.000212 
1.21498585e+3, 1.9466886e+2, -1077246.4, -1025610.6, -1673.2086, -0.048938803, 0.14850831, -1025556.5, 6708.3696, 0.0, 9.99953, 10.000238 
1.21502064e+3, 2.0466846e+2, -1026760.75, -1093291.4, -25259.582, -0.10064955, 0.15835406, -1018257.3, -83988.195, 0.0, 9.999829, 9.998953 
1.215056e+3, 2.1466826e+2, -804085.3, -931989.56, -30849.455, -0.12334745, 0.23308872, -797033.5, 39241.918, 0.0, 10.000668, 9.998985 
1.21509194e+3, 2.2466789e+2, -623669.3, -751384.1, -38876.68, -0.09150576, 0.29050782, -612766.0, 125513.94, 0.0, 10.001046, 9.999377 
1.21512815e+3, 2.3466732e+2, -540475.2, -647982.0, 1744.053, -0.0011287354, 0.2797703, -540446.9, 99835.914, 0.0, 10.000892, 9.999487 
1.2151631e+3, 2.446659e+2, -508460.03, -741903.25, -44383.207, 0.0170364, 0.2679448, -500306.5, 41988.836, 0.0, 10.001131, 9.998047 
1.21519655e+3, 2.5466335e+2, -300185.88, -590137.44, -54262.05, -0.040426057, 0.19786759, -290363.9, 153956.8, 0.00000000018849695, 10.001882, 9.998057 
1.21523105e+3, 2.6466146e+2, -136361.75, -499535.84, 17398.176, -0.10558212, 0.2331658, -135530.19, 210809.58, 0.00000061447383, 10.00251, 9.997702 
1.2152668e+3, 2.746604e+2, 43857.14, -354305.1, 21158.678, -0.17416003, 0.34384283, 44978.37, 293330.16, 0.00000822272, 10.003038, 9.997772 
1.2153016e+3, 2.8465784e+2, 157743.4, -262352.56, -125275.68, -0.1773012, 0.32449028, 192264.73, 342642.28, 0.000047693058, 10.003206, 9.997653 
1.2153354e+3, 2.946534e+2, 239745.14, -159306.19, -139703.69, -0.09792997, 0.09697448, 283792.06, 336212.8, 0.00015870755, 10.003038, 9.9977665 
1.21537074e+3, 3.0465063e+2, 377569.53, -38574.234, 4765.8193, -0.06310634, 0.04316794, 377624.1, 377624.1, 0.00037049488, 10.003535, 9.998019 
1.2154065e+3, 3.146538e+2, 541551.25, 73222.95, 4514.3965, -0.19996953, 0.54337007, 541594.8, 541594.8, 0.0006721322, 10.004511, 9.998308 
1.2247402e+3, 1.2462809e+2, -2023144.8, -1653205.6, -46582.957, 0.13480388, 0.3113837, -1647430.0, 71245.586, 0.0029179724, 9.99696, 10.001878 
1.2247727e+3, 1.3463025e+2, -2005176.6, -1634348.1, -11927.654, -0.037946794, 0.36798194, -1633964.9, -13307.387, 0.0015834377, 9.9965725, 10.00154 
1.2248104e+3, 1.4463183e+2, -1810745.6, -1452313.3, -24660.729, 0.20040189, 0.36516052, -1450624.5, 72015.18, 0.00056846405, 9.997087, 10.001851 
1.2248427e+3, 1.5463227e+2, -1482414.6, -1237744.6, -77295.63, 0.00372437, 0.20833483, -1215371.4, 209255.98, 0.00008951281, 9.99865, 10.001894 
1.22487694e+3, 1.6463321e+2, -1436452.3, -1293002.6, -1963.8037, -0.07658892, 0.1801135, -1292975.8, 33638.508, 0.0000012652538, 9.998836, 10.000757 
1.22491404e+3, 1.7463474e+2, -1539158.9, -1283053.8, 15367.142, 0.023327831, 0.24422285, -1282134.9, -53534.18, 0.0, 9.997427, 10.000831 
1.2249503e+3, 1.8463507e+2, -1492194.4, -1320720.6, 32818.71, 0.038591605, 0.25253844, -1314654.0, -184056.23, 0.0, 9.997555, 9.999837 
1.2249852e+3, 1.9463396e+2, -1099526.4, -1073361.9, 50712.43, -0.056254715, 0.146125, -1034071.44, -1463.446, 0.0, 9.999551, 9.999894 
1.2250205e+3, 2.046335e+2, -953878.44, -1052231.4, 68773.29, -0.11736112, 0.16226606, -918508.5, 16104.701, 0.0, 10.000296, 9.999017 
1.22505605e+3, 2.1463369e+2, -962528.0, -998283.9, 83957.2, -0.121958435, 0.2686478, -894566.4, -57952.8, 0.0, 9.999535, 9.999079 
1.2250922e+3, 2.2463328e+2, -821646.1, -861117.8, 93735.016, -0.09001276, 0.32154873, -745591.8, -6973.9487, 0.0, 9.999755, 9.999239 
1.2251288e+3, 2.346321e+2, -516299.03, -652611.5, 43659.684, -0.030304862, 0.265295, -503514.3, 137113.06, 0.0, 10.001131, 9.999335 
1.2251645e+3, 2.4463038e+2, -390946.78, -710734.25, -26104.906, 0.0076516666, 0.24222773, -388829.78, 153813.3, 0.0, 10.002038, 9.997831 
1.2251993e+3, 2.546279e+2, -235701.63, -580294.75, -36396.207, 0.029115459, 0.20360756, -231899.38, 212767.84, 0.0, 10.00242, 9.997865 
1.2252341e+3, 2.6462597e+2, -162327.73, -497287.06, 36686.78, -0.021267895, 0.23481564, -158356.66, 188329.92, 0.0000003685213, 10.002273, 9.997831 
1.22526914e+3, 2.7462462e+2, -176360.16, -444252.4, 46448.18, -0.1570857, 0.30066085, -168535.36, 80165.67, 0.000007319039, 10.001464, 9.99791 
1.2253041e+3, 2.8462204e+2, -97379.82, -438030.75, -46477.848, -0.16374853, 0.29823235, -91152.305, 59574.625, 0.000046575948, 10.001679, 9.997178 
1.2253391e+3, 2.9461792e+2, 202868.28, -234311.11, -70152.92, -0.018757306, 0.1551813, 213849.67, 266617.8, 0.0001562628, 10.003035, 9.997253 
1.22537486e+3, 3.0461448e+2, 407985.97, -89417.0, 44185.26, -0.012082707, 0.08417115, 411880.53, 411880.53, 0.00036177837, 10.004021, 9.997445 
1.2254102e+3, 3.1461647e+2, 495185.6, 15401.707, -86602.91, -0.264005, 0.5302068, 510339.16, 510339.16, 0.0006523368, 10.00432, 9.998017 
1.2347366e+3, 1.2459329e+2, -2061327.1, -1740908.9, -167524.75, 0.050165523, 0.30941287, -1669317.5, 49697.004, 0.0031899144, 9.997002, 10.001251 
1.2347683e+3, 1.3459444e+2, -2035493.8, -1701009.8, -22996.934, -0.14363635, 0.31012374, -1699436.1, -78430.52, 0.0017411282, 9.996583, 10.00108 
1.2348058e+3, 1.4459586e+2, -1844531.5, -1526164.5, 26195.807, 0.028632184, 0.33873934, -1524023.4, -1032.3293, 0.0006337289, 9.9971, 10.00134 
1.2348414e+3, 1.5459698e+2, -1510191.6, -1310464.0, -13494.8125, 0.0015181595, 0.30569446, -1309556.4, 115419.95, 0.00010392506, 9.998701, 10.001376 
1.2348764e+3, 1.6459803e+2, -1397068.9, -1216910.3, -62788.527, -0.020301348, 0.28871062, -1197186.6, 129777.02, 0.0000017603737, 9.998864, 10.001263 
1.23491116e+3, 1.745991e+2, -1505149.5, -1210115.9, -35735.99, -0.011765627, 0.2538219, -1205849.0, 23103.52, 0.0, 9.997413, 10.001338 
1.234947e+3, 1.8459994e+2, -1450058.8, -1229527.4, 95825.375, -0.04627224, 0.2559168, -1193707.4, -62764.156, 0.0, 9.997539, 10.000471 
1.2349841e+3, 1.9460045e+2, -1058657.0, -982175.75, 132319.2, -0.13173097, 0.24985573, -882682.1, 150254.4, 0.0, 9.999518, 10.00054 
1.23502076e+3, 2.0460032e+2, -919830.3, -969267.8, 33616.566, -0.12286886, 0.23819046, -902822.7, 32112.031, 0.0, 10.000245, 9.999607 
1.2350569e+3, 2.145994e+2, -930215.1, -920798.6, 58982.09, -0.00078900764, 0.17356692, -866337.2, -29397.77, 0.0, 9.999485, 9.999637 
1.2350928e+3, 2.24598e+2, -908377.75, -1022477.7, 134092.39, -0.00474283, 0.15045986, -819703.8, -80751.41, 0.0, 9.999677, 9.998168 
1.23512864e+3, 2.3459595e+2, -610876.4, -829364.0, 101656.016, -0.15561515, 0.12099506, -570895.0, 70081.23, 0.0, 10.001046, 9.998163 
1.2351651e+3, 2.4459405e+2, -411628.8, -733199.06, -17902.105, -0.14991504, 0.1476139, -410635.28, 132360.89, 0.0, 10.00195, 9.997718 
1.235202e+3, 2.5459233e+2, -249805.23, -593716.0, -15942.369, 0.05040156, 0.18625583, -249067.78, 195943.92, 0.0, 10.002344, 9.997812 
1.2352376e+3, 2.6459005e+2, -149280.1, -449413.5, 1727.827, 0.08500891, 0.16847429, -149270.14, 197762.88, 0.00000016286783, 10.002187, 9.9982 
1.2352714e+3, 2.745871e+2, -153253.3, -392084.84, 21818.463, -0.08673192, 0.040025108, -151276.44, 97785.22, 0.0000066111284, 10.001447, 9.998276 
1.23530604e+3, 2.8458545e+2, -129648.83, -501246.72, -6224.933, -0.13942745, 0.13047849, -129544.58, 21534.676, 0.000046430763, 10.001664, 9.99675 
1.235342e+3, 2.9458508e+2, 166765.27, -305470.22, -11431.81, -0.032894544, 0.4056053, 167041.84, 220128.34, 0.00015647624, 10.003014, 9.996777 
1.23537906e+3, 3.0458063e+2, 267729.28, -367589.6, 57032.23, -0.00048634957, 0.35091406, 272808.44, 272808.44, 0.00036044128, 10.003962, 9.995564 
1.2354156e+3, 3.1457636e+2, 373547.88, -203054.61, -50730.813, -0.18145585, 0.3548744, 377977.25, 377977.25, 0.0006474245, 10.004174, 9.996586 
1.2447319e+3, 1.2455798e+2, -2173969.8, -1816765.1, -217788.19, -0.0744962, 0.31185266, -1713710.8, 5648.062, 0.003475539, 9.996336, 10.001045 
1.24476664e+3, 1.3455851e+2, -1774437.3, -1586645.5, -12375.622, -0.056814745, 0.2642291, -1585833.4, 35520.633, 0.0019075654, 9.998424, 10.000978 
1.2448036e+3, 1.4455953e+2, -1683942.1, -1484754.1, 27764.137, 0.045946248, 0.2744923, -1480956.6, 42386.883, 0.0007030745, 9.998355, 10.001022 
1.2448388e+3, 1.5456092e+2, -1946739.0, -1552917.6, -11106.969, 0.024669558, 0.29833815, -1552604.6, -127275.97, 0.00011956255, 9.995857, 10.001081 
1.244874e+3, 1.6456203e+2, -1860673.5, -1437423.6, -21711.316, 0.024708543, 0.3005487, -1436312.9, -108996.08, 0.0000023468863, 9.9956665, 10.001295 
1.2449097e+3, 1.7456286e+2, -1382216.3, -1143712.5, -43469.594, 0.06352768, 0.23765342, -1136036.8, 93270.766, 0.0, 9.99823, 10.001397 
1.2449462e+3, 1.8456371e+2, -1171590.5, -1104883.1, 66145.63, 0.026206324, 0.24205731, -1064157.8, 67140.266, 0.0, 9.999483, 10.000389 
1.2449837e+3, 1.9456443e+2, -1118690.6, -1023869.5, 38141.957, -0.099435836, 0.26618466, -1010431.3, 22858.441, 0.0, 9.999149, 10.000435 
1.24502085e+3, 2.0456427e+2, -997626.25, -986761.4, -106269.78, -0.09796476, 0.2467617, -885785.3, 49502.594, 0.0, 9.9996195, 9.999791 
1.2450576e+3, 2.1456298e+2, -687295.56, -776621.5, -125776.72, 0.058496926, 0.12786, -598487.3, 238806.44, 0.0, 10.001043, 9.999872 
1.2450939e+3, 2.2456142e+2, -690376.75, -969522.75, -36424.7, 0.05245137, 0.09718746, -685702.1, 53606.313, 0.0, 10.001389, 9.997711 
1.2451295e+3, 2.3455931e+2, -732671.3, -939765.0, -31871.033, -0.14111952, 0.11185346, -727877.44, -86542.2, 0.0, 10.000429, 9.997703 
1.2451659e+3, 2.4455754e+2, -603966.6, -757397.9, -68913.266, -0.16409045, 0.14596513, -577559.4, -34205.61, 0.0, 10.000338, 9.998328 
1.2452034e+3, 2.545561e+2, -363064.5, -573338.2, -29256.357, 0.017443512, 0.15069692, -359069.8, 86293.125, 0.0, 10.001249, 9.998477 
1.2452395e+3, 2.645538e+2, -218150.47, -559594.7, -35477.2, 0.08204669, 0.12593356, -214503.23, 132881.42, 0.000000050542315, 10.002036, 9.997517 
1.2452742e+3, 2.7455038e+2, -28956.133, -417711.4, -109777.38, 0.00083420926, 0.02665345, -99.0496, 249322.72, 0.000006130949, 10.002659, 9.997521 
1.2453094e+3, 2.8454855e+2, 113775.42, -367974.8, -110874.86, -0.044129156, 0.13422999, 138068.28, 289509.97, 0.0000467863, 10.003273, 9.996892 
1.2453455e+3, 2.945482e+2, 303230.8, -218644.53, -86768.71, -0.03155279, 0.39931646, 317279.1, 370724.03, 0.00016088788, 10.003867, 9.996958 
1.2453828e+3, 3.0454335e+2, 236136.55, -425292.53, 26392.775, -0.007077449, 0.3111496, 237188.02, 237188.02, 0.00037296483, 10.003919, 9.995188 
1.2454202e+3, 3.1453794e+2, 245445.47, -258109.6, -7545.6147, -0.079450764, 0.24287374, 245558.5, 245558.5, 0.0006691281, 10.003267, 9.996642 
1.2547252e+3, 1.245223e+2, -2151617.0, -1777038.0, -173465.69, -0.41527686, 0.33192158, -1709047.8, 10659.655, 0.0037739007, 9.996353, 10.001309 
1.2547676e+3, 1.3452248e+2, -1746880.0, -1550550.6, 71479.9, 0.19683003, 0.22230764, -1527283.5, 94419.37, 0.0020822603, 9.998498, 10.001198 
1.2548038e+3, 1.4452295e+2, -1676532.3, -1484300.4, -68091.14, 0.2236853, 0.1664094, -1462625.5, 61070.89, 0.0007764397, 9.99842, 10.000992 
1.2548347e+3, 1.5452412e+2, -1950130.3, -1561018.8, -100682.38, 0.023726733, 0.17415078, -1536510.9, -110826.81, 0.00013646827, 9.995852, 10.001032 
1.2548696e+3, 1.6452517e+2, -1903307.9, -1515091.8, 61466.43, 0.0048583825, 0.19701713, -1505592.3, -177918.47, 0.0000030208696, 9.995622, 10.000783 
1.2549095e+3, 1.7452608e+2, -1417898.5, -1220761.1, 59733.367, 0.21028614, 0.19653995, -1204074.1, 25590.797, 0.0, 9.998238, 10.000867 
1.2549476e+3, 1.8452643e+2, -1220528.9, -1210353.0, 49478.156, 0.21290419, 0.21189208, -1165701.9, -34039.703, 0.0, 9.9995, 9.999657 
1.2549837e+3, 1.9452596e+2, -1174588.8, -1135399.1, 29387.865, -0.01826087, 0.19019687, -1119672.5, -86004.805, 0.0, 9.999126, 9.9996805 
1.2550205e+3, 2.0452532e+2, -1022874.8, -1023500.0, -62626.09, -0.09339417, 0.17513257, -960560.5, -24888.055, 0.0, 9.999553, 9.999573 
1.2550582e+3, 2.145245e+2, -711678.25, -811394.44, -65876.06, 0.010352838, 0.12225126, -678919.9, 158756.27, 0.0, 10.000971, 9.999672 
1.255095e+3, 2.2452348e+2, -691659.3, -951852.56, -75039.19, 0.028398626, 0.15205382, -671569.4, 68116.664, 0.0, 10.001302, 9.997873 
1.2551309e+3, 2.3452221e+2, -727253.5, -917355.25, -60913.26, -0.047149196, 0.22966051, -709410.2, -67706.17, 0.0, 10.000375, 9.997886 
1.255167e+3, 2.4452084e+2, -525363.1, -576441.8, -42775.934, -0.09213137, 0.23363088, -501082.4, 42633.24, 0.0, 10.000262, 9.999606 
1.2552033e+3, 2.5451925e+2, -282118.8, -390324.9, 11480.477, -0.107796565, 0.09233296, -280914.2, 164806.77, 0.0, 10.001183, 9.999766 
1.2552401e+3, 2.6451707e+2, -348402.5, -808976.75, -17816.861, -0.06592206, 0.09325021, -347714.3, 28.022808, 0.00000007625481, 10.001947, 9.995847 
1.2552774e+3, 2.7451423e+2, -166160.89, -684535.3, -74315.83, 0.047977634, 0.22871429, -155717.14, 94065.29, 0.0000061180435, 10.002582, 9.995726 
1.2553138e+3, 2.8451133e+2, 149131.03, -285589.84, -88021.37, 0.054169223, 0.29555818, 166277.14, 318090.47, 0.00004818149, 10.003228, 9.997481 
1.255349e+3, 2.9450792e+2, 344831.9, -123031.445, -50198.54, -0.06248097, 0.18072614, 350157.28, 403994.88, 0.00017152917, 10.00382, 9.99764 
1.2553862e+3, 3.0450302e+2, 287640.16, -304538.28, 1812.3445, -0.0789194, 0.016719304, 287645.7, 287645.7, 0.00040416775, 10.0038595, 9.996043 
1.2554237e+3, 3.1450063e+2, 315597.8, -87222.35, -17554.857, -0.07062725, 0.15616174, 316361.4, 316361.4, 0.00072657113, 10.003158, 9.9978695 
1.2647218e+3, 1.2448547e+2, -2133078.0, -1729300.1, -136051.9, -0.37602797, 0.2817447, -1687736.4, 32329.184, 0.004085261, 9.996317, 10.001657 
1.2647656e+3, 1.3448621e+2, -2156718.8, -1711586.1, 57812.83, 0.30232772, 0.20362185, -1704200.0, -82145.12, 0.0022650692, 9.995554, 10.001496 
1.2648004e+3, 1.4448668e+2, -2013187.9, -1636596.9, -90795.62, 0.16000861, 0.12733315, -1615849.3, -91801.53, 0.00085386867, 9.996071, 10.001079 
1.264832e+3, 1.544877e+2, -1571009.8, -1363713.6, -127889.734, 0.053529613, 0.11027985, -1302744.9, 123291.625, 0.00015477135, 9.9984045, 10.001146 
1.2648675e+3, 1.6448848e+2, -1356953.4, -1316238.1, 104184.53, 0.05474494, 0.12972912, -1230440.9, 97587.94, 0.0000038088367, 9.99965, 10.000201 
1.2649079e+3, 1.7448899e+2, -1256838.3, -1209348.5, 88344.71, 0.16892056, 0.1494668, -1141613.3, 88411.91, 0.0, 9.999636, 10.000267 
1.2649465e+3, 1.8448919e+2, -1196451.0, -1203111.5, 60506.176, 0.15871657, 0.18167925, -1139183.5, -7158.745, 0.0, 9.999685, 9.999619 
1.2649834e+3, 1.9448882e+2, -1076233.9, -1085922.3, 80852.65, 0.009158184, 0.17363063, -1000080.44, 33948.875, 0.0, 9.999805, 9.999689 
1.2650207e+3, 2.0448826e+2, -995234.9, -1056134.1, 57018.637, -0.046602678, 0.18347959, -961044.7, -25009.523, 0.0, 9.999946, 9.999154 
1.2650587e+3, 2.1448733e+2, -875557.25, -941168.6, 23227.86, 0.0011583552, 0.16225271, -868166.6, -30122.871, 0.0, 10.000066, 9.999212 
1.2650956e+3, 2.2448625e+2, -786348.7, -938454.25, -3217.201, 0.012297222, 0.18348241, -786280.6, -46226.414, 0.0, 10.000396, 9.998403 
1.2651318e+3, 2.3448505e+2, -604966.94, -791608.8, 24326.242, -0.012865966, 0.21042146, -601848.44, 40218.266, 0.0, 10.000936, 9.998477 
1.2651682e+3, 2.444837e+2, -410426.22, -561197.94, 34256.582, -0.03797789, 0.1998347, -403007.84, 141069.28, 0.0, 10.001224, 9.999246 
1.265205e+3, 2.54482e+2, -309556.03, -450464.56, -47911.684, -0.06469236, 0.088338055, -294808.6, 151278.23, 0.0, 10.001193, 9.999348 
1.2652422e+3, 2.6447985e+2, -340732.72, -764188.5, -40204.57, -0.035715975, 0.101938285, -336949.34, 11158.427, 0.00000015326442, 10.001814, 9.996224 
1.2652802e+3, 2.7447727e+2, -53589.082, -580849.0, 44601.266, 0.061206836, 0.21924189, -49842.85, 200299.17, 0.000006713193, 10.003138, 9.996171 
1.2653172e+3, 2.844742e+2, 213023.17, -269752.72, 72982.9, 0.06346048, 0.24859962, 223815.0, 375988.16, 0.000050966704, 10.0037365, 9.997339 
1.265353e+3, 2.944702e+2, 296763.16, -165772.34, 31713.201, -0.043321904, 0.0920782, 298927.4, 353131.3, 0.00018813205, 10.003582, 9.997455 
1.2653899e+3, 3.0446568e+2, 264074.22, -295890.25, 27700.102, -0.056521647, -0.033462062, 265441.13, 265441.13, 0.00045240932, 10.003613, 9.996222 
1.2654276e+3, 3.1446347e+2, 424399.97, 11599.444, -68835.24, -0.009261658, 0.10739522, 435575.8, 435575.8, 0.0008183536, 10.003703, 9.998286 
1.2747216e+3, 1.24447756e+2, -2095547.5, -1655859.6, -104229.12, -0.039808117, 0.17741363, -1632403.1, 88027.195, 0.0044096503, 9.996338, 10.002149 
1.27476e+3, 1.3444982e+2, -2148027.0, -1681147.8, 25484.701, 0.1994394, 0.20948462, -1679760.8, -57351.906, 0.0024558255, 9.995493, 10.0017395 
1.2747926e+3, 1.4445087e+2, -2001693.3, -1602663.3, -12929.493, -0.23398104, 0.16160446, -1602244.8, -77847.91, 0.00093550276, 9.99603, 10.001329 
1.2748307e+3, 1.544517e+2, -1550099.8, -1334057.5, -29771.879, 0.064886674, 0.103512146, -1330029.9, 96355.76, 0.00017466526, 9.998455, 10.001331 
1.2748681e+3, 1.6445197e+2, -1385217.5, -1395557.3, 98059.49, 0.12593867, 0.09095857, -1292191.8, 36190.71, 0.0000047674703, 9.999734, 9.999618 
1.2749046e+3, 1.7445163e+2, -1294560.0, -1300379.5, 90404.34, -0.11969255, 0.08880374, -1207018.5, 23369.773, 0.0, 9.9996805, 9.999625 
1.2749426e+3, 1.8445198e+2, -1150788.0, -1107842.1, 59008.0, -0.20188701, 0.14159456, -1066521.5, 65864.51, 0.0, 9.999684, 10.000271 
1.2749824e+3, 1.944532e+2, -1026730.4, -981706.4, 91365.2, -0.07227768, 0.21640393, -910120.6, 124252.875, 0.0, 9.999794, 10.000412 
1.275021e+3, 2.0445317e+2, -1047810.6, -1152130.0, 53639.383, -0.0077101626, 0.27304414, -1025151.75, -88776.266, 0.0, 9.999888, 9.998524 
1.2750585e+3, 2.1445152e+2, -935692.9, -1046840.25, 32457.06, -0.0220026, 0.25034252, -926909.0, -88512.5, 0.0, 9.999984, 9.998527 
1.2750955e+3, 2.2444975e+2, -737613.4, -815619.75, 9607.728, -0.045290742, 0.19539367, -736447.44, 3965.482, 0.0, 10.000304, 9.99929 
1.2751321e+3, 2.3444784e+2, -546213.8, -656915.0, 51040.574, -0.08229854, 0.05419777, -526272.75, 116151.016, 0.0, 10.000877, 9.999431 
1.2751693e+3, 2.4444604e+2, -555322.44, -846536.9, 26176.441, -0.047899093, 0.04274996, -552988.2, -8549.372, 0.0, 10.001159, 9.997317 
1.2752075e+3, 2.5444436e+2, -460067.75, -751312.1, -41556.805, 0.077959254, 0.13512094, -454254.2, -7794.3467, 0.0, 10.001142, 9.997306 
1.2752455e+3, 2.644423e+2, -195187.16, -448421.66, 1687.6832, 0.10313974, 0.15853907, -195175.9, 153303.95, 0.00000020123079, 10.001754, 9.998422 
1.2752827e+3, 2.7443966e+2, 100764.06, -237616.34, 100218.36, -0.0059734276, 0.032408338, 128218.32, 378718.25, 0.0000075115454, 10.003042, 9.998573 
1.2753198e+3, 2.844371e+2, 143300.8, -395389.4, 57210.043, -0.06162819, 0.025675284, 149309.6, 301832.06, 0.000055155855, 10.003653, 9.996515 
1.2753566e+3, 2.9443452e+2, 216191.83, -315773.94, 33761.93, -0.040178657, 0.104444884, 218326.0, 272874.88, 0.00020861672, 10.003506, 9.99646 
1.2753941e+3, 3.0443072e+2, 226518.63, -368097.38, 28020.375, -0.0067725326, 0.12881328, 227836.13, 227836.13, 0.00051069446, 10.003588, 9.995737 
1.2754315e+3, 3.1442663e+2, 389835.84, -43640.95, -49232.12, -0.0072819637, 0.11949277, 395357.06, 395357.06, 0.0009332278, 10.003648, 9.997927 
1.28472e+3, 1.2441038e+2, -1933472.6, -1625151.6, 2040.2231, 0.10079661, 0.076554194, -1625138.1, 95651.42, 0.0047468157, 9.99763, 10.001753 
1.284756e+3, 1.3441251e+2, -1971209.8, -1647173.5, -46090.938, 0.18937817, 0.16321015, -1640745.1, -17974.451, 0.0026545508, 9.996933, 10.001273 
1.284788e+3, 1.4441366e+2, -1857141.3, -1568089.9, -13644.48, -0.34991825, 0.16661063, -1567447.3, -42687.258, 0.0010215283, 9.997174, 10.001015 
1.284829e+3, 1.5441455e+2, -1487454.1, -1333832.0, -77591.3, 0.032527104, 0.14617844, -1301462.8, 125287.8, 0.00019628371, 9.999023, 10.001052 
1.2848677e+3, 1.6441472e+2, -1397578.3, -1398552.5, -28893.57, 0.13046214, 0.13712694, -1369167.6, -40418.79, 0.0000059623408, 9.999631, 9.999654 
1.2849034e+3, 1.7441407e+2, -1445532.4, -1363559.6, 292.081, -0.1454841, 0.099125095, -1363558.6, -132802.53, 0.0, 9.99861, 9.999708 
1.2849414e+3, 1.844143e+2, -1320416.1, -1163788.3, 30487.016, -0.22570388, 0.12440725, -1158063.3, -25309.678, 0.0, 9.998408, 10.000503 
1.284982e+3, 1.9441554e+2, -1077560.6, -978355.94, 16489.656, -0.059283577, 0.18018137, -975686.9, 59052.777, 0.0, 9.99933, 10.000657 
1.2850212e+3, 2.0441568e+2, -1025756.94, -1149726.9, -17923.545, 0.008118918, 0.24314344, -1023217.56, -86477.15, 0.0, 10.000075, 9.998451 
1.2850584e+3, 2.1441425e+2, -865859.7, -1023295.9, -7222.5103, -0.045587745, 0.25421214, -865529.0, -26768.322, 0.0, 10.000505, 9.998438 
1.2850957e+3, 2.2441268e+2, -642342.9, -763817.1, -17075.293, -0.07051908, 0.21987866, -639988.25, 100787.95, 0.0, 10.000936, 9.999339 
1.2851334e+3, 2.3441087e+2, -469259.84, -612635.44, -56812.13, -0.06387969, 0.0866534, -449477.63, 193308.17, 0.0, 10.001381, 9.999489 
1.285171e+3, 2.444089e+2, -483011.44, -861677.06, -60706.953, -0.016992334, 0.076881446, -473517.1, 71286.25, 0.0, 10.0018635, 9.996878 
1.2852092e+3, 2.544067e+2, -318338.0, -735309.56, -28195.39, 0.08268964, 0.1651323, -316440.06, 130391.13, 0.0, 10.00234, 9.9968405 
1.2852475e+3, 2.6440436e+2, -52068.133, -326014.2, 39742.105, 0.10854265, 0.16301802, -46419.12, 302433.7, 0.00000014147287, 10.002515, 9.998889 
1.2852858e+3, 2.7440178e+2, 38974.42, -209301.47, -12064.718, 0.03780414, -0.009639035, 39559.316, 290427.2, 0.00000765521, 10.002372, 9.999086 
1.2853234e+3, 2.8439945e+2, 42326.285, -410196.9, -73606.49, -0.009894336, -0.03161068, 53997.926, 206884.33, 0.00005963982, 10.002812, 9.996822 
1.2853603e+3, 2.9439738e+2, 291219.63, -247708.33, -29720.436, -0.017668845, 0.07032085, 292853.7, 347763.56, 0.00023270557, 10.0038805, 9.996751 
1.2853982e+3, 3.0439425e+2, 395064.03, -295651.2, 40426.81, -0.01008468, 0.15363345, 397422.13, 397422.13, 0.0005779804, 10.004795, 9.995649 
1.2854363e+3, 3.143895e+2, 656250.56, 58801.35, -45938.047, 0.006021576, 0.08752509, 659762.1, 659762.1, 0.001064929, 10.005583, 9.997704 
1.2947157e+3, 1.2437344e+2, -2021027.8, -1813344.8, 64588.71, -0.11401041, -0.03319636, -1794896.6, -73754.625, 0.0050962004, 9.997665, 10.00044 
1.2947536e+3, 1.3437414e+2, -2063119.9, -1844187.3, -73439.31, 0.23037097, 0.046999536, -1821834.8, -198693.94, 0.0028611089, 9.996964, 9.999907 
1.2947865e+3, 1.4437489e+2, -1914247.0, -1695861.5, 37508.113, -0.22169502, 0.12683646, -1689599.0, -164460.0, 0.00111182, 9.997212, 10.000119 
1.2948267e+3, 1.5437631e+2, -1542913.9, -1458425.3, -3858.2031, -0.10137277, 0.2457532, -1458249.4, -31118.35, 0.000219555, 9.999053, 10.000188 
1.294866e+3, 1.6437677e+2, -1344810.6, -1290520.1, -70981.17, 0.00000029104578, 0.27542934, -1241670.8, 87457.47, 0.0000074533, 9.9996395, 10.000387 
1.294904e+3, 1.7437632e+2, -1388887.5, -1247474.0, -35585.76, 0.051050205, 0.1753225, -1239024.0, -7895.599, 0.0, 9.998612, 10.000503 
1.2949426e+3, 1.8437612e+2, -1336062.9, -1193655.6, 53821.59, 0.051241163, 0.123947464, -1175602.8, -42475.36, 0.0, 9.998396, 10.000305 
1.294982e+3, 1.9437595e+2, -1097618.6, -1017493.3, 57651.55, 0.002494019, 0.06375427, -987351.2, 47776.098, 0.0, 9.999312, 10.000401 
1.2950206e+3, 2.0437574e+2, -1002005.1, -1086804.0, -5923.3438, -0.053137586, 0.084762216, -1001593.4, -64463.19, 0.0, 10.000019, 9.998909 
1.2950581e+3, 2.1437554e+2, -841909.1, -958376.5, 14348.09, -0.11786758, 0.16651309, -840167.56, -1031.1509, 0.0, 10.000439, 9.998916 
1.2950961e+3, 2.2437502e+2, -711095.3, -886630.8, -6370.1025, -0.113570176, 0.25502053, -710864.44, 30279.203, 0.0, 10.000852, 9.998536 
1.2951352e+3, 2.343741e+2, -540872.56, -742311.6, -31542.363, -0.018615887, 0.294079, -536049.0, 107103.73, 0.0, 10.001296, 9.99864 
1.2951732e+3, 2.4437222e+2, -432529.16, -731400.4, -49069.21, -0.0032063883, 0.29313466, -424679.06, 120491.555, 0.0, 10.001759, 9.99782 
1.29521e+3, 2.5436905e+2, -259187.89, -591213.1, -3216.067, -0.08846777, 0.1823461, -259156.73, 188043.97, 0.0, 10.0022545, 9.9978695 
1.2952484e+3, 2.6436612e+2, -139587.7, -498030.34, 28641.336, -0.056262325, 0.11998791, -137313.55, 211912.7, 0.000000052184554, 10.002462, 9.997739 
1.2952891e+3, 2.7436355e+2, -54312.695, -392487.72, -6684.9346, 0.12013911, 0.07509927, -54180.598, 197064.53, 0.000006761853, 10.002319, 9.997858 
1.2953277e+3, 2.8436127e+2, 118953.71, -234238.34, -40352.48, 0.13935548, 0.061084826, 123505.36, 276769.0, 0.000062792315, 10.002737, 9.998069 
1.2953642e+3, 2.9435903e+2, 368784.28, -59017.1, 17904.873, -0.037247237, 0.01151249, 369532.34, 424816.22, 0.00025880188, 10.003761, 9.998106 
1.295402e+3, 3.043566e+2, 386224.9, -276578.3, 60365.5, -0.11806068, 0.078150816, 391677.9, 391677.9, 0.0006521243, 10.0046425, 9.9958515 
1.2954412e+3, 3.1435207e+2, 604811.3, 20914.137, -125.550385, -0.06573485, 0.020208003, 604811.4, 604811.4, 0.0012076992, 10.005302, 9.997571 
1.3047121e+3, 1.2433531e+2, -2268271.8, -1911173.3, 7045.589, -0.13053581, -0.04417239, -1911034.3, -189520.34, 0.0054552136, 9.995875, 10.00063 
1.304751e+3, 1.3433585e+2, -1889026.3, -1718493.0, -94631.56, 0.23437148, -0.011747076, -1676380.1, -52868.023, 0.003073975, 9.997993, 10.000265 
1.3047856e+3, 1.4433661e+2, -1738996.0, -1665499.3, 111745.72, -0.09341652, 0.07032709, -1584614.5, -59104.402, 0.0012055306, 9.998638, 9.999646 
1.3048245e+3, 1.5433773e+2, -1811322.4, -1643792.5, 85844.7, -0.15010758, 0.21142699, -1607616.3, -180109.0, 0.000244213, 9.997458, 9.999683 
1.3048638e+3, 1.643382e+2, -1602610.9, -1399605.0, 34764.43, -0.09192878, 0.26116568, -1393816.6, -64311.336, 0.000009295233, 9.997814, 10.000518 
1.3049036e+3, 1.7433803e+2, -1133389.3, -1104186.1, 7997.4014, 0.077795655, 0.17210054, -1102139.4, 129362.62, 0.0, 10.000288, 10.000678 
1.3049428e+3, 1.8433769e+2, -964652.75, -1089091.4, 39521.207, 0.111557975, 0.13025199, -953162.0, 180341.27, 0.0, 10.001263, 9.999642 
1.3049813e+3, 1.9433694e+2, -1016572.44, -1057643.9, -8010.426, -0.023592204, 0.082465604, -1015065.4, 20446.885, 0.0, 10.000216, 9.999686 
1.30502e+3, 2.0433643e+2, -946281.9, -984126.1, -41788.645, -0.1063902, 0.08278075, -919330.94, 18186.574, 0.0, 10.000077, 9.999585 
1.3050589e+3, 2.1433637e+2, -682060.5, -791159.0, -9595.736, -0.12062167, 0.10037465, -681222.94, 158294.16, 0.0, 10.00116, 9.999712 
1.3050978e+3, 2.2433607e+2, -621310.44, -900819.44, -18275.559, -0.07771926, 0.19072495, -620120.56, 121400.91, 0.0, 10.001707, 9.998029 
1.305137e+3, 2.3433541e+2, -555330.25, -816866.25, -39699.402, 0.03867603, 0.31451714, -549436.94, 94096.11, 0.0, 10.001483, 9.998038 
1.3051753e+3, 2.4433361e+2, -437141.38, -698034.2, -41115.69, 0.052331895, 0.337709, -430815.13, 114736.805, 0.0, 10.001573, 9.998139 
1.3052122e+3, 2.5433028e+2, -252765.86, -547325.6, -56541.082, -0.062712975, 0.17598552, -242285.63, 205295.28, 0.0, 10.002114, 9.998241 
1.305251e+3, 2.6432735e+2, -132465.73, -511322.22, -16686.928, -0.05215324, 0.1029051, -131732.17, 217873.31, 0.000000019202236, 10.002591, 9.997582 
1.3052915e+3, 2.743249e+2, 36228.074, -372433.75, 4280.005, 0.11021079, 0.08520119, 36272.895, 287897.75, 0.0000058574187, 10.00304, 9.99765 
1.3053307e+3, 2.8432235e+2, 160301.08, -229052.03, -14196.1045, 0.15545988, 0.06548105, 160818.0, 314464.53, 0.00006594774, 10.003087, 9.997932 
1.3053681e+3, 2.9431975e+2, 205219.03, -151311.1, -76846.15, 0.057738733, -0.007636587, 221077.03, 276748.34, 0.0002848005, 10.002697, 9.997981 
1.3054064e+3, 3.0431777e+2, 183268.55, -272672.4, -33582.875, -0.032710813, 0.0696794, 185728.86, 185728.86, 0.0007259323, 10.002781, 9.996788 
1.3054457e+3, 3.14314e+2, 371189.38, -24909.979, -62946.137, -0.04672239, -0.009561017, 380951.88, 380951.88, 0.0013503745, 10.003376, 9.998199 
1.3147089e+3, 1.2429568e+2, -2138929.5, -1639191.9, 90717.086, -0.06477019, 0.01637776, -1623233.6, 98676.01, 0.005819013, 9.995847, 10.002519 
1.3147482e+3, 1.3429776e+2, -1731981.3, -1404494.8, -8939.248, 0.15025394, -0.007625696, -1404250.9, 219632.89, 0.0032902497, 9.998032, 10.002412 
1.3147849e+3, 1.4429899e+2, -1725868.6, -1646279.9, 65749.05, -0.030866738, -0.0021479474, -1609220.4, -83349.15, 0.0013013786, 9.99868, 9.999755 
1.3148218e+3, 1.5429892e+2, -1824463.8, -1666205.4, 45099.28, -0.1594289, 0.03174633, -1654255.6, -226377.95, 0.00026992275, 9.9974375, 9.999541 
1.3148607e+3, 1.6429897e+2, -1642859.6, -1479342.4, 113570.9, -0.18816948, 0.07486576, -1421162.4, -91282.37, 0.00001153221, 9.997791, 9.999985 
1.3149022e+3, 1.7429921e+2, -1165188.9, -1179018.1, 109277.02, -0.11439281, 0.07879883, -1062607.9, 169268.7, 0.0, 10.000317, 10.0001545 
1.3149421e+3, 1.8429908e+2, -1045614.8, -1259103.8, 1722.7915, -0.10750881, 0.14115968, -1045600.94, 88279.82, 0.0, 10.001274, 9.998468 
1.31498e+3, 1.9429848e+2, -1105661.9, -1239724.8, -44571.3, -0.18790808, 0.23102891, -1092196.0, -56301.08, 0.0, 10.000199, 9.998446 
1.3150191e+3, 2.0429775e+2, -890684.2, -855282.25, -13725.586, -0.19853683, 0.23027399, -850584.2, 87318.65, 0.0, 10.000019, 10.000497 
1.3150601e+3, 2.1429677e+2, -618083.9, -641788.44, 37938.125, -0.10857163, 0.05057739, -590189.75, 249713.11, 0.0, 10.001082, 10.000778 
1.3151e+3, 2.2429584e+2, -651486.8, -938758.44, -29772.354, -0.024514709, 0.030427441, -648433.75, 93475.76, 0.0, 10.001603, 9.997818 
1.3151386e+3, 2.3429492e+2, -589777.1, -871613.0, -39991.918, 0.052670993, 0.1619267, -584212.25, 59713.42, 0.0, 10.0014105, 9.997699 
1.3151772e+3, 2.442932e+2, -466294.53, -744719.75, -28014.932, 0.0927201, 0.22662164, -463503.7, 82442.18, 0.0, 10.001511, 9.99785 
1.315216e+3, 2.5429055e+2, -281021.8, -588946.0, -26569.244, 0.088971026, 0.15658051, -278746.1, 169224.08, 0.0, 10.002038, 9.997994 
1.3152546e+3, 2.6428813e+2, -97472.17, -418851.66, -5612.582, 0.050031338, 0.11521367, -97374.18, 252615.9, 0.000000054232096, 10.002504, 9.99826 
1.3152932e+3, 2.742858e+2, 69758.664, -273400.97, 30242.066, -0.036550157, 0.03726526, 72403.46, 324410.0, 0.0000056747863, 10.002924, 9.998382 
1.3153324e+3, 2.842829e+2, 60514.996, -427728.75, -31846.697, 0.0004927203, 0.0071181064, 62583.5, 216616.6, 0.00007077781, 10.0030365, 9.9966 
1.3153723e+3, 2.9427958e+2, 99852.984, -365534.2, -74906.0, 0.19407438, 0.004475801, 111612.29, 167682.89, 0.00031030868, 10.002668, 9.996531 
1.3154112e+3, 3.042779e+2, 287410.2, -48908.836, -11390.39, 0.15848212, 0.11638045, 287795.53, 287795.53, 0.0007942307, 10.002761, 9.998329 
1.315449e+3, 3.142756e+2, 427347.75, 148040.8, -19848.846, -0.06787418, 0.015645241, 428751.25, 428751.25, 0.0014811744, 10.003161, 9.999483 
1.3247065e+3, 1.2425676e+2, -2041408.3, -1585680.5, 213371.42, 0.10838053, 0.046295896, -1501375.6, 220918.17, 0.006183249, 9.996466, 10.002604 
1.3247444e+3, 1.3425948e+2, -1919625.4, -1470350.8, -33182.414, 0.04455314, 0.068477646, -1467913.3, 156348.28, 0.0035072896, 9.99666, 10.002606 
1.324783e+3, 1.442607e+2, -1890239.8, -1696063.1, -61388.58, -0.02911876, 0.05357275, -1678283.3, -152036.19, 0.0013982238, 9.997427, 10.000016 
1.3248205e+3, 1.5425995e+2, -1559843.3, -1510163.4, -68197.69, -0.10289016, -0.00740504, -1462422.6, -34166.344, 0.00029637254, 9.999129, 9.999797 
1.3248597e+3, 1.6425945e+2, -1418593.4, -1429263.9, 45907.742, -0.13960856, -0.008125956, -1377711.9, -47448.945, 0.000014169166, 9.999583, 9.999459 
1.3249007e+3, 1.7425929e+2, -1501476.5, -1407421.3, 24700.293, -0.16761756, 0.01613056, -1401329.3, -169063.2, 0.0, 9.9983015, 9.999552 
1.3249409e+3, 1.8425933e+2, -1456575.4, -1413557.1, -29981.318, -0.19602692, 0.10929763, -1398167.4, -263897.84, 0.0, 9.998272, 9.998853 
1.3249797e+3, 1.9425963e+2, -1100139.6, -1183594.3, 38264.34, -0.22143483, 0.24265172, -1085251.4, -48977.652, 0.0, 10.000014, 9.998917 
1.3250196e+3, 2.042592e+2, -813205.4, -864351.75, 98978.44, -0.19437584, 0.26649013, -736549.8, 201728.77, 0.0, 10.000747, 10.000086 
1.3250607e+3, 2.1425779e+2, -802585.4, -785190.94, 20066.143, -0.096112765, 0.09211676, -772018.3, 68266.56, 0.0, 10.000048, 10.000294 
1.325101e+3, 2.2425638e+2, -817678.56, -977199.9, -60108.82, -0.020777054, 0.03270984, -797565.1, -55269.027, 0.0, 10.0002985, 9.998177 
1.3251399e+3, 2.342549e+2, -489610.47, -770918.9, -29683.31, 0.023112323, 0.06627245, -486512.44, 157801.78, 0.0, 10.001892, 9.99815 
1.3251792e+3, 2.4425328e+2, -283153.53, -665392.2, 16935.73, 0.07945079, 0.1206111, -282404.63, 263927.78, 0.0, 10.002802, 9.997774 
1.3252188e+3, 2.542516e+2, -184178.47, -552626.9, 13274.93, 0.14987686, 0.15774795, -183700.8, 264649.0, 0.0, 10.002752, 9.997896 
1.3252579e+3, 2.6424962e+2, -99921.44, -437632.94, 17986.322, 0.12742278, 0.17282452, -98966.195, 251401.75, 0.00000008813443, 10.002563, 9.998105 
1.3252957e+3, 2.74247e+2, -43954.523, -346626.28, -24645.578, -0.019730266, 0.080213994, -41960.848, 210429.3, 0.000005758402, 10.0022135, 9.998227 
1.325335e+3, 2.842441e+2, 13238.642, -415472.56, -34051.19, -0.00017387312, 0.044314817, 15926.371, 170343.94, 0.000075127005, 10.002573, 9.996902 
1.3253759e+3, 2.9424116e+2, 326365.53, -215311.02, 27642.324, 0.22286394, 0.04990075, 327772.5, 384222.03, 0.00033055196, 10.004049, 9.996895 
1.325415e+3, 3.0423954e+2, 511633.16, 42145.293, 88564.11, 0.19130316, 0.15120524, 527784.25, 527784.25, 0.00084905094, 10.004388, 9.998169 
1.3254525e+3, 3.142375e+2, 391645.78, 65438.15, -81438.4, -0.0068187704, 0.09975624, 410846.84, 410846.84, 0.0015862066, 10.003177, 9.998917 
1.3347045e+3, 1.24218754e+2, -2164166.3, -1846656.4, 146683.56, 0.23281968, 0.035786964, -1789265.1, -66601.4, 0.0065457188, 9.996506, 10.000781 
1.3347393e+3, 1.3422112e+2, -2066401.4, -1765284.6, -27572.727, -0.13237514, 0.22249073, -1762780.6, -138136.14, 0.0037237175, 9.996624, 10.000596 
1.3347791e+3, 1.4422171e+2, -1860518.3, -1629393.1, -10127.582, -0.14881349, 0.2312177, -1628950.3, -102310.9, 0.0014951822, 9.997398, 10.000492 
1.3348205e+3, 1.5422094e+2, -1502355.1, -1404278.0, 4839.583, -0.029804748, 0.09838788, -1404039.8, 24603.316, 0.00032323142, 9.999175, 10.000506 
1.3348608e+3, 1.6421977e+2, -1456285.4, -1512870.3, -3827.1794, 0.0064899744, 0.021350306, -1456027.6, -125374.305, 0.000017128494, 9.999607, 9.998875 
1.3348995e+3, 1.7421834e+2, -1552895.6, -1509901.6, -21747.494, -0.123394296, -0.012315468, -1500819.6, -268149.72, 0.00000000003443261, 9.998282, 9.9988575 
1.3349392e+3, 1.8421842e+2, -1321948.0, -1131686.9, 19638.375, -0.19921935, 0.031790823, -1129680.9, 4989.0273, 0.0, 9.998255, 10.000797 
1.3349803e+3, 1.9422035e+2, -949403.7, -868025.6, 110651.234, -0.17265496, 0.11197397, -790819.4, 245829.33, 0.0, 9.999993, 10.001096 
1.3350208e+3, 2.0422089e+2, -942465.94, -1117187.0, 71000.14, -0.1456604, 0.19285929, -917252.56, 21391.564, 0.0, 10.000681, 9.998382 
1.3350604e+3, 2.1421951e+2, -958044.3, -1090531.1, -868.59125, -0.12679575, 0.22341835, -958038.6, -117376.03, 0.0, 9.999968, 9.99824 
1.3351004e+3, 2.2421764e+2, -767715.9, -854489.0, -11384.167, -0.11547768, 0.18914077, -766247.2, -23565.633, 0.0, 10.000212, 9.9990635 
1.3351406e+3, 2.342152e+2, -422219.38, -613419.94, 38386.195, -0.100966565, 0.014867369, -414800.66, 229899.56, 0.0, 10.001809, 9.999276 
1.3351808e+3, 2.4421367e+2, -288127.2, -652598.25, 11516.384, -0.046554957, 0.01067245, -287763.66, 258950.06, 0.0, 10.002704, 9.997908 
1.3352208e+3, 2.542134e+2, -195172.75, -555548.06, 16118.113, 0.06759983, 0.18437703, -194453.3, 254267.22, 0.0, 10.002667, 9.997916 
1.3352604e+3, 2.642118e+2, -172600.52, -576202.56, -822.55853, 0.12205332, 0.2799696, -172598.83, 178140.66, 0.00000008397673, 10.002503, 9.997184 
1.335299e+3, 2.7420834e+2, -124348.61, -495264.13, -26723.863, 0.09083093, 0.20302248, -122433.09, 130342.8, 0.0000056271715, 10.002133, 9.997246 
1.3353385e+3, 2.842057e+2, 119122.48, -180892.3, 8252.399, 0.07960864, 0.17002243, 119349.305, 274150.6, 0.000076498116, 10.002504, 9.9985485 
1.3353787e+3, 2.9420435e+2, 430726.2, 45293.855, 90318.99, 0.10391142, 0.14309382, 450841.03, 507651.63, 0.0003405089, 10.00386, 9.998778 
1.3354178e+3, 3.0420262e+2, 385816.03, -186419.11, 47298.22, 0.024962012, 0.20190717, 389699.13, 389699.13, 0.0008833286, 10.00425, 9.996661 
1.3354562e+3, 3.1419963e+2, 231203.7, -242713.7, -99379.695, 0.023304591, 0.23658317, 251199.77, 251199.77, 0.0016576452, 10.003078, 9.996843 
1.3447008e+3, 1.24180324e+2, -2146812.8, -1875585.6, 45813.652, 0.21139048, 0.081908405, -1868056.3, -145016.75, 0.0069055543, 9.996788, 10.000442 
1.3447365e+3, 1.3418147e+2, -1898457.6, -1736058.9, 42732.22, -0.14375015, 0.19259876, -1725501.1, -100468.92, 0.0039389143, 9.998, 10.000134 
1.3447776e+3, 1.4418142e+2, -1698877.3, -1604881.6, 115089.62, -0.11001248, 0.18258883, -1527563.6, -529.3245, 0.0015916337, 9.998746, 10.000004 
1.3448201e+3, 1.5418096e+2, -1549946.4, -1479806.1, 25511.516, 0.026796782, 0.13026056, -1471508.6, -42471.28, 0.0003501717, 9.999096, 10.000014 
1.344861e+3, 1.641801e+2, -1455032.0, -1491022.1, -43432.527, 0.0711063, 0.101642504, -1426014.3, -94968.734, 0.000020254476, 9.999526, 9.999064 
1.3448992e+3, 1.7417884e+2, -1278070.1, -1348769.8, -6675.699, -0.07425669, 0.060068768, -1277445.3, -44386.13, 0.0000000014653116, 10.000047, 9.999115 
1.3449386e+3, 1.8417859e+2, -1082824.3, -1014505.6, 44430.926, -0.15472989, 0.058305394, -992620.6, 142440.0, 0.0, 9.99989, 10.000813 
1.34498e+3, 1.9417961e+2, -1121723.8, -952807.7, -42789.703, -0.12794329, 0.050221052, -942586.7, 94459.99, 0.0, 9.998825, 10.001075 
1.3450207e+3, 2.0417997e+2, -1222456.9, -1244178.4, -100554.41, -0.112023115, 0.11433916, -1132178.4, -193134.97, 0.0, 9.998727, 9.998451 
1.3450605e+3, 2.1417943e+2, -953862.6, -1070927.1, -30825.143, -0.11777008, 0.21868485, -946241.94, -105187.34, 0.0, 9.999937, 9.998379 
1.3451008e+3, 2.241779e+2, -679928.56, -809340.5, 54599.92, -0.10635004, 0.20814018, -659970.44, 83099.9, 0.0, 10.000789, 9.9991 
1.3451423e+3, 2.3417509e+2, -514441.0, -653738.0, 17476.127, -0.06431334, -0.009165794, -512281.94, 132809.86, 0.0, 10.00115, 9.999318 
1.3451831e+3, 2.4417353e+2, -455692.38, -712961.6, -66692.05, -0.0137162665, -0.026085444, -439431.53, 107673.91, 0.0, 10.00148, 9.998079 
1.3452226e+3, 2.541736e+2, -309961.9, -588892.1, -68642.11, 0.04514773, 0.16879037, -293984.88, 155124.33, 0.0, 10.001797, 9.998106 
1.3452624e+3, 2.6417226e+2, -224776.16, -588760.3, -37515.883, 0.10120186, 0.27297148, -220949.63, 130177.19, 0.00000006157407, 10.002099, 9.997288 
1.3453019e+3, 2.741688e+2, -65072.492, -453799.47, -5739.9863, 0.15206483, 0.18661587, -64987.754, 188176.25, 0.0000055913592, 10.002486, 9.9973545 
1.3453415e+3, 2.841665e+2, 122775.26, -170669.67, 51434.543, 0.13987401, 0.17723714, 131529.45, 286716.3, 0.00007685254, 10.002495, 9.998623 
1.3453808e+3, 2.941659e+2, 177632.69, -59739.92, -8222.13, 0.03385906, 0.22190756, 177917.14, 235105.89, 0.0003442985, 10.002051, 9.998924 
1.3454202e+3, 3.041638e+2, 164107.06, -299554.25, -52075.44, -0.059613455, 0.23657104, 169883.86, 169883.86, 0.0009006813, 10.002727, 9.996632 
1.3454615e+3, 3.1416065e+2, 492023.6, -116851.01, -98251.63, 0.152368, 0.2530583, 507485.44, 507485.44, 0.0016985858, 10.004873, 9.996838 
1.3546948e+3, 1.2414144e+2, -2057730.4, -1686600.5, 9546.341, -0.09127457, 0.17392418, -1686355.1, 37066.45, 0.0072628423, 9.996786, 10.001736 
1.3547356e+3, 1.341405e+2, -1804348.4, -1547130.8, 94975.46, -0.028097184, -0.055886235, -1515862.9, 109561.43, 0.004152666, 9.998032, 10.001416 
1.354778e+3, 1.4413987e+2, -1807242.4, -1839877.1, 125160.92, 0.04625982, -0.11216653, -1697339.6, -169909.16, 0.0016872559, 9.998783, 9.998378 
1.3548191e+3, 1.5414011e+2, -1675631.3, -1748849.8, 44447.11, 0.008733607, 0.08930792, -1654657.6, -225219.44, 0.0003769789, 9.999121, 9.998162 
1.3548598e+3, 1.6414037e+2, -1381592.9, -1342479.3, -31918.7, -0.008674629, 0.22635584, -1324602.5, 6837.6235, 0.000023370363, 9.999539, 10.00008 
1.3548993e+3, 1.7414075e+2, -1187974.8, -1164819.0, 19975.54, -0.06660238, 0.2213208, -1153308.6, 80125.016, 0.0000000068048798, 10.000053, 10.000378 
1.3549389e+3, 1.8413997e+2, -1221358.3, -1304114.4, 2049.2754, -0.12256551, 0.19104001, -1221307.6, -85867.305, 0.0, 9.999897, 9.998821 
1.3549787e+3, 1.9413754e+2, -1283609.5, -1287269.9, -77944.484, -0.14853711, 0.06403765, -1207473.8, -170007.36, 0.0, 9.998811, 9.998789 
1.355019e+3, 2.0413652e+2, -1101633.5, -984310.56, -69424.625, -0.14945664, 0.030433387, -952082.25, -12606.252, 0.0, 9.998684, 10.0002575 
1.3550603e+3, 2.1413752e+2, -810036.9, -759648.94, 20286.414, -0.11960342, 0.07491413, -752496.7, 88964.914, 0.0, 9.999873, 10.000551 
1.3551022e+3, 2.241371e+2, -743127.5, -916809.0, 61091.363, -0.050074395, 0.088708766, -723791.7, 19671.63, 0.0, 10.000692, 9.998407 
1.3551448e+3, 2.3413464e+2, -595549.44, -802311.9, 36546.727, 0.07567159, 0.0030679705, -589279.7, 56208.117, 0.0, 10.001065, 9.99834 
1.355186e+3, 2.4413297e+2, -453766.97, -689585.44, -59557.234, 0.11767852, 0.018283902, -439579.06, 107926.78, 0.0, 10.001392, 9.998284 
1.3552244e+3, 2.5413236e+2, -301471.8, -550535.9, -48008.934, 0.03293393, 0.11359284, -292538.16, 156976.6, 0.0, 10.001705, 9.998415 
1.3552637e+3, 2.6413098e+2, -166687.88, -451432.16, -30412.672, 0.016916493, 0.15375699, -163475.83, 188054.31, 0.000000036385206, 10.002025, 9.998268 
1.3553041e+3, 2.741284e+2, -7219.38, -308943.3, 15966.009, 0.116737895, 0.05451982, -6376.876, 247177.75, 0.000005925218, 10.002381, 9.998401 
1.3553438e+3, 2.8412664e+2, 26143.586, -362758.78, 29492.828, 0.115574814, 0.09772878, 28367.488, 183940.69, 0.00007723303, 10.002455, 9.997323 
1.3553822e+3, 2.941259e+2, 64531.047, -290251.3, -12372.882, -0.05146581, 0.27898288, 64962.02, 122545.93, 0.00034440673, 10.0020275, 9.997355 
1.3554223e+3, 3.041231e+2, 242157.33, -120170.47, 15848.922, -0.13031723, 0.25570726, 242849.27, 242849.27, 0.00090287765, 10.002671, 9.997881 
1.3554676e+3, 3.1412044e+2, 559683.06, 100984.89, 10305.672, 0.2557834, 0.17243585, 559914.5, 559914.5, 0.0017060507, 10.004564, 9.998477 
1.3646899e+3, 1.24100715e+2, -2109040.3, -1743174.6, 111.392784, -0.22416492, 0.15299164, -1743174.6, -19355.76, 0.0076198755, 9.996539, 10.001477 
1.3647349e+3, 1.340995e+2, -1756903.4, -1562060.1, -33858.223, 0.090695225, -0.073702626, -1556344.3, 69480.62, 0.004366158, 9.998492, 10.001101 
1.3647771e+3, 1.44099e+2, -1787865.0, -1827630.4, -64874.258, 0.09542807, -0.1003818, -1739895.0, -212064.28, 0.0017823466, 9.998911, 9.998396 
1.364817e+3, 1.5409908e+2, -1858166.0, -1830233.3, -13709.224, -0.029381286, 0.08078337, -1824629.1, -394788.47, 0.0004035849, 9.997845, 9.998217 
1.3648579e+3, 1.640994e+2, -1646293.4, -1433088.8, 15393.734, -0.056113936, 0.20521969, -1431983.1, -100140.76, 0.000026350568, 9.997559, 10.000411 
1.364899e+3, 1.7410028e+2, -1404224.0, -1225497.4, -12126.033, -0.021008298, 0.21425094, -1224678.5, 9151.837, 0.000000016360648, 9.998385, 10.00076 
1.364939e+3, 1.8409987e+2, -1333858.3, -1386751.5, -18156.986, -0.041831456, 0.21080914, -1328225.3, -192391.56, 0.0, 9.999251, 9.998566 
1.3649784e+3, 1.9409755e+2, -1097816.6, -1226805.8, 38402.28, -0.119098246, 0.12291587, -1087249.3, -49389.746, 0.0, 10.000221, 9.99852 
1.365019e+3, 2.040962e+2, -796577.2, -842155.8, 100714.91, -0.12317528, 0.0715159, -716105.44, 223766.73, 0.0, 10.000805, 10.000209 
1.3650614e+3, 2.1409626e+2, -670859.2, -697006.5, 17751.02, -0.03333201, 0.025491728, -661887.0, 179978.58, 0.0, 10.000852, 10.000508 
1.3651037e+3, 2.2409585e+2, -694374.8, -876656.94, -1285.2709, 0.036099266, 0.0360831, -694365.75, 49501.258, 0.0, 10.000962, 9.998548 
1.3651459e+3, 2.3409475e+2, -577899.75, -775525.2, 38512.43, 0.07930254, 0.0715387, -570659.9, 75219.54, 0.0, 10.001112, 9.998499 
1.3651867e+3, 2.4409348e+2, -469224.75, -669294.1, -2534.5046, 0.08832698, 0.10740694, -469192.63, 78701.01, 0.0, 10.001172, 9.998526 
1.3652258e+3, 2.5409195e+2, -361008.28, -550674.8, -10720.295, 0.039702572, 0.082244985, -360404.28, 89506.414, 0.0, 10.001175, 9.998665 
1.3652654e+3, 2.6409033e+2, -220862.14, -458362.28, 10522.751, 0.019639082, 0.07904014, -220396.83, 131530.66, 0.000000033203506, 10.001573, 9.998439 
1.3653056e+3, 2.7408865e+2, 28049.486, -270438.2, -19200.67, 0.0484562, 0.04957943, 29279.53, 283222.94, 0.000006027052, 10.002534, 9.998591 
1.365346e+3, 2.8408703e+2, 120637.84, -348485.84, -13380.575, 0.06432718, 0.11191092, 121019.18, 276979.7, 0.00007556622, 10.00326, 9.997026 
1.3653858e+3, 2.9408535e+2, 300156.75, -207209.48, 8942.983, 0.041245837, 0.23270968, 300314.34, 358294.56, 0.00033624217, 10.003797, 9.997065 
1.3654263e+3, 3.0408186e+2, 405062.7, -61613.53, 77293.234, -0.020630471, 0.1593736, 417531.25, 417531.25, 0.00088260183, 10.003864, 9.997718 
1.3654713e+3, 3.1407985e+2, 370602.16, 24591.922, -58478.703, 0.26655912, 0.16423549, 380218.3, 380218.3, 0.0016700673, 10.003151, 9.998654 
1.3746867e+3, 1.2405754e+2, -2263067.5, -2039516.6, 74043.7, -0.23663503, -0.043656815, -2017216.6, -292979.97, 0.0079810945, 9.996469, 9.999465 
1.3747342e+3, 1.3405867e+2, -1900513.9, -1858125.3, 33299.367, 0.14836435, 0.16979258, -1839847.5, -213614.45, 0.0045821774, 9.998489, 9.999066 
1.3747749e+3, 1.4405896e+2, -1662030.1, -1571805.5, -112659.41, -0.033122193, 0.25269744, -1495561.9, 32672.28, 0.0018779465, 9.99893, 10.000145 
1.3748139e+3, 1.5405773e+2, -1711733.6, -1525349.8, -48571.58, -0.14420274, 0.09377781, -1513451.6, -83205.586, 0.00043006244, 9.997835, 10.000315 
1.3748546e+3, 1.640571e+2, -1673427.4, -1484999.5, 32660.893, -0.12870519, 0.02607722, -1479498.8, -147246.75, 0.000029160963, 9.997535, 10.00007 
1.3748975e+3, 1.7405753e+2, -1446102.4, -1310037.8, 23929.686, 0.007298273, 0.046307206, -1305952.0, -71703.69, 0.000000027808229, 9.998366, 10.000195 
1.3749392e+3, 1.840583e+2, -1223854.6, -1159768.8, 9737.409, 0.029539226, 0.11958178, -1158321.9, -22081.365, 0.0, 9.999257, 10.000121 
1.374979e+3, 1.9405949e+2, -980693.94, -978057.44, 78737.46, -0.0857429, 0.21222822, -900627.2, 137600.1, 0.0, 10.000192, 10.000247 
1.3750201e+3, 2.0405892e+2, -930446.56, -1108954.0, 98046.47, -0.088246, 0.22795773, -887113.2, 53119.477, 0.0, 10.000754, 9.998403 
1.3750634e+3, 2.1405578e+2, -834633.3, -1019755.06, 26055.85, 0.07690111, 0.07375556, -831035.9, 11229.3955, 0.0, 10.000773, 9.998333 
1.3751054e+3, 2.2405429e+2, -646017.44, -751468.25, -624.9259, 0.09333375, 0.05618793, -646013.75, 98266.164, 0.0, 10.000856, 9.999458 
1.3751453e+3, 2.3405534e+2, -507228.0, -605460.8, 52040.965, -0.100134216, 0.18727541, -484785.44, 161481.9, 0.0, 10.001015, 9.999713 
1.3751857e+3, 2.4405491e+2, -465119.53, -641596.06, -10711.28, -0.14885162, 0.23212598, -464471.8, 83798.86, 0.0, 10.001085, 9.998759 
1.3752268e+3, 2.540523e+2, -361148.03, -533668.9, -5947.298, 0.016619194, 0.08188661, -360943.25, 89354.24, 0.0, 10.001095, 9.998824 
1.3752672e+3, 2.6405036e+2, -270079.88, -543106.4, 36005.64, 0.04967648, 0.05933936, -265411.4, 86907.2, 0.000000022673568, 10.001499, 9.997891 
1.3753067e+3, 2.7404934e+2, -33015.19, -371438.88, 23579.928, -0.10146243, 0.16175288, -31380.14, 222951.08, 0.0000059199137, 10.002433, 9.997942 
1.375348e+3, 2.8404754e+2, 155053.84, -264284.75, -382.38608, -0.06592926, 0.21520464, 155054.2, 311403.63, 0.000072404306, 10.003197, 9.997639 
1.3753916e+3, 2.9404438e+2, 331127.53, -109264.75, 38973.27, 0.22702338, 0.11480353, 334549.94, 392927.1, 0.00031923997, 10.003646, 9.997817 
1.3754323e+3, 3.040401e+2, 291547.6, -267000.5, 51283.93, 0.17599039, -0.018644493, 296217.28, 296217.28, 0.0008374623, 10.003742, 9.996359 
1.3754728e+3, 3.1403854e+2, 271699.88, -136672.06, -52745.434, 0.08692962, 0.1886654, 278402.47, 278402.47, 0.0015880647, 10.002989, 9.99761 
1.3846846e+3, 1.2401465e+2, -1940180.4, -1894052.0, 46973.78, -0.17882916, -0.06540696, -1864785.6, -140129.6, 0.008351057, 9.998715, 9.999386 
1.3847321e+3, 1.3401611e+2, -2056118.9, -1924538.4, 81426.22, 0.17086811, 0.17915154, -1885645.4, -258994.9, 0.004803759, 9.997385, 9.999148 
1.3847719e+3, 1.4401668e+2, -1915261.8, -1608696.1, 4178.4243, -0.107910514, 0.24887729, -1608639.3, -79990.44, 0.0019753822, 9.99682, 10.000913 
1.3848121e+3, 1.5401621e+2, -1600840.5, -1379793.4, -41651.703, -0.10310733, 0.08338992, -1372205.4, 58445.477, 0.00045665295, 9.998199, 10.001142 
1.3848534e+3, 1.64016e+2, -1473192.4, -1403142.3, 17200.87, -0.06189451, 0.018568689, -1399146.5, -66493.95, 0.00003186285, 9.998988, 9.999924 
1.3848956e+3, 1.740163e+2, -1380526.5, -1304291.0, 19625.639, -0.036855593, 0.050673638, -1299535.4, -64883.21, 0.000000039188958, 9.998942, 9.999949 
1.3849375e+3, 1.8401694e+2, -1258343.1, -1157222.5, -10177.371, -0.032715764, 0.11760737, -1156208.4, -19562.121, 0.0, 9.998933, 10.0002985 
1.3849789e+3, 1.9401816e+2, -1122689.6, -1016705.3, -66033.39, -0.048026185, 0.18812837, -985030.0, 53601.707, 0.0, 9.999095, 10.000506 
1.3850208e+3, 2.0401765e+2, -1119352.5, -1229961.3, -43873.93, -0.02869306, 0.21071884, -1104063.0, -163426.52, 0.0, 9.999588, 9.998132 
1.3850635e+3, 2.1401468e+2, -877561.56, -1071182.9, 7839.767, 0.042283494, 0.10436666, -877244.7, -34575.195, 0.0, 10.000615, 9.998054 
1.3851054e+3, 2.2401325e+2, -596239.2, -684475.25, 29800.373, 0.024657616, 0.091026165, -587117.56, 157566.28, 0.0, 10.001001, 9.999855 
1.3851458e+3, 2.3401418e+2, -541130.7, -569298.56, 13123.17, -0.11671061, 0.16298223, -535964.3, 110706.33, 0.0, 10.0005455, 10.000191 
1.3851865e+3, 2.4401389e+2, -556076.7, -686695.25, -53642.56, -0.12623125, 0.1940556, -536870.7, 11801.424, 0.0, 10.00047, 9.998741 
1.385228e+3, 2.5401184e+2, -369012.0, -540753.56, -79465.96, 0.044792026, 0.1065416, -337884.38, 112810.086, 0.0, 10.001064, 9.998782 
1.3852689e+3, 2.6401004e+2, -254677.19, -550450.75, -4872.2227, 0.07088721, 0.10924119, -254596.95, 98117.73, 0.0000000049794013, 10.001674, 9.997755 
1.3853091e+3, 2.740086e+2, -47600.492, -395281.8, 7219.1772, -0.10098217, 0.18216816, -47450.656, 207281.2, 0.0000059839426, 10.002397, 9.9978 
1.3853511e+3, 2.8400669e+2, 120694.77, -252435.19, -12769.42, -0.053309422, 0.2207825, 121131.266, 277882.56, 0.000069779904, 10.002839, 9.997893 
1.3853952e+3, 2.940039e+2, 253976.22, -104820.86, -24669.25, 0.28004658, 0.12977085, 255664.42, 314439.22, 0.0002994818, 10.002942, 9.998178 
1.3854359e+3, 3.0400002e+2, 206953.92, -326324.72, 12193.902, 0.20388383, 0.025110425, 207232.61, 207232.61, 0.0007821158, 10.003248, 9.996183 
1.3854755e+3, 3.1399798e+2, 430205.16, -35984.293, -11013.56, 0.028371155, 0.20240079, 430465.22, 430465.22, 0.0014854412, 10.003966, 9.997834 
1.3946845e+3, 1.2397159e+2, -1784563.4, -1570883.9, 73089.5, -0.08715114, 0.056544706, -1548275.5, 176806.64, 0.008733579, 9.998728, 10.001597 
1.3947287e+3, 1.3397172e+2, -1889157.5, -1575480.1, 21544.643, 0.09432428, -0.07361511, -1574007.3, 53070.3, 0.005033633, 9.997365, 10.001555 
1.3947679e+3, 1.4397198e+2, -1939333.4, -1644708.0, 35662.863, -0.18477502, -0.1566719, -1640452.6, -111377.516, 0.002076125, 9.996762, 10.000692 
1.3948117e+3, 1.5397467e+2, -1640608.8, -1459846.4, 21577.111, 0.03291535, 0.047080234, -1457306.5, -26252.645, 0.00048381835, 9.998189, 10.000597 
1.394854e+3, 1.6397627e+2, -1466681.9, -1402682.1, 12093.314, 0.08032924, 0.1941682, -1400473.3, -67430.91, 0.000034571214, 9.999036, 9.999909 
1.3948931e+3, 1.7397653e+2, -1378685.4, -1302497.9, 21435.146, -0.1981543, 0.21853699, -1296881.3, -61838.527, 0.00000005013657, 9.998942, 9.999968 
1.3949339e+3, 1.8397583e+2, -1334349.0, -1318794.3, -14264.414, -0.2885874, 0.20315404, -1310324.8, -173273.84, 0.0, 9.998947, 9.999182 
1.3949777e+3, 1.9397365e+2, -1214647.8, -1202570.6, -55458.79, -0.06706083, 0.057990402, -1152822.6, -113750.95, 0.0, 9.999064, 9.999249 
1.3950208e+3, 2.0397246e+2, -1040256.8, -1050987.5, -15784.956, -0.0037456625, 0.022896823, -1028950.3, -87867.14, 0.0, 9.999526, 9.999389 
1.395062e+3, 2.1397291e+2, -786874.0, -860336.5, 51998.21, -0.1860974, 0.11133623, -759942.1, 83136.945, 0.0, 10.000518, 9.999548 
1.395104e+3, 2.2397272e+2, -610780.06, -697897.3, 10926.275, -0.22651595, 0.14047913, -609430.56, 135649.02, 0.0, 10.00092, 9.999804 
1.3951471e+3, 2.3397148e+2, -566277.1, -605091.4, 2786.7976, -0.034246776, 0.01277952, -566078.06, 81009.664, 0.0, 10.000467, 9.999986 
1.395189e+3, 2.4397068e+2, -581902.94, -727409.8, -41179.15, 0.07934879, 0.015417134, -571057.44, -21962.29, 0.0, 10.000413, 9.99849 
1.3952294e+3, 2.5397056e+2, -400947.8, -591420.6, -49208.566, 0.06921926, 0.15117869, -388986.03, 62115.055, 0.0, 10.001001, 9.998464 
1.3952702e+3, 2.639694e+2, -241547.58, -519005.78, 15929.975, 0.03231639, 0.22406262, -240635.97, 112479.85, 0.0000000011462398, 10.001649, 9.997985 
1.3953122e+3, 2.7396664e+2, -39818.477, -357984.0, 44025.047, -0.01979308, 0.13478626, -33839.035, 221304.03, 0.000005942459, 10.002301, 9.998105 
1.3953546e+3, 2.8396472e+2, 101267.79, -271277.25, -12038.668, 0.02067171, 0.1609018, 101656.41, 258819.31, 0.00006703084, 10.002745, 9.997808 
1.395397e+3, 2.939638e+2, 228285.97, -142235.47, -10858.109, 0.16133091, 0.2651459, 228603.89, 287777.75, 0.00028144504, 10.0028715, 9.997956 
1.3954376e+3, 3.0396128e+2, 266541.56, -191478.22, 29278.041, 0.025716985, 0.27127373, 268405.53, 268405.53, 0.0007353624, 10.003203, 9.997129 
1.3954791e+3, 3.1395802e+2, 487534.1, 134193.7, 47036.56, -0.027773878, 0.2153911, 493688.4, 493688.4, 0.0014004502, 10.003751, 9.999111 
1.4046833e+3, 1.239282e+2, -1943774.8, -1577060.8, 226946.0, 0.00889291, 0.040851485, -1468657.0, 256850.72, 0.009133226, 9.99732, 10.002238 
1.4047249e+3, 1.3392891e+2, -1881107.0, -1505948.8, -73443.86, -0.008763023, -0.09225391, -1492083.4, 135412.73, 0.005275387, 9.997137, 10.002143 
1.4047644e+3, 1.4392933e+2, -1885752.4, -1586554.4, -44105.426, -0.22419426, -0.2042751, -1580188.1, -50696.766, 0.0021822979, 9.99699, 10.000976 
1.4048098e+3, 1.5393269e+2, -1748161.5, -1483601.6, -5983.75, 0.0805447, 0.04096925, -1483466.3, -52002.69, 0.00051218417, 9.997332, 10.000841 
1.4048529e+3, 1.6393466e+2, -1652497.6, -1491956.5, 13686.535, 0.14561652, 0.2117197, -1490798.0, -157349.48, 0.000037386584, 9.997765, 9.9999075 
1.4048916e+3, 1.739347e+2, -1444415.1, -1335124.0, 1902.5431, -0.20344184, 0.21407127, -1335090.9, -99639.625, 0.00000006103049, 9.998496, 9.999957 
1.4049324e+3, 1.8393373e+2, -1324677.3, -1341267.9, 11987.69, -0.3211831, 0.1837645, -1318394.6, -180931.77, 0.0, 9.999142, 9.998929 
1.404977e+3, 1.9393134e+2, -1130291.0, -1188338.1, 29968.684, -0.0750787, 0.042149104, -1117595.4, -78108.055, 0.0, 9.999769, 9.999 
1.4050204e+3, 2.0393044e+2, -938319.7, -919257.6, 98685.94, 0.007971114, 0.015301243, -829643.56, 111852.02, 0.0, 9.99986, 10.000139 
1.405062e+3, 2.1393193e+2, -916151.75, -822783.75, 108265.23, -0.1624758, 0.11848748, -751566.3, 91912.01, 0.0, 9.999194, 10.000446 
1.4051041e+3, 2.2393206e+2, -878774.4, -858501.94, 57195.625, -0.19801281, 0.14386614, -810551.3, -65076.414, 0.0, 9.999237, 9.999503 
1.4051475e+3, 2.339301e+2, -596787.4, -661687.56, 16913.676, -0.029060263, -0.013977125, -592644.06, 54848.383, 0.0, 10.000458, 9.999592 
1.4051901e+3, 2.4392897e+2, -426744.03, -676162.06, -10352.635, 0.08799124, -0.012804008, -426315.06, 123189.42, 0.0, 10.001579, 9.998283 
1.4052315e+3, 2.539291e+2, -182351.64, -505548.47, -21907.861, 0.11645014, 0.16690263, -180873.38, 270634.72, 0.0, 10.002583, 9.998295 
1.405273e+3, 2.639278e+2, -50520.19, -431722.72, 31189.074, 0.08477771, 0.2399291, -47985.234, 305538.44, 0.0000000047036606, 10.002985, 9.997938 
1.4053145e+3, 2.7392456e+2, 4029.4675, -336199.72, 12682.891, -0.02666458, 0.104131095, 4501.5986, 260056.77, 0.0000060153247, 10.002609, 9.998101 
1.4053568e+3, 2.8392255e+2, 80982.695, -281278.34, -30115.61, -0.016220571, 0.12151557, 83469.21, 241045.38, 0.00006437492, 10.002613, 9.997798 
1.4053999e+3, 2.9392222e+2, 279777.06, -115792.66, -33179.324, 0.14667483, 0.28610593, 282540.75, 342123.7, 0.00027114744, 10.003224, 9.997967 
1.4054409e+3, 3.0392048e+2, 345689.06, -125017.14, 11415.821, 0.045051515, 0.3581288, 345965.78, 345965.78, 0.0007120505, 10.003612, 9.997401 
1.4054833e+3, 3.139163e+2, 523871.53, 196023.08, -34433.473, 0.027318439, 0.1786489, 527449.0, 527449.0, 0.0013587944, 10.0038, 9.999513 
1.4146811e+3, 1.2388481e+2, -2027947.3, -1725174.6, 244840.3, 0.03908131, -0.12343351, -1588698.9, 137229.92, 0.009556688, 9.997225, 10.001256 
1.41472e+3, 1.3388795e+2, -1993054.6, -1724193.3, -77294.34, -0.21468173, 0.13318984, -1703556.1, -75652.28, 0.0055341963, 9.997093, 10.000657 
1.4147608e+3, 1.4388901e+2, -1823958.5, -1469911.6, -48041.68, -0.29942006, 0.1313109, -1463508.5, 66387.2, 0.0022969088, 9.997026, 10.001767 
1.4148062e+3, 1.538904e+2, -1674393.8, -1330544.6, 9993.389, -0.019628707, 0.07579172, -1330254.5, 101624.73, 0.0005425403, 9.997323, 10.001902 
1.4148499e+3, 1.6389121e+2, -1648063.3, -1482282.3, 30427.951, 0.07014557, 0.06855386, -1476873.9, -143003.23, 0.000040406845, 9.997762, 9.999976 
1.4148912e+3, 1.7389086e+2, -1452188.8, -1343600.4, 35361.58, -0.106090315, 0.038251832, -1333100.4, -97223.18, 0.00000007226826, 9.998462, 9.999917 
1.414933e+3, 1.8389072e+2, -1281422.6, -1251380.0, 28241.535, -0.18504933, 0.064793766, -1234413.5, -96532.38, 0.0, 9.99914, 9.999548 
1.4149763e+3, 1.9389112e+2, -1089063.0, -1094989.8, 58852.39, -0.1247408, 0.13735935, -1033099.44, 6779.5874, 0.0, 9.999735, 9.99966 
1.4150196e+3, 2.0389152e+2, -918201.3, -869867.7, 68438.84, -0.050943416, 0.18621483, -821454.1, 120420.414, 0.0, 9.999823, 10.000497 
1.4150633e+3, 2.1389176e+2, -906667.56, -783638.25, 86982.07, 0.058245603, 0.13269882, -738616.9, 105250.04, 0.0, 9.999104, 10.000763 
1.4151059e+3, 2.2389132e+2, -931485.3, -943201.94, 86311.195, 0.04817324, 0.105403714, -850833.9, -104964.5, 0.0, 9.999131, 9.998971 
1.4151469e+3, 2.3388994e+2, -662939.3, -772593.7, 69758.45, -0.1439923, 0.07426453, -629040.75, 18845.043, 0.0, 10.000347, 9.998883 
1.4151894e+3, 2.4388868e+2, -445230.84, -700649.1, 21489.402, -0.15214518, 0.10767693, -443435.47, 106465.71, 0.0, 10.00151, 9.99815 
1.4152342e+3, 2.538875e+2, -200538.63, -521781.8, 22979.525, 0.12961508, 0.16190219, -198903.16, 253012.02, 0.0, 10.0024805, 9.998236 
1.4152768e+3, 2.638855e+2, -91185.1, -490263.1, 17403.67, 0.16610293, 0.17975797, -90427.57, 263509.28, 0.000000079284355, 10.002874, 9.997588 
1.4153159e+3, 2.7388224e+2, -38741.33, -406820.44, 10102.148, -0.16252315, 0.083359174, -38464.277, 217505.16, 0.0000071917057, 10.002533, 9.997653 
1.4153576e+3, 2.8387997e+2, 90703.57, -264294.72, -13234.586, -0.20991053, 0.09824853, 91196.28, 249189.06, 0.00006595197, 10.002611, 9.997922 
1.4154033e+3, 2.938793e+2, 285089.1, -97214.734, 2550.8364, 0.16196226, 0.20755371, 285106.13, 345107.75, 0.00027635903, 10.003168, 9.998135 
1.4154458e+3, 3.038779e+2, 305392.75, -176957.02, 16249.94, 0.16557096, 0.31805313, 305939.56, 305939.56, 0.00072180986, 10.003497, 9.997083 
1.4154877e+3, 3.1387308e+2, 453716.66, 90719.37, 2653.1177, 0.06731986, 0.10847236, 453736.03, 453736.03, 0.0013706803, 10.003648, 9.998849 
1.4246787e+3, 1.238421e+2, -2264117.5, -1844087.5, 160655.3, 0.1684132, -0.095177226, -1789685.3, -63336.684, 0.010011913, 9.995622, 10.001216 
1.4247157e+3, 1.3384552e+2, -2152379.0, -1822037.9, -72672.375, -0.28580797, 0.20804733, -1806757.4, -178434.77, 0.0058154534, 9.996086, 10.00048 
1.4247581e+3, 1.4384672e+2, -1883419.1, -1497441.9, 13365.48, -0.2198334, 0.23032196, -1496979.6, 33333.652, 0.002423067, 9.996639, 10.001757 
1.4248033e+3, 1.5384689e+2, -1689485.9, -1335861.6, -23926.945, -0.028147995, 0.04949592, -1334250.1, 98056.56, 0.00057589856, 9.997221, 10.001912 
1.4248471e+3, 1.638473e+2, -1616476.9, -1403646.9, -10914.941, 0.01770357, -0.022506043, -1403088.6, -68788.71, 0.00004378684, 9.9977, 10.000545 
1.4248893e+3, 1.7384803e+2, -1445949.3, -1265159.4, 32615.795, -0.10738597, -0.008486408, -1259455.3, -23161.9, 0.00000008454083, 9.998184, 10.000585 
1.4249322e+3, 1.8384865e+2, -1355445.5, -1277285.4, 47854.867, -0.16073954, 0.050092477, -1254580.8, -116291.79, 0.0, 9.9985895, 9.999635 
1.4249755e+3, 1.9384915e+2, -1193342.1, -1143502.1, 16654.514, -0.12349005, 0.12947015, -1138449.3, -98162.21, 0.0, 9.999007, 9.999678 
1.4250192e+3, 2.0384935e+2, -1035829.25, -956178.8, -38128.33, -0.045771066, 0.17456964, -940869.5, 1415.672, 0.0, 9.999153, 10.000224 
1.4250626e+3, 2.1384913e+2, -947444.5, -832944.3, -86854.11, 0.10043548, 0.10266899, -786169.3, 58114.055, 0.0, 9.99896, 10.000487 
1.4251056e+3, 2.238486e+2, -917437.6, -926884.2, -30415.996, 0.11284602, 0.080642365, -891380.4, -145093.06, 0.0, 9.999177, 9.999067 
1.4251475e+3, 2.3384783e+2, -690067.9, -768144.9, 7370.8486, -0.08259083, 0.0940006, -689378.1, -41079.875, 0.0, 10.000072, 9.999053 
1.4251906e+3, 2.4384676e+2, -550841.6, -728833.9, 6501.985, -0.12963235, 0.13125369, -550604.4, -292.7098, 0.0, 10.000703, 9.9983425 
1.425235e+3, 2.5384524e+2, -385561.6, -582970.4, 6214.0063, 0.042409085, 0.13128476, -385366.2, 66962.695, 0.00000000006254562, 10.001102, 9.998474 
1.425278e+3, 2.6384333e+2, -250727.28, -556354.4, 26350.326, 0.073145874, 0.14281848, -248472.06, 105877.18, 0.00000036239143, 10.001733, 9.9976845 
1.425319e+3, 2.7384084e+2, -1151.1105, -373902.16, 41951.96, -0.09471529, 0.11195865, 3512.1125, 259885.84, 0.000010031926, 10.002727, 9.997781 
1.4253616e+3, 2.8383848e+2, 183178.89, -239269.75, 46288.883, -0.09048332, 0.11534087, 188191.4, 346588.75, 0.0000741056, 10.003336, 9.997747 
1.4254063e+3, 2.9383647e+2, 316032.4, -100995.88, 9869.793, 0.15055697, 0.11650898, 316265.88, 376683.5, 0.0002975857, 10.003478, 9.997952 
1.4254491e+3, 3.0383483e+2, 359433.1, -187095.05, 36953.484, 0.13945515, 0.22331628, 361920.38, 361920.38, 0.00076259073, 10.004005, 9.996776 
1.425493e+3, 3.1383e+2, 610071.94, 90752.22, 17872.465, 0.18842927, 0.044269066, 610686.3, 610686.3, 0.0014344632, 10.0050335, 9.998188 
1.4346749e+3, 1.2380066e+2, -2200740.8, -1697436.9, 91067.31, 0.22299747, 0.19313966, -1681466.0, 45296.277, 0.010506618, 9.995547, 10.00226 
1.434712e+3, 1.3380182e+2, -2071211.0, -1635971.9, -42341.426, -0.2651667, 0.13353324, -1631891.0, -3140.5476, 0.006123269, 9.9960165, 10.001783 
1.4347568e+3, 1.438026e+2, -1938159.5, -1623220.3, 28404.824, -0.030385401, 0.08078994, -1620678.9, -89936.75, 0.002563054, 9.996678, 10.000881 
1.4348009e+3, 1.5380208e+2, -1769286.0, -1499033.0, 4039.164, 0.004041474, -0.0552167, -1498972.6, -66225.93, 0.0006133788, 9.997206, 10.000803 
1.4348438e+3, 1.63803e+2, -1540387.8, -1247301.5, -2037.1984, -0.07903355, -0.06072998, -1247287.4, 87448.3, 0.000047750204, 9.997702, 10.001619 
1.4348859e+3, 1.7380632e+2, -1353591.1, -1072881.8, 55364.074, -0.26698172, 0.076513, -1062357.0, 174342.19, 0.00000010052836, 9.998175, 10.001912 
1.4349294e+3, 1.8380755e+2, -1382539.9, -1333748.4, 55087.96, -0.30412605, 0.14203556, -1297896.0, -159209.88, 0.0, 9.9985895, 9.999249 
1.4349747e+3, 1.9380547e+2, -1241697.0, -1237070.6, 37480.434, -0.126009, 0.022675056, -1201832.1, -161121.63, 0.0, 9.998974, 9.999055 
1.4350185e+3, 2.0380414e+2, -1103325.0, -1088152.9, -50823.395, -0.03948424, -0.012341274, -1044352.5, -101626.55, 0.0, 9.999114, 9.999337 
1.4350598e+3, 2.1380413e+2, -1027583.56, -982049.25, -87339.805, -0.08838934, 0.031355377, -914557.94, -69831.305, 0.0, 9.99888, 9.999505 
1.435103e+3, 2.2380401e+2, -879049.25, -827771.3, -7718.334, -0.061225403, 0.07535732, -826634.75, -79907.03, 0.0, 9.999094, 9.999787 
1.4351493e+3, 2.3380387e+2, -638733.56, -637513.7, 48109.258, 0.09114347, 0.05864306, -590010.5, 58717.965, 0.0, 9.999967, 10.000003 
1.4351934e+3, 2.4380332e+2, -530753.2, -663535.6, 15808.191, 0.08153505, 0.07253397, -528897.1, 21837.83, 0.0, 10.000595, 9.998845 
1.435234e+3, 2.5380227e+2, -373274.38, -535889.2, 28496.965, -0.18527834, 0.076670416, -368425.1, 84324.555, 0.000000006122379, 10.001007, 9.998846 
1.4352767e+3, 2.6380125e+2, -216698.36, -473722.3, 55082.03, -0.23089091, 0.13104673, -205391.33, 149370.47, 0.0000008787704, 10.001675, 9.998283 
1.4353237e+3, 2.7380025e+2, 32798.38, -288661.0, 87133.08, 0.09350443, 0.18938804, 54897.04, 311666.6, 0.000014099222, 10.002654, 9.998409 
1.4353684e+3, 2.8379795e+2, 139869.72, -314116.75, 46659.547, 0.23663871, 0.18057775, 144615.66, 303406.78, 0.00008678299, 10.003268, 9.997264 
1.435409e+3, 2.937936e+2, 257602.2, -212933.64, 24404.248, 0.05918001, 0.010289578, 258864.55, 319698.0, 0.00033023316, 10.00343, 9.99721 
1.435451e+3, 3.0379108e+2, 341019.06, -209287.25, 66201.71, -0.0699827, 0.080444224, 348871.06, 348871.06, 0.0008306088, 10.003946, 9.996649 
1.435499e+3, 3.137871e+2, 531698.75, -22107.844, 88756.74, 0.2741038, -0.0029662435, 545575.75, 545575.75, 0.0015500637, 10.004817, 9.99752 
1.4446704e+3, 1.2375702e+2, -2258878.8, -1702109.9, 44765.2, 0.24670638, 0.27993104, -1698533.8, 28658.533, 0.011047917, 9.9950485, 10.002466 
1.4447083e+3, 1.3375738e+2, -1999995.6, -1533338.3, -71163.95, -0.22998393, 0.077783756, -1522727.3, 106458.62, 0.00646129, 9.996202, 10.002399 
1.444755e+3, 1.4375836e+2, -1881171.0, -1602239.8, -11182.209, 0.11156093, 0.015535602, -1601792.1, -70617.47, 0.0027186894, 9.997109, 10.000806 
1.4447984e+3, 1.537586e+2, -1783280.1, -1521178.1, 14600.325, 0.043205608, -0.028938657, -1520367.4, -87194.12, 0.0006559602, 9.997185, 10.000653 
1.4448409e+3, 1.6375987e+2, -1589152.6, -1240461.0, 39395.457, -0.10453972, -0.003330215, -1236065.4, 99093.766, 0.000052490832, 9.997255, 10.001872 
1.4448835e+3, 1.7376298e+2, -1407756.9, -1063731.8, 5395.3257, -0.2865446, 0.0804952, -1063647.1, 173476.08, 0.00000012546444, 9.997658, 10.00222 
1.4449276e+3, 1.83764e+2, -1439787.4, -1342696.1, -4297.7754, -0.30118683, 0.10133245, -1342506.3, -203395.39, 0.0, 9.998108, 9.999422 
1.4449736e+3, 1.9376187e+2, -1272165.3, -1231718.1, 22671.037, -0.09194985, -0.036113866, -1221561.3, -180426.6, 0.0, 9.998681, 9.99923 
1.4450178e+3, 2.0376049e+2, -1107640.0, -1122853.5, -14828.424, -0.0022568405, -0.07456963, -1098581.0, -155429.86, 0.0, 9.999237, 9.999034 
1.445059e+3, 2.137603e+2, -914299.56, -964253.56, -22183.88, -0.08921376, -0.01223443, -905870.4, -60714.85, 0.0, 9.999829, 9.999163 
1.4451022e+3, 2.2376023e+2, -725461.25, -718616.8, 85478.53, -0.08186435, 0.041280665, -636492.0, 110664.51, 0.0, 9.999995, 10.000103 
1.4451487e+3, 2.3376049e+2, -676052.75, -605034.75, 90260.305, 0.07015134, 0.021315021, -543549.9, 105601.34, 0.0, 9.999495, 10.000449 
1.4451933e+3, 2.437604e+2, -670184.3, -712219.1, 57850.098, 0.07762568, 0.04584064, -629652.0, -78499.555, 0.0, 9.999558, 9.999008 
1.4452349e+3, 2.5375974e+2, -420445.22, -546531.1, 41086.395, -0.14854866, 0.07780493, -408238.53, 44925.645, 0.000000012932129, 10.00062, 9.998964 
1.4452788e+3, 2.6375884e+2, -210285.28, -453585.97, 67116.13, -0.1803072, 0.13269414, -192999.02, 162176.44, 0.0000016431604, 10.00164, 9.998437 
1.4453264e+3, 2.7375773e+2, 52224.355, -258658.53, 51938.65, 0.10576943, 0.15793252, 60672.098, 317856.75, 0.000019264668, 10.0027, 9.998589 
1.4453715e+3, 2.8375536e+2, 157975.77, -337495.34, -10852.091, 0.24022731, 0.14898455, 158213.33, 317419.9, 0.00010328927, 10.003534, 9.996971 
1.4454132e+3, 2.9375118e+2, 315570.6, -218796.31, -27195.295, 0.11880298, 0.029487165, 316951.06, 378198.56, 0.00037470288, 10.003981, 9.996895 
1.4454556e+3, 3.037486e+2, 410990.9, -145095.86, 67050.39, -0.013048861, 0.09602819, 418961.3, 418961.3, 0.00092811947, 10.004294, 9.996932 
1.4455025e+3, 3.1374484e+2, 464496.8, -67717.24, 93772.21, 0.17582257, 0.0047812047, 480535.47, 480535.47, 0.0017214778, 10.004421, 9.997398 
1.4546639e+3, 1.2371071e+2, -2316284.5, -1823860.0, -35272.727, 0.06322673, 0.088875994, -1821346.3, -93704.195, 0.011640448, 9.995063, 10.001621 
1.4547046e+3, 1.3371237e+2, -2016898.0, -1555714.9, -9885.767, -0.2227266, 0.04004191, -1555503.1, 74124.055, 0.0068325973, 9.996152, 10.002268 
1.4547524e+3, 1.4371423e+2, -1831782.9, -1501184.4, -9399.664, 0.1246149, 0.041305993, -1500917.4, 30692.021, 0.0028915813, 9.997111, 10.001499 
1.4547953e+3, 1.5371679e+2, -1731215.5, -1406166.6, 21131.043, 0.018080052, 0.14573857, -1404798.8, 28784.844, 0.00070428615, 9.997159, 10.001452 
1.454838e+3, 1.637182e+2, -1625135.6, -1324454.1, 43152.918, -0.119284295, 0.16750827, -1318383.5, 17184.135, 0.000058062662, 9.997284, 10.001287 
1.454882e+3, 1.7371799e+2, -1461837.5, -1176834.3, 27347.225, -0.2112244, -0.0021220818, -1174233.9, 63331.605, 0.00000016567238, 9.997654, 10.001451 
1.4549266e+3, 1.8371797e+2, -1388972.5, -1236414.4, 8539.991, -0.20682329, -0.075993165, -1235937.9, -96374.53, 0.0, 9.998105, 10.000152 
1.4549725e+3, 1.9371842e+2, -1215777.0, -1105324.3, 49283.426, -0.07735042, -0.04724387, -1086531.6, -44972.06, 0.0, 9.99864, 10.000118 
1.4550172e+3, 2.0371835e+2, -1097922.8, -1088277.0, 468.95538, 0.007746187, -0.01185407, -1088254.3, -144692.94, 0.0, 9.999174, 9.999301 
1.4550601e+3, 2.1371756e+2, -911412.6, -939976.06, 5457.6216, 0.036408827, -0.032160297, -910405.3, -64834.25, 0.0, 9.999748, 9.99937 
1.4551029e+3, 2.2371723e+2, -735427.8, -719664.0, 64020.266, -0.01108759, -0.020403432, -663042.25, 84532.15, 0.0, 9.999912, 10.000134 
1.4551456e+3, 2.3371775e+2, -693556.6, -618281.1, 77757.2, -0.1837146, -0.009886148, -569531.44, 80034.82, 0.0, 9.9994, 10.000402 
1.4551902e+3, 2.4371791e+2, -684356.9, -735402.44, 83509.62, -0.1877472, 0.049377892, -622556.9, -70991.91, 0.0, 9.999521, 9.99887 
1.4552379e+3, 2.5371754e+2, -437127.84, -570105.5, 86768.45, 0.07607613, 0.1237597, -394302.75, 59271.1, 0.000000017460069, 10.000566, 9.998832 
1.4552838e+3, 2.637162e+2, -239559.05, -494418.8, 100198.81, 0.1400449, 0.14971289, -204883.48, 150706.78, 0.000002726617, 10.001554, 9.9981985 
1.455327e+3, 2.7371335e+2, 11062.563, -310612.6, 97487.43, -0.09478478, 0.030009363, 38300.836, 295918.75, 0.000025068905, 10.00256, 9.998297 
1.4553718e+3, 2.8371087e+2, 136330.9, -354403.8, 1286.6943, -0.09649109, 0.031956937, 136334.28, 295976.63, 0.00012317952, 10.0034075, 9.99692 
1.4554186e+3, 2.937092e+2, 308887.06, -222195.88, -3590.0264, 0.25437146, 0.16099727, 308911.3, 370571.78, 0.00043022388, 10.003922, 9.996908 
1.4554623e+3, 3.0370715e+2, 442936.25, -61608.836, 64687.773, 0.22197178, 0.25267255, 451097.84, 451097.84, 0.0010532495, 10.0042305, 9.997529 
1.4555036e+3, 3.137032e+2, 443330.4, -65589.11, 112627.99, -0.17742863, 0.07921721, 467141.8, 467141.8, 0.0019465073, 10.004235, 9.997496 
1.4646588e+3, 1.2366524e+2, -2250789.3, -1807872.3, -82290.43, 0.05048344, -0.0064126705, -1793077.5, -64990.74, 0.012283002, 9.995558, 10.0015 
1.464701e+3, 1.3366842e+2, -2113556.8, -1605311.6, 13004.506, -0.16383454, 0.101707056, -1604979.1, 25080.178, 0.00723705, 9.995501, 10.002241 
1.4647482e+3, 1.4367026e+2, -1967142.5, -1504796.4, 35487.117, 0.061978344, 0.078823835, -1502088.5, 29953.578, 0.0030819494, 9.995913, 10.002058 
1.4647919e+3, 1.5367301e+2, -1662846.8, -1304348.8, 35108.367, -0.04077115, 0.13854696, -1300942.9, 133068.73, 0.0007585455, 9.9973135, 10.002088 
1.4648356e+3, 1.6367443e+2, -1558324.0, -1322750.1, 47706.063, -0.12816454, 0.13726984, -1313455.8, 22538.83, 0.00006440502, 9.997882, 10.001008 
1.4648801e+3, 1.736739e+2, -1531575.9, -1256704.8, 39228.87, -0.13430275, -0.02097057, -1251215.8, -13217.891, 0.00000022299002, 9.997383, 10.001029 
1.4649254e+3, 1.8367407e+2, -1459194.9, -1214029.9, 67431.93, -0.09674015, -0.07431428, -1196707.0, -56712.36, 0.0, 9.997398, 10.000639 
1.4649716e+3, 1.9367543e+2, -1203790.9, -1026979.2, 76893.56, -0.012594334, -0.016637195, -998217.56, 43762.52, 0.0, 9.99842, 10.000756 
1.4650166e+3, 2.0367582e+2, -1095338.8, -1076321.8, 14538.808, 0.048284832, 0.023149239, -1068458.1, -124482.18, 0.0, 9.999135, 9.999409 
1.46506e+3, 2.1367481e+2, -957656.06, -957981.56, -6729.538, 0.07369016, -0.02032785, -951087.3, -105100.09, 0.0, 9.999406, 9.999418 
1.4651027e+3, 2.236742e+2, -790834.8, -790435.44, 26339.936, 0.00046249558, -0.022458576, -764294.44, -16300.718, 0.0, 9.999728, 9.999739 
1.4651448e+3, 2.336742e+2, -601432.2, -624500.9, -7291.7813, -0.23109652, -0.01825466, -599320.6, 50671.594, 0.0, 10.000249, 9.999953 
1.4651898e+3, 2.4367388e+2, -509378.63, -656897.06, 24843.068, -0.24212338, 0.023325937, -505307.28, 46688.406, 0.0, 10.000762, 9.998805 
1.4652388e+3, 2.536732e+2, -312905.1, -506343.94, 27022.973, 0.09265582, 0.06720672, -309201.0, 144804.66, 0.000000044837254, 10.001415, 9.99885 
1.4652857e+3, 2.6367176e+2, -227057.22, -515979.9, 41925.76, 0.188584, 0.095512256, -221096.31, 134926.13, 0.0000038968087, 10.001763, 9.9979515 
1.465329e+3, 2.7366924e+2, -149888.69, -419698.13, 26025.047, -0.08909345, 0.04262774, -147401.31, 110647.49, 0.000030358568, 10.001584, 9.998024 
1.4653741e+3, 2.8366694e+2, -32372.875, -421960.44, -18281.746, -0.12560064, 0.06923724, -31516.87, 128555.8, 0.00014195647, 10.002191, 9.997041 
1.465422e+3, 2.9366496e+2, 366657.72, -174077.19, -29244.662, 0.20097768, 0.15496686, 368234.78, 430326.66, 0.0004867411, 10.004243, 9.997079 
1.4654666e+3, 3.0366203e+2, 606672.5, 11605.471, -14831.651, 0.20134819, 0.15193042, 607041.94, 607041.94, 0.001189039, 10.005375, 9.997474 
1.4655088e+3, 3.1365874e+2, 500827.13, -66584.91, -45152.52, -0.08316746, 0.052606553, 504397.72, 504397.72, 0.0021985262, 10.004726, 9.997254 
1.4746551e+3, 1.2362058e+2, -2186647.3, -1677883.3, -129640.59, 0.09821431, -0.01708719, -1646753.6, 81773.87, 0.012969953, 9.995576, 10.002383 
1.4746968e+3, 1.3362592e+2, -2115401.3, -1596507.9, 17156.588, -0.12745197, 0.29326025, -1595941.3, 34537.3, 0.0076708426, 9.99545, 10.002324 
1.4747418e+3, 1.4362662e+2, -1934751.5, -1440145.3, 72066.18, -0.16778247, 0.13173103, -1429858.9, 102612.32, 0.0032881629, 9.9959135, 10.002508 
1.4747877e+3, 1.5362734e+2, -1635640.4, -1237926.3, 95816.02, -0.18765168, -0.0562814, -1216046.3, 218410.22, 0.00081847684, 9.9972725, 10.002564 
1.4748329e+3, 1.6362861e+2, -1554816.3, -1327371.8, 28340.139, -0.19359495, -0.09903104, -1323893.6, 12546.05, 0.000071419374, 9.997922, 10.00096 
1.4748777e+3, 1.7363085e+2, -1541568.3, -1275546.5, 24929.383, -0.11623916, 0.029394045, -1273230.4, -34811.44, 0.0000002932695, 9.997373, 10.000904 
1.4749236e+3, 1.8363243e+2, -1438870.4, -1176924.8, 91280.836, -0.031801935, 0.115126885, -1148254.0, -7850.526, 0.0, 9.997412, 10.000892 
1.4749706e+3, 1.9363293e+2, -1184809.4, -982910.2, 122117.62, 0.04587713, 0.056761596, -925418.8, 116977.17, 0.0, 9.998394, 10.001076 
1.4750159e+3, 2.0363292e+2, -1102721.8, -1082721.0, 19573.88, 0.05641067, 0.036246132, -1070740.9, -126345.84, 0.0, 9.999096, 9.999384 
1.4750582e+3, 2.1363215e+2, -981421.9, -984987.56, 7274.662, -0.030977724, 0.027146032, -975714.75, -129311.37, 0.0, 9.999311, 9.999277 
1.4751016e+3, 2.2363116e+2, -863507.2, -920115.44, 36975.26, -0.09886403, 0.036121644, -845246.4, -96832.12, 0.0, 9.99963, 9.9988985 
1.475146e+3, 2.3362991e+2, -677480.0, -762595.1, 19742.475, -0.13867053, 0.0035663184, -673123.7, -22695.693, 0.0, 10.000159, 9.99905 
1.4751914e+3, 2.4362849e+2, -518221.97, -663115.56, 42190.957, -0.15525107, -0.0158898, -506831.94, 45610.633, 0.0, 10.000701, 9.9987955 
1.475238e+3, 2.5362685e+2, -320659.6, -502433.38, 58900.86, -0.12592809, -0.076269135, -303242.56, 151215.4, 0.000000082863835, 10.001325, 9.998925 
1.4752848e+3, 2.6362565e+2, -253328.03, -553457.0, 34839.168, -0.06946301, -0.017535217, -249336.95, 107133.95, 0.0000048986644, 10.001689, 9.997727 
1.475332e+3, 2.736254e+2, -171458.03, -458151.34, 29616.902, 0.03824227, 0.17530547, -168430.42, 90047.53, 0.00003468843, 10.001555, 9.99777 
1.4753783e+3, 2.836235e+2, -27553.594, -406581.16, 42228.88, 0.059351273, 0.25130272, -22905.71, 137592.08, 0.00015714212, 10.002161, 9.997164 
1.4754236e+3, 2.9361865e+2, 351975.53, -165437.31, 58569.305, -0.0750768, 0.034573667, 358522.53, 421063.0, 0.00053839333, 10.004074, 9.997219 
1.4754692e+3, 3.0361357e+2, 534351.75, -83494.484, -27907.379, -0.10568902, -0.16419303, 535609.7, 535609.7, 0.0013196984, 10.005146, 9.996924 
1.4755172e+3, 3.1361195e+2, 442756.25, -131734.75, -56099.44, 0.26650667, -0.041994024, 448183.13, 448183.13, 0.0024387569, 10.00451, 9.9969 
1.4846502e+3, 1.2357726e+2, -2274335.8, -1680874.8, 18797.836, 0.09537205, -0.034424603, -1680280.0, 48669.89, 0.013700781, 9.994797, 10.002749 
1.484693e+3, 1.3358231e+2, -2176144.5, -1673361.4, 86940.055, -0.032251522, 0.28111532, -1658752.4, -27849.18, 0.00813248, 9.995229, 10.001909 
1.484737e+3, 1.4358245e+2, -2032331.8, -1520531.9, 140830.1, -0.21207857, 0.10484963, -1484339.5, 48561.996, 0.0035089266, 9.995413, 10.002186 
1.4847842e+3, 1.5358318e+2, -1802550.0, -1344457.3, 97842.08, -0.20316738, -0.05631475, -1324434.6, 110453.92, 0.0008836724, 9.996255, 10.002313 
1.4848304e+3, 1.6358446e+2, -1681753.4, -1378882.5, -14415.332, -0.17307675, -0.086103745, -1378198.0, -41325.54, 0.00007901186, 9.997029, 10.00103 
1.4848757e+3, 1.7358643e+2, -1462767.3, -1222177.4, -20533.861, -0.077625856, 0.002339979, -1220437.4, 18415.531, 0.00000037325287, 9.997855, 10.001036 
1.4849219e+3, 1.8358767e+2, -1288736.1, -1143148.0, 75880.73, 0.014712455, 0.063901454, -1110790.5, 30049.465, 0.0, 9.99861, 10.0005455 
1.4849696e+3, 1.9358806e+2, -1058196.3, -965730.4, 42924.727, 0.06503237, 0.03265908, -948875.94, 93959.35, 0.0, 9.999456, 10.000679 
1.4850152e+3, 2.0358802e+2, -985306.2, -1006269.5, -105849.76, 0.05486854, 0.028815169, -889420.4, 55414.61, 0.0, 9.999823, 9.999554 
1.4850573e+3, 2.1358743e+2, -949100.06, -935903.0, -109521.375, -0.047765296, 0.0105401315, -832781.56, 14059.286, 0.0, 9.999392, 9.99957 
1.4851008e+3, 2.235865e+2, -928957.0, -976631.94, -4813.1606, -0.0942003, 0.018705534, -928475.9, -179624.84, 0.0, 9.9992895, 9.998668 
1.4851466e+3, 2.3358525e+2, -737866.9, -825273.4, 9716.038, -0.063826606, 0.0162078, -736799.9, -85933.44, 0.0, 9.999891, 9.998743 
1.4851926e+3, 2.4358365e+2, -559483.06, -702300.2, 62230.02, -0.06943036, 0.0054795346, -536172.25, 16710.678, 0.0, 10.000497, 9.998631 
1.485239e+3, 2.5358155e+2, -363338.6, -536002.94, 51055.85, -0.13512363, -0.085091956, -349371.5, 105529.195, 0.00000011463164, 10.001083, 9.998815 
1.4852862e+3, 2.6357988e+2, -217759.8, -525665.0, 41980.633, -0.10821802, -0.07550896, -212138.67, 144777.9, 0.000005857849, 10.001895, 9.997816 
1.4853345e+3, 2.735791e+2, 81853.375, -322473.8, 44058.473, 0.07508025, 0.058927707, 86598.62, 345524.72, 0.000039061, 10.003246, 9.997886 
1.4853819e+3, 2.8357723e+2, 196110.28, -308714.13, 69925.81, 0.1323611, 0.13818343, 205617.05, 366561.6, 0.00017263576, 10.003759, 9.997059 
1.4854273e+3, 2.9357323e+2, 162653.34, -271524.03, 47932.363, -0.036483426, 0.020867005, 167882.02, 230862.39, 0.0005902421, 10.002841, 9.997083 
1.4854732e+3, 3.035677e+2, 171476.66, -334809.6, -26966.068, -0.08095399, -0.186467, 172908.89, 172908.89, 0.0014414873, 10.002958, 9.996272 
1.4855221e+3, 3.1356528e+2, 468316.66, -156882.89, -92388.65, 0.30916253, -0.069633916, 481683.56, 481683.56, 0.0026472318, 10.004836, 9.996584 
1.4946438e+3, 1.2353656e+2, -2279145.5, -1690146.8, 90145.08, -0.04983316, 0.03268949, -1676659.1, 52681.734, 0.014485426, 9.994802, 10.002677 
1.4946891e+3, 1.3353775e+2, -2257778.8, -1828249.0, 99215.13, 0.06468797, 0.055588987, -1806439.3, -175108.94, 0.008627366, 9.995174, 10.000869 
1.4947334e+3, 1.4353782e+2, -2113343.3, -1694719.5, 155156.5, -0.11433234, -0.0132577205, -1643483.9, -110152.19, 0.0037456865, 9.995422, 10.000992 
1.494781e+3, 1.5354085e+2, -1885187.5, -1509279.8, 136194.63, -0.15123345, 0.16257131, -1465122.4, -29816.975, 0.0009542572, 9.9962225, 10.001201 
1.4948279e+3, 1.6354233e+2, -1662620.9, -1349262.9, 7618.51, -0.13934162, 0.20964397, -1349077.8, -11787.543, 0.00008722728, 9.997066, 10.001219 
1.4948736e+3, 1.7354068e+2, -1440015.1, -1170061.8, 14464.749, -0.06628705, -0.09739025, -1169288.9, 70010.17, 0.0000004647829, 9.997835, 10.001404 
1.4949201e+3, 1.8353984e+2, -1349736.1, -1278217.0, 98058.06, -0.021985166, -0.2259313, -1209601.6, -68298.0, 0.0, 9.998638, 9.999608 
1.4949682e+3, 1.9354081e+2, -1144934.3, -1141061.8, 78981.19, -0.019630311, -0.083351165, -1063993.1, -20695.527, 0.0, 9.999431, 9.999491 
1.4950143e+3, 2.0354122e+2, -962141.06, -949562.06, -122020.56, -0.02064778, 0.006359849, -833669.0, 111626.41, 0.0, 9.99978, 9.999966 
1.4950569e+3, 2.135407e+2, -911344.94, -841159.44, -119916.92, -0.029082147, -0.07106468, -751305.9, 95993.086, 0.0, 9.99932, 10.000256 
1.4951007e+3, 2.2354028e+2, -914516.94, -937348.75, 4225.2275, -0.043595932, -0.064993426, -913760.06, -164456.69, 0.0, 9.999241, 9.998965 
1.4951466e+3, 2.3354018e+2, -732777.9, -800598.56, 37481.313, -0.06039347, 0.024699705, -716143.56, -64835.625, 0.0, 9.999827, 9.998946 
1.4951934e+3, 2.435393e+2, -586177.56, -746340.4, 77582.414, -0.051822186, 0.087848485, -554759.8, -1442.2651, 0.0, 10.000444, 9.998354 
1.4952414e+3, 2.5353715e+2, -394235.78, -590577.25, 80103.38, -0.009132472, 0.022361657, -365701.94, 89633.695, 0.00000015644366, 10.0010395, 9.998463 
1.4952892e+3, 2.6353434e+2, -205076.06, -487221.84, 80817.35, 0.0025283147, -0.07182155, -183566.66, 173793.11, 0.000006865855, 10.00184, 9.998108 
1.4953367e+3, 2.735307e+2, 90861.38, -277897.47, 100042.54, -0.019764395, -0.26333764, 116253.94, 375645.0, 0.000043953176, 10.003135, 9.998246 
1.4953846e+3, 2.8352848e+2, 158261.19, -365089.72, 37857.27, 0.03581468, -0.22511044, 160985.47, 322396.53, 0.00018936973, 10.003658, 9.996722 
1.4954326e+3, 2.9352844e+2, 131416.53, -337414.3, 20644.037, 0.20295076, 0.09159257, 132323.8, 195738.27, 0.00063975103, 10.00284, 9.996634 
1.4954785e+3, 3.0352402e+2, 114953.625, -447765.53, 21652.83, 0.16231517, 0.054783344, 115785.58, 115785.58, 0.0015424393, 10.002956, 9.995487 
1.4955239e+3, 3.135186e+2, 419911.97, -215512.03, -1060.0261, -0.010014568, -0.043361787, 419913.75, 419913.75, 0.0028032253, 10.004678, 9.996246 
1.5046377e+3, 1.23490974e+2, -2315672.0, -1668776.8, -51163.594, -0.08817954, -0.032298762, -1664755.1, 65029.23, 0.015336173, 9.994398, 10.00301 
1.5046856e+3, 1.3349181e+2, -1992427.3, -1665015.0, -41316.33, 0.11711654, -0.08393354, -1659881.8, -28108.094, 0.0091627855, 9.996838, 10.001188 
1.5047303e+3, 1.4349265e+2, -1836015.6, -1635541.0, 72253.95, -0.050794028, -0.06075337, -1612214.0, -78446.78, 0.0040015904, 9.997655, 10.000314 
1.5047777e+3, 1.5349519e+2, -1834184.1, -1572592.5, 58936.434, -0.11615766, 0.1464631, -1559927.4, -124176.68, 0.001031135, 9.996944, 10.000419 
1.5048249e+3, 1.6349646e+2, -1716443.4, -1384779.0, -21851.057, -0.11580026, 0.21911737, -1383345.5, -45604.68, 0.000096309515, 9.996725, 10.001145 
1.5048714e+3, 1.7349507e+2, -1468587.8, -1176599.5, -49464.6, -0.050805677, -0.06727946, -1168447.5, 71299.11, 0.000000575819, 9.997592, 10.001481 
1.5049185e+3, 1.8349423e+2, -1411066.9, -1287514.0, 59861.203, -0.01410535, -0.20795035, -1263269.0, -121518.44, 0.0, 9.998142, 9.999774 
1.5049669e+3, 1.9349468e+2, -1290429.1, -1186030.5, 128378.914, -0.018052123, -0.13719076, -1099644.4, -55896.598, 0.0, 9.998332, 9.999706 
1.5050136e+3, 2.03495e+2, -1116598.1, -1021961.7, -20476.658, -0.013246325, -0.068709254, -1017721.1, -71975.16, 0.0, 9.998726, 9.999973 
1.5050565e+3, 2.1349524e+2, -867416.75, -823179.7, -88270.53, -0.006758279, -0.06814835, -754298.7, 93445.58, 0.0, 9.99964, 10.000224 
1.5051009e+3, 2.23495e+2, -734427.0, -876060.9, 18594.766, -0.012624799, -0.030279085, -732026.4, 17721.504, 0.0, 10.000604, 9.998726 
1.5051475e+3, 2.3349413e+2, -485459.1, -710103.3, 6962.3354, -0.0370614, 0.010864683, -485243.53, 166515.67, 0.0, 10.00166, 9.998683 
1.5051948e+3, 2.4349289e+2, -319140.56, -636195.1, 29402.121, -0.026787098, 0.060783762, -316437.0, 237335.14, 0.0, 10.002374, 9.998172 
1.5052435e+3, 2.5349122e+2, -181774.44, -505081.25, 23544.512, 0.027936768, 0.061915573, -180068.83, 275717.28, 0.00000020302433, 10.002585, 9.998295 
1.5052916e+3, 2.6348847e+2, -92256.836, -452019.0, 36071.31, 0.032430943, -0.008157023, -88675.81, 269134.03, 0.0000077496, 10.002699, 9.997934 
1.5053393e+3, 2.734841e+2, 13306.232, -335207.84, 7183.9688, -0.03916734, -0.2539038, 13454.254, 273302.06, 0.0000483451, 10.002677, 9.998076 
1.5053877e+3, 2.8348133e+2, 94440.7, -401138.0, -58118.195, 0.0056485366, -0.25790682, 101165.17, 263038.25, 0.00020450291, 10.0032425, 9.996674 
1.5054365e+3, 2.934812e+2, 434851.63, -190770.9, -71672.96, 0.22608645, 0.057744365, 442957.66, 506835.06, 0.0006811045, 10.004939, 9.996622 
1.5054832e+3, 3.0347714e+2, 548711.1, -257138.61, -12144.481, 0.2020086, 0.06493886, 548894.1, 548894.1, 0.0016125403, 10.005989, 9.995354 
1.5055294e+3, 3.1347233e+2, 592598.7, -103579.06, -2268.3552, 0.029626949, 0.04014899, 592606.06, 592606.06, 0.0028906488, 10.005701, 9.996548 
1.5146327e+3, 1.2344001e+2, -2264255.5, -1570780.9, 63238.008, -0.07813149, -0.25113425, -1565061.4, 165224.58, 0.016257107, 9.994422, 10.003688 
1.5146816e+3, 1.3344452e+2, -1862607.8, -1396364.3, 41489.742, 0.027935231, -0.12172861, -1392701.0, 239532.33, 0.009740974, 9.996835, 10.003049 
1.5147276e+3, 1.434472e+2, -1832985.9, -1658022.4, 41360.094, -0.11102097, -0.008617626, -1648737.8, -114532.24, 0.0042781597, 9.997767, 10.00011 
1.5147743e+3, 1.5344621e+2, -1869569.4, -1642615.1, 33756.15, -0.16111134, -0.10701761, -1637700.9, -201476.22, 0.0011151112, 9.996936, 9.999939 
1.5148212e+3, 1.634467e+2, -1729433.1, -1424358.8, -7520.124, -0.16703121, -0.07021439, -1424173.5, -85948.12, 0.000106548556, 9.996767, 10.000858 
1.5148686e+3, 1.7344965e+2, -1485219.8, -1211195.1, -12381.046, -0.08973179, 0.09765481, -1210636.9, 29558.457, 0.0000007145684, 9.997587, 10.001248 
1.5149166e+3, 1.8345098e+2, -1316036.3, -1095795.8, 62242.387, -0.021110052, 0.13383397, -1079422.5, 62756.473, 0.0, 9.998163, 10.001082 
1.5149657e+3, 1.9344969e+2, -1187068.1, -960629.56, 139694.44, 0.018008774, -0.12380613, -894034.6, 150150.72, 0.0, 9.998288, 10.001274 
1.5150125e+3, 2.034494e+2, -1152486.3, -1086998.8, 1654.0063, 0.021611065, -0.18954515, -1086957.0, -140770.67, 0.0, 9.998677, 9.999554 
1.5150559e+3, 2.1345103e+2, -932684.8, -942675.6, -49729.508, -0.030853618, 0.023608876, -887700.44, -39523.84, 0.0, 9.999565, 9.999444 
1.5151009e+3, 2.2345075e+2, -798612.9, -987460.4, 49254.75, -0.06088687, 0.13112709, -786538.4, -36354.605, 0.0, 10.000511, 9.998006 
1.5151489e+3, 2.334472e+2, -548626.25, -822972.3, 53760.723, -0.04798846, -0.02141845, -538467.44, 113751.89, 0.0, 10.001581, 9.997948 
1.515197e+3, 2.4344456e+2, -341360.47, -666569.44, 34686.29, -0.04791478, -0.061199408, -337702.06, 216543.14, 0.0, 10.002298, 9.998004 
1.515245e+3, 2.5344384e+2, -197583.03, -520994.66, 37298.594, -0.06473726, 0.042320754, -193337.17, 262914.2, 0.00000026346208, 10.002506, 9.998228 
1.5152933e+3, 2.6344213e+2, -147027.84, -542773.4, 33406.61, -0.07138865, 0.10663603, -144227.66, 214039.73, 0.0000083363275, 10.002603, 9.997356 
1.5153418e+3, 2.7343893e+2, -51331.99, -439414.66, 17924.072, -0.05159016, 0.040320955, -50505.902, 209792.75, 0.000050820046, 10.002556, 9.997416 
1.5153906e+3, 2.8343555e+2, 87653.06, -394196.8, -5874.3774, -0.023945974, 0.009019578, 87724.67, 250055.83, 0.000217125, 10.003136, 9.996779 
1.5154393e+3, 2.9343185e+2, 432869.53, -167485.03, 8480.285, 0.0071506053, -0.05682951, 432989.3, 497355.06, 0.0007164642, 10.00481, 9.996848 
1.5154873e+3, 3.0342752e+2, 546362.75, -199477.56, -13694.682, 0.0051603285, -0.10957394, 546614.1, 546614.1, 0.0016599566, 10.005754, 9.995847 
1.5155374e+3, 3.13426e+2, 610919.7, 20575.547, 10838.043, 0.2434509, 0.1329205, 611118.6, 611118.6, 0.0029224542, 10.005384, 9.997528 
1.524628e+3, 1.23391844e+2, -2045485.5, -1490956.4, 137246.0, -0.054891746, -0.1777125, -1458847.1, 271915.4, 0.017244658, 9.996042, 10.003457 
1.5246768e+3, 1.3339661e+2, -2010486.5, -1429152.9, -59722.465, -0.046234768, -0.059006162, -1423080.8, 209625.73, 0.010359608, 9.99564, 10.003403 
1.5247245e+3, 1.4339902e+2, -2133025.8, -1731749.6, -109442.73, -0.07017971, -0.017160838, -1703841.5, -169162.19, 0.0045741852, 9.995421, 10.000731 
1.524771e+3, 1.5339799e+2, -1914241.8, -1588045.3, -45436.125, -0.1290372, -0.18754567, -1581834.6, -145140.02, 0.0012060112, 9.996294, 10.000627 
1.5248181e+3, 1.6339862e+2, -1692449.3, -1417069.3, 16630.67, -0.15425256, -0.17102127, -1416068.6, -77375.83, 0.000118081814, 9.997105, 10.000732 
1.5248664e+3, 1.734023e+2, -1415518.0, -1206676.4, -4378.1563, -0.09461945, 0.1007186, -1206584.6, 34074.5, 0.0000008766353, 9.99822, 10.000967 
1.5249148e+3, 1.8340412e+2, -1233007.5, -1035484.8, 2156.613, -0.025770815, 0.19323468, -1035461.3, 107178.96, 0.0, 9.998643, 10.001268 
1.5249637e+3, 1.9340283e+2, -1207670.8, -944237.75, -38400.24, 0.017886287, -0.08748134, -938754.3, 105890.95, 0.0, 9.998019, 10.001521 
1.525011e+3, 2.0340244e+2, -1205560.8, -1125747.5, -151895.64, 0.030096615, -0.1690209, -1008603.7, -61956.945, 0.0, 9.998363, 9.999439 
1.525056e+3, 2.1340394e+2, -801227.0, -898228.8, -161791.28, -0.014061682, 0.04954353, -680823.3, 167816.0, 0.0, 10.0005455, 9.999276 
1.5251023e+3, 2.2340351e+2, -580417.25, -878753.7, -34339.418, -0.0339928, 0.15387163, -576515.75, 174132.0, 0.0, 10.001987, 9.998042 
1.525151e+3, 2.3339987e+2, -479708.22, -780656.44, 9523.6, -0.015431452, -0.014752358, -479407.16, 173275.17, 0.0, 10.002013, 9.998027 
1.5251996e+3, 2.4339704e+2, -377573.16, -693876.1, 28086.777, -0.0026131943, -0.07561378, -375098.47, 179610.78, 0.0, 10.002097, 9.9979105 
1.525248e+3, 2.5339594e+2, -226061.7, -546167.75, 13120.765, -0.005656999, 0.0011038193, -225524.8, 231195.45, 0.0000003530132, 10.002362, 9.998122 
1.5252963e+3, 2.6339436e+2, -163675.45, -551016.5, 25005.3, -0.012916128, 0.08355198, -162067.88, 196668.31, 0.00000861748, 10.00249, 9.9973545 
1.5253446e+3, 2.7339208e+2, -74389.945, -444485.2, 40224.61, -0.021243334, 0.110081196, -70068.51, 190690.92, 0.000051570143, 10.00238, 9.997461 
1.5253937e+3, 2.833889e+2, 49573.473, -377381.8, 111670.66, -0.0019323643, 0.08212794, 77017.055, 239807.03, 0.0002293487, 10.002733, 9.997088 
1.5254438e+3, 2.9338425e+2, 333753.56, -178954.36, 124698.6, 0.044840038, -0.11532588, 362473.44, 427305.94, 0.00075032125, 10.003966, 9.997184 
1.5254927e+3, 3.0338013e+2, 430686.7, -230873.63, 67136.59, 0.027280834, -0.17406224, 437431.1, 437431.1, 0.0016986448, 10.004831, 9.996088 
1.525542e+3, 3.1337902e+2, 564561.8, 19782.676, 34973.03, 0.21366368, 0.09033826, 566797.8, 566797.8, 0.0029323448, 10.0049305, 9.997761 
1.5346232e+3, 1.2334702e+2, -2129103.3, -1681192.6, 86897.164, -0.1590303, 0.22479515, -1664924.9, 66284.34, 0.018294634, 9.996119, 10.002094 
1.5346712e+3, 1.3334848e+2, -2115998.5, -1627441.8, -83451.125, -0.17907295, 0.15007415, -1613580.6, 19609.78, 0.011016667, 9.995568, 10.002058 
1.534721e+3, 1.4334816e+2, -2024987.9, -1512197.9, -102136.63, 0.02253518, -0.067533046, -1492603.3, 42586.004, 0.0048880493, 9.995429, 10.002245 
1.5347679e+3, 1.5335082e+2, -1781821.6, -1292821.9, -8540.118, -0.07820659, -0.06722327, -1292672.9, 144485.88, 0.0013030368, 9.996218, 10.002688 
1.5348154e+3, 1.6335267e+2, -1690191.0, -1424642.5, 46806.25, -0.14262378, -0.04537556, -1416633.9, -77495.195, 0.00013086536, 9.997142, 10.0006695 
1.5348643e+3, 1.7335312e+2, -1449303.3, -1274915.0, 42935.477, -0.115973905, -0.052190494, -1264917.3, -23780.092, 0.0000010420176, 9.99821, 10.0005045 
1.5349129e+3, 1.8335353e+2, -1294324.5, -1175538.9, -19622.396, -0.09207435, -0.031731635, -1172381.4, -29246.871, 0.0, 9.99869, 10.000287 
1.5349609e+3, 1.9335407e+2, -1284149.0, -1099653.4, -59416.273, -0.07358457, -0.026919192, -1082174.4, -37046.74, 0.0, 9.998002, 10.000464 
1.5350087e+3, 2.0335425e+2, -1201407.8, -1101876.6, -91865.61, -0.04908235, 0.001594998, -1047163.0, -100036.97, 0.0, 9.998298, 9.999633 
1.5350565e+3, 2.1335405e+2, -785342.75, -844532.6, -71654.71, -0.014125445, 0.010761414, -737411.9, 111719.79, 0.0, 10.000456, 9.999686 
1.5351047e+3, 2.2335342e+2, -544919.44, -778868.44, -27440.654, 0.008582191, 0.037766512, -541743.94, 209395.25, 0.0, 10.00187, 9.998787 
1.5351532e+3, 2.333521e+2, -433368.3, -667493.0, 15359.126, 0.012917193, 0.021943301, -432365.0, 220783.95, 0.0, 10.001931, 9.998848 
1.5352021e+3, 2.4335021e+2, -399084.94, -706455.56, 29706.842, 0.047252107, 0.008260378, -396240.16, 158925.56, 0.0, 10.001967, 9.997882 
1.5352517e+3, 2.5334755e+2, -257182.45, -584060.44, 29873.576, 0.13688087, -0.054471105, -254474.72, 202717.92, 0.0000004707298, 10.002254, 9.9979105 
1.5353002e+3, 2.6334524e+2, -139087.34, -483046.47, 12597.267, 0.13591065, -0.05098166, -138626.6, 220588.67, 0.000008627056, 10.00241, 9.997864 
1.5353471e+3, 2.733438e+2, -38148.023, -353946.53, 38124.97, -0.01411824, -0.0064762663, -33610.56, 227618.25, 0.00005249565, 10.002312, 9.998119 
1.5353963e+3, 2.8334144e+2, 62289.35, -327678.13, 140283.02, -0.009395491, -0.007935495, 107509.664, 270760.28, 0.00024229621, 10.002629, 9.997483 
1.5354498e+3, 2.9333785e+2, 337692.53, -136295.39, 179258.58, 0.23667197, -0.13504, 397851.34, 463134.53, 0.0007837184, 10.003818, 9.997547 
1.5354991e+3, 3.0333453e+2, 404299.9, -236703.25, 65001.38, 0.17954646, -0.13822675, 410824.97, 410824.97, 0.0017382076, 10.004636, 9.996135 
1.5355437e+3, 3.133316e+2, 510439.84, -32159.328, 63214.844, -0.1221112, -0.0548669, 517707.25, 517707.25, 0.0029525503, 10.004703, 9.9974985 
1.5446192e+3, 1.2329927e+2, -2358513.5, -1815189.9, 102166.65, -0.0682516, 0.27828074, -1796613.6, -64935.973, 0.019406972, 9.994668, 10.00186 
1.5446664e+3, 1.333e+2, -2142113.0, -1728410.5, 13972.424, -0.2052124, 0.20760904, -1727939.1, -94270.055, 0.0117135905, 9.995769, 10.001269 
1.5447177e+3, 1.4329872e+2, -1861072.8, -1420039.6, 1584.8258, 0.10967709, -0.06752601, -1420033.9, 115644.56, 0.0052204016, 9.996505, 10.002354 
1.5447643e+3, 1.5330222e+2, -1691670.0, -1228118.3, -57491.734, -0.04796215, -0.0054041804, -1221094.4, 216543.25, 0.0014059248, 9.996732, 10.0028925 
1.5448123e+3, 1.6330436e+2, -1704591.1, -1410145.1, -54178.707, -0.15296294, 0.02651275, -1400492.5, -60879.688, 0.00014487762, 9.996953, 10.000851 
1.544862e+3, 1.7330413e+2, -1544180.3, -1303411.1, -25059.67, -0.119238794, -0.06800148, -1300830.6, -59213.926, 0.000001197513, 9.997469, 10.000665 
1.5449113e+3, 1.8330406e+2, -1396668.5, -1263845.6, -42604.84, -0.08176706, -0.08947115, -1251354.3, -107735.64, 0.0, 9.998169, 9.999929 
1.5449595e+3, 1.9330454e+2, -1098697.1, -1057632.9, -49937.742, -0.06434403, -0.04258455, -1024171.0, 21442.893, 0.0, 9.999491, 10.000031 
1.545008e+3, 2.0330468e+2, -903674.7, -951112.6, -26430.02, -0.044893578, 0.0026954052, -891881.2, 55732.12, 0.0, 10.000325, 9.999689 
1.5450567e+3, 2.1330446e+2, -813280.75, -841473.56, -36558.848, -0.020163255, -0.0016419736, -788194.75, 61422.684, 0.0, 10.000211, 9.999823 
1.5451057e+3, 2.2330393e+2, -755725.5, -855628.0, -31258.773, 0.020139946, 0.019185403, -746751.06, 4872.279, 0.0, 10.00032, 9.999004 
1.5451552e+3, 2.3330297e+2, -569050.4, -704359.56, -50490.105, 0.08101876, 0.01597523, -552287.0, 101343.55, 0.0, 10.000895, 9.999087 
1.5452045e+3, 2.4330132e+2, -470084.3, -740771.5, -45539.99, 0.12832306, 0.014444423, -462628.13, 93017.516, 0.000000000009610117, 10.0014715, 9.9978895 
1.5452537e+3, 2.532987e+2, -306379.1, -612655.5, -44536.9, 0.14155059, -0.03858867, -300034.25, 157638.28, 0.0000005675007, 10.001936, 9.997872 
1.5453024e+3, 2.632964e+2, -143870.17, -461923.03, -60311.53, 0.13457508, -0.041693892, -132817.55, 226877.8, 0.000008574752, 10.002283, 9.998067 
1.5453504e+3, 2.7329472e+2, 6203.6895, -308446.22, -79885.36, 0.10031371, -0.04256835, 25323.66, 287034.2, 0.000054083343, 10.002508, 9.998342 
1.5454002e+3, 2.8329265e+2, 113228.58, -248749.89, 39928.68, 0.1288464, -0.043633353, 117580.66, 281309.7, 0.00025521294, 10.002757, 9.997951 
1.5454526e+3, 2.9329047e+2, 260943.13, -118284.72, 74621.73, 0.20184796, -0.07691837, 275098.28, 340847.03, 0.000817165, 10.003058, 9.99803 
1.5455021e+3, 3.032883e+2, 332114.2, -222236.53, 5752.758, 0.082885474, -0.01604954, 332173.88, 332173.88, 0.0017871159, 10.003918, 9.996581 
1.5455493e+3, 3.1328478e+2, 650342.6, 21779.031, 7953.247, -0.054177787, -0.021462414, 650443.25, 650443.25, 0.0030043805, 10.005689, 9.997409 
1.554616e+3, 1.2324896e+2, -2283491.3, -1663121.6, 27885.12, 0.11375241, 0.0012711758, -1661870.8, 70292.27, 0.020587768, 9.99467, 10.002917 
1.5546624e+3, 1.3325126e+2, -2159184.0, -1741716.6, 70891.32, -0.17662373, 0.096064985, -1730006.8, -95866.27, 0.012455585, 9.995689, 10.001211 
1.5547141e+3, 1.4325114e+2, -1951452.8, -1625248.8, 11270.719, 0.101093225, -0.007110084, -1624859.8, -88717.6, 0.0055746003, 9.996565, 10.00092 
1.5547606e+3, 1.5325242e+2, -1816537.0, -1492057.4, -42218.34, -0.11320171, 0.011945437, -1486654.4, -48525.527, 0.001515748, 9.996752, 10.001069 
1.5548082e+3, 1.6325377e+2, -1669745.8, -1352950.6, -48721.297, -0.25621387, 0.056660835, -1345626.9, -5512.08, 0.00016035176, 9.997007, 10.001224 
1.5548591e+3, 1.7325537e+2, -1489411.9, -1181508.3, -4981.3174, -0.14760797, 0.066775486, -1181427.6, 60669.758, 0.0000013687348, 9.997433, 10.001522 
1.5549098e+3, 1.8325587e+2, -1375816.3, -1219940.8, -4471.23, -0.050584793, 0.037637986, -1219812.6, -75721.85, 0.0, 9.998165, 10.000232 
1.5549594e+3, 1.932544e+2, -1093500.4, -1037943.75, 6682.645, -0.012009125, -0.12809476, -1037151.25, 8951.58, 0.0, 9.999454, 10.000184 
1.5550086e+3, 2.0325378e+2, -916653.7, -973014.8, -29983.346, -0.013394801, -0.16260046, -903686.4, 44421.95, 0.0, 10.00029, 9.999563 
1.5550563e+3, 2.1325506e+2, -831440.75, -870118.75, -36922.57, -0.07870967, 0.0028791158, -809099.1, 40998.816, 0.0, 10.000157, 9.99966 
1.5551053e+3, 2.2325502e+2, -790209.7, -907245.0, -20065.502, -0.059452806, 0.09430377, -786865.06, -34764.574, 0.0, 10.000234, 9.9986925 
1.5551566e+3, 2.3325251e+2, -603005.25, -761839.7, -20816.068, 0.127397, -0.028983122, -600322.56, 53803.918, 0.0, 10.000835, 9.998723 
1.5552065e+3, 2.4325041e+2, -479409.56, -741039.1, -32427.113, 0.17941238, -0.05652451, -475450.38, 80698.016, 0.0, 10.001388, 9.9979315 
1.5552539e+3, 2.5324938e+2, -308429.44, -597946.75, -19742.102, -0.029178046, 0.039477192, -307089.4, 151070.19, 0.0000005355393, 10.001852, 9.998016 
1.5553027e+3, 2.6324767e+2, -165543.89, -485498.1, -50734.76, -0.06711985, 0.09141584, -157691.64, 202485.02, 0.000008556659, 10.002189, 9.99795 
1.5553544e+3, 2.732448e+2, -13423.998, -338864.56, -58790.816, 0.25358146, -0.012939728, -3129.1067, 259074.4, 0.00005618316, 10.002466, 9.998148 
1.5554051e+3, 2.8324264e+2, 141655.53, -187135.22, 45076.805, 0.34217194, -0.032333042, 147723.52, 311947.22, 0.0002694527, 10.002738, 9.998389 
1.555453e+3, 2.9324222e+2, 297222.84, -27331.936, 93520.35, -0.079916455, 0.04834788, 322242.03, 388469.34, 0.0008548701, 10.002985, 9.998695 
1.5555023e+3, 3.0324143e+2, 341137.34, -142341.03, 53647.438, -0.30211967, 0.17937316, 347018.6, 347018.6, 0.0018553379, 10.00368, 9.997233 
1.5555578e+3, 3.1323838e+2, 607211.56, 20423.86, 96644.18, 0.21410885, 0.15356503, 622719.06, 622719.06, 0.003105468, 10.005346, 9.997544 
1.5646115e+3, 1.23198815e+2, -2254981.5, -1609137.4, -135902.02, 0.208827, -0.07459029, -1581705.3, 150947.06, 0.021849003, 9.994675, 10.003306 
1.5646587e+3, 1.3320106e+2, -2081400.6, -1699015.5, -11986.271, -0.13411091, 0.0069854404, -1698640.3, -64009.6, 0.013250772, 9.996174, 10.001284 
1.5647106e+3, 1.432023e+2, -1897608.0, -1638188.8, -65492.836, 0.07437788, 0.050746318, -1622592.1, -85972.58, 0.0059556314, 9.997127, 10.000551 
1.5647575e+3, 1.5320256e+2, -1835279.1, -1555979.8, -48969.88, -0.08052947, 0.014774668, -1547642.8, -109024.71, 0.0016345053, 9.996873, 10.000566 
1.5648057e+3, 1.6320316e+2, -1692827.4, -1376841.4, 29303.316, -0.1958527, 0.022579288, -1374146.9, -33535.3, 0.00017771397, 9.996912, 10.001107 
1.564857e+3, 1.7320493e+2, -1415397.1, -1146843.5, 6993.2554, -0.10485171, 0.05048927, -1146661.5, 95930.305, 0.0000016137079, 9.997949, 10.00151 
1.5649083e+3, 1.8320563e+2, -1289378.0, -1172918.1, -26800.97, -0.02878953, 0.04154465, -1167046.4, -22464.068, 0.0, 9.998732, 10.000282 
1.5649584e+3, 1.9320449e+2, -1140261.9, -1055056.1, -35179.2, -0.03419087, -0.09669074, -1042408.9, 4182.563, 0.0, 9.999103, 10.000239 
1.565008e+3, 2.0320386e+2, -1027695.94, -1027294.0, -78274.86, -0.04023161, -0.13292341, -949219.9, -623.0995, 0.0, 9.9995365, 9.999546 
1.5650567e+3, 2.132045e+2, -814030.7, -861657.7, -89204.81, -0.041438367, -0.032602433, -745515.56, 105076.38, 0.0, 10.000284, 9.999646 
1.5651064e+3, 2.2320427e+2, -681140.06, -870145.94, -38451.754, 0.0035377503, 0.047318965, -673616.8, 78979.97, 0.0, 10.001054, 9.998548 
1.5651578e+3, 2.3320255e+2, -472767.25, -719615.2, -34581.332, 0.12441996, 0.019932477, -468014.2, 186604.1, 0.0, 10.001812, 9.998543 
1.5652078e+3, 2.4320093e+2, -326674.6, -608208.0, -33059.305, 0.15037255, 0.029823244, -322844.7, 233791.97, 0.0, 10.002176, 9.998466 
1.5652557e+3, 2.531998e+2, -253156.34, -490555.4, 376.01294, -0.020648882, 0.047190655, -253155.75, 205489.94, 0.00000039469393, 10.001887, 9.998733 
1.5653048e+3, 2.6319802e+2, -173978.17, -511536.66, 25533.023, -0.056746062, 0.05919637, -172057.78, 188604.05, 0.000008163994, 10.002236, 9.997746 
1.5653566e+3, 2.7319518e+2, 148474.03, -308763.97, -6245.102, 0.17128274, -0.0011818041, 148559.31, 411250.0, 0.000058034057, 10.003787, 9.997719 
1.5654075e+3, 2.8319284e+2, 331690.94, -151904.2, 26109.275, 0.23808154, 0.008585939, 333096.5, 497810.88, 0.0002845846, 10.0042925, 9.997885 
1.565456e+3, 2.9319176e+2, 238921.5, -114455.09, -32354.297, -0.04777804, 0.08194024, 241859.34, 308584.06, 0.0008967002, 10.002848, 9.998162 
1.5655062e+3, 3.0319017e+2, 225198.67, -147025.45, -27904.484, -0.20113571, 0.14481443, 227278.95, 227278.95, 0.0019423024, 10.002633, 9.997715 
1.5655623e+3, 3.1318757e+2, 535544.1, 18429.17, 12739.52, 0.19592391, 0.105446704, 535857.8, 535857.8, 0.0032575028, 10.00467, 9.997874 
1.5746044e+3, 1.2314929e+2, -2286543.8, -1676190.0, -168350.25, 0.014930239, 0.10638207, -1632834.6, 100307.31, 0.023204513, 9.994683, 10.002837 
1.5746547e+3, 1.3314982e+2, -2066393.6, -1664030.6, 53709.527, -0.14392902, -0.008998928, -1656984.6, -21848.713, 0.014108494, 9.996169, 10.001521 
1.5747067e+3, 1.4315245e+2, -1830964.3, -1524223.5, -73631.13, -0.03961311, 0.13403943, -1507464.4, 29644.39, 0.0063687824, 9.997216, 10.001301 
1.5747553e+3, 1.5315264e+2, -1772262.9, -1424199.9, -56483.91, 0.006343106, 0.0076223877, -1415263.1, 23841.176, 0.00176415, 9.996865, 10.001477 
1.5748043e+3, 1.6315274e+2, -1727518.4, -1456296.1, 53655.37, -0.025906833, -0.07192069, -1446067.4, -104966.016, 0.00019721544, 9.996939, 10.00055 
1.5748557e+3, 1.7315288e+2, -1485001.1, -1286138.6, 53483.71, -0.041725677, -0.11564181, -1272667.0, -29568.291, 0.0000019795527, 9.997928, 10.000564 
1.5749066e+3, 1.8315338e+2, -1298738.3, -1201846.5, -14694.322, -0.074557185, -0.0800505, -1199667.1, -54573.73, 0.0, 9.998766, 10.00007 
1.5749559e+3, 1.9315487e+2, -1148008.6, -1064298.6, -17796.64, -0.18551998, 0.051255334, -1060672.1, -13592.874, 0.0, 9.999072, 10.000193 
1.5750061e+3, 2.0315509e+2, -1026744.0, -1016527.1, -57130.652, -0.1917648, 0.09805875, -964276.94, -15199.547, 0.0, 9.999492, 9.999642 
1.5750578e+3, 2.1315286e+2, -819778.6, -854155.2, -54865.13, 0.031286057, -0.09874521, -779472.4, 71625.96, 0.0, 10.000198, 9.99974 
1.5751089e+3, 2.2315168e+2, -694869.2, -875394.56, -15026.534, 0.14502265, -0.12079987, -693626.94, 59485.008, 0.0, 10.00095, 9.998563 
1.5751584e+3, 2.3315293e+2, -493294.88, -732110.1, 357.93506, 0.023510208, 0.14863664, -493294.34, 161813.13, 0.0, 10.001681, 9.998521 
1.5752083e+3, 2.4315278e+2, -281674.22, -480212.16, -42919.137, -0.02151635, 0.26948625, -272793.38, 284317.88, 0.0, 10.002026, 9.999415 
1.5752588e+3, 2.5315002e+2, -180807.1, -327959.5, -7499.865, 0.10232558, 0.0047458047, -180425.84, 278704.47, 0.00000029448665, 10.001831, 9.999875 
1.5753086e+3, 2.631475e+2, -204861.89, -564844.06, 64178.883, 0.09932171, -0.11394438, -193762.11, 167389.1, 0.000007127328, 10.002187, 9.997407 
1.575357e+3, 2.7314577e+2, 83771.94, -409200.72, 58342.297, -0.16778459, -0.0037649823, 90582.54, 353755.94, 0.000058357444, 10.003642, 9.9971 
1.5754072e+3, 2.8314325e+2, 210433.55, -372510.06, -16448.156, -0.21369377, 0.086367056, 210897.27, 376098.5, 0.0002965317, 10.004146, 9.996446 
1.5754612e+3, 2.9313943e+2, 127096.43, -355300.78, -71440.45, 0.17977618, 0.0459889, 137454.0, 204692.27, 0.0009378255, 10.002873, 9.9965 
1.575513e+3, 3.031351e+2, 245249.95, -101320.14, 29425.785, 0.23552898, -0.08037598, 247730.61, 247730.61, 0.0020388523, 10.002635, 9.998016 
1.5755635e+3, 3.1313336e+2, 528861.56, 92218.29, 115761.375, -0.16170645, -0.10950553, 557653.3, 557653.3, 0.0034398227, 10.004314, 9.998541 
1.5845986e+3, 1.230983e+2, -2181683.3, -1670065.5, -184539.06, -0.06552838, 0.17560302, -1610449.5, 123194.11, 0.024665277, 9.995613, 10.002427 
1.5846509e+3, 1.3309827e+2, -2254637.0, -1696089.9, 56130.746, -0.060727395, -0.034974772, -1690504.9, -54863.773, 0.0150364665, 9.994634, 10.00204 
1.5847018e+3, 1.431014e+2, -2208343.5, -1669106.5, -45566.45, -0.09984962, 0.11192651, -1665283.1, -127675.08, 0.0068181083, 9.994475, 10.001621 
1.5847519e+3, 1.5310197e+2, -1810466.8, -1413964.3, -87297.08, 0.00795149, -0.0063648787, -1395595.3, 44004.38, 0.0019058621, 9.996475, 10.001736 
1.584802e+3, 1.631021e+2, -1612452.9, -1444336.8, 2400.4014, 0.01698008, -0.07744757, -1444302.5, -102706.664, 0.0002187055, 9.997918, 10.000157 
1.5848538e+3, 1.7310159e+2, -1476113.0, -1340560.8, 16196.074, -0.006385754, -0.13548547, -1338652.5, -95052.27, 0.000002466339, 9.998242, 10.000035 
1.5849052e+3, 1.8310168e+2, -1352455.5, -1219891.3, -25367.29, -0.05171176, -0.10999926, -1215202.9, -69604.04, 0.0, 9.998377, 10.000129 
1.5849544e+3, 1.931034e+2, -1216674.9, -1070381.8, -24520.113, -0.20772055, 0.024566766, -1066381.4, -18799.354, 0.0, 9.998492, 10.000424 
1.5850048e+3, 2.0310378e+2, -1119548.5, -1069630.6, -26136.584, -0.23304923, 0.07523558, -1058450.0, -108871.72, 0.0, 9.998897, 9.999568 
1.5850577e+3, 2.1310155e+2, -871756.0, -897019.4, -50729.176, 0.028530393, -0.1057816, -832109.5, 19490.25, 0.0, 9.999914, 9.999591 
1.5851095e+3, 2.2310024e+2, -744043.3, -863407.4, -20512.678, 0.1623371, -0.1408728, -740616.56, 12997.37, 0.0, 10.000461, 9.998882 
1.5851592e+3, 2.3310128e+2, -667056.6, -765626.8, 8076.326, 0.01841829, 0.06610433, -666399.25, -10789.984, 0.0, 10.000276, 9.998969 
1.5852095e+3, 2.4310125e+2, -485929.72, -590259.56, -21320.246, -0.016809436, 0.17729437, -481741.0, 75870.555, 0.0, 10.000684, 9.999297 
1.5852612e+3, 2.5309923e+2, -132539.11, -336739.53, -94055.58, 0.16125967, 0.0148826, -95819.63, 363807.4, 0.00000023115544, 10.002295, 9.99959 
1.5853119e+3, 2.6309702e+2, -87575.15, -518696.28, -79979.38, 0.17704834, -0.049053464, -73216.04, 288431.6, 0.0000061293663, 10.003039, 9.997305 
1.58536e+3, 2.7309492e+2, -132725.66, -518166.06, -65639.836, -0.13774243, 0.031540383, -121853.945, 141819.84, 0.00005923624, 10.002184, 9.9970455 
1.5854104e+3, 2.8309232e+2, -33382.42, -479373.25, -51922.426, -0.20168087, 0.11323951, -27417.373, 138284.83, 0.00030706255, 10.002432, 9.996531 
1.585465e+3, 2.930887e+2, 424633.56, -194670.73, -9064.632, 0.20059621, 0.08050342, 424766.22, 492502.16, 0.0009776956, 10.004856, 9.996639 
1.5855175e+3, 3.030835e+2, 612894.9, -9073.302, 101745.75, 0.28750473, -0.108798824, 629116.1, 629116.1, 0.0021358775, 10.005505, 9.997291 
1.5855674e+3, 3.1308156e+2, 181553.97, -156517.16, 46695.656, -0.06917137, -0.06600449, 187885.19, 187885.19, 0.003620403, 10.002256, 9.997832 
1.594594e+3, 1.2304536e+2, -2193552.0, -1722574.5, -195767.78, -0.11201819, 0.07244432, -1651828.1, 82333.09, 0.026239868, 9.995725, 10.002011 
1.5946467e+3, 1.3304663e+2, -2207992.0, -1584488.1, 17386.049, 0.07952956, -0.07709486, -1584003.8, 52140.99, 0.016040104, 9.994565, 10.002844 
1.5946956e+3, 1.4304912e+2, -2228460.8, -1705689.0, 4154.288, -0.16445145, -0.03295272, -1705656.0, -167538.64, 0.0073062, 9.994439, 10.001394 
1.5947469e+3, 1.530506e+2, -1849013.3, -1489360.0, -1522.9949, -0.14123902, -0.014318093, -1489353.5, -49250.54, 0.002060233, 9.99645, 10.001233 
1.5947983e+3, 1.6305146e+2, -1620298.0, -1473247.8, 17070.408, -0.141969, 0.025609009, -1471292.3, -129198.07, 0.00024185247, 9.997969, 9.999935 
1.5948516e+3, 1.730512e+2, -1488921.0, -1363347.0, 30135.115, -0.049578242, 0.008073147, -1356489.6, -112394.516, 0.0000030340082, 9.998228, 9.999886 
1.594904e+3, 1.8305074e+2, -1321666.0, -1163351.6, -27222.03, -0.013842919, -0.030200284, -1158801.6, -12704.383, 0.0, 9.998402, 10.000506 
1.5949535e+3, 1.930502e+2, -1190375.8, -1007671.5, -13970.159, -0.14881608, -0.16731997, -1006609.5, 41488.715, 0.0, 9.998456, 10.000873 
1.5950038e+3, 2.0304993e+2, -1146324.8, -1115355.3, 15.34487, -0.21497329, -0.19490124, -1115355.3, -165256.11, 0.0, 9.998851, 9.999276 
1.5950562e+3, 2.1305044e+2, -916800.75, -968518.1, -8216.155, -0.10157323, -0.05982566, -915526.8, -63429.887, 0.0, 9.999822, 9.999142 
1.5951082e+3, 2.2305001e+2, -714645.56, -783531.0, -25655.2, -0.0061766934, -0.0068865158, -706140.75, 47961.832, 0.0, 10.00037, 9.999478 
1.5951596e+3, 2.3304783e+2, -617752.8, -651533.7, 6350.38, 0.047575917, -0.20454986, -616598.5, 39523.777, 0.0, 10.000216, 9.999786 
1.5952113e+3, 2.4304657e+2, -578929.25, -762270.75, 22380.436, 0.08754028, -0.21928748, -576236.8, -18100.895, 0.0, 10.000596, 9.998156 
1.595263e+3, 2.5304747e+2, -263489.28, -577479.56, -26066.717, 0.1091149, 0.06532482, -261340.0, 198795.61, 0.00000009760233, 10.002166, 9.997994 
1.5953144e+3, 2.6304665e+2, -101776.734, -525324.94, -100830.914, 0.1271251, 0.23631836, -78997.766, 283152.38, 0.0000054247644, 10.00293, 9.997316 
1.5953651e+3, 2.7304286e+2, -104108.88, -463902.03, -89309.625, 0.15402131, 0.10821358, -83159.78, 181030.06, 0.000061938634, 10.0021925, 9.997418 
1.5954162e+3, 2.8304002e+2, 55543.65, -289515.16, 11425.719, 0.14207116, 0.091632135, 55921.566, 222138.92, 0.0003177167, 10.002413, 9.997845 
1.595468e+3, 2.930389e+2, 505465.16, 17391.02, 88504.03, 0.0016067638, 0.1561876, 521018.25, 589242.3, 0.00100846, 10.004661, 9.998198 
1.5955196e+3, 3.0303454e+2, 462390.78, -253506.77, 6903.7495, -0.045944974, 0.022761324, 462457.38, 462457.38, 0.0022075812, 10.005231, 9.995733 
1.5955733e+3, 3.130316e+2, 71599.43, -408353.72, -48891.027, 0.2656352, 0.18155216, 76529.14, 76529.14, 0.003749152, 10.002375, 9.996039 
1.604589e+3, 1.2299338e+2, -2327762.0, -1840679.9, -87413.125, -0.14803495, 0.0185673, -1825467.5, -90799.04, 0.027939666, 9.995035, 10.001517 
1.6046427e+3, 1.3299525e+2, -2046971.3, -1551877.6, -49937.22, 0.17029823, -0.02668964, -1546890.9, 89757.33, 0.01712635, 9.995863, 10.0024395 
1.6046908e+3, 1.4299664e+2, -1970875.3, -1604965.1, -52868.316, -0.14557385, -0.05945751, -1597479.6, -58846.727, 0.007836914, 9.996321, 10.001171 
1.6047436e+3, 1.5299839e+2, -1798647.9, -1487815.5, -44547.836, -0.09990213, 0.0048431596, -1481557.0, -40941.17, 0.0022287087, 9.99689, 10.001031 
1.6047964e+3, 1.6299936e+2, -1698880.4, -1473494.4, -11077.833, -0.080735125, 0.057002626, -1472951.3, -130346.516, 0.00026665046, 9.997287, 10.000257 
1.6048495e+3, 1.7299904e+2, -1507038.9, -1321506.4, 28661.613, -0.051013783, -0.007278584, -1317179.5, -72575.72, 0.0000036433328, 9.997887, 10.000339 
1.6049021e+3, 1.8299842e+2, -1339588.3, -1210970.8, -16601.48, -0.035285767, -0.07599125, -1208862.5, -62255.887, 0.0, 9.998441, 10.000163 
1.6049527e+3, 1.9299746e+2, -1136646.6, -1043498.2, -91295.33, -0.08733685, -0.20403479, -987583.44, 61030.766, 0.0, 9.999077, 10.000331 
1.6050038e+3, 2.0299698e+2, -1038964.25, -1059959.8, -91276.75, -0.12187621, -0.21715309, -957583.56, -6965.194, 0.0, 9.999581, 9.999302 
1.6050558e+3, 2.1299784e+2, -883258.3, -929751.94, -66200.51, -0.11170645, -0.061792843, -836341.6, 16270.173, 0.0, 9.999968, 9.9993305 
1.605108e+3, 2.2299744e+2, -705257.5, -782899.7, -76562.92, -0.0651628, -0.014963319, -658235.94, 96380.13, 0.0, 10.000461, 9.999432 
1.6051601e+3, 2.3299475e+2, -475994.44, -589598.94, -126587.96, 0.03415335, -0.25119063, -394048.7, 262591.06, 0.0, 10.001231, 9.999709 
1.6052122e+3, 2.4299324e+2, -434608.47, -714811.0, -101842.92, 0.09567516, -0.2781574, -401503.66, 157152.63, 0.0, 10.00168, 9.99797 
1.6052645e+3, 2.5299445e+2, -375370.75, -650515.3, -61416.563, 0.088830926, 0.0639555, -362284.06, 98370.79, 0.000000007673713, 10.00149, 9.997825 
1.6053165e+3, 2.6299384e+2, -216051.02, -551186.3, -58720.105, 0.10833712, 0.25172412, -206060.31, 156608.27, 0.0000049766613, 10.002026, 9.997575 
1.6053684e+3, 2.729897e+2, 186559.86, -289282.88, -68248.195, 0.18188807, 0.063080356, 196154.95, 460864.94, 0.00006397672, 10.004041, 9.997733 
1.60542e+3, 2.8298694e+2, 402561.63, -116702.93, -9937.486, 0.16442879, 0.03402338, 402751.72, 569488.7, 0.0003242289, 10.004767, 9.997899 
1.6054708e+3, 2.929869e+2, 233745.69, -111220.484, -55026.934, -0.07428852, 0.20682766, 242310.6, 311046.38, 0.0010201415, 10.002786, 9.998212 
1.6055226e+3, 3.0298325e+2, 143833.06, -387339.75, -101294.555, -0.12384366, 0.14002208, 162494.3, 162494.3, 0.0022316591, 10.002948, 9.995907 
1.6055791e+3, 3.129801e+2, 876611.44, 55326.723, -25238.934, 0.35959464, 0.2503447, 877386.4, 877386.4, 0.003791837, 10.007601, 9.996711 
1.6145831e+3, 1.2294271e+2, -2350351.5, -1900818.0, 26273.02, -0.23581511, 0.029275205, -1899287.6, -164126.33, 0.02978273, 9.99508, 10.001088 
1.6146383e+3, 1.3294461e+2, -2166642.3, -1807708.9, -24214.838, 0.13920029, 0.1521626, -1806082.6, -168935.11, 0.018308382, 9.995895, 10.000663 
1.6146877e+3, 1.4294422e+2, -1973726.8, -1636613.6, -41067.223, -0.111333854, 0.05834186, -1631682.9, -92529.97, 0.008418617, 9.996428, 10.000903 
1.6147426e+3, 1.5294534e+2, -1794460.9, -1478136.0, -22232.895, 0.09925388, 0.061810847, -1476581.0, -35443.19, 0.0024150687, 9.996893, 10.001095 
1.614796e+3, 1.629458e+2, -1623021.9, -1337134.3, 1170.5374, 0.15846564, 0.019592807, -1337129.4, 5998.408, 0.0002938315, 9.99736, 10.001162 
1.6148475e+3, 1.7294511e+2, -1431014.1, -1166587.3, 56853.813, -0.058026467, -0.18959084, -1154881.4, 90244.84, 0.000004294035, 9.997886, 10.001407 
1.614899e+3, 1.829447e+2, -1412266.3, -1366662.5, 2243.9417, -0.1779604, -0.25607672, -1366552.3, -219425.33, 0.0, 9.998464, 9.999082 
1.6149518e+3, 1.9294521e+2, -1253556.6, -1282289.9, -60888.574, -0.08095853, -0.082786106, -1205362.8, -156233.31, 0.0, 9.999061, 9.998701 
1.6150044e+3, 2.0294507e+2, -1027599.3, -1022270.8, -84358.055, -0.022735402, 0.024365386, -940534.94, 10599.996, 0.0, 9.999519, 9.999591 
1.6150564e+3, 2.1294384e+2, -840513.75, -824864.5, -47276.484, -0.049144115, -0.10204246, -784769.5, 68373.86, 0.0, 9.999895, 10.000087 
1.6151084e+3, 2.229426e+2, -770765.7, -890750.25, -56798.418, -0.06885468, -0.15501909, -748143.56, 7009.902, 0.0, 10.000344, 9.998745 
1.6151603e+3, 2.3294188e+2, -563393.8, -747983.44, -89810.4, -0.074524894, -0.09621807, -526908.8, 130254.44, 0.0, 10.001134, 9.998668 
1.6152126e+3, 2.429411e+2, -399267.78, -622040.44, -107453.77, -0.050545774, -0.014336995, -355885.8, 203287.84, 0.0, 10.001592, 9.998651 
1.6152655e+3, 2.529404e+2, -306900.97, -495670.6, -61076.727, 0.04192031, 0.023827171, -288863.1, 172320.38, 0.00000000987263, 10.001429, 9.998919 
1.615318e+3, 2.6293868e+2, -207958.52, -508363.9, -4031.691, 0.06228678, 0.025646701, -207904.42, 155297.98, 0.000004852554, 10.001914, 9.997921 
1.6153699e+3, 2.7293533e+2, 169810.16, -277108.03, 17296.807, -0.07220022, -0.105097145, 170478.6, 435715.28, 0.00006378427, 10.003845, 9.997907 
1.6154216e+3, 2.8293303e+2, 300559.7, -281557.7, -63706.844, -0.1510781, -0.05704766, 307450.2, 474712.06, 0.0003243143, 10.0045595, 9.996869 
1.615473e+3, 2.92933e+2, 145515.88, -302408.8, -117514.84, -0.1188603, 0.23788232, 174474.22, 243742.0, 0.0010147525, 10.002807, 9.996894 
1.6155262e+3, 3.0292985e+2, 236430.95, -178109.19, 21612.72, -0.05848391, 0.24527147, 237554.72, 237554.72, 0.0022141766, 10.00291, 9.997345 
1.6155848e+3, 3.1292698e+2, 978570.06, 406586.72, 163242.48, 0.15936187, 0.17527452, 1021879.7, 1021879.7, 0.0037547187, 10.007047, 9.999376 
1.624578e+3, 1.2288875e+2, -2358157.3, -1822308.8, -67477.21, -0.22499172, -0.030301118, -1813942.3, -78253.92, 0.03179242, 9.994676, 10.001818 
1.6246335e+3, 1.3289152e+2, -2216351.3, -1830754.4, -80222.4, 0.11231265, 0.17588331, -1814730.3, -177063.56, 0.019603958, 9.9955435, 10.000674 
1.6246846e+3, 1.4289147e+2, -2025441.1, -1665486.0, 16074.9375, -0.03665872, 0.116235554, -1664769.5, -125100.56, 0.009062119, 9.9961, 10.000858 
1.62474e+3, 1.5289125e+2, -1697421.8, -1428341.9, 28708.22, 0.15156543, -0.0133121, -1425313.0, 16351.776, 0.002624408, 9.9975605, 10.001103 
1.6247943e+3, 1.6289115e+2, -1460331.1, -1274295.0, 6992.103, 0.1936781, -0.106474236, -1274032.6, 69627.125, 0.00032476612, 9.998554, 10.001013 
1.6248454e+3, 1.7289148e+2, -1350615.6, -1147926.4, -53578.633, -0.05545358, -0.1944732, -1134635.0, 111016.625, 0.000005034694, 9.998539, 10.001212 
1.6248973e+3, 1.8289176e+2, -1400901.1, -1354426.8, -117259.22, -0.18346258, -0.1779893, -1258124.5, -110476.516, 0.0, 9.998518, 9.99914 
1.6249508e+3, 1.9289225e+2, -1295653.6, -1277704.8, -61297.547, -0.05702534, -0.019553537, -1224728.1, -175077.8, 0.0, 9.998686, 9.998903 
1.625004e+3, 2.0289202e+2, -1076601.6, -1036888.56, 15643.957, 0.0156061575, 0.058520094, -1031466.4, -79809.97, 0.0, 9.99914, 9.999673 
1.6250564e+3, 2.1289042e+2, -783780.5, -792312.94, -3566.0618, -0.040575158, -0.10990604, -782486.4, 71181.02, 0.0, 10.000255, 10.000142 
1.6251087e+3, 2.2288907e+2, -680592.8, -877190.94, -31853.516, -0.07909943, -0.16824912, -675560.6, 80117.87, 0.0, 10.001084, 9.998485 
1.6251612e+3, 2.3288862e+2, -567065.06, -791175.8, -33330.082, -0.08666864, -0.044294186, -562213.25, 95473.23, 0.0, 10.001282, 9.998304 
1.6252139e+3, 2.4288775e+2, -389998.5, -605850.5, -34258.64, -0.0623721, 0.045191206, -384691.66, 175005.89, 0.0, 10.001603, 9.998752 
1.6252667e+3, 2.5288612e+2, -171577.22, -409274.53, -66749.15, -0.0007284932, -0.029444274, -154115.75, 307597.6, 0.000000011745934, 10.0022545, 9.999116 
1.6253193e+3, 2.6288423e+2, -132304.17, -468584.3, -35160.527, -0.007953516, -0.060245484, -128667.22, 235065.53, 0.0000048598445, 10.002422, 9.997949 
1.6253714e+3, 2.728822e+2, -160818.44, -437080.78, -41391.207, -0.15730967, -0.052772563, -154750.25, 111005.23, 0.000062331186, 10.001578, 9.997895 
1.625424e+3, 2.828802e+2, -90517.266, -466765.7, -84393.33, -0.20295855, 0.021987218, -72454.78, 95323.34, 0.0003208773, 10.001859, 9.996897 
1.6254772e+3, 2.9287815e+2, 403303.44, -177639.4, -78988.02, -0.04498385, 0.11871239, 413851.53, 483652.06, 0.0010017914, 10.004578, 9.996901 
1.6255318e+3, 3.0287433e+2, 613388.44, -23289.908, 87202.38, 0.07525936, 0.06784863, 625116.06, 625116.06, 0.0021734913, 10.005593, 9.997141 
1.6255897e+3, 3.1287172e+2, 360174.97, 83296.57, 51668.34, 0.19303071, 0.056862615, 369502.6, 369502.6, 0.0036621406, 10.002813, 9.999225 
1.6345732e+3, 1.2283171e+2, -2216509.3, -1544015.9, -42539.74, -0.20569156, -0.1183393, -1541335.6, 194912.4, 0.03398967, 9.994715, 10.003751 
1.6346285e+3, 1.3283578e+2, -2086353.3, -1559427.9, -59364.62, 0.041305214, 0.032037817, -1552822.5, 85385.055, 0.02102759, 9.995531, 10.002553 
1.6346812e+3, 1.4283837e+2, -1987380.5, -1604156.4, 49813.855, 0.014152641, 0.10870605, -1597787.1, -57607.11, 0.009775217, 9.996164, 10.001249 
1.6347359e+3, 1.5283619e+2, -1698886.9, -1435963.6, 93418.77, -0.025068676, -0.22223258, -1406151.5, 36043.61, 0.002860367, 9.997573, 10.001049 
1.6347905e+3, 1.628354e+2, -1544460.5, -1461435.8, 11126.612, -0.06074897, -0.3282707, -1459970.5, -115770.24, 0.00036087315, 9.998608, 9.999703 
1.6348436e+3, 1.7283815e+2, -1466536.5, -1389540.3, -54663.41, -0.093887106, -0.01132723, -1361178.9, -114998.94, 0.000005927034, 9.998546, 9.999551 
1.6348967e+3, 1.8283965e+2, -1306072.3, -1168371.5, -120576.516, -0.10566648, 0.17728543, -1098372.9, 49796.55, 0.0, 9.998557, 10.000401 
1.6349493e+3, 1.9283856e+2, -1155211.5, -982270.25, -50211.848, -0.066806525, -0.018644586, -968748.9, 81428.52, 0.0, 9.998665, 10.000944 
1.6350022e+3, 2.0283762e+2, -1088826.9, -1049326.3, 43828.566, -0.06362848, -0.13090995, -1021003.5, -68819.05, 0.0, 9.9990835, 9.999616 
1.6350555e+3, 2.1283746e+2, -840450.8, -891321.3, 45314.242, -0.1392594, -0.09935407, -813921.3, 40263.77, 0.0, 10.000172, 9.999504 
1.635109e+3, 2.2283675e+2, -694823.44, -877749.5, -22495.855, -0.16536392, -0.058005918, -692097.56, 64094.203, 0.0, 10.000955, 9.998546 
1.6351627e+3, 2.3283504e+2, -562543.0, -761554.0, -20931.84, -0.06169619, -0.08573406, -560365.25, 97844.28, 0.0, 10.001189, 9.998554 
1.6352159e+3, 2.4283323e+2, -441377.38, -682893.44, -19462.107, -0.006965798, -0.08607837, -439819.13, 120409.07, 0.0, 10.001478, 9.998282 
1.635268e+3, 2.528316e+2, -233158.53, -508968.38, -35325.14, -0.090051726, -0.09358635, -228706.05, 233538.78, 0.000000006263202, 10.002139, 9.998485 
1.6353203e+3, 2.628304e+2, -167325.3, -518795.78, -61523.566, -0.15809217, -0.0063420804, -156867.03, 207392.2, 0.000005059976, 10.002315, 9.997661 
1.6353731e+3, 2.7283016e+2, -177009.88, -467583.78, -63224.434, -0.1621543, 0.19551735, -163849.27, 102417.84, 0.000060572125, 10.001554, 9.997703 
1.6354269e+3, 2.8282812e+2, -44221.1, -361700.22, -15858.333, -0.103035256, 0.2486198, -43430.934, 124857.445, 0.00031406162, 10.001827, 9.997631 
1.635483e+3, 2.9282236e+2, 448245.03, -44964.273, 32216.025, 0.06468927, -0.12120021, 450340.44, 520676.25, 0.0009813922, 10.0044155, 9.997887 
1.6355386e+3, 3.02817e+2, 474548.38, -251002.9, 10310.994, 0.20223849, -0.3315622, 474694.88, 474694.88, 0.0021163558, 10.005338, 9.995693 
1.6355936e+3, 3.1281465e+2, 201188.56, -231711.16, -30615.387, 0.2952971, -0.12134078, 203343.02, 203343.02, 0.0035367792, 10.002764, 9.997069 
1.6445686e+3, 1.2277607e+2, -2257570.3, -1556102.9, 4707.4385, -0.08764948, -0.10918381, -1556071.3, 180720.22, 0.036383986, 9.994429, 10.003804 
1.6446233e+3, 1.327793e+2, -2124022.0, -1524312.4, -114147.016, 0.015677933, -0.0847578, -1503320.8, 135437.3, 0.022584815, 9.995061, 10.003023 
1.6446777e+3, 1.4278296e+2, -2040575.0, -1621045.9, -55078.414, 0.082036674, 0.06957727, -1613935.4, -73215.305, 0.010560797, 9.9957695, 10.001327 
1.6447331e+3, 1.5278117e+2, -1763932.4, -1471731.9, -20426.41, -0.02976193, -0.21337593, -1470310.9, -27577.215, 0.0031241647, 9.997143, 10.001012 
1.6447882e+3, 1.627807e+2, -1650773.0, -1493708.3, -101893.85, -0.08101079, -0.2920947, -1443595.1, -98857.43, 0.0004029895, 9.997787, 9.999884 
1.6448417e+3, 1.727833e+2, -1672011.8, -1455912.1, -49591.32, -0.04711915, -0.013861935, -1445075.1, -198357.0, 0.0000070009137, 9.996989, 9.999851 
1.6448951e+3, 1.8278484e+2, -1504085.5, -1204560.6, 12320.148, -0.02410523, 0.1383488, -1204054.8, -55348.848, 0.0, 9.996961, 10.000911 
1.6449484e+3, 1.9278423e+2, -1062127.9, -879970.0, -26904.46, -0.033797696, -0.06382981, -876079.4, 174627.98, 0.0, 9.999056, 10.001458 
1.6450018e+3, 2.0278367e+2, -928955.5, -1000706.6, -28862.111, -0.052766956, -0.15819702, -918786.75, 33923.754, 0.0, 10.000298, 9.999367 
1.6450557e+3, 2.1278365e+2, -971855.25, -1003902.3, -37713.484, -0.09725452, -0.06773646, -946902.44, -92189.3, 0.0, 9.999488, 9.999053 
1.6451095e+3, 2.2278294e+2, -916653.56, -963449.8, -58873.668, -0.11513258, -0.0037747584, -876698.9, -119977.6, 0.0, 9.999348, 9.998732 
1.6451633e+3, 2.3278095e+2, -580415.4, -729817.9, -54661.867, -0.07845628, -0.09269644, -562552.1, 96186.76, 0.0, 10.0008955, 9.998915 
1.645217e+3, 2.4277881e+2, -427521.2, -718391.25, -62758.94, -0.05832125, -0.13297491, -414557.88, 146201.05, 0.0, 10.001767, 9.997893 
1.6452694e+3, 2.5277683e+2, -435164.22, -676501.25, -98389.4, -0.09752538, -0.115539804, -400136.34, 62643.582, 0.000000005166704, 10.001061, 9.99785 
1.6453221e+3, 2.627752e+2, -357370.53, -621598.1, -90895.05, -0.124572195, -0.027478274, -329122.34, 35676.39, 0.000005473011, 10.001059, 9.997558 
1.6453753e+3, 2.7277434e+2, 17106.78, -371121.2, -92292.23, -0.12917912, 0.11270479, 37930.215, 304741.78, 0.000058693688, 10.002882, 9.997724 
1.64543e+3, 2.82772e+2, 279738.03, -197136.36, -25781.002, -0.071794964, 0.13409843, 281127.75, 449962.47, 0.00030246936, 10.004035, 9.997691 
1.6454872e+3, 2.92767e+2, 310459.84, -101404.25, -51612.727, 0.10948104, -0.16270961, 316829.2, 387703.0, 0.0009508184, 10.003448, 9.997953 
1.6455431e+3, 3.027625e+2, 250178.58, -325251.4, -81964.33, 0.23747809, -0.3001155, 261625.88, 261625.88, 0.0020491364, 10.003609, 9.996023 
1.6455974e+3, 3.1275913e+2, 571347.5, -46864.27, -23523.416, 0.279203, -0.2311917, 572241.3, 572241.3, 0.0034094017, 10.005288, 9.997116 
1.6545638e+3, 1.2272209e+2, -2379043.0, -1821468.3, -64127.582, -0.024253866, 0.0043939427, -1814187.9, -76872.55, 0.03897044, 9.994518, 10.001886 
1.654618e+3, 1.3272236e+2, -2214476.8, -1699729.6, -86101.36, -0.02110787, -0.15037237, -1685709.4, -46393.875, 0.024272982, 9.995013, 10.001824 
1.6546737e+3, 1.4272504e+2, -2069977.8, -1679858.0, -24861.896, 0.10494354, -0.006955932, -1678280.0, -136988.3, 0.0114189135, 9.995763, 10.000924 
1.6547315e+3, 1.527264e+2, -1780232.0, -1499658.1, 32608.111, 0.096578315, 0.04415711, -1495918.4, -52638.26, 0.0034161112, 9.997119, 10.0008335 
1.6547877e+3, 1.6272731e+2, -1511244.1, -1221665.1, -124196.69, 0.07807573, 0.045133553, -1175696.1, 169573.95, 0.00045137366, 9.997849, 10.001724 
1.6548395e+3, 1.7272703e+2, -1504114.5, -1103286.9, -77204.45, 0.04108119, -0.20337719, -1088930.5, 158334.61, 0.000008273259, 9.996967, 10.002282 
1.6548924e+3, 1.8272723e+2, -1525181.9, -1250353.5, 64330.434, 0.008837829, -0.32112604, -1236040.8, -86782.57, 0.0, 9.996964, 10.000598 
1.6549477e+3, 1.9272926e+2, -1146211.3, -1045108.7, 61231.117, -0.008405548, -0.15852332, -1016257.94, 34982.14, 0.0, 9.999013, 10.000348 
1.6550024e+3, 2.0273028e+2, -971155.5, -1075178.5, -39946.805, -0.013836481, -0.0070295003, -957585.44, -4352.205, 0.0, 10.000239, 9.998885 
1.6550563e+3, 2.1272911e+2, -1001509.25, -1052013.0, -65682.72, 0.028732473, -0.0021553708, -956391.56, -101141.02, 0.0, 9.999427, 9.998754 
1.65511e+3, 2.2272769e+2, -905162.94, -925434.6, -26378.574, 0.0026413123, -0.0016608172, -887039.9, -129773.125, 0.0, 9.999281, 9.999026 
1.655163e+3, 2.3272635e+2, -560312.8, -667580.0, 12786.402, -0.18729469, -0.071272664, -558809.7, 100465.12, 0.0, 10.000805, 9.999388 
1.6552165e+3, 2.4272446e+2, -469126.63, -780313.3, -76296.23, -0.27380633, -0.10115829, -451427.16, 109862.98, 0.0, 10.001657, 9.997524 
1.6552705e+3, 2.527217e+2, -483687.22, -769782.7, -120011.766, -0.08344264, -0.104559444, -440011.97, 23307.137, 0.00000000856411, 10.001033, 9.997223 
1.6553245e+3, 2.6271862e+2, -363204.13, -634363.25, -48331.707, 0.020265477, -0.11608234, -354846.97, 10503.88, 0.0000057188686, 10.001056, 9.997476 
1.6553785e+3, 2.7271512e+2, 9711.233, -359942.2, -12851.801, -0.11350993, -0.2512764, 10157.515, 277543.03, 0.000057056757, 10.002763, 9.99786 
1.6554332e+3, 2.8271234e+2, 216533.28, -283812.75, -34213.27, -0.15767695, -0.26541793, 218861.9, 388274.38, 0.00029092102, 10.003832, 9.997199 
1.65549e+3, 2.9271176e+2, 258205.16, -202183.3, -59874.555, 0.038992, -0.056757733, 265864.56, 337280.7, 0.00092205656, 10.003397, 9.9972925 
1.6555457e+3, 3.0271012e+2, 334686.1, -103933.54, -39900.984, 0.12770201, 0.06462333, 338286.3, 338286.3, 0.0019985014, 10.003445, 9.997609 
1.6556007e+3, 3.1270474e+2, 616936.94, 162256.25, 57051.273, 0.07055632, -0.27750084, 623986.1, 623986.1, 0.0033282214, 10.004814, 9.998774 
1.664558e+3, 1.22666046e+2, -2466168.3, -1950357.6, -150901.72, -0.039384846, -0.0095603075, -1909454.5, -171591.8, 0.041736465, 9.994244, 10.001162 
1.6646136e+3, 1.326661e+2, -2037770.8, -1641169.8, -35087.21, 0.008284933, -0.16150858, -1638089.5, 1777.2922, 0.026087236, 9.996318, 10.001605 
1.6646706e+3, 1.4266843e+2, -1842225.5, -1570843.8, 53280.805, 0.15735856, -0.033856932, -1560757.9, -18910.744, 0.012349877, 9.997328, 10.0009165 
1.6647282e+3, 1.5267071e+2, -1967831.3, -1567927.5, 115337.234, 0.1506965, 0.09416464, -1537047.4, -93219.375, 0.003737191, 9.995744, 10.001022 
1.6647846e+3, 1.6267215e+2, -1864767.3, -1356660.5, -26126.166, 0.124510534, 0.12210063, -1355320.6, -9507.447, 0.00050616945, 9.99529, 10.00202 
1.6648372e+3, 1.7267153e+2, -1327328.3, -985802.56, -143004.64, 0.065978564, -0.19316444, -933831.75, 313977.97, 0.000009797576, 9.998037, 10.002571 
1.6648906e+3, 1.8267143e+2, -1169445.8, -1115482.6, -108606.45, 0.023735223, -0.3434294, -1030556.4, 119248.48, 0.0, 9.999568, 10.000265 
1.6649462e+3, 1.9267312e+2, -1285431.3, -1160623.3, -87825.43, -0.006262903, -0.16619708, -1115288.9, -63497.15, 0.0, 9.998286, 9.999888 
1.6650017e+3, 2.0267399e+2, -1288045.3, -1203033.8, -117908.51, -0.00071672373, -0.010672584, -1120203.4, -166416.03, 0.0, 9.997965, 9.9991 
1.6650566e+3, 2.126732e+2, -852471.3, -933797.5, -96562.78, 0.0955963, -0.001802028, -788359.1, 67440.81, 0.0, 10.000251, 9.999169 
1.6651112e+3, 2.2267208e+2, -555589.1, -771078.44, -34534.355, 0.085141934, 0.0071311193, -550189.94, 207623.25, 0.0, 10.001748, 9.998892 
1.6651638e+3, 2.326706e+2, -522726.78, -683537.5, -67698.89, -0.19951814, -0.04456198, -498021.9, 161801.63, 0.0, 10.001212, 9.999075 
1.6652171e+3, 2.426687e+2, -521283.47, -793993.9, -167836.3, -0.32999754, -0.05984777, -441394.0, 120445.64, 0.0, 10.001239, 9.997641 
1.6652723e+3, 2.5266612e+2, -203838.72, -607206.94, -163867.53, -0.08788406, -0.06607295, -145659.31, 318206.9, 0.0000000057748837, 10.002829, 9.997479 
1.6653271e+3, 2.6266313e+2, -11607.15, -475960.5, -54583.297, 0.062450502, -0.08214551, -5277.337, 360619.28, 0.0000055479773, 10.003529, 9.997367 
1.6653812e+3, 2.7265945e+2, -103622.82, -443526.9, -59408.984, -0.057785656, -0.20927568, -93538.414, 174393.47, 0.000055266635, 10.0021, 9.997606 
1.6654363e+3, 2.8265646e+2, -95853.11, -418281.22, -44328.12, -0.09536469, -0.2300713, -89869.81, 80090.29, 0.00028143296, 10.001605, 9.997349 
1.6654935e+3, 2.9265568e+2, 301123.03, -148735.02, -26091.932, 0.07009212, -0.0671179, 302631.3, 374597.63, 0.00090243336, 10.003563, 9.997575 
1.6655493e+3, 3.0265415e+2, 505951.66, 15745.325, -21469.996, 0.12411894, 0.030612735, 506890.2, 506890.2, 0.0019766411, 10.004453, 9.997952 
1.6656038e+3, 3.126504e+2, 223218.4, -38581.73, -87056.97, 0.07121449, -0.16622512, 249524.39, 249524.39, 0.0033124804, 10.002137, 9.998692 
1.6745499e+3, 1.2260715e+2, -2410302.8, -1819328.8, -170341.61, -0.2981113, -0.20882156, -1773745.6, -35303.324, 0.044670317, 9.994197, 10.002071 
1.6746105e+3, 1.3261057e+2, -1978956.9, -1526239.4, 53944.574, 0.05462096, -0.1050225, -1519900.3, 120510.17, 0.028026333, 9.996342, 10.002403 
1.674668e+3, 1.4261349e+2, -1780318.9, -1471689.1, 19691.547, 0.17257027, 0.0052048215, -1470437.9, 71944.85, 0.013357116, 9.997439, 10.001553 
1.6747232e+3, 1.5261416e+2, -1933728.3, -1492885.8, 59556.563, 0.06886086, -0.08448746, -1484981.5, -40605.156, 0.004090086, 9.995712, 10.001559 
1.6747783e+3, 1.6261494e+2, -1967355.4, -1561403.5, 38324.504, -0.01899483, -0.10274094, -1557817.1, -211447.9, 0.0005678562, 9.995256, 10.00063 
1.6748342e+3, 1.726169e+2, -1473079.1, -1281323.0, -29617.002, -0.026348144, 0.034124464, -1276852.9, -28502.088, 0.000011659807, 9.998013, 10.000554 
1.6748895e+3, 1.8261768e+2, -1183100.4, -1161795.1, -132561.27, -0.04391097, 0.11035982, -1039459.2, 110884.49, 0.0, 9.999635, 9.99992 
1.6749436e+3, 1.926158e+2, -1277913.6, -1142630.4, -137785.86, -0.08380994, -0.07641022, -1056778.3, -4416.1367, 0.0, 9.998272, 10.000024 
1.6749988e+3, 2.0261465e+2, -1228417.3, -1070706.6, -68433.82, -0.07489896, -0.1672335, -1045152.44, -90778.78, 0.0, 9.997926, 10.000026 
1.6750565e+3, 2.1261588e+2, -787212.44, -778716.5, -1290.6725, 0.056011036, -0.0695541, -778524.75, 77837.2, 0.0, 10.000158, 10.000282 
1.6751128e+3, 2.2261605e+2, -618740.7, -867414.25, -36349.406, 0.07206202, 0.020039689, -613536.3, 144824.69, 0.0, 10.001598, 9.9983015 
1.6751653e+3, 2.3261376e+2, -615797.1, -856353.0, -84601.695, -0.17247418, -0.007307994, -589023.3, 71361.125, 0.0, 10.0011215, 9.997932 
1.6752186e+3, 2.4261154e+2, -497467.03, -723913.6, -131225.39, -0.30530623, -0.003194046, -437370.94, 125035.93, 0.0, 10.001146, 9.998166 
1.6752742e+3, 2.5261012e+2, -151829.55, -465027.44, -95989.48, -0.15776, 0.0071781515, -124751.57, 339668.8, 0.0000000017385277, 10.002681, 9.998526 
1.6753297e+3, 2.626085e+2, -46166.48, -511083.22, -91567.4, -0.0447067, 0.068442546, -28781.934, 337654.7, 0.0000048816705, 10.003364, 9.99721 
1.6753836e+3, 2.7260658e+2, -145702.7, -526353.94, -106215.7, -0.023463413, 0.16639929, -118070.484, 150386.42, 0.00005151775, 10.002075, 9.997055 
1.675439e+3, 2.8260365e+2, -62255.67, -340834.22, -3691.8845, 0.024596857, 0.16619006, -62206.754, 108277.58, 0.00026894332, 10.001573, 9.997896 
1.6754976e+3, 2.9259884e+2, 343857.34, -20941.69, 63727.52, 0.12042005, -0.16292825, 354669.56, 427193.13, 0.0008798074, 10.003379, 9.9985485 
1.6755538e+3, 3.0259502e+2, 407286.66, -108197.41, -80473.45, 0.13343683, -0.33174407, 419557.47, 419557.47, 0.0019595742, 10.004121, 9.997253 
1.6756065e+3, 3.1259593e+2, 142235.2, -225389.63, -144090.4, 0.11564575, 0.053644467, 191980.16, 191980.16, 0.0033249387, 10.002238, 9.997347 
1.684545e+3, 1.22551344e+2, -2239651.8, -1713055.3, -64768.92, -0.23113544, -0.17238925, -1705205.9, 33785.266, 0.04776628, 9.995271, 10.002284 
1.6846071e+3, 1.3255455e+2, -2126878.3, -1603301.6, 86242.88, 0.15886825, -0.08771889, -1589461.6, 51498.25, 0.030093629, 9.995378, 10.0023155 
1.6846636e+3, 1.4255713e+2, -2000901.6, -1571959.5, -33432.68, 0.06824515, -0.0064965943, -1569369.3, -26435.254, 0.0144471, 9.995906, 10.0015955 
1.6847192e+3, 1.5255772e+2, -1657041.8, -1351982.4, -64855.105, 0.04241292, -0.11142801, -1338766.9, 106161.375, 0.004479329, 9.997583, 10.001622 
1.6847752e+3, 1.6255832e+2, -1542560.1, -1430942.0, -41887.97, 0.010573875, -0.12102455, -1416971.0, -70047.59, 0.0006375465, 9.998496, 9.999965 
1.684832e+3, 1.7255993e+2, -1560311.8, -1410196.3, -21533.693, -0.02252896, 0.063206494, -1407168.4, -158256.72, 0.00001399049, 9.997802, 9.999763 
1.684888e+3, 1.8256053e+2, -1497031.5, -1328782.8, -84412.63, -0.030185344, 0.17342949, -1293733.3, -142824.27, 0.0, 9.997557, 9.99977 
1.6849428e+3, 1.9255888e+2, -1187469.5, -1098223.9, -115000.61, 0.002694495, 0.007734388, -1019492.2, 33433.848, 0.0, 9.998875, 10.000045 
1.6849984e+3, 2.0255783e+2, -969107.94, -931202.25, -41044.566, 0.02608156, -0.077909246, -904946.0, 49990.23, 0.0, 9.999644, 10.000159 
1.6850555e+3, 2.1255885e+2, -959406.44, -835244.56, -50267.984, 0.013573953, -0.016490716, -817444.9, 39478.77, 0.0, 9.998881, 10.000502 
1.6851118e+3, 2.2255887e+2, -1013569.3, -1035138.5, -99207.89, -0.022577837, 0.038551215, -924561.56, -165639.58, 0.0, 9.998783, 9.998515 
1.6851665e+3, 2.3255661e+2, -699260.5, -869599.0, -65483.26, -0.104957506, -0.0064818906, -676996.7, -16052.013, 0.0, 10.000435, 9.9981785 
1.6852215e+3, 2.425544e+2, -444610.72, -717887.25, -58165.926, -0.14338683, -0.010101729, -432745.47, 130221.59, 0.0, 10.001593, 9.997988 
1.6852768e+3, 2.5255278e+2, -368001.75, -612598.2, -130017.266, -0.103681, 0.011792114, -311802.5, 153181.78, 0.0000000018399801, 10.001367, 9.998152 
1.6853316e+3, 2.6255116e+2, -280412.5, -580842.75, -171860.75, -0.06081704, 0.08253643, -202371.84, 164629.45, 0.0000039092515, 10.001572, 9.99759 
1.6853862e+3, 2.7254978e+2, 49308.277, -358416.66, -134536.02, -0.014754785, 0.1766673, 89699.46, 358713.8, 0.000046398793, 10.003118, 9.997694 
1.6854419e+3, 2.8254727e+2, 243214.88, -209485.64, 4691.787, 0.06031138, 0.18569759, 243263.5, 414300.16, 0.000254962, 10.003742, 9.997754 
1.6855004e+3, 2.9254246e+2, 108238.57, -171646.11, -29968.875, 0.16699933, -0.10997822, 111411.54, 184489.3, 0.0008516298, 10.001932, 9.998201 
1.685557e+3, 3.0253798e+2, 89815.83, -271121.97, -145430.23, 0.17472294, -0.3181693, 141120.48, 141120.48, 0.0019299267, 10.001952, 9.997191 
1.6856109e+3, 3.1253856e+2, 777795.06, 86831.66, -141133.3, 0.12261967, 0.044014785, 805510.6, 805510.6, 0.0033223152, 10.006554, 9.997446 
1.6945435e+3, 1.2249938e+2, -2260550.8, -1784460.4, -29333.139, 0.075455256, 0.14574653, -1782659.9, -43157.688, 0.051028147, 9.995387, 10.001733 
1.6946036e+3, 1.3249794e+2, -2219691.5, -1773744.0, 89625.914, 0.26622412, -0.11839587, -1756405.3, -114889.68, 0.032295942, 9.995281, 10.001187 
1.6946565e+3, 1.4249907e+2, -2050737.8, -1666959.8, 13214.798, -0.23558718, -0.094046205, -1666505.4, -123001.01, 0.015627254, 9.995863, 10.000968 
1.6947165e+3, 1.5250151e+2, -1691350.3, -1435165.8, 6146.1357, 0.009596588, 0.04697996, -1435018.4, 10463.939, 0.004910431, 9.997632, 10.00103 
1.6947752e+3, 1.6250248e+2, -1506181.4, -1386766.6, -59458.348, 0.15045802, 0.10187092, -1362211.0, -14736.834, 0.0007170378, 9.998625, 10.000207 
1.6948304e+3, 1.7250058e+2, -1526919.0, -1343782.1, -49522.4, 0.03322941, -0.10945441, -1331248.4, -81755.44, 0.000016975888, 9.997807, 10.00022 
1.694886e+3, 1.8249974e+2, -1491767.0, -1321077.3, -58990.355, 0.0024534615, -0.17455313, -1302674.3, -151171.36, 0.0, 9.997564, 9.999821 
1.6949438e+3, 1.9250226e+2, -1199935.3, -1116969.0, -58054.266, 0.1971574, 0.08333066, -1087099.8, -33616.008, 0.0, 9.998841, 9.999933 
1.6950001e+3, 2.0250362e+2, -1023873.7, -1029257.3, -59382.13, 0.24575783, 0.27054948, -967122.4, -11648.809, 0.0, 9.999577, 9.999519 
1.6950533e+3, 2.1250215e+2, -1023765.2, -960608.06, -75332.15, -0.082991906, 0.16086385, -910503.44, -53018.723, 0.0, 9.9988365, 9.999667 
1.695108e+3, 2.225005e+2, -953808.25, -896064.25, -64064.2, -0.27062714, 0.06479433, -854666.6, -95169.85, 0.0, 9.99872, 9.999497 
1.6951674e+3, 2.3249911e+2, -607388.44, -654206.4, 7446.0947, -0.059896953, -0.04378043, -606232.7, 55272.355, 0.0, 10.000323, 9.999712 
1.6952254e+3, 2.4249715e+2, -530151.1, -853411.9, -56771.098, 0.08249001, -0.08797932, -520470.88, 43051.277, 0.0, 10.001415, 9.997143 
1.6952792e+3, 2.5249416e+2, -494394.63, -855473.06, -132265.02, 0.010296986, -0.04941388, -451129.38, 14428.187, 0.0000000033657745, 10.001287, 9.99652 
1.6953333e+3, 2.6249132e+2, -238741.19, -477939.25, -131568.14, -0.06462513, -0.02403781, -180536.67, 187051.69, 0.0000030031388, 10.001499, 9.998331 
1.6953886e+3, 2.7248952e+2, 136118.33, -146182.0, -67001.72, -0.08869914, -0.11853136, 151213.48, 420813.72, 0.000041424442, 10.002981, 9.999216 
1.6954447e+3, 2.8248778e+2, 168126.11, -325483.97, -48716.313, -0.037487216, -0.104202375, 172888.17, 344501.75, 0.00024197955, 10.003568, 9.997045 
1.6955023e+3, 2.9248595e+2, 10163.77, -382616.8, -93449.11, 0.15473805, 0.042136118, 31263.44, 104896.67, 0.00082078995, 10.001954, 9.996749 
1.695559e+3, 3.024821e+2, 101042.92, -228818.4, -34599.254, 0.17232613, -0.026588371, 104632.98, 104632.98, 0.0018795029, 10.00189, 9.997503 
1.695616e+3, 3.1247926e+2, 813467.44, 275955.72, 66556.36, -0.023733975, -0.1038272, 821586.06, 821586.06, 0.0032691853, 10.006083, 9.998962 
1.7045394e+3, 1.22442394e+2, -2114934.3, -1747221.8, -126219.8, 0.08264437, 0.21380317, -1708065.5, 31996.67, 0.054460447, 9.9965, 10.001473 
1.7046005e+3, 1.3243943e+2, -2028040.6, -1741006.3, -67920.97, 0.3754873, -0.14683107, -1725745.5, -83654.7, 0.034638863, 9.9968405, 10.000665 
1.7046528e+3, 1.4244054e+2, -1913319.8, -1607706.6, -56479.027, -0.22720964, -0.08889313, -1597603.0, -53522.56, 0.016903277, 9.996859, 10.000888 
1.7047137e+3, 1.5244332e+2, -1796467.1, -1475755.8, -25616.473, 0.024368552, 0.08193726, -1473722.5, -27667.56, 0.00538814, 9.996882, 10.001104 
1.704773e+3, 1.6244447e+2, -1739657.9, -1481922.0, -81979.0, 0.16769987, 0.14455241, -1458056.5, -110011.61, 0.0008082668, 9.996939, 10.000374 
1.7048277e+3, 1.7244256e+2, -1565615.9, -1340260.1, -110674.87, 0.023121241, -0.08687669, -1294997.5, -44933.41, 0.000020835996, 9.9974375, 10.000432 
1.7048834e+3, 1.8244171e+2, -1433368.5, -1299230.0, -88544.67, -0.013374854, -0.16004917, -1255220.8, -103146.836, 0.0, 9.997995, 9.999769 
1.7049426e+3, 1.9244401e+2, -1206373.6, -1132440.8, -89582.0, 0.22447532, 0.09223881, -1072497.8, -18441.57, 0.0, 9.998856, 9.999823 
1.7050003e+3, 2.0244512e+2, -1004137.3, -1029806.2, -92758.94, 0.30339375, 0.26386452, -923329.1, 32718.582, 0.0, 9.999763, 9.9994135 
1.7050533e+3, 2.1244344e+2, -728613.9, -830120.5, -79038.89, -0.049017034, 0.14341679, -685436.1, 172623.5, 0.0, 10.00092, 9.999553 
1.7051083e+3, 2.2244164e+2, -566596.75, -742945.0, -54384.184, -0.23863429, 0.0510671, -551173.94, 208898.98, 0.0, 10.001523, 9.999198 
1.7051685e+3, 2.3244016e+2, -578308.1, -678402.3, -131441.17, 0.02035447, -0.029809091, -487708.53, 174376.14, 0.0, 10.000696, 9.999358 
1.7052272e+3, 2.4243833e+2, -642155.9, -859821.4, -227768.14, 0.19386408, -0.05167105, -498554.7, 65547.11, 0.0, 10.00044, 9.997574 
1.7052814e+3, 2.5243574e+2, -363408.66, -707330.56, -159110.2, 0.09530778, -0.036027916, -301090.66, 165039.8, 0.0000000026261497, 10.001826, 9.997276 
1.705336e+3, 2.6243308e+2, -66412.15, -407774.97, -69436.98, 0.009591095, -0.03755965, -52828.434, 315329.72, 0.0000021613648, 10.002739, 9.9982195 
1.7053917e+3, 2.724309e+2, 10271.051, -256267.69, -144980.1, -0.01398048, -0.12873787, 73927.945, 344103.75, 0.000036573332, 10.002325, 9.998782 
1.705448e+3, 2.8242904e+2, 7046.2544, -399782.0, -184980.25, 0.01830391, -0.09819597, 78577.58, 250769.63, 0.00022739316, 10.002457, 9.997066 
1.705505e+3, 2.9242745e+2, 329520.5, -211811.61, -155863.28, 0.1276775, 0.060913272, 371189.97, 445398.84, 0.0007810647, 10.004083, 9.996898 
1.7055616e+3, 3.024236e+2, 489542.4, -123703.33, -755.2329, 0.122102164, 0.014853806, 489543.34, 489543.34, 0.0017958801, 10.004912, 9.996763 
1.7056216e+3, 3.1242055e+2, 423417.5, -4889.8984, -33012.43, 0.06795577, 0.013534707, 425947.03, 425947.03, 0.0031408996, 10.0037775, 9.998125 
1.7145315e+3, 1.2237916e+2, -2107583.3, -1728109.9, -22094.742, -0.38309222, -0.06514307, -1726827.8, 13855.62, 0.058051143, 9.9964905, 10.001597 
1.7145975e+3, 1.3237917e+2, -2019904.5, -1728087.0, -64568.19, 0.39806524, -0.13975975, -1714438.8, -71754.39, 0.037118543, 9.996867, 10.000735 
1.7146525e+3, 1.4238173e+2, -1856033.3, -1522478.1, -65844.445, 0.05594853, 0.039864693, -1509950.9, 34710.07, 0.018276531, 9.996979, 10.001428 
1.7147107e+3, 1.5238279e+2, -1750610.6, -1376584.6, -23252.385, 0.032994896, -0.029306993, -1375144.6, 71504.74, 0.005915651, 9.99685, 10.001809 
1.7147683e+3, 1.6238397e+2, -1734108.5, -1460938.8, -77286.625, -0.011815655, -0.017491031, -1440588.5, -91950.07, 0.0009130136, 9.996903, 10.00053 
1.7148235e+3, 1.72386e+2, -1576527.1, -1354032.9, -85854.91, -0.11299777, 0.15010725, -1324756.0, -74132.945, 0.000025810483, 9.997403, 10.000351 
1.7148802e+3, 1.8238673e+2, -1441738.6, -1321467.4, -64691.742, -0.14292687, 0.24409124, -1293277.9, -140658.61, 0.0, 9.998008, 9.999613 
1.7149395e+3, 1.9238426e+2, -1221635.0, -1161747.3, -49902.492, 0.023614017, 0.03427857, -1133494.1, -78851.75, 0.0, 9.998837, 9.999634 
1.7149982e+3, 2.0238231e+2, -983710.44, -979380.2, -56572.914, 0.122425124, -0.10021895, -924931.0, 31727.666, 0.0, 9.999724, 9.99978 
1.7150551e+3, 2.1238267e+2, -704025.9, -755569.8, -29664.38, 0.050889827, -0.07158394, -690501.94, 168147.11, 0.0, 10.000815, 10.000115 
1.7151123e+3, 2.223822e+2, -692559.0, -974594.8, -73567.07, 0.015773471, -0.011547897, -674523.0, 86128.35, 0.0, 10.00139, 9.997674 
1.7151697e+3, 2.3237985e+2, -748425.1, -1013467.3, -156573.94, 0.08035458, 0.038474638, -675818.8, -13136.755, 0.0, 10.000615, 9.997101 
1.7152268e+3, 2.4237794e+2, -548116.0, -643869.44, -197302.02, 0.12152224, 0.092093095, -392964.97, 171740.44, 0.0, 10.000349, 9.9991 
1.7152832e+3, 2.523774e+2, -181753.67, -303727.53, -97332.97, 0.100138254, 0.040557813, -127879.33, 338825.56, 0.0000000000058928205, 10.001709, 10.000105 
1.7153394e+3, 2.6237607e+2, -147590.19, -541316.8, -79193.71, 0.094002485, 0.030356988, -132258.3, 236455.98, 0.0000014626683, 10.00259, 9.997375 
1.7153955e+3, 2.723735e+2, -151492.28, -567941.0, -152123.69, 0.1309156, 0.09650784, -101842.63, 168901.58, 0.000032081512, 10.002225, 9.99669 
1.7154516e+3, 2.823707e+2, 28636.379, -334295.06, -141861.11, 0.13408785, 0.14698197, 77506.02, 250279.73, 0.00021176567, 10.002359, 9.997566 
1.7155078e+3, 2.9236725e+2, 407360.13, -13835.1045, -77976.945, 0.017496074, -0.019527804, 421332.7, 496134.03, 0.0007336498, 10.003919, 9.99834 
1.7155649e+3, 3.0236304e+2, 323442.5, -390140.94, -31524.26, -0.04083284, -0.12884039, 324832.44, 324832.44, 0.0016880672, 10.004589, 9.995086 
1.715627e+3, 3.1236142e+2, 190812.27, -397706.34, -30560.914, 0.23809321, 0.27927518, 192395.0, 192395.0, 0.0029604107, 10.003415, 9.99559 
1.7245279e+3, 1.2231872e+2, -2000577.0, -1647119.5, 140381.33, -0.38509583, -0.1442021, -1598149.4, 143128.98, 0.06177432, 9.997071, 10.001928 
1.724594e+3, 1.3232034e+2, -2042090.9, -1742831.4, -15949.923, 0.3744564, -0.07046367, -1741983.8, -98719.15, 0.039721623, 9.996739, 10.0006895 
1.7246498e+3, 1.4232334e+2, -1947049.5, -1578159.6, -16859.89, 0.13795772, 0.16494784, -1577390.6, -32153.66, 0.019743169, 9.996402, 10.001322 
1.7247078e+3, 1.5232316e+2, -1743680.8, -1378074.6, -43727.695, 0.06440202, -0.02616723, -1372917.4, 74319.52, 0.006494274, 9.9969, 10.001785 
1.7247653e+3, 1.6232376e+2, -1656105.0, -1429321.1, -112920.125, -0.004817746, -0.06553987, -1382686.0, -33455.035, 0.001032908, 9.997471, 10.000471 
1.7248215e+3, 1.7232667e+2, -1445065.5, -1294826.6, -135887.97, -0.08996466, 0.19632739, -1214677.0, 36531.152, 0.00003215152, 9.998333, 10.000299 
1.7248787e+3, 1.8232788e+2, -1283756.0, -1227655.8, -94440.15, -0.11511295, 0.33689305, -1157188.1, -3988.3503, 0.0, 9.999014, 9.999771 
1.7249382e+3, 1.9232507e+2, -1096853.3, -1068420.9, -59730.06, -0.0060618306, 0.069448076, -1021238.56, 33984.695, 0.0, 9.999557, 9.999921 
1.7249975e+3, 2.023228e+2, -966748.2, -998907.9, -53658.664, 0.08207411, -0.10709937, -926811.8, 30429.541, 0.0, 9.999959, 9.999541 
1.725056e+3, 2.1232253e+2, -827604.7, -863499.0, -107874.99, 0.10926174, -0.09644757, -736194.1, 123045.72, 0.0, 10.00017, 9.999693 
1.7251141e+3, 2.2232184e+2, -831014.2, -1020376.56, -165653.5, 0.12610266, -0.0351156, -734892.8, 26352.86, 0.0, 10.000368, 9.997844 
1.7251705e+3, 2.3232041e+2, -708150.75, -950428.9, -91061.305, 0.10541398, 0.071832255, -677741.7, -14474.822, 0.0, 10.000717, 9.997478 
1.7252271e+3, 2.4231899e+2, -446166.3, -586786.5, -10162.523, 0.09498489, 0.14727202, -445435.66, 119848.766, 0.0, 10.001021, 9.999162 
1.7252845e+3, 2.5231788e+2, -257365.69, -345146.66, -101878.02, 0.095285974, 0.04316181, -190325.97, 276962.56, 0.0000000000049057277, 10.001225, 10.000045 
1.7253415e+3, 2.623164e+2, -269550.56, -578993.06, -184741.28, 0.11307646, 0.014185112, -183298.75, 186000.45, 0.0000011502509, 10.001669, 9.997553 
1.725398e+3, 2.7231464e+2, -60367.633, -495452.4, -129143.09, 0.16192487, 0.13702846, -24922.613, 246398.78, 0.000029088935, 10.002726, 9.996943 
1.7254548e+3, 2.8231215e+2, 160093.75, -300315.88, -15803.341, 0.17033537, 0.21094435, 160635.56, 333983.88, 0.0002003837, 10.003391, 9.997297 
1.7255114e+3, 2.923077e+2, 246532.6, -149930.89, -93671.125, 0.040088467, -0.008363769, 267549.8, 342937.16, 0.0006934616, 10.003075, 9.997802 
1.7255689e+3, 3.0230346e+2, 139700.17, -399301.1, -80796.58, 0.009510508, -0.110404804, 151551.06, 151551.06, 0.0015933388, 10.002956, 9.995828 
1.72563e+3, 3.1230277e+2, 247054.34, -255083.83, 128564.555, 0.2264018, 0.27530748, 278057.13, 278057.13, 0.0027992937, 10.003248, 9.99669 
1.7345294e+3, 1.222622e+2, -1940802.5, -1546789.3, 138684.78, 0.037169017, 0.052792564, -1502870.4, 238966.58, 0.06561491, 9.99715, 10.002623 
1.7345892e+3, 1.3226317e+2, -2071371.3, -1787766.8, -29141.172, 0.23563883, 0.06355224, -1784803.4, -140974.81, 0.042436883, 9.996668, 10.000418 
1.7346439e+3, 1.4226535e+2, -2009915.8, -1702879.5, -13896.477, -0.09380269, 0.2713805, -1702251.9, -156442.75, 0.021297567, 9.99638, 10.000473 
1.7347044e+3, 1.5226462e+2, -1807594.8, -1506025.1, -17094.668, 0.037412606, 0.11297458, -1505059.1, -57244.242, 0.0071235094, 9.996887, 10.000905 
1.7347641e+3, 1.6226411e+2, -1667753.1, -1473565.3, -90284.91, 0.12880272, 0.029304052, -1438074.9, -88254.984, 0.0011691477, 9.99754, 10.00014 
1.7348213e+3, 1.7226443e+2, -1451038.0, -1314733.9, -99829.99, 0.052766737, 0.044604875, -1262011.1, -10190.6875, 0.00004011834, 9.998352, 10.00016 
1.734879e+3, 1.8226486e+2, -1246250.1, -1156734.6, -82988.414, 0.014078217, 0.10182114, -1107203.8, 46613.992, 0.0, 9.999045, 10.000241 
1.7349386e+3, 1.9226635e+2, -1058019.1, -973854.75, -37515.76, 0.08714394, 0.19631106, -959560.2, 96239.9, 0.0, 9.999496, 10.000599 
1.7349978e+3, 2.0226648e+2, -1029835.75, -1121301.4, -50841.195, 0.12714092, 0.24770603, -1007184.94, -49388.4, 0.0, 9.999914, 9.998724 
1.7350557e+3, 2.1226314e+2, -936041.9, -1073000.9, -93732.13, 0.06805498, 0.078750186, -888438.8, -28608.188, 0.0, 10.000095, 9.998292 
1.7351134e+3, 2.2226067e+2, -730389.1, -786451.8, -158706.25, 0.02102621, -0.009347634, -597257.75, 164597.31, 0.0, 10.000259, 9.999501 
1.7351705e+3, 2.3226161e+2, -524813.25, -546755.5, -72845.516, 0.037710205, 0.067529686, -462117.34, 201724.36, 0.0, 10.000616, 10.000297 
1.7352277e+3, 2.4226126e+2, -547248.6, -769579.6, -10002.512, 0.051136013, 0.116324216, -546799.56, 19042.404, 0.0, 10.000905, 9.997966 
1.7352849e+3, 2.5225738e+2, -454492.72, -736106.8, -83780.66, 0.027046856, -0.019153224, -431452.8, 36427.48, 0.000000000000012544113, 10.001148, 9.997398 
1.7353421e+3, 2.622543e+2, -219884.5, -451195.66, -154088.27, 0.009847297, -0.07632975, -142876.11, 227034.27, 0.0000010511417, 10.001561, 9.998483 
1.7353994e+3, 2.7225453e+2, 74153.51, -176209.81, -82391.24, 0.029252125, 0.03208018, 98834.336, 370740.9, 0.000028849088, 10.002558, 9.999213 
1.735457e+3, 2.8225338e+2, 63792.66, -460074.13, -30074.496, 0.059657164, 0.13469619, 65513.543, 239430.94, 0.00019663657, 10.003206, 9.996295 
1.735515e+3, 2.922483e+2, 79470.34, -481846.97, -94743.47, 0.10374212, 0.059359595, 95030.54, 171002.52, 0.00067244127, 10.003004, 9.995558 
1.7355734e+3, 3.0224437e+2, 308310.03, -24999.709, -79873.01, 0.1527799, 0.03152313, 326461.94, 326461.94, 0.0015435343, 10.0028715, 9.998428 
1.7356305e+3, 3.1224367e+2, 477762.06, 312266.44, 153011.17, -0.068446666, -0.0024636437, 568967.2, 568967.2, 0.0027224484, 10.002905, 10.000741 
1.7445269e+3, 1.2220458e+2, -2200331.5, -1614058.4, 105901.555, 0.19510144, 0.21188308, -1595515.4, 146889.94, 0.06957688, 9.995134, 10.003109 
1.7445846e+3, 1.3220398e+2, -2022824.1, -1746404.0, -53332.18, 0.11469838, 0.048177674, -1736471.1, -92061.14, 0.045260757, 9.996921, 10.000585 
1.7446402e+3, 1.4220597e+2, -1769936.5, -1635174.3, 3898.567, -0.18028355, 0.24353692, -1635061.5, -88670.09, 0.022935338, 9.9982395, 10.000039 
1.7447013e+3, 1.5220544e+2, -1665193.3, -1501924.1, 2530.7683, 0.0027197117, 0.161754, -1501884.9, -53488.1, 0.0078018596, 9.998154, 10.000317 
1.7447619e+3, 1.622047e+2, -1626811.0, -1477940.5, -34412.168, 0.15536287, 0.1006432, -1470370.8, -119966.29, 0.0013223152, 9.997924, 9.9999275 
1.7448199e+3, 1.7220387e+2, -1515462.1, -1354656.1, -49496.836, 0.1185688, 0.012856052, -1340642.1, -88228.336, 0.000049909977, 9.997945, 10.000088 
1.7448783e+3, 1.8220378e+2, -1369491.3, -1203265.9, -20738.488, 0.09521295, 0.016247002, -1200717.6, -46302.645, 0.0000000000000006446772, 9.99815, 10.000349 
1.744938e+3, 1.9220613e+2, -1123783.4, -985875.56, -22859.508, 0.12086673, 0.17996573, -982185.1, 74204.43, 0.0, 9.998958, 10.000774 
1.7449972e+3, 2.0220694e+2, -1108409.3, -1165024.9, -48419.977, 0.12823446, 0.290417, -1080629.4, -122248.88, 0.0, 9.999406, 9.998662 
1.745055e+3, 2.1220374e+2, -1095684.8, -1161848.8, -28677.23, 0.06692033, 0.14584787, -1084985.4, -224570.4, 0.0, 9.999061, 9.998173 
1.745113e+3, 2.2220124e+2, -866537.0, -821563.7, -28688.002, 0.025849117, 0.052861195, -807599.7, -45159.984, 0.0, 9.999183, 9.999787 
1.745171e+3, 2.3220187e+2, -479133.38, -477333.4, -103640.17, 0.041824587, 0.057827536, -374589.3, 289836.88, 0.0, 10.000718, 10.000732 
1.7452289e+3, 2.4220136e+2, -411991.7, -730165.9, -137146.94, 0.05629137, 0.071280524, -361035.97, 205390.38, 0.0, 10.001947, 9.997726 
1.7452864e+3, 2.5219762e+2, -340336.9, -739722.6, -98633.18, 0.038011808, 0.0012744108, -317306.28, 151158.67, 0.0, 10.00218, 9.996876 
1.7453441e+3, 2.6219434e+2, -146014.7, -433552.88, -87221.85, 0.043933485, -0.038790308, -121625.52, 248872.75, 0.0000010008785, 10.002137, 9.998332 
1.7454018e+3, 2.7219325e+2, -46916.477, -237835.77, -172234.52, 0.07605261, -0.054325454, 54543.332, 327048.88, 0.00002996529, 10.001732, 9.999192 
1.7454597e+3, 2.8219175e+2, -89979.89, -484969.75, -148113.0, 0.102865234, -0.0044362424, -40611.08, 133908.19, 0.00019663884, 10.001965, 9.996711 
1.7455187e+3, 2.9218867e+2, 260067.38, -341514.72, -57264.77, 0.13257164, 0.07241412, 265469.9, 342024.53, 0.0006699009, 10.004018, 9.996036 
1.7455779e+3, 3.021855e+2, 656768.9, 134430.14, -18445.3, 0.22436884, 0.10031879, 657419.4, 657419.4, 0.001548741, 10.005287, 9.998371 
1.7456341e+3, 3.1218264e+2, 591610.44, 301696.25, -151910.66, -0.022575313, -0.12885167, 656628.06, 656628.06, 0.0027559374, 10.003965, 10.00015 
1.7545189e+3, 1.22145735e+2, -2222915.8, -1612545.8, 72936.29, -0.1287371, 0.3254902, -1603951.3, 139032.95, 0.07366958, 9.994948, 10.003199 
1.7545797e+3, 1.3214262e+2, -1985170.4, -1661526.6, 27294.758, -0.0691832, -0.13618416, -1659240.9, -14230.682, 0.048192136, 9.996894, 10.001179 
1.7546384e+3, 1.4214535e+2, -1755180.5, -1625348.9, 9423.84, -0.18332432, 0.09367997, -1624668.4, -77686.46, 0.024652572, 9.998324, 10.00007 
1.7546985e+3, 1.5214558e+2, -1681022.9, -1541842.4, 1596.1008, -0.097726196, 0.111357376, -1541824.1, -92841.945, 0.008527423, 9.998179, 10.000033 
1.7547584e+3, 1.6214544e+2, -1633647.0, -1497035.9, -44856.945, -0.0024423094, 0.13337076, -1483623.6, -132638.19, 0.0014925194, 9.997944, 9.999788 
1.754817e+3, 1.7214514e+2, -1522161.1, -1361327.1, -42913.137, 0.03979128, 0.10403665, -1350593.5, -97606.09, 0.00006156021, 9.997914, 10.000057 
1.754876e+3, 1.8214479e+2, -1387071.8, -1239456.3, -2743.929, 0.056877706, 0.092638284, -1239405.4, -84415.75, 0.0000000010737394, 9.998144, 10.000103 
1.754936e+3, 1.921446e+2, -1155631.4, -1042328.44, 15212.5, 0.027517322, 0.033414558, -1040321.44, 16668.73, 0.0, 9.998914, 10.000408 
1.7549954e+3, 2.0214424e+2, -1070399.3, -1077490.9, -58495.016, 0.011159381, 0.028155115, -1015342.7, -56349.605, 0.0, 9.999363, 9.999286 
1.755054e+3, 2.1214412e+2, -1032837.44, -1017528.8, -40584.28, 0.05159239, 0.09503501, -983883.3, -122888.3, 0.0, 9.998994, 9.999199 
1.7551127e+3, 2.2214338e+2, -945178.9, -969227.5, 4550.759, 0.08310566, 0.14473286, -944346.5, -181344.47, 0.0, 9.999111, 9.998811 
1.7551717e+3, 2.3214133e+2, -617152.25, -743648.75, -32837.836, 0.054990888, 0.047122262, -609135.75, 55883.26, 0.0, 10.000626, 9.998949 
1.7552306e+3, 2.4213938e+2, -400660.63, -674105.44, -118450.69, 0.026362948, 0.016818998, -356486.44, 210549.14, 0.0, 10.001802, 9.998185 
1.7552888e+3, 2.5213847e+2, -264854.44, -550820.75, -87012.82, 0.060992267, 0.10126366, -240459.55, 228585.11, 0.0, 10.002041, 9.99824 
1.7553471e+3, 2.6213622e+2, -238532.97, -601315.9, -104887.164, 0.13346107, 0.12153816, -210391.19, 160675.19, 0.00000094846536, 10.002026, 9.997236 
1.7554049e+3, 2.721311e+2, -194996.8, -530127.06, -174591.38, 0.21738598, -0.11325084, -120569.734, 152546.36, 0.000030532858, 10.001671, 9.9972105 
1.7554627e+3, 2.8212756e+2, 6799.775, -279395.63, -95509.81, 0.20442213, -0.1924715, 35745.89, 210895.58, 0.00019885889, 10.001937, 9.998139 
1.7555219e+3, 2.9212868e+2, 411513.88, 30742.67, 34078.305, 0.05994806, 0.046086345, 414539.75, 491676.7, 0.00068665395, 10.003771, 9.998713 
1.7555822e+3, 3.0212703e+2, 434032.6, -227864.66, -44999.777, 0.1332347, 0.1352119, 437077.94, 437077.94, 0.001605518, 10.00486, 9.996081 
1.7556402e+3, 3.1212065e+2, 218652.56, -396305.6, -199620.67, 0.1696553, -0.058026228, 277768.34, 277768.34, 0.0028774173, 10.003658, 9.995485 
1.764513e+3, 1.2208469e+2, -2190825.3, -1659340.9, 31813.648, -0.20933221, 0.29097325, -1657443.4, 86139.87, 0.07790593, 9.995424, 10.002621 
1.764576e+3, 1.320818e+2, -2050223.6, -1652509.6, -4333.6855, -0.08089721, -0.16557372, -1652462.5, -6856.0366, 0.05123237, 9.99626, 10.001544 
1.764636e+3, 1.4208536e+2, -1984356.4, -1707933.8, -42612.13, -0.15247619, 0.107929915, -1701513.9, -153944.47, 0.026445003, 9.9966345, 10.000315 
1.7646961e+3, 1.5208551e+2, -1786004.1, -1583797.8, -49695.203, -0.10044049, 0.11043335, -1572244.5, -122673.54, 0.009296644, 9.997433, 10.000101 
1.7647558e+3, 1.6208537e+2, -1582974.9, -1451902.5, -54459.63, -0.03636643, 0.12343326, -1432228.1, -80653.914, 0.0016790463, 9.998212, 9.999966 
1.7648149e+3, 1.7208521e+2, -1388978.6, -1272798.6, -50128.715, 0.006934409, 0.08578147, -1254159.6, -586.6037, 0.000074904594, 9.998724, 10.000271 
1.7648742e+3, 1.8208478e+2, -1289628.3, -1240748.1, 13860.963, 0.035076134, 0.067544505, -1237091.1, -81515.83, 0.000000009428086, 9.999018, 9.999679 
1.7649345e+3, 1.9208404e+2, -1164536.3, -1120701.1, -2917.0881, 0.013405389, 0.0195515, -1120507.8, -62923.777, 0.0, 9.999171, 9.999751 
1.7649946e+3, 2.0208341e+2, -1023128.8, -1012113.0, -90285.555, 0.0075601167, 0.016852258, -927167.5, 32423.262, 0.0, 9.999506, 9.999666 
1.7650534e+3, 2.1208373e+2, -768229.44, -800445.94, -103997.734, 0.05490468, 0.05779446, -679099.8, 182485.0, 0.0, 10.000428, 9.999999 
1.7651126e+3, 2.2208321e+2, -684215.5, -875351.9, -32713.771, 0.090981096, 0.08939149, -678771.44, 84815.99, 0.0, 10.001046, 9.998515 
1.7651722e+3, 2.3208067e+2, -632545.5, -832044.5, -11343.151, 0.051419713, 0.011839233, -631902.6, 33708.793, 0.0, 10.0008745, 9.998218 
1.7652316e+3, 2.4207835e+2, -564645.3, -762042.6, -64996.695, 0.031646732, -0.006956488, -545166.2, 22467.459, 0.0, 10.00072, 9.998106 
1.7652905e+3, 2.5207734e+2, -436277.9, -612820.94, -127112.84, 0.10824925, 0.05748357, -369793.06, 99850.6, 0.0, 10.000784, 9.998419 
1.7653494e+3, 2.6207525e+2, -335720.1, -635656.8, -139286.02, 0.21050133, 0.078654796, -281015.28, 90648.836, 0.0000007067664, 10.001319, 9.997334 
1.7654075e+3, 2.7207088e+2, 27405.002, -416084.6, -85110.11, 0.25321797, -0.08437808, 43177.543, 316884.13, 0.00002910251, 10.003164, 9.997277 
1.7654653e+3, 2.8206787e+2, 316062.44, -121980.15, 37116.063, 0.19177087, -0.120951176, 319185.1, 494920.22, 0.00020251243, 10.004018, 9.99822 
1.7655243e+3, 2.9206842e+2, 202464.83, -70049.35, -30649.584, 0.02364456, 0.056512896, 205869.44, 283596.7, 0.000716697, 10.002331, 9.99871 
1.7655854e+3, 3.0206573e+2, 1103.8785, -432380.3, -120602.91, 0.15042004, 0.04277455, 32398.469, 32398.469, 0.0016844942, 10.001851, 9.99613 
1.7656456e+3, 3.120596e+2, 334783.72, -313708.47, -74384.11, 0.34925872, -0.13168019, 343206.4, 343206.4, 0.003009992, 10.004315, 9.995752 
1.7745091e+3, 1.2202084e+2, -2274934.8, -1831138.3, 8229.118, -0.16542324, 0.05462881, -1830985.8, -86777.805, 0.08231803, 9.995449, 10.001379 
1.7745732e+3, 1.320217e+2, -2038993.8, -1624597.9, 14989.107, 0.034386247, -0.0150476815, -1624056.5, 22140.918, 0.054393712, 9.996222, 10.001768 
1.7746326e+3, 1.4202584e+2, -1960985.3, -1644494.1, -33660.74, -0.15456575, 0.28199568, -1640953.6, -92797.984, 0.02831169, 9.996568, 10.000783 
1.7746937e+3, 1.5202527e+2, -1761179.9, -1520420.0, -10769.938, -0.06739985, 0.16634962, -1519939.1, -69776.16, 0.010105246, 9.99738, 10.000562 
1.7747542e+3, 1.6202456e+2, -1550744.6, -1386771.5, -39322.14, -0.009933948, 0.07558699, -1377829.4, -25659.023, 0.0018804772, 9.9982195, 10.000409 
1.7748131e+3, 1.7202406e+2, -1362457.0, -1211798.9, -28368.684, -0.031654533, -0.037732497, -1206634.1, 47536.81, 0.00008970714, 9.998705, 10.000694 
1.7748725e+3, 1.8202372e+2, -1326959.6, -1327410.8, 14043.245, -0.034212615, -0.054811552, -1313140.1, -156967.63, 0.000000028818846, 9.999052, 9.999068 
1.7749338e+3, 1.9202437e+2, -1240180.9, -1275010.4, 7522.43, 0.020500965, 0.13506381, -1238625.6, -180453.83, 0.0, 9.999155, 9.998702 
1.7749946e+3, 2.0202437e+2, -1018656.2, -997207.8, -69182.59, 0.049405932, 0.25867006, -937923.1, 22251.229, 0.0, 9.999483, 9.999777 
1.7750534e+3, 2.1202263e+2, -746179.06, -727249.0, -62604.11, 0.019456895, 0.040241968, -673398.44, 188785.2, 0.0, 10.000315, 10.000551 
1.7751126e+3, 2.2202085e+2, -683888.5, -848328.7, -34408.004, -0.010028818, -0.09892449, -676979.1, 87215.71, 0.0, 10.000921, 9.998767 
1.7751724e+3, 2.3201986e+2, -632637.4, -814435.1, -12692.696, -0.020365285, -0.041905932, -631755.44, 34448.89, 0.0, 10.000786, 9.998386 
1.7752321e+3, 2.4201812e+2, -618019.94, -850166.06, -70448.13, 0.003713498, 0.004425149, -598314.2, -30091.95, 0.0, 10.000621, 9.997548 
1.7752914e+3, 2.520145e+2, -511748.03, -750327.94, -113679.48, 0.13129652, -0.10919437, -466255.97, 4004.0195, 0.0, 10.000703, 9.997513 
1.7753509e+3, 2.620116e+2, -278258.63, -494054.03, -88011.75, 0.22452399, -0.14613736, -246915.6, 125373.93, 0.00000032366296, 10.00122, 9.998356 
1.7754094e+3, 2.7201223e+2, 119235.57, -166280.98, -3070.6663, 0.13359046, 0.021505317, 119268.586, 393549.94, 0.00002512301, 10.002923, 9.9991045 
1.7754675e+3, 2.8201205e+2, 202065.3, -304608.94, -516.69366, 0.0014872786, 0.18969816, 202065.81, 378348.1, 0.00020058491, 10.00377, 9.997093 
1.7755258e+3, 2.9200795e+2, 31349.963, -412467.44, -80527.55, -0.0555629, 0.113624565, 45509.383, 123833.414, 0.0007353367, 10.002268, 9.996393 
1.7755875e+3, 3.0200192e+2, 120651.55, -167782.33, -56530.9, 0.16201168, -0.14613684, 131335.44, 131335.44, 0.0017276168, 10.001796, 9.997968 
1.7756508e+3, 3.1200075e+2, 550401.1, 281628.66, 17942.184, 0.42322403, -0.1672279, 551593.6, 551593.6, 0.0030498714, 10.003743, 10.000096 
1.7845061e+3, 1.2195995e+2, -1888521.3, -1736742.9, 109318.71, -0.13032272, 0.055934805, -1679554.1, 65250.953, 0.08696164, 9.998523, 10.000564 
1.7845705e+3, 1.3196091e+2, -1831135.4, -1574279.5, 10627.233, 0.089568295, 0.053479042, -1573840.5, 72954.2, 0.057701517, 9.9978695, 10.001335 
1.7846291e+3, 1.4196374e+2, -1893305.0, -1569217.5, -44891.098, -0.1461562, 0.22965325, -1563114.3, -14347.969, 0.030258754, 9.996851, 10.001165 
1.7846908e+3, 1.5196402e+2, -1783262.4, -1461065.9, -12467.257, -0.05716028, 0.14111312, -1460584.1, -9820.44, 0.0109521225, 9.996922, 10.001194 
1.7847517e+3, 1.6196421e+2, -1693240.3, -1449321.9, -18439.43, -0.021896295, 0.09540311, -1447935.8, -95174.06, 0.0020959692, 9.997213, 10.000461 
1.7848115e+3, 1.7196402e+2, -1426520.8, -1268411.4, -67117.56, -0.03344523, 0.029009106, -1243762.6, 10998.817, 0.000105867584, 9.998373, 10.000466 
1.7848717e+3, 1.8196371e+2, -1286743.0, -1292913.0, -45935.074, -0.010494928, 0.027512357, -1243789.4, -87025.766, 0.0000000562377, 9.999271, 9.999201 
1.7849332e+3, 1.9196385e+2, -1183319.3, -1212925.5, 22137.793, 0.05213088, 0.139579, -1171491.4, -112726.484, 0.0, 9.9994, 9.999007 
1.7849943e+3, 2.0196347e+2, -1043370.0, -1016291.2, 22744.355, 0.094429985, 0.20628956, -1003361.3, -42592.426, 0.0, 9.99935, 9.999715 
1.7850536e+3, 2.1196191e+2, -930500.2, -841799.4, -35268.39, 0.08107262, 0.027802158, -829485.75, 33291.72, 0.0, 9.999158, 10.000329 
1.7851132e+3, 2.2196041e+2, -921923.25, -937014.5, -33513.023, 0.06369659, -0.07584535, -895116.9, -130329.945, 0.0, 9.999183, 9.998996 
1.7851728e+3, 2.3195975e+2, -738219.3, -818892.25, -14475.486, 0.026526108, -0.022305656, -735700.5, -68907.266, 0.0, 9.999875, 9.998792 
1.7852327e+3, 2.4195825e+2, -605374.44, -821863.75, -28505.285, 0.03034325, 0.016885342, -601684.0, -32875.348, 0.0, 10.000612, 9.997745 
1.7852925e+3, 2.519548e+2, -405021.53, -690931.56, -18333.191, 0.15128843, -0.0909218, -403850.78, 66994.21, 0.0, 10.0013895, 9.997593 
1.7853522e+3, 2.619522e+2, -175303.63, -416538.3, 48146.125, 0.22889236, -0.11835699, -166049.52, 206822.55, 0.00000018370703, 10.0018, 9.99861 
1.7854108e+3, 2.7195275e+2, -97301.805, -243111.14, 22054.854, 0.087286234, 0.014161506, -94038.84, 180825.05, 0.000020759246, 10.001289, 9.9993725 
1.7854694e+3, 2.8195238e+2, -146841.8, -445670.28, -675.16516, -0.033710796, 0.14306831, -146840.28, 30025.643, 0.00019242667, 10.001295, 9.997298 
1.7855296e+3, 2.9194868e+2, 195687.92, -311983.13, 48050.68, 0.053423963, 0.087949686, 200195.84, 279100.5, 0.000732247, 10.003326, 9.996563 
1.7855914e+3, 3.0194318e+2, 504867.3, 23220.842, 142056.34, 0.2628199, -0.13350162, 543643.5, 543643.5, 0.0017117219, 10.004406, 9.998028 
1.7856523e+3, 3.1194252e+2, 310279.94, 197385.05, -89760.08, 0.33181876, -0.100264765, 359866.38, 359866.38, 0.0029630847, 10.001929, 10.000394 
1.794504e+3, 1.2190277e+2, -1884290.5, -1766575.3, 160119.89, -0.2314437, 0.33564, -1654838.0, 90529.41, 0.09190124, 9.998686, 10.000296 
1.7945676e+3, 1.3189954e+2, -1911912.8, -1756061.5, -30218.09, -0.014073147, 0.030127201, -1750407.5, -103010.09, 0.06119029, 9.997943, 10.000024 
1.7946255e+3, 1.4189875e+2, -1879459.4, -1543263.0, -71099.49, -0.20273562, -0.07544628, -1528845.0, 20558.428, 0.03230053, 9.99686, 10.001344 
1.7946869e+3, 1.5190172e+2, -1733172.1, -1345222.0, -3393.3396, -0.13746782, 0.030311469, -1345192.4, 106181.0, 0.011841973, 9.996868, 10.002021 
1.7947477e+3, 1.619044e+2, -1718780.0, -1502859.8, 6366.3726, -0.14595608, 0.19178215, -1502672.1, -149324.86, 0.0023264778, 9.997202, 10.000106 
1.7948096e+3, 1.7190512e+2, -1489943.8, -1400519.5, -17211.445, -0.052731883, 0.29983008, -1397321.1, -141976.89, 0.00012352158, 9.998366, 9.999569 
1.7948714e+3, 1.8190488e+2, -1224435.3, -1164313.1, -37632.047, 0.04190559, 0.3323218, -1146209.5, 11138.501, 0.000000085167756, 9.999281, 10.000076 
1.7949326e+3, 1.9190256e+2, -1078331.9, -982411.9, 29445.465, 0.05297715, 0.048396394, -974094.06, 85268.55, 0.0, 9.999347, 10.000616 
1.7949934e+3, 2.0190077e+2, -1064179.4, -1049757.3, 11024.55, 0.07347601, -0.123850726, -1043794.9, -82421.266, 0.0, 9.999302, 9.999509 
1.7950538e+3, 2.1190159e+2, -1009390.94, -995217.5, -36803.785, 0.18220823, 0.023653371, -964824.4, -101458.34, 0.0, 9.999106, 9.999304 
1.795114e+3, 2.2190177e+2, -929416.8, -931484.8, -22157.727, 0.24416581, 0.15348299, -908268.94, -142904.28, 0.0, 9.999095, 9.999074 
1.7951737e+3, 2.3190014e+2, -718138.6, -746988.94, 20393.572, 0.13204719, 0.060084436, -707584.1, -40204.285, 0.0, 9.999749, 9.999342 
1.7952333e+3, 2.4189855e+2, -568313.94, -710661.25, -5466.7803, 0.04843499, 0.022221278, -568104.25, 1290.8147, 0.0, 10.000463, 9.998582 
1.7952934e+3, 2.5189796e+2, -358110.88, -560943.8, 15935.627, 0.11274242, 0.10490018, -356866.5, 114535.555, 0.0, 10.001255, 9.9985485 
1.7953533e+3, 2.618965e+2, -224650.19, -491667.6, 33473.617, 0.15540422, 0.14744972, -220517.84, 152899.03, 0.00000013255313, 10.001672, 9.99816 
1.7954116e+3, 2.7189264e+2, -184251.11, -398329.9, 6796.716, 0.037877493, -0.07083333, -184035.55, 91416.42, 0.0000188634, 10.001187, 9.998352 
1.795471e+3, 2.8188965e+2, -78059.305, -286848.25, 37843.22, -0.014589513, -0.17987822, -71411.83, 106067.51, 0.00018750537, 10.001215, 9.998432 
1.7955348e+3, 2.918902e+2, 314337.72, -9186.319, 135719.84, 0.24727963, -0.0052821194, 363731.63, 443205.16, 0.0007238546, 10.003091, 9.998754 
1.7955966e+3, 3.0188847e+2, 355005.7, -220934.28, 79593.79, 0.34146616, 0.06247029, 365802.97, 365802.97, 0.0016668775, 10.0041065, 9.996498 
1.7956507e+3, 3.1188443e+2, 127921.336, -173109.98, -180856.67, -0.031663448, 0.029651534, 212701.45, 212701.45, 0.0028117811, 10.001916, 9.997838 
1.804503e+3, 1.2184186e+2, -2016600.5, -1791738.5, 124645.125, -0.11549835, 0.37521744, -1736309.1, 9654.535, 0.097200245, 9.99761, 10.000609 
1.8045643e+3, 1.3183835e+2, -2014640.1, -1812569.9, -85865.5, -0.07426039, 0.04284191, -1781011.8, -133014.78, 0.06490086, 9.997267, 9.999968 
1.8046224e+3, 1.4183797e+2, -1850077.5, -1548868.8, -15739.933, -0.17836328, -0.015571477, -1548048.5, 1950.9489, 0.034457777, 9.99715, 10.001157 
1.8046844e+3, 1.5184025e+2, -1555278.6, -1290620.8, -22478.223, -0.10263039, 0.047333162, -1288725.1, 163250.05, 0.0127833225, 9.9982195, 10.001747 
1.8047456e+3, 1.6184224e+2, -1471767.5, -1386397.4, -50625.125, -0.1324143, 0.15922038, -1362863.8, -8908.345, 0.0025744103, 9.998926, 10.00007 
1.8048076e+3, 1.7184304e+2, -1444381.0, -1366854.3, -23317.152, -0.07267533, 0.2691116, -1360381.6, -104430.0, 0.00014305822, 9.998653, 9.999652 
1.8048699e+3, 1.8184297e+2, -1311805.9, -1176190.5, 963.72595, 0.018466642, 0.30579445, -1176183.8, -18230.605, 0.00000010953618, 9.998531, 10.000361 
1.8049318e+3, 1.9184113e+2, -1063002.4, -927499.56, -29298.326, 0.0650036, 0.028043168, -921436.0, 138526.13, 0.0, 9.999245, 10.001041 
1.804993e+3, 2.0183967e+2, -998333.1, -1029007.94, -105023.49, 0.11336466, -0.13365714, -907533.0, 54436.594, 0.0, 9.999795, 9.99942 
1.8050534e+3, 2.1184017e+2, -940138.0, -994965.25, -126988.195, 0.21691835, 0.011890418, -837638.2, 26328.916, 0.0, 9.999728, 9.999002 
1.8051136e+3, 2.2184013e+2, -836629.6, -859962.4, -52492.75, 0.27931857, 0.13173229, -794522.44, -28553.479, 0.0, 9.999627, 9.999302 
1.8051738e+3, 2.3183881e+2, -696042.1, -689756.4, -20476.219, 0.18249927, 0.030149909, -672183.25, -4202.834, 0.0, 9.999694, 9.999764 
1.805234e+3, 2.4183765e+2, -621059.4, -679115.1, -41071.684, 0.10103009, -0.0074826763, -599793.1, -29802.697, 0.0, 9.999854, 9.999096 
1.8052939e+3, 2.518377e+2, -457381.28, -554534.4, -63617.8, 0.10241911, 0.0943375, -425914.7, 46076.117, 0.0, 10.00033, 9.999048 
1.8053539e+3, 2.6183677e+2, -333544.22, -529477.4, -52672.25, 0.117079504, 0.1556539, -320282.13, 53718.227, 0.00000007008213, 10.000877, 9.998279 
1.8054135e+3, 2.7183306e+2, -120130.75, -379902.97, -45168.984, 0.1064319, -0.039430905, -112500.9, 163533.48, 0.000018211342, 10.001685, 9.998242 
1.8054739e+3, 2.8182986e+2, 83232.8, -202315.89, 34661.92, 0.13756076, -0.16220897, 87380.07, 265444.22, 0.00018362651, 10.002281, 9.998505 
1.8055372e+3, 2.9182976e+2, 206658.05, -45925.45, -729.94196, 0.25641403, -0.05675794, 206660.16, 286725.5, 0.0007096767, 10.002265, 9.99891 
1.805598e+3, 3.0182892e+2, 157113.69, -323184.03, -99582.75, 0.17339434, 0.08780777, 176942.14, 176942.14, 0.0016118336, 10.00277, 9.996437 
1.8056561e+3, 3.118261e+2, 592457.7, -18385.623, -237211.13, 0.14978956, 0.22062898, 673754.94, 673754.94, 0.0026687102, 10.00536, 9.997277 
1.8145032e+3, 1.2177662e+2, -1966784.4, -1680541.3, 117919.945, 0.14047253, 0.13399939, -1638220.4, 108378.63, 0.10291468, 9.997541, 10.001478 
1.8145607e+3, 1.3177733e+2, -1919017.9, -1602789.6, -93226.35, -0.15823482, 0.08869196, -1577352.0, 71241.1, 0.06887483, 9.997208, 10.001466 
1.81462e+3, 1.4178205e+2, -1880758.4, -1621920.6, 3832.7683, -0.14124778, 0.4586129, -1621863.9, -71316.54, 0.036753505, 9.99718, 10.0006485 
1.8146837e+3, 1.5177982e+2, -1650743.9, -1503381.3, 28000.756, -0.0056783506, 0.20583789, -1498240.1, -45672.46, 0.01378539, 9.998279, 10.000252 
1.8147454e+3, 1.6177762e+2, -1445378.9, -1345806.0, -57811.85, -0.051068395, -0.00883093, -1319297.6, 35289.598, 0.002842686, 9.998987, 10.000319 
1.8148056e+3, 1.7177755e+2, -1371595.8, -1215849.0, -32061.736, -0.14045931, -0.0782816, -1209507.1, 47078.023, 0.00016504708, 9.998645, 10.000696 
1.8148668e+3, 1.8177783e+2, -1328952.4, -1207733.3, 11636.83, -0.14602762, -0.06881493, -1206626.3, -48046.316, 0.00000012908751, 9.998515, 10.000154 
1.8149306e+3, 1.9177946e+2, -1121588.8, -1047372.0, 5473.5674, 0.02369385, 0.07387429, -1046970.5, 13593.597, 0.0, 9.999235, 10.000225 
1.8149932e+3, 2.0178008e+2, -1003906.75, -1035531.1, -103698.82, 0.15098096, 0.17347534, -914821.56, 47736.457, 0.0, 9.999771, 9.999387 
1.8150522e+3, 2.1177758e+2, -927311.3, -951085.3, -124577.48, 0.1371269, -0.0091353655, -814055.0, 50526.168, 0.0, 9.999648, 9.999344 
1.8151115e+3, 2.217755e+2, -828898.1, -819392.8, -57757.48, 0.11868016, -0.13070299, -766192.8, 407.09207, 0.0, 9.999517, 9.999637 
1.8151727e+3, 2.3177588e+2, -686925.56, -651378.5, -8642.974, 0.119947545, -0.092028365, -649388.44, 19204.91, 0.0, 9.99961, 10.000069 
1.8152338e+3, 2.4177578e+2, -630089.8, -674540.4, -32110.303, 0.113742724, -0.046257917, -613263.4, -42670.656, 0.0, 9.999746, 9.999181 
1.8152937e+3, 2.5177437e+2, -464550.53, -551047.3, -36838.305, 0.0650119, -0.09879851, -450988.0, 21620.383, 0.0, 10.000247, 9.999112 
1.815354e+3, 2.6177338e+2, -314382.1, -468371.53, -32953.74, 0.04857082, -0.067308575, -307626.38, 66993.11, 0.0000000874347, 10.000778, 9.998749 
1.815416e+3, 2.7177382e+2, -95869.664, -299558.5, -6831.65, 0.21122678, 0.08513015, -95640.79, 180972.7, 0.00001648955, 10.001563, 9.998849 
1.815478e+3, 2.8177255e+2, -543.18616, -354350.34, 34546.508, 0.31897968, 0.15733394, 2798.4502, 181423.56, 0.00017232615, 10.002172, 9.997519 
1.8155374e+3, 2.9176772e+2, 89868.08, -272372.4, 9372.549, 0.041742045, -0.06801888, 90110.42, 170786.27, 0.00067456526, 10.002184, 9.9973955 
1.8155962e+3, 3.0176553e+2, 183920.48, -216470.64, -42653.05, -0.29551986, 0.00008680491, 188413.81, 188413.81, 0.0015401025, 10.0025625, 9.997266 
1.815665e+3, 3.117654e+2, 596221.4, 117380.625, -76687.336, 0.49719036, 0.23846169, 608203.2, 608203.2, 0.0025582332, 10.004849, 9.998432 
1.8245019e+3, 1.21712185e+2, -1886862.0, -1686649.3, 107984.69, 0.23922272, -0.0249054, -1639507.6, 107715.77, 0.10907774, 9.998262, 10.001094 
1.8245578e+3, 1.317137e+2, -1596657.4, -1389898.5, -129973.516, -0.24924673, -0.042253036, -1327204.4, 322006.38, 0.07313931, 9.999119, 10.002121 
1.8246192e+3, 1.4172001e+2, -1481067.9, -1447092.4, -72134.57, -0.061079346, 0.44908974, -1389972.3, 161177.94, 0.039204508, 10.000019, 10.000503 
1.8246828e+3, 1.5171736e+2, -1557059.9, -1517802.4, -5105.315, 0.05686447, 0.20203213, -1517149.4, -63972.777, 0.014855209, 9.999191, 9.999707 
1.8247442e+3, 1.6171464e+2, -1508313.8, -1378103.6, -36201.797, -0.013268869, -0.026595294, -1368715.5, -13513.101, 0.0031336718, 9.998556, 10.000304 
1.8248047e+3, 1.7171435e+2, -1279533.6, -1139080.8, -73355.836, -0.09841048, -0.14247636, -1107755.1, 149445.64, 0.00019006866, 9.999138, 10.000981 
1.824866e+3, 1.8171461e+2, -1200236.3, -1140782.6, -60537.06, -0.099256866, -0.15524955, -1103067.5, 56127.582, 0.00000015151502, 9.999389, 10.000186 
1.8249293e+3, 1.9171675e+2, -1243981.1, -1112714.8, -32603.68, 0.022348542, 0.047037642, -1105062.8, -43886.285, 0.0, 9.998445, 10.000149 
1.8249916e+3, 2.0171781e+2, -1239746.1, -1116369.6, -61675.4, 0.12158183, 0.18585443, -1090826.6, -127658.805, 0.0, 9.998027, 9.999659 
1.8250515e+3, 2.1171543e+2, -890487.6, -882919.75, -74947.164, 0.12982668, -0.028345756, -811661.0, 53528.137, 0.0, 9.999699, 9.999778 
1.8251115e+3, 2.2171351e+2, -630808.3, -720174.75, -34971.23, 0.13277654, -0.16260463, -618750.25, 148455.42, 0.0, 10.000851, 9.99968 
1.8251723e+3, 2.3171414e+2, -659729.75, -650788.2, -47628.508, 0.13590313, -0.08999306, -607421.06, 61776.223, 0.0, 9.999853, 9.999954 
1.8252334e+3, 2.4171403e+2, -707947.8, -716843.75, -44546.336, 0.14678948, -0.03506398, -667627.94, -96430.95, 0.0, 9.999241, 9.999127 
1.8252945e+3, 2.5171205e+2, -449715.44, -546024.0, -51290.348, 0.12641858, -0.14039925, -427516.78, 45700.516, 0.0, 10.000362, 9.999084 
1.8253554e+3, 2.6171073e+2, -218418.22, -413884.3, -56706.17, 0.10922838, -0.14507703, -203158.63, 172072.36, 0.00000011582431, 10.001414, 9.998812 
1.8254174e+3, 2.7171123e+2, -27118.926, -263795.06, -90113.195, 0.19043343, 0.016689349, 3285.355, 280509.03, 0.000015405387, 10.002014, 9.998881 
1.8254799e+3, 2.817099e+2, 12140.131, -392113.22, -60101.066, 0.288887, 0.09627423, 20886.24, 200122.14, 0.00016006886, 10.00246, 9.997118 
1.8255402e+3, 2.917049e+2, 79803.02, -340705.28, -60970.87, 0.13729823, -0.08630108, 88464.96, 169754.81, 0.0006307873, 10.00239, 9.996829 
1.8255994e+3, 3.0170262e+2, 177779.16, -173564.7, -17973.65, -0.19733462, -0.013757816, 178696.23, 178696.23, 0.0014636399, 10.002341, 9.997659 
1.8256685e+3, 3.117015e+2, 435000.34, 13032.805, -87436.914, 0.43948743, 0.0922966, 452400.8, 452400.8, 0.0024811367, 10.003798, 9.998255 
1.8344979e+3, 1.21648245e+2, -2015688.9, -1956502.3, -619.2389, 0.0013299121, -0.1576362, -1956495.8, -208656.48, 0.11569034, 9.998307, 9.999142 
1.8345553e+3, 1.3164741e+2, -1604739.4, -1421900.8, -69758.9, -0.407683, -0.36236915, -1398325.4, 251524.58, 0.07769921, 9.999187, 10.001853 
1.8346196e+3, 1.4165114e+2, -1454225.3, -1416494.8, -88103.25, -0.023253353, -0.115011886, -1345259.6, 206554.92, 0.04181763, 10.000132, 10.00067 
1.8346815e+3, 1.5165265e+2, -1518647.3, -1447333.6, -36145.277, 0.009139036, 0.011586751, -1432217.5, 21586.43, 0.015997248, 9.999224, 10.000179 
1.8347421e+3, 1.6165349e+2, -1524281.8, -1411786.5, -39009.246, -0.092217386, 0.11513213, -1399583.3, -43784.223, 0.0034491862, 9.998559, 10.0000725 
1.8348049e+3, 1.7165351e+2, -1317355.0, -1223690.3, -44126.195, 0.0020398663, 0.08395633, -1206176.8, 51621.418, 0.00021871291, 9.999157, 10.000395 
1.8348673e+3, 1.8165326e+2, -1180571.6, -1103882.3, -85760.26, 0.09322425, 0.052200507, -1048284.7, 111514.516, 0.00000018976193, 9.999407, 10.00043 
1.8349274e+3, 1.9165298e+2, -1201960.5, -1018860.25, -65741.25, 0.009403963, -0.048200868, -997701.3, 64098.313, 0.0, 9.998412, 10.00081 
1.834988e+3, 2.016528e+2, -1206445.9, -1036101.6, -34277.156, -0.031298686, -0.09805104, -1029463.0, -65663.38, 0.0, 9.997974, 10.000237 
1.8350512e+3, 2.1165363e+2, -869394.2, -817097.8, -1441.3359, 0.1327445, -0.039563637, -817058.1, 48733.273, 0.0, 9.999606, 10.000275 
1.8351135e+3, 2.2165412e+2, -665325.7, -764065.75, -46579.047, 0.24848093, 0.041266534, -646820.75, 120966.07, 0.0, 10.000727, 9.999442 
1.8351726e+3, 2.3165335e+2, -709168.06, -735471.7, -83157.96, 0.1769007, 0.024309237, -638128.3, 31665.879, 0.0, 9.999773, 9.9994135 
1.8352325e+3, 2.4165216e+2, -732609.1, -751558.4, -33102.75, 0.14249206, 0.012116484, -707651.75, -135846.39, 0.0, 9.999165, 9.99893 
1.8352957e+3, 2.516507e+2, -467301.53, -565542.9, 5362.453, 0.22274843, -0.034551978, -467009.7, 6808.619, 0.0, 10.000293, 9.998986 
1.8353578e+3, 2.6164883e+2, -260031.13, -485410.2, -30919.066, 0.21261975, -0.06321369, -255866.39, 119967.875, 0.000000090536304, 10.001338, 9.998362 
1.8354174e+3, 2.7164587e+2, -79384.77, -348066.0, -56906.832, 0.00393641, -0.19913317, -67828.89, 210031.25, 0.00001528185, 10.0019045, 9.998357 
1.8354794e+3, 2.8164276e+2, -9897.264, -412193.84, -65825.46, 0.0010316104, -0.26436126, 599.4928, 180488.89, 0.00015262203, 10.002338, 9.997043 
1.8355453e+3, 2.9164127e+2, 83227.67, -315648.4, -55686.383, 0.40736914, -0.11162951, 90856.06, 172764.38, 0.00059531454, 10.002319, 9.997029 
1.8356064e+3, 3.0163994e+2, 153906.67, -208324.75, 5721.5, 0.28175026, 0.04927567, 153997.03, 153997.03, 0.0013982073, 10.00228, 9.997444 
1.8356663e+3, 3.116364e+2, 269547.34, -242464.31, 65258.824, -0.1621648, -0.05296289, 277734.06, 277734.06, 0.0024230652, 10.003426, 9.996673 
1.8444954e+3, 1.21586725e+2, -1909158.1, -1982754.6, -29533.375, -0.11602894, -0.11865595, -1898772.4, -150332.25, 0.12272786, 9.999384, 9.998443 
1.8445538e+3, 1.3158545e+2, -1645278.5, -1467294.4, 24433.47, -0.4337722, -0.34109226, -1464001.1, 186453.1, 0.08254445, 9.999037, 10.001583 
1.8446192e+3, 1.4158691e+2, -1605016.6, -1515174.3, -23424.785, -0.00087111886, -0.2867679, -1509433.4, 43006.33, 0.04459436, 9.99918, 10.000428 
1.8446805e+3, 1.515892e+2, -1501796.6, -1448429.4, -42226.625, -0.009635947, -0.074232645, -1425162.0, 29260.795, 0.017215712, 9.999377, 10.000102 
1.8447407e+3, 1.6159083e+2, -1430427.6, -1383715.1, -48689.04, -0.10390038, 0.1191792, -1353070.1, 3341.311, 0.0037916328, 9.999289, 9.999911 
1.8448038e+3, 1.7159092e+2, -1411379.5, -1288458.1, -34995.727, 0.0429858, 0.11547246, -1279193.1, -20782.078, 0.00025177147, 9.998608, 10.000213 
1.8448664e+3, 1.8159065e+2, -1351138.4, -1167500.1, -49172.01, 0.1616939, 0.086554244, -1155162.4, 5250.412, 0.00000025167606, 9.9981575, 10.00059 
1.8449259e+3, 1.9159001e+2, -1103013.3, -933808.44, -65412.887, 0.012243498, -0.08264753, -911469.7, 150944.6, 0.0, 9.998925, 10.001146 
1.8449862e+3, 2.0158966e+2, -976209.4, -922118.5, -31193.008, -0.07076576, -0.17118481, -907878.9, 56535.176, 0.0, 9.999537, 10.000272 
1.8450506e+3, 2.11591e+2, -898112.6, -848791.9, -44103.03, 0.13150512, -0.05070228, -822922.94, 43479.832, 0.0, 9.999478, 10.000127 
1.845114e+3, 2.2159174e+2, -836623.94, -848325.9, -121102.74, 0.28785852, 0.06938392, -721230.9, 47166.418, 0.0, 9.999576, 9.999408 
1.8451728e+3, 2.3159066e+2, -590853.75, -677058.0, -146984.94, 0.1943792, 0.020465504, -480781.6, 189626.53, 0.0, 10.000588, 9.999416 
1.8452328e+3, 2.4158934e+2, -405085.34, -598484.2, -40035.176, 0.15181127, -0.004211837, -397125.34, 175295.03, 0.0, 10.001451, 9.998871 
1.8452969e+3, 2.5158814e+2, -270294.63, -481927.94, -11097.436, 0.26947, -0.01092029, -269714.28, 204715.22, 0.0, 10.001703, 9.998876 
1.84536e+3, 2.615861e+2, -224855.63, -517054.3, -46957.914, 0.28749782, -0.03726347, -217494.66, 158952.58, 0.00000009817215, 10.001791, 9.997926 
1.8454193e+3, 2.7158204e+2, -174550.47, -458328.38, -94687.7, 0.027242318, -0.22707985, -145857.36, 132629.38, 0.000013983738, 10.001538, 9.997772 
1.8454808e+3, 2.8157854e+2, -84484.0, -420901.3, -63429.336, -0.026668575, -0.29419568, -72922.16, 107598.48, 0.0001420209, 10.001725, 9.997273 
1.8455476e+3, 2.9157823e+2, 299782.5, -142884.19, -47255.727, 0.3485749, -0.07202524, 304770.97, 387295.03, 0.0005568976, 10.003508, 9.997653 
1.8456095e+3, 3.0157655e+2, 486708.72, -8554.888, 17061.52, 0.27950794, -0.0054196585, 487295.78, 487295.78, 0.0013248638, 10.004392, 9.997814 
1.8456697e+3, 3.1157285e+2, 180518.7, -279915.88, 114098.24, -0.07945492, -0.1400857, 207241.89, 207241.89, 0.002335985, 10.002762, 9.99674 
1.8544936e+3, 1.21528365e+2, -1832882.3, -1857247.3, -146974.1, -0.24909537, 0.13782044, -1697586.6, 51434.1, 0.13014582, 9.999528, 9.999263 
1.8545535e+3, 1.3152856e+2, -1673411.3, -1522081.6, 36071.5, -0.3656877, 0.06302992, -1513923.4, 137094.63, 0.08765755, 9.999025, 10.001189 
1.8546177e+3, 1.4152807e+2, -1660133.6, -1622478.3, -19960.666, -0.075688176, -0.019111391, -1613866.8, -60846.62, 0.04753598, 9.999155, 9.999693 
1.8546791e+3, 1.5152721e+2, -1551798.0, -1558725.8, -28285.955, -0.06518079, -0.04529372, -1526764.6, -71732.984, 0.01851746, 9.999401, 9.999335 
1.8547398e+3, 1.6152647e+2, -1427761.9, -1392152.4, -70680.72, -0.126138, -0.034990788, -1337068.4, 19973.072, 0.0041650403, 9.999346, 9.9998255 
1.8548016e+3, 1.715265e+2, -1393022.3, -1254561.9, -56298.27, -0.03792632, -0.066346176, -1234560.3, 24480.068, 0.00029041685, 9.998614, 10.000444 
1.8548635e+3, 1.8152663e+2, -1346928.3, -1162091.0, -43148.133, 0.03533552, -0.07140524, -1152514.6, 8522.41, 0.0000003514084, 9.998166, 10.0006275 
1.8549243e+3, 1.9152774e+2, -1108182.3, -943965.9, -28263.568, -0.034931447, -0.05876209, -939237.56, 123783.38, 0.0, 9.998914, 10.001087 
1.8549857e+3, 2.0152836e+2, -1019429.7, -1000900.2, -29091.732, -0.06686558, -0.029803552, -979633.56, -14622.067, 0.0, 9.999489, 9.999757 
1.8550494e+3, 2.1152747e+2, -962465.4, -961838.8, -41540.023, 0.084239624, -0.06257233, -920610.9, -53587.09, 0.0, 9.99939, 9.999393 
1.8551125e+3, 2.2152644e+2, -841862.7, -837577.0, -99458.69, 0.19716121, -0.07496032, -740238.06, 28798.65, 0.0, 9.9994755, 9.999535 
1.8551727e+3, 2.3152618e+2, -566674.8, -609326.6, -97445.49, 0.13297835, -0.084094994, -488248.94, 182788.83, 0.0, 10.0005045, 9.9999275 
1.8552336e+3, 2.4152572e+2, -419683.03, -607795.3, -27058.3, 0.10493133, -0.05552667, -415868.28, 157172.2, 0.0, 10.001354, 9.998857 
1.8552981e+3, 2.5152445e+2, -302777.53, -521906.3, 4130.7397, 0.22558188, -0.051854663, -302699.7, 172351.2, 0.0, 10.001586, 9.998656 
1.8553618e+3, 2.615224e+2, -270694.4, -585772.56, -57939.39, 0.28581384, -0.05196988, -260377.8, 116692.76, 0.00000008466028, 10.001673, 9.997515 
1.8554223e+3, 2.715192e+2, -227951.6, -547393.3, -93990.47, 0.17735639, -0.09939463, -202348.52, 76758.35, 0.000011475633, 10.001445, 9.997207 
1.855484e+3, 2.815167e+2, -74471.12, -384253.28, -27906.857, 0.10212625, -0.044065002, -71977.195, 109157.586, 0.00012583715, 10.001643, 9.997571 
1.855547e+3, 2.915157e+2, 330430.28, -35827.617, 32512.293, -0.035988662, 0.037288804, 333294.0, 416432.03, 0.0005095329, 10.003318, 9.998483 
1.8556091e+3, 3.0151242e+2, 484503.3, 53930.395, -24616.994, -0.19467703, -0.12622146, 485906.16, 485906.16, 0.0012346603, 10.004112, 9.99837 
1.8556784e+3, 3.1151178e+2, 225501.4, -100718.05, 91886.12, 0.5030807, -0.012658288, 249602.36, 249602.36, 0.0022030338, 10.002413, 9.998132 
1.8644927e+3, 1.2146728e+2, -1956076.1, -1856467.4, -145360.84, -0.23160537, 0.11542717, -1752615.5, -2993.4348, 0.1378835, 9.998406, 9.999784 
1.8645537e+3, 1.3146861e+2, -1669330.3, -1533188.5, 47111.75, -0.23666632, 0.14835033, -1518475.5, 133130.53, 0.09301642, 9.999113, 10.00107 
1.8646155e+3, 1.4146797e+2, -1683579.9, -1668274.4, 36404.973, -0.18031022, 0.070992775, -1638726.5, -85118.164, 0.050644647, 9.99917, 9.999357 
1.8646781e+3, 1.5146582e+2, -1565449.5, -1605952.9, 46500.23, -0.1028957, -0.048548903, -1534982.4, -79351.086, 0.01991141, 9.999504, 9.998948 
1.8647397e+3, 1.6146408e+2, -1376570.8, -1405798.3, 17986.453, -0.07204722, -0.10138891, -1368009.6, -10359.532, 0.0045744055, 9.999863, 9.999478 
1.8648009e+3, 1.7146415e+2, -1183705.5, -1183888.0, -25898.01, -0.030480748, -0.10036954, -1157898.5, 101750.34, 0.0003360051, 10.000197, 10.000155 
1.8648621e+3, 1.8146424e+2, -1064054.3, -1071379.9, -29335.502, 0.00978639, -0.077052705, -1038153.8, 123492.61, 0.00000050835786, 10.000315, 10.000213 
1.8649237e+3, 1.9146484e+2, -988798.8, -936860.75, -49247.926, -0.018789692, -0.0689699, -907154.4, 156481.17, 0.0, 9.999966, 10.000626 
1.8649855e+3, 2.0146495e+2, -1023230.44, -1025727.0, -62793.895, -0.014263385, -0.052519873, -961672.4, 3958.9036, 0.0, 9.999577, 9.999536 
1.8650486e+3, 2.1146359e+2, -981595.06, -980054.75, -51145.38, 0.0929972, -0.12217243, -929673.75, -62026.305, 0.0, 9.999303, 9.999304 
1.8651114e+3, 2.2146225e+2, -856282.4, -846554.5, -32995.035, 0.17930317, -0.1598735, -818066.8, -48404.21, 0.0, 9.999389, 9.999514 
1.8651733e+3, 2.3146221e+2, -510800.75, -578595.56, -53810.992, 0.15533523, -0.15055759, -481100.53, 190560.8, 0.0, 10.00088, 9.999955 
1.8652356e+3, 2.4146186e+2, -334463.06, -584449.9, -38142.414, 0.15884137, -0.10627668, -328772.9, 244889.92, 0.0, 10.0020075, 9.998702 
1.8652995e+3, 2.5146034e+2, -346636.06, -572994.9, -41524.465, 0.24123093, -0.10207651, -339259.03, 136417.08, 0.0, 10.001403, 9.998394 
1.8653628e+3, 2.6145825e+2, -385769.6, -669786.1, -65578.016, 0.2863534, -0.08364033, -371359.1, 6338.537, 0.000000065173005, 10.001018, 9.997247 
1.865424e+3, 2.7145565e+2, -149461.42, -548231.9, -97510.03, 0.2125679, -0.037384845, -126894.68, 152836.25, 0.000009431519, 10.002138, 9.996873 
1.8654862e+3, 2.8145346e+2, 132038.64, -267005.88, -4075.2312, 0.13667709, 0.06551305, 132080.25, 313837.5, 0.00011328213, 10.002993, 9.997719 
1.8655498e+3, 2.9145145e+2, 248227.64, -36761.668, 4835.0596, -0.024513507, 0.01000458, 248309.64, 332077.25, 0.00047182312, 10.002598, 9.998807 
1.865613e+3, 3.0144718e+2, 194324.06, -107673.805, -103782.3, -0.09294407, -0.25543097, 226550.25, 226550.25, 0.0011563048, 10.002201, 9.998175 
1.8656802e+3, 3.1144804e+2, 293372.34, -13274.296, -87309.055, 0.45668206, 0.027219724, 316488.56, 316488.56, 0.0020674602, 10.002612, 9.998643 
1.8744919e+3, 1.2140357e+2, -1963229.5, -1854397.6, -59681.34, -0.16859734, -0.18858072, -1828048.8, -77807.12, 0.14588223, 9.998337, 9.99983 
1.8745542e+3, 1.3140517e+2, -1657801.3, -1509880.5, 55630.723, -0.09140553, -0.1470504, -1491294.1, 160928.05, 0.0986057, 9.999105, 10.00126 
1.8746127e+3, 1.414064e+2, -1671824.1, -1651614.3, 44255.27, -0.3979137, -0.05341926, -1616325.0, -62119.5, 0.053927336, 9.999196, 9.999459 
1.8746766e+3, 1.5140505e+2, -1559605.9, -1601063.8, 74249.164, -0.18929908, -0.10007792, -1503246.4, -47025.28, 0.021407956, 9.999522, 9.998979 
1.8747403e+3, 1.614039e+2, -1414837.4, -1492433.5, 28983.201, -0.0026061237, -0.074643925, -1405207.0, -46972.133, 0.0050250688, 9.999894, 9.998869 
1.8748015e+3, 1.7140405e+2, -1243943.3, -1318210.6, -6406.9175, 0.013576017, 0.023760125, -1243394.6, 16840.043, 0.00038988978, 10.000228, 9.999224 
1.8748626e+3, 1.8140353e+2, -1119543.5, -1194330.5, -42187.625, 0.012461685, 0.07781652, -1100562.6, 61677.293, 0.000000733184, 10.000351, 9.999352 
1.8749239e+3, 1.9140133e+2, -1051885.6, -1062637.5, -59266.49, 0.00855012, -0.109079875, -997751.75, 66506.29, 0.0, 9.999945, 9.999774 
1.8749855e+3, 2.0139933e+2, -1021998.94, -1020765.06, -82331.59, 0.023046333, -0.24868213, -939048.06, 27226.791, 0.0, 9.999556, 9.999585 
1.8750478e+3, 2.1139932e+2, -953725.9, -911059.94, -56433.492, 0.09355913, -0.22424594, -872061.9, -3787.5715, 0.0, 9.999243, 9.999813 
1.8751106e+3, 2.2139917e+2, -880443.5, -874338.7, -3050.3208, 0.15823843, -0.17292036, -873075.8, -102800.6, 0.0, 9.999288, 9.999373 
1.8751745e+3, 2.3139851e+2, -560259.75, -655444.75, 14857.653, 0.20528162, -0.183566, -557994.5, 114286.12, 0.0, 10.00077, 9.999479 
1.8752386e+3, 2.4139749e+2, -372435.63, -632985.75, -39811.824, 0.24609582, -0.16617163, -366488.2, 207801.47, 0.0, 10.001874, 9.998437 
1.8753009e+3, 2.5139582e+2, -373818.94, -606787.3, -63029.555, 0.25355726, -0.15671062, -357859.6, 118445.74, 0.0, 10.001309, 9.998209 
1.8753631e+3, 2.6139373e+2, -413350.53, -711096.75, -53781.145, 0.22981352, -0.11543122, -403934.0, -25606.514, 0.00000004605578, 10.000936, 9.99701 
1.875425e+3, 2.713915e+2, -188639.23, -588433.56, -38564.957, 0.08782789, -0.0126229925, -184953.17, 95404.734, 0.000008317367, 10.001961, 9.996684 
1.8754879e+3, 2.8138915e+2, 99564.11, -288078.25, -3328.8186, 0.006833346, 0.0873698, 99592.695, 281978.78, 0.00010640216, 10.002783, 9.997682 
1.875555e+3, 2.913855e+2, 206872.95, -69914.31, 3908.137, 0.24384953, -0.1288389, 206928.13, 291340.47, 0.00044870467, 10.0023775, 9.998686 
1.8756202e+3, 3.0138093e+2, 116819.0, -230515.02, -105347.21, 0.39414087, -0.3757994, 146273.3, 146273.3, 0.001099917, 10.002036, 9.997411 
1.875678e+3, 3.1138062e+2, 231101.75, -46204.48, -64291.816, -0.034900855, -0.13940194, 245282.28, 245282.28, 0.0019558533, 10.002234, 9.998585 
1.8844904e+3, 1.2134282e+2, -1831955.3, -1861596.3, 80148.1, -0.18002194, -0.18278573, -1765268.9, -14435.561, 0.15411249, 9.999539, 9.999199 
1.8845542e+3, 1.3134316e+2, -1628065.4, -1538969.5, -17486.5, -0.0016947526, -0.22658972, -1535660.5, 117166.46, 0.10442951, 9.99952, 10.000837 
1.8846112e+3, 1.4134388e+2, -1733888.1, -1713384.8, -39125.426, -0.42697433, -0.14366156, -1683190.3, -128374.93, 0.057399224, 9.998904, 9.99918 
1.8846762e+3, 1.5134276e+2, -1471789.5, -1565005.6, -17218.256, -0.20264474, -0.15025921, -1468710.8, -11882.59, 0.023018045, 10.00017, 9.998906 
1.8847409e+3, 1.613419e+2, -1264223.4, -1430589.3, -78292.336, 0.03075967, -0.0874172, -1233173.8, 125665.1, 0.005521801, 10.000979, 9.998774 
1.8848012e+3, 1.7134167e+2, -1321875.8, -1365042.9, -85655.22, 0.018967504, -0.016022285, -1255126.6, 5714.674, 0.0004532519, 9.999731, 9.999148 
1.8848617e+3, 1.8134075e+2, -1387928.3, -1392139.9, -32912.836, 0.000026988642, 0.02337004, -1357053.9, -194203.33, 0.0000010252129, 9.998792, 9.998749 
1.8849237e+3, 1.9133818e+2, -1111133.5, -1192771.4, -42508.92, 0.022356546, -0.12008247, -1093018.6, -28141.607, 0.0, 9.999958, 9.998876 
1.8849859e+3, 2.01336e+2, -839851.4, -952583.8, -79905.38, 0.054413635, -0.20998126, -798432.0, 168467.0, 0.0, 10.000902, 9.999399 
1.8850476e+3, 2.1133628e+2, -727697.3, -773230.3, -101955.336, 0.095824786, -0.16973218, -645997.56, 222896.02, 0.0, 10.000695, 10.000049 
1.8851103e+3, 2.2133623e+2, -728616.06, -845401.75, -29333.775, 0.15177147, -0.11142461, -721662.1, 49229.793, 0.0, 10.000529, 9.998967 
1.8851754e+3, 2.3133472e+2, -579634.0, -752550.2, -22993.828, 0.21952257, -0.13563475, -576628.6, 96278.62, 0.0, 10.001009, 9.998697 
1.88524e+3, 2.4133287e+2, -453963.66, -698161.9, -110595.734, 0.2600073, -0.14025523, -411321.75, 163603.94, 0.0, 10.001437, 9.998196 
1.8853018e+3, 2.5133076e+2, -331942.47, -587422.1, -156597.4, 0.2142009, -0.17064393, -257592.69, 219352.77, 0.0, 10.001602, 9.998203 
1.8853639e+3, 2.613285e+2, -280992.6, -587031.06, -94006.91, 0.19366084, -0.15982474, -254422.9, 124544.95, 0.000000017635879, 10.001596, 9.997539 
1.885427e+3, 2.7132696e+2, -236957.05, -511143.06, -18612.854, 0.16225518, -0.06598996, -235699.3, 45288.254, 0.000007212163, 10.001215, 9.997562 
1.8854909e+3, 2.813251e+2, -169288.86, -402234.78, 79364.32, 0.14332646, 0.0144129135, -144819.83, 38188.97, 0.00009812263, 10.0008955, 9.997793 
1.8855576e+3, 2.9132134e+2, 46536.563, -201612.4, 44709.03, 0.33326453, -0.17838699, 54346.023, 139385.27, 0.00042172684, 10.001501, 9.998207 
1.8856226e+3, 3.0131745e+2, 144119.94, -238522.69, -35056.063, 0.4487702, -0.31901428, 147305.11, 147305.11, 0.0010390888, 10.002289, 9.997253 
1.8856792e+3, 3.113157e+2, 282431.78, -1267.4143, -33061.047, -0.11974778, -0.23099469, 286233.63, 286233.63, 0.0018470694, 10.002473, 9.99879 
1.8944877e+3, 1.21285155e+2, -1918516.3, -2063496.3, 222978.42, -0.4295319, 0.118399374, -1756540.5, -5144.411, 0.16258536, 9.999637, 9.997768 
1.894553e+3, 1.3128294e+2, -1715457.6, -1715438.8, -57196.45, -0.07446095, -0.05042298, -1658251.8, -4834.552, 0.110513955, 9.999517, 9.999545 
1.8946113e+3, 1.4128037e+2, -1786919.9, -1810077.0, -31745.543, -0.31395188, -0.18516137, -1764707.3, -209268.9, 0.06108175, 9.998856, 9.998536 
1.8946764e+3, 1.512789e+2, -1494348.4, -1609633.6, 42152.45, -0.18716373, -0.19412269, -1480580.3, -23126.498, 0.024752133, 10.000161, 9.998606 
1.8947409e+3, 1.6127782e+2, -1219582.5, -1357755.1, -98739.12, -0.05142408, -0.14645821, -1168160.3, 191304.34, 0.0060684755, 10.001059, 9.99924 
1.8948e+3, 1.7127676e+2, -1258617.3, -1238994.4, -137593.4, -0.07078547, -0.23696542, -1110863.0, 150608.13, 0.0005270964, 9.9997425, 10.000015 
1.8948597e+3, 1.8127565e+2, -1408407.0, -1427230.1, -25192.684, -0.09032865, -0.27080888, -1390925.3, -227444.44, 0.0000013718216, 9.998768, 9.998514 
1.894923e+3, 1.9127548e+2, -1182470.6, -1327187.6, 14484.898, -0.042088237, -0.09480653, -1181035.1, -115543.73, 0.0, 9.999905, 9.997974 
1.8949862e+3, 2.0127513e+2, -874973.2, -1024281.1, -74664.625, 0.0064870953, 0.076487236, -844042.94, 123459.1, 0.0, 10.000884, 9.998922 
1.8950479e+3, 2.1127443e+2, -748403.7, -804648.2, -108277.5, 0.050814107, 0.039261468, -664656.0, 204849.92, 0.0, 10.000633, 9.99987 
1.8951102e+3, 2.2127317e+2, -790704.25, -951757.0, -27369.684, 0.10407691, 0.009693333, -786180.06, -14664.601, 0.0, 10.00043, 9.998285 
1.8951754e+3, 2.3127082e+2, -668689.44, -908752.25, 7029.0405, 0.13702127, -0.0039207265, -668483.8, 5057.1406, 0.0, 10.000889, 9.99768 
1.8952402e+3, 2.4126811e+2, -494272.75, -753231.4, -102011.49, 0.1350383, -0.014332795, -458915.06, 116654.0, 0.0, 10.0013, 9.99789 
1.895302e+3, 2.5126514e+2, -342673.9, -577766.94, -138206.81, 0.08144716, -0.13665624, -278786.4, 198809.05, 0.0, 10.001461, 9.99834 
1.8953647e+3, 2.612625e+2, -218441.0, -430565.94, -101916.23, 0.11772018, -0.20667025, -177411.1, 202207.38, 0.0000000071100716, 10.001479, 9.998671 
1.89543e+3, 2.7126196e+2, -126989.98, -258446.55, -23446.154, 0.34166336, -0.18030778, -122933.375, 158687.83, 0.0000064261117, 10.0011215, 9.999338 
1.8954946e+3, 2.812611e+2, -159354.64, -380002.13, 75982.984, 0.43085954, -0.1273095, -135720.39, 47907.332, 0.00008727804, 10.000869, 9.997968 
1.8955578e+3, 2.9125857e+2, -34909.48, -335264.6, 88396.44, 0.21488947, -0.14389634, -10825.082, 74828.04, 0.00038336485, 10.001337, 9.997375 
1.8956208e+3, 3.0125624e+2, 121416.875, -215334.88, -19513.486, 0.0485517, -0.0857929, 122543.836, 122543.836, 0.0009603228, 10.0020075, 9.997538 
1.8956828e+3, 3.112528e+2, 176867.6, -79894.5, -27990.727, -0.007718718, -0.22172438, 179883.56, 179883.56, 0.0017272044, 10.001932, 9.998488 
1.9044878e+3, 1.2122247e+2, -1824090.5, -2080501.1, 144884.77, -0.3979072, 0.14330368, -1758832.1, -6824.256, 0.1713416, 10.000549, 9.997218 
1.9045523e+3, 1.312195e+2, -1688665.6, -1769136.5, -213088.17, -0.104222365, -0.0403464, -1512047.6, 141991.17, 0.11689223, 10.000071, 9.998957 
1.9046111e+3, 1.4121638e+2, -1679890.4, -1752810.8, -89293.83, -0.19710891, -0.18912469, -1619899.9, -63833.36, 0.06499328, 9.999558, 9.998591 
1.9046761e+3, 1.512153e+2, -1577138.6, -1596127.4, 49051.566, -0.16993028, -0.2010283, -1536671.0, -78594.43, 0.026617203, 9.999347, 9.999095 
1.9047402e+3, 1.6121443e+2, -1482368.1, -1480311.0, -65174.797, -0.12896065, -0.1687433, -1416156.6, -56072.496, 0.0066676727, 9.999233, 9.999275 
1.9047995e+3, 1.7121302e+2, -1193405.3, -1227684.5, -199658.84, -0.10974416, -0.27864113, -1010151.7, 251943.08, 0.0006122247, 10.000294, 9.999816 
1.9048594e+3, 1.8121171e+2, -1065996.6, -1249648.9, -115994.36, -0.08165361, -0.318489, -1009881.1, 154225.5, 0.0000017786746, 10.001072, 9.998619 
1.904923e+3, 1.9121218e+2, -1058067.1, -1233633.6, -1060.6859, -0.04587729, -0.10497652, -1058060.8, 8050.445, 0.0, 10.000627, 9.998267 
1.9049865e+3, 2.0121229e+2, -970319.6, -1084309.5, -10367.755, -0.007771414, 0.09760162, -969384.3, -1267.0386, 0.0, 10.000311, 9.998775 
1.9050483e+3, 2.1121109e+2, -696274.06, -829991.56, -68209.13, 0.03473581, 0.050647076, -667620.6, 202506.23, 0.0, 10.001214, 9.999411 
1.9051108e+3, 2.2120935e+2, -608094.8, -890941.1, 2361.457, 0.080621965, 0.011561751, -608075.1, 164067.02, 0.0, 10.001797, 9.998047 
1.9051756e+3, 2.312069e+2, -691170.3, -936984.94, 72569.07, 0.08258623, 0.00052373874, -671345.44, 2823.4763, 0.0, 10.0008, 9.997535 
1.90524e+3, 2.4120429e+2, -687331.06, -833825.0, 47383.85, 0.08117806, 0.0046532117, -673340.7, -97144.445, 0.0, 9.999942, 9.997979 
1.9053029e+3, 2.5120166e+2, -466250.88, -609897.8, 11931.469, 0.10038297, -0.10626544, -465266.6, 12952.794, 0.0, 10.0005045, 9.998569 
1.9053665e+3, 2.6119918e+2, -240893.45, -416665.6, 44652.492, 0.18777367, -0.18525542, -230200.58, 150039.69, 0.000000016068412, 10.001222, 9.998884 
1.9054314e+3, 2.711985e+2, 30825.46, -170624.44, 4953.5137, 0.3620284, -0.19087349, 30947.191, 313190.03, 0.000006012962, 10.002129, 9.999467 
1.905496e+3, 2.811977e+2, 79592.52, -278049.84, 27107.861, 0.41768622, -0.13828206, 81635.516, 265884.1, 0.000076659555, 10.002574, 9.997846 
1.9055592e+3, 2.9119584e+2, 5070.702, -343996.8, 27502.596, 0.21016486, -0.06002581, 7224.3105, 93495.92, 0.00034009607, 10.001742, 9.99711 
1.9056219e+3, 3.011936e+2, 32307.588, -193386.67, -14430.014, 0.033267472, 0.0034333197, 33226.445, 33226.445, 0.0008709652, 10.001116, 9.998122 
1.9056858e+3, 3.1119063e+2, 97851.805, -75180.34, -60603.734, 0.16822201, -0.16861436, 116966.42, 116966.42, 0.0016019944, 10.001165, 9.998907 
1.9144903e+3, 1.21153414e+2, -1785457.8, -1980381.5, 110951.03, -0.2080467, -0.19762497, -1735241.0, 17440.78, 0.18042894, 10.000513, 9.997911 
1.9145517e+3, 1.3115202e+2, -1678546.9, -1745803.4, -229481.72, -0.15510988, -0.2548056, -1480242.6, 174457.19, 0.12358676, 10.000085, 9.999124 
1.9146115e+3, 1.4115165e+2, -1603721.5, -1615068.8, -110117.53, -0.1485231, -0.1679335, -1499131.5, 57571.09, 0.069141634, 9.999652, 9.999507 
1.9146748e+3, 1.5115198e+2, -1485461.8, -1398608.4, 42625.254, -0.22193405, -0.16666432, -1381184.5, 77512.195, 0.028615344, 9.999305, 10.000487 
1.914738e+3, 1.6115192e+2, -1508408.4, -1529973.3, -47096.875, -0.28280008, -0.1403225, -1470875.5, -110179.91, 0.0073205116, 9.999215, 9.998941 
1.9147994e+3, 1.7115061e+2, -1293580.4, -1436756.1, -149163.25, -0.15524939, -0.119324654, -1199715.9, 62994.492, 0.00070924795, 10.000297, 9.998379 
1.9148609e+3, 1.8114913e+2, -1026270.0, -1183334.8, -120693.16, -0.035741642, -0.09280424, -960808.75, 203918.33, 0.0000023137907, 10.001136, 9.999048 
1.9149236e+3, 1.9114833e+2, -954517.2, -1013377.44, -18429.43, -0.0405467, -0.13266014, -949223.0, 117512.4, 0.0, 10.000599, 9.999796 
1.9149864e+3, 2.0114736e+2, -968145.9, -1070987.3, -26.063677, -0.051789463, -0.14664216, -968145.9, 599.4059, 0.0, 10.000264, 9.998891 
1.915049e+3, 2.111463e+2, -760035.4, -943208.4, -23783.504, -0.014488333, -0.12624058, -756997.7, 113758.81, 0.0, 10.001126, 9.998677 
1.915112e+3, 2.2114488e+2, -614529.9, -874908.44, -12944.521, 0.016432067, -0.08821191, -613887.94, 158883.27, 0.0, 10.001667, 9.998222 
1.9151755e+3, 2.3114298e+2, -655929.56, -839523.75, 37726.152, 0.0040254584, -0.101310626, -648479.6, 26311.568, 0.0, 10.000698, 9.998255 
1.9152392e+3, 2.4114111e+2, -670635.4, -781811.56, 40841.434, 0.019899266, -0.08464064, -657244.8, -80434.14, 0.0, 9.999861, 9.998378 
1.9153042e+3, 2.5113988e+2, -465465.94, -581192.75, 42922.31, 0.185859, -0.08313575, -451284.22, 27537.65, 0.0, 10.000393, 9.9988165 
1.9153689e+3, 2.6113832e+2, -300764.66, -513466.5, 64714.14, 0.31738764, -0.0738065, -282622.84, 98213.305, 0.000000038925435, 10.001094, 9.998287 
1.9154318e+3, 2.7113637e+2, -75017.555, -355167.25, 45420.063, 0.18267933, -0.0975537, -67837.71, 215016.58, 0.000005437274, 10.00198, 9.99827 
1.915495e+3, 2.8113475e+2, 22658.28, -365951.53, 6489.802, 0.06585979, -0.021132318, 22766.629, 207637.53, 0.00006527873, 10.002437, 9.997311 
1.9155608e+3, 2.9113302e+2, -31103.188, -366809.34, 6765.1025, 0.22039443, 0.08134695, -30966.914, 55928.26, 0.00029241332, 10.001523, 9.997061 
1.915625e+3, 3.011297e+2, 58947.06, -87106.96, -32154.25, 0.23007505, 0.0068193157, 65712.52, 65712.52, 0.0007691183, 10.000887, 9.9989605 
1.9156858e+3, 3.1113133e+2, 134332.36, 78857.97, -8235.753, 0.05184171, 0.16267928, 135529.22, 135529.22, 0.0014565531, 10.000849, 10.000104 
1.9244914e+3, 1.2108813e+2, -1993459.3, -1981208.3, 129150.87, -0.030391805, -0.20194799, -1858037.8, -104711.734, 0.18987963, 9.998605, 9.9988365 
1.9245513e+3, 1.3108717e+2, -1642031.5, -1601480.5, -112876.83, -0.18333387, -0.32621986, -1507072.6, 148264.13, 0.13060497, 9.999724, 10.000311 
1.9246116e+3, 1.4108886e+2, -1368878.9, -1459789.9, 27616.072, -0.1430796, -0.13158008, -1361147.4, 196170.5, 0.07352615, 10.001182, 9.999872 
1.9246745e+3, 1.5108933e+2, -1382279.5, -1369200.8, 38946.46, -0.20584954, -0.10973896, -1336248.4, 123063.35, 0.030745408, 10.000132, 10.000289 
1.9247371e+3, 1.6108902e+2, -1543912.4, -1567507.0, -84871.305, -0.25733638, -0.08721546, -1470022.4, -108708.336, 0.008026891, 9.999075, 9.998744 
1.9247991e+3, 1.7108737e+2, -1436223.1, -1525182.1, -99608.836, -0.1469477, -0.08224289, -1371613.9, -108281.52, 0.0008187495, 9.9994135, 9.998196 
1.9248612e+3, 1.8108559e+2, -1229636.4, -1286329.9, -26990.445, -0.033509664, -0.07189297, -1218842.1, -53490.547, 0.0000031359323, 9.999761, 9.999008 
1.9249238e+3, 1.9108449e+2, -1019641.06, -1039384.2, -42013.113, -0.034526728, -0.14761968, -986355.3, 81005.84, 0.0, 10.000117, 9.999853 
1.9249864e+3, 2.0108335e+2, -943380.44, -1047666.9, -72066.586, -0.04172665, -0.1885542, -906571.4, 62800.227, 0.0, 10.000389, 9.998991 
1.9250494e+3, 2.1108247e+2, -826435.06, -960480.25, -49052.96, -0.033604603, -0.15639323, -810402.1, 60979.39, 0.0, 10.000618, 9.998799 
1.9251126e+3, 2.2108138e+2, -728270.06, -913561.3, -7806.507, -0.016111761, -0.10140779, -727941.75, 45452.36, 0.0, 10.000829, 9.998358 
1.9251761e+3, 2.3107985e+2, -584894.56, -789562.75, -20150.4, 0.0007766719, -0.09037358, -582929.5, 92481.41, 0.0, 10.001122, 9.998391 
1.9252399e+3, 2.4107818e+2, -477340.03, -700363.25, -32836.313, 0.05198026, -0.057875052, -472605.97, 104822.58, 0.0, 10.001241, 9.998272 
1.9253048e+3, 2.5107676e+2, -420707.13, -593735.2, -69591.18, 0.21766059, -0.047211815, -396191.4, 83250.33, 0.0, 10.000832, 9.998529 
1.9253697e+3, 2.6107493e+2, -398047.28, -590915.2, -30735.67, 0.33371124, -0.03599157, -393267.66, -11808.624, 0.000000047147957, 10.000566, 9.998008 
1.9254327e+3, 2.710727e+2, -185343.48, -437899.47, -5993.939, 0.13235873, -0.05913589, -185201.31, 98279.805, 0.0000043683804, 10.001357, 9.997998 
1.9254962e+3, 2.8107083e+2, -61409.086, -399242.5, -21826.621, 0.0042141555, 0.010066569, -60004.754, 125496.016, 0.000052619915, 10.001856, 9.997349 
1.9255623e+3, 2.9106915e+2, -143264.6, -404371.5, -53907.004, 0.27587587, 0.107757695, -132572.97, -45049.465, 0.00024219825, 10.000675, 9.997212 
1.9256261e+3, 3.0106524e+2, -101710.67, -148303.33, -25404.115, 0.33968422, -0.03741118, -90538.34, -90538.34, 0.0006583253, 9.99971, 9.999111 
1.9256872e+3, 3.110683e+2, 248564.53, 161185.84, -29375.928, 0.08805794, 0.25197244, 257522.16, 257522.16, 0.0012843976, 10.001469, 10.0004 
1.93449e+3, 1.2102757e+2, -1915707.4, -1813377.8, 15971.463, -0.035552572, 0.20825614, -1810942.9, -57009.84, 0.1997211, 9.998572, 10.000003 
1.93455e+3, 1.3102567e+2, -1500165.5, -1302647.3, -24057.453, -0.27352723, -0.21420458, -1299759.4, 356184.0, 0.13795441, 9.999655, 10.002697 
1.9346115e+3, 1.4102864e+2, -1373603.4, -1482865.6, 32127.453, -0.29043046, -0.055966467, -1364856.8, 193049.08, 0.07814733, 10.001248, 9.999672 
1.9346748e+3, 1.5102756e+2, -1516635.4, -1666246.4, -599.8443, -0.18413419, -0.019418495, -1516633.0, -56713.66, 0.033007, 10.000191, 9.998208 
1.9347376e+3, 1.6102564e+2, -1544554.0, -1576398.0, -102160.67, -0.11427262, -0.01062694, -1457082.0, -95141.2, 0.008786739, 9.999105, 9.99867 
1.9347987e+3, 1.710232e+2, -1359301.6, -1359920.4, -77092.02, -0.13266088, -0.17368385, -1282518.4, -18556.777, 0.00094156526, 9.999384, 9.999347 
1.9348598e+3, 1.8102099e+2, -1261003.3, -1350276.3, -15133.934, -0.14513454, -0.2746317, -1258507.5, -92526.38, 0.0000044945964, 9.999755, 9.99857 
1.9349232e+3, 1.910207e+2, -1127235.5, -1252558.5, -20989.322, -0.09064779, -0.14832367, -1123813.6, -55825.816, 0.0, 10.000077, 9.998407 
1.9349869e+3, 2.0102029e+2, -947149.8, -1050756.8, -67656.7, -0.04816063, -0.014585271, -913741.56, 56253.99, 0.0, 10.000359, 9.99899 
1.9350496e+3, 2.1101953e+2, -774381.0, -835643.6, -34238.742, -0.0776548, -0.041105688, -759071.4, 112931.74, 0.0, 10.000538, 9.999701 
1.9351125e+3, 2.2101852e+2, -742424.94, -909478.4, -3451.7158, -0.089377366, -0.041101012, -742353.6, 31659.963, 0.0, 10.000688, 9.99845 
1.9351771e+3, 2.310173e+2, -634402.06, -860583.94, -1069.57, 0.0033614156, 0.032058727, -634397.0, 41632.04, 0.0, 10.000992, 9.997961 
1.9352415e+3, 2.4101558e+2, -531569.75, -793777.7, -44446.94, 0.09662765, 0.105821624, -524240.4, 53808.176, 0.0, 10.00115, 9.997679 
1.935305e+3, 2.5101247e+2, -475930.34, -695765.75, -77740.35, 0.14794424, 0.013372845, -451217.2, 28859.912, 0.0, 10.000782, 9.997852 
1.9353686e+3, 2.6100928e+2, -410284.22, -604951.25, -23158.807, 0.18123001, -0.05825496, -407567.0, -25460.916, 0.00000001782158, 10.00052, 9.997932 
1.9354339e+3, 2.7100757e+2, -185251.6, -391948.2, 40084.785, 0.12759678, -0.058455035, -177750.17, 106371.74, 0.0000032439186, 10.001178, 9.998393 
1.9354992e+3, 2.8100613e+2, -59569.543, -353937.4, -47435.836, 0.109526135, 0.01063197, -52114.32, 134021.4, 0.000042492127, 10.001656, 9.997766 
1.935563e+3, 2.9100427e+2, -121464.16, -351079.38, -96093.48, 0.28210688, 0.04820408, -86556.23, 1601.3323, 0.00020128557, 10.000641, 9.997597 
1.9356254e+3, 3.0100054e+2, -137784.44, -232185.03, -20070.994, 0.28941596, -0.07749293, -133694.27, -133694.27, 0.00056116504, 9.999752, 9.998514 
1.9356877e+3, 3.110008e+2, 158782.67, 101494.25, 132197.83, 0.000092916256, 0.0066594854, 265403.97, 265403.97, 0.0011166077, 10.000957, 10.00022 
1.944489e+3, 1.20965466e+2, -1628517.5, -1678557.5, 63341.18, -0.07081031, 0.28653738, -1585433.9, 169111.55, 0.20999403, 10.00077, 10.000003 
1.9445497e+3, 1.3096395e+2, -1490991.9, -1289255.5, -14038.407, -0.23943496, -0.10719578, -1288283.3, 368267.66, 0.14565058, 9.99968, 10.002813 
1.9446115e+3, 1.4096683e+2, -1669812.5, -1633156.0, -97209.69, -0.27836943, 0.033108074, -1552561.9, 5952.4927, 0.083007626, 9.999121, 9.999633 
1.944675e+3, 1.5096511e+2, -1692810.1, -1763993.6, -52013.254, -0.11186804, 0.017459018, -1665376.9, -204842.52, 0.03539992, 9.999039, 9.998092 
1.9447377e+3, 1.6096273e+2, -1543389.9, -1573571.8, 1636.0295, 0.010300154, -0.013249608, -1543301.5, -180741.33, 0.009600047, 9.999088, 9.998705 
1.9447988e+3, 1.7096026e+2, -1242792.9, -1286583.3, -18787.725, -0.05825972, -0.19221306, -1235837.1, 28742.703, 0.0010784023, 10.000098, 9.999506 
1.9448602e+3, 1.8095814e+2, -1094650.3, -1280090.8, -8781.047, -0.11578624, -0.29402608, -1094235.4, 72362.13, 0.0000066792873, 10.000946, 9.998471 
1.9449234e+3, 1.9095804e+2, -1008054.3, -1222238.1, 41795.184, -0.09775473, -0.12377209, -1000187.5, 68415.45, 0.0, 10.001025, 9.998152 
1.9449869e+3, 2.0095778e+2, -896043.2, -1056581.3, 54492.08, -0.074246466, 0.048028693, -879294.1, 91315.9, 0.0, 10.000853, 9.998704 
1.9450496e+3, 2.1095653e+2, -839037.1, -905479.6, -8572.14, -0.0841866, 0.002001951, -837949.0, 34674.074, 0.0, 10.000261, 9.999351 
1.9451128e+3, 2.2095509e+2, -850251.9, -949830.4, -8858.563, -0.0669557, -0.01891022, -849469.94, -74832.03, 0.0, 9.999888, 9.998559 
1.9451782e+3, 2.3095419e+2, -634120.1, -812479.7, 48561.992, 0.048178975, 0.048521694, -621755.4, 54893.55, 0.0, 10.000779, 9.9984 
1.9452433e+3, 2.4095266e+2, -469303.1, -789549.06, 58110.01, 0.147087, 0.11588669, -459084.8, 119580.49, 0.0, 10.0016985, 9.997445 
1.945306e+3, 2.509487e+2, -290334.8, -691643.25, 1001.34143, 0.120125964, 0.003508269, -290332.3, 190370.17, 0.0, 10.002418, 9.997097 
1.9453692e+3, 2.6094475e+2, -129106.0, -501330.06, 39298.973, 0.115047134, -0.083360404, -125002.11, 257737.13, 0.000000002142629, 10.002586, 9.997646 
1.9454348e+3, 2.709429e+2, -237462.94, -420056.6, 53943.965, 0.14327978, -0.094622634, -222717.03, 62038.37, 0.0000029419668, 10.000806, 9.998392 
1.9455e+3, 2.8094113e+2, -364023.63, -502105.16, -5690.518, 0.14464757, -0.058615424, -363789.5, -177017.9, 0.000037529444, 9.999573, 9.997752 
1.9455627e+3, 2.9093954e+2, 45448.68, -272784.5, -90573.04, 0.14878233, 0.012180886, 69421.04, 158212.36, 0.00017698373, 10.001794, 9.997579 
1.9456258e+3, 3.0093664e+2, 324403.28, -82880.7, -68938.19, 0.2113496, -0.005847665, 335755.56, 335755.56, 0.00049046276, 10.003248, 9.997847 
1.9456881e+3, 3.109346e+2, -87402.73, -113164.984, 29386.271, 0.055626586, -0.049818676, -68198.4, -68198.4, 0.00097071694, 9.999635, 9.999389 
1.9544876e+3, 1.20901704e+2, -1678199.6, -1832121.9, -14701.01, -0.33103615, -0.029323442, -1676808.1, 78354.32, 0.22070916, 10.00096, 9.998722 
1.9545506e+3, 1.30902e+2, -1641534.8, -1612744.4, -36199.53, -0.120056234, -0.012210405, -1588182.9, 68976.914, 0.15369554, 9.999727, 10.000206 
1.9546118e+3, 1.4090303e+2, -1664237.3, -1613443.6, -118176.266, -0.16285782, 0.12373784, -1517966.0, 41181.977, 0.08810495, 9.999089, 9.999796 
1.9546746e+3, 1.5090172e+2, -1555063.9, -1470556.9, -46917.305, -0.04705667, -0.0133989435, -1449670.9, 11488.125, 0.037922986, 9.999001, 10.000128 
1.954737e+3, 1.6090022e+2, -1520985.6, -1533973.4, 23521.566, 0.02971285, -0.108702354, -1503078.0, -139906.05, 0.010466628, 9.999117, 9.998961 
1.9547997e+3, 1.7089862e+2, -1306715.4, -1427540.6, 28278.549, 0.021880925, -0.13295363, -1300424.5, -35238.285, 0.0012294218, 10.000128, 9.998526 
1.9548622e+3, 1.8089703e+2, -1073181.4, -1247348.1, 2578.8643, -0.0071715745, -0.11765042, -1073143.3, 94057.76, 0.000009908067, 10.0009985, 9.99867 
1.9549245e+3, 1.9089656e+2, -939260.4, -1079988.9, 46987.75, -0.10508966, -0.06669919, -925013.9, 144192.73, 0.0, 10.001022, 9.999133 
1.9549866e+3, 2.008957e+2, -947238.6, -1145261.6, 33965.805, -0.18542585, -0.00556892, -941574.6, 29641.984, 0.0, 10.000778, 9.99813 
1.9550495e+3, 2.1089336e+2, -963014.5, -1140434.3, -25089.734, -0.1139912, -0.024565918, -959534.7, -86292.05, 0.0, 10.00017, 9.997781 
1.9551131e+3, 2.2089101e+2, -855561.7, -938784.2, 2280.861, -0.021556078, -0.03000602, -855499.2, -80231.44, 0.0, 9.99979, 9.998683 
1.9551791e+3, 2.3089048e+2, -562322.75, -633578.5, 93532.55, 0.07332456, -0.027725104, -497862.28, 179408.44, 0.0, 10.000662, 9.999679 
1.9552447e+3, 2.4088931e+2, -489715.72, -797751.44, 80637.41, 0.12532525, -0.016179662, -469883.38, 109396.836, 0.0, 10.001548, 9.997461 
1.9553079e+3, 2.5088534e+2, -373028.44, -824887.75, 33625.203, 0.07073401, -0.063825056, -370539.9, 110779.7, 0.0, 10.002263, 9.99625 
1.9553714e+3, 2.6088136e+2, -183574.81, -588919.3, -179.47128, 0.06315508, -0.07671314, -183574.73, 199783.83, 0.00000003752054, 10.002464, 9.99711 
1.9554351e+3, 2.708786e+2, -257495.1, -457079.8, -9988.992, 0.113848284, -0.14831893, -256996.4, 28386.418, 0.0000033154865, 10.000788, 9.998147 
1.9554983e+3, 2.8087586e+2, -401951.16, -579177.56, 12695.77, 0.039152235, -0.17747764, -401046.3, -213637.95, 0.00003554113, 9.999565, 9.997228 
1.9555612e+3, 2.908749e+2, -27047.08, -359874.5, 23773.85, -0.16274887, 0.017108181, -25357.492, 64067.184, 0.00016173386, 10.00153, 9.997104 
1.9556274e+3, 3.0087352e+2, 207259.06, -231476.45, -125605.21, 0.024631333, 0.19596882, 240673.58, 240673.58, 0.0004325806, 10.002823, 9.99704 
1.9556895e+3, 3.108687e+2, -212283.25, -342695.34, -113034.14, 0.21601221, -0.013800134, -146995.83, -146995.83, 0.0008294885, 9.999539, 9.997845 
1.9644871e+3, 1.2083993e+2, -1890945.1, -1960706.8, -54295.5, -0.3686135, -0.11404223, -1861291.6, -105528.445, 0.23177752, 9.999431, 9.998572 
1.9645518e+3, 1.3084002e+2, -1699882.0, -1743507.9, 28360.861, 0.03971821, -0.037385333, -1685915.9, -28150.53, 0.1620495, 9.999795, 9.999209 
1.964612e+3, 1.4083953e+2, -1601108.8, -1599653.5, 54889.375, -0.05650743, 0.023173505, -1545486.9, 14284.166, 0.093428105, 9.999611, 9.999618 
1.9646734e+3, 1.5083914e+2, -1378309.0, -1338242.0, 23517.314, -0.07921853, -0.056834146, -1327382.0, 134391.8, 0.04057487, 10.000032, 10.000562 
1.9647355e+3, 1.608387e+2, -1326367.5, -1426240.1, 20820.65, -0.08105668, -0.08164031, -1322200.9, 41576.23, 0.011385711, 10.000403, 9.999081 
1.9647998e+3, 1.7083763e+2, -1264883.3, -1411550.6, 72677.805, 0.028500404, -0.05003283, -1234970.3, 30816.3, 0.0013940044, 10.000451, 9.998475 
1.9648638e+3, 1.8083623e+2, -1178020.1, -1310611.3, 84122.53, 0.11352524, -0.010344667, -1137209.6, 30589.693, 0.000014255441, 10.00033, 9.998562 
1.9649254e+3, 1.9083478e+2, -1099361.4, -1177775.0, 31141.27, -0.029981373, -0.040703878, -1088498.8, -18684.982, 0.0, 10.000018, 9.998944 
1.9649869e+3, 2.0083304e+2, -1065127.6, -1206139.6, -9906.981, -0.15802951, -0.052118886, -1064435.0, -92603.81, 0.0, 9.999968, 9.998114 
1.9650503e+3, 2.1083084e+2, -802753.3, -1047841.5, 36891.082, -0.08252836, -0.06843669, -797320.8, 76533.14, 0.0, 10.001189, 9.9979315 
1.9651143e+3, 2.2082865e+2, -555631.0, -857824.25, 140356.53, 0.024480423, -0.054427773, -500499.25, 275376.9, 0.0, 10.002126, 9.998117 
1.9651799e+3, 2.3082724e+2, -532022.06, -751293.1, 66746.02, 0.075701505, -0.038234655, -513302.7, 164587.7, 0.0, 10.001415, 9.998521 
1.9652453e+3, 2.4082536e+2, -606004.6, -845450.3, -41210.15, 0.09400182, -0.016974872, -599110.56, -19201.434, 0.0, 10.000708, 9.997537 
1.9653091e+3, 2.508222e+2, -488690.9, -781452.75, 2316.331, 0.053145494, -0.05657792, -488672.56, -6733.473, 0.0, 10.001036, 9.997141 
1.9653733e+3, 2.6081887e+2, -301446.88, -630683.9, 60393.313, 0.0791836, -0.06971604, -290718.28, 93251.98, 0.00000006167767, 10.001599, 9.997239 
1.9654371e+3, 2.708159e+2, -40607.53, -398415.06, 14888.733, 0.15702042, -0.1266255, -39989.066, 246008.03, 0.000003603985, 10.002483, 9.997728 
1.9654997e+3, 2.8081295e+2, -4515.0923, -417530.0, 47995.68, 0.08940241, -0.13852605, 989.0426, 189014.8, 0.00003406456, 10.002432, 9.996953 
1.9655615e+3, 2.908117e+2, -313798.5, -520910.28, 69016.09, -0.15699358, 0.043632615, -292907.44, -202862.02, 0.0001486936, 9.999654, 9.996907 
1.9656281e+3, 3.0080977e+2, -376313.44, -441028.38, 13268.259, 0.08005027, 0.16483451, -373698.75, -373698.75, 0.00038063264, 9.998515, 9.997678 
1.96569e+3, 3.1080535e+2, 228446.34, -57883.29, 23680.518, 0.18854448, -0.09632139, 230391.6, 230391.6, 0.00069814175, 10.002235, 9.998521 
1.9744879e+3, 1.20780446e+2, -1802430.0, -1772713.3, -24125.342, -0.25400928, 0.052551795, -1759237.8, -2892.485, 0.24301729, 9.999418, 9.999867 
1.974553e+3, 1.3077796e+2, -1646692.4, -1634702.1, 29091.186, 0.18768717, -0.21575728, -1610994.8, 47372.676, 0.17062773, 9.9998045, 9.999999 
1.9746117e+3, 1.4077643e+2, -1628975.6, -1672373.9, 62569.074, -0.04911521, -0.29903018, -1584449.9, -24068.676, 0.09895461, 9.999665, 9.999091 
1.9746715e+3, 1.5077743e+2, -1467175.8, -1540884.9, 50817.668, -0.27843633, -0.117296256, -1441255.4, 21122.209, 0.04335473, 10.000097, 9.999112 
1.9747327e+3, 1.6077818e+2, -1315821.1, -1423286.3, 20795.787, -0.4065586, 0.08192154, -1311937.3, 52438.254, 0.012356995, 10.000488, 9.99906 
1.9747989e+3, 1.7077728e+2, -1192688.5, -1266478.8, 78009.73, -0.09710613, 0.05720623, -1143288.9, 123091.82, 0.0015709848, 10.000472, 9.999463 
1.9748649e+3, 1.8077567e+2, -1206200.8, -1369783.4, 73040.48, 0.17926504, 0.017598007, -1178334.8, -9941.496, 0.000019593592, 10.000334, 9.998155 
1.9749263e+3, 1.9077261e+2, -1204770.5, -1387029.6, 26066.055, 0.062345214, -0.052353844, -1201115.9, -130690.73, 0.0, 9.999977, 9.997528 
1.9749878e+3, 2.007697e+2, -1044948.75, -1144301.9, 11117.769, -0.07103441, -0.09557221, -1043719.9, -71264.69, 0.0, 9.999886, 9.998575 
1.9750518e+3, 2.10769e+2, -691036.2, -793933.75, 94027.23, -0.0429856, -0.1116719, -635302.44, 239154.7, 0.0, 10.001094, 9.999722 
1.9751161e+3, 2.2076789e+2, -659816.25, -1044467.9, 134586.3, 0.0014331638, -0.08310743, -617402.44, 159062.38, 0.0, 10.001995, 9.996899 
1.9751805e+3, 2.3076443e+2, -782652.4, -1251897.1, 41858.113, 0.0065763486, 0.02052916, -778947.75, -100440.016, 0.0, 10.001332, 9.995123 
1.9752449e+3, 2.4076092e+2, -617873.0, -858223.25, -44859.336, -0.006306329, 0.12390008, -609773.3, -29223.639, 0.0, 10.000649, 9.997482 
1.9753096e+3, 2.5075912e+2, -329236.6, -430533.25, 29197.404, 0.007788009, 0.028874286, -321423.47, 161137.98, 0.0, 10.00095, 9.999593 
1.9753748e+3, 2.60757e+2, -284342.0, -549316.4, 79715.44, 0.07625433, -0.05848811, -262209.0, 122367.266, 0.000000055759365, 10.001402, 9.997891 
1.97544e+3, 2.7075458e+2, -111508.2, -496147.38, 53690.977, 0.19828375, -0.033090927, -104154.195, 182446.56, 0.0000036492006, 10.002282, 9.997146 
1.9755031e+3, 2.8075236e+2, -38180.992, -457095.4, -27101.87, 0.19830672, 0.073108375, -36434.9, 152189.83, 0.00003270161, 10.002291, 9.996755 
1.9755632e+3, 2.9074955e+2, -303736.2, -500042.94, -26875.482, 0.035927314, 0.10171765, -300123.28, -209467.27, 0.00013867494, 9.999653, 9.99705 
1.975628e+3, 3.007455e+2, -283745.13, -237601.55, 75937.28, 0.21442182, -0.046474926, -181308.5, -181308.5, 0.0003432824, 9.99848, 9.99909 
1.9756918e+3, 3.1074405e+2, 344045.1, 284786.25, 85032.66, 0.13940157, -0.2394681, 404462.63, 404462.63, 0.00060457416, 10.001846, 10.0010395 
1.9844882e+3, 1.207194e+2, -1878298.3, -1718743.1, 64537.047, -0.09725072, 0.044526566, -1695907.4, 61033.52, 0.25424254, 9.998456, 10.000832 
1.9845523e+3, 1.3071623e+2, -1707212.6, -1665543.0, -20037.555, 0.18483876, -0.3022709, -1657471.1, 1499.2147, 0.17932345, 9.999402, 9.999936 
1.984611e+3, 1.4071605e+2, -1692075.8, -1748307.5, -13053.851, -0.05302199, -0.23338965, -1689193.1, -128219.58, 0.104643695, 9.999426, 9.99869 
1.9846718e+3, 1.5071677e+2, -1495238.0, -1622974.0, 27969.154, -0.25109556, -0.020865506, -1489382.4, -26407.236, 0.046255346, 10.000207, 9.998487 
1.9847336e+3, 1.6071694e+2, -1274737.9, -1409914.3, 34326.586, -0.34355465, 0.16380931, -1266520.6, 98459.62, 0.013380272, 10.000811, 9.99899 
1.9847988e+3, 1.707158e+2, -1170916.5, -1219598.6, 25511.75, -0.1286214, 0.09160067, -1159996.6, 106989.86, 0.0017591557, 10.000465, 9.999787 
1.9848637e+3, 1.8071407e+2, -1228867.1, -1381900.1, 16115.065, 0.07502805, 0.017316604, -1227188.5, -58189.98, 0.0000256483, 10.000172, 9.998151 
1.9849266e+3, 1.907108e+2, -1052261.9, -1341911.5, 45769.914, 0.05702652, -0.055877026, -1045201.5, 25830.664, 0.0, 10.00113, 9.997285 
1.9849893e+3, 2.0070773e+2, -761823.8, -1032223.8, 95926.38, 0.021073058, -0.0911295, -731250.2, 241813.13, 0.0, 10.001939, 9.998352 
1.9850533e+3, 2.1070713e+2, -633300.6, -793187.6, 37629.137, -0.009875516, -0.07456091, -624887.4, 250177.3, 0.0, 10.001614, 9.999472 
1.9851172e+3, 2.2070596e+2, -761874.7, -1108540.5, -5096.126, -0.028629156, -0.027694855, -761799.8, 15273.221, 0.0, 10.001358, 9.996764 
1.9851819e+3, 2.3070174e+2, -678391.1, -1202019.1, 88302.945, -0.0041890894, 0.006521775, -663900.94, 15220.5205, 0.0, 10.002061, 9.995106 
1.9852465e+3, 2.406977e+2, -372873.38, -758796.25, 168183.98, 0.029251445, 0.056258947, -309866.13, 271301.38, 0.0, 10.002435, 9.997293 
1.9853106e+3, 2.5069618e+2, -335320.4, -472793.06, 65922.3, 0.04156797, 0.022241257, -308817.94, 174360.92, 0.0, 10.001087, 9.999232 
1.9853751e+3, 2.606944e+2, -501061.44, -664416.44, 11451.662, 0.07177479, -0.0008884053, -500262.53, -115069.69, 0.00000004684117, 9.999961, 9.997793 
1.9854403e+3, 2.70692e+2, -354389.63, -619550.1, 9700.627, 0.12238507, 0.027492195, -354035.22, -66816.29, 0.000003631824, 10.000624, 9.997105 
1.9855043e+3, 2.806896e+2, -139304.73, -439720.03, -65656.77, 0.15620683, 0.10939355, -125582.06, 63662.266, 0.000030883682, 10.00132, 9.997338 
1.9855645e+3, 2.9068714e+2, 25580.135, -229333.73, -58618.293, 0.1546599, 0.078175396, 38413.523, 129682.07, 0.00012816787, 10.001443, 9.998045 
1.9856277e+3, 3.0068415e+2, 159725.05, -4097.751, 149081.27, 0.20833756, -0.041463107, 247915.67, 247915.67, 0.00031299857, 10.001413, 9.999288 
1.9856927e+3, 3.106831e+2, 150175.6, 158119.75, -73947.555, 0.14190172, -0.15333891, 228201.83, 228201.83, 0.0005436533, 10.000629, 10.000763 
1.9944876e+3, 1.20656446e+2, -1843996.1, -1653564.9, 118607.4, -0.012643713, -0.18179971, -1596682.8, 160870.06, 0.26535824, 9.998436, 10.00148 
1.9945492e+3, 1.3065484e+2, -1782956.8, -1831047.4, -16176.948, -0.068451166, -0.28995588, -1778021.6, -118446.664, 0.18805622, 9.999423, 9.998794 
1.9946095e+3, 1.4065875e+2, -1702333.5, -1781746.3, -7482.3486, -0.14991567, 0.27253592, -1701634.6, -140088.34, 0.11045076, 9.999479, 9.998435 
1.994674e+3, 1.5065725e+2, -1474272.9, -1580623.3, 64624.902, -0.038114697, 0.25255042, -1443758.3, 19807.52, 0.04926506, 10.000217, 9.998777 
1.9947387e+3, 1.6065472e+2, -1274942.8, -1418425.3, 32351.262, 0.07764846, 0.14731593, -1267985.8, 97607.44, 0.014456319, 10.000846, 9.998915 
1.9947995e+3, 1.7065297e+2, -1196873.3, -1276931.4, 9055.6, -0.10434808, 0.044222515, -1195861.6, 71743.695, 0.0019582892, 10.000476, 9.999391 
1.9948605e+3, 1.8065119e+2, -1198853.1, -1321942.8, 25876.875, -0.2697112, -0.017223926, -1193634.3, -24016.697, 0.000032105352, 10.000186, 9.998555 
1.994926e+3, 1.9064918e+2, -985864.5, -1195625.8, 92341.34, -0.10141063, -0.04954897, -951006.56, 120629.336, 0.0, 10.0011015, 9.998301 
1.9949917e+3, 2.0064701e+2, -830189.7, -1159437.0, 97296.68, 0.058808252, -0.044137027, -803586.8, 170069.97, 0.0, 10.001873, 9.997511 
1.9950545e+3, 2.1064515e+2, -801460.44, -1125189.3, 27387.68, -0.038417667, 0.039291963, -799159.75, 76517.4, 0.0, 10.001538, 9.99723 
1.9951174e+3, 2.2064288e+2, -717126.4, -998597.06, 4873.0205, -0.13622037, 0.112803176, -717042.0, 60658.58, 0.0, 10.001279, 9.997559 
1.9951837e+3, 2.3063913e+2, -476423.66, -759965.94, 128485.5, -0.01733685, -0.06699514, -426863.75, 252868.94, 0.0, 10.001955, 9.998193 
1.9952497e+3, 2.4063532e+2, -424422.53, -818786.5, 138988.1, 0.11171816, -0.20503359, -380361.0, 201405.5, 0.0, 10.002232, 9.99698 
1.9953121e+3, 2.5063327e+2, -543083.6, -891672.1, 15006.853, 0.09299154, -0.06349774, -542438.75, -58646.23, 0.0, 10.001037, 9.996379 
1.9953744e+3, 2.6063126e+2, -559904.94, -796151.6, 7467.209, 0.0068431976, 0.11495154, -559669.1, -173850.64, 0.000000042002604, 10.000003, 9.99687 
1.9954385e+3, 2.7062827e+2, -333804.9, -557183.25, 61772.098, -0.11521187, 0.06998093, -317860.78, -30010.707, 0.0000035134383, 10.000548, 9.997565 
1.995503e+3, 2.8062496e+2, -99775.24, -303302.22, -50524.773, -0.096195884, -0.0003366471, -87922.89, 101959.63, 0.00002820436, 10.001086, 9.998387 
1.995566e+3, 2.9062417e+2, 124738.97, -1107.6313, -41981.727, 0.15020348, -0.02164702, 137458.3, 229343.83, 0.00011358975, 10.001344, 9.99966 
1.9956271e+3, 3.006253e+2, 73174.336, -149016.84, 119411.94, 0.004204561, 0.1797818, 125178.23, 125178.23, 0.00027749003, 10.001275, 9.998353 
1.9956918e+3, 3.106226e+2, -76991.57, -234372.77, -59580.86, -0.016623532, 0.13253106, -56980.145, -56980.145, 0.00048816856, 10.000304, 9.998209 
2.0044875e+3, 1.2059508e+2, -1674892.8, -1563900.0, 115728.72, 0.10810863, -0.16757885, -1491049.3, 267104.28, 0.27641812, 9.999611, 10.001715 
2.0045474e+3, 1.3059238e+2, -1806615.3, -1956573.6, -89444.69, -0.18110926, -0.3043525, -1764880.1, -104690.16, 0.1968332, 9.999745, 9.99777 
2.004609e+3, 1.405977e+2, -1701383.0, -1748207.4, -43669.098, -0.119748585, 0.4576542, -1675246.0, -113095.555, 0.11636926, 9.999348, 9.998722 
2.0046738e+3, 1.5059556e+2, -1507471.3, -1473767.4, 94697.664, -0.014995304, 0.28009534, -1394433.9, 69735.984, 0.05238356, 9.999451, 9.9999 
2.0047387e+3, 1.6059227e+2, -1438229.8, -1489471.4, 120984.57, 0.0776809, 0.014744658, -1340182.9, 26016.16, 0.015589432, 9.999678, 9.998998 
2.0048e+3, 1.7059065e+2, -1234774.6, -1382092.1, 61614.88, -0.0872004, -0.017709652, -1212402.1, 55810.957, 0.0021699998, 10.00059, 9.998613 
2.0048614e+3, 1.8058912e+2, -1037805.0, -1249833.3, 61442.97, -0.22474556, 0.0026107552, -1021286.5, 148940.0, 0.00003871999, 10.001324, 9.998497 
2.004927e+3, 1.9058746e+2, -943622.8, -1124100.9, 80818.02, -0.11029414, -0.03212581, -912722.94, 159517.6, 0.0, 10.00118, 9.99875 
2.0049924e+3, 2.0058548e+2, -964092.6, -1247971.4, 75572.57, 0.0052100527, -0.034915585, -945227.75, 29030.992, 0.0, 10.001062, 9.997294 
2.0050558e+3, 2.105831e+2, -770265.0, -1191464.9, 91998.51, -0.04759908, 0.060676944, -751047.44, 125239.055, 0.0, 10.002102, 9.996507 
2.0051196e+3, 2.2058046e+2, -493024.6, -867789.56, 124550.96, -0.096897766, 0.14090559, -455406.78, 322908.66, 0.0, 10.002733, 9.997754 
2.0051849e+3, 2.3057714e+2, -540252.75, -692373.6, 82743.375, -0.024359526, -0.06546567, -503922.56, 176418.0, 0.0, 10.001113, 9.999058 
2.0052503e+3, 2.4057373e+2, -731823.56, -940467.2, 28448.385, 0.078455694, -0.22856338, -728014.25, -145646.33, 0.0, 9.99998, 9.997242 
2.0053136e+3, 2.5057176e+2, -381273.1, -833408.5, 70625.35, 0.10298929, -0.0707741, -370497.9, 113896.02, 0.0, 10.00221, 9.9962225 
2.0053765e+3, 2.6057002e+2, 17897.225, -489362.72, 188905.9, 0.039014816, 0.1307774, 80516.53, 466934.34, 0.000000029896977, 10.003863, 9.997106 
2.0054393e+3, 2.7056715e+2, -180820.33, -439749.5, 211513.42, -0.12227842, 0.060641844, -62294.98, 226150.39, 0.0000031274246, 10.001415, 9.997949 
2.0055033e+3, 2.8056362e+2, -310734.38, -413313.53, 154106.47, -0.07829019, -0.061436772, -199606.5, -9128.501, 0.000025154262, 9.999672, 9.998314 
2.0055678e+3, 2.9056197e+2, 159501.89, -42367.95, 44498.004, 0.19651611, -0.12613472, 168875.31, 261365.69, 0.00009776422, 10.001845, 9.99913 
2.0056279e+3, 3.0056298e+2, 262044.95, -72006.36, 31203.92, -0.06933619, 0.10574749, 264934.75, 264934.75, 0.00024027855, 10.002628, 9.998234 
2.0056926e+3, 3.105607e+2, -289527.25, -317678.63, 1494.4645, 0.14081076, 0.09570757, -289448.16, -289448.16, 0.00043247754, 9.998735, 9.998412 
2.0144877e+3, 1.2053532e+2, -1687204.8, -1592990.8, 133733.02, 0.13155153, 0.10001771, -1498310.6, 260433.16, 0.28771394, 9.999687, 10.00145 
2.014547e+3, 1.3052867e+2, -1864320.5, -2081233.6, -101812.86, -0.19696894, -0.34605584, -1824020.0, -163202.8, 0.20582092, 9.999766, 9.996912 
2.0146094e+3, 1.4053215e+2, -1637119.0, -1617187.0, -60312.996, -0.017077003, 0.26159748, -1566022.3, -3229.3308, 0.12247417, 9.999352, 9.9996195 
2.0146707e+3, 1.5053132e+2, -1365764.9, -1178874.0, 101178.77, -0.26943433, 0.029866762, -1134590.8, 330199.13, 0.055639356, 9.999421, 10.002037 
2.0147331e+3, 1.6052963e+2, -1417475.4, -1445204.4, 142172.45, -0.4670706, -0.24002557, -1288493.0, 78303.08, 0.016791714, 9.999675, 9.999307 
2.0148e+3, 1.7052886e+2, -1319605.0, -1557152.6, 107773.62, -0.13714103, -0.099076614, -1277996.9, -9187.503, 0.0023981123, 10.000586, 9.997416 
2.0148668e+3, 1.8052787e+2, -1072398.3, -1331828.9, 64542.445, 0.16275759, 0.075864464, -1057228.1, 113597.35, 0.000045425786, 10.001363, 9.997919 
2.0149289e+3, 1.9052562e+2, -955933.9, -1143946.4, 73214.11, -0.024664508, 0.006895091, -930786.94, 142059.08, 0.0, 10.001153, 9.998628 
2.014991e+3, 2.0052312e+2, -946144.25, -1195826.5, 89181.34, -0.21787119, -0.05143929, -917562.4, 57306.688, 0.0, 10.0009985, 9.997683 
2.0150575e+3, 2.1052092e+2, -738127.94, -1096628.6, 142696.78, -0.09119705, -0.0005798408, -688264.7, 188628.61, 0.0, 10.001985, 9.997213 
2.0151234e+3, 2.2051851e+2, -542569.25, -938991.7, 98628.875, 0.01659195, 0.06366511, -519386.38, 259533.05, 0.0, 10.002588, 9.997337 
2.0151854e+3, 2.3051555e+2, -634463.8, -883856.7, 19580.564, -0.07771972, 0.0008624071, -632935.9, 48011.074, 0.0, 10.00108, 9.997766 
2.0152481e+3, 2.4051268e+2, -691857.2, -839815.94, 54170.945, -0.13316336, -0.036946826, -674144.5, -91171.125, 0.0, 9.999913, 9.997959 
2.015315e+3, 2.505114e+2, -243640.3, -510247.38, 178206.69, 0.019278668, -0.0011248493, -154396.19, 330589.13, 0.0, 10.002063, 9.998507 
2.0153807e+3, 2.6051018e+2, 66737.26, -334389.16, 157630.48, 0.08614143, 0.05521494, 121268.1, 508264.44, 0.0000000091701935, 10.003629, 9.998286 
2.0154418e+3, 2.7050805e+2, -162335.13, -391686.44, 105962.04, 0.004314665, 0.005425236, -120874.75, 168137.69, 0.0000023642951, 10.001373, 9.9983 
2.0155044e+3, 2.8050506e+2, -385341.84, -579425.6, 156262.97, 0.07450008, -0.056321174, -298440.13, -107402.42, 0.000021595964, 9.999725, 9.997145 
2.0155697e+3, 2.9050034e+2, -19236.596, -392399.8, 147056.23, 0.20262733, -0.22318438, 31749.12, 124835.14, 0.0000838711, 10.00174, 9.99678 
2.0156299e+3, 3.0049723e+2, 213768.95, -67386.82, -51113.023, -0.13567184, -0.24209897, 222772.77, 222772.77, 0.00020805722, 10.002202, 9.998459 
2.0156932e+3, 3.104995e+2, -131231.22, 41655.59, 18420.225, 0.32122165, 0.006029293, 43596.387, 43596.387, 0.0003820047, 9.998625, 10.000923 
2.0244864e+3, 1.204731e+2, -1797910.5, -1666320.8, 159900.14, 0.092022896, 0.1728294, -1559208.1, 200146.75, 0.29983783, 9.998981, 10.001211 
2.0245464e+3, 1.304658e+2, -1915833.9, -2004766.8, -34205.11, -0.17214257, -0.4022072, -1904199.9, -242768.95, 0.21537028, 9.998988, 9.997804 
2.0246093e+3, 1.4046918e+2, -1628151.5, -1575871.9, 105407.33, 0.073510945, 0.11354126, -1493411.5, 69991.44, 0.12892798, 9.999257, 9.999996 
2.0246701e+3, 1.5046844e+2, -1358180.0, -1188843.5, 118684.7, -0.25359154, -0.10870418, -1127721.6, 337676.0, 0.05909158, 9.999538, 10.001912 
2.0247318e+3, 1.604668e+2, -1434899.1, -1484140.5, 40706.195, -0.5252403, -0.35370988, -1411947.0, -44544.23, 0.018083457, 9.999686, 9.999024 
2.0247999e+3, 1.7046589e+2, -1432457.0, -1659926.8, 39327.086, -0.15925018, -0.18660124, -1425849.8, -156429.08, 0.0026487417, 10.000035, 9.996967 
2.0248675e+3, 1.8046483e+2, -1236792.0, -1422274.8, 43178.223, 0.19087137, 0.017187912, -1227233.3, -55792.887, 0.000052423693, 10.000277, 9.99782 
2.02493e+3, 1.9046311e+2, -1040303.94, -1165009.3, 54517.656, 0.023337077, -0.014654479, -1019831.3, 53625.266, 0.0, 10.000478, 9.998809 
2.0249924e+3, 2.0046113e+2, -968058.06, -1158083.3, 115320.1, -0.14349051, -0.045735333, -913651.4, 61822.875, 0.0, 10.000644, 9.998106 
2.0250589e+3, 2.1045883e+2, -853630.3, -1084729.3, 161898.22, -0.06775805, -0.06260877, -770276.0, 107221.24, 0.0, 10.000901, 9.99781 
2.0251249e+3, 2.204563e+2, -744273.9, -1031849.2, 109557.56, -0.0035143134, -0.055725627, -707291.6, 72231.445, 0.0, 10.001193, 9.997366 
2.0251866e+3, 2.3045385e+2, -532678.75, -877687.2, 56839.707, -0.09655488, -0.03631957, -523555.72, 157992.86, 0.0, 10.001977, 9.997366 
2.025249e+3, 2.404516e+2, -304722.94, -639755.2, 155052.48, -0.13531512, 0.0106658945, -243978.4, 339593.22, 0.0, 10.002521, 9.998074 
2.0253164e+3, 2.5045028e+2, -282408.22, -473885.34, 182326.02, 0.0058874288, 0.00048821614, -172213.17, 313369.16, 0.0, 10.001564, 9.998993 
2.0253827e+3, 2.604486e+2, -324404.72, -502839.03, 42819.563, 0.08976198, -0.02560549, -314661.2, 72934.695, 0.000000001074916, 10.000839, 9.998479 
2.0254438e+3, 2.7044594e+2, -36983.965, -335860.7, -73468.47, 0.02929447, -0.12796119, -19900.736, 269716.38, 0.0000018159459, 10.002248, 9.998265 
2.025506e+3, 2.8044334e+2, 181906.66, -290442.9, 13944.743, 0.07449641, -0.15163241, 182317.98, 373956.78, 0.000018189116, 10.003542, 9.997296 
2.0255703e+3, 2.9044065e+2, -17400.256, -355360.66, 122637.836, 0.12332769, -0.13804175, 22412.135, 116079.516, 0.000072167386, 10.001605, 9.997093 
2.0256312e+3, 3.004364e+2, -176507.6, -281423.38, 29356.426, -0.06407541, -0.27831402, -168852.0, -168852.0, 0.00017965614, 9.999588, 9.998265 
2.0256934e+3, 3.1043738e+2, 307996.38, 278990.94, 17827.514, 0.33981973, -0.12553984, 316475.16, 316475.16, 0.00033365883, 10.0015, 10.001181 
2.0344824e+3, 1.2040806e+2, -1821399.9, -1712159.1, 148111.39, -0.21649686, -0.0005651262, -1608917.6, 151071.75, 0.3135409, 9.998986, 10.000809 
2.0345451e+3, 1.3040389e+2, -1709083.9, -1596443.0, -10765.938, -0.19681403, -0.47517622, -1595423.3, 66606.1, 0.22593072, 9.998985, 10.000743 
2.0346086e+3, 1.4040911e+2, -1627279.3, -1587928.5, 112582.02, 0.060377568, 0.016109258, -1493315.5, 70660.8, 0.13594478, 9.999323, 9.999883 
2.0346722e+3, 1.5040706e+2, -1541522.0, -1564688.0, 139138.13, 0.0054358155, -0.12676544, -1413485.6, 52506.113, 0.06282382, 9.999544, 9.999221 
2.0347355e+3, 1.604038e+2, -1496749.5, -1624982.4, 39931.414, -0.12427819, -0.31246752, -1485331.6, -117311.25, 0.019494196, 9.999734, 9.998035 
2.0347993e+3, 1.7040168e+2, -1402743.5, -1601908.6, 55923.188, -0.205215, -0.2753593, -1388115.4, -118067.19, 0.0029308582, 10.000039, 9.997368 
2.0348635e+3, 1.8039991e+2, -1205544.6, -1358459.8, 50213.227, -0.23677912, -0.18556587, -1190530.3, -18457.793, 0.00006041413, 10.000284, 9.998255 
2.0349298e+3, 1.9039981e+2, -1012800.06, -1098956.4, 68083.17, -0.02718805, -0.09750529, -975311.2, 98761.7, 0.0, 10.000442, 9.999283 
2.034996e+3, 2.0039941e+2, -939794.9, -1090206.6, 118048.17, 0.14578627, -0.018620055, -875031.9, 101043.35, 0.0, 10.000603, 9.998592 
2.0350601e+3, 2.1039678e+2, -829867.7, -1020464.4, 176787.17, -0.034565743, -0.119704105, -724329.06, 153770.05, 0.0, 10.000829, 9.998291 
2.0351237e+3, 2.2039379e+2, -730622.5, -971709.94, 127124.5, -0.22760619, -0.20639609, -675976.5, 104150.336, 0.0, 10.001062, 9.997838 
2.035188e+3, 2.303919e+2, -525594.06, -833213.9, 97766.88, -0.1353723, -0.17115541, -497151.78, 184995.39, 0.0, 10.00185, 9.997733 
2.0352527e+3, 2.4039023e+2, -360932.97, -713936.56, 140801.19, -0.016640471, -0.081370406, -311652.0, 272513.84, 0.0, 10.002337, 9.997654 
2.0353177e+3, 2.5038832e+2, -366614.03, -636140.75, 146394.64, 0.0021812855, -0.058625344, -302398.63, 183787.05, 0.0, 10.001499, 9.997915 
2.0353824e+3, 2.6038545e+2, -394223.78, -621971.7, 56757.855, -0.026865337, -0.1023414, -380862.78, 7351.761, 0.000000023664393, 10.000742, 9.997702 
2.0354447e+3, 2.7038106e+2, -92241.89, -407320.63, 8287.003, -0.09297323, -0.33153588, -92024.086, 198231.66, 0.0000019634658, 10.002063, 9.997863 
2.0355074e+3, 2.8037864e+2, 210800.31, -143858.55, 1079.5284, -0.123935916, -0.3439976, 210803.6, 403080.94, 0.000016146072, 10.003175, 9.998479 
2.0355698e+3, 2.9038227e+2, 149932.89, -3611.5847, 45344.414, -0.08128731, 0.088444665, 162323.95, 256563.53, 0.000062268045, 10.001568, 9.999537 
2.0356314e+3, 3.0037922e+2, -238284.22, -385225.63, 9209.75, -0.002554486, -0.07112024, -237709.23, -237709.23, 0.00015400637, 9.999524, 9.997561 
2.0356937e+3, 3.103723e+2, 149356.39, 55557.35, 191989.48, 0.2087918, -0.5029673, 300091.7, 300091.7, 0.00028777335, 10.001067, 9.999841 
2.0444794e+3, 1.2034317e+2, -2079563.4, -1915059.3, 122349.2, -0.31090018, -0.05511972, -1849884.3, -89259.64, 0.3294151, 9.9975395, 9.9998045 
2.0445439e+3, 1.3034114e+2, -1716679.3, -1461464.9, -135383.08, -0.1543199, -0.41699144, -1403028.6, 259613.64, 0.23787552, 9.998235, 10.002377 
2.0446068e+3, 1.4034618e+2, -1676099.3, -1587614.8, -90152.875, 0.0072743054, -0.06344598, -1531433.4, 33153.758, 0.14372098, 9.998866, 10.000089 
2.0446725e+3, 1.5034413e+2, -1564800.0, -1684390.1, 26924.977, 0.09084657, -0.13535003, -1559017.6, -92410.86, 0.06692591, 9.99984, 9.998249 
2.0447375e+3, 1.6034105e+2, -1379617.3, -1562460.4, 43008.766, 0.07266446, -0.23408636, -1370005.9, -1368.3354, 0.021061258, 10.000519, 9.998081 
2.0447996e+3, 1.7033896e+2, -1340758.8, -1475778.8, 76159.5, -0.14959651, -0.2625793, -1306495.1, -35833.484, 0.003256253, 10.000055, 9.998218 
2.0448627e+3, 1.803372e+2, -1280848.3, -1352053.8, 115863.23, -0.3019994, -0.24248637, -1195241.1, -22558.959, 0.00007088071, 9.999591, 9.998632 
2.0449299e+3, 1.9033721e+2, -1020948.2, -1095080.6, 111125.2, -0.04391017, -0.15832165, -940870.4, 133811.61, 0.0, 10.000365, 9.999341 
2.0449969e+3, 2.0033686e+2, -863908.44, -1067558.3, 131017.02, 0.17881657, -0.0758046, -799800.3, 176884.53, 0.0, 10.001181, 9.998477 
2.0450608e+3, 2.103341e+2, -731988.4, -998500.1, 119582.99, -0.04623293, -0.16221382, -686198.94, 192512.06, 0.0, 10.001623, 9.9980545 
2.0451246e+3, 2.2033119e+2, -596455.5, -869559.7, 29586.016, -0.25871646, -0.23284388, -593287.1, 187452.05, 0.0, 10.001804, 9.998188 
2.0451893e+3, 2.3033004e+2, -593922.3, -760409.8, 10305.261, -0.11250847, -0.20279056, -593286.9, 89463.75, 0.0, 10.000917, 9.998679 
2.0452543e+3, 2.4032906e+2, -650646.25, -822473.06, 113824.88, 0.04593772, -0.119963184, -593951.06, -9190.16, 0.0, 10.000206, 9.997935 
2.0453188e+3, 2.5032708e+2, -424808.63, -696088.8, 166176.53, -0.019271959, -0.09011565, -345942.63, 140841.05, 0.0, 10.001243, 9.9976225 
2.045383e+3, 2.6032418e+2, -170493.19, -499535.53, 143116.86, -0.09579495, -0.11481199, -116955.53, 271859.13, 0.00000011200642, 10.002214, 9.997834 
2.0454459e+3, 2.7032098e+2, -213066.19, -403057.13, 134817.67, -0.084919915, -0.26933694, -143137.61, 147707.77, 0.000002326167, 10.00098, 9.998405 
2.045509e+3, 2.8031948e+2, -252808.02, -332435.8, 173716.81, -0.081228696, -0.24012953, -114401.05, 78457.375, 0.000014696717, 9.999822, 9.998799 
2.0455708e+3, 2.9032192e+2, 132769.06, 6513.8306, 68296.42, -0.11018454, 0.061434634, 162644.11, 257474.55, 0.000053738604, 10.001382, 9.999688 
2.0456332e+3, 3.003188e+2, 287782.0, -129983.586, -32560.838, 0.062439956, -0.12856185, 290304.56, 290304.56, 0.00013193817, 10.003116, 9.997586 
2.045694e+3, 3.1031376e+2, 98850.8, -96054.01, 159769.33, 0.16004421, -0.3326659, 188543.28, 188543.28, 0.0002497408, 10.001236, 9.998726 
2.0544775e+3, 1.2027851e+2, -2204960.3, -2166709.8, 120197.15, -0.2755938, 0.024498807, -2064125.9, -302865.6, 0.3476065, 9.997506, 9.9980955 
2.0545428e+3, 1.3027762e+2, -1711191.9, -1456932.4, -112129.39, -0.11370028, -0.19482337, -1414548.1, 248722.2, 0.2513395, 9.998221, 10.002446 
2.0546037e+3, 1.4027992e+2, -1641031.5, -1518999.8, -71707.83, -0.19864075, -0.13054022, -1485861.8, 79379.75, 0.15236652, 9.998859, 10.000616 
2.0546705e+3, 1.5027952e+2, -1490705.8, -1532665.3, 68210.52, -0.10406683, -0.12741575, -1440321.4, 26923.336, 0.071473114, 9.999854, 9.9992895 
2.0547368e+3, 1.6027862e+2, -1293042.3, -1395027.9, 41292.836, -0.03987969, -0.1151923, -1278419.9, 90833.92, 0.022826005, 10.000581, 9.9992075 
2.0548008e+3, 1.7027779e+2, -1253957.4, -1298601.0, 55980.68, -0.04832596, -0.13488664, -1216012.3, 55248.207, 0.0036400491, 10.000063, 9.999436 
2.0548645e+3, 1.8027672e+2, -1249178.1, -1293930.3, 118893.375, -0.064410485, -0.14552902, -1150573.5, 22695.979, 0.00008593674, 9.999615, 9.9990225 
2.0549297e+3, 1.9027519e+2, -1049345.9, -1153778.1, 151945.16, -0.08573759, -0.19483975, -940895.06, 134389.73, 0.0, 10.000355, 9.998949 
2.0549951e+3, 2.002733e+2, -919726.1, -1173474.4, 149747.8, -0.11987818, -0.22005825, -850331.44, 126973.03, 0.0, 10.001139, 9.997768 
2.0550613e+3, 2.1027064e+2, -818544.3, -1158035.5, 140224.81, -0.1596857, -0.20220314, -768116.0, 111218.92, 0.0, 10.001532, 9.997005 
2.055127e+3, 2.2026818e+2, -601305.94, -841027.1, 14095.897, -0.18205865, -0.157357, -600479.94, 180882.86, 0.0, 10.001645, 9.998458 
2.0551905e+3, 2.3026808e+2, -506215.84, -555743.8, -21074.133, -0.08977379, -0.13897926, -498462.56, 184897.69, 0.0, 10.000819, 10.000134 
2.0552538e+3, 2.4026795e+2, -610969.7, -701140.6, 113499.78, -0.016625723, -0.103229456, -533928.6, 51429.582, 0.0, 10.00005, 9.998839 
2.0553188e+3, 2.5026616e+2, -416428.38, -649536.1, 221921.7, -0.111177385, -0.10324039, -282315.03, 205064.22, 0.0, 10.0011215, 9.998001 
2.055384e+3, 2.6026428e+2, -136046.13, -381911.72, 132633.36, -0.19034918, -0.08221224, -78136.22, 311265.28, 0.00000017468948, 10.002018, 9.998735 
2.0554475e+3, 2.7026474e+2, -123048.51, -214859.23, 80735.1, -0.03899282, 0.0065853926, -76080.52, 215315.47, 0.0000023499456, 10.000958, 9.999714 
2.0555103e+3, 2.8026465e+2, -304983.0, -417943.44, 161877.08, 0.060764164, 0.10394576, -190015.83, 3378.9004, 0.000012296112, 9.999746, 9.9982395 
2.0555726e+3, 2.9025972e+2, -7969.9956, -263682.6, 152580.78, -0.07380087, -0.18614422, 63241.863, 158681.6, 0.00004437096, 10.001287, 9.997875 
2.055636e+3, 3.0025524e+2, 262559.63, -76993.06, -44753.363, 0.024719968, -0.4273287, 268359.1, 268359.1, 0.00011165042, 10.002695, 9.998139 
2.0556943e+3, 3.1025946e+2, -18872.82, -315432.7, -23071.393, 0.04617152, 0.18559395, -17088.674, -17088.674, 0.0002193155, 10.001145, 9.997256 
2.0644768e+3, 1.2021263e+2, -1984111.1, -2173922.5, 135003.4, -0.16186781, -0.017956572, -1913992.5, -152087.13, 0.36771804, 9.999527, 9.997051 
2.064542e+3, 1.3021325e+2, -1564423.5, -1369027.4, -83328.95, -0.018446447, -0.09208832, -1338317.4, 325585.72, 0.26616043, 9.999249, 10.00277 
2.0646028e+3, 1.4021468e+2, -1588470.0, -1451281.6, -8468.5205, -0.14214842, -0.15284714, -1450760.9, 115121.68, 0.1618756, 9.998966, 10.001101 
2.0646691e+3, 1.5021491e+2, -1546577.3, -1489651.1, 102316.945, -0.14211698, -0.15180445, -1411912.0, 55967.496, 0.07651462, 9.999172, 9.999923 
2.0647356e+3, 1.6021478e+2, -1409965.3, -1370412.9, 45493.203, -0.14241752, -0.12697214, -1340583.4, 29296.643, 0.024829434, 9.999408, 9.999944 
2.0648007e+3, 1.7021494e+2, -1226408.3, -1180880.3, 11736.601, -0.017632082, -0.13741589, -1178032.8, 93841.86, 0.0041003036, 9.999799, 10.000373 
2.0648657e+3, 1.8021472e+2, -1177846.1, -1240351.6, 77145.51, 0.08773989, -0.13780348, -1125863.3, 48010.22, 0.000108260756, 10.000035, 9.999181 
2.0649295e+3, 1.902127e+2, -1139752.6, -1259050.5, 93147.74, -0.099545844, -0.19584805, -1088791.9, -12895.673, 0.0, 10.0000105, 9.998384 
2.0649938e+3, 2.0021035e+2, -1085516.9, -1236429.8, 102813.445, -0.27528176, -0.22729453, -1033441.8, -55518.844, 0.0, 9.9999275, 9.997919 
2.0650615e+3, 2.102087e+2, -968524.44, -1133625.3, 203365.94, -0.19116074, -0.17627263, -831593.0, 48349.867, 0.0, 10.000091, 9.997868 
2.0651288e+3, 2.2020721e+2, -775699.06, -887528.4, 183554.42, -0.07957178, -0.10659319, -639731.75, 142228.05, 0.0, 10.000287, 9.998795 
2.0651917e+3, 2.3020658e+2, -543481.2, -592746.56, 36735.543, -0.022658618, -0.1389082, -523884.13, 160077.78, 0.0, 10.000654, 9.999958 
2.0652544e+3, 2.4020576e+2, -465147.53, -616931.0, 96223.02, 0.0114323385, -0.15967496, -418489.56, 167476.27, 0.0, 10.000986, 9.99897 
2.0653196e+3, 2.5020427e+2, -448553.38, -613913.75, 192701.25, -0.097732976, -0.16874331, -321543.8, 166439.73, 0.0, 10.000687, 9.998451 
2.0653853e+3, 2.60203e+2, -341953.03, -452807.16, 98517.76, -0.18074027, -0.12495834, -284340.7, 105658.586, 0.00000012472299, 10.000468, 9.9990015 
2.0654488e+3, 2.702041e+2, -34902.816, -156900.9, -48598.887, -0.020574763, 0.014853197, -17909.969, 274078.78, 0.0000018192295, 10.001499, 9.999852 
2.065512e+3, 2.8020424e+2, 121045.76, -200671.0, 22554.166, 0.12664184, 0.11698633, 122619.234, 316606.0, 0.000008845643, 10.002602, 9.99837 
2.0655754e+3, 2.901987e+2, 101667.69, -220284.16, 100448.88, 0.064165264, -0.22619961, 130436.92, 226475.25, 0.000033808126, 10.00209, 9.99779 
2.0656392e+3, 3.0019507e+2, 157869.11, -122410.86, -14645.696, 0.15022773, -0.38015604, 158632.33, 158632.33, 0.00009162271, 10.001893, 9.99825 
2.0656973e+3, 3.1019846e+2, 508977.3, -38751.02, -136533.02, 0.06876691, 0.12980218, 541124.3, 541124.3, 0.0001905405, 10.004661, 9.997479 
2.0744768e+3, 1.20145164e+2, -1976651.3, -2200557.5, 87147.375, -0.15313059, -0.23062876, -1946730.6, -184167.34, 0.38886976, 9.999699, 9.996791 
2.0745417e+3, 1.3014773e+2, -1521675.6, -1299693.0, -85187.26, 0.027661012, -0.15102841, -1270770.3, 393772.53, 0.28190908, 9.999348, 10.003452 
2.0746048e+3, 1.401507e+2, -1553369.9, -1401361.3, -16263.492, 0.12943745, -0.119404756, -1399640.8, 166867.02, 0.17213808, 9.999028, 10.001504 
2.074669e+3, 1.5015021e+2, -1536078.8, -1471459.5, 116855.56, -0.07449658, -0.20859775, -1382529.1, 85981.57, 0.08207624, 9.999179, 10.000061 
2.0747332e+3, 1.6014929e+2, -1381919.6, -1309491.0, 50163.934, -0.32447627, -0.28504422, -1283835.4, 86682.984, 0.027111659, 9.999393, 10.000378 
2.0747994e+3, 1.7015028e+2, -1180420.8, -1081626.1, 30358.904, -0.12749447, -0.27378294, -1073042.8, 199462.47, 0.0046569863, 9.999785, 10.001064 
2.0748657e+3, 1.8015105e+2, -1175676.0, -1248058.6, 77139.05, 0.07810779, -0.22444186, -1126660.3, 47835.42, 0.00014131474, 10.000086, 9.9991045 
2.074929e+3, 1.9014953e+2, -1201674.0, -1381922.3, 94580.44, -0.13944992, -0.16735256, -1161154.3, -84636.24, 0.0000000002137382, 9.999985, 9.997557 
2.074993e+3, 2.0014782e+2, -1020665.56, -1093011.0, 99973.164, -0.36066633, -0.098767534, -950522.25, 28019.697, 0.0, 9.9998865, 9.998921 
2.0750614e+3, 2.1014807e+2, -790182.8, -747399.2, 216680.08, -0.20224914, -0.08913967, -551057.5, 329479.38, 0.0, 10.000013, 10.000559 
2.0751296e+3, 2.2014809e+2, -766628.56, -832023.5, 191055.88, -0.01824563, -0.08269675, -605492.4, 177040.31, 0.0, 10.000138, 9.999242 
2.0751926e+3, 2.3014541e+2, -678139.2, -850733.6, 58982.742, 0.028673775, -0.19970986, -659908.06, 24648.816, 0.0, 10.000565, 9.998229 
2.0752557e+3, 2.4014243e+2, -521814.56, -710271.44, 91471.67, 0.04167472, -0.2950177, -484718.72, 101866.29, 0.0, 10.000886, 9.998376 
2.0753208e+3, 2.5014132e+2, -425667.22, -552686.94, 184000.34, -0.051434197, -0.28425762, -294524.5, 194072.94, 0.0, 10.000626, 9.998901 
2.0753857e+3, 2.6014045e+2, -392871.13, -512759.6, 104752.914, -0.15332322, -0.22765698, -332123.7, 58484.402, 0.000000021824269, 10.000282, 9.998675 
2.0754495e+3, 2.7013952e+2, -116709.1, -296314.94, 7223.1816, -0.08821231, -0.20770015, -116419.08, 176200.05, 0.00000084431264, 10.001374, 9.998954 
2.0755135e+3, 2.8013867e+2, 136106.47, -121811.16, 20734.299, 0.032814216, -0.16975288, 137762.69, 332392.0, 0.000005133315, 10.002406, 9.999 
2.0755789e+3, 2.901384e+2, 178359.98, -49512.61, 76496.03, 0.20272076, -0.11595539, 201657.52, 298288.47, 0.000023674193, 10.002023, 9.998999 
2.0756426e+3, 3.0013704e+2, 55965.066, -224417.95, 13201.703, 0.28385472, -0.08091085, 56585.29, 56585.29, 0.00007214658, 10.001476, 9.997725 
2.0757012e+3, 3.1013408e+2, 547746.2, 160375.0, 58014.254, -0.011622347, -0.15185118, 556248.0, 556248.0, 0.0001581692, 10.004207, 9.999044 
2.0844752e+3, 1.2007989e+2, -2155646.0, -2148009.0, 48295.55, -0.1615738, -0.23432331, -2103381.3, -340175.9, 0.40993002, 9.9978695, 9.998035 
2.0845395e+3, 1.3008349e+2, -1627849.6, -1319314.5, -64262.54, -0.04560082, -0.116831556, -1306464.9, 358708.0, 0.29801235, 9.998113, 10.003936 
2.0846045e+3, 1.4008676e+2, -1560909.8, -1368538.1, 7158.27, 0.23795307, -0.107199416, -1368272.1, 198862.86, 0.18298064, 9.998783, 10.001904 
2.0846687e+3, 1.5008637e+2, -1597545.8, -1488929.1, 126988.8, 0.016786681, -0.2055189, -1405123.3, 64013.395, 0.088167645, 9.998702, 10.00017 
2.0847324e+3, 1.6008545e+2, -1505755.0, -1361122.8, 74808.31, -0.26721212, -0.2921946, -1329391.3, 41752.906, 0.029713616, 9.998504, 10.000454 
2.0847984e+3, 1.7008635e+2, -1324916.1, -1150146.5, 499.33994, -0.12882678, -0.29360282, -1150145.1, 122987.984, 0.005333032, 9.998781, 10.001079 
2.0848647e+3, 1.8008713e+2, -1285350.0, -1269526.8, 28712.002, 0.041403014, -0.2509545, -1247656.4, -72532.055, 0.00018960002, 9.999184, 9.9994 
2.0849292e+3, 1.900863e+2, -1083652.4, -1261881.0, 128882.016, -0.11499275, -0.1750293, -1016076.1, 61062.934, 0.000000020895914, 10.000504, 9.998138 
2.0849942e+3, 2.000854e+2, -744967.75, -896616.25, 193437.45, -0.27864823, -0.085669614, -613024.4, 366129.8, 0.0, 10.001527, 9.999476 
2.0850615e+3, 2.100862e+2, -666376.3, -629227.4, 141500.05, -0.19614385, -0.07147325, -505087.88, 376054.97, 0.0, 10.000629, 10.001063 
2.0851287e+3, 2.2008653e+2, -819082.9, -856820.4, 25486.637, -0.07838432, -0.067645, -806240.5, -23105.355, 0.0, 9.999762, 9.999266 
2.0851934e+3, 2.3008361e+2, -640357.3, -873952.6, -22343.166, 0.033866838, -0.17664446, -638239.4, 46924.465, 0.0, 10.000993, 9.997872 
2.0852576e+3, 2.400805e+2, -347244.88, -641962.44, 66423.8, 0.12058017, -0.255833, -332966.0, 254229.2, 0.0, 10.00215, 9.998234 
2.0853218e+3, 2.5007942e+2, -352457.25, -511721.22, 99220.7, -0.007181696, -0.23973401, -304865.03, 184340.84, 0.0, 10.001102, 9.99895 
2.0853859e+3, 2.6007837e+2, -446835.75, -569511.7, 58420.477, -0.1341473, -0.1981617, -423466.6, -32249.81, 0.0, 10.000046, 9.998396 
2.0854507e+3, 2.7007654e+2, -195206.8, -409249.6, 4088.5203, -0.05982322, -0.21241501, -195128.72, 98109.85, 0.000000115745564, 10.001161, 9.998279 
2.0855162e+3, 2.8007516e+2, 138580.14, -139485.83, -16452.207, 0.0642066, -0.16849987, 139550.17, 334805.47, 0.0000020138657, 10.002494, 9.998838 
2.0855804e+3, 2.9007563e+2, 243661.34, 29622.045, -95997.89, 0.15569524, -0.06438188, 280408.2, 377656.22, 0.000014488007, 10.002283, 9.99941 
2.0856436e+3, 3.000742e+2, 192366.1, -137926.25, -62376.17, 0.23426683, -0.07128997, 203753.33, 203753.33, 0.000052987816, 10.002279, 9.9979515 
2.085706e+3, 3.1007162e+2, 644311.1, 176600.38, 78955.81, 0.05038148, -0.09735343, 657280.25, 657280.25, 0.0001235068, 10.004938, 9.998826 
2.0944712e+3, 1.2001744e+2, -1943836.6, -1725633.1, -56363.195, -0.38012162, 0.047651876, -1711934.1, 51892.355, 0.42994058, 9.99781, 10.001213 
2.0945346e+3, 1.300208e+2, -1617707.9, -1296754.6, -37460.18, -0.3492217, 0.034102976, -1292440.5, 373350.94, 0.31401625, 9.998071, 10.004263 
2.0946014e+3, 1.4002292e+2, -1535996.3, -1327398.0, 10874.421, 0.046515267, -0.109237105, -1326832.6, 240931.7, 0.19429262, 9.998815, 10.002273 
2.0946677e+3, 1.5002348e+2, -1581976.0, -1468566.4, 122548.63, 0.052477863, -0.13284643, -1390239.3, 79517.766, 0.094824284, 9.998743, 10.000306 
2.0947334e+3, 1.6002333e+2, -1520456.1, -1403610.1, 73585.33, -0.02943437, -0.14162332, -1368075.5, 3681.8682, 0.032688897, 9.998554, 10.000133 
2.0947978e+3, 1.700232e+2, -1377392.5, -1258457.9, 16244.308, -0.068578064, -0.1804284, -1256279.1, 17478.602, 0.0061590113, 9.998777, 10.000335 
2.0948623e+3, 1.8002298e+2, -1237179.1, -1174116.8, 55504.203, -0.0983311, -0.19801433, -1141812.8, 33946.598, 0.00026052183, 9.999202, 10.000047 
2.09493e+3, 1.9002302e+2, -945729.2, -972577.7, 187166.25, -0.088403665, -0.20309919, -771506.4, 306253.0, 0.00000016154512, 10.00049, 10.000132 
2.0949973e+3, 2.0002303e+2, -742578.6, -881903.1, 188023.06, -0.095317595, -0.17587407, -611727.75, 368032.2, 0.0, 10.001484, 9.999596 
2.0950618e+3, 2.1002299e+2, -800166.1, -886723.2, 100962.4, -0.22359325, -0.120558865, -733597.3, 148164.03, 0.0, 10.000541, 9.999337 
2.0951259e+3, 2.2002247e+2, -864262.75, -923753.75, 29169.924, -0.3182835, -0.063057356, -852346.75, -68579.375, 0.0, 9.999646, 9.998861 
2.0951931e+3, 2.3002107e+2, -597383.3, -755759.56, 44704.285, -0.06476418, -0.07703258, -585636.1, 100147.32, 0.0, 10.000868, 9.998744 
2.0952603e+3, 2.4001968e+2, -356729.8, -613188.7, 63124.094, 0.16236234, -0.05703833, -342034.66, 245764.4, 0.0, 10.001943, 9.99853 
2.0953228e+3, 2.5001836e+2, -381580.75, -559027.56, 52973.305, -0.023361508, -0.051671013, -366969.7, 122840.89, 0.0, 10.001041, 9.998656 
2.0953852e+3, 2.600165e+2, -476321.13, -616235.94, 54230.95, -0.20731793, -0.06383974, -457762.78, -65935.03, 0.0, 9.99999, 9.998098 
2.0954521e+3, 2.7001458e+2, -244159.47, -492630.16, 71619.15, -0.02092906, -0.045623116, -224994.25, 68857.336, 0.0, 10.001081, 9.997745 
2.095519e+3, 2.800131e+2, 26126.096, -296767.7, -1352.2836, 0.111854374, 0.07006839, 26131.758, 222001.56, 0.00000039293647, 10.002176, 9.997907 
2.0955801e+3, 2.9001078e+2, 216581.73, -22874.469, -96977.06, -0.09777025, -0.03765738, 250929.48, 348814.66, 0.000007661527, 10.002266, 9.999059 
2.0956425e+3, 3.0000636e+2, 226494.77, -19912.574, -27428.467, -0.10140895, -0.3804627, 229511.0, 229511.0, 0.000036947218, 10.002124, 9.998817 
2.095712e+3, 3.1000865e+2, 444943.78, -90744.836, 271812.06, 0.12137746, 0.027984763, 558704.5, 558704.5, 0.00009412716, 10.004349, 9.997258 
2.1044697e+3, 1.19954005e+2, -1987235.3, -1669843.0, 23945.62, -0.24099723, 0.04257556, -1668046.5, 96401.01, 0.44859928, 9.996983, 10.002278 
2.1045324e+3, 1.2995622e+2, -1792320.5, -1400134.5, 43248.313, -0.28868034, -0.0891125, -1395422.0, 271002.56, 0.3298663, 9.996923, 10.00386 
2.1045989e+3, 1.3996074e+2, -1611212.9, -1389307.3, 37471.215, -0.04396522, 0.050110873, -1383150.6, 185226.19, 0.20615475, 9.998407, 10.001963 
2.1046658e+3, 1.4996077e+2, -1649008.3, -1498546.0, 87411.49, 0.04772095, -0.017846616, -1458449.4, 11925.454, 0.10215144, 9.998291, 10.000274 
2.1047324e+3, 1.5995958e+2, -1609093.9, -1455793.8, 66355.11, 0.06780861, -0.12688631, -1431062.3, -58676.816, 0.036114734, 9.997992, 10.000041 
2.104797e+3, 1.6995968e+2, -1289752.3, -1224324.1, 67786.07, -0.011670505, -0.13601974, -1181771.0, 92612.62, 0.007176738, 9.999415, 10.000262 
2.1048623e+3, 1.7995995e+2, -1020193.6, -1052896.6, 126056.22, -0.07580793, -0.10526576, -909432.8, 266947.47, 0.0003661867, 10.000638, 10.000182 
2.10493e+3, 1.8995991e+2, -1083486.9, -1006477.25, 117480.25, -0.06715025, -0.14058411, -921352.6, 157027.42, 0.00000091193453, 9.999431, 10.0004 
2.1049973e+3, 1.9995964e+2, -1211727.8, -1097823.0, 36831.254, -0.06969002, -0.15952267, -1086951.3, -106569.15, 0.0, 9.998194, 9.999706 
2.1050616e+3, 2.0995902e+2, -925046.8, -946629.1, 44137.31, -0.21803498, -0.16303162, -890400.6, -8012.641, 0.0, 9.999671, 9.99935 
2.1051262e+3, 2.1995826e+2, -633313.7, -807672.1, 88131.26, -0.3144743, -0.13384916, -596527.8, 187868.03, 0.0, 10.001226, 9.998884 
2.1051939e+3, 2.2995766e+2, -591770.3, -754580.94, 49262.543, -0.06255171, -0.06872976, -578025.06, 108381.47, 0.0, 10.000921, 9.998713 
2.1052612e+3, 2.399571e+2, -557023.44, -689529.4, 17367.428, 0.17537366, 0.03270158, -554784.94, 33631.45, 0.0, 10.000482, 9.998713 
2.1053237e+3, 2.4995597e+2, -335059.63, -492173.97, 15856.7, 0.0068331123, 0.025396911, -333475.28, 156949.28, 0.0, 10.001187, 9.999043 
2.1053867e+3, 2.5995407e+2, -177969.22, -479896.22, 78809.84, -0.12989464, -0.014371089, -158636.0, 233803.81, 0.0, 10.002047, 9.998058 
2.1054547e+3, 2.6995116e+2, -154668.39, -494716.47, 98087.54, 0.088329, -0.059514854, -128403.51, 166067.84, 0.0, 10.0018835, 9.997348 
2.1055217e+3, 2.7994874e+2, -75319.1, -390204.63, 82279.65, 0.22873752, -0.005398007, -55115.69, 141382.17, 0.00000006547354, 10.001679, 9.997498 
2.1055828e+3, 2.8994602e+2, 388539.75, 1994.4336, -4122.5986, -0.09457213, -0.096889, 388583.72, 487100.97, 0.0000047361223, 10.003712, 9.998529 
2.1056464e+3, 2.9994175e+2, 776580.5, 181768.52, 8435.508, -0.108278595, -0.37214458, 776700.1, 777252.0, 0.00002876755, 10.006127, 9.998295 
2.1057163e+3, 3.099427e+2, 367148.97, -184980.52, 88607.42, 0.17757063, -0.040788535, 381020.47, 381020.47, 0.000078050216, 10.004024, 9.996778 
2.1144709e+3, 1.19889125e+2, -2100573.8, -1850779.4, -56039.516, 0.16900674, -0.37320286, -1838783.4, -73713.22, 0.46656317, 9.997072, 10.000459 
2.1145335e+3, 1.298895e+2, -1889472.0, -1541945.8, 106432.35, 0.10467675, -0.54319346, -1511940.8, 155133.22, 0.34608045, 9.9969425, 10.002494 
2.1145967e+3, 1.3990018e+2, -1687654.4, -1534048.9, 70328.58, -0.102425925, 0.3629065, -1506713.4, 62259.5, 0.21890919, 9.998481, 10.000719 
2.1146628e+3, 1.4989828e+2, -1655224.0, -1526097.8, 72137.06, -0.079548866, 0.14197558, -1493851.0, -22860.586, 0.110347085, 9.99835, 10.000047 
2.1147287e+3, 1.598941e+2, -1590495.0, -1427103.9, 83020.19, -0.08282753, -0.25274625, -1392324.1, -19294.719, 0.040102176, 9.998032, 10.000219 
2.1147963e+3, 1.6989574e+2, -1239294.9, -1129308.8, 137619.5, -0.020160083, -0.16133913, -1036101.4, 238909.56, 0.008443992, 9.999447, 10.00091 
2.114864e+3, 1.7989793e+2, -1041954.7, -1108120.4, 122451.38, 0.040832948, 0.021090861, -948195.8, 228791.94, 0.00052604213, 10.000686, 9.999777 
2.1149287e+3, 1.8989685e+2, -1192154.9, -1231440.0, 60818.54, -0.10682118, 0.0069029187, -1147885.6, -68883.58, 0.0000034897541, 9.999428, 9.998856 
2.1149933e+3, 1.9989517e+2, -1216289.1, -1093596.4, 38430.727, -0.27739534, -0.040131476, -1082552.9, -101531.4, 0.0, 9.998134, 9.999766 
2.115061e+3, 2.0989436e+2, -823065.6, -713061.75, 122142.74, -0.2439059, -0.18710886, -634108.25, 248914.33, 0.0, 9.999577, 10.001001 
2.115129e+3, 2.1989374e+2, -628073.44, -758888.75, 109117.695, -0.159765, -0.28001934, -566261.44, 218760.84, 0.0, 10.001063, 9.999297 
2.1151951e+3, 2.2989334e+2, -669121.2, -893190.7, 31807.648, -0.017181015, -0.13732223, -664693.44, 22340.354, 0.0, 10.000826, 9.997808 
2.1152608e+3, 2.3989277e+2, -572344.1, -693101.7, 16759.326, 0.082605116, 0.028503872, -570061.4, 18986.021, 0.0, 10.000363, 9.998741 
2.1153249e+3, 2.4989207e+2, -285047.9, -369946.28, 55726.457, 0.020534912, -0.00449444, -257444.45, 233605.1, 0.0, 10.001104, 9.999922 
2.1153902e+3, 2.5989085e+2, -195002.63, -464445.4, 84862.08, -0.00484804, -0.04382814, -170502.7, 222552.61, 0.0, 10.001835, 9.998262 
2.1154575e+3, 2.6988655e+2, -178361.23, -537205.4, 88564.02, 0.1941814, -0.21334012, -157693.66, 137403.25, 0.0, 10.001849, 9.997073 
2.1155241e+3, 2.7988198e+2, -92333.68, -406961.63, 101328.52, 0.28343922, -0.36637467, -62524.28, 134617.13, 0.00000005479561, 10.001611, 9.997412 
2.1155879e+3, 2.898808e+2, 310101.8, -123912.24, 108727.63, 0.028878795, -0.26947328, 335816.34, 434966.8, 0.0000044705935, 10.003533, 9.997758 
2.1156536e+3, 2.998795e+2, 520165.4, -133490.05, 11813.56, -0.028764142, -0.11200813, 520378.84, 521540.44, 0.0000269908, 10.005245, 9.996527 
2.1157199e+3, 3.0987468e+2, 293352.72, -211470.92, -53287.46, 0.116079345, -0.21220957, 298916.25, 298916.25, 0.000073670904, 10.003533, 9.99681 
2.1244648e+3, 1.1983378e+2, -1645819.8, -2153125.8, -380236.5, -0.49281102, 0.28511515, -1442395.5, 323211.9, 0.48543465, 10.004265, 9.995378 
2.1245325e+3, 1.2982555e+2, -1719676.1, -1563776.3, 13230.883, 0.2665086, -0.6281905, -1562661.4, 105035.375, 0.3637423, 9.998613, 10.001407 
2.1245943e+3, 1.3983548e+2, -1958147.4, -1727366.8, 57512.83, -0.08780654, 0.31398815, -1713828.1, -144224.63, 0.23315269, 9.996933, 10.000039 
2.1246606e+3, 1.4983343e+2, -1650619.5, -1523234.1, 68755.836, -0.121620834, 0.095974095, -1493203.1, -21579.752, 0.1197026, 9.998368, 10.00007 
2.1247274e+3, 1.5982924e+2, -1313272.3, -1298732.5, 92547.82, -0.10834841, -0.29981202, -1213169.5, 160493.6, 0.044803485, 9.9999695, 10.000197 
2.1247962e+3, 1.6983102e+2, -1177218.3, -1113826.9, 90985.414, 0.0001398144, -0.18051432, -1049174.5, 226469.63, 0.01004214, 9.999941, 10.000779 
2.1248645e+3, 1.7983332e+2, -1221014.6, -1219696.9, 12386.999, 0.100781, 0.029982133, -1207951.3, -30330.59, 0.0007722133, 9.999542, 9.999564 
2.1249285e+3, 1.8983205e+2, -1187031.1, -1260955.0, -12648.327, -0.063604705, 0.022543065, -1184926.9, -105288.92, 0.000010944595, 9.999592, 9.998573 
2.1249925e+3, 1.9983026e+2, -988977.06, -979452.6, 77707.4, -0.23517418, -0.016992958, -906361.6, 75297.76, 0.0, 9.999697, 9.999785 
2.1250609e+3, 2.0982958e+2, -761593.7, -649014.3, 106852.12, -0.19434968, -0.17224725, -584531.9, 299125.84, 0.0, 9.999863, 10.001296 
2.1251298e+3, 2.1982907e+2, -757518.7, -803358.2, 11784.244, -0.09932346, -0.27952176, -754666.7, 30988.064, 0.0, 10.000088, 9.999467 
2.1251959e+3, 2.2982848e+2, -673274.44, -889406.7, -48051.746, -0.021561861, -0.16095795, -663072.8, 24594.557, 0.0, 10.00078, 9.997855 
2.125261e+3, 2.398276e+2, -419788.5, -621311.44, -4336.511, 0.040129747, -0.02779932, -419695.25, 169988.02, 0.0, 10.001418, 9.998725 
2.1253262e+3, 2.4982667e+2, -295518.7, -381846.25, -27731.207, 0.052063823, -0.07626753, -287378.2, 204310.45, 0.0, 10.0010605, 9.999862 
2.1253921e+3, 2.5982562e+2, -333891.38, -520417.9, -16965.795, 0.09924294, -0.098957896, -332360.78, 61333.055, 0.0, 10.00085, 9.998346 
2.1254595e+3, 2.698221e+2, -61534.703, -457401.9, 5478.343, 0.19733654, -0.19946542, -61458.902, 234268.44, 0.0, 10.002578, 9.997261 
2.1255264e+3, 2.79818e+2, 286351.25, -234611.52, 28240.082, 0.23286328, -0.3154016, 287877.6, 485644.56, 0.000000117451826, 10.004243, 9.997337 
2.1255915e+3, 2.8981635e+2, 191567.83, -214397.0, 1331.1039, 0.12562531, -0.232249, 191572.2, 291353.28, 0.0000050467984, 10.002882, 9.997438 
2.125658e+3, 2.9981533e+2, 26856.09, -369192.3, 12355.294, 0.1318181, -0.020529523, 27241.156, 29030.64, 0.000026928557, 10.0017805, 9.996613 
2.1257234e+3, 3.098096e+2, 401346.63, -72065.08, -1475.9481, 0.13811094, -0.25716123, 401351.22, 401351.22, 0.00007094617, 10.003859, 9.997632 
2.1345294e+3, 1.2976477e+2, -1755296.9, -1623134.0, -83848.2, 0.08859752, -0.24447963, -1582457.4, 85831.79, 0.38411817, 9.998722, 10.000821 
2.1345913e+3, 1.3976617e+2, -1963190.3, -1742537.9, 46392.887, -0.09589155, -0.11675174, -1733180.4, -162907.9, 0.24951555, 9.996946, 9.9999275 
2.134659e+3, 1.4976586e+2, -1626914.0, -1483126.9, 143704.84, -0.12376259, -0.17797756, -1394335.1, 77941.2, 0.13052814, 9.998395, 10.00039 
2.1347278e+3, 1.5976483e+2, -1318105.8, -1335951.4, 117644.75, -0.068262786, -0.28033775, -1209045.9, 165242.25, 0.050404422, 10.00009, 9.999886 
2.134796e+3, 1.6976532e+2, -1241779.1, -1259933.6, 76653.72, -0.010744094, -0.2070196, -1173667.1, 102618.05, 0.012084308, 9.99999, 9.999743 
2.1348633e+3, 1.7976594e+2, -1221504.3, -1227163.6, 1476.9886, 0.021414444, -0.08540279, -1221142.0, -42861.043, 0.001155736, 9.999568, 9.999502 
2.1349287e+3, 1.8976544e+2, -1118936.0, -1121937.0, -3375.907, 0.004316971, -0.08613418, -1116742.1, -36453.258, 0.000030850606, 9.999594, 9.99953 
2.1349941e+3, 1.9976471e+2, -999937.6, -985733.9, 74746.74, -0.02591353, -0.09189354, -917752.4, 64545.617, 0.0, 9.999626, 9.999777 
2.1350613e+3, 2.0976447e+2, -845819.25, -803888.7, 118580.52, -0.114914544, -0.12790847, -704434.4, 179861.39, 0.0, 9.999775, 10.000277 
2.135129e+3, 2.1976417e+2, -782826.4, -820355.4, 26791.387, -0.19890611, -0.13723199, -768881.75, 17412.057, 0.0, 9.99994, 9.999417 
2.1351953e+3, 2.2976302e+2, -629693.2, -776581.6, -11639.652, -0.12863582, -0.13782744, -628776.56, 59531.06, 0.0, 10.000678, 9.998682 
2.1352614e+3, 2.3976147e+2, -448127.38, -642124.2, -3803.6892, -0.039155554, -0.13183928, -448052.8, 142272.97, 0.0, 10.001259, 9.998657 
2.1353272e+3, 2.4975978e+2, -368266.6, -521678.9, -42780.29, 0.048112903, -0.18518598, -357143.44, 135198.03, 0.0, 10.00101, 9.998926 
2.135393e+3, 2.597583e+2, -349493.84, -537828.4, 2413.1748, 0.11148694, -0.18449901, -349462.9, 44892.004, 0.0, 10.000797, 9.998246 
2.1354604e+3, 2.6975733e+2, -45709.652, -401565.28, 92563.91, 0.052579924, -0.06662015, -23072.307, 273293.66, 0.00000000014169585, 10.002472, 9.9977 
2.1355279e+3, 2.7975568e+2, 214973.06, -285915.0, 28490.17, -0.021357734, 0.047135595, 216588.34, 414971.53, 0.000000256191, 10.003845, 9.997164 
2.1355948e+3, 2.897522e+2, 170147.13, -252026.05, -46596.633, 0.14094597, -0.03274071, 175228.98, 275641.88, 0.0000052967753, 10.002832, 9.99721 
2.1356604e+3, 2.9974836e+2, 105023.875, -138825.97, 27738.01, 0.15892391, -0.15295564, 108139.28, 110584.27, 0.000025183504, 10.001556, 9.998271 
2.1357256e+3, 3.0974346e+2, 380024.78, 49502.055, 211881.38, -0.058007393, -0.5344029, 483473.38, 483473.38, 0.0000632292, 10.003185, 9.998777 
2.144526e+3, 1.2969816e+2, -1966118.6, -1615440.4, -177529.02, 0.0019590762, -0.24605249, -1541259.3, 127677.664, 0.40760165, 9.996666, 10.002077 
2.1445887e+3, 1.3969825e+2, -1633042.4, -1533712.3, 17642.697, -0.107880436, -0.35858265, -1530671.6, 40257.055, 0.26811564, 9.998942, 10.00049 
2.1446577e+3, 1.4969914e+2, -1532845.9, -1471166.8, 116250.125, -0.10010165, -0.2960756, -1381735.0, 91188.63, 0.14296411, 9.999191, 10.000096 
2.1447279e+3, 1.5969966e+2, -1480614.8, -1438018.3, 48244.406, 0.015061065, -0.21281953, -1406580.0, -31655.979, 0.057087187, 9.999069, 9.999645 
2.1447954e+3, 1.6969931e+2, -1357588.8, -1332334.6, 18023.475, -0.006836694, -0.20341519, -1322955.1, -46024.867, 0.014719365, 9.999284, 9.99958 
2.1448618e+3, 1.7969885e+2, -1227814.9, -1215294.3, 9428.734, -0.04911474, -0.1804796, -1210236.8, -31299.787, 0.0017550356, 9.999478, 9.999622 
2.1449283e+3, 1.8969908e+2, -1029656.8, -1033398.0, -22933.822, -0.002472855, -0.13845658, -1008517.44, 72419.08, 0.00008036648, 10.000024, 9.999931 
2.1449946e+3, 1.9969916e+2, -901861.3, -975112.1, 18700.014, 0.054703422, -0.083108716, -897363.6, 85573.48, 0.000000018813253, 10.000448, 9.999458 
2.145062e+3, 2.0969807e+2, -845341.9, -930674.2, 29786.701, -0.031049948, -0.11204374, -835972.94, 48974.11, 0.0, 10.000323, 9.99914 
2.1451294e+3, 2.196968e+2, -755775.4, -803626.25, -53339.54, -0.116566435, -0.13063937, -721241.1, 65716.89, 0.0, 10.000112, 9.999452 
2.145196e+3, 2.296963e+2, -611819.6, -615446.0, -63726.35, -0.08288791, -0.16269319, -549880.7, 139079.84, 0.0, 10.000151, 10.000044 
2.1452622e+3, 2.3969567e+2, -560992.8, -675791.56, -7046.67, -0.020274322, -0.17438038, -560561.9, 30403.006, 0.0, 10.000401, 9.99884 
2.1453284e+3, 2.4969353e+2, -311711.9, -618450.06, -55702.734, 0.054980975, -0.1927372, -301909.7, 191079.39, 0.0, 10.001935, 9.997815 
2.145395e+3, 2.596914e+2, -1874.3998, -406060.22, -26565.457, 0.12245224, -0.16595028, -135.84071, 394877.84, 0.0, 10.0033245, 9.99794 
2.1454626e+3, 2.6969045e+2, -39434.383, -332992.0, 33061.504, 0.06030066, -0.07471757, -35756.945, 261265.03, 0.00000000016893417, 10.002242, 9.998274 
2.1455303e+3, 2.7968904e+2, -111087.125, -390733.72, 22673.898, -0.012060415, 0.008925284, -109260.64, 89772.8, 0.0000002738674, 10.001346, 9.997662 
2.1455967e+3, 2.8968555e+2, 352076.5, -90051.4, -7521.6987, 0.039847195, -0.12020642, 352204.44, 453267.75, 0.0000047479944, 10.003769, 9.997865 
2.1456634e+3, 2.996827e+2, 741619.75, 110271.67, 44666.188, 0.11148816, -0.19073597, 744764.1, 747851.2, 0.00002151286, 10.006101, 9.997833 
2.1457314e+3, 3.0967855e+2, 382498.56, -94260.98, -60787.523, 0.2079129, -0.350622, 390127.0, 390127.0, 0.00005359827, 10.003824, 9.997465 
2.1545218e+3, 1.2962495e+2, -1737550.0, -1326108.4, -39849.242, -0.11717739, -0.6804562, -1322284.5, 347362.3, 0.43279883, 9.996559, 10.005401 
2.1545862e+3, 1.3963164e+2, -1529091.6, -1391407.1, 27184.941, -0.27171975, -0.4282074, -1386234.0, 185339.27, 0.28823382, 9.999143, 10.001778 
2.1546565e+3, 1.4963344e+2, -1587526.6, -1610211.8, 119141.35, -0.12504967, -0.23435289, -1479189.1, -5625.4126, 0.15688464, 9.999285, 9.999035 
2.1547273e+3, 1.5963392e+2, -1493195.1, -1475925.1, 43889.17, 0.05390001, -0.06377949, -1439829.6, -64260.348, 0.06501248, 9.999123, 9.999357 
2.1547942e+3, 1.6963299e+2, -1307633.6, -1229336.5, 30106.035, -0.04829064, -0.15908349, -1219099.0, 58480.695, 0.018139776, 9.999285, 10.000289 
2.1548599e+3, 1.7963192e+2, -1202505.5, -1175055.4, 19244.266, -0.18695495, -0.25311917, -1165143.3, 14446.557, 0.0026903055, 9.999524, 9.999882 
2.1549268e+3, 1.8963291e+2, -1037177.8, -1051328.3, 4335.47, -0.14841259, -0.13477056, -1035955.1, 45626.55, 0.00019736934, 10.000034, 9.999802 
2.1549937e+3, 1.9963364e+2, -957477.6, -1082473.9, 21804.066, -0.079178065, 0.010563029, -953783.4, 29793.309, 0.0000007869328, 10.000409, 9.99874 
2.1550626e+3, 2.0963033e+2, -950179.7, -1136059.4, 26341.885, -0.0074394513, -0.12184615, -946518.75, -60906.36, 0.0, 10.00026, 9.997763 
2.1551311e+3, 2.1962686e+2, -768317.25, -802049.06, -58453.34, 0.05496721, -0.25771546, -724345.25, 63303.19, 0.0, 9.999995, 9.999516 
2.1551973e+3, 2.2962825e+2, -498486.63, -360787.22, -55838.457, 0.04401159, -0.2342865, -340990.38, 348636.56, 0.0, 10.000063, 10.001835 
2.155263e+3, 2.396299e+2, -556984.5, -625678.2, 16925.688, 0.010884121, -0.16714706, -553040.56, 38562.555, 0.0, 10.000229, 9.999261 
2.1553299e+3, 2.4962756e+2, -426288.38, -820257.1, 15719.597, 0.017343035, -0.12141719, -425662.13, 67972.21, 0.0, 10.0017805, 9.996505 
2.1553975e+3, 2.5962457e+2, -77370.09, -500696.78, -21678.313, 0.046252444, -0.06392601, -76262.86, 319410.03, 0.0, 10.003062, 9.997414 
2.1554656e+3, 2.6962152e+2, -16248.978, -261630.38, -12303.229, 0.13362247, -0.20962209, -15633.646, 282061.97, 0.0, 10.002137, 9.998817 
2.155533e+3, 2.796183e+2, -62611.92, -248069.5, 47085.195, 0.11544494, -0.3843677, -51342.42, 148375.53, 0.000000100631844, 10.001197, 9.998698 
2.155598e+3, 2.896166e+2, 388893.88, 42913.39, 118699.13, -0.22845846, -0.45089152, 425701.44, 527433.1, 0.0000031808088, 10.003516, 9.998907 
2.1556662e+3, 2.9961693e+2, 462032.28, -266972.5, 24004.572, -0.2149246, -0.20430987, 462821.84, 466552.0, 0.000016571294, 10.005274, 9.995609 
2.1557388e+3, 3.0961618e+2, 24977.482, -750638.3, -70936.94, 0.5436473, 0.37706366, 31411.914, 31411.914, 0.00004498328, 10.00344, 9.993151 
2.1645193e+3, 1.2955871e+2, -1455144.0, -1303241.9, 44714.832, -0.14982462, -0.58682966, -1291056.8, 379236.38, 0.45757636, 10.000402, 10.004015 
2.1645847e+3, 1.3956377e+2, -1711997.5, -1491397.4, -103413.1, -0.25512686, -0.39198664, -1450501.0, 121738.46, 0.3088363, 9.997988, 10.001459 
2.1646555e+3, 1.4956564e+2, -1627312.0, -1572590.9, -2796.287, -0.10275819, -0.21738671, -1572448.4, -98219.91, 0.17204043, 9.998794, 9.999515 
2.1647263e+3, 1.5956645e+2, -1424601.1, -1422302.8, 14850.881, 0.06325679, -0.052413523, -1408556.6, -32327.732, 0.07433442, 9.999486, 9.999553 
2.164793e+3, 1.6956542e+2, -1357164.8, -1258907.6, -46702.906, -0.055764712, -0.1573647, -1240251.4, 37988.945, 0.022589553, 9.998955, 10.00025 
2.1648586e+3, 1.7956427e+2, -1374317.0, -1246475.8, -72412.5, -0.19147569, -0.26140982, -1213807.5, -33555.586, 0.00413868, 9.998298, 9.999979 
2.1649262e+3, 1.8956502e+2, -1085396.9, -1059434.5, -61760.87, -0.15689728, -0.1768225, -1009305.3, 72940.01, 0.00045452762, 9.999634, 9.99994 
2.1649942e+3, 1.9956556e+2, -865652.44, -1043516.25, -32754.566, -0.07928689, -0.05882302, -859812.25, 124429.38, 0.000007502901, 10.001062, 9.998691 
2.1650627e+3, 2.0956287e+2, -840675.75, -1111906.1, 7831.3394, -0.021461114, -0.105302945, -840449.8, 45824.273, 0.0, 10.001148, 9.997497 
2.1651311e+3, 2.1956006e+2, -656624.2, -765906.2, -7591.982, 0.03231206, -0.1525251, -656099.3, 132207.52, 0.0, 10.000849, 9.999348 
2.165197e+3, 2.295608e+2, -453235.47, -345590.03, -118459.82, 0.023351997, -0.1841265, -269298.9, 420991.53, 0.0, 10.000406, 10.00177 
2.1652627e+3, 2.3956177e+2, -581124.94, -624280.9, -122620.42, 0.009929783, -0.17897509, -478198.38, 114073.234, 0.0, 9.99999, 9.999392 
2.1653305e+3, 2.4956018e+2, -651732.8, -875287.9, -30177.299, 0.015914652, -0.0912129, -647730.9, -153435.55, 0.0, 10.000016, 9.9969635 
2.1653989e+3, 2.5955802e+2, -454797.75, -623615.1, 35016.426, 0.05859337, -0.002082487, -447822.75, -51497.188, 0.0, 10.000228, 9.997926 
2.1654673e+3, 2.695548e+2, -56128.063, -201659.58, 44502.8, 0.16051991, -0.22328012, -43598.13, 254748.14, 0.0, 10.001544, 9.999503 
2.1655351e+3, 2.795516e+2, 166737.94, -156774.42, 112015.18, 0.17806676, -0.4475302, 201736.6, 402101.38, 0.0000000029805467, 10.002843, 9.998539 
2.1656008e+3, 2.8954965e+2, 122782.85, -199050.4, 36929.324, -0.17570743, -0.44203043, 126966.0, 229349.9, 0.0000013452404, 10.002212, 9.997856 
2.1656704e+3, 2.9954892e+2, 18798.004, -403192.63, -80099.59, -0.11309643, -0.25328708, 33490.457, 37885.93, 0.000010696579, 10.001853, 9.996336 
2.1657424e+3, 3.0954874e+2, 364675.1, -343535.4, 127523.21, 0.51677394, 0.19180742, 386937.63, 386937.63, 0.000035610625, 10.004734, 9.995314 
2.1745196e+3, 1.2950142e+2, -1712060.6, -2008800.6, -139050.61, -0.23249468, 0.16147879, -1657086.8, 13770.939, 0.48078975, 10.001051, 9.996695 
2.1745844e+3, 1.3949497e+2, -1881842.1, -1825699.4, -134718.52, -0.103751905, -0.20478863, -1716158.6, -143232.39, 0.32934, 9.998051, 9.998812 
2.1746546e+3, 1.494954e+2, -1486127.6, -1308327.0, 36893.96, -0.07883728, -0.25220177, -1300975.5, 173946.47, 0.18832743, 9.998759, 10.00161 
2.1747246e+3, 1.594968e+2, -1357154.4, -1309628.3, 15886.856, -0.06880923, -0.20444617, -1304806.9, 72100.586, 0.0852701, 9.999585, 10.000321 
2.1747912e+3, 1.6949657e+2, -1404995.1, -1370617.4, -72219.01, -0.10310971, -0.20271678, -1313569.9, -34656.566, 0.028395085, 9.99901, 9.999447 
2.1748574e+3, 1.7949589e+2, -1387901.1, -1286245.1, -68451.38, -0.1369785, -0.19186361, -1251814.3, -70890.414, 0.006367479, 9.998344, 9.999684 
2.1749265e+3, 1.8949528e+2, -1060195.8, -1006640.2, 5146.913, -0.078773394, -0.26037088, -1006150.06, 76779.1, 0.0009868387, 9.999627, 10.000307 
2.1749958e+3, 1.994948e+2, -828703.8, -960537.0, -5531.36, -0.029561605, -0.28830042, -828472.1, 156461.56, 0.000047582707, 10.00103, 9.999278 
2.1750627e+3, 2.0949553e+2, -797899.1, -1001777.7, 5739.8745, -0.12275503, -0.069644935, -797737.7, 89196.51, 0.00000000032497088, 10.00105, 9.998303 
2.1751292e+3, 2.1949604e+2, -711599.0, -836603.0, -22643.879, -0.23762128, 0.16506954, -707623.56, 81312.836, 0.0, 10.000668, 9.998944 
2.175195e+3, 2.2949381e+2, -601740.44, -624177.44, -127294.25, -0.1943324, -0.022812104, -485171.3, 205781.08, 0.0, 10.000284, 9.99991 
2.1752615e+3, 2.3949134e+2, -613370.8, -655160.3, -132589.9, -0.11307703, -0.21336833, -500039.34, 92929.67, 0.0, 9.9998455, 9.999245 
2.17533e+3, 2.4949138e+2, -533059.6, -605007.94, -20297.367, -0.0136511335, -0.10065119, -527728.56, -32756.557, 0.0, 9.999919, 9.998863 
2.1753992e+3, 2.5949135e+2, -384168.72, -434353.5, 52692.543, 0.06529739, 0.028427938, -350899.03, 46076.195, 0.0, 10.000053, 9.999304 
2.175468e+3, 2.6948962e+2, -25357.736, -108450.414, 103223.98, 0.07843476, -0.14232759, 44367.156, 343347.44, 0.0, 10.001421, 10.0002 
2.1755369e+3, 2.7948782e+2, 44475.715, -340763.22, 105236.82, 0.060647666, -0.24575661, 71348.95, 272333.78, 0.0, 10.002562, 9.997399 
2.1756053e+3, 2.894839e+2, -100920.305, -649652.5, 6323.887, 0.03622364, -0.1857136, -100847.44, 2179.4568, 0.00000028754212, 10.002141, 9.9948 
2.175675e+3, 2.9947782e+2, 158257.22, -15001.086, -39555.785, 0.15624219, -0.38755462, 166860.78, 171952.48, 0.0000061160813, 10.001495, 9.999143 
2.1757443e+3, 3.094778e+2, 709414.9, 556008.44, 205919.34, 0.22188903, -0.6212314, 852452.75, 852452.75, 0.000027460846, 10.003966, 10.001863 
2.184584e+3, 1.3942638e+2, -1700453.0, -1947474.3, -85727.3, -0.024854003, -0.19254358, -1673617.3, -100016.66, 0.34983045, 10.000174, 9.996951 
2.1846531e+3, 1.4942575e+2, -1389728.8, -1209426.9, 76360.58, -0.09001048, -0.3220155, -1181433.3, 294171.97, 0.2059314, 9.999239, 10.002275 
2.1847227e+3, 1.5942748e+2, -1616590.3, -1374761.4, -4720.823, -0.11377856, -0.31012672, -1374669.3, 2914.305, 0.09816949, 9.997579, 10.000801 
2.1847901e+3, 1.6942792e+2, -1463995.1, -1401639.3, -60265.69, -0.095934816, -0.24681027, -1364964.3, -85380.484, 0.036017943, 9.998655, 9.999397 
2.1848567e+3, 1.7942786e+2, -1158692.4, -1193747.1, 5576.2607, -0.08951677, -0.16657124, -1157826.6, 23763.37, 0.009796201, 9.999995, 9.999523 
2.1849266e+3, 1.8942717e+2, -1050248.0, -1028769.7, 44394.203, -0.03678919, -0.22277853, -993834.2, 89763.77, 0.0020521113, 9.99982, 10.000053 
2.1849962e+3, 1.994266e+2, -1067951.3, -1040872.9, -11188.564, 0.014285619, -0.24680991, -1036848.06, -51243.652, 0.00020967671, 9.999245, 9.99959 
2.1850628e+3, 2.0942768e+2, -1058742.8, -1022278.1, -35695.703, -0.09521241, -0.0667929, -1000428.06, -112829.84, 0.00000086887735, 9.998807, 9.999246 
2.1851286e+3, 2.1942848e+2, -1013289.06, -970081.2, -22840.127, -0.21686882, 0.1215663, -960246.25, -170651.88, 0.0, 9.998526, 9.999075 
2.1851951e+3, 2.2942577e+2, -730916.9, -761295.3, -48850.574, -0.16940153, -0.062624015, -694948.56, -3332.5713, 0.0, 9.999733, 9.999232 
2.185262e+3, 2.3942283e+2, -454418.0, -601728.25, 5976.197, -0.0722602, -0.24881206, -454175.94, 139463.06, 0.0, 10.001031, 9.999045 
2.1853305e+3, 2.4942268e+2, -396658.97, -510064.66, 4963.552, 0.023319619, -0.16822399, -396442.13, 99199.34, 0.0, 10.000711, 9.999147 
2.1853994e+3, 2.5942266e+2, -360935.22, -447528.78, 9692.639, 0.09856489, -0.055961937, -359863.56, 37779.063, 0.0, 10.000293, 9.999114 
2.185469e+3, 2.6942062e+2, -85630.02, -227300.94, -25859.293, 0.06183405, -0.18776496, -81057.49, 218596.28, 0.0, 10.001372, 9.999422 
2.1855389e+3, 2.7941835e+2, -10873.5205, -388184.1, -109246.49, 0.04223827, -0.27558807, 18474.895, 220141.47, 0.0, 10.00224, 9.997242 
2.1856086e+3, 2.894148e+2, -76078.41, -564915.4, -68151.37, 0.2020639, -0.21093829, -66754.88, 36949.348, 0.000000027227998, 10.001992, 9.995458 
2.1856792e+3, 2.994098e+2, 300939.94, 77501.27, 77991.9, 0.41866565, -0.3679717, 325470.2, 331225.8, 0.0000044959556, 10.002315, 9.999418 
2.185745e+3, 3.0940896e+2, 495492.0, 414903.13, -168254.42, -0.015556964, -0.6390752, 628209.7, 628209.7, 0.000025056414, 10.002597, 10.0015745 
2.1945821e+3, 1.3935721e+2, -1703426.3, -1965026.0, -242438.05, -0.26957834, -0.40586, -1558754.1, 15514.592, 0.371045, 10.000299, 9.996777 
2.1946509e+3, 1.4935657e+2, -1437521.9, -1317447.3, 35668.85, -0.22900487, -0.42917076, -1307650.9, 168628.17, 0.22535217, 9.999284, 10.001357 
2.1947198e+3, 1.593586e+2, -1612647.4, -1368498.8, -31128.965, -0.1475202, -0.3344467, -1364592.3, 13664.215, 0.113554515, 9.997581, 10.000853 
2.1947888e+3, 1.6935931e+2, -1416721.8, -1297352.8, 7193.476, -0.081810586, -0.29115275, -1296920.8, -16667.291, 0.046104282, 9.998632, 10.000122 
2.1948564e+3, 1.793599e+2, -1147385.3, -1182804.6, 32103.555, -0.12310661, -0.20558578, -1128430.6, 53822.52, 0.015073848, 10.000047, 9.999578 
2.1949255e+3, 1.8936059e+2, -1111377.5, -1155321.8, 31619.063, -0.09356134, -0.062412616, -1094845.9, -10593.447, 0.004138987, 9.999822, 9.999183 
2.1949948e+3, 1.9936095e+2, -1078495.4, -1053749.0, -33944.957, -0.039664958, 0.07667193, -1029992.44, -43738.375, 0.00072646124, 9.999207, 9.9995165 
2.1950622e+3, 2.0935935e+2, -1004728.9, -889433.8, -48926.598, -0.015359469, -0.08204368, -871470.2, 16796.473, 0.000022642807, 9.998722, 10.000193 
2.1951294e+3, 2.193574e+2, -984217.6, -882268.0, -12834.703, 0.0012632911, -0.2552556, -880677.06, -90396.69, 0.000000000011542125, 9.9984045, 9.999735 
2.1951967e+3, 2.2935659e+2, -716257.25, -715884.0, 12290.06, 0.021172501, -0.2967543, -703779.1, -11496.118, 0.0, 9.9996605, 9.999579 
2.1952641e+3, 2.3935579e+2, -507348.3, -658141.56, 16137.55, 0.031038916, -0.29057682, -505640.66, 88645.414, 0.0, 10.0008135, 9.998755 
2.1953316e+3, 2.49354e+2, -492109.53, -688119.0, -16415.22, 0.05706218, -0.2859115, -490744.3, 5560.9214, 0.0, 10.000631, 9.997958 
2.1953991e+3, 2.5935206e+2, -498483.34, -697509.0, 17104.475, 0.065157525, -0.23775665, -497024.06, -98697.28, 0.0, 10.000158, 9.99745 
2.1954697e+3, 2.693482e+2, -252227.28, -543349.7, 38055.43, 0.02782133, -0.34976745, -247334.9, 53027.246, 0.0, 10.001258, 9.997297 
2.1955405e+3, 2.7934375e+2, -14935.593, -332204.97, -94469.93, -0.00546907, -0.5090176, 11063.227, 213466.28, 0.0, 10.001982, 9.997744 
2.1956111e+3, 2.8934264e+2, 142709.02, -77540.586, -59616.58, 0.25731847, -0.47210073, 157810.44, 262222.06, 0.000000020729713, 10.001853, 9.998872 
2.1956824e+3, 2.9934368e+2, 135305.92, -183239.19, 92635.63, 0.47954863, -0.22998746, 160286.2, 166686.36, 0.0000055230016, 10.001995, 9.997751 
2.1957444e+3, 3.0933908e+2, -44181.348, -590039.25, -36579.71, -0.33091784, -0.32905456, -41740.934, -41740.934, 0.000029811183, 10.002137, 9.994867 
2.2045794e+3, 1.3928929e+2, -1877893.3, -1875307.6, -119305.25, -0.45013148, -0.48472017, -1757288.1, -182358.0, 0.39437363, 9.998297, 9.99834 
2.2046506e+3, 1.4928967e+2, -1402496.1, -1412999.6, -10364.5205, -0.187439, -0.32826164, -1396128.8, 80804.984, 0.24751917, 10.000217, 10.000084 
2.2047178e+3, 1.5928997e+2, -1523551.4, -1365491.5, -78101.34, -0.11960224, -0.3193921, -1333411.0, 45519.344, 0.13222682, 9.998333, 10.000553 
2.2047871e+3, 1.6929066e+2, -1345480.1, -1214925.8, 9057.411, -0.07829078, -0.29981995, -1214300.4, 66625.234, 0.059555795, 9.998844, 10.000644 
2.2048557e+3, 1.7929149e+2, -1194742.0, -1178383.5, 11506.041, -0.15095837, -0.23813683, -1172445.8, 10474.374, 0.023171267, 9.999591, 9.999835 
2.2049248e+3, 1.8929224e+2, -1160547.4, -1218098.5, -3367.5972, -0.10722388, -0.072773315, -1160351.0, -75431.06, 0.008108057, 9.999639, 9.998854 
2.2049941e+3, 1.992925e+2, -1033788.6, -1043399.4, -17469.275, -0.00808181, 0.085934475, -1020475.8, -33552.133, 0.0021629941, 9.999556, 9.999427 
2.2050622e+3, 2.0929039e+2, -744568.0, -731049.94, -62897.707, 0.059050392, -0.13985908, -674549.2, 214388.94, 0.00023583506, 10.000356, 10.0005 
2.2051299e+3, 2.1928802e+2, -570677.1, -663383.2, -55995.95, 0.11961022, -0.38308766, -544338.0, 246614.92, 0.0000019906881, 10.001158, 9.999911 
2.2051975e+3, 2.2928791e+2, -574972.1, -662125.2, -80482.64, 0.10181685, -0.35084075, -527026.1, 165924.25, 0.0, 10.000677, 9.99947 
2.2052647e+3, 2.3928761e+2, -632101.1, -748079.06, -90216.836, 0.079809844, -0.27157593, -582843.7, 12107.253, 0.0, 10.00007, 9.998503 
2.2053322e+3, 2.4928494e+2, -448046.84, -692615.94, -94877.11, 0.071441434, -0.32685485, -415556.78, 81421.586, 0.0, 10.001083, 9.9976845 
2.2054003e+3, 2.592822e+2, -204335.48, -571109.75, 13961.884, 0.07573455, -0.33544233, -203804.78, 195202.39, 0.0, 10.002229, 9.997333 
2.2054714e+3, 2.6927936e+2, -183815.05, -491946.44, 158025.64, 0.06369883, -0.35391396, -117181.07, 183854.63, 0.0, 10.001635, 9.997478 
2.2055422e+3, 2.7927613e+2, -158560.38, -356967.38, 159792.92, 0.06107714, -0.4269775, -69681.14, 133386.3, 0.0, 10.000818, 9.998131 
2.2056125e+3, 2.892747e+2, 200320.55, -29653.166, 32652.06, 0.22551727, -0.44346586, 204866.67, 309946.7, 0.00000007580395, 10.002168, 9.99905 
2.205684e+3, 2.9927605e+2, 311093.47, -225316.34, 31666.115, 0.41452566, -0.14311895, 312956.34, 320022.66, 0.0000083740215, 10.003698, 9.996673 
2.2057486e+3, 3.0927098e+2, 69160.82, -516746.0, 43621.758, -0.13175385, -0.13719189, 72390.73, 72390.73, 0.000042885644, 10.00281, 9.995056 
2.2145773e+3, 1.3922413e+2, -1688412.1, -1455268.3, 240655.44, -0.47928515, -0.24141347, -1304437.8, 271133.28, 0.4221777, 9.998093, 10.002292 
2.214653e+3, 1.4922519e+2, -1498196.5, -1636438.0, -74130.14, 0.021376463, 0.014527858, -1465961.6, 11607.306, 0.27423543, 10.0002365, 9.998407 
2.2147161e+3, 1.5922129e+2, -1558353.1, -1441924.5, -123571.445, -0.1306891, -0.26371342, -1363541.5, 16066.854, 0.15564767, 9.998366, 9.999983 
2.2147852e+3, 1.6922192e+2, -1319582.4, -1163584.1, 46179.832, -0.16150004, -0.261877, -1150938.6, 130661.61, 0.07778218, 9.998832, 10.001043 
2.2148542e+3, 1.7922272e+2, -1161878.4, -1125405.6, 22521.594, -0.2576314, -0.24300924, -1114662.9, 68927.61, 0.035576556, 9.999644, 10.000191 
2.2149241e+3, 1.8922201e+2, -1152996.4, -1196718.0, -5120.722, -0.1376485, -0.24433859, -1152404.8, -66803.36, 0.0154146915, 9.999615, 9.999011 
2.2149941e+3, 1.9922104e+2, -1043874.2, -1054082.3, -8557.149, 0.026694033, -0.22230649, -1039014.5, -51399.188, 0.005714695, 9.999511, 9.999374 
2.2150625e+3, 2.0922063e+2, -776137.4, -775452.4, -19746.965, 0.06478735, -0.25624475, -756044.94, 133569.7, 0.0013616167, 10.000264, 10.000238 
2.2151303e+3, 2.1922031e+2, -629885.75, -738398.5, -52029.613, 0.05615349, -0.26388562, -608970.1, 182641.73, 0.00013056793, 10.000953, 9.999495 
2.2151972e+3, 2.2921956e+2, -635927.0, -761394.4, -103296.56, 0.0227511, -0.24056189, -577806.7, 115812.5, 0.0000045921656, 10.000553, 9.998849 
2.2152637e+3, 2.392183e+2, -685515.1, -805563.8, -95119.89, -0.011656415, -0.20209521, -633064.06, -37431.105, 0.000000030624218, 9.999858, 9.998201 
2.2153325e+3, 2.4921532e+2, -446601.1, -650557.75, -39479.535, 0.008057838, -0.3059013, -439225.8, 58436.336, 0.0, 10.000921, 9.998049 
2.2154021e+3, 2.5921258e+2, -166064.4, -417614.4, 14258.338, 0.040821277, -0.3688745, -165258.8, 234429.67, 0.0, 10.001928, 9.998523 
2.2154732e+3, 2.6921326e+2, -59952.19, -191846.5, 116070.78, 0.09082745, -0.22856718, 7597.6733, 309279.53, 0.0, 10.001457, 9.9996195 
2.2155434e+3, 2.7921396e+2, -184591.72, -351070.13, 142843.55, 0.10323471, -0.081479125, -102503.84, 101171.64, 0.0, 10.000581, 9.998273 
2.2156128e+3, 2.892099e+2, -7934.1, -433777.0, 106171.086, 0.05313012, -0.18385161, 17068.48, 122787.31, 0.00000027397763, 10.002062, 9.996314 
2.2156848e+3, 2.992066e+2, 206315.95, -347555.94, 45924.227, 0.11012782, -0.093585365, 210097.94, 217853.28, 0.000015050563, 10.003337, 9.995981 
2.2157533e+3, 3.092035e+2, 299823.44, 118093.88, -46505.29, 0.0666273, -0.11402863, 311032.9, 311032.9, 0.00007034586, 10.002207, 9.99968 
2.2245751e+3, 1.3914987e+2, -2236742.8, -2085027.3, 638744.94, -0.3942337, -0.48253268, -1517651.4, 58644.367, 0.45833316, 9.996032, 9.998183 
2.2246511e+3, 1.4915332e+2, -1758381.0, -1623872.3, -334574.9, -0.041729696, -0.0894319, -1349859.1, 128415.62, 0.30885017, 9.997883, 9.999853 
2.2247146e+3, 1.5915234e+2, -1470769.9, -1358735.5, -144979.83, -0.107715786, -0.18295424, -1259327.3, 120957.31, 0.18666483, 9.998793, 10.000454 
2.2247839e+3, 1.6915253e+2, -1324589.6, -1202015.6, -157.19144, -0.13525479, -0.21683106, -1202015.5, 80263.734, 0.103338934, 9.998974, 10.000692 
2.2248535e+3, 1.7915225e+2, -1315533.0, -1217153.1, -76728.63, -0.21818994, -0.27075443, -1175200.6, 9077.584, 0.054786276, 9.998664, 10.00003 
2.2249235e+3, 1.8915126e+2, -1169422.6, -1182770.5, -122387.016, -0.119808234, -0.30954435, -1053527.8, 32763.17, 0.028543482, 9.99939, 9.999222 
2.2249937e+3, 1.9915026e+2, -942534.5, -988794.0, -112378.875, 0.030274916, -0.30991396, -850929.8, 137374.31, 0.013685946, 10.000141, 9.999521 
2.225062e+3, 2.0915042e+2, -915324.6, -841922.6, -134523.88, 0.05038241, -0.28757414, -739183.2, 151115.53, 0.005262215, 9.999309, 10.000245 
2.2251296e+3, 2.1915051e+2, -1010179.56, -942923.75, -125559.96, 0.044355575, -0.24858853, -846566.5, -54273.477, 0.001420654, 9.998416, 9.99932 
2.225197e+3, 2.2914909e+2, -804114.94, -885114.25, -156515.34, 0.028910965, -0.25942317, -682944.3, 11363.94, 0.0002619265, 9.999573, 9.998479 
2.2252645e+3, 2.391471e+2, -512556.8, -720698.1, -118623.37, 0.029004999, -0.25948584, -458823.16, 137507.0, 0.000035642544, 10.001017, 9.998239 
2.2253335e+3, 2.4914509e+2, -419773.75, -557850.75, -48411.523, 0.049276628, -0.31698504, -404491.5, 93857.195, 0.0000011567587, 10.000722, 9.998807 
2.225403e+3, 2.591434e+2, -448103.25, -511634.84, 13694.168, 0.077676564, -0.34370506, -445277.22, -44913.574, 0.0, 9.999814, 9.998891 
2.2254738e+3, 2.6914367e+2, -236641.19, -308471.72, -38738.996, 0.11177247, -0.22991692, -219730.17, 82632.78, 0.0, 10.000411, 9.999309 
2.2255448e+3, 2.791442e+2, -14346.37, -253596.03, -99454.02, 0.1453103, -0.075015366, 21596.158, 225956.6, 0.0, 10.001662, 9.998435 
2.225614e+3, 2.8914106e+2, 184369.95, -246922.64, 21380.51, -0.06173478, -0.13813649, 185427.27, 291821.2, 0.00000073017384, 10.002978, 9.997155 
2.2256853e+3, 2.9913792e+2, 233978.88, -258557.63, 135770.22, -0.15323693, -0.13730812, 268925.13, 277352.5, 0.00002755439, 10.003177, 9.996681 
2.2257583e+3, 3.0913374e+2, 355365.2, 167510.55, -151079.02, 0.33986896, -0.26725575, 439334.5, 439334.5, 0.000118261974, 10.002426, 9.999934 
2.234644e+3, 1.4907314e+2, -1464351.6, -1061784.3, -261345.47, -0.52393794, -0.64971, -933194.4, 545865.44, 0.35698506, 9.997575, 10.00526 
2.2347134e+3, 1.590829e+2, -1376427.0, -1181838.5, -108501.01, -0.12550388, -0.09490422, -1133397.9, 247562.8, 0.23053116, 9.998711, 10.002005 
2.2347836e+3, 1.6908224e+2, -1429430.5, -1394264.3, -3997.1392, -0.049323205, -0.17734624, -1393815.6, -110850.98, 0.14104874, 9.998896, 9.999348 
2.234853e+3, 1.7907973e+2, -1372409.9, -1322538.4, -76609.79, -0.12607954, -0.3421702, -1266908.4, -81920.9, 0.08532412, 9.998615, 9.999321 
2.2349228e+3, 1.8907976e+2, -1151936.4, -1136086.1, -83006.47, -0.11215223, -0.27670577, -1060627.4, 26363.13, 0.05187056, 9.999342, 9.999569 
2.2349927e+3, 1.9908032e+2, -935724.94, -952326.6, -111612.35, -0.08212657, -0.15550931, -832105.2, 156883.55, 0.030293982, 10.000056, 9.999821 
2.2350603e+3, 2.0907973e+2, -915199.4, -819972.2, -171472.72, -0.044707745, -0.2346369, -689625.25, 201365.6, 0.015773455, 9.999214, 10.000454 
2.2351277e+3, 2.1907856e+2, -1038416.06, -952940.06, -131309.67, -0.006519072, -0.33475307, -857588.4, -64591.05, 0.0069356123, 9.99822, 9.999336 
2.2351965e+3, 2.290764e+2, -823178.4, -907435.2, -87255.78, 0.043749657, -0.4148626, -768413.1, -73394.695, 0.002541045, 9.9994955, 9.998358 
2.2352658e+3, 2.390741e+2, -525320.94, -693040.94, -96287.23, 0.095027596, -0.43683812, -481494.88, 115547.234, 0.00075579167, 10.000798, 9.998527 
2.2353347e+3, 2.490744e+2, -358830.88, -401665.4, -72222.71, 0.11221352, -0.35955775, -304916.75, 194120.52, 0.00014769337, 10.000592, 9.999941 
2.2354026e+3, 2.5907472e+2, -527358.3, -607244.9, -17036.814, 0.06877077, -0.26002762, -523876.75, -122844.24, 0.000007045108, 9.999547, 9.998346 
2.2354737e+3, 2.690711e+2, -442754.7, -696640.9, 9847.532, 0.05881603, -0.3374551, -442373.3, -139299.64, 0.00000000065814787, 10.000253, 9.996706 
2.235546e+3, 2.790679e+2, -69420.38, -279875.47, -45350.535, 0.0826115, -0.35984406, -60063.863, 145047.84, 0.0, 10.001311, 9.998407 
2.2356153e+3, 2.8906897e+2, 369543.56, 229791.19, 68926.16, -0.20913763, -0.25501382, 397817.75, 504915.8, 0.0000012574419, 10.002601, 10.000602 
2.2356844e+3, 2.9906914e+2, 250220.31, -59051.47, 82185.836, -0.5702008, -0.2578258, 270703.72, 279795.97, 0.000044073433, 10.002521, 9.99834 
2.2357641e+3, 3.0906576e+2, -8948.715, -441126.9, -6209.635, 0.67481697, -0.19332132, -8859.513, -8859.513, 0.00018419352, 10.001849, 9.996015 
2.2446467e+3, 1.49007e+2, -1605149.4, -1148581.4, -34890.19, 0.030620977, -0.1469807, -1145930.6, 333780.5, 0.42759266, 9.996181, 10.005288 
2.2447121e+3, 1.5901145e+2, -1390576.6, -1182898.0, -104415.08, -0.08230328, -0.13381656, -1139478.8, 242181.6, 0.29616648, 9.998491, 10.002289 
2.244782e+3, 1.6901012e+2, -1318855.8, -1310825.0, -13003.251, -0.113579124, -0.30844638, -1301231.3, -17562.365, 0.19952731, 9.999537, 9.999606 
2.2448525e+3, 1.7900796e+2, -1158271.0, -1203533.9, 27313.44, -0.08836707, -0.4622, -1145431.3, 40255.484, 0.13536815, 10.000032, 9.999469 
2.2449224e+3, 1.8900847e+2, -1120070.9, -1106175.3, 10092.191, -0.08407986, -0.36425555, -1100870.5, -13186.625, 0.09319166, 9.999476, 9.999719 
2.2449917e+3, 1.990096e+2, -1124419.0, -1056643.0, -29880.484, -0.08067901, -0.20011349, -1045350.9, -55675.098, 0.06306426, 9.998757, 9.999748 
2.2450598e+3, 2.0900881e+2, -930833.06, -873011.56, -142573.97, 0.0036458324, -0.26176357, -756446.6, 135234.98, 0.0400799, 9.999276, 10.000096 
2.2451274e+3, 2.1900733e+2, -735000.75, -804428.1, -95586.89, 0.090827435, -0.36461103, -668019.4, 125674.28, 0.023131557, 10.0002775, 9.999387 
2.2451968e+3, 2.2900543e+2, -639624.2, -750245.4, -17813.223, 0.09058647, -0.4670008, -636826.5, 58884.785, 0.011994159, 10.000462, 9.998971 
2.2452663e+3, 2.3900361e+2, -562186.9, -715394.06, 4417.9434, 0.09088981, -0.4803995, -562059.56, 35668.95, 0.0054928027, 10.000552, 9.998493 
2.2453351e+3, 2.4900402e+2, -345741.1, -473488.25, -103921.48, 0.09941396, -0.3421132, -287633.1, 212091.7, 0.002050329, 10.001023, 9.999238 
2.2454031e+3, 2.5900352e+2, -309828.9, -540310.94, -141838.9, 0.10719373, -0.24988629, -242316.63, 159413.83, 0.0004876709, 10.001177, 9.998038 
2.2454742e+3, 2.6899898e+2, -256602.44, -526792.2, 55931.15, 0.0717832, -0.45357433, -245482.0, 58295.31, 0.000047167257, 10.001173, 9.997443 
2.2455457e+3, 2.7899647e+2, -201304.44, -335612.1, 177689.5, 0.026307315, -0.4807246, -78502.49, 127302.49, 0.00000034188096, 10.000375, 9.998476 
2.2456168e+3, 2.8899857e+2, -38370.098, -96092.77, 57949.758, -0.18270935, -0.17695221, -2492.3362, 105291.08, 0.0000013302117, 10.000353, 9.999448 
2.245689e+3, 2.9899618e+2, 111319.664, -25642.422, -126634.42, -0.23674598, -0.40042767, 186803.66, 196608.97, 0.0000584347, 10.001089, 9.99927 
2.2457656e+3, 3.0899528e+2, 410849.06, -93792.27, -33339.645, 0.55009085, -0.2739527, 413042.16, 413042.16, 0.00025945, 10.004048, 9.997344 
2.2547102e+3, 1.5893798e+2, -1579701.8, -1436771.4, -93689.46, -0.16817902, -0.28978026, -1390402.0, -8017.594, 0.39765337, 9.998122, 10.000123 
2.2547787e+3, 1.6893561e+2, -1214476.1, -1098931.5, -4786.394, -0.40515387, -0.65046406, -1098733.6, 185664.34, 0.29298013, 9.999466, 10.001626 
2.2548518e+3, 1.7893676e+2, -1132427.6, -1099982.8, 8927.64, -0.18514045, -0.6478964, -1097688.4, 88689.734, 0.21888196, 9.999818, 10.000429 
2.2549216e+3, 1.88937e+2, -1159592.5, -1150549.1, -23800.732, -0.111587666, -0.5990952, -1130844.4, -42469.438, 0.16615056, 9.999314, 9.999483 
2.2549905e+3, 1.9893758e+2, -1182142.5, -1138362.0, -42148.258, -0.08288022, -0.47514573, -1112758.5, -122387.96, 0.12546477, 9.998595, 9.999254 
2.2550598e+3, 2.0893742e+2, -1002267.0, -1006978.44, -104723.836, 0.10306523, -0.39712977, -899872.44, -7498.3896, 0.0914258, 9.999209, 9.999175 
2.2551292e+3, 2.1893677e+2, -767053.0, -826864.6, -69513.945, 0.23646435, -0.34247655, -721284.9, 73097.7, 0.062582165, 10.000098, 9.999323 
2.2551975e+3, 2.28936e+2, -576824.5, -588077.0, -11349.895, 0.1220154, -0.42054605, -569782.9, 126605.36, 0.039919913, 10.000322, 10.000193 
2.2552651e+3, 2.3893544e+2, -660657.56, -808391.8, -1572.0353, -0.07517345, -0.3862484, -660640.9, -62249.14, 0.023601582, 10.000094, 9.998063 
2.2553344e+3, 2.4893393e+2, -544442.7, -831311.44, -80345.65, -0.061220225, -0.27462357, -523472.53, -23061.145, 0.012405956, 10.000805, 9.996873 
2.255404e+3, 2.589299e+2, -380983.66, -612758.94, -153011.5, 0.08514066, -0.31952462, -304927.38, 97528.836, 0.005154125, 10.000873, 9.997682 
2.255475e+3, 2.6892716e+2, -51459.426, -38127.668, 45800.11, 0.061976966, -0.5909548, 1489.1075, 305965.84, 0.0013586987, 10.000914, 10.000921 
2.2555442e+3, 2.7892888e+2, -279185.3, -376971.06, 113810.38, -0.1577386, -0.4679206, -204210.05, 2242.251, 0.00015517221, 9.999906, 9.998393 
2.2556177e+3, 2.8892958e+2, -426599.9, -829549.9, 68567.664, -0.111990444, 0.06158896, -415251.72, -306798.7, 0.0000026982873, 10.000106, 9.994496 
2.2556977e+3, 2.9891968e+2, 66410.36, -29935.238, -52383.266, 0.50508887, -0.5684021, 89403.74, 99963.2, 0.000065484004, 10.000754, 9.999378 
2.2557619e+3, 3.0891994e+2, 653646.75, 545522.56, 177304.94, -0.23212841, -0.7336699, 784948.5, 784948.5, 0.00034262822, 10.003493, 10.002012 
2.2647813e+3, 1.6887128e+2, -1236150.8, -1170200.1, -27721.225, -0.03818192, 0.07963475, -1160096.0, 124941.375, 0.44342524, 9.999195, 10.0014925 
2.2648537e+3, 1.7887045e+2, -1558354.8, -1350502.4, -132560.14, 0.1869356, -0.18070787, -1285986.1, -98950.61, 0.3585124, 9.996963, 9.999943 
2.2649217e+3, 1.8886809e+2, -1263034.9, -1103271.4, -119560.625, 0.0578005, -0.41068307, -1039362.2, 49688.785, 0.29413474, 9.998198, 10.000417 
2.264989e+3, 1.9886637e+2, -803149.2, -883302.7, -30234.94, -0.18482181, -0.6185396, -793023.4, 198037.9, 0.24160613, 10.001206, 9.999993 
2.2650574e+3, 2.0886634e+2, -789050.94, -945655.8, -89357.805, -0.14476831, -0.51921123, -748542.25, 144521.14, 0.1940874, 10.001031, 9.998772 
2.265127e+3, 2.1886626e+2, -772960.44, -869290.4, -34982.17, 0.015036833, -0.37473464, -761597.1, 33470.957, 0.14888066, 10.0001955, 9.998993 
2.2651963e+3, 2.2886571e+2, -675646.06, -643565.1, -63218.383, 0.027030539, -0.40353462, -594384.0, 102689.31, 0.108788945, 9.999647, 10.00017 
2.2652651e+3, 2.3886514e+2, -667311.75, -778707.2, -54157.043, -0.038492616, -0.38169384, -645322.75, -46244.625, 0.07581198, 9.999809, 9.998442 
2.2653356e+3, 2.4886341e+2, -558767.9, -853464.56, -11751.871, 0.014626241, -0.30273122, -558300.0, -57199.707, 0.048806984, 10.000657, 9.996856 
2.2654052e+3, 2.5885928e+2, -377657.47, -697571.75, 25696.084, 0.13434313, -0.31780726, -375606.66, 27539.701, 0.026684597, 10.001212, 9.99695 
2.265477e+3, 2.6885554e+2, 73591.53, -80099.836, -6294.5576, 0.13664755, -0.61327976, 73848.9, 379025.53, 0.010897145, 10.002161, 10.000073 
2.2655462e+3, 2.7885568e+2, -172937.39, -383203.75, -202996.1, 0.046043016, -0.5572516, -49465.242, 157702.13, 0.002788968, 10.000847, 9.997916 
2.2656192e+3, 2.8885645e+2, -226256.45, -685414.06, 43765.387, -0.0072282963, -0.020726306, -222122.11, -112954.27, 0.0003034348, 10.001271, 9.994932 
2.2656977e+3, 2.98848e+2, 333983.6, 113724.76, 225860.94, 0.38398328, -0.5879734, 475134.2, 486394.2, 0.000074942734, 10.002562, 9.999499 
2.2657661e+3, 3.088482e+2, 495415.47, 308627.88, 40100.8, -0.11246296, -0.58154905, 503660.63, 503660.63, 0.00045627946, 10.003024, 10.000657 
2.2749907e+3, 1.9879642e+2, -777641.9, -795242.56, 29527.91, -0.16962744, -0.5658398, -755630.8, 236113.19, 0.4526298, 10.001561, 10.001278 
2.2750579e+3, 2.0879507e+2, -782077.8, -922569.4, -20243.352, -0.19330451, -0.6661344, -779219.1, 114535.58, 0.38963944, 10.001373, 9.998717 
2.2751264e+3, 2.1879509e+2, -1155470.6, -1158365.5, 33759.17, -0.059106335, -0.5012067, -1123127.9, -327370.88, 0.32267725, 9.99798, 9.998051 
2.2751951e+3, 2.2879319e+2, -1065970.8, -967355.3, -19292.025, -0.04604175, -0.5669962, -963715.56, -265936.28, 0.25840095, 9.99756, 9.998864 
2.275266e+3, 2.3879156e+2, -732095.5, -775336.56, -29741.885, 0.037039835, -0.57501775, -716946.06, -117146.88, 0.20062341, 9.999232, 9.998721 
2.2753386e+3, 2.4879226e+2, -467442.78, -574554.8, 16652.686, 0.23874904, -0.4597221, -464913.53, 36880.613, 0.14660953, 10.000347, 9.998889 
2.2754067e+3, 2.587916e+2, -654695.2, -1005897.8, 10952.974, 0.13893582, -0.22055939, -654353.9, -250552.08, 0.09444842, 10.000097, 9.995336 
2.27548e+3, 2.6878488e+2, -298426.97, -748294.7, 9571.026, 0.20257288, -0.48906454, -298223.44, 7645.1543, 0.04983968, 10.001723, 9.995644 
2.275551e+3, 2.7877828e+2, -335812.4, -582503.0, -276444.9, 0.43569237, -0.7250846, -156443.56, 51490.695, 0.019500945, 10.000304, 9.9967785 
2.2756205e+3, 2.8878015e+2, 58455.52, -40354.066, 69056.86, 0.03808303, -0.38828903, 93960.58, 203878.05, 0.004786881, 10.001077, 9.999439 
2.2756901e+3, 2.9878107e+2, 248220.34, 67973.63, 186682.05, -0.63680863, -0.38825142, 365394.84, 377304.53, 0.0007184054, 10.002087, 9.999369 
2.2757739e+3, 3.087802e+2, -107397.72, -699233.9, -56471.12, 0.35940215, 0.029409742, -102057.6, -102057.6, 0.0007782504, 10.002194, 9.994026 
2.285266e+3, 2.387188e+2, -732828.7, -1076062.4, 204588.88, 0.021408407, -0.47240022, -637408.2, -36894.9, 0.45869297, 9.999992, 9.996664 
2.2853379e+3, 2.4872072e+2, -267089.8, -552917.7, -468369.1, -0.0059621613, -0.00027114394, 79683.93, 582187.06, 0.36361384, 10.003416, 9.998453 
2.2854026e+3, 2.5871286e+2, -764932.7, -882985.25, -473487.2, -0.19508615, -0.4837891, -346806.75, 57775.406, 0.26167566, 9.998451, 9.997116 
2.285479e+3, 2.6871178e+2, -9264.307, -317872.47, 16450.305, -0.0549976, -0.40786803, -8389.903, 298202.9, 0.1640845, 10.002815, 9.998185 
2.2855513e+3, 2.787103e+2, 280509.1, -204219.64, -24451.412, 0.22795254, -0.31562907, 281739.38, 490345.97, 0.0825175, 10.004526, 9.997366 
2.2856247e+3, 2.8870717e+2, 535356.7, -63987.902, 137132.89, 0.1383228, -0.36311582, 565243.06, 675881.3, 0.030766604, 10.005523, 9.997192 
2.2856958e+3, 2.9870647e+2, 363352.75, -99933.914, -168158.53, -0.34698904, -0.2680155, 417953.94, 430600.06, 0.009049617, 10.003728, 9.997481 
2.2857732e+3, 3.0870223e+2, 139818.89, -149779.67, -212651.31, 0.10092781, -0.15591827, 252288.75, 252288.75, 0.003960215, 10.001932, 9.997961 
2.2954834e+3, 2.686338e+2, 104694.39, 326513.78, 10824.644, 0.09805238, -0.6348961, 327040.78, 634411.94, 0.4346357, 10.001243, 10.006674 
2.2955476e+3, 2.7865016e+2, -642852.94, -534603.56, -324359.22, -0.6265209, 0.5237421, -259884.23, -50684.785, 0.25417104, 9.997422, 9.998429 
2.2956301e+3, 2.8863922e+2, -285715.66, -1257779.4, 96589.445, 0.13448861, 0.021508202, -276210.94, -164898.55, 0.12170365, 10.003305, 9.989939 
2.2957109e+3, 2.986276e+2, -354612.28, -928393.06, -270909.16, 0.74095625, -0.24666604, -246917.0, -233482.97, 0.05374803, 10.001008, 9.993001 
2.2957689e+3, 3.0861783e+2, 630635.1, 1352979.8, -78212.57, -0.6050927, -1.0569776, 1361351.3, 1361351.3, 0.030846834, 10.000001, 10.0094385 
2.3056275e+3, 2.8855142e+2, -1021541.25, -166214.45, -279413.4, -0.19566539, -0.5355202, -83027.76, 29158.168, 0.3595969, 9.991546, 10.003529 
2.3057102e+3, 2.98565e+2, 2458044.5, 1721781.4, 244828.23, -0.69200784, 0.07622155, 2532023.3, 2546066.5, 0.21170834, 10.018516, 10.006077 
2.3057693e+3, 3.085614e+2, -1561413.1, -943624.06, 19718.203, -0.038799845, 0.063562274, -942995.4, -942995.4, 0.16199175, 9.989578, 9.998859 
2.3519515e+3, 2.7717173e+2, -1077690.9, -765428.4, 397530.88, 0.12258469, -0.8646697, -494467.38, -270790.3, 0.44774327, 9.994081, 9.998561 
2.3515615e+3, 2.871739e+2, -290055.2, -1077116.0, -804926.9, -0.5140404, 0.40040806, 212390.66, 338057.66, 0.3490504, 10.002668, 9.992206 
2.3511936e+3, 2.9715374e+2, 1152923.8, 482433.66, 580286.94, 0.091823965, -0.9320214, 1487844.5, 1515723.5, 0.2700088, 10.011607, 9.998963 
2.3508425e+3, 3.0716088e+2, -591935.7, -670377.56, 184138.19, 1.4873004, 1.1710014, -442887.8, -442887.8, 0.21410342, 9.998745, 9.995889 
2.3656768e+3, 1.7763783e+2, -1598005.3, -1808737.8, 16843.584, 0.21401605, -0.9046067, -1596667.4, -397594.75, 0.436406, 9.998529, 9.996012 
2.3653027e+3, 1.876288e+2, -497227.72, -976134.56, 254763.94, -0.24213536, -0.7593884, -387049.03, 714123.8, 0.3775988, 10.007506, 9.997146 
2.3649451e+3, 1.9761744e+2, -1575404.5, -1578457.0, 226484.6, 0.80231476, -1.0209107, -1350441.0, -347151.38, 0.33353588, 9.996955, 9.996943 
2.3645554e+3, 2.0761421e+2, -672271.1, -1259286.4, -230807.48, -0.8618553, -0.23917963, -592390.5, 312939.16, 0.30097756, 10.004212, 9.995043 
2.3641838e+3, 2.1760203e+2, -410016.72, -1054181.1, -9935.221, -0.18973017, -0.31286728, -409863.53, 397596.13, 0.27814138, 10.005378, 9.995248 
2.3638238e+3, 2.275906e+2, -148924.67, -649649.2, 244359.94, 1.0372806, -0.39386097, -49439.773, 660135.1, 0.2610385, 10.0058775, 9.997297 
2.3634475e+3, 2.375828e+2, 897105.3, -62859.04, -191286.6, 0.47848675, -0.33055913, 933817.9, 1545468.8, 0.24561378, 10.014216, 9.997673 
2.363073e+3, 2.4757324e+2, 870326.6, -499740.1, -102029.23, 0.663397, -0.086666964, 877883.1, 1391636.4, 0.23007816, 10.015414, 9.992238 
2.3626977e+3, 2.575592e+2, 300365.9, -465632.63, 276633.63, 0.56224936, -0.001943985, 389822.56, 805725.2, 0.20982285, 10.00763, 9.995684 
2.362314e+3, 2.675501e+2, 619860.4, 614160.94, -107097.305, 0.23591143, -0.45255095, 724145.9, 1042135.6, 0.17453703, 10.004508, 10.005261 
2.3619413e+3, 2.7754188e+2, -736027.25, -752256.56, 78474.75, 0.26101854, -0.79422057, -665248.75, -445185.72, 0.124619104, 9.997254, 9.997175 
2.3615627e+3, 2.8753948e+2, 192280.52, 23557.193, -174147.95, 0.0060902764, -0.20214415, 301424.4, 423507.38, 0.081396654, 10.00179, 9.999805 
2.3611902e+3, 2.9754296e+2, 249316.8, 663643.8, 419500.63, -0.44005674, 0.3659361, 924345.1, 948392.56, 0.05430976, 9.999395, 10.005147 
2.360825e+3, 3.0751765e+2, 161530.86, 672204.94, -417176.38, 0.6002432, -1.8078974, 905982.5, 905982.5, 0.03810757, 9.998682, 10.005544 
2.3764302e+3, 1.5802653e+2, -2835948.3, -1451409.0, -325262.94, 0.55187994, -0.894295, -1378804.0, 12470.009, 0.40915865, 9.986696, 10.005599 
2.3760517e+3, 1.680143e+2, -770253.06, -1317080.5, 54079.0, 0.48281, -1.3912458, -764956.2, 528439.8, 0.3191401, 10.006574, 9.996164 
2.3756829e+3, 1.7801268e+2, -474806.3, -1136988.8, 3497.4827, 0.64900714, -0.53359723, -474787.84, 720621.0, 0.25440004, 10.007824, 9.996316 
2.3753074e+3, 1.8800446e+2, -800816.56, -1205685.4, -102659.55, 0.5465551, -0.33848488, -776273.7, 321224.84, 0.20803122, 10.00343, 9.997131 
2.3749319e+3, 1.9799474e+2, -1581360.3, -1532651.3, -118297.164, 0.4763248, -0.36774608, -1436227.6, -436621.88, 0.17323056, 9.99656, 9.997574 
2.3745556e+3, 2.0798402e+2, -1318237.0, -1251344.1, -13094.085, 0.14267176, -0.5774168, -1248872.4, -347164.03, 0.14628343, 9.997251, 9.998476 
2.3741777e+3, 2.1797326e+2, -673255.06, -924002.3, 46011.32, -0.24262753, -0.81525123, -665078.75, 138729.17, 0.1255341, 10.001323, 9.998098 
2.3738033e+3, 2.2796418e+2, -1168281.9, -1339271.5, 96289.64, -0.20879331, -0.7134054, -1125009.3, -419107.88, 0.10829949, 9.998078, 9.996129 
2.3734297e+3, 2.379548e+2, -1783604.3, -1496137.6, 19672.861, -0.0959036, -0.54278713, -1494797.6, -886797.0, 0.09199208, 9.992831, 9.996902 
2.3730537e+3, 2.4794845e+2, -1362240.8, -1055375.1, 86778.87, -0.12849973, -0.29704177, -1032534.9, -522461.72, 0.07586676, 9.994218, 9.998608 
2.372682e+3, 2.5794184e+2, -992870.06, -1052610.5, 238491.56, -0.10461815, 0.043983437, -782385.44, -370236.1, 0.059159193, 9.997173, 9.996465 
2.3723052e+3, 2.679336e+2, -152196.06, -298590.16, -32242.072, 0.016039476, 0.08518342, -145409.63, 168823.9, 0.040411934, 10.0009165, 9.999224 
2.3719336e+3, 2.779233e+2, -132617.9, -442713.66, 252115.56, 0.12492838, -0.07021206, 8310.736, 224644.58, 0.021717196, 10.001558, 9.997111 
2.3715562e+3, 2.879151e+2, -165292.23, 65987.63, 4311.2603, 0.03623288, -0.14151351, 66067.97, 184471.97, 0.00948199, 9.998674, 10.001257 
2.3711824e+3, 2.9791027e+2, -818573.94, 101291.375, 351178.06, 0.017563066, -0.3573928, 220033.14, 240472.5, 0.0043122694, 9.992589, 10.00403 
2.3708132e+3, 3.078997e+2, -147104.1, 118664.68, -318882.5, 0.33922604, -0.75971717, 331242.75, 331242.75, 0.0024811097, 9.99848, 10.001316 
2.3867854e+3, 1.4841187e+2, -1666180.4, -2209942.3, -122267.89, 0.24310933, -0.8126927, -1639952.8, -154448.88, 0.38967857, 10.001192, 9.99393 
2.3864195e+3, 1.584143e+2, -1375432.3, -1921565.9, -121929.95, 0.50342506, 0.6281556, -1349446.5, 38052.684, 0.2783623, 10.002102, 9.994913 
2.3860471e+3, 1.6839956e+2, -1270341.3, -1420984.9, -8466.202, 0.29973465, 0.10102686, -1269867.0, 19771.121, 0.19862524, 10.000463, 9.998379 
2.3856719e+3, 1.7838147e+2, -1516843.3, -1609238.6, -38536.824, -0.104461074, -0.88032246, -1502880.1, -311076.9, 0.1461588, 9.998502, 9.997409 
2.3852925e+3, 1.8837422e+2, -1373305.9, -1536988.0, -121747.234, -0.42266217, -0.6210506, -1308448.8, -214566.73, 0.11113541, 9.999048, 9.99694 
2.3849131e+3, 1.9836923e+2, -1083991.4, -1269680.6, -19929.244, -0.5836058, -0.16460015, -1081876.6, -85933.09, 0.08556882, 9.999914, 9.997753 
2.3845442e+3, 2.0835991e+2, -853917.4, -855573.56, 142400.7, -0.22989586, -0.33555925, -712342.4, 185684.7, 0.065839775, 9.99982, 9.999974 
2.3841766e+3, 2.1834943e+2, -822064.6, -922147.25, -4017.4875, 0.19588396, -0.6837775, -821903.6, -21786.693, 0.050802168, 9.999886, 9.99879 
2.3838022e+3, 2.28341e+2, -792842.4, -1070894.0, -105271.484, 0.42796248, -0.6120213, -757482.8, -55279.887, 0.038884565, 10.000367, 9.996831 
2.3834266e+3, 2.3833227e+2, -710412.25, -990372.9, -22778.348, 0.6103465, -0.4273659, -708571.06, -104273.71, 0.028499383, 10.000308, 9.996759 
2.3830493e+3, 2.4832374e+2, -375154.34, -450186.66, 133563.08, 0.3760443, -0.4769119, -273938.53, 232452.48, 0.019239577, 10.000521, 9.999715 
2.3826756e+3, 2.583143e+2, -616572.4, -849090.8, 220222.06, 0.07735337, -0.5506092, -483805.53, -75311.74, 0.011432521, 9.999716, 9.996638 
2.3822996e+3, 2.683094e+2, -289251.7, -534964.4, -22266.137, 0.032010876, -0.075406544, -287250.25, 23298.395, 0.005416997, 10.000811, 9.99758 
2.381926e+3, 2.783045e+2, -382259.22, -455910.63, 112347.52, -0.052455902, 0.34342778, -300855.9, -88254.3, 0.001679893, 9.999346, 9.998095 
2.3815475e+3, 2.882908e+2, -2667.575, 264715.9, -207457.61, -0.025921516, -0.39223337, 377828.03, 492548.7, 0.00032890253, 9.99923, 10.00239 
2.381175e+3, 2.9828173e+2, -593671.4, -154881.27, 107075.86, 0.50965345, -1.0281411, -130146.38, -113354.26, 0.00010137075, 9.995546, 10.000951 
2.3808035e+3, 3.0828708e+2, -320088.47, -512902.25, 96944.02, 0.0077598025, 0.6282669, -279775.1, -279775.1, 0.00014147161, 9.999511, 9.996586 
2.3971455e+3, 1.3878912e+2, -982988.44, -2629254.3, 14949.422, 0.34995297, -0.44835135, -982852.7, 596964.8, 0.42781976, 10.013433, 9.985853 
2.3967773e+3, 1.4877766e+2, -1365075.0, -1520908.9, -107621.24, -0.07878976, -0.4936834, -1310126.0, 171814.25, 0.2998544, 10.00126, 9.9988165 
2.3964123e+3, 1.5876965e+2, -1144142.5, -1352086.4, -66000.64, 0.22247528, -0.49298862, -1124963.1, 259060.42, 0.19614406, 10.002005, 9.9989605 
2.3960401e+3, 1.6876294e+2, -1070042.4, -1068020.1, -93129.32, 0.19747196, -0.5355492, -975896.44, 310186.0, 0.12585048, 10.000702, 10.000974 
2.3956658e+3, 1.7875609e+2, -1275377.8, -1227333.6, -83148.91, 0.07838104, -0.623113, -1164806.4, 23334.059, 0.083471425, 9.998943, 9.999854 
2.39529e+3, 1.8875071e+2, -1144931.8, -1240982.1, -85559.266, 0.09295496, -0.38401002, -1094840.6, -4642.1714, 0.057587944, 9.999761, 9.998652 
2.394914e+3, 1.9874524e+2, -872672.1, -1075362.3, 27055.303, 0.13488112, -0.108925655, -869122.9, 123137.52, 0.03970386, 10.001004, 9.998551 
2.3945418e+3, 2.0873532e+2, -816944.25, -960791.9, 125205.875, 0.17772907, -0.28980288, -744474.4, 149877.8, 0.026570952, 10.000617, 9.998815 
2.3941702e+3, 2.1872424e+2, -789145.0, -935086.3, 21029.154, 0.22572832, -0.5689141, -786175.25, 10276.832, 0.017417854, 10.00027, 9.998493 
2.3937939e+3, 2.287151e+2, -496727.25, -762474.44, -60054.676, 0.15389605, -0.6491898, -483786.03, 214755.23, 0.011141793, 10.001723, 9.998293 
2.3934172e+3, 2.3870575e+2, -157956.1, -597300.0, 31110.537, 0.08332731, -0.6535965, -155764.05, 444871.53, 0.0065593217, 10.00361, 9.997831 
2.393043e+3, 2.4869958e+2, 41790.92, -245999.33, 104117.375, 0.148176, -0.49888998, 75508.39, 578211.44, 0.0032030866, 10.00341, 9.999676 
2.3926717e+3, 2.5869337e+2, -309568.75, -642015.0, 185134.47, 0.22963062, -0.2730828, -226984.92, 177786.38, 0.0011282732, 10.001626, 9.997086 
2.3922935e+3, 2.6868454e+2, -429420.38, -660778.7, 2239.8098, 0.057154667, -0.15251483, -429398.7, -122535.81, 0.00023273825, 10.000193, 9.996963 
2.3919162e+3, 2.786746e+2, -570079.75, -452334.66, 78410.31, -0.20320764, -0.21044737, -413155.4, -204192.42, 0.000018051116, 9.997726, 9.998828 
2.3915413e+3, 2.8866288e+2, -246330.67, 57910.434, -171604.03, 0.19838719, -0.73433524, 135111.94, 246176.17, 0.000004039042, 9.997986, 10.001523 
2.3911726e+3, 2.9865718e+2, -264487.0, -248129.53, 111092.46, 1.1636642, -0.81704915, -144915.14, -131810.22, 0.000013542408, 9.998844, 9.998716 
2.3907942e+3, 3.0865222e+2, 150984.55, -225785.23, 117942.016, -0.31071714, -0.04921991, 184858.94, 184858.94, 0.00005303312, 10.002435, 9.997176 
2.40752e+3, 1.2916137e+2, -1756336.4, -1651383.4, -22882.422, 0.39692628, -0.11643426, -1646611.4, 27569.902, 0.4904267, 9.998975, 10.000241 
2.407142e+3, 1.3915426e+2, -1462137.4, -1455017.1, -8123.026, 0.0399636, -0.22263077, -1449708.3, 126546.59, 0.36336082, 10.000437, 10.000679 
2.4067734e+3, 1.4914633e+2, -1399689.0, -1288869.8, 144782.53, 0.14591527, -0.5034026, -1189256.1, 289074.97, 0.24041095, 9.999629, 10.001434 
2.406406e+3, 1.5913825e+2, -1549767.6, -1320488.9, 120262.62, 0.28228095, -0.76822275, -1268979.9, 111428.08, 0.14389461, 9.997844, 10.001163 
2.4060327e+3, 1.6913472e+2, -1374832.5, -1105084.1, 43923.68, 0.20679843, -0.6017979, -1098112.1, 184325.88, 0.08188297, 9.99801, 10.001888 
2.4056585e+3, 1.7913152e+2, -1323324.5, -1177330.4, -13323.018, 0.15417098, -0.395603, -1176124.5, 8340.1455, 0.047678713, 9.99833, 10.000498 
2.4052845e+3, 1.8912472e+2, -1095738.6, -1143323.6, -42485.715, 0.25243026, -0.35995165, -1070837.0, 15695.988, 0.028905774, 9.999842, 9.9992695 
2.4049103e+3, 1.9911748e+2, -880456.9, -1097055.0, -44938.83, 0.3495395, -0.31431, -871503.3, 117104.164, 0.017015342, 10.001067, 9.998365 
2.4045362e+3, 2.0910884e+2, -837640.25, -1045142.7, 24783.287, 0.20917958, -0.32414556, -834721.3, 55970.906, 0.00915297, 10.000797, 9.998149 
2.4041618e+3, 2.1909921e+2, -865152.44, -1009014.44, -35936.176, 0.07340206, -0.40259483, -856675.2, -63890.19, 0.0045936005, 9.999937, 9.998155 
2.4037856e+3, 2.2908981e+2, -692976.8, -739100.3, -62380.25, -0.055895846, -0.5830153, -649531.9, 45342.45, 0.0022051786, 9.999862, 9.999352 
2.40341e+3, 2.3908e+2, -665629.06, -760386.7, 4221.1255, -0.17624016, -0.7550924, -665441.4, -68473.13, 0.0009056362, 9.999771, 9.998575 
2.4030371e+3, 2.490759e+2, -280664.63, -358273.47, 19147.951, 0.008999761, -0.45156196, -276197.5, 222814.67, 0.00023937336, 10.001089, 9.999974 
2.4026665e+3, 2.59072e+2, -394840.53, -673350.8, 40856.7, 0.2573001, -0.0618905, -388970.66, 12084.721, 0.000025130046, 10.001014, 9.997174 
2.4022874e+3, 2.6906005e+2, -163022.3, -579365.8, -106971.516, 0.03605326, -0.22612901, -137146.23, 166029.75, 0.00000030344088, 10.002247, 9.9965315 
2.4019079e+3, 2.790468e+2, -51017.723, -228382.7, -83187.58, -0.26179165, -0.6231432, -18107.627, 187199.7, 0.000000006555133, 10.001358, 9.998672 
2.4015361e+3, 2.8903806e+2, 324813.25, 207963.16, -211870.92, 0.4101648, -0.8145517, 486167.13, 593550.0, 0.00000087941476, 10.002453, 10.000414 
2.4011679e+3, 2.9903328e+2, -11646.769, -380928.84, 97904.805, 1.2875335, -0.59139204, 12704.212, 22121.77, 0.0000071974287, 10.001664, 9.996471 
2.4007873e+3, 3.0901927e+2, -226924.38, -335143.1, 415772.8, -0.63742393, -0.7082737, 138245.22, 138245.22, 0.000033846587, 9.999476, 9.997856 
2.4175076e+3, 1.2953177e+2, -1635908.3, -1564115.3, 25655.262, -0.010824461, -0.2836007, -1555889.8, 114672.93, 0.44509977, 9.999519, 10.001094 
2.4171409e+3, 1.3952394e+2, -1351956.6, -1354989.5, 44875.242, 0.5203593, -0.47994018, -1308572.1, 264061.13, 0.31930807, 10.001147, 10.001295 
2.4167708e+3, 1.4951979e+2, -1282932.0, -1123786.9, 92707.555, 0.5690392, -0.46112075, -1081185.4, 393480.94, 0.20041417, 9.999993, 10.002584 
2.4163994e+3, 1.5951562e+2, -1440220.3, -1187301.9, 74038.91, 0.46613392, -0.42763075, -1167222.1, 209478.23, 0.110025235, 9.998213, 10.001942 
2.4160244e+3, 1.6951154e+2, -1317413.0, -1084032.3, 28981.719, 0.25542188, -0.34279838, -1080487.1, 198252.86, 0.054970514, 9.99845, 10.001774 
2.4156491e+3, 1.795064e+2, -1258715.8, -1185661.8, 12944.189, 0.054582894, -0.3033886, -1183436.0, -2645.8098, 0.027314784, 9.998923, 10.0001545 
2.4152751e+3, 1.8949564e+2, -1065535.8, -1198072.3, 8421.824, 0.002406498, -0.6114946, -1065002.8, 17889.227, 0.013986388, 10.000316, 9.998679 
2.4149011e+3, 1.9948457e+2, -816173.1, -1104775.3, -12030.395, -0.045715954, -0.8768512, -815672.5, 169325.42, 0.006556314, 10.001633, 9.998044 
2.4145263e+3, 2.0947897e+2, -791345.4, -1049674.1, -17859.596, -0.16580321, -0.55717975, -790116.5, 96945.17, 0.002469395, 10.001222, 9.997923 
2.4141523e+3, 2.1947354e+2, -733537.9, -890564.25, -49481.14, -0.26063576, -0.19993833, -719246.44, 69877.23, 0.00078321603, 10.000562, 9.998673 
2.4137788e+3, 2.2946551e+2, -598094.9, -584257.5, -75778.34, -0.06281692, -0.32790053, -515082.7, 176116.47, 0.00023610769, 10.000007, 10.000352 
2.4134058e+3, 2.3945667e+2, -641301.06, -647806.1, 34386.57, 0.12208379, -0.50433, -610013.56, -16732.373, 0.000047296035, 9.999488, 9.9994755 
2.4130318e+3, 2.4945036e+2, -400389.66, -434622.28, 60726.88, 0.08358526, -0.4263307, -354413.03, 140931.27, 0.0000020598873, 10.000347, 9.999815 
2.412659e+3, 2.59444e+2, -361449.78, -608916.56, 62360.824, 0.056202743, -0.28332463, -346623.34, 50786.543, 0.0, 10.001032, 9.997588 
2.4122852e+3, 2.6943362e+2, -137203.45, -589338.6, -51305.19, 0.22789663, -0.28150934, -131454.78, 168062.89, 0.0, 10.002563, 9.996285 
2.4119101e+3, 2.794229e+2, 230497.1, -205276.36, -86745.766, 0.3221936, -0.3687789, 247129.98, 448758.63, 0.0, 10.003719, 9.997706 
2.41153e+3, 2.8941396e+2, 519432.72, 49923.047, -286356.66, 0.08494686, -0.3970229, 654961.5, 758677.0, 0.0000001537889, 10.004801, 9.998244 
2.4111536e+3, 2.994078e+2, 565215.5, 14979.436, -103963.14, 0.073240034, -0.14761207, 584203.3, 589974.94, 0.000003139397, 10.005057, 9.99756 
2.4107878e+3, 3.0939445e+2, -112910.664, 256496.77, 153245.19, 0.27755597, -0.60899556, 311792.13, 311792.13, 0.000017110242, 9.997946, 10.002638 
2.4275069e+3, 1.2990755e+2, -1333496.8, -1586355.5, 141199.19, 0.35867652, -0.32572818, -1270396.3, 396484.47, 0.4141129, 10.004201, 9.998487 
2.427136e+3, 1.398992e+2, -1347338.0, -1484080.5, 41139.51, 0.55375963, -0.36446017, -1335915.1, 233046.13, 0.28877336, 10.001969, 9.9995 
2.4267635e+3, 1.4989355e+2, -1402567.4, -1252372.0, 10374.292, 0.550962, -0.3797429, -1251658.8, 219349.03, 0.17287979, 9.999349, 10.001735 
2.4263902e+3, 1.598884e+2, -1669873.0, -1381718.5, -61089.813, 0.46263775, -0.3711101, -1369302.3, 3747.5989, 0.08747846, 9.99701, 10.001069 
2.4260159e+3, 1.6988362e+2, -1479959.1, -1212394.1, -84566.69, 0.27289176, -0.3069878, -1187906.9, 87190.8, 0.038149297, 9.997578, 10.001255 
2.4256416e+3, 1.7987816e+2, -1360231.1, -1277705.8, -115640.25, 0.09402127, -0.27161655, -1196187.0, -19034.209, 0.01570925, 9.998447, 9.999733 
2.4252675e+3, 1.8986738e+2, -1135689.5, -1232580.0, -79233.78, -0.069972575, -0.5937781, -1091264.3, -12011.967, 0.0064830934, 9.999836, 9.998671 
2.424894e+3, 1.9985615e+2, -982613.6, -1184664.6, -106278.36, -0.19419976, -0.88853925, -937006.1, 44350.8, 0.0021827125, 10.000519, 9.99803 
2.424519e+3, 2.0985085e+2, -955107.4, -1080748.8, -88732.69, -0.28775024, -0.5828134, -909208.56, -25789.898, 0.00044835047, 9.999915, 9.998326 
2.4241446e+3, 2.198463e+2, -965781.7, -952449.94, -63716.098, -0.31744996, -0.19256346, -895052.0, -109577.89, 0.000068581576, 9.99881, 9.999084 
2.4237725e+3, 2.2983994e+2, -560631.6, -483479.88, -90276.7, 0.00496681, -0.21787219, -423882.5, 263650.88, 0.0000096515805, 10.000017, 10.000995 
2.4234009e+3, 2.398325e+2, -483541.03, -584628.75, -29531.875, 0.33523387, -0.32074597, -475545.9, 114055.55, 0.00000040342232, 10.000686, 9.999326 
2.4230257e+3, 2.4982414e+2, -412601.47, -512999.53, -30187.887, 0.114076465, -0.4068679, -404223.6, 87460.4, 0.0, 10.0006275, 9.999118 
2.422651e+3, 2.5981566e+2, -574171.25, -717900.1, -66069.13, -0.10656308, -0.4511085, -548415.9, -154646.42, 0.0, 9.999638, 9.997523 
2.4222812e+3, 2.6980737e+2, -331112.94, -601024.3, -49851.6, 0.32798687, -0.32360166, -322199.88, -26341.795, 0.0, 10.000927, 9.996968 
2.4219102e+3, 2.79799e+2, -241824.52, -597894.9, -38070.35, 0.67889106, -0.17697068, -237799.61, -39851.684, 0.0, 10.001208, 9.996234 
2.4215232e+3, 2.8978947e+2, -87705.74, -485329.1, -104834.27, -0.30132988, -0.042953555, -61759.086, 38289.563, 0.0000000009564638, 10.001706, 9.99605 
2.4211414e+3, 2.9978123e+2, 26085.973, -94616.95, 35844.434, -0.92624825, 0.1176247, 35927.973, 38058.91, 0.0000004799063, 10.000723, 9.998919 
2.4207854e+3, 3.0977193e+2, 474850.53, 878955.0, -237980.3, 0.76715237, -0.353725, 989088.2, 989088.2, 0.0000055147566, 10.000424, 10.005784 
2.4375075e+3, 1.3028874e+2, -1573120.9, -2176737.8, 60772.688, 0.6547029, 0.016289687, -1567063.1, 96079.266, 0.39271495, 10.003271, 9.994512 
2.4371289e+3, 1.4027582e+2, -1499415.6, -1812020.8, -6400.9263, 0.29354104, -0.10678897, -1499284.6, 65993.54, 0.26710206, 10.001571, 9.997211 
2.4367537e+3, 1.5026616e+2, -1420115.8, -1399059.4, -51173.48, 0.28665352, -0.355107, -1357342.4, 110023.12, 0.15331793, 9.999889, 10.0002575 
2.4363789e+3, 1.6025764e+2, -1601424.1, -1467821.3, -41325.996, 0.29049447, -0.53180236, -1456071.6, -86630.75, 0.07196278, 9.997984, 10.000011 
2.4360068e+3, 1.7025256e+2, -1410554.3, -1273899.4, -22623.033, 0.26818347, -0.4031461, -1270251.5, 1240.8262, 0.027363949, 9.99844, 10.000419 
2.4356347e+3, 1.8024753e+2, -1263431.0, -1236744.6, -49483.133, 0.1953272, -0.25046888, -1198837.3, -25293.748, 0.009079448, 9.999143, 9.999665 
2.4352619e+3, 1.9024025e+2, -1046015.6, -1124678.4, -30406.021, 0.026627302, -0.25362313, -1035633.0, 39977.055, 0.002868925, 10.000183, 9.999236 
2.434889e+3, 2.0023213e+2, -818598.2, -970444.3, -100639.266, -0.122746065, -0.30181167, -768455.5, 209229.58, 0.00059867656, 10.001041, 9.999248 
2.4345139e+3, 2.1022418e+2, -837024.3, -870199.44, -129837.664, -0.09471391, -0.39383852, -722718.94, 157046.77, 0.000045539302, 10.000038, 9.999721 
2.4341397e+3, 2.2021665e+2, -869988.9, -805708.7, -40736.094, -0.03337918, -0.4247186, -785960.25, -4117.3335, 0.0000022398012, 9.999013, 9.999982 
2.4337676e+3, 2.3021124e+2, -523246.97, -476660.4, -21956.387, 0.18160509, -0.3618475, -467943.38, 215950.53, 0.000000052409952, 10.000314, 10.0009 
2.433396e+3, 2.4020523e+2, -405310.56, -598593.6, -16876.709, 0.36568597, -0.30073413, -403848.03, 182102.9, 0.0, 10.001438, 9.998857 
2.4330196e+3, 2.5019577e+2, -536538.56, -747753.25, -85746.555, 0.13759978, -0.35877773, -506111.4, -18064.438, 0.0, 10.000522, 9.997564 
2.4326438e+3, 2.6018637e+2, -526939.1, -573615.4, -99773.48, -0.11300942, -0.4024304, -447810.6, -57667.836, 0.0, 9.99941, 9.998614 
2.432272e+3, 2.7017987e+2, -223459.58, -246754.42, -37213.57, 0.056348074, -0.32840478, -196113.25, 96095.32, 0.0, 10.000307, 9.99973 
2.4319002e+3, 2.8017354e+2, -56345.97, -223909.28, -10681.504, 0.27503982, -0.22553831, -55667.81, 138605.13, 0.0, 10.001191, 9.998819 
2.4315198e+3, 2.9016554e+2, -37121.59, -232027.27, 7464.717, -0.025906198, -0.14632104, -36836.117, 59518.426, 0.0, 10.001007, 9.998149 
2.431142e+3, 3.0015692e+2, -53454.74, -221048.05, 270711.97, -0.1922297, -0.14096388, 146133.23, 146133.23, 0.000000008678429, 10.00053, 9.998141 
2.4307764e+3, 3.1014588e+2, 416398.22, 192150.95, -325742.3, 0.36604416, -0.36311132, 648773.9, 648773.9, 0.0000009202062, 10.002715, 10.000032 
2.4478653e+3, 1.2066323e+2, -1803756.6, -2396194.0, 165840.17, -0.11575064, -0.6461793, -1760492.6, -3028.3625, 0.49454167, 10.002018, 9.994321 
2.447499e+3, 1.3066031e+2, -1826365.1, -1865236.0, -191200.02, 0.42250228, -0.084649354, -1653615.3, 5886.8667, 0.3775347, 9.999201, 9.998642 
2.4471228e+3, 1.4065173e+2, -1712455.5, -1703398.5, 82933.195, 0.37653974, -0.13079712, -1624870.3, -63281.305, 0.25111946, 9.998963, 9.999237 
2.4467473e+3, 1.5064286e+2, -1302975.6, -1356695.9, 122466.31, 0.31522787, -0.33300823, -1204458.5, 259211.64, 0.13882844, 10.000881, 10.000109 
2.4463725e+3, 1.6063389e+2, -1089503.1, -1335844.6, 208447.92, 0.30131245, -0.48824036, -970554.94, 395197.5, 0.060861234, 10.0022, 9.998904 
2.4460003e+3, 1.7062661e+2, -966270.0, -1242064.6, 214587.88, 0.22537433, -0.4050585, -849091.56, 418734.9, 0.02025213, 10.002415, 9.998691 
2.4456282e+3, 1.806196e+2, -921447.4, -1180814.4, 131742.84, 0.15382302, -0.28218058, -866268.8, 303629.25, 0.0052852775, 10.001988, 9.998682 
2.4452564e+3, 1.9061251e+2, -971063.44, -1097548.5, 115001.75, 0.09711293, -0.22626808, -903061.9, 168903.38, 0.0012089658, 10.000757, 9.999145 
2.444884e+3, 2.0060524e+2, -1070374.0, -1083306.8, -24205.438, 0.056620225, -0.17824426, -1051786.0, -77752.08, 0.00012403581, 9.999326, 9.9992895 
2.4445076e+3, 2.1059693e+2, -971857.3, -897512.0, -147568.56, 0.009741592, -0.3311314, -782506.2, 93609.945, 0.000001917801, 9.999015, 9.999991 
2.4441321e+3, 2.2058868e+2, -965780.1, -877334.8, -93390.76, 0.031301342, -0.46179557, -818225.56, -40027.777, 0.000000018702426, 9.998518, 9.999714 
2.443761e+3, 2.3058318e+2, -643067.9, -588403.3, -60376.324, 0.19489768, -0.3807974, -549460.75, 130790.42, 0.0, 9.999732, 10.000407 
2.4433896e+3, 2.4057719e+2, -587592.44, -747650.0, -103835.02, 0.32539016, -0.28572732, -536524.6, 45784.934, 0.0, 10.000465, 9.998309 
2.4430135e+3, 2.505677e+2, -441750.4, -718639.3, -76642.914, 0.12969713, -0.3344407, -421951.34, 62453.844, 0.0, 10.001279, 9.997379 
2.4426372e+3, 2.6055852e+2, -271096.28, -412608.06, 5805.485, -0.109531745, -0.35814267, -270858.53, 115640.15, 0.0, 10.00101, 9.998965 
2.4422629e+3, 2.7055287e+2, -126434.18, -42288.44, -8969.347, -0.20598957, -0.30493417, -41342.992, 247209.84, 0.0, 10.000292, 10.001143 
2.4418901e+3, 2.8054753e+2, -221576.0, -144982.11, -121934.89, -0.13702916, -0.26946843, -55471.484, 135133.17, 0.0, 9.999382, 10.000253 
2.4415168e+3, 2.905409e+2, 145360.02, 54818.387, -202148.55, 0.258234, -0.2575829, 307244.9, 399915.84, 0.0, 10.001437, 9.999904 
2.4411426e+3, 3.005328e+2, -44398.4, -421806.2, 22245.58, 0.3692844, -0.30812755, -43091.7, -43091.7, 0.0, 10.001482, 9.996326 
2.4407652e+3, 3.1051654e+2, -45670.242, -521370.0, -19750.027, -0.40281045, -0.71664953, -44851.67, -44851.67, 0.00000009975268, 10.00183, 9.9954815 
2.4578708e+3, 1.2103413e+2, -1578505.5, -1458532.5, -6742.9204, 0.8436165, 0.18701796, -1458154.6, 295696.1, 0.48539782, 10.0002985, 10.003465 
2.4574883e+3, 1.3102712e+2, -1412442.1, -1064166.5, -95604.11, 0.08077048, -0.45887876, -1039648.56, 616259.9, 0.36593348, 9.999201, 10.006481 
2.457117e+3, 1.4102766e+2, -1435839.3, -1243614.3, 76448.055, 0.51906055, -0.2445008, -1216918.3, 340974.84, 0.23856215, 9.999396, 10.002839 
2.456743e+3, 1.510219e+2, -1227857.6, -1260724.5, 146521.58, 0.45253256, -0.2605473, -1096850.8, 363094.4, 0.1275105, 10.001156, 10.0007105 
2.456369e+3, 1.6101426e+2, -1104741.8, -1450797.4, 213810.72, 0.34927946, -0.29942438, -1002717.5, 359300.0, 0.052560914, 10.00254, 9.997921 
2.455995e+3, 1.7100346e+2, -1093356.5, -1565314.6, 200373.5, 0.11693253, -0.36220014, -1019762.2, 244364.08, 0.01541553, 10.002627, 9.996364 
2.4556215e+3, 1.809927e+2, -954535.7, -1322109.0, 101238.89, -0.05372988, -0.41045, -928496.6, 237738.28, 0.0031067657, 10.002279, 9.997571 
2.4552509e+3, 1.9098333e+2, -973685.56, -1154102.3, 65527.305, 0.15533079, -0.514861, -952397.8, 115928.51, 0.00048131414, 10.000959, 9.998667 
2.4548791e+3, 2.0097472e+2, -1066403.8, -1152807.6, -51077.926, 0.28491768, -0.5438792, -1042707.5, -72296.61, 0.000015932997, 9.999642, 9.998647 
2.4544995e+3, 2.109686e+2, -1028748.0, -1047669.3, -165310.67, -0.02159794, -0.37344617, -872627.5, -151.99031, 0.0000000054715246, 9.999136, 9.998905 
2.4541216e+3, 2.209622e+2, -947517.6, -935897.6, -78128.87, -0.2471613, -0.21721052, -863363.06, -88820.84, 0.0, 9.998904, 9.999129 
2.4537517e+3, 2.3095489e+2, -699019.44, -713284.44, -38684.45, -0.011595625, -0.23312946, -666815.44, 9799.581, 0.0, 9.999732, 9.999574 
2.4533823e+3, 2.4094735e+2, -476062.88, -532997.1, -85693.8, 0.1968323, -0.2632987, -414231.6, 164456.75, 0.0, 10.000495, 9.999774 
2.4530078e+3, 2.509399e+2, -209629.4, -306210.47, -30532.799, 0.0850736, -0.34665325, -200786.52, 279971.06, 0.0, 10.001549, 10.000102 
2.4526326e+3, 2.6093245e+2, -100381.39, -295217.53, 6959.5864, -0.07552335, -0.38423532, -100133.11, 282695.13, 0.0, 10.001967, 9.999325 
2.4522565e+3, 2.7092513e+2, -290414.28, -355051.34, -96790.0, -0.16804338, -0.34768283, -220689.72, 64213.426, 0.0, 10.000103, 9.999117 
2.451882e+3, 2.809181e+2, -390512.03, -431410.97, -166146.42, -0.14669852, -0.2785689, -243561.34, -56584.055, 0.0, 9.999042, 9.998455 
2.45151e+3, 2.9091144e+2, 90622.195, -195029.98, -267076.3, 0.08845459, -0.09006152, 250664.14, 339716.84, 0.0, 10.00194, 9.997969 
2.4511385e+3, 3.0090407e+2, 403391.34, -113559.06, -221756.81, 0.2784616, 0.04711007, 485482.6, 485482.6, 0.0, 10.004052, 9.997221 
2.4507658e+3, 3.1089365e+2, 371889.53, 144422.84, -99451.79, 0.13117146, -0.035761725, 409238.72, 409238.72, 0.000000000000427524, 10.002688, 9.999607 
2.4678598e+3, 1.21408805e+2, -1999395.1, -1482289.4, 271655.88, 0.6661961, -0.063447244, -1365813.6, 384353.9, 0.47722325, 9.995592, 10.005712 
2.4674782e+3, 1.3139963e+2, -1655100.6, -1301691.6, 51646.05, -0.04578642, -0.77211607, -1294298.9, 357946.13, 0.3557266, 9.997466, 10.004682 
2.4671096e+3, 1.4139941e+2, -1529816.3, -1381636.5, -5535.04, 0.55932283, -0.47024316, -1381430.0, 172809.36, 0.22774403, 9.999073, 10.001731 
2.4667369e+3, 1.5139492e+2, -1309565.9, -1335277.5, -12262.781, 0.44617587, -0.3308439, -1304655.3, 151630.05, 0.11809006, 10.000699, 10.000319 
2.466364e+3, 1.6138853e+2, -1212643.6, -1510515.5, -33993.152, 0.34026212, -0.24318153, -1208813.6, 149535.97, 0.04605504, 10.001767, 9.997867 
2.465991e+3, 1.7137764e+2, -1270917.6, -1624729.4, 41557.15, 0.19810483, -0.36460677, -1266102.1, -5644.649, 0.012013259, 10.001274, 9.996614 
2.4656177e+3, 1.813666e+2, -1225739.4, -1463391.8, 59584.08, 0.09767955, -0.4614674, -1211637.4, -49070.285, 0.0018483637, 10.00049, 9.997458 
2.4652456e+3, 1.9135725e+2, -1064881.6, -1231658.6, 43150.613, 0.23099299, -0.54627484, -1054378.5, 10281.714, 0.00018026956, 10.000507, 9.998341 
2.4648726e+3, 2.0134842e+2, -966938.7, -1167691.0, -21198.344, 0.32215187, -0.5578888, -964724.7, 2023.9545, 0.0000007906511, 10.000646, 9.998059 
2.4644932e+3, 2.1134187e+2, -553135.75, -880877.56, -57601.953, -0.019544844, -0.378359, -543306.75, 325509.44, 0.0, 10.002704, 9.998328 
2.4641152e+3, 2.2133513e+2, -361710.38, -765539.56, 29675.076, -0.28134888, -0.18209878, -359541.38, 411344.78, 0.0, 10.003451, 9.998109 
2.4637449e+3, 2.3132664e+2, -520671.16, -724946.25, 50227.773, -0.085887544, -0.22228056, -508989.06, 163983.77, 0.0, 10.001451, 9.998626 
2.4633747e+3, 2.413185e+2, -636118.7, -589371.44, -8392.91, 0.10886392, -0.257793, -587910.3, -12856.323, 0.0, 9.999357, 9.999929 
2.463001e+3, 2.5131238e+2, -378646.13, -252324.06, -48142.145, 0.019256923, -0.3122478, -236068.6, 241039.14, 0.0, 9.999805, 10.001318 
2.462627e+3, 2.6130572e+2, -464926.66, -528280.75, -156324.58, -0.08126615, -0.35393554, -337101.94, 42066.254, 0.0, 9.999722, 9.998821 
2.4622507e+3, 2.7129704e+2, -428994.0, -559057.56, -181941.45, -0.079976864, -0.3775151, -300811.3, -19552.852, 0.0, 9.999757, 9.997871 
2.4618755e+3, 2.812889e+2, -464794.38, -653614.25, -42029.074, -0.075876795, -0.27147374, -455861.78, -272515.8, 0.0, 9.9993725, 9.996778 
2.461502e+3, 2.9128173e+2, -154944.06, -504509.72, 15554.148, -0.23036529, 0.030255951, -154253.33, -68821.75, 0.0, 10.001083, 9.996264 
2.4611333e+3, 3.0127326e+2, -59506.516, -386933.38, -22326.498, 0.06598316, 0.23597902, -57991.137, -57991.137, 0.0, 10.001152, 9.996743 
2.4607673e+3, 3.112682e+2, 152986.22, 346731.63, -39119.227, 0.68310297, 0.5456716, 354332.03, 354332.03, 0.0, 9.999985, 10.0022545 
2.4778454e+3, 1.21787034e+2, -1833882.9, -1467415.9, 153636.81, 0.25698042, -0.40627658, -1411528.5, 334910.84, 0.4678463, 9.997034, 10.004832 
2.477468e+3, 1.3177425e+2, -1922275.1, -1877676.9, 92293.875, -0.15618941, -0.98563766, -1805026.5, -156469.27, 0.34520847, 9.998401, 9.9989195 
2.4771018e+3, 1.4176853e+2, -1638891.6, -1681838.0, 59705.934, 0.50516343, -0.7580153, -1596914.9, -46301.688, 0.21743059, 9.999539, 9.999096 
2.47673e+3, 1.5176424e+2, -1305273.5, -1412723.5, 52781.094, 0.33259672, -0.4753326, -1283684.4, 168980.55, 0.109704144, 10.001123, 9.9994955 
2.4763584e+3, 1.6175884e+2, -1083151.4, -1317290.1, -15940.921, 0.24079178, -0.2638184, -1082071.1, 272653.88, 0.040704507, 10.002126, 9.999026 
2.4759875e+3, 1.7174979e+2, -1079249.1, -1289091.0, 14689.138, 0.41036326, -0.39328805, -1078225.9, 178585.84, 0.00953522, 10.00154, 9.998798 
2.4756154e+3, 1.8174092e+2, -1099555.9, -1303301.6, 48058.926, 0.46948364, -0.44474888, -1088788.9, 70108.945, 0.0011160366, 10.000908, 9.998359 
2.47524e+3, 1.9173387e+2, -1027376.25, -1224958.8, 43620.063, 0.27843383, -0.3041002, -1018174.8, 42796.242, 0.00006263998, 10.0007925, 9.998259 
2.474865e+3, 2.0172611e+2, -875199.06, -1078508.0, 39770.516, 0.1233696, -0.21074836, -867696.2, 95353.24, 0.0000000031066179, 10.001084, 9.998453 
2.4744904e+3, 2.1171632e+2, -456893.9, -805003.0, 36756.77, 0.07543291, -0.37395963, -453055.1, 412086.28, 0.0, 10.003213, 9.998628 
2.4741158e+3, 2.2170675e+2, -259223.25, -743703.3, 17282.666, 0.018374657, -0.46238193, -258607.52, 508626.44, 0.0, 10.004238, 9.997891 
2.473741e+3, 2.316982e+2, -538591.6, -839880.5, -33194.945, 0.037217494, -0.41674256, -534977.7, 134346.42, 0.0, 10.001747, 9.997722 
2.473367e+3, 2.4169026e+2, -661589.2, -713552.9, -23017.975, 0.046248473, -0.327364, -652859.6, -81452.33, 0.0, 9.999619, 9.998962 
2.4729931e+3, 2.5168413e+2, -521197.4, -499585.72, -58618.78, -0.054680377, -0.22775693, -450785.13, 22683.21, 0.0, 9.999569, 9.999749 
2.4726194e+3, 2.6167762e+2, -408733.78, -417300.6, -179939.44, -0.10267306, -0.16711392, -233026.77, 142505.05, 0.0, 9.999704, 9.99959 
2.4722451e+3, 2.7166983e+2, -259146.69, -300530.8, -175705.4, 0.06733472, -0.24137321, -102919.13, 174686.92, 0.0, 10.000104, 9.999511 
2.4718703e+3, 2.8166214e+2, -187509.31, -345885.28, 19625.926, 0.07245897, -0.23880672, -185113.5, -5432.2446, 0.0, 10.000492, 9.998349 
2.471494e+3, 2.9165256e+2, -85498.33, -343918.84, 120169.88, -0.43691114, -0.2973403, -38254.37, 43525.48, 0.0, 10.000945, 9.997472 
2.4711254e+3, 3.0164167e+2, -102486.836, -504024.63, 126344.99, -0.14665611, -0.36341512, -66040.2, -66040.2, 0.0, 10.00118, 9.995968 
2.4707563e+3, 3.1163475e+2, 110326.32, 73818.78, -22024.701, 0.2599655, -0.0030420076, 120678.28, 120678.28, 0.0, 10.0006, 10.000177 
2.4878378e+3, 1.2215921e+2, -1680203.1, -1507420.0, -19750.885, 0.33680668, -0.50095165, -1505191.0, 237603.44, 0.45571515, 9.998932, 10.003248 
2.4874614e+3, 1.3214938e+2, -1691918.5, -1826565.0, -58106.395, -0.0752738, -0.7576567, -1670310.5, -25427.395, 0.33319858, 10.00019, 9.998431 
2.4870957e+3, 1.4214195e+2, -1535150.0, -1716063.0, 99325.72, 0.5478154, -0.6469162, -1491263.8, 55691.508, 0.20679392, 10.000731, 9.998306 
2.4867229e+3, 1.5213555e+2, -1286274.6, -1506804.5, 101898.84, 0.14422528, -0.48669255, -1246400.6, 202626.56, 0.10179194, 10.001728, 9.998558 
2.4863516e+3, 1.6212882e+2, -1097254.6, -1323588.0, -41064.426, 0.016106773, -0.3470627, -1090034.5, 261065.88, 0.036105353, 10.002021, 9.999029 
2.4859832e+3, 1.7212081e+2, -1048418.2, -1215387.9, -110897.77, 0.48891732, -0.4253738, -993093.7, 260084.77, 0.0076701324, 10.001495, 9.999331 
2.485612e+3, 1.8211311e+2, -1053362.6, -1258764.1, -115064.55, 0.72194177, -0.4132575, -1001832.06, 153421.63, 0.000687035, 10.001157, 9.998534 
2.4852341e+3, 1.9210693e+2, -818431.4, -1105447.1, -101127.984, 0.24258235, -0.23474915, -786379.06, 270938.47, 0.000019881356, 10.00218, 9.998385 
2.4848577e+3, 2.020995e+2, -752765.75, -1041285.94, -110373.83, -0.06644021, -0.12698287, -715385.1, 244006.58, 0.0, 10.002059, 9.998222 
2.4844857e+3, 2.1208884e+2, -910707.8, -1039574.6, -126075.2, 0.095549, -0.3837574, -833555.1, 27936.064, 0.0, 10.000225, 9.998414 
2.4841125e+3, 2.2207853e+2, -1055360.1, -1170746.0, -185426.48, 0.2034957, -0.53900516, -918858.6, -155269.17, 0.0, 9.998994, 9.997471 
2.4837354e+3, 2.320704e+2, -779574.7, -991315.56, -185076.98, 0.0782399, -0.4426252, -672226.8, -6551.068, 0.0, 10.00027, 9.997381 
2.4833591e+3, 2.4206248e+2, -606449.6, -800462.6, -93961.94, -0.03130935, -0.30671903, -568403.9, -644.23114, 0.0, 10.000518, 9.997933 
2.4829854e+3, 2.520552e+2, -578986.5, -661969.0, -62944.07, -0.11328904, -0.22159086, -545088.9, -75254.14, 0.0, 9.999751, 9.998548 
2.4826121e+3, 2.620482e+2, -555677.2, -477056.56, -154797.36, -0.09150716, -0.13014284, -356656.16, 15248.284, 0.0, 9.9987, 9.999662 
2.4822387e+3, 2.7204186e+2, -335405.1, -222330.89, -211143.63, 0.13841596, -0.15529397, -60286.023, 213675.34, 0.0, 9.999154, 10.000477 
2.4818638e+3, 2.820344e+2, -362137.2, -361083.5, -76505.95, 0.08004782, -0.22029383, -285102.6, -109074.11, 0.0, 9.999028, 9.998955 
2.481486e+3, 2.920226e+2, -255133.4, -292942.1, -6890.9556, -0.5960702, -0.6172169, -253916.63, -175777.56, 0.0, 9.999266, 9.998607 
2.481118e+3, 3.0201167e+2, -487502.66, -725149.4, -27682.102, -0.29697058, -0.77201164, -484320.72, -484320.72, 0.0, 9.998744, 9.995614 
2.4807465e+3, 3.1200483e+2, -177617.81, -188166.52, -112326.4, -0.12217572, -0.35042074, -70442.0, -70442.0, 0.0, 9.999167, 9.99908 
2.4978317e+3, 1.2253048e+2, -1659883.3, -1523686.0, 55233.645, 0.4267803, -0.3195418, -1504102.4, 235064.9, 0.43991756, 9.999415, 10.002703 
2.4974565e+3, 1.3252455e+2, -1542333.5, -1556820.6, -24177.152, 0.084818825, -0.34083256, -1524338.1, 116877.75, 0.31901658, 10.000594, 10.000373 
2.4970901e+3, 1.42517e+2, -1520179.4, -1720583.5, 115949.875, 0.5241022, -0.3584854, -1467133.9, 76152.17, 0.19536594, 10.000914, 9.998184 
2.4967156e+3, 1.5250729e+2, -1361193.4, -1649584.0, 141984.39, -0.11393187, -0.44535303, -1303023.0, 142362.75, 0.094030365, 10.001598, 9.997637 
2.4963436e+3, 1.6249812e+2, -1137076.6, -1401349.8, -40846.703, -0.33393463, -0.46585238, -1130907.3, 216573.31, 0.032013185, 10.001983, 9.9985 
2.4959777e+3, 1.7249066e+2, -1056513.8, -1270378.1, -107958.69, 0.46943894, -0.43984213, -1011493.4, 238064.52, 0.0062260167, 10.001652, 9.99887 
2.4956079e+3, 1.8248321e+2, -979128.2, -1179595.9, -66737.28, 0.8261117, -0.3850621, -958943.25, 192690.13, 0.00043419475, 10.001468, 9.99892 
2.4952288e+3, 1.9247597e+2, -736373.6, -1007999.9, -47951.85, 0.12321846, -0.35164458, -728156.94, 325546.9, 0.0000058323185, 10.002471, 9.998923 
2.4948509e+3, 2.024681e+2, -693635.4, -1035568.8, -164781.1, -0.312181, -0.30568078, -627152.25, 328628.94, 0.000000000090419006, 10.002535, 9.99803 
2.4944781e+3, 2.124589e+2, -951507.7, -1130283.9, -217960.9, 0.008319656, -0.35585627, -805317.4, 52555.54, 0.0, 10.0002165, 9.997797 
2.4941042e+3, 2.2245014e+2, -1022173.06, -1083128.8, -179813.39, 0.18245113, -0.33794352, -870272.9, -110312.4, 0.0, 9.998891, 9.998106 
2.4937281e+3, 2.324432e+2, -705159.9, -865674.25, -138284.94, -0.005279773, -0.19763811, -625529.8, 36502.63, 0.0, 10.000377, 9.998195 
2.4933526e+3, 2.4243525e+2, -469372.0, -677117.56, -113356.04, -0.1379647, -0.1312044, -419494.5, 144618.03, 0.0, 10.00118, 9.998449 
2.4929787e+3, 2.5242501e+2, -545175.94, -647320.1, -109436.11, -0.08425397, -0.3527274, -475481.22, -9271.278, 0.0, 9.999924, 9.998581 
2.4926047e+3, 2.62416e+2, -551800.75, -540811.3, -158489.1, -0.035182476, -0.4402658, -387721.7, -19425.352, 0.0, 9.998959, 9.999099 
2.4922295e+3, 2.7241024e+2, -401255.5, -372789.13, -217692.78, -0.005339321, -0.29881117, -168864.73, 101487.95, 0.0, 9.999182, 9.999438 
2.4918544e+3, 2.8240353e+2, -335664.97, -368963.0, -122597.055, -0.08447491, -0.21479546, -228591.6, -56174.707, 0.0, 9.999219, 9.998822 
2.4914804e+3, 2.9239374e+2, -340794.7, -330466.38, -97954.69, -0.3692804, -0.40442228, -237539.81, -163031.97, 0.0, 9.998578, 9.998717 
2.4911131e+3, 3.0238497e+2, -391936.06, -430882.6, -90293.19, 0.052784324, -0.44179684, -319040.13, -319040.13, 0.0, 9.998312, 9.997821 
2.4907403e+3, 3.1237707e+2, -50969.152, 122045.25, -151908.2, 0.04597147, -0.3529673, 210351.1, 210351.1, 0.0, 9.998931, 10.001307 
2.5078243e+3, 1.2289964e+2, -1734626.0, -1640302.8, 106940.49, 0.37227598, -0.35355872, -1570586.3, 164967.31, 0.42027465, 9.999321, 10.001431 
2.5074518e+3, 1.3289563e+2, -1531829.9, -1551741.5, -89090.63, 0.21933797, -0.16449821, -1452140.5, 185447.89, 0.30251706, 10.000687, 10.00037 
2.5070825e+3, 1.4288785e+2, -1492681.8, -1637674.4, -17306.02, 0.37197563, -0.23328269, -1490644.8, 49016.363, 0.18302314, 10.00072, 9.998853 
2.5067094e+3, 1.5287718e+2, -1499780.9, -1621383.4, 85454.195, -0.117977634, -0.5282693, -1455705.0, -13941.825, 0.08629053, 10.00008, 9.998571 
2.506338e+3, 1.6286837e+2, -1406591.8, -1470673.0, -6677.6606, -0.27019083, -0.59760225, -1405903.4, -62052.94, 0.028287582, 9.999828, 9.999049 
2.5059706e+3, 1.7286356e+2, -1124766.1, -1264218.9, -13490.887, 0.33060756, -0.35543445, -1123473.0, 122431.3, 0.0050760456, 10.001037, 9.99919 
2.5056005e+3, 1.8285711e+2, -1005232.06, -1202381.1, 52151.46, 0.62029964, -0.2038005, -992286.56, 155684.92, 0.00028139996, 10.00137, 9.998811 
2.505223e+3, 1.9284782e+2, -1026124.6, -1142756.3, 43189.684, 0.07410249, -0.3663262, -1011872.6, 38187.973, 0.0000014559199, 10.000539, 9.998908 
2.504846e+3, 2.0283899e+2, -1061923.5, -1238920.0, -107330.23, -0.24831845, -0.39896616, -1011311.25, -59163.73, 0.0, 10.000145, 9.997791 
2.5044715e+3, 2.1283123e+2, -831918.0, -1081126.1, -126748.08, 0.01693617, -0.29198682, -778782.8, 75446.65, 0.0, 10.001116, 9.997697 
2.5040972e+3, 2.2282347e+2, -736634.94, -944690.25, -42686.438, 0.16349104, -0.15487023, -728217.56, 28092.146, 0.0, 10.000867, 9.998125 
2.5037208e+3, 2.3281592e+2, -800256.4, -879177.4, -27451.787, -0.04921198, -0.09734483, -791646.8, -133261.88, 0.0, 9.999575, 9.998502 
2.5033453e+3, 2.4280748e+2, -828747.4, -805796.0, -48331.727, -0.16528733, -0.10872368, -767596.3, -207129.98, 0.0, 9.998541, 9.998849 
2.502972e+3, 2.5279677e+2, -641877.5, -625020.6, -11193.872, -0.042742386, -0.43055096, -619436.9, -156872.52, 0.0, 9.999024, 9.999144 
2.5025973e+3, 2.6278716e+2, -540319.9, -644351.06, -4150.967, -0.0130096, -0.56165916, -540154.5, -175499.13, 0.0, 9.999538, 9.998118 
2.502221e+3, 2.727807e+2, -225417.27, -432867.4, -58762.203, -0.17055324, -0.36125505, -209928.72, 56795.375, 0.0, 10.001018, 9.998161 
2.5018466e+3, 2.8277376e+2, -108477.08, -334497.88, -34848.58, -0.22013107, -0.17682457, -103226.016, 65568.2, 0.0, 10.001145, 9.998133 
2.5014755e+3, 2.9276565e+2, -172028.34, -277012.7, -46155.758, -0.09149024, -0.17520717, -154622.16, -83752.695, 0.0, 9.999919, 9.998413 
2.5011066e+3, 3.0275735e+2, -215391.45, -183058.83, -65400.35, 0.18467285, -0.1931634, -131856.33, -131856.33, 0.0, 9.998859, 9.999258 
2.5007334e+3, 3.12748e+2, -14055.599, 237827.64, -134665.61, 0.085057795, -0.4827901, 296266.4, 296266.4, 0.0, 9.998807, 10.002146 
2.5178206e+3, 1.2326819e+2, -1672431.0, -1689778.0, 177902.6, 0.65688, -0.38314122, -1502990.6, 228953.03, 0.3973432, 10.000578, 10.000377 
2.517446e+3, 1.3326418e+2, -1509678.5, -1594670.6, -38900.668, 0.24458365, -0.10814706, -1494562.3, 139423.19, 0.28406283, 10.001238, 9.999639 
2.5170743e+3, 1.4325613e+2, -1359211.8, -1406538.9, 5342.1353, 0.11500713, -0.21733998, -1358616.3, 177446.39, 0.16993596, 10.001046, 10.00045 
2.5167042e+3, 1.5324594e+2, -1318774.3, -1298260.6, 81759.03, 0.01812609, -0.66732997, -1226117.5, 212034.31, 0.078587286, 10.000352, 10.0007305 
2.5163338e+3, 1.6323899e+2, -1261175.4, -1257160.5, 29940.146, -0.04408769, -0.72624606, -1229160.6, 111055.29, 0.024857625, 10.000199, 10.000353 
2.5159624e+3, 1.7323816e+2, -1000783.56, -1090558.8, 37143.785, 0.051905546, -0.17928708, -987408.3, 254823.45, 0.0041356636, 10.001373, 10.000239 
2.5155905e+3, 1.8323332e+2, -950813.06, -1176666.0, 26933.91, 0.1274426, 0.0768301, -947645.5, 196638.28, 0.00018434241, 10.001733, 9.998806 
2.5152174e+3, 1.9322151e+2, -1016982.94, -1183705.3, 16123.653, 0.11746578, -0.29654035, -1015437.94, 30959.71, 0.00000026313862, 10.000772, 9.998523 
2.5148427e+3, 2.0321167e+2, -969553.3, -1127493.0, -78346.82, 0.08037428, -0.42494324, -937282.56, 11212.579, 0.0, 10.000484, 9.998385 
2.514467e+3, 2.1320581e+2, -736151.0, -968355.2, -74556.66, 0.10689425, -0.17898245, -714273.44, 136286.33, 0.0, 10.001467, 9.998318 
2.514091e+3, 2.2319831e+2, -632580.94, -889311.9, -69736.984, 0.10222298, -0.047934115, -614861.0, 137776.03, 0.0, 10.001508, 9.998212 
2.513714e+3, 2.3318788e+2, -815920.9, -919711.6, -82579.53, 0.009643601, -0.24432504, -770284.1, -115547.445, 0.0, 9.999569, 9.998245 
2.513338e+3, 2.431791e+2, -732468.2, -601834.25, -16252.964, -0.04609263, -0.330436, -599842.5, -43023.336, 0.0, 9.998491, 10.000271 
2.5129646e+3, 2.5317296e+2, -507155.53, -398425.94, 50353.37, 0.0076795127, -0.33250427, -378689.5, 80183.77, 0.0, 9.999204, 10.000637 
2.5125906e+3, 2.6316583e+2, -479741.38, -695228.6, 94223.29, 0.00031207505, -0.2678264, -444353.2, -83410.89, 0.0, 10.000252, 9.997441 
2.512216e+3, 2.731573e+2, -190772.66, -574583.9, 47465.883, -0.12946245, -0.12988795, -184989.69, 78045.22, 0.0, 10.001884, 9.996801 
2.5118423e+3, 2.8314766e+2, 26607.49, -389940.53, -11329.073, -0.18330742, -0.080243446, 26915.385, 192047.75, 0.0, 10.002543, 9.997089 
2.5114694e+3, 2.931363e+2, -83690.555, -384446.9, -70590.83, -0.10123157, -0.2758291, -67946.305, -709.7974, 0.0, 10.001099, 9.997131 
2.5110987e+3, 3.0312622e+2, -125044.484, -269974.88, -83670.65, 0.121912256, -0.35071233, -86821.01, -86821.01, 0.0, 9.99997, 9.998147 
2.510728e+3, 3.1311747e+2, 21348.018, 47279.62, -192578.89, 0.2875337, -0.43238175, 227328.69, 227328.69, 0.0, 9.999841, 10.000378 
2.5278163e+3, 1.23640984e+2, -1435634.0, -1643883.4, 51760.332, 0.63701516, -0.30470043, -1423478.5, 304810.5, 0.37209463, 10.003448, 9.999116 
2.5274408e+3, 1.3363479e+2, -1412561.5, -1631393.3, 20924.768, 0.1877403, -0.14974764, -1410578.6, 219779.95, 0.26429734, 10.002588, 9.998612 
2.5270683e+3, 1.4362739e+2, -1247966.3, -1287698.3, 56259.453, 0.016618611, -0.15933694, -1208168.4, 324263.63, 0.15642525, 10.001637, 10.001078 
2.526699e+3, 1.5361962e+2, -1221520.0, -1169100.4, 73422.0, 0.07231004, -0.45389152, -1117350.4, 317145.38, 0.071005836, 10.000731, 10.00146 
2.526329e+3, 1.6361305e+2, -1254118.0, -1279876.3, 23892.09, 0.113215834, -0.503572, -1239854.8, 96698.96, 0.021693112, 10.000402, 10.0000925 
2.525957e+3, 1.7360944e+2, -1027431.8, -1122235.4, -33640.77, 0.040024698, -0.21468244, -1016707.6, 221886.7, 0.00335279, 10.001347, 10.000022 
2.525584e+3, 1.8360363e+2, -1003856.2, -1190686.5, -141181.63, 0.015135544, -0.061661925, -927982.75, 212671.4, 0.00011963712, 10.001322, 9.998915 
2.5252104e+3, 1.935931e+2, -1086028.4, -1196824.5, -118965.766, 0.07013142, -0.35234454, -1010194.56, 32560.861, 0.00000002568285, 10.000191, 9.998722 
2.5248364e+3, 2.0358446e+2, -1080869.6, -1134629.8, -115897.734, 0.13952023, -0.4032553, -988775.6, -43933.996, 0.0, 9.999497, 9.998824 
2.5244614e+3, 2.1357946e+2, -904009.44, -989023.56, -88195.99, 0.1574057, -0.14510642, -848611.5, -1713.9331, 0.0, 10.000019, 9.998886 
2.5240853e+3, 2.2357206e+2, -810677.06, -973206.5, -115448.95, 0.13888045, -0.03953605, -750759.56, -1786.9294, 0.0, 10.000317, 9.998191 
2.5237074e+3, 2.3356052e+2, -651746.06, -835553.75, -109493.5, 0.052510563, -0.36906973, -600698.4, 50382.363, 0.0, 10.000717, 9.998246 
2.523331e+3, 2.4355166e+2, -517259.34, -526721.06, -48187.066, 0.016077464, -0.4528243, -473571.44, 79592.36, 0.0, 10.000143, 9.999984 
2.5229573e+3, 2.5354758e+2, -571872.4, -441687.47, -114875.086, 0.053208046, -0.25229925, -374744.66, 80457.01, 0.0, 9.998856, 10.000493 
2.5225836e+3, 2.6354158e+2, -802676.25, -923453.44, -72607.555, 0.02741409, -0.058059968, -768626.3, -411364.5, 0.0, 9.998387, 9.996757 
2.5222108e+3, 2.735319e+2, -561374.94, -809024.25, -2530.1055, -0.09835877, -0.0092937, -561349.1, -301985.0, 0.0, 9.99962, 9.996254 
2.5218374e+3, 2.8352067e+2, -333164.8, -640719.1, -53683.08, -0.18591283, -0.07241367, -324063.84, -162586.92, 0.0, 10.000458, 9.99636 
2.5214624e+3, 2.935069e+2, -201049.63, -521211.84, -40046.938, -0.21303064, -0.442323, -196116.44, -132513.25, 0.0, 10.000671, 9.996389 
2.5210917e+3, 3.034964e+2, -235300.27, -439721.4, 36853.44, 0.08212015, -0.4639947, -228859.2, -228859.2, 0.0, 9.999778, 9.997061 
2.5207183e+3, 3.1348604e+2, -382236.88, -288830.25, 107604.27, 0.020482264, -0.58645165, -218231.05, -218231.05, 0.0, 9.997827, 9.99899 
2.537811e+3, 1.2401306e+2, -1464255.8, -1789411.8, -40570.51, 0.39214692, -0.4142986, -1459270.1, 265370.44, 0.34545887, 10.003654, 9.997707 
2.537436e+3, 1.3400625e+2, -1412886.5, -1752909.8, 39639.95, 0.09862085, -0.21320586, -1408326.5, 218395.4, 0.24384478, 10.002981, 9.997605 
2.5370622e+3, 1.4399998e+2, -1218013.4, -1248974.8, 55266.05, -0.08582388, -0.062839404, -1176100.9, 352686.34, 0.14280652, 10.001759, 10.001272 
2.536693e+3, 1.539956e+2, -1193356.9, -1128961.4, 54440.074, 0.0454555, -0.02618095, -1097910.3, 332908.66, 0.06363834, 10.0008335, 10.001676 
2.5363234e+3, 1.6398835e+2, -1289664.9, -1407318.6, 48525.977, 0.16360004, -0.105297156, -1272233.1, 60650.03, 0.0187796, 10.000626, 9.999097 
2.5359532e+3, 1.7397738e+2, -1086019.1, -1279140.0, 15491.717, 0.19905531, -0.43772227, -1084784.3, 150206.9, 0.0026956536, 10.00146, 9.998896 
2.5355798e+3, 1.8396868e+2, -915852.5, -1050844.9, -174427.13, 0.10492283, -0.54409546, -796317.8, 340758.28, 0.00007576087, 10.001514, 9.999769 
2.535202e+3, 1.9396257e+2, -983426.4, -1034144.5, -156467.86, -0.13038687, -0.48121578, -850275.9, 188858.3, 0.00000000011876218, 10.000396, 9.99974 
2.534827e+3, 2.0395668e+2, -951815.9, -956568.6, -99469.59, -0.12385232, -0.35413152, -854694.3, 86498.77, 0.0, 9.999858, 9.999866 
2.534455e+3, 2.1395156e+2, -798642.7, -834358.7, -64481.363, 0.20302601, -0.19670136, -749592.1, 93656.45, 0.0, 10.00026, 9.99983 
2.5340804e+3, 2.2394441e+2, -694141.2, -824725.0, -91304.55, 0.281487, -0.15691781, -647185.4, 98133.984, 0.0, 10.000683, 9.999037 
2.5337017e+3, 2.3393418e+2, -525297.06, -706369.75, -81793.12, 0.04391496, -0.40504152, -493821.34, 153592.19, 0.0, 10.001241, 9.998903 
2.5333247e+3, 2.4392499e+2, -597454.8, -855436.6, -110358.34, -0.02023474, -0.4407129, -556688.2, -7184.826, 0.0, 10.000788, 9.997428 
2.5329503e+3, 2.539178e+2, -783518.44, -898033.44, -225532.44, 0.16377753, -0.22826275, -608088.8, -156506.94, 0.0, 9.998899, 9.99735 
2.5325763e+3, 2.6390982e+2, -724279.5, -722985.44, -97255.38, 0.14806812, -0.121349335, -626374.94, -272712.1, 0.0, 9.998197, 9.99823 
2.532203e+3, 2.7390015e+2, -494823.9, -567122.06, 4234.2896, -0.114089966, -0.2628943, -494576.75, -238823.64, 0.0, 9.999116, 9.99818 
2.5318298e+3, 2.8389052e+2, -262482.06, -374409.72, -21925.396, -0.2284871, -0.35814303, -258340.38, -100495.55, 0.0, 9.999942, 9.998424 
2.5314566e+3, 2.9388088e+2, -62437.33, -249551.05, 29394.594, -0.16955656, -0.4900048, -57928.25, 2009.7633, 0.0, 10.000728, 9.998237 
2.531085e+3, 3.0387336e+2, -11542.741, -51333.14, 58291.914, 0.11437054, -0.41987357, 30155.615, 30155.615, 0.0, 10.000085, 9.999597 
2.530709e+3, 3.1386772e+2, -297130.66, 25029.686, 178835.8, 0.06033243, -0.26855347, 104634.086, 104634.086, 0.0, 9.997156, 10.001533 
2.5478044e+3, 1.2438614e+2, -1376130.6, -1667246.9, 137921.17, 0.012413293, -0.5142468, -1321165.9, 399816.75, 0.31815624, 10.004122, 9.998432 
2.5474325e+3, 1.3438031e+2, -1383222.1, -1810615.4, 21572.598, 0.111476496, -0.16873525, -1382136.0, 240918.77, 0.22319707, 10.00353, 9.996916 
2.5470585e+3, 1.4437298e+2, -1237856.5, -1393189.5, 23058.27, 0.041221306, -0.026630042, -1234505.9, 290625.78, 0.12934339, 10.002211, 9.999909 
2.546688e+3, 1.5436672e+2, -1343353.4, -1367037.1, -59665.707, 0.17052202, -0.025291981, -1294365.8, 132819.64, 0.05657354, 10.000464, 10.000148 
2.5463173e+3, 1.643589e+2, -1454284.4, -1452310.1, -2520.057, 0.23683369, -0.09810539, -1450590.8, -121333.984, 0.016116831, 9.999339, 9.999411 
2.5459465e+3, 1.7434834e+2, -1327162.1, -1359639.3, 55057.55, 0.1517928, -0.44958758, -1285998.4, -54639.844, 0.0021455006, 9.99963, 9.999227 
2.5455728e+3, 1.8434003e+2, -1152069.4, -1127429.1, -117085.14, 0.039251335, -0.54482824, -1022017.7, 111420.46, 0.000046550977, 9.999744, 10.000099 
2.545195e+3, 1.9433506e+2, -1027472.6, -1010331.94, -136123.52, -0.15507193, -0.41435957, -882509.25, 152975.64, 0.0, 9.9999075, 10.000141 
2.5448197e+3, 2.0432939e+2, -971502.94, -967728.7, -99207.53, -0.13449837, -0.280622, -870390.3, 67150.555, 0.0, 9.999784, 9.999812 
2.5444484e+3, 2.1432285e+2, -892256.94, -878726.44, -136852.72, 0.18651244, -0.2765562, -748471.8, 91136.96, 0.0, 9.999667, 9.999797 
2.5440738e+3, 2.2431575e+2, -831687.7, -846166.3, -195072.55, 0.2704582, -0.25352606, -643720.2, 97958.39, 0.0, 9.999613, 9.999393 
2.543695e+3, 2.343076e+2, -695154.0, -732736.75, -177845.39, -0.008535877, -0.3627903, -535110.0, 108643.5, 0.0, 9.999901, 9.999351 
2.543318e+3, 2.442988e+2, -727293.6, -1070590.3, -170699.77, -0.054151535, -0.32397944, -656864.4, -111022.57, 0.0, 10.000604, 9.996032 
2.5429437e+3, 2.5428936e+2, -481686.66, -922389.4, -117864.09, 0.18572678, -0.20558828, -452144.7, -4198.2007, 0.0, 10.001727, 9.995817 
2.542569e+3, 2.6427987e+2, -201897.55, -334373.8, 104452.734, 0.15811904, -0.19692042, -144451.14, 205589.89, 0.0, 10.001223, 9.99944 
2.5421947e+3, 2.7427024e+2, -359466.3, -330030.94, 147897.73, -0.19362032, -0.4825909, -196120.39, 56002.652, 0.0, 9.99934, 9.999694 
2.541822e+3, 2.8426257e+2, -462662.2, -340416.28, 53568.355, -0.2738513, -0.5052196, -320264.5, -166070.89, 0.0, 9.998026, 9.999585 
2.5414506e+3, 2.9425693e+2, -408677.5, -261837.83, 52636.848, -0.093954004, -0.38169277, -244918.81, -188664.5, 0.0, 9.997721, 9.999592 
2.541077e+3, 3.0425003e+2, -226385.05, 24494.768, -88404.445, 0.09572742, -0.38968077, 52516.637, 52516.637, 0.0, 9.997874, 10.001181 
2.5406992e+3, 3.1424716e+2, 52294.586, 558059.0, -90148.24, -0.004350353, -0.16788067, 573646.75, 573646.75, 0.0, 9.998013, 10.004785 
2.5577977e+3, 1.2476025e+2, -1502218.9, -1898449.5, 33288.484, -0.4653622, -0.48012248, -1499441.6, 217874.08, 0.2908175, 10.003468, 9.996992 
2.55743e+3, 1.3475473e+2, -1379232.4, -1833818.5, -10912.511, 0.15488476, -0.07294724, -1378970.6, 240411.61, 0.2027681, 10.003598, 9.996728 
2.557056e+3, 1.4474538e+2, -1301486.8, -1614653.9, -33101.684, 0.17920354, -0.038070146, -1298026.1, 223452.94, 0.11625642, 10.00257, 9.998073 
2.5566834e+3, 1.5473467e+2, -1439304.8, -1648548.3, -92872.16, 0.33560383, -0.27314186, -1404030.3, 19550.512, 0.04988728, 10.000801, 9.998019 
2.5563106e+3, 1.6472684e+2, -1279445.8, -1203627.6, 42369.79, 0.26270816, -0.30060324, -1184683.4, 140971.3, 0.013707004, 9.999812, 10.000912 
2.5559375e+3, 1.7472163e+2, -1164884.4, -1100903.4, 91885.01, -0.07108551, -0.26130718, -1035599.25, 192104.48, 0.0016894786, 9.999946, 10.000865 
2.555564e+3, 1.8471584e+2, -1077014.8, -1061531.1, -109687.8, -0.16268897, -0.20105506, -959312.25, 170445.9, 0.000027889511, 10.000126, 10.000359 
2.5551897e+3, 1.947098e+2, -971556.8, -978073.8, -111969.414, 0.0064892652, -0.17582138, -862798.5, 169016.16, 0.0, 10.000264, 10.00019 
2.5548148e+3, 2.0470218e+2, -965080.1, -1054001.5, -96452.62, 0.07021958, -0.19889677, -903334.1, 30555.129, 0.0, 10.000188, 9.999032 
2.55444e+3, 2.1469283e+2, -918367.4, -999216.56, -133752.63, 0.056778494, -0.3715904, -819063.94, 16919.77, 0.0, 9.999916, 9.998864 
2.554064e+3, 2.2468579e+2, -758471.6, -756155.9, -183574.16, 0.014429153, -0.31614593, -573735.94, 164318.67, 0.0, 9.999857, 9.999897 
2.553687e+3, 2.346811e+2, -643195.4, -663386.25, -168569.4, -0.08573587, -0.11166064, -484419.38, 155681.69, 0.0, 10.000051, 9.999758 
2.5533116e+3, 2.4467377e+2, -487687.6, -697686.1, -92806.87, -0.095102526, -0.05547082, -452551.34, 89622.61, 0.0, 10.0011015, 9.998362 
2.5529376e+3, 2.5466365e+2, -158706.47, -516312.78, -4061.2126, 0.0059882407, -0.2231658, -158660.34, 285615.28, 0.0, 10.002827, 9.998091 
2.5525624e+3, 2.6465493e+2, 19607.053, -161507.03, 92304.92, -0.061507706, -0.2802551, 58358.85, 404717.7, 0.0, 10.002419, 10.000066 
2.5521863e+3, 2.746477e+2, -302339.9, -276998.8, 107152.805, -0.29593453, -0.33168563, -181770.02, 66651.78, 0.0, 9.999587, 9.99996 
2.5518128e+3, 2.8464106e+2, -550711.44, -438880.0, 57070.164, -0.2754673, -0.23917285, -414898.47, -264411.8, 0.0, 9.997599, 9.999134 
2.5514406e+3, 2.9463494e+2, -633533.94, -449894.78, 23238.523, -0.030343993, -0.08413616, -446999.72, -394444.88, 0.0, 9.996452, 9.9989395 
2.551068e+3, 3.0462515e+2, -390442.66, -190679.88, -55783.797, 0.17206737, -0.29787058, -176157.94, -176157.94, 0.0, 9.997286, 10.000001 
2.550687e+3, 3.1461555e+2, 95458.8, 270464.75, -192237.94, -0.42488915, -0.5919089, 394177.78, 394177.78, 0.0, 9.999569, 10.002068 
2.567796e+3, 1.2513153e+2, -1632654.0, -1805396.6, -162269.77, -0.16894309, -0.2547495, -1535200.6, 178492.08, 0.26403108, 10.001468, 9.998734 
2.567427e+3, 1.3512631e+2, -1311466.5, -1577095.9, -82070.2, 0.21701163, -0.04803505, -1288155.5, 327586.97, 0.18292536, 10.003133, 9.9988 
2.5670516e+3, 1.4511688e+2, -1206427.6, -1542888.4, -95607.34, 0.17232752, -0.1392572, -1181158.1, 336674.28, 0.1037245, 10.0031595, 9.998289 
2.5666776e+3, 1.5510562e+2, -1278078.5, -1581926.0, -69245.98, 0.33657804, -0.44538063, -1263041.6, 156897.08, 0.043632858, 10.001986, 9.997909 
2.5663045e+3, 1.6509822e+2, -1174178.5, -1198074.9, 128776.875, 0.29459184, -0.39393273, -1056796.8, 265214.88, 0.011545959, 10.000783, 10.00045 
2.5659308e+3, 1.750946e+2, -1235623.6, -1188550.8, 50953.438, -0.03216639, -0.15370606, -1155960.4, 68090.44, 0.0013158798, 9.999738, 10.000335 
2.5655574e+3, 1.8508895e+2, -1197074.5, -1154647.3, -185085.33, -0.094690666, -0.042287365, -989563.8, 136542.31, 0.000016496271, 9.999485, 10.000018 
2.565184e+3, 1.9508143e+2, -1047300.06, -1059603.6, -207055.36, 0.13135971, -0.15544139, -846305.1, 181871.48, 0.0, 9.999949, 9.999785 
2.564809e+3, 2.0507328e+2, -1011338.3, -1040597.1, -176990.58, 0.17304471, -0.22695749, -848373.56, 81880.38, 0.0, 9.999769, 9.999322 
2.564432e+3, 2.1506423e+2, -1044606.56, -1033257.1, -119521.086, -0.010369874, -0.40969056, -919276.1, -86934.46, 0.0, 9.998985, 9.999075 
2.564056e+3, 2.2505742e+2, -881838.7, -845736.1, -108931.77, -0.062406667, -0.31919652, -753370.1, -18959.63, 0.0, 9.999151, 9.99962 
2.563681e+3, 2.350531e+2, -671486.06, -709804.94, -139068.28, -0.027630584, -0.06326256, -550263.6, 86194.164, 0.0, 10.000002, 9.999463 
2.5633058e+3, 2.4504651e+2, -624799.0, -575330.06, -120601.25, -0.02505067, 0.0041157217, -476952.97, 61569.844, 0.0, 9.999399, 9.999999 
2.5629306e+3, 2.5503728e+2, -811152.9, -639246.25, -79440.83, -0.07589111, -0.2663847, -608157.6, -167548.02, 0.0, 9.997559, 9.999769 
2.562555e+3, 2.650298e+2, -739456.25, -532830.94, -76920.43, -0.1642066, -0.2987745, -507340.4, -164660.6, 0.0, 9.997275, 9.9999695 
2.5621784e+3, 2.7502406e+2, -510859.56, -391658.8, -77916.84, -0.31757972, -0.21755013, -353161.06, -108428.4, 0.0, 9.998253, 9.999798 
2.561804e+3, 2.8501764e+2, -449348.9, -431693.47, -84960.32, -0.25857207, -0.079694584, -355103.47, -208305.05, 0.0, 9.998515, 9.998721 
2.5614312e+3, 2.9501083e+2, -387574.44, -385005.44, -42478.137, -0.019749451, 0.019904308, -343792.38, -294917.63, 0.0, 9.998414, 9.998414 
2.5610602e+3, 3.050006e+2, -323543.84, -309186.22, 22006.816, 0.28207186, -0.14114606, -293216.9, -293216.9, 0.0, 9.99846, 9.998585 
2.5606826e+3, 3.149906e+2, -213793.67, 15434.11, 32962.246, -0.13044852, -0.3514439, 20079.824, 20079.824, 0.0, 9.9980135, 10.001019 
2.5777945e+3, 1.2550287e+2, -1365659.3, -1434428.5, -25358.65, 0.1324264, 0.13907221, -1357319.6, 352753.2, 0.23823525, 10.00244, 10.001289 
2.5774235e+3, 1.354963e+2, -1140934.4, -1215882.4, -11741.027, 0.21495703, -0.092213415, -1139138.1, 472980.72, 0.16394834, 10.003003, 10.0018 
2.577047e+3, 1.454879e+2, -1184150.4, -1403365.0, -124438.4, 0.056540668, -0.28659558, -1127930.5, 386258.44, 0.09188186, 10.002699, 9.999527 
2.5766718e+3, 1.5547803e+2, -1212659.8, -1414114.6, -84435.47, 0.23233467, -0.56644624, -1181951.5, 234326.83, 0.03784501, 10.001842, 9.999145 
2.5762987e+3, 1.654711e+2, -1271085.6, -1432526.6, 99950.19, 0.29122624, -0.43921518, -1223331.0, 95019.16, 0.009625426, 10.000941, 9.998743 
2.5759262e+3, 1.7546672e+2, -1306232.4, -1413437.6, 33203.285, 0.1852802, -0.08805158, -1296781.9, -76375.89, 0.0010124295, 10.000071, 9.998623 
2.5755525e+3, 1.8545952e+2, -1168657.0, -1172234.0, -153024.72, 0.13388672, -0.031909354, -1017410.3, 105070.01, 0.000009793076, 9.999818, 9.999731 
2.5751778e+3, 1.9544996e+2, -1027449.7, -1079565.0, -168476.95, 0.18920346, -0.293611, -883027.2, 141543.16, 0.0, 10.000196, 9.999533 
2.574802e+3, 2.0544276e+2, -844439.5, -764648.5, -190506.69, 0.16352648, -0.3546285, -609904.7, 316729.56, 0.0, 10.000022, 10.001108 
2.5744244e+3, 2.1543734e+2, -887944.1, -782669.56, -121535.945, 0.05502968, -0.33068407, -702861.9, 125816.63, 0.0, 9.999258, 10.000683 
2.5740498e+3, 2.2542995e+2, -890193.06, -945625.9, -56200.79, 0.078421466, -0.33101678, -855245.9, -124495.34, 0.0, 9.999477, 9.998767 
2.5736767e+3, 2.3542129e+2, -669084.25, -807626.6, -97107.43, 0.22445925, -0.40516508, -619072.8, 13769.179, 0.0, 10.000398, 9.998605 
2.573301e+3, 2.4541491e+2, -577725.7, -458635.0, -220347.75, 0.24927597, -0.31981623, -289928.78, 244977.36, 0.0, 9.999289, 10.00086 
2.5729227e+3, 2.554101e+2, -911698.4, -606039.7, -184961.97, 0.16643493, -0.21384153, -518936.25, -81985.016, 0.0, 9.9964695, 10.000542 
2.572546e+3, 2.654028e+2, -924399.0, -668296.25, -31070.223, 0.01225621, -0.24205083, -664580.75, -325559.25, 0.0, 9.996183, 9.999564 
2.5721708e+3, 2.7539375e+2, -570894.4, -475205.78, -55898.57, -0.18451224, -0.4316959, -449472.06, -208362.02, 0.0, 9.998047, 9.999333 
2.571798e+3, 2.8538722e+2, -233645.92, -168466.86, -93954.56, -0.08666547, -0.36161086, -101610.234, 41566.137, 0.0, 9.99928, 10.000162 
2.5714266e+3, 2.9538295e+2, -63716.133, -84761.8, -31575.656, 0.25275758, -0.13406639, -40956.055, 4267.0117, 0.0, 9.999974, 9.999737 
2.5710532e+3, 3.053749e+2, -125382.71, -43900.945, 12643.802, 0.3879861, -0.22503819, -41984.06, -41984.06, 0.0, 9.999044, 10.000139 
2.5706774e+3, 3.1536403e+2, -231109.61, 222768.16, 27156.543, 0.33801705, -0.6430926, 224387.22, 224387.22, 0.0, 9.996871, 10.003028 
2.587791e+3, 1.2587613e+2, -1228592.1, -1443432.4, 102527.39, 0.11262413, 0.09465382, -1187516.6, 518890.66, 0.21372975, 10.003931, 10.000409 
2.5874195e+3, 1.3586725e+2, -1300205.4, -1414307.6, -17771.352, 0.2643485, -0.23446499, -1297501.5, 310980.1, 0.14603175, 10.002223, 10.000527 
2.5870425e+3, 1.4585948e+2, -1348255.0, -1398341.3, -182195.72, 0.12583241, -0.35099518, -1189389.4, 321158.44, 0.080827504, 10.001084, 10.0003395 
2.5866652e+3, 1.5585223e+2, -1353287.0, -1408704.1, -164485.06, 0.16332808, -0.46126333, -1214193.0, 198418.34, 0.032553293, 10.000558, 9.999796 
2.586292e+3, 1.658453e+2, -1365927.6, -1523193.3, 74504.445, 0.24753, -0.35026938, -1336236.6, -21554.238, 0.007938516, 10.000505, 9.998313 
2.5859213e+3, 1.758389e+2, -1256082.9, -1453021.8, 70673.95, 0.3054984, -0.16148916, -1233345.8, -16589.035, 0.00076767127, 10.000705, 9.998046 
2.585547e+3, 1.8583114e+2, -1091535.6, -1138872.8, -49641.766, 0.24919985, -0.12081652, -1060208.6, 58627.457, 0.000005913737, 10.000369, 9.999693 
2.5851703e+3, 1.9582203e+2, -1164356.3, -1146695.6, -35932.71, 0.13694642, -0.34035197, -1118524.1, -97601.45, 0.0, 9.999292, 9.999496 
2.5847945e+3, 2.0581503e+2, -893762.5, -813105.4, -88889.9, 0.12352122, -0.3519893, -755823.44, 167161.48, 0.0, 9.999811, 10.000872 
2.5844187e+3, 2.1580979e+2, -620557.0, -674373.3, -160120.94, 0.13953196, -0.30907968, -485099.03, 339927.75, 0.0, 10.001181, 10.000499 
2.584044e+3, 2.2580184e+2, -753161.56, -857640.94, -112948.94, 0.19563682, -0.37191835, -680956.7, 46146.008, 0.0, 10.000393, 9.998922 
2.58367e+3, 2.357916e+2, -979762.0, -939100.0, -64118.5, 0.3062863, -0.6198731, -892166.3, -262959.38, 0.0, 9.998255, 9.99873 
2.5832936e+3, 2.4578586e+2, -698284.2, -458840.5, -180389.45, 0.3521167, -0.49835104, -362059.06, 169205.42, 0.0, 9.998252, 10.001337 
2.5829145e+3, 2.557835e+2, -500748.25, -374463.63, -154802.95, 0.3044833, -0.202822, -270420.7, 162865.92, 0.0, 9.99919, 10.000805 
2.582538e+3, 2.6577592e+2, -465443.34, -497343.9, 74721.375, 0.1413697, -0.23817769, -404988.8, -69626.76, 0.0, 9.999568, 9.999109 
2.5821635e+3, 2.7576447e+2, -368630.3, -423926.34, 67230.53, -0.10701509, -0.6324285, -323584.75, -86108.05, 0.0, 9.999673, 9.998888 
2.5817916e+3, 2.8575844e+2, -178858.88, -44400.77, -37805.64, 0.042714402, -0.5264928, -34499.984, 105037.695, 0.0, 9.999266, 10.001017 
2.5814214e+3, 2.957563e+2, -240470.77, -68854.3, -42159.66, 0.45997024, -0.18106212, -59056.617, -17496.709, 0.0, 9.998357, 10.000623 
2.5810438e+3, 3.0574858e+2, -129931.14, 106924.59, -135321.34, 0.26407453, -0.3585305, 168321.72, 168321.72, 0.0, 9.998384, 10.001478 
2.5806665e+3, 3.1574276e+2, -221571.33, -180937.36, -108414.125, 0.15591924, -0.41410154, -90952.93, -90952.93, 0.0, 9.998738, 9.999345 
2.597788e+3, 1.2625015e+2, -1522612.1, -1847894.1, 9966.442, 0.07485562, -0.09177093, -1522307.0, 180419.13, 0.1907668, 10.002598, 9.997795 
2.5974157e+3, 1.3623857e+2, -1504474.4, -1781552.1, -32217.176, 0.34306866, -0.38007057, -1500777.6, 104062.664, 0.12932399, 10.001786, 9.99801 
2.5970376e+3, 1.4623137e+2, -1289405.5, -1286849.1, -154471.95, 0.22965175, -0.36351055, -1133650.0, 373257.6, 0.07062259, 10.0011215, 10.001121 
2.5966582e+3, 1.5622726e+2, -1273489.4, -1295229.8, -127256.8, 0.07436171, -0.21183202, -1156639.4, 252302.81, 0.027766839, 10.000778, 10.000473 
2.596285e+3, 1.6621988e+2, -1274174.4, -1413711.3, 106747.305, 0.13890745, -0.20361517, -1216417.8, 94596.38, 0.0064744665, 10.000838, 9.998911 
2.5959158e+3, 1.7621061e+2, -1154575.4, -1335509.4, 102100.61, 0.33174714, -0.34121236, -1108628.3, 104480.055, 0.0005723583, 10.001072, 9.998691 
2.5955403e+3, 1.8620345e+2, -1018319.56, -1046711.56, -71767.46, 0.22980057, -0.30218282, -959357.56, 155821.5, 0.0000035552432, 10.000608, 10.000217 
2.5951612e+3, 1.9619732e+2, -1094872.8, -1087230.0, -42929.332, -0.0437868, -0.25565606, -1047952.25, -30715.06, 0.0, 9.999624, 9.999757 
2.5947863e+3, 2.0618947e+2, -965077.5, -1060767.4, -15698.662, 0.001484777, -0.2592325, -962567.9, -43254.82, 0.0, 10.000227, 9.998978 
2.5944144e+3, 2.1618079e+2, -642359.1, -865227.1, -108019.66, 0.23121978, -0.34543753, -598597.2, 222800.03, 0.0, 10.001764, 9.998933 
2.594038e+3, 2.2617316e+2, -544294.94, -522046.28, -196488.88, 0.238161, -0.41982582, -336367.1, 387101.4, 0.0, 10.000799, 10.001029 
2.5936598e+3, 2.3616594e+2, -829961.2, -653356.8, -110990.086, 0.12270693, -0.5568993, -599827.9, 25707.215, 0.0, 9.998324, 10.000663 
2.593283e+3, 2.4616057e+2, -640594.8, -410258.97, -79825.19, 0.13765287, -0.4974803, -385299.4, 142286.39, 0.0, 9.998515, 10.001554 
2.592907e+3, 2.561566e+2, -319285.7, -275335.5, -56819.664, 0.22903539, -0.36562145, -236389.5, 193234.78, 0.0, 10.0003395, 10.000944 
2.592532e+3, 2.661493e+2, -257690.08, -384786.28, 103307.58, 0.14846118, -0.37482497, -199950.03, 131747.14, 0.0, 10.000935, 9.999217 
2.592158e+3, 2.761399e+2, -208230.63, -339250.06, 87930.99, -0.016394671, -0.55590886, -164089.16, 69704.13, 0.0, 10.000711, 9.998974 
2.5917837e+3, 2.8613412e+2, -227785.97, -190487.56, -85330.38, 0.015187194, -0.37020674, -121792.234, 14062.656, 0.0, 9.99947, 9.999908 
2.5914088e+3, 2.9613075e+2, -425450.2, -275117.6, -125266.305, 0.14233966, -0.025226923, -204196.19, -166302.22, 0.0, 9.9975815, 9.999584 
2.5910312e+3, 3.06121e+2, -213932.11, -137982.25, -151248.64, -0.14296445, -0.26443088, -20014.082, -20014.082, 0.0, 9.998658, 9.999673 
2.5906608e+3, 3.1611496e+2, 164922.52, 112949.586, 35525.066, 0.22031978, -0.16420056, 182951.13, 182951.13, 0.0, 10.000898, 10.000324 
2.6077813e+3, 1.2662257e+2, -1834805.5, -1928991.9, -54239.31, 0.0024202112, -0.24356885, -1810067.9, -110992.125, 0.16949087, 9.999799, 9.998578 
2.6074108e+3, 1.3661362e+2, -1575153.8, -1726608.6, 29840.316, 0.46114528, -0.39470848, -1569486.5, 31675.865, 0.11391108, 10.000847, 9.998817 
2.6070336e+3, 1.4660692e+2, -1313404.9, -1366330.5, -48131.793, 0.40549606, -0.31878468, -1284940.9, 218285.94, 0.061296463, 10.00123, 10.000461 
2.606653e+3, 1.5660189e+2, -1225578.0, -1342024.3, -64189.887, 0.14626293, -0.19980541, -1197139.3, 208135.27, 0.023481611, 10.00139, 9.999853 
2.606279e+3, 1.6659416e+2, -1144380.3, -1301407.6, 158718.77, 0.085739404, -0.21906307, -1045817.56, 261530.67, 0.005220199, 10.001492, 9.999396 
2.6059085e+3, 1.7658472e+2, -1116568.6, -1298821.8, 132444.55, 0.16607915, -0.42079517, -1046929.5, 162509.08, 0.00041937284, 10.001242, 9.998881 
2.605533e+3, 1.8657705e+2, -1025449.56, -1167417.8, -96630.55, 0.10939161, -0.37543106, -976532.8, 134981.48, 0.0000020172258, 10.001074, 9.999165 
2.605154e+3, 1.9657063e+2, -994800.3, -1141282.3, -163991.33, -0.058645796, -0.2726864, -888437.8, 125141.19, 0.0, 10.000768, 9.998836 
2.60478e+3, 2.0656301e+2, -962540.5, -1027844.9, -23123.803, 0.012715533, -0.23835099, -955181.75, -39527.902, 0.0, 10.000176, 9.9991865 
2.6044083e+3, 2.1655434e+2, -1018516.44, -1031861.06, 41718.31, 0.24375208, -0.3438072, -982940.25, -165201.72, 0.0, 9.999194, 9.998993 
2.604031e+3, 2.2654726e+2, -705977.75, -545662.0, -111962.67, 0.21690561, -0.37702483, -488121.2, 231683.25, 0.0, 9.999457, 10.001516 
2.603651e+3, 2.3654117e+2, -603669.6, -499408.5, -141279.22, 0.039055206, -0.46242216, -400948.88, 220909.27, 0.0, 9.999701, 10.001054 
2.603274e+3, 2.4653538e+2, -588107.5, -421398.75, -115273.086, 0.05496872, -0.4458843, -362500.4, 161411.84, 0.0, 9.999079, 10.001199 
2.602899e+3, 2.5652978e+2, -687196.75, -492290.44, -117292.1, 0.17892954, -0.45488957, -437249.16, -11283.134, 0.0, 9.998025, 10.000565 
2.6025248e+3, 2.6652306e+2, -636631.75, -538889.2, 20330.803, 0.123115934, -0.41835368, -534828.94, -206795.78, 0.0, 9.998258, 9.9994335 
2.6021513e+3, 2.7651548e+2, -513427.25, -498611.72, 26657.719, -0.011227585, -0.45262253, -478351.66, -248241.3, 0.0, 9.998707, 9.998839 
2.6017755e+3, 2.8650922e+2, -384517.9, -375560.06, -143831.97, -0.064740986, -0.25588894, -236137.31, -103958.98, 0.0, 9.998852, 9.998947 
2.6013967e+3, 2.96504e+2, -394846.44, -400758.47, -103553.29, -0.17040882, 0.0030254684, -294207.0, -259968.89, 0.0, 9.998396, 9.998339 
2.60102e+3, 3.0649337e+2, -381799.25, -423187.44, 41034.18, -0.45256138, -0.16605636, -356536.3, -356536.3, 0.0, 9.998422, 9.997813 
2.600653e+3, 3.1648174e+2, -319450.7, -179064.56, 18994.96, 0.076872945, -0.4469599, -176539.84, -176539.84, 0.0, 9.997885, 9.999749 
2.6177734e+3, 1.2699498e+2, -1435534.5, -1398737.4, 65490.074, -0.1521214, -0.3764671, -1349110.5, 346319.7, 0.14988111, 10.0012455, 10.001886 
2.6174062e+3, 1.3699049e+2, -1349877.9, -1415977.5, 88990.3, 0.55578184, -0.31893688, -1287998.5, 309467.6, 0.09979579, 10.001627, 10.000723 
2.6170295e+3, 1.4698365e+2, -1328662.8, -1481375.4, -23513.135, 0.555109, -0.2680255, -1325124.5, 174408.39, 0.05285716, 10.00162, 9.999419 
2.616649e+3, 1.5697585e+2, -1232274.6, -1444004.4, -22393.178, 0.25076002, -0.307971, -1229932.1, 171680.56, 0.019694533, 10.001756, 9.998973 
2.616273e+3, 1.6696815e+2, -1066372.4, -1196859.1, 167097.42, -0.002640711, -0.31856006, -952232.75, 351451.9, 0.004163879, 10.0017395, 9.99998 
2.6158994e+3, 1.7696033e+2, -1077463.5, -1273619.3, 137326.92, -0.2077187, -0.4054826, -1006787.25, 198968.22, 0.00030229846, 10.001492, 9.998915 
2.6155248e+3, 1.8695118e+2, -1115642.1, -1446483.8, -88237.08, -0.111721314, -0.38563648, -1093580.1, 14269.314, 0.0000010444409, 10.001436, 9.997082 
2.61515e+3, 1.9694166e+2, -999912.06, -1278438.8, -148681.61, 0.09285249, -0.37390807, -935458.7, 74492.31, 0.0, 10.001252, 9.997676 
2.6147744e+3, 2.0693564e+2, -726433.7, -605808.44, -46930.766, 0.12039957, -0.2986893, -589700.44, 322306.03, 0.0, 10.000437, 10.001966 
2.6143992e+3, 2.1693099e+2, -837771.5, -710509.25, 31892.836, 0.09197734, -0.2608293, -702964.0, 111079.55, 0.0, 9.9994, 10.001097 
2.6140228e+3, 2.2692437e+2, -762801.2, -724968.9, -58460.63, 0.13183558, -0.25434124, -682440.25, 33667.34, 0.0, 9.99968, 10.0001955 
2.6136458e+3, 2.36917e+2, -585709.44, -635266.06, -113187.18, 0.19474666, -0.3173094, -494620.16, 123562.17, 0.0, 10.000382, 9.999815 
2.6132682e+3, 2.4690995e+2, -604849.75, -542735.2, -176668.38, 0.21984378, -0.3175375, -394415.03, 125836.87, 0.0, 9.999438, 10.000195 
2.61289e+3, 2.569031e+2, -763762.56, -611502.5, -164774.52, 0.22319257, -0.33360475, -506121.03, -83802.76, 0.0, 9.99782, 9.999857 
2.612515e+3, 2.6689646e+2, -627853.44, -409212.2, 37374.613, 0.06615246, -0.32496986, -402999.88, -78618.516, 0.0, 9.997756, 10.000573 
2.6121417e+3, 2.768898e+2, -483122.0, -362472.03, 38692.76, -0.13466372, -0.35673672, -351129.47, -124685.38, 0.0, 9.998348, 9.999962 
2.6117665e+3, 2.8688276e+2, -310979.4, -244452.38, -98224.2, -0.13233806, -0.34278277, -174012.2, -45495.92, 0.0, 9.998922, 9.999816 
2.6113895e+3, 2.9687586e+2, -179647.47, -191397.72, -30312.213, -0.116718814, -0.31952175, -154646.27, -124056.55, 0.0, 9.999396, 9.9993 
2.6110145e+3, 3.0686903e+2, -293080.22, -189791.1, 132353.2, -0.12282162, -0.23748723, -99363.38, -99363.38, 0.0, 9.998172, 9.999542 
2.610647e+3, 3.168624e+2, -292440.9, 160705.53, -56325.637, 0.53707457, -0.15989941, 167601.81, 167601.81, 0.0, 9.996598, 10.002709 
2.6277733e+3, 1.2737419e+2, -1062196.5, -1281318.3, 197463.98, 0.18875334, -0.3213939, -945935.25, 745779.7, 0.13183852, 10.004536, 10.001159 
2.6274005e+3, 1.373699e+2, -1156107.5, -1403254.4, 98061.664, 0.3843488, -0.16879788, -1121926.4, 471822.25, 0.08692957, 10.003497, 9.999884 
2.6270235e+3, 1.4736174e+2, -1214952.5, -1568047.6, -22139.037, 0.41205496, -0.1383424, -1213569.9, 282260.9, 0.045284744, 10.00302, 9.998175 
2.6266453e+3, 1.5735184e+2, -1173805.0, -1518839.6, -22756.371, 0.36361584, -0.2680525, -1172310.6, 225623.16, 0.01638905, 10.00261, 9.998065 
2.6262686e+3, 1.6734442e+2, -1020410.06, -1141697.9, 150439.1, 0.06461212, -0.23545383, -918851.6, 381151.9, 0.0032885466, 10.001952, 10.000247 
2.6258928e+3, 1.7733774e+2, -1138642.0, -1306581.1, 108269.41, -0.3102468, -0.23281036, -1085596.4, 116466.15, 0.00021471751, 10.001097, 9.998888 
2.625519e+3, 1.87328e+2, -1066631.0, -1442946.6, 7446.8687, -0.17130484, -0.2559866, -1066483.8, 37677.438, 0.00000047553752, 10.001903, 9.996864 
2.625146e+3, 1.9731715e+2, -777797.5, -1194200.8, 46250.324, 0.17879343, -0.34765035, -772722.25, 233552.72, 0.0, 10.002924, 9.9974375 
2.624769e+3, 2.073107e+2, -550058.0, -488326.16, -3058.3232, 0.17336246, -0.306671, -488175.0, 420157.6, 0.0, 10.001501, 10.002275 
2.6243907e+3, 2.1730633e+2, -931646.2, -748647.94, -74849.92, 0.017532432, -0.28057906, -721932.9, 88431.32, 0.0, 9.998743, 10.00116 
2.6240146e+3, 2.2729994e+2, -920928.9, -856603.5, -82040.67, 0.0870089, -0.23204322, -800646.3, -88218.484, 0.0, 9.998894, 9.9996395 
2.6236394e+3, 2.3729251e+2, -757056.1, -809839.5, -82752.41, 0.2518288, -0.254152, -696588.8, -82081.76, 0.0, 9.99966, 9.998949 
2.6232612e+3, 2.4728501e+2, -485297.88, -590342.8, -149541.8, 0.24293028, -0.20499165, -379323.16, 137260.48, 0.0, 10.000722, 9.999245 
2.6228815e+3, 2.572774e+2, -348630.66, -498190.3, -109589.1, 0.1502096, -0.20885931, -290738.75, 127920.4, 0.0, 10.001051, 9.999084 
2.6225057e+3, 2.6727048e+2, -350377.8, -197690.88, 64436.98, -0.024369115, -0.23612449, -174132.14, 146590.4, 0.0, 9.999325, 10.001273 
2.6221317e+3, 2.77264e+2, -687758.1, -404830.47, 38961.492, -0.22615688, -0.32749754, -399563.2, -176784.0, 0.0, 9.996717, 10.000459 
2.6217568e+3, 2.872567e+2, -510925.13, -245423.89, -83731.6, -0.21895577, -0.40552437, -221223.22, -96372.18, 0.0, 9.997188, 10.000628 
2.6213816e+3, 2.9724878e+2, -293352.72, -171442.55, -45987.4, -0.124366775, -0.57972246, -156040.83, -129109.6, 0.0, 9.998326, 9.9999485 
2.6210102e+3, 3.0724543e+2, -188450.22, 23639.34, -47673.273, 0.2902465, -0.259239, 33862.51, 33862.51, 0.0, 9.998215, 10.000984 
2.6206318e+3, 3.1723964e+2, -194472.3, 105687.83, 52473.313, -0.026252331, -0.2687391, 114596.68, 114596.68, 0.0, 9.997762, 10.00177 
2.6377752e+3, 1.2775554e+2, -1257134.9, -1553440.9, 105929.76, 0.57532424, -0.16869588, -1223160.4, 464817.47, 0.115286686, 10.003791, 9.999341 
2.6373935e+3, 1.377497e+2, -1269938.3, -1646354.1, 62221.094, 0.01564867, 0.0041789077, -1259919.9, 330109.47, 0.07524959, 10.003421, 9.998143 
2.6370165e+3, 1.4774007e+2, -1269556.5, -1714226.4, -23889.002, 0.11718075, 0.02272302, -1268276.8, 223851.6, 0.038529173, 10.00313, 9.997114 
2.6366422e+3, 1.577289e+2, -1182879.0, -1583156.8, -180.08815, 0.45328692, -0.129945, -1182878.9, 211366.77, 0.013527696, 10.002809, 9.997519 
2.6362652e+3, 1.6772191e+2, -957564.3, -1096368.5, 141720.88, 0.20134331, -0.0461581, -869164.44, 427148.88, 0.0025719018, 10.002294, 10.000411 
2.6358882e+3, 1.777163e+2, -1037559.4, -1209749.9, 114421.46, -0.2507214, 0.054598305, -980460.1, 217903.78, 0.00015054179, 10.001546, 9.999348 
2.6355144e+3, 1.8770704e+2, -939585.9, -1233550.1, 66851.9, -0.1521446, -0.015845913, -925096.9, 175356.44, 0.0000001940375, 10.002142, 9.998183 
2.635142e+3, 1.9769643e+2, -673905.6, -1064948.3, 71269.016, 0.13649213, -0.19614327, -661321.56, 341235.56, 0.0, 10.003271, 9.998161 
2.6347634e+3, 2.0768754e+2, -669048.75, -776057.2, -90777.71, 0.15709971, -0.30370918, -617180.8, 287458.0, 0.0, 10.001669, 10.000211 
2.634383e+3, 2.176797e+2, -972131.5, -919655.56, -122023.445, 0.0658848, -0.42043957, -821081.06, -14372.579, 0.0, 9.999082, 9.9998255 
2.6340064e+3, 2.2767314e+2, -834355.2, -747292.94, -30231.441, 0.059063103, -0.3735505, -737825.0, -29052.166, 0.0, 9.999165, 10.00027 
2.633631e+3, 2.3766705e+2, -636158.7, -696067.3, -29334.12, 0.09100062, -0.3091663, -624187.5, -13351.618, 0.0, 10.000207, 9.99947 
2.633253e+3, 2.4766047e+2, -409744.06, -586903.6, -84052.89, 0.025398223, -0.16738491, -376212.16, 136692.83, 0.0, 10.00136, 9.998964 
2.6328745e+3, 2.5765362e+2, -170580.48, -418213.0, -71063.81, -0.077527404, -0.060177818, -151636.34, 263340.1, 0.0, 10.002272, 9.999041 
2.6324975e+3, 2.6764542e+2, -280380.44, -198502.45, -40606.324, -0.15808752, -0.1949052, -181779.72, 135272.06, 0.0, 9.999918, 10.0009985 
2.6321214e+3, 2.7763718e+2, -728815.25, -421770.47, -36251.285, -0.22001274, -0.42507723, -417548.5, -198424.06, 0.0, 9.996379, 10.000517 
2.631747e+3, 2.876313e+2, -569389.5, -240646.63, -19921.719, -0.18067205, -0.377856, -239443.78, -118262.29, 0.0, 9.996588, 10.000972 
2.6313728e+3, 2.9762602e+2, -340747.2, -212548.97, -17039.383, -0.10455306, -0.30819073, -210322.84, -187086.27, 0.0, 9.998031, 9.999825 
2.6310015e+3, 3.0761802e+2, -262031.34, -276504.0, -123081.92, 0.2782331, -0.30523044, -145973.2, -145973.2, 0.0, 9.998821, 9.998651 
2.6306245e+3, 3.1761092e+2, 111373.836, 536500.3, -159689.88, 0.072450876, -0.25384435, 589801.7, 589801.7, 0.0, 9.998603, 10.0043335 
2.647769e+3, 1.281313e+2, -1501166.3, -1638751.1, -26629.805, 0.3683679, -0.18068998, -1496191.9, 188103.23, 0.100169286, 10.001762, 9.999635 
2.6473898e+3, 1.3812445e+2, -1360460.6, -1674380.0, -32988.54, 0.064205706, -0.1459876, -1357031.5, 229323.48, 0.06469245, 10.002688, 9.998281 
2.647013e+3, 1.4811502e+2, -1252660.3, -1667657.5, -55468.27, 0.1648198, -0.14336967, -1245374.4, 243076.22, 0.032530583, 10.003104, 9.997429 
2.6466376e+3, 1.5810455e+2, -1170232.9, -1588622.5, 28044.078, 0.41923672, -0.2549941, -1168361.5, 222198.17, 0.011066901, 10.0029545, 9.997403 
2.646261e+3, 1.6809742e+2, -909426.56, -1180089.3, 146814.55, 0.19604376, -0.12263658, -845085.5, 447546.88, 0.0019930317, 10.003068, 9.999465 
2.6458842e+3, 1.7809153e+2, -916720.56, -1220064.8, 47181.402, -0.19015168, 0.03446218, -909551.5, 285139.53, 0.00010503105, 10.002684, 9.998734 
2.6455095e+3, 1.8808325e+2, -927123.75, -1125487.1, -6607.6646, -0.14811122, 0.019185899, -926903.94, 169865.73, 0.00000008640195, 10.001807, 9.999072 
2.6451358e+3, 1.9807398e+2, -1092535.9, -1265047.9, -51123.4, 0.046917845, -0.121241696, -1078523.8, -79666.58, 0.0, 10.000421, 9.9981575 
2.644757e+3, 2.080642e+2, -856140.7, -1055800.5, -210019.97, 0.09454374, -0.22499375, -723431.56, 177519.42, 0.0, 10.001232, 9.998495 
2.6443768e+3, 2.180545e+2, -659201.25, -921035.94, -205698.22, 0.08841565, -0.3693899, -546292.56, 256751.14, 0.0, 10.001904, 9.99847 
2.6439995e+3, 2.2804767e+2, -496696.97, -564655.6, -97166.47, 0.042372704, -0.3237232, -427739.8, 277368.94, 0.0, 10.001401, 10.000446 
2.643623e+3, 2.3804186e+2, -683831.6, -739487.6, -116993.484, -0.020032018, -0.2606321, -591402.1, 15762.491, 0.0, 10.0, 9.999273 
2.6432455e+3, 2.4803516e+2, -693743.9, -749217.44, -165982.9, -0.084852375, -0.12135601, -553196.25, -43960.94, 0.0, 9.999558, 9.998699 
2.6428676e+3, 2.5802812e+2, -707971.4, -720816.7, -171247.94, -0.16024932, -0.026854532, -543025.7, -131715.28, 0.0, 9.998808, 9.998627 
2.6424894e+3, 2.6801965e+2, -434389.22, -302087.1, -204407.27, -0.22230722, -0.16602564, -153393.36, 159995.53, 0.0, 9.999041, 10.000679 
2.6421112e+3, 2.780108e+2, -428888.78, -325147.56, -145731.9, -0.25421375, -0.44567597, -222330.27, -6862.074, 0.0, 9.998681, 10.000061 
2.6417378e+3, 2.8800598e+2, -275850.47, -75790.05, -57584.293, -0.13261274, -0.29322675, -60399.316, 57115.39, 0.0, 9.998574, 10.001113 
2.641365e+3, 2.9800254e+2, -354443.13, -282752.3, -59974.66, -0.04222665, -0.054364014, -248727.47, -229176.9, 0.0, 9.99827, 9.999212 
2.6409915e+3, 3.0799028e+2, -468492.8, -580323.5, -79877.57, 0.09541525, -0.34730947, -426904.56, -426904.56, 0.0, 9.998305, 9.996802 
2.6406127e+3, 3.1797475e+2, -4511.1997, 586101.75, 26621.115, -0.27163437, -1.0100042, 587299.2, 587299.2, 0.0, 9.997381, 10.005261 
2.65776e+3, 1.2850556e+2, -1276960.9, -1448452.8, 90332.3, -0.045448374, -0.25839785, -1238158.4, 442468.25, 0.086429074, 10.003034, 10.000447 
2.6573882e+3, 1.3849722e+2, -1200039.9, -1501937.0, 45249.695, 0.28386408, -0.43679845, -1193403.5, 389294.5, 0.055199463, 10.003399, 9.999161 
2.657011e+3, 1.4848839e+2, -1119707.5, -1486107.3, -25744.629, 0.30038393, -0.46634543, -1117907.4, 366876.8, 0.027235242, 10.003546, 9.998456 
2.6566324e+3, 1.5847936e+2, -1070138.5, -1503150.4, 62064.492, 0.25492188, -0.5124482, -1061418.3, 325457.38, 0.0089680515, 10.003472, 9.997738 
2.656256e+3, 1.6847157e+2, -981303.9, -1378662.9, 160951.92, 0.07952092, -0.35985908, -924290.06, 364669.0, 0.0015322798, 10.003318, 9.997964 
2.6558807e+3, 1.7846425e+2, -912665.7, -1292182.9, 54154.74, -0.1619044, -0.19714049, -905089.4, 285948.8, 0.00007382683, 10.0030155, 9.99808 
2.655504e+3, 1.8845712e+2, -844027.7, -1019894.5, -32303.887, -0.17721179, -0.11511022, -838281.7, 254825.14, 0.000000036839044, 10.002069, 9.999684 
2.655128e+3, 1.984498e+2, -1015676.06, -1221807.6, -52046.82, -0.12389079, -0.09996576, -1003280.06, -8104.3438, 0.0, 10.000886, 9.998234 
2.65475e+3, 2.0844045e+2, -907543.7, -1233282.3, -150796.92, -0.03183315, -0.06906813, -848453.25, 48818.086, 0.0, 10.001536, 9.997124 
2.654372e+3, 2.1843077e+2, -605476.9, -982929.2, -172316.39, 0.047790963, -0.07779703, -538643.8, 260727.33, 0.0, 10.002613, 9.997708 
2.6539943e+3, 2.2842354e+2, -445709.0, -557692.06, -139248.78, 0.03496093, -0.040103372, -351616.3, 349821.16, 0.0, 10.001811, 10.000304 
2.653617e+3, 2.3841688e+2, -614787.9, -721218.2, -158540.38, 0.0064494023, -0.036665883, -500769.94, 102726.38, 0.0, 10.000489, 9.999174 
2.6532394e+3, 2.4840781e+2, -727483.1, -786020.44, -199753.53, 0.053830914, -0.11389628, -554865.4, -49277.285, 0.0, 9.999392, 9.998544 
2.6528615e+3, 2.583985e+2, -757149.7, -730795.75, -185072.56, 0.097696446, -0.22130556, -558431.6, -150747.23, 0.0, 9.998378, 9.99877 
2.6524827e+3, 2.6839226e+2, -432687.9, -309285.25, -168696.52, -0.09498861, -0.14213745, -191360.39, 118384.67, 0.0, 9.999072, 10.000612 
2.6521042e+3, 2.7838662e+2, -205859.2, -214880.5, -138312.05, -0.2714004, -0.082682714, -71984.28, 139813.9, 0.0, 10.000161, 10.000112 
2.651731e+3, 2.883799e+2, -101158.695, -38307.152, -98756.164, -0.077778, -0.10362681, 33902.777, 147765.58, 0.0, 9.999934, 10.000735 
2.6513582e+3, 2.9837364e+2, -170010.3, -102986.37, -130357.86, 0.1012602, -0.11874134, -1901.8131, 14021.671, 0.0, 9.99911, 10.000038 
2.650983e+3, 3.0836737e+2, -343795.63, -189903.42, -93191.78, 0.16943668, -0.037220854, -145996.67, -145996.67, 0.0, 9.997735, 9.999758 
2.6506057e+3, 3.183577e+2, -170434.39, 355361.44, 198658.27, 0.004173641, -0.32016528, 421978.97, 421978.97, 0.0, 9.996843, 10.003953 
2.6677594e+3, 1.2888695e+2, -949045.56, -1560898.1, 243571.4, 0.05505449, -0.1628345, -863924.7, 812960.5, 0.073998585, 10.006657, 9.997835 
2.667386e+3, 1.3887452e+2, -1067267.8, -1642225.1, 80839.88, 0.32172954, -0.50788665, -1056117.9, 522887.22, 0.046711136, 10.005211, 9.997305 
2.667007e+3, 1.4886616e+2, -912108.44, -1398332.6, -11683.015, 0.20435706, -0.41718712, -911827.94, 569260.1, 0.022592442, 10.005052, 9.998344 
2.6666275e+3, 1.5885872e+2, -892832.2, -1466921.8, 15050.903, 0.043184612, -0.2942362, -892437.8, 490725.63, 0.0071954923, 10.004918, 9.997301 
2.666252e+3, 1.6884981e+2, -937328.4, -1440298.0, 111234.984, -0.019373959, -0.19342862, -913826.25, 371430.6, 0.001170623, 10.004002, 9.997198 
2.6658773e+3, 1.7884076e+2, -1046403.8, -1423966.5, 41894.844, -0.069799334, -0.135531, -1041811.0, 145540.89, 0.00005271245, 10.002432, 9.997444 
2.6654997e+3, 1.888327e+2, -852358.6, -1042472.9, -66030.11, -0.13939004, -0.1159088, -831675.4, 257753.33, 0.000000014947995, 10.002135, 9.999489 
2.6651216e+3, 1.9882505e+2, -959009.8, -1243344.0, -116322.66, -0.17652804, -0.11396022, -917485.75, 74014.414, 0.0, 10.001551, 9.997757 
2.664744e+3, 2.0881586e+2, -874434.7, -1260320.5, -110500.97, -0.12028073, -0.029780248, -845032.3, 48563.73, 0.0, 10.001991, 9.996693 
2.664366e+3, 2.188065e+2, -753109.4, -1099499.8, -92811.12, -0.035313975, 0.03387068, -729809.06, 65885.914, 0.0, 10.001869, 9.997238 
2.6639885e+3, 2.2879866e+2, -549591.75, -626371.56, -91630.266, 0.022055207, 0.040153146, -488634.34, 209132.06, 0.0, 10.001224, 10.0000925 
2.663611e+3, 2.3879114e+2, -734452.0, -797264.44, -110751.15, 0.07568167, -0.021356013, -650740.1, -50908.14, 0.0, 9.999799, 9.998983 
2.663233e+3, 2.4878168e+2, -587568.9, -672205.25, -88270.6, 0.13481043, -0.148425, -531996.7, -30070.502, 0.0, 10.00018, 9.998939 
2.6628548e+3, 2.5877196e+2, -501629.2, -615439.3, -13638.205, 0.16874205, -0.32251287, -500017.72, -95992.21, 0.0, 10.000205, 9.998679 
2.6624757e+3, 2.6876685e+2, -302646.22, -287663.53, 9625.636, -0.046373997, -0.09221261, -282957.63, 23121.041, 0.0, 10.000165, 10.000229 
2.6620975e+3, 2.7876273e+2, -331220.84, -330804.1, 6423.891, -0.2693436, 0.16685979, -324585.2, -116464.14, 0.0, 9.999579, 9.999598 
2.661724e+3, 2.8875408e+2, -197487.9, -125170.84, -735.2365, -0.06270481, 0.0029912172, -125163.37, -14959.516, 0.0, 9.999471, 10.000354 
2.6613507e+3, 2.9874521e+2, -222550.8, -103505.74, -46042.957, 0.12149234, -0.2391878, -87776.125, -75487.78, 0.0, 9.998665, 10.000256 
2.6609752e+3, 3.087447e+2, -87056.34, 184044.39, -141429.67, 0.27276647, 0.26441616, 244392.61, 244392.61, 0.0, 9.9984455, 10.001966 
2.6606002e+3, 3.1873676e+2, -175490.83, 81583.375, 116970.76, 0.3957792, -0.01671636, 126839.1, 126839.1, 0.0, 9.998016, 10.001499 
2.677761e+3, 1.2926976e+2, -1321027.6, -2118296.3, 92531.33, 0.22830601, -0.049526915, -1310429.3, 362701.13, 0.0627775, 10.005497, 9.994497 
2.6773834e+3, 1.3925327e+2, -1214433.5, -1964461.9, 47884.027, 0.20966403, -0.48129395, -1211388.8, 363912.75, 0.039145034, 10.005175, 9.995121 
2.6770028e+3, 1.4924593e+2, -923358.2, -1468922.1, 9184.553, -0.02135776, -0.18660013, -923203.6, 554175.25, 0.018543089, 10.005258, 9.997745 
2.6766232e+3, 1.5924011e+2, -854099.1, -1491683.0, 23674.854, -0.2301704, 0.1669283, -853221.25, 526218.9, 0.0057106293, 10.00535, 9.996927 
2.676248e+3, 1.6923021e+2, -920181.75, -1452354.0, 79402.49, -0.12600194, 0.19377017, -908587.1, 372952.44, 0.0008890518, 10.004189, 9.997027 
2.6758736e+3, 1.7921962e+2, -1007823.8, -1431462.0, 27503.594, -0.0041040187, 0.12173522, -1006045.7, 177599.36, 0.000037964888, 10.002795, 9.997207 
2.6754957e+3, 1.8920925e+2, -863902.6, -1134367.6, -58689.773, -0.060876377, -0.025015067, -851716.25, 234025.64, 0.0000000057994387, 10.002419, 9.998727 
2.675117e+3, 1.9919929e+2, -879297.5, -1210135.6, -94349.56, -0.15754661, -0.18126889, -854282.0, 133552.4, 0.0, 10.002091, 9.997725 
2.6747382e+3, 2.0919028e+2, -776300.0, -1120057.4, -77999.04, -0.18432114, -0.13254394, -759429.8, 130495.23, 0.0, 10.002253, 9.997536 
2.67436e+3, 2.1918142e+2, -621334.4, -961266.4, -75968.34, -0.1881415, -0.08889346, -605129.4, 186885.84, 0.0, 10.002396, 9.997942 
2.6739827e+3, 2.2917242e+2, -540654.1, -654395.2, -112405.02, 0.005622839, -0.20215687, -471551.84, 222547.2, 0.0, 10.001387, 9.999837 
2.673605e+3, 2.3916388e+2, -624327.4, -676356.56, -92034.73, 0.20052849, -0.3412369, -554701.25, 41475.92, 0.0, 10.000214, 9.999623 
2.6732257e+3, 2.4915779e+2, -394839.56, -397869.66, -15732.43, 0.07194902, -0.26123315, -380549.4, 117687.74, 0.0, 10.000686, 10.000591 
2.672846e+3, 2.591519e+2, -277818.34, -418270.78, 58145.7, -0.10391701, -0.18106435, -256870.84, 143425.77, 0.0, 10.001304, 9.999517 
2.6724684e+3, 2.6914495e+2, -274019.75, -388225.06, 49400.58, -0.1424332, -0.08474959, -255616.58, 46750.48, 0.0, 10.000804, 9.999254 
2.6720914e+3, 2.7913788e+2, -295246.3, -343102.03, 44073.977, -0.12416202, -0.023673488, -269023.8, -64585.477, 0.0, 9.99992, 9.999349 
2.6717165e+3, 2.8912932e+2, -209989.83, -117743.125, 63195.8, -0.06202065, -0.17666113, -85629.19, 20890.953, 0.0, 9.999328, 10.000485 
2.6713407e+3, 2.9912078e+2, -243590.98, -206928.42, 34243.617, -0.054934554, -0.34877548, -186418.22, -177817.13, 0.0, 9.998867, 9.99947 
2.6709658e+3, 3.091173e+2, -118365.31, -101216.99, -101989.53, 0.14299372, 0.06275219, -7441.848, -7441.848, 0.0, 9.99938, 9.999562 
2.67059e+3, 3.191088e+2, 9281.737, 99562.26, 46676.57, 0.122687414, -0.05846987, 119355.39, 119355.39, 0.0, 9.999531, 10.000899 
2.6877585e+3, 1.2964353e+2, -1463968.1, -1825778.4, -124932.37, 0.29178578, -0.10538253, -1425021.5, 244459.34, 0.05266899, 10.002832, 9.997807 
2.6873812e+3, 1.3963498e+2, -1114087.0, -1769223.9, 9886.06, 0.1984826, -0.049137443, -1113937.8, 457629.78, 0.03242223, 10.00527, 9.996394 
2.6870018e+3, 1.4962563e+2, -861224.2, -1558313.8, -8070.321, 0.008265625, 0.07422444, -861130.75, 612532.9, 0.01503216, 10.00615, 9.996702 
2.686623e+3, 1.5961644e+2, -779323.44, -1489150.3, -51072.855, -0.11963215, 0.16462816, -775667.5, 600089.8, 0.0044763554, 10.0060215, 9.99662 
2.6862457e+3, 1.6960602e+2, -841791.4, -1341680.5, -692.47614, -0.07432861, 0.09438982, -841790.44, 436065.53, 0.00066900725, 10.004414, 9.997692 
2.6858693e+3, 1.7959543e+2, -1065165.5, -1456822.5, 28162.416, -0.0022354573, -0.028244033, -1063150.9, 116805.086, 0.000027210404, 10.002399, 9.99724 
2.6854917e+3, 1.8958558e+2, -810698.6, -1162903.3, 19504.709, -0.023693634, -0.0861579, -809621.75, 272429.6, 0.000000001728097, 10.003056, 9.998205 
2.6851135e+3, 1.9957599e+2, -745528.8, -1167517.4, -28878.264, -0.06143006, -0.15645331, -743561.7, 240582.81, 0.0, 10.003118, 9.997528 
2.6847336e+3, 2.0956697e+2, -857398.2, -1089265.3, -43445.688, -0.12206409, -0.143294, -849524.94, 36709.043, 0.0, 10.001392, 9.998163 
2.684354e+3, 2.1955822e+2, -1101085.8, -1157646.1, -38788.805, -0.1660816, -0.14482087, -1081362.4, -293041.78, 0.0, 9.998984, 9.99824 
2.6839757e+3, 2.2954918e+2, -797005.7, -765641.5, -42560.734, -0.036519315, -0.2773473, -735965.6, -45559.984, 0.0, 9.999606, 9.999912 
2.6835975e+3, 2.395406e+2, -702081.44, -725225.44, 6944.3906, 0.12884356, -0.42260548, -700157.7, -107671.734, 0.0, 9.999789, 9.9994755 
2.6832187e+3, 2.4953589e+2, -483219.63, -409916.88, 1020.29706, 0.03609421, -0.21955305, -409902.7, 84630.57, 0.0, 9.999997, 10.000807 
2.6828393e+3, 2.5953165e+2, -569707.9, -592741.4, -51362.484, -0.13474259, -0.0075362013, -528586.8, -132010.47, 0.0, 9.999484, 9.999187 
2.6824614e+3, 2.695228e+2, -594121.4, -590779.7, -49798.348, -0.1497578, -0.073208205, -542624.2, -243962.25, 0.0, 9.998844, 9.998786 
2.682084e+3, 2.7951327e+2, -653288.0, -576885.75, 12765.431, -0.09790609, -0.22108236, -574809.3, -374055.25, 0.0, 9.997751, 9.99879 
2.681708e+3, 2.8950527e+2, -350042.44, -194905.45, 25945.195, -0.12163211, -0.299505, -190681.38, -87851.63, 0.0, 9.998412, 10.000384 
2.681331e+3, 2.994977e+2, -387354.44, -409065.22, -1385.4594, -0.2040006, -0.36112458, -387266.4, -382363.88, 0.0, 9.998497, 9.998248 
2.6809567e+3, 3.0949017e+2, -358806.06, -463347.4, -33154.625, 0.010429301, -0.16042599, -349178.03, -349178.03, 0.0, 9.998818, 9.997332 
2.6805794e+3, 3.1948286e+2, -321149.9, -102796.14, 158851.11, -0.20254967, 0.022912947, -19221.197, -19221.197, 0.0, 9.9975195, 10.000462 
2.6977545e+3, 1.3001467e+2, -1015681.5, -1027688.3, 15846.669, 0.24900101, -0.20662396, -1004739.2, 661121.3, 0.043609764, 10.003445, 10.003161 
2.6973796e+3, 1.4001738e+2, -956878.2, -1430754.0, 40777.117, 0.17121403, 0.51119393, -953394.9, 614430.1, 0.026484301, 10.005228, 9.998749 
2.6970026e+3, 1.5000449e+2, -989701.94, -1739034.5, -9311.686, 0.14558281, 0.2943898, -989586.2, 480367.03, 0.012009205, 10.005756, 9.995649 
2.696625e+3, 1.599898e+2, -812055.1, -1484961.1, -70088.32, 0.15036754, -0.08367536, -804832.44, 567266.06, 0.0034557066, 10.0056925, 9.9967985 
2.6962444e+3, 1.6997889e+2, -771624.4, -1165873.1, -57875.26, 0.031445887, -0.30677873, -763303.94, 510889.9, 0.00049606664, 10.004253, 9.998977 
2.695864e+3, 1.7996915e+2, -970467.06, -1337857.3, 26331.916, -0.09557508, -0.45224753, -968589.4, 207689.45, 0.00001910138, 10.002709, 9.997902 
2.695488e+3, 1.8996182e+2, -811393.9, -1195348.1, 67550.23, -0.021718262, -0.25493804, -799856.25, 278501.06, 0.0000000002885943, 10.003167, 9.997932 
2.6951113e+3, 1.9995469e+2, -649117.1, -1096010.1, -40943.445, 0.065799065, -0.055882484, -645396.94, 335038.56, 0.0, 10.003628, 9.997774 
2.69473e+3, 2.0994581e+2, -789875.94, -1000527.25, -114718.68, 0.06652972, -0.070794225, -739465.06, 143059.53, 0.0, 10.001551, 9.998722 
2.694348e+3, 2.1993718e+2, -988634.6, -1007294.1, -44392.945, 0.022962233, -0.11394162, -952601.6, -167991.61, 0.0, 9.999298, 9.99912 
2.693967e+3, 2.2993016e+2, -733604.7, -666612.06, 19992.445, -0.16390571, -0.112568215, -661099.4, 25576.244, 0.0, 9.999715, 10.000552 
2.693587e+3, 2.3992345e+2, -646183.3, -747183.3, 51251.9, -0.2607126, -0.09601375, -624731.94, -35992.83, 0.0, 10.000352, 9.99905 
2.693213e+3, 2.4991663e+2, -622497.06, -736233.3, -0.6315761, 0.1531259, 0.0789939, -622497.06, -131684.34, 0.0, 10.000129, 9.998518 
2.692838e+3, 2.5990948e+2, -581711.3, -648221.9, -92655.99, 0.47869948, 0.20264009, -516523.47, -123635.22, 0.0, 9.999567, 9.998772 
2.6924548e+3, 2.6989928e+2, -560194.8, -439766.8, -94575.766, 0.06038881, -0.07641788, -387863.47, -92884.17, 0.0, 9.998468, 10.000017 
2.6920724e+3, 2.798893e+2, -673241.6, -556261.7, 31316.684, -0.33984315, -0.3572959, -548405.5, -351337.4, 0.0, 9.997441, 9.999082 
2.6916984e+3, 2.8988317e+2, -446812.9, -355569.75, 66471.875, -0.22374465, -0.17811285, -320569.75, -221442.33, 0.0, 9.998206, 9.999378 
2.6913244e+3, 2.998771e+2, -284951.47, -321171.03, -8076.8013, -0.06911823, -0.015254363, -283232.03, -282044.03, 0.0, 9.999005, 9.998595 
2.6909497e+3, 3.0986598e+2, -288527.75, -272181.06, -1790.17, 0.14537805, -0.29245386, -271987.3, -271987.3, 0.0, 9.998569, 9.998797 
2.690569e+3, 3.198596e+2, -490669.8, -237784.42, 88642.24, -0.21847126, -0.094810866, -209808.2, -209808.2, 0.0, 9.99651, 10.000051 
2.707751e+3, 1.3039061e+2, -947841.2, -1302774.6, 154206.39, 0.14201312, -0.20233932, -890203.56, 771962.56, 0.035541452, 10.005264, 10.000291 
2.7073786e+3, 1.4038737e+2, -1055523.3, -1583745.3, -120677.984, 0.23470463, 0.15491818, -1029259.06, 534938.94, 0.021268584, 10.00495, 9.997834 
2.707001e+3, 1.5037724e+2, -1151913.9, -1692617.0, -152763.08, 0.22459643, 0.13439836, -1111739.3, 354562.3, 0.009415496, 10.004104, 9.996763 
2.7066228e+3, 1.6036572e+2, -1141049.1, -1539420.9, -148105.9, 0.24242759, -0.03980456, -1092020.6, 276395.78, 0.0026134893, 10.002987, 9.997729 
2.7062416e+3, 1.7035557e+2, -973857.8, -1167763.3, -156313.5, 0.14845723, -0.28295842, -886871.06, 383631.63, 0.0003600524, 10.002472, 9.9998045 
2.7058607e+3, 1.803463e+2, -1129833.0, -1380073.5, -73885.77, 0.011391381, -0.4606296, -1109646.1, 62936.19, 0.000012952271, 10.00149, 9.998198 
2.7054822e+3, 1.9033964e+2, -1165401.4, -1355613.0, 5456.8823, -0.075896576, -0.22488834, -1165245.0, -90587.74, 0.000000000007316074, 10.000677, 9.998039 
2.7051044e+3, 2.0033321e+2, -1214302.1, -1326122.3, -83636.055, -0.09010235, 0.021401865, -1169609.5, -192878.31, 0.0, 9.99959, 9.99815 
2.7047238e+3, 2.1032538e+2, -874081.4, -935288.6, -141822.95, 0.052806057, 0.020694757, -759597.6, 119210.83, 0.0, 10.000546, 9.999645 
2.7043423e+3, 2.2031744e+2, -784859.44, -921806.8, -29055.441, 0.12518342, -0.021110957, -778949.9, 1935.4972, 0.0, 10.000797, 9.998982 
2.7039596e+3, 2.3031022e+2, -594092.4, -662006.0, -28399.451, -0.19263186, -0.0017123878, -583781.9, 99172.57, 0.0, 10.000997, 9.999942 
2.7035785e+3, 2.4030337e+2, -693834.9, -882483.56, -69323.64, -0.42908347, 0.054083355, -671100.06, -86079.02, 0.0, 10.000533, 9.998038 
2.703206e+3, 2.5029552e+2, -615669.0, -830763.1, -30013.176, 0.14744468, 0.20187968, -611559.6, -124452.9, 0.0, 10.000615, 9.99762 
2.702833e+3, 2.602871e+2, -531205.1, -665571.56, -15471.775, 0.681889, 0.27289602, -529446.6, -140250.7, 0.0, 10.000155, 9.998355 
2.7024484e+3, 2.702766e+2, -87614.78, -137970.05, -62325.363, 0.15419935, -0.06936049, -45573.637, 245712.56, 0.0, 10.001445, 10.000637 
2.7020636e+3, 2.8026673e+2, -90041.95, -310165.3, 22758.277, -0.42749834, -0.3823478, -87713.63, 105656.38, 0.0, 10.001651, 9.998736 
2.70169e+3, 2.9026142e+2, -212758.83, -363397.38, 71492.555, -0.25841647, -0.041350946, -184231.2, -88807.36, 0.0, 10.000351, 9.998288 
2.7013168e+3, 3.0025575e+2, -360509.72, -319637.25, -5001.5103, -0.010014094, 0.23420268, -319034.13, -319034.13, 0.0, 9.998357, 9.998922 
2.7009422e+3, 3.1024256e+2, -405657.75, -98719.54, -12825.037, 0.2905721, -0.41461593, -98184.59, -98184.59, 0.0, 9.996832, 10.000803 
2.700558e+3, 3.2023805e+2, -701831.44, -385922.1, -18407.477, -0.2621243, -0.16808264, -384853.13, -384853.13, 0.0, 9.99532, 9.999603 
2.717749e+3, 1.3076752e+2, -1254231.8, -2073489.9, 183870.36, -0.011976227, -0.21163735, -1214857.1, 443597.16, 0.028406445, 10.00578, 9.994671 
2.717377e+3, 1.4075245e+2, -1174837.0, -1791421.9, -48194.06, 0.26599148, -0.5791004, -1171092.8, 389524.78, 0.016711893, 10.004744, 9.996497 
2.7169982e+3, 1.5074798e+2, -1033470.6, -1395847.4, -92721.695, 0.21702085, -0.15550897, -1011123.94, 451545.2, 0.0071980706, 10.0039, 9.998891 
2.7166188e+3, 1.607435e+2, -1024096.94, -1321975.5, -105410.87, 0.18355097, 0.19131221, -990568.8, 374148.22, 0.0019202423, 10.003091, 9.999169 
2.7162382e+3, 1.7073464e+2, -914086.6, -1081749.0, -134303.81, 0.26324126, 0.010114095, -839597.94, 427196.03, 0.00025324232, 10.002634, 10.000322 
2.7158573e+3, 1.8072566e+2, -1024611.75, -1263133.8, -75802.31, 0.21627644, -0.17751937, -1002560.44, 166313.66, 0.000008369746, 10.001894, 9.998813 
2.7154744e+3, 1.9071838e+2, -1107148.8, -1260027.5, -8537.092, -0.22743562, -0.05801452, -1106673.5, -35718.25, 0.0, 10.000778, 9.998653 
2.715093e+3, 2.0071174e+2, -1059725.6, -1103198.6, -62848.094, -0.5455381, 0.09132346, -1014961.3, -41931.926, 0.0, 9.999992, 9.999488 
2.7147147e+3, 2.1070583e+2, -745057.5, -723297.6, -81260.195, -0.17324544, 0.15563898, -652192.25, 222891.42, 0.0, 10.000783, 10.000997 
2.7143368e+3, 2.2069907e+2, -706669.2, -928849.6, 3328.5857, 0.14259523, 0.15627088, -706619.3, 70526.63, 0.0, 10.001494, 9.998604 
2.7139556e+3, 2.3068802e+2, -684267.6, -957034.44, -22724.81, -0.03191467, -0.012479211, -682387.3, -3132.7898, 0.0, 10.00143, 9.997734 
2.7135748e+3, 2.4067765e+2, -569312.06, -792284.2, -74165.336, -0.23900814, -0.14007778, -546896.5, 34460.652, 0.0, 10.001212, 9.998332 
2.7131966e+3, 2.506709e+2, -428889.03, -526266.9, -18321.78, -0.19494171, -0.035427473, -425555.84, 57870.754, 0.0, 10.000946, 9.999565 
2.7128193e+3, 2.6066422e+2, -367811.47, -511756.94, 65396.16, -0.059421442, 0.06358219, -342538.47, 42955.664, 0.0, 10.000926, 9.999032 
2.7124432e+3, 2.7065554e+2, 41263.22, -193880.02, 41493.91, 0.085458, -0.028000198, 48370.508, 335942.44, 0.0, 10.002807, 9.999613 
2.7120656e+3, 2.806467e+2, 223339.83, -208909.58, 10347.272, 0.13325314, -0.13511658, 223587.38, 413239.25, 0.0, 10.0040045, 9.998286 
2.711686e+3, 2.9063848e+2, -57610.51, -323766.44, -13759.922, -0.0828365, -0.046218473, -56901.035, 34833.953, 0.0, 10.001571, 9.997971 
2.7113065e+3, 3.0063063e+2, -240294.83, -118666.5, -73454.83, -0.17650847, 0.0074281944, -84118.336, -84118.336, 0.0, 9.998528, 10.00022 
2.710934e+3, 3.1062227e+2, -398112.4, 147194.16, -71303.2, 0.60054475, -0.34751442, 156363.45, 156363.45, 0.0, 9.995819, 10.00299 
2.7105474e+3, 3.206192e+2, -613228.3, -182191.6, 154629.42, -0.0991417, -0.13922414, -132458.33, -132458.33, 0.0, 9.9952135, 10.001048 
2.727748e+3, 1.3114801e+2, -1132381.4, -2145983.8, 208555.9, -0.08363472, -0.1753391, -1091147.0, 563576.94, 0.02218155, 10.007171, 9.993519 
2.7273735e+3, 1.4113282e+2, -1245933.3, -1792404.0, 144965.25, 0.20652679, -0.46129042, -1209858.9, 347032.1, 0.01278238, 10.004049, 9.996852 
2.7269933e+3, 1.5112825e+2, -1019183.06, -1236966.1, 155777.28, 0.13118252, -0.14721568, -938011.6, 520926.16, 0.005327248, 10.003302, 10.0003 
2.7266136e+3, 1.6112381e+2, -1122634.6, -1419613.3, 123036.73, 0.112763286, 0.1467464, -1078284.4, 282697.78, 0.0013580795, 10.002639, 9.998732 
2.7262336e+3, 1.7111409e+2, -985744.8, -1272307.8, 12037.17, 0.24294066, 0.020790415, -985240.06, 277836.0, 0.00016970174, 10.002859, 9.998897 
2.725853e+3, 1.8110467e+2, -986778.7, -1279619.1, -40997.36, 0.25930294, -0.09200233, -981147.4, 184020.45, 0.0000049540654, 10.002365, 9.998463 
2.7254683e+3, 1.9109769e+2, -1055419.6, -1172723.3, -2982.7942, -0.21171026, 0.021085866, -1055343.9, 11899.774, 0.0, 10.000903, 9.999178 
2.725085e+3, 2.0109104e+2, -1175761.5, -1156095.8, -22973.234, -0.55725163, 0.1366078, -1140939.5, -171624.94, 0.0, 9.999232, 9.999476 
2.724708e+3, 2.1108465e+2, -807693.56, -763376.44, -100855.79, -0.2082509, 0.1556172, -682273.75, 189099.13, 0.0, 10.000454, 10.000846 
2.7243307e+3, 2.2107753e+2, -849925.0, -1070552.0, -111832.04, 0.13388357, 0.14016826, -803154.2, -29715.816, 0.0, 10.000874, 9.99792 
2.7239507e+3, 2.3106599e+2, -911730.75, -1134691.9, -46355.324, 0.08710097, -0.030226123, -902477.2, -226924.38, 0.0, 10.000203, 9.997082 
2.72357e+3, 2.4105498e+2, -901402.2, -948873.4, 15419.41, -0.042925388, -0.17379734, -896833.44, -319171.13, 0.0, 9.998981, 9.998322 
2.7231887e+3, 2.5104833e+2, -546159.94, -478402.78, 722.8456, -0.29686055, -0.13240236, -478395.06, 1332.0201, 0.0, 9.99973, 10.000458 
2.7228093e+3, 2.6104218e+2, -559176.7, -632912.2, 39326.4, -0.4193156, -0.047862824, -542139.0, -160352.53, 0.0, 9.999771, 9.998765 
2.7224377e+3, 2.7103475e+2, -511053.3, -533458.5, 66442.0, 0.08689759, 0.028713886, -454876.1, -171019.83, 0.0, 9.99936, 9.998927 
2.7220646e+3, 2.8102666e+2, -622915.1, -672919.7, 16416.068, 0.48003647, 0.059645094, -618007.5, -432074.47, 0.0, 9.9984665, 9.997774 
2.7216804e+3, 2.9101628e+2, -521524.38, -526278.2, -11761.054, 0.025153298, -0.07873373, -511902.44, -423865.13, 0.0, 9.998317, 9.998138 
2.7212965e+3, 3.0100703e+2, -361414.0, -112455.52, -59412.848, -0.31567717, -0.18924847, -99003.734, -99003.734, 0.0, 9.997445, 10.000787 
2.7209252e+3, 3.1100294e+2, -69288.49, 425152.94, -170500.94, 0.81327987, -0.22457266, 478246.5, 478246.5, 0.0, 9.997568, 10.0040455 
2.720536e+3, 3.209988e+2, -193057.0, 114711.61, 240151.25, -0.21098024, -0.23256059, 246051.78, 246051.78, 0.0, 9.997757, 10.001835 
2.7377468e+3, 1.3153039e+2, -1257166.9, -2140703.8, 47207.445, -0.2109936, -0.06690422, -1254651.8, 396329.56, 0.016842099, 10.006, 9.994101 
2.7373692e+3, 1.4151968e+2, -1171445.0, -1620811.0, 99602.63, 0.042996436, 0.0080858, -1150357.5, 402743.9, 0.009464787, 10.003977, 9.998058 
2.7369884e+3, 1.5151261e+2, -968692.3, -1094224.5, 133521.75, -0.021944238, -0.04025987, -883919.8, 571243.56, 0.0037924107, 10.003144, 10.00135 
2.7366078e+3, 1.6150497e+2, -1212623.9, -1594482.4, 105702.36, -0.034970243, -0.09193601, -1185317.1, 171916.39, 0.0009170214, 10.002596, 9.997533 
2.736228e+3, 1.7149372e+2, -1153240.9, -1626901.9, 43553.867, 0.09593496, -0.14008108, -1149269.4, 110084.375, 0.0001065257, 10.002914, 9.996424 
2.7358475e+3, 1.8148361e+2, -953554.06, -1301794.3, -40678.06, 0.14874299, -0.13430528, -948865.56, 212595.8, 0.0000025959862, 10.002744, 9.998124 
2.735464e+3, 1.9147748e+2, -983487.56, -1080210.0, -36814.293, -0.031990364, 0.034652572, -971069.7, 92453.555, 0.0, 10.001117, 9.99973 
2.7350813e+3, 2.0147084e+2, -1136333.0, -1211339.5, 3097.6606, -0.19043571, 0.14122638, -1136205.3, -170615.77, 0.0, 9.9997835, 9.99883 
2.7347025e+3, 2.1146092e+2, -880109.44, -992123.6, -32414.45, -0.10207812, -0.037556272, -871405.7, -3720.3984, 0.0, 10.0007515, 9.9991455 
2.734324e+3, 2.2145177e+2, -719923.5, -947168.5, -105719.97, 0.016633108, -0.14340147, -678346.8, 91426.695, 0.0, 10.001465, 9.99848 
2.733944e+3, 2.3144464e+2, -779665.2, -881232.25, -73014.22, 0.12254088, -0.016638247, -741510.3, -69666.695, 0.0, 10.000269, 9.998795 
2.7335644e+3, 2.4143732e+2, -840196.25, -881168.3, 47068.13, 0.19479096, 0.089460485, -809349.2, -235433.25, 0.0, 9.999204, 9.998673 
2.7331862e+3, 2.5142917e+2, -596929.3, -616380.44, 49562.348, 0.18793295, 0.06305924, -556147.3, -80150.79, 0.0, 9.999835, 9.9994755 
2.732808e+3, 2.6142132e+2, -498586.78, -570378.4, 17547.535, 0.16282222, 0.046565477, -494527.3, -116453.914, 0.0, 10.000012, 9.999073 
2.7324298e+3, 2.714137e+2, -617388.0, -521494.88, 18683.771, 0.15433922, 0.05977036, -517983.13, -237838.66, 0.0, 9.998337, 9.999511 
2.7320516e+3, 2.814059e+2, -749776.25, -572607.56, 28267.863, 0.19577353, 0.041671705, -568206.6, -385988.72, 0.0, 9.996829, 9.999271 
2.731671e+3, 2.9139718e+2, -582980.25, -368601.78, 57476.305, 0.10031342, -0.07875005, -354164.3, -269863.5, 0.0, 9.997023, 9.999886 
2.7312896e+3, 3.0138916e+2, -424549.88, -261500.25, 45145.598, -0.035818234, -0.14127672, -249834.83, -249834.83, 0.0, 9.9975, 9.999734 
2.730912e+3, 3.1138325e+2, -81653.84, 57992.844, -119049.49, 0.3317012, -0.07400989, 126184.29, 126184.29, 0.0, 9.999036, 10.000808 
2.7305278e+3, 3.2137597e+2, 96959.76, 134389.02, 209225.86, -0.27419415, -0.12499818, 325735.56, 325735.56, 0.0, 10.000232, 10.000779 
2.7477467e+3, 1.3191082e+2, -1314978.1, -1776783.3, -2291.0327, 0.010281071, -0.019749252, -1314966.8, 332296.47, 0.0123460395, 10.003896, 9.997591 
2.7473664e+3, 1.4190209e+2, -1116001.3, -1573194.9, 42477.47, 0.07211973, 0.008696781, -1112088.3, 437260.6, 0.0067426753, 10.004283, 9.998215 
2.746984e+3, 1.518924e+2, -1156144.1, -1348784.6, -37972.406, 0.01708394, -0.19034722, -1148929.4, 302508.94, 0.0025849484, 10.002556, 9.9998665 
2.746603e+3, 1.6188349e+2, -1396410.8, -1645185.8, -53146.31, 0.017412324, -0.30051515, -1385532.6, -32009.277, 0.0005889778, 10.001167, 9.997868 
2.746223e+3, 1.7187591e+2, -1112983.0, -1476420.3, 94492.05, 0.04133247, -0.112907745, -1089883.6, 165725.0, 0.00006228534, 10.002593, 9.997619 
2.7458423e+3, 1.818679e+2, -891204.5, -1268006.8, 111376.48, 0.05970408, 0.036008336, -860745.6, 296950.3, 0.0000011486238, 10.003162, 9.998152 
2.7454594e+3, 1.9185945e+2, -817844.0, -1019691.44, 59908.08, 0.055975016, -0.0073395055, -801402.6, 258374.1, 0.0, 10.002362, 9.999512 
2.745077e+3, 2.0185113e+2, -975091.56, -1203978.3, 147545.67, 0.03274834, -0.02460995, -902807.8, 59048.98, 0.0, 10.001234, 9.998177 
2.7446976e+3, 2.1184136e+2, -829347.06, -1045112.2, 199274.38, -0.007593023, -0.11302623, -710626.6, 153328.38, 0.0, 10.00145, 9.9984455 
2.7443182e+3, 2.2183205e+2, -777832.9, -992520.2, 122451.07, -0.0013911371, -0.1584663, -722336.4, 43711.168, 0.0, 10.001185, 9.998302 
2.7439377e+3, 2.3182535e+2, -590727.56, -735313.3, 31903.572, 0.13612568, -0.01256156, -584000.8, 84110.9, 0.0, 10.001369, 9.99925 
2.743558e+3, 2.4181858e+2, -672285.7, -879392.75, 102788.945, 0.27979505, 0.14768024, -629932.06, -59754.66, 0.0, 10.000743, 9.997941 
2.7431816e+3, 2.5180948e+2, -605779.8, -724258.8, 116041.78, 0.41820472, 0.10957815, -534731.1, -62462.58, 0.0, 10.000249, 9.998522 
2.7428037e+3, 2.6180065e+2, -590414.44, -661370.8, 47767.56, 0.4444622, 0.076193415, -566391.0, -192035.16, 0.0, 9.999621, 9.998631 
2.7424213e+3, 2.7179286e+2, -378207.0, -386608.44, -7640.5566, 0.14575434, 0.052119788, -373688.53, -97258.43, 0.0, 9.999905, 9.999676 
2.7420402e+3, 2.8178507e+2, -365441.75, -350910.28, -28806.629, -0.04630785, 0.018048896, -328467.2, -149964.42, 0.0, 9.999367, 9.999554 
2.741662e+3, 2.9177752e+2, -307533.2, -128798.62, -82208.266, 0.15699464, -0.082116194, -96738.1, -16166.32, 0.0, 9.998527, 10.00077 
2.741282e+3, 3.017703e+2, -545258.5, -523723.7, -113373.38, 0.13430795, -0.08391871, -420607.56, -420607.56, 0.0, 9.997614, 9.997867 
2.740898e+3, 3.1176284e+2, -423121.34, -448953.75, -176050.61, -0.21413624, 0.089749254, -259513.77, -259513.77, 0.0, 9.998194, 9.997721 
2.7405232e+3, 3.2175264e+2, -420896.06, -210566.02, 198036.05, -0.038331904, -0.038531598, -91503.57, -91503.57, 0.0, 9.997071, 9.999949 
2.757746e+3, 1.322905e+2, -1080144.8, -1178407.9, 70394.21, 0.24470231, -0.045745578, -1043431.94, 600120.6, 0.0086749345, 10.003416, 10.001967 
2.757364e+3, 1.4228237e+2, -1255162.1, -1689260.6, 14108.997, 0.10441689, -0.21456279, -1254704.1, 290910.66, 0.0045906715, 10.003526, 9.997781 
2.7569807e+3, 1.5227023e+2, -1347884.6, -1716772.8, -54387.65, 0.12948714, -0.4371209, -1340033.0, 107702.58, 0.0016781231, 10.002435, 9.997396 
2.7565986e+3, 1.622612e+2, -1202753.4, -1337962.1, 35921.863, 0.1354709, -0.4589679, -1193802.4, 156025.53, 0.0003582228, 10.001568, 9.999782 
2.7562186e+3, 1.7226015e+2, -859210.44, -959361.25, 179066.39, 0.020183416, 0.06082556, -723349.5, 528494.9, 0.000033741435, 10.002619, 10.001161 
2.7558377e+3, 1.8225595e+2, -820816.8, -1151442.3, 96356.84, -0.05890604, 0.3395708, -794784.5, 359104.6, 0.00000040337267, 10.0032625, 9.998901 
2.7554545e+3, 1.9224285e+2, -851273.8, -1116333.6, 37435.598, 0.025916697, -0.11405525, -846088.06, 209924.11, 0.0, 10.002459, 9.998809 
2.755072e+3, 2.02232e+2, -874830.7, -1126355.9, 160480.25, 0.08754032, -0.33918366, -796705.7, 161410.42, 0.0, 10.001755, 9.998473 
2.754693e+3, 2.1222678e+2, -743030.25, -947249.7, 233203.5, 0.09619769, -0.013877116, -590561.4, 269612.2, 0.0, 10.001744, 9.999008 
2.7543133e+3, 2.222198e+2, -742053.4, -1029050.94, 156410.28, 0.09497361, 0.16181324, -673288.0, 88957.54, 0.0, 10.001658, 9.997812 
2.7539316e+3, 2.3220813e+2, -623455.44, -896652.25, 73794.3, 0.09381214, -0.056665998, -604796.9, 59558.477, 0.0, 10.001763, 9.997962 
2.7535507e+3, 2.4219738e+2, -587050.7, -906619.94, 114043.46, 0.097059295, -0.18013212, -550526.8, 15931.257, 0.0, 10.001566, 9.99737 
2.753172e+3, 2.521884e+2, -602236.44, -804379.0, 114675.234, 0.10413455, -0.124585494, -550448.94, -81901.13, 0.0, 10.000585, 9.9978285 
2.7527934e+3, 2.621798e+2, -561227.6, -695367.9, 92234.586, 0.117418826, -0.06537006, -514255.6, -143621.5, 0.0, 9.999985, 9.998226 
2.7524146e+3, 2.7217174e+2, -288579.88, -415096.0, 48165.715, 0.10358392, -0.040745564, -272329.97, 384.32288, 0.0, 10.000808, 9.999054 
2.7520347e+3, 2.8216326e+2, -244484.25, -465542.63, -60355.62, 0.08373326, -0.04112894, -229078.92, -54281.152, 0.0, 10.00094, 9.997998 
2.7516532e+3, 2.9215354e+2, -337771.8, -395104.44, -199182.89, 0.07516477, -0.1343263, -165202.98, -88310.164, 0.0, 9.999436, 9.998489 
2.751271e+3, 3.0214506e+2, -509566.9, -581428.6, -234529.16, -0.030294478, -0.089715496, -308232.2, -308232.2, 0.0, 9.998145, 9.997232 
2.75089e+3, 3.1213927e+2, -439025.6, -482650.16, -239321.02, -0.12353143, 0.27640447, -220524.89, -220524.89, 0.0, 9.998122, 9.997577 
2.7505136e+3, 3.2212916e+2, -699301.44, -168591.3, -98477.266, 0.17725939, 0.11177859, -150907.36, -150907.36, 0.0, 9.994328, 10.001576 
2.7677417e+3, 1.3267535e+2, -1209691.8, -1229892.4, 107825.75, 0.23234092, 0.20014532, -1111494.3, 528295.75, 0.0058131786, 10.002447, 10.002096 
2.7673602e+3, 1.426643e+2, -1498907.6, -1721251.6, -3179.0251, 0.25441185, -0.2808004, -1498862.3, 43014.426, 0.0029676028, 10.001469, 9.998569 
2.7669764e+3, 1.5265511e+2, -1252304.6, -1546288.6, 93811.664, 0.18252525, -0.32265365, -1224919.8, 219047.0, 0.0010277973, 10.002558, 9.998508 
2.7665937e+3, 1.6264704e+2, -1079487.3, -1344283.5, 242117.38, 0.13427904, -0.27177683, -935932.3, 410116.34, 0.00020336722, 10.00272, 9.999192 
2.766213e+3, 1.7264237e+2, -1096054.1, -1174827.1, 154841.7, 0.006974758, -0.013434897, -975668.1, 272431.9, 0.000016580547, 10.001448, 10.000249 
2.7658322e+3, 1.8263666e+2, -1213944.8, -1320436.1, -76834.914, -0.0560845, 0.1549996, -1173709.4, -23551.516, 0.00000009587778, 10.000509, 9.999071 
2.7654496e+3, 1.9262592e+2, -941517.4, -1096660.9, -69593.26, 0.09205054, -0.137134, -914874.94, 137381.63, 0.0, 10.001594, 9.999366 
2.7650675e+3, 2.026163e+2, -939504.94, -1204952.1, 82969.73, 0.17880446, -0.2568096, -915705.25, 38643.082, 0.0, 10.00156, 9.998021 
2.764687e+3, 2.1261092e+2, -1026194.25, -1120518.6, 73205.58, 0.11288292, 0.072868094, -986274.1, -129865.01, 0.0, 10.000013, 9.998624 
2.7643067e+3, 2.2260375e+2, -1142301.3, -1286745.6, 23873.578, 0.07314196, 0.26013944, -1138457.6, -379974.56, 0.0, 9.99923, 9.99721 
2.7639258e+3, 2.3259059e+2, -696411.5, -985127.4, 38923.094, 0.06862313, -0.08798786, -691256.1, -30650.383, 0.0, 10.00151, 9.997468 
2.7635446e+3, 2.4257837e+2, -532997.0, -945332.75, 86602.38, 0.0236536, -0.30748045, -515546.5, 47174.215, 0.0, 10.002267, 9.996755 
2.7631634e+3, 2.52569e+2, -568954.06, -825438.2, 101347.55, -0.087447226, -0.26679832, -533741.7, -68928.984, 0.0, 10.001011, 9.997465 
2.762784e+3, 2.6256025e+2, -656589.8, -812050.44, 160363.14, -0.12687214, -0.17348222, -556111.44, -189210.83, 0.0, 9.999699, 9.997559 
2.762407e+3, 2.7255228e+2, -485013.97, -565250.94, 149276.44, 0.016757857, -0.08401682, -370559.0, -101575.21, 0.0, 9.99977, 9.998504 
2.7620286e+3, 2.825434e+2, -566880.94, -770457.4, 30598.725, 0.11470758, -0.029307785, -562381.25, -391306.25, 0.0, 9.999404, 9.996647 
2.761645e+3, 2.9253212e+2, -482626.25, -638913.8, 3920.1963, 0.010646863, -0.12793425, -482528.0, -409340.1, 0.0, 9.999186, 9.9969425 
2.7612615e+3, 3.025226e+2, -523602.75, -654959.8, 74723.46, -0.12558016, -0.032007307, -489796.28, -489796.28, 0.0, 9.998373, 9.996605 
2.7608827e+3, 3.1251702e+2, -439590.66, -478516.5, 59129.21, 0.02866612, 0.38259414, -396803.53, -396803.53, 0.0, 9.998134, 9.997574 
2.760501e+3, 3.2250646e+2, -452223.44, 149630.89, -137430.89, 0.13493681, 0.12195891, 179527.56, 179527.56, 0.0, 9.995304, 10.003234 
2.777736e+3, 1.330613e+2, -1341487.3, -1451611.4, 10516.234, 0.096953355, 0.4901668, -1340492.0, 295524.75, 0.0036815968, 10.002233, 10.000652 
2.7773562e+3, 1.4304706e+2, -1339350.4, -1429271.6, 21045.262, 0.3871926, -0.29345143, -1334668.6, 203466.48, 0.0018023809, 10.001657, 10.000469 
2.7769715e+3, 1.5304367e+2, -1054430.5, -1147524.3, 117750.33, 0.1539069, -0.018447189, -974360.8, 465801.72, 0.00058545975, 10.002612, 10.001215 
2.7765885e+3, 1.6303672e+2, -1204282.1, -1649132.3, 180467.1, 0.01604068, 0.066063836, -1140278.8, 201950.92, 0.00010501676, 10.002889, 9.997021 
2.7762073e+3, 1.7302255e+2, -1304592.4, -1670551.0, 118732.47, -0.024596432, -0.28715464, -1269446.0, -25070.135, 0.0000068884756, 10.001696, 9.996733 
2.7758265e+3, 1.8301247e+2, -1103171.0, -1195368.0, -37346.02, -0.0011379976, -0.3650919, -1089941.6, 56536.26, 0.00000000965895, 10.000959, 9.999706 
2.7754453e+3, 1.9300939e+2, -805186.56, -856770.75, -1409.7783, 0.21791184, -0.031855777, -805148.06, 243354.38, 0.0, 10.001761, 10.000943 
2.7750632e+3, 2.0300359e+2, -935105.56, -1267619.0, 62871.57, 0.27207533, 0.16611439, -923614.9, 26942.928, 0.0, 10.001859, 9.9974375 
2.774679e+3, 2.1299273e+2, -1111909.1, -1321350.8, 25509.13, 0.006036244, 0.08985902, -1108847.0, -256174.89, 0.0, 10.000113, 9.997198 
2.774297e+3, 2.2298259e+2, -1033346.4, -1159940.0, 89539.62, -0.112055495, 0.04751244, -986989.94, -232215.23, 0.0, 9.999617, 9.997909 
2.7739206e+3, 2.32973e+2, -572417.94, -816906.75, 144846.67, 0.085760795, -0.026594156, -505125.38, 151736.7, 0.0, 10.001848, 9.998494 
2.7735418e+3, 2.4296302e+2, -383830.16, -771032.94, 85299.664, 0.16468233, -0.110191025, -365871.78, 193082.17, 0.0, 10.002844, 9.9976635 
2.7731588e+3, 2.5295243e+2, -475868.28, -732855.5, 77299.06, 0.0164398, -0.23022604, -454409.38, 6644.9434, 0.0, 10.001437, 9.997908 
2.7727768e+3, 2.6294324e+2, -549331.3, -714790.1, 182284.58, -0.11811013, -0.21200836, -431881.25, -68735.76, 0.0, 10.000214, 9.997981 
2.772397e+3, 2.7293658e+2, -476322.44, -562169.06, 191458.03, -0.22232164, 0.012272259, -323035.16, -57815.207, 0.0, 9.999796, 9.998533 
2.772018e+3, 2.8292945e+2, -409495.66, -455174.63, 116859.46, -0.14428748, 0.16979289, -313264.7, -145969.58, 0.0, 9.999415, 9.998804 
2.771639e+3, 2.929212e+2, -258606.89, -266818.1, 164841.25, 0.19312294, 0.1481467, -97820.11, -28446.277, 0.0, 9.999517, 9.999358 
2.771257e+3, 3.0291185e+2, -368440.22, -540646.6, 285237.6, 0.23686142, 0.12727113, -156593.34, -156593.34, 0.0, 9.999221, 9.996976 
2.7708733e+3, 3.1290078e+2, -449798.9, -525664.94, 270658.53, -0.004859755, 0.04299917, -214428.13, -214428.13, 0.0, 9.998213, 9.99721 
2.7704898e+3, 3.2289067e+2, -77600.125, 374942.97, -9531.301, 0.06624755, -0.14256226, 375143.63, 375143.63, 0.0, 9.997626, 10.003662 
2.7877298e+3, 1.3344093e+2, -1290099.6, -1417156.4, -40851.535, -0.0361484, 0.26111898, -1278098.5, 354200.28, 0.0021674733, 10.002555, 10.000705 
2.7873507e+3, 1.4343156e+2, -1231004.6, -1437844.4, -32837.406, 0.34883597, -0.03395124, -1225916.6, 308458.0, 0.001006527, 10.002632, 9.9999485 
2.7869675e+3, 1.5342742e+2, -1073951.0, -1206085.8, -73541.04, 0.22916761, 0.19571051, -1041159.0, 395256.78, 0.0003005445, 10.002655, 10.00081 
2.7865854e+3, 1.6342044e+2, -1241832.5, -1631772.6, -65871.87, 0.15468161, 0.26773506, -1231005.5, 107479.2, 0.000046417692, 10.002495, 9.997332 
2.786203e+3, 1.7340696e+2, -1142630.4, -1541175.5, 53194.586, 0.05996431, -0.09010657, -1135652.5, 104965.93, 0.0000020738605, 10.002613, 9.997177 
2.785821e+3, 1.8339635e+2, -999000.5, -1225992.9, 7893.7046, 0.043316286, -0.2095471, -998726.3, 143995.88, 0.00000000000031198744, 10.002033, 9.998976 
2.7854395e+3, 1.9339202e+2, -960631.75, -1018242.8, -100889.195, 0.2031466, 0.069765314, -884516.44, 160243.72, 0.0, 10.001076, 10.000149 
2.7850574e+3, 2.0338558e+2, -1148451.8, -1393912.4, -96741.19, 0.2708837, 0.24162284, -1114907.9, -168086.88, 0.0, 10.000549, 9.997186 
2.7846736e+3, 2.1337348e+2, -848484.25, -1188757.9, -29666.775, 0.094538815, 0.023297938, -845917.06, 3024.6868, 0.0, 10.001949, 9.997204 
2.784292e+3, 2.233628e+2, -710667.5, -991469.9, 124134.09, 0.0075167213, -0.07614219, -663660.6, 87386.55, 0.0, 10.001812, 9.997992 
2.7839154e+3, 2.3335506e+2, -743711.1, -854825.06, 134906.42, 0.14804745, -0.010543303, -653369.75, -250.55951, 0.0, 10.000522, 9.998845 
2.783537e+3, 2.4334657e+2, -790467.0, -931952.9, 11424.659, 0.20330797, 0.014693972, -789550.4, -234352.6, 0.0, 9.999941, 9.997954 
2.7831537e+3, 2.5333607e+2, -466683.8, -667541.2, 4160.029, 0.07358385, -0.15558603, -466597.7, -9301.849, 0.0, 10.001291, 9.998408 
2.7827704e+3, 2.6332694e+2, -473906.1, -689848.2, 91422.16, -0.111039154, -0.16063865, -440400.1, -81014.39, 0.0, 10.00082, 9.99785 
2.782388e+3, 2.733203e+2, -679218.7, -663735.94, 87379.94, -0.38578346, 0.057003297, -583755.1, -322294.25, 0.0, 9.998454, 9.998469 
2.7820075e+3, 2.8331423e+2, -697885.1, -440828.44, 8986.873, -0.33186817, 0.26033154, -440514.66, -276989.38, 0.0, 9.996821, 10.000145 
2.781632e+3, 2.9330847e+2, -434496.56, -150399.28, -14778.901, 0.32631674, 0.29529363, -149632.55, -84055.86, 0.0, 9.997484, 10.001121 
2.7812505e+3, 3.0329984e+2, -598475.9, -593223.44, 51813.69, 0.44881424, 0.20261495, -543969.44, -543969.44, 0.0, 9.997442, 9.997473 
2.7808625e+3, 3.132855e+2, -634553.06, -559132.1, 138834.94, -0.13333121, -0.28656998, -452977.3, -452977.3, 0.0, 9.996765, 9.997673 
2.78048e+3, 3.232778e+2, -175795.94, 289931.6, -58246.992, 0.05312004, -0.24145512, 297105.84, 297105.84, 0.0, 9.997134, 10.003344 
2.7977237e+3, 1.3381931e+2, -1270373.9, -1334296.9, -11099.5, -0.22925036, -0.09237379, -1268501.4, 360089.3, 0.0011651992, 10.002369, 10.001366 
2.7973452e+3, 1.4381671e+2, -1337429.1, -1651050.0, 2400.197, 0.20678374, 0.3345757, -1337410.8, 193196.44, 0.0005043322, 10.002605, 9.998492 
2.7969643e+3, 1.5380871e+2, -1237248.8, -1469953.0, -21434.063, 0.34494737, 0.35171732, -1235291.0, 197407.75, 0.00013432535, 10.002351, 9.999138 
2.7965832e+3, 1.6380145e+2, -1109629.6, -1322650.4, -19394.248, 0.3906057, 0.40865746, -1107878.3, 226896.19, 0.00001642319, 10.002329, 9.999539 
2.7962e+3, 1.7379458e+2, -959138.0, -1135384.9, 84676.22, 0.17719264, 0.44624284, -925049.3, 311784.4, 0.0000003300107, 10.002492, 10.0000305 
2.795816e+3, 1.8378541e+2, -1076562.6, -1450501.0, -18879.62, 0.019913066, 0.37967512, -1075611.8, 63306.293, 0.0, 10.002259, 9.997342 
2.7954316e+3, 1.93773e+2, -1105354.0, -1384841.3, -117300.52, 0.022994267, 0.115591906, -1062648.5, -21610.875, 0.0, 10.00133, 9.997532 
2.79505e+3, 2.037625e+2, -979224.56, -1155865.4, -40209.902, 0.15158002, -0.01765286, -970502.06, -27366.77, 0.0, 10.001036, 9.998574 
2.794672e+3, 2.137536e+2, -669446.3, -898962.0, 49069.36, 0.4260837, -0.08716015, -659395.6, 185817.5, 0.0, 10.002297, 9.999031 
2.794292e+3, 2.2374465e+2, -623236.7, -964954.1, 108327.305, 0.46843162, -0.10606697, -591789.9, 155506.83, 0.0, 10.002432, 9.997874 
2.7939096e+3, 2.3373584e+2, -770731.44, -945463.4, 84657.984, 0.20980106, -0.07550418, -736443.06, -87057.75, 0.0, 10.000629, 9.998169 
2.793528e+3, 2.4372773e+2, -709726.06, -808544.25, 60081.406, 0.057932474, -0.007531797, -681346.75, -129881.35, 0.0, 10.000093, 9.998731 
2.7931476e+3, 2.5371993e+2, -342742.94, -531439.1, 78598.2, 0.039298385, 0.028887374, -314293.47, 139246.39, 0.0, 10.001747, 9.999156 
2.7927655e+3, 2.6371124e+2, -372727.06, -635052.2, 9022.165, -0.044087455, 0.026681628, -372417.13, -16792.6, 0.0, 10.001439, 9.997932 
2.7923805e+3, 2.7370125e+2, -722592.06, -719659.4, -30001.953, -0.2451855, -0.057409685, -691088.0, -433363.28, 0.0, 9.998262, 9.998188 
2.7919978e+3, 2.836927e+2, -818823.4, -583767.8, -11566.668, -0.22401462, -0.0588801, -583200.06, -423388.75, 0.0, 9.99636, 9.999361 
2.79162e+3, 2.9368585e+2, -598114.3, -356615.0, -76292.75, 0.15721717, -0.014425949, -334532.38, -272652.7, 0.0, 9.996898, 9.999977 
2.7912375e+3, 3.036793e+2, -416881.1, -131684.14, -58333.92, 0.16383801, 0.011651568, -120213.89, -120213.89, 0.0, 9.99703, 10.000847 
2.7908507e+3, 3.1367257e+2, -362870.28, 8190.0874, 66015.836, -0.23189075, -0.10126077, 19585.117, 19585.117, 0.0, 9.996699, 10.001629 
2.79047e+3, 3.2366815e+2, -348827.34, -118757.02, 10743.37, 0.084449165, 0.17140847, -118256.44, -118256.44, 0.0, 9.997299, 10.000466 
2.807719e+3, 1.3420372e+2, -1261141.8, -1291670.1, 110584.54, -0.20578942, -0.008408278, -1164772.9, 460047.25, 0.0005634109, 10.002246, 10.0017395 
2.8073415e+3, 1.4419937e+2, -1342454.0, -1738494.0, 50243.004, 0.29757273, 0.2639181, -1336179.4, 190674.92, 0.00022494304, 10.002949, 9.997731 
2.8069586e+3, 1.5419078e+2, -1395984.8, -1637918.0, 58418.844, 0.3177486, 0.30213425, -1382617.1, 46337.777, 0.000052698382, 10.001638, 9.998341 
2.806577e+3, 1.6418335e+2, -1312846.3, -1371958.8, 99246.016, 0.35408637, 0.37986293, -1238849.0, 92184.27, 0.0000047753, 10.000765, 9.999922 
2.806195e+3, 1.7417753e+2, -1126713.3, -1147522.3, 84331.34, 0.23439883, 0.45721674, -1052147.0, 180933.14, 0.00000002399446, 10.001047, 10.000616 
2.8058118e+3, 1.8416853e+2, -1229949.1, -1628654.9, -39758.59, 0.105857, 0.41601735, -1226023.1, -90860.22, 0.0, 10.001725, 9.996351 
2.8054267e+3, 1.9415453e+2, -872443.7, -1385149.8, -43243.957, 0.023610963, 0.087041624, -868821.9, 168479.58, 0.0, 10.003474, 9.996471 
2.805045e+3, 2.0414294e+2, -633889.94, -1006954.94, 46897.92, 0.13702081, -0.07825291, -628084.75, 311326.13, 0.0, 10.003486, 9.998425 
2.8046677e+3, 2.1413478e+2, -730803.3, -895447.9, 8939.946, 0.52746385, -0.10132727, -730319.3, 111159.56, 0.0, 10.001742, 9.999313 
2.8042877e+3, 2.2412649e+2, -905259.75, -1109367.0, 7976.6147, 0.5797497, -0.0751611, -904948.5, -161394.36, 0.0, 10.000605, 9.997757 
2.8039026e+3, 2.3411739e+2, -778905.7, -959337.9, 22398.8, 0.14936312, -0.07869103, -776166.7, -130520.125, 0.0, 10.000655, 9.998069 
2.80352e+3, 2.4410929e+2, -763455.9, -844644.6, 55196.918, -0.04883443, 0.00764815, -735533.06, -187804.38, 0.0, 9.999823, 9.998607 
2.8031415e+3, 2.5410253e+2, -779575.2, -724003.75, 18185.941, 0.076900914, 0.123765625, -718581.44, -268784.56, 0.0, 9.998741, 9.999253 
2.8027594e+3, 2.640941e+2, -800174.9, -820781.75, -127404.195, 0.067710064, 0.13213652, -682658.2, -330780.16, 0.0, 9.998477, 9.998067 
2.8023732e+3, 2.7408272e+2, -477985.47, -566212.5, -103738.36, -0.102864385, -0.14336744, -409370.78, -155385.78, 0.0, 9.99983, 9.998469 
2.8019893e+3, 2.8407273e+2, -433106.22, -520413.75, 16122.148, -0.14119028, -0.25092775, -430224.25, -274140.97, 0.0, 9.999559, 9.998266 
2.8016087e+3, 2.940646e+2, -479004.0, -418069.56, -6834.995, 0.006754229, -0.22927529, -417312.28, -359142.22, 0.0, 9.99827, 9.998893 
2.801225e+3, 3.0405957e+2, -266007.56, 217215.2, -61705.746, -0.104701675, -0.095761724, 224970.34, 224970.34, 0.0, 9.996935, 10.003268 
2.8008392e+3, 3.1405875e+2, -236787.66, 406587.47, -81963.055, -0.3297768, 0.08179929, 416865.0, 416865.0, 0.0, 9.996164, 10.004592 
2.8004596e+3, 3.240559e+2, -590676.1, -589916.8, -13577.17, -0.017039442, 0.4700938, -576714.0, -576714.0, 0.0, 9.997306, 9.997171 
2.8177148e+3, 1.3458987e+2, -1354541.9, -1315984.4, 189599.44, -0.1362367, 0.16457517, -1144686.1, 476344.63, 0.00024613488, 10.001513, 10.001933 
2.8173384e+3, 1.4458099e+2, -1350342.4, -1764159.0, -8091.669, 0.40444294, -0.0014102731, -1350184.1, 172922.84, 0.0000905785, 10.0029955, 9.997532 
2.8169516e+3, 1.5457359e+2, -1384760.5, -1656934.3, 18024.963, 0.16648002, 0.17756262, -1383572.0, 41622.14, 0.000018083496, 10.001822, 9.998124 
2.816569e+3, 1.6456567e+2, -1282240.1, -1405568.5, 107494.555, 0.1340045, 0.23763403, -1219978.8, 107296.8, 0.000001252134, 10.001168, 9.999506 
2.8161892e+3, 1.7455727e+2, -1131600.1, -1223021.0, 112880.74, 0.2316515, 0.13057265, -1055525.9, 173823.03, 0.0000000065346386, 10.001325, 9.99997 
2.8158078e+3, 1.8454796e+2, -1167836.6, -1568611.5, 20995.209, 0.22285603, 0.0944375, -1166739.8, -35302.4, 0.0, 10.002042, 9.996592 
2.8154242e+3, 1.9453697e+2, -830546.44, -1335512.0, 42961.12, 0.15040149, 0.04826777, -826917.5, 206632.06, 0.0, 10.003628, 9.996739 
2.815042e+3, 2.045266e+2, -656283.6, -1127067.0, 3243.9392, 0.17418347, 0.034494746, -656261.3, 279390.66, 0.0, 10.00378, 9.99746 
2.81466e+3, 2.1451695e+2, -801777.4, -1087054.8, -38450.875, 0.30222318, 0.009303201, -796685.7, 41056.008, 0.0, 10.001898, 9.997936 
2.814278e+3, 2.245082e+2, -786772.25, -942844.44, 21882.354, 0.24386954, 0.021775154, -783762.25, -43939.152, 0.0, 10.000927, 9.998749 
2.8138942e+3, 2.3449999e+2, -639801.75, -788715.2, 56088.563, -0.063177034, 0.023841573, -621039.75, 20860.375, 0.0, 10.00113, 9.999027 
2.813513e+3, 2.4449123e+2, -753356.4, -948519.4, 12757.739, -0.081130505, 0.0426859, -752525.94, -208538.4, 0.0, 10.000338, 9.9976425 
2.8131342e+3, 2.544819e+2, -922832.2, -938017.3, -47903.367, 0.24073996, 0.042687397, -881923.44, -435837.9, 0.0, 9.998365, 9.9979725 
2.812753e+3, 2.6447368e+2, -669955.94, -542455.06, -49395.89, 0.2977138, 0.042208903, -525557.6, -177391.78, 0.0, 9.998389, 10.000038 
2.8123683e+3, 2.7446595e+2, -169952.77, -211875.6, 3683.295, 0.03903773, -0.04892947, -169631.63, 80601.47, 0.0, 10.000988, 10.000384 
2.8119844e+3, 2.8445813e+2, -128103.4, -340534.84, 2209.1365, -0.006116288, -0.049137864, -128080.42, 24227.436, 0.0, 10.00145, 9.998614 
2.811602e+3, 2.9445025e+2, -297778.13, -332312.66, -15815.391, 0.17364989, 0.007918844, -291629.9, -237238.23, 0.0, 9.99947, 9.998933 
2.811216e+3, 3.044429e+2, -283151.2, 8136.03, -71262.81, 0.016156668, -0.005403533, 24635.72, 24635.72, 0.0, 9.997665, 10.001472 
2.810828e+3, 3.144365e+2, -367350.88, 92264.01, -199725.55, -0.33389038, -0.15853012, 166926.2, 166926.2, 0.0, 9.996307, 10.002376 
2.8104517e+3, 3.2443076e+2, -387086.44, -490209.22, 78147.4, 0.10243992, 0.051074278, -345023.1, -345023.1, 0.0, 9.998604, 9.997259 
2.8277105e+3, 1.3497256e+2, -1614583.3, -1563012.8, 369528.38, 0.03681634, 0.08090607, -1218371.0, 398899.72, 0.000103811755, 10.00033, 10.000762 
2.8273356e+3, 1.4496216e+2, -1277713.0, -1758178.1, -112776.72, 0.5082078, -0.15815265, -1252558.6, 266808.4, 0.0000343639, 10.003665, 9.997222 
2.8269476e+3, 1.5495482e+2, -1210045.4, -1586284.0, -97504.805, 0.2255778, 0.028277159, -1186277.9, 235172.53, 0.000005503179, 10.003138, 9.997948 
2.8265643e+3, 1.6494676e+2, -1123253.0, -1415886.3, 29535.447, 0.18240388, 0.11309157, -1120301.8, 203232.08, 0.0000002527922, 10.0026655, 9.9987135 
2.8261843e+3, 1.7493758e+2, -1036710.94, -1266354.6, 8503.442, 0.28573778, -0.0057426887, -1036396.5, 189223.86, 0.0, 10.002406, 9.999156 
2.825803e+3, 1.8492882e+2, -1146819.4, -1506506.8, -42019.95, 0.28319004, 0.029481208, -1141975.6, -14269.189, 0.0, 10.001977, 9.997048 
2.8254205e+3, 1.9492008e+2, -1078456.9, -1383484.1, 2763.6038, 0.21625842, 0.12280668, -1078431.9, -48634.938, 0.0, 10.001632, 9.997364 
2.8250372e+3, 2.0491074e+2, -1078368.8, -1367422.3, -50898.95, 0.17208143, 0.19498058, -1069668.0, -137777.33, 0.0, 10.001091, 9.997093 
2.8246525e+3, 2.1490058e+2, -1012415.4, -1239970.5, -24997.22, 0.12083093, 0.14956388, -1009701.75, -175711.9, 0.0, 10.000708, 9.997456 
2.8242695e+3, 2.2489119e+2, -854193.25, -982871.2, 102858.79, 0.03473508, 0.13932656, -797208.56, -61130.426, 0.0, 10.000549, 9.998634 
2.823888e+3, 2.3488234e+2, -676816.75, -793004.8, 55282.92, -0.08864579, 0.06285608, -654716.56, -16559.045, 0.0, 10.000886, 9.999082 
2.823507e+3, 2.4487321e+2, -720647.44, -963539.8, -35886.363, -0.028904522, 0.05648592, -715456.3, -175209.36, 0.0, 10.000742, 9.997335 
2.8231263e+3, 2.5486332e+2, -669994.06, -850183.3, 5156.6313, 0.27962232, 0.013544429, -669846.6, -227494.25, 0.0, 10.000274, 9.997652 
2.822745e+3, 2.648554e+2, -479320.84, -373854.28, 94480.58, 0.3390995, 0.046382714, -318386.9, 26042.852, 0.0, 9.999423, 10.000682 
2.822362e+3, 2.7484936e+2, -408615.88, -227819.88, 39896.387, 0.10655191, 0.036533568, -219407.34, 27072.186, 0.0, 9.998973, 10.001224 
2.8219786e+3, 2.8484288e+2, -475549.44, -510467.94, -115938.33, 0.052451745, 0.12752534, -375763.13, -227222.42, 0.0, 9.999134, 9.998542 
2.821595e+3, 2.9483545e+2, -213277.7, -278397.97, -124288.82, 0.2388953, 0.19604313, -117354.87, -66736.086, 0.0, 10.000019, 9.99903 
2.8212076e+3, 3.0482596e+2, -152643.3, -162765.89, -154297.72, 0.06360034, 0.061352573, -3323.8882, -3323.8882, 0.0, 9.999609, 9.999357 
2.8208178e+3, 3.1481445e+2, -220351.66, -82404.02, -204252.98, -0.32436967, -0.40118736, 64206.645, 64206.645, 0.0, 9.998406, 10.0001545 
2.8204447e+3, 3.24806e+2, -371277.16, -354176.66, 393749.56, 0.17326699, -0.39049697, 31115.484, 31115.484, 0.0, 9.998244, 9.998333 
2.837706e+3, 1.3535403e+2, -1544727.9, -1722739.4, 546620.2, 0.17170903, -0.078397885, -1079914.5, 533608.7, 0.000047405454, 10.0015955, 9.999081 
2.8373325e+3, 1.4534324e+2, -1283990.9, -1749226.4, -139749.02, 0.56432754, -0.26889795, -1245240.3, 270388.84, 0.000014364058, 10.00357, 9.997324 
2.8369445e+3, 1.5533529e+2, -1207604.3, -1597950.1, -92392.69, 0.35685128, -0.13327101, -1186840.0, 230874.8, 0.0000019520894, 10.003213, 9.997827 
2.836561e+3, 1.653271e+2, -1148353.0, -1516842.0, 32369.781, 0.3107555, -0.01201467, -1145531.0, 174270.95, 0.00000005936716, 10.002865, 9.997921 
2.83618e+3, 1.753182e+2, -1072871.8, -1390455.4, 24423.69, 0.3202795, -0.007079307, -1071004.5, 150890.28, 0.0, 10.002583, 9.998232 
2.835798e+3, 1.8531048e+2, -1022241.3, -1312121.1, -37420.688, 0.26883143, 0.11885201, -1017488.56, 106485.414, 0.0, 10.002205, 9.998292 
2.8354147e+3, 1.9530351e+2, -979592.56, -1214036.8, 13904.865, 0.19890246, 0.28772816, -978770.75, 47274.395, 0.0, 10.001752, 9.998483 
2.8350306e+3, 2.0529541e+2, -966523.0, -1211092.8, -52369.348, 0.11433059, 0.3846654, -955781.06, -27654.662, 0.0, 10.001402, 9.99802 
2.834645e+3, 2.1528602e+2, -915218.44, -1113652.9, -7841.0537, -0.026239265, 0.35018083, -914909.06, -84689.44, 0.0, 10.001005, 9.998193 
2.8342628e+3, 2.252754e+2, -870433.6, -1115276.0, 136212.73, -0.0006345139, 0.24137251, -809713.2, -77393.26, 0.0, 10.000944, 9.997544 
2.8338844e+3, 2.3526368e+2, -713778.25, -949337.56, 79192.984, 0.15873617, 0.01607818, -689629.8, -55202.92, 0.0, 10.001189, 9.99788 
2.8335023e+3, 2.4525525e+2, -481026.34, -595131.4, -16980.27, 0.1545257, 0.0243929, -478553.1, 57953.98, 0.0, 10.001264, 9.999621 
2.8331178e+3, 2.552492e+2, -384903.94, -486978.44, 57472.2, 0.043807473, 0.1727867, -359078.63, 79490.84, 0.0, 10.001208, 9.999713 
2.832735e+3, 2.6524118e+2, -486284.34, -586722.7, 96994.07, 0.02308623, 0.19099815, -427279.84, -86631.68, 0.0, 10.000247, 9.998824 
2.8323525e+3, 2.7523163e+2, -611193.1, -562029.1, -11997.702, 0.030294059, 0.052395906, -559257.5, -316518.56, 0.0, 9.998588, 9.999118 
2.8319696e+3, 2.8522378e+2, -479033.28, -448107.3, -54285.965, 0.015815193, 0.08131646, -407125.0, -262308.84, 0.0, 9.998807, 9.999135 
2.831586e+3, 2.9521692e+2, -65347.234, -176441.27, -70432.516, -0.012703666, 0.18134667, -31193.578, 15693.425, 0.0, 10.000874, 9.99933 
2.8311998e+3, 3.0520838e+2, 132308.48, 3414.8005, -169019.75, -0.094102986, 0.11211174, 248751.31, 248751.31, 0.0, 10.001402, 9.999645 
2.8308132e+3, 3.1519842e+2, 96602.875, 53580.42, -181696.03, -0.047864825, -0.18612702, 258056.61, 258056.61, 0.0, 10.000604, 10.000049 
2.8304338e+3, 3.2519045e+2, -264925.84, -175108.69, 390342.8, -0.023403171, -0.16600664, 172900.39, 172900.39, 0.0, 9.998374, 9.999518 
2.847704e+3, 1.357343e+2, -1096783.0, -1523191.1, 392323.16, 0.281684, -0.07454742, -863474.5, 746329.94, 0.000024815265, 10.004701, 9.998978 
2.8473252e+3, 1.4572644e+2, -1211518.4, -1610889.5, -200433.22, 0.2251252, -0.024205673, -1128276.8, 383604.66, 0.000007513513, 10.003623, 9.998247 
2.8469402e+3, 1.5571776e+2, -1022935.9, -1426991.3, -117931.76, 0.29235062, -0.05440917, -991033.9, 422938.44, 0.0000012508747, 10.004122, 9.998563 
2.8465575e+3, 1.6570984e+2, -999696.56, -1451483.5, 35086.938, 0.3211252, 0.062856734, -996987.9, 319069.63, 0.000000073245815, 10.003943, 9.997828 
2.8461754e+3, 1.7570198e+2, -971280.6, -1345793.3, 59005.574, 0.26234102, 0.18013553, -962204.1, 255939.28, 0.0, 10.003321, 9.998163 
2.8457925e+3, 1.8569446e+2, -938587.75, -1098305.9, 23930.063, 0.23620063, 0.25411016, -935079.44, 185138.23, 0.0, 10.00207, 9.999815 
2.8454092e+3, 1.956871e+2, -1076245.4, -1123563.1, 96858.71, 0.25432026, 0.2370913, -1000197.9, 22086.855, 0.0, 10.000505, 9.999711 
2.845025e+3, 2.0567906e+2, -1052415.8, -1323776.0, 76259.94, 0.16534367, 0.3357168, -1032453.06, -108087.46, 0.0, 10.001154, 9.997346 
2.8446394e+3, 2.1567006e+2, -608671.4, -1037717.1, 3438.6191, -0.03348785, 0.39211884, -608643.8, 217816.64, 0.0, 10.003445, 9.997528 
2.8442577e+3, 2.2565924e+2, -604661.0, -969795.25, 103264.43, 0.013981379, 0.2844602, -577479.94, 151083.02, 0.0, 10.002724, 9.997677 
2.843879e+3, 2.3564674e+2, -852345.6, -1005616.0, 165078.77, 0.2647737, -0.037349008, -746980.94, -116306.06, 0.0, 10.000211, 9.997964 
2.8434962e+3, 2.456389e+2, -726083.6, -654878.0, 82728.44, 0.21931708, 0.014239208, -600416.6, -67667.88, 0.0, 9.999382, 10.000099 
2.8431103e+3, 2.556345e+2, -578094.75, -526299.5, 10323.471, -0.05585552, 0.2536406, -524317.7, -89523.32, 0.0, 9.999707, 10.000141 
2.8427264e+3, 2.6562628e+2, -590661.8, -778140.0, 17000.506, -0.13768107, 0.29459223, -589132.7, -252256.73, 0.0, 10.000186, 9.997525 
2.8423437e+3, 2.7561468e+2, -391577.2, -605623.0, 11391.133, -0.04764771, 0.0659292, -390972.7, -151982.42, 0.0, 10.000771, 9.997756 
2.841961e+3, 2.8560585e+2, -308655.72, -372837.7, 51190.12, -0.062112946, 0.077595316, -280329.3, -139250.22, 0.0, 10.000056, 9.999023 
2.8415775e+3, 2.9559883e+2, -352725.94, -320851.0, -7096.382, -0.18529768, 0.15690508, -319342.5, -276191.9, 0.0, 9.998958, 9.999246 
2.841192e+3, 3.0559123e+2, -222367.55, -170037.03, -195261.83, -0.21672055, 0.18878414, 804.8238, 804.8238, 0.0, 9.999029, 9.999575 
2.8408077e+3, 3.1558287e+2, -43907.086, -27337.844, -215831.7, 0.10095645, 0.042372044, 180368.17, 180368.17, 0.0, 9.999743, 9.999885 
2.8404218e+3, 3.2557565e+2, -307284.97, -114978.195, 213966.1, -0.39285284, 0.08235929, 23446.686, 23446.686, 0.0, 9.997795, 10.000172 
2.8577012e+3, 1.3611485e+2, -1089062.3, -1442798.4, 280707.16, 0.1891523, 0.027161349, -934149.0, 671939.8, 0.000013011992, 10.004393, 9.9997 
2.8573164e+3, 1.4611052e+2, -1196489.1, -1448263.8, -146834.5, -0.29300633, 0.33754355, -1128965.0, 379164.8, 0.0000037394736, 10.003039, 9.99965 
2.8569353e+3, 1.5610135e+2, -983822.94, -1280301.3, -55307.242, 0.11176196, 0.13587551, -973841.56, 436383.1, 0.00000051506584, 10.003824, 9.999722 
2.8565535e+3, 1.6609427e+2, -980452.25, -1375480.5, 36358.71, 0.23672533, 0.2562125, -977133.7, 335168.4, 0.00000002542409, 10.003779, 9.998433 
2.8561702e+3, 1.7608823e+2, -954143.56, -1254535.9, 66283.17, 0.11342544, 0.51074415, -940168.06, 274202.97, 0.0, 10.00308, 9.998905 
2.855787e+3, 1.8608023e+2, -792868.0, -806705.0, -14577.698, 0.165722, 0.39846504, -783650.4, 332791.72, 0.0, 10.002116, 10.001791 
2.8554034e+3, 1.9607088e+2, -943786.56, -902771.1, 79528.29, 0.3422136, 0.007586233, -841149.0, 177367.0, 0.0, 10.000722, 10.001128 
2.8550205e+3, 2.0606177e+2, -1134606.0, -1587638.0, 182747.03, 0.29981238, 0.049269773, -1070079.0, -149470.89, 0.0, 10.00151, 9.9953785 
2.8546375e+3, 2.1605244e+2, -652660.7, -1230792.5, 98160.34, 0.10259961, 0.28698614, -636448.75, 186266.36, 0.0, 10.003838, 9.996024 
2.854254e+3, 2.2604299e+2, -372935.53, -589401.06, 27669.496, 0.045279726, 0.2483728, -369454.7, 355348.94, 0.0, 10.003134, 10.0000925 
2.8538707e+3, 2.3603305e+2, -678376.5, -708107.3, 119823.31, 0.09514273, -0.031257614, -572500.0, 54384.41, 0.0, 10.000438, 9.999905 
2.853488e+3, 2.4602467e+2, -853438.75, -959706.6, 128341.09, 0.16576993, -0.001747236, -767667.5, -238701.33, 0.0, 9.9995165, 9.997955 
2.8531054e+3, 2.5601748e+2, -691637.7, -792935.1, 39190.992, 0.21142866, 0.19639796, -678245.56, -247198.95, 0.0, 9.999793, 9.998284 
2.8527218e+3, 2.6600954e+2, -421555.63, -540919.6, 79353.46, 0.08615383, 0.2734493, -381945.56, -48819.6, 0.0, 10.000642, 9.998951 
2.8523374e+3, 2.7600068e+2, -122426.49, -347863.03, 94005.92, -0.1400065, 0.21070807, -88371.055, 146838.78, 0.0, 10.002035, 9.998935 
2.851954e+3, 2.8599152e+2, -242092.4, -466322.56, 16673.225, -0.07998189, 0.19896074, -240859.4, -103557.56, 0.0, 10.000998, 9.99795 
2.8515714e+3, 2.959823e+2, -514808.47, -525733.75, -57161.363, 0.13309339, 0.19106528, -462849.3, -423451.25, 0.0, 9.998364, 9.9981365 
2.8511837e+3, 3.059741e+2, -394409.6, -350420.8, -115802.04, -0.0966662, 0.26237825, -254542.97, -254542.97, 0.0, 9.998246, 9.998724 
2.8507957e+3, 3.1596637e+2, -77292.984, -152023.94, -164176.83, -0.35806528, 0.28477103, 53716.74, 53716.74, 0.0, 9.999978, 9.998924 
2.850415e+3, 3.259577e+2, -352191.13, -299727.8, -43181.46, -0.15856269, 0.297269, -275434.84, -275434.84, 0.0, 9.998094, 9.998811 
2.8676963e+3, 1.3649788e+2, -1034980.25, -1270947.9, 130462.1, -0.030154606, 0.16887522, -977064.9, 625284.6, 0.0000059629547, 10.004156, 10.000983 
2.8673115e+3, 1.4649358e+2, -1280573.9, -1385123.9, -27929.674, -0.28349593, 0.38073692, -1273580.5, 230803.42, 0.0000015122073, 10.00203, 10.000573 
2.8669307e+3, 1.5648654e+2, -1046589.56, -1228385.0, 34613.855, 0.030563466, 0.3050898, -1040222.1, 366235.34, 0.0000000966577, 10.003034, 10.000469 
2.8665486e+3, 1.6647981e+2, -1139509.3, -1359874.8, 66097.54, 0.16659918, 0.39259464, -1121204.1, 187325.19, 0.00000000026919006, 10.002304, 9.999262 
2.8661644e+3, 1.7647327e+2, -1291184.5, -1362587.3, 103106.516, 0.111086056, 0.5246839, -1217773.4, -7173.253, 0.0, 10.000519, 9.99942 
2.865781e+3, 1.8646505e+2, -1076793.0, -1076039.1, -24632.793, 0.15981182, 0.44135138, -1051780.4, 60895.035, 0.0, 10.0007715, 10.000571 
2.8653973e+3, 1.964555e+2, -816683.56, -949101.4, -126546.81, 0.3262717, 0.12049898, -740071.94, 274683.78, 0.0, 10.002117, 10.000113 
2.8650156e+3, 2.0644616e+2, -1043469.06, -1423085.1, 61625.03, 0.3535347, 0.11016853, -1033715.7, -116868.85, 0.0, 10.001672, 9.9964075 
2.864634e+3, 2.1643671e+2, -1114051.4, -1347453.8, 189323.13, 0.27396977, 0.22529092, -1008351.1, -189402.5, 0.0, 10.00027, 9.996922 
2.8642496e+3, 2.2642817e+2, -715529.5, -695872.9, 71715.81, 0.13253513, 0.21771981, -633315.06, 87712.414, 0.0, 10.000555, 10.000588 
2.863863e+3, 2.3641984e+2, -529974.75, -599970.0, 23408.85, -0.017344205, 0.03217673, -522867.66, 100227.016, 0.0, 10.001355, 10.000186 
2.8634802e+3, 2.4641126e+2, -564247.7, -890412.8, 135883.36, 0.06501296, 0.06586045, -515056.34, 10123.199, 0.0, 10.001864, 9.997274 
2.8630996e+3, 2.5640222e+2, -407060.5, -743404.25, 176787.36, 0.28316858, 0.1435424, -331233.28, 96045.59, 0.0, 10.002157, 9.997478 
2.8627163e+3, 2.6639444e+2, -305127.03, -399710.25, 217835.66, 0.17269638, 0.24881095, -129508.63, 199848.1, 0.0, 10.001145, 9.999643 
2.8623313e+3, 2.7638716e+2, -448753.34, -450864.47, 174028.44, -0.15590706, 0.262976, -275777.28, -44353.504, 0.0, 9.999608, 9.999376 
2.8619477e+3, 2.86378e+2, -462748.7, -649870.6, 55906.793, -0.05363607, 0.2853872, -447317.78, -313801.7, 0.0, 9.999854, 9.997235 
2.861565e+3, 2.963674e+2, -249754.4, -498935.78, 51702.52, 0.3225648, 0.21905129, -239452.58, -203825.44, 0.0, 10.000644, 9.997226 
2.861176e+3, 3.0635828e+2, -89449.74, -324306.84, 87794.99, -0.05893887, 0.31700993, -60258.29, -60258.29, 0.0, 10.000898, 9.997611 
2.8607848e+3, 3.163505e+2, -52091.254, -280407.7, 18740.584, -0.72553647, 0.44894376, -50563.223, -50563.223, 0.0, 10.000786, 9.997648 
2.8604093e+3, 3.2633993e+2, -578235.6, -471573.03, -8347.831, 0.1798624, 0.38032916, -470923.66, -470923.66, 0.0, 9.99686, 9.99822 
2.8776914e+3, 1.368817e+2, -1114990.0, -1146474.5, -65174.113, -0.21181172, 0.2756853, -1063683.9, 534916.94, 0.0000021473002, 10.002882, 10.002458 
2.8773078e+3, 1.4687663e+2, -1233637.5, -1264605.4, 47136.074, -0.11615693, 0.31221622, -1199507.4, 301128.88, 0.00000043033984, 10.001915, 10.001459 
2.8769255e+3, 1.5687269e+2, -1070266.3, -1154650.6, 77608.86, -0.07344936, 0.4734934, -1024122.06, 378556.6, 0.000000019645139, 10.002486, 10.001245 
2.8765428e+3, 1.6686583e+2, -1101364.8, -1230683.4, -264.25375, 0.07979151, 0.46103913, -1101364.3, 203383.61, 0.0, 10.002073, 10.00026 
2.8761584e+3, 1.7685753e+2, -1233935.6, -1312920.5, 69767.05, 0.16438569, 0.33956182, -1193259.0, 13571.406, 0.0, 10.000795, 9.999628 
2.8757748e+3, 1.8684931e+2, -1250784.1, -1538587.8, 36107.426, 0.16593522, 0.44090575, -1246323.4, -137407.44, 0.0, 10.00116, 9.99723 
2.8753912e+3, 1.9684075e+2, -924629.8, -1246094.4, -54490.723, 0.1738046, 0.5654401, -915644.4, 95360.48, 0.0, 10.002394, 9.997957 
2.87501e+3, 2.06832e+2, -699246.94, -759171.44, 25552.787, 0.3141534, 0.44911933, -689830.5, 223251.94, 0.0, 10.001894, 10.000847 
2.8746292e+3, 2.1682295e+2, -850472.44, -840142.7, 179518.78, 0.4653029, 0.1944344, -665714.5, 149443.64, 0.0, 10.000416, 10.000337 
2.8742445e+3, 2.2681488e+2, -794891.75, -910838.06, 140427.23, 0.28357407, 0.18338817, -700941.56, 16292.233, 0.0, 10.000739, 9.999031 
2.8738573e+3, 2.3680715e+2, -505716.1, -699523.0, 83787.805, -0.054790698, 0.22690246, -474515.4, 144794.02, 0.0, 10.001959, 9.999224 
2.8734738e+3, 2.4679911e+2, -270257.06, -495908.9, 180327.55, -0.14097278, 0.22165425, -170367.88, 351018.5, 0.0, 10.002741, 9.999592 
2.8730917e+3, 2.5679058e+2, -114312.84, -396791.63, 236105.55, -0.09645141, 0.15498914, 19573.906, 443042.4, 0.0, 10.003217, 9.99938 
2.872709e+3, 2.6678208e+2, -252653.22, -424095.34, 194983.25, -0.0013259219, 0.131411, -125379.984, 200172.39, 0.0, 10.001683, 9.999225 
2.8723255e+3, 2.7677354e+2, -509104.0, -507985.0, 162152.81, 0.07538274, 0.09082285, -346390.72, -118754.18, 0.0, 9.999272, 9.999153 
2.871941e+3, 2.8676575e+2, -351203.66, -452393.03, 215743.44, 0.03412853, 0.1906129, -180201.73, -50486.99, 0.0, 9.99999, 9.998533 
2.8715563e+3, 2.9675785e+2, 87406.89, -244893.25, 236488.75, -0.039662696, 0.29517245, 210277.19, 242072.81, 0.0, 10.00254, 9.998068 
2.8711712e+3, 3.0674714e+2, 159048.89, -329636.94, 211006.14, -0.08521852, 0.2750332, 237548.13, 237548.13, 0.0, 10.003109, 9.996514 
2.8707865e+3, 3.167358e+2, 193854.75, -205388.48, 83747.56, -0.023532102, 0.19023408, 210710.48, 210710.48, 0.0, 10.002604, 9.997304 
2.870397e+3, 3.2672933e+2, -412077.34, -53353.285, -115202.81, 0.04902019, 0.37931687, -19543.023, -19543.023, 0.0, 9.996508, 10.001255 
2.887689e+3, 1.37269e+2, -1277869.6, -1071074.0, 107888.13, 0.12681139, 0.39555487, -1025036.4, 569772.0, 0.0000003382392, 10.001094, 10.00382 
2.8873026e+3, 1.4726262e+2, -1330860.6, -1463377.6, 104212.414, -0.10547653, 0.3465265, -1273626.5, 223227.31, 0.000000039050374, 10.001901, 10.000085 
2.88692e+3, 1.5725608e+2, -1401956.6, -1437426.0, 27872.3, -0.036226783, 0.3851768, -1386655.3, 12269.092, 0.0000000006124831, 10.000738, 10.000147 
2.886537e+3, 1.6724932e+2, -1140302.8, -1191310.4, -43572.81, 0.079650156, 0.39427003, -1115318.6, 185671.97, 0.0, 10.001592, 10.000737 
2.886153e+3, 1.7724198e+2, -872462.06, -1109367.3, -5261.742, 0.13063242, 0.3006772, -872345.25, 330715.16, 0.0, 10.003176, 9.999865 
2.88577e+3, 1.8723433e+2, -912417.7, -1348134.4, 107077.08, 0.16692245, 0.4355627, -887525.6, 217615.84, 0.0, 10.003418, 9.997437 
2.8853872e+3, 1.9722632e+2, -833137.94, -1172901.9, 219386.58, 0.23416357, 0.6058403, -725548.56, 281680.88, 0.0, 10.002919, 9.998214 
2.885005e+3, 2.072181e+2, -581277.44, -562461.56, 192752.42, 0.3156582, 0.4871529, -378887.63, 530412.3, 0.0, 10.002147, 10.002076 
2.8846225e+3, 2.1720959e+2, -693590.56, -684401.94, 127642.84, 0.4223621, 0.1633445, -561270.75, 250093.58, 0.0, 10.001198, 10.001027 
2.884238e+3, 2.2720158e+2, -864873.0, -1047588.1, 116662.74, 0.2895337, 0.18535246, -808053.6, -94610.73, 0.0, 10.000739, 9.998083 
2.883852e+3, 2.3719372e+2, -788244.94, -913076.4, 105373.58, 0.022989595, 0.29928628, -728188.94, -112660.81, 0.0, 10.000393, 9.998513 
2.8834677e+3, 2.4718638e+2, -591907.56, -488875.94, 153389.61, -0.14562617, 0.30775797, -378582.44, 139014.72, 0.0, 9.9998665, 10.001007 
2.8830844e+3, 2.5717884e+2, -655580.06, -547236.94, 135583.6, -0.2530149, 0.18119559, -455403.47, -35740.68, 0.0, 9.999079, 10.00032 
2.8827015e+3, 2.6717037e+2, -681539.0, -651761.6, 56330.023, -0.08908284, 0.13155554, -608385.9, -286640.28, 0.0, 9.998886, 9.998987 
2.8823185e+3, 2.7716115e+2, -639286.6, -596509.9, 91025.78, 0.21131283, 0.02897826, -524393.44, -300554.2, 0.0, 9.998542, 9.998884 
2.881934e+3, 2.871541e+2, -367440.56, -353194.34, 233529.7, 0.047788702, 0.15510045, -126679.14, -770.0129, 0.0, 9.999467, 9.999447 
2.8815484e+3, 2.971477e+2, -154359.23, -301697.56, 204482.4, -0.31633136, 0.30553275, -10680.277, 17291.281, 0.0, 10.000666, 9.99857 
2.8811666e+3, 3.071365e+2, -259770.75, -524665.8, 175977.48, -0.059294112, 0.2098132, -171967.47, -171967.47, 0.0, 10.000255, 9.996548 
2.8807873e+3, 3.1712335e+2, -327662.53, -433999.38, 143223.66, 0.59280616, -0.0502429, -228056.94, -228056.94, 0.0, 9.99898, 9.997479 
2.8803822e+3, 3.2712108e+2, -76198.14, 351011.7, -275653.22, -0.36127028, 0.39514333, 486135.56, 486135.56, 0.0, 9.997914, 10.00329 
2.8976867e+3, 1.3765801e+2, -1193188.0, -934038.7, 221083.08, 0.45262805, 0.53602517, -807357.0, 783637.6, 0.0000000028010363, 10.001228, 10.004713 
2.8972965e+3, 1.4764932e+2, -1522358.1, -1821465.1, 71187.7, -0.1779661, 0.38097617, -1506279.6, -13217.447, 0.0, 10.001718, 9.997718 
2.8969142e+3, 1.5763801e+2, -1489249.1, -1661267.1, 47545.03, 0.029301053, 0.17682526, -1476982.5, -81799.375, 0.0, 10.000897, 9.99854 
2.8965315e+3, 1.6763166e+2, -1097380.5, -1129025.4, 52409.24, 0.072433874, 0.25720525, -1058457.4, 238787.4, 0.0, 10.001678, 10.001128 
2.8961477e+3, 1.7762683e+2, -813581.94, -976666.4, 75712.71, -0.017667146, 0.3867775, -783851.75, 415435.6, 0.0, 10.003106, 10.000812 
2.895766e+3, 1.8761994e+2, -699727.2, -918067.44, 108253.17, 0.15492715, 0.38359538, -655154.44, 446200.22, 0.0, 10.003427, 10.000395 
2.8953853e+3, 1.9761214e+2, -672085.25, -877537.06, 207140.08, 0.43383873, 0.3075234, -543597.75, 459834.72, 0.0, 10.003039, 10.000198 
2.8949997e+3, 2.0760432e+2, -667864.25, -803232.6, 164111.17, 0.31926164, 0.25713164, -558027.6, 347475.25, 0.0, 10.002355, 10.000343 
2.894613e+3, 2.175962e+2, -735107.75, -860067.3, 119842.445, 0.062148277, 0.154396, -662436.0, 145137.23, 0.0, 10.001517, 9.999689 
2.89423e+3, 2.2758742e+2, -831966.5, -1041107.25, 106717.54, 0.13081041, 0.15699859, -787126.06, -77463.41, 0.0, 10.00097, 9.998026 
2.8938478e+3, 2.3757848e+2, -749844.25, -869559.7, 99793.57, 0.27944356, 0.17858678, -693333.2, -81574.77, 0.0, 10.000489, 9.998779 
2.893464e+3, 2.4757212e+2, -621335.2, -482218.06, 126600.8, 0.21177723, 0.25634295, -407325.4, 106495.016, 0.0, 9.999544, 10.00121 
2.893079e+3, 2.5756642e+2, -701461.6, -516813.47, 105065.64, 0.052323032, 0.30269548, -469271.47, -53398.93, 0.0, 9.998499, 10.000809 
2.892694e+3, 2.675596e+2, -674079.6, -556284.5, 77802.266, 0.022752553, 0.34639436, -517600.75, -199661.25, 0.0, 9.998518, 9.999831 
2.8923085e+3, 2.7755192e+2, -519976.44, -471163.13, 135077.83, 0.0551416, 0.33712018, -358304.7, -138288.05, 0.0, 9.999045, 9.999499 
2.8919262e+3, 2.875427e+2, -366200.9, -403073.78, 268137.97, 0.041399274, 0.25263935, -115866.3, 6240.6953, 0.0, 9.999656, 9.999018 
2.8915444e+3, 2.9753318e+2, -146419.2, -189992.45, 185196.47, -0.016808301, 0.12567294, 18267.736, 42467.41, 0.0, 10.000226, 9.999546 
2.891159e+3, 3.075265e+2, -95137.8, 116797.73, 159972.56, 0.009657096, 0.12917073, 202716.36, 202716.36, 0.0, 9.998973, 10.001594 
2.8907734e+3, 3.175201e+2, -377913.44, -157581.47, 252431.9, 0.22894712, 0.12174291, 7676.5977, 7676.5977, 0.0, 9.997332, 10.000216 
2.890373e+3, 3.2751286e+2, 90614.09, -69346.79, -104323.41, -0.5334307, 0.2899318, 142088.0, 142088.0, 0.0, 10.001121, 9.99895 
2.9076782e+3, 1.380458e+2, -1142899.3, -1021494.0, 227079.7, 0.14504582, 0.5695754, -847143.44, 740046.06, 0.00000000011876347, 10.002071, 10.003723 
2.907294e+3, 1.4803419e+2, -1494687.5, -1886593.5, 65083.195, 0.08516219, 0.2105974, -1484162.0, 5129.3027, 0.0, 10.002276, 9.997007 
2.906906e+3, 1.5802443e+2, -1336500.0, -1614133.5, 116933.03, -0.2271053, 0.2275887, -1293813.6, 97583.195, 0.0, 10.002097, 9.998277 
2.9065242e+3, 1.6801734e+2, -1071854.8, -1062828.0, 177783.47, -0.093975514, 0.21745148, -889500.56, 403960.97, 0.0, 10.001645, 10.001592 
2.9061434e+3, 1.7801133e+2, -1126931.6, -1086904.4, 201601.55, 0.07741854, 0.18347912, -904325.5, 291186.34, 0.0, 10.000812, 10.001158 
2.9057616e+3, 1.8800533e+2, -1024822.1, -1005017.94, 142055.2, 0.20776136, 0.23526706, -872520.1, 225050.19, 0.0, 10.00095, 10.000963 
2.9053795e+3, 1.9799894e+2, -932938.1, -988331.56, 91952.78, 0.39136752, 0.22893023, -864601.44, 135033.25, 0.0, 10.001234, 10.000274 
2.904994e+3, 2.0799121e+2, -931554.1, -1053862.8, 31186.648, 0.27543944, 0.2383837, -924061.06, -22352.059, 0.0, 10.001099, 9.999199 
2.9046068e+3, 2.1798281e+2, -933701.2, -1055221.5, 42059.484, 0.0362741, 0.19844201, -920564.1, -116775.305, 0.0, 10.00062, 9.998759 
2.9042235e+3, 2.27974e+2, -799177.1, -967656.44, 101633.43, 0.08770743, 0.1973307, -751410.44, -45531.715, 0.0, 10.001017, 9.998474 
2.9038414e+3, 2.3796499e+2, -632048.3, -796154.75, 115401.86, 0.27620143, 0.16126004, -572502.4, 35470.223, 0.0, 10.001291, 9.998876 
2.9034573e+3, 2.4795881e+2, -499599.88, -448527.78, 90876.6, 0.27928576, 0.2722221, -379667.6, 130367.055, 0.0, 10.00055, 10.0009165 
2.9030716e+3, 2.5795352e+2, -624982.5, -505536.53, 43740.69, 0.19254695, 0.37005535, -491231.94, -79145.48, 0.0, 9.999192, 10.000532 
2.9026863e+3, 2.6794773e+2, -444305.78, -378871.6, 49461.75, 0.0903789, 0.4841585, -352285.44, -38141.91, 0.0, 9.999819, 10.000415 
2.9023004e+3, 2.779412e+2, -312607.5, -358894.28, 85162.05, -0.01533945, 0.517544, -247500.17, -31292.463, 0.0, 10.000419, 9.99962 
2.9019186e+3, 2.8793105e+2, -482127.6, -444173.94, 208395.58, 0.059717122, 0.32922754, -253892.94, -135586.08, 0.0, 9.998868, 9.999086 
2.9015386e+3, 2.9792e+2, -598481.4, -278027.1, 181666.44, 0.1994254, 0.027381247, -196024.13, -175609.7, 0.0, 9.996652, 10.000628 
2.9011503e+3, 3.0791855e+2, -48626.83, 647992.25, 53297.586, 0.03751525, 0.2135398, 652046.4, 652046.4, 0.0, 9.997189, 10.006031 
2.90076e+3, 3.1791934e+2, -307470.2, -112887.58, 106649.05, -0.1437421, 0.5249058, -65819.555, -65819.555, 0.0, 9.997884, 10.000191 
2.9003748e+3, 3.2790133e+2, -278155.13, -957034.6, -150621.17, 0.26036927, 0.020196877, -246237.8, -246237.8, 0.0, 10.001746, 9.992467 
2.9176703e+3, 1.3843176e+2, -1361270.4, -1263596.4, 170186.17, -0.14948587, 0.47600856, -1135378.6, 448023.8, 0.0000000000007792345, 10.001174, 10.00249 
2.917292e+3, 1.4841858e+2, -1507425.3, -1861696.4, 46372.887, 0.39411017, -0.002964928, -1501455.8, -15929.931, 0.0, 10.002045, 9.997298 
2.9168963e+3, 1.5841319e+2, -1280786.3, -1531279.1, 127127.86, -0.7174382, 0.42559516, -1227572.1, 160014.45, 0.0, 10.002215, 9.998799 
2.916516e+3, 1.6840456e+2, -1017740.7, -964507.8, 151751.88, -0.34200066, 0.19382796, -837055.9, 452604.88, 0.0, 10.001689, 10.002247 
2.9161394e+3, 1.7839539e+2, -1100893.5, -1065785.3, 182283.7, 0.2986086, -0.19975735, -900212.44, 291524.25, 0.0, 10.000907, 10.001274 
2.9157555e+3, 1.8839057e+2, -1070149.5, -1139396.4, 156864.55, 0.24702972, 0.028537884, -944132.75, 149655.83, 0.0, 10.001097, 9.999977 
2.9153705e+3, 1.9838652e+2, -960157.94, -1093861.3, 105477.9, 0.065109365, 0.36378005, -902130.75, 93706.78, 0.0, 10.001409, 9.999473 
2.9149872e+3, 2.0837852e+2, -931162.6, -1102869.6, 15951.356, 0.2253688, 0.40312696, -929693.3, -31772.97, 0.0, 10.001252, 9.998814 
2.9146037e+3, 2.1836938e+2, -870021.3, -992407.44, 43351.957, 0.38846356, 0.32810232, -856221.1, -56208.664, 0.0, 10.000862, 9.999092 
2.9142177e+3, 2.283616e+2, -676414.7, -764916.1, 127185.375, 0.140703, 0.3341197, -586002.0, 116087.06, 0.0, 10.001211, 9.999792 
2.9138312e+3, 2.3835398e+2, -513690.0, -659518.56, 133434.97, -0.17283055, 0.3324866, -434547.1, 169616.83, 0.0, 10.0016985, 9.999639 
2.9134467e+3, 2.4834639e+2, -521827.8, -585191.9, 53027.086, -0.12918071, 0.34198925, -491739.13, 14500.999, 0.0, 10.000879, 9.999838 
2.9130623e+3, 2.5833896e+2, -568109.0, -538494.25, 28632.268, -0.0031666236, 0.33695108, -521067.1, -112752.29, 0.0, 9.999765, 10.00005 
2.9126793e+3, 2.683323e+2, -358219.1, -310700.16, 93741.84, 0.13214907, 0.36550185, -237753.64, 72625.914, 0.0, 10.000257, 10.000682 
2.9122967e+3, 2.7832586e+2, -150954.38, -170925.69, 74253.16, 0.23494127, 0.37690797, -86018.44, 126423.055, 0.0, 10.0010195, 10.000624 
2.911911e+3, 2.8831932e+2, -368603.84, -180912.55, 130738.62, 0.15811206, 0.38546053, -113824.695, 680.8117, 0.0, 9.998718, 10.000981 
2.911526e+3, 2.9831293e+2, -680484.0, -60390.234, 175061.3, 0.13067982, 0.36735544, -14381.61, 2184.4204, 0.0, 9.994915, 10.002965 
2.9276657e+3, 1.3881601e+2, -1661914.4, -1569067.4, 168654.36, 0.06955561, 0.47678918, -1440564.0, 139073.77, 0.0, 9.999825, 10.001035 
2.9272857e+3, 1.4880462e+2, -1353421.3, -1513019.9, 49771.13, 0.31069687, 0.051285807, -1339172.3, 142573.48, 0.0, 10.001942, 9.999726 
2.9268932e+3, 1.5880239e+2, -1072062.0, -1298133.8, 175941.6, -0.54867035, 0.5718759, -975974.6, 407795.1, 0.0, 10.003094, 9.9999695 
2.9265124e+3, 1.6879338e+2, -986911.06, -1043864.1, 113558.53, -0.19798294, 0.32486597, -898313.0, 387536.78, 0.0, 10.0023365, 10.001378 
2.926134e+3, 1.7878303e+2, -1121476.1, -1118557.9, 97437.016, 0.3699371, -0.11957186, -1022569.1, 165371.55, 0.0, 10.000991, 10.000864 
2.925749e+3, 1.8877801e+2, -988771.0, -1061267.0, 164962.4, 0.19587639, 0.06717916, -856121.06, 233872.8, 0.0, 10.001483, 10.000337 
2.9253638e+3, 1.9877395e+2, -890351.75, -1056105.9, 174535.66, -0.06595479, 0.3696345, -780015.75, 212025.94, 0.0, 10.001871, 9.999525 
2.9249808e+3, 2.0876592e+2, -895203.56, -1056033.4, 129606.74, 0.16836059, 0.40001026, -823091.56, 71033.24, 0.0, 10.001435, 9.999025 
2.924598e+3, 2.1875688e+2, -939879.3, -1004863.56, 198886.23, 0.4669705, 0.31856272, -770848.56, 25368.229, 0.0, 10.000338, 9.99926 
2.9242116e+3, 2.2874981e+2, -775041.1, -752448.9, 263757.75, 0.15862072, 0.36855984, -499745.47, 198540.7, 0.0, 10.000289, 10.000324 
2.9238242e+3, 2.3874305e+2, -757565.75, -791810.0, 192553.1, -0.2784107, 0.40527683, -581375.0, 18976.658, 0.0, 10.000133, 9.99948 
2.9234388e+3, 2.4873462e+2, -702090.2, -783203.75, 82228.46, -0.26745135, 0.41473058, -650960.7, -148522.53, 0.0, 10.000177, 9.998804 
2.923054e+3, 2.5872585e+2, -620413.6, -608271.4, 78538.58, -0.10284903, 0.35460746, -535569.56, -131041.24, 0.0, 9.999665, 9.999606 
2.922672e+3, 2.687187e+2, -548187.06, -317444.56, 192478.77, 0.13528143, 0.30612594, -208408.58, 98187.13, 0.0, 9.998656, 10.001388 
2.9222903e+3, 2.787122e+2, -621797.6, -285084.38, 179648.16, 0.34659073, 0.23816657, -207234.95, 1420.0847, 0.0, 9.997353, 10.001604 
2.9219022e+3, 2.8870848e+2, -345276.03, -12514.332, 122435.66, 0.157721, 0.40828377, 27679.45, 138370.7, 0.0, 9.998285, 10.002305 
2.9215136e+3, 2.9870588e+2, -73402.375, 446515.22, 98664.93, 0.022762084, 0.577984, 464609.2, 477323.28, 0.0, 9.998195, 10.004877 
2.93766e+3, 1.3919966e+2, -1595507.9, -1664674.9, 225647.86, 0.16193385, 0.52209914, -1401808.8, 174072.67, 0.0, 10.000793, 9.999924 
2.9372782e+3, 1.4919133e+2, -1147349.1, -1045391.2, 69435.58, 0.08368393, 0.19974755, -1010229.8, 467729.44, 0.0, 10.001738, 10.003049 
2.9368937e+3, 1.5919165e+2, -1065189.6, -1142084.9, 135324.97, -0.094207466, 0.6841827, -962956.56, 416994.84, 0.0, 10.002444, 10.001368 
2.9365104e+3, 1.6918308e+2, -1158083.5, -1315165.3, 34078.78, 0.1053441, 0.55071825, -1151008.8, 131025.11, 0.0, 10.001928, 9.999735 
2.9361266e+3, 1.7917287e+2, -1141397.5, -1165792.3, 85081.33, 0.25993788, 0.2639069, -1067643.6, 116488.94, 0.0, 10.000962, 10.000575 
2.9357424e+3, 1.8916681e+2, -871011.1, -836685.1, 185586.36, 0.09090908, 0.24856159, -667469.9, 418721.88, 0.0, 10.00153, 10.001872 
2.9353583e+3, 1.9916135e+2, -755120.4, -842496.75, 170569.48, -0.09276579, 0.272305, -622733.0, 365512.47, 0.0, 10.002119, 10.000882 
2.9349735e+3, 2.091535e+2, -818055.75, -924008.25, 91653.01, 0.032453913, 0.22167514, -765170.0, 125150.88, 0.0, 10.001547, 9.999883 
2.9345885e+3, 2.1914521e+2, -855842.6, -915371.8, 187389.72, 0.18105163, 0.14939438, -695868.4, 96532.734, 0.0, 10.000638, 9.999746 
2.9342052e+3, 2.2913861e+2, -777599.1, -809302.56, 263565.03, 0.20547427, 0.2642119, -529409.56, 165058.56, 0.0, 10.00042, 9.999913 
2.9338217e+3, 2.391322e+2, -753150.8, -841323.25, 184008.77, 0.14921775, 0.38808015, -608020.75, -11486.291, 0.0, 10.000284, 9.999105 
2.9334345e+3, 2.4912404e+2, -754233.25, -911704.9, 78676.05, 0.05703195, 0.4963678, -721662.06, -223039.34, 0.0, 10.000205, 9.997937 
2.9330474e+3, 2.5911552e+2, -536191.06, -523746.75, 48628.816, -0.0069406563, 0.5332073, -480943.63, -80230.17, 0.0, 9.999974, 10.000063 
2.932662e+3, 2.691085e+2, -506717.34, -128684.78, 127740.78, 0.04983038, 0.3684836, -89567.63, 213205.02, 0.0, 9.998137, 10.002963 
2.932277e+3, 2.7910206e+2, -695319.7, -244692.58, 180555.63, 0.10427621, 0.1694084, -181273.5, 23550.729, 0.0, 9.996412, 10.002369 
2.9318926e+3, 2.890965e+2, -427310.6, -199968.83, 196637.95, 0.08908804, 0.21510264, -86510.77, 20367.256, 0.0, 9.998221, 10.001119 
2.931505e+3, 2.9909113e+2, 361107.34, 495739.63, 144419.16, -0.15303704, 0.2352304, 587760.7, 596688.56, 0.0, 10.001663, 10.003626 
2.9476544e+3, 1.3957983e+2, -1226376.3, -1582941.6, 110430.63, 0.022239503, 0.30365396, -1194945.8, 377210.06, 0.0, 10.00375, 9.999064 
2.947272e+3, 1.4957516e+2, -1099871.8, -956742.94, -67254.65, 0.009477742, 0.31886327, -930100.1, 544099.2, 0.0, 10.001796, 10.003628 
2.9468876e+3, 1.5957314e+2, -1363076.1, -1193824.6, -115832.414, -0.08069188, 0.48106524, -1134997.8, 241216.14, 0.0, 10.000013, 10.002195 
2.946504e+3, 1.6956653e+2, -1371338.8, -1283896.0, -108732.79, 0.1417466, 0.41491356, -1210423.6, 67853.05, 0.0, 9.999901, 10.000932 
2.94612e+3, 1.7955904e+2, -1245019.1, -1144865.9, 88598.875, 0.27927795, 0.28328425, -1093171.1, 87178.82, 0.0, 9.99997, 10.001182 
2.9457363e+3, 1.8955444e+2, -1000966.1, -867043.56, 176099.83, 0.093429364, 0.37505838, -745603.75, 336793.84, 0.0, 10.00055, 10.002104 
2.945353e+3, 1.9954957e+2, -933529.8, -921240.6, 50963.254, -0.04803222, 0.4221761, -876052.9, 108394.1, 0.0, 10.000899, 10.000918 
2.9449677e+3, 2.0954122e+2, -819961.3, -900546.1, -94085.6, 0.038818225, 0.2807337, -757903.44, 128621.48, 0.0, 10.001442, 10.00008 
2.9445818e+3, 2.195325e+2, -765261.8, -880488.5, -21720.207, 0.1457839, 0.1297812, -761303.5, 27302.314, 0.0, 10.001339, 9.99964 
2.9441988e+3, 2.2952612e+2, -640737.0, -711164.44, 107208.586, 0.20712684, 0.23161396, -563107.06, 127561.98, 0.0, 10.001316, 10.000093 
2.943816e+3, 2.3951997e+2, -688359.4, -795153.1, 80832.53, 0.26115727, 0.33978194, -644879.4, -52147.375, 0.0, 10.000744, 9.999165 
2.943429e+3, 2.4951258e+2, -694659.9, -816806.6, 102140.99, 0.19928987, 0.47755536, -636725.94, -141914.38, 0.0, 10.000395, 9.998469 
2.9430413e+3, 2.5950485e+2, -553774.6, -524263.8, 153970.9, 0.11140429, 0.5513168, -384342.88, 12550.689, 0.0, 9.999888, 10.000095 
2.9426536e+3, 2.6949722e+2, -143061.02, 11784.877, 73103.625, 0.011128853, 0.3524163, 40844.098, 339801.9, 0.0, 10.000827, 10.002615 
2.9422662e+3, 2.7948996e+2, -96392.484, -46284.637, 13257.705, -0.08417664, 0.08843582, -42993.086, 158023.02, 0.0, 10.000972, 10.001517 
2.9418835e+3, 2.8948346e+2, -292051.0, -248130.42, 80204.12, 0.021109695, 0.12669647, -186934.5, -83854.805, 0.0, 9.99969, 10.000067 
2.9414967e+3, 2.99475e+2, -278116.97, 42640.777, 209602.77, -0.38808322, -0.049955238, 146183.69, 151342.52, 0.0, 9.998038, 10.002216 
2.9576495e+3, 1.3996084e+2, -1335890.5, -1706339.6, 61217.582, -0.13047901, 0.17240429, -1326036.3, 242384.39, 0.0, 10.003266, 9.998465 
2.957266e+3, 1.4995769e+2, -1220023.8, -1095657.0, -44869.973, -0.052186217, 0.4032097, -1081158.6, 389293.22, 0.0, 10.001278, 10.002945 
2.9568776e+3, 1.5995073e+2, -1306178.0, -1061546.0, -83377.23, -0.36001715, 0.12312721, -1035831.75, 336684.84, 0.0, 9.99991, 10.003171 
2.9564956e+3, 1.6994663e+2, -1136496.4, -848934.4, -66077.68, 0.030158423, 0.07291335, -834477.44, 440073.0, 0.0, 10.000099, 10.003828 
2.9561135e+3, 1.7994317e+2, -1092869.8, -923696.06, 122462.96, 0.31950423, 0.10188191, -859447.06, 317133.03, 0.0, 10.000332, 10.002536 
2.9557306e+3, 1.899413e+2, -1021246.94, -958959.2, 191570.56, 0.14881237, 0.47899476, -796017.44, 282592.0, 0.0, 10.000717, 10.001408 
2.9553476e+3, 1.9993839e+2, -926091.7, -980748.7, 54958.1, -0.0020655787, 0.7998725, -892042.4, 88606.35, 0.0, 10.001159, 10.000403 
2.9549637e+3, 2.0992887e+2, -799553.75, -936454.4, -94634.88, 0.20337807, 0.5848575, -751208.5, 131530.66, 0.0, 10.001674, 9.999769 
2.9545784e+3, 2.1991873e+2, -642085.25, -758400.2, -38820.79, 0.3441507, 0.3090979, -630318.9, 154514.34, 0.0, 10.001837, 10.000265 
2.954192e+3, 2.2991182e+2, -535919.06, -552879.0, 72340.16, 0.0761627, 0.2642189, -471563.53, 215332.34, 0.0, 10.001564, 10.001067 
2.9538056e+3, 2.3990549e+2, -449682.28, -439885.22, 31202.557, -0.16065015, 0.23837635, -413199.03, 175754.2, 0.0, 10.001271, 10.001365 
2.9534212e+3, 2.4989973e+2, -425512.38, -350634.1, 73376.52, 0.07795449, 0.25137812, -305697.25, 185308.5, 0.0, 10.000703, 10.001572 
2.9530364e+3, 2.5989333e+2, -486186.16, -540752.6, 191203.58, 0.3157969, 0.24820392, -320329.06, 72736.96, 0.0, 10.000468, 9.999744 
2.95265e+3, 2.6988313e+2, -266008.78, -568148.1, 103945.516, 0.1794363, 0.13341069, -233702.56, 61465.66, 0.0, 10.002159, 9.998021 
2.9522625e+3, 2.7987346e+2, 122944.67, -215296.28, -101726.39, -0.019691698, 0.049674463, 151181.72, 348446.25, 0.0, 10.003566, 9.999143 
2.9518765e+3, 2.8986987e+2, -142367.33, -209536.17, -143661.94, 0.0003790688, 0.44645146, -28416.447, 70887.19, 0.0, 10.000754, 9.999868 
2.95149e+3, 2.9986218e+2, -313351.88, 208716.83, -39547.715, -0.021414906, 0.32784194, 211695.64, 213071.03, 0.0, 9.996836, 10.003982 
2.9676485e+3, 1.4035402e+2, -1390701.1, -1537890.9, 63801.35, 0.21606155, 0.47357517, -1366895.8, 197675.63, 0.0, 10.002122, 10.000139 
2.967259e+3, 1.503471e+2, -1454830.0, -1302767.1, 287035.1, -0.049683344, 0.3786454, -1081864.4, 384771.34, 0.0, 10.0001335, 10.002047 
2.9668713e+3, 1.603393e+2, -1304579.0, -1102523.1, 269396.22, -0.2675496, 0.123833604, -915834.25, 452873.53, 0.0, 10.000127, 10.002776 
2.966489e+3, 1.7033456e+2, -946251.0, -730733.44, 217669.11, -0.0088124825, 0.036645614, -595609.94, 675135.9, 0.0, 10.001314, 10.0040455 
2.9661062e+3, 1.8033065e+2, -874294.2, -885901.25, 271793.2, 0.18685122, 0.025155416, -608242.6, 564536.06, 0.0, 10.002152, 10.0019245 
2.9657236e+3, 1.9032753e+2, -1022590.3, -1082762.9, 264125.75, 0.08733443, 0.3924666, -786842.8, 287978.6, 0.0, 10.001288, 10.000277 
2.9653418e+3, 2.0032354e+2, -1147271.8, -1169798.4, 137115.44, 0.07481304, 0.71555954, -1020957.75, -44084.38, 0.0, 10.000046, 9.999637 
2.9649583e+3, 2.1031459e+2, -865172.5, -947247.3, 47407.582, 0.24110083, 0.5770431, -843507.9, 35453.42, 0.0, 10.001212, 9.999887 
2.9645726e+3, 2.203051e+2, -656001.1, -742715.2, 75007.83, 0.32921258, 0.35130307, -612720.94, 168330.6, 0.0, 10.001698, 10.000434 
2.964185e+3, 2.3029828e+2, -695995.75, -573038.44, 129653.234, -0.004641778, 0.28496057, -491026.38, 192085.22, 0.0, 10.000227, 10.001582 
2.9637975e+3, 2.4029209e+2, -786863.4, -529964.6, 57298.76, -0.26765788, 0.21520357, -517764.13, 67400.37, 0.0, 9.998689, 10.001999 
2.9634142e+3, 2.5028655e+2, -388337.94, -195025.31, -38555.348, 0.055942107, 0.14106216, -187619.34, 299590.4, 0.0, 10.000421, 10.002746 
2.9630306e+3, 2.6028034e+2, -384666.28, -582907.56, -7536.385, 0.4010304, 0.058675453, -384380.2, 4883.669, 0.0, 10.001615, 9.9988785 
2.9626456e+3, 2.7026957e+2, -509852.4, -936236.2, 128907.164, 0.26486063, 0.058227044, -473910.13, -182532.7, 0.0, 10.001583, 9.995755 
2.9622582e+3, 2.8025913e+2, -395276.72, -636344.0, 53085.484, 0.03308146, 0.103064284, -384104.53, -190614.84, 0.0, 10.000815, 9.997556 
2.961869e+3, 2.9025605e+2, -381877.0, -357672.16, -55992.29, -0.042274676, 0.6307172, -312489.28, -216963.63, 0.0, 9.999328, 9.999491 
2.9614836e+3, 3.0024755e+2, -184676.61, 394566.47, -17949.38, 0.34844774, 0.425293, 395122.16, 395122.16, 0.0, 9.997295, 10.004995 
2.9776457e+3, 1.4075027e+2, -1435755.8, -1351351.4, -283593.8, 0.5027303, 0.76372766, -1106836.9, 453855.47, 0.0, 10.000908, 10.002009 
2.977252e+3, 1.5073948e+2, -1498332.4, -1431552.0, 260457.23, -0.03218104, 0.3215222, -1202353.4, 260436.14, 0.0, 10.000287, 10.001095 
2.9768667e+3, 1.6073346e+2, -1294529.8, -1203867.4, 255267.48, -0.047254257, 0.33749846, -989937.3, 374904.75, 0.0, 10.00063, 10.001844 
2.9764825e+3, 1.7072698e+2, -998341.7, -902949.25, 235640.25, -0.055705428, 0.19064413, -710226.56, 556670.3, 0.0, 10.001565, 10.002759 
2.9760984e+3, 1.8072012e+2, -933140.3, -1085889.8, 230016.4, -0.14341292, 0.037030034, -767150.3, 401807.9, 0.0, 10.00244, 10.000429 
2.975717e+3, 1.9071285e+2, -1077939.0, -1274862.5, 180819.67, -0.034628417, 0.13582695, -970511.3, 100525.75, 0.0, 10.001542, 9.998873 
2.975335e+3, 2.007057e+2, -1078054.3, -1153462.4, 107812.4, 0.10567603, 0.24805172, -1001543.1, -28427.336, 0.0, 10.000508, 9.999559 
2.9749504e+3, 2.1069846e+2, -808067.4, -881242.44, 73259.836, 0.086933315, 0.25451496, -762766.9, 112424.01, 0.0, 10.001399, 10.000281 
2.9745644e+3, 2.2069158e+2, -559822.94, -640062.94, 34467.184, 0.03683692, 0.2500841, -547050.6, 230209.56, 0.0, 10.002019, 10.001021 
2.9741785e+3, 2.306864e+2, -673116.44, -565775.7, 47382.01, 0.07556849, 0.32611886, -547853.0, 131453.92, 0.0, 10.000267, 10.001675 
2.9737929e+3, 2.4068077e+2, -825964.8, -689206.6, 59311.88, 0.105312824, 0.35062158, -667067.25, -85709.5, 0.0, 9.998934, 10.000822 
2.9734084e+3, 2.5067264e+2, -494515.75, -528100.8, 4881.8413, 0.16628382, 0.2341482, -493820.53, -10385.582, 0.0, 10.000817, 10.000301 
2.9730245e+3, 2.606647e+2, -149240.11, -349279.63, -70174.64, 0.24362057, 0.13511667, -127077.91, 258432.05, 0.0, 10.002593, 10.000043 
2.9726395e+3, 2.7065876e+2, -205296.3, -355078.22, 69849.234, 0.2349794, 0.29054937, -177778.42, 109789.195, 0.0, 10.001726, 9.999736 
2.972252e+3, 2.8065184e+2, -308658.34, -405618.88, 61168.543, 0.12840384, 0.38228244, -279087.8, -89451.91, 0.0, 10.000484, 9.999352 
2.9718605e+3, 2.9064155e+2, -437827.2, -430628.25, -21235.13, -0.02538766, 0.18144543, -412689.7, -320952.03, 0.0, 9.999077, 9.999162 
2.9714715e+3, 3.0063376e+2, -165666.88, 160703.58, 80166.78, 0.081748806, 0.15536483, 179331.81, 179331.81, 0.0, 9.998447, 10.002861 
2.987637e+3, 1.4114088e+2, -1690786.1, -1408881.0, -290521.84, 0.45387933, 0.63273245, -1226924.0, 329937.22, 0.0, 9.998844, 10.002641 
2.9872453e+3, 1.5112872e+2, -1404160.8, -1528618.0, 233668.48, -0.069135144, 0.13634427, -1224576.8, 234394.38, 0.0, 10.001518, 9.99986 
2.986862e+3, 1.611233e+2, -1072568.5, -1323350.6, 182328.94, 0.03130971, 0.3364923, -976675.2, 384343.9, 0.0, 10.003142, 9.999823 
2.986478e+3, 1.7111717e+2, -951601.1, -1143751.6, 84963.61, -0.031753454, 0.4397981, -919421.7, 343655.5, 0.0, 10.003055, 10.000377 
2.9860935e+3, 1.8110955e+2, -991661.7, -1238797.1, 40844.688, -0.1502508, 0.3959574, -985086.1, 180063.95, 0.0, 10.002594, 9.999316 
2.9857108e+3, 1.9109936e+2, -942665.4, -1171123.6, 55910.15, -0.07526478, 0.1838872, -929716.56, 137534.33, 0.0, 10.002297, 9.999231 
2.9853284e+3, 2.0109043e+2, -902169.75, -1030937.94, 96826.36, 0.02613262, 0.061552808, -850275.5, 119065.61, 0.0, 10.001587, 9.999873 
2.984943e+3, 2.1108489e+2, -782424.5, -883422.0, 80551.76, -0.0738339, 0.22612756, -737851.1, 133550.56, 0.0, 10.001631, 10.000157 
2.9845577e+3, 2.2107995e+2, -712143.06, -755092.2, -19758.527, -0.08224665, 0.41679204, -704436.2, 69018.43, 0.0, 10.00121, 10.000609 
2.9841733e+3, 2.3107432e+2, -565035.8, -554348.94, -93840.28, 0.22193164, 0.47669774, -465700.1, 209806.36, 0.0, 10.001277, 10.00123 
2.9837883e+3, 2.4106753e+2, -632618.2, -711670.2, -38814.83, 0.43001276, 0.441895, -616746.56, -39176.496, 0.0, 10.000822, 9.9997425 
2.9834023e+3, 2.510585e+2, -587141.56, -670413.7, 73749.484, 0.18742904, 0.32158592, -544086.75, -64426.895, 0.0, 10.000678, 9.999365 
2.983017e+3, 2.610504e+2, -442453.38, -423853.47, 42276.9, 0.054460153, 0.2705638, -389865.72, -8126.4917, 0.0, 10.000372, 10.00059 
2.982633e+3, 2.7104712e+2, -171340.47, -30489.344, 19828.012, 0.20946205, 0.47511658, -27751.324, 256014.38, 0.0, 10.00068, 10.002445 
2.9822466e+3, 2.8104213e+2, -283722.16, -277871.97, -102118.445, 0.23900004, 0.50787306, -178636.73, 7172.0654, 0.0, 10.000242, 10.000326 
2.9818535e+3, 2.910274e+2, -260521.45, -328768.6, -155993.31, 0.08508096, -0.17884505, -134963.05, -47013.63, 0.0, 10.000317, 9.999233 
2.9814613e+3, 3.0102208e+2, -171301.3, -41633.473, 90941.45, -0.12086481, 0.07564229, 5218.708, 5218.708, 0.0, 9.999406, 10.000965 
2.9976267e+3, 1.4152808e+2, -1584132.8, -1328834.6, -92066.17, 0.23777461, 0.25108114, -1299097.4, 253963.89, 0.0, 9.999472, 10.00289 
2.9972386e+3, 1.5151581e+2, -1466776.9, -1702632.8, 241657.89, -0.1613092, -0.14686412, -1315807.9, 139365.25, 0.0, 10.001698, 9.998596 
2.9968578e+3, 1.6151023e+2, -1231589.8, -1668184.6, 148003.38, -0.047370274, 0.19766545, -1186147.3, 171078.5, 0.0, 10.003187, 9.997446 
2.9964748e+3, 1.7150462e+2, -1204792.1, -1609803.8, 30877.299, 0.08415591, 0.6490375, -1202451.6, 56837.438, 0.0, 10.002778, 9.997328 
2.996091e+3, 1.8149807e+2, -964659.44, -1157662.1, 17948.97, 0.010441849, 0.89913094, -963004.4, 198354.34, 0.0, 10.002489, 9.999917 
2.995705e+3, 1.9148639e+2, -787012.94, -866167.2, 52406.242, -0.1906134, 0.36404592, -760918.44, 302548.16, 0.0, 10.002396, 10.001272 
2.9953206e+3, 2.0147654e+2, -858507.3, -947741.25, 70434.69, -0.21779476, 0.01816294, -819747.3, 145812.13, 0.0, 10.001601, 10.000434 
2.9949373e+3, 2.114747e+2, -777338.06, -874603.75, 77678.33, -0.11250557, 0.5507146, -734324.44, 133261.38, 0.0, 10.001639, 10.000211 
2.9945523e+3, 2.2147062e+2, -696286.75, -848949.56, -33714.37, -0.039989255, 0.8729372, -689172.7, 80458.87, 0.0, 10.001708, 9.999728 
2.9941684e+3, 2.3145989e+2, -643755.06, -781131.1, -123424.2, 0.33487716, 0.577416, -571193.0, 100538.734, 0.0, 10.001477, 9.999617 
2.9937845e+3, 2.4145079e+2, -440799.0, -513106.44, -65594.71, 0.616836, 0.38907072, -402054.4, 171761.8, 0.0, 10.001624, 10.000735 
2.9933956e+3, 2.514448e+2, -370772.25, -377119.03, 39182.63, 0.16776985, 0.4038915, -334634.72, 141240.53, 0.0, 10.001284, 10.001135 
2.993008e+3, 2.6143846e+2, -388341.63, -346276.84, 53501.24, -0.16110738, 0.40618652, -309822.34, 68115.03, 0.0, 10.000437, 10.001144 
2.9926258e+3, 2.7143255e+2, -245013.88, -142023.42, 22047.29, 0.18988785, 0.40306515, -137502.2, 142491.31, 0.0, 10.000456, 10.001837 
2.992242e+3, 2.8142586e+2, -158096.58, -156479.98, -150054.52, 0.47673133, 0.30770046, -7231.593, 174824.67, 0.0, 10.000779, 10.000946 
2.9918522e+3, 2.9141492e+2, -46188.063, -110976.78, -192133.33, 0.63305455, -0.10991223, 116262.664, 200422.03, 0.0, 10.001229, 10.0003805 
2.9914606e+3, 3.0140907e+2, -1260.5568, 106545.12, -38946.406, 0.54160625, 0.027618345, 119142.945, 119142.945, 0.0, 10.000106, 10.001802 
3.0076265e+3, 1.4192358e+2, -1570017.1, -1571234.9, -38348.94, 0.86779845, 0.80277, -1532272.3, 16912.836, 0.0, 10.000611, 10.000643 
3.0072367e+3, 1.5190634e+2, -1456365.3, -2191051.0, 195770.58, 0.08096807, 0.28622743, -1407454.8, 43895.24, 0.0, 10.003894, 9.994142 
3.006853e+3, 1.6189556e+2, -1107591.8, -1728423.6, -125836.73, -0.19423087, 0.41795343, -1083055.5, 270399.72, 0.0, 10.004478, 9.996415 
3.006468e+3, 1.718829e+2, -1147230.9, -1513327.6, -116202.1, -0.0638768, 0.08908393, -1113462.3, 142122.47, 0.0, 10.002778, 9.997993 
3.0060866e+3, 1.8187374e+2, -1126353.9, -1173233.0, 66817.55, 0.16438836, -0.022271553, -1078983.9, 78694.32, 0.0, 10.001051, 10.000504 
3.0057013e+3, 1.9187376e+2, -1198494.6, -1003662.56, -24453.016, 0.07721154, 0.5226975, -1000640.4, 59031.793, 0.0, 9.999244, 10.001826 
3.0053163e+3, 2.018673e+2, -1288001.1, -1194521.5, 23690.72, 0.06577885, 0.49197033, -1188860.4, -227128.9, 0.0, 9.998787, 10.000091 
3.0049348e+3, 2.1185888e+2, -1020593.8, -875747.94, 101850.164, 0.33358347, 0.29296154, -823196.75, 40620.96, 0.0, 9.99949, 10.0011835 
3.0045503e+3, 2.218517e+2, -809109.6, -821838.8, 84443.21, 0.35089156, 0.22469328, -730791.5, 35098.05, 0.0, 10.000594, 10.00042 
3.0041584e+3, 2.3184325e+2, -379242.63, -536245.5, 234638.48, -0.106436364, 0.065351166, -210321.97, 457640.25, 0.0, 10.002792, 10.0006075 
3.0037716e+3, 2.4183615e+2, -481231.34, -660261.56, 326148.0, -0.16012046, 0.05310109, -232537.23, 337488.56, 0.0, 10.001935, 9.999534 
3.00339e+3, 2.5182945e+2, -769620.9, -788032.0, 92362.63, 0.26789242, 0.19768879, -686006.2, -213907.69, 0.0, 9.999542, 9.999065 
3.0030045e+3, 2.6182303e+2, -853655.56, -619491.0, -59737.8, 0.30173743, 0.29305404, -605131.75, -230963.92, 0.0, 9.997496, 10.000639 
3.002617e+3, 2.7181852e+2, -586413.4, -295651.72, 17433.756, 0.058445796, 0.4030473, -294610.16, -18393.428, 0.0, 9.998131, 10.001829 
3.0022296e+3, 2.818137e+2, -374441.0, -282146.03, -83520.336, -0.056018, 0.4937849, -232872.14, -54605.652, 0.0, 9.999421, 10.000703 
3.0018437e+3, 2.918067e+2, 89417.31, -18455.516, -178706.34, 0.39897275, 0.45204118, 222149.31, 302482.88, 0.0, 10.002147, 10.000491 
3.0014503e+3, 3.018013e+2, 363998.8, 271458.22, -264876.34, 0.20561, 0.57755107, 586615.9, 586615.9, 0.0, 10.002848, 10.001511 
