coord_x,coord_y,stress_xx,stress_yy,tau_xy,velocity_x,velocity_y,stress_1,eps,damage,lx,ly
5.000526e+0, 1.25167e+2, -1667970.9, -1794914.9, 28108.143, 0.0153357135, 0.05598004, -1662025.6, 51360.242, 0.0027102246, 10.00056, 9.999173 
5.0000715e+0, 1.3517028e+2, -1534817.1, -1750285.5, 22418.07, -0.056538824, 0.42420045, -1532509.4, 82850.43, 0.0016001622, 10.001179, 9.998496 
4.9999714e+0, 1.4516746e+2, -1368621.3, -1444802.8, -2224.9304, -0.0541131, 0.22494222, -1368556.4, 148832.52, 0.00071385584, 10.000917, 10.0000305 
5.000134e+0, 1.5516882e+2, -1421622.3, -1417061.8, -43010.074, 0.015048275, 0.2736931, -1376271.5, 43100.586, 0.00020880907, 9.999872, 10.000053 
5.0001526e+0, 1.651697e+2, -1345534.9, -1281781.6, -23725.533, 0.03476111, 0.34177807, -1273921.4, 47438.96, 0.00003056022, 9.999524, 10.000479 
4.9999976e+0, 1.7516902e+2, -1219512.1, -1186131.3, -53570.46, 0.0061139516, 0.16164361, -1146711.4, 76652.7, 0.0000010193884, 9.999784, 10.000338 
4.9999276e+0, 1.8516906e+2, -1137049.5, -1182093.8, -37205.855, -0.015219351, 0.17667386, -1116080.0, 9283.281, 0.0, 10.000064, 9.999553 
4.9999183e+0, 1.9516957e+2, -1005768.5, -1085766.3, -31848.197, -0.030748675, 0.2103331, -994638.0, 32721.578, 0.0, 10.000365, 9.999403 
5.000216e+0, 2.0516956e+2, -938119.5, -1122764.8, 8435.755, -0.016784798, 0.33258003, -937734.9, -8373.605, 0.0, 10.000681, 9.998316 
5.0007474e+0, 2.1516848e+2, -795308.9, -1014380.8, 23312.752, 0.018618913, 0.32506338, -792855.5, 38518.367, 0.0, 10.001036, 9.998219 
5.0005984e+0, 2.2516677e+2, -687147.75, -874554.1, 31821.72, 0.008344969, 0.32502306, -681891.8, 51498.152, 0.0, 10.000951, 9.998548 
4.9998483e+0, 2.3516418e+2, -666535.56, -819464.4, 5371.4, -0.04165569, 0.14335744, -666347.1, -30934.695, 0.0, 10.000441, 9.9985 
4.9998322e+0, 2.4516281e+2, -557007.5, -612473.9, 5094.642, -0.024268487, 0.11550884, -556543.4, -19121.617, 0.0, 10.00007, 9.999425 
5.000493e+0, 2.55162e+2, -509675.28, -560875.94, -28340.604, 0.05410712, 0.028767256, -497084.44, -57659.79, 0.000000000017365094, 9.999812, 9.999235 
5.0003046e+0, 2.6516145e+2, -458701.53, -554222.1, -8670.6455, 0.036885753, 0.09380154, -457920.88, -116491.23, 0.000000288742, 9.999788, 9.998612 
4.9993283e+0, 2.751612e+2, -338932.47, -450956.03, -14000.314, -0.06985881, 0.13922803, -337209.28, -93772.6, 0.0000033591298, 9.999958, 9.998566 
4.9993706e+0, 2.8516093e+2, -268729.7, -422842.22, 12889.548, -0.06799952, 0.2842056, -267659.06, -122214.57, 0.000018802597, 10.000013, 9.998053 
5.0002706e+0, 2.9515892e+2, -153490.28, -294040.9, 34275.594, 0.020439409, 0.20465237, -145577.13, -98107.086, 0.000081046455, 10.00001, 9.998272 
5.00027e+0, 3.0515954e+2, -82357.77, -152323.2, 40577.867, 0.03198984, 0.38599646, -63764.805, -63764.805, 0.0003038914, 9.999803, 9.99901 
4.9993747e+0, 3.1515434e+2, 20210.584, 206370.83, 23566.9, -0.027310286, -0.08032951, 209307.92, 209307.92, 0.00078894256, 9.999076, 10.001851 
1.5001543e+1, 1.2517023e+2, -1691436.4, -1741761.9, 4570.186, 0.04678156, 0.3409094, -1691024.8, 22336.121, 0.0026043395, 10.00019, 9.999738 
1.5000309e+1, 1.3517067e+2, -1524200.5, -1672043.5, 60335.29, -0.15588816, 0.42728245, -1502703.3, 112653.81, 0.0015429672, 10.000991, 9.999149 
1.4999892e+1, 1.4516701e+2, -1443294.1, -1533212.9, -56134.184, -0.16232474, 0.13808052, -1416334.3, 101058.54, 0.0006869522, 10.000662, 9.999562 
1.5000385e+1, 1.5516794e+2, -1489998.5, -1505191.4, -64145.19, 0.044996407, 0.23507524, -1433001.5, -13618.94, 0.0001968844, 9.999673, 9.999558 
1.5000466e+1, 1.6516855e+2, -1401333.3, -1336474.6, -28308.582, 0.10803861, 0.3117515, -1325857.0, -4481.872, 0.000026649353, 9.999296, 10.000225 
1.5000029e+1, 1.7516823e+2, -1264162.5, -1227472.6, -28805.78, 0.022863032, 0.23007303, -1211666.3, 11710.28, 0.00000066228677, 9.999587, 10.000165 
1.4999746e+1, 1.8516839e+2, -1131344.8, -1100992.1, -40416.08, -0.045559064, 0.22992289, -1072997.0, 52376.492, 0.0, 9.999809, 10.000239 
1.4999746e+1, 1.9516891e+2, -995193.6, -1000773.7, -4012.3975, -0.089334436, 0.23162603, -993096.56, 34270.508, 0.0, 10.00013, 10.000111 
1.5000623e+1, 2.0516853e+2, -910851.94, -1002934.9, 9514.982, -0.051468365, 0.23381594, -909879.06, 19489.885, 0.0, 10.000443, 9.999262 
1.5002221e+1, 2.1516714e+2, -765253.9, -890353.56, 52589.08, 0.054478474, 0.13683265, -746084.06, 85296.38, 0.0, 10.000802, 9.999192 
1.5001784e+1, 2.2516614e+2, -734357.56, -910032.44, -3921.8142, 0.028310627, 0.16198428, -734270.06, -879.6754, 0.0, 10.00072, 9.998426 
1.499952e+1, 2.3516542e+2, -715814.8, -856877.2, 2262.6155, -0.12455655, 0.22043426, -715778.5, -80378.65, 0.0, 10.000197, 9.998369 
1.4999504e+1, 2.4516442e+2, -619499.9, -689000.56, -19778.672, -0.07055544, 0.25777063, -614265.44, -76856.23, 0.0, 9.999872, 9.999007 
1.500147e+1, 2.5516295e+2, -569447.9, -618240.8, -24556.879, 0.1645224, 0.1786246, -559228.9, -119808.055, 0.0, 9.999558, 9.998975 
1.5000919e+1, 2.6516193e+2, -462411.97, -507646.88, -16205.675, 0.11286354, 0.18168448, -457205.47, -115775.19, 0.00000013049092, 9.999593, 9.999038 
1.499801e+1, 2.7516136e+2, -353096.25, -417026.97, 3722.019, -0.20653492, 0.19173026, -352880.28, -109442.33, 0.0000024373799, 9.999715, 9.998929 
1.499807e+1, 2.8516042e+2, -228279.22, -285940.03, -528.9578, -0.20539913, 0.20581834, -228274.36, -82825.38, 0.000015368285, 9.999823, 9.9991 
1.50008e+1, 2.951584e+2, -124324.484, -161189.92, 57436.8, 0.05943675, 0.051523738, -82435.14, -34963.383, 0.000069496324, 9.999721, 9.99934 
1.5000886e+1, 3.0516133e+2, -118591.016, -148547.67, 2222.032, 0.111972295, 0.4144522, -118427.09, -118427.09, 0.00026841622, 9.999556, 9.999176 
1.4998084e+1, 3.1515893e+2, -113171.61, 66606.81, 53820.543, -0.07556549, 0.27111638, 81487.45, 81487.45, 0.0007052667, 9.998579, 10.001152 
2.5001457e+1, 1.2517145e+2, -1674834.6, -1704966.9, 68238.836, 0.03584802, 0.44093367, -1620018.5, 93332.266, 0.0024837567, 10.000217, 9.999946 
2.5001436e+1, 1.3517098e+2, -1624961.3, -1698545.9, 58518.313, -0.090055205, 0.39818546, -1592630.0, 22724.174, 0.0014731403, 10.000249, 9.999302 
2.5001144e+1, 1.4516772e+2, -1512502.8, -1595798.0, -33994.36, -0.07495836, 0.15683138, -1500390.4, 16995.186, 0.00065158884, 10.000342, 9.999267 
2.5000912e+1, 1.5516819e+2, -1381263.0, -1489381.4, -45982.402, 0.09460401, 0.22539695, -1364351.9, 55029.22, 0.0001815959, 10.000598, 9.9992075 
2.5000474e+1, 1.6516857e+2, -1247150.6, -1309329.9, 59414.734, 0.12580365, 0.31989595, -1211183.0, 110193.89, 0.000022322774, 10.000566, 9.999787 
2.4999891e+1, 1.751683e+2, -1196633.4, -1237293.8, 29735.967, 0.027136108, 0.27367488, -1180942.1, 42435.785, 0.00000035252413, 10.000254, 9.999758 
2.4999791e+1, 1.8516818e+2, -1139991.4, -1127234.1, 18622.648, -0.013843697, 0.27388734, -1113928.0, 11449.599, 0.0, 9.999838, 10.000036 
2.5000283e+1, 1.9516808e+2, -1143244.5, -1088918.9, -24688.68, 0.008605257, 0.22020715, -1079375.5, -51998.79, 0.0, 9.999192, 9.999939 
2.500123e+1, 2.0516759e+2, -1017417.1, -1003510.94, 20612.068, 0.020752005, 0.19574979, -988710.8, -59332.47, 0.0, 9.999497, 9.999708 
2.5002545e+1, 2.1516648e+2, -758506.6, -841399.75, 10953.536, 0.022649435, 0.07511914, -757083.6, 74301.44, 0.0, 10.000656, 9.999593 
2.5002176e+1, 2.2516605e+2, -695580.9, -885826.1, -59274.867, -0.00897922, 0.1355121, -678624.0, 54765.363, 0.0, 10.000959, 9.998459 
2.5000298e+1, 2.3516607e+2, -686290.6, -845575.5, -51468.645, -0.068710074, 0.25164482, -671107.2, -35714.047, 0.0, 10.0004015, 9.998337 
2.5000167e+1, 2.4516514e+2, -590534.5, -717565.9, 51.82057, -0.0037135442, 0.31875265, -590534.5, -53130.934, 0.0, 10.000278, 9.998595 
2.5001597e+1, 2.5516304e+2, -447944.38, -604968.06, -22572.22, 0.17954537, 0.21062744, -444764.03, -5341.1924, 0.0, 10.000599, 9.998547 
2.5000808e+1, 2.651619e+2, -366026.7, -455208.28, -4169.2896, 0.119004846, 0.21880907, -365832.22, -24398.162, 0.00000003137998, 10.000252, 9.999066 
2.4997923e+1, 2.7516153e+2, -413845.97, -442702.53, -28345.828, -0.15599635, 0.24303548, -396467.63, -153029.16, 0.0000016497497, 9.999302, 9.998941 
2.499795e+1, 2.851605e+2, -316491.6, -291816.78, -1960.9058, -0.15186897, 0.2285953, -291661.94, -146213.0, 0.000012071121, 9.999071, 9.999408 
2.5000763e+1, 2.9515842e+2, -156314.22, -149711.13, -18622.281, 0.11204753, 0.02634187, -134100.0, -86630.15, 0.00005739791, 9.99942, 9.999547 
2.5000912e+1, 3.0516183e+2, -91086.234, -139832.25, -68913.35, 0.16546594, 0.43336388, -42362.773, -42362.773, 0.00023072664, 9.999778, 9.999128 
2.4997729e+1, 3.1515995e+2, 30608.105, 35393.656, -65024.855, -0.014253496, 0.31280705, 98069.74, 98069.74, 0.000617959, 10.000031, 10.000211 
3.4999847e+1, 1.2517047e+2, -1702866.1, -1710967.5, 16049.763, -0.21902102, 0.27800155, -1690363.8, 22993.994, 0.0023583595, 10.000012, 9.999999 
3.5003006e+1, 1.3517122e+2, -1627521.1, -1679500.9, 69820.85, 0.004216015, 0.3647034, -1579009.8, 36341.42, 0.0013953737, 10.000167, 9.999465 
3.50033e+1, 1.4516947e+2, -1522860.4, -1579652.0, -42729.71, 0.06239163, 0.25459042, -1499951.8, 17417.281, 0.0006105934, 10.00019, 9.999446 
3.5001287e+1, 1.5516953e+2, -1378785.1, -1458356.1, -20516.861, 0.03313572, 0.26906887, -1373806.5, 45562.14, 0.00016453842, 10.000505, 9.999457 
3.49999e+1, 1.6516963e+2, -1280895.3, -1354073.3, 29409.783, -0.025622876, 0.3353243, -1270540.9, 50825.87, 0.000017966355, 10.000449, 9.999544 
3.499923e+1, 1.7516907e+2, -1229281.6, -1287189.8, 34293.77, -0.101519525, 0.2944786, -1213353.6, 10016.568, 0.00000014192928, 10.0001745, 9.999459 
3.4999713e+1, 1.851682e+2, -1215193.0, -1243723.5, -20762.398, -0.03898038, 0.27554002, -1204267.5, -78889.98, 0.0, 9.999679, 9.99931 
3.5001165e+1, 1.9516703e+2, -1212457.0, -1198074.0, -33064.367, 0.14350963, 0.193642, -1171428.1, -144039.44, 0.0, 9.999052, 9.999254 
3.500171e+1, 2.0516661e+2, -1024263.8, -978445.9, 46664.27, 0.089539535, 0.19467989, -949370.44, -19979.896, 0.0, 9.999335, 9.999958 
3.5001397e+1, 2.1516651e+2, -764867.3, -813373.4, 68756.96, -0.18879342, 0.157109, -716211.3, 115176.27, 0.0, 10.000484, 9.999867 
3.500143e+1, 2.2516643e+2, -688995.2, -820585.5, -91140.586, -0.20981044, 0.21289632, -642382.1, 91005.3, 0.0, 10.000752, 9.999001 
3.50018e+1, 2.3516628e+2, -676788.6, -774555.3, -57093.977, 0.007924453, 0.26393697, -650510.1, -15119.116, 0.0, 10.000197, 9.998916 
3.500151e+1, 2.4516499e+2, -625750.1, -758306.75, -1448.3184, 0.072787195, 0.2770993, -625734.3, -88329.75, 0.0, 10.000136, 9.998388 
3.500055e+1, 2.551624e+2, -488414.38, -647424.3, 5036.409, -0.017978735, 0.14653765, -488255.0, -48825.035, 0.0, 10.000424, 9.99834 
3.499963e+1, 2.6516145e+2, -388095.66, -478903.38, -53035.496, -0.053859293, 0.19326511, -363683.53, -22243.568, 0.0000000045955626, 10.000155, 9.998948 
3.4998626e+1, 2.7516192e+2, -439128.13, -462020.4, -44796.023, -0.05064427, 0.3138242, -404339.0, -160902.14, 0.0000011896407, 9.99916, 9.998876 
3.499869e+1, 2.8516123e+2, -339340.7, -317287.13, -2042.6636, -0.01889881, 0.3381323, -317099.5, -171655.44, 0.000009641755, 9.998986, 9.999273 
3.499977e+1, 2.9515895e+2, -199539.66, -205467.38, 8833.75, 0.028984224, 0.14923412, -193185.81, -145721.03, 0.0000464018, 9.999281, 9.999234 
3.4999824e+1, 3.051608e+2, -88717.555, -124875.38, -70968.125, 0.048230186, 0.41013214, -33561.77, -33561.77, 0.00019513248, 9.999717, 9.999256 
3.4997508e+1, 3.1515786e+2, -51535.395, -118668.57, -7778.0806, -0.1152614, 0.1610231, -50646.004, -50646.004, 0.00053834624, 9.99994, 9.999195 
4.5000717e+1, 1.2516968e+2, -1689497.6, -1680457.1, 10810.092, -0.10188844, 0.21734005, -1673260.3, 40104.72, 0.0022337737, 10.000022, 10.000189 
4.5003363e+1, 1.3517092e+2, -1654109.4, -1679648.9, -5790.449, 0.057692677, 0.34169012, -1652857.9, -37502.676, 0.0013153872, 9.999936, 9.99957 
4.500362e+1, 1.4517054e+2, -1537957.1, -1547301.4, -57326.023, 0.10927707, 0.34443673, -1485113.1, 32246.81, 0.00056916923, 9.999898, 9.9998255 
4.5001876e+1, 1.5517044e+2, -1424187.9, -1444676.3, -60913.57, 0.08233936, 0.31223747, -1372663.0, 46697.137, 0.00014812649, 10.000023, 9.999803 
4.500057e+1, 1.6517042e+2, -1323667.5, -1378781.8, 26419.82, 0.023930768, 0.35055935, -1313048.6, 8310.226, 0.000013959289, 10.000192, 9.999495 
4.4999814e+1, 1.751697e+2, -1198611.0, -1278718.0, 15244.888, -0.06022688, 0.30125678, -1195807.9, 27555.496, 0.000000037538413, 10.000422, 9.999399 
4.5000225e+1, 1.8516853e+2, -1091528.0, -1244423.0, 5267.6465, 0.0021915254, 0.28318593, -1091346.8, 34027.44, 0.0, 10.00078, 9.998787 
4.500159e+1, 1.9516695e+2, -945701.6, -1130128.9, -18316.053, 0.18940672, 0.2145848, -943900.2, 83490.24, 0.0, 10.001133, 9.998731 
4.5002043e+1, 2.0516637e+2, -846547.94, -897715.9, 87808.984, 0.14014924, 0.22957738, -780671.75, 148722.86, 0.0, 10.0005665, 9.999925 
4.500164e+1, 2.1516645e+2, -975036.4, -917384.56, 58951.684, -0.12733251, 0.21143875, -880588.56, -49198.367, 0.0, 9.999046, 9.999848 
4.5001754e+1, 2.2516623e+2, -905044.0, -888149.06, -60724.516, -0.1574239, 0.23762183, -835287.25, -101896.61, 0.0, 9.999106, 9.999341 
4.5002377e+1, 2.3516561e+2, -594077.75, -699788.56, -69888.12, 0.037641052, 0.21187204, -559308.7, 76088.44, 0.0, 10.000617, 9.99924 
4.5002076e+1, 2.4516451e+2, -505524.1, -698739.8, -10631.659, 0.08706057, 0.22787823, -504940.84, 32467.691, 0.0, 10.000959, 9.998397 
4.5000854e+1, 2.5516263e+2, -521077.25, -668261.1, -17162.994, -0.008746614, 0.16515547, -519102.4, -79674.16, 0.0, 10.000213, 9.998301 
4.4999793e+1, 2.6516157e+2, -408501.3, -513771.72, -39874.71, -0.040720724, 0.21483749, -395102.75, -53663.184, 0.000000013083459, 10.000127, 9.998717 
4.4998986e+1, 2.7516127e+2, -219845.5, -384466.1, -67605.086, 0.00065660424, 0.2809609, -195640.86, 47803.063, 0.0000010541644, 10.000783, 9.99863 
4.4998944e+1, 2.8516033e+2, -103281.12, -252690.45, -10406.099, 0.027326927, 0.32025585, -102559.836, 42893.41, 0.000008106713, 10.000822, 9.99884 
4.499948e+1, 2.951585e+2, -90194.43, -206711.22, -52964.742, 0.036145426, 0.21704768, -69717.164, -22246.752, 0.000037622078, 10.000267, 9.9987545 
4.4999614e+1, 3.0515876e+2, -42346.64, -109754.53, -93294.97, 0.05225637, 0.35197303, 23145.725, 23145.725, 0.00016443121, 10.000062, 9.999186 
4.499831e+1, 3.1515643e+2, -64278.316, -178047.5, -93231.55, -0.019644419, 0.15943381, -11947.624, -11947.624, 0.00047154687, 10.000078, 9.9987135 
5.5002546e+1, 1.2516932e+2, -1678894.5, -1672587.9, -45315.484, -0.017774835, 0.2567961, -1630316.1, 83053.945, 0.0021078985, 10.000055, 10.000236 
5.500195e+1, 1.351701e+2, -1641199.6, -1673261.6, 6685.7476, -0.13018312, 0.33202475, -1639861.4, -24495.254, 0.0012334009, 10.000008, 9.999582 
5.50017e+1, 1.4517094e+2, -1497991.0, -1463797.6, -75478.086, -0.12928942, 0.42560196, -1403504.1, 113854.16, 0.00052778376, 9.99989, 10.000403 
5.5002177e+1, 1.5517108e+2, -1388004.8, -1370876.6, -40592.008, 0.06422306, 0.3614193, -1337955.1, 81399.29, 0.00013278752, 10.00002, 10.000313 
5.500181e+1, 1.6517101e+2, -1333141.4, -1378078.8, 19438.87, 0.087392956, 0.3691573, -1325899.5, -4547.218, 0.0000106646075, 10.000109, 9.999534 
5.5001026e+1, 1.7517017e+2, -1197954.1, -1266450.6, 38811.35, -0.022593476, 0.29724276, -1180440.8, 42916.94, 0.000000007551507, 10.00038, 9.9994955 
5.500085e+1, 1.8516913e+2, -1125784.4, -1293456.4, 1693.9767, -0.05035087, 0.2985002, -1125767.3, -399.8054, 0.0, 10.000682, 9.998501 
5.5001086e+1, 1.9516778e+2, -978284.6, -1176804.3, 6849.364, -0.012575675, 0.28518683, -978048.6, 49333.695, 0.0, 10.001044, 9.998453 
5.500173e+1, 2.0516695e+2, -890054.6, -948194.25, 17770.467, 0.020037036, 0.29976094, -885053.3, 44336.453, 0.0, 10.000406, 9.999651 
5.5002755e+1, 2.151663e+2, -1014236.75, -965991.75, 17866.87, 0.044632256, 0.24110824, -960095.56, -128702.664, 0.0, 9.998911, 9.999578 
5.500266e+1, 2.2516547e+2, -913792.3, -875357.0, -16535.896, -0.011294535, 0.20885155, -869222.06, -135823.03, 0.0, 9.998975, 9.999492 
5.50016e+1, 2.3516424e+2, -603837.06, -689626.5, 1424.6722, -0.1351973, 0.10860583, -603813.44, 31596.58, 0.0, 10.000484, 9.999374 
5.5001324e+1, 2.4516374e+2, -507834.5, -678774.9, -49883.76, -0.11917839, 0.16891342, -494342.38, 43072.945, 0.0, 10.000859, 9.998579 
5.500189e+1, 2.5516367e+2, -533204.8, -647605.2, -30096.191, 0.035245772, 0.2712005, -525770.3, -86352.78, 0.0, 10.000033, 9.998518 
5.500091e+1, 2.651623e+2, -439382.6, -570539.8, -29817.781, 0.019734208, 0.2912719, -432921.94, -91489.664, 0.000000016276152, 10.000082, 9.998358 
5.49986e+1, 2.7515945e+2, -259489.63, -447901.28, -27902.926, -0.15525086, 0.14195105, -255444.19, -11983.784, 0.00000094951764, 10.000689, 9.998249 
5.499813e+1, 2.851578e+2, -159256.73, -356970.44, -45492.777, -0.17308536, 0.16499709, -149291.39, -3814.1187, 0.0000068871877, 10.000777, 9.998139 
5.4999316e+1, 2.9515696e+2, -150822.78, -310477.6, -57595.594, -0.053074416, 0.22853388, -132214.1, -84727.03, 0.00003070153, 10.000167, 9.99809 
5.499981e+1, 3.0515566e+2, -58608.668, -127450.87, -100784.33, 0.030571632, 0.24794728, 13470.435, 13470.435, 0.00013855331, 10.000004, 9.999095 
5.499923e+1, 3.1515536e+2, -75884.87, -170762.17, -45873.77, -0.010805192, 0.27685633, -57332.395, -57332.395, 0.0004144919, 9.999955, 9.99882 
6.500299e+1, 1.251696e+2, -1779739.9, -1704723.3, 27846.383, 0.0843359, 0.29615587, -1695516.5, 17851.256, 0.0019834668, 9.999255, 10.00042 
6.500192e+1, 1.351696e+2, -1694799.5, -1691678.6, 37881.3, -0.096351475, 0.2904357, -1655325.6, -39955.176, 0.001149572, 9.999581, 9.999678 
6.500151e+1, 1.4517076e+2, -1519106.1, -1483296.6, -20301.521, -0.11888292, 0.41540113, -1474132.4, 43226.477, 0.00048384682, 9.999804, 10.000305 
6.500204e+1, 1.5517037e+2, -1370659.4, -1369261.3, -74800.11, 0.054653153, 0.3089004, -1295157.0, 124202.85, 0.00011744106, 10.000197, 10.000221 
6.500203e+1, 1.6517015e+2, -1278532.1, -1358512.0, -10830.977, 0.09156679, 0.30947688, -1277091.3, 44267.926, 0.000008467286, 10.000504, 9.99948 
6.5001726e+1, 1.7516953e+2, -1177424.9, -1267770.8, -31535.059, 0.010082666, 0.26571524, -1167506.5, 55856.438, 0.000000004638606, 10.000565, 9.999402 
6.5001726e+1, 1.8516864e+2, -1138751.0, -1289368.6, -33701.566, -0.01343133, 0.28473648, -1131554.0, -6182.4634, 0.0, 10.00056, 9.998578 
6.500189e+1, 1.9516738e+2, -1060695.4, -1209737.9, -34468.133, 0.004530225, 0.2694531, -1053110.1, -25724.234, 0.0, 10.000452, 9.99851 
6.500227e+1, 2.0516656e+2, -912818.25, -980526.44, -16756.846, 0.047489736, 0.2959927, -908898.1, 20495.684, 0.0, 10.000334, 9.999463 
6.5002817e+1, 2.1516603e+2, -860610.44, -910144.5, -33234.12, 0.11252669, 0.26545206, -843929.75, -12532.653, 0.0, 10.000049, 9.999407 
6.500265e+1, 2.2516517e+2, -783528.94, -823265.44, 13617.729, 0.05422902, 0.24482547, -779310.06, -45905.85, 0.0, 9.999901, 9.999407 
6.500189e+1, 2.3516388e+2, -698446.2, -740538.44, -14412.147, -0.112961926, 0.14077799, -693984.5, -58567.973, 0.0, 9.999846, 9.9993305 
6.500176e+1, 2.4516346e+2, -603350.3, -685431.75, -72826.7, -0.10755341, 0.19072925, -560796.4, -23375.803, 0.0, 10.000013, 9.998965 
6.500232e+1, 2.5516364e+2, -456709.72, -570095.3, -66639.7, 0.07046445, 0.28321525, -425910.1, 13508.669, 0.0, 10.000361, 9.998918 
6.5001434e+1, 2.6516232e+2, -395593.1, -550635.8, -1072.636, 0.05841901, 0.29370907, -395585.66, -54153.625, 0.00000000394634, 10.000391, 9.998351 
6.499925e+1, 2.7515945e+2, -323281.97, -473311.63, -457.02652, -0.12528308, 0.14217682, -323280.6, -79820.27, 0.0000007712445, 10.000247, 9.998278 
6.4998704e+1, 2.851578e+2, -227400.88, -417720.75, 32979.14, -0.16345787, 0.1742111, -221848.17, -76370.8, 0.000006042053, 10.000429, 9.9978895 
6.4999753e+1, 2.9515693e+2, -68918.36, -286612.3, 23022.666, -0.044456147, 0.26049834, -66510.19, -19022.674, 0.000026519589, 10.000816, 9.9979315 
6.500002e+1, 3.0515492e+2, 35587.367, -86486.82, 23524.121, 0.033370715, 0.20721358, 39963.66, 39963.66, 0.00012024143, 10.000661, 9.999067 
6.4999914e+1, 3.151555e+2, -88472.055, -160892.95, 32148.734, 0.09107364, 0.34570083, -76260.01, -76260.01, 0.00036921015, 9.999771, 9.999003 
7.500119e+1, 1.251703e+2, -1734597.9, -1615690.3, -19492.115, -0.109390326, 0.33716726, -1612576.6, 100783.484, 0.0018629195, 9.999284, 10.001012 
7.500264e+1, 1.3516928e+2, -1673459.4, -1656702.8, 56492.203, -0.028582973, 0.20111968, -1607971.0, 7398.5366, 0.0010666472, 9.999621, 9.999898 
7.5002253e+1, 1.4516997e+2, -1583757.3, -1603175.0, -22935.824, -0.072474964, 0.30902463, -1568560.0, -51198.414, 0.0004391749, 9.999744, 9.999511 
7.5001013e+1, 1.5516816e+2, -1423172.1, -1488062.5, -42373.02, -0.11368633, 0.1424727, -1402249.1, 17128.691, 0.00010226521, 10.000227, 9.999399 
7.500074e+1, 1.6516772e+2, -1300707.3, -1387317.6, -25201.281, -0.1263777, 0.16678263, -1293908.1, 27472.764, 0.000007138289, 10.000436, 9.999312 
7.5001466e+1, 1.7516778e+2, -1197023.0, -1297921.8, -16582.277, -0.11174387, 0.20796476, -1194367.6, 29011.313, 0.00000003688298, 10.000518, 9.999218 
7.500237e+1, 1.8516704e+2, -1125633.5, -1244119.5, -51716.082, -0.04036441, 0.23319063, -1106236.3, 19150.27, 0.0, 10.000474, 9.998937 
7.500352e+1, 1.9516551e+2, -1040479.25, -1157566.8, -24758.305, 0.08533124, 0.15494171, -1035459.25, -8056.1255, 0.0, 10.000405, 9.998895 
7.500321e+1, 2.0516515e+2, -933612.0, -997619.8, -39934.31, 0.07502961, 0.20897909, -914439.75, 14967.795, 0.0, 10.000223, 9.999397 
7.500138e+1, 2.1516557e+2, -882688.2, -929942.94, -30102.264, -0.0712126, 0.27739525, -868048.1, -36644.746, 0.0, 9.999929, 9.999331 
7.500126e+1, 2.2516538e+2, -823448.0, -875032.0, -720.37585, -0.10651243, 0.34070402, -823437.94, -90031.72, 0.0, 9.999769, 9.999114 
7.500281e+1, 2.3516443e+2, -740068.4, -794588.94, 110.636955, -0.039509572, 0.3013288, -740068.2, -104650.79, 0.0, 9.9997, 9.999034 
7.5002897e+1, 2.4516362e+2, -576006.0, -606070.75, -72664.62, -0.025145153, 0.29605252, -516835.16, 20589.37, 0.0, 9.999917, 9.999552 
7.500171e+1, 2.5516263e+2, -438438.34, -501055.0, -39247.594, -0.061392948, 0.20763321, -419541.25, 19889.701, 0.0, 10.000221, 9.999459 
7.50008e+1, 2.6516187e+2, -388341.66, -508770.2, -19546.324, -0.07572337, 0.23539934, -385248.63, -43811.633, 0.00000000015133415, 10.000289, 9.998683 
7.5000376e+1, 2.7516133e+2, -321319.03, -437174.63, 12928.791, -0.07589504, 0.2808799, -319893.78, -76450.57, 0.00000065427645, 10.000114, 9.998587 
7.500028e+1, 2.8516033e+2, -211282.73, -378933.6, 34893.234, -0.0857247, 0.3512115, -204310.36, -58857.133, 0.0000058927376, 10.000399, 9.998175 
7.500033e+1, 2.9515848e+2, -59896.49, -247144.11, 54722.902, -0.1127081, 0.308533, -45076.7, 2395.0796, 0.000025865007, 10.000709, 9.998265 
7.4999696e+1, 3.0515632e+2, 21726.898, -94644.56, -12437.173, -0.10088364, 0.22442774, 23041.273, 23041.273, 0.00011203884, 10.000586, 9.999035 
7.4999356e+1, 3.1515667e+2, -86894.195, -119729.03, 46427.855, -0.013454761, 0.3426217, -54066.535, -54066.535, 0.00034091447, 9.999615, 9.9993515 
8.500066e+1, 1.2517048e+2, -1842375.6, -1661273.8, 30043.244, -0.037597068, 0.33389777, -1656419.9, 56937.746, 0.0017451695, 9.998539, 10.001047 
8.500282e+1, 1.3516915e+2, -1717945.1, -1699896.9, 9961.552, 0.05375539, 0.19250908, -1695479.8, -80109.55, 0.0009891815, 9.999435, 9.99968 
8.5002726e+1, 1.4516981e+2, -1555344.4, -1610952.8, -30681.682, 0.001291861, 0.3175133, -1541742.9, -24379.787, 0.000399723, 10.000006, 9.999345 
8.500161e+1, 1.5516785e+2, -1415208.9, -1504210.8, -34343.72, -0.07168773, 0.15087374, -1403497.5, 15884.382, 0.00008899464, 10.000362, 9.999226 
8.5001373e+1, 1.6516726e+2, -1291107.9, -1392817.5, 25366.678, -0.10222527, 0.17597595, -1285132.4, 36254.55, 0.000006071428, 10.000554, 9.999214 
8.5002065e+1, 1.7516717e+2, -1210772.4, -1309166.1, 8173.346, -0.0887415, 0.21403193, -1210098.1, 13288.668, 0.000000076650345, 10.000459, 9.999162 
8.5002875e+1, 1.8516652e+2, -1134909.0, -1226529.4, -6890.7373, -0.018126799, 0.24014097, -1134393.6, -9000.346, 0.0, 10.000309, 9.999142 
8.500389e+1, 1.9516535e+2, -1087564.6, -1158545.8, -19359.264, 0.11180579, 0.17826755, -1082628.0, -55222.05, 0.0, 9.999984, 9.999092 
8.500339e+1, 2.0516504e+2, -961940.44, -999607.3, -4748.7036, 0.09098205, 0.22330172, -961350.94, -31941.605, 0.0, 9.999985, 9.999499 
8.5001314e+1, 2.1516529e+2, -829259.8, -894821.06, -14974.221, -0.07794822, 0.26778302, -826001.6, 5405.229, 0.0, 10.00026, 9.999416 
8.5001314e+1, 2.251653e+2, -746814.6, -821341.56, 53491.6, -0.09263134, 0.34209308, -718886.7, 14521.007, 0.0, 10.0002365, 9.999249 
8.500335e+1, 2.3516503e+2, -705665.3, -759865.2, 58266.645, 0.04493406, 0.35692143, -668504.8, -33092.156, 0.0, 9.999878, 9.999177 
8.500344e+1, 2.4516419e+2, -594727.3, -610715.1, 23781.143, 0.052813638, 0.3403217, -577632.44, -40212.504, 0.0, 9.999767, 9.99958 
8.5001737e+1, 2.5516263e+2, -478283.94, -513093.88, -12879.364, -0.054453574, 0.19195648, -474036.88, -34605.43, 0.0, 9.999934, 9.999499 
8.500101e+1, 2.65162e+2, -364330.34, -491813.94, 7718.6733, -0.078273535, 0.22340226, -363864.7, -22428.645, 0.0000000019213902, 10.000387, 9.998768 
8.500145e+1, 2.7516207e+2, -200763.78, -370814.38, -7707.785, -0.0073293936, 0.3210676, -200415.14, 43020.88, 0.0000006294421, 10.00087, 9.998694 
8.500154e+1, 2.8516096e+2, -164237.39, -332933.88, 20209.354, 0.000031072654, 0.36109105, -161850.16, -16403.447, 0.0000062489003, 10.000617, 9.998385 
8.500118e+1, 2.9515842e+2, -151029.75, -263453.06, 5931.378, -0.046931334, 0.22933127, -150717.69, -103246.97, 0.000027811611, 9.999966, 9.998507 
8.500021e+1, 3.0515724e+2, -28715.2, -138448.19, -34063.86, -0.07946788, 0.24641965, -19000.9, -19000.9, 0.00011222166, 10.000299, 9.998887 
8.5000145e+1, 3.1515637e+2, 118536.21, 5336.261, -35804.145, 0.057368767, 0.24923763, 128910.07, 128910.07, 0.00032900518, 10.000913, 9.999578 
9.500037e+1, 1.2517032e+2, -1891094.5, -1750498.4, 12302.168, -0.00028743022, 0.3008246, -1749430.1, -36071.535, 0.0016362383, 9.998487, 10.000457 
9.500183e+1, 1.3516916e+2, -1757344.8, -1807460.9, 56618.105, -0.03216769, 0.25298584, -1720487.5, -105114.44, 0.0009229167, 9.999533, 9.998898 
9.500247e+1, 1.451703e+2, -1524141.0, -1540313.5, -32222.215, -0.068267025, 0.43701142, -1499005.9, 18357.203, 0.00036888671, 9.999985, 9.999837 
9.500339e+1, 1.5516944e+2, -1384288.9, -1441984.8, -4591.344, 0.027518481, 0.3379107, -1383925.9, 35445.355, 0.00007923838, 10.000368, 9.999651 
9.500356e+1, 1.6516885e+2, -1302126.1, -1402762.5, 9321.232, 0.024746034, 0.34400207, -1301270.1, 20106.238, 0.0000051224774, 10.000493, 9.999178 
9.500302e+1, 1.751678e+2, -1212467.5, -1313242.1, 20981.23, -0.07947663, 0.28461286, -1208273.8, 15111.668, 0.00000007826353, 10.000455, 9.999138 
9.500272e+1, 1.8516715e+2, -1145215.9, -1231331.3, -32739.033, -0.09763222, 0.31257254, -1134182.9, -8791.589, 0.0, 10.000234, 9.999144 
9.500256e+1, 1.9516687e+2, -1098645.5, -1164160.4, -16014.371, -0.056260265, 0.3355915, -1094940.5, -67546.26, 0.0, 9.999904, 9.999091 
9.500237e+1, 2.0516628e+2, -968146.7, -985881.56, -8200.048, -0.040927265, 0.34304902, -964936.4, -35537.344, 0.0, 9.999862, 9.999656 
9.500212e+1, 2.1516503e+2, -835350.1, -880125.6, 11183.658, -0.057057086, 0.22301924, -832712.2, -1303.4415, 0.0, 10.000136, 9.99958 
9.5002306e+1, 2.2516485e+2, -728567.44, -753840.3, 28489.926, -0.05039685, 0.23983209, -710037.3, 23372.535, 0.0, 10.000109, 9.999772 
9.500299e+1, 2.351654e+2, -687917.9, -699227.56, 57809.32, -0.013781051, 0.28529605, -635487.5, -82.76566, 0.0, 9.9997635, 9.999651 
9.500289e+1, 2.4516499e+2, -645454.9, -691440.25, 16487.645, -0.01126021, 0.31408602, -640154.3, -102746.016, 0.0, 9.999659, 9.999081 
9.500204e+1, 2.551635e+2, -524993.5, -593744.75, 12361.494, -0.055679794, 0.21848299, -522838.44, -83416.375, 0.0, 9.999847, 9.998994 
9.5001686e+1, 2.651624e+2, -384220.9, -509579.63, 12325.51, -0.08132697, 0.23387079, -383020.53, -41588.55, 0.0000000017799018, 10.0003, 9.998679 
9.500195e+1, 2.7516153e+2, -227463.4, -394549.03, 22567.627, -0.08044991, 0.24405682, -224468.95, 18971.504, 0.0000005677249, 10.000738, 9.998591 
9.500198e+1, 2.8515965e+2, -165678.08, -323015.25, -20358.537, -0.053726915, 0.20807931, -163086.48, -17628.666, 0.0000064583187, 10.000562, 9.998477 
9.50018e+1, 2.951567e+2, -167628.48, -269038.5, 7897.566, -0.023533363, 0.021466777, -167017.13, -119532.07, 0.000029725905, 9.999837, 9.998529 
9.5001113e+1, 3.0515784e+2, -46935.332, -161898.38, -14616.817, -0.05158179, 0.2739912, -45106.004, -45106.004, 0.0001135958, 10.000243, 9.998744 
9.500127e+1, 3.1515485e+2, 97296.77, -6344.8037, 22630.846, 0.003619303, 0.07679975, 102022.87, 102022.87, 0.00032168903, 10.000773, 9.999563 
1.050007e+2, 1.2516963e+2, -1673795.6, -1628692.8, -22027.053, 0.13444704, 0.31765538, -1619720.3, 93648.57, 0.0015480418, 9.999877, 10.000635 
1.050012e+2, 1.3516876e+2, -1685928.3, -1748840.6, 44779.2, -0.052886948, 0.28269032, -1662660.9, -47281.785, 0.00087241904, 9.999912, 9.999122 
1.0500212e+2, 1.4517e+2, -1527963.8, -1529138.1, 4111.6855, -0.08816909, 0.45695528, -1524397.5, -7029.248, 0.0003471946, 9.999922, 9.999933 
1.0500416e+2, 1.5516968e+2, -1435514.8, -1467842.6, -32463.791, 0.09748305, 0.4109456, -1415413.4, 3958.979, 0.000073446034, 10.000022, 9.999642 
1.0500462e+2, 1.6516931e+2, -1322690.5, -1391869.9, 5607.0366, 0.10338844, 0.43062413, -1322239.0, -863.1805, 0.000004420773, 10.00027, 9.999354 
1.0500382e+2, 1.7516829e+2, -1174007.4, -1279369.9, 2084.8613, -0.046004854, 0.35779107, -1173966.1, 49418.273, 0.000000050630582, 10.000658, 9.999271 
1.0500311e+2, 1.8516764e+2, -1054761.6, -1168204.8, -28865.668, -0.102201775, 0.36877114, -1047839.1, 77550.24, 0.0, 10.000783, 9.999305 
1.050024e+2, 1.9516729e+2, -1007149.9, -1099570.9, -34412.664, -0.080049895, 0.36874726, -995744.06, 31646.96, 0.0, 10.000462, 9.999254 
1.0500238e+2, 2.0516653e+2, -920175.2, -957357.5, 13577.505, -0.032373127, 0.35134253, -915745.06, 13651.395, 0.0, 10.000173, 9.9997015 
1.05003044e+2, 2.1516512e+2, -882773.7, -895229.8, -5573.4155, 0.048779033, 0.20947385, -880644.0, -49236.02, 0.0, 9.999781, 9.999647 
1.05003156e+2, 2.2516488e+2, -777637.6, -756538.25, 20167.945, 0.05408489, 0.20780802, -744327.4, -10918.399, 0.0, 9.999676, 9.999977 
1.0500286e+2, 2.3516557e+2, -663653.8, -663667.25, -2099.4934, 0.00233014, 0.25049496, -661561.06, -26159.775, 0.0, 9.999836, 9.999867 
1.05002716e+2, 2.4516535e+2, -589740.75, -682998.6, 327.969, -0.010085882, 0.29598173, -589739.6, -52336.46, 0.0, 10.000124, 9.998918 
1.0500284e+2, 2.5516403e+2, -446542.47, -570998.1, -5766.763, 0.017204314, 0.23697473, -446275.84, -6859.621, 0.0, 10.000468, 9.998847 
1.05002716e+2, 2.651629e+2, -387557.75, -509847.7, 22924.85, 0.0010771983, 0.25182563, -383401.44, -41974.08, 0.00000000014537505, 10.000296, 9.998672 
1.0500254e+2, 2.7516165e+2, -379667.4, -468351.16, 9126.656, -0.03364972, 0.23071478, -378737.9, -135298.97, 0.00000042821608, 9.999718, 9.998568 
1.050026e+2, 2.8515965e+2, -223502.95, -332815.97, 10899.105, -0.014736021, 0.17224337, -222426.84, -76969.445, 0.0000059800022, 10.000065, 9.998661 
1.05002895e+2, 2.9515678e+2, 33979.055, -158826.69, 11561.131, 0.048305556, -0.022091849, 34669.816, 82152.75, 0.000029321069, 10.00115, 9.998664 
1.05002426e+2, 3.05159e+2, 73290.12, -136192.95, 8483.012, 0.019399986, 0.34563076, 73633.07, 73633.07, 0.000109980174, 10.001214, 9.998451 
1.0500217e+2, 3.1515476e+2, 16318.918, -57688.113, -24709.42, 0.057915475, 0.050658032, 23810.521, 23810.521, 0.0003078243, 10.000267, 9.999457 
1.1500068e+2, 1.2516823e+2, -1603238.6, -1497594.8, -75595.43, 0.06077929, 0.3789897, -1458195.1, 255195.11, 0.0014882531, 9.99993, 10.001516 
1.1500048e+2, 1.3516785e+2, -1594838.1, -1570416.6, 55173.72, -0.15722953, 0.27461988, -1526118.6, 89271.04, 0.000840427, 9.999951, 10.000327 
1.1500129e+2, 1.4516877e+2, -1563785.0, -1584633.4, -9618.181, -0.20557939, 0.3719918, -1560025.6, -42645.473, 0.00033535642, 9.99984, 9.999592 
1.1500322e+2, 1.5516849e+2, -1459862.4, -1515666.6, -9948.254, -0.039099988, 0.36425132, -1458141.9, -38756.04, 0.0000716502, 10.000022, 9.999308 
1.150041e+2, 1.6516863e+2, -1303803.6, -1347699.9, 6863.477, -0.015366023, 0.43620735, -1302755.5, 18629.883, 0.0000041980056, 10.000239, 9.999679 
1.1500413e+2, 1.7516857e+2, -1150623.6, -1226938.8, 30402.53, -0.11902803, 0.42467543, -1139992.8, 83391.74, 0.000000024917117, 10.000641, 9.9996395 
1.1500375e+2, 1.8516791e+2, -1055751.3, -1139346.6, -55050.043, -0.147261, 0.4043489, -1028429.06, 96958.92, 0.0, 10.000654, 9.999568 
1.150029e+2, 1.9516651e+2, -999338.4, -1065718.6, -31747.436, -0.11594869, 0.27401716, -986599.4, 40797.633, 0.0, 10.000388, 9.999523 
1.1500291e+2, 2.051658e+2, -944679.5, -980796.94, -16816.355, -0.028921822, 0.25200102, -938062.2, -8660.303, 0.0, 10.000051, 9.999601 
1.1500364e+2, 2.151654e+2, -908978.06, -919692.94, -8242.328, 0.0991613, 0.21892294, -904505.0, -73099.13, 0.0, 9.999646, 9.999546 
1.15003474e+2, 2.2516538e+2, -807026.5, -783624.25, 11997.267, 0.09035963, 0.25126365, -778566.75, -45161.25, 0.0, 9.999536, 9.999855 
1.150025e+2, 2.3516545e+2, -690739.94, -689050.3, 19479.813, -0.049561013, 0.2420262, -670397.0, -34994.06, 0.0, 9.999696, 9.999763 
1.15002535e+2, 2.4516512e+2, -596925.75, -667091.7, -483.314, -0.072239175, 0.27540252, -596922.44, -59517.184, 0.0, 10.000002, 9.999082 
1.1500361e+2, 2.551642e+2, -455334.66, -556540.4, 17948.906, 0.014484876, 0.24071121, -452245.7, -12831.446, 0.0, 10.000332, 9.99901 
1.1500367e+2, 2.651634e+2, -393195.94, -507027.34, -11282.765, 0.036432076, 0.27872226, -392088.4, -50666.1, 0.0, 10.000229, 9.99873 
1.15002826e+2, 2.7516246e+2, -391623.16, -468386.75, 7109.1836, -0.0126363775, 0.27914, -390970.3, -147538.42, 0.0000002594802, 9.999599, 9.998633 
1.1500292e+2, 2.8516084e+2, -217591.2, -298957.13, 40308.164, -0.021781797, 0.24638978, -201004.19, -55557.848, 0.000005001763, 9.999982, 9.998933 
1.15003966e+2, 2.9515865e+2, 20533.807, -149974.36, 65796.54, 0.000045621808, 0.09664841, 42971.152, 90436.36, 0.000026475647, 10.000998, 9.9988 
1.1500369e+2, 3.051607e+2, 35154.582, -194611.84, -29976.238, -0.0076195966, 0.46862203, 39001.008, 39001.008, 0.000100772006, 10.001146, 9.9980755 
1.1500195e+2, 3.1515613e+2, -12189.44, -83934.68, -23293.484, -0.066549, 0.16233964, -5290.2085, -5290.2085, 0.00028477798, 10.000136, 9.999337 
1.2500022e+2, 1.2516828e+2, -1732984.4, -1600275.1, 107521.836, 0.07183042, 0.39185503, -1540281.5, 173108.1, 0.0014562852, 9.999237, 10.001132 
1.2500094e+2, 1.3516808e+2, -1629936.4, -1597635.5, 92459.81, -0.08055115, 0.31662378, -1519926.1, 95461.984, 0.0008261713, 9.999757, 10.000235 
1.2500177e+2, 1.4516847e+2, -1549509.8, -1592685.9, 26772.025, -0.13402946, 0.37173277, -1536706.3, -19322.342, 0.00033346904, 10.000001, 9.999457 
1.2500282e+2, 1.5516777e+2, -1429082.3, -1516555.5, 3830.1863, -0.086645454, 0.335446, -1428914.9, -9522.0, 0.00007407354, 10.000299, 9.999164 
1.2500376e+2, 1.6516784e+2, -1317969.9, -1343903.1, 31882.951, -0.05792292, 0.40041676, -1296517.8, 24875.197, 0.000004716059, 10.000082, 9.99979 
1.2500468e+2, 1.7516814e+2, -1348582.8, -1313067.4, 10862.134, -0.046452478, 0.41665748, -1310008.8, -86619.71, 0.000000012759114, 9.999221, 9.999746 
1.2500459e+2, 1.851676e+2, -1247846.1, -1182797.6, -31305.104, -0.040865183, 0.38202247, -1170179.4, -44788.77, 0.0, 9.999119, 10.000004 
1.2500355e+2, 1.9516625e+2, -1075071.9, -1057415.8, -25929.541, -0.04351934, 0.21261436, -1038852.6, -11454.905, 0.0, 9.999667, 9.9999275 
1.250033e+2, 2.0516588e+2, -966418.9, -998271.0, 8673.1455, 0.019479971, 0.20839682, -964210.4, -34810.973, 0.0, 9.999938, 9.999529 
1.2500374e+2, 2.151662e+2, -883621.75, -914970.44, -9593.527, 0.14324147, 0.25395918, -880918.94, -49520.64, 0.0, 9.999859, 9.99947 
1.2500346e+2, 2.2516616e+2, -753863.9, -773314.06, 55236.65, 0.12365861, 0.29612482, -707502.75, 25895.508, 0.0, 9.999963, 9.999712 
1.250026e+2, 2.3516566e+2, -621998.4, -666994.2, 31890.39, -0.025358433, 0.24230829, -605468.7, 29931.738, 0.0, 10.000234, 9.999639 
1.2500271e+2, 2.4516499e+2, -558347.8, -647557.94, 27291.566, -0.05762029, 0.24475113, -550661.0, -13255.418, 0.0, 10.000257, 9.999095 
1.250039e+2, 2.5516394e+2, -493672.16, -577777.4, 6466.834, 0.034229793, 0.19774671, -493177.8, -53762.07, 0.0, 10.000065, 9.9990015 
1.2500428e+2, 2.651633e+2, -364541.97, -487849.38, 124.257645, 0.07438689, 0.25061062, -364541.84, -23119.604, 0.0, 10.000407, 9.998766 
1.2500398e+2, 2.7516276e+2, -147601.88, -343145.34, -13441.248, 0.07085389, 0.28830636, -146682.28, 96745.7, 0.00000012209664, 10.001266, 9.998676 
1.25004e+2, 2.8516135e+2, -78187.31, -247962.14, 25160.025, 0.04623148, 0.28120032, -74537.164, 70903.81, 0.000003888246, 10.001022, 9.998776 
1.250045e+2, 2.9515925e+2, -173631.19, -255959.94, -10396.654, 0.029752301, 0.15233828, -172338.58, -124878.78, 0.00002250982, 9.99973, 9.998674 
1.2500472e+2, 3.0516008e+2, -124428.96, -278555.6, -43720.957, 0.05095346, 0.4086271, -112890.49, -112890.49, 0.000088219014, 10.000031, 9.998066 
1.2500367e+2, 3.1515622e+2, 197033.97, 20227.83, -75317.945, 0.03801133, 0.17346142, 224768.3, 224768.3, 0.00025421134, 10.0015545, 9.999377 
1.3499847e+2, 1.251696e+2, -1861258.1, -1856397.4, 69402.36, -0.1046478, 0.3386609, -1789382.9, -76014.25, 0.0014504807, 9.999193, 9.999394 
1.35002e+2, 1.3516949e+2, -1716336.8, -1783749.0, 122838.67, 0.010478871, 0.40449584, -1622663.8, -7289.3057, 0.0008289551, 9.999794, 9.998934 
1.3500306e+2, 1.4516927e+2, -1548630.6, -1598792.8, 18790.363, -0.049576733, 0.46389213, -1542372.6, -24994.564, 0.0003411424, 10.000021, 9.999412 
1.3500254e+2, 1.551675e+2, -1435232.9, -1524430.8, 28855.395, -0.1822957, 0.3248402, -1426712.1, -7318.492, 0.00008049032, 10.000269, 9.999129 
1.3500312e+2, 1.651669e+2, -1342509.1, -1361432.5, -16453.385, -0.16158713, 0.32797116, -1332990.9, -11592.1045, 0.0000062176173, 9.999951, 9.999726 
1.3500483e+2, 1.7516696e+2, -1362437.6, -1326813.6, -3312.6006, 0.01062782, 0.32869086, -1326508.3, -103110.25, 0.000000017143847, 9.999172, 9.999668 
1.3500503e+2, 1.8516685e+2, -1216135.6, -1105476.6, -23768.25, 0.052793913, 0.31099972, -1100587.5, 24808.3, 0.0, 9.999053, 10.000571 
1.3500378e+2, 1.9516647e+2, -1045322.44, -979819.44, 10674.408, -0.027670749, 0.17887086, -978123.8, 49269.46, 0.0, 9.999592, 10.000498 
1.3500308e+2, 2.0516676e+2, -988250.7, -1017733.56, -10186.658, -0.026953254, 0.21796678, -985073.5, -55684.48, 0.0, 9.999821, 9.999456 
1.3500282e+2, 2.1516743e+2, -909716.0, -934696.75, 3982.6099, 0.03195167, 0.30444744, -909096.44, -77710.805, 0.0, 9.999707, 9.99941 
1.3500269e+2, 2.2516724e+2, -785203.56, -811690.8, 50809.234, 0.01645085, 0.34654284, -745940.3, -12553.455, 0.0, 9.999838, 9.999511 
1.3500261e+2, 2.351661e+2, -654416.44, -704435.7, 56718.637, -0.08031885, 0.24360637, -617438.25, 17956.1, 0.0, 10.000096, 9.999449 
1.3500282e+2, 2.451648e+2, -580995.0, -672967.56, 6831.8477, -0.10496753, 0.1970999, -580490.25, -43085.023, 0.0, 10.00016, 9.998966 
1.350033e+2, 2.5516316e+2, -522270.2, -605660.56, 16805.723, -0.067242324, 0.10357505, -519010.72, -79589.76, 0.0, 9.9999275, 9.998875 
1.3500415e+2, 2.6516253e+2, -380806.28, -500644.8, 18553.625, -0.012658496, 0.16611676, -377999.53, -36571.99, 0.0, 10.000321, 9.998715 
1.3500544e+2, 2.751625e+2, -169561.4, -357264.78, 31698.742, 0.054992724, 0.25574708, -164352.77, 79075.766, 0.000000046518082, 10.001135, 9.998638 
1.3500537e+2, 2.8516105e+2, -117881.08, -324068.16, -37127.086, 0.046460688, 0.271274, -111399.54, 34043.145, 0.0000029362805, 10.00099, 9.998269 
1.3500404e+2, 2.951583e+2, -217500.56, -327492.78, -39542.965, -0.031951543, 0.12689073, -204760.28, -157291.27, 0.000019015239, 9.999633, 9.998235 
1.3500503e+2, 3.0515695e+2, -105943.32, -217689.83, 5023.465, 0.050323617, 0.16129532, -105717.945, -105717.945, 0.000075927965, 9.999952, 9.998512 
1.3500643e+2, 3.1515488e+2, 184791.03, 27271.385, 24293.387, 0.084084064, 0.07180466, 188452.56, 188452.56, 0.0002226974, 10.00142, 9.999489 
1.4499833e+2, 1.2516887e+2, -1713845.0, -1832563.5, -85407.15, -0.080383, 0.34426454, -1669195.1, 44180.125, 0.0014659849, 10.000426, 9.9989605 
1.450025e+2, 1.3516869e+2, -1623098.8, -1746047.0, 4994.03, 0.05862655, 0.41025746, -1622896.3, -7513.1953, 0.0008466132, 10.000475, 9.998855 
1.45004e+2, 1.4516863e+2, -1470723.0, -1533475.6, -9653.484, 0.030072264, 0.47792277, -1469271.5, 48113.117, 0.00035647568, 10.000427, 9.99967 
1.4500324e+2, 1.5516688e+2, -1396630.3, -1474013.6, -6611.407, -0.13192903, 0.31397352, -1396069.5, 23328.703, 0.00008921642, 10.00039, 9.999421 
1.4500342e+2, 1.6516633e+2, -1293754.3, -1305260.9, -19137.512, -0.12338263, 0.29172778, -1279523.9, 41877.777, 0.000008328298, 10.000147, 10.000013 
1.4500467e+2, 1.7516658e+2, -1267221.1, -1250175.8, -11177.154, 0.05922806, 0.28058273, -1244642.6, -21243.896, 0.0000000715251, 9.999687, 9.999945 
1.4500497e+2, 1.8516682e+2, -1125722.8, -1067993.6, 23918.121, 0.11868953, 0.2882418, -1059371.6, 66022.164, 0.0, 9.999704, 10.000526 
1.4500432e+2, 1.9516687e+2, -972973.75, -955195.0, -20238.14, 0.05197611, 0.20944688, -941980.0, 85408.664, 0.0, 10.000121, 10.000431 
1.450036e+2, 2.0516714e+2, -900734.0, -984553.8, -50870.17, 0.019374173, 0.25334916, -876733.25, 52652.242, 0.0, 10.00046, 9.999373 
1.4500275e+2, 2.1516742e+2, -778937.0, -881343.5, -70822.445, 0.01758699, 0.30863994, -742746.94, 88639.0, 0.0, 10.000651, 9.999317 
1.4500277e+2, 2.2516707e+2, -700694.3, -754787.1, 6116.724, 0.022662938, 0.33077434, -700011.25, 33377.38, 0.0, 10.0003605, 9.999652 
1.4500359e+2, 2.3516591e+2, -713038.1, -721619.3, 3962.3303, 0.038923446, 0.21619594, -711488.44, -76092.74, 0.0, 9.999643, 9.9995575 
1.4500389e+2, 2.4516474e+2, -615892.56, -675846.1, 29286.748, 0.009351458, 0.17334042, -603960.9, -66556.52, 0.0, 9.999858, 9.999096 
1.4500372e+2, 2.551634e+2, -359608.47, -510914.47, 28187.34, -0.058864985, 0.096629165, -354527.94, 84888.305, 0.0, 10.000979, 9.999018 
1.4500457e+2, 2.6516268e+2, -257627.0, -451413.47, 55268.918, -0.03655169, 0.14822318, -242972.25, 98451.07, 0.0, 10.0012, 9.998642 
1.450064e+2, 2.7516228e+2, -253700.25, -412204.1, 36529.117, 0.07652686, 0.21309535, -245686.81, -2258.659, 0.00000002138944, 10.000595, 9.998542 
1.4500657e+2, 2.8516075e+2, -181431.05, -380701.03, -8966.164, 0.09318233, 0.23586221, -181028.42, -35584.207, 0.0000023054517, 10.000657, 9.998041 
1.450052e+2, 2.9515824e+2, 31077.994, -219259.64, -26801.1, 0.043755434, 0.13566966, 33915.16, 81384.83, 0.000016570593, 10.0014, 9.998115 
1.4500639e+2, 3.0515647e+2, 118822.82, -77816.164, 79175.92, 0.13536683, 0.11473053, 146739.4, 146739.4, 0.0000664134, 10.001382, 9.998775 
1.4500766e+2, 3.1515548e+2, 44160.273, -21885.574, 33270.516, 0.13458182, 0.11958424, 58014.215, 58014.215, 0.0001967113, 10.000388, 9.999644 
1.54999e+2, 1.2516652e+2, -1646066.5, -1718323.9, -138217.03, -0.1374173, 0.44748607, -1539334.4, 174070.66, 0.0014879738, 10.000519, 9.999714 
1.5500198e+2, 1.3516572e+2, -1547829.4, -1593745.5, 13445.887, -0.07843684, 0.34919494, -1544181.6, 71231.805, 0.0008684092, 10.000483, 9.999907 
1.5500402e+2, 1.4516658e+2, -1430114.6, -1433375.3, -30060.389, -0.05109335, 0.41953498, -1401640.4, 115763.24, 0.00037251608, 10.000368, 10.0003805 
1.5500438e+2, 1.5516603e+2, -1355018.0, -1372179.0, 7863.932, -0.097941816, 0.30503365, -1351959.5, 67445.914, 0.00009664872, 10.000337, 10.000137 
1.550043e+2, 1.6516632e+2, -1260617.3, -1222557.9, -50663.02, -0.08890129, 0.30165944, -1187468.5, 133931.33, 0.000009881803, 10.000081, 10.00062 
1.5500382e+2, 1.7516716e+2, -1236417.5, -1169134.8, -11116.171, -0.028858336, 0.2883905, -1167345.8, 56043.957, 0.00000020107916, 9.999613, 10.000541 
1.55004e+2, 1.8516758e+2, -1189593.0, -1180400.3, 24762.502, 0.019618068, 0.3236743, -1159811.1, -34427.25, 0.0, 9.999614, 9.999799 
1.5500472e+2, 1.9516744e+2, -1038083.4, -1066698.4, 11971.388, 0.048947014, 0.29733962, -1033735.6, -6351.538, 0.0, 10.000029, 9.999707 
1.5500444e+2, 2.0516703e+2, -927076.6, -1012018.6, -56296.25, 0.024764612, 0.31568724, -899027.75, 30360.93, 0.0, 10.000336, 9.999249 
1.5500303e+2, 2.151662e+2, -807761.7, -905104.75, -49582.43, -0.05367399, 0.27297887, -786954.2, 44444.805, 0.0, 10.000498, 9.999227 
1.5500328e+2, 2.2516564e+2, -692945.5, -711790.4, -35828.082, 0.008546562, 0.2582017, -665321.56, 68081.74, 0.0, 10.000237, 10.00001 
1.5500511e+2, 2.3516506e+2, -707481.25, -680228.5, -6405.0234, 0.1961468, 0.166025, -678798.25, -43393.797, 0.0, 9.999507, 9.99991 
1.5500551e+2, 2.451648e+2, -601099.3, -623924.56, 56503.836, 0.15369809, 0.17550899, -554867.06, -17463.9, 0.0, 9.999764, 9.999497 
1.550047e+2, 2.5516456e+2, -353906.3, -468666.84, 86157.31, -0.0939568, 0.16958134, -307770.5, 131632.02, 0.0, 10.000839, 9.99938 
1.5500507e+2, 2.6516375e+2, -276912.47, -471303.66, 18904.412, -0.14035894, 0.19964556, -275091.1, 66318.67, 0.0, 10.001119, 9.99854 
1.5500647e+2, 2.751621e+2, -284613.97, -446774.66, 33046.367, -0.008052527, 0.14932023, -278138.13, -34710.66, 0.000000019825112, 10.000465, 9.998366 
1.5500717e+2, 2.8516042e+2, -187622.28, -382284.63, 7350.2637, 0.05387129, 0.16718598, -187345.14, -41899.004, 0.0000019865888, 10.000606, 9.998055 
1.5500751e+2, 2.951589e+2, 24749.852, -211689.69, 18221.2, 0.08787272, 0.16394229, 26145.824, 73609.516, 0.000014949104, 10.0013, 9.99822 
1.5500839e+2, 3.0515856e+2, 113536.43, -64987.375, 31841.125, 0.16657747, 0.271536, 119045.53, 119045.53, 0.000059797247, 10.001306, 9.998881 
1.5500638e+2, 3.1515804e+2, 31642.723, -4938.4443, 41068.566, -0.098702304, 0.31196725, 58309.59, 58309.59, 0.00017773658, 10.000226, 9.999825 
1.649997e+2, 1.2516485e+2, -1676180.9, -1694190.0, 30420.148, -0.088222206, 0.422171, -1653460.6, 59959.51, 0.0014964563, 10.000145, 10.000052 
1.6500202e+2, 1.3516368e+2, -1635586.9, -1606227.0, 83011.0, -0.07488012, 0.2528563, -1536607.9, 78822.03, 0.0008776996, 9.999729, 10.000194 
1.6500412e+2, 1.4516518e+2, -1589359.8, -1477943.0, 28796.637, -0.0066430382, 0.36035013, -1470940.4, 46472.926, 0.00037921302, 9.999163, 10.000645 
1.6500461e+2, 1.5516523e+2, -1564336.5, -1445937.1, -2483.331, -0.020734418, 0.27899083, -1445885.1, -26474.574, 0.00009882513, 9.998789, 10.000377 
1.650044e+2, 1.6516578e+2, -1418585.8, -1302199.9, -56774.1, -0.01917647, 0.29419765, -1279092.6, 42310.473, 0.000009884257, 9.999002, 10.000591 
1.6500358e+2, 1.7516674e+2, -1225203.4, -1166431.9, -96946.805, -0.006826463, 0.29405907, -1094515.1, 128877.195, 0.0000002904704, 9.999689, 10.000522 
1.6500376e+2, 1.8516706e+2, -1148290.8, -1177174.5, -26106.43, 0.02600426, 0.32473084, -1132897.9, -7509.6875, 0.0, 9.999986, 9.99962 
1.650049e+2, 1.951665e+2, -1063514.6, -1095110.3, -25103.195, 0.07708808, 0.27298424, -1049652.0, -22259.3, 0.0, 9.99993, 9.99954 
1.6500483e+2, 2.0516598e+2, -1002557.9, -1019490.7, -38433.68, 0.07111687, 0.27620178, -971669.1, -42271.117, 0.0, 9.999718, 9.99949 
1.6500357e+2, 2.1516538e+2, -955303.94, -951247.5, -35934.258, 0.017196516, 0.23368464, -917284.3, -85879.15, 0.0, 9.999385, 9.999448 
1.6500376e+2, 2.2516502e+2, -764410.8, -770380.25, 8388.552, 0.061083943, 0.24148485, -758491.8, -25083.69, 0.0, 9.999846, 9.999796 
1.6500522e+2, 2.3516479e+2, -501090.13, -598751.06, -34742.844, 0.18984464, 0.20438083, -489991.63, 145416.66, 0.0, 10.001011, 9.999741 
1.6500586e+2, 2.4516454e+2, -395493.38, -512768.13, 22660.129, 0.15329653, 0.21899316, -391267.22, 146140.52, 0.0, 10.001133, 9.999599 
1.6500589e+2, 2.5516412e+2, -421772.7, -482171.53, -2758.7732, -0.022377225, 0.18196079, -421646.94, 17761.197, 0.0, 10.000306, 9.999534 
1.6500646e+2, 2.6516342e+2, -408388.3, -502758.4, -43633.035, -0.051031757, 0.19816466, -391306.2, -49892.484, 0.0, 10.000057, 9.99884 
1.6500752e+2, 2.7516204e+2, -272080.78, -397170.7, -29130.309, 0.06541735, 0.14128752, -265629.75, -22201.89, 0.000000024295247, 10.000369, 9.998737 
1.6500801e+2, 2.8516048e+2, -160887.86, -353694.66, 33267.945, 0.08163915, 0.14658996, -155309.05, -9864.01, 0.0000019697127, 10.000729, 9.998197 
1.6500849e+2, 2.9515904e+2, 31935.494, -184985.8, 21012.516, 0.069202706, 0.13778001, 33952.164, 81414.24, 0.000013995548, 10.001246, 9.998439 
1.6500948e+2, 3.0515975e+2, 76837.33, -119617.125, 3380.4907, 0.16760534, 0.35423195, 76895.484, 76895.484, 0.000055183133, 10.00117, 9.998589 
1.6500705e+2, 3.1515828e+2, 62352.723, 10748.647, -51593.727, -0.045523956, 0.32702827, 94236.54, 94236.54, 0.00016346599, 10.000391, 9.999864 
1.7499933e+2, 1.2516385e+2, -1683310.8, -1705493.1, -34668.613, -0.21531843, 0.26590395, -1658002.4, 55418.18, 0.0014785845, 10.000126, 9.999981 
1.7500195e+2, 1.351627e+2, -1672854.1, -1667637.4, 75260.18, -0.088615134, 0.1315266, -1594940.4, 20490.758, 0.00086354057, 9.999679, 9.999782 
1.7500389e+2, 1.4516456e+2, -1615323.6, -1524091.0, -2440.2715, 0.012276537, 0.3144621, -1524025.8, -6613.297, 0.00037008742, 9.999113, 10.00036 
1.7500347e+2, 1.5516444e+2, -1583459.3, -1480182.3, 1468.4625, -0.05142648, 0.23615679, -1480161.4, -60747.55, 0.000094032526, 9.998764, 10.0001545 
1.7500338e+2, 1.6516478e+2, -1467231.1, -1396314.0, -46176.26, -0.05899805, 0.27317, -1373552.6, -52141.74, 0.000008393363, 9.998961, 9.999971 
1.7500351e+2, 1.7516543e+2, -1274880.9, -1257511.4, -56570.117, -0.01919962, 0.30676433, -1208963.3, 14442.3955, 0.00000020811186, 9.999639, 9.999921 
1.7500384e+2, 1.8516533e+2, -1130096.8, -1123376.8, -41401.563, 0.00008270585, 0.30398276, -1085199.1, 40206.523, 0.0, 9.999908, 10.000031 
1.7500433e+2, 1.9516422e+2, -1049767.1, -1039046.9, -12339.746, -0.0075252564, 0.15323211, -1030953.4, -3540.0642, 0.0, 9.999814, 9.999982 
1.7500435e+2, 2.0516413e+2, -981611.7, -950544.5, -68278.375, 0.022298893, 0.15116587, -896055.0, 33357.523, 0.0, 9.999599, 10.000024 
1.7500396e+2, 2.1516484e+2, -940967.4, -889645.1, -32517.5, 0.087919734, 0.1852099, -873883.06, -42477.36, 0.0, 9.999248, 9.999936 
1.7500369e+2, 2.251652e+2, -834125.94, -885465.4, 38048.492, 0.04071794, 0.27882513, -813897.7, -80494.13, 0.0, 9.999717, 9.999068 
1.7500341e+2, 2.3516504e+2, -572884.56, -715690.4, 22715.479, -0.122339, 0.32081568, -569358.4, 66049.76, 0.0, 10.000867, 9.999008 
1.7500448e+2, 2.4516399e+2, -427048.78, -556425.5, -22527.998, -0.12652397, 0.3028766, -423238.28, 114179.695, 0.0, 10.001039, 9.999341 
1.7500688e+2, 2.55162e+2, -462131.5, -532003.06, -19308.871, 0.014498201, 0.13483147, -457150.6, -17716.766, 0.0, 10.000161, 9.999261 
1.750085e+2, 2.6516154e+2, -355340.44, -386976.06, -47846.832, 0.11393721, 0.14780664, -320764.6, 20671.38, 0.0, 10.000024, 9.999653 
1.7500913e+2, 2.7516207e+2, -227584.7, -285848.2, -3822.7483, 0.15238567, 0.19618733, -227334.95, 16094.665, 0.000000035492793, 10.0002775, 9.999551 
1.7500857e+2, 2.85161e+2, -142231.72, -307397.28, 36928.41, 0.028870147, 0.19032094, -134351.13, 11089.355, 0.0000021240596, 10.000704, 9.998519 
1.7500742e+2, 2.9515865e+2, 35215.84, -148732.72, 57691.906, -0.20065407, 0.06339907, 51812.383, 99276.805, 0.000013429294, 10.001136, 9.998731 
1.7500931e+2, 3.0516002e+2, 32902.504, -208734.67, -34874.594, 0.0013500864, 0.3581864, 37835.133, 37835.133, 0.000050919698, 10.001157, 9.997986 
1.7500868e+2, 3.1515655e+2, 42913.57, 4552.082, 4797.4346, 0.005772038, 0.1979552, 43504.43, 43504.43, 0.00014908816, 10.000271, 9.9998665 
1.8499935e+2, 1.2516326e+2, -1829013.3, -1724246.3, -51553.773, -0.15270208, 0.22812149, -1703132.6, 10291.474, 0.0014297328, 9.998907, 10.000433 
1.8500222e+2, 1.3516241e+2, -1607591.3, -1628332.8, 36070.234, -0.037868906, 0.11881762, -1580430.5, 34999.844, 0.00082590414, 10.0001, 9.999841 
1.8500419e+2, 1.4516424e+2, -1474500.8, -1490263.4, -14998.1045, 0.08636483, 0.30772877, -1465439.3, 51972.574, 0.00034715154, 10.000214, 10.000058 
1.8500286e+2, 1.5516356e+2, -1493856.0, -1467913.1, -44492.48, -0.014967681, 0.20170264, -1434539.8, -15120.827, 0.0000844504, 9.999495, 9.99989 
1.850027e+2, 1.6516353e+2, -1429112.5, -1388874.6, -4374.2163, -0.031010611, 0.2182131, -1388404.6, -66984.53, 0.000006352812, 9.999308, 9.999838 
1.8500368e+2, 1.7516387e+2, -1271582.6, -1270659.3, -6719.643, 0.035954133, 0.232319, -1264385.4, -40967.24, 0.000000056960435, 9.9997425, 9.999771 
1.8500416e+2, 1.851639e+2, -1118583.9, -1086801.0, 20947.984, 0.052180618, 0.2383554, -1076398.8, 49018.23, 0.0, 9.999868, 10.000298 
1.8500412e+2, 1.9516352e+2, -1059625.9, -1014169.25, 8104.0596, 0.007821916, 0.13381481, -1012767.7, 14650.5205, 0.0, 9.999626, 10.000244 
1.8500428e+2, 2.0516369e+2, -925479.3, -933536.8, -31114.576, 0.0415816, 0.14767282, -898133.75, 31281.266, 0.0, 10.000011, 9.999946 
1.8500455e+2, 2.1516421e+2, -695776.6, -781869.25, -68188.42, 0.14423706, 0.17124787, -658183.94, 173225.56, 0.0, 10.000955, 9.999861 
1.8500441e+2, 2.2516432e+2, -665008.8, -849718.9, 19140.04, 0.07981429, 0.26166973, -663046.3, 70364.734, 0.0, 10.001079, 9.998659 
1.850038e+2, 2.3516381e+2, -664565.94, -806043.6, -1623.034, -0.14002433, 0.31183723, -664547.3, -29126.096, 0.0, 10.000434, 9.998599 
1.850049e+2, 2.4516286e+2, -548565.75, -579280.8, -11528.032, -0.13364385, 0.3085987, -544720.44, -7289.5254, 0.0, 10.000047, 9.999664 
1.8500766e+2, 2.5516135e+2, -477801.88, -502342.94, 9394.968, 0.09843895, 0.15452696, -474618.22, -35176.754, 0.0, 9.999882, 9.999601 
1.8500936e+2, 2.6516125e+2, -354670.94, -356921.4, 37485.023, 0.20957457, 0.17751475, -318294.25, 23145.223, 0.0, 9.999928, 9.999897 
1.8500982e+2, 2.7516216e+2, -203563.95, -245156.5, 7669.844, 0.20227161, 0.24343017, -202194.69, 41234.55, 0.000000044067633, 10.000334, 9.999804 
1.8500914e+2, 2.8516096e+2, -143804.25, -279535.88, 45718.164, 0.03368852, 0.19793025, -129841.47, 15598.779, 0.000002141611, 10.000538, 9.998802 
1.8500783e+2, 2.9515806e+2, -51087.42, -163627.17, 26831.588, -0.22713703, -0.01511745, -45017.637, 2450.438, 0.000012353572, 10.0004, 9.998995 
1.8501008e+2, 3.0516014e+2, -21500.758, -238549.3, -10385.398, -0.0073310994, 0.34088302, -21004.967, -21004.967, 0.00004451732, 10.000788, 9.997962 
1.8501e+2, 3.1515613e+2, 260305.22, 80443.586, 66502.09, 0.04709576, 0.13709821, 282222.88, 282222.88, 0.00012893318, 10.001819, 9.999681 
1.9499886e+2, 1.2516329e+2, -1779212.3, -1596628.5, -58162.742, -0.1693004, 0.3343339, -1579674.8, 133753.64, 0.0013506947, 9.998818, 10.001349 
1.9500242e+2, 1.3516288e+2, -1583227.6, -1562134.6, 87854.42, -0.062122893, 0.21659882, -1484196.0, 131231.4, 0.00077082973, 10.000054, 10.000311 
1.9500452e+2, 1.4516415e+2, -1500193.8, -1529744.0, -60599.695, 0.05435335, 0.34456575, -1452594.0, 64817.707, 0.0003170448, 10.000148, 9.999822 
1.9500233e+2, 1.5516278e+2, -1514937.4, -1501361.0, -58001.85, -0.054952506, 0.1896309, -1449751.5, -30327.18, 0.000073711046, 9.999454, 9.99968 
1.9500199e+2, 1.6516222e+2, -1412576.9, -1345868.5, -551.59204, -0.06843061, 0.1462137, -1345864.0, -24435.006, 0.0000047225935, 9.999255, 10.000168 
1.9500366e+2, 1.7516206e+2, -1255663.0, -1225369.3, 26859.807, 0.024437534, 0.07729377, -1209679.9, 13749.607, 0.0000000036456946, 9.999683, 10.000115 
1.9500433e+2, 1.8516281e+2, -1125881.4, -1080529.1, -2688.8748, 0.04872786, 0.13345051, -1080370.3, 45051.855, 0.0, 9.999771, 10.000394 
1.9500388e+2, 1.9516431e+2, -1069753.9, -1012012.25, 14359.235, -0.010404769, 0.20970193, -1008638.5, 18769.727, 0.0, 9.999522, 10.000314 
1.9500408e+2, 2.0516464e+2, -993862.4, -1036584.06, -7362.833, -0.006812268, 0.2684269, -992629.0, -63223.543, 0.0, 9.999851, 9.9993105 
1.9500491e+2, 2.1516357e+2, -762045.25, -882830.0, -19081.588, 0.05362606, 0.19731604, -759102.44, 72313.52, 0.0, 10.000798, 9.999241 
1.950055e+2, 2.2516246e+2, -699027.25, -882299.25, -20208.688, 0.05596009, 0.20459653, -696825.4, 36604.004, 0.0, 10.000923, 9.9985075 
1.9500591e+2, 2.3516116e+2, -697575.8, -833612.94, -11771.603, -0.0024614076, 0.18874486, -696564.7, -61117.723, 0.0, 10.000266, 9.998486 
1.9500665e+2, 2.4516116e+2, -499728.44, -450380.44, -31702.34, 0.010053399, 0.23842032, -434881.75, 102564.59, 0.0, 9.999929, 10.000606 
1.9500773e+2, 2.551622e+2, -436804.28, -379050.88, 17342.219, 0.084238715, 0.24639326, -374243.5, 65186.78, 0.0, 9.999722, 10.000524 
1.9500859e+2, 2.6516274e+2, -388691.2, -416442.63, 38131.56, 0.10858946, 0.30392244, -361989.2, -20566.682, 0.0, 9.999874, 9.99952 
1.9500922e+2, 2.7516234e+2, -243813.55, -312720.5, 41729.21, 0.073763594, 0.2803036, -224152.61, 19274.256, 0.000000036761158, 10.000255, 9.999386 
1.950094e+2, 2.8516027e+2, -137587.06, -253422.11, 28769.398, -0.027881859, 0.16210036, -130835.3, 14610.548, 0.0000018181237, 10.000484, 9.999006 
1.950093e+2, 2.9515722e+2, -56446.77, -140288.38, 37918.734, -0.15938021, -0.08814049, -41841.613, 5631.1025, 0.000010151812, 10.00026, 9.999218 
1.9501136e+2, 3.0516016e+2, 13906.844, -150434.8, 14912.019, 0.009327374, 0.31107908, 15248.969, 15248.969, 0.00003534469, 10.000742, 9.99858 
1.9501016e+2, 3.151574e+2, 237567.48, 74234.6, 194045.56, -0.18781969, 0.16369273, 366431.53, 366431.53, 0.000103030594, 10.001679, 9.999684 
2.049992e+2, 1.2516302e+2, -1660610.3, -1535323.4, 66266.59, -0.04081616, 0.31813788, -1506777.8, 206650.4, 0.0012481128, 9.999624, 10.001388 
2.0500267e+2, 1.3516228e+2, -1668358.6, -1631935.8, 102959.04, -0.0047035553, 0.19253539, -1545589.9, 69840.72, 0.0007037624, 9.999574, 10.000088 
2.0500523e+2, 1.4516284e+2, -1542677.4, -1542616.3, -37526.813, 0.137063, 0.2591035, -1505120.0, 12302.312, 0.00028324383, 9.999838, 9.999882 
2.0500273e+2, 1.5516219e+2, -1329186.6, -1404880.6, -54564.945, -0.012077057, 0.17107636, -1300627.9, 118800.18, 0.000063005726, 10.000709, 9.999734 
2.0500204e+2, 1.6516176e+2, -1208347.8, -1265482.1, 11517.383, -0.052672803, 0.14708157, -1206113.4, 115317.99, 0.0000035155435, 10.000735, 10.00001 
2.0500335e+2, 1.7516118e+2, -1244614.9, -1240963.5, -31353.584, 0.026285594, 0.056324255, -1211382.5, 12053.916, 0.0000000004928599, 9.999847, 9.999936 
2.0500398e+2, 1.8516193e+2, -1153026.1, -1100748.5, -43235.87, 0.05451504, 0.12396556, -1076364.3, 49065.43, 0.0, 9.999607, 10.000334 
2.0500386e+2, 1.9516385e+2, -1008306.2, -991170.6, -67104.164, 0.022040283, 0.24709988, -932089.5, 95323.24, 0.0, 9.9999695, 10.00024 
2.0500444e+2, 2.0516409e+2, -927798.2, -1028464.25, -22849.1, 0.024332661, 0.311814, -922854.7, 6556.6563, 0.0, 10.000403, 9.999102 
2.0500581e+2, 2.1516255e+2, -773473.0, -909990.4, -28636.273, 0.07221349, 0.21269594, -767709.5, 63717.45, 0.0, 10.000819, 9.999043 
2.0500673e+2, 2.2516125e+2, -677170.7, -851303.5, -11339.0625, 0.0900301, 0.20318305, -676435.44, 57005.797, 0.0, 10.000979, 9.998691 
2.0500723e+2, 2.3516002e+2, -597491.44, -769582.0, -6738.9766, 0.08265128, 0.17567337, -597227.94, 38228.535, 0.0, 10.000872, 9.998637 
2.0500769e+2, 2.4515992e+2, -408880.22, -433696.47, -29901.805, 0.09149834, 0.2198306, -388914.28, 148542.44, 0.0, 10.00067, 10.0003605 
2.0500807e+2, 2.5516075e+2, -350812.22, -365443.88, -99870.945, 0.12075819, 0.23030019, -257989.5, 181454.9, 0.0, 10.000439, 10.000269 
2.0500866e+2, 2.6516116e+2, -336594.88, -417115.3, -73277.875, 0.11309905, 0.3000632, -293245.7, 48193.508, 0.0, 10.000338, 9.999292 
2.0500939e+2, 2.7516073e+2, -249010.84, -338523.2, -90206.44, 0.07075853, 0.2945184, -193067.88, 50377.33, 0.00000002096579, 10.000321, 9.999171 
2.0501009e+2, 2.8515872e+2, -135228.81, -234870.73, -68106.43, 0.0038556308, 0.1871111, -100666.04, 44797.555, 0.0000012828043, 10.000448, 9.999145 
2.0501077e+2, 2.951559e+2, 34241.71, -78219.58, -93895.586, -0.053827714, -0.05390869, 87456.336, 134943.17, 0.000007381431, 10.0008135, 9.999376 
2.0501252e+2, 3.0515903e+2, 39564.656, -96743.625, -94071.266, 0.06332859, 0.33722654, 87575.87, 87575.87, 0.00002618385, 10.00074, 9.998961 
2.0501143e+2, 3.15156e+2, -954.8044, -46829.027, 40676.305, -0.13395843, 0.12451249, 22805.76, 22805.76, 0.000078949044, 10.000101, 9.999605 
2.1499924e+2, 1.2516242e+2, -1729563.9, -1665771.5, 16522.25, -0.07261099, 0.18150252, -1661746.3, 51677.168, 0.0011286415, 9.999561, 10.000526 
2.1500258e+2, 1.3516073e+2, -1720894.0, -1753361.0, 115087.63, -0.006454731, 0.04736001, -1620900.6, -5461.113, 0.00062779407, 9.999617, 9.999235 
2.1500589e+2, 1.451605e+2, -1533112.0, -1514469.6, -23036.08, 0.17623396, 0.06398148, -1498940.4, 18501.484, 0.00024660726, 9.999799, 10.0000925 
2.1500368e+2, 1.5516184e+2, -1311455.0, -1372225.4, -6597.9463, -0.027630033, 0.15308565, -1310746.9, 108681.945, 0.000052325075, 10.000718, 9.999953 
2.1500242e+2, 1.6516216e+2, -1270579.8, -1376881.1, -35977.72, -0.121209905, 0.22852883, -1259548.0, 61879.297, 0.000002586899, 10.000659, 9.999279 
2.1500228e+2, 1.7516112e+2, -1304173.5, -1346483.9, -47917.902, -0.097333685, 0.1597295, -1272948.6, -49508.918, 0.000000000052014764, 9.999774, 9.99924 
2.150027e+2, 1.8516117e+2, -1186653.1, -1145129.3, -41929.38, -0.06621163, 0.20412463, -1119103.0, 6337.501, 0.0, 9.999491, 10.000088 
2.1500364e+2, 1.9516204e+2, -1031303.7, -1025282.0, -36846.098, -0.03226146, 0.24308278, -991323.94, 36108.41, 0.0, 9.999903, 10.00004 
2.1500498e+2, 2.0516205e+2, -927597.6, -999804.8, -21277.604, 0.008403544, 0.27975753, -921794.1, 7638.6665, 0.0, 10.000283, 9.999354 
2.150068e+2, 2.1516103e+2, -775769.25, -880531.9, -1168.1034, 0.058302853, 0.20830153, -775756.25, 55687.066, 0.0, 10.00067, 9.999315 
2.150076e+2, 2.2516057e+2, -667331.25, -789496.3, -29309.719, 0.051340297, 0.24175209, -660663.25, 72784.8, 0.0, 10.000807, 9.999194 
2.1500738e+2, 2.3516043e+2, -590609.5, -710702.8, 5289.823, -0.019762382, 0.27179024, -590376.94, 45072.395, 0.0, 10.000685, 9.999126 
2.1500762e+2, 2.4515924e+2, -527928.75, -658521.0, -52926.34, -0.013244652, 0.25969845, -509172.66, 28288.373, 0.0, 10.000573, 9.998867 
2.150083e+2, 2.5515696e+2, -472451.06, -586351.6, -92550.61, 0.06710212, 0.11116188, -420732.38, 18751.094, 0.0, 10.000302, 9.998819 
2.1500911e+2, 2.6515654e+2, -355018.13, -436100.78, -88032.34, 0.09281178, 0.16942978, -298640.44, 42848.914, 0.0, 10.000256, 9.999198 
2.1500984e+2, 2.7515724e+2, -276491.88, -364561.78, -74428.41, 0.05074795, 0.2889025, -234047.55, 9437.283, 0.00000000626477, 10.000187, 9.999056 
2.1501076e+2, 2.8515622e+2, -127482.75, -209159.98, -68921.94, -0.008334008, 0.27321264, -88208.79, 57285.387, 0.00000075455597, 10.00041, 9.999338 
2.1501195e+2, 2.9515415e+2, 29830.754, -70981.67, -64309.438, -0.057796445, 0.08911163, 61134.332, 108644.484, 0.0000049684672, 10.000744, 9.999461 
2.1501322e+2, 3.0515674e+2, 40233.816, -98938.65, -129810.16, 0.029298242, 0.4290957, 117932.76, 117932.76, 0.000019575336, 10.000749, 9.998946 
2.1501304e+2, 3.1515187e+2, -43727.324, -117612.63, 85511.74, -0.053460594, 0.030157067, 12480.531, 12480.531, 0.00006230811, 10.00002, 9.999164 
2.2500035e+2, 1.2516135e+2, -1636589.0, -1654767.3, -42403.117, 0.06071579, 0.124297276, -1602311.9, 111119.17, 0.0009987325, 10.000333, 10.000227 
2.250025e+2, 1.3516057e+2, -1736663.3, -1764375.3, 37460.613, 0.03942448, 0.083711244, -1710578.3, -95138.19, 0.0005469882, 9.999546, 9.999177 
2.2500598e+2, 1.4515997e+2, -1608762.0, -1543534.9, 2131.9998, 0.24209385, 0.063508585, -1543465.3, -26018.512, 0.00020906689, 9.999251, 10.000166 
2.25004e+2, 1.5516125e+2, -1471586.8, -1443606.3, -25436.121, -0.00282647, 0.14034662, -1428566.9, -9132.197, 0.000042237294, 9.999601, 10.000009 
2.2500284e+2, 1.6516173e+2, -1359155.0, -1416199.3, -31703.74, -0.10669637, 0.23089002, -1345031.6, -23600.62, 0.0000020119714, 10.00004, 9.999296 
2.2500262e+2, 1.7516108e+2, -1195280.3, -1294792.1, -22117.55, -0.073136926, 0.19723675, -1190585.9, 32853.78, 0.0, 10.000531, 9.999219 
2.2500305e+2, 1.8516067e+2, -1037329.7, -1127316.1, 39168.863, -0.035739817, 0.22029948, -1022669.0, 102775.69, 0.0, 10.000748, 9.999606 
2.2500414e+2, 1.9516037e+2, -972045.94, -1049534.1, -6424.9854, 0.0013584199, 0.1942432, -971516.8, 55930.813, 0.0, 10.000554, 9.999561 
2.2500546e+2, 2.0516005e+2, -911120.3, -985685.4, 16763.41, 0.03098347, 0.21982068, -907524.94, 21926.07, 0.0, 10.000358, 9.999431 
2.250071e+2, 2.151594e+2, -862797.1, -916771.6, -634.5241, 0.05940667, 0.1809837, -862789.6, -31331.896, 0.0, 10.000037, 9.999384 
2.2500798e+2, 2.2515927e+2, -734276.5, -792268.6, -10201.147, 0.04651384, 0.22843067, -732534.44, 924.2588, 0.0, 10.000209, 9.999469 
2.250082e+2, 2.3515937e+2, -557162.25, -663446.3, -24752.236, -0.001636333, 0.25479418, -551680.5, 83775.72, 0.0, 10.000784, 9.999403 
2.250086e+2, 2.4515812e+2, -504144.03, -698233.56, -40246.207, 0.017877191, 0.24625795, -496129.56, 41339.51, 0.0, 10.000956, 9.998407 
2.2500914e+2, 2.551554e+2, -434135.84, -622562.0, -32445.148, 0.10571403, 0.100834094, -428705.6, 10792.649, 0.0, 10.000787, 9.9983425 
2.2500977e+2, 2.6515478e+2, -290968.13, -393663.0, 54042.754, 0.12183048, 0.15937248, -267769.1, 73737.51, 0.0, 10.00065, 9.999296 
2.2501047e+2, 2.751557e+2, -199757.63, -315091.0, 52487.336, 0.079849735, 0.28356436, -179447.61, 64051.746, 0.00000000006385136, 10.000658, 9.9991665 
2.2501169e+2, 2.8515473e+2, -103540.516, -225731.14, 86864.1, 0.041213177, 0.2815195, -58437.855, 87070.414, 0.00000032397858, 10.000685, 9.999096 
2.2501335e+2, 2.951526e+2, -4368.6323, -121632.1, 26504.402, 0.02132432, 0.116363786, 1343.7362, 48870.215, 0.000003287384, 10.000662, 9.999145 
2.2501376e+2, 3.0515438e+2, 5698.7295, -124296.89, -42749.69, 0.032592442, 0.39750674, 18497.137, 18497.137, 0.00001601569, 10.000549, 9.998863 
2.2501409e+2, 3.151496e+2, 7005.466, -65129.418, 137978.63, 0.055142984, 0.002923001, 113552.75, 113552.75, 0.000054019332, 10.0002365, 9.999419 
2.3500185e+2, 1.2515976e+2, -1626765.3, -1629379.0, -99045.26, 0.099595115, 0.1333649, -1529018.3, 184433.03, 0.0008678289, 10.000316, 10.000415 
2.3500188e+2, 1.3516164e+2, -1685574.0, -1670687.9, 10991.944, -0.010950619, 0.30487686, -1664856.1, -49422.633, 0.00046623294, 9.99958, 9.999816 
2.3500492e+2, 1.4516103e+2, -1624031.4, -1546226.4, -2313.9995, 0.17667949, 0.2468612, -1546157.6, -28718.324, 0.00017258529, 9.999136, 10.000203 
2.3500325e+2, 1.5516019e+2, -1477346.5, -1446702.3, 5807.66, -0.07313697, 0.11872388, -1445638.5, -26191.975, 0.000033446406, 9.999565, 10.000008 
2.3500288e+2, 1.651603e+2, -1327341.4, -1326496.5, -29176.352, -0.14151923, 0.1374948, -1297739.5, 23704.844, 0.0000017722703, 9.999943, 9.99996 
2.3500396e+2, 1.7516081e+2, -1153641.8, -1196247.6, 10663.334, -0.025592292, 0.15453507, -1151122.0, 72315.88, 0.0000000001389195, 10.000476, 9.9999275 
2.3500462e+2, 1.8516032e+2, -1112002.1, -1252070.3, 18098.627, 0.017113399, 0.17300403, -1109701.4, 15741.424, 0.0, 10.000624, 9.99881 
2.3500481e+2, 1.951587e+2, -1039342.75, -1171946.1, -736.9165, -0.017000962, 0.09743656, -1039338.7, -11878.9795, 0.0, 10.000476, 9.998761 
2.3500532e+2, 2.0515797e+2, -939797.94, -1003675.2, -9330.906, -0.04183816, 0.121366374, -938462.9, -8995.159, 0.0, 10.000186, 9.999386 
2.3500621e+2, 2.151577e+2, -889894.8, -933596.1, 4818.2197, -0.060331605, 0.12184988, -889369.9, -57899.426, 0.0, 9.9998665, 9.999349 
2.3500754e+2, 2.251574e+2, -760328.7, -806195.9, 1038.3323, -0.04596931, 0.15692748, -760305.2, -26832.44, 0.0, 10.000041, 9.999455 
2.350093e+2, 2.3515686e+2, -577066.44, -674384.44, 13263.576, -0.003979344, 0.12598781, -575291.1, 60185.605, 0.0, 10.000649, 9.999397 
2.3501013e+2, 2.4515647e+2, -478044.6, -621677.94, -60596.3, 0.040522963, 0.17341286, -455895.6, 81586.24, 0.0, 10.000857, 9.998981 
2.3501007e+2, 2.5515604e+2, -414677.5, -548012.4, -24382.92, 0.085352816, 0.1961375, -410358.5, 29131.111, 0.0, 10.000638, 9.998926 
2.3501024e+2, 2.6515603e+2, -283234.5, -357441.28, 39680.53, 0.07393394, 0.27396646, -266012.88, 75477.7, 0.0, 10.000567, 9.999586 
2.3501085e+2, 2.75156e+2, -196727.95, -282098.4, 70568.42, 0.018153299, 0.27788913, -156939.34, 86549.92, 0.0, 10.000539, 9.999455 
2.3501238e+2, 2.851543e+2, -155801.06, -321764.16, 73376.61, 0.006649594, 0.2214662, -128012.3, 17493.201, 0.00000009734078, 10.000632, 9.99846 
2.3501444e+2, 2.951513e+2, -71583.4, -239856.61, 41503.297, 0.020837234, 0.035931624, -61903.74, -14367.69, 0.0000024854203, 10.000559, 9.99839 
2.3501363e+2, 3.05152e+2, 7100.3027, -115550.16, -62928.945, -0.06751649, 0.24642202, 33643.36, 33643.36, 0.000014818684, 10.00053, 9.998933 
2.3501375e+2, 3.1514952e+2, 69929.59, 79171.125, 171227.9, -0.07416132, 0.06600024, 245840.6, 245840.6, 0.00005156838, 10.00017, 10.00045 
2.4500304e+2, 1.2515876e+2, -1678318.6, -1660628.6, 22657.6, 0.21850467, 0.11190712, -1645150.9, 68309.01, 0.00074233726, 10.00002, 10.000333 
2.450011e+2, 1.3516109e+2, -1600922.9, -1605682.3, 19949.277, -0.058546793, 0.3075912, -1583211.9, 32225.594, 0.00038816038, 10.000072, 10.000024 
2.4500395e+2, 1.4516062e+2, -1530450.0, -1496339.3, 43425.047, 0.14662719, 0.2517696, -1466740.4, 50701.277, 0.00013769997, 9.999744, 10.000247 
2.4500313e+2, 1.5515962e+2, -1509576.4, -1458702.8, 21944.822, -0.019174466, 0.09846874, -1450544.9, -31094.49, 0.000025817635, 9.999339, 10.000023 
2.4500331e+2, 1.6515961e+2, -1377015.6, -1340962.0, 21365.17, -0.063379854, 0.102807626, -1331034.6, -9585.729, 0.0000016011192, 9.99955, 10.000065 
2.450049e+2, 1.751602e+2, -1187314.1, -1201086.5, -11833.854, 0.046957757, 0.117415085, -1180508.8, 42932.56, 0.0000000006420841, 10.000193, 10.00004 
2.4500582e+2, 1.8515961e+2, -1107623.1, -1282570.1, 6770.9775, 0.07426117, 0.1363613, -1107361.5, 18085.402, 0.0, 10.000805, 9.998507 
2.4500595e+2, 1.9515772e+2, -940067.0, -1157647.8, -945.8747, 0.015393587, 0.0606199, -940062.9, 87403.93, 0.0, 10.001318, 9.998443 
2.4500611e+2, 2.0515676e+2, -784897.94, -968920.94, 2408.9177, -0.03511664, 0.099504516, -784866.4, 144611.22, 0.0, 10.001431, 9.999015 
2.4500655e+2, 2.1515647e+2, -748339.8, -903993.06, -41227.457, -0.06202418, 0.13447952, -738094.4, 93387.75, 0.0, 10.001022, 9.998985 
2.4500784e+2, 2.2515589e+2, -698282.0, -770968.7, -19026.021, -0.030796666, 0.15598199, -693603.06, 39884.418, 0.0, 10.000448, 9.999497 
2.4501e+2, 2.3515484e+2, -713153.2, -732330.5, -26019.828, 0.058835138, 0.06719872, -695011.44, -59516.09, 0.0, 9.999696, 9.9994545 
2.4501091e+2, 2.4515457e+2, -603812.06, -651509.3, -60191.637, 0.09204035, 0.111921154, -562916.6, -25418.379, 0.0, 9.999851, 9.999274 
2.4501063e+2, 2.5515494e+2, -364930.13, -489222.88, -73692.72, 0.0781758, 0.18383206, -330677.38, 108820.54, 0.0, 10.000834, 9.99924 
2.450107e+2, 2.6515493e+2, -228486.22, -345587.22, -35130.406, 0.048222654, 0.25484234, -218755.64, 122742.664, 0.0, 10.000989, 9.999473 
2.4501127e+2, 2.751544e+2, -229120.11, -305017.72, -62548.25, 0.02636867, 0.21773553, -193908.86, 49592.777, 0.0, 10.000356, 9.999384 
2.450132e+2, 2.85153e+2, -199448.45, -349753.75, 5409.9146, 0.050589867, 0.19631341, -199253.98, -53738.355, 0.00000009803459, 10.000354, 9.99841 
2.450159e+2, 2.9515073e+2, -18898.97, -219394.84, -12684.792, 0.10163503, 0.08465785, -18099.627, 29440.885, 0.0000023443192, 10.00094, 9.998349 
2.4501428e+2, 3.0515024e+2, 58724.695, -136836.81, -95188.83, -0.07146311, 0.20267011, 97406.35, 97406.35, 0.000014153015, 10.001086, 9.99852 
2.4501465e+2, 3.151485e+2, 137954.22, 147605.39, 27136.346, -0.0015878394, 0.13763605, 170341.88, 170341.88, 0.00004937861, 10.00052, 10.000736 
2.5500295e+2, 1.2515841e+2, -1710915.1, -1720179.3, 13997.315, 0.13344215, 0.061845116, -1700803.4, 12652.435, 0.00062344765, 9.999982, 9.999948 
2.5499985e+2, 1.3515876e+2, -1606873.9, -1615026.3, 31153.85, -0.22473684, 0.074528374, -1579530.8, 35922.555, 0.0003143659, 10.000064, 9.999964 
2.5500283e+2, 1.451587e+2, -1542292.1, -1503387.6, 8235.631, 0.018947478, 0.06143559, -1501716.0, 15738.331, 0.00010539114, 9.999675, 10.000227 
2.5500304e+2, 1.5515941e+2, -1517383.3, -1461623.4, 21268.078, -0.0007298849, 0.07809647, -1454437.3, -34990.02, 0.000019009012, 9.999287, 10.000023 
2.5500366e+2, 1.6515969e+2, -1418132.5, -1405330.4, 30556.387, -0.014049651, 0.1292256, -1380511.8, -59067.043, 0.0000013062046, 9.99946, 9.999666 
2.5500503e+2, 1.7515932e+2, -1222969.6, -1264033.9, 29374.19, 0.004556012, 0.0905081, -1207663.1, 15785.827, 0.000000000635992, 10.000147, 9.999628 
2.550062e+2, 1.851586e+2, -1108092.1, -1261637.3, 14226.258, -0.0005197402, 0.10965612, -1106785.3, 18671.242, 0.0, 10.000706, 9.998698 
2.5500706e+2, 1.9515729e+2, -937710.4, -1132884.9, 33917.125, -0.038883142, 0.06863119, -931984.3, 95485.5, 0.0, 10.0012245, 9.998657 
2.550075e+2, 2.0515636e+2, -869241.75, -1101481.8, -24588.047, -0.06762406, 0.14094257, -866667.06, 62814.63, 0.0, 10.001253, 9.99819 
2.5500765e+2, 2.1515559e+2, -824763.06, -1029868.5, -42735.56, -0.084620245, 0.20974964, -816215.0, 15279.297, 0.0, 10.000882, 9.998188 
2.5500846e+2, 2.251546e+2, -708468.06, -759314.94, -62229.31, -0.04306018, 0.22186865, -666669.2, 66834.89, 0.0, 10.000307, 9.999646 
2.550099e+2, 2.3515311e+2, -723865.75, -721172.75, -38384.62, 0.04889649, 0.07197117, -684111.0, -48597.355, 0.0, 9.999547, 9.999604 
2.5501058e+2, 2.4515231e+2, -619467.44, -656368.25, -37925.594, 0.04651154, 0.053082075, -595742.4, -58222.652, 0.0, 9.999741, 9.99929 
2.5501046e+2, 2.5515193e+2, -387844.75, -501581.6, -25212.82, -0.05301948, 0.050610743, -382506.25, 57018.746, 0.0, 10.000682, 9.999229 
2.5501063e+2, 2.6515147e+2, -278373.47, -421354.28, -74480.65, -0.086796366, 0.0996064, -246625.11, 94905.47, 0.0, 10.000881, 9.999 
2.5501132e+2, 2.7515075e+2, -278276.3, -379580.13, -70598.914, -0.04008109, 0.09301673, -242038.52, 1499.8806, 0.0, 10.000234, 9.998934 
2.5501376e+2, 2.8515065e+2, -171171.64, -271915.88, 12499.362, 0.039764777, 0.19471629, -169644.0, -24103.574, 0.00000013920514, 10.000281, 9.998975 
2.5501722e+2, 2.951507e+2, -3693.6355, -148706.97, 23297.78, 0.10124587, 0.26111212, -42.549824, 47498.49, 0.0000022917138, 10.000781, 9.998907 
2.550152e+2, 3.0514893e+2, -10418.899, -267724.3, -123807.6, -0.11699789, 0.26268202, 39477.664, 39477.664, 0.0000129202135, 10.001037, 9.997639 
2.5501585e+2, 3.1514606e+2, 76418.78, 37441.52, 22179.912, -0.0076728384, 0.18175864, 86455.66, 86455.66, 0.000045825393, 10.000443, 10.000016 
2.650025e+2, 1.2515731e+2, -1767472.5, -1764388.5, 22435.555, 0.12566559, 0.024728674, -1743442.0, -29978.238, 0.00051409315, 9.999618, 9.999833 
2.6500013e+2, 1.3515714e+2, -1633499.6, -1645198.3, -49349.77, -0.17750758, -0.01024328, -1589653.8, 25813.01, 0.0002486299, 9.99991, 9.9998455 
2.650032e+2, 1.4515743e+2, -1530134.6, -1512977.3, -49868.35, 0.089833274, 0.026135791, -1470955.1, 46509.71, 0.00007773356, 9.999831, 10.000087 
2.650031e+2, 1.5515828e+2, -1424537.5, -1435661.4, -79018.68, 0.052081916, 0.071950786, -1350885.3, 68571.61, 0.000013419433, 9.999988, 9.999875 
2.6500392e+2, 1.6515844e+2, -1329204.8, -1396347.0, -15397.459, 0.03571456, 0.13233769, -1325842.1, -4385.2783, 0.0000010267595, 10.000224, 9.999353 
2.6500577e+2, 1.7515776e+2, -1196868.6, -1284084.4, -41339.992, 0.05570152, 0.093248814, -1180387.9, 43077.69, 0.0000000012219834, 10.00047, 9.999327 
2.6500717e+2, 1.8515727e+2, -1082891.5, -1198846.9, -22148.508, 0.037303023, 0.12619507, -1078804.9, 46666.227, 0.0, 10.000666, 9.999151 
2.6500815e+2, 1.9515671e+2, -986661.75, -1107751.5, -18157.607, -0.015029031, 0.119134486, -983997.6, 43478.2, 0.0, 10.000681, 9.999097 
2.650087e+2, 2.0515588e+2, -940301.0, -1142457.6, -23788.03, -0.040059086, 0.181794, -937539.56, -8053.4185, 0.0, 10.000779, 9.998144 
2.650089e+2, 2.1515465e+2, -836450.6, -1043201.0, -11526.378, -0.03555884, 0.20927279, -835810.0, -4306.503, 0.0, 10.000831, 9.998127 
2.6500955e+2, 2.251535e+2, -617873.94, -742266.0, 8895.098, 0.0063288044, 0.22262801, -617241.06, 116274.234, 0.0, 10.00103, 9.999422 
2.6501063e+2, 2.3515227e+2, -481497.47, -632349.56, -29363.242, 0.08669699, 0.1210587, -475983.47, 159540.0, 0.0, 10.001321, 9.999366 
2.650113e+2, 2.4515142e+2, -411381.06, -559379.06, 647.5597, 0.080463536, 0.11150167, -411378.25, 126151.79, 0.0, 10.001199, 9.9992485 
2.6501155e+2, 2.551507e+2, -385293.3, -502942.8, -15993.811, -0.0074998755, 0.08216455, -383157.8, 56379.23, 0.0, 10.000726, 9.99919 
2.6501176e+2, 2.6514974e+2, -294809.47, -466138.28, -35778.316, -0.058578927, 0.09894998, -287638.13, 53909.242, 0.0, 10.000917, 9.998677 
2.650122e+2, 2.7514854e+2, -75739.39, -310492.63, -53385.58, -0.039785597, 0.07222344, -64169.16, 179391.66, 0.0, 10.001761, 9.998667 
2.6501453e+2, 2.851484e+2, 20112.924, -176248.8, 29967.639, 0.03236906, 0.18262291, 24584.588, 170147.4, 0.00000017298198, 10.001575, 9.999007 
2.6501775e+2, 2.9514873e+2, -43662.184, -156152.86, -25924.373, 0.10515571, 0.2696551, -37975.21, 9584.857, 0.000002277503, 10.000446, 9.999021 
2.6501593e+2, 3.051468e+2, -107626.41, -335056.16, -112341.78, -0.10215444, 0.25976643, -61492.137, -61492.137, 0.000011809922, 10.000429, 9.997492 
2.6501805e+2, 3.1514353e+2, 109743.24, 31604.332, 11444.525, 0.17029439, 0.15827481, 111384.95, 111384.95, 0.000042458643, 10.000725, 9.999858 
2.7500114e+2, 1.251554e+2, -1755417.6, -1739140.6, 18192.197, -0.055409167, -0.006341377, -1727349.5, -13865.551, 0.00042131313, 9.999603, 10.00002 
2.750013e+2, 1.351563e+2, -1637967.9, -1656563.9, -34506.145, -0.09263158, 0.074775696, -1611529.0, 3947.5615, 0.0001952308, 9.999919, 9.9997635 
2.7500442e+2, 1.4515693e+2, -1554698.4, -1553941.4, -66691.88, 0.18479213, 0.16191871, -1487626.9, 29844.713, 0.000056360343, 9.99979, 9.999826 
2.75003e+2, 1.5515639e+2, -1448320.5, -1472325.8, -55190.03, 0.008161406, 0.09336724, -1403843.0, 15634.584, 0.000009372096, 9.999942, 9.999644 
2.7500373e+2, 1.6515598e+2, -1351879.0, -1429407.4, -19565.666, -0.040529136, 0.11835718, -1347221.1, -25737.193, 0.0000008660051, 10.000163, 9.999153 
2.7500656e+2, 1.751555e+2, -1221752.3, -1320676.8, -17076.775, 0.052176222, 0.11997985, -1218887.4, 4604.622, 0.000000004874734, 10.000409, 9.9991045 
2.750083e+2, 1.8515551e+2, -1056864.0, -1115654.6, -36378.46, 0.052039135, 0.18453063, -1039488.8, 86003.41, 0.0, 10.000543, 9.999781 
2.7500883e+2, 1.9515586e+2, -956885.4, -1021047.2, -901.5505, -0.051811144, 0.20393643, -956872.7, 70613.34, 0.0, 10.00058, 9.999738 
2.750093e+2, 2.0515531e+2, -907652.9, -1044200.56, -36252.9, -0.08487166, 0.22618873, -898624.75, 30866.385, 0.0, 10.000649, 9.998881 
2.7500987e+2, 2.1515359e+2, -809661.7, -947341.06, 5634.5703, -0.053953405, 0.12866731, -809431.5, 22078.713, 0.0, 10.000659, 9.998865 
2.750107e+2, 2.251526e+2, -691919.9, -853254.1, 6045.921, -0.0096667, 0.15580589, -691693.6, 41827.586, 0.0, 10.000847, 9.99875 
2.7501175e+2, 2.3515214e+2, -552488.8, -741880.2, -5150.122, 0.036959913, 0.20021698, -552348.8, 83177.74, 0.0, 10.001153, 9.998698 
2.7501264e+2, 2.4515174e+2, -434801.25, -578929.06, -30183.592, 0.06505272, 0.2745077, -428735.44, 108794.96, 0.0, 10.001077, 9.999171 
2.7501333e+2, 2.5515115e+2, -410179.94, -526188.0, -17195.479, 0.06715224, 0.26183793, -407684.78, 31850.885, 0.0, 10.000594, 9.999099 
2.7501357e+2, 2.6514968e+2, -321449.94, -497100.56, -21671.129, 0.00078687095, 0.24401306, -318815.72, 22733.816, 0.0, 10.000824, 9.998506 
2.7501354e+2, 2.7514747e+2, -112098.984, -354229.97, -9112.112, -0.11429866, 0.1357732, -111756.555, 131815.05, 0.00000000009324417, 10.001626, 9.99843 
2.7501512e+2, 2.8514597e+2, -19038.475, -244144.22, -29040.889, -0.10409776, 0.14384782, -15352.272, 130233.87, 0.00000023612336, 10.001519, 9.998564 
2.7501705e+2, 2.9514462e+2, -79761.875, -214805.89, -46077.813, -0.054530106, 0.10260791, -65538.02, -17938.611, 0.0000024951785, 10.000363, 9.998661 
2.7501592e+2, 3.0514404e+2, -62239.04, -217820.94, -104236.61, -0.17504065, 0.19959168, -9965.762, -9965.762, 0.0000116764495, 10.000363, 9.998311 
2.7502036e+2, 3.1514126e+2, 104473.77, 73772.72, 32431.38, 0.25584102, 0.07965855, 125004.06, 125004.06, 0.000040637482, 10.000522, 10.0002365 
2.8500143e+2, 1.2515429e+2, -1549784.0, -1615659.9, 54920.79, -0.0341471, 0.05828412, -1518681.3, 194817.06, 0.00034670465, 10.000955, 10.000192 
2.850016e+2, 1.3515495e+2, -1618653.5, -1651391.4, -84558.37, -0.04274839, 0.12131206, -1548894.3, 66597.914, 0.00015383656, 10.000104, 9.99969 
2.8500438e+2, 1.4515525e+2, -1550366.4, -1577521.9, -46450.81, 0.20560344, 0.19334596, -1515549.5, 1940.4476, 0.00004093297, 9.9999275, 9.9995985 
2.850036e+2, 1.5515448e+2, -1353632.3, -1446114.8, -64425.9, 0.05004696, 0.1203286, -1320570.6, 98928.3, 0.0000066741927, 10.000668, 9.9994755 
2.8500447e+2, 1.6515397e+2, -1268175.4, -1387611.6, -8460.649, -0.0012045784, 0.14253919, -1267579.0, 53927.086, 0.00000074756446, 10.000735, 9.999173 
2.85007e+2, 1.7515351e+2, -1249163.9, -1336608.1, -18295.424, 0.07026754, 0.14796425, -1245490.4, -21976.818, 0.000000006090155, 10.000219, 9.999101 
2.8500885e+2, 1.8515345e+2, -1107775.9, -1116407.5, -2466.6155, 0.08564302, 0.19566247, -1107120.8, 18392.855, 0.0, 10.000094, 9.999987 
2.8501004e+2, 1.9515361e+2, -982931.0, -1012142.44, -27506.648, 0.03677499, 0.17660983, -966392.8, 61115.574, 0.0, 10.0003, 9.999934 
2.8501093e+2, 2.0515318e+2, -887001.2, -1006614.94, -68963.27, 0.015776642, 0.18819419, -855523.94, 73987.84, 0.0, 10.000692, 9.999108 
2.850115e+2, 2.1515194e+2, -722382.06, -880920.25, -98068.95, 0.027575774, 0.116926394, -675551.56, 155974.23, 0.0, 10.0011635, 9.999075 
2.8501225e+2, 2.2515114e+2, -632239.5, -824150.75, -69204.414, 0.045814496, 0.15326141, -609887.3, 123647.84, 0.0, 10.001269, 9.998739 
2.8501302e+2, 2.3515065e+2, -570096.7, -747915.1, -59409.89, 0.0670125, 0.19680433, -552074.2, 83467.05, 0.0, 10.0010395, 9.998703 
2.850138e+2, 2.4515016e+2, -438555.06, -597464.4, -35074.617, 0.07913781, 0.26705623, -431157.72, 106388.57, 0.0, 10.001101, 9.999034 
2.8501445e+2, 2.551495e+2, -297917.4, -482929.94, -55851.38, 0.08843314, 0.26153344, -282364.5, 157187.23, 0.0, 10.001419, 9.998991 
2.8501472e+2, 2.6514828e+2, -274697.13, -475622.97, -21277.832, 0.027323823, 0.26887438, -272468.56, 69095.13, 0.0, 10.00114, 9.9985075 
2.85015e+2, 2.7514628e+2, -309352.84, -448992.8, -23528.47, -0.054157805, 0.18283494, -305495.03, -61911.32, 0.0000000018932573, 10.000246, 9.998454 
2.8501636e+2, 2.851443e+2, -232788.75, -348552.53, 12709.662, -0.04695043, 0.13945073, -231409.78, -85807.2, 0.00000028816427, 10.000061, 9.99855 
2.8501785e+2, 2.9514208e+2, -18793.762, -176354.58, -1168.4532, -0.019009251, 0.018260894, -18785.098, 28837.324, 0.0000027347362, 10.000766, 9.998719 
2.8501704e+2, 3.0514255e+2, 74578.46, -154642.6, -42120.902, -0.1315959, 0.20967497, 82073.39, 82073.39, 0.000012525966, 10.001287, 9.998303 
2.850216e+2, 3.1513953e+2, 134306.83, 95741.15, -37076.586, 0.3403202, 0.0650058, 156815.14, 156815.14, 0.00004059471, 10.000688, 10.0003 
2.9500234e+2, 1.2515421e+2, -1539045.9, -1605899.3, -7721.4463, -0.12605295, 0.24237253, -1538165.6, 175338.77, 0.00028489743, 10.000993, 10.000244 
2.9500082e+2, 1.3515297e+2, -1631185.6, -1681445.1, -107948.83, -0.17304593, 0.12481579, -1545480.1, 70034.39, 0.000121053716, 10.00012, 9.9994755 
2.9500273e+2, 1.4515229e+2, -1560811.4, -1598703.5, -40887.125, 0.0007359097, 0.116730936, -1534694.0, -17172.85, 0.000029834508, 9.999913, 9.999465 
2.9500434e+2, 1.5515244e+2, -1367783.5, -1467767.0, -24499.822, 0.020722529, 0.14660025, -1362102.9, 57418.7, 0.000004731658, 10.000634, 9.999345 
2.950056e+2, 1.6515236e+2, -1264038.5, -1357162.0, -40909.68, 0.0064031947, 0.2094032, -1248619.6, 72903.98, 0.00000054097734, 10.000655, 9.999412 
2.950065e+2, 1.7515196e+2, -1241010.3, -1300636.1, -18659.13, -0.035217714, 0.19198878, -1235652.5, -12124.198, 0.0000000012704189, 10.000155, 9.999368 
2.9500845e+2, 1.8515126e+2, -1135489.5, -1156290.5, -10203.449, 0.0026570614, 0.17223637, -1131320.1, -5786.464, 0.0, 10.0000105, 9.99976 
2.9501134e+2, 1.9514997e+2, -1013789.44, -1053035.4, -5700.5723, 0.10285783, 0.033028193, -1012978.2, 14564.617, 0.0, 10.0002, 9.999702 
2.95013e+2, 2.0514949e+2, -932615.44, -1064351.0, -64785.418, 0.12694395, 0.06573724, -906094.25, 23453.807, 0.0, 10.000533, 9.998789 
2.950133e+2, 2.1514957e+2, -770891.25, -939919.94, -64235.94, 0.06432674, 0.1611513, -749250.4, 82301.11, 0.0, 10.000984, 9.998756 
2.950137e+2, 2.2514902e+2, -614413.5, -743074.5, -92840.766, 0.038328424, 0.20635419, -565793.5, 167764.2, 0.0, 10.001085, 9.999381 
2.9501417e+2, 2.3514773e+2, -551898.94, -668568.75, -51997.336, 0.045460455, 0.10493722, -532088.56, 103479.7, 0.0, 10.000866, 9.999329 
2.9501447e+2, 2.4514668e+2, -464359.66, -626863.75, -39194.6, 0.0054557654, 0.09660631, -455400.22, 82177.11, 0.0, 10.000994, 9.998887 
2.9501444e+2, 2.551457e+2, -327313.72, -516025.0, -31677.102, -0.090450875, 0.075862035, -322138.34, 117448.23, 0.0, 10.001294, 9.998831 
2.950148e+2, 2.6514527e+2, -266246.13, -438964.9, -67853.05, -0.11109171, 0.15606117, -242778.45, 98813.52, 0.0, 10.001062, 9.998793 
2.9501593e+2, 2.7514493e+2, -307639.72, -413181.7, -42897.555, -0.021312004, 0.20859891, -292403.5, -48806.215, 0.0000000016821552, 10.000113, 9.998762 
2.9501784e+2, 2.851435e+2, -206699.78, -288009.34, 23843.293, 0.06063026, 0.18325128, -200223.75, -54613.367, 0.00000022409213, 10.000029, 9.998986 
2.9501975e+2, 2.9514113e+2, -7964.7813, -142960.95, 52868.758, 0.046149556, 0.0062573487, 10275.673, 57905.605, 0.0000026534976, 10.000699, 9.998995 
2.9501882e+2, 3.0514213e+2, 16667.58, -257853.53, -64244.55, -0.1143267, 0.27932397, 30958.41, 30958.41, 0.00001292508, 10.001225, 9.997616 
2.9502076e+2, 3.1513804e+2, 101623.73, 48983.383, -13636.46, 0.105251305, 0.08429536, 104946.51, 104946.51, 0.000040888393, 10.000596, 10.00002 
3.0500305e+2, 1.2515296e+2, -1644083.4, -1665833.8, 56787.168, -0.10452411, 0.25089765, -1597139.5, 116378.67, 0.00023189843, 10.000324, 10.000162 
3.0500165e+2, 1.351517e+2, -1612809.4, -1682065.1, -100108.85, -0.09898136, 0.14361498, -1541508.8, 74019.15, 0.000094942065, 10.00028, 9.999399 
3.050028e+2, 1.4515048e+2, -1505504.8, -1577970.4, 50265.156, 0.008356313, 0.088935055, -1479774.6, 37764.71, 0.000021738364, 10.000346, 9.999384 
3.0500513e+2, 1.5515068e+2, -1342470.3, -1466972.9, 27489.098, 0.03766339, 0.13499472, -1336671.1, 82867.6, 0.0000030875526, 10.000859, 9.999236 
3.0500668e+2, 1.6515061e+2, -1209382.6, -1345976.6, -1234.794, 0.038593564, 0.20811951, -1209371.4, 112169.14, 0.0000002653173, 10.001065, 9.999298 
3.050074e+2, 1.7515013e+2, -1139936.6, -1264694.0, -36917.3, 0.011992883, 0.19365552, -1129830.9, 93715.54, 0.0, 10.000883, 9.999272 
3.050092e+2, 1.8514934e+2, -1040983.75, -1131777.3, 3099.666, 0.045297384, 0.17802842, -1040878.06, 84675.24, 0.0, 10.00075, 9.999572 
3.050119e+2, 1.9514793e+2, -971398.44, -1062657.5, -21413.645, 0.12568475, 0.048617583, -966623.6, 60940.934, 0.0, 10.0006, 9.999457 
3.0501375e+2, 2.0514739e+2, -874772.94, -1023141.75, -10576.363, 0.13816383, 0.08184996, -874022.8, 55547.688, 0.0, 10.000869, 9.998913 
3.050147e+2, 2.1514753e+2, -682320.8, -887933.06, -8638.067, 0.08762915, 0.17126904, -681958.56, 149613.95, 0.0, 10.001539, 9.998851 
3.0501524e+2, 2.251471e+2, -545200.56, -705846.94, -50844.754, 0.07050594, 0.22043401, -530460.6, 203116.69, 0.0, 10.001533, 9.99943 
3.0501541e+2, 2.3514597e+2, -548507.75, -663174.9, -82247.67, 0.094042495, 0.12927966, -505582.6, 130003.84, 0.0, 10.00086, 9.999377 
3.0501553e+2, 2.4514486e+2, -513422.66, -631432.7, -20282.023, 0.041654628, 0.1052889, -510034.16, 27561.752, 0.0, 10.000615, 9.999023 
3.050155e+2, 2.5514358e+2, -362328.9, -510994.34, -20485.762, -0.088208295, 0.040249024, -359557.7, 80049.9, 0.0, 10.00099, 9.998999 
3.050159e+2, 2.6514322e+2, -261778.48, -435532.44, -59298.938, -0.102558546, 0.12071895, -243470.05, 98141.98, 0.0, 10.001088, 9.998804 
3.0501696e+2, 2.7514344e+2, -176402.61, -346855.53, -83688.86, 0.036211442, 0.22537807, -142182.95, 101429.836, 0.00000000014964384, 10.001008, 9.998782 
3.0501905e+2, 2.8514233e+2, -62978.086, -177779.33, 27334.643, 0.14428051, 0.21287051, -56801.87, 88820.58, 0.00000013461268, 10.000859, 9.999336 
3.0502138e+2, 2.951402e+2, -11787.828, -103322.664, 22551.67, 0.15536843, 0.022416158, -6533.3457, 41105.063, 0.0000024184974, 10.00053, 9.999329 
3.0502048e+2, 3.05141e+2, -78707.15, -316632.3, -50176.11, -0.028560197, 0.26895902, -68558.4, -68558.4, 0.00001259153, 10.000602, 9.997538 
3.0502155e+2, 3.1513688e+2, 78857.44, 12513.368, -3784.4368, 0.1448063, 0.07898953, 79072.61, 79072.61, 0.000039642433, 10.00052, 9.999838 
3.150029e+2, 1.251507e+2, -1656359.4, -1688892.6, -8347.954, -0.2277385, 0.10780199, -1654342.4, 59195.145, 0.0001887222, 10.000322, 10.000001 
3.150035e+2, 1.3515136e+2, -1621126.8, -1679437.9, -92347.2, 0.026529988, 0.18860605, -1553441.9, 62088.418, 0.00007509751, 10.000219, 9.999441 
3.1500405e+2, 1.4514996e+2, -1523459.4, -1606272.1, 51082.08, 0.055103038, 0.123905346, -1499109.6, 18433.654, 0.00001598166, 10.000299, 9.999212 
3.1500554e+2, 1.5514919e+2, -1360002.3, -1496864.1, 61852.895, -0.04831894, 0.086293645, -1336191.3, 83359.54, 0.00000170519, 10.000834, 9.99904 
3.1500742e+2, 1.6514863e+2, -1248977.8, -1414483.5, -29821.684, -0.029066784, 0.14409527, -1243768.4, 77789.63, 0.000000057148895, 10.001, 9.998864 
3.1500927e+2, 1.75148e+2, -1177765.0, -1328350.3, -32907.74, 0.07881427, 0.15656403, -1170887.6, 52680.348, 0.0, 10.000819, 9.998866 
3.150105e+2, 1.8514773e+2, -1070242.4, -1166703.0, -17767.154, 0.07143966, 0.22367801, -1067073.9, 58498.043, 0.0, 10.000636, 9.999388 
3.1501117e+2, 1.9514754e+2, -996506.44, -1088973.5, -11475.078, -0.04094656, 0.22987907, -995103.7, 32469.398, 0.0, 10.000493, 9.999326 
3.1501272e+2, 2.05147e+2, -863958.0, -959766.94, -547.7684, -0.07585207, 0.2458008, -863954.9, 65622.78, 0.0, 10.000699, 9.99943 
3.1501523e+2, 2.1514593e+2, -673127.94, -825337.44, 31792.738, -0.042935897, 0.16352019, -666754.1, 164833.45, 0.0, 10.001357, 9.999367 
3.150164e+2, 2.2514549e+2, -598987.56, -783193.25, -90232.31, 0.0047156946, 0.20901005, -562153.2, 171439.34, 0.0, 10.001381, 9.998977 
3.1501624e+2, 2.3514545e+2, -603047.8, -739340.44, -91571.03, 0.064530365, 0.27491966, -557048.7, 78546.09, 0.0, 10.000699, 9.998938 
3.1501654e+2, 2.4514464e+2, -498950.6, -584647.4, -20319.703, 0.04548934, 0.28510982, -494376.7, 43225.477, 0.0, 10.000536, 9.999385 
3.1501716e+2, 2.5514302e+2, -358923.44, -469851.06, 5791.3584, -0.050346106, 0.14810733, -358621.9, 80993.78, 0.0, 10.000838, 9.999357 
3.1501755e+2, 2.6514217e+2, -286743.0, -469957.75, -76973.59, -0.076845996, 0.1738843, -258697.34, 82926.34, 0.0, 10.001014, 9.998605 
3.1501776e+2, 2.7514175e+2, -205451.73, -385367.78, -71319.44, -0.019896664, 0.23355512, -180610.33, 63020.215, 0.00000000001473293, 10.000906, 9.998571 
3.1501943e+2, 2.8514063e+2, -54837.66, -146522.53, -207.25171, 0.06525308, 0.22004229, -54837.19, 90802.54, 0.000000108201135, 10.000801, 9.999574 
3.15022e+2, 2.9513896e+2, -15194.585, -84375.4, 29812.555, 0.12312362, 0.050277572, -4120.075, 43530.793, 0.0000023186144, 10.00041, 9.99952 
3.1502146e+2, 3.0513892e+2, -37068.41, -221136.5, -60232.13, -0.022081323, 0.17189576, -19110.752, -19110.752, 0.000012381474, 10.000562, 9.99821 
3.1502327e+2, 3.151358e+2, 78104.59, 19255.785, 53542.098, 0.19118905, 0.005723102, 109774.805, 109774.805, 0.000038038284, 10.000478, 9.999905 
3.2500333e+2, 1.2514918e+2, -1850444.8, -1804444.6, 6394.316, -0.14013846, 0.08574922, -1803572.4, -90020.73, 0.0001575099, 9.999054, 9.9998255 
3.2500517e+2, 1.3515003e+2, -1431023.4, -1583114.8, -107974.625, 0.12468793, 0.17628354, -1375002.9, 240539.75, 0.00006189271, 10.001465, 9.999514 
3.2500556e+2, 1.4514865e+2, -1288758.4, -1525502.3, 30543.967, 0.09778797, 0.12248916, -1284881.3, 232674.7, 0.000012633238, 10.00203, 9.998948 
3.2500717e+2, 1.5514773e+2, -1314445.4, -1501932.5, 6226.478, 0.021029782, 0.0984423, -1314238.8, 105326.195, 0.0000008198343, 10.001246, 9.9988165 
3.25009e+2, 1.6514698e+2, -1275903.4, -1438803.6, -37246.563, 0.044517826, 0.15284203, -1267791.1, 53783.527, 0.000000004124255, 10.000902, 9.99873 
3.2501057e+2, 1.751461e+2, -1162897.5, -1341083.4, -55393.508, 0.124853045, 0.15924962, -1147081.0, 76506.35, 0.0, 10.001019, 9.99868 
3.2501152e+2, 1.8514588e+2, -1002612.4, -1137336.3, -770.5508, 0.09724348, 0.24230951, -1002608.0, 122983.33, 0.0, 10.001119, 9.99935 
3.2501206e+2, 1.9514613e+2, -909045.1, -1045997.25, -18374.045, -0.021633374, 0.29556754, -906622.8, 120965.69, 0.0, 10.001112, 9.99931 
3.2501358e+2, 2.0514554e+2, -836480.94, -937818.56, 12063.026, -0.057926264, 0.29844287, -835064.75, 94528.56, 0.0, 10.000827, 9.999525 
3.250161e+2, 2.1514392e+2, -845591.2, -896822.8, -13697.885, -0.021003196, 0.15137812, -842158.75, -10551.381, 0.0, 10.000115, 9.999477 
3.2501727e+2, 2.2514339e+2, -763477.7, -853743.75, -95524.32, 0.01981732, 0.1785378, -702960.94, 30651.863, 0.0, 10.00022, 9.999043 
3.2501712e+2, 2.3514365e+2, -534222.94, -697431.94, -86586.58, 0.06941643, 0.26442572, -496846.22, 138766.14, 0.0, 10.00114, 9.999002 
3.2501754e+2, 2.4514315e+2, -432532.84, -566529.3, -1355.903, 0.07858059, 0.30585018, -432519.13, 105098.37, 0.0, 10.001027, 9.999286 
3.250185e+2, 2.5514176e+2, -479622.0, -537713.4, -30410.44, 0.050099064, 0.20427541, -466614.78, -26985.553, 0.0, 10.000023, 9.999291 
3.2501888e+2, 2.651408e+2, -427388.63, -528578.56, -59579.105, 0.015672652, 0.2132067, -399820.2, -58181.96, 0.0, 10.000007, 9.9986925 
3.2501885e+2, 2.751398e+2, -190459.28, -365957.44, -62223.438, 0.0051964656, 0.20929103, -170636.72, 73011.62, 0.00000000010851988, 10.000962, 9.998675 
3.2502025e+2, 2.851385e+2, -81672.305, -224447.9, -22669.87, 0.07655805, 0.20000412, -78159.23, 67500.984, 0.00000014604628, 10.000877, 9.999015 
3.2502276e+2, 2.9513696e+2, -140896.58, -200924.13, -78903.59, 0.20239386, 0.09935065, -86491.13, -38818.23, 0.0000023415487, 9.9997835, 9.999025 
3.2502213e+2, 3.051369e+2, -31634.496, -139183.98, -104510.6, 0.018060481, 0.20720123, 32124.535, 32124.535, 0.000012312151, 10.000305, 9.99887 
3.250251e+2, 3.1513456e+2, 281053.88, 98810.29, -66300.13, 0.2674693, 0.049472332, 302621.44, 302621.44, 0.000036624067, 10.002006, 9.999683 
3.3500323e+2, 1.2514836e+2, -1876052.8, -1836018.5, 8645.461, -0.12938611, 0.19374964, -1834231.4, -120670.54, 0.00013854062, 9.99898, 9.999636 
3.350062e+2, 1.3514785e+2, -1430302.8, -1562318.5, -15961.124, 0.042628374, 0.13366766, -1428400.5, 187163.23, 0.000055370125, 10.001413, 9.999662 
3.3500686e+2, 1.4514661e+2, -1313865.0, -1563741.3, -21234.547, -0.015301753, 0.0982179, -1312073.4, 205502.88, 0.000011804474, 10.00197, 9.998714 
3.350096e+2, 1.5514658e+2, -1330126.1, -1525270.4, -7626.868, 0.10171779, 0.18503118, -1329828.5, 89750.29, 0.00000057438905, 10.00121, 9.9986725 
3.3501095e+2, 1.6514589e+2, -1282091.1, -1439108.9, -47586.7, 0.11546715, 0.24682598, -1268795.1, 52793.04, 0.00000000201948, 10.000843, 9.998759 
3.3501083e+2, 1.7514437e+2, -1167302.5, -1343220.9, -33854.227, 0.009954913, 0.18782863, -1161012.4, 62592.81, 0.0, 10.000983, 9.998685 
3.3501187e+2, 1.8514368e+2, -1019254.06, -1140491.1, -18576.014, -0.016579848, 0.22121061, -1016471.7, 109140.76, 0.0, 10.000984, 9.999394 
3.3501413e+2, 1.9514352e+2, -921336.3, -1045771.3, -5017.3535, 0.04305525, 0.22894566, -921134.3, 106478.44, 0.0, 10.001003, 9.999363 
3.350158e+2, 2.0514284e+2, -879596.1, -988002.06, -30308.041, 0.05715591, 0.23456375, -871698.06, 57920.805, 0.0, 10.000664, 9.999258 
3.3501685e+2, 2.1514139e+2, -889947.3, -943964.06, -24601.799, 0.015980383, 0.12819856, -880422.1, -48789.39, 0.0, 9.999926, 9.999246 
3.350174e+2, 2.2514068e+2, -751263.56, -786807.7, -76228.43, -0.012750291, 0.1225139, -690762.94, 42876.117, 0.0, 10.000047, 9.999583 
3.3501765e+2, 2.351405e+2, -525141.8, -630410.44, -41264.29, -0.021073129, 0.11076445, -510894.78, 124744.95, 0.0, 10.000941, 9.999555 
3.3501825e+2, 2.4514031e+2, -471983.22, -630899.75, -54106.145, 0.01490941, 0.17711063, -455310.9, 82331.09, 0.0, 10.000944, 9.998884 
3.3501914e+2, 2.5513995e+2, -528981.6, -606896.6, -53825.508, 0.080306426, 0.2121136, -501494.6, -61846.89, 0.0, 9.999882, 9.998882 
3.350196e+2, 2.6513916e+2, -414761.8, -486970.63, -39139.977, 0.057398103, 0.24548943, -397617.13, -55962.53, 0.0, 9.999945, 9.999004 
3.350197e+2, 2.751376e+2, -189929.52, -332120.13, -12391.928, -0.03924088, 0.15300708, -188857.64, 54808.9, 0.000000000044508567, 10.000824, 9.998972 
3.3502117e+2, 2.8513595e+2, -170260.55, -402289.75, -78658.664, 0.04380119, 0.15405619, -146108.9, -425.64124, 0.00000018851506, 10.000837, 9.997817 
3.3502325e+2, 2.951344e+2, -232461.14, -381045.75, -99039.23, 0.23051497, 0.1731092, -182946.69, -135243.81, 0.0000023038672, 9.999722, 9.9978285 
3.3502206e+2, 3.0513477e+2, -6505.831, -79193.65, -47922.645, -0.049770705, 0.36321893, 17295.58, 17295.58, 0.000011796056, 10.000277, 9.999294 
3.3502603e+2, 3.1513283e+2, 215551.25, -7708.1587, 11612.666, 0.087102786, 0.2078593, 216153.66, 216153.66, 0.000034748333, 10.001868, 9.999028 
3.4500417e+2, 1.251463e+2, -1658787.6, -1733008.3, 30382.63, 0.010187447, 0.21012944, -1647936.8, 65644.805, 0.00012841672, 10.0004835, 9.999618 
3.450077e+2, 1.3514552e+2, -1472510.3, -1577164.3, -13041.851, 0.08532007, 0.1131585, -1470909.4, 144677.06, 0.00005393956, 10.001071, 9.999748 
3.4500837e+2, 1.451446e+2, -1426714.1, -1596263.1, -33148.176, -0.0063608154, 0.09826024, -1420463.9, 97132.16, 0.00001321429, 10.001121, 9.998887 
3.450106e+2, 1.5514478e+2, -1365370.6, -1529658.0, -37766.484, 0.10812872, 0.19088261, -1357104.8, 62493.176, 0.00000089811203, 10.000925, 9.998773 
3.4501195e+2, 1.6514426e+2, -1234902.6, -1380967.8, -878.8861, 0.13500212, 0.25205326, -1234897.3, 86707.06, 0.0000000015154811, 10.000992, 9.999094 
3.4501222e+2, 1.7514302e+2, -1108343.0, -1274585.5, 10332.083, 0.04802775, 0.18364541, -1107703.4, 115912.664, 0.0, 10.001216, 9.999044 
3.4501323e+2, 1.8514206e+2, -1031910.3, -1183098.3, 37099.44, 0.027956245, 0.18867116, -1023297.25, 102328.01, 0.0, 10.001046, 9.999079 
3.450152e+2, 1.9514102e+2, -1026141.94, -1135006.9, -3944.3137, 0.086419605, 0.14173505, -1025999.2, 1636.5863, 0.0, 10.000435, 9.999034 
3.4501657e+2, 2.0514046e+2, -935765.75, -997501.2, -1082.5925, 0.09727875, 0.16908447, -935746.75, -6105.3296, 0.0, 10.000208, 9.999407 
3.4501728e+2, 2.1514009e+2, -828199.0, -899403.3, 2766.696, 0.056020718, 0.15688793, -828091.7, 3553.1082, 0.0, 10.000287, 9.9993725 
3.450179e+2, 2.2513962e+2, -729723.06, -769933.4, -3112.4858, 0.03402221, 0.16351254, -729483.56, 4165.0396, 0.0, 10.000158, 9.999655 
3.4501857e+2, 2.3513882e+2, -683449.8, -699759.94, -30901.033, 0.043670375, 0.08396794, -659645.9, -23991.037, 0.0, 9.999808, 9.999635 
3.450192e+2, 2.4513839e+2, -615665.75, -711056.0, -39092.45, 0.067589745, 0.1267353, -601692.06, -64032.582, 0.0, 10.000018, 9.998776 
3.450196e+2, 2.55138e+2, -403142.63, -565540.44, -48379.74, 0.10237713, 0.17675373, -389822.4, 49843.215, 0.0, 10.000816, 9.998725 
3.4502015e+2, 2.651372e+2, -284935.47, -428290.78, 1011.2694, 0.07964408, 0.22129886, -284928.34, 56744.4, 0.0, 10.000866, 9.9989605 
3.450208e+2, 2.7513573e+2, -278344.3, -376804.75, -30028.252, 0.027231565, 0.14015463, -269909.03, -26225.031, 0.0, 10.000242, 9.998943 
3.4502238e+2, 2.8513384e+2, -258159.1, -458968.66, -50208.066, 0.116080776, 0.12801012, -246305.38, -100602.57, 0.00000016974016, 10.000327, 9.997658 
3.4502426e+2, 2.951318e+2, -29877.486, -300718.84, -22548.904, 0.29340956, 0.11610103, -28013.012, 19714.168, 0.0000020169734, 10.0012045, 9.997658 
3.450228e+2, 3.0513227e+2, 107741.78, -46117.098, 94214.83, -0.033454765, 0.33165956, 152445.28, 152445.28, 0.0000103175025, 10.001125, 9.999128 
3.4502736e+2, 3.1513035e+2, -133604.23, -203495.22, 26431.78, 0.16263558, 0.1905428, -124733.91, -124733.91, 0.000031962787, 9.999573, 9.998786 
3.550052e+2, 1.2514289e+2, -1659388.3, -1724156.5, -47994.72, -0.018026413, 0.12755994, -1633874.0, 79740.836, 0.00012227354, 10.00044, 9.999698 
3.5500923e+2, 1.3514298e+2, -1458553.3, -1548577.4, 22343.592, 0.09277302, 0.10928298, -1453312.8, 162298.33, 0.00005490219, 10.001088, 9.999928 
3.550096e+2, 1.4514276e+2, -1401551.9, -1544888.5, -58436.043, -0.045490745, 0.13227017, -1380747.9, 136865.78, 0.000015641235, 10.001116, 9.99925 
3.5500982e+2, 1.5514217e+2, -1343308.9, -1490419.0, -30148.783, -0.106513515, 0.12004805, -1337370.0, 82253.3, 0.0000017221555, 10.000944, 9.99904 
3.5501152e+2, 1.6514203e+2, -1194031.6, -1275261.5, -10754.439, -0.04431812, 0.16717009, -1192632.0, 128992.3, 0.000000007086625, 10.000904, 9.999858 
3.550142e+2, 1.751421e+2, -1062291.9, -1165685.8, 34104.863, 0.09205098, 0.15028705, -1052055.8, 171563.63, 0.0, 10.001157, 9.99982 
3.5501516e+2, 1.8514107e+2, -1100382.6, -1294324.9, 2145.0813, 0.08596967, 0.14463405, -1100358.9, 25270.564, 0.0, 10.000916, 9.998378 
3.5501483e+2, 1.9513883e+2, -1091262.4, -1242327.8, -10286.039, -0.02749926, 0.047701374, -1090565.3, -62909.453, 0.0, 10.000315, 9.998355 
3.550155e+2, 2.0513861e+2, -925359.6, -938478.5, -12625.562, -0.05927276, 0.11889315, -917691.25, 11967.984, 0.0, 10.000044, 9.999894 
3.5501704e+2, 2.1514007e+2, -818322.7, -841686.4, 21028.516, -0.026182674, 0.24156739, -805949.06, 25694.12, 0.0, 10.000123, 9.99985 
3.5501835e+2, 2.251402e+2, -778916.0, -835353.5, -28207.822, 0.035266746, 0.30386084, -767235.1, -33593.637, 0.0, 10.000004, 9.999277 
3.5501948e+2, 2.3513874e+2, -736756.2, -768826.8, -28627.389, 0.124410346, 0.19725955, -719979.06, -84323.086, 0.0, 9.999633, 9.999244 
3.550198e+2, 2.4513744e+2, -630115.3, -708877.2, -21234.215, 0.10088682, 0.16736759, -624755.3, -87086.44, 0.0, 9.9998865, 9.998851 
3.5501948e+2, 2.5513598e+2, -420830.28, -567027.5, -3946.678, -0.027507165, 0.10156207, -420723.8, 18959.166, 0.0, 10.000672, 9.998781 
3.5502008e+2, 2.6513505e+2, -319381.78, -485956.66, -35469.285, -0.04362709, 0.14635189, -312143.72, 29548.229, 0.0, 10.000801, 9.998597 
3.5502166e+2, 2.7513427e+2, -320359.47, -441093.8, -35008.047, 0.056587566, 0.17452294, -310942.97, -67243.55, 0.0, 10.000139, 9.998552 
3.5502347e+2, 2.8513214e+2, -210355.13, -348637.1, -29812.49, 0.15735745, 0.11850734, -204201.63, -58482.51, 0.00000011654808, 10.000281, 9.998438 
3.550252e+2, 2.95129e+2, 7189.529, -200115.92, 31058.414, 0.22345969, -0.08470228, 11742.685, 59490.26, 0.0000016052002, 10.001107, 9.998396 
3.5502383e+2, 3.0512926e+2, 74160.06, -119303.625, 29379.922, -0.07421448, 0.10383563, 78523.37, 78523.37, 0.000008325357, 10.001127, 9.9986315 
3.550279e+2, 3.1512806e+2, -137736.6, -193614.33, -39589.387, 0.18276572, 0.079489075, -117220.33, -117220.33, 0.000028551576, 9.999482, 9.998905 
3.6500707e+2, 1.2514113e+2, -1607423.4, -1702702.0, 43108.016, 0.12455163, 0.103061534, -1590814.6, 122817.35, 0.000118926524, 10.000797, 9.999685 
3.650101e+2, 1.3514113e+2, -1450881.9, -1561801.5, 74462.99, 0.08287361, 0.09442843, -1413494.9, 202134.34, 0.000056465244, 10.001214, 9.999777 
3.6501098e+2, 1.4514117e+2, -1394412.4, -1515976.1, -18167.7, -0.00249216, 0.13816229, -1391755.4, 125873.52, 0.00001794202, 10.001044, 9.99949 
3.6501065e+2, 1.5514064e+2, -1401386.4, -1487461.1, -25388.63, -0.07900812, 0.105986334, -1394455.8, 25181.098, 0.000002788093, 10.000412, 9.999321 
3.6501226e+2, 1.6514057e+2, -1281170.8, -1303165.3, 30640.232, -0.017942917, 0.14110641, -1259614.0, 62022.96, 0.00000008230677, 10.000254, 9.999979 
3.6501515e+2, 1.7514075e+2, -1154861.0, -1193931.8, -11807.426, 0.11568897, 0.125017, -1151569.9, 72061.34, 0.0, 10.000461, 9.999956 
3.650161e+2, 1.8513998e+2, -1126855.5, -1294545.4, -25645.367, 0.109625235, 0.13401987, -1123021.1, 2617.578, 0.0, 10.000685, 9.998487 
3.6501557e+2, 1.951381e+2, -1007892.94, -1189300.4, -4963.926, -0.002697392, 0.062259935, -1007757.25, 19903.992, 0.0, 10.000838, 9.9984665 
3.6501622e+2, 2.0513777e+2, -809084.9, -885440.06, 41366.133, -0.0199717, 0.11761328, -790971.4, 138693.78, 0.0, 10.000849, 9.999876 
3.6501807e+2, 2.1513866e+2, -741302.5, -805803.6, 4617.4097, 0.04738819, 0.18244816, -740973.6, 90680.42, 0.0, 10.000655, 9.999844 
3.6501923e+2, 2.2513865e+2, -723055.6, -835022.06, -35380.56, 0.10702776, 0.24490641, -712812.7, 20841.123, 0.0, 10.000501, 9.9990425 
3.6501986e+2, 2.3513757e+2, -645375.2, -750088.3, -53192.33, 0.1738879, 0.1984509, -623095.06, 12571.231, 0.0, 10.00037, 9.999017 
3.6502036e+2, 2.451362e+2, -549051.4, -671276.75, 14230.577, 0.14952411, 0.17438653, -547416.4, -9736.335, 0.0, 10.000426, 9.998865 
3.6502072e+2, 2.551344e+2, -425591.4, -559951.5, 258.02032, 0.042850208, 0.07281744, -425590.94, 14105.74, 0.0, 10.000603, 9.998864 
3.650215e+2, 2.651336e+2, -344361.38, -517094.88, -26808.12, 0.02942643, 0.12939332, -340296.44, 1409.3643, 0.0, 10.000724, 9.99841 
3.6502278e+2, 2.7513316e+2, -232389.75, -417104.0, -42398.81, 0.12570746, 0.2145577, -223122.58, 20589.758, 0.0, 10.00083, 9.99838 
3.6502442e+2, 2.8513137e+2, -110481.98, -247416.36, 14911.487, 0.21316704, 0.17653891, -108877.0, 36851.508, 0.000000055764154, 10.000714, 9.998939 
3.6502624e+2, 2.9512858e+2, -74746.56, -185993.5, 25329.326, 0.26931944, -0.044310156, -69250.92, -21499.92, 0.0000011855267, 10.000311, 9.998878 
3.6502528e+2, 3.0512816e+2, -34389.758, -179937.11, 31488.133, 0.003120868, 0.05312248, -27869.611, -27869.611, 0.0000067298934, 10.000445, 9.99853 
3.6502823e+2, 3.1512743e+2, 76642.27, -39636.508, -100814.016, 0.21752255, 0.08850699, 134880.1, 134880.1, 0.00002565761, 10.000762, 9.999342 
3.7500855e+2, 1.2514126e+2, -1610048.5, -1707938.4, -8061.0063, 0.11407393, 0.18700188, -1609389.1, 104241.74, 0.0001191897, 10.000792, 9.999645 
3.750099e+2, 1.3513996e+2, -1477068.6, -1616709.8, 99132.75, -0.10113554, 0.07781152, -1425636.5, 190004.77, 0.00005856906, 10.001215, 9.999393 
3.750121e+2, 1.4513986e+2, -1391263.4, -1489373.0, -62075.875, -0.040546026, 0.114481695, -1361199.4, 156442.06, 0.000020069963, 10.000962, 9.999711 
3.750127e+2, 1.5514015e+2, -1382273.8, -1451289.8, -31021.055, 0.043854512, 0.14318277, -1370380.1, 49258.867, 0.0000038584762, 10.0004225, 9.999567 
3.7501377e+2, 1.6513987e+2, -1331681.6, -1393321.5, 24782.02, 0.07220124, 0.1734631, -1322953.9, -1311.5803, 0.00000020238203, 10.000192, 9.999388 
3.750146e+2, 1.7513904e+2, -1205381.3, -1288917.9, 11919.838, -0.018131029, 0.11735207, -1203713.6, 19937.348, 0.0, 10.000411, 9.9993305 
3.750156e+2, 1.8513878e+2, -1076787.5, -1161604.8, -33916.285, -0.041319005, 0.15773496, -1064893.1, 60760.344, 0.0, 10.000561, 9.999457 
3.7501693e+2, 1.9513875e+2, -959181.75, -1058671.0, 17282.518, 0.020347856, 0.17253053, -956265.06, 71388.086, 0.0, 10.000714, 9.99942 
3.7501836e+2, 2.0513783e+2, -870359.4, -977524.2, 20373.473, 0.08253177, 0.1515291, -866616.8, 63043.56, 0.0, 10.000695, 9.99932 
3.7501985e+2, 2.1513584e+2, -807158.56, -897465.7, 11046.591, 0.12955074, -0.013497043, -805827.0, 25850.117, 0.0, 10.0004635, 9.999306 
3.7502012e+2, 2.2513504e+2, -752612.5, -860579.8, -57439.715, 0.12026854, 0.000047056878, -727770.06, 5915.126, 0.0, 10.000338, 9.998949 
3.7501934e+2, 2.3513511e+2, -672861.56, -774916.44, -44549.152, 0.055667337, 0.07594132, -656151.06, -20463.693, 0.0, 10.00022, 9.998922 
3.7502038e+2, 2.4513464e+2, -561994.25, -672976.75, 7228.6904, 0.08102298, 0.14426269, -561525.44, -23831.908, 0.0, 10.000318, 9.998906 
3.750229e+2, 2.551334e+2, -445328.7, -569829.75, 22832.986, 0.16738792, 0.09365612, -441273.3, -1567.1187, 0.0, 10.0004635, 9.998866 
3.750239e+2, 2.651327e+2, -355839.44, -523964.34, -35716.086, 0.16586074, 0.1670064, -348566.6, -6851.1704, 0.0, 10.000649, 9.9984 
3.7502357e+2, 2.751322e+2, -243947.83, -420922.84, -21331.07, 0.08772475, 0.2460297, -241413.06, 2311.3247, 0.0, 10.000738, 9.998401 
3.7502468e+2, 2.8513157e+2, -91680.5, -199561.06, -12706.258, 0.13497414, 0.30033728, -90204.15, 55527.11, 0.00000003400916, 10.000672, 9.9992895 
3.7502685e+2, 2.9513067e+2, -71888.38, -158433.9, 28933.146, 0.25738662, 0.24130748, -63106.758, -15370.137, 0.000000899484, 10.000207, 9.999123 
3.7502646e+2, 3.0512884e+2, -28937.1, -152921.77, 39526.52, 0.049439855, 0.18370837, -17408.041, -17408.041, 0.000005766145, 10.000386, 9.998742 
3.7502736e+2, 3.151279e+2, 99800.74, 30641.69, -63422.613, -0.019935811, 0.16566834, 137458.13, 137458.13, 0.000023929499, 10.000667, 9.999872 
3.8501096e+2, 1.2514065e+2, -1222775.0, -1527137.3, -16380.802, 0.15336433, 0.22724904, -1221895.9, 491742.1, 0.00012316402, 10.003492, 9.999582 
3.8501072e+2, 1.3513921e+2, -1525038.9, -1673821.1, 29135.791, -0.11772309, 0.13210976, -1519536.8, 96114.18, 0.000061385945, 10.001017, 9.999108 
3.850136e+2, 1.4513879e+2, -1469116.3, -1485092.1, -40942.92, 0.06437479, 0.1324888, -1435389.4, 82264.03, 0.000022093489, 10.0002575, 10.000072 
3.850137e+2, 1.5513928e+2, -1238586.6, -1339539.5, -46342.145, 0.07300582, 0.14331809, -1220539.5, 199106.56, 0.000004863891, 10.001244, 9.999927 
3.8501453e+2, 1.651389e+2, -1202724.4, -1370050.5, 30106.043, 0.08608138, 0.16307917, -1197472.5, 124177.51, 0.00000029520132, 10.001221, 9.999067 
3.8501537e+2, 1.7513779e+2, -1258650.5, -1346491.6, 16363.815, 0.03576546, 0.10757868, -1255701.1, -32037.662, 0.0, 10.000171, 9.999058 
3.8501647e+2, 1.8513766e+2, -1126421.0, -1130727.3, 25133.064, 0.027306752, 0.14959462, -1103349.0, 22315.31, 0.0, 9.999972, 9.999956 
3.8501817e+2, 1.9513805e+2, -951045.3, -1004798.25, 7235.4243, 0.08883982, 0.15559681, -950088.44, 77569.04, 0.0, 10.000534, 9.999884 
3.850196e+2, 2.0513716e+2, -897253.5, -1020284.06, 11360.953, 0.14408576, 0.1283789, -896213.2, 33450.688, 0.0, 10.000641, 9.999052 
3.8502067e+2, 2.1513489e+2, -852394.2, -953421.6, -1793.7876, 0.18378444, -0.038832497, -852362.3, -20677.502, 0.0, 10.000286, 9.999016 
3.8502085e+2, 2.2513382e+2, -730556.1, -875671.56, -4930.816, 0.15429386, -0.025376733, -730388.75, 3307.5322, 0.0, 10.000607, 9.998708 
3.8502026e+2, 2.3513371e+2, -488000.1, -708919.0, -34379.79, 0.06201996, 0.05517593, -482773.5, 152927.13, 0.0, 10.001604, 9.998699 
3.850214e+2, 2.4513339e+2, -409277.44, -608895.44, -3111.1519, 0.10313359, 0.15173258, -409228.97, 128477.24, 0.0, 10.001428, 9.99879 
3.8502404e+2, 2.551325e+2, -496950.84, -613462.4, -30177.457, 0.2601515, 0.14884233, -489598.56, -49882.047, 0.0, 10.000185, 9.998696 
3.8502505e+2, 2.6513153e+2, -439799.03, -533469.56, -16678.035, 0.26079494, 0.19194618, -436918.1, -95190.49, 0.0, 9.999929, 9.998691 
3.8502464e+2, 2.7513042e+2, -239690.4, -383764.3, -10501.275, 0.13664791, 0.17474286, -238929.0, 4811.578, 0.0, 10.000618, 9.998714 
3.8502538e+2, 2.8513014e+2, -86476.35, -223444.75, -11420.632, 0.14005682, 0.263311, -85530.61, 60213.74, 0.000000026095549, 10.000829, 9.999045 
3.8502696e+2, 2.9513043e+2, -40245.78, -166859.56, -41306.188, 0.23855594, 0.34386697, -27961.91, 19779.842, 0.00000066980994, 10.000534, 9.998903 
3.850275e+2, 3.0512816e+2, -19476.605, -136803.94, 3459.4812, 0.127928, 0.24475288, -19374.69, -19374.69, 0.000005131084, 10.000393, 9.998849 
3.85028e+2, 3.151275e+2, 21593.904, 5808.44, -167744.31, 0.028699296, 0.24380113, 181631.06, 181631.06, 0.000023471404, 10.00008, 9.999979 
3.9501354e+2, 1.2513958e+2, -1255527.0, -1563249.0, -119985.12, -0.012354461, 0.23424709, -1214273.6, 499377.28, 0.0001272644, 10.003394, 9.999375 
3.9501214e+2, 1.3513897e+2, -1551757.5, -1709945.1, -47853.066, -0.108393736, 0.2496733, -1538408.1, 77249.164, 0.00006380605, 10.000964, 9.998879 
3.9501515e+2, 1.4513804e+2, -1456482.8, -1445743.3, -22231.969, 0.14604832, 0.19741954, -1428241.8, 89422.055, 0.000023677207, 10.000186, 10.000381 
3.9501312e+2, 1.5513793e+2, -1215600.1, -1291291.8, 4464.7266, -0.15062216, 0.1096167, -1215337.6, 204321.72, 0.000005569423, 10.001234, 10.000263 
3.950141e+2, 1.6513751e+2, -1206264.3, -1357233.4, -28704.84, -0.11309982, 0.10283171, -1200990.6, 120670.92, 0.00000035120044, 10.001142, 9.999192 
3.95017e+2, 1.751369e+2, -1262670.0, -1331791.8, -6323.44, 0.14859, 0.087505385, -1262096.4, -38427.145, 0.0, 10.000079, 9.999203 
3.950184e+2, 1.8513653e+2, -1145440.5, -1141076.6, 32086.621, 0.19085313, 0.09876956, -1111097.8, 14574.229, 0.0, 9.999842, 9.999951 
3.9501873e+2, 1.951361e+2, -969809.75, -1009416.06, 41814.02, 0.061889946, 0.026122645, -943346.5, 84326.84, 0.0, 10.000391, 9.999919 
3.950194e+2, 2.051359e+2, -916484.6, -1019198.94, -17599.203, 0.035292625, 0.060650144, -913552.9, 16121.694, 0.0, 10.000466, 9.999144 
3.9502013e+2, 2.1513574e+2, -876793.7, -953733.0, 3201.4822, 0.075224556, 0.09697164, -876660.7, -44983.21, 0.0, 10.000077, 9.99911 
3.9502105e+2, 2.2513498e+2, -779223.3, -939933.0, 20975.717, 0.0843405, 0.15475035, -776530.7, -42843.477, 0.0, 10.000445, 9.998347 
3.9502212e+2, 2.3513336e+2, -537330.94, -772958.75, 19594.879, 0.0580543, 0.12374128, -535712.56, 99993.75, 0.0, 10.001439, 9.998339 
3.9502302e+2, 2.4513239e+2, -445500.88, -659192.0, -63509.684, 0.09036238, 0.18901013, -428050.63, 109668.27, 0.0, 10.001317, 9.998506 
3.950237e+2, 2.5513172e+2, -532196.9, -657981.1, -60443.4, 0.17386246, 0.23710544, -507860.44, -68132.15, 0.0, 10.000056, 9.998458 
3.9502454e+2, 2.6513025e+2, -408874.6, -452678.5, -4021.9902, 0.18735006, 0.20844677, -408508.38, -66766.625, 0.0, 9.999853, 9.999287 
3.9502552e+2, 2.7512777e+2, -216154.97, -313064.56, 31271.0, 0.1285187, 0.001991756, -206940.52, 36820.57, 0.0, 10.000512, 9.999257 
3.950261e+2, 2.8512707e+2, -153422.63, -339992.72, -36100.62, 0.09447616, 0.06136886, -146680.9, -912.48035, 0.000000010243951, 10.000747, 9.99828 
3.95026e+2, 2.9512784e+2, -110368.25, -275802.2, -31770.58, 0.053538162, 0.26910737, -104476.72, -56710.32, 0.0000005130985, 10.000389, 9.998222 
3.9502797e+2, 3.0512598e+2, -17565.19, -129463.805, -15811.194, 0.10369693, 0.2397592, -15373.986, -15373.986, 0.0000059963604, 10.000373, 9.998911 
3.9502934e+2, 3.1512582e+2, -15842.819, -43980.676, -117954.055, 0.08275385, 0.29319873, 88878.38, 88878.38, 0.000027747768, 9.999966, 9.999691 
4.0501618e+2, 1.2513857e+2, -1571413.3, -1717661.0, -8377.943, 0.044360623, 0.16313048, -1570934.9, 142725.03, 0.0001282802, 10.001196, 9.999387 
4.0501297e+2, 1.3513881e+2, -1567783.5, -1708044.8, -35784.17, -0.09758033, 0.24892516, -1559181.6, 56476.063, 0.00006493345, 10.000796, 9.998977 
4.0501633e+2, 1.4513767e+2, -1423221.6, -1482760.8, 95384.195, 0.237997, 0.19430672, -1353069.4, 164597.17, 0.00002457309, 10.000637, 9.999913 
4.050144e+2, 1.5513687e+2, -1315108.1, -1391936.4, 27183.814, -0.11165605, 0.0859313, -1306462.6, 113207.055, 0.000005781208, 10.000762, 9.999808 
4.0501532e+2, 1.651363e+2, -1250215.3, -1360867.0, -41120.824, -0.075644575, 0.077355936, -1236607.3, 85066.28, 0.0000003430959, 10.000767, 9.999341 
4.0501785e+2, 1.7513593e+2, -1164047.0, -1270618.1, -52745.793, 0.20687057, 0.070881315, -1142356.1, 81321.586, 0.0, 10.000686, 9.999328 
4.0501907e+2, 1.8513553e+2, -1049577.6, -1129863.8, 34476.6, 0.24394083, 0.08802242, -1036804.7, 88876.37, 0.0, 10.000668, 9.999625 
4.0501943e+2, 1.9513473e+2, -955615.9, -1039675.94, -3793.7283, 0.09079039, 0.015860643, -955445.0, 72242.1, 0.0, 10.000657, 9.999584 
4.050201e+2, 2.0513466e+2, -864701.06, -972320.7, -60831.434, 0.053290628, 0.06856298, -837295.4, 92392.56, 0.0, 10.00073, 9.999331 
4.050208e+2, 2.1513502e+2, -746493.1, -871343.8, -65662.0, 0.10610076, 0.13649035, -718318.1, 113367.92, 0.0, 10.000888, 9.99928 
4.0502208e+2, 2.2513446e+2, -666855.06, -841586.44, 37530.39, 0.124196246, 0.18631856, -659135.0, 74557.6, 0.0, 10.001026, 9.998746 
4.0502384e+2, 2.3513275e+2, -557552.44, -746167.25, 66199.75, 0.11175744, 0.108711705, -536637.06, 99072.875, 0.0, 10.001127, 9.998683 
4.0502456e+2, 2.4513167e+2, -457201.97, -694678.8, 5725.87, 0.12054402, 0.1606803, -457064.0, 80658.945, 0.0, 10.001361, 9.998241 
4.050243e+2, 2.5513107e+2, -300955.1, -566393.5, -14991.434, 0.14971003, 0.23705588, -300111.1, 139622.08, 0.0, 10.001757, 9.998258 
4.0502518e+2, 2.6512942e+2, -160015.22, -373878.7, 54496.69, 0.1801122, 0.22049648, -146929.1, 194819.48, 0.0, 10.001726, 9.99892 
4.0502712e+2, 2.7512652e+2, -138560.4, -320591.66, -8078.813, 0.21530895, 0.0026083954, -138202.56, 105569.836, 0.0, 10.00122, 9.998863 
4.050276e+2, 2.8512532e+2, -118738.98, -355798.0, -58749.67, 0.16497461, 0.04322107, -104978.016, 40807.074, 0.0000000008315615, 10.001112, 9.997997 
4.0502676e+2, 2.9512545e+2, 27873.143, -231014.08, -50137.953, 0.04831617, 0.21583225, 37244.023, 85033.32, 0.0000007104038, 10.001422, 9.998028 
4.0502915e+2, 3.0512357e+2, 91710.875, -83108.29, -10548.877, 0.1582678, 0.19110857, 92345.11, 92345.11, 0.000009515816, 10.001147, 9.99886 
4.050301e+2, 3.1512365e+2, -712.8478, -45697.043, -123421.19, 0.17321798, 0.27637768, 102248.96, 102248.96, 0.000039448827, 10.000064, 9.999645 
4.1501793e+2, 1.2513734e+2, -1537184.3, -1659501.0, 18677.299, 0.015313984, 0.0033190665, -1534395.9, 179271.55, 0.00012596608, 10.001233, 9.999767 
4.150126e+2, 1.3513874e+2, -1519350.0, -1628948.8, -41544.758, -0.25422105, 0.14349306, -1505382.1, 110269.62, 0.00006410072, 10.000859, 9.999495 
4.1501677e+2, 1.4513762e+2, -1511954.1, -1653667.6, 84057.48, 0.1726323, 0.1221846, -1472873.0, 44789.133, 0.00002430965, 10.000598, 9.9987545 
4.1501725e+2, 1.5513623e+2, -1404820.0, -1559511.8, 49986.887, 0.058174856, 0.07255439, -1390073.1, 29603.219, 0.0000053776803, 10.000697, 9.998685 
4.1501778e+2, 1.6513532e+2, -1259764.4, -1357840.9, -58418.035, 0.060574297, 0.08541435, -1232530.6, 89154.61, 0.0000002359893, 10.000667, 9.999409 
4.150175e+2, 1.7513502e+2, -1169905.3, -1264566.9, -39524.742, 0.06137574, 0.07488522, -1155572.4, 68115.42, 0.0, 10.00061, 9.999404 
4.15018e+2, 1.8513468e+2, -1106229.4, -1224666.3, 18697.133, 0.037064757, 0.12503561, -1103347.9, 22343.271, 0.0, 10.000571, 9.999018 
4.1501978e+2, 1.9513395e+2, -1015681.3, -1134229.5, 9719.704, 0.026537564, 0.11866913, -1014889.7, 12808.967, 0.0, 10.000536, 9.998987 
4.1502124e+2, 2.051334e+2, -869891.4, -954126.25, -68692.23, 0.06500527, 0.14271683, -831432.75, 98271.62, 0.0, 10.000591, 9.999531 
4.1502228e+2, 2.1513276e+2, -757504.3, -846814.44, -46831.934, 0.13270453, 0.08845959, -737450.0, 94260.38, 0.0, 10.000684, 9.999547 
4.1502354e+2, 2.2513235e+2, -615189.8, -691179.5, 27413.453, 0.14000314, 0.082025714, -606332.75, 127379.22, 0.0, 10.000841, 9.999868 
4.1502497e+2, 2.3513183e+2, -502947.28, -594700.3, 84878.14, 0.08119222, 0.011775598, -452340.88, 183371.34, 0.0, 10.000966, 9.999801 
4.150255e+2, 2.4513125e+2, -485331.28, -727425.6, 8309.553, 0.045328315, 0.06627458, -485046.4, 52672.09, 0.0, 10.001248, 9.998069 
4.1502523e+2, 2.5513035e+2, -332377.25, -602749.94, 15734.162, 0.033978887, 0.1325791, -331464.72, 108268.016, 0.0, 10.001627, 9.99807 
4.150265e+2, 2.6512894e+2, -260980.4, -560395.6, 23401.617, 0.10767043, 0.20650981, -259162.44, 82587.98, 0.0, 10.001637, 9.997678 
4.1502902e+2, 2.7512673e+2, -242873.9, -506042.97, -11410.46, 0.2436125, 0.18314716, -242380.11, 1393.9313, 0.0, 10.0011015, 9.997641 
4.150296e+2, 2.851249e+2, -102429.81, -327985.28, -63849.79, 0.21111074, 0.2159504, -85609.66, 60183.88, 0.00000000001177225, 10.001119, 9.998195 
4.1502845e+2, 2.951233e+2, 29274.068, -207708.86, -23550.023, 0.028779825, 0.19453672, 31591.672, 79402.01, 0.0000013022876, 10.001324, 9.998241 
4.150304e+2, 3.051209e+2, 86358.05, -83980.04, -59494.926, 0.13404499, 0.10367681, 105080.35, 105080.35, 0.000014575742, 10.001115, 9.99886 
4.1502944e+2, 3.151216e+2, 5066.8813, 1894.5073, -55204.33, 0.027737904, 0.24695684, 58707.81, 58707.81, 0.000055427667, 9.999934, 10.000022 
4.2502078e+2, 1.2513842e+2, -1454855.1, -1680054.6, 169687.17, 0.15073611, 0.026379433, -1363807.1, 349847.3, 0.00012015749, 10.0020485, 9.999234 
4.2501414e+2, 1.3513878e+2, -1367468.5, -1602254.6, -101218.96, -0.23681897, 0.10151183, -1329857.0, 285792.84, 0.00006079175, 10.0021, 9.999075 
4.2501774e+2, 1.4513738e+2, -1339514.9, -1584837.8, 59658.195, 0.15644369, 0.08283572, -1325776.5, 191886.95, 0.00002257458, 10.001844, 9.998622 
4.2501917e+2, 1.5513632e+2, -1352346.1, -1546234.9, 58780.22, 0.17312601, 0.07436709, -1335918.0, 83756.89, 0.0000044461326, 10.001118, 9.998568 
4.2501965e+2, 1.6513547e+2, -1211398.9, -1365363.4, 32313.266, 0.16660099, 0.11411165, -1204892.1, 116791.65, 0.00000009724189, 10.001146, 9.999123 
4.2501837e+2, 1.7513478e+2, -1004867.94, -1214697.4, -4549.9897, 0.03627059, 0.09678715, -1004769.3, 218921.58, 0.0, 10.001882, 9.999135 
4.2501873e+2, 1.8513419e+2, -926906.7, -1154982.4, 60229.08, -0.002897841, 0.13982448, -911978.75, 213718.03, 0.0, 10.001859, 9.998885 
4.25021e+2, 1.9513328e+2, -946198.9, -1118015.8, 59016.81, 0.079443954, 0.12792207, -927880.44, 99824.65, 0.0, 10.001067, 9.99885 
4.2502257e+2, 2.051324e+2, -860759.8, -979899.7, 28462.43, 0.13967423, 0.13917337, -854309.44, 75404.24, 0.0, 10.000795, 9.999251 
4.2502332e+2, 2.1513124e+2, -735583.2, -872124.06, -16100.34, 0.16245614, 0.067224815, -733710.4, 98014.766, 0.0, 10.000988, 9.999231 
4.2502442e+2, 2.2513063e+2, -602869.8, -679012.6, 14937.989, 0.15017383, 0.053608313, -600044.06, 133684.95, 0.0, 10.000907, 9.999913 
4.2502576e+2, 2.3513035e+2, -560903.94, -613483.3, -41791.54, 0.09437338, 0.00018171969, -537820.75, 97906.47, 0.0, 10.000541, 9.99987 
4.2502654e+2, 2.451299e+2, -563381.7, -732428.5, -92894.39, 0.066798516, 0.049939044, -522312.22, 15419.106, 0.0, 10.000568, 9.998368 
4.2502686e+2, 2.5512895e+2, -403880.84, -609091.5, -79913.91, 0.076628886, 0.08458761, -376432.03, 63312.06, 0.0, 10.001002, 9.998336 
4.2502832e+2, 2.6512748e+2, -338660.2, -642416.2, -16675.814, 0.15474784, 0.16031075, -337747.47, 4015.1548, 0.0, 10.001295, 9.997291 
4.2503074e+2, 2.7512518e+2, -221517.8, -537043.1, -15005.677, 0.29770172, 0.17089657, -220805.78, 22983.418, 0.0, 10.0014305, 9.997275 
4.2503107e+2, 2.851236e+2, -67713.06, -274559.72, 318.32, 0.25193387, 0.23006281, -67712.57, 78093.81, 0.0000000012455732, 10.001234, 9.998487 
4.2502972e+2, 2.9512247e+2, -38704.355, -211480.4, 9857.518, 0.0650656, 0.22714834, -38143.766, 9673.113, 0.0000019825331, 10.000737, 9.998497 
4.2503133e+2, 3.0511966e+2, 13232.4795, -147619.98, -4903.3193, 0.15219717, 0.096465535, 13381.811, 13381.811, 0.000019679212, 10.000744, 9.998603 
4.2503074e+2, 3.1511983e+2, 166701.66, 36641.14, -24806.36, 0.11537617, 0.21607623, 171272.33, 171272.33, 0.00007104561, 10.001219, 9.99965 
4.3502408e+2, 1.251418e+2, -1561952.8, -1882017.0, 210586.64, 0.19792822, 0.22716953, -1457491.0, 256129.44, 0.00011272219, 10.001991, 9.9978695 
4.3501723e+2, 1.3513897e+2, -1462780.5, -1795259.0, -82418.86, -0.17826326, 0.121528216, -1443470.9, 172180.52, 0.00005585788, 10.002096, 9.99775 
4.3501875e+2, 1.4513692e+2, -1289307.6, -1472087.4, 19728.389, 0.02649708, 0.062336516, -1287202.5, 230468.81, 0.000019900395, 10.001798, 9.999423 
4.350196e+2, 1.5513712e+2, -1292304.6, -1427347.6, 47435.355, 0.0674368, 0.0978751, -1277307.9, 142357.63, 0.0000034951138, 10.00113, 9.999382 
4.350204e+2, 1.651366e+2, -1265805.1, -1457226.4, 43832.313, 0.08977448, 0.15944052, -1256245.6, 65424.7, 0.000000032016867, 10.001064, 9.9985285 
4.350201e+2, 1.7513523e+2, -1058494.1, -1305219.1, 37250.598, -0.014339717, 0.13244404, -1052992.8, 170694.52, 0.0, 10.001798, 9.99855 
4.3502074e+2, 1.8513405e+2, -923018.3, -1115691.4, 16323.625, -0.016741091, 0.130407, -921645.1, 204052.88, 0.0, 10.001726, 9.99922 
4.3502274e+2, 1.9513282e+2, -942627.3, -1077754.1, 45296.797, 0.11214968, 0.05224994, -928848.1, 98856.91, 0.0, 10.000932, 9.999191 
4.350237e+2, 2.0513172e+2, -941016.94, -1110159.4, 20268.754, 0.14080556, 0.067555845, -938622.0, -8906.914, 0.0, 10.000637, 9.998432 
4.350235e+2, 2.1513048e+2, -818634.3, -1006947.44, 5096.9497, 0.052849624, 0.06450525, -818496.5, 13234.321, 0.0, 10.000825, 9.998383 
4.3502426e+2, 2.2512946e+2, -701610.56, -845785.06, -12398.592, 0.014535452, 0.10605896, -700552.1, 33190.863, 0.0, 10.000742, 9.998848 
4.350258e+2, 2.3512834e+2, -657493.06, -774933.1, -39681.32, 0.016414285, 0.07496467, -645342.44, -9587.882, 0.0, 10.000371, 9.998843 
4.350273e+2, 2.451276e+2, -534447.6, -641694.6, -90345.1, 0.057953514, 0.11351327, -483010.56, 54750.746, 0.0, 10.000444, 9.999044 
4.3502876e+2, 2.5512698e+2, -377288.44, -520298.72, -48698.145, 0.13108782, 0.107524276, -362280.63, 77485.39, 0.0, 10.000865, 9.999005 
4.3503025e+2, 2.6512522e+2, -312827.78, -576851.25, -23634.318, 0.18699598, 0.098166995, -310728.8, 31054.762, 0.0, 10.001238, 9.997771 
4.350317e+2, 2.7512202e+2, -199343.47, -470102.47, 7486.1265, 0.21573691, -0.031817697, -199136.66, 44679.906, 0.0, 10.001333, 9.997784 
4.350315e+2, 2.8512144e+2, -54257.145, -232228.67, -29961.604, 0.13811219, 0.08392607, -49348.48, 96474.805, 0.000000012355592, 10.001183, 9.998798 
4.3503028e+2, 2.9512307e+2, -35838.363, -183111.72, 7930.4287, 0.0028005475, 0.32698926, -35412.555, 12394.82, 0.0000027662056, 10.00065, 9.99873 
4.3503162e+2, 3.051199e+2, -29193.94, -236996.92, 684.0156, 0.073816516, 0.1815242, -29191.688, -29191.688, 0.000024180765, 10.000742, 9.9979925 
4.3503284e+2, 3.1511816e+2, 60377.695, -155852.6, 83264.56, 0.12886891, 0.1698272, 88724.53, 88724.53, 0.00008333817, 10.001103, 9.998383 
4.4502538e+2, 1.2514135e+2, -1720040.1, -1910024.5, 165977.6, 0.21376792, 0.24252108, -1623794.0, 89831.78, 0.00010688196, 10.000745, 9.998264 
4.4502082e+2, 1.3513906e+2, -1552250.3, -1786238.6, -106695.11, 0.024340264, 0.14733618, -1510904.8, 104746.266, 0.000051033883, 10.001286, 9.998203 
4.450205e+2, 1.4513716e+2, -1305315.8, -1502741.3, 47354.285, 0.03788368, 0.091788016, -1294545.0, 223123.95, 0.000017295639, 10.0017805, 9.999221 
4.4502077e+2, 1.5513681e+2, -1173193.9, -1392012.1, -41511.176, 0.030305784, 0.09019091, -1165583.6, 254084.8, 0.0000027656245, 10.002036, 9.999188 
4.450217e+2, 1.651361e+2, -1146391.9, -1426991.8, -16268.818, 0.078219086, 0.15075967, -1145451.9, 176223.83, 0.000000035556127, 10.001972, 9.998314 
4.450223e+2, 1.7513482e+2, -1098192.5, -1350063.1, -22239.133, 0.046399854, 0.15531455, -1096243.9, 127448.46, 0.0, 10.001616, 9.998341 
4.4502294e+2, 1.8513364e+2, -947758.3, -1107556.0, -26071.115, 0.052331116, 0.15614502, -943612.4, 182090.56, 0.0, 10.001495, 9.999372 
4.4502416e+2, 1.951322e+2, -844866.44, -1014697.94, -44378.402, 0.14063227, 0.04331062, -833969.2, 193741.78, 0.0, 10.00155, 9.999316 
4.4502476e+2, 2.0513104e+2, -813140.2, -1064527.8, -5810.6914, 0.14201018, 0.054684676, -813005.94, 116715.35, 0.0, 10.001605, 9.998271 
4.450246e+2, 2.1512988e+2, -712317.25, -970796.44, -2172.6199, 0.04649699, 0.07767417, -712299.0, 119437.445, 0.0, 10.001631, 9.998235 
4.450252e+2, 2.2512887e+2, -653903.06, -854817.4, 35557.805, 0.020106541, 0.14285837, -647795.7, 85953.586, 0.0, 10.001209, 9.998556 
4.4502658e+2, 2.3512772e+2, -682393.94, -822194.6, 36889.836, 0.0657009, 0.13760167, -673256.8, -37493.83, 0.0, 10.00035, 9.998527 
4.450282e+2, 2.4512677e+2, -540113.9, -630806.4, 64519.164, 0.11624732, 0.16267277, -506599.44, 31172.42, 0.0, 10.000341, 9.999171 
4.4503006e+2, 2.5512582e+2, -332574.28, -482215.16, 36341.676, 0.17352115, 0.11201851, -324215.28, 115562.87, 0.0, 10.001102, 9.999152 
4.450316e+2, 2.6512414e+2, -265537.38, -488778.6, 47134.15, 0.2057633, 0.07533495, -255993.67, 85799.01, 0.0, 10.00129, 9.998342 
4.4503266e+2, 2.7512145e+2, -208445.92, -414251.3, 51994.902, 0.2044078, -0.05911047, -196055.8, 47762.344, 0.0, 10.001016, 9.998318 
4.4503248e+2, 2.8512073e+2, -104221.61, -309688.0, 11702.825, 0.13194725, 0.039528817, -103557.195, 42268.914, 0.00000003062236, 10.001055, 9.998337 
4.450317e+2, 2.9512155e+2, 14510.682, -201414.53, -45138.57, 0.06540574, 0.2487562, 23566.941, 71386.72, 0.0000032986038, 10.001192, 9.99834 
4.450324e+2, 3.0511895e+2, 48296.375, -188422.58, 5165.7183, 0.06401072, 0.17440587, 48409.05, 48409.05, 0.000027227657, 10.001222, 9.998085 
4.4503483e+2, 3.1511736e+2, 62334.297, -189581.52, 114009.26, 0.22380447, 0.16622111, 106269.02, 106269.02, 0.000091368296, 10.001273, 9.9980545 
4.5502388e+2, 1.2513702e+2, -1578987.6, -1616140.5, 164499.61, -0.09294903, 0.056164872, -1432018.9, 281652.06, 0.000102696926, 10.000735, 10.000284 
4.5502418e+2, 1.35139e+2, -1396337.5, -1477741.5, -69763.516, 0.19336411, 0.17361577, -1356270.8, 259378.0, 0.000047349753, 10.001333, 10.000302 
4.5502257e+2, 1.4513795e+2, -1394427.1, -1674989.6, 47616.93, 0.019956984, 0.15965852, -1386565.9, 131092.06, 0.000015080613, 10.001734, 9.998058 
4.550221e+2, 1.5513533e+2, -1261817.5, -1564940.9, -14842.331, -0.07798389, 0.049718518, -1261092.5, 158591.7, 0.0000021144335, 10.001997, 9.998016 
4.5502314e+2, 1.6513394e+2, -1139945.4, -1397903.5, -47324.22, -0.009807785, 0.08945324, -1131537.4, 190162.17, 0.00000004449902, 10.001898, 9.998549 
4.550246e+2, 1.7513359e+2, -1087243.8, -1321691.5, -18989.18, 0.0793209, 0.16281198, -1085715.6, 137990.38, 0.0, 10.001585, 9.998551 
4.5502493e+2, 1.8513292e+2, -970324.56, -1130167.6, -38689.367, 0.06784576, 0.20881486, -961452.4, 164259.72, 0.0, 10.001392, 9.999263 
4.550248e+2, 1.951315e+2, -876118.94, -1041834.44, -29653.93, 0.01686759, 0.107023105, -870972.4, 156749.8, 0.0, 10.001393, 9.9992 
4.5502523e+2, 2.0513043e+2, -804526.7, -1008731.3, -20022.266, 0.0026082136, 0.110311575, -802582.0, 127149.29, 0.0, 10.001437, 9.998735 
4.5502606e+2, 2.1512948e+2, -707908.8, -911107.0, 13236.043, 0.0009792439, 0.1073208, -707050.25, 124691.14, 0.0, 10.001419, 9.998744 
4.5502687e+2, 2.2512895e+2, -647372.44, -804103.9, -10191.305, 0.03702959, 0.17129649, -646712.56, 87034.91, 0.0, 10.001041, 9.998992 
4.5502755e+2, 2.3512846e+2, -671623.44, -767666.0, 21001.053, 0.09702494, 0.18747179, -667232.06, -31479.295, 0.0, 10.000205, 9.998973 
4.5502874e+2, 2.451274e+2, -586627.0, -694442.06, 80182.85, 0.10756587, 0.19878489, -543915.1, -6152.2163, 0.0, 10.000208, 9.998802 
4.5503047e+2, 2.5512546e+2, -376484.3, -539708.44, 81128.24, 0.071244314, 0.08991743, -343021.1, 96759.64, 0.0, 10.000957, 9.998833 
4.5503202e+2, 2.6512417e+2, -242927.16, -417469.5, 25675.22, 0.08741173, 0.081851065, -239228.69, 102562.19, 0.0, 10.001191, 9.998873 
4.5503327e+2, 2.751234e+2, -192699.3, -354401.75, 61467.582, 0.12586628, 0.07705128, -171986.83, 71808.625, 0.0, 10.000902, 9.998776 
4.5503354e+2, 2.8512147e+2, -192716.8, -486934.22, 3997.0012, 0.10033121, 0.0978651, -192662.5, -46847.582, 0.000000022691747, 10.001015, 9.997144 
4.550335e+2, 2.9511794e+2, -66536.94, -363959.06, -23016.674, 0.08170457, -0.009883945, -64766.285, -16912.424, 0.0000033720132, 10.001144, 9.997257 
4.55033e+2, 3.051168e+2, 101471.43, -67209.055, -8.449466, -0.031920828, 0.06486125, 101471.43, 101471.43, 0.000028360193, 10.00119, 9.998922 
4.5503592e+2, 3.151172e+2, 88247.45, -113865.74, 157849.9, 0.12986416, 0.1762556, 174618.25, 174618.25, 0.00009465621, 10.001181, 9.998616 
4.650247e+2, 1.2513505e+2, -1553462.6, -1602119.5, 253277.64, -0.0750963, 0.0071914867, -1323347.8, 390341.34, 0.00009773488, 10.000859, 10.000324 
4.6502712e+2, 1.351377e+2, -1341268.0, -1440472.3, -137777.39, 0.35675308, 0.17338383, -1244435.9, 371226.1, 0.000043477085, 10.001624, 10.000429 
4.65024e+2, 1.4513709e+2, -1325218.6, -1613514.5, -15823.877, -0.020875849, 0.1812794, -1324352.8, 193315.0, 0.000012657647, 10.002091, 9.998309 
4.650241e+2, 1.5513471e+2, -1219170.4, -1514747.0, -11198.084, -0.07188223, 0.07114025, -1218746.6, 200944.39, 0.0000014631825, 10.00217, 9.998279 
4.6502525e+2, 1.6513339e+2, -1117786.4, -1356659.9, 23077.115, 0.018140813, 0.09210044, -1115577.4, 206127.4, 0.000000030371112, 10.001937, 9.998804 
4.6502638e+2, 1.7513287e+2, -1096002.9, -1295852.6, 20800.94, 0.11414242, 0.121850885, -1093860.9, 129850.45, 0.0, 10.00141, 9.998807 
4.6502653e+2, 1.8513222e+2, -1019347.3, -1186826.5, 40599.645, 0.10701704, 0.17035823, -1010024.3, 115693.24, 0.0, 10.001168, 9.999001 
4.6502626e+2, 1.9513108e+2, -929677.9, -1098690.1, 12562.723, 0.04596052, 0.12364525, -928749.2, 98977.71, 0.0, 10.001125, 9.99896 
4.650267e+2, 2.0513e+2, -835619.3, -1003957.2, 40445.777, 0.032449163, 0.12653178, -826405.9, 103330.34, 0.0, 10.001128, 9.998921 
4.6502775e+2, 2.1512868e+2, -728850.25, -907385.75, 17015.209, 0.04842008, 0.07000604, -727243.1, 104505.09, 0.0, 10.001204, 9.99888 
4.6502835e+2, 2.2512802e+2, -599144.1, -776223.94, -17030.734, 0.075743586, 0.11580428, -597521.06, 136233.19, 0.0, 10.001369, 9.999012 
4.6502855e+2, 2.3512775e+2, -459935.25, -663240.56, -49070.027, 0.11265927, 0.15275888, -448711.28, 187045.66, 0.0, 10.001665, 9.998979 
4.6502948e+2, 2.4512674e+2, -440640.75, -646530.7, 34607.074, 0.11730844, 0.1785093, -434979.5, 102787.664, 0.0, 10.001298, 9.9986 
4.6503127e+2, 2.5512475e+2, -488440.4, -616918.9, 18028.121, 0.10010405, 0.08194709, -485958.63, -46171.44, 0.0, 10.000283, 9.99862 
4.6503282e+2, 2.651237e+2, -383701.3, -468455.56, -9318.093, 0.10922232, 0.095173545, -382688.97, -40892.848, 0.0, 10.000128, 9.99905 
4.6503398e+2, 2.751233e+2, -211731.56, -343867.2, -24027.016, 0.12701827, 0.11644059, -207498.2, 36298.0, 0.0, 10.000674, 9.998969 
4.6503466e+2, 2.851212e+2, -179465.05, -482521.38, -7146.7485, 0.11547668, 0.11484215, -179296.6, -33479.77, 0.00000001636591, 10.001121, 9.997117 
4.6503556e+2, 2.9511708e+2, 1264.656, -320129.63, 6860.315, 0.15817823, -0.059240177, 1411.026, 49272.91, 0.0000038591365, 10.001577, 9.997336 
4.650343e+2, 3.0511644e+2, 149196.17, -55433.48, 44726.266, -0.025696993, 0.07007402, 158544.95, 158544.95, 0.000029778155, 10.001523, 9.99888 
4.650375e+2, 3.1511614e+2, 48020.676, -87384.766, 70353.24, 0.21277486, 0.1212817, 77956.25, 77956.25, 0.00009717631, 10.000687, 9.999058 
4.7502694e+2, 1.2513533e+2, -1699122.1, -1862933.8, 149140.69, -0.02077029, 0.099248864, -1610876.5, 102805.03, 0.00009217974, 10.00072, 9.998583 
4.7502923e+2, 1.3513519e+2, -1462930.8, -1678470.8, -89845.62, 0.36651704, 0.15359642, -1430391.8, 185299.02, 0.00003847725, 10.001592, 9.998794 
4.750242e+2, 1.4513458e+2, -1211744.0, -1374512.4, -28617.922, -0.25763202, 0.16090879, -1206859.0, 310838.97, 0.000009911169, 10.002056, 9.999976 
4.7502634e+2, 1.5513487e+2, -1096276.5, -1268265.1, 6663.5957, -0.10800523, 0.14849655, -1096018.6, 323671.03, 0.0000009593812, 10.002191, 9.999969 
4.750276e+2, 1.6513433e+2, -1109874.4, -1322577.3, -11719.074, 0.024918072, 0.14899032, -1109230.6, 212461.72, 0.000000014696447, 10.0018635, 9.999077 
4.7502717e+2, 1.7513259e+2, -1089328.9, -1265331.0, 18047.506, 0.019396173, 0.03384896, -1087497.3, 136211.92, 0.0, 10.001341, 9.999054 
4.7502717e+2, 1.8513156e+2, -1056455.0, -1241526.1, 25771.904, 0.023526104, 0.05196915, -1052933.1, 72785.945, 0.0, 10.001067, 9.998675 
4.7502807e+2, 1.95131e+2, -966833.9, -1153862.4, 27206.506, 0.085621476, 0.095064685, -962956.56, 64768.063, 0.0, 10.001025, 9.998633 
4.7502878e+2, 2.0512973e+2, -867941.8, -1035783.2, 29399.45, 0.09810748, 0.10498952, -862941.1, 66794.9, 0.0, 10.000981, 9.99877 
4.750292e+2, 2.1512751e+2, -766173.2, -939709.3, 36034.31, 0.044358008, -0.028967867, -758988.2, 72767.85, 0.0, 10.001017, 9.998743 
4.7502926e+2, 2.2512616e+2, -650610.2, -854279.7, -20013.592, -0.00066638505, -0.023534302, -648662.1, 85106.79, 0.0, 10.00123, 9.998551 
4.750291e+2, 2.3512545e+2, -514724.88, -740131.06, -23186.598, -0.029126545, 0.016224634, -512364.5, 123412.305, 0.0, 10.001499, 9.998534 
4.7503003e+2, 2.4512467e+2, -463257.44, -666833.25, -16228.405, 0.0077609234, 0.08942107, -461971.88, 75814.17, 0.0, 10.001175, 9.998523 
4.75032e+2, 2.551235e+2, -514080.8, -646071.0, -2888.1257, 0.110781915, 0.08163984, -514017.66, -74218.16, 0.0, 10.000164, 9.998483 
4.7503352e+2, 2.651225e+2, -403864.56, -485589.13, -2918.8018, 0.1349725, 0.11329485, -403760.44, -61950.953, 0.0, 10.0000305, 9.998974 
4.750343e+2, 2.7512124e+2, -228640.42, -353073.38, 13812.57, 0.058555588, 0.05603233, -227125.61, 16694.316, 0.0, 10.000572, 9.998951 
4.7503537e+2, 2.8511995e+2, -112236.234, -339296.22, -5708.839, 0.03961886, 0.082864046, -112092.79, 33739.35, 0.0000000367379, 10.001096, 9.998117 
4.7503728e+2, 2.9511854e+2, 52384.49, -194258.27, 39915.035, 0.13004827, 0.078993075, 58683.22, 106530.66, 0.000004901276, 10.00147, 9.998263 
4.7503582e+2, 3.0511776e+2, 76952.5, -177917.9, 78.48189, -0.050510563, 0.18646654, 76952.52, 76952.52, 0.000032907166, 10.001425, 9.998076 
4.7503865e+2, 3.151141e+2, 60876.844, -39385.81, 44679.938, 0.17939107, -0.012209507, 77897.93, 77897.93, 0.00010232853, 10.000614, 9.999411 
4.8502925e+2, 1.2513532e+2, -1510413.3, -1808265.9, 88829.87, 0.08626241, 0.1285119, -1485933.1, 227746.38, 0.00008688649, 10.00217, 9.998274 
4.8503128e+2, 1.3513425e+2, -1485471.9, -1720878.1, 18075.729, 0.42813557, 0.123052716, -1484092.1, 131607.17, 0.000032757685, 10.001557, 9.998542 
4.850252e+2, 1.4513381e+2, -1310787.9, -1354624.0, 127844.32, -0.3018172, 0.13112138, -1202996.4, 314708.34, 0.000007215262, 10.001097, 10.000567 
4.8502856e+2, 1.5513483e+2, -1238798.4, -1276340.4, 38756.168, -0.029904576, 0.13301577, -1214506.8, 205181.48, 0.00000059770906, 10.000951, 10.000509 
4.8502994e+2, 1.6513462e+2, -1213642.4, -1367001.1, 6177.43, 0.11835533, 0.13790832, -1213393.9, 108292.98, 0.0000000048834687, 10.001134, 9.999118 
4.8502874e+2, 1.7513292e+2, -1039538.8, -1232383.9, -5748.261, 0.03700643, 0.019650068, -1039367.6, 184335.63, 0.0, 10.001662, 9.99911 
4.8502856e+2, 1.8513179e+2, -928732.4, -1195350.4, 33200.383, 0.01730453, 0.030302383, -924660.3, 201054.11, 0.0, 10.002036, 9.998507 
4.8502976e+2, 1.9513096e+2, -802122.5, -1086675.4, 19298.26, 0.098945074, 0.06044033, -800819.7, 226903.47, 0.0, 10.002239, 9.998486 
4.8503044e+2, 2.0512964e+2, -719564.2, -996246.94, 39577.477, 0.11653868, 0.08438038, -714014.25, 215721.86, 0.0, 10.002122, 9.9985075 
4.850307e+2, 2.1512751e+2, -707564.4, -937368.9, 14486.568, 0.07541784, -0.011877428, -706654.75, 125101.43, 0.0, 10.001524, 9.998524 
4.8503077e+2, 2.2512606e+2, -659065.5, -857110.5, 11817.432, 0.03607056, -0.008437191, -658362.9, 75407.38, 0.0, 10.001164, 9.998569 
4.8503062e+2, 2.3512493e+2, -583180.56, -776416.4, 12720.828, 0.001628232, -0.008974431, -582346.75, 53434.625, 0.0, 10.001024, 9.998523 
4.8503137e+2, 2.4512392e+2, -471553.0, -664645.1, 54876.125, 0.03684422, 0.04013278, -457047.13, 80745.06, 0.0, 10.001096, 9.998576 
4.8503298e+2, 2.5512284e+2, -342683.78, -554891.0, 44721.727, 0.1436132, 0.039079566, -333643.97, 106160.32, 0.0, 10.001323, 9.998548 
4.8503423e+2, 2.6512197e+2, -246026.36, -433676.63, 92261.195, 0.15447007, 0.09324872, -208263.94, 133549.67, 0.0, 10.001217, 9.998757 
4.8503497e+2, 2.7512082e+2, -209622.1, -369129.3, 65402.457, 0.06787576, 0.06860661, -186234.44, 57590.605, 0.0, 10.000802, 9.998734 
4.8503625e+2, 2.8511968e+2, -168907.83, -325226.2, 51131.477, 0.053839438, 0.099929504, -153668.47, -7832.286, 0.00000008825205, 10.000522, 9.99849 
4.8503843e+2, 2.951187e+2, -88895.055, -224908.55, 12134.383, 0.16527359, 0.1029444, -87820.98, -39975.168, 0.0000056092463, 10.000336, 9.998597 
4.8503673e+2, 3.0511746e+2, -71915.72, -256815.97, 5020.6333, -0.03377918, 0.15437064, -71779.49, -71779.49, 0.000035389916, 10.00043, 9.998005 
4.8504013e+2, 3.1511438e+2, 100640.305, 19065.76, 23168.396, 0.27965668, 0.017917976, 106761.195, 106761.195, 0.00010599746, 10.0007105, 9.999764 
4.9503037e+2, 1.2513486e+2, -1429873.0, -1645981.4, -142634.97, -0.10510528, 0.09407806, -1358984.6, 354699.44, 0.00007926606, 10.002191, 9.999375 
4.950327e+2, 1.3513486e+2, -1401263.1, -1548105.4, 8339.167, 0.38073406, 0.07424137, -1400791.0, 214896.39, 0.000026309035, 10.001564, 9.999721 
4.9502662e+2, 1.451348e+2, -1362733.5, -1446164.1, 106041.3, -0.3171454, 0.09230198, -1290497.4, 227190.34, 0.0000047383246, 10.001027, 9.999971 
4.950303e+2, 1.5513468e+2, -1286200.0, -1366261.4, 49542.027, 0.010607117, 0.037446253, -1262537.1, 157148.67, 0.0000002991547, 10.000918, 9.999906 
4.9503174e+2, 1.6513443e+2, -1228549.9, -1385920.0, 9944.892, 0.15084416, 0.07487567, -1227923.9, 93763.164, 0.0000000005507737, 10.001079, 9.999017 
4.9503076e+2, 1.7513385e+2, -1055589.6, -1251109.3, 26456.172, 0.037721507, 0.08096425, -1052073.0, 171620.58, 0.0, 10.001598, 9.999014 
4.950304e+2, 1.8513279e+2, -944475.06, -1201791.6, 27331.285, -0.036651503, 0.10239585, -941604.06, 184100.58, 0.0, 10.001926, 9.998513 
4.950308e+2, 1.9513088e+2, -818201.6, -1094959.1, 39875.51, -0.05505156, 0.02403769, -812570.9, 215152.47, 0.0, 10.002128, 9.998484 
4.9503124e+2, 2.0512964e+2, -760921.6, -1047212.4, 1090.4211, -0.040082578, 0.06929928, -760917.5, 168819.31, 0.0, 10.001964, 9.998237 
4.950318e+2, 2.1512875e+2, -748190.5, -991457.94, 7854.9194, 0.0027971533, 0.12260565, -747937.2, 83810.664, 0.0, 10.001378, 9.998229 
4.9503222e+2, 2.2512762e+2, -657157.06, -811519.3, -5559.506, 0.039784808, 0.15614496, -656957.06, 76801.55, 0.0, 10.000994, 9.998958 
4.9503258e+2, 2.3512603e+2, -580632.75, -729811.56, 25815.209, 0.06511091, 0.066104464, -576291.8, 59479.87, 0.0, 10.000848, 9.998925 
4.9503306e+2, 2.4512449e+2, -481757.9, -651184.44, 49869.11, 0.0658414, 0.03337086, -468169.25, 69616.01, 0.0, 10.000957, 9.9987335 
4.950337e+2, 2.5512263e+2, -348318.75, -541175.2, 70156.53, 0.048956007, -0.05952957, -325497.9, 114304.85, 0.0, 10.001211, 9.998696 
4.9503458e+2, 2.651219e+2, -286656.88, -493762.3, 60494.363, 0.03354546, 0.019775718, -270281.56, 71529.09, 0.0, 10.001122, 9.998384 
4.950355e+2, 2.7512196e+2, -260908.14, -437206.06, 66580.52, 0.0070670513, 0.15043852, -238588.98, 5223.361, 0.0, 10.000648, 9.998336 
4.9503672e+2, 2.8512055e+2, -194735.0, -359587.6, 32852.81, 0.013439053, 0.18339527, -188429.11, -42601.87, 0.00000018947561, 10.000445, 9.998288 
4.950385e+2, 2.9511756e+2, -113875.516, -262057.95, 25566.455, 0.098028466, 0.013886187, -109588.47, -61732.117, 0.000005650319, 10.000279, 9.998364 
4.950368e+2, 3.0511564e+2, -22028.059, -160521.89, 8047.1846, -0.105632536, -0.026835674, -21562.045, -21562.045, 0.00003451672, 10.000447, 9.99866 
4.9504095e+2, 3.1511685e+2, 115868.02, 65320.92, 60467.758, 0.21143499, 0.19134852, 156131.5, 156131.5, 0.00010176044, 10.000638, 10.000116 
5.050322e+2, 1.2513505e+2, -1739052.8, -1740795.6, -126041.35, -0.008421818, 0.0098514045, -1613879.9, 99800.2, 0.000066640154, 9.999854, 9.999838 
5.050339e+2, 1.3513575e+2, -1279923.1, -1449957.9, 41625.09, 0.33171898, 0.022164695, -1270280.0, 345393.78, 0.0000195532, 10.00222, 10.000079 
5.0502884e+2, 1.4513585e+2, -1161717.8, -1434415.9, 94168.59, -0.2698779, 0.07663931, -1132359.9, 385313.28, 0.0000028130235, 10.002788, 9.9992 
5.05032e+2, 1.5513478e+2, -1182728.1, -1396964.9, -13089.334, 0.041887928, 0.0065433057, -1181931.4, 237751.98, 0.00000011765629, 10.001992, 9.999171 
5.0503325e+2, 1.6513425e+2, -1127778.3, -1325034.8, 12004.983, 0.16966408, 0.04373084, -1127050.3, 194638.33, 0.000000000026416515, 10.001703, 9.99914 
5.050327e+2, 1.7513391e+2, -1010193.0, -1218259.3, 16086.019, 0.071633875, 0.063712336, -1008956.7, 214735.14, 0.0, 10.001842, 9.999131 
5.050325e+2, 1.8513297e+2, -948911.8, -1208209.4, 45364.348, -0.010828823, 0.09279845, -941204.44, 184497.47, 0.0, 10.001903, 9.99849 
5.0503266e+2, 1.9513114e+2, -856393.44, -1115320.0, 29537.021, -0.058232464, 0.027286667, -853066.75, 174654.34, 0.0, 10.00187, 9.998473 
5.050329e+2, 2.0513012e+2, -781685.5, -1041941.7, 10662.913, -0.054289132, 0.09044373, -781249.4, 148483.72, 0.0, 10.0017805, 9.9983425 
5.0503314e+2, 2.1512961e+2, -721017.8, -965022.94, 9948.507, 0.0033267012, 0.17121992, -720612.9, 111127.95, 0.0, 10.001535, 9.998319 
5.050337e+2, 2.2512846e+2, -597650.8, -797774.44, 33845.453, 0.07231692, 0.20600265, -592081.75, 141670.63, 0.0, 10.001457, 9.9988365 
5.050345e+2, 2.3512654e+2, -510152.56, -702332.94, -6284.7695, 0.15829945, 0.09422923, -509947.25, 125821.95, 0.0, 10.001382, 9.998849 
5.0503486e+2, 2.4512501e+2, -414526.34, -624195.8, 35242.063, 0.13567296, 0.06804514, -408761.22, 129021.27, 0.0, 10.001429, 9.998694 
5.050348e+2, 2.5512347e+2, -290784.53, -515605.38, 13872.399, 0.026201425, 0.008974426, -289931.78, 149864.2, 0.0, 10.001614, 9.998678 
5.0503564e+2, 2.6512244e+2, -227327.47, -482386.84, 18490.43, 0.0099082915, 0.06508951, -225993.98, 115812.03, 0.0, 10.00159, 9.998252 
5.0503707e+2, 2.751216e+2, -179604.0, -413742.34, 5754.23, 0.07841369, 0.12288632, -179462.66, 64352.703, 0.00000000061010413, 10.001259, 9.998209 
5.0503826e+2, 2.8512004e+2, -117090.05, -328130.97, 29078.783, 0.10742982, 0.14676021, -113156.67, 32675.127, 0.00000027597625, 10.001004, 9.99824 
5.050394e+2, 2.9511753e+2, -40682.758, -235499.27, -1695.4182, 0.13627057, 0.03065159, -40668.004, 7188.724, 0.0000049916057, 10.000823, 9.998293 
5.0503737e+2, 3.0511546e+2, 66411.93, -117061.57, 15428.339, -0.11309646, -0.017599175, 67700.26, 67700.26, 0.000030276777, 10.001059, 9.998662 
5.0504214e+2, 3.151168e+2, 179151.94, 47113.906, -65201.13, 0.24635673, 0.20627177, 205921.38, 205921.38, 0.000090633286, 10.001289, 9.999674 
5.1503336e+2, 1.2513597e+2, -1752554.4, -1773802.3, -205918.81, 0.042432386, -0.113695644, -1556985.6, 156681.11, 0.000052165007, 9.9998665, 9.999605 
5.1503456e+2, 1.3513702e+2, -1309617.5, -1517266.3, 143324.47, 0.13501543, -0.029508779, -1236463.4, 379194.22, 0.000013925394, 10.002242, 9.999605 
5.150316e+2, 1.4513697e+2, -1233733.8, -1579011.4, 42931.48, -0.32808134, 0.08510831, -1228475.8, 289184.53, 0.000001645238, 10.002761, 9.998225 
5.150331e+2, 1.551351e+2, -1256326.3, -1538725.0, -25946.959, -0.075865835, 0.032706853, -1253962.0, 165719.53, 0.00000003629146, 10.0019455, 9.998224 
5.15034e+2, 1.6513397e+2, -1118392.3, -1282789.0, 4713.7915, 0.038259715, 0.041053496, -1118257.3, 203435.19, 0.0, 10.001609, 9.99947 
5.1503414e+2, 1.7513318e+2, -1000787.25, -1178534.0, 37507.766, -0.010516747, -0.024089286, -993196.6, 230500.52, 0.0, 10.001765, 9.999434 
5.150343e+2, 1.8513252e+2, -964359.8, -1218530.8, 29676.129, -0.04974695, 0.021614393, -960940.94, 164763.1, 0.0, 10.001803, 9.998465 
5.150349e+2, 1.9513175e+2, -868284.25, -1124576.6, 44417.137, -0.06050678, 0.059427045, -860804.75, 166911.06, 0.0, 10.001792, 9.998449 
5.150349e+2, 2.0513095e+2, -785125.6, -1008686.5, -12862.105, -0.061727483, 0.13080594, -784388.06, 145337.94, 0.0, 10.001607, 9.998654 
5.150344e+2, 2.1512988e+2, -720929.6, -927518.6, 15518.21, -0.05726036, 0.1210621, -719770.44, 111966.72, 0.0, 10.001369, 9.998656 
5.150348e+2, 2.251284e+2, -660410.56, -896914.8, 14587.585, 0.012118434, 0.13350968, -659514.2, 74238.875, 0.0, 10.001314, 9.998232 
5.150359e+2, 2.3512627e+2, -572227.9, -802593.2, 6609.849, 0.13155119, 0.06338576, -572038.4, 63737.184, 0.0, 10.00125, 9.998231 
5.1503617e+2, 2.4512534e+2, -439813.53, -651032.94, 28352.746, 0.09795636, 0.13638513, -436073.88, 101711.1, 0.0, 10.001323, 9.998558 
5.150357e+2, 2.5512528e+2, -321092.5, -546427.5, 37789.17, -0.08121069, 0.23462756, -314924.03, 124860.67, 0.0, 10.001468, 9.998538 
5.150368e+2, 2.6512355e+2, -236317.27, -476250.7, -7831.004, -0.06058116, 0.22384341, -236061.95, 105738.06, 0.0, 10.00149, 9.998342 
5.150393e+2, 2.7511975e+2, -186267.81, -407948.7, 15536.624, 0.14366084, -0.018375188, -185184.22, 58650.47, 0.0000000018853024, 10.001167, 9.998301 
5.1504046e+2, 2.8511813e+2, -116949.484, -318145.38, 7155.902, 0.1905616, -0.006848709, -116695.29, 29154.85, 0.00000034894228, 10.000968, 9.998322 
5.150403e+2, 2.9511845e+2, -52236.496, -239636.03, 14523.981, 0.09881992, 0.14644188, -51117.53, -3269.2783, 0.000004315403, 10.000732, 9.998307 
5.150378e+2, 3.0511683e+2, 15768.109, -205691.45, 19017.879, -0.21398886, 0.17184295, 17389.404, 17389.404, 0.000026122347, 10.001009, 9.998075 
5.150428e+2, 3.1511387e+2, 72776.03, -142089.08, -32326.73, 0.10843938, 0.035842564, 77534.26, 77534.26, 0.000081293096, 10.001173, 9.998428 
5.250347e+2, 1.251382e+2, -1589862.8, -1729436.5, -211089.52, 0.14294301, -0.06808704, -1437323.3, 276322.75, 0.000041919076, 10.001125, 9.9993 
5.250351e+2, 1.3513853e+2, -1453827.8, -1644307.4, 125288.2, 0.012902656, -0.002844773, -1391689.8, 223954.22, 0.000010470756, 10.001502, 9.999086 
5.25035e+2, 1.4513789e+2, -1428118.8, -1694696.6, 33505.684, -0.18466581, 0.09087244, -1423972.0, 93680.08, 0.0000009776196, 10.001518, 9.99803 
5.2503526e+2, 1.5513577e+2, -1311431.9, -1584794.8, -10482.378, -0.032970175, 0.029426115, -1311030.5, 108644.83, 0.000000005050013, 10.001643, 9.998051 
5.250354e+2, 1.6513444e+2, -1150666.5, -1314158.6, 69783.63, 0.036828063, 0.03238086, -1124931.5, 196756.83, 0.0, 10.001456, 9.999334 
5.250357e+2, 1.7513348e+2, -1121877.0, -1252594.4, 33360.754, 0.018985413, -0.032756485, -1113855.1, 109839.85, 0.0, 10.000987, 9.99931 
5.2503616e+2, 1.8513295e+2, -1066291.9, -1230538.1, 61190.46, 0.0021180555, 0.016624987, -1046001.7, 79698.83, 0.0, 10.000954, 9.998798 
5.250369e+2, 1.951326e+2, -932588.06, -1115738.0, 68315.64, -0.0038536156, 0.069155835, -909913.3, 117793.91, 0.0, 10.001207, 9.998791 
5.250369e+2, 2.0513186e+2, -811573.25, -1012914.25, 39144.316, -0.0030220398, 0.124384955, -804230.7, 125485.75, 0.0, 10.001375, 9.99874 
5.2503633e+2, 2.1513045e+2, -708762.06, -915471.56, 22768.799, 0.0022346005, 0.07272711, -706283.9, 125446.8, 0.0, 10.001414, 9.998722 
5.250365e+2, 2.2512904e+2, -632970.56, -900384.6, 65291.43, 0.04677326, 0.09994025, -617880.6, 115865.21, 0.0, 10.001601, 9.998052 
5.2503747e+2, 2.3512733e+2, -481731.38, -782085.1, 56045.07, 0.128522, 0.090707794, -471614.34, 164150.86, 0.0, 10.001977, 9.998017 
5.250378e+2, 2.4512628e+2, -351103.7, -631165.44, 108199.18, 0.099631324, 0.17144752, -314172.13, 223604.2, 0.0, 10.002024, 9.998365 
5.2503777e+2, 2.551257e+2, -298993.3, -556270.0, 83491.64, -0.02730494, 0.23783739, -274273.66, 165507.56, 0.0, 10.001713, 9.998355 
5.2503884e+2, 2.651237e+2, -253984.55, -499518.25, 52996.43, 0.0037746807, 0.21608329, -243034.08, 98765.23, 0.0, 10.001435, 9.998199 
5.2504104e+2, 2.7512e+2, -194497.28, -416367.88, 26735.87, 0.2058242, -0.00908786, -191321.03, 52512.445, 0.00000000009174081, 10.001165, 9.9982195 
5.250421e+2, 2.8511834e+2, -107224.7, -323854.25, 47804.06, 0.25870275, 0.010643221, -97144.72, 48704.15, 0.00000033351301, 10.001081, 9.998224 
5.250418e+2, 2.9511857e+2, 1675.9698, -222125.73, 7758.746, 0.17301865, 0.1611217, 1944.6272, 49792.617, 0.0000041082662, 10.00114, 9.998226 
5.250395e+2, 3.051172e+2, 62889.457, -174643.16, 75937.62, -0.14199989, 0.21245223, 85091.08, 85091.08, 0.000024723933, 10.001283, 9.998171 
5.2504444e+2, 3.15113e+2, 44312.336, -143049.97, -27259.826, 0.18674468, -0.05066968, 48197.863, 48197.863, 0.00007789345, 10.000911, 9.998562 
5.350349e+2, 1.2514159e+2, -1600315.0, -1761545.4, -251728.6, -0.04162553, 0.13731244, -1416608.3, 297010.7, 0.000035694404, 10.00118, 9.999051 
5.350351e+2, 1.3514031e+2, -1503225.5, -1737074.9, 144830.98, -0.17093877, 0.108554415, -1434012.1, 181620.1, 0.000008273398, 10.001461, 9.998475 
5.350387e+2, 1.4513877e+2, -1397845.5, -1614569.3, 20891.506, -0.010261611, 0.109721385, -1395850.0, 121797.23, 0.00000061502607, 10.001443, 9.99861 
5.350378e+2, 1.5513691e+2, -1279827.0, -1510493.5, 9596.388, 0.023757901, 0.01138764, -1279428.4, 140235.56, 0.00000000036285042, 10.001605, 9.998576 
5.350371e+2, 1.6513565e+2, -1202991.5, -1410610.6, 34192.76, 0.02802338, 0.027210984, -1197505.3, 124171.19, 0.0, 10.001401, 9.9987 
5.350371e+2, 1.7513472e+2, -1171502.1, -1347511.1, 31774.648, 0.026182638, 0.03186552, -1165941.6, 57744.957, 0.0, 10.000948, 9.998682 
5.350374e+2, 1.8513417e+2, -1034776.94, -1144904.0, 56957.375, 0.005671017, 0.076998815, -1010618.44, 115073.48, 0.0, 10.000866, 9.999426 
5.350382e+2, 1.9513363e+2, -907626.25, -1040941.4, 93576.15, -0.026080064, 0.0461007, -859393.75, 168302.38, 0.0, 10.001101, 9.999359 
5.350384e+2, 2.0513281e+2, -843976.44, -1035871.94, 26806.424, -0.01670211, 0.07082896, -840302.1, 89402.28, 0.0, 10.001194, 9.998664 
5.350384e+2, 2.151315e+2, -740448.94, -939920.5, 37759.727, 0.04113311, 0.03669458, -733540.3, 98178.664, 0.0, 10.001238, 9.998635 
5.350385e+2, 2.2513056e+2, -646341.44, -895204.7, 65371.246, 0.049435977, 0.10759921, -630214.8, 103514.766, 0.0, 10.001451, 9.998164 
5.3503853e+2, 2.351297e+2, -497404.38, -773058.8, 86154.71, 0.0076042404, 0.16833231, -472692.44, 163046.3, 0.0, 10.001795, 9.998165 
5.350393e+2, 2.4512774e+2, -390228.28, -680433.1, 83194.3, 0.013924967, 0.16499929, -368070.4, 169687.1, 0.0, 10.001895, 9.998086 
5.350405e+2, 2.5512448e+2, -337109.34, -608305.6, 89522.91, 0.047784716, -0.006163431, -310223.0, 129564.83, 0.0, 10.001596, 9.998054 
5.350413e+2, 2.6512274e+2, -286416.75, -547971.25, 26841.014, 0.07465553, 0.03233031, -283690.72, 58114.234, 0.0, 10.001354, 9.997906 
5.350416e+2, 2.7512214e+2, -230748.06, -470522.1, 33920.336, 0.10355787, 0.14310858, -226041.8, 17771.523, 0.0, 10.001061, 9.997908 
5.350426e+2, 2.8512046e+2, -127834.914, -355501.7, 38213.92, 0.16256765, 0.18377948, -121591.89, 24238.736, 0.00000019037492, 10.0010395, 9.998023 
5.3504384e+2, 2.9511768e+2, -27988.203, -262605.72, 35815.63, 0.20811263, 0.06134316, -22642.553, 25215.063, 0.0000040138116, 10.001045, 9.997996 
5.350421e+2, 3.0511642e+2, 107509.76, -80772.164, 57850.316, -0.042535502, 0.100815125, 123863.95, 123863.95, 0.000024880646, 10.001272, 9.998818 
5.3504586e+2, 3.15114e+2, 145865.55, 56264.74, -22522.525, 0.15492684, -0.05812335, 151208.34, 151208.34, 0.00007745561, 10.000939, 9.999923 
5.4503644e+2, 1.2514329e+2, -1504050.9, -1718780.6, -152459.53, -0.027476668, 0.15815477, -1424945.6, 288659.16, 0.00003031358, 10.001845, 9.999062 
5.4503554e+2, 1.3514188e+2, -1535854.0, -1754281.8, 158280.13, -0.24396867, 0.12482671, -1452765.3, 162852.78, 0.000006366235, 10.00125, 9.9984665 
5.450418e+2, 1.4514008e+2, -1455322.4, -1609551.8, 112017.69, 0.1911554, 0.09073284, -1396442.1, 121191.92, 0.00000037085837, 10.000908, 9.99891 
5.4503995e+2, 1.5513864e+2, -1261883.4, -1464514.3, 46032.98, 0.08819734, 0.002347149, -1251916.0, 167729.39, 0.00000000007720086, 10.001564, 9.998915 
5.450386e+2, 1.6513753e+2, -1163900.4, -1415455.6, 87994.65, 0.028000135, 0.027879573, -1136175.3, 185481.22, 0.0, 10.001802, 9.998458 
5.4503846e+2, 1.7513655e+2, -1101093.0, -1336578.0, 79774.41, 0.046548042, 0.053918265, -1076613.0, 147055.66, 0.0, 10.001565, 9.998446 
5.450388e+2, 1.8513583e+2, -939687.3, -1100260.6, 144255.23, 0.032920003, 0.09404238, -854881.5, 270794.2, 0.0, 10.001506, 9.999434 
5.450396e+2, 1.951351e+2, -824276.06, -995418.0, 107184.88, -0.007130233, 0.040353067, -772693.8, 254986.5, 0.0, 10.001637, 9.9994135 
5.4504e+2, 2.051342e+2, -783643.56, -1025991.56, 39727.543, 0.014012807, 0.062042918, -777297.3, 152391.64, 0.0, 10.001686, 9.998506 
5.4504037e+2, 2.1513285e+2, -711767.94, -938035.1, 18473.951, 0.10961531, 0.040140696, -710269.56, 121434.87, 0.0, 10.001498, 9.998522 
5.450405e+2, 2.251318e+2, -591661.7, -846998.44, 93228.83, 0.10243794, 0.09550511, -561245.2, 172469.98, 0.0, 10.001724, 9.998364 
5.450404e+2, 2.3513073e+2, -407445.5, -712415.7, 86256.44, -0.0013830281, 0.11751168, -384739.63, 250984.92, 0.0, 10.002334, 9.998329 
5.450413e+2, 2.4512854e+2, -359759.94, -684127.44, 79899.17, 0.022591751, 0.09246863, -341147.0, 196598.19, 0.0, 10.00218, 9.997926 
5.4504305e+2, 2.5512508e+2, -392684.44, -653318.5, 61412.11, 0.16124806, -0.08449368, -378939.06, 60839.78, 0.0, 10.001294, 9.997891 
5.450436e+2, 2.6512355e+2, -286623.38, -565242.94, 80643.77, 0.17570308, -0.009243526, -264965.34, 76830.27, 0.0, 10.001433, 9.997745 
5.4504323e+2, 2.751235e+2, -17257.533, -382454.2, 64599.05, 0.09654789, 0.17282271, -6167.486, 237632.89, 0.0, 10.002596, 9.997771 
5.450439e+2, 2.8512174e+2, 67593.695, -271454.0, 67729.98, 0.12733465, 0.21558332, 80623.086, 226442.36, 0.00000011177434, 10.002432, 9.997935 
5.450451e+2, 2.951183e+2, -39670.52, -270949.56, 45500.72, 0.2498738, 0.038249653, -31040.92, 16810.799, 0.0000045059896, 10.001005, 9.997948 
5.450441e+2, 3.051169e+2, 66943.195, -134013.9, 119194.15, 0.051713396, 0.07978114, 122359.43, 122359.43, 0.000026381855, 10.001141, 9.998503 
5.4504764e+2, 3.151153e+2, 318190.5, 153641.86, -121148.05, 0.20202902, 0.027918668, 382360.4, 382360.4, 0.00007890932, 10.0020895, 10.000011 
5.550383e+2, 1.251437e+2, -1476115.5, -1650832.3, -112242.8, -0.09815669, 0.04665387, -1421241.9, 292357.72, 0.000026661766, 10.001813, 9.9995365 
5.5503607e+2, 1.351432e+2, -1505135.8, -1686635.1, 139043.88, -0.349573, 0.057050124, -1429847.1, 185754.36, 0.0000052899522, 10.001229, 9.998948 
5.550439e+2, 1.4514175e+2, -1456589.3, -1593501.6, 113083.67, 0.27108267, 0.026759034, -1392855.6, 124757.89, 0.00000021782215, 10.00084, 9.999047 
5.5504125e+2, 1.5514097e+2, -1261382.5, -1451491.8, 89268.87, 0.023784995, -0.004949723, -1226036.6, 193583.19, 0.00000000000011946363, 10.001515, 9.999031 
5.550394e+2, 1.6514014e+2, -1163237.4, -1404734.4, 63120.3, -0.10496035, 0.039346263, -1147734.6, 173893.39, 0.0, 10.00176, 9.998552 
5.550393e+2, 1.7513892e+2, -1106347.1, -1333738.9, 84117.24, -0.054770112, 0.030462692, -1078613.0, 145029.14, 0.0, 10.001502, 9.9985 
5.550399e+2, 1.8513794e+2, -991068.0, -1180359.3, 133911.27, -0.04210573, 0.06857223, -921731.8, 203920.22, 0.0, 10.00139, 9.998942 
5.5504084e+2, 1.9513698e+2, -875890.2, -1079275.5, 127811.56, -0.08179092, 0.046149097, -814251.3, 213409.22, 0.0, 10.001529, 9.998898 
5.550414e+2, 2.0513593e+2, -819023.2, -1060591.9, 18340.826, -0.0479808, 0.086219184, -817638.56, 112032.57, 0.0, 10.001526, 9.998342 
5.5504173e+2, 2.1513446e+2, -750342.44, -976719.25, 27383.148, 0.0656688, 0.06976892, -747077.2, 84609.87, 0.0, 10.001317, 9.998344 
5.5504215e+2, 2.2513267e+2, -603250.1, -829816.9, 101903.22, 0.07223778, 0.05048379, -564160.94, 169542.67, 0.0, 10.001547, 9.99857 
5.5504274e+2, 2.3513035e+2, -422226.84, -695220.94, 124592.2, -0.036042456, -0.07215503, -373914.1, 261809.02, 0.0, 10.002129, 9.998545 
5.550436e+2, 2.451287e+2, -384555.9, -704038.5, 33904.65, -0.0019652657, -0.049697954, -380997.47, 156741.63, 0.0, 10.002035, 9.997866 
5.5504465e+2, 2.551274e+2, -414500.53, -668811.2, 47693.53, 0.16096178, -0.0024578983, -405850.28, 33904.418, 0.0, 10.001159, 9.997856 
5.550453e+2, 2.65126e+2, -300764.3, -573659.4, 110555.01, 0.17333227, 0.07955345, -261597.67, 80174.58, 0.0, 10.001349, 9.997724 
5.550456e+2, 2.7512395e+2, -39572.438, -404055.03, 124194.96, 0.041629795, 0.07323986, -1277.389, 242518.5, 0.0, 10.002488, 9.997677 
5.550457e+2, 2.8512204e+2, 63515.67, -267504.34, -2145.2295, 0.034552496, 0.10443955, 63529.574, 209345.73, 0.00000024371042, 10.002375, 9.997993 
5.5504525e+2, 2.9512018e+2, -44287.4, -269802.88, 14201.286, 0.11671488, 0.07658562, -43396.625, 4436.487, 0.0000058589785, 10.000946, 9.997992 
5.5504495e+2, 3.0511844e+2, -24542.88, -308571.3, 149737.44, -0.015565901, 0.1436176, 39814.742, 39814.742, 0.000029984647, 10.001085, 9.997324 
5.5504906e+2, 3.1511667e+2, 213021.27, -39519.184, -68493.82, 0.057396106, 0.19180508, 230401.9, 230401.9, 0.00008416486, 10.001971, 9.998748 
5.650404e+2, 1.2514448e+2, -1590888.4, -1719599.5, -2205.7742, -0.009993853, 0.04669814, -1590850.6, 122741.25, 0.000022362967, 10.001073, 9.999408 
5.650374e+2, 1.3514394e+2, -1526075.1, -1685979.5, 11799.764, -0.309938, 0.042269047, -1525209.1, 90384.99, 0.000004259607, 10.001046, 9.999018 
5.650454e+2, 1.4514253e+2, -1476517.5, -1592114.5, 30315.074, 0.36144128, 0.0053148405, -1469049.9, 48556.11, 0.00000013010742, 10.000626, 9.999177 
5.650422e+2, 1.5514216e+2, -1428512.1, -1511985.1, -18326.69, 0.03766776, 0.0010084416, -1424665.8, -5057.1733, 0.0, 10.000272, 9.999224 
5.6504047e+2, 1.6514154e+2, -1322624.1, -1466952.8, 5102.568, -0.107011005, 0.050263964, -1322443.9, -829.56824, 0.0, 10.000587, 9.998697 
5.650413e+2, 1.7514025e+2, -1076006.6, -1299230.0, 2318.4258, -0.0032046924, 0.016422788, -1075982.5, 147645.27, 0.0, 10.001615, 9.998678 
5.65042e+2, 1.851391e+2, -978606.0, -1203714.1, 62076.637, 0.029428007, 0.039987616, -962622.4, 163016.98, 0.0, 10.001614, 9.998661 
5.650423e+2, 1.9513789e+2, -1046159.4, -1186628.9, 47332.16, -0.024726477, 0.016288524, -1031699.06, -4047.9592, 0.0, 10.0004835, 9.998647 
5.65043e+2, 2.0513667e+2, -916199.0, -1093887.4, 34812.42, 0.0004956806, 0.046071276, -909622.0, 20040.838, 0.0, 10.000807, 9.998454 
5.650441e+2, 2.1513522e+2, -576474.44, -876969.44, 36122.473, 0.12612568, 0.020865958, -572193.1, 259483.73, 0.0, 10.002453, 9.998476 
5.650448e+2, 2.251335e+2, -470057.38, -789087.4, 95046.23, 0.13613918, 0.010959922, -443887.66, 289805.72, 0.0, 10.002571, 9.998354 
5.65045e+2, 2.3513119e+2, -571597.1, -788939.44, 57154.754, 0.0389176, -0.08912724, -557483.56, 78231.6, 0.0, 10.001202, 9.998344 
5.6504565e+2, 2.4512988e+2, -501754.56, -722459.75, 14939.6455, 0.057439007, -0.038920723, -500747.88, 36981.02, 0.0, 10.001097, 9.99817 
5.6504655e+2, 2.5512922e+2, -231856.27, -547859.06, 19739.344, 0.19048513, 0.04152408, -230628.02, 209110.06, 0.0, 10.00229, 9.998129 
5.650472e+2, 2.6512793e+2, -154834.55, -486851.34, 126584.92, 0.18543206, 0.11971736, -112078.65, 229674.81, 0.0, 10.0022745, 9.997875 
5.6504744e+2, 2.751258e+2, -231235.63, -473632.44, 126647.37, 0.058766883, 0.08146188, -177138.27, 66639.22, 0.0, 10.001081, 9.997869 
5.6504756e+2, 2.851238e+2, -103090.98, -358728.66, 43932.16, 0.04893952, 0.10026689, -95751.8, 50046.156, 0.00000046127252, 10.001248, 9.997918 
5.6504726e+2, 2.95122e+2, 208245.36, -161031.45, 23179.602, 0.14228427, 0.08229295, 209694.66, 257509.3, 0.000007820285, 10.002717, 9.997894 
5.650477e+2, 3.051201e+2, 216578.92, -210914.16, 219548.94, 0.0781113, 0.14887865, 309246.03, 309246.03, 0.00003595913, 10.002811, 9.997171 
5.6505054e+2, 3.1511837e+2, 88461.43, -113873.09, 7270.4873, 0.062189568, 0.21071453, 88722.34, 88722.34, 0.000094486146, 10.001174, 9.998621 
5.750424e+2, 1.2514527e+2, -1639435.0, -1806679.5, 99758.125, 0.008271821, 0.12548505, -1592886.8, 120697.98, 0.000015098279, 10.001025, 9.998822 
5.750391e+2, 1.3514394e+2, -1560480.4, -1749514.9, 12892.673, -0.2888876, 0.07971742, -1559605.1, 55992.023, 0.0000026568694, 10.00101, 9.998597 
5.7504594e+2, 1.4514232e+2, -1465128.3, -1553867.6, -8053.0947, 0.31265852, 0.028001264, -1464403.4, 53208.633, 0.000000050157187, 10.000569, 9.999465 
5.750423e+2, 1.551422e+2, -1418215.0, -1478937.3, -15369.598, -0.0077703763, 0.02525166, -1414546.4, 5065.4536, 0.0, 10.000224, 9.999476 
5.750413e+2, 1.6514172e+2, -1309953.3, -1423924.5, 25530.764, -0.1161117, 0.058103014, -1304495.5, 17119.982, 0.0, 10.000512, 9.999026 
5.7504386e+2, 1.7514057e+2, -1064265.1, -1261417.9, 54795.75, 0.056420695, 0.00665882, -1050059.1, 173566.67, 0.0, 10.001552, 9.998971 
5.750447e+2, 1.8513939e+2, -992813.6, -1208468.4, 6182.585, 0.10836467, 0.0122572025, -992636.56, 133000.25, 0.0, 10.001513, 9.998675 
5.7504356e+2, 1.9513783e+2, -1063739.3, -1191697.0, 21191.082, 0.019076353, -0.045250677, -1060321.1, -32669.197, 0.0, 10.000353, 9.998674 
5.7504445e+2, 2.0513652e+2, -912424.6, -1044799.75, 80248.8, 0.034496408, -0.048082404, -874589.8, 55073.395, 0.0, 10.000627, 9.9988785 
5.7504714e+2, 2.1513525e+2, -579025.2, -834606.8, 110899.04, 0.14842819, -0.09745155, -537614.7, 294058.2, 0.0, 10.002247, 9.998866 
5.7504785e+2, 2.2513428e+2, -534970.4, -884616.2, 28063.072, 0.1588785, -0.021383723, -532732.3, 200951.94, 0.0, 10.002394, 9.997786 
5.7504684e+2, 2.3513326e+2, -634821.6, -880803.06, 23303.486, 0.06733338, 0.06477958, -632633.4, 3066.9937, 0.0, 10.001028, 9.997798 
5.750471e+2, 2.4513204e+2, -475825.3, -650232.0, 44010.957, 0.05618355, 0.123697236, -465348.63, 72365.945, 0.0, 10.001001, 9.99872 
5.750484e+2, 2.5513035e+2, -213167.61, -478048.1, 81538.46, 0.1086967, 0.04613678, -190079.92, 249650.05, 0.0, 10.002144, 9.998685 
5.7504874e+2, 2.651294e+2, -135575.14, -433868.5, 66208.03, 0.087089114, 0.10881287, -121540.23, 220199.42, 0.0, 10.002207, 9.99828 
5.750482e+2, 2.7512884e+2, -209850.64, -418490.22, 96136.125, -0.008390968, 0.18850492, -172308.63, 71438.34, 0.0, 10.001014, 9.99829 
5.7504886e+2, 2.8512698e+2, -116847.0, -371690.84, 83056.586, 0.021841455, 0.20166051, -92167.83, 53597.813, 0.0000006054728, 10.001186, 9.997858 
5.7505053e+2, 2.9512376e+2, 184903.66, -183999.75, 98473.05, 0.1568652, 0.047477733, 209543.72, 257340.73, 0.000009307056, 10.002612, 9.9977865 
5.75052e+2, 3.05122e+2, 267746.03, -88678.38, 150956.02, 0.19874819, 0.09251392, 323087.47, 323087.47, 0.000040671366, 10.002751, 9.998043 
5.7505137e+2, 3.1511998e+2, 136539.06, 6314.4546, -2492.5642, -0.050120562, 0.04187499, 136586.77, 136586.77, 0.000103750725, 10.001085, 9.999496 
5.850444e+2, 1.2514487e+2, -1494076.4, -1729349.1, 156395.27, 0.0705272, 0.16054314, -1416014.6, 297575.7, 0.000008007214, 10.001954, 9.998924 
5.850406e+2, 1.3514358e+2, -1627998.9, -1752119.4, -48118.652, -0.18851747, 0.09707826, -1611529.8, 4072.11, 0.0000012151539, 10.000406, 9.998878 
5.850458e+2, 1.4514236e+2, -1561481.9, -1567060.3, 37405.7, 0.29142833, 0.057379354, -1526761.5, -9148.752, 0.000000012980553, 9.999801, 9.999718 
5.850432e+2, 1.5514249e+2, -1340691.5, -1407466.5, -8200.317, 0.050717432, 0.04813092, -1339699.3, 79911.05, 0.0, 10.000635, 9.99974 
5.850428e+2, 1.651421e+2, -1232675.5, -1378788.3, 66754.97, -0.036058627, 0.07338483, -1206769.9, 114842.766, 0.0, 10.001001, 9.999105 
5.8504546e+2, 1.7514104e+2, -1149691.1, -1290235.1, 50756.133, 0.09941516, 0.022534406, -1133277.9, 90343.91, 0.0, 10.000906, 9.999086 
5.850464e+2, 1.8513998e+2, -1035885.3, -1234843.3, -3757.7185, 0.14820144, 0.036976974, -1035814.4, 89817.54, 0.0, 10.001231, 9.99864 
5.850454e+2, 1.9513854e+2, -841464.5, -1093002.1, -23332.217, 0.097699344, -0.0011611496, -839318.56, 188328.19, 0.0, 10.001898, 9.998623 
5.850462e+2, 2.0513727e+2, -721001.06, -930982.94, 81080.53, 0.09518559, -0.010708329, -693337.75, 236319.98, 0.0, 10.001842, 9.999072 
5.850486e+2, 2.1513587e+2, -730946.44, -890030.3, 66816.01, 0.14542057, -0.0920589, -706607.2, 125060.19, 0.0, 10.001114, 9.999037 
5.850496e+2, 2.2513516e+2, -685733.75, -950690.5, 9271.786, 0.15639055, -0.0011201533, -685409.7, 48266.836, 0.0, 10.001337, 9.997845 
5.8504903e+2, 2.3513477e+2, -423692.56, -777785.2, 16963.6, 0.12563783, 0.14396003, -422881.75, 212806.58, 0.0, 10.002465, 9.997823 
5.8504915e+2, 2.4513353e+2, -278377.06, -554605.6, 74264.35, 0.109003805, 0.19910239, -259676.97, 278026.25, 0.0, 10.002358, 9.998714 
5.850499e+2, 2.5513124e+2, -348414.97, -539773.5, 37662.848, 0.10130561, 0.059906047, -341269.06, 98454.49, 0.0, 10.001209, 9.998697 
5.850503e+2, 2.6513004e+2, -266248.9, -467473.4, 31155.8, 0.07487992, 0.084863044, -261535.42, 80198.7, 0.0, 10.001201, 9.998527 
5.8505034e+2, 2.7512962e+2, -1283.971, -287290.34, 19432.174, 0.04589584, 0.15229669, 30.27305, 243768.34, 0.0, 10.00234, 9.998542 
5.850513e+2, 2.85128e+2, 64241.984, -301097.4, 38437.91, 0.08575677, 0.18370138, 68242.3, 213996.6, 0.00000055145284, 10.002508, 9.9977 
5.85053e+2, 2.9512498e+2, 24473.582, -277566.47, 11046.5205, 0.20570238, 0.07034953, 24877.047, 72661.97, 0.000008783807, 10.001581, 9.997635 
5.8505523e+2, 3.0512294e+2, 91568.92, -151625.27, 47854.156, 0.325854, 0.08656009, 100646.516, 100646.516, 0.000039667964, 10.001444, 9.998233 
5.8505344e+2, 3.1512064e+2, 281082.53, 125043.43, -187435.06, 0.024432542, -0.021886043, 406087.5, 406087.5, 0.00010388018, 10.001876, 9.999917 
5.9504604e+2, 1.2514324e+2, -1422569.9, -1573028.8, 124571.68, -0.042896118, 0.15705009, -1352274.1, 361334.72, 0.0000033727015, 10.001943, 9.999994 
5.950418e+2, 1.351429e+2, -1562483.3, -1610748.5, -99760.78, -0.14836858, 0.08995744, -1483977.6, 131630.5, 0.00000044999516, 10.000394, 9.999853 
5.9504455e+2, 1.4514264e+2, -1550633.5, -1533731.8, 45936.105, 0.13923162, 0.084403455, -1495475.6, 22132.686, 0.000000014541682, 9.999755, 9.999965 
5.950444e+2, 1.5514296e+2, -1333951.6, -1383136.0, 37531.164, 0.06052236, 0.07075325, -1313673.3, 105930.98, 0.0, 10.000588, 9.999931 
5.9504443e+2, 1.6514277e+2, -1251638.3, -1397557.8, 47041.57, -0.006613336, 0.11114013, -1237787.8, 83817.67, 0.0, 10.000926, 9.999006 
5.950456e+2, 1.751417e+2, -1165473.9, -1305092.8, 62477.18, -0.0064635254, 0.07048605, -1141599.0, 82016.305, 0.0, 10.000838, 9.999013 
5.9504664e+2, 1.8514086e+2, -1058676.4, -1258609.4, 3362.5134, 0.016377566, 0.11531114, -1058619.9, 67004.84, 0.0, 10.001129, 9.998527 
5.950472e+2, 1.9513997e+2, -872252.56, -1120144.0, 14999.487, 0.05438824, 0.13959278, -871348.25, 156288.11, 0.0, 10.001743, 9.998508 
5.950477e+2, 2.0513886e+2, -744782.6, -940647.6, 39027.836, 0.040227022, 0.15271954, -737292.4, 192354.45, 0.0, 10.001669, 9.999091 
5.950485e+2, 2.151372e+2, -755235.7, -897973.3, 56203.41, -0.017058188, 0.042543348, -735762.2, 95897.28, 0.0, 10.000934, 9.999068 
5.950496e+2, 2.2513627e+2, -662007.9, -870179.8, 35467.56, -0.001110416, 0.07867299, -656131.0, 77538.08, 0.0, 10.001191, 9.998474 
5.950513e+2, 2.351357e+2, -410290.3, -705869.75, 74322.46, 0.07291854, 0.14686057, -392654.44, 243024.5, 0.0, 10.00227, 9.998416 
5.950515e+2, 2.4513431e+2, -334869.03, -643942.4, 16564.807, 0.07548775, 0.18337914, -333983.78, 203711.16, 0.0, 10.002232, 9.998166 
5.950505e+2, 2.5513187e+2, -402293.8, -623211.06, 8717.967, 0.009425671, 0.08384086, -401950.3, 37768.586, 0.0, 10.001084, 9.998187 
5.9505117e+2, 2.6512992e+2, -267181.5, -453661.8, 57711.145, 0.011240853, 0.052479748, -250766.27, 90969.88, 0.0, 10.001135, 9.998656 
5.9505326e+2, 2.7512816e+2, -11532.954, -283626.06, 79793.25, 0.06805197, -0.024732545, 10140.586, 253890.77, 0.0, 10.0022335, 9.998623 
5.950543e+2, 2.8512684e+2, 34019.87, -343910.22, -9022.72, 0.103487626, 0.045681093, 34235.156, 179998.8, 0.0000003359344, 10.002428, 9.99744 
5.9505415e+2, 2.9512563e+2, -7077.723, -314409.16, -5976.963, 0.11552939, 0.1394521, -6961.5273, 40817.793, 0.000006914508, 10.001468, 9.997432 
5.9505695e+2, 3.0512297e+2, 56245.363, -223137.39, 54226.44, 0.32021928, 0.12414125, 66401.2, 66401.2, 0.000035638073, 10.00142, 9.997758 
5.9505564e+2, 3.151203e+2, 275727.47, 131780.97, -77079.24, -0.027379178, 0.02918968, 309212.06, 309212.06, 0.00009897654, 10.001795, 10.000001 
6.0504663e+2, 1.2514198e+2, -1784297.5, -1701052.5, 219602.89, -0.02172271, 0.12175915, -1519162.5, 194456.95, 0.0000011596172, 9.99926, 10.000418 
6.050435e+2, 1.3514206e+2, -1551595.0, -1553434.6, -128741.125, -0.0010188987, 0.057238806, -1423770.4, 191843.94, 0.00000014603442, 10.00027, 10.000294 
6.050439e+2, 1.4514203e+2, -1453123.6, -1513584.6, 42454.11, 0.07074552, 0.06509957, -1431236.6, 86376.04, 0.0000000031309833, 10.00051, 9.999765 
6.0504514e+2, 1.5514219e+2, -1370618.9, -1423692.4, -36166.555, 0.10224293, 0.058216743, -1352297.9, 67313.61, 0.0, 10.000418, 9.999755 
6.050459e+2, 1.651419e+2, -1282331.8, -1413964.8, -5791.8257, 0.066981204, 0.09829846, -1282077.4, 39536.586, 0.0, 10.000696, 9.999024 
6.0504675e+2, 1.7514087e+2, -1103165.0, -1273465.1, -11033.319, 0.0071760034, 0.058097098, -1102453.1, 121170.16, 0.0, 10.001243, 9.999048 
6.050477e+2, 1.8514007e+2, -1056169.3, -1241891.6, -39422.664, 0.02321714, 0.10120735, -1048147.6, 77484.58, 0.0, 10.001101, 9.998646 
6.050487e+2, 1.9513927e+2, -1068411.0, -1198803.4, -42883.598, 0.11007463, 0.12215535, -1055571.6, -27928.307, 0.0, 10.000345, 9.998638 
6.0504925e+2, 2.0513844e+2, -901571.75, -1007378.0, 31597.766, 0.088623926, 0.15421495, -892853.8, 36797.766, 0.0, 10.000556, 9.999177 
6.050495e+2, 2.1513721e+2, -652482.4, -840636.4, 21686.557, -0.030408205, 0.0815833, -650015.1, 181645.94, 0.0, 10.001602, 9.999149 
6.0505074e+2, 2.2513631e+2, -571507.6, -774944.3, 23548.822, -0.025950247, 0.09489785, -568817.3, 164852.25, 0.0, 10.001611, 9.99891 
6.0505277e+2, 2.3513544e+2, -611260.3, -746817.0, 17752.633, 0.090492755, 0.0840675, -608974.0, 26706.055, 0.0, 10.000674, 9.998883 
6.050535e+2, 2.451343e+2, -510546.56, -731241.25, 13330.238, 0.114138804, 0.12567766, -509744.3, 27948.402, 0.0, 10.001052, 9.998133 
6.0505277e+2, 2.5513265e+2, -170374.9, -517382.8, 14789.26, 0.056148134, 0.11326237, -169745.73, 269964.25, 0.0, 10.002711, 9.998134 
6.050536e+2, 2.651306e+2, -33885.188, -383054.22, 78323.18, 0.06220212, 0.09543255, -17121.137, 324608.13, 0.0, 10.002914, 9.998285 
6.050558e+2, 2.751279e+2, -113185.59, -374050.25, 30282.594, 0.13310935, -0.039070528, -109716.37, 134037.34, 0.0, 10.0016985, 9.998263 
6.050566e+2, 2.8512642e+2, -65237.152, -358682.47, -17172.148, 0.1389832, 0.017864676, -64235.67, 81532.914, 0.00000016006682, 10.001606, 9.99774 
6.050559e+2, 2.9512587e+2, 184454.77, -185647.89, -5477.3867, 0.09626005, 0.1489748, 184535.81, 232312.11, 0.0000052467194, 10.002625, 9.997764 
6.0505897e+2, 3.0512306e+2, 197686.9, -183077.67, 95502.64, 0.33562824, 0.109842554, 220297.97, 220297.97, 0.000031333126, 10.002531, 9.997498 
6.0505784e+2, 3.1512105e+2, 126205.445, -1605.9901, -36164.04, 0.069776066, 0.12276015, 135728.45, 135728.45, 0.00009226463, 10.001024, 9.999474 
6.150457e+2, 1.2514107e+2, -1785250.6, -1698284.4, 176673.4, -0.11474593, 0.060753457, -1559821.8, 153800.48, 0.000000319301, 9.999247, 10.000436 
6.1504513e+2, 1.3514107e+2, -1566877.9, -1582318.0, -80444.09, 0.10126196, 0.004487415, -1493784.3, 121836.08, 0.000000018009526, 10.000262, 10.000098 
6.150434e+2, 1.4514059e+2, -1501113.3, -1615042.6, 12741.503, -0.07779981, 0.013364892, -1499705.8, 17919.473, 0.0, 10.00051, 9.999069 
6.150453e+2, 1.5514007e+2, -1415055.8, -1522985.8, -27452.82, 0.036558405, 0.007980959, -1408474.3, 11158.177, 0.0, 10.00043, 9.999074 
6.150467e+2, 1.651395e+2, -1276180.3, -1385984.3, -1382.4017, 0.04609053, 0.038538, -1276162.8, 45475.5, 0.0, 10.000633, 9.999246 
6.150483e+2, 1.7513852e+2, -1099638.5, -1254575.8, 24952.47, 0.00051050296, -0.017424973, -1095719.1, 127926.83, 0.0, 10.001185, 9.999209 
6.150492e+2, 1.8513766e+2, -1051886.5, -1203236.5, -81303.63, 0.02908232, -0.0052719642, -1016489.5, 109164.61, 0.0, 10.000974, 9.998969 
6.1504954e+2, 1.9513662e+2, -1060652.6, -1162912.5, -52200.832, 0.12946357, -0.03888793, -1038712.75, -11047.074, 0.0, 10.000255, 9.998931 
6.1505026e+2, 2.051362e+2, -912479.06, -995567.4, 57034.848, 0.10297382, 0.012323794, -883461.94, 46208.184, 0.0, 10.000409, 9.999328 
6.150513e+2, 2.1513602e+2, -672542.0, -836049.06, 74728.72, -0.034069944, 0.027543081, -643534.44, 188137.0, 0.0, 10.001401, 9.999279 
6.150523e+2, 2.2513534e+2, -582122.9, -753141.0, -23178.533, -0.05606714, 0.046319723, -579037.1, 154640.56, 0.0, 10.001424, 9.999147 
6.150532e+2, 2.3513399e+2, -620882.6, -722965.0, 96.639984, 0.030420437, -0.038605772, -620882.56, 14808.522, 0.0, 10.000488, 9.999135 
6.150545e+2, 2.4513352e+2, -493562.72, -669846.94, 58418.22, 0.082213655, 0.032368485, -475961.16, 61735.24, 0.0, 10.000937, 9.9986105 
6.150562e+2, 2.5513363e+2, -160520.02, -467229.2, 90761.32, 0.0917982, 0.14413394, -135674.58, 304022.4, 0.0, 10.002578, 9.998546 
6.150571e+2, 2.6513213e+2, -109683.12, -519186.63, 17874.486, 0.089584164, 0.20607452, -108904.39, 232809.34, 0.0, 10.002823, 9.997392 
6.150573e+2, 2.751288e+2, -192924.98, -509696.0, 3118.6914, 0.07834052, 0.101431385, -192894.28, 50854.676, 0.0, 10.001571, 9.99739 
6.150576e+2, 2.851268e+2, -13635.2295, -239611.14, 4624.9785, 0.046142474, 0.10355131, -13540.611, 132228.22, 0.00000012615395, 10.00155, 9.998584 
6.1505777e+2, 2.951259e+2, 231219.22, -63622.348, 51500.125, -0.03096306, 0.10756255, 239955.89, 287730.44, 0.000004351736, 10.002523, 9.998645 
6.150608e+2, 3.0512318e+2, 183663.7, -211669.2, 28426.244, 0.22984678, 0.042318188, 185697.22, 185697.22, 0.000027327982, 10.002518, 9.99732 
6.15059e+2, 3.1512317e+2, 33148.668, -172976.45, 2144.913, 0.0048391894, 0.28421047, 33170.984, 33170.984, 0.00008384043, 10.000931, 9.998349 
6.25045e+2, 1.2513949e+2, -1858369.4, -1731521.8, 141812.4, -0.06661313, -0.015074432, -1639596.5, 74037.01, 0.00000004128188, 9.998723, 10.000475 
6.2504625e+2, 1.3514026e+2, -1578678.9, -1587934.5, -91049.52, 0.21218833, 0.0064294664, -1492139.6, 123486.84, 0.000000000001578113, 10.000156, 10.000129 
6.250433e+2, 1.4513972e+2, -1478904.6, -1621301.4, 34231.64, -0.14152406, 0.017302118, -1471103.0, 46529.92, 0.0, 10.000738, 9.998918 
6.2504596e+2, 1.5513907e+2, -1339160.6, -1492873.3, 8633.958, 0.039097436, 0.010847756, -1338677.3, 80963.81, 0.0, 10.001008, 9.998986 
6.2504774e+2, 1.651384e+2, -1248982.6, -1367613.1, 72852.664, 0.08501412, 0.035933908, -1214352.1, 107295.87, 0.0, 10.000829, 9.999258 
6.2504935e+2, 1.751374e+2, -1249444.5, -1316926.8, 42972.5, 0.050969552, -0.02449343, -1228549.5, -4892.639, 0.0, 10.000157, 9.999255 
6.250502e+2, 1.8513666e+2, -1112691.6, -1211728.8, -32026.617, 0.07013945, -0.015154981, -1103237.4, 22426.383, 0.0, 10.000426, 9.999193 
6.2505037e+2, 1.951358e+2, -865582.1, -1040465.94, -34272.22, 0.13556544, -0.05678072, -859105.56, 168566.5, 0.0, 10.00145, 9.999201 
6.25051e+2, 2.0513551e+2, -792120.6, -944768.7, 82131.86, 0.10911558, -0.0036821426, -756324.2, 173351.03, 0.0, 10.001253, 9.999277 
6.2505233e+2, 2.151354e+2, -891929.3, -940434.4, 57938.77, 0.011783973, 0.024091993, -853371.94, -21694.902, 0.0, 9.999889, 9.999289 
6.250536e+2, 2.2513466e+2, -766888.3, -842861.7, -3490.5188, -0.00009069395, 0.034548935, -766728.25, -33044.273, 0.0, 10.000154, 9.99915 
6.2505484e+2, 2.3513305e+2, -408089.5, -624531.8, -25323.734, 0.07887977, -0.07199602, -405166.1, 230532.73, 0.0, 10.001954, 9.999118 
6.2505645e+2, 2.451325e+2, -262522.56, -550928.5, 40670.477, 0.11541271, -0.010814878, -256897.0, 280807.63, 0.0, 10.002473, 9.998697 
6.2505853e+2, 2.5513273e+2, -261480.06, -503439.34, 10923.919, 0.10898804, 0.10484912, -260987.88, 178716.48, 0.0, 10.001822, 9.998662 
6.250595e+2, 2.651316e+2, -254710.78, -582465.9, -41300.31, 0.1077086, 0.1932288, -249586.66, 92131.56, 0.0, 10.001783, 9.99746 
6.2505955e+2, 2.751288e+2, -88584.14, -454029.53, -18052.924, 0.12450574, 0.13479686, -87694.5, 156054.84, 0.0, 10.002253, 9.997448 
6.2505984e+2, 2.8512684e+2, 68300.52, -203413.94, 40755.76, 0.091295734, 0.14293823, 74282.0, 220051.14, 0.000000116905284, 10.00213, 9.998556 
6.2505996e+2, 2.9512554e+2, 68573.36, -154192.9, -15163.367, 0.0063612917, 0.112758726, 69600.77, 117379.72, 0.000004287332, 10.001431, 9.998567 
6.250629e+2, 3.0512315e+2, 88814.27, -187465.36, -27474.598, 0.24622448, 0.05588014, 91519.98, 91519.98, 0.000025852014, 10.00159, 9.997916 
6.250615e+2, 3.1512296e+2, 253736.05, -40422.613, -19568.545, 0.108490594, 0.21236579, 255032.11, 255032.11, 0.00007870898, 10.002353, 9.998559 
6.350436e+2, 1.251374e+2, -1846652.3, -1720437.6, 25590.08, -0.15554674, -0.08393638, -1715446.6, -1794.6531, 0.000000010756334, 9.998775, 10.000531 
6.3504654e+2, 1.3513948e+2, -1568822.4, -1571958.4, -36162.0, 0.19065863, 0.05849946, -1534194.4, 81439.94, 0.0, 10.000165, 10.000243 
6.3504314e+2, 1.4513943e+2, -1446972.9, -1536089.3, 20936.63, -0.2714917, 0.08003026, -1442299.3, 75336.48, 0.0, 10.000665, 9.999534 
6.350467e+2, 1.5513921e+2, -1303572.5, -1415702.3, 37389.355, -0.025570357, 0.05910421, -1292248.8, 127388.1, 0.0, 10.000991, 9.999526 
6.3504857e+2, 1.651386e+2, -1277153.1, -1416911.1, 30234.951, 0.05188582, 0.079252414, -1270892.6, 50750.895, 0.0, 10.000781, 9.998946 
6.3504964e+2, 1.7513736e+2, -1274710.5, -1365432.9, 33996.055, 0.025601465, 0.026693922, -1263385.1, -39727.22, 0.0, 10.000125, 9.998947 
6.350503e+2, 1.8513682e+2, -1110503.6, -1181000.0, -9474.94, 0.007477589, 0.059005354, -1109252.4, 16411.215, 0.0, 10.0003195, 9.999452 
6.3505065e+2, 1.9513656e+2, -868297.94, -1017007.7, 16014.01, -0.014984587, 0.05281727, -866593.0, 161071.64, 0.0, 10.001322, 9.999424 
6.350512e+2, 2.0513617e+2, -834348.3, -989625.8, 15045.884, -0.027679957, 0.0966239, -832903.8, 96764.67, 0.0, 10.001069, 9.999054 
6.350521e+2, 2.1513532e+2, -934717.56, -983871.5, 24357.838, -0.033797037, 0.068561286, -924692.06, -93013.88, 0.0, 9.999693, 9.9990835 
6.3505405e+2, 2.2513425e+2, -809874.06, -888502.06, 50323.1, 0.008449486, 0.06563729, -785328.8, -51640.113, 0.0, 9.9999695, 9.998922 
6.3505715e+2, 2.3513259e+2, -454880.8, -674716.4, 59113.156, 0.0916811, -0.024694722, -439993.63, 195710.11, 0.0, 10.001754, 9.998868 
6.350588e+2, 2.4513127e+2, -308529.53, -612739.2, 3008.7063, 0.07595489, -0.010442552, -308499.78, 229217.45, 0.0, 10.002333, 9.998338 
6.3505924e+2, 2.5513002e+2, -307852.7, -563598.1, 2125.8513, -0.035317805, -0.0033038054, -307835.0, 131896.63, 0.0, 10.001669, 9.998323 
6.350604e+2, 2.651291e+2, -198391.69, -440254.94, -39851.64, -0.012982821, 0.06876907, -191994.56, 149747.69, 0.0, 10.001682, 9.998483 
6.350623e+2, 2.75128e+2, -37422.81, -318228.66, 16728.66, 0.12493684, 0.0733132, -36429.73, 207324.16, 0.0, 10.00213, 9.998437 
6.3506275e+2, 2.851266e+2, -1923.5808, -332500.06, -2225.096, 0.13516042, 0.13273714, -1908.6045, 143860.81, 0.0000001448745, 10.002064, 9.997702 
6.3506204e+2, 2.9512495e+2, -17270.992, -295781.22, -18098.387, 0.026052495, 0.160417, -16099.832, 31688.006, 0.000005079309, 10.001297, 9.997652 
6.3506454e+2, 3.0512327e+2, 173592.4, -22416.963, -5345.0327, 0.2152231, 0.16516067, 173738.06, 173738.06, 0.000027855136, 10.001602, 9.99906 
6.350642e+2, 3.151205e+2, 323481.75, 124903.766, 83568.15, 0.061132368, -0.065329775, 353969.25, 353969.25, 0.00008149468, 10.002248, 9.999753 
6.450434e+2, 1.2513623e+2, -1820326.4, -1742569.1, 9957.48, -0.057547234, -0.06315994, -1741314.3, -27651.79, 0.0000000047013002, 9.999115, 10.000208 
6.4504707e+2, 1.351377e+2, -1562559.1, -1577974.9, -24481.191, 0.23005314, 0.033309367, -1544601.1, 71050.1, 0.0, 10.000287, 10.000119 
6.450439e+2, 1.451376e+2, -1430586.3, -1496888.8, 5816.2124, -0.24929917, 0.040466238, -1430079.9, 87573.266, 0.0, 10.000644, 9.99981 
6.450477e+2, 1.5513794e+2, -1363765.9, -1414532.6, -40929.71, 0.017179167, 0.047297683, -1340987.5, 78660.73, 0.0, 10.000439, 9.999803 
6.4504945e+2, 1.6513762e+2, -1359416.0, -1447566.3, -29007.271, 0.10229908, 0.07981452, -1350727.1, -29075.072, 0.0, 10.000177, 9.999032 
6.450499e+2, 1.7513646e+2, -1302553.6, -1366386.3, -21235.883, 0.06941688, 0.027007831, -1296134.4, -72468.305, 0.0, 9.999885, 9.999055 
6.450507e+2, 1.85136e+2, -1141289.5, -1190352.6, 19702.215, 0.035973378, 0.060239978, -1134357.3, -8686.002, 0.0, 10.000094, 9.999492 
6.4505166e+2, 1.9513586e+2, -958494.3, -1052813.5, -6074.456, -0.0054176985, 0.06211958, -958104.75, 69566.38, 0.0, 10.000692, 9.999472 
6.4505243e+2, 2.051354e+2, -847380.25, -1008392.7, -33025.215, -0.0032680621, 0.10263401, -840869.75, 88805.984, 0.0, 10.00104, 9.998932 
6.4505315e+2, 2.1513428e+2, -745165.3, -909597.56, -50373.883, 0.047115956, 0.060864273, -730960.4, 100727.875, 0.0, 10.001068, 9.998926 
6.4505523e+2, 2.2513328e+2, -640905.4, -818677.9, 74762.195, 0.07823516, 0.076658994, -613644.56, 120053.96, 0.0, 10.001146, 9.998845 
6.450586e+2, 2.3513205e+2, -526822.4, -713834.1, 62306.723, 0.09757007, 0.030358465, -507965.1, 127744.72, 0.0, 10.001261, 9.9988365 
6.450605e+2, 2.4513063e+2, -449734.5, -670732.4, 17651.762, 0.06382662, 0.034049936, -448333.47, 89390.625, 0.0, 10.001339, 9.99842 
6.4506096e+2, 2.551288e+2, -339230.94, -565274.6, 22618.533, -0.0077245263, -0.022210475, -336989.88, 102753.68, 0.0, 10.0014105, 9.998435 
6.450622e+2, 2.6512787e+2, -173501.53, -371818.63, 36536.332, 0.012853772, 0.017482083, -166984.53, 174768.73, 0.0, 10.001608, 9.998992 
6.4506435e+2, 2.7512735e+2, -25624.988, -256700.45, 17645.012, 0.13776344, 0.029206028, -24285.375, 219472.4, 0.000000000000000000046744374, 10.001968, 9.998944 
6.45065e+2, 2.8512618e+2, 43472.293, -323804.84, 20756.508, 0.15052631, 0.09398861, 44641.617, 190412.0, 0.00000034821963, 10.002423, 9.997588 
6.450643e+2, 2.9512435e+2, 196239.83, -215680.02, 24415.973, 0.05672825, 0.113969445, 197682.0, 245473.55, 0.0000068469953, 10.002847, 9.9974575 
6.450665e+2, 3.051227e+2, 256206.69, -27736.193, 40929.56, 0.23190504, 0.15970773, 261988.83, 261988.83, 0.00003364889, 10.002394, 9.99862 
6.450665e+2, 3.1511956e+2, 152031.5, 42907.574, -38874.96, 0.14080691, -0.07204937, 164464.1, 164464.1, 0.000093661416, 10.001076, 9.99974 
6.550428e+2, 1.2513578e+2, -1859976.9, -1822108.4, -96078.53, -0.0965256, 0.0251735, -1743116.1, -29449.566, 0.000000001405694, 9.999106, 9.999662 
6.550471e+2, 1.3513502e+2, -1579113.8, -1615251.6, 27883.506, 0.17265497, -0.071965076, -1563956.6, 51719.5, 0.0, 10.000302, 9.99985 
6.550452e+2, 1.4513434e+2, -1450362.8, -1525458.9, -21928.055, -0.22439493, -0.10192055, -1444428.6, 73255.28, 0.0, 10.000587, 9.999647 
6.550486e+2, 1.551353e+2, -1381643.4, -1442875.8, -32995.336, 0.02130831, -0.016797125, -1367248.0, 52426.79, 0.0, 10.000394, 9.999637 
6.5504986e+2, 1.6513544e+2, -1328712.0, -1367382.6, -58315.293, 0.08604813, 0.041243784, -1286610.1, 35063.613, 0.0, 10.000106, 9.999613 
6.550498e+2, 1.7513466e+2, -1269367.8, -1288131.1, -15971.508, 0.030860431, -0.03184017, -1260226.4, -36544.547, 0.0, 9.999845, 9.999609 
6.55051e+2, 1.8513423e+2, -1168872.5, -1225068.8, 26044.055, 0.017274147, -0.01168494, -1158658.8, -32972.7, 0.0, 9.999998, 9.999299 
6.550529e+2, 1.9513378e+2, -985699.1, -1083130.0, 33699.91, 0.022283385, -0.025941633, -975178.75, 52511.777, 0.0, 10.000581, 9.999318 
6.550543e+2, 2.0513321e+2, -876867.94, -1033318.44, -47634.07, 0.05165447, 0.016071128, -863506.06, 66190.87, 0.0, 10.000884, 9.99884 
6.550551e+2, 2.1513219e+2, -780447.94, -934712.94, -34180.53, 0.10827776, -0.0041415216, -773213.8, 58494.785, 0.0, 10.000866, 9.998852 
6.550567e+2, 2.2513175e+2, -663637.5, -816492.7, 64480.457, 0.07964397, 0.0653259, -640070.56, 93643.2, 0.0, 10.000939, 9.998954 
6.5505874e+2, 2.3513149e+2, -548030.1, -710573.2, 81506.96, -0.04778223, 0.10612074, -514199.78, 121516.77, 0.0, 10.001062, 9.998951 
6.550608e+2, 2.4513066e+2, -432058.2, -601255.5, 3071.1892, -0.05785892, 0.13503264, -432002.47, 105722.336, 0.0, 10.0012, 9.9989605 
6.550631e+2, 2.55129e+2, -323326.03, -495846.88, 42457.05, 0.035449024, 0.036326617, -313443.53, 126297.74, 0.0, 10.001258, 9.998981 
6.550645e+2, 2.6512787e+2, -185470.06, -381206.72, 34285.24, 0.04937058, 0.031162392, -179638.4, 162113.36, 0.0, 10.001534, 9.998964 
6.5506524e+2, 2.7512693e+2, -41762.305, -269855.97, 51863.72, -0.0008001, 0.006981064, -30523.36, 213236.44, 0.0000000002377775, 10.00187, 9.998905 
6.5506595e+2, 2.8512573e+2, 72771.97, -236100.53, 21228.775, -0.03276103, 0.037337694, 74224.19, 219995.02, 0.0000008000927, 10.002323, 9.998229 
6.550663e+2, 2.951239e+2, 214996.88, -139076.88, 56569.746, -0.0708843, -0.014091789, 223815.3, 271604.06, 0.000010270006, 10.002699, 9.998047 
6.550684e+2, 3.0512172e+2, 108318.9, -336328.13, -18212.086, 0.14408192, 0.058089565, 109063.59, 109063.59, 0.00004390313, 10.002387, 9.996512 
6.550677e+2, 3.1511948e+2, 55190.52, -140050.56, -21355.69, 0.06777594, 0.12550017, 57499.133, 57499.133, 0.00011355634, 10.000997, 9.998525 
6.65043e+2, 1.2513459e+2, -1743585.1, -1770502.8, -80009.766, -0.018707506, 0.024975631, -1675910.1, 37768.65, 0.00000000035571668, 9.9999275, 9.999612 
6.650472e+2, 1.3513401e+2, -1567378.4, -1619864.0, 69976.46, 0.16667515, -0.055796463, -1518885.8, 96800.33, 0.0, 10.000401, 9.999785 
6.6504675e+2, 1.4513342e+2, -1527410.3, -1559613.9, 28295.455, -0.093956895, -0.073845915, -1510955.9, 6736.8945, 0.0, 10.000054, 9.999663 
6.6504884e+2, 1.5513387e+2, -1518166.8, -1504764.0, -4649.8926, 0.06462118, -0.042652573, -1503308.8, -83620.25, 0.0, 9.999457, 9.999653 
6.650497e+2, 1.6513395e+2, -1373308.1, -1390128.4, 25444.324, 0.084007226, 0.00963815, -1354920.0, -33231.95, 0.0, 9.999804, 9.999602 
6.650501e+2, 1.7513347e+2, -1114579.5, -1216471.9, -11225.753, 0.035329565, -0.03362794, -1113357.4, 110336.0, 0.0, 10.000908, 9.99959 
6.650517e+2, 1.8513307e+2, -1027425.4, -1179490.3, 24219.385, 0.048581306, -0.0012581267, -1023661.2, 102037.03, 0.0, 10.001086, 9.9990835 
6.650541e+2, 1.9513236e+2, -1029344.06, -1131724.5, -4985.961, 0.099869356, -0.017753454, -1029101.8, -1395.2634, 0.0, 10.000398, 9.999075 
6.6505563e+2, 2.051317e+2, -917147.44, -1042719.8, -33420.92, 0.11866145, 0.022508198, -908806.56, 20907.346, 0.0, 10.000558, 9.998943 
6.650563e+2, 2.1513078e+2, -689395.5, -880833.94, -38653.46, 0.119419076, 0.0050181802, -681885.56, 149837.66, 0.0, 10.001445, 9.998952 
6.650578e+2, 2.251302e+2, -568189.25, -762293.0, 69193.734, 0.07417915, 0.052711688, -546048.7, 187680.39, 0.0, 10.001577, 9.9990225 
6.650599e+2, 2.3512962e+2, -557158.25, -709429.2, 52954.5, -0.023129607, 0.06106268, -540553.3, 95181.18, 0.0, 10.000991, 9.998999 
6.650623e+2, 2.4512911e+2, -438799.03, -590316.9, 10007.309, -0.017829454, 0.109848365, -438140.94, 99599.09, 0.0, 10.00106, 9.999113 
6.65065e+2, 2.551283e+2, -254604.84, -450616.7, -16372.84, 0.090489954, 0.080530874, -253246.64, 186502.16, 0.0, 10.001644, 9.999117 
6.650664e+2, 2.651273e+2, -169509.14, -385356.4, -26492.883, 0.08438553, 0.08605789, -166304.98, 175453.67, 0.0, 10.001691, 9.998863 
6.650666e+2, 2.751259e+2, -136710.44, -320055.56, -46557.78, -0.015093356, 0.025527466, -125565.266, 118206.26, 0.0000000023427176, 10.001255, 9.998846 
6.650675e+2, 2.8512478e+2, -29362.012, -240854.45, -25998.56, -0.05429225, 0.048687987, -26212.924, 119568.305, 0.0000014418595, 10.001415, 9.998643 
6.650689e+2, 2.951234e+2, 149785.58, -115280.85, -44230.188, -0.036616515, 0.0016469823, 156971.23, 204764.52, 0.000014823799, 10.002015, 9.998538 
6.6507095e+2, 3.051212e+2, 108241.914, -327045.44, -52391.332, 0.16684422, 0.036362905, 114458.96, 114458.96, 0.000057815294, 10.002343, 9.996598 
6.6506964e+2, 3.151197e+2, 209267.61, -70356.56, 52336.324, 0.1256892, 0.17761911, 218742.19, 218742.19, 0.00014076945, 10.002062, 9.998493 
6.7504275e+2, 1.2513278e+2, -1730560.5, -1736473.4, -146156.55, -0.118161075, -0.07069472, -1587330.5, 126367.08, 0.0000000023126079, 9.9999075, 9.999851 
6.75047e+2, 1.351346e+2, -1561550.5, -1601329.5, 95637.79, 0.067292765, 0.07191761, -1483755.9, 131925.77, 0.0, 10.000384, 9.999918 
6.750479e+2, 1.4513484e+2, -1521667.5, -1531912.6, -16155.316, -0.027346537, 0.12191237, -1509842.0, 7837.554, 0.0, 9.9999895, 9.999884 
6.750479e+2, 1.5513384e+2, -1499395.0, -1465142.0, -8353.309, -0.01880312, -0.012938411, -1463213.4, -43525.44, 0.0, 9.999458, 9.999922 
6.7504853e+2, 1.6513337e+2, -1419660.6, -1478817.6, 50568.39, -0.043841735, -0.0015669389, -1390655.4, -68962.05, 0.0, 9.999765, 9.999017 
6.7505056e+2, 1.7513308e+2, -1163951.1, -1303244.9, 44717.992, -0.051733516, 0.030611057, -1150830.9, 72868.16, 0.0, 10.000842, 9.999024 
6.750525e+2, 1.8513256e+2, -1062378.1, -1227943.5, -21626.19, -0.0045871437, 0.0956804, -1059599.9, 66106.805, 0.0, 10.000979, 9.998806 
6.7505455e+2, 1.9513166e+2, -1071645.5, -1180667.5, -15303.815, 0.07758539, 0.09210063, -1069538.0, -41819.668, 0.0, 10.000238, 9.998816 
6.7505586e+2, 2.0513095e+2, -924538.75, -1023350.56, -14999.394, 0.0605434, 0.12966812, -922312.06, 7413.4995, 0.0, 10.000395, 9.999162 
6.750563e+2, 2.1513009e+2, -700917.6, -859289.56, 8629.631, -0.05702899, 0.09230523, -700448.8, 131283.03, 0.0, 10.001246, 9.999196 
6.7505825e+2, 2.2512871e+2, -596358.44, -775508.7, 31692.309, -0.063150465, 0.047949936, -590917.2, 142826.33, 0.0, 10.001383, 9.999026 
6.750617e+2, 2.3512648e+2, -586556.6, -722057.75, 49642.85, 0.027910208, -0.109698325, -570315.8, 65447.703, 0.0, 10.000786, 9.99901 
6.750644e+2, 2.4512604e+2, -482592.5, -641856.56, 20107.076, 0.053885426, -0.041188743, -480093.2, 57675.695, 0.0, 10.000895, 9.998837 
6.7506623e+2, 2.5512683e+2, -300985.16, -509160.6, 22258.229, 0.010034856, 0.12147418, -298631.9, 141132.6, 0.0, 10.001478, 9.9987955 
6.750673e+2, 2.651263e+2, -200350.77, -417230.75, -59393.54, -0.021394657, 0.1951636, -185150.86, 156621.34, 0.0, 10.001559, 9.998706 
6.7506784e+2, 2.7512416e+2, -163877.63, -350604.72, -43765.48, -0.048235834, 0.07906607, -154128.77, 89664.75, 0.0000000015372758, 10.0011425, 9.998693 
6.750694e+2, 2.8512332e+2, -16723.172, -202601.69, -16745.49, -0.041168712, 0.1193555, -15226.647, 130575.26, 0.0000017821444, 10.001367, 9.998926 
6.750715e+2, 2.951232e+2, 153979.3, -73986.7, 1301.4733, -0.023705201, 0.17047183, 153986.73, 201789.4, 0.000019076204, 10.001877, 9.998887 
6.750732e+2, 3.051211e+2, 243644.8, -24229.049, -71900.81, 0.12583561, 0.090717904, 261723.75, 261723.75, 0.000073988194, 10.002259, 9.998714 
6.7507124e+2, 3.151203e+2, 277974.56, 105186.94, 99047.23, 0.0017264863, 0.09526778, 323012.28, 323012.28, 0.00017626988, 10.001936, 9.999752 
6.850435e+2, 1.2513214e+2, -1715265.6, -1689677.1, -108806.38, -0.006418619, -0.050715066, -1592915.4, 120791.31, 0.0000000036242784, 9.99981, 10.000239 
6.850462e+2, 1.3513373e+2, -1702894.9, -1641500.9, 71366.95, 0.016766848, 0.050737504, -1594509.1, 21180.729, 0.0, 9.999315, 10.000146 
6.8504846e+2, 1.4513421e+2, -1595473.3, -1577661.1, 11557.422, 0.0656137, 0.118394196, -1571976.4, -54292.285, 0.0, 9.999518, 9.999802 
6.850484e+2, 1.5513326e+2, -1322193.4, -1392876.3, -36978.117, 0.034807313, -0.0046808394, -1306384.0, 113308.87, 0.0, 10.000713, 9.999827 
6.8504906e+2, 1.6513261e+2, -1265461.1, -1439202.3, 45853.16, -0.014393591, 0.009223081, -1254102.4, 67598.51, 0.0, 10.000968, 9.998714 
6.850511e+2, 1.7513199e+2, -1268101.6, -1394141.1, 26406.186, -0.04266935, 0.041826576, -1262792.9, -39082.008, 0.0, 10.000292, 9.998679 
6.850533e+2, 1.8513148e+2, -1140700.8, -1258203.6, 11353.023, 0.01062992, 0.120667465, -1139613.9, -13894.984, 0.0, 10.000398, 9.9988785 
6.850556e+2, 1.9513072e+2, -933859.6, -1105277.8, 15361.16, 0.12132312, 0.12219122, -932493.94, 95234.26, 0.0, 10.001132, 9.998899 
6.8505687e+2, 2.0513009e+2, -813698.7, -955379.06, 56309.887, 0.100553505, 0.15667206, -794045.0, 135689.16, 0.0, 10.001137, 9.999241 
6.850571e+2, 2.151292e+2, -801077.7, -901237.2, 34779.242, -0.04783018, 0.10946022, -790185.5, 41555.047, 0.0, 10.000545, 9.999231 
6.850594e+2, 2.2512768e+2, -699101.8, -844414.25, 76036.19, -0.038851526, 0.05950558, -666589.44, 67164.195, 0.0, 10.000741, 9.998865 
6.850637e+2, 2.3512533e+2, -473441.5, -686367.6, 50043.273, 0.12143663, -0.09415541, -462266.5, 173508.98, 0.0, 10.001623, 9.998856 
6.850663e+2, 2.4512473e+2, -366206.06, -575695.2, 52708.645, 0.12383435, -0.038626235, -353691.84, 184090.34, 0.0, 10.001666, 9.998908 
6.8506694e+2, 2.5512543e+2, -363488.63, -525950.5, 51632.906, -0.028034767, 0.10611873, -348467.72, 91309.77, 0.0, 10.001021, 9.998884 
6.8506813e+2, 2.6512492e+2, -295937.56, -462649.06, 22208.172, -0.05799155, 0.17925462, -293029.84, 48754.402, 0.0, 10.000885, 9.99872 
6.8506986e+2, 2.7512288e+2, -172434.08, -353257.72, 16666.87, 0.051000986, 0.06967036, -170910.69, 72894.13, 0.00000000039754933, 10.001059, 9.99872 
6.850715e+2, 2.851221e+2, -99670.37, -240232.48, 76760.77, 0.07351874, 0.1113485, -65876.24, 79937.04, 0.000001935021, 10.000785, 9.998945 
6.850728e+2, 2.9512197e+2, -72649.75, -178869.53, 40691.34, 0.008361188, 0.1662019, -58853.395, -11038.674, 0.000022833043, 10.000284, 9.998938 
6.850744e+2, 3.051203e+2, 115551.05, -30569.934, -39404.465, 0.09621725, 0.09862861, 125499.875, 125499.875, 0.00009092674, 10.001154, 9.999197 
6.8507427e+2, 3.1511867e+2, 406283.56, 189293.1, -25530.717, 0.089455076, -0.017494466, 409246.97, 409246.97, 0.00021663251, 10.002697, 9.99998 
6.950445e+2, 1.2513272e+2, -1666936.9, -1587603.5, -129300.07, 0.029738871, 0.09102384, -1492022.4, 221682.77, 0.00000000017840025, 9.999822, 10.000921 
6.950444e+2, 1.351316e+2, -1677439.0, -1592369.3, 64363.977, -0.1297885, -0.11193398, -1557755.4, 57953.363, 0.0, 9.999337, 10.000468 
6.9504803e+2, 1.4513156e+2, -1625011.6, -1634702.1, 38308.88, 0.032276705, -0.094028555, -1591242.8, -73536.41, 0.0, 9.999495, 9.999424 
6.9505e+2, 1.5513203e+2, -1353917.8, -1459110.6, 25041.76, 0.08783087, -0.037020903, -1348260.8, 71443.47, 0.0, 10.000703, 9.999384 
6.950508e+2, 1.6513164e+2, -1282877.4, -1456021.9, 5990.6807, 0.025050431, 0.03147128, -1282670.4, 39040.543, 0.0, 10.000895, 9.998627 
6.950514e+2, 1.7513038e+2, -1283575.5, -1410062.9, 22246.834, -0.078778274, 0.011198666, -1279776.8, -56049.64, 0.0, 10.000225, 9.9986 
6.9505346e+2, 1.851299e+2, -1125384.1, -1197815.6, 26172.736, -0.04693033, 0.07154067, -1116916.6, 8816.92, 0.0, 10.000279, 9.999344 
6.9505674e+2, 1.951297e+2, -924825.75, -1051566.9, 57069.324, 0.090058155, 0.07995541, -902916.0, 124818.75, 0.0, 10.000994, 9.999326 
6.9505835e+2, 2.0512915e+2, -844214.94, -988776.44, 16152.342, 0.102702655, 0.111104175, -842432.2, 87307.24, 0.0, 10.000996, 9.9990835 
6.9505847e+2, 2.15128e+2, -840792.06, -938421.1, 27191.21, 0.00087914633, 0.054700244, -833729.8, -1979.8081, 0.0, 10.000348, 9.99907 
6.9506097e+2, 2.2512713e+2, -748276.4, -903201.6, 93957.16, 0.01249915, 0.0911572, -703967.06, 29792.158, 0.0, 10.000553, 9.99855 
6.950656e+2, 2.3512614e+2, -523210.16, -744748.6, 96346.91, 0.118634984, 0.10238089, -487171.53, 148599.19, 0.0, 10.001432, 9.998542 
6.950676e+2, 2.4512523e+2, -352970.4, -518965.1, 14599.513, 0.055484474, 0.120686196, -351696.13, 186083.19, 0.0, 10.0015335, 9.999362 
6.9506687e+2, 2.5512403e+2, -346801.4, -466341.72, 45174.414, -0.17137392, 0.02488981, -331650.25, 108138.16, 0.0, 10.000903, 9.999353 
6.950684e+2, 2.651231e+2, -300084.3, -444114.88, 16062.261, -0.15016083, 0.028042732, -298314.78, 43480.934, 0.0, 10.000776, 9.998896 
6.950719e+2, 2.7512214e+2, -181369.86, -341490.2, 39339.164, 0.1162236, 0.0036516187, -172226.89, 71578.3, 0.0000000054780975, 10.000934, 9.9988575 
6.950733e+2, 2.851211e+2, -127115.25, -282956.9, 40011.3, 0.13554212, 0.033370614, -117442.93, 28372.533, 0.000002364329, 10.000725, 9.998677 
6.950723e+2, 2.951199e+2, -107218.04, -225502.52, 46424.766, -0.119597375, -0.003543803, -91173.42, -43344.363, 0.000027093956, 10.00018, 9.998663 
6.950743e+2, 3.051188e+2, 32930.613, -197039.05, 13734.934, -0.0626823, 0.059516016, 33748.027, 33748.027, 0.00010798756, 10.001124, 9.998067 
6.950781e+2, 3.1511548e+2, 329614.16, 52628.77, 101508.586, 0.11959297, -0.1175803, 362831.16, 362831.16, 0.00025661878, 10.002596, 9.999087 
7.050453e+2, 1.2513307e+2, -1771021.4, -1668480.3, 23052.688, 0.17449017, 0.1314282, -1663536.1, 50164.906, 0.0, 9.999211, 10.000679 
7.050445e+2, 1.3513082e+2, -1537567.9, -1575024.4, 53315.613, -0.095769845, -0.13531531, -1499786.8, 115928.375, 0.0, 10.000489, 10.000039 
7.050487e+2, 1.4513019e+2, -1491278.0, -1594027.8, 44028.46, 0.106382094, -0.14819674, -1474992.9, 42726.504, 0.0, 10.000516, 9.999205 
7.0505035e+2, 1.5513106e+2, -1473901.6, -1532816.4, 11359.212, 0.10219879, -0.029240416, -1471787.4, -52073.21, 0.0, 9.999969, 9.999213 
7.0505136e+2, 1.6513087e+2, -1379990.9, -1484963.4, 37967.254, 0.04030392, 0.05911785, -1367698.1, -45979.465, 0.0, 10.000163, 9.99877 
7.050527e+2, 1.7512946e+2, -1174965.3, -1335328.0, 36266.28, 0.0074442145, 0.0061847786, -1167145.0, 56589.785, 0.0, 10.00089, 9.9987755 
7.0505464e+2, 1.851287e+2, -1036066.6, -1153360.9, 60837.21, 0.02315207, 0.029171763, -1010211.4, 115530.87, 0.0, 10.000881, 9.999364 
7.05057e+2, 1.9512811e+2, -1042999.06, -1109774.8, 28505.64, 0.067801796, -0.00027203982, -1032485.6, -4739.5464, 0.0, 10.000173, 9.999335 
7.050588e+2, 2.0512745e+2, -925784.3, -1059384.0, 15594.939, 0.082735576, 0.030483756, -923988.06, 5764.4814, 0.0, 10.000544, 9.99883 
7.0506024e+2, 2.1512644e+2, -636884.3, -867544.56, -9594.434, 0.07313292, 0.012957142, -636485.94, 195277.81, 0.0, 10.001844, 9.998846 
7.0506287e+2, 2.2512588e+2, -572578.25, -809737.2, 75296.234, 0.092057325, 0.08973776, -550692.0, 183079.05, 0.0, 10.00174, 9.998609 
7.0506644e+2, 2.3512542e+2, -672313.1, -808385.06, 73162.28, 0.12166703, 0.1463565, -640441.06, -4662.979, 0.0, 10.000385, 9.998602 
7.0506835e+2, 2.4512435e+2, -562200.1, -615407.25, 26686.703, 0.06476703, 0.1461845, -551121.75, -13334.251, 0.0, 10.000071, 9.999412 
7.050687e+2, 2.5512242e+2, -371242.94, -471233.47, -2686.1318, -0.06215275, -0.025523966, -371170.8, 68631.305, 0.0, 10.000701, 9.999424 
7.050702e+2, 2.6512146e+2, -253660.63, -413617.16, -15625.336, -0.055175673, -0.038892686, -252148.56, 89660.91, 0.0, 10.00106, 9.998972 
7.0507264e+2, 2.75121e+2, -139787.3, -308934.4, -34033.42, 0.09165848, -0.016638586, -133196.39, 110616.97, 0.000000016182126, 10.001174, 9.99896 
7.050739e+2, 2.8511992e+2, -47543.453, -274546.63, -12329.674, 0.10197253, 0.012993063, -46875.734, 98948.71, 0.0000030357212, 10.001384, 9.998429 
7.050738e+2, 2.9511806e+2, 65906.31, -170709.47, -36999.797, -0.034859125, -0.060101412, 71557.055, 119401.336, 0.000031540207, 10.001479, 9.998424 
7.0507616e+2, 3.0511692e+2, 82282.12, -202160.8, 37721.867, -0.0021596884, 0.018272202, 87199.65, 87199.65, 0.00012311795, 10.001586, 9.997807 
7.0508057e+2, 3.1511432e+2, 190556.6, 28547.96, 133990.88, 0.18117562, -0.0641258, 266125.78, 266125.78, 0.0002906225, 10.001473, 9.999447 
7.150451e+2, 1.2513323e+2, -1834325.9, -1799495.5, 79683.055, 0.1600395, 0.0971661, -1735346.8, -21653.127, 0.0, 9.999214, 9.999773 
7.150461e+2, 1.351313e+2, -1609082.8, -1734601.6, 106978.836, -0.029268922, -0.03604376, -1547813.1, 67897.89, 0.0, 10.000525, 9.998932 
7.1504986e+2, 1.4513002e+2, -1495351.1, -1597654.5, 1518.7002, 0.124428935, -0.05551197, -1495328.5, 22395.361, 0.0, 10.000503, 9.999179 
7.150491e+2, 1.5513046e+2, -1477893.6, -1537070.0, 8892.592, -0.06596334, 0.022830183, -1476586.3, -56864.36, 0.0, 9.999948, 9.999193 
7.1505046e+2, 1.6513029e+2, -1365073.3, -1431769.6, 48750.68, -0.10228306, 0.09222267, -1339355.9, -17631.81, 0.0, 10.000078, 9.999171 
7.1505463e+2, 1.7512915e+2, -1160911.6, -1288322.8, 76819.64, 0.07922641, 0.02567682, -1124819.1, 98915.28, 0.0, 10.000824, 9.999127 
7.150565e+2, 1.8512782e+2, -1077103.0, -1217881.4, 17312.92, 0.08399303, -0.004236641, -1075005.1, 50740.81, 0.0, 10.000792, 9.998968 
7.1505594e+2, 1.9512606e+2, -1093627.8, -1177234.6, 19404.58, -0.087478906, -0.11104655, -1089343.6, -61582.17, 0.0, 10.000017, 9.998948 
7.1505785e+2, 2.0512511e+2, -975331.3, -1116248.6, 50073.254, -0.09916383, -0.073338665, -959350.7, -29578.797, 0.0, 10.000357, 9.998526 
7.1506196e+2, 2.1512459e+2, -696226.94, -929429.3, 51850.04, 0.036704905, -0.012928693, -685218.3, 146562.44, 0.0, 10.001598, 9.998534 
7.1506464e+2, 2.251241e+2, -570013.6, -764937.3, 6517.475, 0.069051474, 0.06559479, -569795.94, 163991.9, 0.0, 10.001562, 9.999006 
7.150658e+2, 2.3512328e+2, -672895.06, -765968.3, 37795.156, -0.008708206, 0.04834732, -659480.6, -23684.133, 0.0, 10.000195, 9.998987 
7.150682e+2, 2.4512224e+2, -611701.4, -680082.94, 34139.496, 0.019873941, 0.050071713, -597575.3, -59769.54, 0.0, 9.9999075, 9.999049 
7.150718e+2, 2.551207e+2, -421321.47, -535482.06, 36806.34, 0.14463289, -0.045273837, -410483.7, 29335.035, 0.0, 10.00054, 9.99906 
7.1507293e+2, 2.6511994e+2, -260756.73, -417901.2, -28378.34, 0.08197211, -0.016739365, -255789.0, 86036.21, 0.0, 10.001007, 9.998973 
7.150717e+2, 2.7511954e+2, -156661.16, -317803.38, -11251.813, -0.16324529, 0.00812933, -155879.3, 87950.055, 0.000000020828322, 10.001057, 9.9989605 
7.150731e+2, 2.8511846e+2, -73108.92, -305514.66, -23011.5, -0.1490016, 0.046361934, -70852.37, 74988.195, 0.0000037854625, 10.001301, 9.998252 
7.150769e+2, 2.951165e+2, 31946.936, -211384.2, -9885.312, 0.08186161, -0.013972543, 32347.865, 80208.55, 0.000035842306, 10.001367, 9.998192 
7.150793e+2, 3.0511472e+2, 119045.0, -128801.305, 23006.219, 0.11093826, -0.010318547, 121162.45, 121162.45, 0.000135526, 10.001586, 9.998318 
7.1508086e+2, 3.1511423e+2, 266955.6, 211516.55, 178114.97, -0.01540081, 0.060156144, 419495.1, 419495.1, 0.00031586387, 10.001352, 10.000776 
7.250449e+2, 1.25131e+2, -1683425.1, -1757478.4, 52076.65, 0.1821611, -0.012715562, -1656553.8, 57158.727, 0.0, 10.000343, 9.999547 
7.250467e+2, 1.3513064e+2, -1751890.8, -1805008.8, 36721.79, 0.04204363, 0.025828646, -1733130.1, -117412.15, 0.0, 9.999574, 9.998903 
7.250504e+2, 1.4512937e+2, -1638080.8, -1670336.4, 4065.0034, 0.18601987, 0.007867825, -1637576.4, -119844.36, 0.0, 9.99953, 9.999167 
7.250494e+2, 1.5512913e+2, -1410847.1, -1501768.8, -18335.46, -0.04299442, 0.021987574, -1407288.8, 12446.241, 0.0, 10.00039, 9.999232 
7.25051e+2, 1.6512863e+2, -1288135.8, -1401595.0, 39951.72, -0.07425206, 0.058120705, -1275479.5, 46260.094, 0.0, 10.00059, 9.999162 
7.2505563e+2, 1.7512748e+2, -1262689.8, -1336273.0, 9299.606, 0.13951306, -0.008685703, -1261532.6, -37782.97, 0.0, 10.000095, 9.999166 
7.250576e+2, 1.8512627e+2, -1145314.4, -1250246.6, -19532.355, 0.1541003, -0.028486997, -1141796.5, -16036.691, 0.0, 10.000319, 9.998971 
7.250569e+2, 1.9512473e+2, -921711.44, -1092026.1, -20582.879, -0.0409205, -0.115779184, -919259.25, 108514.484, 0.0, 10.001184, 9.998969 
7.250586e+2, 2.051239e+2, -853660.0, -1038631.75, 76278.75, -0.08462162, -0.07419264, -826262.25, 103520.32, 0.0, 10.001128, 9.998691 
7.250626e+2, 2.1512339e+2, -893533.56, -1009868.1, 83713.836, 0.022767618, -0.027055247, -849762.44, -17971.824, 0.0, 10.000179, 9.9986725 
7.250653e+2, 2.2512268e+2, -755447.06, -858931.9, 61927.754, 0.051621877, 0.027669584, -726490.5, 7308.6875, 0.0, 10.000307, 9.998976 
7.250668e+2, 2.3512153e+2, -491590.8, -683479.8, 28482.834, 0.013475262, -0.017035918, -487452.25, 148358.81, 0.0, 10.001455, 9.998958 
7.2506934e+2, 2.4512063e+2, -383563.63, -575960.3, 53686.195, 0.067959554, 0.0023886857, -369596.94, 168222.58, 0.0, 10.001517, 9.998976 
7.250728e+2, 2.5511965e+2, -409166.28, -541151.94, 46132.027, 0.19598424, -0.02962045, -394640.7, 45187.234, 0.0, 10.000671, 9.998955 
7.2507393e+2, 2.651188e+2, -352776.5, -502467.72, 24317.922, 0.107293606, 0.012571406, -348925.06, -7088.3555, 0.0, 10.000564, 9.998601 
7.250726e+2, 2.7511767e+2, -161165.56, -363131.84, -22436.371, -0.16504939, 0.005685106, -158703.14, 85146.336, 0.000000011844985, 10.001203, 9.998585 
7.250747e+2, 2.8511646e+2, -49408.41, -298687.25, -14931.299, -0.11842298, 0.051445108, -48517.24, 97345.01, 0.000004675658, 10.001508, 9.998188 
7.250796e+2, 2.9511487e+2, 49481.887, -208085.73, -34604.78, 0.21575749, 0.030930439, 54050.094, 101927.81, 0.000040333267, 10.001527, 9.998129 
7.250809e+2, 3.051123e+2, 90428.31, -126641.516, 12828.552, 0.14550589, -0.042100858, 91183.83, 91183.83, 0.00014552829, 10.0013275, 9.998465 
7.250816e+2, 3.1511286e+2, 150041.36, 148493.42, 64938.09, -0.025400333, 0.117639475, 214210.1, 214210.1, 0.00033116215, 10.000581, 10.000715 
7.350443e+2, 1.2512659e+2, -1649408.4, -1676297.5, 17310.713, 0.013226872, -0.17138213, -1640934.5, 72821.125, 0.0, 10.000313, 10.000107 
7.3504597e+2, 1.3512893e+2, -1698974.5, -1695546.4, 13561.131, -0.024034211, 0.05604327, -1683591.4, -67855.72, 0.0, 9.999564, 9.999661 
7.3504966e+2, 1.4512803e+2, -1648557.3, -1667447.8, 15009.478, 0.124390334, 0.033316676, -1640268.4, -122522.914, 0.0, 9.999436, 9.999221 
7.350508e+2, 1.5512685e+2, -1417703.0, -1511398.0, 32193.76, 0.02143317, -0.050988026, -1407707.5, 12048.111, 0.0, 10.00037, 9.999175 
7.3505247e+2, 1.6512583e+2, -1312359.0, -1444349.3, 3707.8245, -0.01811665, -0.048097484, -1312255.0, 9510.659, 0.0, 10.00056, 9.998879 
7.350552e+2, 1.7512463e+2, -1293943.0, -1382794.9, 9436.663, 0.05954041, -0.09171307, -1292951.9, -69173.484, 0.0, 10.000013, 9.998889 
7.3505765e+2, 1.8512422e+2, -1143118.3, -1208862.4, -1317.4315, 0.0942217, -0.03753519, -1143091.9, -17309.35, 0.0, 10.000169, 9.999321 
7.3505944e+2, 1.9512422e+2, -921825.3, -1052330.8, 24951.76, 0.06547483, -0.004689637, -917217.4, 110564.305, 0.0, 10.001026, 9.999309 
7.350608e+2, 2.0512392e+2, -831506.94, -959696.3, 23348.895, -0.0042256014, 0.041767098, -827386.5, 102397.06, 0.0, 10.000979, 9.999306 
7.350617e+2, 2.1512298e+2, -878619.1, -931010.44, 64004.34, -0.116464004, -0.017304674, -835657.25, -3865.752, 0.0, 9.999975, 9.999309 
7.350644e+2, 2.2512186e+2, -820668.75, -943926.06, 89016.13, -0.0940995, -0.011720751, -774029.4, -40226.31, 0.0, 10.000093, 9.998493 
7.350688e+2, 2.3512025e+2, -557327.5, -766215.6, 87952.164, 0.047585588, -0.05517446, -525228.0, 110593.39, 0.0, 10.001233, 9.998491 
7.350712e+2, 2.4511959e+2, -385780.13, -553857.25, 6759.366, 0.06712287, -0.00069512194, -385508.75, 152319.73, 0.0, 10.001394, 9.999188 
7.350715e+2, 2.551194e+2, -421387.9, -525872.2, 29975.283, -0.03644347, 0.026858862, -413399.16, 26429.59, 0.0, 10.000495, 9.9991455 
7.3507273e+2, 2.651182e+2, -425183.1, -625000.94, 35832.492, -0.090886906, 0.06698379, -418951.72, -77109.766, 0.0, 10.000444, 9.997815 
7.3507506e+2, 2.7511564e+2, -231694.78, -485864.16, 24732.13, -0.08330733, -0.009327733, -229310.56, 14561.377, 0.000000051096855, 10.001103, 9.997788 
7.3507804e+2, 2.8511408e+2, -42038.35, -289971.3, -28930.674, 0.02449319, 0.03907187, -38707.258, 107180.87, 0.0000058850314, 10.001521, 9.998244 
7.3508143e+2, 2.9511318e+2, 39578.28, -213076.88, -10291.431, 0.19514054, 0.081142336, 39996.79, 87891.445, 0.000044056193, 10.001449, 9.9981365 
7.350808e+2, 3.0510974e+2, 66790.41, -170538.64, -20637.34, -0.04084142, -0.066934615, 68571.59, 68571.59, 0.00015023243, 10.001304, 9.998173 
7.3508126e+2, 3.151098e+2, 34408.594, -67054.4, 70898.266, -0.19676206, 0.07656018, 70856.5, 70856.5, 0.0003329124, 10.000474, 9.999285 
7.4504423e+2, 1.251245e+2, -1774316.5, -1753077.6, 132990.81, 0.029233648, -0.16263537, -1630282.9, 83491.92, 0.0, 9.999552, 9.999927 
7.4504614e+2, 1.3512693e+2, -1597370.4, -1620845.1, -2327.8237, 0.022188675, 0.05435435, -1597141.8, 18613.234, 0.0, 10.000182, 9.999859 
7.450494e+2, 1.4512625e+2, -1521523.4, -1572135.5, 38986.566, 0.13138506, 0.026564669, -1500349.9, 17412.717, 0.0, 10.000157, 9.999522 
7.450517e+2, 1.5512532e+2, -1485861.1, -1504130.5, 36609.875, 0.11577881, -0.0673393, -1457263.5, -37494.402, 0.0, 9.999744, 9.999511 
7.450535e+2, 1.651245e+2, -1422349.1, -1498046.3, 58542.15, 0.079044566, -0.060060766, -1390486.1, -68709.164, 0.0, 9.999818, 9.998864 
7.4505556e+2, 1.751234e+2, -1239344.8, -1354161.3, 50915.586, 0.07662286, -0.09384359, -1220019.0, 3771.0203, 0.0, 10.000381, 9.998903 
7.450579e+2, 1.8512316e+2, -1088338.1, -1185120.0, 81050.65, 0.0910402, -0.024864193, -1042331.5, 83461.7, 0.0, 10.000542, 9.999313 
7.4506044e+2, 1.9512329e+2, -1032700.6, -1112060.4, 53577.703, 0.10369838, 0.024423387, -1005709.2, 22082.072, 0.0, 10.000271, 9.999273 
7.45062e+2, 2.0512283e+2, -914191.94, -1009048.44, 26551.803, 0.053443138, 0.061126817, -907265.44, 22528.982, 0.0, 10.000447, 9.999208 
7.4506277e+2, 2.1512151e+2, -726098.2, -871231.7, -21798.414, -0.05692944, -0.027606988, -722894.9, 108910.8, 0.0, 10.001075, 9.999185 
7.4506545e+2, 2.2512026e+2, -660770.7, -863618.56, 46576.64, -0.04465541, -0.032315698, -650587.25, 83230.94, 0.0, 10.00118, 9.998513 
7.4507e+2, 2.3511872e+2, -625266.0, -801789.8, 47434.203, 0.07611595, -0.071459614, -613327.3, 22508.248, 0.0, 10.000757, 9.998481 
7.450722e+2, 2.4511813e+2, -496735.97, -618460.3, -17294.3, 0.074860305, -0.0027067845, -494326.53, 43515.914, 0.0, 10.000677, 9.999098 
7.450721e+2, 2.5511813e+2, -341141.38, -493828.84, -49208.293, -0.039545406, 0.049671434, -326656.6, 113186.016, 0.0, 10.001072, 9.999089 
7.4507374e+2, 2.6511693e+2, -288781.63, -566098.2, 33078.42, -0.076919645, 0.098504156, -284890.63, 56965.594, 0.0, 10.001419, 9.9977455 
7.4507695e+2, 2.7511433e+2, -147743.06, -444442.34, 40572.527, -0.020627644, 0.024453558, -142294.97, 101591.21, 0.00000017449423, 10.001706, 9.9977665 
7.450801e+2, 2.851127e+2, -32708.71, -292471.5, 14986.108, 0.08326317, 0.07111283, -31846.998, 114055.81, 0.0000070145306, 10.001618, 9.998183 
7.450829e+2, 2.951117e+2, 4818.427, -229539.72, -10407.873, 0.22309253, 0.10520682, 5279.7334, 53190.01, 0.00004543542, 10.001205, 9.998142 
7.4508196e+2, 3.0510846e+2, 65790.99, -173058.78, 29562.182, -0.034220204, -0.02381321, 69395.48, 69395.48, 0.00014809403, 10.001304, 9.998154 
7.45084e+2, 3.1510705e+2, 127841.1, -87885.86, 50211.254, -0.008051896, -0.018272191, 138955.34, 138955.34, 0.00032280377, 10.001414, 9.998675 
7.550439e+2, 1.2512453e+2, -1840437.5, -1876012.5, 113729.6, -0.02954583, -0.025294095, -1743112.8, -29340.076, 0.0, 9.999495, 9.99911 
7.550469e+2, 1.3512462e+2, -1628177.6, -1687253.3, 33948.707, 0.040937796, 0.0032794073, -1612715.5, 3061.0225, 0.0, 10.000182, 9.999411 
7.5504935e+2, 1.4512402e+2, -1489765.3, -1490854.0, 2652.1182, 0.064854026, -0.020386685, -1487602.3, 30181.1, 0.0, 10.0001, 10.000105 
7.5505155e+2, 1.551247e+2, -1453938.0, -1422973.8, 35753.84, 0.088041574, -0.008635487, -1399493.9, 20279.814, 0.0, 9.999684, 10.000099 
7.5505364e+2, 1.6512467e+2, -1409208.5, -1456519.6, 59752.69, 0.07151103, 0.029118473, -1368599.3, -46825.5, 0.0, 9.999753, 9.999182 
7.5505596e+2, 1.7512374e+2, -1229550.1, -1319432.0, 86403.18, 0.047750887, -0.013660323, -1177099.0, 46685.816, 0.0, 10.00032, 9.999171 
7.5505793e+2, 1.8512301e+2, -1121437.8, -1230876.0, 52151.484, 0.007700349, 0.009885504, -1100566.1, 25226.389, 0.0, 10.000442, 9.999051 
7.550593e+2, 1.9512203e+2, -1071036.9, -1155963.3, 59491.895, -0.061084848, -0.024908107, -1040408.3, -12607.01, 0.0, 10.000122, 9.9990425 
7.550618e+2, 2.051208e+2, -1001781.8, -1149807.5, 34290.613, -0.040431518, -0.011352089, -994224.1, -64410.41, 0.0, 10.000266, 9.998336 
7.5506526e+2, 2.1511902e+2, -818899.44, -1007720.56, 16762.613, 0.062171314, -0.0567148, -817422.94, 14409.464, 0.0, 10.000845, 9.998356 
7.55068e+2, 2.2511792e+2, -652674.25, -804169.7, 16563.959, 0.066262394, -0.03019266, -650884.3, 82959.39, 0.0, 10.000991, 9.999016 
7.5507e+2, 2.351171e+2, -622961.2, -745583.75, 48900.266, -0.031271104, -0.046686877, -605848.56, 30003.25, 0.0, 10.000538, 9.998973 
7.55072e+2, 2.4511653e+2, -546601.25, -688172.4, -16899.24, -0.041976303, 0.020104216, -544611.94, -6753.003, 0.0, 10.000529, 9.99869 
7.550742e+2, 2.5511578e+2, -387600.8, -562420.6, -17874.21, 0.027632827, 0.038228415, -385792.0, 54077.42, 0.0, 10.000951, 9.998676 
7.550762e+2, 2.6511496e+2, -250745.28, -471514.9, 29379.09, -0.0003137108, 0.10862221, -246902.53, 94977.016, 0.0, 10.001352, 9.998427 
7.550781e+2, 2.751138e+2, -122532.305, -361193.8, 69706.414, -0.117242284, 0.11263179, -103664.6, 140227.75, 0.0000002213921, 10.00157, 9.998406 
7.5508064e+2, 2.8511235e+2, -56627.293, -325412.44, -13555.745, -0.06360132, 0.157709, -55945.363, 89960.91, 0.000006961638, 10.001539, 9.997999 
7.5508356e+2, 2.9511032e+2, -14364.663, -255752.03, -555.67053, 0.12283267, 0.1100811, -14363.384, 33561.797, 0.00004401986, 10.001133, 9.998006 
7.550839e+2, 3.0510816e+2, 72758.5, -136236.67, 27751.443, -0.003556363, 0.07620508, 76380.7, 76380.7, 0.0001416952, 10.001229, 9.998427 
7.550884e+2, 3.1510583e+2, 117297.625, -75973.05, 59401.207, 0.20878609, -0.039870054, 134094.61, 134094.61, 0.0003069929, 10.001283, 9.998811 
7.650442e+2, 1.2512255e+2, -1730502.8, -1808108.5, 31823.404, 0.027887827, 0.04449326, -1719122.1, -5328.3706, 0.00000000032551553, 10.00012, 9.999292 
7.650471e+2, 1.3512188e+2, -1729558.5, -1698747.8, -37963.023, 0.09843773, -0.04043765, -1673183.5, -57381.453, 0.0, 9.9993, 9.99976 
7.6504886e+2, 1.4512151e+2, -1640912.6, -1582199.5, -3070.7498, 0.06762977, -0.051242713, -1582039.4, -64233.59, 0.0, 9.999111, 9.999972 
7.650518e+2, 1.5512227e+2, -1409225.1, -1416098.6, -53437.8, 0.13616093, -0.022155205, -1359113.6, 60683.64, 0.0, 10.000027, 9.999998 
7.65054e+2, 1.6512255e+2, -1334826.9, -1386598.5, -26474.982, 0.12849508, 0.03796225, -1323685.6, -1890.8151, 0.0, 10.000126, 9.999475 
7.65056e+2, 1.7512216e+2, -1339404.6, -1340460.5, -31892.08, 0.07418723, 0.018267008, -1308036.1, -84235.305, 0.0, 9.999433, 9.999451 
7.6505804e+2, 1.8512157e+2, -1238486.5, -1273489.8, -5055.175, 0.03184443, 0.033542942, -1237771.1, -111964.21, 0.0, 9.999589, 9.999161 
7.6506007e+2, 1.9512033e+2, -1002785.0, -1114503.6, -5161.128, -0.01341078, -0.03900844, -1002547.06, 25270.537, 0.0, 10.000547, 9.999124 
7.650629e+2, 2.05119e+2, -894426.56, -1107362.4, 44047.06, 0.013926259, -0.03397832, -885674.9, 44156.156, 0.0, 10.001053, 9.99825 
7.6506656e+2, 2.151172e+2, -783200.56, -1006235.0, 55561.31, 0.103427574, -0.072610945, -770125.9, 61725.0, 0.0, 10.001138, 9.998237 
7.65069e+2, 2.2511639e+2, -648613.56, -763636.7, 72922.41, 0.08515809, -0.028068645, -613252.9, 120606.51, 0.0, 10.000868, 9.999352 
7.650702e+2, 2.3511624e+2, -634338.1, -709533.25, 59676.137, -0.04003988, -0.010252988, -601403.3, 34456.59, 0.0, 10.000299, 9.999325 
7.6507246e+2, 2.4511555e+2, -569876.75, -723007.06, 68915.414, -0.039482147, 0.036422696, -543429.5, -5561.5938, 0.0, 10.000468, 9.998482 
7.650758e+2, 2.5511402e+2, -354345.72, -569697.5, 54615.305, 0.08140709, -0.0012025057, -341286.66, 98599.56, 0.0, 10.001279, 9.99847 
7.6507807e+2, 2.6511315e+2, -231754.08, -424404.72, 93881.34, 0.05575546, 0.056809284, -193571.88, 148324.52, 0.0, 10.001324, 9.998766 
7.6507926e+2, 2.7511257e+2, -237247.63, -379543.88, 73980.164, -0.097263284, 0.090151526, -205755.02, 38146.793, 0.00000016204108, 10.000625, 9.99874 
7.6508164e+2, 2.8511134e+2, -172195.7, -367474.0, 42756.777, -0.05686381, 0.12993152, -163244.3, -17330.342, 0.000006290961, 10.0006895, 9.99811 
7.650851e+2, 2.9510915e+2, 33362.77, -209689.8, 42433.16, 0.1559279, 0.05539229, 40557.934, 88492.93, 0.000041719115, 10.001397, 9.998169 
7.6508576e+2, 3.0510762e+2, 111514.11, -131847.23, 81624.76, 0.058149442, 0.08253242, 136355.73, 136355.73, 0.00013461517, 10.0015335, 9.998327 
7.6509e+2, 3.1510547e+2, 20213.525, -84322.49, -2414.0251, 0.30004635, -0.005364776, 20269.242, 20269.242, 0.00029005748, 10.000429, 9.999184 
7.75044e+2, 1.2511848e+2, -1655922.9, -1630312.0, -91366.73, -0.09021284, 0.03491429, -1550857.6, 162980.92, 0.0000000023621072, 10.000034, 10.000554 
7.750461e+2, 1.351187e+2, -1655647.4, -1539675.6, -62736.773, 0.035093527, -0.06924844, -1512231.6, 103600.086, 0.0, 9.999284, 10.000861 
7.750475e+2, 1.4511868e+2, -1684078.6, -1669404.5, 7553.5894, -0.032399375, -0.07174751, -1666211.1, -148380.42, 0.0, 9.999096, 9.999383 
7.7505195e+2, 1.5511815e+2, -1455411.5, -1508866.8, -574.0168, 0.1096846, -0.10510058, -1455405.4, -35566.918, 0.0, 10.0000105, 9.99937 
7.750544e+2, 1.6511837e+2, -1324157.9, -1347404.8, -70165.02, 0.11436921, -0.03554598, -1264660.0, 57178.6, 0.0, 10.000058, 9.999776 
7.750552e+2, 1.7511885e+2, -1323475.4, -1292993.8, -38401.2, 0.018265802, 0.002103033, -1266919.5, -43083.45, 0.0, 9.999376, 9.999803 
7.7505785e+2, 1.8511894e+2, -1223982.0, -1220361.3, 16975.201, 0.020882724, 0.04727229, -1205100.1, -79265.26, 0.0, 9.999479, 9.999586 
7.750621e+2, 1.9511834e+2, -993597.6, -1062225.6, 47187.563, 0.10248352, -0.0049168263, -969566.8, 58271.684, 0.0, 10.000401, 9.9995575 
7.750648e+2, 2.0511755e+2, -876990.0, -1023180.0, 31122.063, 0.07134197, -0.00078482716, -870640.3, 59205.074, 0.0, 10.000852, 9.998921 
7.750663e+2, 2.1511625e+2, -770202.56, -923652.8, 72442.43, -0.06310721, -0.05723115, -741406.8, 90452.39, 0.0, 10.000909, 9.998909 
7.750681e+2, 2.2511587e+2, -671074.5, -761306.0, 34095.805, -0.11581798, -0.008265213, -659639.8, 74223.36, 0.0, 10.000654, 9.999476 
7.750702e+2, 2.3511602e+2, -651511.56, -704094.5, 53948.17, -0.09633921, 0.027225228, -617789.3, 18071.87, 0.0, 10.000118, 9.9994545 
7.75073e+2, 2.451151e+2, -591638.0, -728719.7, 83784.48, -0.05852487, 0.043957744, -551930.6, -14060.248, 0.0, 10.000306, 9.99852 
7.7507645e+2, 2.551129e+2, -377746.53, -575301.1, 101977.12, -0.008181847, -0.062466525, -334551.0, 105341.62, 0.0, 10.0011015, 9.998516 
7.7507883e+2, 2.6511157e+2, -250813.86, -439636.1, 53333.574, -0.02765825, -0.051314365, -236790.98, 105115.266, 0.0, 10.001221, 9.998713 
7.750801e+2, 2.7511054e+2, -254620.83, -393123.0, 65735.56, -0.11770726, -0.0561311, -228389.58, 15526.946, 0.00000014054619, 10.0005245, 9.998699 
7.7508277e+2, 2.8510943e+2, -156738.4, -312911.9, 55123.023, -0.052614752, -0.023493005, -139242.27, 6685.4917, 0.0000059856334, 10.000599, 9.998523 
7.7508694e+2, 2.95108e+2, 46485.902, -164486.14, 90811.02, 0.15530145, -0.067947075, 80190.19, 128132.28, 0.0000396548, 10.001314, 9.99852 
7.7508724e+2, 3.0510685e+2, 74145.32, -185720.42, 32497.373, 0.021310339, -0.0016576062, 78147.62, 78147.62, 0.00012692052, 10.001449, 9.997997 
7.7508813e+2, 3.1510583e+2, 29832.418, -32541.69, -16388.338, -0.0060934443, 0.063094564, 33876.176, 33876.176, 0.00027215088, 10.000293, 9.999611 
7.850448e+2, 1.2511574e+2, -1804403.8, -1663977.4, 86445.17, 0.0674937, -0.049001135, -1622823.4, 91039.83, 0.0000000040597263, 9.9989, 10.000844 
7.850464e+2, 1.3511664e+2, -1540619.3, -1471061.8, 4908.0107, 0.11057251, -0.092874415, -1470717.1, 145132.34, 0.0, 10.000053, 10.000938 
7.850472e+2, 1.4511688e+2, -1520890.6, -1600219.1, 98103.41, -0.019862033, -0.068891354, -1454736.5, 63109.695, 0.0, 10.000272, 9.999282 
7.8505176e+2, 1.5511568e+2, -1492255.6, -1539137.3, 89485.7, 0.11145241, -0.15670386, -1423191.5, -3330.559, 0.0, 9.999827, 9.999244 
7.8505427e+2, 1.6511579e+2, -1360426.1, -1373951.9, 47441.637, 0.11922227, -0.08597073, -1319267.8, 2594.8625, 0.0, 9.9998455, 9.999693 
7.8505504e+2, 1.751168e+2, -1212876.0, -1248766.3, 11010.357, 0.031835333, 0.012099997, -1209767.5, 14088.033, 0.0, 10.000182, 9.999712 
7.8505796e+2, 1.8511695e+2, -1101009.5, -1154024.5, 88696.79, 0.05010462, 0.062780455, -1034943.94, 90910.43, 0.0, 10.0003, 9.999641 
7.8506273e+2, 1.951159e+2, -1038045.9, -1074149.8, 59496.44, 0.15419674, -0.03925434, -993923.06, 33939.31, 0.0, 10.000073, 9.999622 
7.850656e+2, 2.0511544e+2, -956318.56, -992915.5, 50236.273, 0.11528007, -0.036862683, -921151.94, 8713.347, 0.0, 10.0, 9.999547 
7.850668e+2, 2.1511519e+2, -868300.1, -900472.7, 57728.42, -0.052364446, -0.046096154, -824458.6, 7408.1987, 0.0, 9.999933, 9.999541 
7.8506875e+2, 2.2511505e+2, -740296.0, -821196.8, 39535.0, -0.09531482, 0.005589376, -724184.44, 9684.4375, 0.0, 10.000291, 9.999234 
7.850714e+2, 2.3511462e+2, -539162.9, -679075.4, 158.38684, -0.026944522, 0.0087483805, -539162.7, 96712.195, 0.0, 10.001015, 9.999195 
7.850742e+2, 2.4511367e+2, -428975.47, -612495.6, 66360.266, -0.010530365, 0.018037973, -407494.22, 130390.055, 0.0, 10.001267, 9.998847 
7.850771e+2, 2.5511187e+2, -360723.3, -532775.0, 71948.12, -0.04599297, -0.0811691, -334602.03, 105298.06, 0.0, 10.001063, 9.998824 
7.8507966e+2, 2.651107e+2, -273461.4, -456364.47, 46042.33, -0.054674517, -0.06820997, -262525.06, 79386.625, 0.0, 10.001095, 9.998656 
7.850818e+2, 2.7510962e+2, -139555.53, -342825.4, 25460.762, -0.028332576, -0.071065515, -136414.94, 107508.555, 0.0000001311964, 10.001342, 9.998647 
7.850844e+2, 2.8510863e+2, -72029.65, -251478.75, 47146.137, 0.035237636, -0.03521964, -60397.137, 85537.15, 0.0000058891046, 10.001085, 9.998721 
7.850876e+2, 2.9510754e+2, -102179.76, -220107.42, 29908.262, 0.15042402, -0.057096545, -95028.26, -47083.395, 0.000037489564, 10.000212, 9.998682 
7.850883e+2, 3.0510604e+2, -50024.3, -240246.56, 29016.09, 0.04424137, -0.033675633, -45696.703, -45696.703, 0.00011865352, 10.000554, 9.998054 
7.850895e+2, 3.1510633e+2, 243333.25, 89709.66, -76496.66, 0.047440477, 0.14261322, 274927.13, 274927.13, 0.00025448482, 10.001664, 9.999785 
7.9504555e+2, 1.251148e+2, -1842826.3, -1769675.4, 46449.164, 0.16314147, -0.17765157, -1747129.9, -33267.277, 0.0000000034592607, 9.998998, 10.00008 
7.9504734e+2, 1.3511576e+2, -1597217.9, -1604787.1, 57617.418, 0.15938134, -0.1192692, -1543261.0, 72593.9, 0.0, 10.000112, 9.999996 
7.950476e+2, 1.4511617e+2, -1507967.9, -1558802.3, 57880.016, -0.0532568, -0.04747009, -1470170.1, 47681.645, 0.0, 10.00022, 9.999585 
7.950508e+2, 1.5511484e+2, -1471082.8, -1489601.8, 91690.086, -0.007785984, -0.18454488, -1388185.8, 31679.217, 0.0, 9.999811, 9.999584 
7.9505324e+2, 1.6511488e+2, -1397426.0, -1448234.4, 42399.348, -0.006550445, -0.11269203, -1373402.6, -51536.137, 0.0, 9.999822, 9.999202 
7.9505503e+2, 1.7511603e+2, -1247098.8, -1321568.0, 38942.51, -0.03121205, 0.047392424, -1230454.5, -6595.293, 0.0, 10.000175, 9.999221 
7.9505783e+2, 1.8511552e+2, -1146558.0, -1217565.0, 64131.207, -0.024590775, 0.076578476, -1108758.6, 17107.037, 0.0, 10.000174, 9.999262 
7.950616e+2, 1.9511297e+2, -1077418.4, -1128431.4, 66035.664, -0.005882399, -0.14050323, -1032134.44, -4244.803, 0.0, 9.99996, 9.999299 
7.9506475e+2, 2.0511265e+2, -936372.0, -911479.8, 30386.836, 0.0036623278, -0.14240868, -891088.94, 38801.79, 0.0, 9.999828, 10.000188 
7.950674e+2, 2.1511403e+2, -854012.0, -825768.56, 71082.12, -0.006269444, -0.056619313, -767419.0, 64455.254, 0.0, 9.999738, 10.000148 
7.9507023e+2, 2.2511397e+2, -817673.06, -930468.56, 53538.035, 0.006319355, 0.007150631, -796308.2, -62431.758, 0.0, 10.00007, 9.998591 
7.950733e+2, 2.3511222e+2, -608004.94, -782427.9, 45399.973, 0.03212228, -0.058976483, -596895.5, 39004.13, 0.0, 10.000839, 9.998572 
7.950755e+2, 2.4511133e+2, -413120.66, -538778.25, 43643.508, -0.034639418, -0.0415562, -399449.7, 138459.33, 0.0, 10.001097, 9.9994335 
7.95077e+2, 2.551109e+2, -346206.34, -463200.8, 81061.87, -0.19098938, -0.06243163, -304738.84, 135170.33, 0.0, 10.000896, 9.999383 
7.950798e+2, 2.651105e+2, -286668.3, -464923.94, 41158.574, -0.17255224, 0.0032897003, -277623.84, 64288.973, 0.0, 10.001006, 9.998641 
7.9508394e+2, 2.7510983e+2, -157566.48, -359074.84, 56827.625, 0.01886698, 0.042190213, -142645.33, 101277.52, 0.000000103459534, 10.001245, 9.998584 
7.950862e+2, 2.8510898e+2, -82857.94, -259291.77, 1055.7732, 0.06911541, 0.10094085, -82851.62, 63080.984, 0.0000054454867, 10.001022, 9.998698 
7.950863e+2, 2.9510775e+2, -117405.016, -229441.89, 22779.326, -0.042237952, 0.065287605, -112950.625, -65006.81, 0.00003447301, 10.000113, 9.998669 
7.9508835e+2, 3.051054e+2, -31628.635, -185550.89, 67278.125, -0.036459234, -0.022394108, -6367.647, -6367.647, 0.0001104858, 10.000481, 9.998462 
7.9509306e+2, 3.151053e+2, 206261.34, 44569.082, 6949.6187, 0.15359853, 0.07736686, 206559.48, 206559.48, 0.000240168, 10.001522, 9.999542 
8.050455e+2, 1.2511401e+2, -1767105.5, -1767608.9, 45895.25, 0.24048819, -0.24387889, -1721461.3, -7595.6377, 0.0000000057252847, 9.999678, 9.999782 
8.050479e+2, 1.3511491e+2, -1680046.1, -1711074.8, 54977.72, 0.23408222, -0.13180786, -1638435.6, -22573.79, 0.0, 9.999813, 9.999435 
8.050483e+2, 1.4511526e+2, -1543126.0, -1574579.8, 80412.555, 0.020041721, -0.038710453, -1476916.9, 40944.133, 0.0, 9.999978, 9.999596 
8.050505e+2, 1.5511411e+2, -1374609.1, -1450033.8, 45238.51, -0.046835795, -0.15370011, -1353425.4, 66446.65, 0.0, 10.000495, 9.999536 
8.050529e+2, 1.6511387e+2, -1299414.9, -1405501.0, 31781.736, -0.052736048, -0.10548303, -1290622.4, 31253.139, 0.0, 10.000539, 9.999147 
8.050556e+2, 1.7511427e+2, -1250904.1, -1335097.0, 24101.057, 0.01841733, -0.007152393, -1244493.3, -20619.621, 0.0, 10.000212, 9.999116 
8.050586e+2, 1.851135e+2, -1176912.5, -1265142.8, 91602.84, 0.04761695, 0.018778533, -1119355.5, 6527.3896, 0.0, 10.000126, 9.998954 
8.050618e+2, 1.9511122e+2, -1072587.0, -1166919.9, 59324.95, 0.020534504, -0.13605411, -1043963.44, -16056.614, 0.0, 10.000178, 9.998938 
8.0506474e+2, 2.051109e+2, -866860.5, -862955.9, 33746.02, 0.011436844, -0.12707698, -831105.75, 98803.4, 0.0, 10.000239, 10.000326 
8.0506754e+2, 2.1511202e+2, -778219.2, -773653.2, 1408.1394, 0.018199936, -0.07818028, -773253.9, 58640.613, 0.0, 10.0001955, 10.000282 
8.050708e+2, 2.2511205e+2, -770060.44, -897509.94, 45156.758, 0.046680294, -0.017521009, -755682.9, -21787.41, 0.0, 10.000355, 9.998674 
8.0507445e+2, 2.351107e+2, -634456.7, -783994.06, 59273.54, 0.085831285, -0.05112709, -613812.0, 22102.24, 0.0, 10.000621, 9.998657 
8.050769e+2, 2.4510996e+2, -451235.25, -554394.9, 72929.5, 0.01763596, -0.027026866, -413488.78, 124433.414, 0.0, 10.0008, 9.999481 
8.050783e+2, 2.5510937e+2, -349784.2, -459367.13, 39407.184, -0.14045322, -0.068229884, -337084.7, 102839.016, 0.0, 10.000835, 9.999448 
8.050811e+2, 2.6510897e+2, -310015.6, -473049.47, 20764.543, -0.12884396, -0.008160404, -307412.5, 34514.586, 0.0, 10.000819, 9.998686 
8.050852e+2, 2.7510837e+2, -222161.52, -381770.7, 11144.966, 0.056655545, 0.03066157, -221387.06, 22548.773, 0.00000004701224, 10.000747, 9.998674 
8.0508727e+2, 2.8510746e+2, -101263.41, -281026.13, -17582.373, 0.09243685, 0.08157607, -99559.84, 46385.96, 0.000004093495, 10.00095, 9.998583 
8.0508715e+2, 2.9510593e+2, 78016.516, -144017.03, -39987.145, -0.024368012, 0.024187818, 84998.45, 132958.14, 0.000029631305, 10.0015, 9.998584 
8.0509007e+2, 3.051037e+2, 159102.83, -52312.902, 50429.887, 0.044203363, -0.06244427, 170515.95, 170515.95, 0.00010221737, 10.001605, 9.998853 
8.050953e+2, 3.151034e+2, 94481.86, -18437.262, -60249.184, 0.27636045, -0.0170446, 120591.336, 120591.336, 0.00023173698, 10.000795, 9.999472 
8.1504345e+2, 1.2511373e+2, -1757429.0, -1763008.6, -17098.31, -0.011193284, -0.22239156, -1742894.4, -29025.467, 0.000000004999778, 9.999738, 9.999786 
8.150475e+2, 1.3511428e+2, -1686107.9, -1730100.9, 70832.445, 0.16942626, -0.13118659, -1633935.1, -18066.354, 0.0, 9.999851, 9.99928 
8.1504875e+2, 1.4511438e+2, -1568376.6, -1635262.1, 78179.445, 0.024241248, -0.03204622, -1516787.4, 1084.0844, 0.0, 10.000004, 9.999173 
8.1505024e+2, 1.5511364e+2, -1400076.5, -1502298.9, 80149.17, -0.16014178, -0.06449455, -1356128.5, 63752.16, 0.0, 10.000489, 9.999181 
8.150526e+2, 1.6511284e+2, -1292714.5, -1376254.4, 1837.2592, -0.16514485, -0.067024596, -1292674.1, 29214.129, 0.0, 10.000474, 9.999376 
8.1505626e+2, 1.7511162e+2, -1239378.0, -1298409.1, 29141.41, 0.028771754, -0.15921003, -1227416.0, -3518.3455, 0.0, 10.000164, 9.999385 
8.150598e+2, 1.8511102e+2, -1214780.9, -1327489.6, 79165.62, 0.117228545, -0.110310696, -1173960.1, -48055.22, 0.0, 10.000044, 9.998571 
8.1506294e+2, 1.9511068e+2, -1114797.9, -1232074.6, 79450.71, 0.07969071, -0.03456049, -1074689.8, -46776.215, 0.0, 10.000072, 9.998542 
8.150652e+2, 2.0511019e+2, -928697.0, -946772.8, 15968.104, 0.0051578754, 0.005311002, -919386.5, 10533.145, 0.0, 10.000047, 9.9998455 
8.1506675e+2, 2.1510924e+2, -838248.44, -850364.25, 17517.217, -0.10988733, -0.10925006, -825771.25, 6155.4834, 0.0, 9.999987, 9.999857 
8.150699e+2, 2.2510932e+2, -747566.3, -794713.56, 38101.004, -0.11064512, -0.06275409, -726335.9, 7589.428, 0.0, 10.00012, 9.999493 
8.150743e+2, 2.3511001e+2, -610874.2, -682804.0, 85189.375, -0.0155594805, 0.02414224, -554369.06, 81550.59, 0.0, 10.000399, 9.999457 
8.150779e+2, 2.4510945e+2, -513350.38, -637549.9, 57888.02, 0.007948518, 0.051774655, -490553.72, 47371.008, 0.0, 10.000606, 9.999004 
8.150806e+2, 2.551074e+2, -410064.84, -543820.6, 57271.766, -0.033815965, -0.089316815, -388893.28, 51049.816, 0.0, 10.000661, 9.998954 
8.1508297e+2, 2.6510617e+2, -313645.75, -450888.63, 2691.1587, -0.056098245, -0.09701649, -313593.0, 28361.01, 0.0, 10.0007, 9.998891 
8.1508505e+2, 2.7510533e+2, -237942.53, -368132.3, 28462.395, -0.06810287, -0.1013948, -231991.98, 11969.81, 0.000000004527389, 10.000558, 9.998856 
8.1508726e+2, 2.8510404e+2, -127673.53, -319754.56, -12348.276, -0.040256795, -0.086235985, -126882.95, 19090.822, 0.0000024308686, 10.000872, 9.998358 
8.150896e+2, 2.9510215e+2, 37647.582, -198460.11, 4820.3984, 0.024587171, -0.1545694, 37745.953, 85737.36, 0.00002455122, 10.001373, 9.998273 
8.15093e+2, 3.051009e+2, 180932.52, 3123.6755, 9636.423, 0.13691838, -0.14318112, 181453.23, 181453.23, 0.00009685274, 10.001573, 9.999242 
8.150948e+2, 3.1510025e+2, 76335.23, -758.4611, -20072.36, 0.076009065, -0.17626628, 81248.234, 81248.234, 0.00023260372, 10.000582, 9.99969 
8.250431e+2, 1.2511297e+2, -1884306.5, -1784065.0, -48143.996, 0.050953742, -0.13383704, -1764688.0, -50805.938, 0.0000000017683296, 9.998686, 10.000148 
8.250469e+2, 1.3511303e+2, -1647958.8, -1691032.3, 20829.482, 0.13097404, -0.115863904, -1639533.9, -23650.986, 0.0, 10.000007, 9.999482 
8.2504916e+2, 1.4511286e+2, -1527607.1, -1611768.9, 80370.875, 0.056690965, -0.05484935, -1478967.1, 38920.047, 0.0, 10.000279, 9.999195 
8.250512e+2, 1.5511297e+2, -1489779.4, -1544914.0, 71807.305, -0.073483355, -0.0041101784, -1440429.5, -20539.918, 0.0, 9.999886, 9.999168 
8.250537e+2, 1.6511212e+2, -1334742.4, -1401583.9, 38882.48, -0.079679154, -0.009640044, -1316891.4, 5006.273, 0.0, 10.000181, 9.99935 
8.250571e+2, 1.7511006e+2, -1120562.5, -1251921.8, 10556.532, 0.05919306, -0.18390971, -1119719.5, 104194.6, 0.0, 10.000992, 9.999317 
8.250605e+2, 1.8510954e+2, -1021342.6, -1211915.9, 91888.32, 0.13563207, -0.13486013, -984254.8, 141665.1, 0.0, 10.001266, 9.998776 
8.250638e+2, 1.9511011e+2, -964034.7, -1139082.8, 101449.484, 0.12826538, 0.012737505, -917571.94, 110347.24, 0.0, 10.001011, 9.998726 
8.25066e+2, 2.0510964e+2, -877926.8, -982097.06, 85000.234, 0.05595399, 0.069900155, -830322.94, 99603.4, 0.0, 10.000659, 9.999295 
8.2506716e+2, 2.1510786e+2, -850375.8, -920267.6, 43213.71, -0.07155348, -0.069635145, -829746.2, 2197.54, 0.0, 10.00018, 9.999283 
8.2507014e+2, 2.2510757e+2, -691767.6, -740423.2, 103597.73, -0.09557761, -0.04587676, -609679.6, 124265.48, 0.0, 10.000361, 9.999766 
8.25075e+2, 2.3510826e+2, -483613.97, -593668.6, 77325.266, -0.020870425, 0.016693251, -443735.0, 192200.2, 0.0, 10.001134, 9.999729 
8.2507896e+2, 2.451076e+2, -481186.56, -661366.8, 31277.459, 0.050345942, 0.038864624, -475911.53, 62029.105, 0.0, 10.000998, 9.998649 
8.2508236e+2, 2.5510532e+2, -522969.03, -633535.3, 6245.1836, 0.11927662, -0.089120515, -522617.4, -82653.48, 0.0, 10.000047, 9.998629 
8.250846e+2, 2.6510394e+2, -383518.38, -468299.53, 21579.68, 0.08215394, -0.10332055, -378341.72, -36365.387, 0.0, 10.000153, 9.999033 
8.25086e+2, 2.75103e+2, -130890.1, -299024.75, 8101.972, -0.049870234, -0.1367244, -130500.586, 113482.24, 0.0, 10.001223, 9.999004 
8.250884e+2, 2.8510153e+2, -32277.76, -294124.72, -7432.3438, -0.042569708, -0.13510087, -32066.967, 113928.35, 0.000001518397, 10.00162, 9.998174 
8.250918e+2, 2.9509932e+2, 19797.092, -227072.05, -24470.104, 0.11631591, -0.21871004, 22199.238, 70215.734, 0.000022026383, 10.001321, 9.998105 
8.250953e+2, 3.0509835e+2, 100104.766, -100105.7, -22925.28, 0.23829792, -0.13928245, 102696.3, 102696.3, 0.00009707927, 10.001307, 9.998651 
8.2509536e+2, 3.150968e+2, 180887.78, 19569.01, -163556.02, 0.04150765, -0.21351515, 282592.06, 282592.06, 0.00024343749, 10.001411, 9.999424 
8.350431e+2, 1.2511232e+2, -1843988.3, -1688812.5, -45922.46, 0.10597692, 0.07659284, -1676240.9, 37658.023, 0.000000000051048894, 9.998642, 10.000822 
8.350457e+2, 1.3511139e+2, -1588379.3, -1569472.3, 85073.65, -0.024300883, -0.08085422, -1493328.5, 122573.64, 0.0, 10.000025, 10.000302 
8.350489e+2, 1.4511085e+2, -1513592.4, -1578539.6, 43306.08, -0.046494134, -0.11030441, -1491937.0, 25969.885, 0.0, 10.000258, 9.999432 
8.3505267e+2, 1.5511209e+2, -1472878.1, -1504914.1, 73096.77, 0.045758568, 0.0244917, -1414064.9, 5834.1006, 0.0, 9.999865, 9.999449 
8.3505553e+2, 1.6511172e+2, -1367101.1, -1447057.9, 51309.188, 0.049779877, 0.06534556, -1342034.1, -20130.24, 0.0, 10.000089, 9.999085 
8.350577e+2, 1.751097e+2, -1145918.4, -1289317.3, 58371.28, -0.019318463, -0.076352276, -1125162.3, 98759.61, 0.0, 10.000936, 9.999084 
8.3506054e+2, 1.8510912e+2, -984663.8, -1114406.6, 64138.207, -0.022355704, -0.053908564, -958310.2, 167616.69, 0.0, 10.00117, 9.9994955 
8.350642e+2, 1.9510952e+2, -932756.8, -1036470.0, 107010.45, 0.022864213, -0.0011665076, -865700.25, 162223.69, 0.0, 10.000856, 9.999503 
8.350666e+2, 2.0510918e+2, -953182.94, -1096726.0, 49131.203, 0.023396263, 0.06680119, -937977.3, -8048.047, 0.0, 10.00047, 9.998603 
8.350681e+2, 2.1510784e+2, -925238.75, -1031073.0, 42199.035, -0.022804823, 0.037351836, -910472.94, -78527.23, 0.0, 9.999987, 9.998613 
8.350712e+2, 2.2510676e+2, -737188.06, -790990.0, 115445.35, -0.05074752, 0.027654933, -645550.9, 88403.8, 0.0, 10.000167, 9.9995165 
8.3507586e+2, 2.3510556e+2, -531288.2, -647870.6, 123351.18, -0.074445985, -0.074856676, -453148.53, 182811.31, 0.0, 10.000933, 9.999458 
8.350798e+2, 2.4510457e+2, -521372.97, -707054.2, -20150.525, 0.00030548306, -0.06221906, -519211.38, 18757.229, 0.0, 10.00083, 9.998417 
8.350832e+2, 2.5510332e+2, -560464.0, -681934.0, -10284.764, 0.1692989, -0.06403804, -559599.4, -119614.43, 0.0, 9.999913, 9.998362 
8.3508575e+2, 2.6510242e+2, -391474.25, -462085.22, 47280.71, 0.15186279, -0.020903504, -367771.75, -25778.33, 0.0, 10.000052, 9.9991255 
8.350876e+2, 2.7510148e+2, -145780.69, -297775.2, 68473.336, -0.051976837, -0.06375251, -119483.37, 124514.84, 0.0, 10.001082, 9.999082 
8.350901e+2, 2.851e+2, -50152.133, -309183.88, -34951.133, -0.06871972, -0.061938547, -45519.047, 100491.08, 0.0000012583888, 10.00153, 9.998115 
8.3509326e+2, 2.9509762e+2, -11272.976, -254850.0, -15236.425, 0.08615658, -0.15333976, -10323.595, 37709.75, 0.000022671806, 10.001166, 9.9979925 
8.350964e+2, 3.0509618e+2, -9803.064, -314214.22, -24817.752, 0.19601247, -0.044372212, -7793.018, -7793.018, 0.0001036696, 10.001247, 9.997207 
8.350956e+2, 3.1509516e+2, 98867.04, -107095.53, -75566.625, -0.15642303, 0.079675116, 123617.74, 123617.74, 0.00026239955, 10.001237, 9.998633 
8.4504306e+2, 1.2511039e+2, -1624783.5, -1585996.4, 51018.387, 0.18419456, 0.11964135, -1550809.9, 163110.86, 0.0, 10.000145, 10.000803 
8.450456e+2, 1.3510941e+2, -1632542.8, -1580398.8, 58522.117, 0.00193438, -0.055793144, -1542403.6, 73520.125, 0.0, 9.999673, 10.000398 
8.4504926e+2, 1.4510871e+2, -1633064.9, -1620331.0, 12164.032, 0.020234218, -0.110703826, -1612968.3, -95039.38, 0.0, 9.999372, 9.999572 
8.450529e+2, 1.5510994e+2, -1498741.3, -1507840.3, -6078.7856, 0.10544346, 0.009594846, -1495698.0, -75778.016, 0.0, 9.999638, 9.999546 
8.4505594e+2, 1.6510981e+2, -1373687.1, -1436364.0, 44352.836, 0.09574466, 0.06636961, -1350718.4, -28796.258, 0.0, 10.000007, 9.999188 
8.450584e+2, 1.7510828e+2, -1225180.5, -1317785.5, 40394.707, 0.00230848, -0.034531746, -1210036.8, 13899.778, 0.0, 10.00037, 9.999155 
8.4506124e+2, 1.8510775e+2, -1096341.1, -1172294.8, 23180.229, -0.024799308, -0.012067271, -1089825.8, 36115.945, 0.0, 10.000429, 9.999448 
8.450643e+2, 1.951077e+2, -1042643.7, -1103239.8, -25279.172, -0.0022618282, 0.005062054, -1033482.8, -5539.8027, 0.0, 10.000153, 9.999388 
8.45067e+2, 2.0510729e+2, -945171.25, -1106656.5, -39640.71, 0.02050504, 0.07795812, -935965.25, -6016.2593, 0.0, 10.000594, 9.998475 
8.450695e+2, 2.151062e+2, -698712.3, -940958.6, -43047.32, 0.04485674, 0.090343915, -691290.1, 140672.75, 0.0, 10.001631, 9.998442 
8.450729e+2, 2.2510472e+2, -547241.5, -728953.75, 64850.81, 0.037191335, 0.063957885, -526471.2, 207504.66, 0.0, 10.0016165, 9.99923 
8.450772e+2, 2.3510262e+2, -608237.0, -711066.9, 32045.914, -0.0048153684, -0.099883474, -599067.8, 36922.164, 0.0, 10.000546, 9.999194 
8.4508085e+2, 2.4510159e+2, -536870.3, -703279.5, -55123.72, 0.039198652, -0.082737885, -520266.94, 17732.063, 0.0, 10.000677, 9.99852 
8.450841e+2, 2.551011e+2, -262844.22, -521795.4, -54068.105, 0.17281155, -0.01717038, -252008.42, 187999.13, 0.0, 10.001903, 9.998497 
8.4508693e+2, 2.6510024e+2, -122887.33, -362025.13, 33965.95, 0.16769886, 0.03400361, -118156.56, 223859.08, 0.0, 10.002009, 9.998871 
8.450895e+2, 2.7509862e+2, -165098.7, -337380.75, -3615.4998, 0.03630455, -0.04707505, -165022.88, 79004.06, 0.0000000050987805, 10.00106, 9.998831 
8.450922e+2, 2.8509706e+2, -99044.3, -342151.78, -67848.88, 0.009181412, -0.038808573, -81390.34, 64649.848, 0.0000017149706, 10.001225, 9.99803 
8.450949e+2, 2.9509512e+2, 163337.48, -168650.27, -87899.82, 0.087885514, -0.08531703, 185174.25, 233234.08, 0.0000255943, 10.002366, 9.9979925 
8.45098e+2, 3.050933e+2, 176706.64, -248743.02, -38678.71, 0.17331116, -0.011437287, 180194.44, 180194.44, 0.000114914044, 10.002618, 9.997006 
8.450981e+2, 3.1509185e+2, 158650.02, -70578.65, -28467.541, -0.03466702, 0.09776147, 162132.45, 162132.45, 0.00028702893, 10.0015745, 9.998734 
8.5504204e+2, 1.2510705e+2, -1694672.6, -1716186.4, -833.6509, -0.013275717, -0.029841516, -1694640.4, 19307.92, 0.0, 10.000095, 9.999928 
8.550461e+2, 1.351072e+2, -1678546.0, -1659355.6, 50215.332, 0.04012669, -0.03516988, -1617827.0, -1880.2496, 0.0, 9.999632, 9.999858 
8.550498e+2, 1.451067e+2, -1631132.9, -1619029.1, 1377.0044, 0.09167775, -0.047655605, -1618874.4, -100923.05, 0.0, 9.999367, 9.999596 
8.550516e+2, 1.5510668e+2, -1492366.6, -1497071.6, 25165.291, -0.03793152, -0.0527498, -1469444.1, -49493.27, 0.0, 9.999648, 9.999617 
8.5505456e+2, 1.6510655e+2, -1359017.1, -1396770.6, 39019.266, -0.07594676, -0.01379494, -1334548.3, -12596.84, 0.0, 9.999965, 9.999483 
8.550589e+2, 1.7510587e+2, -1207876.6, -1271379.1, 68727.35, -0.022452971, -0.06353806, -1163920.5, 60036.867, 0.0, 10.000327, 9.999493 
8.5506195e+2, 1.8510544e+2, -1169302.1, -1304834.9, -3536.3984, -0.028301213, -0.005471135, -1169209.9, -43246.016, 0.0, 10.000334, 9.998591 
8.550638e+2, 1.9510487e+2, -1112005.0, -1228371.6, -19899.258, -0.09967815, 0.046191704, -1108696.3, -80722.14, 0.0, 10.000062, 9.998574 
8.5506684e+2, 2.051042e+2, -948675.06, -1076854.1, -18321.97, -0.08635243, 0.11811312, -946107.5, -16124.48, 0.0, 10.000432, 9.998763 
8.5507095e+2, 2.1510296e+2, -707796.4, -907217.2, 12054.744, -0.0034027346, 0.08286233, -707070.3, 124924.73, 0.0, 10.001407, 9.99878 
8.5507476e+2, 2.2510144e+2, -604717.75, -799003.56, 8166.712, 0.037624158, 0.055920526, -604375.06, 129633.42, 0.0, 10.001397, 9.998859 
8.5507846e+2, 2.350994e+2, -659455.3, -775973.4, 11491.344, 0.038374983, -0.0663666, -658332.8, -22306.996, 0.0, 10.0003605, 9.998841 
8.550817e+2, 2.4509868e+2, -534620.75, -655702.3, -24922.39, 0.025114886, -0.02194477, -529691.56, 8340.282, 0.0, 10.000499, 9.998932 
8.5508454e+2, 2.5509867e+2, -263233.97, -477023.34, 8086.0566, -0.0021756508, 0.04772049, -262928.6, 177103.4, 0.0, 10.001706, 9.998899 
8.550877e+2, 2.6509732e+2, -182263.95, -452732.56, -19167.12, 0.018835556, 0.058780994, -180912.4, 161131.5, 0.0, 10.001866, 9.998322 
8.550912e+2, 2.7509442e+2, -222985.27, -427943.6, -17158.344, 0.069152474, -0.095559396, -221558.77, 22510.951, 0.0000001292932, 10.000936, 9.99827 
8.550941e+2, 2.8509283e+2, -112765.82, -352886.1, -36883.41, 0.042444713, -0.060502876, -107228.09, 38856.43, 0.0000031613251, 10.001145, 9.997994 
8.550963e+2, 2.950918e+2, 143971.63, -185238.14, -23796.885, -0.06425677, -0.010555259, 145682.89, 193778.88, 0.000030116835, 10.002253, 9.997939 
8.550994e+2, 3.0508944e+2, 231084.94, -95532.805, -86694.45, 0.01908046, -0.039983533, 252669.86, 252669.86, 0.00012742863, 10.002477, 9.998116 
8.55102e+2, 3.1508714e+2, 172092.16, 8946.239, 3518.1707, 0.11512223, -0.12111142, 172167.98, 172167.98, 0.00031382052, 10.001379, 9.99937 
8.6504257e+2, 1.2510346e+2, -1903405.3, -1858286.4, 1163.2922, 0.1053096, -0.11646059, -1858256.5, -144274.83, 0.00000000000000000000885557, 9.998833, 9.999565 
8.65046e+2, 1.3510473e+2, -1576383.0, -1652335.3, 5837.0854, 0.041125417, 0.019798126, -1575937.1, 40035.44, 0.0, 10.000476, 9.999519 
8.650499e+2, 1.4510433e+2, -1395270.8, -1484160.1, -8045.248, 0.10133631, 0.024940716, -1394548.4, 123427.61, 0.0, 10.0009, 9.999776 
8.65052e+2, 1.5510327e+2, -1356332.3, -1424935.0, -16665.348, 0.011316244, -0.096986845, -1352498.1, 67484.414, 0.0, 10.000534, 9.999698 
8.6505526e+2, 1.6510276e+2, -1288741.0, -1386444.1, 33433.137, -0.022986952, -0.088797055, -1278395.9, 43590.324, 0.0, 10.000546, 9.999269 
8.650596e+2, 1.7510244e+2, -1133771.3, -1265042.6, -13304.148, -0.0018687681, -0.07904813, -1132436.5, 91554.01, 0.0, 10.000949, 9.999237 
8.650628e+2, 1.8510206e+2, -1066674.4, -1246710.0, -64926.97, -0.006440729, -0.0066593243, -1045702.44, 80294.484, 0.0, 10.001023, 9.998648 
8.650646e+2, 1.9510134e+2, -1006421.0, -1172768.1, -45466.2, -0.047456965, 0.024105983, -994805.25, 33202.754, 0.0, 10.000786, 9.9986 
8.6506796e+2, 2.0510049e+2, -869178.7, -1009961.25, 49899.863, -0.028344134, 0.067276336, -853285.94, 76731.34, 0.0, 10.000858, 9.999012 
8.650724e+2, 2.1509916e+2, -735111.94, -900509.4, 38341.246, 0.03612573, -0.0033022412, -726656.2, 105372.77, 0.0, 10.001122, 9.998967 
8.6507654e+2, 2.2509792e+2, -643506.1, -839288.94, 26462.592, 0.09200848, 0.00079902733, -639992.4, 94048.164, 0.0, 10.001245, 9.99865 
8.650802e+2, 2.350966e+2, -543714.06, -743732.4, 4742.6255, 0.14273208, -0.02922287, -543601.7, 92452.664, 0.0, 10.001268, 9.99862 
8.6508334e+2, 2.4509585e+2, -409429.06, -586405.9, 35527.063, 0.110858455, 0.021638662, -402563.53, 135497.2, 0.0, 10.001327, 9.999002 
8.65086e+2, 2.5509524e+2, -294519.84, -485946.4, 9037.206, -0.002281381, 0.026108464, -294094.16, 145970.23, 0.0, 10.00147, 9.998953 
8.6508924e+2, 2.6509362e+2, -253375.11, -518397.06, -26428.219, 0.010048008, 0.02189149, -250765.38, 91313.68, 0.0000000005766255, 10.001527, 9.998026 
8.6509305e+2, 2.750907e+2, -154593.69, -428827.38, -47752.46, 0.14598753, -0.10527671, -146516.44, 97591.17, 0.000000514823, 10.001558, 9.997959 
8.650961e+2, 2.850891e+2, -65835.84, -307936.0, 14259.648, 0.123239756, -0.06584381, -64998.85, 81124.58, 0.0000054394536, 10.00138, 9.9981985 
8.6509806e+2, 2.9508826e+2, -28150.727, -240007.69, 9970.588, -0.032566834, -0.01375058, -27682.518, 20449.7, 0.000035908153, 10.000961, 9.99819 
8.651008e+2, 3.0508602e+2, 94485.07, -97321.75, -39188.43, -0.005529994, -0.07213106, 102182.805, 102182.805, 0.00014009468, 10.001239, 9.998703 
8.651043e+2, 3.1508422e+2, 238427.69, 97276.1, -40225.297, 0.21445748, -0.16219391, 249086.22, 249086.22, 0.00033844914, 10.001616, 9.999848 
8.750434e+2, 1.2509996e+2, -1898874.9, -1847329.6, 30255.602, 0.23315752, -0.10414956, -1833357.8, -119340.516, 0.0000000055054987, 9.998824, 9.999642 
8.750451e+2, 1.3510208e+2, -1573369.6, -1630218.8, 80212.195, -0.13214844, 0.10213222, -1516694.6, 99305.35, 0.0, 10.000428, 9.9996805 
8.7504923e+2, 1.4510179e+2, -1393598.3, -1477005.4, -42881.633, -0.10294282, 0.10698064, -1375485.3, 142516.05, 0.0, 10.0008745, 9.999842 
8.7505376e+2, 1.5509985e+2, -1351227.5, -1405336.3, -14242.472, 0.09756518, -0.11661425, -1347707.5, 72305.9, 0.0, 10.0005045, 9.99984 
8.750574e+2, 1.6509874e+2, -1346149.3, -1498098.9, 30305.773, 0.09863022, -0.14010456, -1340327.9, -18304.313, 0.0, 10.000501, 9.99853 
8.7506026e+2, 1.750983e+2, -1191382.6, -1375153.4, 17117.115, -0.0738769, -0.06856553, -1189801.9, 34231.074, 0.0, 10.000904, 9.998504 
8.7506324e+2, 1.8509792e+2, -1018960.1, -1125657.8, -89391.88, -0.09546309, -0.0016153659, -968208.0, 157830.2, 0.0, 10.00093, 9.999524 
8.750664e+2, 1.9509709e+2, -962797.75, -1047615.94, -35708.207, 0.014276353, -0.07145153, -949766.75, 78277.734, 0.0, 10.000643, 9.999524 
8.7507e+2, 2.0509626e+2, -885248.6, -1003433.56, 44552.58, 0.055349346, -0.08391764, -870335.3, 59716.145, 0.0, 10.00068, 9.999146 
8.7507373e+2, 2.1509506e+2, -754641.25, -895361.94, 62348.594, 0.021462763, -0.14923237, -730991.4, 101070.95, 0.0, 10.000923, 9.9991 
8.7507784e+2, 2.250945e+2, -684490.06, -877560.1, 9477.515, 0.06646891, -0.07758729, -684025.94, 50043.277, 0.0, 10.001038, 9.998489 
8.75082e+2, 2.3509417e+2, -588305.94, -782264.6, 23059.729, 0.17522709, 0.008268733, -585602.06, 50473.73, 0.0, 10.001035, 9.998468 
8.7508553e+2, 2.4509308e+2, -450331.22, -636026.9, 23949.766, 0.1626253, 0.04344747, -447292.1, 90794.32, 0.0, 10.001161, 9.998746 
8.75088e+2, 2.5509095e+2, -337534.13, -535316.0, 32801.56, 0.02074554, -0.07839043, -332236.0, 107867.85, 0.0, 10.001295, 9.998696 
8.75091e+2, 2.6508924e+2, -275411.03, -549297.8, -41026.445, 0.0025941867, -0.068840995, -269397.6, 72722.64, 0.0000000691861, 10.001449, 9.997856 
8.7509465e+2, 2.7508748e+2, -185039.89, -460082.78, -27061.217, 0.10732323, -0.06844941, -182402.66, 61737.816, 0.000001269736, 10.001416, 9.997813 
8.750977e+2, 2.85086e+2, -43790.25, -246776.22, -16517.68, 0.11729105, -0.03258026, -42454.93, 103700.44, 0.000008255043, 10.001307, 9.99866 
8.751e+2, 2.9508433e+2, -6316.7925, -178453.22, 18725.83, 0.02304828, -0.10813605, -4303.2593, 43866.848, 0.000042714033, 10.000882, 9.998656 
8.7510204e+2, 3.0508298e+2, 90361.54, -85562.4, -31495.732, -0.03963443, -0.11089851, 95830.234, 95830.234, 0.00015288098, 10.001156, 9.998818 
8.7510437e+2, 3.1508127e+2, 226787.7, 91029.29, 12633.426, -0.02714084, -0.20015723, 227953.34, 227953.34, 0.00035815634, 10.001525, 9.999855 
8.850434e+2, 1.2509649e+2, -1560883.9, -1655560.3, 69283.84, 0.2593157, -0.062617585, -1524310.5, 189741.08, 0.00000006865043, 10.001026, 9.9999 
8.850457e+2, 1.3509771e+2, -1622733.0, -1637659.0, 47042.652, -0.07854296, 0.038384464, -1582565.0, 33475.42, 0.0, 10.000013, 9.999838 
8.8505006e+2, 1.450973e+2, -1574048.8, -1582075.0, -42092.35, -0.040106907, 0.034948155, -1535778.6, -17735.813, 0.0, 9.999749, 9.999648 
8.850546e+2, 1.550958e+2, -1341418.4, -1422826.0, -76781.65, 0.12367341, -0.12399242, -1295218.6, 124834.59, 0.0, 10.000689, 9.999618 
8.850583e+2, 1.6509491e+2, -1281503.6, -1427396.6, 15191.714, 0.13275711, -0.13084303, -1279938.5, 42122.934, 0.0, 10.000783, 9.998876 
8.8506126e+2, 1.7509459e+2, -1295360.3, -1387977.3, 48031.355, -0.0054090065, -0.08028675, -1274949.3, -50881.184, 0.0, 10.000034, 9.9988365 
8.8506436e+2, 1.8509425e+2, -1128570.9, -1155175.3, 2554.6892, -0.016712414, -0.03651099, -1128327.8, -2256.1536, 0.0, 10.0000725, 9.999734 
8.850677e+2, 1.9509333e+2, -917825.1, -1006544.94, -29803.11, 0.07917564, -0.13410184, -908743.25, 119334.34, 0.0, 10.000861, 9.999702 
8.850712e+2, 2.0509258e+2, -828500.06, -1003207.25, 35661.48, 0.101131074, -0.13532686, -821501.1, 108583.08, 0.0, 10.001188, 9.998903 
8.8507503e+2, 2.1509169e+2, -749072.44, -921236.9, -3856.899, 0.05618207, -0.14494222, -748986.06, 83108.13, 0.0, 10.001085, 9.998848 
8.8507897e+2, 2.250912e+2, -666317.4, -863282.75, -29553.096, 0.084160715, -0.05477804, -661978.7, 72122.52, 0.0, 10.001131, 9.998536 
8.8508314e+2, 2.3509075e+2, -544112.06, -760618.94, -39051.766, 0.17491324, 0.011975723, -537283.56, 98825.48, 0.0, 10.001323, 9.998479 
8.850867e+2, 2.450895e+2, -461663.78, -647616.75, 1325.3961, 0.1851937, 0.036118075, -461654.34, 76466.82, 0.0, 10.001116, 9.998679 
8.8508964e+2, 2.550871e+2, -436531.56, -592076.1, -11662.998, 0.10599643, -0.10873046, -435661.94, 4479.5044, 0.00000000006372724, 10.000632, 9.998625 
8.8509285e+2, 2.6508564e+2, -365501.78, -557925.6, -8421.222, 0.088868126, -0.08922568, -365133.94, -22977.748, 0.00000025387644, 10.000688, 9.9981575 
8.850963e+2, 2.7508458e+2, -168789.89, -416202.22, 1235.0055, 0.14259276, -0.042448044, -168783.72, 75386.12, 0.0000021793016, 10.001372, 9.998132 
8.8509923e+2, 2.8508353e+2, 56.308292, -198189.03, 32449.666, 0.14296167, 0.0042546983, 5232.6533, 151413.69, 0.000011106664, 10.001509, 9.998876 
8.851017e+2, 2.9508197e+2, 52139.613, -126951.98, 11410.482, 0.091735326, -0.07874345, 52863.68, 101057.72, 0.000049522223, 10.001192, 9.998851 
8.8510364e+2, 3.0508074e+2, 130037.086, -112715.89, 6423.3477, -0.0067080325, -0.05754482, 130206.93, 130206.93, 0.00016467013, 10.001621, 9.998417 
8.851063e+2, 3.1507912e+2, 320767.03, 110811.74, -60552.707, -0.007663461, -0.09413944, 336979.06, 336979.06, 0.00037312726, 10.002282, 9.999637 
8.9504147e+2, 1.2509303e+2, -1549197.9, -1608702.1, -7477.637, -0.11576398, 0.007327192, -1548272.6, 165812.27, 0.00000033567557, 10.000952, 10.000245 
8.9504737e+2, 1.3509198e+2, -1607577.4, -1601192.8, 17481.738, 0.052514557, -0.1419634, -1586614.3, 29476.506, 0.00000000007521531, 10.000003, 10.000086 
8.950518e+2, 1.4509133e+2, -1616675.9, -1661753.5, -28052.967, 0.11011408, -0.15721825, -1603229.0, -85132.51, 0.0, 9.999712, 9.99912 
8.950539e+2, 1.5509132e+2, -1386220.6, -1504990.6, -20930.402, -0.05226942, -0.109882146, -1382640.0, 37459.543, 0.0, 10.000647, 9.999073 
8.9505744e+2, 1.6509138e+2, -1196846.4, -1238223.0, -31360.377, -0.06973488, -0.059386205, -1179965.0, 142133.63, 0.0, 10.000727, 10.000198 
8.950624e+2, 1.7509133e+2, -1214138.5, -1196995.3, 37529.406, 0.06888014, -0.11929917, -1167071.0, 57024.902, 0.0, 9.999946, 10.000185 
8.950659e+2, 1.850911e+2, -1178286.0, -1234521.6, 14370.684, 0.09253471, -0.10857534, -1174826.5, -48729.645, 0.0, 9.99996, 9.999248 
8.9506805e+2, 1.9509026e+2, -977916.44, -1089269.9, 13353.974, -0.0028100521, -0.14868985, -976337.4, 51768.047, 0.0, 10.000684, 9.999217 
8.950713e+2, 2.0508969e+2, -894761.75, -1102723.4, 14364.848, -0.032255836, -0.075706005, -893774.2, 36339.285, 0.0, 10.001018, 9.998305 
8.9507574e+2, 2.1508902e+2, -820992.2, -1017574.94, 11268.053, -0.0008201264, -0.005482691, -820348.4, 11776.103, 0.0, 10.000862, 9.998291 
8.9507973e+2, 2.2508809e+2, -685486.0, -856993.1, -37560.566, 0.016141279, 0.059677817, -677620.8, 56515.266, 0.0, 10.00092, 9.998688 
8.95083e+2, 2.3508656e+2, -561340.7, -746565.56, -16053.648, 0.0016971893, 0.0012841987, -559959.6, 76192.03, 0.0, 10.001106, 9.99868 
8.950867e+2, 2.4508531e+2, -475767.9, -641246.75, -34844.473, 0.039216105, 0.0064555737, -468730.13, 69433.164, 0.0, 10.000958, 9.998803 
8.9509076e+2, 2.5508386e+2, -458286.7, -589454.4, -12314.047, 0.1171718, -0.053882256, -457140.66, -16964.988, 0.0000000002378373, 10.000428, 9.998747 
8.9509434e+2, 2.6508296e+2, -326860.4, -451795.7, 2806.0535, 0.13800082, -0.02163546, -326797.4, 15387.362, 0.00000030747992, 10.000576, 9.99894 
8.950976e+2, 2.7508217e+2, -140724.22, -323053.0, 49248.99, 0.10290671, -0.02408344, -128271.96, 115922.99, 0.0000026197797, 10.00123, 9.99884 
8.9510024e+2, 2.8508157e+2, -13361.151, -218250.47, 3520.5222, 0.05105675, 0.04218611, -13300.678, 132900.78, 0.000013171274, 10.00146, 9.998767 
8.951023e+2, 2.9508096e+2, 31740.357, -147259.97, 19125.627, -0.013825548, 0.058858506, 33761.06, 81967.56, 0.000055655084, 10.001083, 9.998767 
8.951051e+2, 3.050793e+2, 47372.9, -243664.48, 19974.709, -0.049612187, 0.082401, 48737.42, 48737.42, 0.00017580122, 10.001476, 9.997576 
8.951091e+2, 3.1507605e+2, 258570.45, 50987.457, -7832.9023, -0.031198997, -0.03329723, 258865.6, 258865.6, 0.00038747952, 10.002024, 9.99933 
9.05042e+2, 1.2508857e+2, -1657862.8, -1669692.0, -23603.604, -0.09797206, 0.032255113, -1639444.0, 74686.86, 0.0000010657902, 10.000192, 10.000208 
9.050477e+2, 1.3508736e+2, -1597506.1, -1613315.9, -87780.1, 0.097446814, -0.122992076, -1517275.8, 98862.21, 0.000000007369457, 10.000127, 9.999943 
9.05052e+2, 1.4508685e+2, -1579940.4, -1638927.4, -47442.465, 0.16659802, -0.12160316, -1553571.1, -35428.56, 0.0, 9.9999075, 9.999192 
9.0505433e+2, 1.5508701e+2, -1509540.8, -1557913.9, -33492.383, -0.018639766, -0.06705913, -1492414.8, -72269.75, 0.0, 9.99974, 9.99916 
9.050578e+2, 1.6508727e+2, -1322567.1, -1267151.8, -45835.992, -0.039065056, -0.015603145, -1241299.6, 80842.49, 0.0, 9.999723, 10.000495 
9.050627e+2, 1.7508723e+2, -1204758.6, -1159317.4, -93729.29, 0.116018765, -0.10157466, -1085594.3, 138543.53, 0.0, 9.999862, 10.000488 
9.050663e+2, 1.8508714e+2, -1148041.9, -1233809.5, -72149.18, 0.13140002, -0.08559355, -1106994.1, 19142.906, 0.0, 10.000215, 9.999133 
9.0506876e+2, 1.9508663e+2, -968058.5, -1104323.6, -76143.85, -0.0024994141, -0.08190369, -934015.06, 94128.44, 0.0, 10.000799, 9.999074 
9.050723e+2, 2.0508601e+2, -898026.0, -1095317.0, -36081.83, -0.03077935, -0.008982678, -891634.2, 38518.08, 0.0, 10.00097, 9.998367 
9.050769e+2, 2.1508488e+2, -828074.56, -1016128.75, -31817.063, 0.037557885, 0.009929782, -822837.3, 9330.058, 0.0, 10.0007925, 9.998331 
9.0508085e+2, 2.2508383e+2, -688648.2, -822503.1, -6438.187, 0.05367635, 0.044310126, -688339.25, 45839.906, 0.0, 10.000764, 9.998997 
9.050841e+2, 2.3508252e+2, -560693.25, -714876.1, -7490.191, 0.007950347, -0.018292887, -560330.2, 75860.72, 0.0, 10.000984, 9.998959 
9.050877e+2, 2.4508153e+2, -432723.97, -601019.5, -1751.8225, 0.037547093, -0.007012542, -432705.72, 105494.27, 0.0, 10.001183, 9.998963 
9.050918e+2, 2.5508052e+2, -305483.63, -494628.47, -13012.572, 0.14038421, -0.039927986, -304592.6, 135617.13, 0.0, 10.001403, 9.998918 
9.0509546e+2, 2.6507998e+2, -208767.16, -363486.22, 27824.186, 0.16603117, 0.006802184, -203915.48, 138300.34, 0.0000002007212, 10.001271, 9.999209 
9.0509874e+2, 2.7507943e+2, -180592.63, -306402.6, 2949.2983, 0.1241959, 0.0016904959, -180523.53, 63699.3, 0.0000025589381, 10.000819, 9.999145 
9.051016e+2, 2.8507885e+2, -61282.938, -247912.55, -4437.5425, 0.06837521, 0.05665134, -61177.484, 85051.55, 0.000014749117, 10.001148, 9.998728 
9.051041e+2, 2.950781e+2, 188304.86, -69317.16, -21369.998, 0.018140893, 0.06616111, 190065.5, 238300.98, 0.00006245814, 10.002161, 9.998785 
9.0510756e+2, 3.050763e+2, 190996.53, -205486.75, 33630.574, 0.008722647, 0.08307304, 193828.92, 193828.92, 0.00018874744, 10.002578, 9.997324 
9.0511143e+2, 3.1507382e+2, 232082.66, 0.045928963, -26893.262, 0.022214621, 0.079569355, 235158.23, 235158.23, 0.0004049675, 10.001954, 9.99905 
9.1504383e+2, 1.2508346e+2, -1688900.9, -1719098.8, -78566.414, -0.01137072, 0.033212785, -1623995.6, 90190.67, 0.000002613721, 10.000156, 9.999876 
9.150464e+2, 1.3508375e+2, -1633380.1, -1679775.5, -77676.125, -0.09011328, 0.07638323, -1575511.8, 40670.83, 0.00000007607973, 10.000103, 9.999495 
9.150503e+2, 1.4508359e+2, -1540615.6, -1541904.3, -75247.33, -0.037410043, 0.10058656, -1466009.9, 52173.664, 0.0, 9.999845, 9.9998865 
9.150553e+2, 1.5508303e+2, -1464971.1, -1456202.3, -21994.406, 0.06626936, 0.011336372, -1438159.5, -17971.22, 0.0, 9.999707, 9.999869 
9.15059e+2, 1.6508284e+2, -1379304.3, -1379557.5, -60337.203, 0.066963665, 0.020759296, -1319093.5, 3095.6077, 0.0, 9.999697, 9.999737 
9.150616e+2, 1.7508262e+2, -1264397.6, -1273587.9, -70857.87, -0.011359669, -0.007943577, -1197986.0, 26204.322, 0.0, 9.999818, 9.999725 
9.1506505e+2, 1.8508263e+2, -1142193.6, -1201458.0, -65338.867, -0.049494687, 0.04140002, -1100081.6, 26108.285, 0.0, 10.000125, 9.999399 
9.150693e+2, 1.9508255e+2, -976125.9, -1079005.1, -35913.406, -0.059319887, 0.06424559, -964829.5, 63361.047, 0.0, 10.000625, 9.9993305 
9.150735e+2, 2.0508169e+2, -884957.1, -1023521.44, -57754.28, -0.035984408, 0.068660535, -864041.9, 66157.305, 0.0, 10.000777, 9.998952 
9.150778e+2, 2.1507956e+2, -821403.8, -948283.7, -23308.0, 0.026043523, -0.07169766, -817257.56, 14962.449, 0.0, 10.0005665, 9.998902 
9.1508186e+2, 2.2507861e+2, -683608.7, -774657.94, -16509.336, 0.051925708, -0.07566753, -680707.6, 53520.867, 0.0, 10.000588, 9.999417 
9.150856e+2, 2.3507857e+2, -563769.94, -670786.1, 19015.557, 0.044803314, -0.052966207, -560491.5, 75735.664, 0.0, 10.000764, 9.999368 
9.150892e+2, 2.4507828e+2, -447542.16, -590630.75, -9129.346, 0.035627324, -0.002064009, -446962.03, 91268.195, 0.0, 10.0009985, 9.9991255 
9.150924e+2, 2.5507724e+2, -319985.13, -487720.1, 12628.144, 0.025942428, -0.052210413, -319039.72, 121202.47, 0.0, 10.001235, 9.999051 
9.150957e+2, 2.6507676e+2, -237968.33, -397472.06, -5771.8813, 0.031980574, 0.003006505, -237759.73, 104488.984, 0.00000011562638, 10.001162, 9.999026 
9.150992e+2, 2.7507642e+2, -211865.64, -339259.6, 6022.7324, 0.05351233, 0.03558704, -211581.53, 32672.158, 0.0000025826089, 10.000683, 9.998986 
9.151029e+2, 2.8507543e+2, -71791.46, -242781.53, 16360.953, 0.049372822, 0.053975124, -70240.06, 76023.09, 0.000017159802, 10.00104, 9.99881 
9.151067e+2, 2.950736e+2, 168330.53, -79448.47, 39410.742, 0.018728511, -0.051978774, 174448.02, 222727.33, 0.00007135739, 10.00203, 9.998778 
9.1511047e+2, 3.050717e+2, 189371.86, -179047.64, 1318.6188, 0.011920466, -0.050738536, 189376.58, 189376.58, 0.00020564985, 10.00246, 9.997552 
9.1511226e+2, 3.1507245e+2, 206179.63, 1679.2595, 7477.298, -0.16439429, 0.23218895, 206452.66, 206452.66, 0.00042848263, 10.001745, 9.999142 
9.250443e+2, 1.2507875e+2, -2016510.6, -1850503.9, 23135.531, 0.15576673, 0.058505498, -1847339.9, -133105.95, 0.0000053718704, 9.997782, 10.000133 
9.250466e+2, 1.3507925e+2, -1564882.5, -1616621.4, 19831.186, -0.07715898, 0.092551425, -1558155.9, 58071.93, 0.00000033393198, 10.000434, 9.99979 
9.250504e+2, 1.450792e+2, -1368266.8, -1432113.9, 2016.9403, -0.06329594, 0.103775606, -1368203.1, 150023.83, 0.0, 10.000922, 10.000118 
9.2505527e+2, 1.5507908e+2, -1448865.3, -1426481.0, -21212.584, 0.10247587, 0.038311593, -1413689.0, 6537.4224, 0.0, 9.99973, 10.000058 
9.2505914e+2, 1.6507879e+2, -1405906.9, -1438015.0, 22342.295, 0.12575358, 0.046315495, -1394448.9, -72220.055, 0.0, 9.999706, 9.999325 
9.2506206e+2, 1.7507802e+2, -1143319.9, -1263834.1, 451.65924, 0.012609864, 0.004094041, -1143318.3, 80918.914, 0.0, 10.0008545, 9.999294 
9.250656e+2, 1.8507777e+2, -1019659.75, -1134746.1, 9659.172, -0.048061978, 0.047362678, -1018854.7, 107384.914, 0.0, 10.000947, 9.999457 
9.250694e+2, 1.9507766e+2, -1069823.1, -1113790.5, -14069.202, -0.06378712, 0.057358697, -1065706.5, -37466.43, 0.0, 9.999948, 9.999411 
9.2507386e+2, 2.0507692e+2, -998567.2, -1040760.06, 1264.7002, -0.024111636, 0.055993892, -998529.3, -68282.945, 0.0, 9.999832, 9.999296 
9.2507887e+2, 2.1507524e+2, -782481.4, -888865.06, -7663.674, 0.07614636, -0.07205321, -781932.1, 50329.83, 0.0, 10.000651, 9.999274 
9.2508304e+2, 2.2507462e+2, -660412.8, -730940.3, -5856.898, 0.122988425, -0.07851824, -659929.75, 74337.14, 0.0, 10.000604, 9.999706 
9.250865e+2, 2.3507474e+2, -701255.6, -708823.94, -18323.385, 0.11439236, -0.068346076, -686329.7, -50065.69, 0.0, 9.999682, 9.99963 
9.2508996e+2, 2.4507466e+2, -651429.3, -678843.5, 12043.371, 0.0938294, -0.011244206, -646890.06, -108625.0, 0.0, 9.999555, 9.999224 
9.250934e+2, 2.5507402e+2, -450614.7, -536819.8, -6350.967, 0.061288156, -0.03129956, -450149.3, -9875.52, 0.0, 10.000285, 9.999175 
9.250967e+2, 2.650735e+2, -297488.06, -449961.03, -12880.734, 0.03788902, 0.0259691, -296407.56, 45873.168, 0.00000007319143, 10.000822, 9.998841 
9.250999e+2, 2.7507272e+2, -155208.33, -332659.75, -31788.64, 0.04219125, 0.027842494, -149685.6, 94604.586, 0.0000027897247, 10.00113, 9.998823 
9.251038e+2, 2.8507167e+2, -68546.055, -241860.45, 27221.33, 0.037454993, 0.04922125, -64371.15, 81929.26, 0.000020180585, 10.001069, 9.998796 
9.251081e+2, 2.9507017e+2, -28141.813, -176736.11, 3294.5493, 0.034667123, -0.022160621, -28068.803, 20245.059, 0.00008285034, 10.000681, 9.998756 
9.2511266e+2, 3.0506802e+2, 44460.71, -227764.45, 4623.393, 0.05569885, -0.05616964, 44539.207, 44539.207, 0.0002292469, 10.001332, 9.997768 
9.25115e+2, 3.1506827e+2, 323112.16, 33732.465, -36143.555, -0.0909614, 0.15267853, 327558.16, 327558.16, 0.0004645645, 10.002611, 9.998955 
9.350424e+2, 1.2507424e+2, -1963143.8, -1709428.8, 73898.29, 0.10407474, 0.08039444, -1689474.1, 24801.959, 0.000009857008, 9.9976845, 10.001136 
9.350479e+2, 1.3507405e+2, -1486180.6, -1449835.8, 130556.79, -0.024471737, -0.070733964, -1336192.8, 280079.06, 0.0000009955157, 10.000443, 10.000918 
9.3505156e+2, 1.4507394e+2, -1393164.3, -1485512.9, -63308.91, -0.079077475, -0.10105458, -1360979.9, 157290.8, 0.00000000002439963, 10.000927, 9.999754 
9.350539e+2, 1.5507522e+2, -1477182.5, -1473886.3, -48853.055, -0.050001867, 0.009829827, -1426653.5, -6394.1953, 0.0, 9.999683, 9.999755 
9.3505794e+2, 1.6507514e+2, -1417404.9, -1448585.4, 44612.41, -0.002293165, 0.053021476, -1385737.1, -63475.836, 0.0, 9.999642, 9.999288 
9.3506366e+2, 1.750735e+2, -1151661.8, -1273407.5, 60244.03, 0.04842493, -0.069419146, -1126890.9, 97386.81, 0.0, 10.000816, 9.999251 
9.350672e+2, 1.8507265e+2, -1050475.0, -1176794.1, -41985.395, -0.009711426, -0.07080956, -1037793.25, 88492.555, 0.0, 10.0008545, 9.999216 
9.350686e+2, 1.9507201e+2, -1106747.6, -1160021.6, -35940.664, -0.16870584, -0.088751025, -1088649.3, -60357.902, 0.0, 9.999818, 9.999159 
9.350728e+2, 2.0507187e+2, -1003392.44, -1017853.3, 15134.407, -0.14171714, -0.030948771, -993850.0, -63557.117, 0.0, 9.999683, 9.999526 
9.350796e+2, 2.1507195e+2, -797793.25, -876703.6, 40323.4, 0.05602708, -0.004197588, -780833.1, 51460.105, 0.0, 10.000451, 9.999459 
9.3508404e+2, 2.250718e+2, -686830.2, -734354.2, -56470.504, 0.1311852, 0.025903504, -649325.94, 84968.67, 0.0, 10.000381, 9.999791 
9.3508613e+2, 2.3507106e+2, -723767.9, -709464.0, -37570.42, 0.08160174, -0.061851993, -678370.9, -42069.91, 0.0, 9.999482, 9.999726 
9.350895e+2, 2.4507082e+2, -672192.75, -686053.06, 21457.828, 0.0680296, -0.02874925, -656573.75, -118270.164, 0.0, 9.9994, 9.999249 
9.350943e+2, 2.5507072e+2, -475265.2, -550649.9, 38636.23, 0.09445758, 0.00675509, -458980.97, -18675.13, 0.0, 10.000114, 9.999169 
9.350979e+2, 2.6507014e+2, -327769.25, -471826.75, -15057.375, 0.05290721, 0.057734855, -326212.25, 16101.029, 0.00000003612581, 10.000656, 9.998766 
9.351004e+2, 2.7506855e+2, -191919.36, -363792.25, 541.6006, -0.05688185, -0.009509039, -191917.66, 52412.934, 0.0000027030533, 10.00095, 9.998692 
9.351038e+2, 2.850678e+2, -90094.73, -267579.1, -2780.3704, -0.10860295, 0.05741689, -90051.18, 56287.43, 0.000022488803, 10.000977, 9.998668 
9.3510777e+2, 2.9506782e+2, -48765.63, -203795.77, 12604.02, -0.111193374, 0.14693126, -47747.6, 591.1723, 0.00009525127, 10.000604, 9.99861 
9.3511367e+2, 3.050652e+2, 48851.863, -198901.27, 42524.195, -0.011382873, 0.06524229, 55947.473, 55947.473, 0.00025879213, 10.001263, 9.997996 
9.351187e+2, 3.1506237e+2, 267757.16, -29111.314, 87883.93, -0.06306861, -0.0577788, 291823.1, 291823.1, 0.0005142612, 10.002404, 9.998617 
9.450415e+2, 1.2506874e+2, -1553763.1, -1503392.8, 103047.68, 0.13229704, 0.037592378, -1422497.3, 291830.8, 0.000016753027, 10.000426, 10.001236 
9.4504815e+2, 1.3506882e+2, -1732954.6, -1564103.5, 24733.207, 0.055190466, -0.09407342, -1560555.1, 55766.426, 0.000002343361, 9.998712, 10.00097 
9.450522e+2, 1.4506878e+2, -1728846.5, -1620481.3, -153192.6, 0.016837176, -0.13228454, -1512171.6, 6147.966, 0.0000000053592455, 9.998493, 10.000008 
9.4505394e+2, 1.5507014e+2, -1403342.9, -1421555.1, -135321.27, -0.01866449, -0.037926108, -1276821.8, 143485.63, 0.0, 10.00009, 9.999938 
9.45058e+2, 1.650703e+2, -1287348.5, -1385705.6, 20160.488, 0.0027390877, 0.022024857, -1283376.5, 38930.67, 0.0, 10.000541, 9.99928 
9.45064e+2, 1.7506905e+2, -1287839.9, -1341254.6, 812.74896, 0.058489803, -0.05941688, -1287827.5, -63506.727, 0.0, 9.999897, 9.999223 
9.4506776e+2, 1.850682e+2, -1183927.1, -1235736.8, -73892.29, 0.019939343, -0.061697792, -1131530.4, -5201.3164, 0.0, 9.99994, 9.999235 
9.450695e+2, 1.9506723e+2, -972507.25, -1091046.4, -80288.97, -0.10167005, -0.1139352, -931981.0, 96356.18, 0.0, 10.000747, 9.99917 
9.4507337e+2, 2.0506713e+2, -867442.1, -945556.6, 1420.7927, -0.085388996, -0.05757768, -867416.3, 62922.227, 0.0, 10.00058, 9.999592 
9.4507945e+2, 2.1506761e+2, -958457.3, -944919.06, -17539.406, 0.06601593, 0.0028323918, -932887.9, -100552.37, 0.0, 9.99931, 9.999536 
9.450838e+2, 2.2506768e+2, -851308.6, -826827.94, -73798.76, 0.12858385, 0.056154106, -764261.3, -29924.96, 0.0, 9.999331, 9.999652 
9.450864e+2, 2.3506694e+2, -557360.44, -642990.75, -105341.95, 0.10742709, -0.015126975, -486465.16, 149879.44, 0.0, 10.000702, 9.999586 
9.4509006e+2, 2.4506661e+2, -413454.4, -556597.75, -26415.41, 0.097050674, 0.017111124, -408735.34, 129612.67, 0.0, 10.001153, 9.9992895 
9.4509476e+2, 2.5506642e+2, -386426.34, -496757.3, -38680.438, 0.11389237, 0.034534644, -374216.7, 66133.055, 0.0, 10.00068, 9.999253 
9.450986e+2, 2.6506564e+2, -379634.97, -497351.5, -61661.72, 0.07733564, 0.060726244, -353249.7, -10891.918, 0.000000027783642, 10.000294, 9.998772 
9.4510126e+2, 2.750638e+2, -343707.0, -437973.34, -77311.586, 0.00027873562, -0.028862478, -300293.97, -55917.355, 0.000002329391, 9.9999, 9.998697 
9.451048e+2, 2.85063e+2, -192540.11, -338329.38, -21196.506, -0.058545887, 0.03879753, -189520.84, -43135.242, 0.000023981273, 10.000374, 9.998475 
9.4510907e+2, 2.95063e+2, 86869.42, -160676.83, -50047.914, -0.09101389, 0.14993322, 96605.02, 144991.75, 0.00010679835, 10.001633, 9.99842 
9.451152e+2, 3.0506068e+2, 168625.11, -86175.93, 15575.576, 0.007019754, 0.088006385, 169573.69, 169573.69, 0.00028981623, 10.001875, 9.998475 
9.451215e+2, 3.150574e+2, 63856.125, -86269.32, 32199.342, 0.079619616, -0.12605649, 70470.875, 70470.875, 0.00057081727, 10.000844, 9.998976 
9.550406e+2, 1.2506244e+2, -1632880.0, -1642822.9, -13120.825, -0.07800524, -0.06309049, -1623820.3, 90567.81, 0.00002677623, 10.00036, 10.000286 
9.5504683e+2, 1.3506368e+2, -1811653.4, -1705433.4, -26029.535, 0.02112566, 0.015599786, -1699397.8, -83021.77, 0.0000047533053, 9.998645, 10.000012 
9.5505166e+2, 1.4506374e+2, -1683030.9, -1512189.6, -116098.52, 0.06530118, -0.0063637453, -1453473.0, 64901.105, 0.000000046136613, 9.998426, 10.000788 
9.55055e+2, 1.5506402e+2, -1344699.8, -1305237.9, -59030.188, 0.033438448, -0.09968092, -1262728.4, 157640.22, 0.0, 10.000112, 10.000724 
9.550587e+2, 1.650645e+2, -1292604.9, -1395303.5, -21366.23, -0.017423844, -0.040140674, -1288337.0, 34027.387, 0.0, 10.000531, 9.999221 
9.550628e+2, 1.7506482e+2, -1296818.0, -1351069.0, -7380.3706, -0.089245506, 0.036527026, -1295831.9, -71466.93, 0.0, 9.999856, 9.999176 
9.55067e+2, 1.8506452e+2, -1175613.6, -1204536.9, -59442.57, -0.088929124, 0.07944536, -1128898.9, -2530.425, 0.0, 9.999866, 9.999492 
9.550714e+2, 1.9506322e+2, -969799.56, -1061301.5, -33865.285, -0.01879387, -0.031202205, -958629.44, 69749.08, 0.0, 10.000631, 9.9994335 
9.550752e+2, 2.0506263e+2, -897241.5, -967141.44, -64455.56, 0.0064067533, -0.034492195, -858870.1, 71513.805, 0.0, 10.000406, 9.999529 
9.550781e+2, 2.1506232e+2, -996448.4, -971540.9, -49155.94, -0.024450501, -0.047074843, -933285.6, -100897.36, 0.0, 9.999085, 9.999464 
9.5508206e+2, 2.2506234e+2, -907979.9, -894863.2, -38185.53, -0.008710202, 0.0247409, -862676.9, -128286.05, 0.0, 9.999116, 9.999288 
9.5508677e+2, 2.3506232e+2, -617876.25, -717113.44, -34279.055, 0.04976248, 0.063453905, -607186.8, 29208.473, 0.0, 10.000477, 9.999187 
9.5509094e+2, 2.4506205e+2, -436456.88, -552466.5, -57532.344, 0.0424294, 0.11342642, -412763.9, 125634.84, 0.0, 10.00094, 9.999413 
9.550944e+2, 2.5506118e+2, -405947.6, -496755.0, -36953.473, -0.029950151, 0.050499626, -392810.25, 47594.773, 0.0, 10.00051, 9.99933 
9.5509815e+2, 2.6506016e+2, -395977.0, -499701.1, -92938.57, -0.021673294, 0.046839483, -341409.5, 1003.9719, 0.000000030362223, 10.000163, 9.998815 
9.5510197e+2, 2.750585e+2, -358781.88, -437971.44, -70431.0, 0.046587598, -0.03115977, -317578.94, -73150.625, 0.000002140531, 9.999773, 9.998753 
9.551064e+2, 2.8505713e+2, -223540.94, -381679.44, 10027.589, 0.031415287, -0.010414359, -222907.61, -76465.664, 0.000025889522, 10.000282, 9.998221 
9.551113e+2, 2.9505578e+2, 50543.547, -208659.0, 22175.893, -0.06973428, -0.008097632, 52427.105, 100883.48, 0.00011778403, 10.001514, 9.998145 
9.5511705e+2, 3.0505472e+2, 200388.1, 6748.0938, -27852.68, -0.026158873, 0.029324647, 204314.72, 204314.72, 0.00031950467, 10.001761, 9.999168 
9.551224e+2, 3.1505314e+2, 102355.87, 32337.2, 57750.6, 0.010685053, -0.081972495, 134880.13, 134880.13, 0.00062882464, 10.00068, 9.999869 
9.650415e+2, 1.2505774e+2, -1698335.8, -1706002.8, 5165.116, 0.013099658, -0.03628962, -1695737.0, 18699.037, 0.000040530904, 9.999994, 10.000061 
9.650464e+2, 1.3505895e+2, -1609947.0, -1624790.1, 4160.414, 0.05636241, 0.05773005, -1608860.4, 7563.276, 0.000008656152, 10.000075, 9.999899 
9.6505123e+2, 1.4505883e+2, -1474325.4, -1416302.9, 25025.03, 0.12042396, 0.02645321, -1407000.9, 111422.93, 0.00000019058375, 9.999922, 10.000696 
9.6505535e+2, 1.5505871e+2, -1375266.0, -1330030.1, -29256.83, 0.07625693, -0.09270121, -1315667.9, 104754.77, 0.0, 9.999989, 10.00059 
9.650592e+2, 1.6505922e+2, -1334779.4, -1379449.1, -18582.047, 0.006909054, -0.042122837, -1328060.1, -5641.9976, 0.0, 10.000113, 9.999522 
9.6506286e+2, 1.7505988e+2, -1209043.1, -1279003.1, -16599.604, -0.08469243, 0.042663086, -1205304.4, 19109.852, 0.0, 10.000341, 9.999433 
9.650672e+2, 1.8505989e+2, -1100480.3, -1148379.0, -11682.407, -0.06619292, 0.093338504, -1097782.9, 28631.342, 0.0, 10.000265, 9.999704 
9.650723e+2, 1.9505887e+2, -1070531.4, -1091167.4, -19919.965, 0.052084353, -0.008900924, -1058415.9, -29994.053, 0.0, 9.999833, 9.999632 
9.6507585e+2, 2.0505828e+2, -986085.5, -998923.25, -38792.05, 0.07679592, -0.023749374, -953184.9, -22757.86, 0.0, 9.999784, 9.999593 
9.6507806e+2, 2.1505776e+2, -834246.5, -886052.0, -53475.39, 0.015586701, -0.06748311, -800730.6, 31702.86, 0.0, 10.000187, 9.999507 
9.650818e+2, 2.2505777e+2, -725662.9, -807299.56, 51836.07, 0.006032816, 0.0019492969, -700503.06, 33932.676, 0.0, 10.000356, 9.999299 
9.650872e+2, 2.3505798e+2, -640953.94, -720657.0, 51046.953, 0.055626485, 0.061501414, -616044.9, 20392.371, 0.0, 10.0002775, 9.999258 
9.6509135e+2, 2.4505766e+2, -524639.6, -608270.44, 39768.15, 0.03201511, 0.10563476, -508748.56, 29692.47, 0.0, 10.000371, 9.999321 
9.650947e+2, 2.5505656e+2, -400496.56, -508839.7, 12401.108, -0.051619925, 0.03470075, -399095.25, 41354.406, 0.0, 10.000599, 9.999223 
9.6509874e+2, 2.650555e+2, -267862.1, -458152.2, -11230.34, -0.018834474, 0.043832853, -267201.6, 75256.59, 0.000000012060779, 10.001135, 9.998627 
9.651035e+2, 2.7505395e+2, -58779.57, -318551.72, -46939.43, 0.120793976, -0.002751647, -50558.07, 193913.42, 0.0000023356135, 10.001942, 9.998527 
9.651084e+2, 2.8505203e+2, -5414.034, -317939.44, 57255.355, 0.12882233, -0.0075190887, 4745.0405, 151235.34, 0.000028869204, 10.001968, 9.99783 
9.651134e+2, 2.9504955e+2, -24822.637, -287641.97, 11142.603, 0.01755741, -0.078445576, -24351.076, 24164.656, 0.00012892728, 10.001201, 9.997736 
9.6511877e+2, 3.0504856e+2, 99436.164, -37028.457, -52889.117, 0.019503834, -0.018641008, 117534.07, 117534.07, 0.00034703137, 10.001009, 9.99924 
9.65124e+2, 3.150475e+2, 150146.53, 100921.32, -70319.33, 0.11442252, -0.09002246, 200036.2, 200036.2, 0.0006841425, 10.000786, 10.000292 
9.750432e+2, 1.250543e+2, -1651024.5, -1589211.0, -53094.18, 0.099896505, 0.09873909, -1558683.0, 155792.17, 0.000058506626, 9.999926, 10.000891 
9.750463e+2, 1.3505481e+2, -1541250.5, -1483500.9, 17428.605, 0.0064906757, 0.02908102, -1478648.6, 137814.61, 0.00001444443, 10.00009, 10.000856 
9.750504e+2, 1.4505436e+2, -1555538.4, -1584578.8, 10386.0625, 0.00339469, -0.02650876, -1552206.3, -33740.453, 0.0000005546723, 9.99992, 9.999546 
9.750547e+2, 1.5505444e+2, -1459967.8, -1496973.4, -6252.42, -0.024648529, -0.015096959, -1458939.9, -38471.95, 0.0, 9.999954, 9.999459 
9.7505903e+2, 1.6505447e+2, -1299603.8, -1298663.8, -30082.393, -0.05626144, 0.018587867, -1269047.6, 53420.316, 0.0, 10.000069, 10.000104 
9.7506374e+2, 1.7505425e+2, -1171979.0, -1196727.5, 6529.7773, -0.06658474, -0.044082742, -1170361.9, 54106.63, 0.0, 10.000311, 10.000017 
9.750679e+2, 1.8505433e+2, -1104081.6, -1130596.6, -41747.555, -0.052859657, -0.022706961, -1073537.1, 52929.176, 0.0, 10.000156, 9.999878 
9.7507167e+2, 1.9505434e+2, -1078433.1, -1072362.3, -18134.615, -0.025492677, -0.043826062, -1057010.8, -28545.543, 0.0, 9.999686, 9.999826 
9.7507524e+2, 2.0505431e+2, -1006136.7, -1002163.6, -41355.66, 0.004006886, -0.014586165, -962746.8, -32281.098, 0.0, 9.999607, 9.999664 
9.7507876e+2, 2.1505389e+2, -856973.1, -889958.0, -22531.604, 0.036985382, -0.05368903, -845542.94, -13071.572, 0.0, 9.999994, 9.999578 
9.750826e+2, 2.2505386e+2, -725140.44, -757916.25, 29915.322, 0.025158903, -0.013090093, -707418.4, 27053.416, 0.0, 10.000147, 9.999737 
9.7508687e+2, 2.350539e+2, -647811.6, -675944.9, 62084.203, -0.027781473, -0.01760365, -598220.44, 38250.465, 0.0, 10.0000305, 9.9996805 
9.75091e+2, 2.4505357e+2, -570293.25, -664833.3, 30277.82, -0.06938719, 0.02093221, -561427.7, -22953.826, 0.0, 10.0002, 9.999021 
9.7509503e+2, 2.5505254e+2, -442811.38, -560688.3, 39125.297, -0.10489314, -0.013927856, -431007.13, 9477.015, 0.0, 10.0004425, 9.998943 
9.750998e+2, 2.6505154e+2, -316643.28, -533168.5, 2157.1025, -0.056142733, 0.037527945, -316621.8, 25871.828, 0.0000000034767167, 10.001015, 9.998171 
9.7510535e+2, 2.7505013e+2, -108143.97, -392751.53, 4999.5854, 0.0715942, 0.04943071, -108056.17, 136450.22, 0.0000028342504, 10.001813, 9.998081 
9.7511035e+2, 2.850478e+2, -63015.195, -411684.78, 14232.13, 0.08622184, 0.05345032, -62435.227, 84094.49, 0.000032313746, 10.001862, 9.997238 
9.751147e+2, 2.950442e+2, -86625.03, -386400.6, 11066.219, -0.024938991, -0.06828134, -86217.07, -37650.953, 0.0001399921, 10.001078, 9.997117 
9.7511965e+2, 3.05042e+2, 42745.918, -124453.23, -71034.75, -0.027936501, -0.07070348, 68849.695, 68849.695, 0.00037284024, 10.000883, 9.998696 
9.751251e+2, 3.1503963e+2, 115562.84, 72960.11, -20706.107, 0.060412563, -0.22092883, 123968.23, 123968.23, 0.00073526404, 10.000604, 10.000181 
9.850444e+2, 1.250505e+2, -1682540.6, -1618042.8, 40921.598, 0.26039124, 0.12714173, -1598190.1, 116321.625, 0.00008108169, 9.999766, 10.000765 
9.8504627e+2, 1.3505042e+2, -1543045.8, -1508056.1, -26414.258, 0.008850772, 0.014341588, -1493868.4, 122638.05, 0.000022462764, 10.000155, 10.000664 
9.8505026e+2, 1.4504988e+2, -1536192.6, -1609365.8, -11053.399, -0.014733179, -0.024288768, -1534559.4, -16048.588, 0.0000013019285, 10.000175, 9.99926 
9.8505485e+2, 1.5505034e+2, -1442501.0, -1522328.0, -5260.1514, -0.006069246, 0.051281445, -1442155.9, -21645.236, 0.0, 10.0002, 9.99917 
9.850594e+2, 1.650503e+2, -1307028.5, -1281689.0, 25897.006, -0.00939188, 0.08216255, -1265528.6, 56983.016, 0.0, 9.9999275, 10.000286 
9.8506397e+2, 1.7504959e+2, -1286364.4, -1227753.9, -964.1557, -0.016218858, -0.046958715, -1227738.0, -3222.482, 0.0, 9.999435, 10.000217 
9.8506796e+2, 1.850497e+2, -1191510.1, -1138127.0, -27607.09, -0.015479351, -0.048987415, -1126418.1, 94.15065, 0.0, 9.999429, 10.000166 
9.8507136e+2, 1.9505018e+2, -1048056.56, -1028840.7, -35164.723, -0.021863617, -0.046419628, -1001994.94, 26511.057, 0.0, 9.999786, 10.0000725 
9.850752e+2, 2.0505041e+2, -925555.06, -977886.3, -10941.496, 0.01863435, 0.0015301368, -923359.5, 7144.8193, 0.0, 10.000199, 9.999555 
9.850796e+2, 2.1505e+2, -781760.5, -865136.25, -36650.98, 0.10056002, -0.025762618, -767940.06, 64570.51, 0.0, 10.000554, 9.999483 
9.850836e+2, 2.2504982e+2, -654516.0, -737093.9, 4827.7, 0.085011445, 0.007290842, -654234.75, 80277.41, 0.0, 10.000675, 9.999631 
9.8508716e+2, 2.3504953e+2, -582620.94, -657972.56, -31660.566, -0.019434817, -0.017669974, -571084.4, 65428.094, 0.0, 10.000528, 9.99957 
9.850915e+2, 2.4504876e+2, -555246.4, -701631.3, -41520.47, -0.048801076, 0.0049253725, -544289.6, -5770.6035, 0.0, 10.00052, 9.998597 
9.850964e+2, 2.5504708e+2, -438025.25, -607038.6, -81815.11, -0.014743712, -0.053457752, -404909.28, 35627.133, 0.0, 10.000691, 9.998498 
9.8510146e+2, 2.6504582e+2, -344322.9, -553743.06, -68196.53, 0.020973915, -0.004866224, -324073.13, 18476.375, 0.00000001775074, 10.000863, 9.998107 
9.851067e+2, 2.750446e+2, -223818.58, -456727.5, -77475.66, 0.07505711, 0.03562122, -200401.23, 44160.016, 0.000003544514, 10.001053, 9.998015 
9.8511183e+2, 2.8504252e+2, -140058.3, -416286.1, -20796.63, 0.090735435, 0.055235665, -138501.34, 8080.113, 0.00003520851, 10.001169, 9.997564 
9.8511666e+2, 2.950392e+2, -57421.984, -338934.13, 8984.96, 0.07287989, -0.06947165, -57135.504, -8522.218, 0.00014922032, 10.001109, 9.997447 
9.851212e+2, 3.0503678e+2, 37311.418, -204758.72, 12715.029, 0.045536507, -0.07394325, 37977.457, 37977.457, 0.00039592202, 10.001206, 9.997974 
9.851264e+2, 3.150347e+2, 149726.31, 35765.813, -22672.0, 0.12139866, -0.120463826, 154071.17, 154071.17, 0.0007798097, 10.001094, 9.99968 
9.950441e+2, 1.2504634e+2, -1774919.0, -1798489.5, -1183.9265, 0.17438331, 0.05072196, -1774859.8, -60314.137, 0.000108580556, 9.999734, 9.999531 
9.95046e+2, 1.3504584e+2, -1638665.1, -1693162.5, -35.319485, -0.06917685, 0.016027717, -1638665.1, -22112.504, 0.000033028722, 10.000114, 9.999401 
9.9505025e+2, 1.4504543e+2, -1499972.6, -1533044.8, -34930.406, -0.08246278, 0.028647093, -1477861.9, 40696.81, 0.0000026281716, 10.000161, 9.999799 
9.950554e+2, 1.5504646e+2, -1398506.5, -1433631.9, 11017.302, -0.01669821, 0.10868079, -1395336.9, 25213.914, 0.00000000019976186, 10.000206, 9.999782 
9.9505967e+2, 1.6504677e+2, -1329324.4, -1313311.3, -10306.631, -0.00982887, 0.15110734, -1308266.8, 14281.507, 0.0, 9.999874, 10.000091 
9.9506336e+2, 1.7504595e+2, -1304784.9, -1257198.3, -1792.3986, -0.061589077, 0.03137127, -1257130.9, -32576.203, 0.0, 9.999399, 10.000032 
9.95067e+2, 1.8504588e+2, -1186791.3, -1105605.3, -32211.393, -0.08716395, 0.007849751, -1094377.8, 32175.148, 0.0, 9.999332, 10.000436 
9.950709e+2, 1.9504625e+2, -1045878.4, -993401.25, -5023.2573, -0.08201758, -0.032186393, -992924.75, 35621.207, 0.0, 9.999654, 10.000379 
9.950753e+2, 2.0504643e+2, -975783.9, -1030222.4, -16639.564, -0.024975171, 0.009959346, -971100.7, -40556.367, 0.0, 9.999986, 9.999293 
9.950801e+2, 2.1504608e+2, -832014.5, -914456.94, -8533.859, 0.075040445, 0.013063043, -831140.4, 1411.2449, 0.0, 10.000326, 9.999248 
9.950843e+2, 2.2504571e+2, -729580.3, -836591.6, -17433.727, 0.06480313, 0.06828572, -726811.75, 7744.1475, 0.0, 10.000437, 9.999062 
9.950875e+2, 2.35045e+2, -656161.4, -756618.94, -18934.744, -0.060368504, 0.058448534, -652711.0, -16150.376, 0.0, 10.000302, 9.998999 
9.950923e+2, 2.4504334e+2, -623775.6, -805917.75, -51065.53, -0.054057747, 0.04954211, -610435.9, -71860.04, 0.0, 10.00035, 9.997964 
9.9509835e+2, 2.550403e+2, -506923.28, -708487.9, -56194.46, 0.07744599, -0.083214276, -492315.44, -51709.86, 0.0, 10.000505, 9.997892 
9.9510324e+2, 2.6503846e+2, -355810.4, -537440.2, -75281.016, 0.08165461, -0.0703536, -328665.25, 13958.687, 0.000000028595345, 10.000701, 9.998293 
9.95107e+2, 2.7503735e+2, -235218.55, -443541.22, -48091.434, -0.03563947, -0.035811376, -224652.52, 19982.781, 0.000003781716, 10.000905, 9.998174 
9.9511224e+2, 2.8503612e+2, -64805.68, -236890.52, -37088.05, -0.014005626, -0.0020616075, -57152.734, 89493.23, 0.000036350866, 10.001067, 9.998845 
9.951189e+2, 2.9503456e+2, 22513.012, -151409.03, 31879.855, 0.1412226, -0.08324705, 28172.424, 76829.664, 0.00015456251, 10.001017, 9.998778 
9.9512327e+2, 3.0503297e+2, -49930.867, -363804.66, 865.0725, 0.09546677, -0.020944668, -49928.48, -49928.48, 0.00041193186, 10.001121, 9.996921 
9.951266e+2, 3.1503198e+2, 54399.207, -108631.68, 18524.063, -0.04786358, 0.14806065, 56477.473, 56477.473, 0.0008105773, 10.000878, 9.998786 
1.0050437e+3, 1.2504135e+2, -1756988.1, -1827368.6, -18562.17, 0.15817314, -0.035609968, -1752392.6, -37802.242, 0.00014134821, 10.000016, 9.999201 
1.0050467e+3, 1.3504116e+2, -1645449.4, -1735088.0, 1535.1608, -0.011464565, -0.0027633053, -1645423.0, -28825.713, 0.000046426092, 10.000236, 9.999053 
1.0050512e+3, 1.4504099e+2, -1504721.1, -1489034.4, 27235.729, 0.018424299, 0.030977396, -1468535.1, 50067.297, 0.00000474816, 9.999967, 10.000174 
1.0050554e+3, 1.5504211e+2, -1455151.9, -1423121.3, 9674.802, 0.0044463873, 0.086531825, -1420425.9, 167.17384, 0.000000004412824, 9.99967, 10.000109 
1.0050594e+3, 1.6504267e+2, -1371212.5, -1342596.1, 17493.594, -0.0072449166, 0.14267547, -1334304.5, -11716.414, 0.0, 9.999603, 10.000033 
1.0050632e+3, 1.7504232e+2, -1260426.8, -1242836.3, 3173.316, -0.018071625, 0.07237216, -1242281.3, -17689.934, 0.0, 9.999716, 9.999988 
1.005067e+3, 1.8504225e+2, -1143337.3, -1088811.6, 11084.368, -0.030362181, 0.05520843, -1086644.5, 39945.305, 0.0, 9.999657, 10.000389 
1.0050707e+3, 1.950422e+2, -1074139.6, -1013198.94, -21180.227, -0.04121599, -0.022198547, -1006560.75, 22025.86, 0.0, 9.999494, 10.000314 
1.00507535e+3, 2.0504218e+2, -1010791.2, -1068820.0, 9358.549, 0.0002872491, 0.013120286, -1009319.25, -78732.7, 0.0, 9.9998255, 9.99911 
1.00508064e+3, 2.1504188e+2, -810103.94, -932600.4, -13776.566, 0.08561139, 0.03989452, -808573.7, 24019.662, 0.0, 10.000572, 9.999021 
1.0050852e+3, 2.2504129e+2, -674479.7, -845779.1, 854.73065, 0.0950952, 0.10166432, -674475.4, 60124.98, 0.0, 10.000989, 9.998728 
1.00508906e+3, 2.3504005e+2, -558368.06, -749425.6, -25380.043, 0.024852267, 0.07686542, -555054.06, 81557.4, 0.0, 10.001151, 9.99864 
1.0050939e+3, 2.4503817e+2, -478631.5, -720165.4, 17022.88, 0.035137326, 0.058172587, -477437.66, 61190.84, 0.0, 10.001279, 9.998108 
1.0050997e+3, 2.5503534e+2, -369737.2, -617833.2, 32914.09, 0.1327189, -0.06780297, -365444.84, 75209.05, 0.0, 10.0013685, 9.998087 
1.0051044e+3, 2.650335e+2, -265430.06, -485804.7, 66690.99, 0.115527436, -0.06822436, -246819.34, 95851.805, 0.000000017098808, 10.001276, 9.998373 
1.005108e+3, 2.7503213e+2, -231922.95, -426612.22, 53767.52, -0.012771239, -0.07581012, -218060.92, 26624.486, 0.000003428396, 10.000858, 9.998307 
1.0051133e+3, 2.8503117e+2, -70786.86, -231239.36, 73919.12, -0.004433151, -0.02371503, -41924.67, 104769.26, 0.00003625069, 10.001007, 9.998898 
1.0051203e+3, 2.9503044e+2, 118581.26, -99700.17, 8550.257, 0.15879717, -0.028277654, 118915.664, 167614.53, 0.00015744341, 10.001652, 9.998822 
1.005125e+3, 3.050287e+2, 80089.734, -287657.44, -11391.637, 0.124298945, 0.011221913, 80442.27, 80442.27, 0.00042211023, 10.001921, 9.9970875 
1.0051288e+3, 3.1502762e+2, 148832.4, -54901.758, 29391.299, 0.07654086, 0.16149397, 152987.73, 152987.73, 0.0008305699, 10.001432, 9.998931 
1.01504214e+3, 1.2503566e+2, -1723074.1, -1737520.6, -77386.92, -0.08394476, -0.13212453, -1652574.1, 62070.813, 0.0001798155, 9.999955, 9.999834 
1.0150476e+3, 1.350365e+2, -1604912.5, -1647861.0, 24182.18, 0.020153318, -0.055429373, -1594046.0, 22593.832, 0.000062927356, 10.00023, 9.999646 
1.0150524e+3, 1.450366e+2, -1508138.1, -1487507.9, -7685.045, 0.09453061, -0.029012447, -1484959.8, 33682.008, 0.000007860604, 9.999931, 10.000199 
1.0150545e+3, 1.5503734e+2, -1458152.3, -1423730.6, 15758.814, -0.08791304, -0.011743448, -1417605.8, 3030.7368, 0.000000028517778, 9.999652, 10.000108 
1.015058e+3, 1.6503814e+2, -1368107.9, -1331528.8, 3316.1326, -0.13659063, 0.06351329, -1331230.5, -8600.433, 0.0, 9.999578, 10.000123 
1.01506315e+3, 1.7503868e+2, -1254860.6, -1229677.4, 22896.256, -0.029664766, 0.072856344, -1216138.8, 8486.344, 0.0, 9.999703, 10.000086 
1.0150673e+3, 1.8503883e+2, -1185752.8, -1154951.0, -13808.722, 0.005252975, 0.09145706, -1149666.9, -23044.287, 0.0, 9.999563, 9.999981 
1.0150705e+3, 1.9503817e+2, -1120999.9, -1079318.3, -12331.719, -0.03915537, -0.0069346773, -1075943.1, -47316.44, 0.0, 9.999362, 9.999921 
1.0150749e+3, 2.0503783e+2, -1044304.75, -1101864.4, 19502.66, -0.0449128, 0.022634141, -1038319.2, -107689.695, 0.0, 9.999668, 9.99896 
1.0150805e+3, 2.1503751e+2, -847846.4, -962967.06, 28681.104, -0.01161621, 0.061373826, -841096.56, -8462.333, 0.0, 10.000373, 9.998901 
1.0150858e+3, 2.2503665e+2, -726740.25, -899219.2, -12459.847, 0.034978814, 0.115068465, -725844.75, 8799.458, 0.0, 10.000753, 9.998474 
1.0150911e+3, 2.3503485e+2, -607563.4, -796868.4, -4180.1904, 0.09007357, 0.054513242, -607471.06, 29192.521, 0.0, 10.000919, 9.998423 
1.01509586e+3, 2.4503346e+2, -445546.03, -604998.4, 373.7268, 0.08292293, 0.05192453, -445545.16, 93130.15, 0.0, 10.001079, 9.998999 
1.0151002e+3, 2.5503212e+2, -331350.03, -502487.34, 52338.594, 0.008683449, -0.013657778, -316612.53, 124070.266, 0.0, 10.001209, 9.998961 
1.01510465e+3, 2.6503074e+2, -278809.84, -479867.22, 36877.9, -0.017170945, -0.017524516, -272259.13, 70434.625, 0.000000011022683, 10.001134, 9.99848 
1.0151093e+3, 2.750289e+2, -243622.69, -416824.1, 60511.977, -0.0060690497, -0.084322535, -224575.95, 20135.992, 0.0000031084232, 10.000713, 9.998442 
1.0151145e+3, 2.8502768e+2, -172869.64, -416673.25, 81636.31, -0.015852729, -0.006492008, -148059.02, -1333.0762, 0.000035475467, 10.0008955, 9.997675 
1.0151203e+3, 2.950268e+2, 5437.8257, -293625.44, 56289.547, -0.050068196, 0.094681606, 15681.73, 64420.543, 0.00015874387, 10.001484, 9.997567 
1.01512566e+3, 3.05024e+2, 158412.69, -96485.88, -37875.324, -0.026930425, 0.026011381, 163921.52, 163921.52, 0.00042931808, 10.001804, 9.998451 
1.0151319e+3, 3.150218e+2, 193889.22, 108672.45, 56072.18, 0.17190398, -0.075369224, 221705.02, 221705.02, 0.00084597926, 10.001158, 10.000174 
1.0250428e+3, 1.2503172e+2, -1675997.8, -1668344.8, -16413.922, 0.011544, -0.11031337, -1655317.3, 59366.117, 0.00022439056, 10.00006, 10.000268 
1.025048e+3, 1.3503265e+2, -1642791.9, -1622711.0, 23253.441, 0.07062744, -0.060937434, -1607423.0, 9252.73, 0.0000828242, 9.999785, 10.000042 
1.0250524e+3, 1.4503273e+2, -1557525.3, -1534932.1, 23725.56, 0.11605098, -0.046028376, -1519951.0, -1274.2003, 0.000012107546, 9.9996605, 10.0000305 
1.0250541e+3, 1.5503305e+2, -1419414.3, -1425274.6, -2181.1077, -0.09806561, -0.05756726, -1418691.6, 1984.4797, 0.00000009714164, 9.99998, 9.999954 
1.0250579e+3, 1.6503376e+2, -1303170.6, -1289444.8, 15526.706, -0.13162126, 0.012848296, -1279331.9, 43338.59, 0.0, 10.000018, 10.0001745 
1.0250635e+3, 1.750346e+2, -1221092.1, -1203598.3, -7804.7, 0.024286825, 0.048815627, -1200622.5, 24039.639, 0.0, 9.999932, 10.0001335 
1.025068e+3, 1.8503459e+2, -1134119.0, -1204548.0, -16427.742, 0.08737457, 0.08219113, -1130475.6, -3813.5364, 0.0, 10.000219, 9.9993305 
1.0250713e+3, 1.9503337e+2, -957370.0, -1074679.5, -62706.91, 0.03474545, -0.0054385145, -930161.25, 98512.89, 0.0, 10.000792, 9.999274 
1.0250757e+3, 2.0503269e+2, -856516.94, -992630.9, -673.0562, 0.0034296834, 0.013414527, -856513.6, 74166.65, 0.0, 10.0009, 9.999115 
1.0250809e+3, 2.1503215e+2, -814867.7, -932804.44, -8855.939, -0.0042965496, 0.02089405, -814206.44, 18477.707, 0.0, 10.000558, 9.999021 
1.0250866e+3, 2.250311e+2, -764954.2, -931062.4, 529.5415, 0.047499057, 0.055485643, -764952.5, -30257.168, 0.0, 10.000542, 9.998356 
1.0250924e+3, 2.3502919e+2, -639923.44, -826929.94, -12343.517, 0.14704688, -0.0032493165, -639112.2, -2394.8325, 0.0, 10.000761, 9.998292 
1.0250973e+3, 2.4502826e+2, -446401.7, -546654.4, 5944.2104, 0.13115916, 0.02169526, -446050.47, 92674.414, 0.0, 10.00084, 9.9994955 
1.02510095e+3, 2.5502795e+2, -366428.75, -467064.38, -10886.433, -0.0015886198, 0.009315148, -365264.56, 75457.24, 0.0, 10.000746, 9.999422 
1.0251056e+3, 2.6502684e+2, -309898.56, -502991.0, -13527.146, -0.021789107, 0.012387606, -308955.53, 33774.695, 0.00000001218603, 10.000961, 9.998401 
1.0251111e+3, 2.750245e+2, -140667.72, -372278.1, -41923.184, 0.08125887, -0.09341126, -133312.88, 111440.53, 0.0000027111198, 10.001458, 9.998384 
1.02511644e+3, 2.8502312e+2, -78768.086, -361784.7, 57582.637, 0.07102009, -0.03141691, -67500.87, 79267.7, 0.00003356842, 10.001492, 9.997775 
1.0251214e+3, 2.9502237e+2, -66496.984, -316632.03, 89198.53, -0.048196718, 0.07362716, -37947.246, 10832.158, 0.00015737157, 10.000933, 9.997683 
1.0251271e+3, 3.0501935e+2, 102472.37, -94484.33, 53386.04, -0.028783532, -0.034307055, 116012.12, 116012.12, 0.00043278775, 10.001313, 9.998686 
1.0251346e+3, 3.1501684e+2, 356651.72, 188440.19, -7431.0454, 0.29966483, -0.19620183, 356979.34, 356979.34, 0.00085735595, 10.002258, 10.000185 
1.03504494e+3, 1.2502933e+2, -1657039.4, -1632649.6, -94221.52, 0.1254055, 0.009079263, -1549837.0, 164871.19, 0.00027553758, 10.000076, 10.000504 
1.03504725e+3, 1.350297e+2, -1635565.4, -1604356.1, 20071.207, -0.008285309, -0.012918998, -1594537.3, 22166.814, 0.000106410545, 9.999772, 10.000174 
1.03505045e+3, 1.450295e+2, -1576628.6, -1573693.8, 11747.618, -0.08164126, -0.017322201, -1563322.3, -44615.254, 0.000017580353, 9.9996605, 9.999764 
1.0350537e+3, 1.5502927e+2, -1434282.4, -1457379.4, 26323.799, -0.17420276, -0.059976112, -1417085.3, 3626.2285, 0.00000023822265, 9.99998, 9.999738 
1.035058e+3, 1.6502953e+2, -1318961.1, -1307152.9, -8994.891, -0.15338182, -0.0175001, -1302297.5, 20411.477, 0.0, 9.999961, 10.000076 
1.0350636e+3, 1.7503005e+2, -1238200.1, -1223291.9, 4856.747, 0.013509118, -0.005082466, -1221849.3, 2852.8145, 0.0, 9.99987, 10.000026 
1.0350685e+3, 1.8502966e+2, -1208448.8, -1336767.8, -15151.697, 0.079204984, 0.037417527, -1206683.9, -79976.72, 0.0, 10.000124, 9.99847 
1.0350725e+3, 1.9502793e+2, -1035543.6, -1209549.4, -28695.537, 0.041575987, -0.015665207, -1030933.56, -2205.456, 0.0, 10.0006695, 9.99841 
1.03507675e+3, 2.0502678e+2, -863874.75, -961714.7, -31838.523, 0.006589763, -0.015604433, -854426.44, 76312.36, 0.0, 10.000698, 9.999426 
1.0350815e+3, 2.1502572e+2, -814072.94, -895648.2, -3024.0408, -0.018221304, -0.092471, -813961.0, 18782.719, 0.0, 10.000395, 9.999358 
1.0350868e+3, 2.2502457e+2, -793539.6, -938946.4, -7242.8022, -0.0034865995, -0.08907827, -793179.75, -58425.504, 0.0, 10.000328, 9.998402 
1.03509255e+3, 2.3502302e+2, -666882.56, -833305.25, 12686.269, 0.05135444, -0.11647824, -665921.06, -29147.904, 0.0, 10.000551, 9.998346 
1.0350974e+3, 2.4502257e+2, -480309.06, -566089.4, -9995.093, 0.03601975, -0.04538478, -479159.8, 59617.492, 0.0, 10.000625, 9.999465 
1.03510156e+3, 2.5502288e+2, -393782.13, -479784.88, 5927.4116, -0.046086296, 0.0041088513, -393375.53, 47394.434, 0.0, 10.000563, 9.99942 
1.0351068e+3, 2.6502186e+2, -349425.06, -552756.94, -11308.628, -0.02694273, 0.031538032, -348798.03, -6019.1094, 0.00000000560088, 10.000823, 9.998125 
1.035113e+3, 2.7501905e+2, -185718.42, -424876.75, -3430.6614, 0.09520363, -0.09847827, -185669.23, 59139.598, 0.0000022721786, 10.00129, 9.998099 
1.0351186e+3, 2.850176e+2, 912.333, -166911.11, 20577.906, 0.10759441, -0.09706629, 3398.6858, 150220.08, 0.000031172072, 10.001365, 9.999175 
1.0351232e+3, 2.9501742e+2, 6907.7783, -126463.195, 94204.38, -0.0072056553, -0.07227881, 55640.746, 104459.21, 0.00015322318, 10.0007715, 9.999068 
1.0351287e+3, 3.0501488e+2, 16500.75, -238992.66, 79427.125, -0.02778471, -0.15679054, 39179.74, 39179.74, 0.00043103905, 10.001179, 9.997752 
1.0351361e+3, 3.1501296e+2, 232227.42, 7196.515, 78157.695, 0.1445425, -0.16562836, 256709.61, 256709.61, 0.00086192216, 10.001962, 9.999066 
1.0450446e+3, 1.250245e+2, -1849849.3, -1710688.6, -146540.73, 0.17363565, 0.004868662, -1618048.0, 96708.445, 0.0003338259, 9.998657, 10.000667 
1.04504734e+3, 1.3502513e+2, -1644389.3, -1594951.3, -74859.945, 0.051510505, -0.007339138, -1540834.8, 75914.37, 0.00013404706, 9.999614, 10.000326 
1.0450504e+3, 1.4502522e+2, -1532725.5, -1532909.4, -22779.887, -0.049661696, 0.0028920243, -1510037.4, 8710.958, 0.000024406929, 9.999901, 9.999908 
1.0450542e+3, 1.5502502e+2, -1433206.4, -1431608.3, -24172.193, -0.118846275, -0.050632574, -1408222.0, 12529.509, 0.0000004785213, 9.999917, 9.999923 
1.0450586e+3, 1.6502501e+2, -1318801.4, -1351896.9, -19035.604, -0.09742604, -0.029054224, -1310126.5, 12625.059, 0.0, 10.000134, 9.999705 
1.04506396e+3, 1.7502481e+2, -1155667.9, -1226169.8, -56555.734, 0.03640019, -0.05164758, -1124276.6, 100475.37, 0.0, 10.000602, 9.999667 
1.0450689e+3, 1.8502426e+2, -1147779.1, -1296813.1, -24003.668, 0.09992419, -0.010126162, -1144008.5, -17249.762, 0.0, 10.000511, 9.998551 
1.0450731e+3, 1.9502299e+2, -1138274.6, -1248517.6, -7063.0967, 0.08968246, -0.025495935, -1137823.9, -109048.52, 0.0, 9.99993, 9.998494 
1.04507774e+3, 2.0502193e+2, -960215.3, -1014272.4, 54317.445, 0.06961173, -0.015213425, -926573.2, 4212.0376, 0.0, 10.000065, 9.999362 
1.0450827e+3, 2.1502073e+2, -756551.8, -869176.4, 20055.55, 0.04192629, -0.103967406, -753087.0, 79705.164, 0.0, 10.000814, 9.999322 
1.0450879e+3, 2.2501959e+2, -661910.9, -867884.25, 27613.81, 0.039307278, -0.10043261, -658273.06, 76528.98, 0.0, 10.001183, 9.99849 
1.0450934e+3, 2.3501816e+2, -572890.6, -780669.3, 15065.444, 0.05990233, -0.124017484, -571803.94, 65014.59, 0.0, 10.001141, 9.998439 
1.0450982e+3, 2.4501745e+2, -462576.13, -598060.0, 3746.5283, 0.058296103, -0.0643945, -462472.6, 76352.64, 0.0, 10.000908, 9.999123 
1.0451029e+3, 2.5501722e+2, -426731.16, -531206.1, -37454.605, 0.04213248, -0.03658859, -414691.1, 26133.904, 0.0, 10.00049, 9.999105 
1.04510814e+3, 2.6501605e+2, -389943.56, -572883.9, -61.51978, 0.04920295, -0.008329541, -389943.56, -47107.465, 0.0000000009945924, 10.000527, 9.998148 
1.045114e+3, 2.750134e+2, -240379.1, -455637.75, -3993.8533, 0.08483774, -0.11781247, -240305.02, 4558.946, 0.0000020282196, 10.00089, 9.998105 
1.0451196e+3, 2.8501213e+2, -32465.781, -139176.13, -81.16593, 0.10334361, -0.12082575, -32465.719, 114408.59, 0.00002862313, 10.00095, 9.99956 
1.045125e+3, 2.9501212e+2, 20648.656, -67916.31, -42306.125, 0.10838777, -0.1204311, 37609.51, 86477.836, 0.00014660136, 10.000659, 9.999514 
1.04513064e+3, 3.0501002e+2, -26955.168, -270208.13, 20779.213, 0.078922085, -0.18222755, -25192.928, -25192.928, 0.00042212423, 10.000912, 9.997665 
1.0451376e+3, 3.1500867e+2, 119295.85, -77347.96, 12172.675, 0.13895793, -0.12060309, 120046.5, 120046.5, 0.00085377786, 10.001273, 9.99883 
1.0550409e+3, 1.250172e+2, -1832074.6, -1671381.0, -162206.05, -0.14261946, -0.14501329, -1570712.8, 144115.69, 0.00039971265, 9.998659, 10.000928 
1.0550479e+3, 1.3501908e+2, -1633407.1, -1561205.1, -22665.62, 0.101063445, -0.053187508, -1554679.6, 62129.695, 0.00016604259, 9.999575, 10.000574 
1.05505176e+3, 1.4502017e+2, -1506658.0, -1470792.9, -45271.465, 0.044252057, 0.021224761, -1440031.8, 78766.555, 0.000032768716, 9.999865, 10.000353 
1.05505496e+3, 1.5502048e+2, -1409483.8, -1377312.5, -8454.139, -0.07587798, -0.027922181, -1375226.1, 45568.777, 0.0000008393984, 9.999887, 10.000314 
1.0550588e+3, 1.6502023e+2, -1363503.3, -1435166.0, -20579.756, -0.11772698, -0.01816216, -1358013.8, -35216.23, 0.0, 10.0000925, 9.99915 
1.05506405e+3, 1.7501903e+2, -1198944.0, -1309578.1, -22915.592, -0.050713222, -0.08846971, -1194385.4, 30424.62, 0.0, 10.00057, 9.999109 
1.05506875e+3, 1.8501855e+2, -1099551.9, -1169466.6, -66115.38, 0.0030851196, -0.05726508, -1059721.1, 67093.914, 0.0, 10.000393, 9.999483 
1.05507284e+3, 1.950185e+2, -1089020.9, -1120749.1, -12653.087, 0.04039408, -0.046425983, -1084592.8, -55776.9, 0.0, 9.999813, 9.99943 
1.055078e+3, 2.0501818e+2, -1017836.56, -1092885.8, 63377.707, 0.057849575, 0.011784479, -981707.75, -50888.438, 0.0, 9.9998865, 9.998912 
1.0550839e+3, 2.1501717e+2, -817412.44, -952147.75, 63459.844, 0.053560965, -0.01314159, -792229.8, 40599.67, 0.0, 10.000617, 9.998855 
1.0550894e+3, 2.2501609e+2, -691612.8, -873156.0, 10630.95, 0.046321172, 0.016922917, -690992.44, 43847.223, 0.0, 10.000946, 9.998561 
1.05509445e+3, 2.3501457e+2, -597206.2, -781270.4, 29678.271, 0.037884045, -0.026245061, -592539.25, 44314.36, 0.0, 10.00093, 9.99853 
1.0550995e+3, 2.45013e+2, -537106.94, -708404.56, -29799.955, 0.06026227, -0.025949698, -532070.8, 6797.12, 0.0, 10.000719, 9.998454 
1.05510436e+3, 2.5501102e+2, -499043.56, -642300.0, -38342.53, 0.11634706, -0.10597946, -489426.78, -48540.707, 0.0, 10.000322, 9.998423 
1.055109e+3, 2.6500937e+2, -392760.06, -542177.25, -1441.1644, 0.06855531, -0.104653075, -392746.2, -49844.605, 0.000000000012280949, 10.000376, 9.998425 
1.0551134e+3, 2.7500772e+2, -242713.7, -423329.94, 32724.691, -0.09222433, -0.14849293, -236967.34, 7950.199, 0.0000016155456, 10.000733, 9.998396 
1.0551191e+3, 2.8500694e+2, -93775.875, -234715.81, -24855.674, -0.075091675, -0.08860924, -89520.875, 57403.9, 0.000025306648, 10.000817, 9.99897 
1.0551262e+3, 2.950065e+2, -42760.848, -168643.02, -25398.463, 0.1282582, -0.06819818, -37829.535, 11098.299, 0.00013793015, 10.000526, 9.998891 
1.0551323e+3, 3.050046e+2, 10885.489, -168008.06, 28861.71, 0.12704404, -0.11168187, 15426.605, 15426.605, 0.00040720604, 10.000808, 9.998416 
1.0551378e+3, 3.1500408e+2, 120532.766, -16963.336, 78956.9, -0.03274005, -0.047917318, 156477.06, 156477.06, 0.0008331317, 10.001026, 9.999365 
1.0650404e+3, 1.2501281e+2, -1645728.6, -1615428.4, -528.8447, -0.11077841, -0.14294396, -1615419.1, 99450.91, 0.00047318285, 10.000115, 10.000606 
1.0650476e+3, 1.3501413e+2, -1704968.8, -1620514.8, 19319.207, 0.14743112, -0.08004938, -1616305.3, 552.7192, 0.00020250746, 9.999223, 10.000328 
1.065051e+3, 1.4501509e+2, -1662136.3, -1561508.6, 11173.609, 0.047992654, 0.001112448, -1560282.8, -41434.05, 0.000042863663, 9.998851, 10.000234 
1.0650552e+3, 1.5501547e+2, -1488986.9, -1426902.1, -35044.418, -0.00021317505, -0.028349705, -1411128.4, 9716.369, 0.0000013547858, 9.999383, 10.000222 
1.06505945e+3, 1.6501531e+2, -1418773.0, -1433913.5, 2739.034, -0.03458879, -0.019423537, -1418292.8, -95446.5, 0.0, 9.999586, 9.999409 
1.0650643e+3, 1.7501423e+2, -1341107.4, -1348512.3, 22342.518, -0.022760347, -0.09844668, -1322162.6, -97306.19, 0.0, 9.999466, 9.999382 
1.06506884e+3, 1.8501396e+2, -1182615.5, -1182677.4, 16212.738, 0.019633196, -0.07279551, -1166433.6, -39575.08, 0.0, 9.999694, 9.999732 
1.0650732e+3, 1.9501418e+2, -998106.06, -1050274.5, -15173.749, 0.08160405, -0.058886975, -994013.6, 34842.375, 0.0, 10.00031, 9.999677 
1.0650786e+3, 2.0501384e+2, -941971.5, -1103022.6, 80412.414, 0.10361275, 0.005019699, -908696.7, 22163.777, 0.0, 10.000614, 9.998486 
1.06508486e+3, 2.150126e+2, -841520.0, -1008473.8, 44744.902, 0.09116745, 0.00029553383, -830284.2, 2590.936, 0.0, 10.000654, 9.998444 
1.0650906e+3, 2.2501144e+2, -700554.6, -863009.44, 19738.547, 0.08930616, 0.03670366, -698190.75, 36695.62, 0.0, 10.000815, 9.998696 
1.065096e+3, 2.3501006e+2, -569536.44, -749234.9, 13356.429, 0.10498892, -0.0071927933, -568549.06, 68348.55, 0.0, 10.001045, 9.99869 
1.0651012e+3, 2.4500838e+2, -463930.03, -707881.1, -5601.2095, 0.13107345, -0.010715313, -463801.5, 75111.664, 0.0, 10.001358, 9.998153 
1.0651059e+3, 2.55006e+2, -315726.4, -594672.3, -21418.225, 0.16404127, -0.09612915, -314091.44, 126845.64, 0.0, 10.001731, 9.998085 
1.0651103e+3, 2.6500428e+2, -188600.52, -412860.34, 57162.094, 0.08891575, -0.097052746, -174870.89, 168082.25, 0.0, 10.001648, 9.998691 
1.0651143e+3, 2.7500305e+2, -183950.06, -357434.66, 43555.207, -0.08738536, -0.12952831, -173629.06, 71334.3, 0.00000091217555, 10.0009985, 9.998708 
1.06512e+3, 2.8500217e+2, -146238.19, -322543.78, 25451.912, -0.058593035, -0.06608081, -142637.42, 4334.317, 0.000020761427, 10.000711, 9.9984255 
1.0651275e+3, 2.9500112e+2, -42579.3, -230031.19, -7961.0933, 0.1882514, -0.0526127, -42241.8, 6742.0137, 0.00012637535, 10.000767, 9.998359 
1.0651335e+3, 3.0499947e+2, 75874.17, -73364.51, 96719.4, 0.17919458, -0.07660096, 123413.29, 123413.29, 0.00038601994, 10.000981, 9.998976 
1.06513895e+3, 3.149997e+2, 158507.7, 63338.414, 70424.21, -0.01834144, 0.0017578157, 195916.39, 195916.39, 0.0008001297, 10.001028, 9.999899 
1.0750426e+3, 1.2501106e+2, -1718748.9, -1753428.5, -40224.824, 0.013788965, -0.020652203, -1692285.6, 22598.66, 0.00055371417, 10.000082, 9.999661 
1.0750459e+3, 1.3501029e+2, -1772356.5, -1749228.4, -6984.668, 0.026646478, -0.08167139, -1747282.8, -130388.01, 0.00024334127, 9.999189, 9.9994545 
1.07504785e+3, 1.4501004e+2, -1702035.1, -1650672.3, 4179.7583, -0.21250418, -0.048259296, -1650334.3, -131434.98, 0.00005483326, 9.998861, 9.999623 
1.0750544e+3, 1.5501004e+2, -1528287.5, -1513578.6, 1641.4144, -0.043464255, -0.056513388, -1513397.6, -92496.95, 0.000002073113, 9.999392, 9.999629 
1.07505985e+3, 1.6501027e+2, -1355519.1, -1286408.0, -22068.727, 0.013616747, -0.028240893, -1279962.3, 42934.766, 0.0000000000166348, 9.999528, 10.000444 
1.07506424e+3, 1.7501041e+2, -1276352.0, -1198224.3, 35221.895, -0.007773434, -0.09420326, -1184690.0, 40201.336, 0.0, 9.999403, 10.00044 
1.07506886e+3, 1.850105e+2, -1231402.5, -1255749.4, 21952.023, 0.011983122, -0.063408166, -1218474.5, -91585.266, 0.0, 9.999579, 9.999284 
1.07507385e+3, 1.9501008e+2, -1049635.4, -1121098.0, 22589.701, 0.070262566, -0.0694268, -1043093.5, -14198.349, 0.0, 10.000162, 9.999257 
1.0750792e+3, 2.05009e+2, -999995.06, -1186357.1, 60899.88, 0.07386549, -0.032094937, -981859.0, -50951.363, 0.0, 10.000449, 9.997999 
1.0750851e+3, 2.1500696e+2, -900933.06, -1088458.6, 61711.71, 0.021316243, -0.07227615, -882447.06, -49517.246, 0.0, 10.00046, 9.9979925 
1.0750912e+3, 2.2500564e+2, -717756.94, -840735.5, 13859.734, 0.040267088, -0.043221094, -716214.25, 18728.314, 0.0, 10.00057, 9.998967 
1.0750976e+3, 2.3500471e+2, -585788.7, -727535.7, 42928.207, 0.12802675, -0.06918023, -573801.56, 63148.043, 0.0, 10.000809, 9.998954 
1.0751029e+3, 2.4500364e+2, -503383.22, -731426.25, -5059.734, 0.1352691, -0.020683145, -503271.0, 35689.38, 0.0, 10.001117, 9.9981 
1.0751068e+3, 2.5500208e+2, -342692.66, -606418.7, 12277.682, 0.057339896, -0.024192976, -342122.3, 98856.266, 0.0, 10.001544, 9.998088 
1.0751112e+3, 2.6500076e+2, -205837.83, -402278.8, 16650.02, -0.0048811506, 0.0026954783, -204436.6, 138554.7, 0.000000000031670343, 10.001456, 9.998858 
1.07511595e+3, 2.7499923e+2, -196612.0, -350962.7, 42306.9, -0.053591054, -0.07142325, -185776.5, 59226.023, 0.00000057346807, 10.000858, 9.998826 
1.07512146e+3, 2.849978e+2, -189737.48, -391498.1, 9996.456, -0.0071442774, -0.04547303, -189243.4, -42227.43, 0.000016841232, 10.000621, 9.997992 
1.075128e+3, 2.949961e+2, -91068.664, -297892.38, 19417.078, 0.13218895, -0.057596333, -89261.53, -40226.8, 0.000114238224, 10.000626, 9.997961 
1.07513405e+3, 3.049946e+2, 81224.53, -37818.586, 94260.81, 0.094074845, -0.06378762, 133183.53, 133183.53, 0.0003625103, 10.000879, 9.999268 
1.0751395e+3, 3.149952e+2, 141500.11, 72221.875, 133568.6, -0.12964654, 0.020670429, 244848.08, 244848.08, 0.00076317973, 10.0008335, 10.00006 
1.0850426e+3, 1.2500744e+2, -1940538.6, -1886164.4, -11877.592, 0.09081257, 0.00008847105, -1883683.0, -168762.52, 0.00064071716, 9.998621, 9.999479 
1.0850452e+3, 1.3500676e+2, -1753826.4, -1755552.0, -36130.656, 0.039938133, -0.038009945, -1718548.3, -101618.36, 0.00028839763, 9.999352, 9.999347 
1.08504675e+3, 1.4500614e+2, -1621702.9, -1620498.0, 83536.414, -0.22548606, -0.030820273, -1537561.9, -18624.17, 0.00006873226, 9.999497, 9.999496 
1.08505435e+3, 1.5500559e+2, -1516134.9, -1521026.3, 68729.9, 0.0055473386, -0.0799404, -1449807.1, -28863.455, 0.0000030594845, 9.999561, 9.99948 
1.0850601e+3, 1.6500574e+2, -1333881.1, -1270416.9, 48708.3, 0.083321884, -0.05864016, -1244016.1, 78924.39, 0.000000000186287, 9.999641, 10.000502 
1.085064e+3, 1.7500624e+2, -1218241.6, -1167238.8, -5525.1445, 0.024943367, -0.09395215, -1166647.1, 58284.434, 0.0, 9.999776, 10.000474 
1.08506896e+3, 1.8500629e+2, -1167255.4, -1279730.3, 5377.6924, 0.044105906, -0.043234624, -1166998.9, -40067.977, 0.0, 10.000254, 9.998803 
1.0850749e+3, 1.9500555e+2, -956085.5, -1128364.1, -31446.867, 0.13530053, -0.029850768, -950524.8, 78417.17, 0.0, 10.001047, 9.998782 
1.0850806e+3, 2.050043e+2, -839215.7, -1079373.5, 40286.996, 0.1296114, -0.00024645252, -832637.6, 98318.35, 0.0, 10.001436, 9.998249 
1.08508594e+3, 2.1500209e+2, -745180.1, -987928.94, 54784.02, 0.022930555, -0.07944252, -733389.06, 99587.77, 0.0, 10.00143, 9.998212 
1.0850919e+3, 2.2500075e+2, -644362.44, -817782.8, 42563.297, 0.034785967, -0.058568455, -634479.2, 100510.61, 0.0, 10.00113, 9.998859 
1.0850986e+3, 2.3499992e+2, -637444.2, -766479.3, 1787.2765, 0.16498101, -0.05952239, -637419.44, -421.22894, 0.0, 10.000513, 9.9988365 
1.0851039e+3, 2.4499916e+2, -588433.0, -714711.1, 11103.873, 0.17613102, -0.0016053126, -587464.06, -48457.793, 0.0, 10.000268, 9.998643 
1.0851077e+3, 2.5499812e+2, -494225.75, -617576.7, 39403.14, 0.07157977, -0.005032183, -482713.3, -41695.832, 0.0, 10.000241, 9.998649 
1.0851124e+3, 2.64997e+2, -328023.44, -496535.1, 83426.47, 0.017495012, 0.03406382, -293708.53, 49319.434, 0.000000020287489, 10.000763, 9.998539 
1.0851179e+3, 2.7499542e+2, -74485.28, -329882.16, 33681.44, 0.015943805, -0.01683377, -70118.086, 174924.03, 0.0000009682407, 10.001846, 9.998493 
1.0851234e+3, 2.8499374e+2, 23499.482, -296900.22, 13796.314, 0.05210893, 0.0048073316, 24092.45, 171150.58, 0.000016002106, 10.002134, 9.997905 
1.08512916e+3, 2.9499173e+2, 27877.785, -240814.61, 1032.8394, 0.14683181, -0.033062357, 27881.756, 76960.04, 0.00010691048, 10.001465, 9.997939 
1.08513504e+3, 3.049898e+2, 65755.72, -82844.47, 109945.89, 0.11283819, -0.05886189, 124153.04, 124153.04, 0.00034615427, 10.000942, 9.998949 
1.08514085e+3, 3.1499007e+2, 31215.38, -22314.879, 40990.97, -0.043343958, 0.03387557, 53405.656, 53405.656, 0.00073994894, 10.000279, 9.999685 
1.09504014e+3, 1.2500195e+2, -1891103.0, -1771131.3, 37890.12, -0.085729465, -0.08760055, -1760166.6, -45187.926, 0.000734217, 9.998568, 10.000297 
1.0950449e+3, 1.350038e+2, -1695833.5, -1644945.9, 1282.6349, 0.03913235, 0.04885246, -1644913.5, -27952.563, 0.00033773432, 9.999379, 10.000099 
1.0950474e+3, 1.4500348e+2, -1611923.0, -1592937.0, 62266.34, -0.15749227, 0.041031346, -1539444.1, -20481.076, 0.0000845864, 9.999473, 9.999695 
1.0950542e+3, 1.5500209e+2, -1512604.8, -1496449.3, 88372.97, -0.00044762864, -0.11051581, -1415785.6, 5188.664, 0.0000043925156, 9.999498, 9.999676 
1.09505944e+3, 1.6500168e+2, -1400402.3, -1404331.4, 32630.824, 0.026788037, -0.108956836, -1369676.9, -46699.734, 0.0000000006358386, 9.999615, 9.999599 
1.0950634e+3, 1.7500171e+2, -1282783.5, -1300418.9, 16571.93, -0.058067624, -0.10188567, -1272829.4, -47852.52, 0.0, 9.99976, 9.999572 
1.0950688e+3, 1.8500149e+2, -1216187.3, -1362400.5, 14910.647, -0.023016596, -0.004987013, -1214682.3, -87700.3, 0.0, 10.000177, 9.998269 
1.0950764e+3, 1.9500077e+2, -1013678.75, -1212061.6, 16212.0, 0.14053498, 0.05801912, -1012362.6, 16632.646, 0.0, 10.000896, 9.998277 
1.0950824e+3, 2.0499969e+2, -803450.7, -966970.0, 22211.28, 0.13489516, 0.088400364, -800487.4, 130518.43, 0.0, 10.001264, 9.999108 
1.0950869e+3, 2.1499792e+2, -712285.4, -875364.94, 71016.195, -0.042203743, -0.033446725, -685695.44, 147321.64, 0.0, 10.001231, 9.9990835 
1.0950923e+3, 2.2499664e+2, -725302.25, -927800.2, 36.1932, -0.06302922, -0.017346255, -725302.25, 9726.725, 0.0, 10.000885, 9.9982195 
1.0950985e+3, 2.3499545e+2, -715661.56, -874302.25, -4820.3984, 0.07281273, 0.004880768, -715515.25, -78469.64, 0.0, 10.000278, 9.998208 
1.0951038e+3, 2.449947e+2, -539557.5, -558474.06, -6820.08, 0.11318411, 0.037727773, -537355.06, 1697.7189, 0.0, 10.00004, 9.999821 
1.0951082e+3, 2.549941e+2, -441606.7, -460532.97, 57490.543, 0.06328696, -0.042795163, -392805.66, 48248.04, 0.0, 10.000041, 9.99982 
1.0951135e+3, 2.6499325e+2, -415591.88, -632151.94, 110755.46, 0.019522024, 0.0051713265, -368980.53, -25918.951, 0.00000010014453, 10.000568, 9.9977 
1.0951197e+3, 2.7499166e+2, -154654.42, -461531.25, 99633.03, -0.025193205, 0.03877397, -125144.516, 119936.9, 0.0000018117424, 10.001694, 9.997665 
1.09512515e+3, 2.849898e+2, 13591.663, -283316.4, -27558.8, -0.02220861, 0.075655505, 16127.985, 163227.9, 0.000017402066, 10.001991, 9.998064 
1.09513015e+3, 2.949875e+2, 17812.002, -230723.58, -2345.8503, 0.053318065, -0.01420391, 17834.143, 66952.99, 0.00010435712, 10.0013275, 9.998075 
1.0951359e+3, 3.049849e+2, -22280.986, -232051.94, 69739.08, 0.073587686, -0.065713964, -1212.0999, -1212.0999, 0.00033796718, 10.000812, 9.997979 
1.0951417e+3, 3.1498408e+2, -74234.1, -195927.72, 70007.15, -0.05680972, 0.01691751, -42326.746, -42326.746, 0.00073108607, 10.000081, 9.998592 
1.1050386e+3, 1.2499715e+2, -1926865.6, -1753948.5, 160515.67, -0.07138642, -0.07672257, -1658087.8, 56938.535, 0.00083503575, 9.998204, 10.000549 
1.1050448e+3, 1.3499893e+2, -1623283.9, -1582737.0, -37612.977, 0.09018104, 0.025065323, -1560281.6, 56727.434, 0.0003918232, 9.999777, 10.000313 
1.1050488e+3, 1.449988e+2, -1498610.6, -1541008.4, -10172.001, 0.012300904, 0.022361495, -1496296.5, 22712.67, 0.000102570426, 10.000217, 9.999717 
1.1050538e+3, 1.5499802e+2, -1469007.6, -1476086.3, -29869.617, 0.006819956, -0.070837095, -1442468.4, -21453.842, 0.0000061708192, 9.999763, 9.999707 
1.1050586e+3, 1.6499758e+2, -1447015.0, -1472780.3, -17539.502, -0.00452225, -0.052647065, -1438135.4, -115117.05, 0.0000000015512864, 9.999509, 9.9991665 
1.1050636e+3, 1.7499705e+2, -1324089.9, -1361731.5, -38485.414, 0.0017575416, -0.061161578, -1300069.8, -75044.805, 0.0, 9.999681, 9.99917 
1.1050696e+3, 1.8499649e+2, -1231126.4, -1352496.8, 53061.797, 0.049705632, 0.012618397, -1211199.9, -84166.734, 0.0, 10.000008, 9.998415 
1.1050769e+3, 1.9499551e+2, -1064172.1, -1219083.8, 66952.93, 0.13566354, 0.0371421, -1039245.8, -10198.812, 0.0, 10.000475, 9.99843 
1.1050832e+3, 2.049945e+2, -896769.56, -1011998.7, 78944.836, 0.14175591, 0.06742662, -856651.2, 74405.13, 0.0, 10.000615, 9.999118 
1.10508874e+3, 2.1499315e+2, -817516.56, -925551.9, 28060.443, 0.06352173, -0.013036073, -810663.06, 22401.371, 0.0, 10.000494, 9.999099 
1.105094e+3, 2.2499193e+2, -792111.75, -949216.6, -22582.348, 0.049594596, 0.001018753, -788930.2, -53854.07, 0.0, 10.000381, 9.998307 
1.1050989e+3, 2.3499043e+2, -709132.0, -859557.4, -7466.7134, 0.10253438, -0.014062672, -708762.25, -71667.24, 0.0, 10.000281, 9.9983 
1.1051039e+3, 2.4498974e+2, -463504.63, -506066.5, 36298.73, 0.10946177, 0.010028872, -442708.53, 96392.64, 0.0, 10.000508, 9.999941 
1.1051088e+3, 2.5498945e+2, -280687.84, -368786.3, -22108.924, 0.0777517, -0.04899039, -275450.78, 165647.0, 0.0, 10.001088, 9.999932 
1.10511474e+3, 2.649886e+2, -294775.75, -573324.8, 65118.45, 0.058864184, -0.008886459, -280304.34, 62800.836, 0.00000018749917, 10.001386, 9.997722 
1.1051218e+3, 2.7498674e+2, -214263.78, -484438.03, 78526.73, 0.056051213, -0.0015330974, -193097.97, 52029.492, 0.0000025365616, 10.001268, 9.997715 
1.1051274e+3, 2.8498483e+2, -86776.51, -341203.16, -10283.518, 0.05034991, 0.030500272, -86361.54, 60785.043, 0.000019295574, 10.00133, 9.998002 
1.1051316e+3, 2.9498264e+2, 32199.676, -234660.75, -43098.16, 0.07386393, -0.03470711, 38987.414, 88151.84, 0.00010487227, 10.001467, 9.997993 
1.1051373e+3, 3.0497983e+2, 112589.55, -209555.84, 88423.414, 0.100297704, -0.084323555, 135264.27, 135264.27, 0.00033641586, 10.00187, 9.997628 
1.10514395e+3, 3.1497857e+2, 183360.56, -97623.56, 74944.93, 0.077576905, -0.024665197, 202100.28, 202100.28, 0.0007307893, 10.001956, 9.998345 
1.1150365e+3, 1.2499351e+2, -1953881.5, -1809700.1, 182201.94, -0.1827966, 0.035429962, -1685845.4, 29213.105, 0.000944546, 9.998211, 10.000167 
1.1150446e+3, 1.3499224e+2, -1663827.1, -1665606.6, 36685.563, 0.051837888, -0.10696549, -1628020.5, -10947.239, 0.00045159098, 9.9997635, 9.999758 
1.1150507e+3, 1.4499213e+2, -1498504.6, -1533539.3, -52919.81, 0.118672125, -0.08601239, -1460278.3, 58797.777, 0.00012308804, 10.0001955, 9.999776 
1.1150527e+3, 1.5499358e+2, -1471206.5, -1475777.9, -32275.332, -0.115315355, 0.041472457, -1441136.0, -20073.902, 0.000008505592, 9.999747, 9.999716 
1.115057e+3, 1.6499364e+2, -1452293.8, -1477293.9, -33199.44, -0.15594438, 0.11341034, -1429319.1, -106257.41, 0.0000000033697685, 9.999473, 9.999161 
1.1150642e+3, 1.749923e+2, -1327296.1, -1361991.6, -15237.972, 0.061427407, 0.025075166, -1321554.0, -96478.97, 0.0, 9.999641, 9.9992 
1.1150706e+3, 1.8499121e+2, -1185465.9, -1241094.8, 52247.1, 0.11269486, 0.00404481, -1154090.8, -27005.637, 0.0, 9.999933, 9.999216 
1.115076e+3, 1.9498993e+2, -1031597.8, -1117670.8, 99227.23, -0.021235408, -0.08020067, -966476.1, 62620.254, 0.0, 10.000334, 9.999192 
1.1150829e+3, 2.0498894e+2, -977959.9, -1143365.5, 51424.52, 0.007534936, -0.044932835, -963275.7, -32169.52, 0.0, 10.000455, 9.998289 
1.11509085e+3, 2.1498781e+2, -910247.0, -1064440.6, 41104.586, 0.19739088, -0.025486274, -899973.9, -66855.23, 0.0, 10.000265, 9.998254 
1.1150964e+3, 2.2498661e+2, -765331.94, -843597.56, -42492.867, 0.23013812, -0.0050045033, -746697.8, -11567.201, 0.0, 10.000171, 9.999134 
1.11509964e+3, 2.3498508e+2, -683188.4, -753684.3, 6287.1426, 0.118820764, -0.10810024, -682632.06, -45487.152, 0.0, 10.000061, 9.999133 
1.1151039e+3, 2.4498434e+2, -562893.6, -666357.06, 42934.47, 0.028595889, -0.07728431, -547397.8, -8247.434, 0.0, 10.000306, 9.998938 
1.115109e+3, 2.5498405e+2, -378613.63, -531779.1, 19744.428, -0.03529238, -0.038142156, -376109.34, 65041.43, 0.0, 10.000909, 9.9989 
1.1151157e+3, 2.6498294e+2, -261548.36, -464734.16, 43478.473, -0.013552113, -0.01337071, -252635.63, 90524.29, 0.00000020790911, 10.001216, 9.998547 
1.1151239e+3, 2.749806e+2, -175243.44, -369837.4, 96141.71, 0.09779877, -0.14417963, -135756.17, 109425.44, 0.0000030041283, 10.001116, 9.998576 
1.11512974e+3, 2.849789e+2, -135246.53, -395201.5, -21561.572, 0.12087134, -0.11995024, -133470.28, 13727.485, 0.000021785861, 10.001144, 9.997714 
1.1151332e+3, 2.9497734e+2, -12291.334, -289768.1, -7504.8164, 0.039093345, -0.089447714, -12088.502, 37124.766, 0.00010887074, 10.001312, 9.997687 
1.1151389e+3, 3.0497476e+2, 108565.82, -186369.08, 83761.47, 0.046384457, -0.11374204, 130693.87, 130693.87, 0.00034133886, 10.001742, 9.997846 
1.11514635e+3, 3.1497315e+2, 166053.78, -83341.77, 145769.92, 0.046293013, -0.10881476, 233185.11, 233185.11, 0.0007375019, 10.001737, 9.998553 
1.12503685e+3, 1.2498769e+2, -1739454.4, -1725069.4, 92819.04, -0.028332947, 0.0626801, -1639164.6, 75950.61, 0.0010643419, 9.999757, 10.000019 
1.1250433e+3, 1.349861e+2, -1864141.6, -1780205.4, -50632.26, 0.021953404, -0.09485544, -1756409.1, -139274.06, 0.00051804923, 9.998471, 9.999599 
1.1250508e+3, 1.4498617e+2, -1741043.0, -1616811.0, -47936.777, 0.21738222, -0.06223959, -1600464.8, -81328.43, 0.00014661087, 9.998387, 10.000071 
1.1250527e+3, 1.5498772e+2, -1441323.4, -1423678.4, -51792.133, -0.087823845, 0.041908126, -1379962.6, 41157.676, 0.00001150662, 9.999802, 10.000034 
1.1250571e+3, 1.6498794e+2, -1302844.5, -1383321.8, -7886.042, -0.1377469, 0.10159106, -1302079.0, 21038.469, 0.0000000061074554, 10.000403, 9.999358 
1.1250646e+3, 1.7498663e+2, -1218060.4, -1284642.0, -12663.954, 0.11253458, -0.0011215043, -1215733.0, 9396.25, 0.0, 10.00029, 9.999416 
1.1250712e+3, 1.8498573e+2, -1130272.8, -1205145.6, 78641.4, 0.17189574, -0.020009072, -1080611.8, 46525.266, 0.0, 10.000269, 9.999306 
1.1250768e+3, 1.9498467e+2, -1014999.56, -1107578.0, 40641.563, 0.018669443, -0.08932995, -999689.9, 29456.361, 0.0, 10.000402, 9.999248 
1.12508334e+3, 2.0498388e+2, -971113.2, -1112966.8, 29157.291, 0.025986342, -0.049336843, -965353.9, -34199.19, 0.0, 10.000408, 9.99851 
1.1250912e+3, 2.1498291e+2, -867137.3, -1012528.75, 54776.93, 0.19813575, -0.03413057, -848810.06, -15643.719, 0.0, 10.000449, 9.99851 
1.12509705e+3, 2.2498195e+2, -679295.2, -804420.6, 26416.258, 0.25241926, -0.0040730974, -673946.9, 61229.1, 0.0, 10.000751, 9.999137 
1.1251011e+3, 2.3498078e+2, -481984.47, -654768.56, -20220.184, 0.19710524, -0.07030887, -479649.72, 157536.05, 0.0, 10.001416, 9.999165 
1.1251055e+3, 2.4497963e+2, -407839.44, -656567.75, 33453.477, 0.10468678, -0.05531979, -403418.6, 135777.13, 0.0, 10.001658, 9.998358 
1.1251104e+3, 2.5497815e+2, -338476.78, -576354.25, 8255.531, -0.020624183, -0.070879504, -338190.63, 103018.33, 0.0, 10.001477, 9.998325 
1.12511694e+3, 2.649767e+2, -232896.9, -412394.5, 50872.918, -0.0046466966, -0.06422507, -219481.27, 123739.445, 0.00000016860811, 10.00126, 9.998879 
1.1251255e+3, 2.7497488e+2, -169288.88, -329733.38, 22858.984, 0.15807426, -0.17486984, -166095.64, 79139.38, 0.0000038179373, 10.00101, 9.998894 
1.1251317e+3, 2.8497338e+2, -93265.35, -400710.44, -42010.13, 0.19951376, -0.13657044, -87628.33, 59620.984, 0.000026510976, 10.001526, 9.99749 
1.1251357e+3, 2.949718e+2, 164268.88, -222964.66, -66400.93, 0.117968075, -0.09297898, 175338.55, 224606.11, 0.00011807009, 10.002609, 9.99751 
1.12514146e+3, 3.0496925e+2, 272439.72, -90075.664, 28713.707, 0.08749332, -0.114323005, 274699.94, 274699.94, 0.0003550206, 10.00282, 9.997991 
1.1251481e+3, 3.1496787e+2, 181321.69, -65181.746, 20992.861, 0.057550084, -0.08992861, 183096.7, 183096.7, 0.0007557848, 10.001788, 9.998671 
1.13503665e+3, 1.2497944e+2, -1739823.4, -1718235.9, -91317.055, -0.104943, -0.02539413, -1637076.9, 78122.05, 0.0011953667, 9.999743, 10.000063 
1.13504015e+3, 1.349805e+2, -1844812.1, -1732392.1, -86818.22, -0.16884337, 0.05083906, -1685176.0, -67981.79, 0.00059164723, 9.99845, 9.999932 
1.1350488e+3, 1.4498118e+2, -1697857.3, -1526266.5, -14443.204, 0.13418168, 0.09596465, -1525059.3, -5871.504, 0.00017336896, 9.998384, 10.000695 
1.1350532e+3, 1.5498078e+2, -1400624.3, -1334289.1, 22513.088, -0.054101452, -0.054015163, -1327370.3, 93815.836, 0.000015247707, 9.999779, 10.000662 
1.1350581e+3, 1.6498064e+2, -1282845.4, -1333788.6, -33129.934, -0.11166143, -0.080791466, -1266527.1, 56656.754, 0.000000009421829, 10.000367, 9.999715 
1.1350642e+3, 1.7498025e+2, -1198553.1, -1239690.0, -3483.7036, 0.0114509305, -0.12732098, -1198260.3, 26925.64, 0.0, 10.00027, 9.999733 
1.1350709e+3, 1.8498012e+2, -1178040.0, -1289476.8, 62427.35, 0.088876076, -0.057835124, -1150082.1, -22893.541, 0.0, 10.0002, 9.998764 
1.1350784e+3, 1.9497986e+2, -1078020.3, -1195907.8, 63045.973, 0.10987896, 0.005438632, -1050655.5, -21459.926, 0.0, 10.000218, 9.998733 
1.1350845e+3, 2.0497943e+2, -918351.4, -962768.1, 10866.315, 0.057330344, 0.053676475, -915835.5, 15365.14, 0.0, 10.000231, 9.99963 
1.1350893e+3, 2.149785e+2, -822744.75, -866408.6, 69327.125, -0.053294964, -0.03708359, -771893.25, 61314.023, 0.0, 10.000219, 9.999627 
1.1350954e+3, 2.2497799e+2, -762026.5, -929041.6, 30298.037, -0.008878558, 0.017886564, -756700.06, -21488.053, 0.0, 10.000542, 9.998382 
1.13510266e+3, 2.3497747e+2, -573524.9, -788381.9, 21702.096, 0.19257356, 0.0903885, -571354.75, 65863.83, 0.0, 10.001168, 9.998368 
1.13510825e+3, 2.449755e+2, -454276.66, -700562.3, 9861.676, 0.1827678, 0.07606882, -453882.4, 85355.2, 0.0, 10.001433, 9.998161 
1.13511205e+3, 2.549718e+2, -376318.47, -613521.06, 20130.11, -0.02071709, -0.14739028, -374622.28, 66649.766, 0.0, 10.001294, 9.998159 
1.135118e+3, 2.6497003e+2, -267714.9, -450902.9, 27462.895, -0.050469305, -0.15929624, -263686.38, 79600.61, 0.00000020663475, 10.001112, 9.99869 
1.1351262e+3, 2.749696e+2, -205848.48, -377363.6, 38404.527, 0.089730345, -0.10438589, -197641.88, 47646.016, 0.0000055002247, 10.000881, 9.998634 
1.13513306e+3, 2.849682e+2, -127728.12, -433681.13, -19332.045, 0.13941666, -0.03479733, -126511.44, 20790.691, 0.000033703815, 10.001373, 9.997331 
1.13513894e+3, 2.9496565e+2, 127044.39, -257059.05, -2302.9907, 0.1257466, -0.07081123, 127058.195, 176388.97, 0.00013271971, 10.00242, 9.997368 
1.1351443e+3, 3.04963e+2, 246692.05, -92782.46, -21153.057, 0.061008573, -0.1009044, 248005.05, 248005.05, 0.00037893685, 10.002611, 9.998071 
1.13514796e+3, 3.1496257e+2, 156414.7, -59651.094, 34646.09, -0.21234348, 0.008935952, 161834.25, 161834.25, 0.00079122034, 10.001545, 9.998825 
1.1450364e+3, 1.2497288e+2, -1955427.4, -1816546.4, -62379.69, -0.013723217, -0.030996442, -1792642.3, -77377.67, 0.0013373722, 9.998203, 10.000152 
1.14503965e+3, 1.3497452e+2, -1561448.1, -1564985.3, -23547.402, -0.14130875, 0.07113465, -1539603.0, 77649.03, 0.000672049, 10.000221, 10.000249 
1.14504844e+3, 1.4497523e+2, -1405337.6, -1383875.0, 52616.82, 0.17168196, 0.10424734, -1340906.4, 178337.61, 0.0002032588, 10.000402, 10.000692 
1.1450532e+3, 1.5497431e+2, -1522304.6, -1394972.6, -8668.587, 0.01724202, -0.09609929, -1394385.3, 26862.537, 0.000019742625, 9.998965, 10.000635 
1.14505835e+3, 1.6497406e+2, -1492399.9, -1427021.6, -31775.807, -0.04390956, -0.13138008, -1414122.6, -90875.97, 0.000000013934886, 9.998904, 9.99978 
1.1450646e+3, 1.7497416e+2, -1180686.9, -1219579.4, -52972.707, 0.025114205, -0.13993956, -1143703.9, 81540.61, 0.0, 10.000357, 9.999825 
1.1450717e+3, 1.8497413e+2, -1097791.8, -1246109.4, 23360.441, 0.1129684, -0.06257942, -1094199.4, 33046.813, 0.0, 10.000741, 9.99879 
1.1450792e+3, 1.9497374e+2, -1101014.4, -1191477.6, 24087.006, 0.19728297, -0.020165391, -1095000.8, -65745.77, 0.0, 10.000032, 9.998826 
1.1450853e+3, 2.0497347e+2, -904196.25, -936866.3, 30557.22, 0.12971212, 0.02870969, -885881.94, 45376.48, 0.0, 10.000212, 9.999833 
1.1450897e+3, 2.1497299e+2, -647043.1, -757839.3, -5514.068, -0.075367115, -0.04215825, -646769.4, 186490.95, 0.0, 10.001289, 9.99987 
1.145096e+3, 2.2497249e+2, -621520.0, -860833.6, -32236.104, -0.05622568, 0.004618539, -617253.75, 118010.62, 0.0, 10.001536, 9.998358 
1.14510365e+3, 2.3497157e+2, -596129.25, -794702.5, -27399.516, 0.18272844, 0.040640183, -592418.0, 44856.49, 0.0, 10.001018, 9.998386 
1.14510976e+3, 2.4496977e+2, -516771.47, -724316.6, 36295.18, 0.22045088, 0.036371082, -510607.3, 28684.926, 0.0, 10.000959, 9.998233 
1.14511415e+3, 2.5496683e+2, -351672.75, -585610.3, 31943.63, 0.067799985, -0.120206766, -347389.34, 93930.49, 0.0, 10.0014, 9.998293 
1.1451203e+3, 2.6496506e+2, -189361.5, -458441.25, 75159.85, 0.029343337, -0.120298766, -169791.08, 173544.44, 0.00000038376965, 10.001827, 9.9983 
1.1451278e+3, 2.7496392e+2, -37775.402, -334976.06, 37711.734, 0.10830876, -0.10066343, -33064.832, 212279.22, 0.0000075917305, 10.002197, 9.998292 
1.1451344e+3, 2.8496236e+2, 946.915, -353484.94, 40950.87, 0.11597925, -0.040510435, 5616.827, 152976.89, 0.000041535674, 10.002175, 9.997502 
1.1451405e+3, 2.9496017e+2, 22956.43, -284834.8, 41080.47, 0.09638109, -0.052997094, 28345.043, 77729.24, 0.00014998692, 10.0016165, 9.997563 
1.1451465e+3, 3.0495754e+2, 114268.484, -142426.83, 55102.52, 0.080767825, -0.09691114, 125596.914, 125596.914, 0.00040888134, 10.001606, 9.998218 
1.1451509e+3, 3.14957e+2, 191042.11, -11453.682, 45209.117, -0.06530737, -0.01894215, 200677.05, 200677.05, 0.0008408799, 10.001661, 9.999083 
1.1550328e+3, 1.24967285e+2, -1934477.1, -1762702.4, -115369.52, -0.25292304, -0.032747682, -1704760.8, 10558.64, 0.001489488, 9.998166, 10.000532 
1.15504116e+3, 1.3496841e+2, -1535068.1, -1500962.4, 68138.43, -0.050544597, -0.024829173, -1447775.4, 169530.56, 0.00075867696, 10.000195, 10.000689 
1.1550492e+3, 1.4496842e+2, -1463212.3, -1509487.0, -22472.404, 0.1566128, -0.04366884, -1454095.1, 65209.297, 0.0002361324, 10.000405, 9.999842 
1.1550521e+3, 1.5496817e+2, -1571733.9, -1508044.4, -47281.676, -0.028337577, -0.09464767, -1482883.5, -61576.99, 0.000024990082, 9.998994, 9.999854 
1.1550571e+3, 1.6496822e+2, -1499379.3, -1437222.9, 2753.0708, -0.09437003, -0.05950737, -1437101.3, -113795.53, 0.000000023716384, 9.998895, 9.999709 
1.15506515e+3, 1.7496839e+2, -1199068.3, -1237677.6, 19574.873, 0.015967028, -0.050221935, -1190880.3, 34423.777, 0.0, 10.00028, 9.99973 
1.1550725e+3, 1.8496794e+2, -1080063.6, -1187824.5, -22150.89, 0.0976165, -0.03415878, -1075688.1, 51620.445, 0.0, 10.0006485, 9.999233 
1.155079e+3, 1.949664e+2, -1087572.1, -1134759.8, 10310.63, 0.1312161, -0.15350986, -1085417.6, -56093.75, 0.0, 9.999906, 9.999276 
1.1550854e+3, 2.0496605e+2, -958976.3, -1014128.94, 46833.516, 0.090435944, -0.11504483, -932203.5, -875.7163, 0.0, 10.000051, 9.99938 
1.1550919e+3, 2.1496649e+2, -716410.75, -846245.75, 51296.38, -0.013077083, -0.045645025, -698590.1, 134733.9, 0.0, 10.00104, 9.999386 
1.1550979e+3, 2.2496562e+2, -614934.8, -790840.6, -69225.66, -0.029484002, -0.040459316, -590959.56, 144371.94, 0.0, 10.001295, 9.998954 
1.1551035e+3, 2.3496313e+2, -586713.1, -725999.3, -29948.084, 0.039589364, -0.22196396, -580546.94, 56806.473, 0.0, 10.000809, 9.9989605 
1.1551096e+3, 2.4496241e+2, -516574.63, -677390.25, 30845.271, 0.088401824, -0.16691738, -510861.3, 28498.49, 0.0, 10.000756, 9.9986515 
1.1551162e+3, 2.5496316e+2, -353303.03, -546218.56, 64001.445, 0.10737549, 0.0015053839, -334001.2, 107352.49, 0.0, 10.001205, 9.998661 
1.1551229e+3, 2.6496166e+2, -256450.73, -549065.06, 73454.695, 0.095939815, 0.040077604, -239046.64, 104321.29, 0.0000005356376, 10.001626, 9.997767 
1.15512975e+3, 2.749576e+2, -97279.32, -415670.94, 73096.2, 0.052392647, -0.18422104, -81299.9, 164106.08, 0.000008957139, 10.002013, 9.997823 
1.1551355e+3, 2.8495574e+2, 16923.924, -279009.2, 4641.6177, -0.023108866, -0.15920095, 16996.707, 164420.34, 0.000047577858, 10.002001, 9.9980955 
1.15514025e+3, 2.949555e+2, 43053.34, -222892.11, 48864.977, -0.14128032, -0.038469173, 51747.59, 101174.19, 0.00016516355, 10.001513, 9.998046 
1.1551473e+3, 3.049529e+2, 85997.21, -149375.53, 45506.684, -0.015959296, -0.101928376, 94489.05, 94489.05, 0.00043860512, 10.001408, 9.998251 
1.1551554e+3, 3.149507e+2, 161370.72, -12478.939, 103306.27, 0.1492024, -0.19504967, 209457.4, 209457.4, 0.0008954558, 10.001403, 9.999195 
1.16503164e+3, 1.24961704e+2, -1835792.6, -1672127.0, -75213.24, -0.21013686, -0.0071072364, -1642812.9, 72561.54, 0.0016512593, 9.99866, 10.000906 
1.1650416e+3, 1.3496214e+2, -1758061.8, -1592220.0, 41304.9, 0.073020466, -0.078343004, -1582501.9, 34861.938, 0.0008513687, 9.998613, 10.000819 
1.16504855e+3, 1.4496171e+2, -1700858.1, -1651895.4, -40459.242, 0.13223451, -0.13254997, -1629087.4, -109721.234, 0.00027198074, 9.998915, 9.999569 
1.165052e+3, 1.5496212e+2, -1472887.9, -1492810.6, -67163.15, 0.026452346, -0.09120557, -1414951.5, 6413.0684, 0.00003101119, 9.99982, 9.999553 
1.16505735e+3, 1.6496241e+2, -1329532.8, -1357783.0, 63939.28, -0.008657759, -0.01763748, -1278176.9, 45186.324, 0.00000004774233, 10.000054, 9.999704 
1.1650657e+3, 1.7496236e+2, -1291346.6, -1288759.9, 48784.06, 0.07490338, -0.027217947, -1241252.1, -15887.658, 0.0, 9.999644, 9.999705 
1.16507284e+3, 1.8496184e+2, -1178698.9, -1204209.0, 28658.422, 0.12177011, -0.03213634, -1160085.3, -32716.182, 0.0, 9.999833, 9.999513 
1.16507895e+3, 1.9496046e+2, -940280.3, -1032622.4, 16332.09, 0.10162782, -0.16220449, -937476.9, 91903.89, 0.0, 10.000778, 9.999561 
1.16508566e+3, 2.0496012e+2, -867125.6, -995389.5, 87207.76, 0.08211467, -0.12140818, -823007.4, 108377.07, 0.0, 10.000821, 9.999124 
1.1650931e+3, 2.1496052e+2, -892367.44, -952359.0, 60904.457, 0.07088279, -0.03501573, -854472.9, -21089.252, 0.0, 9.99996, 9.999163 
1.1650996e+3, 2.2495967e+2, -756228.7, -835165.2, -12303.159, 0.06699973, -0.029112512, -754355.56, -18964.203, 0.0, 10.000198, 9.999189 
1.16510496e+3, 2.3495719e+2, -461840.28, -639573.94, -27425.072, 0.07537085, -0.23411787, -457704.72, 179707.03, 0.0, 10.001534, 9.999216 
1.165111e+3, 2.4495648e+2, -352385.9, -616355.1, 19171.342, 0.09158571, -0.18126918, -351000.8, 188416.69, 0.0, 10.001959, 9.998489 
1.16511755e+3, 2.549573e+2, -322573.16, -548762.9, -27179.48, 0.10998553, 0.010331887, -319353.06, 122058.57, 0.0, 10.001484, 9.998508 
1.1651245e+3, 2.6495582e+2, -300365.75, -560725.06, 25671.459, 0.11368323, 0.051592764, -297858.7, 45567.63, 0.00000056359414, 10.00129, 9.9978485 
1.1651319e+3, 2.7495173e+2, -194977.05, -454915.63, 28370.838, 0.11381642, -0.1778743, -191916.56, 53547.8, 0.00000928475, 10.001324, 9.9978895 
1.1651376e+3, 2.8494996e+2, -56310.543, -293640.25, -15757.171, 0.023109213, -0.15667096, -55268.94, 92211.72, 0.000050789153, 10.001386, 9.998296 
1.1651414e+3, 2.9495004e+2, 37209.934, -197933.31, -43997.6, -0.15630071, -0.023858124, 45172.67, 94652.18, 0.00017624088, 10.001363, 9.9982815 
1.16514884e+3, 3.0494732e+2, 100610.305, -161050.73, -5427.42, -0.008792288, -0.102331474, 100722.83, 100722.83, 0.00046429865, 10.001565, 9.998113 
1.1651581e+3, 3.1494445e+2, 165606.55, -2244.9778, -18430.146, 0.29868835, -0.24384448, 167606.36, 167606.36, 0.00094360544, 10.001387, 9.999291 
1.1750327e+3, 1.24956295e+2, -1822971.3, -1612324.3, -47356.152, -0.037333783, 0.04347444, -1602167.8, 113260.47, 0.0018234614, 9.998552, 10.001362 
1.1750409e+3, 1.3495578e+2, -1772935.6, -1623853.3, 53352.74, 0.10977892, -0.096696205, -1606727.1, 10697.841, 0.0009506097, 9.998629, 10.000593 
1.1750459e+3, 1.4495525e+2, -1686437.9, -1613371.9, -24791.54, -0.07043644, -0.16451745, -1605754.3, -86326.71, 0.00031097958, 9.998883, 9.999842 
1.1750522e+3, 1.5495628e+2, -1460473.1, -1462802.8, -13553.068, 0.0361483, -0.08584802, -1448034.9, -26613.94, 0.00003785508, 9.9998, 9.999766 
1.17505856e+3, 1.649566e+2, -1337751.5, -1366980.0, 29204.531, 0.060503125, -0.014805421, -1319708.8, 3710.9565, 0.00000010132158, 10.000021, 9.999654 
1.17506556e+3, 1.7495602e+2, -1299112.1, -1290815.6, 50930.28, 0.06387405, -0.08113586, -1243865.0, -18439.152, 0.0, 9.999583, 9.999718 
1.1750723e+3, 1.8495595e+2, -1178109.4, -1183939.1, 44240.5, 0.039376512, -0.052179135, -1136687.9, -9261.609, 0.0, 9.999753, 9.999692 
1.17507875e+3, 1.9495595e+2, -948459.4, -1019563.1, 71968.02, -0.028286925, -0.059553295, -903740.9, 125684.04, 0.0, 10.000645, 9.99972 
1.1750856e+3, 2.0495577e+2, -905409.4, -1034118.44, 35156.914, -0.03629601, -0.003911123, -896432.4, 34995.727, 0.0, 10.000649, 9.998939 
1.17509305e+3, 2.1495505e+2, -934104.75, -995654.9, 44247.277, 0.03519047, -0.010286021, -910982.44, -77543.36, 0.0, 9.999766, 9.998961 
1.17510036e+3, 2.2495443e+2, -789690.1, -848390.4, 17655.332, 0.09312375, 0.028549891, -784789.06, -49343.574, 0.0, 9.999963, 9.999209 
1.1751073e+3, 2.3495364e+2, -497005.7, -647739.9, 40541.184, 0.13101092, -0.010889354, -486793.66, 150656.3, 0.0, 10.001267, 9.999282 
1.175113e+3, 2.4495202e+2, -441931.94, -748742.5, -16391.191, 0.07961321, -0.013034736, -441058.75, 98406.09, 0.0, 10.00172, 9.997701 
1.1751176e+3, 2.5494927e+2, -396325.34, -663817.75, -27544.395, -0.063236274, -0.102009006, -393518.47, 47974.98, 0.0, 10.001318, 9.997798 
1.17512465e+3, 2.6494747e+2, -282624.97, -490084.53, 8359.556, -0.034012694, -0.08540233, -282288.7, 61221.816, 0.0000005132723, 10.00114, 9.998412 
1.1751338e+3, 2.7494615e+2, -175332.11, -384455.53, 50875.266, 0.14085254, -0.09818508, -163612.08, 81908.3, 0.000009286575, 10.001189, 9.998442 
1.17514014e+3, 2.849449e+2, -101500.53, -345727.28, -32130.203, 0.105508454, -0.036702223, -97344.25, 50187.28, 0.000051726838, 10.001212, 9.99802 
1.1751434e+3, 2.9494345e+2, 12045.525, -226301.7, -21698.357, -0.12954374, -0.035464272, 14004.769, 63551.04, 0.00018255804, 10.00125, 9.998144 
1.1751503e+3, 3.0494052e+2, 62551.41, -193833.52, -21370.668, -0.045328017, -0.12876879, 64320.527, 64320.527, 0.0004800074, 10.0013895, 9.997963 
1.1751583e+3, 3.1493834e+2, 142278.52, 17212.55, 18357.19, 0.1055603, -0.18547037, 144917.31, 144917.31, 0.0009690312, 10.001115, 9.999545 
1.18503176e+3, 1.249496e+2, -1870805.5, -1640563.0, 59250.68, 0.04277567, 0.018204661, -1626210.1, 89280.98, 0.0020081834, 9.998203, 10.001352 
1.1850402e+3, 1.3494898e+2, -1713742.1, -1623051.5, 18489.959, 0.15970996, -0.11582635, -1619426.8, -1936.7737, 0.0010574218, 9.999128, 10.000369 
1.18504494e+3, 1.4494884e+2, -1601364.9, -1563144.0, -22661.607, -0.07418691, -0.14062971, -1552610.5, -33120.55, 0.00035351914, 9.9994, 9.999952 
1.1850521e+3, 1.5494971e+2, -1525766.1, -1474639.1, -61573.695, 0.08536747, -0.09003883, -1433533.3, -12047.568, 0.00004562391, 9.999266, 9.999949 
1.1850588e+3, 1.6495013e+2, -1400032.6, -1387072.1, 18415.105, 0.12071705, -0.021900864, -1374030.4, -50546.582, 0.00000019883093, 9.99956, 9.999739 
1.1850654e+3, 1.7494977e+2, -1170753.4, -1213650.4, 8784.95, 0.0638693, -0.07906125, -1169024.0, 56463.598, 0.0, 10.00041, 9.999842 
1.18507214e+3, 1.8494987e+2, -1069246.5, -1115605.6, 31373.477, 0.029447751, -0.044533476, -1053418.5, 74067.414, 0.0, 10.000423, 9.999844 
1.1850791e+3, 1.9495009e+2, -1090478.3, -1067864.6, 18148.367, 0.001476559, -0.046909526, -1057789.0, -28306.813, 0.0, 9.999578, 9.999904 
1.18508615e+3, 2.0494989e+2, -996061.44, -1064002.3, 45174.715, 0.005239663, -0.0063214614, -973509.75, -42025.246, 0.0, 9.999956, 9.99908 
1.1850939e+3, 2.1494895e+2, -653829.06, -838002.1, 50025.305, 0.060575463, -0.04728777, -641118.4, 192377.95, 0.0, 10.0016, 9.99916 
1.18510135e+3, 2.2494854e+2, -524028.7, -752061.5, 49663.387, 0.10899194, 0.015506366, -513681.97, 221819.56, 0.0, 10.001926, 9.99892 
1.1851083e+3, 2.3494826e+2, -577312.9, -720826.94, 7459.768, 0.14164965, 0.056400303, -576926.2, 60577.543, 0.0, 10.000859, 9.998975 
1.1851145e+3, 2.4494651e+2, -545119.6, -809003.75, 14388.689, 0.09872688, 0.057779863, -544337.4, -4816.3716, 0.0, 10.001068, 9.997601 
1.1851199e+3, 2.5494286e+2, -221620.22, -601287.94, 15558.406, -0.022468062, -0.10339749, -220983.72, 220573.61, 0.0, 10.002606, 9.997618 
1.1851267e+3, 2.6494086e+2, -60473.89, -381421.22, 38300.375, -0.0012348938, -0.097269475, -55966.598, 287609.72, 0.0000005059796, 10.002675, 9.998405 
1.1851349e+3, 2.7494007e+2, -169736.98, -386707.25, -6808.149, 0.13823335, -0.053964533, -169523.56, 76058.234, 0.000009353779, 10.001255, 9.998388 
1.1851412e+3, 2.849387e+2, -148455.14, -369241.6, -21683.236, 0.12661365, -0.00038296546, -146345.8, 1248.3767, 0.000051580555, 10.0009165, 9.997989 
1.1851461e+3, 2.949366e+2, 67599.13, -205793.05, -34860.754, -0.0010204838, -0.059603013, 71974.27, 121589.2, 0.00018437536, 10.001676, 9.998074 
1.185153e+3, 3.0493376e+2, 186452.19, -151171.84, -13475.192, 0.05816744, -0.1302015, 186989.16, 186989.16, 0.00048100852, 10.002287, 9.997834 
1.18515946e+3, 3.1493217e+2, 323587.03, 99203.84, -46989.695, 0.069086954, -0.11446678, 333030.1, 333030.1, 0.00096257555, 10.002346, 9.999531 
1.1950294e+3, 1.2494128e+2, -1906049.3, -1707024.3, 116870.7, -0.08606366, -0.12414802, -1653039.1, 62527.52, 0.0022081332, 9.998184, 10.000894 
1.19503856e+3, 1.3494164e+2, -1717207.0, -1631500.8, 64661.848, 0.055363018, -0.15946722, -1596781.1, 20779.459, 0.0011730703, 9.999124, 10.000313 
1.1950449e+3, 1.4494234e+2, -1607850.1, -1567749.4, -49790.85, -0.05996531, -0.093365036, -1534123.5, -14568.802, 0.00040013902, 9.999369, 9.999934 
1.1950514e+3, 1.5494257e+2, -1524760.9, -1477763.3, -48939.633, 0.0423077, -0.106464304, -1446973.3, -25416.006, 0.00005450229, 9.999281, 9.999924 
1.19505785e+3, 1.6494311e+2, -1384598.9, -1353492.5, 28127.871, 0.030790469, -0.038113847, -1336904.1, -13349.792, 0.00000035173326, 9.999549, 9.999979 
1.1950649e+3, 1.7494367e+2, -1165338.3, -1190983.6, 56948.68, -0.05842942, -0.022142675, -1119786.5, 105762.516, 0.0, 10.000354, 10.0000305 
1.19507216e+3, 1.8494368e+2, -1076806.1, -1110004.4, -19231.684, -0.055896495, -0.00800442, -1068000.8, 59546.645, 0.0, 10.000337, 9.999922 
1.1950793e+3, 1.9494289e+2, -1102524.9, -1065250.4, 2328.5571, 0.041074187, -0.12195215, -1065105.5, -35553.203, 0.0, 9.999457, 9.99998 
1.19508706e+3, 2.0494257e+2, -981492.1, -992938.3, 85398.42, 0.060353544, -0.1268584, -901625.25, 29928.188, 0.0, 9.999786, 9.999645 
1.1950952e+3, 2.149424e+2, -650769.2, -774745.0, 128031.2, 0.007402021, -0.14776309, -570509.06, 263045.03, 0.0, 10.001356, 9.99971 
1.1951022e+3, 2.2494207e+2, -610545.5, -869287.1, -11269.341, -0.021658333, -0.06919408, -610055.6, 125503.35, 0.0, 10.0016575, 9.998244 
1.1951078e+3, 2.3494127e+2, -655641.2, -829510.94, -19900.387, -0.025044877, -0.017690934, -653392.5, -15821.404, 0.0, 10.000633, 9.998333 
1.195115e+3, 2.4494006e+2, -544317.75, -755854.9, 52510.06, 0.009643454, 0.048593536, -532000.3, 7584.2026, 0.0, 10.000846, 9.998077 
1.19512364e+3, 2.549381e+2, -220593.88, -539699.8, 92190.31, 0.07401759, 0.0051114564, -195874.75, 245727.95, 0.0, 10.002358, 9.9981575 
1.19513035e+3, 2.64936e+2, -144737.55, -504156.63, -31614.861, 0.06290615, 0.012682959, -141977.86, 201645.14, 0.0000006389743, 10.002446, 9.997679 
1.19513474e+3, 2.7493346e+2, -238222.95, -491618.25, -40056.94, -0.029675353, -0.048663594, -232041.5, 13607.108, 0.000009301616, 10.001101, 9.997742 
1.19514085e+3, 2.8493145e+2, -155883.83, -359031.22, -7646.18, -0.035660744, -0.035443585, -155596.45, -7928.6953, 0.00005191434, 10.0008, 9.998119 
1.1951488e+3, 2.9492944e+2, 52555.777, -204487.9, 20603.271, 0.05622179, -0.09933925, 54196.75, 103881.94, 0.00018470343, 10.001523, 9.998161 
1.19515635e+3, 3.0492708e+2, 129685.47, -210458.27, -18411.914, 0.14329596, -0.1072311, 130679.195, 130679.195, 0.00047307427, 10.002054, 9.997529 
1.19516075e+3, 3.149259e+2, 257692.2, 36970.41, 4729.4385, -0.10665957, -0.028542057, 257793.5, 257793.5, 0.0009340092, 10.002044, 9.999237 
1.2050292e+3, 1.2493405e+2, -1799518.5, -1675363.4, 133373.28, 0.044942874, -0.11157931, -1590328.5, 125307.875, 0.0024257244, 9.999012, 10.00072 
1.2050367e+3, 1.3493435e+2, -1819647.6, -1640911.1, 37753.402, 0.014248099, -0.174543, -1633263.9, -15631.7, 0.0012988481, 9.998277, 10.000644 
1.20504454e+3, 1.4493552e+2, -1730819.6, -1617654.0, 11662.851, 0.016006634, -0.08559557, -1616464.5, -96842.35, 0.00045139206, 9.998467, 10.000032 
1.205051e+3, 1.5493608e+2, -1411999.1, -1408894.8, -24955.838, 0.05007122, -0.07777507, -1385442.9, 36177.902, 0.00006471426, 9.999985, 10.000058 
1.20505765e+3, 1.6493668e+2, -1301764.9, -1318909.6, 56855.027, 0.026613958, -0.007918028, -1252839.6, 70777.695, 0.00000057087306, 10.00015, 9.999916 
1.2050648e+3, 1.7493697e+2, -1354712.6, -1283761.5, 28070.336, -0.032776803, -0.012943751, -1273999.3, -48384.293, 0.0, 9.999077, 9.999998 
1.20507225e+3, 1.8493688e+2, -1234107.6, -1204270.5, -7752.491, -0.0077480976, -0.0011357078, -1202376.5, -74761.75, 0.0, 9.999348, 9.999742 
1.2050801e+3, 1.94936e+2, -877828.4, -971657.25, -39080.32, 0.097700916, -0.10568718, -863683.5, 165936.69, 0.0, 10.001078, 9.999831 
1.20508805e+3, 2.0493548e+2, -784185.25, -926592.06, 28829.33, 0.11259511, -0.11479046, -778570.4, 153053.13, 0.0, 10.001236, 9.99941 
1.20509595e+3, 2.1493484e+2, -897882.75, -925627.7, -25984.41, 0.035434116, -0.15772238, -882299.56, -48670.953, 0.0, 9.999756, 9.99946 
1.2051029e+3, 2.2493432e+2, -866936.25, -962457.0, -111568.77, -0.013512418, -0.0986553, -793335.0, -57700.246, 0.0, 9.999767, 9.99852 
1.2051086e+3, 2.349336e+2, -530110.0, -742759.6, -84858.65, -0.028533736, -0.060853094, -500398.22, 137246.83, 0.0, 10.001377, 9.99858 
1.20511636e+3, 2.4493271e+2, -404335.47, -641462.56, 42174.406, 0.025915135, 0.004942742, -397057.88, 142596.66, 0.0, 10.001623, 9.998468 
1.20512545e+3, 2.5493127e+2, -471826.8, -620190.6, 32484.863, 0.1267695, -0.027359996, -465025.88, -23358.686, 0.00000000020898414, 10.000464, 9.998505 
1.20513245e+3, 2.6492935e+2, -418811.6, -656079.1, -45089.863, 0.13375589, -0.010868214, -410531.75, -66845.39, 0.00000074892756, 10.000636, 9.997508 
1.2051371e+3, 2.7492672e+2, -98786.414, -445195.16, -51160.027, 0.04930583, -0.06278246, -91388.73, 154325.95, 0.000009032264, 10.002129, 9.997566 
1.20514296e+3, 2.8492475e+2, 109036.78, -212190.3, 30370.752, 0.01739532, -0.048127312, 111883.0, 259617.06, 0.000052136886, 10.002541, 9.998294 
1.2051501e+3, 2.9492295e+2, 91768.875, -162919.55, 14583.994, 0.03812381, -0.1051663, 92601.266, 142349.86, 0.0001849306, 10.00172, 9.998346 
1.2051582e+3, 3.0492094e+2, 97755.63, -272291.0, 42388.0, 0.12962216, -0.06726889, 102548.99, 102548.99, 0.0004665325, 10.002028, 9.997116 
1.205164e+3, 3.149195e+2, 356355.0, 43135.75, -15203.66, -0.017291907, 0.02704818, 357091.25, 357091.25, 0.00090609276, 10.002926, 9.998843 
1.2150289e+3, 1.2492674e+2, -1785724.0, -1627896.9, -27365.941, 0.04068371, -0.063749745, -1623286.5, 92424.9, 0.0026624324, 9.998959, 10.001061 
1.2150343e+3, 1.3492729e+2, -1778375.3, -1554040.8, 17917.137, -0.09346179, -0.16004187, -1552618.8, 65084.75, 0.0014356553, 9.998277, 10.001243 
1.2150434e+3, 1.4492846e+2, -1706482.8, -1565644.0, 44646.42, 0.0062165884, -0.12050694, -1552683.5, -32991.594, 0.0005075534, 9.9984665, 10.000385 
1.2150505e+3, 1.5493025e+2, -1396664.8, -1372473.5, 53199.16, -0.03232898, -0.019804569, -1330012.3, 91664.25, 0.000076397075, 9.999961, 10.000322 
1.2150574e+3, 1.6493078e+2, -1330027.4, -1369250.1, -1351.5675, -0.05256454, 0.047473278, -1329980.9, -6307.626, 0.0000008702971, 10.000121, 9.9995775 
1.2150646e+3, 1.7492971e+2, -1388648.5, -1340419.9, 4614.927, 0.0005219743, -0.05798996, -1339982.3, -114296.92, 0.0, 9.999017, 9.999639 
1.2150724e+3, 1.849294e+2, -1269408.3, -1258184.4, 37695.56, 0.027221987, -0.03430869, -1225685.3, -97997.055, 0.0, 9.999268, 9.999412 
1.21508084e+3, 1.9492948e+2, -924300.06, -1035125.0, 44746.992, 0.027212394, -0.008714942, -908488.7, 121196.95, 0.0, 10.000936, 9.999465 
1.2150886e+3, 2.0492859e+2, -885451.7, -1090688.4, -45937.51, 0.019564424, 0.019378146, -875638.8, 56055.813, 0.0, 10.00104, 9.998375 
1.2150956e+3, 2.1492644e+2, -1003176.7, -1085587.3, -65790.89, -0.00014164967, -0.07634358, -966752.6, -133034.63, 0.0, 9.999507, 9.998478 
1.2151029e+3, 2.2492549e+2, -819984.1, -813771.3, -70421.69, -0.007374176, -0.06921164, -746387.56, -10660.823, 0.0, 9.999539, 9.999656 
1.2151106e+3, 2.3492543e+2, -480716.8, -586522.9, -5309.2954, -0.0017987518, -0.080601774, -480451.06, 157272.69, 0.0, 10.0011425, 9.999765 
1.21511795e+3, 2.4492458e+2, -433296.47, -636973.44, -16460.854, 0.0007141129, -0.081007786, -431974.72, 107755.23, 0.0, 10.001347, 9.99863 
1.2151251e+3, 2.549225e+2, -488589.72, -611181.8, 5491.5386, 0.003851221, -0.19312847, -488344.22, -46594.895, 0.00000000018849695, 10.000275, 9.998654 
1.21513285e+3, 2.6492104e+2, -421863.97, -619420.4, -6994.251, 0.07729437, -0.1537736, -421616.66, -77851.92, 0.00000061447383, 10.000447, 9.997855 
1.2151413e+3, 2.7491987e+2, -96824.664, -404178.72, 25597.484, 0.21972351, -0.098915994, -94707.4, 151072.69, 0.000008322687, 10.00196, 9.997935 
1.21514685e+3, 2.8491858e+2, 76556.17, -216396.95, -16330.205, 0.12196859, -0.035693754, 77463.66, 225256.86, 0.000050710027, 10.002287, 9.998379 
1.21514976e+3, 2.94917e+2, 75793.99, -155421.69, 8868.217, -0.20982441, -0.08164481, 76133.625, 125939.64, 0.00018357177, 10.001554, 9.998471 
1.2151581e+3, 3.0491513e+2, 31470.979, -371384.1, 63467.254, -0.11493158, -0.008211674, 41233.273, 41233.273, 0.00046227945, 10.001865, 9.996518 
1.21516824e+3, 3.1491265e+2, 277789.44, -49050.816, 58630.883, 0.03952678, 0.04435905, 287988.78, 287988.78, 0.0008888424, 10.002626, 9.998354 
1.2250287e+3, 1.24920085e+2, -1946888.1, -1735330.1, 52722.586, 0.18887137, -0.050518245, -1722919.1, -7142.384, 0.0029179724, 9.997955, 10.00081 
1.22503385e+3, 1.349209e+2, -1608531.9, -1512392.1, 23008.025, -0.011270662, -0.08726979, -1507169.5, 110598.234, 0.0015834377, 9.999603, 10.000894 
1.2250429e+3, 1.4492151e+2, -1529139.9, -1469774.8, 32806.09, 0.062235273, -0.08898519, -1455216.0, 64545.08, 0.00056846405, 9.999658, 10.000463 
1.2250498e+3, 1.5492292e+2, -1616600.6, -1455300.3, -22280.691, -0.010696188, -0.04160302, -1452279.3, -30532.213, 0.00008951281, 9.998391, 10.000488 
1.2250569e+3, 1.6492324e+2, -1563842.0, -1498070.5, -20216.094, -0.021970132, 0.0022103519, -1492353.6, -168609.58, 0.0000012652538, 9.998539, 9.99949 
1.22506484e+3, 1.7492215e+2, -1217479.5, -1262629.8, -26101.832, 0.06757831, -0.09741002, -1205544.6, 20211.248, 0.0, 10.000189, 9.999623 
1.225073e+3, 1.8492176e+2, -1068854.6, -1198809.8, 66304.22, 0.1028733, -0.066929884, -1040997.2, 86763.31, 0.0, 10.000777, 9.999105 
1.22508176e+3, 1.9492161e+2, -1039930.94, -1128195.9, 38316.902, 0.074183725, -0.030656489, -1025618.06, 4144.3403, 0.0, 10.000282, 9.999155 
1.2250895e+3, 2.049208e+2, -976036.4, -1129950.0, -7230.448, 0.05015808, 0.018392619, -975697.5, -43925.582, 0.0, 10.00042, 9.998394 
1.2250962e+3, 2.1491897e+2, -754375.7, -960948.9, 12495.514, 0.024227057, -0.04516043, -753622.6, 80169.21, 0.0, 10.001223, 9.998493 
1.2251035e+3, 2.2491793e+2, -577643.56, -705441.1, 62768.637, 0.02032538, -0.044940833, -551971.4, 183829.77, 0.0, 10.001226, 9.999585 
1.2251115e+3, 2.3491731e+2, -602023.4, -657761.1, -4862.845, 0.028186975, -0.10667701, -601602.3, 36201.152, 0.0, 10.000346, 9.999666 
1.22511916e+3, 2.4491642e+2, -562635.9, -683483.2, -40377.16, 0.038288984, -0.11183364, -550386.75, -10576.866, 0.0, 10.000366, 9.9988 
1.2251262e+3, 2.5491497e+2, -318925.66, -508090.75, -49241.188, 0.05137365, -0.1779991, -306875.4, 134948.13, 0.0, 10.00134, 9.998859 
1.2251344e+3, 2.6491392e+2, -186129.92, -475727.4, 5462.079, 0.117607884, -0.12393882, -186026.94, 157808.48, 0.0000003685213, 10.001964, 9.9980955 
1.2251433e+3, 2.7491283e+2, -51012.477, -351945.2, -14090.416, 0.2222453, -0.07898433, -50354.168, 195495.31, 0.0000073761885, 10.002192, 9.998159 
1.225149e+3, 2.849116e+2, 50405.58, -248308.63, -88998.914, 0.1298408, -0.018208848, 74911.5, 222774.45, 0.000049087277, 10.002148, 9.998235 
1.22515194e+3, 2.9490995e+2, 77853.89, -179419.67, -115219.72, -0.13824616, -0.053501792, 121910.49, 171788.05, 0.00018153466, 10.001636, 9.998283 
1.2251605e+3, 3.049084e+2, 92068.45, -305365.53, 68294.83, -0.058839936, 0.044640638, 103476.73, 103476.73, 0.00045750884, 10.002136, 9.996824 
1.2251712e+3, 3.1490576e+2, 384226.13, 8917.441, 45214.63, 0.051548, 0.05146849, 389596.44, 389596.44, 0.0008772591, 10.003293, 9.998433 
1.23502664e+3, 1.249144e+2, -1987236.6, -1842205.4, 27604.508, 0.102854066, -0.05352765, -1837129.0, -121299.63, 0.0031899144, 9.998032, 10.000045 
1.2350348e+3, 1.3491514e+2, -1694206.5, -1701306.3, 93459.516, 0.082238354, 0.027982965, -1604229.5, 13595.707, 0.0017411282, 9.999629, 9.999588 
1.2350424e+3, 1.4491457e+2, -1541368.4, -1505403.3, -38559.305, -0.010576059, -0.015164079, -1480839.4, 38991.43, 0.0006337289, 9.999692, 10.00021 
1.2350485e+3, 1.5491395e+2, -1626494.4, -1487502.4, -58782.535, -0.024938488, -0.14394994, -1465976.0, -44142.465, 0.00010392506, 9.99842, 10.000267 
1.2350558e+3, 1.6491395e+2, -1533537.4, -1437053.0, 14227.569, -0.025099926, -0.14239745, -1434998.8, -111167.73, 0.0000017603737, 9.998548, 9.9999 
1.2350648e+3, 1.7491427e+2, -1193334.8, -1211382.6, 50268.89, 0.020515919, -0.14182469, -1151286.3, 74540.6, 0.0, 10.000173, 9.999986 
1.2350739e+3, 1.8491389e+2, -1102052.6, -1250601.4, 29675.469, 0.06315818, -0.11092634, -1096343.8, 31488.285, 0.0, 10.000704, 9.998783 
1.2350825e+3, 1.9491251e+2, -1078921.1, -1178760.0, 36392.387, 0.09213483, -0.17084324, -1067064.0, -37214.188, 0.0, 10.00015, 9.998869 
1.23509035e+3, 2.0491213e+2, -931697.75, -994364.8, 816.67316, 0.064310975, -0.11492025, -931687.06, 167.7549, 0.0, 10.000231, 9.999418 
1.2350972e+3, 2.1491244e+2, -716097.0, -829720.3, 58995.047, -0.02255421, -0.06786825, -691006.44, 142843.94, 0.0, 10.000996, 9.999505 
1.2351041e+3, 2.2491163e+2, -701417.44, -910590.75, 13175.897, -0.06799887, -0.031526044, -700590.75, 35267.832, 0.0, 10.000997, 9.998293 
1.23511106e+3, 2.349093e+2, -725086.7, -865672.6, -17271.922, -0.07315155, -0.13398805, -722995.8, -85112.35, 0.0, 10.000135, 9.998344 
1.2351191e+3, 2.4490838e+2, -580436.8, -666940.56, -19720.29, -0.015626939, -0.0850797, -576153.25, -36260.133, 0.0, 10.000137, 9.999023 
1.2351286e+3, 2.549086e+2, -331668.1, -485321.53, 8004.519, 0.12118173, -0.007269076, -331252.22, 110637.914, 0.0, 10.001121, 9.9991255 
1.2351365e+3, 2.6490778e+2, -225600.0, -492762.78, -770.7766, 0.1052516, 0.05631083, -225597.78, 118301.4, 0.00000016286783, 10.00169, 9.99811 
1.2351428e+3, 2.749055e+2, -82685.4, -368719.38, 16664.717, -0.07418004, -0.019622777, -81717.766, 164206.6, 0.000006622681, 10.001984, 9.998144 
1.2351493e+3, 2.8490362e+2, -251.62074, -303478.1, -119103.734, -0.09761787, -0.005093424, 40936.266, 188880.8, 0.000048750662, 10.00194, 9.997956 
1.235156e+3, 2.9490182e+2, 39094.926, -228337.27, -106684.66, 0.05916899, -0.031056818, 76439.086, 126401.85, 0.00018217463, 10.001493, 9.99802 
1.2351647e+3, 3.0490077e+2, 138106.9, -170084.81, 105262.95, 0.110896215, 0.07838432, 170627.83, 170627.83, 0.00045752534, 10.00197, 9.997834 
1.235172e+3, 3.1489873e+2, 371605.84, 66945.48, 127690.92, -0.26658404, 0.042081576, 418045.53, 418045.53, 0.00087459444, 10.002942, 9.998998 
1.2450252e+3, 1.24906436e+2, -1802533.8, -1772313.6, -17621.115, 0.09229774, -0.09383376, -1764211.3, -48307.23, 0.003475539, 9.999413, 9.999846 
1.24503456e+3, 1.3490675e+2, -1842902.4, -1813172.6, 22768.44, 0.15216476, -0.019718245, -1800846.3, -182941.78, 0.0019075654, 9.998779, 9.999237 
1.24504164e+3, 1.4490595e+2, -1678754.3, -1598035.4, -45627.48, 0.002571795, -0.053316087, -1577478.9, -57566.152, 0.0007030745, 9.998867, 9.999966 
1.2450487e+3, 1.5490499e+2, -1397168.3, -1410275.5, -107800.055, 0.08196417, -0.19203962, -1295722.8, 126196.695, 0.00011956255, 10.000123, 9.99998 
1.2450562e+3, 1.649049e+2, -1262072.5, -1302987.6, 5038.7075, 0.07314022, -0.18736276, -1261461.1, 62457.543, 0.0000023468863, 10.00042, 9.999901 
1.2450646e+3, 1.7490543e+2, -1239598.5, -1231291.9, -28529.404, -0.0012980044, -0.16448247, -1206615.0, 19297.85, 0.0, 9.9998665, 9.999984 
1.2450734e+3, 1.8490544e+2, -1232944.3, -1279947.1, -35033.02, 0.016492616, -0.110459425, -1214260.1, -86345.11, 0.0, 9.999673, 9.999072 
1.2450826e+3, 1.9490448e+2, -1099815.8, -1159528.6, -18061.373, 0.113801636, -0.15553886, -1094777.8, -64848.723, 0.0, 9.99988, 9.99913 
1.24509096e+3, 2.0490448e+2, -921377.1, -940379.0, 6532.53, 0.12289844, -0.096977934, -919348.0, 12582.081, 0.0, 10.000088, 9.999856 
1.2450984e+3, 2.1490514e+2, -796421.75, -817722.9, -16268.68, 0.04575976, -0.06107178, -787627.44, 46293.508, 0.0, 10.000222, 9.99996 
1.2451056e+3, 2.2490443e+2, -759260.5, -968584.7, -28283.74, -0.004291538, -0.02208311, -755506.1, -19577.844, 0.0, 10.000765, 9.997989 
1.2451123e+3, 2.3490196e+2, -512264.78, -790704.06, -24714.945, -0.03347632, -0.10820669, -510088.06, 127868.34, 0.0, 10.001755, 9.998058 
1.24512024e+3, 2.4490085e+2, -336837.03, -567046.56, 33972.316, 0.0030054473, -0.05676535, -331928.38, 208040.75, 0.0, 10.001888, 9.99886 
1.2451294e+3, 2.5490087e+2, -348643.97, -506791.03, -4265.119, 0.108601294, 0.016379816, -348529.0, 93439.37, 0.0, 10.001079, 9.998984 
1.2451376e+3, 2.6490003e+2, -342466.28, -526023.0, 18706.324, 0.10208893, 0.06949456, -340579.3, 3397.9277, 0.000000050542315, 10.000752, 9.998346 
1.2451447e+3, 2.748978e+2, -229230.17, -417478.38, 19751.61, -0.022864524, -0.020077858, -227180.1, 18819.57, 0.0000061370592, 10.000843, 9.99838 
1.24515176e+3, 2.8489593e+2, -40036.04, -348384.03, -46667.508, -0.023604691, -0.0074357414, -33127.83, 114892.41, 0.000049451548, 10.001797, 9.997709 
1.2451589e+3, 2.9489392e+2, 333951.16, -105522.33, -76976.54, 0.11513994, -0.027371978, 347044.0, 397086.5, 0.00018750013, 10.003639, 9.997813 
1.2451673e+3, 3.04893e+2, 378003.97, -3148.8552, 104837.26, 0.13355897, 0.08095487, 404936.7, 404936.7, 0.000470274, 10.003368, 9.998328 
1.2451742e+3, 3.1489173e+2, 49279.637, -83671.75, 17009.271, -0.21334621, 0.07522142, 51421.24, 51421.24, 0.0008945071, 10.000695, 9.999059 
1.2550251e+3, 1.2489622e+2, -1770949.4, -1722668.3, 25579.143, 0.0679653, -0.17992276, -1711637.0, 4363.361, 0.0037739007, 9.999471, 10.000163 
1.255033e+3, 1.3489601e+2, -1793207.1, -1717684.8, 10410.048, 0.07976734, -0.22506076, -1716276.0, -98273.19, 0.0020822603, 9.998809, 9.999881 
1.2550405e+3, 1.4489599e+2, -1691337.3, -1630260.5, -19330.525, -0.04820703, -0.20230438, -1624656.6, -104652.57, 0.0007764397, 9.998891, 9.999732 
1.2550499e+3, 1.5489623e+2, -1414401.0, -1445919.5, -43121.945, 0.15089683, -0.19719815, -1384248.9, 37754.594, 0.00013646827, 10.000121, 9.999735 
1.2550575e+3, 1.6489619e+2, -1300124.4, -1384243.3, -36801.117, 0.12789777, -0.14495838, -1286297.3, 37708.695, 0.0000030208696, 10.000422, 9.999348 
1.2550636e+3, 1.7489581e+2, -1278274.3, -1307699.6, -34209.434, -0.12008563, -0.16193563, -1255747.9, -29735.617, 0.0, 9.999843, 9.999473 
1.2550716e+3, 1.848964e+2, -1177216.4, -1150905.5, -47663.34, -0.16371013, -0.07024235, -1114615.5, 13393.598, 0.0, 9.999611, 9.999991 
1.2550817e+3, 1.948975e+2, -1048438.8, -1031369.3, 6486.227, 0.0038794836, -0.00021527037, -1029184.3, 816.17993, 0.0, 9.999782, 10.000059 
1.2550911e+3, 2.0489784e+2, -959756.06, -976454.8, -7184.2163, 0.088284105, 0.05413011, -957090.7, -25093.336, 0.0, 9.9999, 9.999703 
1.2550992e+3, 2.1489714e+2, -841276.25, -858693.25, 6163.931, 0.08429743, -0.028007163, -839315.5, -5313.221, 0.0, 9.999993, 9.999796 
1.2551072e+3, 2.2489634e+2, -756044.2, -898279.6, -9590.121, 0.054717977, -0.018827686, -755400.44, -19390.354, 0.0, 10.000497, 9.998597 
1.2551147e+3, 2.3489513e+2, -504166.28, -718623.7, 30793.59, 0.006907535, -0.04190337, -499832.25, 138191.83, 0.0, 10.001514, 9.998669 
1.255122e+3, 2.4489373e+2, -408280.22, -656606.6, -13857.569, -0.05131521, -0.02893709, -407509.3, 132529.86, 0.0, 10.001634, 9.998368 
1.2551285e+3, 2.5489175e+2, -418764.97, -606418.2, -17306.371, -0.12057528, -0.1042327, -417182.22, 24876.549, 0.0, 10.000869, 9.9984045 
1.2551372e+3, 2.648905e+2, -339520.0, -469739.0, 3449.6646, -0.03784354, -0.081140205, -339428.7, 4641.6543, 0.00000007625481, 10.000541, 9.998832 
1.255148e+3, 2.7488974e+2, -217451.44, -352730.06, 44164.637, 0.20598562, -0.08171391, -204309.61, 41766.63, 0.0000061507535, 10.0006695, 9.998908 
1.255156e+3, 2.8488842e+2, -88719.52, -406712.9, 6426.8174, 0.18047693, -0.020367878, -88589.69, 59500.848, 0.000051588533, 10.001616, 9.997391 
1.2551607e+3, 2.9488614e+2, 282869.03, -167698.77, 13836.69, -0.11245955, -0.04426523, 283293.56, 333411.44, 0.00020006, 10.00345, 9.997473 
1.2551685e+3, 3.0488488e+2, 354903.25, -16965.598, -7011.5557, -0.12667595, 0.05250923, 355035.4, 355035.4, 0.0005036429, 10.003216, 9.998304 
1.2551762e+3, 3.1488466e+2, -24587.363, -178439.2, -41219.19, -0.13985904, 0.14644518, -14240.041, -14240.041, 0.0009532297, 10.000439, 9.998533 
1.2650248e+3, 1.2488587e+2, -1854329.4, -1717106.5, 39366.055, 0.16198926, -0.2002207, -1706615.4, 9487.665, 0.004085261, 9.998711, 10.000586 
1.265032e+3, 1.3488606e+2, -1682147.5, -1587762.6, -80130.46, 0.095867895, -0.25538483, -1541960.4, 76139.516, 0.0022650692, 9.999282, 10.000534 
1.2650406e+3, 1.448866e+2, -1640038.3, -1595901.8, -39838.266, 0.07220347, -0.21546437, -1572427.8, -52331.867, 0.00085386867, 9.999201, 9.999823 
1.2650491e+3, 1.548876e+2, -1595866.3, -1521370.5, -80015.73, 0.14155602, -0.13855329, -1470357.9, -48267.727, 0.00015477135, 9.998841, 9.999834 
1.2650569e+3, 1.6488792e+2, -1520186.8, -1473093.5, -9805.309, 0.10785427, -0.06145943, -1471133.5, -147043.23, 0.0000038088367, 9.9988575, 9.99948 
1.2650637e+3, 1.7488737e+2, -1319389.6, -1316176.4, 4151.8467, -0.06923879, -0.10718406, -1313331.1, -87233.14, 0.0, 9.999519, 9.99957 
1.2650718e+3, 1.8488787e+2, -1132703.4, -1105973.5, 23573.809, -0.10573845, -0.039495222, -1092239.6, 35855.156, 0.0, 9.999811, 10.000203 
1.2650815e+3, 1.9488907e+2, -1045279.5, -1004749.8, -13954.066, -0.002419977, 0.018300481, -1000410.2, 29673.549, 0.0, 9.999708, 10.000274 
1.2650907e+3, 2.0488928e+2, -961409.75, -992943.44, -5169.1416, 0.0668606, 0.056183122, -960584.0, -28502.219, 0.0, 9.999957, 9.9995575 
1.2650995e+3, 2.1488817e+2, -770498.0, -841024.1, -29141.123, 0.0926439, -0.05417435, -760015.2, 74077.28, 0.0, 10.00055, 9.999642 
1.2651081e+3, 2.2488768e+2, -697203.9, -814595.94, -14949.279, 0.10318264, -0.031442847, -695330.06, 40767.35, 0.0, 10.000643, 9.999112 
1.2651165e+3, 2.3488761e+2, -661499.75, -734968.0, -14007.539, 0.10366525, 0.009665788, -658919.7, -20820.705, 0.0, 10.000166, 9.999215 
1.2651236e+3, 2.4488656e+2, -594196.25, -749442.8, -19532.225, 0.033045392, 0.031535476, -591776.56, -51666.316, 0.0, 10.000355, 9.99836 
1.2651296e+3, 2.5488412e+2, -364325.63, -583490.0, -18067.082, -0.107699014, -0.08646256, -362846.22, 79288.75, 0.0, 10.001241, 9.998397 
1.2651384e+3, 2.6488256e+2, -147950.31, -389746.38, 44397.875, -0.031407066, -0.08667161, -140055.86, 204093.64, 0.00000015326442, 10.001922, 9.9987135 
1.26515e+3, 2.7488166e+2, 19334.764, -246638.84, -4532.863, 0.26657057, -0.09141051, 19411.992, 265568.47, 0.0000068361555, 10.002347, 9.9988165 
1.2651582e+3, 2.8488052e+2, -6178.212, -368736.78, -8803.211, 0.23187669, -0.0072537865, -5964.589, 142204.19, 0.000055437977, 10.002171, 9.997396 
1.265163e+3, 2.948788e+2, 2388.694, -305999.53, -15173.788, -0.1294166, 0.033154935, 3133.4993, 53324.152, 0.00021969865, 10.001514, 9.99747 
1.2651707e+3, 3.0487674e+2, 144376.22, -117335.17, -42455.273, -0.14044951, 0.046908807, 151091.11, 151091.11, 0.00055763865, 10.001786, 9.998292 
1.2651794e+3, 3.148758e+2, 281399.34, -44992.24, -157853.75, 0.022586873, 0.07899432, 345251.28, 345251.28, 0.001054668, 10.002631, 9.998385 
1.2750237e+3, 1.24876e+2, -1787778.9, -1594960.4, -63773.02, 0.09230816, -0.095036834, -1575776.6, 140429.33, 0.0044096503, 9.99878, 10.001387 
1.275031e+3, 1.3487698e+2, -1649732.9, -1520907.9, -49539.598, 0.036658593, -0.11850836, -1504060.6, 114133.89, 0.0024558255, 9.999273, 10.000999 
1.2750414e+3, 1.448778e+2, -1603553.8, -1533243.9, -73849.39, 0.17254834, -0.09560674, -1486608.9, 33578.977, 0.00093550276, 9.999249, 10.000231 
1.2750463e+3, 1.5487927e+2, -1562638.4, -1462705.4, -75827.3, -0.07528499, -0.016091034, -1421862.0, 316.00803, 0.00017466526, 9.998876, 10.000222 
1.2750538e+3, 1.6488008e+2, -1457615.8, -1357933.0, -5572.5625, -0.12891519, 0.051635448, -1357622.5, -33450.637, 0.0000047674703, 9.998911, 10.000248 
1.2750643e+3, 1.7488004e+2, -1266506.1, -1206820.4, 46272.61, 0.013026108, -0.021970166, -1181601.9, 44569.51, 0.0, 9.999512, 10.000326 
1.2750734e+3, 1.8487987e+2, -1184386.5, -1191098.0, 4202.4355, 0.037187178, -0.03160532, -1182364.4, -54192.016, 0.0, 9.9997225, 9.999657 
1.2750809e+3, 1.9487923e+2, -1098464.3, -1091416.1, 611.9323, -0.05043336, -0.103548184, -1091363.4, -61185.25, 0.0, 9.999604, 9.999726 
1.2750894e+3, 2.0487878e+2, -998093.9, -1029954.8, -2435.576, -0.08574046, -0.096019, -997908.75, -65725.484, 0.0, 9.99979, 9.999386 
1.2750988e+3, 2.1487822e+2, -818111.44, -884333.94, 9067.715, -0.060647532, -0.13396765, -816892.25, 17298.809, 0.0, 10.00031, 9.999463 
1.275108e+3, 2.248785e+2, -700050.44, -760295.44, -49539.055, 0.0063973237, -0.049954902, -672194.6, 63994.88, 0.0, 10.000388, 9.999606 
1.2751171e+3, 2.3487937e+2, -662020.44, -683193.2, -13927.212, 0.11542372, 0.034333017, -655112.8, -16931.43, 0.0, 9.999938, 9.9996805 
1.275125e+3, 2.4487928e+2, -599271.3, -703231.75, -2005.9333, 0.107457094, 0.11068333, -599232.6, -59049.426, 0.0, 10.000118, 9.998785 
1.2751321e+3, 2.5487795e+2, -362728.16, -527235.8, 34811.344, -0.012565169, 0.05504651, -355665.0, 86532.43, 0.0, 10.001017, 9.998888 
1.2751406e+3, 2.6487625e+2, -237653.61, -520277.22, 43910.215, -0.035609964, 0.048710935, -230988.61, 113225.96, 0.00000020123079, 10.001686, 9.997928 
1.2751503e+3, 2.7487358e+2, -70287.03, -382787.22, 32225.816, 0.03188522, -0.05230029, -66998.44, 179241.47, 0.0000077157165, 10.002136, 9.997981 
1.2751584e+3, 2.848722e+2, -11953.124, -343707.03, -50984.242, 0.0011212748, 0.037662666, -4294.6147, 143960.17, 0.000060411407, 10.0020075, 9.997645 
1.275165e+3, 2.9487202e+2, -8918.305, -278735.4, -13251.187, -0.12065351, 0.19875775, -8269.078, 41991.355, 0.00024271311, 10.001298, 9.99776 
1.2751734e+3, 3.048685e+2, 97804.43, -172082.53, -20152.402, -0.07588586, 0.07212276, 99300.91, 99300.91, 0.0006225909, 10.001607, 9.998002 
1.2751825e+3, 3.1486577e+2, 225874.17, -70784.19, -78382.62, 0.008510797, -0.05974695, 245310.84, 245310.84, 0.0011840118, 10.002271, 9.998368 
1.2850247e+3, 1.2486729e+2, -1722324.9, -1587065.4, 93931.805, 0.2926077, -0.119178504, -1538949.9, 177342.11, 0.0047468157, 9.999289, 10.0012 
1.2850298e+3, 1.3486874e+2, -1686398.6, -1578620.1, 63163.66, 0.0010011788, -0.06580998, -1549481.1, 68797.66, 0.0026545508, 9.99916, 10.000656 
1.2850402e+3, 1.4486979e+2, -1647063.5, -1534321.9, 29621.936, 0.1529554, -0.013578415, -1527012.9, -6742.383, 0.0010215283, 9.998895, 10.000389 
1.2850456e+3, 1.5487076e+2, -1499148.8, -1406551.6, -29004.293, -0.036640193, 0.0011333855, -1398216.9, 24047.24, 0.00019628371, 9.999218, 10.000436 
1.2850535e+3, 1.6487141e+2, -1378299.9, -1314758.4, 58169.117, -0.06434187, 0.038774773, -1280249.3, 44009.2, 0.0000059623408, 9.999413, 10.000319 
1.285064e+3, 1.7487164e+2, -1262382.9, -1193187.4, 21080.232, 0.043481503, -0.012479111, -1187271.1, 38983.42, 0.0, 9.999485, 10.000437 
1.2850733e+3, 1.8487144e+2, -1200356.3, -1210920.0, -915.7303, 0.07103434, -0.024065325, -1200277.5, -72022.03, 0.0, 9.999686, 9.999531 
1.2850814e+3, 1.9487038e+2, -1017739.56, -1064669.8, -9503.313, 0.014845445, -0.12354911, -1015888.2, 14376.7705, 0.0, 10.0002365, 9.9996 
1.28509e+3, 2.0487e+2, -918541.25, -1006943.25, 34110.824, -0.023469709, -0.09601114, -906909.6, 25360.484, 0.0, 10.0004, 9.999253 
1.2850991e+3, 2.1486999e+2, -850739.56, -908628.1, 16831.992, -0.045114096, -0.0654842, -846201.2, -11927.475, 0.0, 10.000136, 9.999376 
1.2851083e+3, 2.2487018e+2, -705798.8, -746611.06, -22227.996, 0.0025434194, 0.0039398484, -696030.5, 40242.47, 0.0, 10.000275, 9.999754 
1.2851174e+3, 2.3487023e+2, -523063.2, -596165.25, -48405.344, 0.123184845, -0.0074652303, -498959.0, 139312.02, 0.0, 10.0008135, 9.99985 
1.285126e+3, 2.448702e+2, -433721.28, -613892.7, -4921.251, 0.15478899, 0.061623804, -433586.97, 106684.9, 0.0, 10.001219, 9.998865 
1.2851344e+3, 2.5486982e+2, -298456.47, -486380.13, -34393.758, 0.10128108, 0.09528991, -292359.53, 149918.47, 0.0, 10.001426, 9.998966 
1.2851429e+3, 2.6486832e+2, -251792.02, -539666.8, 9187.167, 0.044854097, 0.11171189, -251499.11, 92795.016, 0.00000014147287, 10.001631, 9.997827 
1.2851517e+3, 2.748652e+2, -109282.94, -413292.0, 10467.931, -0.017763456, -0.024080614, -108922.92, 137402.14, 0.000007879153, 10.00191, 9.997887 
1.28516e+3, 2.8486383e+2, 11870.915, -288503.78, -33868.152, -0.035123643, 0.05546282, 15642.299, 163981.19, 0.00006527563, 10.001993, 9.99803 
1.2851676e+3, 2.9486397e+2, 87605.77, -187422.0, -35193.9, 0.00271702, 0.21439095, 92037.93, 142376.2, 0.000269289, 10.00177, 9.998157 
1.2851763e+3, 3.0485997e+2, 140353.33, -188500.27, 48060.164, 0.04062509, 0.029628355, 147233.13, 147233.13, 0.0006978728, 10.002032, 9.9977 
1.2851854e+3, 3.1485713e+2, 295323.03, -27963.81, -82162.37, 0.07881829, -0.07727764, 315005.97, 315005.97, 0.0013327203, 10.002639, 9.998509 
1.2950234e+3, 1.24860056e+2, -1812036.0, -1761805.6, -41878.26, 0.16769335, -0.26447138, -1738088.9, -21730.857, 0.0050962004, 9.999259, 10.000009 
1.295028e+3, 1.3486151e+2, -1777943.3, -1753596.1, 68813.46, -0.12149782, -0.095195115, -1695887.8, -77537.17, 0.0028611089, 9.999108, 9.99948 
1.2950367e+3, 1.4486259e+2, -1658858.8, -1556729.8, 15616.125, -0.13850342, 0.03389162, -1554395.3, -34051.996, 0.00111182, 9.998891, 10.000235 
1.2950467e+3, 1.5486212e+2, -1512704.9, -1429865.8, 2931.8088, 0.113620915, -0.082348384, -1429762.1, -7414.4565, 0.000219555, 9.999199, 10.000287 
1.2950553e+3, 1.6486202e+2, -1414808.4, -1392361.5, 39635.32, 0.13806875, -0.08821073, -1362391.1, -38042.258, 0.0000074533, 9.999415, 9.999783 
1.2950623e+3, 1.7486231e+2, -1305971.3, -1280559.3, 39050.81, -0.11523204, -0.07910153, -1252199.4, -25852.86, 0.0, 9.999466, 9.999846 
1.2950711e+3, 1.8486264e+2, -1189910.4, -1184868.6, 69.79586, -0.1542301, -0.016222442, -1184867.8, -56524.348, 0.0, 9.9996605, 9.999724 
1.2950824e+3, 1.9486253e+2, -1017576.56, -1044503.0, 26339.658, 0.058732584, -0.042963088, -1001458.75, 28885.35, 0.0, 10.000136, 9.99979 
1.2950921e+3, 2.0486283e+2, -950830.2, -1028403.2, 5116.4937, 0.109043375, 0.047184512, -950494.1, -18151.281, 0.0, 10.000211, 9.999191 
1.2950999e+3, 2.1486332e+2, -888880.0, -932686.0, 21813.77, -0.010774179, 0.12976332, -879870.5, -45528.523, 0.0, 9.999902, 9.99932 
1.2951082e+3, 2.2486255e+2, -759094.0, -794340.1, -18793.031, -0.055682037, 0.116708025, -750953.75, -14604.464, 0.0, 10.000006, 9.999556 
1.2951171e+3, 2.348602e+2, -570825.94, -639344.94, -7847.7485, -0.016058337, -0.11617866, -569938.6, 68429.086, 0.0, 10.000569, 9.999672 
1.2951264e+3, 2.4485941e+2, -499466.38, -677922.9, -14717.54, 0.032219723, -0.10088463, -498260.72, 42114.77, 0.0, 10.000923, 9.998561 
1.2951359e+3, 2.5485978e+2, -360763.44, -549956.0, -7217.506, 0.09468828, 0.037775118, -360488.5, 81887.86, 0.0, 10.001159, 9.99865 
1.2951452e+3, 2.6485893e+2, -245184.23, -484297.13, 1492.5625, 0.07197311, 0.11188954, -245174.9, 99212.66, 0.000000052302592, 10.001436, 9.998307 
1.2951538e+3, 2.748566e+2, -105857.97, -353422.75, 40820.477, -0.041025933, 0.006107845, -99300.836, 147109.95, 0.000007172051, 10.001677, 9.998414 
1.2951623e+3, 2.8485546e+2, 6356.007, -243318.58, -59079.188, -0.043427538, 0.05638039, 19629.902, 168050.75, 0.00006969282, 10.001747, 9.998459 
1.2951703e+3, 2.948549e+2, 79751.22, -148665.05, -18444.176, 0.074240595, 0.101806946, 81230.97, 131653.92, 0.0003009035, 10.001537, 9.998533 
1.2951788e+3, 3.0485114e+2, 94349.6, -252846.03, 54672.793, 0.0588954, -0.0567743, 102755.4, 102755.4, 0.0007869782, 10.001894, 9.997327 
1.2951875e+3, 3.1485018e+2, 269334.1, 4424.35, -6607.9507, -0.04734739, 0.052435897, 269498.8, 269498.8, 0.0015032826, 10.002276, 9.998904 
1.3050216e+3, 1.24853864e+2, -1924145.8, -1833544.4, -64691.926, 0.10716469, -0.16366622, -1799869.1, -83447.44, 0.0054552136, 9.998582, 9.999836 
1.305028e+3, 1.3485451e+2, -1747378.1, -1739593.3, 27942.139, -0.02729496, -0.06887056, -1715273.8, -96852.586, 0.003073975, 9.999346, 9.999453 
1.3050355e+3, 1.4485523e+2, -1586587.3, -1578191.3, 63840.727, -0.15905531, 0.04615944, -1518410.6, 2006.4578, 0.0012055306, 9.999604, 9.999747 
1.3050461e+3, 1.5485424e+2, -1401624.8, -1427724.3, -8897.522, 0.1060377, -0.07723901, -1398880.1, 23546.498, 0.000244213, 10.00017, 9.999833 
1.3050552e+3, 1.6485386e+2, -1337961.5, -1394072.6, 38062.29, 0.15790384, -0.06952905, -1318732.3, 5698.5703, 0.000009295233, 10.000153, 9.999403 
1.3050622e+3, 1.74854e+2, -1283031.1, -1305649.5, 11258.034, -0.089153044, -0.036068548, -1278382.9, -51952.477, 0.0, 9.99982, 9.999491 
1.3050711e+3, 1.848541e+2, -1188775.3, -1193053.4, 20509.184, -0.12792508, 0.02706489, -1170293.9, -41864.406, 0.0, 9.999686, 9.999667 
1.3050824e+3, 1.9485386e+2, -1084357.5, -1076763.0, -5282.332, 0.07330284, -0.01097108, -1074054.8, -43623.188, 0.0, 9.999681, 9.999789 
1.3050923e+3, 2.04854e+2, -994469.2, -1020239.8, 2199.1711, 0.14359763, 0.0520571, -994282.9, -61852.676, 0.0, 9.999775, 9.999462 
1.3051005e+3, 2.1485433e+2, -862956.94, -888554.94, 5553.0747, 0.07304272, 0.09313844, -861804.25, -27376.309, 0.0, 9.999944, 9.999605 
1.3051091e+3, 2.2485347e+2, -722707.7, -827569.75, 28596.992, 0.02181628, 0.07905481, -715416.0, 21019.725, 0.0, 10.000459, 9.999109 
1.305118e+3, 2.3485106e+2, -504255.3, -659000.94, -16313.113, -0.005099808, -0.11730348, -502554.3, 135902.92, 0.0, 10.001235, 9.999217 
1.3051274e+3, 2.4485e+2, -429250.72, -667190.0, -20857.332, 0.03337449, -0.09726651, -427436.22, 113032.46, 0.0, 10.001482, 9.998374 
1.3051376e+3, 2.5485e+2, -367494.47, -576843.2, -38421.43, 0.14167465, 0.022237353, -360665.78, 81807.38, 0.0, 10.001194, 9.99846 
1.305147e+3, 2.6484928e+2, -267330.94, -463989.4, 11343.538, 0.1276779, 0.10670368, -266678.78, 77803.99, 0.000000026393016, 10.001147, 9.99859 
1.3051553e+3, 2.748475e+2, -133206.8, -340725.16, -6308.1504, -0.023819579, 0.02806404, -133015.22, 113485.36, 0.0000066700077, 10.00135, 9.998671 
1.305164e+3, 2.8484634e+2, -800.37885, -227783.48, -87283.84, -0.021904642, 0.058097996, 28882.096, 177392.2, 0.00007506801, 10.001618, 9.998616 
1.3051729e+3, 2.948454e+2, 173215.83, -87003.766, -108806.14, 0.14943284, 0.045998517, 212715.39, 263231.03, 0.00033561388, 10.002103, 9.998675 
1.3051812e+3, 3.0484214e+2, 115926.75, -266298.56, -3074.6638, 0.120995395, -0.059362743, 115951.484, 115951.484, 0.0008838956, 10.002154, 9.997108 
1.3051905e+3, 3.1484154e+2, 204031.81, 8018.8525, -117554.914, 0.062762536, 0.11701941, 259075.73, 259075.73, 0.0016899819, 10.001669, 9.999236 
1.3150188e+3, 1.2484727e+2, -1857090.6, -1707711.8, 67561.42, -0.112261444, 0.02025907, -1681688.5, 34809.07, 0.005819013, 9.99863, 10.00068 
1.3150293e+3, 1.3484778e+2, -1673695.5, -1593259.5, 65191.33, 0.12778287, 0.001957209, -1556878.5, 61611.836, 0.0032902497, 9.99936, 10.000457 
1.3150363e+3, 1.4484768e+2, -1631880.8, -1672273.5, 54277.066, -0.093083955, 0.016911533, -1594164.3, -73672.45, 0.0013013786, 9.999618, 9.999092 
1.3150437e+3, 1.548473e+2, -1458402.9, -1537640.3, 24419.48, -0.18701516, 0.02635588, -1451481.8, -28982.61, 0.00026992275, 10.000138, 9.999096 
1.3150528e+3, 1.6484694e+2, -1355454.9, -1440260.0, 4049.915, -0.1379437, 0.09329341, -1355262.0, -30757.879, 0.00001153221, 10.000178, 9.99908 
1.3150631e+3, 1.7484653e+2, -1302738.4, -1348336.3, 14240.427, -0.008105719, 0.097967185, -1298656.5, -72148.68, 0.0, 9.999815, 9.999203 
1.3150723e+3, 1.8484573e+2, -1214898.4, -1228802.1, 777.8834, 0.0072839423, 0.0954077, -1214855.0, -86340.4, 0.0, 9.999615, 9.999452 
1.3150808e+3, 1.9484423e+2, -1116928.1, -1117676.3, 8427.547, -0.08012915, -0.044384614, -1108866.4, -78338.51, 0.0, 9.999568, 9.999562 
1.3150904e+3, 2.0484349e+2, -980141.8, -951351.2, -6933.9185, -0.058507934, -0.08779819, -949768.25, -17236.205, 0.0, 9.999609, 10.000013 
1.3151006e+3, 2.1484317e+2, -854776.9, -828813.3, 30139.898, 0.07546405, -0.1666945, -808978.3, 25552.12, 0.0, 9.99975, 10.000113 
1.3151105e+3, 2.2484298e+2, -809996.94, -943191.7, 39717.164, 0.09242272, -0.105944276, -799052.94, -62520.574, 0.0, 10.00019, 9.998441 
1.3151196e+3, 2.3484264e+2, -592214.2, -780048.06, 33036.035, 0.0052090613, -0.028405016, -586573.25, 51967.863, 0.0, 10.0009775, 9.998508 
1.315129e+3, 2.448419e+2, -474147.06, -697054.2, -49253.105, 0.0055326237, 0.066524215, -463749.22, 76802.94, 0.0, 10.001211, 9.9983 
1.3151385e+3, 2.5484058e+2, -405310.0, -601693.44, -30136.914, 0.09751906, 0.05877607, -400789.25, 41777.957, 0.0, 10.000959, 9.998405 
1.3151477e+3, 2.6483938e+2, -297500.25, -471953.53, 2949.4827, 0.06379584, 0.09434599, -297450.4, 47129.535, 0.000000066602475, 10.000919, 9.998642 
1.315156e+3, 2.7483788e+2, -168158.58, -350459.1, 26845.236, -0.11145258, 0.0388701, -164287.6, 82306.42, 0.0000067822207, 10.001099, 9.998717 
1.315165e+3, 2.8483674e+2, -36478.85, -263276.03, -83357.29, -0.11509828, 0.07510613, -9137.688, 139466.66, 0.000081610815, 10.001438, 9.9984665 
1.3151745e+3, 2.9483557e+2, 120866.95, -130022.73, -65620.92, 0.069138736, 0.04981527, 136993.69, 187608.17, 0.00036944333, 10.001817, 9.998523 
1.3151833e+3, 3.0483297e+2, 71434.95, -312111.84, -30611.531, 0.070887595, 0.033559427, 73862.74, 73862.74, 0.000976967, 10.001958, 9.996884 
1.3151932e+3, 3.1483114e+2, 165154.45, 20494.014, -65374.883, 0.10529077, 0.10250922, 190320.56, 190320.56, 0.0018699723, 10.001289, 9.9994955 
1.3250175e+3, 1.2483888e+2, -1869927.8, -1690702.5, 119190.945, -0.058536, 0.1077243, -1631194.6, 85391.77, 0.006183249, 9.998397, 10.000931 
1.3250284e+3, 1.3483946e+2, -1702274.6, -1555811.9, -46403.516, 0.12404927, 0.058424775, -1542347.6, 76228.234, 0.0035072896, 9.998956, 10.000899 
1.3250367e+3, 1.4483926e+2, -1718660.4, -1723688.3, -17523.021, 0.02644243, 0.04350728, -1703471.9, -182894.77, 0.0013982238, 9.999055, 9.999011 
1.3250437e+3, 1.5483916e+2, -1560581.9, -1592948.5, -28912.31, -0.1589102, 0.08787512, -1543631.8, -121049.8, 0.00029637254, 9.999463, 9.999037 
1.3250527e+3, 1.648387e+2, -1409430.1, -1443956.3, 13315.343, -0.12667179, 0.13473094, -1404891.5, -80304.4, 0.000014169166, 9.999712, 9.999271 
1.3250634e+3, 1.7483766e+2, -1280380.4, -1323492.6, 21955.914, 0.036097415, 0.059767805, -1271167.6, -44573.03, 0.0, 9.999886, 9.999347 
1.3250728e+3, 1.8483675e+2, -1150395.8, -1218887.3, 70637.49, 0.05519446, 0.04664681, -1106140.4, 22461.664, 0.0, 10.000152, 9.999263 
1.325081e+3, 1.9483565e+2, -971961.0, -1072532.6, 44922.492, -0.05764581, -0.032447167, -954817.7, 75794.914, 0.0, 10.000659, 9.99935 
1.3250905e+3, 2.0483485e+2, -816506.94, -880296.75, 27107.695, -0.04521464, -0.06723816, -806543.56, 126073.85, 0.0, 10.000792, 9.999922 
1.325101e+3, 2.1483408e+2, -743166.44, -782069.94, -15479.462, 0.08753731, -0.18050963, -737758.94, 96860.04, 0.0, 10.000572, 10.00003 
1.325111e+3, 2.2483379e+2, -769666.7, -936535.56, 44373.766, 0.11621841, -0.11893483, -758600.7, -21978.875, 0.0, 10.000534, 9.998322 
1.3251208e+3, 2.3483378e+2, -637627.9, -808783.8, 42247.3, 0.054680385, 0.005522437, -627767.75, 10860.481, 0.0, 10.000715, 9.998434 
1.3251305e+3, 2.4483296e+2, -477560.34, -702198.2, 13345.862, 0.05050175, 0.09984892, -476770.22, 63869.59, 0.0, 10.001205, 9.998262 
1.32514e+3, 2.5483105e+2, -254983.1, -529519.6, -2399.0789, 0.098174326, 0.035120334, -254962.13, 187697.56, 0.0, 10.002002, 9.998389 
1.3251491e+3, 2.6482967e+2, -166149.14, -406202.6, 34306.74, 0.071481965, 0.052242253, -161342.5, 183331.06, 0.0000000978673, 10.001827, 9.998644 
1.3251576e+3, 2.7482843e+2, -226812.89, -374006.06, 12029.058, -0.038300674, 0.021944622, -225836.33, 20848.686, 0.000006920427, 10.0006895, 9.998742 
1.3251667e+3, 2.8482717e+2, -184947.3, -341536.6, -15869.441, -0.036002748, 0.05074394, -183355.2, -34658.395, 0.000086783395, 10.000476, 9.998389 
1.3251762e+3, 2.948256e+2, 53457.727, -172592.47, -41723.145, 0.090494394, -0.0013115559, 60912.89, 111625.125, 0.0003950438, 10.001405, 9.99843 
1.3251851e+3, 3.048238e+2, 95669.45, -279258.66, 29869.75, 0.07276575, 0.055330783, 98034.195, 98034.195, 0.0010503886, 10.002053, 9.997054 
1.3251959e+3, 3.1482187e+2, 328511.0, 128789.7, -32283.072, 0.21309899, 0.10000608, 333599.63, 333599.63, 0.0020140882, 10.00228, 9.999759 
1.3350166e+3, 1.2482913e+2, -1874219.4, -1695057.4, 18307.047, -0.082524985, 0.13935505, -1693205.9, 23478.477, 0.0065457188, 9.998382, 10.000905 
1.3350245e+3, 1.3482961e+2, -1718381.5, -1586450.1, -24476.201, -0.18219548, 0.09747303, -1582055.6, 36621.934, 0.0037237175, 9.998942, 10.000694 
1.3350363e+3, 1.4482984e+2, -1661779.3, -1618785.9, -26608.455, 0.032774877, 0.100891985, -1606075.6, -85401.02, 0.0014951822, 9.999099, 9.999718 
1.3350455e+3, 1.5483e+2, -1510604.0, -1492454.6, 3869.4053, 0.04242502, 0.10290147, -1491664.1, -68989.945, 0.00032323142, 9.999464, 9.999733 
1.3350545e+3, 1.6482927e+2, -1372088.9, -1360817.0, -678.0297, 0.03511006, 0.06123263, -1360776.4, -36097.684, 0.000017128494, 9.999689, 9.999853 
1.3350622e+3, 1.7482755e+2, -1248305.9, -1241512.5, 43378.254, -0.08986452, -0.14349283, -1201398.1, 25291.236, 0.00000000003443261, 9.999823, 9.999937 
1.3350715e+3, 1.848273e+2, -1174064.4, -1255530.9, 70093.84, -0.12215111, -0.10911525, -1133727.6, -5037.562, 0.0, 10.00009, 9.999047 
1.3350827e+3, 1.9482818e+2, -1005150.56, -1114280.6, 79325.945, 0.0004877733, 0.03260344, -963435.06, 67249.62, 0.0, 10.000532, 9.999128 
1.3350925e+3, 2.0482813e+2, -894269.1, -997408.44, -425.90695, 0.042608827, 0.11767933, -894267.4, 38418.23, 0.0, 10.000603, 9.999211 
1.3351007e+3, 2.1482682e+2, -827796.1, -906054.5, -5908.7534, -0.022118995, 0.024669375, -827352.5, 7342.8887, 0.0, 10.000346, 9.999293 
1.33511e+3, 2.2482568e+2, -775951.2, -895541.25, 37610.715, -0.048342712, 0.020097947, -765106.2, -28400.6, 0.0, 10.000298, 9.9987135 
1.3351214e+3, 2.3482448e+2, -642705.56, -768538.44, 68709.414, -0.0014163762, -0.01867202, -612458.4, 26260.145, 0.0, 10.000489, 9.998818 
1.3351315e+3, 2.448232e+2, -512470.72, -716212.9, 26052.65, 0.01237097, 0.0051703784, -509192.13, 31540.018, 0.0, 10.000963, 9.998277 
1.335141e+3, 2.5482142e+2, -292746.56, -549334.25, 46185.977, -0.011246892, -0.04496853, -284686.25, 158064.19, 0.0, 10.001755, 9.998368 
1.3351505e+3, 2.6482016e+2, -208354.3, -441821.0, -25329.62, -0.00019311313, -0.0064903134, -205637.8, 139125.63, 0.00000008871969, 10.001601, 9.998509 
1.3351594e+3, 2.748191e+2, -269791.56, -403944.47, -10608.682, 0.043814078, -0.014571186, -268957.8, -22183.969, 0.000006673535, 10.0004425, 9.9986515 
1.3351683e+3, 2.848176e+2, -216795.66, -367921.16, -2714.6438, 0.05357217, 0.00027779, -216746.9, -67958.51, 0.00008871381, 10.0003, 9.998295 
1.3351776e+3, 2.948155e+2, 12766.138, -204374.69, 18022.404, 0.03857261, -0.09507141, 14251.809, 65061.152, 0.00040777776, 10.001176, 9.998326 
1.3351862e+3, 3.048147e+2, 109439.984, -205509.03, 28490.771, -0.048496358, 0.037572175, 111996.55, 111996.55, 0.0010944809, 10.0018635, 9.997646 
1.3351977e+3, 3.148133e+2, 274478.88, 118357.43, 64544.93, 0.09075918, 0.071513474, 297707.47, 297707.47, 0.002108087, 10.001842, 9.999901 
1.3450159e+3, 1.2481964e+2, -1913867.0, -1736551.0, 42419.902, 0.036122344, 0.13103326, -1726925.3, -10148.996, 0.0069055543, 9.998224, 10.000685 
1.3450234e+3, 1.3482001e+2, -1731022.8, -1615574.4, 30559.723, -0.18060938, 0.10118071, -1607984.1, 10788.546, 0.0039389143, 9.998982, 10.0004635 
1.3450359e+3, 1.448204e+2, -1639593.5, -1563865.1, 33697.484, 0.087204844, 0.11383959, -1551041.9, -30273.455, 0.0015916337, 9.99907, 10.000111 
1.3450457e+3, 1.5482067e+2, -1524248.8, -1454196.9, 4682.983, 0.1398435, 0.08895444, -1453885.1, -31119.973, 0.0003501717, 9.999185, 10.000132 
1.3450548e+3, 1.6482022e+2, -1403338.1, -1378330.3, 11182.817, 0.11916397, 0.054680053, -1374059.1, -49292.297, 0.000020254476, 9.999475, 9.999845 
1.3450621e+3, 1.7481883e+2, -1232542.9, -1232265.9, -28576.92, -0.081582144, -0.112143815, -1203827.1, 22948.283, 0.0000000014653116, 9.99993, 9.999948 
1.3450713e+3, 1.848187e+2, -1176502.9, -1241275.0, 14039.982, -0.118718565, -0.076072834, -1173590.5, -44815.383, 0.0, 9.999997, 9.999187 
1.3450833e+3, 1.9481947e+2, -1108478.8, -1147211.0, 16459.066, 0.050113678, 0.040040087, -1102429.4, -71660.055, 0.0, 9.999751, 9.999276 
1.3450933e+3, 2.0481917e+2, -1001610.2, -1106597.9, 4523.367, 0.10034739, 0.119892366, -1001415.6, -68642.71, 0.0, 10.0000925, 9.998708 
1.3451016e+3, 2.1481754e+2, -753422.06, -920800.25, -24693.133, 0.0008447664, 0.039402965, -749855.1, 84933.44, 0.0, 10.001067, 9.998836 
1.345111e+3, 2.2481628e+2, -608012.94, -790951.94, 36757.242, -0.03664768, 0.03523469, -600903.7, 135896.22, 0.0, 10.001353, 9.998928 
1.345122e+3, 2.3481515e+2, -560412.0, -698468.0, 23820.957, 0.015178286, -0.016191892, -556417.4, 82391.914, 0.0, 10.000937, 9.999081 
1.3451326e+3, 2.4481381e+2, -561941.75, -742459.6, 22345.984, 0.03758689, -0.008326854, -559216.75, -18394.277, 0.0, 10.000639, 9.9982605 
1.3451426e+3, 2.5481194e+2, -483469.4, -640573.56, 4629.406, 0.024422819, -0.06640073, -483333.1, -40490.29, 0.0, 10.000455, 9.998373 
1.345152e+3, 2.6481083e+2, -349728.75, -511671.03, -47020.867, 0.048824012, -0.012313156, -337066.1, 7788.8467, 0.000000062099474, 10.00064, 9.998494 
1.3451609e+3, 2.7481002e+2, -147435.42, -349810.72, -67332.83, 0.11839279, 0.011346947, -127080.28, 119782.47, 0.0000065347235, 10.001285, 9.998624 
1.34517e+3, 2.8480843e+2, 8042.551, -277116.78, 20951.158, 0.122186504, 0.023709495, 9573.648, 158451.98, 0.00008986311, 10.001903, 9.998151 
1.3451794e+3, 2.9480612e+2, 203625.6, -114872.37, -9698.667, 0.053790558, -0.08096056, 203920.66, 254821.77, 0.00041373618, 10.002505, 9.998294 
1.3451882e+3, 3.0480537e+2, 220626.2, -105845.336, -8191.1035, -0.0546175, 0.03314978, 220831.6, 220831.6, 0.001115336, 10.002387, 9.998094 
1.3451996e+3, 3.1480372e+2, 201511.39, 86997.125, -32758.05, 0.16224568, -0.005157549, 210219.92, 210219.92, 0.0021558118, 10.001316, 9.999924 
1.3550125e+3, 1.2481012e+2, -1943407.9, -1794018.9, -62574.24, -0.19893962, 0.023582252, -1771272.1, -54407.14, 0.0072628423, 9.998227, 10.000287 
1.3550246e+3, 1.348108e+2, -1759397.6, -1667471.0, 66709.18, 0.0077381562, 0.0623458, -1632423.5, -13563.57, 0.004152666, 9.998963, 10.000116 
1.3550347e+3, 1.44811e+2, -1649136.9, -1571678.6, 12010.6, 0.020909691, 0.08019383, -1569859.1, -49000.832, 0.0016872559, 9.9990225, 10.000075 
1.3550438e+3, 1.5481122e+2, -1523609.4, -1453444.6, 26465.049, -0.0057412367, 0.04587762, -1444581.9, -21726.834, 0.0003769789, 9.999183, 10.000138 
1.3550533e+3, 1.6481143e+2, -1440848.9, -1458455.6, 6324.7393, -0.0130754635, 0.10316587, -1438812.5, -113959.766, 0.000023370363, 9.999478, 9.999295 
1.3550626e+3, 1.7481135e+2, -1283241.3, -1323258.6, 3860.0327, -0.06292493, 0.1243097, -1282872.4, -56017.918, 0.0000000068048798, 9.999864, 9.999358 
1.3550721e+3, 1.8481082e+2, -1159380.9, -1179174.6, -13381.596, -0.084131725, 0.12979162, -1152634.0, -23776.076, 0.0, 9.999892, 9.99966 
1.3550822e+3, 1.9480951e+2, -1093783.0, -1085950.8, 25651.154, -0.044522528, -0.013049495, -1063918.5, -33052.387, 0.0, 9.9996195, 9.999759 
1.3550927e+3, 2.0480807e+2, -1050084.4, -1165361.6, 21088.764, -0.011134789, -0.056873247, -1046347.56, -113468.91, 0.0, 9.999914, 9.998388 
1.355103e+3, 2.1480621e+2, -813348.5, -989076.56, 26307.893, 0.02174426, -0.12683445, -809494.5, 25404.0, 0.0, 10.000822, 9.998486 
1.3551131e+3, 2.2480549e+2, -643872.3, -798011.6, -24.21185, 0.013713074, -0.062361542, -643872.3, 93033.125, 0.0, 10.001068, 9.999013 
1.3551228e+3, 2.3480576e+2, -590814.94, -701908.9, 24600.768, -0.032943886, 0.013049607, -585611.06, 53289.824, 0.0, 10.000685, 9.999176 
1.3551329e+3, 2.4480489e+2, -602562.56, -768100.1, -2993.33, -0.016098164, 0.06704152, -602508.44, -61598.195, 0.0, 10.000385, 9.998208 
1.3551435e+3, 2.5480253e+2, -519700.72, -661051.56, 17200.098, 0.057910964, -0.037538894, -517637.88, -74700.62, 0.0, 10.000222, 9.998345 
1.3551532e+3, 2.6480138e+2, -376576.44, -520540.25, -40590.133, 0.07230986, 0.014523464, -365920.84, -20970.533, 0.000000036385206, 10.000434, 9.998535 
1.3551617e+3, 2.7480114e+2, -182242.88, -366623.4, -19816.809, 0.03956255, 0.09200587, -180137.05, 66815.36, 0.0000068750182, 10.001049, 9.998623 
1.3551712e+3, 2.8479978e+2, -38076.53, -321841.38, 25742.875, 0.0053088292, 0.13415717, -35760.07, 113205.41, 0.00009120505, 10.001687, 9.997945 
1.3551813e+3, 2.947971e+2, 142169.78, -169848.17, 38718.277, -0.042494062, 0.015267677, 146902.55, 197893.39, 0.00041573873, 10.00219, 9.998072 
1.3551904e+3, 3.0479544e+2, 198220.13, -75766.79, -62194.58, -0.1011013, 0.03696514, 211677.23, 211677.23, 0.0011165407, 10.002086, 9.998435 
1.3552012e+3, 3.1479263e+2, 110577.125, 5877.058, -6310.9673, 0.095963985, -0.15246652, 110956.16, 110956.16, 0.0021572434, 10.000884, 9.999563 
1.3650101e+3, 1.2480057e+2, -1869757.5, -1769621.5, -29105.201, -0.26489064, -0.0049961475, -1761776.5, -44820.65, 0.0076198755, 9.998747, 10.000211 
1.3650246e+3, 1.3480093e+2, -1806076.8, -1725608.5, 192.08678, 0.14209351, 0.021707717, -1725608.0, -106653.38, 0.004366158, 9.998745, 9.999844 
1.3650334e+3, 1.4480086e+2, -1691790.8, -1607244.9, 224.14516, 0.0032490822, 0.035424907, -1607244.3, -86288.336, 0.0017823466, 9.998788, 9.999939 
1.365043e+3, 1.5480103e+2, -1440512.8, -1425499.1, -25466.732, -0.024848063, 0.008181704, -1406455.9, 16497.611, 0.0004035849, 9.999814, 10.000014 
1.365053e+3, 1.6480137e+2, -1367593.6, -1434295.8, -23355.977, 0.0000034079935, 0.08951055, -1360228.6, -35277.813, 0.000026350568, 10.000023, 9.999202 
1.3650626e+3, 1.7480168e+2, -1353781.0, -1363637.8, -30422.127, -0.006141011, 0.15715252, -1327890.6, -100940.31, 0.000000016360648, 9.999409, 9.999302 
1.3650723e+3, 1.8480119e+2, -1250199.9, -1209097.5, 3783.6294, -0.016355062, 0.16533498, -1208752.1, -79798.5, 0.0, 9.999228, 9.999767 
1.3650821e+3, 1.9479957e+2, -1090046.9, -1062614.1, -21762.152, -0.011040679, -0.022327699, -1050606.4, -19642.295, 0.0, 9.999584, 9.99992 
1.3650928e+3, 2.0479813e+2, -1034233.7, -1148876.1, 31530.18, 0.016021548, -0.081762746, -1026134.2, -93158.3, 0.0, 9.999968, 9.998488 
1.365104e+3, 2.1479657e+2, -870350.5, -1006749.4, 37030.35, 0.064119786, -0.12894699, -860945.7, -25953.85, 0.0, 10.000373, 9.998592 
1.3651143e+3, 2.2479576e+2, -712008.06, -845706.1, 31455.482, 0.058865044, -0.07356877, -704977.2, 32022.316, 0.0, 10.000664, 9.998878 
1.3651237e+3, 2.3479547e+2, -582547.7, -720072.2, -3775.885, -0.010185927, -0.038124304, -582444.1, 56556.855, 0.0, 10.000821, 9.998994 
1.3651338e+3, 2.4479485e+2, -516596.4, -698032.06, 6157.661, 0.012275481, 0.03687311, -516387.66, 24620.547, 0.0, 10.000857, 9.998458 
1.3651447e+3, 2.5479358e+2, -411384.53, -578955.9, 7259.9336, 0.11892626, 0.017276384, -411070.6, 31953.742, 0.0, 10.000836, 9.9986105 
1.3651547e+3, 2.6479235e+2, -293418.9, -516684.22, 14809.701, 0.1499171, 0.062445335, -292440.8, 52597.42, 0.000000033203506, 10.001167, 9.998208 
1.3651636e+3, 2.7479082e+2, -66828.586, -340981.56, -29192.81, 0.101895735, 0.04145407, -63754.504, 183298.66, 0.0000069323874, 10.001983, 9.9983425 
1.3651732e+3, 2.8478923e+2, -13991.92, -286892.78, 21119.313, 0.05497505, 0.06765451, -12367.206, 136700.44, 0.00008948749, 10.001785, 9.998123 
1.3651833e+3, 2.9478753e+2, -63345.875, -239408.4, 20876.357, 0.016670212, 0.026638912, -60904.35, -9821.833, 0.00040625758, 10.000669, 9.998315 
1.3651925e+3, 3.0478585e+2, 22482.434, -173304.22, -10845.116, -0.022357333, 0.03670362, 23081.34, 23081.34, 0.0010893871, 10.00093, 9.99834 
1.3652034e+3, 3.1478304e+2, 294575.78, 37310.434, -44776.813, 0.1795204, -0.122250736, 302146.38, 302146.38, 0.00210587, 10.002348, 9.999123 
1.375012e+3, 1.2479071e+2, -1864367.4, -1749776.5, 115965.61, -0.047250163, 0.011117904, -1677724.4, 39327.355, 0.0079810945, 9.998733, 10.0003395 
1.3750227e+3, 1.3479032e+2, -1814347.0, -1744724.3, 1614.7633, 0.04029441, -0.026606457, -1744686.9, -125629.82, 0.0045821774, 9.998749, 9.999704 
1.3750313e+3, 1.4479005e+2, -1706477.9, -1641588.5, 7575.127, -0.12887128, -0.01591509, -1640715.9, -119655.414, 0.0018779465, 9.9988, 9.9997015 
1.375043e+3, 1.5479012e+2, -1460068.8, -1466397.3, 30997.377, -0.050166875, -0.02854221, -1432074.5, -9014.028, 0.00043006244, 9.999806, 9.999743 
1.3750535e+3, 1.6479011e+2, -1343695.6, -1381653.5, -66545.82, 0.0035698425, 0.01552867, -1293475.3, 31585.479, 0.000029160963, 10.000006, 9.999575 
1.375062e+3, 1.7479e+2, -1328355.1, -1306292.1, -35813.293, -0.048025906, -0.0014047477, -1279849.8, -52788.21, 0.000000027808229, 9.999376, 9.999718 
1.3750714e+3, 1.8478991e+2, -1274058.9, -1245494.1, -2876.402, -0.061323352, 0.03796844, -1245207.4, -116145.766, 0.0, 9.999181, 9.999536 
1.3750823e+3, 1.9478947e+2, -1130295.0, -1115623.6, 4513.239, 0.014314509, -0.0046550306, -1114346.5, -83281.46, 0.0, 9.999454, 9.999622 
1.3750932e+3, 2.047891e+2, -1015410.0, -1069742.0, 28265.186, 0.027559994, 0.031440567, -1003372.56, -70305.914, 0.0, 9.999796, 9.999116 
1.3751037e+3, 2.1478863e+2, -862403.3, -934447.6, 70146.73, -0.01807308, 0.027446864, -819570.2, 15498.198, 0.0, 10.000131, 9.999209 
1.3751142e+3, 2.247872e+2, -783634.56, -924834.3, 20690.795, -0.050641812, 0.009516006, -780665.06, -43584.1, 0.0, 10.000374, 9.998471 
1.3751242e+3, 2.3478441e+2, -656800.8, -803312.9, 21419.367, -0.064266615, -0.16115203, -653733.6, -14625.229, 0.0, 10.000529, 9.998556 
1.3751346e+3, 2.447837e+2, -520666.78, -649936.5, -16288.196, -0.024639348, -0.09211726, -518646.03, 22470.06, 0.0, 10.000604, 9.998915 
1.3751453e+3, 2.5478518e+2, -410599.13, -526225.75, 22663.27, 0.075721316, 0.10872497, -406315.72, 36788.035, 0.0, 10.000613, 9.999083 
1.375156e+3, 2.6478383e+2, -365483.7, -622720.06, 27772.406, 0.13698801, 0.1523549, -362519.4, -17401.514, 0.000000022673568, 10.000976, 9.997571 
1.3751665e+3, 2.7477905e+2, -148549.27, -453362.44, 22019.006, 0.15439151, -0.13186155, -146966.88, 100198.43, 0.0000066245593, 10.001743, 9.997684 
1.375176e+3, 2.847769e+2, 5090.462, -214165.42, -39349.45, 0.11848981, -0.15772703, 11938.547, 161123.6, 0.00008473701, 10.001629, 9.998702 
1.3751845e+3, 2.9477757e+2, -54350.383, -167647.6, 2662.617, 0.046789896, -0.023241682, -54287.84, -3112.6274, 0.00038290335, 10.000435, 9.998925 
1.375194e+3, 3.047765e+2, -45968.055, -270285.38, 30540.402, -0.0015691936, 0.042718686, -41884.375, -41884.375, 0.0010283956, 10.000743, 9.997751 
1.3752054e+3, 3.1477445e+2, 179920.8, -74741.336, 77795.37, 0.07894652, 0.02097434, 201805.42, 201805.42, 0.0019973381, 10.001843, 9.99857 
1.3850106e+3, 1.24780014e+2, -1933192.9, -1729392.9, 104883.61, 0.0055257473, 0.07054137, -1685059.6, 32099.494, 0.008351057, 9.998036, 10.000823 
1.3850203e+3, 1.3477995e+2, -1784582.4, -1650603.6, -55982.867, -0.043886174, 0.0014201722, -1630290.9, -11131.738, 0.004803759, 9.998622, 10.00042 
1.3850307e+3, 1.4478007e+2, -1700503.9, -1609751.1, 68119.94, -0.039036147, 0.0037645318, -1573278.0, -52120.688, 0.0019753822, 9.998712, 9.99997 
1.3850428e+3, 1.5478031e+2, -1516004.6, -1459685.1, 91006.61, -0.016846525, -0.02032276, -1392581.1, 30573.771, 0.00045665295, 9.999282, 10.000045 
1.3850534e+3, 1.6478021e+2, -1381868.1, -1387285.9, 13877.609, 0.010089822, -0.0050202277, -1370437.5, -45282.395, 0.00003186285, 9.999728, 9.999652 
1.3850619e+3, 1.7477968e+2, -1214108.5, -1239662.1, -22657.727, -0.029901177, -0.07303663, -1200873.4, 26285.477, 0.000000039188958, 10.000137, 9.999797 
1.3850714e+3, 1.8477942e+2, -1145257.8, -1264762.4, 30306.916, -0.02125351, -0.021238293, -1138011.1, -8849.289, 0.0, 10.000382, 9.998845 
1.3850826e+3, 1.947792e+2, -996624.75, -1122209.9, -18762.168, 0.057499114, 0.026984796, -993881.6, 37285.16, 0.0, 10.000656, 9.999007 
1.3850938e+3, 2.0477888e+2, -874194.7, -992019.2, 4791.2046, 0.06933786, 0.092282645, -874000.2, 59169.023, 0.0, 10.000736, 9.999187 
1.3851045e+3, 2.1477814e+2, -764701.9, -870905.75, -31362.773, 0.012567154, 0.051402934, -756131.8, 79039.74, 0.0, 10.000744, 9.99934 
1.385115e+3, 2.247766e+2, -742205.8, -898825.75, -54850.316, -0.01949611, 0.010238868, -724907.1, 12277.126, 0.0, 10.000607, 9.998549 
1.3851249e+3, 2.3477386e+2, -658126.94, -794385.3, -48381.31, -0.027665593, -0.16075324, -642695.75, -3484.5244, 0.0, 10.000458, 9.998663 
1.3851352e+3, 2.4477313e+2, -509889.5, -624356.75, -25677.584, 0.004265727, -0.11167449, -504393.34, 36825.348, 0.0, 10.000592, 9.999088 
1.385146e+3, 2.5477433e+2, -323653.88, -466543.2, -52070.15, 0.06765525, 0.047406595, -306692.44, 136514.72, 0.0, 10.00112, 9.9992485 
1.3851568e+3, 2.6477304e+2, -295803.38, -598230.6, 4179.8335, 0.1186797, 0.090656936, -295745.63, 49474.977, 0.0000000049794013, 10.00149, 9.997496 
1.3851681e+3, 2.747687e+2, -144600.42, -462631.16, 2494.793, 0.15182854, -0.13815111, -144580.84, 102684.07, 0.0000064670485, 10.001791, 9.997609 
1.3851781e+3, 2.8476658e+2, 25483.943, -242059.58, -71278.49, 0.15574525, -0.13988194, 43288.92, 192574.75, 0.00007994395, 10.001918, 9.998392 
1.3851866e+3, 2.9476663e+2, 164845.52, -86592.25, -137820.8, 0.14157046, -0.035330858, 225673.7, 276957.2, 0.00035496187, 10.002036, 9.998718 
1.3851963e+3, 3.047649e+2, 181325.67, -191914.95, -45688.984, 0.09069023, -0.014115742, 186837.14, 186837.14, 0.00095268304, 10.002428, 9.997479 
1.3852073e+3, 3.1476307e+2, 328026.2, -2779.3062, -31517.621, 0.069247894, 0.011464286, 331002.28, 331002.28, 0.001860375, 10.002823, 9.998594 
1.3950066e+3, 1.24767385e+2, -1878227.4, -1604829.6, -98435.586, -0.27745152, 0.08708788, -1573076.3, 144212.17, 0.008733579, 9.998012, 10.001684 
1.395017e+3, 1.3476965e+2, -1674397.6, -1416813.1, -34185.934, -0.26009476, 0.08761764, -1412353.3, 206909.25, 0.005033633, 9.998601, 10.002036 
1.3950317e+3, 1.4477101e+2, -1640835.4, -1488948.8, 59294.605, 0.11535676, 0.08759241, -1468542.5, 52703.297, 0.002076125, 9.998726, 10.0007925 
1.3950418e+3, 1.5477164e+2, -1465603.3, -1347012.0, 130109.195, -0.087558605, 0.024735913, -1263323.8, 159912.67, 0.00048381835, 9.999248, 10.000834 
1.3950521e+3, 1.6477153e+2, -1404610.5, -1433069.3, 5703.9355, -0.14313163, 0.012238504, -1403509.9, -78274.44, 0.000034571214, 9.999722, 9.999343 
1.3950619e+3, 1.747704e+2, -1254931.9, -1304121.9, 4753.5273, -0.074340865, -0.075882554, -1254476.8, -27231.252, 0.00000005013657, 10.000051, 9.999399 
1.395072e+3, 1.8476965e+2, -1211913.9, -1391488.8, 17261.31, -0.045237333, -0.012421455, -1210269.6, -81014.3, 0.0, 10.000333, 9.997997 
1.3950829e+3, 1.94769e+2, -1080730.6, -1265629.3, 6818.0444, -0.023826437, 0.08137542, -1080479.5, -49211.88, 0.0, 10.000517, 9.998095 
1.395094e+3, 2.047676e+2, -929701.5, -1070597.4, -13387.342, -0.0059831496, 0.110443786, -928440.8, 4841.2715, 0.0, 10.000576, 9.998723 
1.3951053e+3, 2.1476512e+2, -835395.44, -959509.56, -15396.415, 0.011049945, -0.05771061, -833514.06, 1787.0569, 0.0, 10.000495, 9.99885 
1.3951159e+3, 2.2476394e+2, -726058.9, -819381.94, -76011.695, -0.0035192997, -0.067867294, -683529.2, 53780.254, 0.0, 10.000393, 9.999201 
1.3951255e+3, 2.34764e+2, -642676.25, -713721.8, -32917.805, -0.03775981, -0.03434234, -629769.2, 9538.98, 0.0, 10.000236, 9.999327 
1.3951357e+3, 2.4476324e+2, -557868.94, -664041.7, -23581.89, -0.05168088, -0.014359736, -552866.9, -11552.332, 0.0, 10.000339, 9.998938 
1.3951463e+3, 2.547612e+2, -380614.88, -515822.88, -13654.283, -0.035063118, -0.16112469, -379249.75, 64083.758, 0.0, 10.0008335, 9.9990425 
1.3951571e+3, 2.6476008e+2, -300964.44, -558539.8, -1586.217, -0.03180727, -0.109291725, -300954.66, 44391.04, 0.0000000011462398, 10.0012665, 9.997879 
1.3951683e+3, 2.7475986e+2, -153768.4, -423370.47, 34576.83, -0.033912342, 0.031439587, -149404.52, 97947.24, 0.0000063015364, 10.001534, 9.998007 
1.3951789e+3, 2.8475836e+2, -93886.305, -430877.47, -84377.91, 0.017242821, 0.13164176, -73939.875, 75429.53, 0.000075522126, 10.00167, 9.99721 
1.395189e+3, 2.9475486e+2, 31877.4, -293352.16, -106572.02, 0.13457234, 0.0044934163, 63687.836, 115093.5, 0.00033164787, 10.001747, 9.997435 
1.3951991e+3, 3.0475125e+2, 153103.77, -198489.63, -46588.977, 0.10242571, -0.09574742, 159172.44, 159172.44, 0.0008920203, 10.002203, 9.997543 
1.3952088e+3, 3.1474975e+2, 294745.5, 55605.895, 36944.477, -0.13075075, -0.055378057, 300322.94, 300322.94, 0.0017485601, 10.002301, 9.99924 
1.4050066e+3, 1.24756746e+2, -1937946.3, -1677196.8, 24654.86, -0.043802455, 0.08729005, -1674886.0, 42505.246, 0.009133226, 9.997761, 10.001306 
1.4050159e+3, 1.3475874e+2, -1714787.5, -1469528.3, -15740.024, -0.22532168, 0.085735746, -1468522.3, 150846.47, 0.005275387, 9.998444, 10.001752 
1.40503e+3, 1.4475986e+2, -1643425.6, -1466313.4, 19627.629, 0.11094744, 0.062329467, -1464164.4, 57190.035, 0.0021822979, 9.998615, 10.000998 
1.405041e+3, 1.5476087e+2, -1539081.8, -1362724.4, 272.5707, -0.03494165, 0.021029953, -1362724.0, 60616.688, 0.00051218417, 9.998666, 10.001005 
1.405052e+3, 1.6476089e+2, -1518678.0, -1498398.5, -83404.6, -0.08775125, 0.019928256, -1424519.5, -99181.516, 0.000037386584, 9.998965, 9.999263 
1.4050621e+3, 1.7475975e+2, -1277353.3, -1314069.5, -96655.516, -0.0486809, -0.07105202, -1197327.9, 30020.713, 0.00000006103049, 9.999887, 9.999406 
1.4050724e+3, 1.847588e+2, -1194886.8, -1382915.9, -12370.052, -0.028115524, -0.026871216, -1194076.4, -64716.53, 0.0, 10.000462, 9.997988 
1.4050835e+3, 1.9475782e+2, -1036023.3, -1240278.6, 2970.2754, -0.018010622, 0.030006444, -1035980.1, -4605.4556, 0.0, 10.000814, 9.99812 
1.4050949e+3, 2.0475632e+2, -891187.2, -1055410.4, 54064.52, 0.015836276, 0.047450602, -874986.6, 58403.24, 0.0, 10.000851, 9.998704 
1.4051065e+3, 2.1475399e+2, -795617.06, -934211.1, 51583.055, 0.06311994, -0.105640694, -778526.06, 56881.848, 0.0, 10.000744, 9.998906 
1.4051169e+3, 2.2475296e+2, -710896.6, -830417.4, 15606.935, 0.057060234, -0.09456473, -708892.25, 28523.08, 0.0, 10.000595, 9.999019 
1.4051262e+3, 2.3475309e+2, -620585.56, -714175.06, -42965.414, -0.001967837, -0.03582252, -603852.56, 35561.188, 0.0, 10.000451, 9.999208 
1.4051363e+3, 2.4475206e+2, -542061.9, -692282.2, -10829.128, -0.011971319, -0.021854011, -541285.25, 138.13437, 0.0, 10.000593, 9.998628 
1.4051478e+3, 2.5474945e+2, -359551.34, -532731.06, -40746.805, 0.021820994, -0.19436434, -350443.22, 93005.266, 0.0, 10.001102, 9.998795 
1.4051588e+3, 2.6474845e+2, -259365.81, -496495.03, -6912.7407, 0.012832402, -0.13619491, -259164.47, 86295.4, 0.0000000047036606, 10.001377, 9.998249 
1.4051697e+3, 2.747492e+2, -137556.81, -365762.03, -19596.668, -0.036866803, 0.062942035, -135886.22, 111570.21, 0.000006310061, 10.001456, 9.998429 
1.4051802e+3, 2.8474802e+2, -111766.15, -477270.66, -66723.52, 0.0022275187, 0.18947768, -99966.57, 49505.13, 0.00007178299, 10.0017, 9.996873 
1.4051908e+3, 2.94744e+2, 44563.797, -332379.34, -60020.227, 0.14302027, 0.047910962, 53890.004, 105404.836, 0.0003183702, 10.002018, 9.99704 
1.4052019e+3, 3.047405e+2, 158268.33, -198423.17, 73317.98, 0.16219182, -0.020948734, 172750.81, 172750.81, 0.0008620041, 10.0022545, 9.997514 
1.405212e+3, 3.1473866e+2, 344162.84, 119548.195, 68340.94, -0.035174083, -0.015021816, 363321.94, 363321.94, 0.0016920328, 10.002451, 9.999616 
1.4150055e+3, 1.2474799e+2, -2029131.0, -1876132.4, -61470.31, -0.02560152, 0.032772563, -1854495.4, -137027.13, 0.009556688, 9.997792, 9.999932 
1.415016e+3, 1.3474739e+2, -1875575.9, -1792855.4, 24038.234, -0.07597536, -0.004256738, -1786377.4, -166901.4, 0.0055341963, 9.998408, 9.999547 
1.4150256e+3, 1.4474659e+2, -1670023.5, -1530628.6, -3950.2703, -0.24014717, -0.088354014, -1530516.8, -9033.169, 0.0022969088, 9.998653, 10.000537 
1.4150405e+3, 1.5474793e+2, -1579746.8, -1443206.4, 16473.0, 0.0045207976, -0.040131528, -1441247.0, -17779.201, 0.0005425403, 9.998648, 10.000463 
1.4150524e+3, 1.6474849e+2, -1489400.3, -1442156.8, -74890.32, 0.028236846, 0.020257628, -1387251.1, -61790.11, 0.000040406845, 9.998981, 9.999647 
1.4150618e+3, 1.7474799e+2, -1263555.6, -1264129.4, -45650.066, -0.09359991, -0.041935414, -1218191.5, 9274.006, 0.00000007226826, 9.999795, 9.999801 
1.4150724e+3, 1.8474714e+2, -1146435.3, -1266762.1, -18089.043, -0.12208403, -0.04811185, -1143774.8, -14301.126, 0.0, 10.000398, 9.998813 
1.4150842e+3, 1.9474562e+2, -1001524.2, -1138597.6, 29911.127, -0.059739936, -0.1251977, -995281.5, 36207.195, 0.0, 10.000684, 9.998883 
1.4150958e+3, 2.0474486e+2, -876855.06, -989924.06, 26107.295, -0.009608965, -0.09660962, -871118.0, 62376.402, 0.0, 10.00069, 9.999231 
1.4151073e+3, 2.147447e+2, -800653.8, -885603.56, 62340.156, 0.044192094, -0.08508684, -767693.9, 67798.69, 0.0, 10.000482, 9.999372 
1.4151175e+3, 2.2474353e+2, -815409.6, -985131.3, -11097.853, 0.0294563, -0.06788623, -814687.0, -77183.945, 0.0, 10.00033, 9.998081 
1.4151263e+3, 2.3474105e+2, -732093.9, -884615.56, -32508.217, -0.052651063, -0.16784643, -725454.2, -85925.055, 0.0, 10.0001955, 9.998159 
1.4151369e+3, 2.4473965e+2, -593500.7, -757307.06, -6765.3213, -0.039766077, -0.11847539, -593221.75, -51677.074, 0.0, 10.000402, 9.998273 
1.4151497e+3, 2.547391e+2, -410399.8, -596629.0, -1404.1626, 0.08451511, -0.05417906, -410389.22, 33162.758, 0.0, 10.000914, 9.998447 
1.4151613e+3, 2.6473817e+2, -273184.6, -473053.16, -21703.725, 0.101529755, 0.013908062, -270854.94, 74708.05, 0.000000079284355, 10.001157, 9.998514 
1.4151718e+3, 2.747366e+2, -160889.66, -352295.8, 7071.9023, -0.008410557, -0.04298542, -160628.73, 86951.086, 0.000007370644, 10.00119, 9.9986515 
1.4151818e+3, 2.847354e+2, -99948.22, -403273.6, -71099.49, -0.05618612, 0.040957518, -84109.53, 65484.668, 0.00007207351, 10.001486, 9.997482 
1.4151919e+3, 2.9473394e+2, 43957.395, -272959.78, -22797.697, 0.007678974, 0.08946116, 45588.965, 97201.44, 0.00031938194, 10.00175, 9.997581 
1.4152038e+3, 3.0473217e+2, 94019.74, -263342.4, 69998.44, 0.105420314, 0.1878405, 107241.52, 107241.52, 0.00086451345, 10.0019865, 9.997178 
1.415216e+3, 3.1472954e+2, 251087.05, 58324.93, 122347.125, 0.07068136, 0.13891947, 310456.2, 310456.2, 0.0016914787, 10.001926, 9.999422 
1.4250034e+3, 1.24736585e+2, -1861417.6, -1832996.5, -80101.22, -0.059118602, -0.055717632, -1765855.0, -48278.426, 0.010011913, 9.99914, 9.999578 
1.4250167e+3, 1.3473581e+2, -1767594.5, -1811702.6, -40126.316, 0.091567814, -0.034092207, -1743861.0, -124274.16, 0.0058154534, 9.9994955, 9.998886 
1.4250246e+3, 1.4473449e+2, -1599123.1, -1546764.6, 10240.164, -0.24140798, -0.115071416, -1544833.1, -23232.893, 0.002423067, 9.999362, 10.00008 
1.4250396e+3, 1.547351e+2, -1617612.4, -1509819.0, -11345.009, 0.059783265, -0.097243816, -1508637.9, -85045.484, 0.00057589856, 9.998605, 10.000014 
1.4250517e+3, 1.6473569e+2, -1529602.3, -1427456.0, -11871.125, 0.08049648, -0.02699975, -1426094.5, -100508.87, 0.00004378684, 9.998554, 9.999947 
1.4250614e+3, 1.7473607e+2, -1262716.0, -1224667.3, -23975.648, -0.082703024, -0.037490763, -1213085.1, 14496.5, 0.00000008454083, 9.999622, 10.000147 
1.4250728e+3, 1.847356e+2, -1158330.0, -1243766.5, -7102.8174, -0.08940049, -0.03844926, -1157743.5, -28157.994, 0.0, 10.000183, 9.999078 
1.4250855e+3, 1.94734e+2, -1026986.1, -1114235.5, -30903.752, 0.0347798, -0.14950186, -1017149.06, 14450.788, 0.0, 10.000355, 9.999206 
1.425097e+3, 2.0473349e+2, -933079.44, -1008417.1, -48138.23, 0.08609092, -0.119011395, -909623.56, 23980.264, 0.0, 10.000264, 9.999308 
1.4251077e+3, 2.1473373e+2, -864827.56, -908845.94, -81255.73, 0.07316891, -0.07268534, -802653.06, 32947.074, 0.0, 9.999989, 9.999454 
1.425118e+3, 2.2473271e+2, -783186.25, -955956.4, -63349.047, 0.048231944, -0.05160156, -762447.6, -24837.975, 0.0, 10.000485, 9.998218 
1.4251278e+3, 2.3473012e+2, -461046.75, -736174.9, -34427.008, 0.00084068254, -0.17528784, -456804.28, 182830.94, 0.0, 10.001968, 9.998339 
1.4251387e+3, 2.4472868e+2, -355578.25, -671681.8, 37645.492, 0.008866839, -0.1268736, -351156.78, 190494.19, 0.0, 10.002173, 9.998007 
1.4251506e+3, 2.5472814e+2, -397401.94, -621511.56, 6620.3213, 0.076886974, -0.032358672, -397206.53, 46452.77, 0.00000000006254562, 10.001134, 9.998175 
1.4251623e+3, 2.6472697e+2, -341936.94, -513388.03, 28339.71, 0.102988206, 0.026783949, -337374.0, 8298.938, 0.00000036239143, 10.000708, 9.998451 
1.4251734e+3, 2.7472493e+2, -191880.84, -367804.1, 920.85297, 0.07530621, -0.07278597, -191876.02, 55817.19, 0.000010087366, 10.000971, 9.998648 
1.425184e+3, 2.8472358e+2, -72207.125, -360695.94, -37088.555, 0.030585587, -0.018779816, -67515.27, 82193.055, 0.00007872079, 10.001546, 9.997756 
1.425194e+3, 2.9472238e+2, 203093.34, -160137.05, -67752.414, 0.0039963606, 0.027873605, 215319.5, 267042.84, 0.00033516844, 10.002687, 9.997903 
1.4252064e+3, 3.047213e+2, 223754.38, -233819.4, 22051.023, 0.12918004, 0.18768, 224814.58, 224814.58, 0.0008965645, 10.002971, 9.996937 
1.4252192e+3, 3.147182e+2, 235554.16, 55.042526, 14374.241, 0.20437466, 0.11683674, 236428.27, 236428.27, 0.0017444047, 10.00199, 9.999017 
1.4350031e+3, 1.2472376e+2, -1810620.5, -1740044.0, 190466.73, -0.08403924, -0.0654915, -1581624.1, 136080.1, 0.010506618, 9.999177, 10.000204 
1.4350168e+3, 1.3472417e+2, -1720041.4, -1708590.9, -5871.418, 0.13025336, 0.0014204658, -1706115.4, -86415.5, 0.006123269, 9.9994755, 9.999596 
1.4350262e+3, 1.447237e+2, -1608209.3, -1579738.1, -37481.816, -0.0654209, -0.022928914, -1553879.5, -32176.2, 0.002563054, 9.999414, 9.999836 
1.4350379e+3, 1.5472259e+2, -1647470.6, -1564580.1, -23137.543, -0.013923409, -0.14511962, -1558559.0, -134846.8, 0.0006133788, 9.998568, 9.999665 
1.4350489e+3, 1.647226e+2, -1516546.8, -1397003.5, 2295.9395, -0.092857994, -0.120596886, -1396959.4, -71248.65, 0.000047750204, 9.998543, 10.00016 
1.4350607e+3, 1.7472377e+2, -1254988.3, -1200515.5, 29106.322, -0.15485847, -0.07307442, -1187889.6, 39809.547, 0.00000010052836, 9.999581, 10.000338 
1.4350735e+3, 1.8472406e+2, -1178127.8, -1267019.9, -22944.203, -0.078545734, -0.0001531045, -1172554.9, -42858.13, 0.0, 10.000109, 9.998952 
1.435087e+3, 1.947231e+2, -1061021.8, -1149484.4, -8800.551, 0.11932202, -0.035814658, -1060154.8, -28447.363, 0.0, 10.000202, 9.999038 
1.4350982e+3, 2.0472223e+2, -978618.56, -1064978.6, -78670.98, 0.14162138, -0.016019149, -932056.5, 1660.7898, 0.0, 10.000095, 9.999 
1.4351073e+3, 2.1472117e+2, -927158.7, -983343.2, -74648.234, 0.0061477884, -0.06752792, -875491.7, -39762.188, 0.0, 9.999744, 9.999061 
1.4351179e+3, 2.247206e+2, -741636.2, -801543.9, -26428.26, -0.03673435, -0.037412558, -731644.0, 6089.972, 0.0, 10.000203, 9.999408 
1.4351302e+3, 2.3472035e+2, -421396.78, -577623.44, 39582.043, 0.02426351, -0.0525612, -411940.53, 227791.19, 0.0, 10.001656, 9.999572 
1.435141e+3, 2.4471906e+2, -410677.47, -722519.4, -20765.912, -0.006535848, -0.042963285, -409300.72, 132442.61, 0.0, 10.001895, 9.997794 
1.4351499e+3, 2.5471637e+2, -460426.53, -684637.9, -14942.187, -0.12914284, -0.13598195, -459435.13, -15662.749, 0.000000006122379, 10.000847, 9.997879 
1.4351611e+3, 2.6471478e+2, -385757.78, -561403.75, 20896.918, -0.11350236, -0.0878252, -383305.84, -37516.043, 0.0000008787704, 10.000513, 9.998221 
1.4351746e+3, 2.7471414e+2, -239375.94, -420697.44, 32095.715, 0.06755102, -0.024987979, -233862.33, 13934.775, 0.000014147242, 10.000769, 9.998391 
1.4351867e+3, 2.8471246e+2, -111000.555, -393539.44, -13421.187, 0.09878135, 0.01492795, -110364.45, 39450.36, 0.000090681104, 10.001341, 9.997625 
1.4351967e+3, 2.9470918e+2, 139265.5, -223540.77, 552.2316, -0.033575207, -0.13426048, 139266.34, 191114.86, 0.0003647409, 10.002381, 9.99762 
1.4352089e+3, 3.0470783e+2, 189348.03, -235241.0, -27870.598, 0.06456583, 0.015275082, 191169.69, 191169.69, 0.0009617202, 10.002695, 9.997047 
1.4352207e+3, 3.147049e+2, 137738.14, -91756.76, 25517.889, 0.091175094, -0.054198068, 140541.28, 140541.28, 0.001861219, 10.001525, 9.998611 
1.4450024e+3, 1.2471076e+2, -1872304.6, -1729704.9, 285619.94, -0.022833927, -0.025393547, -1506619.9, 211210.86, 0.011047917, 9.998551, 10.000584 
1.4450152e+3, 1.3471143e+2, -1694252.5, -1629006.8, -39576.266, 0.049544305, -0.0042941733, -1610340.9, 9482.442, 0.00646129, 9.999334, 10.000212 
1.445028e+3, 1.447113e+2, -1547127.5, -1542104.1, -67094.34, 0.16954418, -0.023773087, -1477474.5, 44348.477, 0.0027186894, 9.999818, 9.999883 
1.4450377e+3, 1.5471043e+2, -1457112.0, -1462521.1, -77223.04, 0.062674545, -0.13100526, -1382546.3, 41283.54, 0.0006559602, 9.999833, 9.999751 
1.4450482e+3, 1.6471028e+2, -1381975.5, -1362910.5, 21363.469, -0.07231813, -0.11567745, -1349049.3, -23218.938, 0.000052490832, 9.999605, 9.999886 
1.4450607e+3, 1.747108e+2, -1276817.8, -1233566.1, -20221.063, -0.09984591, -0.10616602, -1225585.0, 2240.2363, 0.00000012546444, 9.999552, 10.000117 
1.4450738e+3, 1.847111e+2, -1234407.4, -1259494.0, -47766.22, -0.015079643, -0.03713395, -1197565.0, -67742.2, 0.0, 9.999556, 9.99928 
1.445087e+3, 1.9471088e+2, -1112418.4, -1131206.8, -33036.563, 0.14473566, -0.036934413, -1087466.3, -55639.996, 0.0, 9.999654, 9.999428 
1.4450984e+3, 2.0471035e+2, -1020031.06, -1082188.4, -41752.797, 0.165856, -0.0042064264, -999059.94, -65226.492, 0.0, 9.999818, 9.999015 
1.4451076e+3, 2.1470925e+2, -859890.75, -940164.0, -51192.06, 0.06211793, -0.059777126, -834976.8, 870.3187, 0.0, 10.000189, 9.999135 
1.4451186e+3, 2.2470886e+2, -712501.44, -770982.7, 36806.53, 0.029056096, -0.022050215, -694734.25, 43116.188, 0.0, 10.000322, 9.999566 
1.4451315e+3, 2.3470894e+2, -619978.3, -654228.7, -7451.6357, 0.065825924, -0.022529203, -618427.3, 21417.86, 0.0, 10.000195, 9.999752 
1.4451423e+3, 2.447078e+2, -615788.9, -797336.94, -85421.06, 0.017790077, -0.018272042, -581916.7, -40062.08, 0.0, 10.000387, 9.998004 
1.4451508e+3, 2.54705e+2, -404425.38, -635257.7, -81180.96, -0.12532003, -0.14113735, -378734.34, 65148.58, 0.000000012932129, 10.001114, 9.998096 
1.445162e+3, 2.6470324e+2, -251772.8, -522098.53, 24527.064, -0.10795158, -0.110091045, -249565.45, 96335.66, 0.0000016431604, 10.00155, 9.997991 
1.4451762e+3, 2.747024e+2, -99922.09, -375360.56, -7960.723, 0.08850193, -0.046853356, -99692.2, 148218.4, 0.000019343763, 10.00183, 9.998183 
1.4451884e+3, 2.8470048e+2, -5114.733, -342406.53, 5094.139, 0.11987364, -0.018429527, -5037.813, 144892.11, 0.00010742439, 10.002077, 9.997614 
1.445199e+3, 2.9469728e+2, 118463.79, -225044.8, -2366.3938, -0.0167046, -0.15956023, 118480.09, 170441.67, 0.0004102239, 10.002216, 9.997673 
1.4452118e+3, 3.04696e+2, 207345.84, -187890.3, 13121.272, 0.0970383, -0.023557507, 207780.97, 207780.97, 0.001066146, 10.002647, 9.997403 
1.4452237e+3, 3.1469327e+2, 394513.56, 27429.295, -14161.585, 0.18075803, -0.10903146, 395059.1, 395059.1, 0.0020519032, 10.003328, 9.998549 
1.4550033e+3, 1.2469705e+2, -1855553.0, -1716349.6, 57035.27, 0.11613133, -0.021452496, -1695965.8, 21995.873, 0.011640448, 9.998636, 10.000628 
1.4550115e+3, 1.3469774e+2, -1668692.0, -1559323.9, 16869.453, -0.29369205, -0.056386963, -1556781.0, 63174.492, 0.0068325973, 9.999261, 10.000731 
1.4550295e+3, 1.4469755e+2, -1529596.6, -1507381.3, -82522.77, 0.2789589, -0.11603343, -1435222.0, 86735.36, 0.0028915813, 9.999824, 10.000117 
1.4550386e+3, 1.546986e+2, -1435006.0, -1410040.3, -62497.88, 0.13091072, -0.06639504, -1358790.8, 65154.984, 0.00070428615, 9.999806, 10.000123 
1.4550488e+3, 1.6469872e+2, -1419791.3, -1449605.0, -7489.09, -0.015186698, -0.013952242, -1418015.8, -92071.5, 0.000058062662, 9.999638, 9.999277 
1.455061e+3, 1.7469732e+2, -1333957.6, -1337652.6, -5112.7524, -0.05346008, -0.1290479, -1330368.8, -102410.52, 0.00000016567238, 9.999489, 9.999435 
1.4550735e+3, 1.8469687e+2, -1183706.9, -1141349.5, -62934.55, -0.048035063, -0.14209105, -1096125.6, 33836.746, 0.0, 9.999496, 10.000123 
1.4550854e+3, 1.9469735e+2, -1072635.4, -1019232.6, -13531.705, -0.022103105, -0.15241073, -1015999.56, 15956.853, 0.0, 9.999519, 10.00027 
1.455097e+3, 2.0469779e+2, -1026947.06, -1049536.0, -48557.566, 0.016026843, -0.08139638, -988387.75, -54434.977, 0.0, 9.999624, 9.999328 
1.4551085e+3, 2.1469785e+2, -878134.56, -915319.3, -20384.822, 0.098882094, -0.05475478, -869136.8, -33182.152, 0.0, 9.999926, 9.999432 
1.4551198e+3, 2.2469732e+2, -798349.7, -889270.2, 13671.029, 0.09255056, -0.011868973, -796338.56, -58377.45, 0.0, 10.000063, 9.9988785 
1.4551312e+3, 2.34696e+2, -719359.56, -787213.06, 6830.9707, -0.01641966, -0.07669376, -718678.7, -78704.18, 0.0, 9.999887, 9.998984 
1.455142e+3, 2.4469504e+2, -607674.2, -725806.44, -74020.2, -0.07443265, -0.043159597, -572041.9, -30058.502, 0.0, 10.000141, 9.998618 
1.4551528e+3, 2.546942e+2, -390753.6, -557077.5, -33649.34, -0.05857656, -0.038591474, -384203.84, 59785.973, 0.000000017460069, 10.000895, 9.998744 
1.4551646e+3, 2.646925e+2, -302681.1, -578958.56, 18169.75, -0.041251093, -0.024364872, -301491.25, 44514.574, 0.000002726617, 10.001337, 9.9977 
1.455177e+3, 2.7468953e+2, -165710.73, -445450.44, 23254.77, -0.018170044, -0.13943797, -163790.73, 84244.2, 0.000025176965, 10.00155, 9.99783 
1.4551891e+3, 2.8468755e+2, -26056.682, -320011.38, -7976.149, -0.044923574, -0.110761546, -25840.416, 124213.836, 0.00012773139, 10.001798, 9.997902 
1.4552006e+3, 2.9468656e+2, 106971.32, -190988.2, 27296.97, -0.110983126, -0.06629627, 109451.44, 161515.55, 0.00046808438, 10.001965, 9.998033 
1.4552145e+3, 3.046857e+2, 204100.06, -138526.84, 23541.521, 0.06490891, 0.06817348, 205710.02, 205710.02, 0.00120209, 10.002406, 9.997859 
1.4552277e+3, 3.1468284e+2, 308207.2, -41818.945, 51838.36, 0.18317564, -0.07226591, 315723.0, 315723.0, 0.0023053363, 10.00285, 9.998308 
1.4650041e+3, 1.2468431e+2, -1757767.9, -1670468.3, 34624.02, 0.32368577, -0.07547941, -1658403.4, 59679.65, 0.012283002, 9.999334, 10.000606 
1.4650106e+3, 1.3468538e+2, -1751242.5, -1600562.4, 59424.88, -0.26149198, -0.069589116, -1579947.1, 40127.496, 0.00723705, 9.998727, 10.000694 
1.4650291e+3, 1.4468496e+2, -1742595.8, -1627002.4, 1519.1958, 0.3424783, -0.13729174, -1626982.5, -104902.695, 0.0030819494, 9.998408, 9.999994 
1.4650385e+3, 1.546862e+2, -1443309.1, -1408748.0, -44132.33, 0.14988963, -0.0707122, -1378633.6, 45433.586, 0.0007585455, 9.999709, 10.000187 
1.4650488e+3, 1.6468643e+2, -1368517.3, -1423617.8, 23165.688, 0.032491945, -0.013968321, -1360072.1, -34007.547, 0.00006440502, 9.999976, 9.99929 
1.4650612e+3, 1.7468494e+2, -1357835.3, -1350637.5, 36531.45, 0.022230614, -0.14106746, -1317528.1, -89449.17, 0.00000022299002, 9.9993105, 9.999435 
1.4650732e+3, 1.8468435e+2, -1256187.6, -1173536.1, 33849.453, 0.01625822, -0.16504873, -1161442.8, -31358.709, 0.0, 9.99903, 10.000104 
1.465085e+3, 1.9468477e+2, -1074723.8, -1014001.94, -20179.438, -0.0068387897, -0.18544799, -1007907.44, 24171.625, 0.0, 9.999512, 10.000289 
1.4650966e+3, 2.046853e+2, -973057.1, -997024.06, -50607.78, 0.023075104, -0.11666011, -933033.4, 1040.573, 0.0, 9.9998665, 9.999579 
1.4651087e+3, 2.1468571e+2, -819227.06, -852174.7, -53677.5, 0.12631586, -0.08193749, -779552.3, 56518.69, 0.0, 10.000176, 9.999744 
1.4651205e+3, 2.2468533e+2, -767603.25, -908030.9, 18452.402, 0.1363473, -0.028365813, -765219.06, -27142.633, 0.0, 10.000421, 9.998573 
1.4651318e+3, 2.3468378e+2, -615441.44, -772649.2, 2886.4387, 0.037104312, -0.085716225, -615388.44, 24705.766, 0.0, 10.000737, 9.998676 
1.4651433e+3, 2.4468267e+2, -471851.8, -655787.25, -25451.244, -0.002446704, -0.0524363, -468395.06, 73710.11, 0.0, 10.001061, 9.998653 
1.4651547e+3, 2.546819e+2, -296962.84, -498163.06, -65399.887, 0.01982978, -0.04599414, -277573.25, 166536.83, 0.000000044837254, 10.0015, 9.998845 
1.4651668e+3, 2.646802e+2, -260330.27, -554935.56, -11722.477, 0.034781285, -0.034857403, -259864.56, 86260.33, 0.0000038968087, 10.001612, 9.997737 
1.465179e+3, 2.7467725e+2, -186023.1, -453841.2, -12697.852, 0.04158479, -0.15032044, -185422.4, 62730.965, 0.000030518888, 10.001383, 9.997865 
1.4651914e+3, 2.8467512e+2, -56293.18, -342228.03, 16728.512, 0.017728144, -0.13600324, -55317.813, 94855.96, 0.00014669454, 10.0016165, 9.997841 
1.4652035e+3, 2.9467392e+2, 168933.1, -163371.81, -33354.555, -0.029391512, -0.09710508, 172247.94, 224432.84, 0.00052534003, 10.002415, 9.997999 
1.4652175e+3, 3.0467248e+2, 268237.13, -113751.88, -40140.53, 0.11262649, -0.017673623, 272409.63, 272409.63, 0.0013448142, 10.002885, 9.997782 
1.4652307e+3, 3.146704e+2, 270359.34, -79967.8, -118995.84, 0.22146897, -0.067049906, 306955.75, 306955.75, 0.0025808995, 10.00267, 9.998123 
1.4750004e+3, 1.2467205e+2, -1747396.4, -1659413.4, -189724.63, -0.07880652, -0.22619633, -1508646.9, 209552.88, 0.012969953, 9.999396, 10.000643 
1.4750122e+3, 1.3467436e+2, -1807953.5, -1703841.8, 30634.533, -0.02581666, -0.034413252, -1695496.6, -75316.15, 0.0076708426, 9.998682, 9.999993 
1.4750265e+3, 1.4467354e+2, -1744616.6, -1657872.6, 15331.17, 0.17551678, -0.0918904, -1655242.8, -133052.19, 0.0032881629, 9.998504, 9.999745 
1.4750367e+3, 1.5467344e+2, -1464153.8, -1445679.4, 20705.895, -0.025501955, -0.13513857, -1432243.8, -8051.643, 0.00081847684, 9.999676, 9.999955 
1.475048e+3, 1.6467361e+2, -1317574.6, -1325699.6, -20903.775, -0.091607966, -0.10434417, -1300342.3, 25847.402, 0.000071419374, 10.000003, 9.9999485 
1.4750604e+3, 1.7467378e+2, -1321756.6, -1259154.8, 26050.598, -0.017923817, -0.13449417, -1249732.5, -21546.656, 0.0000002932695, 9.999244, 10.00009 
1.4750728e+3, 1.8467368e+2, -1320094.9, -1307196.8, 28853.795, 0.025365906, -0.099904925, -1284080.0, -153893.44, 0.0, 9.999018, 9.9992 
1.4750853e+3, 1.94673e+2, -1156528.8, -1160465.5, 13835.314, 0.042076323, -0.13523678, -1144522.5, -112327.21, 0.0, 9.9994, 9.999345 
1.475097e+3, 2.046728e+2, -974689.06, -962667.0, -60816.89, 0.027604949, -0.105885826, -907564.8, 26633.033, 0.0, 9.9997015, 9.999891 
1.4751078e+3, 2.1467297e+2, -834585.9, -824203.6, -28728.85, -0.005043629, -0.13193308, -800200.7, 35994.496, 0.0, 9.999923, 10.000056 
1.47512e+3, 2.2467291e+2, -798799.75, -920920.25, 9350.208, 0.0138112595, -0.06368131, -798088.0, -59891.797, 0.0, 10.000181, 9.99861 
1.4751333e+3, 2.3467225e+2, -645148.0, -784062.8, 31509.219, 0.08422417, -0.037731025, -638335.06, 1869.5485, 0.0, 10.000511, 9.998714 
1.4751454e+3, 2.446707e+2, -539658.9, -743104.7, -30144.268, 0.06796803, -0.025326835, -535286.44, 6933.401, 0.0, 10.000832, 9.998163 
1.475156e+3, 2.54668e+2, -373917.94, -596962.5, -32682.674, -0.0350702, -0.16075836, -369227.6, 75017.09, 0.000000082863835, 10.001236, 9.998295 
1.475168e+3, 2.6466635e+2, -270706.6, -515928.78, -34077.645, -0.02741989, -0.13693157, -266059.03, 80200.36, 0.0000048986644, 10.001347, 9.99813 
1.4751816e+3, 2.746655e+2, -190047.98, -404571.75, 4835.6714, 0.10609555, -0.09119958, -189939.03, 58327.133, 0.00003489947, 10.001137, 9.998316 
1.4751944e+3, 2.8466323e+2, -138368.16, -458830.5, 26258.383, 0.12762322, -0.08096929, -136230.81, 14056.469, 0.00016199093, 10.00138, 9.997155 
1.4752069e+3, 2.9465938e+2, 77725.97, -286568.63, 20507.209, 0.0338474, -0.24601744, 78876.75, 131201.55, 0.0005773318, 10.002127, 9.997291 
1.4752202e+3, 3.0465633e+2, 190774.97, -203446.42, -59304.277, 0.06787498, -0.26483464, 199503.11, 199503.11, 0.0014793195, 10.002575, 9.9973135 
1.4752318e+3, 3.1465584e+2, 188698.9, -127088.91, -70604.08, -0.015185268, -0.11571493, 203765.75, 203765.75, 0.0028372656, 10.002145, 9.998052 
1.4849988e+3, 1.2466016e+2, -1913364.3, -1749958.6, -182114.95, -0.10075019, -0.2857851, -1632058.8, 86256.336, 0.013700781, 9.998271, 10.000572 
1.4850128e+3, 1.3466233e+2, -1609553.4, -1649557.1, -6015.513, 0.107491046, -0.0693182, -1608668.4, 11628.766, 0.00813248, 10.000174, 9.999666 
1.4850248e+3, 1.4466165e+2, -1511663.9, -1555063.1, 46682.35, 0.08742657, -0.08823128, -1481884.3, 40421.816, 0.0035089266, 10.000192, 9.999618 
1.4850363e+3, 1.5466152e+2, -1465242.9, -1455686.3, 18660.441, -0.03636146, -0.1252277, -1441202.0, -16893.375, 0.0008836724, 9.999734, 9.999845 
1.4850481e+3, 1.646617e+2, -1409464.6, -1368533.9, -28401.764, -0.0450851, -0.083275154, -1353992.3, -27685.406, 0.00007901186, 9.999411, 9.999928 
1.4850603e+3, 1.7466204e+2, -1276825.1, -1235196.9, -74657.74, 0.03687063, -0.09535056, -1178506.1, 49796.207, 0.00000037325287, 9.999573, 10.000093 
1.4850728e+3, 1.8466185e+2, -1223429.0, -1268765.9, -2913.8582, 0.09500974, -0.06442166, -1223242.5, -92938.805, 0.0, 9.999705, 9.999137 
1.4850856e+3, 1.9466095e+2, -1061515.0, -1117813.8, 12454.903, 0.11273948, -0.117700085, -1058882.6, -26569.281, 0.0, 10.000059, 9.999321 
1.4850974e+3, 2.0466046e+2, -926711.94, -988558.9, -27368.125, 0.07911169, -0.094314955, -916340.44, 17978.445, 0.0, 10.0002575, 9.99944 
1.4851078e+3, 2.1466027e+2, -807289.1, -859012.2, -92511.66, -0.0020583575, -0.10912287, -737092.2, 99229.08, 0.0, 10.0003195, 9.999625 
1.4851202e+3, 2.246599e+2, -736439.2, -862213.2, -29107.762, 0.01445965, -0.060055237, -730029.44, 8295.245, 0.0, 10.000499, 9.99885 
1.4851342e+3, 2.346592e+2, -557098.4, -709611.75, -27109.262, 0.11925681, -0.06221864, -552423.0, 87907.8, 0.0, 10.00099, 9.998988 
1.4851469e+3, 2.4465768e+2, -496153.66, -736099.75, -44226.137, 0.1280656, -0.056492127, -488261.6, 54083.406, 0.0, 10.001185, 9.998048 
1.4851578e+3, 2.5465512e+2, -410646.72, -626587.25, -56688.39, 0.03773533, -0.16308686, -396669.66, 47700.137, 0.00000011463164, 10.001037, 9.998191 
1.48517e+3, 2.6465344e+2, -296678.25, -513227.75, -22234.045, 0.05500418, -0.14060995, -294418.97, 51966.086, 0.000005857849, 10.001118, 9.99825 
1.4851835e+3, 2.7465245e+2, -128251.45, -362003.34, -55296.48, 0.18105577, -0.11591373, -115830.5, 132562.11, 0.000039275426, 10.00152, 9.998418 
1.4851967e+3, 2.8465036e+2, -44853.926, -410911.06, 39367.156, 0.19339743, -0.097441494, -40668.098, 109744.37, 0.00017769585, 10.002008, 9.997181 
1.4852098e+3, 2.9464692e+2, 142098.8, -257094.88, 46979.11, 0.09283652, -0.21820202, 147553.0, 199999.97, 0.0006303682, 10.002558, 9.9973 
1.4852227e+3, 3.0464375e+2, 180212.64, -158968.8, 13953.048, 0.09520522, -0.27371687, 180785.66, 180785.66, 0.0016042597, 10.002259, 9.997788 
1.4852336e+3, 3.1464326e+2, 56414.586, -81756.984, -25828.219, 0.04847943, -0.17078415, 61084.77, 61084.77, 0.003054721, 10.000749, 9.999037 
1.4949986e+3, 1.2464916e+2, -1881866.5, -1705176.9, -9917.874, -0.040271305, -0.19327137, -1704622.0, 13801.733, 0.014485426, 9.998368, 10.000818 
1.4950119e+3, 1.346498e+2, -1613200.5, -1640826.8, 60631.73, -0.027527338, -0.14026082, -1564828.4, 55591.03, 0.008627366, 10.000118, 9.999747 
1.4950238e+3, 1.4464962e+2, -1495894.1, -1557859.3, -2203.566, -0.09743747, -0.11250573, -1495815.8, 26607.035, 0.0037456865, 10.000319, 9.999547 
1.4950363e+3, 1.546506e+2, -1478078.1, -1483411.8, 16191.959, -0.038965292, -0.025470344, -1464334.9, -39919.637, 0.0009542572, 9.999726, 9.999665 
1.4950484e+3, 1.6465086e+2, -1445990.8, -1461143.8, -45089.996, -0.0020733683, 0.06382967, -1407845.1, -81430.52, 0.00008722728, 9.999474, 9.999264 
1.4950603e+3, 1.7464969e+2, -1333421.4, -1341379.8, -54225.48, 0.052597962, -0.026295241, -1283029.3, -54600.996, 0.0000004647829, 9.999526, 9.999385 
1.4950727e+3, 1.8464899e+2, -1170083.6, -1158013.3, -11234.006, 0.06943662, -0.049079362, -1151296.0, -20861.697, 0.0, 9.999697, 9.999907 
1.4950855e+3, 1.9464871e+2, -1025619.6, -1013519.5, 39189.164, 0.05224589, -0.12195105, -979916.2, 52516.434, 0.0, 9.999929, 10.000103 
1.4950974e+3, 2.0464836e+2, -1030048.25, -1166260.3, -44836.383, 0.026233427, -0.07105383, -1016614.5, -82178.23, 0.0, 10.000094, 9.9983015 
1.4951085e+3, 2.1464764e+2, -925594.2, -1051660.0, -74193.86, 0.008686875, -0.017985009, -891272.7, -54823.887, 0.0, 10.000095, 9.998408 
1.4951208e+3, 2.2464645e+2, -745813.2, -827525.94, -30250.832, 0.00080076145, -0.005099419, -735833.0, 2627.6616, 0.0, 10.000256, 9.999211 
1.4951344e+3, 2.3464462e+2, -563921.75, -665132.56, 8948.184, 0.0008745401, -0.16477597, -563136.7, 77336.3, 0.0, 10.000735, 9.999418 
1.4951473e+3, 2.446436e+2, -518466.3, -721767.06, -63197.285, 0.027069354, -0.14291286, -500422.53, 42058.063, 0.0, 10.00092, 9.998275 
1.4951597e+3, 2.5464314e+2, -429779.94, -615220.9, -40696.566, 0.09412419, -0.06313614, -421241.84, 23244.357, 0.00000015644366, 10.000808, 9.9983835 
1.4951721e+3, 2.646414e+2, -358760.44, -578176.94, -25841.682, 0.12850206, -0.04070828, -355758.03, -9255.242, 0.000006865855, 10.000851, 9.997928 
1.4951846e+3, 2.7463806e+2, -193043.83, -431502.47, -18986.889, 0.116563514, -0.21978556, -191541.48, 56992.277, 0.00004412461, 10.001252, 9.998066 
1.4951976e+3, 2.8463632e+2, -33923.863, -327193.53, 42494.316, 0.058478374, -0.1788217, -27890.621, 122660.09, 0.00019465707, 10.001739, 9.9978895 
1.4952114e+3, 2.9463625e+2, 151306.27, -167333.03, 98363.164, -0.025412228, -0.040164564, 179224.6, 231778.42, 0.0006807664, 10.002244, 9.998073 
1.4952245e+3, 3.0463436e+2, 204049.56, -23513.943, -55702.29, 0.010137526, -0.060491137, 216952.6, 216952.6, 0.0017053906, 10.001908, 9.998881 
1.4952354e+3, 3.1463224e+2, 104488.96, 114012.12, -34085.945, 0.07095498, -0.23836264, 143667.45, 143667.45, 0.0032076885, 10.000341, 10.00058 
1.5049978e+3, 1.2463614e+2, -1820838.8, -1689671.5, -17671.52, 0.031396437, -0.12048161, -1687332.4, 31221.787, 0.015336173, 9.998851, 10.000703 
1.5050104e+3, 1.3463691e+2, -1827579.9, -1697346.4, -46540.41, -0.080139026, -0.102901824, -1682424.4, -61876.297, 0.0091627855, 9.998416, 10.000198 
1.5050228e+3, 1.4463654e+2, -1727157.9, -1626756.6, -52793.258, -0.12835725, -0.13520315, -1604106.5, -81554.46, 0.0040015904, 9.9985695, 9.999913 
1.5050365e+3, 1.5463775e+2, -1450453.1, -1420400.3, -36224.203, 0.016599111, -0.060947802, -1396209.5, 28329.785, 0.001031135, 9.999722, 10.000095 
1.5050489e+3, 1.6463798e+2, -1379556.0, -1476361.0, -36267.16, 0.06953222, 0.022801178, -1367476.3, -40937.63, 0.000096309515, 10.000107, 9.998865 
1.5050602e+3, 1.7463648e+2, -1288532.9, -1362982.5, -61779.66, 0.07166846, -0.060088463, -1253630.0, -25072.654, 0.000000575819, 9.999998, 9.999013 
1.5050724e+3, 1.8463582e+2, -1126255.3, -1139204.1, 17370.023, 0.07996703, -0.059821505, -1114192.3, 16371.806, 0.0, 10.000023, 9.999864 
1.5050855e+3, 1.9463596e+2, -944020.75, -972950.06, -27750.041, 0.059454694, -0.08973884, -927191.8, 105366.63, 0.0, 10.000493, 10.000095 
1.505098e+3, 2.0463555e+2, -939193.7, -1128160.9, -77907.26, 0.052507736, -0.04291418, -911216.3, 23345.83, 0.0, 10.000754, 9.998242 
1.5051095e+3, 2.1463428e+2, -812941.4, -1005455.7, -63464.902, 0.06334915, -0.035803746, -793902.25, 42676.61, 0.0, 10.000908, 9.998335 
1.5051219e+3, 2.2463287e+2, -642789.06, -783397.6, 50440.086, 0.053401373, -0.036415406, -626566.5, 112025.94, 0.0, 10.001004, 9.999145 
1.5051353e+3, 2.3463118e+2, -523837.7, -652720.44, 13845.887, 0.006328353, -0.17611244, -522367.0, 118236.95, 0.0, 10.001049, 9.999347 
1.5051486e+3, 2.4463014e+2, -473706.22, -690411.56, -55344.26, 0.05149096, -0.15528649, -460390.13, 82221.61, 0.0, 10.001195, 9.998351 
1.5051617e+3, 2.546296e+2, -319355.88, -549898.25, -83835.4, 0.19161162, -0.08960466, -292093.5, 152523.94, 0.00000020302433, 10.001524, 9.998478 
1.505174e+3, 2.6462796e+2, -236317.19, -520708.28, -20610.156, 0.21849743, -0.06604134, -234831.31, 111802.06, 0.0000077496, 10.001688, 9.997923 
1.505186e+3, 2.746248e+2, -129597.9, -404448.94, -21059.07, 0.11357538, -0.22591145, -127993.71, 120669.26, 0.000048509926, 10.001675, 9.998062 
1.5051988e+3, 2.8462324e+2, -105223.81, -325561.97, 61879.977, 0.040355377, -0.18016389, -89034.836, 61643.496, 0.00020995413, 10.001112, 9.998192 
1.505213e+3, 2.9462346e+2, -140905.77, -263344.25, 27500.307, 0.01805267, -0.042151593, -135012.69, -82334.19, 0.0007220719, 10.000089, 9.998419 
1.5052263e+3, 3.046221e+2, 26444.73, -143489.25, -115231.88, 0.07582218, -0.017270425, 84648.19, 84648.19, 0.0017709631, 10.000811, 9.998602 
1.5052381e+3, 3.1461924e+2, 483800.6, 280738.4, -249751.31, 0.20052437, -0.22620548, 651869.7, 651869.7, 0.0032780797, 10.003007, 10.00047 
1.5149969e+3, 1.2462136e+2, -1822608.9, -1741690.1, -147878.84, -0.0286972, -0.06986426, -1628835.8, 89868.484, 0.016257107, 9.99905, 10.000261 
1.515008e+3, 1.3462391e+2, -1796923.0, -1607793.6, -32231.707, -0.20130089, 0.051674623, -1602451.5, 18229.016, 0.009740974, 9.998325, 10.000851 
1.5150212e+3, 1.4462276e+2, -1652163.5, -1507380.1, -37491.363, -0.20364305, -0.12650032, -1498247.9, 24441.889, 0.0042781597, 9.9987, 10.000677 
1.5150362e+3, 1.5462306e+2, -1389467.0, -1301079.4, 21961.605, -0.018722486, -0.22690822, -1295923.4, 128757.11, 0.0011151112, 9.999742, 10.000908 
1.5150487e+3, 1.6462317e+2, -1369086.8, -1475618.4, -63187.504, 0.0011085147, -0.19745162, -1339709.4, -13031.165, 0.000106548556, 10.000186, 9.998832 
1.5150595e+3, 1.7462257e+2, -1299138.3, -1380038.3, -51557.492, -0.039092507, -0.18795542, -1274056.8, -45368.234, 0.0000007145684, 9.999966, 9.998916 
1.5150718e+3, 1.8462248e+2, -1180670.0, -1250774.3, 14457.263, -0.031797916, -0.087979585, -1177805.5, -47113.344, 0.0, 10.000016, 9.999102 
1.5150858e+3, 1.9462274e+2, -1018980.7, -1099478.6, 4415.7427, -0.005300563, -0.024089405, -1018739.1, 13951.27, 0.0, 10.000372, 9.999284 
1.5150987e+3, 2.0462215e+2, -901158.3, -1008553.6, -92925.19, 0.0054751756, 0.0027139331, -847531.56, 87163.81, 0.0, 10.000574, 9.999154 
1.5151103e+3, 2.1462035e+2, -779914.75, -876958.56, -41577.73, 0.020482184, -0.14339839, -764537.7, 72172.4, 0.0, 10.000646, 9.999346 
1.5151228e+3, 2.2461927e+2, -720064.56, -878935.25, 34299.824, 0.014325799, -0.14080067, -712975.6, 25743.668, 0.0, 10.000721, 9.998629 
1.5151364e+3, 2.3461878e+2, -601324.2, -757161.56, 33450.387, -0.0061966125, -0.096625775, -594447.56, 46276.875, 0.0, 10.000807, 9.998748 
1.5151499e+3, 2.4461733e+2, -518308.94, -729227.2, -63403.984, 0.040481318, -0.081512436, -500716.47, 42021.797, 0.0, 10.000951, 9.998208 
1.5151633e+3, 2.546145e+2, -361302.7, -582381.75, -53463.797, 0.17729993, -0.23714595, -349052.28, 95711.81, 0.00000026346208, 10.001278, 9.998378 
1.5151757e+3, 2.646129e+2, -251414.34, -483277.0, -35680.832, 0.17387256, -0.2196646, -246047.72, 100730.7, 0.000008336701, 10.001401, 9.99832 
1.5151869e+3, 2.7461258e+2, -143143.33, -364145.0, 2577.7686, 0.018518852, -0.13640484, -143113.27, 105667.68, 0.00005112129, 10.001394, 9.998474 
1.5151994e+3, 2.846112e+2, -163022.8, -383720.97, 4893.5405, -0.04125422, -0.080127776, -162914.34, -12120.052, 0.00022272031, 10.000841, 9.997921 
1.5152135e+3, 2.9460856e+2, -199828.05, -329794.94, 14078.294, 0.0306492, -0.20922445, -198320.55, -145499.19, 0.0007570033, 9.999846, 9.9980755 
1.5152279e+3, 3.046068e+2, -120720.586, -371159.72, -50450.723, 0.114618726, -0.13354321, -110939.35, -110939.35, 0.001811775, 10.000506, 9.99717 
1.5152413e+3, 3.1460434e+2, 307004.88, 46148.125, -94718.81, 0.14014417, -0.16489132, 337769.6, 337769.6, 0.0032877466, 10.00248, 9.999086 
1.5249956e+3, 1.246072e+2, -1939922.3, -1877524.1, -14894.922, -0.035819467, -0.10156896, -1874151.0, -155308.73, 0.017244658, 9.998621, 9.999512 
1.5250072e+3, 1.3461061e+2, -1685879.9, -1493907.1, 29963.607, -0.11811401, 0.048475567, -1489339.0, 131470.88, 0.010359608, 9.998849, 10.001369 
1.525021e+3, 1.4460963e+2, -1679384.6, -1539669.8, 66852.93, -0.064315505, -0.12476015, -1512835.0, 9982.203, 0.0045741852, 9.998616, 10.000484 
1.525036e+3, 1.546098e+2, -1505530.3, -1367497.9, 10732.4, 0.021967418, -0.2288361, -1366668.4, 58141.523, 0.0012060112, 9.9989805, 10.000815 
1.5250486e+3, 1.6460979e+2, -1476821.3, -1495042.0, -72655.38, 0.011690608, -0.21865335, -1412707.3, -85899.09, 0.000118081814, 9.999345, 9.999096 
1.5250595e+3, 1.7460947e+2, -1231237.4, -1308571.6, -73193.664, -0.039365575, -0.20618169, -1187124.9, 41688.44, 0.0000008766353, 10.000297, 9.999237 
1.5250722e+3, 1.8460919e+2, -1119669.6, -1279049.8, 40228.105, -0.021551123, -0.11692819, -1110091.5, 20727.182, 0.0, 10.000679, 9.998601 
1.5250866e+3, 1.9460872e+2, -1013891.0, -1160260.3, 12683.287, 0.03507659, -0.06957903, -1012800.06, 20026.232, 0.0, 10.000669, 9.998742 
1.5250997e+3, 2.0460789e+2, -856874.06, -956742.56, -63902.06, 0.06311548, -0.04837773, -825710.2, 109123.46, 0.0, 10.000719, 9.999444 
1.5251112e+3, 2.1460654e+2, -719408.5, -812913.75, -95851.8, 0.053852767, -0.18731515, -659515.1, 177327.05, 0.0, 10.000883, 9.999675 
1.5251242e+3, 2.2460562e+2, -705733.94, -927723.94, -7335.0747, 0.06716282, -0.1619424, -705491.8, 33358.36, 0.0, 10.001045, 9.998146 
1.5251383e+3, 2.3460504e+2, -574640.94, -800267.44, -37314.57, 0.099917606, -0.07615132, -568629.9, 72229.625, 0.0, 10.001222, 9.998256 
1.5251517e+3, 2.4460347e+2, -448711.03, -679546.25, -81737.6, 0.11903868, -0.05240658, -422699.3, 120176.664, 0.0, 10.001393, 9.998317 
1.5251641e+3, 2.5460055e+2, -299641.0, -533123.0, -92770.92, 0.122000016, -0.22752756, -267268.28, 177633.86, 0.0000003530132, 10.001645, 9.998522 
1.5251765e+3, 2.645991e+2, -215467.64, -468310.75, -62647.08, 0.10499471, -0.20465957, -200796.78, 146118.17, 0.000008619123, 10.001631, 9.99832 
1.5251885e+3, 2.7459922e+2, -159563.73, -361857.88, -96869.03, 0.055966765, -0.08023016, -120659.6, 128253.95, 0.000051931653, 10.001248, 9.998547 
1.5252014e+3, 2.8459767e+2, -87006.09, -343336.06, -57692.465, 0.04806744, -0.052407417, -74619.72, 76308.01, 0.00023518385, 10.001332, 9.997983 
1.525215e+3, 2.9459396e+2, 102267.19, -187836.16, -61732.887, 0.10562754, -0.2805348, 114857.32, 167819.27, 0.000791527, 10.001894, 9.998105 
1.5252297e+3, 3.0459222e+2, 122407.55, -281176.5, 19924.264, 0.18045835, -0.19211575, 123388.79, 123388.79, 0.0018473114, 10.002275, 9.996952 
1.5252441e+3, 3.145899e+2, 229497.63, -66691.766, -14840.099, 0.21575913, -0.18404019, 230239.3, 230239.3, 0.0032831845, 10.002238, 9.998441 
1.5349934e+3, 1.24594815e+2, -2008948.9, -2053750.4, -4785.169, -0.2064306, -0.11988559, -2008443.5, -289486.5, 0.018294634, 9.998748, 9.998244 
1.5350078e+3, 1.345972e+2, -1663288.1, -1450007.3, 41326.367, 0.016348796, -0.09863086, -1442279.6, 178654.08, 0.011016667, 9.998862, 10.001669 
1.535022e+3, 1.4459744e+2, -1729977.5, -1686630.6, 49206.445, 0.09334072, -0.1079805, -1654535.9, -131604.28, 0.0048880493, 9.998784, 9.999403 
1.5350349e+3, 1.5459816e+2, -1587242.3, -1520743.3, 36133.99, -0.010323206, -0.051774155, -1504888.8, -79962.875, 0.0013030368, 9.9989195, 9.999796 
1.5350477e+3, 1.6459806e+2, -1430206.4, -1418546.0, -62574.043, -0.05246675, -0.020382708, -1361531.1, -34604.81, 0.00013086536, 9.999417, 9.999592 
1.5350598e+3, 1.7459723e+2, -1198577.1, -1231328.5, -25014.816, -0.06679624, -0.11605512, -1185054.6, 43877.203, 0.0000010420176, 10.000257, 9.999786 
1.535073e+3, 1.8459596e+2, -1140574.0, -1326083.1, 16796.898, -0.04832646, -0.1350049, -1139065.4, -8121.8403, 0.0, 10.000686, 9.998278 
1.5350877e+3, 1.9459388e+2, -1048138.8, -1211211.1, 24980.762, 0.039806668, -0.2208798, -1044397.9, -11431.732, 0.0, 10.000573, 9.998441 
1.5351008e+3, 2.0459281e+2, -906204.06, -1011472.9, -76148.695, 0.06853724, -0.1970543, -866269.5, 68707.484, 0.0, 10.000516, 9.999163 
1.5351121e+3, 2.1459278e+2, -780468.5, -877740.44, -74822.06, 0.02267949, -0.17181657, -739864.4, 97111.26, 0.0, 10.000622, 9.9993515 
1.5351252e+3, 2.2459197e+2, -778275.3, -1012081.2, -19387.32, 0.051340036, -0.09851735, -776678.6, -37693.73, 0.0, 10.000757, 9.997705 
1.5351407e+3, 2.3458998e+2, -639960.5, -877677.4, -10965.805, 0.18477415, -0.11477533, -639455.75, 1553.1139, 0.0, 10.000964, 9.99785 
1.5351535e+3, 2.4458851e+2, -478806.84, -664126.44, -87606.445, 0.13290696, -0.0711156, -443949.1, 99076.125, 0.0, 10.001071, 9.99857 
1.5351637e+3, 2.5458756e+2, -323369.4, -518634.22, -62753.527, -0.1102993, -0.08006377, -304941.1, 140092.63, 0.0000004707298, 10.001384, 9.998743 
1.5351757e+3, 2.645864e+2, -274625.84, -532984.1, -96122.38, -0.14984937, -0.024418764, -242787.08, 104257.39, 0.0000086272985, 10.001379, 9.997994 
1.53519e+3, 2.7458468e+2, -213496.08, -428003.0, -95274.625, 0.05321705, -0.04671861, -177290.28, 71770.29, 0.000052741245, 10.00105, 9.998187 
1.5352038e+3, 2.845824e+2, -97702.195, -311943.2, -55231.098, 0.13424726, -0.08820569, -84301.84, 66777.95, 0.00024875673, 10.001095, 9.998318 
1.535217e+3, 2.9457957e+2, 85386.15, -155529.44, -11821.662, 0.07532572, -0.27330914, 85964.84, 139066.42, 0.00082812813, 10.001605, 9.998464 
1.5352315e+3, 3.045783e+2, 124801.67, -201139.19, 1821.3612, 0.10061812, -0.18647495, 124811.84, 124811.84, 0.001892961, 10.001963, 9.997646 
1.5352458e+3, 3.1457564e+2, 146567.97, -99539.99, 44156.875, 0.09759972, -0.28923076, 154250.78, 154250.78, 0.0033092082, 10.001665, 9.998478 
1.5449932e+3, 1.2458153e+2, -2139088.8, -2108739.5, -35663.375, -0.039404444, -0.10675261, -2085156.6, -366071.63, 0.019406972, 9.997824, 9.998308 
1.5450078e+3, 1.3458222e+2, -1519539.8, -1396163.3, -75619.04, 0.09224783, -0.25132582, -1360262.1, 260814.06, 0.0117135905, 9.999879, 10.001562 
1.545022e+3, 1.4458339e+2, -1610703.4, -1666414.3, -44196.94, 0.18260725, -0.14316808, -1586316.1, -63251.5, 0.0052204016, 9.9997835, 9.99906 
1.5450346e+3, 1.5458368e+2, -1535614.1, -1529213.6, -33776.723, 0.056578733, -0.09878339, -1498485.9, -73420.88, 0.0014059248, 9.999406, 9.999513 
1.5450478e+3, 1.6458346e+2, -1402662.9, -1414269.6, -41887.695, 0.0030856505, -0.060357682, -1366178.4, -39110.56, 0.00014487762, 9.99966, 9.999494 
1.5450603e+3, 1.745829e+2, -1115592.3, -1204618.3, -89175.43, -0.058212884, -0.120404966, -1060437.5, 168633.78, 0.000001197513, 10.000873, 9.999674 
1.5450737e+3, 1.8458171e+2, -1088723.3, -1273817.1, -69058.06, -0.04255455, -0.13732505, -1065797.5, 65284.633, 0.0, 10.00095, 9.998496 
1.5450883e+3, 1.945796e+2, -1107789.0, -1207679.9, -55477.344, 0.08116298, -0.24885036, -1083086.8, -49983.563, 0.0, 10.0000515, 9.998705 
1.5451017e+3, 2.0457847e+2, -1016134.25, -1122965.3, -72749.95, 0.13438065, -0.21922207, -979295.8, -44180.27, 0.0, 10.00003, 9.998632 
1.5451135e+3, 2.1457838e+2, -748372.3, -926850.7, -127408.516, 0.08656228, -0.14229931, -682059.06, 155059.84, 0.0, 10.001126, 9.9987755 
1.5451266e+3, 2.2457747e+2, -656674.2, -893573.56, -45168.04, 0.09238202, -0.06908081, -648354.5, 90774.83, 0.0, 10.001363, 9.998209 
1.545141e+3, 2.3457552e+2, -635948.06, -807754.2, -12086.68, 0.15326156, -0.13652743, -635101.94, 6047.4663, 0.0, 10.000737, 9.998421 
1.5451539e+3, 2.4457422e+2, -559754.7, -727433.06, -14738.825, 0.102064475, -0.09721531, -558469.0, -15305.794, 0.000000000009610117, 10.000588, 9.998389 
1.5451652e+3, 2.5457358e+2, -392729.34, -576518.4, -51668.066, -0.07096325, -0.051831488, -379200.0, 65970.63, 0.0000005675007, 10.000984, 9.99856 
1.5451777e+3, 2.645723e+2, -268184.03, -541922.44, -64370.87, -0.090182915, 0.00892837, -253802.5, 93380.87, 0.000008574752, 10.0015, 9.997875 
1.5451917e+3, 2.7456987e+2, -55431.12, -376233.72, -86289.016, 0.05517833, -0.06706691, -33694.09, 215512.39, 0.00005426492, 10.002229, 9.99799 
1.5452054e+3, 2.845674e+2, 64894.086, -242960.94, -33219.285, 0.14881782, -0.11348769, 68437.836, 219665.67, 0.00026286932, 10.002283, 9.998186 
1.5452194e+3, 2.9456502e+2, 69752.66, -177260.14, -76615.86, 0.16143352, -0.23429315, 91586.62, 144832.27, 0.0008685198, 10.001585, 9.998299 
1.5452336e+3, 3.045639e+2, 106094.71, -121253.75, -28212.78, 0.17118564, -0.16519843, 109543.46, 109543.46, 0.001959959, 10.001435, 9.998458 
1.5452471e+3, 3.145623e+2, 168393.39, -65640.734, -60050.375, 0.07604198, -0.23969014, 182902.16, 182902.16, 0.0033945085, 10.001688, 9.99871 
1.5549925e+3, 1.2456741e+2, -1984960.8, -1823795.8, -102560.09, 0.017312085, -0.041260254, -1773947.8, -54722.113, 0.020587768, 9.997988, 10.000181 
1.5550065e+3, 1.3456583e+2, -1558358.5, -1455758.4, -26824.617, -0.074119404, -0.37405834, -1449168.4, 172067.16, 0.012455585, 9.999805, 10.001186 
1.5550208e+3, 1.4456749e+2, -1562450.4, -1588374.6, -90797.164, 0.030231621, -0.22343005, -1483694.8, 39521.18, 0.0055746003, 9.999865, 9.999562 
1.5550345e+3, 1.5456654e+2, -1503858.0, -1461281.5, -29771.719, 0.0695079, -0.35352993, -1445969.9, -20744.463, 0.001515748, 9.999405, 9.999978 
1.5550478e+3, 1.6456626e+2, -1431049.4, -1497914.3, -17734.13, 0.011357821, -0.31319848, -1426637.0, -99406.984, 0.00016035176, 9.999756, 9.9988785 
1.5550606e+3, 1.7456664e+2, -1172024.8, -1307211.3, -31573.629, -0.14565307, -0.20968753, -1165014.1, 64216.402, 0.0000013687348, 10.000811, 9.999001 
1.555074e+3, 1.8456659e+2, -1044483.75, -1167092.3, -120658.83, -0.15299398, -0.11465004, -970448.56, 160783.72, 0.0, 10.000891, 9.999256 
1.555088e+3, 1.9456594e+2, -1078005.3, -1107047.1, -73271.875, 0.01683832, -0.1594109, -1017829.25, 15407.703, 0.0, 9.999897, 9.999466 
1.5551017e+3, 2.045649e+2, -1091470.3, -1253241.4, -53517.1, 0.10456929, -0.11776094, -1075368.4, -140119.3, 0.0, 9.999899, 9.997811 
1.5551151e+3, 2.1456335e+2, -840349.75, -1069102.1, -67620.7, 0.11217912, -0.09675427, -821855.8, 15415.355, 0.0, 10.000902, 9.997917 
1.5551277e+3, 2.245623e+2, -608798.94, -727832.06, -83278.07, 0.032778643, -0.058280803, -565956.06, 173326.1, 0.0, 10.001076, 9.999486 
1.5551393e+3, 2.3456153e+2, -575667.0, -636192.1, -19835.807, -0.12964328, -0.14170282, -569745.56, 71537.29, 0.0, 10.000527, 9.999706 
1.5551525e+3, 2.445604e+2, -630609.9, -815277.0, -16961.05, -0.13568191, -0.12791781, -629065.0, -85773.05, 0.0, 10.000332, 9.9979105 
1.5551679e+3, 2.5455874e+2, -463032.9, -670133.06, -18982.715, 0.07650153, -0.13409378, -461307.34, -15995.078, 0.0000005355393, 10.000756, 9.998028 
1.5551816e+3, 2.6455688e+2, -311011.8, -568172.25, -50917.93, 0.11068018, -0.10005419, -301297.0, 46034.707, 0.000008556659, 10.001234, 9.997818 
1.5551929e+3, 2.7455473e+2, -100450.81, -403466.44, -33674.13, -0.067031905, -0.14999616, -96753.71, 152597.88, 0.000056489618, 10.00195, 9.99793 
1.555206e+3, 2.8455254e+2, -31299.26, -373524.88, -71962.234, -0.055876307, -0.12569338, -16782.984, 134589.31, 0.00027893353, 10.00199, 9.997428 
1.5552215e+3, 2.9455027e+2, -20990.225, -297129.6, -77512.1, 0.18671311, -0.1677518, -720.5155, 52674.42, 0.0009153457, 10.001303, 9.997604 
1.5552357e+3, 3.0454898e+2, 113341.51, -35572.46, -35039.7, 0.21255445, -0.11802985, 121174.4, 121174.4, 0.0020538478, 10.00115, 9.999175 
1.555247e+3, 3.1454927e+2, 103302.55, -48166.816, -5986.2075, -0.14540623, -0.081810705, 103538.76, 103538.76, 0.003548839, 10.001076, 9.999105 
1.5649922e+3, 1.2455315e+2, -1802224.0, -1661026.8, -20516.861, 0.15956202, -0.044955887, -1658105.9, 61258.86, 0.021849003, 9.998917, 10.000874 
1.5650065e+3, 1.3455133e+2, -1784015.5, -1604678.0, -3985.9768, 0.048157085, -0.35229513, -1604589.5, 16787.445, 0.013250772, 9.998426, 10.00083 
1.5650201e+3, 1.4455241e+2, -1705014.9, -1655108.3, -27766.773, 0.04164404, -0.25120187, -1642729.8, -119366.62, 0.0059556314, 9.998883, 9.999571 
1.5650345e+3, 1.5455152e+2, -1348752.1, -1398232.9, -50490.426, 0.08412339, -0.36859587, -1317266.4, 108105.555, 0.0016345053, 10.000523, 9.999864 
1.5650481e+3, 1.645512e+2, -1311965.1, -1456784.4, -29251.344, 0.019378876, -0.32219714, -1306280.0, 21097.309, 0.00017771397, 10.00063, 9.998753 
1.5650612e+3, 1.7455137e+2, -1366131.3, -1414656.6, -29368.29, -0.09235668, -0.22679938, -1352299.6, -122919.07, 0.0000016137079, 9.999512, 9.998902 
1.5650748e+3, 1.8455142e+2, -1220991.3, -1240080.5, -67552.805, -0.09062605, -0.12286591, -1162312.1, -30930.37, 0.0, 9.999617, 9.999372 
1.5650882e+3, 1.9455123e+2, -849136.56, -987386.5, -101285.53, -0.0016032403, -0.13497855, -795636.0, 237746.02, 0.0, 10.001399, 9.999574 
1.565102e+3, 2.0455043e+2, -839833.75, -1108854.9, -60140.473, 0.07905054, -0.082910836, -827001.3, 108390.55, 0.0, 10.001583, 9.997963 
1.565116e+3, 2.145489e+2, -920465.44, -1078873.3, -40370.813, 0.15386504, -0.07639145, -910770.2, -73357.14, 0.0, 10.000288, 9.998117 
1.5651287e+3, 2.2454768e+2, -761336.5, -813562.06, -14806.172, 0.09280759, -0.060173396, -757431.0, -18005.742, 0.0, 10.000049, 9.99941 
1.56514e+3, 2.3454668e+2, -502516.8, -600659.2, -77914.98, -0.12892707, -0.16464128, -459508.0, 181920.14, 0.0, 10.0010195, 9.999712 
1.5651533e+3, 2.4454552e+2, -462788.03, -719173.94, -79898.07, -0.13255124, -0.16129467, -439927.56, 103509.234, 0.0, 10.001407, 9.998055 
1.5651692e+3, 2.5454402e+2, -405286.03, -621891.44, -65915.91, 0.12498333, -0.16388063, -386803.97, 58650.434, 0.00000039469393, 10.001067, 9.998201 
1.5651834e+3, 2.6454228e+2, -329839.25, -563475.9, -20166.25, 0.18729317, -0.13709712, -328111.38, 19360.975, 0.000008163994, 10.001037, 9.99795 
1.565195e+3, 2.7454007e+2, -185872.63, -429845.53, -31534.45, 0.0063416213, -0.20172133, -181862.58, 67629.81, 0.000058543963, 10.001293, 9.998067 
1.5652083e+3, 2.8453806e+2, -86320.77, -415679.94, -20765.465, -0.01283439, -0.16016376, -85016.72, 66495.695, 0.00029613846, 10.001672, 9.997314 
1.565223e+3, 2.945361e+2, 116155.57, -245491.73, -29682.883, 0.16676688, -0.14556266, 118575.66, 172109.52, 0.00096601876, 10.002292, 9.997503 
1.5652373e+3, 3.0453435e+2, 271726.25, 32632.61, 38008.727, 0.20972499, -0.13924478, 277623.06, 277623.06, 0.002166349, 10.002258, 9.99911 
1.5652496e+3, 3.1453565e+2, 125363.61, -54248.492, -71678.96, 0.006670584, 0.012390869, 150461.88, 150461.88, 0.0037553748, 10.001235, 9.999007 
1.5749902e+3, 1.245373e+2, -1816651.5, -1717983.1, -46264.07, -0.02663333, -0.24880016, -1699684.4, 19832.195, 0.023204513, 9.999017, 10.000436 
1.5750077e+3, 1.345391e+2, -1798896.0, -1636643.4, -5188.674, 0.2867206, -0.15149789, -1636477.6, -14980.58, 0.014108494, 9.998437, 10.000597 
1.5750197e+3, 1.4453843e+2, -1710130.4, -1704510.9, 9145.283, 0.049416024, -0.20586112, -1697753.5, -174249.98, 0.0063687824, 9.999043, 9.99916 
1.5750343e+3, 1.5453854e+2, -1410425.8, -1514440.9, 19629.11, -0.023584751, -0.1430313, -1406844.8, 18660.102, 0.00176415, 10.000479, 9.999087 
1.5750477e+3, 1.6453817e+2, -1271073.0, -1385017.6, -91349.21, -0.13104671, -0.08373478, -1220386.0, 107124.02, 0.00019721544, 10.000676, 9.999224 
1.5750615e+3, 1.745371e+2, -1332107.1, -1338330.5, -55143.6, -0.04590235, -0.16920325, -1279987.5, -50466.695, 0.0000019795527, 9.999487, 9.999436 
1.5750754e+3, 1.8453635e+2, -1246536.5, -1299856.0, -23449.867, -0.017129432, -0.15537335, -1237690.8, -106161.914, 0.0, 9.999633, 9.998958 
1.5750888e+3, 1.9453579e+2, -908225.3, -1071039.3, -20215.594, -0.11317044, -0.15335797, -905752.8, 127782.586, 0.0, 10.001231, 9.999081 
1.5751022e+3, 2.045353e+2, -798188.06, -982900.25, -124397.91, -0.10430567, -0.09180504, -735610.3, 199930.94, 0.0, 10.0014, 9.9989195 
1.5751158e+3, 2.1453477e+2, -883213.25, -954030.94, -76384.14, 0.0704445, -0.08698755, -834429.9, 3117.5964, 0.0, 10.000077, 9.999081 
1.5751293e+3, 2.2453342e+2, -873022.7, -993630.4, 3591.9138, 0.11232785, -0.0810378, -872915.8, -133354.75, 0.0, 9.999827, 9.998278 
1.5751426e+3, 2.3453093e+2, -629287.94, -803608.9, -25521.215, 0.0034502184, -0.20805095, -625628.4, 15956.661, 0.0, 10.00076, 9.998444 
1.5751557e+3, 2.4452956e+2, -459961.34, -640980.56, -106463.25, -0.053716585, -0.19340093, -410734.0, 132863.4, 0.0, 10.001095, 9.998739 
1.5751688e+3, 2.5452936e+2, -387092.72, -531127.56, -62192.195, -0.041610233, -0.14614218, -363955.66, 81641.99, 0.00000029448665, 10.000836, 9.998933 
1.5751828e+3, 2.6452833e+2, -350624.34, -551088.0, -29614.139, 0.01337353, -0.096688434, -346341.03, 1265.3472, 0.000007127328, 10.000796, 9.998153 
1.5751977e+3, 2.7452582e+2, -201671.73, -410121.66, -2091.7927, 0.11387312, -0.21279159, -201650.75, 47978.52, 0.000059012113, 10.001071, 9.99831 
1.5752113e+3, 2.8452381e+2, -94651.586, -382672.16, -17277.92, 0.09536789, -0.20191751, -93618.81, 58030.176, 0.00030982727, 10.001447, 9.997651 
1.5752235e+3, 2.9452258e+2, 88281.88, -224286.31, 22498.291, -0.053218998, -0.15540461, 89892.98, 143555.72, 0.0010139579, 10.001952, 9.997811 
1.5752377e+3, 3.0451995e+2, 164012.94, -106991.71, -9999.825, -0.009644192, -0.20676309, 164381.42, 164381.42, 0.002282176, 10.001921, 9.998295 
1.5752533e+3, 3.1452134e+2, 7149.9165, -158005.34, -52380.29, 0.1943728, 0.022098705, 22361.65, 22361.65, 0.0039773253, 10.000665, 9.998541 
1.5849881e+3, 1.245214e+2, -1846904.1, -1802810.9, -29195.352, -0.10890599, -0.31586346, -1788273.0, -68601.87, 0.024665277, 9.999117, 9.999783 
1.5850069e+3, 1.3452484e+2, -1603466.1, -1557939.1, -83190.06, 0.29178295, -0.038603283, -1494454.4, 127184.62, 0.0150364665, 9.999835, 10.000465 
1.5850198e+3, 1.4452372e+2, -1556559.4, -1615411.1, -18203.242, 0.13882184, -0.14525492, -1551384.1, -27732.814, 0.0068181083, 10.000022, 9.999304 
1.5850344e+3, 1.5452379e+2, -1591854.0, -1598667.0, 7991.6406, 0.023282759, -0.08979287, -1586573.1, -160921.14, 0.0019058621, 9.999193, 9.999138 
1.5850475e+3, 1.6452341e+2, -1486263.9, -1445159.3, -49559.934, -0.10407397, -0.05191586, -1412059.1, -84403.53, 0.0002187055, 9.999034, 9.999593 
1.5850617e+3, 1.7452233e+2, -1200903.6, -1225396.5, -65268.0, -0.0017642113, -0.17842127, -1146743.1, 82920.94, 0.000002466339, 10.000199, 9.99986 
1.5850762e+3, 1.8452157e+2, -1137285.5, -1240741.8, 25215.303, 0.057730347, -0.1886547, -1131467.0, 204.0963, 0.0, 10.000365, 9.999006 
1.58509e+3, 1.9452101e+2, -1126228.9, -1170102.3, 34142.32, -0.039766125, -0.19001871, -1107583.4, -73904.7, 0.0, 9.999708, 9.999129 
1.5851033e+3, 2.0452055e+2, -997305.9, -1067316.3, -53339.984, -0.056353465, -0.1361214, -968510.5, -32826.234, 0.0, 9.999949, 9.999055 
1.5851164e+3, 2.1452007e+2, -670970.3, -836601.3, -95737.58, 0.058459092, -0.14227584, -627199.5, 210489.4, 0.0, 10.001425, 9.999251 
1.58513e+3, 2.2451887e+2, -614156.44, -905142.1, 11189.788, 0.11401576, -0.11393876, -613726.8, 125975.12, 0.0, 10.001797, 9.997933 
1.5851441e+3, 2.3451668e+2, -603568.9, -839043.7, 8185.346, 0.08072013, -0.16485971, -603284.7, 38441.406, 0.0, 10.00114, 9.9980345 
1.5851577e+3, 2.4451523e+2, -458310.97, -631879.4, -27272.143, 0.04009142, -0.13819286, -454126.7, 89613.65, 0.0, 10.001085, 9.9988 
1.5851703e+3, 2.5451463e+2, -237074.23, -454259.0, -72380.11, -0.022786077, -0.13329728, -215163.03, 230579.63, 0.00000023115544, 10.001847, 9.9989805 
1.5851842e+3, 2.645134e+2, -175798.88, -442816.34, -46017.51, 0.021749204, -0.11197198, -168090.78, 179661.4, 0.0000061293663, 10.001905, 9.998351 
1.5851995e+3, 2.7451107e+2, -150203.47, -357972.16, -61490.258, 0.18641695, -0.23364513, -133369.1, 116404.49, 0.000060026516, 10.001326, 9.99853 
1.5852132e+3, 2.8450954e+2, -94338.54, -311400.94, -15871.88, 0.17067057, -0.21416366, -93184.11, 58603.504, 0.0003212461, 10.001152, 9.998268 
1.5852249e+3, 2.9450908e+2, 58255.793, -166936.0, -1567.9052, -0.06289003, -0.15437236, 58266.707, 112059.3, 0.0010570007, 10.001425, 9.998451 
1.5852389e+3, 3.0450612e+2, 147215.66, -178578.16, 15559.485, -0.06786009, -0.25044858, 147957.06, 147957.06, 0.0023874303, 10.002037, 9.997775 
1.5852554e+3, 3.1450647e+2, 318199.38, -6490.47, -91930.875, 0.23816158, -0.053466685, 342421.22, 342421.22, 0.0041719265, 10.002772, 9.998592 
1.5949889e+3, 1.24506444e+2, -1893030.9, -1957070.8, 29030.613, -0.042280726, -0.19477123, -1881829.8, -162010.58, 0.026239868, 9.99933, 9.998639 
1.5950036e+3, 1.3450879e+2, -1619367.5, -1593153.9, -22290.57, -0.042307444, -0.016580276, -1580402.4, 41398.5, 0.016040104, 9.999848, 10.000208 
1.5950204e+3, 1.4450811e+2, -1486246.9, -1513204.4, -65760.13, 0.11727642, -0.08699908, -1432598.4, 91209.914, 0.0073062, 10.000194, 9.999931 
1.5950346e+3, 1.5450755e+2, -1521701.8, -1466025.0, -11025.308, 0.07113809, -0.1859588, -1463921.3, -38111.047, 0.002060233, 9.999239, 10.00003 
1.5950476e+3, 1.6450733e+2, -1456367.9, -1407718.1, -33738.004, -0.059967328, -0.18851256, -1390450.4, -62640.88, 0.00024185247, 9.999132, 9.999805 
1.5950616e+3, 1.7450719e+2, -1198317.5, -1211061.8, -7870.854, -0.078836866, -0.23577192, -1194562.6, 35245.99, 0.0000030340082, 10.000158, 9.999979 
1.595076e+3, 1.8450704e+2, -1100281.8, -1163810.5, -15817.721, -0.02443255, -0.21716355, -1096561.3, 35247.918, 0.0, 10.0003605, 9.999537 
1.5950911e+3, 1.9450682e+2, -1109397.6, -1101349.9, 24765.559, 0.073032655, -0.24110806, -1080283.4, -46471.094, 0.0, 9.999573, 9.999663 
1.5951048e+3, 2.0450626e+2, -1057904.5, -1157119.5, -18585.785, 0.0662847, -0.19825523, -1054537.1, -118717.43, 0.0, 9.999795, 9.99851 
1.5951172e+3, 2.1450506e+2, -756489.75, -944180.7, -25386.588, -0.020146236, -0.21779786, -753116.6, 84717.83, 0.0, 10.001131, 9.998651 
1.5951304e+3, 2.2450429e+2, -631941.56, -882329.8, -26554.252, -0.054778345, -0.12999225, -629156.44, 110688.64, 0.0, 10.001525, 9.998222 
1.5951444e+3, 2.345039e+2, -619187.9, -814070.44, 4802.333, -0.026948465, -0.039780896, -619069.6, 22782.273, 0.0, 10.000886, 9.998329 
1.5951586e+3, 2.4450256e+2, -544120.8, -744975.94, -12975.592, -0.0066282633, 0.013756906, -543286.06, 579.31256, 0.0, 10.000811, 9.99815 
1.5951729e+3, 2.5449985e+2, -326272.66, -568187.5, -25161.508, 0.028832156, -0.12689388, -323683.34, 122205.984, 0.00000009760233, 10.00156, 9.998324 
1.5951867e+3, 2.644976e+2, -208216.7, -455061.28, -79987.05, 0.060491588, -0.17556068, -184564.22, 163344.88, 0.0000054247644, 10.001658, 9.998389 
1.5952002e+3, 2.7449584e+2, -183951.9, -370510.8, -59838.992, 0.08708669, -0.2533835, -166408.27, 83516.195, 0.0000627863, 10.001068, 9.99857 
1.5952136e+3, 2.8449515e+2, -86102.31, -215406.19, -25600.379, 0.05429183, -0.1935967, -81218.266, 70711.3, 0.0003316825, 10.000822, 9.999083 
1.5952268e+3, 2.944952e+2, 71406.27, -59286.32, 35433.777, -0.051525276, -0.16618626, 80394.97, 134322.03, 0.0010854213, 10.001089, 9.9993515 
1.5952404e+3, 3.0449247e+2, 64039.473, -259801.33, 22859.836, -0.153902, -0.26658, 65645.18, 65645.18, 0.0024525027, 10.001668, 9.997386 
1.5952548e+3, 3.1449136e+2, 251474.14, 5748.399, -10995.379, -0.13884003, -0.17730126, 251965.16, 251965.16, 0.0042836345, 10.002163, 9.99896 
1.6049904e+3, 1.24491684e+2, -1761152.8, -1883660.0, 118314.17, 0.14638253, -0.15964013, -1689176.4, 30786.926, 0.027939666, 10.000236, 9.998714 
1.605003e+3, 1.3449265e+2, -1597938.6, -1604463.9, 44715.402, -0.08388088, -0.09385026, -1556367.0, 65591.11, 0.01712635, 10.000126, 9.999995 
1.6050206e+3, 1.444923e+2, -1555837.0, -1522596.0, 8116.322, 0.16174002, -0.12408298, -1520720.1, 3242.0662, 0.007836914, 9.999647, 10.00011 
1.6050348e+3, 1.5449193e+2, -1383593.4, -1359421.4, -28436.879, 0.1434451, -0.23672877, -1340608.6, 85353.234, 0.0022287087, 10.00004, 10.000361 
1.605048e+3, 1.6449192e+2, -1325806.5, -1325677.1, -12357.384, 0.050297037, -0.24267757, -1313384.3, 14574.685, 0.00026665046, 9.999959, 9.999958 
1.6050616e+3, 1.7449209e+2, -1229164.1, -1206105.5, -19410.96, -0.058887478, -0.27391493, -1195058.1, 34897.414, 0.0000036433328, 9.999871, 10.000143 
1.605076e+3, 1.8449232e+2, -1153417.9, -1180222.8, -30355.014, -0.03187626, -0.22995706, -1133638.3, -1685.2839, 0.0, 9.999948, 9.999624 
1.6050914e+3, 1.9449241e+2, -954540.0, -1015054.2, -57921.223, 0.11462951, -0.23548785, -919449.06, 114504.91, 0.0, 10.000561, 9.999784 
1.6051055e+3, 2.0449199e+2, -913222.44, -1075950.5, -38688.805, 0.13168877, -0.18901363, -904492.5, 31467.78, 0.0, 10.000755, 9.998603 
1.6051182e+3, 2.1449089e+2, -814890.2, -955442.9, -31259.703, -0.004773836, -0.20706065, -808251.44, 29722.066, 0.0, 10.00068, 9.998782 
1.6051315e+3, 2.2449012e+2, -713107.25, -903860.25, 1890.3987, -0.052802365, -0.13108966, -713088.5, 26894.602, 0.0, 10.000883, 9.99838 
1.6051458e+3, 2.3448977e+2, -508319.97, -728146.0, -13289.078, -0.0032483242, -0.05991604, -507519.53, 134469.17, 0.0, 10.001521, 9.9985895 
1.6051604e+3, 2.4448831e+2, -412253.56, -723248.56, 20988.535, 0.04340223, -0.01586399, -410843.47, 133160.34, 0.0, 10.001902, 9.997778 
1.6051753e+3, 2.5448525e+2, -281309.06, -592193.2, -3247.6177, 0.102754526, -0.1452942, -281275.13, 164758.27, 0.000000007673713, 10.002059, 9.997925 
1.6051891e+3, 2.6448298e+2, -156914.73, -416428.1, -45844.22, 0.11603943, -0.18083487, -149054.23, 199000.36, 0.0000049768487, 10.001942, 9.998528 
1.6052012e+3, 2.744818e+2, -119057.0, -326425.16, -72511.44, 0.065130025, -0.20894788, -96217.18, 153847.47, 0.00006482946, 10.001443, 9.998714 
1.6052142e+3, 2.8448123e+2, -46063.082, -219261.9, 1080.083, 0.041301083, -0.1334187, -46056.348, 106012.484, 0.00033743004, 10.001144, 9.998925 
1.6052288e+3, 2.94481e+2, 71084.66, -75982.125, -56376.97, 0.04227267, -0.11627238, 90209.35, 144278.9, 0.0010902435, 10.001135, 9.999228 
1.6052425e+3, 3.0447853e+2, 39664.004, -253389.63, -23774.734, -0.062447086, -0.19776106, 41580.26, 41580.26, 0.0024557933, 10.001424, 9.997542 
1.6052572e+3, 3.1447595e+2, 265291.2, 68057.87, -98243.51, -0.092124395, -0.263297, 305875.94, 305875.94, 0.004283157, 10.001981, 9.999488 
1.6149904e+3, 1.2447722e+2, -1631772.5, -1695401.9, -86289.59, 0.025870368, -0.2034961, -1571619.4, 148482.97, 0.02978273, 10.0005665, 9.99987 
1.6150047e+3, 1.3447683e+2, -1601451.0, -1624374.9, 31890.143, 0.03059757, -0.25113612, -1579025.5, 43081.64, 0.018308382, 10.000173, 9.999841 
1.6150199e+3, 1.4447683e+2, -1558794.0, -1556477.5, -859.15, 0.07004072, -0.21925922, -1556193.6, -32085.973, 0.008418617, 9.999756, 9.999828 
1.6150348e+3, 1.5447696e+2, -1405422.1, -1409183.5, 3965.269, 0.09720683, -0.24864332, -1402914.1, 23192.867, 0.0024150687, 10.000058, 10.000012 
1.6150486e+3, 1.6447711e+2, -1295700.8, -1302575.4, -38410.54, 0.058768477, -0.22714047, -1260574.1, 67531.22, 0.0002938315, 10.000113, 10.000047 
1.6150616e+3, 1.7447709e+2, -1221771.4, -1192626.8, -10502.531, -0.072427794, -0.2894809, -1189236.5, 40867.613, 0.000004294035, 9.999862, 10.000247 
1.6150756e+3, 1.8447739e+2, -1177675.6, -1227602.4, -26891.691, -0.1233976, -0.22919813, -1165946.6, -33843.918, 0.0, 9.999936, 9.999301 
1.6150907e+3, 1.9447781e+2, -995339.94, -1075597.0, -19431.232, -0.045981847, -0.16743131, -990882.94, 43220.316, 0.0, 10.000456, 9.999421 
1.6151053e+3, 2.0447786e+2, -893701.7, -992035.2, -60526.445, -0.01656954, -0.08664917, -864888.8, 71215.836, 0.0, 10.000569, 9.999267 
1.6151188e+3, 2.144774e+2, -799833.0, -872946.94, -19490.145, -0.027097166, -0.11219822, -794962.0, 43145.28, 0.0, 10.000463, 9.999453 
1.615133e+3, 2.2447634e+2, -752554.7, -913033.8, 6920.156, -0.02498933, -0.10751109, -752256.9, -12140.099, 0.0, 10.000582, 9.998458 
1.6151476e+3, 2.3447429e+2, -547844.1, -741432.06, 29117.18, -0.00018750157, -0.20845889, -543559.5, 98577.055, 0.0, 10.001239, 9.998631 
1.6151623e+3, 2.4447243e+2, -459372.34, -766182.7, 9687.422, 0.022509469, -0.19923651, -459066.78, 85089.3, 0.0, 10.001649, 9.99761 
1.6151771e+3, 2.544707e+2, -333458.78, -639044.7, 24819.188, 0.057209384, -0.18718891, -331456.13, 114719.66, 0.00000000987263, 10.001786, 9.997736 
1.6151904e+3, 2.6446947e+2, -201172.31, -430474.97, -80264.71, 0.03271051, -0.11465188, -175868.83, 172320.44, 0.000004852571, 10.0016165, 9.998579 
1.6152017e+3, 2.7446854e+2, -149026.06, -329349.1, -66995.8, -0.045278322, -0.12735151, -126859.77, 123337.95, 0.00006465758, 10.0012045, 9.998796 
1.6152148e+3, 2.8446764e+2, -161585.94, -402264.72, -19344.04, -0.046712983, -0.03376493, -160041.11, -7834.2563, 0.0003366383, 10.000899, 9.997787 
1.6152303e+3, 2.9446673e+2, -49896.938, -266947.03, -28514.947, 0.037091773, 0.020238865, -46213.3, 8003.9346, 0.0010768002, 10.000869, 9.998047 
1.615245e+3, 3.0446398e+2, 25264.707, -197441.6, -23133.23, 0.008854436, -0.04577175, 27642.248, 27642.248, 0.0024103601, 10.001083, 9.998069 
1.6152608e+3, 3.144603e+2, 211862.17, 128754.98, -3040.6758, 0.013358857, -0.29419795, 211973.28, 211973.28, 0.0041886293, 10.001304, 10.000196 
1.6249913e+3, 1.24463126e+2, -1703664.8, -1673938.1, -55310.582, 0.12149592, -0.21377122, -1631528.6, 88710.02, 0.03179242, 9.999823, 10.000341 
1.6250059e+3, 1.3446206e+2, -1575125.4, -1634390.1, 10250.261, 0.13493733, -0.3233558, -1573402.5, 48846.27, 0.019603958, 10.000429, 9.999636 
1.6250193e+3, 1.4446247e+2, -1569464.5, -1573817.6, 30480.771, 0.04705929, -0.23670083, -1541082.8, -16836.666, 0.009062119, 9.999761, 9.999694 
1.6250347e+3, 1.5446311e+2, -1480593.4, -1451333.1, 26336.664, 0.11233584, -0.20401756, -1435835.9, -9593.254, 0.002624408, 9.999583, 9.999942 
1.625049e+3, 1.6446345e+2, -1406081.0, -1357879.3, 17730.096, 0.11075307, -0.15887839, -1352060.1, -23819.207, 0.00032476612, 9.999367, 10.000031 
1.6250615e+3, 1.7446335e+2, -1308390.6, -1227460.6, -825.3068, -0.025550226, -0.2305996, -1227452.3, 2789.0315, 0.000005034694, 9.9992485, 10.000297 
1.6250755e+3, 1.8446358e+2, -1252623.9, -1267329.4, 58846.473, -0.093491554, -0.17717104, -1200672.6, -68431.766, 0.0, 9.99944, 9.999275 
1.6250908e+3, 1.9446407e+2, -1010545.3, -1073264.0, 59715.336, -0.07203741, -0.10957703, -974455.94, 59784.51, 0.0, 10.0003395, 9.999485 
1.6251056e+3, 2.0446402e+2, -829523.1, -956751.3, 22869.102, -0.04893125, -0.04633633, -825537.3, 110704.69, 0.0, 10.000975, 9.99932 
1.6251196e+3, 2.144631e+2, -665452.3, -805285.56, -14578.447, -0.02518024, -0.1219036, -663948.6, 174299.3, 0.0, 10.001349, 9.999501 
1.6251343e+3, 2.2446188e+2, -608362.9, -841300.2, 22543.441, 0.018720949, -0.13463755, -606201.2, 134057.25, 0.0, 10.001551, 9.998485 
1.6251497e+3, 2.344601e+2, -500610.84, -720323.94, 5976.6123, 0.07266221, -0.20998015, -500448.4, 141828.03, 0.0, 10.001552, 9.998632 
1.6251643e+3, 2.4445859e+2, -467673.28, -729467.44, 20166.742, 0.08198784, -0.1815783, -466128.88, 78163.97, 0.0, 10.001416, 9.997973 
1.6251782e+3, 2.5445735e+2, -392507.2, -625901.3, 32275.916, 0.015434604, -0.15775634, -388126.0, 58182.02, 0.000000011745934, 10.001191, 9.998116 
1.6251913e+3, 2.644563e+2, -258101.9, -483110.0, -18645.357, -0.018914385, -0.07379807, -256567.33, 91752.56, 0.0000048598445, 10.001339, 9.998355 
1.6252038e+3, 2.744552e+2, -53488.414, -314842.03, -70315.49, 0.004036545, -0.07210268, -35771.5, 214559.11, 0.00006306325, 10.001988, 9.998519 
1.6252173e+3, 2.844537e+2, 51221.08, -337629.7, 33987.324, 0.04828434, -0.0082891835, 54169.37, 206515.17, 0.00033149842, 10.002548, 9.997423 
1.6252325e+3, 2.9445165e+2, 243631.45, -169884.28, 20883.742, 0.08702855, -0.02492195, 244683.47, 299050.38, 0.0010554205, 10.00309, 9.997635 
1.625247e+3, 3.0444923e+2, 267611.5, -58211.652, 58785.22, 0.03597706, -0.05140003, 277893.13, 277893.13, 0.0023409713, 10.002627, 9.9983 
1.6252626e+3, 3.1444666e+2, 138139.78, 72445.266, -21031.877, 0.11178879, -0.20406783, 144296.14, 144296.14, 0.0040352517, 10.000815, 10.000079 
1.6349916e+3, 1.24449104e+2, -1680892.1, -1653563.6, 47784.875, 0.07776518, -0.24205504, -1617527.8, 102847.14, 0.03398967, 9.999946, 10.000418 
1.6350059e+3, 1.3444823e+2, -1593329.0, -1677380.9, 19304.457, 0.053557172, -0.3172107, -1589107.3, 33276.883, 0.02102759, 10.000453, 9.999327 
1.6350186e+3, 1.4444903e+2, -1535954.1, -1552652.1, -15057.244, -0.06578478, -0.17520376, -1527086.1, -2707.54, 0.009775217, 9.999944, 9.999764 
1.6350338e+3, 1.5445048e+2, -1464131.1, -1425628.8, 31105.508, 0.03300459, -0.081098095, -1408299.0, 18068.957, 0.002860367, 9.999611, 10.000112 
1.635048e+3, 1.6445102e+2, -1398079.5, -1358766.3, -8324.655, 0.034740575, -0.02191837, -1357076.1, -28711.285, 0.00036087315, 9.999434, 9.999995 
1.6350609e+3, 1.7445076e+2, -1320997.1, -1248778.5, 4396.894, -0.051133707, -0.09879951, -1248511.9, -18143.592, 0.000005927034, 9.999228, 10.00016 
1.6350752e+3, 1.844508e+2, -1223340.6, -1212695.6, 69046.25, -0.09796775, -0.075109124, -1148767.0, -16398.469, 0.0, 9.999462, 9.999643 
1.6350912e+3, 1.94451e+2, -999883.8, -1026529.0, 107672.71, -0.09934008, -0.074868605, -904712.6, 129654.73, 0.0, 10.000229, 9.999865 
1.6351062e+3, 2.0445016e+2, -891322.6, -1041057.5, 21595.285, -0.114007734, -0.08569463, -888270.25, 48104.957, 0.0, 10.000783, 9.998837 
1.63512e+3, 2.1444787e+2, -734336.0, -900069.4, 18627.643, -0.13189888, -0.24631235, -732268.1, 106128.34, 0.0, 10.001134, 9.99896 
1.6351351e+3, 2.2444676e+2, -665697.0, -884840.8, 9229.64, -0.084359154, -0.21011953, -665308.94, 75099.41, 0.0, 10.001231, 9.998336 
1.6351515e+3, 2.3444709e+2, -549083.56, -753988.75, 24045.012, 0.07852899, -0.06895123, -546299.75, 96109.336, 0.0, 10.001269, 9.998532 
1.635166e+3, 2.4444664e+2, -463203.25, -642119.0, -5261.177, 0.07002645, 0.03291942, -463048.7, 81366.97, 0.0, 10.001088, 9.998727 
1.6351779e+3, 2.5444505e+2, -367841.56, -518301.8, 43525.74, -0.16025841, -0.056200597, -356157.6, 90273.55, 0.000000006263202, 10.000964, 9.998958 
1.6351911e+3, 2.6444358e+2, -327379.13, -582180.4, -12991.149, -0.19054902, -0.03378733, -326718.47, 21727.24, 0.000005059976, 10.001127, 9.997783 
1.6352065e+3, 2.74442e+2, -131444.6, -423813.34, -16993.873, 0.05600772, -0.028918302, -130460.15, 120001.45, 0.000060994436, 10.001746, 9.997891 
1.6352212e+3, 2.8443944e+2, 12247.055, -337906.28, 38462.137, 0.1361891, -0.04461622, 16422.098, 168907.67, 0.0003219481, 10.00222, 9.99757 
1.6352352e+3, 2.944357e+2, 200599.95, -170248.28, 73113.07, 0.011493115, -0.24550493, 214493.73, 269013.66, 0.0010251604, 10.00273, 9.997796 
1.635248e+3, 3.0443403e+2, 198190.64, -108405.99, -23054.395, -0.15301156, -0.1935733, 199914.52, 199914.52, 0.0022563916, 10.002232, 9.998143 
1.6352625e+3, 3.1443462e+2, 9175.469, -63876.082, -8734.183, -0.06399864, -0.025621975, 10205.229, 10205.229, 0.003853191, 10.000268, 9.999396 
1.6449918e+3, 1.2443494e+2, -1740000.5, -1651448.9, 71498.16, 0.14627483, -0.24434756, -1611627.5, 108887.586, 0.036383986, 9.999435, 10.000687 
1.6450055e+3, 1.3443452e+2, -1763280.6, -1756964.8, -17310.537, 0.037643697, -0.27567035, -1742526.5, -120006.67, 0.022584815, 9.99928, 9.999353 
1.6450186e+3, 1.4443485e+2, -1611560.3, -1577874.4, 7398.8267, -0.011442504, -0.18529975, -1576321.0, -51803.22, 0.010560797, 9.99937, 9.999874 
1.6450335e+3, 1.5443598e+2, -1401604.9, -1383243.8, 16150.237, 0.03891639, -0.13845438, -1373847.0, 52661.945, 0.0031241647, 9.999976, 10.00023 
1.6450477e+3, 1.6443652e+2, -1319359.4, -1331096.0, -4777.3677, 0.04024303, -0.08341219, -1317660.6, 10844.871, 0.0004029895, 10.000031, 9.999895 
1.6450608e+3, 1.7443661e+2, -1245229.0, -1231280.0, -28130.346, -0.0067133275, -0.10816261, -1209272.4, 21234.078, 0.0000070009137, 9.999827, 10.000001 
1.6450754e+3, 1.8443681e+2, -1173689.4, -1132860.4, 90860.76, -0.02945963, -0.08175201, -1060149.0, 72355.73, 0.0, 9.999576, 10.000119 
1.6450915e+3, 1.9443694e+2, -1063892.4, -1000028.5, 102231.96, -0.053931586, -0.14196946, -924857.56, 109644.09, 0.0, 9.999555, 10.000356 
1.6451068e+3, 2.0443632e+2, -1014047.4, -1111338.8, 81155.65, -0.073924124, -0.1532914, -968074.6, -31567.287, 0.0, 9.999997, 9.998723 
1.6451214e+3, 2.1443465e+2, -744524.2, -912868.94, 71160.94, -0.102140695, -0.23869601, -718474.6, 120050.06, 0.0, 10.0011215, 9.9988575 
1.6451366e+3, 2.2443375e+2, -629988.6, -874387.9, 79731.69, -0.063137256, -0.17741157, -606277.7, 134258.38, 0.0, 10.001494, 9.998296 
1.6451523e+3, 2.3443356e+2, -603009.0, -786951.0, 64018.137, 0.06550653, -0.07769022, -582922.0, 59619.57, 0.0, 10.000921, 9.998489 
1.6451667e+3, 2.4443313e+2, -487106.25, -637644.0, 70256.76, 0.05963182, 0.022288654, -459411.94, 85135.875, 0.0, 10.0008545, 9.998868 
1.6451791e+3, 2.5443214e+2, -283051.34, -467772.1, 32514.012, -0.14695062, -0.01847324, -277495.4, 169061.84, 0.000000005166704, 10.001497, 9.999052 
1.645193e+3, 2.6443058e+2, -229265.89, -540623.75, -490.74817, -0.14677307, -0.004932105, -229265.11, 119307.25, 0.000005473011, 10.001846, 9.997705 
1.6452087e+3, 2.7442813e+2, -101162.74, -410441.4, -18304.959, 0.10221058, -0.07669965, -100083.11, 150513.03, 0.000058881178, 10.002001, 9.997837 
1.6452236e+3, 2.844255e+2, 9159.892, -312421.84, 95112.09, 0.1786408, -0.11050801, 35184.473, 187804.88, 0.0003079229, 10.00207, 9.997841 
1.6452377e+3, 2.9442257e+2, 80967.47, -198000.86, 89961.75, 0.04766081, -0.2502194, 107462.06, 162107.92, 0.0009851817, 10.001772, 9.998081 
1.6452503e+3, 3.0442107e+2, 162509.9, -137758.44, 30922.844, -0.11894843, -0.19349246, 165661.39, 165661.39, 0.0021654046, 10.001999, 9.99807 
1.6452642e+3, 3.144217e+2, 311432.22, 30417.088, -45287.5, -0.010354155, -0.0078513585, 318550.3, 318550.3, 0.003679341, 10.002583, 9.998922 
1.6549926e+3, 1.2442113e+2, -1690093.5, -1603190.5, -138966.28, 0.19075195, -0.17083661, -1501041.0, 219613.86, 0.03897044, 9.999653, 10.000949 
1.6550042e+3, 1.344214e+2, -1733938.8, -1695643.4, -1235.5896, -0.05134712, -0.15461631, -1695603.6, -72952.65, 0.024272982, 9.999274, 9.9997835 
1.655019e+3, 1.4442012e+2, -1582780.3, -1538483.6, 4782.217, 0.030464765, -0.26634973, -1537973.3, -13311.113, 0.0114189135, 9.99946, 10.000098 
1.6550334e+3, 1.5441972e+2, -1396796.3, -1379204.0, 52470.996, -0.0135298725, -0.37106633, -1334797.0, 91867.48, 0.0034161112, 10.000008, 10.000242 
1.6550474e+3, 1.6442004e+2, -1313969.1, -1347890.3, -33665.137, -0.03808711, -0.3286122, -1293233.5, 35428.17, 0.00045137366, 10.000141, 9.999732 
1.6550608e+3, 1.7442104e+2, -1255748.5, -1243564.0, -22501.764, -0.021595677, -0.25709045, -1226344.4, 4310.6563, 0.000008273259, 9.999791, 9.99993 
1.6550753e+3, 1.844217e+2, -1136562.8, -1062891.3, 74056.78, -0.035001673, -0.20376025, -1017015.0, 115633.586, 0.0, 9.999593, 10.000598 
1.655091e+3, 1.9442189e+2, -1041441.44, -934795.06, 113084.52, -0.073682085, -0.30604082, -863092.4, 171551.05, 0.0, 9.999463, 10.0008545 
1.655107e+3, 2.0442244e+2, -1024334.25, -1090320.4, 104249.664, -0.09503272, -0.23587848, -947981.4, -11343.283, 0.0, 9.999817, 9.998953 
1.6551232e+3, 2.1442327e+2, -763781.06, -894803.5, 127609.13, -0.07063926, -0.10045123, -685849.6, 152784.8, 0.0, 10.000874, 9.999101 
1.6551381e+3, 2.2442244e+2, -668439.8, -884888.9, 41423.785, -0.072816126, -0.046433613, -660783.06, 79862.04, 0.0, 10.001196, 9.998369 
1.6551517e+3, 2.3441944e+2, -633766.8, -794094.3, 60951.906, -0.1043777, -0.23603788, -613226.25, 29448.973, 0.0, 10.000679, 9.998559 
1.655166e+3, 2.4441811e+2, -565206.6, -735616.75, 79066.35, -0.121354505, -0.20185941, -534173.2, 10516.252, 0.0, 10.000581, 9.998326 
1.6551813e+3, 2.5441867e+2, -362781.84, -568870.5, 74533.07, -0.09018168, -0.037214074, -338651.84, 108034.4, 0.00000000856411, 10.001232, 9.998477 
1.6551961e+3, 2.6441726e+2, -258188.78, -540147.25, -12479.087, -0.045004465, 0.018031212, -257637.55, 91062.97, 0.0000057188686, 10.001576, 9.997843 
1.6552101e+3, 2.744134e+2, -115240.4, -390086.6, 10572.545, 0.0060455874, -0.21647155, -114834.305, 135902.53, 0.00005720022, 10.001776, 9.99809 
1.6552244e+3, 2.8441155e+2, -10665.0, -277918.2, 63021.56, 0.019174382, -0.20655604, 3450.6948, 156204.17, 0.0002952708, 10.001743, 9.998236 
1.6552395e+3, 2.9441187e+2, 67269.58, -162260.98, 108838.664, 0.011036073, -0.07014429, 110671.69, 165421.0, 0.00095047243, 10.001484, 9.99847 
1.6552529e+3, 3.0440986e+2, 83046.36, -196470.36, 31415.969, -0.08534713, -0.074055605, 86533.81, 86533.81, 0.0020977776, 10.001571, 9.99786 
1.655267e+3, 3.1440723e+2, 188680.69, -90194.47, 46079.2, -0.043507542, -0.19213825, 196097.22, 196097.22, 0.00356369, 10.002003, 9.998373 
1.6649923e+3, 1.2440706e+2, -1851431.4, -1675597.0, -118294.57, 0.26470494, -0.13337503, -1616126.9, 104670.086, 0.041736465, 9.998499, 10.000997 
1.6650043e+3, 1.344081e+2, -1639594.5, -1586957.8, 25614.629, 0.037926234, -0.09951682, -1576550.6, 46233.0, 0.026087236, 9.999631, 10.000366 
1.6650191e+3, 1.4440684e+2, -1606521.1, -1550765.5, 65383.1, 0.112916626, -0.23454879, -1507565.0, 17228.434, 0.012349877, 9.999331, 10.000058 
1.6650333e+3, 1.5440603e+2, -1418488.8, -1385836.3, 78943.83, -0.017756261, -0.38394484, -1321548.1, 105251.58, 0.003737191, 9.999862, 10.000254 
1.6650474e+3, 1.6440639e+2, -1311675.6, -1320901.1, 17794.705, -0.03261746, -0.34806696, -1297905.5, 30890.078, 0.00050616945, 10.000065, 9.999944 
1.665061e+3, 1.744076e+2, -1209648.3, -1198257.5, 15237.556, 0.024198802, -0.27657384, -1187685.6, 43099.22, 0.000009797576, 9.999999, 10.000141 
1.6650756e+3, 1.844081e+2, -1122510.0, -1120615.9, 136587.31, 0.02742154, -0.22267051, -984972.4, 147807.77, 0.0, 9.999987, 10.000004 
1.6650912e+3, 1.9440779e+2, -922029.44, -945323.94, 59177.855, -0.048120458, -0.31238136, -873363.56, 161418.39, 0.0, 10.000589, 10.000229 
1.6651075e+3, 2.0440817e+2, -884508.7, -992685.3, 38255.934, -0.066421315, -0.2402652, -872347.0, 64431.99, 0.0, 10.000648, 9.999227 
1.6651241e+3, 2.1440929e+2, -849504.8, -902105.0, 36045.875, -0.01619146, -0.10315907, -831184.25, 7587.062, 0.0, 10.000131, 9.999414 
1.6651393e+3, 2.2440872e+2, -762840.4, -899615.0, -1517.1194, -0.029499207, -0.050954815, -762823.56, -22044.889, 0.0, 10.000428, 9.998619 
1.6651526e+3, 2.3440601e+2, -443787.06, -670368.94, -8283.696, -0.13848935, -0.24036844, -443484.63, 199320.77, 0.0, 10.001852, 9.998823 
1.6651672e+3, 2.4440446e+2, -328462.9, -653786.94, 36809.074, -0.13949423, -0.23111159, -324350.1, 220471.27, 0.0, 10.002319, 9.998076 
1.6651836e+3, 2.5440422e+2, -333201.78, -585707.6, 21112.791, -0.0046100314, -0.11395716, -331448.63, 115377.41, 0.0000000057748837, 10.001555, 9.998225 
1.6651985e+3, 2.6440275e+2, -266042.47, -526036.6, 5029.411, 0.04988954, -0.05884587, -265945.22, 82895.95, 0.0000055479773, 10.001441, 9.998006 
1.6652116e+3, 2.7439976e+2, -45907.426, -352612.7, -18294.367, -0.023065865, -0.21838556, -44820.055, 206049.67, 0.000055377644, 10.002201, 9.998161 
1.6652259e+3, 2.8439838e+2, 65767.54, -230375.23, 18398.115, -0.011219945, -0.16779843, 66906.164, 219788.73, 0.00028510438, 10.002222, 9.99831 
1.6652416e+3, 2.9439884e+2, 38072.44, -162285.8, -21736.096, 0.09771315, -0.020025643, 40403.387, 95280.82, 0.000926934, 10.001266, 9.998543 
1.6652554e+3, 3.043963e+2, 83572.51, -190868.19, 5171.0894, 0.036506053, -0.08512811, 83669.914, 83669.914, 0.00206355, 10.001531, 9.99792 
1.66527e+3, 3.143941e+2, 318881.94, 353.7826, -34535.598, 0.039263066, -0.16962744, 322583.38, 322583.38, 0.003521676, 10.002779, 9.998613 
1.6749884e+3, 1.2439293e+2, -1831295.0, -1665184.4, -35398.195, -0.055879787, -0.14720264, -1657955.6, 62983.902, 0.044670317, 9.998628, 10.000997 
1.6750059e+3, 1.343947e+2, -1588748.6, -1499894.0, 37790.848, 0.1858523, -0.1227445, -1485995.3, 136922.0, 0.028026333, 9.999697, 10.000954 
1.6750182e+3, 1.4439511e+2, -1613020.4, -1586034.0, 50495.387, 0.03779047, -0.09769682, -1547260.1, -22349.002, 0.013357116, 9.999419, 9.999776 
1.6750324e+3, 1.5439491e+2, -1421725.3, -1395581.5, 117193.31, -0.11907747, -0.17644192, -1290733.4, 136180.75, 0.004090086, 9.9998665, 10.000191 
1.6750473e+3, 1.643954e+2, -1256319.8, -1230172.3, -2295.6714, -0.1094714, -0.15406017, -1229972.1, 98936.305, 0.0005678562, 10.00016, 10.000525 
1.675061e+3, 1.7439637e+2, -1176615.3, -1119711.9, 22570.85, -0.002627324, -0.16236773, -1111846.4, 119049.516, 0.000011659807, 9.999956, 10.000703 
1.6750756e+3, 1.8439619e+2, -1237972.4, -1363917.5, 136726.27, -0.010321155, -0.1261385, -1150413.9, -17516.207, 0.0, 9.999991, 9.99834 
1.6750915e+3, 1.9439457e+2, -1065867.8, -1215841.9, 95863.66, -0.11060137, -0.1670582, -1019146.56, 15771.092, 0.0, 10.000464, 9.998438 
1.6751076e+3, 2.0439348e+2, -883023.4, -958116.75, 5613.2446, -0.13696687, -0.16380244, -882606.1, 54324.0, 0.0, 10.000503, 9.999538 
1.6751239e+3, 2.1439283e+2, -851422.5, -859129.25, 35546.8, -0.07856484, -0.24467339, -819520.8, 19413.813, 0.0, 9.999916, 9.999819 
1.6751394e+3, 2.2439273e+2, -785246.25, -871410.5, 34134.906, -0.09837209, -0.18402311, -773362.4, -32427.06, 0.0, 10.000106, 9.998965 
1.6751543e+3, 2.3439324e+2, -462606.28, -644943.9, 61768.51, -0.17996895, -0.08527724, -443652.0, 199280.39, 0.0, 10.001573, 9.99913 
1.6751696e+3, 2.4439211e+2, -376950.2, -673505.8, -4961.199, -0.16300853, -0.052113105, -376867.22, 168077.05, 0.0, 10.001974, 9.998102 
1.6751851e+3, 2.5438884e+2, -371564.22, -598200.7, 15589.582, -0.02995902, -0.24122289, -370496.88, 76478.83, 0.0000000017385277, 10.001269, 9.998271 
1.6751996e+3, 2.6438704e+2, -306988.7, -541324.44, 15172.265, -0.02023024, -0.22762091, -306010.44, 42983.223, 0.0000048816705, 10.001134, 9.998054 
1.675213e+3, 2.7438682e+2, -79175.64, -370272.97, 37044.406, -0.13961059, -0.11269762, -74535.42, 176462.16, 0.000051551386, 10.001964, 9.998162 
1.6752276e+3, 2.8438565e+2, -21059.7, -322487.06, -27298.113, -0.10887211, -0.016262617, -18607.455, 134402.22, 0.0002714196, 10.001852, 9.997853 
1.6752435e+3, 2.9438332e+2, -25766.246, -236157.45, -25302.99, 0.12407876, -0.10910154, -22765.934, 32265.926, 0.0008994481, 10.000997, 9.998172 
1.6752575e+3, 3.0438018e+2, 38018.42, -175383.11, 31172.047, 0.053300172, -0.23372528, 42478.574, 42478.574, 0.002033432, 10.001084, 9.998232 
1.6752721e+3, 3.1438148e+2, 303631.78, 95449.38, 77700.29, -0.10298148, -0.0023158088, 329434.06, 329434.06, 0.003509679, 10.002253, 9.999513 
1.6849871e+3, 1.2437964e+2, -1888274.9, -1700260.3, 41511.563, -0.030551163, -0.07346135, -1691502.9, 29567.791, 0.04776628, 9.998306, 10.000877 
1.685005e+3, 1.3438043e+2, -1674085.3, -1522894.3, -15152.6, 0.18110332, -0.16963926, -1521390.6, 101667.8, 0.030093629, 9.999046, 10.001091 
1.6850187e+3, 1.4438194e+2, -1643750.5, -1577577.5, 26176.674, 0.17907268, -0.05381809, -1568474.8, -43432.918, 0.0144471, 9.999087, 10.000006 
1.6850324e+3, 1.543825e+2, -1550740.9, -1425844.5, 89260.26, -0.05241413, -0.08502551, -1379356.1, 47681.42, 0.004479329, 9.998838, 10.000485 
1.6850467e+3, 1.6438295e+2, -1454705.0, -1356387.5, 2750.2437, -0.09547419, -0.06695906, -1356310.6, -27278.3, 0.0006375465, 9.998923, 10.00026 
1.685061e+3, 1.743831e+2, -1199190.8, -1159423.1, -65342.742, 0.013294624, -0.13008974, -1111005.9, 120021.88, 0.00001399049, 9.999923, 10.0004425 
1.6850762e+3, 1.8438263e+2, -1164269.6, -1328959.3, 100581.64, 0.036967743, -0.11347398, -1116624.6, 16407.797, 0.0, 10.000501, 9.998327 
1.6850926e+3, 1.9438125e+2, -1020330.3, -1196921.6, 161786.86, -0.047760885, -0.12855408, -924313.44, 110736.19, 0.0, 10.000781, 9.998416 
1.6851087e+3, 2.0437993e+2, -831835.75, -950888.1, 129535.07, -0.087559626, -0.13958064, -748804.25, 188259.66, 0.0, 10.000934, 9.999378 
1.6851242e+3, 2.1437863e+2, -710573.4, -803452.0, 75974.27, -0.08514095, -0.26999053, -667969.44, 171104.81, 0.0, 10.000953, 9.999692 
1.6851398e+3, 2.243785e+2, -680698.1, -798961.5, 108441.47, -0.08010804, -0.21799892, -616314.2, 124760.625, 0.0, 10.000699, 9.999204 
1.6851561e+3, 2.3437963e+2, -669703.1, -718758.56, 105755.836, -0.076862164, -0.07733084, -585667.94, 57397.043, 0.0, 10.000015, 9.999402 
1.6851716e+3, 2.4437891e+2, -620790.94, -755533.6, 76990.08, -0.059238147, -0.031649657, -585857.0, -40784.73, 0.0, 10.000146, 9.998404 
1.685186e+3, 2.543757e+2, -333345.84, -555205.5, 70875.234, -0.049876865, -0.24785425, -312637.06, 134465.58, 0.0000000018399801, 10.0014, 9.998504 
1.6852006e+3, 2.643738e+2, -195904.7, -492693.38, 111678.625, -0.060769733, -0.25313824, -158576.14, 190545.03, 0.0000039092515, 10.001911, 9.998017 
1.6852152e+3, 2.743735e+2, -132192.89, -385814.63, 85205.02, -0.089342594, -0.14246352, -106226.5, 144899.31, 0.000046409757, 10.001602, 9.998206 
1.6852303e+3, 2.843722e+2, -23210.021, -364299.3, 64112.055, -0.017848343, -0.04435023, -11557.435, 141581.9, 0.00025645504, 10.001983, 9.997531 
1.685246e+3, 2.9436976e+2, 251902.8, -140739.6, 26705.17, 0.1758913, -0.11378613, 253710.8, 308874.44, 0.0008664291, 10.003051, 9.99786 
1.6852596e+3, 3.043662e+2, 290118.4, -98963.76, 97760.41, 0.08231377, -0.2454874, 313300.38, 313300.38, 0.0019907402, 10.002966, 9.997884 
1.6852744e+3, 3.1436628e+2, 144013.61, 13980.465, 14829.367, -0.024232082, -0.07825631, 145683.34, 145683.34, 0.0034830444, 10.001102, 9.999559 
1.6949871e+3, 1.2436647e+2, -1891686.4, -1744753.9, -68953.99, 0.048949588, 0.026644994, -1717463.3, 3734.002, 0.051028147, 9.998463, 10.000491 
1.6950007e+3, 1.3436508e+2, -1690446.0, -1554827.6, 17063.225, -0.19757412, -0.24846256, -1552713.6, 70495.805, 0.032295942, 9.999037, 10.0008745 
1.6950205e+3, 1.4436723e+2, -1564162.5, -1446278.3, -4523.689, 0.3898177, -0.11086035, -1446105.0, 79081.88, 0.015627254, 9.999218, 10.000855 
1.6950324e+3, 1.5436889e+2, -1504831.0, -1342540.0, 91004.266, 0.04354555, -0.088279486, -1301757.8, 125410.88, 0.004910431, 9.998888, 10.001036 
1.6950454e+3, 1.6436917e+2, -1507325.9, -1486648.6, 15116.983, -0.16804136, -0.07360559, -1478673.0, -149507.33, 0.0007170378, 9.999011, 9.999323 
1.6950606e+3, 1.7436796e+2, -1275757.4, -1311896.8, -11791.953, -0.060084745, -0.1718549, -1272250.1, -41071.008, 0.000016975888, 9.999895, 9.999407 
1.695077e+3, 1.843675e+2, -1050727.3, -1102991.0, 93069.54, 0.0073643858, -0.17211068, -980190.56, 152993.14, 0.0, 10.000532, 9.9998665 
1.6950941e+3, 1.9436777e+2, -917002.44, -956532.4, 181446.22, -0.012684763, -0.19312938, -754247.9, 280930.78, 0.0, 10.000666, 10.00012 
1.69511e+3, 2.0436752e+2, -911246.06, -1062265.8, 109387.46, -0.079740785, -0.15595657, -853837.3, 83343.28, 0.0, 10.0007, 9.998732 
1.6951245e+3, 2.143665e+2, -798700.9, -939977.44, 92656.484, -0.17744412, -0.17704456, -752827.4, 86364.97, 0.0, 10.000737, 9.998868 
1.69514e+3, 2.2436576e+2, -711228.56, -781661.1, 67470.68, -0.15384834, -0.15531543, -670336.5, 70863.28, 0.0, 10.000368, 9.999474 
1.6951573e+3, 2.3436518e+2, -691738.06, -690376.9, 101501.766, 0.025484225, -0.22119834, -589553.4, 53650.16, 0.0, 9.999711, 9.999736 
1.6951728e+3, 2.4436472e+2, -644264.8, -719201.8, 105244.26, 0.015338569, -0.18516858, -570018.3, -24811.451, 0.0, 9.999784, 9.998831 
1.6951863e+3, 2.543644e+2, -343084.4, -512653.06, 137802.25, -0.19916914, -0.15136096, -266073.06, 181137.39, 0.0000000033657745, 10.001132, 9.998929 
1.6952011e+3, 2.6436278e+2, -256306.02, -537519.75, 86658.9, -0.24418812, -0.1441701, -231746.13, 117479.94, 0.0000030031388, 10.0015745, 9.997864 
1.6952176e+3, 2.7435958e+2, -182952.39, -429161.6, 94907.15, -0.032949287, -0.3110249, -150615.34, 100641.516, 0.000041455987, 10.001341, 9.998029 
1.6952336e+3, 2.843578e+2, -87361.08, -416890.8, 78869.83, 0.08315485, -0.2508458, -69457.086, 83817.79, 0.00024337543, 10.001638, 9.997337 
1.6952485e+3, 2.9435748e+2, 197715.16, -193740.6, 90888.31, 0.07895989, -0.07894612, 217788.31, 273067.66, 0.0008331997, 10.002773, 9.997641 
1.6952613e+3, 3.043538e+2, 140096.64, -288564.47, 17625.348, -0.07185679, -0.16136701, 140820.13, 140820.13, 0.0019314514, 10.002482, 9.996793 
1.6952756e+3, 3.1434938e+2, 25745.736, -84415.35, 8482.489, -0.06539889, -0.34436566, 26395.066, 26395.066, 0.0034111522, 10.0005045, 9.999146 
1.704987e+3, 1.24352284e+2, -1911622.9, -1762558.1, -44782.113, 0.20557538, -0.032202806, -1750139.4, -28807.287, 0.054460447, 9.998374, 10.000422 
1.7049989e+3, 1.3435039e+2, -1720590.1, -1613686.9, 68637.01, -0.26880112, -0.3029885, -1580143.6, 43208.477, 0.034638863, 9.999031, 10.000477 
1.7050198e+3, 1.4435264e+2, -1501992.3, -1411716.0, 1522.78, 0.39304107, -0.13851501, -1411690.3, 113639.29, 0.016903277, 9.999662, 10.000875 
1.7050323e+3, 1.5435408e+2, -1398844.5, -1297827.0, 4920.821, 0.10222785, -0.13425744, -1297587.9, 129725.57, 0.00538814, 9.999665, 10.0009575 
1.7050454e+3, 1.643542e+2, -1413634.0, -1444170.4, -1986.3976, -0.09798623, -0.12941188, -1413505.4, -84193.12, 0.0008082668, 9.999668, 9.99929 
1.7050608e+3, 1.743531e+2, -1253313.0, -1297491.4, 16525.41, -0.026247513, -0.2169401, -1247815.5, -16490.283, 0.000020835996, 10.000036, 9.999439 
1.7050773e+3, 1.8435301e+2, -1109626.4, -1093993.4, 131001.14, 0.03834011, -0.19511256, -970575.75, 162750.53, 0.0, 9.99997, 10.000212 
1.7050944e+3, 1.9435395e+2, -1040442.94, -979508.0, 88370.016, 0.0204589, -0.18133275, -916500.75, 118813.66, 0.0, 9.999655, 10.000467 
1.7051107e+3, 2.0435415e+2, -1048082.1, -1099279.4, 40523.242, -0.029594915, -0.12709884, -1025749.3, -88437.79, 0.0, 9.999641, 9.998972 
1.7051254e+3, 2.1435346e+2, -867135.75, -947185.25, 63316.813, -0.12753099, -0.14164169, -832253.9, 7065.8384, 0.0, 10.0001745, 9.999077 
1.7051409e+3, 2.2435257e+2, -684927.2, -777043.9, 78577.77, -0.108521625, -0.14292984, -639904.06, 101424.24, 0.0, 10.000579, 9.999399 
1.7051576e+3, 2.3435129e+2, -545605.6, -625082.0, 41255.434, 0.052844852, -0.27308357, -528062.6, 115275.98, 0.0, 10.000742, 9.999675 
1.7051734e+3, 2.4435088e+2, -492601.6, -645101.9, 82573.54, 0.059822302, -0.23238689, -456457.47, 88884.43, 0.0, 10.000824, 9.998845 
1.7051876e+3, 2.5435144e+2, -383034.03, -519987.2, 53939.906, -0.14157607, -0.1111399, -364340.9, 82996.63, 0.0000000026261497, 10.000831, 9.999013 
1.7052029e+3, 2.6435006e+2, -310991.56, -551583.94, 16976.313, -0.17237513, -0.09062997, -309799.6, 39551.0, 0.0000021613648, 10.001129, 9.997997 
1.7052196e+3, 2.7434623e+2, -118332.39, -387805.4, 8129.8247, 0.01883621, -0.32974857, -118087.34, 133298.6, 0.000036656253, 10.00172, 9.998149 
1.7052357e+3, 2.8434414e+2, 3313.4138, -364203.13, 76677.14, 0.12189343, -0.30093497, 18669.396, 172074.95, 0.00022921336, 10.002232, 9.997402 
1.705251e+3, 2.943441e+2, 179888.97, -195762.08, 58719.25, 0.08095159, -0.10691677, 188853.63, 244261.8, 0.00079328316, 10.002653, 9.997669 
1.7052643e+3, 3.043409e+2, 217083.05, -292413.3, 10199.519, -0.052623983, -0.12249399, 217287.16, 217287.16, 0.0018438247, 10.003168, 9.996425 
1.705279e+3, 3.1433567e+2, 429637.94, 82092.69, -50445.508, 0.09172004, -0.35137248, 436811.9, 436811.9, 0.0032716861, 10.00343, 9.998848 
1.7149852e+3, 1.2433679e+2, -1853941.3, -1693238.5, -168220.61, 0.107688606, -0.30498633, -1587164.3, 134313.86, 0.058051143, 9.9985485, 10.000872 
1.7149997e+3, 1.3433698e+2, -1780333.6, -1728857.9, 139852.16, -0.11622791, -0.29126623, -1612395.0, 11084.949, 0.037118543, 9.999008, 9.999687 
1.7150159e+3, 1.4433844e+2, -1531775.9, -1515402.8, -9433.412, -0.026904713, -0.12334242, -1511099.0, 14368.883, 0.018276531, 9.999826, 10.000079 
1.715031e+3, 1.5433796e+2, -1448217.4, -1407240.5, 21946.365, -0.031785183, -0.23806097, -1397705.4, 29767.656, 0.005915651, 9.999686, 10.0001955 
1.7150462e+3, 1.6433805e+2, -1342486.3, -1310198.3, -11228.799, -0.039587054, -0.23292251, -1306677.3, 22794.357, 0.0009130136, 9.999731, 10.000176 
1.7150612e+3, 1.7433867e+2, -1191204.5, -1153507.6, 42524.023, -0.019793242, -0.25244445, -1125842.0, 105622.664, 0.000025810483, 9.999981, 10.000449 
1.7150769e+3, 1.843393e+2, -1167604.8, -1213748.1, 103478.48, -0.03733093, -0.17320302, -1084657.1, 48802.023, 0.0, 9.999963, 9.999394 
1.7150936e+3, 1.9433984e+2, -1118508.3, -1121439.3, 92188.56, -0.08271651, -0.106422745, -1027773.5, 7682.783, 0.0, 9.999566, 9.999536 
1.7151098e+3, 2.0433992e+2, -1003360.9, -965488.75, 42359.13, -0.10496534, -0.06405173, -938025.8, -570.0203, 0.0, 9.999466, 9.999976 
1.7151262e+3, 2.1433935e+2, -826787.3, -797307.3, 97818.266, -0.08197322, -0.17931804, -713124.7, 126333.42, 0.0, 9.999893, 10.000241 
1.715142e+3, 2.243387e+2, -759563.75, -858365.94, 69307.73, -0.09176791, -0.20092721, -723852.94, 17609.74, 0.0, 10.000253, 9.999005 
1.7151569e+3, 2.3433785e+2, -616271.8, -720570.3, 63807.06, -0.12553461, -0.23458299, -586014.25, 57457.03, 0.0, 10.000509, 9.99914 
1.7151727e+3, 2.4433722e+2, -565538.8, -714672.94, 64561.055, -0.11181281, -0.17240182, -541473.3, 4004.7253, 0.0, 10.000485, 9.998522 
1.71519e+3, 2.5433666e+2, -448040.38, -591673.3, 72481.24, -0.027965738, -0.13163601, -417821.88, 29662.863, 0.0000000000058928205, 10.000559, 9.9986515 
1.7152059e+3, 2.6433533e+2, -326599.63, -516186.25, 20271.16, -0.019782107, -0.10413127, -324456.4, 25040.498, 0.0000014626683, 10.000839, 9.99838 
1.7152205e+3, 2.7433306e+2, -123667.914, -340191.2, 49182.664, -0.08522955, -0.227482, -113019.85, 138495.61, 0.000032258973, 10.001462, 9.998601 
1.7152363e+3, 2.8433114e+2, -39350.55, -369776.44, 72346.78, -0.08121967, -0.21785654, -24204.482, 129328.46, 0.00021422842, 10.001872, 9.99754 
1.715253e+3, 2.9432946e+2, 145483.0, -194391.98, 105178.45, -0.007902819, -0.20834428, 175398.6, 230949.45, 0.00074612966, 10.00233, 9.997836 
1.7152677e+3, 3.0432722e+2, 140167.19, -323968.6, 2444.068, -0.05944497, -0.14223316, 140180.05, 140180.05, 0.001733618, 10.002656, 9.996442 
1.7152835e+3, 3.1432408e+2, 309894.8, 15679.023, 15706.192, 0.12860462, -0.16938294, 310730.88, 310730.88, 0.0030848195, 10.002694, 9.998725 
1.724983e+3, 1.2432247e+2, -1931524.4, -1700823.9, -188628.56, 0.08782281, -0.30900857, -1595071.4, 126548.19, 0.06177432, 9.997873, 10.001135 
1.7249995e+3, 1.3432354e+2, -1773708.1, -1707919.6, 119209.65, -0.016962564, -0.25055856, -1617149.1, 6463.5615, 0.039721623, 9.998967, 9.999829 
1.7250139e+3, 1.4432497e+2, -1724453.1, -1648348.9, 37118.73, -0.14250639, -0.07102222, -1633243.1, -107642.19, 0.019743169, 9.998659, 9.999742 
1.7250302e+3, 1.54324e+2, -1569013.8, -1478956.9, 69418.04, -0.016389027, -0.21616079, -1441242.1, -13630.738, 0.006494274, 9.998884, 10.000115 
1.7250465e+3, 1.643242e+2, -1443912.3, -1370281.9, 81783.836, 0.07367228, -0.19318037, -1317408.9, 12200.656, 0.001032908, 9.999073, 10.000092 
1.7250614e+3, 1.7432496e+2, -1234915.6, -1184982.0, 21591.7, 0.022729551, -0.18744783, -1176940.6, 54660.59, 0.00003215152, 9.999711, 10.000367 
1.7250769e+3, 1.8432526e+2, -1172703.3, -1234528.5, 76149.89, -0.023134176, -0.13074875, -1121430.8, 12168.146, 0.0, 10.000005, 9.99923 
1.7250934e+3, 1.9432516e+2, -1024919.94, -1088991.1, 85773.78, -0.066934116, -0.11247078, -965394.56, 70207.55, 0.0, 10.000274, 9.999412 
1.72511e+3, 2.0432515e+2, -885922.3, -887408.9, 72883.125, -0.07001359, -0.080609456, -813778.7, 123823.23, 0.0, 10.000178, 10.000179 
1.7251265e+3, 2.1432501e+2, -814736.7, -770054.5, 33260.355, -0.03186714, -0.17066887, -752328.44, 87271.19, 0.0, 9.999869, 10.000453 
1.7251426e+3, 2.2432464e+2, -806208.1, -892818.7, 27395.74, -0.023046928, -0.16799493, -798270.1, -56668.36, 0.0, 10.000017, 9.998864 
1.7251581e+3, 2.3432398e+2, -574129.4, -720094.56, 5667.7856, -0.07013902, -0.16403517, -573909.6, 69699.836, 0.0, 10.000911, 9.998935 
1.7251742e+3, 2.4432297e+2, -424959.5, -654153.44, 44671.715, -0.052035425, -0.12502205, -416560.4, 129059.06, 0.0, 10.001454, 9.998473 
1.7251915e+3, 2.5432152e+2, -316424.3, -526876.9, 44860.47, 0.034202173, -0.17612085, -307260.75, 140372.36, 0.0000000000049057277, 10.001446, 9.998664 
1.7252077e+3, 2.6432008e+2, -200980.14, -453665.38, 50247.895, 0.04618253, -0.16263443, -191354.72, 158291.03, 0.0000011502509, 10.001712, 9.998377 
1.7252229e+3, 2.7431855e+2, 889.684, -287448.22, 5826.276, -0.024128927, -0.20581146, 1007.36414, 252665.61, 0.000029351942, 10.002351, 9.998535 
1.7252387e+3, 2.8431684e+2, 64003.035, -271383.1, 31950.826, -0.029453127, -0.18808381, 67019.72, 220693.36, 0.00020332959, 10.002398, 9.997944 
1.7252551e+3, 2.9431468e+2, 93727.73, -171111.27, 21346.83, 0.008056845, -0.26196688, 95437.31, 151132.17, 0.00070578046, 10.001797, 9.99823 
1.72527e+3, 3.0431327e+2, 102535.66, -293041.3, 18591.365, -0.046361297, -0.15882735, 103407.49, 103407.49, 0.0016366781, 10.002129, 9.9969425 
1.7252873e+3, 3.1431147e+2, 408283.38, 48225.2, -12276.17, 0.23134394, -0.08174246, 408701.44, 408701.44, 0.002919005, 10.003331, 9.998708 
1.7349805e+3, 1.24309026e+2, -1949451.5, -1752546.1, -16335.12, -0.055993654, -0.09267744, -1751200.1, -29440.717, 0.06561491, 9.997971, 10.000671 
1.7349978e+3, 1.3430981e+2, -1704080.0, -1571694.8, 116038.19, -0.13068758, -0.1963784, -1504297.3, 119455.516, 0.042436883, 9.998991, 10.000782 
1.7350131e+3, 1.4431186e+2, -1700631.6, -1617446.5, 9895.599, -0.14204834, 0.0031777727, -1616285.6, -90552.65, 0.021297567, 9.998741, 9.999908 
1.7350295e+3, 1.5431216e+2, -1528683.1, -1398082.6, 89513.016, -0.0058528404, -0.06716353, -1352582.6, 75146.69, 0.0071235094, 9.998899, 10.000663 
1.735046e+3, 1.6431262e+2, -1490247.5, -1502795.5, 84904.29, 0.06379968, -0.004582109, -1411385.8, -81660.07, 0.0011691477, 9.999213, 9.999119 
1.7350611e+3, 1.7431195e+2, -1315287.3, -1359374.9, 57433.316, -0.02661875, -0.0276672, -1275812.6, -44077.6, 0.00004011834, 9.999732, 9.999166 
1.7350768e+3, 1.8431094e+2, -1141588.5, -1171909.0, 64670.7, -0.09038512, -0.05489984, -1090324.9, 43420.15, 0.0, 10.000012, 9.999655 
1.7350939e+3, 1.9430983e+2, -1009573.8, -1020350.75, 107261.04, -0.07959837, -0.19522457, -907566.0, 128186.37, 0.0, 10.000112, 9.999962 
1.7351103e+3, 2.0430975e+2, -952878.94, -980978.6, 44757.207, -0.091389105, -0.17610922, -920018.2, 17733.068, 0.0, 9.999977, 9.999633 
1.7351258e+3, 2.143106e+2, -888843.2, -880494.9, 37687.195, -0.12055629, -0.10656866, -846751.4, -7008.5566, 0.0, 9.999679, 9.999784 
1.7351423e+3, 2.2431056e+2, -849022.8, -917181.56, 42490.94, -0.08555097, -0.033269502, -828633.06, -86889.53, 0.0, 9.999741, 9.998827 
1.7351605e+3, 2.3430939e+2, -607869.0, -733279.6, 58715.695, 0.060201973, -0.084910095, -584670.3, 59085.44, 0.0, 10.000657, 9.998967 
1.7351772e+3, 2.4430792e+2, -454176.13, -630549.56, 33949.813, 0.06804001, -0.110057585, -447866.9, 97901.52, 0.0, 10.001105, 9.9988 
1.7351918e+3, 2.5430602e+2, -330921.6, -491032.84, 66725.375, -0.09706016, -0.24057038, -306760.25, 141022.08, 0.000000000000012544113, 10.001171, 9.99904 
1.7352079e+3, 2.6430422e+2, -287688.13, -548763.94, 56386.707, -0.13166395, -0.25919098, -276030.38, 73766.91, 0.0000010511417, 10.001355, 9.99789 
1.735226e+3, 2.7430266e+2, -83468.66, -385619.9, 55047.13, 0.032710407, -0.25703698, -73752.39, 178060.83, 0.000029114979, 10.002039, 9.997998 
1.7352426e+3, 2.843011e+2, 36856.523, -251854.84, -9956.782, 0.080012, -0.20968218, 37199.496, 191027.7, 0.00019954766, 10.002066, 9.998241 
1.7352568e+3, 2.9429927e+2, 67369.43, -143250.58, 24616.543, -0.056869753, -0.29724714, 70208.266, 126053.2, 0.0006844002, 10.001443, 9.998591 
1.7352708e+3, 3.042986e+2, 91278.69, -202263.61, 33343.336, -0.22221333, -0.17434038, 95018.5, 95018.5, 0.0015865878, 10.001669, 9.997767 
1.7352894e+3, 3.14297e+2, 316427.8, 54876.54, 92517.836, 0.041653313, -0.18880354, 345845.25, 345845.25, 0.0028415923, 10.00255, 9.999093 
1.7449799e+3, 1.2429515e+2, -1928347.1, -1842905.0, 97357.74, 0.09293551, 0.0316482, -1779307.6, -57409.816, 0.06957688, 9.99859, 9.999749 
1.7449977e+3, 1.34296e+2, -1813288.8, -1579888.4, 50494.145, 0.026226997, -0.090537794, -1569432.9, 54457.6, 0.045260757, 9.998058, 10.001169 
1.7450118e+3, 1.4429685e+2, -1695420.0, -1588793.1, 4175.2427, -0.11552383, -0.04345918, -1588629.9, -62748.395, 0.022935338, 9.998679, 10.000114 
1.7450291e+3, 1.5429781e+2, -1466455.0, -1347534.3, 6359.632, 0.047435712, -0.06994913, -1347195.1, 80674.78, 0.0078018596, 9.9992485, 10.000816 
1.7450458e+3, 1.6429836e+2, -1455681.9, -1516027.0, 55301.5, 0.10620572, 0.0040463633, -1422857.3, -92992.125, 0.0013223152, 9.999584, 9.998856 
1.745061e+3, 1.742975e+2, -1233195.3, -1345991.3, 62946.367, -0.012521608, -0.009358614, -1205077.1, 26800.57, 0.000049909977, 10.000415, 9.998935 
1.7450772e+3, 1.8429646e+2, -1080138.8, -1135670.5, 93229.234, -0.057478294, -0.02990775, -1010628.56, 123259.555, 0.0000000000000006446772, 10.000425, 9.999689 
1.7450942e+3, 1.9429529e+2, -1079805.4, -1047793.7, 60592.24, -0.018854486, -0.18516138, -1001128.94, 34766.125, 0.0, 9.999615, 9.999993 
1.7451106e+3, 2.0429495e+2, -1022784.9, -1032321.1, 50765.59, -0.01900361, -0.18494868, -976564.0, -38668.434, 0.0, 9.999558, 9.999491 
1.7451262e+3, 2.1429554e+2, -754111.4, -826810.56, 45142.11, -0.075904846, -0.12773664, -732503.2, 107386.25, 0.0, 10.00065, 9.999686 
1.7451431e+3, 2.2429529e+2, -632418.44, -815845.5, 103403.62, -0.04284908, -0.06948921, -585915.94, 155975.69, 0.0, 10.001215, 9.99883 
1.7451617e+3, 2.3429403e+2, -543956.7, -697537.9, 91031.69, 0.10233762, -0.12984096, -501652.53, 142251.64, 0.0, 10.001074, 9.999017 
1.7451788e+3, 2.4429262e+2, -452027.78, -645408.4, 73427.52, 0.13003904, -0.14504966, -427307.16, 118609.25, 0.0, 10.00123, 9.998625 
1.7451939e+3, 2.542908e+2, -257817.78, -477814.94, 22324.52, -0.014074462, -0.24346359, -255575.23, 192355.36, 0.0, 10.001809, 9.998814 
1.7452103e+3, 2.6428896e+2, -181634.48, -500112.5, 34689.254, -0.04919681, -0.25125435, -177899.84, 172046.53, 0.0000010008785, 10.002067, 9.99789 
1.7452282e+3, 2.7428722e+2, -95015.41, -392143.0, 33059.777, 0.047767617, -0.2657216, -91381.47, 160582.77, 0.000030147008, 10.001933, 9.998013 
1.7452449e+3, 2.8428563e+2, 58283.08, -257305.27, 13681.941, 0.104184955, -0.2183857, 58875.133, 212854.69, 0.00019899277, 10.002248, 9.998132 
1.74526e+3, 2.942838e+2, 283790.25, -69447.04, -41180.27, 0.06313923, -0.29053468, 288527.5, 344523.66, 0.00068156485, 10.003004, 9.998376 
1.745274e+3, 3.0428255e+2, 359391.75, -63069.313, -1576.539, -0.122723006, -0.21868, 359397.66, 359397.66, 0.0015937911, 10.003452, 9.997883 
1.7452922e+3, 3.1428093e+2, 506802.8, 116692.19, -83747.76, 0.018924877, -0.23805632, 524021.53, 524021.53, 0.002881364, 10.003944, 9.99886 
1.7549777e+3, 1.242791e+2, -1968346.8, -1965083.6, -151199.56, -0.100804776, -0.07651363, -1815506.9, -93455.43, 0.07366958, 9.998735, 9.998852 
1.7549983e+3, 1.3428196e+2, -1816770.0, -1584502.9, 75232.01, 0.23783152, 0.05378106, -1562264.3, 61762.723, 0.048192136, 9.998052, 10.001139 
1.75501e+3, 1.4428048e+2, -1651188.6, -1532773.3, 17474.695, -0.23743694, -0.17375126, -1530248.3, -4206.4897, 0.024652572, 9.998824, 10.000436 
1.7550285e+3, 1.54281e+2, -1481733.1, -1392274.9, 36622.777, 0.0119612785, -0.2154185, -1379194.6, 48838.46, 0.008527423, 9.999291, 10.000498 
1.7550449e+3, 1.6428116e+2, -1413007.6, -1437713.8, 52720.027, 0.021433868, -0.17970273, -1371212.8, -41181.992, 0.0014925194, 9.999639, 9.999364 
1.7550611e+3, 1.7428154e+2, -1193896.4, -1246613.0, 108317.805, -0.078000836, -0.13720363, -1108776.0, 123254.1, 0.00006156021, 10.000352, 9.999641 
1.7550777e+3, 1.8428183e+2, -1104421.1, -1183966.4, 47907.26, -0.08583655, -0.050933924, -1081928.5, 52099.95, 0.0000000010737394, 10.000414, 9.999363 
1.7550941e+3, 1.9428146e+2, -1126583.9, -1127003.1, 41422.547, -0.026427746, -0.07834991, -1085370.4, -49339.89, 0.0, 9.999535, 9.999489 
1.7551105e+3, 2.042807e+2, -1030774.5, -1013893.25, 68210.01, -0.020294812, -0.102171354, -953603.6, -15568.402, 0.0, 9.999406, 9.999688 
1.7551276e+3, 2.1427953e+2, -768860.25, -800909.44, 99080.37, -0.034922477, -0.25205344, -684516.94, 155525.19, 0.0, 10.000402, 9.999985 
1.7551446e+3, 2.2427866e+2, -675386.0, -829140.56, 83270.12, -0.05403388, -0.27676007, -638931.8, 103116.1, 0.0, 10.00089, 9.998896 
1.7551613e+3, 2.34278e+2, -576453.3, -711276.9, 101127.5, -0.07917164, -0.28147182, -522328.6, 121725.195, 0.0, 10.000836, 9.99904 
1.7551786e+3, 2.4427703e+2, -554973.06, -787238.44, 78108.555, -0.043580893, -0.21681431, -531149.5, 14914.309, 0.0, 10.000922, 9.997799 
1.7551973e+3, 2.542755e+2, -358479.1, -625505.6, 62166.93, 0.11142361, -0.19821236, -344715.34, 103365.29, 0.0, 10.001545, 9.997925 
1.7552142e+3, 2.642738e+2, -201802.25, -473587.78, 10549.058, 0.10368458, -0.16148971, -201393.4, 148704.11, 0.00000094846536, 10.001766, 9.998222 
1.7552286e+3, 2.7427205e+2, -102333.57, -339385.2, 47759.72, -0.121019416, -0.22671239, -93073.0, 159039.84, 0.000030605133, 10.001647, 9.99851 
1.7552452e+3, 2.8427035e+2, -27849.75, -358782.47, 21886.094, -0.13154678, -0.19534427, -26408.598, 127719.39, 0.00020047408, 10.001916, 9.997594 
1.7552643e+3, 2.9426825e+2, 177592.88, -196149.0, 9337.865, 0.15193422, -0.2343901, 177826.03, 233974.25, 0.00069770816, 10.002614, 9.997687 
1.7552792e+3, 3.042653e+2, 226513.63, -224614.6, -15298.091, 0.0018844395, -0.24676655, 227031.8, 227031.8, 0.001653074, 10.00297, 9.996996 
1.7552951e+3, 3.1426385e+2, 300866.6, -106076.78, 11961.301, -0.16665982, -0.1902891, 301217.88, 301217.88, 0.0030124004, 10.003116, 9.997698 
1.764974e+3, 1.24261744e+2, -1965264.6, -1860545.4, -112415.08, -0.2932823, -0.29921082, -1788894.1, -66674.17, 0.07790593, 9.99828, 9.999793 
1.7649978e+3, 1.3426614e+2, -1860644.1, -1642418.8, 58914.15, 0.41083944, 0.023123406, -1627529.5, -3350.1182, 0.05123237, 9.997899, 10.000796 
1.765008e+3, 1.4426441e+2, -1791397.1, -1612146.0, 29972.44, -0.26994723, -0.21237537, -1607267.1, -81070.08, 0.026445003, 9.997912, 10.000341 
1.765027e+3, 1.5426499e+2, -1549821.6, -1440523.3, 8449.803, -0.019838769, -0.22986859, -1439873.9, -11684.49, 0.009296644, 9.998923, 10.0003395 
1.7650442e+3, 1.6426532e+2, -1430472.0, -1410912.6, 49310.266, 0.005934778, -0.18209511, -1370421.6, -40236.02, 0.0016790463, 9.999377, 9.999664 
1.7650613e+3, 1.7426573e+2, -1318432.1, -1274441.9, 41082.535, -0.038952846, -0.17103477, -1249837.0, -17653.69, 0.000074904594, 9.99935, 9.99993 
1.7650783e+3, 1.8426608e+2, -1231655.3, -1268464.0, -5773.602, -0.011593902, -0.08405836, -1230770.9, -96590.01, 0.000000009428086, 9.999632, 9.999169 
1.7650945e+3, 1.94266e+2, -955245.9, -1067390.6, -28235.5, 0.01745613, -0.058390416, -948538.06, 87644.21, 0.0, 10.000806, 9.9993 
1.7651111e+3, 2.0426519e+2, -817357.9, -928462.9, 19211.328, 0.030606255, -0.06727306, -814129.75, 124058.58, 0.0, 10.000963, 9.999518 
1.7651282e+3, 2.1426351e+2, -864674.4, -865745.06, -16641.299, 0.046264686, -0.24547137, -848559.8, -8359.94, 0.0, 9.999844, 9.999803 
1.7651457e+3, 2.242624e+2, -817856.2, -893383.1, 9825.008, 0.031361848, -0.28515053, -816599.0, -74391.53, 0.0, 9.999907, 9.99892 
1.7651626e+3, 2.342619e+2, -448697.8, -641746.56, -10847.116, -0.050333735, -0.2770916, -448090.25, 196120.89, 0.0, 10.001698, 9.999094 
1.7651802e+3, 2.442609e+2, -334716.1, -699063.9, -11835.438, -0.03035521, -0.2106872, -334332.03, 211889.03, 0.0, 10.002462, 9.997685 
1.765199e+3, 2.542592e+2, -330995.6, -630221.1, -2618.0796, 0.12577085, -0.19539046, -330972.7, 117267.38, 0.0, 10.00177, 9.997804 
1.7652163e+3, 2.642574e+2, -220229.97, -488490.7, 15660.005, 0.1419183, -0.15708812, -219318.89, 130939.03, 0.0000007067664, 10.001688, 9.998144 
1.7652313e+3, 2.7425557e+2, 12847.529, -290994.9, -31149.83, -0.050104126, -0.22097574, 16008.123, 268282.28, 0.000029110019, 10.002484, 9.99843 
1.765248e+3, 2.842538e+2, 86415.01, -344412.06, -40644.05, -0.070140556, -0.17732513, 90215.82, 244507.02, 0.0002034409, 10.002898, 9.997216 
1.7652667e+3, 2.9425162e+2, 191282.33, -240846.9, -95926.055, 0.14028029, -0.17033151, 211619.33, 267933.2, 0.0007263894, 10.002949, 9.997217 
1.765282e+3, 3.042478e+2, 246352.17, -236786.7, -40883.332, -0.0051944656, -0.23505253, 249787.3, 249787.3, 0.0017327985, 10.003164, 9.996829 
1.7652994e+3, 3.1424603e+2, 321830.44, -112693.45, -40013.82, -0.019204943, -0.1810185, 325484.44, 325484.44, 0.003152883, 10.003262, 9.997613 
1.7749728e+3, 1.2424697e+2, -1759635.5, -1504577.4, 23532.313, -0.33147398, -0.28491852, -1502424.4, 219941.16, 0.08231803, 9.998462, 10.002303 
1.7749967e+3, 1.3424899e+2, -1907980.5, -1752787.9, 53965.52, 0.4703384, -0.15969232, -1735867.3, -111523.44, 0.054393712, 9.997939, 10.000022 
1.7750047e+3, 1.4424823e+2, -1818224.3, -1689366.6, 40308.508, -0.43439093, -0.20973513, -1677796.5, -151445.08, 0.02831169, 9.998001, 9.999771 
1.7750244e+3, 1.542497e+2, -1548229.6, -1445138.9, 59237.29, -0.20975603, -0.12764338, -1418160.5, 10179.066, 0.010105246, 9.998945, 10.000302 
1.775043e+3, 1.6425082e+2, -1417897.8, -1397421.3, 30952.395, -0.09801595, -0.009084336, -1375057.8, -44727.84, 0.0018804772, 9.999431, 9.999731 
1.775061e+3, 1.7425007e+2, -1327705.1, -1287835.5, 53333.348, -0.03429925, -0.10949426, -1250833.1, -18495.979, 0.00008970714, 9.999327, 9.999848 
1.7750785e+3, 1.8424924e+2, -1237286.3, -1280708.1, 17017.658, -0.008288174, -0.12859966, -1231411.5, -97065.99, 0.000000028818846, 9.999634, 9.999085 
1.7750952e+3, 1.9424883e+2, -973511.7, -1078186.0, 32224.371, -0.030071368, -0.13272776, -964386.75, 71964.22, 0.0, 10.000688, 9.999284 
1.7751119e+3, 2.0424835e+2, -887217.3, -1026388.7, -35089.438, -0.027328083, -0.08381044, -878870.75, 59485.105, 0.0, 10.000767, 9.998935 
1.7751282e+3, 2.1424744e+2, -947086.7, -983001.5, -44935.86, 0.034454968, -0.12233702, -916653.0, -76289.664, 0.0, 9.999619, 9.9991 
1.775146e+3, 2.2424649e+2, -866159.8, -938232.0, 54762.254, 0.05439696, -0.09815845, -836640.56, -94269.75, 0.0, 9.999657, 9.998736 
1.7751655e+3, 2.3424546e+2, -484963.22, -672964.8, 76354.125, 0.040005084, -0.1360026, -457860.34, 186518.11, 0.0, 10.001488, 9.998987 
1.7751834e+3, 2.44244e+2, -341673.34, -628547.5, -48166.297, -0.0038508715, -0.14331657, -333802.16, 212588.44, 0.0, 10.002109, 9.998334 
1.7751989e+3, 2.542419e+2, -322906.3, -549169.0, -11246.79, -0.08787953, -0.23441724, -322348.66, 126059.87, 0.0, 10.001503, 9.998486 
1.775216e+3, 2.6423997e+2, -307806.84, -594348.4, 26199.06, -0.07704303, -0.22820224, -305431.13, 44995.72, 0.00000032366296, 10.001369, 9.997567 
1.7752354e+3, 2.7423805e+2, -87552.45, -414351.13, 21737.701, 0.079768084, -0.23014311, -86112.87, 166333.7, 0.00002512301, 10.00214, 9.997738 
1.7752527e+3, 2.8423607e+2, -3644.2268, -447873.72, -60519.348, 0.07365594, -0.13847277, 4452.998, 158920.8, 0.00020101898, 10.002531, 9.996684 
1.7752673e+3, 2.9423392e+2, 110824.234, -327610.5, -67051.15, -0.13998953, -0.091996066, 120849.34, 177341.84, 0.0007432089, 10.002607, 9.99678 
1.7752822e+3, 3.0422997e+2, 201631.4, -218912.86, -52874.305, -0.3259108, -0.16554335, 208177.31, 208177.31, 0.0017748394, 10.002707, 9.997165 
1.7753048e+3, 3.1422934e+2, 256181.78, -22158.824, 50370.64, 0.12750195, -0.042359915, 265016.8, 265016.8, 0.0031987038, 10.002368, 9.998629 
1.7849717e+3, 1.2423347e+2, -2113861.0, -1484093.0, 43433.445, -0.11853478, -0.057401348, -1481111.6, 241389.05, 0.08696164, 9.995246, 10.003987 
1.7849945e+3, 1.3423225e+2, -1853113.3, -1777309.6, 12071.591, 0.43750504, -0.21114555, -1775433.8, -150926.83, 0.057701517, 9.9986, 9.999512 
1.7850038e+3, 1.4423166e+2, -1629080.4, -1602036.3, 40333.465, -0.37709668, -0.21305546, -1573018.5, -46506.977, 0.030258754, 9.999322, 9.999732 
1.7850237e+3, 1.5423311e+2, -1593666.3, -1461864.9, 33979.383, -0.15552588, -0.13978656, -1453620.4, -25119.541, 0.0109521225, 9.998606, 10.00035 
1.7850423e+3, 1.6423437e+2, -1550053.8, -1446593.6, 53241.082, -0.0461607, -0.01772005, -1424090.3, -93600.62, 0.0020959692, 9.9984665, 9.999849 
1.7850605e+3, 1.7423357e+2, -1316053.5, -1266133.0, 47551.723, -0.013655789, -0.13505827, -1237388.6, -4892.8335, 0.000105867584, 9.999357, 9.99997 
1.7850782e+3, 1.8423267e+2, -1244284.8, -1286759.8, 55860.63, 0.017706756, -0.16684602, -1205760.8, -71256.04, 0.0000000562377, 9.999595, 9.999069 
1.7850956e+3, 1.9423229e+2, -1177984.0, -1176034.5, 45375.426, 0.011897429, -0.16919304, -1131623.4, -95112.23, 0.0, 9.99927, 9.999295 
1.7851126e+3, 2.0423183e+2, -1050866.1, -1141517.1, 16949.365, 0.037019696, -0.10270817, -1047800.7, -109283.8, 0.0, 9.999799, 9.998611 
1.7851295e+3, 2.1423092e+2, -666955.7, -886326.3, -5079.5415, 0.102057226, -0.10588351, -666838.1, 173687.36, 0.0, 10.001702, 9.998762 
1.7851476e+3, 2.2422975e+2, -510285.63, -802820.94, 133742.31, 0.12461911, -0.0699841, -458358.34, 284177.66, 0.0, 10.002271, 9.998407 
1.7851672e+3, 2.3422827e+2, -569230.0, -751484.94, 101295.766, 0.0853179, -0.117143676, -524103.84, 120444.695, 0.0, 10.001089, 9.998642 
1.7851849e+3, 2.442265e+2, -538829.9, -724135.1, -31949.41, 0.028626671, -0.13097055, -533476.0, 13087.7, 0.0, 10.000774, 9.998309 
1.7852005e+3, 2.5422436e+2, -293972.06, -535758.2, -82233.055, -0.07319938, -0.22994073, -268654.97, 179927.6, 0.0, 10.001719, 9.998463 
1.785218e+3, 2.6422232e+2, -194052.23, -554348.5, -23870.982, -0.04842346, -0.22416517, -192477.58, 158124.16, 0.00000018370703, 10.002183, 9.997469 
1.7852376e+3, 2.742201e+2, -111617.195, -449779.75, -21926.357, 0.121036224, -0.23663819, -110201.43, 142422.56, 0.000020759246, 10.002024, 9.997582 
1.7852554e+3, 2.84218e+2, -24464.188, -425858.28, -3110.6084, 0.11295746, -0.1628208, -24440.084, 130206.17, 0.00019262578, 10.002267, 9.99695 
1.7852701e+3, 2.9421607e+2, 214300.06, -248762.56, -10264.5625, -0.12859508, -0.12068176, 214527.47, 271195.53, 0.00073903677, 10.003192, 9.997037 
1.7852855e+3, 3.0421254e+2, 340383.22, -115058.12, 43554.48, -0.29128817, -0.18051882, 344511.0, 344511.0, 0.0017591042, 10.003511, 9.997483 
1.7853083e+3, 3.1421196e+2, 335137.16, 51464.184, 42269.957, 0.24300967, -0.06334725, 341301.8, 341301.8, 0.003118364, 10.002711, 9.998995 
1.7949691e+3, 1.2421784e+2, -2032615.8, -1374547.6, -116559.84, 0.00085157435, 0.026737856, -1354512.1, 368147.0, 0.09190124, 9.995441, 10.004744 
1.79499e+3, 1.3421583e+2, -1843845.5, -1797010.6, 117415.85, 0.08767649, -0.1524743, -1700699.9, -76029.91, 0.06119029, 9.99873, 9.999332 
1.7950049e+3, 1.4421478e+2, -1594633.3, -1539977.9, -11076.232, -0.25596216, -0.2249993, -1537818.5, -11142.1875, 0.03230053, 9.999373, 10.000129 
1.7950243e+3, 1.5421532e+2, -1592814.1, -1454227.9, 21801.605, 0.011359153, -0.25422525, -1450879.1, -22207.111, 0.011841973, 9.998592, 10.000404 
1.7950417e+3, 1.6421594e+2, -1526371.3, -1420424.0, 60826.395, -0.0046557966, -0.2009003, -1392737.5, -62072.305, 0.0023264778, 9.998553, 9.999995 
1.7950591e+3, 1.7421608e+2, -1294817.3, -1225477.0, 90473.9, -0.10398951, -0.2472717, -1163257.8, 69403.38, 0.00012352158, 9.999362, 10.000256 
1.7950772e+3, 1.8421617e+2, -1233705.4, -1267925.5, 25795.375, -0.09667863, -0.20352353, -1219861.3, -85200.96, 0.000000085167756, 9.999614, 9.999185 
1.7950949e+3, 1.9421627e+2, -1191019.1, -1181179.9, 42213.96, -0.0022351316, -0.16299741, -1143599.9, -106936.29, 0.0, 9.999179, 9.999303 
1.795113e+3, 2.0421566e+2, -1078312.4, -1159708.8, 61994.41, 0.050186276, -0.10819211, -1044850.94, -106179.68, 0.0, 9.999625, 9.998575 
1.7951316e+3, 2.1421407e+2, -700518.1, -905540.3, 80744.29, 0.10864467, -0.17900944, -672537.2, 168148.69, 0.0, 10.001477, 9.998746 
1.7951496e+3, 2.242122e+2, -599409.75, -912832.3, 79949.02, 0.08546864, -0.18305004, -580194.1, 162509.17, 0.0, 10.00195, 9.997806 
1.7951672e+3, 2.3421015e+2, -654751.25, -866055.56, 73437.625, -0.04224181, -0.22469196, -631735.4, 12987.901, 0.0, 10.000821, 9.997981 
1.7951849e+3, 2.4420825e+2, -637888.8, -856603.3, -15160.824, -0.088621475, -0.18265373, -636842.9, -90100.25, 0.0, 10.000459, 9.997554 
1.7952034e+3, 2.5420648e+2, -385411.63, -661794.7, -27159.15, 0.009221185, -0.1710716, -382768.1, 65994.19, 0.0, 10.0014515, 9.997722 
1.7952213e+3, 2.6420435e+2, -221848.33, -536655.94, -41273.37, 0.0384546, -0.14514337, -216527.06, 134256.72, 0.00000013255313, 10.001855, 9.997751 
1.7952381e+3, 2.742018e+2, -126749.84, -405054.78, -7519.0674, -0.0643422, -0.2395112, -126546.84, 126260.03, 0.0000188634, 10.001713, 9.998031 
1.7952555e+3, 2.8419974e+2, -21272.297, -336230.34, 9046.792, -0.11886606, -0.22449456, -21012.652, 133812.94, 0.00018772876, 10.001904, 9.9977455 
1.7952745e+3, 2.9419822e+2, 211990.13, -144818.61, 56285.715, -0.045821685, -0.22639295, 220658.47, 277498.06, 0.00073121197, 10.002743, 9.997957 
1.7952907e+3, 3.0419552e+2, 258133.89, -172254.23, -3330.6458, -0.1545965, -0.2441752, 258159.66, 258159.66, 0.0017173345, 10.003004, 9.997344 
1.7953089e+3, 3.1419444e+2, 251923.31, 45534.09, 90990.125, -0.03176736, -0.18146773, 286308.97, 286308.97, 0.002973509, 10.00204, 9.99925 
1.804967e+3, 1.2420042e+2, -1710279.3, -1268889.6, -97749.04, 0.1386173, -0.0056927227, -1248211.1, 474619.72, 0.097200245, 9.997868, 10.0043745 
1.8049867e+3, 1.3419878e+2, -2052940.1, -1922894.5, 94908.29, -0.028739756, -0.10992561, -1872871.5, -248032.23, 0.06490086, 9.997423, 9.999092 
1.8050043e+3, 1.441978e+2, -1885481.5, -1682229.6, -49805.55, -0.1180579, -0.17120594, -1670681.3, -143836.25, 0.034457777, 9.997365, 10.000127 
1.8050243e+3, 1.541978e+2, -1584224.0, -1454315.1, -58241.27, 0.1657517, -0.25016096, -1432027.8, -3184.1567, 0.0127833225, 9.998657, 10.000374 
1.8050416e+3, 1.6419795e+2, -1432417.8, -1365742.1, 20993.182, 0.110106625, -0.24737924, -1359683.0, -28842.715, 0.0025744103, 9.999157, 10.000084 
1.8050586e+3, 1.7419825e+2, -1342177.8, -1230105.1, 7641.26, -0.07789734, -0.28941712, -1229586.6, 3247.5156, 0.00014305822, 9.998962, 10.000409 
1.8050766e+3, 1.8419851e+2, -1284169.5, -1282528.5, -32575.555, -0.08088169, -0.2423127, -1250763.1, -115932.016, 0.00000010953618, 9.99922, 9.999277 
1.8050951e+3, 1.9419862e+2, -1022339.25, -1088080.9, -46540.246, 0.049113084, -0.20900385, -998232.1, 38601.668, 0.0, 10.000295, 9.999403 
1.8051137e+3, 2.0419814e+2, -875653.56, -1063109.8, 37445.01, 0.10753104, -0.14819051, -868450.56, 70389.89, 0.0, 10.001011, 9.998587 
1.8051328e+3, 2.1419683e+2, -713668.44, -909934.5, 29442.62, 0.10384036, -0.18692315, -709346.8, 131505.88, 0.0, 10.001375, 9.998771 
1.8051511e+3, 2.2419508e+2, -665819.2, -955037.9, 17254.535, 0.06812618, -0.17825325, -664793.44, 78076.65, 0.0, 10.001548, 9.997697 
1.8051684e+3, 2.3419273e+2, -543822.1, -827485.8, 9678.889, -0.035157986, -0.23185222, -543492.25, 101401.98, 0.0, 10.001657, 9.997833 
1.8051864e+3, 2.4419081e+2, -448082.9, -771793.44, 29667.355, -0.03540561, -0.18323593, -445386.44, 101528.47, 0.0, 10.00177, 9.997528 
1.8052058e+3, 2.5418922e+2, -336604.66, -647200.7, 38146.63, 0.11199153, -0.14357845, -331988.22, 116944.88, 0.0, 10.001798, 9.997685 
1.8052241e+3, 2.6418737e+2, -209578.98, -497849.25, 64291.902, 0.14634529, -0.0972965, -195890.2, 155061.38, 0.00000007008213, 10.001818, 9.998024 
1.8052402e+3, 2.7418524e+2, -77768.125, -358878.84, 40266.047, -0.031367365, -0.17439878, -72114.17, 180856.27, 0.000018211349, 10.001947, 9.998239 
1.8052576e+3, 2.8418314e+2, 2712.0469, -308167.63, 83217.78, -0.09055167, -0.17900714, 23586.537, 178575.11, 0.00018396454, 10.001984, 9.997903 
1.8052776e+3, 2.9418102e+2, 133344.2, -171993.34, 32833.07, 0.04578894, -0.24437384, 136834.86, 193841.84, 0.0007180549, 10.002133, 9.9980755 
1.8052948e+3, 3.0417848e+2, 202688.08, -208194.25, -23572.893, -0.00893942, -0.25416887, 204036.06, 204036.06, 0.0016645552, 10.002686, 9.997237 
1.8053122e+3, 3.1417727e+2, 424713.38, 84819.45, -35665.473, 0.05319449, -0.16538033, 428415.5, 428415.5, 0.002832551, 10.00332, 9.998954 
1.8149644e+3, 1.2418203e+2, -1815711.4, -1514290.1, 1185.6848, 0.011387478, -0.07056918, -1514285.5, 208722.44, 0.10291468, 9.998046, 10.002445 
1.8149845e+3, 1.3418096e+2, -2082291.0, -1983227.3, 82335.44, -0.035396907, -0.082904264, -1936673.0, -311656.63, 0.06887483, 9.997422, 9.99868 
1.8150021e+3, 1.4418036e+2, -1884057.4, -1696409.0, -34420.81, -0.15002488, -0.072168045, -1690294.4, -163273.61, 0.036753505, 9.997434, 9.999998 
1.8150233e+3, 1.5418038e+2, -1577950.5, -1453220.1, 3880.4497, 0.15799019, -0.14458409, -1453099.5, -24081.607, 0.01378539, 9.998698, 10.000367 
1.8150413e+3, 1.6418037e+2, -1414289.0, -1347276.9, -3049.396, 0.117797725, -0.16521457, -1347138.4, -16123.243, 0.002842686, 9.999238, 10.000171 
1.815058e+3, 1.7418016e+2, -1345750.9, -1239361.0, 14007.92, -0.06566468, -0.25864282, -1237547.6, -4533.5957, 0.00016504708, 9.99896, 10.00035 
1.8150762e+3, 1.8417986e+2, -1278616.3, -1270148.9, -15069.254, -0.08986205, -0.26746178, -1258729.9, -123714.32, 0.00000012908751, 9.999213, 9.999367 
1.8150955e+3, 1.9417948e+2, -1021143.56, -1070545.8, 6524.2954, 0.034101646, -0.29687336, -1020296.5, 16724.084, 0.0, 10.000224, 9.999561 
1.8151143e+3, 2.0417924e+2, -901341.75, -1072071.9, 37682.766, 0.04902515, -0.22082381, -893394.5, 45629.59, 0.0, 10.000826, 9.998611 
1.815133e+3, 2.1417913e+2, -751079.25, -929013.6, 60028.957, -0.037211947, -0.14232321, -732721.56, 108305.18, 0.0, 10.001123, 9.998761 
1.8151514e+3, 2.241782e+2, -696786.5, -940033.75, 7485.07, -0.077518925, -0.06544995, -696556.4, 46481.492, 0.0, 10.001206, 9.997964 
1.8151702e+3, 2.3417605e+2, -563857.44, -806810.56, 31001.117, -0.04049219, -0.12602387, -559964.06, 85097.016, 0.0, 10.001388, 9.998105 
1.8151888e+3, 2.4417406e+2, -457719.56, -719533.7, 18217.594, 0.005039966, -0.12059175, -456458.03, 90623.695, 0.0, 10.00146, 9.99803 
1.8152077e+3, 2.5417233e+2, -327536.78, -570809.75, 57099.62, 0.09479585, -0.16159622, -314801.38, 134296.36, 0.0, 10.001555, 9.998317 
1.8152261e+3, 2.6417112e+2, -256253.64, -519645.25, 50716.535, 0.11931566, -0.09155115, -246825.56, 104283.17, 0.0000000874347, 10.001489, 9.9980345 
1.8152432e+3, 2.7417028e+2, -129003.43, -384786.6, 65377.54, 0.047971793, -0.0375321, -113261.875, 139854.06, 0.00001648955, 10.0016165, 9.99821 
1.8152608e+3, 2.8416824e+2, -93640.33, -430723.34, 65986.03, -0.020981854, -0.0033385968, -81183.5, 73951.53, 0.00017264318, 10.001635, 9.997234 
1.8152793e+3, 2.9416457e+2, 44992.258, -282877.47, 65551.02, -0.042009003, -0.16932786, 57612.137, 114781.8, 0.000683164, 10.001812, 9.997468 
1.8152973e+3, 3.0416143e+2, 101970.64, -309685.9, -21242.395, -0.07739293, -0.18654117, 103063.89, 103063.89, 0.0015935485, 10.002237, 9.996752 
1.8153156e+3, 3.141582e+2, 277267.13, -2332.5164, 35328.313, 0.0016493613, -0.2655528, 281661.9, 281661.9, 0.0027236447, 10.0024605, 9.998724 
1.8249625e+3, 1.2416288e+2, -1985610.5, -1723582.3, 41859.027, 0.06611443, -0.08846045, -1717057.8, 6133.24, 0.10907774, 9.997511, 10.001102 
1.8249822e+3, 1.3416274e+2, -1877410.1, -1873030.5, 10337.411, -0.05605056, -0.024649812, -1864653.5, -239459.33, 0.07313931, 9.998724, 9.998823 
1.8250018e+3, 1.4416102e+2, -1689399.6, -1572180.9, -8863.617, 0.039402474, -0.14664142, -1571514.4, -44303.51, 0.039204508, 9.99867, 10.000244 
1.8250221e+3, 1.5416189e+2, -1563505.5, -1420668.4, 12885.64, 0.18212083, -0.1542901, -1419515.3, 9683.767, 0.014855209, 9.998717, 10.000571 
1.82504e+3, 1.641623e+2, -1485687.8, -1392451.3, 16395.92, 0.10317048, -0.13716699, -1389652.0, -58459.496, 0.0031336718, 9.998795, 10.000068 
1.8250576e+3, 1.7416246e+2, -1340096.4, -1247110.5, -9802.493, 0.005530053, -0.18204911, -1246088.4, -12898.834, 0.00019006866, 9.999057, 10.000246 
1.8250763e+3, 1.8416211e+2, -1266260.6, -1273099.8, 13212.31, 0.017225584, -0.18522584, -1256032.5, -120840.52, 0.00000015151502, 9.999338, 9.999284 
1.8250959e+3, 1.9416091e+2, -1073261.3, -1099633.3, -13072.566, 0.059016738, -0.28764775, -1067879.5, -30676.205, 0.0, 9.999918, 9.999496 
1.8251148e+3, 2.0416035e+2, -946829.8, -1057508.4, 29521.729, 0.034589194, -0.25647596, -939447.75, -238.99321, 0.0, 10.000365, 9.998912 
1.8251336e+3, 2.1416047e+2, -787488.6, -903727.5, 44944.01, -0.063986726, -0.19164054, -772138.1, 69069.734, 0.0, 10.000705, 9.999112 
1.8251526e+3, 2.2415997e+2, -698645.8, -920238.3, 37818.05, -0.06481809, -0.100984566, -692369.4, 50845.117, 0.0, 10.001072, 9.998183 
1.8251723e+3, 2.3415853e+2, -534222.5, -763379.9, 25585.22, 0.04779685, -0.118067786, -531400.7, 113831.29, 0.0, 10.001453, 9.998381 
1.8251912e+3, 2.4415685e+2, -386233.47, -672299.4, 33337.395, 0.093051635, -0.10196054, -382399.8, 164849.7, 0.0, 10.001888, 9.998144 
1.8252091e+3, 2.541549e+2, -201775.94, -500077.97, 3126.0693, 0.048179712, -0.17205416, -201743.19, 247523.6, 0.0, 10.002366, 9.9984045 
1.8252274e+3, 2.641534e+2, -139743.78, -491076.06, -19681.69, 0.07416068, -0.12441893, -138644.64, 212636.02, 0.00000011582431, 10.002424, 9.997775 
1.8252459e+3, 2.7415213e+2, -98518.56, -410586.78, -74398.98, 0.16177374, -0.07730053, -81688.99, 171604.63, 0.000015405387, 10.001992, 9.997861 
1.8252641e+3, 2.8414991e+2, -59918.895, -394808.38, -2119.4585, 0.16292574, -0.04679513, -59905.48, 95409.195, 0.00016033741, 10.0018015, 9.997395 
1.8252818e+3, 2.9414666e+2, 79829.29, -256211.6, 5157.3555, 0.039995495, -0.17738254, 79908.42, 137252.73, 0.00064014964, 10.002001, 9.997568 
1.8253005e+3, 3.0414364e+2, 194225.34, -248454.1, 42623.207, 0.004919625, -0.19323799, 198291.95, 198291.95, 0.0015227182, 10.002781, 9.996921 
1.8253195e+3, 3.1414002e+2, 537187.44, 105983.375, -1906.8893, 0.088493876, -0.3111062, 537195.9, 537195.9, 0.0026622775, 10.004247, 9.998666 
1.8349603e+3, 1.2414193e+2, -2018736.3, -1826523.0, 14722.067, -0.005222333, -0.16139907, -1825402.0, -102011.78, 0.11569034, 9.99765, 10.000326 
1.8349795e+3, 1.3414416e+2, -1799087.8, -1734829.5, 42748.313, -0.2415937, 0.072013095, -1713482.4, -88110.52, 0.07769921, 9.998812, 9.999734 
1.835003e+3, 1.4413986e+2, -1633529.9, -1486677.1, -37579.355, 0.24299209, -0.3896534, -1477619.4, 49794.977, 0.04181763, 9.998788, 10.000787 
1.8350203e+3, 1.5414228e+2, -1535365.8, -1377743.3, 29300.336, 0.09063538, -0.27897197, -1372472.9, 56914.332, 0.015997248, 9.998766, 10.000851 
1.8350375e+3, 1.6414362e+2, -1489533.6, -1422448.0, 5184.7637, -0.09325499, -0.1675665, -1422049.6, -90676.44, 0.0034491862, 9.998888, 9.999818 
1.835057e+3, 1.7414491e+2, -1345382.8, -1270687.8, 10059.069, 0.0018029413, -0.08008966, -1269356.9, -35993.652, 0.00021871291, 9.999099, 10.000068 
1.8350765e+3, 1.8414494e+2, -1288069.8, -1316945.0, 14503.617, 0.05847535, -0.024813864, -1282042.8, -146678.86, 0.00000018976193, 9.999337, 9.998981 
1.8350953e+3, 1.9414268e+2, -1113577.0, -1163346.3, 20328.225, -0.014456823, -0.19562964, -1106329.4, -68944.83, 0.0, 9.999827, 9.9991045 
1.835114e+3, 2.041412e+2, -928318.0, -977162.44, 25515.955, -0.09401475, -0.26502076, -917420.1, 21976.6, 0.0, 10.000183, 9.999553 
1.8351339e+3, 2.1414085e+2, -767746.6, -810191.9, 68058.26, -0.12248536, -0.32055733, -717678.8, 123717.8, 0.0, 10.000478, 9.999864 
1.835154e+3, 2.2414047e+2, -728689.3, -910878.3, 37119.426, -0.06919245, -0.26634595, -721416.9, 21982.947, 0.0, 10.000761, 9.998402 
1.8351746e+3, 2.3413992e+2, -558267.06, -753823.0, 55754.02, 0.09650812, -0.21343112, -543488.2, 101920.79, 0.0, 10.001194, 9.998578 
1.8351933e+3, 2.4413893e+2, -454053.0, -730077.94, 33904.56, 0.07882901, -0.13071299, -449949.44, 97471.41, 0.0, 10.001527, 9.997927 
1.8352096e+3, 2.5413716e+2, -272493.72, -570182.5, 40289.445, -0.16256316, -0.15382291, -267137.28, 182300.88, 0.0, 10.002042, 9.99808 
1.8352276e+3, 2.6413465e+2, -239344.34, -630634.8, -47024.07, -0.16822524, -0.14849222, -233772.47, 117690.81, 0.000000090536304, 10.002122, 9.996968 
1.8352482e+3, 2.7413094e+2, -180616.2, -531497.6, -65175.195, 0.1509809, -0.26957917, -168901.23, 84599.805, 0.00001528185, 10.001775, 9.997135 
1.8352674e+3, 2.8412828e+2, -54801.902, -315479.84, -20490.988, 0.26427278, -0.28528464, -53201.008, 102325.445, 0.00015301355, 10.001498, 9.998087 
1.8352848e+3, 2.9412717e+2, 88034.95, -154615.13, 40904.934, 0.09881386, -0.28840864, 94744.98, 152277.39, 0.0006077412, 10.001647, 9.998427 
1.8353036e+3, 3.0412528e+2, 137461.48, -247258.02, 71544.42, 0.0063954564, -0.24564628, 150335.45, 150335.45, 0.0014712458, 10.002276, 9.997168 
1.8353218e+3, 3.14123e+2, 414702.94, 23395.348, 85687.086, -0.17957705, -0.27140316, 432643.8, 432643.8, 0.0026387856, 10.003539, 9.998418 
1.8449591e+3, 1.2411828e+2, -2078387.4, -1878327.4, -41917.32, 0.13343216, -0.378037, -1869899.8, -146280.81, 0.12272786, 9.9973755, 10.000102 
1.8449788e+3, 1.3412516e+2, -1841997.1, -1578414.1, 25778.035, -0.13179524, 0.17001799, -1575916.8, 49638.316, 0.08254445, 9.997801, 10.001305 
1.8450025e+3, 1.4411925e+2, -1657605.4, -1489197.1, -45995.727, 0.32996503, -0.53768617, -1477453.6, 50160.215, 0.04459436, 9.998562, 10.000888 
1.8450189e+3, 1.541232e+2, -1533727.0, -1364716.0, -32669.129, 0.07138816, -0.283578, -1358621.0, 70952.27, 0.017215712, 9.998721, 10.000963 
1.8450361e+3, 1.6412525e+2, -1485252.5, -1438566.5, -3955.5664, -0.0991983, -0.10086914, -1438233.6, -106680.09, 0.0037916328, 9.999009, 9.999655 
1.8450572e+3, 1.7412572e+2, -1214016.9, -1226231.4, -30936.727, 0.06771582, -0.07180204, -1188590.4, 44962.1, 0.00025177147, 10.0001, 9.999891 
1.8450771e+3, 1.841254e+2, -1142491.8, -1252928.4, -15325.9, 0.14636463, -0.038974755, -1140404.3, -4847.4854, 0.00000025167606, 10.000364, 9.998921 
1.8450952e+3, 1.941235e+2, -1123042.5, -1174163.0, -18398.729, 0.005692142, -0.17120762, -1117109.3, -79535.9, 0.0, 9.999782, 9.999049 
1.8451141e+3, 2.0412214e+2, -1008024.2, -1008982.4, 27671.639, -0.07054828, -0.22714671, -980827.44, -41243.227, 0.0, 9.999614, 9.999615 
1.845135e+3, 2.1412167e+2, -784660.1, -811712.06, -9663.157, -0.038796917, -0.29816768, -781562.94, 60022.95, 0.0, 10.000345, 9.999927 
1.8451555e+3, 2.2412132e+2, -710509.7, -850960.25, -40135.297, 0.024509398, -0.2651555, -699849.7, 43738.355, 0.0, 10.000676, 9.998842 
1.8451752e+3, 2.3412088e+2, -621888.9, -733485.5, -33152.285, 0.088347934, -0.24767737, -612783.2, 32810.13, 0.0, 10.000531, 9.999023 
1.8451941e+3, 2.4411991e+2, -565562.75, -776507.06, 11533.037, 0.056248993, -0.19117929, -564934.06, -17330.39, 0.0, 10.000757, 9.997958 
1.8452118e+3, 2.5411814e+2, -341366.66, -608748.5, -2021.6815, -0.11617573, -0.20780936, -341351.38, 108270.695, 0.0, 10.001591, 9.998028 
1.8452305e+3, 2.6411575e+2, -214065.05, -625851.5, -36052.18, -0.09746589, -0.1859272, -210932.48, 140714.86, 0.00000009817215, 10.002332, 9.9969 
1.8452504e+3, 2.741125e+2, -13707.864, -463042.4, -43761.375, 0.15664583, -0.25430062, -9485.554, 244197.14, 0.000013983738, 10.002978, 9.997024 
1.8452695e+3, 2.841099e+2, 173984.1, -214532.95, 22858.504, 0.2597181, -0.24577072, 175324.34, 331032.2, 0.00014297613, 10.00311, 9.998008 
1.8452871e+3, 2.941086e+2, 220387.08, -93952.75, -40527.15, 0.13281552, -0.25652763, 225528.08, 283243.75, 0.0005747027, 10.002568, 9.998406 
1.8453066e+3, 3.041062e+2, 210611.69, -195329.45, 55376.402, 0.09140153, -0.27434963, 218030.28, 218030.28, 0.0014161514, 10.002698, 9.997328 
1.8453258e+3, 3.1410423e+2, 455372.56, 52186.14, -66690.73, -0.1117992, -0.27170208, 466117.47, 466117.47, 0.0025925355, 10.00375, 9.998518 
1.8549553e+3, 1.2409456e+2, -2032986.0, -1855040.0, -174490.8, -0.070769124, -0.4965224, -1748147.6, -24295.758, 0.13014582, 9.997625, 10.000167 
1.8549795e+3, 1.3410562e+2, -1701015.5, -1316039.4, 77878.234, 0.12364768, 0.24694455, -1300881.9, 324862.8, 0.08765755, 9.997813, 10.003283 
1.8549997e+3, 1.4409906e+2, -1654358.8, -1513170.1, -49765.434, 0.13149029, -0.60803384, -1497392.3, 30417.852, 0.04753598, 9.998696, 10.000657 
1.855017e+3, 1.5410458e+2, -1527922.5, -1372991.8, -16451.107, -0.024246527, -0.18181397, -1371264.3, 58493.434, 0.01851746, 9.998801, 10.000872 
1.8550356e+3, 1.6410707e+2, -1482806.0, -1450433.4, 8005.2715, -0.10780832, 0.052587703, -1448562.0, -116827.29, 0.0041650403, 9.999084, 9.999535 
1.8550576e+3, 1.741049e+2, -1233783.4, -1263288.6, 24470.926, 0.06954065, -0.16383544, -1219962.1, 13795.089, 0.00029041685, 10.000074, 9.999651 
1.8550777e+3, 1.8410349e+2, -1129480.5, -1223813.8, -51808.266, 0.11968609, -0.23491712, -1106584.4, 29186.6, 0.0000003514084, 10.000357, 9.999127 
1.855095e+3, 1.9410336e+2, -1116509.0, -1139437.1, -30192.234, -0.018504933, -0.21422112, -1095677.6, -57907.664, 0.0, 9.999687, 9.999335 
1.8551143e+3, 2.0410317e+2, -1075508.0, -1107252.9, 33259.96, -0.06389675, -0.1418667, -1054527.3, -114755.81, 0.0, 9.999435, 9.999026 
1.8551365e+3, 2.1410282e+2, -868088.75, -927469.56, 33349.543, 0.05817985, -0.13667227, -853128.1, -11351.433, 0.0, 10.0001, 9.999248 
1.8551569e+3, 2.241023e+2, -705679.1, -769989.94, -57047.7, 0.058616597, -0.11433041, -672348.56, 71432.07, 0.0, 10.000361, 9.999555 
1.855174e+3, 2.3410144e+2, -599014.7, -633292.56, -22421.139, -0.109058514, -0.22154325, -587932.2, 57852.164, 0.0, 10.0002985, 9.999828 
1.8551931e+3, 2.4410005e+2, -602771.5, -784629.75, 24478.805, -0.14142387, -0.25312313, -599534.2, -51738.465, 0.0, 10.000459, 9.998044 
1.8552151e+3, 2.540979e+2, -374857.63, -612567.6, 45819.9, 0.04026406, -0.31802925, -366331.4, 83486.9, 0.0, 10.001317, 9.998127 
1.8552352e+3, 2.6409662e+2, -227319.56, -571121.9, -31876.768, 0.11516992, -0.21993494, -224388.98, 127445.17, 0.00000008466028, 10.001982, 9.997443 
1.8552525e+3, 2.7409628e+2, -22814.432, -404356.5, 1735.3771, 0.03907129, -0.05417097, -22806.54, 231036.0, 0.000011476472, 10.002655, 9.997577 
1.8552703e+3, 2.840945e+2, 44526.953, -397203.66, -16687.389, -0.017033787, 0.05595088, 45156.457, 201018.28, 0.00012753624, 10.002732, 9.996942 
1.8552884e+3, 2.9409087e+2, 104591.664, -258873.27, -36720.69, -0.027412472, -0.07774599, 108264.42, 166159.02, 0.0005324824, 10.002248, 9.997428 
1.855309e+3, 3.0408648e+2, 135219.63, -251096.28, 64982.207, 0.02736854, -0.24026516, 145857.36, 145857.36, 0.0013398622, 10.002267, 9.9971485 
1.8553318e+3, 3.1408536e+2, 366150.1, 63167.992, -4443.7334, 0.041085605, -0.14224666, 366215.28, 366215.28, 0.0024846024, 10.002944, 9.998961 
1.8649526e+3, 1.240751e+2, -1998755.3, -1871898.0, -77564.555, -0.10754056, -0.44629544, -1835129.6, -111086.21, 0.1378835, 9.998055, 9.99981 
1.864978e+3, 1.3408606e+2, -1677098.3, -1268622.8, 128430.67, 0.20582259, 0.23517658, -1231598.3, 394338.63, 0.09301642, 9.997836, 10.00363 
1.864997e+3, 1.4408012e+2, -1828380.6, -1607009.0, 13824.193, 0.056871913, -0.5678543, -1606149.1, -78153.5, 0.050644647, 9.997562, 10.000546 
1.8650158e+3, 1.5408531e+2, -1490937.6, -1367580.1, 6306.2617, -0.031563148, -0.1646401, -1367258.6, 62687.926, 0.01991141, 9.999118, 10.000758 
1.8650356e+3, 1.640875e+2, -1401930.6, -1432325.9, 43473.816, -0.04116534, 0.055764847, -1371074.5, -39148.266, 0.0045744055, 9.999718, 9.999349 
1.8650575e+3, 1.7408487e+2, -1367705.9, -1342405.5, 30802.516, 0.11390654, -0.19608463, -1321756.8, -87803.82, 0.0003360051, 9.999227, 9.999502 
1.8650779e+3, 1.8408334e+2, -1261230.0, -1282786.1, -6050.702, 0.16071576, -0.27408096, -1259647.8, -123680.32, 0.00000050835786, 9.999426, 9.999175 
1.8650955e+3, 1.9408362e+2, -922928.8, -1039800.25, -31484.281, 0.012295349, -0.22070035, -914986.9, 122975.95, 0.0, 10.0009775, 9.999407 
1.8651149e+3, 2.0408362e+2, -849781.9, -1029199.06, 33514.14, -0.013374995, -0.123356335, -843726.0, 96236.91, 0.0, 10.001103, 9.998763 
1.8651368e+3, 2.1408296e+2, -991213.2, -1022858.94, 27335.049, 0.11381986, -0.11910764, -975451.75, -133479.53, 0.0, 9.999386, 9.998943 
1.865157e+3, 2.2408219e+2, -880692.2, -857867.94, 9569.828, 0.12338867, -0.107051775, -854386.5, -110406.945, 0.0, 9.999188, 9.999521 
1.8651752e+3, 2.3408122e+2, -458984.44, -567253.1, -49879.797, -0.05998144, -0.21375458, -439508.16, 206476.11, 0.0, 10.001284, 9.999814 
1.8651949e+3, 2.4407998e+2, -341424.66, -640789.56, -41468.086, -0.08645161, -0.23708825, -335786.66, 212207.6, 0.0, 10.002165, 9.9982195 
1.8652168e+3, 2.5407818e+2, -365397.16, -588951.44, -43004.266, 0.08846428, -0.28407106, -357409.97, 92602.8, 0.0, 10.001298, 9.998304 
1.865237e+3, 2.6407698e+2, -313513.28, -562272.7, -56551.324, 0.15672123, -0.20690328, -301260.75, 50765.97, 0.000000065173005, 10.001172, 9.997895 
1.865255e+3, 2.7407655e+2, -58536.4, -373494.44, -73819.6, 0.05390597, -0.08978895, -42093.094, 211941.33, 0.000009433609, 10.002194, 9.998019 
1.8652733e+3, 2.8407502e+2, 75616.58, -403532.94, -56109.813, 0.007659158, 0.030450184, 82099.484, 238150.58, 0.00011541344, 10.003052, 9.996728 
1.8652916e+3, 2.9407176e+2, 298668.66, -201600.53, -72361.59, 0.0042495625, -0.03139762, 308925.16, 367007.5, 0.0004967766, 10.003742, 9.997093 
1.865312e+3, 3.0406672e+2, 363034.88, -154388.4, 103589.15, 0.02783431, -0.23713085, 383003.03, 383003.03, 0.0012631787, 10.003874, 9.997035 
1.8653357e+3, 3.1406596e+2, 427050.88, 96375.945, -85212.86, 0.14168748, -0.089802265, 447718.0, 447718.0, 0.0023412816, 10.003296, 9.999027 
1.8749513e+3, 1.24060296e+2, -2023084.8, -1942674.1, -314733.56, -0.14519693, -0.26272744, -1665588.3, 58601.316, 0.14588223, 9.998175, 9.999305 
1.874974e+3, 1.3406639e+2, -1774707.0, -1469949.6, 101156.19, -0.014740451, 0.105444856, -1439429.9, 186701.83, 0.0986057, 9.997897, 10.002096 
1.8749934e+3, 1.4406253e+2, -1814650.1, -1605907.0, 42207.973, -0.10438598, -0.4152841, -1597695.6, -69525.93, 0.053927336, 9.997669, 10.0005045 
1.8750145e+3, 1.540653e+2, -1495628.3, -1384777.4, 81881.29, -0.096133284, -0.24075967, -1341326.5, 88814.38, 0.021407956, 9.999141, 10.000636 
1.8750355e+3, 1.6406651e+2, -1396612.9, -1438714.6, 16183.181, -0.06170354, -0.10783882, -1391111.3, -58982.586, 0.0050250688, 9.999797, 9.999269 
1.8750566e+3, 1.7406556e+2, -1376473.1, -1360094.6, 25169.607, 0.060115617, -0.17567578, -1341815.6, -107675.625, 0.00038988978, 9.999215, 9.999396 
1.8750769e+3, 1.8406475e+2, -1269694.0, -1294924.0, 24120.344, 0.07599294, -0.17579027, -1255089.0, -118940.164, 0.000000733184, 9.999408, 9.999101 
1.8750963e+3, 1.9406421e+2, -951676.2, -1067073.5, 39275.83, -0.037063792, -0.19115773, -939577.06, 98575.66, 0.0, 10.000846, 9.999283 
1.8751158e+3, 2.0406342e+2, -864318.1, -1026195.56, -40857.152, -0.08115661, -0.16836675, -854590.5, 85569.2, 0.0, 10.000951, 9.998862 
1.8751352e+3, 2.140622e+2, -1013831.1, -1023352.0, -25741.281, -0.0071935942, -0.2297655, -992413.8, -150242.06, 0.0, 9.999186, 9.999038 
1.8751557e+3, 2.2406107e+2, -986748.0, -1014108.94, 57464.94, 0.044948548, -0.21471924, -941357.56, -197174.08, 0.0, 9.9989, 9.998591 
1.8751782e+3, 2.3406012e+2, -568477.9, -729761.3, 45632.242, 0.0859596, -0.22669047, -556462.25, 89732.05, 0.0, 10.001004, 9.998829 
1.8751988e+3, 2.4405937e+2, -376714.1, -632722.1, -80011.3, 0.046696693, -0.1562831, -353765.03, 194436.94, 0.0, 10.001808, 9.998454 
1.8752164e+3, 2.540587e+2, -380086.97, -552823.25, -56615.32, -0.104380175, -0.12848601, -363184.84, 87022.414, 0.0, 10.001018, 9.998687 
1.8752357e+3, 2.6405686e+2, -340371.9, -556319.25, -39725.973, -0.12761635, -0.14422071, -333295.75, 18928.5, 0.00000004605578, 10.000889, 9.998082 
1.8752573e+3, 2.7405363e+2, -85373.984, -363090.2, -11696.672, 0.04185155, -0.32573062, -84882.22, 169372.63, 0.000008319171, 10.001902, 9.998237 
1.8752776e+3, 2.8405184e+2, 47231.83, -374587.06, -46908.098, 0.104408786, -0.26573655, 52385.25, 208657.73, 0.00010877433, 10.00267, 9.997114 
1.8752961e+3, 2.9405114e+2, 254065.44, -189093.66, -16340.299, 0.03978448, -0.11049492, 254667.13, 312947.84, 0.00047285456, 10.003302, 9.997389 
1.8753146e+3, 3.0404648e+2, 276655.9, -210685.88, 60075.586, -0.14161122, -0.28181678, 283952.3, 283952.3, 0.0011966277, 10.003364, 9.996888 
1.8753389e+3, 3.140452e+2, 282515.78, 1254.1182, -48307.363, 0.056866266, -0.17290732, 290581.4, 290581.4, 0.0021936095, 10.002472, 9.998748 
1.8849495e+3, 1.24044366e+2, -2189396.5, -1909358.4, -324292.4, -0.03402833, -0.13435513, -1696148.3, 28198.352, 0.15411249, 9.996445, 10.000387 
1.8849719e+3, 1.3404556e+2, -1913487.3, -1708499.1, 75524.86, 0.00809029, -0.101183854, -1683678.5, -57342.277, 0.10442951, 9.997697, 10.000445 
1.8849915e+3, 1.4404458e+2, -1635185.8, -1558938.8, 42175.664, -0.11382413, -0.23495588, -1540209.9, -11864.126, 0.057399224, 9.999111, 10.000105 
1.8850142e+3, 1.5404512e+2, -1544181.3, -1440588.4, 20995.656, -0.033748306, -0.24703051, -1436494.9, -6156.182, 0.023018045, 9.999007, 10.000271 
1.8850355e+3, 1.6404538e+2, -1510748.0, -1492154.4, -37317.2, 0.016207866, -0.19206263, -1462993.4, -130658.016, 0.005521801, 9.998999, 9.999287 
1.8850558e+3, 1.7404531e+2, -1280985.5, -1305445.3, -45798.426, 0.03854507, -0.18126862, -1245812.1, -11475.106, 0.0004532519, 9.999823, 9.999482 
1.8850762e+3, 1.8404487e+2, -1182923.8, -1272796.9, 11440.442, 0.036848754, -0.13984343, -1181490.3, -45148.203, 0.0000010252129, 10.000085, 9.998919 
1.8850967e+3, 1.9404382e+2, -1095574.1, -1154940.0, -835.0116, -0.022980731, -0.19153844, -1095562.4, -57209.902, 0.0, 9.999935, 9.999105 
1.8851164e+3, 2.0404285e+2, -973309.9, -1061550.4, -88467.0, -0.035929408, -0.18510763, -918571.6, 21789.83, 0.0, 10.000134, 9.999011 
1.8851353e+3, 2.1404181e+2, -725522.1, -865582.8, -106428.73, 0.0013472628, -0.24161409, -668150.25, 174219.73, 0.0, 10.001077, 9.999215 
1.8851562e+3, 2.2404075e+2, -675181.06, -904807.94, 63538.336, 0.07973838, -0.21400099, -658772.4, 85609.02, 0.0, 10.001245, 9.99819 
1.8851797e+3, 2.3403953e+2, -676896.8, -838558.7, 61829.383, 0.18103978, -0.2000004, -655960.8, -9563.432, 0.0, 10.000516, 9.998308 
1.8852007e+3, 2.4403864e+2, -557585.94, -703781.6, -34330.316, 0.1436758, -0.12253133, -549925.7, -1517.8961, 0.0, 10.000512, 9.998578 
1.8852174e+3, 2.5403798e+2, -285852.72, -493943.63, -72534.4, -0.12381153, -0.10894456, -263064.84, 187347.45, 0.0, 10.001604, 9.998807 
1.8852367e+3, 2.64036e+2, -162355.05, -463191.88, -31008.313, -0.1681536, -0.14494802, -159192.16, 193237.27, 0.000000017635879, 10.002112, 9.998113 
1.8852594e+3, 2.740326e+2, -79486.03, -346056.22, -51219.273, 0.06781531, -0.35065898, -69983.414, 184477.39, 0.000007223604, 10.001925, 9.998312 
1.8852805e+3, 2.8403074e+2, -29705.285, -379968.7, -43063.9, 0.18001972, -0.31162295, -24488.4, 131989.77, 0.00010058898, 10.002023, 9.997385 
1.8852998e+3, 2.9403007e+2, 184989.36, -199038.06, -66854.16, 0.1322472, -0.18179315, 196294.97, 254781.22, 0.00044370364, 10.002709, 9.997612 
1.8853176e+3, 3.0402628e+2, 315979.03, -141666.16, 44840.85, -0.15396944, -0.2980834, 320331.22, 320331.22, 0.0011208182, 10.003357, 9.997406 
1.8853426e+3, 3.140257e+2, 418656.16, 50719.227, -105147.55, 0.14965746, -0.16677484, 446584.84, 446584.84, 0.002039731, 10.003422, 9.998667 
1.8949461e+3, 1.2402688e+2, -1971023.5, -1563682.9, -136956.31, -0.12071901, -0.09786946, -1521917.6, 202601.13, 0.16258536, 9.996735, 10.00287 
1.8949705e+3, 1.3402382e+2, -2014979.3, -1924510.0, 173727.77, 0.073165216, -0.3482502, -1790224.4, -163676.81, 0.110513955, 9.997706, 9.998974 
1.8949908e+3, 1.440262e+2, -1670505.3, -1641695.8, 37717.258, -0.15346044, -0.04240193, -1615726.1, -87201.695, 0.06108175, 9.999163, 9.999507 
1.895014e+3, 1.5402466e+2, -1596773.0, -1551136.1, 28403.82, 0.019486502, -0.18844926, -1537520.3, -106979.3, 0.024752133, 9.999014, 9.99951 
1.895035e+3, 1.640239e+2, -1473018.5, -1448955.6, -31560.318, 0.0037340291, -0.20194666, -1427211.1, -94663.03, 0.0060684755, 9.99914, 9.999517 
1.8950547e+3, 1.7402394e+2, -1254973.4, -1255409.1, -5030.8486, -0.08753291, -0.21515077, -1250155.6, -15610.257, 0.0005270964, 9.999835, 9.999822 
1.8950751e+3, 1.8402356e+2, -1186241.0, -1284607.5, -10036.387, -0.1175287, -0.18220451, -1185227.4, -48678.734, 0.0000013718216, 10.000116, 9.998816 
1.8950962e+3, 1.9402264e+2, -1124784.3, -1189232.4, 2252.1392, -0.093258165, -0.20382707, -1124705.6, -86145.72, 0.0, 9.99983, 9.998917 
1.8951169e+3, 2.0402205e+2, -987348.56, -1055840.6, -72650.97, -0.062763326, -0.15670177, -941276.75, -710.3242, 0.0, 9.999972, 9.999137 
1.8951365e+3, 2.140218e+2, -742087.2, -852489.44, -55134.41, 0.008408782, -0.1534192, -719269.3, 123297.42, 0.0, 10.000866, 9.999412 
1.8951574e+3, 2.2402103e+2, -718245.44, -924091.25, 23297.133, 0.06422229, -0.108385995, -715641.7, 28933.018, 0.0, 10.000941, 9.998203 
1.8951796e+3, 2.340195e+2, -712222.4, -855702.5, 53083.734, 0.08482241, -0.12890466, -694718.3, -48125.105, 0.0, 10.000274, 9.998304 
1.8952005e+3, 2.440179e+2, -614011.75, -755803.44, -16941.826, 0.029991057, -0.112025, -612015.6, -63405.207, 0.0, 10.0002165, 9.998372 
1.8952194e+3, 2.5401604e+2, -339358.75, -542896.9, -14947.314, -0.11063587, -0.19797243, -338266.9, 112360.16, 0.0, 10.001335, 9.998602 
1.8952394e+3, 2.6401424e+2, -219507.98, -509582.16, -51739.234, -0.13807352, -0.19490297, -210555.77, 142087.81, 0.0000000071100716, 10.001799, 9.997946 
1.8952607e+3, 2.7401292e+2, -134563.77, -383497.66, -39474.24, -0.020831244, -0.18594767, -128454.16, 126202.44, 0.0000064443307, 10.001606, 9.998204 
1.8952817e+3, 2.8401127e+2, -72007.37, -386594.44, -44387.074, 0.04231055, -0.12743886, -65864.47, 90807.63, 0.0000894982, 10.001661, 9.997516 
1.8953025e+3, 2.940083e+2, 124907.19, -230281.33, -10047.485, 0.09456206, -0.24484745, 125191.19, 183892.03, 0.00040238924, 10.002302, 9.997598 
1.8953201e+3, 3.04006e+2, 310755.8, -28325.918, 34362.65, -0.27715793, -0.25352126, 314203.1, 314203.1, 0.0010279405, 10.002857, 9.998405 
1.8953459e+3, 3.1400734e+2, 256232.95, -49841.375, 13001.116, 0.08679464, -0.051841777, 256784.2, 256784.2, 0.0018811835, 10.002493, 9.9983835 
1.9049431e+3, 1.2400589e+2, -1699898.6, -1357976.6, -138345.14, -0.15422635, -0.1047344, -1309012.5, 415712.9, 0.1713416, 9.99825, 10.0037775 
1.9049685e+3, 1.3400161e+2, -1885094.6, -1890721.1, 66316.92, 0.05646722, -0.4755255, -1821531.4, -194766.73, 0.11689223, 9.998795, 9.998639 
1.9049902e+3, 1.4400595e+2, -1767710.3, -1738084.4, -26281.262, -0.09094172, 0.075230956, -1722729.0, -194007.27, 0.06499328, 9.998659, 9.99912 
1.9050136e+3, 1.540032e+2, -1608904.1, -1570359.1, -31336.31, 0.086605124, -0.1796444, -1552843.1, -122092.43, 0.026617203, 9.998931, 9.999453 
1.9050348e+3, 1.6400205e+2, -1477713.3, -1465713.1, -9470.059, 0.075040564, -0.2229874, -1460502.4, -127740.125, 0.0066676727, 9.9991865, 9.999381 
1.9050547e+3, 1.7400202e+2, -1222853.3, -1251359.4, -46861.91, -0.077615336, -0.22821538, -1188124.8, 46635.414, 0.0006122247, 10.000128, 9.999699 
1.905075e+3, 1.8400152e+2, -1145777.3, -1246389.4, -78482.375, -0.12827566, -0.20576799, -1102862.1, 33901.99, 0.0000017786746, 10.000323, 9.998985 
1.9050959e+3, 1.9400074e+2, -1106032.3, -1160347.4, -76780.28, -0.101855, -0.22812869, -1051748.1, -12974.83, 0.0, 9.999875, 9.999108 
1.9051167e+3, 2.0400025e+2, -982847.06, -1046211.4, -59895.523, -0.051147174, -0.1789105, -946770.56, -5992.2754, 0.0, 10.000007, 9.999162 
1.9051377e+3, 2.14e+2, -674107.94, -819284.1, -88350.28, 0.018614236, -0.17729713, -632350.9, 210428.06, 0.0, 10.001358, 9.999383 
1.9051588e+3, 2.2399923e+2, -564192.06, -844155.9, -43886.504, 0.06238398, -0.13134123, -557473.75, 187312.84, 0.0, 10.00195, 9.998279 
1.9051799e+3, 2.3399779e+2, -526156.8, -762467.06, -44131.02, 0.041013237, -0.15218614, -518184.3, 128619.375, 0.0, 10.001505, 9.998365 
1.9052011e+3, 2.4399632e+2, -461870.1, -678640.8, -28038.97, 0.027201079, -0.12636277, -458302.03, 90517.86, 0.0, 10.001271, 9.998379 
1.905222e+3, 2.5399452e+2, -301313.97, -519678.78, -41770.84, 0.008543237, -0.20393614, -293596.4, 157241.39, 0.0, 10.001592, 9.998626 
1.9052425e+3, 2.6399305e+2, -211337.66, -504147.66, -52108.18, 0.010639534, -0.17581537, -202340.97, 150511.67, 0.000000016068412, 10.001821, 9.997982 
1.9052626e+3, 2.739922e+2, -76555.97, -364430.8, -73127.68, 0.0008013291, -0.11116209, -59044.824, 195815.77, 0.000006020835, 10.001978, 9.998184 
1.9052835e+3, 2.8399053e+2, 23551.172, -323880.1, -11355.195, 0.047005296, -0.06658762, 23921.902, 180798.58, 0.00007835106, 10.00223, 9.997682 
1.905306e+3, 2.9398698e+2, 214660.98, -158768.61, -22360.867, 0.19487755, -0.25880188, 215995.17, 274905.6, 0.00035568743, 10.002803, 9.997841 
1.9053239e+3, 3.0398563e+2, 357547.5, -354.38162, 22044.496, -0.18012793, -0.19145668, 358900.2, 358900.2, 0.00092660607, 10.003165, 9.998453 
1.9053498e+3, 3.1398523e+2, 311751.75, -93699.14, -144234.61, 0.21443592, -0.14713672, 357825.88, 357825.88, 0.001727788, 10.003092, 9.997838 
1.9149412e+3, 1.2398156e+2, -1813504.6, -1571598.6, -138497.97, -0.2545755, -0.15803473, -1508673.1, 216291.88, 0.18042894, 9.998316, 10.002015 
1.9149657e+3, 1.3397844e+2, -1841769.3, -1804795.3, 78833.375, -0.13527772, -0.51677006, -1742310.3, -115318.05, 0.12358676, 9.99882, 9.999211 
1.914989e+3, 1.4398345e+2, -1739656.0, -1729378.4, -45692.785, -0.14881313, 0.10933446, -1688536.4, -159594.98, 0.069141634, 9.998863, 9.999084 
1.915012e+3, 1.5398072e+2, -1550881.6, -1456020.8, -12835.842, 0.0027657324, -0.21288124, -1454314.5, -23346.262, 0.028615344, 9.998957, 10.000224 
1.9150344e+3, 1.6397996e+2, -1494436.5, -1527905.3, 1604.5293, 0.052863736, -0.244124, -1494359.8, -161383.66, 0.0073205116, 9.999301, 9.998897 
1.9150552e+3, 1.7397963e+2, -1277633.9, -1357685.8, -1397.5604, -0.07658837, -0.21023665, -1277609.5, -42629.242, 0.00070924795, 10.000097, 9.998979 
1.9150755e+3, 1.8397884e+2, -1116701.1, -1193855.3, -112059.44, -0.17221545, -0.19259661, -1036764.5, 100223.16, 0.0000023137907, 10.000347, 9.99934 
1.9150952e+3, 1.9397812e+2, -1082605.3, -1088278.6, -82331.875, -0.17808571, -0.258291, -1003061.2, 35930.918, 0.0, 9.999771, 9.999656 
1.915116e+3, 2.0397739e+2, -1021693.7, -1092474.6, -32655.83, -0.16671033, -0.25362405, -1008929.3, -67931.76, 0.0, 9.999849, 9.998922 
1.915138e+3, 2.1397638e+2, -728546.75, -879671.56, -25037.504, -0.10682377, -0.3004737, -724506.7, 118500.16, 0.0, 10.001123, 9.999081 
1.9151595e+3, 2.2397542e+2, -604026.3, -845585.1, -68454.695, -0.08091109, -0.26703167, -585975.94, 159040.81, 0.0, 10.001598, 9.998442 
1.9151804e+3, 2.3397456e+2, -554777.56, -750375.25, -45966.492, -0.07923057, -0.24562588, -544513.75, 102513.305, 0.0, 10.001213, 9.998586 
1.9152018e+3, 2.4397384e+2, -500402.34, -682303.56, -35244.914, -0.038315408, -0.1614985, -493812.1, 55224.742, 0.0, 10.000937, 9.998517 
1.9152243e+3, 2.5397328e+2, -330874.56, -513043.88, -12022.896, 0.0728186, -0.1335452, -330084.5, 120961.33, 0.0, 10.001302, 9.998809 
1.9152457e+3, 2.6397237e+2, -250960.14, -509397.84, -66075.46, 0.08957891, -0.065024406, -235046.38, 118010.05, 0.000000038925435, 10.001481, 9.998116 
1.9152644e+3, 2.7397072e+2, -110799.07, -368167.7, -50165.254, -0.03278532, -0.09596433, -101366.75, 153704.52, 0.0000054500297, 10.001698, 9.998291 
1.9152854e+3, 2.8396863e+2, -17282.314, -335601.78, -13729.45, -0.012703518, -0.101552196, -16691.246, 140399.75, 0.00006657065, 10.001916, 9.997754 
1.9153094e+3, 2.9396588e+2, 151929.03, -180267.34, 23844.842, 0.23811609, -0.22234279, 153631.86, 212748.86, 0.00030471265, 10.002346, 9.997911 
1.9153282e+3, 3.0396518e+2, 215055.19, -179949.95, -6429.508, -0.10354524, -0.048661813, 215159.81, 215159.81, 0.000814986, 10.002666, 9.997449 
1.9153507e+3, 3.139615e+2, 134694.9, -239266.3, -38765.62, -0.048778143, -0.24574214, 138671.16, 138671.16, 0.0015623207, 10.002209, 9.997224 
1.9249418e+3, 1.23959556e+2, -1849843.0, -1708322.3, 18223.225, -0.021167178, 0.033607572, -1706013.4, 19165.217, 0.18987963, 9.998637, 10.000698 
1.9249654e+3, 1.3395537e+2, -1735291.9, -1729352.3, -1828.5583, -0.056964155, -0.4785322, -1728834.4, -101616.23, 0.13060497, 9.999413, 9.99946 
1.9249876e+3, 1.4395954e+2, -1781251.6, -1750994.6, -72784.65, -0.14846076, 0.065102324, -1691782.9, -162606.56, 0.07352615, 9.998626, 9.999027 
1.925011e+3, 1.5395722e+2, -1532597.6, -1414836.6, -106029.664, 0.021547483, -0.2411225, -1352435.6, 78762.68, 0.030745408, 9.998976, 10.000489 
1.9250338e+3, 1.6395658e+2, -1513515.4, -1500625.3, -54915.81, 0.106140174, -0.2867283, -1451777.5, -118573.49, 0.008026891, 9.999018, 9.999215 
1.925055e+3, 1.7395702e+2, -1415806.1, -1388645.0, -12953.209, -0.03761389, -0.21119595, -1383458.1, -148257.7, 0.0008187495, 9.99899, 9.999305 
1.9250757e+3, 1.8395662e+2, -1284750.5, -1284418.8, -57994.113, -0.11792929, -0.16961966, -1226590.3, -89386.88, 0.0000031359323, 9.999206, 9.999273 
1.9250958e+3, 1.939554e+2, -999300.9, -1055440.3, -101537.234, -0.13349627, -0.28175202, -922024.9, 117187.34, 0.0, 10.000342, 9.999602 
1.9251166e+3, 2.039543e+2, -902451.75, -1065004.9, -42341.227, -0.11561543, -0.30491614, -892084.1, 49137.414, 0.0, 10.000793, 9.998659 
1.9251391e+3, 2.1395311e+2, -830695.1, -961126.5, -61725.73, -0.068777815, -0.33859053, -806115.75, 37118.047, 0.0, 10.000564, 9.998794 
1.925161e+3, 2.2395208e+2, -730454.94, -873875.3, -82850.65, -0.030999748, -0.3054905, -692590.56, 52653.688, 0.0, 10.000613, 9.998714 
1.9251819e+3, 2.3395121e+2, -529723.5, -699925.44, -89427.45, -0.035921197, -0.3175704, -491376.3, 155876.9, 0.0, 10.001225, 9.998927 
1.9252032e+3, 2.4395066e+2, -437631.72, -657853.1, -53940.137, -0.001808389, -0.23575911, -425129.6, 124131.195, 0.0, 10.0013685, 9.998483 
1.9252253e+3, 2.539507e+2, -388249.5, -560926.8, -82521.21, 0.054499414, -0.13789019, -355155.7, 96109.47, 0.0, 10.000958, 9.998664 
1.9252467e+3, 2.639499e+2, -284262.72, -506647.5, -84347.78, 0.0840993, -0.057467412, -255890.44, 97384.625, 0.000000047147957, 10.001193, 9.998265 
1.9252671e+3, 2.739475e+2, 17576.543, -287572.4, -103453.3, 0.033899985, -0.17655213, 49342.934, 304639.53, 0.0000044268, 10.002505, 9.998456 
1.9252886e+3, 2.8394538e+2, 124605.766, -271756.2, -64028.52, 0.074963816, -0.18920617, 134692.28, 292009.25, 0.000054025306, 10.002932, 9.997689 
1.9253115e+3, 2.9394394e+2, 140933.1, -207235.47, -92499.93, 0.23608814, -0.16275224, 163982.2, 223314.86, 0.00025237876, 10.002343, 9.99773 
1.925331e+3, 3.0394244e+2, 181126.34, -181599.36, -19920.563, -0.04039683, -0.061962485, 182217.08, 182217.08, 0.0006960178, 10.002353, 9.997598 
1.9253543e+3, 3.1393966e+2, 335365.1, -58840.645, -33326.0, 0.07314975, -0.18110146, 338162.6, 338162.6, 0.0013738545, 10.003129, 9.998066 
1.9349399e+3, 1.2393385e+2, -1883482.4, -1807294.0, 139313.39, -0.16992389, -0.13319339, -1700960.4, 24464.682, 0.1997211, 9.998771, 9.999957 
1.934966e+3, 1.3393244e+2, -1739547.1, -1730249.5, -23671.453, 0.029699989, -0.358962, -1710774.8, -83332.59, 0.13795441, 9.999386, 9.999464 
1.9349857e+3, 1.4393452e+2, -1762046.4, -1756305.1, -90429.336, -0.27948192, -0.030627076, -1668700.9, -139277.55, 0.07814733, 9.998804, 9.998912 
1.9350103e+3, 1.539327e+2, -1547958.6, -1465269.4, -82452.91, 0.014424495, -0.2533438, -1414375.9, 17064.395, 0.033007, 9.99904, 10.000113 
1.9350328e+3, 1.6393179e+2, -1413225.6, -1320973.3, -73244.08, 0.040574204, -0.35549885, -1280541.3, 52906.242, 0.008786739, 9.99913, 10.000402 
1.9350538e+3, 1.7393404e+2, -1312583.9, -1181130.3, -4431.8066, -0.096847534, -0.23789795, -1180981.0, 54441.043, 0.00094156526, 9.99901, 10.000728 
1.935075e+3, 1.8393481e+2, -1301933.0, -1329885.4, -38724.66, -0.1485733, -0.14557917, -1274739.6, -137327.27, 0.0000044945964, 9.999245, 9.998943 
1.9350965e+3, 1.9393279e+2, -1059996.8, -1157119.8, -45853.727, -0.10892991, -0.28123587, -1041769.2, -2337.2556, 0.0, 10.000229, 9.998966 
1.9351181e+3, 2.0393111e+2, -948056.44, -1119672.6, -63915.64, -0.07808242, -0.31116283, -926868.06, 14580.853, 0.0, 10.000616, 9.998372 
1.9351405e+3, 2.1393017e+2, -886796.06, -1018949.75, -56279.266, -0.010779126, -0.29100627, -866077.2, -22617.38, 0.0, 10.000314, 9.998517 
1.9351625e+3, 2.2392908e+2, -761469.9, -853952.94, -77544.81, 0.02520511, -0.26487705, -717425.9, 28045.027, 0.0, 10.000254, 9.999023 
1.9351839e+3, 2.3392764e+2, -539851.06, -659408.06, -49799.305, 0.015429894, -0.37255126, -521825.7, 125657.32, 0.0, 10.000963, 9.999329 
1.9352046e+3, 2.4392682e+2, -502722.5, -719007.4, -84180.72, -0.050129823, -0.32898787, -473820.5, 75671.02, 0.0, 10.001045, 9.998224 
1.9352241e+3, 2.5392678e+2, -449796.2, -628036.06, -82748.11, -0.17070521, -0.20374899, -417303.6, 34191.902, 0.0, 10.000702, 9.998327 
1.9352457e+3, 2.6392552e+2, -336737.63, -526867.4, -60813.047, -0.15788676, -0.14743549, -318950.56, 34558.445, 0.00000001782158, 10.000823, 9.9983 
1.9352698e+3, 2.7392253e+2, -31132.514, -293136.28, -36492.383, 0.04514884, -0.34113723, -26144.738, 229391.95, 0.0000033385966, 10.002123, 9.998587 
1.9352922e+3, 2.8392106e+2, 46701.438, -350525.78, -107781.195, 0.10642597, -0.28354883, 74061.62, 231614.25, 0.00004416703, 10.002562, 9.997334 
1.9353119e+3, 2.9392126e+2, 64006.586, -275507.84, -92157.06, -0.0033919779, -0.05628536, 87408.47, 146964.69, 0.00021030588, 10.001963, 9.99744 
1.9353323e+3, 3.039179e+2, 178058.78, -81791.22, -19617.75, -0.20662574, -0.1701499, 179531.5, 179531.5, 0.00059174973, 10.001902, 9.998499 
1.935358e+3, 3.1391758e+2, 342261.22, 177741.66, 72610.2, 0.07338382, -0.15810029, 369723.4, 369723.4, 0.0011892852, 10.002252, 10.00008 
1.9449376e+3, 1.23907536e+2, -1816102.9, -1762419.9, 208782.73, -0.28811938, -0.3993703, -1578760.3, 146919.56, 0.20999403, 9.999229, 10.000172 
1.9449644e+3, 1.3391039e+2, -1876410.6, -1781803.1, -13424.372, -0.016548542, -0.20236696, -1779935.1, -152278.88, 0.14565058, 9.998353, 9.99963 
1.9449855e+3, 1.4390938e+2, -1682498.5, -1695340.6, 8288.637, -0.16483667, -0.21457185, -1678434.8, -148766.08, 0.083007626, 9.999217, 9.999156 
1.94501e+3, 1.5390974e+2, -1434270.3, -1415921.0, -4896.593, 0.050505098, -0.2201767, -1414696.1, 16968.584, 0.03539992, 9.999818, 10.000092 
1.9450317e+3, 1.6390924e+2, -1363243.5, -1316205.5, -12270.358, 0.019778645, -0.27190393, -1313197.0, 20470.986, 0.009600047, 9.9995575, 10.000234 
1.9450527e+3, 1.7391025e+2, -1288539.8, -1187637.1, -92511.08, -0.10117222, -0.2607634, -1132714.6, 102940.34, 0.0010784023, 9.999256, 10.000564 
1.9450746e+3, 1.8391071e+2, -1304031.8, -1305972.0, -117919.55, -0.09841841, -0.20013008, -1187078.4, -49430.035, 0.0000066792873, 9.999146, 9.99915 
1.945097e+3, 1.939094e+2, -1125740.1, -1157527.9, -92009.69, -0.039477203, -0.28647298, -1048261.7, -8601.234, 0.0, 9.999683, 9.999214 
1.9451192e+3, 2.0390825e+2, -1007795.5, -1119667.3, -49683.164, 0.0038733392, -0.28736126, -988916.7, -47244.86, 0.0, 10.0000925, 9.998627 
1.9451414e+3, 2.1390745e+2, -824961.7, -959246.6, -37595.895, 0.037016787, -0.27528733, -815152.5, 28528.422, 0.0, 10.000613, 9.998784 
1.9451633e+3, 2.2390649e+2, -677276.0, -860381.4, -15361.485, 0.060762398, -0.23218235, -675996.25, 69695.32, 0.0, 10.001017, 9.9986105 
1.945185e+3, 2.3390515e+2, -514264.44, -707559.5, -78436.58, 0.03329965, -0.27981415, -486440.94, 161264.69, 0.0, 10.001379, 9.998808 
1.9452061e+3, 2.4390392e+2, -442721.75, -671400.75, -130152.04, -0.008226433, -0.2532871, -383818.44, 165899.6, 0.0, 10.001403, 9.998377 
1.9452257e+3, 2.5390264e+2, -371580.84, -568922.06, -131392.34, -0.094280064, -0.26875582, -305935.2, 145794.6, 0.0, 10.001157, 9.998512 
1.9452475e+3, 2.6390085e+2, -278749.78, -509308.22, -18747.127, -0.06338127, -0.27629024, -277235.38, 76511.85, 0.000000002142629, 10.001237, 9.998232 
1.9452722e+3, 2.738986e+2, -78775.41, -337400.53, -38531.215, 0.09690864, -0.38218087, -73156.9, 182612.89, 0.0000030022966, 10.00184, 9.998445 
1.9452947e+3, 2.8389767e+2, -10179.949, -338761.28, -104020.805, 0.13990822, -0.27175388, 19981.824, 177762.44, 0.00003904193, 10.001992, 9.997695 
1.9453137e+3, 2.9389828e+2, 49272.51, -231651.13, -89947.39, 0.00058701955, -0.04452502, 75604.14, 135382.77, 0.00018459432, 10.001616, 9.997922 
1.945335e+3, 3.0389374e+2, 170808.44, -120099.21, 73206.11, -0.11365481, -0.29149288, 188191.8, 188191.8, 0.0005147773, 10.0020275, 9.998154 
1.9453616e+3, 3.1389382e+2, 550366.6, 247887.63, -31805.521, 0.16167437, -0.17404959, 553674.75, 553674.75, 0.0010277403, 10.00376, 9.99985 
1.9549397e+3, 1.23884335e+2, -1654708.6, -1555304.0, 18046.58, -0.096586145, -0.4120415, -1552129.1, 173777.34, 0.22070916, 9.999617, 10.001622 
1.9549601e+3, 1.3388939e+2, -1830926.8, -1721571.4, 21321.674, -0.31533557, -0.0028063073, -1717561.3, -89702.6, 0.15369554, 9.998479, 9.999991 
1.9549869e+3, 1.4388411e+2, -1613569.6, -1595302.4, 31527.604, -0.0033077882, -0.49831572, -1571612.1, -41700.133, 0.08810495, 9.999405, 9.999748 
1.9550094e+3, 1.5388826e+2, -1409666.8, -1376233.3, 24694.432, -0.024571966, -0.15749861, -1363129.5, 68742.35, 0.037922986, 9.999863, 10.000357 
1.9550301e+3, 1.6388896e+2, -1448124.0, -1527929.1, -46979.703, -0.14898454, -0.0375693, -1426388.1, -92522.54, 0.010466628, 9.999704, 9.998713 
1.9550516e+3, 1.7388576e+2, -1407410.0, -1449992.6, -91221.664, -0.17920978, -0.26997474, -1335027.9, -99129.78, 0.0012294218, 9.9993105, 9.998742 
1.9550738e+3, 1.8388431e+2, -1245187.9, -1198973.9, -114566.445, -0.14358993, -0.32864732, -1105207.5, 32703.752, 0.000009908067, 9.999217, 9.999846 
1.9550969e+3, 1.9388519e+2, -1069573.8, -1018541.8, -60902.336, -0.06402647, -0.29285717, -978026.25, 61872.04, 0.0, 9.99959, 10.000211 
1.9551192e+3, 2.0388542e+2, -984576.2, -1026383.0, -48979.555, -0.042411968, -0.24335884, -952226.0, -10332.812, 0.0, 9.999895, 9.999362 
1.9551411e+3, 2.1388479e+2, -810419.75, -868766.44, -5705.157, -0.066474035, -0.2911913, -809867.1, 34031.81, 0.0, 10.000362, 9.99952 
1.955163e+3, 2.238842e+2, -800385.75, -1041893.7, -17001.95, -0.09610343, -0.20519303, -799194.7, -53286.992, 0.0, 10.000687, 9.997529 
1.9551852e+3, 2.3388362e+2, -648431.3, -917506.5, -49693.098, -0.116694435, -0.04824222, -639547.25, 8374.707, 0.0, 10.001094, 9.997499 
1.9552071e+3, 2.4388188e+2, -471796.75, -645694.06, -149958.45, -0.07029908, -0.013820937, -385402.97, 164537.94, 0.0, 10.001032, 9.998729 
1.9552292e+3, 2.538782e+2, -368765.22, -498495.47, -122315.93, 0.11294081, -0.33098456, -295179.38, 156789.48, 0.0, 10.000887, 9.999117 
1.9552514e+3, 2.6387587e+2, -340527.63, -563622.1, -18192.104, 0.16688743, -0.4173698, -339053.9, 14934.575, 0.00000003752054, 10.000911, 9.99802 
1.9552737e+3, 2.7387562e+2, -142314.17, -402033.5, 3574.4424, 0.038601644, -0.29864126, -142265.0, 113730.9, 0.0000033251551, 10.001556, 9.998135 
1.9552954e+3, 2.8387538e+2, -16484.629, -251135.02, -134287.27, -0.021094372, -0.13849726, 44510.875, 202510.67, 0.000036409245, 10.001565, 9.9985 
1.955316e+3, 2.9387525e+2, 68753.89, -94010.17, -78368.31, 0.050881878, -0.08793178, 100352.51, 160350.47, 0.00016708692, 10.001217, 9.999049 
1.9553384e+3, 3.0387017e+2, -8996.091, -393182.44, 98228.4, -0.019704517, -0.3792683, 14661.993, 14661.993, 0.00045041234, 10.001575, 9.996509 
1.9553658e+3, 3.1386825e+2, 300959.1, -87625.11, 67819.97, 0.1369044, -0.2710196, 312455.66, 312455.66, 0.00087258307, 10.003027, 9.997872 
1.9649409e+3, 1.2386199e+2, -1712538.4, -1555795.5, -25302.813, 0.11174451, -0.36264217, -1551812.1, 174313.36, 0.23177752, 9.99904, 10.001859 
1.964959e+3, 1.338674e+2, -1813457.0, -1738510.8, -7553.134, -0.25377986, 0.123258226, -1737757.1, -109683.67, 0.1620495, 9.998808, 9.999662 
1.9649869e+3, 1.4385933e+2, -1738353.8, -1637224.3, 9310.864, 0.110756986, -0.6420122, -1636374.3, -106220.59, 0.093428105, 9.9985, 9.999868 
1.965009e+3, 1.5386482e+2, -1464989.6, -1380874.0, -48982.28, -0.019285874, -0.18434195, -1358370.9, 73729.125, 0.04057487, 9.999406, 10.000517 
1.9650301e+3, 1.6386606e+2, -1426943.0, -1549780.4, -73369.56, -0.11765925, -0.013635196, -1392678.0, -58589.324, 0.011385711, 9.999997, 9.998415 
1.965052e+3, 1.738622e+2, -1262058.6, -1417115.0, -42623.977, -0.10915432, -0.2754552, -1251114.0, -14985.6045, 0.0013940044, 10.000484, 9.998392 
1.9650742e+3, 1.8386036e+2, -1060940.4, -1133453.1, -3345.7422, -0.074988894, -0.3452261, -1060786.4, 77359.375, 0.000014255441, 10.000576, 9.999645 
1.9650967e+3, 1.9386114e+2, -951046.25, -983836.1, -65146.04, -0.058587126, -0.30209914, -900263.8, 139869.97, 0.0, 10.000493, 10.000019 
1.965119e+3, 2.0386122e+2, -909444.44, -999819.0, -94264.375, -0.06260901, -0.25472474, -850096.25, 92033.77, 0.0, 10.000437, 9.999282 
1.965141e+3, 2.1386029e+2, -791047.94, -873220.8, -137417.47, -0.108770356, -0.32260838, -688706.1, 155432.05, 0.0, 10.000518, 9.999424 
1.9651635e+3, 2.2385967e+2, -804816.7, -1012598.8, -109603.58, -0.112083524, -0.24717806, -757690.25, -11543.107, 0.0, 10.000531, 9.997806 
1.9651861e+3, 2.3385933e+2, -678953.8, -901391.75, -66869.73, -0.10155687, -0.09218932, -660399.06, -12240.451, 0.0, 10.000736, 9.997788 
1.9652086e+3, 2.4385783e+2, -463021.0, -639118.3, -88033.29, -0.008644111, -0.051602725, -426560.94, 123614.67, 0.0, 10.001039, 9.998796 
1.965231e+3, 2.5385478e+2, -291996.34, -463155.97, -133638.97, 0.18423529, -0.30767798, -218883.75, 233315.42, 0.0, 10.001395, 9.99914 
1.9652534e+3, 2.6385286e+2, -243621.64, -493890.4, -652.6199, 0.23950018, -0.35773978, -243619.95, 110595.16, 0.00000006167767, 10.001501, 9.998206 
1.9652753e+3, 2.738525e+2, -164047.2, -392409.2, 7120.8994, 0.05454705, -0.2613215, -163825.38, 92396.82, 0.000003603985, 10.001342, 9.99829 
1.965297e+3, 2.8385174e+2, -20149.35, -243441.9, -94342.24, 0.0072271167, -0.16547295, 14373.284, 172603.61, 0.00003430298, 10.001499, 9.998586 
1.9653186e+3, 2.9385096e+2, 223600.3, -22501.158, -150866.69, 0.15196937, -0.17603597, 295234.56, 355469.03, 0.00015136057, 10.002287, 9.99904 
1.9653411e+3, 3.0384725e+2, 147832.61, -328093.6, 77489.18, 0.06925754, -0.32670254, 160131.39, 160131.39, 0.00039140973, 10.002676, 9.996447 
1.965367e+3, 3.1384417e+2, 157276.89, -156453.94, 23102.486, 0.034937195, -0.31025484, 158968.98, 158968.98, 0.00072701665, 10.001975, 9.997946 
1.9749373e+3, 1.2384077e+2, -1742671.1, -1665513.4, -85819.71, -0.27078667, -0.24925728, -1610000.0, 116334.1, 0.24301729, 9.999399, 10.000765 
1.9749615e+3, 1.3384432e+2, -1867161.5, -1895512.8, -25445.363, 0.051078793, 0.16635914, -1852209.5, -223908.03, 0.17062773, 9.998977, 9.998516 
1.9749844e+3, 1.4383489e+2, -1731435.8, -1656189.4, 10011.447, -0.0540796, -0.6625519, -1654880.1, -124485.26, 0.09895461, 9.998632, 9.999681 
1.9750082e+3, 1.5383951e+2, -1454670.3, -1369582.6, -4449.8203, -0.078869514, -0.29360342, -1369350.5, 62998.1, 0.04335473, 9.999443, 10.000584 
1.9750313e+3, 1.638405e+2, -1335521.0, -1390710.6, -71370.91, -0.05435769, -0.19447704, -1286596.0, 47742.004, 0.012356995, 10.000138, 9.999439 
1.9750537e+3, 1.7383946e+2, -1184419.9, -1256183.1, -14833.583, -0.02696693, -0.27891308, -1181474.6, 54872.805, 0.0015709848, 10.000493, 9.999491 
1.9750753e+3, 1.8383867e+2, -1127955.6, -1287145.5, -24389.703, -0.06649827, -0.25635925, -1124302.8, 14051.475, 0.000019593592, 10.000626, 9.998574 
1.9750965e+3, 1.938371e+2, -1054506.1, -1179763.1, -55896.57, -0.17217909, -0.31517437, -1033189.6, 7178.631, 0.0, 10.000411, 9.998715 
1.9751182e+3, 2.0383553e+2, -1000129.8, -1142390.5, -103654.6, -0.2355207, -0.32308593, -945546.94, -3163.7573, 0.0, 10.000241, 9.998396 
1.9751406e+3, 2.1383421e+2, -884847.25, -1010527.4, -119391.81, -0.22269711, -0.34939605, -812767.75, 31628.44, 0.0, 10.000271, 9.9986 
1.9751635e+3, 2.2383323e+2, -761663.8, -841409.8, -117424.55, -0.17912224, -0.3233375, -677527.2, 68878.92, 0.0, 10.000172, 9.999156 
1.9751875e+3, 2.3383243e+2, -598180.2, -677118.8, -38662.137, -0.059557192, -0.38263413, -582399.3, 66015.3, 0.0, 10.000486, 9.999449 
1.9752102e+3, 2.4383198e+2, -532923.4, -706852.2, -92772.055, 0.0037235648, -0.3216362, -492728.6, 57692.176, 0.0, 10.000699, 9.998497 
1.9752307e+3, 2.5383222e+2, -357817.16, -551132.06, -104857.734, -0.005560016, -0.19463985, -311863.9, 140557.42, 0.0, 10.001182, 9.998637 
1.9752526e+3, 2.6383156e+2, -269981.4, -472625.9, -23461.479, -0.01936286, -0.10916544, -267300.6, 87128.35, 0.000000055759365, 10.001172, 9.998508 
1.9752762e+3, 2.7382928e+2, -175831.6, -341578.22, 21157.24, -0.009249927, -0.25659215, -173173.53, 83275.38, 0.0000036492006, 10.001022, 9.998785 
1.9752991e+3, 2.8382707e+2, -129708.5, -385379.0, -90129.14, 0.02447047, -0.30258387, -101130.48, 57339.27, 0.00003270768, 10.001119, 9.997803 
1.9753209e+3, 2.9382542e+2, 115604.79, -181625.53, -87727.984, 0.12003755, -0.31342408, 139566.17, 200054.0, 0.00013942833, 10.002001, 9.998086 
1.9753425e+3, 3.038248e+2, 113533.38, -260459.39, 39500.387, -0.092118055, -0.12927277, 117659.81, 117659.81, 0.00034788318, 10.002116, 9.997164 
1.9753674e+3, 3.1382158e+2, 179748.03, 99606.41, 37246.594, -0.1931804, -0.25292492, 194385.34, 194385.34, 0.0006200004, 10.001142, 10.000073 
1.9849358e+3, 1.2381566e+2, -1855002.3, -1746403.1, -69398.67, -0.3143755, -0.4446058, -1712585.6, 13996.83, 0.25424254, 9.998729, 10.000409 
1.9849622e+3, 1.3381961e+2, -1701114.8, -1852682.6, -57750.215, 0.18363619, 0.057041857, -1681618.6, -53073.77, 0.17932345, 10.000248, 9.9982195 
1.9849843e+3, 1.4381252e+2, -1627331.3, -1625329.0, 49010.04, 0.0391714, -0.5174421, -1577309.9, -46695.027, 0.104643695, 9.999438, 9.999514 
1.9850075e+3, 1.5381558e+2, -1521803.1, -1416946.5, 5134.726, -0.04919222, -0.28591868, -1416695.6, 15888.475, 0.046255346, 9.999055, 10.000444 
1.9850309e+3, 1.6381615e+2, -1476231.6, -1419786.6, -51949.336, -0.0432499, -0.23954602, -1388888.5, -54311.08, 0.013380272, 9.999008, 9.999778 
1.985054e+3, 1.7381607e+2, -1277868.5, -1258856.4, -74535.664, 0.008587137, -0.2682103, -1193223.0, 43352.973, 0.0017591557, 9.999665, 9.999874 
1.9850762e+3, 1.8381566e+2, -1231855.4, -1379703.6, -70103.45, -0.008129075, -0.21353532, -1203900.8, -65321.754, 0.0000256483, 10.00009, 9.998194 
1.9850971e+3, 1.9381352e+2, -1056936.3, -1236289.8, -71595.66, -0.15046042, -0.286619, -1031861.75, 8738.955, 0.0, 10.000603, 9.99824 
1.9851188e+3, 2.038114e+2, -947173.94, -1136952.8, -41697.895, -0.20357685, -0.31271234, -938416.3, 4205.486, 0.0, 10.000696, 9.998218 
1.9851416e+3, 2.1380982e+2, -860008.06, -1013130.56, -44467.793, -0.15555504, -0.34759352, -848031.1, -3394.2156, 0.0, 10.00052, 9.998459 
1.9851647e+3, 2.238087e+2, -718539.5, -760608.94, -14166.445, -0.081911325, -0.35272917, -714213.9, 32432.697, 0.0, 10.000202, 9.999696 
1.9851883e+3, 2.3380803e+2, -677672.3, -647629.75, -39739.188, 0.020019222, -0.45889774, -620167.6, 28482.516, 0.0, 9.999647, 10.000053 
1.9852109e+3, 2.4380793e+2, -670221.06, -793947.4, -61990.824, 0.06692847, -0.3852142, -644506.2, -93853.82, 0.0, 9.999895, 9.99826 
1.9852318e+3, 2.538086e+2, -321831.22, -577448.94, -96000.71, -0.022038853, -0.17732468, -289792.53, 162860.98, 0.0, 10.00164, 9.998224 
1.9852538e+3, 2.638081e+2, -103002.86, -350679.34, -43512.69, -0.035254743, -0.06503976, -95580.805, 259080.3, 0.00000004684117, 10.002143, 9.998874 
1.9852775e+3, 2.738059e+2, -186690.94, -298276.8, -50916.906, 0.053991284, -0.24556969, -166949.89, 89728.12, 0.000003631824, 10.000746, 9.9992075 
1.985301e+3, 2.8380385e+2, -213983.44, -400074.97, -34284.734, 0.13776763, -0.30456653, -207867.92, -49172.484, 0.000030883682, 10.000453, 9.99801 
1.9853234e+3, 2.9380205e+2, 90688.58, -182584.56, -9192.773, 0.17970367, -0.3391203, 90997.48, 151712.47, 0.00012822116, 10.001821, 9.998148 
1.9853449e+3, 3.038014e+2, 232078.27, -116953.77, 149104.48, -0.07592051, -0.1984023, 287100.9, 287100.9, 0.0003141248, 10.002513, 9.997967 
1.9853699e+3, 3.137996e+2, 360766.28, 256180.11, 31374.063, -0.06639207, -0.26416844, 369455.97, 369455.97, 0.00054966006, 10.002009, 10.000752 
1.9949357e+3, 1.23793595e+2, -1818324.6, -1738667.8, -50253.13, -0.29615352, -0.22797237, -1714373.9, 12428.911, 0.26535824, 9.99901, 10.000328 
1.9949603e+3, 1.33793e+2, -1642253.5, -1750013.3, -46504.766, -0.0552097, -0.22439054, -1624959.5, 3846.802, 0.18805622, 10.000327, 9.998889 
1.9949861e+3, 1.4379212e+2, -1606447.6, -1626621.6, -3643.719, 0.22572307, -0.21580052, -1605809.6, -74995.586, 0.11045076, 9.999631, 9.9994135 
1.9950068e+3, 1.5379292e+2, -1542317.5, -1462091.0, 2003.9897, -0.06101951, -0.17422765, -1462041.0, -29233.027, 0.04926506, 9.999083, 10.000112 
1.9950283e+3, 1.6379279e+2, -1479472.5, -1450084.0, -46024.35, -0.25645444, -0.16468127, -1416465.1, -81655.88, 0.014456319, 9.999108, 9.999521 
1.9950525e+3, 1.73792e+2, -1294099.8, -1290125.1, -41544.71, -0.13057132, -0.24080594, -1250520.1, -13705.821, 0.0019582892, 9.999663, 9.999655 
1.9950762e+3, 1.8379125e+2, -1207817.8, -1339406.4, -66830.16, -0.061748195, -0.21880047, -1179829.5, -41008.742, 0.000032105352, 10.000131, 9.998451 
1.9950983e+3, 1.9379026e+2, -1049852.4, -1192692.5, -41827.836, -0.122915804, -0.21203953, -1038505.4, 2326.5466, 0.0, 10.000487, 9.99859 
1.9951205e+3, 2.0378888e+2, -945683.0, -1091965.4, -65228.58, -0.14159177, -0.2023249, -920822.1, 22023.16, 0.0, 10.000507, 9.998619 
1.9951434e+3, 2.1378689e+2, -859884.4, -967258.8, -36930.535, -0.051082514, -0.32172132, -848408.9, -3546.2207, 0.0, 10.000319, 9.99887 
1.995166e+3, 2.2378577e+2, -780824.06, -819774.0, -45889.5, -0.0024286858, -0.3399651, -750448.06, -3576.864, 0.0, 9.999898, 9.999436 
1.9951878e+3, 2.3378596e+2, -731049.5, -712290.5, -42332.496, 0.0012246979, -0.32931623, -678310.9, -29444.428, 0.0, 9.999442, 9.999709 
1.9952105e+3, 2.4378544e+2, -745164.9, -872747.4, -22760.285, -0.0063545783, -0.2610185, -741226.1, -190353.64, 0.0, 9.999561, 9.997882 
1.9952339e+3, 2.5378385e+2, -386037.47, -647686.8, -10682.78, -0.0015607264, -0.24810494, -385602.03, 67293.914, 0.0, 10.001368, 9.997872 
1.9952568e+3, 2.637826e+2, -147851.7, -351803.9, -97633.86, 0.013682539, -0.20235053, -108648.86, 246262.44, 0.000000042002604, 10.001754, 9.999051 
1.9952789e+3, 2.7378216e+2, -205937.73, -273601.25, -85463.336, 0.084492184, -0.23261048, -147853.39, 109057.59, 0.0000035134383, 10.000482, 9.999498 
1.9953017e+3, 2.8378162e+2, -213719.94, -324301.78, -17762.313, 0.12770303, -0.189931, -210936.89, -52024.56, 0.00002820436, 10.000126, 9.998687 
1.9953251e+3, 2.937802e+2, 91604.67, -96210.305, 61665.77, 0.13493386, -0.27426976, 110041.67, 170964.8, 0.00011358975, 10.001449, 9.99892 
1.9953471e+3, 3.037768e+2, 183921.17, -53040.42, 109474.14, -0.12922782, -0.48926923, 226754.63, 226754.63, 0.00027761882, 10.001847, 9.998708 
1.9953728e+3, 3.1377807e+2, 171107.39, 53144.563, 114447.53, -0.053152256, -0.33196038, 240877.86, 240877.86, 0.0004902181, 10.001247, 9.999692 
2.0049363e+3, 1.2377043e+2, -1783014.1, -1699228.4, 21402.535, -0.12015971, -0.0025906705, -1694077.8, 32952.574, 0.27641812, 9.999129, 10.00057 
2.0049603e+3, 1.3376743e+2, -1682019.4, -1674425.0, -106597.37, -0.049334444, -0.3385661, -1571557.3, 57499.1, 0.1968332, 9.999668, 9.999761 
2.0049848e+3, 1.437692e+2, -1704046.6, -1690102.8, -53237.63, 0.16762578, -0.1117883, -1643382.5, -112344.46, 0.11636926, 9.999029, 9.999264 
2.0050065e+3, 1.5376869e+2, -1536629.1, -1505648.8, -58994.125, -0.003446055, -0.16884127, -1460145.1, -27099.014, 0.05238356, 9.999292, 9.999721 
2.0050283e+3, 1.6376819e+2, -1414142.1, -1426707.8, -40979.523, -0.17194682, -0.17243814, -1378966.6, -43914.67, 0.015589432, 9.999556, 9.999478 
2.0050524e+3, 1.7376769e+2, -1198458.3, -1244874.8, -43492.656, -0.11741309, -0.22915895, -1172369.1, 64685.367, 0.0021699998, 10.000277, 9.999688 
2.0050764e+3, 1.8376707e+2, -1165921.4, -1258355.6, -45277.586, -0.04072391, -0.21864627, -1147438.5, -8379.487, 0.00003871999, 10.000187, 9.998969 
2.0050988e+3, 1.9376647e+2, -1145131.9, -1176996.3, -39852.78, -0.07049255, -0.22250326, -1118144.6, -77079.67, 0.0, 9.999596, 9.999124 
2.0051213e+3, 2.037657e+2, -1063164.1, -1093810.3, -11356.126, -0.055444594, -0.20374322, -1059414.8, -116343.11, 0.0, 9.999485, 9.999095 
2.0051445e+3, 2.1376444e+2, -811794.06, -893693.56, -5118.9624, 0.03911325, -0.2931266, -811475.4, 33605.69, 0.0, 10.000436, 9.999325 
2.0051673e+3, 2.2376348e+2, -657580.4, -836669.94, -17957.902, 0.08867538, -0.28886813, -655797.44, 91291.336, 0.0, 10.001097, 9.9987335 
2.0051885e+3, 2.3376295e+2, -493577.88, -689530.75, -94207.53, 0.016231546, -0.2598612, -455633.6, 193459.97, 0.0, 10.00151, 9.998854 
2.005211e+3, 2.4376182e+2, -450333.13, -720545.2, -34588.895, 0.007286767, -0.21126124, -445975.78, 105130.516, 0.0, 10.001507, 9.998001 
2.0052356e+3, 2.537596e+2, -456459.53, -652498.56, -9732.305, 0.07605933, -0.28347495, -455977.56, -2844.824, 0.0, 10.000745, 9.998138 
2.0052588e+3, 2.6375818e+2, -323976.22, -441635.66, -68472.44, 0.10846777, -0.2698852, -292531.88, 62616.37, 0.000000029896977, 10.000543, 9.999027 
2.0052797e+3, 2.737579e+2, -81200.14, -230722.94, -114566.984, 0.077939235, -0.27379295, -19159.271, 237988.4, 0.0000031274246, 10.0013685, 9.99939 
2.0053023e+3, 2.8375766e+2, 45884.215, -182608.8, -13299.692, 0.11577137, -0.20300578, 46655.734, 205801.95, 0.000025154262, 10.001826, 9.998848 
2.0053269e+3, 2.937567e+2, 131616.06, -64698.44, -34623.55, 0.18616112, -0.25030828, 137543.56, 198695.06, 0.00009776422, 10.001666, 9.999033 
2.0053498e+3, 3.037527e+2, 192920.61, -16882.258, -4990.0894, -0.017094553, -0.54444313, 193039.22, 193039.22, 0.00024035286, 10.001743, 9.999029 
2.0053752e+3, 3.137539e+2, 197550.67, -69273.664, -82411.086, 0.052041054, -0.39658272, 220951.75, 220951.75, 0.000433908, 10.001961, 9.9985485 
2.014937e+3, 1.2374185e+2, -1758374.9, -1664245.5, 134458.33, -0.08165992, -0.26362735, -1568852.8, 158454.94, 0.28771394, 9.999268, 10.00095 
2.014962e+3, 1.3374303e+2, -1623156.6, -1576270.0, -106639.72, 0.10508279, -0.2849709, -1490527.1, 138766.44, 0.20582092, 9.999761, 10.000499 
2.0149793e+3, 1.4374341e+2, -1694703.1, -1711400.5, -78540.06, -0.3384545, -0.22483099, -1624069.3, -92779.195, 0.12247417, 9.999196, 9.999042 
2.0150058e+3, 1.5374282e+2, -1553252.5, -1541810.3, -42433.934, -0.025237415, -0.26315284, -1504713.5, -71413.92, 0.055639356, 9.999303, 9.999466 
2.0150304e+3, 1.637425e+2, -1378781.6, -1376272.3, -32914.273, 0.030340586, -0.2480652, -1344588.8, -9284.391, 0.016791714, 9.999655, 9.999782 
2.0150536e+3, 1.7374313e+2, -1177634.3, -1192283.9, -5885.695, -0.06957597, -0.21980307, -1175562.6, 61733.156, 0.0023981123, 10.000245, 10.000065 
2.0150763e+3, 1.8374321e+2, -1107009.0, -1155141.9, -86382.57, -0.11783302, -0.1963183, -1041403.0, 97889.83, 0.000045425786, 10.000254, 9.999653 
2.0150979e+3, 1.9374217e+2, -1108014.0, -1084229.1, -54639.22, -0.13356632, -0.31085902, -1040203.06, 1097.408, 0.0, 9.999523, 9.999798 
2.0151205e+3, 2.0374186e+2, -1049700.8, -1028958.44, 547.2064, -0.119653545, -0.30650198, -1028944.0, -85642.95, 0.0, 9.999321, 9.999622 
2.0151447e+3, 2.1374248e+2, -814079.6, -843064.0, 43754.62, -0.011332697, -0.25801796, -782479.6, 62813.06, 0.0, 10.000196, 9.999788 
2.0151678e+3, 2.2374171e+2, -795971.1, -1048960.1, -15929.054, 0.016122442, -0.20126376, -794972.1, -47671.633, 0.0, 10.000762, 9.997442 
2.0151894e+3, 2.3373884e+2, -629967.94, -926534.56, -61833.62, -0.060604203, -0.25775185, -617592.1, 31741.23, 0.0, 10.001293, 9.997338 
2.015212e+3, 2.4373671e+2, -467292.44, -671130.2, -68409.945, -0.06824208, -0.24771217, -446462.06, 104894.77, 0.0, 10.001153, 9.9985075 
2.0152365e+3, 2.5373563e+2, -435271.3, -551109.56, -23331.62, 0.066368625, -0.28321287, -430748.56, 22617.54, 0.0, 10.000506, 9.998948 
2.0152591e+3, 2.6373443e+2, -387346.06, -498317.84, -61024.2, 0.061205234, -0.28154826, -360353.84, -4977.3916, 0.0000000091701935, 10.000225, 9.998791 
2.0152794e+3, 2.7373317e+2, -150371.38, -300529.13, -61705.43, -0.10777839, -0.35422602, -128267.96, 129119.63, 0.0000023642951, 10.001062, 9.999052 
2.0153022e+3, 2.8373232e+2, -60018.734, -300590.88, -36797.42, -0.10814077, -0.29799616, -54516.137, 104877.52, 0.000021595964, 10.001397, 9.9982395 
2.0153286e+3, 2.937314e+2, 46359.656, -183889.45, -16162.526, 0.14514086, -0.28103602, 47488.66, 108889.125, 0.000083873885, 10.001394, 9.998354 
2.0153521e+3, 3.0372852e+2, 81533.81, -119545.336, -20965.648, -0.009880341, -0.40576276, 83696.55, 83696.55, 0.00020823602, 10.001228, 9.998549 
2.015375e+3, 3.137294e+2, -25349.271, -268210.94, 41616.97, -0.23237625, -0.2670796, -18415.705, -18415.705, 0.00038362973, 10.000916, 9.997642 
2.0249361e+3, 1.23716936e+2, -1871937.0, -1642378.3, 216144.1, -0.016538367, -0.30874544, -1512428.0, 215120.77, 0.29983783, 9.998108, 10.001808 
2.0249602e+3, 1.3371935e+2, -1923569.5, -1723266.4, -62181.227, 0.07683396, -0.22524704, -1705533.1, -76008.914, 0.21537028, 9.997704, 10.000311 
2.0249797e+3, 1.4371827e+2, -1627348.1, -1668614.6, -18144.344, -0.21731527, -0.30471534, -1620505.0, -88969.25, 0.12892798, 9.999613, 9.999131 
2.0250055e+3, 1.5371841e+2, -1503099.4, -1502936.5, -2303.3948, 0.0015865156, -0.283494, -1500713.1, -67175.48, 0.05909158, 9.999601, 9.999579 
2.0250298e+3, 1.6371831e+2, -1463602.1, -1398354.4, 51890.08, 0.05169804, -0.25739178, -1369684.8, -34144.965, 0.018083457, 9.999032, 9.999908 
2.0250535e+3, 1.7371902e+2, -1340512.6, -1254768.5, 35302.83, -0.039745983, -0.23500524, -1242104.1, -4573.2305, 0.0026487417, 9.999105, 10.000162 
2.0250764e+3, 1.8371925e+2, -1227454.9, -1189531.6, -52519.613, -0.07642896, -0.21004412, -1152655.6, -13129.554, 0.000052423693, 9.999313, 9.999867 
2.0250979e+3, 1.9371814e+2, -1007691.94, -1018685.44, -84135.43, -0.1098192, -0.35475084, -928873.9, 112659.49, 0.0, 10.000113, 9.999968 
2.0251206e+3, 2.0371777e+2, -874662.06, -970104.75, -23492.037, -0.08406941, -0.35877904, -869193.2, 74341.69, 0.0, 10.000637, 9.999383 
2.0251454e+3, 2.137184e+2, -718715.8, -834236.44, -68683.375, 0.006921256, -0.27634168, -686733.94, 158794.64, 0.0, 10.001007, 9.999451 
2.025169e+3, 2.237176e+2, -734238.6, -1007606.06, -100250.54, 0.03881176, -0.21011008, -701415.4, 46122.473, 0.0, 10.001133, 9.997541 
2.0251906e+3, 2.3371468e+2, -654944.5, -919098.94, -55616.848, -0.05262618, -0.28684038, -643712.2, 5858.311, 0.0, 10.001039, 9.997502 
2.0252132e+3, 2.4371275e+2, -472180.66, -654627.44, 10380.858, -0.04537492, -0.2750411, -471591.9, 79999.12, 0.0, 10.001053, 9.998658 
2.0252374e+3, 2.5371212e+2, -296309.0, -473581.13, -23323.143, 0.08361719, -0.2773733, -293291.8, 160302.98, 0.0, 10.00142, 9.999038 
2.0252605e+3, 2.6371098e+2, -219279.38, -448407.75, -48370.086, 0.11547242, -0.2646573, -209486.75, 146117.86, 0.000000001074916, 10.001521, 9.998507 
2.0252812e+3, 2.7370918e+2, -162026.92, -341399.03, -89508.12, -0.031629924, -0.3487379, -125003.49, 132618.84, 0.0000018159459, 10.001162, 9.998711 
2.025304e+3, 2.837079e+2, -90504.51, -358016.84, -14856.5625, -0.049520794, -0.30253634, -89681.97, 69952.625, 0.000018189116, 10.001341, 9.997882 
2.0253298e+3, 2.9370672e+2, 152247.94, -156429.02, -15862.19, 0.093341455, -0.27199718, 153060.92, 214705.9, 0.000072171526, 10.002235, 9.998125 
2.0253547e+3, 3.0370426e+2, 261802.1, -78228.68, 12551.628, 0.08052485, -0.33082592, 262264.78, 262264.78, 0.00017993047, 10.002587, 9.9982195 
2.025376e+3, 3.1370503e+2, 79128.21, -160628.78, -47788.03, -0.21618839, -0.15208414, 88302.22, 88302.22, 0.00033599298, 10.001295, 9.998233 
2.0349354e+3, 1.2369404e+2, -1752889.0, -1525749.5, -103267.88, -0.016661404, -0.33021516, -1485819.0, 241950.77, 0.3135409, 9.998399, 10.002695 
2.0349544e+3, 1.3369629e+2, -1969750.5, -1851788.8, 27713.883, -0.31037244, -0.16556735, -1845602.1, -215852.95, 0.22593072, 9.997833, 9.9993725 
2.0349854e+3, 1.4369375e+2, -1558496.5, -1590141.1, -1147.9565, 0.32634294, -0.3574932, -1558454.9, -26678.527, 0.13594478, 9.999882, 9.99954 
2.035005e+3, 1.5369548e+2, -1454733.9, -1423953.4, -3493.2842, -0.054423224, -0.23183805, -1423561.9, 10198.245, 0.06282382, 9.999687, 10.000078 
2.035026e+3, 1.6369553e+2, -1457166.1, -1411308.1, 23005.717, -0.29371917, -0.21406947, -1401756.4, -65996.875, 0.019494196, 9.999145, 9.999763 
2.0350516e+3, 1.7369524e+2, -1344181.9, -1273134.1, 50089.9, -0.16541871, -0.27511466, -1247250.0, -9489.298, 0.0029308582, 9.9991455, 10.000013 
2.035076e+3, 1.8369517e+2, -1238991.3, -1221971.1, -40046.836, -0.09609968, -0.26716927, -1189540.1, -49780.87, 0.00006041413, 9.999351, 9.999629 
2.0350981e+3, 1.9369441e+2, -1042129.94, -1063656.9, -43479.52, -0.13150957, -0.34699675, -1008101.44, 33662.24, 0.0, 10.000004, 9.999711 
2.035121e+3, 2.0369343e+2, -973720.9, -1128019.4, -25690.129, -0.136232, -0.35332724, -969556.0, -25783.063, 0.0, 10.000439, 9.998393 
2.035146e+3, 2.1369223e+2, -831042.44, -1007816.4, -40173.883, -0.037362296, -0.34638745, -822340.8, 23447.791, 0.0, 10.000755, 9.99838 
2.0351698e+3, 2.2369123e+2, -690871.2, -826315.75, -111920.94, -0.021837292, -0.30300215, -627778.3, 120021.78, 0.0, 10.000756, 9.99896 
2.0351914e+3, 2.3369046e+2, -573772.4, -684798.44, -40208.66, -0.099429265, -0.339199, -560740.3, 89065.14, 0.0, 10.000769, 9.999235 
2.0352139e+3, 2.4368973e+2, -537070.94, -716179.75, 5101.795, -0.11702328, -0.29308793, -536925.7, 14885.777, 0.0, 10.000738, 9.998388 
2.0352383e+3, 2.5368893e+2, -369313.47, -571523.3, 4058.1611, -0.0051231827, -0.25982228, -369232.06, 84587.67, 0.0, 10.0011835, 9.998484 
2.0352618e+3, 2.636876e+2, -314718.13, -551855.0, -73212.945, 0.07340353, -0.20872888, -293935.9, 61897.727, 0.000000023664393, 10.001129, 9.997976 
2.0352843e+3, 2.7368543e+2, -232755.8, -432898.3, -83087.69, 0.12949595, -0.28937533, -202758.53, 55098.19, 0.0000019634658, 10.000919, 9.998198 
2.0353068e+3, 2.8368375e+2, -162231.8, -406298.88, -6377.0005, 0.069974214, -0.24980128, -162065.28, -2190.8782, 0.000016146072, 10.00093, 9.997739 
2.0353301e+3, 2.9368258e+2, 99659.72, -177884.63, 46600.37, -0.13303323, -0.21660678, 107275.086, 169161.2, 0.00006227005, 10.001849, 9.998169 
2.0353563e+3, 3.0367967e+2, 122753.8, -192694.1, -42001.74, -0.04617608, -0.2952427, 128250.52, 128250.52, 0.00015437642, 10.001878, 9.997752 
2.0353785e+3, 3.1367877e+2, 109147.69, 100756.04, -66390.555, -0.15573667, -0.2610026, 171474.88, 171474.88, 0.00029131802, 10.0005045, 10.000378 
2.0449355e+3, 1.2367056e+2, -1729859.3, -1432298.9, -116128.44, 0.21135989, -0.39087325, -1392342.8, 335658.06, 0.3294151, 9.99803, 10.00389 
2.0449518e+3, 1.3367222e+2, -1914238.8, -1954267.3, 24854.91, -0.39076844, -0.15085189, -1902341.6, -272355.6, 0.23787552, 9.998815, 9.9982 
2.0449859e+3, 1.4366896e+2, -1669219.4, -1624891.4, -15098.339, 0.43923366, -0.35406238, -1620237.5, -88217.234, 0.14372098, 9.999044, 9.999706 
2.0450047e+3, 1.5367137e+2, -1501334.9, -1412222.8, -99533.34, -0.019067643, -0.19276984, -1347727.8, 86268.97, 0.06692591, 9.999219, 10.000413 
2.0450252e+3, 1.6367166e+2, -1446729.0, -1395053.1, -41047.27, -0.26195064, -0.17580253, -1372388.6, -36395.39, 0.021061258, 9.9991455, 9.999887 
2.0450509e+3, 1.7367089e+2, -1292834.0, -1242081.9, -21975.969, -0.15589266, -0.29419008, -1233888.8, 4110.185, 0.003256253, 9.999457, 10.000087 
2.0450757e+3, 1.8367064e+2, -1216047.1, -1222176.3, -63878.082, -0.06491107, -0.298128, -1155160.1, -15160.861, 0.00007088071, 9.999571, 9.999518 
2.0450987e+3, 1.9367027e+2, -1073717.4, -1089430.1, -86069.97, -0.0628337, -0.32946768, -995146.0, 46855.098, 0.0, 9.999855, 9.999596 
2.045122e+3, 2.0366941e+2, -1041707.5, -1155880.9, -10566.741, -0.05284986, -0.31538406, -1040737.8, -96728.1, 0.0, 9.999932, 9.998459 
2.0451464e+3, 2.1366812e+2, -932614.44, -1036768.1, 29906.693, -0.037555162, -0.3326475, -924637.94, -78611.35, 0.0, 9.999977, 9.998555 
2.0451702e+3, 2.2366728e+2, -723292.25, -815491.4, 10743.859, -0.028418217, -0.29541534, -722056.8, 25979.313, 0.0, 10.000403, 9.999218 
2.045193e+3, 2.3366678e+2, -436092.63, -589081.5, -48517.652, -0.040021937, -0.3305641, -422003.63, 228034.38, 0.0, 10.001573, 9.999515 
2.0452161e+3, 2.4366608e+2, -372778.1, -632374.2, -52986.047, -0.01799882, -0.29771516, -362379.66, 189663.17, 0.0, 10.001838, 9.998442 
2.0452394e+3, 2.5366512e+2, -442608.4, -600365.9, -51787.17, 0.029266348, -0.2794348, -427127.38, 26924.605, 0.0, 10.000655, 9.998537 
2.0452628e+3, 2.6366374e+2, -434666.66, -620621.6, -29987.432, 0.09994018, -0.23624845, -429950.44, -73884.086, 0.00000011200642, 10.000325, 9.997894 
2.045286e+3, 2.7366155e+2, -151216.42, -411023.56, -46310.94, 0.1945079, -0.30071482, -143208.28, 114881.41, 0.000002326167, 10.001537, 9.998053 
2.045309e+3, 2.8365976e+2, 15964.754, -317747.2, 71863.33, 0.1424426, -0.26675752, 30782.262, 190891.3, 0.000014696717, 10.002122, 9.997777 
2.0453316e+3, 2.9365847e+2, 58586.27, -185944.02, 78536.64, -0.13433914, -0.24141881, 81637.23, 143759.72, 0.00005375532, 10.001529, 9.998263 
2.0453589e+3, 3.0365673e+2, 69529.055, -251494.06, 47049.926, 0.058388267, -0.20290524, 76282.73, 76282.73, 0.00013254509, 10.001637, 9.997459 
2.0453815e+3, 3.1365466e+2, 411593.78, 195719.13, -192905.77, -0.01117144, -0.22678466, 524706.44, 524706.44, 0.00025431596, 10.002732, 9.999973 
2.0549329e+3, 1.2364868e+2, -1611892.8, -1276023.5, 22826.447, 0.024060536, -0.23918137, -1274479.3, 453741.8, 0.3476065, 9.998389, 10.005433 
2.0549515e+3, 1.3364735e+2, -1975101.1, -2107366.5, 56448.82, -0.36014324, -0.15186737, -1954285.5, -324052.7, 0.2513395, 9.9989195, 9.997104 
2.0549802e+3, 1.4364378e+2, -1653045.0, -1629707.8, -23669.088, -0.11054572, -0.3230972, -1614987.3, -82718.24, 0.15236652, 9.99921, 9.999592 
2.055004e+3, 1.5364623e+2, -1481234.5, -1386971.5, -79454.234, -0.051270578, -0.16549012, -1341721.4, 92524.81, 0.071473114, 9.999282, 10.000564 
2.055027e+3, 1.636468e+2, -1405425.1, -1353774.4, -51329.188, -0.0490078, -0.13581102, -1322139.9, 14100.293, 0.022826005, 9.999322, 10.000094 
2.0550507e+3, 1.7364593e+2, -1271135.9, -1205850.0, -2103.4058, -0.14917578, -0.28749776, -1205782.3, 32463.328, 0.0036400491, 9.999486, 10.000327 
2.0550747e+3, 1.8364553e+2, -1210577.6, -1230150.8, -71298.875, -0.17382196, -0.31358513, -1148396.8, -8149.274, 0.00008593674, 9.9996395, 9.999438 
2.0550989e+3, 1.9364545e+2, -1081057.5, -1094150.5, -65981.37, -0.047879584, -0.314597, -1021298.6, 20949.398, 0.0, 9.999797, 9.999598 
2.0551226e+3, 2.036455e+2, -996986.7, -1016271.94, -23670.143, -0.021574438, -0.26060128, -981070.44, -36822.844, 0.0, 9.999731, 9.999513 
2.0551455e+3, 2.1364577e+2, -881764.5, -876140.94, 44064.836, -0.13883935, -0.24157014, -834798.25, 11447.128, 0.0, 9.999738, 9.999772 
2.0551695e+3, 2.2364531e+2, -834549.8, -961333.25, 31985.033, -0.16809368, -0.20026004, -826937.6, -78687.086, 0.0, 10.000044, 9.998388 
2.0551951e+3, 2.3364344e+2, -555938.1, -769547.75, 11905.793, -0.017973037, -0.26278773, -555276.6, 94992.98, 0.0, 10.001282, 9.998416 
2.055219e+3, 2.4364176e+2, -409619.38, -614235.25, -99423.7, 0.061543602, -0.28082478, -369266.9, 183018.13, 0.0, 10.001441, 9.998753 
2.0552404e+3, 2.5364047e+2, -446099.16, -542849.1, -78004.77, 0.044959694, -0.35039437, -402686.97, 51606.83, 0.0, 10.000388, 9.999056 
2.0552626e+3, 2.636391e+2, -469093.9, -609164.44, -11797.48, 0.019196462, -0.3455982, -468107.22, -111802.14, 0.00000017468948, 9.999979, 9.998135 
2.0552862e+3, 2.7363738e+2, -178367.95, -410802.25, 18698.236, 0.024184456, -0.38211966, -176873.38, 81449.734, 0.0000023499456, 10.001287, 9.998178 
2.0553096e+3, 2.8363568e+2, -62476.125, -362223.5, 41924.41, -0.04196611, -0.3406945, -56722.76, 103618.4, 0.000012296112, 10.001638, 9.997693 
2.0553336e+3, 2.9363406e+2, -546.96625, -223836.23, 79250.984, -0.12474338, -0.35834408, 24721.67, 87079.69, 0.000044415407, 10.001167, 9.998172 
2.0553616e+3, 3.0363408e+2, -56231.688, -353594.9, 52365.76, 0.10952433, -0.12802376, -47279.563, -47279.563, 0.00011238728, 10.0009985, 9.997044 
2.0553838e+3, 3.136319e+2, 51105.285, -327294.7, -207648.25, -0.12772788, -0.12132776, 142822.42, 142822.42, 0.00022372513, 10.001816, 9.996799 
2.0649302e+3, 1.2362333e+2, -1817163.6, -1382851.6, 78232.234, 0.03149108, -0.2333456, -1369189.5, 359280.4, 0.36771804, 9.996685, 10.005223 
2.0649531e+3, 1.3362354e+2, -1737078.4, -1976375.1, 38244.97, -0.12703855, -0.016642861, -1731114.6, -100647.164, 0.26616043, 10.000448, 9.997251 
2.0649777e+3, 1.4361814e+2, -1599566.1, -1629033.4, -12309.718, -0.28039572, -0.37410945, -1595100.6, -62578.75, 0.1618756, 9.999658, 9.9993925 
2.0650037e+3, 1.5362062e+2, -1521520.1, -1406883.0, -95862.18, 0.023251876, -0.20773637, -1352510.1, 81987.72, 0.07651462, 9.998993, 10.00057 
2.0650281e+3, 1.6362187e+2, -1474661.4, -1381194.0, -15134.595, 0.13764969, -0.1164127, -1378804.4, -42319.074, 0.024829434, 9.9988575, 10.000106 
2.0650506e+3, 1.7362121e+2, -1279293.5, -1212308.0, -17006.293, -0.104439385, -0.24343798, -1208237.8, 30252.646, 0.0041003036, 9.99947, 10.000272 
2.065074e+3, 1.8362093e+2, -1204533.8, -1185561.5, -67001.945, -0.17923872, -0.268258, -1127377.5, 13114.316, 0.000108260756, 9.999516, 9.999788 
2.0650986e+3, 1.9362141e+2, -1108283.9, -1053622.5, -60385.645, -0.017281672, -0.25775436, -1014670.5, 27815.732, 0.0, 9.999384, 10.000067 
2.0651229e+3, 2.0362175e+2, -1019087.8, -1006039.44, 11717.57, 0.045141988, -0.20877886, -999152.2, -54669.984, 0.0, 9.999488, 9.999696 
2.0651458e+3, 2.1362174e+2, -796258.25, -824980.2, -28693.273, -0.104687855, -0.22836836, -778532.75, 67949.13, 0.0, 10.000289, 9.99986 
2.06517e+3, 2.2362126e+2, -741205.25, -892989.4, -25272.225, -0.13512573, -0.19862758, -737108.0, 11378.576, 0.0, 10.000577, 9.998604 
2.0651957e+3, 2.3361999e+2, -719389.1, -820580.2, 16025.852, 0.017363608, -0.22531053, -716911.75, -66411.75, 0.0, 10.000047, 9.998653 
2.0652202e+3, 2.4361862e+2, -589314.44, -691679.44, -28795.928, 0.1206836, -0.23009719, -581770.0, -29257.502, 0.0, 10.000165, 9.998835 
2.0652416e+3, 2.5361687e+2, -290013.34, -457211.1, -75586.71, 0.105188414, -0.3505158, -260908.52, 193617.03, 0.0, 10.001417, 9.999143 
2.065264e+3, 2.6361522e+2, -169365.8, -489472.75, 4654.2803, 0.06857124, -0.37308955, -169298.14, 187241.73, 0.00000012472299, 10.002123, 9.99794 
2.0652874e+3, 2.7361378e+2, -90922.055, -385333.8, -23663.115, -0.011879364, -0.3560973, -89032.28, 169523.48, 0.0000018192295, 10.001967, 9.998026 
2.065311e+3, 2.8361246e+2, -65714.805, -366361.2, -13784.241, -0.041295595, -0.268558, -65084.14, 95485.69, 0.000008845643, 10.001607, 9.997697 
2.0653357e+3, 2.9361078e+2, -65912.4, -262913.22, -35822.785, 0.0026110767, -0.28155297, -59600.586, 2985.633, 0.000033872344, 10.000753, 9.998107 
2.0653628e+3, 3.0360928e+2, 48690.066, -223513.95, 98033.43, 0.14001057, -0.23463431, 80320.91, 80320.91, 0.00009226976, 10.001289, 9.997844 
2.0653877e+3, 3.1360725e+2, 350482.28, -158052.7, -216961.0, 0.0034318143, -0.29349858, 430466.25, 430466.25, 0.0001939828, 10.003703, 9.9970875 
2.0749258e+3, 1.2359491e+2, -1957646.5, -1619591.3, 75552.055, -0.18501174, -0.38266766, -1603474.4, 125268.8, 0.38886976, 9.996971, 10.002594 
2.0749566e+3, 1.3360061e+2, -1647783.5, -1811982.5, 75807.3, 0.12653427, 0.23173706, -1618137.5, 12554.017, 0.28190908, 10.000566, 9.998333 
2.074978e+3, 1.4359201e+2, -1585988.3, -1639463.9, -86852.555, -0.27776295, -0.48165235, -1521851.0, 10927.471, 0.17213808, 9.99983, 9.999247 
2.0750034e+3, 1.5359446e+2, -1512374.5, -1399355.6, -105816.38, 0.05350211, -0.31569582, -1335905.0, 98847.586, 0.08207624, 9.999049, 10.000601 
2.0750271e+3, 1.6359667e+2, -1462797.9, -1393054.3, -12253.749, 0.11024461, -0.12706797, -1390964.0, -54233.227, 0.027111659, 9.999012, 9.99995 
2.0750499e+3, 1.7359667e+2, -1298331.8, -1254811.6, 13666.564, -0.15374549, -0.1599593, -1250875.9, -12142.453, 0.0046569863, 9.999492, 9.999963 
2.0750733e+3, 1.8359688e+2, -1145039.9, -1081079.3, -87518.01, -0.25640666, -0.14901462, -1019881.56, 120850.09, 0.00014131474, 9.999595, 10.000468 
2.0750977e+3, 1.9359802e+2, -1059742.0, -939090.9, -58087.773, -0.09909148, -0.15384214, -915670.6, 127046.484, 0.0000000002137382, 9.999319, 10.000887 
2.0751218e+3, 2.0359804e+2, -1092117.6, -1120985.1, 17068.082, -0.033846125, -0.15587923, -1084198.5, -139483.27, 0.0, 9.99932, 9.99899 
2.0751464e+3, 2.1359593e+2, -892361.56, -975934.7, 17431.281, -0.08182126, -0.2935501, -888871.56, -42134.81, 0.0, 10.000073, 9.998927 
2.0751712e+3, 2.2359507e+2, -719245.4, -760551.94, -47675.164, -0.106745265, -0.29910037, -687942.1, 60802.754, 0.0, 10.000215, 9.9996805 
2.0751953e+3, 2.3359631e+2, -663312.9, -634273.2, 10428.991, -0.06456407, -0.21470226, -630916.0, 19814.512, 0.0, 9.9997635, 10.000062 
2.0752193e+3, 2.4359635e+2, -658673.25, -744251.6, -6187.5947, -0.018773524, -0.15260075, -658228.1, -105499.7, 0.0, 9.999776, 9.998658 
2.0752428e+3, 2.53594e+2, -357859.78, -538974.3, -14455.828, 0.06459364, -0.28897578, -356713.25, 98037.2, 0.0, 10.001167, 9.998699 
2.0752664e+3, 2.6359186e+2, -273585.72, -606473.44, -15214.485, 0.050606914, -0.31120196, -272891.78, 83880.72, 0.000000021824269, 10.00171, 9.997331 
2.0752889e+3, 2.735903e+2, -175151.08, -486609.44, -12453.013, -0.074976996, -0.24926873, -174653.97, 84137.27, 0.00000084431264, 10.001664, 9.997474 
2.0753124e+3, 2.835894e+2, -140534.44, -410891.28, -64944.76, -0.08962313, -0.08884583, -125742.766, 35058.65, 0.000005133315, 10.001152, 9.997599 
2.0753375e+3, 2.9358816e+2, -124505.4, -323244.06, -44223.07, 0.07048989, -0.050498214, -115109.19, -52298.08, 0.000023723636, 10.000475, 9.997829 
2.075362e+3, 3.0358246e+2, 50832.844, -35229.703, 146326.47, -0.08987768, -0.47112596, 160324.11, 160324.11, 0.00007270888, 10.000567, 9.999451 
2.0753911e+3, 3.1358194e+2, 380310.88, 194680.56, -56547.37, -0.09033101, -0.6068449, 396179.94, 396179.94, 0.00016093491, 10.002559, 10.0000105 
2.0849228e+3, 1.2356826e+2, -1868847.9, -1639676.4, 59440.81, -0.21091954, -0.44353643, -1625176.5, 103826.555, 0.40993002, 9.99791, 10.001936 
2.0849548e+3, 1.3357402e+2, -1970055.1, -1860105.4, 131651.45, 0.060790762, 0.077761486, -1772411.6, -141461.1, 0.29801235, 9.997859, 9.999299 
2.08498e+3, 1.4356855e+2, -1645691.0, -1639074.9, -16035.062, -0.028275978, -0.3962536, -1626010.3, -93003.63, 0.18298064, 9.999326, 9.999469 
2.0850034e+3, 1.5356968e+2, -1315492.0, -1329427.1, -71204.63, 0.0868053, -0.34806693, -1250914.9, 184078.6, 0.088167645, 10.000577, 10.000373 
2.0850267e+3, 1.635714e+2, -1257792.1, -1320084.5, 14077.645, 0.09869903, -0.18428291, -1254758.4, 82218.3, 0.029713616, 10.00052, 9.999753 
2.0850496e+3, 1.7357162e+2, -1344029.9, -1295888.3, 12440.938, -0.10429004, -0.17931461, -1292863.3, -53885.305, 0.005333032, 9.999223, 9.999838 
2.085073e+3, 1.8357189e+2, -1298212.1, -1144370.6, -44303.16, -0.17542972, -0.15945746, -1132524.5, 8451.729, 0.00018960002, 9.998504, 10.000568 
2.0850971e+3, 1.9357297e+2, -1024121.9, -909555.44, -87994.05, -0.080067545, -0.17940718, -861841.9, 181120.6, 0.000000020895914, 9.999532, 10.000981 
2.0851216e+3, 2.0357308e+2, -966471.8, -1035858.9, 8938.999, -0.008206854, -0.18352687, -965338.75, -20379.139, 0.0, 10.000123, 9.9991665 
2.0851475e+3, 2.1357127e+2, -841262.6, -927618.25, 54278.098, -0.0029902763, -0.3090907, -815083.1, 31894.62, 0.0, 10.000346, 9.99911 
2.0851724e+3, 2.2357048e+2, -683487.94, -736090.5, 4935.4155, 0.0021113928, -0.32100004, -683028.9, 65955.73, 0.0, 10.000404, 9.999772 
2.0851956e+3, 2.3357141e+2, -582192.6, -587217.2, -63846.08, -0.027092928, -0.27476805, -520809.4, 130163.01, 0.0, 10.000256, 10.000163 
2.0852195e+3, 2.4357143e+2, -584462.25, -735269.1, -59579.13, 0.0002278783, -0.21162926, -563764.94, -10793.521, 0.0, 10.000398, 9.99842 
2.0852444e+3, 2.5356957e+2, -380221.78, -587423.25, -83948.01, 0.08958742, -0.26343492, -350479.4, 104512.94, 0.0, 10.001174, 9.998363 
2.0852683e+3, 2.6356784e+2, -258306.27, -577484.3, -59542.055, 0.09905352, -0.23084843, -247560.6, 109451.06, 0.0, 10.001719, 9.997527 
2.0852907e+3, 2.735664e+2, -136070.61, -440340.56, -39592.434, -0.040057812, -0.17974177, -131003.13, 128023.58, 0.000000115745564, 10.001812, 9.997719 
2.085315e+3, 2.8356478e+2, -28600.875, -390502.3, -38910.457, -0.006418456, -0.09467551, -24464.623, 136577.9, 0.0000020138657, 10.002035, 9.997322 
2.08534e+3, 2.9356214e+2, 123227.4, -231570.86, -88159.22, 0.21271095, -0.15895253, 143925.47, 206991.55, 0.000014504671, 10.00231, 9.997573 
2.085363e+3, 3.0355805e+2, 288265.9, 115533.086, 134900.34, -0.08505371, -0.4249376, 362078.3, 362078.3, 0.000053405533, 10.001975, 9.999842 
2.085393e+3, 3.1355846e+2, 66816.445, 5884.9883, -226250.86, 0.0033202788, -0.4814229, 264643.53, 264643.53, 0.000125829, 10.00043, 9.999796 
2.094924e+3, 1.235429e+2, -1727831.1, -1470731.1, -99631.94, 0.010470815, -0.47335863, -1436641.6, 292612.63, 0.42994058, 9.998055, 10.003919 
2.094948e+3, 1.3354357e+2, -1896324.8, -1726085.4, 192232.34, -0.45915276, -0.4967588, -1600970.4, 30276.418, 0.31401625, 9.997945, 10.000246 
2.0949827e+3, 1.435477e+2, -1580387.8, -1555846.3, 17728.107, 0.23170677, -0.10943856, -1546556.4, -13349.893, 0.19429262, 9.999535, 9.999947 
2.0950031e+3, 1.5354617e+2, -1338844.1, -1393829.8, -24471.805, -0.043704636, -0.29388806, -1329530.4, 105690.85, 0.094824284, 10.000653, 9.999855 
2.095026e+3, 1.6354594e+2, -1245796.9, -1336390.0, -46848.457, -0.09749797, -0.28007826, -1225927.8, 111296.1, 0.032688897, 10.000697, 9.999558 
2.0950493e+3, 1.7354609e+2, -1332135.4, -1280752.0, -29777.12, -0.0927531, -0.28443718, -1267115.0, -27891.451, 0.0061590113, 9.999262, 9.999925 
2.0950726e+3, 1.835461e+2, -1314995.4, -1205637.6, -35993.73, -0.13027227, -0.27902502, -1194854.1, -53629.895, 0.00026052183, 9.998612, 10.000096 
2.0950967e+3, 1.935464e+2, -1076701.1, -1006471.94, -39038.2, -0.10527577, -0.31626567, -989079.25, 54141.504, 0.00000016154512, 9.9994755, 10.000344 
2.0951216e+3, 2.0354691e+2, -936406.1, -928438.44, 5164.6553, -0.062420115, -0.2801211, -925899.6, 19315.166, 0.0, 9.999928, 9.999997 
2.095148e+3, 2.1354757e+2, -805087.3, -788931.75, 72475.56, 0.00030628467, -0.26645195, -724085.2, 123121.516, 0.0, 10.000082, 10.000183 
2.0951732e+3, 2.2354728e+2, -792989.7, -879143.94, -13871.288, 0.011534008, -0.25654516, -790811.44, -41603.598, 0.0, 10.000041, 9.998963 
2.0951961e+3, 2.3354532e+2, -699287.8, -768233.94, -53814.164, -0.02628836, -0.3913752, -669851.94, -18626.502, 0.0, 9.9999895, 9.999047 
2.09522e+3, 2.43544e+2, -668209.4, -819132.8, -48455.66, -0.030173002, -0.38331872, -653991.5, -100751.62, 0.0, 10.000011, 9.99803 
2.0952454e+3, 2.5354362e+2, -432858.34, -641930.7, -36598.477, 0.04028656, -0.26413935, -426636.84, 28613.533, 0.0, 10.000933, 9.998106 
2.0952696e+3, 2.6354313e+2, -257397.52, -483091.53, -68729.46, 0.016851969, -0.13324675, -238115.1, 119142.805, 0.0, 10.001336, 9.998354 
2.0952927e+3, 2.7354196e+2, -116664.44, -329242.28, -19118.916, -0.072601065, -0.15215035, -114958.59, 144305.83, 0.0, 10.001513, 9.998622 
2.0953174e+3, 2.8353867e+2, -147086.19, -507374.38, -50734.887, -0.000116352974, -0.2542761, -140078.16, 21215.002, 0.00000039293647, 10.001493, 9.996778 
2.095343e+3, 2.9353294e+2, 38635.56, -319933.22, -48248.867, 0.23953484, -0.56720924, 45014.43, 108363.31, 0.000007667558, 10.001933, 9.997149 
2.0953645e+3, 3.035344e+2, 100329.29, -71530.336, 64594.47, -0.18070093, -0.2286804, 121900.07, 121900.07, 0.000037309022, 10.001168, 9.998916 
2.0953943e+3, 3.135359e+2, -248757.33, -392690.06, -51280.543, 0.0027541409, -0.055170078, -232355.98, -232355.98, 0.0000961441, 9.999424, 9.997502 
2.1049254e+3, 1.23521216e+2, -1628975.3, -1448643.5, -68230.86, 0.29707822, -0.08017748, -1425737.1, 303729.88, 0.44859928, 9.99923, 10.003706 
2.1049462e+3, 1.3351879e+2, -1764340.9, -1643388.9, 169390.2, -0.45993698, -0.48411286, -1524002.8, 107486.02, 0.3298663, 9.998755, 10.000613 
2.1049827e+3, 1.4352259e+2, -1662933.5, -1589594.4, -5482.486, 0.32427067, -0.14365058, -1589186.8, -55735.793, 0.20615475, 9.998954, 9.999985 
2.1050031e+3, 1.5352198e+2, -1525202.3, -1450137.8, -57131.273, -0.0087756, -0.2629707, -1419313.3, 16143.825, 0.10215144, 9.99919, 10.000132 
2.105026e+3, 1.6352153e+2, -1456941.6, -1433691.1, -27535.457, -0.08552982, -0.28806615, -1415427.4, -77965.94, 0.036114734, 9.999228, 9.999571 
2.1050493e+3, 1.735212e+2, -1195189.1, -1212031.9, -43292.523, -0.056116402, -0.34458286, -1159506.5, 79957.74, 0.007176738, 10.000198, 9.99993 
2.1050727e+3, 1.8352115e+2, -1066650.3, -1136784.3, -13661.701, -0.058631573, -0.3294118, -1064083.0, 77382.21, 0.0003661867, 10.000533, 9.999645 
2.1050967e+3, 1.9352137e+2, -1001274.1, -1029012.4, -38537.39, -0.07388755, -0.3210558, -974186.2, 69278.945, 0.00000091193453, 10.000246, 9.999819 
2.1051216e+3, 2.0352186e+2, -937304.2, -935505.8, 3136.4534, -0.039555382, -0.25624686, -933142.2, 12318.742, 0.0, 9.999898, 9.999992 
2.105148e+3, 2.135226e+2, -851027.2, -813783.5, -28540.441, 0.01673752, -0.23810296, -798327.06, 49125.332, 0.0, 9.999717, 10.000228 
2.1051733e+3, 2.2352238e+2, -832532.56, -871610.4, -88562.516, 0.05099451, -0.230195, -761379.2, -11926.656, 0.0, 9.999685, 9.999168 
2.1051966e+3, 2.3352037e+2, -629413.4, -708903.0, -71471.53, 0.011507356, -0.38744834, -587379.06, 64090.402, 0.0, 10.000385, 9.999245 
2.1052207e+3, 2.4351895e+2, -526988.5, -762001.2, 27951.59, 0.019780079, -0.3943328, -523709.8, 29774.295, 0.0, 10.0009985, 9.997963 
2.1052463e+3, 2.535186e+2, -393122.22, -638365.8, 23083.82, 0.045350183, -0.2585959, -390968.38, 64526.066, 0.0, 10.00126, 9.997986 
2.1052709e+3, 2.63518e+2, -242305.89, -474573.9, -12061.784, 0.044483665, -0.13206805, -241681.19, 115821.63, 0.0, 10.001415, 9.9983835 
2.1052949e+3, 2.735163e+2, -127272.12, -333730.3, -65020.01, 0.0118080005, -0.20123129, -108501.836, 151011.98, 0.0, 10.001427, 9.998639 
2.1053198e+3, 2.8351304e+2, -101896.27, -436575.47, -54358.19, 0.10105918, -0.32048088, -93288.85, 68253.586, 0.00000006547354, 10.001633, 9.997169 
2.105345e+3, 2.9350796e+2, 86867.62, -257995.25, -38951.074, 0.24181053, -0.5973941, 91212.27, 154805.05, 0.000004738257, 10.002141, 9.997453 
2.1053669e+3, 3.035102e+2, 203630.1, -88727.445, 91304.23, -0.078372814, -0.16817114, 229801.81, 229801.81, 0.00002905632, 10.002138, 9.998333 
2.1053948e+3, 3.1351018e+2, 74336.33, -114899.02, -45788.203, 0.031054249, -0.080459304, 84833.19, 84833.19, 0.00007991688, 10.001091, 9.998606 
2.1149194e+3, 1.2349552e+2, -1836926.8, -1872581.4, 2295.8464, -0.3443971, -0.036635045, -1836779.6, -107063.22, 0.46656317, 9.999447, 9.999122 
2.1149482e+3, 1.3349962e+2, -1745327.6, -1633651.8, 164727.84, -0.1731686, 0.12438954, -1515555.4, 116121.47, 0.34608045, 9.99889, 10.000646 
2.1149795e+3, 1.4349306e+2, -1654035.4, -1637474.6, 6866.624, 0.041626375, -0.51961, -1634998.0, -101256.6, 0.21890919, 9.999228, 9.999529 
2.1150035e+3, 1.5349714e+2, -1427901.0, -1299203.3, -41824.46, 0.044382274, -0.25249135, -1286805.4, 148895.52, 0.110347085, 9.999346, 10.001199 
2.1150258e+3, 1.6349804e+2, -1411494.1, -1381592.4, -20723.107, -0.06492322, -0.22311002, -1370989.9, -33298.793, 0.040102176, 9.999401, 9.999847 
2.115049e+3, 1.7349687e+2, -1198078.3, -1228193.0, 2435.1826, -0.13290296, -0.3580519, -1197882.6, 41818.11, 0.008443992, 10.00023, 9.999807 
2.1150728e+3, 1.8349686e+2, -1091887.1, -1199849.4, -39466.258, -0.14887016, -0.31206107, -1078998.6, 62702.617, 0.00052604213, 10.000577, 9.999189 
2.1150967e+3, 1.9349769e+2, -1049543.1, -1104472.8, -42484.3, -0.1239286, -0.19416055, -1026419.1, 17278.137, 0.0000034897541, 10.000146, 9.999343 
2.115121e+3, 2.0349771e+2, -1027727.2, -1070129.5, -21792.926, -0.122987166, -0.11523605, -1018524.06, -72824.16, 0.0, 9.999673, 9.999176 
2.1151467e+3, 2.1349648e+2, -951771.25, -957471.44, -23317.064, -0.09315198, -0.2078284, -931130.75, -83417.63, 0.0, 9.999461, 9.999355 
2.1151721e+3, 2.2349592e+2, -818786.75, -760999.5, -80330.22, -0.07402318, -0.22592905, -704524.56, 45192.293, 0.0, 9.999324, 10.000104 
2.1151966e+3, 2.3349625e+2, -575359.1, -544644.9, -30201.254, -0.046567485, -0.2721969, -526120.5, 125586.88, 0.0, 10.000153, 10.000487 
2.1152215e+3, 2.4349588e+2, -571550.3, -763186.44, 24617.46, -0.04821056, -0.25567946, -568438.5, -14730.237, 0.0, 10.000611, 9.998134 
2.1152468e+3, 2.534942e+2, -430445.63, -658448.0, 45097.992, -0.03914197, -0.25818008, -421849.5, 33878.633, 0.0, 10.0010195, 9.997953 
2.1152723e+3, 2.634923e+2, -363419.13, -620525.75, -23520.01, -0.016333064, -0.22809146, -361285.22, -3536.3704, 0.0, 10.000975, 9.997585 
2.1152969e+3, 2.7348953e+2, -220131.86, -465872.03, -40923.42, 0.047097623, -0.32225966, -213496.03, 46277.965, 0.0, 10.001164, 9.997853 
2.1153213e+3, 2.8348726e+2, -113220.27, -348548.8, -53413.86, 0.039391726, -0.33570024, -101664.11, 60131.234, 0.00000005479561, 10.001155, 9.998004 
2.1153452e+3, 2.9348618e+2, 88886.82, -176481.39, 11796.253, 0.027182216, -0.33129278, 89410.164, 153217.88, 0.0000044706885, 10.001788, 9.99819 
2.1153694e+3, 3.0348495e+2, 11781.419, -239425.95, 27331.104, -0.09969713, -0.23738638, 14720.626, 14720.626, 0.000027145721, 10.001151, 9.997736 
2.115394e+3, 3.1348184e+2, 126689.336, 264563.22, 31343.627, -0.22766884, -0.45920685, 271354.25, 271354.25, 0.00007500438, 10.0000105, 10.0017 
2.1249221e+3, 1.234644e+2, -1831341.9, -1916859.6, -277736.16, -0.069928765, -0.70838404, -1593092.4, 136929.11, 0.48543465, 9.999979, 9.99897 
2.1249497e+3, 1.334748e+2, -1630706.0, -1597711.8, 81605.62, 0.05756151, 0.17459604, -1530952.4, 100967.164, 0.3637423, 9.999853, 10.0003605 
2.1249771e+3, 1.4346606e+2, -1835675.9, -1728056.0, 46175.99, -0.049846496, -0.6625944, -1710959.4, -176954.44, 0.23315269, 9.997981, 9.999511 
2.1250027e+3, 1.5347162e+2, -1428045.0, -1283426.8, -68351.02, 0.050908297, -0.26045692, -1256234.8, 179716.61, 0.1197026, 9.999237, 10.001412 
2.1250258e+3, 1.6347337e+2, -1335656.1, -1331736.1, -80584.24, 0.003695867, -0.16678178, -1253088.0, 84845.945, 0.044803485, 9.999848, 10.00001 
2.1250495e+3, 1.7347187e+2, -1270314.0, -1256238.5, -75191.27, -0.07899574, -0.3403828, -1187756.4, 52189.754, 0.01004214, 9.999696, 9.999884 
2.1250735e+3, 1.8347159e+2, -1234341.0, -1272942.9, -73250.0, -0.08237747, -0.32154912, -1177891.8, -35943.535, 0.0007722133, 9.999615, 9.999146 
2.1250972e+3, 1.9347212e+2, -1010159.75, -1099379.9, -73999.21, -0.092775226, -0.22456278, -968364.1, 75582.01, 0.000010944595, 10.000453, 9.999241 
2.1251217e+3, 2.0347193e+2, -891315.8, -1022218.3, -13092.816, -0.079105966, -0.15481763, -890019.1, 55931.52, 0.0, 10.0007105, 9.998987 
2.125147e+3, 2.134705e+2, -843663.0, -922736.1, -3403.52, -0.043672353, -0.24786068, -843516.75, 4449.029, 0.0, 10.000306, 9.99916 
2.1251723e+3, 2.2346985e+2, -714333.6, -739249.56, -7615.422, 0.0020476123, -0.25423113, -712190.4, 37780.984, 0.0, 10.000152, 9.999861 
2.125197e+3, 2.3347047e+2, -545519.56, -556621.56, -82979.27, -0.015660997, -0.24586767, -467905.8, 184055.56, 0.0, 10.000471, 10.000254 
2.1252222e+3, 2.4347028e+2, -534183.94, -692449.44, -69192.8, -0.01893813, -0.219368, -508199.47, 45761.387, 0.0, 10.000669, 9.998582 
2.125248e+3, 2.5346833e+2, -439213.0, -604148.94, -50979.066, -0.006992181, -0.29016498, -424728.22, 31251.297, 0.0, 10.000729, 9.9984665 
2.1252736e+3, 2.6346627e+2, -375009.75, -605770.2, -46820.797, 0.055827536, -0.30771184, -365871.78, -7871.9834, 0.0, 10.000821, 9.997751 
2.1252984e+3, 2.7346367e+2, -264235.84, -475850.88, -45043.11, 0.106268, -0.3923111, -255047.22, 4978.2837, 0.0, 10.000841, 9.997929 
2.1253225e+3, 2.8346232e+2, -128911.83, -336659.16, -1893.294, 0.08986265, -0.3305874, -128894.57, 33144.918, 0.000000117451826, 10.000917, 9.99823 
2.1253467e+3, 2.9346266e+2, -9231.198, -198710.97, -41065.156, 0.04821005, -0.1912478, -714.15704, 63324.035, 0.0000050467984, 10.000987, 9.998436 
2.1253723e+3, 3.0345964e+2, 39509.35, -263662.66, 4091.1975, 0.09331978, -0.2793395, 39564.55, 39564.55, 0.00002697455, 10.001381, 9.997533 
2.1253952e+3, 3.1345746e+2, 321157.94, 383800.94, -138559.4, -0.13946936, -0.3610561, 494534.88, 494534.88, 0.00007158717, 10.001096, 10.002086 
2.1349508e+3, 1.334451e+2, -1644151.8, -1650570.8, -18030.145, 0.12827243, -0.19761318, -1629047.6, 3161.465, 0.38411817, 9.999928, 9.999697 
2.1349743e+3, 1.434411e+2, -1791848.5, -1683994.1, 20418.803, -0.19560142, -0.5895508, -1680257.9, -146011.66, 0.24951555, 9.998174, 9.999715 
2.1350002e+3, 1.5344526e+2, -1446472.4, -1350521.6, -17620.207, -0.1420741, -0.2853071, -1347388.3, 88822.016, 0.13052814, 9.999362, 10.00083 
2.1350256e+3, 1.6344747e+2, -1300618.6, -1306420.4, -95853.41, -0.080264755, -0.11935134, -1207622.3, 130568.5, 0.050404422, 10.000058, 10.000091 
2.13505e+3, 1.7344613e+2, -1249190.9, -1218477.8, -74300.63, -0.03497729, -0.29644752, -1157963.4, 82237.4, 0.012084308, 9.999722, 10.000131 
2.135074e+3, 1.8344522e+2, -1203360.5, -1228299.9, -63027.137, -0.053481232, -0.37012216, -1151581.4, -9373.867, 0.001155736, 9.999696, 9.999414 
2.1350977e+3, 1.9344474e+2, -1003411.5, -1071869.9, -31309.977, -0.12108948, -0.3982096, -991251.56, 52959.848, 0.000030850606, 10.000389, 9.999464 
2.1351223e+3, 2.0344445e+2, -897795.06, -983126.06, -37736.93, -0.11793213, -0.36532605, -883500.7, 62712.86, 0.0, 10.000486, 9.999363 
2.1351485e+3, 2.1344441e+2, -851191.06, -878364.94, -7082.8296, 0.03828991, -0.36102986, -849455.75, -1242.2472, 0.0, 10.000052, 9.999586 
2.1351738e+3, 2.2344415e+2, -864890.94, -953738.56, -10718.279, 0.085370265, -0.30115223, -863616.2, -113399.305, 0.0, 9.999747, 9.998575 
2.1351975e+3, 2.334432e+2, -698995.5, -817558.3, -54443.625, -0.035691153, -0.29026917, -677788.44, -25558.543, 0.0, 10.000228, 9.998579 
2.1352224e+3, 2.4344218e+2, -556620.44, -652611.1, -77039.68, -0.10115823, -0.26595572, -513848.66, 40392.074, 0.0, 10.000302, 9.999028 
2.1352491e+3, 2.5344095e+2, -409918.66, -491709.34, -30684.443, 0.0000856175, -0.35872892, -399687.06, 56561.977, 0.0, 10.000504, 9.999343 
2.1352749e+3, 2.6343963e+2, -379610.38, -519597.97, -58258.777, 0.059505112, -0.38540843, -358537.06, -278.01056, 0.0, 10.000428, 9.998525 
2.1352988e+3, 2.734381e+2, -251022.58, -396520.72, -26173.781, 0.045101997, -0.43608245, -246457.39, 13816.45, 0.00000000014169585, 10.000615, 9.998584 
2.135323e+3, 2.8343728e+2, -238728.3, -441627.78, -18963.88, -0.0016665993, -0.3372755, -236971.06, -74687.97, 0.000000256191, 10.000426, 9.997725 
2.1353486e+3, 2.9343715e+2, -83645.02, -286251.3, -2190.771, 0.10640056, -0.19470818, -83621.336, -19334.47, 0.0000052967753, 10.000693, 9.997972 
2.1353745e+3, 3.0343318e+2, -87219.914, -301063.03, -9306.978, 0.12190036, -0.3705153, -86815.62, -86815.62, 0.000025200057, 10.0005045, 9.997655 
2.1353956e+3, 3.134326e+2, -9258.168, 27463.46, -117640.61, -0.30121872, -0.2958369, 128167.47, 128167.47, 0.00006359548, 9.999804, 10.000199 
2.1449499e+3, 1.3341779e+2, -1760650.9, -1628028.6, 36048.133, 0.14491913, -0.3180741, -1618863.8, 13613.315, 0.40760165, 9.998722, 10.00046 
2.1449734e+3, 1.4341702e+2, -1676615.8, -1640147.4, 21043.627, -0.12094886, -0.43318146, -1630537.0, -96056.3, 0.26811564, 9.999018, 9.999608 
2.1449995e+3, 1.5341915e+2, -1575323.0, -1455298.5, -15223.649, -0.120673984, -0.2879666, -1453397.6, -16931.428, 0.14296411, 9.99873, 10.000321 
2.1450256e+3, 1.6342087e+2, -1521317.4, -1407230.0, -79112.34, 0.002991935, -0.13903078, -1366740.4, -28287.256, 0.057087187, 9.998534, 10.000102 
2.14505e+3, 1.734205e+2, -1304410.4, -1224217.0, -94687.63, 0.040004797, -0.23845463, -1161486.1, 78968.82, 0.014719365, 9.99929, 10.000287 
2.1450742e+3, 1.8341991e+2, -1187884.8, -1194769.4, -53717.668, 0.023179926, -0.29735047, -1137499.3, 4959.1895, 0.0017550356, 9.999693, 9.999647 
2.1450986e+3, 1.9341907e+2, -1013694.94, -1044400.44, -42930.75, -0.04475966, -0.39002758, -983454.3, 61008.902, 0.00008036648, 10.000192, 9.999738 
2.1451235e+3, 2.0341857e+2, -917800.5, -989631.1, -55837.88, -0.023439046, -0.39589113, -887324.75, 59140.97, 0.000000018813253, 10.000337, 9.999395 
2.145149e+3, 2.1341842e+2, -822091.3, -868489.94, -86657.164, 0.09639908, -0.39801633, -755581.8, 92884.39, 0.0, 10.000254, 9.999569 
2.1451741e+3, 2.2341812e+2, -802631.9, -924736.75, -29526.207, 0.14155194, -0.34095085, -795866.94, -45396.707, 0.0, 10.000183, 9.998568 
2.1451983e+3, 2.3341732e+2, -679048.94, -806492.25, 14061.272, 0.0043818615, -0.30970174, -677515.94, -25033.51, 0.0, 10.000373, 9.998586 
2.1452232e+3, 2.4341644e+2, -525777.56, -624157.56, 66024.76, -0.053027395, -0.27580374, -492633.34, 61858.84, 0.0, 10.000447, 9.999161 
2.1452492e+3, 2.5341532e+2, -426098.3, -483192.28, 32930.73, 0.0062832246, -0.36890393, -411063.63, 45435.62, 0.0, 10.000317, 9.999494 
2.1452752e+3, 2.6341423e+2, -338181.06, -478938.56, 3230.9607, 0.06581432, -0.3901741, -338106.94, 20400.113, 0.0, 10.000592, 9.99874 
2.1453e+3, 2.7341336e+2, -94257.234, -291510.1, -33202.414, 0.06695246, -0.39695603, -88818.43, 171697.52, 0.00000000016893417, 10.001565, 9.998853 
2.1453246e+3, 2.8341275e+2, -3077.8699, -360374.1, -17646.914, 0.07357741, -0.2831224, -2208.4019, 160314.55, 0.0000002738674, 10.002135, 9.997474 
2.1453501e+3, 2.9341158e+2, 87238.61, -222342.36, -33244.566, 0.13398166, -0.2073378, 90768.36, 155304.95, 0.0000047479944, 10.001951, 9.997798 
2.1453758e+3, 3.0340776e+2, 188489.48, -133949.23, 17338.975, 0.14124382, -0.39802265, 189419.19, 189419.19, 0.000021563434, 10.002134, 9.998064 
2.1453983e+3, 3.1340787e+2, 217315.88, -22342.99, -227834.08, -0.08053046, -0.26185375, 354911.13, 354911.13, 0.000054127682, 10.001951, 9.998837 
2.1549463e+3, 1.3339251e+2, -1612183.9, -1459400.1, 39737.574, -0.20540935, -0.1961633, -1449682.8, 183043.69, 0.43279883, 9.998949, 10.00234 
2.1549734e+3, 1.4339358e+2, -1641130.6, -1666355.6, -35396.305, -0.15803519, -0.23138492, -1616166.9, -81456.18, 0.28823382, 9.999423, 9.999239 
2.1549995e+3, 1.533934e+2, -1596925.1, -1533296.4, -22192.94, -0.03921622, -0.2656403, -1526320.5, -89601.98, 0.15688464, 9.998862, 9.999722 
2.1550252e+3, 1.6339362e+2, -1503576.3, -1421003.5, -74527.26, 0.037554905, -0.22959922, -1377090.9, -38369.94, 0.06501248, 9.998757, 9.999896 
2.1550493e+3, 1.733948e+2, -1307572.4, -1232812.5, -63502.695, -0.004163879, -0.16088586, -1196504.9, 44205.164, 0.018139776, 9.999308, 10.000211 
2.1550737e+3, 1.8339543e+2, -1157818.1, -1153115.8, -53125.867, -0.044182356, -0.102690585, -1102289.1, 40413.598, 0.0026903055, 9.999774, 9.999899 
2.1550997e+3, 1.9339496e+2, -998911.75, -993776.1, -15499.262, -0.014453351, -0.19480908, -980633.4, 64069.09, 0.00019736934, 10.000112, 10.000121 
2.1551245e+3, 2.033941e+2, -968514.4, -1050785.6, -73124.625, -0.00084946275, -0.2461916, -925749.1, 20958.715, 0.0000007869328, 10.00014, 9.999073 
2.1551484e+3, 2.1339238e+2, -885012.9, -952279.2, -79525.49, -0.009156215, -0.3633963, -832300.8, 16424.2, 0.0, 10.000044, 9.999098 
2.1551728e+3, 2.233916e+2, -776499.06, -792173.0, -37946.62, -0.030880649, -0.37056968, -745588.6, 5143.652, 0.0, 9.999843, 9.999641 
2.1551983e+3, 2.333925e+2, -613124.75, -615532.56, 35369.79, -0.042616706, -0.31139338, -578938.4, 73783.83, 0.0, 10.000136, 10.00001 
2.1552236e+3, 2.4339266e+2, -602264.75, -685661.0, 45851.63, -0.072293095, -0.25131726, -581986.25, -27266.754, 0.0, 10.000042, 9.998927 
2.1552488e+3, 2.533911e+2, -499104.44, -583765.25, 39663.34, -0.11130352, -0.33239982, -483425.84, -26691.857, 0.0, 10.000094, 9.99891 
2.1552745e+3, 2.6338974e+2, -419633.5, -555401.8, 21140.031, -0.12444171, -0.3364404, -416418.0, -57670.742, 0.0, 10.000202, 9.9984 
2.1553013e+3, 2.7338892e+2, -150212.75, -348309.75, 20049.879, 0.00987643, -0.3121947, -148203.83, 112552.46, 0.0, 10.001299, 9.998594 
2.1553273e+3, 2.8338793e+2, -97516.266, -417704.63, -35154.97, 0.07326613, -0.21592197, -93701.88, 69065.11, 0.000000100631844, 10.001583, 9.997326 
2.1553509e+3, 2.9338562e+2, 8158.281, -284070.7, -6304.2227, -0.0329643, -0.24220654, 8294.218, 73084.28, 0.0000031808167, 10.001518, 9.99758 
2.1553747e+3, 3.033819e+2, 56591.977, -161513.48, -8201.433, -0.2403634, -0.42060408, 56899.94, 56899.94, 0.000016664693, 10.001144, 9.998317 
2.1554016e+3, 3.133842e+2, -55754.8, -347826.2, -60702.227, -0.022793056, -0.1232243, -43641.25, -43641.25, 0.000045618737, 10.000954, 9.997064 
2.164945e+3, 1.3336487e+2, -1725722.3, -1491817.0, 70972.58, -0.1582518, -0.26355508, -1471966.9, 161030.53, 0.45757636, 9.998118, 10.002534 
2.164972e+3, 1.4336649e+2, -1696424.9, -1628796.5, -131549.39, -0.17064154, -0.23513864, -1526784.9, 8192.072, 0.3088363, 9.998791, 9.999824 
2.1649988e+3, 1.5336676e+2, -1572198.8, -1488792.1, -88559.21, 0.019077307, -0.27654353, -1432608.3, 4370.97, 0.17204043, 9.9989, 9.999999 
2.1650247e+3, 1.6336693e+2, -1519503.0, -1457095.9, -58742.156, 0.14254072, -0.24505925, -1421784.0, -82802.625, 0.07433442, 9.9987335, 9.999674 
2.165049e+3, 1.7336772e+2, -1205202.4, -1206760.0, -58304.844, 0.0057618697, -0.20026879, -1147671.1, 93304.18, 0.022589553, 10.000072, 10.0000515 
2.1650738e+3, 1.8336844e+2, -1054430.6, -1058716.5, -66626.125, -0.038503617, -0.1366411, -989913.0, 153054.45, 0.00413868, 10.000332, 10.000273 
2.1650998e+3, 1.9336888e+2, -1105362.9, -1002080.75, -70304.23, 0.06864193, -0.17451113, -966489.44, 78468.92, 0.00045452762, 9.999215, 10.000504 
2.165125e+3, 2.0336848e+2, -1154199.6, -1119192.5, -56981.563, 0.12518851, -0.20778126, -1077086.8, -130127.51, 0.000007502901, 9.9987545, 9.999272 
2.1651484e+3, 2.1336663e+2, -876895.7, -928784.8, -39746.883, 0.007000008, -0.35415727, -855375.2, -6397.2666, 0.0, 10.000015, 9.99927 
2.1651728e+3, 2.2336587e+2, -638858.44, -718704.4, 7963.2065, -0.05409712, -0.37104103, -638072.0, 112912.91, 0.0, 10.000764, 9.999697 
2.1651988e+3, 2.3336695e+2, -523447.44, -574895.5, -47589.184, -0.035878286, -0.29564103, -495074.72, 157897.72, 0.0, 10.000752, 9.999997 
2.1652244e+3, 2.4336703e+2, -526836.06, -669738.56, -75943.62, -0.016547935, -0.23190986, -494015.03, 60955.496, 0.0, 10.000629, 9.998759 
2.1652493e+3, 2.5336513e+2, -471614.16, -578913.8, -86829.375, -0.07055871, -0.33081222, -423197.13, 33792.3, 0.0, 10.000347, 9.998806 
2.1652749e+3, 2.6336378e+2, -388894.16, -539670.4, -20642.758, -0.08389644, -0.33094034, -386119.03, -27116.201, 0.0, 10.000395, 9.998418 
2.1653022e+3, 2.73363e+2, -177214.83, -356781.13, -24362.602, 0.007917041, -0.30010274, -173968.16, 87042.35, 0.0, 10.001096, 9.9986315 
2.1653289e+3, 2.8336158e+2, -90970.3, -400567.66, -57282.457, 0.0930424, -0.25870362, -80711.68, 82313.49, 0.0000000029805467, 10.00154, 9.997476 
2.1653523e+3, 2.9335895e+2, -1597.781, -266716.13, -62576.633, -0.011053061, -0.31979883, 12430.117, 77482.98, 0.000001345268, 10.00137, 9.997761 
2.1653762e+3, 3.0335814e+2, 123376.63, -50428.293, 4336.543, -0.17540888, -0.25991985, 123484.766, 123484.766, 0.000010778314, 10.001248, 9.999031 
2.1654026e+3, 3.133582e+2, 10934.693, -321711.6, -93438.92, -0.02211276, -0.23577507, 35384.242, 35384.242, 0.00003608632, 10.001442, 9.997008 
2.1749476e+3, 1.3333674e+2, -1823917.9, -1626498.1, -53462.52, 0.18243587, -0.30182838, -1612949.9, 20321.133, 0.48078975, 9.9985, 10.000527 
2.1749698e+3, 1.4333646e+2, -1596116.0, -1511414.5, -77289.81, -0.38733104, -0.45115006, -1465633.0, 69639.94, 0.32934, 9.999168, 10.000597 
2.174997e+3, 1.5333936e+2, -1512538.5, -1392377.4, -80941.26, -0.083945, -0.3059981, -1351655.4, 85591.76, 0.18832743, 9.998979, 10.000725 
2.1750237e+3, 1.6334063e+2, -1507219.3, -1479537.8, -37895.336, 0.08921451, -0.1873019, -1453034.6, -113797.96, 0.0852701, 9.998928, 9.999423 
2.1750486e+3, 1.7333935e+2, -1200371.4, -1211677.8, 5675.0986, -0.08476068, -0.34297076, -1198014.3, 43235.14, 0.028395085, 10.000135, 9.999976 
2.1750735e+3, 1.8333906e+2, -1030070.1, -1027791.94, -110248.18, -0.15504129, -0.38840267, -918676.94, 224574.4, 0.006367479, 10.000417, 10.000443 
2.1750994e+3, 1.9334067e+2, -1096542.3, -971831.5, -105941.92, 0.06309303, -0.33266297, -911256.44, 133975.9, 0.0009868387, 9.999167, 10.000727 
2.1751246e+3, 2.0334154e+2, -1133163.4, -1040520.06, -38211.23, 0.1464636, -0.2787545, -1026793.44, -79571.78, 0.000047582707, 9.99859, 9.999899 
2.1751487e+3, 2.1334101e+2, -855702.44, -829104.56, 18238.896, 0.0034549453, -0.37014696, -819831.0, 29395.572, 0.00000000032497088, 9.99977, 10.000075 
2.1751733e+3, 2.2334069e+2, -773623.1, -894788.7, 1405.6139, -0.11156884, -0.35081646, -773606.8, -22376.316, 0.0, 10.000328, 9.998694 
2.175199e+3, 2.3334041e+2, -661363.56, -791790.1, -33952.375, -0.114970125, -0.2792426, -653054.5, 181.15324, 0.0, 10.000465, 9.998637 
2.1752246e+3, 2.4333939e+2, -606359.6, -723144.94, -98289.89, -0.09948599, -0.24104068, -550425.56, 4821.166, 0.0, 10.000164, 9.998609 
2.1752502e+3, 2.5333726e+2, -500513.75, -577545.4, -81451.4, -0.020679334, -0.37724176, -448930.72, 8335.68, 0.0, 10.000087, 9.998937 
2.1752761e+3, 2.6333618e+2, -438917.38, -530624.2, -14283.77, -0.022547366, -0.37049702, -436744.1, -77468.83, 0.0, 9.999937, 9.998688 
2.1753028e+3, 2.733357e+2, -205336.52, -340212.1, 23533.121, -0.0860948, -0.3421319, -201348.38, 59929.293, 0.0, 10.000799, 9.998877 
2.1753289e+3, 2.833336e+2, -151535.08, -397439.16, -73660.59, -0.10683901, -0.39011264, -131158.52, 32140.14, 0.0, 10.00101, 9.997742 
2.1753538e+3, 2.9333112e+2, -43769.047, -267081.22, -49657.223, -0.039923687, -0.48062512, -33224.8, 32103.873, 0.00000028754212, 10.000997, 9.997935 
2.1753794e+3, 3.033347e+2, 39833.766, -22399.094, -25879.592, -0.026017124, 0.006376769, 49189.367, 49189.367, 0.0000061263827, 10.000452, 9.99957 
2.175402e+3, 3.133325e+2, -45419.723, -176343.8, 48967.484, -0.28562632, -0.31130973, -29131.572, -29131.572, 0.000027574106, 10.000371, 9.998493 
2.1849698e+3, 1.433103e+2, -1874715.4, -1796043.9, -18486.988, -0.20235498, -0.41242236, -1791916.1, -256384.72, 0.34983045, 9.997849, 9.999093 
2.1849985e+3, 1.5331325e+2, -1292228.3, -1246334.8, -77620.85, 0.102554515, -0.25842333, -1188339.9, 249163.95, 0.2059314, 10.000446, 10.001275 
2.1850215e+3, 1.6331436e+2, -1454571.8, -1440394.4, 6200.328, -0.0240905, -0.1968921, -1438065.4, -98572.01, 0.09816949, 9.999254, 9.999527 
2.1850482e+3, 1.7331296e+2, -1436104.9, -1328130.6, 37215.055, -0.052592974, -0.3578197, -1316546.8, -75039.8, 0.036017943, 9.998585, 9.999895 
2.1850735e+3, 1.8331243e+2, -1322096.8, -1187729.9, -77125.36, -0.07998599, -0.41792753, -1152629.8, -9118.274, 0.009796201, 9.998442, 10.000308 
2.1850984e+3, 1.9331382e+2, -1068465.8, -974272.3, -123076.11, 0.068829216, -0.37477854, -889589.56, 155906.2, 0.0020521113, 9.999381, 10.000615 
2.1851237e+3, 2.0331492e+2, -964383.1, -948580.8, -30436.223, 0.16792254, -0.29630145, -925036.94, 22446.889, 0.00020967671, 9.999724, 9.999981 
2.1851487e+3, 2.1331523e+2, -869110.44, -824035.2, -51864.004, 0.04796746, -0.3116244, -790023.5, 59457.36, 0.00000086887735, 9.999635, 10.000178 
2.1851738e+3, 2.2331508e+2, -884375.94, -971859.2, -55217.85, -0.046096705, -0.26974872, -857673.7, -106190.19, 0.0, 9.999644, 9.998507 
2.1851993e+3, 2.3331396e+2, -735005.4, -846849.44, -39436.25, -0.09727202, -0.25682095, -722498.6, -69001.46, 0.0, 10.000053, 9.998455 
2.1852249e+3, 2.433126e+2, -572410.7, -705243.0, -30654.975, -0.066840164, -0.2484164, -565677.44, -10165.481, 0.0, 10.000376, 9.998636 
2.1852513e+3, 2.5331083e+2, -418845.06, -535066.1, -52191.008, 0.061601415, -0.35001522, -398848.4, 58679.164, 0.0, 10.000609, 9.998987 
2.1852776e+3, 2.6331007e+2, -311939.56, -452894.4, 41420.133, 0.10848418, -0.3212491, -300669.25, 58863.46, 0.0, 10.000704, 9.998873 
2.1853037e+3, 2.7330962e+2, -198556.53, -316161.53, 43971.227, -0.04440751, -0.3005402, -183934.22, 77600.59, 0.0, 10.000737, 9.999087 
2.1853296e+3, 2.8330776e+2, -161800.44, -342897.5, -39914.758, -0.10182245, -0.367876, -153393.3, 10160.213, 0.0, 10.000647, 9.998312 
2.1853545e+3, 2.9330537e+2, -116880.27, -257790.28, -51696.66, -0.012332028, -0.49421388, -99948.48, -34365.66, 0.000000027227998, 10.000272, 9.998365 
2.1853814e+3, 3.0330956e+2, 42665.36, -74714.89, 33498.82, 0.12966083, 0.04871241, 51552.61, 51552.61, 0.0000044959556, 10.000612, 9.999181 
2.1854039e+3, 3.133066e+2, 285794.72, 190914.17, -118326.414, -0.19770725, -0.27620378, 365836.7, 365836.7, 0.000025056477, 10.001607, 10.000499 
2.19497e+3, 1.4328577e+2, -1998830.1, -2076125.9, 704.9665, -0.07652072, -0.13551483, -1998823.6, -463049.6, 0.371045, 9.997992, 9.997083 
2.1950027e+3, 1.5328768e+2, -1234774.6, -1153848.1, -81026.81, 0.4179375, -0.13680132, -1103743.1, 334013.38, 0.22535217, 10.000611, 10.002062 
2.1950176e+3, 1.63288e+2, -1393587.1, -1349150.3, -63348.56, -0.41638944, -0.26143858, -1304236.8, 35515.832, 0.113554515, 9.999415, 10.000094 
2.1950473e+3, 1.7328814e+2, -1455535.8, -1366373.6, 22307.412, -0.029697275, -0.25053328, -1361104.0, -119352.39, 0.046104282, 9.998583, 9.999634 
2.1950732e+3, 1.8328798e+2, -1328153.6, -1216876.0, -58920.254, -0.0061821477, -0.2463801, -1191476.1, -47723.156, 0.015073848, 9.998512, 10.000076 
2.1950969e+3, 1.932883e+2, -1091743.3, -1009156.2, -81971.53, -0.04927992, -0.286795, -958664.7, 87084.07, 0.004138987, 9.99933, 10.000401 
2.1951221e+3, 2.0328869e+2, -1029397.2, -1042946.44, -49380.92, -0.023709355, -0.24353676, -986328.4, -38583.547, 0.00072646124, 9.999555, 9.999412 
2.195148e+3, 2.1328908e+2, -952168.75, -936363.4, -46601.32, -0.011897081, -0.18763067, -896999.44, -47256.836, 0.000022642807, 9.999386, 9.999518 
2.1951737e+3, 2.2328895e+2, -902394.2, -916450.5, -55145.137, -0.06001296, -0.13178158, -853831.1, -102086.27, 0.000000000011542125, 9.999243, 9.999078 
2.1951993e+3, 2.3328756e+2, -709582.9, -739374.94, -10917.582, -0.13159834, -0.23409703, -706010.4, -52252.273, 0.0, 9.999817, 9.999304 
2.195225e+3, 2.4328648e+2, -636568.1, -727583.25, -37597.797, -0.14051893, -0.24778801, -623045.75, -67277.67, 0.0, 9.999914, 9.998698 
2.1952519e+3, 2.5328562e+2, -459559.56, -567383.44, -31114.4, 0.028430304, -0.25266203, -451225.2, 6550.03, 0.0, 10.000385, 9.998872 
2.1952786e+3, 2.6328504e+2, -387026.2, -495850.53, 26101.914, 0.085110955, -0.19972974, -381089.4, -21309.232, 0.0, 10.000242, 9.998783 
2.1953046e+3, 2.7328426e+2, -251878.52, -338477.38, 62496.895, -0.040076043, -0.21332175, -219147.02, 42640.1, 0.0, 10.000381, 9.999085 
2.1953303e+3, 2.8328317e+2, -198824.05, -286755.5, -70313.51, -0.14581853, -0.23282811, -159862.25, 3935.9812, 0.0, 10.000103, 9.998946 
2.1953543e+3, 2.9328156e+2, -125715.516, -198839.6, -41982.492, -0.09512345, -0.34981787, -106606.086, -40789.734, 0.000000020729713, 9.999952, 9.998919 
2.1953806e+3, 3.0328208e+2, -165656.84, -327123.7, 58329.8, -0.058821004, -0.13096939, -146789.81, -146789.81, 0.0000055230016, 9.999893, 9.997759 
2.1954066e+3, 3.132787e+2, 141777.2, 198497.55, -55752.51, -0.15650819, -0.37657505, 232688.5, 232688.5, 0.000029811183, 10.000394, 10.0010805 
2.2049662e+3, 1.432577e+2, -1884052.5, -1835684.1, 56549.332, -0.22287954, -0.27660316, -1798364.6, -262313.66, 0.39437363, 9.998013, 9.998712 
2.2050022e+3, 1.5326077e+2, -1522289.6, -1262557.8, -63110.566, 0.446771, -0.13054103, -1248035.0, 189986.44, 0.24751917, 9.998136, 10.002345 
2.2050178e+3, 1.6326107e+2, -1261806.9, -1236193.1, -126269.734, -0.34288594, -0.31147766, -1122082.5, 217934.8, 0.13222682, 10.000136, 10.00065 
2.2050464e+3, 1.7326222e+2, -1315848.9, -1296180.9, -55025.14, -0.010613118, -0.21727976, -1250117.9, -8111.766, 0.059555795, 9.999453, 9.99974 
2.2050725e+3, 1.8326256e+2, -1278129.5, -1202141.6, -28112.342, 0.06979578, -0.16514729, -1192872.1, -48869.336, 0.023171267, 9.998887, 10.000011 
2.2050972e+3, 1.9326231e+2, -988163.3, -971460.6, -59454.105, 0.0015542496, -0.2504667, -919774.2, 126230.49, 0.008108057, 10.000094, 10.000317 
2.2051223e+3, 2.0326227e+2, -887090.5, -1004272.44, -29894.646, 0.011429899, -0.23263533, -879904.6, 68100.414, 0.0021629941, 10.000657, 9.999155 
2.2051479e+3, 2.1326227e+2, -829358.25, -916165.1, -35409.766, 0.0035509185, -0.18404943, -816746.44, 33259.66, 0.00023583506, 10.000372, 9.999192 
2.2051735e+3, 2.2326176e+2, -773920.94, -834648.0, -5546.217, -0.0132825645, -0.1526109, -773418.56, -21407.34, 0.0000019906881, 10.000035, 9.999266 
2.2051995e+3, 2.3326066e+2, -684106.7, -700809.8, -34085.035, -0.06535321, -0.24935521, -657364.94, -3344.1357, 0.0, 9.999864, 9.999564 
2.2052258e+3, 2.4325973e+2, -607862.3, -704616.6, -39489.145, -0.043913476, -0.26070797, -593791.56, -37762.727, 0.0, 10.000058, 9.998795 
2.2052526e+3, 2.5325906e+2, -355727.88, -495918.28, -51638.43, 0.04702827, -0.2573936, -338760.66, 119274.11, 0.0, 10.001063, 9.999015 
2.205279e+3, 2.6325852e+2, -248877.42, -426918.06, -4982.496, 0.08563363, -0.20825297, -248738.1, 111301.94, 0.0, 10.001165, 9.99882 
2.205305e+3, 2.7325785e+2, -349169.16, -396053.03, -956.3447, -0.018174887, -0.21029586, -349149.66, -87101.83, 0.0, 9.999715, 9.99903 
2.2053306e+3, 2.832575e+2, -292988.63, -304021.8, -61280.94, -0.054546524, -0.16728652, -236976.47, -72924.39, 0.0, 9.999332, 9.999198 
2.2053558e+3, 2.932562e+2, 111380.34, -49044.527, -110711.44, -0.015237519, -0.26602784, 167883.16, 233948.56, 0.00000007580395, 10.00143, 9.99924 
2.2053815e+3, 3.0325487e+2, 139704.44, -231146.33, 21212.184, -0.03684801, -0.24038674, 140913.81, 140913.81, 0.0000083740215, 10.00216, 9.997359 
2.205409e+3, 3.1325284e+2, 123265.016, 182064.08, -175511.06, 0.08876512, -0.26623744, 330620.9, 330620.9, 0.000042885644, 10.000233, 10.001055 
2.2149636e+3, 1.4323093e+2, -1530615.1, -1248225.5, -131482.48, -0.41122496, -0.32743806, -1196486.1, 339829.0, 0.4221777, 9.998015, 10.004228 
2.2149965e+3, 1.532321e+2, -1561431.9, -1320837.0, 59786.855, 0.046170045, -0.25632605, -1306799.3, 131503.8, 0.27423543, 9.998102, 10.001884 
2.215022e+3, 1.6323334e+2, -1195834.1, -1144797.0, -131308.72, -0.019803891, -0.3395136, -1036550.2, 303739.72, 0.15564767, 10.0003605, 10.001284 
2.2150446e+3, 1.7323522e+2, -1267537.4, -1200691.3, -81094.305, -0.14939749, -0.24793825, -1146402.4, 95868.125, 0.07778218, 9.99948, 10.000409 
2.2150709e+3, 1.832362e+2, -1274295.8, -1204500.8, -18650.0, -0.057732493, -0.16858505, -1199829.9, -55569.477, 0.035576556, 9.998928, 9.999977 
2.2150981e+3, 1.9323581e+2, -1013096.1, -988420.75, -3325.7288, 0.07922601, -0.2601255, -987980.4, 58283.645, 0.0154146915, 9.999954, 10.000262 
2.2151238e+3, 2.0323549e+2, -916276.0, -1017581.44, -41604.6, 0.06648173, -0.27069676, -901380.0, 46886.445, 0.005714695, 10.000448, 9.999163 
2.2151479e+3, 2.132347e+2, -859833.25, -929489.0, -35258.527, -0.0606703, -0.3024654, -845101.6, 5170.855, 0.0013616167, 10.000156, 9.999201 
2.2151728e+3, 2.232338e+2, -860792.6, -918433.94, -29720.205, -0.1262585, -0.29252735, -848213.75, -95933.766, 0.00013056793, 9.999623, 9.998888 
2.2151999e+3, 2.332331e+2, -747608.5, -774261.5, -26053.24, -0.043312445, -0.31285563, -731671.25, -77383.78, 0.0000045921656, 9.99961, 9.999182 
2.2152266e+3, 2.4323228e+2, -680166.6, -733337.56, -29240.527, -0.00081850175, -0.29006833, -667232.56, -110936.96, 0.000000030624218, 9.999561, 9.998825 
2.2152531e+3, 2.5323105e+2, -394154.1, -492174.5, 195.4974, -0.021749258, -0.36286715, -394153.7, 64153.785, 0.0, 10.000723, 9.999194 
2.2152787e+3, 2.6323026e+2, -320847.3, -455155.03, -64050.617, -0.084262446, -0.34985542, -295199.66, 65116.22, 0.0, 10.000667, 9.9988575 
2.2153038e+3, 2.732304e+2, -386301.75, -406431.9, -44565.082, -0.1259528, -0.28071195, -350679.28, -88362.37, 0.0, 9.99945, 9.999075 
2.21533e+3, 2.8323072e+2, -400361.88, -405226.25, -24732.62, -0.09575255, -0.15419932, -377942.16, -213626.69, 0.0, 9.9988365, 9.998727 
2.2153579e+3, 2.9322898e+2, 25348.527, -126058.76, -3950.2617, 0.033587288, -0.25893736, 25451.521, 91783.85, 0.00000027397763, 10.001014, 9.998898 
2.2153834e+3, 3.0322754e+2, 69310.21, -198364.88, -46136.402, -0.1374389, -0.26596406, 77039.1, 77039.1, 0.000015050563, 10.001441, 9.997901 
2.2154084e+3, 3.1322712e+2, -132941.7, -98393.42, -76112.54, -0.0693587, -0.18582672, -37619.406, -37619.406, 0.00007034586, 9.999227, 9.999579 
2.2249721e+3, 1.4320429e+2, -1704351.8, -1625355.9, -265147.88, 0.5631059, -0.23725313, -1396780.1, 139793.28, 0.45833316, 9.998835, 10.000167 
2.2249949e+3, 1.53207e+2, -1387018.0, -1376138.3, 163045.73, -0.03163288, -0.2129469, -1218441.8, 220107.66, 0.30885017, 10.000295, 10.000442 
2.2250229e+3, 1.6320673e+2, -1374509.6, -1273284.5, -75428.63, 0.112278014, -0.32003874, -1233061.5, 107491.67, 0.18666483, 9.999169, 10.000864 
2.2250442e+3, 1.7320868e+2, -1250847.5, -1131154.0, -91934.09, -0.13850121, -0.26675168, -1081303.4, 161228.44, 0.103338934, 9.999331, 10.001008 
2.2250699e+3, 1.8321002e+2, -1284627.9, -1228814.9, 14365.616, -0.01716808, -0.1805165, -1225334.4, -80817.24, 0.054786276, 9.998916, 9.999828 
2.2250977e+3, 1.9320959e+2, -1175820.6, -1102273.1, 308.35477, 0.09742099, -0.2472945, -1102271.8, -55750.434, 0.028543482, 9.998956, 9.999956 
2.2251238e+3, 2.0320891e+2, -1083202.1, -1101990.6, -25040.402, 0.07878009, -0.2802766, -1065851.8, -117324.586, 0.013685946, 9.999311, 9.999135 
2.2251482e+3, 2.1320753e+2, -810642.56, -905085.3, -51901.844, -0.06149042, -0.36658022, -787695.1, 62842.344, 0.005262215, 10.000499, 9.999212 
2.2251734e+3, 2.2320643e+2, -649300.5, -838278.1, -31035.533, -0.09106201, -0.3723651, -644334.06, 108212.58, 0.001420654, 10.001139, 9.998717 
2.2252002e+3, 2.3320602e+2, -599269.2, -722386.94, -39819.75, 0.0030727107, -0.34423387, -587512.94, 67038.82, 0.0002619265, 10.000685, 9.99903 
2.2252268e+3, 2.4320549e+2, -588663.8, -672943.06, 12629.604, 0.060073655, -0.28920168, -586811.9, -30254.309, 0.000035642544, 10.000111, 9.998981 
2.2252534e+3, 2.532046e+2, -516942.72, -528042.1, 29196.076, -0.0108313775, -0.34734282, -492773.56, -34207.918, 0.0000011567587, 9.999727, 9.9994545 
2.225279e+3, 2.6320383e+2, -447048.06, -525850.4, -19058.996, -0.062143184, -0.34362847, -442680.56, -82106.42, 0.0, 9.999834, 9.998782 
2.2253044e+3, 2.7320343e+2, -118713.32, -283796.84, -57650.004, -0.089524925, -0.31018832, -100574.08, 162007.06, 0.0, 10.001354, 9.998998 
2.2253308e+3, 2.832035e+2, 22451.016, -193981.16, 801.0403, -0.024021534, -0.2062047, 22453.98, 187035.83, 0.0, 10.001686, 9.998827 
2.225359e+3, 2.9320192e+2, -58347.684, -148886.61, 26311.072, 0.07610218, -0.29007483, -51256.887, 15338.907, 0.00000073017384, 10.000375, 9.999046 
2.2253855e+3, 3.0320165e+2, -41978.31, -246325.56, 16976.346, 0.0034609537, -0.21585502, -40577.586, -40577.586, 0.00002755439, 10.0006275, 9.997987 
2.2254099e+3, 3.1319886e+2, 451390.0, 139440.44, -174106.89, -0.04859476, -0.31072924, 529170.1, 529170.1, 0.000118261974, 10.003365, 9.99927 
2.2349964e+3, 1.5318634e+2, -1573203.0, -1721397.1, 81880.195, 0.05107933, 0.11102284, -1536870.3, -98118.555, 0.35698506, 10.000009, 9.997804 
2.23502e+3, 1.631804e+2, -1491304.9, -1510516.3, -105998.02, -0.17844214, -0.3231692, -1394478.3, -53663.125, 0.23053116, 9.999172, 9.999103 
2.235044e+3, 1.7318222e+2, -1235064.3, -1085261.9, -83725.93, -0.12331151, -0.29470265, -1047823.3, 194969.97, 0.14104874, 9.999233, 10.001449 
2.2350691e+3, 1.8318392e+2, -1309509.4, -1271504.8, -5128.7217, -0.034004692, -0.20656231, -1270824.8, -126050.84, 0.08532412, 9.998881, 9.999549 
2.2350952e+3, 1.9318357e+2, -1230369.8, -1189352.6, 9222.49, -0.080434, -0.2106224, -1187374.4, -140596.83, 0.05187056, 9.998846, 9.999413 
2.2351211e+3, 2.0318262e+2, -1128037.9, -1140425.9, -3621.0295, -0.15694226, -0.23108602, -1127057.1, -178270.89, 0.030293982, 9.99908, 9.998981 
2.2351483e+3, 2.1318059e+2, -844286.25, -917108.9, 2826.445, -0.13793258, -0.3846218, -844176.75, 6626.318, 0.015773455, 10.000247, 9.999249 
2.2351746e+3, 2.2317934e+2, -720599.44, -866365.9, -49305.49, -0.11374016, -0.4079434, -705488.4, 47325.215, 0.0069356123, 10.000638, 9.998755 
2.2352004e+3, 2.3317932e+2, -629332.5, -724637.6, -42311.336, -0.080877855, -0.35490176, -613259.0, 41555.44, 0.002541045, 10.000427, 9.999129 
2.2352259e+3, 2.4317932e+2, -649513.3, -688620.75, -21794.793, -0.083730064, -0.25303686, -639786.3, -82971.6, 0.00075579167, 9.999652, 9.999084 
2.2352527e+3, 2.5317964e+2, -534717.56, -499510.56, 26782.432, -0.07602264, -0.22797398, -485064.38, -26253.734, 0.00014769337, 9.999452, 9.999775 
2.2352791e+3, 2.6317903e+2, -566674.1, -639254.44, -3395.7996, -0.09347961, -0.19876905, -566515.6, -205698.84, 0.000007045108, 9.999283, 9.998252 
2.2353062e+3, 2.731767e+2, -210604.86, -388044.03, 12679.665, -0.07956941, -0.3120404, -209703.36, 53139.383, 0.00000000065814787, 10.000989, 9.998443 
2.2353323e+3, 2.8317544e+2, -50865.906, -184506.92, -67368.73, -0.08658151, -0.33520117, -22799.504, 142056.47, 0.0, 10.0010395, 9.999178 
2.2353579e+3, 2.9317492e+2, -109775.68, -135864.16, -7069.357, -0.083342455, -0.37272075, -107983.2, -41125.414, 0.0000012574419, 9.999904, 9.999336 
2.235387e+3, 3.031762e+2, -252633.69, -479693.3, 66964.94, 0.028400179, -0.09822607, -234355.61, -234355.61, 0.000044073433, 9.999806, 9.996756 
2.2354138e+3, 3.1317112e+2, 252175.81, 65946.58, 27265.008, -0.060982373, -0.31188458, 256085.48, 256085.48, 0.00018419352, 10.002008, 9.999383 
2.2449978e+3, 1.5315634e+2, -1412515.4, -1806139.0, -126305.055, 0.031156968, -0.36785752, -1375472.9, 63571.777, 0.42759266, 10.002156, 9.996077 
2.2450195e+3, 1.6315605e+2, -1355064.9, -1448250.4, -51089.637, -0.15659429, -0.20251474, -1332512.6, 8543.84, 0.29616648, 10.000133, 9.999085 
2.2450437e+3, 1.7315716e+2, -1315852.9, -1191080.8, -114427.836, -0.028223323, -0.19636384, -1123137.4, 119903.77, 0.19952731, 9.999001, 10.000813 
2.2450688e+3, 1.831577e+2, -1367818.3, -1294706.6, -14269.363, 0.09263556, -0.18425265, -1292020.4, -146988.33, 0.13536815, 9.9984665, 9.999578 
2.2450952e+3, 1.9315714e+2, -985928.9, -1050066.9, 29020.174, -0.03315278, -0.22885913, -974747.5, 72288.3, 0.09319166, 10.000472, 9.999605 
2.2451219e+3, 2.0315638e+2, -813674.75, -1012183.1, 47646.63, -0.09896351, -0.2316613, -802830.8, 146211.03, 0.06306426, 10.001369, 9.998792 
2.2451495e+3, 2.1315499e+2, -879918.25, -970636.1, -4689.526, -0.01800597, -0.28673863, -879676.5, -28621.281, 0.0400799, 10.000135, 9.998955 
2.245176e+3, 2.2315377e+2, -858451.94, -926163.25, -32026.783, 0.02487212, -0.28725484, -845703.7, -92636.805, 0.023131557, 9.999623, 9.998857 
2.2452012e+3, 2.331531e+2, -613218.75, -691542.75, -55708.074, -0.03349349, -0.3190313, -584284.8, 70788.484, 0.011994159, 10.0004225, 9.999373 
2.2452265e+3, 2.4315254e+2, -435825.9, -613283.25, -22316.47, -0.047116358, -0.27363262, -433062.47, 124015.96, 0.0054928027, 10.001173, 9.998902 
2.2452535e+3, 2.531527e+2, -245927.83, -378914.13, -35339.74, -0.042269226, -0.24236217, -237120.0, 221955.25, 0.002050329, 10.001495, 9.999636 
2.2452798e+3, 2.6315215e+2, -321008.0, -538273.6, -41726.254, -0.020355325, -0.1875312, -313270.0, 47810.54, 0.0004876709, 10.00102, 9.998122 
2.2453074e+3, 2.731501e+2, -301375.78, -427604.7, -1.7906061, -0.005050385, -0.26687756, -301375.78, -38272.11, 0.000047167257, 10.000331, 9.998504 
2.2453335e+3, 2.8314888e+2, -187402.92, -259770.38, -55143.613, 0.01004477, -0.2921232, -157631.5, 7484.4688, 0.00000034188096, 10.00012, 9.999116 
2.2453594e+3, 2.9314768e+2, 252120.81, -6043.345, -85752.76, -0.038059093, -0.3546749, 278008.78, 345132.47, 0.0000013302117, 10.002529, 9.998993 
2.2453892e+3, 3.0314785e+2, 212707.52, -319873.03, 24227.979, 0.12905218, -0.16186343, 213807.42, 213807.42, 0.0000584347, 10.003212, 9.996226 
2.2454168e+3, 3.131432e+2, 106053.46, 80555.555, -104094.19, 0.13302062, -0.24319996, 198176.5, 198176.5, 0.00025945, 10.000522, 10.000205 
2.2550204e+3, 1.631348e+2, -1380244.0, -1386936.3, -103920.5, -0.20270032, 0.15744781, -1279615.8, 61650.723, 0.39765337, 9.999726, 9.999805 
2.2550437e+3, 1.7313324e+2, -1428735.5, -1418702.8, -183787.11, -0.0063997293, 0.022544699, -1239863.6, 3413.9666, 0.29298013, 9.998993, 9.999088 
2.2550689e+3, 1.8313101e+2, -1415426.9, -1323726.9, -13542.46, 0.13166972, -0.1341253, -1321768.8, -176474.38, 0.21888196, 9.998176, 9.999503 
2.2550972e+3, 1.9312981e+2, -983717.06, -968661.7, 92365.93, 0.07488885, -0.3260055, -883517.2, 163783.45, 0.16615056, 10.00016, 10.000405 
2.2551247e+3, 2.0312995e+2, -894426.0, -1088594.4, 10989.811, 0.0110118035, -0.2953757, -893806.0, 55491.168, 0.12546477, 10.0009775, 9.998429 
2.2551511e+3, 2.131304e+2, -967468.4, -1088777.5, -42989.773, 0.11826209, -0.10856018, -953778.5, -102481.56, 0.0914258, 9.999879, 9.998242 
2.2551768e+3, 2.2312957e+2, -946559.1, -993772.44, -28649.56, 0.09461895, -0.018338066, -933043.44, -179735.67, 0.062582165, 9.999131, 9.998628 
2.2552024e+3, 2.3312716e+2, -641678.6, -684578.5, -14072.809, 0.0151317455, -0.24349053, -637474.25, 17856.178, 0.039919913, 10.000128, 9.999562 
2.2552277e+3, 2.4312505e+2, -595721.44, -755495.1, -31934.51, -0.06493498, -0.336052, -589575.0, -32225.195, 0.023601582, 10.000383, 9.998289 
2.2552547e+3, 2.5312397e+2, -351671.25, -486380.2, -16581.025, -0.07825124, -0.38554704, -349660.34, 109697.62, 0.012405956, 10.001051, 9.999091 
2.2552805e+3, 2.6312312e+2, -422411.2, -587831.5, -100802.74, -0.07507807, -0.31067532, -374729.0, -13363.511, 0.005154125, 10.000366, 9.998082 
2.2553074e+3, 2.7312344e+2, -332187.25, -373308.7, -15105.907, -0.049222346, -0.21616337, -327234.6, -63868.88, 0.0013586987, 9.999857, 9.999086 
2.2553338e+3, 2.8312343e+2, -372174.56, -455690.13, -32578.162, -0.022438405, -0.11731067, -360969.63, -195603.39, 0.00015517221, 9.999363, 9.998112 
2.2553627e+3, 2.9312044e+2, 90312.89, -193704.94, 32973.75, 0.013666179, -0.23431104, 94090.805, 161481.17, 0.0000026982873, 10.001967, 9.997933 
2.2553912e+3, 3.0311716e+2, 60832.496, -420468.53, -75013.02, -0.061532084, -0.34023902, 72252.66, 72252.66, 0.000065484004, 10.002357, 9.995918 
2.2554158e+3, 3.131119e+2, -10013.298, 115030.96, 10277.942, -0.09534761, -0.44101208, 115870.125, 115870.125, 0.00034262822, 9.999426, 10.000949 
2.2650488e+3, 1.7310476e+2, -1128361.6, -1632385.5, -110198.734, 0.40181124, -0.40685865, -1105321.3, 138224.67, 0.44342524, 10.002759, 9.996017 
2.265065e+3, 1.8310334e+2, -1069896.5, -1482689.8, 137103.38, -0.30309668, -0.4574735, -1028509.2, 117050.766, 0.3585124, 10.002245, 9.996537 
2.265095e+3, 1.931016e+2, -1261504.1, -1369555.3, -24328.338, -0.10636521, -0.39317307, -1256279.1, -208702.48, 0.29413474, 9.99934, 9.997867 
2.2651237e+3, 2.031004e+2, -1272887.8, -1264160.3, -210047.19, -0.042316653, -0.36138612, -1058431.5, -108841.89, 0.24160613, 9.998127, 9.998666 
2.2651474e+3, 2.1310036e+2, -1001267.0, -1046109.75, -204243.75, -0.19765809, -0.26922685, -818217.6, 33376.676, 0.1940874, 9.999329, 9.9988785 
2.2651736e+3, 2.2310004e+2, -718606.4, -896290.25, -77179.59, -0.21362121, -0.1646914, -689764.06, 63835.65, 0.14888066, 10.000768, 9.998547 
2.2652017e+3, 2.3309934e+2, -576010.9, -704379.94, -138165.66, -0.084823735, -0.1576727, -487849.1, 167755.67, 0.108788945, 10.0009, 9.999105 
2.2652288e+3, 2.4309792e+2, -525050.8, -652222.7, -145159.16, -0.004169184, -0.16930947, -430161.66, 127454.836, 0.07581198, 10.000527, 9.998977 
2.2652556e+3, 2.5309652e+2, -471852.97, -459239.7, -70532.445, -0.007391725, -0.33691677, -394732.5, 64894.85, 0.048806984, 9.9997225, 10.000004 
2.2652808e+3, 2.6309556e+2, -486632.72, -593535.2, -31521.693, -0.031067781, -0.33266747, -478030.34, -116394.87, 0.026684597, 9.999712, 9.998404 
2.2653084e+3, 2.7309632e+2, 49654.215, -172081.33, 11202.973, -0.04522209, -0.2122617, 50218.797, 313848.34, 0.010897145, 10.002326, 9.999339 
2.2653352e+3, 2.83096e+2, -4342.139, -348051.7, -21943.48, 0.05460316, -0.13036564, -2946.864, 162685.86, 0.002788968, 10.002136, 9.997551 
2.265366e+3, 2.9309183e+2, 76815.234, -264246.03, 98857.016, 0.15096532, -0.28589594, 103397.28, 171067.39, 0.0003034348, 10.0021715, 9.997363 
2.2653936e+3, 3.030874e+2, 29038.12, -351873.25, -20924.152, -0.0034080537, -0.54007226, 30184.072, 30184.072, 0.000074942734, 10.001814, 9.996674 
2.2654165e+3, 3.1308475e+2, 156930.06, 122347.125, 31674.857, -0.038142614, -0.3027643, 175725.86, 175725.86, 0.00045627946, 10.000725, 10.000497 
2.2751236e+3, 2.0307118e+2, -952690.0, -1244578.5, -52952.617, 0.05744743, -0.042942792, -943380.56, 6504.905, 0.4526298, 10.000995, 9.997349 
2.2751494e+3, 2.1306972e+2, -607461.56, -686204.06, -96630.09, 0.040198132, -0.274618, -542489.75, 309409.7, 0.38963944, 10.00227, 10.000525 
2.2751792e+3, 2.2306976e+2, -654626.2, -940736.56, -167403.28, 0.21544963, -0.24854179, -577480.0, 176417.66, 0.32267725, 10.0020485, 9.997656 
2.275204e+3, 2.3306979e+2, -730233.8, -905332.6, -140309.1, 0.042341374, -0.085143335, -652400.25, 3494.369, 0.25840095, 10.000341, 9.997877 
2.2752292e+3, 2.4306962e+2, -692523.44, -663655.06, -155746.63, -0.13678305, 0.08329398, -521675.2, 36218.31, 0.20062341, 9.999077, 9.999575 
2.2752564e+3, 2.5306988e+2, -458184.66, -236600.89, -66098.64, 0.027721379, -0.17950474, -218381.64, 241506.52, 0.14660953, 9.998792, 10.002178 
2.2752805e+3, 2.6306966e+2, -799289.56, -802721.7, -2530.9604, -0.113843344, -0.20866376, -797947.75, -436059.97, 0.09444842, 9.997868, 9.99781 
2.2753103e+3, 2.730696e+2, -65390.99, -237336.11, 108954.44, -0.14117035, -0.19422516, -12574.681, 251311.97, 0.04983968, 10.001681, 9.99916 
2.2753371e+3, 2.8306735e+2, -241735.88, -558636.25, -133850.8, -0.021077543, -0.249872, -192767.4, -26860.12, 0.019500945, 10.000981, 9.996626 
2.275368e+3, 2.930619e+2, -67074.41, -377611.28, 119558.53, 0.10352832, -0.5357622, -26377.209, 41583.89, 0.004786881, 10.001438, 9.996899 
2.2753945e+3, 3.030583e+2, -108271.13, -314365.7, -124298.87, -0.13741529, -0.75869423, -49859.594, -49859.594, 0.0007184054, 10.000548, 9.997482 
2.275416e+3, 3.1306222e+2, -282983.78, -316809.03, 119057.24, -0.21358396, 0.03285468, -179643.9, -179643.9, 0.0007782504, 9.998926, 9.998232 
2.2852354e+3, 2.4304116e+2, -411424.06, -1305832.0, -316155.9, 0.13370061, -0.7383289, -310954.8, 247209.7, 0.45869297, 10.004889, 9.9930935 
2.2852483e+3, 2.53043e+2, -931795.3, -669068.8, -24694.299, -0.52392554, -0.33251226, -666767.9, -206622.1, 0.36361384, 9.996458, 10.000225 
2.2852835e+3, 2.6304004e+2, -735568.6, -716806.75, 174764.86, 0.32781988, -0.56274104, -551171.25, -188998.28, 0.26167566, 9.997781, 9.998539 
2.2853172e+3, 2.730409e+2, 230818.66, -89234.945, 285661.75, 0.288543, -0.44513628, 398223.06, 662386.94, 0.1640845, 10.004175, 9.999321 
2.2853406e+3, 2.8303918e+2, 282275.22, -165404.06, -38707.438, 0.095551446, -0.46057332, 285597.3, 451777.7, 0.0825175, 10.004185, 9.997854 
2.28537e+3, 2.930389e+2, 621140.06, 143061.31, 437105.06, -0.022002865, -0.38568118, 880298.06, 948482.2, 0.030766662, 10.0053005, 9.998779 
2.2853996e+3, 3.030397e+2, 673815.5, 212352.84, 161722.06, 0.11650221, -0.33029556, 724848.2, 724848.2, 0.009050696, 10.005084, 9.999031 
2.2854166e+3, 3.1303817e+2, -94196.37, 13139.723, -9616.471, -0.08283701, -0.15216304, 13994.476, 13994.476, 0.0039682235, 9.99913, 10.00039 
2.2953203e+3, 2.730168e+2, -1277298.0, -696850.44, -790225.06, 0.18056937, -0.24899726, -145239.6, 119157.305, 0.4346383, 9.992719, 10.000658 
2.2953442e+3, 2.830095e+2, -1065601.9, -970245.4, -385792.7, -0.06686634, -0.966274, -629195.94, -462725.16, 0.25421637, 9.99535, 9.996477 
2.2953719e+3, 2.930253e+2, 554890.4, 483693.1, 514467.94, -0.45388, 0.13309163, 1034989.8, 1103303.8, 0.12190007, 10.003687, 10.002204 
2.2954084e+3, 3.0303416e+2, -545278.7, -862825.0, -58293.258, 0.3026977, 1.0041012, -534915.75, -534915.75, 0.05430836, 9.998968, 9.994431 
2.2954194e+3, 3.1301233e+2, -392902.75, 266960.4, -453495.03, 0.11407034, -1.2571571, 497843.03, 497843.03, 0.032061335, 9.995716, 10.003631 
2.3053809e+3, 2.93002e+2, -1347997.6, -717155.75, -611401.1, 0.18771122, 0.19599327, -344607.4, -276058.28, 0.36365414, 9.990712, 10.000312 
2.3054175e+3, 3.0298972e+2, 1242800.0, 880285.8, -305892.63, 0.06772747, -1.8162713, 1417105.1, 1417105.1, 0.21863605, 10.008952, 10.003475 
2.3054194e+3, 3.1300873e+2, -357613.22, -879728.0, 598094.8, 0.072859004, 0.18151775, 33915.3, 33915.3, 0.17211813, 9.999757, 9.9948015 
2.343731e+3, 2.8810567e+2, -3470519.3, -369410.1, -1149810.6, 0.09816956, -0.58092207, 10393.829, 126912.52, 0.4760366, 9.970663, 10.01227 
2.3575464e+3, 1.7853354e+2, -1121382.9, -1901863.5, 620612.9, -0.056600127, -1.0929183, -778514.8, 411843.75, 0.43659818, 10.00465, 9.99275 
2.3572041e+3, 1.8853989e+2, -979379.7, -935917.5, 307949.44, 0.3561147, 0.37826702, -648933.4, 443358.4, 0.37773317, 10.000501, 10.001068 
2.3568526e+3, 1.9853057e+2, -1231640.8, -1110233.5, 244165.53, 0.37290138, -0.25930685, -919338.75, 75033.305, 0.3336362, 9.997726, 9.999855 
2.3565009e+3, 2.0851469e+2, -1172728.1, -840947.5, 35546.305, -0.6034747, -1.3115238, -837181.9, 59345.215, 0.30109763, 9.9968, 10.001314 
2.3561662e+3, 2.1851307e+2, -1751875.6, -1321625.8, 51002.035, 0.12434436, -1.1663532, -1315662.6, -517118.0, 0.2783399, 9.992719, 9.999518 
2.355821e+3, 2.2851673e+2, -166255.53, -626614.5, 16567.594, -0.056913793, -0.094677985, -165660.05, 534848.4, 0.2613125, 10.005211, 9.9977 
2.3554753e+3, 2.3851019e+2, -76717.71, -619328.4, 136699.73, -0.34450835, -0.104241624, -44224.75, 558347.8, 0.24582522, 10.005174, 9.997134 
2.3551384e+3, 2.4850184e+2, -83997.9, -552897.6, 263445.25, 0.37029228, -0.06329454, 34213.742, 538866.06, 0.2302187, 10.004401, 9.99718 
2.3547888e+3, 2.5848898e+2, -1170834.8, -1200916.8, 50694.074, -0.34927806, -0.52570796, -1132997.4, -726222.5, 0.21018535, 9.995535, 9.996356 
2.3544316e+3, 2.684815e+2, 328755.6, -62578.5, -16119.365, -0.7033406, -0.55812156, 329418.44, 638266.44, 0.17674822, 10.004721, 9.999441 
2.3540886e+3, 2.7847144e+2, 479568.8, -840932.0, 616556.0, -0.3969668, -0.6104447, 722685.4, 933632.1, 0.13579808, 10.009191, 9.991062 
2.3537393e+3, 2.884648e+2, 1944755.3, 1044551.4, 232150.73, -0.09369527, -0.3047366, 2001097.5, 2114103.8, 0.1268119, 10.014751, 10.0016575 
2.3533991e+3, 2.984668e+2, 304074.06, 173100.69, 530278.75, 0.033215202, -0.24949582, 772894.44, 787876.06, 0.18574578, 10.0022545, 10.000843 
2.353049e+3, 3.0844718e+2, -154748.06, -1363335.6, -136528.02, -0.56040347, -0.72966653, -139517.13, -139517.13, 0.30999368, 10.005165, 9.988386 
2.3682344e+3, 1.5889734e+2, -1175703.5, -1057777.0, 34056.445, 0.10476001, -0.35496762, -1048648.4, 334141.72, 0.40917975, 9.9998, 10.003418 
2.3678842e+3, 1.6890135e+2, -993911.5, -1032483.94, -52865.67, -0.2935061, 0.44952884, -956923.94, 327821.7, 0.3191439, 10.001787, 10.001088 
2.3675445e+3, 1.788972e+2, -1435191.0, -1449020.1, -161184.8, 0.20136541, 0.4437871, -1280772.5, -93987.65, 0.25440213, 9.99821, 9.998652 
2.3671934e+3, 1.8888487e+2, -964959.25, -1027153.9, -181220.0, -0.062398907, -0.06453995, -812187.75, 276714.72, 0.20803183, 10.000712, 9.999731 
2.3668411e+3, 1.9887517e+2, -457105.6, -826482.5, -118202.35, -0.3307591, -0.46376455, -422518.8, 568475.6, 0.17323136, 10.00425, 9.998908 
2.3664968e+3, 2.0887594e+2, -513371.53, -704637.9, 43943.004, -0.34396297, 0.26456004, -503758.84, 389230.44, 0.14628568, 10.002525, 9.999776 
2.3661578e+3, 2.1887888e+2, -736534.7, -781443.44, 18241.367, 0.12969673, 1.108671, -730059.06, 64904.85, 0.12553912, 9.9998255, 9.999775 
2.365816e+3, 2.2886725e+2, -648808.2, -544579.2, 116383.016, 0.05443717, 0.46845034, -469175.34, 227899.11, 0.108313076, 9.999165, 10.001082 
2.36547e+3, 2.388493e+2, -822013.1, -830939.7, 25737.082, -0.39918557, -0.81623226, -800355.2, -201110.5, 0.092006706, 9.998279, 9.998819 
2.3651253e+3, 2.4884337e+2, -590378.06, -565967.0, 9301.359, -0.32885367, -0.7305559, -562826.8, -61527.24, 0.07587349, 9.998946, 9.999601 
2.3647861e+3, 2.5883943e+2, -595955.25, -887771.7, 164739.95, 0.18220466, -0.34817886, -521798.78, -118462.65, 0.059167173, 9.999774, 9.996325 
2.3644377e+3, 2.6883578e+2, -42334.54, 103817.41, -30141.27, 0.21229453, -0.11335809, 109789.484, 415163.2, 0.040480368, 10.000182, 10.002267 
2.3640925e+3, 2.7883098e+2, -590294.56, -719296.25, 180504.36, 0.07012861, -0.14761838, -463112.9, -255689.56, 0.022792675, 9.99852, 9.996594 
2.3637395e+3, 2.888201e+2, -279340.03, -563729.06, -15367.956, -0.2739536, -0.28982124, -278511.97, -168984.34, 0.018048033, 10.000357, 9.995968 
2.3633887e+3, 2.98812e+2, -356722.6, -173726.11, 391373.47, -0.5746041, -0.5741918, 136702.42, 148307.23, 0.038622387, 9.997607, 9.999796 
2.3630515e+3, 3.0882114e+2, 213918.73, 919749.06, -120204.96, 0.2119366, 0.5210643, 939658.7, 939658.7, 0.0855372, 9.998143, 10.007463 
2.3785734e+3, 1.492406e+2, -1629579.1, -1465382.1, 224242.98, 0.12959993, -0.6589268, -1308681.4, 168757.28, 0.38968346, 9.998249, 10.000773 
2.3782277e+3, 1.5924388e+2, -1431533.5, -1478559.9, -49224.625, -0.17992495, 0.012766761, -1400494.5, -21096.867, 0.27836236, 9.99951, 9.999112 
2.3778827e+3, 1.6923758e+2, -1218254.1, -1034755.25, -76489.29, -0.0172956, -0.11380394, -1007053.56, 274401.53, 0.19862524, 9.999138, 10.001899 
2.3775376e+3, 1.7923182e+2, -1534835.5, -1401864.6, -128127.375, 0.14022611, -0.39745513, -1324000.0, -140491.47, 0.1461588, 9.997363, 9.999309 
2.3771901e+3, 1.8922831e+2, -1088510.0, -1116248.8, -40663.504, 0.014803557, -0.08863545, -1059415.6, 26126.244, 0.11113541, 9.999865, 9.999277 
2.376844e+3, 1.992228e+2, -798993.7, -1056562.5, -75533.555, 0.010691195, -0.06868529, -778477.25, 209117.64, 0.08556882, 10.00163, 9.998333 
2.376501e+3, 2.0921431e+2, -730881.3, -806281.06, -49825.11, 0.29651597, -0.27916065, -706100.56, 183574.58, 0.065839775, 10.000798, 9.999668 
2.3761553e+3, 2.1920548e+2, -1154857.3, -1114681.4, -11432.773, 0.3243674, -0.60491514, -1111655.8, -319896.75, 0.050802168, 9.997623, 9.998495 
2.3758103e+3, 2.292021e+2, -979245.56, -687046.8, 89656.75, 0.041471582, -0.39398032, -661730.4, 32062.385, 0.03888462, 9.99706, 10.000913 
2.375468e+3, 2.3919867e+2, -1209999.1, -958740.44, 465.90872, -0.04343307, -0.24688753, -958739.56, -362913.03, 0.028499532, 9.995583, 9.999211 
2.3751213e+3, 2.4919413e+2, -559509.5, -244200.23, 6632.5522, -0.1757188, -0.26184464, -244060.78, 253803.84, 0.019239584, 9.997996, 10.002208 
2.3747769e+3, 2.5918773e+2, -772239.8, -845807.3, 129346.52, -0.2735602, -0.4199413, -674548.4, -274627.34, 0.01143259, 9.99822, 9.99731 
2.37443e+3, 2.6918122e+2, -439258.5, -490764.6, -168396.89, -0.073304, -0.2865524, -294656.8, 7330.4917, 0.005417436, 9.999391, 9.998373 
2.3740844e+3, 2.7917394e+2, -790599.0, -719780.6, -59070.293, -0.0395184, -0.3449466, -686319.56, -482257.88, 0.0017240121, 9.996798, 9.997436 
2.3737332e+3, 2.891664e+2, -43019.8, 129798.42, -76330.92, -0.35563716, -0.5019817, 158684.34, 264813.03, 0.0009965353, 9.99948, 10.0012045 
2.3733877e+3, 2.991646e+2, -319086.78, -250631.27, 300619.56, -0.340453, -0.49134123, 17702.816, 25842.297, 0.0037784507, 9.998202, 9.999042 
2.3730476e+3, 3.0915648e+2, 196331.19, 78934.01, -36011.113, -0.21744531, -0.3596091, 206497.14, 206497.14, 0.011109927, 10.0017185, 9.999509 
2.3889145e+3, 1.3960062e+2, -1397284.5, -1502947.8, 242306.1, 0.2960295, 0.37861145, -1202117.3, 369790.3, 0.42782903, 10.001935, 9.999541 
2.3885626e+3, 1.4959575e+2, -1184186.5, -1170835.0, 23375.678, -0.5495453, 0.31753954, -1153200.5, 320749.06, 0.29985446, 10.001439, 10.001782 
2.3882207e+3, 1.5958762e+2, -1319612.6, -1347823.6, -7911.776, -0.38283956, -0.10086906, -1317545.3, 58479.008, 0.19614406, 9.999805, 10.000028 
2.3878762e+3, 1.6958107e+2, -1070942.5, -1002313.7, -79222.82, -0.13145813, -0.2783042, -950293.06, 327791.13, 0.12585048, 10.0002775, 10.0015745 
2.3875313e+3, 1.7957515e+2, -1018053.7, -1088948.5, -61513.23, 0.097671054, -0.4766086, -982505.4, 197633.34, 0.083471425, 10.000597, 10.000017 
2.387186e+3, 1.8957122e+2, -935018.25, -960827.06, 14386.882, 0.13256922, -0.29368314, -928596.4, 153581.67, 0.057587944, 10.000517, 10.000115 
2.3868409e+3, 1.9956647e+2, -946415.7, -1080899.3, -839.73334, 0.13202581, -0.2083172, -946410.44, 37815.26, 0.03970386, 10.000096, 9.9989395 
2.3864946e+3, 2.0955734e+2, -737655.3, -834312.0, -44958.535, 0.15644011, -0.48861778, -719976.8, 166337.13, 0.026570952, 10.000651, 9.999584 
2.3861481e+3, 2.1954784e+2, -584148.8, -767158.5, 26352.303, 0.17120904, -0.8339638, -580429.8, 207975.5, 0.017417854, 10.001177, 9.999189 
2.385805e+3, 2.2954634e+2, -462051.88, -414510.38, 140509.08, 0.15797234, -0.46371976, -295775.5, 394644.75, 0.011141793, 10.00052, 10.00115 
2.3854628e+3, 2.3954533e+2, -552710.94, -543083.06, 142593.83, 0.17362821, -0.056280192, -405221.94, 187208.39, 0.0065593217, 9.99967, 10.000069 
2.3851155e+3, 2.4954028e+2, -331367.94, -115454.75, 24730.285, -0.117570125, -0.15414308, -112658.41, 381816.03, 0.0032030866, 9.999454, 10.002369 
2.384769e+3, 2.595337e+2, -665647.6, -691572.8, -13516.175, -0.39808926, -0.3670207, -659882.8, -263349.78, 0.0011282732, 9.998479, 9.998209 
2.3844232e+3, 2.6952586e+2, -484260.22, -627901.7, -133448.06, -0.14283055, -0.33806157, -404533.6, -105923.12, 0.00023273825, 9.999517, 9.997393 
2.3840784e+3, 2.795171e+2, -349293.9, -342576.8, 76451.32, 0.10431358, -0.4618401, -269410.3, -68713.375, 0.000018977813, 9.99899, 9.998972 
2.3837283e+3, 2.8951156e+2, 112164.4, 438994.7, -55736.715, -0.21870849, -0.6375825, 448238.44, 550981.6, 0.000039610317, 9.99948, 10.003309 
2.383384e+3, 2.995121e+2, -415953.03, -513025.72, 45918.438, 0.040932756, -0.40389693, -397674.13, -392944.0, 0.00031053094, 9.998402, 9.997104 
2.383043e+3, 3.094949e+2, -221718.47, -505392.88, -202345.05, -0.16188517, -0.8531253, -116449.805, -116449.805, 0.0010092406, 10.000664, 9.995781 
2.3992588e+3, 1.2994011e+2, -1207643.5, -1316429.8, 59925.727, 0.0193391, -0.31901857, -1181106.4, 485461.25, 0.4904385, 10.005248, 10.001185 
2.3989196e+3, 1.3993986e+2, -1517678.1, -1547551.3, -54084.62, 1.0004679, -0.12810169, -1476505.5, 92065.67, 0.36336115, 10.000318, 9.999579 
2.3985673e+3, 1.4993526e+2, -1322317.4, -1165089.4, 52500.348, 0.368814, -0.19144024, -1149170.5, 321442.72, 0.24041095, 9.999943, 10.00212 
2.3982136e+3, 1.5992983e+2, -1512533.3, -1407001.9, -2569.0117, -0.48965856, -0.4188466, -1406939.4, -34276.61, 0.14389461, 9.998527, 10.000045 
2.397869e+3, 1.6992623e+2, -1131642.8, -1036244.8, -10650.69, -0.31855506, -0.30029857, -1035070.2, 239623.31, 0.08188297, 10.00002, 10.001268 
2.3975256e+3, 1.7992148e+2, -1125375.9, -1202460.8, -46093.76, 0.0326849, -0.33579051, -1103833.8, 72902.52, 0.047678713, 10.000148, 9.999416 
2.3971803e+3, 1.8991563e+2, -990147.75, -917877.4, 6091.7827, 0.10266686, -0.37933025, -917367.5, 161428.25, 0.028905774, 9.999922, 10.000633 
2.3968345e+3, 1.9991022e+2, -1246146.9, -1274098.3, -26161.361, 0.07320727, -0.41060123, -1230462.3, -249610.2, 0.017015342, 9.998444, 9.998375 
2.3964868e+3, 2.099053e+2, -928357.6, -935128.44, -19974.729, -0.07996711, -0.24309562, -911483.44, -28579.26, 0.00915297, 9.999557, 9.999347 
2.3961407e+3, 2.1989979e+2, -892086.4, -949839.06, 21941.986, -0.10221574, -0.17602223, -884695.75, -99734.55, 0.0045936005, 9.999365, 9.998794 
2.3957978e+3, 2.2989517e+2, -564524.5, -397693.28, 102482.32, -0.010878273, -0.16915073, -348969.63, 338033.34, 0.0022051786, 9.999632, 10.00164 
2.3954551e+3, 2.398897e+2, -855233.2, -799384.4, 86135.85, -0.0032307222, -0.25273454, -736759.56, -147706.69, 0.0009056362, 9.998183, 9.99902 
2.395109e+3, 2.4988455e+2, -568158.25, -403545.63, -23075.674, -0.11687611, -0.22406866, -400372.03, 90730.56, 0.00023937336, 9.998812, 10.000575 
2.3947641e+3, 2.598787e+2, -870114.7, -811005.25, -64041.94, -0.2079288, -0.26622057, -770027.4, -376868.53, 0.000025130046, 9.997256, 9.997987 
2.3944187e+3, 2.6987195e+2, -289748.44, -222937.61, -92269.13, 0.017575692, -0.31219867, -158212.94, 137007.75, 0.00000030344088, 9.999601, 10.000107 
2.3940735e+3, 2.798652e+2, -383364.2, -317138.44, 62655.05, 0.15766868, -0.5123104, -279384.4, -82101.57, 0.0000000068303647, 9.998634, 9.999344 
2.3937234e+3, 2.898579e+2, -125200.57, 1833.989, -32252.93, -0.14061652, -0.6798099, 9553.612, 108905.555, 0.0000039429096, 9.999352, 10.00033 
2.3933762e+3, 2.9985428e+2, -652115.0, -812601.56, 105416.29, -0.40634385, -0.49272662, -599875.94, -598490.25, 0.00006190627, 9.997643, 9.995395 
2.3930398e+3, 3.0984694e+2, 246156.05, 220715.42, 278313.97, -0.4113187, -0.26629743, 512040.22, 512040.22, 0.0002690841, 10.0015135, 10.000374 
2.4092457e+3, 1.30289e+2, -1707356.3, -1635568.1, -150080.97, -0.9967601, -0.33021915, -1517148.6, 145987.52, 0.44510007, 9.999228, 10.000529 
2.4089088e+3, 1.4028563e+2, -1719297.1, -1635680.3, -71320.18, 0.46648416, -0.23998277, -1594817.5, -29641.256, 0.31930807, 9.998367, 9.999991 
2.4085608e+3, 1.5028158e+2, -1337331.9, -1133794.5, 73998.586, 0.2748126, -0.27854967, -1109735.4, 357475.44, 0.20041417, 9.999445, 10.002564 
2.4082106e+3, 1.6027637e+2, -1264888.4, -1273597.3, 85927.2, -0.25381082, -0.47289684, -1183205.4, 186050.69, 0.110025235, 10.00013, 10.000295 
2.4078652e+3, 1.7027164e+2, -912802.6, -1013745.44, 54284.297, -0.23006926, -0.41095015, -889151.5, 382149.1, 0.054970514, 10.001877, 10.000541 
2.4075206e+3, 1.8026659e+2, -798333.3, -1078202.6, -36304.008, -0.11246828, -0.3773208, -793700.7, 379649.13, 0.027314784, 10.002442, 9.999216 
2.4071746e+3, 1.9026148e+2, -884580.44, -958049.25, -82122.086, 0.027678182, -0.29128844, -831351.25, 244055.25, 0.013986388, 10.000922, 9.999921 
2.4068281e+3, 2.0025624e+2, -1077966.1, -1101144.9, -70093.09, 0.07614702, -0.23583171, -1018510.7, -41046.27, 0.006556314, 9.999103, 9.999266 
2.4064815e+3, 2.1025187e+2, -770071.8, -717897.0, 11587.568, -0.043219965, -0.13343523, -715439.25, 164069.67, 0.002469395, 10.000039, 10.000621 
2.4061352e+3, 2.2024718e+2, -566915.3, -707945.94, 114827.6, -0.16230579, -0.05309753, -502679.8, 278875.88, 0.00078321603, 10.001074, 9.999665 
2.4057914e+3, 2.302411e+2, -444761.13, -432680.8, 96460.16, -0.117290646, -0.1666708, -342071.88, 341540.28, 0.00023610769, 10.000626, 10.001003 
2.4054486e+3, 2.402342e+2, -617064.25, -713099.0, 57617.094, -0.06897716, -0.32589847, -590078.94, -4402.163, 0.000047296035, 9.99973, 9.998915 
2.4051034e+3, 2.502281e+2, -526975.1, -495885.22, -10473.179, -0.029855609, -0.31009084, -492686.28, -4948.474, 0.0000020598873, 9.999506, 9.999651 
2.4047595e+3, 2.602222e+2, -540353.5, -514560.4, 1428.1931, 0.031889964, -0.29709223, -514481.56, -124684.516, 0.0, 9.998843, 9.999261 
2.4044135e+3, 2.7021754e+2, -279355.5, -61085.902, -95670.586, 0.13845375, -0.27256358, -25088.816, 266749.88, 0.0, 9.998974, 10.0015335 
2.4040674e+3, 2.8021276e+2, -335839.1, -263448.9, -73490.125, 0.20121479, -0.35678375, -217724.0, -23843.242, 0.0, 9.998703, 9.999697 
2.4037182e+3, 2.9020417e+2, 95359.26, -83192.09, -88019.14, -0.11739636, -0.5647264, 131453.1, 227416.8, 0.00000028208012, 10.001558, 9.998744 
2.4033718e+3, 3.0019897e+2, 891.4457, -423128.88, 230444.94, -0.30282447, -0.38147998, 102015.73, 102015.73, 0.000017512673, 10.001667, 9.996173 
2.4030383e+3, 3.1019425e+2, 96038.08, 396533.88, 142486.73, -0.16043723, -0.07304241, 453353.38, 453353.38, 0.0001005609, 9.999354, 10.002695 
2.4192454e+3, 1.3062993e+2, -1834282.1, -1747753.0, -155446.3, -0.32812035, -0.8926614, -1629662.8, 30123.295, 0.41411307, 9.998515, 9.999583 
2.4188945e+3, 1.4063251e+2, -1681574.5, -1714260.4, -115365.85, -0.2181482, -0.19650802, -1581399.8, -19627.975, 0.28877336, 9.999093, 9.999066 
2.4185525e+3, 1.5062918e+2, -1265185.8, -1034211.25, 72860.03, 0.07328362, -0.21659991, -1013148.5, 450647.8, 0.17287979, 9.999693, 10.003191 
2.4182099e+3, 1.6062395e+2, -1441338.1, -1483115.9, 48652.484, 0.23073734, -0.43925947, -1409279.8, -43440.426, 0.08747846, 9.999358, 9.9992075 
2.4178633e+3, 1.7061728e+2, -1133324.5, -1199321.0, 64152.773, -0.017353082, -0.49409312, -1094180.9, 173725.3, 0.038149297, 10.000722, 9.999662 
2.4175164e+3, 1.806113e+2, -1190171.5, -1413520.3, -82009.92, -0.186188, -0.47638783, -1163293.4, 6675.7637, 0.01570925, 10.000442, 9.997793 
2.4171692e+3, 1.9060768e+2, -1071703.4, -1159782.8, -141859.98, 0.010822961, -0.15332745, -967204.3, 104812.87, 0.0064830934, 10.000184, 9.998812 
2.4168228e+3, 2.006034e+2, -1227124.9, -1187814.8, -65488.742, 0.22048222, 0.06105179, -1139095.1, -165025.52, 0.0021827125, 9.998241, 9.999062 
2.4164768e+3, 2.1059728e+2, -728420.06, -515865.53, 54287.984, 0.07885288, -0.14969644, -502802.75, 373322.06, 0.00044835047, 9.999578, 10.002198 
2.416131e+3, 2.205911e+2, -868254.06, -902441.1, 79188.33, -0.08948145, -0.3552752, -804335.4, -26155.316, 0.000068581576, 9.999366, 9.999122 
2.415786e+3, 2.3058593e+2, -649535.06, -638704.8, 35531.363, -0.15107487, -0.2868624, -608178.3, 72052.82, 0.0000096515805, 9.999942, 9.999798 
2.4154422e+3, 2.4057986e+2, -924012.25, -983053.3, -8678.346, -0.11248944, -0.27535126, -922763.06, -340471.6, 0.00000040342232, 9.998344, 9.997687 
2.415098e+3, 2.505723e+2, -605472.7, -543905.2, -32557.838, 0.041110594, -0.39017865, -529882.1, -45515.223, 0.0, 9.999119, 9.999453 
2.4147537e+3, 2.6056543e+2, -785391.94, -714292.5, -57208.45, 0.12157673, -0.47475278, -682488.06, -296052.3, 0.0, 9.997621, 9.99849 
2.4144058e+3, 2.705633e+2, -432722.9, -196219.36, -115732.89, 0.053827003, -0.16260159, -149009.4, 139449.45, 0.0, 9.998317, 10.000853 
2.4140583e+3, 2.8056034e+2, -630890.56, -547391.6, -37071.664, -0.0971137, 0.0238851, -533308.1, -342820.13, 0.0, 9.99738, 9.998386 
2.4137126e+3, 2.9055172e+2, 154866.88, 57861.465, 41960.395, -0.34293765, -0.20952511, 170498.3, 263064.06, 0.0000000009564638, 10.001644, 9.999599 
2.413371e+3, 3.0054462e+2, -88258.234, -489892.56, 211476.83, -0.39488906, -0.3131425, 2557.9033, 2557.9033, 0.0000015325257, 10.001294, 9.995882 
2.4130322e+3, 3.105366e+2, -301743.22, -153449.05, -78735.61, -0.37836334, -0.28806368, -119443.06, -119443.06, 0.000021924814, 9.998127, 9.999544 
2.4292408e+3, 1.3098288e+2, -1670031.9, -1896651.8, -27923.313, -0.31550044, -0.55990154, -1666642.0, -10315.179, 0.3927152, 10.000501, 9.997584 
2.4288924e+3, 1.4097893e+2, -1303406.3, -1599895.5, -8302.408, -0.12775236, -0.23606989, -1303174.0, 255199.36, 0.26710206, 10.002731, 9.998134 
2.4285483e+3, 1.5097259e+2, -1111564.5, -1159744.9, -27076.275, 0.07317694, -0.3653745, -1099413.0, 361016.9, 0.15331793, 10.001823, 10.001171 
2.4282044e+3, 1.6096608e+2, -1367426.8, -1422489.9, -96023.47, 0.17833245, -0.5412085, -1295065.9, 67421.96, 0.07196278, 9.999664, 9.99953 
2.4278572e+3, 1.709608e+2, -1302944.8, -1203499.1, -42825.18, -0.053964786, -0.5348428, -1187599.1, 76941.14, 0.027363949, 9.999154, 10.000392 
2.4275097e+3, 1.809556e+2, -1343307.9, -1341041.1, -99080.375, -0.27079168, -0.5101276, -1243087.6, -76493.43, 0.009079448, 9.998669, 9.999134 
2.4271636e+3, 1.9095196e+2, -970478.9, -985937.3, -80010.17, -0.02125607, -0.29990593, -897825.44, 170812.55, 0.002868925, 10.00023, 10.000023 
2.4268174e+3, 2.0094782e+2, -794631.3, -968738.06, 62384.47, 0.19674927, -0.12451281, -774586.06, 196100.36, 0.00059867656, 10.00101, 9.99927 
2.4264713e+3, 2.109409e+2, -770492.06, -729118.7, 25607.893, 0.10043161, -0.2803362, -716885.75, 155868.56, 0.000045539302, 9.999925, 10.000664 
2.4261257e+3, 2.2093432e+2, -936752.1, -927416.8, -41388.246, -0.026124494, -0.40378335, -890433.8, -115615.5, 0.0000022398012, 9.998729, 9.999276 
2.4257815e+3, 2.3093028e+2, -622598.75, -611379.44, -26378.297, -0.044030845, -0.23982401, -590020.94, 86840.41, 0.000000052409952, 10.0000105, 9.999994 
2.4254377e+3, 2.409256e+2, -458588.22, -634923.9, -23567.576, -0.013952268, -0.10700468, -455492.72, 123417.555, 0.0, 10.000939, 9.998821 
2.4250923e+3, 2.5091788e+2, -389503.28, -423097.03, -49463.883, 0.06039629, -0.27253586, -354062.13, 126923.73, 0.0, 10.000434, 9.9997 
2.424747e+3, 2.6091063e+2, -433526.53, -496013.38, -51316.75, 0.10557152, -0.38283783, -404690.34, -21633.48, 0.0, 9.999675, 9.999016 
2.4243985e+3, 2.7090788e+2, -114779.9, -140340.72, -129292.08, -0.053005777, -0.08949873, 2361.902, 287449.38, 0.0, 10.000767, 10.000106 
2.4240515e+3, 2.809048e+2, -80372.66, -252079.08, -13556.893, -0.16624823, 0.16308677, -79308.875, 107810.71, 0.0, 10.000892, 9.998743 
2.423709e+3, 2.9089642e+2, 11551.52, 2855.4294, 31568.799, -0.28427112, -0.064429216, 39070.3, 128264.38, 0.0, 10.000418, 9.999902 
2.4233691e+3, 3.008883e+2, -329816.38, -495454.25, 71422.336, -0.20077735, -0.30167994, -303272.94, -303272.94, 0.000000086511356, 9.998996, 9.996997 
2.4230292e+3, 3.108809e+2, -77437.32, -169957.22, -465127.3, -0.023993619, -0.17609374, 343724.8, 343724.8, 0.0000026170453, 9.999971, 9.998652 
2.4395832e+3, 1.21341534e+2, -1887152.9, -1690711.6, 580205.06, 0.053971034, -0.40225878, -1200472.3, 550341.1, 0.49457207, 9.998853, 10.002576 
2.439236e+3, 1.3133638e+2, -1857503.3, -2202125.0, -89927.0, -0.28454778, -0.08992502, -1835448.8, -182584.84, 0.3775347, 10.000481, 9.995467 
2.4388933e+3, 1.4132425e+2, -1783638.8, -2134428.5, -78459.11, 0.31193537, -0.35711232, -1766890.0, -211903.53, 0.25111946, 10.00008, 9.995688 
2.438545e+3, 1.5131512e+2, -1474851.1, -1615146.5, -85850.33, 0.17662449, -0.5232435, -1434134.1, 22940.28, 0.13882844, 10.000357, 9.998302 
2.438197e+3, 1.6130707e+2, -1560476.3, -1574618.4, -105480.03, 0.079005875, -0.6373811, -1461830.5, -102678.914, 0.060861234, 9.998715, 9.9988785 
2.4378501e+3, 1.7130348e+2, -1266729.5, -1050627.9, -48230.785, -0.10138517, -0.5781528, -1040352.06, 220833.6, 0.02025213, 9.998888, 10.001541 
2.4375032e+3, 1.8129984e+2, -1353301.1, -1208435.8, -92631.625, -0.21761952, -0.5235102, -1163279.6, -59.24013, 0.0052852775, 9.998103, 10.000327 
2.4371578e+3, 1.9129583e+2, -886832.2, -712850.3, -72971.375, -0.036417123, -0.55731714, -686297.25, 378961.56, 0.0012089658, 9.999908, 10.002032 
2.4368122e+3, 2.012913e+2, -1080903.4, -1274352.0, -12922.476, 0.17785934, -0.52079916, -1080044.0, -112738.516, 0.00012403581, 9.999956, 9.997637 
2.4364653e+3, 2.1128447e+2, -1060643.5, -1202676.0, -55630.87, 0.107119806, -0.41883722, -1041448.3, -172064.94, 0.000001917801, 9.999566, 9.997465 
2.4361196e+3, 2.2127803e+2, -1200219.6, -1201370.1, -33485.973, 0.06251333, -0.28325623, -1167304.0, -395847.3, 0.000000018702426, 9.997704, 9.997833 
2.4357773e+3, 2.3127499e+2, -614585.44, -505835.63, 29554.756, 0.12035935, -0.08673537, -498322.63, 175170.3, 0.0, 9.999677, 10.000823 
2.4354343e+3, 2.412714e+2, -669504.5, -730045.1, -44063.207, 0.135966, 0.064213395, -646315.9, -70783.59, 0.0, 9.999565, 9.998819 
2.4350862e+3, 2.5126556e+2, -444154.34, -387672.7, -86584.17, -0.013285417, 0.031464387, -324840.13, 152747.42, 0.0, 9.9999485, 10.00012 
2.4347383e+3, 2.61259e+2, -706249.3, -779406.44, -50264.42, -0.17568585, -0.015160563, -680662.75, -301013.06, 0.0, 9.998598, 9.997573 
2.4343915e+3, 2.7125186e+2, -231708.36, -323115.22, -86733.45, -0.27502415, -0.05053904, -179373.55, 102344.43, 0.0, 10.000602, 9.998895 
2.4340469e+3, 2.8124467e+2, -313687.22, -521184.84, -62311.188, -0.2471534, -0.1045402, -296413.3, -112626.266, 0.0, 10.000068, 9.997301 
2.4337065e+3, 2.9123616e+2, -245977.6, -257371.66, -35137.285, -0.004887122, -0.26240483, -216078.48, -130210.336, 0.0, 9.999341, 9.998604 
2.4333654e+3, 3.0122888e+2, -704725.9, -602307.44, 78095.73, -0.034836978, -0.32538572, -560128.6, -560128.6, 0.0, 9.996231, 9.997591 
2.4330254e+3, 3.1122452e+2, 100344.92, 284299.66, 39880.88, -0.16513444, -0.2602245, 292573.6, 292573.6, 0.00000012758136, 9.999823, 10.001733 
2.4495794e+3, 1.216811e+2, -1614951.1, -1459087.8, 386336.16, 0.008059654, -0.52632314, -1142901.5, 604590.3, 0.48541683, 9.999911, 10.00404 
2.449233e+3, 1.3167962e+2, -1769171.4, -2021009.5, -315335.88, -0.11730327, 0.014448184, -1555543.3, 93960.61, 0.3659335, 10.000535, 9.996924 
2.4488865e+3, 1.4166473e+2, -1800156.9, -1928267.5, -160007.25, 0.19314277, -0.6779921, -1691859.6, -140209.1, 0.23856215, 9.998928, 9.997696 
2.4485381e+3, 1.5166104e+2, -1484000.4, -1459640.6, -27964.285, 0.060709186, -0.45795688, -1441318.9, 12369.333, 0.1275105, 9.999475, 9.999851 
2.4481905e+3, 1.6165672e+2, -1408654.3, -1446506.6, 71006.69, -0.03963182, -0.2912579, -1354094.8, 1636.814, 0.052560914, 9.999417, 9.9994335 
2.4478443e+3, 1.7165063e+2, -1167498.3, -1094948.6, 57482.72, -0.08421428, -0.40564495, -1063251.9, 194538.4, 0.01541553, 9.999817, 10.000859 
2.447498e+3, 1.8164504e+2, -1128169.0, -1136622.3, -40881.32, -0.1381802, -0.4585192, -1091296.4, 68547.98, 0.0031067657, 9.999693, 10.00009 
2.4471526e+3, 1.9164118e+2, -824056.1, -792310.8, -133688.05, -0.01902165, -0.3941829, -673556.44, 388325.5, 0.00048131414, 10.000718, 10.001164 
2.4468072e+3, 2.016364e+2, -846295.5, -1112520.1, -174653.19, 0.094047174, -0.3268671, -759811.3, 204118.78, 0.000015932997, 10.00126, 9.998117 
2.4464603e+3, 2.1162929e+2, -744314.6, -1011428.75, -120996.06, 0.08314856, -0.29533833, -697656.44, 168351.45, 0.0000000054715246, 10.001527, 9.997857 
2.4461143e+3, 2.2162266e+2, -603701.7, -833933.25, 56316.64, 0.06032991, -0.19754879, -590664.44, 177416.78, 0.0, 10.001305, 9.998648 
2.4457717e+3, 2.3161872e+2, -523761.44, -497968.66, 61694.324, 0.08380255, -0.0755244, -447837.22, 222288.94, 0.0, 10.000315, 10.000643 
2.4454282e+3, 2.416148e+2, -615211.1, -618023.8, -75980.336, 0.07311222, 0.05842349, -540624.1, 31544.445, 0.0, 9.999358, 9.999745 
2.4450801e+3, 2.516102e+2, -377623.7, -313215.9, -106717.07, -0.05291467, 0.1013822, -233949.52, 240262.05, 0.0, 10.000025, 10.000708 
2.4447325e+3, 2.6160452e+2, -406929.1, -572202.2, -32444.117, -0.19706443, 0.10912869, -400788.28, -24524.195, 0.0, 10.000222, 9.998259 
2.4443865e+3, 2.715947e+2, -351129.06, -450313.1, -24360.775, -0.25959954, -0.15666042, -345468.8, -67113.94, 0.0, 9.999973, 9.99838 
2.4440427e+3, 2.815853e+2, -295622.6, -529584.8, 34091.91, -0.1646887, -0.35752538, -290756.1, -110312.54, 0.0, 10.000093, 9.99726 
2.4437028e+3, 2.9157785e+2, 97375.65, -176390.5, 39924.21, 0.14690116, -0.3435643, 103079.1, 185599.44, 0.0, 10.001869, 9.998013 
2.4433623e+3, 3.0157185e+2, 77352.64, -112237.5, 179555.9, 0.22075498, -0.23667826, 185600.5, 185600.5, 0.0, 10.000885, 9.998765 
2.4430193e+3, 3.1156918e+2, -117158.86, 433159.44, 58082.543, -0.20564863, -0.061261628, 439222.88, 439222.88, 0.000000000000427524, 9.997, 10.004178 
2.4595754e+3, 1.2202161e+2, -1938433.1, -1644466.5, 474911.97, 0.08870087, -0.3536442, -1294312.5, 449849.06, 0.4772382, 9.997523, 10.003399 
2.4592297e+3, 1.320206e+2, -1822184.3, -1772371.0, -320612.16, 0.14632732, 0.01630212, -1475699.5, 170467.14, 0.3557266, 9.998982, 9.999582 
2.4588786e+3, 1.4200532e+2, -1689403.4, -1610962.5, -145780.97, 0.07931232, -0.9496102, -1499218.3, 49096.8, 0.22774403, 9.99867, 10.000045 
2.458531e+3, 1.5200832e+2, -1380741.5, -1153207.4, -50011.42, -0.004153154, -0.32703647, -1142700.3, 307589.2, 0.11809006, 9.999155, 10.002312 
2.4581844e+3, 1.620088e+2, -1581614.5, -1591364.6, 8659.677, -0.0011176494, 0.17622115, -1576551.9, -224264.19, 0.04605504, 9.998611, 9.998799 
2.4578391e+3, 1.7199956e+2, -1291827.9, -1303685.4, 11479.007, 0.010605894, -0.15817033, -1284837.0, -30458.18, 0.012013259, 9.999721, 9.9994 
2.4574938e+3, 1.819914e+2, -1362138.0, -1512085.0, -63139.863, 0.034659263, -0.30474958, -1339092.8, -182632.67, 0.0018483637, 9.999343, 9.997657 
2.457148e+3, 1.9198734e+2, -1030532.4, -1146779.5, -103627.695, 0.035068218, -0.056437682, -969840.75, 88663.85, 0.00018026956, 10.000455, 9.998815 
2.4568023e+3, 2.0198248e+2, -1025997.44, -1179460.9, -157905.66, 0.05744224, 0.14186278, -927167.4, 33387.9, 0.0000007906511, 10.000076, 9.998221 
2.4564554e+3, 2.1197483e+2, -682339.3, -745734.5, -126270.76, 0.04511812, -0.074019015, -583848.44, 278780.16, 0.0, 10.00104, 9.999907 
2.4561094e+3, 2.219674e+2, -861547.75, -1000179.9, -5085.286, 0.014499793, -0.18732327, -861361.44, -96660.2, 0.0, 9.999934, 9.998141 
2.4557641e+3, 2.3196183e+2, -724655.06, -682646.7, -1042.9767, -0.100784674, -0.15761298, -682620.75, -15861.733, 0.0, 9.999584, 9.999614 
2.4554195e+3, 2.4195686e+2, -881273.9, -793537.94, -96933.42, -0.1515351, -0.059308358, -731008.1, -162197.95, 0.0, 9.997923, 9.99919 
2.455074e+3, 2.5195247e+2, -426656.38, -277022.16, -95599.24, -0.08270891, -0.05628199, -230443.98, 240407.45, 0.0, 9.999492, 10.001178 
2.4547285e+3, 2.6194674e+2, -647759.4, -715233.06, -61626.07, -0.05700945, -0.086420126, -611239.94, -238336.13, 0.0, 9.998806, 9.997935 
2.4543831e+3, 2.7193663e+2, -426296.9, -450413.84, -33066.06, -0.041885424, -0.43227613, -403159.2, -128163.77, 0.0, 9.999413, 9.998595 
2.454039e+3, 2.81928e+2, -540361.7, -701866.56, 108884.266, -0.03978615, -0.5436077, -485553.28, -308477.53, 0.0, 9.998813, 9.996669 
2.4536978e+3, 2.9192364e+2, 39407.793, -208796.44, 153148.95, -0.0817616, -0.23949176, 112424.766, 191552.0, 0.0, 10.001615, 9.997864 
2.4533574e+3, 3.0191728e+2, -367603.47, -633596.4, 36334.355, 0.025143163, -0.04072762, -362729.53, -362729.53, 0.0, 9.999337, 9.995899 
2.453009e+3, 3.119111e+2, -768470.06, -56612.348, -50658.586, -0.47408062, -0.029604228, -53025.36, -53025.36, 0.0, 9.993597, 10.002332 
2.4695665e+3, 1.2236327e+2, -2001942.9, -1650136.0, 305399.0, -0.14651206, -0.13819988, -1473604.3, 267216.84, 0.46785262, 9.996549, 10.0032015 
2.4692231e+3, 1.323621e+2, -1646276.8, -1395143.8, -168471.05, 0.18540455, -0.048477307, -1310592.6, 332234.88, 0.34520847, 9.998392, 10.003087 
2.4688733e+3, 1.4235385e+2, -1502626.1, -1442475.8, -76281.984, 0.091489345, -0.5517375, -1390554.3, 154351.31, 0.21743059, 9.999507, 10.000946 
2.4685244e+3, 1.5235354e+2, -1340447.8, -1173825.8, -102628.336, -0.057600196, -0.22857608, -1124950.1, 321960.16, 0.109704144, 9.999642, 10.001892 
2.4681777e+3, 1.6235167e+2, -1403604.1, -1483715.5, -50840.543, -0.1172739, 0.06477303, -1378935.6, -30005.121, 0.040704507, 9.999674, 9.999029 
2.467834e+3, 1.7234313e+2, -1049300.5, -1226163.5, -28510.916, -0.050365474, -0.16541767, -1044818.06, 206197.2, 0.00953522, 10.001504, 9.99914 
2.4674892e+3, 1.8233526e+2, -901683.2, -1186644.1, -88563.04, -0.022082377, -0.27546683, -876401.6, 276691.28, 0.0011160366, 10.001984, 9.9986315 
2.4671431e+3, 1.9233002e+2, -897374.7, -1021773.6, -37848.266, 0.019678367, -0.19442138, -886764.4, 168379.05, 0.00006263998, 10.001049, 9.999423 
2.466797e+3, 2.023245e+2, -952035.56, -1109759.6, 18658.781, 0.022743184, -0.07603809, -949858.3, 7339.2983, 0.0000000031066179, 10.000322, 9.998609 
2.466451e+3, 2.1231721e+2, -569051.9, -756943.9, -58264.023, -0.004702212, -0.19032072, -552451.3, 306817.9, 0.0, 10.001965, 9.999458 
2.4661045e+3, 2.2231017e+2, -450605.22, -706130.4, -92548.1, -0.07129217, -0.24916326, -420607.13, 340730.94, 0.0, 10.002199, 9.999117 
2.4657579e+3, 2.3230453e+2, -661144.44, -613078.4, -51421.547, -0.16177534, -0.26875085, -580350.8, 83042.39, 0.0, 9.999715, 10.000116 
2.4654122e+3, 2.4229926e+2, -818663.3, -731716.75, -16952.469, -0.18216251, -0.20955686, -728528.4, -163082.61, 0.0, 9.998081, 9.999563 
2.4650681e+3, 2.5229445e+2, -509195.6, -387947.38, -84677.625, -0.030953243, -0.1859355, -344429.38, 123065.22, 0.0, 9.999122, 10.000636 
2.4647239e+3, 2.622885e+2, -385151.78, -523383.56, -105577.61, 0.06504924, -0.20785874, -328078.75, 41473.055, 0.0, 10.000144, 9.998641 
2.4643792e+3, 2.7227944e+2, -51588.98, -243237.3, -108048.414, 0.076320045, -0.4814389, -2994.5457, 268638.78, 0.0, 10.00172, 9.99897 
2.4640349e+3, 2.822723e+2, -4978.298, -355010.78, 36272.8, 0.005688335, -0.4882554, -1258.9781, 172441.33, 0.0, 10.001985, 9.997538 
2.4636914e+3, 2.922687e+2, -91036.54, -272496.9, 70533.664, -0.28277382, -0.111069486, -66845.164, 8900.394, 0.0, 10.000587, 9.998005 
2.4633521e+3, 3.022616e+2, -325574.4, -681233.2, -57838.492, -0.017121935, 0.053167336, -316404.9, -316404.9, 0.0, 9.999757, 9.995413 
2.4630015e+3, 3.122504e+2, 272987.75, 236441.84, -245764.28, -0.42945367, -0.22291757, 501157.47, 501157.47, 0.0, 10.001312, 10.000765 
2.4795593e+3, 1.227026e+2, -2185961.8, -1688218.3, 210383.64, -0.020494552, -0.2908111, -1611209.0, 126294.06, 0.45571712, 9.995046, 10.003091 
2.479216e+3, 1.3270457e+2, -1600137.4, -1196063.9, -100566.62, 0.22628947, -0.11479721, -1172418.4, 467060.7, 0.33319858, 9.997495, 10.005421 
2.478869e+3, 1.4270344e+2, -1669376.5, -1555993.5, -137884.97, 0.2635852, -0.03897652, -1463600.5, 77886.016, 0.20679392, 9.998637, 10.000459 
2.4785183e+3, 1.5269761e+2, -1414996.6, -1331435.3, -166324.69, -0.060982686, -0.18348186, -1201723.9, 241818.31, 0.10179194, 9.999732, 10.000662 
2.4781714e+3, 1.6269164e+2, -1510862.4, -1587532.4, -55754.168, -0.15509388, -0.2044418, -1481535.8, -135935.4, 0.036105353, 9.9993, 9.998473 
2.4778292e+3, 1.7268515e+2, -1169893.9, -1259228.8, -5859.71, -0.09676006, -0.25884393, -1169511.3, 78154.4, 0.0076701324, 10.000708, 9.999231 
2.4774851e+3, 1.8267842e+2, -1054099.0, -1166220.6, -137741.39, -0.040645547, -0.29155153, -961447.0, 188282.38, 0.000687035, 10.00067, 9.999362 
2.4771379e+3, 1.9267157e+2, -876205.3, -815604.56, -137066.69, 0.01332914, -0.5556706, -705529.0, 346256.03, 0.000019881356, 10.000491, 10.001031 
2.4767917e+3, 2.0266482e+2, -1212166.0, -1402538.0, -10032.052, 0.064672366, -0.6085265, -1211638.9, -257793.36, 0.0, 9.999397, 9.996981 
2.4764463e+3, 2.1265844e+2, -860874.0, -1112323.8, -17198.936, -0.051965084, -0.4711211, -859703.06, -3787.3506, 0.0, 10.001025, 9.997358 
2.4761e+3, 2.2265252e+2, -708415.44, -821651.1, -165275.7, -0.13021772, -0.30336133, -590328.8, 167648.86, 0.0, 10.0005045, 9.999092 
2.4757516e+3, 2.3264737e+2, -664134.4, -465310.75, -165874.16, -0.14455232, -0.42162716, -371339.7, 288684.34, 0.0, 9.999088, 10.001401 
2.475405e+3, 2.4264202e+2, -1147890.5, -1058502.1, -35139.145, -0.09716123, -0.40060326, -1046342.7, -484266.94, 0.0, 9.9967165, 9.99794 
2.4750623e+3, 2.5263625e+2, -737263.4, -682877.3, -49465.27, 0.05068456, -0.3293688, -653623.25, -189483.11, 0.0, 9.998511, 9.998812 
2.4747187e+3, 2.6263022e+2, -678162.8, -781144.06, -65481.33, 0.09700909, -0.21231836, -646352.25, -280148.2, 0.0, 9.998814, 9.997487 
2.4743737e+3, 2.7262354e+2, -144906.06, -279675.38, -55136.594, -0.07595725, -0.24879932, -125223.3, 143044.33, 0.0, 10.001195, 9.998933 
2.4740286e+3, 2.8261742e+2, -209026.45, -504799.1, -40827.563, -0.318959, -0.13185523, -203494.22, -33166.383, 0.0, 10.000908, 9.997024 
2.4736837e+3, 2.9261145e+2, -224070.86, -277204.56, -15443.464, -0.5743559, -0.050536644, -219908.27, -147514.86, 0.0, 9.999569, 9.998396 
2.4733467e+3, 3.0260438e+2, -698227.94, -940094.1, -17048.121, -0.029687269, 0.106953986, -697032.2, -697032.2, 0.0, 9.997692, 9.994609 
2.4730037e+3, 3.125933e+2, 183293.55, 100332.63, -114527.66, -0.09276542, -0.15939142, 263621.2, 263621.2, 0.0, 10.0012045, 9.999868 
2.4895535e+3, 1.2304851e+2, -2223418.3, -1619308.6, 148149.78, 0.3186835, -0.28625858, -1584933.0, 149183.38, 0.43991777, 9.994283, 10.004057 
2.4892063e+3, 1.3304992e+2, -1846561.9, -1476175.5, -33730.867, 0.067867614, 0.06557112, -1473128.8, 162971.73, 0.31901658, 9.996944, 10.002792 
2.4888615e+3, 1.430447e+2, -1718206.9, -1649651.3, -174521.03, 0.15226206, -0.06682354, -1506073.6, 32074.932, 0.19536594, 9.998517, 9.999842 
2.4885131e+3, 1.5303782e+2, -1329219.0, -1318500.9, -172312.63, -0.053841814, -0.2705552, -1151464.0, 288746.75, 0.094030365, 10.000391, 10.000476 
2.4881673e+3, 1.6303185e+2, -1234681.3, -1359223.8, -82326.13, -0.10879662, -0.3030172, -1193728.0, 148539.42, 0.032013185, 10.000749, 9.999351 
2.487825e+3, 1.7302817e+2, -1197916.8, -1203756.8, -27037.756, -0.009834171, -0.13937071, -1173641.8, 70666.234, 0.0062260167, 10.000139, 9.99991 
2.4874806e+3, 1.830231e+2, -1182953.6, -1214484.0, -171123.1, 0.005319386, -0.043619476, -1026871.0, 119487.18, 0.00043419475, 9.999601, 9.999564 
2.4871328e+3, 1.9301525e+2, -915458.0, -907128.75, -277167.44, -0.0054425546, -0.35294747, -634094.7, 414332.25, 0.0000058323185, 10.000406, 10.000495 
2.486786e+3, 2.030079e+2, -965565.6, -1119435.1, -170322.64, -0.018223995, -0.48703888, -855608.0, 94883.95, 0.000000000090419006, 10.000293, 9.998498 
2.4864414e+3, 2.1300174e+2, -929454.75, -998227.75, -18511.313, -0.04758232, -0.4657487, -924788.75, -72237.57, 0.0, 9.999797, 9.998787 
2.486095e+3, 2.2299585e+2, -829402.94, -865504.5, -115883.97, -0.12637736, -0.36968035, -730172.3, 24436.547, 0.0, 9.999484, 9.9992895 
2.4857454e+3, 2.3299049e+2, -560435.7, -538739.06, -253568.38, -0.18529503, -0.39875066, -295787.06, 360873.75, 0.0, 10.000224, 10.000414 
2.4853985e+3, 2.4298474e+2, -515244.6, -747352.6, -142078.5, -0.13188978, -0.346877, -447846.06, 110872.22, 0.0, 10.000907, 9.99806 
2.4850574e+3, 2.5297806e+2, -293672.4, -549183.94, -91478.64, 0.09580694, -0.32964727, -264298.06, 196492.16, 0.0, 10.001736, 9.998248 
2.4847145e+3, 2.6297158e+2, -220191.48, -556123.0, -70270.77, 0.15137643, -0.20233901, -206084.52, 156774.66, 0.0, 10.001755, 9.997651 
2.4843684e+3, 2.7296597e+2, -195405.4, -361009.75, -88852.805, -0.17231286, -0.09751886, -156753.8, 108164.12, 0.0, 10.000895, 9.998612 
2.484023e+3, 2.8295985e+2, -228589.72, -444433.8, -111559.875, -0.4311048, 0.026579168, -181293.3, -14312.214, 0.0, 10.000293, 9.997781 
2.4836788e+3, 2.929522e+2, 11347.125, -129316.8, -139108.17, -0.52610934, -0.09260122, 96892.266, 165951.77, 0.0, 10.0008745, 9.998853 
2.483342e+3, 3.029454e+2, -102817.4, -495123.06, 24705.29, 0.085837156, 0.014137595, -101267.71, -101267.71, 0.0, 10.001014, 9.996069 
2.4830027e+3, 3.1293708e+2, 154448.22, 102275.78, -51948.703, 0.21375501, 0.0072012153, 186492.53, 186492.53, 0.0, 10.000663, 10.000264 
2.4995427e+3, 1.2339845e+2, -1943632.3, -1634179.6, 1293.8666, 0.26662284, 0.1138888, -1634174.3, 96513.86, 0.42027465, 9.997051, 10.0023575 
2.4991976e+3, 1.3339518e+2, -1810048.3, -1723193.8, -60600.81, 0.045451935, 0.28108567, -1692066.4, -59344.37, 0.30251706, 9.998806, 9.999669 
2.4988542e+3, 1.4338441e+2, -1712890.8, -1738539.5, -141988.97, 0.13313918, -0.1623784, -1583148.3, -48323.14, 0.18302314, 9.998954, 9.99899 
2.4985082e+3, 1.5337741e+2, -1358901.0, -1337893.9, -141263.53, 0.016501259, -0.3998629, -1206744.0, 230141.03, 0.08629053, 10.000175, 10.000421 
2.498164e+3, 1.6337273e+2, -1345622.8, -1382934.4, -121051.39, 0.07034235, -0.31134832, -1241798.1, 97129.99, 0.028287582, 9.999886, 9.999584 
2.497821e+3, 1.7337169e+2, -1206822.5, -1156597.0, -100466.97, 0.15966178, 0.021663, -1078151.8, 162794.38, 0.0050760456, 9.999812, 10.000396 
2.4974759e+3, 1.8336812e+2, -1407913.0, -1487885.8, -191635.31, 0.15388337, 0.30176812, -1252136.8, -109149.82, 0.00028139996, 9.998942, 9.99796 
2.4971269e+3, 1.9336006e+2, -1106303.1, -1155143.9, -263395.16, -0.021050079, 0.10120027, -866198.7, 178868.7, 0.0000014559199, 9.999955, 9.998946 
2.4967799e+3, 2.0335256e+2, -950593.75, -886116.25, -182492.72, -0.06776472, -0.038486052, -733036.5, 214098.75, 0.0, 9.999567, 10.000432 
2.4964358e+3, 2.1334638e+2, -777130.44, -524893.1, -63958.496, 0.0086134365, -0.37032986, -509602.44, 339575.53, 0.0, 9.99932, 10.002203 
2.4960893e+3, 2.2334039e+2, -1160664.9, -1274585.1, -147288.28, -0.029481959, -0.389137, -1059706.4, -308477.47, 0.0, 9.998442, 9.996978 
2.4957386e+3, 2.3333423e+2, -843095.7, -982931.4, -239341.48, -0.27976498, -0.24327783, -663668.7, -10369.493, 0.0, 9.999729, 9.9975605 
2.4953918e+3, 2.4332772e+2, -763245.3, -924600.4, -118455.24, -0.3128162, -0.082979545, -700603.2, -145234.75, 0.0, 9.999552, 9.997487 
2.4950525e+3, 2.5332007e+2, -389350.47, -521866.5, -62642.605, 0.0168891, -0.23051013, -364426.13, 93015.68, 0.0, 10.000884, 9.998802 
2.4947102e+3, 2.6331308e+2, -486122.88, -781202.44, -108365.1, 0.096966974, -0.15502137, -450602.63, -91089.81, 0.0, 10.000488, 9.996687 
2.4943633e+3, 2.7330667e+2, -342647.75, -517767.97, -112408.76, -0.21770558, -0.07042906, -287721.03, -26136.34, 0.0, 10.000309, 9.997804 
2.4940185e+3, 2.832994e+2, -458626.44, -604705.1, -122011.18, -0.37084413, 0.009107592, -389463.56, -225802.05, 0.0, 9.999068, 9.997237 
2.493677e+3, 2.9329035e+2, -81535.61, -167625.86, -98669.51, -0.2698991, -0.28314945, -16930.584, 48817.984, 0.0, 10.000303, 9.998818 
2.4933371e+3, 3.032843e+2, -96247.46, -203648.2, -27164.611, -0.05139227, -0.19508334, -89767.72, -89767.72, 0.0, 9.999995, 9.998522 
2.4929944e+3, 3.1328225e+2, -27864.602, 262844.44, 67173.836, -0.24973935, 0.07220047, 277615.7, 277615.7, 0.0, 9.998659, 10.002228 
2.5095347e+3, 1.2373833e+2, -1752177.5, -2230730.8, -148907.6, -0.19961278, 0.103496425, -1709626.5, 17721.459, 0.39734322, 10.001599, 9.995616 
2.5091967e+3, 1.3373256e+2, -1362090.9, -1468686.3, -80366.09, 0.3843193, 0.0017861407, -1318955.4, 310458.47, 0.28406283, 10.002264, 10.000218 
2.5088522e+3, 1.4372535e+2, -1365486.1, -1470931.9, -106636.24, 0.31390145, -0.14187574, -1299251.0, 232234.17, 0.16993596, 10.001105, 9.999877 
2.5085035e+3, 1.5372041e+2, -1237822.9, -1217655.0, -99757.195, -0.0031889249, -0.23302774, -1127473.4, 306051.63, 0.078587286, 10.000685, 10.001081 
2.508157e+3, 1.6371572e+2, -1345504.0, -1392596.8, -88841.84, -0.13115026, -0.16620527, -1277141.1, 58427.086, 0.024857625, 9.999849, 9.999539 
2.507814e+3, 1.7371121e+2, -1197425.0, -1202012.9, -103750.64, -0.012073558, -0.10973724, -1095943.0, 141676.64, 0.0041356636, 10.000038, 10.000005 
2.507469e+3, 1.8370655e+2, -1176645.8, -1266509.4, -194617.45, 0.019381728, 0.051051337, -1021840.7, 117830.63, 0.00018434241, 9.999968, 9.999006 
2.5071225e+3, 1.9370131e+2, -922364.94, -1013865.9, -141523.25, 0.013478101, 0.0956624, -819381.0, 222345.5, 0.00000026313862, 10.000882, 9.999537 
2.5067762e+3, 2.036955e+2, -655875.4, -717807.6, -110769.55, 0.010048809, 0.10738291, -571825.0, 371955.5, 0.0, 10.001372, 10.000753 
2.5064316e+3, 2.1368903e+2, -476360.13, -439677.1, -199887.55, 0.08912269, -0.18864606, -257291.33, 588538.06, 0.0, 10.001522, 10.001816 
2.5060853e+3, 2.2368255e+2, -591374.4, -974785.7, -321513.9, 0.04872577, -0.24667329, -408750.97, 339134.94, 0.0, 10.002033, 9.997368 
2.5057355e+3, 2.3367573e+2, -351092.25, -777461.9, -274804.34, -0.19291338, -0.1586821, -216476.55, 433483.6, 0.0, 10.003056, 9.997443 
2.5053886e+3, 2.436688e+2, -226244.61, -571220.9, -89816.48, -0.27376175, -0.06010394, -204261.27, 347770.13, 0.0, 10.002739, 9.998392 
2.505047e+3, 2.536608e+2, -388198.3, -483116.16, -75048.805, -0.05184841, -0.25885534, -346861.53, 107243.17, 0.0, 10.000625, 9.999252 
2.5047046e+3, 2.636539e+2, -487975.97, -708607.8, -59330.418, 0.023806585, -0.21213843, -473033.38, -116859.58, 0.0, 10.000066, 9.997405 
2.5043595e+3, 2.7364832e+2, -103263.58, -403871.28, -38184.805, -0.1635507, -0.028369516, -98488.98, 159751.53, 0.0, 10.001896, 9.99787 
2.5040153e+3, 2.8364113e+2, 71875.32, -279031.13, 8523.288, -0.23993202, 0.057186227, 72082.23, 232399.02, 0.0, 10.002259, 9.997963 
2.503673e+3, 2.936312e+2, 59956.996, -116817.164, 8535.43, -0.16000205, -0.32640782, 60368.168, 122777.445, 0.0, 10.001102, 9.998885 
2.5033325e+3, 3.036258e+2, -18922.576, -11323.315, 38528.336, 0.012419791, -0.21534726, 23592.295, 23592.295, 0.0, 9.999689, 10.000018 
2.50299e+3, 3.136265e+2, -20860.137, 369901.38, -95273.15, 0.00074071705, 0.18542746, 391892.66, 391892.66, 0.0, 9.998006, 10.003324 
2.5195324e+3, 1.2407119e+2, -2005030.0, -2639575.8, -123075.47, -0.04740017, -0.61176324, -1981994.8, -257914.97, 0.3720952, 10.001092, 9.992997 
2.519196e+3, 1.340697e+2, -1429034.1, -1431294.9, -45343.082, 0.6646151, -0.3615136, -1384807.4, 241299.72, 0.26429757, 10.00123, 10.000974 
2.518851e+3, 1.44068e+2, -1465243.0, -1443946.3, -94156.48, 0.6664809, -0.024482373, -1359838.0, 168289.28, 0.15642525, 10.000086, 10.000481 
2.5184983e+3, 1.5406498e+2, -1268085.6, -1161232.4, -122395.4, -0.0071781417, -0.009391125, -1081111.1, 349038.22, 0.071005836, 10.00034, 10.001535 
2.5181493e+3, 1.6405946e+2, -1490811.5, -1571304.9, -76374.305, -0.30404374, 0.008956751, -1444728.4, -112527.234, 0.021693112, 9.999495, 9.998444 
2.517806e+3, 1.740496e+2, -1350110.5, -1336024.1, -92771.89, -0.22105095, -0.39636293, -1250028.5, -15725.768, 0.00335279, 9.999494, 9.999278 
2.517462e+3, 1.8404344e+2, -1220196.5, -1201459.6, -147233.95, -0.0679941, -0.3747859, -1063296.4, 73070.68, 0.00011963712, 9.999367, 9.999715 
2.5171185e+3, 1.9404177e+2, -848582.8, -832578.75, -116645.36, 0.12855609, -0.13438287, -723661.25, 314724.1, 0.00000002568285, 10.000787, 10.000781 
2.516774e+3, 2.0403807e+2, -954554.44, -1180644.1, -103853.875, 0.2372249, 0.13496314, -914091.06, 26331.986, 0.0, 10.000766, 9.997842 
2.5164282e+3, 2.1403062e+2, -801098.9, -924553.44, -197655.75, 0.1846478, 0.0034955125, -655756.0, 186739.5, 0.0, 10.000736, 9.998828 
2.516082e+3, 2.2402337e+2, -800884.5, -984304.8, -271222.7, 0.13272917, 0.005764889, -606286.25, 138277.98, 0.0, 10.000383, 9.99803 
2.5157347e+3, 2.3401609e+2, -377066.25, -583253.8, -234531.25, 0.016581807, -0.1590149, -223970.19, 422661.72, 0.0, 10.002123, 9.999169 
2.5153872e+3, 2.4400872e+2, -461714.9, -707095.75, -176300.81, -0.076300874, -0.18311317, -369614.94, 179085.75, 0.0, 10.00137, 9.998094 
2.515041e+3, 2.5400046e+2, -523887.88, -541173.06, -158113.69, -0.1353327, -0.44165415, -374180.75, 76596.89, 0.0, 9.99978, 9.999226 
2.514697e+3, 2.639945e+2, -673419.44, -770949.7, -17391.58, -0.17908712, -0.30083388, -670411.0, -317572.66, 0.0, 9.998847, 9.997513 
2.5143555e+3, 2.739911e+2, -145060.69, -328311.94, 46509.387, -0.18175313, -0.002510277, -133932.34, 120950.26, 0.0, 10.001357, 9.998563 
2.5140125e+3, 2.8398544e+2, -24299.322, -263688.22, -38191.23, -0.2507723, 0.16958839, -18354.084, 138588.48, 0.0, 10.001522, 9.998371 
2.5136673e+3, 2.9397666e+2, 17699.488, -52288.504, 7528.5313, -0.35691094, -0.17956823, 18500.164, 77522.38, 0.0, 10.000608, 9.999506 
2.5133264e+3, 3.0397147e+2, -297157.88, -354874.2, -21005.291, -0.06876558, 0.007609399, -290322.7, -290322.7, 0.0, 9.998833, 9.998026 
2.5129843e+3, 3.139648e+2, -391396.94, -52112.67, -39158.332, 0.025112927, -0.13444678, -47651.88, -47651.88, 0.0, 9.996716, 10.000976 
2.52953e+3, 1.244217e+2, -1460619.6, -1374637.1, -118786.44, -0.01567356, -0.06407445, -1291301.5, 429359.3, 0.34545994, 10.00087, 10.003068 
2.5291872e+3, 1.3441575e+2, -1562498.0, -1500069.6, 30660.393, 0.28841949, -0.26535583, -1487530.1, 135186.22, 0.24384509, 9.999903, 10.000997 
2.5288412e+3, 1.4441262e+2, -1664433.3, -1595206.6, 20727.605, 0.2478821, -0.015728634, -1589475.0, -64729.59, 0.14280653, 9.998876, 9.999909 
2.528492e+3, 1.5440732e+2, -1268243.1, -1246050.6, -24361.895, -0.16810188, -0.11736384, -1230376.9, 196419.19, 0.06363834, 10.000686, 10.000748 
2.5281453e+3, 1.6440177e+2, -1226329.3, -1386187.8, -54782.965, -0.28508815, -0.07373616, -1209357.3, 119493.69, 0.0187796, 10.000938, 9.999063 
2.5278014e+3, 1.7439461e+2, -1229872.9, -1252183.6, -15502.142, -0.094914265, -0.22857371, -1221929.5, 8994.486, 0.0026956536, 10.000005, 9.999695 
2.5274578e+3, 1.8438861e+2, -1090625.5, -1155279.0, 11323.521, -0.020191288, -0.18934456, -1088699.6, 44286.004, 0.00007576087, 10.000268, 9.99959 
2.5271142e+3, 1.943842e+2, -574894.0, -777974.94, -47340.387, 0.011163868, -0.13301352, -564400.6, 470630.56, 0.00000000011876218, 10.002896, 10.0001745 
2.5267696e+3, 2.0437934e+2, -561850.3, -980312.5, -155484.11, 0.08134301, 0.05183189, -510403.53, 426678.0, 0.0, 10.003304, 9.998009 
2.5264236e+3, 2.1437284e+2, -724401.44, -948266.0, -117449.61, 0.1570209, 0.08094742, -674089.3, 165058.72, 0.0, 10.001368, 9.99842 
2.526077e+3, 2.2436585e+2, -730156.7, -840142.3, -71866.055, 0.11970552, 0.10611349, -694656.75, 46559.51, 0.0, 10.000294, 9.999067 
2.52573e+3, 2.3435801e+2, -512614.16, -604777.06, -105642.55, 0.0013581119, -0.11847986, -443440.03, 199847.4, 0.0, 10.000859, 9.999702 
2.5253832e+3, 2.4435085e+2, -456693.28, -631345.9, -151200.4, -0.07177316, -0.16628231, -369413.03, 175940.7, 0.0, 10.000941, 9.998837 
2.525036e+3, 2.543441e+2, -381095.7, -468594.6, -155444.36, -0.11746406, -0.25613633, -263361.5, 184056.27, 0.0, 10.0006275, 9.999349 
2.5246915e+3, 2.6433825e+2, -349379.66, -504746.1, 88774.03, -0.17687047, -0.14896198, -309098.84, 40376.91, 0.0, 10.000408, 9.998647 
2.5243512e+3, 2.7433324e+2, -221496.86, -307910.8, 110274.16, -0.16443464, -0.052311525, -146267.2, 105262.23, 0.0, 10.000391, 9.99925 
2.5240088e+3, 2.8432786e+2, -106637.36, -205753.94, -34101.33, -0.17800567, 0.07750194, -96038.15, 57545.188, 0.0, 10.00048, 9.999259 
2.5236627e+3, 2.9432118e+2, 84469.86, 20132.965, -80372.1, -0.31229535, -0.087902136, 138872.1, 194515.25, 0.0, 10.000835, 9.999918 
2.5233212e+3, 3.0431536e+2, -49905.723, -389160.16, -57020.66, 0.00831848, 0.08998521, -40578.344, -40578.344, 0.0, 10.001124, 9.996712 
2.522981e+3, 3.143079e+2, 100448.1, -18037.967, -110880.06, 0.39513767, 0.08445983, 166919.52, 166919.52, 0.0, 10.000826, 9.999328 
2.539533e+3, 1.2477288e+2, -1449558.4, -1219328.6, -96110.06, 0.7572348, 0.49266604, -1184481.5, 532750.94, 0.31815657, 10.00018, 10.004725 
2.5391784e+3, 1.3476352e+2, -1650147.5, -1535234.3, -50514.676, 0.045160912, -0.08651618, -1516186.0, 103121.9, 0.22319712, 9.999277, 10.000914 
2.53883e+3, 1.4475723e+2, -1755618.3, -1774610.5, 70064.02, -0.21280533, -0.09019065, -1694409.8, -173046.11, 0.12934339, 9.998878, 9.998677 
2.538486e+3, 1.5474926e+2, -1388068.3, -1454491.0, 19464.566, -0.24895863, -0.3443328, -1382784.6, 40662.164, 0.05657354, 10.00049, 9.999362 
2.5381425e+3, 1.6474463e+2, -1269133.6, -1346284.3, -80042.375, -0.07509942, -0.14227545, -1218856.0, 106639.37, 0.016116831, 10.000495, 9.999503 
2.537799e+3, 1.7474282e+2, -1156737.6, -1137704.6, -92067.055, 0.18833674, 0.123985395, -1054663.6, 172851.17, 0.0021455006, 10.000214, 10.000345 
2.537454e+3, 1.8473735e+2, -1275971.1, -1453364.3, 81370.96, 0.15300144, 0.27410728, -1244300.3, -114729.47, 0.000046550977, 9.999973, 9.997677 
2.5371093e+3, 1.9472754e+2, -882132.56, -1123196.3, 39586.293, -0.18167773, -0.062345393, -875798.3, 155872.5, 0.0, 10.001699, 9.998377 
2.5367638e+3, 2.0472056e+2, -762968.5, -999696.06, -219297.8, -0.18146244, -0.0102270255, -632130.56, 301611.0, 0.0, 10.001758, 9.9985485 
2.536418e+3, 2.147158e+2, -762805.75, -838542.9, -204436.23, 0.07546204, 0.05098787, -592760.4, 243028.2, 0.0, 10.000708, 9.999421 
2.5360712e+3, 2.2470948e+2, -918167.1, -1011624.75, -70993.5, 0.07909139, 0.13963859, -879903.9, -142053.56, 0.0, 9.999497, 9.998241 
2.535723e+3, 2.34701e+2, -703851.25, -744553.5, -82467.41, -0.22954062, -0.13043512, -639260.94, 671.804, 0.0, 9.999907, 9.999141 
2.5353763e+3, 2.4469545e+2, -700319.0, -791076.3, -175643.05, -0.26689658, 0.042823516, -564287.4, -22299.797, 0.0, 9.999633, 9.99831 
2.535031e+3, 2.5469196e+2, -525693.44, -544627.06, -163603.77, -0.07472956, 0.25469333, -371282.8, 72740.805, 0.0, 9.999774, 9.999184 
2.5346875e+3, 2.646852e+2, -514868.97, -556307.7, 77426.12, -0.05840557, 0.28029418, -455437.88, -109351.57, 0.0, 9.999306, 9.998774 
2.534346e+3, 2.7467492e+2, -320367.34, -290641.47, 123812.13, -0.1714424, -0.2421547, -180803.36, 67374.92, 0.0, 9.999543, 9.999741 
2.5340036e+3, 2.8466824e+2, -330439.28, -414456.7, -41202.258, -0.18724935, -0.20946614, -313606.2, -163367.1, 0.0, 9.999482, 9.998292 
2.53366e+3, 2.946637e+2, -42615.395, -102747.16, -39262.65, -0.16311994, -0.12841529, -23229.146, 29053.371, 0.0, 10.000319, 9.9993 
2.5333175e+3, 3.046569e+2, -153394.53, -450890.25, -46233.848, -0.029609956, 0.0025696773, -146374.95, -146374.95, 0.0, 10.00061, 9.996495 
2.5329748e+3, 3.146524e+2, 172874.17, 174571.97, 12672.719, 0.031956427, 0.27191406, 186424.19, 186424.19, 0.0, 10.000751, 10.000667 
2.5495255e+3, 1.2511393e+2, -1640334.4, -1704231.6, 307346.2, 0.33430725, -0.25730947, -1363280.8, 350591.3, 0.29081753, 10.0008, 9.9999895 
2.5491747e+3, 1.3510919e+2, -1636122.4, -1705092.8, -7506.002, 0.22216892, -0.1809246, -1635315.0, -19397.234, 0.2027681, 10.000127, 9.999208 
2.5488248e+3, 1.4510229e+2, -1557651.5, -1684108.8, 126847.59, -0.2432018, -0.1446096, -1479147.4, 38837.54, 0.11625642, 10.0002, 9.998691 
2.548482e+3, 1.550958e+2, -1332880.5, -1468085.9, 117001.29, -0.18024872, -0.21924755, -1265355.8, 154694.22, 0.04988728, 10.000937, 9.999111 
2.5481388e+3, 1.6509008e+2, -1190835.8, -1397457.6, -27423.945, -0.037203424, -0.061799027, -1187257.9, 134850.55, 0.013707004, 10.001396, 9.99873 
2.547795e+3, 1.75085e+2, -881545.0, -1135027.0, -88982.46, 0.17138374, 0.021690032, -853427.5, 370734.13, 0.0016894786, 10.002633, 9.999229 
2.5474492e+3, 1.8507904e+2, -893444.75, -1153879.9, 28991.84, 0.051693216, 0.12694794, -890256.4, 235965.14, 0.000027889511, 10.002011, 9.998773 
2.5471026e+3, 1.9507125e+2, -1113660.4, -1175560.3, 98792.29, -0.35247236, -0.053965125, -1041083.44, -12784.906, 0.0, 9.999761, 9.9990015 
2.5467584e+3, 2.0506473e+2, -965350.25, -1062134.5, -66458.64, -0.31639567, 0.008896117, -931532.0, -1166.8905, 0.0, 10.000125, 9.998927 
2.5464153e+3, 2.1505907e+2, -370012.4, -682403.2, -108541.73, 0.13025504, 0.02748468, -336001.84, 496422.8, 0.0, 10.003402, 9.999248 
2.5460684e+3, 2.2505306e+2, -298624.16, -627914.4, -105030.45, 0.15590669, 0.11728927, -267976.13, 466509.53, 0.0, 10.00333, 9.9990425 
2.5457174e+3, 2.3504603e+2, -641105.6, -705244.7, -80417.23, -0.22714724, 0.005831536, -586599.25, 49955.688, 0.0, 10.000217, 9.9993 
2.5453705e+3, 2.450404e+2, -566680.3, -697613.56, -29908.857, -0.29547918, 0.1531729, -560171.8, -21560.938, 0.0, 10.000229, 9.99876 
2.5450268e+3, 2.5503585e+2, -39443.11, -350236.28, -49070.676, -0.06394447, 0.3079109, -31879.484, 408777.34, 0.0, 10.003055, 9.999067 
2.544684e+3, 2.6502848e+2, 64585.855, -259735.03, 85262.65, 0.0105159795, 0.27789703, 85634.93, 428359.88, 0.0, 10.003151, 9.998984 
2.5443417e+3, 2.7501768e+2, -125364.59, -253619.58, 8853.069, -0.057039, -0.22222793, -124756.38, 120063.49, 0.0, 10.001048, 9.999329 
2.543999e+3, 2.8501025e+2, -227831.03, -321804.1, -86419.31, -0.08150841, -0.26672202, -176450.75, -29565.021, 0.0, 9.9998455, 9.998812 
2.5436547e+3, 2.950055e+2, -152764.08, -170957.8, -85118.6, -0.10612174, -0.19187629, -76257.61, -27327.246, 0.0, 9.999499, 9.999302 
2.5433123e+3, 3.049991e+2, -141122.75, -236478.56, 17795.072, 0.0077564516, -0.11221889, -137910.11, -137910.11, 0.0, 9.999626, 9.99852 
2.5429648e+3, 3.1499347e+2, -127356.67, -117830.72, 1038.5775, -0.4376985, -0.065452985, -117718.805, -117718.805, 0.0, 9.999082, 9.999567 
2.559518e+3, 1.2546329e+2, -1884947.4, -2038152.1, -460946.0, 0.068439, -0.24758804, -1494282.0, 216148.63, 0.26403108, 10.000053, 9.997811 
2.5591713e+3, 1.3545468e+2, -1617857.8, -1993772.4, -172682.31, 0.41183972, -0.3158055, -1550575.8, 61956.625, 0.18292536, 10.001776, 9.996423 
2.5588223e+3, 1.4544831e+2, -1415559.8, -1605684.1, 50708.715, 0.003465339, -0.08015676, -1402880.6, 111718.62, 0.1037245, 10.001298, 9.998654 
2.558479e+3, 1.5544367e+2, -1350308.8, -1504241.9, 22735.412, -0.031059675, -0.015051556, -1347021.0, 69618.46, 0.043632858, 10.000962, 9.998812 
2.558135e+3, 1.6543593e+2, -1403035.1, -1679562.8, -28241.97, 0.027793696, 0.03736278, -1400180.3, -81464.016, 0.011545959, 10.000847, 9.996991 
2.557791e+3, 1.7542498e+2, -1165508.0, -1472109.8, -63529.03, 0.098449565, -0.31400314, -1152865.9, 67963.5, 0.0013158798, 10.001662, 9.997329 
2.557444e+3, 1.8541871e+2, -940234.94, -990008.56, -54090.863, -0.07676927, -0.2213266, -905580.4, 217310.02, 0.000016496271, 10.001065, 10.000305 
2.5570956e+3, 1.9541553e+2, -1097011.6, -1025264.94, -29315.129, -0.46731046, -0.12077834, -1014810.4, 10106.153, 0.0, 9.999382, 10.000196 
2.5567526e+3, 2.0541033e+2, -1141981.3, -1237089.3, 18312.1, -0.29899642, 0.07666014, -1138577.3, -211605.98, 0.0, 9.999465, 9.998007 
2.5564143e+3, 2.1540289e+2, -681758.4, -929665.8, -9346.165, 0.27694255, -0.028612567, -681406.5, 147648.52, 0.0, 10.001842, 9.998265 
2.5560674e+3, 2.2539751e+2, -500172.6, -686192.6, -230520.83, 0.3452002, 0.170849, -344605.22, 386507.22, 0.0, 10.001904, 9.99928 
2.555713e+3, 2.3539285e+2, -757600.6, -725159.44, -200251.47, -0.06344911, 0.21264628, -540472.7, 92684.9, 0.0, 9.999357, 9.999536 
2.555366e+3, 2.4538556e+2, -750441.3, -818390.44, 58814.543, -0.19500716, 0.20433791, -716493.7, -181267.75, 0.0, 9.999247, 9.998346 
2.5550234e+3, 2.553755e+2, -228809.31, -495837.66, 55246.32, -0.14146751, -0.19529475, -217830.61, 219488.8, 0.0, 10.002116, 9.998474 
2.5546813e+3, 2.6536825e+2, -242635.27, -614827.94, -16628.1, -0.039094105, -0.06933576, -241893.88, 97495.375, 0.0, 10.002119, 9.996954 
2.5543392e+3, 2.7536196e+2, -349589.2, -573366.8, -58628.09, 0.095809, 0.029944167, -335159.5, -93707.45, 0.0, 10.000538, 9.997329 
2.553994e+3, 2.853542e+2, -276013.22, -259158.22, -138387.03, -0.023787353, 0.013687547, -128942.31, 14580.33, 0.0, 9.999265, 9.999475 
2.5536463e+3, 2.9534572e+2, -221862.03, -154206.17, -97368.06, -0.3660546, -0.37236038, -84957.1, -39361.844, 0.0, 9.998877, 9.999678 
2.5533047e+3, 3.053401e+2, -132224.17, -17596.555, -33084.33, -0.16944996, -0.31633613, -8732.985, -8732.985, 0.0, 9.998969, 10.000233 
2.552961e+3, 3.1533742e+2, -366968.03, -377119.88, 44521.258, -0.2514259, -0.19858462, -327234.28, -327234.28, 0.0, 9.998305, 9.99805 
2.569514e+3, 1.258031e+2, -1839241.3, -2185717.5, -172148.48, 0.049880672, -0.25303006, -1768253.0, -61133.77, 0.23823552, 10.000689, 9.996314 
2.5691658e+3, 1.3579799e+2, -1312438.1, -1817993.1, -272206.4, 0.042681016, 0.030907826, -1193741.9, 415444.4, 0.16394834, 10.004114, 9.996604 
2.5688192e+3, 1.457907e+2, -1055491.5, -1314466.3, -138149.73, -0.099080764, 0.088672675, -995631.75, 515625.5, 0.09188186, 10.003436, 9.9997835 
2.568476e+3, 1.5578456e+2, -1153922.6, -1326444.9, -127961.94, 0.0020935503, -0.06542728, -1085861.9, 327442.7, 0.03784501, 10.001905, 9.999662 
2.5681308e+3, 1.6577792e+2, -1283705.4, -1482901.4, -108496.19, 0.017920695, -0.020009264, -1236024.1, 79342.766, 0.009625426, 10.001017, 9.998277 
2.5677848e+3, 1.7576975e+2, -1243122.3, -1423910.6, -17845.07, -0.07627462, -0.16325463, -1241377.6, -23925.707, 0.0010124295, 10.00067, 9.998181 
2.5674388e+3, 1.8576303e+2, -1001749.06, -1047447.94, -54880.44, -0.19150737, -0.13809471, -965151.4, 154364.45, 0.000009793076, 10.000686, 10.000122 
2.5670922e+3, 1.957574e+2, -846070.06, -947928.6, -96192.38, -0.2875115, -0.2080337, -788156.5, 233407.8, 0.0, 10.001167, 9.999918 
2.5667483e+3, 2.0575209e+2, -849065.9, -946117.75, -31718.545, -0.21979609, -0.09806244, -839619.1, 83999.164, 0.0, 10.00071, 9.999437 
2.566407e+3, 2.1574633e+2, -906793.0, -951250.75, 33627.59, 0.029615343, -0.10561382, -888711.4, -63027.832, 0.0, 9.999772, 9.999178 
2.566061e+3, 2.2574137e+2, -604448.6, -759857.94, -169684.81, 0.12596244, 0.09907055, -495522.78, 232215.78, 0.0, 10.001106, 9.999214 
2.5657105e+3, 2.3573661e+2, -111256.61, -494672.47, -204036.55, 0.07437273, 0.2068418, -22995.174, 606794.25, 0.0, 10.003915, 9.999015 
2.5653636e+3, 2.4572876e+2, -63548.82, -497442.75, 5823.2676, -0.0418083, 0.17060669, -63470.68, 468393.9, 0.0, 10.003932, 9.99829 
2.5650194e+3, 2.55718e+2, -265220.16, -566009.5, -38320.816, -0.188658, -0.23730627, -260414.84, 173549.61, 0.0, 10.001987, 9.998079 
2.5646767e+3, 2.657107e+2, -312024.63, -619047.1, -54219.594, -0.12842378, -0.12344463, -302730.88, 33303.78, 0.0, 10.00139, 9.997283 
2.564335e+3, 2.7570552e+2, -161097.36, -494392.4, 455.1798, 0.12527686, 0.116863474, -161096.73, 76992.46, 0.0, 10.001753, 9.997286 
2.5639898e+3, 2.8569782e+2, 47744.75, -101122.664, -31565.17, 0.05915224, 0.109974846, 54161.133, 194320.78, 0.0, 10.001414, 9.999514 
2.5636414e+3, 2.9568818e+2, 3946.647, -83688.516, -101746.445, -0.25814405, -0.3343283, 70909.57, 113151.6, 0.0, 10.000489, 9.999403 
2.5632972e+3, 3.0568185e+2, -20606.328, 84790.41, -57100.68, -0.27272755, -0.3606046, 109794.07, 109794.07, 0.0, 9.999365, 10.000795 
2.5629565e+3, 3.1567767e+2, -130038.29, 195392.84, -244308.69, 0.0048813354, -0.4034827, 326212.78, 326212.78, 0.0, 9.9976845, 10.002362 
2.5795105e+3, 1.261465e+2, -1773655.3, -2021185.5, -135996.16, 0.13348697, 0.39863718, -1713537.9, -9761.411, 0.21373183, 10.000598, 9.997423 
2.579161e+3, 1.3614097e+2, -1431082.6, -1746096.8, -147992.55, -0.25545302, 0.4428531, -1372464.1, 233379.52, 0.14603193, 10.002474, 9.997816 
2.578816e+3, 1.4613238e+2, -1169532.3, -1257652.4, -97566.32, -0.14790449, 0.2611514, -1106538.8, 401382.9, 0.080827504, 10.0021305, 10.000775 
2.5784728e+3, 1.5612401e+2, -1182280.6, -1264817.4, -145399.83, 0.10399099, -0.21159765, -1072406.0, 337578.72, 0.032553293, 10.00146, 10.000274 
2.5781265e+3, 1.6611965e+2, -1184609.8, -1251093.4, -100376.414, 0.05273278, -0.044748522, -1112114.0, 199907.86, 0.007938516, 10.00099, 9.999814 
2.577778e+3, 1.761167e+2, -1221425.1, -1288169.1, -73408.68, -0.23066452, 0.1412089, -1174158.9, 39894.926, 0.00076767127, 10.000352, 9.999211 
2.5774336e+3, 1.8610905e+2, -1174736.1, -1272815.4, -51253.63, -0.17485847, 0.10249611, -1152840.5, -36714.598, 0.000005913737, 10.000253, 9.998717 
2.5770915e+3, 1.9609825e+2, -1111753.0, -1205454.4, -88030.03, 0.09363139, -0.38377866, -1058882.8, -40657.734, 0.0, 10.000076, 9.9986 
2.576745e+3, 2.0609275e+2, -888429.94, -782874.25, -58255.223, -0.05777576, -0.3123229, -757044.4, 163232.88, 0.0, 9.999744, 10.000982 
2.576396e+3, 2.160897e+2, -987322.56, -860439.3, -16521.877, -0.47068104, -0.25479305, -858323.2, -36014.117, 0.0, 9.99873, 10.000276 
2.5760517e+3, 2.2608486e+2, -887272.8, -1014969.0, -80361.09, -0.29938722, -0.019363407, -848483.25, -124118.35, 0.0, 9.999913, 9.99796 
2.57571e+3, 2.3607817e+2, -437288.75, -802915.0, -108554.31, 0.20590915, -0.0072302194, -407487.97, 218954.36, 0.0, 10.002536, 9.9974985 
2.5753638e+3, 2.460715e+2, -307969.6, -701179.5, -73625.34, 0.12775461, 0.2000614, -294636.0, 233876.19, 0.0, 10.002793, 9.9973755 
2.5750145e+3, 2.5606376e+2, -498883.88, -770730.4, -94016.586, -0.3155873, 0.14374703, -469536.9, -38949.344, 0.0, 10.000909, 9.997155 
2.5746703e+3, 2.6605627e+2, -336268.8, -418159.75, -46147.23, -0.35662365, 0.18239178, -315520.7, 17136.229, 0.0, 10.000415, 9.999114 
2.5743285e+3, 2.7604884e+2, -198353.95, -360703.94, 37489.902, -0.14142339, -0.014261369, -190114.89, 44609.566, 0.0, 10.000959, 9.99856 
2.5739855e+3, 2.8604165e+2, -128402.16, -332551.28, -47762.45, 0.042088237, 0.05691618, -117780.37, 19010.127, 0.0, 10.00095, 9.998106 
2.573641e+3, 2.9603356e+2, -159047.45, -335407.22, -74033.914, 0.12970346, -0.114724666, -132089.55, -93223.49, 0.0, 10.000203, 9.997795 
2.57329e+3, 3.0602777e+2, -155001.27, -79113.29, -109277.25, -0.40813833, 0.04048958, -1379.8627, -1379.8627, 0.0, 9.998986, 9.99981 
2.572944e+3, 3.1602016e+2, -310474.53, -111.89709, -80106.3, -0.6017447, -0.2628259, 19344.295, 19344.295, 0.0, 9.99706, 10.001287 
2.5895062e+3, 1.2648624e+2, -1467700.0, -1475465.6, -40017.67, 0.013069414, 0.05356804, -1431377.3, 269070.06, 0.19077115, 10.001213, 10.001253 
2.5891596e+3, 1.3648488e+2, -1497424.5, -1541981.3, 49276.46, 0.012751252, 0.31571743, -1465624.3, 136840.5, 0.12932457, 10.000757, 10.000109 
2.5888142e+3, 1.4647754e+2, -1381203.5, -1433839.1, 76136.445, 0.03965895, 0.21250285, -1326964.6, 177566.86, 0.07062259, 10.000813, 10.000124 
2.588469e+3, 1.5646945e+2, -1162901.8, -1340938.4, 30213.75, 0.06367164, -0.107194245, -1157914.1, 248685.11, 0.027766839, 10.001877, 9.999563 
2.588122e+3, 1.6646364e+2, -1063418.0, -1276744.0, -53850.6, -0.052395783, -0.008546156, -1050595.1, 258058.94, 0.0064744665, 10.002063, 9.999179 
2.5877744e+3, 1.7645869e+2, -1061460.8, -1270026.9, -99598.49, -0.20733848, 0.08283098, -1021539.7, 189166.48, 0.0005723583, 10.001528, 9.99884 
2.5874296e+3, 1.8645217e+2, -1000332.7, -1042327.3, -89180.38, -0.11615215, 0.08637242, -929711.06, 183056.34, 0.0000035552432, 10.00074, 10.000091 
2.587086e+3, 1.9644384e+2, -1078927.0, -1093752.9, 4335.7236, 0.111745276, -0.22455113, -1077752.1, -62909.29, 0.0, 9.999721, 9.999604 
2.586739e+3, 2.0643796e+2, -931342.75, -834921.6, -2564.0586, -0.06682124, -0.21974152, -834853.5, 82044.84, 0.0, 9.999497, 10.000788 
2.5863898e+3, 2.1643357e+2, -835021.7, -830766.94, -62605.254, -0.47455585, -0.20848584, -770252.94, 48688.816, 0.0, 9.99981, 10.000031 
2.586046e+3, 2.2642846e+2, -768041.3, -878444.9, -59468.73, -0.35049564, -0.040033597, -742102.7, -21104.541, 0.0, 10.000289, 9.998735 
2.5857055e+3, 2.3642233e+2, -629651.3, -856082.94, 5811.1113, 0.12028965, 0.012630508, -629502.3, -6433.481, 0.0, 10.000916, 9.997955 
2.58536e+3, 2.464158e+2, -384395.1, -692085.9, 46923.56, 0.06635318, 0.19023049, -377398.25, 147739.23, 0.0, 10.001966, 9.997878 
2.585011e+3, 2.5640863e+2, -139723.81, -560941.5, 68280.86, -0.31268376, 0.21945009, -128931.76, 298276.75, 0.0, 10.003119, 9.997563 
2.584666e+3, 2.6640123e+2, -5807.856, -193538.78, 70806.64, -0.36929727, 0.22325777, 17903.488, 347180.9, 0.0, 10.002295, 9.999789 
2.5843236e+3, 2.7639335e+2, -244689.4, -349732.47, 11599.436, -0.17631637, -0.016006157, -243423.78, -12075.435, 0.0, 10.000345, 9.999009 
2.583981e+3, 2.863864e+2, -216548.1, -334326.44, -23611.045, 0.067995116, 0.025060268, -211991.11, -78577.41, 0.0, 10.000054, 9.998569 
2.583637e+3, 2.963792e+2, -137287.92, -344796.6, -2260.8584, 0.2736863, -0.039850846, -137263.28, -101779.375, 0.0, 10.000287, 9.997749 
2.5832847e+3, 3.0637512e+2, 69670.375, -50293.17, -22392.996, -0.33022526, 0.3387366, 73714.06, 73714.06, 0.0, 10.000854, 9.999136 
2.582939e+3, 3.1636363e+2, -116206.66, -202812.86, 77465.96, -0.3679853, -0.19998208, -70762.17, -70762.17, 0.0, 9.99953, 9.998784 
2.5995043e+3, 1.2682863e+2, -1574989.1, -1459018.1, -65622.95, 0.20402855, -0.23299512, -1429432.6, 267655.63, 0.16949552, 10.000043, 10.001892 
2.5991586e+3, 1.3682863e+2, -1498684.3, -1477729.9, -78592.055, 0.4250922, -0.00014506168, -1408919.8, 190162.67, 0.11391175, 10.000462, 10.000738 
2.5988123e+3, 1.468236e+2, -1463591.0, -1568968.1, 32239.379, 0.31673288, 0.15269883, -1454510.1, 46618.742, 0.061296463, 10.000782, 9.999074 
2.5984648e+3, 1.5681651e+2, -1352732.0, -1624439.4, -22800.51, 0.038710367, 0.018191675, -1350831.9, 52364.824, 0.023481611, 10.001471, 9.997748 
2.5981182e+3, 1.6680828e+2, -1251718.1, -1528011.6, -86960.34, -0.043747295, 0.04350875, -1226627.0, 78652.85, 0.005220199, 10.00152, 9.997717 
2.597772e+3, 1.767993e+2, -1316906.5, -1532364.6, -120809.86, -0.005118455, -0.13013908, -1262769.6, -55397.49, 0.00041937284, 10.000443, 9.997575 
2.5974253e+3, 1.8679495e+2, -1013996.9, -833016.6, -104547.445, 0.00057248113, 0.032570783, -785236.6, 324176.6, 0.0000020172258, 9.999797, 10.001937 
2.5970787e+3, 1.9679193e+2, -1196471.8, -1053802.5, -56340.563, -0.012299001, 0.045751035, -1034236.7, -22798.656, 0.0, 9.998588, 10.000389 
2.5967327e+3, 2.0678563e+2, -1158947.8, -1119363.4, -5607.293, -0.049781904, 0.07732721, -1118584.4, -205085.03, 0.0, 9.998852, 9.999083 
2.5963876e+3, 2.1677756e+2, -1115063.0, -1133521.6, -44959.133, -0.108262055, -0.13815896, -1078395.6, -262815.28, 0.0, 9.998783, 9.998391 
2.596042e+3, 2.2677279e+2, -785729.8, -717385.8, -34189.477, -0.18478994, 0.057360034, -703218.94, 14410.537, 0.0, 9.999552, 10.0001545 
2.595697e+3, 2.3676878e+2, -762088.4, -808771.8, 20626.611, -0.22327738, 0.15000296, -754280.56, -134609.0, 0.0, 9.999644, 9.998853 
2.5953534e+3, 2.4676175e+2, -497724.78, -648500.25, 78525.08, -0.20171376, 0.19982877, -464257.13, 57482.746, 0.0, 10.000882, 9.998663 
2.5950098e+3, 2.567527e+2, -325232.7, -637126.56, 100499.1, -0.21201818, -0.0738504, -295654.66, 128171.766, 0.0, 10.00187, 9.99763 
2.5946644e+3, 2.6674548e+2, -266168.28, -492539.53, -20557.236, -0.18945119, 0.043937057, -264316.6, 61581.11, 0.0, 10.001394, 9.998122 
2.594319e+3, 2.7673846e+2, -490515.22, -634190.0, -46350.254, -0.10018661, 0.02590537, -476860.2, -248892.03, 0.0, 9.999453, 9.9974785 
2.5939742e+3, 2.8673163e+2, -229767.34, -169587.13, -35583.875, -0.043281738, 0.06457686, -153076.52, -23043.709, 0.0, 9.999331, 10.000026 
2.593628e+3, 2.9672477e+2, -225631.53, -308471.53, 11927.0, -0.13225636, -0.12538376, -223948.52, -191852.44, 0.0, 9.999466, 9.99837 
2.593283e+3, 3.0671996e+2, -84329.32, -303417.8, -28858.703, -0.04669747, 0.25002408, -80591.766, -80591.766, 0.0, 10.000733, 9.997382 
2.592932e+3, 3.1670946e+2, -354692.63, -627672.44, 19577.586, -0.6477887, -0.03052363, -353295.7, -353295.7, 0.0, 9.999411, 9.995865 
2.6094994e+3, 1.2717739e+2, -1732287.0, -1599491.0, -122331.914, 0.18759805, 0.23201291, -1526699.3, 166977.73, 0.14988421, 9.999078, 10.001266 
2.6091528e+3, 1.3717087e+2, -1531038.0, -1623543.5, -136840.17, 0.27757615, -0.036435694, -1432845.1, 162886.28, 0.09979623, 10.000703, 9.999622 
2.6088068e+3, 1.4716518e+2, -1381397.5, -1495157.5, -59082.234, 0.1966607, 0.067262925, -1356265.0, 141518.0, 0.05285716, 10.001176, 9.999429 
2.608462e+3, 1.57159e+2, -1283031.3, -1561322.6, -74321.37, 0.057095606, 0.029352935, -1264426.5, 135415.61, 0.019694533, 10.001711, 9.998123 
2.6081142e+3, 1.6715175e+2, -1176562.6, -1337799.5, -143467.53, -0.03881426, 0.044154298, -1092614.1, 209300.72, 0.004163879, 10.001326, 9.999109 
2.607766e+3, 1.7714378e+2, -1281833.6, -1399521.4, -63144.914, -0.10172132, -0.13055821, -1254364.8, -50368.56, 0.00030229846, 10.000122, 9.998645 
2.607419e+3, 1.8713997e+2, -1072380.1, -903504.94, -73385.12, -0.041392513, 0.06202289, -876071.7, 229963.05, 0.0000010444409, 9.999444, 10.001686 
2.6070726e+3, 1.9713756e+2, -1152257.0, -1056418.1, -80334.16, 0.039438117, 0.20216544, -1010796.94, -2738.8606, 0.0, 9.998817, 10.000321 
2.6067272e+3, 2.0713107e+2, -896505.2, -962559.44, 49554.03, -0.014208975, 0.18463998, -869980.75, 40139.008, 0.0, 10.000382, 9.999469 
2.606383e+3, 2.1712233e+2, -525846.25, -844421.06, 81512.48, -0.10435582, -0.087374665, -506201.4, 306002.1, 0.0, 10.002623, 9.998576 
2.6060376e+3, 2.2711676e+2, -407547.72, -588084.56, -22406.54, -0.17369959, 0.042532824, -404808.38, 309450.7, 0.0, 10.0022335, 9.999809 
2.6056916e+3, 2.3711242e+2, -634523.25, -766366.25, -77444.7, -0.2420809, 0.17428894, -598742.6, 17560.951, 0.0, 10.000404, 9.998846 
2.605348e+3, 2.4710532e+2, -640358.44, -602633.9, -30415.941, -0.23179705, 0.13747883, -585706.3, -67335.914, 0.0, 9.999333, 9.999733 
2.6050052e+3, 2.5709647e+2, -693853.06, -736780.8, -38650.24, -0.16494225, -0.17615622, -671106.75, -250654.2, 0.0, 9.9988365, 9.998461 
2.6046604e+3, 2.6708984e+2, -496754.44, -574175.94, -61989.598, -0.058199413, -0.07339521, -462381.47, -139863.03, 0.0, 9.999535, 9.998531 
2.6043153e+3, 2.7708384e+2, -353969.8, -542091.8, 19207.73, 0.09631361, 0.02653605, -352028.7, -127447.83, 0.0, 10.000142, 9.997824 
2.6039684e+3, 2.870774e+2, -113666.5, -104831.67, 46301.637, -0.008283545, 0.08680992, -62737.203, 63907.375, 0.0, 10.000053, 10.000123 
2.6036203e+3, 2.9707083e+2, -214204.4, -305683.84, -29645.658, -0.29363632, -0.032388184, -205437.36, -176730.28, 0.0, 9.99946, 9.998419 
2.6032797e+3, 3.0706406e+2, -133885.11, -302686.6, 62003.676, 0.1489908, 0.10869176, -113557.914, -113557.914, 0.0, 10.000057, 9.997777 
2.602938e+3, 3.1705377e+2, -259618.42, -593670.9, 61762.72, 0.54152226, -0.12742934, -248564.9, -248564.9, 0.0, 9.9999695, 9.995831 
2.6194933e+3, 1.2752439e+2, -1699213.5, -1697219.1, -79647.73, 0.2143849, 0.59637725, -1618562.4, 71720.98, 0.13183987, 10.000093, 9.999873 
2.6191464e+3, 1.3751315e+2, -1480389.4, -1733144.8, -133569.2, 0.1258933, -0.025198564, -1422886.5, 169496.4, 0.08692974, 10.001839, 9.998218 
2.618802e+3, 1.4750631e+2, -1305928.6, -1440707.3, -36380.223, 0.13234317, 0.0052104043, -1296735.8, 197708.56, 0.045284748, 10.001607, 9.999627 
2.618459e+3, 1.5750074e+2, -1456325.3, -1592638.4, -88694.914, 0.20036052, -0.011600914, -1412624.3, -16128.846, 0.01638905, 10.00031, 9.9986 
2.6181102e+3, 1.6749556e+2, -1216411.0, -1138849.8, -173855.97, 0.021640422, 0.070070915, -999501.7, 299044.38, 0.0032885466, 10.000202, 10.000991 
2.617759e+3, 1.7749007e+2, -1339084.1, -1325564.4, -134433.0, -0.22673216, -0.05172792, -1197721.4, 2879.945, 0.00021471751, 9.9993515, 9.999527 
2.6174125e+3, 1.8748595e+2, -1167734.9, -1087450.9, -124725.69, -0.050540697, 0.14488623, -996566.6, 106079.74, 0.00000047553752, 9.999448, 10.000393 
2.617068e+3, 1.9748226e+2, -1269262.5, -1243403.3, -107922.6, 0.26297018, 0.2594465, -1147638.5, -142950.64, 0.0, 9.998689, 9.999083 
2.6167226e+3, 2.0747583e+2, -877231.1, -832208.4, 107234.664, 0.048492443, 0.23579878, -745147.7, 161597.61, 0.0, 10.000094, 10.000459 
2.6163778e+3, 2.1746784e+2, -782974.3, -969588.2, 80355.625, -0.33678782, -0.0810826, -753142.25, 55672.145, 0.0, 10.000988, 9.99848 
2.6160333e+3, 2.274608e+2, -709258.94, -915183.44, -117543.37, -0.24677712, 0.013926301, -655959.6, 54925.38, 0.0, 10.001109, 9.99804 
2.6156884e+3, 2.3745404e+2, -981231.75, -1101796.1, -143342.55, -0.007805846, 0.049235977, -886011.44, -273054.63, 0.0, 9.998926, 9.99721 
2.6153424e+3, 2.4744733e+2, -734589.25, -577837.2, -48859.867, -0.12324805, 0.07827569, -563854.75, -48834.51, 0.0, 9.998531, 10.000222 
2.6149964e+3, 2.574402e+2, -863950.5, -768220.4, -44576.457, -0.337424, -0.13608937, -750678.06, -333593.44, 0.0, 9.997594, 9.998798 
2.6146537e+3, 2.674351e+2, -452733.22, -287603.63, -36776.33, -0.09589004, -0.035029367, -279783.44, 39347.71, 0.0, 9.998786, 10.000798 
2.614312e+3, 2.774303e+2, -406906.63, -463105.25, 63084.555, 0.27425393, -0.064628795, -365946.3, -144770.08, 0.0, 9.999422, 9.998672 
2.6139638e+3, 2.8742442e+2, -314806.84, -402751.78, 25292.389, 0.07029359, 0.1336938, -308051.78, -184809.67, 0.0, 9.999681, 9.998197 
2.613614e+3, 2.974178e+2, -388099.44, -496120.22, -14757.943, -0.3576317, 0.16185175, -386119.47, -360802.13, 0.0, 9.998825, 9.997402 
2.613271e+3, 3.074097e+2, 5320.6255, 194202.92, 81966.24, -0.15672623, -0.0225676, 224812.14, 224812.14, 0.0, 9.999235, 10.001574 
2.612921e+3, 3.1740665e+2, 55751.7, 231860.88, 242666.1, -0.7376314, 0.048095547, 401954.38, 401954.38, 0.0, 9.999367, 10.001788 
2.6294902e+3, 1.2786461e+2, -1517781.5, -1675314.8, -54537.457, 0.16146235, 0.34739634, -1500743.5, 186200.73, 0.11528824, 10.001744, 9.999221 
2.6291454e+3, 1.3785598e+2, -1152392.1, -1583028.3, -65715.74, 0.17561145, 0.04849232, -1142587.1, 446437.7, 0.07524984, 10.004203, 9.998146 
2.628799e+3, 1.478495e+2, -1130855.3, -1277253.1, -101852.96, 0.13129379, 0.064792566, -1078626.5, 412457.6, 0.038529176, 10.002431, 10.000435 
2.6284528e+3, 1.5784346e+2, -1539968.1, -1534463.0, -89749.766, 0.11300882, -0.055481784, -1447423.6, -54284.125, 0.013527696, 9.999206, 9.999578 
2.628104e+3, 1.6783907e+2, -1331875.3, -1161898.5, -153451.1, 0.020569295, 0.0415469, -1071472.4, 223709.81, 0.0025719018, 9.999152, 10.001398 
2.6277545e+3, 1.7783497e+2, -1235205.6, -1262966.0, -147400.31, -0.121662796, 0.04741551, -1101033.5, 96189.68, 0.00015054179, 9.999867, 9.999757 
2.627408e+3, 1.8782972e+2, -945604.7, -1115112.8, -169638.61, -0.016426189, 0.18233654, -840726.2, 258554.66, 0.0000001940375, 10.001458, 9.999265 
2.6270625e+3, 1.9782388e+2, -723578.0, -1051311.1, -143919.78, 0.14993294, 0.20416577, -669350.2, 331995.03, 0.0, 10.002574, 9.998579 
2.626718e+3, 2.0781781e+2, -647880.0, -723531.56, -13441.482, 0.016078353, 0.2168782, -645562.75, 257836.73, 0.0, 10.001578, 10.000541 
2.6263738e+3, 2.1781129e+2, -903132.06, -1010538.6, -73301.35, -0.24693695, 0.057458222, -865966.56, -60512.37, 0.0, 9.999933, 9.99876 
2.626029e+3, 2.2780357e+2, -826294.0, -1016700.1, -235605.06, -0.17681307, 0.076108076, -667384.2, 40147.44, 0.0, 10.00038, 9.997748 
2.6256835e+3, 2.377955e+2, -586237.9, -880558.7, -197227.3, 0.019279277, 0.032887075, -487319.47, 122296.734, 0.0, 10.001322, 9.997634 
2.625337e+3, 2.4778955e+2, -350240.13, -309329.22, -92663.32, -0.08468746, 0.05121046, -234890.44, 276779.13, 0.0, 10.000672, 10.001095 
2.6249897e+3, 2.5778416e+2, -524127.66, -479092.84, -53195.945, -0.30150923, -0.048390035, -443844.84, -30130.928, 0.0, 9.999238, 10.000038 
2.6246473e+3, 2.6777932e+2, -327200.94, -143654.06, -73958.586, -0.08452646, -0.02463324, -117562.17, 198194.16, 0.0, 9.999213, 10.001608 
2.6243058e+3, 2.7777457e+2, -327994.78, -337287.84, -127922.836, 0.28520498, -0.106514804, -204634.13, 13165.417, 0.0, 9.99945, 9.999564 
2.6239577e+3, 2.8776923e+2, -431259.5, -483836.56, -120580.9, 0.08750745, 0.09499169, -334134.75, -214271.61, 0.0, 9.998851, 9.998089 
2.6236075e+3, 2.9776347e+2, -502611.9, -466592.72, -34854.12, -0.3004793, 0.23190755, -445370.25, -423435.03, 0.0, 9.997569, 9.998244 
2.623263e+3, 3.0775622e+2, -79481.43, 302880.94, -11363.705, -0.2585362, -0.010247935, 303218.38, 303218.38, 0.0, 9.9979315, 10.002984 
2.6229188e+3, 3.1775308e+2, 142022.05, 907396.75, 30710.688, -0.2829306, -0.10412598, 908627.06, 908627.06, 0.0, 9.997052, 10.007608 
2.6394877e+3, 1.282048e+2, -1564490.0, -1731962.9, 49205.55, 0.25870946, 0.071770765, -1551103.0, 132501.6, 0.10017185, 10.001517, 9.998954 
2.6391453e+3, 1.3819988e+2, -1583047.4, -1809448.4, -29454.494, 0.34758022, 0.15924366, -1579278.1, 6377.026, 0.06469282, 10.001105, 9.998067 
2.6387963e+3, 1.4819385e+2, -1321082.8, -1290982.9, -150111.61, 0.22744915, 0.16893291, -1155168.6, 332543.4, 0.032530583, 10.000807, 10.001045 
2.6384458e+3, 1.5818678e+2, -1511901.0, -1519359.4, -157187.61, 0.06963321, -0.1210518, -1358398.3, 31379.404, 0.011066901, 9.999481, 9.999507 
2.638098e+3, 1.6818279e+2, -1264792.5, -1150018.9, -117392.984, 0.0841793, 0.024519974, -1076736.9, 215079.94, 0.0019930317, 9.999772, 10.001126 
2.637751e+3, 1.7817947e+2, -1369614.0, -1452671.8, -131415.31, 0.1323199, 0.134471, -1273321.9, -79471.22, 0.00010503105, 9.99954, 9.998606 
2.637404e+3, 1.8817264e+2, -1121135.9, -1289763.8, -105900.734, 0.047907148, 0.20944011, -1070084.3, 25839.62, 0.00000008640195, 10.000846, 9.998247 
2.637057e+3, 1.9816464e+2, -1012807.25, -1332386.6, -119803.13, -0.05127605, 0.09995337, -972883.25, 25126.412, 0.0, 10.001366, 9.997176 
2.6367137e+3, 2.0815904e+2, -757471.9, -826597.25, -50549.168, 0.0068021812, 0.2357725, -730798.94, 169263.22, 0.0, 10.001103, 10.000038 
2.6363713e+3, 2.1815382e+2, -1143171.8, -1212078.8, -101361.41, 0.09793645, 0.24206096, -1070568.4, -268460.44, 0.0, 9.998734, 9.997956 
2.636025e+3, 2.2814588e+2, -906607.3, -997928.0, -178247.53, -0.010709875, 0.23473398, -768264.8, -64076.99, 0.0, 9.999672, 9.998164 
2.6356775e+3, 2.3813723e+2, -815912.8, -967112.75, -169301.38, -0.14705123, 0.058203433, -706098.94, -99822.51, 0.0, 9.999743, 9.997785 
2.6353312e+3, 2.4813247e+2, -397650.66, -200905.67, -150436.02, -0.13776046, 0.11331877, -119533.5, 388779.88, 0.0, 9.999886, 10.002181 
2.634985e+3, 2.5812837e+2, -726898.8, -573960.3, -88662.555, -0.12264024, 0.024496563, -533345.9, -123005.945, 0.0, 9.997933, 10.0000105 
2.6346406e+3, 2.681221e+2, -521362.13, -354026.16, -77953.086, -0.091451935, -0.024501063, -323339.34, -10940.925, 0.0, 9.998527, 10.000438 
2.6342964e+3, 2.7811533e+2, -565467.2, -534265.7, -143281.77, -0.04830141, -0.22355367, -405737.88, -191272.13, 0.0, 9.9983, 9.9987545 
2.6339486e+3, 2.881108e+2, -411437.34, -231961.8, -192847.6, -0.102666125, -0.04336743, -108995.4, 7522.264, 0.0, 9.998035, 10.000182 
2.6335996e+3, 2.9810697e+2, -641079.56, -471543.53, -59186.66, -0.2797565, 0.07708826, -452925.5, -434360.84, 0.0, 9.996437, 9.998749 
2.633257e+3, 3.081036e+2, -367133.13, -134280.83, -33650.43, -0.08605807, 0.3552865, -129515.4, -129515.4, 0.0, 9.997353, 10.0002 
2.6329103e+3, 3.1809574e+2, -429766.88, -70348.44, -43301.85, -0.31371614, 0.07535668, -65205.137, -65205.137, 0.0, 9.996261, 10.00123 
2.6494822e+3, 1.2854844e+2, -1449863.9, -1437294.4, -57996.984, -0.010910882, -0.0468753, -1385242.6, 294994.1, 0.08643013, 10.001152, 10.001347 
2.649137e+3, 1.3854611e+2, -1965318.1, -1842375.9, 70888.31, 0.18609756, 0.118659034, -1810018.1, -227759.83, 0.055199515, 9.997673, 9.999567 
2.6487905e+3, 1.4854121e+2, -1609000.9, -1502807.8, 31326.686, 0.22140412, 0.23414132, -1494255.3, -9948.264, 0.027235242, 9.999034, 10.000436 
2.648443e+3, 1.5853456e+2, -1274273.6, -1481657.6, -18503.715, 0.20162395, 0.076170966, -1272635.6, 113737.49, 0.0089680515, 10.001336, 9.998896 
2.6480934e+3, 1.6852866e+2, -1095583.6, -1212627.8, -96357.53, 0.0868616, 0.1420632, -1041368.8, 247063.92, 0.0015322798, 10.001594, 9.999802 
2.6477444e+3, 1.785229e+2, -1220231.5, -1424402.0, -123314.76, -0.06134481, 0.15505384, -1162229.5, 28261.504, 0.00007382683, 10.000666, 9.998275 
2.647399e+3, 1.8851621e+2, -1058483.9, -1192871.3, -36603.0, -0.011863528, 0.212345, -1049161.0, 43398.33, 0.000000036839044, 10.000917, 9.9989195 
2.6470542e+3, 1.9850913e+2, -954256.44, -1214852.1, 24253.688, 0.026086204, 0.16534118, -952018.4, 42613.56, 0.0, 10.001247, 9.998072 
2.64671e+3, 2.085031e+2, -696534.94, -811157.44, 63689.46, 0.048975013, 0.2353937, -668167.0, 228521.8, 0.0, 10.001482, 9.999992 
2.6463658e+3, 2.1849734e+2, -732731.5, -963947.5, 58760.598, 0.05684253, 0.22864304, -718655.2, 80086.72, 0.0, 10.0012, 9.998501 
2.64602e+3, 2.2849e+2, -629908.0, -805140.3, 29863.834, 0.01252055, 0.23368555, -624958.3, 75857.48, 0.0, 10.001203, 9.998803 
2.6456735e+3, 2.3848218e+2, -517779.16, -731475.75, 37608.8, -0.06808852, 0.12397162, -511353.53, 91541.47, 0.0, 10.001216, 9.998748 
2.6453266e+3, 2.4847676e+2, -262286.13, -168155.03, -35722.176, -0.07802021, 0.10309258, -156133.88, 348804.66, 0.0, 10.000804, 10.002044 
2.6449794e+3, 2.5847197e+2, -375971.06, -393297.22, -58673.063, -0.054531123, 0.0008662111, -325324.97, 81648.12, 0.0, 10.00009, 10.000275 
2.6446337e+3, 2.6846597e+2, -429930.75, -348795.25, 3016.8867, -0.11089441, -0.019041887, -348683.25, -39651.684, 0.0, 9.999175, 10.000206 
2.6442885e+3, 2.784595e+2, -534435.8, -456945.8, -18422.207, -0.12502003, -0.13144705, -452789.16, -241690.92, 0.0, 9.998067, 9.999436 
2.6439416e+3, 2.8845483e+2, -174517.4, 8271.992, -96190.95, -0.0944951, -0.06731043, 49563.73, 162711.25, 0.0, 9.99901, 10.001392 
2.6435933e+3, 2.9845116e+2, -108344.76, -169697.3, -41261.816, -0.14826398, -0.0022968124, -87605.35, -72417.93, 0.0, 9.99975, 9.9992485 
2.6432514e+3, 3.0844915e+2, -31444.867, -173531.8, 27958.775, 0.0958721, 0.5140469, -26141.314, -26141.314, 0.0, 10.000415, 9.998494 
2.6429048e+3, 3.1843594e+2, 803.84076, -112277.24, 21553.332, -0.16258827, -0.09097115, 4772.629, 4772.629, 0.0, 10.000107, 9.99913 
2.6594764e+3, 1.2889381e+2, -1599426.3, -1269168.1, -136109.86, -0.13528913, -0.06801933, -1220303.1, 456550.78, 0.073999934, 9.998974, 10.00353 
2.659129e+3, 1.3889332e+2, -1700210.0, -1664832.0, -74355.65, 0.10850578, 0.045167327, -1606090.3, -27238.557, 0.04671151, 9.999323, 9.999962 
2.6587847e+3, 1.4888956e+2, -1465723.0, -1507845.9, 59217.42, 0.29163074, 0.31662703, -1423933.1, 56958.887, 0.022592498, 10.000507, 9.999657 
2.658441e+3, 1.5888402e+2, -1423050.4, -1717105.5, -43270.97, 0.47618562, 0.35349894, -1416815.3, -33863.21, 0.0071954923, 10.001134, 9.997377 
2.6580897e+3, 1.6887529e+2, -1212668.6, -1480150.6, -134379.84, 0.124862164, 0.30929345, -1156819.0, 128222.56, 0.001170623, 10.001754, 9.9978695 
2.657737e+3, 1.788662e+2, -1303806.1, -1574653.6, -139545.28, -0.27846903, 0.14491229, -1244775.6, -57642.023, 0.00005271245, 10.000706, 9.997197 
2.657394e+3, 1.8886036e+2, -920792.56, -984644.44, -24268.418, -0.028553944, 0.2251884, -912615.9, 176572.64, 0.000000014947995, 10.00133, 10.000118 
2.657053e+3, 1.988553e+2, -1058877.3, -1231999.5, 8015.527, 0.34794793, 0.26443923, -1058507.0, -67272.17, 0.0, 10.000512, 9.998299 
2.656706e+3, 2.0884871e+2, -796464.25, -823044.94, 30269.654, 0.1186325, 0.24359997, -776695.8, 116600.08, 0.0, 10.000849, 10.000094 
2.6563585e+3, 2.1884167e+2, -1044818.6, -1152718.0, 16663.738, -0.19528414, 0.07802427, -1042303.75, -246942.1, 0.0, 9.999431, 9.997982 
2.656015e+3, 2.2883576e+2, -715163.94, -755630.75, 19772.164, -0.03296361, 0.18627505, -707107.25, -9687.006, 0.0, 10.000388, 9.9994335 
2.6556712e+3, 2.3882979e+2, -794832.9, -918868.4, 14110.276, 0.19322602, 0.1834996, -793247.94, -193768.11, 0.0, 9.999707, 9.998144 
2.6553223e+3, 2.4882247e+2, -482651.3, -427619.2, -75372.51, 0.032581195, 0.07617749, -374897.2, 126649.21, 0.0, 10.000066, 10.000564 
2.654972e+3, 2.588152e+2, -711765.94, -687119.5, -84242.45, -0.2224456, -0.15821598, -614303.7, -210692.38, 0.0, 9.998515, 9.998977 
2.6546264e+3, 2.6881185e+2, -510833.84, -276843.5, -31800.584, -0.18115205, 0.06678525, -272598.63, 33047.6, 0.0, 9.998348, 10.0009985 
2.654282e+3, 2.788088e+2, -706835.9, -531646.6, 10084.053, -0.04646481, 0.20790218, -531068.06, -323387.94, 0.0, 9.9970255, 9.999375 
2.6539364e+3, 2.888026e+2, -230959.67, -27485.266, -29300.537, 0.02857765, 0.12104493, -23349.998, 86390.375, 0.0, 9.998827, 10.001148 
2.653589e+3, 2.9879618e+2, -238655.0, -351857.06, 21210.008, -0.09802707, -0.058935806, -234811.5, -223009.75, 0.0, 9.999529, 9.998065 
2.6532456e+3, 3.0879086e+2, -53948.906, -271344.75, 39340.72, -0.045500692, 0.21296477, -47048.684, -47048.684, 0.0, 10.000739, 9.9976 
2.652899e+3, 3.1877893e+2, 108196.13, 152006.84, 6107.508, -0.33586964, -0.26366183, 152842.34, 152842.34, 0.0, 10.000056, 10.000934 
2.66947e+3, 1.2924263e+2, -1972553.1, -1555314.5, -56198.055, -0.120173246, 0.2147976, -1547877.8, 125564.15, 0.062782116, 9.996879, 10.002454 
2.6691273e+3, 1.3923785e+2, -1318744.8, -1536132.1, -57701.914, 0.30648297, 0.041381955, -1304378.1, 271099.84, 0.039146993, 10.002197, 9.999516 
2.6687816e+3, 1.4923236e+2, -1142935.5, -1351292.6, -29672.045, 0.30317527, 0.13969752, -1138792.3, 338739.63, 0.018543638, 10.002785, 9.999647 
2.6684356e+3, 1.5922631e+2, -1265298.1, -1629703.8, -69628.94, 0.22363861, 0.15068868, -1252447.0, 127147.14, 0.005710664, 10.002091, 9.9975395 
2.6680857e+3, 1.6921872e+2, -964130.75, -1380590.5, -112594.64, -0.00028718292, 0.21084198, -935638.8, 346035.63, 0.0008890518, 10.003422, 9.997785 
2.6677352e+3, 1.7921081e+2, -739251.6, -1278318.9, -63785.215, -0.25551233, 0.18785295, -731807.06, 451950.0, 0.000037964888, 10.004341, 9.997492 
2.667392e+3, 1.8920435e+2, -548578.7, -827521.75, -29875.04, 0.016757865, 0.20798585, -545414.9, 540402.06, 0.0000000057994387, 10.003871, 10.000029 
2.6670495e+3, 1.991983e+2, -737103.4, -1043924.06, -57531.37, 0.35597524, 0.17135449, -726670.56, 261200.73, 0.0, 10.002427, 9.998704 
2.6667017e+3, 2.0919181e+2, -756514.44, -840704.4, -84957.44, 0.11769309, 0.16543122, -703795.06, 186138.23, 0.0, 10.001234, 9.999832 
2.6663527e+3, 2.1918504e+2, -882261.2, -990334.7, -114683.87, -0.22486973, 0.06108119, -809521.1, -17522.451, 0.0, 10.000012, 9.998871 
2.666009e+3, 2.2917974e+2, -740252.3, -658601.44, -71932.33, -0.036028527, 0.119261354, -616716.7, 77331.766, 0.0, 9.999624, 10.000537 
2.6656663e+3, 2.3917459e+2, -731879.2, -758885.4, -66402.84, 0.24074197, 0.1217203, -677620.4, -81523.99, 0.0, 9.999418, 9.999422 
2.6653165e+3, 2.4916795e+2, -582008.5, -445462.88, -83926.22, 0.049202982, 0.015324254, -405547.03, 92609.41, 0.0, 9.999188, 10.000875 
2.664965e+3, 2.591612e+2, -599565.1, -552936.5, 13036.004, -0.24737385, -0.16790532, -549539.5, -149321.47, 0.0, 9.998826, 9.99976 
2.6646188e+3, 2.691582e+2, -340427.7, -188448.34, 49036.254, -0.23489025, 0.06312092, -174000.28, 128250.55, 0.0, 9.999356, 10.00119 
2.6642743e+3, 2.7915555e+2, -285793.9, -292064.44, 37474.645, -0.069960736, 0.25484478, -251323.61, -47042.16, 0.0, 9.999627, 9.999809 
2.6639304e+3, 2.8914827e+2, -62032.637, -34507.18, 163.0745, 0.04556049, 0.10063505, -34506.21, 71845.555, 0.0, 10.000245, 10.000511 
2.6635844e+3, 2.991405e+2, -128568.25, -307482.28, -10466.936, 0.01724493, -0.13410078, -127957.99, -119531.484, 0.0, 10.000165, 9.99813 
2.6632386e+3, 3.0913547e+2, -207304.39, -328888.8, 63471.98, -0.16771728, 0.15331715, -180208.13, -180208.13, 0.0, 9.999568, 9.997804 
2.662894e+3, 3.191269e+2, 33116.67, 370176.3, 24780.463, -0.26136056, -0.002660803, 371988.4, 371988.4, 0.0, 9.998283, 10.00334 
2.6794648e+3, 1.2959129e+2, -1723117.4, -1625855.3, 115645.734, 0.15231515, 0.5631924, -1549031.5, 120999.695, 0.05267765, 9.999521, 10.000653 
2.6791275e+3, 1.3958153e+2, -1406296.8, -1701126.8, -35484.71, 0.6539191, 0.017907724, -1402086.1, 170028.33, 0.03242507, 10.002199, 9.998314 
2.6787785e+3, 1.4957406e+2, -1184899.6, -1363624.3, -77484.63, 0.30338013, -0.077146545, -1155984.8, 318198.6, 0.015032841, 10.002461, 9.999651 
2.678429e+3, 1.5956697e+2, -1400370.9, -1713816.3, -94247.88, -0.06988811, -0.19239204, -1374214.8, 2036.6123, 0.0044764117, 10.001326, 9.997297 
2.678082e+3, 1.6956168e+2, -1048754.3, -1349174.9, -73632.49, -0.09014952, 0.06497019, -1031677.75, 246632.44, 0.00066900725, 10.002672, 9.998311 
2.677736e+3, 1.7955647e+2, -999252.1, -1427144.8, -68425.73, -0.040440235, 0.26435295, -988576.3, 191792.14, 0.000027210404, 10.002781, 9.9972105 
2.6773903e+3, 1.8954872e+2, -767138.44, -997822.5, -62430.363, 0.09950436, 0.19774999, -751326.6, 331114.38, 0.000000001728097, 10.002763, 9.999349 
2.6770452e+3, 1.9954081e+2, -1074191.5, -1337372.8, -88326.875, 0.26555496, 0.043936923, -1047296.4, -62782.293, 0.0, 10.000818, 9.997437 
2.676697e+3, 2.0953433e+2, -886904.25, -984207.44, -103203.96, 0.12543906, 0.114903234, -821459.25, 65120.582, 0.0, 10.000749, 9.999045 
2.6763484e+3, 2.195282e+2, -1097026.3, -1131377.4, -119471.59, -0.05792458, 0.13247097, -993501.94, -204859.7, 0.0, 9.998803, 9.998484 
2.6760033e+3, 2.2952266e+2, -718306.4, -507270.47, -71694.016, -0.007946473, 0.06321302, -485218.56, 205472.47, 0.0, 9.999216, 10.001739 
2.6756582e+3, 2.3951755e+2, -925057.9, -777866.5, -82079.19, 0.094042815, -0.065059155, -741220.1, -148485.95, 0.0, 9.997902, 10.000004 
2.6753086e+3, 2.4951383e+2, -587922.2, -254882.67, -97700.81, -0.031060027, -0.025870083, -228336.95, 266425.3, 0.0, 9.998478, 10.00242 
2.674958e+3, 2.5951007e+2, -834977.6, -668781.25, 24792.479, -0.2327184, -0.063560866, -665161.6, -268369.47, 0.0, 9.997362, 9.999632 
2.6746112e+3, 2.6950473e+2, -480782.75, -343491.75, 62828.887, -0.38681754, -0.020234842, -319079.88, -20232.953, 0.0, 9.998848, 10.000329 
2.6742652e+3, 2.794988e+2, -537607.0, -603723.56, 48860.613, -0.44594604, -0.071658105, -511671.97, -310762.66, 0.0, 9.998798, 9.998068 
2.6739225e+3, 2.8949064e+2, -212152.31, -262043.45, -14932.507, -0.21048799, -0.17774208, -208024.5, -105029.88, 0.0, 9.9999485, 9.999054 
2.6735786e+3, 2.994836e+2, -270333.6, -399643.94, -48652.563, -0.07272747, -0.23717129, -254072.98, -249004.5, 0.0, 9.999392, 9.99786 
2.6732323e+3, 3.0948642e+2, -164565.92, -75186.72, 2463.1885, -0.19246821, 0.67279965, -75118.89, -75118.89, 0.0, 9.998944, 9.999808 
2.6728863e+3, 3.1947568e+2, -217164.83, 203619.34, 179611.4, -0.3893623, 0.13902336, 269858.94, 269858.94, 0.0, 9.996935, 10.0028105 
2.689463e+3, 1.2993397e+2, -1341580.6, -1636395.1, 6563.8105, 0.15231103, 0.51702577, -1341434.5, 325236.1, 0.043619167, 10.003087, 9.998808 
2.6891208e+3, 1.3992257e+2, -1419584.0, -1752466.3, -98678.086, 0.25798628, -0.04314139, -1392530.9, 176246.9, 0.02648621, 10.002209, 9.997976 
2.6887727e+3, 1.4991775e+2, -1194683.5, -1317539.4, -147942.16, 0.032315087, 0.08999261, -1095923.1, 374901.97, 0.012009438, 10.002068, 10.000211 
2.6884246e+3, 1.599133e+2, -1267121.5, -1531108.6, -128042.36, -0.16206431, 0.18259981, -1215220.6, 157649.19, 0.003455713, 10.00159, 9.998457 
2.6880792e+3, 1.6990735e+2, -1045462.94, -1237857.6, -71770.93, -0.0572302, 0.2498005, -1021639.5, 253291.86, 0.00049606664, 10.002065, 9.999435 
2.6877338e+3, 1.7990138e+2, -1015749.44, -1306014.3, -56414.23, 0.0222697, 0.27437592, -1005170.7, 171821.86, 0.00001910138, 10.001942, 9.998495 
2.6873863e+3, 1.8989438e+2, -874345.8, -970702.5, -43868.92, 0.047506385, 0.19011313, -857365.6, 221690.23, 0.0000000002885943, 10.001517, 10.000209 
2.6870385e+3, 1.9988747e+2, -1010412.8, -1196779.4, 27061.113, 0.05112628, 0.078457445, -1006562.94, -25445.01, 0.0, 10.000632, 9.998522 
2.6866913e+3, 2.0988111e+2, -735346.4, -869750.3, 100619.375, 0.024217734, 0.11960745, -681551.0, 201629.6, 0.0, 10.001528, 9.999489 
2.6863444e+3, 2.19875e+2, -549545.6, -818880.25, 114027.81, -0.025675755, 0.13762882, -507754.34, 277487.56, 0.0, 10.002225, 9.998996 
2.6859975e+3, 2.2986914e+2, -455450.47, -453265.78, 51185.063, -0.03989866, 0.089827515, -403161.4, 284135.0, 0.0, 10.001199, 10.001236 
2.6856503e+3, 2.3986374e+2, -608787.75, -590908.4, -51137.082, -0.045328166, 0.0039856993, -547935.44, 41409.15, 0.0, 9.99977, 10.000433 
2.6853013e+3, 2.4985941e+2, -392650.94, -221365.0, -167075.98, -0.12634496, -0.002990393, -119260.516, 372118.84, 0.0, 9.999922, 10.002053 
2.684952e+3, 2.5985506e+2, -412003.72, -481598.4, -179814.53, -0.22972421, -0.040152505, -263650.53, 129764.516, 0.0, 10.0001545, 9.999625 
2.684605e+3, 2.6984903e+2, -388354.13, -382837.6, -156796.58, -0.33743948, -0.02798623, -228775.02, 66701.14, 0.0, 9.999751, 9.999676 
2.684259e+3, 2.798424e+2, -491135.88, -580491.5, -136562.4, -0.40368882, -0.08393359, -392128.63, -194583.8, 0.0, 9.999003, 9.998135 
2.6839155e+3, 2.898345e+2, -245413.52, -282944.13, -67213.73, -0.31869885, -0.1826212, -194394.7, -94766.414, 0.0, 9.999652, 9.999065 
2.6835716e+3, 2.9982832e+2, -137490.64, -239554.14, -51662.316, -0.20181622, -0.16111688, -115905.35, -114210.11, 0.0, 9.9997835, 9.998767 
2.6832268e+3, 3.098332e+2, -13921.972, 148948.11, -88179.63, -0.059479233, 0.8247105, 187543.55, 187543.55, 0.0, 9.999227, 10.001241 
2.682878e+3, 3.1982037e+2, -152357.92, 189665.81, 103341.11, -0.3761778, -0.0067980946, 218464.97, 218464.97, 0.0, 9.997459, 10.002465 
2.6994616e+3, 1.3027625e+2, -1385458.6, -1836675.6, 24850.646, 0.20822722, 0.4189255, -1384094.1, 279219.03, 0.03555016, 10.003608, 9.99713 
2.6991135e+3, 1.4026442e+2, -1590417.1, -1932187.1, -51579.836, -0.11365495, -0.045032043, -1582802.4, -17369.102, 0.021269776, 10.00145, 9.997115 
2.698767e+3, 1.502627e+2, -1183833.9, -1245698.3, -81980.11, -0.16305329, 0.3676499, -1127144.5, 340312.06, 0.009415533, 10.001899, 10.000776 
2.6984218e+3, 1.602611e+2, -1298978.0, -1482033.0, -98219.74, -0.057522252, 0.6975716, -1256250.5, 113227.14, 0.0026134893, 10.001186, 9.998974 
2.6980764e+3, 1.7025372e+2, -1030814.0, -1077488.3, -55916.645, 0.044072744, 0.5032077, -993559.94, 277988.44, 0.0003600524, 10.001615, 10.000685 
2.6977304e+3, 1.8024608e+2, -1169758.8, -1269080.4, -69565.18, 0.09560684, 0.23890239, -1133947.3, 39672.918, 0.000012952271, 10.000547, 9.999381 
2.697381e+3, 1.9024107e+2, -823853.25, -776424.3, -82335.1, -0.014075351, 0.20823224, -714456.56, 361205.3, 0.000000000007316074, 10.001294, 10.0015745 
2.6970318e+3, 2.0023641e+2, -1045526.4, -1141203.0, 6392.2334, -0.12215384, 0.19681765, -1045101.2, -67401.08, 0.0, 10.000189, 9.999115 
2.6966858e+3, 2.1023035e+2, -736668.6, -762307.94, 102704.01, -0.09716416, 0.1596215, -645987.3, 233768.06, 0.0, 10.001135, 10.000378 
2.6963404e+3, 2.2022416e+2, -903476.5, -1101336.6, 81095.42, -0.06204172, 0.11489954, -874486.2, -92672.44, 0.0, 10.000441, 9.997879 
2.6959917e+3, 2.3021851e+2, -719792.6, -760286.6, -17563.793, -0.11422366, 0.22425883, -713236.1, -29363.95, 0.0, 10.000367, 9.999407 
2.6956427e+3, 2.4021275e+2, -1021877.8, -1087701.3, -75166.48, -0.1852181, 0.28472754, -972733.56, -386802.28, 0.0, 9.99836, 9.997671 
2.695294e+3, 2.5020444e+2, -623452.5, -578422.0, -164369.52, -0.26175013, 0.09958667, -435032.84, 52976.31, 0.0, 9.999503, 9.9997425 
2.694946e+3, 2.601966e+2, -806335.1, -905008.75, -192298.0, -0.29231888, -0.08501207, -657145.75, -267063.03, 0.0, 9.998622, 9.997415 
2.6946014e+3, 2.7019164e+2, -546649.6, -526766.1, -193945.83, -0.0766847, 0.12728322, -342507.4, -50371.656, 0.0, 9.999098, 9.998924 
2.6942572e+3, 2.8018704e+2, -630640.75, -591811.1, -135880.14, 0.035766035, 0.29475293, -473965.78, -279780.6, 0.0, 9.997967, 9.998528 
2.6939094e+3, 2.901816e+2, -165668.63, 19863.15, -44553.99, -0.32065237, 0.25456798, 30007.746, 126246.06, 0.0, 9.999228, 10.001287 
2.693562e+3, 3.00176e+2, -247332.52, -239870.67, -40782.73, -0.62800527, 0.15543424, -202648.56, -202648.56, 0.0, 9.998937, 9.999158 
2.6932216e+3, 3.101708e+2, -96352.68, 72138.91, -122595.87, 0.043854337, 0.13738272, 136644.92, 136644.92, 0.0, 9.998915, 10.00084 
2.6928708e+3, 3.2016218e+2, -343442.63, -33074.457, 79483.56, -0.43594134, -0.23028128, -13903.34, -13903.34, 0.0, 9.996872, 10.001208 
2.709462e+3, 1.306194e+2, -1165999.9, -1565555.1, -94001.71, 0.2377863, 0.13547517, -1144989.3, 514958.78, 0.028415078, 10.004368, 9.998687 
2.709111e+3, 1.406134e+2, -1528959.1, -1835513.9, 73538.984, -0.056340814, 0.16393748, -1512230.8, 49780.375, 0.016713178, 10.001542, 9.9977455 
2.7087638e+3, 1.5060881e+2, -1168826.8, -1305379.0, 93127.43, -0.14490558, 0.3274371, -1121628.4, 342434.97, 0.0071980846, 10.002205, 10.000259 
2.7084178e+3, 1.6060433e+2, -1108871.9, -1357842.4, 23792.697, -0.14134149, 0.43128374, -1106618.5, 259495.02, 0.0019202423, 10.002256, 9.999339 
2.708072e+3, 1.7059913e+2, -1023265.5, -1026860.5, 16140.725, 0.013644417, 0.42675123, -1008822.5, 259340.45, 0.00025324232, 10.001432, 10.001157 
2.7077258e+3, 1.8059368e+2, -1179635.5, -1229864.9, 2252.159, 0.0982081, 0.37182212, -1179534.8, -9320.933, 0.000008369746, 10.000205, 9.999826 
2.7073774e+3, 1.9058794e+2, -775512.94, -804374.25, -51415.6, 0.048280243, 0.2960559, -736541.25, 335724.8, 0.0, 10.001833, 10.001129 
2.7070293e+3, 2.0058258e+2, -585743.5, -851096.75, -73893.0, -0.031773373, 0.24563698, -566554.2, 407759.47, 0.0, 10.0029335, 9.999812 
2.7066827e+3, 2.1057709e+2, -577950.5, -631343.44, -42839.723, -0.015612346, 0.20488317, -554169.8, 322191.06, 0.0, 10.00183, 10.001034 
2.7063358e+3, 2.2057149e+2, -856070.0, -1008398.3, -72695.26, -0.037466645, 0.16725996, -826946.06, -48535.184, 0.0, 10.000309, 9.998623 
2.705986e+3, 2.3056486e+2, -727236.9, -847242.8, -108798.82, -0.18025827, 0.21367748, -662991.94, 17488.127, 0.0, 10.000573, 9.998785 
2.705636e+3, 2.4055816e+2, -609195.8, -902196.2, -79988.17, -0.3141347, 0.25972787, -588781.6, -6231.4326, 0.0, 10.00111, 9.997639 
2.7052882e+3, 2.5055036e+2, -276243.34, -500200.2, -52054.996, -0.3219038, 0.19327787, -264735.38, 219889.84, 0.0, 10.00218, 9.999038 
2.7049413e+3, 2.605426e+2, -211001.52, -598217.06, -22819.176, -0.25530192, 0.11385073, -209661.38, 177038.63, 0.0, 10.002528, 9.997637 
2.7045968e+3, 2.7053636e+2, -284117.9, -432047.22, -25178.33, 0.009640857, 0.22074822, -279949.88, 8814.177, 0.0, 10.000918, 9.998743 
2.704252e+3, 2.805308e+2, -412881.66, -393048.84, 47266.59, 0.2201062, 0.32606634, -354669.66, -163847.92, 0.0, 9.998909, 9.999461 
2.7039036e+3, 2.90527e+2, -231972.77, 89707.94, 52942.18, -0.22501096, 0.37260577, 98197.125, 191056.27, 0.0, 9.9982815, 10.002267 
2.703555e+3, 3.005224e+2, -370947.4, -233380.5, -43547.06, -0.6240367, 0.32050818, -220754.44, -220754.44, 0.0, 9.997678, 9.9998455 
2.7032155e+3, 3.10513e+2, -16365.909, 67066.8, -126849.086, 0.119572006, -0.097892635, 158883.0, 158883.0, 0.0, 9.999563, 10.000543 
2.7028638e+3, 3.2050914e+2, -101844.46, 8920.58, -35958.4, -0.34593162, 0.080102384, 19570.098, 19570.098, 0.0, 9.998761, 10.000603 
2.7194625e+3, 1.3096403e+2, -1242258.4, -1377776.3, -142886.05, 0.44823182, -0.09499982, -1151879.1, 504690.88, 0.02219124, 10.002951, 10.000644 
2.719109e+3, 1.4096393e+2, -1575377.4, -1871457.1, 16140.228, 0.18978284, 0.3839989, -1574500.1, -15927.1, 0.01278431, 10.001308, 9.9976225 
2.7187616e+3, 1.509553e+2, -1234262.6, -1424946.0, 98318.414, -0.020449901, 0.19835785, -1192649.8, 268014.16, 0.00532732, 10.002242, 9.999378 
2.7184147e+3, 1.609471e+2, -1240966.1, -1475144.0, -20683.785, -0.10324359, 0.0050884574, -1239153.3, 123596.56, 0.0013580795, 10.001718, 9.998775 
2.7180678e+3, 1.7094505e+2, -1018917.1, -1007685.6, -57932.957, 0.043722007, 0.29428896, -955096.9, 309672.34, 0.00016970174, 10.0014925, 10.00122 
2.7177212e+3, 1.809426e+2, -1325923.4, -1435371.6, -3828.9932, 0.18327068, 0.56454724, -1325789.6, -158996.95, 0.0000049540654, 9.999876, 9.99857 
2.717375e+3, 1.9093473e+2, -943346.4, -1034160.0, -5564.7925, 0.20923519, 0.38536754, -943006.6, 125864.375, 0.0, 10.001357, 9.999742 
2.717029e+3, 2.0092718e+2, -935587.6, -1113657.8, -86496.31, 0.24716236, 0.22973357, -900490.25, 70454.36, 0.0, 10.001091, 9.998848 
2.7166805e+3, 2.1092291e+2, -694036.6, -611816.56, -114436.14, 0.20145208, 0.26937544, -531330.25, 341648.72, 0.0, 10.000916, 10.001506 
2.7163312e+3, 2.209181e+2, -1115903.9, -1183303.6, -99157.586, 0.1006691, 0.28564623, -1044875.94, -269856.44, 0.0, 9.998888, 9.998091 
2.71598e+3, 2.3090912e+2, -789853.56, -867776.75, -89601.47, -0.20143428, 0.08691272, -731109.4, -53999.703, 0.0, 10.000211, 9.998771 
2.71563e+3, 2.4090116e+2, -863236.9, -1042400.5, -38097.043, -0.4528097, 0.005879362, -855472.5, -276282.34, 0.0, 9.999632, 9.997338 
2.7152842e+3, 2.5089785e+2, -353479.56, -461111.8, -8907.388, -0.35386696, 0.31647134, -352747.38, 128474.25, 0.0, 10.001459, 9.999575 
2.7149385e+3, 2.608935e+2, -448662.0, -746081.9, -48174.23, -0.23882926, 0.53808594, -441053.7, -57791.48, 0.0, 10.001143, 9.9973 
2.71459e+3, 2.7088326e+2, -357469.97, -428420.03, -88632.1, -0.17644922, 0.21485986, -297477.06, -12118.665, 0.0, 10.00037, 9.998998 
2.7142423e+3, 2.8087378e+2, -657269.56, -643590.3, 10570.883, -0.107473165, -0.062417842, -637839.3, -450389.56, 0.0, 9.997911, 9.998218 
2.7138972e+3, 2.9086944e+2, -426312.63, -169966.28, 13639.501, -0.105841115, 0.053399816, -169242.61, -79743.086, 0.0, 9.997714, 10.00072 
2.713551e+3, 3.0086654e+2, -613758.06, -471588.5, -29652.05, -0.26003116, 0.29603803, -465651.94, -465651.94, 0.0, 9.99664, 9.998684 
2.7132082e+3, 3.1086496e+2, -66044.94, 39116.94, -61758.137, 0.009327779, 0.6679082, 67645.94, 67645.94, 0.0, 9.999325, 10.000401 
2.7128556e+3, 3.2085675e+2, -265401.7, -235638.1, -186943.89, -0.601811, 0.45065105, -62984.598, -62984.598, 0.0, 9.998501, 9.998986 
2.7294597e+3, 1.3131475e+2, -1382361.9, -1473286.1, -220612.58, 0.37684804, 0.1778824, -1202575.9, 450566.6, 0.016854309, 10.002054, 10.000392 
2.7291006e+3, 1.4131224e+2, -1497963.5, -1900817.6, -10246.765, -0.3917767, 0.46201625, -1497703.0, 57463.305, 0.009467287, 10.002073, 9.997064 
2.728758e+3, 1.5130328e+2, -1274362.9, -1557949.5, 77006.33, -0.064090304, 0.34053174, -1254801.5, 202457.95, 0.0037924994, 10.002463, 9.998344 
2.7284154e+3, 1.6129474e+2, -1142554.6, -1409623.8, -63940.66, 0.23781602, 0.18487617, -1128035.5, 231311.39, 0.0009170214, 10.002261, 9.998952 
2.728065e+3, 1.712909e+2, -826640.8, -892835.44, -97865.71, 0.10827703, 0.2799765, -756427.25, 504951.94, 0.0001065257, 10.002633, 10.001488 
2.7277157e+3, 1.8128733e+2, -961940.06, -1233881.9, -53245.543, -0.015688641, 0.42379907, -951886.44, 211524.34, 0.0000025959862, 10.002155, 9.998874 
2.7273697e+3, 1.9128032e+2, -1048900.1, -1142596.9, -26468.46, 0.12079846, 0.37504268, -1041940.06, 23543.477, 0.0, 10.000757, 9.9993725 
2.7270237e+3, 2.012734e+2, -1147156.3, -1160933.1, -65176.95, 0.22719708, 0.31517166, -1088504.8, -120950.99, 0.0, 9.999279, 9.999415 
2.7266753e+3, 2.1126817e+2, -728522.94, -648882.4, -87752.17, 0.19263656, 0.2674604, -592338.25, 277260.5, 0.0, 10.000648, 10.001442 
2.7263263e+3, 2.2126307e+2, -600028.6, -851551.9, -90101.68, 0.07761888, 0.26199353, -571083.1, 200560.64, 0.0, 10.0019245, 9.998917 
2.7259752e+3, 2.3125593e+2, -451582.1, -655801.3, -68215.25, -0.23484766, 0.19763254, -430892.3, 242823.3, 0.0, 10.002202, 9.999293 
2.7256256e+3, 2.4124895e+2, -475553.7, -793930.5, -29130.71, -0.4557677, 0.1798121, -472910.25, 102875.23, 0.0, 10.001886, 9.997974 
2.7252802e+3, 2.5124353e+2, -453256.66, -555514.06, -49555.8, -0.29024884, 0.3150617, -433181.97, 44653.453, 0.0, 10.00086, 9.999284 
2.7249345e+3, 2.6123804e+2, -554747.56, -681961.3, -156814.39, -0.12420167, 0.42573512, -449130.94, -69245.59, 0.0, 9.999778, 9.998416 
2.724584e+3, 2.712288e+2, -406111.06, -371697.75, -169746.22, -0.17789266, 0.12533565, -218288.31, 63680.117, 0.0, 9.99959, 9.999815 
2.7242348e+3, 2.8121972e+2, -460123.0, -541132.56, -4251.209, -0.16758077, -0.14450878, -459900.53, -275847.03, 0.0, 9.999094, 9.998379 
2.7238902e+3, 2.9121438e+2, -228786.7, -217325.61, 21874.918, -0.087145224, -0.034583293, -200443.08, -114326.164, 0.0, 9.999539, 9.999566 
2.7235448e+3, 3.0121133e+2, -248328.84, -320476.06, 26080.65, -0.07791741, 0.2984838, -239888.34, -239888.34, 0.0, 9.999132, 9.998536 
2.723202e+3, 3.1121296e+2, -212334.72, -86675.586, -9816.991, 0.08443922, 1.0239673, -85913.266, -85913.266, 0.0, 9.998391, 10.000084 
2.7228487e+3, 3.212011e+2, -196833.05, -120576.586, -273814.3, -0.5842164, 0.4796174, 117751.414, 117751.414, 0.0, 9.998372, 9.999935 
2.739456e+3, 1.3166565e+2, -1578648.8, -1605130.4, -253651.19, 0.38490513, 0.52632374, -1337893.0, 311822.16, 0.012358647, 10.000955, 9.999938 
2.739092e+3, 1.4165945e+2, -1547508.9, -2042462.3, -70383.3, -0.8772515, 0.50430983, -1537694.9, 14076.534, 0.0067449408, 10.002312, 9.995924 
2.7387547e+3, 1.5165155e+2, -1257789.3, -1649495.0, 52809.56, -0.058443747, 0.5413208, -1250794.4, 203059.03, 0.0025850076, 10.002992, 9.997431 
2.7384162e+3, 1.6164368e+2, -1192735.4, -1467766.6, -60368.28, 0.6897703, 0.51621026, -1180068.3, 175864.17, 0.0005889778, 10.002118, 9.998598 
2.7380627e+3, 1.7163673e+2, -866979.25, -892709.8, -95986.54, 0.2084805, 0.26319903, -782999.7, 474990.44, 0.00006228534, 10.0023, 10.001634 
2.73771e+3, 1.8163066e+2, -1170644.6, -1386369.5, -93563.516, -0.19867899, 0.17251845, -1135718.9, 24323.396, 0.0000011486238, 10.0010605, 9.998327 
2.737363e+3, 1.9162595e+2, -1083931.9, -1146746.3, -81351.625, -0.009587853, 0.33367506, -1028135.3, 33958.383, 0.0, 10.000598, 9.999335 
2.7370164e+3, 2.0162082e+2, -1260458.9, -1281108.6, -27059.494, 0.16255465, 0.46906146, -1241821.4, -277673.44, 0.0, 9.998929, 9.998722 
2.736669e+3, 2.116133e+2, -828664.25, -756180.94, -10528.203, 0.093431816, 0.21686363, -754682.6, 111535.54, 0.0, 10.000251, 10.000863 
2.7363214e+3, 2.2160709e+2, -912094.25, -1042247.25, -42570.688, -0.032705728, 0.15606274, -899406.94, -131130.22, 0.0, 10.00007, 9.998477 
2.7359712e+3, 2.3160474e+2, -544598.56, -608815.0, -67576.8, -0.25988457, 0.48701146, -501889.94, 168413.1, 0.0, 10.001294, 9.9999895 
2.735622e+3, 2.4160004e+2, -805278.44, -1089926.0, -63054.137, -0.3951013, 0.68853617, -791936.3, -219586.0, 0.0, 10.000332, 9.996671 
2.7352762e+3, 2.5158688e+2, -642257.1, -769237.44, -98763.516, -0.18008068, 0.1321374, -588336.75, -113865.016, 0.0, 10.000189, 9.9980755 
2.7349293e+3, 2.6157632e+2, -782159.94, -797398.5, -190474.89, -0.024591923, -0.19297296, -599152.0, -222584.1, 0.0, 9.9983835, 9.998257 
2.7345788e+3, 2.7157345e+2, -412707.84, -222971.19, -181675.44, -0.044838242, 0.0001838343, -112885.94, 165704.5, 0.0, 9.998965, 10.001088 
2.734229e+3, 2.8156972e+2, -645377.94, -689181.9, 9131.065, -0.12179429, 0.19319755, -643550.75, -462926.2, 0.0, 9.998236, 9.997737 
2.733882e+3, 2.9156274e+2, -293538.94, -310321.78, 51023.8, -0.3184987, 0.17430538, -250221.13, -167519.75, 0.0, 9.999493, 9.9989 
2.7335358e+3, 3.015566e+2, -393738.97, -521855.53, -7151.6187, -0.41527885, 0.28396055, -393341.0, -393341.0, 0.0, 9.998827, 9.997282 
2.7331966e+3, 3.1155226e+2, -372665.78, -238240.72, -63868.82, 0.276693, 0.46012306, -212734.58, -212734.58, 0.0, 9.997747, 9.999273 
2.7328438e+3, 3.2154036e+2, 68584.914, 561353.06, 40.456127, -0.44217163, -0.20506033, 561353.06, 561353.06, 0.0, 9.997969, 10.004754 
2.7494484e+3, 1.3200882e+2, -1535235.3, -1432479.0, -260907.89, 0.016879609, 0.50490963, -1217938.6, 428421.25, 0.00868548, 10.00045, 10.00146 
2.749097e+3, 1.4200304e+2, -1145910.4, -1635541.0, -60620.86, -0.29305726, 0.37853113, -1138516.6, 409884.88, 0.0045926278, 10.004068, 9.997896 
2.7487528e+3, 1.5199614e+2, -950498.94, -1327928.4, 90005.87, -0.10729142, 0.3432075, -930134.0, 520335.4, 0.0016782226, 10.004238, 9.999121 
2.7484086e+3, 1.6198932e+2, -990370.2, -1321654.5, -6614.3643, 0.13583465, 0.3283649, -990238.2, 362298.16, 0.0003582281, 10.003247, 9.99906 
2.7480572e+3, 1.7198357e+2, -960883.25, -1018359.75, -79349.97, 0.029957786, 0.2581351, -905227.75, 349361.47, 0.000033741435, 10.002003, 10.000914 
2.7477065e+3, 1.8197787e+2, -1129248.4, -1280700.4, -66330.83, -0.114856936, 0.24775356, -1104305.5, 52335.977, 0.00000040337267, 10.000903, 9.999124 
2.7473593e+3, 1.9197185e+2, -771901.44, -917942.6, -3802.7915, 0.016666863, 0.20730017, -771802.5, 286898.22, 0.0, 10.002292, 10.000126 
2.7470118e+3, 2.0196638e+2, -638150.75, -890546.5, 37734.758, 0.10036552, 0.24685396, -632629.94, 328124.6, 0.0, 10.002686, 9.999612 
2.7466628e+3, 2.1196069e+2, -737844.25, -692624.6, 82848.3, -0.006511025, 0.16567355, -629356.4, 233451.52, 0.0, 10.000667, 10.001148 
2.7463144e+3, 2.2195542e+2, -990849.7, -1046414.56, 115585.66, -0.13327505, 0.18931174, -899754.44, -134895.27, 0.0, 9.999227, 9.998903 
2.7459666e+3, 2.3195177e+2, -616859.2, -695866.2, 73494.09, -0.26466286, 0.45986542, -572924.6, 93975.18, 0.0, 10.000862, 9.999711 
2.7456185e+3, 2.4194647e+2, -501775.44, -821461.94, -2057.718, -0.31633773, 0.6111146, -501762.2, 67191.4, 0.0, 10.0017395, 9.997871 
2.7452716e+3, 2.5193363e+2, -561532.75, -684960.25, 30510.145, -0.09738084, 0.05291035, -554402.75, -83331.7, 0.0, 10.0004225, 9.99863 
2.744924e+3, 2.61923e+2, -521646.75, -585179.94, 62774.82, 0.06996538, -0.28890458, -483058.56, -109890.88, 0.0, 9.99966, 9.999133 
2.7445737e+3, 2.7192092e+2, -19059.082, -45097.723, -29534.986, -0.014453678, 0.005580061, 198.8046, 275383.3, 0.0, 10.001586, 10.001102 
2.7442238e+3, 2.8191802e+2, -15374.776, -327180.66, 50983.566, -0.11388791, 0.28644687, -7250.1255, 169961.64, 0.0, 10.002194, 9.99833 
2.7438763e+3, 2.9191005e+2, -147440.34, -231432.88, 104554.15, -0.31907547, 0.1797852, -76763.38, 2531.2878, 0.0, 10.000425, 9.999024 
2.7435294e+3, 3.0190247e+2, -394204.03, -501576.1, 97994.48, -0.403761, 0.16296731, -336153.28, -336153.28, 0.0, 9.998654, 9.997528 
2.7431887e+3, 3.1189576e+2, -159587.08, -167866.84, 58924.16, 0.21932662, 0.14308137, -104657.555, -104657.555, 0.0, 9.999262, 9.999071 
2.7428383e+3, 3.218849e+2, 133274.22, 909737.0, 159962.42, -0.1882938, -0.4723807, 941400.3, 941400.3, 0.0, 9.996934, 10.007639 
2.7594432e+3, 1.3235192e+2, -1140738.8, -1023559.8, 59315.543, -0.067731306, 0.4489143, -998776.25, 644225.94, 0.0058229626, 10.002375, 10.003244 
2.7591032e+3, 1.4234756e+2, -1317532.5, -1539999.1, 41972.777, 0.54345727, 0.28963557, -1309876.9, 235143.22, 0.0029696852, 10.002246, 9.999389 
2.7587506e+3, 1.5234071e+2, -1042240.3, -1111067.5, 114378.336, -0.14218575, 0.04772268, -957210.6, 489871.72, 0.0010279784, 10.002647, 10.001297 
2.7583995e+3, 1.6233478e+2, -1279095.0, -1524356.0, -26843.959, -0.49649337, 0.006798931, -1276191.4, 72948.12, 0.0002033788, 10.001588, 9.998471 
2.7580518e+3, 1.7233142e+2, -1114546.6, -1230737.6, -99715.234, -0.12825462, 0.27467602, -1057237.6, 193940.86, 0.000016580547, 10.001549, 9.999674 
2.7577043e+3, 1.8232682e+2, -1203627.1, -1296087.1, -90.89576, 0.1468287, 0.44670862, -1203627.0, -50401.24, 0.00000009587778, 10.000427, 9.999227 
2.757357e+3, 1.923179e+2, -826380.25, -819987.4, 44337.15, 0.15889683, 0.012137583, -778731.6, 276574.2, 0.0, 10.001489, 10.001155 
2.7570087e+3, 2.0231122e+2, -861792.2, -967686.5, -3084.0564, 0.11870911, -0.13559987, -861702.44, 95662.78, 0.0, 10.001127, 9.999823 
2.7566573e+3, 2.123096e+2, -754800.1, -624805.75, -24713.201, -0.046430174, 0.107717, -620266.06, 239112.92, 0.0, 10.000335, 10.001731 
2.7563074e+3, 2.2230619e+2, -1216339.3, -1260349.3, 121457.95, -0.16855602, 0.3185263, -1114909.0, -353496.47, 0.0, 9.998355, 9.997791 
2.7559614e+3, 2.3229736e+2, -807648.25, -900157.94, 140210.77, -0.25480148, 0.14660643, -706259.7, -42754.418, 0.0, 10.000201, 9.998552 
2.7556148e+3, 2.4228987e+2, -728072.75, -873609.2, -28489.168, -0.2761184, 0.14273816, -722694.7, -157113.4, 0.0, 10.000134, 9.998229 
2.755266e+3, 2.5228426e+2, -549049.7, -474071.4, -28099.004, -0.06604564, 0.10839634, -464709.84, 2919.063, 0.0, 9.999715, 10.0003605 
2.7549174e+3, 2.62278e+2, -817644.0, -880477.25, 106853.42, 0.02629038, 0.13019145, -737684.44, -367999.66, 0.0, 9.998419, 9.997688 
2.754568e+3, 2.7227092e+2, -241527.98, -353946.66, 46013.48, -0.16795824, 0.08852923, -225096.22, 46657.445, 0.0, 10.001092, 9.999172 
2.7542192e+3, 2.8226385e+2, -172626.1, -439923.8, -4879.019, -0.253155, 0.095473126, -172537.06, 1285.5228, 0.0, 10.001403, 9.997921 
2.7538732e+3, 2.9225582e+2, -164837.94, -152155.83, 21242.47, -0.08150647, -0.108093895, -136328.17, -60426.48, 0.0, 9.999973, 9.999775 
2.7535254e+3, 3.0224985e+2, -490562.03, -493207.8, 89118.516, -0.14632094, -0.020863691, -402756.6, -402756.6, 0.0, 9.997866, 9.99795 
2.753176e+3, 3.1224838e+2, -143823.17, -77772.0, 117309.445, -0.42062128, 0.40142518, 11071.997, 11071.997, 0.0, 9.999088, 9.999756 
2.75283e+3, 3.222378e+2, -389245.47, 183859.33, -28147.795, -0.21148612, -0.10408051, 185238.47, 185238.47, 0.0, 9.995584, 10.003236 
2.7694443e+3, 1.3270067e+2, -879258.7, -1024509.3, -404.21622, 0.068049006, 0.26788068, -879257.56, 760320.4, 0.003689337, 10.004699, 10.002096 
2.7690956e+3, 1.426985e+2, -1587407.9, -1660925.4, 130074.984, 0.16482376, 0.4286109, -1488997.5, 52582.477, 0.001804221, 10.000353, 9.999449 
2.7687475e+3, 1.5269111e+2, -1368970.9, -1251564.9, 181216.25, 0.0022746865, 0.12937282, -1119780.6, 323868.3, 0.00058557204, 10.000327, 10.001437 
2.7683988e+3, 1.6268477e+2, -1413390.8, -1532338.4, 696.36774, -0.109995194, 0.027803328, -1413386.6, -67675.57, 0.00010501939, 10.000332, 9.999034 
2.7680486e+3, 1.7268127e+2, -1079058.6, -1193009.9, 10882.234, -0.030006146, 0.2626252, -1078028.6, 169722.58, 0.0000068884756, 10.001572, 9.999996 
2.7676994e+3, 1.826768e+2, -1008973.06, -1179070.9, 95465.336, 0.039052423, 0.44403484, -966166.8, 183630.23, 0.00000000965895, 10.001575, 9.999502 
2.767351e+3, 1.9266859e+2, -1038132.6, -960513.25, 107890.984, 0.05862016, 0.12945114, -884664.1, 167205.31, 0.0, 10.00012, 10.000904 
2.7670026e+3, 2.0266168e+2, -1092942.0, -1102128.5, 31236.96, 0.027148616, -0.0026522286, -1065962.4, -112031.21, 0.0, 9.999539, 9.99969 
2.7666527e+3, 2.1265805e+2, -531163.4, -629757.9, -45529.99, -0.051414132, 0.14562798, -513354.75, 342612.2, 0.0, 10.002253, 10.000848 
2.7663034e+3, 2.2265364e+2, -423302.97, -772360.75, -8231.462, -0.14298068, 0.28544915, -423108.94, 334901.53, 0.0, 10.003214, 9.998828 
2.7659562e+3, 2.3264532e+2, -726185.25, -792269.5, 97254.914, -0.23470573, 0.0987273, -656512.75, 3580.645, 0.0, 10.0003, 9.999328 
2.765609e+3, 2.4263798e+2, -849411.7, -831405.6, 30257.113, -0.2349097, 0.041173346, -808840.5, -246675.05, 0.0, 9.9987135, 9.999247 
2.7652615e+3, 2.526335e+2, -328059.44, -343525.28, -58447.04, -0.010472388, 0.12142128, -276835.97, 187368.16, 0.0, 10.001037, 10.000668 
2.7649128e+3, 2.6262826e+2, -225528.64, -588441.3, 10390.261, 0.07341528, 0.23271571, -225231.4, 141020.72, 0.0, 10.002379, 9.997779 
2.764563e+3, 2.7261984e+2, -198010.64, -441401.34, 24934.088, -0.22716415, 0.14593701, -195482.53, 72853.59, 0.0, 10.001771, 9.9983 
2.7642146e+3, 2.8261155e+2, -193394.2, -404446.5, -15007.419, -0.30106336, 0.080744, -192332.4, -21914.469, 0.0, 10.00092, 9.998418 
2.7638692e+3, 2.9260367e+2, -55196.324, -105899.8, -78339.31, 0.070784606, -0.11837849, 1791.2308, 74283.805, 0.0, 10.000511, 9.999929 
2.7635205e+3, 3.0259818e+2, -153564.38, -215343.2, 27703.676, 0.07083481, -0.030626442, -142961.02, -142961.02, 0.0, 9.999568, 9.999033 
2.7631676e+3, 3.1259808e+2, -5229.6167, 88085.28, 59910.625, -0.6313904, 0.4349024, 117363.336, 117363.336, 0.0, 9.999558, 10.000657 
2.762823e+3, 3.2258755e+2, -52449.223, -129042.25, -306853.3, -0.082179405, 0.037381824, 218488.11, 218488.11, 0.0, 9.9998455, 9.999016 
2.779445e+3, 1.3305129e+2, -1297230.3, -1394118.8, -198199.03, 0.28140384, 0.17748405, -1141640.9, 494494.5, 0.00217142, 10.00263, 10.000513 
2.779086e+3, 1.4305021e+2, -1528084.1, -1751217.6, 59970.832, -0.28007126, 0.5660691, -1512987.4, 25146.656, 0.0010072395, 10.001233, 9.998451 
2.778745e+3, 1.5304293e+2, -1384965.9, -1313260.0, 138014.19, 0.30149925, 0.30092612, -1206517.9, 233687.42, 0.00030058212, 10.000381, 10.001047 
2.7784008e+3, 1.6303632e+2, -1536510.0, -1543117.6, 16948.162, 0.6175003, 0.19042243, -1522546.6, -180275.56, 0.000046417692, 9.999363, 9.999421 
2.778046e+3, 1.7303187e+2, -1059610.6, -1085429.4, 12560.036, 0.18560134, 0.22645096, -1054508.8, 189809.05, 0.0000020738605, 10.001381, 10.000794 
2.7776933e+3, 1.8302737e+2, -1124971.8, -1325480.1, 39848.926, -0.120669894, 0.40142527, -1117342.5, 29019.24, 0.00000000000031198744, 10.00128, 9.998602 
2.7773437e+3, 1.930216e+2, -1078054.5, -1062706.5, 7272.561, -0.09075394, 0.37310216, -1059807.9, -11395.529, 0.0, 10.000313, 10.000048 
2.7769956e+3, 2.030149e+2, -1301830.6, -1443005.3, 83961.35, -0.030428434, 0.39913025, -1262727.1, -312251.78, 0.0, 9.999285, 9.997434 
2.7766493e+3, 2.1300592e+2, -764944.4, -955607.25, 41162.254, -0.007842829, 0.18443044, -756437.4, 96129.945, 0.0, 10.001689, 9.998831 
2.7763018e+3, 2.2299914e+2, -638766.06, -806459.94, -73321.57, -0.03704482, 0.19212481, -611229.2, 143405.16, 0.0, 10.001532, 9.999373 
2.775951e+3, 2.3299521e+2, -704181.5, -548895.56, -31374.176, -0.18745318, 0.22368678, -542796.25, 113870.164, 0.0, 9.999544, 10.001304 
2.7756023e+3, 2.4298988e+2, -1094184.4, -1048069.06, 60799.39, -0.19838524, 0.2816609, -1006101.94, -447387.94, 0.0, 9.997621, 9.998251 
2.7752572e+3, 2.5298122e+2, -523421.47, -572672.94, 27679.32, 0.073535815, 0.038271148, -510998.97, -50201.055, 0.0, 10.000401, 9.9993725 
2.77491e+3, 2.6297367e+2, -486966.56, -771288.7, 4273.3247, 0.13189943, 0.036704108, -486902.34, -124030.836, 0.0, 10.001003, 9.997126 
2.7745587e+3, 2.7296764e+2, -300209.8, -461167.34, -1858.4694, -0.2603495, 0.14437272, -300188.38, -35255.445, 0.0, 10.001055, 9.998446 
2.7742088e+3, 2.8296158e+2, -403810.06, -560082.6, -48892.8, -0.42115328, 0.31206378, -389773.78, -222779.83, 0.0, 9.999871, 9.997813 
2.7738628e+3, 2.9295462e+2, -192335.77, -210165.63, -89446.13, -0.045502678, 0.2293965, -111361.39, -42300.57, 0.0, 9.99991, 9.999422 
2.773515e+3, 3.0294773e+2, -232994.81, -214030.0, 5549.0425, 0.037272777, 0.20493636, -212525.69, -212525.69, 0.0, 9.99902, 9.999271 
2.7731663e+3, 3.1294036e+2, -36946.22, 177428.83, 46051.12, -0.1331895, -0.16076937, 186902.66, 186902.66, 0.0, 9.999005, 10.001518 
2.7728155e+3, 3.229325e+2, -378830.84, -839162.94, -163412.56, -0.4193378, -0.11598212, -326720.28, -326720.28, 0.0, 10.000155, 9.993984 
2.7894405e+3, 1.334041e+2, -1554468.8, -1604882.1, -130990.13, 0.13734286, 0.45617005, -1446282.0, 186400.03, 0.0011689387, 10.001114, 9.999877 
2.7890834e+3, 1.4339711e+2, -1102894.9, -1507163.4, -23782.607, -0.3572641, 0.3209254, -1101500.6, 433239.78, 0.0005049565, 10.003943, 9.998835 
2.788739e+3, 1.5339303e+2, -1326569.5, -1247734.5, 43733.055, 0.18682665, 0.34597892, -1228276.6, 208501.97, 0.00013439951, 10.000593, 10.001416 
2.7883935e+3, 1.633883e+2, -1579239.3, -1560908.3, 64665.96, 0.49186328, 0.41088855, -1504761.5, -165935.95, 0.000016423304, 9.998991, 9.999489 
2.7880415e+3, 1.733824e+2, -1011758.75, -1096805.8, 66910.22, 0.11184177, 0.34204528, -975002.8, 265884.06, 0.0000003300107, 10.001785, 10.000544 
2.7876902e+3, 1.8337667e+2, -826773.4, -1166650.4, -58018.258, -0.15225182, 0.38992321, -817142.4, 325800.06, 0.0, 10.003143, 9.998837 
2.7873406e+3, 1.9336998e+2, -711723.7, -939422.56, -69181.56, -0.024274629, 0.3279998, -692352.3, 352647.53, 0.0, 10.002897, 9.999754 
2.7869922e+3, 2.0336294e+2, -870789.1, -1191405.1, 60227.996, 0.034548283, 0.33747393, -859848.56, 87216.89, 0.0, 10.002003, 9.997839 
2.7866447e+3, 2.133544e+2, -879279.4, -1048107.8, 121076.01, -0.045090932, 0.20600726, -816095.6, 33059.28, 0.0, 10.001017, 9.998542 
2.7862966e+3, 2.2334763e+2, -685605.06, -739438.5, 8907.588, -0.123695284, 0.21311776, -684169.44, 67053.12, 0.0, 10.000674, 10.000281 
2.7859455e+3, 2.3334414e+2, -348359.16, -342601.8, -43872.223, -0.23087119, 0.2695235, -301513.94, 351736.44, 0.0, 10.001675, 10.00177 
2.7855968e+3, 2.4333924e+2, -410587.1, -684005.44, 40483.594, -0.2027191, 0.33945942, -404718.84, 150575.23, 0.0, 10.002091, 9.998592 
2.785253e+3, 2.5333026e+2, -310991.56, -515295.94, 54711.96, 0.08134464, 0.118181124, -297262.47, 160120.61, 0.0, 10.001975, 9.999038 
2.7849063e+3, 2.6332232e+2, -324239.5, -616959.0, 32543.057, 0.14510919, 0.0759642, -320665.16, 38796.42, 0.0, 10.001653, 9.9979105 
2.784554e+3, 2.733165e+2, -222993.92, -404876.3, 19095.16, -0.2526012, 0.19663389, -221010.81, 40509.066, 0.0, 10.001325, 9.998787 
2.7842033e+3, 2.833107e+2, -295904.28, -436890.78, -12437.97, -0.39045584, 0.3581396, -294815.4, -131238.53, 0.0, 10.00023, 9.998483 
2.783856e+3, 2.9330397e+2, -312465.66, -261489.53, -35742.066, -0.09918408, 0.30948544, -243078.42, -177437.27, 0.0, 9.998995, 9.999521 
2.7835083e+3, 3.0329645e+2, -243541.17, -193072.44, 127077.836, 0.048135884, 0.21859498, -88747.74, -88747.74, 0.0, 9.998681, 9.999615 
2.7831632e+3, 3.1328717e+2, 240643.48, 276292.16, 52587.793, 0.15894146, -0.3056155, 313994.22, 313994.22, 0.0, 10.000869, 10.001394 
2.7828088e+3, 3.2328084e+2, -446843.9, -1047738.7, -40120.652, -0.5422616, -0.00029371274, -444176.97, -444176.97, 0.0, 10.000275, 9.992556 
2.7994365e+3, 1.3375679e+2, -1501738.3, -1644423.3, 101473.8, 0.17108458, 0.75938123, -1449037.6, 180193.88, 0.0005685035, 10.0018, 9.999218 
2.7990824e+3, 1.4374404e+2, -1339782.8, -1634937.5, -87443.44, -0.25902438, 0.052917115, -1315821.6, 215525.58, 0.00022583413, 10.002467, 9.998607 
2.7987322e+3, 1.5374294e+2, -1203551.4, -1177973.3, -116016.17, 0.023996266, 0.3476426, -1074043.4, 359310.53, 0.00005282333, 10.0014515, 10.001429 
2.798384e+3, 1.6373973e+2, -1500855.8, -1604956.6, 104872.11, 0.23021108, 0.60214067, -1435827.5, -100442.64, 0.000004777361, 10.000017, 9.998606 
2.798037e+3, 1.7373265e+2, -1126045.0, -1224764.9, 126546.26, 0.03268997, 0.45099425, -1039572.8, 197886.75, 0.00000002399446, 10.0013895, 9.999787 
2.7976888e+3, 1.8372528e+2, -1061779.5, -1337098.0, -64914.48, -0.018502641, 0.4085442, -1047241.7, 92288.93, 0.0, 10.00192, 9.998204 
2.7973396e+3, 1.9371653e+2, -814140.06, -986704.9, -91783.05, 0.20338888, 0.12391998, -774451.1, 267153.75, 0.0, 10.00231, 9.999653 
2.79699e+3, 2.0370926e+2, -999194.0, -1248338.5, 45513.438, 0.2312585, 0.12209274, -991140.0, -47469.19, 0.0, 10.001186, 9.997819 
2.7966395e+3, 2.1370338e+2, -944411.4, -1016015.44, 86797.15, -0.08480742, 0.17564885, -886322.3, -40588.727, 0.0, 10.000344, 9.999055 
2.7962896e+3, 2.2369786e+2, -957348.5, -943261.56, 48433.234, -0.28094253, 0.31090578, -901362.3, -153571.83, 0.0, 9.999339, 9.999458 
2.7959403e+3, 2.3369221e+2, -541666.7, -500317.5, -4709.342, -0.3025354, 0.19652244, -499787.94, 150055.98, 0.0, 10.000796, 10.001059 
2.7955928e+3, 2.436869e+2, -663019.56, -863037.25, 48798.73, -0.23482017, 0.30826578, -651749.06, -99853.6, 0.0, 10.000753, 9.997966 
2.795248e+3, 2.5368083e+2, -451197.94, -565420.75, 56062.44, -0.0024850683, 0.3414708, -428279.9, 25677.316, 0.0, 10.001048, 9.999091 
2.7949008e+3, 2.6367432e+2, -527543.25, -692035.75, 12099.338, 0.025186779, 0.43393376, -526658.0, -170636.64, 0.0, 10.000302, 9.998012 
2.7945495e+3, 2.7366635e+2, -322329.13, -391261.97, 16004.284, -0.26299375, 0.2602676, -318794.63, -60697.234, 0.0, 10.000494, 9.999242 
2.794198e+3, 2.836585e+2, -419494.97, -471382.1, -75490.945, -0.38089627, 0.19375408, -365614.03, -205443.78, 0.0, 9.999399, 9.998612 
2.793848e+3, 2.936498e+2, -379961.4, -223019.03, -80900.18, -0.20323946, -0.13044636, -188784.55, -126535.3, 0.0, 9.99832, 10.000087 
2.7934986e+3, 3.0364457e+2, -495478.4, -488537.38, 182452.75, -0.23730925, 0.043752182, -309522.13, -309522.13, 0.0, 9.997865, 9.99791 
2.7931544e+3, 3.1364423e+2, 38568.715, -22356.543, 150887.97, -0.29438862, 0.584914, 162038.38, 162038.38, 0.0, 10.00048, 9.999455 
2.7928054e+3, 3.2363248e+2, -147248.9, -170168.69, -82957.13, -0.43313655, 0.173844, -74963.85, -74963.85, 0.0, 9.999448, 9.998855 
2.8094354e+3, 1.3410631e+2, -1369239.9, -1605834.5, -37163.86, 0.24554601, 0.7300472, -1363539.6, 262267.34, 0.00025074874, 10.002684, 9.999135 
2.8090784e+3, 1.4409536e+2, -1498348.8, -1727447.5, -109113.195, -0.31430793, 0.23426561, -1454698.1, 73208.89, 0.00009142473, 10.001409, 9.998503 
2.808729e+3, 1.5409105e+2, -1018639.1, -1183504.0, -109130.36, 0.017976983, 0.28508, -964307.06, 465639.0, 0.000018191195, 10.003061, 10.000666 
2.8083807e+3, 1.6408643e+2, -1017934.56, -1324398.8, 35360.4, 0.14708035, 0.42957333, -1013907.5, 318083.56, 0.000001253609, 10.003043, 9.9991 
2.808031e+3, 1.740811e+2, -1135970.4, -1218920.9, 104652.99, -0.11849133, 0.45107654, -1064873.6, 169174.19, 0.0000000065346386, 10.001164, 9.999999 
2.807683e+3, 1.840751e+2, -1179909.9, -1254001.0, -23039.563, -0.14776793, 0.49326912, -1173329.9, -37224.33, 0.0, 10.000458, 9.999473 
2.8073362e+3, 1.9406734e+2, -750972.6, -879565.94, 21935.457, 0.18975815, 0.25155914, -747333.8, 290838.56, 0.0, 10.00234, 10.000405 
2.806987e+3, 2.0406027e+2, -701538.5, -970333.7, 76834.88, 0.22796026, 0.18745816, -681125.56, 259110.03, 0.0, 10.002575, 9.999053 
2.8066334e+3, 2.1405384e+2, -816122.25, -882999.5, 119563.305, -0.1999684, 0.14206097, -725409.7, 116888.54, 0.0, 10.000822, 9.999782 
2.806283e+3, 2.2404826e+2, -827333.44, -903805.44, 156860.48, -0.39151284, 0.2533942, -704116.06, 40238.367, 0.0, 10.000245, 9.99931 
2.8059366e+3, 2.3404287e+2, -473963.1, -576734.06, 115046.07, -0.22511627, 0.28193197, -399348.3, 247063.13, 0.0, 10.00162, 10.000175 
2.8055897e+3, 2.4403729e+2, -444231.1, -666505.5, 112991.78, -0.09830625, 0.38304996, -396879.75, 151587.95, 0.0, 10.001691, 9.998899 
2.8052428e+3, 2.5403127e+2, -542266.2, -560580.0, 143214.25, -0.015703235, 0.39663997, -407916.4, 42609.316, 0.0, 10.000025, 9.999696 
2.8048944e+3, 2.640253e+2, -626938.7, -619615.2, 151868.69, -0.026021589, 0.47324365, -471364.13, -118781.016, 0.0, 9.998952, 9.999214 
2.804544e+3, 2.7401778e+2, -494215.75, -402704.66, 150857.8, -0.1822976, 0.31210202, -290816.16, -36162.12, 0.0, 9.998844, 10.000034 
2.8041935e+3, 2.8400943e+2, -348501.34, -409709.5, 78755.63, -0.2407074, 0.14906342, -294612.47, -137880.78, 0.0, 9.999601, 9.999007 
2.8038424e+3, 2.9399937e+2, 157917.47, -10708.069, -15450.91, -0.18758133, -0.24993971, 159321.53, 218144.95, 0.0, 10.002028, 9.999863 
2.8034922e+3, 3.0399477e+2, 45727.184, -281652.4, 258912.72, -0.30618143, 0.036343366, 188354.45, 188354.45, 0.0, 10.001755, 9.997448 
2.803147e+3, 3.139982e+2, -214650.22, -262081.88, 263263.25, -0.44958976, 1.0669426, 25963.244, 25963.244, 0.0, 9.999159, 9.998481 
2.8028017e+3, 3.239823e+2, 78088.87, 447480.3, -197516.36, -0.12647805, 0.11060758, 533201.3, 533201.3, 0.0, 9.998646, 10.003549 
2.8194338e+3, 1.3445558e+2, -1346270.5, -1548656.1, -34407.465, 0.40258217, 0.6257315, -1340580.9, 281802.03, 0.00010745089, 10.002859, 9.99935 
2.8190747e+3, 1.4444792e+2, -1590072.5, -1861533.3, 27378.31, -0.24157153, 0.5136655, -1587338.8, -62885.473, 0.00003510944, 10.001302, 9.997577 
2.8187278e+3, 1.5443903e+2, -1057622.8, -1294020.9, 18518.367, 0.15322086, 0.18091765, -1056180.9, 370357.97, 0.0000055355054, 10.003318, 9.999735 
2.8183788e+3, 1.6443276e+2, -1046972.7, -1317713.1, 63455.03, 0.23561253, 0.22200501, -1032838.3, 295762.13, 0.0000002527922, 10.002877, 9.999213 
2.8180256e+3, 1.7442958e+2, -1151393.4, -1172542.1, 54912.895, -0.20477954, 0.41098687, -1106046.0, 124588.586, 0.0, 10.000965, 10.000402 
2.8176764e+3, 1.8442596e+2, -1212192.3, -1170263.3, 57558.93, -0.277635, 0.637835, -1129969.8, 2700.0686, 0.0, 9.999904, 10.000297 
2.817332e+3, 1.944204e+2, -840534.94, -820078.6, 80891.85, 0.15533942, 0.49827734, -748770.8, 285949.22, 0.0, 10.001333, 10.001292 
2.816983e+3, 2.0441367e+2, -911324.8, -1039303.1, 5397.1436, 0.19360293, 0.42300212, -911097.6, 25681.74, 0.0, 10.001163, 9.999192 
2.816627e+3, 2.1440488e+2, -897781.2, -856141.6, 18896.813, -0.29923907, 0.051688936, -848844.6, -9987.929, 0.0, 10.000121, 10.000236 
2.8162768e+3, 2.2439894e+2, -1054841.3, -1153041.5, 181747.2, -0.4248972, 0.16957574, -915678.56, -174763.77, 0.0, 9.9994335, 9.99794 
2.8159344e+3, 2.3439522e+2, -704292.56, -788181.75, 151312.45, -0.022908011, 0.43696088, -589218.7, 53742.867, 0.0, 10.000635, 9.999125 
2.8155878e+3, 2.4438985e+2, -619578.25, -675655.5, 45665.824, 0.11738603, 0.5939764, -594030.2, -49014.055, 0.0, 10.000333, 9.999434 
2.8152367e+3, 2.543812e+2, -620639.94, -480856.88, 75439.42, -0.027529282, 0.20939821, -447909.06, -816.3461, 0.0, 9.999096, 10.000642 
2.8148866e+3, 2.643753e+2, -772492.4, -629130.06, 132284.69, -0.10023231, 0.23202766, -550353.9, -201207.73, 0.0, 9.997872, 9.9996 
2.814538e+3, 2.7437136e+2, -567508.2, -336662.06, 163420.48, -0.08657286, 0.31637177, -252013.28, -829.241, 0.0, 9.998047, 10.000805 
2.8141886e+3, 2.8436512e+2, -576782.0, -684524.3, 164328.61, -0.12148979, 0.41155776, -457719.66, -304474.72, 0.0, 9.998932, 9.9973755 
2.8138393e+3, 2.943551e+2, 34379.33, -208926.4, 103453.74, -0.14508721, 0.12273155, 72420.22, 127763.15, 0.0, 10.001926, 9.998486 
2.8134897e+3, 3.0434763e+2, 24360.88, -300576.8, 137265.52, -0.25036037, 0.2082405, 74584.18, 74584.18, 0.0, 10.001729, 9.997317 
2.8131428e+3, 3.143433e+2, -409552.66, -326090.03, 155078.97, -0.20302217, 0.41855434, -207225.63, -207225.63, 0.0, 9.997747, 9.998708 
2.812794e+3, 3.243308e+2, -187415.75, 179726.22, 37941.617, -0.24384417, -0.16010773, 183606.22, 183606.22, 0.0, 9.997648, 10.002107 
2.829428e+3, 1.3480748e+2, -1240242.4, -1470930.6, -141810.25, -0.046132, 0.33698443, -1172790.4, 446134.78, 0.000050640916, 10.00333, 9.9997225 
2.829073e+3, 1.4480221e+2, -1439503.4, -1755002.1, 227169.13, -0.09158715, 0.4883584, -1320683.3, 200294.9, 0.00001538915, 10.002162, 9.997897 
2.8287262e+3, 1.5479477e+2, -1000866.6, -1331279.5, 272937.25, 0.16022018, 0.3598531, -847030.9, 576020.94, 0.0000020566958, 10.003915, 9.999232 
2.8283766e+3, 1.6478775e+2, -976356.6, -1361760.5, 140129.69, 0.20129953, 0.40461633, -930793.25, 394328.47, 0.00000005936716, 10.003636, 9.99856 
2.8280222e+3, 1.7478108e+2, -1138323.1, -1311896.8, 103765.8, -0.12416708, 0.3894726, -1089835.0, 137353.81, 0.0, 10.001605, 9.99917 
2.827672e+3, 1.847756e+2, -1171956.5, -1208822.0, 97869.58, -0.17522001, 0.52368236, -1090799.0, 38444.61, 0.0, 10.000336, 9.999865 
2.827327e+3, 1.947703e+2, -1100426.6, -1054050.8, 62006.02, 0.13475367, 0.5152229, -1011038.75, 20257.139, 0.0, 9.999921, 10.000416 
2.8269777e+3, 2.0476456e+2, -965903.4, -977321.75, -68923.914, 0.16011031, 0.53306234, -902452.6, 30894.826, 0.0, 10.000281, 10.000107 
2.8266236e+3, 2.1475723e+2, -619972.6, -697676.6, -38602.35, -0.19227743, 0.30138868, -604055.9, 231352.9, 0.0, 10.001778, 10.000601 
2.8262737e+3, 2.2475064e+2, -677172.94, -952539.4, 96390.945, -0.26462376, 0.31893387, -646785.06, 90686.945, 0.0, 10.001819, 9.998211 
2.8259295e+3, 2.3474449e+2, -803307.25, -911271.3, 89944.27, 0.005439771, 0.40232173, -752389.1, -112847.86, 0.0, 10.000096, 9.998627 
2.8255817e+3, 2.4473852e+2, -674237.25, -562296.06, -20931.227, 0.088862374, 0.45861685, -558510.25, -16910.748, 0.0, 9.999251, 10.000772 
2.8252304e+3, 2.5473124e+2, -490982.06, -364869.34, -24031.443, -0.04675777, 0.16474998, -360445.22, 83214.914, 0.0, 9.99962, 10.001256 
2.8248805e+3, 2.647256e+2, -405593.0, -438567.75, 26503.604, -0.071772724, 0.16606735, -390867.0, -45156.395, 0.0, 10.000269, 9.999751 
2.8245324e+3, 2.7472156e+2, -125771.0, -191866.75, -68488.27, -0.008943918, 0.29232702, -82774.11, 164977.17, 0.0, 10.001315, 10.000241 
2.8241843e+3, 2.8471622e+2, -234029.98, -529488.3, -22097.65, 0.011725599, 0.48392877, -232386.42, -82579.34, 0.0, 10.001234, 9.997335 
2.823836e+3, 2.94708e+2, -209952.48, -424114.0, -21654.297, -0.05194093, 0.42999077, -207784.9, -155891.75, 0.0, 10.000532, 9.997708 
2.8234866e+3, 3.0469927e+2, -63333.715, -218035.61, -10272.406, -0.11916619, 0.3634456, -62654.594, -62654.594, 0.0, 10.0005, 9.998494 
2.823139e+3, 3.1469002e+2, 125170.18, -35372.14, -4122.4263, 0.07427446, 0.016780013, 125275.97, 125275.97, 0.0, 10.001135, 9.999113 
2.8227875e+3, 3.2468247e+2, 38921.723, 105610.75, 38899.27, -0.20422797, -0.028625647, 123501.086, 123501.086, 0.0, 9.999826, 10.000613 
2.8394222e+3, 1.3516001e+2, -1649747.9, -1686561.3, -342086.22, -0.25846523, 0.09528589, -1325573.5, 289888.28, 0.000026719768, 10.000532, 9.999634 
2.8390715e+3, 1.451567e+2, -1476707.5, -1777900.6, 184083.66, 0.12745932, 0.44364387, -1389467.8, 128033.32, 0.000008259606, 10.001959, 9.997815 
2.8387243e+3, 1.5515214e+2, -1113903.8, -1413319.0, 201688.4, 0.1946073, 0.59716266, -1012432.94, 407114.66, 0.0000013335809, 10.003272, 9.9989605 
2.8383744e+3, 1.6514456e+2, -1188762.6, -1636709.5, -11429.105, 0.2272599, 0.67193687, -1188471.3, 133152.39, 0.000000073245815, 10.003054, 9.996893 
2.8380203e+3, 1.7513311e+2, -1207938.3, -1551483.8, -38764.04, 0.10973544, 0.32448095, -1203618.6, 20118.496, 0.0, 10.002103, 9.997245 
2.8376693e+3, 1.8512477e+2, -1246553.1, -1430253.6, 67936.36, 0.07407549, 0.35779926, -1224158.9, -98337.47, 0.0, 10.000749, 9.998076 
2.8373212e+3, 1.951184e+2, -1256967.4, -1335163.3, 25921.148, 0.15505867, 0.37625128, -1249155.3, -221267.14, 0.0, 9.999827, 9.998471 
2.8369722e+3, 2.0511402e+2, -1003215.7, -940208.06, -5654.727, 0.1639765, 0.6109897, -939704.56, -9775.51, 0.0, 9.999911, 10.000492 
2.8366217e+3, 2.1511042e+2, -738316.56, -726293.56, 6944.107, 0.08260998, 0.6747376, -723120.4, 108836.09, 0.0, 10.000973, 10.000739 
2.836272e+3, 2.25103e+2, -884545.0, -1072482.4, 33646.133, -0.023121873, 0.6302666, -878703.0, -144676.53, 0.0, 10.000623, 9.997922 
2.8359222e+3, 2.3509133e+2, -976315.3, -1021628.06, 26022.846, -0.12363908, 0.1373888, -964468.06, -328324.25, 0.0, 9.999136, 9.9983015 
2.8355724e+3, 2.4508479e+2, -798055.0, -605944.1, -9098.618, -0.15555696, 0.15649159, -605514.1, -67309.59, 0.0, 9.998462, 10.000835 
2.8352234e+3, 2.5508168e+2, -628207.6, -432774.53, -16517.95, -0.083441816, 0.23395176, -431388.25, 8837.029, 0.0, 9.998814, 10.001158 
2.8348753e+3, 2.6507583e+2, -700279.5, -798142.1, 49812.984, -0.045372404, 0.33551288, -679385.25, -337105.4, 0.0, 9.999347, 9.9976635 
2.8345278e+3, 2.750667e+2, -384808.88, -555476.8, -36230.133, -0.02765479, 0.111599475, -377436.28, -133063.6, 0.0, 10.000688, 9.997998 
2.8341797e+3, 2.8506085e+2, -281310.6, -470644.94, -93060.47, -0.016853694, 0.33889535, -243229.42, -96791.875, 0.0, 10.000696, 9.997955 
2.8338307e+3, 2.950565e+2, -318321.28, -410284.0, -70067.12, -0.033832055, 0.57300246, -280495.22, -232004.19, 0.0, 9.999621, 9.998221 
2.8334814e+3, 3.0505e+2, -81746.516, -43547.9, 16055.094, -0.099166594, 0.6281399, -37696.26, -37696.26, 0.0, 9.99975, 9.999998 
2.833136e+3, 3.1504098e+2, 157056.7, 109592.79, 54926.51, 0.13508081, 0.14293127, 193158.9, 193158.9, 0.0, 10.000944, 10.000158 
2.8327808e+3, 3.2503986e+2, -152176.3, -130691.586, -40783.37, -0.39081347, 0.703493, -99259.52, -99259.52, 0.0, 9.999352, 9.999111 
2.8494206e+3, 1.3551246e+2, -2068153.0, -1993179.5, -307220.97, 0.18922271, 0.40074074, -1721166.8, -109153.45, 0.000013315561, 9.997986, 9.998841 
2.8490654e+3, 1.4550471e+2, -1347985.8, -1614315.1, 12301.588, -0.20368731, 0.32734826, -1347418.8, 166675.63, 0.0000038169696, 10.002329, 9.998784 
2.8487194e+3, 1.555002e+2, -1186307.5, -1442525.4, 73563.03, -0.045272384, 0.43415183, -1166689.0, 249444.1, 0.0000005153316, 10.002646, 9.999102 
2.848371e+3, 1.6549361e+2, -1096519.3, -1579757.8, -139217.97, 0.09618595, 0.5810111, -1059281.0, 258918.56, 0.00000002542409, 10.00356, 9.997049 
2.8480184e+3, 1.7548437e+2, -818337.94, -1385881.3, -94316.87, 0.10770451, 0.47637546, -803074.44, 417222.75, 0.0, 10.004781, 9.997122 
2.8476664e+3, 1.8547596e+2, -685888.5, -1082691.3, -22893.553, 0.05613515, 0.46014604, -684572.0, 437808.5, 0.0, 10.004174, 9.998834 
2.847315e+3, 1.9546773e+2, -893774.7, -1119292.5, 50546.95, -0.005014096, 0.2796091, -882963.5, 141494.61, 0.0, 10.00201, 9.998939 
2.8469655e+3, 2.0546247e+2, -825219.6, -868306.56, 89852.09, 0.0130447205, 0.4053103, -754364.4, 172143.11, 0.0, 10.001094, 10.000445 
2.8466174e+3, 2.154589e+2, -730669.56, -768934.25, 68176.21, 0.08055182, 0.53777516, -678992.0, 149548.0, 0.0, 10.001075, 10.00045 
2.8462678e+3, 2.2545238e+2, -738385.8, -913443.75, 51752.445, 0.042308852, 0.55546683, -724230.8, 6372.505, 0.0, 10.001192, 9.99874 
2.8459167e+3, 2.3544219e+2, -590019.56, -785310.56, 74916.27, -0.13664189, 0.20884015, -564591.56, 68112.836, 0.0, 10.001453, 9.998841 
2.8455672e+3, 2.4543521e+2, -368109.53, -530265.8, 27964.258, -0.15177563, 0.20676817, -363422.5, 171348.53, 0.0, 10.001843, 9.999778 
2.8452188e+3, 2.5543088e+2, -211927.16, -384496.63, -86199.82, -0.02317478, 0.3293935, -176246.88, 260561.97, 0.0, 10.002181, 9.999929 
2.8448707e+3, 2.654243e+2, -296926.56, -532979.25, 22578.959, -0.013222423, 0.36953905, -294786.25, 44084.38, 0.0, 10.001718, 9.99839 
2.8445226e+3, 2.7541476e+2, -283524.0, -468113.13, 90428.08, -0.102871604, 0.114457525, -246607.4, -5643.2954, 0.0, 10.0011015, 9.998461 
2.8441742e+3, 2.8540874e+2, -260254.66, -386574.25, 53559.535, -0.066950984, 0.27662447, -240602.7, -97572.2, 0.0, 10.000433, 9.998702 
2.843825e+3, 2.9540518e+2, -285210.03, -327612.72, 11964.76, 0.01900642, 0.58832455, -282066.9, -236988.44, 0.0, 9.999505, 9.998868 
2.8434765e+3, 3.053997e+2, -71293.836, 58730.336, 137055.86, 0.0031329317, 0.66457945, 145411.63, 145411.63, 0.0, 9.99927, 10.000988 
2.8431317e+3, 3.1539226e+2, 33776.844, 106975.68, 69836.2, 0.20832683, 0.28955594, 149221.77, 149221.77, 0.0, 9.999746, 10.000777 
2.842776e+3, 3.253947e+2, 256660.03, -80967.06, -149696.19, -0.37781554, 1.2310748, 313472.2, 313472.2, 0.0, 10.002563, 9.9980135 
2.8594187e+3, 1.3586335e+2, -1825762.9, -1958081.9, 35941.63, 0.693635, 0.6893867, -1816630.5, -208048.69, 0.0000059672575, 10.000161, 9.99797 
2.859059e+3, 1.458517e+2, -1244216.5, -1491634.4, 24745.031, -0.49882695, 0.24482147, -1241765.9, 268932.3, 0.0000015122073, 10.00283, 9.999342 
2.8587145e+3, 1.5584588e+2, -1234779.4, -1437378.5, 45441.367, -0.22073124, 0.15464358, -1225054.1, 187686.84, 0.0000000966577, 10.002262, 9.99929 
2.8583676e+3, 1.6584061e+2, -1219041.8, -1592266.3, -91780.82, 0.018387526, 0.40874442, -1197692.9, 117102.7, 0.00000000026919006, 10.002584, 9.997429 
2.8580168e+3, 1.7583534e+2, -1013601.6, -1449893.8, -70532.93, 0.09783653, 0.64401364, -1002482.3, 214379.36, 0.0, 10.00337, 9.997352 
2.8576636e+3, 1.8582793e+2, -804960.4, -994340.75, -99573.67, -0.0076354034, 0.66014177, -762241.9, 356689.9, 0.0, 10.002886, 10.000021 
2.8573093e+3, 1.958181e+2, -982813.4, -1053392.9, -64625.492, -0.1588799, 0.17806728, -944470.1, 76543.3, 0.0, 10.001085, 9.999799 
2.856959e+3, 2.05811e+2, -991569.7, -1048445.3, 71448.625, -0.12712157, 0.13461743, -943107.44, -20028.338, 0.0, 10.000469, 9.999486 
2.856612e+3, 2.1580485e+2, -946939.2, -1008230.75, 37977.14, 0.016144402, 0.07314819, -928785.1, -103642.31, 0.0, 10.000228, 9.99922 
2.856263e+3, 2.2580042e+2, -834285.9, -897142.8, 47958.504, 0.03809195, 0.34008384, -808375.25, -81186.55, 0.0, 10.000394, 9.999158 
2.8559133e+3, 2.357962e+2, -716545.3, -838677.06, 58389.133, -0.01885968, 0.4955076, -693122.56, -63889.953, 0.0, 10.00072, 9.998748 
2.8555644e+3, 2.4578877e+2, -704666.1, -977184.44, 24528.217, -0.010183264, 0.60067284, -702476.0, -171167.06, 0.0, 10.000979, 9.996991 
2.855216e+3, 2.557784e+2, -584194.56, -862146.44, -72307.11, 0.061948843, 0.34361, -566509.6, -133095.14, 0.0, 10.00107, 9.9970875 
2.854866e+3, 2.6577178e+2, -234290.94, -214848.52, -9083.645, -0.05426533, 0.3864441, -211265.05, 124209.54, 0.0, 10.000996, 10.000879 
2.8545156e+3, 2.757667e+2, -265095.34, -229351.95, 78907.23, -0.30486843, 0.28151953, -166317.84, 71196.7, 0.0, 10.000282, 10.000484 
2.8541666e+3, 2.857605e+2, -414336.1, -485991.0, 18288.648, -0.25010693, 0.3614158, -409938.2, -270361.44, 0.0, 9.999668, 9.998312 
2.8538182e+3, 2.9575282e+2, -461799.63, -476944.6, 8256.942, -0.015702393, 0.27199927, -458168.56, -416506.75, 0.0, 9.998695, 9.998187 
2.8534696e+3, 3.0574718e+2, -244969.77, -86236.56, 128921.66, -0.054333314, 0.40367174, -14210.129, -14210.129, 0.0, 9.99851, 10.00028 
2.8531224e+3, 3.1574315e+2, -303493.72, -183801.98, 105047.75, -0.09301471, 0.40518174, -122748.9, -122748.9, 0.0, 9.998143, 9.999489 
2.852777e+3, 3.2573754e+2, 359902.66, 94313.66, 218052.86, -0.10543548, 0.54523176, 482414.7, 482414.7, 0.0, 10.002931, 9.998982 
2.8694117e+3, 1.3620883e+2, -1378387.5, -1769616.4, 161068.66, 0.19481237, 0.41839036, -1320608.8, 284584.5, 0.0000021514043, 10.003183, 9.9978895 
2.86906e+3, 1.4620182e+2, -989066.7, -1304126.6, -23879.844, -0.24728157, 0.43024212, -987267.0, 519997.75, 0.00000043033984, 10.004211, 10.0 
2.8687125e+3, 1.5619399e+2, -1243460.4, -1425772.3, 20592.66, -0.11149566, 0.12345252, -1241163.3, 168164.92, 0.000000019645139, 10.002037, 9.999522 
2.8683636e+3, 1.661881e+2, -1311093.9, -1527791.6, -84720.836, -0.036054425, 0.25505635, -1281903.3, 29484.748, 0.0, 10.00145, 9.998432 
2.8680107e+3, 1.7618316e+2, -1248561.5, -1478420.6, -33675.176, -0.18012741, 0.47767052, -1243729.5, -30280.9, 0.0, 10.001323, 9.9981785 
2.8676587e+3, 1.8617666e+2, -1001320.9, -1092935.3, -142694.42, -0.13333535, 0.5309383, -897261.44, 218248.95, 0.0, 10.0013895, 10.000138 
2.867307e+3, 1.9616807e+2, -986985.8, -1089539.4, -117519.55, 0.04965887, 0.21351658, -910043.44, 107539.29, 0.0, 10.000995, 9.999694 
2.866957e+3, 2.0616114e+2, -860136.9, -984899.9, 11574.462, 0.07102784, 0.18335146, -859072.2, 60575.76, 0.0, 10.001354, 9.999496 
2.8666073e+3, 2.1615466e+2, -678948.06, -899829.44, 9483.348, -0.02867276, 0.14588855, -678541.6, 143173.58, 0.0, 10.002072, 9.9991045 
2.8662586e+3, 2.2614953e+2, -418599.47, -700753.94, 10477.457, -0.039014667, 0.33126342, -418210.94, 305557.2, 0.0, 10.003076, 9.999293 
2.8659105e+3, 2.3614523e+2, -216545.58, -601507.9, -17334.492, 0.005187215, 0.5138246, -215766.6, 410045.66, 0.0, 10.003973, 9.998891 
2.865561e+3, 2.4613804e+2, -292137.94, -726791.5, -13247.26, -0.007398005, 0.58982724, -291734.56, 236151.42, 0.0, 10.003457, 9.997552 
2.8652108e+3, 2.5612774e+2, -376518.16, -724667.75, 67720.22, -0.054266285, 0.3598577, -363809.5, 66181.59, 0.0, 10.002191, 9.997534 
2.864861e+3, 2.661213e+2, -209009.4, -184989.14, 90859.95, -0.09904659, 0.389082, -105348.984, 226701.84, 0.0, 10.000941, 10.001169 
2.8645113e+3, 2.76117e+2, -341023.56, -259962.75, -35206.58, -0.17730717, 0.38682628, -246806.88, -12723.527, 0.0, 9.999556, 10.00068 
2.864162e+3, 2.8611013e+2, -291619.47, -405774.47, -75367.78, -0.14893489, 0.36463714, -254155.22, -118005.74, 0.0, 10.000348, 9.998549 
2.8638127e+3, 2.961009e+2, 115059.6, -197110.03, -78063.266, -0.040788412, 0.13008833, 133492.25, 171737.45, 0.0, 10.002535, 9.998301 
2.8634626e+3, 3.0609605e+2, 290170.4, 131233.03, 38851.426, -0.19378546, 0.33674216, 299159.1, 299159.1, 0.0, 10.002274, 10.000005 
2.863113e+3, 3.1609425e+2, 44827.68, -54889.766, 21045.895, -0.38748378, 0.63916975, 49087.547, 49087.547, 0.0, 10.000565, 9.999268 
2.8627777e+3, 3.2608134e+2, 113386.18, 81271.41, 316915.9, 0.29740328, -0.00063637673, 414651.22, 414651.22, 0.0, 10.000661, 10.000005 
2.8794056e+3, 1.3655438e+2, -1651696.4, -1822934.8, 292748.13, -0.11814631, 0.15724187, -1432304.0, 169498.97, 0.00000033823923, 10.00107, 9.998483 
2.879062e+3, 1.4655308e+2, -1273722.6, -1390431.6, -56103.668, 0.16671723, 0.7014059, -1251127.4, 252691.72, 0.000000039050374, 10.002128, 10.000366 
2.8787115e+3, 1.5654315e+2, -1323993.0, -1472383.3, -37830.86, 0.15388319, 0.15882145, -1314904.9, 91001.75, 0.0000000006124831, 10.001571, 9.999423 
2.878359e+3, 1.6653618e+2, -1273474.1, -1423662.5, -58357.75, -0.025670085, 0.15345901, -1253464.4, 54510.938, 0.0, 10.001436, 9.999079 
2.8780037e+3, 1.7653014e+2, -1267614.5, -1462463.4, -43081.3, -0.43065727, 0.16575342, -1258514.3, -48473.12, 0.0, 10.001155, 9.998323 
2.8776532e+3, 1.8652447e+2, -1074377.5, -1178487.5, -139333.69, -0.18519661, 0.3285725, -977692.44, 134404.77, 0.0, 10.001294, 9.999516 
2.8773063e+3, 1.965182e+2, -1071054.4, -1231568.3, -135126.2, 0.4927142, 0.2778059, -994148.1, 20007.13, 0.0, 10.001007, 9.99867 
2.876956e+3, 2.0651266e+2, -924403.25, -1041464.4, 43747.77, 0.43569598, 0.4549507, -909860.56, 6348.8086, 0.0, 10.001171, 9.999149 
2.8766033e+3, 2.1650676e+2, -869226.0, -1070764.4, 27733.732, -0.033137176, 0.47969434, -865479.25, -47210.07, 0.0, 10.001264, 9.998277 
2.8762546e+3, 2.2649913e+2, -606136.06, -809822.8, 42424.97, -0.13426518, 0.47219542, -597652.9, 122692.22, 0.0, 10.002053, 9.99897 
2.8759083e+3, 2.3649044e+2, -512260.94, -802832.8, 2229.255, -0.0072277943, 0.2236751, -512243.84, 110187.016, 0.0, 10.002377, 9.998232 
2.8755572e+3, 2.4648474e+2, -278108.97, -431131.94, -57575.57, -0.13100705, 0.3485227, -258865.8, 265619.25, 0.0, 10.0024185, 10.00007 
2.8752035e+3, 2.5647956e+2, -459635.2, -607472.6, 28380.352, -0.38350004, 0.36227202, -454374.22, -27841.102, 0.0, 10.0010605, 9.998879 
2.874855e+3, 2.6647294e+2, -547219.25, -643421.9, 30492.014, -0.1722773, 0.47022185, -538368.8, -209769.78, 0.0, 10.0000305, 9.998408 
2.8745094e+3, 2.7646494e+2, -751878.44, -781010.1, -63323.0, 0.27852777, 0.3499535, -701467.6, -470788.22, 0.0, 9.998256, 9.997697 
2.8741598e+3, 2.864575e+2, -323561.8, -356081.38, 8318.452, 0.16970803, 0.37359738, -321557.5, -188805.25, 0.0, 9.999911, 9.999073 
2.8738084e+3, 2.9644972e+2, 66536.266, -246580.34, 7855.282, -0.24649733, 0.20774022, 66733.21, 101561.945, 0.0, 10.002376, 9.998039 
2.8734562e+3, 3.0644572e+2, 236333.0, 48936.555, -84414.05, -0.54887193, 0.5422336, 268750.16, 268750.16, 0.0, 10.0023, 9.999395 
2.873106e+3, 3.1644344e+2, -230147.97, -332013.78, -41692.59, -0.64514804, 0.8590626, -215259.66, -215259.66, 0.0, 9.999425, 9.997908 
2.872773e+3, 3.2643184e+2, -208958.13, 55192.93, 373979.9, 0.31853086, 0.26320088, 319734.22, 319734.22, 0.0, 9.998228, 10.000849 
2.889406e+3, 1.369024e+2, -1830575.5, -1606331.0, 217144.77, 0.40990284, 0.11200099, -1474069.9, 124325.84, 0.0000000032251708, 9.998412, 10.001308 
2.889054e+3, 1.469045e+2, -1624925.5, -1525447.4, 15518.38, -0.11644339, 0.8671492, -1523082.8, -22706.125, 0.0, 9.999512, 10.000721 
2.888707e+3, 1.5689372e+2, -1334513.9, -1450216.5, 61192.367, 0.098724775, 0.2428589, -1308155.4, 94321.61, 0.0, 10.001257, 9.99978 
2.8883564e+3, 1.668874e+2, -1057873.9, -1219170.4, -5070.6484, 0.06226774, 0.22652242, -1057714.6, 246822.92, 0.0, 10.00237, 10.000076 
2.8880024e+3, 1.7688282e+2, -975620.2, -1257260.4, 31568.588, -0.22958238, 0.32801262, -972125.1, 234458.33, 0.0, 10.002731, 9.999028 
2.887651e+3, 1.868761e+2, -789134.06, -1156620.6, -89161.59, -0.10301983, 0.4111503, -768643.7, 340007.3, 0.0, 10.003606, 9.998607 
2.8873017e+3, 1.9686837e+2, -636019.6, -1103007.8, -87943.78, 0.2779765, 0.3509093, -620007.0, 390721.72, 0.0, 10.004191, 9.998075 
2.886951e+3, 2.0686153e+2, -552058.75, -887590.44, 33750.78, 0.24116579, 0.42049685, -548697.5, 364096.94, 0.0, 10.003673, 9.99905 
2.886599e+3, 2.1685466e+2, -662863.56, -959046.2, 56624.113, -0.08592042, 0.39294142, -652407.3, 162451.94, 0.0, 10.002432, 9.998539 
2.886251e+3, 2.2684734e+2, -588495.3, -754743.6, 93177.44, -0.124909505, 0.3681496, -546752.9, 170177.83, 0.0, 10.001853, 9.9994955 
2.8859046e+3, 2.3683931e+2, -584916.06, -756487.6, 101906.33, -0.019393055, 0.18519795, -537494.9, 81515.16, 0.0, 10.001338, 9.999114 
2.8855535e+3, 2.46834e+2, -293900.0, -385092.66, -9231.8125, -0.15159309, 0.2735351, -292974.8, 228084.86, 0.0, 10.002008, 10.000629 
2.8851998e+3, 2.568296e+2, -96265.914, -381268.84, -80786.88, -0.42870936, 0.35052752, -74959.0, 348139.94, 0.0, 10.003185, 9.999478 
2.8848514e+3, 2.6682276e+2, -143969.52, -525773.06, -71776.83, -0.1332358, 0.4349439, -130921.79, 194246.36, 0.0, 10.003094, 9.9977455 
2.8845057e+3, 2.768141e+2, -182208.33, -574402.06, -23580.578, 0.43525156, 0.3704745, -180795.64, 46462.88, 0.0, 10.002369, 9.997162 
2.884156e+3, 2.868064e+2, -52217.43, -278464.75, 142179.45, 0.26314965, 0.40818882, 16350.839, 145686.27, 0.0, 10.001829, 9.998747 
2.883804e+3, 2.9679897e+2, -78132.414, -333534.44, 46143.24, -0.29929572, 0.34052506, -70051.445, -38644.555, 0.0, 10.001298, 9.998012 
2.8834528e+3, 3.0679247e+2, 59665.605, -126029.42, -112878.62, -0.49810815, 0.46222776, 112976.375, 112976.375, 0.0, 10.001422, 9.998677 
2.8831038e+3, 3.1678665e+2, 32530.74, -243789.98, -87754.26, -0.33732262, 0.55241954, 58044.125, 58044.125, 0.0, 10.001265, 9.997746 
2.882769e+3, 3.2678163e+2, 313312.63, 336224.34, 184710.67, 0.46275297, 0.6884722, 509834.06, 509834.06, 0.0, 10.001453, 10.001512 
2.8994045e+3, 1.3725127e+2, -1594530.9, -1277891.6, 238954.19, 0.9388815, 0.11184461, -1149568.3, 445411.56, 0.000000008553674, 9.99915, 10.00322 
2.899045e+3, 1.4725503e+2, -1437499.9, -1421987.4, 37225.895, -0.42897162, 0.94793665, -1391718.3, 105225.47, 0.0, 10.000823, 10.000781 
2.8987026e+3, 1.5724419e+2, -1365554.6, -1454106.4, 31423.443, 0.10353509, 0.28674793, -1355537.0, 43513.11, 0.0, 10.001092, 9.999804 
2.898355e+3, 1.6723962e+2, -1055000.1, -1109943.3, -43420.055, 0.27779868, 0.38701203, -1031090.9, 270000.44, 0.0, 10.002061, 10.000916 
2.898004e+3, 1.772371e+2, -1061277.4, -1301556.3, -11178.985, 0.21816741, 0.5943016, -1060758.4, 142353.36, 0.0, 10.002251, 9.998937 
2.89765e+3, 1.8722917e+2, -989609.75, -1384090.9, -86989.85, 0.02710353, 0.6339009, -971278.8, 133913.89, 0.0, 10.002873, 9.997346 
2.8972954e+3, 1.9721867e+2, -933849.5, -1379318.4, -87701.055, -0.1393971, 0.38154435, -917205.3, 90096.25, 0.0, 10.002821, 9.996776 
2.896945e+3, 2.0720941e+2, -702696.3, -974864.06, -5344.779, -0.13955386, 0.2624483, -702591.4, 206796.5, 0.0, 10.002807, 9.998796 
2.8965956e+3, 2.1720035e+2, -846884.75, -1087926.1, 22451.54, -0.072567694, 0.011287914, -844811.4, -33343.207, 0.0, 10.0014715, 9.99806 
2.8962475e+3, 2.2719549e+2, -644974.8, -661723.06, 85466.88, -0.046816267, 0.18716379, -567472.8, 146041.33, 0.0, 10.001133, 10.000385 
2.8958997e+3, 2.3719166e+2, -791653.94, -871090.25, 89011.63, -0.025346335, 0.31561694, -733901.06, -118348.33, 0.0, 10.000104, 9.998881 
2.8955498e+3, 2.471854e+2, -515575.56, -625870.25, 27219.838, -0.10420969, 0.3993395, -509223.72, 8390.89, 0.0, 10.00124, 9.999236 
2.8951988e+3, 2.5717765e+2, -424962.34, -694205.3, -51644.75, -0.22111423, 0.24174449, -415396.0, 4294.5723, 0.0, 10.001759, 9.99794 
2.8948486e+3, 2.6717088e+2, -196905.72, -435353.66, -87189.125, -0.10858454, 0.34013447, -168426.28, 153330.28, 0.0, 10.002349, 9.998672 
2.894499e+3, 2.771641e+2, -299592.03, -633309.8, -15757.603, 0.105541304, 0.34726503, -298849.66, -75026.516, 0.0, 10.001669, 9.997082 
2.8941494e+3, 2.8715634e+2, -203993.16, -485187.0, 93996.68, -0.03610526, 0.46249285, -175466.25, -49564.47, 0.0, 10.001515, 9.997432 
2.8937995e+3, 2.9714757e+2, -356409.06, -653032.1, 27613.906, -0.3258489, 0.38799167, -353860.25, -325869.44, 0.0, 10.000327, 9.996244 
2.893451e+3, 3.0713606e+2, 41803.434, -176293.64, -96078.78, -0.22133887, 0.07066281, 78091.46, 78091.46, 0.0, 10.001708, 9.997974 
2.8931037e+3, 3.1712455e+2, -172334.38, -757154.1, -193.59805, 0.028247062, -0.32809237, -172334.31, -172334.31, 0.0, 10.001861, 9.993802 
2.8927633e+3, 3.2711768e+2, -343302.3, -337180.88, 185111.8, 0.15123507, -0.12106165, -155104.48, -155104.48, 0.0, 9.998983, 9.9977045 
2.909396e+3, 1.3760231e+2, -1615138.8, -1676292.0, 381975.5, 0.48157817, 0.28516218, -1262518.0, 329014.3, 0.000000011355019, 10.000519, 9.99991 
2.9090422e+3, 1.4759913e+2, -1202781.5, -1426586.5, -56945.05, -0.3737946, 0.6187584, -1189125.6, 304445.13, 0.0, 10.002825, 9.999846 
2.9086998e+3, 1.5759173e+2, -1271430.0, -1450354.0, -75783.53, 0.17956285, 0.39733115, -1243646.1, 152002.42, 0.0, 10.001794, 9.999543 
2.9083514e+3, 1.6758741e+2, -950626.4, -948913.25, -148184.81, 0.2791415, 0.44444546, -801582.56, 496104.16, 0.0, 10.0022335, 10.001962 
2.9079998e+3, 1.7758396e+2, -913493.7, -1127799.6, -118551.1, 0.08777885, 0.47121707, -860846.44, 338866.88, 0.0, 10.002691, 9.999958 
2.9076466e+3, 1.8757747e+2, -1006199.9, -1357373.0, -199480.52, 0.01515372, 0.5747715, -916036.3, 185745.66, 0.0, 10.002497, 9.997766 
2.907293e+3, 1.9756941e+2, -1079505.5, -1384255.5, -107313.875, -0.041416276, 0.5524196, -1045508.75, -41638.742, 0.0, 10.001398, 9.997481 
2.906943e+3, 2.0756094e+2, -706031.56, -935934.5, 13030.216, -0.022851879, 0.44888356, -705295.44, 200653.38, 0.0, 10.002475, 9.9992695 
2.9065937e+3, 2.175521e+2, -437875.66, -818471.2, 48709.598, -0.0067414115, 0.20259655, -431740.56, 376285.63, 0.0, 10.003816, 9.998824 
2.9062438e+3, 2.2754657e+2, -395529.94, -567518.25, 20120.098, -0.05406186, 0.29034877, -393207.53, 316869.56, 0.0, 10.002857, 10.000248 
2.9058936e+3, 2.3754214e+2, -627927.75, -768210.1, -977.48785, -0.15103102, 0.39488775, -627920.94, -15800.889, 0.0, 10.000961, 9.9992285 
2.9055455e+3, 2.4753533e+2, -410070.56, -627251.4, 48288.043, -0.1265929, 0.42135537, -399818.2, 114369.1, 0.0, 10.001991, 9.998946 
2.9051974e+3, 2.575272e+2, -64991.19, -481183.84, 1910.1749, -0.06861883, 0.27748707, -64982.42, 351285.53, 0.0, 10.003847, 9.998448 
2.904846e+3, 2.6752016e+2, 17040.313, -260674.78, -64753.75, -0.06202638, 0.2745984, 31396.559, 349731.1, 0.0, 10.003285, 9.999504 
2.9044932e+3, 2.7751362e+2, -211507.72, -479278.28, 601.42303, -0.09140776, 0.24312638, -211506.36, 8889.3125, 0.0, 10.001607, 9.998221 
2.904144e+3, 2.8750718e+2, -166391.95, -449937.2, 233747.11, -0.13343132, 0.43248343, -34783.55, 87677.73, 0.0, 10.001646, 9.997627 
2.9037946e+3, 2.9749882e+2, -218309.97, -469161.53, 179547.44, -0.29786682, 0.4200731, -124717.7, -100169.875, 0.0, 10.000538, 9.997435 
2.919389e+3, 1.3795197e+2, -1465910.0, -1985715.5, 479277.44, 0.15945482, 0.38050485, -1180600.5, 407498.97, 0.00000000463828, 10.00329, 9.996377 
2.919041e+3, 1.479433e+2, -1331651.6, -1609208.1, -60672.22, -0.18642524, 0.33196563, -1318968.6, 171228.95, 0.0, 10.002534, 9.998666 
2.9186976e+3, 1.5793897e+2, -1423807.6, -1611266.9, -64838.918, 0.35434407, 0.52294123, -1403566.6, -11317.216, 0.0, 10.001195, 9.998698 
2.9183474e+3, 1.6793384e+2, -1010790.3, -901067.6, -103324.195, 0.24840534, 0.4706491, -838943.25, 455351.63, 0.0, 10.001511, 10.002637 
2.9179943e+3, 1.7792812e+2, -1099415.4, -1172354.4, -142240.28, -0.11845094, 0.19235002, -989043.7, 207298.34, 0.0, 10.001312, 10.000308 
2.9176432e+3, 1.879243e+2, -1037188.5, -1237098.9, -241601.53, 0.030452985, 0.469091, -875681.75, 222704.44, 0.0, 10.001849, 9.998815 
2.917293e+3, 1.9792034e+2, -1107778.9, -1363590.0, -120678.24, 0.3972438, 0.73581475, -1059834.9, -59398.344, 0.0, 10.00112, 9.997748 
2.9169428e+3, 2.0791422e+2, -748073.25, -880456.1, 72001.1, 0.3330614, 0.8183348, -716461.5, 186033.02, 0.0, 10.002015, 9.99982 
2.9165927e+3, 2.1790697e+2, -730036.1, -989843.9, 48759.957, 0.11670095, 0.663169, -721186.44, 83372.01, 0.0, 10.00208, 9.9984665 
2.91624e+3, 2.2789884e+2, -616777.2, -773780.44, -65293.94, -0.12795411, 0.55594575, -593172.0, 113461.67, 0.0, 10.001877, 9.99925 
2.9158863e+3, 2.3789039e+2, -906349.25, -1019124.25, -37056.145, -0.3557669, 0.3295387, -895263.0, -286549.72, 0.0, 9.999709, 9.998067 
2.9155406e+3, 2.4788402e+2, -497804.16, -595442.4, 118954.23, -0.22971599, 0.39336252, -418040.94, 92733.78, 0.0, 10.001204, 9.999472 
2.9151964e+3, 2.578779e+2, -278411.44, -570167.3, 41605.996, -0.009419276, 0.36675307, -272594.2, 140240.03, 0.0, 10.002441, 9.998487 
2.9148433e+3, 2.6787055e+2, -51159.383, -171215.28, -135303.11, -0.052581992, 0.2644598, 36833.9, 351737.13, 0.0, 10.002506, 10.000371 
2.9144874e+3, 2.7786282e+2, -348970.53, -451647.63, -10122.336, -0.24392514, -0.005575529, -347982.16, -131006.7, 0.0, 10.000403, 9.998945 
2.9141402e+3, 2.8785986e+2, -108009.25, -203122.16, 270869.5, -0.13824113, 0.3726423, 119446.85, 238451.28, 0.0, 10.001234, 9.999451 
2.9137892e+3, 2.9785293e+2, -157918.98, -18462.37, -23705.777, -0.3791569, 0.22693957, -14542.86, 6531.0146, 0.0, 9.999304, 10.001083 
2.9293898e+3, 1.3829692e+2, -877791.8, -1438105.3, -4406.4497, 0.14482301, 0.26068828, -877757.1, 706974.5, 0.0, 10.00607, 9.998847 
2.9290363e+3, 1.4829352e+2, -1313175.8, -1536129.9, -110507.586, -0.34762886, 0.6101908, -1267684.4, 219085.94, 0.0, 10.00225, 9.999376 
2.9286906e+3, 1.582859e+2, -1447768.8, -1589420.8, -32160.63, 0.07105919, 0.43685827, -1440808.9, -51957.81, 0.0, 10.000753, 9.999115 
2.928342e+3, 1.6828078e+2, -1218196.4, -1118387.0, -79483.48, 0.15777934, 0.43504375, -1074440.1, 216458.61, 0.0, 10.000512, 10.001668 
2.9279906e+3, 1.7827593e+2, -1262825.3, -1247577.0, -141127.19, -0.050053712, 0.35290992, -1113868.1, 79073.086, 0.0, 10.000047, 10.00045 
2.9276386e+3, 1.8827175e+2, -914408.1, -1018797.8, -225048.23, -0.027887708, 0.48750177, -735581.3, 359402.3, 0.0, 10.001912, 10.000322 
2.9272878e+3, 1.9826758e+2, -617382.4, -952480.2, -111802.35, 0.13117221, 0.61096936, -583505.3, 413523.38, 0.0, 10.0036125, 9.999399 
2.9269385e+3, 2.0826188e+2, -625339.25, -814866.06, -2767.0603, 0.19893807, 0.65984833, -625298.9, 273784.97, 0.0, 10.002711, 10.0 
2.926589e+3, 2.1825543e+2, -883050.9, -1009420.75, -14780.448, 0.13254459, 0.58975744, -881345.1, -80200.98, 0.0, 10.000562, 9.999148 
2.9262367e+3, 2.2824821e+2, -566773.7, -737468.0, -39366.605, -0.077202074, 0.5278005, -558132.2, 145079.03, 0.0, 10.001915, 9.999628 
2.925883e+3, 2.3824047e+2, -223305.8, -601798.2, 49995.813, -0.3363818, 0.37289757, -216813.13, 388470.53, 0.0, 10.003748, 9.999101 
2.9255363e+3, 2.4823414e+2, -331915.44, -470288.72, 177032.06, -0.24204195, 0.3710205, -211030.66, 296314.22, 0.0, 10.002006, 10.000009 
2.9251915e+3, 2.5822818e+2, -639650.75, -642032.6, 73550.28, -0.032951836, 0.34661645, -567281.75, -157878.45, 0.0, 9.999323, 9.999565 
2.9248393e+3, 2.682225e+2, -277158.75, -244363.89, -81177.17, -0.055949416, 0.3452074, -177944.6, 133514.0, 0.0, 10.000654, 10.000831 
2.9244837e+3, 2.7821657e+2, 111751.92, -111192.8, -27609.193, -0.21738368, 0.22498618, 115120.125, 328636.13, 0.0, 10.002841, 10.000176 
2.9241353e+3, 2.882136e+2, -38952.754, -86030.24, 148418.31, -0.15609795, 0.49415985, 87781.805, 203325.81, 0.0, 10.001111, 10.000443 
2.9237854e+3, 2.9820564e+2, 29524.09, 167864.05, -316312.38, -0.10647559, 0.17310391, 422481.03, 440103.22, 0.0, 9.999879, 10.002187 
2.9393902e+3, 1.3864397e+2, -1246718.5, -1276091.9, -162287.16, 0.24050483, 0.33327165, -1098454.9, 482889.1, 0.0, 10.0021305, 10.001847 
2.9390314e+3, 1.4864494e+2, -1313134.5, -1410495.6, -28034.172, -0.44900262, 0.9584406, -1305639.4, 177692.38, 0.0, 10.001866, 10.0003605 
2.9386836e+3, 1.5863334e+2, -1365421.0, -1548773.6, -25723.934, -0.14411253, 0.30256352, -1361880.4, 23567.004, 0.0, 10.001445, 9.999031 
2.938336e+3, 1.6862871e+2, -1217640.0, -1267323.6, -37684.844, 0.12242844, 0.44969428, -1197345.8, 90147.71, 0.0, 10.001277, 10.000216 
2.937987e+3, 1.786253e+2, -1321704.5, -1365959.3, -71976.84, 0.20351551, 0.62991273, -1268530.6, -79004.16, 0.0, 10.000147, 9.999529 
2.9376337e+3, 1.8861963e+2, -894583.2, -856010.94, -101411.21, -0.08759715, 0.5541473, -772068.25, 319507.4, 0.0, 10.001483, 10.001608 
2.9372808e+3, 1.9861327e+2, -823856.44, -992595.2, -74339.61, -0.31432003, 0.32802087, -795777.75, 197853.56, 0.0, 10.002084, 9.999826 
2.936932e+3, 2.086069e+2, -783839.44, -887340.2, -83813.18, -0.09897457, 0.2784142, -737087.3, 158606.78, 0.0, 10.001742, 9.999891 
2.9365838e+3, 2.1860039e+2, -1118514.4, -1174967.1, -49899.848, 0.18243673, 0.20306599, -1089410.8, -291651.13, 0.0, 9.999292, 9.998605 
2.936234e+3, 2.2859628e+2, -608574.8, -604016.44, 53393.43, 0.07479995, 0.37753752, -552853.56, 146943.63, 0.0, 10.001153, 10.000787 
2.9358828e+3, 2.3859228e+2, -462191.97, -684494.25, 80207.414, -0.13353318, 0.45740914, -436274.5, 165558.58, 0.0, 10.002164, 9.999215 
2.9355326e+3, 2.4858534e+2, -477094.97, -511494.47, 63349.902, -0.21180248, 0.37710243, -428651.44, 75250.305, 0.0, 10.00109, 10.00007 
2.9351828e+3, 2.585781e+2, -901734.7, -793808.7, 33451.145, -0.20987846, 0.19503023, -784281.7, -378307.13, 0.0, 9.997842, 9.999191 
2.934833e+3, 2.6857656e+2, -363640.5, -279105.66, 13660.873, -0.122690916, 0.60498005, -276952.88, 31042.94, 0.0, 10.000119, 10.000835 
2.9344818e+3, 2.785755e+2, -119046.016, -289880.34, 14883.014, -0.103065446, 0.9621281, -117759.11, 92253.63, 0.0, 10.0016985, 9.999475 
2.9341286e+3, 2.8856748e+2, -167092.19, -181595.42, 9900.423, -0.34147248, 0.7722908, -162071.7, -49979.305, 0.0, 10.000576, 9.999961 
2.9337797e+3, 2.985596e+2, -312595.38, -362903.63, 146336.53, -0.19056693, 0.56133646, -189266.8, -175094.61, 0.0, 9.9994, 9.998677 
2.9493815e+3, 1.3899936e+2, -1787604.4, -1483342.5, 119268.08, -0.1462532, 0.48997977, -1442163.6, 135694.19, 0.0, 9.998078, 10.002429 
2.94903e+3, 1.4899774e+2, -1438102.6, -1676291.4, 137217.2, -0.2348441, 0.97582203, -1375504.9, 104368.03, 0.0, 10.001857, 9.998574 
2.9486826e+3, 1.5898556e+2, -1135016.5, -1539742.9, 45815.48, -0.028520469, 0.4569239, -1129895.0, 252100.94, 0.0, 10.00334, 9.998241 
2.9483324e+3, 1.6897973e+2, -928340.56, -1153300.4, -3917.2622, 0.04220874, 0.5152758, -928272.4, 355780.06, 0.0, 10.003202, 10.000157 
2.9479805e+3, 1.7897533e+2, -1014262.06, -1200798.5, 26961.752, -0.1096969, 0.6375311, -1010443.25, 175650.81, 0.0, 10.002012, 9.9998255 
2.947629e+3, 1.889691e+2, -894817.4, -889235.25, -9448.065, -0.14225915, 0.51314294, -882174.6, 205975.6, 0.0, 10.001499, 10.001423 
2.9472786e+3, 1.9896245e+2, -1008528.44, -1073524.8, -36102.918, -0.13992417, 0.30288184, -992451.4, -2241.2832, 0.0, 10.000619, 10.000025 
2.946928e+3, 2.0895676e+2, -866045.6, -939534.5, -79923.62, -0.038431223, 0.32696062, -814824.5, 77443.87, 0.0, 10.001077, 9.999931 
2.9465777e+3, 2.1895103e+2, -732875.9, -878911.44, -31016.549, 0.047050286, 0.34301135, -726561.3, 67766.76, 0.0, 10.00129, 9.999719 
2.946229e+3, 2.289468e+2, -511248.25, -460060.8, 97276.71, 0.039125912, 0.40244624, -385067.28, 311297.0, 0.0, 10.001296, 10.001762 
2.9458803e+3, 2.3894295e+2, -518326.56, -602056.2, 64647.06, -0.022265716, 0.43151838, -483172.5, 115223.336, 0.0, 10.001134, 10.000324 
2.945529e+3, 2.4893649e+2, -408757.66, -555773.3, 2941.5325, -0.13690275, 0.4005972, -408698.8, 91761.766, 0.0, 10.001674, 9.99962 
2.9451773e+3, 2.5892943e+2, -225406.5, -463572.8, -49357.082, -0.22491898, 0.3034905, -215583.03, 186950.52, 0.0, 10.002228, 9.999445 
2.9448274e+3, 2.6892748e+2, -264357.97, -252403.4, -56138.848, -0.15569335, 0.66227007, -201924.53, 102634.75, 0.0, 10.000759, 10.000766 
2.944477e+3, 2.7892637e+2, -434456.75, -431817.47, -77402.88, -0.11712754, 1.0410101, -355722.97, -149145.31, 0.0, 9.999327, 9.999689 
2.944125e+3, 2.889157e+2, 117225.88, -117070.61, -63039.54, -0.25710896, 0.59668666, 133110.33, 241794.17, 0.0, 10.002654, 9.999517 
2.943776e+3, 2.989124e+2, 248089.44, -275298.6, 259511.89, -0.19229221, 0.96133184, 354946.9, 365667.44, 0.0, 10.003693, 9.997323 
2.959374e+3, 1.3935362e+2, -1548387.3, -1427698.5, 175676.97, -0.16776408, 0.49958897, -1302290.8, 272089.25, 0.00000000001490612, 10.000086, 10.001829 
2.959029e+3, 1.4934933e+2, -1488082.9, -1930348.4, 104487.695, 0.055753723, 0.87236893, -1464639.8, 11784.852, 0.0, 10.002584, 9.996459 
2.9586825e+3, 1.5933764e+2, -1314485.9, -1770744.6, 34654.316, 0.26080626, 0.5966904, -1311868.9, 66675.93, 0.0, 10.002803, 9.996895 
2.9583287e+3, 1.693308e+2, -1028064.44, -1157752.8, -50893.62, -0.018711992, 0.55498695, -1010477.25, 270131.72, 0.0, 10.002416, 10.000464 
2.957973e+3, 1.79325e+2, -1223771.4, -1326086.9, -4110.9893, -0.45025685, 0.50077003, -1223606.5, -40944.723, 0.0, 10.000788, 9.999531 
2.9576248e+3, 1.8931904e+2, -1054774.5, -1035757.06, -33263.063, -0.11215141, 0.44257557, -1010670.25, 74049.78, 0.0, 10.000849, 10.000653 
2.9572785e+3, 1.9931296e+2, -1254070.9, -1325908.0, -30831.633, 0.42166272, 0.37035364, -1242653.0, -255872.25, 0.0, 9.999647, 9.998732 
2.9569256e+3, 2.0930895e+2, -927399.44, -954609.7, -36253.766, 0.20293601, 0.5952791, -902282.0, -13456.626, 0.0, 10.000783, 9.999875 
2.956571e+3, 2.1930476e+2, -891790.06, -968982.75, 7811.7085, -0.13734259, 0.7479856, -891007.44, -100136.5, 0.0, 10.000468, 9.999425 
2.956223e+3, 2.2929831e+2, -549861.6, -400334.94, 97966.41, -0.08938196, 0.5348993, -351862.84, 341061.63, 0.0, 10.000796, 10.0023575 
2.955876e+3, 2.3929213e+2, -815502.0, -802981.3, 67491.48, 0.039297286, 0.2702541, -741460.44, -146486.28, 0.0, 9.999477, 9.999727 
2.9555255e+3, 2.4928744e+2, -550265.0, -686263.8, 27501.69, -0.04976627, 0.46319887, -544914.1, -47891.355, 0.0, 10.001101, 9.998925 
2.955174e+3, 2.5928226e+2, -522948.5, -746522.0, -48098.3, -0.16399865, 0.6119357, -513040.06, -113961.53, 0.0, 10.000956, 9.998056 
2.9548207e+3, 2.6927507e+2, -432038.97, -393446.34, -136267.5, -0.2791781, 0.51522386, -275115.72, 26034.428, 0.0, 10.000003, 10.0000725 
2.954467e+3, 2.7926758e+2, -721322.75, -672030.44, -59515.72, -0.4549608, 0.315593, -632259.56, -429035.97, 0.0, 9.997959, 9.998651 
2.954125e+3, 2.892581e+2, 107407.766, -104877.14, 112597.61, 0.055837557, -0.021410348, 156005.22, 261320.08, 0.0, 10.002668, 9.999508 
2.9537767e+3, 2.992566e+2, 161840.92, -195667.48, -207182.47, -0.027500605, 0.4785015, 256724.52, 264056.56, 0.0, 10.002764, 9.998271 
2.9693758e+3, 1.3969906e+2, -1268881.9, -1552576.0, -77570.734, 0.23206814, 0.36972696, -1249057.0, 321935.7, 0.00000010737005, 10.003024, 9.999587 
2.9690236e+3, 1.4969216e+2, -1222681.3, -1608053.8, -39880.707, -0.24321751, 0.39382336, -1218597.5, 254465.34, 0.0, 10.003478, 9.998275 
2.9686782e+3, 1.5968357e+2, -1163572.9, -1537142.0, -42928.96, 0.013972389, 0.26480475, -1158703.1, 216447.03, 0.0, 10.003029, 9.9984255 
2.9683253e+3, 1.6967934e+2, -1038134.7, -1112600.5, -114707.586, -0.010125154, 0.39139572, -954768.6, 322421.22, 0.0, 10.002033, 10.001019 
2.9679704e+3, 1.7967536e+2, -1186804.4, -1265037.4, -62750.902, -0.26665044, 0.49341464, -1151976.5, 27250.053, 0.0, 10.000713, 10.000026 
2.9676205e+3, 1.8967041e+2, -1049318.5, -1053733.3, -64906.31, -0.06815987, 0.53090876, -986582.06, 94695.37, 0.0, 10.000816, 10.000616 
2.967272e+3, 1.9966497e+2, -1023500.44, -1121723.0, -5401.1895, 0.24038891, 0.5253211, -1023204.3, -39870.496, 0.0, 10.000627, 9.999717 
2.9669207e+3, 2.0966032e+2, -627464.4, -735886.5, 76487.82, 0.1272415, 0.6164836, -587924.56, 297456.16, 0.0, 10.002409, 10.000656 
2.9665685e+3, 2.1965599e+2, -321794.22, -599742.56, 106369.0, -0.10696952, 0.7073685, -285759.28, 501664.53, 0.0, 10.003791, 10.000427 
2.9662198e+3, 2.2964993e+2, -377464.22, -388401.53, 95806.51, -0.0025137586, 0.5565819, -286970.44, 402504.97, 0.0, 10.002117, 10.001901 
2.965871e+3, 2.3964347e+2, -678873.8, -689895.3, 62667.223, 0.11062673, 0.32663822, -621475.5, -29945.104, 0.0, 10.000036, 10.000275 
2.9655212e+3, 2.4963787e+2, -467612.94, -564670.9, 146452.92, -0.025171198, 0.3706663, -361858.0, 131728.06, 0.0, 10.00119, 9.999759 
2.9651704e+3, 2.596324e+2, -210984.84, -554131.44, 78537.87, -0.17629611, 0.46198633, -193863.7, 201778.78, 0.0, 10.002734, 9.998546 
2.9648167e+3, 2.6962453e+2, -4608.8623, -352465.63, -51600.266, -0.27455932, 0.39576703, 2884.0042, 300605.38, 0.0, 10.003448, 9.998811 
2.964462e+3, 2.7961573e+2, 84129.06, -267119.47, 43500.508, -0.418359, 0.2044159, 89436.21, 289244.38, 0.0, 10.0032, 9.998987 
2.964123e+3, 2.8960755e+2, -6223.742, -34746.785, 307563.16, 0.17696525, -0.0838009, 287408.34, 389292.88, 0.0, 10.001251, 10.000734 
2.9637712e+3, 2.996069e+2, -100032.555, -164648.94, -402927.5, -0.13129063, 0.44006202, 271879.97, 275771.63, 0.0, 10.000169, 9.999772 
2.9793763e+3, 1.400439e+2, -1718994.3, -1899048.4, 4858.4883, 0.52593964, 0.32357144, -1718863.3, -151250.36, 0.00000019973128, 10.000572, 9.9984 
2.9790187e+3, 1.5003535e+2, -1169448.3, -1292056.6, 31737.877, -0.5264826, 0.037971746, -1161719.9, 307977.8, 0.000000000008976791, 10.002686, 10.00082 
2.9786736e+3, 1.6003026e+2, -1201474.5, -1394776.1, -57876.97, -0.15088154, 0.013001569, -1185470.4, 186276.88, 0.0, 10.002168, 9.999837 
2.9783228e+3, 1.7002828e+2, -1043835.56, -1051045.8, -170394.8, 0.12795274, 0.28545725, -877007.7, 396759.1, 0.0, 10.001845, 10.001503 
2.97797e+3, 1.8002623e+2, -1315275.6, -1378827.8, -91869.5, 0.20692392, 0.5499861, -1249842.0, -74054.195, 0.0, 10.000177, 9.999509 
2.9776156e+3, 1.9002233e+2, -1138001.0, -1079723.5, -85097.39, 0.0018980408, 0.7043708, -1018914.25, 58915.156, 0.0, 10.000259, 10.000684 
2.977263e+3, 2.0001793e+2, -1191444.1, -1148706.8, 8089.2856, -0.12859118, 0.7583973, -1147226.9, -167351.52, 0.0, 9.999382, 10.000115 
2.9769158e+3, 2.1001114e+2, -690403.2, -660522.1, 120145.51, -0.015032333, 0.524724, -554391.75, 327544.56, 0.0, 10.00153, 10.0016 
2.976569e+3, 2.2000559e+2, -675182.2, -805446.44, 70585.78, 0.17821248, 0.3973628, -644269.8, 139715.11, 0.0, 10.001642, 10.000043 
2.9762182e+3, 2.3000216e+2, -641061.56, -622264.0, -12601.139, 0.2553542, 0.57158333, -615942.56, 70073.64, 0.0, 10.00096, 10.000779 
2.9758662e+3, 2.3999704e+2, -969072.6, -899310.75, 52718.64, 0.22452676, 0.58552134, -870978.3, -282914.38, 0.0, 9.998529, 9.999536 
2.975516e+3, 2.4998826e+2, -484229.88, -351216.3, 197773.66, -0.05245888, 0.18707682, -209066.48, 281079.6, 0.0, 10.000325, 10.001585 
2.975166e+3, 2.5998008e+2, -544868.75, -794741.6, 119759.4, -0.275416, -0.103367716, -496740.4, -104516.086, 0.0, 10.00095, 9.997741 
2.9748154e+3, 2.6997635e+2, -232069.11, -633776.4, -42395.617, -0.14131561, 0.37088028, -227643.5, 66626.85, 0.0, 10.002814, 9.997117 
2.974463e+3, 2.799722e+2, -127224.71, -415035.16, 13371.679, -0.11019804, 0.7625685, -126604.8, 69715.13, 0.0, 10.002151, 9.998451 
2.9741153e+3, 2.899649e+2, -51326.957, 175586.28, 191411.5, -0.11893432, 0.42742708, 284639.8, 383027.56, 0.0, 10.000124, 10.002689 
2.9737636e+3, 2.999651e+2, -231655.48, -132081.69, -76952.88, -0.35688087, 0.85348445, -90214.445, -89826.67, 0.0, 9.999148, 10.000426 
2.989365e+3, 1.4039567e+2, -1880542.5, -1511686.9, 469334.8, -0.09444258, 0.5151528, -1191844.1, 372325.03, 0.000000019519112, 9.997423, 10.002675 
2.989018e+3, 1.5039445e+2, -1386933.3, -1380418.1, 133446.95, -0.23502935, 0.8916291, -1250189.0, 215988.45, 0.0, 10.001127, 10.001049 
2.9886746e+3, 1.6039315e+2, -1408931.4, -1565685.0, -35314.266, 0.2765093, 1.2785722, -1401343.0, -33152.8, 0.0, 10.000988, 9.999265 
2.9883206e+3, 1.703817e+2, -1232763.5, -1279364.9, -238838.55, 0.31951594, 0.7254376, -1016091.75, 254212.83, 0.0, 10.001121, 10.000302 
2.9879647e+3, 1.8037131e+2, -1182470.9, -1243830.1, -218141.33, 0.12845328, 0.23496419, -992862.3, 179545.83, 0.0, 10.000731, 10.000183 
2.9876116e+3, 1.9036736e+2, -1104131.9, -993153.06, -175359.39, 0.11198143, 0.31708196, -864713.2, 209731.92, 0.0, 10.00014, 10.001409 
2.98726e+3, 2.0036425e+2, -1272824.8, -1097128.3, -50857.848, 0.17952189, 0.4658888, -1083468.6, -106995.414, 0.0, 9.998332, 10.00102 
2.9869127e+3, 2.1035865e+2, -953852.06, -713238.4, 69967.26, 0.20783366, 0.29367363, -694372.1, 184150.89, 0.0, 9.999351, 10.002343 
2.9865643e+3, 2.2035185e+2, -800772.3, -809369.7, -60461.91, 0.12589362, 0.009640509, -744456.5, 36128.49, 0.0, 10.000344, 10.000698 
2.986211e+3, 2.3034704e+2, -585550.25, -623590.6, -123181.95, 0.001669998, 0.0496209, -479928.7, 202705.73, 0.0, 10.001315, 10.000695 
2.9858595e+3, 2.403439e+2, -281996.47, -459152.94, 8744.989, -0.024345523, 0.25143582, -281565.84, 303101.03, 0.0, 10.002598, 10.000682 
2.9855132e+3, 2.503404e+2, -144241.9, -169987.11, 82886.66, 0.08503964, 0.34211507, -73234.23, 413463.13, 0.0, 10.002495, 10.001869 
2.985166e+3, 2.6033527e+2, -382423.94, -630285.44, -49326.99, 0.099106684, 0.3284567, -372968.13, 15777.029, 0.0, 10.001491, 9.998702 
2.984813e+3, 2.7032885e+2, -214763.84, -587335.7, -36041.04, -0.0677525, 0.5084456, -211309.42, 79507.76, 0.0, 10.002684, 9.997623 
2.984459e+3, 2.8032267e+2, 188452.45, -183439.86, 33818.75, -0.2548801, 0.6859049, 191502.8, 384389.97, 0.0, 10.003782, 9.999411 
2.9841095e+3, 2.9030976e+2, 117403.65, 248650.5, 2093.7656, -0.13523315, -0.22484379, 248683.89, 343694.94, 0.0, 10.001183, 10.002924 
2.9837584e+3, 3.003117e+2, 7436.6855, -141111.13, 145285.05, -0.30452633, 0.441862, 96332.5, 96332.5, 0.0, 10.000993, 9.999782 
2.9993582e+3, 1.4074385e+2, -1710146.6, -964863.7, -81584.77, -0.026341232, 0.5947096, -956037.25, 604726.1, 0.000000013810121, 9.996389, 10.006972 
2.9990134e+3, 1.507381e+2, -1378263.8, -1335621.1, -240897.8, -0.14724736, 0.29321334, -1115103.0, 347708.5, 0.0, 10.001075, 10.001253 
2.9986697e+3, 1.6073027e+2, -1126080.5, -1475483.3, -150752.61, 0.19942862, -0.034428842, -1070029.0, 294858.6, 0.0, 10.003056, 9.9988165 
2.9983124e+3, 1.7073072e+2, -791014.9, -1095860.6, 111699.15, -0.002347018, 0.5802411, -754468.4, 512416.63, 0.0, 10.004268, 9.999884 
2.9979557e+3, 1.8072413e+2, -681227.9, -1155114.4, 346735.06, -0.34424677, 0.5391, -498210.0, 670740.44, 0.0, 10.004728, 9.998848 
2.9976046e+3, 1.9071743e+2, -647434.9, -810019.75, -5602.3228, -0.027854761, 0.3733575, -647242.06, 423765.6, 0.0, 10.003391, 10.000982 
2.9972547e+3, 2.0070924e+2, -874725.06, -1094199.9, -45439.867, 0.26770824, 0.10651574, -865689.25, 107390.39, 0.0, 10.001836, 9.9993 
2.9969054e+3, 2.1070644e+2, -895655.1, -632787.94, 140237.39, 0.118869774, 0.18015777, -572020.3, 303086.1, 0.0, 9.999623, 10.002576 
2.9965565e+3, 2.2070396e+2, -1178145.1, -1123514.4, 13338.114, -0.12941013, 0.34894454, -1120431.9, -343300.22, 0.0, 9.998349, 9.999433 
2.9962084e+3, 2.3070273e+2, -777719.0, -705111.25, -10377.625, 0.2547586, 0.7329451, -703657.1, -24507.357, 0.0, 10.000025, 10.000574 
2.9958573e+3, 2.406972e+2, -924918.2, -891234.2, 34228.43, 0.08196734, 0.6739122, -869928.56, -288719.22, 0.0, 9.998738, 9.999489 
2.9955068e+3, 2.5068524e+2, -964709.3, -687213.4, -21121.813, -0.21611688, -0.052592717, -685614.9, -202286.69, 0.0, 9.997467, 10.000533 
2.9951647e+3, 2.6068866e+2, -924889.06, -880143.5, -87151.3, 0.3391266, 0.80453765, -812539.1, -427243.75, 0.0, 9.997864, 9.998586 
2.994808e+3, 2.7068013e+2, 272272.97, -62379.64, 192801.69, -0.19265622, 0.5327677, 360231.97, 647612.06, 0.0, 10.005012, 9.9998455 
2.9944503e+3, 2.8067386e+2, -492422.34, -669072.56, 8923.802, -0.95739496, 0.55542594, -491972.7, -302530.1, 0.0, 9.999884, 9.997842 
2.9941106e+3, 2.9066777e+2, -310803.6, -307051.97, 54414.848, 0.50030965, 0.5511422, -254480.63, -162979.89, 0.0, 10.000063, 9.99938 
2.9937533e+3, 3.0066228e+2, -161380.81, -663873.7, 264456.7, -0.4362268, 0.82141984, -47850.445, -47850.445, 0.0, 10.002089, 9.995424 
