coord_x,coord_y,stress_xx,stress_yy,tau_xy,velocity_x,velocity_y,stress_1,eps,damage,lx,ly
4.9988645e+0, 1.2625982e+2, -1727383.0, -1606966.5, 25913.068, -0.08415994, -0.35740522, -1601626.9, 100991.17, 0.0026898824, 9.999312, 10.001067 
5.0001913e+0, 1.3626152e+2, -1773030.9, -1801539.0, 12807.91, 0.049723223, -0.16087992, -1768121.9, -163517.8, 0.0015908045, 9.999332, 9.99904 
5.0002396e+0, 1.462604e+2, -1660588.9, -1656215.5, 35468.156, 0.057873644, -0.18580528, -1622866.8, -116247.914, 0.0007108368, 9.9992695, 9.999386 
4.999463e+0, 1.5625843e+2, -1572666.4, -1541511.5, 62099.527, -0.011545365, -0.3715691, -1493065.4, -84423.586, 0.00020845741, 9.999109, 9.999579 
4.9992934e+0, 1.6625932e+2, -1399800.5, -1327753.1, 74497.74, -0.036941662, -0.27940956, -1281026.5, 29609.717, 0.000030560106, 9.999282, 10.000292 
4.999474e+0, 1.7626123e+2, -1248908.5, -1203924.5, 36283.355, -0.036931895, -0.15645806, -1183727.3, 28892.713, 0.0000010193884, 9.999642, 10.000296 
4.9994612e+0, 1.8626218e+2, -1192798.9, -1084906.4, 78.22384, -0.015636848, -0.10926405, -1084906.3, 29703.85, 0.0, 9.999187, 10.000656 
4.9993205e+0, 1.9626248e+2, -1243183.0, -1073525.1, -20991.227, 0.018275412, -0.18062548, -1070966.5, -54361.79, 0.0, 9.998231, 10.000526 
4.9991995e+0, 2.0626266e+2, -1209854.6, -1071433.8, 22399.166, 0.013895808, -0.17800961, -1067899.4, -149296.44, 0.0, 9.998075, 9.999937 
4.999052e+0, 2.162626e+2, -1052166.4, -924270.2, 47412.145, -0.016857276, -0.21902068, -908611.3, -88005.93, 0.0, 9.998393, 10.000124 
4.9990612e+0, 2.2626315e+2, -867649.8, -617491.9, 4920.058, -0.009467477, -0.25543612, -617395.2, 105200.055, 0.0, 9.998269, 10.001616 
4.9991876e+0, 2.3626392e+2, -857480.8, -614577.6, -82948.29, 0.021871032, -0.37925476, -588954.75, 35624.492, 0.0, 9.997892, 10.001146 
4.999427e+0, 2.4626374e+2, -861003.7, -915061.5, -26564.684, 0.005971264, -0.33095282, -850134.75, -323553.63, 0.0, 9.998696, 9.998024 
4.9997464e+0, 2.5626278e+2, -540389.5, -711878.94, 41199.72, -0.039334424, -0.26621485, -531005.0, -102408.56, 0.000000000017365094, 10.000232, 9.998008 
4.9998322e+0, 2.6626062e+2, -429469.94, -559623.75, 39281.758, -0.024739785, -0.30232677, -418533.28, -87911.57, 0.000000288742, 10.000117, 9.998428 
4.9997672e+0, 2.762577e+2, -483991.1, -510358.63, 39836.02, 0.026102776, -0.4796105, -455213.94, -222560.55, 0.0000032414011, 9.998961, 9.9986515 
4.9996558e+0, 2.8625867e+2, -282201.63, -209778.45, 63673.38, 0.012057164, -0.32436308, -172739.94, -38096.26, 0.00001724438, 9.999023, 10.000006 
4.9994698e+0, 2.9626128e+2, -62165.086, -55915.465, 34881.203, -0.049196597, -0.10370193, -24019.385, 12596.377, 0.000074921634, 9.99986, 9.99999 
5.000124e+0, 3.0626014e+2, 62943.156, -63542.98, 27425.781, -0.029353665, -0.17960307, 68633.82, 68633.82, 0.0002850154, 10.000783, 9.99916 
5.0014174e+0, 3.162586e+2, 33268.734, -325914.44, 12428.192, 0.05599806, -0.25561312, 33698.25, 33698.25, 0.00074320304, 10.001595, 9.996981 
1.4996538e+1, 1.2625939e+2, -1762143.1, -1629706.3, -1300.7637, -0.25606894, -0.46591356, -1629693.5, 72923.164, 0.0025876667, 9.999135, 10.001005 
1.5000601e+1, 1.3625802e+2, -1777203.8, -1785551.9, 19468.537, 0.15312445, -0.54294807, -1761466.9, -156834.69, 0.0015348786, 9.999251, 9.9992 
1.5000719e+1, 1.462584e+2, -1605124.8, -1513019.0, 22074.602, 0.1747977, -0.48321936, -1508001.8, -1370.0718, 0.00068435894, 9.999161, 10.000433 
1.4998393e+1, 1.5626068e+2, -1530968.6, -1430324.8, 66382.1, -0.033742342, -0.3220582, -1397346.8, 11266.277, 0.00019662973, 9.999018, 10.000396 
1.4997892e+1, 1.6626161e+2, -1463769.3, -1433153.3, 81686.77, -0.10854776, -0.22451915, -1365352.5, -54744.598, 0.000026649353, 9.999177, 9.999628 
1.4998455e+1, 1.7626107e+2, -1301495.4, -1293466.1, 51401.523, -0.10816633, -0.2613885, -1245922.6, -33305.305, 0.00000066228677, 9.999564, 9.99973 
1.4998358e+1, 1.8626085e+2, -1238404.8, -1146988.9, -42629.64, -0.04795891, -0.2867343, -1130194.8, -15574.368, 0.0, 9.999064, 10.000295 
1.4997971e+1, 1.9626094e+2, -1272982.3, -1108550.1, -43047.805, 0.05596575, -0.32526842, -1097962.1, -81343.33, 0.0, 9.998125, 10.000344 
1.4997573e+1, 2.0626198e+2, -1161422.8, -934550.8, 28955.807, 0.04111902, -0.28606752, -930913.44, -12306.624, 0.0, 9.99794, 10.000945 
1.499714e+1, 2.1626346e+2, -1029883.06, -841615.7, 65073.543, -0.05105636, -0.25113088, -821312.9, -722.5907, 0.0, 9.998254, 10.000762 
1.4997174e+1, 2.2626334e+2, -1039978.06, -941345.3, -18438.826, -0.027431319, -0.2629966, -938011.0, -215420.02, 0.0, 9.998142, 9.999459 
1.4997537e+1, 2.3626226e+2, -990475.94, -855616.6, -79984.86, 0.06459183, -0.3354809, -818431.06, -193828.75, 0.0, 9.997759, 9.99956 
1.499829e+1, 2.4626237e+2, -721969.4, -601393.3, 24783.041, 0.018870534, -0.31551853, -596498.2, -69896.914, 0.0, 9.998598, 10.000233 
1.4999229e+1, 2.5626308e+2, -418140.84, -421977.9, 93758.83, -0.11868297, -0.28754708, -326280.94, 102312.91, 0.0, 10.000089, 10.000073 
1.4999504e+1, 2.6626313e+2, -433047.38, -538963.06, -12500.665, -0.07284852, -0.21148832, -431592.0, -100995.63, 0.00000013049092, 10.000014, 9.998628 
1.4999332e+1, 2.7626264e+2, -500396.5, -512034.84, 10762.198, 0.0810376, -0.13821518, -493980.97, -261375.6, 0.0000023602508, 9.998832, 9.998712 
1.4998925e+1, 2.862617e+2, -338301.2, -296248.4, 89119.03, 0.033207737, -0.14415184, -225708.92, -91095.69, 0.000014211254, 9.998915, 9.99947 
1.4998405e+1, 2.9625997e+2, -115052.67, -126401.32, 79776.055, -0.14917977, -0.28934768, -40749.395, -4123.923, 0.0000647229, 9.999698, 9.999592 
1.5000392e+1, 3.0625936e+2, 41519.582, -67226.97, 54334.457, -0.08311139, -0.2929561, 64014.285, 64014.285, 0.00025372737, 10.000654, 9.999205 
1.5004244e+1, 3.162609e+2, 37150.773, -244808.14, 61897.42, 0.17030899, -0.039650068, 50140.46, 50140.46, 0.0006708774, 10.001324, 9.997677 
2.4997097e+1, 1.2625974e+2, -1849130.8, -1682714.5, -3391.4626, -0.07830692, -0.43012065, -1682645.4, 19968.87, 0.002469487, 9.998597, 10.000887 
2.4999025e+1, 1.3625759e+2, -1761040.6, -1778868.6, -3450.4502, 0.07095144, -0.5917293, -1760396.1, -155758.39, 0.0014658497, 9.999384, 9.999178 
2.4998803e+1, 1.4625828e+2, -1553527.0, -1458581.1, -33250.105, 0.06111931, -0.5132703, -1448095.0, 58538.8, 0.0006493342, 9.999404, 10.000674 
2.4997352e+1, 1.5626158e+2, -1527609.0, -1409145.8, -52545.695, -0.031127395, -0.28223458, -1389197.5, 19407.27, 0.00018140074, 9.998964, 10.000557 
2.4997045e+1, 1.6626255e+2, -1505964.3, -1449697.5, 17808.277, -0.091319725, -0.18458723, -1444534.9, -133936.08, 0.000022322774, 9.998888, 9.999638 
2.4997461e+1, 1.7626157e+2, -1384964.1, -1331017.1, 24763.637, -0.13187976, -0.27512407, -1321373.6, -108761.336, 0.00000035252413, 9.999007, 9.999722 
2.4997127e+1, 1.8626112e+2, -1265092.8, -1180614.0, -48193.883, -0.06853925, -0.31340247, -1158768.9, -44151.266, 0.0, 9.998965, 10.000106 
2.4996446e+1, 1.9626115e+2, -1195227.1, -1084099.3, -35558.223, 0.06538143, -0.34635627, -1073695.5, -57078.926, 0.0, 9.998721, 10.000213 
2.4996242e+1, 2.0626217e+2, -1006493.0, -851063.06, 57884.01, 0.06736281, -0.30977634, -831875.1, 86728.984, 0.0, 9.998953, 10.00103 
2.499633e+1, 2.1626359e+2, -864516.56, -769578.4, 17271.95, -0.0110078, -0.29369855, -766533.75, 54052.79, 0.0, 9.999416, 10.000693 
2.4996272e+1, 2.2626324e+2, -871072.1, -964657.5, -27419.342, -0.008491557, -0.2741487, -863630.4, -141038.78, 0.0, 9.999742, 9.998522 
2.4996173e+1, 2.3626179e+2, -731165.4, -819559.06, -4096.1514, 0.04810241, -0.3001532, -730976.0, -106365.27, 0.0, 9.99991, 9.998766 
2.4997161e+1, 2.4626194e+2, -639053.06, -501127.03, 81378.0, 0.03339426, -0.27070022, -463421.03, 63188.82, 0.0, 9.9989195, 10.000753 
2.4998794e+1, 2.562629e+2, -798609.75, -552179.1, 17604.873, -0.024468588, -0.27301434, -550927.75, -122329.52, 0.0, 9.997249, 10.000539 
2.4999286e+1, 2.662635e+2, -647122.6, -598329.7, -78142.39, -0.009369727, -0.1784038, -540863.94, -210270.75, 0.00000003137998, 9.998366, 9.999005 
2.4999066e+1, 2.7626392e+2, -142822.23, -313199.78, -55523.22, 0.058168583, -0.061743, -126325.44, 106266.42, 0.0000016165861, 10.001187, 9.998933 
2.4998568e+1, 2.8626215e+2, -71503.805, -265168.8, -4563.995, -0.001270753, -0.11117194, -71396.305, 63211.676, 0.000011342512, 10.001157, 9.998603 
2.4998026e+1, 2.962586e+2, -228149.31, -266147.06, -40495.61, -0.13106066, -0.3579939, -202417.31, -165777.84, 0.00005395602, 9.999302, 9.9988165 
2.5000486e+1, 3.062581e+2, -163775.27, -187268.17, -7398.6094, -0.065363586, -0.30394083, -161639.4, -161639.4, 0.00022021512, 9.999344, 9.999016 
2.5005272e+1, 3.1626013e+2, -24514.293, -181936.53, -40110.746, 0.19448619, 0.0024685075, -14883.395, -14883.395, 0.00059438485, 10.000521, 9.9984865 
3.5000393e+1, 1.2626089e+2, -1866653.8, -1699059.3, 2614.7322, 0.3487002, -0.2839398, -1699018.5, 3592.4727, 0.0023442833, 9.998524, 10.000812 
3.4995246e+1, 1.3626027e+2, -1755153.3, -1764845.5, 26782.04, -0.26891086, -0.28996003, -1732782.4, -128162.09, 0.0013882996, 9.999389, 9.9992695 
3.4994212e+1, 1.4626e+2, -1587752.3, -1517498.5, -57476.992, -0.3637783, -0.29127327, -1485264.4, 21361.426, 0.0006086515, 9.999357, 10.000289 
3.4996104e+1, 1.562611e+2, -1546469.3, -1439761.0, -57157.234, -0.07617307, -0.24041377, -1414925.5, -6308.011, 0.00016439817, 9.998937, 10.000355 
3.4996644e+1, 1.6626218e+2, -1452566.3, -1331267.5, 13292.9795, -0.042256337, -0.17468877, -1329827.8, -19218.865, 0.000017966355, 9.998848, 10.000479 
3.499632e+1, 1.762626e+2, -1336164.5, -1226139.4, 35761.734, -0.16866617, -0.1974544, -1215537.3, -2931.0823, 0.00000014192928, 9.998988, 10.000457 
3.4995568e+1, 1.8626283e+2, -1264722.3, -1157973.1, -63195.8, -0.14028786, -0.21050423, -1128628.0, -14024.64, 0.0, 9.998879, 10.0002985 
3.4994534e+1, 1.96263e+2, -1198188.0, -1074401.6, -32693.293, -0.019478299, -0.24535586, -1066297.6, -49697.953, 0.0, 9.998654, 10.000312 
3.4995025e+1, 2.0626314e+2, -1066899.6, -949877.8, 66470.89, 0.03358515, -0.26638058, -919834.2, -1238.4183, 0.0, 9.998847, 10.000402 
3.4996444e+1, 2.1626304e+2, -913046.1, -845457.9, 41911.496, 0.039143212, -0.3332057, -825413.2, -4819.28, 0.0, 9.999315, 10.00022 
3.4996188e+1, 2.2626282e+2, -856744.75, -904238.25, -26436.16, -0.009071582, -0.3067683, -844955.9, -122358.63, 0.0, 9.999618, 9.998996 
3.4994885e+1, 2.3626252e+2, -726580.7, -781183.1, 1857.2587, -0.09043212, -0.25817424, -726517.56, -101913.85, 0.0, 9.999794, 9.9990835 
3.4995878e+1, 2.462624e+2, -727511.44, -665482.1, 9907.1455, -0.004009696, -0.20731686, -663938.25, -137331.38, 0.0, 9.998836, 9.999668 
3.4998277e+1, 2.5626227e+2, -874843.1, -684191.6, -17091.133, 0.17927375, -0.20921083, -682671.6, -254062.23, 0.0, 9.997141, 9.999682 
3.499904e+1, 2.662619e+2, -605821.75, -501619.66, 23279.402, 0.112556025, -0.21174085, -496655.4, -166043.92, 0.0000000045955626, 9.998314, 9.999699 
3.4998718e+1, 2.7626148e+2, -120804.05, -246795.23, 39694.016, -0.11582549, -0.24365614, -109341.195, 123271.67, 0.0000011861115, 10.001095, 9.999436 
3.4998408e+1, 2.8625995e+2, -152895.61, -417014.0, -83374.4, -0.15220983, -0.23354444, -128778.875, 5849.325, 0.000009324045, 10.001091, 9.997591 
3.4998116e+1, 2.9625717e+2, -310244.9, -415554.47, -89682.04, -0.07446166, -0.2969757, -258902.6, -222244.53, 0.00004426637, 9.999213, 9.997835 
3.5000125e+1, 3.062562e+2, -183498.97, -223169.16, 31152.836, -0.052783787, -0.23436727, -166402.64, -166402.64, 0.00018818198, 9.9993105, 9.998784 
3.500408e+1, 3.1625643e+2, 35595.215, -45729.96, 30036.566, -0.017578851, -0.09170453, 45485.98, 45485.98, 0.00052315294, 10.000455, 9.999458 
4.499904e+1, 1.2626097e+2, -1871351.0, -1669898.0, 2828.4756, 0.3869781, -0.20077844, -1669858.4, 32759.443, 0.0022184679, 9.998386, 10.001066 
4.4993603e+1, 1.3626133e+2, -1986243.5, -1832990.4, 14810.585, -0.2709164, -0.14973803, -1831572.1, -226956.2, 0.0013082918, 9.997632, 9.999647 
4.4992703e+1, 1.4626062e+2, -1772772.8, -1624109.6, -15770.227, -0.38007963, -0.20287743, -1622455.1, -115830.086, 0.00056754425, 9.998152, 10.000154 
4.4995072e+1, 1.5626074e+2, -1487260.1, -1423009.5, -22695.79, -0.08673137, -0.23215066, -1415801.1, -7174.839, 0.00014805637, 9.999385, 10.000268 
4.499561e+1, 1.6626208e+2, -1376523.5, -1242999.9, 24542.178, -0.03747285, -0.16195776, -1238631.9, 71982.05, 0.000013959289, 9.999146, 10.000943 
4.4995022e+1, 1.7626354e+2, -1445742.1, -1235857.4, 10663.271, -0.14288555, -0.12717558, -1235317.0, -22718.105, 0.000000037538413, 9.998038, 10.000855 
4.4994518e+1, 1.8626383e+2, -1285157.3, -1173850.1, -51047.54, -0.11997582, -0.1467791, -1153984.4, -39390.05, 0.0, 9.998761, 10.000256 
4.499405e+1, 1.9626355e+2, -936343.56, -960214.9, -58361.805, -0.018618971, -0.21987149, -888709.44, 127885.22, 0.0, 10.000508, 10.000205 
4.4994453e+1, 2.0626341e+2, -904355.25, -934098.7, 9139.485, 0.029856779, -0.23075356, -901771.4, 16823.83, 0.0, 10.000227, 9.999849 
4.499543e+1, 2.1626319e+2, -1043627.5, -954482.25, -18616.008, 0.049322575, -0.25845003, -950750.94, -130153.19, 0.0, 9.998612, 9.999814 
4.4995457e+1, 2.2626306e+2, -951966.44, -876997.7, -18086.459, 0.011852225, -0.23957862, -872862.4, -150263.48, 0.0, 9.998653, 9.999647 
4.4994876e+1, 2.36263e+2, -706693.75, -721599.6, 2604.0159, -0.06019618, -0.22932924, -706251.9, -81652.49, 0.0, 9.999722, 9.99953 
4.4995564e+1, 2.4626249e+2, -578426.94, -687405.8, -3401.7112, 0.016515594, -0.19044797, -578320.9, -51714.656, 0.0, 10.000266, 9.998826 
4.4997028e+1, 2.562615e+2, -441484.88, -559072.4, -16389.217, 0.17950778, -0.19415392, -439243.3, -10624.306, 0.0, 10.000472, 9.998939 
4.4998103e+1, 2.6626056e+2, -334430.94, -351044.34, 80076.16, 0.10429529, -0.23165356, -262231.8, 68394.445, 0.000000013083459, 10.000101, 9.999865 
4.499894e+1, 2.7625978e+2, -355641.44, -350046.63, 37679.4, -0.11372957, -0.31321773, -315060.94, -82431.766, 0.0000010541644, 9.999441, 9.999525 
4.4999352e+1, 2.862586e+2, -322755.72, -528766.2, -92174.875, -0.108881, -0.2554944, -287535.47, -152893.94, 0.000008050424, 10.000066, 9.997318 
4.4999447e+1, 2.962566e+2, 606.9058, -299947.16, -57989.727, 0.029171878, -0.21317822, 11407.4795, 48073.31, 0.00003666787, 10.001506, 9.997526 
4.5000812e+1, 3.0625486e+2, 91304.164, -122378.95, 107228.65, -0.009249407, -0.19601408, 135833.34, 135833.34, 0.00016032506, 10.001324, 9.998508 
4.5003575e+1, 3.1625366e+2, -3243.9163, -11841.06, 81095.32, -0.07840552, -0.18267179, 73666.68, 73666.68, 0.00046162336, 9.999958, 9.999927 
5.499208e+1, 1.2626019e+2, -1827231.5, -1614717.1, -56975.64, -0.20877358, -0.17487809, -1600405.5, 102227.3, 0.0020911084, 9.998519, 10.001389 
5.499379e+1, 1.3626073e+2, -1929976.3, -1744336.1, 5557.444, -0.04857287, -0.17354125, -1744169.9, -139544.75, 0.0012261746, 9.997737, 10.00021 
5.499413e+1, 1.4626011e+2, -1759418.6, -1607319.6, 21524.49, -0.084664956, -0.24715705, -1604332.3, -97700.336, 0.0005263589, 9.998198, 10.000247 
5.499393e+1, 1.5626054e+2, -1478065.4, -1411675.5, 20967.83, -0.16738574, -0.2537494, -1405607.9, 3022.9927, 0.00013276051, 9.999417, 10.000331 
5.499351e+1, 1.6626227e+2, -1376337.5, -1236750.3, -25984.355, -0.1862949, -0.14811304, -1232070.1, 78543.26, 0.0000106646075, 9.9991255, 10.000993 
5.499317e+1, 1.7626424e+2, -1445093.8, -1233078.9, -9809.819, -0.15685506, -0.0708236, -1232625.9, -20034.275, 0.000000007551507, 9.998036, 10.000873 
5.499372e+1, 1.8626411e+2, -1308742.1, -1215607.1, 7251.1226, -0.09866432, -0.11777293, -1215045.9, -100455.23, 0.0, 9.998728, 9.999985 
5.4994696e+1, 1.9626284e+2, -960201.9, -1004514.3, -1519.4069, -0.030103976, -0.264377, -960149.8, 56451.805, 0.0, 10.000487, 9.999909 
5.499424e+1, 2.0626304e+2, -947731.9, -1006478.56, -59434.32, -0.034105178, -0.20389588, -910808.7, 7793.5327, 0.0, 10.000155, 9.999383 
5.499294e+1, 2.1626396e+2, -1073448.8, -1001453.5, -60063.754, -0.083177164, -0.070293255, -967426.25, -146827.94, 0.0, 9.998551, 9.999518 
5.4993755e+1, 2.2626394e+2, -901166.7, -758481.9, 15038.511, -0.045119423, -0.07620077, -756914.06, -34317.45, 0.0, 9.998594, 10.00049 
5.4995924e+1, 2.3626332e+2, -670986.0, -631841.44, 46976.85, 0.051104113, -0.20686986, -600522.7, 24074.3, 0.0, 9.999649, 10.000181 
5.499591e+1, 2.462622e+2, -630699.5, -781200.56, -531.2663, 0.0036893745, -0.22325037, -630697.6, -104089.72, 0.0, 10.000208, 9.998208 
5.4994655e+1, 2.562606e+2, -497551.56, -648567.3, -5289.8853, -0.12832454, -0.2267665, -497366.5, -68739.53, 0.0, 10.000363, 9.998372 
5.4996157e+1, 2.6625952e+2, -365866.66, -409235.6, 46687.848, -0.12180683, -0.23388398, -336073.25, -5436.101, 0.000000016276152, 10.000067, 9.999483 
5.499947e+1, 2.7625883e+2, -384416.84, -395194.0, 29340.623, -0.026192749, -0.27077752, -359974.1, -127332.88, 0.00000094951764, 9.9993725, 9.999251 
5.5001116e+1, 2.862581e+2, -294006.94, -461881.56, -45390.01, 0.040636644, -0.18318267, -282520.34, -147871.7, 0.0000068870954, 10.000037, 9.99779 
5.5001706e+1, 2.9625678e+2, 16116.561, -253190.86, -6423.335, 0.0786345, -0.114723325, 16269.679, 52933.633, 0.00003048685, 10.001438, 9.997882 
5.500225e+1, 3.0625406e+2, 68983.79, -152622.66, 52834.695, -0.018258287, -0.20042136, 80935.85, 80935.85, 0.0001366128, 10.0012665, 9.998326 
5.500314e+1, 3.1625178e+2, -15587.407, -18132.783, 53436.492, -0.16154283, -0.2783982, 36591.55, 36591.55, 0.00040785797, 9.999883, 9.999916 
6.498881e+1, 1.2625976e+2, -1944081.1, -1624694.0, -59628.406, -0.3247919, -0.09948337, -1613924.8, 88718.58, 0.0019647046, 9.997494, 10.001823 
6.4992934e+1, 1.362606e+2, -1760779.9, -1579312.5, -1172.9678, 0.06205794, -0.14677644, -1579304.9, 25324.023, 0.0011417874, 9.998522, 10.000967 
6.499374e+1, 1.4626023e+2, -1685255.6, -1572299.6, 53919.727, 0.037773587, -0.23268555, -1550693.8, -44062.09, 0.0004823996, 9.998719, 10.000229 
6.499283e+1, 1.5626103e+2, -1602774.8, -1473488.6, 23550.734, -0.1687342, -0.1982407, -1469332.3, -60706.027, 0.00011742101, 9.998574, 10.000304 
6.4992434e+1, 1.6626216e+2, -1399275.5, -1263785.9, -42113.23, -0.19560276, -0.14446299, -1251763.0, 58850.34, 0.000008467286, 9.999034, 10.000853 
6.499257e+1, 1.7626294e+2, -1202298.3, -1130277.4, -51586.777, -0.10133743, -0.17129722, -1103375.6, 109225.914, 0.000000004638606, 9.999768, 10.000742 
6.499327e+1, 1.8626283e+2, -1182548.6, -1153056.4, 9649.735, -0.053094216, -0.21149383, -1150179.6, -35578.777, 0.0, 9.999597, 9.999991 
6.4994204e+1, 1.9626226e+2, -1199315.4, -1123031.5, 691.77216, -0.04078007, -0.2873881, -1123025.3, -106418.81, 0.0, 9.998854, 9.9998865 
6.499348e+1, 2.0626266e+2, -1122710.4, -1109415.1, -55459.14, -0.063848354, -0.19491552, -1060206.6, -141600.64, 0.0, 9.999032, 9.999219 
6.4991784e+1, 2.1626356e+2, -917606.75, -943584.1, -44967.152, -0.10647823, -0.04614786, -883789.94, -63186.906, 0.0, 9.999699, 9.999362 
6.499295e+1, 2.262633e+2, -756966.0, -701327.9, 29914.398, -0.031922992, -0.06295642, -688296.3, 34307.848, 0.0, 9.999635, 10.000387 
6.499588e+1, 2.362623e+2, -752753.06, -675890.9, -23075.012, 0.11418027, -0.21831807, -669495.56, -44887.51, 0.0, 9.999105, 10.000145 
6.4995974e+1, 2.4626139e+2, -702854.2, -791727.44, -31288.273, 0.025984004, -0.22727999, -692944.06, -166327.13, 0.0, 9.999592, 9.998449 
6.4994377e+1, 2.5626037e+2, -441193.34, -604047.94, 4736.8564, -0.2013388, -0.19496624, -441055.7, -12425.731, 0.0, 10.00067, 9.998543 
6.4995956e+1, 2.6625916e+2, -347844.53, -457240.1, 41097.75, -0.16133377, -0.1918301, -334125.4, -3483.3528, 0.00000000394634, 10.000425, 9.99899 
6.4999604e+1, 2.762579e+2, -402516.34, -437405.94, 13396.495, 0.054869533, -0.23637038, -397966.0, -165313.05, 0.0000007712445, 9.999398, 9.998945 
6.5001786e+1, 2.8625724e+2, -249249.17, -358260.1, 42749.227, 0.113172606, -0.17342691, -234484.56, -99826.23, 0.000006042053, 9.999982, 9.998531 
6.5003073e+1, 2.9625648e+2, 70048.36, -148224.81, 71147.32, 0.07804808, -0.12618177, 91191.23, 127856.04, 0.000026514133, 10.001472, 9.998584 
6.500306e+1, 3.0625367e+2, -37897.383, -183834.7, 57508.81, -0.01418637, -0.26257297, -17959.162, -17959.162, 0.00011960156, 10.000436, 9.998517 
6.5002686e+1, 3.162521e+2, -344070.8, -214427.3, 60516.25, -0.07952623, -0.27614272, -190569.42, -190569.42, 0.000365328, 9.997777, 9.9995985 
7.498873e+1, 1.2625949e+2, -1878547.1, -1503498.9, -54068.984, -0.13628198, 0.023125648, -1495859.6, 206791.5, 0.0018421272, 9.997564, 10.002618 
7.4990624e+1, 1.3626091e+2, -1685303.5, -1432557.6, 34869.57, -0.050111905, -0.07348934, -1427835.3, 176792.67, 0.0010580781, 9.998572, 10.001948 
7.4991065e+1, 1.4626095e+2, -1686517.3, -1585951.3, 39727.902, -0.13081163, -0.15952703, -1572150.9, -65526.305, 0.0004375462, 9.998761, 10.000118 
7.4991447e+1, 1.5626216e+2, -1607896.0, -1497336.5, 31512.322, -0.19302051, -0.069274075, -1488985.5, -80372.36, 0.00010224, 9.998626, 10.00012 
7.4992096e+1, 1.6626176e+2, -1421810.4, -1310796.4, -21034.299, -0.15676562, -0.14225768, -1306944.6, 3669.0774, 0.000007138289, 9.999033, 10.000529 
7.4992967e+1, 1.7625973e+2, -1217773.8, -1166563.1, -24140.754, -0.06343925, -0.4215324, -1156977.4, 55650.56, 0.00000003688298, 9.999784, 10.000485 
7.499291e+1, 1.8625997e+2, -1165853.4, -1118656.1, -25669.207, -0.07177189, -0.42987886, -1107386.4, 7238.422, 0.0, 9.999592, 10.000233 
7.499228e+1, 1.962617e+2, -1184769.0, -1090601.1, -13405.45, -0.14225642, -0.2987188, -1088729.9, -72119.91, 0.0, 9.998842, 10.000117 
7.499191e+1, 2.062623e+2, -1122879.6, -1097530.6, -35619.94, -0.14296323, -0.20349093, -1072397.4, -153790.89, 0.0, 9.998981, 9.999324 
7.4991715e+1, 2.16262e+2, -929738.4, -955140.94, -18064.848, -0.103771344, -0.18793099, -920356.6, -99744.63, 0.0, 9.999635, 9.999316 
7.4992704e+1, 2.2626112e+2, -843722.9, -865527.94, 3632.1892, -0.037711505, -0.20195934, -843133.75, -120512.31, 0.0, 9.999567, 9.9992895 
7.499445e+1, 2.362599e+2, -822370.94, -803476.7, -26789.3, 0.041854713, -0.27599707, -784517.56, -159883.9, 0.0, 9.999028, 9.999308 
7.499542e+1, 2.4626002e+2, -635270.8, -637958.25, 3493.259, -0.0051651103, -0.20425363, -632871.75, -106238.055, 0.0, 9.999537, 9.999526 
7.499594e+1, 2.562608e+2, -392402.9, -486267.7, 42178.45, -0.13168672, -0.09956355, -376234.8, 52393.06, 0.0, 10.000593, 9.999389 
7.49972e+1, 2.6625958e+2, -397581.7, -544420.75, -4086.3643, -0.09729504, -0.10312811, -397468.06, -66827.734, 0.00000000015133415, 10.000364, 9.998418 
7.499901e+1, 2.762571e+2, -443380.72, -501141.44, -2465.448, 0.03309423, -0.21180779, -443275.7, -210611.72, 0.00000065427645, 9.99931, 9.99855 
7.500107e+1, 2.862561e+2, -179095.5, -206124.0, 94780.62, 0.02342045, -0.22608982, -96870.516, 37799.586, 0.0000058927376, 9.999952, 9.99959 
7.500325e+1, 2.9625565e+2, 127416.07, -12442.458, 116462.77, -0.07411352, -0.2546241, 193331.13, 229999.72, 0.000025865007, 10.00139, 9.999561 
7.5003004e+1, 3.0625355e+2, -9387.925, -113546.78, -43579.555, -0.0828039, -0.39091596, 6440.263, 6440.263, 0.00011192772, 10.000394, 9.999014 
7.500167e+1, 3.1625438e+2, -403740.2, -309319.0, -7164.3926, 0.0035624413, -0.21439613, -308778.5, -308778.5, 0.00033923058, 9.997653, 9.9990015 
8.498725e+1, 1.2625742e+2, -1862209.0, -1552564.6, 3895.6067, -0.048404012, -0.06792312, -1552515.6, 150153.6, 0.0017237901, 9.99793, 10.002102 
8.4988713e+1, 1.3625988e+2, -1807843.0, -1495448.9, -34750.313, -0.04749607, -0.040341135, -1491630.0, 113009.555, 0.0009802121, 9.997757, 10.001906 
8.498933e+1, 1.4626008e+2, -1729555.3, -1525133.9, -13968.239, -0.14196879, -0.14907692, -1524183.9, -17550.707, 0.00039778455, 9.998108, 10.0008545 
8.4990424e+1, 1.562611e+2, -1541357.3, -1400766.1, 23792.39, -0.16083755, -0.15090685, -1396848.9, 11770.246, 0.000088897265, 9.998806, 10.000696 
8.499134e+1, 1.6626075e+2, -1495561.4, -1393933.3, 1012.7146, -0.11566917, -0.22081162, -1393923.1, -83303.016, 0.000006071428, 9.998737, 10.000102 
8.499214e+1, 1.762589e+2, -1483480.9, -1334451.1, -25910.346, -0.036036666, -0.43655208, -1330074.9, -117438.3, 0.000000076650345, 9.998136, 10.000127 
8.499195e+1, 1.8625946e+2, -1354547.8, -1215722.8, -35324.813, -0.057884604, -0.39433938, -1207251.1, -92618.72, 0.0, 9.998328, 10.000177 
8.499123e+1, 1.9626167e+2, -1163689.0, -1078334.3, -55199.62, -0.13308963, -0.2089596, -1051238.0, -34624.445, 0.0, 9.998987, 10.000129 
8.499132e+1, 2.0626175e+2, -1019352.0, -1004312.7, -42098.1, -0.12172246, -0.18920852, -969067.94, -50455.383, 0.0, 9.9994955, 9.9997225 
8.4991854e+1, 2.1626033e+2, -878693.06, -898550.25, -21037.742, -0.058539752, -0.32226303, -865358.75, -44734.613, 0.0, 9.999844, 9.999608 
8.499254e+1, 2.2625959e+2, -785054.94, -885978.3, 30419.861, -0.037063137, -0.3119684, -776595.06, -53962.035, 0.0, 10.000187, 9.998846 
8.499341e+1, 2.3625928e+2, -633533.5, -751762.4, 32375.838, -0.033871066, -0.24761344, -625248.3, -608.18, 0.0, 10.0005, 9.998949 
8.4994817e+1, 2.4625969e+2, -573180.44, -572751.75, 60937.027, -0.028999984, -0.14870113, -512028.7, 14609.715, 0.0, 9.999811, 9.999836 
8.49966e+1, 2.5626042e+2, -668611.06, -582942.5, 32632.87, -0.01716575, -0.08048267, -571928.1, -143295.86, 0.0, 9.998551, 9.9997 
8.4997964e+1, 2.6625937e+2, -507298.06, -574307.9, 37906.23, -0.008095841, -0.09524939, -490211.84, -159569.56, 0.0000000019213902, 9.999499, 9.998636 
8.49992e+1, 2.7625707e+2, -81062.62, -305696.03, 74927.86, 0.007826112, -0.20576128, -58363.67, 174299.44, 0.0000006294421, 10.001698, 9.998748 
8.500082e+1, 2.8625605e+2, -76784.4, -159040.81, 116324.13, -0.027805978, -0.22834554, 5468.2456, 140137.72, 0.0000062489003, 10.000662, 9.999575 
8.5002655e+1, 2.9625565e+2, -395127.1, -249464.22, 49753.324, -0.08348839, -0.25058988, -234092.42, -197424.22, 0.000027811611, 9.99774, 9.999688 
8.50026e+1, 3.062538e+2, -153071.95, -85309.83, -63107.945, -0.08433844, -0.41555002, -47563.11, -47563.11, 0.000112212314, 9.99898, 9.999893 
8.5001826e+1, 3.1625572e+2, 313975.53, 38117.305, -27389.07, 0.01816484, -0.21937487, 316668.6, 316668.6, 0.00032853556, 10.002575, 9.999008 
9.498386e+1, 1.2625377e+2, -1992645.8, -1827411.8, -27604.105, -0.23136216, -0.35134923, -1822922.1, -120226.96, 0.0016162735, 9.997954, 10.000196 
9.4986784e+1, 1.3625751e+2, -1877017.1, -1658520.8, -30861.021, -0.04322134, -0.046770703, -1654245.5, -49581.523, 0.000914127, 9.997839, 10.000743 
9.4988203e+1, 1.4625768e+2, -1612991.4, -1289506.9, 5606.162, -0.09035698, -0.19904043, -1289409.8, 217247.48, 0.00036652523, 9.998136, 10.002457 
9.498956e+1, 1.5625788e+2, -1444909.6, -1208056.4, 53327.258, -0.15459444, -0.4408405, -1196603.6, 212040.47, 0.00007896126, 9.998837, 10.002002 
9.498996e+1, 1.6625918e+2, -1535581.1, -1475853.5, -29273.832, -0.14790933, -0.37004405, -1463898.6, -153266.61, 0.000005121987, 9.99873, 9.999544 
9.49898e+1, 1.762605e+2, -1517414.4, -1409042.1, -35889.715, -0.1075149, -0.21613513, -1398234.4, -185607.3, 0.00000007826353, 9.99815, 9.999608 
9.499014e+1, 1.8626137e+2, -1385755.3, -1274631.4, -16356.275, -0.089352995, -0.09777755, -1272273.9, -157650.89, 0.0, 9.998301, 9.999785 
9.499081e+1, 1.9626214e+2, -1184655.9, -1116792.3, -23382.258, -0.09607808, -0.022926008, -1109516.1, -92898.44, 0.0, 9.998964, 9.999874 
9.4991404e+1, 2.0626102e+2, -978903.94, -908695.2, -35650.08, -0.081196286, -0.14946514, -893767.1, 24857.06, 0.0, 9.999444, 10.000404 
9.49919e+1, 2.1625851e+2, -843843.5, -814979.6, 1125.9799, -0.057887793, -0.45793548, -814935.75, 5704.405, 0.0, 9.999789, 10.00021 
9.49922e+1, 2.2625862e+2, -785069.4, -870908.75, 37412.11, -0.108884834, -0.39657703, -771052.56, -48412.977, 0.0, 10.00012, 9.9989805 
9.499241e+1, 2.362603e+2, -637341.06, -745874.4, 43686.227, -0.20331304, -0.1489836, -621941.7, 2687.4417, 0.0, 10.000435, 9.999022 
9.499387e+1, 2.4626032e+2, -612324.9, -638921.9, 4392.0005, -0.12188662, -0.069925286, -611618.4, -84986.516, 0.0, 9.999749, 9.999412 
9.4996107e+1, 2.5625917e+2, -695339.6, -625797.3, 9901.558, 0.0590859, -0.14782606, -624415.0, -195771.42, 0.0, 9.998492, 9.999436 
9.499807e+1, 2.662584e+2, -446438.44, -437219.88, 115966.88, 0.035812326, -0.17732286, -325770.72, 4878.371, 0.0000000017799018, 9.9994545, 9.999598 
9.499988e+1, 2.7625766e+2, -42643.156, -207141.17, 141574.16, -0.1141185, -0.23007932, 38839.758, 271491.72, 0.0000005677249, 10.001616, 9.999463 
9.500074e+1, 2.862571e+2, -159003.75, -318675.06, -3492.3547, -0.12023318, -0.18000923, -158927.39, -24270.477, 0.0000064583187, 10.000616, 9.998497 
9.5001e+1, 2.9625654e+2, -464475.34, -372318.72, -17415.072, -0.046710487, -0.113130115, -369137.56, -332474.13, 0.000029725905, 9.997648, 9.998889 
9.500155e+1, 3.0625457e+2, -65088.324, 101911.89, 70737.39, -0.10579501, -0.3265639, 127846.91, 127846.91, 0.00011359201, 9.998956, 10.00119 
9.500248e+1, 3.162562e+2, 330977.94, 101837.79, 128574.63, -0.2179871, -0.2797989, 388622.1, 388622.1, 0.00032159366, 10.002449, 9.999509 
1.04982376e+2, 1.2625334e+2, -1994199.8, -1877477.1, 27675.59, -0.17152089, -0.3577183, -1871247.5, -168550.44, 0.0015309328, 9.998117, 9.999785 
1.0498541e+2, 1.3625623e+2, -1708880.9, -1590518.4, 104795.055, -0.017325165, -0.12481873, -1529348.4, 75325.92, 0.0008642909, 9.999023, 10.0006485 
1.0498682e+2, 1.4625666e+2, -1544290.6, -1252633.8, 105925.89, -0.060454167, -0.2527728, -1218222.9, 288443.53, 0.00034447288, 9.998605, 10.00248 
1.049881e+2, 1.5625753e+2, -1665559.3, -1317773.1, 20227.459, -0.10247803, -0.42141783, -1316600.6, 92047.88, 0.00007296801, 9.997344, 10.001973 
1.0498858e+2, 1.6625938e+2, -1641303.0, -1507410.6, -29687.53, -0.113772534, -0.30106866, -1501123.3, -190491.16, 0.000004414203, 9.997929, 9.999707 
1.04988694e+2, 1.7626128e+2, -1293074.8, -1287280.9, -3426.9175, -0.102067284, -0.10471586, -1285690.5, -73068.055, 0.000000050630582, 9.999643, 9.999719 
1.0498923e+2, 1.8626183e+2, -1148421.6, -1161062.3, 48321.348, -0.0884588, -0.023445696, -1106009.0, 8612.118, 0.0, 9.9999275, 9.999778 
1.04990005e+2, 1.9626167e+2, -1154148.4, -1103391.0, 55219.88, -0.07819092, -0.0412168, -1067997.0, -51373.445, 0.0, 9.999176, 9.999862 
1.04990855e+2, 2.0626077e+2, -1037349.0, -936427.06, 47036.727, -0.055388585, -0.14509162, -917904.2, 723.89764, 0.0, 9.999051, 10.0004 
1.0499179e+2, 2.1625924e+2, -919786.6, -846831.06, 15523.627, -0.016083485, -0.3572876, -843665.3, -23029.705, 0.0, 9.99926, 10.000241 
1.04991965e+2, 2.2625929e+2, -884052.9, -906797.75, 42716.41, -0.10288338, -0.31080315, -851221.0, -128586.234, 0.0, 9.999382, 9.999101 
1.0499175e+2, 2.3626024e+2, -775288.8, -802499.3, 31791.723, -0.25831702, -0.14536704, -754313.44, -129684.15, 0.0, 9.999446, 9.999113 
1.049932e+2, 2.4625967e+2, -637609.2, -671526.8, -7328.769, -0.15618263, -0.11724598, -636093.4, -109457.42, 0.0, 9.999664, 9.999228 
1.0499577e+2, 2.562581e+2, -494364.53, -545351.56, 7160.921, 0.10833493, -0.2223822, -493377.9, -64727.03, 0.0, 9.999947, 9.999288 
1.04997955e+2, 2.6625746e+2, -413118.13, -397047.25, 138790.1, 0.07697256, -0.23835807, -266060.2, 64594.14, 0.00000000014537505, 9.999587, 9.999803 
1.0499994e+2, 2.7625737e+2, -428836.47, -376499.94, 83333.32, -0.12786269, -0.24990246, -315322.78, -82671.08, 0.00000042821608, 9.998892, 9.999612 
1.05000906e+2, 2.862567e+2, -340980.63, -418153.6, -77283.95, -0.09862789, -0.2063454, -293185.84, -158528.27, 0.0000059800022, 9.999397, 9.998411 
1.0500122e+2, 2.962558e+2, -40238.2, -176841.17, -25905.352, 0.06966103, -0.17202143, -35490.52, 1177.4626, 0.000029321069, 10.000587, 9.99882 
1.0500199e+2, 3.062539e+2, 125512.62, 170580.33, 109332.766, -0.020606214, -0.36420655, 259677.25, 259677.25, 0.000109979665, 10.000377, 10.000977 
1.05003096e+2, 3.162559e+2, -147957.36, -144521.73, 30375.496, -0.23096173, -0.25621942, -115815.516, -115815.516, 0.000307793, 9.999229, 9.999368 
1.14982106e+2, 1.2625581e+2, -1907548.8, -1715088.3, 27803.426, -0.06387811, -0.105218545, -1711152.3, -8474.181, 0.001474528, 9.998196, 10.000861 
1.1498437e+2, 1.3625593e+2, -1626960.1, -1433765.5, 134236.19, -0.049962997, -0.283533, -1364983.3, 239688.44, 0.00083337264, 9.999081, 10.001695 
1.14985004e+2, 1.4625697e+2, -1660909.0, -1490873.8, 49418.066, -0.12629144, -0.30640373, -1477554.5, 29105.975, 0.00033260565, 9.998589, 10.000852 
1.1498559e+2, 1.5626001e+2, -1751644.3, -1506281.8, -2475.8115, -0.11284899, -0.09811917, -1506256.8, -97624.234, 0.0000710648, 9.997392, 10.000652 
1.1498687e+2, 1.6626135e+2, -1582351.8, -1390131.8, 29218.037, -0.10144483, -0.016225714, -1385788.6, -75168.02, 0.0000041843605, 9.997942, 10.00051 
1.1498864e+2, 1.762612e+2, -1232022.1, -1171299.0, 58635.9, -0.09600856, -0.10787789, -1135630.3, 76992.734, 0.000000024917117, 9.999684, 10.000497 
1.1498903e+2, 1.8626082e+2, -1129001.9, -1108052.5, 14187.829, -0.1209114, -0.17606536, -1100891.6, 13735.412, 0.0, 9.999874, 10.00017 
1.149885e+2, 1.962603e+2, -1138775.6, -1066543.5, 37606.258, -0.17049947, -0.2669049, -1050519.4, -33887.76, 0.0, 9.999157, 10.000125 
1.1498943e+2, 2.0626107e+2, -1096720.9, -1048498.8, 47300.95, -0.119206384, -0.17382535, -1019518.2, -100893.984, 0.0, 9.998999, 9.999659 
1.1499122e+2, 2.1626244e+2, -972170.6, -941261.44, 28879.727, -0.016840097, -0.023211101, -923961.1, -103349.97, 0.0, 9.999194, 9.999627 
1.1499161e+2, 2.2626153e+2, -886196.1, -895128.44, 37809.953, -0.09130487, -0.052649837, -852589.44, -129970.38, 0.0, 9.999314, 9.999212 
1.14991166e+2, 2.3625907e+2, -780391.56, -792841.94, 43402.273, -0.280708, -0.24010631, -742770.3, -118129.62, 0.0, 9.999357, 9.999223 
1.149926e+2, 2.4625777e+2, -648193.4, -675265.94, -3066.0986, -0.19995598, -0.2911805, -647850.44, -121199.734, 0.0, 9.999588, 9.999238 
1.14995256e+2, 2.5625706e+2, -509161.38, -557815.56, 18427.523, 0.043242227, -0.30936113, -502969.94, -74315.25, 0.0, 9.999869, 9.999238 
1.14997365e+2, 2.662566e+2, -456417.16, -480931.6, 105095.836, 0.04064027, -0.27983105, -362866.2, -32207.84, 0.0, 9.999558, 9.999245 
1.14999145e+2, 2.7625617e+2, -465777.56, -439326.84, 74631.38, -0.11627653, -0.2658568, -376758.06, -144095.38, 0.0000002594802, 9.998826, 9.999218 
1.1500106e+2, 2.8625497e+2, -286264.84, -290644.63, -37816.95, -0.040362652, -0.30615595, -250574.44, -115903.125, 0.000005001763, 9.999347, 9.999308 
1.15003034e+2, 2.962534e+2, -20233.488, -103108.234, 16601.813, 0.1703736, -0.4216473, -17031.46, 19650.557, 0.000026475647, 10.000458, 9.999388 
1.15003645e+2, 3.0625173e+2, -129.47504, -76870.36, 64450.082, 0.08964303, -0.5219711, 36507.44, 36507.44, 0.000100772006, 10.000328, 9.999295 
1.15003124e+2, 3.1625468e+2, -218533.69, -266698.66, 13590.193, -0.19610865, -0.16213067, -214963.7, -214963.7, 0.00028477213, 9.999127, 9.998576 
1.2498182e+2, 1.2625621e+2, -1884050.1, -1635002.4, -6185.7295, 0.10134663, 0.019455733, -1634848.9, 67829.17, 0.0014451224, 9.998077, 10.001465 
1.2498257e+2, 1.3625626e+2, -1757241.4, -1435253.5, 28253.162, -0.07102858, -0.23544031, -1432793.3, 171874.16, 0.000820366, 9.997931, 10.002242 
1.24982916e+2, 1.4625707e+2, -1748793.6, -1629645.6, -36703.805, -0.17539708, -0.2568046, -1619246.6, -112587.54, 0.00033115427, 9.998404, 9.999985 
1.2498409e+2, 1.562592e+2, -1507235.5, -1464227.3, -53189.133, -0.0971327, -0.05440789, -1428359.6, -19715.64, 0.00007354598, 9.999393, 9.99997 
1.2498577e+2, 1.6626023e+2, -1374119.3, -1201323.3, 23893.762, -0.0534606, -0.020703334, -1198080.1, 112553.89, 0.0000047036624, 9.998982, 10.001312 
1.2498782e+2, 1.7626022e+2, -1490063.9, -1217480.1, 38922.305, -0.03594682, -0.17472449, -1212031.3, 599.34436, 0.000000012759114, 9.997565, 10.001211 
1.2498835e+2, 1.8626018e+2, -1397084.1, -1221056.0, 2498.2263, -0.07480222, -0.24606648, -1221020.5, -106390.266, 0.0, 9.997967, 10.000313 
1.24987945e+2, 1.962602e+2, -1090327.3, -1034078.0, -9873.343, -0.15059961, -0.29486766, -1032395.25, -15764.052, 0.0, 9.99945, 10.00021 
1.2498876e+2, 2.0626128e+2, -978882.0, -993085.9, 22811.732, -0.12346463, -0.17214191, -962092.25, -43470.676, 0.0, 9.999816, 9.999639 
1.2499033e+2, 2.1626289e+2, -938512.8, -928125.06, 45769.918, -0.03366856, 0.0033625802, -887255.3, -66648.445, 0.0, 9.99944, 9.999594 
1.2499155e+2, 2.2626172e+2, -791816.5, -851678.56, 103764.25, -0.056737162, -0.048442714, -713752.7, 8864.069, 0.0, 9.999969, 9.999191 
1.249926e+2, 2.3625877e+2, -540754.75, -681536.5, 77586.95, -0.14924975, -0.28364888, -506385.88, 118256.53, 0.0, 10.001027, 9.999178 
1.2499353e+2, 2.4625736e+2, -481847.53, -612665.3, 4554.6714, -0.12164125, -0.3344504, -481689.16, 44963.785, 0.0, 10.000801, 9.999087 
1.2499447e+2, 2.5625682e+2, -527379.0, -586310.3, 2827.2393, -0.014204573, -0.3218404, -527243.7, -98588.29, 0.0, 9.999816, 9.999074 
1.2499668e+2, 2.6625594e+2, -441248.13, -485650.47, 124447.93, 0.011375847, -0.31407973, -337036.56, -6374.0713, 0.0, 9.999724, 9.999128 
1.24999695e+2, 2.762549e+2, -269315.75, -350820.1, 116710.734, -0.00847928, -0.35444948, -186446.98, 46226.086, 0.00000012209664, 10.000218, 9.9991455 
1.2500168e+2, 2.8625408e+2, -83774.836, -177735.05, 28368.94, 0.02503932, -0.3625301, -75873.92, 58803.805, 0.000003888246, 10.000681, 9.999435 
1.2500302e+2, 2.9625353e+2, 72855.72, -57132.04, 3568.7102, 0.09750246, -0.38786343, 72953.625, 109631.484, 0.00002250982, 10.001099, 9.999391 
1.2500408e+2, 3.0625078e+2, 31134.797, -172700.48, 29292.918, 0.07546581, -0.5422398, 35260.92, 35260.92, 0.000088219014, 10.000991, 9.998339 
1.2500444e+2, 3.16252e+2, -26115.5, -159862.56, 10637.724, -0.02868069, -0.2657052, -25274.703, -25274.703, 0.00025421128, 10.000384, 9.998714 
1.3498104e+2, 1.2625435e+2, -1879462.8, -1620940.8, -43682.773, 0.16919225, 0.003179087, -1613759.1, 88939.695, 0.0014399097, 9.998072, 10.001559 
1.3497962e+2, 1.3625728e+2, -1739380.8, -1405341.1, 33621.18, -0.184526, 0.016186012, -1401990.8, 202670.16, 0.0008240123, 9.997981, 10.002412 
1.3498029e+2, 1.4625706e+2, -1755412.0, -1661663.9, -7855.2266, -0.30666548, -0.102167115, -1661010.3, -154349.19, 0.00033951883, 9.9984665, 9.999741 
1.3498332e+2, 1.5625508e+2, -1507971.6, -1474824.8, -17795.443, -0.13780808, -0.2901834, -1467080.4, -58397.246, 0.00008018549, 9.999425, 9.999886 
1.3498498e+2, 1.6625598e+2, -1326054.6, -1088092.8, -38289.203, -0.047683723, -0.3098246, -1082083.6, 228588.84, 0.0000062149566, 9.998935, 10.002109 
1.3498582e+2, 1.762583e+2, -1443867.0, -1119110.0, 8430.624, -0.013329646, -0.3088203, -1118891.3, 93753.875, 0.000000017143847, 9.997567, 10.001878 
1.3498686e+2, 1.8626e+2, -1410877.1, -1248370.6, 51843.414, -0.04240964, -0.22739202, -1233240.1, -118609.79, 0.0, 9.99795, 10.000138 
1.34988e+2, 1.9626135e+2, -1095212.9, -1041161.7, 46056.54, -0.11346609, -0.12772353, -1014787.0, 1835.4928, 0.0, 9.999434, 10.000168 
1.3498858e+2, 2.0626141e+2, -939767.6, -901396.0, 1177.8904, -0.14171356, -0.14206026, -901359.9, 17260.346, 0.0, 9.999768, 10.000294 
1.3498878e+2, 2.1626052e+2, -912784.44, -852066.56, 46549.0, -0.15134858, -0.28151634, -826851.44, -6228.559, 0.0, 9.999347, 10.000159 
1.3499151e+2, 2.2625987e+2, -814786.4, -886001.5, 135834.86, -0.07623808, -0.29609215, -709969.56, 12658.275, 0.0, 9.999902, 9.998993 
1.3499573e+2, 2.3625927e+2, -563192.25, -715179.6, 114327.195, 0.041800737, -0.27848095, -501906.13, 122728.95, 0.0, 10.000967, 9.998977 
1.3499573e+2, 2.4625842e+2, -508657.7, -658436.25, -41235.25, -0.00032623071, -0.24749313, -498055.72, 28587.371, 0.0, 10.000758, 9.998795 
1.3499323e+2, 2.5625736e+2, -554775.8, -622934.56, -20837.508, -0.14042619, -0.2554416, -548910.2, -120257.695, 0.0, 9.999729, 9.998865 
1.3499565e+2, 2.662557e+2, -428432.8, -446903.3, 137404.1, -0.08058253, -0.3364839, -299953.97, 30712.041, 0.0, 9.999676, 9.999414 
1.3500126e+2, 2.7625355e+2, -269340.38, -329442.84, 143865.73, 0.105195336, -0.51630914, -152420.77, 80262.73, 0.000000046518082, 10.00013, 9.999332 
1.350025e+2, 2.8625396e+2, -128958.47, -263763.38, 36761.957, 0.018707555, -0.37847802, -119585.07, 15092.638, 0.0000029362805, 10.000647, 9.998863 
1.3500094e+2, 2.96256e+2, 26432.568, -139524.81, 23737.219, -0.2425271, -0.084715456, 29760.996, 66418.164, 0.000019015239, 10.001033, 9.99886 
1.3500294e+2, 3.0625102e+2, 6915.3516, -207315.63, 2576.002, -0.1502699, -0.43006673, 6946.322, 6946.322, 0.000075927965, 10.000931, 9.998125 
1.3500649e+2, 3.1624782e+2, 30624.795, -17720.305, 26633.857, 0.095830314, -0.5736512, 42419.934, 42419.934, 0.00022269739, 10.000279, 9.999742 
1.4497758e+2, 1.2625106e+2, -1922695.1, -1696176.6, -7099.0684, 0.03262277, -0.1583652, -1695954.4, 6773.902, 0.0014542761, 9.998004, 10.001078 
1.4497867e+2, 1.3625504e+2, -1608106.3, -1373825.8, -12540.453, -0.123596124, 0.002535768, -1373156.4, 231528.73, 0.0008417685, 9.999003, 10.002139 
1.4497963e+2, 1.4625573e+2, -1725573.5, -1525199.3, -23547.521, -0.19811398, -0.0747468, -1522469.3, -15793.814, 0.0003553583, 9.9981365, 10.000845 
1.4498141e+2, 1.5625381e+2, -1928023.1, -1575308.3, 52827.113, -0.09867116, -0.36317986, -1567566.1, -158873.77, 0.00008912462, 9.996096, 10.000812 
1.4498286e+2, 1.6625497e+2, -1670702.3, -1279323.9, 70453.33, -0.03548959, -0.38393754, -1267027.8, 43651.266, 0.000008328298, 9.996686, 10.001873 
1.4498413e+2, 1.762578e+2, -1274484.4, -1063626.1, 20649.871, 0.0010481204, -0.31119043, -1061622.9, 151026.8, 0.0000000715251, 9.998835, 10.001649 
1.449856e+2, 1.862598e+2, -1210500.1, -1133371.3, 64319.33, -0.023743607, -0.19438715, -1096941.0, 17691.363, 0.0, 9.9992485, 10.000302 
1.4498712e+2, 1.9626133e+2, -1210137.0, -1080307.9, 67195.55, -0.09395015, -0.093188584, -1051792.5, -35169.78, 0.0, 9.998563, 10.000329 
1.4498828e+2, 2.0626111e+2, -989391.4, -893903.1, 33002.742, -0.12037648, -0.15880668, -883606.9, 35015.14, 0.0, 9.9993, 10.0005665 
1.4498915e+2, 2.1625969e+2, -673742.3, -714187.7, 26477.379, -0.12079111, -0.3780151, -660648.2, 159979.77, 0.0, 10.00089, 10.000364 
1.449919e+2, 2.2625943e+2, -758797.2, -843636.25, 98956.76, -0.040893596, -0.36715555, -693551.25, 29078.258, 0.0, 10.000236, 9.999117 
1.4499576e+2, 2.3625983e+2, -952708.9, -890938.25, 91135.03, 0.08862406, -0.2595985, -825597.25, -200968.36, 0.0, 9.998244, 9.999084 
1.4499617e+2, 2.4625939e+2, -751998.25, -757919.3, 19119.174, 0.059215285, -0.20171727, -735611.75, -208977.9, 0.0, 9.999017, 9.998948 
1.4499453e+2, 2.562584e+2, -289253.94, -480839.97, 51204.56, -0.06651203, -0.21926036, -276427.38, 152215.27, 0.0, 10.001511, 9.998974 
1.4499682e+2, 2.6625654e+2, -132148.25, -351575.84, 171105.67, -0.036132574, -0.30322066, -38602.938, 292055.56, 0.0, 10.001904, 9.999003 
1.4500168e+2, 2.7625403e+2, -175271.64, -329163.47, 114472.83, 0.10007649, -0.47367135, -114287.5, 118392.26, 0.00000002138944, 10.000959, 9.998945 
1.4500295e+2, 2.862543e+2, -136325.81, -295112.75, 37534.227, 0.002452599, -0.3231631, -127900.484, 6775.752, 0.0000023054517, 10.000701, 9.998631 
1.4500184e+2, 2.9625624e+2, -12810.2295, -184007.28, 31103.523, -0.24248895, -0.0138969645, -7334.4077, 29322.527, 0.000016570593, 10.00087, 9.998634 
1.450041e+2, 3.0625048e+2, -281.1252, -250981.53, 10320.74, -0.12802215, -0.4068435, 143.03746, 143.03746, 0.0000664134, 10.001063, 9.997748 
1.450077e+2, 3.1624705e+2, 165134.14, 79133.42, 9503.63, 0.16137372, -0.54338884, 166171.83, 166171.83, 0.0001967113, 10.001076, 10.000012 
1.5497094e+2, 1.262466e+2, -1988293.0, -1856455.4, -1544.8097, -0.48068663, -0.44486228, -1856437.3, -153673.95, 0.0014746141, 9.998102, 9.999936 
1.5497945e+2, 1.3624956e+2, -1653977.8, -1476329.4, 15594.379, 0.03181585, -0.26830024, -1474970.9, 129768.77, 0.00086313457, 9.99903, 10.001427 
1.549806e+2, 1.4625305e+2, -1552302.0, -1161793.8, -110958.85, 0.06496204, -0.17588119, -1132468.3, 374234.25, 0.00037152023, 9.998124, 10.003346 
1.5497804e+2, 1.5625544e+2, -1784157.9, -1279442.8, 4664.0503, -0.069103494, -0.27784657, -1279399.8, 129271.62, 0.00009663115, 9.996112, 10.0028305 
1.5497912e+2, 1.6625735e+2, -1767175.5, -1473658.4, 146188.72, -0.09760066, -0.23796989, -1413271.6, -102619.25, 0.000009881803, 9.996661, 10.000555 
1.5498249e+2, 1.7625885e+2, -1352712.9, -1221330.8, 98442.63, -0.06636516, -0.16538516, -1168673.8, 43968.633, 0.00000020107916, 9.998819, 10.000574 
1.549843e+2, 1.862597e+2, -1180423.3, -1069255.0, 30289.672, -0.09826094, -0.14317407, -1061537.8, 53098.184, 0.0, 9.999238, 10.00075 
1.549851e+2, 1.9626015e+2, -1193074.1, -1029007.7, 59622.336, -0.17208664, -0.19404005, -1009629.5, 7002.5273, 0.0, 9.998507, 10.000705 
1.5498763e+2, 2.062604e+2, -1007310.1, -921951.9, 87177.125, -0.13391629, -0.21851332, -867567.3, 51059.336, 0.0, 9.999251, 10.000403 
1.549911e+2, 2.1626043e+2, -688061.8, -727749.94, 76843.31, -0.033878718, -0.2764398, -628541.7, 192079.81, 0.0, 10.000821, 10.000304 
1.5499243e+2, 2.262605e+2, -740427.5, -792245.2, 15572.514, -0.028340539, -0.2539194, -736107.7, -13486.899, 0.0, 10.000175, 9.9995 
1.5499248e+2, 2.3626047e+2, -935314.3, -838991.7, 44982.25, -0.08139047, -0.22770667, -821252.2, -196628.23, 0.0, 9.998172, 9.999477 
1.5499459e+2, 2.4626026e+2, -716508.75, -674798.56, 107352.01, -0.018248541, -0.1988353, -586294.7, -59669.32, 0.0, 9.998972, 9.99954 
1.549981e+2, 2.5625977e+2, -273345.56, -434875.6, 138865.23, 0.11959733, -0.22300519, -193466.44, 235160.73, 0.0, 10.001446, 9.999326 
1.5499993e+2, 2.6625836e+2, -213526.4, -511281.47, 128371.2, 0.066021755, -0.21477051, -165823.97, 164816.83, 0.0, 10.001868, 9.99792 
1.5500076e+2, 2.762563e+2, -253291.36, -474870.7, 92448.83, -0.105871715, -0.23477995, -219785.72, 12876.94, 0.000000019825112, 10.000886, 9.99798 
1.5500274e+2, 2.86255e+2, -134626.11, -279732.28, 38790.098, -0.10381202, -0.20192882, -124907.56, 9766.164, 0.0000019865888, 10.000655, 9.9987545 
1.5500541e+2, 2.962542e+2, -20156.766, -181073.78, 50667.113, 0.002354314, -0.1866335, -5532.5313, 31145.744, 0.000014949104, 10.000789, 9.998694 
1.5500727e+2, 3.062492e+2, -45650.434, -329884.47, 7715.773, 0.06665583, -0.4719186, -45441.137, -45441.137, 0.000059797247, 10.00101, 9.997223 
1.550077e+2, 3.1624982e+2, 118415.664, 4295.2427, 51721.68, 0.012088723, -0.1517429, 138368.44, 138368.44, 0.0001777337, 10.000988, 9.999534 
1.6496994e+2, 1.2624778e+2, -1794585.3, -1754942.9, 166961.25, -0.44951168, -0.4040048, -1606630.4, 96118.336, 0.0014821975, 9.999391, 10.000008 
1.6497754e+2, 1.3624959e+2, -1909614.3, -1615034.0, 248799.17, 0.028237376, -0.33076277, -1473195.4, 131541.52, 0.0008719991, 9.997341, 10.00129 
1.6497871e+2, 1.4625339e+2, -1639698.6, -1208751.0, 62202.094, 0.09735348, -0.19846019, -1199952.5, 306745.1, 0.0003781117, 9.997575, 10.00327 
1.6497675e+2, 1.562564e+2, -1325898.1, -1074542.6, -28283.973, 0.033878483, -0.22902249, -1071399.3, 337261.72, 0.000098805474, 9.999339, 10.002672 
1.6497795e+2, 1.6625796e+2, -1349710.1, -1328143.5, 126910.28, -0.029011022, -0.18836953, -1211559.3, 99086.984, 0.000009884257, 9.999752, 10.000064 
1.6498122e+2, 1.762586e+2, -1318836.3, -1247820.0, 123487.586, -0.092412405, -0.15935546, -1154836.8, 57809.04, 0.0000002904704, 9.999228, 10.0001955 
1.6498315e+2, 1.8625912e+2, -1187139.0, -1047178.1, 46484.047, -0.12611717, -0.16427566, -1033146.5, 81495.31, 0.0, 9.9991045, 10.000953 
1.6498427e+2, 1.9625954e+2, -1071704.3, -952629.3, 47332.383, -0.13794978, -0.23896584, -936107.1, 80529.35, 0.0, 9.999262, 10.000857 
1.6498736e+2, 2.0626011e+2, -1003921.1, -922794.06, 125875.88, -0.084980704, -0.23643148, -831107.3, 87521.29, 0.0, 9.999296, 10.000373 
1.6499148e+2, 2.1626078e+2, -912009.06, -834643.75, 102308.85, 0.0052366857, -0.22785771, -763948.9, 56670.38, 0.0, 9.999282, 10.000313 
1.649925e+2, 2.2626087e+2, -777051.06, -784657.2, 3820.8706, -0.018849695, -0.21513797, -775463.2, -52845.082, 0.0, 9.999823, 9.999718 
1.6499154e+2, 2.362606e+2, -556631.06, -631357.9, 12338.289, -0.111843385, -0.23538904, -554646.56, 69975.625, 0.0, 10.000681, 9.999685 
1.649945e+2, 2.4626017e+2, -423202.5, -532981.25, 118678.9, -0.022473553, -0.23539968, -347334.38, 179290.48, 0.0, 10.000987, 9.999545 
1.6499986e+2, 2.562596e+2, -344035.97, -466852.9, 82975.99, 0.18233494, -0.26961356, -302216.47, 126410.93, 0.0, 10.000953, 9.999342 
1.6500151e+2, 2.6625848e+2, -358545.5, -589302.6, 62596.188, 0.089964, -0.22782594, -342659.1, -12020.559, 0.0, 10.000899, 9.997853 
1.6500092e+2, 2.7625692e+2, -259234.67, -479825.47, 91572.61, -0.17122374, -0.19089407, -226175.2, 6480.997, 0.000000024295247, 10.000864, 9.997945 
1.6500333e+2, 2.8625488e+2, -77795.46, -274695.88, 98834.05, -0.12996739, -0.22231773, -36744.367, 97930.31, 0.0000019697127, 10.001151, 9.998545 
1.6500764e+2, 2.962526e+2, 97590.01, -137555.31, 66971.85, 0.10820645, -0.3323791, 115326.48, 152019.36, 0.000013995548, 10.00166, 9.998572 
1.650091e+2, 3.0624887e+2, 65927.87, -252208.7, 49501.54, 0.12366229, -0.5003779, 73452.266, 73452.266, 0.00005518299, 10.001659, 9.997455 
1.6500847e+2, 3.1625122e+2, 136016.5, 5235.582, 132888.38, -0.007859315, -0.024914348, 218731.52, 218731.52, 0.00016337763, 10.001132, 9.9994755 
1.7497402e+2, 1.2625456e+2, -1697963.8, -1558767.0, 61350.14, -0.024913969, -0.04686003, -1535587.3, 167097.03, 0.001464911, 9.9994135, 10.001341 
1.7497262e+2, 1.3625531e+2, -1873540.5, -1539395.6, 192626.94, -0.21710825, -0.17815843, -1451481.1, 153193.94, 0.0008580161, 9.997349, 10.0018 
1.7497377e+2, 1.4625685e+2, -1830906.6, -1609553.3, 122939.15, -0.17620614, -0.1370359, -1554811.1, -48151.61, 0.00036898247, 9.997584, 10.00052 
1.7497727e+2, 1.5625669e+2, -1485581.4, -1411515.4, 38891.016, 0.12859619, -0.21452323, -1394845.9, 13815.518, 0.00009401229, 9.999361, 10.000349 
1.7497914e+2, 1.662568e+2, -1322411.6, -1267295.0, 99939.91, 0.09160415, -0.2408574, -1191183.5, 119477.49, 0.000008393363, 9.999735, 10.00049 
1.7498e+2, 1.7625707e+2, -1295505.1, -1196024.1, 113723.625, -0.15909699, -0.28536966, -1121638.9, 91020.39, 0.00000020811186, 9.99922, 10.000553 
1.7498188e+2, 1.8625818e+2, -1189982.0, -1055390.9, 46686.094, -0.18464509, -0.24840033, -1040782.3, 73866.85, 0.0, 9.999102, 10.000902 
1.7498438e+2, 1.9625965e+2, -1078122.5, -958080.2, 60378.38, -0.074456185, -0.21377003, -932965.6, 83669.34, 0.0, 9.999227, 10.000838 
1.7498715e+2, 2.062604e+2, -1005759.5, -916801.1, 115941.98, -0.05126898, -0.1974809, -837099.25, 81527.195, 0.0, 9.9992485, 10.000439 
1.7499007e+2, 2.1626064e+2, -919396.2, -834732.0, 113526.95, -0.082317516, -0.23761614, -755901.5, 64720.453, 0.0, 9.999217, 10.000342 
1.7499177e+2, 2.2626056e+2, -781581.8, -781684.5, 28996.582, -0.08917746, -0.24528769, -752636.5, -30015.303, 0.0, 9.999765, 9.999766 
1.7499273e+2, 2.3626015e+2, -566610.44, -641152.9, 47790.8, -0.08022471, -0.2842881, -543275.56, 81348.47, 0.0, 10.000627, 9.999646 
1.749956e+2, 2.4625915e+2, -473227.8, -625919.75, 109526.805, -0.026943065, -0.30574906, -416064.13, 110568.05, 0.0, 10.000942, 9.998926 
1.7499962e+2, 2.5625774e+2, -385812.38, -535461.2, 86993.02, 0.044160742, -0.36114317, -345891.53, 82752.49, 0.0, 10.000876, 9.998906 
1.7500143e+2, 2.662568e+2, -289788.13, -443254.75, 53866.313, -0.023931686, -0.34185728, -272768.7, 57883.676, 0.0, 10.000882, 9.998865 
1.7500192e+2, 2.7625588e+2, -209751.36, -365863.22, 100320.6, -0.17732678, -0.34365636, -160697.3, 71963.74, 0.000000035492793, 10.000811, 9.998756 
1.7500442e+2, 2.8625387e+2, -118258.29, -354366.5, 108841.88, -0.15467757, -0.3762567, -75740.52, 58938.918, 0.0000021240596, 10.001133, 9.998005 
1.7500813e+2, 2.9625145e+2, 62987.04, -193033.05, 92456.56, -0.030064074, -0.45075756, 92884.52, 129585.89, 0.000013429294, 10.001596, 9.998218 
1.7500934e+2, 3.0624935e+2, 137445.39, -104872.96, 24682.742, -0.034042127, -0.49714288, 139934.03, 139934.03, 0.000050917075, 10.001659, 9.998472 
1.7500937e+2, 3.1625128e+2, 145894.69, 49755.027, 149732.0, -0.07261829, -0.15648226, 255083.81, 255083.81, 0.00014886881, 10.0010395, 9.999824 
1.849739e+2, 1.2625627e+2, -2006772.3, -1672231.1, -66195.914, 0.14049764, -0.037852947, -1659609.1, 43055.816, 0.0014182838, 9.997132, 10.001666 
1.8497036e+2, 1.3625692e+2, -1744127.6, -1482473.5, -20231.492, -0.2183011, -0.18649371, -1480918.4, 123737.35, 0.00082149997, 9.99826, 10.001748 
1.8497138e+2, 1.4625789e+2, -1709149.1, -1642595.0, 46076.797, -0.23051715, -0.1523782, -1619035.1, -112388.49, 0.00034638878, 9.998799, 9.999707 
1.8497589e+2, 1.5625681e+2, -1575869.6, -1525711.3, 82698.414, 0.07465433, -0.2455502, -1464372.9, -55713.008, 0.000084445885, 9.999039, 9.999723 
1.8497802e+2, 1.6625682e+2, -1470705.1, -1288703.4, 156211.8, 0.073346816, -0.2799269, -1198919.1, 111740.88, 0.000006352812, 9.998511, 10.000928 
1.8497881e+2, 1.7625749e+2, -1514805.9, -1262152.6, 163842.39, -0.11200491, -0.32786635, -1181591.0, 31061.35, 0.000000056960435, 9.997544, 10.000906 
1.8498097e+2, 1.862588e+2, -1363218.8, -1150106.8, 156797.42, -0.124049656, -0.28102672, -1067085.3, 47554.297, 0.0, 9.997967, 10.000798 
1.8498394e+2, 1.962604e+2, -1089063.8, -972922.7, 147392.52, -0.036287453, -0.22287416, -872573.7, 144050.66, 0.0, 9.999196, 10.000751 
1.8498677e+2, 2.0626095e+2, -974116.06, -913549.06, 179720.02, -0.023606488, -0.21573173, -761579.0, 157039.14, 0.0, 9.999514, 10.000333 
1.8498951e+2, 2.1626082e+2, -920258.44, -847652.0, 156792.89, -0.05751243, -0.28353757, -723014.44, 97603.6, 0.0, 9.999252, 10.000239 
1.849919e+2, 2.262606e+2, -789288.75, -797075.6, 111185.68, -0.049018785, -0.29483804, -681928.4, 40690.156, 0.0, 9.999754, 9.999674 
1.8499409e+2, 2.3626027e+2, -558187.56, -651719.56, 99755.8, -0.008744651, -0.31542712, -494779.7, 129840.29, 0.0, 10.000736, 9.999528 
1.8499668e+2, 2.4625903e+2, -501137.9, -677505.9, 147350.77, -0.009045557, -0.33631632, -417599.25, 109031.5, 0.0, 10.00091, 9.998588 
1.8499951e+2, 2.562572e+2, -449565.53, -596902.1, 131709.22, -0.033722654, -0.40043482, -372322.13, 56325.336, 0.0, 10.000569, 9.998633 
1.850019e+2, 2.6625636e+2, -327649.84, -444766.63, 87678.3, -0.046402264, -0.3684819, -280773.1, 49882.37, 0.0, 10.000554, 9.99901 
1.8500401e+2, 2.7625585e+2, -210496.8, -358340.34, 54769.254, -0.04277448, -0.33997956, -192418.03, 40242.223, 0.000000044067633, 10.000767, 9.998833 
1.850064e+2, 2.862537e+2, -146086.5, -408513.47, 74588.125, -0.065365225, -0.3704823, -126368.32, 8313.167, 0.000002141611, 10.001103, 9.997655 
1.8500888e+2, 2.9625082e+2, 27772.436, -250075.6, 49976.695, -0.10485392, -0.44895402, 36488.363, 73198.05, 0.000012353572, 10.001511, 9.997877 
1.8500988e+2, 3.0624977e+2, 158360.81, -68844.56, -57916.652, -0.14071883, -0.39292046, 172272.47, 172272.47, 0.0000445169, 10.00169, 9.998698 
1.8501103e+2, 3.1624982e+2, 228364.69, 79130.0, -5439.833, -0.03036534, -0.2634693, 228562.72, 228562.72, 0.00012870552, 10.001615, 9.999764 
1.94969e+2, 1.2625295e+2, -2054535.0, -1766964.5, -54763.688, -0.10661918, -0.36655343, -1756888.6, -54198.07, 0.0013429979, 9.9971285, 10.001012 
1.949705e+2, 1.3625425e+2, -1793599.6, -1575751.8, 21084.117, -0.049645077, -0.3618298, -1573729.9, 30950.398, 0.0007683095, 9.998236, 10.001113 
1.949713e+2, 1.4625639e+2, -1623366.5, -1467209.4, 44867.473, -0.1445704, -0.25063342, -1455236.0, 51424.14, 0.00031677555, 9.998799, 10.000915 
1.9497226e+2, 1.562568e+2, -1496830.6, -1363270.6, 93112.086, -0.21335691, -0.31774867, -1315466.9, 93188.945, 0.000073711046, 9.9990425, 10.000837 
1.9497441e+2, 1.6625813e+2, -1440690.8, -1225325.5, 114027.8, -0.15868925, -0.2945887, -1176171.0, 134471.16, 0.0000047225935, 9.998498, 10.001373 
1.9497749e+2, 1.7625993e+2, -1489019.0, -1208395.6, 147632.6, -0.019562066, -0.2759808, -1145034.1, 67589.65, 0.0000000036456946, 9.997537, 10.001282 
1.9498022e+2, 1.8626104e+2, -1381108.5, -1177690.4, 196170.6, -0.014155937, -0.25324365, -1058429.6, 56182.594, 0.0, 9.997923, 10.000632 
1.9498268e+2, 1.962617e+2, -1107642.3, -1004401.4, 195470.78, -0.09981581, -0.27185515, -853849.9, 162755.33, 0.0, 9.999163, 10.000554 
1.9498588e+2, 2.0626177e+2, -1001871.1, -954120.5, 163572.0, -0.07969095, -0.29130137, -812690.56, 105913.29, 0.0, 9.999444, 10.000084 
1.9498958e+2, 2.1626136e+2, -948353.9, -887385.6, 159974.1, 0.004740307, -0.36440295, -755017.06, 65590.195, 0.0, 9.999176, 10.0 
1.9499263e+2, 2.262611e+2, -818667.1, -841666.8, 140530.9, 0.033554025, -0.3535423, -689166.3, 33442.785, 0.0, 9.999687, 9.999398 
1.9499531e+2, 2.3626092e+2, -585274.0, -690276.75, 138208.11, 0.02524797, -0.33072662, -489931.25, 134679.0, 0.0, 10.000663, 9.999296 
1.9499749e+2, 2.4625978e+2, -514436.22, -691738.44, 127101.07, -0.03543064, -0.3293614, -448123.78, 78496.92, 0.0, 10.000853, 9.998517 
1.9499926e+2, 2.5625792e+2, -471373.8, -623164.3, 129162.64, -0.13266075, -0.38952008, -397458.94, 31178.79, 0.0, 10.000489, 9.998488 
1.9500263e+2, 2.662572e+2, -383135.5, -555228.8, 88866.35, -0.04543943, -0.2986536, -345483.9, -14837.134, 0.0, 10.00053, 9.998267 
1.9500692e+2, 2.7625686e+2, -265153.88, -462556.66, 73560.38, 0.15234135, -0.1787705, -240757.34, -8103.9526, 0.000000036761158, 10.000721, 9.998144 
1.9500901e+2, 2.8625432e+2, -166159.64, -440627.16, 84091.125, 0.06755603, -0.20633614, -142444.89, -7763.821, 0.0000018181237, 10.001068, 9.997448 
1.9500966e+2, 2.9625085e+2, -8386.254, -300931.75, 76080.39, -0.19851263, -0.32107913, 10216.536, 46933.594, 0.000010151812, 10.001418, 9.997568 
1.9501047e+2, 3.0625015e+2, 118762.81, -147544.3, -62873.152, -0.27116847, -0.17967167, 132860.4, 132860.4, 0.00003534469, 10.001672, 9.998165 
1.9501296e+2, 3.1624717e+2, 199556.48, 38356.61, 19022.44, -0.040580556, -0.31600365, 201770.81, 201770.81, 0.0001028295, 10.001542, 9.999511 
2.0496602e+2, 1.2625185e+2, -1959812.6, -1779385.3, 25767.775, -0.15575638, -0.5252883, -1775777.4, -73082.12, 0.0012444656, 9.998039, 10.000483 
2.0496951e+2, 1.362534e+2, -1816500.1, -1657576.8, 85612.6, 0.02869627, -0.42397818, -1620232.3, -15545.06, 0.00070293987, 9.998369, 10.000496 
2.0497061e+2, 1.4625575e+2, -1670967.3, -1422178.3, 77023.4, -0.056947555, -0.29641336, -1400262.9, 106402.64, 0.00028321997, 9.998194, 10.001514 
2.0497042e+2, 1.5625682e+2, -1637533.5, -1372496.9, 56369.805, -0.23681225, -0.35548303, -1361006.0, 47646.5, 0.000063005726, 9.997827, 10.001359 
2.0497248e+2, 1.662585e+2, -1490287.6, -1263310.0, 50041.184, -0.18506373, -0.3136879, -1252767.3, 57868.258, 0.0000035155435, 9.998227, 10.001239 
2.0497617e+2, 1.7626047e+2, -1274684.5, -1119589.4, 25083.469, 0.021507813, -0.26247206, -1115633.5, 96983.47, 0.0000000004928599, 9.99908, 10.001144 
2.0497917e+2, 1.862613e+2, -1201283.5, -1107478.9, 90510.92, 0.027725246, -0.25441948, -1052439.8, 62168.46, 0.0, 9.999221, 10.000491 
2.0498168e+2, 1.9626138e+2, -1156532.5, -1045155.0, 73648.11, -0.09669626, -0.3165822, -1008511.3, 8094.588, 0.0, 9.998896, 10.000402 
2.04985e+2, 2.0626122e+2, -1096876.1, -1030345.44, 41311.438, -0.083763264, -0.33702007, -1010571.0, -91964.01, 0.0, 9.9989195, 9.999818 
2.0498885e+2, 2.162608e+2, -972760.56, -925243.25, 28434.158, 0.02096505, -0.38143632, -911948.25, -91336.914, 0.0, 9.999122, 9.99977 
2.0499253e+2, 2.2626063e+2, -769532.94, -815101.8, 74934.28, 0.04342239, -0.3529575, -713995.75, 8617.1, 0.0, 10.0000105, 9.999421 
2.0499614e+2, 2.3626056e+2, -489337.28, -641299.1, 73521.5, 0.013684739, -0.32395896, -459589.72, 165023.72, 0.0, 10.0013075, 9.999322 
2.0499858e+2, 2.4625954e+2, -375064.38, -595547.4, 51906.027, -0.048017606, -0.32467106, -363455.88, 163166.4, 0.0, 10.001684, 9.9987755 
2.0500028e+2, 2.5625783e+2, -308231.3, -530781.06, 66332.61, -0.13027315, -0.3940412, -289960.4, 138676.8, 0.0, 10.001543, 9.998617 
2.0500372e+2, 2.662568e+2, -259693.03, -554590.1, 73335.37, -0.040270496, -0.30895096, -242462.64, 88187.24, 0.0, 10.001639, 9.997733 
2.0500825e+2, 2.762559e+2, -126300.63, -444342.1, 52829.11, 0.15877488, -0.19264556, -117754.94, 114908.445, 0.00000002096579, 10.001898, 9.997696 
2.0501058e+2, 2.8625345e+2, -76304.25, -384678.63, 90660.34, 0.09467034, -0.19628786, -51625.6, 83065.57, 0.0000012828043, 10.001636, 9.997558 
2.0501147e+2, 2.9625052e+2, -59882.96, -323765.3, 100125.734, -0.13486457, -0.27360463, -26193.111, 10529.812, 0.000007381431, 10.001061, 9.99758 
2.0501235e+2, 3.062501e+2, 40293.934, -241494.86, 2557.95, -0.23094943, -0.074285895, 40317.152, 40317.152, 0.000026183789, 10.001392, 9.997656 
2.0501545e+2, 3.162452e+2, 302412.1, 106653.125, 54096.723, 0.029883346, -0.3556676, 316366.66, 316366.66, 0.00007851838, 10.002205, 9.99965 
2.1496436e+2, 1.2625305e+2, -1990698.8, -1838910.0, 3665.4048, -0.16918294, -0.51281124, -1838821.6, -136142.98, 0.0011273269, 9.998024, 10.000082 
2.1496716e+2, 1.3625447e+2, -1851945.3, -1736831.4, 102334.23, -0.06482688, -0.36439648, -1676978.4, -72302.96, 0.0006276391, 9.998397, 9.999938 
2.1496905e+2, 1.462561e+2, -1677855.8, -1437731.0, 51835.094, -0.057667844, -0.27522188, -1427019.3, 79641.84, 0.0002466057, 9.998195, 10.001409 
2.1497011e+2, 1.5625693e+2, -1643707.9, -1391581.1, 55740.176, -0.07400817, -0.35200953, -1379807.9, 28841.195, 0.000052325075, 9.99785, 10.001218 
2.1497199e+2, 1.6625793e+2, -1545471.8, -1371238.6, 74569.48, -0.07587379, -0.33180472, -1343682.1, -33042.184, 0.000002586899, 9.9982, 10.000511 
2.149746e+2, 1.76259e+2, -1324099.5, -1216723.3, 60188.51, -0.06299625, -0.29763183, -1189757.4, 22875.66, 0.000000000052014764, 9.999062, 10.0004835 
2.1497755e+2, 1.8625943e+2, -1216169.1, -1131428.3, 71442.61, -0.07267782, -0.2915991, -1090736.6, 23892.053, 0.0, 9.9991865, 10.000345 
2.1498075e+2, 1.9625935e+2, -1167995.9, -1066147.3, 71322.66, -0.100288674, -0.35784304, -1029434.75, -12807.554, 0.0, 9.99888, 10.000267 
2.149839e+2, 2.0625927e+2, -1124798.0, -1076061.6, 39856.098, -0.101677604, -0.34924653, -1053714.5, -135086.53, 0.0, 9.998866, 9.999529 
2.1498705e+2, 2.1625912e+2, -996702.9, -958147.6, 47149.793, -0.086345114, -0.33831668, -926486.75, -105855.96, 0.0, 9.999048, 9.999578 
2.1499135e+2, 2.2625914e+2, -759574.75, -774718.5, 117398.09, -0.09151833, -0.30175748, -649504.6, 73126.0, 0.0, 9.9999275, 9.999738 
2.1499632e+2, 2.3625916e+2, -479659.25, -596776.06, 125132.83, -0.11556638, -0.29699013, -400060.8, 224568.75, 0.0, 10.001206, 9.999674 
2.1499975e+2, 2.4625835e+2, -342659.9, -519082.47, 39826.734, -0.11686776, -0.32197684, -334085.84, 192549.31, 0.0, 10.001646, 9.99932 
2.1500227e+2, 2.56257e+2, -289519.13, -471272.6, 70041.8, -0.10239134, -0.40893054, -265659.5, 162985.94, 0.0, 10.001457, 9.999068 
2.1500495e+2, 2.6625523e+2, -291964.78, -613501.6, 76634.05, -0.098733425, -0.39668012, -274634.2, 56030.293, 0.0, 10.001604, 9.997344 
2.1500771e+2, 2.7625293e+2, -159197.0, -494440.47, 67261.086, -0.104366384, -0.38155508, -146205.61, 86485.52, 0.00000000626477, 10.001818, 9.99739 
2.1501085e+2, 2.8625107e+2, -42200.38, -303972.6, 60439.895, -0.059668954, -0.3418186, -28919.383, 105793.016, 0.00000075455597, 10.001597, 9.99813 
2.1501419e+2, 2.9624984e+2, -41851.62, -274068.16, 92100.6, 0.009787538, -0.3016668, -9758.506, 26968.209, 0.0000049684672, 10.00101, 9.997946 
2.1501535e+2, 3.0624953e+2, -1665.3058, -332553.3, 29900.035, -0.08530608, -0.06875355, 1014.84235, 1014.84235, 0.000019548965, 10.001402, 9.997032 
2.1501818e+2, 3.162438e+2, 314940.66, 145519.31, 109969.62, 0.043007616, -0.38416523, 369043.56, 369043.56, 0.00006122242, 10.002141, 9.999956 
2.2496256e+2, 1.2625398e+2, -2086531.4, -1857948.8, -80559.76, -0.10149581, -0.38297516, -1832410.3, -129738.17, 0.0009979393, 9.997234, 10.000341 
2.2496493e+2, 1.36255e+2, -1965467.1, -1776887.1, 51703.246, -0.07949821, -0.29835433, -1763641.9, -158971.48, 0.0005469221, 9.997568, 10.000058 
2.2496755e+2, 1.4625567e+2, -1719002.1, -1504582.0, 27882.943, -0.018267289, -0.28332826, -1501015.5, 5649.038, 0.00020906674, 9.998118, 10.000991 
2.2496958e+2, 1.5625606e+2, -1531060.1, -1386183.0, -9057.761, 0.043784425, -0.36262843, -1385618.9, 23038.238, 0.000042237294, 9.998836, 10.000784 
2.2497132e+2, 1.6625662e+2, -1481414.9, -1402218.8, 24439.5, 0.008580339, -0.33639237, -1395284.0, -84630.984, 0.0000020119714, 9.998894, 9.999969 
2.2497313e+2, 1.7625722e+2, -1443828.9, -1331092.3, 6263.0986, -0.081547745, -0.2961455, -1330745.4, -118093.484, 0.0, 9.998469, 9.99999 
2.2497621e+2, 1.8625765e+2, -1283801.4, -1153746.8, 45302.434, -0.09704244, -0.27401868, -1139522.1, -24873.824, 0.0, 9.998687, 10.000427 
2.2498009e+2, 1.9625789e+2, -1111378.1, -1032282.7, 46909.605, -0.070874825, -0.31410995, -1010474.6, 6169.318, 0.0, 9.999255, 10.000316 
2.2498357e+2, 2.0625778e+2, -987501.1, -1012079.94, 55727.074, -0.06526883, -0.308391, -942724.44, -24079.943, 0.0, 9.999815, 9.999516 
2.2498685e+2, 2.1625735e+2, -814756.44, -871774.4, 69257.94, -0.0704777, -0.32499152, -768369.3, 52279.77, 0.0, 10.000301, 9.999569 
2.2499123e+2, 2.2625719e+2, -746959.1, -772713.44, 140238.02, -0.09890222, -0.30390173, -619008.3, 103642.11, 0.0, 10.0000305, 9.999703 
2.2499627e+2, 2.3625708e+2, -765440.94, -735559.1, 104858.63, -0.13893846, -0.30886737, -644582.3, -19931.348, 0.0, 9.9992485, 9.999662 
2.2500032e+2, 2.4625663e+2, -661376.1, -670492.5, 4202.275, -0.11229854, -0.29955178, -659734.6, -133080.19, 0.0, 9.999445, 9.999344 
2.2500373e+2, 2.562559e+2, -450839.94, -540059.25, -17388.857, -0.039269965, -0.32868743, -447570.66, -18910.053, 0.0, 10.000307, 9.999152 
2.2500637e+2, 2.662541e+2, -333932.44, -586708.2, 33175.754, -0.0882884, -0.34570673, -329650.78, 1028.1876, 0.0, 10.001109, 9.997767 
2.2500853e+2, 2.7625147e+2, -114919.79, -429923.63, 68100.96, -0.20403007, -0.4067031, -100827.43, 131878.84, 0.00000000006385136, 10.001926, 9.997783 
2.2501215e+2, 2.862499e+2, 54014.984, -241548.03, 53981.473, -0.11275889, -0.36378145, 63565.523, 198288.8, 0.00000032397858, 10.002176, 9.998285 
2.2501664e+2, 2.9624924e+2, 109950.03, -197842.7, 40122.07, 0.107280895, -0.28436825, 115094.14, 151825.98, 0.000003287384, 10.002029, 9.997983 
2.2501782e+2, 3.0624795e+2, 85045.234, -340664.22, 28529.713, -0.012362974, -0.124871165, 86948.695, 86948.695, 0.00001589248, 10.002208, 9.996587 
2.2502097e+2, 3.1624216e+2, 386572.6, 179294.5, 88378.04, 0.09486881, -0.4102108, 419138.28, 419138.28, 0.000052100033, 10.002622, 9.999962 
2.3496015e+2, 1.2625462e+2, -2012204.0, -1716375.0, -101890.29, -0.11181547, -0.13576129, -1684677.9, 17998.053, 0.0008671324, 9.9972925, 10.001284 
2.349625e+2, 1.3625483e+2, -1903089.1, -1663533.4, 64925.605, -0.099751584, -0.22377427, -1647068.6, -42395.348, 0.0004662031, 9.997624, 10.000817 
2.3496579e+2, 1.462543e+2, -1771178.4, -1604345.8, 45859.836, -0.024993341, -0.32845524, -1592570.6, -85893.41, 0.00017258529, 9.998087, 10.00032 
2.3496857e+2, 1.562541e+2, -1572402.5, -1477871.3, 21372.45, 0.03645847, -0.39570966, -1473263.8, -64586.074, 0.000033446406, 9.99886, 10.000143 
2.3497026e+2, 1.6625449e+2, -1515042.1, -1465369.1, -1386.6869, -0.008570352, -0.33527604, -1465330.5, -154654.69, 0.0000017722703, 9.998867, 9.999551 
2.3497157e+2, 1.7625502e+2, -1461294.4, -1368518.0, 1183.3704, -0.103625946, -0.26107365, -1368502.9, -155828.5, 0.0000000001389195, 9.998471, 9.999735 
2.3497489e+2, 1.8625592e+2, -1274192.1, -1119827.0, 59441.93, -0.115001, -0.19754408, -1099590.4, 15076.472, 0.0, 9.99863, 10.00069 
2.3497938e+2, 1.9625697e+2, -1096664.6, -995457.8, 74721.99, -0.08572381, -0.18282476, -955816.7, 60839.664, 0.0, 9.999228, 10.000583 
2.3498368e+2, 2.0625669e+2, -977467.8, -973854.44, 67567.5, -0.04911208, -0.22231303, -908069.5, 10587.636, 0.0, 9.999742, 9.999813 
2.3498797e+2, 2.1625547e+2, -812445.9, -848347.5, 89903.73, -0.0065984097, -0.34590653, -738718.4, 81947.72, 0.0, 10.000218, 9.999772 
2.3499195e+2, 2.262548e+2, -791706.5, -842620.06, 104378.47, -0.04334106, -0.36128992, -709725.3, 12946.858, 0.0, 9.999937, 9.999269 
2.3499574e+2, 2.3625433e+2, -808632.2, -804740.9, 90108.64, -0.13424064, -0.3536065, -716556.9, -91879.34, 0.0, 9.999162, 9.999231 
2.3499991e+2, 2.4625432e+2, -699891.1, -738791.6, 27762.904, -0.11578588, -0.25831643, -685443.1, -158762.42, 0.0, 9.999395, 9.998898 
2.3500437e+2, 2.5625446e+2, -481342.9, -582071.94, 22413.512, -0.026824439, -0.15579803, -476580.75, -47897.23, 0.0, 10.000216, 9.998908 
2.3500776e+2, 2.6625344e+2, -251012.5, -404508.1, 57408.63, -0.07770841, -0.15362626, -231916.81, 98776.42, 0.0, 10.001068, 9.999038 
2.350105e+2, 2.7625155e+2, -48214.98, -275928.16, 103595.05, -0.22016756, -0.26736942, -8138.933, 224569.89, 0.0, 10.001858, 9.998876 
2.3501416e+2, 2.8625e+2, 30360.31, -282248.88, 41444.844, -0.14765751, -0.26004678, 35761.625, 170485.47, 0.00000009734078, 10.002139, 9.998023 
2.3501852e+2, 2.9624858e+2, 80506.4, -244589.61, 43620.938, 0.070782974, -0.2248586, 86257.65, 122996.63, 0.0000024854203, 10.001959, 9.997701 
2.3501942e+2, 3.0624524e+2, 70213.92, -368286.97, 40022.016, -0.0919187, -0.24532449, 73836.805, 73836.805, 0.00001465121, 10.002191, 9.9964075 
2.3502335e+2, 3.1624025e+2, 362680.63, 138576.53, 114993.01, 0.030690799, -0.43184495, 411187.13, 411187.13, 0.000049295926, 10.002572, 9.999712 
2.4495685e+2, 1.2625094e+2, -2279426.3, -1749353.6, -155579.66, -0.052388825, -0.152216, -1707064.0, -4347.787, 0.0007416808, 9.995055, 10.002141 
2.4496025e+2, 1.362522e+2, -1839721.3, -1543576.3, -17108.3, -0.083585195, -0.23172747, -1542591.1, 62106.35, 0.00038814702, 9.99768, 10.001616 
2.4496405e+2, 1.4625166e+2, -1730861.4, -1657140.9, -50607.824, -0.031702213, -0.33478764, -1631392.6, -124690.15, 0.00013769997, 9.998666, 9.999677 
2.4496664e+2, 1.5625156e+2, -1630791.6, -1560568.3, -90687.18, -0.028577212, -0.32909152, -1498432.9, -89726.07, 0.000025817635, 9.998704, 9.999647 
2.4496858e+2, 1.6625197e+2, -1473073.6, -1367636.8, -64043.35, -0.05579646, -0.28396204, -1337404.6, -26701.252, 0.0000016011192, 9.998826, 10.000239 
2.4497056e+2, 1.7625238e+2, -1359354.0, -1257594.0, 3877.4785, -0.068987496, -0.29021537, -1257446.5, -44748.586, 0.0000000006420841, 9.998912, 10.000283 
2.4497409e+2, 1.8625315e+2, -1278664.8, -1153594.1, 88227.67, -0.058064394, -0.2465096, -1107987.0, 6703.432, 0.0, 9.998732, 10.000406 
2.4497849e+2, 1.962541e+2, -1245743.8, -1092998.0, 51658.094, -0.0470898, -0.21319462, -1077168.0, -60485.78, 0.0, 9.998318, 10.000347 
2.4498318e+2, 2.0625407e+2, -1095644.1, -1011887.8, 57742.055, -0.023747547, -0.22785892, -982436.25, -63754.543, 0.0, 9.998851, 9.99998 
2.4498823e+2, 2.1625333e+2, -854462.94, -851060.2, 48841.055, 0.021497127, -0.3212002, -803890.9, 16795.986, 0.0, 9.999862, 9.999923 
2.4499218e+2, 2.262528e+2, -755543.2, -817919.5, 56926.65, -0.020235637, -0.33218268, -721821.06, 870.584, 0.0, 10.000154, 9.999332 
2.4499545e+2, 2.362523e+2, -688530.0, -746090.56, 74003.484, -0.11708183, -0.33583775, -637907.4, -13210.236, 0.0, 9.9999895, 9.999232 
2.4499984e+2, 2.4625188e+2, -578917.0, -730391.25, 85255.77, -0.10984187, -0.2543081, -540616.2, -13911.213, 0.0, 10.000439, 9.998455 
2.4500506e+2, 2.5625142e+2, -349478.28, -556095.4, 59339.184, -0.026398785, -0.16622616, -333649.13, 95065.79, 0.0, 10.001283, 9.998574 
2.4500896e+2, 2.6625067e+2, -222118.27, -351053.6, 38268.47, -0.062525354, -0.14482822, -211615.56, 119107.08, 0.0, 10.001092, 9.999397 
2.45012e+2, 2.7624965e+2, -257427.33, -338572.44, 7063.907, -0.17049971, -0.20963174, -256816.98, -24087.355, 0.0, 10.000268, 9.999207 
2.4501613e+2, 2.862483e+2, -97024.555, -350915.5, -19283.691, -0.11846943, -0.19059125, -95568.26, 39173.95, 0.00000009803459, 10.001297, 9.997958 
2.4502102e+2, 2.9624662e+2, 299015.06, -141650.4, -23817.021, 0.053059716, -0.17774096, 300298.56, 337058.3, 0.0000023443192, 10.003482, 9.99767 
2.4502198e+2, 3.0624264e+2, 333070.03, -259993.38, -31643.268, -0.14146228, -0.2505241, 334753.6, 334753.6, 0.000014050109, 10.004087, 9.996231 
2.450268e+2, 3.162389e+2, 470664.63, 129633.2, -8632.6875, 0.074962094, -0.29000726, 470883.0, 470883.0, 0.000047419504, 10.003608, 9.999133 
2.5495204e+2, 1.2624292e+2, -2221985.0, -1633280.6, -76375.305, -0.0774482, -0.42830923, -1623533.5, 79259.055, 0.000622871, 9.9950695, 10.002929 
2.5495797e+2, 1.3624692e+2, -1773198.3, -1407032.6, 73149.65, -0.09706094, -0.34154376, -1392960.3, 211784.45, 0.00031436078, 9.997694, 10.002542 
2.5496224e+2, 1.4624771e+2, -1777238.5, -1754824.8, -58027.06, -0.102039404, -0.31621754, -1706932.3, -200191.5, 0.00010539114, 9.998669, 9.999006 
2.549634e+2, 1.5624844e+2, -1650514.5, -1607388.1, -81461.02, -0.24437983, -0.1672125, -1544684.8, -135939.61, 0.000019009012, 9.998724, 9.999316 
2.54966e+2, 1.6624905e+2, -1354498.9, -1111877.9, -67045.39, -0.21600956, -0.18602659, -1094583.5, 216152.75, 0.0000013062046, 9.99879, 10.002009 
2.5496984e+2, 1.762493e+2, -1258355.5, -1047214.3, 13953.591, -0.055549715, -0.38277996, -1046296.2, 166425.86, 0.000000000635992, 9.998914, 10.001722 
2.5497356e+2, 1.8624935e+2, -1345487.5, -1282488.5, 65983.11, -0.0015323114, -0.4254062, -1240871.8, -126153.0, 0.0, 9.998689, 9.999544 
2.5497717e+2, 1.9624925e+2, -1300584.8, -1200471.5, 49610.24, -0.031656124, -0.4149536, -1180052.3, -163329.84, 0.0, 9.998287, 9.999624 
2.549819e+2, 2.0624985e+2, -1111049.1, -1021733.6, 89747.23, -0.053041264, -0.332852, -966147.3, -47428.227, 0.0, 9.998758, 9.999956 
2.5498736e+2, 2.1625076e+2, -858335.2, -845843.4, 89198.41, -0.07040403, -0.26049688, -762672.5, 58040.113, 0.0, 9.999804, 9.999988 
2.549916e+2, 2.2625105e+2, -722700.7, -734159.94, 42531.258, -0.11044597, -0.22424641, -685514.8, 37194.918, 0.0, 10.000085, 9.999942 
2.5499505e+2, 2.3625083e+2, -666080.25, -682159.0, 80779.68, -0.17112572, -0.26187187, -592940.9, 31769.635, 0.0, 9.99991, 9.99971 
2.549999e+2, 2.4624929e+2, -619373.06, -803184.0, 110292.69, -0.16517225, -0.28980613, -567712.9, -40985.543, 0.0, 10.000392, 9.997976 
2.550056e+2, 2.5624678e+2, -394422.8, -632203.5, 89334.57, -0.120414205, -0.36211532, -364600.1, 64155.277, 0.0, 10.001204, 9.998091 
2.550097e+2, 2.6624572e+2, -264259.4, -429197.44, -1003.63306, -0.11525444, -0.31647342, -264253.3, 66514.16, 0.0, 10.001053, 9.99888 
2.550128e+2, 2.7624553e+2, -296417.28, -407511.9, -1999.6726, -0.13562553, -0.24425872, -296381.3, -63610.953, 0.0, 10.000206, 9.99877 
2.5501776e+2, 2.8624472e+2, -96337.14, -332042.47, 55139.086, -0.10288069, -0.16315901, -84076.125, 50703.316, 0.00000013920514, 10.001235, 9.998112 
2.550238e+2, 2.9624325e+2, 293251.6, -125568.31, 53509.582, -0.035251666, -0.14293371, 299980.03, 336774.66, 0.0000022917138, 10.003368, 9.997831 
2.5502527e+2, 3.0624e+2, 316060.25, -289208.8, -52612.992, -0.24012597, -0.14923215, 320599.56, 320599.56, 0.000012885881, 10.004062, 9.996043 
2.5503075e+2, 3.1623784e+2, 387886.72, -30307.46, -28423.484, 0.06815679, 0.003457803, 389809.75, 389809.75, 0.000044516015, 10.0035515, 9.998067 
2.6494923e+2, 1.2623772e+2, -1814917.0, -1499243.5, -2315.908, -0.011000821, -0.44248086, -1499226.5, 203617.55, 0.0005136847, 9.998112, 10.002375 
2.6495564e+2, 1.3624159e+2, -1822912.4, -1445841.1, 8001.2046, -0.07743127, -0.34617257, -1445671.4, 159128.13, 0.0002486243, 9.997384, 10.002433 
2.6496047e+2, 1.4624307e+2, -1925312.3, -1698657.4, -84283.6, -0.063985646, -0.31173703, -1670751.5, -163963.67, 0.00007773356, 9.997115, 10.000138 
2.6496163e+2, 1.562449e+2, -1758123.1, -1549188.0, 9029.657, -0.22723854, -0.16267583, -1548798.5, -140020.16, 0.000013419433, 9.997516, 10.000298 
2.6496467e+2, 1.6624585e+2, -1458139.3, -1181561.5, 6572.7715, -0.1912489, -0.1830481, -1181405.4, 129360.59, 0.0000010267595, 9.998157, 10.001844 
2.649692e+2, 1.7624594e+2, -1282210.4, -1077292.0, -74068.984, -0.0005521911, -0.37795746, -1053323.0, 159431.55, 0.0000000012219834, 9.998827, 10.00156 
2.6497304e+2, 1.8624552e+2, -1233908.4, -1247258.3, -40507.633, 0.03913117, -0.45135197, -1199529.5, -84774.05, 0.0, 9.999535, 9.999379 
2.6497638e+2, 1.9624475e+2, -1036839.56, -1090191.6, -24786.963, -0.027101196, -0.4875745, -1027101.25, -10337.078, 0.0, 10.000167, 9.999479 
2.6498088e+2, 2.0624536e+2, -985270.06, -938080.3, 48708.664, -0.06065044, -0.4106272, -907552.6, 11207.681, 0.0, 9.999525, 10.000158 
2.6498625e+2, 2.1624671e+2, -1108254.5, -950624.2, 52911.676, -0.07010921, -0.31355816, -934510.56, -113760.65, 0.0, 9.998023, 10.000125 
2.649912e+2, 2.2624736e+2, -912978.44, -831343.1, 33563.625, -0.09299349, -0.24417077, -819315.75, -96571.3, 0.0, 9.998796, 9.999897 
2.6499593e+2, 2.3624754e+2, -516958.38, -614249.8, -152.7064, -0.12111072, -0.23702656, -516958.13, 107784.54, 0.0, 10.000946, 9.999683 
2.650011e+2, 2.4624586e+2, -466821.63, -701585.9, 28600.1, -0.1288586, -0.28710628, -463387.66, 63371.65, 0.0, 10.001328, 9.998222 
2.6500645e+2, 2.5624296e+2, -465253.25, -644416.06, 52800.27, -0.12126608, -0.42466038, -450850.53, -22062.049, 0.0, 10.000638, 9.998273 
2.650108e+2, 2.6624176e+2, -242218.03, -469710.13, 11997.188, -0.12318634, -0.37608722, -241587.1, 89215.2, 0.0, 10.001422, 9.9984255 
2.6501456e+2, 2.762417e+2, 102606.93, -255789.97, -2421.0762, -0.12149675, -0.24600345, 102623.28, 335429.44, 0.0, 10.003136, 9.998395 
2.6501998e+2, 2.8624067e+2, 130423.96, -236919.58, 55845.95, -0.07821658, -0.1643024, 138726.38, 273544.1, 0.00000017298198, 10.002842, 9.997994 
2.6502642e+2, 2.9623872e+2, -7979.84, -262286.6, 21116.951, 0.0015844556, -0.18635115, -6238.2715, 30598.855, 0.000002277503, 10.0012455, 9.99792 
2.6502815e+2, 3.0623573e+2, 10304.068, -356694.13, -17014.668, -0.22765136, -0.21168426, 11091.209, 11091.209, 0.000011802607, 10.0016, 9.996782 
2.650342e+2, 3.1623405e+2, 332434.6, -29331.06, 28342.621, 0.09221496, -0.070873626, 334641.66, 334641.66, 0.000041814666, 10.0030365, 9.998334 
2.7494803e+2, 1.2623516e+2, -1944711.1, -1778334.4, -54749.543, 0.005775016, -0.21502754, -1761934.6, -59062.2, 0.00042107303, 9.998151, 10.000441 
2.749528e+2, 1.3623631e+2, -1893439.0, -1599088.3, -17768.393, -0.12117943, -0.227887, -1598019.6, 6841.5107, 0.00019522583, 9.997415, 10.001364 
2.749584e+2, 1.4623785e+2, -1720858.5, -1273030.0, -83455.84, -0.0072282646, -0.3044533, -1257983.0, 248859.56, 0.000056360343, 9.997112, 10.003059 
2.7496117e+2, 1.5624104e+2, -1597077.0, -1212887.6, 34288.05, -0.046119608, -0.30949926, -1209851.5, 198954.5, 0.000009372096, 9.997516, 10.0026045 
2.7496445e+2, 1.6624238e+2, -1605416.5, -1487112.8, 24803.738, -0.04672504, -0.27500257, -1482122.9, -171330.55, 0.0000008660051, 9.998153, 9.999747 
2.7496836e+2, 1.7624225e+2, -1406342.5, -1338107.4, -41892.066, 0.009338356, -0.28403476, -1318197.5, -105401.63, 0.000000004874734, 9.99884, 9.999761 
2.7497223e+2, 1.862416e+2, -1208548.1, -1181645.1, -23963.416, -0.015354324, -0.3261027, -1167616.0, -52814.77, 0.0, 9.999484, 9.999852 
2.749759e+2, 1.9624066e+2, -1005677.94, -1018760.7, -2102.5776, -0.11614577, -0.431486, -1005348.4, 11458.808, 0.0, 10.000144, 9.999978 
2.7498004e+2, 2.0624071e+2, -968781.1, -889134.44, -16780.104, -0.11714743, -0.45288888, -885743.56, 33061.035, 0.0, 9.99946, 10.00053 
2.749846e+2, 2.1624115e+2, -1103498.0, -920226.75, 20346.424, -0.05636701, -0.4829337, -917995.06, -97196.195, 0.0, 9.997932, 10.000378 
2.7499074e+2, 2.2624168e+2, -986350.5, -955931.8, 108568.85, -0.034496233, -0.39270782, -861512.1, -138716.28, 0.0, 9.99868, 9.9991 
2.7499777e+2, 2.3624223e+2, -569720.06, -702063.56, 74043.59, -0.045948364, -0.2681623, -536588.44, 88206.55, 0.0, 10.000854, 9.9991255 
2.750031e+2, 2.4624151e+2, -404544.88, -557734.25, -6291.1963, -0.07341897, -0.25620496, -404286.94, 122515.01, 0.0, 10.00127, 9.999235 
2.7500737e+2, 2.5623983e+2, -418538.0, -532110.6, 44552.145, -0.11427137, -0.37023175, -403146.9, 25668.61, 0.0, 10.0005665, 9.999081 
2.7501205e+2, 2.662387e+2, -278954.75, -533722.2, 67758.086, -0.15784454, -0.3287867, -262054.81, 68772.99, 0.0, 10.001372, 9.99801 
2.75017e+2, 2.7623788e+2, 62300.383, -323504.5, 55767.723, -0.2112294, -0.230943, 70199.81, 303039.22, 0.00000000009324417, 10.003064, 9.997967 
2.750226e+2, 2.8623584e+2, 102167.06, -285903.6, -13536.702, -0.121323675, -0.21077998, 102638.68, 237498.69, 0.00000023612336, 10.002802, 9.997673 
2.7502853e+2, 2.962328e+2, -17358.326, -268677.5, -17681.344, 0.06341749, -0.31357944, -16120.468, 20768.3, 0.0000024951785, 10.001184, 9.997905 
2.7503023e+2, 3.0622995e+2, 131551.45, -93738.43, 30529.646, -0.19581087, -0.42905146, 135615.3, 135615.3, 0.000011675634, 10.001571, 9.998592 
2.750366e+2, 3.162278e+2, 417596.56, 180700.08, 65271.086, -0.015758244, -0.51142794, 434389.97, 434389.97, 0.000040361934, 10.002902, 9.999837 
2.849462e+2, 1.2623233e+2, -2068827.4, -1873662.9, 14284.917, 0.05101242, -0.099690236, -1872622.9, -169721.89, 0.00034660724, 9.99746, 10.000117 
2.8495035e+2, 1.362321e+2, -1987393.9, -1648853.5, 125830.62, -0.067933835, -0.23856324, -1607207.3, -2303.7493, 0.00015383559, 9.996811, 10.001304 
2.849563e+2, 1.4623342e+2, -1729001.0, -1251108.3, 45065.637, 0.08819006, -0.34724888, -1246895.6, 259989.36, 0.00004093297, 9.996942, 10.003296 
2.8495952e+2, 1.5623635e+2, -1550804.1, -1175785.1, -54461.73, 0.031891976, -0.40024725, -1168036.1, 240811.7, 0.0000066741927, 9.997755, 10.00275 
2.8496328e+2, 1.662378e+2, -1574826.1, -1518340.8, -45021.133, 0.004082362, -0.3333725, -1493436.9, -182602.75, 0.00000074756446, 9.998574, 9.999328 
2.8496772e+2, 1.7623812e+2, -1348833.3, -1351256.8, -7248.641, 0.037412323, -0.25446182, -1342695.8, -129858.125, 0.000000006090155, 9.99941, 9.999403 
2.8497174e+2, 1.8623781e+2, -1196774.8, -1138425.9, 46544.504, -0.0034962285, -0.26643828, -1112668.3, 2172.2903, 0.0, 9.999404, 10.000186 
2.8497538e+2, 1.9623712e+2, -1184447.3, -1079680.6, 38578.656, -0.11041275, -0.37650737, -1067007.6, -50164.758, 0.0, 9.998805, 10.000207 
2.8497958e+2, 2.0623696e+2, -989118.56, -933757.9, -6154.3525, -0.105378516, -0.41142362, -933081.94, -14240.666, 0.0, 9.999476, 10.000207 
2.8498423e+2, 2.1623693e+2, -700731.2, -761336.9, -36711.965, -0.024866406, -0.45517406, -683431.2, 137407.97, 0.0, 10.000859, 10.000052 
2.849907e+2, 2.262367e+2, -705611.0, -840857.44, 96955.555, -0.00018132826, -0.41767713, -655025.6, 67817.086, 0.0, 10.000697, 9.998916 
2.8499824e+2, 2.3623627e+2, -769006.44, -812953.56, 93488.95, -0.014719734, -0.37378964, -694943.44, -70093.15, 0.0, 9.999548, 9.998994 
2.850039e+2, 2.4623586e+2, -579948.56, -613130.3, 6253.0264, -0.051586397, -0.3398219, -578809.3, -51955.77, 0.0, 9.999926, 9.999504 
2.8500843e+2, 2.5623545e+2, -301908.44, -453283.4, -13422.601, -0.09236138, -0.35641444, -300727.47, 128127.12, 0.0, 10.001273, 9.999279 
2.8501368e+2, 2.6623413e+2, -279457.1, -569215.44, 19015.63, -0.13576074, -0.3233091, -278214.5, 52653.906, 0.0, 10.00153, 9.997684 
2.8501937e+2, 2.7623212e+2, -245762.94, -497100.7, -5845.6904, -0.17451316, -0.31361082, -245627.05, -12735.525, 0.0000000018932573, 10.001057, 9.997736 
2.8502503e+2, 2.8622982e+2, -100385.664, -352901.34, -60051.445, -0.07572107, -0.32751015, -86832.14, 48082.03, 0.00000028816427, 10.001276, 9.997955 
2.850307e+2, 2.962273e+2, 119517.164, -169234.47, -27169.309, 0.1264454, -0.4027861, 122051.34, 158988.19, 0.0000027347362, 10.001991, 9.998198 
2.85033e+2, 3.062248e+2, 319241.06, -21896.652, 14801.362, -0.13470365, -0.49219573, 319882.06, 319882.06, 0.000012525966, 10.002921, 9.998434 
2.8503996e+2, 3.1622267e+2, 502615.22, 209846.23, -154959.75, 0.010355868, -0.5532936, 569399.56, 569399.56, 0.000040482082, 10.003536, 9.999723 
2.9494303e+2, 1.2622938e+2, -1970740.6, -1687232.1, -20502.816, -0.06536606, -0.08775644, -1685757.1, 17171.285, 0.00028487924, 9.997523, 10.00137 
2.9494807e+2, 1.3622895e+2, -1920168.0, -1518363.1, 107628.1, -0.0034725147, -0.38236108, -1491349.8, 113576.41, 0.000121053716, 9.996854, 10.002175 
2.9495403e+2, 1.462297e+2, -1899356.3, -1613633.9, 61809.047, 0.13934235, -0.4466629, -1600836.3, -93920.57, 0.000029834508, 9.996971, 10.000798 
2.9495636e+2, 1.562308e+2, -1693846.5, -1473962.5, -18786.629, -0.085842215, -0.4347263, -1472369.0, -63464.867, 0.000004731658, 9.997761, 10.000701 
2.9496083e+2, 1.6623221e+2, -1492379.6, -1341215.3, -20048.428, -0.1168136, -0.35241425, -1338601.5, -27710.395, 0.00000054097734, 9.998551, 10.000551 
2.94967e+2, 1.7623366e+2, -1268684.8, -1183718.1, 29275.945, 0.003330967, -0.28465238, -1174607.8, 38270.805, 0.0000000012704189, 9.999414, 10.000545 
2.9497138e+2, 1.8623422e+2, -1188948.6, -1118432.0, 16414.354, -0.000031772903, -0.27005255, -1114798.4, 74.10072, 0.0, 9.999381, 10.000339 
2.9497454e+2, 1.962341e+2, -1190406.6, -1085388.5, 33027.613, -0.09488407, -0.33556506, -1075865.1, -58993.484, 0.0, 9.998775, 10.000183 
2.9497924e+2, 2.0623407e+2, -1076118.3, -1095878.8, 41005.26, -0.10405308, -0.29579836, -1043819.75, -124948.586, 0.0, 9.999396, 9.999131 
2.9498488e+2, 2.1623398e+2, -774345.25, -892816.06, 13376.703, -0.0648521, -0.239294, -772853.7, 48018.152, 0.0, 10.000771, 9.999189 
2.9499087e+2, 2.2623235e+2, -689048.75, -782303.8, 44958.484, -0.06787516, -0.32935262, -670904.44, 51981.11, 0.0, 10.000594, 9.999367 
2.949971e+2, 2.3622966e+2, -759690.75, -769647.8, 69686.27, -0.09852875, -0.55594665, -694805.4, -69897.164, 0.0, 9.999449, 9.999336 
2.950033e+2, 2.4622908e+2, -619889.06, -683449.94, 49860.145, -0.12345805, -0.5286805, -592542.25, -65629.875, 0.0, 9.999868, 9.999055 
2.950094e+2, 2.5622973e+2, -340279.06, -520154.97, 36276.785, -0.14092153, -0.38708466, -333238.47, 95667.45, 0.0, 10.001211, 9.998857 
2.9501542e+2, 2.662279e+2, -298208.75, -601609.56, -6147.838, -0.1338473, -0.37504074, -298084.22, 32841.4, 0.0, 10.001497, 9.997478 
2.950213e+2, 2.762244e+2, -259816.34, -512444.9, -13372.206, -0.11078992, -0.4972358, -259110.48, -26147.492, 0.0000000016821552, 10.000993, 9.9976635 
2.9502702e+2, 2.8622267e+2, -40849.113, -218698.52, -43840.355, -0.025615154, -0.5031312, -30629.58, 104349.99, 0.00000022409213, 10.001235, 9.998898 
2.9503262e+2, 2.9622215e+2, 151137.98, -92466.68, 13734.099, 0.094586805, -0.46604553, 151909.86, 188891.94, 0.0000026534976, 10.001939, 9.998755 
2.950362e+2, 3.0622014e+2, 169110.73, -323674.56, 37151.54, -0.12790684, -0.4133553, 171895.88, 171895.88, 0.00001292508, 10.002878, 9.996381 
2.950436e+2, 3.1621826e+2, 378117.34, -40770.87, -129624.88, -0.028609691, -0.24768955, 414984.9, 414984.9, 0.00004085486, 10.003494, 9.998019 
3.0494052e+2, 1.262246e+2, -2082284.4, -1716984.0, -57873.375, -0.017604398, -0.1571053, -1708034.5, -5061.1514, 0.00023189351, 9.996666, 10.001585 
3.0494517e+2, 1.3622484e+2, -1867625.9, -1496025.4, -71357.0, 0.009248413, -0.39339742, -1482794.0, 122170.914, 0.000094942065, 9.997206, 10.002174 
3.0495173e+2, 1.4622582e+2, -1823016.4, -1665242.1, -20573.543, 0.17022112, -0.39014527, -1662603.5, -155649.58, 0.000021738364, 9.997907, 9.999976 
3.0495518e+2, 1.5622593e+2, -1556367.0, -1486024.9, -3437.07, -0.037373427, -0.39180842, -1485857.3, -76902.984, 0.0000030875526, 9.999052, 9.999988 
3.0495974e+2, 1.6622686e+2, -1391960.0, -1241344.4, -7265.526, -0.097459204, -0.35181805, -1240994.8, 69950.11, 0.0000002653173, 9.999012, 10.001014 
3.049653e+2, 1.7622824e+2, -1427415.3, -1219006.4, -31118.537, -0.03860148, -0.3380046, -1214459.1, -1529.3104, 0.0, 9.998148, 10.000911 
3.0497015e+2, 1.862289e+2, -1289564.0, -1217500.5, -62847.016, -0.03254258, -0.30418637, -1181089.0, -66165.56, 0.0, 9.998914, 9.999884 
3.0497444e+2, 1.9622892e+2, -944333.94, -1017965.9, -108294.31, -0.07237108, -0.3078654, -866768.6, 150155.34, 0.0, 10.000676, 9.999736 
3.0497962e+2, 2.0622866e+2, -901080.75, -1030811.1, -73938.914, -0.06475145, -0.26090452, -867587.1, 51339.484, 0.0, 10.000681, 9.998963 
3.049854e+2, 2.1622814e+2, -959786.44, -1000625.06, -52082.375, -0.0246732, -0.22850794, -924263.6, -103332.58, 0.0, 9.999565, 9.999039 
3.0499116e+2, 2.262264e+2, -796135.75, -819541.2, -199.81105, -0.05434064, -0.330362, -796134.06, -73189.8, 0.0, 9.999795, 9.999497 
3.049969e+2, 2.3622383e+2, -550917.1, -662610.44, -11838.2705, -0.12805183, -0.55963206, -549676.2, 75287.49, 0.0, 10.000859, 9.999389 
3.0500367e+2, 2.4622297e+2, -451717.94, -653983.3, 241.71715, -0.13702345, -0.5350069, -451717.66, 75253.75, 0.0, 10.001257, 9.998582 
3.0501097e+2, 2.562231e+2, -348385.47, -555149.5, -29737.309, -0.10493373, -0.39901182, -344193.56, 84779.125, 0.0, 10.001304, 9.998564 
3.0501717e+2, 2.6622146e+2, -302301.7, -522877.22, -49265.39, -0.085541, -0.39942458, -291798.44, 39191.445, 0.0, 10.001115, 9.998207 
3.050226e+2, 2.7621853e+2, -240823.3, -434856.25, 3522.7837, -0.06619084, -0.5353453, -240759.36, -7740.9546, 0.00000000014964384, 10.000823, 9.998283 
3.0502856e+2, 2.862173e+2, -58554.594, -224073.56, 10428.966, 0.021600671, -0.519001, -57900.074, 77130.08, 0.00000013461268, 10.001108, 9.998913 
3.0503497e+2, 2.9621744e+2, 113006.75, -111944.71, -14200.538, 0.15369225, -0.4222652, 113899.64, 150928.4, 0.0000024184974, 10.001699, 9.998726 
3.0503938e+2, 3.0621523e+2, 76303.46, -387946.1, 81333.16, -0.0641165, -0.37636933, 90140.055, 90140.055, 0.00001259153, 10.002322, 9.996216 
3.050466e+2, 3.1621343e+2, 248767.16, -140237.86, 11159.529, -0.032023348, -0.18293536, 249087.03, 249087.03, 0.000039631555, 10.002755, 9.997708 
3.1493825e+2, 1.2621816e+2, -2132671.8, -1833568.8, -41591.387, 0.044691388, -0.28726554, -1827893.0, -124858.555, 0.00018871382, 9.996725, 10.000754 
3.1494126e+2, 1.3622005e+2, -1929205.4, -1614003.4, -48519.098, -0.12042853, -0.25379062, -1606703.9, -1686.4567, 0.00007509751, 9.9971895, 10.001363 
3.1494907e+2, 1.4622201e+2, -1767870.1, -1559303.1, 11194.052, 0.08841786, -0.15727694, -1558704.0, -51706.355, 0.00001598166, 9.997929, 10.000696 
3.1495574e+2, 1.5622176e+2, -1508612.3, -1397021.0, 40672.938, 0.091218136, -0.27072063, -1383770.0, 25228.305, 0.00000170519, 9.999092, 10.000578 
3.1495982e+2, 1.6622175e+2, -1415117.8, -1291457.1, -52595.016, -0.010779283, -0.32952097, -1272113.4, 38882.176, 0.000000057148895, 9.999015, 10.000672 
3.1496242e+2, 1.7622185e+2, -1459863.3, -1282839.9, -48353.906, -0.16379586, -0.40952495, -1270493.3, -57501.656, 0.0, 9.998133, 10.000481 
3.1496775e+2, 1.8622185e+2, -1368746.0, -1377229.3, -4097.723, -0.18291116, -0.36139733, -1367089.9, -252096.84, 0.0, 9.998888, 9.998802 
3.1497476e+2, 1.9622162e+2, -1007129.9, -1138965.9, -46827.023, -0.1291271, -0.28783286, -992190.25, 24809.393, 0.0, 10.000636, 9.998924 
3.149805e+2, 2.0622079e+2, -864406.1, -934254.06, -125741.72, -0.062162075, -0.30044356, -768828.5, 150178.63, 0.0, 10.000597, 9.999666 
3.1498554e+2, 2.1621953e+2, -933545.9, -922137.8, -77125.96, 0.01586204, -0.4135139, -850505.25, -29489.174, 0.0, 9.999466, 9.999623 
3.1499124e+2, 2.26219e+2, -818086.94, -847139.7, 32598.068, -0.04050056, -0.41049805, -796925.06, -73907.29, 0.0, 9.999717, 9.999348 
3.1499738e+2, 2.3621878e+2, -575390.4, -695226.7, 31446.768, -0.18416022, -0.38517505, -567639.6, 57376.94, 0.0, 10.00078, 9.999207 
3.1500474e+2, 2.4621752e+2, -489685.63, -724187.5, -6057.527, -0.17633969, -0.3687247, -489529.25, 37501.77, 0.0, 10.001219, 9.9981165 
3.150128e+2, 2.562156e+2, -374409.78, -589068.75, -24874.166, -0.06990402, -0.39343625, -371565.13, 57489.887, 0.0, 10.001215, 9.998373 
3.1501868e+2, 2.6621488e+2, -187707.86, -276431.88, -67891.34, -0.062625796, -0.38946837, -150969.8, 180090.8, 0.0, 10.001078, 9.999921 
3.1502303e+2, 2.7621457e+2, -149981.55, -233458.23, 4947.9546, -0.1238395, -0.4322415, -149689.28, 83368.52, 0.00000000001473293, 10.000766, 9.999697 
3.1502947e+2, 2.8621376e+2, -130906.56, -362297.6, 24605.879, -0.015898746, -0.3852742, -128318.94, 6747.3315, 0.000000108201135, 10.001061, 9.997983 
3.1503734e+2, 2.9621303e+2, 55754.25, -215856.5, 15326.96, 0.19912447, -0.281127, 56616.41, 93694.26, 0.0000023186144, 10.00163, 9.998046 
3.1504223e+2, 3.0620995e+2, 194038.28, -135866.34, 94582.945, -0.02529596, -0.38570988, 219231.17, 219231.17, 0.000012381474, 10.002293, 9.997962 
3.1504843e+2, 3.1620815e+2, 324383.78, 32829.816, 40532.04, -0.16762862, -0.37574464, 329913.7, 329913.7, 0.000038035574, 10.002684, 9.998933 
3.2493508e+2, 1.2621118e+2, -2228502.0, -1870576.4, -85136.28, 0.10102335, -0.31689504, -1851357.8, -148253.38, 0.00015750076, 9.996007, 10.00085 
3.2493898e+2, 1.3621323e+2, -1912076.1, -1630799.0, -86904.54, -0.06467338, -0.24502221, -1606114.8, -1027.2916, 0.00006189271, 9.99738, 10.001169 
3.2494703e+2, 1.4621584e+2, -1781713.9, -1505693.3, -4654.7324, 0.11601734, -0.10492164, -1505614.8, 1446.3225, 0.000012633238, 9.9975605, 10.001249 
3.2495388e+2, 1.5621606e+2, -1732196.1, -1456863.3, -3803.3623, 0.08924198, -0.2257968, -1456810.8, -47755.28, 0.0000008198343, 9.997341, 10.001019 
3.2495868e+2, 1.6621582e+2, -1573967.8, -1435903.0, -100464.63, 0.017353129, -0.29328242, -1383039.5, -71983.805, 0.000000004124255, 9.998233, 10.000051 
3.249622e+2, 1.7621534e+2, -1255414.4, -1244184.0, -134029.1, -0.07485105, -0.3685213, -1115652.5, 97406.83, 0.0, 9.99979, 9.999948 
3.2496783e+2, 1.8621516e+2, -1191981.9, -1239500.5, -9255.002, -0.10586585, -0.33769998, -1190243.0, -75181.48, 0.0, 9.999883, 9.99926 
3.249748e+2, 1.962151e+2, -1215807.0, -1191107.3, 41565.07, -0.1028223, -0.295386, -1160096.1, -143032.23, 0.0, 9.999008, 9.999341 
3.2498065e+2, 2.062143e+2, -975876.5, -984393.56, -12824.378, -0.06092162, -0.3281788, -966622.06, -47551.484, 0.0, 9.999808, 9.999706 
3.2498595e+2, 2.1621299e+2, -622600.0, -769291.6, -28073.553, 0.01001282, -0.44900686, -617410.9, 203669.53, 0.0, 10.001587, 9.999655 
3.2499203e+2, 2.2621284e+2, -539146.8, -718611.7, 73012.12, -0.025097914, -0.40470758, -513195.75, 209883.75, 0.0, 10.001657, 9.999297 
3.2499862e+2, 2.3621328e+2, -592861.2, -705723.3, 64873.14, -0.12697147, -0.30949536, -563309.75, 61763.54, 0.0, 10.000667, 9.999189 
3.2500604e+2, 2.4621214e+2, -645703.44, -784334.0, 67147.65, -0.10516897, -0.28936714, -618512.7, -91425.21, 0.0, 10.000075, 9.9982605 
3.2501394e+2, 2.5621e+2, -567338.75, -666430.6, 83299.19, -0.0017594531, -0.35340086, -519964.3, -90850.14, 0.0, 9.999814, 9.998523 
3.2501978e+2, 2.6620948e+2, -285008.78, -297165.34, 17760.78, -0.01727599, -0.3479457, -272314.97, 58802.313, 0.0, 10.000308, 10.000143 
3.2502416e+2, 2.7620962e+2, -64434.395, -173508.14, -35466.973, -0.10676555, -0.363768, -53916.086, 179192.77, 0.00000000010851988, 10.001287, 9.999849 
3.2503068e+2, 2.8620872e+2, -29068.27, -352615.16, -11068.0205, -0.042300947, -0.31329402, -28690.092, 106428.87, 0.00000014604628, 10.001914, 9.997649 
3.250386e+2, 2.9620758e+2, 126887.43, -208780.56, 7575.86, 0.13587363, -0.22021005, 127058.32, 164194.72, 0.0000023415487, 10.002232, 9.997807 
3.2504448e+2, 3.0620474e+2, 268641.06, -8168.893, 70961.5, -0.028174298, -0.3328211, 285772.16, 285772.16, 0.000012312151, 10.002428, 9.998761 
3.2505143e+2, 3.1620294e+2, 315600.8, 74039.7, -91150.01, -0.11237368, -0.40681332, 346135.38, 346135.38, 0.000036624067, 10.00246, 9.999307 
3.3493045e+2, 1.2620373e+2, -2157850.3, -1727386.0, -46656.234, -0.01407626, -0.23184435, -1722387.3, -19204.467, 0.00013853858, 9.996027, 10.001821 
3.3493823e+2, 1.3620435e+2, -1877008.1, -1552506.8, -44948.74, 0.09858356, -0.35940585, -1546395.8, 58779.63, 0.000055370125, 9.997381, 10.001691 
3.349454e+2, 1.4620724e+2, -1752133.8, -1444923.9, -28568.568, 0.17331386, -0.23321886, -1442289.8, 64854.727, 0.000011804474, 9.99756, 10.001667 
3.3494925e+2, 1.56209e+2, -1709105.6, -1408809.4, 2972.4724, -0.13084835, -0.24707358, -1408780.0, 344.4809, 0.00000057438905, 9.997344, 10.001346 
3.3495596e+2, 1.6620924e+2, -1643080.4, -1576335.5, -47865.883, -0.099155776, -0.23036152, -1551356.8, -240233.17, 0.00000000201948, 9.998219, 9.999097 
3.3496448e+2, 1.7620867e+2, -1296191.0, -1331621.3, -77065.83, 0.1493834, -0.2159627, -1234830.4, -21697.342, 0.0, 9.999801, 9.999345 
3.349702e+2, 1.8620884e+2, -1062662.3, -958722.44, -52262.91, 0.12310868, -0.23503006, -936988.3, 178140.4, 0.0, 9.999828, 10.001216 
3.3497426e+2, 1.9620928e+2, -1106673.9, -955205.6, 26659.244, -0.07554651, -0.33644527, -950650.44, 66467.14, 0.0, 9.998967, 10.000981 
3.3497983e+2, 2.0620911e+2, -1027329.94, -1074749.4, 46516.234, -0.13822365, -0.344387, -998829.4, -79712.164, 0.0, 9.99974, 9.999119 
3.349864e+2, 2.1620849e+2, -671121.2, -846973.75, 34452.81, -0.1197688, -0.3414822, -664612.2, 156512.5, 0.0, 10.001489, 9.999167 
3.3499324e+2, 2.2620791e+2, -551189.94, -723166.94, 26815.97, -0.08426871, -0.3182751, -547105.56, 176024.25, 0.0, 10.001567, 9.999309 
3.3500034e+2, 2.3620737e+2, -597655.4, -693927.44, 35679.297, -0.038216833, -0.32690787, -585874.06, 39259.934, 0.0, 10.000572, 9.999315 
3.350073e+2, 2.4620685e+2, -594522.1, -670442.9, 49444.426, -0.0014438826, -0.29347596, -570146.75, -43006.086, 0.0, 10.000041, 9.99906 
3.350142e+2, 2.5620627e+2, -537542.1, -591515.25, 85435.85, 0.023751512, -0.2803488, -474932.03, -45782.063, 0.0, 9.999759, 9.999063 
3.350203e+2, 2.662052e+2, -381590.06, -493301.34, 47112.72, -0.014234351, -0.2765489, -364374.1, -33214.227, 0.0, 10.000289, 9.998805 
3.350257e+2, 2.7620363e+2, -152969.42, -341468.4, 5597.4053, -0.10334626, -0.33402047, -152803.36, 80368.9, 0.000000000044508567, 10.001218, 9.998728 
3.350318e+2, 2.8620225e+2, -8473.759, -305479.75, -5619.144, -0.13808797, -0.30605045, -8367.486, 126820.48, 0.00000018851506, 10.001888, 9.997989 
3.350384e+2, 2.9620114e+2, 135544.28, -184599.44, 25952.318, -0.13372254, -0.23773135, 137634.45, 174837.73, 0.0000023038672, 10.002194, 9.997997 
3.3504575e+2, 3.0619946e+2, 244505.58, -48466.164, 66141.625, -0.16290522, -0.22550485, 258745.64, 258745.64, 0.000011796056, 10.00239, 9.998501 
3.3505502e+2, 3.1619766e+2, 258835.28, -18704.652, -62291.457, -0.04159399, -0.27984154, 272174.9, 272174.9, 0.000034748333, 10.002349, 9.998725 
3.4492669e+2, 1.261969e+2, -1936260.5, -1560291.0, 67978.98, -0.041484293, -0.1695531, -1548377.3, 154876.31, 0.00012841672, 9.99731, 10.002344 
3.4493548e+2, 1.3619752e+2, -2009773.5, -1610279.0, -14078.577, 0.14335205, -0.31180117, -1609783.4, -4540.163, 0.00005393956, 9.996431, 10.001768 
3.4494257e+2, 1.4619976e+2, -1873519.6, -1519962.8, 1308.5425, 0.17742385, -0.24448569, -1519957.9, -12739.577, 0.00001321429, 9.996813, 10.001503 
3.449465e+2, 1.5620106e+2, -1594995.4, -1367918.0, -36858.527, -0.17525728, -0.28577298, -1362085.1, 47118.246, 0.00000089811203, 9.99819, 10.001216 
3.4495428e+2, 1.662017e+2, -1522397.8, -1462638.0, -15729.607, -0.110473804, -0.25192946, -1458750.6, -147552.19, 0.0000000015154811, 9.998798, 9.9995985 
3.4496436e+2, 1.7620204e+2, -1394650.6, -1323090.0, 43789.344, 0.2078288, -0.19878094, -1302321.8, -89123.51, 0.0, 9.998893, 9.999836 
3.4497038e+2, 1.8620254e+2, -1157430.6, -991339.8, 3626.1213, 0.19544561, -0.21384045, -991260.7, 123929.69, 0.0, 9.999118, 10.001336 
3.4497398e+2, 1.9620289e+2, -1040782.44, -912505.8, -59338.777, -0.017261503, -0.3328897, -889266.7, 127913.34, 0.0, 9.999363, 10.00109 
3.4497997e+2, 2.0620298e+2, -1011702.25, -1055254.5, -321.5545, -0.09458782, -0.3264431, -1011699.9, -92522.234, 0.0, 9.999786, 9.999232 
3.449875e+2, 2.1620278e+2, -844403.56, -923495.0, 15412.324, -0.088595286, -0.29043233, -841506.4, -20324.826, 0.0, 10.000257, 9.999239 
3.449945e+2, 2.2620203e+2, -721433.56, -814115.56, -15913.924, -0.059494235, -0.28482565, -718777.2, 4412.4097, 0.0, 10.000442, 9.999225 
3.4500107e+2, 2.362009e+2, -617473.6, -707392.75, -28715.914, -0.011581806, -0.34118202, -609085.56, 16115.392, 0.0, 10.000454, 9.999282 
3.4500796e+2, 2.4620081e+2, -443383.66, -543067.6, 848.98956, 0.022524547, -0.29044092, -443376.4, 83826.34, 0.0, 10.00085, 9.999543 
3.4501505e+2, 2.562012e+2, -261031.66, -423373.13, 373.7999, 0.04758485, -0.22326143, -261030.8, 168169.45, 0.0, 10.001502, 9.999383 
3.4502146e+2, 2.6619986e+2, -201400.06, -480749.44, 8839.049, -0.0018483135, -0.22503853, -201120.66, 130092.9, 0.0, 10.001847, 9.998142 
3.4502736e+2, 2.7619722e+2, -75905.62, -371913.0, 2054.316, -0.097612746, -0.3207763, -75891.36, 157347.13, 0.0, 10.002037, 9.99813 
3.4503356e+2, 2.8619537e+2, 34094.008, -290874.4, -7623.0425, -0.16009884, -0.30703592, 34272.73, 169531.92, 0.00000016974016, 10.0022335, 9.997913 
3.4504008e+2, 2.9619405e+2, 161877.4, -185767.98, -27312.006, -0.19259459, -0.2510897, 164010.03, 201286.38, 0.0000020169734, 10.002452, 9.997863 
3.450481e+2, 3.0619317e+2, 245753.98, -91641.87, 11256.684, -0.1690829, -0.13039581, 246129.14, 246129.14, 0.0000103175025, 10.002562, 9.998131 
3.450579e+2, 3.1619108e+2, 274251.88, -17341.732, -138615.22, 0.013804842, -0.18591084, 329628.84, 329628.84, 0.00003196276, 10.002456, 9.998685 
3.5492346e+2, 1.2619086e+2, -1923762.8, -1558604.1, 26699.68, -0.15535392, -0.116751306, -1556662.3, 146653.0, 0.00012227354, 9.9974, 10.002317 
3.5493037e+2, 1.3619293e+2, -2022397.8, -1642307.8, -32429.969, -0.03399887, -0.09202959, -1639560.6, -34270.99, 0.00005490219, 9.996464, 10.001529 
3.5493812e+2, 1.4619364e+2, -1933359.8, -1652593.8, 43737.637, 0.023222191, -0.119762816, -1645938.1, -138658.2, 0.000015641235, 9.996844, 10.000583 
3.5494548e+2, 1.5619227e+2, -1631336.4, -1455318.4, 16542.719, -0.12204387, -0.3323406, -1453777.1, -44485.01, 0.0000017221555, 9.9982395, 10.000594 
3.549535e+2, 1.661931e+2, -1378767.0, -1164388.3, -23005.428, -0.09395384, -0.3634364, -1161947.3, 149333.78, 0.000000007086625, 9.998794, 10.001648 
3.549615e+2, 1.7619537e+2, -1279796.9, -1088663.4, 56356.617, 0.015473897, -0.3226606, -1073283.9, 139971.11, 0.0, 9.998904, 10.001442 
3.5496795e+2, 1.8619622e+2, -1287641.0, -1247643.1, 7458.0327, 0.02426974, -0.2769863, -1246297.8, -131051.3, 0.0, 9.999061, 9.999603 
3.549736e+2, 1.9619603e+2, -1146037.8, -1123071.0, -41217.35, -0.01044549, -0.28039107, -1091767.3, -74516.46, 0.0, 9.999329, 9.99966 
3.5498086e+2, 2.0619598e+2, -968007.94, -947315.75, 9897.9375, 0.000041132433, -0.26644012, -943343.7, -24092.414, 0.0, 9.99971, 10.000011 
3.549891e+2, 2.1619597e+2, -809124.75, -832140.94, 39010.258, 0.027794473, -0.29144853, -779960.56, 41289.63, 0.0, 10.000177, 9.999905 
3.5499543e+2, 2.2619523e+2, -748446.6, -854140.9, -21671.555, -0.021748371, -0.30028424, -744175.7, -20917.324, 0.0, 10.000371, 9.998984 
3.5500062e+2, 2.3619397e+2, -642673.7, -743426.9, -18643.098, -0.11964499, -0.34650597, -639334.7, -14061.251, 0.0, 10.000382, 9.999068 
3.550077e+2, 2.4619405e+2, -444453.66, -532419.56, 17275.17, -0.10164366, -0.27513924, -441182.72, 86090.695, 0.0, 10.000797, 9.99964 
3.5501608e+2, 2.5619483e+2, -266267.44, -414302.94, 27498.137, -0.012489274, -0.18245055, -261324.61, 167940.58, 0.0, 10.001423, 9.99948 
3.5502294e+2, 2.6619345e+2, -206360.58, -483025.9, 10832.254, -0.05040386, -0.190657, -205937.11, 125340.945, 0.0, 10.001812, 9.998142 
3.5502884e+2, 2.7619055e+2, -90885.805, -388907.7, 18727.879, -0.16861616, -0.31587723, -89713.55, 143592.45, 0.0, 10.001978, 9.998039 
3.5503575e+2, 2.861882e+2, -10032.942, -378842.97, -6754.6753, -0.18332297, -0.3142446, -9909.273, 125422.81, 0.00000011654808, 10.002217, 9.997315 
3.5504335e+2, 2.9618615e+2, 116027.77, -269528.6, -11426.814, -0.1304464, -0.27425018, 116366.14, 153722.78, 0.0000016052002, 10.002401, 9.997312 
3.550513e+2, 3.0618584e+2, 219581.88, -141467.45, 5404.3945, -0.12268321, -0.05483079, 219662.77, 219662.77, 0.000008325357, 10.0025425, 9.997799 
3.5505942e+2, 3.1618375e+2, 297581.7, 53734.637, -107805.55, -0.12404065, -0.08095389, 338407.6, 338407.6, 0.000028550077, 10.002366, 9.999215 
3.6492124e+2, 1.261834e+2, -2057412.8, -1661550.3, -36226.953, -0.07016419, -0.074937984, -1658262.3, 45126.977, 0.000118926524, 9.996651, 10.001971 
3.6492717e+2, 1.3618493e+2, -1832150.3, -1584599.3, -150435.78, -0.05823411, -0.06724264, -1513563.8, 91806.1, 0.000056465244, 9.997921, 10.001211 
3.6493513e+2, 1.461852e+2, -1749397.1, -1536774.0, -319.55267, -0.011578606, -0.13870126, -1536773.5, -29409.602, 0.00001794202, 9.99799, 10.000828 
3.6494455e+2, 1.5618436e+2, -1760486.1, -1485260.9, 45887.2, 0.018704915, -0.32358006, -1477811.9, -68442.22, 0.000002788093, 9.997215, 10.000885 
3.6495262e+2, 1.6618547e+2, -1538240.8, -1197420.4, -6457.123, 0.009359997, -0.359708, -1197298.0, 114057.01, 0.00000008230677, 9.997517, 10.002038 
3.6495927e+2, 1.7618781e+2, -1316431.6, -1068513.5, -72947.07, -0.076544575, -0.34914762, -1048642.4, 164685.25, 0.0, 9.998492, 10.00178 
3.6496618e+2, 1.8618877e+2, -1266386.5, -1253383.6, -86764.93, -0.06284654, -0.3019881, -1172876.9, -57557.535, 0.0, 9.999275, 9.999462 
3.6497363e+2, 1.9618864e+2, -1074673.3, -1098642.4, -29518.295, 0.03809113, -0.28085363, -1054799.4, -37474.688, 0.0, 9.999867, 9.999569 
3.649815e+2, 2.0618881e+2, -897044.56, -887406.75, 49654.848, 0.07940585, -0.25624496, -842337.56, 76986.14, 0.0, 10.000093, 10.0002365 
3.6498964e+2, 2.16189e+2, -812191.44, -809181.6, 19907.535, 0.07258229, -0.2811157, -790722.2, 30597.846, 0.0, 10.000061, 10.000117 
3.649961e+2, 2.261885e+2, -719871.5, -826506.7, -22190.166, 0.0052921204, -0.28575855, -715438.1, 7887.8555, 0.0, 10.000502, 9.999115 
3.6500165e+2, 2.3618743e+2, -514196.47, -670829.75, -3929.4478, -0.09005549, -0.32281962, -514097.97, 111241.01, 0.0, 10.001211, 9.99917 
3.6500886e+2, 2.461874e+2, -367001.56, -507158.66, 43354.594, -0.09410133, -0.26063004, -354674.88, 172664.69, 0.0, 10.001367, 9.99955 
3.6501706e+2, 2.561879e+2, -313554.34, -447809.8, 24446.908, -0.039895665, -0.18592356, -309241.3, 120092.33, 0.0, 10.001139, 9.999392 
3.6502448e+2, 2.6618648e+2, -280465.94, -544831.7, 8230.389, -0.05575525, -0.18415685, -280209.97, 51138.09, 0.0, 10.00142, 9.997905 
3.650314e+2, 2.7618366e+2, -95025.234, -410695.0, -16309.086, -0.10823161, -0.27602714, -94184.87, 139192.13, 0.0, 10.002039, 9.997857 
3.650387e+2, 2.861812e+2, 59165.094, -328349.4, 1752.8627, -0.1259044, -0.28191555, 59173.023, 194575.5, 0.000000055764154, 10.002599, 9.997486 
3.650462e+2, 2.9617903e+2, 224313.58, -203415.88, 34849.945, -0.11373049, -0.27745718, 227134.42, 264560.16, 0.0000011855267, 10.003084, 9.997436 
3.6505437e+2, 3.0617806e+2, 310209.03, -169773.11, 67568.945, -0.10825714, -0.094672576, 319539.6, 319539.6, 0.0000067298934, 10.00349, 9.997147 
3.650626e+2, 3.161755e+2, 487508.3, 146705.42, -90110.914, -0.09944067, -0.10122815, 509867.4, 509867.4, 0.000025648078, 10.003674, 9.999231 
3.7491933e+2, 1.2617481e+2, -2095822.0, -1756133.1, -16370.071, 0.02631428, -0.014087899, -1755346.1, -51872.797, 0.0001191897, 9.996707, 10.001292 
3.7492582e+2, 1.3617355e+2, -1849332.3, -1637516.0, -104773.72, -0.017446052, -0.22808492, -1594447.5, 11036.51, 0.00005856906, 9.997988, 10.000815 
3.7493333e+2, 1.4617442e+2, -1643995.6, -1316970.3, -40638.74, -0.01880864, -0.30740604, -1311995.9, 195475.17, 0.000020069963, 9.997989, 10.002336 
3.7494346e+2, 1.5617733e+2, -1672410.9, -1309952.6, 33434.824, 0.16178773, -0.26588467, -1306894.3, 102541.9, 0.0000038584762, 9.997245, 10.002074 
3.7495142e+2, 1.6617884e+2, -1637465.5, -1398050.5, 23001.432, 0.11534188, -0.24006276, -1395860.6, -84440.695, 0.00000020238203, 9.997496, 10.000669 
3.7495723e+2, 1.7617942e+2, -1389174.1, -1222425.4, -28942.047, -0.14577447, -0.2709792, -1217544.9, -4128.918, 0.0, 9.9985, 10.000721 
3.7496483e+2, 1.8618011e+2, -1166237.5, -1034663.56, -71564.27, -0.14487393, -0.2869946, -1003242.7, 112166.59, 0.0, 9.999232, 10.000981 
3.7497377e+2, 1.9618075e+2, -991331.44, -913674.8, -1146.5377, 0.050541278, -0.3423419, -913657.9, 103743.95, 0.0, 9.999821, 10.000857 
3.7498173e+2, 2.0618138e+2, -934771.3, -951846.7, 40434.977, 0.07367319, -0.30401403, -901982.5, 17413.031, 0.0, 10.000031, 9.9998255 
3.749888e+2, 2.1618189e+2, -844378.1, -855075.94, 28361.361, -0.031503677, -0.25656623, -820865.7, 525.424, 0.0, 9.999973, 9.999843 
3.7499624e+2, 2.2618179e+2, -695842.5, -758531.7, -3998.286, -0.04508041, -0.23534223, -695588.5, 27803.691, 0.0, 10.000418, 9.999624 
3.7500393e+2, 2.3618121e+2, -492373.13, -611205.06, 25130.656, 0.0010470543, -0.27880478, -487277.03, 138120.9, 0.0, 10.001143, 9.999614 
3.7501106e+2, 2.4618088e+2, -396783.78, -551960.7, 28964.592, -0.025552845, -0.25223368, -391553.7, 135847.5, 0.0, 10.001297, 9.999275 
3.7501767e+2, 2.5618055e+2, -346918.47, -501077.4, 28116.799, -0.10807491, -0.23178002, -341950.4, 87454.36, 0.0, 10.001067, 9.999062 
3.7502575e+2, 2.6617894e+2, -321649.03, -622494.1, 24833.918, -0.08512897, -0.20348267, -319612.84, 11810.524, 0.0, 10.001389, 9.997385 
3.7503472e+2, 2.7617642e+2, -127457.164, -463145.34, 15041.069, -0.0007786466, -0.21415523, -126784.58, 106667.69, 0.0, 10.001972, 9.99753 
3.7504202e+2, 2.8617448e+2, 120428.914, -188191.4, 13535.951, -0.07070635, -0.21214545, 121021.46, 256491.92, 0.00000003400916, 10.002544, 9.998476 
3.7504834e+2, 2.9617274e+2, 267575.53, -98014.44, 61442.168, -0.23011796, -0.2565299, 277625.4, 315108.72, 0.000000899484, 10.003011, 9.9982 
3.7505698e+2, 3.061698e+2, 229123.25, -322920.84, 69597.38, -0.20984161, -0.2462905, 237762.34, 237762.34, 0.000005766145, 10.003433, 9.996121 
3.7506685e+2, 3.1616604e+2, 437941.28, 65113.44, -50182.38, -0.08141457, -0.2642212, 444577.66, 444577.66, 0.000023919054, 10.003587, 9.998711 
3.8491654e+2, 1.2616509e+2, -2104740.0, -1777513.4, 37319.21, 0.083371654, -0.07706284, -1773311.1, -69743.85, 0.00012316402, 9.99673, 10.001136 
3.849249e+2, 1.3616423e+2, -1965872.1, -1693994.4, -28829.104, 0.13894466, -0.24949765, -1690971.0, -85394.63, 0.000061385945, 9.997183, 10.000827 
3.849317e+2, 1.4616531e+2, -1700614.4, -1340625.9, -35838.355, 0.045433152, -0.3090645, -1337092.6, 170470.48, 0.000022093489, 9.997583, 10.002367 
3.8494083e+2, 1.5616906e+2, -1601138.8, -1270909.9, -99084.266, 0.16064714, -0.18752947, -1243461.4, 166060.34, 0.000004863891, 9.997724, 10.002107 
3.8494924e+2, 1.661707e+2, -1596790.0, -1373305.6, -45090.023, 0.14454421, -0.15281957, -1364551.3, -53046.082, 0.00000029520132, 9.997733, 10.000734 
3.8495627e+2, 1.7617096e+2, -1507397.9, -1266642.0, 445.7639, -0.045460567, -0.225416, -1266641.1, -53136.29, 0.0, 9.997624, 10.000843 
3.849641e+2, 1.861719e+2, -1329341.5, -1074968.3, -32434.248, -0.07193577, -0.24001153, -1070897.9, 44597.29, 0.0, 9.997942, 10.001328 
3.8497287e+2, 1.961731e+2, -1159659.5, -963627.1, -68688.39, 0.046555873, -0.27341905, -941955.1, 75526.24, 0.0, 9.998516, 10.001149 
3.8498095e+2, 2.0617372e+2, -1047869.1, -1003846.6, -30889.447, 0.03855941, -0.24993254, -987928.3, -68454.0, 0.0, 9.999239, 9.999853 
3.8498837e+2, 2.1617387e+2, -836136.0, -852088.9, -23790.934, -0.06680165, -0.24046554, -819019.94, 2452.6946, 0.0, 10.000017, 9.999851 
3.8499668e+2, 2.2617377e+2, -705954.1, -751906.2, -47707.1, -0.033811383, -0.22553898, -675978.6, 47494.676, 0.0, 10.00031, 9.999714 
3.850055e+2, 2.361734e+2, -611381.2, -660895.5, -71250.78, 0.089352064, -0.2553577, -560709.0, 64767.36, 0.0, 10.000311, 9.999666 
3.850126e+2, 2.4617293e+2, -509010.22, -623360.2, -71909.4, 0.03968016, -0.2376015, -474316.06, 53164.99, 0.0, 10.0006075, 9.999106 
3.8501856e+2, 2.561722e+2, -354702.97, -521250.53, -74716.31, -0.12392912, -0.23897009, -326097.13, 103391.49, 0.0, 10.001085, 9.998909 
3.850271e+2, 2.6617074e+2, -234637.27, -554233.2, -2173.8333, -0.1105005, -0.19999647, -234622.48, 96882.96, 0.0, 10.001858, 9.997634 
3.8503727e+2, 2.761688e+2, 7092.1367, -370491.97, 23601.916, 0.02275495, -0.18214259, 8561.719, 242090.13, 0.0, 10.002776, 9.99778 
3.8504496e+2, 2.861671e+2, 150242.55, -173080.8, -9014.996, -0.037033822, -0.16868006, 150493.72, 286037.3, 0.000000026095549, 10.002749, 9.998482 
3.8505107e+2, 2.9616538e+2, 132990.45, -165715.66, -38594.695, -0.20520751, -0.21019383, 137896.55, 175451.83, 0.00000066980994, 10.00211, 9.998165 
3.8506022e+2, 3.0616125e+2, 198285.38, -386049.66, 32704.35, -0.22357023, -0.29576144, 200110.1, 200110.1, 0.000005131084, 10.003417, 9.995692 
3.850714e+2, 3.161574e+2, 729368.4, 155985.6, -69055.47, -0.08517854, -0.28181902, 737567.8, 737567.8, 0.000023468077, 10.0058, 9.998269 
3.949124e+2, 1.261543e+2, -2084407.8, -1731916.5, 14172.375, -0.05019003, -0.26416656, -1731347.5, -27676.594, 0.0001272644, 9.996739, 10.001439 
3.9492425e+2, 1.3615696e+2, -1937952.8, -1633917.9, -2149.0366, 0.33471942, -0.14220437, -1633902.8, -28255.729, 0.00006380605, 9.9971895, 10.001233 
3.9493e+2, 1.4615794e+2, -1815345.1, -1579113.8, -35601.02, 0.09361606, -0.14253113, -1573865.1, -66225.195, 0.000023677207, 9.997573, 10.000741 
3.9493638e+2, 1.561595e+2, -1680511.6, -1450170.4, -86988.65, -0.082978256, -0.07955403, -1421010.5, -11383.48, 0.000005569423, 9.997778, 10.000854 
3.9494586e+2, 1.6616096e+2, -1485134.4, -1135237.9, -62187.734, 0.010196518, -0.099901885, -1124513.8, 187098.0, 0.00000035120044, 9.997713, 10.002377 
3.949561e+2, 1.7616236e+2, -1414578.4, -1068075.9, 6153.514, 0.15782663, -0.21846211, -1067966.6, 145628.05, 0.0, 9.997603, 10.002215 
3.949639e+2, 1.8616408e+2, -1399066.1, -1206996.1, -17405.496, 0.09674632, -0.16832231, -1205431.6, -89854.03, 0.0, 9.997885, 10.000452 
3.949706e+2, 1.961658e+2, -1217020.5, -1067157.6, -39297.645, -0.05282669, -0.06227302, -1057478.0, -39915.625, 0.0, 9.998453, 10.000467 
3.9497897e+2, 2.0616592e+2, -1025955.06, -936825.5, -10295.364, -0.09865504, -0.087526806, -935651.75, -16092.394, 0.0, 9.999148, 10.000357 
3.9498815e+2, 2.1616496e+2, -824181.56, -798081.9, 10770.29, -0.10600024, -0.23921761, -794211.44, 27353.215, 0.0, 9.999898, 10.000275 
3.949972e+2, 2.2616442e+2, -746246.44, -816606.94, -54952.773, -0.02584969, -0.2664596, -716177.5, 7391.644, 0.0, 10.000226, 9.999313 
3.9500612e+2, 2.3616396e+2, -649116.25, -719065.75, -61221.863, 0.10469575, -0.2627845, -613583.25, 11991.581, 0.0, 10.000223, 9.99931 
3.950133e+2, 2.4616346e+2, -521472.6, -637334.9, -60171.05, 0.031788703, -0.22670653, -495877.88, 31702.19, 0.0, 10.000556, 9.999038 
3.9501938e+2, 2.5616282e+2, -358576.72, -514415.75, -46822.168, -0.16902572, -0.21593894, -345590.97, 83995.27, 0.0, 10.001016, 9.998993 
3.9502823e+2, 2.6616195e+2, -170691.52, -406487.5, 27065.041, -0.1976038, -0.18006136, -167624.84, 163969.64, 0.0, 10.001794, 9.99868 
3.950388e+2, 2.761608e+2, 53608.188, -258716.92, 60285.758, -0.118349776, -0.18163188, 64840.723, 298446.44, 0.0, 10.002706, 9.998586 
3.950472e+2, 2.861591e+2, 79429.29, -306472.28, -40910.56, -0.10456459, -0.15230276, 83718.664, 219340.39, 0.000000010243951, 10.0027, 9.997585 
3.9505413e+2, 2.96157e+2, 65271.5, -284840.34, -38143.18, -0.13044842, -0.13796617, 69378.85, 107019.78, 0.0000005130985, 10.002022, 9.997388 
3.950638e+2, 3.061524e+2, 206562.25, -357989.3, 121506.086, -0.22421238, -0.25225165, 231602.83, 231602.83, 0.0000059963604, 10.003369, 9.995907 
3.9507574e+2, 3.161494e+2, 687125.9, 99441.555, 30645.092, -0.2671056, -0.17008345, 688719.56, 688719.56, 0.000027743677, 10.005674, 9.997935 
4.0490937e+2, 1.2614596e+2, -2090247.6, -1728105.3, 76450.516, -0.010291567, -0.25763088, -1712627.6, -8873.287, 0.0001282802, 9.996651, 10.0015135 
4.04922e+2, 1.3614942e+2, -1837741.4, -1550604.3, 39279.68, 0.37669647, -0.09764697, -1545327.8, 60393.996, 0.00006493345, 9.997718, 10.001552 
4.0492755e+2, 1.4615044e+2, -1769672.9, -1578345.9, 54827.453, 0.07756322, -0.09574487, -1563748.0, -56033.715, 0.00002457309, 9.997985, 10.000543 
4.04934e+2, 1.5615132e+2, -1739843.5, -1504775.4, 89931.555, -0.079541646, -0.08263112, -1474316.4, -64607.03, 0.000005781208, 9.997479, 10.000622 
4.04944e+2, 1.6615276e+2, -1505908.1, -1181533.6, 101885.78, 0.057541188, -0.07541782, -1152186.5, 159509.78, 0.0000003430959, 9.997729, 10.002047 
4.0495494e+2, 1.7615463e+2, -1310393.1, -1053043.9, 3337.4417, 0.2410584, -0.115831524, -1053000.6, 160676.67, 0.0, 9.998467, 10.001902 
4.0496308e+2, 1.8615626e+2, -1203507.8, -1120479.0, -16119.183, 0.16151343, -0.056067836, -1117459.4, -1798.3151, 0.0, 9.999262, 10.000383 
4.0496996e+2, 1.961575e+2, -992205.7, -965030.9, 8228.755, -0.033689797, 0.010185883, -962733.4, 54915.69, 0.0, 10.000022, 10.000417 
4.0497857e+2, 2.0615749e+2, -916555.5, -859531.8, 35826.023, -0.07881516, -0.037805583, -842256.9, 77389.56, 0.0, 9.999799, 10.00057 
4.049881e+2, 2.1615659e+2, -952435.8, -841449.1, 19496.904, -0.048131973, -0.20478946, -838123.75, -16472.914, 0.0, 9.998937, 10.000441 
4.0499726e+2, 2.2615625e+2, -843332.8, -852808.06, 8153.768, -0.0052060112, -0.22106566, -838640.2, -114987.76, 0.0, 9.999517, 9.999405 
4.050061e+2, 2.3615617e+2, -528499.5, -659806.2, 22305.303, 0.045222133, -0.18915224, -524813.94, 100839.805, 0.0, 10.0010395, 9.999327 
4.0501395e+2, 2.4615528e+2, -380285.7, -608402.56, 24679.828, -0.008967435, -0.1722086, -377646.13, 150016.23, 0.0, 10.001695, 9.998689 
4.050212e+2, 2.5615388e+2, -259983.77, -490276.16, 1114.3866, -0.12565449, -0.20470361, -259978.38, 169697.52, 0.0, 10.001813, 9.998767 
4.0503022e+2, 2.6615292e+2, -181909.97, -383604.88, 44672.77, -0.16326275, -0.18318269, -172458.44, 159225.6, 0.0, 10.001589, 9.998938 
4.050404e+2, 2.7615207e+2, -162231.83, -344549.25, 9642.894, -0.14716636, -0.18279076, -161723.22, 71968.06, 0.0, 10.001138, 9.998752 
4.0504953e+2, 2.861503e+2, -46273.77, -410769.88, -64433.234, -0.09987032, -0.14320202, -35218.965, 100489.39, 0.0000000008315615, 10.002015, 9.997201 
4.0505815e+2, 2.9614797e+2, 296884.44, -200596.16, -40995.188, -0.013110966, -0.12189432, 300240.03, 337972.2, 0.0000007104038, 10.00372, 9.997148 
4.05068e+2, 3.061436e+2, 277939.78, -258054.67, 169390.31, -0.14008206, -0.23349193, 326984.5, 326984.5, 0.000009515816, 10.003571, 9.996501 
4.050796e+2, 3.161412e+2, 188099.89, -124312.1, 70297.86, -0.26421872, -0.1510504, 203189.27, 203189.27, 0.0000394484, 10.002148, 9.998104 
4.1490704e+2, 1.2614003e+2, -2088099.9, -1740522.0, 50216.074, 0.041801825, -0.064909086, -1733412.5, -29594.516, 0.0001259659, 9.996715, 10.001396 
4.1491783e+2, 1.3614169e+2, -1800589.9, -1497895.1, 84700.23, 0.16137591, -0.10572106, -1475806.1, 129993.32, 0.00006410072, 9.997806, 10.001873 
4.1492397e+2, 1.4614289e+2, -1679340.4, -1391848.5, 31681.83, -0.10366347, -0.17498331, -1388398.5, 119387.37, 0.00002430965, 9.998, 10.001813 
4.149335e+2, 1.5614456e+2, -1681174.8, -1376757.4, 87181.34, 0.102869324, -0.20507409, -1353557.8, 56209.945, 0.0000053776803, 9.997462, 10.001505 
4.1494352e+2, 1.6614616e+2, -1681323.5, -1536907.3, 123543.66, 0.21676676, -0.08495361, -1466017.4, -154259.69, 0.0000002359893, 9.99769, 9.999628 
4.1495243e+2, 1.7614785e+2, -1451636.9, -1349555.5, 40357.586, 0.11856236, 0.09317317, -1335527.9, -121776.09, 0.0, 9.998479, 9.999861 
4.1496128e+2, 1.8614848e+2, -1154364.8, -1010385.7, 5129.4805, 0.035921983, 0.10070076, -1010203.2, 105542.25, 0.0, 9.999231, 10.001152 
4.149707e+2, 1.9614828e+2, -951703.2, -866979.3, 36644.254, 0.019706976, -0.055785496, -853329.4, 164411.17, 0.0, 9.99997, 10.001109 
4.149796e+2, 2.0614848e+2, -938410.25, -891007.9, -4597.9487, 0.029051788, -0.10348171, -890566.0, 29169.012, 0.0, 9.99973, 10.000394 
4.1498792e+2, 2.1614881e+2, -970515.56, -856796.56, 2175.351, 0.024584848, -0.12984005, -856754.94, -35024.48, 0.0, 9.99884, 10.000382 
4.1499645e+2, 2.261494e+2, -819225.6, -780950.4, 59052.684, -0.05030511, -0.08224542, -738011.7, -14289.339, 0.0, 9.999421, 9.999946 
4.1500515e+2, 2.3615003e+2, -511222.16, -604197.06, 81915.65, -0.16996938, -0.034527924, -463522.25, 162190.98, 0.0, 10.000955, 9.999749 
4.150143e+2, 2.4614845e+2, -429446.94, -700305.25, 21536.752, -0.1659731, -0.072273135, -427745.2, 99982.41, 0.0, 10.001649, 9.998078 
4.150236e+2, 2.5614533e+2, -310479.9, -581709.6, 10342.232, -0.083143964, -0.21529895, -310086.13, 119672.26, 0.0, 10.001749, 9.998171 
4.1503274e+2, 2.6614365e+2, -219690.39, -453621.72, 21127.531, -0.085133485, -0.21660902, -217797.56, 113977.38, 0.0, 10.001558, 9.998467 
4.1504171e+2, 2.7614272e+2, -200906.61, -409216.6, 10467.728, -0.15196896, -0.17467657, -200381.92, 33401.92, 0.0, 10.001074, 9.998336 
4.1505173e+2, 2.8614083e+2, -37374.086, -394292.78, -7707.632, -0.10223019, -0.13841736, -37207.72, 98595.04, 0.00000000001177225, 10.002013, 9.997319 
4.1506264e+2, 2.9613817e+2, 303827.16, -173207.44, 17640.367, 0.039885998, -0.16149966, 304478.6, 342307.88, 0.0000013022876, 10.003657, 9.99737 
4.1507256e+2, 3.0613488e+2, 346128.0, -107612.22, 111979.17, -0.06126258, -0.23247343, 372258.63, 372258.63, 0.000014575742, 10.003544, 9.997542 
4.150824e+2, 3.1613308e+2, 225604.34, -18940.041, 23042.404, -0.238416, -0.19601214, 227756.6, 227756.6, 0.000055427667, 10.002047, 9.998869 
4.249047e+2, 1.2613262e+2, -2182949.5, -1764605.9, 16001.956, 0.18281041, 0.037069198, -1763994.8, -60100.68, 0.000120138786, 9.9959545, 10.0016 
4.2491463e+2, 1.3613342e+2, -1895182.1, -1522110.0, 82438.44, 0.107302815, -0.119852565, -1504705.4, 101176.266, 0.00006079175, 9.997043, 10.002082 
4.2492113e+2, 1.4613473e+2, -1717187.8, -1423008.4, -62508.457, -0.17540273, -0.17945394, -1410277.3, 97588.99, 0.00002257458, 9.997786, 10.001707 
4.2493173e+2, 1.561365e+2, -1632686.9, -1368635.4, -133357.55, 0.16633025, -0.19139661, -1313004.4, 96843.61, 0.0000044461326, 9.997857, 10.001374 
4.2494205e+2, 1.661381e+2, -1596204.5, -1530517.6, 16040.819, 0.2704653, -0.04849358, -1526809.6, -214971.47, 0.00000009724189, 9.9984255, 9.999316 
4.2495078e+2, 1.7613961e+2, -1343300.6, -1330321.5, 71998.305, 0.06883569, 0.14556298, -1264520.9, -50687.43, 0.0, 9.999365, 9.999567 
4.2496008e+2, 1.8613966e+2, -1185491.5, -1043295.4, 35213.496, 0.006613107, 0.116017476, -1035052.9, 80779.54, 0.0, 9.999093, 10.000992 
4.249703e+2, 1.9613856e+2, -1250746.8, -1033844.06, -14921.227, 0.08891049, -0.1119268, -1032822.44, -14986.525, 0.0, 9.998008, 10.000911 
4.2497963e+2, 2.0613886e+2, -1092753.8, -985435.1, -48157.887, 0.1096967, -0.1316972, -966993.8, -47163.64, 0.0, 9.998761, 10.000206 
4.24988e+2, 2.1613996e+2, -716643.7, -755784.44, -58462.52, 0.06296023, -0.0630028, -674562.9, 147256.83, 0.0, 10.000676, 10.000191 
4.2499673e+2, 2.2614034e+2, -583270.44, -667975.56, -18702.047, -0.04062967, -0.026430182, -579325.0, 144488.36, 0.0, 10.001048, 9.999935 
4.250057e+2, 2.3614019e+2, -595205.3, -643431.2, -55575.05, -0.1771354, -0.053107128, -558737.56, 67072.87, 0.0, 10.000378, 9.999756 
4.2501536e+2, 2.461386e+2, -611204.6, -771972.25, -91756.08, -0.15389079, -0.10048993, -569601.8, -41777.67, 0.0, 10.000333, 9.998221 
4.2502537e+2, 2.5613588e+2, -451901.88, -638743.8, -62864.766, -0.023977714, -0.21470213, -432719.75, -2869.4155, 0.0, 10.000727, 9.998274 
4.2503494e+2, 2.6613408e+2, -258392.38, -494142.03, -6305.5903, -0.008881367, -0.21851404, -258223.84, 73643.99, 0.0, 10.001388, 9.998278 
4.2504412e+2, 2.761328e+2, -44031.16, -348234.9, -7026.146, -0.06813599, -0.1960426, -43868.965, 190011.97, 0.0, 10.002218, 9.998206 
4.250542e+2, 2.8613093e+2, 83571.29, -318880.72, 28785.004, -0.089639954, -0.15902868, 85619.68, 221519.45, 0.0000000012455732, 10.002785, 9.9974575 
4.2506504e+2, 2.9612848e+2, 242315.73, -191140.45, 29046.797, -0.055206314, -0.17293124, 244253.56, 282178.2, 0.0000019825331, 10.003187, 9.997474 
4.25076e+2, 3.0612555e+2, 343104.38, -123258.29, 39678.258, -0.062040575, -0.20579441, 346456.13, 346456.13, 0.000019679212, 10.003583, 9.997419 
4.2508674e+2, 3.161238e+2, 495706.7, 98436.875, -187296.36, -0.09506162, -0.14945127, 570084.2, 570084.2, 0.00007104561, 10.003956, 9.998759 
4.3490174e+2, 1.2612386e+2, -2153693.3, -1691551.8, -20454.271, 0.24412547, 0.049349993, -1690648.3, 13333.468, 0.000112459136, 9.995935, 10.002099 
4.3491238e+2, 1.3612466e+2, -1887669.3, -1503269.4, 136321.83, 0.1538057, -0.14051831, -1459833.1, 146134.8, 0.000055857796, 9.997043, 10.002208 
4.3491873e+2, 1.4612594e+2, -1829588.6, -1656593.1, -62086.35, -0.21649261, -0.116039515, -1636617.5, -128661.21, 0.000019900395, 9.997779, 10.000112 
4.349283e+2, 1.5612708e+2, -1706760.6, -1536365.1, -119837.945, 0.0112514505, -0.036887698, -1474526.1, -64575.05, 0.0000034951138, 9.997907, 10.000204 
4.3493924e+2, 1.6612841e+2, -1466707.0, -1257245.8, 41975.496, 0.12631212, 0.027019652, -1249147.1, 62792.0, 0.000000032016867, 9.998412, 10.001195 
4.3494982e+2, 1.761299e+2, -1237242.6, -1106758.3, 107716.73, 0.015507534, 0.03416893, -1046066.25, 167856.2, 0.0, 9.999352, 10.001107 
4.3495923e+2, 1.8612978e+2, -1274161.3, -1213072.1, -12950.363, -0.0046747513, -0.019467609, -1210440.1, -94517.7, 0.0, 9.999034, 9.999855 
4.3496856e+2, 1.9612841e+2, -1331195.6, -1186280.0, -36166.625, 0.0929123, -0.16089502, -1177755.4, -159820.55, 0.0, 9.99795, 9.999891 
4.349783e+2, 2.0612875e+2, -1123351.4, -1026106.0, 16983.217, 0.087324776, -0.11831062, -1023225.3, -103294.23, 0.0, 9.998666, 9.99997 
4.3498814e+2, 2.1613005e+2, -747315.94, -801499.56, 10681.014, -0.012271417, -0.005891442, -745286.44, 76631.76, 0.0, 10.0006, 9.999911 
4.349978e+2, 2.2612917e+2, -642839.1, -767123.25, -52026.918, -0.052910365, -0.047316782, -623935.3, 99989.15, 0.0, 10.000942, 9.999306 
4.3500748e+2, 2.3612675e+2, -639543.0, -714230.5, -69412.63, -0.054324485, -0.24201666, -598066.25, 27878.39, 0.0, 10.000285, 9.999313 
4.3501693e+2, 2.4612579e+2, -561021.25, -655865.9, -84438.67, -0.043240856, -0.25200132, -511599.56, 16351.943, 0.0, 10.00028, 9.999043 
4.3502623e+2, 2.5612563e+2, -410073.13, -536421.7, -39364.66, -0.029754912, -0.19392823, -398812.4, 31138.59, 0.0, 10.00066, 9.999007 
4.350365e+2, 2.661244e+2, -253627.63, -479589.63, 18163.559, -0.007074635, -0.18252589, -252176.89, 79785.24, 0.0, 10.001367, 9.998387 
4.350473e+2, 2.7612224e+2, -43083.023, -334842.56, 31599.51, 0.00885451, -0.2531782, -39699.816, 194282.69, 0.0, 10.002164, 9.998325 
4.3505657e+2, 2.861206e+2, 85925.234, -303136.5, 37333.44, -0.14666867, -0.20920812, 89475.27, 225474.86, 0.000000012355592, 10.002745, 9.9975815 
4.3506518e+2, 2.96119e+2, 227996.25, -205880.33, 52679.418, -0.37944877, -0.14796203, 234300.75, 272317.56, 0.0000027662056, 10.003126, 9.997401 
4.3507817e+2, 3.0611566e+2, 253368.84, -312102.2, 49217.69, -0.22359762, -0.14830399, 257620.7, 257620.7, 0.000024180765, 10.003583, 9.996123 
4.350919e+2, 3.1611332e+2, 414989.63, -51925.793, -169322.13, -0.014052728, -0.022990871, 469928.3, 469928.3, 0.00008333817, 10.003883, 9.997758 
4.4489762e+2, 1.2611358e+2, -2198603.5, -1676743.0, -57936.906, 0.27374002, -0.02647814, -1670388.3, 33694.246, 0.00010599228, 9.995493, 10.002409 
4.4491002e+2, 1.3611557e+2, -1921183.5, -1508516.8, 110630.75, 0.2386122, -0.11262256, -1480729.1, 125328.46, 0.00005101591, 9.996788, 10.002293 
4.449174e+2, 1.46117e+2, -1835408.6, -1721254.3, -46424.523, -0.12817673, -0.04577853, -1704758.1, -196712.48, 0.000017295639, 9.998009, 9.999556 
4.4492632e+2, 1.5611713e+2, -1601763.9, -1528055.1, -53249.207, -0.014893216, -0.017135324, -1500150.5, -90098.984, 0.0000027656245, 9.9988165, 9.999818 
4.449373e+2, 1.66118e+2, -1383733.4, -1150622.8, 88741.53, 0.0835338, -0.017595671, -1120685.0, 191356.31, 0.000000035556127, 9.998685, 10.001801 
4.449485e+2, 1.7611943e+2, -1406086.3, -1132208.1, 46569.227, 0.023154391, -0.07679195, -1124506.3, 89513.75, 0.0, 9.997958, 10.001601 
4.4495842e+2, 1.8611954e+2, -1314462.3, -1284619.9, -51200.92, 0.017163957, -0.101492874, -1246210.3, -130192.52, 0.0, 9.998977, 9.9993925 
4.4496816e+2, 1.961186e+2, -907578.0, -1028849.4, -40691.86, 0.10902728, -0.15681404, -895189.6, 122840.39, 0.0, 10.001055, 9.999476 
4.449783e+2, 2.0611876e+2, -773252.8, -865398.8, 48365.563, 0.102468155, -0.10876221, -752527.94, 167500.8, 0.0, 10.001114, 9.99989 
4.449885e+2, 2.1611951e+2, -870552.0, -872684.2, 37033.14, 0.009049694, -0.040718414, -834569.6, -12549.508, 0.0, 9.999813, 9.9998 
4.4499865e+2, 2.2611845e+2, -809770.8, -881060.75, 3203.3472, -0.0063687395, -0.08037784, -809627.2, -85598.516, 0.0, 9.999934, 9.999007 
4.450089e+2, 2.3611604e+2, -559365.9, -707593.94, -6102.9976, 0.03288591, -0.24200861, -559115.0, 66934.97, 0.0, 10.000967, 9.999032 
4.450184e+2, 2.4611516e+2, -392570.8, -565756.9, -30426.223, 0.023395069, -0.23836493, -387380.9, 140675.5, 0.0, 10.001394, 9.999125 
4.450273e+2, 2.561151e+2, -295949.5, -476883.28, -54515.227, -0.022003837, -0.17857324, -280793.63, 149260.81, 0.0, 10.00142, 9.999051 
4.450378e+2, 2.661138e+2, -241049.47, -484288.75, -5971.1216, -0.0139033375, -0.1700884, -240902.97, 91163.38, 0.0, 10.0015, 9.998285 
4.4504932e+2, 2.7611154e+2, -125265.914, -384821.56, -24005.564, 0.025374152, -0.24327399, -123064.38, 111024.22, 0.0, 10.001651, 9.998224 
4.450592e+2, 2.8611e+2, -22440.438, -365329.72, -19929.494, -0.119353116, -0.17692217, -21285.979, 114819.13, 0.00000003062236, 10.002038, 9.997498 
4.450683e+2, 2.961087e+2, 136818.45, -245855.53, -37418.51, -0.34250623, -0.08257611, 140442.97, 178563.1, 0.0000032986038, 10.002494, 9.997423 
4.4508213e+2, 3.0610484e+2, 184132.08, -329965.94, 42027.535, -0.15297656, -0.14356333, 187545.17, 187545.17, 0.000027227657, 10.003038, 9.996262 
4.4509515e+2, 3.1610197e+2, 386396.0, -64653.027, -96644.45, -0.062446162, -0.08038013, 406231.34, 406231.34, 0.000091368296, 10.003672, 9.997774 
4.5489174e+2, 1.2610166e+2, -2182947.5, -1651974.8, -86177.91, 0.08794173, -0.20296517, -1638338.1, 65859.87, 0.00010140695, 9.995532, 10.002557 
4.5490724e+2, 1.3610606e+2, -1910070.1, -1502096.3, 170843.28, 0.25616312, -0.04492414, -1440004.0, 166147.95, 0.00004730018, 9.996851, 10.002311 
4.549169e+2, 1.4610778e+2, -1793935.9, -1636218.1, -17012.69, -0.0071640345, 0.018009588, -1634403.9, -126268.48, 0.000015080613, 9.99802, 10.000131 
4.5492563e+2, 1.5610667e+2, -1571134.4, -1465101.3, -18067.242, 0.0068072267, -0.13240293, -1462107.3, -51958.51, 0.0000021144335, 9.998826, 10.000242 
4.54936e+2, 1.6610685e+2, -1428702.9, -1247440.1, 51041.43, 0.06429854, -0.18035291, -1234055.8, 78088.55, 0.00000004449902, 9.998691, 10.001137 
4.549466e+2, 1.7610808e+2, -1440403.9, -1213790.8, 37995.465, 0.013665256, -0.19541009, -1207589.9, 6537.0513, 0.0, 9.997991, 10.001031 
4.5495737e+2, 1.8610889e+2, -1306636.5, -1254611.1, 21373.518, -0.0034926669, -0.13806103, -1246956.5, -130837.266, 0.0, 9.998925, 9.9996195 
4.5496887e+2, 1.9610913e+2, -901562.25, -1003666.25, 31402.459, 0.054672167, -0.09611006, -892677.44, 125443.52, 0.0, 10.001006, 9.999669 
4.5497927e+2, 2.061089e+2, -781816.7, -863354.94, -10655.71, 0.0741128, -0.09853135, -780447.1, 139675.63, 0.0, 10.001027, 9.9999485 
4.5498884e+2, 2.161083e+2, -881442.44, -868596.3, 5068.774, 0.046205435, -0.17250109, -866837.2, -44711.95, 0.0, 9.999698, 9.999883 
4.5499906e+2, 2.2610812e+2, -825382.25, -889708.7, 37069.08, 0.024268227, -0.12756637, -808468.06, -84342.24, 0.0, 9.99983, 9.999002 
4.550098e+2, 2.3610803e+2, -573925.0, -720638.4, 37962.35, 0.007452131, -0.057630677, -564684.2, 61442.703, 0.0, 10.00089, 9.998981 
4.5501944e+2, 2.4610665e+2, -449650.22, -663139.5, -37001.69, -0.028421618, -0.06449618, -443419.0, 84720.24, 0.0, 10.001313, 9.998495 
4.5502833e+2, 2.561043e+2, -349194.1, -566366.8, -45087.83, -0.07829542, -0.17322215, -340205.34, 89955.336, 0.0, 10.001331, 9.998481 
4.550387e+2, 2.661023e+2, -273821.5, -540052.56, -5746.8403, -0.09297986, -0.1820886, -273697.5, 58482.625, 0.0, 10.00145, 9.997927 
4.5504996e+2, 2.761006e+2, -160885.88, -443240.16, -6848.5444, -0.096692175, -0.16798216, -160719.86, 73479.375, 0.0, 10.001583, 9.997855 
4.5506173e+2, 2.8609917e+2, -45212.254, -404135.44, -9145.796, -0.0863329, -0.06430598, -44979.36, 91236.59, 0.000000022691747, 10.001996, 9.997254 
4.5507407e+2, 2.9609755e+2, 132076.86, -246692.03, -9333.48, -0.03780883, 0.026120353, 132306.72, 170540.55, 0.0000033720132, 10.002442, 9.99745 
4.5508757e+2, 3.06093e+2, 288251.3, -103001.48, 61979.285, 0.07089129, -0.19467482, 297834.84, 297834.84, 0.000028360193, 10.003006, 9.997829 
4.550961e+2, 3.1608978e+2, 438816.28, 73455.68, -35180.0, -0.37277323, -0.31605184, 442172.88, 442172.88, 0.00009465621, 10.003556, 9.998775 
4.6488792e+2, 1.2609181e+2, -1942902.4, -1595494.4, -44569.563, 0.066217475, -0.21705298, -1589867.6, 114424.87, 0.000096649455, 9.99741, 10.00204 
4.6490374e+2, 1.3609584e+2, -1793858.1, -1516157.6, 180808.33, 0.17875811, -0.029505722, -1427036.3, 179217.7, 0.00004344866, 9.997923, 10.001706 
4.6491542e+2, 1.4609748e+2, -1715156.3, -1548710.8, -27717.557, 0.031805955, 0.030043172, -1544216.4, -35978.973, 0.000012657647, 9.99834, 10.00058 
4.6492445e+2, 1.5609667e+2, -1596176.5, -1442031.5, -62294.66, 0.034219634, -0.13665242, -1420004.1, -9759.949, 0.0000014631825, 9.998495, 10.000564 
4.649348e+2, 1.6609651e+2, -1456518.1, -1355316.4, -721.9533, 0.06704931, -0.18824425, -1355311.3, -43067.664, 0.000000030371112, 9.998926, 10.000277 
4.6494532e+2, 1.7609684e+2, -1259260.6, -1208278.6, -44078.777, 0.013214455, -0.20576881, -1182850.8, 31386.77, 0.0, 9.999598, 10.000292 
4.6495652e+2, 1.860976e+2, -1194913.0, -1175171.9, -23213.861, -0.008987758, -0.13252899, -1159817.3, -43586.21, 0.0, 9.9995775, 9.999853 
4.649686e+2, 1.960984e+2, -1173020.6, -1115146.5, -27541.088, 0.029734867, -0.056878712, -1104135.3, -85908.51, 0.0, 9.999049, 9.999853 
4.6497926e+2, 2.0609814e+2, -1028606.25, -988634.2, -93438.57, 0.057584982, -0.067853674, -913068.1, 7160.0234, 0.0, 9.9993515, 9.999895 
4.6498883e+2, 2.1609712e+2, -812019.06, -841623.56, -102060.52, 0.060383882, -0.17777485, -723692.94, 98541.0, 0.0, 10.000197, 9.999828 
4.6499956e+2, 2.2609675e+2, -714077.8, -815141.75, -25774.227, 0.06302024, -0.15844958, -707884.2, 16350.893, 0.0, 10.000512, 9.999179 
4.650111e+2, 2.3609665e+2, -622331.3, -729831.94, -28642.68, 0.06939524, -0.10809203, -615176.0, 11058.878, 0.0, 10.000505, 9.999099 
4.6502087e+2, 2.460952e+2, -537263.3, -735837.8, -74367.586, 0.015063307, -0.113458596, -512500.22, 15747.846, 0.0, 10.000831, 9.998232 
4.6502963e+2, 2.5609273e+2, -365307.8, -605239.4, -68124.45, -0.07608355, -0.2055603, -347314.44, 82956.805, 0.0, 10.001352, 9.998203 
4.6504024e+2, 2.6609075e+2, -248618.13, -582563.0, -10667.976, -0.09942396, -0.17972347, -248277.69, 84015.41, 0.0, 10.001847, 9.997449 
4.6505198e+2, 2.7608892e+2, -90309.28, -456480.72, -37876.23, -0.082539976, -0.12656966, -86432.46, 147883.3, 0.0, 10.002262, 9.997444 
4.6506417e+2, 2.8608721e+2, -12290.074, -369180.6, -14525.01, -0.04174107, -0.038415764, -11699.899, 124635.13, 0.00000001636591, 10.0021305, 9.997434 
4.6507695e+2, 2.960854e+2, 45433.09, -254667.73, -2523.8203, 0.05106226, 0.008672066, 45454.316, 83808.055, 0.0000038591365, 10.001698, 9.997752 
4.6509105e+2, 3.060816e+2, 168280.17, -69558.28, 76111.13, 0.1892151, -0.19758904, 190551.19, 190551.19, 0.000029778155, 10.00178, 9.998663 
4.6509895e+2, 3.1607932e+2, 242949.31, 20038.37, -77725.195, -0.3561164, -0.30168682, 267374.4, 267374.4, 0.00009717631, 10.002035, 9.999147 
4.7488534e+2, 1.260841e+2, -2021569.3, -1753688.4, -82857.02, 0.015324321, -0.057080988, -1730131.8, -25766.291, 0.000091564856, 9.997412, 10.00094 
4.748993e+2, 1.3608494e+2, -1875020.3, -1681366.9, 210524.36, -0.08026777, -0.05817517, -1546469.8, 59893.277, 0.000038474074, 9.997927, 10.000558 
4.7491273e+2, 1.4608617e+2, -1688380.9, -1498659.8, -27130.723, -0.10095307, -0.0059695574, -1494856.3, 13494.899, 0.000009911169, 9.998349, 10.000926 
4.749226e+2, 1.5608716e+2, -1570786.8, -1403645.6, -46261.95, -0.028159032, -0.028801523, -1391695.5, 18642.105, 0.0000009593812, 9.998547, 10.000809 
4.7493336e+2, 1.660869e+2, -1533470.1, -1513769.1, 16383.406, 0.010543725, -0.041787256, -1504503.0, -192163.72, 0.000000014696447, 9.998921, 9.999192 
4.749444e+2, 1.7608564e+2, -1324045.9, -1345870.4, -14425.594, -0.055538625, -0.10890144, -1316870.1, -102517.58, 0.0, 9.999612, 9.999341 
4.7495553e+2, 1.8608564e+2, -1177929.6, -1131966.6, -50362.727, -0.082817614, -0.08560121, -1099589.8, 16763.906, 0.0, 9.999541, 10.000169 
4.7496703e+2, 1.9608639e+2, -1159139.5, -1079997.1, -34216.21, -0.04802554, -0.045896314, -1067255.5, -48907.74, 0.0, 9.999017, 10.0001135 
4.7497794e+2, 2.060865e+2, -1055486.9, -1026168.0, -68140.664, -0.025658362, -0.01901103, -971127.75, -50782.9, 0.0, 9.999275, 9.999674 
4.749883e+2, 2.1608603e+2, -835079.75, -870256.94, -66272.73, -0.027214207, -0.05233687, -784101.3, 38244.305, 0.0, 10.000114, 9.999671 
4.749999e+2, 2.2608437e+2, -699212.94, -769922.44, -32742.76, 0.03055421, -0.17583299, -686380.06, 37976.316, 0.0, 10.0004425, 9.999529 
4.7501242e+2, 2.3608184e+2, -613180.6, -690052.4, -18088.271, 0.13788387, -0.40048763, -609137.06, 17237.494, 0.0, 10.000411, 9.999421 
4.750225e+2, 2.4608074e+2, -538343.06, -722461.1, -60708.027, 0.07683659, -0.39074504, -520128.25, 8254.786, 0.0, 10.000764, 9.998355 
4.7503096e+2, 2.5608045e+2, -374389.28, -611551.2, -40539.938, -0.09847451, -0.27802566, -367650.94, 62735.74, 0.0, 10.001288, 9.998194 
4.7504216e+2, 2.6607895e+2, -297602.2, -671974.56, -205.77274, -0.10760243, -0.17022315, -297602.1, 34804.17, 0.0, 10.001796, 9.996859 
4.7505504e+2, 2.7607644e+2, -130541.164, -524732.1, -16511.773, -0.017717045, -0.124773405, -129850.734, 104587.89, 0.0, 10.002198, 9.9970045 
4.7506633e+2, 2.860742e+2, 23270.297, -289854.1, -39615.695, -0.05758048, -0.10259681, 28204.617, 164667.3, 0.0000000367379, 10.002104, 9.997992 
4.7507676e+2, 2.9607213e+2, 67310.97, -196002.1, -6341.5356, -0.16054124, -0.13982356, 67463.61, 105944.87, 0.000004901276, 10.001627, 9.998195 
4.7509232e+2, 3.0607048e+2, 167695.31, -51575.297, 78791.71, 0.12433466, -0.15925518, 193071.23, 193071.23, 0.000032907166, 10.001703, 9.99882 
4.7510308e+2, 3.160701e+2, 215820.48, -25918.695, -10340.39, -0.18790653, -0.08060401, 216261.98, 216261.98, 0.00010232853, 10.001988, 9.998854 
4.848838e+2, 1.2607333e+2, -2001673.4, -1811527.3, -160894.36, 0.105738126, -0.066050455, -1719715.6, -15246.777, 0.00008660855, 9.997823, 10.000356 
4.8489642e+2, 1.3607374e+2, -1841028.5, -1734002.6, 163669.13, -0.17497422, -0.044471074, -1615320.4, -8847.029, 0.000032757685, 9.998429, 9.99997 
4.8491138e+2, 1.4607468e+2, -1659637.6, -1471635.6, -57869.47, -0.07100772, -0.0013006319, -1455250.6, 53214.31, 0.000007215262, 9.998506, 10.001027 
4.8492104e+2, 1.5607594e+2, -1600079.1, -1407845.5, -121937.84, -0.019956773, -0.0053492803, -1348697.1, 61750.984, 0.00000059770906, 9.998313, 10.000889 
4.84932e+2, 1.6607569e+2, -1570161.0, -1525804.3, 24899.184, 0.0017605126, -0.025443692, -1514638.3, -202189.31, 0.0000000048834687, 9.998645, 9.999241 
4.8494396e+2, 1.760742e+2, -1366618.4, -1366817.8, 65016.797, -0.042963043, -0.119970076, -1301701.1, -87237.71, 0.0, 9.999328, 9.999328 
4.849551e+2, 1.8607396e+2, -1196191.6, -1192452.9, 10456.289, -0.07829272, -0.09653249, -1183700.1, -67232.64, 0.0, 9.999638, 9.999703 
4.8496595e+2, 1.9607447e+2, -1097269.9, -1094325.4, -41005.105, -0.085418224, -0.03699797, -1054766.0, -36300.71, 0.0, 9.999643, 9.999704 
4.8497733e+2, 2.0607434e+2, -957404.06, -1001223.8, -48436.082, -0.049134884, -0.005925907, -926152.9, -5687.5044, 0.0, 10.000041, 9.999482 
4.8498908e+2, 2.1607356e+2, -769039.0, -857320.3, -57007.035, 0.013255901, -0.05142445, -741081.1, 81388.01, 0.0, 10.000651, 9.999502 
4.8500073e+2, 2.2607185e+2, -683320.4, -779013.25, -66082.42, 0.06252272, -0.16343778, -649581.44, 74899.29, 0.0, 10.000625, 9.999378 
4.8501238e+2, 2.3606943e+2, -656813.8, -726283.0, -98666.016, 0.10878776, -0.36154816, -586946.94, 39551.83, 0.0, 10.0001745, 9.999286 
4.850231e+2, 2.4606828e+2, -548149.44, -721957.06, -107722.164, 0.06914476, -0.3542198, -496646.84, 31860.963, 0.0, 10.000675, 9.998401 
4.8503318e+2, 2.5606784e+2, -298779.78, -564346.1, -113098.766, -0.023739519, -0.2596642, -257141.9, 173370.33, 0.0, 10.001774, 9.998279 
4.850449e+2, 2.6606634e+2, -299677.28, -651675.06, -58502.86, -0.0040906365, -0.16622439, -290208.66, 42322.094, 0.0, 10.001691, 9.997045 
4.8505765e+2, 2.760639e+2, -309843.53, -587360.0, -28474.55, 0.09331416, -0.13507211, -306952.03, -72390.75, 0.0, 10.000863, 9.997216 
4.8506832e+2, 2.8606158e+2, -86340.78, -295352.06, -2808.9175, -0.015598689, -0.15236908, -86303.04, 50281.637, 0.00000008825205, 10.001154, 9.998407 
4.850778e+2, 2.9605955e+2, 156251.55, -118937.96, -4522.1416, -0.2378087, -0.22354168, 156325.84, 194927.19, 0.0000056092463, 10.002104, 9.998488 
4.850941e+2, 3.0605885e+2, 215436.38, -70006.25, 62967.11, 0.11517277, -0.13410392, 228709.39, 228709.39, 0.000035389916, 10.002203, 9.998443 
4.8510647e+2, 3.1605864e+2, 164570.81, -73081.12, -46022.61, -0.026334332, -0.013836734, 173172.05, 173172.05, 0.00010599746, 10.001734, 9.998639 
4.948825e+2, 1.2605935e+2, -2000868.5, -1816335.8, -163100.1, 0.14621672, -0.25585142, -1721213.0, -16608.246, 0.00007902746, 9.997859, 10.000303 
4.948949e+2, 1.3606226e+2, -1832272.8, -1721104.1, 190002.67, -0.19230956, 0.0057296488, -1578722.1, 27862.346, 0.000026309019, 9.998457, 10.000044 
4.9491113e+2, 1.4606304e+2, -1682096.3, -1513222.3, -75062.82, 0.027286109, 0.04661526, -1484681.3, 23897.266, 0.0000047383246, 9.998487, 10.000749 
4.949195e+2, 1.5606302e+2, -1608121.4, -1424496.5, -118976.836, -0.028279472, -0.0613791, -1366025.9, 44549.96, 0.0000002991547, 9.998317, 10.00077 
4.9493045e+2, 1.6606288e+2, -1483599.0, -1342871.6, 41843.938, -0.036155425, -0.13254507, -1331369.8, -18797.373, 0.0000000005507737, 9.998626, 10.000508 
4.9494377e+2, 1.7606251e+2, -1295876.4, -1220108.6, 95444.86, -0.018460954, -0.24063125, -1155304.1, 59266.17, 0.0, 9.999327, 10.000336 
4.9495503e+2, 1.8606251e+2, -1290633.4, -1377722.9, 3481.358, -0.06775684, -0.16898634, -1290494.5, -173921.64, 0.0, 9.999592, 9.998454 
4.9496505e+2, 1.960626e+2, -1180189.6, -1260381.3, -33863.47, -0.15924111, -0.030213712, -1167803.0, -149222.77, 0.0, 9.999612, 9.998583 
4.9497718e+2, 2.060616e+2, -971265.2, -1014187.7, -33437.023, -0.08227068, -0.031487778, -952994.6, -32404.15, 0.0, 9.999969, 9.999433 
4.9499083e+2, 2.1605979e+2, -787903.44, -882664.5, -30038.473, 0.10842246, -0.17385042, -779183.8, 43419.996, 0.0, 10.000581, 9.999371 
4.9500164e+2, 2.2605917e+2, -746101.44, -887578.06, -88628.43, 0.07928762, -0.13082139, -703442.6, 21166.217, 0.0, 10.000537, 9.9986725 
4.9501064e+2, 2.3605928e+2, -715502.06, -823771.9, -101644.12, -0.09827283, -0.006451942, -654475.7, -27866.555, 0.0, 10.0000725, 9.998666 
4.950224e+2, 2.4605772e+2, -556176.94, -726268.0, -71614.414, -0.08530145, -0.012384344, -530040.75, -1417.4818, 0.0, 10.000624, 9.998395 
4.9503595e+2, 2.5605485e+2, -300949.53, -554793.7, -71235.625, 0.05715534, -0.1583769, -282325.28, 148323.25, 0.0, 10.001712, 9.998375 
4.950482e+2, 2.660528e+2, -238217.17, -513372.0, -98623.56, 0.13615295, -0.17403014, -206519.2, 126148.32, 0.0, 10.001646, 9.998016 
4.9505937e+2, 2.7605122e+2, -259508.38, -463382.75, -42948.07, 0.15941234, -0.1609675, -250830.33, -16146.023, 0.0, 10.000783, 9.998105 
4.950698e+2, 2.8604943e+2, -76591.62, -262306.97, 28354.951, -0.002518695, -0.17835711, -72358.86, 64341.21, 0.00000018947561, 10.001102, 9.998658 
4.9507982e+2, 2.960476e+2, 158689.9, -104759.04, 37132.34, -0.27224454, -0.24710393, 163823.56, 202538.23, 0.000005650319, 10.002067, 9.998603 
4.9509627e+2, 3.0604684e+2, 156212.11, -195288.92, 38602.992, 0.09060983, -0.12522326, 160401.67, 160401.67, 0.00003451672, 10.002201, 9.997585 
4.9510834e+2, 3.1604505e+2, 147340.16, -96109.55, 5884.104, -0.057708807, -0.08962342, 147482.3, 147482.3, 0.00010174547, 10.001673, 9.998509 
5.048808e+2, 1.2604703e+2, -1773163.3, -1656848.9, -158308.39, 0.12841955, -0.24517822, -1546353.3, 158373.72, 0.00006639799, 9.99924, 10.000721 
5.0489295e+2, 1.3605002e+2, -1882035.3, -1698624.4, 169715.08, -0.19255343, -0.026588865, -1597422.9, 9278.559, 0.00001955312, 9.997917, 10.0004635 
5.049109e+2, 1.4605047e+2, -1780549.6, -1590623.1, -27243.652, 0.18815425, -0.020120427, -1586792.5, -78094.39, 0.0000028130235, 9.997945, 10.00048 
5.0491863e+2, 1.5605035e+2, -1488695.4, -1389186.3, -93259.164, 0.016152028, -0.108656, -1333239.4, 77459.195, 0.00000011765629, 9.999241, 10.000564 
5.0492936e+2, 1.6605054e+2, -1334290.5, -1242528.3, 24557.102, -0.044254858, -0.15513065, -1236369.8, 76323.086, 0.000000000026416515, 9.999521, 10.000767 
5.04943e+2, 1.7605066e+2, -1324932.5, -1211591.0, -14239.464, -0.0025685744, -0.2375704, -1209829.4, 4856.353, 0.0, 9.999018, 10.00055 
5.049548e+2, 1.8605067e+2, -1332960.4, -1392265.9, -52718.86, -0.028217996, -0.1754177, -1302127.0, -185439.86, 0.0, 9.999287, 9.998499 
5.049653e+2, 1.9605051e+2, -1113846.1, -1226754.6, -7742.266, -0.10933996, -0.06087965, -1113317.8, -94622.22, 0.0, 10.000077, 9.998582 
5.0497776e+2, 2.0604922e+2, -939557.2, -1034793.8, 24712.184, -0.03288634, -0.07361981, -933526.7, -12817.604, 0.0, 10.000342, 9.9991045 
5.049916e+2, 2.1604708e+2, -869908.6, -952060.7, -11052.893, 0.15636745, -0.21676798, -868447.56, -45720.12, 0.0, 10.000159, 9.999088 
5.050023e+2, 2.2604689e+2, -756796.1, -883565.75, -32971.58, 0.10071847, -0.123577334, -748733.3, -24003.947, 0.0, 10.000419, 9.998759 
5.0501096e+2, 2.3604786e+2, -582609.9, -752040.25, 2316.542, -0.11406582, 0.07882796, -582578.2, 44143.418, 0.0, 10.000955, 9.998731 
5.050233e+2, 2.4604607e+2, -485522.3, -721629.7, 81238.44, -0.08484365, 0.058962345, -460270.88, 68468.04, 0.0, 10.001239, 9.998131 
5.050381e+2, 2.560422e+2, -353910.53, -601229.25, 46627.695, 0.11726758, -0.15923029, -345411.75, 85362.99, 0.0, 10.00144, 9.998189 
5.050502e+2, 2.6604015e+2, -174417.86, -428982.47, -22722.664, 0.16885221, -0.19724566, -172405.52, 160387.48, 0.0, 10.001854, 9.998499 
5.050604e+2, 2.7603918e+2, -5801.248, -300524.97, -25659.762, 0.11067809, -0.16563787, -3583.8945, 231217.27, 0.00000000061010413, 10.002349, 9.99847 
5.050714e+2, 2.860376e+2, 76689.96, -234576.45, 35996.684, -0.012196998, -0.15827578, 80798.59, 217613.86, 0.00000027597625, 10.002356, 9.998245 
5.0508296e+2, 2.9603562e+2, 125878.125, -165989.27, -22484.27, -0.1576621, -0.19888113, 127600.06, 166432.95, 0.0000049916057, 10.002042, 9.998195 
5.0509894e+2, 3.06034e+2, 92629.25, -243897.27, -17335.63, 0.1661137, -0.13501866, 93519.91, 93519.91, 0.000030276777, 10.001852, 9.997423 
5.0510985e+2, 3.1603137e+2, 158783.75, -53589.59, 6547.015, -0.062229585, -0.16415909, 158985.39, 158985.39, 0.000090525835, 10.001582, 9.99886 
5.1487774e+2, 1.260365e+2, -1708130.9, -1535378.5, -188616.63, -0.15066633, -0.01997683, -1414300.9, 290533.7, 0.0000519356, 9.999294, 10.001528 
5.1489043e+2, 1.3603705e+2, -1820960.6, -1580568.8, 134719.72, -0.2555274, -0.14097635, -1520219.8, 86603.4, 0.000013925394, 9.997953, 10.001254 
5.1491046e+2, 1.4603698e+2, -1797214.3, -1629895.9, 10143.633, 0.32692367, -0.20218086, -1629283.1, -120460.234, 0.000001645238, 9.99796, 10.000206 
5.1491827e+2, 1.5603799e+2, -1507118.1, -1434236.8, -39738.86, 0.031116197, -0.15330485, -1416759.9, -5943.7476, 0.00000003629146, 9.999268, 10.000245 
5.1492846e+2, 1.660386e+2, -1398113.6, -1366068.9, -398.8217, -0.10800764, -0.09715801, -1366063.9, -53253.14, 0.0, 9.999488, 9.99993 
5.1494145e+2, 1.7603864e+2, -1369970.3, -1303323.5, -20421.467, -0.07932709, -0.10807008, -1297563.9, -82754.12, 0.0, 9.999014, 9.999918 
5.1495415e+2, 1.8603854e+2, -1241646.8, -1197789.4, -31880.37, -0.04338693, -0.10201704, -1181024.1, -64214.723, 0.0, 9.999264, 9.999843 
5.1496655e+2, 1.9603829e+2, -1036422.56, -1063792.5, 27136.133, -0.015129653, -0.13367184, -1019715.94, -905.2869, 0.0, 10.000059, 9.999711 
5.149789e+2, 2.0603713e+2, -1002249.1, -1143494.0, 10164.324, 0.02545574, -0.14358525, -1001521.4, -80699.38, 0.0, 10.000252, 9.998402 
5.149912e+2, 2.1603529e+2, -919710.75, -1036052.8, -8848.851, 0.08277494, -0.1903341, -919041.56, -96200.21, 0.0, 10.00007, 9.998557 
5.150024e+2, 2.2603486e+2, -704504.9, -755126.56, -21829.65, 0.057464443, -0.14794649, -696391.56, 28452.0, 0.0, 10.000334, 9.999682 
5.150129e+2, 2.3603526e+2, -540850.44, -643818.3, 26866.283, -0.025486689, -0.09552752, -534262.06, 92573.44, 0.0, 10.000864, 9.9995165 
5.1502544e+2, 2.460334e+2, -524636.1, -793191.4, 80483.45, -0.009938805, -0.12925814, -502363.25, 26490.521, 0.0, 10.001195, 9.997663 
5.150392e+2, 2.560299e+2, -394502.56, -667987.25, 66045.73, 0.06674133, -0.26678896, -379388.03, 51502.813, 0.0, 10.001361, 9.997769 
5.1505065e+2, 2.660283e+2, -187708.47, -443928.4, -10503.543, 0.0154385865, -0.23714888, -187278.61, 145628.73, 0.0, 10.001805, 9.99842 
5.1506054e+2, 2.7602774e+2, -28028.064, -330410.1, 305.0814, -0.12763269, -0.1517204, -28027.758, 206884.73, 0.0000000018853024, 10.002282, 9.998299 
5.150728e+2, 2.8602603e+2, -2000.4886, -391699.3, 16654.602, -0.122488625, -0.089703545, -1290.0144, 135640.3, 0.00000034894228, 10.002327, 9.997179 
5.1508665e+2, 2.9602358e+2, 55074.42, -304963.38, -20560.58, -0.010580296, -0.07892301, 56244.766, 95200.89, 0.000004315403, 10.002002, 9.997259 
5.151018e+2, 3.0602026e+2, 118732.73, -179895.23, -30629.89, 0.24717167, -0.16619551, 121842.02, 121842.02, 0.000026122347, 10.001825, 9.997874 
5.1511073e+2, 3.1601748e+2, 196845.86, 61483.117, 55389.344, -0.17356513, -0.25157887, 216621.61, 216621.61, 0.00008114715, 10.00145, 9.99971 
5.2487665e+2, 1.2602438e+2, -1798764.6, -1603942.3, -96569.08, -0.15174444, -0.001916621, -1564187.4, 140764.98, 0.000041741634, 9.998763, 10.001315 
5.248886e+2, 1.3602422e+2, -1722669.4, -1542329.0, 48601.73, -0.26521385, -0.18593703, -1530064.9, 76881.5, 0.000010470756, 9.998662, 10.001173 
5.249096e+2, 1.4602417e+2, -1761749.3, -1611201.1, -19778.361, 0.43588784, -0.24290672, -1608646.1, -99699.945, 0.0000009776196, 9.9982, 10.0002165 
5.2491695e+2, 1.560255e+2, -1691400.0, -1523607.5, -66104.0, 0.043381434, -0.16321959, -1500694.0, -89756.62, 0.000000005050013, 9.998003, 10.000239 
5.249273e+2, 1.6602622e+2, -1547933.6, -1468388.6, 15747.338, -0.12530376, -0.08180702, -1465384.6, -152452.13, 0.0, 9.998586, 9.999671 
5.2494097e+2, 1.7602621e+2, -1289255.0, -1286197.8, 20017.658, -0.05555834, -0.06851628, -1267650.4, -52717.07, 0.0, 9.999659, 9.999731 
5.249542e+2, 1.8602607e+2, -1136600.8, -1108423.6, -8686.508, 0.014060544, -0.07963111, -1105961.0, 10971.73, 0.0, 9.999815, 10.000196 
5.249669e+2, 1.9602567e+2, -1131337.4, -1071832.5, -40549.445, 0.0578175, -0.15633255, -1051291.1, -32358.818, 0.0, 9.999254, 10.000044 
5.2497923e+2, 2.0602468e+2, -1059776.1, -1179849.1, -25946.46, 0.06275788, -0.16215864, -1054409.3, -133467.39, 0.0, 9.999889, 9.998327 
5.249916e+2, 2.1602315e+2, -743383.6, -957679.0, -16344.177, 0.055723216, -0.17019346, -742144.2, 80815.11, 0.0, 10.001309, 9.998494 
5.250034e+2, 2.2602218e+2, -569825.5, -697052.3, -67848.29, 0.07217921, -0.17545506, -540433.25, 184533.36, 0.0, 10.001291, 9.999619 
5.2501476e+2, 2.3602143e+2, -625663.56, -688044.75, -106304.2, 0.103941515, -0.23041214, -546068.6, 80900.25, 0.0, 10.000298, 9.999489 
5.250273e+2, 2.4602017e+2, -613622.0, -786169.3, -6104.1343, 0.099298194, -0.22657046, -613406.4, -84425.17, 0.0, 10.000367, 9.998109 
5.250404e+2, 2.560185e+2, -397510.44, -626598.3, 28403.37, 0.06748461, -0.22755252, -394041.38, 36959.766, 0.0, 10.001157, 9.998151 
5.2505195e+2, 2.660171e+2, -239479.78, -490224.2, -14492.259, -0.017260242, -0.17996573, -238644.95, 94371.055, 0.0, 10.00154, 9.998228 
5.2506244e+2, 2.760158e+2, -131322.73, -394353.03, -25835.35, -0.127088, -0.15584669, -128809.164, 106220.52, 0.00000000009174081, 10.001645, 9.998159 
5.250752e+2, 2.8601402e+2, -18810.703, -383231.34, 57044.01, -0.10434658, -0.100030065, -10090.093, 126957.68, 0.00000033351301, 10.002143, 9.997324 
5.250892e+2, 2.9601198e+2, 191557.31, -229943.28, 82470.71, 0.0037673144, -0.06089038, 207118.97, 246187.81, 0.0000041082662, 10.002894, 9.997347 
5.251039e+2, 3.0600822e+2, 252648.89, -120628.65, 76380.984, 0.23982494, -0.19508079, 267673.4, 267673.4, 0.000024723933, 10.002766, 9.99783 
5.251133e+2, 3.160059e+2, 229880.19, 41898.242, 110850.42, -0.06489619, -0.22732715, 281223.72, 281223.72, 0.00007777968, 10.00181, 9.99941 
5.348771e+2, 1.2601033e+2, -1871173.6, -1768667.6, -46796.89, -0.031137904, -0.22507258, -1750517.4, -45434.074, 0.000035627574, 9.998833, 10.000149 
5.34887e+2, 1.3601153e+2, -1792291.0, -1683938.0, 40386.918, -0.30370396, -0.15844455, -1670540.9, -63469.99, 0.000008273398, 9.998656, 10.000207 
5.3490776e+2, 1.4601204e+2, -1741759.1, -1567312.3, -38344.79, 0.41151547, -0.13373566, -1559255.9, -50188.336, 0.00000061502607, 9.998189, 10.00052 
5.349145e+2, 1.5601292e+2, -1670986.5, -1483066.6, -59605.617, -0.026339626, -0.13216764, -1465755.3, -54693.21, 0.00000000036285042, 9.998006, 10.000516 
5.349256e+2, 1.6601339e+2, -1528947.5, -1423530.0, 48058.965, -0.17055841, -0.104253225, -1404909.4, -91851.58, 0.0, 9.998564, 9.999991 
5.3494143e+2, 1.7601338e+2, -1270630.1, -1254183.0, 64728.45, -0.001026213, -0.12065398, -1197157.8, 17898.818, 0.0, 9.999682, 9.999945 
5.349547e+2, 1.8601313e+2, -1187096.8, -1206218.8, -36660.9, 0.06283958, -0.11496411, -1158770.6, -41713.008, 0.0, 9.999788, 9.999535 
5.34966e+2, 1.9601259e+2, -1177912.4, -1161209.6, -45285.723, 0.02630058, -0.14237428, -1123511.6, -104450.125, 0.0, 9.999217, 9.999452 
5.349786e+2, 2.0601182e+2, -1029832.06, -1098906.3, 20779.74, -0.0030385444, -0.13118237, -1024062.7, -102993.93, 0.0, 9.999812, 9.998918 
5.3499246e+2, 2.160108e+2, -725419.6, -902756.8, 35824.92, -0.00413043, -0.14806075, -718455.9, 104623.72, 0.0, 10.00123, 9.99891 
5.3500473e+2, 2.260089e+2, -657240.8, -861281.0, -114029.03, 0.069996215, -0.20263769, -606255.3, 118842.23, 0.0, 10.001216, 9.9985285 
5.350161e+2, 2.3600635e+2, -696711.7, -816575.06, -130294.914, 0.19185871, -0.33335868, -613225.9, 13895.69, 0.0, 10.000216, 9.998645 
5.350285e+2, 2.4600627e+2, -530720.75, -602242.25, 18178.207, 0.16922879, -0.24380504, -526365.7, 2756.0898, 0.0, 10.0003195, 9.999394 
5.350415e+2, 2.560078e+2, -325878.84, -466322.4, 65080.39, 0.039145526, -0.052954953, -300358.47, 130748.48, 0.0, 10.001106, 9.999276 
5.350538e+2, 2.6600656e+2, -260027.77, -526605.75, -17309.57, -0.009117112, -0.028741186, -258908.52, 74210.95, 0.0, 10.001511, 9.997992 
5.350656e+2, 2.7600327e+2, -145159.69, -410875.44, -8676.677, 0.0060304827, -0.17867331, -144876.66, 90276.19, 0.0, 10.001586, 9.998076 
5.3507805e+2, 2.8600153e+2, 65741.695, -201061.89, 78604.93, -0.048496794, -0.18892355, 87177.8, 224346.11, 0.00000019037492, 10.002116, 9.998588 
5.3509057e+2, 2.9600075e+2, 255614.5, -79296.266, 116658.83, -0.17499638, -0.14311984, 292243.88, 331415.72, 0.0000040138116, 10.002818, 9.99842 
5.351052e+2, 3.0599773e+2, 209178.11, -205532.33, 39277.242, 0.0717027, -0.22025019, 212865.28, 212865.28, 0.000024880077, 10.002737, 9.99726 
5.351169e+2, 3.1599644e+2, 134642.69, -160249.67, 114189.9, 0.06562826, -0.09692299, 173689.69, 173689.69, 0.00007727119, 10.001819, 9.998017 
5.4487807e+2, 1.259972e+2, -1791194.6, -1747492.9, -21024.162, 0.1519226, -0.28220496, -1739020.9, -33810.05, 0.000030309948, 9.999456, 10.000016 
5.448849e+2, 1.3599883e+2, -1853277.0, -1725619.5, 13601.175, -0.347459, -0.15430592, -1724186.5, -116990.88, 0.000006366235, 9.998297, 10.000098 
5.449053e+2, 1.4599955e+2, -1792093.6, -1605271.8, 8337.825, 0.36975855, -0.095196754, -1604900.4, -95709.9, 0.00000037085837, 9.997902, 10.0004015 
5.449132e+2, 1.5600027e+2, -1565861.4, -1439673.9, -60681.957, 0.007987521, -0.100068964, -1415228.4, -4042.0706, 0.00000000007720086, 9.998764, 10.000446 
5.449249e+2, 1.6600047e+2, -1418977.1, -1360406.8, 54397.094, -0.12501824, -0.1024049, -1327912.8, -14728.777, 0.0, 9.999285, 10.00007 
5.449412e+2, 1.7600013e+2, -1304240.9, -1259675.5, 34216.523, 0.022419091, -0.15905958, -1241125.8, -25940.996, 0.0, 9.999423, 10.000023 
5.449547e+2, 1.8599977e+2, -1207348.4, -1230595.4, -58821.04, 0.095322326, -0.16190587, -1159013.4, -41826.496, 0.0, 9.999691, 9.999426 
5.4496616e+2, 1.9599928e+2, -1057115.5, -1105150.1, -36593.54, 0.08591662, -0.1740999, -1037361.6, -18170.73, 0.0, 10.000047, 9.999437 
5.44979e+2, 2.0599893e+2, -969655.8, -1031626.75, 78667.66, 0.04571864, -0.14054058, -916091.3, 5103.107, 0.0, 10.00006, 9.999265 
5.4499304e+2, 2.1599847e+2, -916207.6, -959717.1, 61614.73, 0.008932992, -0.13272293, -872619.9, -49420.344, 0.0, 9.999776, 9.999221 
5.4500556e+2, 2.2599682e+2, -792223.3, -943732.6, -57602.47, 0.07406713, -0.17095417, -772810.7, -47594.57, 0.0, 10.000364, 9.998371 
5.4501706e+2, 2.3599422e+2, -509325.16, -741180.44, -20833.018, 0.2047901, -0.28919524, -507468.1, 119773.89, 0.0, 10.001565, 9.998514 
5.4502964e+2, 2.4599399e+2, -265720.22, -439905.63, 134045.66, 0.1749489, -0.22617279, -192958.69, 336283.84, 0.0, 10.001985, 9.999709 
5.450429e+2, 2.5599527e+2, -194855.47, -370901.9, 90599.695, 0.030815523, -0.08822532, -156560.08, 274666.88, 0.0, 10.001871, 9.999562 
5.450555e+2, 2.65994e+2, -220141.63, -508893.72, -6427.8223, 0.0024627422, -0.079843126, -219998.61, 113240.33, 0.0, 10.001796, 9.997976 
5.4506785e+2, 2.7599078e+2, -117935.805, -399283.84, 1278.2761, 0.0671858, -0.22332406, -117930.0, 117342.24, 0.0, 10.001775, 9.99807 
5.4508024e+2, 2.8598896e+2, 25486.592, -213993.14, 69264.83, -0.019028204, -0.24272548, 44076.957, 181365.56, 0.00000011177434, 10.001818, 9.998643 
5.450924e+2, 2.9598814e+2, 134765.97, -124477.445, 3232.994, -0.22113234, -0.21070214, 134806.28, 174099.33, 0.0000045059896, 10.001952, 9.998518 
5.451074e+2, 3.059857e+2, 224692.1, -175693.83, -68218.19, 0.025307784, -0.2417936, 235996.03, 235996.03, 0.00002638034, 10.0027485, 9.997453 
5.451209e+2, 3.1598458e+2, 387028.25, -65490.9, 31368.676, 0.20037137, -0.12001768, 389192.38, 389192.38, 0.000078639736, 10.003689, 9.997754 
5.5487865e+2, 1.2598532e+2, -1712291.5, -1587143.8, -945.2422, 0.2248763, -0.123177804, -1587136.6, 118195.12, 0.000026661139, 9.999485, 10.001095 
5.5488217e+2, 1.3598622e+2, -1800961.8, -1611155.8, -29572.162, -0.47437426, -0.16357933, -1606655.0, 664.3668, 0.0000052899522, 9.998286, 10.000882 
5.5490214e+2, 1.4598675e+2, -1824278.1, -1680848.4, 25907.846, 0.23778526, -0.12904875, -1676312.0, -166997.34, 0.00000021782215, 9.9979315, 9.999873 
5.5491275e+2, 1.5598752e+2, -1593091.8, -1509125.3, -18960.121, 0.0669922, -0.07286974, -1505042.5, -93731.94, 0.00000000000011946363, 9.998806, 9.999958 
5.5492485e+2, 1.659874e+2, -1430908.1, -1382606.4, 52313.02, -0.07692603, -0.07801317, -1349138.5, -35827.105, 0.0, 9.999281, 9.999913 
5.5493987e+2, 1.7598638e+2, -1313895.8, -1276683.0, 47948.164, -0.06256879, -0.18868859, -1243857.6, -28538.98, 0.0, 9.999411, 9.999911 
5.5495405e+2, 1.8598597e+2, -1176899.1, -1156467.6, -52421.42, 0.04384448, -0.21994467, -1113275.8, 4044.745, 0.0, 9.999644, 9.999957 
5.549672e+2, 1.9598582e+2, -1028669.5, -1040831.25, -17328.344, 0.16607465, -0.24846265, -1016386.06, 2934.1716, 0.0, 10.000015, 9.999902 
5.549801e+2, 2.0598598e+2, -967597.4, -1010254.7, 60809.766, 0.1319591, -0.19484168, -924484.25, -3164.9207, 0.0, 9.999991, 9.999441 
5.5499303e+2, 2.1598615e+2, -914638.8, -937399.3, 64450.477, 0.014044197, -0.13952935, -860571.56, -37251.766, 0.0, 9.999689, 9.999418 
5.5500543e+2, 2.2598581e+2, -757463.94, -846071.6, -18422.82, 0.01064044, -0.09516008, -753786.25, -28462.83, 0.0, 10.00026, 9.999089 
5.5501753e+2, 2.3598498e+2, -483662.44, -662288.6, 29051.018, 0.073465854, -0.10536561, -479056.47, 148273.8, 0.0, 10.001456, 9.999106 
5.550305e+2, 2.4598338e+2, -322174.7, -541494.94, 123999.61, 0.04472494, -0.17053609, -266301.6, 263041.16, 0.0, 10.001917, 9.999047 
5.550441e+2, 2.559811e+2, -246480.84, -460743.03, 95924.945, -0.043728255, -0.3254376, -209811.16, 221549.45, 0.0, 10.001795, 9.998984 
5.5505687e+2, 2.659795e+2, -214052.17, -486580.22, -13954.963, -0.05219423, -0.334045, -213339.45, 120035.35, 0.0, 10.001758, 9.998145 
5.55069e+2, 2.759782e+2, -126000.016, -402511.53, 9927.086, -0.012093531, -0.29507768, -125644.086, 109744.63, 0.0, 10.0017185, 9.998075 
5.5508167e+2, 2.8597626e+2, -53497.73, -376967.78, 66659.305, -0.08251395, -0.262808, -40299.39, 97109.695, 0.00000024371042, 10.001808, 9.997532 
5.550944e+2, 2.959739e+2, 68641.01, -261027.4, 23890.64, -0.23526889, -0.275481, 70363.33, 109797.055, 0.0000058589785, 10.001936, 9.997596 
5.551101e+2, 3.0597204e+2, 282688.47, -45123.9, -33308.125, 0.0036988298, -0.2576572, 286038.6, 286038.6, 0.000029983938, 10.002715, 9.998359 
5.551249e+2, 3.1597006e+2, 425239.34, 34181.563, 78602.3, 0.19289547, -0.3140735, 440446.94, 440446.94, 0.00008393678, 10.003597, 9.998485 
5.64878e+2, 1.2597293e+2, -1814008.0, -1661434.0, 127897.67, 0.25627276, -0.07342408, -1588799.9, 116653.52, 0.000022362587, 9.998871, 10.00088 
5.6488115e+2, 1.3597322e+2, -1772470.6, -1624363.0, -116247.04, -0.4086296, -0.15442446, -1560586.0, 46862.44, 0.000004259607, 9.998581, 10.000647 
5.649005e+2, 1.4597325e+2, -1724370.5, -1649664.6, 1909.8032, 0.24468453, -0.15024778, -1649615.9, -140167.6, 0.00000013010742, 9.998691, 9.9997225 
5.6491226e+2, 1.559737e+2, -1486201.6, -1466516.1, -32232.586, 0.107576214, -0.11040403, -1442656.9, -31211.682, 0.0, 9.99959, 9.99987 
5.6492466e+2, 1.6597362e+2, -1397818.9, -1365162.4, 36615.336, -0.03031325, -0.10959865, -1341399.6, -27954.225, 0.0, 9.999492, 9.999941 
5.6493926e+2, 1.7597282e+2, -1414323.4, -1317280.5, 33937.06, -0.022266898, -0.20089902, -1306590.0, -91139.37, 0.0, 9.998683, 9.999985 
5.649536e+2, 1.8597272e+2, -1239260.3, -1158558.1, -17222.555, 0.069178894, -0.2195321, -1155036.4, -37586.543, 0.0, 9.999101, 10.0002 
5.6496733e+2, 1.9597295e+2, -967983.25, -981538.56, -19537.379, 0.16870703, -0.23736763, -954081.3, 65364.688, 0.0, 10.000314, 10.000156 
5.6498045e+2, 2.0597318e+2, -892440.5, -967300.8, 19781.148, 0.14852265, -0.19081274, -887534.94, 33909.473, 0.0, 10.000482, 9.999497 
5.649934e+2, 2.1597329e+2, -876920.8, -904818.8, 4640.4775, 0.07910608, -0.14901757, -876169.2, -52723.637, 0.0, 9.999898, 9.999533 
5.6500596e+2, 2.2597314e+2, -750019.06, -806183.0, -31272.887, 0.051218264, -0.107623525, -736070.25, -10624.118, 0.0, 10.000144, 9.999422 
5.6501836e+2, 2.359727e+2, -544004.56, -661143.4, -29244.9, 0.05098983, -0.115208894, -537109.2, 90338.516, 0.0, 10.000909, 9.999376 
5.650316e+2, 2.459709e+2, -474631.63, -667959.56, 37988.523, 0.012169849, -0.18467937, -467434.84, 62028.035, 0.0, 10.001121, 9.998548 
5.650454e+2, 2.5596797e+2, -392640.16, -582473.0, 4297.1143, -0.04820899, -0.3506215, -392542.94, 38946.54, 0.0, 10.001022, 9.998515 
5.6505865e+2, 2.6596645e+2, -246421.0, -489271.44, -68154.28, -0.03366198, -0.33916956, -228601.52, 104902.24, 0.0, 10.001484, 9.998253 
5.6507146e+2, 2.759657e+2, -28250.893, -339133.8, -63486.42, 0.032599244, -0.25785908, -15785.911, 219724.83, 0.0, 10.00234, 9.998197 
5.650844e+2, 2.8596354e+2, 35030.79, -363138.6, 33261.13, -0.015205855, -0.24306819, 37790.14, 175323.5, 0.00000046127252, 10.00253, 9.997283 
5.650974e+2, 2.9596037e+2, 103087.92, -265921.5, 43113.445, -0.13871108, -0.31328312, 108058.164, 147624.58, 0.000007820285, 10.00226, 9.997408 
5.651129e+2, 3.05959e+2, 263781.94, -25356.072, 29259.639, 0.033063278, -0.25276682, 266713.2, 266713.2, 0.000035959114, 10.002451, 9.998631 
5.651275e+2, 3.1595704e+2, 337938.72, 49178.035, 58055.758, 0.14743197, -0.33586577, 349173.78, 349173.78, 0.000094375246, 10.002751, 9.998996 
5.748757e+2, 1.2595984e+2, -1914776.4, -1879171.8, 163420.75, 0.0959085, -0.15658589, -1732586.5, -27009.713, 0.000015098279, 9.998909, 9.999363 
5.748816e+2, 1.3595973e+2, -1864637.8, -1816729.9, -128872.03, -0.24143498, -0.1295776, -1709604.5, -102020.88, 0.0000026568694, 9.998586, 9.99932 
5.749001e+2, 1.4595906e+2, -1706426.9, -1610246.5, 19314.047, 0.31090683, -0.15222275, -1606513.0, -96921.95, 0.000000050157187, 9.998687, 9.999993 
5.749115e+2, 1.5595876e+2, -1469164.4, -1431172.1, 4197.319, 0.051715855, -0.21306826, -1430713.9, -19122.66, 0.0, 9.999594, 10.000113 
5.7492405e+2, 1.6595903e+2, -1377200.4, -1323105.5, -4941.547, -0.05805329, -0.20152953, -1322657.9, -9071.231, 0.0, 9.999488, 10.000232 
5.74939e+2, 1.7595945e+2, -1398068.9, -1283629.4, 17973.713, 0.06640857, -0.20038997, -1280872.9, -65291.918, 0.0, 9.998676, 10.000222 
5.749532e+2, 1.859601e+2, -1242677.8, -1156127.6, 23218.08, 0.09447101, -0.15631953, -1150292.5, -32718.549, 0.0, 9.999065, 10.000233 
5.7496625e+2, 1.9596066e+2, -974378.4, -982398.56, 28955.57, 0.010284234, -0.13865007, -949156.56, 70411.555, 0.0, 10.000262, 10.000176 
5.7497984e+2, 2.0596056e+2, -908569.44, -980825.2, -10995.764, 0.025146866, -0.12408778, -906933.2, 14636.261, 0.0, 10.000396, 9.999446 
5.7499397e+2, 2.1595983e+2, -894816.5, -919993.75, -5365.818, 0.12545224, -0.15974219, -893720.6, -70143.516, 0.0, 9.9998, 9.999477 
5.75007e+2, 2.2595881e+2, -759203.94, -802718.1, -9342.821, 0.12315565, -0.20870434, -757282.75, -31698.22, 0.0, 10.000049, 9.999491 
5.750195e+2, 2.3595743e+2, -557772.4, -667836.94, 5675.6445, 0.048653044, -0.31508973, -557480.44, 70113.11, 0.0, 10.000814, 9.999376 
5.750328e+2, 2.4595651e+2, -507624.97, -732098.1, 26067.717, -0.007976229, -0.2723439, -504637.53, 24965.848, 0.0, 10.001091, 9.998127 
5.750466e+2, 2.5595582e+2, -426839.78, -640326.44, 12558.536, -0.05690978, -0.17238623, -426103.56, 5511.4136, 0.0, 10.000958, 9.998152 
5.750606e+2, 2.6595473e+2, -240854.8, -475826.44, -42664.38, -0.0073158923, -0.105412185, -233347.95, 100278.37, 0.0, 10.001467, 9.998358 
5.750748e+2, 2.7595314e+2, -21549.252, -321028.16, -28886.395, 0.10932231, -0.1184317, -18788.45, 216850.92, 0.0, 10.002305, 9.998346 
5.750882e+2, 2.8595063e+2, 74081.99, -267911.9, 13988.878, 0.09265115, -0.1830158, 74653.234, 212315.33, 0.0000006054728, 10.002475, 9.997962 
5.751011e+2, 2.9594737e+2, 132707.23, -188203.25, 45989.52, -0.023929687, -0.32672742, 139167.89, 178859.92, 0.000009307056, 10.002194, 9.9979725 
5.751157e+2, 3.0594644e+2, 239819.6, -72289.07, 37719.098, 0.04475222, -0.23141187, 244313.33, 244313.33, 0.000040671366, 10.002432, 9.998323 
5.7512844e+2, 3.1594503e+2, 355966.9, 94046.76, 86054.94, -0.08250907, -0.23020196, 381710.34, 381710.34, 0.00010372534, 10.002709, 9.999332 
5.848743e+2, 1.2594603e+2, -1955338.0, -1918272.8, 62717.03, 0.0839781, -0.10013923, -1871407.5, -165692.42, 0.000008007214, 9.998687, 9.999211 
5.848815e+2, 1.3594563e+2, -1882363.4, -1828865.4, -209773.17, -0.10063367, -0.08705105, -1644142.6, -36417.027, 0.0000012151539, 9.998479, 9.99929 
5.848987e+2, 1.4594512e+2, -1695045.6, -1540095.8, 55821.156, 0.3208356, -0.124844626, -1522080.6, -12350.294, 0.000000012980553, 9.998493, 10.00056 
5.849108e+2, 1.5594538e+2, -1508235.8, -1394260.4, 43932.902, 0.058519665, -0.18814433, -1379291.9, 32430.467, 0.0, 9.999083, 10.000604 
5.849237e+2, 1.659457e+2, -1393463.3, -1339035.3, 9276.116, -0.032345958, -0.19147529, -1337497.8, -23781.434, 0.0, 9.99941, 10.000157 
5.849385e+2, 1.7594583e+2, -1273538.1, -1229030.1, -6971.25, 0.1104613, -0.21306975, -1227963.9, -12249.858, 0.0, 9.999554, 10.000169 
5.849528e+2, 1.8594643e+2, -1164459.9, -1130531.1, 30429.29, 0.12362665, -0.16479565, -1112656.9, 5051.1953, 0.0, 9.999657, 10.000125 
5.849662e+2, 1.9594719e+2, -1063051.8, -1033611.9, 6691.078, 0.012393859, -0.11862285, -1032162.5, -12461.041, 0.0, 9.999689, 10.000103 
5.849799e+2, 2.0594706e+2, -979003.7, -994887.9, -36873.934, 0.02975973, -0.11374621, -949226.25, -27523.74, 0.0, 9.99982, 9.99963 
5.849941e+2, 2.1594617e+2, -850117.7, -880719.5, -21934.79, 0.15357022, -0.18665223, -838674.4, -14964.004, 0.0, 10.000026, 9.999641 
5.850075e+2, 2.2594504e+2, -689678.4, -781547.5, 22157.902, 0.14695694, -0.24721353, -684613.3, 41105.363, 0.0, 10.000593, 9.999374 
5.850205e+2, 2.3594354e+2, -480300.3, -644199.6, 2246.3066, 0.049142357, -0.3487853, -480269.53, 147459.77, 0.0, 10.001407, 9.999258 
5.8503425e+2, 2.4594289e+2, -440477.06, -701376.6, 19154.637, 0.013259464, -0.27523968, -439078.28, 90659.41, 0.0, 10.001551, 9.998118 
5.850484e+2, 2.559427e+2, -372536.0, -613622.6, 27123.39, 0.020944407, -0.12645628, -369522.2, 62223.285, 0.0, 10.001327, 9.998156 
5.8506274e+2, 2.6594153e+2, -208137.25, -465796.16, 28713.451, 0.050546918, -0.06472311, -204976.2, 128781.484, 0.0, 10.001725, 9.998299 
5.850771e+2, 2.759395e+2, 18287.102, -307560.7, 9461.271, 0.10069146, -0.11689343, 18561.586, 254336.36, 0.0, 10.002611, 9.998289 
5.8509094e+2, 2.859369e+2, 89897.24, -252528.2, -10308.137, 0.120886855, -0.18860754, 90207.27, 228004.53, 0.00000055145284, 10.002548, 9.998031 
5.851044e+2, 2.9593387e+2, 69885.875, -215656.63, -34894.813, 0.12308536, -0.31459042, 74088.35, 113912.12, 0.000008783807, 10.001754, 9.9979925 
5.851186e+2, 3.059327e+2, 129895.84, -155168.75, -8730.214, 0.12915649, -0.22677122, 130162.96, 130162.96, 0.000039667964, 10.001806, 9.998045 
5.8512986e+2, 3.159314e+2, 308759.8, 70672.41, 16730.46, -0.18374968, -0.19513366, 309929.72, 309929.72, 0.00010388008, 10.002388, 9.999313 
5.9487367e+2, 1.2593135e+2, -1847771.0, -1699127.6, 61676.453, 0.099022254, 0.1014938, -1676869.3, 29000.63, 0.0000033726953, 9.998723, 10.00069 
5.948805e+2, 1.3593097e+2, -1789369.9, -1632041.3, -218066.75, -0.066600375, -0.02461695, -1478884.1, 128990.164, 0.00000044999516, 9.998477, 10.000638 
5.94896e+2, 1.4593148e+2, -1631078.8, -1407333.4, 64260.36, 0.17857037, -0.07117262, -1390191.0, 119674.44, 0.000000014541682, 9.998491, 10.001471 
5.9490997e+2, 1.5593366e+2, -1456382.6, -1286475.3, 72185.51, 0.041294772, -0.030406572, -1259948.6, 151888.89, 0.0, 9.99908, 10.001347 
5.949234e+2, 1.6593376e+2, -1427607.4, -1401544.6, 5805.3486, -0.02743572, -0.06528202, -1400310.0, -86476.82, 0.0, 9.999379, 9.9997425 
5.949375e+2, 1.7593203e+2, -1299888.3, -1283332.3, 6300.854, 0.031283956, -0.23043342, -1281207.1, -65358.14, 0.0, 9.999557, 9.999796 
5.949521e+2, 1.8593174e+2, -1184204.1, -1167723.5, 22867.76, 0.074170485, -0.24055755, -1151656.6, -33804.637, 0.0, 9.999639, 9.999879 
5.9496677e+2, 1.9593239e+2, -1083679.1, -1064858.6, 15799.128, 0.08734338, -0.1829887, -1055879.6, -36032.61, 0.0, 9.999639, 9.999914 
5.949805e+2, 2.059326e+2, -953640.44, -925923.0, -36587.258, 0.08593985, -0.16291799, -900657.6, 21186.408, 0.0, 9.999748, 10.000138 
5.949936e+2, 2.159323e+2, -832480.4, -826102.2, -3416.5005, 0.08676478, -0.22506458, -824617.7, -772.90845, 0.0, 9.999947, 10.000057 
5.9500724e+2, 2.2593182e+2, -724560.6, -837131.25, 44990.54, 0.045722093, -0.22039153, -708789.1, 17059.035, 0.0, 10.000517, 9.99903 
5.950213e+2, 2.3593101e+2, -513918.97, -692896.6, 37166.7, -0.029540677, -0.21933311, -506507.75, 121347.53, 0.0, 10.001311, 9.998973 
5.9503585e+2, 2.4592994e+2, -415470.97, -641590.8, 2671.0532, -0.004111883, -0.19825524, -415439.44, 114426.97, 0.0, 10.001511, 9.998552 
5.9505063e+2, 2.5592858e+2, -355157.78, -562490.56, 28407.225, 0.09423353, -0.21060055, -351336.06, 80544.96, 0.0, 10.001258, 9.998542 
5.9506476e+2, 2.6592687e+2, -231138.66, -502515.7, 54178.52, 0.06192748, -0.20879306, -220722.13, 113175.31, 0.0, 10.001681, 9.998068 
5.950781e+2, 2.7592468e+2, -10181.539, -352270.72, 47031.996, -0.074002005, -0.2539573, -3833.1743, 232084.14, 0.0, 10.002547, 9.9980135 
5.950925e+2, 2.859223e+2, 47603.64, -331128.9, -48973.19, -0.0022456264, -0.2622772, 53833.785, 191772.86, 0.0000003359344, 10.002512, 9.997505 
5.951073e+2, 2.959198e+2, 25975.428, -290873.9, -52404.223, 0.21484484, -0.28780553, 34417.707, 74379.9, 0.000006914508, 10.00169, 9.997503 
5.951214e+2, 3.0591777e+2, 104302.95, -200803.97, 8336.609, 0.21132691, -0.24961533, 104530.57, 104530.57, 0.000035638073, 10.001774, 9.997749 
5.951312e+2, 3.1591633e+2, 269265.6, 14018.646, 74874.66, -0.3279863, -0.19932811, 289608.22, 289608.22, 0.00009897654, 10.002282, 9.998975 
6.0487235e+2, 1.2591472e+2, -2084902.6, -1716349.1, 145059.17, 0.2120348, 0.07101703, -1666104.9, 39932.164, 0.0000011578151, 9.996656, 10.001588 
6.048795e+2, 1.3591586e+2, -1756786.8, -1511913.3, -212342.63, 0.0060308278, 0.0022466534, -1389237.5, 218784.47, 0.00000014603442, 9.998262, 10.00156 
6.0489357e+2, 1.459169e+2, -1657757.5, -1432962.3, 8619.092, 0.09804019, -0.029294703, -1432632.3, 77375.78, 0.0000000031309833, 9.998358, 10.0013685 
6.049093e+2, 1.5591887e+2, -1673622.4, -1399529.3, -77264.164, 0.14917147, 0.0055963052, -1379249.8, 32734.986, 0.0, 9.997623, 10.00128 
6.049234e+2, 1.6591898e+2, -1592598.8, -1454797.3, -97738.65, 0.10131717, -0.038879123, -1404114.8, -90133.664, 0.0, 9.998124, 9.999986 
6.0493696e+2, 1.7591746e+2, -1296602.3, -1256729.6, -66657.83, 0.030381748, -0.20788592, -1207090.6, 8903.321, 0.0, 9.999465, 10.000026 
6.049517e+2, 1.8591735e+2, -1126882.3, -1117607.9, -23997.572, 0.05865069, -0.22312331, -1097803.5, 20191.365, 0.0, 9.999937, 10.000077 
6.0496706e+2, 1.9591807e+2, -1046414.56, -1022241.44, -11265.37, 0.14548066, -0.17667027, -1017805.5, 2183.0051, 0.0, 9.999789, 10.00013 
6.0498077e+2, 2.0591855e+2, -913313.06, -879832.9, -34536.81, 0.13539177, -0.15386909, -858193.0, 63789.355, 0.0, 9.999912, 10.00038 
6.0499334e+2, 2.1591862e+2, -786571.44, -780962.7, -35992.535, 0.06568721, -0.20121157, -747665.44, 76313.13, 0.0, 10.000159, 10.000267 
6.050075e+2, 2.2591826e+2, -741121.6, -858719.4, 42754.332, 0.026119558, -0.18661234, -727220.8, -1239.5807, 0.0, 10.000459, 9.998912 
6.0502267e+2, 2.3591743e+2, -591237.7, -733894.4, 36182.957, 0.008942145, -0.1787576, -582585.1, 45405.04, 0.0, 10.000806, 9.998928 
6.050374e+2, 2.4591629e+2, -448356.72, -625149.75, 378.76132, 0.030659322, -0.17644587, -448355.9, 81645.57, 0.0, 10.001171, 9.998819 
6.050519e+2, 2.559148e+2, -292362.4, -505720.28, -2183.3665, 0.08310105, -0.22527696, -292340.06, 139675.72, 0.0, 10.001589, 9.998769 
6.050663e+2, 2.6591313e+2, -228132.52, -508637.16, 49581.21, 0.050267264, -0.22640938, -219626.61, 114405.055, 0.0, 10.0017185, 9.998017 
6.050805e+2, 2.7591112e+2, -147397.48, -426836.03, 38995.97, -0.039135464, -0.24488059, -142057.6, 93992.98, 0.0, 10.001623, 9.997955 
6.0509497e+2, 2.8590867e+2, -31305.023, -390565.63, -31295.1, 0.030173352, -0.2500571, -28599.293, 109474.77, 0.00000016006682, 10.002057, 9.997318 
6.051096e+2, 2.9590586e+2, 189106.23, -231989.31, -29101.607, 0.21942335, -0.28638935, 191107.9, 231208.48, 0.0000052467194, 10.002884, 9.997336 
6.051235e+2, 3.0590352e+2, 207787.92, -158718.67, 55335.797, 0.2168551, -0.2632092, 215960.38, 215960.38, 0.000031333126, 10.002525, 9.997682 
6.051337e+2, 3.1590202e+2, 99724.3, -96743.03, 115165.84, -0.24632142, -0.20640422, 152861.13, 152861.13, 0.000092264556, 10.001245, 9.998727 
6.148701e+2, 1.2589616e+2, -2051757.5, -1645059.5, 161971.6, 0.2761411, -0.19090378, -1588436.1, 117779.58, 0.00000031033701, 9.996659, 10.002067 
6.148783e+2, 1.3590042e+2, -1727435.0, -1448139.3, -154133.13, 0.033984564, -0.002084323, -1379800.3, 228367.56, 0.000000018009526, 9.998262, 10.001991 
6.148912e+2, 1.4590135e+2, -1737216.8, -1606937.1, -36689.375, -0.0031250226, 0.0022065735, -1597315.4, -87157.586, 0.0, 9.998386, 10.000164 
6.1490864e+2, 1.5590088e+2, -1738850.4, -1545517.6, -92352.45, 0.301862, -0.090839766, -1508492.8, -96327.4, 0.0, 9.997654, 10.00027 
6.1492336e+2, 1.6590124e+2, -1532265.6, -1318542.6, -55986.96, 0.26980773, -0.11402267, -1304764.5, 9396.347, 0.0, 9.998085, 10.000937 
6.149367e+2, 1.7590201e+2, -1233771.9, -1127953.5, -12521.292, 0.042554814, -0.14937156, -1126492.0, 89658.11, 0.0, 9.999469, 10.000911 
6.1495125e+2, 1.8590312e+2, -1087521.6, -1022811.4, -37389.918, 0.0059376094, -0.11708445, -1005720.94, 112416.6, 0.0, 9.999885, 10.00075 
6.1496663e+2, 1.9590434e+2, -1011813.06, -940368.94, -6852.6675, 0.106480464, -0.088703305, -939717.56, 80407.41, 0.0, 9.999745, 10.000714 
6.149804e+2, 2.0590502e+2, -925325.75, -887142.9, -32912.363, 0.09554428, -0.07029001, -868185.56, 53930.465, 0.0, 9.999838, 10.000363 
6.1499316e+2, 2.1590513e+2, -801352.06, -790941.3, -19494.32, 0.012771586, -0.11262029, -775969.4, 48142.125, 0.0, 10.000069, 10.000242 
6.15008e+2, 2.2590438e+2, -743524.9, -844612.9, 49738.082, 0.018144896, -0.14385799, -723156.44, 2961.2395, 0.0, 10.000374, 9.999049 
6.150243e+2, 2.3590286e+2, -595609.75, -721198.7, 58161.53, 0.08512603, -0.21865505, -572812.75, 55320.246, 0.0, 10.00071, 9.999062 
6.150389e+2, 2.4590193e+2, -453994.2, -624394.7, 6919.573, 0.039702922, -0.2054945, -453713.66, 76429.23, 0.0, 10.001115, 9.998851 
6.150519e+2, 2.5590122e+2, -299629.0, -508096.78, 17232.617, -0.08787861, -0.18078497, -298214.13, 133936.5, 0.0, 10.00153, 9.998782 
6.150671e+2, 2.659002e+2, -225381.2, -492118.84, 38210.188, -0.051283125, -0.123118445, -220015.53, 114145.48, 0.0, 10.001674, 9.998151 
6.1508375e+2, 2.758988e+2, -151277.22, -412568.13, 48191.395, 0.104010865, -0.09890518, -142672.38, 93502.65, 0.0, 10.001533, 9.998094 
6.150982e+2, 2.8589597e+2, -28907.639, -376216.25, -8586.868, 0.12843452, -0.15175259, -28695.465, 109506.484, 0.00000012615395, 10.002013, 9.9974375 
6.1511093e+2, 2.9589218e+2, 186162.69, -217310.66, 3336.7053, 0.048009433, -0.30436927, 186190.28, 226428.02, 0.000004351736, 10.002796, 9.997477 
6.1512476e+2, 3.0589023e+2, 209926.08, -149445.84, 1538.0933, 0.06972664, -0.25590193, 209932.66, 209932.66, 0.000027327982, 10.002501, 9.997765 
6.151367e+2, 3.1588867e+2, 73200.02, -133010.03, 101638.914, -0.11805228, -0.20553274, 114874.54, 114874.54, 0.00008383067, 10.001166, 9.998519 
6.248669e+2, 1.2588058e+2, -1891260.1, -1576052.1, 255364.6, 0.24901459, -0.22750348, -1433572.6, 272792.4, 0.000000031381585, 9.997783, 10.002009 
6.248784e+2, 1.3588454e+2, -1593798.5, -1386436.1, -103622.64, 0.18694119, -0.067207284, -1343531.4, 264788.84, 0.000000000001578113, 9.999169, 10.001992 
6.2489015e+2, 1.4588535e+2, -1617023.6, -1593325.1, -18026.57, 0.010705884, -0.055948075, -1583602.1, -73289.01, 0.0, 9.999408, 9.99976 
6.249068e+2, 1.5588471e+2, -1559497.6, -1492907.9, -23883.424, 0.28904513, -0.124540485, -1485227.5, -72902.914, 0.0, 9.999055, 9.999938 
6.249218e+2, 1.6588551e+2, -1391884.5, -1218243.5, 68611.516, 0.27300686, -0.107283704, -1194405.4, 119911.85, 0.0, 9.998907, 10.001231 
6.2493616e+2, 1.7588712e+2, -1315091.0, -1127213.4, 40535.0, 0.07690388, -0.090069406, -1118841.0, 97457.3, 0.0, 9.99876, 10.001248 
6.249509e+2, 1.8588838e+2, -1241473.3, -1074646.4, -29938.953, 0.042118207, -0.070152625, -1069436.3, 48847.05, 0.0, 9.998711, 10.000971 
6.2496597e+2, 1.958892e+2, -1148548.5, -982645.6, -42861.625, 0.11842695, -0.104530066, -972226.56, 48046.457, 0.0, 9.998695, 10.000935 
6.2498015e+2, 2.0588978e+2, -997188.2, -938696.25, -44237.785, 0.11502663, -0.10009454, -914911.0, 7353.835, 0.0, 9.999415, 10.000215 
6.2499404e+2, 2.1588989e+2, -726390.75, -764972.3, -58186.973, 0.06663274, -0.1260133, -684380.2, 139880.31, 0.0, 10.000636, 10.000145 
6.25009e+2, 2.2588922e+2, -700133.0, -825462.25, -17708.447, 0.06684815, -0.14548382, -697678.94, 28587.93, 0.0, 10.000679, 9.999032 
6.250248e+2, 2.3588777e+2, -717084.8, -781163.9, -33306.83, 0.10395701, -0.2095683, -702908.8, -74626.18, 0.0, 9.999878, 9.999053 
6.250393e+2, 2.4588704e+2, -613910.06, -674246.9, -37728.617, 0.037920784, -0.18869257, -595771.3, -65480.313, 0.0, 9.999882, 9.999112 
6.250528e+2, 2.5588667e+2, -429182.47, -536365.0, -25988.822, -0.09919664, -0.15614791, -423213.3, 9082.184, 0.0, 10.000487, 9.999093 
6.2506855e+2, 2.6588604e+2, -285352.66, -463880.63, 19673.072, -0.038866553, -0.10109939, -283210.47, 51090.883, 0.0, 10.001012, 9.998663 
6.250858e+2, 2.7588505e+2, -133651.2, -352736.13, 41277.418, 0.16349123, -0.08970533, -126132.24, 110178.26, 0.0, 10.00143, 9.998553 
6.251004e+2, 2.8588268e+2, -62632.93, -406200.88, 20059.266, 0.16168934, -0.109016895, -61465.73, 76868.74, 0.000000116905284, 10.001845, 9.997314 
6.2511307e+2, 2.9587936e+2, 103050.42, -276328.8, -11539.766, 0.016281143, -0.19923304, 103401.11, 143770.47, 0.000004287332, 10.002295, 9.997322 
6.2512666e+2, 3.0587757e+2, 191666.17, -159408.42, -55204.66, 0.023157615, -0.12504591, 200142.19, 200142.19, 0.000025852014, 10.002391, 9.997739 
6.2513894e+2, 3.1587514e+2, 231975.97, -32262.96, 16075.102, -0.049411595, -0.1660075, 232950.31, 232950.31, 0.00007867894, 10.002151, 9.998726 
6.348624e+2, 1.2586801e+2, -1918332.1, -1653093.3, 222963.97, -0.02683778, -0.03660365, -1526288.6, 180196.1, 0.0000000061075784, 9.997878, 10.001434 
6.348798e+2, 1.3586818e+2, -1624466.4, -1455195.3, -55758.316, 0.38814932, -0.19819649, -1438479.1, 170000.81, 0.0, 9.999189, 10.001514 
6.3489026e+2, 1.4586888e+2, -1583413.3, -1519995.1, -42154.75, 0.058016203, -0.20318106, -1498954.9, 11519.039, 0.0, 9.999398, 10.000267 
6.3490355e+2, 1.5587044e+2, -1523869.9, -1432836.3, -23281.307, 0.032405593, -0.10112485, -1427227.8, -14765.245, 0.0, 9.999107, 10.000331 
6.3491845e+2, 1.6587174e+2, -1418123.9, -1270251.5, 53901.727, 0.025093442, -0.031162074, -1252689.3, 61760.957, 0.0, 9.9988985, 10.000876 
6.349349e+2, 1.7587273e+2, -1338504.5, -1180329.3, 42439.273, 0.055910744, -0.037909318, -1169662.0, 46776.945, 0.0, 9.99877, 10.000885 
6.349502e+2, 1.85873e+2, -1260064.1, -1102880.0, -37915.797, 0.084678665, -0.0906273, -1094212.0, 24221.25, 0.0, 9.9986725, 10.000792 
6.3496464e+2, 1.9587258e+2, -1169131.4, -1015823.75, -32578.541, 0.10377494, -0.23241217, -1009187.9, 11245.595, 0.0, 9.998652, 10.000728 
6.3497984e+2, 2.0587265e+2, -1029104.75, -981561.06, -6707.739, 0.12534377, -0.25198188, -980632.8, -58202.82, 0.0, 9.999318, 9.999965 
6.349956e+2, 2.1587291e+2, -758887.56, -805418.56, -9923.391, 0.14862713, -0.24205887, -756859.6, 67565.98, 0.0, 10.000522, 9.999921 
6.3501006e+2, 2.2587274e+2, -726610.0, -859354.0, -55518.938, 0.09669351, -0.1907175, -706451.06, 19978.014, 0.0, 10.000586, 9.998847 
6.350236e+2, 2.3587207e+2, -738699.4, -805971.0, -49613.2, -0.013525291, -0.16113034, -712394.9, -83954.87, 0.0, 9.999786, 9.998929 
6.3503844e+2, 2.4587163e+2, -588001.8, -607326.2, -21214.488, -0.050731838, -0.13145028, -574352.8, -43906.824, 0.0, 9.999826, 9.9995985 
6.350541e+2, 2.558712e+2, -404271.5, -467234.22, 4249.6836, -0.033213727, -0.15347987, -403985.97, 28464.049, 0.0, 10.000408, 9.999608 
6.3507026e+2, 2.6587072e+2, -236486.1, -342738.88, 26820.645, 0.013388268, -0.15451021, -230099.8, 104352.54, 0.0, 10.0009365, 9.999526 
6.350864e+2, 2.7587e+2, -96880.516, -250576.84, 66066.74, 0.06822158, -0.2013232, -72385.43, 164070.34, 0.0, 10.001326, 9.999303 
6.3510144e+2, 2.8586882e+2, -91815.164, -458809.22, 26104.117, 0.0624764, -0.11705754, -89967.695, 48503.66, 0.0000001448745, 10.001812, 9.996972 
6.3511574e+2, 2.9586732e+2, 63302.13, -334355.97, 13696.995, 0.020504843, 0.0153473895, 63773.35, 104269.22, 0.000005079309, 10.002203, 9.996965 
6.351288e+2, 3.0586568e+2, 174909.23, -195887.02, -67348.1, -0.023685062, 0.1342864, 186762.81, 186762.81, 0.000027855136, 10.002383, 9.997497 
6.351398e+2, 3.158614e+2, 242548.8, 20216.756, 41250.68, -0.216067, -0.08061981, 249955.55, 249955.55, 0.00008145653, 10.002016, 9.999153 
6.448593e+2, 1.2585354e+2, -1884017.1, -1683867.5, 152580.4, -0.13538161, -0.0014452352, -1601471.1, 105154.375, 0.0000000021671396, 9.998319, 10.001012 
6.448786e+2, 1.3585347e+2, -1968787.0, -1655635.3, -75215.18, 0.46720237, -0.14505969, -1638506.4, -29879.186, 0.0, 9.997, 10.001179 
6.44889e+2, 1.458544e+2, -1777944.4, -1556865.3, -2994.3564, 0.0780809, -0.14051862, -1556824.6, -46206.348, 0.0, 9.997816, 10.00078 
6.44903e+2, 1.5585595e+2, -1354652.3, -1299181.0, -7637.9053, 0.02456315, -0.08851482, -1298148.5, 114453.984, 0.0, 10.000045, 10.000797 
6.4491785e+2, 1.6585712e+2, -1275102.1, -1237958.4, 26706.63, 0.027221015, -0.037545826, -1224000.9, 90590.02, 0.0, 10.000034, 10.000554 
6.4493364e+2, 1.7585787e+2, -1405207.4, -1244347.6, 10845.951, 0.080431014, -0.03535788, -1243619.6, -27036.5, 0.0, 9.998448, 10.000602 
6.44949e+2, 1.8585789e+2, -1259647.8, -1114148.3, 8677.092, 0.10363708, -0.093976796, -1113632.5, 4947.5054, 0.0, 9.998724, 10.000689 
6.449641e+2, 1.9585718e+2, -939835.7, -915012.1, 2195.6177, 0.10821975, -0.2548395, -914819.44, 105763.09, 0.0, 10.000278, 10.000631 
6.449798e+2, 2.058571e+2, -853886.94, -911716.06, 36357.098, 0.1319603, -0.28101745, -836348.4, 86232.65, 0.0, 10.00058, 9.999835 
6.44996e+2, 2.1585727e+2, -856453.1, -870464.75, 23216.863, 0.17331766, -0.26571125, -839208.06, -14629.41, 0.0, 9.999921, 9.999765 
6.450106e+2, 2.2585721e+2, -768200.6, -879898.06, -306.00253, 0.112900265, -0.19504623, -768199.8, -41618.094, 0.0, 10.000297, 9.998848 
6.450241e+2, 2.3585682e+2, -499555.3, -687349.2, -1925.3044, -0.019376298, -0.14043415, -499535.56, 129054.805, 0.0, 10.001413, 9.998959 
6.450392e+2, 2.4585648e+2, -372198.56, -491533.53, 19719.969, -0.026483629, -0.10833269, -369024.28, 161571.27, 0.0, 10.001265, 9.9997015 
6.450553e+2, 2.55856e+2, -423621.8, -460021.97, 6983.8267, 0.06186409, -0.14110418, -422327.88, 10271.67, 0.0, 10.000212, 9.999752 
6.450712e+2, 2.6585558e+2, -300106.88, -327838.56, 49496.332, 0.061979566, -0.16601445, -262570.88, 72029.95, 0.0, 10.000295, 9.999943 
6.4508706e+2, 2.7585497e+2, -81464.34, -197073.84, 36150.984, 0.010283278, -0.24435188, -71090.78, 165511.63, 0.000000000000000000046744374, 10.001226, 9.999721 
6.451026e+2, 2.858544e+2, -74066.41, -419296.97, 17145.338, 0.0018078118, -0.1373668, -73217.0, 65395.727, 0.00000034821963, 10.001797, 9.997251 
6.451178e+2, 2.9585367e+2, 55638.066, -313234.28, 29347.576, 0.027756488, 0.043356124, 57958.375, 98589.484, 0.0000068469953, 10.002026, 9.997201 
6.4513105e+2, 3.0585188e+2, 100995.35, -239721.89, -24169.68, -0.002414683, 0.14286326, 102701.35, 102701.35, 0.00003364889, 10.0019245, 9.997407 
6.451424e+2, 3.15848e+2, 219090.39, 57925.53, 52308.785, -0.1325129, -0.025443668, 234579.48, 234579.48, 0.000093640454, 10.001656, 9.999576 
6.5485716e+2, 1.2583707e+2, -1890582.1, -1703913.3, -2444.4143, -0.22037505, -0.13613711, -1703881.3, 2907.0776, 0.0000000012982254, 9.998352, 10.0008545 
6.5487444e+2, 1.3584052e+2, -1979735.1, -1681409.0, -108102.586, 0.332571, 0.0988493, -1646355.4, -37594.227, 0.0, 9.997015, 10.000993 
6.548861e+2, 1.4584196e+2, -1740221.0, -1480403.9, 71080.414, -0.00986088, 0.13300823, -1462229.3, 48516.55, 0.0, 9.997821, 10.001307 
6.549049e+2, 1.5584128e+2, -1322900.6, -1237087.0, 72528.23, 0.18899372, -0.08749619, -1195724.4, 217020.92, 0.0, 10.000055, 10.001224 
6.5491986e+2, 1.6584158e+2, -1290354.4, -1269087.3, -43469.203, 0.20063515, -0.12713464, -1234969.9, 79769.7, 0.0, 10.000031, 10.000337 
6.549322e+2, 1.7584254e+2, -1417709.8, -1275457.1, -31332.322, 0.06930687, -0.08450982, -1268861.8, -52130.984, 0.0, 9.9984665, 10.000379 
6.5494716e+2, 1.8584307e+2, -1263667.5, -1114269.8, 59317.945, 0.02576569, -0.08379041, -1093582.4, 25141.244, 0.0, 9.998691, 10.000704 
6.5496397e+2, 1.958431e+2, -943070.56, -911218.4, 63200.35, 0.052136917, -0.17372267, -861968.4, 158751.2, 0.0, 10.0002365, 10.000677 
6.549799e+2, 2.0584314e+2, -869702.4, -927977.06, 3790.7493, 0.061964925, -0.18406446, -869456.8, 53260.824, 0.0, 10.000506, 9.999762 
6.5499485e+2, 2.1584298e+2, -871792.2, -881430.06, 11312.949, 0.05394185, -0.19560431, -864314.6, -39594.965, 0.0, 9.999831, 9.999733 
6.5501034e+2, 2.2584267e+2, -774774.9, -867106.44, 33736.89, 0.038132485, -0.1579064, -763761.5, -37036.89, 0.0, 10.000188, 9.998984 
6.55026e+2, 2.3584203e+2, -510206.22, -679585.9, 41167.316, 0.009156078, -0.13916259, -500730.7, 128002.86, 0.0, 10.001291, 9.999066 
6.550412e+2, 2.4584158e+2, -401080.66, -531819.2, -29864.607, 0.038119305, -0.11030417, -394581.72, 136157.83, 0.0, 10.001183, 9.999463 
6.550561e+2, 2.5584108e+2, -448803.3, -494538.53, -18236.506, 0.101231314, -0.12710947, -442422.03, -9677.045, 0.0, 10.000141, 9.999544 
6.550715e+2, 2.6584065e+2, -300716.0, -328372.34, 74590.51, 0.03775977, -0.14474554, -238682.7, 96064.69, 0.0, 10.000282, 9.99995 
6.550873e+2, 2.7584007e+2, -84749.68, -190526.83, 78615.03, -0.1092305, -0.21204431, -42888.453, 193860.7, 0.0000000002377775, 10.001159, 9.999805 
6.551033e+2, 2.8583953e+2, -21604.895, -289975.03, 16107.934, -0.12284842, -0.15729624, -20641.533, 118115.64, 0.0000008000927, 10.001719, 9.998169 
6.551192e+2, 2.958386e+2, 95613.375, -198052.0, 45477.04, -0.057256512, -0.092048034, 102494.7, 143267.73, 0.000010270006, 10.001903, 9.998043 
6.5513325e+2, 3.058364e+2, 103686.52, -241720.31, -41776.74, -0.000041739586, -0.07364839, 108667.56, 108667.56, 0.00004390313, 10.001944, 9.997395 
6.55146e+2, 3.1583473e+2, 244806.95, 111006.0, 62043.88, 0.013704915, -0.0138453515, 269148.56, 269148.56, 0.00011355579, 10.001652, 9.999951 
6.6485536e+2, 1.2582156e+2, -2120488.0, -1811029.6, 10298.233, -0.14642622, -0.19902919, -1810687.4, -103748.945, 0.00000000035571668, 9.996754, 10.000884 
6.6487265e+2, 1.3582537e+2, -1507570.1, -1471887.5, -42942.55, 0.29709208, 0.08203333, -1443227.5, 165681.23, 0.0, 10.000309, 10.000854 
6.6488475e+2, 1.458269e+2, -1366465.9, -1286634.5, 96062.07, -0.043378014, 0.12700053, -1222525.3, 288366.72, 0.0, 10.000344, 10.001413 
6.649043e+2, 1.5582606e+2, -1626973.5, -1372469.6, 46946.91, 0.2345022, -0.12275697, -1364085.8, 48806.117, 0.0, 9.997931, 10.001314 
6.649196e+2, 1.6582604e+2, -1584703.6, -1425240.1, -45164.363, 0.2734519, -0.19313838, -1413337.0, -98448.46, 0.0, 9.998073, 10.000212 
6.64932e+2, 1.7582652e+2, -1193698.6, -1180680.9, -43062.58, 0.13263154, -0.18689883, -1143638.1, 73245.47, 0.0, 10.000059, 10.000259 
6.6494685e+2, 1.8582706e+2, -1080048.5, -1058467.6, 50697.445, 0.06501472, -0.16285758, -1017425.06, 101452.3, 0.0, 10.000103, 10.0004015 
6.649634e+2, 1.9582745e+2, -1178466.4, -1057786.0, 13313.293, 0.053453904, -0.18420054, -1056334.8, -35462.496, 0.0, 9.998758, 10.000385 
6.6497946e+2, 2.0582782e+2, -1041199.2, -989710.56, -16111.611, 0.04172262, -0.1584266, -985084.6, -62216.324, 0.0, 9.99924, 9.999948 
6.64995e+2, 2.1582799e+2, -686718.25, -772405.94, -8326.196, 0.028683666, -0.15376177, -685916.7, 138950.42, 0.0, 10.001021, 9.999908 
6.6501105e+2, 2.2582759e+2, -596481.6, -761376.1, 25001.951, 0.03873009, -0.14247435, -592774.1, 134097.97, 0.0, 10.001324, 9.999166 
6.650273e+2, 2.3582661e+2, -616753.56, -720094.06, 19701.598, 0.061354052, -0.17517257, -613124.94, 15758.087, 0.0, 10.000505, 9.999173 
6.6504246e+2, 2.4582613e+2, -527844.6, -629003.1, -51251.254, 0.08923059, -0.13713717, -506417.28, 24472.467, 0.0, 10.000451, 9.999152 
6.6505677e+2, 2.558258e+2, -356389.56, -492113.5, -65808.82, 0.11993966, -0.105156675, -329720.88, 103174.43, 0.0, 10.000935, 9.999189 
6.6507214e+2, 2.6582512e+2, -265764.94, -371550.72, 30989.322, 0.05336135, -0.10012397, -257355.33, 77546.63, 0.0, 10.000782, 9.999411 
6.650882e+2, 2.758241e+2, -252094.31, -315820.22, -21607.574, -0.07856755, -0.16302569, -245458.77, -8548.216, 0.0000000023427176, 10.000208, 9.999396 
6.6510475e+2, 2.8582355e+2, -151572.72, -260813.88, -69283.56, -0.08113491, -0.130109, -117968.48, 20947.787, 0.0000014418595, 10.000429, 9.998991 
6.651213e+2, 2.95823e+2, 51957.09, -126858.43, -66453.14, 0.007965431, -0.11342716, 73948.46, 114872.195, 0.000014823799, 10.00121, 9.998858 
6.651359e+2, 3.058202e+2, 205147.44, -190778.67, -127493.11, 0.045785155, -0.19306211, 242649.6, 242649.6, 0.000057815294, 10.002645, 9.997404 
6.6514975e+2, 3.1581905e+2, 617571.56, 258961.53, -69331.414, 0.09358251, -0.0705683, 630508.94, 630508.94, 0.00014076727, 10.0043545, 9.99967 
6.748533e+2, 1.2580715e+2, -2106941.5, -1784837.4, 56172.086, -0.06765369, -0.19137295, -1775322.6, -68248.516, 0.0000000023126079, 9.996772, 10.001051 
6.7487305e+2, 1.3580798e+2, -1506574.3, -1477590.9, 81324.52, 0.2832079, -0.20883824, -1409477.0, 199592.92, 0.0, 10.000353, 10.00079 
6.748846e+2, 1.4580932e+2, -1381562.3, -1331198.3, -8256.441, -0.11491766, -0.16059124, -1329879.3, 181176.8, 0.0, 10.000395, 10.001086 
6.7490065e+2, 1.5581048e+2, -1643717.0, -1410160.8, -22655.77, 0.056139134, -0.17809331, -1407983.4, 5057.446, 0.0, 9.997939, 10.001054 
6.749167e+2, 1.6581056e+2, -1583850.5, -1421978.0, 21685.047, 0.15782058, -0.22709233, -1419123.4, -104086.84, 0.0, 9.998063, 10.00024 
6.7493296e+2, 1.7580982e+2, -1196270.4, -1184608.0, 30590.906, 0.20089735, -0.34560528, -1159297.5, 57743.61, 0.0, 10.000054, 10.000236 
6.749479e+2, 1.8580987e+2, -1128116.4, -1155263.6, -10260.183, 0.14504701, -0.33553272, -1124674.9, -5633.5933, 0.0, 10.000086, 9.999747 
6.749621e+2, 1.9581029e+2, -1227256.9, -1144777.8, -20372.715, 0.022663992, -0.28667444, -1140020.0, -118979.766, 0.0, 9.998697, 9.999818 
6.749783e+2, 2.0581122e+2, -1028457.1, -942995.94, 43793.277, -0.007869483, -0.19794482, -924540.3, -1508.1237, 0.0, 9.999148, 10.000317 
6.7499614e+2, 2.1581233e+2, -672808.94, -722577.2, 59001.42, 0.026211835, -0.13744436, -633658.8, 191362.06, 0.0, 10.000928, 10.000297 
6.750126e+2, 2.2581208e+2, -596040.4, -732037.2, -12781.48, 0.047460806, -0.14401267, -594849.5, 132173.92, 0.0, 10.001206, 9.999423 
6.750279e+2, 2.3581062e+2, -619506.44, -697556.6, 3704.169, 0.053428996, -0.24901496, -619331.06, 9706.88, 0.0, 10.000391, 9.999381 
6.7504275e+2, 2.4581021e+2, -571264.8, -701806.75, -38895.23, 0.048700325, -0.18790112, -560554.6, -29509.707, 0.0, 10.000378, 9.998686 
6.7505705e+2, 2.5581032e+2, -405722.34, -576012.4, -42704.93, 0.037437912, -0.063231416, -395613.06, 37435.613, 0.0, 10.000851, 9.998652 
6.750728e+2, 2.658092e+2, -348109.9, -530357.2, 1747.6622, 0.029242236, -0.020902723, -348093.16, -13030.449, 0.0, 10.000732, 9.9983425 
6.7508954e+2, 2.75807e+2, -322664.53, -452215.34, -27278.13, 0.015549652, -0.094853245, -317155.16, -80069.32, 0.0000000015372758, 10.000167, 9.99848 
6.751067e+2, 2.858065e+2, -94098.35, -147572.14, -47483.74, 0.05145047, -0.059857573, -66341.516, 72748.04, 0.0000017821444, 10.000452, 9.999759 
6.7512393e+2, 2.9580697e+2, 91823.87, -26528.57, -23463.635, 0.11774967, -0.012673263, 96305.85, 137387.4, 0.000019076204, 10.001133, 9.999587 
6.7513853e+2, 3.0580324e+2, 194283.75, -197196.77, -69172.62, 0.032521136, -0.21763313, 206146.72, 206146.72, 0.000073988194, 10.002581, 9.997384 
6.7515284e+2, 3.1580123e+2, 530959.2, 116047.92, -7100.895, -0.0711899, -0.17972413, 531080.7, 531080.7, 0.00017626329, 10.004209, 9.998747 
6.848517e+2, 1.257918e+2, -1770744.4, -1572337.4, 15024.109, -0.0021529382, -0.23146383, -1571206.1, 136016.38, 0.0000000036242784, 9.998852, 10.0015135 
6.848712e+2, 1.3579278e+2, -2006337.5, -1687170.0, 88634.83, 0.24844643, -0.2683862, -1664207.5, -54993.918, 0.0, 9.996798, 10.001061 
6.8488353e+2, 1.4579399e+2, -1860860.5, -1626086.8, -3015.7239, -0.1088093, -0.2135516, -1626048.0, -114846.26, 0.0, 9.997369, 10.000523 
6.8489957e+2, 1.5579507e+2, -1389021.8, -1344937.9, -51660.895, 0.06862538, -0.18390985, -1310813.1, 102378.1, 0.0, 9.999924, 10.000549 
6.849158e+2, 1.6579518e+2, -1266848.1, -1266571.4, 11764.678, 0.1575556, -0.2102235, -1254944.3, 60244.03, 0.0, 10.00023, 10.000264 
6.8493205e+2, 1.757945e+2, -1367142.1, -1267443.9, 1005.53894, 0.17069922, -0.32291716, -1267433.8, -50242.26, 0.0, 9.998882, 10.000235 
6.8494743e+2, 1.857945e+2, -1282652.9, -1240332.6, -11327.306, 0.14553887, -0.30957887, -1237491.5, -118299.375, 0.0, 9.99907, 9.999653 
6.849622e+2, 1.957948e+2, -994214.2, -1040010.4, 8125.293, 0.09540465, -0.2667264, -992815.3, 28377.781, 0.0, 10.000332, 9.999744 
6.849788e+2, 2.0579542e+2, -843783.06, -861357.1, 107817.46, 0.0625452, -0.20328964, -744395.1, 178792.63, 0.0, 10.000452, 10.000241 
6.8499655e+2, 2.1579613e+2, -852504.4, -815404.56, 71286.164, 0.038618285, -0.17719409, -760294.3, 64885.203, 0.0, 9.999722, 10.000237 
6.850129e+2, 2.2579604e+2, -774595.0, -801585.56, -23100.588, 0.030176958, -0.1712615, -761336.56, -34156.313, 0.0, 9.999895, 9.999583 
6.850282e+2, 2.3579523e+2, -565364.0, -656483.4, -29630.37, 0.034793068, -0.22889425, -556576.25, 72612.984, 0.0, 10.000685, 9.999526 
6.8504345e+2, 2.4579482e+2, -439673.84, -651201.56, -24449.848, 0.045584917, -0.16924682, -436884.56, 94311.46, 0.0, 10.001336, 9.9985695 
6.850586e+2, 2.5579453e+2, -256063.3, -513985.53, -16835.242, 0.060121227, -0.076082185, -254969.06, 178233.75, 0.0, 10.001936, 9.998548 
6.8507475e+2, 2.657931e+2, -108009.35, -443297.06, 72893.43, 0.065589204, -0.042866886, -92847.54, 242371.7, 0.0, 10.002504, 9.998087 
6.850917e+2, 2.7579072e+2, 70669.3, -293649.06, 84408.78, 0.076635845, -0.114255, 89275.67, 326520.3, 0.00000000039754933, 10.002999, 9.998206 
6.851087e+2, 2.857899e+2, 207955.28, -72897.484, 49623.844, 0.09597544, -0.06311296, 216465.45, 355717.5, 0.000001935021, 10.002827, 9.999131 
6.851255e+2, 2.9579005e+2, 217846.34, -28025.469, -39927.9, 0.11799255, 0.016062526, 224167.84, 265416.44, 0.000022833043, 10.002255, 9.999042 
6.85141e+2, 3.057864e+2, 199677.1, -175773.2, -61558.02, 0.03693178, -0.16574375, 209512.36, 209512.36, 0.00009092674, 10.002527, 9.997558 
6.851571e+2, 3.1578407e+2, 334194.1, -28415.334, -32568.328, 0.008171121, -0.17442606, 337096.06, 337096.06, 0.00021663119, 10.003029, 9.998338 
6.948498e+2, 1.2577564e+2, -1695419.1, -1439858.9, -137828.94, -0.13007718, -0.31230834, -1379690.6, 327692.3, 0.00000000017840025, 9.998968, 10.0023575 
6.948667e+2, 1.3577996e+2, -1968331.9, -1601795.9, 28929.328, 0.10450367, -0.08013827, -1599526.6, 9810.957, 0.0, 9.996776, 10.001654 
6.9488114e+2, 1.4578106e+2, -1915811.5, -1738271.4, 88130.6, -0.10660336, -0.027440386, -1701953.0, -190624.92, 0.0, 9.997357, 9.999762 
6.949011e+2, 1.5577985e+2, -1432789.5, -1448793.0, 45975.965, 0.20031264, -0.14845198, -1394124.3, 19219.588, 0.0, 9.999972, 9.999818 
6.9491655e+2, 1.6577989e+2, -1264451.4, -1266641.8, -48725.69, 0.19049676, -0.14617948, -1216808.5, 98535.27, 0.0, 10.000256, 10.000248 
6.94929e+2, 1.7578076e+2, -1367693.9, -1265979.9, -33354.164, -0.040869974, -0.10249036, -1256018.0, -38684.906, 0.0, 9.998869, 10.000252 
6.949451e+2, 1.8578121e+2, -1254062.9, -1169395.5, 30580.346, -0.01691634, -0.07504102, -1159505.6, -40177.465, 0.0, 9.999024, 10.000159 
6.9496375e+2, 1.9578108e+2, -973146.8, -983416.1, 59737.215, 0.19411717, -0.12209992, -918324.0, 103005.93, 0.0, 10.000283, 10.0001545 
6.949805e+2, 2.0578046e+2, -890984.4, -943110.2, 71183.7, 0.17556772, -0.17392157, -841242.3, 82092.58, 0.0, 10.0003805, 9.999716 
6.949958e+2, 2.1577933e+2, -900524.1, -893222.0, 55783.44, -0.015176575, -0.27863225, -840970.3, -15626.754, 0.0, 9.999627, 9.999748 
6.950118e+2, 2.2577949e+2, -786080.3, -801380.3, -995.0336, -0.08343313, -0.22735178, -786015.9, -58673.086, 0.0, 9.999794, 9.999632 
6.95028e+2, 2.3578043e+2, -574519.4, -652575.94, 7439.1514, -0.06644667, -0.116616026, -573816.7, 55520.586, 0.0, 10.000589, 9.999598 
6.950446e+2, 2.4577998e+2, -429618.8, -613108.5, -9272.067, 0.003742126, -0.07780753, -429151.47, 102191.18, 0.0, 10.001264, 9.998867 
6.950612e+2, 2.5577834e+2, -242471.9, -472331.4, 14191.847, 0.107531786, -0.14760016, -241599.0, 191758.81, 0.0, 10.001874, 9.998867 
6.950778e+2, 2.657768e+2, -78968.375, -369990.3, 84797.55, 0.097765684, -0.17035462, -56062.992, 279308.97, 0.0, 10.002454, 9.998612 
6.950942e+2, 2.7577516e+2, 78250.27, -257251.05, 108112.69, 0.013336149, -0.215826, 110070.75, 347458.22, 0.0000000054780975, 10.002911, 9.998499 
6.9511044e+2, 2.8577375e+2, 62787.99, -359718.38, 18941.225, -0.0374553, -0.13490567, 63635.438, 203039.67, 0.000002364329, 10.002767, 9.997187 
6.9512594e+2, 2.9577234e+2, 86704.47, -287154.1, -41166.457, -0.091259815, -0.019223206, 91183.734, 132607.27, 0.000027093956, 10.002201, 9.997286 
6.9514316e+2, 3.0576965e+2, 225164.89, -123476.45, -42794.39, -0.022835689, -0.04429682, 230340.89, 230340.89, 0.00010798756, 10.002529, 9.997918 
6.9516236e+2, 3.157677e+2, 318571.8, -35283.605, 1888.4849, 0.186969, -0.044269715, 318581.88, 318581.88, 0.00025661878, 10.002925, 9.998342 
7.048481e+2, 1.2576091e+2, -1967409.1, -1591736.9, -190616.45, -0.09934712, -0.2218173, -1511959.4, 195571.3, 0.0, 9.997182, 10.002189 
7.0486414e+2, 1.357647e+2, -1719183.0, -1504454.6, -82845.97, 0.08928133, -0.022547117, -1476207.1, 133281.7, 0.0, 9.9985695, 10.001461 
7.048799e+2, 1.4576502e+2, -1746758.6, -1666959.6, 43815.242, -0.02400592, -0.030641504, -1647599.1, -136113.0, 0.0, 9.998575, 9.999657 
7.049005e+2, 1.5576367e+2, -1747985.8, -1603492.3, 29038.92, 0.25550422, -0.15730411, -1597874.8, -184371.17, 0.0, 9.997846, 9.999767 
7.049159e+2, 1.657639e+2, -1585314.1, -1405906.5, -61684.74, 0.21659894, -0.14101972, -1386744.4, -71242.445, 0.0, 9.9979925, 10.0003805 
7.049279e+2, 1.757651e+2, -1384291.8, -1256751.4, -48876.6, -0.028045477, -0.07862603, -1240175.1, -22686.709, 0.0, 9.998691, 10.000395 
7.049442e+2, 1.8576577e+2, -1237926.4, -1175495.8, 50640.223, -0.0068245465, -0.028371423, -1147223.0, -27741.44, 0.0, 9.99919, 10.000041 
7.0496374e+2, 1.9576581e+2, -1086583.3, -1051768.1, 12871.659, 0.20563659, -0.047279917, -1047526.1, -26043.752, 0.0, 9.999553, 10.000043 
7.049806e+2, 2.057649e+2, -997047.1, -992277.4, 1483.5912, 0.18612659, -0.120675005, -991853.56, -68363.92, 0.0, 9.999651, 9.99973 
7.049955e+2, 2.1576321e+2, -916503.9, -899151.25, 14760.146, -0.0045618108, -0.2822149, -890706.25, -65203.44, 0.0, 9.999514, 9.9997635 
7.050118e+2, 2.2576332e+2, -762965.7, -788557.4, 33110.17, -0.06584633, -0.23782073, -740264.8, -12762.913, 0.0, 9.999954, 9.999636 
7.05029e+2, 2.357646e+2, -536837.8, -632616.5, 21631.51, -0.038518988, -0.09389407, -532178.94, 97313.74, 0.0, 10.000852, 9.999603 
7.0504606e+2, 2.4576397e+2, -402141.7, -593481.6, -4727.526, 0.027909635, -0.07468231, -402024.94, 129473.61, 0.0, 10.001428, 9.99892 
7.050631e+2, 2.5576183e+2, -258042.92, -473366.72, -15288.444, 0.12490085, -0.20385438, -256962.83, 176554.47, 0.0, 10.001746, 9.998918 
7.0508003e+2, 2.6576033e+2, -199580.48, -445556.0, 20605.057, 0.121502385, -0.21503471, -197866.38, 137664.67, 0.0, 10.001701, 9.998459 
7.050967e+2, 2.757592e+2, -158270.13, -384484.84, -22758.496, 0.05723216, -0.19641963, -156003.2, 81540.086, 0.000000016182126, 10.001351, 9.998371 
7.05113e+2, 2.857573e+2, -85769.97, -461640.56, -32832.594, -0.0036065958, -0.14183597, -82923.57, 56641.71, 0.0000030357212, 10.001864, 9.996928 
7.051286e+2, 2.957548e+2, 179674.88, -265684.13, 14035.366, -0.07453627, -0.11137978, 180116.77, 221711.89, 0.000031540207, 10.002936, 9.997082 
7.0514613e+2, 3.0575296e+2, 317771.78, -65146.023, 62799.535, -0.00089427957, -0.049057677, 327808.03, 327808.03, 0.00012311795, 10.003113, 9.998032 
7.051649e+2, 3.1575212e+2, 268760.5, -30548.844, 53975.883, 0.18596399, 0.044641547, 278196.75, 278196.75, 0.00029061802, 10.002475, 9.998577 
7.148458e+2, 1.2574789e+2, -2033957.5, -1739005.9, -175875.27, -0.08956643, 0.07429927, -1656957.9, 50705.8, 0.0, 9.997226, 10.001151 
7.1486336e+2, 1.357468e+2, -1776580.4, -1642256.9, -32589.164, 0.12934883, -0.10966865, -1634767.8, -25098.65, 0.0, 9.998644, 10.000483 
7.1487945e+2, 1.4574577e+2, -1699861.8, -1581711.8, 1459.475, 0.05115298, -0.23629281, -1581693.8, -70016.375, 0.0, 9.998631, 10.000211 
7.1489745e+2, 1.5574655e+2, -1712162.5, -1526630.9, 13381.598, 0.14587319, -0.2079853, -1525670.8, -112000.45, 0.0, 9.997832, 10.000302 
7.149134e+2, 1.657472e+2, -1568223.9, -1359378.3, -41650.5, 0.15575261, -0.1940579, -1351378.3, -35715.508, 0.0, 9.997951, 10.000717 
7.1492845e+2, 1.7574742e+2, -1369309.1, -1224900.4, -14664.31, 0.13874741, -0.2595179, -1223426.3, -5768.312, 0.0, 9.998691, 10.000614 
7.149447e+2, 1.8574813e+2, -1290898.9, -1282286.6, 56846.535, 0.103422455, -0.17791462, -1229583.4, -109930.15, 0.0, 9.999175, 9.999315 
7.149618e+2, 1.9574903e+2, -1141521.5, -1148954.6, 34239.12, 0.046187297, -0.038302984, -1110797.8, -89147.875, 0.0, 9.999482, 9.99941 
7.1497864e+2, 2.0574892e+2, -973735.75, -921731.75, -11614.717, 0.012959723, -0.033781394, -919255.56, 4395.257, 0.0, 9.999559, 10.000257 
7.149952e+2, 2.1574779e+2, -900627.9, -837967.56, 17865.238, -0.0033590526, -0.18846004, -833231.9, -7574.7114, 0.0, 9.999399, 10.000236 
7.150126e+2, 2.2574756e+2, -778525.1, -798320.4, 58532.875, 0.00841648, -0.19979402, -729058.94, -1401.5321, 0.0, 9.999855, 9.999618 
7.150307e+2, 2.3574778e+2, -553148.75, -645357.5, 62007.074, 0.036282286, -0.15652536, -521984.16, 107670.72, 0.0, 10.000757, 9.999561 
7.150478e+2, 2.4574687e+2, -427489.28, -628033.56, -1501.3516, 0.043320682, -0.15611778, -427478.03, 104185.17, 0.0, 10.001349, 9.998724 
7.150641e+2, 2.557449e+2, -284033.38, -511948.72, 1642.2877, 0.02975594, -0.24446619, -284021.56, 149659.94, 0.0, 10.00168, 9.998686 
7.1508116e+2, 2.6574367e+2, -257470.02, -560971.2, -1500.736, 0.0567364, -0.17844234, -257462.6, 78233.93, 0.0, 10.0016775, 9.997679 
7.1509886e+2, 2.7574274e+2, -209582.48, -480358.13, -20750.346, 0.11578347, -0.06129698, -208001.56, 29710.344, 0.000000020828322, 10.0013, 9.99774 
7.1511626e+2, 2.8574055e+2, 8493.331, -256129.31, -275.69565, 0.12082161, -0.08555955, 8493.618, 148228.64, 0.0000037854625, 10.00183, 9.998355 
7.151332e+2, 2.957374e+2, 253396.28, -91094.63, 60922.805, 0.063097045, -0.255226, 263853.0, 305616.66, 0.000035842306, 10.0028515, 9.998322 
7.151495e+2, 3.0573636e+2, 309474.13, -81124.14, 33390.746, 0.0038080385, -0.16525559, 312308.0, 312308.0, 0.00013552594, 10.003097, 9.997933 
7.1516436e+2, 3.1573686e+2, 286992.66, 17629.275, 60124.31, -0.16601154, 0.06861014, 299803.66, 299803.66, 0.00031582415, 10.002419, 9.998941 
7.248437e+2, 1.2573166e+2, -2113502.8, -1835508.4, -113369.164, 0.004168388, 0.06815544, -1795137.8, -87315.98, 0.0, 9.996889, 10.00068 
7.2486246e+2, 1.3572985e+2, -1739164.8, -1648455.8, 52897.31, 0.15827091, -0.1567796, -1624131.3, -14295.364, 0.0, 9.999013, 10.000262 
7.248791e+2, 1.4572886e+2, -1577224.4, -1497548.9, 30852.63, 0.12327156, -0.28104144, -1486998.8, 24845.057, 0.0, 9.999354, 10.000447 
7.2489506e+2, 1.5573062e+2, -1604869.4, -1447599.5, 8197.13, 0.10197106, -0.17621148, -1447173.4, -33347.28, 0.0, 9.9984455, 10.00055 
7.2491163e+2, 1.6573136e+2, -1466619.8, -1332111.0, 1730.0999, 0.14953382, -0.15522726, -1332088.8, -16271.266, 0.0, 9.998724, 10.00054 
7.2492915e+2, 1.7573099e+2, -1202530.8, -1161113.1, -29041.148, 0.287248, -0.26490256, -1146153.5, 71665.41, 0.0, 9.999901, 10.000469 
7.249455e+2, 1.8573123e+2, -1157287.6, -1232081.3, 31458.568, 0.22170042, -0.21500218, -1145815.5, -25996.959, 0.0, 10.00015, 9.999191 
7.249608e+2, 1.9573182e+2, -1125729.6, -1156036.3, 39851.52, -0.0075067705, -0.09509129, -1098247.6, -76429.164, 0.0, 9.999648, 9.999284 
7.249778e+2, 2.0573202e+2, -936615.0, -929951.44, 13897.618, -0.04117918, -0.040125344, -918991.8, 4825.6777, 0.0, 9.999915, 10.000036 
7.249959e+2, 2.157317e+2, -717409.4, -775463.0, -25859.768, 0.07342823, -0.0930931, -707560.94, 118257.29, 0.0, 10.0007515, 10.000022 
7.2501385e+2, 2.2573116e+2, -634671.6, -726980.94, 5186.8813, 0.10365382, -0.123525485, -634381.1, 93439.78, 0.0, 10.000835, 9.999636 
7.250316e+2, 2.3573036e+2, -607793.25, -670048.1, -5631.501, 0.07561892, -0.18482013, -607287.94, 22538.346, 0.0, 10.000375, 9.9995775 
7.2504896e+2, 2.4572937e+2, -522252.84, -659928.56, -24782.701, 0.06584447, -0.19916335, -517927.66, 13907.102, 0.0, 10.000641, 9.998842 
7.2506595e+2, 2.5572807e+2, -304003.13, -511592.9, -15258.435, 0.058557913, -0.23231573, -302887.6, 130959.71, 0.0, 10.001495, 9.998779 
7.2508293e+2, 2.6572713e+2, -216815.77, -537868.44, 15250.018, 0.057090815, -0.14347711, -216093.02, 119767.15, 0.0, 10.001949, 9.997701 
7.2510016e+2, 2.7572623e+2, -84501.92, -415059.9, 37094.566, 0.0779747, -0.025104342, -80390.38, 157485.31, 0.000000011844985, 10.002139, 9.997785 
7.25118e+2, 2.8572434e+2, 82083.766, -183282.14, 78148.94, 0.09881064, -0.038123522, 103387.9, 243283.05, 0.000004675658, 10.002191, 9.998674 
7.25136e+2, 2.9572162e+2, 164633.17, -103810.85, 38619.07, 0.103603, -0.19724976, 170078.55, 211996.72, 0.000040333267, 10.00212, 9.998583 
7.2515255e+2, 3.0571988e+2, 224698.77, -131710.7, -16879.234, 0.028993571, -0.18107565, 225496.38, 225496.38, 0.00014552726, 10.002561, 9.997847 
7.2516644e+2, 3.1571975e+2, 417293.44, 86051.4, -16308.085, -0.23426013, -0.0017257808, 418094.38, 418094.38, 0.0003310756, 10.003288, 9.998995 
7.348412e+2, 1.257121e+2, -2093980.1, -1793351.8, -49680.652, 0.035860304, -0.24752973, -1785354.5, -77348.19, 0.0, 9.996899, 10.000951 
7.3486096e+2, 1.3571382e+2, -1708334.9, -1590265.5, 128380.67, 0.09393115, -0.16206656, -1507996.6, 101991.85, 0.0, 9.99903, 10.000654 
7.348784e+2, 1.4571425e+2, -1582155.0, -1501482.1, -12951.594, 0.099816546, -0.16578557, -1499453.8, 12531.497, 0.0, 9.999341, 10.000418 
7.3489314e+2, 1.5571591e+2, -1613452.9, -1470127.3, -9341.867, 0.042191014, -0.06592916, -1469521.0, -55549.88, 0.0, 9.998467, 10.000383 
7.3491025e+2, 1.6571645e+2, -1508104.8, -1424643.9, 36089.28, 0.1197429, -0.02014861, -1411203.1, -95237.19, 0.0, 9.99875, 9.999891 
7.349298e+2, 1.7571588e+2, -1240559.3, -1242302.6, 19507.121, 0.34177706, -0.086114936, -1221904.4, -3934.283, 0.0, 9.999905, 9.999913 
7.349463e+2, 1.857152e+2, -1130058.5, -1165942.6, 5146.636, 0.27262232, -0.13001634, -1129334.9, -9358.001, 0.0, 10.000112, 9.999662 
7.349604e+2, 1.9571424e+2, -1109414.9, -1106769.0, 32068.291, -0.02967975, -0.21083109, -1075996.4, -54008.785, 0.0, 9.999588, 9.999648 
7.349777e+2, 2.0571434e+2, -1011769.75, -1068600.9, 38318.4, -0.04925998, -0.13326475, -992480.56, -68491.8, 0.0, 9.99984, 9.999121 
7.349975e+2, 2.1571505e+2, -790178.7, -901938.1, 11590.584, 0.14124009, 0.0062617334, -788989.3, 36995.367, 0.0, 10.00065, 9.999197 
7.350153e+2, 2.2571434e+2, -649598.7, -736744.06, -21134.627, 0.14767061, -0.003699289, -644743.56, 83247.21, 0.0, 10.00074, 9.999617 
7.350314e+2, 2.3571232e+2, -620004.7, -671943.9, -11111.497, 0.009153858, -0.18602991, -617727.44, 12279.244, 0.0, 10.000272, 9.999616 
7.350493e+2, 2.4571152e+2, -500655.78, -600232.3, 1168.4314, 0.017092453, -0.20723651, -500642.1, 31370.822, 0.0, 10.000577, 9.999284 
7.350684e+2, 2.557114e+2, -285063.9, -451754.25, 23712.578, 0.13488236, -0.16787285, -281756.3, 152257.86, 0.0, 10.001409, 9.999231 
7.350851e+2, 2.6571086e+2, -172585.4, -431666.97, 16246.806, 0.064575605, -0.10074489, -171570.55, 164450.27, 0.0, 10.001888, 9.998461 
7.351003e+2, 2.7570972e+2, -45402.066, -323635.38, 55514.582, -0.14110231, -0.079443745, -34734.5, 203299.78, 0.000000051096855, 10.002092, 9.998438 
7.351178e+2, 2.857086e+2, 34465.125, -284435.44, 67279.86, -0.15776989, -0.0053313402, 48078.336, 188124.69, 0.0000058850314, 10.002195, 9.997976 
7.3513687e+2, 2.9570743e+2, 110339.44, -209666.4, 49918.055, -0.04361864, 0.056709725, 117945.43, 160003.95, 0.000044056193, 10.002086, 9.997873 
7.351549e+2, 3.0570364e+2, 210004.97, -162644.86, 6390.2334, -0.0047946908, -0.088198476, 210114.52, 210114.52, 0.00015023218, 10.002558, 9.997637 
7.3517036e+2, 3.157007e+2, 376982.78, 28691.86, 48826.13, -0.22108373, -0.17253621, 383698.13, 383698.13, 0.00033283475, 10.003173, 9.998655 
7.4484044e+2, 1.256951e+2, -1841736.3, -1699020.5, 19185.596, 0.18346384, -0.31320235, -1696486.4, 11682.292, 0.0, 9.998756, 10.000692 
7.448596e+2, 1.356972e+2, -1857772.8, -1660129.4, 113859.64, 0.108405344, -0.18812095, -1608187.3, 1960.6569, 0.0, 9.998021, 10.0006485 
7.448776e+2, 1.4569762e+2, -1779725.9, -1633446.9, -59994.09, 0.14744979, -0.17396174, -1611989.0, -99842.97, 0.0, 9.998136, 10.000094 
7.448924e+2, 1.5569906e+2, -1535404.3, -1463877.0, -95561.7, 0.095144436, -0.06619584, -1397606.0, 16530.1, 0.0, 9.999143, 10.000094 
7.449093e+2, 1.6569944e+2, -1415375.6, -1400582.9, -567.4916, 0.1200883, -0.014530853, -1400561.1, -84427.695, 0.0, 9.999476, 9.999709 
7.449285e+2, 1.7569867e+2, -1340337.0, -1307164.0, -398.28238, 0.25549182, -0.080210306, -1307159.3, -89019.83, 0.0, 9.999291, 9.999765 
7.4494565e+2, 1.8569796e+2, -1210921.8, -1207044.3, -19622.395, 0.22829089, -0.11970742, -1189265.1, -69118.68, 0.0, 9.999565, 9.999644 
7.4496114e+2, 1.9569705e+2, -1022954.3, -1067559.9, -43649.824, 0.060718965, -0.19254126, -996239.5, 25916.691, 0.0, 10.00019, 9.999626 
7.4497867e+2, 2.0569697e+2, -938055.44, -1031411.56, 9227.882, 0.03892557, -0.13238822, -937152.06, -12993.346, 0.0, 10.000346, 9.999122 
7.4499774e+2, 2.1569735e+2, -869664.9, -943800.94, 31876.256, 0.13214931, -0.025261177, -857843.9, -31686.404, 0.0, 10.000121, 9.999165 
7.450155e+2, 2.2569661e+2, -726740.9, -785086.8, 28983.56, 0.12783277, -0.029918902, -714790.75, 13373.228, 0.0, 10.00026, 9.999516 
7.4503213e+2, 2.3569486e+2, -570202.9, -658351.75, 14743.805, 0.037769653, -0.17649543, -567802.2, 62375.96, 0.0, 10.000651, 9.999529 
7.4505025e+2, 2.4569428e+2, -434133.97, -558018.9, 47621.04, 0.037527498, -0.17617695, -417944.28, 114238.14, 0.0, 10.000987, 9.99938 
7.4506944e+2, 2.556944e+2, -285359.66, -440092.9, 25074.594, 0.11392385, -0.11981039, -281397.75, 152783.28, 0.0, 10.001353, 9.99934 
7.4508685e+2, 2.6569355e+2, -160104.5, -402072.2, -4080.8064, 0.05311819, -0.10071693, -160035.69, 176153.36, 0.0, 10.001866, 9.998678 
7.451029e+2, 2.7569172e+2, 23442.084, -266963.06, -22822.805, -0.10722246, -0.16939811, 25224.773, 263430.97, 0.00000017449423, 10.002475, 9.998638 
7.4512047e+2, 2.8569058e+2, 89319.33, -311477.4, -15710.049, -0.13484862, -0.08199997, 89934.18, 230152.78, 0.0000070145306, 10.002799, 9.997501 
7.4513924e+2, 2.9568985e+2, 208840.48, -205411.77, -34173.484, -0.056567576, 0.07007212, 211640.67, 253869.27, 0.00004543542, 10.002951, 9.997483 
7.451579e+2, 3.0568588e+2, 277358.5, -111363.91, -25191.06, 0.022762248, -0.08549585, 278984.2, 278984.2, 0.00014809403, 10.002942, 9.997806 
7.451748e+2, 3.1568202e+2, 278553.4, -38773.023, 27643.09, -0.049722828, -0.27408597, 280943.44, 280943.44, 0.0003227844, 10.002585, 9.998476 
7.548408e+2, 1.2568083e+2, -1892013.6, -1804948.0, -14206.072, 0.295294, -0.11479577, -1802688.6, -94381.21, 0.0, 9.998778, 9.9999485 
7.548579e+2, 1.3567987e+2, -1896062.0, -1736365.5, 91537.67, 0.12303524, -0.24791023, -1694744.1, -84429.1, 0.0, 9.998018, 10.000122 
7.548764e+2, 1.4567883e+2, -1819297.8, -1720825.5, -34481.586, 0.1914277, -0.320296, -1709951.9, -197624.39, 0.0, 9.998152, 9.99949 
7.548926e+2, 1.5568012e+2, -1568547.5, -1536133.5, -51730.258, 0.17155302, -0.16897449, -1498130.8, -83810.375, 0.0, 9.999153, 9.9995985 
7.549085e+2, 1.6568027e+2, -1391760.4, -1352577.5, -18397.955, 0.06717013, -0.13603556, -1345293.1, -28973.104, 0.0, 9.99948, 10.000037 
7.5492495e+2, 1.756793e+2, -1325627.8, -1275518.6, 1892.2799, -0.050873358, -0.2514947, -1275447.3, -57120.047, 0.0, 9.999289, 9.999985 
7.549432e+2, 1.8567947e+2, -1246742.6, -1275531.8, -4739.677, 0.005792715, -0.18570772, -1245982.4, -125655.16, 0.0, 9.999537, 9.999189 
7.549627e+2, 1.9568029e+2, -1056564.8, -1123163.9, -13128.312, 0.17647094, -0.039749403, -1054070.3, -31746.295, 0.0, 10.000131, 9.999273 
7.5498027e+2, 2.0567998e+2, -890430.0, -915977.9, -8272.619, 0.15007608, -0.032544073, -887985.2, 36341.797, 0.0, 10.00027, 9.999956 
7.549965e+2, 2.1567857e+2, -831400.25, -835929.06, 32512.977, -0.024123285, -0.186749, -801072.9, 25263.754, 0.0, 10.000004, 9.999961 
7.550143e+2, 2.2567807e+2, -755317.2, -819039.75, 36872.805, -0.031006431, -0.19613191, -738447.1, -10107.355, 0.0, 10.000153, 9.999334 
7.550334e+2, 2.3567806e+2, -600053.2, -695395.2, 39469.508, 0.08043691, -0.14915511, -585834.25, 44505.715, 0.0, 10.000547, 9.999325 
7.550515e+2, 2.4567778e+2, -463382.5, -606246.0, 52869.688, 0.048767023, -0.09265597, -445945.25, 86396.96, 0.0, 10.00093, 9.999077 
7.550689e+2, 2.5567704e+2, -312301.7, -485181.1, 47928.277, -0.089559145, -0.093586266, -299903.44, 134445.14, 0.0, 10.001302, 9.999057 
7.5508773e+2, 2.6567525e+2, -184643.05, -442511.44, 11301.363, -0.064838134, -0.145001, -184148.7, 152216.16, 0.0, 10.001825, 9.998417 
7.5510746e+2, 2.7567235e+2, -8877.873, -316183.7, 9610.176, 0.08768383, -0.29278165, -8577.634, 229813.31, 0.0000002213921, 10.002397, 9.998339 
7.5512564e+2, 2.856704e+2, 64397.59, -354117.78, -18590.064, 0.08852509, -0.25431448, 65221.723, 205632.11, 0.000006961638, 10.002756, 9.997233 
7.5514257e+2, 2.9566905e+2, 186947.05, -238154.33, -18606.707, -0.03421742, -0.13988768, 187759.9, 230186.95, 0.00004401986, 10.002883, 9.997299 
7.551608e+2, 3.0566648e+2, 303736.7, -34381.715, -43095.195, 0.00999744, -0.17666808, 309143.0, 309143.0, 0.0001416952, 10.002865, 9.998361 
7.551793e+2, 3.1566414e+2, 267263.38, -44141.297, 51977.543, 0.09075995, -0.26558387, 275710.0, 275710.0, 0.00030699253, 10.002519, 9.998464 
7.648402e+2, 1.2566362e+2, -1965278.5, -1849915.3, -118736.49, 0.39768356, -0.0073332326, -1775591.1, -67111.85, 0.00000000032551553, 9.998265, 9.999901 
7.6485693e+2, 1.3566186e+2, -1687851.3, -1625324.9, -25874.805, 0.16929573, -0.23693943, -1616006.1, -5512.225, 0.0, 9.99936, 10.000248 
7.6487553e+2, 1.4566067e+2, -1645232.9, -1624945.6, -66941.18, 0.24383852, -0.3351459, -1567383.9, -54877.535, 0.0, 9.999292, 9.9996 
7.6489156e+2, 1.5566194e+2, -1616893.3, -1548658.8, -50549.797, 0.17975508, -0.19645496, -1521790.3, -107292.2, 0.0, 9.998768, 9.999704 
7.649076e+2, 1.6566218e+2, -1449948.5, -1377390.6, 16002.588, 0.05566159, -0.16001372, -1374018.0, -57521.832, 0.0, 9.999074, 10.00006 
7.649243e+2, 1.7566139e+2, -1222885.9, -1222385.8, -1491.9374, -0.06401532, -0.26082423, -1221123.0, -2621.0977, 0.0, 9.999987, 10.000008 
7.649431e+2, 1.8566166e+2, -1135300.1, -1241071.0, 10601.716, 0.010018956, -0.18041337, -1134247.9, -13745.955, 0.0, 10.000384, 9.999017 
7.649632e+2, 1.9566247e+2, -1035294.4, -1133438.3, 6948.119, 0.21129149, -0.016885687, -1034804.94, -12305.204, 0.0, 10.000355, 9.9991 
7.6498103e+2, 2.0566195e+2, -856674.25, -890170.4, -5665.789, 0.19474715, -0.026717661, -855741.8, 68762.266, 0.0, 10.000461, 10.000045 
7.6499707e+2, 2.1566014e+2, -730487.1, -782574.56, -38255.38, 0.012752732, -0.22984713, -710251.8, 116264.07, 0.0, 10.00066, 10.000018 
7.6501507e+2, 2.2565968e+2, -636306.56, -764073.6, -21541.658, -0.0040962705, -0.23628071, -632772.4, 95745.664, 0.0, 10.00099, 9.999307 
7.650345e+2, 2.3566012e+2, -472185.66, -638165.5, -26321.926, 0.09992309, -0.13972251, -468111.4, 162402.72, 0.0, 10.001453, 9.999277 
7.650528e+2, 2.4565943e+2, -411518.53, -618521.5, -7863.5435, 0.06900937, -0.10359817, -411220.25, 121299.69, 0.0, 10.001453, 9.998738 
7.650703e+2, 2.5565767e+2, -369035.3, -549105.6, -30826.193, -0.06511795, -0.17045924, -363904.4, 70630.6, 0.0, 10.001083, 9.99872 
7.650895e+2, 2.656556e+2, -269823.97, -532792.06, -36023.805, -0.037066985, -0.20677403, -264978.38, 71576.21, 0.0, 10.001454, 9.997978 
7.6511025e+2, 2.7565306e+2, -37223.016, -370726.94, -70103.33, 0.12736605, -0.27538672, -23086.355, 215493.06, 0.00000016204108, 10.002386, 9.997967 
7.651288e+2, 2.8565085e+2, 58098.527, -337069.16, -92375.445, 0.13356665, -0.26235202, 78626.12, 219227.48, 0.000006290961, 10.002625, 9.997415 
7.6514554e+2, 2.956486e+2, 107258.46, -254076.2, -76166.04, 0.0138586685, -0.25002056, 122657.31, 165280.28, 0.000041719115, 10.0022545, 9.997483 
7.6516414e+2, 3.0564663e+2, 276671.66, -111294.7, -91313.805, 0.056233242, -0.2086395, 297089.22, 297089.22, 0.00013461517, 10.002941, 9.997801 
7.651839e+2, 3.1564415e+2, 465572.25, 582.55975, -101627.88, 0.23429516, -0.25772634, 486813.66, 486813.66, 0.00029005748, 10.004109, 9.998 
7.7483803e+2, 1.2564321e+2, -1912920.4, -1735035.5, -82902.42, 0.30288225, -0.0073488886, -1702390.3, 6296.5483, 0.00000000045588486, 9.998245, 10.000697 
7.748564e+2, 1.3564317e+2, -1621924.3, -1494548.3, 9366.439, 0.15503709, -0.14620206, -1493863.3, 116821.21, 0.0, 9.999389, 10.00113 
7.7487487e+2, 1.4564325e+2, -1577230.6, -1492790.4, -103163.85, 0.2180928, -0.21089943, -1423541.6, 89140.47, 0.0, 9.999329, 10.000492 
7.7488905e+2, 1.5564466e+2, -1559931.4, -1435213.5, -58171.555, 0.03481522, -0.13956822, -1412293.1, 2374.457, 0.0, 9.998786, 10.000476 
7.7490634e+2, 1.6564533e+2, -1467912.4, -1413276.3, 41454.79, 0.00492812, -0.08337766, -1390947.8, -74287.17, 0.0, 9.999066, 9.999818 
7.7492666e+2, 1.756451e+2, -1235912.3, -1250331.1, 40577.227, 0.14376065, -0.10591388, -1201909.0, 16753.605, 0.0, 9.999988, 9.999818 
7.7494526e+2, 1.856446e+2, -1133692.9, -1228890.9, 2591.0852, 0.16820632, -0.097644925, -1133622.4, -12952.661, 0.0, 10.000345, 9.999124 
7.7496254e+2, 1.9564371e+2, -1041351.5, -1129548.5, 14764.216, 0.08762973, -0.11614021, -1038945.56, -16263.077, 0.0, 10.000284, 9.999162 
7.749806e+2, 2.0564297e+2, -920125.25, -997432.25, -7276.5537, 0.09117043, -0.112308525, -919446.25, 5243.202, 0.0, 10.000356, 9.999358 
7.749994e+2, 2.1564215e+2, -793262.06, -884366.56, -22431.83, 0.16273908, -0.14743677, -788038.44, 38655.867, 0.0, 10.000544, 9.999373 
7.750175e+2, 2.256416e+2, -646424.6, -759231.94, -13619.249, 0.12997901, -0.13894163, -644803.7, 83893.74, 0.0, 10.000877, 9.999395 
7.750352e+2, 2.3564097e+2, -482601.03, -636169.3, -2113.9163, 0.015097875, -0.15603858, -482571.94, 148129.58, 0.0, 10.001348, 9.999344 
7.750539e+2, 2.456392e+2, -450004.13, -679558.44, -31217.393, 0.014208796, -0.21183608, -445834.56, 86881.44, 0.0, 10.001375, 9.998356 
7.7507323e+2, 2.5563636e+2, -406917.6, -614403.56, -32463.258, 0.104704864, -0.34745586, -401956.97, 32782.95, 0.0, 10.001026, 9.9983 
7.7509224e+2, 2.6563475e+2, -316654.6, -626092.8, -7212.96, 0.06749698, -0.28476885, -316486.53, 20271.098, 0.0, 10.001432, 9.997351 
7.7511084e+2, 2.7563378e+2, -81709.586, -452404.94, -27944.494, -0.07090777, -0.13384442, -79614.86, 159158.23, 0.00000014054619, 10.00233, 9.997438 
7.751294e+2, 2.8563166e+2, 94807.31, -245408.8, -113270.97, -0.0852635, -0.1229983, 129069.17, 269862.22, 0.0000059856334, 10.002566, 9.998067 
7.75148e+2, 2.956284e+2, 140840.11, -184760.22, -74802.766, -0.002005449, -0.27988505, 157202.84, 200021.28, 0.0000396548, 10.002251, 9.997962 
7.751675e+2, 3.0562627e+2, 161924.78, -341898.8, -48915.03, 0.088235766, -0.1874257, 166629.89, 166629.89, 0.00012692052, 10.002911, 9.996232 
7.7518815e+2, 3.1562215e+2, 375815.13, -161922.72, -31864.375, 0.20209269, -0.23962282, 377696.72, 377696.72, 0.00027215088, 10.003991, 9.99695 
7.848365e+2, 1.256226e+2, -1799234.5, -1658934.5, 85221.24, 0.3032834, -0.16862144, -1618704.8, 90183.805, 0.0000000009851104, 9.998939, 10.000882 
7.848551e+2, 1.356252e+2, -1822295.3, -1562602.9, 67330.21, 0.17101286, -0.06667387, -1546184.3, 64678.996, 0.0, 9.997911, 10.001367 
7.8487366e+2, 1.4562626e+2, -1713688.5, -1514646.6, -53472.984, 0.2283234, -0.066162474, -1501190.6, 11660.252, 0.0, 9.998203, 10.000884 
7.848879e+2, 1.5562654e+2, -1403302.1, -1323502.5, -62508.082, 0.004296544, -0.1448602, -1289245.4, 125599.2, 0.0, 9.999708, 10.000798 
7.849059e+2, 1.6562688e+2, -1339012.1, -1375111.5, 29852.027, 0.011103049, -0.12457199, -1322177.3, -5336.966, 0.0, 10.000058, 9.999593 
7.8492725e+2, 1.7562698e+2, -1330525.9, -1318041.1, 8701.764, 0.24134101, -0.091534406, -1313574.3, -94734.164, 0.0, 9.999441, 9.999606 
7.849459e+2, 1.8562637e+2, -1242268.4, -1282721.6, -12220.571, 0.2487281, -0.08492042, -1238863.4, -118014.95, 0.0, 9.999608, 9.999108 
7.8496253e+2, 1.9562496e+2, -1039661.56, -1128533.0, -24793.396, 0.06812406, -0.15206058, -1033212.6, -10347.345, 0.0, 10.000306, 9.999153 
7.84981e+2, 2.0562428e+2, -826599.56, -962764.5, -3787.2085, 0.07065709, -0.13930161, -826494.3, 98377.52, 0.0, 10.001047, 9.99926 
7.8500104e+2, 2.1562393e+2, -633556.06, -820354.8, 7001.0977, 0.22117023, -0.11622672, -633294.06, 193578.22, 0.0, 10.001704, 9.99925 
7.8501946e+2, 2.2562312e+2, -547986.56, -767086.94, 15180.88, 0.19588085, -0.10042656, -546939.75, 181938.73, 0.0, 10.0017805, 9.998908 
7.850367e+2, 2.3562174e+2, -510136.5, -700541.75, -32771.527, 0.031846646, -0.14760576, -504653.9, 126237.27, 0.0, 10.001374, 9.998889 
7.850555e+2, 2.4561957e+2, -391829.4, -662694.4, -38389.31, 0.025249232, -0.21605839, -386493.66, 146415.78, 0.0, 10.001825, 9.998251 
7.8507555e+2, 2.5561658e+2, -128923.32, -491192.5, -38116.4, 0.14462458, -0.357753, -124956.32, 309977.44, 0.0, 10.002977, 9.998202 
7.850945e+2, 2.6561496e+2, -91390.2, -526789.4, 22845.0, 0.081372134, -0.28493837, -90194.83, 246756.48, 0.0, 10.003023, 9.997268 
7.851125e+2, 2.7561417e+2, -106001.71, -472526.9, 23641.74, -0.12284729, -0.109298564, -104483.055, 134483.0, 0.0000001311964, 10.002199, 9.997364 
7.851314e+2, 2.8561187e+2, 110797.805, -222880.55, -31258.121, -0.13172005, -0.115649655, 113700.73, 254687.52, 0.0000058891046, 10.002607, 9.998204 
7.8515124e+2, 2.9560843e+2, 388185.2, -53443.97, -48672.605, 0.027069222, -0.30201077, 393485.84, 436498.16, 0.000037489564, 10.003907, 9.998066 
7.8517103e+2, 3.056064e+2, 252623.4, -341041.84, 5109.4043, 0.11304582, -0.19068101, 252667.39, 252667.39, 0.00011865352, 10.003703, 9.995858 
7.851913e+2, 3.1560287e+2, 127336.32, -252730.31, 74717.73, 0.22026, -0.15296453, 141497.52, 141497.52, 0.0002544846, 10.002148, 9.997212 
7.9483527e+2, 1.2560193e+2, -1823831.6, -1726877.9, 43928.5, 0.23330498, -0.5058764, -1709935.3, -852.44806, 0.0000000034592607, 9.999016, 10.00038 
7.948528e+2, 1.356081e+2, -1847335.9, -1619775.6, 37051.902, 0.12091055, -0.00083407236, -1613894.8, -2866.4077, 0.0, 9.997942, 10.000955 
7.948716e+2, 1.4560981e+2, -1726321.5, -1539188.0, -7689.452, 0.18541485, 0.093558155, -1538872.5, -25860.795, 0.0, 9.998196, 10.000719 
7.948879e+2, 1.5560763e+2, -1408258.6, -1340803.3, 1268.4452, 0.0044466453, -0.22394875, -1340779.5, 74249.45, 0.0, 9.999736, 10.000665 
7.94906e+2, 1.6560686e+2, -1359215.5, -1415462.4, -2761.2813, -0.0076435474, -0.2922107, -1359080.3, -42045.086, 0.0, 10.00005, 9.999323 
7.94926e+2, 1.7560709e+2, -1347679.6, -1356090.8, -4865.467, 0.14935057, -0.22017477, -1345454.0, -126419.59, 0.0, 9.999447, 9.999346 
7.9494494e+2, 1.8560694e+2, -1260495.3, -1306350.6, 5608.8257, 0.1683975, -0.14523207, -1259819.1, -138780.84, 0.0, 9.999546, 9.998974 
7.9496294e+2, 1.9560629e+2, -1050938.4, -1143188.6, 10208.102, 0.05929764, -0.12801553, -1049822.3, -26774.07, 0.0, 10.000267, 9.999069 
7.94982e+2, 2.056059e+2, -805839.3, -897754.6, 11699.974, 0.049441177, -0.107759, -804373.44, 120677.44, 0.0, 10.000955, 9.999752 
7.950018e+2, 2.1560544e+2, -619513.9, -769042.6, 37664.27, 0.1152753, -0.14590678, -610562.56, 216487.92, 0.0, 10.001607, 9.999651 
7.950206e+2, 2.2560431e+2, -639637.3, -928326.2, -6967.8335, 0.11769251, -0.12435486, -639469.25, 89591.85, 0.0, 10.001657, 9.99786 
7.950386e+2, 2.3560251e+2, -592517.7, -852063.3, -34678.098, 0.067679524, -0.10824753, -587964.2, 43117.918, 0.0, 10.001285, 9.997893 
7.950575e+2, 2.4560054e+2, -390690.1, -644092.6, -4197.219, 0.020238148, -0.11795009, -390620.6, 142479.27, 0.0, 10.001755, 9.998412 
7.95077e+2, 2.5559825e+2, -129744.375, -471707.16, 8918.657, -0.029254042, -0.20768131, -129511.92, 305605.22, 0.0, 10.002884, 9.998382 
7.9509616e+2, 2.6559618e+2, -65874.43, -466137.34, -17174.537, -0.075930506, -0.20954713, -65138.855, 271997.34, 0.0, 10.00298, 9.997708 
7.951149e+2, 2.7559417e+2, -86691.77, -424694.28, 8916.646, -0.12174529, -0.19946697, -86456.71, 152702.11, 0.000000103459534, 10.002159, 9.997715 
7.9513466e+2, 2.8559163e+2, 81702.516, -276308.94, 11533.152, -0.08683954, -0.22645637, 82073.664, 223255.48, 0.0000054454867, 10.002579, 9.99785 
7.951551e+2, 2.9558867e+2, 355919.06, -100637.22, 8292.062, -0.0033337278, -0.32788178, 356069.63, 399274.88, 0.00003447301, 10.003819, 9.9977865 
7.951741e+2, 3.055868e+2, 296288.53, -239008.48, -56124.246, 0.038119365, -0.22627796, 302109.7, 302109.7, 0.0001104858, 10.00365, 9.996584 
7.951929e+2, 3.1558496e+2, 206597.05, -71442.086, 46678.88, 0.11921264, -0.099424176, 214224.53, 214224.53, 0.000240168, 10.002069, 9.998497 
8.04834e+2, 1.2558497e+2, -1857746.0, -1727426.8, 22855.502, 0.2339148, -0.41792342, -1723534.5, -14284.629, 0.0000000057252847, 9.998729, 10.000522 
8.048505e+2, 1.3558996e+2, -1722859.3, -1566305.8, 4774.1475, 0.072116934, -0.031060128, -1566160.4, 45044.906, 0.0, 9.998817, 10.000917 
8.048698e+2, 1.4559121e+2, -1674184.6, -1570942.3, 27699.379, 0.15546101, 0.048968818, -1563980.1, -50786.934, 0.0, 9.998802, 10.000209 
8.0488795e+2, 1.5558876e+2, -1569231.6, -1475814.9, -19391.375, 0.08615877, -0.2393468, -1471949.5, -56734.773, 0.0, 9.9988785, 10.000153 
8.049065e+2, 1.6558795e+2, -1414571.9, -1434407.9, -20606.705, 0.06683464, -0.2926022, -1401620.6, -84398.65, 0.0, 9.999631, 9.999406 
8.049258e+2, 1.7558832e+2, -1135945.5, -1247786.3, -13192.287, 0.11994112, -0.21009368, -1134410.5, 84808.6, 0.0, 10.000873, 9.999412 
8.04945e+2, 1.8558824e+2, -997854.8, -1170124.5, 27649.068, 0.14205892, -0.13680619, -993525.94, 127695.3, 0.0, 10.001314, 9.999052 
8.049642e+2, 1.9558758e+2, -939123.2, -1089266.9, 27141.27, 0.121533, -0.12703013, -934367.5, 88862.4, 0.0, 10.001034, 9.999075 
8.049834e+2, 2.0558693e+2, -836410.75, -941755.56, 19357.057, 0.10919262, -0.11602415, -832966.5, 92268.67, 0.0, 10.000866, 9.9994955 
8.050028e+2, 2.1558611e+2, -764191.94, -864122.2, -30489.783, 0.10640772, -0.16373505, -755623.8, 71616.08, 0.0, 10.000728, 9.999419 
8.05022e+2, 2.2558482e+2, -699026.9, -959729.6, -40775.348, 0.11712025, -0.14703272, -692798.2, 36454.29, 0.0, 10.001266, 9.9978285 
8.0504096e+2, 2.3558299e+2, -452233.47, -788642.0, -7239.1367, 0.13550471, -0.13017605, -452077.78, 179195.28, 0.0, 10.002277, 9.997846 
8.0506e+2, 2.4558106e+2, -319132.44, -642625.0, 54029.613, 0.07805576, -0.11929028, -310347.03, 222944.39, 0.0, 10.002379, 9.998128 
8.0507916e+2, 2.555788e+2, -313746.78, -589042.94, 14934.737, -0.035909627, -0.17710304, -312938.94, 122371.67, 0.0, 10.001734, 9.998139 
8.050985e+2, 2.6557684e+2, -229559.94, -486049.8, -22151.97, -0.06732876, -0.18559757, -227660.81, 109666.81, 0.0, 10.001607, 9.998226 
8.051178e+2, 2.7557492e+2, -86287.29, -369805.38, -3791.5034, -0.027778717, -0.21767078, -86236.59, 153108.67, 0.00000004701224, 10.001926, 9.998197 
8.0513793e+2, 2.8557244e+2, 14409.542, -366539.72, 56431.598, -0.0006670412, -0.23466595, 22593.188, 163961.38, 0.000004093495, 10.00237, 9.997331 
8.051585e+2, 2.9556942e+2, 201598.44, -225755.77, 14340.403, 0.00871081, -0.29580626, 202079.11, 245475.72, 0.000029631305, 10.002976, 9.997332 
8.0517685e+2, 3.0556694e+2, 226509.2, -195051.08, -114039.695, -0.0010828943, -0.2672887, 255381.56, 255381.56, 0.00010221737, 10.002849, 9.997278 
8.051949e+2, 3.1556633e+2, 232973.7, 14220.29, -42659.24, 0.12620012, -0.08052231, 240998.33, 240998.33, 0.00023173695, 10.001964, 9.999136 
8.148321e+2, 1.2557219e+2, -1806583.6, -1633472.8, 14046.509, 0.12718898, 0.13641797, -1632340.4, 77045.23, 0.000000004999778, 9.998782, 10.001142 
8.148482e+2, 1.3557075e+2, -1685388.5, -1500885.4, 12860.933, -0.069787055, -0.16884996, -1499993.3, 111400.266, 0.0, 9.998875, 10.001332 
8.1486773e+2, 1.4557041e+2, -1744620.8, -1720714.8, 18681.422, 0.047820557, -0.21333513, -1710489.6, -197094.33, 0.0, 9.998817, 9.999175 
8.1488776e+2, 1.5557006e+2, -1631173.1, -1605876.5, -4561.3555, 0.1604749, -0.19023174, -1605079.1, -189677.69, 0.0, 9.998888, 9.999255 
8.149072e+2, 1.6557027e+2, -1388284.8, -1377110.1, 15872.615, 0.1506193, -0.12029135, -1365870.1, -48470.434, 0.0, 9.999618, 9.999806 
8.149263e+2, 1.7557077e+2, -1104201.0, -1186139.6, 39566.996, 0.06720454, -0.068015575, -1088214.0, 131179.42, 0.0, 10.000888, 9.999826 
8.1494594e+2, 1.8557031e+2, -990294.56, -1145173.6, 9858.09, 0.08615929, -0.06234781, -989669.6, 131726.89, 0.0, 10.001272, 9.999246 
8.149659e+2, 1.9556881e+2, -935169.5, -1073827.4, 26250.63, 0.17060404, -0.15346868, -930366.1, 93043.914, 0.0, 10.0009985, 9.999198 
8.1498504e+2, 2.0556745e+2, -927802.7, -1107194.3, 4704.002, 0.17423452, -0.16472334, -927679.44, -2255.37, 0.0, 10.000761, 9.998412 
8.150038e+2, 2.1556601e+2, -846295.75, -1010451.3, -24528.578, 0.11608403, -0.16851044, -842709.0, -15269.052, 0.0, 10.00062, 9.998467 
8.1502336e+2, 2.2556466e+2, -647505.5, -822868.2, -11281.0, 0.11329624, -0.16518682, -646782.75, 82669.64, 0.0, 10.001138, 9.99883 
8.150435e+2, 2.3556314e+2, -404183.66, -663434.75, 36044.04, 0.14649358, -0.2175799, -399265.7, 232198.86, 0.0, 10.002167, 9.998758 
8.15063e+2, 2.4556105e+2, -383199.78, -756086.75, 20539.021, 0.117621906, -0.22533415, -382071.88, 151412.73, 0.0, 10.002294, 9.997392 
8.1508183e+2, 2.5555834e+2, -369369.16, -692101.4, 718.2008, 0.04297737, -0.25394553, -369367.56, 66145.42, 0.0, 10.001679, 9.997459 
8.151012e+2, 2.6555693e+2, -187654.0, -392188.22, -17082.553, 0.030026749, -0.2083058, -186237.1, 151287.7, 0.0, 10.00158, 9.998883 
8.151208e+2, 2.7555642e+2, -59797.844, -291972.53, 19190.59, 0.062104255, -0.16545986, -58222.324, 181303.16, 0.000000004527389, 10.001834, 9.9987755 
8.1514084e+2, 2.8555423e+2, -38076.363, -472386.66, 69245.36, 0.03700403, -0.14702623, -27303.283, 114243.73, 0.0000024308686, 10.002346, 9.996619 
8.151613e+2, 2.9555055e+2, 141444.13, -335906.5, 45501.152, -0.030532146, -0.19710493, 145742.6, 189329.06, 0.00002455122, 10.002909, 9.996611 
8.1517905e+2, 3.0554682e+2, 272861.06, -97602.445, -149462.67, -0.087460965, -0.2946159, 325641.7, 325641.7, 0.00009685274, 10.002845, 9.997944 
8.1519634e+2, 3.1554666e+2, 223409.97, 17337.316, -52262.668, 0.03395978, -0.13338405, 235906.64, 235906.64, 0.00023260323, 10.001867, 9.999203 
8.248296e+2, 1.255543e+2, -2071152.6, -1801883.4, 57234.68, 0.0909503, 0.21289974, -1790222.9, -80661.54, 0.0000000017683296, 9.997117, 10.000788 
8.2484776e+2, 1.3555118e+2, -1693791.9, -1567279.8, -64562.832, -0.00036871768, -0.20882629, -1540149.5, 71436.92, 0.0, 9.999072, 10.000784 
8.248677e+2, 1.4555067e+2, -1565266.6, -1643998.6, -57106.535, 0.11319616, -0.2388582, -1535272.5, -21681.895, 0.0, 10.000097, 9.99908 
8.248876e+2, 1.5555121e+2, -1406614.6, -1510653.1, -33347.926, 0.18218648, -0.11363249, -1396843.3, 18745.088, 0.0, 10.000489, 9.999132 
8.249072e+2, 1.6555144e+2, -1280359.8, -1308776.5, 25934.297, 0.16810408, -0.04426313, -1264996.8, 52589.02, 0.0, 10.000297, 9.999935 
8.249269e+2, 1.7555127e+2, -1287786.1, -1265708.4, 6786.18, 0.111038186, -0.07100908, -1263789.4, -44204.957, 0.0, 9.999587, 9.999903 
8.2494676e+2, 1.8555053e+2, -1218809.6, -1250641.4, -24580.732, 0.12753025, -0.101003595, -1205442.0, -83852.46, 0.0, 9.999689, 9.999284 
8.2496667e+2, 1.9554903e+2, -1022363.44, -1110598.8, -39711.395, 0.1866647, -0.19413692, -1007123.1, 16479.264, 0.0, 10.000391, 9.999232 
8.2498616e+2, 2.055478e+2, -902288.3, -1104177.5, -10396.318, 0.20110938, -0.18869744, -901754.4, 23861.13, 0.0, 10.000981, 9.998319 
8.250054e+2, 2.155466e+2, -738941.25, -971488.7, 15974.967, 0.18561193, -0.15654758, -737849.0, 89781.21, 0.0, 10.001412, 9.998354 
8.2502526e+2, 2.2554535e+2, -574612.0, -804713.3, 49385.156, 0.16857462, -0.13160351, -564460.6, 165182.66, 0.0, 10.001704, 9.99869 
8.2504547e+2, 2.3554376e+2, -457356.75, -703548.56, -10606.477, 0.14564049, -0.17531116, -456900.66, 174757.17, 0.0, 10.001859, 9.998639 
8.25065e+2, 2.455419e+2, -422492.84, -734317.7, -36391.94, 0.12257775, -0.17281196, -418302.0, 115373.78, 0.0, 10.001857, 9.99775 
8.250841e+2, 2.555397e+2, -329538.4, -632538.9, 10432.897, 0.101208426, -0.18755184, -329179.6, 106518.4, 0.0, 10.001796, 9.9978075 
8.2510364e+2, 2.65538e+2, -131044.734, -406041.97, 31068.61, 0.098973185, -0.17121224, -127578.36, 210133.86, 0.0, 10.002147, 9.998519 
8.2512355e+2, 2.7553645e+2, 56672.66, -271867.34, -26066.775, 0.111458, -0.19666576, 58727.973, 298450.88, 0.0, 10.002787, 9.998457 
8.251437e+2, 2.8553456e+2, 43104.76, -377535.4, 38371.66, 0.07512238, -0.15586141, 46576.45, 188316.97, 0.000001518397, 10.002671, 9.997113 
8.251641e+2, 2.9553226e+2, 30486.506, -332858.5, 85032.84, 0.011578816, -0.11666754, 49401.848, 93167.01, 0.000022026383, 10.001905, 9.997114 
8.251815e+2, 3.0552834e+2, 209664.34, -100534.17, -52311.926, -0.09914033, -0.26744646, 218248.69, 218248.69, 0.00009707927, 10.002288, 9.998186 
8.2519865e+2, 3.1552622e+2, 440308.13, 79254.484, -31255.828, 0.009826923, -0.3373014, 442993.9, 442993.9, 0.00024343694, 10.0035305, 9.9988165 
8.348257e+2, 1.255309e+2, -2173854.5, -2005833.5, 111507.95, -0.05670325, -0.23131397, -1950231.0, -240451.6, 0.000000000051048894, 9.997087, 9.999401 
8.348491e+2, 1.3553134e+2, -1780494.0, -1757820.8, 14464.583, 0.20521326, -0.1480934, -1750779.6, -138996.9, 0.0, 9.999124, 9.999447 
8.348697e+2, 1.455322e+2, -1508589.6, -1538546.9, -54457.707, 0.26756388, -0.014731106, -1467088.1, 46688.734, 0.0, 10.000145, 9.999782 
8.34887e+2, 1.555323e+2, -1349871.1, -1402801.0, -12484.462, 0.048227545, -0.011231552, -1347074.3, 68700.4, 0.0, 10.000529, 9.999852 
8.349062e+2, 1.6553146e+2, -1298187.9, -1337979.0, -10388.001, 0.026606597, -0.071411215, -1295639.3, 22140.79, 0.0, 10.000266, 9.999752 
8.349274e+2, 1.755299e+2, -1300495.1, -1289586.8, -6783.073, 0.1792093, -0.21989596, -1286337.0, -66545.61, 0.0, 9.999581, 9.999741 
8.3494735e+2, 1.855289e+2, -1234733.6, -1278705.5, -7870.5244, 0.19411975, -0.25407013, -1233367.4, -111567.76, 0.0, 9.999661, 9.999109 
8.3496624e+2, 1.9552812e+2, -1035092.8, -1126104.6, -4346.8916, 0.08520976, -0.26248485, -1034885.6, -11077.875, 0.0, 10.0003395, 9.999154 
8.349863e+2, 2.055279e+2, -857899.0, -986200.4, -3177.8865, 0.1048033, -0.19773139, -857820.3, 67990.05, 0.0, 10.00087, 9.999182 
8.350074e+2, 2.1552794e+2, -700767.4, -868376.25, 40773.777, 0.23052324, -0.13119818, -691374.8, 136435.69, 0.0, 10.001311, 9.999106 
8.3502746e+2, 2.2552694e+2, -681385.06, -1002365.25, 44408.617, 0.20816639, -0.046479758, -675354.25, 54470.297, 0.0, 10.0015955, 9.997388 
8.350466e+2, 2.3552494e+2, -552472.3, -880054.44, 4101.5107, 0.05552143, -0.0037281003, -552421.0, 79431.05, 0.0, 10.0017605, 9.9974785 
8.350659e+2, 2.4552368e+2, -333582.28, -531978.9, -46875.22, 0.012948813, 0.038737137, -323064.63, 210799.44, 0.0, 10.001777, 9.999179 
8.3508563e+2, 2.5552282e+2, -250353.78, -453959.25, 19421.824, 0.06226942, 0.016340612, -248517.7, 187348.22, 0.0, 10.001727, 9.99907 
8.3510566e+2, 2.655199e+2, -234289.11, -607545.1, 49013.152, 0.06843244, -0.078726545, -227960.38, 109930.195, 0.0, 10.002091, 9.997163 
8.351258e+2, 2.7551508e+2, -40375.15, -456759.1, 7733.9673, 0.03745775, -0.29448006, -40231.547, 199704.5, 0.0, 10.002713, 9.997226 
8.3514607e+2, 2.8551358e+2, 154074.92, -135471.67, 2630.6504, 0.03050995, -0.24381258, 154098.81, 296046.03, 0.0000012583888, 10.002625, 9.9987955 
8.3516645e+2, 2.955145e+2, 126593.52, -111407.68, 70767.51, 0.04355197, -0.051385023, 146045.73, 189979.05, 0.000022671806, 10.001813, 9.998681 
8.3518374e+2, 3.0551136e+2, 194866.28, -123246.63, -9028.182, -0.12134011, -0.19292888, 195122.3, 195122.3, 0.0001036696, 10.002252, 9.998051 
8.352013e+2, 3.1550622e+2, 368277.88, -54515.266, 34971.645, -0.12770548, -0.53781176, 371151.06, 371151.06, 0.0002623637, 10.003467, 9.997933 
8.4482384e+2, 1.2550855e+2, -1923497.0, -1856154.9, 3091.188, -0.011979826, -0.33753967, -1856013.3, -146015.06, 0.0, 9.998686, 9.9996605 
8.4484833e+2, 1.3551043e+2, -1794831.0, -1752571.5, -12396.197, 0.23206194, -0.114695154, -1749203.6, -137215.31, 0.0, 9.998986, 9.99955 
8.4486914e+2, 1.4551178e+2, -1616393.5, -1523808.8, -43118.5, 0.2562847, 0.029959805, -1506838.3, 7138.839, 0.0, 9.999124, 10.000371 
8.448868e+2, 1.5551175e+2, -1487078.8, -1414959.0, -35593.008, 0.04240533, -0.03442834, -1400351.6, 15622.244, 0.0, 9.999355, 10.000338 
8.449066e+2, 1.655108e+2, -1351284.8, -1420901.0, -37851.31, 0.04683139, -0.10293336, -1334669.9, -16688.465, 0.0, 10.000144, 9.999247 
8.449283e+2, 1.7550907e+2, -1091889.5, -1243029.6, -79471.56, 0.23937939, -0.21458639, -1057793.9, 162204.34, 0.0, 10.001247, 9.999261 
8.44948e+2, 1.8550831e+2, -990334.9, -1130555.5, -71650.43, 0.22899143, -0.2175985, -960199.3, 161806.02, 0.0, 10.00121, 9.999374 
8.4496593e+2, 1.9550811e+2, -1038853.94, -1103706.3, -53993.42, 0.041003674, -0.19476765, -1008298.0, 15709.271, 0.0, 10.000203, 9.999375 
8.449864e+2, 2.0550793e+2, -927694.3, -998338.0, -18935.146, 0.064967014, -0.14450982, -922939.06, 3069.328, 0.0, 10.000295, 9.999381 
8.4500897e+2, 2.1550758e+2, -704837.44, -851170.2, -47824.895, 0.2676955, -0.13279507, -690593.6, 137417.7, 0.0, 10.001199, 9.999284 
8.450292e+2, 2.2550672e+2, -736051.56, -988099.4, -20822.11, 0.25385115, -0.059575766, -734343.0, -4319.575, 0.0, 10.001063, 9.997727 
8.450474e+2, 2.3550536e+2, -779265.0, -949484.06, 41351.836, 0.05749896, 0.01245634, -769751.06, -137706.97, 0.0, 10.000057, 9.9978075 
8.4506714e+2, 2.4550425e+2, -523015.9, -629288.1, 46033.59, 0.025166743, 0.054232962, -505848.8, 28205.795, 0.0, 10.000502, 9.999124 
8.450881e+2, 2.55503e+2, -200581.38, -432338.0, -18401.303, 0.12904647, 0.00086679385, -199129.42, 236930.47, 0.0, 10.0020895, 9.999034 
8.451083e+2, 2.6550004e+2, -188182.81, -597049.6, 3536.64, 0.11229668, -0.09182383, -188152.23, 149932.8, 0.0, 10.002462, 9.997049 
8.451277e+2, 2.7549547e+2, -168176.69, -523947.8, 36742.05, 0.006081253, -0.26915038, -164421.8, 75705.86, 0.0000000050987805, 10.001867, 9.997166 
8.451481e+2, 2.8549352e+2, 28702.768, -183015.5, 18424.4, 0.019678142, -0.26880667, 30294.156, 172436.42, 0.0000017149706, 10.001699, 9.998916 
8.451691e+2, 2.9549327e+2, 136108.88, -86151.83, -42099.773, 0.13800682, -0.21148367, 143816.0, 187954.08, 0.0000255943, 10.00179, 9.9988575 
8.4518665e+2, 3.0549124e+2, 189664.47, -157512.05, -101153.0, -0.045207758, -0.23837031, 216986.17, 216986.17, 0.000114907256, 10.002353, 9.997774 
8.4520465e+2, 3.1548658e+2, 313632.4, -107344.27, -107481.34, -0.11950973, -0.50471354, 339486.13, 339486.13, 0.00028673265, 10.003186, 9.997715 
8.5482377e+2, 1.2548776e+2, -1786711.1, -1591062.1, -19278.082, 0.06494483, -0.054216534, -1589180.6, 121032.71, 0.0, 9.998763, 10.001445 
8.54845e+2, 1.3548853e+2, -1681698.5, -1518556.1, -691.538, -0.0230879, -0.107780665, -1518553.3, 93649.55, 0.0, 9.999001, 10.0011425 
8.5486573e+2, 1.4548935e+2, -1581489.8, -1458095.6, -45400.87, -0.019478804, -0.11402219, -1443191.4, 70999.99, 0.0, 9.99914, 10.000821 
8.548868e+2, 1.554896e+2, -1454718.0, -1354830.1, -11519.388, 0.08025529, -0.19638488, -1353518.9, 62666.723, 0.0, 9.999384, 10.000735 
8.5490805e+2, 1.654895e+2, -1419694.4, -1563101.4, -5890.0615, 0.1555026, -0.14477882, -1419452.9, -101263.32, 0.0, 10.000138, 9.998277 
8.5492945e+2, 1.7548884e+2, -1147182.4, -1363688.0, -33729.324, 0.2094494, -0.058589015, -1142049.4, 78155.05, 0.0, 10.001268, 9.998425 
8.549485e+2, 1.854888e+2, -948107.75, -1035225.9, -118130.67, 0.14229785, 0.012915963, -865761.1, 256445.4, 0.0, 10.001175, 10.000048 
8.549656e+2, 1.9548906e+2, -997601.2, -1014117.6, -80545.695, -0.031958003, 0.017763197, -924891.44, 99308.57, 0.0, 10.000182, 10.000001 
8.5498625e+2, 2.0548803e+2, -974014.5, -1080774.6, 5242.6616, 0.008653851, -0.021080296, -973757.6, -47549.184, 0.0, 10.000229, 9.998853 
8.550099e+2, 2.1548563e+2, -742480.7, -909834.75, -7499.0605, 0.22071938, -0.16356665, -742145.3, 86086.734, 0.0, 10.001106, 9.998929 
8.550301e+2, 2.2548473e+2, -622880.9, -720143.1, -66794.64, 0.22782253, -0.17808196, -588889.3, 141350.28, 0.0, 10.000925, 9.999635 
8.550477e+2, 2.3548499e+2, -668404.7, -700331.1, 17550.602, 0.068441376, -0.13427016, -660643.5, -28408.531, 0.0, 9.999974, 9.9995575 
8.550683e+2, 2.4548355e+2, -640226.6, -855541.7, 95641.836, 0.07915502, -0.12687358, -603878.94, -69630.945, 0.0, 10.000429, 9.997605 
8.5509145e+2, 2.554804e+2, -312757.88, -642739.8, 45049.31, 0.22843078, -0.22113556, -306718.25, 129560.516, 0.0, 10.001989, 9.997641 
8.5511154e+2, 2.6547846e+2, -120034.805, -438786.34, -28396.936, 0.17228074, -0.20273799, -117524.74, 220770.58, 0.0, 10.002387, 9.998177 
8.55129e+2, 2.7547744e+2, -111895.96, -386632.7, 25735.717, -0.06256815, -0.13768344, -109505.98, 130794.664, 0.0000001292932, 10.001778, 9.998157 
8.5514927e+2, 2.8547433e+2, -70003.32, -371422.06, 15083.077, -0.04021057, -0.23471984, -69250.44, 73076.57, 0.0000031613251, 10.001632, 9.997652 
8.5517174e+2, 2.954689e+2, 40919.094, -270290.9, -27128.275, 0.19547059, -0.56608665, 43266.17, 87642.65, 0.000030116835, 10.001729, 9.997625 
8.5519e+2, 3.0546814e+2, 157871.39, -211331.52, -74180.21, 0.036977693, -0.38852024, 172218.17, 172218.17, 0.0001273879, 10.002313, 9.997419 
8.552082e+2, 3.1546757e+2, 304877.66, -92976.484, -66894.945, -0.12623803, -0.20593052, 315824.16, 315824.16, 0.00031292601, 10.003059, 9.997874 
8.6482316e+2, 1.2546656e+2, -1680459.8, -1466930.5, 122432.7, 0.11746882, 0.01035653, -1411250.0, 299174.53, 0.00000000000000000000885557, 9.999181, 10.002087 
8.6484313e+2, 1.3546716e+2, -1773916.5, -1509817.3, 34995.508, -0.050471418, -0.121109754, -1505258.8, 107151.79, 0.0, 9.99811, 10.001641 
8.64864e+2, 1.4546762e+2, -1725148.8, -1549420.0, -10475.933, -0.054586735, -0.17751195, -1548797.6, -34396.17, 0.0, 9.998265, 10.00061 
8.648866e+2, 1.5546775e+2, -1446855.6, -1378216.4, -51981.676, 0.12513794, -0.24453707, -1350246.9, 66151.77, 0.0, 9.999555, 10.000498 
8.649083e+2, 1.6546796e+2, -1424720.5, -1528493.3, -9145.674, 0.18098828, -0.16825181, -1423920.8, -105520.01, 0.0, 9.999952, 9.99859 
8.649291e+2, 1.75468e+2, -1365672.8, -1441057.8, 35136.406, 0.12891828, -0.042657975, -1351835.8, -131426.84, 0.0, 9.999646, 9.99867 
8.649487e+2, 1.8546817e+2, -1083235.0, -1119678.0, -32000.117, 0.08426731, 0.048142117, -1064632.3, 57777.813, 0.0, 10.0003395, 9.999865 
8.6496735e+2, 1.9546829e+2, -771521.44, -925170.4, -74878.69, 0.04256873, 0.05788048, -741066.75, 283340.25, 0.0, 10.001833, 9.999809 
8.649878e+2, 2.0546724e+2, -769747.1, -972547.9, -3849.2166, 0.07574086, 0.0242694, -769674.1, 156742.08, 0.0, 10.001604, 9.9989195 
8.650097e+2, 2.1546501e+2, -920109.6, -988614.0, 5825.178, 0.16190927, -0.109437294, -919617.8, -91180.016, 0.0, 9.999874, 9.998972 
8.650301e+2, 2.25464e+2, -702616.4, -747752.9, -53315.758, 0.16792859, -0.14434813, -667289.06, 63156.434, 0.0, 10.000317, 9.999747 
8.650493e+2, 2.3546384e+2, -291868.97, -508868.3, -118451.04, 0.113765925, -0.15185468, -239736.06, 392707.2, 0.0, 10.00251, 9.999656 
8.650703e+2, 2.454624e+2, -322296.1, -696707.1, -47226.56, 0.13610332, -0.14951803, -316431.03, 218024.77, 0.0, 10.002596, 9.997645 
8.650927e+2, 2.554597e+2, -456465.88, -705186.7, -2013.1211, 0.216414, -0.20434123, -456449.6, -19966.51, 0.0, 10.000979, 9.997695 
8.6511296e+2, 2.6545805e+2, -353023.6, -518365.66, -33648.195, 0.17975032, -0.17439792, -346438.25, -7941.1807, 0.0000000005766255, 10.000643, 9.998466 
8.651317e+2, 2.754571e+2, -150329.98, -375541.16, -61440.695, 0.049949676, -0.129181, -134658.63, 105842.945, 0.000000514823, 10.001382, 9.99842 
8.6515176e+2, 2.854541e+2, -88379.86, -414394.2, -44831.066, 0.04482067, -0.21542607, -82327.39, 60201.008, 0.0000054394536, 10.001642, 9.99736 
8.6517286e+2, 2.9544884e+2, -9408.614, -321000.22, -28356.023, 0.1532303, -0.49738368, -6849.1323, 37728.742, 0.000035908153, 10.001493, 9.9973955 
8.6519206e+2, 3.0544814e+2, 165425.23, -244998.13, 27363.18, 0.012060317, -0.28721696, 167241.52, 167241.52, 0.00014004746, 10.002516, 9.997085 
8.652129e+2, 3.1544742e+2, 499510.38, 51610.39, -8144.9097, -0.008561791, -0.09335073, 499658.44, 499658.44, 0.00033713353, 10.0041895, 9.998304 
8.748211e+2, 1.2544528e+2, -1712718.4, -1550709.1, 55388.613, -0.0541369, -0.13778087, -1533583.0, 177044.8, 0.0000000055054987, 9.999244, 10.001481 
8.748427e+2, 1.3544658e+2, -1808935.9, -1579047.9, 7330.9155, 0.074504286, -0.15508088, -1578814.4, 33794.73, 0.0, 9.998102, 10.001161 
8.748638e+2, 1.4544685e+2, -1801747.0, -1711442.4, 27872.75, 0.078971654, -0.14896895, -1703532.3, -188927.25, 0.0, 9.998273, 9.999499 
8.7488604e+2, 1.5544635e+2, -1509681.4, -1509829.1, 3699.734, 0.092367195, -0.17416951, -1506054.8, -89442.766, 0.0, 9.999567, 9.999585 
8.749069e+2, 1.6544633e+2, -1310712.3, -1297344.0, -30311.256, 0.029673472, -0.16354437, -1272988.6, 45624.89, 0.0, 9.999966, 10.000175 
8.7492675e+2, 1.7544664e+2, -1261376.0, -1228700.3, 34950.516, -0.084842436, -0.16592818, -1206457.5, 14153.165, 0.0, 9.999659, 10.000122 
8.7494814e+2, 1.8544658e+2, -1162886.0, -1279775.9, 16545.832, -0.021760771, -0.109723136, -1160589.1, -37974.57, 0.0, 10.000315, 9.998779 
8.749708e+2, 1.9544582e+2, -843849.5, -1067853.4, -14604.278, 0.18595542, -0.08402956, -842901.4, 181726.48, 0.0, 10.001798, 9.998847 
8.7499064e+2, 2.054456e+2, -744403.4, -897220.4, -77605.13, 0.18915159, -0.019294932, -711904.5, 214727.22, 0.0, 10.001506, 9.999486 
8.750082e+2, 2.1544574e+2, -899649.56, -926546.0, -45568.938, 0.015884165, 0.029083379, -865585.9, -36957.11, 0.0, 9.999787, 9.99944 
8.7502885e+2, 2.2544456e+2, -833456.0, -996238.0, 20744.447, 0.0033285448, 0.04186991, -830853.94, -100213.15, 0.0, 10.000216, 9.99809 
8.7505203e+2, 2.35442e+2, -415028.6, -734632.1, -32000.3, 0.121225126, -0.04100273, -411856.06, 220811.81, 0.0, 10.0023775, 9.998169 
8.7507296e+2, 2.4544086e+2, -232241.28, -485877.7, -115649.39, 0.12206463, -0.019049041, -187427.2, 347250.2, 0.0, 10.00249, 9.999147 
8.750918e+2, 2.5544074e+2, -371076.8, -505966.3, -48314.25, 0.016323788, 0.03740254, -355557.34, 81116.38, 0.0, 10.000886, 9.999106 
8.7511265e+2, 2.6543865e+2, -396601.84, -602434.6, -13545.191, 0.06480823, -0.015945468, -395714.28, -57023.082, 0.0000000691861, 10.00061, 9.997907 
8.751352e+2, 2.7543464e+2, -196665.95, -453681.88, -25102.791, 0.24294786, -0.22663519, -194237.11, 46491.92, 0.000001269736, 10.001303, 9.997922 
8.7515503e+2, 2.8543293e+2, -40864.434, -309854.34, -60403.79, 0.19061191, -0.19514951, -27922.924, 114821.91, 0.000008255043, 10.001614, 9.998095 
8.7517244e+2, 2.9543278e+2, 32689.992, -223432.77, -20207.104, -0.06236715, -0.0411307, 34274.453, 79020.305, 0.000042714033, 10.001445, 9.998094 
8.7519276e+2, 3.05431e+2, 135493.33, -290674.2, 89652.62, -0.18296011, 0.044153348, 153585.42, 153585.42, 0.00015286829, 10.002447, 9.9968 
8.752182e+2, 3.1542522e+2, 510764.88, 98485.21, 66530.14, 0.054222938, -0.23410809, 521235.03, 521235.03, 0.00035722472, 10.004087, 9.998678 
8.8482046e+2, 1.2542461e+2, -1970222.4, -1739814.5, -15973.027, 0.03716965, -0.11894722, -1738712.5, -27881.111, 0.00000006865043, 9.997767, 10.000899 
8.8484204e+2, 1.3542558e+2, -1681193.1, -1579079.4, -88729.56, 0.15455781, -0.109340854, -1527765.6, 85052.21, 0.0, 9.999237, 10.000625 
8.8486326e+2, 1.4542536e+2, -1570533.0, -1610198.6, 16068.859, 0.12415251, -0.11956173, -1564840.3, -50021.445, 0.0, 9.999913, 9.999394 
8.848857e+2, 1.5542465e+2, -1431978.1, -1484539.9, 39228.133, 0.084367946, -0.15630424, -1411041.1, 5786.2036, 0.0, 10.000153, 9.999471 
8.849068e+2, 1.6542464e+2, -1258476.8, -1222508.5, -29478.818, 0.021116814, -0.15772781, -1205961.1, 112866.086, 0.0, 10.000128, 10.000611 
8.8492674e+2, 1.7542532e+2, -1198859.4, -1150737.0, -67049.12, -0.056896813, -0.1661957, -1103562.5, 117256.97, 0.0, 9.999898, 10.000542 
8.8494843e+2, 1.8542539e+2, -1235302.0, -1314165.0, -28501.176, 0.012021879, -0.117349975, -1226080.0, -103258.1, 0.0, 9.999815, 9.998784 
8.849716e+2, 1.954246e+2, -1133834.0, -1207694.6, -2289.533, 0.19385634, -0.091542244, -1133763.1, -108927.02, 0.0, 9.999813, 9.998842 
8.8499177e+2, 2.054245e+2, -872795.25, -961183.1, -67475.03, 0.1962576, -0.016378978, -836329.5, 90510.12, 0.0, 10.000622, 9.999479 
8.8500947e+2, 2.154248e+2, -569889.56, -771259.0, -90582.36, 0.05155294, 0.05187365, -535139.5, 293696.06, 0.0, 10.002058, 9.999421 
8.8503015e+2, 2.254237e+2, -579467.06, -877741.7, 56057.21, 0.027984094, 0.0749748, -569279.7, 161567.3, 0.0, 10.001986, 9.998042 
8.850533e+2, 2.354211e+2, -673987.1, -865260.94, 95802.96, 0.10073551, -0.004171247, -634255.56, -1381.7612, 0.0, 10.00063, 9.998111 
8.850742e+2, 2.4541993e+2, -514358.1, -611761.2, 1825.2554, 0.10469097, 0.011934968, -514323.9, 20559.975, 0.0, 10.0005045, 9.999238 
8.850932e+2, 2.5541967e+2, -278969.75, -454135.7, -53027.594, 0.047974873, 0.042002432, -264167.66, 172714.84, 0.00000000006372724, 10.0014715, 9.999183 
8.8511395e+2, 2.6541767e+2, -246835.98, -541980.56, -12051.585, 0.08384081, 0.0009424121, -246344.7, 92555.664, 0.00000025387644, 10.001691, 9.997801 
8.85136e+2, 2.7541402e+2, -197597.78, -463225.34, -9088.125, 0.19939749, -0.16274107, -197287.2, 43649.31, 0.0000021793016, 10.001332, 9.997842 
8.851562e+2, 2.8541267e+2, -33182.473, -279710.3, -24880.127, 0.15934762, -0.104618356, -30696.582, 112253.016, 0.000011106664, 10.001578, 9.998305 
8.851749e+2, 2.9541284e+2, 181389.48, -128055.734, -42148.6, -0.0029022277, 0.06727963, 187027.69, 231974.33, 0.000049522223, 10.002376, 9.998294 
8.85196e+2, 3.0541033e+2, 194983.38, -252544.64, 101309.84, -0.11746873, 0.06125264, 216849.2, 216849.2, 0.00016466355, 10.002813, 9.996898 
8.852214e+2, 3.154053e+2, 324465.28, 38302.355, 65480.76, 0.049493305, -0.1453523, 338737.03, 338737.03, 0.00037254568, 10.002674, 9.998963 
8.948206e+2, 1.2540448e+2, -2020864.9, -1831491.6, 4989.7896, 0.23636729, 0.07306152, -1831360.3, -120324.15, 0.00000033567557, 9.997726, 10.000282 
8.9484113e+2, 1.3540435e+2, -1713951.0, -1649593.0, -31307.416, 0.11605539, 0.033351716, -1636876.1, -23840.867, 0.00000000007521531, 9.999266, 10.00012 
8.94862e+2, 1.4540347e+2, -1501202.3, -1479607.6, 12859.661, -0.015667181, -0.06619464, -1473613.5, 41427.055, 0.0, 9.999962, 10.000272 
8.948854e+2, 1.5540284e+2, -1374665.8, -1370735.8, 58726.28, 0.01929099, -0.17928627, -1313941.6, 103100.836, 0.0, 10.000172, 10.000246 
8.949076e+2, 1.6540314e+2, -1312338.0, -1340331.1, -47920.95, 0.07192088, -0.14224847, -1276411.4, 42628.484, 0.0, 10.000147, 9.999795 
8.949289e+2, 1.7540407e+2, -1247401.8, -1253665.8, -66333.82, 0.14950162, -0.048333053, -1184126.1, 36909.3, 0.0, 9.999902, 9.999835 
8.9494944e+2, 1.8540464e+2, -1167193.9, -1164313.6, -37531.113, 0.11551953, 0.029080456, -1128195.0, -5163.0703, 0.0, 9.999773, 9.999835 
8.9496946e+2, 1.9540471e+2, -1073960.5, -1071454.4, 7715.3237, -0.018003574, 0.035525013, -1064891.0, -39859.594, 0.0, 9.999755, 9.999807 
8.9499074e+2, 2.0540395e+2, -926790.3, -1050053.0, -21720.1, 0.014479203, 0.031071845, -923075.0, 3964.574, 0.0, 10.000524, 9.998916 
8.9501303e+2, 2.154023e+2, -621137.5, -846856.75, -30964.057, 0.18986906, -0.045589153, -616966.94, 212090.52, 0.0, 10.001929, 9.9989605 
8.950337e+2, 2.2540149e+2, -498514.8, -682198.56, -3948.947, 0.16975124, -0.042633433, -498429.94, 232633.42, 0.0, 10.00186, 9.99945 
8.950528e+2, 2.3540123e+2, -595431.56, -681147.0, 56055.1, -0.027348671, -0.03232581, -567727.56, 65333.32, 0.0, 10.000537, 9.99942 
8.9507383e+2, 2.4539964e+2, -612372.25, -802567.4, 28090.441, 0.0023259295, -0.053333137, -608310.25, -73234.82, 0.0, 10.000445, 9.997959 
8.950966e+2, 2.5539666e+2, -379413.56, -638752.1, -9327.975, 0.22257058, -0.16802327, -379078.47, 58028.934, 0.0000000002378373, 10.0013685, 9.997967 
8.951165e+2, 2.6539534e+2, -229138.1, -492878.25, -32971.156, 0.15784705, -0.0986907, -225078.73, 114043.19, 0.00000030747992, 10.001638, 9.998161 
8.95134e+2, 2.753953e+2, -188500.69, -425637.75, -10027.98, -0.15291588, 0.060629085, -188077.39, 53046.87, 0.0000026197797, 10.001257, 9.998136 
8.9515513e+2, 2.853932e+2, -61963.355, -336168.13, -3648.286, -0.12154594, 0.05605998, -61914.82, 81228.72, 0.000013171274, 10.001554, 9.997931 
8.9517957e+2, 2.9538938e+2, 155163.13, -175747.27, -3556.44, 0.20667948, -0.14588468, 155201.33, 200379.81, 0.000055655084, 10.002337, 9.997985 
8.9520115e+2, 3.053864e+2, 215882.38, -192678.98, 89297.94, 0.10899098, -0.20850575, 234547.25, 234547.25, 0.00017577781, 10.002753, 9.997332 
8.952222e+2, 3.153857e+2, 323755.0, 75107.33, 78544.1, -0.18559986, -0.022345662, 346487.6, 346487.6, 0.0003866523, 10.002526, 9.999275 
9.048193e+2, 1.2538293e+2, -1845245.6, -1754585.9, 58315.707, 0.29199418, 0.12600672, -1726054.3, -14803.992, 0.0000010657902, 9.998944, 10.000232 
9.048405e+2, 1.3538232e+2, -1709265.5, -1646716.9, 41501.324, 0.13983479, 0.036876068, -1626025.5, -12772.137, 0.000000007369457, 9.999288, 10.000131 
9.04862e+2, 1.4538158e+2, -1591304.5, -1491954.0, 67645.33, 0.031545077, -0.0644591, -1457703.6, 57553.023, 0.0, 9.999209, 10.000546 
9.048858e+2, 1.553816e+2, -1538241.6, -1421638.4, 46591.31, 0.1083383, -0.14179891, -1405308.6, 11943.227, 0.0, 9.998927, 10.000495 
9.0490806e+2, 1.6538206e+2, -1500214.6, -1484345.9, -37624.508, 0.16387469, -0.07680177, -1453828.3, -134579.22, 0.0, 9.999087, 9.99932 
9.0492916e+2, 1.7538264e+2, -1317889.1, -1336042.4, -52104.36, 0.20788787, 0.030390922, -1274076.8, -52826.26, 0.0, 9.999627, 9.9994 
9.0494967e+2, 1.8538289e+2, -1093107.0, -1085725.6, -20175.316, 0.14784963, 0.07579228, -1068906.3, 54342.637, 0.0, 10.000094, 10.000218 
9.049697e+2, 1.9538268e+2, -933455.3, -965546.3, -37089.6, -0.0037831326, 0.017659543, -909089.2, 116157.02, 0.0, 10.000543, 10.000159 
9.0499145e+2, 2.0538186e+2, -919701.06, -1078119.3, -45794.234, 0.037024, 0.0024547388, -907415.94, 19839.094, 0.0, 10.000709, 9.99863 
9.0501475e+2, 2.1538022e+2, -829592.06, -976842.56, -59550.32, 0.24212462, -0.041565664, -808523.5, 20752.611, 0.0, 10.000623, 9.998695 
9.0503556e+2, 2.2537959e+2, -608075.6, -666307.06, -77519.836, 0.23312536, -0.03922742, -554384.06, 176896.53, 0.0, 10.000815, 10.000062 
9.050543e+2, 2.353796e+2, -444302.63, -545063.8, -92705.125, 0.0370502, -0.060108915, -389172.84, 244100.19, 0.0, 10.001303, 9.999988 
9.0507513e+2, 2.4537833e+2, -466346.22, -735113.5, -53098.2, 0.037643287, -0.074668206, -456236.3, 79047.984, 0.0, 10.001473, 9.997919 
9.050977e+2, 2.5537574e+2, -376586.9, -639849.94, -20100.975, 0.20060411, -0.1440573, -375060.97, 62252.53, 0.0, 10.001406, 9.997935 
9.051178e+2, 2.653745e+2, -258151.06, -514854.7, -19471.25, 0.13605237, -0.06621338, -256682.55, 82645.84, 0.0000002007212, 10.001485, 9.998085 
9.051358e+2, 2.7537405e+2, -126797.34, -404887.5, -46377.098, -0.113144964, 0.06643554, -119266.945, 122067.24, 0.0000025589381, 10.001725, 9.998053 
9.051575e+2, 2.853719e+2, -15408.36, -359342.16, -9557.786, -0.060782913, 0.07530111, -15142.958, 128213.055, 0.000014749117, 10.002062, 9.997536 
9.051823e+2, 2.9536822e+2, 138511.16, -221345.5, -33487.598, 0.25490728, -0.06365657, 141600.92, 186992.16, 0.00006245814, 10.002394, 9.997646 
9.052042e+2, 3.0536488e+2, 200361.3, -163140.27, 42914.645, 0.1534938, -0.16330624, 205359.05, 205359.05, 0.00018870574, 10.002486, 9.997665 
9.0522456e+2, 3.1536406e+2, 252856.53, 16240.426, -18346.361, -0.1638036, -0.019083936, 254270.58, 254270.58, 0.00040376265, 10.0021305, 9.999072 
9.148157e+2, 1.2536038e+2, -1795885.1, -1662923.9, 39196.1, -0.008158805, 0.06481952, -1652229.4, 59240.33, 0.000002613721, 9.999005, 10.000826 
9.148401e+2, 1.353596e+2, -1667181.8, -1556055.8, 59431.24, 0.14539781, -0.10756632, -1530259.6, 83211.08, 0.00000007607973, 9.999278, 10.000754 
9.1486293e+2, 1.4535964e+2, -1621183.9, -1548862.8, 47312.992, 0.17983574, -0.14120781, -1525474.1, -10006.466, 0.0, 9.999183, 10.00017 
9.1488653e+2, 1.5536109e+2, -1561132.6, -1470299.1, 48636.473, 0.27157035, -0.04001516, -1449171.3, -31716.818, 0.0, 9.99893, 10.000159 
9.149078e+2, 1.6536164e+2, -1511733.1, -1505807.3, -27613.777, 0.21358912, 0.056440644, -1480997.9, -161545.3, 0.0, 9.999079, 9.999175 
9.149272e+2, 1.7536122e+2, -1333212.5, -1363265.9, -22872.197, 0.03185191, 0.08024865, -1320872.4, -99409.46, 0.0, 9.999607, 9.999224 
9.1494864e+2, 1.8536022e+2, -1116168.0, -1125213.8, -11380.367, 0.022980895, 0.02531834, -1108444.6, 15026.7705, 0.0, 10.000055, 9.999969 
9.1497207e+2, 1.953586e+2, -962840.44, -1008184.25, -9601.159, 0.16108519, -0.15052754, -960891.25, 64588.855, 0.0, 10.0004635, 9.999907 
9.149939e+2, 2.0535825e+2, -939665.7, -1097306.0, -56749.51, 0.1889849, -0.10141754, -921361.56, 6123.751, 0.0, 10.000611, 9.998544 
9.150143e+2, 2.1535875e+2, -851937.3, -997724.0, -54472.9, 0.12664129, 0.07668816, -833832.1, -4342.0615, 0.0, 10.000514, 9.998603 
9.1503555e+2, 2.2535813e+2, -634204.25, -701244.6, -69025.766, 0.13400592, 0.093596585, -590990.1, 140507.48, 0.0, 10.000725, 9.99987 
9.1505736e+2, 2.3535636e+2, -470045.5, -573620.6, -65524.56, 0.20757051, -0.08757377, -438314.1, 195195.17, 0.0, 10.001193, 9.999845 
9.150776e+2, 2.4535613e+2, -396972.75, -574522.06, -62394.05, 0.1256296, -0.050100937, -377239.53, 158269.44, 0.0, 10.001398, 9.999061 
9.150964e+2, 2.5535697e+2, -311453.03, -490717.06, -12881.092, -0.092770904, 0.11137347, -310532.2, 126968.72, 0.0, 10.001342, 9.998995 
9.1511756e+2, 2.6535505e+2, -298368.94, -591327.2, -18642.604, -0.057277173, 0.09886977, -297187.34, 42332.68, 0.00000011562638, 10.001453, 9.997575 
9.151409e+2, 2.7535048e+2, -169132.98, -480323.38, -26026.518, 0.20627238, -0.13201748, -166971.27, 74594.02, 0.0000025826089, 10.001668, 9.997563 
9.151628e+2, 2.8534868e+2, -51958.695, -423094.4, -5635.6304, 0.24209657, -0.039894667, -51873.14, 91712.984, 0.000017159802, 10.00201, 9.997123 
9.151831e+2, 2.9534924e+2, 98155.84, -292461.38, -8512.113, 0.07264524, 0.28343505, 98341.25, 143927.75, 0.00007135739, 10.002335, 9.997189 
9.1520476e+2, 3.0534565e+2, 198653.33, -146181.9, 28719.238, -0.049919173, 0.17435367, 201028.81, 201028.81, 0.00020552066, 10.002406, 9.997816 
9.152279e+2, 3.1534028e+2, 206728.0, -52161.746, -2043.7589, -0.08259905, -0.1605456, 206744.14, 206744.14, 0.00042645857, 10.002023, 9.998647 
9.2481434e+2, 1.2533762e+2, -1798152.3, -1663639.0, 45051.652, -0.033158578, 0.023898771, -1649944.4, 61747.125, 0.0000053718704, 9.998973, 10.000841 
9.248397e+2, 1.3533723e+2, -1623884.0, -1524843.4, -8899.597, 0.18017606, -0.12273781, -1524050.0, 89638.55, 0.00000033393198, 9.999522, 10.000861 
9.248629e+2, 1.4533749e+2, -1586060.1, -1558314.6, -34910.523, 0.2533467, -0.12501085, -1534621.5, -18936.889, 0.0, 9.999537, 9.999939 
9.2488617e+2, 1.5533891e+2, -1520042.9, -1477353.4, -46801.91, 0.32949546, -0.0007974824, -1447258.6, -29584.736, 0.0, 9.999325, 9.999925 
9.2490745e+2, 1.6533923e+2, -1408906.4, -1434768.1, -50388.336, 0.24484694, 0.07313557, -1369816.3, -50141.88, 0.0, 9.999682, 9.999371 
9.2492706e+2, 1.7533849e+2, -1183161.8, -1269882.9, -36626.094, 0.018799054, 0.042573143, -1169763.1, 51922.555, 0.0, 10.0005455, 9.999411 
9.24949e+2, 1.8533757e+2, -1035364.44, -1099323.9, -17145.354, 0.023185415, -0.0073248176, -1031058.25, 92635.164, 0.0, 10.00067, 9.999849 
9.249729e+2, 1.9533631e+2, -1022645.44, -1045388.25, -28537.012, 0.22598752, -0.13493668, -1003297.6, 22402.559, 0.0, 10.000097, 9.999821 
9.249948e+2, 2.0533612e+2, -999534.56, -1106008.1, -28382.295, 0.25540826, -0.07511595, -992441.3, -64737.254, 0.0, 10.000112, 9.998733 
9.250151e+2, 2.1533662e+2, -812698.8, -959154.8, -17316.02, 0.14192484, 0.085969545, -810679.3, 19028.191, 0.0, 10.000695, 9.998786 
9.2503643e+2, 2.2533613e+2, -615925.56, -733731.9, -10666.958, 0.14057812, 0.12560524, -614967.5, 116747.805, 0.0, 10.001037, 9.999488 
9.250588e+2, 2.3533459e+2, -498568.38, -627611.6, -42176.875, 0.23370364, 0.0052950447, -486006.1, 147722.44, 0.0, 10.00117, 9.999482 
9.250793e+2, 2.4533442e+2, -345063.5, -506564.66, -58628.203, 0.14764073, 0.045911428, -326024.7, 209703.55, 0.0, 10.001568, 9.999451 
9.2509806e+2, 2.5533518e+2, -151597.23, -367609.8, -81280.01, -0.092692174, 0.16099723, -124430.31, 313288.22, 0.0, 10.002248, 9.999403 
9.251195e+2, 2.6533332e+2, -145949.9, -502896.53, -81594.35, -0.047548193, 0.12699637, -128182.66, 211552.86, 0.00000007319143, 10.002423, 9.99772 
9.2514324e+2, 2.753289e+2, -94819.1, -426477.56, -56591.246, 0.2575488, -0.10458771, -85428.75, 156349.39, 0.0000027897247, 10.002095, 9.997727 
9.25165e+2, 2.8532702e+2, -48348.492, -422127.5, 33832.605, 0.27189577, -0.03008433, -45310.82, 98489.0, 0.000020180585, 10.002044, 9.9971075 
9.25185e+2, 2.9532725e+2, 87898.26, -298895.44, 37022.996, 0.038893938, 0.2621084, 91410.125, 137214.23, 0.00008284934, 10.00227, 9.997172 
9.252071e+2, 3.053245e+2, 231459.38, -63942.21, 104476.05, -0.03891251, 0.2111855, 264675.06, 264675.06, 0.00022869528, 10.002312, 9.998436 
9.2523086e+2, 3.153199e+2, 222933.16, -5023.616, 73063.04, 0.020763468, -0.11176117, 244340.44, 244340.44, 0.00046065266, 10.001942, 9.999017 
9.348146e+2, 1.2531419e+2, -1844437.1, -1744109.9, 34510.063, 0.04781334, -0.049552586, -1733385.6, -21466.08, 0.000009857008, 9.998921, 10.000309 
9.348392e+2, 1.3531533e+2, -1642720.9, -1578471.8, 15284.738, 0.1555068, -0.004557942, -1575020.9, 38885.07, 0.0000009955157, 9.999589, 10.000458 
9.348617e+2, 1.4531535e+2, -1591340.6, -1583897.8, -56747.81, 0.15330246, 0.00045435154, -1530749.5, -14843.795, 0.00000000002439963, 9.999598, 9.999738 
9.348843e+2, 1.5531503e+2, -1532925.8, -1501187.5, -45555.645, 0.19328077, -0.028555717, -1468816.1, -50904.844, 0.0, 9.999311, 9.999769 
9.349066e+2, 1.6531478e+2, -1367752.4, -1342178.8, -29426.828, 0.17060018, -0.0394111, -1322880.6, -2965.5305, 0.0, 9.999652, 10.000021 
9.3492854e+2, 1.7531446e+2, -1137224.6, -1178676.0, 3706.7542, 0.09214667, -0.08901859, -1136895.8, 85022.7, 0.0, 10.000562, 10.0000305 
9.3495023e+2, 1.8531497e+2, -1044549.2, -1111585.6, -46284.94, 0.069186285, -0.022329582, -1020920.5, 102993.6, 0.0, 10.000643, 9.99978 
9.3497187e+2, 1.9531591e+2, -1035771.94, -1057533.4, -40793.47, 0.09701475, 0.07758689, -1004433.0, 21472.91, 0.0, 10.000034, 9.999769 
9.3499404e+2, 2.0531558e+2, -966950.75, -1026835.0, -17859.979, 0.14550665, 0.09622286, -962028.75, -34118.316, 0.0, 10.000055, 9.999304 
9.350165e+2, 2.1531394e+2, -792557.7, -895187.7, 12367.051, 0.21203515, -0.013662563, -791088.5, 38839.36, 0.0, 10.000591, 9.999281 
9.35038e+2, 2.2531365e+2, -677146.4, -832771.6, -12356.508, 0.17666285, 0.05545378, -676171.44, 55761.945, 0.0, 10.000916, 9.998866 
9.350583e+2, 2.3531431e+2, -558802.06, -727872.1, -26699.076, 0.050697047, 0.21799062, -554686.06, 79244.91, 0.0, 10.00106, 9.998849 
9.3507975e+2, 2.4531323e+2, -380627.56, -559929.75, -42205.754, 0.025258467, 0.21658018, -371189.6, 164752.13, 0.0, 10.001479, 9.999126 
9.3510246e+2, 2.5531042e+2, -184848.05, -419108.94, -47197.87, 0.105690256, 0.005321451, -175696.34, 262269.8, 0.0, 10.002163, 9.999095 
9.351234e+2, 2.6530927e+2, -98956.86, -384946.16, -99794.305, 0.08790144, 0.013233854, -67577.28, 272397.7, 0.00000003612581, 10.002339, 9.998568 
9.3514276e+2, 2.753093e+2, -50448.816, -314845.63, -57512.63, -0.021610076, 0.14305589, -38480.23, 203492.56, 0.0000027030533, 10.002016, 9.9985285 
9.351642e+2, 2.8530696e+2, -29902.809, -376678.5, 34439.797, -0.035563696, 0.11450197, -26515.53, 117480.49, 0.000022488803, 10.002006, 9.997439 
9.351876e+2, 2.9530242e+2, 106396.71, -256675.83, 57917.063, 0.045950003, -0.101668335, 115411.75, 161453.6, 0.000095232324, 10.002244, 9.9974785 
9.352108e+2, 3.0530152e+2, 294924.88, 79785.54, 84221.04, 0.07999822, -0.03492902, 323972.97, 323972.97, 0.0002574787, 10.002268, 9.999441 
9.3523276e+2, 3.1530306e+2, 283074.75, 150838.66, 87527.62, -0.018843036, 0.1518476, 326650.28, 326650.28, 0.0005076494, 10.001816, 10.000145 
9.448149e+2, 1.252909e+2, -1887637.9, -1780491.6, 9710.822, 0.21655698, -0.012726248, -1779618.6, -67469.22, 0.000016753027, 9.998673, 10.000189 
9.448385e+2, 1.3529153e+2, -1668320.6, -1603367.8, -18514.865, 0.14551303, -0.0034235364, -1598460.8, 15680.978, 0.000002343361, 9.999468, 10.000346 
9.448609e+2, 1.4529164e+2, -1524669.9, -1523342.8, -65425.953, 0.09887594, 0.001403421, -1458577.0, 57563.88, 0.0000000053592455, 9.999935, 9.999987 
9.4488376e+2, 1.5529166e+2, -1376729.6, -1402145.3, -41311.63, 0.16636284, -0.019452048, -1346215.5, 71926.89, 0.0, 10.0002775, 9.999985 
9.4490653e+2, 1.6529164e+2, -1280293.1, -1276770.6, -238.82886, 0.18724932, -0.025766388, -1276754.5, 43388.83, 0.0, 10.000155, 10.000222 
9.449293e+2, 1.752915e+2, -1260173.3, -1216503.3, -23342.582, 0.16614102, -0.08032763, -1206375.1, 15770.273, 0.0, 9.999629, 10.000216 
9.4495094e+2, 1.8529233e+2, -1171400.6, -1173947.8, -74217.164, 0.12027419, 0.010215235, -1098446.0, 25693.066, 0.0, 9.999784, 9.999759 
9.449717e+2, 1.9529377e+2, -956757.8, -1020717.06, -78188.7, 0.053752583, 0.16090709, -904261.56, 121866.78, 0.0, 10.000586, 9.999754 
9.44994e+2, 2.0529346e+2, -777193.56, -884221.25, -28487.535, 0.08864529, 0.16070971, -770083.4, 158047.94, 0.0, 10.001145, 9.999752 
9.450176e+2, 2.152915e+2, -634922.56, -766060.44, -27340.564, 0.218121, -0.027201027, -629450.75, 200696.78, 0.0, 10.001456, 9.99974 
9.4503933e+2, 2.2529116e+2, -608269.0, -813657.1, -34612.94, 0.19710761, 0.022151258, -602592.75, 129559.21, 0.0, 10.00145, 9.998741 
9.4505924e+2, 2.3529208e+2, -548767.7, -734006.3, -27936.533, 0.046055973, 0.22215869, -544646.2, 89501.81, 0.0, 10.001183, 9.998744 
9.45081e+2, 2.4529074e+2, -484906.1, -652693.7, 1535.4396, 0.035718933, 0.2195491, -484892.03, 51270.617, 0.0, 10.000941, 9.99875 
9.4510436e+2, 2.5528723e+2, -424273.2, -570067.7, -24204.928, 0.16329806, -0.024455937, -420359.7, 17835.781, 0.0, 10.000674, 9.998771 
9.451254e+2, 2.6528627e+2, -268589.9, -450633.72, -83657.96, 0.12379019, 0.009366081, -235984.8, 104218.65, 0.000000027783642, 10.001104, 9.9987135 
9.4514436e+2, 2.7528724e+2, -18277.162, -282307.0, -111643.086, -0.059087344, 0.21910195, 22601.291, 264793.75, 0.000002329391, 10.002164, 9.998688 
9.4516575e+2, 2.8528473e+2, 58098.11, -304461.94, -43861.473, -0.08837174, 0.15662535, 63328.88, 207544.34, 0.000023981273, 10.002483, 9.99771 
9.451895e+2, 2.9527912e+2, 94336.17, -233321.23, -44427.395, 0.026544077, -0.19672717, 100253.27, 146522.17, 0.000106754764, 10.002043, 9.997736 
9.452129e+2, 3.0527875e+2, 162873.08, -42285.742, -66780.95, 0.10492184, -0.059760492, 182695.6, 182695.6, 0.00028782972, 10.001625, 9.998916 
9.4523454e+2, 3.1528145e+2, 166747.28, 66159.38, -193851.39, 0.02562198, 0.2995919, 316722.75, 316722.75, 0.00056179153, 10.001147, 9.999892 
9.5481455e+2, 1.2526804e+2, -1872032.4, -1750584.1, 13275.425, 0.27108476, 0.16264449, -1749149.9, -36772.016, 0.00002677623, 9.9987, 10.000369 
9.548373e+2, 1.3526593e+2, -1661893.0, -1578247.9, 15214.273, 0.07059778, -0.122623846, -1575566.5, 38828.7, 0.0000047533053, 9.999426, 10.00053 
9.548601e+2, 1.452662e+2, -1479276.5, -1421644.8, -64292.89, 0.0055372487, -0.14748974, -1380005.5, 136385.94, 0.000000046136613, 9.9999, 10.000704 
9.548842e+2, 1.5526883e+2, -1318593.5, -1296278.6, -19650.578, 0.15301186, 0.021469796, -1284838.9, 133527.81, 0.0, 10.0003395, 10.000683 
9.549071e+2, 1.6527003e+2, -1296466.8, -1320037.0, -29317.803, 0.20276017, 0.11907293, -1276654.0, 43703.57, 0.0, 10.0001955, 9.9999075 
9.5492905e+2, 1.7526971e+2, -1281811.3, -1260835.0, -33710.133, 0.16466333, 0.07995095, -1236019.0, -13654.051, 0.0, 9.999623, 9.999916 
9.549507e+2, 1.8526973e+2, -1169150.5, -1165478.5, -52591.723, 0.09668007, 0.098097384, -1114690.8, 9676.8125, 0.0, 9.9997635, 9.999829 
9.5497197e+2, 1.9526982e+2, -958330.06, -1013743.56, -40123.152, 0.005529395, 0.108981974, -937276.9, 89090.875, 0.0, 10.000539, 9.999825 
9.5499444e+2, 2.0526972e+2, -765082.7, -842760.06, -26623.584, 0.008811344, 0.11030981, -756833.6, 171533.2, 0.0, 10.001073, 10.000074 
9.5501786e+2, 2.1526928e+2, -631964.06, -731042.94, -7457.165, 0.09040005, 0.042321175, -631405.94, 198960.95, 0.0, 10.001329, 10.000045 
9.5504016e+2, 2.2526872e+2, -595616.7, -759209.8, -53319.84, 0.12849015, 0.032499123, -579772.7, 152598.08, 0.0, 10.001331, 9.999171 
9.5506144e+2, 2.3526782e+2, -537566.94, -688140.44, -27855.307, 0.13389546, 0.0112262685, -532579.06, 101801.445, 0.0, 10.00108, 9.999114 
9.5508265e+2, 2.4526684e+2, -526570.2, -715186.0, -15643.093, 0.0919806, 0.046464458, -525281.6, 11110.322, 0.0, 10.000848, 9.998359 
9.551037e+2, 2.5526562e+2, -463228.56, -636501.94, -23938.934, 0.0086781345, 0.06868821, -459982.06, -21575.186, 0.0, 10.000613, 9.998342 
9.551254e+2, 2.6526433e+2, -315296.16, -533774.75, -51761.82, -0.004301456, 0.12047994, -303653.25, 36767.57, 0.000000030362223, 10.001048, 9.99817 
9.5514774e+2, 2.752627e+2, -66830.26, -367416.1, -60961.27, 0.043997586, 0.12821567, -54937.36, 187499.33, 0.000002140531, 10.002093, 9.998138 
9.5516944e+2, 2.852603e+2, 61820.285, -276436.66, -67891.336, 0.011635887, 0.08957313, 74938.0, 219396.7, 0.000025889522, 10.0024, 9.997939 
9.551905e+2, 2.9525712e+2, 95698.75, -214831.19, -49658.766, -0.09451136, -0.04531745, 103446.67, 149933.2, 0.000117742304, 10.001974, 9.997895 
9.552133e+2, 3.0525625e+2, 21553.354, -324416.03, -84117.734, -0.02486336, 0.13356091, 40921.195, 40921.195, 0.00031737162, 10.001576, 9.997004 
9.552359e+2, 3.1525594e+2, 56145.684, -160426.38, -165706.39, 0.00086965284, 0.3807373, 145810.33, 145810.33, 0.00061871903, 10.001127, 9.99835 
9.648148e+2, 1.2524381e+2, -1578941.6, -1598073.0, 48703.52, 0.33268213, 0.16616042, -1538873.3, 173745.44, 0.000040530904, 10.00065, 10.000481 
9.6483713e+2, 1.3524252e+2, -1672032.5, -1565327.9, 17109.521, 0.13091135, -0.052502483, -1562651.5, 51976.86, 0.000008656152, 9.999272, 10.000696 
9.6485996e+2, 1.4524317e+2, -1635195.6, -1448992.4, -22312.027, 0.073141776, -0.070353866, -1446356.1, 70264.516, 0.00000019058375, 9.998641, 10.001112 
9.6488374e+2, 1.5524554e+2, -1497809.0, -1336743.5, -27572.035, 0.15623425, 0.0352621, -1332154.4, 86442.44, 0.0, 9.998934, 10.001072 
9.6490645e+2, 1.6524696e+2, -1435465.6, -1400827.1, -39478.68, 0.1656277, 0.14310437, -1375035.9, -54449.79, 0.0, 9.9993105, 9.99978 
9.6492815e+2, 1.7524731e+2, -1261989.8, -1266759.3, -45964.668, 0.10829677, 0.18347211, -1218348.0, 4241.128, 0.0, 9.999826, 9.999781 
9.6495026e+2, 1.8524723e+2, -1107753.5, -1124809.0, -23828.86, 0.065518185, 0.19230123, -1090972.4, 33620.477, 0.0, 10.000129, 9.999939 
9.649726e+2, 1.952465e+2, -996123.6, -1021267.56, -25479.621, 0.037674762, 0.112980135, -980283.2, 46315.8, 0.0, 10.000227, 9.999928 
9.6499527e+2, 2.0524625e+2, -886778.7, -916337.6, -19990.563, 0.026248349, 0.10077316, -876697.44, 51901.98, 0.0, 10.000321, 9.999919 
9.650181e+2, 2.1524625e+2, -768551.4, -810854.7, -55880.168, 0.026481947, 0.08975857, -729953.7, 100642.89, 0.0, 10.000466, 9.999902 
9.650405e+2, 2.252457e+2, -631742.2, -738356.75, -102300.26, 0.06209977, 0.070437446, -569693.44, 162906.23, 0.0, 10.000912, 9.999525 
9.650628e+2, 2.3524448e+2, -434262.9, -592094.8, -97230.54, 0.14288346, -0.019119896, -387953.03, 246656.84, 0.0, 10.001596, 9.999521 
9.650843e+2, 2.4524376e+2, -350517.56, -644704.8, -62814.523, 0.11391976, 0.027911114, -337666.8, 198951.28, 0.0, 10.002111, 9.998241 
9.6510506e+2, 2.552434e+2, -199136.97, -522078.13, -65399.566, -0.003870442, 0.14912155, -186395.47, 252230.34, 0.0, 10.002492, 9.998223 
9.6512717e+2, 2.6524183e+2, -147863.42, -504327.75, -54268.855, 0.00981937, 0.20281237, -139784.52, 200859.33, 0.000000012060779, 10.002408, 9.997716 
9.651506e+2, 2.752389e+2, -134482.08, -447283.47, -77045.59, 0.14015599, 0.12157055, -116534.836, 126139.42, 0.0000023356135, 10.001827, 9.997715 
9.651723e+2, 2.8523657e+2, -21528.514, -266333.5, -66351.74, 0.10974921, 0.09252537, -4701.2524, 139993.31, 0.000028869204, 10.001616, 9.998381 
9.6519256e+2, 2.9523486e+2, 86620.9, -171862.23, -55773.043, -0.05976793, 0.05985787, 98141.59, 144847.45, 0.00012890252, 10.001722, 9.998305 
9.6521515e+2, 3.0523324e+2, 107294.11, -340811.53, 5074.6724, -0.03086216, 0.17054841, 107351.57, 107351.57, 0.00034520676, 10.002403, 9.9964905 
9.652378e+2, 3.1523094e+2, 357512.03, -37889.582, -740.8617, -0.019248579, 0.262256, 357513.4, 357513.4, 0.0006746709, 10.003312, 9.998124 
9.748147e+2, 1.2521787e+2, -1554368.3, -1562052.0, -32656.549, 0.21476379, -0.040497098, -1525328.4, 187546.63, 0.000058506626, 10.000715, 10.000693 
9.748377e+2, 1.3522157e+2, -1648703.8, -1524741.5, -30717.98, 0.24224305, 0.21631664, -1517547.1, 97291.7, 0.00001444443, 9.999309, 10.000954 
9.7486025e+2, 1.4522289e+2, -1635052.8, -1454240.6, -20981.99, 0.21339501, 0.2543399, -1451837.8, 64986.914, 0.0000005546723, 9.998662, 10.00107 
9.748823e+2, 1.5522191e+2, -1506119.5, -1346959.6, -6453.2188, 0.103284605, 0.029548686, -1346698.4, 72133.266, 0.0, 9.998903, 10.001019 
9.7490424e+2, 1.6522244e+2, -1431498.9, -1390102.5, -32416.42, -0.0018011391, 0.04634595, -1372339.8, -51511.008, 0.0, 9.999293, 9.999864 
9.749263e+2, 1.7522424e+2, -1253002.4, -1255112.4, -21054.611, -0.083278984, 0.22320801, -1232976.4, -10158.144, 0.0, 9.999851, 9.999849 
9.7494936e+2, 1.8522479e+2, -1098348.3, -1102928.3, -27066.033, -0.055443663, 0.28549755, -1073475.5, 51339.54, 0.0, 10.000118, 10.000093 
9.749733e+2, 1.9522393e+2, -994642.9, -1005639.9, -12204.855, 0.072832786, 0.17363474, -986755.1, 40065.996, 0.0, 10.000171, 10.000063 
9.7499615e+2, 2.0522317e+2, -945433.3, -1020894.7, -24898.49, 0.06838709, 0.13928321, -937958.5, -9130.55, 0.0, 10.000243, 9.999243 
9.7501785e+2, 2.152223e+2, -829196.9, -915581.75, -42690.03, -0.059101243, 0.11246663, -811660.2, 19177.273, 0.0, 10.000369, 9.999234 
9.750401e+2, 2.2522199e+2, -624471.25, -694529.1, -86558.21, -0.08495731, 0.13071242, -566122.75, 166716.75, 0.0, 10.000792, 9.999879 
9.7506297e+2, 2.3522197e+2, -433877.53, -554520.25, -63590.594, -0.012138317, 0.124795526, -406549.44, 228287.19, 0.0, 10.001441, 9.999852 
9.750857e+2, 2.4522153e+2, -350320.5, -624405.2, -58065.7, 0.027002677, 0.17347476, -338526.6, 198314.06, 0.0, 10.002021, 9.998428 
9.751081e+2, 2.5522047e+2, -196918.31, -502093.97, -41858.566, 0.033178363, 0.20838444, -191281.03, 247572.08, 0.0, 10.002418, 9.998401 
9.7513044e+2, 2.6521853e+2, -184404.61, -559312.8, -83335.87, 0.07594353, 0.23484209, -166715.1, 174159.27, 0.0000000034767167, 10.002322, 9.997376 
9.7515273e+2, 2.7521563e+2, -166877.75, -499115.72, -86075.68, 0.1497034, 0.18910232, -145901.73, 97004.2, 0.0000028342504, 10.00176, 9.997391 
9.7517437e+2, 2.852136e+2, 14731.071, -180049.92, -69114.14, 0.13184221, 0.17005959, 36762.82, 181685.8, 0.000032313746, 10.001571, 9.998999 
9.751953e+2, 2.952122e+2, 121099.33, -87932.62, -36539.605, 0.021891551, 0.11566503, 127302.51, 174230.48, 0.00013997531, 10.001667, 9.998913 
9.752179e+2, 3.0520943e+2, 136352.17, -248211.94, 33030.855, -0.0119186025, 0.0451962, 139168.61, 139168.61, 0.00037147623, 10.002274, 9.997185 
9.7523963e+2, 3.152059e+2, 385451.2, 65607.75, 69597.97, -0.20669754, -0.059537973, 399939.4, 399939.4, 0.0007275027, 10.003121, 9.998921 
9.848148e+2, 1.2519473e+2, -1780167.8, -1693392.9, -3150.267, 0.23255536, -0.0033085507, -1693278.8, 19825.002, 0.00008108169, 9.999268, 10.000492 
9.848373e+2, 1.3519801e+2, -1597753.1, -1528918.0, -67376.25, 0.25569823, 0.23724735, -1487677.6, 127394.945, 0.000022462764, 9.999773, 10.000707 
9.848598e+2, 1.4519915e+2, -1451907.4, -1384502.8, -35924.355, 0.24517465, 0.2774746, -1368946.5, 148114.53, 0.0000013019285, 9.9999895, 10.000911 
9.848816e+2, 1.5519837e+2, -1333088.5, -1277683.8, -50707.754, 0.0900518, 0.0840568, -1247604.6, 171462.0, 0.0, 10.000148, 10.00089 
9.849036e+2, 1.651987e+2, -1288244.0, -1295062.4, -48336.547, -0.034955945, 0.07640805, -1243196.6, 77868.16, 0.0, 10.000173, 10.000088 
9.849258e+2, 1.7519993e+2, -1201164.8, -1201573.6, -44583.93, -0.120357454, 0.17564917, -1156784.8, 66272.6, 0.0, 10.000099, 10.000091 
9.8494935e+2, 1.8520074e+2, -1074705.3, -1074525.4, -34625.45, -0.06129533, 0.24397042, -1039989.75, 85061.414, 0.0, 10.000206, 10.000248 
9.849741e+2, 1.9520094e+2, -949828.3, -967103.56, -39899.918, 0.12183996, 0.2223676, -917641.75, 109406.29, 0.0, 10.000409, 10.000214 
9.8499715e+2, 2.052004e+2, -886303.0, -1009064.2, -7216.4087, 0.12486227, 0.21146455, -885880.25, 43172.98, 0.0, 10.000702, 9.999113 
9.850187e+2, 2.1519901e+2, -742937.5, -887736.25, 269.7693, -0.035010673, 0.14413057, -742937.0, 88131.13, 0.0, 10.001013, 9.999121 
9.8504084e+2, 2.2519852e+2, -608884.3, -710835.0, -29744.791, -0.09776657, 0.16051342, -600840.7, 132231.83, 0.0, 10.000992, 9.999671 
9.850635e+2, 2.3519868e+2, -564292.9, -640667.4, -65294.96, -0.062541306, 0.19240294, -526838.25, 108230.8, 0.0, 10.000638, 9.999648 
9.850866e+2, 2.451981e+2, -537453.3, -686296.1, -49749.56, -0.0024760172, 0.22588748, -522356.22, 14717.544, 0.0, 10.000628, 9.998668 
9.8511016e+2, 2.5519657e+2, -388278.94, -568559.5, -51820.09, 0.077683546, 0.19301197, -374445.22, 64643.414, 0.0, 10.000993, 9.998631 
9.851325e+2, 2.6519474e+2, -320161.06, -585500.94, -73980.94, 0.11567614, 0.19568932, -300928.1, 40179.645, 0.00000001775074, 10.001223, 9.997733 
9.851539e+2, 2.751924e+2, -209486.67, -481863.03, -45205.97, 0.12661973, 0.177396, -202179.9, 40952.13, 0.000003544514, 10.0013075, 9.997732 
9.8517567e+2, 2.851906e+2, -39934.137, -246590.72, -12513.2705, 0.12159172, 0.18221879, -39179.203, 105968.76, 0.00003520851, 10.001357, 9.99865 
9.851975e+2, 2.9518902e+2, 51691.883, -157476.95, -66804.016, 0.10138383, 0.14183137, 71206.93, 118365.164, 0.00014919741, 10.001339, 9.998594 
9.852204e+2, 3.051859e+2, 22418.229, -224359.44, 1644.7474, 0.079176985, 0.014943611, 22429.191, 22429.191, 0.00039500848, 10.0011425, 9.997894 
9.852422e+2, 3.1518313e+2, 65147.69, -13118.048, 14125.245, -0.12386152, -0.08081259, 67618.95, 67618.95, 0.0007743285, 10.000565, 9.999622 
9.948143e+2, 1.2517484e+2, -1835141.6, -1803056.8, -10131.951, 0.2114146, 0.31643352, -1800125.1, -86824.625, 0.000108580556, 9.999261, 9.999737 
9.948357e+2, 1.3517183e+2, -1651203.0, -1639423.9, -42786.617, 0.09788308, 0.0016405426, -1602123.4, 13206.375, 0.000033028722, 9.999779, 9.999943 
9.948584e+2, 1.4517185e+2, -1466148.1, -1420961.5, -43662.55, 0.0782883, -0.016863944, -1394393.0, 122937.07, 0.0000026281716, 10.000013, 10.000651 
9.948814e+2, 1.5517494e+2, -1338888.9, -1305008.9, -36753.316, 0.028324679, 0.20283152, -1281479.5, 137821.6, 0.00000000019976186, 10.000206, 10.000679 
9.949041e+2, 1.6517583e+2, -1259693.8, -1241520.3, -61163.297, -0.021522967, 0.2412159, -1188772.4, 132520.47, 0.0, 10.000198, 10.000442 
9.9492663e+2, 1.7517436e+2, -1173279.9, -1148907.8, -39996.113, -0.06615844, 0.035339825, -1119282.5, 104024.22, 0.0, 10.000115, 10.000447 
9.949501e+2, 1.8517497e+2, -1070577.9, -1059311.1, -37680.25, -0.022507813, 0.061049905, -1026845.5, 98456.36, 0.0, 10.000179, 10.000367 
9.9497443e+2, 1.9517738e+2, -944500.9, -948486.94, -24707.475, 0.10317042, 0.24863952, -921706.2, 105574.695, 0.0, 10.000374, 10.0003605 
9.949978e+2, 2.0517789e+2, -868979.0, -948997.56, -6577.8306, 0.11472274, 0.31037387, -868441.9, 60834.086, 0.0, 10.000603, 9.999573 
9.950204e+2, 2.151764e+2, -729582.44, -831049.5, 19470.611, 0.021678818, 0.1884689, -725974.5, 105313.766, 0.0, 10.000888, 9.999571 
9.9504244e+2, 2.2517541e+2, -682220.75, -828048.3, -51483.586, -0.047081884, 0.1691327, -665876.6, 67421.125, 0.0, 10.000844, 9.998936 
9.950639e+2, 2.3517467e+2, -631215.3, -751732.6, -69650.945, -0.09559223, 0.1853477, -599374.25, 35932.16, 0.0, 10.000522, 9.9989395 
9.950868e+2, 2.4517353e+2, -532221.0, -658552.2, -45961.805, -0.060608648, 0.18452989, -517268.88, 20048.309, 0.0, 10.000552, 9.998896 
9.9511105e+2, 2.551718e+2, -383172.06, -538144.0, -29233.686, 0.05196933, 0.10555893, -377840.88, 61491.188, 0.0, 10.000902, 9.998884 
9.9513334e+2, 2.6517045e+2, -263449.28, -450576.84, -78429.89, 0.063461185, 0.097859174, -234925.28, 106417.836, 0.000000028595345, 10.00115, 9.998695 
9.9515384e+2, 2.7516922e+2, -157818.86, -355478.16, -30514.852, -0.026812753, 0.091777556, -153215.17, 90137.8, 0.000003781716, 10.001225, 9.998641 
9.951758e+2, 2.8516752e+2, -137058.19, -428513.6, -21936.793, -0.013703843, 0.12611601, -135416.34, 9954.274, 0.000036350866, 10.001272, 9.99744 
9.95199e+2, 2.951653e+2, -32887.95, -324463.7, -54581.895, 0.09802172, 0.13907252, -23005.379, 24390.73, 0.00015454051, 10.001304, 9.997461 
9.9522257e+2, 3.0516267e+2, 68410.34, -125459.19, -22067.16, 0.17226505, 0.077310935, 70890.41, 70890.41, 0.00041140616, 10.001133, 9.998578 
9.9524456e+2, 3.1516227e+2, 84248.164, 65445.918, 22611.752, 0.018334078, 0.15478137, 99335.25, 99335.25, 0.0008072484, 10.000414, 10.00023 
1.00481406e+3, 1.251514e+2, -1753085.0, -1752452.4, -25830.227, 0.2516391, 0.33396542, -1726936.5, -13403.816, 0.00014134821, 9.999778, 9.999833 
1.0048353e+3, 1.3514836e+2, -1659257.6, -1629926.3, -19089.125, 0.10098816, 0.006340864, -1620519.6, -4958.5776, 0.000046426092, 9.99968, 10.000046 
1.00485824e+3, 1.451483e+2, -1571299.4, -1512248.5, 26773.586, 0.10012305, -0.0060190465, -1501917.0, 15646.083, 0.00000474816, 9.99948, 10.000276 
1.004881e+3, 1.551514e+2, -1494792.4, -1424241.0, -3013.0483, 0.019994564, 0.25444117, -1424112.5, -4575.9214, 0.000000004412824, 9.999332, 10.000283 
1.0049039e+3, 1.6515222e+2, -1389521.5, -1282610.8, -25872.596, -0.0049942113, 0.29659048, -1276678.8, 44850.074, 0.0, 9.9992, 10.000653 
1.0049271e+3, 1.751507e+2, -1310900.0, -1191007.4, -31683.076, 0.025420856, 0.06363702, -1183149.8, 40390.48, 0.0, 9.999063, 10.00067 
1.0049505e+3, 1.8515117e+2, -1200656.5, -1135785.5, -4648.4536, 0.047049176, 0.06956981, -1135454.1, -9917.789, 0.0, 9.999359, 10.000227 
1.0049741e+3, 1.9515328e+2, -998439.6, -989726.9, -31293.281, 0.058019612, 0.24142791, -962488.2, 65031.65, 0.0, 10.000084, 10.000209 
1.0049976e+3, 2.05154e+2, -879879.1, -895067.06, -22537.566, 0.051814638, 0.3061626, -863690.5, 65821.42, 0.0, 10.000267, 10.000102 
1.00502074e+3, 2.1515328e+2, -846147.06, -830810.9, -10753.711, 0.029467715, 0.20585924, -825271.3, 6242.6714, 0.0, 9.999845, 10.0000725 
1.00504324e+3, 2.2515228e+2, -826849.5, -939247.94, -36887.387, -0.0005995011, 0.18183783, -815824.94, -82301.96, 0.0, 10.0000305, 9.998569 
1.0050651e+3, 2.351508e+2, -618589.2, -788728.94, -47247.863, -0.04017798, 0.16070464, -606349.06, 29192.08, 0.0, 10.000789, 9.998562 
1.0050879e+3, 2.4514952e+2, -429783.9, -604139.6, -193.63716, -0.0366855, 0.16375552, -429783.7, 107770.39, 0.0, 10.001227, 9.998945 
1.0051117e+3, 2.551483e+2, -314884.34, -494980.7, -14010.624, 0.014922683, 0.1302477, -313800.9, 125762.74, 0.0, 10.001338, 9.998964 
1.0051342e+3, 2.6514718e+2, -225006.38, -385662.34, -88469.19, 0.038389307, 0.120196186, -185837.98, 155733.63, 0.000000017098808, 10.001226, 9.999094 
1.0051554e+3, 2.751459e+2, -180262.1, -320209.03, -102894.375, 0.030927565, 0.06526282, -125802.695, 117778.22, 0.000003428396, 10.000883, 9.999039 
1.00517765e+3, 2.8514454e+2, -158209.81, -449693.63, -28574.162, 0.051653393, 0.11881193, -155435.11, -9839.367, 0.00003625069, 10.001166, 9.997349 
1.0052008e+3, 2.9514304e+2, 53586.848, -296332.6, -2162.8057, 0.11529609, 0.21384041, 53600.215, 101216.88, 0.00015742959, 10.001937, 9.997358 
1.0052245e+3, 3.051403e+2, 234059.9, -45133.01, 28391.623, 0.19693848, 0.1491693, 236917.84, 236917.84, 0.00042159262, 10.002265, 9.9985895 
1.0052471e+3, 3.1513944e+2, 302749.4, 135812.56, -10774.593, 0.15791516, 0.18197837, 303441.97, 303441.97, 0.0008274756, 10.002046, 9.999941 
1.0148135e+3, 1.2512413e+2, -1672663.1, -1596001.4, -67317.664, 0.17302036, 0.014742116, -1556866.6, 156936.45, 0.0001798155, 9.99982, 10.000884 
1.01483606e+3, 1.3512778e+2, -1580338.4, -1482060.6, -15818.706, 0.18312743, 0.24990997, -1479577.3, 136187.84, 0.000062927356, 9.999733, 10.001039 
1.01485915e+3, 1.4512876e+2, -1613792.6, -1600838.4, 10092.25, 0.22258896, 0.32264963, -1595323.5, -77566.164, 0.000007860604, 9.999485, 9.999663 
1.0148802e+3, 1.5512781e+2, -1539625.0, -1515446.6, 736.89734, -0.011774675, 0.23990388, -1515424.3, -95651.65, 0.000000028517778, 9.999327, 9.999659 
1.01490274e+3, 1.6512796e+2, -1381549.6, -1267422.6, -40696.703, -0.065115094, 0.2415198, -1254397.1, 67374.72, 0.0, 9.999202, 10.000755 
1.0149268e+3, 1.7512907e+2, -1300944.0, -1176837.9, -28126.576, 0.07726959, 0.25875136, -1170761.0, 52995.95, 0.0, 9.999082, 10.000761 
1.0149503e+3, 1.8512937e+2, -1236051.4, -1203449.6, 13019.066, 0.069337636, 0.2692088, -1198888.6, -73134.84, 0.0, 9.999333, 9.999777 
1.0149729e+3, 1.9512865e+2, -1037322.8, -1057241.0, 3768.6084, -0.09127104, 0.20101207, -1036633.6, -8869.209, 0.0, 10.000022, 9.999778 
1.014996e+3, 2.0512877e+2, -854270.75, -817156.7, -47802.84, -0.14461273, 0.19628343, -784435.3, 145325.66, 0.0, 10.000164, 10.000685 
1.0150196e+3, 2.1512958e+2, -817910.44, -751583.7, -19587.896, -0.092947304, 0.19224697, -746230.94, 85514.625, 0.0, 9.999757, 10.000657 
1.015043e+3, 2.251291e+2, -848339.0, -953662.1, -18414.582, -0.037176736, 0.19169836, -845212.25, -111463.39, 0.0, 9.999904, 9.9985285 
1.0150666e+3, 2.3512714e+2, -638220.4, -801370.56, -10653.869, 0.020500772, 0.12590694, -637527.6, -1755.297, 0.0, 10.000668, 9.998531 
1.0150895e+3, 2.451262e+2, -458006.44, -631924.25, -5413.211, -0.004868165, 0.17029528, -457838.13, 79945.05, 0.0, 10.001099, 9.998816 
1.0151119e+3, 2.5512603e+2, -338513.06, -522355.84, -183.40823, -0.116574325, 0.2558463, -338512.88, 101271.0, 0.0, 10.0012455, 9.998821 
1.01513475e+3, 2.651248e+2, -245511.78, -412940.2, -108163.35, -0.042880654, 0.24967289, -192451.08, 149343.23, 0.000000011022683, 10.001155, 9.998944 
1.0151583e+3, 2.7512234e+2, -195104.67, -338576.4, -102350.83, 0.20674884, 0.09410328, -141853.64, 101961.93, 0.0000031084232, 10.000824, 9.998943 
1.0151808e+3, 2.851216e+2, -102420.6, -320019.72, -7749.3325, 0.23789547, 0.16259441, -102144.98, 43678.28, 0.000035475467, 10.001114, 9.99826 
1.0152023e+3, 2.951222e+2, 92363.586, -179124.84, 38149.156, 0.056304604, 0.37532777, 97622.38, 145442.42, 0.00015859005, 10.001791, 9.998226 
1.0152256e+3, 3.051188e+2, 173442.39, -147523.11, 14630.498, 0.06266627, 0.23833719, 174107.9, 174107.9, 0.00042792628, 10.002158, 9.997939 
1.0152491e+3, 3.1511483e+2, 211048.28, -20278.85, 11579.704, 0.11692793, 0.02137862, 211626.5, 211626.5, 0.00084052904, 10.001906, 9.998929 
1.0248135e+3, 1.2510125e+2, -1653987.8, -1586726.1, 63592.445, 0.19728622, -0.026556857, -1548419.3, 165608.17, 0.00022439056, 9.999934, 10.000903 
1.0248357e+3, 1.3510604e+2, -1492507.1, -1444646.6, 16401.291, 0.15427026, 0.32929146, -1439565.5, 176413.89, 0.0000828242, 10.000353, 10.001005 
1.0248591e+3, 1.45107e+2, -1509588.5, -1565161.4, 28286.533, 0.23043832, 0.4066334, -1497723.8, 20248.469, 0.000012107546, 10.000253, 9.999543 
1.02488e+3, 1.5510519e+2, -1476732.8, -1497749.4, 39186.344, 0.026415888, 0.24727678, -1446670.1, -26674.9, 0.00000009714164, 9.999806, 9.999548 
1.0249025e+3, 1.6510512e+2, -1339261.8, -1272135.0, 36979.78, -0.023752786, 0.24379927, -1255758.4, 66238.51, 0.0, 9.999613, 10.00052 
1.0249264e+3, 1.7510666e+2, -1216446.6, -1159923.8, 4353.1313, 0.10128998, 0.32755122, -1159590.5, 64388.36, 0.0, 9.999777, 10.000537 
1.02494985e+3, 1.8510683e+2, -1193561.1, -1188732.0, 69926.21, 0.080896035, 0.33635613, -1121178.8, 4797.6587, 0.0, 9.999638, 9.999734 
1.0249724e+3, 1.9510543e+2, -1160918.5, -1121469.1, 75764.62, -0.094031624, 0.20796841, -1062903.8, -34912.688, 0.0, 9.999188, 9.999739 
1.02499574e+3, 2.0510517e+2, -1011271.94, -907039.4, 23012.084, -0.13596094, 0.17090511, -902184.94, 27806.123, 0.0, 9.999162, 10.00055 
1.02501966e+3, 2.1510576e+2, -858639.2, -788275.75, -22469.75, -0.043739043, 0.16225706, -781712.5, 50266.33, 0.0, 9.99956, 10.000503 
1.0250434e+3, 2.2510539e+2, -802963.9, -919284.4, 1205.9069, 0.014771723, 0.17567825, -802951.4, -68970.19, 0.0, 10.000165, 9.998636 
1.0250675e+3, 2.3510394e+2, -603379.44, -773942.5, 489.74762, 0.03904455, 0.15162335, -603378.0, 32621.158, 0.0, 10.0008745, 9.998619 
1.0250907e+3, 2.4510306e+2, -503914.53, -663095.25, -13309.946, 0.017697925, 0.20243785, -502809.28, 35200.258, 0.0, 10.0008335, 9.998719 
1.025113e+3, 2.551025e+2, -527036.75, -626287.1, -28719.176, -0.05412135, 0.25865817, -519325.66, -79310.74, 0.0, 10.000011, 9.998698 
1.0251359e+3, 2.6510108e+2, -397822.53, -511773.56, -89538.08, 0.005745422, 0.25439796, -348669.47, -6641.9395, 0.00000001218603, 10.000205, 9.998729 
1.0251592e+3, 2.750987e+2, -135615.52, -329387.47, -107116.234, 0.20197164, 0.1265297, -88068.875, 155979.53, 0.0000027111198, 10.001317, 9.998767 
1.02518186e+3, 2.8509796e+2, -21031.787, -223869.2, -30991.31, 0.22613208, 0.17806113, -16402.318, 129652.59, 0.00003356273, 10.001443, 9.9987545 
1.0252038e+3, 2.950984e+2, -49880.945, -192606.75, -39556.777, 0.088191375, 0.32747498, -39650.94, 8399.655, 0.00015687123, 10.000585, 9.998711 
1.0252273e+3, 3.0509514e+2, -19313.75, -232938.42, -5380.9795, 0.101759955, 0.17499754, -19178.295, -19178.295, 0.0004299211, 10.000813, 9.997995 
1.02525175e+3, 3.1509143e+2, 194640.86, -52666.984, 3638.0125, 0.19114923, -0.017981414, 194694.36, 194694.36, 0.00084804866, 10.001892, 9.998715 
1.03481345e+3, 1.250832e+2, -1724510.8, -1746456.3, 31742.51, 0.1510095, 0.23715301, -1701898.0, 12303.525, 0.00027553758, 9.999995, 9.999776 
1.034834e+3, 1.3508324e+2, -1577195.4, -1623326.4, 37742.035, -0.07238583, 0.24181119, -1556028.9, 60174.35, 0.000106410545, 10.000368, 9.999773 
1.03485756e+3, 1.4508295e+2, -1471164.1, -1496737.8, -1219.7913, 0.022127902, 0.23647496, -1471106.1, 47102.03, 0.000017580353, 10.000297, 9.999993 
1.0348803e+3, 1.5508355e+2, -1438882.8, -1427715.8, 30533.102, 0.049185686, 0.27061716, -1402259.8, 17944.617, 0.00000023822265, 9.999836, 10.000017 
1.03490286e+3, 1.650838e+2, -1381501.5, -1358028.1, 31541.605, 0.03868707, 0.30363363, -1336110.4, -13907.576, 0.0, 9.999611, 9.999927 
1.0349255e+3, 1.7508352e+2, -1261403.4, -1249023.8, 18927.768, 0.020543668, 0.2651057, -1235299.4, -11094.313, 0.0, 9.999763, 9.99993 
1.03494875e+3, 1.8508355e+2, -1170397.3, -1135690.5, 43311.695, -0.0009407005, 0.27390453, -1106385.1, 19818.055, 0.0, 9.999615, 10.000112 
1.03497244e+3, 1.9508372e+2, -1141716.5, -1072169.3, 65336.438, -0.030493421, 0.26045734, -1032929.0, -4729.8745, 0.0, 9.999142, 10.000102 
1.03499636e+3, 2.050832e+2, -1090112.6, -1047045.44, 27594.549, 0.0023443063, 0.22869822, -1033576.8, -103374.91, 0.0, 9.999061, 9.999638 
1.0350207e+3, 2.150818e+2, -932621.94, -922826.56, 2569.3342, 0.101198666, 0.10809792, -922193.5, -89979.69, 0.0, 9.999473, 9.999621 
1.0350444e+3, 2.2508113e+2, -808986.94, -899961.2, 18929.357, 0.08010645, 0.12428401, -805205.44, -70985.08, 0.0, 10.000031, 9.998833 
1.0350674e+3, 2.3508106e+2, -603413.7, -749862.9, 36532.36, -0.065236986, 0.21757811, -594806.4, 41416.305, 0.0, 10.00077, 9.998834 
1.0350909e+3, 2.4507995e+2, -532881.25, -695041.3, -50887.074, -0.053658742, 0.24525417, -518235.3, 19998.893, 0.0, 10.000713, 9.998559 
1.0351149e+3, 2.550777e+2, -545326.0, -651564.4, -47187.76, 0.11507996, 0.14372501, -527393.56, -87137.03, 0.0, 9.999955, 9.998553 
1.0351373e+3, 2.6507616e+2, -421956.56, -548481.44, -55934.176, 0.11058632, 0.1445414, -400775.13, -58504.676, 0.00000000560088, 10.0001545, 9.998497 
1.0351581e+3, 2.7507508e+2, -170216.69, -373459.66, -53531.29, -0.06419094, 0.16815497, -156979.45, 87299.48, 0.0000022721786, 10.001209, 9.998512 
1.03518054e+3, 2.8507367e+2, -25056.959, -217852.61, -69932.21, -0.060672615, 0.16821633, -2362.153, 143928.4, 0.000031159278, 10.001377, 9.998829 
1.0352048e+3, 2.9507196e+2, -51600.605, -182486.89, -55471.344, 0.11416105, 0.0924587, -31254.033, 17051.36, 0.00015252481, 10.000526, 9.998808 
1.0352295e+3, 3.0506942e+2, 14677.648, -152386.7, 30142.156, 0.22513488, -0.019909158, 19949.605, 19949.605, 0.00042681675, 10.000773, 9.998564 
1.0352539e+3, 3.1506917e+2, 192882.27, 2898.2427, 71284.25, 0.18173724, 0.073295675, 216654.42, 216654.42, 0.0008482355, 10.001666, 9.999191 
1.04481325e+3, 1.2506208e+2, -1646100.9, -1735174.9, -51063.414, 0.11221791, 0.27717024, -1622880.9, 91525.39, 0.0003338259, 10.000639, 9.999544 
1.04483314e+3, 1.3506056e+2, -1724449.5, -1730575.0, 21772.676, -0.13632795, 0.15744004, -1705525.3, -89101.41, 0.00013404706, 9.999503, 9.999452 
1.0448568e+3, 1.4505988e+2, -1601419.5, -1537284.0, 59516.414, -0.019734684, 0.11807155, -1501746.0, 16685.973, 0.000024406929, 9.999313, 10.00019 
1.0448804e+3, 1.550614e+2, -1363019.8, -1366015.5, 45164.91, 0.059565797, 0.22568023, -1319327.9, 101089.53, 0.0000004785213, 10.000263, 10.000232 
1.0449032e+3, 1.6506171e+2, -1295632.6, -1369466.1, 43058.457, 0.072562784, 0.27647147, -1275831.9, 46583.203, 0.0, 10.000425, 9.999456 
1.0449255e+3, 1.7506057e+2, -1280993.1, -1310673.3, 23547.693, 0.037863262, 0.20021448, -1267999.4, -43572.207, 0.0, 9.999851, 9.999462 
1.0449487e+3, 1.8506022e+2, -1146028.3, -1135877.6, 61382.016, 0.029605044, 0.1970811, -1079361.5, 47067.926, 0.0, 9.999842, 10.000001 
1.0449729e+3, 1.9506048e+2, -965536.3, -998477.5, 26856.8, 0.044870794, 0.20534396, -950501.8, 77921.7, 0.0, 10.000413, 9.999994 
1.04499705e+3, 2.0505987e+2, -887686.6, -1018090.4, 5649.3047, 0.08736083, 0.2017182, -887442.3, 42986.105, 0.0, 10.000731, 9.999037 
1.04502134e+3, 2.1505822e+2, -793923.0, -921384.8, -14523.805, 0.16306496, 0.118068255, -792289.0, 40157.234, 0.0, 10.000707, 9.999038 
1.045045e+3, 2.2505766e+2, -708192.8, -792853.56, 38157.188, 0.12572488, 0.14695998, -693533.44, 40918.426, 0.0, 10.000463, 9.999365 
1.0450681e+3, 2.3505795e+2, -681538.25, -733125.44, 59667.6, -0.03071506, 0.22605348, -642327.75, -5880.4243, 0.0, 9.999985, 9.999335 
1.0450917e+3, 2.4505666e+2, -604101.1, -752562.94, 2315.1223, -0.018795041, 0.21798858, -604065.06, -65605.56, 0.0, 10.000306, 9.998371 
1.04511596e+3, 2.5505364e+2, -345431.28, -575458.75, -14194.431, 0.16296165, 0.059152756, -344558.7, 95930.85, 0.0, 10.001407, 9.998381 
1.0451385e+3, 2.6505208e+2, -170305.27, -410513.56, 10933.467, 0.13072535, 0.05913748, -169808.64, 172694.4, 0.0000000009945924, 10.001818, 9.998645 
1.0451588e+3, 2.750516e+2, -119609.86, -337300.72, 20238.316, -0.10869846, 0.13148245, -117744.33, 126759.56, 0.0000020282196, 10.00149, 9.998633 
1.0451814e+3, 2.8504995e+2, -87779.53, -317474.03, -19422.393, -0.10221808, 0.13055359, -86148.805, 60369.914, 0.00002862002, 10.00123, 9.998224 
1.0452058e+3, 2.9504716e+2, -24661.3, -235269.27, -77473.93, 0.15064192, 0.0045624217, 767.79645, 49315.15, 0.00014590684, 10.000984, 9.998232 
1.0452307e+3, 3.050451e+2, 85647.04, -62066.414, 43533.504, 0.26565635, -0.05712413, 97522.34, 97522.34, 0.0004167961, 10.001021, 9.99906 
1.0452552e+3, 3.1504643e+2, 149849.67, 19217.564, 41687.504, 0.18856555, 0.14667039, 162019.31, 162019.31, 0.0008355391, 10.001171, 9.9995575 
1.05481215e+3, 1.2503773e+2, -1582200.3, -1608447.5, -154258.98, -0.120483674, 0.06894711, -1440507.6, 274135.7, 0.00039971265, 10.000678, 10.000387 
1.054833e+3, 1.3503814e+2, -1676926.3, -1629870.9, -14851.168, -0.122255124, 0.07322558, -1625575.8, -8935.785, 0.00016604259, 9.999497, 10.000145 
1.0548568e+3, 1.4503805e+2, -1605822.4, -1552768.1, 83695.914, 0.020488353, 0.06316209, -1491496.0, 27144.994, 0.000032768716, 9.999336, 10.000073 
1.05488e+3, 1.5503885e+2, -1370793.6, -1388137.5, 89803.85, -0.018856553, 0.111405276, -1289243.9, 131389.11, 0.0000008393984, 10.00028, 10.000076 
1.054903e+3, 1.6503887e+2, -1319307.8, -1415677.8, 11750.678, -0.010928984, 0.15827166, -1317895.6, 4737.9673, 0.0, 10.000419, 9.999138 
1.0549259e+3, 1.7503789e+2, -1302488.9, -1357571.9, 8401.918, 0.075602755, 0.12680943, -1301235.8, -76591.15, 0.0, 9.999862, 9.999134 
1.05494946e+3, 1.8503688e+2, -1195877.1, -1232622.1, 72367.5, 0.09626445, 0.10892829, -1139586.4, -12932.066, 0.0, 9.999814, 9.999349 
1.0549734e+3, 1.9503567e+2, -1017099.4, -1095666.8, 57163.29, 0.046493243, 0.033721372, -987022.75, 41641.508, 0.0, 10.000367, 9.99935 
1.05499744e+3, 2.0503515e+2, -922944.44, -1070335.8, -5668.2827, 0.038992077, 0.086050935, -922726.75, 7943.7227, 0.0, 10.00064, 9.998724 
1.05502136e+3, 2.1503513e+2, -829423.75, -975449.6, -7577.0747, 0.073250294, 0.19321483, -829031.6, 3643.671, 0.0, 10.000615, 9.9987135 
1.0550452e+3, 2.2503504e+2, -671379.75, -688071.06, 12043.202, 0.07762052, 0.24926215, -665073.1, 69602.12, 0.0, 10.000339, 10.000141 
1.0550691e+3, 2.350347e+2, -638513.6, -622689.7, 50656.383, 0.05731784, 0.18212096, -579331.1, 57341.41, 0.0, 9.99989, 10.000135 
1.05509266e+3, 2.4503322e+2, -634038.5, -793049.5, 33183.89, 0.03608671, 0.12686619, -627391.25, -88706.62, 0.0, 10.000212, 9.998139 
1.05511606e+3, 2.550304e+2, -374920.2, -615334.44, 34033.316, 0.015467359, 0.009936123, -370195.25, 70518.26, 0.0, 10.001312, 9.998152 
1.0551389e+3, 2.6502883e+2, -153827.73, -350661.5, -8845.945, -0.0047496655, -0.0015120037, -153430.98, 189294.83, 0.000000000012280949, 10.001714, 9.999103 
1.05516136e+3, 2.750284e+2, -100834.82, -277134.1, 20901.422, -0.026767042, 0.025178367, -98390.7, 146332.44, 0.0000016155456, 10.001402, 9.999086 
1.0551839e+3, 2.8502685e+2, -183229.84, -505425.06, -38325.637, 0.009508332, 0.07528369, -178733.7, -31994.514, 0.000025303238, 10.001183, 9.99696 
1.05520666e+3, 2.9502392e+2, -125187.39, -427278.84, -71658.69, 0.10866473, 0.06416829, -109051.24, -60274.81, 0.000137169, 10.000913, 9.996951 
1.0552306e+3, 3.0502203e+2, 106541.74, -3201.6262, 49147.85, 0.14020684, 0.061012078, 125334.25, 125334.25, 0.00040068463, 10.000958, 9.999493 
1.0552554e+3, 3.150234e+2, 149444.39, 59705.35, 75412.88, 0.041717425, 0.22641745, 192326.66, 192326.66, 0.0008105275, 10.001011, 9.99991 
1.06481224e+3, 1.2501605e+2, -1962395.3, -1756423.6, -91643.74, -0.0249985, 0.049574558, -1721552.1, -6696.236, 0.00047318285, 9.997915, 10.000706 
1.0648329e+3, 1.3501711e+2, -1664396.9, -1593046.9, 9041.417, -0.072974786, 0.09391738, -1591918.9, 24925.633, 0.00020250746, 9.999461, 10.000412 
1.06485635e+3, 1.4501706e+2, -1520484.0, -1548583.4, 113829.97, 0.008500288, 0.09167697, -1419839.9, 99004.586, 0.000042863663, 10.000087, 9.999741 
1.06488034e+3, 1.5501697e+2, -1444714.4, -1457609.3, 79482.125, 0.009262113, 0.08410536, -1371418.6, 49426.79, 0.0000013547858, 9.999929, 9.999763 
1.0649033e+3, 1.6501668e+2, -1381296.0, -1427057.3, 12283.911, 0.018906847, 0.107588954, -1378207.1, -55358.918, 0.0, 9.999899, 9.999322 
1.0649258e+3, 1.7501608e+2, -1268458.6, -1318204.9, 29398.395, 0.07784888, 0.098473765, -1254822.8, -29969.094, 0.0, 9.999994, 9.999349 
1.0649495e+3, 1.850151e+2, -1168697.9, -1279115.8, 162865.9, 0.10784294, 0.096209496, -1051937.9, 74925.9, 0.0, 10.000247, 9.998823 
1.0649744e+3, 1.9501346e+2, -1012911.1, -1154867.0, 139155.25, 0.096917525, 0.03217259, -927677.5, 101203.17, 0.0, 10.0006485, 9.998812 
1.0649983e+3, 2.0501266e+2, -936251.25, -1069953.9, 80076.39, 0.08271774, 0.07940859, -898789.0, 32100.926, 0.0, 10.000532, 9.99877 
1.06502146e+3, 2.1501258e+2, -928817.06, -1016619.3, 83630.52, 0.06614482, 0.17630893, -878265.1, -45372.18, 0.0, 9.999921, 9.998756 
1.06504515e+3, 2.2501205e+2, -743208.6, -784587.56, 105939.9, 0.06889019, 0.21273144, -655956.8, 78940.586, 0.0, 10.0001, 9.9996 
1.0650698e+3, 2.3501092e+2, -515353.84, -621730.6, 29114.89, 0.0957524, 0.120933, -507906.6, 128998.586, 0.0, 10.000988, 9.999615 
1.0650935e+3, 2.4500974e+2, -474088.4, -679866.5, 152.7316, 0.057262648, 0.10571289, -474088.28, 64826.83, 0.0, 10.001162, 9.998457 
1.0651163e+3, 2.5500825e+2, -453949.44, -621041.0, 19401.125, -0.054969944, 0.095214024, -451726.34, -10796.719, 0.0, 10.00063, 9.998445 
1.06513955e+3, 2.6500663e+2, -344652.25, -471544.47, -24448.625, -0.052171487, 0.07225441, -340104.66, 2838.0913, 0.0, 10.000514, 9.998854 
1.0651633e+3, 2.7500468e+2, -219742.44, -358556.34, -69354.73, 0.07354657, -0.025506735, -191030.06, 53925.42, 0.00000091217555, 10.0006895, 9.99887 
1.0651862e+3, 2.8500295e+2, -178547.05, -473247.75, -69247.695, 0.13283235, 0.004593927, -163086.56, -16113.707, 0.000020741376, 10.001098, 9.997213 
1.0652082e+3, 2.950011e+2, 17564.61, -329142.34, -15818.982, 0.12909889, 0.07563552, 18284.875, 67283.02, 0.0001251533, 10.001765, 9.99721 
1.0652314e+3, 3.049994e+2, 209984.78, -10040.542, 133325.17, 0.09122041, 0.10288862, 272825.78, 272825.78, 0.0003777452, 10.001899, 9.998997 
1.06525585e+3, 3.1499985e+2, 161482.06, 13862.176, 53393.92, -0.007593462, 0.22240515, 178769.97, 178769.97, 0.00077370065, 10.001306, 9.99945 
1.0748132e+3, 1.2499703e+2, -1985394.6, -1788496.6, -75631.586, 0.24309067, 0.20682071, -1762799.1, -47755.35, 0.00055371417, 9.99787, 10.000496 
1.0748325e+3, 1.3499762e+2, -1686423.9, -1630304.1, 71369.05, -0.06873707, 0.22889794, -1581677.0, 35359.063, 0.00024334127, 9.99944, 10.000158 
1.0748551e+3, 1.4499702e+2, -1552742.3, -1628315.3, 92615.98, -0.1445347, 0.20955291, -1490501.0, 28540.605, 0.00005483326, 10.000128, 9.99918 
1.07488096e+3, 1.5499572e+2, -1479128.6, -1536947.6, 80512.125, 0.05730449, 0.1379865, -1422493.0, -1438.0746, 0.000002073113, 9.999954, 9.999209 
1.07490405e+3, 1.6499524e+2, -1331114.8, -1321221.5, 4903.585, 0.08593868, 0.13261978, -1319202.9, 3855.1423, 0.0000000000166348, 9.999896, 10.000047 
1.0749249e+3, 1.7499529e+2, -1215512.4, -1212658.9, 41207.957, -0.026245438, 0.11173474, -1172853.0, 52200.35, 0.0, 10.000007, 10.000067 
1.0749486e+3, 1.8499494e+2, -1204167.3, -1340649.8, 167915.66, -0.013781982, 0.15789448, -1091155.9, 35901.285, 0.0, 10.000202, 9.99842 
1.07497536e+3, 1.9499396e+2, -1049513.1, -1216106.1, 162613.2, 0.11983271, 0.19997765, -950104.0, 78967.66, 0.0, 10.00059, 9.998417 
1.07499965e+3, 2.0499253e+2, -925983.75, -1029054.2, 45691.02, 0.14581533, 0.18951847, -908645.56, 22439.85, 0.0, 10.000447, 9.999092 
1.0750215e+3, 2.1499051e+2, -919581.9, -973361.7, 69550.27, 0.06431988, 0.05798382, -871904.3, -38804.28, 0.0, 9.999813, 9.999107 
1.07504494e+3, 2.2498865e+2, -888371.2, -1055814.6, 131486.95, 0.023420498, 0.031753425, -816214.25, -81095.44, 0.0, 9.999973, 9.997802 
1.0750702e+3, 2.3498672e+2, -659791.7, -893226.56, 73740.42, 0.022980273, 0.04162522, -638448.94, -1305.0249, 0.0, 10.000867, 9.997811 
1.075094e+3, 2.4498627e+2, -440331.4, -580799.06, -24601.018, -0.02602401, 0.15294859, -436147.5, 103002.51, 0.0, 10.0010395, 9.999193 
1.0751163e+3, 2.5498712e+2, -408762.63, -514310.1, 11804.6455, -0.12720665, 0.29699385, -407458.47, 33680.363, 0.0, 10.000572, 9.999204 
1.0751399e+3, 2.6498526e+2, -422821.72, -614864.3, -26237.865, -0.081484444, 0.2646623, -419301.5, -76146.89, 0.000000000031670343, 10.000435, 9.9979105 
1.0751645e+3, 2.749805e+2, -297726.66, -503413.75, -49353.12, 0.1120984, -0.0228899, -286497.75, -41297.965, 0.00000057346807, 10.000612, 9.997917 
1.075188e+3, 2.8497836e+2, -71475.74, -234635.9, -52042.98, 0.18169707, -0.0689574, -56289.188, 90929.49, 0.000016659129, 10.001029, 9.998885 
1.07521e+3, 2.9497874e+2, 124582.484, -88868.38, 23992.479, 0.12157659, 0.05343675, 127246.06, 176458.36, 0.00011189467, 10.001687, 9.9988985 
1.0752329e+3, 3.049772e+2, 102972.1, -216649.33, 107720.27, 0.028498486, 0.08395858, 135886.89, 135886.89, 0.00035149738, 10.001833, 9.99761 
1.07525624e+3, 3.1497577e+2, 40810.535, -202533.77, 60389.816, -0.1401067, 0.15186717, 54973.0, 54973.0, 0.00073256163, 10.001158, 9.998038 
1.0848112e+3, 1.2497556e+2, -1834311.9, -1765756.3, -53923.195, 0.19352299, 0.19551419, -1736138.3, -20889.326, 0.00064071716, 9.9991045, 10.000071 
1.0848335e+3, 1.3497527e+2, -1563732.9, -1617810.0, 51960.84, 0.046082877, 0.16922879, -1532196.6, 85054.37, 0.00028839763, 10.000462, 9.999765 
1.0848559e+3, 1.4497449e+2, -1489916.5, -1607289.3, 36637.688, -0.09793555, 0.16004798, -1479419.0, 39839.73, 0.00006873226, 10.000627, 9.999067 
1.0848808e+3, 1.5497336e+2, -1508406.6, -1566061.9, 28517.916, 0.06864149, 0.116218336, -1496684.3, -75413.234, 0.0000030594845, 9.999828, 9.999065 
1.0849038e+3, 1.6497281e+2, -1357325.8, -1322358.3, -7750.166, 0.08934843, 0.10743927, -1320717.5, 2557.1113, 0.000000000186287, 9.999671, 10.000142 
1.0849251e+3, 1.7497268e+2, -1182748.4, -1186405.5, -39705.895, -0.015892213, 0.061375696, -1144829.0, 80442.086, 0.0, 10.000198, 10.000149 
1.084949e+3, 1.8497238e+2, -1162850.9, -1310575.5, 93351.84, -0.0029544707, 0.105023816, -1117674.5, 9599.826, 0.0, 10.000439, 9.998517 
1.0849758e+3, 1.9497176e+2, -1083176.3, -1220330.6, 105790.99, 0.12827232, 0.17322925, -1025679.75, 3605.9731, 0.0, 10.000316, 9.998519 
1.08500026e+3, 2.0497043e+2, -893697.06, -1029182.75, 10811.223, 0.15227716, 0.17297359, -892839.8, 38459.07, 0.0, 10.000729, 9.998957 
1.0850221e+3, 2.1496813e+2, -658029.9, -865989.6, -23009.203, 0.06590373, 0.02821857, -655514.5, 177801.94, 0.0, 10.001679, 9.998948 
1.08504556e+3, 2.2496606e+2, -708677.8, -1004301.0, 73911.23, 0.017489083, 0.008167164, -691228.6, 44109.36, 0.0, 10.00138, 9.99747 
1.0850703e+3, 2.3496403e+2, -827613.1, -1009980.56, 101467.68, 0.007608923, 0.043666955, -782377.8, -145012.44, 0.0, 9.999887, 9.997476 
1.0850945e+3, 2.4496335e+2, -609249.6, -652662.9, 78120.44, -0.007941837, 0.14218256, -549876.2, -10502.4375, 0.0, 9.999827, 9.999293 
1.0851181e+3, 2.5496382e+2, -325397.5, -464188.4, 51033.305, -0.025568072, 0.24193709, -308652.78, 132711.72, 0.0, 10.001102, 9.9993 
1.08514175e+3, 2.6496208e+2, -289775.7, -584589.2, 9590.646, 0.014120721, 0.22767538, -289464.03, 53916.58, 0.000000020287489, 10.001494, 9.9976 
1.0851653e+3, 2.749578e+2, -267917.25, -524191.03, 7583.0405, 0.107411325, 0.022175534, -267693.06, -22268.502, 0.0000009638229, 10.000971, 9.997594 
1.0851885e+3, 2.8495583e+2, -65978.48, -189438.03, 27869.336, 0.14459993, -0.008726928, -59978.9, 87463.17, 0.000015514439, 10.00088, 9.999268 
1.0852114e+3, 2.9495606e+2, 70857.93, -69670.55, -14528.663, 0.13521534, 0.060164157, 72344.266, 121778.516, 0.00010321646, 10.001127, 9.999299 
1.0852347e+3, 3.0495444e+2, 6427.3193, -266790.44, 59618.96, 0.07035272, 0.06185007, 18870.13, 18870.13, 0.0003319706, 10.0012, 9.997569 
1.08525805e+3, 3.1495303e+2, 2024.1033, -228864.06, 63256.723, -0.061492126, 0.14191455, 18218.727, 18218.727, 0.00070415816, 10.000942, 9.997953 
1.0948055e+3, 1.2495139e+2, -1871783.9, -1851668.8, -10426.141, -0.3193967, -0.017989423, -1847239.8, -131766.66, 0.000734217, 9.999136, 9.999467 
1.09483555e+3, 1.3495015e+2, -1592204.6, -1686360.4, 106324.29, 0.1822307, -0.09403966, -1523001.9, 94485.73, 0.00033773432, 10.000498, 9.999279 
1.0948583e+3, 1.449496e+2, -1472753.5, -1575216.3, -5100.5103, 0.06458378, -0.06564808, -1472500.3, 46994.37, 0.0000845864, 10.000645, 9.999276 
1.0948797e+3, 1.5494981e+2, -1495252.8, -1535275.1, 8175.1055, -0.036575634, 0.0050644693, -1493647.3, -72153.64, 0.0000043925156, 9.999821, 9.999276 
1.0949022e+3, 1.6494945e+2, -1393736.6, -1404573.3, 149.03642, -0.054718133, 0.032644212, -1393734.6, -70237.586, 0.0000000006358386, 9.999692, 9.999572 
1.0949259e+3, 1.7494823e+2, -1215469.5, -1268030.3, -10284.848, 0.033535056, -0.066661835, -1213528.6, 11978.917, 0.0, 10.000243, 9.999573 
1.0949503e+3, 1.8494745e+2, -1124868.5, -1226013.6, 77651.03, 0.06408719, -0.07039647, -1082773.5, 44741.8, 0.0, 10.000422, 9.999101 
1.0949755e+3, 1.9494691e+2, -1051459.1, -1138110.0, 111524.73, 0.046458412, -0.052699007, -975139.8, 54382.45, 0.0, 10.000247, 9.999114 
1.0949999e+3, 2.0494631e+2, -949393.3, -1127812.1, 35584.56, 0.025649447, 0.019697053, -942558.0, -11027.458, 0.0, 10.000651, 9.99832 
1.0950233e+3, 2.1494547e+2, -717917.6, -966048.1, 20132.934, -0.00072127895, 0.087205835, -716294.7, 117246.78, 0.0, 10.001572, 9.998316 
1.0950466e+3, 2.2494437e+2, -658666.94, -871116.3, 8202.916, -0.023758534, 0.14648218, -658350.7, 77203.42, 0.0, 10.001256, 9.998441 
1.0950698e+3, 2.3494272e+2, -774941.44, -874880.7, 54653.22, -0.03954141, 0.11717819, -750857.44, -113286.36, 0.0, 9.999777, 9.998453 
1.09509476e+3, 2.4494082e+2, -657887.75, -728992.94, 116561.68, 0.023629798, 0.0707301, -571577.25, -31989.512, 0.0, 9.999722, 9.998821 
1.09512135e+3, 2.549385e+2, -369556.72, -537707.06, 110017.32, 0.16763756, -0.062721364, -315167.28, 126438.39, 0.0, 10.0010195, 9.998837 
1.09514475e+3, 2.6493713e+2, -289814.97, -559459.6, -15710.843, 0.1577829, -0.025496919, -288902.66, 54716.688, 0.00000010014453, 10.001388, 9.997824 
1.0951652e+3, 2.749365e+2, -257542.89, -493018.16, 3142.1978, -0.020023413, 0.10794411, -257500.97, -11870.0205, 0.0000018004142, 10.000925, 9.997832 
1.0951875e+3, 2.8493515e+2, -130156.84, -314363.75, 27443.457, -0.05135422, 0.16806906, -126155.195, 21490.563, 0.000016749296, 10.000844, 9.998426 
1.0952122e+3, 2.9493293e+2, 2190.2314, -199117.22, 8979.851, 0.077582054, 0.07554835, 2590.0076, 52255.4, 0.000099959936, 10.001066, 9.998441 
1.09523654e+3, 3.0493098e+2, 73175.75, -110015.125, 44792.13, 0.12060337, 0.035519093, 83541.375, 83541.375, 0.00032156563, 10.001123, 9.998682 
1.0952604e+3, 3.149315e+2, 62067.367, -84900.67, 75641.914, 0.041562002, 0.19493903, 94042.35, 94042.35, 0.0006902416, 10.000853, 9.998992 
1.1048046e+3, 1.2492665e+2, -1867212.0, -1865800.9, -52527.227, -0.32444862, -0.116004005, -1813974.5, -98264.45, 0.00083503575, 9.999255, 9.999296 
1.10483594e+3, 1.3492589e+2, -1804762.4, -1794978.8, 18447.295, 0.25273368, -0.14058098, -1780785.8, -163063.56, 0.0003918232, 9.999062, 9.999223 
1.1048583e+3, 1.4492552e+2, -1681110.0, -1644767.4, -79953.36, 0.08047973, -0.106634624, -1580946.4, -61218.55, 0.000102570426, 9.999064, 9.999572 
1.1048796e+3, 1.5492566e+2, -1529443.1, -1518109.3, -77919.25, -0.0030623344, -0.071681276, -1445651.1, -23925.172, 0.0000061708192, 9.999431, 9.999587 
1.10490225e+3, 1.6492544e+2, -1401383.9, -1436810.6, -22120.422, -0.02102534, -0.032526694, -1390758.6, -67029.82, 0.0000000015512864, 9.999773, 9.999306 
1.10492624e+3, 1.7492469e+2, -1239641.9, -1305764.6, -33196.133, 0.051920705, -0.059915412, -1225852.0, -113.66257, 0.0, 10.000205, 9.999323 
1.1049507e+3, 1.8492404e+2, -1101189.4, -1179402.9, 52731.402, 0.07144923, -0.051938742, -1074646.0, 53099.164, 0.0, 10.000435, 9.999414 
1.1049756e+3, 1.949233e+2, -1001539.9, -1076561.9, 47438.184, 0.0340795, -0.08779782, -978574.0, 51177.836, 0.0, 10.000435, 9.999443 
1.10500015e+3, 2.0492283e+2, -994355.9, -1158937.0, 22658.252, 0.012587648, -0.012686347, -991293.44, -59534.38, 0.0, 10.000392, 9.998231 
1.1050243e+3, 2.1492249e+2, -902234.1, -1063605.3, 27087.297, 0.0073951744, 0.11461886, -897808.7, -64040.31, 0.0, 10.000353, 9.99823 
1.1050478e+3, 2.2492164e+2, -697387.25, -840011.8, 4978.6855, 0.009457466, 0.18178193, -697213.7, 38564.543, 0.0, 10.000767, 9.998892 
1.10507116e+3, 2.3492004e+2, -477993.53, -683867.0, -5661.2817, 0.023856761, 0.11317934, -477837.97, 159953.11, 0.0, 10.001601, 9.998891 
1.105096e+3, 2.4491797e+2, -394837.47, -618802.06, 87836.266, 0.08302976, 0.036382366, -364498.84, 175309.81, 0.0, 10.001614, 9.998654 
1.10512234e+3, 2.549153e+2, -412459.1, -575878.6, 76810.61, 0.18346053, -0.1165953, -382024.5, 59808.004, 0.0, 10.000818, 9.998659 
1.10514574e+3, 2.6491407e+2, -345724.75, -546976.8, -18834.545, 0.15288329, -0.07372239, -343977.25, -131.96918, 0.00000018749917, 10.000832, 9.998181 
1.1051664e+3, 2.7491415e+2, -138639.64, -396033.6, -11825.645, -0.008409054, 0.09814523, -138097.47, 107751.06, 0.0000025324416, 10.001578, 9.998184 
1.10518895e+3, 2.8491294e+2, -32121.865, -332890.84, 38924.773, -0.031841546, 0.183825, -27165.979, 120697.37, 0.000018771152, 10.001808, 9.997834 
1.1052136e+3, 2.9491022e+2, 12009.332, -261829.81, 12993.696, 0.100825615, 0.10590964, 12624.502, 62516.04, 0.00010053436, 10.001435, 9.99783 
1.1052377e+3, 3.049082e+2, 120568.63, -48921.57, 51570.113, 0.12318352, 0.06578196, 135026.39, 135026.39, 0.00031863083, 10.0012665, 9.999038 
1.1052614e+3, 3.149091e+2, 122465.79, 2157.219, -12837.0625, 0.04796616, 0.22262087, 123820.266, 123820.266, 0.00068520685, 10.001038, 9.999487 
1.1148085e+3, 1.2490139e+2, -1854495.1, -1834490.1, -28640.34, 0.09901858, -0.114094265, -1814155.9, -98196.086, 0.000944546, 9.9992485, 9.999513 
1.1148346e+3, 1.3490272e+2, -1790040.5, -1756720.4, 17119.8, 0.19221036, 0.05073493, -1749492.3, -131539.63, 0.00045159098, 9.999033, 9.999501 
1.11485526e+3, 1.4490242e+2, -1646467.5, -1575639.3, -81282.1, -0.1476123, 0.054920506, -1522391.5, -2434.7195, 0.00012308804, 9.999071, 10.000046 
1.1148802e+3, 1.5490106e+2, -1493236.1, -1449121.0, -56038.527, 0.0857055, -0.108875945, -1410955.1, 11011.304, 0.000008505592, 9.99945, 10.000055 
1.11490354e+3, 1.6490096e+2, -1401149.0, -1435929.8, -19530.355, 0.10821695, -0.08261656, -1392388.8, -68420.16, 0.0000000033697685, 9.999772, 9.999314 
1.1149258e+3, 1.7490207e+2, -1238932.4, -1306319.1, -9226.137, -0.03331515, 0.08236638, -1237692.0, -11729.128, 0.0, 10.000206, 9.999326 
1.11494996e+3, 1.8490216e+2, -1096907.0, -1168784.1, 41556.418, -0.06464252, 0.15895194, -1077904.5, 50059.35, 0.0, 10.000428, 9.99949 
1.11497596e+3, 1.9490102e+2, -1004483.9, -1072794.3, 54562.39, 0.010196494, 0.07540671, -974268.06, 55705.305, 0.0, 10.000391, 9.999492 
1.11500084e+3, 2.0490007e+2, -974481.0, -1101061.8, 7939.6772, 0.033046, 0.08045544, -973984.94, -42001.113, 0.0, 10.0003195, 9.99866 
1.1150247e+3, 2.148991e+2, -891569.44, -1012189.75, 36142.5, 0.0073534325, 0.098660834, -881568.9, -47571.023, 0.0, 10.000225, 9.998646 
1.115049e+3, 2.2489782e+2, -720044.56, -856165.25, 27668.047, 0.032189555, 0.10386947, -714635.7, 21375.37, 0.0, 10.000638, 9.998841 
1.11507386e+3, 2.3489612e+2, -498267.94, -697398.2, 35701.887, 0.12282902, 0.03236242, -492060.47, 145963.69, 0.0, 10.001481, 9.998856 
1.1150979e+3, 2.4489489e+2, -410806.34, -624523.9, 50509.703, 0.09664678, 0.04035994, -399470.25, 140565.13, 0.0, 10.001494, 9.998673 
1.11512095e+3, 2.5489393e+2, -423815.7, -580501.0, 58657.477, -0.05257144, 0.056153275, -404289.72, 37757.074, 0.0, 10.000734, 9.998668 
1.1151446e+3, 2.648926e+2, -323154.03, -484402.0, -624.96, -0.07456686, 0.06772017, -323151.6, 20908.582, 0.00000020790911, 10.000762, 9.998644 
1.1151687e+3, 2.7489075e+2, -116473.77, -331583.38, 29660.646, 0.039858077, -0.005656999, -112458.91, 133618.53, 0.0000030041272, 10.001495, 9.998669 
1.11519225e+3, 2.848893e+2, -75244.25, -397484.13, 18395.76, 0.10361667, 0.05221302, -74197.49, 73896.31, 0.000021469468, 10.001704, 9.997438 
1.11521535e+3, 2.9488802e+2, -24666.943, -325283.7, 18212.014, 0.111464836, 0.15813544, -23567.64, 26544.25, 0.00010455908, 10.00138, 9.99742 
1.1152379e+3, 3.0488592e+2, 89113.63, -108375.98, 39883.457, 0.0035335473, 0.1522685, 96864.02, 96864.02, 0.0003215128, 10.001238, 9.998644 
1.1152603e+3, 3.148854e+2, 94872.42, -39294.34, 6365.446, -0.21018168, 0.20457098, 95173.75, 95173.75, 0.00068624306, 10.000961, 9.999242 
1.1248089e+3, 1.24876246e+2, -1978857.3, -1822102.3, 41953.098, 0.27408254, -0.07678559, -1811580.4, -95371.125, 0.0010643419, 9.998066, 10.000179 
1.12483315e+3, 1.3487819e+2, -1838850.8, -1706749.9, 26709.668, 0.18570346, 0.08479795, -1701553.8, -83360.61, 0.00051804923, 9.99839, 10.00015 
1.1248534e+3, 1.4487818e+2, -1711709.0, -1580379.5, -27197.332, -0.20409895, 0.070479736, -1574969.9, -54776.684, 0.00014661087, 9.998515, 10.000276 
1.1248794e+3, 1.5487707e+2, -1605552.9, -1477856.9, -50134.2, 0.10450505, -0.09329272, -1460526.0, -38325.047, 0.00001150662, 9.998576, 10.000275 
1.1249033e+3, 1.64877e+2, -1525187.6, -1492533.0, 14194.118, 0.1625631, -0.073980376, -1487225.8, -163023.22, 0.0000000061074554, 9.998896, 9.999353 
1.1249259e+3, 1.7487793e+2, -1328910.0, -1339274.6, 11491.459, -0.0009220953, 0.06453705, -1321486.4, -95287.83, 0.0, 9.999548, 9.999413 
1.1249502e+3, 1.8487816e+2, -1180423.5, -1194498.0, 63850.133, -0.04453209, 0.14227852, -1123224.0, 4973.788, 0.0, 9.999793, 9.999617 
1.12497605e+3, 1.948774e+2, -1099455.8, -1106762.9, 61754.96, 0.024998166, 0.08580856, -1041246.4, -11043.4375, 0.0, 9.999674, 9.99961 
1.1250012e+3, 2.0487656e+2, -997510.9, -1082709.3, 49887.184, 0.050095834, 0.08226552, -974509.56, -42297.344, 0.0, 10.000041, 9.998919 
1.1250255e+3, 2.1487536e+2, -762997.9, -915913.4, 41501.71, 0.03652849, 0.050459765, -752460.4, 81768.164, 0.0, 10.00097, 9.99894 
1.1250502e+3, 2.2487412e+2, -631239.25, -814817.8, 41691.844, 0.06499251, 0.04788492, -622214.4, 114026.945, 0.0, 10.001247, 9.998835 
1.1250751e+3, 2.3487283e+2, -579633.94, -735840.0, 34760.99, 0.14177513, 0.01639804, -572247.75, 66003.72, 0.0, 10.000912, 9.998864 
1.1250989e+3, 2.4487208e+2, -546462.2, -698895.7, 36451.89, 0.10637064, 0.074854895, -538193.9, 2066.0186, 0.0, 10.000608, 9.998589 
1.1251215e+3, 2.5487173e+2, -486519.25, -621497.75, 19589.154, -0.048994977, 0.16059355, -483733.78, -41465.3, 0.0, 10.000357, 9.99857 
1.12514526e+3, 2.648705e+2, -310219.9, -438222.03, 22065.617, -0.06880426, 0.16821347, -306522.9, 37758.68, 0.00000016860811, 10.00069, 9.99899 
1.1251703e+3, 2.7486813e+2, -65545.48, -266445.13, 17233.361, 0.05332616, 0.0113564385, -64077.9, 182223.6, 0.0000038179373, 10.001679, 9.999019 
1.12519406e+3, 2.8486693e+2, -18353.377, -337552.4, -1610.0916, 0.11311946, 0.062445506, -18345.256, 129968.66, 0.000026281929, 10.001947, 9.997735 
1.1252167e+3, 2.9486677e+2, -7028.4775, -279929.88, 23191.307, 0.11181718, 0.24611874, -5071.6987, 45249.0, 0.00011344339, 10.001348, 9.997743 
1.1252393e+3, 3.0486414e+2, 55921.656, -198361.42, 106445.04, 0.019452425, 0.20729147, 94597.84, 94597.84, 0.00033239592, 10.001344, 9.997973 
1.12526245e+3, 3.148617e+2, 172169.9, -75429.36, 12687.6, -0.1184752, 0.14531617, 172818.36, 172818.36, 0.000697837, 10.001792, 9.9986105 
1.1348048e+3, 1.2485132e+2, -1883241.1, -1621333.9, 92581.16, 0.030736523, -0.00081579934, -1591912.6, 124545.086, 0.0011953667, 9.998073, 10.001547 
1.13483116e+3, 1.3485236e+2, -1753277.6, -1530436.1, 44911.43, 0.13061818, -0.052196503, -1521725.3, 96717.71, 0.00059164723, 9.998392, 10.001361 
1.1348524e+3, 1.4485285e+2, -1716831.1, -1587296.3, -35222.76, -0.18010306, -0.076535985, -1578338.0, -57901.746, 0.00017336896, 9.998502, 10.0002365 
1.1348768e+3, 1.5485379e+2, -1609139.6, -1488330.1, -36045.16, -0.028325282, -0.023886781, -1478392.9, -55964.91, 0.000015247707, 9.998585, 10.000203 
1.1349013e+3, 1.6485372e+2, -1514967.8, -1472490.9, 26828.414, 0.04032903, -0.008287923, -1459511.9, -135082.2, 0.000000009421829, 9.998901, 9.999485 
1.1349263e+3, 1.7485236e+2, -1318270.9, -1322394.4, 43711.355, 0.06229077, -0.11387288, -1276572.6, -50128.742, 0.0, 9.999567, 9.999519 
1.1349512e+3, 1.8485199e+2, -1164456.3, -1163968.1, 47542.375, 0.05099494, -0.10980939, -1116669.3, 11777.753, 0.0, 9.999801, 9.999825 
1.13497555e+3, 1.9485249e+2, -1094653.5, -1081877.6, 65357.918, -0.0041622734, -0.06234465, -1022596.25, 7844.0547, 0.0, 9.999602, 9.999818 
1.1350006e+3, 2.0485233e+2, -1007542.9, -1084559.9, 73332.16, -0.019294698, -0.009534761, -963223.2, -30779.389, 0.0, 9.999958, 9.998947 
1.1350265e+3, 2.1485132e+2, -779456.25, -922131.7, 82755.52, 0.022728162, -0.02282995, -741534.94, 92924.72, 0.0, 10.000846, 9.998961 
1.1350512e+3, 2.2485067e+2, -642583.9, -808679.7, 17525.645, 0.030230109, 0.023188928, -640754.8, 95714.18, 0.0, 10.001121, 9.998936 
1.1350748e+3, 2.3485017e+2, -594250.1, -735512.75, 32406.57, 0.004239319, 0.060475945, -587170.6, 51302.72, 0.0, 10.000778, 9.998931 
1.13509886e+3, 2.4484958e+2, -576371.1, -737940.44, 17200.873, 0.022422098, 0.14364356, -574560.2, -34078.09, 0.0, 10.000507, 9.998369 
1.13512345e+3, 2.5484878e+2, -508334.5, -652647.06, 19961.55, 0.1019619, 0.20563659, -505624.28, -63127.703, 0.0, 10.000293, 9.998389 
1.1351476e+3, 2.6484776e+2, -304195.3, -414042.9, 52677.734, 0.08322655, 0.23140272, -283016.75, 61492.047, 0.00000020663475, 10.000634, 9.999188 
1.1351711e+3, 2.748462e+2, -67823.2, -251877.8, 69347.6, -0.04705006, 0.13965344, -44619.8, 201901.48, 0.0000055002247, 10.001591, 9.999168 
1.1351943e+3, 2.8484565e+2, 30159.678, -210738.48, -36673.89, -0.082593195, 0.20150849, 35619.117, 184144.75, 0.00003348711, 10.001844, 9.998649 
1.1352172e+3, 2.9484606e+2, 47034.586, -148210.38, 8395.546, 0.0032772238, 0.35167727, 47394.93, 97916.6, 0.00012779766, 10.001264, 9.998686 
1.1352413e+3, 3.0484265e+2, -19706.275, -335304.7, 113745.04, 0.070350505, 0.22691572, 17015.785, 17015.785, 0.00035415098, 10.001264, 9.99707 
1.13526694e+3, 3.1483817e+2, 93126.52, -211619.67, 52543.707, 0.124713145, 0.052358907, 101931.59, 101931.59, 0.0007275568, 10.001679, 9.997725 
1.1448035e+3, 1.2482676e+2, -1724392.1, -1512161.3, 212487.77, 0.05256756, 0.011407375, -1380765.5, 335933.3, 0.0013373722, 9.999001, 10.001868 
1.1448287e+3, 1.3482738e+2, -1910218.9, -1583027.8, 9503.055, 0.12338705, -0.10122265, -1582752.0, 35934.918, 0.000672049, 9.997198, 10.00159 
1.1448511e+3, 1.4482813e+2, -1907574.5, -1663572.5, -14534.951, -0.08817013, -0.11915899, -1662709.8, -142032.28, 0.0002032588, 9.997126, 10.000377 
1.14487536e+3, 1.5482973e+2, -1545451.1, -1441304.5, -25810.543, -0.034118813, -0.01247535, -1435258.9, -12595.602, 0.000019742625, 9.998964, 10.000337 
1.1449e+3, 1.6482975e+2, -1384328.6, -1424652.8, 31198.4, -0.009949989, 0.010932876, -1367344.4, -42680.234, 0.000000013934886, 9.999865, 9.99935 
1.1449254e+3, 1.748278e+2, -1301318.9, -1330443.3, 9900.867, 0.022184288, -0.13821459, -1298271.9, -71588.35, 0.0, 9.999752, 9.999375 
1.14495054e+3, 1.8482715e+2, -1190561.8, -1154679.8, 3548.7156, 0.041859727, -0.16373621, -1154332.1, -25643.059, 0.0, 9.999534, 10.000014 
1.14497535e+3, 1.948277e+2, -1127932.3, -1066415.6, -1812.5883, 0.03335252, -0.130491, -1066362.3, -35680.71, 0.0, 9.999267, 10.000069 
1.14500076e+3, 2.048279e+2, -1075579.3, -1104240.4, 65923.69, 0.029347632, -0.061816327, -1022446.5, -89764.664, 0.0, 9.99943, 9.999071 
1.1450271e+3, 2.1482755e+2, -887839.1, -959215.56, 68957.055, 0.045569308, -0.023089277, -845882.5, -11190.399, 0.0, 10.000034, 9.9991 
1.145052e+3, 2.248273e+2, -737300.9, -831821.06, -3405.1377, 0.040407717, 0.04794682, -737178.4, -480.46085, 0.0, 10.000372, 9.999139 
1.1450754e+3, 2.3482697e+2, -632999.25, -727281.8, -3679.6755, 0.012233436, 0.07996587, -632855.9, 5845.2275, 0.0, 10.0004015, 9.9991665 
1.1450996e+3, 2.4482617e+2, -559532.3, -746742.1, 21172.428, 0.053403944, 0.13799962, -557167.7, -16456.297, 0.0, 10.000694, 9.998217 
1.1451249e+3, 2.5482473e+2, -368344.94, -597203.8, 8505.871, 0.17681341, 0.15141921, -368029.22, 74701.62, 0.0, 10.001318, 9.998264 
1.1451492e+3, 2.6482362e+2, -254269.25, -424372.47, 31818.52, 0.16902624, 0.1885518, -248512.3, 96232.09, 0.00000038376965, 10.001113, 9.998892 
1.1451725e+3, 2.748226e+2, -317661.5, -404379.53, -4298.1543, 0.018306283, 0.17602941, -317449.0, -70695.01, 0.0000075917305, 10.000002, 9.998888 
1.1451957e+3, 2.848218e+2, -192960.22, -315400.9, -103879.81, -0.04699366, 0.22786176, -133603.02, 15157.91, 0.0000412879, 10.000288, 9.998689 
1.14521876e+3, 2.9482123e+2, 153969.45, -93337.99, -144684.27, 0.008114617, 0.27762532, 220641.19, 271406.3, 0.0001447931, 10.001977, 9.998726 
1.1452434e+3, 3.0481803e+2, 227883.78, -178384.06, -26765.418, 0.091685414, 0.15499854, 229639.53, 229639.53, 0.00038302585, 10.002775, 9.997426 
1.14527024e+3, 3.1481516e+2, 231205.67, -87238.445, -40528.957, 0.25219956, 0.103635505, 236282.92, 236282.92, 0.00077395706, 10.002383, 9.998232 
1.1548041e+3, 1.2480253e+2, -1780593.9, -1624262.4, 133829.63, 0.16929908, -0.060357522, -1547443.5, 169488.86, 0.001489488, 9.998997, 10.001089 
1.1548257e+3, 1.3480344e+2, -1967987.6, -1704472.4, -50263.313, 0.084270835, -0.060945343, -1695210.5, -76287.53, 0.00075867696, 9.997207, 10.000748 
1.15484916e+3, 1.4480408e+2, -1890989.5, -1630465.5, 41619.035, -0.017126773, -0.05954002, -1623978.4, -103062.21, 0.0002361324, 9.997124, 10.000608 
1.15487486e+3, 1.5480484e+2, -1518211.9, -1397518.5, 52722.105, -0.006254853, -0.06558796, -1377731.9, 45175.215, 0.000024990082, 9.999009, 10.00062 
1.15489945e+3, 1.6480498e+2, -1403846.3, -1470851.3, 15340.578, -0.08141664, -0.028854156, -1400501.1, -75594.35, 0.000000023716384, 9.999894, 9.999017 
1.1549232e+3, 1.748043e+2, -1328262.3, -1383097.5, 12448.715, -0.19884413, -0.014531916, -1325568.5, -98651.55, 0.0, 9.9997425, 9.999016 
1.1549484e+3, 1.8480378e+2, -1185695.3, -1142440.4, -17315.283, -0.15350947, -0.013576412, -1136362.9, -7440.2393, 0.0, 9.999521, 10.000106 
1.154975e+3, 1.9480316e+2, -1125609.9, -1054421.6, -5236.3086, 0.04888408, -0.11114733, -1054038.6, -23112.736, 0.0, 9.999227, 10.000175 
1.1550011e+3, 2.0480327e+2, -1062764.0, -1061355.9, 73014.13, 0.10801124, -0.07295545, -989042.4, -56115.848, 0.0, 9.999358, 9.999398 
1.155027e+3, 2.1480395e+2, -883130.1, -923564.8, 100583.766, 0.023800896, 0.03779581, -800752.0, 34174.293, 0.0, 9.999912, 9.999407 
1.15505226e+3, 2.2480403e+2, -739263.75, -803813.7, -10720.596, 0.015830798, 0.11284218, -737529.8, -601.5727, 0.0, 10.000237, 9.999395 
1.1550766e+3, 2.3480327e+2, -629598.75, -696776.75, 7198.551, 0.0855867, 0.07604, -628836.06, 10098.104, 0.0, 10.000301, 9.999425 
1.1551012e+3, 2.4480185e+2, -578737.8, -762435.8, 31577.695, 0.119163215, 0.062381733, -573461.2, -32513.309, 0.0, 10.000591, 9.9981575 
1.1551256e+3, 2.5479963e+2, -390425.97, -620178.44, 40164.91, 0.10691525, 0.0021735348, -383606.8, 59364.563, 0.0, 10.001217, 9.998156 
1.1551499e+3, 2.647981e+2, -318168.4, -537803.4, -18201.459, 0.11630515, 0.044287924, -316670.25, 28318.275, 0.0000005356376, 10.001033, 9.99815 
1.1551739e+3, 2.7479723e+2, -371708.9, -502790.28, -34544.707, 0.14452596, 0.11810537, -363162.38, -116161.99, 0.000008957139, 9.999948, 9.998237 
1.1551978e+3, 2.8479558e+2, -250234.5, -419997.7, -48378.684, 0.118580475, 0.14896369, -237415.63, -88397.516, 0.00004724257, 10.000225, 9.998002 
1.1552211e+3, 2.9479277e+2, 95082.6, -209597.1, -60114.81, 0.026251966, 0.04670173, 106514.6, 157560.39, 0.00015956932, 10.001938, 9.997953 
1.1552454e+3, 3.0479056e+2, 301489.06, 8084.114, -42633.387, -0.006288201, -0.00051374675, 307558.38, 307558.38, 0.00041272215, 10.0026455, 9.99876 
1.1552714e+3, 3.147922e+2, 316324.25, 133034.88, -26548.145, 0.08624127, 0.25284147, 320092.1, 320092.1, 0.00082886074, 10.002201, 9.999828 
1.1648021e+3, 1.2477864e+2, -2017892.6, -1779424.1, 41088.973, 0.16116224, 0.00027138606, -1772542.9, -55374.082, 0.0016512593, 9.997533, 10.000726 
1.1648235e+3, 1.3477954e+2, -1838290.9, -1664405.1, -110669.41, 0.10137894, 0.023765514, -1610611.5, 8550.832, 0.0008513687, 9.998213, 10.000526 
1.16484866e+3, 1.4478007e+2, -1652984.5, -1501492.4, 83009.46, 0.14796029, 0.020856615, -1464863.9, 56292.492, 0.00027198074, 9.998698, 10.000732 
1.16487354e+3, 1.5478007e+2, -1541623.3, -1395978.6, 61403.215, -0.01769863, -0.07383729, -1373546.3, 49605.973, 0.00003101119, 9.998793, 10.000735 
1.1648978e+3, 1.6478035e+2, -1563604.5, -1490665.3, 18876.396, -0.15052576, -0.052342087, -1486069.6, -160920.7, 0.00000004774233, 9.99856, 9.999521 
1.164922e+3, 1.7478082e+2, -1531346.6, -1425017.8, 57755.46, -0.19856045, 0.025933774, -1399682.8, -172535.33, 0.0, 9.998112, 9.9995165 
1.1649475e+3, 1.847806e+2, -1375625.9, -1275472.1, 89933.74, -0.13339056, 0.04913175, -1222613.3, -93462.24, 0.0, 9.998387, 9.999741 
1.164974e+3, 1.9477949e+2, -1117996.3, -1093836.6, 49271.41, 0.026869673, -0.0599384, -1055185.8, -24024.348, 0.0, 9.999458, 9.999796 
1.16500035e+3, 2.0477945e+2, -991899.5, -996742.7, 110332.83, 0.0907093, -0.029454973, -883961.7, 49202.11, 0.0, 9.999714, 9.999667 
1.1650269e+3, 2.1478045e+2, -983301.7, -934904.9, 109086.82, 0.06253323, 0.08196224, -847364.8, -12206.274, 0.0, 9.999077, 9.9997225 
1.1650525e+3, 2.2478053e+2, -840593.4, -853358.3, 41172.25, 0.05740838, 0.14097491, -805311.8, -68152.445, 0.0, 9.999554, 9.999382 
1.16507724e+3, 2.3477931e+2, -495665.2, -634616.6, 20861.14, 0.07973902, 0.061475735, -492600.8, 146568.81, 0.0, 10.001238, 9.999402 
1.1651022e+3, 2.4477775e+2, -361608.1, -644678.94, 35151.66, 0.09610141, 0.028918413, -357308.28, 183875.67, 0.0, 10.002014, 9.998285 
1.1651269e+3, 2.5477576e+2, -301775.3, -566478.8, 38099.047, 0.09978081, -0.019010467, -296400.8, 146802.75, 0.0, 10.001759, 9.998274 
1.1651514e+3, 2.6477417e+2, -227484.03, -534225.5, 1842.9606, 0.12782623, 0.027471868, -227472.97, 117748.03, 0.00000056359414, 10.001833, 9.9977865 
1.16517544e+3, 2.7477288e+2, -67382.625, -402814.1, -14524.138, 0.18485975, 0.098919146, -66754.91, 180482.92, 0.00000928475, 10.002242, 9.997823 
1.1651996e+3, 2.8477085e+2, 33387.504, -307198.5, 51004.254, 0.18273973, 0.12261581, 40861.598, 190121.38, 0.000050363375, 10.002282, 9.99778 
1.1652237e+3, 2.9476783e+2, 74174.516, -238293.6, 47361.67, 0.11148598, 0.01742218, 81195.5, 132485.08, 0.00017039297, 10.0019, 9.99776 
1.1652478e+3, 3.0476555e+2, 162973.44, -63901.336, 27895.895, 0.031548157, -0.020523973, 166353.1, 166353.1, 0.00043955247, 10.001711, 9.998723 
1.1652727e+3, 3.1476718e+2, 201489.72, 95159.06, -89727.05, 0.05673809, 0.24348974, 252619.61, 252619.61, 0.0008813095, 10.00133, 10.0 
1.1747959e+3, 1.2475478e+2, -2021890.8, -1770738.1, -19831.848, -0.2538062, 0.15576144, -1769181.8, -51769.848, 0.0018234614, 9.997473, 10.00081 
1.1748219e+3, 1.347557e+2, -1805160.3, -1608847.9, -74995.29, 0.09762784, 0.14684682, -1583477.0, 35927.445, 0.0009506097, 9.998264, 10.000886 
1.1748493e+3, 1.4475615e+2, -1646799.6, -1493335.6, 75733.92, 0.32205868, 0.11422525, -1462255.6, 59142.332, 0.00031097958, 9.998724, 10.0007715 
1.17487125e+3, 1.5475555e+2, -1543050.3, -1399126.0, 72840.81, -0.14913493, -0.040027704, -1368695.1, 54702.63, 0.00003785508, 9.998795, 10.000712 
1.174895e+3, 1.6475594e+2, -1476731.1, -1309724.5, -7956.1523, -0.3078254, -0.06581231, -1309346.3, 16043.83, 0.00000010132158, 9.998555, 10.000763 
1.1749218e+3, 1.7475738e+2, -1440446.3, -1234094.4, 50115.39, -0.052967817, -0.025068356, -1222567.1, 4807.4966, 0.0, 9.9981, 10.000831 
1.1749476e+3, 1.8475772e+2, -1433309.5, -1391912.9, 118055.33, 0.025314473, 0.025690282, -1292755.1, -163382.22, 0.0, 9.998372, 9.998951 
1.1749723e+3, 1.9475666e+2, -1184582.9, -1223534.0, 101045.24, -0.109973796, 0.005971202, -1101153.4, -69764.95, 0.0, 9.9994135, 9.998933 
1.1749983e+3, 2.047565e+2, -990470.4, -976063.25, 76811.664, -0.10395038, 0.061217457, -906118.1, 27275.133, 0.0, 9.9996395, 9.999844 
1.17502615e+3, 2.1475719e+2, -984366.44, -914586.8, 92792.766, 0.077480264, 0.11905682, -850341.4, -14953.851, 0.0, 9.998974, 9.999915 
1.1750525e+3, 2.2475679e+2, -877820.8, -899468.3, 91321.86, 0.089331634, 0.13345242, -796683.5, -59291.848, 0.0, 9.99942, 9.999129 
1.175077e+3, 2.3475508e+2, -535160.8, -680528.7, 94956.625, -0.08791383, 0.029693238, -488263.3, 151144.47, 0.0, 10.001084, 9.999159 
1.1751023e+3, 2.4475387e+2, -364831.97, -616777.8, 18233.67, -0.101356246, 0.03098407, -363519.2, 177900.44, 0.0, 10.001862, 9.998552 
1.1751285e+3, 2.5475305e+2, -289555.94, -521174.66, 38574.836, 0.06994411, 0.07138158, -283300.44, 160127.72, 0.0, 10.001671, 9.998626 
1.1751535e+3, 2.647517e+2, -247346.31, -556119.9, 6396.151, 0.13436586, 0.12653923, -247213.88, 98228.88, 0.0000005132723, 10.001747, 9.997681 
1.1751765e+3, 2.7474946e+2, -86411.266, -428713.1, 13874.503, 0.059502386, 0.1137069, -85849.81, 161617.03, 0.000009286575, 10.002181, 9.997675 
1.1752008e+3, 2.8474748e+2, 27981.55, -301838.7, 28454.35, 0.064747654, 0.14902087, 30418.367, 179905.05, 0.00005131962, 10.00221, 9.997851 
1.1752264e+3, 2.947457e+2, 85247.16, -211926.9, 45177.11, 0.16814348, 0.1575595, 91963.305, 143465.75, 0.00017698437, 10.001871, 9.997959 
1.1752505e+3, 3.047425e+2, 66285.1, -240094.52, 10007.725, 0.11710459, 0.06490485, 66611.65, 66611.65, 0.00045726626, 10.001622, 9.99755 
1.17527366e+3, 3.1474063e+2, 123878.58, -47480.598, -77783.74, -0.014338327, 0.100621894, 153919.78, 153919.78, 0.00091290916, 10.001267, 9.999042 
1.18479356e+3, 1.2473063e+2, -2172964.3, -1858319.3, 75238.14, -0.1754407, 0.17414503, -1841253.9, -123603.92, 0.0020081834, 9.996482, 10.000694 
1.1848199e+3, 1.3473153e+2, -1780825.4, -1584977.0, 45175.832, 0.08503102, 0.14556803, -1575058.8, 44583.695, 0.0010574218, 9.998351, 10.001021 
1.1848479e+3, 1.4473209e+2, -1639116.8, -1503109.4, 138017.78, 0.31810153, 0.12078922, -1417251.4, 104384.1, 0.00035351914, 9.998839, 10.000646 
1.1848698e+3, 1.5473196e+2, -1683761.6, -1476479.3, 95979.87, -0.117808826, 0.024972973, -1438863.1, -15230.973, 0.00004562391, 9.997883, 10.000612 
1.1848938e+3, 1.6473226e+2, -1574622.8, -1365122.0, 14997.457, -0.24703224, -0.0008444532, -1364053.8, -38428.152, 0.00000019883093, 9.997912, 10.000699 
1.1849209e+3, 1.7473294e+2, -1297430.8, -1170625.6, -46288.61, 0.009103892, -0.030305237, -1155526.5, 72090.414, 0.0, 9.999097, 10.00079 
1.18494675e+3, 1.847333e+2, -1268080.9, -1295950.8, 16583.73, 0.063666135, 0.01800581, -1260354.8, -130739.93, 0.0, 9.999445, 9.999087 
1.1849712e+3, 1.9473317e+2, -1243216.9, -1230677.3, 46946.633, -0.1231912, 0.07609781, -1189583.6, -157962.08, 0.0, 9.998935, 9.999106 
1.1849973e+3, 2.0473301e+2, -1077797.9, -1055102.5, 62909.73, -0.13878474, 0.13944568, -1002525.25, -68899.29, 0.0, 9.999199, 9.99952 
1.1850255e+3, 2.1473262e+2, -813603.3, -865694.0, 23987.195, 0.05227488, 0.12411155, -804240.4, 31389.686, 0.0, 10.000299, 9.999612 
1.18505225e+3, 2.247319e+2, -724112.6, -826194.8, 37658.34, 0.08107172, 0.12398137, -711723.9, 25913.266, 0.0, 10.000465, 9.999131 
1.1850774e+3, 2.3473075e+2, -749388.94, -782176.4, 37976.875, -0.0748274, 0.07239628, -724418.5, -84769.83, 0.0, 9.999594, 9.999181 
1.1851031e+3, 2.4472997e+2, -676672.6, -751145.5, -8426.781, -0.083171874, 0.10814832, -675731.0, -134074.06, 0.0, 9.999659, 9.99869 
1.1851297e+3, 2.547294e+2, -407064.63, -568553.9, -21120.31, 0.07576233, 0.16223206, -404348.1, 39315.984, 0.0, 10.000826, 9.998712 
1.18515514e+3, 2.6472786e+2, -246313.31, -537811.2, -37990.36, 0.13499561, 0.19030112, -241443.45, 104236.28, 0.0000005059796, 10.001696, 9.997821 
1.1851787e+3, 2.747251e+2, -73831.74, -409845.84, -40157.32, 0.06256403, 0.11199582, -69099.164, 178607.81, 0.000009353779, 10.002226, 9.997776 
1.185203e+3, 2.84723e+2, 52429.742, -280662.2, -23332.47, 0.060708612, 0.13196881, 54056.2, 203782.31, 0.000051335024, 10.002344, 9.997929 
1.1852283e+3, 2.9472184e+2, 104401.39, -193469.89, -31117.502, 0.15809804, 0.19102548, 107617.4, 159353.4, 0.0001797707, 10.001978, 9.998029 
1.1852526e+3, 3.0471852e+2, 140777.67, -290386.3, -9183.376, 0.12700416, 0.1242126, 140973.17, 140973.17, 0.00046111151, 10.002479, 9.996805 
1.18527725e+3, 3.1471527e+2, 435660.88, 38084.992, -103307.02, 0.09525218, 0.10123925, 460901.94, 460901.94, 0.0009128904, 10.003656, 9.998492 
1.1947938e+3, 1.247058e+2, -2193159.8, -1883460.4, 44698.633, 0.16910923, -0.009939749, -1877138.1, -159252.08, 0.0022081332, 9.996424, 10.000542 
1.19481735e+3, 1.3470714e+2, -1781152.6, -1579958.9, 126430.96, -0.02193847, -0.0013362512, -1518986.9, 100888.1, 0.0011730703, 9.998331, 10.001064 
1.194844e+3, 1.4470792e+2, -1663942.0, -1555299.8, 95620.9, 0.018748235, 0.015567585, -1499647.5, 22220.89, 0.00040013902, 9.99884, 10.000288 
1.1948691e+3, 1.5470949e+2, -1705121.3, -1529075.9, 70606.55, 0.005414056, 0.124151155, -1504256.8, -80403.11, 0.00005450229, 9.997908, 10.000246 
1.194894e+3, 1.6470951e+2, -1665032.6, -1555883.1, 43732.664, -0.039691597, 0.15163596, -1540522.6, -214668.42, 0.00000035173326, 9.997926, 9.999384 
1.19491935e+3, 1.7470765e+2, -1397024.9, -1374071.5, 6061.39, -0.08203568, 0.007355906, -1372569.1, -144695.72, 0.0, 9.999083, 9.999402 
1.1949447e+3, 1.8470746e+2, -1199679.6, -1154563.4, -11736.638, -0.10474524, 0.025608914, -1151692.9, -21816.81, 0.0, 9.999446, 10.000059 
1.1949706e+3, 1.9470903e+2, -1176847.1, -1084267.1, 36207.67, -0.09831566, 0.15153146, -1071788.5, -39927.82, 0.0, 9.998889, 10.000139 
1.19499706e+3, 2.0470892e+2, -1142906.6, -1168823.3, 89759.875, -0.0947926, 0.20164904, -1065174.5, -131311.72, 0.0, 9.999113, 9.998777 
1.1950244e+3, 2.1470675e+2, -887402.2, -990945.4, 73754.97, -0.0876694, 0.08623005, -849062.2, -13175.886, 0.0, 10.000181, 9.998808 
1.1950515e+3, 2.2470587e+2, -725283.5, -801859.7, -3143.5537, -0.04808651, 0.10157099, -725154.7, 12741.418, 0.0, 10.000347, 9.999355 
1.1950781e+3, 2.3470639e+2, -744261.75, -750072.8, 13903.58, 0.034183264, 0.1908235, -732963.3, -93071.88, 0.0, 9.999499, 9.999447 
1.19510435e+3, 2.4470614e+2, -691982.94, -763066.56, 22397.05, 0.060626827, 0.26760992, -685514.6, -143619.47, 0.0, 9.99957, 9.998654 
1.1951303e+3, 2.5470486e+2, -422668.16, -578538.8, 32780.277, 0.027979808, 0.25532863, -416054.9, 27855.178, 0.0, 10.00073, 9.998687 
1.195156e+3, 2.647028e+2, -245992.33, -517953.56, -25640.408, 0.042842742, 0.2208286, -243596.08, 102334.49, 0.0000006389743, 10.001605, 9.998007 
1.1951815e+3, 2.7469972e+2, -65157.863, -374183.88, -8049.6724, 0.10767303, 0.09024319, -64948.324, 183010.16, 0.000009301616, 10.002151, 9.998059 
1.1952058e+3, 2.8469753e+2, 47180.01, -279173.4, -45061.695, 0.09327584, 0.08115339, 53287.664, 203265.17, 0.000051838055, 10.002284, 9.997971 
1.1952288e+3, 2.946962e+2, 102647.9, -197685.36, -30335.064, -0.0077232826, 0.12058611, 105681.24, 157670.25, 0.0001815093, 10.0019655, 9.998012 
1.19525366e+3, 3.0469367e+2, 91747.76, -367575.5, 30151.25, -0.027554004, 0.1592497, 93718.51, 93718.51, 0.00045696262, 10.002387, 9.996312 
1.19528234e+3, 3.1469083e+2, 394873.84, 3701.3218, -21829.994, 0.20695116, 0.21863544, 396088.34, 396088.34, 0.00089152856, 10.00345, 9.998348 
1.2047921e+3, 1.2468107e+2, -1990222.3, -1774201.9, -38613.01, 0.29678228, -0.03662762, -1767507.4, -49379.004, 0.0024257244, 9.997777, 10.000644 
1.2048154e+3, 1.346829e+2, -1907911.3, -1639067.8, 28695.46, 0.0044942154, 0.02702942, -1636039.0, -15926.48, 0.0012988481, 9.99748, 10.001058 
1.2048412e+3, 1.4468327e+2, -1831500.5, -1679171.8, -2947.6926, -0.094178945, 0.021885393, -1679114.8, -157003.42, 0.00045139206, 9.997858, 9.999922 
1.2048682e+3, 1.5468472e+2, -1553008.1, -1491647.3, -51269.055, 0.06477826, 0.1549026, -1462579.9, -38479.723, 0.00006471426, 9.999103, 9.99993 
1.2048936e+3, 1.6468488e+2, -1457521.6, -1462329.4, -4833.418, 0.057200994, 0.21449634, -1454527.3, -128426.65, 0.00000057087306, 9.999383, 9.999319 
1.2049177e+3, 1.746833e+2, -1460648.3, -1406082.6, 33890.316, -0.11147032, 0.10284972, -1389857.9, -161741.34, 0.0, 9.998667, 9.9993725 
1.2049432e+3, 1.8468289e+2, -1325852.3, -1217406.8, 49110.21, -0.1506642, 0.101192884, -1198472.8, -68352.94, 0.0, 9.998592, 10.000032 
1.2049701e+3, 1.9468363e+2, -1119305.4, -1054204.9, 1034.1328, -0.049479343, 0.14251578, -1054188.5, -22077.914, 0.0, 9.999284, 10.000144 
1.2049971e+3, 2.0468318e+2, -1060383.4, -1126662.9, 79721.66, -0.023764305, 0.15719509, -1007187.8, -73073.164, 0.0, 9.999661, 9.9988 
1.2050244e+3, 2.1468124e+2, -957183.8, -1022441.44, 103275.73, -0.077340506, 0.06352185, -881505.1, -45369.707, 0.0, 9.999681, 9.998835 
1.2050516e+3, 2.2468047e+2, -775251.0, -827566.2, 45911.383, -0.04595688, 0.08786045, -748568.5, -10424.43, 0.0, 10.000014, 9.999341 
1.2050787e+3, 2.3468085e+2, -571533.06, -667521.5, 23878.814, 0.086589165, 0.16669367, -565920.9, 74219.836, 0.0, 10.000697, 9.999435 
1.2051051e+3, 2.4468051e+2, -453409.44, -654950.9, 67696.38, 0.09911783, 0.2379253, -432781.9, 109363.91, 0.0, 10.001237, 9.998587 
1.20513074e+3, 2.5467917e+2, -300805.56, -528314.56, 56603.902, -0.038226284, 0.22512548, -287500.7, 156661.69, 0.00000000020898414, 10.0016, 9.998611 
1.2051569e+3, 2.646774e+2, -199354.56, -464298.25, 3500.8225, -0.036596052, 0.2117411, -199308.31, 146871.8, 0.00000074892756, 10.001794, 9.998279 
1.2051836e+3, 2.7467498e+2, -93810.15, -357516.56, 2470.3496, 0.12562905, 0.12114944, -93787.01, 154413.83, 0.000009032264, 10.001816, 9.998329 
1.2052086e+3, 2.846729e+2, 62923.453, -290503.1, -15912.954, 0.13910182, 0.1085367, 63638.484, 213857.98, 0.000052112464, 10.002476, 9.997802 
1.2052315e+3, 2.9467088e+2, 348557.34, -101010.18, -44547.094, -0.022228025, 0.104978666, 352928.94, 405166.75, 0.00018290883, 10.003757, 9.997811 
1.2052565e+3, 3.0466852e+2, 347004.78, -223604.89, 38632.86, -0.05834234, 0.16393694, 349608.53, 349608.53, 0.0004542555, 10.004062, 9.996484 
1.2052862e+3, 3.1466544e+2, 333005.7, 10098.116, -4450.8896, 0.29091245, 0.18031012, 333067.03, 333067.03, 0.00087136845, 10.002907, 9.998634 
1.214787e+3, 1.2465609e+2, -1955547.3, -1702107.6, -47747.813, -0.031827338, 0.05153938, -1693410.4, 24970.688, 0.0026624324, 9.997797, 10.001119 
1.21481396e+3, 1.3465892e+2, -1926078.4, -1680926.0, 18623.873, 0.10014702, 0.24226542, -1679519.3, -59164.625, 0.0014356553, 9.997488, 10.000772 
1.2148394e+3, 1.4465816e+2, -1848600.5, -1705245.1, 27776.71, -0.08443756, 0.14354134, -1700051.3, -177686.89, 0.0005075534, 9.997828, 9.999753 
1.2148665e+3, 1.5465766e+2, -1567205.9, -1525467.0, 7248.09, -0.026066255, 0.10306662, -1524244.1, -99871.625, 0.000076397075, 9.999117, 9.999695 
1.214892e+3, 1.6465826e+2, -1369876.1, -1286028.4, -40920.85, -0.060381293, 0.16485181, -1269367.9, 56998.465, 0.0000008702971, 9.999409, 10.000513 
1.21491626e+3, 1.7465992e+2, -1373831.0, -1226012.5, 14997.359, -0.15148851, 0.25266427, -1224506.3, 3839.3484, 0.0, 9.998658, 10.000616 
1.21494204e+3, 1.8465963e+2, -1391150.4, -1349346.4, 62136.63, -0.15248741, 0.24135092, -1304690.4, -174344.75, 0.0, 9.998579, 9.999133 
1.21496946e+3, 1.9465697e+2, -1196048.0, -1205961.6, 36730.043, -0.059711453, 0.040213123, -1163941.8, -131570.73, 0.0, 9.999244, 9.999126 
1.21499695e+3, 2.0465578e+2, -1023251.06, -1024835.6, 69470.35, -0.0118584335, -0.0002978492, -954568.5, -20186.818, 0.0, 9.999561, 9.999543 
1.21502504e+3, 2.1465623e+2, -920686.8, -914152.3, 111581.69, -0.0036086522, 0.06304023, -805790.06, 30586.242, 0.0, 9.99954, 9.999643 
1.2150522e+3, 2.2465578e+2, -812035.3, -873604.4, 58638.176, 0.0065490715, 0.088881366, -776592.0, -38211.76, 0.0, 9.999882, 9.999092 
1.2150788e+3, 2.3465419e+2, -606815.4, -715148.5, 59238.75, 0.02116749, 0.00037879645, -580712.06, 59683.797, 0.0, 10.000583, 9.9991665 
1.2151051e+3, 2.4465314e+2, -482050.75, -680726.44, 74614.664, -0.043976896, 0.019011406, -457149.47, 85258.93, 0.0, 10.001098, 9.998473 
1.2151308e+3, 2.5465247e+2, -322802.78, -552470.0, 80595.9, -0.19265355, 0.08384025, -297342.22, 147077.34, 0.00000000018849695, 10.00151, 9.998487 
1.21515736e+3, 2.646518e+2, -189062.67, -425094.97, -3922.2126, -0.18204081, 0.16980287, -188997.52, 157430.36, 0.00000061447383, 10.001711, 9.998591 
1.21518455e+3, 2.7465087e+2, -77305.58, -314573.38, 14082.99, 0.026084417, 0.19613904, -76472.61, 171962.38, 0.000008322687, 10.001768, 9.9986515 
1.2152108e+3, 2.8464895e+2, 14442.529, -364882.16, 22254.854, 0.1007495, 0.20804977, 15743.751, 166196.5, 0.000050693892, 10.002372, 9.997339 
1.21523574e+3, 2.9464582e+2, 306503.3, -169834.83, 20096.906, 0.014909648, 0.13881505, 307349.7, 359832.47, 0.00018219525, 10.003678, 9.997376 
1.2152608e+3, 3.0464303e+2, 373490.38, -142757.63, -9304.332, -0.051673368, 0.14724024, 373658.0, 373658.0, 0.00045297266, 10.003952, 9.997091 
1.21528834e+3, 3.1463894e+2, 355614.22, 87332.36, -15762.763, 0.17087294, -0.002865351, 356537.2, 356537.2, 0.0008607727, 10.002783, 9.999222 
1.2247826e+3, 1.2463036e+2, -2203272.0, -1774635.0, -14957.914, -0.14381202, 0.142697, -1774113.6, -55473.81, 0.0029179724, 9.995843, 10.001582 
1.2248121e+3, 1.3463287e+2, -2035967.3, -1740526.0, -21327.578, 0.2134819, 0.30561364, -1738994.4, -118380.625, 0.0015834377, 9.996752, 10.000721 
1.2248375e+3, 1.44632e+2, -1909740.4, -1717168.4, 54783.53, -0.0064470405, 0.19140236, -1702674.3, -180051.47, 0.00056846405, 9.997339, 9.9999 
1.2248649e+3, 1.5463147e+2, -1749574.9, -1587057.1, 37013.555, -0.020195741, 0.12594311, -1579024.3, -154393.44, 0.00008951281, 9.997771, 9.999906 
1.2248909e+3, 1.6463201e+2, -1508182.8, -1336621.3, -38836.926, -0.055093326, 0.16065715, -1328239.1, -1614.455, 0.0000012652538, 9.998359, 10.000691 
1.22491576e+3, 1.7463355e+2, -1295130.1, -1164292.8, -77790.375, -0.075807855, 0.21526521, -1128070.1, 100533.95, 0.0, 9.99908, 10.000847 
1.2249419e+3, 1.846333e+2, -1233278.9, -1278481.4, 2229.4897, -0.07218613, 0.19952962, -1233169.1, -102565.836, 0.0, 9.999682, 9.999093 
1.22496925e+3, 1.9463088e+2, -1055648.0, -1140770.5, 24425.625, -0.046699747, 0.03009028, -1049137.1, -16510.467, 0.0, 10.000227, 9.9991 
1.2249967e+3, 2.046298e+2, -903010.75, -982298.75, 57701.016, -0.027385462, 0.00542722, -872647.2, 61989.35, 0.0, 10.000438, 9.999418 
1.2250247e+3, 2.146301e+2, -833465.25, -884706.3, 13308.237, -0.0078057703, 0.06779185, -830215.0, 6417.4956, 0.0, 10.000193, 9.99953 
1.2250524e+3, 2.2462957e+2, -738723.06, -843165.44, -16022.297, 0.013697299, 0.09284785, -736320.4, 2317.1106, 0.0, 10.000407, 9.999044 
1.22507975e+3, 2.3462789e+2, -529211.7, -682766.0, -23629.291, 0.031081524, -0.00023974187, -525657.8, 114996.5, 0.0, 10.001137, 9.999122 
1.22510634e+3, 2.4462691e+2, -418854.94, -618036.9, 9776.015, -0.03658371, 0.01481132, -418376.28, 124289.375, 0.0, 10.001385, 9.998775 
1.22513205e+3, 2.5462657e+2, -355530.75, -528274.25, 29389.146, -0.1985173, 0.08170074, -350667.63, 94004.66, 0.0, 10.001119, 9.998841 
1.22515894e+3, 2.6462597e+2, -204945.69, -437725.22, -8740.754, -0.18050584, 0.16239113, -204617.94, 142060.92, 0.0000003685213, 10.001628, 9.998543 
1.2251871e+3, 2.746249e+2, 91035.79, -236829.4, -39369.363, 0.047355637, 0.17951941, 95696.914, 344384.38, 0.0000073761885, 10.002965, 9.9986 
1.22521386e+3, 2.8462264e+2, 181958.94, -318552.03, -27050.416, 0.11542581, 0.17780688, 183416.64, 334125.0, 0.00004908337, 10.003647, 9.997047 
1.22523904e+3, 2.9461908e+2, 247295.69, -233930.61, -37770.03, -0.007052908, 0.093389116, 250242.11, 302985.44, 0.00018065568, 10.003415, 9.9970665 
1.2252641e+3, 3.0461663e+2, 307784.03, -157559.55, -88815.836, -0.082886584, 0.1441712, 324159.28, 324159.28, 0.00045038539, 10.003422, 9.997249 
1.22529164e+3, 3.146122e+2, 437331.75, 100460.5, -163276.83, 0.20095885, -0.05252097, 503480.63, 503480.63, 0.0008532649, 10.003407, 9.999033 
1.23478025e+3, 1.2460415e+2, -2156511.5, -1671659.8, 87011.49, 0.00047936811, 0.2705524, -1656517.5, 62384.18, 0.0031899144, 9.995819, 10.002297 
1.2348093e+3, 1.3460459e+2, -2010372.5, -1695634.4, 11830.311, 0.23969966, 0.19229233, -1695190.4, -74299.18, 0.0017411282, 9.996776, 10.001019 
1.2348355e+3, 1.4460465e+2, -1873178.6, -1649562.0, 60809.242, 0.033869497, 0.13529217, -1634095.5, -111207.61, 0.0006337289, 9.997367, 10.000356 
1.2348632e+3, 1.546061e+2, -1711888.8, -1519965.1, 60797.4, 0.009375217, 0.22335102, -1502326.8, -77451.43, 0.00010392506, 9.997798, 10.000364 
1.2348899e+3, 1.6460603e+2, -1553727.4, -1429833.0, -25621.055, 0.0016753617, 0.20297681, -1424743.6, -97867.82, 0.0000017603737, 9.998358, 10.000049 
1.23491615e+3, 1.7460407e+2, -1344840.0, -1270510.0, -43789.305, 0.03304793, -0.020504726, -1250240.3, -21348.006, 0.0, 9.999085, 10.000117 
1.2349425e+3, 1.8460378e+2, -1181676.5, -1168186.0, 11453.473, 0.00446444, -0.041259266, -1161639.1, -30745.557, 0.0, 9.999671, 9.999855 
1.2349691e+3, 1.9460528e+2, -1004525.44, -1024747.0, 54857.56, -0.09312618, 0.10081861, -958854.7, 74023.445, 0.0, 10.000178, 9.999923 
1.2349961e+3, 2.0460512e+2, -979085.9, -1117093.9, 35900.652, -0.15061124, 0.16773723, -970305.5, -35425.477, 0.0, 10.000341, 9.998538 
1.23502344e+3, 2.1460292e+2, -917454.56, -1035079.7, 11854.984, -0.16154778, 0.074409425, -916271.7, -79368.4, 0.0, 10.000084, 9.998552 
1.23505175e+3, 2.2460184e+2, -750608.7, -839540.06, 219.01959, -0.10379417, 0.09341314, -750608.2, -11692.872, 0.0, 10.000284, 9.999131 
1.23508096e+3, 2.3460189e+2, -541782.06, -679292.6, 15395.55, 0.03143398, 0.15956803, -540079.44, 100836.64, 0.0, 10.001005, 9.999212 
1.2351084e+3, 2.4460174e+2, -385990.34, -519735.88, -8565.221, 0.022119483, 0.22104912, -385444.03, 157473.8, 0.0, 10.001256, 9.99951 
1.2351339e+3, 2.546013e+2, -310161.22, -420972.94, 28853.508, -0.14362684, 0.20060562, -303098.4, 141823.22, 0.0, 10.001051, 9.999617 
1.2351613e+3, 2.645999e+2, -252515.94, -507703.25, 31436.61, -0.122022174, 0.17616318, -248700.31, 98233.5, 0.00000016286783, 10.001512, 9.9981165 
1.2351909e+3, 2.7459708e+2, 41392.34, -316166.94, 24300.645, 0.10898117, 0.0689779, 43036.316, 291994.3, 0.000006622681, 10.002862, 9.998104 
1.2352175e+3, 2.8459403e+2, 155543.55, -344730.13, -40251.418, 0.09858896, 0.017976666, 158761.42, 309747.72, 0.00004875032, 10.003528, 9.996923 
1.23524085e+3, 2.9459065e+2, 231981.88, -255898.2, -30805.953, -0.18102556, -0.035718642, 233919.34, 286938.97, 0.00018162774, 10.0033655, 9.996943 
1.2352659e+3, 3.0458927e+2, 281455.1, -199626.72, -89282.69, -0.24934602, 0.13899092, 297490.34, 297490.34, 0.0004514282, 10.003367, 9.996986 
1.2352955e+3, 3.1458542e+2, 367301.44, -22136.28, -125499.945, 0.20156561, 0.026043922, 404241.1, 404241.1, 0.00085099856, 10.00331, 9.998237 
1.24477774e+3, 1.2457589e+2, -1889763.3, -1518013.6, 96103.484, 0.08655076, 0.30966198, -1494639.0, 224540.48, 0.003475539, 9.997574, 10.002496 
1.2448059e+3, 1.3457572e+2, -1863843.6, -1591176.1, -67493.195, 0.1896643, 0.14458896, -1575384.1, 45789.746, 0.0019075654, 9.99765, 10.001314 
1.2448338e+3, 1.4457655e+2, -1796242.1, -1553123.1, -5305.9395, 0.10967416, 0.122807845, -1553007.4, -29845.3, 0.0007030745, 9.9976425, 10.000885 
1.2448615e+3, 1.5457827e+2, -1706658.6, -1457419.3, -22007.447, 0.08091587, 0.18456587, -1455491.0, -30345.357, 0.00011956255, 9.997585, 10.000894 
1.2448885e+3, 1.6457845e+2, -1632717.8, -1473196.9, -44480.945, 0.065452784, 0.16807082, -1461632.3, -134488.16, 0.0000023468863, 9.99786, 9.999981 
1.2449154e+3, 1.745769e+2, -1423360.9, -1315358.8, -40021.938, 0.089985035, -0.006599402, -1302144.8, -72984.88, 0.0, 9.998605, 10.000027 
1.24494225e+3, 1.8457709e+2, -1249786.0, -1169767.8, 23674.926, 0.05877652, 0.013084751, -1163287.9, -32130.086, 0.0, 9.999055, 10.000144 
1.2449692e+3, 1.945791e+2, -1140358.5, -1057481.1, 13503.747, -0.035291765, 0.17539331, -1055336.4, -22199.219, 0.0, 9.999093, 10.000225 
1.24499656e+3, 2.0457898e+2, -1074207.1, -1170798.9, 35608.8, -0.09823143, 0.23404737, -1062499.0, -127360.69, 0.0, 9.999722, 9.99847 
1.2450244e+3, 2.1457626e+2, -786273.2, -978186.9, 55106.887, -0.11806638, 0.09648278, -771575.25, 65590.43, 0.0, 10.001015, 9.998495 
1.2450526e+3, 2.2457494e+2, -622231.3, -783243.7, 64762.44, -0.082109734, 0.09386228, -599415.56, 139764.16, 0.0, 10.001195, 9.999072 
1.2450813e+3, 2.3457494e+2, -680831.1, -749530.06, 44361.168, 0.01700999, 0.16227683, -659075.4, -17894.746, 0.0, 10.00007, 9.999174 
1.24510914e+3, 2.4457487e+2, -542443.8, -586767.1, 44143.176, 0.032896362, 0.22631264, -515211.56, 27969.846, 0.0, 10.00014, 9.99959 
1.2451361e+3, 2.5457463e+2, -227423.52, -369406.8, 14230.898, -0.041502684, 0.21704465, -226011.2, 219171.16, 0.0, 10.001576, 9.999713 
1.24516405e+3, 2.6457316e+2, -132441.58, -468502.4, 19513.861, -0.029589625, 0.1897134, -131312.27, 215882.81, 0.000000050542315, 10.002401, 9.99796 
1.2451931e+3, 2.7457e+2, -28386.168, -373507.88, 13255.034, 0.07912144, 0.06289294, -27877.832, 221346.16, 0.0000061370592, 10.002462, 9.997914 
1.2452202e+3, 2.8456676e+2, 78736.24, -356260.2, -18123.963, 0.056179233, -0.0036765654, 79490.07, 230743.61, 0.000049451537, 10.002906, 9.997142 
1.245245e+3, 2.945634e+2, 308581.16, -187912.42, -11168.039, -0.110801324, -0.076243944, 308832.25, 362116.9, 0.00018698946, 10.003778, 9.997206 
1.2452705e+3, 3.0456218e+2, 449364.22, -148869.16, -32263.031, -0.18120563, 0.11229507, 451099.16, 451099.16, 0.00046381343, 10.004636, 9.996736 
1.2452994e+3, 3.1455845e+2, 616224.06, 13067.765, -99111.51, 0.1656677, 0.04155577, 632092.75, 632092.75, 0.00086843816, 10.005394, 9.997479 
1.2547751e+3, 1.2454573e+2, -1907761.6, -1590078.8, 47436.676, 0.030171942, 0.26496747, -1583146.8, 136324.7, 0.0037739007, 9.997702, 10.001947 
1.2548018e+3, 1.3454634e+2, -1838306.4, -1558702.9, -58088.49, -0.009952594, 0.15957855, -1547115.1, 74346.08, 0.0020822603, 9.997719, 10.001513 
1.254832e+3, 1.4454779e+2, -1746204.5, -1457472.1, -20193.084, 0.15315469, 0.15750426, -1456066.8, 67377.54, 0.0007764397, 9.997676, 10.001526 
1.2548596e+3, 1.5454793e+2, -1655296.8, -1360956.8, -16636.08, 0.10728076, -0.0029476571, -1360019.5, 65422.145, 0.00013646827, 9.997622, 10.001541 
1.2548865e+3, 1.6454922e+2, -1602050.9, -1413973.4, -30525.484, 0.05596605, 0.0372248, -1409143.0, -81713.09, 0.0000030208696, 9.997875, 10.0003805 
1.2549135e+3, 1.7455198e+2, -1393202.9, -1257950.3, -4481.5674, 0.022885812, 0.2559825, -1257801.9, -28395.654, 0.0, 9.998619, 10.000417 
1.2549411e+3, 1.8455324e+2, -1255716.3, -1180683.4, 14065.278, 0.016254801, 0.365312, -1178133.5, -46737.8, 0.0, 9.999047, 10.000073 
1.2549692e+3, 1.9455244e+2, -1151034.5, -1072606.8, 22663.586, 0.03963928, 0.25186542, -1066528.6, -33125.363, 0.0, 9.999056, 10.000139 
1.254998e+3, 2.0455144e+2, -1040146.5, -1072786.3, 71120.766, 0.04975346, 0.19316338, -983497.25, -48086.188, 0.0, 9.999608, 9.9992 
1.255027e+3, 2.1455015e+2, -753381.25, -880146.2, 113491.33, 0.03940324, 0.12500346, -686772.9, 150646.98, 0.0, 10.000886, 9.999234 
1.2550546e+3, 2.2454876e+2, -654679.2, -818501.94, 14650.908, -0.009744905, 0.086781606, -653379.25, 86052.44, 0.0, 10.001055, 9.9988985 
1.2550804e+3, 2.3454711e+2, -708343.2, -787798.44, 10194.437, -0.09023983, 0.008521502, -707056.06, -65607.86, 0.0, 9.999978, 9.99896 
1.2551083e+3, 2.4454637e+2, -595114.75, -668409.06, 84077.164, -0.07966105, 0.042653017, -540045.06, 3410.6682, 0.0, 10.000023, 9.999085 
1.2551385e+3, 2.545466e+2, -282890.22, -460575.53, 78688.12, 0.031096365, 0.13147132, -253053.33, 192400.86, 0.0, 10.001467, 9.999141 
1.2551671e+3, 2.645457e+2, -148680.75, -471360.3, 14806.788, 0.020566193, 0.1933446, -148002.75, 199460.75, 0.00000007625481, 10.00227, 9.998003 
1.2551938e+3, 2.7454346e+2, -37685.848, -368132.03, 28747.305, -0.124517776, 0.14922099, -35203.61, 214282.88, 0.0000061507535, 10.002354, 9.998005 
1.2552217e+3, 2.8454074e+2, 101952.82, -292660.16, 4879.7944, -0.10548123, 0.10617464, 102013.16, 253524.02, 0.000051588435, 10.002831, 9.997615 
1.2552512e+3, 2.945373e+2, 335952.88, -123481.88, 35666.023, 0.10138718, -0.030254493, 338705.16, 392244.28, 0.00019949443, 10.003735, 9.997673 
1.2552774e+3, 3.045352e+2, 417194.06, -198202.11, -10258.5205, 0.020410893, 0.062357083, 417365.03, 417365.03, 0.00049676414, 10.004566, 9.996425 
1.2553027e+3, 3.1453127e+2, 524424.4, -132503.13, -33213.2, -0.08350233, 0.0061324826, 526099.3, 526099.3, 0.00092528, 10.0051985, 9.996574 
1.2647733e+3, 1.2451565e+2, -2079312.0, -1710928.4, 74751.77, 0.13181007, 0.14079036, -1696337.8, 23421.777, 0.004085261, 9.996711, 10.001588 
1.2647986e+3, 1.3451701e+2, -1980749.0, -1599163.8, 5516.273, -0.026794558, 0.09367806, -1599084.1, 22660.697, 0.0022650692, 9.996654, 10.001729 
1.2648302e+3, 1.4451903e+2, -1850041.0, -1509899.6, 53039.156, 0.24761541, 0.1360797, -1501821.0, 21903.615, 0.00085386867, 9.996977, 10.001503 
1.2648572e+3, 1.5451947e+2, -1639382.6, -1355708.5, -20177.543, 0.11160909, 0.01209344, -1354280.4, 71440.4, 0.00015477135, 9.997753, 10.00151 
1.2648843e+3, 1.6452104e+2, -1525812.8, -1340473.4, -36574.44, 0.031523507, 0.067218706, -1333517.0, -5810.341, 0.0000038088367, 9.998234, 10.0007105 
1.264912e+3, 1.7452396e+2, -1386819.0, -1216534.1, -31634.383, 0.022705356, 0.26591367, -1210847.3, 18832.441, 0.0, 9.998493, 10.000764 
1.2649402e+3, 1.8452506e+2, -1310097.4, -1234997.9, -13520.105, 0.044601005, 0.35225305, -1232638.0, -100967.234, 0.0, 9.998804, 9.999815 
1.2649688e+3, 1.9452378e+2, -1151251.3, -1104129.9, -45572.133, 0.09572533, 0.225631, -1076388.3, -42703.35, 0.0, 9.99921, 9.999842 
1.2649983e+3, 2.0452301e+2, -1001215.94, -988680.9, 28319.4, 0.13402815, 0.17616281, -965943.75, -30252.438, 0.0, 9.999593, 9.999779 
1.2650284e+3, 2.1452266e+2, -862733.56, -863455.75, 40538.125, 0.14717856, 0.13926114, -822554.94, 15134.864, 0.0, 9.999838, 9.999846 
1.265056e+3, 2.245216e+2, -768258.3, -876954.4, -70592.76, 0.07088872, 0.104872294, -733516.25, 6180.876, 0.0, 10.000278, 9.99888 
1.2650807e+3, 2.3451968e+2, -578447.75, -726663.3, -82232.97, -0.09823952, 0.00467723, -541856.7, 99858.36, 0.0, 10.000879, 9.998947 
1.2651086e+3, 2.445185e+2, -418187.4, -621527.75, 59715.496, -0.10066089, 0.011331365, -401947.6, 141779.08, 0.0, 10.001404, 9.998739 
1.2651408e+3, 2.5451803e+2, -260188.11, -491320.06, 48255.82, 0.09271258, 0.06814444, -250517.83, 195215.31, 0.0, 10.001801, 9.998769 
1.2651698e+3, 2.645172e+2, -170776.52, -467885.66, -15979.523, 0.08375901, 0.14930746, -169919.56, 177823.66, 0.00000015326442, 10.002055, 9.998134 
1.2651955e+3, 2.745159e+2, -69003.3, -361708.06, -23113.957, -0.15858705, 0.18788174, -67189.305, 182568.84, 0.0000068361555, 10.002052, 9.99819 
1.265224e+3, 2.8451383e+2, 93824.67, -262166.97, 11222.424, -0.13151401, 0.18156397, 94178.1, 245955.36, 0.000055435252, 10.002632, 9.997914 
1.2652561e+3, 2.9451048e+2, 407579.63, -52436.695, 6981.814, 0.21202417, 0.029717254, 407685.6, 461489.47, 0.00021908835, 10.00408, 9.997983 
1.2652832e+3, 3.04508e+2, 486577.72, -153055.11, -40650.81, 0.13539739, 0.060597587, 489150.88, 489150.88, 0.00055084185, 10.005002, 9.996515 
1.2653077e+3, 3.1450477e+2, 481217.25, -175655.52, -68677.4, -0.07222657, 0.06732935, 488320.8, 488320.8, 0.0010267935, 10.005013, 9.996352 
1.27477e+3, 1.2448591e+2, -2080092.9, -1728876.8, -84335.34, 0.09963197, -0.07215111, -1709675.5, 10365.854, 0.0044096503, 9.996772, 10.001437 
1.2747966e+3, 1.3448793e+2, -1969901.8, -1584920.5, 14213.789, 0.071469024, -0.059716944, -1584396.4, 37626.113, 0.0024558255, 9.996671, 10.001827 
1.2748279e+3, 1.444903e+2, -1897464.9, -1613983.3, 71604.69, 0.29069692, 0.045478977, -1596923.3, -72920.695, 0.00093550276, 9.997004, 10.000774 
1.2748541e+3, 1.5449306e+2, -1693410.3, -1474721.6, 19439.076, 0.014124198, 0.23288636, -1473007.1, -47025.344, 0.00017466526, 9.997779, 10.000682 
1.2748815e+3, 1.6449404e+2, -1496872.5, -1293557.3, -39475.066, -0.09282201, 0.25863618, -1286161.9, 41811.586, 0.0000047674703, 9.9982815, 10.001014 
1.2749106e+3, 1.7449282e+2, -1354734.0, -1159782.4, -15205.065, 0.007518845, 0.0066026733, -1158603.6, 71376.79, 0.0, 9.998526, 10.001141 
1.2749393e+3, 1.8449251e+2, -1349756.5, -1315423.0, -8829.155, 0.059855, -0.042001877, -1313285.6, -181302.38, 0.0, 9.998795, 9.999269 
1.274968e+3, 1.9449316e+2, -1196382.1, -1195458.0, -20088.332, 0.053077023, 0.08219662, -1175826.5, -141844.05, 0.0, 9.999191, 9.9992285 
1.2749973e+3, 2.0449367e+2, -985562.56, -935454.7, 25950.258, 0.0716457, 0.1748649, -924437.6, 11541.7705, 0.0, 9.999504, 10.000187 
1.2750281e+3, 2.1449389e+2, -847064.56, -801749.3, 57350.973, 0.12555379, 0.14605628, -762742.5, 75232.22, 0.0, 9.999709, 10.000333 
1.2750565e+3, 2.2449362e+2, -776901.7, -858443.9, -58296.063, 0.08014924, 0.15540522, -746534.06, -6559.435, 0.0, 10.000127, 9.999077 
1.2750818e+3, 2.3449264e+2, -585447.1, -715470.06, -48061.016, -0.08924154, 0.1326729, -569610.9, 72370.61, 0.0, 10.000767, 9.999078 
1.2751101e+3, 2.4449115e+2, -456746.16, -671215.44, 65591.27, -0.109880336, 0.11554814, -438276.84, 105718.61, 0.0, 10.001274, 9.99846 
1.2751423e+3, 2.5448895e+2, -294162.94, -534477.7, 75264.36, 0.055861432, 0.024073003, -272536.97, 173481.9, 0.0, 10.001679, 9.99853 
1.275172e+3, 2.644877e+2, -174881.84, -449241.16, -23663.217, 0.06711663, 0.066966824, -172855.88, 175177.06, 0.00000020123079, 10.001938, 9.998317 
1.275198e+3, 2.7448747e+2, -70566.664, -343536.63, -9905.527, -0.11958918, 0.18493775, -70207.69, 179830.28, 0.0000077157165, 10.001962, 9.998358 
1.275227e+3, 2.84486e+2, 88835.2, -255343.23, 51711.3, -0.1100089, 0.23110138, 96436.71, 248489.08, 0.000060403843, 10.002558, 9.997996 
1.2752597e+3, 2.9448295e+2, 391816.94, -50575.79, 76572.234, 0.14176033, 0.09698407, 404695.63, 458775.0, 0.00024205422, 10.00393, 9.99807 
1.2752879e+3, 3.044805e+2, 491585.06, -113146.81, -42381.383, 0.08154793, 0.11203217, 494540.8, 494540.8, 0.0006157275, 10.004871, 9.996851 
1.275314e+3, 3.144793e+2, 475848.63, -145167.63, -29107.424, 0.0030038925, 0.27614707, 477209.9, 477209.9, 0.0011558788, 10.004845, 9.996636 
1.2847677e+3, 1.2445771e+2, -2242882.5, -1812874.0, -179562.61, 0.2445953, -0.026113484, -1747754.0, -27434.582, 0.0047468157, 9.995654, 10.001409 
1.2847945e+3, 1.3445926e+2, -1821393.3, -1529316.3, -51753.387, 0.16811332, -0.043835986, -1520417.3, 101886.77, 0.0026545508, 9.997758, 10.001679 
1.2848248e+3, 1.44461e+2, -1714107.3, -1543149.3, -2498.3025, 0.22704294, 0.013274608, -1543112.8, -18822.758, 0.0010215283, 9.998336, 10.000622 
1.2848519e+3, 1.5446436e+2, -1743180.3, -1510210.9, -24982.37, 0.032827247, 0.27603227, -1507562.0, -81297.914, 0.00019628371, 9.997488, 10.000579 
1.2848799e+3, 1.6446532e+2, -1660627.9, -1388054.4, -34914.7, -0.023576293, 0.30994722, -1383653.1, -55396.543, 0.0000059623408, 9.9972315, 10.000875 
1.2849091e+3, 1.7446326e+2, -1481891.1, -1236477.6, -70944.65, 0.04784427, -0.010259503, -1217444.9, 12826.79, 0.0, 9.997731, 10.000998 
1.284938e+3, 1.844627e+2, -1379914.4, -1283977.1, -24263.63, 0.074265756, -0.09333173, -1278189.8, -145914.05, 0.0, 9.998393, 9.999677 
1.2849669e+3, 1.9446385e+2, -1150222.0, -1122582.0, 23175.377, 0.044822924, 0.03756637, -1109418.9, -75151.77, 0.0, 9.9993, 9.999674 
1.2849967e+3, 2.0446472e+2, -976551.94, -965514.3, 81837.125, 0.051599964, 0.15789878, -889010.1, 47250.734, 0.0, 9.999712, 9.999884 
1.2850274e+3, 2.1446511e+2, -903913.1, -864947.06, 32530.285, 0.108396076, 0.18088208, -846511.6, -8253.047, 0.0, 9.999477, 10.0000105 
1.2850568e+3, 2.2446491e+2, -788371.2, -828238.94, -61727.785, 0.10763088, 0.19837187, -743438.44, -3179.287, 0.0, 9.999902, 9.99939 
1.2850839e+3, 2.3446384e+2, -510336.66, -639992.75, -60146.492, 0.033137072, 0.1330792, -486732.38, 155532.14, 0.0, 10.001122, 9.999419 
1.2851124e+3, 2.4446242e+2, -435148.75, -674987.5, 47399.91, -0.012655599, 0.11196574, -426120.8, 118156.07, 0.0, 10.001472, 9.998344 
1.2851426e+3, 2.544605e+2, -449127.03, -626002.9, 41962.67, -0.018188637, 0.067327, -439676.6, 6621.8833, 0.0, 10.000685, 9.998385 
1.2851724e+3, 2.6445913e+2, -294529.06, -465630.25, 7886.6685, -0.018250884, 0.084250696, -294166.3, 54147.227, 0.00000014147287, 10.000938, 9.998682 
1.2852013e+3, 2.7445817e+2, 48584.156, -242041.08, 13179.777, -0.013551039, 0.09103182, 49180.63, 299503.16, 0.000007879153, 10.002588, 9.998751 
1.285231e+3, 2.84457e+2, 189233.53, -219920.66, 83460.02, -0.0005492517, 0.15500085, 205602.95, 357937.1, 0.000065258544, 10.003302, 9.997886 
1.2852617e+3, 2.9445547e+2, 210119.61, -153778.22, 64075.73, 0.024630478, 0.18663675, 221072.5, 275423.63, 0.00026845583, 10.002744, 9.997934 
1.2852903e+3, 3.04453e+2, 278838.94, -142602.8, -13282.972, -0.04877616, 0.17363083, 279257.16, 279257.16, 0.0006902029, 10.003088, 9.997516 
1.28532e+3, 3.144515e+2, 496672.38, -43305.836, -7430.8906, 0.15183665, 0.24090093, 496774.63, 496774.63, 0.0013022089, 10.004554, 9.997494 
1.2947632e+3, 1.2443114e+2, -2232326.8, -1783320.0, -143358.28, 0.1945401, 0.2800763, -1741452.6, -20858.398, 0.0050962004, 9.995629, 10.001622 
1.2947929e+3, 1.3443114e+2, -1853576.0, -1597522.6, 28819.125, 0.19546987, 0.14870363, -1594319.1, 28269.771, 0.0028611089, 9.997769, 10.0012045 
1.2948206e+3, 1.4443119e+2, -1673540.5, -1469538.1, -47194.375, -0.04032754, 0.043107707, -1459149.1, 65437.7, 0.00111182, 9.998381, 10.001105 
1.2948501e+3, 1.5443352e+2, -1697433.1, -1422253.5, -49037.887, 0.08810807, 0.1416631, -1413776.0, 12790.719, 0.000219555, 9.99751, 10.001175 
1.294879e+3, 1.6443491e+2, -1704075.4, -1478905.1, -32447.604, 0.15502875, 0.21659748, -1474322.6, -145767.11, 0.0000074533, 9.9972315, 10.000252 
1.294907e+3, 1.7443527e+2, -1530043.1, -1341020.0, -45233.29, 0.073662356, 0.20848204, -1330753.3, -100199.71, 0.0, 9.9977455, 10.000274 
1.294936e+3, 1.844357e+2, -1286441.8, -1089686.6, -2045.0514, 0.0071077226, 0.20028757, -1089665.4, 42881.93, 0.0, 9.998387, 10.001016 
1.2949659e+3, 1.9443595e+2, -1049793.1, -909575.6, 65690.39, -0.008874449, 0.0950244, -883609.06, 150928.86, 0.0, 9.999271, 10.001154 
1.2949958e+3, 2.0443617e+2, -1058664.5, -1115620.6, 65343.785, -0.006795097, 0.11784876, -1015862.75, -79327.24, 0.0, 9.999627, 9.998893 
1.2950261e+3, 2.1443628e+2, -1003419.3, -1042168.9, 31716.91, 0.01654133, 0.2262538, -985627.6, -147085.6, 0.0, 9.9993515, 9.998855 
1.2950563e+3, 2.2443542e+2, -784367.56, -787582.4, -28068.95, 0.07403506, 0.22481903, -757860.0, -17308.984, 0.0, 9.99976, 9.999738 
1.2950866e+3, 2.344333e+2, -495634.78, -580338.4, -1788.0057, 0.17800476, 0.0068820524, -495597.03, 146966.7, 0.0, 10.00099, 9.999896 
1.295115e+3, 2.4443236e+2, -457971.47, -684170.0, 11230.217, 0.0994116, 0.0060018506, -457415.28, 87155.445, 0.0, 10.001317, 9.998352 
1.2951416e+3, 2.5443274e+2, -469829.94, -639541.2, 22929.74, -0.20469345, 0.19176771, -466786.5, -20214.11, 0.0, 10.000567, 9.998345 
1.2951712e+3, 2.6443142e+2, -269193.8, -402831.53, 55116.445, -0.23983829, 0.19967662, -249395.23, 99189.98, 0.000000052302592, 10.000881, 9.999147 
1.2952049e+3, 2.744281e+2, 70571.766, -171545.83, 86588.695, 0.06365834, -0.079728104, 98351.25, 348962.4, 0.000007172051, 10.002475, 9.999294 
1.2952353e+3, 2.84427e+2, 148219.08, -274262.47, 55606.098, 0.0924584, -0.028895497, 155415.25, 308037.1, 0.00006966216, 10.003164, 9.997579 
1.295262e+3, 2.944282e+2, 164723.06, -222206.6, 55475.824, -0.23368736, 0.31004083, 172519.78, 227138.1, 0.00029972047, 10.00263, 9.997518 
1.2952907e+3, 3.0442554e+2, 321871.25, -26401.275, 23795.209, -0.32841614, 0.26650655, 323489.5, 323489.5, 0.00077769125, 10.002985, 9.998363 
1.2953258e+3, 3.1442177e+2, 557961.75, 148040.31, 82866.3, 0.22583878, 0.008389057, 574079.56, 574079.56, 0.0014689167, 10.004301, 9.998927 
1.3047603e+3, 1.24401964e+2, -1882172.8, -1573613.3, -48604.07, 0.24334271, 0.36259574, -1566138.3, 154748.94, 0.0054552136, 9.997865, 10.001982 
1.304791e+3, 1.3440211e+2, -1951603.3, -1649578.5, 39912.492, 0.28318608, 0.25044385, -1644393.0, -21514.498, 0.003073975, 9.997128, 10.001154 
1.304817e+3, 1.44402e+2, -1931722.4, -1597127.3, -33447.285, -0.1511529, 0.13405937, -1593816.5, -68939.93, 0.0012055306, 9.996616, 10.00108 
1.3048476e+3, 1.5440322e+2, -1722566.0, -1433508.8, -100024.71, 0.11692842, 0.12155723, -1402272.0, 24594.492, 0.000244213, 9.997339, 10.001176 
1.3048775e+3, 1.6440442e+2, -1580039.4, -1429030.5, -40733.723, 0.24985576, 0.18262483, -1418743.6, -89886.73, 0.000009295233, 9.998134, 10.000155 
1.3049057e+3, 1.7440571e+2, -1345865.0, -1263226.8, -28394.287, 0.10482286, 0.27857473, -1254411.0, -23564.613, 0.0, 9.999065, 10.000168 
1.3049346e+3, 1.844065e+2, -1141306.8, -1008320.44, -5881.217, 0.016057327, 0.30668575, -1008060.8, 124775.84, 0.0, 9.999324, 10.001127 
1.304965e+3, 1.9440648e+2, -1121869.4, -929220.4, -61048.137, 0.01949702, 0.15937081, -911504.2, 123325.37, 0.0, 9.998709, 10.00129 
1.3049954e+3, 2.0440634e+2, -1194678.5, -1168499.8, -57327.71, 0.039999556, 0.13602743, -1122786.1, -185956.64, 0.0, 9.998644, 9.999002 
1.305026e+3, 2.1440606e+2, -1006818.06, -1030435.56, -15706.683, 0.074077606, 0.19418103, -998976.2, -160138.08, 0.0, 9.999281, 9.998968 
1.3050565e+3, 2.2440523e+2, -769542.1, -794937.3, 3507.232, 0.11378406, 0.19658518, -769066.6, -28219.566, 0.0, 9.999924, 9.999605 
1.305087e+3, 2.3440364e+2, -574058.7, -631082.1, -35026.51, 0.16277497, 0.046678923, -557406.5, 85450.766, 0.0, 10.000518, 9.999765 
1.3051163e+3, 2.444029e+2, -471646.3, -667799.3, -53811.383, 0.10024039, 0.061004527, -457853.84, 87009.26, 0.0, 10.0011215, 9.998557 
1.3051438e+3, 2.5440297e+2, -279425.97, -521964.34, -44373.89, -0.094456896, 0.19436923, -271562.47, 175302.92, 0.0, 10.001757, 9.99858 
1.3051736e+3, 2.644016e+2, -101777.74, -351623.5, 23851.928, -0.14047484, 0.19732983, -99521.06, 249356.88, 0.000000026393016, 10.002169, 9.99888 
1.3052064e+3, 2.7439842e+2, 24590.416, -229994.4, -26630.203, -0.0057324925, -0.035816513, 27346.172, 278249.94, 0.0000066700077, 10.002315, 9.998975 
1.305237e+3, 2.8439698e+2, 33701.355, -327236.13, -94484.484, -0.021123135, -0.0003666425, 56938.984, 209857.16, 0.00007503933, 10.002372, 9.997593 
1.3052645e+3, 2.943974e+2, 130468.13, -237804.33, -96043.45, -0.22383451, 0.2610104, 154010.73, 208932.5, 0.0003340975, 10.00239, 9.997526 
1.305294e+3, 3.0439463e+2, 288032.25, -80914.125, -71022.125, -0.28452116, 0.22232313, 301231.78, 301231.78, 0.0008727027, 10.002902, 9.998034 
1.3053292e+3, 3.1439215e+2, 518824.8, 138393.17, -124576.44, 0.18089254, 0.13050449, 555988.3, 555988.3, 0.0016511481, 10.00397, 9.999033 
1.3147576e+3, 1.2436988e+2, -1840948.4, -1505388.0, 61845.516, 0.1421861, 0.17204529, -1494352.4, 226847.7, 0.005819013, 9.9979315, 10.002423 
1.3147888e+3, 1.3437213e+2, -1927239.1, -1602747.8, 4493.0396, 0.3440475, 0.24078466, -1602685.5, 20487.357, 0.0032902497, 9.997135, 10.001476 
1.3148133e+3, 1.4437361e+2, -1972279.1, -1673890.5, -28196.684, -0.19400325, 0.2879609, -1671249.4, -146091.63, 0.0013013786, 9.996592, 10.000564 
1.3148445e+3, 1.5437368e+2, -1767105.8, -1525178.1, -63835.5, 0.049532592, 0.22001533, -1509367.6, -82205.71, 0.00026992275, 9.997335, 10.00055 
1.3148752e+3, 1.6437398e+2, -1547845.0, -1370878.4, -18462.732, 0.17681946, 0.20864815, -1368972.8, -39812.805, 0.00001153221, 9.998161, 10.000545 
1.3149047e+3, 1.7437464e+2, -1306405.0, -1191147.6, 14144.023, 0.06959182, 0.19171548, -1189437.4, 41712.645, 0.0, 9.999097, 10.00065 
1.3149342e+3, 1.8437514e+2, -1223466.8, -1175844.3, -37236.348, 0.017755425, 0.21978414, -1155456.9, -22313.438, 0.0, 9.999312, 9.999983 
1.3149643e+3, 1.9437537e+2, -1214540.1, -1114383.9, -78086.54, 0.057000563, 0.22236705, -1071697.1, -36554.785, 0.0, 9.9986725, 10.00004 
1.314995e+3, 2.043752e+2, -1122990.8, -999121.7, -46769.535, 0.11601545, 0.20694502, -983446.44, -46303.652, 0.0, 9.998557, 10.000207 
1.3150266e+3, 2.1437448e+2, -928003.5, -843310.7, 17309.715, 0.20381738, 0.08729105, -839909.5, -763.3527, 0.0, 9.99917, 10.00031 
1.3150568e+3, 2.2437432e+2, -832582.7, -890688.44, 16816.498, 0.1460203, 0.11239486, -828066.75, -86919.77, 0.0, 9.999778, 9.999018 
1.3150851e+3, 2.3437484e+2, -645338.7, -748403.1, -834.5211, -0.08672427, 0.24374034, -645331.94, -2186.446, 0.0, 10.000387, 9.999026 
1.3151155e+3, 2.44374e+2, -462954.63, -617725.6, -40111.53, -0.09025393, 0.27288947, -453176.78, 91977.23, 0.0, 10.000981, 9.998971 
1.3151486e+3, 2.543715e+2, -264404.38, -460045.34, -10317.892, 0.20785321, 0.097083926, -263861.72, 183313.33, 0.0, 10.001619, 9.999075 
1.315179e+3, 2.6436982e+2, -190440.36, -507762.7, 20095.832, 0.17401417, 0.08865132, -189172.77, 160017.63, 0.000000066602475, 10.002048, 9.997867 
1.315206e+3, 2.7436903e+2, -72530.05, -400261.28, -5143.8174, -0.2935692, 0.20783243, -72449.336, 178750.72, 0.0000067822207, 10.00219, 9.99786 
1.3152356e+3, 2.8436705e+2, 43786.375, -296834.9, -100274.55, -0.40396187, 0.23972811, 71113.53, 224334.56, 0.00008160277, 10.002313, 9.99784 
1.3152687e+3, 2.9436338e+2, 142172.33, -195064.05, -78399.39, -0.06061155, 0.05163307, 159507.25, 214765.69, 0.0003678658, 10.002296, 9.997874 
1.3152994e+3, 3.043605e+2, 171930.8, -293840.47, -37603.5, -0.045506146, 0.051991645, 174947.14, 174947.14, 0.0009642348, 10.002792, 9.996613 
1.3153303e+3, 3.1436244e+2, 411269.0, -23322.334, -33165.43, -0.1557643, 0.5509021, 413785.4, 413785.4, 0.0018274445, 10.003726, 9.998026 
1.3247554e+3, 1.2433908e+2, -1914503.0, -1589365.4, 150449.97, 0.1606664, 0.13796265, -1530430.6, 191070.45, 0.006183249, 9.997595, 10.002025 
1.3247856e+3, 1.3434121e+2, -2055398.1, -1675905.4, -108908.0, 0.36341736, 0.21159399, -1646871.9, -23393.893, 0.0035072896, 9.996322, 10.001353 
1.3248108e+3, 1.4434335e+2, -1998183.1, -1703079.4, -25831.023, -0.090366855, 0.33612615, -1700835.4, -175377.23, 0.0013982238, 9.996478, 10.00042 
1.3248427e+3, 1.5434363e+2, -1541345.4, -1435210.3, -34848.105, 0.058766272, 0.3063769, -1424791.1, 2669.2344, 0.00029637254, 9.998959, 10.000389 
1.3248739e+3, 1.6434371e+2, -1310996.8, -1240625.1, -23367.186, 0.15610254, 0.27526432, -1233572.6, 95886.945, 0.000014169166, 9.999725, 10.000678 
1.3249035e+3, 1.7434357e+2, -1412297.1, -1228964.9, -42434.5, 0.09547911, 0.16409071, -1219619.3, 11836.044, 0.0, 9.998318, 10.000765 
1.3249333e+3, 1.8434381e+2, -1426926.1, -1313950.9, -40818.824, 0.06662925, 0.17818241, -1300746.1, -167294.55, 0.0, 9.998101, 9.999612 
1.3249636e+3, 1.943445e+2, -1122580.0, -1113950.9, -37257.56, 0.09142561, 0.26970044, -1080758.9, -45309.53, 0.0, 9.999511, 9.999629 
1.3249944e+3, 2.0434451e+2, -864512.75, -840760.56, 4760.396, 0.13854492, 0.27711684, -839842.0, 97606.66, 0.0, 10.000179, 10.000514 
1.3250262e+3, 2.1434355e+2, -806452.6, -743772.94, -24718.365, 0.21337423, 0.09694466, -735198.06, 104252.45, 0.0, 9.999829, 10.000675 
1.3250567e+3, 2.2434334e+2, -831483.1, -918564.1, -17006.164, 0.155668, 0.11023022, -828279.8, -86828.73, 0.0, 9.999918, 9.998755 
1.3250858e+3, 2.3434405e+2, -632579.44, -772389.3, -22692.412, -0.06190463, 0.2927265, -628988.5, 14462.07, 0.0, 10.000615, 9.998748 
1.3251169e+3, 2.4434315e+2, -423185.28, -602629.1, -39615.645, -0.048305824, 0.3294212, -414828.53, 130632.31, 0.0, 10.0012665, 9.998939 
1.3251507e+3, 2.543401e+2, -236238.36, -444988.97, -68754.914, 0.25617772, 0.10326707, -215627.89, 231857.42, 0.0, 10.001813, 9.999081 
1.3251816e+3, 2.6433846e+2, -191450.63, -518156.94, -26586.291, 0.21499555, 0.10481131, -189301.27, 160198.8, 0.0000000978673, 10.00209, 9.997768 
1.3252081e+3, 2.7433842e+2, -98735.83, -425607.0, -5233.0366, -0.2733413, 0.30684865, -98652.07, 152852.78, 0.000006920427, 10.002058, 9.997751 
1.3252382e+3, 2.843364e+2, 24135.916, -321158.3, -43377.438, -0.36624938, 0.34453547, 29501.8, 183028.75, 0.000086783104, 10.002261, 9.997691 
1.3252722e+3, 2.943318e+2, 219720.42, -172205.4, -87305.07, 0.0353077, 0.08413786, 238288.72, 293860.47, 0.00039350512, 10.002904, 9.997731 
1.3253033e+3, 3.043288e+2, 242405.02, -310206.88, 9414.742, 0.03863294, 0.10066943, 242565.38, 242565.38, 0.0010365263, 10.003497, 9.9961605 
1.3253334e+3, 3.1433034e+2, 438961.47, -30952.656, 56587.13, -0.210682, 0.6083436, 445679.66, 445679.66, 0.0019683393, 10.003997, 9.997844 
1.3347538e+3, 1.24309614e+2, -2003985.6, -1768165.5, 161470.23, 0.20094192, 0.2564139, -1686137.0, 35652.367, 0.0065457188, 9.997574, 10.000801 
1.3347812e+3, 1.3430937e+2, -2101438.5, -1770307.1, -162048.53, 0.25769398, 0.15906046, -1704201.3, -80407.39, 0.0037237175, 9.996316, 10.000709 
1.3348092e+3, 1.4431094e+2, -1971089.0, -1650599.1, 43519.266, 0.07950045, 0.24458243, -1644794.8, -119014.07, 0.0014951822, 9.996487, 10.000781 
1.3348418e+3, 1.5431319e+2, -1507107.4, -1376038.4, 70402.54, 0.06936053, 0.3717519, -1345389.3, 82372.04, 0.00032323142, 9.998996, 10.000783 
1.3348733e+3, 1.6431385e+2, -1325014.0, -1273804.3, -78490.45, 0.100240014, 0.38984278, -1216847.9, 112906.16, 0.000017128494, 9.9997425, 10.0004425 
1.3349022e+3, 1.7431262e+2, -1430055.9, -1268235.5, -87868.32, 0.114839375, 0.1963924, -1229699.9, 2061.6558, 0.00000000003443261, 9.9983225, 10.000495 
1.3349317e+3, 1.843126e+2, -1401727.6, -1262306.5, -5029.2275, 0.08649238, 0.17837633, -1262125.3, -128364.53, 0.0, 9.998098, 9.999971 
1.3349627e+3, 1.9431394e+2, -1097099.3, -1059033.3, 24635.828, 0.04542535, 0.2970364, -1046934.6, -11184.067, 0.0, 9.99949, 10.000022 
1.3349937e+3, 2.043143e+2, -916470.3, -928925.5, -14898.742, 0.02614977, 0.3436043, -906550.0, 31196.537, 0.0, 10.000094, 9.999949 
1.3350242e+3, 2.1431322e+2, -867670.1, -848551.94, -29283.863, 0.028538464, 0.21429265, -827306.44, 12445.133, 0.0, 9.999722, 10.000014 
1.3350558e+3, 2.2431222e+2, -844335.94, -917308.06, -995.32465, 0.058401342, 0.18031386, -844322.4, -102562.43, 0.0, 9.999794, 9.998823 
1.3350886e+3, 2.3431134e+2, -639544.8, -765140.94, 14848.608, 0.14109676, 0.194642, -637813.25, 5958.936, 0.0, 10.000513, 9.99885 
1.33512e+3, 2.4431027e+2, -470647.9, -675290.8, -28659.97, 0.12434178, 0.22974074, -466709.9, 79073.99, 0.0, 10.001157, 9.998491 
1.3351499e+3, 2.5430882e+2, -286139.66, -526470.5, -38896.508, -0.021548865, 0.20893453, -280001.22, 167794.77, 0.0, 10.001717, 9.998568 
1.3351807e+3, 2.643076e+2, -152896.55, -423172.4, -36853.87, -0.089293815, 0.24818543, -147961.39, 201845.75, 0.00000008871969, 10.002016, 9.998461 
1.3352126e+3, 2.7430654e+2, -57429.98, -316452.0, 3985.456, -0.055954088, 0.2697241, -57368.676, 194449.9, 0.000006673535, 10.001951, 9.998556 
1.3352439e+3, 2.8430486e+2, -29123.502, -412093.2, -36424.863, -0.03694956, 0.32537296, -25689.861, 128147.28, 0.00008870036, 10.0021715, 9.99711 
1.3352747e+3, 2.943024e+2, 152400.47, -282403.25, -49761.926, -0.023018673, 0.34273127, 158022.86, 213887.39, 0.0004060733, 10.002772, 9.997041 
1.3353054e+3, 3.0429947e+2, 259053.0, -246658.48, 22915.209, -0.114516675, 0.38118532, 260089.22, 260089.22, 0.0010792791, 10.003384, 9.996647 
1.335338e+3, 3.1429583e+2, 432958.38, 19781.994, 115557.67, -0.17994927, 0.3132558, 463081.5, 463081.5, 0.0020577214, 10.0037365, 9.998318 
1.3447525e+3, 1.24279045e+2, -2072654.8, -1834754.9, 79373.16, 0.34635678, 0.39381075, -1810704.3, -88610.28, 0.0069055543, 9.997261, 10.000485 
1.3447776e+3, 1.342781e+2, -1763534.4, -1602365.1, -205495.63, 0.17788401, 0.22371396, -1462218.4, 161886.94, 0.0039389143, 9.998621, 10.000755 
1.3448082e+3, 1.4427918e+2, -1567175.4, -1423838.0, 76187.68, 0.21279766, 0.24383713, -1390907.6, 135188.34, 0.0015916337, 9.999133, 10.001056 
1.3448408e+3, 1.542817e+2, -1533994.6, -1356223.6, 72714.914, 0.09697865, 0.37231505, -1330269.6, 97801.31, 0.0003501717, 9.998693, 10.001055 
1.3448723e+3, 1.642827e+2, -1492773.3, -1374524.6, -108058.016, 0.087058805, 0.41708264, -1310473.4, 19587.008, 0.000020254476, 9.998685, 10.000259 
1.3449012e+3, 1.7428178e+2, -1306298.0, -1227957.1, -138769.9, 0.15289019, 0.27708662, -1122935.4, 109132.67, 0.0000000014653116, 9.999276, 10.000304 
1.3449311e+3, 1.8428168e+2, -1166524.9, -1130517.6, -4322.1357, 0.14125599, 0.2563001, -1130006.1, 4062.2195, 0.0, 9.999635, 10.000134 
1.3449623e+3, 1.9428253e+2, -1049390.3, -1014726.0, -4912.28, 0.04832526, 0.30521366, -1014043.3, 22017.209, 0.0, 9.999732, 10.000208 
1.3449931e+3, 2.0428263e+2, -959168.4, -1004587.75, -54193.746, -0.014707836, 0.3418455, -923118.44, 14940.229, 0.0, 10.000044, 9.999451 
1.3450235e+3, 2.142817e+2, -775844.75, -855566.6, -86014.836, -0.045896973, 0.28022918, -720903.5, 119161.46, 0.0, 10.000602, 9.999524 
1.3450557e+3, 2.2428058e+2, -652779.3, -829712.7, -21367.084, 0.008459851, 0.26324984, -650235.56, 91839.48, 0.0, 10.001116, 9.998796 
1.34509e+3, 2.3427919e+2, -489658.16, -689610.4, -26059.83, 0.18599391, 0.22239728, -486317.6, 157772.84, 0.0, 10.001525, 9.998883 
1.345122e+3, 2.442779e+2, -403025.1, -669658.6, -57983.625, 0.18211283, 0.24641876, -390961.44, 155142.28, 0.0, 10.001759, 9.998236 
1.3451512e+3, 2.5427663e+2, -296051.5, -560976.2, -73256.84, -0.06049684, 0.27487636, -277143.97, 170971.22, 0.0, 10.001796, 9.998292 
1.345182e+3, 2.6427513e+2, -194187.3, -471118.53, -82446.445, -0.12524782, 0.3143229, -171500.38, 178629.5, 0.000000062099474, 10.001865, 9.9982 
1.3452154e+3, 2.7427316e+2, -55342.69, -341937.28, -141939.28, 0.036918227, 0.27058575, 3055.0134, 255205.52, 0.0000065347235, 10.0020895, 9.998306 
1.3452473e+3, 2.8427127e+2, 20813.621, -369194.16, -159366.69, 0.078319505, 0.31321365, 77651.46, 231822.19, 0.00008983349, 10.002425, 9.997286 
1.3452773e+3, 2.942698e+2, 189553.77, -229896.89, -138794.03, -0.025084183, 0.40775344, 231320.97, 287508.5, 0.0004117743, 10.002882, 9.997345 
1.3453086e+3, 3.0426756e+2, 272446.38, -205330.72, -18210.545, -0.11737875, 0.47837436, 273139.47, 273139.47, 0.0010985263, 10.003296, 9.996994 
1.3453421e+3, 3.142626e+2, 418677.06, 27418.457, 26057.115, -0.12116552, 0.25170395, 420404.8, 420404.8, 0.0020991834, 10.003563, 9.99846 
1.3547519e+3, 1.2424701e+2, -2028316.6, -1738790.1, -15741.602, 0.51590836, 0.49059433, -1737936.8, -15517.823, 0.0072628423, 9.997257, 10.001144 
1.3547753e+3, 1.3424768e+2, -1701312.0, -1485576.6, -139328.89, 0.05215127, 0.40361473, -1417239.9, 207170.1, 0.004152666, 9.998679, 10.001529 
1.3548075e+3, 1.4424838e+2, -1555880.4, -1413311.8, 50560.688, 0.20432322, 0.3481478, -1397201.4, 129199.06, 0.0016872559, 9.999187, 10.001101 
1.3548394e+3, 1.5424927e+2, -1525790.5, -1348887.4, 64121.72, 0.05250097, 0.30766708, -1328090.3, 100298.39, 0.0003769789, 9.998724, 10.001093 
1.3548706e+3, 1.642501e+2, -1498734.0, -1392988.5, -100564.086, 0.03306031, 0.33792663, -1332245.0, -1864.8179, 0.000023370363, 9.998704, 10.000129 
1.3549006e+3, 1.7425089e+2, -1316790.9, -1255303.9, -108678.15, 0.14138375, 0.3864539, -1173104.5, 59271.34, 0.0000000068048798, 9.999286, 10.000119 
1.3549308e+3, 1.8425106e+2, -1172337.6, -1138615.6, -11010.894, 0.13929994, 0.40489215, -1135338.8, -963.97284, 0.0, 9.99962, 10.000081 
1.3549618e+3, 1.9425023e+2, -1055602.5, -1022857.44, 8033.7563, 0.017093308, 0.28749818, -1020992.6, 15387.004, 0.0, 9.999703, 10.000167 
1.354993e+3, 2.0424952e+2, -1002333.75, -1075079.3, -45250.69, -0.0633718, 0.26578733, -980649.6, -42264.574, 0.0, 9.999962, 9.999006 
1.355024e+3, 2.1424899e+2, -825785.2, -934465.0, -57632.85, -0.08492938, 0.29177308, -800914.2, 39476.863, 0.0, 10.000486, 9.9990425 
1.355056e+3, 2.2424835e+2, -681344.9, -849008.7, -18354.086, -0.0661255, 0.3528422, -679359.1, 63038.37, 0.0, 10.000949, 9.998743 
1.3550898e+3, 2.342476e+2, -511724.56, -703941.2, -1926.0378, 0.0053803604, 0.37700462, -511705.28, 132699.78, 0.0, 10.0013895, 9.998849 
1.3551226e+3, 2.4424608e+2, -426393.88, -690972.5, -64794.37, 0.049221266, 0.3864635, -411378.16, 135041.28, 0.0, 10.001635, 9.998154 
1.3551542e+3, 2.5424355e+2, -319715.84, -581374.4, -60039.996, 0.048493177, 0.29629314, -306596.84, 141846.3, 0.0, 10.001669, 9.998216 
1.3551855e+3, 2.6424107e+2, -293673.25, -653331.9, -83754.44, 0.012500108, 0.2938607, -275125.7, 75343.164, 0.000000036385206, 10.001759, 9.997001 
1.3552167e+3, 2.7423835e+2, -165665.56, -543287.9, -117297.61, -0.061100055, 0.30806533, -132196.75, 120302.71, 0.0000068750182, 10.001969, 9.9969845 
1.3552481e+3, 2.842359e+2, 65567.16, -254675.88, -146522.39, -0.09779236, 0.32544297, 122488.75, 277013.66, 0.00009118057, 10.002334, 9.998116 
1.3552798e+3, 2.94234e+2, 244286.98, -95373.7, -104373.336, -0.07377017, 0.28412244, 273795.9, 330336.78, 0.00041364625, 10.002785, 9.998322 
1.3553125e+3, 3.0423287e+2, 270341.78, -171161.3, -17713.012, -0.07492706, 0.39990762, 271051.28, 271051.28, 0.0010984994, 10.003154, 9.997286 
1.355345e+3, 3.142303e+2, 352161.28, -32961.293, 70735.555, -0.21993165, 0.38506398, 364742.3, 364742.3, 0.0020944665, 10.003252, 9.998182 
1.3647489e+3, 1.24215126e+2, -2003166.4, -1722911.1, 80001.93, 0.5005314, 0.45987558, -1701681.9, 21051.791, 0.0076198755, 9.997394, 10.001195 
1.3647737e+3, 1.342166e+2, -1663401.8, -1494621.9, -54880.957, 0.022903772, 0.47191408, -1478346.1, 146371.23, 0.004366158, 9.999037, 10.001299 
1.3648067e+3, 1.4421698e+2, -1576316.9, -1435278.5, 22215.684, 0.22851464, 0.4024117, -1431862.0, 94848.91, 0.0017823466, 9.9991045, 10.000986 
1.3648376e+3, 1.5421717e+2, -1694434.3, -1437830.3, 2524.2158, 0.07328002, 0.30065858, -1437805.4, -9100.488, 0.0004035849, 9.997619, 10.001007 
1.3648686e+3, 1.6421779e+2, -1693244.9, -1474274.6, -70591.81, 0.054902826, 0.30944988, -1453490.0, -122791.94, 0.000026350568, 9.997308, 10.000242 
1.3648997e+3, 1.7421916e+2, -1393265.8, -1273192.9, -71058.85, 0.15402317, 0.39985192, -1240203.9, -7515.3916, 0.000000016360648, 9.998683, 10.000281 
1.3649307e+3, 1.8421951e+2, -1207863.1, -1207949.0, 20533.748, 0.1599846, 0.4503833, -1187372.3, -52685.902, 0.0, 9.999601, 9.999617 
1.364962e+3, 1.942184e+2, -1064310.6, -1078551.5, -18944.682, 0.06440229, 0.35367125, -1051192.5, -14497.1455, 0.0, 9.999883, 9.999691 
1.3649935e+3, 2.042173e+2, -980651.56, -1076520.4, -54192.504, -0.0034213786, 0.322981, -956235.9, -17531.027, 0.0, 10.000156, 9.99891 
1.3650246e+3, 2.142162e+2, -838961.4, -948837.2, -50907.88, -0.04007181, 0.30207318, -819000.8, 21714.455, 0.0, 10.000427, 9.998979 
1.3650571e+3, 2.2421545e+2, -713382.8, -851993.0, 27952.719, -0.047088847, 0.349026, -707958.0, 34763.8, 0.0, 10.000676, 9.998847 
1.3650906e+3, 2.3421519e+2, -585422.44, -729819.8, 30336.818, -0.017787801, 0.41065884, -579307.8, 65415.66, 0.0, 10.000839, 9.998938 
1.3651238e+3, 2.4421369e+2, -547175.3, -791462.8, -26294.164, 0.049590517, 0.4336098, -544377.2, 2361.0916, 0.0, 10.000992, 9.997768 
1.3651566e+3, 2.5421047e+2, -419429.53, -676254.44, -70916.125, 0.1560501, 0.3155749, -401148.94, 47622.406, 0.0, 10.001185, 9.997791 
1.3651885e+3, 2.6420766e+2, -303644.56, -647539.8, -29435.393, 0.14457768, 0.30410883, -301143.25, 49657.117, 0.000000033203506, 10.001645, 9.997097 
1.365219e+3, 2.7420542e+2, -77496.164, -475090.1, 19216.633, -0.02398144, 0.34177172, -76569.54, 176255.27, 0.0000069323874, 10.002474, 9.997203 
1.3652505e+3, 2.8420284e+2, 135141.5, -259010.9, 26533.35, -0.11568761, 0.3522076, 136919.64, 291770.0, 0.00008947194, 10.0029955, 9.99776 
1.3652828e+3, 2.9420015e+2, 290536.84, -107695.27, -47830.14, -0.08279143, 0.26737645, 296200.97, 353076.4, 0.00040406178, 10.003275, 9.997991 
1.3653159e+3, 3.0419895e+2, 317621.0, -115651.6, -4637.199, -0.043106057, 0.37666893, 317670.63, 317670.63, 0.001070079, 10.003325, 9.997591 
1.3653482e+3, 3.1419742e+2, 269264.34, -89031.73, 42889.73, -0.17842421, 0.44252804, 274326.9, 274326.9, 0.0020370646, 10.002706, 9.998086 
1.374743e+3, 1.2418352e+2, -2053034.4, -1819698.0, 44649.76, 0.12329605, 0.28131106, -1811445.9, -88410.164, 0.0079810945, 9.997393, 10.000517 
1.3747726e+3, 1.3418487e+2, -1755170.6, -1687505.8, 11378.33, -0.0053123273, 0.4096073, -1685643.6, -60616.117, 0.0045821774, 9.999048, 9.999966 
1.3748057e+3, 1.4418495e+2, -1595027.9, -1478529.1, -44834.473, 0.19587007, 0.39768004, -1463272.6, 63755.293, 0.0018779465, 9.999124, 10.000681 
1.3748355e+3, 1.5418535e+2, -1711117.4, -1471754.5, -44124.613, 0.08227465, 0.338648, -1463879.5, -34859.168, 0.00043006244, 9.997613, 10.000778 
1.3748664e+3, 1.6418584e+2, -1663675.4, -1415672.1, -39379.07, 0.06515046, 0.33113912, -1409569.5, -78556.25, 0.000029160963, 9.997311, 10.000649 
1.3748981e+3, 1.7418663e+2, -1355182.1, -1202253.3, -9331.827, 0.110773444, 0.31677082, -1201686.0, 31319.385, 0.000000027808229, 9.998698, 10.000772 
1.37493e+3, 1.8418708e+2, -1267476.8, -1331427.3, 22371.342, 0.118732564, 0.38989112, -1260427.8, -125425.16, 0.0, 9.999606, 9.998765 
1.3749626e+3, 1.9418699e+2, -1142740.3, -1230409.6, -2660.11, 0.1161377, 0.49323305, -1142659.5, -105651.27, 0.0, 9.999831, 9.998678 
1.3749945e+3, 2.0418586e+2, -972119.2, -1038334.06, -54680.46, 0.07919598, 0.5026431, -941304.4, -2284.9578, 0.0, 10.000071, 9.999212 
1.3750257e+3, 2.1418339e+2, -828674.75, -899354.1, -29658.62, -0.00092142314, 0.3036002, -817878.44, 23159.035, 0.0, 10.000304, 9.999378 
1.375058e+3, 2.2418201e+2, -721321.3, -832145.4, 26054.244, -0.02743682, 0.25570974, -715501.7, 27545.24, 0.0, 10.000522, 9.999057 
1.375092e+3, 2.3418203e+2, -592218.0, -710707.2, 46553.28, 0.024174388, 0.3276667, -576115.9, 68929.36, 0.0, 10.000699, 9.999134 
1.3751253e+3, 2.4418065e+2, -617428.8, -910868.25, -31895.441, 0.09305605, 0.38706747, -614001.94, -66941.18, 0.0, 10.000873, 9.997009 
1.3751581e+3, 2.5417736e+2, -491338.44, -802648.1, -54031.773, 0.19217813, 0.34191725, -482227.2, -33127.55, 0.0, 10.001082, 9.996976 
1.3751906e+3, 2.6417512e+2, -222962.75, -457239.44, -7905.4746, 0.19254702, 0.36530337, -222696.3, 128427.41, 0.000000022673568, 10.00155, 9.998447 
1.3752224e+3, 2.7417403e+2, 8756.609, -262800.8, 60440.105, 0.053779967, 0.37294018, 21601.129, 274730.9, 0.0000066245593, 10.002339, 9.998723 
1.3752541e+3, 2.8417182e+2, 28123.947, -458477.34, 25061.459, -0.070703015, 0.39327678, 29411.283, 184562.52, 0.00008472814, 10.002891, 9.996444 
1.3752857e+3, 2.9416814e+2, 155751.53, -346939.03, -18481.096, -0.14408429, 0.36474997, 156430.06, 213622.16, 0.0003804188, 10.003092, 9.996442 
1.3753186e+3, 3.0416563e+2, 311052.97, -86213.46, -21408.6, -0.11627841, 0.41092712, 312203.34, 312203.34, 0.0010069014, 10.00315, 9.99787 
1.3753511e+3, 3.1416377e+2, 224470.89, -105796.93, 46191.816, -0.18795776, 0.41173467, 230809.7, 230809.7, 0.0019208379, 10.002409, 9.998096 
1.3847391e+3, 1.241525e+2, -2187635.8, -1900940.6, 30131.66, 0.06417578, 0.27054077, -1897808.0, -174470.5, 0.008351057, 9.996527, 10.000385 
1.3847715e+3, 1.3415314e+2, -1907867.0, -1812136.0, 37942.28, 0.030278333, 0.3749562, -1798921.9, -173584.17, 0.004803759, 9.998218, 9.999515 
1.3848042e+3, 1.4415322e+2, -1665663.0, -1534702.3, -30354.941, 0.16120324, 0.39734334, -1528008.5, -669.1724, 0.0019753822, 9.998734, 10.000481 
1.384834e+3, 1.541539e+2, -1548168.3, -1410157.6, -53939.594, 0.12573498, 0.3815361, -1391577.4, 37752.836, 0.00045665295, 9.998802, 10.0006275 
1.384865e+3, 1.6415428e+2, -1419662.5, -1321095.5, 18943.588, 0.12672745, 0.38022965, -1317580.1, 13744.171, 0.00003186285, 9.9991045, 10.000429 
1.384897e+3, 1.7415445e+2, -1219251.6, -1157489.3, -23578.568, 0.09646725, 0.32445747, -1149516.9, 83803.96, 0.000000039188958, 9.999748, 10.000565 
1.3849296e+3, 1.8415444e+2, -1215821.5, -1334136.1, -10266.678, 0.09741344, 0.37320387, -1214937.3, -79614.94, 0.0, 10.0000725, 9.998528 
1.384963e+3, 1.9415419e+2, -1106807.0, -1231335.9, 5247.5405, 0.16062063, 0.4842064, -1106586.3, -69255.91, 0.0, 10.00016, 9.998509 
1.3849954e+3, 2.0415309e+2, -912164.56, -998493.75, 11567.174, 0.15814592, 0.50062025, -910641.56, 28699.725, 0.0, 10.000433, 9.999307 
1.3850269e+3, 2.1415088e+2, -717019.4, -828931.6, -7035.8433, 0.06660438, 0.3106766, -716578.75, 124776.95, 0.0, 10.000997, 9.999525 
1.3850592e+3, 2.2414932e+2, -642463.6, -832050.3, 26303.705, 0.015876748, 0.2502983, -638881.8, 104484.99, 0.0, 10.001211, 9.998739 
1.3850926e+3, 2.3414853e+2, -560255.25, -735182.6, -13021.958, 0.02414111, 0.2781833, -559291.2, 86083.39, 0.0, 10.001079, 9.998792 
1.3851263e+3, 2.4414712e+2, -529581.8, -828786.4, -34857.543, 0.07106465, 0.34033105, -525574.5, 21816.512, 0.0, 10.001319, 9.997347 
1.3851595e+3, 2.54145e+2, -303394.7, -664000.5, 6207.0513, 0.16656129, 0.37264434, -303287.88, 146130.48, 0.0, 10.00218, 9.997389 
1.3851924e+3, 2.6414323e+2, -89965.33, -400628.5, 58065.645, 0.17383558, 0.42121214, -79467.125, 271971.0, 0.0000000049794013, 10.002497, 9.99838 
1.3852246e+3, 2.7414173e+2, -26265.914, -294987.66, -9998.661, 0.04976049, 0.39624652, -25894.396, 227554.73, 0.0000064670485, 10.00215, 9.998599 
1.3852566e+3, 2.8413972e+2, -88913.61, -486225.34, -38349.605, -0.037303776, 0.43631366, -85245.86, 70222.82, 0.000079933714, 10.001958, 9.99671 
1.3852891e+3, 2.9413703e+2, 39866.023, -358447.88, 20695.424, -0.050968725, 0.47584555, 40938.42, 98438.07, 0.0003519979, 10.002104, 9.996836 
1.3853224e+3, 3.04134e+2, 203143.88, -106389.96, 90125.125, 0.008313039, 0.4376063, 227472.84, 227472.84, 0.00092815317, 10.002262, 9.998164 
1.385354e+3, 3.1413138e+2, 203605.16, -88200.79, 102795.88, -0.11811853, 0.3265962, 236180.95, 236180.95, 0.0017753835, 10.002132, 9.998354 
1.3947372e+3, 1.2412164e+2, -2165279.3, -1823115.0, 101036.89, 0.17314038, 0.39977738, -1795507.5, -71864.02, 0.008733579, 9.996419, 10.0009575 
1.3947698e+3, 1.3412149e+2, -1870867.1, -1729164.8, 93863.7, 0.043040276, 0.36465004, -1682413.6, -56766.45, 0.005033633, 9.998193, 10.0000925 
1.394802e+3, 1.4412205e+2, -1663043.8, -1537686.5, -43950.402, 0.0352959, 0.40448868, -1523812.9, 3829.8135, 0.002076125, 9.998764, 10.00045 
1.3948327e+3, 1.5412301e+2, -1550642.5, -1423968.0, -39224.535, 0.10183186, 0.42602682, -1412805.8, 16827.252, 0.00048381835, 9.99883, 10.0005245 
1.3948643e+3, 1.641232e+2, -1478173.4, -1454138.8, 27464.936, 0.13190772, 0.45546687, -1436177.0, -104546.766, 0.000034571214, 9.999152, 9.999495 
1.3948964e+3, 1.7412247e+2, -1295750.4, -1313506.0, 5245.503, 0.039670415, 0.41347253, -1294316.5, -60680.008, 0.00000005013657, 9.999732, 9.999505 
1.394929e+3, 1.8412144e+2, -1173286.3, -1250581.3, -20544.887, 0.013984006, 0.3943038, -1168164.8, -32518.373, 0.0, 10.000089, 9.999095 
1.3949628e+3, 1.9412006e+2, -1063877.0, -1136054.3, 16181.888, 0.11794656, 0.32386392, -1060415.1, -22753.912, 0.0, 10.000122, 9.999189 
1.3949959e+3, 2.041191e+2, -930091.25, -1014814.56, 20658.275, 0.1499863, 0.31851885, -925322.56, 14347.213, 0.0, 10.000347, 9.999233 
1.3950281e+3, 2.1411869e+2, -749792.94, -864888.0, 21592.893, 0.07909038, 0.32634568, -745875.25, 95794.51, 0.0, 10.000861, 9.999344 
1.3950603e+3, 2.2411737e+2, -712135.7, -954067.5, 12416.332, -0.0055173715, 0.33741748, -711500.1, 32181.432, 0.0, 10.001102, 9.997956 
1.3950928e+3, 2.341148e+2, -635690.25, -867171.8, -6399.5566, -0.092430115, 0.26545635, -635513.44, 10196.6, 0.0, 10.000962, 9.997945 
1.395126e+3, 2.4411331e+2, -456580.78, -647065.25, -13902.78, -0.10098058, 0.30504277, -455571.4, 92155.51, 0.0, 10.001189, 9.998656 
1.3951601e+3, 2.541133e+2, -225504.52, -463422.38, 48917.5, 0.0045367186, 0.4010273, -215839.39, 233889.33, 0.0, 10.002019, 9.998842 
1.3951935e+3, 2.6411185e+2, -202781.55, -610552.6, 38107.535, 0.0154879475, 0.47064134, -199250.84, 152494.25, 0.0000000011462398, 10.002385, 9.996993 
1.3952254e+3, 2.7410856e+2, -159613.5, -544278.56, -9142.232, -0.104722, 0.42326254, -159396.34, 94384.54, 0.0000063015364, 10.002022, 9.996953 
1.395258e+3, 2.8410676e+2, 6900.987, -259665.9, -41650.176, -0.107018195, 0.50145525, 13257.128, 169056.97, 0.00007549202, 10.001843, 9.998317 
1.3952926e+3, 2.941066e+2, 147892.31, -102702.484, 41682.63, 0.08563687, 0.60672605, 154643.69, 212443.84, 0.0003283141, 10.001971, 9.998656 
1.3953269e+3, 3.0410376e+2, 220746.4, -46383.887, 74638.414, 0.2119713, 0.47032794, 240186.3, 240186.3, 0.0008653395, 10.002161, 9.998623 
1.3953564e+3, 3.1410038e+2, 208366.56, -23056.588, 105844.56, -0.12573616, 0.23976167, 249474.13, 249474.13, 0.0016584882, 10.001904, 9.998911 
1.4047351e+3, 1.24088705e+2, -1939006.3, -1654284.0, 51645.035, 0.2856139, 0.48837498, -1645205.6, 78764.445, 0.009133226, 9.997684, 10.001518 
1.4047672e+3, 1.3408862e+2, -1983118.5, -1676143.0, -1646.2771, 0.024277037, 0.36574373, -1676134.1, -50165.613, 0.005275387, 9.996951, 10.00106 
1.4047997e+3, 1.4408974e+2, -1931626.1, -1687096.1, -87995.445, 0.019674297, 0.41212115, -1658722.8, -130765.625, 0.0021822979, 9.996999, 10.000279 
1.4048311e+3, 1.5409024e+2, -1633724.0, -1500458.1, -122859.93, 0.096207656, 0.42013928, -1427325.1, 2629.0444, 0.00051218417, 9.998413, 10.000206 
1.4048636e+3, 1.640901e+2, -1474880.5, -1477077.0, -24235.963, 0.12998745, 0.44461775, -1451717.9, -119762.11, 0.000037386584, 9.999287, 9.999265 
1.4048962e+3, 1.740891e+2, -1311028.8, -1340231.5, -3758.0347, 0.0732572, 0.39544535, -1310552.9, -76589.37, 0.00000006103049, 9.999712, 9.999324 
1.4049295e+3, 1.8408805e+2, -1161393.5, -1210576.5, 9177.326, 0.06475967, 0.36753738, -1159736.8, -23763.889, 0.0, 10.0000305, 9.999393 
1.404963e+3, 1.9408698e+2, -1008701.6, -1067127.4, -4098.364, 0.13090049, 0.29139698, -1008415.56, 29568.06, 0.0, 10.000326, 9.999558 
1.4049964e+3, 2.0408638e+2, -918022.75, -1025330.4, 7845.7734, 0.14943095, 0.30740044, -917452.2, 22537.092, 0.0, 10.0005, 9.999092 
1.405029e+3, 2.1408638e+2, -794377.94, -900869.0, -8934.553, 0.09715735, 0.37482855, -793633.56, 48354.254, 0.0, 10.0006275, 9.999206 
1.4050613e+3, 2.2408524e+2, -759690.5, -965479.9, 21112.514, 0.022979379, 0.40690348, -757546.9, -13547.367, 0.0, 10.000757, 9.998032 
1.4050937e+3, 2.3408246e+2, -631336.5, -844063.9, 45724.55, -0.081039675, 0.30468383, -621924.7, 24104.71, 0.0, 10.000931, 9.998104 
1.405127e+3, 2.4408104e+2, -470467.97, -649135.7, 69207.24, -0.088651344, 0.33869374, -446796.6, 101248.805, 0.0, 10.001063, 9.998712 
1.4051619e+3, 2.5408143e+2, -341760.6, -512289.53, 13362.06, 0.03188302, 0.4695706, -340719.94, 109323.35, 0.0, 10.001179, 9.998918 
1.4051954e+3, 2.640798e+2, -316292.88, -669327.56, 8773.151, 0.029667197, 0.519587, -316075.0, 35986.31, 0.0000000047036606, 10.00162, 9.996961 
1.405227e+3, 2.740757e+2, -68770.65, -498128.72, 43773.063, -0.14995266, 0.39958358, -64353.43, 189750.8, 0.000006310061, 10.002648, 9.996964 
1.4052598e+3, 2.8407377e+2, 159533.9, -174639.06, 21315.898, -0.14579666, 0.455689, 160888.1, 317012.47, 0.000071733004, 10.00285, 9.998408 
1.4052951e+3, 2.940742e+2, 135483.86, -96425.28, -41489.38, 0.15370911, 0.6128036, 142682.98, 200801.55, 0.0003149259, 10.001846, 9.998752 
1.4053297e+3, 3.0407137e+2, 168723.86, -114772.32, -32923.457, 0.30714458, 0.49063754, 172497.16, 172497.16, 0.00083511043, 10.001984, 9.998241 
1.405359e+3, 3.140682e+2, 477065.75, 108983.09, -110829.83, -0.10926005, 0.32196945, 507860.3, 507860.3, 0.0016026321, 10.003736, 9.998937 
1.4147325e+3, 1.2405317e+2, -1890566.9, -1562297.9, -16901.857, 0.20933715, 0.47406456, -1561429.9, 162892.42, 0.009556688, 9.997719, 10.002141 
1.4147629e+3, 1.3405456e+2, -1893476.3, -1480086.4, -24888.44, -0.12487144, 0.3693204, -1478593.4, 147708.34, 0.0055341963, 9.996907, 10.002433 
1.4147967e+3, 1.4405613e+2, -1951505.0, -1729417.3, -57570.13, 0.005876294, 0.3962876, -1715380.9, -187096.92, 0.0022969088, 9.997, 9.999991 
1.414829e+3, 1.5405558e+2, -1673705.9, -1582028.3, -61706.48, 0.029421333, 0.35699993, -1550997.8, -120704.0, 0.0005425403, 9.998405, 9.999652 
1.4148621e+3, 1.6405506e+2, -1427402.6, -1386362.9, -20257.674, 0.036791712, 0.3458772, -1378048.0, -45748.17, 0.000040406845, 9.999316, 9.999877 
1.4148965e+3, 1.7405458e+2, -1263388.5, -1236979.5, 20403.01, 0.12058331, 0.27564734, -1225880.9, 8419.591, 0.00000007226826, 9.999685, 10.000051 
1.4149307e+3, 1.8405448e+2, -1159437.5, -1206598.9, 8740.73, 0.16326553, 0.30236775, -1157869.6, -21569.7, 0.0, 10.0000305, 9.999419 
1.4149633e+3, 1.9405496e+2, -1020440.44, -1081268.4, 14701.241, 0.11985569, 0.38630503, -1017073.7, 21224.117, 0.0, 10.00028, 9.999484 
1.4149962e+3, 2.040549e+2, -934370.4, -1048323.8, -2470.202, 0.07523548, 0.46817255, -934316.8, 5983.4585, 0.0, 10.000445, 9.998961 
1.4150292e+3, 2.1405402e+2, -824726.9, -935240.06, 3450.7976, 0.051136564, 0.4588008, -824619.25, 17690.346, 0.0, 10.000494, 9.99904 
1.4150622e+3, 2.2405285e+2, -718364.7, -845829.5, 15394.102, 0.019913018, 0.45786375, -716531.9, 27789.033, 0.0, 10.000611, 9.9989195 
1.4150952e+3, 2.3405138e+2, -588080.8, -717637.25, 62295.8, -0.026251763, 0.3903358, -562987.0, 83347.14, 0.0, 10.000779, 9.999042 
1.4151292e+3, 2.4405025e+2, -555639.4, -807880.7, 63842.28, 0.0060063754, 0.44907463, -540401.44, 7945.6973, 0.0, 10.000975, 9.997665 
1.4151645e+3, 2.5404945e+2, -440658.88, -700455.0, 29580.775, 0.15887325, 0.5808806, -437333.3, 13028.034, 0.0, 10.001096, 9.997669 
1.4151983e+3, 2.6404718e+2, -253372.48, -513976.5, 36178.73, 0.1274477, 0.58302027, -248443.16, 103942.19, 0.000000079284355, 10.001516, 9.998075 
1.4152294e+3, 2.7404293e+2, 239.28561, -321035.63, 96852.664, -0.17953993, 0.31887218, 27178.03, 281599.97, 0.000007370644, 10.002505, 9.998249 
1.4152619e+3, 2.8404048e+2, 68806.44, -346619.0, -18788.236, -0.24809203, 0.3053512, 69654.44, 226099.34, 0.000072022085, 10.002766, 9.997272 
1.4152963e+3, 2.9404002e+2, 23912.258, -315873.16, -61534.105, 0.07488923, 0.505388, 34712.6, 93165.93, 0.0003160208, 10.00177, 9.997294 
1.4153308e+3, 3.0403697e+2, 59177.47, -311152.56, 19869.553, 0.2079522, 0.5031508, 60240.49, 60240.49, 0.0008386739, 10.00187, 9.996931 
1.4153619e+3, 3.1403476e+2, 382108.94, -13051.409, -24104.451, -0.23382233, 0.5507764, 383573.88, 383573.88, 0.0016067583, 10.003442, 9.9982195 
1.4247292e+3, 1.240181e+2, -2171811.8, -1714755.4, 39201.688, 0.21488653, 0.41859668, -1711417.4, 13247.861, 0.010011913, 9.995875, 10.001976 
1.42476e+3, 1.3402034e+2, -1848972.4, -1424740.1, -29895.072, -0.088429086, 0.37738845, -1422643.9, 203993.13, 0.0058154534, 9.997095, 10.002715 
1.4247954e+3, 1.4402206e+2, -1812272.8, -1648868.4, -62044.336, 0.13627735, 0.39942756, -1627980.4, -99362.62, 0.002423067, 9.997925, 10.000086 
1.4248276e+3, 1.5402168e+2, -1797945.1, -1632822.6, -49741.863, 0.094385274, 0.3680781, -1618996.0, -188370.53, 0.00057589856, 9.997537, 9.999706 
1.4248607e+3, 1.6402122e+2, -1631928.5, -1463063.5, 39672.34, 0.05711694, 0.34899506, -1454207.5, -121576.734, 0.00004378684, 9.997804, 10.000084 
1.4248964e+3, 1.7402078e+2, -1300132.3, -1227086.6, 25232.592, 0.16270304, 0.26077288, -1219218.0, 15412.904, 0.00000008454083, 9.99931, 10.0003 
1.424931e+3, 1.8402086e+2, -1132015.8, -1195257.8, -11387.126, 0.19774938, 0.29192954, -1130027.9, 6601.402, 0.0, 10.000231, 9.999398 
1.4249633e+3, 1.940217e+2, -1003293.7, -1077374.0, -27445.11, 0.083640374, 0.41607338, -994233.9, 44390.95, 0.0, 10.000422, 9.99944 
1.4249963e+3, 2.0402181e+2, -916555.7, -1014791.94, -17992.748, 0.04344697, 0.50779873, -913363.9, 27262.166, 0.0, 10.000463, 9.999185 
1.4250302e+3, 2.1402076e+2, -817662.8, -902581.7, -5980.312, 0.12923878, 0.45701143, -817243.75, 25392.658, 0.0, 10.000407, 9.999308 
1.4250639e+3, 2.2401956e+2, -708017.8, -823176.25, 30411.975, 0.1386177, 0.4309256, -700479.8, 44167.367, 0.0, 10.000603, 9.999083 
1.4250965e+3, 2.3401831e+2, -504379.7, -661433.8, -2340.5745, 0.019356424, 0.37064117, -504344.8, 142312.84, 0.0, 10.001274, 9.999195 
1.4251305e+3, 2.4401717e+2, -429592.75, -743696.5, 19674.31, 0.0020844187, 0.42018315, -428365.22, 120305.07, 0.0, 10.00184, 9.997688 
1.4251658e+3, 2.540161e+2, -243884.52, -598465.0, 48172.98, 0.13587824, 0.5263755, -237456.31, 213230.39, 0.00000000006254562, 10.002429, 9.997723 
1.4252001e+3, 2.6401418e+2, -101726.85, -411610.28, 86739.414, 0.12452278, 0.54793155, -79099.81, 273607.56, 0.00000036239143, 10.002429, 9.99834 
1.4252321e+3, 2.740112e+2, -118332.5, -342149.84, 57579.004, -0.102681376, 0.3746394, -104388.51, 150344.02, 0.000010087366, 10.001527, 9.998574 
1.4252649e+3, 2.8400862e+2, -132730.45, -514375.84, -40140.883, -0.16669686, 0.36445794, -128554.19, 28202.701, 0.00007867192, 10.001693, 9.99664 
1.4252986e+3, 2.9400635e+2, 250022.67, -284082.0, -73498.016, 0.039533637, 0.45460364, 259952.13, 318736.06, 0.00033170477, 10.0036745, 9.99659 
1.4253332e+3, 3.0400282e+2, 370593.25, -232201.55, 66040.93, 0.14020196, 0.47023192, 377743.75, 377743.75, 0.00087102765, 10.004285, 9.996331 
1.4253657e+3, 3.1400114e+2, 256322.66, -101795.24, 30911.639, -0.14515677, 0.6240471, 258971.27, 258971.27, 0.0016626937, 10.002665, 9.998004 
1.4347243e+3, 1.2398397e+2, -2231193.8, -1841144.3, -21642.838, 0.10174512, 0.32781222, -1839947.0, -114953.38, 0.010506618, 9.995872, 10.001112 
1.4347589e+3, 1.339864e+2, -1925128.3, -1574852.4, 43213.8, 0.08082531, 0.40516952, -1569599.8, 57370.426, 0.006123269, 9.997066, 10.001688 
1.4347954e+3, 1.4398785e+2, -1763123.3, -1567243.3, -80013.6, 0.32275784, 0.42968187, -1538714.1, -9758.003, 0.002563054, 9.998, 10.000618 
1.4348266e+3, 1.5398867e+2, -1752425.3, -1536539.6, -57802.668, 0.2193463, 0.45439988, -1522037.4, -91089.59, 0.0006133788, 9.9975195, 10.000382 
1.4348592e+3, 1.639887e+2, -1647187.3, -1492911.1, 75993.64, 0.100206956, 0.45532644, -1461765.6, -128818.65, 0.000047750204, 9.997794, 9.999885 
1.4348954e+3, 1.7398769e+2, -1321649.8, -1273465.1, 90717.79, 0.11579838, 0.33894345, -1203695.0, 31260.746, 0.00000010052836, 9.99931, 9.999986 
1.4349301e+3, 1.8398717e+2, -1135518.6, -1201638.5, -13954.056, 0.08287753, 0.33081558, -1132694.4, 4267.171, 0.0, 10.000228, 9.999357 
1.4349625e+3, 1.939873e+2, -1015800.9, -1087664.9, -12933.468, -0.059184495, 0.3851215, -1013544.06, 25419.875, 0.0, 10.000352, 9.999407 
1.434996e+3, 2.0398718e+2, -886326.6, -934958.56, -32221.295, -0.040446855, 0.43013915, -870275.8, 70690.02, 0.0, 10.000386, 9.999769 
1.435032e+3, 2.1398668e+2, -797196.5, -826671.9, 986.6005, 0.24344203, 0.37253305, -797163.56, 45803.83, 0.0, 10.000263, 9.999898 
1.4350662e+3, 2.239855e+2, -767704.06, -913909.44, 41148.316, 0.29154587, 0.34056136, -756918.8, -11941.568, 0.0, 10.00046, 9.9985285 
1.4350976e+3, 2.3398338e+2, -573375.75, -769035.44, 32081.104, -0.017197382, 0.260563, -568249.9, 78748.586, 0.0, 10.001125, 9.9985285 
1.4351307e+3, 2.439819e+2, -378979.13, -610985.44, 29394.707, -0.17873566, 0.26893675, -375312.84, 173700.98, 0.0, 10.001711, 9.998667 
1.435166e+3, 2.5398138e+2, -190006.14, -448712.22, 79694.54, -0.11192918, 0.31430686, -167426.88, 283593.53, 0.000000006122379, 10.002265, 9.998832 
1.4352009e+3, 2.6398084e+2, -142249.75, -469992.94, 47681.49, -0.051648386, 0.4313123, -135453.77, 217573.98, 0.0000008787704, 10.002311, 9.998 
1.4352347e+3, 2.7398044e+2, -165629.23, -423386.88, 36233.676, -0.011267862, 0.5680565, -160632.63, 94402.99, 0.000014147242, 10.001446, 9.998064 
1.4352684e+3, 2.839782e+2, -161667.64, -563913.25, 13256.988, -0.010072078, 0.62668276, -161231.2, -4170.6865, 0.00009061613, 10.001638, 9.996326 
1.4353015e+3, 2.9397285e+2, 201615.27, -357140.4, 17707.705, -0.05080514, 0.44299707, 202175.88, 261289.69, 0.00036054887, 10.003543, 9.996156 
1.4353362e+3, 3.039686e+2, 368001.9, -198973.77, 12022.965, 0.005666419, 0.40421057, 368256.72, 368256.72, 0.00093364663, 10.004136, 9.996625 
1.43537e+3, 3.1396732e+2, 235880.14, -75274.72, 1312.6453, -0.013985779, 0.5609265, 235885.69, 235885.69, 0.0017759766, 10.002374, 9.998331 
1.4447202e+3, 1.2395015e+2, -1957198.5, -1753247.3, 28685.1, 0.012374258, 0.2348517, -1749289.6, -23970.676, 0.011047917, 9.997934, 10.000719 
1.4447573e+3, 1.339526e+2, -1904326.5, -1653810.0, 116863.17, 0.19879173, 0.38324764, -1607759.6, 19538.73, 0.00646129, 9.997581, 10.000894 
1.4447936e+3, 1.4395338e+2, -1765857.0, -1569877.5, 2159.9458, 0.34291577, 0.3889388, -1569853.6, -40562.156, 0.0027186894, 9.997996, 10.000593 
1.4448248e+3, 1.5395388e+2, -1440010.5, -1371769.6, -49805.973, 0.20585324, 0.36946326, -1345517.5, 85766.61, 0.0006559602, 9.999609, 10.000504 
1.4448577e+3, 1.6395396e+2, -1341648.0, -1367304.6, 68428.57, 0.07151853, 0.38083205, -1284855.6, 48427.12, 0.000052490832, 10.000004, 9.999672 
1.444894e+3, 1.7395364e+2, -1394826.0, -1332820.0, 67230.56, 0.0685876, 0.35762557, -1289788.3, -54499.863, 0.00000012546444, 9.998931, 9.999749 
1.4449294e+3, 1.8395343e+2, -1340369.1, -1260392.6, 11612.764, 0.058223907, 0.37763727, -1258740.5, -121447.81, 0.0, 9.998636, 9.999724 
1.4449628e+3, 1.9395338e+2, -1093376.5, -1070094.0, 28442.307, -0.01383924, 0.3672748, -1051002.8, -11707.674, 0.0, 9.999582, 9.999894 
1.4449969e+3, 2.0395322e+2, -885906.94, -936174.8, 17789.838, 0.024375653, 0.37958285, -880248.2, 61048.387, 0.0, 10.000398, 9.999753 
1.4450327e+3, 2.1395284e+2, -683177.8, -775737.4, -22737.504, 0.24836063, 0.339682, -677893.94, 165403.13, 0.0, 10.001068, 9.999857 
1.445067e+3, 2.2395185e+2, -613775.94, -850404.4, 37632.684, 0.28322324, 0.33256295, -607935.1, 137370.5, 0.0, 10.0015545, 9.998439 
1.4450994e+3, 2.339499e+2, -472884.84, -730140.75, 52742.86, 0.024896307, 0.27753577, -462491.38, 184834.61, 0.0, 10.001842, 9.998452 
1.4451326e+3, 2.4394852e+2, -358648.0, -548030.3, 56177.777, -0.1267007, 0.27551374, -343237.56, 206102.34, 0.0, 10.001634, 9.999126 
1.4451672e+3, 2.5394782e+2, -359508.34, -477546.7, 41467.996, -0.1240797, 0.25667983, -346396.7, 104948.4, 0.000000012932129, 10.000856, 9.999317 
1.4452024e+3, 2.6394728e+2, -362874.22, -631932.0, 21425.17, -0.050504357, 0.36542678, -361178.8, -7825.7, 0.0000016431604, 10.001046, 9.997488 
1.445238e+3, 2.7394697e+2, -3382.0496, -410548.28, -27123.03, 0.11521987, 0.572821, -1583.2195, 253781.5, 0.000019343763, 10.002858, 9.9974575 
1.4452723e+3, 2.8394473e+2, 170321.69, -360125.22, -7841.6313, 0.12799746, 0.6527681, 170437.6, 327828.25, 0.00010729349, 10.00373, 9.9967165 
1.4453046e+3, 2.939397e+2, 170217.44, -309769.7, 41562.254, -0.06343068, 0.44466853, 173789.73, 233227.55, 0.00040473163, 10.003053, 9.996713 
1.4453392e+3, 3.03936e+2, 186046.72, -226407.4, 67506.76, -0.024744334, 0.40807083, 196814.52, 196814.52, 0.00103285, 10.002625, 9.99717 
1.4453743e+3, 3.139338e+2, 321084.2, 18790.623, 8882.706, 0.18422104, 0.41304088, 321344.97, 321344.97, 0.0019561956, 10.002759, 9.998778 
1.4547175e+3, 1.23917624e+2, -1942685.6, -1744606.1, 49145.4, -0.11238954, 0.19463499, -1733083.0, -7451.218, 0.011640448, 9.998033, 10.000728 
1.4547549e+3, 1.3391912e+2, -1951363.6, -1744474.3, 113738.39, 0.18525264, 0.30116305, -1694174.9, -66555.9, 0.0068325973, 9.997551, 10.000286 
1.454789e+3, 1.4391883e+2, -1811934.4, -1666419.1, 48116.582, 0.07259433, 0.2676454, -1651947.9, -122326.125, 0.0028915813, 9.997998, 9.999928 
1.454822e+3, 1.5391724e+2, -1478558.4, -1453998.3, 20736.992, -0.052377097, 0.0955028, -1442178.1, -10543.307, 0.00070428615, 9.99962, 9.999932 
1.454856e+3, 1.63917e+2, -1344005.3, -1391157.8, 22032.459, -0.126443, 0.116441846, -1335312.9, -1674.5703, 0.000058062662, 10.000081, 9.999473 
1.4548919e+3, 1.7391874e+2, -1408055.9, -1359130.0, 34767.82, -0.050844252, 0.31419078, -1341081.4, -105452.984, 0.00000016567238, 9.998922, 9.999576 
1.4549279e+3, 1.8391982e+2, -1284385.9, -1142325.4, 28741.84, 0.040796187, 0.43487716, -1136730.6, 890.78925, 0.0, 9.998628, 10.00054 
1.454964e+3, 1.9392003e+2, -1039447.9, -945841.1, 73533.74, 0.13705264, 0.36342245, -905479.4, 134138.44, 0.0, 9.999525, 10.000781 
1.4549989e+3, 2.0391987e+2, -941336.75, -1026597.75, 33002.043, 0.1520041, 0.3566789, -930055.4, 11563.184, 0.0, 10.000298, 9.999177 
1.455032e+3, 2.139192e+2, -755951.3, -892050.75, 11064.878, 0.06744996, 0.35776085, -755057.6, 88568.164, 0.0, 10.000923, 9.999127 
1.455066e+3, 2.2391853e+2, -602049.75, -793662.2, 38306.285, 0.026686527, 0.40319064, -594675.5, 150957.39, 0.0, 10.001414, 9.998897 
1.4551017e+3, 2.3391795e+2, -464975.34, -665284.2, 74012.06, 0.056285437, 0.42893296, -440595.84, 207043.53, 0.0, 10.001641, 9.998992 
1.4551364e+3, 2.4391697e+2, -376352.1, -560993.94, 21036.896, 0.057530005, 0.4425175, -373985.63, 175662.77, 0.0, 10.001514, 9.999101 
1.4551696e+3, 2.539155e+2, -375520.13, -492106.53, 21634.18, 0.008480395, 0.3508281, -371635.06, 80025.32, 0.000000017460069, 10.0007715, 9.999262 
1.4552043e+3, 2.6391354e+2, -426310.22, -748662.8, 70199.65, 0.0317789, 0.3568927, -411686.1, -58004.01, 0.000002726617, 10.000972, 9.996727 
1.4552417e+3, 2.739108e+2, -86591.98, -548918.94, 54762.777, 0.176934, 0.40476596, -80193.85, 175525.4, 0.000025176965, 10.002709, 9.996578 
1.4552765e+3, 2.8390843e+2, 232022.66, -196827.13, -30484.643, 0.1631924, 0.46594176, 234178.81, 391925.44, 0.0001274956, 10.003577, 9.997915 
1.4553076e+3, 2.939069e+2, 255482.86, -103587.35, 29509.912, -0.08691651, 0.46581426, 257891.95, 317648.25, 0.00046125852, 10.002922, 9.9981985 
1.4553417e+3, 3.0390504e+2, 217810.58, -133575.05, 58178.73, -0.046683565, 0.4926001, 227192.7, 227192.7, 0.0011631552, 10.00251, 9.99786 
1.4553782e+3, 3.139003e+2, 306539.03, 25508.914, 34644.05, 0.2659083, 0.18862525, 310746.78, 310746.78, 0.002196428, 10.002602, 9.9988985 
1.4647155e+3, 1.2388384e+2, -2184339.3, -1870352.3, -27024.36, -0.01718446, 0.28793454, -1868043.3, -142080.69, 0.012283002, 9.9964, 10.000664 
1.4647526e+3, 1.338838e+2, -1846062.1, -1711571.0, -54973.17, 0.17068939, 0.2588114, -1691960.3, -63996.563, 0.00723705, 9.998349, 10.000129 
1.4647861e+3, 1.4388321e+2, -1708482.5, -1634883.6, -49956.11, -0.048646126, 0.21644992, -1609636.3, -79666.95, 0.0030819494, 9.998772, 9.999781 
1.4648205e+3, 1.5388207e+2, -1674319.0, -1551438.5, -61300.52, -0.095033616, 0.09317966, -1526087.9, -94108.42, 0.0007585455, 9.998276, 9.999915 
1.4648554e+3, 1.6388209e+2, -1591500.0, -1480645.8, -21528.268, -0.09518593, 0.1286855, -1476611.8, -142630.98, 0.00006440502, 9.998248, 9.999745 
1.464891e+3, 1.7388365e+2, -1339812.3, -1291578.0, 2731.6296, -0.03824686, 0.27834573, -1291423.8, -55452.43, 0.00000022299002, 9.999234, 9.999893 
1.4649272e+3, 1.8388481e+2, -1124003.8, -1060434.0, 28095.568, 0.05300392, 0.39109445, -1049796.8, 88166.0, 0.0, 9.999725, 10.000565 
1.464964e+3, 1.9388561e+2, -1016872.0, -929520.6, -14445.194, 0.1926389, 0.3736806, -927193.8, 112759.82, 0.0, 9.999668, 10.0008135 
1.4649992e+3, 2.0388551e+2, -1014152.7, -1083025.1, -46520.918, 0.19511431, 0.37931874, -990709.25, -48755.047, 0.0, 9.999886, 9.998994 
1.4650318e+3, 2.1388413e+2, -804033.06, -933285.1, -43181.9, -0.006681946, 0.33009997, -790933.94, 53035.133, 0.0, 10.000674, 9.998965 
1.4650662e+3, 2.238833e+2, -650713.1, -777487.9, -7992.3677, -0.06342933, 0.3544883, -650211.25, 95766.484, 0.0, 10.00092, 9.999246 
1.465103e+3, 2.3388329e+2, -603975.2, -685601.25, -7991.884, 0.10135125, 0.39693126, -603200.06, 44777.625, 0.0, 10.000481, 9.999414 
1.4651385e+3, 2.4388269e+2, -505912.03, -644680.5, -35226.1, 0.17547728, 0.43436682, -497482.06, 52501.086, 0.0, 10.000729, 9.998902 
1.4651719e+3, 2.5388134e+2, -186139.33, -426588.75, -69511.84, 0.09521594, 0.38291478, -167490.44, 284505.2, 0.000000044837254, 10.002197, 9.999018 
1.4652066e+3, 2.638793e+2, -124721.1, -561539.3, 31202.23, 0.06370429, 0.38130826, -122503.56, 231514.19, 0.0000038968087, 10.002872, 9.997093 
1.4652434e+3, 2.7387628e+2, -101059.336, -508694.16, 94121.97, 0.10442326, 0.36055487, -80376.23, 175678.47, 0.000030518888, 10.002398, 9.997012 
1.4652789e+3, 2.8387398e+2, 68792.84, -230714.75, 35849.484, 0.11386653, 0.38655266, 73024.06, 231104.22, 0.00014638911, 10.002266, 9.998313 
1.465312e+3, 2.9387322e+2, 259528.6, -51136.152, -20594.678, 0.072669946, 0.42591998, 260887.9, 320971.4, 0.00051755557, 10.002754, 9.998629 
1.465346e+3, 3.0387196e+2, 373447.84, -53084.434, -6165.988, 0.10300456, 0.4846429, 373536.97, 373536.97, 0.0013017727, 10.00356, 9.997897 
1.4653805e+3, 3.1386754e+2, 569266.0, 85190.06, -93843.75, 0.1341645, 0.22764777, 586822.0, 586822.0, 0.0024608665, 10.004665, 9.998325 
1.4747146e+3, 1.238476e+2, -2200227.5, -1881932.3, 108628.72, 0.21140046, 0.43978336, -1848393.1, -122069.29, 0.012969953, 9.996338, 10.000594 
1.4747494e+3, 1.3384654e+2, -1823930.1, -1658865.4, 2247.7043, 0.020290894, 0.2684494, -1658834.8, -30500.547, 0.0076708426, 9.998327, 10.000495 
1.4747845e+3, 1.438465e+2, -1658468.8, -1553798.1, -86224.06, -0.11748473, 0.23911372, -1505269.4, 25065.768, 0.0032881629, 9.998857, 10.000302 
1.47482e+3, 1.5384863e+2, -1645096.6, -1479390.1, -76120.25, 0.015036882, 0.39252207, -1449731.4, -17415.357, 0.00081847684, 9.998222, 10.00044 
1.4748555e+3, 1.6384952e+2, -1533047.5, -1365146.1, -4828.122, 0.0816349, 0.44881538, -1365007.4, -30699.479, 0.000071419374, 9.998263, 10.000532 
1.4748909e+3, 1.7384851e+2, -1285786.4, -1176941.0, 47935.94, 0.021819377, 0.2612516, -1158840.0, 77476.3, 0.0000002932695, 9.99922, 10.000688 
1.4749265e+3, 1.8384852e+2, -1169899.6, -1166130.4, 18021.857, 0.0041488963, 0.24629217, -1149894.9, -11578.596, 0.0, 9.999762, 9.999826 
1.4749627e+3, 1.938501e+2, -1089164.3, -1069187.0, -9554.969, 0.07293114, 0.40101454, -1065352.9, -25049.947, 0.0, 9.999617, 9.999885 
1.474998e+3, 2.0385009e+2, -1002612.3, -1045242.2, -34850.53, 0.06317108, 0.45441276, -983075.25, -40771.43, 0.0, 9.999822, 9.999284 
1.4750321e+3, 2.1384774e+2, -797230.8, -887311.6, -7487.1685, -0.06214724, 0.26736817, -796612.75, 47713.2, 0.0, 10.000537, 9.999347 
1.4750671e+3, 2.2384627e+2, -655123.2, -756985.44, -30444.418, -0.07426729, 0.19719926, -646717.6, 99621.62, 0.0, 10.000784, 9.999455 
1.4751033e+3, 2.3384614e+2, -604591.5, -662127.2, -14098.101, 0.08039205, 0.20559862, -601322.75, 47016.16, 0.0, 10.00037, 9.999632 
1.4751391e+3, 2.4384584e+2, -545834.5, -709592.3, 949.06104, 0.13793783, 0.27711025, -545829.0, 4513.1733, 0.0, 10.000642, 9.998502 
1.4751737e+3, 2.538453e+2, -242789.92, -511428.25, -2801.2307, 0.05686044, 0.35535342, -242760.72, 209589.94, 0.000000082863835, 10.002052, 9.9985075 
1.4752086e+3, 2.6384452e+2, -45054.953, -365392.28, 15189.955, -0.040776774, 0.44290167, -44336.277, 310024.03, 0.0000048986644, 10.002738, 9.998503 
1.4752431e+3, 2.7384326e+2, -2584.662, -273894.4, 90593.97, -0.17126368, 0.4300034, 24884.686, 281257.22, 0.00003489947, 10.002268, 9.998683 
1.475279e+3, 2.8384128e+2, 17742.9, -316628.63, 36681.37, -0.10336132, 0.4180271, 21719.64, 180112.06, 0.00016158463, 10.002167, 9.997775 
1.475317e+3, 2.9383853e+2, 188319.44, -175177.19, 6992.433, 0.28750885, 0.33409297, 188453.9, 248874.38, 0.0005683203, 10.0026455, 9.997831 
1.4753518e+3, 3.038367e+2, 325336.2, -122281.67, 24805.02, 0.30772942, 0.3960479, 326706.6, 326706.6, 0.0014328999, 10.003435, 9.997476 
1.4753808e+3, 3.1383553e+2, 446170.28, -88133.89, -19801.236, -0.33022046, 0.50021815, 446903.1, 446903.1, 0.0027097252, 10.004334, 9.997279 
1.4847127e+3, 1.23809494e+2, -2032841.1, -1770143.6, 205691.38, 0.3545788, 0.375664, -1657440.3, 69258.016, 0.013700781, 9.997325, 10.000909 
1.4847463e+3, 1.338098e+2, -1920020.9, -1627139.1, 62547.168, -0.070925936, 0.27776778, -1614341.0, 14354.611, 0.00813248, 9.997307, 10.001221 
1.4847831e+3, 1.4381067e+2, -1857999.1, -1589333.3, -5130.348, -0.03561655, 0.27465403, -1589235.4, -58547.3, 0.0035089266, 9.997252, 10.000821 
1.4848183e+3, 1.5381353e+2, -1595404.0, -1395372.4, -19499.121, 0.03048048, 0.44693142, -1393489.4, 39172.785, 0.0008836724, 9.998317, 10.000961 
1.484854e+3, 1.6381477e+2, -1430270.5, -1302991.8, 64061.03, 0.07923617, 0.50660855, -1276332.9, 58317.242, 0.00007901186, 9.998944, 10.00062 
1.4848904e+3, 1.7381363e+2, -1299693.9, -1174256.9, 36822.94, 0.06476033, 0.30053416, -1164246.1, 72412.49, 0.00000037325287, 9.9991045, 10.000753 
1.4849263e+3, 1.8381323e+2, -1274287.1, -1235340.3, -3412.9858, 0.045411956, 0.25011364, -1235043.5, -96381.836, 0.0, 9.999125, 9.9996605 
1.4849614e+3, 1.9381407e+2, -1151310.6, -1116974.0, 3131.4758, 0.010205404, 0.34776053, -1116690.8, -76035.65, 0.0, 9.999266, 9.999727 
1.4849968e+3, 2.0381403e+2, -1011534.8, -1017523.06, 53682.99, -0.0044205105, 0.39354345, -960762.5, -18106.121, 0.0, 9.999632, 9.999559 
1.4850332e+3, 2.1381272e+2, -790602.56, -843872.7, 58185.684, 0.021770943, 0.27835578, -753245.44, 91423.055, 0.0, 10.00041, 9.999704 
1.4850692e+3, 2.2381176e+2, -637785.94, -737666.3, 20919.682, 0.06694463, 0.23370978, -633581.4, 113095.44, 0.0, 10.000857, 9.999548 
1.4851043e+3, 2.3381142e+2, -517397.84, -610891.6, -179.08131, 0.114906706, 0.21336482, -517397.5, 131280.38, 0.0, 10.000936, 9.999706 
1.4851396e+3, 2.4381076e+2, -466664.88, -672229.2, 76326.35, 0.122725055, 0.24548668, -441424.03, 109259.73, 0.0, 10.001191, 9.998494 
1.4851758e+3, 2.5380966e+2, -281591.97, -530420.9, 91328.734, 0.07701106, 0.268893, -251669.47, 201027.11, 0.00000011463164, 10.001785, 9.998507 
1.4852113e+3, 2.638087e+2, -114204.43, -377479.53, 68249.57, 0.0074417647, 0.33109376, -97563.695, 257143.28, 0.000005857849, 10.002177, 9.99869 
1.485246e+3, 2.7380803e+2, 24440.205, -236962.2, 6037.173, -0.1123225, 0.36107817, 24579.56, 281292.63, 0.000039275426, 10.00236, 9.99889 
1.4852817e+3, 2.8380644e+2, 64189.824, -343930.5, -55451.9, -0.06756791, 0.39912254, 71589.97, 230320.17, 0.0001769937, 10.002722, 9.997309 
1.4853194e+3, 2.938035e+2, 274562.3, -195365.25, -84859.4, 0.23756184, 0.35756925, 289416.66, 350179.66, 0.00061951595, 10.003499, 9.997284 
1.485355e+3, 3.0380085e+2, 455214.16, -41652.93, -13677.542, 0.25708023, 0.35681865, 455590.38, 455590.38, 0.0015546706, 10.004232, 9.997661 
1.4853866e+3, 3.1380028e+2, 497849.3, -55797.645, -64583.953, -0.19077192, 0.4965076, 505283.3, 505283.3, 0.0029237291, 10.004648, 9.9973545 
1.4947082e+3, 1.2376971e+2, -1941336.8, -1598041.4, 67696.56, 0.13035913, 0.10413188, -1585174.1, 141909.42, 0.014485426, 9.997404, 10.002054 
1.4947425e+3, 1.337741e+2, -1860101.3, -1480963.4, 60504.418, -0.19742037, 0.3140072, -1471541.9, 157500.42, 0.008627366, 9.99722, 10.002269 
1.4947823e+3, 1.4377598e+2, -1812676.0, -1507388.1, 9301.076, 0.113800324, 0.32645974, -1507105.0, 23920.07, 0.0037456865, 9.997283, 10.001378 
1.4948149e+3, 1.5377684e+2, -1567147.3, -1337811.5, 32796.0, -0.15171249, 0.25417563, -1333213.8, 99802.58, 0.0009542572, 9.998312, 10.001367 
1.49485e+3, 1.637779e+2, -1459008.3, -1383091.6, 61046.906, -0.22594653, 0.29844463, -1349164.3, -14157.732, 0.00008722728, 9.999029, 10.000027 
1.4948891e+3, 1.7377903e+2, -1359333.3, -1291258.5, 48020.094, 0.014239951, 0.39455456, -1266436.0, -29438.043, 0.0000004647829, 9.999077, 9.999963 
1.494926e+3, 1.8377909e+2, -1238273.8, -1170508.9, -12788.582, 0.08845759, 0.41496864, -1168175.8, -29177.736, 0.0, 9.999159, 10.0000925 
1.4949597e+3, 1.9377764e+2, -1117489.3, -1038020.94, 14342.289, -0.090305306, 0.22613767, -1035511.7, 5497.7476, 0.0, 9.999222, 10.000292 
1.4949957e+3, 2.0377739e+2, -999618.8, -976991.5, 67880.57, -0.1013336, 0.20435983, -919488.2, 23522.979, 0.0, 9.999558, 9.999875 
1.4950353e+3, 2.1377908e+2, -789333.56, -810942.8, 94926.984, 0.17112395, 0.35783595, -704598.25, 140398.53, 0.0, 10.000281, 9.9999895 
1.4950724e+3, 2.2377977e+2, -658406.56, -757255.1, 12505.371, 0.28139877, 0.46697757, -656849.06, 90141.445, 0.0, 10.000747, 9.999474 
1.4951053e+3, 2.3377897e+2, -545797.3, -638612.2, 9449.289, 0.1236274, 0.4112633, -544845.06, 104150.945, 0.0, 10.000797, 9.999586 
1.4951402e+3, 2.4377735e+2, -462934.28, -633104.4, 85565.82, 0.037493575, 0.33876434, -427350.47, 123658.48, 0.0, 10.001051, 9.998833 
1.4951776e+3, 2.5377434e+2, -273056.84, -485005.53, 123468.17, 0.07261477, 0.13011956, -216319.92, 236714.2, 0.00000015644366, 10.001662, 9.998879 
1.4952147e+3, 2.6377195e+2, -204352.64, -537664.56, 65061.375, 0.11245827, 0.071832746, -192103.06, 162954.22, 0.000006865855, 10.002056, 9.997649 
1.4952512e+3, 2.7377072e+2, -84364.164, -430548.44, 23228.287, 0.16408265, 0.16993786, -82812.55, 174262.47, 0.00004412312, 10.002222, 9.997627 
1.4952864e+3, 2.8376955e+2, 17307.473, -416040.63, -37365.31, 0.103177786, 0.34182522, 20505.682, 179597.8, 0.00019336937, 10.002603, 9.996875 
1.4953193e+3, 2.9376826e+2, 231948.75, -251240.02, -33441.3, -0.13494538, 0.48706725, 234252.22, 295362.7, 0.000667863, 10.003353, 9.996975 
1.4953555e+3, 3.0376452e+2, 470371.16, 31913.916, -360.51312, -0.119319856, 0.3764212, 470371.47, 470371.47, 0.0016538595, 10.004066, 9.998239 
1.4953962e+3, 3.1376216e+2, 523556.97, 51862.19, -16660.832, 0.27049744, 0.26419652, 524144.72, 524144.72, 0.0030776027, 10.00443, 9.998195 
1.5047039e+3, 1.2373244e+2, -2079962.8, -1627672.8, 23861.035, 0.036281075, 0.04903076, -1626417.4, 101031.97, 0.015336173, 9.99631, 10.002363 
1.5047395e+3, 1.3373846e+2, -1877313.8, -1468170.5, 39870.035, -0.19083278, 0.39144623, -1464321.5, 165071.75, 0.0091627855, 9.996995, 10.002473 
1.5047807e+3, 1.4374048e+2, -1786508.3, -1488921.3, -34189.918, 0.23319231, 0.40636015, -1485043.8, 46331.035, 0.0040015904, 9.997459, 10.001409 
1.5048134e+3, 1.5374008e+2, -1636620.3, -1366096.5, -67626.81, -0.091679245, 0.20615312, -1350132.9, 83243.4, 0.001031135, 9.997824, 10.001401 
1.5048487e+3, 1.6374075e+2, -1571527.4, -1428749.5, -21185.803, -0.21745703, 0.20676163, -1425672.1, -90302.95, 0.000096309515, 9.998199, 10.000128 
1.504888e+3, 1.7374279e+2, -1364971.9, -1275062.9, 12444.275, 0.005217185, 0.38095614, -1273372.3, -36020.426, 0.000000575819, 9.99894, 10.000144 
1.5049253e+3, 1.8374322e+2, -1190965.6, -1154974.5, -4450.987, 0.089946136, 0.431645, -1154432.3, -15083.871, 0.0, 9.999533, 10.000007 
1.5049596e+3, 1.9374132e+2, -1000079.94, -990879.8, -50973.15, -0.061607987, 0.20881812, -944299.56, 97065.6, 0.0, 10.000086, 10.000187 
1.5049958e+3, 2.0374098e+2, -876611.8, -904830.4, -12843.5, -0.060401764, 0.1804905, -871641.6, 71726.48, 0.0, 10.000359, 9.999986 
1.5050355e+3, 2.1374317e+2, -768578.7, -788255.44, -18122.344, 0.18166883, 0.37388307, -757796.4, 87552.23, 0.0, 10.000367, 10.000111 
1.5050729e+3, 2.23744e+2, -690221.6, -780199.56, -87990.01, 0.27391306, 0.49662602, -636386.25, 110954.67, 0.0, 10.0005865, 9.99938 
1.5051062e+3, 2.3374279e+2, -490687.5, -625868.4, -117687.67, 0.11263667, 0.41360405, -422561.88, 226789.13, 0.0, 10.001246, 9.999449 
1.5051414e+3, 2.437411e+2, -361874.72, -572394.6, -28970.926, 0.047461834, 0.33833653, -357960.63, 193404.31, 0.0, 10.001705, 9.998925 
1.5051797e+3, 2.537387e+2, -229972.66, -445734.66, -35769.766, 0.12559716, 0.17916745, -224197.22, 229186.95, 0.00000020302433, 10.001896, 9.9990225 
1.5052173e+3, 2.6373643e+2, -206055.3, -549420.7, -61138.605, 0.18316992, 0.1329187, -195493.98, 159912.2, 0.0000077496, 10.002097, 9.997545 
1.5052538e+3, 2.7373463e+2, -64709.234, -437071.84, -44461.363, 0.20387791, 0.1834412, -59474.0, 197956.39, 0.00004843342, 10.002407, 9.9975 
1.505289e+3, 2.8373334e+2, 58912.355, -363357.47, -1455.0825, 0.100645915, 0.33786365, 58917.37, 218365.11, 0.0002078638, 10.002757, 9.99716 
1.505322e+3, 2.9373258e+2, 259684.94, -191809.69, 14909.791, -0.19624779, 0.5069902, 260176.77, 321634.22, 0.0007072892, 10.003373, 9.997356 
1.5053593e+3, 3.03728e+2, 466545.84, -61740.582, 63768.574, -0.1621619, 0.3286406, 474134.25, 474134.25, 0.0017185489, 10.00441, 9.997448 
1.5054025e+3, 3.1372473e+2, 672376.0, 61947.668, -92639.37, 0.41037837, 0.2237471, 686125.4, 686125.4, 0.0031514226, 10.005694, 9.997677 
1.5146984e+3, 1.23699434e+2, -2111568.3, -1710984.0, -114730.25, -0.19243507, 0.33133286, -1680451.6, 47327.684, 0.016257107, 9.996381, 10.0017605 
1.5147373e+3, 1.3370326e+2, -1944827.9, -1587691.9, 90022.85, -0.13060042, 0.51780915, -1566283.4, 63461.965, 0.009740974, 9.996928, 10.001674 
1.5147781e+3, 1.437045e+2, -1820327.0, -1583263.9, -37168.156, 0.19387195, 0.5358658, -1577573.0, -45838.867, 0.0042781597, 9.997549, 10.000723 
1.5148138e+3, 1.5370335e+2, -1677583.4, -1448184.9, -48334.37, 0.13035035, 0.32020748, -1438416.8, -4675.2407, 0.0011151112, 9.9978075, 10.000846 
1.5148497e+3, 1.6370344e+2, -1497684.9, -1288474.3, -12507.71, 0.026462262, 0.25179318, -1287729.1, 48008.19, 0.000106548556, 9.998246, 10.001068 
1.5148866e+3, 1.7370506e+2, -1284347.0, -1107954.6, 47801.445, -0.0415947, 0.26639614, -1095833.6, 141885.1, 0.0000007145684, 9.998934, 10.001298 
1.5149237e+3, 1.8370576e+2, -1226670.6, -1237745.8, 6695.907, -0.047803044, 0.30321044, -1223519.1, -83807.414, 0.0, 9.999566, 9.999426 
1.5149605e+3, 1.9370517e+2, -1067148.1, -1119309.1, -23142.453, 0.0176009, 0.29469225, -1058360.9, -16639.049, 0.0, 10.00004, 9.999329 
1.5149973e+3, 2.0370491e+2, -896525.8, -932530.75, -24926.83, 0.033369992, 0.33022097, -883780.4, 59946.043, 0.0, 10.000294, 9.99983 
1.515034e+3, 2.1370526e+2, -789699.44, -801168.75, -10420.911, -0.02121319, 0.34405133, -783539.44, 62182.08, 0.0, 10.000231, 10.00009 
1.5150703e+3, 2.2370479e+2, -724594.3, -815457.1, -75726.83, -0.041309543, 0.34325835, -681716.25, 66008.72, 0.0, 10.000426, 9.99922 
1.5151064e+3, 2.3370309e+2, -525346.5, -665881.3, -80835.9, -0.00040145946, 0.23435263, -488506.75, 161233.86, 0.0, 10.001107, 9.999244 
1.5151434e+3, 2.4370219e+2, -394362.8, -610378.25, -31388.15, 0.059197597, 0.2598419, -389894.38, 161855.14, 0.0, 10.001571, 9.998734 
1.515182e+3, 2.5370267e+2, -261480.61, -481054.0, -17983.867, 0.15093851, 0.40728122, -260017.4, 193729.05, 0.00000026346208, 10.0017605, 9.99885 
1.515219e+3, 2.6370198e+2, -171758.47, -446877.16, -57558.0, 0.13668506, 0.48961267, -160202.1, 195553.13, 0.0000083363275, 10.001959, 9.998319 
1.5152536e+3, 2.7369955e+2, -22590.604, -314582.9, -18707.082, -0.055677924, 0.38915253, -21396.977, 236382.98, 0.00005084747, 10.002265, 9.998409 
1.5152892e+3, 2.8369772e+2, 98855.33, -257442.36, 7120.2627, -0.15661381, 0.40374035, 98997.56, 258794.56, 0.00021983829, 10.002645, 9.997944 
1.5153266e+3, 2.936964e+2, 290648.13, -95514.836, 51553.61, -0.08588686, 0.4379664, 297412.2, 359217.6, 0.00074040476, 10.003228, 9.99809 
1.5153654e+3, 3.0369115e+2, 298426.66, -353333.84, 99159.46, -0.0068866163, 0.23314838, 313178.94, 313178.94, 0.0017581307, 10.004186, 9.99554 
1.5154055e+3, 3.1368783e+2, 511807.4, -178024.61, -11652.537, 0.113091804, 0.3394913, 512004.2, 512004.2, 0.0031631168, 10.005338, 9.996175 
1.5246956e+3, 1.2366432e+2, -1974498.5, -1717615.0, -168088.6, -0.16070753, 0.48049423, -1634512.4, 93613.8, 0.017244658, 9.997658, 10.001098 
1.5247357e+3, 1.336658e+2, -1932276.3, -1686117.3, 8612.772, 0.017750088, 0.5189979, -1685816.3, -55700.74, 0.010359608, 9.997468, 10.000732 
1.5247746e+3, 1.4366587e+2, -1807123.4, -1584997.1, -45581.086, 0.09844268, 0.48171145, -1576007.6, -43892.117, 0.0045741852, 9.997696, 10.000632 
1.5248132e+3, 1.5366565e+2, -1416418.4, -1310730.0, -27467.29, 0.22093406, 0.3478563, -1304017.9, 130094.73, 0.0012060112, 9.999551, 10.000948 
1.5248501e+3, 1.6366607e+2, -1232049.9, -1137381.3, -12020.824, 0.18373817, 0.29942364, -1135878.8, 200225.55, 0.000118081814, 10.000005, 10.001249 
1.5248853e+3, 1.7366746e+2, -1314322.9, -1096461.0, -56907.547, -0.04138399, 0.27443197, -1082492.0, 155595.83, 0.0000008766353, 9.998648, 10.001507 
1.5249218e+3, 1.8366824e+2, -1421656.1, -1326004.0, -62083.313, -0.10647667, 0.30712608, -1295461.3, -155380.81, 0.0, 9.998201, 9.999484 
1.5249605e+3, 1.9366817e+2, -1137487.4, -1154416.4, -40406.57, 0.048515145, 0.35165048, -1104668.3, -62581.895, 0.0, 9.99955, 9.999335 
1.5249981e+3, 2.0366797e+2, -900987.9, -936699.44, -17711.799, 0.09159036, 0.39461023, -893693.4, 50397.125, 0.0, 10.000257, 9.999818 
1.5250336e+3, 2.136677e+2, -839460.4, -826418.9, -26549.28, -0.054277275, 0.34481284, -805601.25, 40489.0, 0.0, 9.999884, 10.000079 
1.5250698e+3, 2.2366676e+2, -786160.2, -850627.25, -32250.477, -0.105166465, 0.29928353, -772796.6, -24699.39, 0.0, 10.000017, 9.99918 
1.5251073e+3, 2.3366486e+2, -540952.25, -677447.9, -40308.168, -0.008031945, 0.17238688, -529937.75, 120176.84, 0.0, 10.001016, 9.99921 
1.5251452e+3, 2.4366409e+2, -395016.34, -616333.2, 14243.095, 0.08263768, 0.21383831, -394103.47, 158019.38, 0.0, 10.001607, 9.998665 
1.5251836e+3, 2.5366518e+2, -289183.84, -503768.1, 9197.288, 0.15383495, 0.4322474, -288790.34, 165325.4, 0.0000003530132, 10.001612, 9.998763 
1.5252206e+3, 2.6366475e+2, -183352.23, -434760.38, -14643.355, 0.110973, 0.54355055, -182502.2, 173619.73, 0.00000861748, 10.001803, 9.998476 
1.5252551e+3, 2.7366215e+2, 7938.612, -272988.97, -49854.84, -0.13167134, 0.40098813, 16523.744, 274670.66, 0.00005158201, 10.002373, 9.998634 
1.5252915e+3, 2.8366008e+2, 143291.05, -213318.47, -47248.61, -0.18581535, 0.3717671, 149445.0, 309609.47, 0.00023167011, 10.00286, 9.998146 
1.5253313e+3, 2.9365855e+2, 303332.72, -73615.14, -67414.1, 0.0732129, 0.37105548, 315026.44, 377200.3, 0.0007727991, 10.003235, 9.99825 
1.5253708e+3, 3.036536e+2, 255892.63, -380475.25, 60423.65, 0.15845063, 0.18936169, 261579.1, 261579.1, 0.0017907121, 10.003897, 9.995508 
1.5254095e+3, 3.1365064e+2, 484943.9, -143235.8, 54782.49, 0.01747509, 0.3367258, 489685.6, 489685.6, 0.0031568443, 10.004894, 9.996654 
1.534696e+3, 1.2362637e+2, -2034691.0, -1858998.9, -87336.375, 0.054731376, 0.41369316, -1822971.8, -94475.2, 0.018294634, 9.997721, 10.000091 
1.5347348e+3, 1.3362621e+2, -2010881.8, -1846234.9, -4494.9287, 0.16347189, 0.40172273, -1846112.3, -215609.97, 0.011016667, 9.997461, 9.999636 
1.5347698e+3, 1.4362486e+2, -1752481.8, -1498756.8, -3524.075, -0.16703261, 0.26200363, -1498707.9, 33807.83, 0.0048880493, 9.997798, 10.001186 
1.5348114e+3, 1.5362714e+2, -1361018.4, -1188275.9, 50027.598, 0.078788035, 0.29748973, -1174833.6, 259653.89, 0.0013030368, 9.999527, 10.001803 
1.5348502e+3, 1.6362889e+2, -1265669.6, -1232527.1, -63801.996, 0.15652134, 0.36542612, -1183179.5, 153287.94, 0.00013086536, 10.000098, 10.000558 
1.5348837e+3, 1.736301e+2, -1378946.8, -1232081.1, -103534.45, -0.07152125, 0.41415602, -1178581.9, 59876.094, 0.0000010420176, 9.998651, 10.000576 
1.5349196e+3, 1.8363073e+2, -1372587.5, -1232392.8, -37796.496, -0.17536055, 0.45860425, -1222852.0, -82398.4, 0.0, 9.998231, 10.0001135 
1.5349592e+3, 1.936304e+2, -1078499.9, -1023923.6, 18166.11, -0.05471806, 0.38564783, -1018429.9, 24028.258, 0.0, 9.999512, 10.00025 
1.5349977e+3, 2.0363022e+2, -906698.2, -923851.6, -32819.234, 0.016042637, 0.37227246, -881353.5, 63106.26, 0.0, 10.0001545, 9.999954 
1.535034e+3, 2.1363048e+2, -859184.75, -836294.7, -32519.209, -0.0026044312, 0.3740065, -813265.25, 33189.676, 0.0, 9.99975, 10.000074 
1.535071e+3, 2.2362988e+2, -801799.0, -850268.2, -12368.247, -0.011305888, 0.36129588, -798825.4, -50367.152, 0.0, 9.999869, 9.999256 
1.5351085e+3, 2.33628e+2, -548658.1, -666394.6, 8686.44, 0.0102637615, 0.22276013, -548020.7, 102453.06, 0.0, 10.000894, 9.999347 
1.5351462e+3, 2.4362664e+2, -419632.53, -628956.0, 8911.89, 0.026950654, 0.19764906, -419253.8, 133232.31, 0.0, 10.001444, 9.998656 
1.5351842e+3, 2.5362632e+2, -312743.7, -520584.0, 19178.49, 0.051734395, 0.27439743, -310988.8, 143502.78, 0.0000004707298, 10.001479, 9.998708 
1.5352215e+3, 2.636251e+2, -228075.63, -504945.88, -9545.515, 0.010225057, 0.32866848, -227746.92, 128758.08, 0.000008627056, 10.001698, 9.998049 
1.5352575e+3, 2.7362263e+2, -40666.758, -348968.1, -20436.422, -0.13689518, 0.24600384, -39317.984, 219211.8, 0.00005250251, 10.002265, 9.998166 
1.5352952e+3, 2.836205e+2, 97759.914, -279936.66, -42631.055, -0.112804435, 0.2572303, 102511.94, 263061.63, 0.00024464625, 10.002728, 9.99776 
1.5353358e+3, 2.93619e+2, 255298.45, -144918.2, -37160.324, 0.18659063, 0.29411387, 258719.56, 321282.16, 0.0008062841, 10.003103, 9.997828 
1.5353756e+3, 3.0361536e+2, 329345.8, -176118.89, 79921.29, 0.2398415, 0.20528883, 341681.47, 341681.47, 0.0018300135, 10.003693, 9.997 
1.5354137e+3, 3.1361303e+2, 582137.75, 165418.48, 118605.57, -0.08521664, 0.2272069, 613530.06, 613530.06, 0.0031750444, 10.004476, 9.99896 
1.544694e+3, 1.2358759e+2, -2021239.8, -1846096.5, 29370.781, 0.08525593, 0.30657408, -1841302.4, -112427.79, 0.019406972, 9.997784, 10.000141 
1.5447333e+3, 1.3358752e+2, -1815538.0, -1784304.0, 17036.154, 0.22295043, 0.33175397, -1776809.9, -145932.0, 0.0117135905, 9.998922, 9.999352 
1.544768e+3, 1.4358605e+2, -1631365.4, -1449226.3, 77745.375, -0.1617629, 0.19676812, -1420554.4, 112337.7, 0.0052204016, 9.998669, 10.001109 
1.5448098e+3, 1.5358856e+2, -1587734.6, -1310221.1, 45885.293, 0.060530435, 0.26261613, -1302831.1, 132032.19, 0.0014059248, 9.997997, 10.0017185 
1.544849e+3, 1.6359033e+2, -1579318.9, -1419915.8, -86228.96, 0.14083697, 0.3519074, -1382196.0, -45351.47, 0.00014487762, 9.998114, 10.000216 
1.5448828e+3, 1.7359126e+2, -1226167.3, -1205318.8, -109181.07, -0.069705635, 0.4083767, -1106065.4, 132773.89, 0.000001197513, 9.999888, 10.000161 
1.5449189e+3, 1.835918e+2, -1039581.3, -1023847.25, -17729.88, -0.16085126, 0.4484476, -1012317.44, 128518.664, 0.0, 10.000328, 10.000525 
1.5449582e+3, 1.9359191e+2, -1155497.8, -997019.1, -6938.898, -0.046617024, 0.36726117, -996715.94, 46117.906, 0.0, 9.998727, 10.000807 
1.5449972e+3, 2.035919e+2, -1142846.6, -1042336.56, -24089.145, 0.039796036, 0.3422939, -1036861.4, -92028.71, 0.0, 9.998569, 9.999903 
1.545035e+3, 2.1359196e+2, -691761.56, -770852.2, -51554.6, 0.06189794, 0.33941266, -666332.2, 180498.98, 0.0, 10.000986, 9.999926 
1.5450726e+3, 2.2359154e+2, -462978.13, -692020.6, -52693.914, 0.06876199, 0.3559582, -451436.84, 297397.28, 0.0, 10.0022335, 9.999196 
1.5451099e+3, 2.3359047e+2, -467248.34, -632372.9, -75283.305, 0.040197738, 0.3065994, -438078.3, 212764.9, 0.0, 10.0014925, 9.999286 
1.5451476e+3, 2.435892e+2, -448286.72, -639544.25, -58570.824, 0.032305665, 0.29436272, -431775.38, 121079.49, 0.000000000009610117, 10.001221, 9.998701 
1.5451859e+3, 2.5358775e+2, -264741.25, -490760.06, -57752.027, 0.060546976, 0.2544996, -250839.56, 204029.78, 0.0000005675007, 10.001776, 9.998781 
1.5452236e+3, 2.6358595e+2, -174469.05, -500372.5, -51300.586, 0.04298996, 0.2585615, -166584.56, 190302.38, 0.000008574752, 10.00217, 9.997851 
1.5452604e+3, 2.7358377e+2, -45452.742, -387875.66, -70240.8, -0.075628884, 0.23665571, -31604.39, 227304.67, 0.000054092365, 10.002377, 9.997856 
1.5452985e+3, 2.8358164e+2, 57043.594, -339737.0, -67567.0, -0.04107325, 0.27581295, 68233.85, 229164.83, 0.00025774646, 10.002644, 9.997369 
1.5453391e+3, 2.9357967e+2, 211182.45, -215071.56, -93680.5, 0.21904752, 0.3097429, 230862.56, 293814.47, 0.00084183685, 10.00303, 9.997364 
1.545379e+3, 3.0357662e+2, 320323.13, -113533.39, 27561.775, 0.24960558, 0.28580457, 322067.03, 322067.03, 0.0018862257, 10.003327, 9.997614 
1.5454176e+3, 3.1357446e+2, 477359.97, 193554.72, -48162.813, -0.058963597, 0.25358415, 485310.66, 485310.66, 0.0032434105, 10.003379, 9.9997 
1.5546897e+3, 1.23548865e+2, -1911042.8, -1640541.6, 142853.56, -0.1622914, 0.25702778, -1579069.4, 150181.98, 0.020587768, 9.997872, 10.001532 
1.5547311e+3, 1.3355e+2, -1766033.0, -1671554.6, 38851.727, 0.06927752, 0.33381888, -1657630.1, -26390.396, 0.012455585, 9.998887, 10.000144 
1.554769e+3, 1.435497e+2, -1668435.5, -1544056.1, 39582.71, 0.031324595, 0.2940213, -1532527.8, 714.67145, 0.0055746003, 9.9987335, 10.000427 
1.5548082e+3, 1.5355025e+2, -1666032.0, -1463339.8, 29383.973, 0.07781576, 0.26304764, -1459165.9, -23929.246, 0.001515748, 9.997966, 10.000677 
1.5548462e+3, 1.6355066e+2, -1572562.3, -1418665.0, -41697.96, 0.038676478, 0.27762526, -1408093.3, -70860.32, 0.00016035176, 9.998157, 10.000211 
1.5548824e+3, 1.7355095e+2, -1214183.9, -1177313.5, -33914.313, -0.10891833, 0.2564121, -1157147.6, 82083.86, 0.0000013687348, 9.999876, 10.0003605 
1.5549195e+3, 1.8355154e+2, -1021558.8, -994874.7, -72697.2, -0.14646965, 0.28038064, -934305.4, 206920.94, 0.0, 10.000362, 10.00071 
1.5549575e+3, 1.9355273e+2, -1150063.6, -975639.0, -60596.723, -0.004730584, 0.29134595, -956653.6, 86559.2, 0.0, 9.998683, 10.000975 
1.5549962e+3, 2.035531e+2, -1171810.5, -1088951.5, 35770.832, 0.07614621, 0.30678868, -1075645.6, -130437.1, 0.0, 9.998499, 9.999623 
1.555036e+3, 2.1355222e+2, -731413.8, -828268.06, 50512.926, 0.06308244, 0.24430831, -709864.25, 137354.02, 0.0, 10.000865, 9.999598 
1.5550746e+3, 2.2355178e+2, -507206.5, -746904.8, -73660.1, 0.037058916, 0.28793496, -486380.03, 262844.4, 0.0, 10.002072, 9.998897 
1.5551111e+3, 2.3355223e+2, -507901.28, -690050.6, -93156.17, -0.0008364667, 0.4236178, -468696.75, 182526.28, 0.0, 10.001371, 9.998951 
1.5551485e+3, 2.4355169e+2, -461939.2, -637016.8, -51992.098, 0.0011454513, 0.49924392, -447663.34, 105566.22, 0.0, 10.001084, 9.998786 
1.555188e+3, 2.5354943e+2, -267696.3, -470858.0, -25684.39, 0.094258025, 0.36356452, -264499.5, 190749.3, 0.0000005355393, 10.00166, 9.998975 
1.5552266e+3, 2.635473e+2, -199013.83, -522929.4, -48315.95, 0.10330465, 0.3198899, -191960.52, 165307.67, 0.000008556659, 10.002045, 9.997756 
1.5552633e+3, 2.7354553e+2, -75033.5, -422560.56, -46626.176, -0.025225453, 0.3522793, -68886.59, 190398.94, 0.000056207, 10.002262, 9.997669 
1.5553012e+3, 2.8354332e+2, 3815.0483, -424802.13, -61753.016, -0.05149783, 0.41709444, 12534.723, 173843.92, 0.00027237786, 10.00253, 9.996841 
1.555341e+3, 2.9354042e+2, 159760.1, -294536.3, -64102.2, 0.09062209, 0.40865472, 168631.8, 231974.06, 0.0008833848, 10.002913, 9.996873 
1.5553808e+3, 3.035375e+2, 270011.13, -163440.13, 21746.822, 0.096151955, 0.43108055, 271099.44, 271099.44, 0.0019681302, 10.003121, 9.997358 
1.555421e+3, 3.135348e+2, 376610.84, 95000.125, -12286.91, -0.08134369, 0.36650708, 377145.94, 377145.94, 0.0033755742, 10.002952, 9.999202 
1.5646878e+3, 1.2351002e+2, -1880033.3, -1574370.0, 115792.58, -0.13005167, 0.2999497, -1535458.5, 194174.83, 0.021849003, 9.99787, 10.002001 
1.5647283e+3, 1.3351126e+2, -1875386.0, -1643672.6, -42730.516, -0.025596915, 0.3203448, -1636043.8, -4424.9956, 0.013250772, 9.997774, 10.000889 
1.5647683e+3, 1.4351197e+2, -1791765.5, -1620850.8, -17663.088, 0.15118167, 0.3439108, -1619044.5, -85433.25, 0.0059556314, 9.997986, 10.000256 
1.5648067e+3, 1.5351197e+2, -1551706.9, -1447259.9, -567.15576, 0.111238495, 0.2953174, -1447256.8, -11644.512, 0.0016345053, 9.998935, 10.000312 
1.5648445e+3, 1.6351183e+2, -1409876.9, -1338564.0, 540.4459, 0.02365035, 0.27358514, -1338559.9, -945.7233, 0.00017771397, 9.999267, 10.000231 
1.5648822e+3, 1.7351161e+2, -1356356.8, -1236637.0, -10939.955, -0.06789039, 0.1950085, -1235645.6, 3969.814, 0.0000016137079, 9.998852, 10.000454 
1.5649197e+3, 1.8351196e+2, -1234666.1, -1135850.1, -76047.79, -0.07761763, 0.20659027, -1094569.5, 47042.03, 0.0, 9.999056, 10.000373 
1.5649572e+3, 1.9351354e+2, -894590.3, -900802.94, -130033.88, 0.006965739, 0.294854, -767625.6, 275971.4, 0.0, 10.000632, 10.000554 
1.5649958e+3, 2.0351408e+2, -800274.75, -894175.5, -16790.066, 0.06498657, 0.34738725, -797362.9, 148229.27, 0.0, 10.000997, 9.999746 
1.5650362e+3, 2.1351306e+2, -918514.25, -889612.75, 23083.916, 0.07335431, 0.24858195, -876829.5, -29227.98, 0.0, 9.999477, 9.999831 
1.5650754e+3, 2.2351249e+2, -933333.1, -944174.06, -43897.973, 0.06890951, 0.26272273, -894522.25, -144914.4, 0.0, 9.999102, 9.998976 
1.5651125e+3, 2.3351283e+2, -591435.06, -719744.25, -51841.727, 0.042813092, 0.3781462, -573107.06, 78500.234, 0.0, 10.000743, 9.999046 
1.5651503e+3, 2.4351226e+2, -368959.34, -625519.56, 8060.4775, 0.04480892, 0.45778346, -368706.34, 184907.89, 0.0, 10.001861, 9.998493 
1.5651897e+3, 2.5351027e+2, -233470.2, -492746.72, -24333.361, 0.08344076, 0.3828188, -231206.27, 224425.81, 0.00000039469393, 10.002062, 9.998629 
1.5652284e+3, 2.635081e+2, -164836.02, -523097.06, -59141.24, 0.075394966, 0.3655628, -155325.53, 202326.55, 0.000008163994, 10.0023575, 9.9976015 
1.5652658e+3, 2.7350572e+2, -2688.368, -398490.3, -80584.12, -0.019726621, 0.34900308, 13089.38, 272764.6, 0.000058093792, 10.002814, 9.997562 
1.5653041e+3, 2.8350303e+2, 83987.03, -418095.44, -61827.938, -0.045849547, 0.3873191, 91488.625, 253192.23, 0.00028837356, 10.003215, 9.996572 
1.5653436e+3, 2.9350013e+2, 238735.67, -292338.72, -77764.98, 0.038833078, 0.4174945, 249888.53, 313626.53, 0.00093036675, 10.003603, 9.99657 
1.5653835e+3, 3.0349755e+2, 336668.2, -127005.31, 20556.135, 0.040544163, 0.48899364, 337577.72, 337577.72, 0.0020714465, 10.003535, 9.997409 
1.5654242e+3, 3.1349507e+2, 293851.28, 16248.165, -40870.902, -0.015268007, 0.4360351, 299743.53, 299743.53, 0.0035622686, 10.00249, 9.998898 
1.5746865e+3, 1.234709e+2, -1920135.9, -1663526.3, -34845.594, -0.07285459, 0.42089725, -1658878.6, 71143.29, 0.023204513, 9.9979, 10.001359 
1.5747248e+3, 1.3347179e+2, -1839436.9, -1552908.8, -39092.797, -0.15850717, 0.34012267, -1547670.8, 84339.87, 0.014108494, 9.997715, 10.00154 
1.574766e+3, 1.4347318e+2, -1753769.4, -1566683.9, -2490.923, 0.09499658, 0.38142258, -1566650.6, -32654.875, 0.0063687824, 9.998074, 10.000596 
1.5748057e+3, 1.5347378e+2, -1530582.0, -1404706.6, 42005.58, 0.091001496, 0.36564034, -1391976.5, 44013.508, 0.00176415, 9.998936, 10.000608 
1.574844e+3, 1.6347392e+2, -1393179.8, -1319720.1, -21342.152, 0.005893082, 0.34947547, -1313969.8, 24017.752, 0.00019721544, 9.999328, 10.000331 
1.5748815e+3, 1.7347336e+2, -1358742.1, -1236955.8, -19334.752, -0.026652718, 0.23070477, -1233959.9, 6029.691, 0.0000019795527, 9.998831, 10.000462 
1.5749194e+3, 1.8347333e+2, -1288125.4, -1256421.1, -36441.94, -0.049405098, 0.23863295, -1232532.8, -90542.79, 0.0, 9.999089, 9.999532 
1.5749569e+3, 1.934745e+2, -973494.9, -1054427.3, -61734.65, -0.0902756, 0.38607335, -940145.94, 103839.21, 0.0, 10.000585, 9.999524 
1.5749954e+3, 2.0347498e+2, -776260.5, -831901.4, -67561.07, -0.08794614, 0.47364935, -731016.06, 214966.2, 0.0, 10.000937, 10.000202 
1.5750352e+3, 2.1347444e+2, -886765.06, -797133.5, -27587.053, 0.01275603, 0.3525196, -789323.25, 58658.38, 0.0, 9.999361, 10.000522 
1.5750746e+3, 2.2347358e+2, -915642.9, -876901.8, -6325.9414, 0.07714, 0.27540952, -875895.0, -125909.61, 0.0, 9.998968, 9.999501 
1.5751138e+3, 2.3347229e+2, -581206.94, -661855.4, 18937.973, 0.08686482, 0.17695536, -576981.3, 75014.805, 0.0, 10.000586, 9.99952 
1.5751524e+3, 2.4347109e+2, -443735.63, -738597.3, 12540.424, 0.06167433, 0.19458969, -443203.25, 110804.59, 0.0, 10.001677, 9.997804 
1.5751907e+3, 2.5347027e+2, -317099.3, -639483.5, -7857.145, -0.03167418, 0.32401133, -316907.9, 139110.95, 0.00000029448665, 10.001941, 9.997679 
1.575229e+3, 2.6346838e+2, -203831.69, -577535.1, -49189.695, -0.10519131, 0.4041364, -197465.42, 160573.66, 0.000007127328, 10.002241, 9.997286 
1.5752676e+3, 2.7346444e+2, -28968.857, -425050.9, -48836.934, -0.13911583, 0.2492693, -23036.125, 237040.89, 0.00005845978, 10.002696, 9.9974375 
1.5753067e+3, 2.8346094e+2, 56968.652, -452768.4, -56481.695, -0.12538746, 0.21798642, 63152.13, 225265.25, 0.00030147994, 10.003112, 9.996386 
1.5753467e+3, 2.9345888e+2, 197080.92, -340940.78, -40831.688, -0.033075813, 0.35061696, 200162.1, 264301.13, 0.00097633264, 10.003431, 9.996322 
1.5753864e+3, 3.0345687e+2, 327413.38, -86566.84, -10752.327, -0.038857415, 0.47484386, 327692.44, 327692.44, 0.0021812483, 10.003307, 9.997778 
1.5754266e+3, 3.1345528e+2, 243149.53, -6577.1626, -47209.273, -0.050440658, 0.46249497, 251776.14, 251776.14, 0.0037703633, 10.002173, 9.99887 
1.584685e+3, 1.23432495e+2, -2011689.1, -1746292.6, 58760.348, 0.022610305, 0.4396786, -1733864.8, -3467.3215, 0.024665277, 9.997453, 10.000987 
1.584723e+3, 1.3343292e+2, -1886621.6, -1587637.8, 42166.926, -0.07568269, 0.32551157, -1581804.5, 50586.805, 0.0150364665, 9.997448, 10.001422 
1.5847644e+3, 1.4343393e+2, -1772750.6, -1563556.5, 78157.01, 0.16412984, 0.32913384, -1537581.5, -3200.9995, 0.0068181083, 9.997901, 10.0006895 
1.5848038e+3, 1.5343516e+2, -1571864.1, -1416446.8, 83991.5, 0.052667256, 0.36688095, -1379729.9, 56639.49, 0.0019058621, 9.9986105, 10.000682 
1.5848424e+3, 1.6343574e+2, -1455798.8, -1353196.0, -9299.178, -0.06477891, 0.3928281, -1352360.0, -13997.194, 0.0002187055, 9.998921, 10.000291 
1.5848808e+3, 1.734352e+2, -1347367.5, -1230961.9, -42220.75, 0.034668438, 0.2786617, -1217260.9, 23104.064, 0.000002466339, 9.998927, 10.000444 
1.5849192e+3, 1.834349e+2, -1344455.5, -1320369.6, 6195.5654, 0.07185494, 0.27499992, -1318869.4, -176501.5, 0.0, 9.998871, 9.999198 
1.5849566e+3, 1.9343531e+2, -1229128.9, -1215289.6, 15494.022, -0.087291315, 0.38610634, -1205240.4, -160870.64, 0.0, 9.998999, 9.99918 
1.5849948e+3, 2.0343539e+2, -1012002.9, -972681.06, 3134.7722, -0.15204445, 0.45963654, -972432.7, -26061.916, 0.0, 9.999422, 9.999977 
1.5850347e+3, 2.1343492e+2, -731101.0, -746895.5, -47508.152, -0.0159913, 0.36637092, -690838.2, 157531.97, 0.0, 10.000507, 10.00033 
1.5850747e+3, 2.2343397e+2, -617055.2, -727170.8, -31683.668, 0.09347161, 0.29165965, -608589.6, 141784.73, 0.0, 10.001005, 9.999554 
1.5851149e+3, 2.3343247e+2, -552903.1, -640178.8, -51460.664, 0.14341226, 0.16746268, -529069.06, 123316.09, 0.0, 10.000745, 9.999605 
1.5851542e+3, 2.4343087e+2, -562807.1, -796960.8, -40244.367, 0.12023875, 0.14374183, -556083.3, -1684.1278, 0.0, 10.000891, 9.997765 
1.5851922e+3, 2.534293e+2, -331649.78, -654567.06, -27256.018, -0.051186576, 0.20777148, -329365.38, 127051.414, 0.00000023115544, 10.00189, 9.997585 
1.5852308e+3, 2.634272e+2, -153425.95, -566874.7, -14891.556, -0.15201208, 0.27652752, -152890.28, 205549.48, 0.0000061293663, 10.002652, 9.997154 
1.5852705e+3, 2.7342427e+2, 23105.965, -411331.53, -35132.375, -0.11770792, 0.23558354, 25928.732, 286399.38, 0.000059474278, 10.0031185, 9.997317 
1.5853103e+3, 2.834214e+2, 111260.03, -375860.9, -22285.615, -0.07656338, 0.25535548, 112277.47, 274777.84, 0.0003129247, 10.003274, 9.996828 
1.5853493e+3, 2.9341885e+2, 152922.45, -291723.84, 10058.715, -0.057728678, 0.28502947, 153149.89, 217675.34, 0.0010186619, 10.002825, 9.9969425 
1.585389e+3, 3.0341607e+2, 258725.84, -149190.31, 82436.16, -0.08257804, 0.30287, 274755.53, 274755.53, 0.002283567, 10.002917, 9.997574 
1.5854304e+3, 3.134153e+2, 419412.06, 12685.277, -58488.54, 0.05280186, 0.41851917, 427655.8, 427655.8, 0.0039591896, 10.003648, 9.998319 
1.594682e+3, 1.2339496e+2, -1995693.6, -1746204.6, 25195.402, -0.06599679, 0.31838605, -1743685.6, -12928.495, 0.026239868, 9.9975605, 10.000949 
1.5947233e+3, 1.3339487e+2, -1961613.4, -1742455.5, 68929.89, 0.18697126, 0.25677344, -1722578.4, -89820.484, 0.016040104, 9.99744, 10.000359 
1.5947637e+3, 1.4339423e+2, -1777291.1, -1600121.1, 93167.95, 0.26828778, 0.16406412, -1560146.6, -25381.3, 0.0073062, 9.997999, 10.000401 
1.5948011e+3, 1.5339632e+2, -1585604.6, -1450993.6, 118548.8, -0.09014934, 0.3085942, -1381976.6, 54771.215, 0.002060233, 9.998624, 10.000446 
1.5948391e+3, 1.633976e+2, -1462483.9, -1377102.4, -18962.145, -0.28974462, 0.42666432, -1373080.5, -34343.508, 0.00024185247, 9.998966, 10.000104 
1.59488e+3, 1.7339729e+2, -1363378.4, -1260691.0, -34470.7, 0.04821564, 0.3542295, -1250192.9, -9453.124, 0.0000030340082, 9.998914, 10.000247 
1.5949197e+3, 1.8339673e+2, -1323104.9, -1285964.6, -2507.278, 0.20172544, 0.32550675, -1285796.1, -143051.38, 0.0, 9.998908, 9.999416 
1.594956e+3, 1.9339606e+2, -1220632.3, -1181474.9, 29531.309, -0.06216098, 0.29780427, -1165621.6, -120871.234, 0.0, 9.998931, 9.999444 
1.5949938e+3, 2.033953e+2, -1085930.3, -1106783.1, 29536.236, -0.2125901, 0.31145582, -1065034.1, -118276.62, 0.0, 9.999338, 9.999096 
1.5950345e+3, 2.1339457e+2, -831852.06, -916610.0, 1562.7354, -0.09568411, 0.2976138, -831823.25, 16943.04, 0.0, 10.000345, 9.99924 
1.5950751e+3, 2.2339387e+2, -669411.25, -803416.6, -42761.55, 0.023522299, 0.32814938, -656928.6, 93844.09, 0.0, 10.000854, 9.999106 
1.5951155e+3, 2.3339345e+2, -597311.5, -703733.06, -46906.324, 0.13397126, 0.34667888, -579588.6, 73184.64, 0.0, 10.000613, 9.999236 
1.5951553e+3, 2.4339166e+2, -553813.56, -743398.4, -12830.144, 0.1274451, 0.30754933, -552949.2, 1838.0099, 0.0, 10.000744, 9.9982 
1.595194e+3, 2.533874e+2, -312904.78, -575133.7, 24483.932, -0.06774967, 0.042243384, -310638.34, 146187.11, 0.00000009760233, 10.001725, 9.998205 
1.5952335e+3, 2.633846e+2, -175899.92, -582443.44, -2857.4604, -0.15837607, 0.0053836014, -175879.84, 182973.55, 0.0000054247644, 10.002509, 9.997119 
1.5952744e+3, 2.73385e+2, -11704.35, -451010.34, -2267.3865, -0.053955123, 0.3069945, -11692.647, 249164.5, 0.00006233866, 10.002968, 9.99712 
1.5953141e+3, 2.833839e+2, 153860.0, -248183.72, -42510.22, -0.013791226, 0.4795531, 158305.67, 321174.9, 0.00032369926, 10.003105, 9.997787 
1.5953515e+3, 2.9337958e+2, 218269.52, -123507.75, 8676.76, -0.1330951, 0.21079428, 218489.66, 283391.63, 0.001047844, 10.002679, 9.998176 
1.5953907e+3, 3.033749e+2, 171434.14, -273642.7, 90335.086, -0.19570495, 0.00002835561, 189070.19, 189070.19, 0.0023505806, 10.002705, 9.996808 
1.595435e+3, 3.1337517e+2, 284531.0, -176920.28, 9873.137, 0.11174857, 0.33517826, 284742.16, 284742.16, 0.004077027, 10.003292, 9.997177 
1.6046794e+3, 1.23355485e+2, -2035093.4, -1751005.3, -74396.055, -0.042079233, 0.23100694, -1732701.9, -1559.5177, 0.027939666, 9.997254, 10.001053 
1.6047217e+3, 1.3335592e+2, -1882499.4, -1741687.8, -41492.715, 0.2711973, 0.2563894, -1730370.8, -97231.34, 0.01712635, 9.998167, 10.000003 
1.6047616e+3, 1.433554e+2, -1760083.0, -1585443.4, 22325.28, 0.2656014, 0.19978742, -1582634.6, -47488.418, 0.007836914, 9.998122, 10.0004225 
1.604799e+3, 1.5335722e+2, -1797587.1, -1533970.3, 41475.113, -0.07629262, 0.30444092, -1527598.9, -90467.73, 0.0022287087, 9.997111, 10.000588 
1.6048373e+3, 1.633585e+2, -1784310.3, -1535944.6, -26965.645, -0.2420361, 0.4141872, -1533050.6, -193929.55, 0.00026665046, 9.996772, 10.000074 
1.6048788e+3, 1.7335871e+2, -1472559.1, -1318617.0, -44709.094, 0.07125289, 0.3998164, -1306574.3, -65454.11, 0.0000036433328, 9.998175, 10.000213 
1.604919e+3, 1.8335834e+2, -1230960.6, -1190775.5, 11063.256, 0.2275946, 0.372736, -1187931.0, -44808.69, 0.0, 9.99932, 9.999868 
1.6049562e+3, 1.9335702e+2, -990983.75, -1009410.1, 40383.098, 0.01695456, 0.22640383, -958776.2, 86352.55, 0.0, 10.000232, 9.999997 
1.6049945e+3, 2.033559e+2, -947756.1, -1096012.9, 74058.6, -0.11623811, 0.19248831, -917100.5, 30037.127, 0.0, 10.000542, 9.998588 
1.6050346e+3, 2.133554e+2, -940106.7, -1043619.9, 51168.66, -0.083088316, 0.27270067, -919082.94, -69934.62, 0.0, 9.999944, 9.998554 
1.605075e+3, 2.2335473e+2, -819306.06, -907548.06, 54926.664, -0.01126644, 0.35720798, -792974.25, -41816.38, 0.0, 9.999973, 9.998801 
1.6051161e+3, 2.3335396e+2, -510310.78, -675697.06, 39246.652, 0.10360666, 0.36073464, -501470.03, 151692.5, 0.0, 10.001298, 9.999071 
1.6051565e+3, 2.4335225e+2, -335838.56, -596674.25, 88383.82, 0.12443881, 0.3209151, -308711.13, 246464.31, 0.0, 10.002043, 9.998603 
1.6051963e+3, 2.5334895e+2, -281845.34, -503184.47, 104623.11, -0.004682422, 0.104273245, -240219.98, 216982.11, 0.000000007673713, 10.001675, 9.998744 
1.6052364e+3, 2.6334652e+2, -300106.8, -657781.44, 102252.195, -0.082904264, 0.0776676, -272938.53, 86286.74, 0.0000049768487, 10.001721, 9.996986 
1.6052769e+3, 2.7334604e+2, -93952.22, -529454.56, 62732.434, -0.06628033, 0.32695794, -85095.95, 176142.52, 0.00006447964, 10.002555, 9.996796 
1.6053167e+3, 2.8334436e+2, 142953.88, -272468.03, -14476.544, -0.04375761, 0.46485746, 143457.73, 306714.53, 0.00032980586, 10.003099, 9.997624 
1.6053553e+3, 2.9334012e+2, 292035.72, -97144.59, -87291.516, -0.05242806, 0.21606605, 310718.0, 376005.34, 0.0010551694, 10.003235, 9.99808 
1.6053945e+3, 3.0333492e+2, 265698.2, -264742.03, 5139.4604, -0.11012047, -0.024886472, 265747.97, 265747.97, 0.0023621938, 10.003501, 9.996477 
1.6054381e+3, 3.133345e+2, 371813.7, -131729.67, -60711.09, 0.08960152, 0.26962632, 379030.06, 379030.06, 0.004095403, 10.003856, 9.99721 
1.6146782e+3, 1.2331464e+2, -1999450.8, -1720283.9, 32184.75, 0.057545897, 0.23867133, -1716621.4, 14927.266, 0.02978273, 9.997414, 10.001203 
1.614718e+3, 1.3331649e+2, -1857459.8, -1696585.1, -12679.877, 0.071723394, 0.36753526, -1695591.8, -62059.824, 0.018308382, 9.998186, 10.00031 
1.6147575e+3, 1.4331794e+2, -1723145.6, -1528739.5, -18856.027, 0.02327981, 0.48164466, -1526927.4, 8591.399, 0.008418617, 9.9981985, 10.000778 
1.6147973e+3, 1.5331791e+2, -1767812.8, -1470589.8, 7415.7656, 0.018788926, 0.35873318, -1470404.9, -32885.38, 0.0024150687, 9.997103, 10.00103 
1.6148368e+3, 1.6331828e+2, -1757462.4, -1500691.0, -2971.5842, 0.0041097105, 0.3432807, -1500656.6, -161140.25, 0.0002938315, 9.996844, 10.000288 
1.6148765e+3, 1.7331949e+2, -1462287.5, -1299440.0, 17182.557, 0.030579308, 0.41197315, -1297646.9, -56141.008, 0.000004294035, 9.998169, 10.000354 
1.6149168e+3, 1.8331972e+2, -1182379.0, -1095744.6, 37989.242, 0.054258894, 0.41253418, -1081446.3, 62054.4, 0.0, 9.999349, 10.0005045 
1.6149572e+3, 1.933183e+2, -945268.44, -905771.6, 82811.39, 0.069360115, 0.18117002, -840386.5, 205117.77, 0.0, 10.000195, 10.000728 
1.6149966e+3, 2.0331731e+2, -970545.25, -1124157.1, 46028.223, 0.04011155, 0.123915344, -957809.25, -10299.429, 0.0, 10.000459, 9.998433 
1.615035e+3, 2.1331742e+2, -981338.94, -1104512.3, 34376.24, -0.04955227, 0.29705194, -972394.5, -122878.01, 0.0, 9.999836, 9.998187 
1.6150743e+3, 2.2331648e+2, -859297.5, -949840.75, 82700.836, -0.089940734, 0.38610858, -810287.9, -58757.555, 0.0, 9.999803, 9.998591 
1.6151161e+3, 2.3331381e+2, -543896.1, -708874.2, 100126.39, -0.031064125, 0.21447985, -496655.7, 156899.2, 0.0, 10.0011425, 9.998919 
1.6151576e+3, 2.433124e+2, -328337.6, -547888.3, 72815.45, 0.015641049, 0.19666532, -306383.22, 249182.81, 0.0, 10.001893, 9.99901 
1.6151986e+3, 2.5331366e+2, -267099.06, -440325.28, 99528.31, 0.04296196, 0.37782606, -221773.88, 235775.44, 0.00000000987263, 10.001535, 9.999241 
1.6152386e+3, 2.6331258e+2, -352870.13, -725302.06, 113612.375, -0.022165801, 0.47170058, -320948.16, 38610.95, 0.000004852571, 10.001544, 9.996606 
1.6152778e+3, 2.7330723e+2, -158180.92, -618808.94, 109218.39, -0.23623027, 0.2874884, -133596.52, 128020.7, 0.000064250504, 10.002382, 9.996258 
1.615318e+3, 2.8330287e+2, 35081.06, -462704.5, -15817.988, -0.25041994, 0.2450289, 35583.195, 199244.92, 0.00032947844, 10.002946, 9.996395 
1.6153598e+3, 2.9330045e+2, 179142.56, -306137.5, -60815.555, 0.060644437, 0.3032232, 186647.92, 252328.48, 0.0010457374, 10.003115, 9.996709 
1.6153997e+3, 3.0329573e+2, 243077.4, -266064.44, 8431.393, 0.03765602, 0.19121027, 243216.98, 243216.98, 0.0023297246, 10.003334, 9.99653 
1.6154395e+3, 3.132934e+2, 391325.06, 6571.3228, 4971.345, -0.18888642, 0.25198734, 391389.3, 391389.3, 0.0040271585, 10.003484, 9.998314 
1.6246764e+3, 1.2327426e+2, -2060707.9, -1703148.8, 86123.26, 0.17399564, 0.31607854, -1683486.0, 48461.855, 0.03179242, 9.996792, 10.001615 
1.6247144e+3, 1.3327672e+2, -1925368.1, -1631870.9, 14700.775, -0.037503883, 0.4168051, -1631136.4, 2786.3074, 0.019603958, 9.997294, 10.001179 
1.624755e+3, 1.4327832e+2, -1868184.4, -1605316.3, 20719.752, 0.014513685, 0.49966508, -1603693.1, -67786.375, 0.009062119, 9.997238, 10.000716 
1.6247955e+3, 1.5327786e+2, -1676316.0, -1438393.8, -14616.472, 0.1128618, 0.34716484, -1437499.1, 412.70953, 0.002624408, 9.997789, 10.0009165 
1.6248359e+3, 1.6327809e+2, -1527039.8, -1378380.3, 6550.158, 0.1580699, 0.3192374, -1378092.1, -38181.61, 0.00032476612, 9.998397, 10.000367 
1.6248757e+3, 1.7327945e+2, -1298934.0, -1203717.8, 9437.832, 0.08746635, 0.39091897, -1202791.3, 39107.016, 0.000005034694, 9.999241, 10.000481 
1.624916e+3, 1.8327981e+2, -1176467.0, -1140765.4, -10562.134, 0.059546202, 0.4166565, -1137874.6, 6018.336, 0.0, 9.999594, 10.000081 
1.624957e+3, 1.9327863e+2, -1114404.3, -1036613.6, -80526.24, 0.10675059, 0.25756574, -986081.25, 59816.332, 0.0, 9.999262, 10.000272 
1.624997e+3, 2.0327778e+2, -1101343.3, -1123225.9, -134729.64, 0.09451986, 0.21900812, -977111.4, -29209.135, 0.0, 9.999289, 9.999 
1.6250351e+3, 2.132778e+2, -879304.4, -968624.3, -83230.22, -0.028834427, 0.3086745, -829509.2, 20396.152, 0.0, 10.000161, 9.998965 
1.6250746e+3, 2.2327688e+2, -702748.44, -874846.44, 58485.69, -0.08375466, 0.35609064, -684754.2, 67162.42, 0.0, 10.000864, 9.998601 
1.6251172e+3, 2.3327446e+2, -546213.6, -731307.75, 61985.246, -0.021597724, 0.22552152, -527373.4, 126567.36, 0.0, 10.0012, 9.998746 
1.6251594e+3, 2.432732e+2, -413607.38, -617789.06, 1874.4877, 0.042206544, 0.24352679, -413590.16, 142362.28, 0.0, 10.001437, 9.998742 
1.6252e+3, 2.5327417e+2, -279292.97, -481542.66, -61292.234, 0.06575909, 0.4290753, -262168.2, 195771.52, 0.000000011745934, 10.001598, 9.998926 
1.6252403e+3, 2.6327276e+2, -294316.38, -649919.6, -17583.611, 0.00037578685, 0.49579853, -293449.03, 66502.664, 0.0000048598445, 10.001752, 9.997018 
1.6252801e+3, 2.7326724e+2, -186264.05, -570264.06, 32702.89, -0.20975992, 0.2418371, -183498.84, 78508.27, 0.00006262469, 10.001921, 9.996807 
1.625321e+3, 2.8326294e+2, -39882.867, -511636.75, 18505.752, -0.20830575, 0.17377514, -39158.043, 124891.48, 0.00032559413, 10.002499, 9.996273 
1.6253637e+3, 2.9326078e+2, 269582.63, -296303.75, 8382.027, 0.11341285, 0.28957272, 269706.75, 335775.5, 0.0010299457, 10.003882, 9.996409 
1.6254038e+3, 3.032563e+2, 399932.34, -216195.52, 108175.56, 0.082029685, 0.22941603, 418373.13, 418373.13, 0.0022747729, 10.004507, 9.99633 
1.6254435e+3, 3.1325296e+2, 441222.6, 35556.063, 25743.52, -0.13330728, 0.21703309, 442849.75, 442849.75, 0.0039008812, 10.003745, 9.998432 
1.634673e+3, 1.2323386e+2, -2007993.6, -1603698.3, -5479.1504, 0.12874925, 0.3924667, -1603624.0, 128720.75, 0.03398967, 9.996831, 10.00229 
1.6347109e+3, 1.3323659e+2, -1829664.4, -1437927.6, 27091.686, -0.13469082, 0.3900655, -1436062.9, 198248.48, 0.02102759, 9.997297, 10.002536 
1.634754e+3, 1.4323622e+2, -1879790.9, -1654395.5, 15894.497, 0.16482101, 0.2150993, -1653280.1, -116967.85, 0.009775217, 9.997333, 10.000339 
1.6347934e+3, 1.5323725e+2, -1724207.3, -1539455.0, 15692.063, 0.109029755, 0.2749079, -1538131.6, -99825.266, 0.002860367, 9.997795, 10.00022 
1.634834e+3, 1.6323812e+2, -1525635.9, -1393424.8, 25680.557, 0.11208199, 0.35730648, -1388611.8, -48310.645, 0.00036087315, 9.998466, 10.0002365 
1.634876e+3, 1.7323856e+2, -1298646.1, -1207913.4, 44786.004, 0.16781001, 0.34223422, -1189531.0, 52767.016, 0.000005927034, 9.999259, 10.000445 
1.6349168e+3, 1.832385e+2, -1261725.3, -1334896.4, -28717.16, 0.16066845, 0.38474098, -1251800.9, -107500.53, 0.0, 9.999661, 9.998721 
1.634956e+3, 1.9323789e+2, -1234062.8, -1279974.0, -87654.02, 0.05276941, 0.4437286, -1166408.3, -120098.484, 0.0, 9.999233, 9.998622 
1.634995e+3, 2.0323715e+2, -1025492.8, -945385.94, -118815.57, -0.042389285, 0.46098182, -860054.3, 88262.305, 0.0, 9.999201, 10.000264 
1.6350345e+3, 2.132364e+2, -764016.1, -706295.2, -38761.156, -0.100527264, 0.29515165, -686830.2, 163485.77, 0.0, 10.0000515, 10.000825 
1.6350755e+3, 2.2323585e+2, -719690.2, -866172.6, 65801.94, -0.09957156, 0.26170167, -694472.44, 57844.918, 0.0, 10.000676, 9.998749 
1.6351192e+3, 2.3323588e+2, -583562.06, -773243.8, 83896.08, 0.04287797, 0.39196587, -551780.1, 102540.164, 0.0, 10.001045, 9.998531 
1.6351615e+3, 2.4323457e+2, -512215.5, -774448.2, -365.26013, 0.104599714, 0.45792875, -512215.0, 44119.76, 0.0, 10.001233, 9.997764 
1.635201e+3, 2.5323078e+2, -373870.06, -650137.5, -41787.64, -0.012304595, 0.28124902, -367687.7, 90682.09, 0.000000006263202, 10.001485, 9.99782 
1.6352414e+3, 2.6322767e+2, -231277.95, -504202.84, -18526.393, -0.101065986, 0.1976193, -230026.11, 130371.3, 0.000005059976, 10.001672, 9.998066 
1.6352832e+3, 2.7322626e+2, -93289.97, -356171.0, 55678.484, -0.09861908, 0.2007921, -81983.5, 180423.08, 0.000060713708, 10.001818, 9.998333 
1.6353253e+3, 2.8322425e+2, -15113.931, -419924.34, 50804.457, -0.05336533, 0.24103306, -8835.261, 155587.67, 0.00031822023, 10.002335, 9.996977 
1.6353667e+3, 2.932209e+2, 273299.3, -236823.45, 75402.35, 0.0137647735, 0.19065972, 284211.28, 350665.34, 0.0010069326, 10.003674, 9.996913 
1.6354069e+3, 3.0321658e+2, 325466.47, -304076.9, 75629.18, -0.06391706, 0.13656525, 334424.56, 334424.56, 0.0022051174, 10.004229, 9.995855 
1.6354492e+3, 3.132129e+2, 355723.22, -64887.875, 38183.297, 0.039783802, 0.14087668, 359161.4, 359161.4, 0.0037442897, 10.003428, 9.997883 
1.6446702e+3, 1.2319319e+2, -2130884.0, -1682714.3, -28335.719, 0.19990128, 0.39596495, -1680929.8, 51813.633, 0.036383986, 9.996098, 10.002094 
1.6447085e+3, 1.3319555e+2, -1889015.1, -1452783.5, -27268.367, -0.076094314, 0.3537713, -1451085.6, 183627.81, 0.022584815, 9.996835, 10.002665 
1.644752e+3, 1.4319487e+2, -1888975.9, -1635310.5, -52753.7, 0.25969547, 0.13139133, -1624776.9, -88060.086, 0.010560797, 9.99717, 10.000548 
1.6447909e+3, 1.5319666e+2, -1682075.1, -1500972.6, -2662.573, 0.08383178, 0.2478521, -1500933.5, -62230.516, 0.0031241647, 9.997991, 10.000394 
1.6448316e+3, 1.6319786e+2, -1526786.0, -1419270.3, 62108.71, 0.05034448, 0.3625075, -1390885.5, -50191.098, 0.0004029895, 9.998568, 10.00001 
1.6448751e+3, 1.7319801e+2, -1380771.6, -1284349.3, 42073.56, 0.18888988, 0.3505991, -1268572.1, -25876.828, 0.0000070009137, 9.998848, 10.000125 
1.6449168e+3, 1.8319792e+2, -1317469.1, -1343942.1, 10659.581, 0.22576621, 0.40218744, -1313710.5, -169011.25, 0.0, 9.99922, 9.998858 
1.6449556e+3, 1.9319773e+2, -1090725.6, -1184109.0, 65643.055, 0.05997704, 0.4803006, -1056862.3, -10156.3125, 0.0, 10.000114, 9.998844 
1.6449948e+3, 2.0319705e+2, -821407.8, -871368.6, 97633.12, -0.05722778, 0.4983957, -745610.0, 203102.55, 0.0, 10.000696, 10.000055 
1.6450348e+3, 2.1319583e+2, -692200.25, -698672.75, 4024.5962, -0.08246834, 0.30829623, -690272.1, 160443.56, 0.0, 10.000671, 10.000568 
1.6450763e+3, 2.2319509e+2, -738992.44, -870815.9, 15824.239, -0.05743445, 0.2694203, -737119.5, 15598.622, 0.0, 10.0005245, 9.998798 
1.64512e+3, 2.3319529e+2, -700080.44, -817147.1, 33646.51, 0.06809548, 0.41092184, -691099.0, -36380.496, 0.0, 10.0001955, 9.998647 
1.6451624e+3, 2.4319386e+2, -630840.0, -839530.75, 34529.332, 0.12777336, 0.46051395, -625275.25, -68541.484, 0.0, 10.000457, 9.997691 
1.645203e+3, 2.531894e+2, -327853.4, -647173.75, 48074.008, 0.018365584, 0.2315173, -320772.8, 138002.66, 0.000000005166704, 10.001881, 9.997657 
1.645244e+3, 2.631861e+2, -83340.99, -443714.78, 69594.05, -0.037807178, 0.14218894, -70368.24, 290436.84, 0.000005473011, 10.002734, 9.997961 
1.6452864e+3, 2.7318513e+2, 17895.354, -312755.66, -5794.283, 0.010611343, 0.20004442, 17996.861, 280807.06, 0.00005878461, 10.002635, 9.998225 
1.6453286e+3, 2.831833e+2, 66040.79, -328702.34, -36925.664, 0.05374768, 0.24924889, 69465.234, 234290.17, 0.00030601537, 10.002677, 9.9974375 
1.64537e+3, 2.9318026e+2, 176809.28, -219804.67, -33899.434, 0.042475045, 0.17428906, 179685.88, 246539.66, 0.00097375445, 10.002751, 9.997468 
1.6454105e+3, 3.0317712e+2, 211700.23, -321955.0, 11744.963, -0.061808474, 0.19148237, 211958.6, 211958.6, 0.0021281322, 10.003239, 9.99622 
1.6454534e+3, 3.1317353e+2, 501649.97, 20434.45, -18860.777, 0.08883276, 0.17385206, 502388.06, 502388.06, 0.0035925123, 10.004361, 9.99801 
1.6546658e+3, 1.2315282e+2, -2178329.5, -1804535.3, -153483.58, 0.10511484, 0.3844221, -1749590.0, -16451.83, 0.03897044, 9.996211, 10.0011835 
1.6547067e+3, 1.3315387e+2, -1981822.0, -1630644.3, -2244.6833, 0.056834996, 0.33205488, -1630629.9, 4496.69, 0.024272982, 9.996783, 10.001442 
1.6547488e+3, 1.4315455e+2, -1830603.4, -1519160.4, -44934.0, 0.19392757, 0.2777959, -1512807.1, 24311.063, 0.0114189135, 9.997187, 10.001341 
1.6547877e+3, 1.5315619e+2, -1606443.5, -1347579.0, 36230.566, -0.04762087, 0.27988186, -1342603.8, 96496.83, 0.0034161112, 9.998004, 10.001445 
1.6548286e+3, 1.6315739e+2, -1528309.6, -1451365.3, 63905.047, -0.13608707, 0.3438426, -1415245.4, -74155.97, 0.00045137366, 9.998676, 9.9997425 
1.6548727e+3, 1.7315795e+2, -1416761.0, -1358127.0, 57953.19, 0.07177578, 0.41878834, -1322497.4, -79408.625, 0.000008273259, 9.998843, 9.9996195 
1.6549157e+3, 1.8315817e+2, -1201710.1, -1115877.1, 32141.215, 0.17201637, 0.46750554, -1105175.6, 39913.07, 0.0, 9.99926, 10.000411 
1.6549557e+3, 1.9315812e+2, -953427.3, -897140.1, 106374.37, 0.0525394, 0.3655087, -815249.3, 231836.8, 0.0, 10.000092, 10.000834 
1.6549957e+3, 2.0315753e+2, -947745.75, -1110391.8, 94052.016, -0.042633798, 0.34049827, -904733.7, 44356.145, 0.0, 10.000602, 9.998457 
1.6550359e+3, 2.1315609e+2, -877621.56, -1056092.6, 10199.494, -0.05306651, 0.3577744, -877040.56, -25936.117, 0.0, 10.000552, 9.998172 
1.6550769e+3, 2.2315446e+2, -763347.4, -891116.0, -5157.2554, -0.051548462, 0.37533042, -763139.5, -10019.225, 0.0, 10.000394, 9.998723 
1.6551192e+3, 2.3315269e+2, -686069.75, -762840.44, 33040.45, -0.022067863, 0.2814754, -673808.2, -18672.438, 0.0, 10.000084, 9.999078 
1.6551618e+3, 2.43151e+2, -602256.6, -749694.8, 71308.53, 0.011811275, 0.25277045, -573411.56, -16261.217, 0.0, 10.000324, 9.99837 
1.6552053e+3, 2.5314978e+2, -295374.38, -545825.5, 112634.57, 0.074425526, 0.26822656, -252171.95, 206987.44, 0.00000000856411, 10.001746, 9.998409 
1.6552481e+3, 2.6314765e+2, -193370.08, -641785.06, 63125.96, 0.0970398, 0.30634728, -184652.92, 176525.78, 0.0000057188686, 10.002595, 9.996674 
1.6552894e+3, 2.731437e+2, -117722.06, -566266.2, 4216.231, 0.03780175, 0.23497425, -117682.43, 145536.58, 0.00005715205, 10.002508, 9.996549 
1.6553311e+3, 2.831403e+2, 54259.848, -311850.5, -44240.14, 0.024110455, 0.21323887, 59529.887, 224783.36, 0.00029400203, 10.002492, 9.997646 
1.6553733e+3, 2.9313862e+2, 203156.98, -136685.78, -12068.778, 0.082084596, 0.21275568, 203585.05, 270853.84, 0.0009429052, 10.002615, 9.998109 
1.6554141e+3, 3.031375e+2, 231628.08, -203998.13, 32747.875, -0.042265926, 0.35447943, 234076.11, 234076.11, 0.0020703662, 10.002934, 9.997168 
1.6554561e+3, 3.1313437e+2, 476064.5, 65263.938, 77730.64, -0.12270587, 0.28229523, 490280.53, 490280.53, 0.0034931907, 10.003937, 9.998524 
1.6646619e+3, 1.2311209e+2, -2160634.8, -1892823.9, -153222.69, 0.085923135, 0.3707588, -1823240.1, -89703.805, 0.041736465, 9.996718, 10.000347 
1.6647051e+3, 1.3311307e+2, -1850327.8, -1588101.6, 61808.813, 0.18693677, 0.33500972, -1574263.1, 61265.043, 0.026087236, 9.9977455, 10.0012865 
1.6647461e+3, 1.4311449e+2, -1689232.3, -1473169.6, 50801.777, 0.17085703, 0.37105876, -1461820.9, 75692.6, 0.012349877, 9.998259, 10.001137 
1.6647863e+3, 1.531155e+2, -1547457.9, -1340386.9, 17867.002, 0.000175105, 0.33008015, -1338856.5, 100644.95, 0.003737191, 9.998514, 10.00124 
1.6648278e+3, 1.6311635e+2, -1528082.4, -1397505.3, 11064.866, -0.06750157, 0.35422426, -1396574.3, -55082.03, 0.00050616945, 9.998472, 10.000198 
1.6648713e+3, 1.7311688e+2, -1458902.6, -1313771.3, 61578.504, 0.07887311, 0.36930907, -1291165.0, -47676.207, 0.000009797576, 9.998273, 10.000198 
1.6649143e+3, 1.831172e+2, -1330581.8, -1153048.3, 91790.38, 0.16655914, 0.3855411, -1114123.9, 31362.006, 0.0, 9.9982815, 10.000617 
1.6649556e+3, 1.9311765e+2, -1077362.0, -937554.2, 15458.343, 0.08329958, 0.31745875, -935865.4, 111613.65, 0.0, 9.999185, 10.000974 
1.6649964e+3, 2.0311728e+2, -1037225.44, -1185389.9, -37997.992, 0.020326382, 0.31760567, -1028048.9, -78567.6, 0.0, 10.000123, 9.998172 
1.6650374e+3, 2.1311559e+2, -814682.56, -1065847.4, 6568.3735, 0.020171849, 0.34949422, -814510.94, 36988.39, 0.0, 10.00116, 9.99781 
1.6650786e+3, 2.2311354e+2, -573207.4, -856640.94, 70114.31, 0.021288842, 0.36844316, -556811.3, 196708.89, 0.0, 10.001951, 9.998198 
1.6651206e+3, 2.3311111e+2, -400903.66, -684564.6, 12304.404, 0.0088137, 0.25782838, -400370.94, 255173.02, 0.0, 10.002302, 9.99853 
1.6651632e+3, 2.431092e+2, -290393.47, -618296.0, 21052.764, 0.019534629, 0.24626501, -289047.3, 268514.6, 0.0, 10.002531, 9.998224 
1.6652074e+3, 2.5310853e+2, -177237.89, -492948.97, -6021.518, 0.0744468, 0.32764873, -177123.08, 282443.3, 0.0000000057748837, 10.002569, 9.998384 
1.6652505e+3, 2.631067e+2, -208508.36, -649296.3, -57097.35, 0.088419974, 0.39888948, -201232.38, 160351.34, 0.0000055479773, 10.002507, 9.99666 
1.6652913e+3, 2.7310252e+2, -147913.28, -595218.56, -32836.87, 0.0007046341, 0.30929157, -145515.56, 118111.35, 0.000055344583, 10.002342, 9.996446 
1.665333e+3, 2.8309882e+2, 8007.6147, -345335.53, 6642.096, 0.0082875015, 0.27433985, 8132.4277, 173796.81, 0.00028408016, 10.002217, 9.997543 
1.6653763e+3, 2.930973e+2, 130806.67, -182260.6, -48554.707, 0.16321366, 0.3002452, 138164.28, 205844.19, 0.00092112675, 10.002189, 9.997989 
1.6654177e+3, 3.0309626e+2, 207321.08, -139865.39, 9402.858, 0.08168879, 0.42959887, 207575.56, 207575.56, 0.0020421273, 10.002444, 9.997837 
1.6654594e+3, 3.1309286e+2, 319022.3, 38279.62, -7698.9873, -0.09388939, 0.26012468, 319233.28, 319233.28, 0.003463114, 10.002671, 9.998937 
1.6746579e+3, 1.23071074e+2, -2205386.0, -1989511.8, -50253.492, -0.02079113, 0.36351642, -1978386.5, -244449.36, 0.044670317, 9.996735, 9.999676 
1.6747035e+3, 1.3307343e+2, -1774125.5, -1444420.6, 98739.07, 0.22828686, 0.37946793, -1417112.4, 218802.4, 0.028026333, 9.997794, 10.002281 
1.6747437e+3, 1.4307475e+2, -1754118.4, -1631728.5, 54546.164, 0.08972748, 0.39026067, -1610947.1, -73045.086, 0.013357116, 9.99836, 9.999995 
1.6747865e+3, 1.530747e+2, -1662054.1, -1580474.1, 35030.7, 0.1571094, 0.40112093, -1567496.4, -127591.82, 0.004090086, 9.998518, 9.999593 
1.6748288e+3, 1.6307466e+2, -1439732.4, -1228498.6, -6985.902, 0.17175297, 0.38807827, -1228267.9, 113636.055, 0.0005678562, 9.998529, 10.001334 
1.6748704e+3, 1.7307484e+2, -1341239.6, -1062442.4, 59931.266, 0.14412844, 0.2019931, -1050105.3, 193790.02, 0.000011659807, 9.998244, 10.001938 
1.6749123e+3, 1.8307519e+2, -1403945.3, -1317707.4, 107684.05, 0.11061995, 0.16277239, -1244830.3, -98941.055, 0.0, 9.9983225, 9.999476 
1.6749546e+3, 1.9307621e+2, -1212693.8, -1210225.1, 56271.695, 0.06767913, 0.3293196, -1155174.3, -107288.71, 0.0, 9.999141, 9.999131 
1.6749969e+3, 2.0307615e+2, -972683.3, -1037285.6, -10126.146, 0.04205349, 0.4284441, -971133.25, -21244.928, 0.0, 10.00006, 9.99922 
1.6750391e+3, 2.1307425e+2, -716045.1, -834399.7, 53151.188, 0.059780005, 0.27638164, -695679.94, 156221.48, 0.0, 10.001035, 9.999465 
1.6750811e+3, 2.2307226e+2, -669567.8, -1010215.44, 79086.91, 0.067941196, 0.24183564, -652102.0, 101817.09, 0.0, 10.001753, 9.997237 
1.6751237e+3, 2.3307046e+2, -534652.0, -927817.5, 33175.09, 0.07549587, 0.3463609, -531872.4, 124071.164, 0.0, 10.002153, 9.996931 
1.6751662e+3, 2.4306832e+2, -378230.47, -761658.2, 14266.498, 0.05044256, 0.44363222, -377700.38, 180269.03, 0.0, 10.002359, 9.997323 
1.6752088e+3, 2.5306585e+2, -251265.45, -610478.8, 8426.621, -0.053565923, 0.41818717, -251067.89, 208926.55, 0.0000000017385277, 10.002411, 9.997653 
1.6752508e+3, 2.630634e+2, -158234.25, -512339.97, -67381.09, -0.14610006, 0.43198517, -145846.02, 216171.5, 0.0000048816705, 10.002357, 9.997678 
1.675292e+3, 2.7306122e+2, -60576.156, -396855.6, -22747.814, -0.18317564, 0.4035736, -59044.348, 204992.06, 0.000051549574, 10.002262, 9.99785 
1.6753344e+3, 2.8305858e+2, -50695.45, -435940.84, -6230.672, -0.102798276, 0.41623792, -50594.703, 115466.28, 0.0002709475, 10.002079, 9.996991 
1.675379e+3, 2.9305604e+2, 57284.23, -316380.9, -28697.686, 0.17779592, 0.4263345, 59475.38, 127564.625, 0.00089568296, 10.002088, 9.997124 
1.6754213e+3, 3.0305338e+2, 190891.94, -112192.61, 7920.9795, 0.17809913, 0.42257115, 191098.8, 191098.8, 0.002017622, 10.002193, 9.998143 
1.6754626e+3, 3.1304887e+2, 309922.1, 62427.023, 28969.137, -0.07494162, 0.08937785, 313267.7, 313267.7, 0.0034630077, 10.002497, 9.999178 
1.6846551e+3, 1.2302897e+2, -2062095.5, -1929853.8, 14158.909, -0.024883103, 0.3203578, -1928354.8, -194007.38, 0.04776628, 9.997782, 9.999565 
1.684701e+3, 1.3303202e+2, -1846835.5, -1462195.4, -9415.451, 0.23646708, 0.39118394, -1461965.0, 174355.55, 0.030093629, 9.9972515, 10.002401 
1.6847418e+3, 1.4303377e+2, -1901059.6, -1677700.9, -26792.135, 0.12388734, 0.4311969, -1674532.1, -136227.7, 0.0144471, 9.99724, 10.000219 
1.6847855e+3, 1.5303332e+2, -1701077.5, -1566024.8, 72191.37, 0.23442566, 0.3723446, -1534700.8, -94391.72, 0.004479329, 9.998106, 9.999892 
1.6848281e+3, 1.6303304e+2, -1430614.1, -1251771.9, 88688.45, 0.25708827, 0.32956266, -1215249.5, 127060.18, 0.0006375465, 9.998719, 10.001081 
1.6848694e+3, 1.7303345e+2, -1202328.8, -1029130.8, -16253.605, 0.17717911, 0.1965389, -1027618.75, 216681.27, 0.00001399049, 9.999359, 10.0016165 
1.6849113e+3, 1.830339e+2, -1205271.9, -1237047.8, -11165.898, 0.12796083, 0.19239265, -1201740.8, -55447.12, 0.0, 9.999754, 9.999336 
1.6849543e+3, 1.9303466e+2, -1109596.4, -1174947.5, 52488.156, 0.09916123, 0.34735227, -1080444.0, -32152.05, 0.0, 9.999891, 9.999021 
1.6849974e+3, 2.0303433e+2, -939441.75, -1012346.1, 65713.43, 0.08998529, 0.42116323, -900747.3, 49549.86, 0.0, 10.000252, 9.999303 
1.6850406e+3, 2.1303229e+2, -687870.8, -801815.44, -1861.87, 0.11564752, 0.24301776, -687840.4, 164470.84, 0.0, 10.00116, 9.999625 
1.6850834e+3, 2.2303028e+2, -683213.25, -1033212.5, -26459.781, 0.12812355, 0.20571311, -681224.2, 73104.74, 0.0, 10.001714, 9.997113 
1.6851257e+3, 2.3302871e+2, -646411.4, -1001825.7, 5366.3315, 0.10485341, 0.35320973, -646330.4, 10021.46, 0.0, 10.001467, 9.996767 
1.6851681e+3, 2.4302663e+2, -524942.56, -856429.0, 91732.01, 0.065192476, 0.47501084, -501250.9, 57127.016, 0.0, 10.001461, 9.997092 
1.6852109e+3, 2.530237e+2, -322969.22, -680900.7, 98462.72, -0.039527033, 0.431177, -297671.28, 162736.78, 0.0000000018399801, 10.002052, 9.997344 
1.6852535e+3, 2.6302096e+2, -135721.66, -520744.84, 27333.215, -0.11036964, 0.43411484, -133790.92, 228644.52, 0.0000039092515, 10.002599, 9.997501 
1.6852954e+3, 2.730187e+2, 69065.57, -340899.78, -61402.04, -0.09902805, 0.4135645, 78064.45, 342519.7, 0.000046409757, 10.003218, 9.997756 
1.6853379e+3, 2.8301612e+2, 118972.6, -387853.34, -99733.45, -0.0132604195, 0.44827372, 137891.95, 304372.0, 0.00025641202, 10.003387, 9.996697 
1.685381e+3, 2.930136e+2, 122809.1, -316831.6, -113210.375, 0.16792333, 0.503074, 150248.89, 218757.1, 0.00086490717, 10.002674, 9.996843 
1.6854233e+3, 3.0301043e+2, 277300.7, -71663.85, 5963.7734, 0.14034577, 0.46407858, 277402.6, 277402.6, 0.00198046, 10.002762, 9.998167 
1.6854669e+3, 3.1300613e+2, 529154.9, 138731.97, -49172.926, 0.04691526, 0.16538285, 535252.8, 535252.8, 0.0034473017, 10.004074, 9.998994 
1.6946532e+3, 1.2298497e+2, -1996683.3, -1831664.9, 11540.016, -0.03472109, 0.13830122, -1830861.9, -96087.04, 0.051028147, 9.997928, 10.000175 
1.694697e+3, 1.3298857e+2, -1924590.5, -1604116.4, -23844.227, 0.10694915, 0.34579805, -1602352.1, 34395.79, 0.032295942, 9.997183, 10.001431 
1.6947399e+3, 1.4299144e+2, -1779187.1, -1433676.5, -10123.659, 0.18030307, 0.48914823, -1433380.1, 105341.67, 0.015627254, 9.997259, 10.001904 
1.6947827e+3, 1.529915e+2, -1534723.4, -1227921.9, 114461.914, 0.13932163, 0.257718, -1189924.4, 250788.47, 0.004910431, 9.998125, 10.002217 
1.6948253e+3, 1.6299163e+2, -1529410.8, -1476087.4, 102980.04, 0.071904734, 0.17701384, -1396373.6, -53666.082, 0.0007170378, 9.998797, 9.999506 
1.694868e+3, 1.7299275e+2, -1379557.5, -1402289.6, 14046.247, 0.097199075, 0.36342865, -1372854.8, -128152.5, 0.000016975888, 9.999374, 9.999052 
1.6949111e+3, 1.8299335e+2, -1135290.8, -1108329.0, -16377.574, 0.12132664, 0.49269643, -1100597.6, 46101.55, 0.0, 9.999819, 10.000192 
1.6949543e+3, 1.9299302e+2, -998091.2, -933047.25, 61516.1, 0.09244393, 0.37694797, -895985.4, 152713.1, 0.0, 9.999844, 10.000706 
1.6949977e+3, 2.0299192e+2, -1017425.0, -1145078.1, 82715.39, 0.07324231, 0.30694586, -976773.5, -26067.094, 0.0, 10.000128, 9.998451 
1.6950417e+3, 2.129897e+2, -809613.7, -1029183.5, 41544.848, 0.102249384, 0.25539333, -802015.94, 50712.375, 0.0, 10.001044, 9.998122 
1.6950849e+3, 2.2298759e+2, -655111.3, -937906.3, -37428.4, 0.095601164, 0.2654957, -650241.44, 104508.375, 0.0, 10.001557, 9.997841 
1.6951263e+3, 2.3298593e+2, -582390.75, -832038.2, 6985.7495, 0.015788607, 0.2839444, -582195.44, 74572.76, 0.0, 10.001307, 9.998009 
1.6951688e+3, 2.4298406e+2, -530692.2, -824417.25, 98511.625, -0.025683468, 0.33813328, -500712.6, 58075.906, 0.0, 10.001268, 9.997408 
1.6952138e+3, 2.5298205e+2, -333303.72, -673520.5, 129908.96, 0.029489977, 0.37259182, -289371.94, 171437.52, 0.0000000033657745, 10.001931, 9.997453 
1.695258e+3, 2.6297918e+2, -248475.42, -720020.06, 39652.402, 0.07628285, 0.41340172, -245164.28, 117674.75, 0.0000030031388, 10.002445, 9.99621 
1.6953011e+3, 2.729749e+2, -64020.297, -585977.56, -24492.203, 0.13899739, 0.3473828, -62873.547, 202010.11, 0.000041455987, 10.003083, 9.996139 
1.6953431e+3, 2.8297138e+2, 84130.01, -422224.78, -128342.04, 0.15833174, 0.38769746, 114802.0, 281723.03, 0.0002433747, 10.00322, 9.996545 
1.6953826e+3, 2.929698e+2, 124630.99, -291343.84, -123367.95, 0.044192526, 0.51641566, 158466.69, 227406.39, 0.0008324831, 10.00257, 9.997074 
1.6954234e+3, 3.0296707e+2, 216547.38, -132698.0, 36850.39, -0.12118656, 0.52176416, 220393.28, 220393.28, 0.0019236389, 10.002501, 9.997865 
1.6954716e+3, 3.1296495e+2, 449013.97, 83689.78, 39154.84, 0.07854175, 0.47324073, 453163.4, 453163.4, 0.0033805245, 10.003622, 9.998814 
1.7046508e+3, 1.22943334e+2, -2195918.3, -1850748.0, 12529.827, 0.03075238, 0.16307308, -1850293.8, -115111.164, 0.054460447, 9.996211, 10.000885 
1.7046936e+3, 1.329459e+2, -1905848.9, -1595483.9, 74953.46, 0.06392182, 0.26142105, -1578330.6, 58833.582, 0.034638863, 9.997293, 10.001452 
1.7047378e+3, 1.4294957e+2, -1630104.4, -1353324.8, 115070.98, 0.22756994, 0.4792442, -1311733.8, 227395.64, 0.016903277, 9.998279, 10.001967 
1.704781e+3, 1.5294965e+2, -1483554.5, -1195492.8, 42852.688, 0.1562164, 0.24345215, -1189253.1, 251867.2, 0.00538814, 9.998463, 10.002267 
1.704824e+3, 1.6294949e+2, -1547857.8, -1526807.0, -11280.844, 0.075878434, 0.1478551, -1521903.8, -178785.72, 0.0008082668, 9.998835, 9.999144 
1.7048675e+3, 1.7295028e+2, -1320924.9, -1421750.4, 44185.883, 0.097599946, 0.34515628, -1304301.5, -59185.02, 0.000020835996, 9.999972, 9.998639 
1.7049114e+3, 1.8295042e+2, -1054274.9, -1130846.3, 62508.41, 0.13124982, 0.47579566, -1019259.1, 127859.266, 0.0, 10.000646, 9.999643 
1.7049547e+3, 1.929492e+2, -932022.2, -966327.06, -51069.305, 0.13021538, 0.3303819, -895301.8, 153825.11, 0.0, 10.000583, 10.000124 
1.7049983e+3, 2.0294772e+2, -952367.7, -1116412.1, -72358.36, 0.12334626, 0.2598582, -925012.7, 26126.682, 0.0, 10.000591, 9.998413 
1.7050424e+3, 2.1294624e+2, -812818.3, -1020346.3, -12222.369, 0.10375167, 0.27420813, -812100.94, 41054.16, 0.0, 10.000983, 9.998206 
1.7050861e+3, 2.2294465e+2, -625360.3, -875254.6, -23506.607, 0.077216014, 0.31238386, -623168.4, 132003.7, 0.0, 10.001556, 9.998267 
1.7051281e+3, 2.32943e+2, -377575.94, -675255.2, -57534.57, 0.034048256, 0.28185856, -366842.8, 290346.53, 0.0, 10.00247, 9.998519 
1.7051713e+3, 2.4294108e+2, -277965.56, -712480.56, 8238.408, 0.024996134, 0.30998492, -277809.44, 281399.56, 0.0, 10.003054, 9.997319 
1.7052163e+3, 2.5293884e+2, -200184.86, -632166.0, -7327.415, 0.05874578, 0.345478, -200060.6, 261171.3, 0.0000000026261497, 10.00296, 9.997236 
1.705261e+3, 2.629357e+2, -182024.06, -706783.6, -54711.926, 0.10924283, 0.3783644, -176380.44, 186883.97, 0.0000021613648, 10.00298, 9.996042 
1.7053048e+3, 2.7293125e+2, -39318.016, -594816.7, -40987.004, 0.19992387, 0.31615874, -36310.11, 229001.45, 0.000036656253, 10.003335, 9.99596 
1.7053472e+3, 2.8292766e+2, 152471.39, -370354.1, -71404.234, 0.2314858, 0.35680196, 162047.92, 329397.25, 0.00022920681, 10.00362, 9.996702 
1.7053857e+3, 2.9292586e+2, 316392.63, -176416.23, -98276.1, 0.049994443, 0.4455756, 335267.9, 404635.56, 0.00079222047, 10.003801, 9.99727 
1.7054258e+3, 3.0292305e+2, 343396.06, -115649.24, 85253.35, -0.16964073, 0.44530922, 358717.8, 358717.8, 0.0018352459, 10.003548, 9.997478 
1.7054749e+3, 3.129219e+2, 224293.11, -57238.97, 20558.492, 0.14440885, 0.543664, 225786.45, 225786.45, 0.0032403683, 10.00221, 9.998506 
1.7146467e+3, 1.2290466e+2, -2153530.8, -1742948.5, -129938.98, -0.05553905, 0.4389407, -1705281.6, 30283.668, 0.058051143, 9.996132, 10.001667 
1.7146906e+3, 1.329047e+2, -1835132.5, -1437549.1, 144700.5, 0.02748774, 0.17821458, -1390462.1, 247100.27, 0.037118543, 9.997241, 10.002601 
1.7147358e+3, 1.4290854e+2, -1728438.3, -1593198.0, 126144.38, 0.14991994, 0.41154173, -1517692.8, 21830.18, 0.018276531, 9.998418, 10.000244 
1.7147802e+3, 1.529076e+2, -1659193.9, -1564544.3, 55875.867, 0.20101014, 0.31946832, -1538645.1, -97111.97, 0.005915651, 9.998476, 9.999725 
1.7148241e+3, 1.6290656e+2, -1476948.6, -1383373.3, 8787.543, 0.18712059, 0.2509774, -1382555.3, -39012.773, 0.0009130136, 9.998857, 10.000112 
1.7148677e+3, 1.7290615e+2, -1193477.8, -1151782.6, 95182.23, 0.10116171, 0.14622883, -1075191.6, 170350.2, 0.000025810483, 9.999956, 10.000494 
1.7149115e+3, 1.8290515e+2, -1185967.8, -1415487.3, 59960.16, 0.0632508, 0.13136147, -1171247.6, -23697.217, 0.0, 10.000684, 9.997675 
1.7149554e+3, 1.9290319e+2, -1141331.6, -1397210.3, -46902.113, 0.12851365, 0.19596916, -1133005.5, -83428.26, 0.0, 10.000561, 9.99718 
1.7149992e+3, 2.0290175e+2, -912584.6, -1019245.06, -69600.13, 0.13888185, 0.2791369, -878231.94, 73363.95, 0.0, 10.000526, 9.999114 
1.715043e+3, 2.129018e+2, -717325.56, -788326.9, 11864.629, 0.04160278, 0.28935018, -715395.44, 138197.3, 0.0, 10.0008335, 9.999873 
1.7150868e+3, 2.2290127e+2, -648874.1, -873620.0, -701.6657, -0.006747164, 0.3306299, -648871.94, 106725.11, 0.0, 10.001334, 9.99839 
1.715131e+3, 2.3289984e+2, -417013.75, -725769.8, -11107.522, 0.070767626, 0.3478027, -416614.66, 241000.55, 0.0, 10.002325, 9.998247 
1.715175e+3, 2.4289769e+2, -340277.28, -797986.6, 3053.3887, 0.092547, 0.3848319, -340256.9, 219382.52, 0.0, 10.00287, 9.996819 
1.7152186e+3, 2.5289407e+2, -264539.9, -729709.44, 2891.0857, -0.025622314, 0.33901712, -264521.94, 197153.33, 0.0000000000058928205, 10.002804, 9.996642 
1.7152621e+3, 2.628904e+2, -157248.39, -608638.0, -51806.18, -0.09007192, 0.32588342, -151378.9, 212332.77, 0.0000014626683, 10.002784, 9.99681 
1.7153063e+3, 2.7288753e+2, 11951.729, -439273.72, -13083.837, 0.017880166, 0.31372356, 12330.792, 278071.47, 0.000032258973, 10.003126, 9.9971285 
1.7153497e+3, 2.8288478e+2, 139848.38, -340972.9, -69555.79, 0.1117679, 0.3501345, 149708.14, 317475.78, 0.00021422045, 10.003372, 9.997028 
1.7153898e+3, 2.9288188e+2, 305857.5, -164312.83, -67400.1, 0.06130156, 0.30469316, 315328.66, 385121.75, 0.00074489583, 10.003648, 9.997427 
1.7154299e+3, 3.0287838e+2, 254738.1, -240186.75, 34413.727, -0.14289907, 0.2600712, 257119.53, 257119.53, 0.0017239766, 10.003314, 9.996728 
1.7154767e+3, 3.128766e+2, 139651.03, -127338.26, 15784.497, 0.07354884, 0.38259113, 140580.97, 140580.97, 0.0030507322, 10.001798, 9.998207 
1.7246427e+3, 1.2286271e+2, -2202272.0, -1742073.3, -226960.27, -0.012668947, 0.5199991, -1648975.0, 87002.766, 0.06177432, 9.99567, 10.001924 
1.724689e+3, 1.3286167e+2, -1866407.3, -1462182.5, 6673.5894, 0.168004, 0.15081093, -1462072.4, 175909.95, 0.039721623, 9.997057, 10.002506 
1.7247333e+3, 1.4286496e+2, -1848423.1, -1715206.8, -57136.844, 0.109907426, 0.3585107, -1694058.1, -154110.66, 0.019743169, 9.997867, 9.999669 
1.7247784e+3, 1.5286388e+2, -1766274.3, -1688276.1, -23534.453, 0.21568084, 0.31994504, -1681725.3, -239763.63, 0.006494274, 9.9980345, 9.999098 
1.724823e+3, 1.6286294e+2, -1542034.0, -1389512.6, 46009.33, 0.23823808, 0.29096365, -1376708.4, -32737.29, 0.001032908, 9.998305, 10.0003395 
1.7248674e+3, 1.7286235e+2, -1273504.8, -1140536.1, 15467.387, 0.121639706, 0.12690657, -1138760.6, 107208.945, 0.00003215152, 9.999188, 10.000944 
1.724912e+3, 1.8286115e+2, -1293825.3, -1503852.6, -29431.572, 0.07638283, 0.07657888, -1289778.9, -141799.52, 0.0, 10.000111, 9.997336 
1.7249565e+3, 1.9285913e+2, -1031204.06, -1403480.9, 15387.461, 0.13839671, 0.19032784, -1030569.1, 19439.64, 0.0, 10.001584, 9.9966345 
1.7250004e+3, 2.0285761e+2, -694620.44, -908330.8, 55883.164, 0.1586177, 0.2966283, -680889.7, 271139.56, 0.0, 10.001994, 9.999176 
1.7250437e+3, 2.1285753e+2, -795733.7, -801499.8, 7495.0205, 0.080932155, 0.27274594, -790586.3, 63440.336, 0.0, 10.000186, 10.000102 
1.7250875e+3, 2.228571e+2, -917706.5, -997705.9, 16613.758, 0.03641093, 0.30888608, -914393.44, -158363.2, 0.0, 9.999486, 9.998417 
1.7251328e+3, 2.3285629e+2, -542802.06, -790597.8, 16167.675, 0.053853642, 0.39306667, -541751.6, 116292.93, 0.0, 10.001504, 9.998185 
1.7251775e+3, 2.4285458e+2, -309703.94, -744545.4, 29535.213, 0.062419243, 0.46534574, -307707.03, 252358.63, 0.0, 10.002915, 9.997155 
1.7252214e+3, 2.5285116e+2, -239480.34, -661812.7, 71488.25, 0.014088065, 0.39328682, -227707.69, 234390.55, 0.0000000000049057277, 10.002749, 9.997123 
1.7252651e+3, 2.6284787e+2, -174142.8, -558312.5, 77640.266, -0.029665241, 0.36439654, -159045.13, 205084.52, 0.0000011502509, 10.00242, 9.997328 
1.7253083e+3, 2.7284542e+2, -146456.08, -460919.22, 49086.246, -0.021966288, 0.34393385, -138972.06, 127180.76, 0.000029351942, 10.0018, 9.997618 
1.7253515e+3, 2.8284284e+2, -55024.438, -418870.4, 19271.19, 0.03941463, 0.36158168, -54006.582, 114170.43, 0.0002033291, 10.00197, 9.99716 
1.7253935e+3, 2.928396e+2, 336414.94, -151637.66, -15821.917, 0.0730364, 0.28454962, 336927.3, 407132.75, 0.00070474244, 10.003882, 9.99739 
1.7254342e+3, 3.0283612e+2, 458198.22, -154127.97, 45112.367, -0.08431667, 0.24629636, 461503.97, 461503.97, 0.0016267578, 10.004744, 9.996649 
1.7254797e+3, 3.128335e+2, 345871.56, -33182.047, 21078.209, 0.14663924, 0.29786122, 347040.06, 347040.06, 0.002882315, 10.003169, 9.99824 
1.734638e+3, 1.2281693e+2, -2212192.8, -1763464.1, -168354.25, -0.08799291, 0.35370228, -1707324.5, 29100.598, 0.06561491, 9.995693, 10.001736 
1.7346886e+3, 1.3281661e+2, -1986244.1, -1686351.8, 51665.9, 0.40985423, 0.18046808, -1677700.3, -39273.465, 0.042436883, 9.996986, 10.000952 
1.7347302e+3, 1.4281826e+2, -1801544.1, -1619021.6, -61319.324, -0.004619355, 0.30128855, -1600334.4, -59924.98, 0.021297567, 9.997873, 10.00032 
1.7347753e+3, 1.5281849e+2, -1664236.8, -1474083.3, -13032.444, 0.09081488, 0.25020716, -1473194.3, -30787.908, 0.0071235094, 9.998028, 10.000566 
1.7348203e+3, 1.6281879e+2, -1564796.8, -1458325.3, 63544.563, 0.114279956, 0.27554044, -1428663.8, -84261.42, 0.0011691477, 9.998381, 9.999839 
1.7348662e+3, 1.7281897e+2, -1345395.9, -1295670.6, 55488.2, 0.084749244, 0.28967667, -1259729.5, -13330.011, 0.00004011834, 9.999199, 9.99988 
1.7349121e+3, 1.8281846e+2, -1205139.6, -1327785.1, 7429.573, 0.07562118, 0.32608107, -1204691.1, -56286.402, 0.0, 10.000143, 9.99853 
1.7349575e+3, 1.9281694e+2, -916124.75, -1147662.4, 77808.09, 0.07939452, 0.31406766, -892406.94, 158015.38, 0.0, 10.001507, 9.998428 
1.735002e+3, 2.0281528e+2, -746861.4, -992996.6, 1019.68207, 0.089472994, 0.31705898, -746857.2, 205582.88, 0.0, 10.00189, 9.998644 
1.7350444e+3, 2.1281356e+2, -890611.8, -977906.7, -55268.625, 0.12892629, 0.23673393, -863834.0, -9378.105, 0.0, 10.0000925, 9.998936 
1.7350876e+3, 2.2281219e+2, -953494.75, -1035836.25, 52659.633, 0.08807626, 0.25891533, -927821.9, -171351.17, 0.0, 9.999331, 9.998229 
1.7351326e+3, 2.3281218e+2, -559398.8, -787046.0, 105719.305, -0.10199638, 0.4113909, -517876.4, 140602.61, 0.0, 10.001333, 9.998293 
1.7351784e+3, 2.4281155e+2, -269602.25, -596904.06, 30983.238, -0.15533428, 0.5407481, -266695.13, 293794.88, 0.0, 10.002645, 9.998299 
1.735225e+3, 2.528099e+2, -166476.6, -459756.0, 74483.63, 0.07753105, 0.50633913, -148644.38, 313858.53, 0.000000000000012544113, 10.002542, 9.998607 
1.7352697e+3, 2.6280773e+2, -185097.19, -537925.9, 47224.555, 0.16679682, 0.48741356, -178885.73, 185635.94, 0.0000010511417, 10.002231, 9.997562 
1.7353101e+3, 2.728047e+2, -170778.2, -485163.16, 37144.54, -0.028333858, 0.41088673, -166449.19, 100100.81, 0.000029114979, 10.001688, 9.997503 
1.7353521e+3, 2.8280154e+2, -95795.47, -469354.13, 55726.01, -0.09533526, 0.39354733, -87659.67, 80920.34, 0.00019954717, 10.0018215, 9.996887 
1.7353967e+3, 2.9279846e+2, 274308.94, -214490.2, 71605.72, -0.007821575, 0.35583663, 284582.75, 355193.1, 0.0006830725, 10.0036, 9.997093 
1.7354387e+3, 3.0279562e+2, 425502.38, -121554.28, -5245.1157, -0.12779966, 0.38101622, 425552.7, 425552.7, 0.0015752185, 10.004327, 9.997061 
1.7354831e+3, 3.1279135e+2, 323132.9, 19422.32, 8900.146, 0.13578172, 0.19335864, 323393.5, 323393.5, 0.0028011068, 10.002776, 9.998771 
1.7446345e+3, 1.2277153e+2, -2047664.8, -1764035.8, -19684.05, -0.07254297, 0.25577492, -1762676.3, -25810.44, 0.06957688, 9.997181, 10.001008 
1.7446867e+3, 1.3277112e+2, -2012606.4, -1818774.4, 49406.906, 0.5127763, 0.1775993, -1806907.4, -168033.53, 0.045260757, 9.997323, 9.999884 
1.7447273e+3, 1.4277261e+2, -1852354.5, -1610636.4, -9734.135, -0.024105655, 0.33959353, -1610245.0, -69384.73, 0.022935338, 9.997395, 10.000603 
1.7447731e+3, 1.527732e+2, -1539669.4, -1332451.9, -45323.01, 0.055117514, 0.25785956, -1322972.4, 119877.92, 0.0078018596, 9.998541, 10.001284 
1.7448187e+3, 1.627736e+2, -1479203.1, -1467489.3, 7275.789, 0.09106213, 0.26429892, -1464005.9, -119161.375, 0.0013223152, 9.999192, 9.999385 
1.7448653e+3, 1.7277357e+2, -1395064.9, -1408906.9, -3668.9949, 0.08299747, 0.33710873, -1394152.5, -147304.92, 0.000049909977, 9.999255, 9.999077 
1.7449118e+3, 1.827732e+2, -1279648.9, -1271590.1, -24816.443, 0.09980884, 0.40716454, -1250478.1, -101625.1, 0.0000000000000006446772, 9.999245, 9.999343 
1.7449582e+3, 1.9277251e+2, -1154295.8, -1120791.0, -11311.632, 0.12041235, 0.35520992, -1117329.6, -66470.53, 0.0, 9.9992695, 9.999682 
1.745003e+3, 2.0277134e+2, -1085673.8, -1176497.8, -111093.445, 0.13576831, 0.33933282, -1011069.0, -58198.69, 0.0, 9.999648, 9.998461 
1.7450447e+3, 2.1276942e+2, -789448.9, -990513.0, -156797.78, 0.12395787, 0.29477453, -703722.4, 151167.86, 0.0, 10.0010605, 9.998377 
1.7450877e+3, 2.2276777e+2, -609964.25, -863866.9, 17556.832, 0.061417438, 0.31929833, -608755.94, 148153.13, 0.0, 10.001647, 9.998305 
1.7451333e+3, 2.3276722e+2, -691914.75, -821816.3, 71935.33, -0.10506562, 0.3973571, -659946.56, -1026.1196, 0.0, 10.000293, 9.998563 
1.7451796e+3, 2.427666e+2, -657412.0, -703818.5, 15213.484, -0.12647378, 0.48368052, -652869.2, -91939.6, 0.0, 9.999645, 9.999004 
1.745227e+3, 2.5276595e+2, -366522.06, -469364.78, -10630.545, 0.133557, 0.4679762, -365434.72, 97497.89, 0.0, 10.000792, 9.999386 
1.7452721e+3, 2.6276454e+2, -210955.1, -518639.56, -53710.668, 0.2309525, 0.47014925, -201848.66, 163094.83, 0.0000010008785, 10.001916, 9.997845 
1.7453122e+3, 2.727617e+2, 42779.555, -370579.22, -73660.88, -0.032423664, 0.40272996, 55513.695, 322484.03, 0.000030147008, 10.003098, 9.997613 
1.7453547e+3, 2.8275868e+2, 166855.81, -335480.28, -14546.104, -0.11437013, 0.39211622, 167276.67, 336276.53, 0.00019895253, 10.003603, 9.9969425 
1.7454004e+3, 2.9275587e+2, 66134.27, -323148.5, -20306.5, 0.08999962, 0.38249668, 67190.67, 138220.63, 0.00067913963, 10.002192, 9.997031 
1.7454426e+3, 3.0275363e+2, 86872.94, -232117.6, -38543.6, -0.008860155, 0.4557736, 91464.08, 91464.08, 0.0015789078, 10.001745, 9.997555 
1.7454857e+3, 3.1274953e+2, 605544.44, 196966.23, -61574.082, 0.038661197, 0.22962028, 614622.1, 614622.1, 0.0028336905, 10.004525, 9.999147 
1.7546323e+3, 1.2272644e+2, -2154333.3, -1975723.9, 159603.55, -0.050069142, 0.21480751, -1882139.0, -144838.72, 0.07366958, 9.997155, 9.99956 
1.7546824e+3, 1.3272524e+2, -2054364.6, -1899383.4, 40354.16, 0.3468259, 0.12917584, -1889505.5, -250182.89, 0.048192136, 9.997307, 9.999334 
1.7547247e+3, 1.427287e+2, -1855024.4, -1627317.9, 14008.813, -0.05354107, 0.5239942, -1626459.3, -85165.836, 0.024652572, 9.997436, 10.000473 
1.7547716e+3, 1.5272826e+2, -1547349.0, -1352284.1, 7067.731, 0.0352164, 0.35475323, -1352028.4, 91263.71, 0.008527423, 9.998549, 10.00115 
1.7548178e+3, 1.627272e+2, -1507640.4, -1537144.9, -935.618, 0.071344204, 0.24600743, -1507610.8, -162311.28, 0.0014925194, 9.999238, 9.998885 
1.7548642e+3, 1.72726e+2, -1440603.9, -1494217.9, 3988.104, 0.03358864, 0.25795224, -1440308.9, -192993.75, 0.00006156021, 9.999219, 9.9985075 
1.7549108e+3, 1.8272534e+2, -1249063.8, -1207276.1, -33431.918, 0.048798896, 0.3145471, -1188746.0, -39421.496, 0.0000000010737394, 9.999242, 9.999784 
1.7549582e+3, 1.9272585e+2, -1110265.0, -1020796.7, -2861.2776, 0.17192364, 0.31426173, -1020705.25, 30613.78, 0.0, 9.999229, 10.000391 
1.7550035e+3, 2.0272578e+2, -1088867.5, -1166559.4, -79746.87, 0.19147363, 0.36266506, -1039008.44, -85688.21, 0.0, 9.999573, 9.998567 
1.7550446e+3, 2.1272491e+2, -811435.2, -1007711.5, -95114.77, -0.0084318435, 0.42658663, -772906.1, 82425.9, 0.0, 10.000929, 9.998325 
1.7550875e+3, 2.2272359e+2, -613307.4, -829229.56, -20320.594, -0.1283126, 0.47383735, -611411.6, 145935.88, 0.0, 10.001471, 9.998628 
1.755134e+3, 2.3272157e+2, -679527.0, -768434.3, 30980.193, -0.053585418, 0.36240202, -669796.7, -10429.172, 0.0, 10.000173, 9.998988 
1.7551808e+3, 2.4271986e+2, -666487.4, -690417.25, 33672.52, 0.018920012, 0.30728114, -642717.2, -81333.6, 0.0, 9.999498, 9.99917 
1.7552274e+3, 2.527194e+2, -378000.7, -461058.5, 45619.742, 0.09172903, 0.29631495, -357838.34, 105547.52, 0.0, 10.000654, 9.999508 
1.7552727e+3, 2.6271844e+2, -220041.94, -504190.1, -21117.656, 0.0784376, 0.32966828, -218481.06, 146912.64, 0.00000094846536, 10.0017605, 9.998024 
1.7553146e+3, 2.7271658e+2, 32479.63, -340808.38, -14057.734, -0.12754048, 0.33368686, 33008.285, 300420.2, 0.000030605133, 10.002882, 9.997916 
1.755358e+3, 2.827144e+2, 151933.9, -319435.44, -53780.293, -0.14318068, 0.36993378, 157992.05, 327426.88, 0.00020031627, 10.003389, 9.99716 
1.755404e+3, 2.927119e+2, 51889.06, -317783.88, -61395.77, 0.2174587, 0.37514922, 61819.016, 133282.0, 0.00069413544, 10.002042, 9.997139 
1.7554457e+3, 3.0271044e+2, 74369.234, -207148.52, 8976.193, 0.11001631, 0.5124196, 74655.16, 74655.16, 0.0016346293, 10.0015335, 9.997821 
1.755487e+3, 3.127085e+2, 519312.06, 133067.22, 109452.55, -0.301319, 0.4483856, 548171.9, 548171.9, 0.0029570481, 10.004055, 9.99892 
1.7646302e+3, 1.22680165e+2, -2137684.8, -1962396.1, 171343.0, 0.05105276, 0.20571926, -1857582.8, -119831.484, 0.07790593, 9.997213, 9.999625 
1.7646782e+3, 1.3267928e+2, -1914055.3, -1793627.1, -3301.3035, 0.18425138, 0.13083552, -1793536.6, -153766.34, 0.05123237, 9.998083, 9.999687 
1.7647232e+3, 1.4268284e+2, -1741917.5, -1611726.8, 46378.863, 0.009550967, 0.5201783, -1596894.6, -55153.684, 0.026445003, 9.998375, 10.000134 
1.7647706e+3, 1.5268186e+2, -1563236.5, -1429952.3, -10995.688, 0.090296775, 0.3579374, -1429051.3, 14695.575, 0.009296644, 9.998759, 10.000513 
1.7648175e+3, 1.6268052e+2, -1501308.6, -1497779.9, -15513.387, 0.12770993, 0.24978253, -1483930.9, -138173.2, 0.0016790463, 9.999143, 9.999187 
1.7648636e+3, 1.7267941e+2, -1362381.8, -1392940.8, 44591.88, 0.07040905, 0.21535084, -1330524.3, -82753.48, 0.000074904594, 9.999484, 9.999065 
1.7649102e+3, 1.8267891e+2, -1215178.0, -1197474.9, 59603.49, 0.07363997, 0.2546649, -1146069.3, 3708.7922, 0.000000009428086, 9.999494, 9.999737 
1.7649573e+3, 1.9267991e+2, -1115538.5, -1044230.75, 973.6611, 0.18714641, 0.32356152, -1044217.44, 7552.8784, 0.0, 9.999285, 10.000207 
1.7650028e+3, 2.0268023e+2, -1091041.5, -1101713.5, -56055.746, 0.19536647, 0.39895108, -1040068.4, -86299.45, 0.0, 9.999282, 9.99915 
1.7650446e+3, 2.1267942e+2, -919812.2, -967662.1, -16844.111, -0.033774696, 0.39092594, -914477.5, -58700.19, 0.0, 9.999798, 9.999142 
1.7650881e+3, 2.2267835e+2, -748361.2, -856867.44, 77314.54, -0.13855714, 0.39828345, -708163.56, 49624.375, 0.0, 10.000389, 9.99895 
1.7651355e+3, 2.32677e+2, -508756.34, -664731.56, 77583.07, 0.027214587, 0.33400327, -476738.5, 183062.3, 0.0, 10.001263, 9.999167 
1.7651823e+3, 2.4267559e+2, -364785.84, -573283.44, 87506.72, 0.1242263, 0.30673656, -332927.2, 228886.95, 0.0, 10.00168, 9.998935 
1.7652276e+3, 2.5267443e+2, -341693.63, -487726.3, 55028.164, 0.039358214, 0.26427305, -323279.75, 140545.05, 0.0, 10.001075, 9.999134 
1.7652726e+3, 2.626732e+2, -344716.63, -537542.56, 6525.76, -0.035183262, 0.28583387, -344496.03, 21340.682, 0.0000007067664, 10.000809, 9.998245 
1.7653167e+3, 2.726721e+2, -151714.48, -390559.78, -2999.528, -0.103470325, 0.3289552, -151676.81, 116172.07, 0.000029110019, 10.001451, 9.998266 
1.7653614e+3, 2.8267038e+2, -10490.995, -348120.97, -51319.297, -0.056013756, 0.37769002, -2862.8748, 167003.97, 0.00020317562, 10.00206, 9.997609 
1.7654063e+3, 2.926678e+2, 192970.1, -209192.17, -90581.766, 0.21346529, 0.33920497, 212430.75, 284324.06, 0.00072233164, 10.002831, 9.997512 
1.7654483e+3, 3.0266592e+2, 376216.28, -82893.336, 65269.344, 0.123545, 0.4198129, 385315.0, 385315.0, 0.0017127431, 10.003702, 9.997633 
1.7654923e+3, 3.1266403e+2, 515470.8, 56742.855, 101235.92, -0.19174862, 0.40950963, 536818.94, 536818.94, 0.003093255, 10.004321, 9.998288 
1.7746285e+3, 1.22632936e+2, -1995352.6, -1686862.3, 85373.89, 0.10636671, 0.26545316, -1664811.5, 73406.336, 0.08231803, 9.997274, 10.001531 
1.7746739e+3, 1.3263354e+2, -1807216.1, -1579348.5, 28741.135, -0.07021302, 0.20034881, -1575779.3, 64435.438, 0.054393712, 9.998091, 10.001182 
1.7747223e+3, 1.4263456e+2, -1773506.9, -1689318.0, 40535.07, 0.059373062, 0.2634072, -1672974.1, -130767.01, 0.02831169, 9.998422, 9.999581 
1.7747697e+3, 1.5263394e+2, -1648629.9, -1605104.6, 13637.53, 0.1253587, 0.25197005, -1601184.6, -156969.72, 0.010105246, 9.998748, 9.999314 
1.7748171e+3, 1.6263366e+2, -1424135.1, -1343630.4, -11570.509, 0.15942568, 0.2804627, -1342000.5, 4217.8896, 0.0018804772, 9.999166, 10.000236 
1.7748637e+3, 1.7263387e+2, -1242754.1, -1140955.8, 65516.45, 0.11663917, 0.21179819, -1108890.3, 139323.61, 0.00008970714, 9.99947, 10.000801 
1.77491e+3, 1.8263406e+2, -1243704.6, -1269503.5, 45292.445, 0.07775085, 0.23389158, -1209510.5, -59298.156, 0.000000028818846, 9.999542, 9.99922 
1.7749557e+3, 1.9263472e+2, -1202500.6, -1220427.0, 708.5722, 0.07864459, 0.38071945, -1202472.8, -150259.56, 0.0, 9.999258, 9.999015 
1.7750005e+3, 2.0263462e+2, -1031850.3, -957922.75, -51984.9, 0.0474542, 0.44712797, -931099.75, 23117.527, 0.0, 9.999201, 10.000169 
1.7750445e+3, 2.1263297e+2, -827164.4, -737307.2, 9371.464, -0.035207313, 0.19286507, -736340.2, 119885.734, 0.0, 9.999643, 10.000791 
1.7750894e+3, 2.2263202e+2, -755568.5, -835186.75, 97268.516, -0.062190987, 0.10491269, -690278.0, 67952.66, 0.0, 10.000218, 9.999187 
1.775137e+3, 2.3263335e+2, -536208.56, -696352.6, 119551.07, 0.061700292, 0.3152136, -472391.78, 187830.11, 0.0, 10.00114, 9.999015 
1.7751837e+3, 2.4263343e+2, -434782.66, -677528.94, 64355.07, 0.09826998, 0.47066084, -418776.72, 143447.84, 0.0, 10.001504, 9.998302 
1.7752275e+3, 2.5263092e+2, -419692.94, -612146.9, 39433.105, -0.0925705, 0.36718678, -411926.66, 52323.85, 0.0, 10.000923, 9.998348 
1.7752719e+3, 2.626288e+2, -361144.13, -535455.1, 13027.482, -0.19979262, 0.3397828, -360175.88, 6097.1235, 0.00000032366296, 10.0006485, 9.99834 
1.7753185e+3, 2.726281e+2, -155111.28, -349888.03, 36280.13, -0.07324597, 0.3963927, -148573.03, 119708.48, 0.00002512301, 10.001259, 9.9986315 
1.7753644e+3, 2.8262666e+2, -11056.538, -310714.34, -38867.445, 0.021108964, 0.4384973, -6097.268, 164198.58, 0.00020074962, 10.001882, 9.997958 
1.775407e+3, 2.9262358e+2, 211357.14, -144338.39, -48672.465, -0.003188987, 0.2932643, 217897.11, 290218.94, 0.0007393441, 10.002715, 9.9980135 
1.7754503e+3, 3.0262014e+2, 297082.22, -193077.28, 79466.305, -0.07573498, 0.21072651, 309643.63, 309643.63, 0.0017547982, 10.00348, 9.996979 
1.7754997e+3, 3.1261823e+2, 362793.8, -105255.984, 179961.75, 0.11057844, 0.2970852, 423987.28, 423987.28, 0.0031372139, 10.003708, 9.997443 
1.7846264e+3, 1.2258516e+2, -1912195.9, -1597713.9, 68593.33, 0.18113133, 0.24118815, -1583403.9, 155282.78, 0.08696164, 9.997638, 10.002005 
1.7846711e+3, 1.325864e+2, -1842582.4, -1572302.0, -30691.783, -0.1306139, 0.223232, -1568860.6, 71814.95, 0.057701517, 9.997771, 10.00138 
1.7847206e+3, 1.4258733e+2, -1863597.0, -1708331.9, -42875.547, 0.10534893, 0.25700152, -1697278.9, -154610.6, 0.030258754, 9.997704, 9.999795 
1.7847683e+3, 1.5258658e+2, -1647613.4, -1588332.8, 18823.482, 0.12582682, 0.21262093, -1582860.8, -138182.6, 0.0109521225, 9.998673, 9.99947 
1.784816e+3, 1.6258654e+2, -1412009.0, -1313579.5, 34491.895, 0.13615716, 0.24686684, -1302696.1, 43983.61, 0.0020959692, 9.999129, 10.000463 
1.7848627e+3, 1.7258775e+2, -1357891.0, -1169322.5, -28902.803, 0.13865755, 0.25082925, -1164991.9, 83674.414, 0.000105867584, 9.998558, 10.001046 
1.7849092e+3, 1.8258849e+2, -1417273.1, -1323537.9, -67505.375, 0.12616815, 0.30504116, -1288225.5, -137565.7, 0.0000000562377, 9.998232, 9.999487 
1.7849545e+3, 1.9258876e+2, -1223033.0, -1195288.6, -18015.691, 0.0622919, 0.38532728, -1186423.1, -133759.95, 0.0, 9.998967, 9.999328 
1.7849995e+3, 2.0258844e+2, -963702.8, -905950.0, -4558.8027, 0.011354068, 0.40476468, -905592.4, 49075.86, 0.0, 9.9995775, 10.000355 
1.7850444e+3, 2.1258709e+2, -761739.25, -690765.0, -68821.81, -0.0070637097, 0.16570331, -648819.7, 207854.14, 0.0, 10.000016, 10.000942 
1.78509e+3, 2.2258642e+2, -721230.4, -808469.94, -28856.553, -0.013270575, 0.096187524, -712549.25, 46126.555, 0.0, 10.000421, 9.999272 
1.7851374e+3, 2.3258792e+2, -578948.5, -712169.7, -16912.313, 0.0007868046, 0.32400635, -576835.06, 83830.445, 0.0, 10.000839, 9.999049 
1.7851838e+3, 2.4258807e+2, -494835.9, -707851.06, -59352.465, -0.0049979687, 0.4872022, -479414.9, 83253.09, 0.0, 10.001115, 9.998271 
1.7852283e+3, 2.5258535e+2, -389161.03, -607260.5, -64961.613, -0.09141995, 0.36959141, -371278.28, 93418.59, 0.0, 10.00118, 9.998254 
1.7852736e+3, 2.625832e+2, -241477.97, -439090.13, -12892.665, -0.11066189, 0.33705595, -240640.38, 126079.09, 0.00000018370703, 10.001292, 9.998696 
1.7853205e+3, 2.7258292e+2, -58779.023, -257693.55, 4781.81, -0.0037129966, 0.38782644, -58664.137, 210059.2, 0.000020759246, 10.001684, 9.999077 
1.7853667e+3, 2.8258184e+2, 66776.35, -250969.58, -17744.578, 0.05791041, 0.4326601, 67764.23, 238497.53, 0.00019246414, 10.002356, 9.998118 
1.7854103e+3, 2.925793e+2, 398718.47, -50854.703, -81010.05, 0.008294715, 0.3411006, 412870.47, 485624.7, 0.00073561596, 10.004012, 9.998017 
1.7854549e+3, 3.025754e+2, 511822.56, -68811.5, 10871.062, -0.008545196, 0.2067723, 512026.03, 512026.03, 0.0017390973, 10.004866, 9.997162 
1.7855038e+3, 3.1257203e+2, 285891.28, -119237.65, 95439.95, 0.20482507, 0.13688655, 307249.0, 307249.0, 0.0030548186, 10.003039, 9.997682 
1.7946222e+3, 1.2253689e+2, -1984713.8, -1755614.0, -71288.555, -0.043060943, 0.09292157, -1735242.6, 3913.923, 0.09190124, 9.997715, 10.000795 
1.7946696e+3, 1.3253786e+2, -1938653.8, -1772571.4, -27458.05, -0.07685377, 0.18173726, -1768149.5, -126995.58, 0.06119029, 9.997779, 9.99998 
1.7947178e+3, 1.4254153e+2, -1801703.0, -1581030.3, -41810.543, 0.040337656, 0.54547894, -1573374.1, -30252.201, 0.03230053, 9.997708, 10.000669 
1.7947659e+3, 1.5253991e+2, -1537614.9, -1352843.1, 65552.305, 0.0034521013, 0.26088884, -1331949.4, 113185.74, 0.011841973, 9.998642, 10.001107 
1.7948134e+3, 1.6253923e+2, -1447340.6, -1400133.1, 14125.806, -0.045844726, 0.15240785, -1396229.1, -49088.055, 0.0023264778, 9.999173, 9.999853 
1.7948607e+3, 1.7254099e+2, -1448183.0, -1360909.8, -49270.86, 0.056639604, 0.33719918, -1338730.3, -89601.164, 0.00012352158, 9.998566, 9.999734 
1.7949075e+3, 1.8254215e+2, -1339711.4, -1168146.5, -62775.957, 0.11898111, 0.47250023, -1147630.1, 3491.0767, 0.000000085167756, 9.998258, 10.000539 
1.7949533e+3, 1.92542e+2, -1108576.4, -943867.4, 17596.191, 0.055909332, 0.3426132, -942008.56, 111112.03, 0.0, 9.998905, 10.001085 
1.7949991e+3, 2.0254178e+2, -1017748.75, -998572.44, 3951.1062, -0.009796041, 0.28330976, -997790.25, -42669.035, 0.0, 9.999487, 9.999764 
1.7950442e+3, 2.1254186e+2, -870486.8, -894119.3, -43307.09, -0.029756268, 0.31365496, -837412.9, 19707.1, 0.0, 9.999909, 9.999602 
1.7950897e+3, 2.2254156e+2, -759877.2, -853513.94, -21469.072, -0.084349446, 0.36942956, -755189.44, 3933.7246, 0.0, 10.000269, 9.999037 
1.795136e+3, 2.3254074e+2, -595184.5, -705668.0, 9663.48, -0.22572033, 0.35626128, -594345.6, 66785.88, 0.0, 10.000668, 9.999174 
1.7951824e+3, 2.4253955e+2, -494152.8, -659916.44, -59283.258, -0.27402058, 0.36087605, -475133.2, 88010.766, 0.0, 10.00091, 9.998703 
1.7952299e+3, 2.525379e+2, -373463.28, -538506.1, -50169.19, -0.0521529, 0.29890478, -359409.7, 105752.08, 0.0, 10.00103, 9.998796 
1.7952771e+3, 2.625366e+2, -225411.5, -372797.22, -9009.695, 0.10880926, 0.29851896, -224862.78, 142312.53, 0.00000013255313, 10.001144, 9.999226 
1.7953224e+3, 2.7253658e+2, -41065.434, -178401.97, 29856.107, 0.0152595285, 0.31567016, -34855.68, 234318.06, 0.0000188634, 10.0015135, 9.999698 
1.7953682e+3, 2.825362e+2, 24908.771, -292098.44, 16506.488, -0.04915172, 0.3896935, 25765.943, 196942.95, 0.00018763484, 10.002146, 9.997944 
1.7954156e+3, 2.9253504e+2, 320831.1, -133779.03, 3930.448, 0.103287496, 0.48070472, 320865.1, 394054.53, 0.0007279235, 10.003682, 9.997602 
1.7954615e+3, 3.025315e+2, 488530.94, -32319.346, -39558.23, 0.15850721, 0.4009668, 491518.22, 491518.22, 0.001696841, 10.004483, 9.997605 
1.7955041e+3, 3.1252545e+2, 355419.6, 88551.86, 50277.81, -0.091625124, -0.042918812, 364577.63, 364577.63, 0.0029077495, 10.002795, 9.999212 
1.8046202e+3, 1.2248976e+2, -1880336.5, -1815621.5, -162273.55, -0.076577514, 0.1848119, -1682510.8, 57110.94, 0.097200245, 9.99893, 9.999819 
1.8046682e+3, 1.324896e+2, -1883175.4, -1753209.6, -73274.086, -0.0008507529, 0.17967367, -1720254.4, -78626.055, 0.06490086, 9.998188, 9.99992 
1.804715e+3, 1.4249307e+2, -1854590.0, -1569764.4, 26493.42, 0.03362639, 0.5101523, -1567321.0, -23724.623, 0.034457777, 9.997188, 10.000989 
1.804764e+3, 1.5249215e+2, -1670372.6, -1371917.4, 38079.055, 0.011738694, 0.25531596, -1367135.6, 78466.98, 0.0127833225, 9.997541, 10.001497 
1.8048118e+3, 1.6249196e+2, -1606442.4, -1448474.1, -42241.594, -0.055839337, 0.1627311, -1437887.9, -90283.72, 0.0025744103, 9.997984, 10.000092 
1.8048589e+3, 1.7249392e+2, -1382130.9, -1300076.8, -21358.605, 0.026113309, 0.34866664, -1294850.0, -45259.07, 0.00014305822, 9.998925, 9.999967 
1.8049061e+3, 1.8249518e+2, -1159533.5, -1070180.0, 26556.54, 0.11311369, 0.47509864, -1062883.1, 88699.24, 0.00000010953618, 9.999429, 10.000649 
1.8049526e+3, 1.9249487e+2, -1097642.0, -928490.25, -33315.44, 0.104232565, 0.3165179, -922165.1, 131417.39, 0.0, 9.998937, 10.001172 
1.8049987e+3, 2.0249467e+2, -1133604.5, -1080339.4, -78953.12, 0.06315341, 0.26301834, -1023647.94, -68064.984, 0.0, 9.998802, 9.999538 
1.8050441e+3, 2.124952e+2, -914319.06, -949216.75, -69675.66, -0.010656804, 0.37211147, -859940.6, -2361.2466, 0.0, 9.999765, 9.999289 
1.80509e+3, 2.2249494e+2, -723266.75, -803901.0, 9225.96, -0.086013086, 0.44225186, -722224.6, 37357.73, 0.0, 10.0004, 9.999305 
1.8051367e+3, 2.3249315e+2, -619722.9, -670055.06, 39926.5, -0.19579023, 0.29113448, -597693.0, 63904.09, 0.0, 10.0002985, 9.999594 
1.8051833e+3, 2.4249162e+2, -538301.25, -646059.9, 7396.548, -0.22190468, 0.2219841, -537795.94, 25814.756, 0.0, 10.000436, 9.999042 
1.8052313e+3, 2.5249118e+2, -329809.9, -490777.1, -18879.318, -0.01743967, 0.25546, -327625.28, 137992.48, 0.0, 10.001187, 9.99907 
1.8052787e+3, 2.6249057e+2, -139123.38, -337992.72, 8643.69, 0.13072723, 0.30995122, -138748.39, 228876.9, 0.00000007008213, 10.001777, 9.999157 
1.8053241e+3, 2.7248988e+2, 14831.093, -179098.38, -34329.035, 0.0079330215, 0.28008723, 20728.61, 290358.75, 0.000018211349, 10.002017, 9.999456 
1.8053699e+3, 2.824889e+2, 24779.545, -269310.88, -41056.92, -0.06455263, 0.3126295, 30403.797, 202041.98, 0.00018383289, 10.002028, 9.998162 
1.8054183e+3, 2.924879e+2, 78404.36, -220248.77, -28651.498, 0.12253521, 0.39015797, 81128.22, 154778.53, 0.00071480655, 10.001854, 9.997902 
1.8054655e+3, 3.0248532e+2, 235065.89, -165483.27, -16236.334, 0.23202178, 0.3894219, 235722.95, 235722.95, 0.0016441797, 10.002801, 9.997489 
1.8055089e+3, 3.124813e+2, 767148.0, 268164.3, -90655.75, -0.030826312, 0.19335467, 783107.94, 783107.94, 0.0027675093, 10.005656, 9.9991045 
1.814619e+3, 1.2244342e+2, -1937236.5, -1946029.6, -96991.67, -0.11329262, 0.4990056, -1844541.8, -104454.94, 0.10291468, 9.998972, 9.998883 
1.8146662e+3, 1.3244174e+2, -1773118.8, -1528048.8, -114904.8, -0.014450076, 0.2293311, -1482601.9, 159496.11, 0.06887483, 9.998182, 10.001534 
1.814712e+3, 1.4244168e+2, -1862271.4, -1593173.8, 9703.054, -0.014396098, 0.10598548, -1592824.4, -48730.582, 0.036753505, 9.997205, 10.000829 
1.814762e+3, 1.5244313e+2, -1734848.5, -1508717.4, 61532.22, 0.06751557, 0.17544436, -1493058.3, -46975.883, 0.01378539, 9.997543, 10.000561 
1.8148105e+3, 1.624448e+2, -1528232.3, -1289335.4, -24208.77, -0.00042408766, 0.2854973, -1286906.8, 61161.83, 0.002842686, 9.997994, 10.00118 
1.8148576e+3, 1.7244656e+2, -1258981.6, -1048412.94, 25121.574, -0.016829764, 0.28486905, -1045457.3, 204594.56, 0.00016504708, 9.998927, 10.001699 
1.8149048e+3, 1.824476e+2, -1210485.0, -1180575.3, 11869.013, 0.022785101, 0.30934417, -1176437.6, -24394.549, 0.00000012908751, 9.999448, 9.999884 
1.8149519e+3, 1.9244732e+2, -1212550.0, -1164141.1, -45974.785, 0.12100659, 0.30632016, -1136388.5, -82339.57, 0.0, 9.9989195, 9.999566 
1.8149982e+3, 2.0244701e+2, -1141307.0, -1076790.9, -63337.0, 0.13348442, 0.33911747, -1037970.44, -81916.23, 0.0, 9.998721, 9.9996 
1.8150438e+3, 2.1244699e+2, -891697.94, -870534.94, -22622.143, -0.020257086, 0.33641458, -856141.9, 1911.0444, 0.0, 9.999626, 9.999896 
1.8150902e+3, 2.224465e+2, -704724.5, -719295.44, 4082.908, -0.10563439, 0.31916595, -703658.44, 56396.375, 0.0, 10.000197, 9.999988 
1.8151386e+3, 2.324452e+2, -593410.5, -582114.25, 45000.105, -0.011370039, 0.14677125, -542409.2, 119652.86, 0.0, 10.000151, 10.000272 
1.8151864e+3, 2.4244423e+2, -555894.9, -641332.94, 19990.762, 0.02534, 0.09018338, -551448.8, 12620.006, 0.0, 10.000254, 9.999162 
1.815232e+3, 2.524449e+2, -349181.97, -496205.0, 20668.06, -0.059551775, 0.22745164, -346331.78, 119735.85, 0.0, 10.001036, 9.999103 
1.8152782e+3, 2.6244482e+2, -219118.1, -460856.28, 12559.794, -0.11318205, 0.35898823, -218467.28, 149604.95, 0.0000000874347, 10.001584, 9.998409 
1.815325e+3, 2.7244276e+2, -79757.23, -335633.94, -10550.483, -0.11405081, 0.28592217, -79322.94, 190768.63, 0.00001648955, 10.001855, 9.998452 
1.8153715e+3, 2.824404e+2, 29138.166, -228860.73, -54030.53, -0.11751744, 0.22918116, 39996.344, 212109.83, 0.00017253889, 10.001881, 9.998514 
1.8154186e+3, 2.9243833e+2, 128166.36, -93304.76, -17846.186, -0.037986718, 0.112134255, 129595.195, 203727.88, 0.00068025076, 10.001748, 9.998822 
1.8154672e+3, 3.0243716e+2, 136302.3, -314619.22, 52714.727, 0.09063394, 0.22796194, 142382.88, 142382.88, 0.0015745051, 10.002566, 9.996578 
1.8155152e+3, 3.12437e+2, 594990.56, 73659.516, 21672.842, 0.011165144, 0.54875976, 595890.0, 595890.0, 0.0026622687, 10.005018, 9.998038 
1.8246174e+3, 1.2239603e+2, -2235540.0, -2042462.3, 120108.74, -0.04655396, 0.567526, -1984904.3, -244350.34, 0.10907774, 9.996707, 9.999307 
1.8246642e+3, 1.3239391e+2, -1886047.9, -1544663.4, -81382.68, 0.01588331, 0.21202655, -1526255.1, 116310.52, 0.07313931, 9.997212, 10.001883 
1.8247099e+3, 1.4239293e+2, -1822642.8, -1567424.1, 14619.696, 0.0691283, -0.032354843, -1566589.4, -22020.664, 0.039204508, 9.997477, 10.000862 
1.8247595e+3, 1.5239544e+2, -1882196.9, -1600658.9, 93030.164, 0.11252781, 0.15886085, -1572695.8, -126146.555, 0.014855209, 9.996641, 10.00036 
1.8248074e+3, 1.6239762e+2, -1774251.1, -1397743.5, 73367.94, -0.004297517, 0.33410066, -1383951.9, -35420.293, 0.0031336718, 9.996251, 10.001275 
1.8248557e+3, 1.7239884e+2, -1449863.8, -1111994.0, 8748.845, -0.01661013, 0.25028947, -1111767.6, 138751.73, 0.00019006866, 9.997497, 10.001947 
1.8249038e+3, 1.8239966e+2, -1322777.0, -1241636.5, -64996.953, 0.03556367, 0.24241069, -1205587.3, -53075.195, 0.00000015151502, 9.998714, 9.999814 
1.8249509e+3, 1.9240038e+2, -1077056.3, -1115613.5, -49489.74, 0.08262341, 0.356124, -1043222.75, 11287.319, 0.0, 9.999948, 9.999393 
1.8249974e+3, 2.0240054e+2, -866128.7, -941758.3, 8009.4697, 0.08643439, 0.44647542, -865289.75, 91221.85, 0.0, 10.000607, 9.999608 
1.8250436e+3, 2.1239941e+2, -855671.8, -844390.0, -6487.7705, 0.00028669828, 0.32756752, -841433.75, 17086.125, 0.0, 9.999839, 9.999968 
1.8250905e+3, 2.2239842e+2, -812496.06, -750284.2, 5668.1963, -0.036600024, 0.24684721, -749772.0, 10754.053, 0.0, 9.999342, 10.0001955 
1.825139e+3, 2.3239823e+2, -636226.06, -569031.9, -2288.5266, 0.030256145, 0.15784074, -568954.06, 93568.28, 0.0, 9.999711, 10.000572 
1.8251868e+3, 2.4239804e+2, -547009.8, -608054.8, -6960.485, 0.054390755, 0.15112056, -546226.25, 18295.04, 0.0, 10.000199, 9.999405 
1.8252331e+3, 2.5239855e+2, -360530.78, -476222.0, -6286.4863, -0.038800392, 0.25229594, -360190.2, 106331.2, 0.0, 10.000857, 9.999314 
1.8252796e+3, 2.6239842e+2, -239156.84, -496950.63, 20610.81, -0.103211164, 0.37168136, -237519.39, 131007.4, 0.00000011582431, 10.0015745, 9.998158 
1.8253268e+3, 2.7239627e+2, -7219.6885, -358812.97, 1084.0936, -0.12595002, 0.34189066, -7216.346, 263331.6, 0.000015405387, 10.002589, 9.997948 
1.825374e+3, 2.823935e+2, 204889.66, -189274.77, -35363.336, -0.11247576, 0.2887033, 208037.22, 380611.94, 0.00016027999, 10.003302, 9.998096 
1.8254213e+3, 2.9239047e+2, 319205.7, -51645.04, -120095.04, -0.003539059, 0.12613037, 354699.75, 429301.72, 0.00063761644, 10.003283, 9.998371 
1.8254705e+3, 3.0238888e+2, 280265.28, -253968.27, 4808.489, 0.1295596, 0.22879699, 280308.53, 280308.53, 0.0015046491, 10.003584, 9.996506 
1.8255205e+3, 3.1238824e+2, 522267.53, -2358.286, -39300.254, 0.09628323, 0.5163714, 525195.25, 525195.25, 0.002602594, 10.004617, 9.997751 
1.8346152e+3, 1.223476e+2, -2102181.3, -1750679.6, 129692.93, 0.019901427, 0.34621143, -1708007.5, 33014.023, 0.11569034, 9.996621, 10.001382 
1.8346612e+3, 1.3234633e+2, -1958068.9, -1676227.4, -41528.875, -0.0033561192, 0.12122376, -1670235.6, -27206.861, 0.07769921, 9.997177, 10.000929 
1.8347085e+3, 1.423473e+2, -1807929.6, -1551822.3, -12469.636, 0.16549201, 0.13097315, -1551216.5, -6200.075, 0.04181763, 9.997536, 10.000943 
1.8347557e+3, 1.5234925e+2, -1843631.8, -1522761.4, 68820.79, 0.053763982, 0.21500221, -1508623.5, -61622.0, 0.015997248, 9.996637, 10.000899 
1.8348022e+3, 1.6235058e+2, -1837073.8, -1525754.1, 89001.42, -0.1662473, 0.30410874, -1502106.3, -153114.16, 0.0034491862, 9.996243, 10.0004015 
1.8348528e+3, 1.7235054e+2, -1547053.1, -1315016.0, 64760.86, -0.052855637, 0.22995076, -1298165.1, -47170.105, 0.00021871291, 9.997491, 10.000563 
1.8349028e+3, 1.8235108e+2, -1282358.1, -1158378.6, -28394.115, 0.038329642, 0.25799003, -1152185.1, 806.8652, 0.00000018976193, 9.998721, 10.00038 
1.8349491e+3, 1.9235384e+2, -998226.56, -944069.1, 4793.3013, -0.09081498, 0.46217287, -943648.2, 111318.99, 0.0, 9.9999075, 10.000592 
1.8349954e+3, 2.023551e+2, -874697.56, -942574.1, -12433.697, -0.17007092, 0.5846568, -872491.6, 84464.45, 0.0, 10.000532, 9.999639 
1.835043e+3, 2.1235253e+2, -901126.7, -912100.7, -31080.14, -0.044139225, 0.35408244, -875052.94, -16072.917, 0.0, 9.9997225, 9.9995575 
1.8350904e+3, 2.2235078e+2, -851307.7, -795177.56, 1490.6061, 0.011551075, 0.234067, -795138.0, -34142.848, 0.0, 9.9991865, 9.999965 
1.835137e+3, 2.3235202e+2, -663656.8, -594938.44, 25077.934, -0.13198303, 0.3041867, -586759.9, 76219.85, 0.0, 9.999575, 10.000464 
1.8351844e+3, 2.4235277e+2, -551956.1, -572863.5, 6552.6655, -0.20273535, 0.38299045, -550072.2, 14898.547, 0.0, 10.000002, 9.999746 
1.8352337e+3, 2.5235233e+2, -356492.63, -425077.78, 29564.457, -0.04807042, 0.3462506, -345507.84, 121469.414, 0.0, 10.000681, 9.999751 
1.8352826e+3, 2.6235163e+2, -268863.06, -520130.13, 44477.063, 0.023475802, 0.38756022, -261222.45, 107763.78, 0.000000090536304, 10.001396, 9.998091 
1.8353294e+3, 2.723503e+2, -39428.477, -391266.6, 52518.45, -0.13706362, 0.45107964, -31756.406, 239244.17, 0.00001528185, 10.002437, 9.997799 
1.8353769e+3, 2.823478e+2, 94458.4, -381596.13, -45177.95, -0.17237537, 0.48073652, 98707.89, 271733.3, 0.00015297295, 10.003134, 9.9968605 
1.8354258e+3, 2.9234388e+2, 184771.95, -282130.75, -102434.96, 0.101295225, 0.37698948, 206256.78, 281318.53, 0.0006053897, 10.003085, 9.996875 
1.8354748e+3, 3.0234066e+2, 258533.66, -235931.1, 29571.934, 0.19152632, 0.39838412, 260295.95, 260295.95, 0.001453225, 10.003305, 9.996767 
1.8355232e+3, 3.123365e+2, 447989.2, -33232.426, 4886.8853, -0.10812331, 0.24828622, 448038.8, 448038.8, 0.002577371, 10.004107, 9.997772 
1.8446122e+3, 1.2229949e+2, -1955183.3, -1554165.5, 101115.25, 0.06798765, 0.24928096, -1530112.4, 211377.7, 0.12272786, 9.997007, 10.002712 
1.8446587e+3, 1.322992e+2, -2037695.4, -1758470.8, -82276.984, 0.060088072, 0.1383233, -1736030.3, -92540.055, 0.08254445, 9.996854, 10.000515 
1.8447062e+3, 1.4230114e+2, -1870642.8, -1606758.4, -21936.547, 0.2203446, 0.28618225, -1604947.1, -59475.754, 0.04459436, 9.9972, 10.000737 
1.844753e+3, 1.5230228e+2, -1596299.5, -1405775.1, -11529.998, 0.062864825, 0.29499707, -1405080.0, 42384.414, 0.017215712, 9.998347, 10.000883 
1.8447997e+3, 1.62303e+2, -1456503.8, -1390943.1, 25014.627, -0.15880167, 0.3397174, -1382489.0, -33027.785, 0.0037916328, 9.999079, 9.99996 
1.8448508e+3, 1.7230272e+2, -1364078.4, -1291660.3, 42761.363, -0.05079858, 0.30194524, -1271836.9, -20369.83, 0.00025177147, 9.999046, 9.999971 
1.8449013e+3, 1.8230298e+2, -1262171.6, -1112785.8, -12393.949, 0.042120006, 0.3276455, -1111764.5, 41701.66, 0.00000025167606, 9.998702, 10.000702 
1.844948e+3, 1.9230519e+2, -1232315.5, -981735.44, -41171.145, -0.076465085, 0.41390616, -975144.25, 80298.12, 0.0, 9.997971, 10.001267 
1.8449947e+3, 2.0230626e+2, -1258339.5, -1113972.1, -60093.516, -0.14490232, 0.47307232, -1092231.9, -134801.42, 0.0, 9.997831, 9.999771 
1.8450426e+3, 2.1230464e+2, -920426.75, -925880.94, -68716.64, -0.038318705, 0.34276536, -854383.1, 5064.4165, 0.0, 9.999618, 9.999516 
1.8450902e+3, 2.2230354e+2, -624309.44, -716198.06, -12927.8955, 0.01200383, 0.30141145, -622525.25, 138933.75, 0.0, 10.0009, 9.999668 
1.845137e+3, 2.3230429e+2, -518359.16, -568682.56, -31232.822, -0.13269374, 0.36058277, -503413.5, 160037.14, 0.0, 10.000771, 10.000057 
1.8451847e+3, 2.4230462e+2, -475260.97, -551319.3, -52010.023, -0.18985185, 0.4264554, -448859.88, 116586.83, 0.0, 10.000605, 9.9995985 
1.8452343e+3, 2.523041e+2, -379281.25, -445649.4, -88458.3, -0.030196695, 0.390966, -317987.53, 149464.94, 0.0, 10.000559, 9.999669 
1.8452837e+3, 2.623031e+2, -337809.1, -540742.5, -42609.426, 0.04461994, 0.404758, -329225.53, 40237.17, 0.00000009817215, 10.000878, 9.998194 
1.8453318e+3, 2.7230114e+2, -59621.586, -384585.88, -22497.979, -0.11541223, 0.39541987, -58071.395, 213410.58, 0.000013983738, 10.002235, 9.997934 
1.8453804e+3, 2.8229848e+2, 123101.71, -361279.25, -85493.234, -0.12899014, 0.39589986, 137748.38, 311256.2, 0.00014293527, 10.003319, 9.996909 
1.8454291e+3, 2.922953e+2, 280453.03, -230568.25, -93956.19, 0.11339564, 0.37808132, 297180.28, 372715.34, 0.0005725451, 10.003712, 9.996943 
1.8454772e+3, 3.0229214e+2, 329616.1, -171274.86, 134202.86, 0.10428181, 0.37938204, 363306.75, 363306.75, 0.0013987414, 10.003674, 9.997039 
1.8455267e+3, 3.1228712e+2, 234200.13, -170682.33, -18021.371, -0.07859716, 0.13402967, 235000.69, 235000.69, 0.002530116, 10.002781, 9.997459 
1.854608e+3, 1.2225165e+2, -1919610.5, -1523978.4, 66538.12, -0.09730028, 0.26395354, -1513087.6, 228872.94, 0.13014582, 9.99714, 10.002902 
1.8546566e+3, 1.3225253e+2, -2032727.8, -1743793.1, -77857.625, 0.14565742, 0.25706753, -1724148.9, -80198.97, 0.08765755, 9.996827, 10.000629 
1.8547027e+3, 1.422545e+2, -1907402.6, -1685307.6, 4950.3735, 0.113882855, 0.4204602, -1685197.3, -139263.97, 0.04753598, 9.997208, 10.000197 
1.8547514e+3, 1.5225448e+2, -1635630.1, -1505756.0, 41391.973, 0.04611604, 0.38734815, -1493685.9, -45747.07, 0.01851746, 9.998421, 10.000162 
1.8547997e+3, 1.6225474e+2, -1442714.3, -1386855.5, 19589.486, -0.09029551, 0.430081, -1380670.4, -30729.926, 0.0041650403, 9.999182, 9.999937 
1.8548496e+3, 1.7225532e+2, -1345573.4, -1262726.1, 46905.715, -0.08833244, 0.46284187, -1241571.4, 10364.418, 0.00029041685, 9.999075, 10.00016 
1.8548992e+3, 1.8225533e+2, -1251606.4, -1095901.0, -44805.945, -0.04638417, 0.44727716, -1083928.3, 70006.21, 0.0000003514084, 9.998727, 10.000806 
1.8549472e+3, 1.9225438e+2, -1235142.5, -975177.0, -64882.883, 0.037692357, 0.21262336, -959883.06, 96052.58, 0.0, 9.997914, 10.001342 
1.8549947e+3, 2.0225398e+2, -1255313.5, -1087769.3, -25565.668, 0.06290063, 0.11308129, -1083955.0, -126020.055, 0.0, 9.9977455, 9.999994 
1.8550421e+3, 2.1225569e+2, -919955.25, -894338.25, 10315.984, -0.04484176, 0.28723612, -890700.56, -30777.047, 0.0, 9.999484, 9.999799 
1.85509e+3, 2.2225657e+2, -674625.6, -781228.0, -8017.817, -0.11654867, 0.43757096, -674025.94, 87893.39, 0.0, 10.000724, 9.999311 
1.8551384e+3, 2.3225519e+2, -584294.1, -674237.1, -27533.035, -0.071205124, 0.34565845, -576535.1, 87398.38, 0.0, 10.000629, 9.999406 
1.8551868e+3, 2.4225399e+2, -545886.1, -660312.75, -62581.906, -0.033389293, 0.32404155, -518306.44, 47639.363, 0.0, 10.000438, 9.998933 
1.8552348e+3, 2.5225395e+2, -441862.72, -541513.9, -77691.46, -0.05716404, 0.40112403, -399392.3, 68553.7, 0.0, 10.00042, 9.999073 
1.8552832e+3, 2.622529e+2, -344377.78, -518368.22, -12388.175, -0.10743676, 0.43597296, -343500.16, 26455.447, 0.00000008466028, 10.00072, 9.998426 
1.8553337e+3, 2.7224916e+2, -61707.906, -330700.44, 50968.695, -0.14376493, 0.20071892, -52374.223, 219614.97, 0.000011476472, 10.001991, 9.998422 
1.8553841e+3, 2.8224593e+2, 138565.4, -257670.66, -71010.56, -0.1012261, 0.08913185, 150907.0, 324924.3, 0.00012751702, 10.002998, 9.997782 
1.8554312e+3, 2.9224512e+2, 331328.97, -65639.48, -62873.348, -0.051913753, 0.18838085, 341049.1, 417068.97, 0.00053064205, 10.003453, 9.998203 
1.8554774e+3, 3.0224332e+2, 294527.75, -181499.39, 94357.055, -0.25169957, 0.23382664, 312548.78, 312548.78, 0.001324133, 10.003406, 9.997096 
1.8555315e+3, 3.1224108e+2, 114474.12, -299953.66, -14633.24, 0.08472762, 0.32405075, 114990.164, 114990.164, 0.0024247223, 10.002293, 9.996799 
1.8646052e+3, 1.2220282e+2, -1822883.1, -1399711.5, 99728.836, -0.07848086, 0.21652617, -1377386.3, 365052.47, 0.1378835, 9.997403, 10.003774 
1.8646541e+3, 1.3220419e+2, -1901652.6, -1765074.9, -157282.84, 0.18403007, 0.30583575, -1661895.8, -17471.656, 0.09301642, 9.99808, 9.999881 
1.8646994e+3, 1.422049e+2, -1777296.4, -1636237.1, -61773.19, 0.0499641, 0.39818963, -1613009.9, -66588.19, 0.050644647, 9.998182, 10.00005 
1.86475e+3, 1.5220506e+2, -1599449.1, -1477945.4, 15926.18, 0.057637844, 0.3770481, -1475892.5, -27468.656, 0.01991141, 9.998642, 10.000235 
1.8647996e+3, 1.6220555e+2, -1480506.8, -1391159.5, 28922.334, 0.016533837, 0.43645343, -1382614.4, -32192.408, 0.0045744055, 9.998866, 10.000052 
1.864849e+3, 1.7220631e+2, -1402455.3, -1270134.5, 23179.984, -0.0247815, 0.46867105, -1266191.4, -13776.023, 0.0003360051, 9.998614, 10.000316 
1.864898e+3, 1.8220632e+2, -1272859.1, -1091650.5, -46652.152, -0.010270483, 0.43857697, -1080345.3, 74068.164, 0.00000050835786, 9.998518, 10.000936 
1.8649463e+3, 1.9220516e+2, -1016958.6, -850576.9, -72216.62, 0.0965175, 0.16465095, -823604.44, 232810.81, 0.0, 9.999333, 10.0015135 
1.8649942e+3, 2.0220469e+2, -950625.94, -932675.06, 6403.41, 0.14094572, 0.04405289, -930624.94, 27789.164, 0.0, 9.999815, 10.000054 
1.8650416e+3, 2.1220647e+2, -926728.1, -899800.25, 10444.181, -0.023835083, 0.2246289, -896224.25, -35821.17, 0.0, 9.999442, 9.999783 
1.8650897e+3, 2.2220744e+2, -872232.56, -877589.56, -4186.9077, -0.12299454, 0.38455993, -869940.7, -107541.7, 0.0, 9.999371, 9.999306 
1.8651392e+3, 2.3220648e+2, -621052.2, -692639.75, -2160.2944, -0.031377662, 0.33726826, -620987.06, 43422.215, 0.0, 10.000382, 9.999403 
1.8651885e+3, 2.4220534e+2, -446080.06, -638005.3, 11778.565, 0.0495631, 0.33223072, -445359.9, 121060.9, 0.0, 10.001237, 9.998697 
1.865236e+3, 2.5220415e+2, -301516.75, -513732.9, -2832.7544, -0.0031359447, 0.3253656, -301478.94, 166952.67, 0.0, 10.001553, 9.99872 
1.8652844e+3, 2.6220247e+2, -197598.4, -407688.94, 101875.74, -0.07636754, 0.30828777, -156311.25, 214135.13, 0.000000065173005, 10.001563, 9.998776 
1.8653353e+3, 2.7220023e+2, -180206.4, -323474.72, 139460.3, -0.11065506, 0.16339968, -95058.46, 177406.81, 0.000009433609, 10.0009, 9.998999 
1.8653862e+3, 2.8219816e+2, -165806.2, -384096.34, 56991.313, -0.05334567, 0.121909425, -151822.66, 22659.455, 0.00011541111, 10.000826, 9.997947 
1.865434e+3, 2.9219666e+2, 201283.52, -122383.97, -31294.0, -0.03977208, 0.14679453, 204281.42, 280774.06, 0.0004954094, 10.0025425, 9.998229 
1.86548e+3, 3.02194e+2, 302444.75, -185979.17, 35333.38, -0.31833315, 0.11228851, 304987.56, 304987.56, 0.001249624, 10.003479, 9.997026 
1.8655343e+3, 3.121937e+2, 206082.9, -220626.1, -95836.02, 0.13372624, 0.3933778, 226618.75, 226618.75, 0.0022871592, 10.002729, 9.997137 
1.8746036e+3, 1.2215291e+2, -1709178.6, -1202528.0, 166412.23, -0.025651073, 0.07534047, -1152758.1, 590166.44, 0.14588223, 9.997455, 10.005362 
1.8746513e+3, 1.3215414e+2, -2015000.0, -2013300.5, -145550.25, 0.06762395, 0.27631202, -1868597.6, -223684.86, 0.0986057, 9.998133, 9.9981575 
1.8746965e+3, 1.4215204e+2, -1751548.8, -1601594.1, -61962.836, -0.08982277, 0.19081597, -1579303.8, -32364.828, 0.053927336, 9.998256, 10.000253 
1.874748e+3, 1.5215382e+2, -1528241.5, -1339749.8, 43102.332, 0.0066113495, 0.2471171, -1330361.3, 118559.875, 0.021407956, 9.998661, 10.001195 
1.8747991e+3, 1.621555e+2, -1453452.1, -1342314.1, 16522.06, 0.06035761, 0.3479209, -1339910.0, 10995.011, 0.0050250688, 9.998897, 10.000376 
1.8748485e+3, 1.721556e+2, -1401235.5, -1266754.3, 19166.477, 0.052411176, 0.31081194, -1264076.0, -11169.765, 0.00038988978, 9.998599, 10.000354 
1.8748972e+3, 1.8215577e+2, -1252684.1, -1053257.6, -37095.76, 0.03660373, 0.28729957, -1046580.9, 108323.77, 0.000000733184, 9.998536, 10.001193 
1.874945e+3, 1.9215748e+2, -1000150.94, -806590.1, -31893.074, 0.019963056, 0.26959658, -801470.5, 255410.84, 0.0, 9.999294, 10.001839 
1.8749927e+3, 2.0215836e+2, -963035.3, -948432.5, -8998.084, -0.008222515, 0.26416215, -944146.2, 14722.447, 0.0, 9.999764, 9.999973 
1.8750407e+3, 2.1215707e+2, -966626.7, -954909.3, 3001.6563, -0.06967905, 0.16669911, -954185.2, -93299.766, 0.0, 9.999317, 9.999467 
1.8750891e+3, 2.2215632e+2, -876079.2, -849940.44, 11271.232, -0.12020973, 0.1655243, -845751.5, -82855.16, 0.0, 9.999207, 9.999578 
1.875139e+3, 2.32158e+2, -604279.44, -623392.0, 47873.56, -0.09135978, 0.3309884, -565017.7, 99862.02, 0.0, 10.000233, 9.9999485 
1.875189e+3, 2.4215832e+2, -462411.72, -632391.56, 21937.191, -0.030482253, 0.43184882, -459626.22, 107249.77, 0.0, 10.001061, 9.998826 
1.8752381e+3, 2.5215462e+2, -330236.75, -531181.75, 19810.67, 0.03773527, 0.17564993, -328302.28, 140608.06, 0.0, 10.001373, 9.998687 
1.875287e+3, 2.62152e+2, -199986.34, -373115.4, 73573.09, 0.020356614, 0.04992033, -172944.45, 197990.2, 0.00000004605578, 10.001377, 9.999113 
1.8753362e+3, 2.7215388e+2, -157975.08, -251998.69, 122606.305, -0.116135195, 0.27266666, -73676.51, 199238.34, 0.000008319171, 10.000785, 9.99955 
1.8753865e+3, 2.8215438e+2, -210024.53, -456389.8, 82064.74, -0.11252187, 0.46808076, -185191.69, -10282.771, 0.00010877432, 10.000734, 9.9975 
1.8754375e+3, 2.9214948e+2, 85140.91, -293715.03, 52524.12, 0.031648662, 0.23962097, 92287.96, 169244.69, 0.0004719854, 10.002247, 9.997197 
1.875484e+3, 3.0214414e+2, 235306.55, -234789.66, 8485.729, -0.28217798, 0.017292932, 235459.67, 235459.67, 0.0011856594, 10.003092, 9.996877 
1.8755366e+3, 3.12144e+2, 231524.92, -63415.23, -21645.545, 0.061089344, 0.2800367, 233105.02, 233105.02, 0.0021480394, 10.0023, 9.998423 
1.8846013e+3, 1.2210328e+2, -1887523.1, -1201445.9, 58413.445, 0.09394338, 0.16209705, -1196508.0, 546906.94, 0.15411249, 9.995742, 10.006241 
1.8846484e+3, 1.3210443e+2, -2160587.8, -2112993.5, -162219.4, 0.011039764, 0.35047168, -1972835.0, -327432.13, 0.10442951, 9.997265, 9.997887 
1.8846956e+3, 1.4210105e+2, -1635015.0, -1545256.0, -28357.867, -0.032693382, 0.1609562, -1537047.5, 10393.325, 0.057399224, 9.999056, 10.000256 
1.8847467e+3, 1.5210307e+2, -1451398.9, -1264326.6, 2802.754, -0.002632379, 0.21356417, -1264284.6, 185133.69, 0.023018045, 9.999042, 10.00153 
1.8847974e+3, 1.6210493e+2, -1460990.1, -1304123.0, -55166.742, 0.038275983, 0.30040202, -1286665.0, 64733.164, 0.005521801, 9.998653, 10.000759 
1.8848467e+3, 1.7210522e+2, -1478497.8, -1257446.9, -51869.805, 0.07172612, 0.23776041, -1245880.8, 7515.9863, 0.0004532519, 9.997859, 10.000782 
1.8848956e+3, 1.8210575e+2, -1416051.8, -1140133.0, -31334.805, 0.08173874, 0.22446394, -1136619.3, 18772.496, 0.0000010252129, 9.997451, 10.001116 
1.8849435e+3, 1.9210789e+2, -1104217.9, -886555.06, -65086.44, 0.00954055, 0.27353817, -868577.44, 188789.83, 0.0, 9.998705, 10.001568 
1.8849917e+3, 2.0210916e+2, -960526.8, -929387.7, -82887.195, -0.050950445, 0.32066813, -860620.44, 98732.18, 0.0, 9.999707, 10.000131 
1.8850401e+3, 2.1210824e+2, -823056.25, -843845.8, -59441.637, -0.083452605, 0.22949256, -773107.4, 88257.14, 0.0, 10.000136, 9.999826 
1.885089e+3, 2.2210757e+2, -681249.44, -749839.56, 14099.622, -0.103215285, 0.21288802, -678464.2, 84908.766, 0.0, 10.000532, 9.999616 
1.8851393e+3, 2.3210822e+2, -484829.53, -581338.94, 242.2518, -0.10339496, 0.28433993, -484828.94, 180536.27, 0.0, 10.001109, 9.999818 
1.8851899e+3, 2.4210797e+2, -407846.6, -593967.9, -63961.453, -0.04997871, 0.33386037, -387985.34, 179381.02, 0.0, 10.001392, 9.998926 
1.8852395e+3, 2.5210536e+2, -385413.63, -543523.3, -91575.164, 0.08083254, 0.1713925, -343490.47, 125901.55, 0.0, 10.000935, 9.998812 
1.8852888e+3, 2.621035e+2, -275382.3, -411228.4, -2584.5327, 0.10999475, 0.11813506, -275333.16, 96076.805, 0.000000017635879, 10.000882, 9.999081 
1.8853377e+3, 2.7210498e+2, 71321.93, -147516.31, -6414.948, -0.11691158, 0.3106058, 71509.81, 344903.8, 0.000007223604, 10.002403, 9.999477 
1.885388e+3, 2.8210515e+2, 158616.5, -262007.92, -46217.04, -0.14730975, 0.47240812, 163634.83, 339026.78, 0.00010058898, 10.003226, 9.997624 
1.885441e+3, 2.9210046e+2, 25947.578, -320119.78, -52623.12, 0.18940566, 0.25673392, 33772.535, 111211.805, 0.00044319447, 10.001829, 9.997221 
1.885488e+3, 3.0209583e+2, -24161.86, -342561.8, 9991.133, -0.063502826, 0.107157744, -23848.654, -23848.654, 0.0011127426, 10.001214, 9.997059 
1.8855377e+3, 3.1209522e+2, 552120.3, 237461.69, -12647.761, -0.11509726, 0.27796414, 552627.9, 552627.9, 0.0020053464, 10.003873, 9.999739 
1.8945971e+3, 1.2205371e+2, -1890312.8, -1223766.1, -104469.35, 0.06630628, 0.45116726, -1207776.0, 536137.1, 0.16258536, 9.995801, 10.006088 
1.8946445e+3, 1.3205512e+2, -2076857.0, -1930540.8, -55391.47, -0.09777483, 0.542473, -1911936.6, -266042.28, 0.110513955, 9.997206, 9.999181 
1.8946964e+3, 1.4205222e+2, -1637131.6, -1547990.3, -15428.715, 0.1312544, 0.3253167, -1545395.4, 2529.2512, 0.06108175, 9.999061, 10.000227 
1.8947454e+3, 1.5205292e+2, -1483064.4, -1329929.3, 6722.0547, -0.048250824, 0.28486556, -1329634.8, 120280.17, 0.024752133, 9.999044, 10.001072 
1.8947943e+3, 1.620538e+2, -1416638.0, -1227094.3, -87052.61, -0.17136604, 0.28552362, -1193181.0, 158722.38, 0.0060684755, 9.9987135, 10.001265 
1.8948434e+3, 1.720552e+2, -1418153.8, -1129001.3, -76605.33, -0.05026027, 0.25255743, -1109960.1, 143926.66, 0.0005270964, 9.997843, 10.001675 
1.8948928e+3, 1.8205623e+2, -1436951.5, -1189703.5, -14185.148, 0.030862017, 0.24348217, -1188892.4, -33017.594, 0.0000013718216, 9.9974785, 10.000759 
1.8949421e+3, 1.9205652e+2, -1175816.4, -1020606.5, -9152.294, -0.030650558, 0.18786933, -1020068.7, 37803.125, 0.0, 9.998645, 10.000674 
1.8949911e+3, 2.0205723e+2, -943087.7, -883360.8, -66882.76, -0.09827751, 0.22293845, -839977.25, 119888.24, 0.0, 9.999651, 10.00048 
1.8950398e+3, 2.120599e+2, -775260.5, -721422.5, -37609.063, -0.13793027, 0.40949267, -702091.4, 159749.77, 0.0, 10.000024, 10.000727 
1.895089e+3, 2.2206095e+2, -723873.3, -795584.25, 23161.854, -0.15926364, 0.5107738, -717042.9, 46788.87, 0.0, 10.000346, 9.9993925 
1.89514e+3, 2.3205732e+2, -563614.25, -697799.8, 34087.55, -0.15989226, 0.21607864, -555451.44, 110412.42, 0.0, 10.000911, 9.999111 
1.8951906e+3, 2.4205466e+2, -444026.3, -620391.2, -79866.7, -0.11556995, 0.07358302, -413234.66, 154653.45, 0.0, 10.001168, 9.99886 
1.8952402e+3, 2.5205618e+2, -391384.25, -520405.84, -99979.61, 0.051176857, 0.30710497, -336909.47, 132967.53, 0.0, 10.000783, 9.999044 
1.8952897e+3, 2.6205665e+2, -318928.53, -477411.78, 24147.322, 0.09971144, 0.4877452, -315331.0, 56543.867, 0.0000000071100716, 10.000771, 9.998683 
1.8953392e+3, 2.7205378e+2, -5698.2646, -251592.84, 68469.19, -0.20113762, 0.30187678, 12081.365, 285981.1, 0.0000064443307, 10.002172, 9.998869 
1.8953903e+3, 2.8205106e+2, 157778.42, -205164.94, -80613.33, -0.2738772, 0.19429865, 174877.83, 350802.13, 0.0000894982, 10.002954, 9.998154 
1.8954438e+3, 2.920496e+2, 53611.637, -220881.47, -92924.766, 0.29671666, 0.20569494, 82110.76, 160051.28, 0.00040204253, 10.001637, 9.998002 
1.8954916e+3, 3.020487e+2, -33219.26, -311685.38, 44833.223, 0.14810461, 0.38203833, -26179.074, -26179.074, 0.0010225481, 10.001027, 9.997348 
1.8955375e+3, 3.120468e+2, 483801.13, 273611.72, 198508.75, -0.5497799, 0.38634464, 603318.56, 603318.56, 0.0018580131, 10.003161, 10.000315 
1.9045945e+3, 1.2200387e+2, -1586992.3, -1170700.9, -62812.367, 0.119494006, 0.4873014, -1161429.9, 582975.3, 0.1713416, 9.998502, 10.005255 
1.9046423e+3, 1.3200563e+2, -1923277.1, -1818701.8, 97994.86, -0.063969515, 0.5737914, -1759917.4, -113535.945, 0.11689223, 9.998134, 9.999479 
1.9046961e+3, 1.4200298e+2, -1805393.1, -1647727.3, 56122.63, 0.25819245, 0.38185176, -1629790.5, -81382.74, 0.06499328, 9.997976, 10.000069 
1.9047444e+3, 1.5200354e+2, -1701247.1, -1429221.5, 68368.42, 0.04252641, 0.32111242, -1413005.1, 37395.12, 0.026617203, 9.997522, 10.001114 
1.9047926e+3, 1.6200434e+2, -1620191.6, -1328968.9, 21997.088, -0.11190986, 0.31194267, -1327316.8, 25072.746, 0.0066676727, 9.997335, 10.001224 
1.9048418e+3, 1.720057e+2, -1286442.9, -1063266.8, -41582.73, -0.023192864, 0.27416041, -1055770.8, 198600.95, 0.0006122247, 9.99875, 10.001677 
1.9048913e+3, 1.8200651e+2, -1138907.6, -1079907.8, -5390.525, 0.046551995, 0.25634986, -1079419.3, 76941.305, 0.0000017786746, 9.999678, 10.000453 
1.904941e+3, 1.9200623e+2, -1106023.6, -1038105.56, 11169.926, -0.008990346, 0.18714294, -1036315.7, 22049.2, 0.0, 9.999346, 10.000222 
1.9049907e+3, 2.0200647e+2, -1054113.6, -963787.56, -25160.998, -0.06086126, 0.21556811, -957251.7, 3112.642, 0.0, 9.999032, 10.000212 
1.9050397e+3, 2.1200892e+2, -884302.25, -802787.1, -96306.23, -0.09646348, 0.40377146, -738969.06, 123373.51, 0.0, 9.999406, 10.000463 
1.9050892e+3, 2.2200985e+2, -814822.06, -806856.7, -69439.35, -0.11774448, 0.50416344, -741285.9, 23047.855, 0.0, 9.999573, 9.999691 
1.90514e+3, 2.3200667e+2, -776369.4, -741500.06, 1448.0763, -0.13351883, 0.20440866, -741440.06, -75080.63, 0.0, 9.999193, 9.999639 
1.9051908e+3, 2.4200438e+2, -708752.94, -746512.4, -9894.323, -0.10300934, 0.06242229, -706317.4, -137938.78, 0.0, 9.999366, 9.998847 
1.905241e+3, 2.5200552e+2, -309819.16, -508682.25, -72271.445, 0.028671594, 0.27924645, -286328.8, 184042.9, 0.0, 10.001466, 9.998789 
1.9052912e+3, 2.620056e+2, -62065.96, -401013.53, 25127.316, 0.087294996, 0.45175925, -60213.316, 312161.03, 0.000000016068412, 10.002746, 9.998251 
1.9053417e+3, 2.720024e+2, -131310.52, -375908.66, 40795.21, -0.12679991, 0.28427416, -124685.92, 149718.89, 0.000006020835, 10.0015545, 9.998323 
1.9053929e+3, 2.8199935e+2, -117679.87, -312295.47, -75255.16, -0.18732323, 0.1701679, -91974.88, 84459.02, 0.00007835106, 10.000944, 9.998389 
1.905445e+3, 2.9199848e+2, 260089.06, -59965.51, -150992.11, 0.20347941, 0.1928417, 320078.47, 398521.78, 0.00035541307, 10.002797, 9.998542 
1.9054933e+3, 3.0199862e+2, 339067.97, -183602.92, -16572.9, 0.10274455, 0.4567401, 339592.94, 339592.94, 0.0009231034, 10.003819, 9.996884 
1.9055426e+3, 3.1199473e+2, 216664.63, 8726.911, 29137.262, -0.25407198, 0.3571507, 220670.31, 220670.31, 0.0017128557, 10.001836, 9.999167 
1.9145918e+3, 1.2195436e+2, -1672747.0, -1359101.3, -212203.33, -0.05466656, 0.27202177, -1252061.1, 492822.16, 0.18042894, 9.9986105, 10.0036745 
1.9146416e+3, 1.3195594e+2, -1990656.4, -1963513.0, 109078.0, 0.04218172, 0.40909007, -1867165.6, -220301.97, 0.12358676, 9.998159, 9.998469 
1.9146939e+3, 1.4195305e+2, -1812984.9, -1677031.3, 35816.695, 0.22125548, 0.28449616, -1668172.8, -119279.484, 0.069141634, 9.9980345, 9.999839 
1.9147433e+3, 1.5195501e+2, -1666132.0, -1349657.9, 59319.523, 0.17994064, 0.3178557, -1338904.5, 111968.766, 0.028615344, 9.997481, 10.001696 
1.9147925e+3, 1.6195685e+2, -1654742.3, -1406722.8, 47094.754, 0.12439621, 0.39493114, -1398081.3, -45227.86, 0.0073205116, 9.997362, 10.000673 
1.9148417e+3, 1.7195688e+2, -1359865.4, -1213673.3, 22585.895, 0.07773073, 0.3177127, -1210263.4, 44586.254, 0.00070924795, 9.998743, 10.000644 
1.9148909e+3, 1.819567e+2, -1147429.1, -1117311.9, -9937.068, 0.030822562, 0.27577174, -1114328.6, 42520.246, 0.0000023137907, 9.999754, 10.000165 
1.9149406e+3, 1.919571e+2, -1111587.0, -1040560.0, 2559.278, 0.0021398822, 0.28446448, -1040467.94, 18377.652, 0.0, 9.9993, 10.000232 
1.9149901e+3, 2.0195694e+2, -1133086.3, -1115983.3, -26701.611, -0.0325806, 0.3050968, -1096497.1, -135648.25, 0.0, 9.99897, 9.999199 
1.9150397e+3, 2.119554e+2, -1001225.6, -1020277.5, -72423.664, -0.049938016, 0.22772521, -937704.1, -74836.46, 0.0, 9.99929, 9.999024 
1.9150893e+3, 2.2195448e+2, -785304.06, -707238.9, -80473.62, -0.074461594, 0.21027778, -656831.25, 108046.15, 0.0, 9.999403, 10.000461 
1.9151396e+3, 2.3195632e+2, -676758.25, -498666.78, -2903.1033, -0.10610758, 0.25675222, -498619.47, 168232.23, 0.0, 9.999043, 10.001378 
1.91519e+3, 2.4195682e+2, -730033.1, -756326.5, 33499.56, -0.12283924, 0.28119698, -707192.94, -138351.78, 0.0, 9.9992075, 9.99886 
1.9152413e+3, 2.519535e+2, -383842.9, -624033.3, 20915.787, -0.078926206, 0.112870924, -382035.16, 88840.26, 0.0, 10.001303, 9.998074 
1.9152929e+3, 2.6195088e+2, -127188.164, -494024.5, 2222.338, -0.031513307, 0.081473894, -127174.7, 245729.39, 0.000000038925435, 10.002555, 9.997711 
1.9153443e+3, 2.719508e+2, -190351.3, -453757.44, 2942.7537, -0.015175702, 0.26986536, -190318.44, 84591.44, 0.0000054500297, 10.001368, 9.997879 
1.9153954e+3, 2.8194967e+2, -154220.72, -347837.53, -47873.406, -0.04205151, 0.38371712, -143030.38, 33893.81, 0.00006657065, 10.000766, 9.998235 
1.9154443e+3, 2.9194698e+2, 219604.55, -78463.63, -55145.992, -0.15853566, 0.23054893, 229480.0, 308428.5, 0.00030456812, 10.0025215, 9.998548 
1.9154935e+3, 3.019462e+2, 226720.23, -353777.34, -64013.953, -0.2870971, 0.42905998, 233695.5, 233695.5, 0.00081260083, 10.003535, 9.995848 
1.9155489e+3, 3.1194183e+2, -16606.564, -354691.84, -15347.407, 0.16173339, 0.4175489, -15911.298, -15911.298, 0.0015525428, 10.00135, 9.996877 
1.9245903e+3, 1.2190628e+2, -1767601.4, -1540658.6, -264926.72, -0.046316415, 0.3655404, -1365925.4, 379428.47, 0.18987963, 9.998682, 10.002235 
1.9246408e+3, 1.3190523e+2, -1887235.6, -1911962.9, -13350.659, 0.13114616, 0.24758615, -1881403.1, -234043.16, 0.13060497, 9.998852, 9.998493 
1.9246918e+3, 1.419038e+2, -1874735.9, -1731364.4, 24064.02, 0.242686, 0.2829609, -1727433.3, -178059.27, 0.07352615, 9.997716, 9.99962 
1.9247417e+3, 1.5190567e+2, -1509017.5, -1290348.0, -9099.591, 0.23608552, 0.3210967, -1289970.0, 161385.38, 0.030745408, 9.998623, 10.001565 
1.9247915e+3, 1.6190706e+2, -1404088.4, -1323669.4, -24548.87, 0.21050303, 0.37475893, -1316767.9, 36572.695, 0.008026891, 9.999264, 10.000321 
1.9248408e+3, 1.7190656e+2, -1324172.8, -1248606.3, -23560.637, 0.11482643, 0.2879625, -1241862.3, 13480.035, 0.0008187495, 9.999218, 10.000177 
1.9248903e+3, 1.8190607e+2, -1279641.9, -1216933.0, -32903.5, 0.048325032, 0.25695297, -1202837.0, -45492.023, 0.0000031359323, 9.999006, 9.999837 
1.9249399e+3, 1.9190659e+2, -1144723.3, -1082229.6, -62844.652, 0.034158293, 0.2999891, -1043292.3, 16049.283, 0.0, 9.999185, 9.999992 
1.9249897e+3, 2.0190641e+2, -1067988.3, -1086096.8, -45041.04, 0.018815238, 0.33539277, -1031100.4, -69755.22, 0.0, 9.999423, 9.99919 
1.9250394e+3, 2.1190454e+2, -872797.1, -940540.7, 10035.538, -0.01571632, 0.21668337, -871341.75, -7976.107, 0.0, 10.000111, 9.999172 
1.9250895e+3, 2.2190347e+2, -628926.75, -666580.5, 49053.395, -0.036925133, 0.18209119, -595211.4, 170164.95, 0.0, 10.000646, 10.000135 
1.9251399e+3, 2.3190516e+2, -456307.4, -454119.78, -52502.348, -0.052681368, 0.2666247, -402699.84, 264654.3, 0.0, 10.000822, 10.00083 
1.9251907e+3, 2.4190551e+2, -455168.88, -603635.56, -63625.85, -0.056668766, 0.30570534, -431632.9, 137713.33, 0.0, 10.001002, 9.999046 
1.9252428e+3, 2.5190237e+2, -324367.28, -548775.75, -3954.2349, -0.049717225, 0.116558634, -324297.63, 147078.94, 0.0, 10.001491, 9.998514 
1.925295e+3, 2.6189998e+2, -236701.14, -531515.2, 13137.552, -0.01837774, 0.07461809, -236116.86, 137284.63, 0.000000047147957, 10.00174, 9.997846 
1.9253455e+3, 2.7190006e+2, -208424.61, -460303.2, -8484.561, -0.0052475836, 0.27887988, -208139.13, 67267.55, 0.0000044268, 10.00124, 9.997894 
1.9253962e+3, 2.8189903e+2, -143050.38, -349120.78, 45503.21, -0.025463626, 0.40284124, -133449.89, 43970.91, 0.000054025306, 10.000897, 9.998147 
1.9254467e+3, 2.9189616e+2, 123669.59, -145469.45, 34091.355, -0.12430434, 0.24678016, 127920.734, 207367.13, 0.00025235597, 10.001941, 9.99837 
1.9254972e+3, 3.0189425e+2, 154227.7, -363770.88, 15050.849, -0.20156465, 0.33223417, 154664.64, 154664.64, 0.000694764, 10.002912, 9.996088 
1.9255514e+3, 3.118911e+2, 181729.88, -260422.28, 48195.813, 0.24251264, 0.4217948, 186922.38, 186922.38, 0.0013677371, 10.002659, 9.996923 
1.9345897e+3, 1.21858545e+2, -1815705.3, -1665991.0, -29837.9, -0.022604227, 0.6851708, -1660263.5, 85565.125, 0.1997211, 9.9987335, 10.001066 
1.9346392e+3, 1.3185313e+2, -1801681.1, -1738440.8, -78572.89, 0.06981984, 0.06837431, -1685364.3, -37489.547, 0.13795441, 9.998867, 9.999679 
1.9346893e+3, 1.4185576e+2, -1879545.5, -1748949.9, 22436.877, 0.19343822, 0.424974, -1745202.6, -195357.06, 0.07814733, 9.997745, 9.999487 
1.9347392e+3, 1.518556e+2, -1569773.3, -1422927.3, 37956.184, 0.11340779, 0.34444582, -1413696.6, 38149.395, 0.033007, 9.998658, 10.000617 
1.9347891e+3, 1.6185468e+2, -1397603.6, -1332868.4, -27705.803, 0.020713296, 0.23182434, -1322630.0, 31223.604, 0.008786739, 9.999358, 10.0002165 
1.934839e+3, 1.7185462e+2, -1311378.0, -1223847.3, -22937.031, 0.006298335, 0.17907391, -1218200.9, 37649.895, 0.00094156526, 9.99922, 10.000354 
1.934889e+3, 1.8185462e+2, -1297199.4, -1260182.3, -37534.867, -0.005194753, 0.19604738, -1236840.6, -78991.5, 0.0000044945964, 9.999033, 9.999528 
1.9349389e+3, 1.9185466e+2, -1189493.4, -1166820.9, -47686.492, 0.0035362234, 0.24207363, -1129141.6, -69289.01, 0.0, 9.999142, 9.999437 
1.934989e+3, 2.0185483e+2, -1005571.75, -944407.75, -35169.234, -0.009840834, 0.31223094, -928383.56, 33470.344, 0.0, 9.999366, 10.000194 
1.935039e+3, 2.1185622e+2, -778908.56, -711139.9, 42896.88, -0.06847809, 0.36616805, -690358.94, 173479.23, 0.0, 9.99996, 10.000824 
1.9350895e+3, 2.2185645e+2, -757012.8, -879720.44, 51423.746, -0.106880434, 0.40248406, -738312.3, 27521.928, 0.0, 10.000425, 9.998774 
1.9351405e+3, 2.3185322e+2, -669728.0, -859204.44, -36444.0, -0.066918924, 0.24292958, -662960.1, 4906.4956, 0.0, 10.000666, 9.998118 
1.9351922e+3, 2.4185072e+2, -462224.6, -583000.4, -58209.207, -0.023572031, 0.16880555, -438737.53, 131153.56, 0.0, 10.000845, 9.999268 
1.9352451e+3, 2.5185195e+2, -240670.67, -330861.03, 23973.621, 0.023888005, 0.2802826, -234694.23, 237182.19, 0.0, 10.0013075, 10.000097 
1.9352971e+3, 2.6185238e+2, -226874.13, -448628.25, -5794.339, 0.018644739, 0.39371496, -226722.83, 147148.1, 0.00000001782158, 10.001479, 9.998537 
1.9353452e+3, 2.7185005e+2, -218238.53, -428950.6, -20376.475, -0.16680588, 0.3194793, -216286.16, 59610.81, 0.0000033385966, 10.0010395, 9.998195 
1.9353952e+3, 2.8184772e+2, -162471.58, -373686.06, 44966.89, -0.22853124, 0.29610106, -153296.81, 24625.125, 0.00004416703, 10.000811, 9.99803 
1.935451e+3, 2.918459e+2, 78604.65, -187252.81, 94394.25, 0.11690311, 0.2654996, 108710.65, 188648.6, 0.00021030295, 10.001724, 9.998186 
1.9355038e+3, 3.018427e+2, 171701.52, -245463.89, 14839.137, 0.14256006, 0.19979283, 172228.7, 172228.7, 0.0005914213, 10.002563, 9.997067 
1.9355495e+3, 3.1184083e+2, 234888.48, -9338.157, 26298.873, -0.2275111, 0.26229745, 237688.31, 237688.31, 0.0011860685, 10.002126, 9.998872 
1.9445898e+3, 1.2180769e+2, -1931558.3, -1737162.9, 219165.13, 0.15131176, 0.63397104, -1594609.1, 151716.7, 0.20999403, 9.99807, 10.000953 
1.9446371e+3, 1.3180228e+2, -1828620.8, -1716736.0, -118812.06, 0.005985502, 0.013414242, -1641354.9, 7019.2886, 0.14565058, 9.998505, 10.000024 
1.944687e+3, 1.4180696e+2, -1740419.9, -1679320.8, -3913.9507, 0.18571034, 0.54000485, -1679071.1, -128745.44, 0.083007626, 9.998666, 9.999535 
1.9447373e+3, 1.5180571e+2, -1670564.3, -1515363.4, 34613.85, 0.101354554, 0.38297984, -1507993.5, -55657.355, 0.03539992, 9.99815, 10.000223 
1.9447874e+3, 1.618037e+2, -1650733.4, -1470574.9, 16488.328, 0.0070999246, 0.19036037, -1469078.3, -114724.25, 0.009600047, 9.997678, 10.000087 
1.9448379e+3, 1.7180403e+2, -1428921.3, -1277659.3, -4268.282, 0.022944454, 0.17970665, -1277539.0, -21190.285, 0.0010784023, 9.998401, 10.000373 
1.9448882e+3, 1.8180439e+2, -1294599.5, -1263995.4, -4051.9321, 0.040888425, 0.23040056, -1263468.0, -105123.586, 0.0000066792873, 9.999073, 9.999482 
1.944938e+3, 1.9180404e+2, -1107901.6, -1130768.9, 8219.799, -0.010012178, 0.24128139, -1105253.6, -44903.203, 0.0, 9.999729, 9.999397 
1.944988e+3, 2.0180401e+2, -913668.75, -906801.06, 27440.893, -0.042373702, 0.29810876, -882580.0, 79772.23, 0.0, 10.000036, 10.000122 
1.9450392e+3, 2.1180575e+2, -832682.8, -751156.9, -38824.863, -0.019339342, 0.39635515, -735626.06, 128707.63, 0.0, 9.999647, 10.000699 
1.9450903e+3, 2.21806e+2, -900212.0, -982771.1, -52533.98, 0.0016546078, 0.45451844, -874679.75, -108349.72, 0.0, 9.999576, 9.998476 
1.9451417e+3, 2.3180196e+2, -658062.9, -895321.4, 9497.813, -0.0075045605, 0.2519512, -657683.25, 10687.778, 0.0, 10.000919, 9.997755 
1.9451936e+3, 2.4179916e+2, -345714.16, -521702.28, 80181.53, 0.012831878, 0.1682041, -314661.84, 255737.22, 0.0, 10.001645, 9.9993 
1.9452463e+3, 2.5180107e+2, -352819.03, -367073.2, 40206.4, 0.07830888, 0.3336044, -319112.9, 153265.23, 0.0, 10.000462, 10.000256 
1.945298e+3, 2.6180175e+2, -449110.56, -514014.16, -16740.977, 0.06609809, 0.4484082, -445046.9, -70676.95, 0.000000002142629, 9.999764, 9.998915 
1.9453458e+3, 2.7179885e+2, -152716.22, -360057.88, -35203.34, -0.19740161, 0.27729574, -146902.27, 129497.55, 0.0000030022966, 10.0012865, 9.99857 
1.9453962e+3, 2.817966e+2, 88858.52, -215929.73, 53784.984, -0.25976327, 0.22790612, 98071.31, 276494.03, 0.00003904193, 10.002382, 9.99836 
1.9454534e+3, 2.9179642e+2, 74139.16, -148925.9, 91948.734, 0.20603973, 0.3322522, 107154.45, 187578.11, 0.0001845939, 10.00151, 9.998556 
1.9455059e+3, 3.0179313e+2, -28441.432, -262738.84, 79813.69, 0.20747964, 0.20489752, -3836.6777, -3836.6777, 0.0005147017, 10.000864, 9.997755 
1.9455503e+3, 3.117913e+2, 352471.0, 138434.31, -2905.625, -0.35998154, 0.20982075, 352510.44, 352510.44, 0.0010261646, 10.002502, 9.9997225 
1.9545898e+3, 1.2175404e+2, -1839143.3, -1590299.9, 245043.52, 0.31298998, 0.2533193, -1439899.8, 306941.1, 0.22070916, 9.9981785, 10.002163 
1.954634e+3, 1.3175286e+2, -1851574.9, -1780559.5, -93268.26, -0.15729293, 0.106296875, -1716268.6, -67413.234, 0.15369554, 9.998557, 9.999561 
1.9546852e+3, 1.417573e+2, -1702946.9, -1631717.3, -23879.492, 0.105919436, 0.61227703, -1624452.6, -73637.48, 0.08810495, 9.998795, 9.999798 
1.9547357e+3, 1.5175596e+2, -1658764.9, -1495241.5, 17238.883, 0.11618807, 0.4349313, -1493443.9, -40618.16, 0.037922986, 9.998159, 10.000361 
1.9547857e+3, 1.6175427e+2, -1650732.1, -1479393.9, 20080.48, 0.062055342, 0.2658516, -1477071.9, -122231.71, 0.010466628, 9.997712, 10.000011 
1.954837e+3, 1.7175491e+2, -1442732.0, -1313222.3, 33543.824, 0.08811831, 0.3024336, -1305049.9, -48214.984, 0.0012294218, 9.998416, 10.000127 
1.9548878e+3, 1.817553e+2, -1267592.8, -1218611.6, 14987.248, 0.07997888, 0.36666834, -1214389.8, -55558.598, 0.000009908067, 9.9991255, 9.999765 
1.954937e+3, 1.9175476e+2, -1078722.1, -1061658.1, 39964.22, -0.089065716, 0.31122538, -1029325.3, 31508.836, 0.0, 9.999694, 9.999889 
1.9549868e+3, 2.0175391e+2, -1008426.75, -1081424.3, 14233.331, -0.18111724, 0.29431927, -1005749.6, -42908.723, 0.0, 9.999942, 9.998967 
1.9550395e+3, 2.1175312e+2, -983592.44, -1032037.44, -46954.055, 0.038874958, 0.3145625, -954981.1, -90129.25, 0.0, 9.999512, 9.998833 
1.9550918e+3, 2.217521e+2, -875869.94, -894864.3, -26901.342, 0.18009305, 0.3438253, -856838.56, -89974.96, 0.0, 9.999405, 9.9991665 
1.955143e+3, 2.3175132e+2, -554376.4, -633344.7, 73540.7, 0.036723156, 0.2972455, -510390.56, 158477.55, 0.0, 10.000726, 9.999642 
1.9551946e+3, 2.4175057e+2, -395029.5, -569236.06, 55776.285, -0.061100923, 0.2996297, -378701.75, 192171.39, 0.0, 10.001407, 9.999088 
1.9552463e+3, 2.517498e+2, -453402.47, -541465.0, 2163.6763, 0.03298784, 0.2962919, -453349.3, 19532.023, 0.0, 10.000325, 9.999116 
1.9552974e+3, 2.6174858e+2, -461437.16, -520281.0, 1112.7094, 0.026422728, 0.29415512, -461416.13, -86522.24, 0.00000003752054, 9.999667, 9.998926 
1.955347e+3, 2.717467e+2, -141007.45, -293548.94, 42406.777, -0.21209149, 0.17988509, -130011.016, 146901.73, 0.0000033251551, 10.001105, 9.999116 
1.9553986e+3, 2.8174582e+2, 77125.04, -165256.84, 37533.637, -0.26162297, 0.21415994, 82804.18, 261725.95, 0.000036409245, 10.002059, 9.998864 
1.9554538e+3, 2.917477e+2, 91555.555, -59514.383, 66738.85, 0.08778856, 0.46744987, 116815.45, 197718.9, 0.00016708692, 10.001293, 9.999269 
1.9555038e+3, 3.0174544e+2, -25455.258, -218917.2, 82121.48, -0.099962965, 0.37416986, 4702.767, 4702.767, 0.00045037686, 10.000684, 9.998153 
1.955554e+3, 3.1174183e+2, 281533.25, 114533.07, 124820.05, -0.25989524, 0.18299004, 348207.4, 348207.4, 0.000871658, 10.002004, 9.999784 
1.9645874e+3, 1.2170169e+2, -2022605.6, -1641071.8, 96401.2, 0.3516573, 0.20254646, -1618097.6, 129256.99, 0.23177752, 9.996737, 10.0022955 
1.9646327e+3, 1.317038e+2, -1962850.9, -1741047.1, -115242.695, -0.08003244, 0.3162152, -1692011.1, -42673.25, 0.1620495, 9.99745, 10.000338 
1.964684e+3, 1.417059e+2, -1674423.0, -1565543.0, -21307.979, 0.119077206, 0.5264014, -1561521.5, -10201.393, 0.093428105, 9.998799, 10.000228 
1.964734e+3, 1.5170538e+2, -1527307.0, -1395104.0, -3144.8606, 0.10647434, 0.3951852, -1395029.3, 58292.926, 0.04057487, 9.998928, 10.000668 
1.9647841e+3, 1.6170472e+2, -1476612.0, -1400816.6, 44667.9, 0.07936261, 0.30852222, -1380135.8, -24809.072, 0.011385711, 9.998934, 9.99996 
1.9648358e+3, 1.7170563e+2, -1367621.0, -1294361.9, 55675.453, 0.11905749, 0.3877433, -1264347.0, -7026.806, 0.0013940044, 9.999021, 9.999962 
1.9648874e+3, 1.8170606e+2, -1270822.8, -1228381.6, 50072.625, 0.12551558, 0.4662594, -1195218.5, -35901.313, 0.000014255441, 9.999129, 9.999701 
1.964937e+3, 1.9170496e+2, -1080661.9, -1067194.1, 22844.762, -0.04592571, 0.3609477, -1050111.5, 11212.654, 0.0, 9.999698, 9.999848 
1.9649872e+3, 2.0170349e+2, -1014177.9, -1129104.5, -18162.508, -0.12895074, 0.29703653, -1011375.9, -48039.813, 0.0, 10.000084, 9.998577 
1.9650397e+3, 2.1170183e+2, -967306.7, -1085670.6, -15771.703, 0.10702925, 0.28348488, -965241.2, -99885.35, 0.0, 9.999875, 9.998295 
1.965092e+3, 2.217006e+2, -815541.3, -815818.7, 104083.63, 0.27044654, 0.30895168, -711596.3, 55773.418, 0.0, 9.999612, 9.999611 
1.9651435e+3, 2.31701e+2, -646575.8, -582779.06, 135277.73, 0.09146297, 0.30157384, -475689.75, 193671.03, 0.0, 9.999668, 10.000506 
1.9651952e+3, 2.417008e+2, -621791.7, -709261.5, 65835.414, -0.02592481, 0.3123913, -586488.3, -15128.815, 0.0, 9.999963, 9.998829 
1.9652468e+3, 2.5169903e+2, -419594.75, -620687.4, 706.212, 0.04020549, 0.28332847, -419592.28, 53788.41, 0.0, 10.000956, 9.998274 
1.9652979e+3, 2.6169735e+2, -197057.66, -400249.97, 37988.723, 0.03255236, 0.29272798, -190187.58, 185212.73, 0.00000006167767, 10.001533, 9.998847 
1.9653483e+3, 2.7169654e+2, -183927.08, -282095.8, 38618.695, -0.15915988, 0.26370442, -170556.03, 106851.62, 0.000003603985, 10.000698, 9.999376 
1.9654004e+3, 2.8169587e+2, -188527.34, -286642.88, 37518.793, -0.1844773, 0.30434787, -175824.89, 3588.2551, 0.00003430298, 10.000207, 9.99892 
1.9654542e+3, 2.916964e+2, 117825.14, -51223.168, -2135.6387, 0.021897838, 0.4339903, 117852.12, 199259.98, 0.00015136057, 10.001481, 9.999248 
1.9655038e+3, 3.0169505e+2, 294492.8, 44585.844, 13636.491, -0.22533004, 0.38685334, 295234.72, 295234.72, 0.0003913985, 10.002406, 9.99914 
1.9655566e+3, 3.11693e+2, 148578.39, 43653.92, 67940.39, -0.13999861, 0.2594051, 181954.27, 181954.27, 0.0007264296, 10.001067, 9.999776 
1.9745816e+3, 1.2165136e+2, -2104251.3, -1813585.1, -142353.61, 0.055283055, 0.53487396, -1755482.1, -7619.936, 0.24301729, 9.996874, 10.000802 
1.9746329e+3, 1.3165538e+2, -1829397.6, -1490872.6, -27711.283, 0.19772165, 0.6703256, -1488619.1, 161200.1, 0.17062773, 9.997415, 10.002306 
1.974683e+3, 1.4165264e+2, -1615735.4, -1475588.1, -6739.676, 0.11171524, 0.25947517, -1475264.8, 76576.9, 0.09895461, 9.998884, 10.00087 
1.9747318e+3, 1.5165377e+2, -1490783.8, -1340718.6, 4509.831, -0.020842995, 0.24641885, -1340583.3, 113244.17, 0.04335473, 9.998997, 10.001035 
1.9747819e+3, 1.6165487e+2, -1457254.5, -1380398.6, 37630.203, -0.051880732, 0.3123518, -1365042.4, -9227.723, 0.012356995, 9.999026, 10.000053 
1.974834e+3, 1.716561e+2, -1369619.6, -1298769.0, 65705.95, 0.034797896, 0.428286, -1259547.0, -1741.5662, 0.0015709848, 9.999026, 9.999928 
1.974886e+3, 1.8165645e+2, -1297511.6, -1289683.1, 57205.223, 0.0807612, 0.51725006, -1236258.4, -76454.46, 0.000019593592, 9.999152, 9.999272 
1.9749375e+3, 1.9165449e+2, -1129229.0, -1157400.0, 53628.625, 0.023417713, 0.38387215, -1087867.0, -26045.295, 0.0, 9.999653, 9.999252 
1.9749886e+3, 2.0165256e+2, -1005914.56, -1089244.4, -23079.621, 0.0015669903, 0.30031478, -999949.3, -36109.98, 0.0, 9.9999895, 9.998894 
1.9750395e+3, 2.1165194e+2, -936975.1, -988773.94, -18532.209, 0.10880321, 0.3234703, -931027.7, -65182.633, 0.0, 9.99973, 9.999028 
1.9750907e+3, 2.216514e+2, -830597.5, -808445.9, 90763.95, 0.170323, 0.36472678, -728084.44, 39764.62, 0.0, 9.999437, 9.999748 
1.9751433e+3, 2.316509e+2, -671698.8, -609058.06, 146992.05, 0.08349373, 0.2731467, -490086.63, 179763.05, 0.0, 9.99955, 10.000385 
1.9751959e+3, 2.4165e+2, -676099.5, -781265.5, 82701.836, 0.017383471, 0.23218517, -630679.6, -58822.688, 0.0, 9.999783, 9.998425 
1.9752476e+3, 2.516487e+2, -479166.88, -711735.6, 48300.1, 0.01598681, 0.3034147, -469534.8, 4342.3643, 0.0, 10.000815, 9.997718 
1.9752988e+3, 2.6164773e+2, -245115.47, -456399.47, 16617.188, -0.034331404, 0.43404752, -243816.53, 132075.67, 0.000000055759365, 10.001345, 9.998549 
1.9753493e+3, 2.7164796e+2, -205873.94, -296185.78, 14800.432, -0.13070671, 0.5164134, -203510.28, 74377.29, 0.0000036492006, 10.000571, 9.999333 
1.9754012e+3, 2.8164673e+2, -243141.23, -368745.03, 44185.86, -0.14140996, 0.51708394, -229154.66, -49257.57, 0.00003270768, 10.000061, 9.998435 
1.9754545e+3, 2.9164273e+2, 47125.445, -145863.5, 73793.35, -0.10937542, 0.2516772, 72107.89, 154043.38, 0.00013942833, 10.001252, 9.998709 
1.9755052e+3, 3.0164236e+2, 292730.88, 164220.53, -18635.018, -0.34662133, 0.29222244, 295378.56, 295378.56, 0.00034788088, 10.001902, 10.000198 
1.9755597e+3, 3.1164423e+2, 74088.49, 8531.091, 115180.48, 0.05620091, 0.4020175, 161063.64, 161063.64, 0.00061963446, 10.000582, 9.999759 
1.9845784e+3, 1.2160081e+2, -1958299.8, -1860663.1, -41924.285, -0.017132336, 0.58181167, -1845131.8, -96771.484, 0.25424254, 9.998368, 9.999778 
1.984632e+3, 1.316051e+2, -1620523.1, -1342425.3, 85060.86, 0.3269695, 0.68952465, -1318471.3, 331840.75, 0.17932345, 9.998548, 10.00302 
1.9846813e+3, 1.4160176e+2, -1782308.3, -1554796.5, 52481.3, 0.14442486, 0.17808416, -1543274.0, 9063.841, 0.104643695, 9.997769, 10.000819 
1.9847302e+3, 1.5160327e+2, -1623069.1, -1426903.3, -5310.3647, -0.029731654, 0.22561337, -1426759.6, 27562.244, 0.046255346, 9.998205, 10.000805 
1.9847806e+3, 1.6160466e+2, -1486842.8, -1391452.8, 20074.885, -0.040097784, 0.33361733, -1387400.1, -31092.217, 0.013380272, 9.998809, 10.000079 
1.9848333e+3, 1.716055e+2, -1207890.4, -1201220.0, 52088.996, 0.026786484, 0.3959839, -1152359.5, 105941.086, 0.0017591557, 10.000048, 10.000107 
1.9848858e+3, 1.8160562e+2, -1088977.5, -1219672.3, 53509.027, 0.071775325, 0.45824283, -1069864.9, 90435.54, 0.0000256483, 10.0007105, 9.999001 
1.9849375e+3, 1.9160384e+2, -1145786.3, -1223665.1, 28547.73, 0.08053066, 0.38624778, -1136442.6, -74123.12, 0.0, 9.999777, 9.998741 
1.9849892e+3, 2.0160212e+2, -1105686.5, -1104397.6, -5506.505, 0.10408359, 0.3490964, -1099497.9, -135161.25, 0.0, 9.999166, 9.999188 
1.9850397e+3, 2.1160175e+2, -766334.3, -831975.0, -11132.776, 0.12726991, 0.3381963, -764497.56, 101839.0, 0.0, 10.000583, 9.999695 
1.9850907e+3, 2.2160123e+2, -555262.2, -727178.1, 68907.4, 0.13721761, 0.35343054, -531052.1, 237286.44, 0.0, 10.001555, 9.99928 
1.9851431e+3, 2.3160014e+2, -601931.8, -692280.75, 25928.459, 0.101310164, 0.29826948, -595019.7, 75329.695, 0.0, 10.000543, 9.999326 
1.985196e+3, 2.4159893e+2, -653543.1, -755293.4, -9245.694, 0.07725376, 0.29750818, -652709.8, -80347.336, 0.0, 9.9999, 9.998531 
1.9852486e+3, 2.5159824e+2, -354315.38, -576522.56, 40704.668, 0.035379786, 0.37193012, -347093.66, 127280.63, 0.0, 10.001358, 9.998383 
1.9853008e+3, 2.6159757e+2, -76550.85, -373319.78, 41722.25, -0.010123907, 0.48608053, -70796.76, 305587.13, 0.00000004684117, 10.002493, 9.998566 
1.9853513e+3, 2.715968e+2, -33791.23, -256233.72, -26817.486, -0.045001425, 0.50146127, -30603.809, 247783.77, 0.000003631824, 10.001923, 9.998963 
1.9854024e+3, 2.815947e+2, -109109.68, -308418.4, 43023.324, -0.04548974, 0.4417039, -100219.125, 80185.62, 0.000030883682, 10.001018, 9.998379 
1.9854552e+3, 2.9159072e+2, -134319.47, -242082.61, 92766.36, -0.07873303, 0.18262021, -80921.87, 1521.7118, 0.00012822116, 10.000069, 9.998606 
1.985507e+3, 3.0159104e+2, -24481.002, -19476.611, -7670.007, -0.20952784, 0.3141563, -13910.97, -13910.97, 0.00031412422, 9.99983, 9.99993 
1.9855602e+3, 3.1159166e+2, 51331.977, 1446.4524, -47030.406, 0.07251418, 0.32602313, 79624.55, 79624.55, 0.0005494111, 10.000378, 9.999805 
1.9945769e+3, 1.2155024e+2, -1949744.1, -1877230.0, -55471.4, -0.055801988, 0.31502712, -1847217.6, -98372.63, 0.26535824, 9.998516, 9.999586 
1.9946292e+3, 1.3155246e+2, -1657565.6, -1435843.8, 61674.996, 0.16809155, 0.29263493, -1419842.8, 230977.28, 0.18805622, 9.998652, 10.002213 
1.994679e+3, 1.415535e+2, -1832789.5, -1675932.4, 41529.5, 0.09997591, 0.30189723, -1665615.6, -112809.63, 0.11045076, 9.99784, 9.999949 
1.9947287e+3, 1.5155402e+2, -1685638.5, -1553969.9, 22251.555, 0.0026357344, 0.34162498, -1550311.1, -95506.414, 0.04926506, 9.998199, 9.999927 
1.9947805e+3, 1.6155396e+2, -1482695.8, -1392947.9, 48928.395, 0.027809773, 0.3671517, -1371431.6, -14624.004, 0.014456319, 9.998848, 10.000051 
1.9948335e+3, 1.7155376e+2, -1174815.9, -1138647.6, 104046.95, 0.021731287, 0.2878926, -1051124.9, 207681.58, 0.0019582892, 10.000068, 10.000528 
1.9948858e+3, 1.8155342e+2, -1089515.0, -1234493.6, 35786.953, 0.0011559866, 0.2799869, -1081162.5, 79645.484, 0.000032105352, 10.000773, 9.998868 
1.994937e+3, 1.915529e+2, -1180185.9, -1284738.8, -5947.394, 0.050941013, 0.37274823, -1179848.6, -117030.516, 0.0, 9.999739, 9.998337 
1.9949883e+3, 2.0155212e+2, -1101203.0, -1076560.6, 7489.0645, 0.09006876, 0.449271, -1074463.1, -109634.7, 0.0, 9.999078, 9.999425 
1.9950397e+3, 2.115512e+2, -741831.0, -753176.0, 56677.11, 0.078638464, 0.3280833, -690543.25, 176287.81, 0.0, 10.00046, 10.000297 
1.9950916e+3, 2.215501e+2, -655875.75, -898355.2, 54738.86, 0.062354084, 0.27962324, -644091.4, 124746.586, 0.0, 10.0013895, 9.998185 
1.9951434e+3, 2.3154877e+2, -761192.7, -992290.94, -4934.9517, 0.060428202, 0.3813228, -761087.4, -90228.57, 0.0, 10.000405, 9.997332 
1.9951957e+3, 2.4154752e+2, -653460.2, -708689.5, 6940.0986, 0.040212654, 0.49626124, -652601.44, -79724.57, 0.0, 9.999696, 9.998953 
1.9952498e+3, 2.515476e+2, -255275.63, -328336.03, 110376.62, 0.014042288, 0.49217588, -175541.23, 299331.6, 0.0, 10.001173, 10.0001745 
1.9953036e+3, 2.6154688e+2, -105845.195, -367066.56, 34942.297, 0.0052532074, 0.4716502, -101251.91, 275623.84, 0.000000042002604, 10.002208, 9.998747 
1.9953537e+3, 2.7154326e+2, -114272.016, -364712.3, -43368.61, 0.0056281313, 0.25560203, -106974.53, 171931.48, 0.0000035134383, 10.001682, 9.998329 
1.9954036e+3, 2.8154e+2, -139607.63, -323618.53, -7875.7783, -0.033941656, 0.118490174, -139271.16, 41663.62, 0.00002820436, 10.000807, 9.998378 
1.9954558e+3, 2.915399e+2, -142202.33, -230431.56, 74655.25, -0.035662346, 0.2122626, -99601.85, -16664.307, 0.00011358975, 9.999937, 9.998752 
1.9955093e+3, 3.0154052e+2, -186084.3, -279680.97, -9805.763, 0.008649731, 0.44137657, -185068.03, -185068.03, 0.00027761376, 9.999528, 9.998278 
1.9955567e+3, 3.1153673e+2, -18234.71, -58754.598, -1806.0361, -0.35585806, 0.1764553, -18154.373, -18154.373, 0.0004898738, 10.000048, 9.999533 
2.0045769e+3, 1.2150006e+2, -1998511.6, -1904999.1, -24967.139, 0.1334449, 0.2348628, -1898750.6, -149418.14, 0.27641812, 9.998196, 9.999537 
2.0046258e+3, 1.3150142e+2, -1718520.0, -1535820.0, -78333.92, -0.01010525, 0.20266934, -1506832.9, 144485.4, 0.1968332, 9.998618, 10.001406 
2.0046772e+3, 1.415037e+2, -1850793.9, -1719431.0, -41596.32, 0.16520074, 0.3907718, -1707367.3, -154073.2, 0.11636926, 9.997879, 9.99962 
2.0047277e+3, 1.5150353e+2, -1613643.8, -1556469.9, -6868.276, 0.058836784, 0.39587373, -1555656.4, -100356.445, 0.05238356, 9.998853, 9.999592 
2.0047793e+3, 1.6150275e+2, -1401190.1, -1374641.8, 53605.625, 0.02978548, 0.37477076, -1332691.1, 24619.406, 0.015589432, 9.999495, 9.999869 
2.0048329e+3, 1.7150241e+2, -1330067.5, -1227946.0, 49352.76, 0.02785728, 0.29501882, -1207993.4, 51317.547, 0.0021699998, 9.999063, 10.000398 
2.0048857e+3, 1.8150209e+2, -1365219.0, -1310392.3, -30733.156, 0.033997223, 0.28262123, -1296622.9, -135311.25, 0.00003871999, 9.998649, 9.999364 
2.0049365e+3, 1.9150206e+2, -1169594.0, -1190106.6, -9635.332, 0.046121567, 0.3504772, -1165778.0, -102464.375, 0.0, 9.99944, 9.999125 
2.0049874e+3, 2.0150158e+2, -957824.25, -1041615.8, 98415.37, 0.05932152, 0.4098539, -892758.2, 72561.11, 0.0, 10.0002165, 9.999111 
2.0050402e+3, 2.1149994e+2, -752471.75, -859627.94, 45592.254, 0.06069601, 0.29869318, -735698.8, 131633.52, 0.0, 10.000822, 9.999391 
2.0050928e+3, 2.2149833e+2, -709015.7, -943979.75, -45098.207, 0.07546124, 0.26644227, -700657.06, 68690.27, 0.0, 10.00112, 9.998 
2.005144e+3, 2.3149742e+2, -689662.1, -933441.0, -6126.7734, 0.07677053, 0.4027533, -689508.25, -18145.656, 0.0, 10.000811, 9.997538 
2.0051958e+3, 2.4149646e+2, -537749.25, -658240.25, 151106.31, 0.06693516, 0.5304122, -435321.34, 138055.19, 0.0, 10.000482, 9.998934 
2.0052503e+3, 2.5149557e+2, -448226.5, -440120.66, 135623.11, 0.034584813, 0.4421927, -308489.94, 166890.9, 0.0, 9.99991, 10.000021 
2.0053045e+3, 2.6149407e+2, -504785.56, -564666.44, -28826.496, 0.047796912, 0.36098206, -493164.03, -115773.61, 0.000000029896977, 9.999495, 9.99869 
2.0053554e+3, 2.7149096e+2, -319983.7, -470504.72, -102042.516, 0.09420903, 0.19697909, -268449.8, 10968.171, 0.0000031274246, 10.000286, 9.998277 
2.0054054e+3, 2.8148866e+2, -77217.59, -258801.63, -23129.477, 0.0632746, 0.14273149, -74317.76, 107121.12, 0.000025154262, 10.001079, 9.998698 
2.0054556e+3, 2.9148924e+2, 33264.26, -119190.59, 19957.676, -0.08041657, 0.27932176, 35833.594, 119267.555, 0.00009776422, 10.001033, 9.998987 
2.0055096e+3, 3.0148852e+2, 18877.19, -293524.97, 33388.72, 0.006069296, 0.40998876, 22405.83, 22405.83, 0.0002403355, 10.001388, 9.9973135 
2.0055595e+3, 3.1148377e+2, 339343.75, 96911.25, -29617.088, -0.17214389, 0.16992177, 342909.5, 342909.5, 0.00043342356, 10.002544, 9.999428 
2.0145778e+3, 1.2144894e+2, -1996369.6, -1912108.1, 213610.81, 0.35963058, 0.24371898, -1736513.0, 13324.362, 0.28771394, 9.998256, 9.999487 
2.0146216e+3, 1.3145232e+2, -1757602.8, -1609587.6, -123758.23, -0.310049, 0.48320457, -1539396.6, 112407.89, 0.20582092, 9.998647, 10.000831 
2.0146763e+3, 1.4145207e+2, -1824128.3, -1676922.9, -42090.03, 0.2512711, 0.43330336, -1665738.1, -111932.39, 0.12247417, 9.997926, 9.999893 
2.0147265e+3, 1.5145163e+2, -1588825.5, -1509122.0, 39949.438, 0.04636012, 0.38234273, -1492545.8, -36735.82, 0.055639356, 9.998871, 9.999907 
2.0147772e+3, 1.61451e+2, -1408797.3, -1411501.8, 44621.668, -0.15836117, 0.36227602, -1365507.4, -7690.9063, 0.016791714, 9.999583, 9.999575 
2.0148315e+3, 1.714514e+2, -1383252.5, -1333182.9, 32760.264, -0.028498616, 0.4241964, -1316987.0, -57172.63, 0.0023981123, 9.999041, 9.999687 
2.014885e+3, 1.8145163e+2, -1285207.0, -1150388.5, -30589.506, 0.077495836, 0.4762189, -1143772.5, 18038.994, 0.000045425786, 9.998665, 10.00046 
2.0149353e+3, 1.9145136e+2, -1032333.44, -894767.0, 28668.299, -0.018790226, 0.33232516, -889031.75, 174774.0, 0.0, 9.9993925, 10.001178 
2.0149861e+3, 2.014505e+2, -1028046.94, -1163785.0, 115810.77, -0.097616725, 0.2416894, -961683.5, 4124.7974, 0.0, 10.000117, 9.998321 
2.0150402e+3, 2.11448e+2, -948398.4, -1227370.0, 75902.27, -0.0038701165, 0.2591076, -929084.1, -61244.285, 0.0, 10.000661, 9.996943 
2.0150939e+3, 2.2144577e+2, -699783.2, -881441.75, -54912.703, 0.0740774, 0.31717932, -684474.06, 85393.38, 0.0, 10.000919, 9.998531 
2.0151448e+3, 2.3144592e+2, -548338.0, -618907.7, -10682.89, 0.06985679, 0.366971, -546756.25, 125106.61, 0.0, 10.000701, 9.999757 
2.0151962e+3, 2.4144548e+2, -594456.06, -729561.44, 126389.55, 0.043746714, 0.40805492, -518699.0, 55165.34, 0.0, 10.000291, 9.998532 
2.01525e+3, 2.514422e+2, -601046.44, -722112.44, 122144.5, 0.010713422, 0.24155228, -525258.0, -49360.594, 0.0, 9.999771, 9.998148 
2.0153037e+3, 2.6143917e+2, -557402.9, -636698.6, -22172.99, 0.0058464, 0.14991687, -551623.94, -173695.98, 0.0000000091701935, 9.999331, 9.998277 
2.0153561e+3, 2.714396e+2, -307414.16, -409810.6, -49416.035, 0.120324284, 0.30781803, -287456.2, -7531.047, 0.0000023642951, 10.000137, 9.998767 
2.0154068e+3, 2.8144026e+2, -86606.68, -221453.64, -23108.057, 0.10081114, 0.50122726, -82756.69, 99162.78, 0.000021595964, 10.000842, 9.999063 
2.0154548e+3, 2.914385e+2, 24313.893, -107207.34, 30695.053, -0.2941723, 0.3689301, 31124.93, 115059.74, 0.000083873885, 10.000883, 9.9991455 
2.0155075e+3, 3.0143487e+2, -79262.3, -404095.72, 57478.58, -0.35082492, 0.23055632, -69391.53, -69391.53, 0.00020822523, 10.001018, 9.996716 
2.0155658e+3, 3.114341e+2, 234179.94, 84076.6, -63381.547, 0.17166841, 0.4375698, 257362.55, 257362.55, 0.00038320478, 10.00174, 9.999686 
2.0245773e+3, 1.2139789e+2, -1825167.3, -1804368.5, 330794.6, 0.44200763, 0.3661128, -1483809.9, 266532.06, 0.29983783, 9.999574, 9.999963 
2.0246194e+3, 1.314e+2, -1777996.6, -1660637.9, -217980.33, -0.37348038, 0.52297884, -1493576.9, 158743.52, 0.21537028, 9.998759, 10.000451 
2.0246749e+3, 1.4139931e+2, -1683750.4, -1573817.4, -68046.734, 0.3173119, 0.4274949, -1541310.0, 13015.322, 0.12892798, 9.998725, 10.000233 
2.0247261e+3, 1.5139917e+2, -1475430.1, -1417832.6, 15798.766, 0.110497884, 0.3745902, -1413783.8, 42540.6, 0.05909158, 9.99948, 10.000259 
2.0247768e+3, 1.613987e+2, -1388730.9, -1403666.9, 3528.2634, -0.13635112, 0.34728396, -1387939.4, -29611.623, 0.018083457, 9.999742, 9.999544 
2.0248303e+3, 1.7139898e+2, -1382395.1, -1367985.9, -12862.1, -0.039956715, 0.42678505, -1360448.0, -100120.195, 0.0026487417, 9.999221, 9.999353 
2.0248835e+3, 1.8139915e+2, -1239168.4, -1101851.4, -22730.168, 0.06281385, 0.48744377, -1098186.6, 64139.742, 0.000052423693, 9.998864, 10.000694 
2.0249349e+3, 1.9139886e+2, -928736.56, -791867.44, -65981.875, -0.010698132, 0.29574093, -765239.4, 299079.16, 0.0, 9.999862, 10.001661 
2.0249867e+3, 2.0139816e+2, -957460.9, -1116372.9, -48199.703, -0.052835587, 0.18370636, -943984.3, 22334.045, 0.0, 10.000547, 9.998434 
2.0250407e+3, 2.1139629e+2, -1042591.44, -1286583.5, 35071.195, 0.02192728, 0.2721081, -1037650.44, -169304.66, 0.0, 10.000074, 9.996815 
2.0250942e+3, 2.2139446e+2, -856349.6, -927285.1, 43371.254, 0.08979453, 0.36859423, -835790.3, -65420.094, 0.0, 9.999724, 9.998785 
2.0251453e+3, 2.3139398e+2, -557611.94, -570500.06, -32865.594, 0.08335448, 0.31311503, -530564.6, 141803.75, 0.0, 10.000421, 10.000215 
2.0251969e+3, 2.4139301e+2, -519008.5, -703900.25, 16362.733, 0.082762405, 0.2743657, -517571.6, 56801.195, 0.0, 10.000875, 9.998414 
2.0252502e+3, 2.513901e+2, -540966.44, -748152.6, 68264.195, 0.037285488, 0.1874867, -520496.9, -44090.883, 0.0, 10.000432, 9.997643 
2.0253034e+3, 2.6138783e+2, -402351.03, -528920.0, 57408.953, 0.008760962, 0.18891549, -380191.3, -1758.6792, 0.000000001074916, 10.00024, 9.998586 
2.025356e+3, 2.7138916e+2, -165575.5, -257997.2, 49011.418, 0.08955111, 0.37744763, -144424.92, 135994.33, 0.0000018159459, 10.000761, 9.999504 
2.025408e+3, 2.813897e+2, -71775.59, -257403.73, 65138.563, 0.12918754, 0.52742594, -51198.816, 131214.67, 0.000018189116, 10.00111, 9.998689 
2.0254567e+3, 2.913862e+2, -14986.75, -198244.89, 8476.473, -0.16047531, 0.29640287, -14595.512, 69852.14, 0.000072171526, 10.000943, 9.998478 
2.0255084e+3, 3.0138314e+2, -37315.23, -298410.56, 82313.33, -0.3179427, 0.21418892, -13531.51, -13531.51, 0.00017992307, 10.000867, 9.99755 
2.025566e+3, 3.1138504e+2, -73415.11, -33791.594, -74496.125, 0.15887114, 0.5912068, 23482.178, 23482.178, 0.00033557636, 9.99944, 10.000007 
2.0345749e+3, 1.213477e+2, -1751586.3, -1678670.4, 386119.78, 0.17784101, 0.6682279, -1327291.1, 423547.22, 0.3135409, 9.999748, 10.001077 
2.0346195e+3, 1.3134383e+2, -1787159.5, -1695793.8, -227474.3, -0.27666292, 0.26452088, -1509460.5, 143411.83, 0.22593072, 9.998832, 10.000165 
2.0346731e+3, 1.4134517e+2, -1630755.9, -1511160.0, -62654.02, 0.22706982, 0.36906514, -1484347.9, 70507.38, 0.13594478, 9.9988985, 10.000636 
2.0347263e+3, 1.5134603e+2, -1440243.0, -1352314.5, 42913.87, 0.17273569, 0.3735347, -1334842.3, 122001.875, 0.06282382, 9.999506, 10.000723 
2.0347781e+3, 1.6134572e+2, -1363931.4, -1368720.3, -16302.281, -0.0021711236, 0.326154, -1349848.6, 8996.428, 0.019494196, 9.999807, 9.999754 
2.0348291e+3, 1.7134508e+2, -1364998.1, -1342758.3, -28827.027, -0.09121873, 0.29368883, -1322980.8, -62128.54, 0.0029308582, 9.999257, 9.99951 
2.0348807e+3, 1.813446e+2, -1279999.1, -1198853.3, -9037.269, -0.1245063, 0.29838818, -1197858.9, -35002.27, 0.00006041413, 9.998917, 10.000007 
2.0349348e+3, 1.9134454e+2, -1015446.56, -960836.06, -16683.434, -0.010459193, 0.2398314, -956142.7, 108709.98, 0.0, 9.999815, 10.000525 
2.0349887e+3, 2.0134443e+2, -901348.75, -981627.25, -57373.15, 0.07455082, 0.23392543, -871467.75, 95382.8, 0.0, 10.000472, 9.999394 
2.0350412e+3, 2.113447e+2, -906209.2, -974799.6, 20112.73, 0.053266454, 0.34188896, -900746.56, -31895.75, 0.0, 9.999949, 9.999017 
2.0350933e+3, 2.2134437e+2, -885677.9, -934304.4, 46920.055, 0.012807474, 0.43259007, -857145.8, -86289.75, 0.0, 9.999502, 9.99884 
2.0351453e+3, 2.3134159e+2, -668762.0, -761167.44, 8835.466, 0.038190227, 0.2447848, -667924.8, 4954.3716, 0.0, 10.000254, 9.998985 
2.0351978e+3, 2.4133892e+2, -546322.3, -714566.56, 5876.843, 0.07072833, 0.12058244, -546117.3, 28785.516, 0.0, 10.000674, 9.998443 
2.0352507e+3, 2.5133896e+2, -506818.0, -649609.6, 58488.54, 0.032271095, 0.26878455, -485919.34, -9010.149, 0.0, 10.000301, 9.998391 
2.035303e+3, 2.613395e+2, -376816.34, -414162.84, 58807.0, -0.066527285, 0.46938992, -333789.06, 45119.574, 0.000000023664393, 9.9999895, 9.999489 
2.0353551e+3, 2.7133927e+2, -125206.734, -138592.81, 78435.805, -0.08697382, 0.4007426, -53178.918, 227725.7, 0.0000019634658, 10.000603, 10.000403 
2.0354082e+3, 2.8133687e+2, -184141.39, -428335.4, 45613.773, 0.034407597, 0.2418426, -175899.25, 7024.2773, 0.000016146072, 10.0008545, 9.997633 
2.0354612e+3, 2.913323e+2, -151742.23, -433641.34, 22961.771, 0.1796718, 0.07221544, -149884.16, -64910.45, 0.00006227005, 10.000719, 9.996977 
2.0355111e+3, 3.0133298e+2, 17855.605, -56229.11, 45083.086, -0.1567364, 0.3631889, 39162.38, 39162.38, 0.00015436458, 10.000356, 9.999436 
2.035562e+3, 3.113338e+2, -79987.1, 25134.818, -90291.11, -0.2038209, 0.3705655, 77049.4, 77049.4, 0.00029086007, 9.999175, 10.000515 
2.0445715e+3, 1.2129445e+2, -1966626.1, -1756561.8, 341921.34, 0.002634635, 0.74247766, -1503904.1, 247456.52, 0.3294151, 9.997874, 10.001276 
2.044619e+3, 1.3128898e+2, -1734015.5, -1573976.5, -164559.11, -0.16563366, 0.09921598, -1471012.9, 182396.44, 0.23787552, 9.998725, 10.001163 
2.0446724e+3, 1.4129275e+2, -1469002.4, -1422691.3, 41599.75, 0.2217741, 0.37837654, -1398236.8, 157130.48, 0.14372098, 10.000031, 10.00078 
2.0447259e+3, 1.5129352e+2, -1418913.0, -1375683.4, 75045.86, 0.17685306, 0.39401054, -1319201.6, 138156.7, 0.06692591, 9.999818, 10.000408 
2.0447782e+3, 1.6129312e+2, -1397331.9, -1356539.9, -10284.646, 0.05947199, 0.34760067, -1354093.6, 5267.243, 0.021061258, 9.999461, 10.000001 
2.044829e+3, 1.7129235e+2, -1232836.4, -1219554.9, -22158.727, -0.041624382, 0.25290397, -1203063.3, 58303.605, 0.003256253, 9.999912, 10.000039 
2.0448804e+3, 1.8129177e+2, -1134737.8, -1163415.9, 42052.61, -0.07996168, 0.22454304, -1104646.8, 58724.098, 0.00007088071, 10.000073, 9.999689 
2.0449345e+3, 1.9129196e+2, -1129631.1, -1100069.8, 49771.887, 0.008983948, 0.255835, -1062930.1, 2438.5813, 0.0, 9.999412, 9.999754 
2.0449883e+3, 2.0129198e+2, -1100098.0, -1041155.25, 32160.326, 0.084251925, 0.3050088, -1027004.94, -59637.055, 0.0, 9.998943, 9.999732 
2.0450409e+3, 2.1129209e+2, -849103.5, -832642.94, 10160.071, 0.05989367, 0.3095099, -827797.9, 41566.777, 0.0, 9.999862, 10.000031 
2.0450933e+3, 2.2129169e+2, -717507.56, -857163.8, -6181.824, 0.03877404, 0.32764643, -717234.44, 54132.33, 0.0, 10.000667, 9.998812 
2.045146e+3, 2.3128913e+2, -639259.1, -815876.9, -25133.473, 0.0798147, 0.21559589, -635752.2, 37639.742, 0.0, 10.000749, 9.998369 
2.045199e+3, 2.4128693e+2, -548228.1, -696978.2, -4804.1084, 0.15028308, 0.17042176, -548073.1, 27342.018, 0.0, 10.000565, 9.99862 
2.0452513e+3, 2.5128773e+2, -564196.0, -598423.4, 14693.309, 0.12217802, 0.33805597, -558753.75, -81341.734, 0.0, 9.999566, 9.999091 
2.0453027e+3, 2.6128852e+2, -536402.94, -502491.5, 52184.57, -0.0089478735, 0.51931477, -464577.13, -85170.08, 0.00000011200642, 9.998929, 9.999396 
2.0453545e+3, 2.7128696e+2, -245081.08, -264083.22, -28182.531, -0.15394601, 0.37071407, -224841.19, 56576.58, 0.000002326167, 10.000077, 9.99979 
2.0454083e+3, 2.8128394e+2, -95525.3, -321877.5, -103797.484, -0.029694632, 0.17401831, -55134.645, 128309.25, 0.000014696717, 10.001173, 9.998218 
2.0454629e+3, 2.9128143e+2, -100188.21, -257895.95, 7675.7847, 0.3177707, 0.105716035, -99815.5, -14344.659, 0.00005375532, 10.000427, 9.998324 
2.0455113e+3, 3.0128378e+2, -52474.633, -88971.22, 161968.03, -0.10948193, 0.46061817, 92269.84, 92269.84, 0.00013253847, 9.999859, 9.999447 
2.0455632e+3, 3.1128177e+2, 447105.75, 213521.69, -183285.69, -0.20264249, 0.2662938, 547647.6, 547647.6, 0.0002538957, 10.003037, 9.999958 
2.0545676e+3, 1.2123909e+2, -2000781.0, -1853836.8, 104406.16, -0.22015344, 0.6628342, -1799642.1, -47743.49, 0.3476065, 9.997947, 10.0000305 
2.0546181e+3, 1.3123624e+2, -1573758.5, -1294830.4, -72093.84, -0.1499932, 0.07880065, -1277298.4, 376624.9, 0.2513395, 9.998713, 10.003628 
2.054672e+3, 1.4124237e+2, -1462964.8, -1433402.9, 49544.832, 0.15380955, 0.44545928, -1396481.1, 159377.61, 0.15236652, 10.000149, 10.00065 
2.0547241e+3, 1.5124199e+2, -1489106.3, -1533481.6, 75037.586, 0.010500248, 0.4409284, -1433044.8, 24819.154, 0.071473114, 9.999864, 9.9992695 
2.0547765e+3, 1.6124111e+2, -1380457.5, -1340907.5, -12039.739, -0.074991114, 0.4227186, -1337530.8, 22342.361, 0.022826005, 9.999534, 10.000084 
2.0548299e+3, 1.7124088e+2, -1173896.6, -1101069.8, 3949.051, 0.032085966, 0.3164468, -1100856.3, 161014.83, 0.0036400491, 9.999921, 10.000857 
2.0548823e+3, 1.8124068e+2, -1121082.0, -1152232.5, 22841.223, 0.090378374, 0.2675311, -1109011.1, 54858.363, 0.00008593674, 10.000137, 9.99974 
2.0549333e+3, 1.91241e+2, -1155512.8, -1157280.4, 27942.324, -0.042890765, 0.3432772, -1128440.3, -62572.188, 0.0, 9.999412, 9.99937 
2.0549852e+3, 2.012407e+2, -1130995.3, -1088735.3, 39234.04, -0.14151154, 0.3949561, -1065303.1, -97431.8, 0.0, 9.998874, 9.999437 
2.0550399e+3, 2.1123825e+2, -885977.6, -880660.1, 58886.7, -0.042193662, 0.16846085, -824372.2, 45516.547, 0.0, 9.999731, 9.999767 
2.0550942e+3, 2.212361e+2, -761484.44, -893949.06, 130.02838, 0.044904575, 0.03343402, -761484.3, 10421.1, 0.0, 10.0004425, 9.998662 
2.0551473e+3, 2.3123644e+2, -669634.75, -838497.0, -15729.309, 0.11348392, 0.21969828, -668182.06, 5726.6763, 0.0, 10.000578, 9.998295 
2.0552002e+3, 2.4123673e+2, -561037.4, -661451.1, -39173.875, 0.20096532, 0.41838494, -547562.8, 28349.28, 0.0, 10.00031, 9.9989805 
2.0552517e+3, 2.5123614e+2, -539025.06, -512902.78, -17459.76, 0.21549596, 0.38787532, -504159.4, -26242.643, 0.0, 9.999434, 9.999739 
2.0553026e+3, 2.6123494e+2, -627101.3, -657424.56, 57059.055, 0.065954134, 0.35209402, -583223.9, -203295.75, 0.00000017468948, 9.998788, 9.9984 
2.055354e+3, 2.7123228e+2, -404011.94, -567168.25, 39481.17, -0.21725114, 0.27851042, -394960.3, -113002.57, 0.0000023499456, 9.99995, 9.997775 
2.0554079e+3, 2.812307e+2, -25579.129, -90382.14, -105846.25, -0.19687931, 0.30079794, 52713.93, 236689.22, 0.000012296112, 10.000821, 9.99997 
2.0554619e+3, 2.912331e+2, 136205.9, 263565.88, -22446.314, 0.16607462, 0.36885995, 267406.1, 353350.3, 0.000044415407, 10.000298, 10.001967 
2.0555092e+3, 3.012341e+2, -232309.42, -377642.84, 172275.42, -0.31557944, 0.42594686, -118002.13, -118002.13, 0.00011238554, 9.999529, 9.997607 
2.0555677e+3, 3.1122932e+2, 212476.98, -96589.914, 123820.75, -0.07652396, 0.31259203, 255964.16, 255964.16, 0.00022330374, 10.00227, 9.998201 
2.0645672e+3, 1.21187426e+2, -2117140.5, -1987773.0, 110619.984, -0.017290147, 0.5840647, -1924313.3, -171916.66, 0.36771804, 9.997486, 9.999309 
2.0646164e+3, 1.3118422e+2, -1727423.9, -1397506.4, 57501.613, -0.10791269, -0.011764813, -1387771.6, 266656.97, 0.26616043, 9.99767, 10.003233 
2.0646709e+3, 1.411916e+2, -1658030.6, -1548080.6, 47172.984, 0.10778107, 0.51887107, -1530615.6, 25738.682, 0.1618756, 9.998821, 10.000383 
2.064723e+3, 1.5119019e+2, -1565271.4, -1567782.9, 95811.73, -0.017749093, 0.41187847, -1470707.1, -12338.048, 0.07651462, 9.999328, 9.999284 
2.0647761e+3, 1.6118872e+2, -1391162.3, -1369808.9, 85770.25, -0.057697453, 0.33758795, -1294053.4, 66330.266, 0.024829434, 9.999569, 9.9998665 
2.0648296e+3, 1.7118895e+2, -1293425.3, -1192177.9, 13977.321, 0.0784111, 0.3067596, -1190283.8, 72094.49, 0.0041003036, 9.999254, 10.000544 
2.0648824e+3, 1.8118908e+2, -1309439.0, -1274353.6, -17373.695, 0.15344584, 0.3190995, -1267206.4, -102831.34, 0.000108260756, 9.998992, 9.999444 
2.0649329e+3, 1.9118896e+2, -1114230.5, -1165369.1, -28942.73, -0.043072645, 0.38178012, -1101180.3, -34801.414, 0.0, 9.99983, 9.999104 
2.0649841e+3, 2.0118819e+2, -912130.8, -1016327.94, 7169.632, -0.17206734, 0.41444987, -911639.8, 56747.64, 0.0, 10.000515, 9.99914 
2.0650397e+3, 2.1118523e+2, -806258.5, -875903.0, 11875.662, -0.029686838, 0.16659126, -804289.2, 66120.57, 0.0, 10.000424, 9.999464 
2.0650947e+3, 2.2118278e+2, -788633.7, -906114.9, -35716.46, 0.08450746, 0.025203407, -778627.5, -6198.2153, 0.0, 10.00023, 9.998696 
2.0651467e+3, 2.3118384e+2, -740293.0, -846001.6, -53727.73, 0.059986655, 0.26335788, -717779.9, -43353.12, 0.0, 9.999976, 9.998538 
2.065199e+3, 2.4118467e+2, -594858.7, -660177.2, -44806.42, 0.10244183, 0.4961158, -572072.1, 4352.7764, 0.0, 10.000005, 9.999136 
2.0652522e+3, 2.511832e+2, -295520.22, -381802.97, -77337.336, 0.24303281, 0.36718094, -250105.16, 228330.23, 0.0, 10.001056, 9.999852 
2.0653042e+3, 2.611812e+2, -214567.27, -467121.97, -706.65393, 0.22041531, 0.24923381, -214565.28, 165887.02, 0.00000012472299, 10.001659, 9.998321 
2.065355e+3, 2.7117917e+2, -336703.4, -548172.94, 78052.74, -0.12589236, 0.25205767, -311014.9, -28537.105, 0.0000018192295, 10.00048, 9.997643 
2.0654082e+3, 2.811784e+2, -170081.66, -188495.16, 19514.248, -0.18300977, 0.37202317, -157711.33, 26777.271, 0.000008845643, 9.999944, 9.9997225 
2.0654622e+3, 2.9118046e+2, 256186.06, 262137.38, -197521.64, 0.109953724, 0.44445986, 456705.78, 543167.5, 0.000033872344, 10.001397, 10.001421 
2.06551e+3, 3.011793e+2, 114436.52, -225622.36, -136718.33, -0.285666, 0.33838513, 162585.7, 162585.7, 0.00009226444, 10.001929, 9.997522 
2.0655704e+3, 3.1117433e+2, -85753.56, -167389.25, 115948.37, 0.1276125, 0.18798442, -3648.1758, -3648.1758, 0.00019349578, 9.9998665, 9.998898 
2.0745684e+3, 1.211389e+2, -2100012.0, -1992837.0, -243651.02, 0.28705284, 0.3735371, -1796950.1, -44090.742, 0.38886976, 9.997639, 9.999212 
2.0746136e+3, 1.3113281e+2, -1970151.9, -1831565.3, 142333.95, -0.18850234, -0.20994157, -1742553.4, -87627.23, 0.28190908, 9.997736, 9.999586 
2.0746684e+3, 1.4114045e+2, -1689633.6, -1619217.6, 62988.742, -0.034408785, 0.6095312, -1582264.8, -25410.086, 0.17213808, 9.998855, 9.999852 
2.074723e+3, 1.5113798e+2, -1472923.4, -1381165.6, 115226.555, 0.0023921619, 0.30202353, -1303020.3, 155854.72, 0.08207624, 9.999346, 10.00062 
2.0747764e+3, 1.6113572e+2, -1411440.6, -1424998.5, 75267.93, 0.002114894, 0.067727074, -1342647.0, 18247.197, 0.027111659, 9.999621, 9.999458 
2.0748281e+3, 1.7113648e+2, -1394192.8, -1404333.1, 4837.1377, 0.012104131, 0.21809195, -1392255.4, -129366.305, 0.0046569863, 9.999266, 9.999081 
2.0748802e+3, 1.8113692e+2, -1350426.6, -1373736.6, -8775.565, 0.0038228997, 0.38532957, -1347492.3, -182604.34, 0.00014131474, 9.999053, 9.998733 
2.0749323e+3, 1.9113566e+2, -1138748.3, -1209422.6, 12192.28, -0.0685898, 0.36864913, -1136704.0, -69801.36, 0.0000000002137382, 9.999797, 9.998819 
2.0749857e+3, 2.0113415e+2, -946858.1, -1068366.3, 7369.417, -0.11047205, 0.35540295, -946412.8, 22506.182, 0.0, 10.000425, 9.998825 
2.0750405e+3, 2.1113274e+2, -846598.4, -932109.25, 14630.21, 0.008849887, 0.29419902, -844164.5, 26765.543, 0.0, 10.000297, 9.999143 
2.0750947e+3, 2.2113153e+2, -805684.56, -888221.8, -47201.14, 0.058348626, 0.2874592, -784255.1, -11315.065, 0.0, 10.000013, 9.998916 
2.0751445e+3, 2.3113129e+2, -727617.06, -782870.0, -50559.3, -0.15331784, 0.3492804, -697628.75, -22682.889, 0.0, 9.9998255, 9.999042 
2.0751956e+3, 2.4113066e+2, -629857.6, -687256.7, -25763.818, -0.25225535, 0.4051706, -619989.9, -43035.633, 0.0, 9.999813, 9.999039 
2.075252e+3, 2.5112885e+2, -350917.13, -462372.47, -24212.65, 0.11740767, 0.28039876, -345884.38, 133083.6, 0.0, 10.000907, 9.999369 
2.0753069e+3, 2.6112723e+2, -208319.73, -390279.34, -29953.543, 0.33181125, 0.2159311, -203515.72, 177464.75, 0.000000021824269, 10.001395, 9.998973 
2.075357e+3, 2.7112713e+2, -256691.9, -343817.16, 37696.773, 0.012077013, 0.28162807, -242645.94, 40337.137, 0.00000084431264, 10.000324, 9.99912 
2.0754087e+3, 2.8112647e+2, -346417.75, -498102.28, 26882.996, -0.15427297, 0.37026298, -341794.22, -156802.52, 0.000005133315, 9.999707, 9.997706 
2.0754626e+3, 2.9112363e+2, -62186.824, -368342.8, -119796.03, 0.012486941, 0.32952923, -20883.85, 66137.45, 0.000023723636, 10.001241, 9.997171 
2.075513e+3, 3.0112028e+2, 112570.65, -92507.65, -188255.2, -0.20148903, 0.25528327, 224401.05, 224401.05, 0.00007269625, 10.001401, 9.998664 
2.0755704e+3, 3.1111827e+2, -19970.078, 110880.4, 127149.26, 0.09486177, 0.027089978, 188449.55, 188449.55, 0.00016041892, 9.999335, 10.001035 
2.0845662e+3, 1.210888e+2, -2133527.5, -1904327.4, -375772.2, 0.36254904, 0.29606637, -1626068.8, 127278.71, 0.40993002, 9.997011, 10.000514 
2.084613e+3, 1.3108279e+2, -1785280.0, -1918126.9, 102392.08, -0.08963984, -0.18458354, -1729653.4, -74241.78, 0.29801235, 9.999762, 9.998017 
2.0846668e+3, 1.4108776e+2, -1593333.3, -1652370.8, 117968.39, -0.11456882, 0.49343053, -1501246.5, 56119.88, 0.18298064, 9.999931, 9.99913 
2.0847224e+3, 1.510857e+2, -1462103.0, -1409637.6, 41863.28, 0.03649547, 0.26706547, -1386467.0, 72918.25, 0.088167645, 9.999563, 10.000297 
2.0847766e+3, 1.6108389e+2, -1487199.3, -1493832.5, -64813.125, 0.09104069, 0.11369187, -1425618.0, -64215.473, 0.029713616, 9.999232, 9.999179 
2.0848274e+3, 1.7108409e+2, -1323271.5, -1398500.9, -78017.016, -0.0010788669, 0.23244531, -1274274.9, -10871.6875, 0.005333032, 9.999865, 9.998838 
2.0848788e+3, 1.8108393e+2, -1172412.6, -1288237.6, 6477.263, -0.052211083, 0.35878047, -1172051.6, -6644.4365, 0.00018960002, 10.000269, 9.998744 
2.0849326e+3, 1.910825e+2, -1085476.5, -1162784.5, 54924.926, -0.021814393, 0.30848223, -1056967.4, 10454.358, 0.000000020895914, 10.000069, 9.999013 
2.0849866e+3, 2.0108104e+2, -1050145.6, -1124760.0, 89292.766, 0.020353846, 0.28800464, -990679.8, -21243.113, 0.0, 9.999772, 9.998746 
2.0850413e+3, 2.1108039e+2, -900033.94, -983667.94, 81357.71, 0.072284855, 0.3264761, -850375.56, 21067.777, 0.0, 10.000066, 9.998887 
2.0850949e+3, 2.2107966e+2, -746679.9, -856650.4, 27354.754, 0.07773848, 0.3852444, -740251.25, 33199.477, 0.0, 10.000389, 9.998962 
2.085145e+3, 2.3107862e+2, -584260.5, -680808.2, -9804.446, -0.117470816, 0.34281147, -583274.9, 92186.32, 0.0, 10.000651, 9.999353 
2.0851961e+3, 2.4107735e+2, -506356.56, -664057.3, 30026.334, -0.21617201, 0.31836537, -500833.0, 76640.664, 0.0, 10.000805, 9.998728 
2.085252e+3, 2.5107557e+2, -421291.22, -579316.7, 7682.858, 0.06538117, 0.2636091, -420918.56, 58570.797, 0.0, 10.000765, 9.998644 
2.0853071e+3, 2.6107407e+2, -310995.16, -455975.66, -32768.52, 0.25918147, 0.26590782, -303932.84, 77569.88, 0.0, 10.000757, 9.998829 
2.0853575e+3, 2.7107385e+2, -170872.42, -278473.4, -83862.49, 0.03574321, 0.30580634, -125036.52, 158468.66, 0.000000115745564, 10.000819, 9.999326 
2.0854095e+3, 2.810728e+2, -192062.25, -454356.3, -58081.3, -0.085996985, 0.3515157, -179776.44, 5740.0586, 0.0000020138657, 10.000879, 9.997448 
2.0854639e+3, 2.910694e+2, -100780.74, -439473.4, 879.1973, 0.029396601, 0.30618894, -100778.46, -13225.404, 0.000014504671, 10.001215, 9.996692 
2.0855162e+3, 3.0106652e+2, 186723.19, -99852.8, 61958.152, -0.038764007, 0.31919938, 199544.97, 199544.97, 0.000053401804, 10.00204, 9.998328 
2.085571e+3, 3.1106478e+2, 451074.7, 240032.06, -5963.8057, 0.095410906, 0.15977114, 451243.1, 451243.1, 0.00012544218, 10.002899, 10.000235 
2.094559e+3, 1.2103562e+2, -1904581.4, -1563761.4, 37474.66, -0.10695847, 0.2761477, -1559689.5, 194188.48, 0.42994058, 9.996971, 10.003462 
2.094615e+3, 1.3103442e+2, -1702497.0, -1758387.1, 106538.24, 0.10829296, 0.11921329, -1620299.8, 35582.934, 0.31401625, 9.999889, 9.999094 
2.0946655e+3, 1.4103326e+2, -1635560.3, -1778777.3, 106318.375, -0.26845762, 0.14409675, -1578983.9, -21092.04, 0.19429262, 10.00003, 9.998194 
2.0947216e+3, 1.5103325e+2, -1601231.5, -1713707.9, 33230.848, -0.022213655, 0.31139332, -1592147.3, -132245.78, 0.094824284, 9.999627, 9.998147 
2.0947759e+3, 1.6103336e+2, -1486121.5, -1519275.9, -66713.91, 0.083258465, 0.5064313, -1433956.1, -72047.336, 0.032688897, 9.999346, 9.99895 
2.0948271e+3, 1.7103182e+2, -1245515.3, -1246911.0, -47969.08, -0.044171814, 0.37352327, -1198239.0, 65681.516, 0.0061590113, 9.999899, 9.999866 
2.0948787e+3, 1.8103011e+2, -1105555.9, -1166191.4, -155.28189, -0.12383015, 0.2479098, -1105555.5, 60377.574, 0.00026052183, 10.0003395, 9.999548 
2.0949331e+3, 1.9102949e+2, -1040244.2, -1066906.0, 49739.875, 0.007418273, 0.21073228, -1002079.75, 65856.04, 0.00000016154512, 10.000058, 9.999678 
2.0949875e+3, 2.0102888e+2, -1054949.5, -1117388.8, 82256.875, 0.11556701, 0.22677375, -998186.94, -28247.025, 0.0, 9.999698, 9.99883 
2.0950416e+3, 2.1102808e+2, -945051.0, -1043537.06, 101820.516, 0.08316563, 0.27356157, -881191.0, -9240.42, 0.0, 9.999922, 9.998544 
2.0950949e+3, 2.21027e+2, -784787.94, -886302.8, 30958.19, 0.040327955, 0.3228888, -776091.8, -2128.304, 0.0, 10.000175, 9.998862 
2.0951475e+3, 2.3102574e+2, -604949.9, -682976.06, 8033.402, 0.05725975, 0.25291732, -604131.4, 71843.12, 0.0, 10.000475, 9.999425 
2.0951997e+3, 2.410245e+2, -574824.75, -750608.1, 22559.98, 0.0650588, 0.23918216, -571975.56, 6010.179, 0.0, 10.000567, 9.998247 
2.0952521e+3, 2.5102317e+2, -501994.03, -720463.5, 15708.74, 0.004494189, 0.31245255, -500870.28, -20868.885, 0.0, 10.000647, 9.997735 
2.0953044e+3, 2.6102147e+2, -404021.84, -603827.4, -36721.76, -0.09623142, 0.3820325, -397486.6, -15465.227, 0.0, 10.000573, 9.997898 
2.0953567e+3, 2.710192e+2, -255946.72, -429534.28, -67903.49, -0.14332324, 0.31306753, -232540.48, 51503.87, 0.0, 10.000709, 9.9983425 
2.0954102e+3, 2.8101745e+2, -155647.9, -309330.3, -65036.44, -0.10639034, 0.32309872, -131819.81, 54241.668, 0.00000039293647, 10.000594, 9.998578 
2.0954654e+3, 2.9101735e+2, 54012.344, -73038.07, 29775.168, 0.05154762, 0.38574797, 60644.195, 148704.97, 0.000007667558, 10.001025, 9.9993 
2.0955186e+3, 3.0101568e+2, -20209.89, -377730.53, 75104.3, -0.023641748, 0.3900318, -5073.5684, -5073.5684, 0.000037309004, 10.00144, 9.996687 
2.095573e+3, 3.110121e+2, 139334.05, -183116.56, -8484.166, -0.04914305, 0.41102827, 139557.13, 139557.13, 0.000096027696, 10.002026, 9.997711 
2.1045557e+3, 1.209817e+2, -1652406.1, -1477890.6, 118318.02, -0.23039828, 0.3226036, -1418134.5, 336273.84, 0.44859928, 9.999223, 10.003512 
2.1046165e+3, 1.3098359e+2, -1823726.4, -1703579.5, -39571.53, 0.35130683, 0.36792928, -1691717.4, -35338.18, 0.3298663, 9.998485, 10.000119 
2.104664e+3, 1.4097854e+2, -1849322.6, -1873270.1, -13085.285, -0.3229005, -0.055634618, -1843559.5, -285135.7, 0.20615475, 9.998542, 9.998247 
2.1047208e+3, 1.5097977e+2, -1638373.9, -1760123.4, 25843.709, -0.043779466, 0.25233066, -1633115.1, -172692.03, 0.10215144, 9.999518, 9.997861 
2.1047759e+3, 1.6098084e+2, -1375007.4, -1468417.9, 47121.977, 0.1234496, 0.5650984, -1355366.1, 7056.3613, 0.036114734, 10.000127, 9.998916 
2.1048269e+3, 1.7097889e+2, -1262024.0, -1229663.0, 2357.0698, -0.012672359, 0.37166682, -1229492.3, 34945.105, 0.007176738, 9.999681, 10.000082 
2.1048787e+3, 1.8097687e+2, -1261919.0, -1242537.8, 10327.632, -0.08303481, 0.19983388, -1238066.1, -71614.195, 0.0003661867, 9.999278, 9.999531 
2.1049339e+3, 1.909763e+2, -1013874.7, -1075579.0, -17520.768, 0.06982771, 0.18594462, -1009246.8, 59208.36, 0.00000091193453, 10.000348, 9.999471 
2.1049885e+3, 2.0097576e+2, -838168.94, -1017104.2, -40342.66, 0.1911497, 0.22455959, -829493.9, 140965.5, 0.0, 10.001159, 9.998833 
2.105041e+3, 2.109748e+2, -879437.06, -997345.56, -18242.195, 0.06153699, 0.24350229, -876679.25, -4208.218, 0.0, 10.000273, 9.998712 
2.1050937e+3, 2.2097369e+2, -895669.2, -943568.06, -18843.945, -0.039177295, 0.2799888, -889144.5, -114660.87, 0.0, 9.9994545, 9.998797 
2.1051477e+3, 2.3097228e+2, -634474.56, -723699.7, -64374.27, 0.06111232, 0.21951818, -600765.2, 75730.68, 0.0, 10.000404, 9.999163 
2.1052015e+3, 2.4097086e+2, -460359.8, -697171.56, -58830.438, 0.1561774, 0.2133355, -446550.06, 131958.44, 0.0, 10.001363, 9.998233 
2.1052532e+3, 2.509697e+2, -381039.4, -639517.1, -29114.586, 0.021394856, 0.2877044, -377800.56, 102722.016, 0.0, 10.001408, 9.997912 
2.1053049e+3, 2.6096794e+2, -298426.0, -620110.1, 6640.501, -0.13988833, 0.3589648, -298289.0, 84253.72, 0.0, 10.0015545, 9.99733 
2.1053573e+3, 2.709647e+2, -99269.4, -474243.4, -38904.82, -0.20418274, 0.2941663, -95275.43, 189301.27, 0.0, 10.002279, 9.997289 
2.1054114e+3, 2.809623e+2, 129112.9, -212412.66, -65086.8, -0.12595612, 0.31675807, 141096.44, 327698.8, 0.00000006547354, 10.002738, 9.9982 
2.1054675e+3, 2.9096228e+2, 206284.2, -4901.8467, -170596.84, 0.12660299, 0.40444797, 301323.1, 389925.28, 0.000004738257, 10.002112, 9.999237 
2.1055208e+3, 3.0096087e+2, 42322.145, -293008.25, -153332.48, 0.07380107, 0.426716, 101862.734, 101862.734, 0.00002905632, 10.001578, 9.997222 
2.1055742e+3, 3.1095764e+2, 42303.902, -128408.73, -66701.08, -0.043150026, 0.41342756, 65274.566, 65274.566, 0.00007990002, 10.00088, 9.998649 
2.1145579e+3, 1.2092622e+2, -1801533.1, -1779395.4, 22838.107, 0.016932381, 0.32925183, -1765085.1, -10140.637, 0.46656317, 9.9994135, 9.999804 
2.1146166e+3, 1.3092986e+2, -1766024.5, -1608631.1, -39242.438, 0.51123273, 0.5388459, -1599389.6, 57515.414, 0.34608045, 9.998482, 10.000964 
2.1146621e+3, 1.409233e+2, -1770247.4, -1736783.0, 6226.105, -0.39811635, -0.102293596, -1735662.1, -176696.39, 0.21890919, 9.998646, 9.999139 
2.1147195e+3, 1.5092504e+2, -1496734.8, -1487703.9, 65619.72, -0.12631804, 0.08600395, -1426444.5, 34507.586, 0.110347085, 9.999611, 9.999701 
2.114776e+3, 1.6092615e+2, -1336959.3, -1411043.4, 41969.617, 0.08912797, 0.26241854, -1318023.1, 44921.223, 0.040102176, 10.000231, 9.999261 
2.1148269e+3, 1.7092523e+2, -1303983.1, -1322715.3, -13624.622, 0.009154666, 0.21696357, -1296815.9, -31862.342, 0.008443992, 9.999701, 9.999434 
2.1148784e+3, 1.8092413e+2, -1325383.8, -1378753.3, 17478.53, -0.039238688, 0.20681258, -1320169.1, -153204.34, 0.00052604213, 9.9993, 9.998584 
2.1149343e+3, 1.9092281e+2, -1105593.3, -1255594.4, 35803.656, 0.082646176, 0.23335312, -1097485.5, -28504.531, 0.0000034897541, 10.000303, 9.998255 
2.1149893e+3, 2.0092142e+2, -858764.4, -1034738.56, -52523.99, 0.13954721, 0.27470458, -844279.56, 126717.73, 0.0, 10.001052, 9.998765 
2.11504e+3, 2.1092051e+2, -851820.6, -905063.8, -53392.49, -0.0796912, 0.24646588, -818780.94, 54223.51, 0.0, 10.000135, 9.999407 
2.1150908e+3, 2.209196e+2, -932033.75, -971647.56, -16967.375, -0.2753413, 0.25470686, -925759.9, -150748.13, 0.0, 9.999248, 9.998705 
2.1151458e+3, 2.3091815e+2, -701303.56, -830851.94, -11085.011, -0.17403203, 0.24420936, -700361.9, -23335.73, 0.0, 10.000264, 9.998496 
2.1152009e+3, 2.4091643e+2, -468296.78, -659532.75, -49801.12, -0.050493315, 0.24105836, -456104.97, 122937.74, 0.0, 10.001134, 9.998596 
2.1152547e+3, 2.509149e+2, -328076.1, -499177.03, -25241.217, 0.016101532, 0.1866282, -324430.16, 156624.78, 0.0, 10.001274, 9.998938 
2.1153076e+3, 2.609133e+2, -352836.4, -671126.56, 13665.475, -0.024052368, 0.20672484, -352250.78, 30818.582, 0.0, 10.001295, 9.9971 
2.1153592e+3, 2.7091035e+2, -195441.77, -642611.7, 2150.8308, -0.25806937, 0.25864583, -195431.42, 89672.05, 0.0, 10.002137, 9.996202 
2.1154127e+3, 2.809068e+2, -51461.2, -516335.78, -79975.53, -0.31405646, 0.30390966, -38087.223, 149057.02, 0.00000005479561, 10.002438, 9.996255 
2.1154697e+3, 2.90904e+2, -4320.889, -391315.28, -163379.97, 0.12576772, 0.3339715, 55429.184, 144606.5, 0.0000044706885, 10.001871, 9.996707 
2.115522e+3, 3.0090266e+2, 76292.734, -20641.344, -183362.44, 0.0066591017, 0.4596001, 217485.48, 217485.48, 0.000027145721, 10.000779, 9.999442 
2.115575e+3, 3.109019e+2, 135379.97, 233502.56, 25876.318, -0.092404924, 0.24252662, 239908.31, 239908.31, 0.00007500409, 10.000204, 10.001446 
2.1245542e+3, 1.2086588e+2, -2140497.5, -2018211.3, -214211.11, -0.19190659, -0.19306372, -1856588.0, -101060.98, 0.48543465, 9.997353, 9.999163 
2.1246143e+3, 1.3087462e+2, -2008914.3, -1747486.9, 46543.57, 0.5132638, 0.5068563, -1739447.6, -82003.94, 0.3637423, 9.997079, 10.000449 
2.1246624e+3, 1.4086771e+2, -1493753.4, -1572434.0, 3083.3972, -0.3077069, -0.13388017, -1493632.8, 65878.22, 0.23315269, 10.000576, 9.999341 
2.124719e+3, 1.5086989e+2, -1546415.8, -1428088.1, -81073.82, -0.09442373, 0.03451688, -1386886.0, 74603.96, 0.1197026, 9.998862, 10.000532 
2.1247749e+3, 1.6087139e+2, -1767132.1, -1582323.1, -123806.06, 0.14192067, 0.18175212, -1520239.6, -156763.63, 0.044803485, 9.997106, 9.9996 
2.1248266e+3, 1.7087056e+2, -1374544.9, -1368687.0, -136845.28, 0.03926826, 0.15314041, -1234739.3, 30746.268, 0.01004214, 9.999268, 9.999332 
2.1248786e+3, 1.8086967e+2, -1052972.4, -1252909.0, -62729.375, -0.036600493, 0.17402601, -1034921.06, 132575.44, 0.0007722133, 10.001177, 9.99854 
2.1249343e+3, 1.9086897e+2, -1057332.4, -1233420.4, 16809.133, 0.069602914, 0.26244363, -1055742.1, 13766.666, 0.000010944595, 10.000628, 9.99825 
2.1249895e+3, 2.0086807e+2, -1029847.2, -1128237.4, -762.1449, 0.1419203, 0.35429046, -1029841.25, -58319.285, 0.0, 9.999963, 9.998631 
2.1250403e+3, 2.1086626e+2, -787431.4, -899482.6, -84605.875, -0.06911293, 0.25866506, -741982.75, 131554.22, 0.0, 10.000716, 9.99915 
2.1250913e+3, 2.2086444e+2, -635268.25, -866633.94, -72468.914, -0.23742417, 0.20541169, -614443.7, 161108.45, 0.0, 10.001434, 9.99838 
2.1251462e+3, 2.3086317e+2, -576848.1, -809199.75, -58903.844, -0.18047473, 0.25087768, -562768.44, 114797.45, 0.0, 10.001288, 9.998151 
2.1252014e+3, 2.4086165e+2, -491922.0, -698089.7, -88746.92, -0.07848231, 0.29656416, -458982.7, 120599.164, 0.0, 10.001093, 9.998351 
2.1252556e+3, 2.508595e+2, -356461.7, -535311.5, -168173.63, 0.018134922, 0.20640925, -255415.66, 226184.45, 0.0, 10.001174, 9.998744 
2.1253093e+3, 2.6085746e+2, -323861.3, -619600.4, -150825.38, 0.0349486, 0.19052517, -260511.31, 123106.484, 0.0, 10.001354, 9.997416 
2.1253616e+3, 2.7085498e+2, -207664.72, -572359.9, -78195.22, -0.1888, 0.23870088, -191605.81, 94038.8, 0.0, 10.001767, 9.99685 
2.1254154e+3, 2.8085184e+2, -93044.05, -508894.4, -42041.883, -0.24288327, 0.2734907, -88836.25, 98842.27, 0.000000117451826, 10.0020075, 9.996532 
2.125471e+3, 2.908487e+2, -136049.38, -453941.9, -27533.154, 0.13411199, 0.26739123, -133682.31, -43967.918, 0.0000050467984, 10.000967, 9.996708 
2.1255225e+3, 3.00847e+2, -26231.184, -161362.55, 47771.25, 0.05038187, 0.37793204, -11048.975, -11048.975, 0.00002697455, 10.000394, 9.998708 
2.1255769e+3, 3.1084728e+2, 274308.34, 240330.23, -102300.32, 0.040347464, 0.37691915, 361020.7, 361020.7, 0.00007158717, 10.001355, 10.0009775 
2.1346086e+3, 1.3081756e+2, -2161018.5, -2047019.0, 195603.39, 0.24539354, 0.26895544, -1900279.6, -242281.84, 0.38411817, 9.997021, 9.998407 
2.1346645e+3, 1.4081176e+2, -1513332.0, -1663553.8, 23173.59, -0.18236428, -0.123742774, -1509838.4, 50220.42, 0.24951555, 10.000758, 9.998624 
2.1347184e+3, 1.5081427e+2, -1559382.6, -1461838.5, -170417.25, -0.03280573, 0.1145777, -1333351.5, 128686.13, 0.13052814, 9.998916, 10.0002985 
2.1347724e+3, 1.608163e+2, -1751048.3, -1556104.9, -119941.7, 0.1675168, 0.32350895, -1499023.1, -135002.55, 0.050404422, 9.997131, 9.999768 
2.1348254e+3, 1.7081466e+2, -1345260.4, -1306773.3, -35288.68, -0.010816692, 0.1754911, -1285822.1, -19786.168, 0.012084308, 9.99926, 9.999759 
2.1348785e+3, 1.8081333e+2, -978247.25, -1117290.1, -48032.82, -0.19196409, 0.0937254, -963267.94, 204781.11, 0.001155736, 10.001258, 9.999434 
2.1349338e+3, 1.908148e+2, -973499.4, -1060088.6, -10563.218, -0.060633045, 0.2834374, -972229.4, 97809.484, 0.000030850606, 10.000623, 9.999447 
2.134989e+3, 2.008155e+2, -1060796.8, -1167576.6, -6071.0566, 0.0669395, 0.4597426, -1060452.6, -88417.26, 0.0, 9.999856, 9.998412 
2.1350418e+3, 2.1081176e+2, -891582.56, -1085390.9, -41786.934, 0.013851028, 0.27335227, -882956.75, -8886.008, 0.0, 10.000584, 9.99794 
2.1350947e+3, 2.2080813e+2, -706777.75, -958930.0, -67094.63, -0.0536675, 0.13553324, -690036.25, 86069.27, 0.0, 10.001203, 9.997852 
2.135149e+3, 2.3080732e+2, -605410.94, -838660.3, -57921.566, -0.055435132, 0.24368022, -591819.56, 86296.05, 0.0, 10.001156, 9.998014 
2.1352029e+3, 2.4080633e+2, -584306.06, -840568.7, -96467.805, -0.058126427, 0.379356, -552051.4, 28076.232, 0.0, 10.000886, 9.99747 
2.1352561e+3, 2.5080335e+2, -469925.7, -745175.6, -150884.55, -0.05196779, 0.33309716, -403328.28, 78829.9, 0.0, 10.00106, 9.997357 
2.1353099e+3, 2.6080027e+2, -313768.9, -546689.44, -142804.14, -0.072618864, 0.29066706, -245957.6, 138231.02, 0.0, 10.001143, 9.998012 
2.1353643e+3, 2.7079827e+2, -97072.47, -297793.97, -45641.49, -0.104843974, 0.2139433, -87181.57, 199021.28, 0.00000000014169585, 10.001574, 9.998829 
2.1354187e+3, 2.807968e+2, -9690.857, -230436.95, -68149.83, -0.10702498, 0.20501967, 9653.516, 197865.77, 0.000000256191, 10.001579, 9.998633 
2.1354713e+3, 2.9079562e+2, -21104.738, -195629.33, -50931.586, 0.045056768, 0.1902045, -7328.7495, 82893.95, 0.0000052967753, 10.000861, 9.998539 
2.1355222e+3, 3.007919e+2, -332551.0, -670070.9, 41562.56, -0.056256372, 0.10507788, -327508.28, -327508.28, 0.000025200057, 9.999917, 9.995412 
2.1355774e+3, 3.107907e+2, -79543.27, -262440.75, 86955.14, -0.065874144, 0.4618306, -44801.406, -44801.406, 0.00006359548, 10.000418, 9.997949 
2.1446075e+3, 1.3075987e+2, -1470933.4, -1695979.6, 61554.816, 0.179438, 0.10959127, -1455197.1, 203365.77, 0.40760165, 10.00276, 9.9981165 
2.1446648e+3, 1.4075758e+2, -2140313.8, -1946465.1, -7627.9565, 0.0070675085, 0.073128454, -1946165.5, -385572.9, 0.26811564, 9.996232, 9.998864 
2.1447173e+3, 1.5075924e+2, -1632640.5, -1452730.1, -129731.98, 0.0029536723, 0.19264561, -1384817.3, 77761.91, 0.14296411, 9.998197, 10.000692 
2.1447705e+3, 1.6076046e+2, -1251360.4, -1306231.8, -15148.959, 0.11191319, 0.29181984, -1247455.9, 117113.35, 0.057087187, 10.000581, 9.999841 
2.1448252e+3, 1.7075898e+2, -1266726.0, -1279806.5, 23527.975, 0.021302266, 0.16315673, -1248846.3, 17737.135, 0.014719365, 9.999871, 9.999645 
2.1448794e+3, 1.8075776e+2, -1307756.5, -1247973.8, -39566.207, -0.08397133, 0.09751019, -1228277.1, -59682.06, 0.0017550356, 9.998889, 9.999678 
2.1449336e+3, 1.9075945e+2, -1078379.4, -1054673.3, -81621.664, -0.06827035, 0.2667501, -984048.5, 86533.44, 0.00008036648, 9.999677, 9.999937 
2.144988e+3, 2.0076044e+2, -952423.6, -1097740.3, -75659.2, -0.015795726, 0.43167707, -920184.1, 52391.16, 0.000000018813253, 10.000513, 9.998574 
2.145043e+3, 2.1075708e+2, -816029.0, -1063276.0, -45404.695, 0.06362242, 0.2869707, -807954.5, 66652.83, 0.0, 10.001151, 9.997816 
2.1450977e+3, 2.2075364e+2, -664507.8, -944560.2, -16652.465, 0.122138016, 0.18011837, -663521.06, 113119.26, 0.0, 10.001521, 9.997801 
2.1451506e+3, 2.3075235e+2, -614185.44, -843185.6, -28606.615, 0.020028833, 0.24671282, -610666.0, 67988.945, 0.0, 10.00111, 9.998006 
2.1452034e+3, 2.4075106e+2, -607149.9, -876307.0, -14065.183, -0.06500104, 0.3583994, -606416.9, -25746.848, 0.0, 10.000834, 9.9972515 
2.1452573e+3, 2.5074822e+2, -418802.34, -759096.94, -5907.2637, -0.041716155, 0.36127603, -418699.84, 64000.418, 0.0, 10.001584, 9.997004 
2.1453118e+3, 2.6074514e+2, -171175.97, -460765.28, 33968.75, -0.012741782, 0.33578843, -167244.81, 217486.7, 0.0, 10.002035, 9.998179 
2.1453658e+3, 2.7074316e+2, -190268.61, -279799.6, 2516.7766, -0.039159212, 0.21386345, -190197.9, 96546.18, 0.00000000016893417, 10.000656, 9.999394 
2.1454197e+3, 2.8074232e+2, -227975.27, -282705.53, -72784.61, -0.04448559, 0.21033254, -177581.47, 11163.992, 0.0000002738674, 9.99982, 9.999134 
2.1454719e+3, 2.9074168e+2, 170077.02, -30992.43, -167563.9, -0.0003017773, 0.20747004, 264951.84, 355699.97, 0.0000047479944, 10.0018835, 9.999167 
2.1455239e+3, 3.0073744e+2, 234644.88, -362261.2, -49494.426, -0.024990216, 0.005816147, 238721.03, 238721.03, 0.000021563434, 10.003569, 9.9958105 
2.1455786e+3, 3.1073633e+2, 31124.512, -168435.78, 202858.05, 0.017226705, 0.3676363, 157413.97, 157413.97, 0.000054127435, 10.000955, 9.99834 
2.1546109e+3, 1.3070185e+2, -1375307.1, -1513423.5, -119502.95, 0.15776475, 0.10315288, -1306343.6, 352793.13, 0.43279883, 10.003158, 9.999873 
2.1546616e+3, 1.4070515e+2, -2038742.6, -1747154.1, -127214.53, 0.048832405, 0.45065323, -1699455.4, -138342.89, 0.28823382, 9.996267, 10.000217 
2.1547146e+3, 1.5070494e+2, -1553108.8, -1324966.5, -4445.9106, -0.09545625, 0.27067828, -1324879.9, 138233.19, 0.15688464, 9.998255, 10.001649 
2.1547686e+3, 1.6070409e+2, -1226112.8, -1300202.1, 6295.2183, -0.1689658, 0.09272025, -1225581.6, 139537.9, 0.06501248, 10.000805, 9.999778 
2.1548252e+3, 1.7070347e+2, -1316980.8, -1393452.5, -17152.637, 0.036674764, 0.11668209, -1313309.6, -46182.27, 0.018139776, 9.999911, 9.998839 
2.154881e+3, 1.8070291e+2, -1338342.1, -1322822.1, -48265.047, 0.17759882, 0.18916026, -1281697.3, -112561.734, 0.0026903055, 9.998931, 9.9991455 
2.1549337e+3, 1.9070293e+2, -1092606.8, -1080847.9, -37325.957, -0.04472468, 0.21558115, -1048941.1, 22197.469, 0.00019736934, 9.999664, 9.99976 
2.1549866e+3, 2.007028e+2, -933661.8, -1039908.25, -53959.79, -0.2278762, 0.26902282, -911063.56, 62078.555, 0.0000007869328, 10.000431, 9.999012 
2.1550435e+3, 2.1070202e+2, -771305.4, -944582.56, -16418.377, -0.0079038795, 0.30006027, -769763.4, 105384.88, 0.0, 10.001031, 9.998691 
2.1550997e+3, 2.2070071e+2, -671757.8, -908270.75, -26197.678, 0.16707818, 0.33360744, -668890.75, 108268.625, 0.0, 10.001303, 9.998153 
2.155151e+3, 2.3069811e+2, -630501.44, -849884.5, -39258.324, -0.03963575, 0.2580988, -623687.8, 55498.023, 0.0, 10.000988, 9.998018 
2.1552029e+3, 2.4069563e+2, -615842.5, -841682.75, -9487.44, -0.21412925, 0.23847777, -615444.7, -34233.445, 0.0, 10.000619, 9.997587 
2.1552591e+3, 2.5069386e+2, -404252.34, -693651.94, 35642.023, -0.038334448, 0.29598212, -399927.34, 83302.305, 0.0, 10.00143, 9.997528 
2.1553147e+3, 2.6069158e+2, -228754.13, -515584.8, 6760.5464, 0.07612544, 0.32356405, -228594.88, 156657.25, 0.0, 10.001762, 9.9979315 
2.1553662e+3, 2.7068913e+2, -263956.47, -409288.94, -44798.15, -0.07687453, 0.21730117, -251257.27, 36016.44, 0.0, 10.000547, 9.998563 
2.1554184e+3, 2.8068772e+2, -335243.25, -439134.78, -51575.574, -0.18136348, 0.25476766, -313987.9, -124703.59, 0.000000100631844, 9.999568, 9.998164 
2.155473e+3, 2.9068667e+2, 66311.93, -161367.23, -51024.008, -0.11421553, 0.2927971, 77223.695, 168514.73, 0.0000031808167, 10.001516, 9.998447 
2.1555264e+3, 3.0068243e+2, 314374.8, 50124.4, -87520.086, -0.17427906, 0.014608689, 340732.53, 340732.53, 0.000016664693, 10.0025625, 9.999097 
2.155579e+3, 3.1068474e+2, 74374.75, 51447.203, 70377.36, -0.094129734, 0.22910947, 134215.89, 134215.89, 0.00004561872, 10.000413, 10.000101 
2.1646114e+3, 1.3064633e+2, -1568797.0, -1591685.5, -75734.58, 0.039696038, 0.04464528, -1503646.9, 156035.83, 0.45757636, 10.000814, 10.000079 
2.1646604e+3, 1.4065087e+2, -1551802.4, -1518446.6, -42972.258, 0.14174476, 0.49972326, -1489029.3, 72618.71, 0.3088363, 9.999646, 10.000301 
2.1647139e+3, 1.5065032e+2, -1371057.1, -1270565.1, 51979.688, -0.056893677, 0.29974693, -1248516.3, 215135.03, 0.17204043, 9.99978, 10.001369 
2.1647683e+3, 1.6064917e+2, -1403531.8, -1387316.1, -33174.195, -0.193104, 0.11343888, -1361273.4, 4386.9385, 0.07433442, 9.999506, 9.999784 
2.1648252e+3, 1.7064928e+2, -1267460.8, -1342159.4, -31356.79, 0.04002996, 0.18797208, -1256043.1, 11618.321, 0.022589553, 10.000113, 9.999107 
2.1648811e+3, 1.8064934e+2, -1115074.1, -1224118.8, 35350.883, 0.23808905, 0.30359125, -1104616.6, 65047.066, 0.00413868, 10.000516, 9.999057 
2.1649341e+3, 1.9064844e+2, -1027850.7, -1104032.1, 25913.303, 0.009164095, 0.28064796, -1019871.9, 51803.777, 0.00045452762, 10.000344, 9.999279 
2.164987e+3, 2.0064749e+2, -984437.0, -1041962.1, -1625.6427, -0.1758359, 0.2779477, -984391.1, -10704.083, 0.000007502901, 9.999977, 9.99922 
2.1650437e+3, 2.1064715e+2, -889071.06, -917188.1, 7314.745, -0.018444184, 0.2952708, -887281.94, -11595.572, 0.0, 9.999873, 9.999438 
2.1650997e+3, 2.206464e+2, -864269.1, -989198.75, 3211.3635, 0.1227068, 0.32803023, -864186.6, -86496.26, 0.0, 9.999935, 9.998252 
2.1651521e+3, 2.3064373e+2, -646517.6, -905346.4, -53428.32, -0.029900087, 0.27646774, -635922.5, 43796.863, 0.0, 10.001086, 9.997585 
2.1652049e+3, 2.4064119e+2, -407276.84, -715524.6, -52112.824, -0.12837906, 0.2769237, -398704.94, 183042.2, 0.0, 10.001928, 9.997827 
2.1652603e+3, 2.5063983e+2, -447905.2, -617107.7, -19821.775, -0.002268426, 0.30933106, -445614.13, 38145.313, 0.0, 10.000732, 9.998375 
2.1653152e+3, 2.6063815e+2, -508750.66, -644121.4, -6211.144, 0.06246046, 0.32996956, -508466.28, -122691.79, 0.0, 9.999816, 9.997982 
2.165367e+3, 2.7063546e+2, -217430.0, -439844.78, -50018.33, -0.060391497, 0.24993439, -206699.23, 81100.305, 0.0, 10.001122, 9.998058 
2.1654202e+3, 2.8063342e+2, -19588.195, -336939.4, -18688.766, -0.057082187, 0.26923472, -18491.408, 171326.95, 0.0000000029805467, 10.001937, 9.99773 
2.1654746e+3, 2.906317e+2, -231866.98, -319214.4, -20388.55, 0.025283996, 0.28181532, -227342.3, -135510.25, 0.000001345268, 9.999547, 9.998305 
2.1655266e+3, 3.0062887e+2, -219419.75, -61595.72, -10165.305, -0.13414179, 0.080974616, -60943.676, -60943.676, 0.000010778314, 9.998238, 10.000416 
2.1655798e+3, 3.1063128e+2, 353998.3, 175235.66, -143494.4, -0.1438761, 0.1745561, 433672.22, 433672.22, 0.00003608632, 10.002407, 9.999976 
2.1746089e+3, 1.3059501e+2, -1706140.6, -1869285.5, -258734.45, -0.34830067, 0.021922786, -1516424.4, 143759.38, 0.48078975, 10.001086, 9.997884 
2.1746607e+3, 1.4059515e+2, -1622248.8, -1734111.8, -38948.293, 0.14938878, 0.20930168, -1610023.8, -47829.734, 0.32934, 9.999964, 9.998511 
2.1747148e+3, 1.5059541e+2, -1480111.3, -1505932.5, 60729.574, 0.043474317, 0.27545327, -1430935.1, 33258.965, 0.18832743, 9.999839, 9.999471 
2.174769e+3, 1.6059563e+2, -1390574.8, -1385196.9, -31433.28, -0.09636527, 0.36591622, -1356337.8, 9855.402, 0.0852701, 9.999606, 9.999752 
2.1748242e+3, 1.7059654e+2, -1156603.8, -1125124.0, 3816.2124, -0.06472687, 0.3992452, -1124668.0, 143516.23, 0.028395085, 10.000175, 10.000591 
2.1748792e+3, 1.805971e+2, -1089499.5, -1192594.1, 32995.98, -0.031588715, 0.4494621, -1079843.4, 90335.89, 0.006367479, 10.00061, 9.999227 
2.1749343e+3, 1.9059587e+2, -1090260.8, -1234525.4, 20483.412, -0.0029410492, 0.4583495, -1087408.9, -15214.445, 0.0009868387, 10.000345, 9.998381 
2.174989e+3, 2.0059423e+2, -999028.3, -1059016.8, -17470.947, 0.0068080327, 0.45488232, -994311.06, -20099.006, 0.000047582707, 9.999913, 9.999137 
2.1750432e+3, 2.1059236e+2, -865389.4, -837469.0, 9455.72, -0.04702292, 0.27147365, -834568.06, 41654.83, 0.00000000032497088, 9.999738, 10.000052 
2.1750975e+3, 2.2059053e+2, -914335.0, -1035865.1, 22675.975, -0.110585175, 0.15609732, -910241.8, -132006.84, 0.0, 9.999696, 9.998043 
2.175153e+3, 2.3058896e+2, -738509.0, -1052388.0, 4880.269, -0.04083684, 0.2895183, -738433.1, -58175.13, 0.0, 10.000903, 9.99666 
2.1752085e+3, 2.4058732e+2, -443251.13, -717577.9, -67445.79, 0.046131954, 0.443708, -427565.8, 154715.39, 0.0, 10.001626, 9.9979515 
2.175261e+3, 2.5058588e+2, -397766.78, -479579.03, -65957.016, -0.02155987, 0.38315314, -361060.78, 123230.88, 0.0, 10.000594, 9.999383 
2.1753128e+3, 2.6058453e+2, -520421.53, -618604.9, -4535.8887, -0.16137496, 0.35589296, -520212.44, -133911.84, 0.0, 9.999615, 9.998248 
2.1753676e+3, 2.705821e+2, -261963.69, -494403.38, 22046.363, -0.096277565, 0.31659746, -259891.13, 28431.777, 0.0, 10.000964, 9.997757 
2.1754241e+3, 2.8057906e+2, -81820.85, -369709.1, -64856.51, 0.12489065, 0.25755525, -67884.4, 122467.43, 0.0, 10.001543, 9.997686 
2.1754763e+3, 2.9057622e+2, -234952.94, -311378.7, -108554.164, 0.2384, 0.14057553, -158082.23, -65705.47, 0.00000028754212, 9.999481, 9.99839 
2.1755248e+3, 3.0057523e+2, -318873.66, -177277.33, 33579.434, -0.1598973, 0.13815494, -169717.61, -169717.61, 0.0000061263827, 9.997911, 9.999748 
2.1755816e+3, 3.10577e+2, 104115.49, -113545.13, 151484.92, -0.25180766, 0.27573228, 181810.56, 181810.56, 0.000027574106, 10.001439, 9.998449 
2.1846612e+3, 1.4054188e+2, -1645760.4, -1814652.6, 38445.973, 0.22257005, 0.23327076, -1637420.5, -74703.55, 0.34983045, 10.000054, 9.997908 
2.1847166e+3, 1.5053952e+2, -1394021.0, -1586059.3, -22938.896, 0.19759934, 0.16800268, -1391319.0, 73425.92, 0.2059314, 10.001082, 9.998312 
2.1847679e+3, 1.605413e+2, -1558737.6, -1472625.3, -24584.516, -0.10937479, 0.4942535, -1466100.9, -99370.2, 0.09816949, 9.998504, 9.999674 
2.1848238e+3, 1.7054197e+2, -1383613.6, -1156987.3, -25759.705, -0.024033476, 0.45744482, -1154096.3, 114625.66, 0.036017943, 9.998308, 10.001255 
2.1848792e+3, 1.8054198e+2, -1383549.5, -1307275.8, -26588.03, 0.016794374, 0.40014842, -1298922.4, -128202.53, 0.009796201, 9.998449, 9.999487 
2.1849343e+3, 1.9054094e+2, -1176874.8, -1277361.9, 8591.943, 0.022465518, 0.41944999, -1176145.5, -103412.64, 0.0020521113, 9.999744, 9.998372 
2.1849895e+3, 2.0053957e+2, -880118.4, -1027111.44, 23310.65, 0.037461106, 0.44936952, -876510.25, 98237.58, 0.00020967671, 10.000852, 9.998906 
2.1850434e+3, 2.1053734e+2, -731034.94, -826957.1, -49570.05, -0.03875325, 0.27304465, -710021.75, 166742.36, 0.00000086887735, 10.000893, 9.999572 
2.1850975e+3, 2.2053526e+2, -757679.7, -941382.94, -57356.383, -0.10701346, 0.16727147, -741242.5, 37537.39, 0.0, 10.000676, 9.998228 
2.1851535e+3, 2.3053443e+2, -741307.06, -958911.3, 25042.842, -0.04259583, 0.31165874, -738462.2, -57668.98, 0.0, 10.00049, 9.997496 
2.1852095e+3, 2.4053334e+2, -596969.06, -769511.25, 44134.715, 0.047439385, 0.4490939, -586335.1, -3526.2214, 0.0, 10.000465, 9.998157 
2.1852617e+3, 2.5053117e+2, -340933.72, -496251.7, -62359.85, -0.01810167, 0.33881477, -318995.16, 165832.81, 0.0, 10.001146, 9.999018 
2.1853137e+3, 2.6052955e+2, -207205.75, -454524.3, -43441.98, -0.11945171, 0.3089106, -199797.03, 187043.78, 0.0, 10.00168, 9.998398 
2.1853687e+3, 2.7052855e+2, -202809.58, -411990.53, 9162.454, -0.095973894, 0.37688833, -202409.02, 86440.1, 0.0, 10.001118, 9.998269 
2.1854243e+3, 2.8052628e+2, -207983.5, -410151.9, -42294.53, 0.07619053, 0.34479663, -199491.97, -8621.338, 0.0, 10.000557, 9.997898 
2.1854769e+3, 2.9052213e+2, 62945.496, -194390.44, -132331.61, 0.25679272, 0.11540164, 118850.28, 211760.38, 0.000000027227998, 10.001627, 9.998168 
2.1855271e+3, 3.0052203e+2, 312231.38, 53999.555, 22905.188, 0.062591426, 0.23924322, 314247.34, 314247.34, 0.0000044959556, 10.002503, 9.99916 
2.1855815e+3, 3.1052396e+2, -212168.75, -194465.86, 114360.86, -0.22004256, 0.47032604, -88614.41, -88614.41, 0.000025056477, 9.998849, 9.999196 
2.1946594e+3, 1.4049028e+2, -1598497.1, -1612604.6, 320498.4, -0.015744735, 0.61873186, -1284974.9, 278249.9, 0.371045, 10.000045, 9.999839 
2.1947187e+3, 1.5048201e+2, -1400860.3, -1610479.1, -108822.82, 0.28364524, -0.038673494, -1354582.3, 110727.88, 0.22535217, 10.001189, 9.99813 
2.1947642e+3, 1.6048612e+2, -1550186.5, -1470567.1, -90231.04, -0.3575624, 0.5150968, -1411754.0, -44480.723, 0.113554515, 9.998573, 9.999654 
2.1948232e+3, 1.7048515e+2, -1410867.1, -1203106.8, -17766.51, 0.08772839, 0.34640166, -1201598.4, 67679.86, 0.046104282, 9.998271, 10.000951 
2.1948804e+3, 1.8048345e+2, -1345164.6, -1235818.4, -461.66525, 0.280862, 0.12458425, -1235816.4, -64525.586, 0.015073848, 9.998482, 9.999963 
2.194934e+3, 1.9048354e+2, -1106808.1, -1128119.9, 68786.19, 0.009197588, 0.1685487, -1047857.3, 25434.402, 0.004138987, 9.999732, 9.999404 
2.194988e+3, 2.0048352e+2, -921036.5, -1098340.9, 37857.547, -0.21325746, 0.27035478, -913291.56, 62002.79, 0.00072646124, 10.000794, 9.998443 
2.1950437e+3, 2.1048199e+2, -868640.56, -1076041.5, -48928.05, -0.09724262, 0.30025, -857677.44, 19633.674, 0.000022642807, 10.000741, 9.997929 
2.1950991e+3, 2.2048052e+2, -751128.0, -876112.06, -68936.75, 0.0055855815, 0.35809028, -720574.2, 58751.883, 0.000000000011542125, 10.000448, 9.998785 
2.1951531e+3, 2.3048009e+2, -586862.94, -615238.3, 27687.617, -0.12348529, 0.34103996, -569939.6, 111386.305, 0.0, 10.000382, 9.9999075 
2.195207e+3, 2.4047914e+2, -621146.4, -757124.0, 48625.734, -0.24841334, 0.31203884, -605547.25, -22215.771, 0.0, 10.000207, 9.998361 
2.195262e+3, 2.5047565e+2, -481354.56, -748260.6, -24845.898, -0.09377698, 0.1888159, -479061.38, 6307.2188, 0.0, 10.0009775, 9.997367 
2.1953169e+3, 2.604731e+2, -274819.72, -504215.22, -49942.68, 0.027333463, 0.19235225, -264418.13, 122977.945, 0.0, 10.001311, 9.998221 
2.1953692e+3, 2.7047443e+2, -164765.53, -271503.6, -4035.1042, -0.16217035, 0.40468997, -164613.2, 124768.664, 0.0, 10.00087, 9.999339 
2.1954212e+3, 2.804742e+2, -241990.56, -391259.97, -41087.19, -0.3264438, 0.4907239, -231428.45, -40045.63, 0.0, 10.00019, 9.998198 
2.1954761e+3, 2.904693e+2, -26738.12, -306730.16, -57396.87, -0.0042082844, 0.20928341, -15428.864, 78004.164, 0.000000020729713, 10.00131, 9.997548 
2.1955317e+3, 3.0046853e+2, 162456.53, -97001.76, -28323.22, 0.24367309, 0.36706635, 165512.38, 165512.38, 0.0000055230016, 10.001858, 9.998403 
2.19558e+3, 3.1046999e+2, -232782.1, -78768.42, 41911.305, -0.26348066, 0.53261983, -68101.945, -68101.945, 0.000029811183, 9.998245, 10.000242 
2.2046576e+3, 1.4043495e+2, -1659301.8, -1534719.6, 323511.3, -0.0920252, 0.6007879, -1267557.0, 296210.1, 0.39437363, 9.998962, 10.001141 
2.2047184e+3, 1.5042758e+2, -1694885.6, -1696964.8, -80521.9, 0.29021385, 0.0003442998, -1615396.6, -149553.23, 0.24751917, 9.998704, 9.998705 
2.2047639e+3, 1.604314e+2, -1231004.1, -1292778.9, -16453.158, -0.3128191, 0.46107417, -1226895.3, 140914.98, 0.13222682, 10.000779, 9.999907 
2.2048223e+3, 1.7043054e+2, -1072495.0, -1096369.6, 53272.54, 0.06272711, 0.33238137, -1029838.75, 239975.88, 0.059555795, 10.000849, 10.000531 
2.2048792e+3, 1.80429e+2, -1068928.1, -1114417.4, 86130.125, 0.2507472, 0.15776905, -1002590.1, 169235.9, 0.023171267, 10.000443, 9.999869 
2.2049344e+3, 1.9042906e+2, -1034786.06, -1091023.6, 83172.17, 0.052741997, 0.19957517, -975108.06, 98719.85, 0.008108057, 10.000218, 9.99944 
2.2049892e+3, 2.0042911e+2, -1028628.5, -1129715.4, 11268.783, -0.100041114, 0.30364364, -1027387.5, -51557.03, 0.0021629941, 9.999963, 9.998634 
2.2050442e+3, 2.1042816e+2, -884064.2, -1039670.1, 34742.93, -0.0904041, 0.3596454, -876659.4, 1181.3029, 0.00023583506, 10.000435, 9.998331 
2.2050989e+3, 2.20427e+2, -665243.9, -800567.75, 129698.11, -0.06422026, 0.40765488, -586619.3, 193231.97, 0.0000019906881, 10.000891, 9.999093 
2.2051539e+3, 2.3042591e+2, -502681.66, -563691.1, 66994.055, -0.0982479, 0.30454093, -459574.3, 222280.63, 0.0, 10.0008955, 10.00003 
2.2052087e+3, 2.4042436e+2, -545857.94, -730795.3, -15740.609, -0.10668811, 0.21605486, -544527.75, 39336.6, 0.0, 10.000754, 9.998286 
2.205263e+3, 2.5042182e+2, -564943.3, -793648.1, -29785.443, -0.04699968, 0.20307569, -561127.9, -75233.055, 0.0, 10.000477, 9.9972725 
2.2053172e+3, 2.6042005e+2, -433456.34, -545040.0, 26005.738, 0.0030772148, 0.27486983, -427693.1, -39775.266, 0.0, 10.000064, 9.998544 
2.2053692e+3, 2.7042058e+2, -333558.72, -282343.97, 28036.006, -0.13722424, 0.35732287, -269980.88, 19927.96, 0.0, 9.999393, 9.999983 
2.2054212e+3, 2.8042054e+2, -368513.7, -388070.03, 35566.71, -0.25753453, 0.3867117, -341405.5, -149499.19, 0.0, 9.999055, 9.998761 
2.2054759e+3, 2.904172e+2, -210261.77, -377786.13, 44937.71, -0.076115884, 0.24157555, -198968.69, -105026.37, 0.00000007580395, 9.999981, 9.997702 
2.2055322e+3, 3.0041575e+2, -109069.664, -363100.75, 73086.97, 0.20643711, 0.3704339, -89542.88, -89542.88, 0.0000083740215, 10.000536, 9.997236 
2.2055827e+3, 3.1041458e+2, 303289.4, 311341.16, -39480.9, 0.029044671, 0.40912613, 347000.94, 347000.94, 0.000042885644, 10.001333, 10.001432 
2.2146614e+3, 1.4037749e+2, -1555160.4, -1410448.5, -106266.586, 0.32980466, 0.36185515, -1354243.4, 210085.28, 0.4221777, 9.998971, 10.002011 
2.2147161e+3, 1.5037653e+2, -1620918.1, -1512188.8, 52879.344, 0.17205818, 0.33150667, -1490713.3, -24371.756, 0.27423543, 9.99858, 10.000038 
2.214767e+3, 1.6037683e+2, -1180747.8, -1205955.4, 5472.629, -0.12552997, 0.3202336, -1179610.9, 188733.25, 0.15564767, 10.000899, 10.000566 
2.2148205e+3, 1.7037828e+2, -1097871.9, -1152137.0, 46264.074, -0.2032558, 0.4282487, -1071371.0, 198958.55, 0.07778218, 10.000886, 10.000118 
2.2148755e+3, 1.8037894e+2, -1111960.8, -1224342.0, 69112.08, -0.20249847, 0.5286858, -1079079.1, 93243.58, 0.035576556, 10.000531, 9.999071 
2.2149345e+3, 1.9037758e+2, -1119142.6, -1252265.8, 78718.195, 0.06302648, 0.5295969, -1082616.9, -8275.807, 0.0154146915, 10.000159, 9.998358 
2.214993e+3, 2.0037621e+2, -985683.25, -1020040.3, 12770.126, 0.25528005, 0.54726815, -981456.7, -5098.618, 0.005714695, 9.999871, 9.999431 
2.2150445e+3, 2.1037574e+2, -730251.7, -693146.75, 62805.26, -0.111965515, 0.4480771, -646211.06, 232143.48, 0.0013616167, 10.000316, 10.000769 
2.2150962e+3, 2.2037487e+2, -704798.5, -824831.75, 128294.52, -0.44618455, 0.3482906, -623176.56, 157178.1, 0.00013056793, 10.000643, 9.999047 
2.215155e+3, 2.3037171e+2, -673536.6, -882354.7, 72151.31, -0.06222892, 0.20042309, -651032.06, 31349.81, 0.0000045921656, 10.000733, 9.997921 
2.2152136e+3, 2.4036887e+2, -628777.75, -818526.8, -34278.473, 0.3101392, 0.1510919, -622775.2, -38366.703, 0.000000030624218, 10.000408, 9.997843 
2.2152644e+3, 2.5036928e+2, -517327.13, -642296.5, -32686.203, 0.029109055, 0.35461012, -509294.28, -22883.5, 0.0, 10.000258, 9.998412 
2.2153142e+3, 2.6036948e+2, -432522.66, -465275.22, -9768.727, -0.2916818, 0.52221847, -429830.38, -41416.24, 0.0, 9.999747, 9.999236 
2.2153686e+3, 2.7036694e+2, -342136.47, -247762.7, 6740.8867, -0.1385429, 0.2482503, -247283.66, 43148.17, 0.0, 9.999181, 10.000314 
2.2154233e+3, 2.8036532e+2, -387971.44, -338718.56, 37539.773, 0.03768406, 0.07947407, -318448.5, -126007.516, 0.0, 9.998692, 9.999261 
2.2154756e+3, 2.9036537e+2, -208070.6, -331264.53, 93292.95, -0.083927915, 0.20775321, -157874.17, -63430.105, 0.00000027397763, 9.999815, 9.99809 
2.2155288e+3, 3.003629e+2, -269595.9, -592302.5, 74926.29, -0.2278451, 0.28011063, -253048.02, -253048.02, 0.000015050563, 10.00014, 9.995824 
2.2155854e+3, 3.1035754e+2, 207122.02, 329715.8, 74981.59, 0.12759261, 0.049826384, 365267.0, 365267.0, 0.00007034586, 10.000448, 10.001962 
2.2246546e+3, 1.4031549e+2, -1705947.8, -1355751.6, -153569.89, -0.18599837, -0.08480028, -1297948.3, 266989.3, 0.45833316, 9.996948, 10.003865 
2.2247142e+3, 1.5032339e+2, -1686926.4, -1454579.9, 110399.14, 0.1843532, 0.45624015, -1410490.3, 56371.246, 0.30885017, 9.997675, 10.000999 
2.2247678e+3, 1.6032287e+2, -1302775.1, -1293197.8, 4608.3687, -0.07010505, 0.32198843, -1291340.5, 77531.11, 0.18666483, 10.000051, 10.000288 
2.2248203e+3, 1.7032406e+2, -1185173.5, -1252220.8, -58863.47, -0.279804, 0.45414993, -1150956.9, 119904.65, 0.103338934, 10.00055, 9.999537 
2.2248745e+3, 1.8032475e+2, -1164840.6, -1273984.9, -28649.582, -0.3006625, 0.60761136, -1157777.4, 15078.634, 0.054786276, 10.000239, 9.9988785 
2.2249345e+3, 1.9032302e+2, -1036520.56, -1189736.0, 59485.035, 0.042494446, 0.5618292, -1016137.5, 58738.6, 0.028543482, 10.0006075, 9.998576 
2.2249939e+3, 2.0032132e+2, -813208.1, -919790.0, 80725.14, 0.3150508, 0.52026, -769770.2, 207124.42, 0.013685946, 10.001003, 9.999572 
2.2250454e+3, 2.1032125e+2, -603899.75, -636742.44, -36459.867, -0.075110085, 0.4589715, -580333.8, 298554.66, 0.005262215, 10.00122, 10.000727 
2.2250971e+3, 2.2032058e+2, -617687.9, -795361.3, -104355.28, -0.41348645, 0.39133388, -569477.2, 211410.52, 0.001420654, 10.001276, 9.99895 
2.2251558e+3, 2.30317e+2, -704625.6, -902733.4, -78187.47, -0.031441063, 0.21305959, -677485.4, 5433.7974, 0.0002619265, 10.00054, 9.997879 
2.2252138e+3, 2.4031398e+2, -688965.56, -797736.94, -40002.668, 0.3517604, 0.13973527, -675838.2, -90891.14, 0.000035642544, 9.9997635, 9.998306 
2.2252642e+3, 2.5031537e+2, -574714.8, -570855.1, -41904.73, 0.06412496, 0.35604906, -530835.8, -43897.777, 0.0000011567587, 9.999388, 9.999349 
2.225314e+3, 2.6031604e+2, -536333.06, -482155.63, -26634.744, -0.23985045, 0.5007774, -471254.75, -82319.875, 0.0, 9.998882, 9.99954 
2.2253682e+3, 2.7031344e+2, -378988.56, -284457.28, -71073.12, -0.080337614, 0.23240934, -246368.2, 44587.188, 0.0, 9.999032, 10.000132 
2.2254233e+3, 2.8031266e+2, -249535.38, -240153.7, -22022.92, 0.14833164, 0.15307018, -222327.6, -29369.568, 0.0, 9.999492, 9.99957 
2.2254771e+3, 2.9031327e+2, -14828.52, -156328.33, 26012.768, 0.039748248, 0.29735255, -10197.968, 84754.664, 0.00000073017384, 10.000815, 9.998799 
2.2255303e+3, 3.00309e+2, -66321.93, -464395.6, 38230.902, -0.13174605, 0.10618179, -62683.5, -62683.5, 0.00002755439, 10.001371, 9.996134 
2.225584e+3, 3.1030506e+2, 115473.375, 242805.97, 68262.305, -0.009893867, 0.06957196, 272483.88, 272483.88, 0.000118261974, 9.999934, 10.001653 
2.234712e+3, 1.5026821e+2, -1679384.6, -1393529.3, 132236.44, 0.18898405, 0.41682065, -1341739.6, 125663.48, 0.35698506, 9.997432, 10.001764 
2.2347663e+3, 1.6026925e+2, -1395853.0, -1483371.1, 63348.652, -0.26108634, 0.45067906, -1362619.1, 6775.8257, 0.23053116, 9.999978, 9.998904 
2.2348213e+3, 1.7026748e+2, -1257343.9, -1385083.4, -60616.484, -0.24782002, 0.3870977, -1233158.5, 38255.773, 0.14104874, 10.000436, 9.998664 
2.2348762e+3, 1.8026602e+2, -1139790.1, -1213736.1, -32142.533, -0.17099449, 0.36879873, -1127771.8, 45658.105, 0.08532412, 10.000226, 9.9993 
2.2349338e+3, 1.9026524e+2, -933600.3, -960868.2, 78898.945, -0.09261686, 0.28410923, -867166.0, 208268.9, 0.05187056, 10.000565, 10.000213 
2.2349912e+3, 2.0026463e+2, -869996.94, -1005894.44, 84851.31, -0.049911074, 0.24772863, -829240.7, 148197.81, 0.030293982, 10.000885, 9.999037 
2.2350466e+3, 2.102646e+2, -797082.75, -1002907.56, -21551.357, -0.072727576, 0.3885924, -794850.4, 84592.49, 0.015773455, 10.001072, 9.998276 
2.2351016e+3, 2.2026402e+2, -682801.0, -856185.2, -123214.85, -0.105433635, 0.5237356, -618836.5, 162615.02, 0.0069356123, 10.000975, 9.998669 
2.2351557e+3, 2.3026162e+2, -594960.94, -641884.2, -99102.99, -0.099137716, 0.32065165, -516580.28, 166887.86, 0.002541045, 10.000396, 9.999733 
2.2352095e+3, 2.4025957e+2, -652140.0, -644157.44, -71085.1, -0.08973864, 0.17854485, -576951.7, 8529.644, 0.00075579167, 9.999446, 9.999506 
2.2352627e+3, 2.5026017e+2, -550094.3, -470663.9, -49886.316, -0.04123009, 0.22120583, -446614.38, 40860.9, 0.00014769337, 9.999178, 10.000134 
2.235315e+3, 2.6026013e+2, -612441.2, -550782.6, -53564.293, -0.035620097, 0.25191778, -519809.2, -130332.68, 0.000007045108, 9.998525, 9.999226 
2.2353674e+3, 2.7025986e+2, -464568.75, -429732.34, -53317.33, -0.06495262, 0.28783724, -391060.16, -99579.016, 0.00000000065814787, 9.998898, 9.999187 
2.235421e+3, 2.8026164e+2, -303681.56, -272275.34, -6069.2974, -0.04457213, 0.53027165, -271143.25, -77678.555, 0.0, 9.99918, 9.999479 
2.235479e+3, 2.902609e+2, -28160.156, -89697.74, 83466.25, 0.13447726, 0.48073977, 30027.97, 125496.086, 0.0000012574419, 10.000437, 9.999421 
2.235535e+3, 3.0025348e+2, -93682.58, -333993.9, -13354.563, 0.16098492, -0.1315315, -92942.72, -92942.72, 0.000044073433, 10.000619, 9.997362 
2.2355805e+3, 3.1025824e+2, -130179.086, -83224.38, 148373.25, -0.38817617, 0.61346364, 43517.46, 43517.46, 0.00018419352, 9.999218, 9.99973 
2.2447097e+3, 1.5020962e+2, -1243185.5, -1253334.4, -60416.84, 0.0010967638, 0.2768571, -1187630.4, 280352.8, 0.42759266, 10.00174, 10.001239 
2.2447656e+3, 1.6021249e+2, -1684515.0, -1518280.8, -71910.71, -0.16710167, 0.4726623, -1491490.5, -121537.5, 0.29616648, 9.997536, 9.999842 
2.2448222e+3, 1.7021094e+2, -1284999.9, -1290995.0, -26047.535, -0.13106029, 0.33740625, -1261778.0, 10188.42, 0.19952731, 9.999752, 9.999637 
2.2448784e+3, 1.8020928e+2, -862335.1, -1016800.8, 67415.24, -0.05454047, 0.20603518, -837051.0, 336929.47, 0.13536815, 10.002148, 9.999891 
2.2449341e+3, 1.9020914e+2, -845830.9, -895229.3, 54083.383, -0.14879908, 0.15457651, -811073.7, 264904.9, 0.09319166, 10.001155, 10.000475 
2.2449897e+3, 2.0020927e+2, -1005272.6, -1094220.9, 32962.18, -0.22113119, 0.17595577, -994389.25, -16413.691, 0.06306426, 9.999959, 9.998913 
2.2450475e+3, 2.1020892e+2, -889728.94, -1102110.6, 48290.164, -0.038306456, 0.33217648, -879264.56, 720.8367, 0.0400799, 10.000614, 9.997848 
2.2451048e+3, 2.2020823e+2, -621976.6, -815662.0, 53555.074, 0.12182591, 0.48232535, -608154.7, 173843.25, 0.023131557, 10.001342, 9.998791 
2.2451565e+3, 2.3020695e+2, -635304.7, -602759.06, -49592.41, -0.009758431, 0.34621084, -566837.9, 117167.03, 0.011994159, 9.999854, 10.0002775 
2.2452077e+3, 2.4020572e+2, -784939.8, -696215.4, -65117.99, -0.11229456, 0.2513512, -661784.44, -75773.56, 0.0054928027, 9.998457, 9.999631 
2.2452617e+3, 2.502054e+2, -527686.25, -456898.0, -95229.33, -0.029795308, 0.20138067, -390698.0, 97314.266, 0.002050329, 9.999324, 10.000156 
2.245315e+3, 2.6020446e+2, -381158.34, -478322.97, -127126.2, 0.045488957, 0.1595107, -293647.63, 96373.05, 0.0004876709, 10.000267, 9.998895 
2.2453679e+3, 2.7020413e+2, -153041.7, -325612.1, -107013.96, 0.0058123763, 0.23519687, -101860.086, 190166.05, 0.000047167257, 10.001238, 9.998777 
2.2454216e+3, 2.8020564e+2, -37243.48, -142900.86, -48092.13, 0.024646694, 0.47321153, -18631.824, 175381.1, 0.00000034188096, 10.000988, 9.999507 
2.2454791e+3, 2.9020512e+2, -91731.07, -89273.336, -10863.181, 0.15182146, 0.4399411, -79569.734, 16444.748, 0.0000013302117, 9.999821, 9.999751 
2.2455351e+3, 3.001996e+2, -127345.555, -240892.7, -55882.91, 0.21861924, -0.0683914, -104456.48, -104456.48, 0.0000584347, 9.99986, 9.998382 
2.245583e+3, 3.102045e+2, 362480.6, 106855.65, -45932.04, -0.21025938, 0.6476399, 370483.38, 370483.38, 0.00025945, 10.00273, 9.999349 
2.2547656e+3, 1.6015272e+2, -1601037.4, -1264448.6, -118243.8, 0.0007211648, 0.43886083, -1227062.3, 143483.47, 0.39765337, 9.996878, 10.002481 
2.2548234e+3, 1.7015412e+2, -1143216.6, -983872.25, 53771.766, -0.025977612, 0.29357553, -967424.44, 305096.44, 0.29298013, 9.999626, 10.002619 
2.2548808e+3, 1.8015425e+2, -881681.2, -975173.75, 57226.555, -0.09127399, 0.10886778, -854535.0, 319974.94, 0.21888196, 10.001972, 10.00046 
2.2549346e+3, 1.9015428e+2, -964571.25, -1077185.4, -1504.051, -0.2356578, 0.1487209, -964551.2, 111960.43, 0.16615056, 10.000953, 9.999181 
2.2549886e+3, 2.0015469e+2, -1026995.75, -1080412.9, 17851.295, -0.35536397, 0.27271497, -1021579.3, -43068.24, 0.12546477, 9.999712, 9.999108 
2.2550479e+3, 2.10154e+2, -813686.7, -893844.2, 85257.45, -0.093547955, 0.2649383, -759557.44, 120961.484, 0.0914258, 10.000463, 9.999357 
2.2551064e+3, 2.201531e+2, -648446.25, -793249.2, 34558.78, 0.12977424, 0.27350885, -640621.25, 141906.94, 0.062582165, 10.001053, 9.999087 
2.2551583e+3, 2.3015295e+2, -715251.0, -730565.56, -109906.67, 0.15513577, 0.29601437, -612735.2, 71795.0, 0.039919913, 9.999678, 9.999496 
2.2552088e+3, 2.4015245e+2, -937864.9, -885486.0, -91763.06, 0.111914985, 0.3734235, -816248.25, -229712.73, 0.023601582, 9.997927, 9.998577 
2.2552612e+3, 2.5015098e+2, -615004.6, -578276.6, -43561.992, -0.017563311, 0.279896, -549366.06, -60816.742, 0.012405956, 9.999081, 9.999428 
2.2553137e+3, 2.601488e+2, -481361.03, -588217.06, -108060.625, -0.1194353, 0.193236, -414241.75, -23672.24, 0.005154125, 9.9998665, 9.998325 
2.2553691e+3, 2.701466e+2, -204328.77, -348190.66, -65945.0, 0.0060582487, 0.08340871, -178674.84, 113912.98, 0.0013586987, 10.000889, 9.998786 
2.2554238e+3, 2.801453e+2, -142771.73, -214596.97, -106096.72, 0.13083278, 0.044873603, -66674.4, 127923.18, 0.00015517221, 10.000404, 9.999271 
2.2554773e+3, 2.9014632e+2, -144523.83, -109455.266, -38422.754, 0.0056733214, 0.19706418, -84754.98, 11832.095, 0.0000026982873, 9.999513, 9.99972 
2.255532e+3, 3.0014724e+2, -164103.89, -197892.69, -6330.848, -0.14859053, 0.28783345, -162956.66, -162956.66, 0.000065484004, 9.999392, 9.998885 
2.2555876e+3, 3.1014264e+2, 286112.44, 146951.6, 46760.348, -0.061810885, 0.014402073, 300364.97, 300364.97, 0.00034262822, 10.0019455, 9.999983 
2.2648215e+3, 1.7009468e+2, -1307890.6, -983416.75, -138623.23, -0.01845927, 0.41319537, -932259.1, 340854.03, 0.44342524, 9.996945, 10.004887 
2.26488e+3, 1.8009919e+2, -1736162.8, -1262847.8, -173284.84, -0.023992904, 0.33639538, -1206189.0, -31132.986, 0.3585124, 9.994939, 10.001521 
2.2649339e+3, 1.9009958e+2, -1418823.1, -1163533.8, -116688.27, -0.17626958, 0.32979554, -1118235.3, -41182.81, 0.29413474, 9.997065, 10.000418 
2.2649883e+3, 2.0009989e+2, -849036.75, -862315.56, 69121.52, -0.3652219, 0.298951, -786236.5, 192814.63, 0.24160613, 10.000477, 10.00052 
2.2650474e+3, 2.1009967e+2, -788141.94, -793371.1, 80528.34, -0.14681858, 0.24140675, -710185.75, 170863.86, 0.1940874, 10.000247, 10.000294 
2.2651067e+3, 2.2009912e+2, -821383.5, -889457.94, 5205.981, 0.1298292, 0.21526295, -820987.7, -37935.95, 0.14888066, 9.999785, 9.99905 
2.2651574e+3, 2.3009875e+2, -776106.94, -850818.06, -198231.06, 0.13842344, 0.2963797, -611742.4, 73316.84, 0.108788945, 9.99968, 9.99869 
2.2652073e+3, 2.4009782e+2, -634817.44, -730478.8, -89184.56, 0.10317524, 0.38213274, -581447.0, 5625.535, 0.07581198, 9.999873, 9.99874 
2.2652622e+3, 2.5009713e+2, -411148.28, -443972.72, 47411.047, 0.117803626, 0.3246623, -377389.13, 111688.625, 0.048806984, 10.000235, 9.99988 
2.2653157e+3, 2.600958e+2, -418244.3, -592203.1, 55213.402, 0.10896144, 0.31717306, -402199.75, -11112.03, 0.026684597, 10.000354, 9.998097 
2.2653703e+3, 2.7009243e+2, -106978.43, -337582.2, 67792.57, 0.015702834, 0.11690162, -88525.47, 204591.13, 0.010897145, 10.001634, 9.998545 
2.2654231e+3, 2.8008953e+2, -71292.73, -262779.94, -45574.746, 0.012997313, -0.043469608, -60999.098, 134142.92, 0.002788968, 10.001219, 9.998568 
2.2654781e+3, 2.9009023e+2, 80175.4, -125515.914, -26097.963, 0.04529118, 0.18571539, 83435.04, 180573.25, 0.0003034348, 10.001601, 9.998609 
2.2655332e+3, 3.000915e+2, 74088.555, -129488.2, -14620.387, -0.016487766, 0.36799175, 75133.19, 75133.19, 0.000074942734, 10.001281, 9.998448 
2.2655898e+3, 3.100843e+2, 149531.73, 61820.035, -54650.688, 0.023627209, -0.014192229, 175747.5, 175747.5, 0.00045627946, 10.000982, 9.999946 
2.2749887e+3, 2.0004654e+2, -733904.1, -725440.75, 79502.76, -0.40978277, 0.454146, -650057.1, 329522.16, 0.4526298, 10.001639, 10.002042 
2.275048e+3, 2.1004634e+2, -617239.9, -703918.9, 50803.402, -0.12069422, 0.310748, -593801.4, 287772.22, 0.38963944, 10.002317, 10.000492 
2.2751088e+3, 2.2004586e+2, -890892.75, -1016538.8, -14261.299, 0.3443249, 0.2810942, -889294.4, -105721.875, 0.32267725, 9.999736, 9.998161 
2.2751558e+3, 2.3004292e+2, -1009899.56, -1066717.1, -173333.39, -0.0052668047, 0.17708813, -862662.4, -177056.05, 0.25840095, 9.998512, 9.997694 
2.2752036e+3, 2.4004047e+2, -739754.7, -741575.8, -68817.88, -0.31573468, 0.16199102, -671841.4, -84205.984, 0.20062341, 9.999008, 9.999049 
2.2752641e+3, 2.5004342e+2, -406792.84, -300765.0, 63404.945, 0.26824856, 0.28495649, -271131.1, 218470.48, 0.14660953, 9.999648, 10.001311 
2.2753207e+3, 2.6004556e+2, -676707.25, -795907.56, 43824.617, 0.54036576, 0.56297064, -662329.2, -270754.38, 0.09444842, 9.998965, 9.997329 
2.2753714e+3, 2.7004173e+2, -239417.2, -451451.13, 103333.625, -0.047501378, 0.34979194, -197388.8, 96222.62, 0.04983968, 10.0009985, 9.998031 
2.27542e+3, 2.800379e+2, -329026.0, -541625.44, -116496.93, -0.45298165, 0.17194371, -277619.78, -81969.93, 0.019500945, 10.000165, 9.9971285 
2.2754797e+3, 2.900368e+2, -143546.22, -465635.25, -11841.779, 0.054755438, 0.37352675, -143111.44, -45444.445, 0.004786881, 10.001115, 9.996477 
2.2755371e+3, 3.0003312e+2, -159394.84, -423068.97, -92562.92, 0.22469015, 0.23981795, -130145.266, -130145.266, 0.0007184054, 10.000551, 9.99674 
2.2755884e+3, 3.100307e+2, -182117.11, -264745.4, 146406.86, -0.24739213, 0.49754068, -71306.875, -71306.875, 0.0007782504, 9.999603, 9.998283 
2.2852083e+3, 2.399941e+2, -555637.56, -500698.13, 210861.1, 0.118343964, 0.6564775, -315524.97, 272560.53, 0.45869297, 9.999233, 10.001963 
2.2852615e+3, 2.4998131e+2, -441155.63, -647448.94, -198292.98, -0.035367053, -0.36304274, -320786.4, 169423.05, 0.36361384, 10.001337, 9.998182 
2.2853123e+3, 2.599862e+2, -662650.7, -663832.56, -273336.3, -0.22319692, 0.34641904, -389904.7, 2255.7302, 0.26167566, 9.99832, 9.998617 
2.2853716e+3, 2.699849e+2, -211541.36, -260478.7, 21678.176, -0.059666485, 0.21966459, -203319.67, 90853.27, 0.1640845, 10.000348, 9.9998045 
2.2854233e+3, 2.7998286e+2, -409693.22, -566128.9, -133670.4, -0.07318974, 0.14167604, -333037.56, -136844.47, 0.0825175, 9.999443, 9.997359 
2.2854802e+3, 2.8998312e+2, 275155.06, -289324.88, 215097.06, -0.14878346, 0.4842043, 347775.84, 445971.2, 0.030766618, 10.004059, 9.996359 
2.285538e+3, 2.9997906e+2, 631803.6, 26295.516, 22433.592, 0.02053633, 0.31216824, 632633.6, 632872.7, 0.009050315, 10.005603, 9.997442 
2.2855881e+3, 3.099756e+2, -605894.0, -14413.956, 200316.23, 0.022204664, 0.33085993, 47041.707, 47041.707, 0.0039658, 9.994664, 10.002387 
2.295375e+3, 2.6993063e+2, -124955.45, 49019.277, 18181.832, 0.23574875, 0.5501442, 50899.12, 345613.94, 0.434636, 9.999731, 10.003892 
2.2954321e+3, 2.7992633e+2, -1131951.8, -962249.44, -312744.34, 0.7904283, -0.04855924, -723050.06, -526297.4, 0.25417694, 9.994815, 9.996783 
2.2954795e+3, 2.89932e+2, 171083.72, -168142.61, 418873.22, -0.6678138, 0.61838245, 453381.38, 552077.94, 0.121762, 10.00303, 9.997718 
2.2955365e+3, 2.9993084e+2, -198940.19, -314667.88, -235801.78, -0.7935993, 0.6380174, -14006.361, -13299.38, 0.053972065, 9.999762, 9.997797 
2.29559e+3, 3.0991805e+2, -207879.33, 1043146.44, -308582.03, 0.6276917, -0.6921159, 1115121.4, 1115121.4, 0.03136612, 9.993815, 10.010148 
2.3054776e+3, 2.8988215e+2, -503431.9, 88801.25, -76601.16, -1.177849, 0.75670993, 98548.63, 197740.77, 0.36094606, 9.994494, 10.004757 
2.3055637e+3, 2.998782e+2, 414807.8, 381848.06, 9671.28, 1.226241, -0.35376188, 417436.03, 418653.28, 0.21430698, 10.00242, 10.002127 
2.3055764e+3, 3.0988076e+2, -19192.783, -1221756.6, -43403.793, -0.8126459, 1.0851337, -17628.258, -17628.258, 0.16607709, 10.004583, 9.989818 
2.3517495e+3, 2.7622497e+2, -434577.56, -1139597.0, 116772.57, 0.09101666, -1.1495457, -415739.8, -182791.08, 0.4499001, 10.001368, 9.9923725 
2.3513472e+3, 2.8622943e+2, 219556.58, -773372.94, -702851.75, 0.80196214, 0.6770861, 583602.06, 718520.0, 0.35330987, 10.007326, 9.9922285 
2.3509341e+3, 2.9620245e+2, 813595.56, 366612.3, 460867.56, -0.93483573, -1.4633503, 1102302.5, 1139481.0, 0.27668402, 10.008171, 9.999595 
2.3505668e+3, 3.062032e+2, -497442.16, -80195.35, -250309.14, 0.25665388, -0.17098263, 37031.5, 37031.5, 0.22245632, 9.997148, 10.00117 
2.3656939e+3, 1.7670311e+2, -2353702.0, -1475311.5, 130826.664, 0.06488735, -0.56640935, -1456240.4, -247990.81, 0.43640995, 9.990308, 10.002207 
2.3652875e+3, 1.8668757e+2, -932729.0, -1136882.9, 51937.78, -1.056182, -1.2987647, -920275.44, 190132.64, 0.37759894, 10.002299, 9.998003 
2.3648958e+3, 1.9668907e+2, -1157038.5, -1287481.1, 137635.08, -0.36529925, -0.31705943, -1069953.4, -57545.13, 0.33353588, 9.999405, 9.997715 
2.36451e+3, 2.0668708e+2, -412552.84, -678106.06, -57256.92, 0.3895473, 0.4056635, -400733.53, 513699.66, 0.30097756, 10.004527, 9.999405 
2.3641096e+3, 2.1667117e+2, -1635158.6, -1185076.4, 288309.6, -0.20806214, -0.44549018, -1044377.25, -227788.84, 0.27814174, 9.9936075, 9.99997 
2.3637225e+3, 2.2666566e+2, -1189653.1, -962731.06, 6896.7876, 0.68209976, -0.22467005, -962521.7, -243888.63, 0.261044, 9.996245, 9.999513 
2.3633184e+3, 2.366523e+2, -1456758.8, -1049391.6, -89911.83, -0.1941059, -0.8627057, -1030429.44, -409679.5, 0.24562545, 9.993742, 9.999495 
2.3629194e+3, 2.4664143e+2, -1195531.3, -1476792.5, 382082.72, -0.8170364, -0.8385123, -929020.44, -406163.47, 0.23008405, 9.9974575, 9.994091 
2.3625423e+3, 2.566295e+2, -915272.44, -986141.8, 417611.2, 0.23897049, -0.70057476, -531595.3, -106612.4, 0.20982805, 9.99734, 9.99688 
2.362142e+3, 2.6662526e+2, 293015.38, 499414.44, -362215.53, 0.34090748, -0.64938664, 772845.0, 1099880.4, 0.17456478, 10.001607, 10.005656 
2.3617354e+3, 2.7662352e+2, -786297.2, -864607.56, -154189.1, -0.60342324, -0.3164215, -666369.4, -437304.34, 0.124768496, 9.997315, 9.99633 
2.3613377e+3, 2.866181e+2, 348292.66, -184717.83, -427633.3, -0.07444825, 0.23859273, 585667.6, 716786.6, 0.08182293, 10.004265, 9.997151 
2.3609519e+3, 2.9661515e+2, 384423.97, 227371.63, 242717.0, 0.81841534, 0.441379, 561001.5, 594144.2, 0.055215903, 10.002661, 10.000396 
2.3605472e+3, 3.0659395e+2, -308117.1, -601801.6, -226635.63, -0.56856304, -0.45982412, -184910.56, -184910.56, 0.039552502, 10.000269, 9.995881 
2.376471e+3, 1.5711972e+2, -1343091.9, -947437.44, -5121.5146, -0.76533055, 0.45486698, -947371.2, 452811.1, 0.4091622, 9.996837, 10.006195 
2.3760834e+3, 1.670976e+2, -736374.94, -1087704.9, 127153.336, 0.43191886, -1.1463941, -695184.8, 607206.1, 0.31914034, 10.00564, 9.998823 
2.3756905e+3, 1.7709881e+2, -1182110.3, -1247474.9, -40081.633, 0.42977366, -0.20898966, -1163075.4, 41305.27, 0.25440004, 9.999912, 9.999239 
2.3752925e+3, 1.8709095e+2, -1084124.0, -866904.44, -141930.56, 0.31616908, -0.31538227, -796795.5, 309661.06, 0.20803122, 9.998593, 10.002182 
2.3748937e+3, 1.970823e+2, -1017888.2, -903894.0, 8837.998, 0.27853093, -0.6382168, -903212.9, 105327.41, 0.17323056, 9.998743, 10.000981 
2.3744974e+3, 2.0707425e+2, -890624.1, -1035160.06, 213419.97, -0.13548231, -0.6065456, -737568.5, 173052.81, 0.14628343, 10.000253, 9.99855 
2.3741008e+3, 2.1706654e+2, -369561.22, -719610.1, 99929.016, -0.60895824, -0.49617785, -343043.2, 469656.56, 0.1255341, 10.003459, 9.99854 
2.3737124e+3, 2.2705771e+2, -19939.678, -707807.1, 2261.9634, -0.14006096, -0.3448733, -19932.24, 694857.75, 0.10829949, 10.00637, 9.996443 
2.3733269e+3, 2.3704657e+2, 374945.6, -353318.66, -171514.2, 0.7251451, -0.34126595, 413317.3, 1030219.2, 0.09199208, 10.007952, 9.997629 
2.3729311e+3, 2.470401e+2, 266166.2, 109095.33, -149938.44, 0.81691515, -0.295567, 356891.94, 875855.75, 0.07586676, 10.004088, 10.002184 
2.3725347e+3, 2.570347e+2, -706281.56, -607918.8, 89505.8, 0.5068096, -0.1260614, -554972.3, -133957.56, 0.059159193, 9.997757, 9.9992285 
2.3721306e+3, 2.670273e+2, -407491.16, -259267.2, -230150.8, 0.17977664, -0.11572204, -91590.06, 231502.45, 0.040411938, 9.998411, 10.000706 
2.3717299e+3, 2.7701768e+2, -508296.2, -641886.7, 91162.96, -0.19773968, -0.25645316, -462076.88, -236881.72, 0.02171785, 9.999016, 9.996939 
2.3713332e+3, 2.8700778e+2, -11478.692, -238578.06, -61631.004, 0.0055951574, -0.20377578, 4168.803, 131458.52, 0.00948878, 10.001327, 9.997861 
2.3709454e+3, 2.970001e+2, 254316.94, 249991.22, 325472.25, 0.6531216, -0.32657376, 577633.5, 606991.06, 0.004343421, 10.001455, 10.000801 
2.3705444e+3, 3.069878e+2, 317537.7, 16477.688, -52226.74, -0.3148444, -0.52007025, 326340.4, 326340.4, 0.0025752536, 10.003013, 9.998448 
2.3868652e+3, 1.4751448e+2, -1463818.0, -1474751.6, 19513.129, -0.19578063, -0.6832276, -1449020.4, 45294.266, 0.3896823, 9.99995, 9.999608 
2.3864692e+3, 1.575051e+2, -1528551.8, -1595451.5, -155503.89, -0.06549267, -0.888449, -1402940.8, -6540.727, 0.27836236, 9.999156, 9.998557 
2.3860727e+3, 1.6749656e+2, -1460132.1, -1484223.4, 33290.94, -0.11031274, -0.82579523, -1436774.6, -138290.69, 0.19862524, 9.998981, 9.998613 
2.3856756e+3, 1.7749117e+2, -1314087.4, -1394548.8, 32252.229, -0.30957758, -0.504048, -1302755.4, -102215.05, 0.1461588, 9.999351, 9.998455 
2.3852772e+3, 1.8748398e+2, -927761.2, -875458.25, -62328.88, -0.42980674, -0.44230968, -834016.9, 268592.1, 0.11113541, 10.000259, 10.001058 
2.3848799e+3, 1.9747461e+2, -769380.75, -844446.3, -151392.92, -0.3745868, -0.766205, -650937.5, 353758.94, 0.08556882, 10.00099, 10.00024 
2.3844936e+3, 2.0746551e+2, -793794.06, -1010685.2, 70833.92, 0.14313985, -0.8411318, -772710.2, 134075.39, 0.065839775, 10.001041, 9.998248 
2.3841092e+3, 2.1745636e+2, -795554.06, -1086626.1, 23328.629, 0.6709672, -0.84498066, -793696.25, 15181.746, 0.050802168, 10.000789, 9.997209 
2.383712e+3, 2.2744814e+2, -798485.7, -1130095.5, 32116.916, 0.13066368, -0.59666926, -795403.75, -84437.33, 0.038884565, 10.000575, 9.996288 
2.3833111e+3, 2.3743965e+2, -757687.4, -1021757.9, -18846.166, -0.6715014, -0.27694878, -756349.2, -143289.63, 0.028499383, 9.999994, 9.996686 
2.3829111e+3, 2.474331e+2, -155660.89, 133863.16, -234361.33, -0.6949629, -0.30603656, 264566.7, 779687.94, 0.019239577, 9.999989, 10.004002 
2.3825166e+3, 2.5742596e+2, -627483.25, -427971.03, -170778.69, -0.3391219, -0.53281885, -329947.88, 87235.305, 0.011432521, 9.997814, 10.000411 
2.3821208e+3, 2.6742005e+2, -170060.28, -220526.64, -288061.63, 0.0310024, -0.39328393, 93871.21, 413112.0, 0.005416997, 10.000546, 9.999829 
2.3817265e+3, 2.7741283e+2, -82557.95, -322492.34, -31269.506, 0.20423858, -0.3377138, -78549.71, 142764.64, 0.001679893, 10.001456, 9.997974 
2.3813276e+3, 2.873991e+2, 246643.14, -5435.883, -113070.5, -0.010819737, -0.77079886, 289928.47, 413373.03, 0.00032890253, 10.002614, 9.9988785 
2.3809353e+3, 2.9738948e+2, -130509.32, -83163.64, 134125.7, 0.19697689, -1.1033427, 29362.305, 54893.59, 0.000101582686, 9.999348, 9.999609 
2.3805436e+3, 3.0738795e+2, 10263.574, 195012.28, -65456.46, -0.006563382, -0.36452332, 215852.64, 215852.64, 0.00014345827, 9.999467, 10.001404 
2.3972613e+3, 1.3792036e+2, -1375315.8, -2109697.8, 298657.72, 0.8094488, -0.5059262, -1269193.3, 319128.13, 0.4278258, 10.005549, 9.993269 
2.3968583e+3, 1.4791246e+2, -1510773.6, -1521966.0, -173492.06, -0.1733267, -0.32396692, -1342787.5, 147620.2, 0.2998544, 9.999649, 9.999664 
2.396462e+3, 1.5790367e+2, -1481352.1, -1531248.9, -144753.86, -0.015134429, -0.39492524, -1359412.4, 33085.402, 0.19614406, 9.99926, 9.999025 
2.3960651e+3, 1.678963e+2, -1239537.4, -1175103.9, -7445.5483, -0.07469723, -0.38660926, -1174254.6, 120316.445, 0.12585048, 9.999494, 10.000685 
2.3956688e+3, 1.7788938e+2, -1217112.9, -1277812.3, 24371.379, -0.2088555, -0.37600023, -1208538.6, -11899.256, 0.083471425, 9.999656, 9.999141 
2.3952731e+3, 1.8788062e+2, -1070618.9, -1326746.6, -60469.566, -0.12129886, -0.28903764, -1057060.3, 41669.977, 0.057587944, 10.000832, 9.997509 
2.3948781e+3, 1.9787094e+2, -804168.25, -1147430.8, -117768.67, 0.011719201, -0.2721857, -767648.7, 233181.77, 0.03970386, 10.001919, 9.997609 
2.3944868e+3, 2.0786221e+2, -650478.25, -888321.5, 30932.246, 0.042831734, -0.24028982, -646521.25, 256394.94, 0.026570952, 10.001797, 9.998712 
2.3940969e+3, 2.1785352e+2, -638851.9, -866310.6, 21043.184, 0.04980826, -0.22320628, -636921.5, 168078.56, 0.017417854, 10.001272, 9.998478 
2.3937033e+3, 2.2784452e+2, -547085.6, -680623.4, 9164.774, -0.03790777, -0.28292817, -546459.56, 160627.6, 0.011141793, 10.000882, 9.99924 
2.3933083e+3, 2.3783447e+2, -523268.13, -716413.4, 34118.965, -0.20818494, -0.37835956, -517418.22, 91767.27, 0.0065593217, 10.000782, 9.99837 
2.3929082e+3, 2.4782637e+2, -260902.28, -267038.13, -233954.73, -0.26288238, -0.4198465, -29995.354, 481271.3, 0.0032030866, 10.000782, 10.000756 
2.3925097e+3, 2.5781873e+2, -447570.47, -498520.63, -175659.98, -0.20650895, -0.4151505, -295547.9, 117794.836, 0.0011282732, 9.999749, 9.998944 
2.3921147e+3, 2.6781192e+2, 220.43977, -50693.707, -171334.02, 0.043560695, -0.33850142, 147978.28, 463383.56, 0.00023273825, 10.001385, 10.000549 
2.3917219e+3, 2.7780434e+2, 220142.19, 63933.316, -14412.091, 0.21055727, -0.4263673, 221460.73, 438935.28, 0.000018051116, 10.002506, 10.000073 
2.3913218e+3, 2.877931e+2, 142336.3, -43197.355, -169450.64, -0.066681, -0.70813304, 242751.25, 362334.16, 0.000004039042, 10.00184, 9.9989605 
2.3909263e+3, 2.9778716e+2, -105549.11, -213994.61, -9491.15, 0.06202525, -0.55566144, -104724.71, -83084.75, 0.00001362104, 10.000033, 9.998384 
2.3905326e+3, 3.0777812e+2, 84874.875, 216925.77, -312929.88, -0.22727083, -0.37945944, 470719.75, 470719.75, 0.00005414364, 9.999975, 10.001364 
2.4076328e+3, 1.2831213e+2, -1502091.4, -1532647.5, 120912.086, -0.50451237, -0.8456552, -1395496.0, 286969.5, 0.49043512, 10.001722, 10.000431 
2.4072407e+3, 1.3830774e+2, -1865759.1, -1670181.1, -43710.44, -0.63866025, -0.67514354, -1660856.6, -76335.8, 0.36336103, 9.997417, 10.000153 
2.4068488e+3, 1.4830299e+2, -1668743.9, -1418555.9, -153947.42, -0.22406654, -0.52581424, -1345285.8, 141289.53, 0.24041095, 9.997716, 10.001239 
2.4064548e+3, 1.5829782e+2, -1484582.6, -1394002.1, -91414.03, 0.14779985, -0.3995781, -1337274.1, 51358.145, 0.14389461, 9.998731, 10.000146 
2.4060579e+3, 1.6829139e+2, -1220250.0, -1193230.5, -9345.26, -0.004016234, -0.30569077, -1190313.3, 100385.06, 0.08188297, 9.999863, 10.000296 
2.4056612e+3, 1.7828377e+2, -1132639.8, -1306141.9, -130384.695, -0.20307028, -0.32226798, -1062783.3, 129991.79, 0.047678713, 10.000589, 9.998525 
2.4052669e+3, 1.8827397e+2, -1154648.9, -1476321.5, -123408.086, -0.057956193, -0.27674785, -1112759.1, -17881.977, 0.028905774, 10.000754, 9.996509 
2.4048732e+3, 1.9826405e+2, -1113003.5, -1408791.0, -36291.18, 0.15093595, -0.17293403, -1108615.9, -111634.125, 0.017015342, 10.00027, 9.996603 
2.4044797e+3, 2.0825595e+2, -798438.8, -908827.3, 136346.44, -0.043016598, -0.06299455, -706538.6, 192523.31, 0.00915297, 10.000576, 9.999146 
2.4040872e+3, 2.182479e+2, -729824.06, -859142.75, 73279.96, -0.24992509, -0.011673254, -696755.3, 104383.695, 0.0045936005, 10.000482, 9.998904 
2.4036953e+3, 2.282388e+2, -631542.5, -559654.94, -20654.293, -0.10701425, -0.1987191, -554143.25, 149080.52, 0.0022051786, 9.999635, 10.000658 
2.4033037e+3, 2.3822805e+2, -895959.8, -845306.8, -96906.12, 0.1040429, -0.5152552, -770472.3, -165148.27, 0.0009056362, 9.99804, 9.998816 
2.4029037e+3, 2.4822047e+2, -531796.75, -566696.75, -263403.6, 0.058693096, -0.44411093, -285265.78, 222137.56, 0.00023937336, 9.999749, 9.999141 
2.402504e+3, 2.582134e+2, -477192.0, -658959.1, -121065.49, -0.030293185, -0.25608563, -416693.0, -7213.074, 0.000025130046, 10.000193, 9.997651 
2.4021082e+3, 2.6820534e+2, -19173.8, -34606.125, -79827.11, 0.017609645, -0.25565848, 53309.207, 364862.34, 0.00000030344088, 10.001214, 10.000718 
2.4017148e+3, 2.781973e+2, -130080.14, -34084.332, -106614.875, 0.07061898, -0.46915737, 34838.805, 248461.53, 0.000000006555133, 9.999808, 10.000728 
2.4013159e+3, 2.8818962e+2, -8161.929, -59679.113, -218678.23, -0.057397768, -0.48920375, 186269.56, 301968.53, 0.00000087941476, 10.000635, 9.999404 
2.4009182e+3, 2.9818508e+2, -445485.03, -639830.5, -6151.132, -0.057860706, -0.10500182, -445290.53, -427543.2, 0.0000072209577, 9.998903, 9.995994 
2.400523e+3, 3.0816957e+2, -22911.941, -7569.3345, -59416.8, -0.56298333, -0.4172038, 44669.336, 44669.336, 0.00003484927, 10.000091, 9.999673 
2.4176389e+3, 1.2870519e+2, -1675023.5, -1662344.5, -32714.861, 0.6964954, -0.8524061, -1635360.6, 43255.63, 0.44509998, 9.999732, 9.999796 
2.4172302e+3, 1.386962e+2, -1855604.5, -1689714.6, -67227.414, -0.7497446, -1.0378225, -1665891.8, -85179.35, 0.31930807, 9.997608, 9.999961 
2.4168377e+3, 1.486933e+2, -1463993.9, -1170193.9, -106590.28, -0.39706343, -0.7987212, -1135597.0, 347148.44, 0.20041417, 9.998281, 10.002974 
2.4164476e+3, 1.5869062e+2, -1395205.6, -1301769.3, -57590.047, 0.24430433, -0.576169, -1274330.8, 110445.32, 0.110025235, 9.999144, 10.000598 
2.4160506e+3, 1.6868335e+2, -1285979.5, -1429062.0, -5319.5728, -0.00047992237, -0.45999277, -1285782.0, 1071.3613, 0.054970514, 10.000285, 9.998393 
2.4156523e+3, 1.7867449e+2, -1150407.9, -1417639.8, -105856.48, -0.43783793, -0.42332557, -1113557.4, 75388.86, 0.027314784, 10.000883, 9.997604 
2.4152574e+3, 1.8866377e+2, -1045617.5, -1312606.4, -136886.42, -0.33695087, -0.5054622, -987908.75, 103143.43, 0.013986388, 10.001013, 9.997519 
2.4148636e+3, 1.9865273e+2, -992498.56, -1243886.4, -11301.948, -0.14913319, -0.6044263, -991991.44, 1169.3934, 0.006556314, 10.0006075, 9.997575 
2.4144727e+3, 2.0864488e+2, -721489.94, -854290.7, 147057.03, -0.10346765, -0.51560026, -626537.3, 268701.03, 0.002469395, 10.001016, 9.999323 
2.4140823e+3, 2.1863751e+2, -588861.44, -783655.56, 83194.49, -0.13336685, -0.3964357, -558166.7, 239144.22, 0.00078321603, 10.001364, 9.99901 
2.4136877e+3, 2.2862954e+2, -618587.5, -617323.44, -83543.7, -0.096604, -0.4325533, -534409.4, 164978.94, 0.00023610769, 9.999959, 10.000112 
2.413293e+3, 2.386208e+2, -837245.25, -771311.1, -107753.14, -0.055492707, -0.5149434, -691594.75, -90121.53, 0.000047296035, 9.998206, 9.999241 
2.412896e+3, 2.4861418e+2, -496918.5, -440586.22, -177377.4, 0.07834187, -0.41587952, -289152.6, 214389.19, 0.0000020598873, 9.999499, 10.000145 
2.4124995e+3, 2.5860763e+2, -301129.1, -465507.28, -40148.88, 0.18371616, -0.2740185, -291847.0, 113763.87, 0.0, 10.000907, 9.998621 
2.412102e+3, 2.6859885e+2, -228484.66, -351589.56, -64613.25, 0.053321, -0.24368979, -200798.23, 106898.46, 0.0, 10.000735, 9.998759 
2.4117048e+3, 2.7859014e+2, -185012.67, -130948.86, -155172.4, -0.15556513, -0.3180319, -471.41046, 209308.36, 0.0, 9.999641, 10.000166 
2.4113083e+3, 2.8858292e+2, 43670.21, 115558.06, -262203.8, -0.06338252, -0.36766556, 344270.16, 456119.78, 0.0000001537889, 10.000227, 10.000878 
2.4109143e+3, 2.9857793e+2, 12763.271, -334702.3, -6617.08, 0.16638643, -0.11845164, 12889.24, 26787.602, 0.000003139397, 10.001529, 9.996858 
2.4105208e+3, 3.0856025e+2, 306135.16, -49876.54, 16563.723, -0.23080792, -0.5784683, 306904.13, 306904.13, 0.000017282315, 10.00296, 9.998092 
2.4276298e+3, 1.2910043e+2, -1592594.6, -1590143.9, 26558.26, 0.56599045, -0.845848, -1564782.8, 109976.03, 0.4141129, 10.000234, 10.000347 
2.4272233e+3, 1.3909577e+2, -1739847.6, -1710585.3, -1473.9678, -0.47326854, -0.5973242, -1710511.1, -133702.77, 0.28877336, 9.998635, 9.999349 
2.4268301e+3, 1.4908889e+2, -1449250.8, -1343004.0, -61109.227, -0.26245603, -0.5896032, -1315155.6, 163723.2, 0.17287979, 9.999267, 10.00101 
2.4264392e+3, 1.5908186e+2, -1307379.4, -1380248.1, -173777.6, 0.19626063, -0.6209923, -1166257.8, 214692.72, 0.08747846, 10.000241, 9.999577 
2.4260432e+3, 1.6907512e+2, -1219542.5, -1354799.6, -76613.53, -0.024311537, -0.4720995, -1184978.8, 98042.52, 0.038149297, 10.000505, 9.99884 
2.425646e+3, 1.7906782e+2, -1197896.3, -1375672.6, -72731.484, -0.3525397, -0.3194752, -1171932.5, 13164.849, 0.01570925, 10.000241, 9.998206 
2.4252506e+3, 1.8905693e+2, -1056345.6, -1192873.3, -71353.75, -0.3081032, -0.5250847, -1025860.75, 61338.754, 0.0064830934, 10.000373, 9.998641 
2.4248563e+3, 1.9904532e+2, -1057583.6, -1207955.4, 51037.9, -0.13207677, -0.77572215, -1041897.2, -52589.86, 0.0021827125, 9.999899, 9.99816 
2.4244656e+3, 2.0903729e+2, -1013922.8, -979739.1, 214200.61, -0.06731933, -0.73451287, -781949.5, 109435.8, 0.00044835047, 9.9989805, 9.999426 
2.4240755e+3, 2.1902992e+2, -1157999.5, -1063818.8, 126421.51, -0.01741274, -0.62862366, -976002.2, -182544.16, 0.000068581576, 9.997554, 9.998917 
2.4236797e+3, 2.2902288e+2, -830096.06, -716762.7, -9750.683, -0.08017853, -0.558152, -715929.94, -20401.547, 0.0000096515805, 9.998633, 10.000023 
2.4232832e+3, 2.3901543e+2, -746759.75, -766416.06, -4712.0737, -0.09292801, -0.5002281, -745688.5, -148085.4, 0.00000040342232, 9.999083, 9.998848 
2.4228884e+3, 2.490083e+2, -316848.28, -363787.63, -83112.35, 0.10689082, -0.431442, -253955.4, 245720.95, 0.0, 10.000833, 10.00001 
2.4224944e+3, 2.5900105e+2, -297553.22, -509335.3, -109855.484, 0.31539288, -0.37200242, -250862.67, 150888.42, 0.0, 10.001173, 9.998216 
2.4220954e+3, 2.6899225e+2, -185328.6, -420182.28, -74775.1, 0.074510105, -0.30569646, -163542.02, 140297.97, 0.0, 10.001466, 9.997906 
2.4216963e+3, 2.789833e+2, -293862.38, -400737.5, -66834.46, -0.23709697, -0.27545533, -261728.81, -55798.742, 0.0, 9.999873, 9.998217 
2.4213006e+3, 2.8897524e+2, 125544.664, 130738.72, -176652.61, -0.116981596, -0.30381876, 304813.38, 412820.9, 0.0000000009564638, 10.001014, 10.000544 
2.4209099e+3, 2.9896837e+2, -267190.56, -470672.2, 26619.824, 0.28353012, -0.27058184, -263765.75, -253692.94, 0.0000004799063, 9.999729, 9.996786 
2.4205169e+3, 3.0895337e+2, 57013.816, -294906.97, -82965.445, -0.25612262, -0.5707655, 75592.17, 75592.17, 0.0000055147566, 10.001868, 9.996918 
2.4376142e+3, 1.2950112e+2, -1615207.5, -1601984.6, -51351.863, -0.32543364, -0.40182906, -1556820.4, 114032.03, 0.39271495, 9.999995, 10.00027 
2.4372183e+3, 1.3949868e+2, -1809534.1, -1881266.5, -25849.584, -0.13732013, 0.11867617, -1801189.6, -228312.52, 0.26710206, 9.998823, 9.998062 
2.4368237e+3, 1.4948533e+2, -1624775.3, -1791677.6, -38258.793, -0.094889075, -0.23794918, -1616423.3, -141412.36, 0.15331793, 9.999717, 9.997524 
2.4364293e+3, 1.5947147e+2, -1373363.4, -1533448.8, -106879.37, -0.09653386, -0.64915025, -1319876.9, 57273.05, 0.07196278, 10.000294, 9.998447 
2.4360356e+3, 1.6946712e+2, -1070370.5, -1071051.4, -59618.207, -0.09276132, -0.36037284, -1011091.75, 268102.3, 0.027363949, 10.000622, 10.000773 
2.4356416e+3, 1.7946342e+2, -1072838.0, -1121795.0, -61697.727, -0.13076696, -0.03289913, -1030940.25, 150290.23, 0.009079448, 10.000303, 9.9999 
2.4352461e+3, 1.894533e+2, -953095.1, -1001498.0, -76529.664, -0.03730154, -0.29058808, -897031.4, 186288.48, 0.002868925, 10.000491, 9.999891 
2.4348511e+3, 1.9944203e+2, -932102.6, -1032468.56, 46341.266, 0.054315016, -0.6182339, -913978.6, 71441.305, 0.00059867656, 10.000246, 9.999201 
2.434458e+3, 2.094338e+2, -977556.06, -943140.4, 165803.45, 0.012402456, -0.6391141, -793654.2, 93843.44, 0.000045539302, 9.999101, 9.999638 
2.4340655e+3, 2.1942613e+2, -1078698.8, -958816.06, 134804.72, -0.06456659, -0.5846006, -871226.8, -81655.25, 0.0000022398012, 9.997777, 9.999519 
2.4336712e+3, 2.2941908e+2, -760323.5, -622024.6, 68575.914, -0.047560662, -0.56287295, -593786.7, 97854.42, 0.000000052409952, 9.998837, 10.000579 
2.4332769e+3, 2.3941162e+2, -598687.44, -722405.4, 85870.586, -0.0129063055, -0.53610754, -554715.0, 39000.734, 0.0, 10.000186, 9.998616 
2.4328819e+3, 2.4940157e+2, -429601.66, -708199.9, -29855.053, 0.08144913, -0.5554576, -426438.25, 69381.945, 0.0, 10.0012665, 9.997461 
2.432487e+3, 2.5939158e+2, -163686.23, -417072.7, -108106.945, 0.1402654, -0.56511647, -123831.305, 274092.44, 0.0, 10.001898, 9.998502 
2.4320899e+3, 2.693844e+2, 78807.9, -24641.592, -82454.79, 0.067102246, -0.51978236, 124418.87, 424410.22, 0.0, 10.00201, 10.000413 
2.4316926e+3, 2.7937737e+2, 61224.38, -187909.84, 9067.406, -0.015867505, -0.46519879, 61553.957, 263611.34, 0.0, 10.002014, 9.998664 
2.4312952e+3, 2.8936756e+2, 202140.95, -187438.63, -72230.15, -0.13445842, -0.44186023, 215101.63, 319260.88, 0.0, 10.002947, 9.99748 
2.4309014e+3, 2.9935813e+2, 278911.16, -160640.1, 74305.68, -0.1110586, -0.41717362, 291132.63, 297390.84, 0.000000008678429, 10.003167, 9.997273 
2.4305144e+3, 3.093511e+2, 361736.88, 46973.27, -189808.11, -0.020288227, -0.06888448, 450923.84, 450923.84, 0.0000009202062, 10.002813, 9.998958 
2.4480093e+3, 1.1990444e+2, -1399378.5, -1321497.4, 127472.14, 0.55540526, -0.084148325, -1227150.6, 537773.56, 0.4945417, 10.00227, 10.004469 
2.4476072e+3, 1.2989698e+2, -1752906.6, -1685988.1, -136863.95, -0.17801549, -0.24099219, -1578552.8, 88429.2, 0.3775347, 9.999117, 10.000078 
2.4472119e+3, 1.3989119e+2, -1613715.4, -1733217.5, -76716.05, 0.027258037, -0.047259137, -1576226.8, -7189.6543, 0.25111946, 9.999931, 9.99855 
2.4468172e+3, 1.498803e+2, -1465895.3, -1696389.8, 67469.695, -0.00038705792, -0.19477458, -1447598.1, 23548.6, 0.13882844, 10.00073, 9.997706 
2.4464229e+3, 1.5986842e+2, -1307138.1, -1503815.9, 114256.56, -0.023858383, -0.3913078, -1254728.6, 118537.99, 0.060861234, 10.0008, 9.998397 
2.4460286e+3, 1.6986224e+2, -1199608.0, -1160288.6, 66146.45, -0.06125846, -0.24802923, -1110942.1, 164385.98, 0.02025213, 9.999928, 10.000421 
2.445634e+3, 1.798568e+2, -1287406.0, -1214731.5, -45215.195, -0.057244014, -0.057393968, -1193061.8, -15681.319, 0.0052852775, 9.998806, 9.999974 
2.445239e+3, 1.8984815e+2, -1065955.6, -991787.3, -79170.54, 0.039475124, -0.22064528, -941446.0, 138009.56, 0.0012089658, 9.999455, 10.000466 
2.4448445e+3, 1.998387e+2, -959457.9, -1004803.0, -16480.686, 0.16053633, -0.42180148, -954100.9, 27436.828, 0.00012403581, 9.999929, 9.999535 
2.4444497e+3, 2.0983025e+2, -871831.56, -871020.25, 58703.383, 0.028461218, -0.50652254, -812721.1, 70894.83, 0.000001917801, 9.999785, 9.999757 
2.444056e+3, 2.1982197e+2, -949776.3, -959611.2, 42460.64, -0.086801626, -0.5288713, -911949.3, -126254.664, 0.000000018702426, 9.998957, 9.998932 
2.4436626e+3, 2.2981453e+2, -625624.5, -625734.1, -39886.29, -0.052833766, -0.5084102, -585793.0, 101976.09, 0.0, 10.000041, 9.999963 
2.4432698e+3, 2.3980659e+2, -626575.75, -834535.75, -89678.11, 0.028772833, -0.4997614, -593245.8, -3396.906, 0.0, 10.000457, 9.997713 
2.442875e+3, 2.4979569e+2, -426098.94, -777484.4, -49453.074, 0.024480574, -0.56303436, -419271.7, 72688.71, 0.0, 10.001683, 9.996744 
2.44248e+3, 2.5978476e+2, -203959.63, -465910.34, -6286.6646, 0.0032026751, -0.60864824, -203808.83, 190262.39, 0.0, 10.0018215, 9.998197 
2.4420838e+3, 2.6977843e+2, 202049.38, 179338.89, -81269.48, 0.019583266, -0.5643788, 272753.06, 568880.3, 0.0, 10.002301, 10.001656 
2.4416882e+3, 2.7977216e+2, -57593.902, -292089.4, -78633.24, 0.09299242, -0.54211676, -33667.215, 164515.72, 0.0, 10.001462, 9.998232 
2.4412903e+3, 2.8976092e+2, 21359.02, -460342.75, -5917.5127, -0.15127861, -0.5686012, 21431.703, 121733.92, 0.0, 10.002569, 9.995765 
2.4408934e+3, 2.997504e+2, -161811.47, -432840.13, 229216.81, -0.48874986, -0.4975491, -31046.836, -28629.559, 0.0, 10.000481, 9.996716 
2.4405093e+3, 3.0974647e+2, 71632.14, 199527.36, 186102.3, -0.09411974, -0.05525215, 332362.28, 332362.28, 0.00000009984614, 9.99994, 10.001229 
2.4579935e+3, 1.2030177e+2, -1527502.9, -1373565.3, -193369.52, -0.5481385, 0.4010971, -1242409.3, 518624.8, 0.48539782, 10.000482, 10.004525 
2.4576038e+3, 1.3028893e+2, -1679142.8, -1599729.4, -96257.234, 0.29842576, -0.32560524, -1535310.9, 127834.48, 0.36593348, 9.999387, 10.000645 
2.4572039e+3, 1.4027992e+2, -1508941.8, -1550555.9, -19639.242, -0.06257499, -0.5174816, -1501137.0, 64092.016, 0.23856215, 10.000278, 9.999643 
2.4568108e+3, 1.502755e+2, -1293538.1, -1377464.8, 75291.18, 0.010243908, -0.20617124, -1249305.9, 217969.05, 0.1275105, 10.001052, 9.999807 
2.4564183e+3, 1.6026986e+2, -1267877.0, -1462589.4, 91393.12, 0.1347935, 0.055003416, -1231700.6, 137632.53, 0.052560914, 10.001019, 9.998548 
2.4560213e+3, 1.7025857e+2, -1286792.6, -1420056.9, 20323.62, -0.050686993, -0.1696948, -1283762.0, -12317.049, 0.01541553, 10.000261, 9.998458 
2.4556237e+3, 1.8024753e+2, -1300960.8, -1311564.5, -44018.227, -0.25612333, -0.36682582, -1261926.3, -88373.17, 0.0031067657, 9.999103, 9.999163 
2.4552295e+3, 1.902413e+2, -1021043.9, -948872.0, -39580.13, -0.11249456, -0.27835995, -931396.94, 144211.89, 0.00048131414, 9.999667, 10.000656 
2.4548359e+3, 2.0023483e+2, -909380.5, -957014.75, 9241.653, 0.026175516, -0.19605248, -907650.3, 70015.76, 0.000015932997, 10.000161, 9.99973 
2.4544412e+3, 2.1022569e+2, -839374.44, -858484.6, 35895.895, -0.0824396, -0.34720743, -811783.7, 67967.875, 0.0000000054715246, 10.000016, 9.999732 
2.454047e+3, 2.2021627e+2, -874905.06, -1000394.6, 42896.582, -0.21389669, -0.45175037, -861643.1, -79801.61, 0.0, 9.999755, 9.99828 
2.4536543e+3, 2.3020789e+2, -702360.3, -899724.7, -32150.014, -0.1719974, -0.34857446, -697255.25, -13324.728, 0.0, 10.000466, 9.997918 
2.4532622e+3, 2.4019958e+2, -451733.66, -637207.0, -99570.43, -0.12009875, -0.2379684, -408402.84, 177614.97, 0.0, 10.001091, 9.99878 
2.4528684e+3, 2.501916e+2, -124558.586, -257220.69, -19802.2, -0.098083735, -0.28021988, -121665.83, 366426.38, 0.0, 10.002075, 10.00017 
2.4524741e+3, 2.601835e+2, 23090.496, -243546.84, 28787.926, -0.11573961, -0.31104466, 26163.22, 416330.72, 0.0, 10.002793, 9.999283 
2.4520774e+3, 2.7017552e+2, 79689.24, -157693.8, -110127.0, -0.10997587, -0.27358058, 122910.14, 415155.2, 0.0, 10.002558, 9.999268 
2.4516813e+3, 2.801675e+2, 147759.61, -96798.17, -134664.47, -0.081723504, -0.2594409, 207378.08, 401701.16, 0.0, 10.002353, 9.999165 
2.451285e+3, 2.901575e+2, 315974.06, 48304.1, 1212.3793, -0.20626596, -0.42580605, 315979.56, 412398.97, 0.0, 10.002894, 9.999148 
2.45089e+3, 3.0014792e+2, 338231.97, -28551.02, 246214.16, -0.37766036, -0.5191102, 461848.38, 461848.38, 0.0, 10.003002, 9.99832 
2.4505012e+3, 3.1014282e+2, 359566.2, 332313.78, 241624.1, -0.2916395, -0.1022465, 587948.0, 587948.0, 0.000000000000427524, 10.001687, 10.001371 
2.4679844e+3, 1.20691374e+2, -1837936.9, -1533904.0, -318140.22, -0.54781765, -0.053236175, -1333326.9, 423879.84, 0.47722325, 9.997687, 10.004224 
2.4675956e+3, 1.3068141e+2, -1656365.4, -1586331.5, -14442.117, 0.33854854, -0.46491405, -1583470.1, 75825.88, 0.3557266, 9.999279, 10.000777 
2.4671975e+3, 1.4067516e+2, -1395278.8, -1465800.8, 10136.418, 0.0033826348, -0.3823211, -1393850.8, 167505.5, 0.22774403, 10.001043, 10.000046 
2.466805e+3, 1.5067022e+2, -1178761.1, -1259109.0, 30908.02, 0.04276253, -0.18194069, -1168247.3, 295159.34, 0.11809006, 10.001661, 10.000408 
2.4664126e+3, 1.6066448e+2, -1146544.0, -1406675.9, -43091.05, 0.17913654, 0.023503775, -1139591.8, 225873.72, 0.04605504, 10.001884, 9.998516 
2.4660146e+3, 1.7065337e+2, -1152601.1, -1431420.5, -82776.64, -0.028569682, -0.15295951, -1129878.0, 137699.92, 0.012013259, 10.001502, 9.997795 
2.4656165e+3, 1.8064208e+2, -1083779.5, -1259039.3, -65579.15, -0.20894097, -0.3219832, -1061957.9, 107732.586, 0.0018483637, 10.000798, 9.998726 
2.4652226e+3, 1.9063517e+2, -900867.75, -940008.2, -65821.93, -0.05571895, -0.27128035, -851768.3, 219985.92, 0.00018026956, 10.000667, 10.000259 
2.4648294e+3, 2.0062873e+2, -938451.5, -999118.9, -45662.83, 0.105862826, -0.15833455, -913965.25, 59847.98, 0.0000007906511, 10.000126, 9.999469 
2.4644336e+3, 2.1062043e+2, -793348.8, -834935.7, -11088.538, -0.090794004, -0.23301819, -790576.94, 85314.69, 0.0, 10.000345, 9.999754 
2.464039e+3, 2.2061135e+2, -894609.94, -1083454.0, 32804.81, -0.2425409, -0.29253456, -889073.56, -111093.89, 0.0, 10.000034, 9.997562 
2.4636473e+3, 2.3060176e+2, -749128.5, -1012872.8, 65756.75, -0.17855498, -0.23372196, -733643.2, -53562.133, 0.0, 10.000692, 9.9969635 
2.4632557e+3, 2.4059282e+2, -538679.3, -666348.3, 41732.652, -0.09589127, -0.11410247, -526248.1, 55926.883, 0.0, 10.000522, 9.998841 
2.4628611e+3, 2.5058666e+2, -189912.42, -115414.54, -15291.874, -0.20312682, -0.098501615, -112397.8, 371830.38, 0.0, 10.000898, 10.001705 
2.4624665e+3, 2.605801e+2, -425510.38, -522348.47, -132742.78, -0.2712027, -0.093898, -332631.7, 53653.89, 0.0, 10.000034, 9.998694 
2.4620706e+3, 2.705703e+2, -498305.63, -630662.75, -200291.97, -0.17645429, -0.12308669, -353542.3, -65158.05, 0.0, 9.999478, 9.997459 
2.4616745e+3, 2.8056115e+2, -442068.78, -353572.66, -111015.62, -0.10443638, -0.101372905, -278311.9, -87835.68, 0.0, 9.998275, 9.9993515 
2.4612781e+3, 2.905533e+2, 75377.74, 224450.58, -43048.54, -0.34603688, -0.28648275, 235988.86, 328532.34, 0.0, 10.00005, 10.001709 
2.460886e+3, 3.0054358e+2, -352717.88, -504011.2, 53721.22, -0.2742083, -0.5302989, -335583.13, -335583.13, 0.0, 9.999046, 9.996935 
2.4604942e+3, 3.1053612e+2, -323218.53, -144632.52, 48110.707, -0.42844558, -0.21100743, -132496.33, -132496.33, 0.0, 9.997996, 9.999729 
2.4779758e+3, 1.2108054e+2, -1717173.3, -1507931.8, -285865.88, -0.45075697, -0.59313977, -1308143.6, 445236.78, 0.4678463, 9.999043, 10.003579 
2.477586e+3, 1.3107519e+2, -1574497.9, -1562987.4, 62089.33, 0.14901818, -0.49828857, -1506387.1, 149044.73, 0.34520847, 10.000341, 10.000424 
2.4771921e+3, 1.4107254e+2, -1431317.8, -1511875.6, 62757.863, 0.05422821, -0.016770676, -1397024.9, 160436.52, 0.21743059, 10.000902, 9.999678 
2.4767989e+3, 1.5106364e+2, -1198340.3, -1278667.9, 67120.72, 0.0063625677, -0.1938661, -1160284.4, 299266.1, 0.109704144, 10.001593, 10.000247 
2.4764058e+3, 1.6105469e+2, -1157504.1, -1398448.5, -28759.059, 0.015995242, -0.2957503, -1154119.0, 207521.55, 0.040704507, 10.001769, 9.998612 
2.4760085e+3, 1.7104717e+2, -1101237.0, -1369508.9, -94864.45, -0.042099968, -0.13705184, -1071081.4, 192640.31, 0.00953522, 10.001691, 9.998137 
2.4756113e+3, 1.8103896e+2, -1054920.9, -1252843.3, -71855.98, -0.09174511, -0.012605465, -1031584.94, 134222.1, 0.0011160366, 10.001035, 9.998652 
2.4752177e+3, 1.9102886e+2, -929885.06, -1032522.1, -71282.19, 0.13876061, -0.21851312, -893370.0, 174530.42, 0.00006263998, 10.00081, 9.9995575 
2.474824e+3, 2.0101984e+2, -889052.4, -949442.2, -38955.816, 0.2691463, -0.3129453, -869959.44, 100024.38, 0.0000000031066179, 10.000358, 9.999692 
2.4744275e+3, 2.110144e+2, -708234.44, -747259.44, 3579.8523, -0.022860024, -0.133407, -707908.8, 164128.23, 0.0, 10.000696, 10.000217 
2.474032e+3, 2.2100759e+2, -718887.6, -901001.6, 56877.78, -0.26907805, -0.007615576, -702583.25, 71520.71, 0.0, 10.000772, 9.998471 
2.4736421e+3, 2.3099582e+2, -628783.0, -861897.5, 101585.22, -0.053990938, -0.24269696, -590727.3, 85491.664, 0.0, 10.001068, 9.99785 
2.473251e+3, 2.4098477e+2, -446794.0, -668042.9, 68155.9, 0.066210896, -0.3719321, -427483.88, 150843.55, 0.0, 10.00128, 9.998479 
2.4728532e+3, 2.5097826e+2, -333055.84, -422592.38, -35707.72, -0.32048684, -0.20812148, -320559.47, 159831.25, 0.0, 10.00089, 9.999624 
2.4724562e+3, 2.609712e+2, -402987.8, -524215.8, -210753.05, -0.5794422, -0.092489004, -244305.44, 138153.52, 0.0, 10.000156, 9.998631 
2.4720626e+3, 2.7096003e+2, -523182.2, -558228.7, -267781.28, -0.11504833, -0.31616387, -272351.4, 12214.794, 0.0, 9.998865, 9.998285 
2.4716675e+3, 2.809504e+2, -438483.6, -311153.25, -96625.484, 0.13465868, -0.3967152, -259104.39, -72446.14, 0.0, 9.998045, 9.999755 
2.4712686e+3, 2.9094487e+2, -81468.4, 30681.232, -59061.58, -0.50492334, -0.27808914, 56047.53, 144756.03, 0.0, 9.999328, 10.000805 
2.4708776e+3, 3.009363e+2, -202553.77, -546365.25, -39163.055, -0.39633334, -0.29838032, -198149.19, -198149.19, 0.0, 10.000377, 9.996057 
2.4704905e+3, 3.109244e+2, -65250.227, -183465.67, -104319.36, -0.0034162502, -0.251731, -4456.938, -4456.938, 0.0, 10.000116, 9.998576 
2.4879701e+3, 1.214777e+2, -1459260.8, -1511566.5, -77934.195, -0.36594734, -0.6455078, -1403208.3, 346272.75, 0.45571515, 10.002461, 10.001524 
2.4875788e+3, 1.314718e+2, -1351684.1, -1517076.0, 92767.17, -0.006939207, -0.49495265, -1310104.6, 341434.25, 0.33319858, 10.002905, 9.999671 
2.487185e+3, 1.4146708e+2, -1385186.5, -1532378.8, 121550.18, 0.0011622969, -0.14528064, -1316688.1, 236899.88, 0.20679392, 10.001484, 9.9992895 
2.4867925e+3, 1.514576e+2, -1284345.0, -1392642.5, 115078.99, -0.022918886, -0.31160232, -1211311.8, 244371.92, 0.10179194, 10.001207, 9.999604 
2.4863994e+3, 1.6144814e+2, -1293820.8, -1504506.4, 6712.2515, 0.037345953, -0.39993817, -1293607.1, 64173.598, 0.036105353, 10.000945, 9.998288 
2.4860029e+3, 1.7144145e+2, -1052422.0, -1363895.3, -69112.57, -0.01433623, -0.13155189, -1037775.44, 222081.63, 0.0076701324, 10.002124, 9.997968 
2.4856062e+3, 1.8143404e+2, -815913.3, -1151905.6, -75330.74, -0.018450374, 0.09264213, -799796.9, 362140.2, 0.000687035, 10.002771, 9.998483 
2.4852112e+3, 1.9142304e+2, -776611.1, -973524.9, -66421.34, 0.12449932, -0.20464948, -756301.2, 307736.8, 0.000019881356, 10.001982, 9.999349 
2.4848166e+3, 2.01413e+2, -840035.56, -933123.75, 17111.754, 0.24353604, -0.38018888, -836989.7, 129140.93, 0.0, 10.00076, 9.999584 
2.4844207e+3, 2.1140845e+2, -752768.7, -744970.9, 49049.05, 0.022072222, -0.12826125, -699666.06, 168510.86, 0.0, 10.000359, 10.000338 
2.4840261e+3, 2.2140257e+2, -859437.94, -964870.94, 94504.53, -0.13526878, 0.081968874, -803941.06, -33705.83, 0.0, 9.999805, 9.998492 
2.4836364e+3, 2.3139006e+2, -640587.56, -824696.1, 119125.375, 0.043156978, -0.26994222, -582093.3, 90260.15, 0.0, 10.000775, 9.998255 
2.4832451e+3, 2.4137811e+2, -611283.5, -856134.5, 45641.754, 0.13674414, -0.49377415, -603052.3, -28584.402, 0.0, 10.000704, 9.997448 
2.482846e+3, 2.513708e+2, -579352.5, -720106.25, -24189.84, -0.34159407, -0.27869684, -575311.3, -98766.336, 0.0, 10.000039, 9.997947 
2.482448e+3, 2.6136285e+2, -613272.6, -687330.8, -148763.61, -0.6121236, -0.112915546, -496998.88, -118373.125, 0.0, 9.999065, 9.998036 
2.482055e+3, 2.7135122e+2, -138659.7, -294795.56, -211311.55, -0.05064397, -0.42897433, 8543.702, 289276.13, 0.0, 10.001235, 9.998945 
2.4816604e+3, 2.8134096e+2, -24930.912, -234570.58, -37737.793, 0.22721668, -0.579455, -18344.559, 164483.03, 0.0, 10.001482, 9.998629 
2.4812597e+3, 2.9133576e+2, -77213.2, -97243.27, -9776.083, -0.5954887, -0.314171, -73232.79, 11648.341, 0.0, 10.000065, 9.999502 
2.4808703e+3, 3.013293e+2, -643514.3, -851529.5, 7775.398, -0.39858165, -0.0042808037, -643224.1, -643224.1, 0.0, 9.9978895, 9.995136 
2.4804878e+3, 3.1131613e+2, -170150.0, -249160.97, -55362.156, 0.37422594, -0.12571666, -141643.34, -141643.34, 0.0, 9.99955, 9.998395 
2.4979655e+3, 1.2187819e+2, -1654007.3, -1707155.4, 44565.164, -0.36757556, -0.3386111, -1628694.5, 116857.31, 0.43991756, 10.000929, 9.999716 
2.4975727e+3, 1.3186887e+2, -1415269.6, -1579277.3, 43434.766, -0.16828813, -0.4825146, -1404476.9, 243164.06, 0.31901658, 10.002456, 9.999197 
2.4971774e+3, 1.418603e+2, -1389590.6, -1626889.4, 82723.53, -0.21969639, -0.461497, -1363599.5, 186125.4, 0.19536594, 10.001897, 9.998347 
2.4967857e+3, 1.5185173e+2, -1332563.3, -1510698.5, 91915.44, -0.08172299, -0.44616342, -1293640.6, 158172.25, 0.094030365, 10.001278, 9.998708 
2.4963933e+3, 1.6184315e+2, -1355431.3, -1607687.9, 15910.617, 0.043485794, -0.3620277, -1354431.6, -528.1125, 0.032013185, 10.000847, 9.997609 
2.4959973e+3, 1.7183554e+2, -1077576.4, -1419285.5, -8388.5205, -0.026018923, -0.1472815, -1077370.5, 178621.5, 0.0062260167, 10.00215, 9.99755 
2.4956006e+3, 1.8182743e+2, -804374.7, -1112403.9, -65299.285, -0.13411023, 0.024227303, -791103.6, 366976.63, 0.00043419475, 10.002709, 9.99877 
2.4952032e+3, 1.9181736e+2, -719296.4, -899702.8, -90313.26, -0.15658987, -0.2182424, -681855.1, 378315.72, 0.0000058323185, 10.002155, 9.999776 
2.4948066e+3, 2.018079e+2, -771450.4, -885881.56, -2114.4758, -0.1353331, -0.35849872, -771411.3, 190845.25, 0.000000000090419006, 10.00114, 9.999723 
2.4944139e+3, 2.1180163e+2, -711670.06, -751959.5, 37725.777, 0.0088930335, -0.2599505, -689047.44, 175271.38, 0.0, 10.000695, 10.000139 
2.4940212e+3, 2.2179465e+2, -756367.9, -892563.2, 109054.0, 0.057377502, -0.14971302, -695896.25, 70491.55, 0.0, 10.00038, 9.998701 
2.4936296e+3, 2.317846e+2, -579839.06, -786065.8, 153913.1, -0.0029863785, -0.259764, -497691.53, 170792.64, 0.0, 10.00112, 9.998369 
2.4932371e+3, 2.4177442e+2, -501748.1, -800713.2, 15141.706, -0.059399858, -0.30383047, -500983.16, 69600.43, 0.0, 10.001393, 9.997493 
2.492841e+3, 2.5176558e+2, -598468.44, -792587.5, -65426.22, -0.0900249, -0.19408417, -578476.06, -105798.625, 0.0, 10.000102, 9.99745 
2.4924448e+3, 2.6175657e+2, -459729.88, -554162.3, -75055.66, -0.13914508, -0.10695316, -418274.1, -43504.926, 0.0, 9.999789, 9.998608 
2.492049e+3, 2.717468e+2, 159660.1, -89117.04, -54248.535, -0.12735106, -0.27746698, 170974.95, 447829.47, 0.0, 10.002956, 9.999556 
2.4916533e+3, 2.8173724e+2, 405338.53, -104507.18, -35141.92, -0.14311603, -0.36515293, 407749.34, 586691.5, 0.0, 10.004646, 9.998026 
2.4912569e+3, 2.9172885e+2, -36797.535, -276409.63, -107501.73, -0.24043608, -0.23604515, 4362.5938, 85394.54, 0.0, 10.001089, 9.997832 
2.4908677e+3, 3.0172086e+2, -372432.44, -561291.44, 85167.33, 0.18907763, -0.015677111, -339699.03, -339699.03, 0.0, 9.998959, 9.996631 
2.4904768e+3, 3.11709e+2, 305019.94, 161507.95, 99248.87, -0.11492204, -0.1287914, 355735.4, 355735.4, 0.0, 10.001817, 10.000202 
2.5079605e+3, 1.2227051e+2, -2074267.5, -1905600.1, -108440.195, -0.027535498, -0.43964994, -1852560.5, -110849.445, 0.42027465, 9.997413, 9.999922 
2.507568e+3, 1.3226375e+2, -1515798.4, -1609530.6, -5675.6523, -0.023577806, -0.35619298, -1515455.9, 128316.54, 0.30251706, 10.00127, 9.999502 
2.507173e+3, 1.4225392e+2, -1188430.3, -1603702.0, -63753.95, -0.19828103, -0.44266683, -1178863.0, 367004.13, 0.18302314, 10.003837, 9.997602 
2.506779e+3, 1.5224397e+2, -1318145.3, -1647372.1, -135317.38, -0.12699671, -0.47744727, -1269666.3, 178304.34, 0.08629053, 10.001916, 9.997488 
2.5063857e+3, 1.6223511e+2, -1372057.5, -1520455.6, -135856.39, -0.010610491, -0.39599603, -1291458.5, 58605.5, 0.028287582, 10.000294, 9.998486 
2.505991e+3, 1.7222862e+2, -1148380.4, -1302183.5, -38505.63, -0.042631693, -0.2318325, -1139278.9, 112857.04, 0.0050760456, 10.000933, 9.998971 
2.505595e+3, 1.822212e+2, -997913.94, -1148138.1, -38476.195, -0.08837817, -0.09940644, -988632.7, 165580.7, 0.00028139996, 10.001173, 9.999277 
2.5051966e+3, 1.9221197e+2, -839339.8, -942442.56, -92412.3, -0.17000057, -0.26667047, -785072.6, 271224.2, 0.0000014559199, 10.00136, 9.999864 
2.5047997e+3, 2.0220281e+2, -797173.44, -1007358.2, -14929.121, -0.16346359, -0.34235954, -796118.4, 162263.73, 0.0, 10.001479, 9.998733 
2.5044078e+3, 2.1219502e+2, -586721.44, -806734.56, -53594.37, 0.021349102, -0.29704553, -574360.5, 286101.9, 0.0, 10.002148, 9.999039 
2.5040156e+3, 2.2218701e+2, -584975.06, -895527.8, -30659.727, 0.14110243, -0.19837558, -581977.06, 180566.38, 0.0, 10.001983, 9.997914 
2.5036228e+3, 2.3217769e+2, -588578.25, -816488.4, -13648.416, -0.040187273, -0.22649339, -587763.9, 76869.83, 0.0, 10.001216, 9.998101 
2.5032297e+3, 2.4216838e+2, -668110.4, -913132.0, -166954.61, -0.13656178, -0.17635958, -583539.7, -16814.336, 0.0, 10.000414, 9.997198 
2.502835e+3, 2.52159e+2, -397547.72, -689188.8, -188030.28, 0.031968176, -0.14881524, -305420.75, 163402.61, 0.0, 10.001495, 9.997473 
2.50244e+3, 2.6214984e+2, -228084.03, -429835.9, -99700.6, 0.09522626, -0.09336724, -187128.52, 183786.58, 0.0, 10.001376, 9.998695 
2.5020427e+3, 2.7214125e+2, -183864.17, -215319.7, -63428.54, -0.22392629, -0.20758118, -134242.55, 138745.33, 0.0, 10.000455, 9.999892 
2.501647e+3, 2.8213224e+2, -412579.22, -618346.6, -154441.55, -0.33574182, -0.22319843, -329890.16, -154820.05, 0.0, 9.999641, 9.996886 
2.5012538e+3, 2.9212216e+2, -147168.86, -486331.5, -205408.22, 0.12199554, -0.16601884, -50385.094, 26795.535, 0.0, 10.001065, 9.996376 
2.5008622e+3, 3.0211207e+2, -141141.44, -349976.88, 128903.58, 0.41413057, -0.08318733, -79670.06, -79670.06, 0.0, 10.000266, 9.9974165 
2.500464e+3, 3.121014e+2, -343691.9, -36933.855, 214425.6, -0.79411703, -0.31585872, 73322.22, 73322.22, 0.0, 9.997113, 10.0010195 
2.5179553e+3, 1.22661814e+2, -1875431.6, -1734732.3, -142987.83, 0.40295818, -0.38685057, -1645725.1, 92157.79, 0.39734322, 9.998548, 10.000794 
2.5175637e+3, 1.3265674e+2, -1468562.4, -1528625.5, 106255.6, 0.1413029, -0.22103825, -1388175.9, 251749.66, 0.28406283, 10.00141, 10.000141 
2.5171697e+3, 1.4264677e+2, -1375702.1, -1816318.5, -82591.34, -0.18433271, -0.31455866, -1360729.5, 181291.56, 0.16993596, 10.002751, 9.996627 
2.5167724e+3, 1.5263468e+2, -1398784.9, -1806620.1, -162700.73, -0.24117266, -0.46212637, -1341831.0, 102317.29, 0.078587286, 10.0018635, 9.996383 
2.5163767e+3, 1.6262496e+2, -1189234.8, -1220984.0, -87378.67, -0.22409807, -0.46260887, -1116300.4, 229948.55, 0.024857625, 10.000667, 10.000367 
2.5159842e+3, 1.7262074e+2, -916909.25, -860592.94, 14208.545, -0.1081262, -0.34419662, -857211.2, 391076.53, 0.0041356636, 10.001116, 10.001917 
2.51559e+3, 1.8261512e+2, -933423.44, -1041243.94, -49751.375, -0.034724917, -0.23769303, -913974.9, 236365.36, 0.00018434241, 10.001297, 9.999935 
2.5151926e+3, 1.9260637e+2, -828553.0, -963455.56, -75272.195, 0.026771298, -0.34365493, -794932.1, 257489.86, 0.00000026313862, 10.001529, 9.999641 
2.5147963e+3, 2.0259726e+2, -868581.8, -1220620.1, 12720.874, 0.02236608, -0.3324082, -868122.75, 86389.31, 0.0, 10.001758, 9.997128 
2.514402e+3, 2.1258822e+2, -676159.25, -1107147.9, -23652.162, -0.033895876, -0.18162724, -674865.1, 181747.75, 0.0, 10.002619, 9.996773 
2.514009e+3, 2.2257864e+2, -517857.3, -966006.2, -67098.875, -0.06797254, -0.05515473, -508026.6, 250688.4, 0.0, 10.002825, 9.9970455 
2.5136167e+3, 2.3256753e+2, -588722.44, -895880.9, -87433.49, -0.057126224, -0.18298167, -565578.1, 95244.58, 0.0, 10.001499, 9.997448 
2.5132233e+3, 2.4255742e+2, -497786.13, -708180.1, -173001.3, -0.123256, -0.2126735, -400508.78, 162411.64, 0.0, 10.000994, 9.99833 
2.5128266e+3, 2.5254908e+2, -150563.95, -432808.34, -152655.38, -0.2882953, -0.2014274, -83794.02, 381207.75, 0.0, 10.002511, 9.998784 
2.5124308e+3, 2.625405e+2, 13322.113, -248460.5, -194598.05, -0.31196186, -0.19259778, 116953.58, 484036.75, 0.0, 10.002671, 9.999342 
2.5120363e+3, 2.725312e+2, -316122.16, -300800.13, -207622.02, -0.056867212, -0.36226732, -100697.83, 168466.6, 0.0, 9.999556, 9.999784 
2.5116414e+3, 2.8252214e+2, -536461.3, -615037.44, -120496.73, 0.011183604, -0.38927108, -449009.44, -277759.97, 0.0, 9.998421, 9.9975195 
2.5112447e+3, 2.9251376e+2, 74885.695, -342522.56, -82520.12, -0.23040225, -0.20909402, 90607.46, 163952.17, 0.0, 10.002278, 9.99684 
2.510851e+3, 3.025055e+2, 337112.63, 18325.977, -12632.418, -0.20274146, -0.01844576, 337612.4, 337612.4, 0.0, 10.002837, 9.998735 
2.510459e+3, 3.1249657e+2, -528137.56, -86231.23, -12085.106, -0.11257746, -0.14682238, -85900.97, -85900.97, 0.0, 9.995476, 10.001533 
2.5279468e+3, 1.2305353e+2, -1363396.8, -1483356.8, -87126.29, 0.14444496, -0.22689901, -1317600.6, 416450.44, 0.3720952, 10.003237, 10.000998 
2.5275555e+3, 1.3304661e+2, -1411812.9, -1451597.5, 35613.18, -0.06900223, -0.31419417, -1390913.0, 245195.22, 0.26429757, 10.00149, 10.000817 
2.527164e+3, 1.4303836e+2, -1580180.9, -1663925.1, -81582.875, -0.095624566, -0.37680015, -1530352.3, 7832.489, 0.15642525, 9.999961, 9.998994 
2.526768e+3, 1.5302956e+2, -1254519.5, -1480746.6, 10619.555, -0.08824237, -0.42702067, -1254022.0, 186254.05, 0.071005836, 10.001832, 9.998633 
2.5263724e+3, 1.630212e+2, -931736.44, -1112317.1, 133638.03, -0.06514559, -0.39002937, -860746.06, 481615.56, 0.021693112, 10.002586, 10.000205 
2.5259772e+3, 1.7301497e+2, -968818.8, -963961.94, 13917.151, -0.15666851, -0.37186685, -952262.94, 292158.72, 0.00335279, 10.001218, 10.001135 
2.5255817e+3, 1.8300825e+2, -1037167.25, -1107187.9, -139277.75, -0.13743584, -0.3259345, -928566.94, 217917.27, 0.00011963712, 10.000607, 9.999828 
2.5251865e+3, 1.9299965e+2, -727636.94, -908144.2, -137136.22, 0.008821194, -0.45430642, -653719.75, 394843.44, 0.00000002568285, 10.002124, 9.999748 
2.5247914e+3, 2.0299095e+2, -751065.94, -1240231.3, 20478.445, 0.090146124, -0.3934249, -750210.1, 200439.64, 0.0, 10.002861, 9.996473 
2.524397e+3, 2.1298176e+2, -758864.7, -1241675.9, 91529.87, -0.01812767, -0.19794138, -742095.2, 110659.7, 0.0, 10.0024, 9.995971 
2.5240034e+3, 2.2297163e+2, -694686.2, -1079012.8, 143609.95, -0.073358044, -0.049029347, -646952.56, 107911.66, 0.0, 10.001798, 9.996737 
2.5236112e+3, 2.3295979e+2, -536246.2, -875988.1, 158157.97, -0.03549748, -0.24132696, -474017.88, 182960.95, 0.0, 10.00192, 9.997365 
2.523217e+3, 2.4294929e+2, -462202.8, -656463.2, 124602.234, -0.109716505, -0.2807269, -401345.7, 157734.11, 0.0, 10.001178, 9.998578 
2.522819e+3, 2.5294173e+2, -443317.34, -498603.75, 79764.96, -0.46560585, -0.23816498, -386541.38, 74610.42, 0.0, 10.00027, 9.999386 
2.5224227e+3, 2.6293328e+2, -497993.13, -556063.5, -103446.27, -0.5133657, -0.20741236, -419584.5, -56353.754, 0.0, 9.999503, 9.99873 
2.52203e+3, 2.7292278e+2, -362198.25, -379680.28, -182602.55, 0.09467639, -0.452028, -188127.61, 77198.56, 0.0, 9.999562, 9.999188 
2.5216347e+3, 2.8291315e+2, -435001.2, -544348.8, 35044.51, 0.24563973, -0.4989851, -424733.94, -257314.88, 0.0, 9.999124, 9.997645 
2.521235e+3, 2.9290575e+2, -266678.97, -409255.53, 123695.95, -0.5982592, -0.29437092, -195199.23, -125696.414, 0.0, 9.999619, 9.997625 
2.5208414e+3, 3.0289963e+2, -157625.81, -199761.6, -82476.94, -0.6113567, 0.054790683, -93568.49, -93568.49, 0.0, 9.999454, 9.998836 
2.5204512e+3, 3.1288886e+2, -249978.39, 52667.656, -144900.84, 0.16945682, -0.295411, 110855.76, 110855.76, 0.0, 9.997578, 10.00139 
2.5379366e+3, 1.2344378e+2, -1397045.8, -1494110.0, 68951.234, -0.54221046, -0.20027588, -1361259.1, 368973.03, 0.34545994, 10.002782, 10.000946 
2.5375465e+3, 1.3343573e+2, -1461450.9, -1405554.4, 36144.69, -0.3993813, -0.4679375, -1387813.0, 244484.86, 0.24384509, 10.000621, 10.001575 
2.537157e+3, 1.4342965e+2, -1494784.8, -1271294.9, -1221.941, -0.07357159, -0.48936546, -1271288.1, 263061.22, 0.14280653, 9.99899, 10.002414 
2.536765e+3, 1.5342665e+2, -1045144.6, -937219.7, 85820.94, 0.1604109, -0.35884166, -889805.7, 546571.5, 0.06363834, 10.0014, 10.0027685 
2.5363702e+3, 1.6342063e+2, -1110082.1, -1441584.5, 70446.38, 0.16758074, -0.23761247, -1095733.0, 242705.36, 0.0187796, 10.0024, 9.997992 
2.5359696e+3, 1.734096e+2, -1189264.5, -1469085.1, -31818.9, -0.28972647, -0.36314034, -1185691.9, 54862.58, 0.0026956536, 10.001372, 9.9976 
2.5355715e+3, 1.8339969e+2, -998582.44, -1072590.5, -94937.22, -0.51614183, -0.42979953, -933692.5, 208960.05, 0.00007576087, 10.0008335, 9.999934 
2.5351784e+3, 1.933913e+2, -644165.6, -783444.56, -68194.19, -0.2807819, -0.59852993, -616336.6, 428388.16, 0.00000000011876218, 10.002318, 10.000511 
2.5347853e+3, 2.0338328e+2, -616981.94, -1008236.7, 21960.158, -0.078356184, -0.5634722, -615753.2, 331047.34, 0.0, 10.003057, 9.997952 
2.534393e+3, 2.1337579e+2, -594152.5, -985229.3, 99061.625, 0.065338664, -0.34543994, -570491.3, 278393.2, 0.0, 10.002746, 9.997561 
2.534e+3, 2.2336702e+2, -495837.66, -809748.94, 170188.53, 0.07757078, -0.21790546, -421278.25, 329697.97, 0.0, 10.002385, 9.9983015 
2.5336057e+3, 2.3335598e+2, -372490.5, -667350.94, 219370.98, -0.05238451, -0.42913353, -255611.61, 397468.56, 0.0, 10.002435, 9.998572 
2.5332108e+3, 2.433466e+2, -371471.4, -627014.7, 127011.74, -0.16402425, -0.4180379, -319083.2, 236088.2, 0.0, 10.001787, 9.998506 
2.5328135e+3, 2.5334048e+2, -525936.7, -619953.7, 85844.086, -0.24956864, -0.1424404, -475072.78, -17836.314, 0.0, 10.000008, 9.998697 
2.532417e+3, 2.6333204e+2, -589749.06, -712454.44, -30895.984, -0.26428655, -0.020143107, -582408.9, -223087.67, 0.0, 9.999294, 9.997772 
2.532021e+3, 2.733192e+2, -341990.06, -534561.44, -91802.98, -0.023566173, -0.33752453, -305239.22, -43795.66, 0.0, 10.000323, 9.997791 
2.5316256e+3, 2.8330854e+2, -165749.16, -282642.6, 59486.727, 0.074395336, -0.4439295, -140801.1, 22745.303, 0.0, 10.000359, 9.998844 
2.5312302e+3, 2.933018e+2, -315432.94, -286237.25, 137090.31, -0.20484047, -0.28531197, -162969.75, -97355.086, 0.0, 9.998578, 9.999008 
2.530837e+3, 3.0329412e+2, -333507.75, -394956.44, 29611.938, -0.12780367, -0.115117855, -321560.66, -321560.66, 0.0, 9.9986105, 9.997953 
2.5304428e+3, 3.1328273e+2, 290267.2, 115901.695, -45286.395, 0.00560812, -0.3102465, 301327.44, 301327.44, 0.0, 10.001909, 9.999857 
2.547937e+3, 1.2383979e+2, -1355676.6, -1316790.5, 172450.53, -0.017234376, -0.18277977, -1162690.5, 563658.1, 0.31815657, 10.00211, 10.002926 
2.54754e+3, 1.3383207e+2, -1738986.4, -1540649.4, 49837.063, -0.19994512, -0.38995856, -1528830.9, 99582.51, 0.22319712, 9.998436, 10.001391 
2.5471476e+3, 1.4382502e+2, -1802398.0, -1487761.8, 116930.42, -0.030142622, -0.44604263, -1449065.3, 81411.086, 0.12934339, 9.997186, 10.001607 
2.5467578e+3, 1.5382022e+2, -1380074.5, -1198461.9, -1696.7526, 0.1999536, -0.39967558, -1198446.0, 234077.3, 0.05657354, 9.999343, 10.001881 
2.5463644e+3, 1.638141e+2, -1321006.8, -1518162.4, -151988.48, 0.22463207, -0.26873723, -1238426.9, 96158.586, 0.016116831, 10.000774, 9.998259 
2.5459638e+3, 1.7380469e+2, -1111119.0, -1419363.9, -71642.81, -0.23617713, -0.2929127, -1095281.4, 141403.53, 0.0021455006, 10.001782, 9.997763 
2.545566e+3, 1.8379508e+2, -878011.0, -1098550.6, 10546.626, -0.4557791, -0.30390757, -877507.8, 261273.05, 0.000046550977, 10.002014, 9.999199 
2.5451726e+3, 1.9378568e+2, -833314.94, -965696.2, -74224.61, -0.2622662, -0.49100843, -800054.6, 240810.19, 0.0, 10.00143, 9.999695 
2.54478e+3, 2.0377716e+2, -898948.5, -1107068.4, -73480.02, -0.06631183, -0.47477335, -875620.06, 67324.88, 0.0, 10.00101, 9.998241 
2.5443876e+3, 2.1376969e+2, -773510.0, -990841.6, -86161.38, 0.07978462, -0.34717312, -743496.2, 101527.49, 0.0, 10.001214, 9.99824 
2.5439945e+3, 2.2376125e+2, -698215.44, -849366.5, -63712.78, 0.1179396, -0.26514786, -674942.7, 72164.875, 0.0, 10.000763, 9.99882 
2.543599e+3, 2.33751e+2, -735058.06, -769662.8, -54296.496, -0.07304258, -0.49675885, -695373.8, -46171.633, 0.0, 9.999678, 9.9991865 
2.5432038e+3, 2.437425e+2, -751684.6, -842597.8, -143615.13, -0.15170822, -0.44109535, -646503.9, -95219.87, 0.0, 9.999411, 9.998139 
2.5428078e+3, 2.537366e+2, -447369.78, -622697.8, -132855.72, -0.10668275, -0.15281558, -375862.13, 77486.0, 0.0, 10.000779, 9.998278 
2.5424108e+3, 2.6372796e+2, -349804.28, -696855.3, -131185.95, -0.09455057, 0.0059007574, -305796.22, 49640.953, 0.0, 10.001446, 9.996828 
2.5420132e+3, 2.737146e+2, -168657.89, -538822.6, -106425.94, -0.11510023, -0.3205635, -140240.94, 117328.04, 0.0, 10.00196, 9.996963 
2.541618e+3, 2.837043e+2, 20107.332, -164464.25, -8465.104, -0.01838954, -0.34900284, 20494.76, 180163.27, 0.0, 10.001603, 9.999038 
2.5412256e+3, 2.9369828e+2, 11968.241, -35240.582, -11223.475, 0.15247847, -0.22167836, 14500.674, 76223.9, 0.0, 10.000547, 9.999734 
2.540832e+3, 3.0368772e+2, -323309.2, -529514.06, 12698.274, 0.19388196, -0.32410717, -322530.16, -322530.16, 0.0, 9.999418, 9.996606 
2.5404334e+3, 3.1367558e+2, -213932.1, -103596.086, 51183.355, -0.32252854, -0.5041258, -83509.56, -83509.56, 0.0, 9.998518, 9.999944 
2.5579298e+3, 1.24236375e+2, -1713423.4, -1658895.8, -35419.258, -0.21678852, -0.22378026, -1641462.4, 80994.38, 0.29081753, 9.999722, 10.000578 
2.5575343e+3, 1.3423029e+2, -1643085.3, -1531078.1, -51440.336, 0.10679337, -0.23315042, -1511038.9, 113470.41, 0.2027681, 9.999336, 10.000997 
2.557137e+3, 1.4422113e+2, -1787915.8, -1786217.1, 174476.36, -0.13318026, -0.34247234, -1612588.0, -85990.43, 0.11625642, 9.998694, 9.998728 
2.5567484e+3, 1.5421113e+2, -1537995.6, -1607986.3, 113587.41, 0.051000476, -0.5190278, -1454134.9, -25433.697, 0.04988728, 9.999752, 9.998753 
2.5563568e+3, 1.6420408e+2, -1169059.6, -1184831.0, -84595.99, 0.10530142, -0.40186667, -1091982.6, 238790.84, 0.013707004, 10.000729, 10.000577 
2.5559598e+3, 1.742001e+2, -889306.75, -975119.94, -5291.273, -0.06595018, -0.16320336, -888981.75, 343831.2, 0.0016894786, 10.001865, 10.000777 
2.5555637e+3, 1.8419306e+2, -949028.56, -1291953.0, -7304.18, -0.14645581, -0.013755344, -948873.06, 186009.78, 0.000027889511, 10.002226, 9.997756 
2.5551692e+3, 1.9418211e+2, -946811.94, -1255821.1, -78518.984, -0.028231693, -0.14771062, -928005.0, 108985.39, 0.0, 10.001671, 9.997584 
2.5547746e+3, 2.0417194e+2, -885081.5, -1148757.4, -65509.05, 0.001254874, -0.15614231, -869703.0, 69387.24, 0.0, 10.001284, 9.997834 
2.55438e+3, 2.1416257e+2, -746905.06, -1021393.94, -70375.11, -0.0850158, -0.17458701, -729913.7, 111269.195, 0.0, 10.00153, 9.997901 
2.5539857e+3, 2.2415346e+2, -643128.8, -804439.94, -127119.875, -0.11791008, -0.15172645, -573236.1, 170034.64, 0.0, 10.0010395, 9.998998 
2.5535908e+3, 2.3414445e+2, -737278.1, -782201.25, -125379.23, -0.111545324, -0.24295269, -632364.4, 12990.066, 0.0, 9.9996805, 9.99911 
2.5531957e+3, 2.4413508e+2, -636861.44, -693733.0, -132024.47, -0.15819024, -0.312204, -530245.2, 17196.662, 0.0, 9.9997425, 9.999015 
2.5528e+3, 2.541252e+2, -279367.8, -473907.34, -102465.75, -0.25892514, -0.4800384, -235355.45, 214179.67, 0.0, 10.001572, 9.998947 
2.5524044e+3, 2.6411632e+2, -30788.328, -373993.38, -146400.61, -0.2191033, -0.4581252, 23176.357, 374798.44, 0.0, 10.002834, 9.998407 
2.55201e+3, 2.741081e+2, 114697.17, -264182.34, -95806.1, 0.030923273, -0.3770982, 137545.5, 391251.0, 0.0, 10.003233, 9.998283 
2.5516143e+3, 2.8409976e+2, 212527.39, -172697.58, -27374.602, 0.06625463, -0.24944799, 214462.94, 370253.53, 0.0, 10.003263, 9.998214 
2.5512165e+3, 2.940912e+2, 221439.19, -112476.04, -86624.125, -0.20222735, -0.21021928, 242573.53, 300450.72, 0.0, 10.002652, 9.998237 
2.550822e+3, 3.0408043e+2, 127989.08, -628.5807, -136719.81, -0.10994674, -0.38979623, 214769.4, 214769.4, 0.0, 10.00107, 9.999486 
2.5504223e+3, 3.1407055e+2, -262811.56, 22052.893, -72104.64, -0.44325563, -0.57502604, 39264.074, 39264.074, 0.0, 9.997342, 10.001447 
2.5679243e+3, 1.24631956e+2, -2148180.0, -1864295.9, 4668.3906, 0.24848703, -0.28380013, -1864219.1, -145646.61, 0.26403108, 9.9966755, 10.000523 
2.567528e+3, 1.3462485e+2, -1348674.0, -1505673.0, -42022.113, 0.14597367, -0.27193016, -1338134.0, 282509.8, 0.18292536, 10.002326, 9.999783 
2.567132e+3, 1.4461641e+2, -1078489.6, -1423959.0, 96305.33, -0.055661984, -0.25184608, -1053456.8, 469271.06, 0.1037245, 10.003839, 9.998833 
2.5667423e+3, 1.5460621e+2, -1327386.1, -1542642.3, 147148.45, 0.10820267, -0.44961664, -1252705.5, 172124.81, 0.043632858, 10.001316, 9.998499 
2.56635e+3, 1.6459854e+2, -1229819.0, -1220083.1, 71595.65, 0.16572753, -0.36387226, -1153190.1, 173717.42, 0.011545959, 10.000345, 10.000489 
2.5659546e+3, 1.7459412e+2, -966638.44, -1030546.7, -30659.107, -0.00020864658, -0.15708418, -954308.9, 274643.1, 0.0013158798, 10.001442, 10.000572 
2.565559e+3, 1.8458669e+2, -994000.56, -1388285.5, -122677.48, -0.05829932, -0.011820981, -958947.2, 172079.03, 0.000016496271, 10.002279, 9.997064 
2.565164e+3, 1.945753e+2, -845328.6, -1307939.5, -117402.53, 0.0116433455, -0.13169606, -817239.5, 215900.8, 0.0, 10.002801, 9.996704 
2.5647688e+3, 2.0456466e+2, -718119.9, -1050981.4, -23375.836, 0.013097513, -0.1363739, -716486.25, 218758.81, 0.0, 10.002408, 9.997962 
2.5643733e+3, 2.1455465e+2, -815305.25, -1054375.9, -12323.944, -0.12724227, -0.22559169, -814671.6, 22669.695, 0.0, 10.001111, 9.997881 
2.563978e+3, 2.2454563e+2, -738803.75, -869086.4, -61767.09, -0.16409163, -0.17063111, -714175.56, 25252.24, 0.0, 10.000524, 9.998771 
2.563583e+3, 2.3453762e+2, -685838.5, -793910.0, -84964.54, -0.117323436, -0.14619245, -639182.5, 2321.592, 0.0, 10.000245, 9.998734 
2.563188e+3, 2.4452771e+2, -608077.3, -643878.25, -28349.277, -0.14980952, -0.25266215, -592450.06, -48854.313, 0.0, 9.999827, 9.999299 
2.5627923e+3, 2.5451517e+2, -562131.7, -579652.8, -27347.902, -0.3389211, -0.7358431, -542175.44, -96466.45, 0.0, 9.999523, 9.999205 
2.5623983e+3, 2.645067e+2, -497601.72, -485466.6, -114838.42, -0.24593963, -0.72425574, -376535.56, -28746.275, 0.0, 9.999254, 9.9993 
2.5620055e+3, 2.7450246e+2, -371523.34, -381087.47, -93872.6, 0.14032982, -0.38258836, -282311.1, -32475.457, 0.0, 9.999479, 9.999235 
2.5616086e+3, 2.8449473e+2, -389641.3, -567538.2, -23794.408, 0.054535475, -0.19308895, -386513.7, -234596.42, 0.0, 9.999632, 9.9972315 
2.5612065e+3, 2.944833e+2, -274390.3, -483140.53, 9784.358, -0.6074915, -0.35084173, -273932.72, -219896.22, 0.0, 9.999852, 9.997017 
2.5608128e+3, 3.0447456e+2, 129452.164, 194603.81, -138220.47, -0.3200377, -0.33075052, 304035.3, 304035.3, 0.0, 10.0003605, 10.0011015 
2.560416e+3, 3.1447375e+2, 53824.207, 194810.44, -12370.73, -0.13764739, 0.14348753, 195887.67, 195887.67, 0.0, 9.999675, 10.001393 
2.577912e+3, 1.2502292e+2, -2064908.9, -2056518.3, 212860.6, -0.023096891, -0.68596375, -1847811.6, -133076.53, 0.23823552, 9.998301, 9.998377 
2.577522e+3, 1.3501775e+2, -1425924.6, -1663898.8, 128052.17, 0.04358427, -0.37905705, -1370111.0, 246685.27, 0.16394834, 10.002252, 9.998563 
2.5771293e+3, 1.4501141e+2, -1083550.8, -1278215.1, 29768.168, 0.03480418, -0.15658398, -1079100.4, 439760.4, 0.09188186, 10.003092, 10.000266 
2.5767374e+3, 1.5500325e+2, -1231040.1, -1328570.4, 66290.234, 0.23136222, -0.2914481, -1197510.5, 223424.92, 0.03784501, 10.001275, 10.000004 
2.5763437e+3, 1.6499493e+2, -1339810.0, -1495682.8, 92409.85, 0.20455772, -0.24968421, -1296859.4, 26158.223, 0.009625426, 10.000601, 9.998435 
2.5759476e+3, 1.749863e+2, -1104695.3, -1349574.9, 31942.143, -0.10227949, -0.24044517, -1100597.3, 124510.42, 0.0010124295, 10.001599, 9.998289 
2.5755522e+3, 1.8497664e+2, -945314.5, -1292132.1, -101881.11, -0.24987999, -0.22288343, -917600.5, 209603.64, 0.000009793076, 10.002318, 9.997687 
2.5751573e+3, 1.949655e+2, -785274.25, -1201438.1, -65919.21, -0.19709451, -0.3736356, -775082.44, 254229.22, 0.0, 10.002871, 9.997397 
2.5747624e+3, 2.0495515e+2, -638023.1, -932546.4, -57538.844, -0.12846161, -0.42564166, -627181.25, 304229.38, 0.0, 10.002579, 9.998697 
2.5743678e+3, 2.149455e+2, -704272.25, -938409.3, -22088.758, -0.048150983, -0.52411133, -702206.56, 131294.88, 0.0, 10.001562, 9.998472 
2.5739723e+3, 2.2493693e+2, -666448.4, -849594.5, -50371.01, -0.082885094, -0.44914997, -653508.94, 82074.64, 0.0, 10.001036, 9.998656 
2.5735754e+3, 2.3492925e+2, -598009.75, -792068.7, -55345.992, -0.19368723, -0.34928873, -583334.75, 54323.992, 0.0, 10.000944, 9.9984255 
2.5731802e+3, 2.4492045e+2, -490141.75, -547955.8, -34799.297, -0.22301194, -0.34879193, -473809.34, 65932.6, 0.0, 10.000422, 9.999683 
2.5727853e+3, 2.549102e+2, -542217.6, -551863.7, -23019.82, -0.20088856, -0.60077596, -523521.0, -81684.79, 0.0, 9.999506, 9.999435 
2.57239e+3, 2.6490206e+2, -523047.16, -445154.5, -109703.02, -0.17514093, -0.5865884, -367689.6, -23774.69, 0.0, 9.998798, 9.999796 
2.5719938e+3, 2.7489612e+2, -504895.1, -422446.16, -98378.25, -0.09532328, -0.42480943, -357004.16, -111026.13, 0.0, 9.99838, 9.999503 
2.5715974e+3, 2.848887e+2, -385356.75, -302824.34, 19503.895, -0.17309676, -0.33141524, -298447.38, -150395.08, 0.0, 9.998455, 9.999631 
2.5711998e+3, 2.9487973e+2, -224091.53, -224566.0, 121069.98, -0.4449756, -0.44353452, -103258.555, -53118.953, 0.0, 9.999086, 9.999198 
2.5708067e+3, 3.0486995e+2, -11675.149, -140166.63, 37247.563, -0.1813328, -0.51225317, -1658.5437, -1658.5437, 0.0, 10.000448, 9.998782 
2.5704086e+3, 3.1486392e+2, 314519.97, 22972.523, 140917.66, -0.3026126, -0.2513237, 371496.75, 371496.75, 0.0, 10.002574, 9.99886 
2.5879076e+3, 1.2541716e+2, -1450849.1, -1615583.1, 96671.46, 0.18137895, -0.5336572, -1406213.4, 304669.44, 0.21373183, 10.002273, 9.999681 
2.587518e+3, 1.3541222e+2, -1359457.0, -1561631.1, 123566.33, 0.18856777, -0.30325237, -1300896.9, 312036.25, 0.14603193, 10.002323, 9.999274 
2.5871256e+3, 1.4540489e+2, -1241240.4, -1413071.1, -25142.756, 0.17745063, -0.19122142, -1237636.9, 277367.9, 0.080827504, 10.002153, 9.999676 
2.5867313e+3, 1.5539649e+2, -1167181.9, -1371820.4, -110686.36, 0.21545266, -0.2961146, -1118767.3, 298317.16, 0.032553293, 10.002064, 9.999299 
2.5863367e+3, 1.653879e+2, -1165359.6, -1450951.6, -28549.008, 0.12083399, -0.24919224, -1162533.8, 156636.16, 0.007938516, 10.001962, 9.998081 
2.5859416e+3, 1.7537881e+2, -1125733.8, -1423945.4, -15125.471, -0.13449305, -0.25618488, -1124968.5, 96295.52, 0.00076767127, 10.001726, 9.997725 
2.5855467e+3, 1.8536921e+2, -1048811.3, -1258068.3, -86895.164, -0.21304105, -0.24228024, -1017432.8, 105926.375, 0.000005913737, 10.001255, 9.9984255 
2.5851515e+3, 1.9535886e+2, -1129623.8, -1282543.4, -60024.242, -0.13482963, -0.3984023, -1108877.5, -83420.086, 0.0, 10.000182, 9.998111 
2.584757e+3, 2.0534898e+2, -965505.1, -1109499.8, -37331.414, -0.06253309, -0.4269936, -956402.25, -28850.826, 0.0, 10.000413, 9.998524 
2.5843623e+3, 2.1533942e+2, -747507.7, -979641.8, -65524.977, 0.0024386535, -0.5246128, -730289.0, 99353.38, 0.0, 10.001338, 9.998303 
2.5839663e+3, 2.2533062e+2, -623263.56, -797702.7, -78599.56, -0.025094569, -0.47931919, -593072.94, 138652.77, 0.0, 10.001301, 9.998868 
2.583569e+3, 2.353223e+2, -671221.0, -813667.8, -53935.18, -0.16273884, -0.46884796, -653103.6, -19298.645, 0.0, 10.000468, 9.998501 
2.5831732e+3, 2.4531424e+2, -577598.0, -611134.2, -31178.834, -0.15679215, -0.3800915, -558964.3, -23082.254, 0.0, 9.999984, 9.999432 
2.582779e+3, 2.5530598e+2, -574755.5, -599093.56, -62384.152, -0.046731822, -0.4338747, -523364.56, -85403.58, 0.0, 9.999488, 9.999095 
2.582382e+3, 2.6529777e+2, -507067.25, -435167.03, -143918.47, -0.09826894, -0.4118196, -322776.53, 17264.957, 0.0, 9.998916, 9.999826 
2.5819826e+3, 2.7528983e+2, -536755.4, -429270.4, -128796.02, -0.28510538, -0.48275688, -343454.03, -101332.664, 0.0, 9.998193, 9.999535 
2.581587e+3, 2.8528312e+2, -258849.4, -59731.15, -994.62024, -0.2922594, -0.39992264, -59726.18, 84458.516, 0.0, 9.998629, 10.001175 
2.581194e+3, 2.952766e+2, -26183.67, 29036.725, -10917.533, -0.20002677, -0.46524766, 31116.855, 77358.48, 0.0, 9.999853, 10.000534 
2.5807998e+3, 3.052648e+2, -221471.64, -495481.5, -67350.99, -0.16054693, -0.7024654, -205811.89, -205811.89, 0.0, 10.000171, 9.996456 
2.5804043e+3, 3.1525937e+2, -66046.29, -773.6869, -82033.22, -0.21776244, -0.19239686, 54876.914, 54876.914, 0.0, 9.999348, 10.000259 
2.5979057e+3, 1.2581414e+2, -1309481.1, -1417601.6, 32866.527, 0.43212047, -0.066067934, -1300274.4, 406734.1, 0.19077115, 10.002817, 10.001062 
2.5975153e+3, 1.3580695e+2, -1319705.1, -1437513.5, 131065.12, 0.3756532, -0.18433417, -1234916.0, 374150.53, 0.12932457, 10.00212, 10.000336 
2.597121e+3, 1.4579715e+2, -1397839.5, -1648401.9, -30748.79, 0.24194767, -0.28544688, -1394121.3, 117039.0, 0.07062259, 10.001716, 9.998197 
2.596724e+3, 1.5578707e+2, -1293590.1, -1595115.6, -65460.777, 0.027498126, -0.3988587, -1279992.0, 133271.64, 0.027766839, 10.001887, 9.997829 
2.5963292e+3, 1.6577874e+2, -1115415.6, -1318159.5, -4081.1804, -0.11393517, -0.29778907, -1115333.5, 200014.4, 0.0064744665, 10.00185, 9.9990425 
2.5959358e+3, 1.7577142e+2, -1073886.9, -1296398.8, 24104.695, -0.1766251, -0.21136804, -1071305.5, 146116.33, 0.0005723583, 10.001619, 9.998664 
2.5955418e+3, 1.8576346e+2, -981543.44, -1112463.6, -107302.32, -0.089989886, -0.12544775, -921310.25, 198189.66, 0.0000035552432, 10.001232, 9.999436 
2.595147e+3, 1.957547e+2, -1037821.4, -1142426.1, -59848.914, 0.09834331, -0.2082438, -1010641.44, 10942.708, 0.0, 10.000373, 9.998993 
2.5947514e+3, 2.0574592e+2, -954751.75, -1151102.3, 14671.916, 0.065965526, -0.1456463, -953661.44, -29990.113, 0.0, 10.000684, 9.998117 
2.5943553e+3, 2.1573707e+2, -684781.25, -1000063.5, -7761.374, -0.101608664, -0.095830515, -684590.3, 141170.86, 0.0, 10.001936, 9.9979105 
2.59396e+3, 2.2572765e+2, -456390.5, -585011.75, -104328.82, -0.08507407, -0.15946604, -398143.53, 329705.5, 0.0, 10.001859, 10.000058 
2.593564e+3, 2.3571773e+2, -517419.53, -633445.44, -49416.92, 0.038204685, -0.40152186, -499225.3, 130711.4, 0.0, 10.001016, 9.999486 
2.5931683e+3, 2.4570918e+2, -549313.0, -685645.9, -31478.941, 0.05785051, -0.36891556, -542395.56, -10375.963, 0.0, 10.000486, 9.998699 
2.592772e+3, 2.5570142e+2, -525417.44, -654136.5, -66404.82, 0.019187035, -0.27376047, -497301.28, -63200.54, 0.0, 10.000078, 9.998462 
2.592374e+3, 2.6569313e+2, -388888.0, -326302.4, -169626.88, -0.051444337, -0.25892693, -185106.03, 151073.92, 0.0, 9.999487, 10.000299 
2.591975e+3, 2.7568454e+2, -418246.44, -338311.16, -134497.67, -0.12108809, -0.4010514, -237968.31, 289.35498, 0.0, 9.998809, 9.99988 
2.5915802e+3, 2.8567645e+2, -270003.5, -285855.03, 13201.028, -0.15874453, -0.3786164, -262531.72, -122196.33, 0.0, 9.999457, 9.9992285 
2.591187e+3, 2.9566833e+2, 19547.777, -159168.03, -105479.95, -0.22979824, -0.3928734, 68431.89, 110848.47, 0.0, 10.000988, 9.998721 
2.5907922e+3, 3.056584e+2, -73972.45, -314783.44, -298938.16, -0.18060078, -0.41920707, 127897.58, 127897.58, 0.0, 10.000661, 9.997494 
2.5903895e+3, 3.156494e+2, -171108.7, 233.28639, -28103.21, -0.8011982, -0.34492886, 4724.977, 4724.977, 0.0, 9.998328, 10.000776 
2.607898e+3, 1.2620921e+2, -1012079.56, -1422906.0, 11969.411, -0.064166605, 0.08291131, -1011731.1, 691414.0, 0.16949552, 10.005932, 9.999478 
2.6075095e+3, 1.3620022e+2, -1297293.8, -1479474.5, -11747.684, 0.351113, -0.14672351, -1296539.4, 308680.06, 0.11391175, 10.002488, 9.99983 
2.607115e+3, 1.4619088e+2, -1431395.1, -1598902.8, -39108.605, 0.26893818, -0.22186276, -1422714.1, 84594.31, 0.061296463, 10.0011635, 9.998791 
2.606717e+3, 1.5618196e+2, -1310529.3, -1546969.4, 6194.648, -0.07091526, -0.27135825, -1310367.0, 99033.84, 0.023481611, 10.001507, 9.99834 
2.6063222e+3, 1.6617401e+2, -1165423.3, -1205359.5, 103717.25, -0.15606393, -0.21694396, -1079769.5, 231708.14, 0.005220199, 10.00089, 10.000316 
2.6059297e+3, 1.7616665e+2, -1342510.5, -1327340.6, 134321.23, -0.052369222, -0.23148106, -1200390.4, 13154.597, 0.00041937284, 9.999327, 9.999587 
2.6055354e+3, 1.8615866e+2, -1159373.5, -1243169.6, 61721.742, 0.008540747, -0.15506777, -1126672.5, -11048.592, 0.0000020172258, 10.000165, 9.999069 
2.6051402e+3, 1.961501e+2, -789317.94, -1072470.6, 3038.4517, 0.06036248, -0.18122895, -789285.3, 228425.69, 0.0, 10.00227, 9.99857 
2.6047444e+3, 2.0614196e+2, -744905.3, -1008443.0, 68418.94, 0.012581182, -0.04853031, -728201.3, 191592.97, 0.0, 10.002008, 9.998423 
2.6043487e+3, 2.1613394e+2, -977182.7, -1118157.9, 93053.91, -0.1259495, 0.054738425, -930933.25, -109055.69, 0.0, 9.999913, 9.998037 
2.603953e+3, 2.2612491e+2, -795158.25, -724147.56, -10053.0625, -0.08819706, 0.027616538, -722751.75, 1210.9806, 0.0, 9.999437, 10.000269 
2.6035574e+3, 2.3611486e+2, -785781.9, -755837.94, -37172.117, 0.10114836, -0.26011303, -730735.9, -104683.73, 0.0, 9.999171, 9.999523 
2.603161e+3, 2.4610594e+2, -807351.44, -826557.5, 9383.494, 0.12698497, -0.2484291, -803528.06, -275388.25, 0.0, 9.998841, 9.99851 
2.6027638e+3, 2.5609776e+2, -838725.1, -832734.5, 27320.066, 0.024049094, -0.17759591, -808246.06, -378019.0, 0.0, 9.998112, 9.99817 
2.602366e+3, 2.660895e+2, -479924.53, -345092.3, -27802.607, -0.008233096, -0.14761057, -339584.38, -7280.0093, 0.0, 9.998807, 10.00049 
2.6019683e+3, 2.7608073e+2, -313550.47, -321537.6, 10099.018, 0.041833136, -0.32888702, -306684.06, -72305.234, 0.0, 9.999714, 9.999561 
2.6015732e+3, 2.8607094e+2, -412817.9, -576050.2, 209937.58, -0.061736785, -0.3280861, -269189.78, -132714.17, 0.0, 9.999456, 9.997243 
2.6011786e+3, 2.960608e+2, -531838.44, -647862.1, 132435.14, -0.3357545, -0.3422755, -445266.6, -406681.75, 0.0, 9.998226, 9.996695 
2.600784e+3, 3.0605313e+2, -290069.0, -306483.13, -99285.34, -0.24120283, -0.072818235, -198652.1, -198652.1, 0.0, 9.998795, 9.998403 
2.600384e+3, 3.1604365e+2, -310623.8, -170041.77, -128528.4, -0.4253552, -0.12931336, -93839.18, -93839.18, 0.0, 9.997973, 9.999734 
2.6178914e+3, 1.2660415e+2, -1180760.3, -1498703.6, -41630.96, -0.6146712, 0.21717697, -1175399.5, 523880.53, 0.1498842, 10.004457, 9.999488 
2.617503e+3, 1.3659309e+2, -1391174.9, -1629255.4, -52507.215, 0.2070828, -0.112555705, -1380109.0, 221269.75, 0.09979623, 10.002237, 9.998805 
2.6171082e+3, 1.4658535e+2, -1322494.1, -1359075.0, 8136.0186, 0.20302346, -0.071481794, -1320766.3, 182686.39, 0.05285716, 10.001154, 10.000482 
2.61671e+3, 1.5657908e+2, -1228176.6, -1347573.4, 38663.49, -0.1887067, -0.007534504, -1216750.0, 188766.27, 0.019694533, 10.001386, 9.999784 
2.6163158e+3, 1.665715e+2, -1065108.9, -987699.44, 41775.383, -0.16597277, -0.06256244, -969454.75, 338127.03, 0.004163879, 10.000871, 10.001798 
2.615923e+3, 1.7656311e+2, -1250861.8, -1180163.1, 101925.14, 0.06848642, -0.32291973, -1107631.5, 102018.66, 0.00030229846, 9.999535, 10.000473 
2.6155278e+3, 1.8655421e+2, -1200999.5, -1395833.9, 140546.63, -0.042537827, -0.30581817, -1127409.5, -15670.588, 0.0000010444409, 10.000436, 9.997889 
2.6151314e+3, 1.9654487e+2, -809907.44, -1191981.1, 91141.97, -0.33315083, -0.27407163, -789279.6, 224560.34, 0.0, 10.002543, 9.997632 
2.614736e+3, 2.0653677e+2, -618315.25, -798605.8, 3915.1265, -0.30063555, -0.17821509, -618230.25, 297691.94, 0.0, 10.002213, 9.999764 
2.6143414e+3, 2.1652918e+2, -841218.2, -939320.94, 52925.707, -0.13302985, -0.146207, -818108.9, -112.68857, 0.0, 10.0003195, 9.999068 
2.6139444e+3, 2.2652186e+2, -804376.75, -808760.9, 4821.355, -0.116323255, -0.007585717, -801272.56, -81203.06, 0.0, 9.999669, 9.999594 
2.6135466e+3, 2.3651446e+2, -752444.94, -794913.1, -15112.155, -0.15670983, 0.06059507, -747616.4, -125472.1, 0.0, 9.999549, 9.999104 
2.6131496e+3, 2.4650545e+2, -688802.0, -611769.7, -436.72076, -0.13735187, -0.0022916894, -611767.25, -87534.97, 0.0, 9.998953, 9.999933 
2.612753e+3, 2.5649562e+2, -719950.94, -632219.8, 63194.434, -0.11280693, -0.20570485, -599158.6, -172831.11, 0.0, 9.998256, 9.999493 
2.612357e+3, 2.664879e+2, -368670.03, -228478.2, 99687.86, -0.015262756, -0.21242526, -176709.0, 151689.69, 0.0, 9.999237, 10.001107 
2.6119623e+3, 2.7648103e+2, -88750.72, -163077.67, 141677.36, 0.1252898, -0.22524324, 20556.264, 251015.03, 0.0, 10.00095, 10.000081 
2.611565e+3, 2.8647166e+2, -293316.38, -459327.3, 245055.73, -0.12284373, -0.2276724, -117589.89, 14963.823, 0.0, 9.999977, 9.997804 
2.611166e+3, 2.9646125e+2, -574725.1, -591021.9, 258861.27, -0.6138879, -0.27477637, -323884.03, -289218.1, 0.0, 9.997538, 9.997432 
2.610772e+3, 3.064544e+2, -264064.22, -125011.03, 217361.9, -0.47964332, -0.031358514, 33673.133, 33673.133, 0.0, 9.998121, 10.000012 
2.61038e+3, 3.164445e+2, 242047.2, 349274.6, -225121.61, 0.040318042, -0.23445866, 527078.6, 527078.6, 0.0, 10.000498, 10.002114 
2.6278913e+3, 1.2699784e+2, -1390774.8, -1659357.4, -7064.8657, -0.192765, -0.040392827, -1390589.1, 304825.3, 0.13183984, 10.002956, 9.998891 
2.6274982e+3, 1.3698804e+2, -1415359.1, -1706057.8, -23469.635, 0.27500707, -0.16899799, -1413476.5, 184029.6, 0.08692974, 10.002263, 9.99827 
2.6271015e+3, 1.4698024e+2, -1263495.9, -1392899.3, 55396.664, 0.15824698, -0.07658657, -1243020.8, 256562.5, 0.045284748, 10.001745, 10.000011 
2.626704e+3, 1.5697336e+2, -1267820.6, -1398026.5, -14199.675, -0.19081755, -0.022532312, -1266290.0, 135363.45, 0.01638905, 10.001181, 9.999579 
2.626309e+3, 1.6696581e+2, -1055682.5, -1023243.94, -84080.91, -0.13584599, -0.062203612, -953832.25, 349887.63, 0.0032885466, 10.001089, 10.001465 
2.6259163e+3, 1.7695762e+2, -1059473.6, -1133267.9, -128457.945, 0.114206806, -0.2829927, -962718.8, 243068.34, 0.00021471751, 10.001017, 10.00011 
2.6255208e+3, 1.8694878e+2, -1239357.0, -1411165.8, -48767.508, -0.02723992, -0.2706506, -1226479.6, -118604.46, 0.00000047553752, 10.000176, 9.997902 
2.6251242e+3, 1.9693965e+2, -1404949.5, -1478323.5, -49741.848, -0.35689187, -0.23721087, -1379828.9, -369855.66, 0.0, 9.998505, 9.997605 
2.6247284e+3, 2.0693122e+2, -1060136.9, -940524.1, -134139.58, -0.35298818, -0.22144753, -853462.44, 58592.47, 0.0, 9.998861, 10.000418 
2.6243332e+3, 2.169232e+2, -950852.06, -943476.7, -132044.47, -0.15651841, -0.32088804, -815068.44, -940.1131, 0.0, 9.999376, 9.999501 
2.623936e+3, 2.2691683e+2, -830884.25, -823963.5, -113248.13, -0.1427821, -0.12006004, -714122.9, 2071.2195, 0.0, 9.999551, 9.99953 
2.6235375e+3, 2.3691116e+2, -891758.6, -873154.0, -86462.32, -0.22137436, 0.10779889, -795495.0, -177237.52, 0.0, 9.99871, 9.9989605 
2.6231402e+3, 2.4690269e+2, -605859.2, -465998.7, -51001.664, -0.211855, 0.0475084, -449376.0, 70963.65, 0.0, 9.999121, 10.000834 
2.6227435e+3, 2.5689262e+2, -557343.0, -501227.9, -24290.713, -0.13827077, -0.28677303, -492173.94, -69740.57, 0.0, 9.999188, 9.99994 
2.6223487e+3, 2.6688585e+2, -478574.5, -282347.13, 4117.219, -0.0033615867, -0.22372873, -282260.78, 42236.875, 0.0, 9.998534, 10.00104 
2.6219544e+3, 2.7688065e+2, -672277.44, -475602.8, -14391.142, 0.14820568, -0.09866667, -474555.38, -248007.95, 0.0, 9.997142, 9.999745 
2.6215556e+3, 2.86872e+2, -574053.94, -482758.8, 26486.076, -0.2150262, -0.08383969, -475631.25, -346994.9, 0.0, 9.997657, 9.998725 
2.6211542e+3, 2.9686144e+2, -479864.34, -479587.66, 90170.67, -0.80843604, -0.27113014, -389555.22, -358807.78, 0.0, 9.997981, 9.997972 
2.620762e+3, 3.0685604e+2, -195575.13, 17474.432, 85051.93, -0.5369001, 0.030400878, 47263.113, 47263.113, 0.0, 9.998206, 10.000924 
2.620369e+3, 3.168425e+2, -72598.85, 197762.61, 59489.395, -0.3685833, -0.6858737, 210273.5, 210273.5, 0.0, 9.99849, 10.002019 
2.6378933e+3, 1.2739186e+2, -1455358.1, -1740072.8, -58053.11, 0.403488, -0.3032971, -1443976.3, 247565.88, 0.115288235, 10.002706, 9.9984045 
2.6374936e+3, 1.3738343e+2, -1413242.5, -1792465.8, -28368.773, 0.30497435, -0.25879395, -1411132.0, 182492.6, 0.07524984, 10.002651, 9.997487 
2.637095e+3, 1.4737472e+2, -1324443.5, -1545209.1, 47205.67, 0.045319997, -0.1527426, -1314773.3, 180940.44, 0.038529176, 10.001905, 9.998824 
2.6366973e+3, 1.5736575e+2, -1363756.3, -1563420.3, 5352.8853, -0.2246793, -0.1962346, -1363612.8, 34193.664, 0.013527696, 10.001071, 9.998473 
2.6363024e+3, 1.6735804e+2, -1131770.9, -1195903.5, -62616.035, -0.16219607, -0.13465628, -1093488.0, 206392.58, 0.0025719018, 10.001162, 10.00024 
2.635909e+3, 1.7735073e+2, -1100798.1, -1248121.9, -97978.695, 0.01558021, -0.14276709, -1051879.9, 150067.84, 0.00015054179, 10.00113, 9.999268 
2.6355135e+3, 1.8734245e+2, -1163932.1, -1273177.5, -93525.41, -0.0012329004, -0.089734584, -1110246.8, -6218.1094, 0.0000001940375, 10.000266, 9.998801 
2.6351175e+3, 1.9733371e+2, -1312775.4, -1333181.6, -64226.457, -0.14900069, -0.102980666, -1257946.6, -251830.22, 0.0, 9.998672, 9.998528 
2.6347208e+3, 2.0732468e+2, -1026715.5, -888195.44, -93776.53, -0.24313708, -0.20837368, -840875.06, 67323.76, 0.0, 9.998949, 10.000718 
2.6343238e+3, 2.1731563e+2, -825330.1, -827223.25, -90072.37, -0.3135351, -0.43450803, -736199.4, 74079.07, 0.0, 9.999958, 10.000024 
2.6339275e+3, 2.2730838e+2, -697892.5, -652572.9, -133341.63, -0.19655679, -0.4037409, -539979.44, 172369.36, 0.0, 9.999962, 10.000525 
2.633531e+3, 2.3730199e+2, -703046.75, -667221.4, -82974.47, -0.04526993, -0.32802212, -600248.1, 14166.27, 0.0, 9.99945, 10.000031 
2.6331344e+3, 2.4729513e+2, -493178.78, -374852.94, -31096.02, 0.029151846, -0.2968637, -367178.66, 149302.92, 0.0, 9.999702, 10.001183 
2.632738e+3, 2.572878e+2, -402929.84, -409436.72, -22482.734, 0.0679674, -0.37476534, -383466.38, 35085.203, 0.0, 10.000117, 10.000123 
2.6323396e+3, 2.6728186e+2, -577738.0, -509252.38, -117049.14, -0.00249212, -0.14766462, -421539.97, -100922.67, 0.0, 9.9985695, 9.999489 
2.6319405e+3, 2.7727658e+2, -852416.06, -639424.25, -121163.81, -0.1019529, 0.13060506, -584606.7, -361927.4, 0.0, 9.996152, 9.999117 
2.631546e+3, 2.8726807e+2, -528569.0, -278231.9, 30361.465, -0.1293507, 0.07006487, -274602.25, -149838.33, 0.0, 9.997084, 10.000444 
2.631152e+3, 2.9725808e+2, -197393.02, -215469.66, 66011.8, -0.1841921, -0.20369384, -139803.66, -112943.836, 0.0, 9.999268, 9.9992 
2.6307565e+3, 3.072527e+2, -279554.78, -353054.03, -105457.18, -0.17952655, 0.20618707, -204627.42, -204627.42, 0.0, 9.998976, 9.998057 
2.6303607e+3, 3.172418e+2, -173018.42, 355551.9, -244468.64, -0.16544561, 0.027288456, 451282.78, 451282.78, 0.0, 9.996746, 10.00401 
2.647887e+3, 1.2778899e+2, -1255166.4, -1638254.5, -73584.336, 0.17975783, -0.19116582, -1241518.4, 446133.75, 0.10017185, 10.004125, 9.998502 
2.647488e+3, 1.3777976e+2, -1089240.0, -1598213.9, -68680.4, 0.1441562, -0.2175405, -1080135.1, 509605.22, 0.06469282, 10.004928, 9.997715 
2.6470894e+3, 1.477706e+2, -1135159.9, -1501873.0, -9804.454, -0.0074991165, -0.15219203, -1134898.0, 356934.88, 0.032530583, 10.003453, 9.998359 
2.6466915e+3, 1.5776107e+2, -1435072.0, -1673516.3, -10713.082, -0.1554934, -0.19674258, -1434591.6, -40660.81, 0.011066901, 10.000892, 9.997796 
2.6462966e+3, 1.6775288e+2, -1215748.5, -1360429.0, 22615.324, -0.08975702, -0.091521055, -1212295.9, 83717.766, 0.0019930317, 10.001096, 9.999141 
2.645903e+3, 1.7774524e+2, -1072728.4, -1320560.1, -40074.203, 0.046265747, -0.012155848, -1066409.6, 131680.45, 0.00010503105, 10.001675, 9.998523 
2.6455066e+3, 1.8773685e+2, -981435.3, -1051682.0, -50517.44, 0.0047426173, -0.013729939, -955030.94, 145138.39, 0.00000008640195, 10.001012, 9.999924 
2.6451093e+3, 1.977281e+2, -1149017.6, -1187422.3, -9872.88, -0.085459016, -0.12013817, -1146628.1, -144377.45, 0.0, 9.999537, 9.999109 
2.6447132e+3, 2.0771907e+2, -938503.56, -864840.06, 17845.14, -0.15778662, -0.23020579, -860744.75, 43587.164, 0.0, 9.999666, 10.000533 
2.644317e+3, 2.1770993e+2, -904911.5, -902768.94, -54255.82, -0.21637733, -0.44231766, -849573.8, -43160.92, 0.0, 9.999592, 9.999697 
2.6439202e+3, 2.277019e+2, -754908.0, -667814.7, -175561.63, -0.12828664, -0.4836695, -530479.6, 178010.17, 0.0, 9.999532, 10.000611 
2.6435232e+3, 2.3769455e+2, -863841.3, -746119.9, -185560.11, 0.038156487, -0.53859246, -610308.7, 253.96774, 0.0, 9.99839, 9.999997 
2.6431268e+3, 2.4768849e+2, -623037.2, -415256.66, -119722.99, 0.11885222, -0.4511331, -360632.63, 151988.6, 0.0, 9.998737, 10.001372 
2.6427308e+3, 2.5768283e+2, -675267.75, -590695.9, -142459.75, 0.16664839, -0.39871693, -484378.7, -69702.555, 0.0, 9.998504, 9.999667 
2.6423302e+3, 2.6767698e+2, -560780.25, -605127.56, -224672.28, -0.031944167, -0.09270556, -357190.06, -40444.527, 0.0, 9.999209, 9.998489 
2.6419282e+3, 2.776709e+2, -529002.1, -592656.94, -136803.75, -0.28964025, 0.190391, -420372.22, -201550.89, 0.0, 9.998916, 9.998101 
2.6415375e+3, 2.876625e+2, -269965.3, -59495.664, 35345.97, -0.008628369, 0.12986511, -53718.3, 67184.55, 0.0, 9.99854, 10.001206 
2.6411486e+3, 2.9765347e+2, -462466.97, -367200.22, -48245.094, 0.36067483, -0.14418745, -347035.9, -324051.78, 0.0, 9.997637, 9.998925 
2.6407486e+3, 3.0764705e+2, -683032.25, -795903.9, -199636.56, -0.043376107, 0.28909093, -532007.8, -532007.8, 0.0, 9.997352, 9.995744 
2.6403463e+3, 3.1762865e+2, -477600.16, 15362.148, -59426.76, -0.52378863, -0.45413262, 22424.875, 22424.875, 0.0, 9.995594, 10.002181 
2.6578778e+3, 1.2818708e+2, -1334321.5, -1634202.5, -67214.03, -0.39262268, 0.064564876, -1319945.6, 363811.2, 0.086430125, 10.003385, 9.998829 
2.657483e+3, 1.3817622e+2, -1199673.1, -1646384.4, -50951.984, -0.1362556, -0.1723406, -1193935.1, 391921.72, 0.055199515, 10.004058, 9.997795 
2.6570842e+3, 1.48167e+2, -1215196.6, -1543852.6, -90965.08, -0.102081224, -0.11684387, -1191699.4, 296248.53, 0.027235242, 10.002925, 9.99831 
2.6566854e+3, 1.581579e+2, -1463846.5, -1730797.5, -23001.943, -0.12070626, -0.10282406, -1461879.0, -71839.09, 0.0089680515, 10.0008955, 9.997393 
2.6562908e+3, 1.681492e+2, -1270277.1, -1486493.6, 81156.516, -0.03262324, 0.026215661, -1243204.9, 48926.14, 0.0015322798, 10.001213, 9.998189 
2.6558974e+3, 1.7814063e+2, -1072498.5, -1336399.6, 2950.3906, 0.044724166, 0.10146144, -1072465.5, 121755.14, 0.00007382683, 10.001751, 9.99837 
2.6554993e+3, 1.8813169e+2, -879484.75, -864533.56, -79138.93, -0.09168391, -0.030295905, -792517.94, 303782.63, 0.000000036839044, 10.001104, 10.001169 
2.6551e+3, 1.9812264e+2, -1059047.0, -1056699.3, -10137.472, -0.29353565, -0.27588803, -1047667.94, -49289.58, 0.0, 9.999756, 9.999899 
2.6547056e+3, 2.081143e+2, -961542.75, -962818.8, 44234.523, -0.13710135, -0.29561546, -917941.7, -17486.082, 0.0, 9.999897, 9.999735 
2.6543126e+3, 2.181062e+2, -848801.4, -962237.8, -29873.41, 0.06423949, -0.31381974, -841415.2, -38882.65, 0.0, 10.000314, 9.998942 
2.6539132e+3, 2.2809799e+2, -780411.8, -798359.56, -200442.94, -0.015093248, -0.2808148, -588741.94, 115873.52, 0.0, 9.99983, 9.999581 
2.6535124e+3, 2.3808995e+2, -789991.0, -766808.25, -192994.6, -0.15958472, -0.2998733, -585057.25, 21640.766, 0.0, 9.999064, 9.999545 
2.6531154e+3, 2.480831e+2, -579463.6, -380293.78, -123308.64, -0.13121918, -0.28665233, -321378.9, 187383.38, 0.0, 9.998938, 10.001536 
2.6527196e+3, 2.580767e+2, -568927.1, -487201.25, -129270.62, -0.07221695, -0.30647573, -392488.88, 18331.766, 0.0, 9.998945, 10.000175 
2.6523212e+3, 2.6806942e+2, -383917.72, -441969.63, -176088.69, -0.14236505, -0.20764972, -234478.73, 78417.445, 0.0, 10.000029, 9.999234 
2.6519224e+3, 2.7806184e+2, -165724.02, -387997.2, -96568.664, -0.2104667, -0.124180384, -129630.01, 85347.875, 0.0, 10.001192, 9.99843 
2.6515287e+3, 2.880527e+2, -228303.27, -315297.6, -51835.785, -0.070149526, -0.12237965, -204132.47, -87061.9, 0.0, 9.999929, 9.998827 
2.6511356e+3, 2.980435e+2, -469876.94, -428493.22, -196166.02, 0.02670248, -0.18504028, -251930.78, -232769.16, 0.0, 9.997744, 9.998469 
2.6507372e+3, 3.0803615e+2, -607343.4, -397675.1, -262683.1, -0.06762876, -0.04232142, -219679.61, -219679.61, 0.0, 9.99625, 9.999039 
2.6503372e+3, 3.1802574e+2, -314849.06, 265679.4, 196644.8, -0.26227042, -0.2587743, 326018.22, 326018.22, 0.0, 9.995838, 10.003822 
2.6678738e+3, 1.2858157e+2, -1291722.4, -1602995.4, -141891.9, -0.38900793, 0.055051215, -1236750.3, 443145.53, 0.07399981, 10.003511, 9.998981 
2.667478e+3, 1.385713e+2, -1424007.4, -1742503.8, -175269.02, -0.12048171, -0.14112458, -1346445.0, 235544.34, 0.046711504, 10.002261, 9.998036 
2.667079e+3, 1.4856216e+2, -1280810.1, -1504425.5, -176204.06, -0.087924436, -0.13474087, -1183934.3, 300141.9, 0.022592498, 10.002106, 9.9990225 
2.6666793e+3, 1.5855342e+2, -1276653.3, -1587338.0, -72768.84, -0.06981584, -0.14563364, -1260453.9, 125707.2, 0.0071954923, 10.001914, 9.997927 
2.666285e+3, 1.6854441e+2, -1186906.5, -1445023.4, 120770.62, -0.0075261444, -0.071431786, -1139212.0, 149041.17, 0.001170623, 10.001745, 9.998244 
2.6658913e+3, 1.7853546e+2, -1190408.6, -1403841.6, 68069.305, 0.06526645, -0.03165785, -1170547.6, 19797.762, 0.00005271245, 10.000998, 9.998281 
2.6654923e+3, 1.8852697e+2, -1006873.75, -972541.8, -88724.92, -0.07554197, -0.084404215, -899337.5, 193086.75, 0.000000014947995, 10.000432, 10.000765 
2.6650923e+3, 1.985186e+2, -1146419.4, -1121583.6, -112189.25, -0.22279096, -0.22819199, -1021127.06, -26628.422, 0.0, 9.999289, 9.9996805 
2.664698e+3, 2.085106e+2, -1067010.1, -969119.4, 30912.092, -0.056946937, -0.24825336, -960175.1, -63602.473, 0.0, 9.999027, 10.000075 
2.6643056e+3, 2.1850286e+2, -1181879.8, -1142801.4, 22815.271, 0.19696558, -0.25504425, -1132302.0, -333656.03, 0.0, 9.998202, 9.99869 
2.6639053e+3, 2.2849487e+2, -895536.25, -899043.6, -71373.984, 0.039728772, -0.15760404, -825894.44, -125164.76, 0.0, 9.999307, 9.999101 
2.6635036e+3, 2.3848672e+2, -761824.94, -818989.0, -44937.945, -0.19624162, -0.1334028, -737149.56, -134333.44, 0.0, 9.999601, 9.9989195 
2.663106e+3, 2.4847917e+2, -554472.3, -389473.25, -3261.7258, -0.2188905, -0.14362572, -389408.78, 115477.234, 0.0, 9.999251, 10.001306 
2.6627094e+3, 2.5847167e+2, -775231.25, -635961.5, -31282.563, -0.19134183, -0.24436614, -629257.56, -222304.89, 0.0, 9.997819, 9.999683 
2.6623124e+3, 2.6846272e+2, -572913.44, -484126.28, -69790.22, -0.1824186, -0.3160033, -445806.72, -136768.56, 0.0, 9.998623, 9.999574 
2.6619157e+3, 2.784535e+2, -524672.94, -620210.3, -51039.727, -0.13839376, -0.42731625, -502535.25, -291407.03, 0.0, 9.999086, 9.997829 
2.66152e+3, 2.8844425e+2, -379725.2, -543349.1, 6477.4795, -0.1499733, -0.32113147, -379469.16, -266244.13, 0.0, 9.999677, 9.997326 
2.6611227e+3, 2.98435e+2, -367715.7, -445087.94, -39845.973, -0.30729157, -0.24168357, -350865.2, -335542.38, 0.0, 9.998837, 9.9978075 
2.6607266e+3, 3.0842638e+2, -156981.56, 119794.46, -187852.0, -0.0012550994, -0.36314183, 214729.44, 214729.44, 0.0, 9.9981165, 10.001655 
2.6603281e+3, 3.1842425e+2, -145675.73, 453342.16, 288623.8, -0.05308217, -0.021433055, 569777.06, 569777.06, 0.0, 9.996673, 10.0046835 
2.677871e+3, 1.2897484e+2, -1485861.1, -1664741.3, -162005.03, -0.30373013, -0.0067785117, -1390246.8, 285799.5, 0.06278203, 10.002005, 9.9992485 
2.677473e+3, 1.3896559e+2, -1457864.5, -1725173.5, -125645.83, -0.087280385, -0.12581103, -1408078.6, 170051.31, 0.039146993, 10.001892, 9.998326 
2.6770732e+3, 1.4895663e+2, -1217698.1, -1354700.6, -123353.086, -0.084287085, -0.17763984, -1145102.3, 335109.6, 0.018543638, 10.002084, 10.000036 
2.6766735e+3, 1.589478e+2, -1205102.5, -1448667.0, -25468.21, -0.10724697, -0.2893257, -1202467.9, 179824.97, 0.005710664, 10.001974, 9.998843 
2.676279e+3, 1.6893873e+2, -1116296.6, -1312644.8, 119256.08, -0.060234908, -0.3113728, -1060003.4, 224376.67, 0.0008890518, 10.00183, 9.99909 
2.6758844e+3, 1.7892973e+2, -1162739.9, -1390491.4, 57949.434, -0.029296635, -0.34141344, -1148843.1, 37624.89, 0.000037964888, 10.001198, 9.998256 
2.6754856e+3, 1.8892252e+2, -1103746.4, -1204873.4, -108056.57, -0.013672827, -0.14984031, -1035008.25, 53535.684, 0.0000000057994387, 10.000575, 9.999098 
2.6750866e+3, 1.9891569e+2, -1117643.1, -1130073.8, -106704.52, -0.029167099, 0.0058679627, -1016973.06, -26357.85, 0.0, 9.99956, 9.999491 
2.6746902e+3, 2.0890796e+2, -916830.1, -694207.8, 33663.992, -0.015323462, -0.10353664, -689228.7, 203453.92, 0.0, 9.999179, 10.001895 
2.6742947e+3, 2.1890004e+2, -972796.44, -884219.4, 55432.594, -0.007950131, -0.29118448, -857555.5, -62804.695, 0.0, 9.998892, 10.000144 
2.6738968e+3, 2.288927e+2, -811264.75, -820035.75, 986.1713, -0.015766736, -0.19408496, -811155.2, -114326.63, 0.0, 9.999682, 9.999484 
2.673498e+3, 2.3888542e+2, -602462.5, -722333.2, 16592.908, -0.046168614, -0.09233983, -600208.06, -1299.8508, 0.0, 10.00055, 9.999141 
2.6731e+3, 2.4887742e+2, -533236.2, -471723.47, -11484.038, -0.026054136, -0.09721437, -469649.4, 31333.105, 0.0, 9.999734, 10.000538 
2.6727018e+3, 2.588691e+2, -707033.4, -657245.0, -3840.0928, -0.02832695, -0.18798096, -656950.56, -253893.36, 0.0, 9.998434, 9.999264 
2.6723042e+3, 2.6885813e+2, -611290.1, -590087.7, -8867.462, -0.09729623, -0.3922938, -586868.0, -281707.25, 0.0, 9.998676, 9.99885 
2.6719075e+3, 2.7884704e+2, -442662.56, -492884.4, 8155.1704, -0.132645, -0.6208672, -441371.5, -234104.72, 0.0, 9.999203, 9.998654 
2.6715133e+3, 2.888407e+2, -154386.78, -158311.11, 117693.484, -0.05822032, -0.4137191, -38639.1, 70693.016, 0.0, 9.999999, 9.999841 
2.6711178e+3, 2.9883486e+2, -9567.799, -152320.72, 111320.94, -0.09212307, -0.1793991, 51293.977, 62688.008, 0.0, 10.000675, 9.998969 
2.6707178e+3, 3.0882442e+2, 12026.447, -25567.05, -110548.14, -0.05431117, -0.36538118, 105364.48, 105364.48, 0.0, 10.000178, 9.999701 
2.6703176e+3, 3.1881925e+2, 43576.742, 320231.88, 277998.66, -0.22294565, -0.11421188, 492416.4, 492416.4, 0.0, 9.998745, 10.002817 
2.6878673e+3, 1.2937205e+2, -1554223.3, -1488090.3, 7041.265, 0.0159943, -0.010473835, -1487348.9, 184804.02, 0.0526776, 10.000387, 10.001358 
2.6874694e+3, 1.3936421e+2, -1314915.3, -1553593.9, 63479.957, 0.138457, -0.14349149, -1299082.1, 275134.53, 0.03242507, 10.002425, 9.9992485 
2.687069e+3, 1.4935517e+2, -1171483.0, -1442106.8, 17068.38, 0.020803528, -0.14776403, -1170410.8, 305891.75, 0.015032841, 10.00285, 9.999043 
2.686669e+3, 1.5934576e+2, -1164126.9, -1505996.8, 10421.637, -0.045836523, -0.22212209, -1163809.5, 214583.88, 0.0044764117, 10.002587, 9.998153 
2.6862735e+3, 1.6933571e+2, -1067379.5, -1326929.3, 81990.22, -0.028009612, -0.29053915, -1043648.9, 236840.22, 0.00066900725, 10.002355, 9.998746 
2.6858783e+3, 1.793259e+2, -1123415.8, -1400017.6, -62815.047, 0.007659319, -0.37308794, -1109819.1, 72764.02, 0.000027210404, 10.001592, 9.998015 
2.685479e+3, 1.8931852e+2, -1112395.4, -1233577.9, -158718.69, 0.048651714, -0.18373352, -1003095.7, 81565.32, 0.000000001728097, 10.000633, 9.9988785 
2.6850793e+3, 1.9931197e+2, -1199545.8, -1186195.5, -47746.387, 0.11086785, 0.024982356, -1144659.9, -157928.33, 0.0, 9.999091, 9.99934 
2.684682e+3, 2.0930396e+2, -711325.94, -588652.6, 35469.26, -0.005617078, -0.11690364, -579135.5, 309666.66, 0.0, 10.000539, 10.001982 
2.684286e+3, 2.1929584e+2, -669791.56, -760601.7, -87729.305, -0.110688, -0.3378208, -616413.8, 174458.34, 0.0, 10.001087, 9.999952 
2.683889e+3, 2.2928895e+2, -740003.06, -782983.3, -175229.13, -0.0058273776, -0.21400069, -584951.2, 107995.12, 0.0, 10.000186, 9.999489 
2.6834917e+3, 2.3928231e+2, -946799.25, -928350.25, -164682.2, 0.13756475, -0.068901956, -772634.4, -177614.11, 0.0, 9.998424, 9.998747 
2.6830932e+3, 2.4927457e+2, -437905.2, -447573.44, -131379.06, 0.116971985, -0.051948383, -311271.34, 185820.98, 0.0, 10.000573, 10.000234 
2.6826945e+3, 2.592663e+2, -308426.03, -555081.5, -90610.49, 0.05981483, -0.12546632, -278717.84, 120449.19, 0.0, 10.001639, 9.998397 
2.682296e+3, 2.6925445e+2, -447535.1, -558274.06, -56929.918, -0.048908517, -0.36664563, -423489.25, -122211.46, 0.0, 10.000075, 9.998347 
2.6818988e+3, 2.7924243e+2, -696090.4, -599770.1, 14243.202, -0.115624174, -0.66890305, -597708.06, -394316.94, 0.0, 9.997453, 9.998755 
2.681506e+3, 2.892379e+2, -253763.64, 4786.9814, 74438.71, 0.01644822, -0.42870268, 24686.828, 130122.42, 0.0, 9.998422, 10.001711 
2.6811117e+3, 2.9923436e+2, -291829.97, -300974.66, -41443.555, 0.08717184, -0.1357075, -254707.3, -247236.03, 0.0, 9.998868, 9.998805 
2.6807088e+3, 3.092225e+2, -162515.6, -354918.5, -260319.13, -0.17412943, -0.32397747, 18809.11, 18809.11, 0.0, 10.00016, 9.997381 
2.680309e+3, 3.1921217e+2, -129717.79, -30393.283, 154923.13, -0.23247083, -0.38723722, 82632.87, 82632.87, 0.0, 9.998921, 10.0002575 
2.697863e+3, 1.2977031e+2, -1363650.1, -1105071.6, 59492.605, 0.2751976, -0.0061157057, -1092040.6, 576205.7, 0.04361902, 10.000568, 10.003922 
2.6974663e+3, 1.3976438e+2, -1347696.0, -1509912.5, 68332.945, 0.31172422, -0.18757434, -1322748.0, 247535.6, 0.026486209, 10.001982, 9.999735 
2.697065e+3, 1.4975543e+2, -1323083.4, -1716167.8, 6.942572, 0.1077173, -0.07441471, -1323083.4, 149291.64, 0.012009438, 10.002677, 9.997235 
2.696664e+3, 1.5974551e+2, -1254817.5, -1722795.8, 20409.834, -0.048821967, -0.019388704, -1253929.0, 120549.67, 0.003455713, 10.002722, 9.996586 
2.6962686e+3, 1.6973414e+2, -1125197.4, -1477065.0, 90867.83, 0.0038355328, -0.1082122, -1103116.9, 173472.64, 0.00049606664, 10.002466, 9.997652 
2.695873e+3, 1.7972305e+2, -1101504.3, -1406711.1, -64060.438, 0.037026275, -0.22714546, -1088603.8, 90092.27, 0.00001910138, 10.001802, 9.997863 
2.695472e+3, 1.8971448e+2, -1021087.0, -1070914.0, -192828.53, 0.05414329, -0.2339921, -851569.2, 229209.89, 0.0000000002885943, 10.000739, 9.99993 
2.6950705e+3, 1.9970663e+2, -1142431.0, -1170303.6, -12037.618, 0.04557252, -0.22893243, -1137952.0, -155096.44, 0.0, 9.999494, 9.99925 
2.6946744e+3, 2.0969792e+2, -771815.25, -816908.44, 117391.18, -0.097206816, -0.31227073, -674825.06, 210113.39, 0.0, 10.0009165, 10.000256 
2.694279e+3, 2.196894e+2, -587827.56, -834167.44, -83825.695, -0.22353163, -0.40599754, -562008.94, 225011.14, 0.0, 10.0020895, 9.998961 
2.6938817e+3, 2.2968224e+2, -714779.8, -819236.94, -254912.48, 0.016355922, -0.24918565, -506800.38, 182297.81, 0.0, 10.000537, 9.999083 
2.693484e+3, 2.396756e+2, -815240.6, -788733.6, -160119.77, 0.24895795, -0.07915038, -641319.75, -50148.094, 0.0, 9.998951, 9.999451 
2.6930866e+3, 2.4966921e+2, -260395.14, -265573.38, -28065.375, 0.10750523, -0.015830737, -234799.7, 258432.28, 0.0, 10.001325, 10.001152 
2.6926887e+3, 2.5966227e+2, 65926.22, -264886.84, -91023.35, -0.09309379, -0.022411773, 89317.38, 484613.06, 0.0, 10.003648, 9.999439 
2.6922885e+3, 2.6965258e+2, -253715.0, -386971.9, -179774.9, -0.10485292, -0.12599908, -128618.734, 168767.17, 0.0, 10.000993, 9.999118 
2.691889e+3, 2.796426e+2, -629601.94, -543070.2, -8307.064, -0.07117531, -0.27057147, -542279.94, -342800.28, 0.0, 9.997716, 9.999026 
2.6914957e+3, 2.896351e+2, -372875.3, -183104.11, 92756.71, -0.052400295, -0.25407773, -145298.02, -43747.652, 0.0, 9.998077, 10.000604 
2.6911014e+3, 2.9962802e+2, -310028.72, -414760.03, -88545.31, -0.086059295, -0.20634307, -259523.4, -255904.22, 0.0, 9.999106, 9.997906 
2.690701e+3, 3.0961582e+2, -140071.8, -465103.28, -284843.88, -0.23667876, -0.33142135, 25356.65, 25356.65, 0.0, 10.000737, 9.996388 
2.6903033e+3, 3.1960782e+2, 175683.02, 114270.51, -19279.166, -0.10712385, -0.06986716, 181233.63, 181233.63, 0.0, 10.000866, 10.000352 
2.707856e+3, 1.3016534e+2, -1159122.4, -1164852.9, 21123.445, 0.14870082, -0.29866245, -1140670.8, 523691.84, 0.035549812, 10.002662, 10.002481 
2.70746e+3, 1.4016072e+2, -1379646.5, -1608593.8, -114143.65, 0.27689615, -0.20865169, -1332463.1, 233933.56, 0.021269772, 10.002014, 9.999094 
2.707059e+3, 1.5015168e+2, -1258992.5, -1650112.6, -108062.01, 0.047210347, -0.12903084, -1231122.1, 237368.23, 0.009415533, 10.002911, 9.997622 
2.7066588e+3, 1.6014183e+2, -1102420.3, -1612100.1, -21869.191, -0.13307738, -0.103418544, -1101483.6, 269110.25, 0.0026134893, 10.003562, 9.996963 
2.7062628e+3, 1.7013161e+2, -1009938.4, -1393969.1, 90843.55, -0.09596205, -0.11445564, -989533.25, 283160.84, 0.0003600524, 10.003086, 9.997932 
2.7058664e+3, 1.8012148e+2, -1082407.3, -1372757.0, -15097.349, -0.026424995, -0.15775661, -1081624.4, 93167.78, 0.000012952271, 10.001846, 9.998067 
2.705465e+3, 1.9011214e+2, -946035.7, -1021659.75, -171754.56, 0.08090282, -0.25290558, -807980.2, 268901.03, 0.000000000007316074, 10.001236, 10.000015 
2.7050638e+3, 2.001032e+2, -1090302.3, -1179186.4, 5202.7397, 0.14866298, -0.35138324, -1089998.8, -111032.15, 0.0, 10.000018, 9.998947 
2.7046674e+3, 2.100953e+2, -1121900.3, -1029491.2, 217738.13, -0.037747536, -0.31366616, -853109.25, 27935.08, 0.0, 9.998761, 9.999816 
2.7042717e+3, 2.2008745e+2, -1327457.3, -1266495.1, 89228.78, -0.18966661, -0.27346227, -1202684.8, -419561.72, 0.0, 9.997397, 9.998244 
2.7038738e+3, 2.3007874e+2, -873291.75, -921816.0, -59961.242, 0.018311143, -0.22764985, -832870.0, -147655.67, 0.0, 9.999615, 9.998778 
2.703476e+3, 2.4007072e+2, -640058.94, -768342.3, 53061.543, 0.2472266, -0.15164556, -620955.94, -33656.805, 0.0, 10.000471, 9.998851 
2.7030793e+3, 2.5006437e+2, -530258.25, -406998.16, 114893.62, 0.08105123, -0.050358236, -338248.72, 151113.13, 0.0, 9.999553, 10.001004 
2.7026823e+3, 2.6005813e+2, -785195.75, -681678.6, -88320.25, -0.1217319, 0.01531931, -631068.2, -239646.08, 0.0, 9.997926, 9.999307 
2.702281e+3, 2.7005044e+2, -409977.4, -372623.34, -243067.34, -0.14149171, 0.05059883, -147516.53, 145978.03, 0.0, 9.999598, 9.999866 
2.7018797e+3, 2.8004223e+2, -357924.78, -460662.75, -29134.018, -0.111099765, 0.028260035, -350238.16, -154666.61, 0.0, 9.999897, 9.9985285 
2.7014855e+3, 2.900322e+2, -308476.44, -290318.2, 113357.414, -0.15559785, -0.10701236, -185676.88, -88009.805, 0.0, 9.999238, 9.999255 
2.7010912e+3, 3.0002186e+2, -606596.0, -688986.6, -27252.45, -0.2609417, -0.25416848, -598397.5, -598397.5, 0.0, 9.997734, 9.996676 
2.700693e+3, 3.1001022e+2, -494691.2, -644966.2, -104294.414, -0.26118758, -0.2895456, -441286.97, -441286.97, 0.0, 9.998405, 9.996258 
2.7002966e+3, 3.200047e+2, -160959.11, 44617.73, 86908.94, -0.09587769, 0.2046012, 76434.74, 76434.74, 0.0, 9.9983, 10.001097 
2.717849e+3, 1.305597e+2, -1389014.1, -1565637.9, -23901.809, -0.13029109, -0.56781363, -1385836.8, 274648.2, 0.028414832, 10.002381, 9.999741 
2.7174523e+3, 1.4055543e+2, -1527439.5, -1768780.4, -67229.12, 0.05520952, -0.22767244, -1509975.6, 52554.707, 0.016713178, 10.00142, 9.99825 
2.7170524e+3, 1.50546e+2, -1219352.1, -1470643.1, -18483.879, -0.15010867, -0.26826882, -1217999.8, 246626.47, 0.0071980846, 10.002549, 9.998991 
2.7166528e+3, 1.6053642e+2, -1062500.5, -1445504.9, 30187.3, -0.35943544, -0.3469725, -1060135.9, 306587.94, 0.0019202423, 10.003242, 9.998242 
2.7162558e+3, 1.7052878e+2, -955440.8, -1228190.5, 88043.984, -0.32775086, -0.22132592, -929489.3, 339309.34, 0.00025324232, 10.002898, 9.999149 
2.7158585e+3, 1.8052088e+2, -1061917.9, -1325895.6, -45987.223, -0.24881439, -0.12896816, -1054135.9, 116739.69, 0.000008369746, 10.001816, 9.998406 
2.7154583e+3, 1.9051103e+2, -1000937.6, -1118897.6, -182474.4, 0.085679196, -0.23427384, -868148.1, 204824.27, 0.0, 10.001171, 9.99938 
2.715058e+3, 2.0050195e+2, -1039970.44, -1103084.6, -1422.8262, 0.32671896, -0.30577484, -1039938.4, -64876.684, 0.0, 10.0001335, 9.999414 
2.7146605e+3, 2.1049672e+2, -1039093.5, -877913.6, 184515.25, 0.14887476, -0.084975846, -757156.56, 119957.24, 0.0, 9.998842, 10.000831 
2.714263e+3, 2.2049086e+2, -1193745.9, -1110794.1, 138583.45, -0.07963901, 0.07510304, -1007613.1, -228441.39, 0.0, 9.997877, 9.999093 
2.7138647e+3, 2.3047948e+2, -801101.7, -871591.9, 81171.98, -0.09773543, -0.1650146, -747853.25, -66571.54, 0.0, 10.000001, 9.99897 
2.713467e+3, 2.4046838e+2, -507599.25, -789772.9, 104325.375, -0.069923125, -0.36616787, -473217.34, 110173.06, 0.0, 10.001687, 9.998123 
2.7130705e+3, 2.504604e+2, -708009.25, -734465.06, 50119.676, 0.024349803, -0.24382576, -669401.25, -183926.83, 0.0, 9.999334, 9.99888 
2.7126735e+3, 2.6045305e+2, -913641.75, -774238.56, -67894.83, 0.04341081, -0.10328452, -746636.44, -359085.7, 0.0, 9.997123, 9.999056 
2.712272e+3, 2.7044576e+2, -353627.1, -290273.97, -116868.336, -0.19588, -0.056651752, -200865.39, 88754.375, 0.0, 9.999682, 10.000419 
2.711871e+3, 2.8043813e+2, -42300.03, -292666.0, -2866.5896, -0.38007405, -0.05238277, -42267.215, 149425.89, 0.0, 10.001948, 9.998687 
2.7114767e+3, 2.9042825e+2, -227249.64, -347454.38, 44802.168, -0.28200015, -0.0977577, -212388.48, -118594.85, 0.0, 10.0002165, 9.998396 
2.7110818e+3, 3.0041865e+2, -425215.25, -391995.8, -51762.42, -0.21071401, -0.13623704, -354243.5, -354243.5, 0.0, 9.998005, 9.998595 
2.7106854e+3, 3.1041175e+2, -418753.44, -200859.53, -12495.903, 0.07357557, -0.008004537, -200145.25, -200145.25, 0.0, 9.997096, 9.999991 
2.7102864e+3, 3.204059e+2, -82376.51, 377161.16, 407801.88, -0.11223769, 0.15896572, 615469.3, 615469.3, 0.0, 9.997473, 10.003817 
2.7278468e+3, 1.3095926e+2, -1321549.4, -1692259.5, -82682.695, 0.16561927, -0.4348889, -1303944.0, 352629.53, 0.022191023, 10.00342, 9.998426 
2.7274445e+3, 1.4095329e+2, -1599001.0, -1752874.9, -18696.588, -0.05244163, -0.14241461, -1596761.9, -38120.008, 0.012784307, 10.000617, 9.998792 
2.7270472e+3, 1.509447e+2, -1216569.4, -1284242.4, 135403.69, -0.07751704, -0.24601564, -1110838.4, 349882.97, 0.00532732, 10.001718, 10.000718 
2.7266505e+3, 1.609359e+2, -1136874.1, -1422260.0, 147522.25, -0.07647302, -0.35842314, -1074325.5, 288478.2, 0.0013580795, 10.002474, 9.99879 
2.726252e+3, 1.709277e+2, -1125527.8, -1331969.5, 96451.805, -0.15147316, -0.27591076, -1087477.6, 177408.58, 0.00016970174, 10.001865, 9.998939 
2.725853e+3, 1.8091966e+2, -1230893.5, -1436974.1, -106891.52, -0.15521033, -0.16871122, -1185464.6, -18497.422, 0.0000049540654, 10.000788, 9.998155 
2.7254513e+3, 1.9091077e+2, -1099820.1, -1196620.1, -207602.89, 0.09809566, -0.16633058, -935050.0, 134006.56, 0.0, 10.00059, 9.999131 
2.7250504e+3, 2.009022e+2, -1104824.6, -1180127.9, -4907.728, 0.3483081, -0.15855525, -1104506.1, -133364.06, 0.0, 9.9999075, 9.9989805 
2.724653e+3, 2.108958e+2, -829394.56, -807385.1, 80221.734, 0.19547756, -0.031650875, -737416.9, 135787.72, 0.0, 10.000453, 10.0005045 
2.724255e+3, 2.2088927e+2, -881917.6, -982854.6, 5987.601, 0.009759294, 0.070282966, -881563.6, -106295.7, 0.0, 10.000174, 9.99886 
2.723857e+3, 2.3087831e+2, -687807.5, -771682.7, -658.8309, -0.11640707, -0.16838801, -687802.3, -10431.984, 0.0, 10.000664, 9.999313 
2.7234593e+3, 2.4086712e+2, -771065.5, -1004524.6, -2813.93, -0.17086732, -0.3918577, -771031.56, -191554.6, 0.0, 10.000362, 9.997266 
2.7230626e+3, 2.5085762e+2, -547670.7, -787786.06, -24490.805, -0.0069583887, -0.32208034, -545198.2, -63620.504, 0.0, 10.001085, 9.997634 
2.722665e+3, 2.6084906e+2, -479728.8, -658221.4, -3035.849, 0.10354234, -0.19602865, -479677.2, -96008.32, 0.0, 10.000565, 9.998201 
2.7222636e+3, 2.708419e+2, -231193.36, -216319.0, -16943.656, -0.25142837, -0.14134291, -205252.14, 80485.73, 0.0, 10.000518, 10.0005045 
2.721863e+3, 2.8083447e+2, -462027.7, -579721.44, -10915.895, -0.5306307, -0.09781861, -461023.8, -273213.72, 0.0, 9.999476, 9.997917 
2.721468e+3, 2.9082495e+2, -523904.56, -555079.9, 855.3227, -0.33676073, -0.06504054, -523881.13, -433968.63, 0.0, 9.998461, 9.997809 
2.721072e+3, 3.0081648e+2, -560943.4, -343802.7, -58989.65, -0.15813339, 0.014366989, -328812.13, -328812.13, 0.0, 9.996646, 9.999571 
2.720678e+3, 3.108128e+2, -181378.95, 247436.17, -130116.96, 0.37549138, 0.19578247, 283829.38, 283829.38, 0.0, 9.997342, 10.002901 
2.7202734e+3, 3.208045e+2, -132484.81, 545407.06, 344326.97, -0.40967703, -0.18974665, 689623.0, 689623.0, 0.0, 9.9964285, 10.00542 
2.7378458e+3, 1.3136041e+2, -1501919.4, -1888016.5, -217408.17, 0.4470562, -0.14133081, -1404220.5, 248432.47, 0.01685376, 10.002715, 9.997363 
2.737436e+3, 1.4135274e+2, -1466348.3, -1600983.4, 9078.596, -0.21743266, -0.007587224, -1465738.9, 89002.375, 0.009467277, 10.001216, 9.9995165 
2.737043e+3, 1.5134563e+2, -1052245.9, -986481.75, 201783.66, 0.08065583, -0.13266595, -814918.5, 641876.44, 0.0037924994, 10.001962, 10.002617 
2.7366498e+3, 1.6133772e+2, -1171490.9, -1444010.0, 137940.94, 0.35153157, -0.2810017, -1113857.8, 245002.02, 0.0009170214, 10.0022955, 9.998701 
2.73625e+3, 1.7132743e+2, -1211512.5, -1487470.9, 85452.93, 0.19471554, -0.31663814, -1187194.3, 73772.055, 0.0001065257, 10.0018, 9.997885 
2.735848e+3, 1.8131806e+2, -1220518.6, -1444743.9, -106250.9, 0.017671954, -0.25784683, -1178169.3, -15104.8955, 0.0000025959862, 10.000925, 9.998022 
2.7354434e+3, 1.9131128e+2, -1061960.3, -1158993.5, -193531.8, 0.040395286, -0.051259805, -910956.4, 154177.33, 0.0, 10.00075, 9.999328 
2.7350405e+3, 2.0130353e+2, -1106995.8, -1267902.1, 31703.69, 0.065562986, 0.059114482, -1100974.4, -133763.08, 0.0, 10.00024, 9.99821 
2.734644e+3, 2.112915e+2, -901697.94, -1033495.06, 117544.85, 0.0040346105, -0.22821753, -832839.6, 36487.555, 0.0, 10.000748, 9.998818 
2.7342477e+3, 2.2128099e+2, -731924.3, -922083.9, 20976.787, -0.06830769, -0.3902125, -729637.8, 41790.242, 0.0, 10.001212, 9.998775 
2.7338514e+3, 2.312747e+2, -574224.75, -655275.0, 638.06946, -0.020752896, -0.20731929, -574219.75, 99268.43, 0.0, 10.001137, 9.999897 
2.733454e+3, 2.4126767e+2, -600482.56, -821188.5, 12547.3955, -0.008470548, -0.07159256, -599771.5, -24214.74, 0.0, 10.001048, 9.998191 
2.7330557e+3, 2.512571e+2, -348906.1, -617253.75, 30025.227, -0.0910454, -0.17713894, -345587.66, 132078.17, 0.0, 10.002071, 9.998354 
2.732657e+3, 2.612472e+2, -154510.4, -465746.22, 12499.868, -0.16624741, -0.23113275, -154009.2, 225758.64, 0.0, 10.002587, 9.998545 
2.732257e+3, 2.7123985e+2, -184266.89, -283133.6, -49492.684, -0.25143293, -0.13038985, -163748.97, 118091.11, 0.0, 10.001175, 9.999752 
2.7318573e+3, 2.8123248e+2, -413534.06, -498805.25, -39768.61, -0.2833657, -0.023689238, -397865.84, -213952.89, 0.0, 9.999442, 9.998518 
2.7314603e+3, 2.9122442e+2, -508667.56, -447579.3, -8920.016, -0.14872937, 0.08193903, -446303.47, -360304.78, 0.0, 9.99801, 9.99883 
2.7310622e+3, 3.0121604e+2, -554396.0, -421894.75, -2710.8823, -0.09487844, 0.13742065, -421839.3, -421839.3, 0.0, 9.996963, 9.998889 
2.730665e+3, 3.1120557e+2, -258182.34, -83903.34, -139614.83, 0.084320664, -0.13443202, -6465.829, -6465.829, 0.0, 9.998005, 10.000331 
2.7302635e+3, 3.2120058e+2, -221061.38, 345181.97, -61839.797, -0.3244805, 0.04048761, 351856.88, 351856.88, 0.0, 9.996331, 10.0041275 
2.7478397e+3, 1.3176107e+2, -1406988.8, -1858578.8, -96384.9, 0.34030133, -0.102655925, -1387277.3, 261458.53, 0.012357856, 10.003372, 9.997243 
2.7474323e+3, 1.4175478e+2, -961868.06, -1399571.0, 69443.266, -0.1189547, 0.21820243, -951114.75, 599693.25, 0.006744909, 10.004852, 9.999141 
2.7470377e+3, 1.5174527e+2, -860264.9, -994678.06, 115689.99, 0.05417173, -0.072865926, -793677.25, 659207.3, 0.0025850076, 10.0036545, 10.00175 
2.7466434e+3, 1.6173618e+2, -1157593.3, -1380228.4, -30293.52, 0.27348194, -0.30670634, -1153544.9, 201414.8, 0.0005889778, 10.002104, 9.999227 
2.7462435e+3, 1.7172785e+2, -1136447.9, -1331057.9, 23473.299, 0.18398811, -0.2720732, -1133656.6, 123387.195, 0.00006228534, 10.0017395, 9.998997 
2.7458417e+3, 1.8171933e+2, -1171496.4, -1442651.1, -51257.32, 0.089101896, -0.19091637, -1162130.5, -2999.753, 0.0000011486238, 10.001352, 9.997826 
2.7454373e+3, 1.9171068e+2, -838554.5, -1112828.0, -157435.3, 0.07980334, -0.12601541, -766903.4, 294313.63, 0.0, 10.002569, 9.998747 
2.745034e+3, 2.0170161e+2, -785699.06, -1216043.5, 51696.555, 0.05577608, -0.078319214, -779576.0, 183731.17, 0.0, 10.002941, 9.99726 
2.7446374e+3, 2.1168901e+2, -717885.0, -1067278.8, 156179.42, -0.047846224, -0.32586294, -658250.94, 207180.11, 0.0, 10.002532, 9.997738 
2.7442414e+3, 2.2167768e+2, -758069.8, -989270.1, 80393.43, -0.073440485, -0.4721215, -732863.3, 34678.688, 0.0, 10.001294, 9.998271 
2.7438453e+3, 2.3167244e+2, -630374.1, -670850.6, 10265.636, 0.056449745, -0.19066036, -627919.44, 41674.62, 0.0, 10.000737, 9.99996 
2.743448e+3, 2.4166676e+2, -843945.2, -932986.2, 14673.984, 0.1160787, 0.07728597, -841589.25, -269938.4, 0.0, 9.999385, 9.998223 
2.7430484e+3, 2.516564e+2, -796783.75, -759218.3, 35277.098, -0.12009347, -0.08042876, -738035.25, -264279.9, 0.0, 9.9986925, 9.99899 
2.7426487e+3, 2.6164633e+2, -860629.4, -856499.0, 6080.058, -0.30728447, -0.1877154, -852142.94, -476286.13, 0.0, 9.998031, 9.998039 
2.74225e+3, 2.7163815e+2, -392115.88, -446626.47, -42916.855, -0.2343865, -0.12790485, -368531.16, -90593.6, 0.0, 10.000073, 9.999124 
2.7418512e+3, 2.8163055e+2, -287190.72, -453402.97, -47878.25, -0.10980224, 0.0012291648, -274385.66, -94372.1, 0.0, 10.000486, 9.998296 
2.7414525e+3, 2.91624e+2, -283307.5, -248418.36, -73253.875, 0.015579278, 0.18851823, -190560.58, -108477.62, 0.0, 9.999271, 9.999548 
2.741052e+3, 3.016154e+2, -610348.44, -617425.06, -18361.342, -0.05027058, 0.2184761, -595187.56, -595187.56, 0.0, 9.997416, 9.997311 
2.740651e+3, 3.115986e+2, -447524.22, -434924.8, -8717.725, -0.3206836, -0.48471177, -430468.8, -430468.8, 0.0, 9.997933, 9.997898 
2.740256e+3, 3.215985e+2, -388008.4, 103243.76, -144153.05, 0.05164048, 0.3889511, 142419.84, 142419.84, 0.0, 9.996026, 10.002574 
2.7578327e+3, 1.3216192e+2, -1430074.1, -1837789.4, -10100.265, 0.040132653, -0.10007073, -1429824.0, 214991.27, 0.008684969, 10.003139, 9.997481 
2.757431e+3, 1.421575e+2, -1107528.5, -1627013.5, 116150.0, -0.028964829, 0.4266805, -1082741.6, 464123.1, 0.0045925975, 10.004566, 9.997694 
2.757032e+3, 1.5214418e+2, -1043771.06, -1315115.5, 115834.695, -0.13608953, -0.047414433, -1001048.7, 447934.53, 0.0016782222, 10.003432, 9.999639 
2.756634e+3, 1.6213313e+2, -1103503.1, -1227156.6, -18825.559, -0.16759034, -0.36611867, -1100700.6, 250379.48, 0.0003582281, 10.001958, 10.000338 
2.756235e+3, 1.7212895e+2, -967635.8, -962089.44, 28899.53, -0.07855081, -0.14684176, -935830.3, 317286.28, 0.000033741435, 10.001677, 10.001549 
2.755835e+3, 1.8212244e+2, -1141859.3, -1420800.8, -33317.348, -0.005638665, -0.028923709, -1137935.0, 17242.08, 0.00000040337267, 10.001517, 9.997886 
2.7554327e+3, 1.9210859e+2, -891021.4, -1263645.6, -95649.914, 0.14162512, -0.38956025, -867903.06, 189407.36, 0.0, 10.002736, 9.997628 
2.7550313e+3, 2.0209666e+2, -761212.4, -1250346.3, 73494.71, 0.18221669, -0.5349141, -750408.1, 209019.77, 0.0, 10.003273, 9.996876 
2.754633e+3, 2.1208906e+2, -683683.8, -1075522.5, 161186.22, -0.0031525171, -0.252049, -625899.8, 235609.73, 0.0, 10.002818, 9.997576 
2.7542353e+3, 2.2208092e+2, -664206.1, -956257.4, 68822.555, -0.11367729, -0.059620935, -648800.56, 114794.5, 0.0, 10.001977, 9.998159 
2.753838e+3, 2.3207146e+2, -627477.4, -745414.75, 8293.347, 0.027475385, -0.13090247, -626897.06, 38791.96, 0.0, 10.00105, 9.99932 
2.7534398e+3, 2.4206285e+2, -719709.0, -803481.94, -18007.146, 0.098162025, -0.12313631, -716002.3, -148228.08, 0.0, 9.9998665, 9.998897 
2.75304e+3, 2.5205535e+2, -820648.6, -698762.44, -2218.5784, -0.021204516, -0.043894082, -698722.06, -228873.94, 0.0, 9.998174, 9.999682 
2.75264e+3, 2.620471e+2, -872509.6, -775125.56, 82000.18, -0.15790766, -0.022898192, -728450.2, -356521.22, 0.0, 9.997511, 9.998857 
2.752242e+3, 2.720368e+2, -335672.16, -395381.06, 100460.49, -0.24995436, -0.19557919, -260723.95, 13304.308, 0.0, 10.000307, 9.9993925 
2.751844e+3, 2.8202772e+2, -71693.29, -363139.06, -30128.902, -0.23365232, -0.21127114, -68611.24, 107507.07, 0.0, 10.001987, 9.99819 
2.7514446e+3, 2.9202175e+2, -181441.94, -291279.97, -140059.67, 0.016383532, 0.123032786, -85918.9, -7733.367, 0.0, 10.000358, 9.998745 
2.7510434e+3, 3.0201378e+2, -289877.63, -293827.88, -36993.02, -0.005607679, 0.23843694, -254807.03, -254807.03, 0.0, 9.998798, 9.998898 
2.7506405e+3, 3.1199917e+2, -164476.02, -71895.96, 84349.72, -0.45980543, -0.4380123, -21969.35, -21969.35, 0.0, 9.998776, 10.000057 
2.7502447e+3, 3.21998e+2, -236420.27, 174533.52, -135040.02, 0.05364765, 0.2027131, 214935.77, 214935.77, 0.0, 9.996922, 10.002661 
2.7678275e+3, 1.3256513e+2, -1191373.0, -1556981.6, 112186.26, -0.05053524, -0.0038713347, -1159693.8, 481166.22, 0.0058226245, 10.003998, 9.999052 
2.7674296e+3, 1.4255716e+2, -1023850.6, -1614421.0, 160090.22, 0.15157619, 0.12153152, -983245.6, 559691.4, 0.00296968, 10.005239, 9.997478 
2.7670288e+3, 1.5254554e+2, -1109942.6, -1474267.4, 169078.6, -0.009640748, -0.07452069, -1043567.9, 401478.5, 0.0010279784, 10.003542, 9.998492 
2.766629e+3, 1.6253516e+2, -1173582.0, -1372036.0, 71844.125, -0.07603559, -0.20085372, -1150303.5, 196839.8, 0.0002033788, 10.001926, 9.999389 
2.7662295e+3, 1.725289e+2, -1016476.44, -1076883.3, -38756.797, 0.0014082807, -0.09735862, -997543.94, 251656.94, 0.000016580547, 10.001705, 10.000778 
2.7658293e+3, 1.8252125e+2, -1098510.1, -1406848.8, -157264.63, 0.07098625, -0.049139697, -1032451.44, 118820.23, 0.00000009587778, 10.001873, 9.997815 
2.7654278e+3, 1.925078e+2, -687270.06, -1146761.4, -146968.42, 0.12577237, -0.40456876, -644283.6, 409115.7, 0.0, 10.00408, 9.997791 
2.765027e+3, 2.0249617e+2, -560248.4, -1160725.5, 29467.383, 0.1605474, -0.5240334, -558805.8, 396707.34, 0.0, 10.004699, 9.996816 
2.7646285e+3, 2.1249013e+2, -733408.5, -1079053.9, 92644.555, 0.06650412, -0.11150122, -710142.7, 147439.77, 0.0, 10.002419, 9.997732 
2.7642298e+3, 2.2248287e+2, -950467.44, -1157587.1, 54623.82, -0.0058110156, 0.18119335, -936944.44, -177282.86, 0.0, 10.000355, 9.997551 
2.7638307e+3, 2.3247105e+2, -673740.4, -842184.2, 4850.5747, -0.005261202, -0.07360453, -673600.8, -11821.397, 0.0, 10.001113, 9.998605 
2.7634317e+3, 2.4246073e+2, -579666.0, -774883.2, -41627.133, 0.018794296, -0.17760606, -571160.25, -7278.9897, 0.0, 10.001076, 9.998489 
2.7630317e+3, 2.5245425e+2, -337132.78, -441722.38, -71229.38, 0.01341807, -0.029585665, -301062.6, 164880.38, 0.0, 10.001433, 9.999854 
2.7626324e+3, 2.6244685e+2, -444617.78, -574383.06, 59205.77, -0.03873093, 0.056906838, -421664.88, -53651.707, 0.0, 10.00053, 9.998787 
2.7622345e+3, 2.7243596e+2, -473666.6, -423178.88, 104264.33, -0.21695934, -0.21292807, -341146.0, -71029.86, 0.0, 9.99927, 9.999688 
2.7618363e+3, 2.8242624e+2, -712414.0, -732843.06, -73056.5, -0.2649805, -0.29311377, -648861.44, -476650.06, 0.0, 9.997915, 9.997614 
2.761436e+3, 2.924198e+2, -519869.5, -515216.25, -127342.26, -0.0022720785, 0.029013954, -390179.38, -315895.7, 0.0, 9.998318, 9.998183 
2.761034e+3, 3.024125e+2, -385599.2, -210986.58, 39936.055, -0.014663247, 0.21046384, -202286.22, -202286.22, 0.0, 9.997675, 9.999988 
2.7606308e+3, 3.1240118e+2, -186767.5, 155818.19, 93836.61, -0.49677086, -0.3390601, 179836.77, 179836.77, 0.0, 9.997682, 10.002114 
2.7602312e+3, 3.2239628e+2, -306267.28, 118743.41, -305695.66, -0.206721, -0.21665244, 278539.5, 278539.5, 0.0, 9.996755, 10.002283 
2.7778232e+3, 1.3296811e+2, -1105929.0, -1316933.4, 125852.45, -0.15049861, 0.08257175, -1047207.06, 589694.56, 0.0036891268, 10.0038185, 10.000737 
2.7774283e+3, 1.4295556e+2, -1132087.5, -1680702.4, 81229.13, 0.27129725, -0.37853345, -1120313.3, 418703.38, 0.001804215, 10.00461, 9.997294 
2.777027e+3, 1.5294842e+2, -1172045.5, -1573308.9, 88901.97, 0.20733535, -0.08322122, -1153231.0, 287859.03, 0.00058557204, 10.003446, 9.997834 
2.776626e+3, 1.6293956e+2, -1290727.4, -1683194.8, 42263.81, 0.19243956, 0.07071774, -1286227.8, 56951.848, 0.00010501939, 10.002219, 9.997108 
2.7762255e+3, 1.729276e+2, -1157223.0, -1447233.0, -20578.469, 0.2148572, -0.1317601, -1155770.1, 89527.77, 0.0000068884756, 10.002034, 9.998081 
2.7758247e+3, 1.829172e+2, -1036240.9, -1338387.1, -75613.35, 0.14597589, -0.19692406, -1018374.75, 129024.5, 0.00000000965895, 10.002153, 9.998139 
2.7754226e+3, 1.9290857e+2, -592822.6, -971064.2, -25646.85, -0.04091057, -0.16978253, -591091.56, 458388.44, 0.0, 10.004157, 9.998969 
2.7750218e+3, 2.0290004e+2, -488741.56, -1018100.9, -1180.547, -0.10383794, -0.07924981, -488738.94, 462824.94, 0.0, 10.004743, 9.99775 
2.7746236e+3, 2.128919e+2, -691545.5, -997199.94, 30770.959, 0.11508073, 0.07115918, -688478.5, 165174.17, 0.0, 10.002463, 9.998263 
2.7742246e+3, 2.22883e+2, -864054.0, -1134891.1, 67269.945, 0.1490546, 0.18172134, -848266.0, -92518.61, 0.0, 10.000986, 9.997419 
2.773823e+3, 2.3287167e+2, -649150.94, -904873.56, 58053.6, -0.13040207, 0.053209927, -636588.9, 21272.482, 0.0, 10.001556, 9.997998 
2.7734232e+3, 2.4286109e+2, -427211.2, -703646.75, 1772.0939, -0.2831951, -0.02831087, -427199.84, 132765.89, 0.0, 10.002109, 9.998473 
2.7730247e+3, 2.5285205e+2, -173546.81, -430773.22, -31552.088, -0.1517489, -0.074442774, -169733.1, 292318.03, 0.0, 10.002821, 9.999284 
2.7726266e+3, 2.6284394e+2, -126083.21, -339963.78, -11250.161, -0.05865894, -0.038796686, -125493.08, 238634.47, 0.0, 10.002311, 9.999551 
2.7722278e+3, 2.7283677e+2, -410760.5, -324697.56, 6871.9214, -0.062018234, 0.00829183, -324152.3, -57957.387, 0.0, 9.999338, 10.000368 
2.771828e+3, 2.828289e+2, -656739.8, -486962.47, -55097.75, -0.06803711, 0.0036177943, -470649.13, -302379.22, 0.0, 9.997276, 9.999613 
2.7714255e+3, 2.9281977e+2, -421776.8, -273184.22, -31889.867, -0.06048465, -0.11597225, -266629.4, -196271.36, 0.0, 9.998027, 10.000029 
2.7710226e+3, 3.0281168e+2, -278090.2, -141447.33, 123936.27, -0.1622477, -0.12347019, -68248.38, -68248.38, 0.0, 9.998237, 10.0002 
2.7706224e+3, 3.1280464e+2, -289245.56, 23256.996, 104451.68, -0.29198232, -0.17579113, 54954.156, 54954.156, 0.0, 9.997259, 10.001417 
2.7702218e+3, 3.227967e+2, -115403.25, 5634.1646, -232054.2, -0.15008566, -0.21783125, 184931.36, 184931.36, 0.0, 9.998819, 10.000524 
2.7878198e+3, 1.333645e+2, -1054870.3, -1515784.4, 43246.203, -0.19310048, -0.2702169, -1050847.6, 582161.9, 0.0021708824, 10.0050745, 9.998767 
2.787423e+3, 1.4335561e+2, -1128411.0, -1633159.0, -138690.64, 0.080871664, -0.27177525, -1092813.3, 442284.38, 0.001007235, 10.004331, 9.9978 
2.787022e+3, 1.5334837e+2, -981623.25, -1399685.6, -85985.26, 0.12820219, -0.088983186, -964629.0, 472539.06, 0.00030058212, 10.0042715, 9.998699 
2.7866217e+3, 1.6333938e+2, -1042048.3, -1591590.1, -23782.262, 0.22703256, 0.0033790367, -1041021.06, 298236.7, 0.000046417692, 10.004025, 9.996879 
2.7862212e+3, 1.7332669e+2, -899449.56, -1402399.8, 4158.799, 0.25749934, -0.21775791, -899415.2, 341970.3, 0.0000020738605, 10.004146, 9.997378 
2.7858198e+3, 1.8331596e+2, -826695.8, -1229701.3, 41980.0, 0.16898668, -0.26023552, -822369.3, 321123.0, 0.00000000000031198744, 10.003573, 9.998187 
2.785417e+3, 1.9330896e+2, -780621.3, -1019726.44, 32099.066, -0.107562885, -0.106572725, -776387.06, 269172.38, 0.0, 10.002724, 9.999296 
2.7850163e+3, 2.0330152e+2, -917442.9, -1204262.5, -22944.553, -0.18105717, 0.06807515, -915619.0, 32014.984, 0.0, 10.001758, 9.997901 
2.7846175e+3, 2.1329227e+2, -786776.5, -1005188.0, -36577.625, 0.111085966, 0.07447753, -780813.56, 68919.13, 0.0, 10.0017, 9.998561 
2.7842182e+3, 2.2328296e+2, -856915.9, -1119541.8, 90398.91, 0.21262026, 0.12547374, -828807.8, -76977.38, 0.0, 10.001015, 9.997497 
2.7838168e+3, 2.3327316e+2, -689645.6, -901530.94, 155123.11, -0.13514899, 0.117545985, -607739.9, 46189.824, 0.0, 10.001199, 9.998178 
2.7834162e+3, 2.4326307e+2, -734434.25, -909479.5, 139027.52, -0.32533655, 0.10445633, -657674.0, -101644.1, 0.0, 10.000315, 9.997918 
2.783018e+3, 2.532522e+2, -697621.44, -731528.3, 104212.51, -0.1837254, -0.069185875, -608992.4, -150858.83, 0.0, 9.999502, 9.998799 
2.7826196e+3, 2.6324332e+2, -708406.4, -629281.3, 61782.797, -0.032253925, -0.055605736, -595479.6, -235261.97, 0.0, 9.99847, 9.9993725 
2.7822202e+3, 2.7323794e+2, -518839.16, -345627.53, 1987.9229, 0.059044566, 0.14923593, -345604.72, -83336.234, 0.0, 9.998559, 10.000557 
2.781819e+3, 2.832309e+2, -532262.8, -318824.47, -52386.76, 0.07196355, 0.18529789, -306659.84, -142326.8, 0.0, 9.997749, 10.0005245 
2.7814153e+3, 2.9321986e+2, -394083.44, -94335.22, -72324.97, -0.09072244, -0.28245416, -77796.74, -11364.919, 0.0, 9.997597, 10.001419 
2.781012e+3, 3.032116e+2, -504292.63, -325203.1, 21740.662, -0.2516881, -0.3648958, -322601.66, -322601.66, 0.0, 9.997139, 9.999435 
2.780614e+3, 3.132081e+2, -390456.47, -119035.86, -2445.7847, -0.0773584, -0.008290182, -119013.83, -119013.83, 0.0, 9.9970875, 10.000487 
2.7802137e+3, 3.231966e+2, -363868.44, -301512.88, -80855.77, -0.07563501, -0.26753202, -246032.08, -246032.08, 0.0, 9.998038, 9.998791 
2.797816e+3, 1.3376002e+2, -1356322.6, -2006910.8, 32954.875, -0.31822374, -0.6087042, -1354657.5, 274471.2, 0.0011673449, 10.004557, 9.995621 
2.797416e+3, 1.4375663e+2, -1098573.9, -1538504.1, -91294.58, -0.31905395, 0.09286069, -1080380.8, 450795.2, 0.00050489604, 10.004243, 9.998468 
2.7970156e+3, 1.53747e+2, -916593.4, -1168434.4, -32537.08, -0.13660026, -0.12577382, -912457.56, 520803.6, 0.00013439951, 10.003916, 10.000429 
2.7966166e+3, 1.6373715e+2, -1061759.1, -1527062.5, 4146.3354, 0.055275757, -0.23391935, -1061722.3, 273631.66, 0.000016423304, 10.003605, 9.997512 
2.7962163e+3, 1.7372644e+2, -918587.25, -1350681.3, 45127.33, 0.1317656, -0.30548808, -913924.5, 323538.75, 0.0000003300107, 10.00378, 9.997896 
2.795815e+3, 1.8371679e+2, -843257.7, -1242196.8, 30056.154, 0.05778158, -0.26803496, -841005.94, 298554.97, 0.0, 10.003457, 9.998165 
2.795412e+3, 1.9370846e+2, -798885.06, -1065922.9, 28116.906, -0.1492901, -0.20505832, -795956.7, 245686.64, 0.0, 10.002746, 9.998984 
2.7950102e+3, 2.0370016e+2, -861937.1, -1136744.0, -29527.95, -0.22196029, -0.101886846, -858800.1, 84927.56, 0.0, 10.001972, 9.998247 
2.79461e+3, 2.1369098e+2, -749127.44, -960191.7, -12016.138, -0.05707871, -0.10553188, -748445.56, 97378.766, 0.0, 10.001845, 9.998803 
2.7942106e+3, 2.2368284e+2, -630722.3, -834153.56, 116979.74, 0.039783545, -0.012021762, -577420.75, 170488.1, 0.0, 10.001755, 9.9991 
2.7938122e+3, 2.3367587e+2, -513623.5, -648961.8, 192483.39, 0.003049328, 0.116122305, -377260.84, 272717.53, 0.0, 10.001627, 9.999712 
2.7934122e+3, 2.4366772e+2, -620552.8, -810547.8, 122357.766, -0.039730042, 0.20111208, -560644.06, -8584.903, 0.0, 10.000851, 9.998347 
2.793011e+3, 2.5365725e+2, -737542.75, -766334.1, 109425.31, -0.02779498, 0.091073744, -641570.25, -187408.48, 0.0, 9.999213, 9.998742 
2.7926105e+3, 2.636474e+2, -766891.56, -720842.75, 131063.63, -0.0050262753, 0.03964044, -610796.5, -254539.08, 0.0, 9.998267, 9.998849 
2.7922106e+3, 2.736385e+2, -530549.2, -480229.7, 73812.62, 0.015892828, 0.011222748, -427406.66, -169064.2, 0.0, 9.99896, 9.999462 
2.7918094e+3, 2.8362978e+2, -387774.0, -299567.16, -54175.285, 0.048418045, -0.029787486, -273813.06, -113389.25, 0.0, 9.998931, 10.000075 
2.7914065e+3, 2.936204e+2, -379551.94, -162000.06, -117696.71, 0.046425946, -0.24728802, -110511.47, -48003.637, 0.0, 9.997979, 10.000774 
2.7910042e+3, 3.0361274e+2, -425246.13, -296550.5, -105.69485, -0.012557225, -0.23785752, -296550.4, -296550.4, 0.0, 9.997616, 9.999429 
2.7906063e+3, 3.1360823e+2, -195991.8, -72579.18, -25389.87, 0.146216, 0.064521275, -67559.82, -67559.82, 0.0, 9.998496, 10.000195 
2.790204e+3, 3.235957e+2, -184607.69, -82776.93, -40151.88, -0.07981728, -0.312123, -68849.81, -68849.81, 0.0, 9.998541, 10.000097 
2.8078154e+3, 1.3416444e+2, -1263615.8, -1943310.9, 173323.89, -0.09088301, -0.31136245, -1221969.5, 403199.03, 0.000566287, 10.005005, 9.995886 
2.8074127e+3, 1.4415695e+2, -867484.25, -1397512.6, 26500.023, -0.32527962, -0.02240184, -866162.6, 661090.56, 0.00022570654, 10.005684, 9.998742 
2.8070125e+3, 1.5414791e+2, -903923.2, -1157590.4, 5527.039, -0.041812573, -0.17651941, -903802.8, 525530.75, 0.00005282333, 10.003964, 10.000483 
2.8066128e+3, 1.6413863e+2, -1197448.3, -1545949.8, 46860.305, 0.1799457, -0.23854919, -1191257.4, 140163.9, 0.000004777361, 10.0025, 9.997878 
2.8062114e+3, 1.7412871e+2, -1141782.6, -1414614.1, 70004.984, 0.16649838, -0.27693006, -1124868.9, 108653.49, 0.00000002399446, 10.002033, 9.998282 
2.8058097e+3, 1.8411954e+2, -1043842.2, -1316498.4, 103373.234, 0.06305221, -0.22137715, -1009081.5, 126533.6, 0.0, 10.002003, 9.998359 
2.805407e+3, 1.9411096e+2, -735220.3, -1026394.9, 116026.85, -0.14509673, -0.19221106, -694641.3, 343059.25, 0.0, 10.003136, 9.999085 
2.805005e+3, 2.0410211e+2, -680383.56, -1036937.25, 86428.734, -0.21792975, -0.13726228, -660537.8, 279251.34, 0.0, 10.003148, 9.998384 
2.8046033e+3, 2.1409264e+2, -677148.3, -890347.44, 87108.01, -0.13603863, -0.20050953, -646084.3, 195800.98, 0.0, 10.002166, 9.999133 
2.8042036e+3, 2.2408468e+2, -697386.4, -810172.1, 229356.22, -0.041094918, -0.11568635, -517591.97, 226373.33, 0.0, 10.001158, 9.999524 
2.803806e+3, 2.3407838e+2, -552683.56, -594429.8, 192292.03, 0.0729335, 0.021412935, -380135.1, 265891.75, 0.0, 10.001121, 10.000316 
2.8034067e+3, 2.4407096e+2, -654369.06, -841157.1, 67145.63, 0.12995014, 0.15990293, -632737.06, -84636.49, 0.0, 10.000753, 9.998173 
2.8030038e+3, 2.5406137e+2, -493306.53, -639599.7, 45532.94, 0.07835948, 0.11733096, -480292.38, -30094.889, 0.0, 10.000931, 9.998755 
2.802602e+3, 2.640513e+2, -568013.94, -711023.6, 142146.1, 0.032648444, 0.08062576, -480401.03, -128104.44, 0.0, 10.00005, 9.998058 
2.8022018e+3, 2.740401e+2, -502246.4, -545708.8, 141897.5, -0.0033923662, -0.12573847, -380425.72, -126021.65, 0.0, 9.99952, 9.99874 
2.8018007e+3, 2.8403032e+2, -468975.28, -462494.1, 13597.33, 0.0356179, -0.17204185, -451756.53, -295259.66, 0.0, 9.998976, 9.998923 
2.801398e+3, 2.9402193e+2, -263337.44, -201678.19, -60056.0, 0.15320562, -0.20337363, -165000.86, -106426.25, 0.0, 9.999268, 9.999865 
2.8009957e+3, 3.040144e+2, -311994.66, -316668.94, 83744.39, 0.1311323, -0.08525266, -230554.78, -230554.78, 0.0, 9.998833, 9.998656 
2.8005975e+3, 3.1400812e+2, -220403.73, -130995.586, 46219.035, 0.19729288, 0.08374477, -111398.39, -111398.39, 0.0, 9.998644, 9.99966 
2.800193e+3, 3.2399523e+2, -395274.53, -21216.605, -55018.383, -0.2388539, -0.37028298, -13292.098, -13292.098, 0.0, 9.996656, 10.001322 
2.8178152e+3, 1.3457102e+2, -1212066.0, -1746823.6, 255474.16, 0.11114636, 0.11458421, -1109636.0, 511552.53, 0.00024922597, 10.004701, 9.997352 
2.817411e+3, 1.4455727e+2, -1106538.6, -1530924.5, -14099.977, -0.26205167, -0.3143079, -1106070.6, 417256.9, 0.00009135414, 10.004182, 9.9985285 
2.8170106e+3, 1.5455045e+2, -1018671.5, -1274351.5, -4519.188, 0.1565407, -0.19805893, -1018591.7, 406799.72, 0.000018191195, 10.003475, 9.999908 
2.8166094e+3, 1.645423e+2, -1155820.5, -1483904.4, 60635.332, 0.35504836, -0.11947027, -1144972.8, 182498.2, 0.000001253609, 10.002621, 9.998247 
2.8162062e+3, 1.7453259e+2, -1082422.8, -1330904.6, 104589.87, 0.21557786, -0.17282385, -1044260.3, 185308.97, 0.0000000065346386, 10.002224, 9.998767 
2.815804e+3, 1.8452397e+2, -978501.3, -1196650.9, 153799.89, 0.02151311, -0.11269484, -899024.44, 232631.55, 0.0, 10.002123, 9.999089 
2.815402e+3, 1.9451606e+2, -708007.1, -953903.0, 188886.97, -0.19418356, -0.06486081, -605578.75, 428155.5, 0.0, 10.003087, 9.999597 
2.8149998e+3, 2.0450754e+2, -598292.3, -909279.3, 58355.77, -0.2702938, -0.034879245, -587702.6, 348114.13, 0.0, 10.003322, 9.999168 
2.8145972e+3, 2.1449792e+2, -598419.06, -790218.0, 89368.37, -0.19744492, -0.1614549, -563233.0, 274675.06, 0.0, 10.002402, 9.999718 
2.8141966e+3, 2.2448877e+2, -640422.4, -842389.75, 243508.05, -0.14389785, -0.19512707, -477789.16, 262206.8, 0.0, 10.001781, 9.999006 
2.8137985e+3, 2.3447987e+2, -528429.2, -682255.8, 219112.64, -0.085448824, -0.2220036, -373122.78, 268959.56, 0.0, 10.001664, 9.999472 
2.8133985e+3, 2.4447136e+2, -487814.66, -731029.4, 85067.03, -0.032486763, -0.15689349, -461014.66, 83152.63, 0.0, 10.001721, 9.998464 
2.812997e+3, 2.5446284e+2, -323923.72, -547683.9, 74163.81, 0.009038088, -0.090820216, -301574.8, 144680.23, 0.0, 10.001999, 9.998889 
2.8125957e+3, 2.6445416e+2, -258607.03, -447900.88, 122891.7, 0.042562187, -0.043196704, -198139.77, 150201.4, 0.0, 10.001592, 9.999158 
2.8121948e+3, 2.7444473e+2, -309823.9, -375780.63, 145806.47, 0.06779195, -0.13282675, -193312.81, 57118.387, 0.0, 10.00039, 9.999552 
2.811793e+3, 2.844354e+2, -336030.16, -438576.16, 102814.09, 0.08235827, -0.155289, -272413.4, -119891.664, 0.0, 9.999972, 9.998631 
2.8113896e+3, 2.9442596e+2, -70501.05, -203418.58, 47805.31, 0.07486313, -0.19337961, -55093.363, -478.88757, 0.0, 10.000911, 9.999104 
2.8109857e+3, 3.0441743e+2, -66242.195, -286454.7, 140004.33, -0.16025075, -0.0844318, 1765.5641, 1765.5641, 0.0, 10.000846, 9.997898 
2.810583e+3, 3.1441e+2, -112771.37, -203701.11, 87970.875, -0.43430358, 0.101798855, -59211.344, -59211.344, 0.0, 9.999833, 9.998622 
2.8101844e+3, 3.243966e+2, -562344.1, -385270.8, -259540.45, 0.014526731, -0.23221196, -199581.3, -199581.3, 0.0, 9.996544, 9.998941 
2.8278124e+3, 1.3497265e+2, -950188.9, -1389879.8, 46201.3, 0.09466131, -0.109805614, -945386.7, 671870.25, 0.00010695086, 10.005487, 9.99942 
2.827407e+3, 1.4496323e+2, -1483437.0, -1651739.5, 67463.75, -0.08920592, -0.19583103, -1459732.8, 59614.344, 0.000035101017, 10.001323, 9.999074 
2.8270045e+3, 1.54956e+2, -1040349.75, -1267414.6, 95704.62, 0.04721394, -0.12983899, -1005393.1, 416026.63, 0.0000055355054, 10.003272, 10.000048 
2.8266034e+3, 1.6494793e+2, -900637.75, -1329063.1, 172716.19, 0.19029288, -0.048881114, -839681.5, 483818.03, 0.0000002527922, 10.004246, 9.998538 
2.8262013e+3, 1.7493857e+2, -767868.2, -1146244.6, 183007.17, 0.18600616, -0.08465291, -693838.25, 531753.3, 0.0, 10.004286, 9.999056 
2.825799e+3, 1.8492973e+2, -861977.3, -1160453.9, 214260.27, 0.077079855, -0.040583454, -750103.5, 377575.13, 0.0, 10.002974, 9.998944 
2.825397e+3, 1.9492103e+2, -1088622.3, -1164043.3, 199809.53, -0.0872464, -0.05817338, -922995.75, 106768.9, 0.0, 10.000543, 9.999397 
2.8249946e+3, 2.0491217e+2, -1052683.5, -1146607.9, 94983.78, -0.17417522, -0.03991045, -993686.44, -61836.55, 0.0, 10.000346, 9.998934 
2.8245917e+3, 2.1490255e+2, -548783.75, -780973.8, 49900.82, -0.20773545, -0.16701542, -538513.6, 295426.16, 0.0, 10.002868, 9.999524 
2.8241906e+3, 2.248929e+2, -511799.66, -879735.6, 158825.58, -0.21314651, -0.20086767, -452724.88, 283306.7, 0.0, 10.003141, 9.998071 
2.8237912e+3, 2.3488262e+2, -595651.6, -797436.44, 129373.32, -0.18231809, -0.3102184, -532480.8, 105650.23, 0.0, 10.001623, 9.998666 
2.8233913e+3, 2.4487327e+2, -672489.06, -843294.7, 31610.22, -0.13680789, -0.2788804, -666826.8, -126602.48, 0.0, 10.000633, 9.9981985 
2.82299e+3, 2.5486445e+2, -545000.0, -660327.0, 7263.8145, -0.047146678, -0.25690028, -544544.3, -102229.09, 0.0, 10.000561, 9.998793 
2.8225887e+3, 2.6485676e+2, -510131.28, -509176.34, 5677.805, 0.027786553, -0.13312414, -503955.97, -159563.97, 0.0, 9.999726, 9.99958 
2.8221866e+3, 2.7484933e+2, -528603.9, -396070.88, 8424.893, 0.081158936, -0.119806044, -395537.47, -149074.89, 0.0, 9.998628, 10.000203 
2.821784e+3, 2.8484073e+2, -652975.25, -655888.0, 55324.793, 0.044395193, -0.07275036, -599087.7, -450540.53, 0.0, 9.998184, 9.997967 
2.821381e+3, 2.9483047e+2, -349773.1, -381951.63, 47848.914, -0.043730315, -0.18211028, -315380.84, -264729.78, 0.0, 9.999262, 9.998639 
2.8209755e+3, 3.048211e+2, -324729.63, -483650.5, 145219.61, -0.42202047, -0.093794696, -238652.47, -238652.47, 0.0, 9.999452, 9.997203 
2.82057e+3, 3.1481272e+2, -296665.84, -341795.25, 169597.4, -0.9227487, 0.02529867, -148138.63, -148138.63, 0.0, 9.998847, 9.998132 
2.8201774e+3, 3.247996e+2, -410257.75, -505149.25, -191004.6, 0.3882441, -0.16320449, -260894.31, -260894.31, 0.0, 9.998595, 9.997071 
2.8378087e+3, 1.3537435e+2, -1060219.9, -1215979.6, -322101.9, -0.027698996, -0.3588266, -806716.4, 806607.4, 0.00005051938, 10.003802, 10.0014105 
2.8374016e+3, 1.453714e+2, -1457190.8, -1576365.4, 128494.96, 0.017824132, 0.069752745, -1375139.1, 140207.0, 0.000015386411, 10.001283, 9.999585 
2.8369966e+3, 1.5536289e+2, -1063617.5, -1243839.6, 181296.92, -0.30770054, -0.042152412, -951272.25, 466163.06, 0.0000020566958, 10.002998, 10.000326 
2.8365955e+3, 1.6535445e+2, -934171.9, -1317558.4, 161534.86, -0.24193095, -0.014841911, -875186.44, 444331.47, 0.00000005936716, 10.003923, 9.9987545 
2.8361964e+3, 1.7534551e+2, -783412.06, -1148776.6, 194480.73, 0.04684355, -0.025546856, -699269.4, 522331.78, 0.0, 10.004151, 9.999103 
2.835795e+3, 1.8533598e+2, -878544.94, -1208530.9, 116948.31, 0.13396129, -0.03423739, -841301.44, 282391.28, 0.0, 10.003014, 9.998606 
2.8353915e+3, 1.9532558e+2, -1114853.9, -1233146.6, 136898.53, 0.08751098, -0.1713077, -1024871.06, 924.17944, 0.0, 10.000594, 9.998906 
2.8349888e+3, 2.05316e+2, -1060153.9, -1220855.9, 199634.95, -0.032836907, -0.16349065, -925306.4, 2582.7078, 0.0, 10.000608, 9.998299 
2.8345868e+3, 2.1530649e+2, -552396.94, -890372.1, 177664.86, -0.2453044, -0.17753452, -476187.47, 353794.28, 0.0, 10.003289, 9.998587 
2.8341854e+3, 2.2529714e+2, -445069.28, -881800.0, 102812.805, -0.30728918, -0.113286264, -422076.2, 309997.2, 0.0, 10.003728, 9.99778 
2.8337848e+3, 2.352875e+2, -578371.0, -861010.44, 82969.53, -0.23532405, -0.08910057, -555815.2, 78353.16, 0.0, 10.002004, 9.998072 
2.8333837e+3, 2.4527732e+2, -598249.75, -794006.75, 23756.842, -0.17541806, -0.11546556, -595407.9, -59137.707, 0.0, 10.001043, 9.99835 
2.8329822e+3, 2.5526634e+2, -509183.16, -668057.2, 14786.389, -0.10237167, -0.27974695, -507818.72, -69437.5, 0.0, 10.000839, 9.998635 
2.8325793e+3, 2.652584e+2, -443762.9, -426901.38, -41066.277, -0.089186504, -0.19905616, -393409.4, -52948.184, 0.0, 9.999928, 10.00005 
2.832175e+3, 2.7525258e+2, -534344.7, -395692.47, -57483.848, -0.14640674, -0.019372148, -374960.25, -132441.55, 0.0, 9.998548, 10.000256 
2.8317723e+3, 2.8524506e+2, -546097.5, -471025.25, 77174.25, -0.1537404, 0.0676961, -422742.8, -278150.0, 0.0, 9.998287, 9.999205 
2.8313714e+3, 2.9523554e+2, -295629.53, -277035.8, 90890.52, -0.14087036, -0.030813128, -194967.9, -148281.81, 0.0, 9.999217, 9.99941 
2.83097e+3, 3.0522624e+2, -95635.02, -53766.156, 192204.88, -0.15654941, -0.1188877, 118640.984, 118640.984, 0.0, 9.999556, 10.000132 
2.8305703e+3, 3.1521735e+2, -35752.438, 32620.082, 265897.56, -0.012984436, -0.2788509, 266520.03, 266520.03, 0.0, 9.9994545, 10.000453 
2.8301698e+3, 3.2521024e+2, 418229.78, 238535.83, 212758.31, 0.3117769, -0.11273127, 559334.25, 559334.25, 0.0, 10.002658, 10.000294 
2.847803e+3, 1.3578339e+2, -1279571.1, -1401617.8, -424104.2, -0.054759175, 0.06083552, -912122.5, 697200.8, 0.000026715617, 10.002486, 10.00085 
2.847396e+3, 1.4577475e+2, -1279002.1, -1471113.9, 124866.34, 0.046622984, -0.04541057, -1217519.6, 293879.4, 0.000008259592, 10.0023775, 9.999799 
2.8469935e+3, 1.557673e+2, -1038157.2, -1247221.0, 130355.92, -0.10788657, -0.047483277, -975597.56, 437876.0, 0.0000013335809, 10.003185, 10.000234 
2.8465927e+3, 1.6575871e+2, -969967.25, -1325771.6, 87451.63, -0.08879405, -0.040748805, -949634.8, 365920.38, 0.000000073245815, 10.003655, 9.998817 
2.8461924e+3, 1.7574888e+2, -806305.3, -1168688.0, 81450.45, 0.032337826, -0.14885578, -788840.0, 428805.66, 0.0, 10.004032, 9.999022 
2.8457898e+3, 1.8573949e+2, -759524.7, -1178287.9, -28412.18, 0.07873375, -0.14037341, -757605.8, 362130.28, 0.0, 10.003977, 9.998343 
2.8453854e+3, 1.9572978e+2, -693535.7, -1079090.6, -27119.63, 0.08193614, -0.19394526, -691637.5, 330194.94, 0.0, 10.003714, 9.998459 
2.844983e+3, 2.0572023e+2, -698120.1, -1119700.3, 152504.6, -0.053282525, -0.13632871, -648736.94, 275190.53, 0.0, 10.003431, 9.997632 
2.844581e+3, 2.1571045e+2, -636779.06, -1017330.0, 123631.81, -0.32205603, -0.1303968, -600141.4, 225883.63, 0.0, 10.003122, 9.997784 
2.8441802e+3, 2.257008e+2, -700450.56, -1034996.44, 4065.3213, -0.31252116, -0.046498507, -700401.2, 27720.348, 0.0, 10.002116, 9.9975195 
2.8437796e+3, 2.3569092e+2, -781132.2, -995700.25, 5305.6914, -0.104909845, -0.038616735, -781001.06, -150780.78, 0.0, 10.000765, 9.99777 
2.8433776e+3, 2.4568112e+2, -696453.94, -798978.94, 62376.645, -0.075400665, -0.026825385, -666978.06, -134659.56, 0.0, 10.000227, 9.998717 
2.8429747e+3, 2.5567055e+2, -579439.1, -668417.2, 78042.96, -0.11861172, -0.20003717, -534095.06, -99670.695, 0.0, 10.000281, 9.998896 
2.8425705e+3, 2.6566246e+2, -489198.34, -494982.6, -1599.1646, -0.16544025, -0.10536515, -488785.66, -152279.27, 0.0, 9.999904, 9.999561 
2.842165e+3, 2.7565616e+2, -438964.84, -396581.2, -61016.996, -0.23825648, 0.044450443, -353180.72, -114609.46, 0.0, 9.999485, 9.999764 
2.8417623e+3, 2.8564876e+2, -370688.28, -338917.44, 93383.586, -0.25835744, 0.15532026, -260077.77, -119434.305, 0.0, 9.999346, 9.999583 
2.841362e+3, 2.9563993e+2, -221403.94, -188241.66, 58166.94, -0.21907261, 0.051107492, -144338.69, -101610.914, 0.0, 9.999552, 9.999852 
2.8409636e+3, 3.05631e+2, -101734.08, 177317.13, 43754.813, 0.08234825, -0.12587978, 184016.95, 184016.95, 0.0, 9.998637, 10.002115 
2.8405696e+3, 3.156219e+2, -277427.06, 147547.42, 43436.836, 0.8304946, -0.55484706, 151941.69, 151941.69, 0.0, 9.996929, 10.002407 
2.8401595e+3, 3.2562122e+2, 133648.61, 448900.66, 156260.55, -0.14432742, -0.06355185, 513228.06, 513228.06, 0.0, 9.999407, 10.003201 
2.8577954e+3, 1.361929e+2, -1485443.9, -1612028.3, -423151.1, -0.22214873, 0.5335707, -1120877.8, 484440.88, 0.000013313222, 10.00161, 9.999819 
2.85739e+3, 1.4617643e+2, -1289559.9, -1492906.5, 175800.08, 0.0008927001, -0.2882353, -1188149.1, 319320.63, 0.0000038169696, 10.002415, 9.999609 
2.856993e+3, 1.5617086e+2, -1093440.1, -1320862.0, 190018.92, 0.3108315, -0.08159911, -985707.2, 423812.06, 0.0000005153316, 10.003031, 9.999792 
2.8565925e+3, 1.6616184e+2, -985112.94, -1321186.0, 108008.83, 0.28021577, -0.09810029, -953394.1, 358208.03, 0.00000002542409, 10.003511, 9.998909 
2.856188e+3, 1.7615028e+2, -861341.9, -1203917.3, 128184.88, -0.01688602, -0.37795192, -818688.4, 395021.44, 0.0, 10.003708, 9.998929 
2.8557837e+3, 1.861415e+2, -773091.25, -1190791.4, -17739.516, -0.15404746, -0.29049593, -772339.25, 343456.3, 0.0, 10.003924, 9.998268 
2.855379e+3, 1.9613402e+2, -702286.94, -1111196.5, 11953.732, -0.18227059, -0.09650752, -701937.8, 315934.25, 0.0, 10.003766, 9.998212 
2.854976e+3, 2.0612481e+2, -707125.44, -1167641.1, 155279.95, -0.3214773, 0.033077072, -659659.44, 260305.61, 0.0, 10.003525, 9.997256 
2.8545746e+3, 2.1611418e+2, -632077.75, -1054806.0, 128033.65, -0.5382155, 0.004586694, -596323.7, 225748.4, 0.0, 10.0032835, 9.997454 
2.854175e+3, 2.2610334e+2, -600282.1, -917254.0, -36466.008, -0.2908165, -0.050724104, -596141.0, 128040.2, 0.0, 10.002485, 9.998143 
2.8537762e+3, 2.36092e+2, -668814.25, -871219.75, -2738.9954, 0.22154354, -0.22210562, -668777.25, -42481.777, 0.0, 10.001165, 9.9984455 
2.8533727e+3, 2.4608491e+2, -497517.06, -514946.4, 90147.49, 0.20195794, -0.065091275, -415664.0, 112702.4, 0.0, 10.000716, 10.000453 
2.8529674e+3, 2.5607997e+2, -400775.7, -434714.28, 136755.06, -0.14039811, 0.18795498, -279941.13, 150474.72, 0.0, 10.000792, 10.000281 
2.8525633e+3, 2.660712e+2, -467821.0, -627583.1, 35166.8, -0.14344569, 0.220457, -460422.72, -127918.62, 0.0, 10.000609, 9.998333 
2.85216e+3, 2.7606016e+2, -356573.34, -493848.7, -17853.063, 0.032050062, 0.06461166, -354289.5, -119674.14, 0.0, 10.000577, 9.998594 
2.8517568e+3, 2.8605047e+2, -217810.33, -341042.8, 109291.27, -0.045763586, 0.027064094, -153962.86, -17252.281, 0.0, 10.000625, 9.998993 
2.851354e+3, 2.9604125e+2, -100000.555, -200265.05, 41160.035, -0.27039218, -0.019181993, -85268.4, -46469.445, 0.0, 10.000616, 9.999291 
2.8509524e+3, 3.0603313e+2, -123221.78, 38350.27, -107678.84, -0.14266695, -0.042151637, 92178.94, 92178.94, 0.0, 9.998967, 10.00104 
2.8505543e+3, 3.160256e+2, -453425.0, -102798.3, -155054.27, 0.4402837, -0.17705259, -44067.64, -44067.64, 0.0, 9.996368, 10.000996 
2.8501496e+3, 3.2601967e+2, -303570.5, -194032.25, -11510.589, -0.18506666, 0.05192206, -192835.77, -192835.77, 0.0, 9.998044, 9.999535 
2.8677875e+3, 1.3659598e+2, -1508999.1, -1696539.8, -117405.25, -0.32160708, 0.13418902, -1452513.5, 148840.27, 0.000005962988, 10.001712, 9.999207 
2.867387e+3, 1.4658129e+2, -1102959.9, -1562481.5, 229857.7, 0.13105583, -0.37470418, -1007721.25, 495775.6, 0.0000015122073, 10.004381, 9.99819 
2.866989e+3, 1.5657516e+2, -1095433.1, -1457787.9, 171525.88, 0.33797073, -0.069682546, -1027118.3, 378441.5, 0.0000000966577, 10.003575, 9.998597 
2.8665873e+3, 1.6656668e+2, -1024418.9, -1237043.9, 112487.37, 0.26134306, -0.03719735, -975954.94, 331683.78, 0.00000000026919006, 10.002756, 9.999877 
2.8661823e+3, 1.7655642e+2, -1098458.0, -1268058.0, 161112.33, -0.07606829, -0.26901168, -1001191.5, 208540.17, 0.0, 10.001798, 9.999437 
2.8657782e+3, 1.8654674e+2, -1032192.06, -1383076.1, 75390.914, -0.22277042, -0.24334988, -1016679.4, 95145.67, 0.0, 10.002514, 9.997588 
2.8653744e+3, 1.9653755e+2, -701154.6, -1173807.8, 43944.703, -0.21156901, -0.1528875, -697103.6, 316813.66, 0.0, 10.004127, 9.997567 
2.8649718e+3, 2.0652811e+2, -739404.8, -1171752.5, 160895.02, -0.30922553, -0.02281817, -686100.75, 229911.23, 0.0, 10.003253, 9.997365 
2.8645697e+3, 2.1651782e+2, -987628.2, -1229475.1, 162602.52, -0.46450362, -0.024326168, -905913.9, -87798.72, 0.0, 10.000828, 9.9974575 
2.8641692e+3, 2.2650708e+2, -854588.25, -1017320.4, 58301.684, -0.21193875, -0.069317654, -835856.75, -115632.586, 0.0, 10.000684, 9.998289 
2.86377e+3, 2.364957e+2, -614063.5, -814933.5, 46665.64, 0.3054238, -0.27524018, -603751.6, 18588.457, 0.0, 10.001515, 9.998607 
2.8633666e+3, 2.4648978e+2, -367015.7, -374012.75, 102096.21, 0.24762009, -0.040062398, -268358.1, 256041.56, 0.0, 10.0014105, 10.0009985 
2.86296e+3, 2.5648665e+2, -406775.44, -421232.94, 41312.01, -0.15156344, 0.30836087, -372064.5, 54365.78, 0.0, 10.000771, 10.000322 
2.8625563e+3, 2.6647753e+2, -451611.0, -720774.1, -15395.1455, -0.1082542, 0.35540625, -450733.3, -122211.1, 0.0, 10.001199, 9.997388 
2.8621545e+3, 2.764643e+2, -237761.28, -563197.2, -1104.2732, 0.20303872, 0.04841023, -237757.55, -7102.0557, 0.0, 10.001952, 9.997458 
2.8617513e+3, 2.8645337e+2, -238513.05, -429305.84, 119762.76, 0.10266451, -0.011855068, -180796.44, -48032.383, 0.0, 10.000945, 9.998182 
2.8613463e+3, 2.9644343e+2, -410136.53, -463101.88, 43201.01, -0.25685862, -0.065209225, -385947.13, -351085.94, 0.0, 9.99907, 9.9982 
2.8609413e+3, 3.0643535e+2, -188510.64, -177595.31, -137418.0, -0.33955222, 0.063002, -45526.637, -45526.637, 0.0, 9.999409, 9.999295 
2.860539e+3, 3.164287e+2, -118006.22, -207715.64, -147231.72, -0.05517691, 0.17177787, -8948.206, -8948.206, 0.0, 9.999904, 9.998536 
2.8601417e+3, 3.2641557e+2, -491444.38, -618552.5, 264431.38, -0.07103922, -0.0467789, -283036.9, -283036.9, 0.0, 9.998334, 9.996427 
2.8777814e+3, 1.3699828e+2, -1540376.4, -1771845.1, 52010.023, -0.35506105, -0.36928955, -1529227.0, 68162.88, 0.0000021473002, 10.001799, 9.998633 
2.8773844e+3, 1.4698751e+2, -1394799.5, -1894370.4, 186466.86, 0.21086603, -0.36347264, -1332875.6, 166631.25, 0.00000043033984, 10.00322, 9.996461 
2.8769818e+3, 1.5697984e+2, -1350792.4, -1719572.3, 189121.69, 0.051586762, -0.036163125, -1271048.5, 130550.01, 0.000000019645139, 10.002434, 9.997351 
2.8765795e+3, 1.6697288e+2, -998390.8, -1059411.8, 96378.5, -0.017870173, 0.11330824, -927808.75, 375856.4, 0.0, 10.002237, 10.001337 
2.8761753e+3, 1.7696586e+2, -1053394.6, -1164537.6, 161692.33, -0.20250653, 0.08007044, -937990.7, 267733.06, 0.0, 10.001761, 10.000159 
2.875773e+3, 1.8695395e+2, -1078646.1, -1526104.6, 134476.3, -0.22229712, -0.0801721, -1041341.5, 66494.68, 0.0, 10.002682, 9.996537 
2.875372e+3, 1.9693966e+2, -751601.56, -1293751.8, 118398.92, -0.118215375, -0.3791916, -726872.7, 283102.22, 0.0, 10.004153, 9.996752 
2.8749692e+3, 2.0692974e+2, -650154.5, -989456.5, 82318.83, -0.10730351, -0.33118185, -631237.6, 280833.7, 0.0, 10.003294, 9.998571 
2.8745657e+3, 2.169214e+2, -900007.5, -1086303.6, 132145.83, -0.18853275, -0.23026915, -831479.75, -17326.727, 0.0, 10.00098, 9.998364 
2.8741625e+3, 2.269129e+2, -790951.8, -975080.3, 127979.76, -0.20907979, -0.09399088, -725362.5, -9122.567, 0.0, 10.001051, 9.998406 
2.8737596e+3, 2.36904e+2, -509243.97, -774387.9, 124724.26, -0.16629544, -0.036342267, -459795.44, 158537.17, 0.0, 10.00223, 9.99856 
2.8733566e+3, 2.468949e+2, -335831.84, -497903.44, 94310.03, -0.1418033, -0.04852041, -292524.63, 227897.86, 0.0, 10.002162, 9.999818 
2.872953e+3, 2.568858e+2, -351903.3, -498699.34, 33934.324, -0.18310809, -0.14321634, -344438.44, 78071.9, 0.0, 10.001508, 9.999475 
2.87255e+3, 2.6687786e+2, -220548.88, -479149.84, 40485.625, -0.1685342, -0.01462315, -214358.77, 110232.71, 0.0, 10.002158, 9.998606 
2.8721467e+3, 2.7686977e+2, 44373.66, -338977.2, 64302.23, -0.10241711, 0.108540975, 54872.035, 281548.56, 0.0, 10.003436, 9.998304 
2.871744e+3, 2.8686e+2, -150863.83, -452579.0, 64074.016, 0.012737414, 0.16421445, -137820.56, -9043.986, 0.0, 10.001792, 9.9976225 
2.8713408e+3, 2.9684922e+2, -454018.72, -570826.4, 39539.52, 0.079322726, 0.11986292, -441893.25, -411008.06, 0.0, 9.99907, 9.997479 
2.8709364e+3, 3.0683848e+2, -61983.117, -286241.13, 52707.97, -0.083988376, 0.095851116, -50212.793, -50212.793, 0.0, 10.000929, 9.997836 
2.8705335e+3, 3.1682843e+2, 593844.8, 64288.785, -24642.506, -0.16100803, 0.049686793, 594989.06, 594989.06, 0.0, 10.004989, 9.9979925 
2.8701344e+3, 3.268177e+2, -42599.26, -30802.336, 119260.75, 0.01987955, -0.082901515, 82705.73, 82705.73, 0.0, 9.999695, 9.999833 
2.887782e+3, 1.3740084e+2, -1266907.8, -1547744.4, -188160.67, 0.21770073, -0.4095543, -1172545.9, 420907.38, 0.0000003382392, 10.003174, 9.999522 
2.887375e+3, 1.473953e+2, -1539145.3, -1688153.5, 104597.25, -0.10554777, -0.07894015, -1485230.4, 10283.921, 0.000000039050374, 10.000981, 9.998971 
2.886973e+3, 1.5738729e+2, -1585172.0, -1687057.8, 278989.88, -0.15097786, 0.008824665, -1352512.1, 45091.37, 0.0000000006124831, 10.000149, 9.998703 
2.8865725e+3, 1.6737898e+2, -1245764.6, -1368129.4, 225731.83, -0.06907878, 0.091746084, -1073070.8, 226613.5, 0.0, 10.001383, 9.999588 
2.8861713e+3, 1.7737052e+2, -906468.06, -1239902.4, 101244.84, -0.053354774, 0.065588176, -878133.6, 323627.5, 0.0, 10.003387, 9.998849 
2.8857693e+3, 1.8735898e+2, -876504.3, -1362314.5, 102091.55, -0.11692706, -0.051492278, -855922.06, 247947.88, 0.0, 10.0038, 9.9971485 
2.8853676e+3, 1.9734553e+2, -844770.1, -1302603.8, 155493.58, -0.11276717, -0.32946697, -796953.94, 209044.9, 0.0, 10.003358, 9.997111 
2.884965e+3, 2.073351e+2, -653661.25, -989241.8, 78327.695, -0.049602937, -0.33658335, -636279.1, 271820.25, 0.0, 10.003353, 9.998539 
2.8845614e+3, 2.1732609e+2, -571768.4, -935428.0, 37092.1, 0.009386996, -0.30451086, -568023.6, 242162.86, 0.0, 10.003358, 9.998245 
2.884157e+3, 2.273181e+2, -433018.3, -765153.3, 98953.81, -0.17235841, -0.13191645, -405771.9, 306494.13, 0.0, 10.003426, 9.998696 
2.883752e+3, 2.373103e+2, -370082.1, -719046.4, 88923.3, -0.4109869, 0.0010006817, -348729.2, 265615.6, 0.0, 10.003336, 9.998403 
2.8833488e+3, 2.4729966e+2, -358234.6, -615269.8, 57712.918, -0.33785853, -0.10152562, -345870.84, 170578.47, 0.0, 10.002495, 9.998862 
2.8829467e+3, 2.572874e+2, -523805.38, -683348.4, 44915.29, -0.14257275, -0.42584887, -512029.75, -93461.64, 0.0, 10.000833, 9.998533 
2.882543e+3, 2.672801e+2, -387192.6, -483364.28, 92082.414, -0.20994803, -0.23096772, -331396.7, -10753.153, 0.0, 10.000777, 9.999211 
2.8821388e+3, 2.7727455e+2, -323598.44, -503474.16, 35645.94, -0.33761624, 0.07034927, -316792.06, -94088.5, 0.0, 10.00095, 9.998347 
2.8817365e+3, 2.872656e+2, -213659.56, -535741.5, -38528.367, -0.09604746, 0.23861656, -209114.83, -84317.445, 0.0, 10.001635, 9.997107 
2.8813347e+3, 2.9725462e+2, -186748.27, -550250.1, 5337.1963, 0.2969985, 0.20282957, -186669.92, -159758.64, 0.0, 10.001433, 9.9964695 
2.8809315e+3, 3.0724207e+2, -146064.66, -446743.56, 199900.88, 0.10971513, 0.11448453, -46279.527, -46279.527, 0.0, 10.000963, 9.996709 
2.8805295e+3, 3.172292e+2, -165522.1, -381037.44, 103245.234, -0.16064957, -0.10394694, -124044.06, -124044.06, 0.0, 10.000211, 9.9972315 
2.880126e+3, 3.2722202e+2, -267268.1, 244423.61, -155901.34, 0.08135589, -0.11447932, 288181.38, 288181.38, 0.0, 9.996773, 10.003012 
2.897781e+3, 1.3780494e+2, -1324867.9, -1393880.5, -264478.7, 0.63363165, -0.16377491, -1092654.0, 496856.72, 0.0000000028010363, 10.00205, 10.001106 
2.897363e+3, 1.4780362e+2, -1280619.0, -1114489.0, 111147.125, -0.608811, 0.2845122, -1058797.0, 432722.88, 0.0, 10.00087, 10.002934 
2.8969634e+3, 1.5779604e+2, -1370430.9, -1360840.6, 256624.2, -0.36998874, 0.0406126, -1108966.8, 284624.9, 0.0, 10.000682, 10.000674 
2.8965667e+3, 1.6778459e+2, -1414942.6, -1827970.6, 277746.38, -0.052280802, -0.06053233, -1275348.1, 20356.275, 0.0, 10.00185, 9.996206 
2.8961697e+3, 1.777719e+2, -1046118.3, -1539620.3, 175398.31, 0.16491264, -0.17914435, -990130.75, 207699.22, 0.0, 10.003431, 9.99677 
2.8957662e+3, 1.8776305e+2, -735561.56, -1073455.0, 93361.414, -0.03476694, -0.07271061, -711481.5, 388432.88, 0.0, 10.003791, 9.999139 
2.8953612e+3, 1.9775496e+2, -767679.8, -1135183.9, 158909.72, -0.3294812, 0.017845634, -708497.44, 293492.9, 0.0, 10.003287, 9.998307 
2.894959e+3, 2.0774359e+2, -710507.4, -1149804.1, 85553.76, -0.20293042, -0.059207335, -694433.8, 209667.9, 0.0, 10.003489, 9.997382 
2.8945577e+3, 2.1773113e+2, -544628.1, -990546.2, 73727.0, 0.0037866498, -0.25405595, -532754.44, 273469.84, 0.0, 10.003775, 9.9976845 
2.8941533e+3, 2.2772141e+2, -292809.5, -631170.0, 104137.28, -0.12853272, -0.27806622, -263327.9, 444987.7, 0.0, 10.004065, 9.999319 
2.8937483e+3, 2.3771271e+2, -207740.89, -578044.6, 92308.086, -0.3862735, -0.27944127, -186006.33, 424389.4, 0.0, 10.004103, 9.999023 
2.8933442e+3, 2.4770415e+2, -279208.5, -576832.3, 7654.027, -0.29922736, -0.20638177, -279011.78, 233468.38, 0.0, 10.002977, 9.998912 
2.89294e+3, 2.57695e+2, -431518.66, -632098.1, 40840.16, -0.12267283, -0.20735137, -423521.97, -8949.775, 0.0, 10.001355, 9.998655 
2.8925362e+3, 2.6768523e+2, -394554.84, -546954.5, 118581.5, -0.18729334, -0.22912541, -329800.8, -13131.438, 0.0, 10.000947, 9.998707 
2.892132e+3, 2.7767542e+2, -305795.44, -523472.88, 67216.61, -0.3440823, -0.27558053, -286712.53, -67945.016, 0.0, 10.001133, 9.998131 
2.891729e+3, 2.8766647e+2, -71971.055, -439869.72, 29369.092, -0.30029997, -0.1179045, -69641.29, 51218.594, 0.0, 10.00241, 9.997414 
2.8913257e+3, 2.9765743e+2, 237130.11, -265439.6, 55254.01, -0.15772837, 0.029799337, 243133.19, 266087.44, 0.0, 10.003922, 9.997242 
2.8909233e+3, 3.0764747e+2, 46687.797, -223066.88, 166434.23, -0.0706991, 0.090738475, 126035.23, 126035.23, 0.0, 10.001682, 9.997941 
2.8905228e+3, 3.176369e+2, -423632.47, -445566.06, 113855.78, 0.11312673, 0.045537468, -320216.53, -320216.53, 0.0, 9.998104, 9.9978695 
2.8901178e+3, 3.2762843e+2, -421412.9, -112890.47, -236956.95, 0.40823835, 0.11193132, 15593.992, 15593.992, 0.0, 9.996736, 10.000738 
2.9077688e+3, 1.3821572e+2, -1407737.9, -1543440.9, -77526.4, 0.023868324, -0.021995794, -1372564.4, 212918.23, 0.00000000011876347, 10.001873, 10.000215 
2.90736e+3, 1.4820875e+2, -1223549.5, -1429824.4, 235913.33, -0.29978836, 0.1236259, -1069213.8, 418338.22, 0.0, 10.002726, 9.999902 
2.9069594e+3, 1.5820019e+2, -919423.1, -1357140.5, 67006.305, -0.30510548, 0.054636993, -909395.44, 480239.63, 0.0, 10.004688, 9.998778 
2.9065624e+3, 1.6818824e+2, -970867.8, -1568119.9, 127553.38, -0.05153625, -0.080181375, -944767.25, 346983.47, 0.0, 10.004724, 9.996604 
2.9061654e+3, 1.7817514e+2, -971940.4, -1459471.3, 184383.72, 0.18590482, -0.28385746, -910060.7, 283817.53, 0.0, 10.003761, 9.997174 
2.9057607e+3, 1.8816777e+2, -858400.6, -1044180.44, 94812.35, -0.09003054, -0.09198676, -818558.0, 277390.9, 0.0, 10.002579, 9.9999 
2.9053542e+3, 1.9816186e+2, -1035432.94, -1223676.4, 101495.64, -0.4439979, 0.12771566, -991134.06, 6871.0654, 0.0, 10.001289, 9.998625 
2.904953e+3, 2.0815079e+2, -958900.8, -1316013.5, 109697.6, -0.26089373, 0.08741658, -927895.9, -27779.912, 0.0, 10.0019865, 9.996933 
2.9045534e+3, 2.181377e+2, -702947.5, -1096654.6, 126339.9, 0.074963026, -0.14233111, -665892.75, 136354.38, 0.0, 10.002835, 9.997387 
2.9041493e+3, 2.2812721e+2, -506361.13, -684640.8, 144538.75, -0.06020402, -0.259793, -425685.28, 278657.3, 0.0, 10.002418, 9.999716 
2.9037437e+3, 2.3811767e+2, -638989.0, -793776.2, 99497.24, -0.31296757, -0.3935415, -590329.2, 16097.395, 0.0, 10.001192, 9.998928 
2.9033387e+3, 2.4811015e+2, -460501.84, -662695.0, 9549.91, -0.2757253, -0.20199944, -460051.78, 48449.816, 0.0, 10.001838, 9.998788 
2.9029337e+3, 2.5810272e+2, -358751.22, -641789.1, 27316.98, -0.13739602, -0.034882188, -356138.88, 54439.902, 0.0, 10.002146, 9.998152 
2.9025295e+3, 2.6809135e+2, -257941.03, -522450.6, 144800.05, -0.19435848, -0.17322807, -194087.73, 118601.695, 0.0, 10.00212, 9.998282 
2.9021257e+3, 2.7807862e+2, -322182.6, -589515.25, 121674.03, -0.318084, -0.48699066, -275097.0, -60284.95, 0.0, 10.001321, 9.997585 
2.9017213e+3, 2.8806958e+2, -206109.66, -414713.0, 134803.69, -0.46397093, -0.35283697, -139968.17, -23066.148, 0.0, 10.001216, 9.998132 
2.901317e+3, 2.9806146e+2, -182328.34, -395065.97, 162064.86, -0.5439044, -0.17166437, -94843.234, -75859.0, 0.0, 10.0008545, 9.997789 
2.900917e+3, 3.0805245e+2, 121849.94, 3178.934, 175985.05, -0.047102146, -0.13991244, 248233.14, 248233.14, 0.0, 10.001537, 9.9994335 
2.900518e+3, 3.1804392e+2, -52071.73, -371747.94, 171926.72, 0.52886254, -0.092876926, 22839.004, 22839.004, 0.0, 10.0012865, 9.996741 
2.900101e+3, 3.28033e+2, 222402.88, -36248.125, 115971.305, -0.2918394, -0.11728142, 266785.25, 266785.25, 0.0, 10.002391, 9.998338 
2.9177564e+3, 1.3862666e+2, -1659868.9, -1870416.9, -275181.8, -0.5810799, -0.033568658, -1470511.5, 110935.26, 0.0000000000007792345, 10.001095, 9.998338 
2.91736e+3, 1.4861254e+2, -1567070.0, -2227267.8, 258797.0, 0.21963686, -0.1690091, -1477715.5, 5880.654, 0.0, 10.003124, 9.994227 
2.9169568e+3, 1.5860212e+2, -1198419.9, -1838285.6, 155281.48, -0.24809489, 0.098955736, -1162727.4, 222978.2, 0.0, 10.004275, 9.995679 
2.916558e+3, 1.6859105e+2, -877472.9, -1228100.8, 119677.78, -0.1560788, -0.019784594, -840518.75, 447289.84, 0.0, 10.004106, 9.999221 
2.9161593e+3, 1.7857979e+2, -931526.5, -1234320.8, 148228.89, -0.043598372, -0.2840196, -871044.2, 318866.53, 0.0, 10.00314, 9.999022 
2.9157534e+3, 1.8857256e+2, -869569.5, -1037852.2, 37019.707, -0.2870381, -0.15389866, -861785.75, 230194.6, 0.0, 10.002431, 10.000019 
2.9153466e+3, 1.9856621e+2, -1025909.4, -1208013.9, 95459.06, -0.5854327, 0.01976934, -985041.44, 9002.032, 0.0, 10.001269, 9.9987545 
2.9149473e+3, 2.085568e+2, -903699.1, -1244978.1, 149637.31, -0.28604308, 0.11722616, -847382.3, 48758.926, 0.0, 10.00211, 9.997391 
2.914549e+3, 2.1854624e+2, -601901.6, -973748.06, 150888.6, 0.088292904, 0.10435765, -548377.94, 249872.58, 0.0, 10.003148, 9.998107 
2.9141444e+3, 2.2853631e+2, -468442.84, -626601.5, 97322.0, -0.02635916, -0.013285471, -422122.34, 278218.44, 0.0, 10.002467, 10.000112 
2.9137376e+3, 2.3852646e+2, -597722.94, -750267.8, 101313.14, -0.2857417, -0.18707739, -547181.2, 55246.293, 0.0, 10.001294, 9.999204 
2.913332e+3, 2.485179e+2, -449102.88, -699785.56, 66066.66, -0.33496776, -0.089530684, -432757.06, 71757.414, 0.0, 10.002024, 9.998461 
2.912927e+3, 2.5850955e+2, -189791.94, -553709.1, 67376.15, -0.33109444, 0.026769646, -177718.39, 228883.81, 0.0, 10.003162, 9.998295 
2.9125234e+3, 2.6849973e+2, -136108.39, -435924.66, 139968.14, -0.2931041, 0.01835871, -80922.58, 227772.94, 0.0, 10.0027485, 9.998613 
2.91212e+3, 2.7848932e+2, -148404.56, -373707.06, 135433.95, -0.28751993, -0.09045259, -84894.914, 125897.31, 0.0, 10.001861, 9.998829 
2.9117152e+3, 2.884798e+2, -75867.34, -137180.28, 196542.89, -0.37455767, -0.17729943, 92395.58, 205274.17, 0.0, 10.001141, 10.000089 
2.9113114e+3, 2.9846957e+2, -133052.81, -73189.95, 284086.22, -0.29951972, -0.38684562, 182537.28, 197508.83, 0.0, 9.999787, 10.000528 
2.9277545e+3, 1.3902663e+2, -1512471.0, -1841351.4, -215645.0, -0.14289063, -0.249271, -1405722.4, 171811.67, 0.0, 10.002241, 9.997992 
2.9273525e+3, 1.4901984e+2, -1069442.8, -1798993.3, 136866.28, -0.22031757, 0.2102459, -1044611.3, 434996.94, 0.0, 10.005682, 9.995948 
2.9269537e+3, 1.59006e+2, -1144611.0, -1702342.5, 289285.75, -0.18071897, -0.0032275845, -1021665.4, 360080.56, 0.0, 10.004131, 9.996693 
2.926554e+3, 1.6899584e+2, -1149296.0, -1359861.3, 206632.36, -0.09766959, -0.04459596, -1022670.5, 261171.34, 0.0, 10.002209, 9.999248 
2.926153e+3, 1.7898628e+2, -1344092.3, -1439308.6, 128536.18, -0.06894904, -0.1347539, -1254630.8, -68700.336, 0.0, 10.000311, 9.998999 
2.925748e+3, 1.8897794e+2, -1042616.25, -1171552.3, 19215.93, -0.24745622, -0.09331633, -1039813.4, 48198.094, 0.0, 10.001479, 9.999551 
2.9253426e+3, 1.9896981e+2, -831657.0, -1148593.0, 24797.773, -0.3758887, -0.061135255, -829728.5, 160363.55, 0.0, 10.00273, 9.998482 
2.924943e+3, 2.0896134e+2, -822833.8, -1128083.6, 102531.19, -0.15331574, 0.083472356, -791591.94, 100588.375, 0.0, 10.002373, 9.998051 
2.9245433e+3, 2.1895261e+2, -857497.7, -1027164.44, 92605.17, 0.114146486, 0.16827634, -816742.8, -22471.709, 0.0, 10.001133, 9.998705 
2.9241377e+3, 2.2894396e+2, -654900.06, -644867.4, 53327.156, -0.04487891, 0.10748687, -596321.1, 100027.945, 0.0, 10.000914, 10.000724 
2.9237306e+3, 2.38935e+2, -737290.2, -818995.06, 95940.33, -0.26759654, -0.043141026, -673866.7, -75438.414, 0.0, 10.000396, 9.999158 
2.9233256e+3, 2.4892554e+2, -588909.06, -804083.9, 125559.375, -0.3372782, -0.004049725, -531147.75, -30622.42, 0.0, 10.001278, 9.9981 
2.9229215e+3, 2.589161e+2, -403192.66, -653908.5, 101709.71, -0.34775972, 0.017395576, -367121.1, 35502.895, 0.0, 10.001766, 9.998275 
2.922518e+3, 2.6890787e+2, -196510.36, -328761.06, 182376.75, -0.266101, 0.093396194, -68641.28, 236057.33, 0.0, 10.001899, 9.9996805 
2.9221144e+3, 2.7889973e+2, -201553.55, -285646.78, 228886.55, -0.18990262, 0.09247203, -10883.667, 195885.89, 0.0, 10.001114, 9.999762 
2.921709e+3, 2.8889006e+2, 17269.717, 34660.598, 207676.13, -0.30190194, -0.10743265, 233823.23, 342676.78, 0.0, 10.001342, 10.001116 
2.9213062e+3, 2.9887882e+2, 21672.486, 230547.69, 174857.42, -0.025801634, -0.6041414, 329782.22, 340734.13, 0.0, 9.999953, 10.00253 
2.9377508e+3, 1.3942647e+2, -1604691.4, -1784271.0, 239411.53, 0.004627137, -0.13100114, -1438785.9, 134841.67, 0.0, 10.001245, 9.99884 
2.9373422e+3, 1.4942771e+2, -1035857.06, -1233859.8, 73502.64, -1.016015, 0.75450146, -1011554.3, 464059.72, 0.0, 10.003552, 10.000849 
2.9369503e+3, 1.5941061e+2, -1174427.8, -1463151.1, 190223.16, -0.17031741, -0.22095512, -1079990.0, 297783.28, 0.0, 10.002834, 9.9989605 
2.9365492e+3, 1.6940187e+2, -1292897.4, -1583354.6, 106996.805, -0.004357417, -0.10055347, -1257738.5, 22122.797, 0.0, 10.001884, 9.997867 
2.9361454e+3, 1.7939417e+2, -1408607.6, -1600927.3, 116234.97, -0.087448426, 0.12921551, -1353912.3, -171971.9, 0.0, 10.000414, 9.997845 
2.935743e+3, 1.8938369e+2, -1088220.5, -1293715.6, 77435.84, -0.07347292, 0.051298913, -1062308.3, 21734.854, 0.0, 10.001584, 9.998667 
2.9353416e+3, 1.993729e+2, -836473.1, -1149811.6, 53956.523, -0.025052045, -0.10079292, -827442.2, 158705.83, 0.0, 10.002679, 9.998498 
2.9349393e+3, 2.0936437e+2, -757960.2, -984761.6, 58223.18, 0.03143911, -0.03469864, -743886.75, 144346.08, 0.0, 10.002351, 9.999042 
2.934536e+3, 2.1935633e+2, -736210.9, -838882.56, 63264.844, 0.012929612, 0.028207975, -706073.94, 84238.414, 0.0, 10.001348, 9.999911 
2.9341295e+3, 2.2934982e+2, -545469.06, -489373.0, 35061.645, -0.18003872, 0.07435341, -472521.03, 219848.5, 0.0, 10.001116, 10.001746 
2.933722e+3, 2.3934299e+2, -604791.1, -685214.1, 101349.53, -0.40057454, 0.05912268, -535967.4, 58462.086, 0.0, 10.000885, 9.999889 
2.93332e+3, 2.4933273e+2, -565070.44, -828139.6, 143693.02, -0.25729024, 0.01071724, -501799.9, -5266.2783, 0.0, 10.0015, 9.997879 
2.932918e+3, 2.59322e+2, -252093.23, -449460.1, 109623.92, -0.077322066, -0.087879755, -203278.11, 195364.55, 0.0, 10.002123, 9.999547 
2.9325148e+3, 2.693138e+2, -19153.61, 18631.98, 176852.63, 0.0035886788, -0.22513913, 177598.1, 478307.28, 0.0, 10.001895, 10.002104 
2.93211e+3, 2.7930593e+2, -41243.54, -124980.59, 231409.42, 0.0030442774, -0.39066797, 152054.47, 354825.72, 0.0, 10.0016985, 10.000633 
2.9317033e+3, 2.8929597e+2, -81401.08, -292297.28, 173150.36, -0.22365806, -0.48679438, 15883.036, 120752.914, 0.0, 10.001668, 9.998816 
2.931298e+3, 2.9928866e+2, 242084.34, 88183.75, 87234.92, -0.21014138, -0.34559712, 281458.06, 288402.2, 0.0, 10.0022545, 10.000537 
2.9477394e+3, 1.3982876e+2, -1831572.6, -1816361.6, 175046.34, -0.38241434, 0.049493127, -1648755.6, -79072.3, 0.0, 9.99924, 9.999635 
2.947338e+3, 1.4982623e+2, -1677256.3, -1377819.4, 79759.42, -0.69460344, 0.43559575, -1357899.5, 113805.96, 0.0, 9.998406, 10.002365 
2.9469454e+3, 1.5981314e+2, -1487756.3, -1467081.3, 26342.527, 0.016335806, -0.2971197, -1449120.5, -75294.42, 0.0, 10.000026, 10.000312 
2.9465434e+3, 1.6980673e+2, -1284519.9, -1471888.3, 9016.514, 0.06949947, -0.06179972, -1284087.0, -8194.561, 0.0, 10.001512, 9.998818 
2.9461393e+3, 1.7980053e+2, -1089382.3, -1432730.0, 120423.09, -0.063147984, 0.24142045, -1051357.3, 126601.37, 0.0, 10.002561, 9.997948 
2.9457372e+3, 1.8978953e+2, -1000015.56, -1326269.3, 137704.23, -0.061105344, 0.15865047, -949664.5, 130403.34, 0.0, 10.002518, 9.997981 
2.9453364e+3, 1.9977789e+2, -961850.7, -1225739.9, 92735.23, 0.048888884, -0.028343858, -932521.6, 49660.695, 0.0, 10.001906, 9.998337 
2.944933e+3, 2.097689e+2, -835397.94, -962902.3, 56465.55, -0.0015500158, -0.050568294, -813987.3, 70280.93, 0.0, 10.001559, 9.999569 
2.9445282e+3, 2.1976066e+2, -836708.25, -883422.25, 24380.563, -0.08940013, -0.050776582, -826301.94, -39955.523, 0.0, 10.000648, 9.999963 
2.944122e+3, 2.2975457e+2, -563221.2, -463981.1, -26066.768, -0.20929289, 0.011766159, -457550.94, 230848.84, 0.0, 10.000948, 10.001932 
2.9437158e+3, 2.3974833e+2, -636738.2, -707501.4, 3168.4612, -0.30629182, 0.014584077, -636596.56, -46141.11, 0.0, 10.000795, 9.999734 
2.9433146e+3, 2.497384e+2, -516053.75, -753535.7, 107918.266, -0.15484451, -0.031857762, -474339.84, 18216.982, 0.0, 10.001747, 9.998208 
2.9429138e+3, 2.5972813e+2, -246314.9, -368089.78, 77301.945, 0.07151842, -0.14824288, -208800.77, 185859.42, 0.0, 10.001945, 10.000166 
2.9425097e+3, 2.6972058e+2, -91919.9, 109861.16, 26574.223, 0.12857358, -0.33030307, 113302.25, 410019.88, 0.0, 10.000879, 10.003226 
2.942104e+3, 2.7971283e+2, -443864.06, -360592.44, 24680.906, 0.09739875, -0.5932297, -353826.94, -155050.36, 0.0, 9.999204, 10.000197 
2.941697e+3, 2.897017e+2, -301928.53, -560260.9, 75003.11, -0.20079988, -0.70399755, -281731.5, -180836.95, 0.0, 10.000966, 9.997267 
2.94129e+3, 2.9969808e+2, -27716.03, -279299.97, 179233.0, -0.46301505, -0.019336078, 65462.523, 68405.69, 0.0, 10.001674, 9.998215 
2.957729e+3, 1.4022894e+2, -1797728.8, -1707902.9, -127315.98, -0.56840265, -0.03557729, -1617810.1, -52055.785, 0.0, 9.999091, 10.000461 
2.957335e+3, 1.5022188e+2, -1597659.8, -1353747.4, 148352.05, -0.04548756, -0.13229445, -1283657.6, 184165.48, 0.0, 9.999037, 10.002214 
2.956939e+3, 1.6021514e+2, -1426881.9, -1351627.4, 69019.64, 0.121197976, -0.23008183, -1310644.8, 59241.715, 0.0, 10.000069, 10.001092 
2.956537e+3, 1.7021072e+2, -1145356.9, -1151172.9, 28928.168, 0.07435996, 0.014985188, -1119190.9, 152740.8, 0.0, 10.001363, 10.001089 
2.9561332e+3, 1.802058e+2, -1080848.6, -1322146.6, 112102.984, -0.15028398, 0.25597507, -1036806.2, 137176.7, 0.0, 10.002146, 9.99891 
2.9557303e+3, 1.9019546e+2, -1061543.0, -1407414.8, 98884.7, -0.24919654, 0.23575431, -1035267.9, 40820.23, 0.0, 10.002291, 9.997537 
2.9553276e+3, 2.0018438e+2, -966763.9, -1237434.4, 67987.69, -0.28489774, 0.14754538, -950646.3, 27552.773, 0.0, 10.001855, 9.9983 
2.9549235e+3, 2.101749e+2, -795257.7, -928659.4, 22831.29, -0.30355632, 0.0597132, -791458.4, 88828.86, 0.0, 10.001663, 9.999801 
2.9545188e+3, 2.2016574e+2, -763795.0, -856895.5, 2142.959, -0.34512112, -0.04070847, -763745.7, 18625.723, 0.0, 10.001109, 9.999947 
2.954116e+3, 2.3015739e+2, -592694.5, -588874.3, -38477.355, -0.15431961, -0.13465224, -552259.7, 132187.42, 0.0, 10.001213, 10.000956 
2.9537123e+3, 2.4014936e+2, -493649.72, -596595.9, -6031.034, -0.010818861, -0.2318681, -493297.6, 93223.89, 0.0, 10.001517, 10.000162 
2.9533094e+3, 2.5014192e+2, -332947.22, -518008.0, 112067.74, -0.10357141, -0.14880945, -280146.75, 208454.19, 0.0, 10.002264, 9.999633 
2.952906e+3, 2.601347e+2, -90975.94, -273260.44, 22896.363, -0.18231508, -0.057239436, -88143.97, 302533.97, 0.0, 10.002797, 10.000458 
2.9525e+3, 2.7012974e+2, -171496.97, -123557.31, -126975.01, -0.12034681, 0.122180745, -18309.477, 274412.28, 0.0, 10.001064, 10.001584 
2.952093e+3, 2.8012362e+2, -387096.13, -347833.34, -71128.2, -0.13126555, 0.16583611, -293677.13, -98901.8, 0.0, 9.999519, 10.000179 
2.951689e+3, 2.9010978e+2, -93843.43, -303004.28, 86685.98, -0.3029076, -0.33577377, -62587.47, 34325.79, 0.0, 10.001568, 9.998812 
2.9512885e+3, 3.0010548e+2, 319443.0, 65888.77, 104658.77, -0.0853985, 0.14535592, 357061.44, 357061.44, 0.0, 10.0030365, 9.999991 
2.9677248e+3, 1.40631e+2, -1403656.6, -1362575.4, -37468.344, -0.24678569, -0.14335401, -1340386.8, 221425.39, 0.0, 10.001143, 10.001824 
2.9673287e+3, 1.506238e+2, -1217380.6, -1298533.9, 229854.1, -0.0012148336, -0.18521196, -1024549.06, 439332.0, 0.0, 10.002233, 10.00105 
2.9669312e+3, 1.6061817e+2, -1204444.8, -1316424.3, 76918.8, 0.008431276, -0.058493048, -1165295.9, 200639.88, 0.0, 10.001885, 10.000464 
2.9665294e+3, 1.7061204e+2, -1157766.3, -1175021.0, -66424.414, -0.035228476, 0.033447042, -1099411.3, 168587.03, 0.0, 10.001294, 10.00098 
2.9661265e+3, 1.8060568e+2, -1259646.5, -1319754.1, -85390.68, -0.17591578, 0.09175751, -1199175.3, -29112.258, 0.0, 10.000505, 9.999738 
2.9657236e+3, 1.9059707e+2, -1282056.4, -1338507.8, -29538.088, -0.20860948, 0.0896346, -1269426.4, -197277.89, 0.0, 10.000063, 9.999082 
2.9653215e+3, 2.0058776e+2, -1260266.5, -1299103.8, 66019.65, -0.1469337, 0.044613518, -1210868.9, -236628.6, 0.0, 9.999545, 9.998987 
2.9649174e+3, 2.1057892e+2, -833518.5, -893907.75, 67716.35, -0.26115397, -0.025233548, -789569.9, 86751.73, 0.0, 10.001278, 10.000182 
2.9645124e+3, 2.2056979e+2, -652942.25, -872636.0, 22728.637, -0.34756443, -0.13966961, -650615.5, 127790.34, 0.0, 10.002248, 9.999262 
2.9641098e+3, 2.3056035e+2, -501694.94, -687857.9, -31578.668, -0.12545839, -0.23366807, -496484.13, 184013.53, 0.0, 10.002469, 9.999668 
2.9637074e+3, 2.4055168e+2, -484254.72, -605543.44, -26973.549, 0.113477, -0.31020737, -478526.56, 104056.0, 0.0, 10.001679, 10.000036 
2.9633027e+3, 2.505462e+2, -539994.44, -464392.84, 70262.875, -0.115398094, -0.13962594, -422407.84, 62234.273, 0.0, 10.0002165, 10.000964 
2.9628977e+3, 2.6054093e+2, -714172.2, -606728.1, -14128.812, -0.33573005, 0.041137572, -604901.25, -218201.44, 0.0, 9.99874, 10.000091 
2.962491e+3, 2.7053627e+2, -259409.22, -295441.97, -111078.25, -0.3051889, 0.34279114, -164895.73, 123852.13, 0.0, 10.001085, 10.000346 
2.962084e+3, 2.8053048e+2, -49976.566, -222722.5, 30321.898, -0.29757044, 0.51273197, -44808.793, 145996.78, 0.0, 10.002119, 9.999753 
2.961683e+3, 2.9051715e+2, -9524.639, -107413.37, 189488.47, -0.3255488, -0.027869135, 137238.52, 230171.73, 0.0, 10.001614, 10.000065 
2.9612884e+3, 3.0051076e+2, 27152.266, 77043.86, 47291.098, 0.40789437, 0.088810876, 105565.26, 105565.26, 0.0, 10.000548, 10.001218 
2.9777196e+3, 1.4103541e+2, -1486520.3, -1302637.4, 28929.87, -0.10888299, -0.083257906, -1298193.3, 259654.75, 0.0, 10.000259, 10.002623 
2.9773206e+3, 1.5102802e+2, -1384439.0, -1548197.6, 212865.6, -0.24665914, -0.038120568, -1238248.3, 221668.84, 0.0, 10.001851, 9.999504 
2.9769224e+3, 1.6102135e+2, -1333357.8, -1542332.4, 52359.19, -0.3012292, 0.14152697, -1320972.9, 41010.008, 0.0, 10.001719, 9.998991 
2.9765204e+3, 1.7101169e+2, -1285841.1, -1387445.0, -70640.45, -0.2585079, 0.01653121, -1249632.1, 14449.549, 0.0, 10.001074, 9.99963 
2.9761183e+3, 1.810023e+2, -1198191.5, -1163950.3, -101728.42, -0.28702578, -0.1505801, -1077911.9, 88264.5, 0.0, 10.000362, 10.000885 
2.975718e+3, 1.9099571e+2, -1029635.94, -883180.7, -64897.906, 0.00041434867, -0.21564117, -858561.4, 209675.13, 0.0, 10.000293, 10.002127 
2.9753175e+3, 2.0098884e+2, -1091996.8, -1032949.2, 69595.42, 0.23547354, -0.27955744, -986874.1, -16574.99, 0.0, 9.999831, 10.000704 
2.9749137e+3, 2.1098074e+2, -793216.7, -840481.9, 112742.64, 0.026406506, -0.33718032, -701656.4, 170717.63, 0.0, 10.001382, 10.000521 
2.9745084e+3, 2.2097257e+2, -607689.44, -913290.5, 23306.563, -0.22634147, -0.35962564, -605922.2, 168530.63, 0.0, 10.0027275, 9.998791 
2.9741037e+3, 2.3096415e+2, -525864.1, -882378.94, -50059.707, -0.21206047, -0.21980605, -518968.44, 157578.05, 0.0, 10.0029545, 9.998166 
2.973699e+3, 2.4095641e+2, -331507.25, -504701.97, -93751.26, -0.1839664, -0.095911, -290478.6, 288153.47, 0.0, 10.002511, 10.000364 
2.9732937e+3, 2.5095168e+2, -461284.75, -312478.6, -41075.313, -0.24351294, 0.057106625, -301893.44, 178784.53, 0.0, 10.000166, 10.002073 
2.9728886e+3, 2.6094595e+2, -632768.1, -460684.88, -15168.851, -0.30775648, 0.09813851, -459358.0, -76625.164, 0.0, 9.998696, 10.00115 
2.9724845e+3, 2.7093577e+2, -104571.19, -168398.52, 13246.886, -0.2827947, -0.21119367, -101931.1, 182898.14, 0.0, 10.001826, 10.000934 
2.9720804e+3, 2.8092694e+2, 350240.75, 47301.46, 62063.516, -0.27605528, -0.37235868, 362462.7, 549375.0, 0.0, 10.004385, 10.000581 
2.97168e+3, 2.9092363e+2, 108055.945, -9845.566, 120410.03, -0.0012751555, 0.034352005, 183171.47, 272113.38, 0.0, 10.002134, 10.000558 
2.9712802e+3, 3.009146e+2, -14413.987, -50375.746, 76202.63, 0.35027632, -0.07545001, 45900.434, 45900.434, 0.0, 10.000628, 10.000346 
2.987713e+3, 1.4143614e+2, -1607423.8, -1483876.4, 57094.258, -0.043438315, -0.14242655, -1461532.6, 92382.195, 0.0, 9.999844, 10.001621 
2.9873136e+3, 1.5142946e+2, -1298079.6, -1440813.0, 200185.33, -0.38681307, -0.06194698, -1156920.1, 299056.16, 0.0, 10.002071, 10.000174 
2.9869175e+3, 1.6142137e+2, -1161056.6, -1419350.9, 68690.914, -0.22373681, -0.089882106, -1143925.3, 214129.61, 0.0, 10.002689, 9.999402 
2.9865152e+3, 1.7141272e+2, -1254405.3, -1348002.9, 11725.325, -0.097791694, -0.13069235, -1252958.8, 7186.7373, 0.0, 10.001192, 9.999871 
2.986113e+3, 1.8140411e+2, -1252408.5, -1192789.3, 97783.72, -0.03699475, -0.20920125, -1120372.3, 41861.88, 0.0, 10.000002, 10.000887 
2.985712e+3, 1.9139908e+2, -824160.7, -745423.44, 12915.341, 0.087099664, -0.12061346, -743359.06, 320921.66, 0.0, 10.001548, 10.002478 
2.9853106e+3, 2.0139378e+2, -705428.6, -801642.2, -8585.421, 0.20677437, -0.085730195, -704668.5, 261660.63, 0.0, 10.0023, 10.001106 
2.984907e+3, 2.1138489e+2, -780338.06, -842979.25, 9257.989, -0.0036510392, -0.2515342, -778998.44, 89414.984, 0.0, 10.001453, 10.000496 
2.9845026e+3, 2.2137699e+2, -979242.6, -1067685.9, -52386.508, -0.16422172, -0.27838895, -954908.44, -184416.94, 0.0, 10.000109, 9.999002 
2.9840973e+3, 2.3137072e+2, -811675.56, -955878.6, 16039.35, -0.22898822, 0.021634275, -809913.1, -137346.8, 0.0, 10.000813, 9.998671 
2.9836917e+3, 2.4136381e+2, -573414.1, -597860.25, 31695.164, -0.27339655, 0.21067134, -551666.8, 22978.576, 0.0, 10.000826, 10.000523 
2.9832858e+3, 2.5135806e+2, -406409.47, -215735.92, 3241.1611, -0.25055817, 0.22169705, -215680.83, 261018.17, 0.0, 10.000359, 10.002608 
2.982881e+3, 2.6135135e+2, -575427.25, -457580.1, 86593.11, -0.16731183, 0.14771865, -411764.22, -33004.137, 0.0, 9.999303, 10.000869 
2.982479e+3, 2.7133885e+2, -284812.63, -212047.81, 143153.44, -0.1766852, -0.41023678, -100725.82, 180150.27, 0.0, 10.000464, 10.00127 
2.9820764e+3, 2.8132877e+2, -196987.89, -232372.33, 61558.62, -0.19324324, -0.7339095, -150629.52, 32339.295, 0.0, 10.0008135, 10.000365 
2.9816762e+3, 2.9133087e+2, -89657.06, -101335.66, -18528.447, 0.22453582, 0.21258797, -76069.555, 8876.726, 0.0, 10.000893, 10.000492 
2.981269e+3, 3.0131555e+2, -224817.94, -219140.27, 66242.22, -0.066711746, -0.50963086, -155676.08, -155676.08, 0.0, 9.999692, 9.999588 
2.997704e+3, 1.4183481e+2, -1839390.3, -1656865.0, 187274.25, -0.21207206, -0.22896113, -1539799.8, 10201.337, 0.0, 9.998619, 10.001024 
2.9973066e+3, 1.5182848e+2, -1367161.3, -1271229.8, 177280.02, -0.50640714, -0.25608, -1135541.1, 316516.6, 0.0, 10.000781, 10.001958 
2.9969144e+3, 1.618194e+2, -1267253.1, -1335225.1, -27038.008, -0.047361735, -0.54632753, -1257809.9, 96334.04, 0.0, 10.001387, 10.00061 
2.9965124e+3, 1.7181352e+2, -1262371.0, -1230171.0, -115985.945, 0.28922895, -0.42269263, -1129173.0, 127035.24, 0.0, 10.000621, 10.000957 
2.9961088e+3, 1.818087e+2, -1283286.0, -1228049.0, 81319.06, 0.29916382, -0.19342236, -1169786.4, -11524.159, 0.0, 9.999919, 10.000664 
2.9957038e+3, 1.918055e+2, -917662.06, -950218.9, 83787.07, -0.1093785, 0.1990772, -848586.75, 211711.16, 0.0, 10.00164, 10.001006 
2.9953e+3, 2.018009e+2, -812870.8, -919014.56, -28873.725, -0.32938427, 0.44973597, -805524.8, 156821.1, 0.0, 10.001837, 10.000512 
2.9948977e+3, 2.1179228e+2, -803101.25, -815497.6, -40566.48, -0.28229687, 0.30251157, -768262.2, 96169.13, 0.0, 10.001145, 10.000821 
2.9944938e+3, 2.21784e+2, -759936.8, -736551.4, -68646.72, -0.3251754, 0.17099665, -678608.7, 87904.555, 0.0, 10.00059, 10.001046 
2.9940897e+3, 2.3177952e+2, -597936.1, -544942.7, 24278.238, -0.27511185, 0.391335, -535501.9, 133057.31, 0.0, 10.000876, 10.001502 
2.9936865e+3, 2.4177483e+2, -405246.78, -386095.6, 40531.07, -0.15280922, 0.5728977, -354024.34, 216582.88, 0.0, 10.001355, 10.001734 
2.993281e+3, 2.5176612e+2, -326053.72, -252319.3, -8875.585, -0.014429449, 0.32346132, -251265.97, 221426.16, 0.0, 10.001181, 10.002004 
2.992876e+3, 2.617582e+2, -411347.84, -403621.2, 95653.57, 0.04630021, 0.20089996, -311752.97, 63015.957, 0.0, 10.000433, 10.000751 
2.9924738e+3, 2.717536e+2, -336191.66, -277090.5, 155953.95, 0.06572408, 0.48014072, -147912.14, 128900.03, 0.0, 10.000225, 10.001 
2.9920706e+3, 2.8174707e+2, -323165.53, -401088.03, 57906.043, -0.008054197, 0.5836878, -292333.6, -113458.3, 0.0, 10.000316, 9.999505 
2.991667e+3, 2.9173622e+2, -204102.75, -354161.94, -42676.676, 0.04673378, 0.39083675, -192814.69, -111828.96, 0.0, 10.000863, 9.998892 
2.9912534e+3, 3.017182e+2, -8047.409, 87131.97, -62362.434, -0.8411918, -0.5214178, 117988.77, 117988.77, 0.0, 10.000043, 10.0017185 
3.0076975e+3, 1.4223161e+2, -1966160.9, -1557487.4, 142454.17, 0.04476517, -0.22246252, -1512732.4, 33374.195, 0.0, 9.996814, 10.002671 
3.0072993e+3, 1.5222691e+2, -1596214.1, -1340861.4, 85406.87, -0.39551446, -0.1721384, -1314929.3, 133226.3, 0.0, 9.998995, 10.002325 
3.0069074e+3, 1.6222128e+2, -1553561.5, -1436114.5, -242179.97, 0.03952962, -0.17268689, -1245640.1, 104573.96, 0.0, 9.99915, 10.000982 
3.0064994e+3, 1.7221668e+2, -1175139.6, -1136533.5, -364250.84, -0.25571245, -0.016150618, -791074.6, 461192.28, 0.0, 10.000887, 10.001439 
3.0060968e+3, 1.8221095e+2, -860145.1, -878552.4, -123278.336, -0.24182433, -0.024845637, -745727.3, 408599.75, 0.0, 10.002063, 10.002054 
3.0056998e+3, 1.922044e+2, -870369.4, -743642.06, 13194.47, 0.09558166, -0.2040186, -742282.9, 314102.56, 0.0, 10.001038, 10.002711 
3.005299e+3, 2.0219539e+2, -952835.75, -1033985.25, 92826.125, 0.19401337, -0.4712135, -892104.06, 66367.125, 0.0, 10.000945, 10.000159 
3.0048937e+3, 2.1219108e+2, -738027.1, -685039.44, 131255.89, -0.020629082, -0.24437426, -577630.2, 282886.78, 0.0, 10.001139, 10.001651 
3.0044875e+3, 2.2218552e+2, -675930.6, -580181.5, 67304.914, -0.2370664, -0.17151175, -545461.1, 217111.36, 0.0, 10.000625, 10.002073 
3.004082e+3, 2.3217681e+2, -805369.7, -425199.22, 117790.89, -0.19070472, -0.5619543, -391661.8, 272989.75, 0.0, 9.998492, 10.003384 
3.0036777e+3, 2.4217123e+2, -1250127.6, -978956.3, 106551.65, -0.14401512, -0.572892, -942098.56, -375394.0, 0.0, 9.996348, 10.000023 
3.003271e+3, 2.521658e+2, -619334.2, -709338.94, -84702.92, -0.28989103, -0.25955766, -568420.94, -99653.26, 0.0, 10.000586, 9.999027 
3.0028632e+3, 2.621577e+2, -106711.58, -465943.94, -142811.39, -0.5602693, -0.20786272, -56856.484, 313997.84, 0.0, 10.003465, 9.998793 
3.00246e+3, 2.7214825e+2, 52661.98, -207720.95, -142887.05, -0.63994855, -0.3504325, 115774.74, 388723.5, 0.0, 10.003495, 9.999777 
3.0020592e+3, 2.8214234e+2, 114413.44, -212427.8, -182942.88, -0.50714386, -0.15607285, 196297.52, 371307.53, 0.0, 10.003464, 9.99922 
3.0016652e+3, 2.9213616e+2, 246845.14, -51783.484, 30892.545, 0.5334888, 0.030465256, 250007.42, 327086.2, 0.0, 10.003754, 9.999433 
3.001257e+3, 3.0213308e+2, 384909.75, 494183.53, -39308.496, 0.26548886, 0.48924133, 506854.5, 506854.5, 0.0, 10.00204, 10.003397 
