coord_x,coord_y,stress_xx,stress_yy,tau_xy,velocity_x,velocity_y,stress_1,eps,damage,lx,ly
5.000411e+0, 1.2461847e+2, -1641126.1, -1640365.1, -15359.611, 0.024127025, -0.256553, -1625381.3, 93328.875, 0.0013801174, 10.000328, 10.000349 
5.00015e+0, 1.3461646e+2, -1601370.0, -1660890.6, -37212.797, -0.0014397238, -0.4128593, -1583480.9, 37248.75, 0.0008364695, 10.000322, 9.9995365 
5.0000393e+0, 1.4461821e+2, -1517823.9, -1595200.0, -32132.45, -0.01314691, -0.18377233, -1506220.1, 16493.586, 0.00038681776, 10.000334, 9.999304 
5.0001144e+0, 1.5461688e+2, -1426030.0, -1515702.6, -1731.688, -0.0067607746, -0.2436847, -1425996.5, -1267.2295, 0.00011816065, 10.000359, 9.999164 
5.000045e+0, 1.6461602e+2, -1323448.4, -1362344.4, 7159.454, -0.0037762884, -0.26877087, -1322172.4, 4567.0273, 0.000016018055, 10.00016, 9.999641 
4.9998122e+0, 1.7461517e+2, -1290866.0, -1295634.9, 5501.201, -0.004550538, -0.3262423, -1287254.8, -58506.51, 0.00000013955699, 9.999711, 9.999643 
4.9998078e+0, 1.8461502e+2, -1181906.9, -1158291.3, 19594.998, -0.0014532628, -0.31927818, -1147221.4, -16471.303, 0.0, 9.99964, 9.999949 
5.00007e+0, 1.9461584e+2, -1032583.8, -1038405.4, 17500.83, 0.006522869, -0.23847911, -1017753.4, 14988.721, 0.0, 10.000006, 9.999924 
5.0000757e+0, 2.0461605e+2, -943512.4, -983136.7, 10455.074, 0.0019009428, -0.19089721, -940922.94, -6182.4727, 0.0, 10.000111, 9.999578 
4.99978e+0, 2.1461554e+2, -877696.06, -905871.94, 16458.084, -0.017724605, -0.20643981, -870119.75, -33373.27, 0.0, 9.999911, 9.999532 
4.9998006e+0, 2.2461492e+2, -750547.06, -734208.44, 19184.318, -0.012808354, -0.2464416, -721526.44, 17224.223, 0.0, 9.999855, 10.000065 
5.000188e+0, 2.3461415e+2, -637006.94, -628434.1, 1271.7351, 0.020594187, -0.33902535, -628249.44, 12503.211, 0.0, 9.999961, 10.000067 
5.000356e+0, 2.446136e+2, -608301.06, -695064.9, -1319.4893, 0.03292472, -0.34321037, -608281.0, -65524.445, 0.0, 10.00005, 9.998895 
5.000274e+0, 2.5461334e+2, -505505.8, -604813.3, 12477.106, 0.020921485, -0.26017833, -503962.16, -59200.027, 0.0, 10.000126, 9.998804 
5.0000983e+0, 2.6461256e+2, -389257.22, -469351.2, 14835.723, 0.0032861384, -0.23105729, -386597.53, -39827.754, 0.0, 10.000128, 9.99906 
4.9998188e+0, 2.7461112e+2, -304619.34, -377926.47, 5169.524, -0.02013822, -0.28731135, -304256.6, -55477.074, 0.0, 10.000036, 9.999058 
4.9998045e+0, 2.8460914e+2, -270998.34, -399322.56, 7120.07, -0.018445652, -0.35237443, -270604.5, -119806.67, 0.000000010220777, 9.999974, 9.998268 
5.00009e+0, 2.946065e+2, -177104.83, -306209.28, 17948.441, 0.010961687, -0.4461696, -174656.05, -121830.04, 0.000007764773, 9.999958, 9.998242 
5.0000626e+0, 3.046068e+2, -116189.46, -243108.53, 27717.102, 0.005925576, -0.24671312, -110400.53, -110400.53, 0.00008416529, 10.000003, 9.998324 
4.9997777e+0, 3.14604e+2, 24702.559, 34120.17, 27216.592, -0.02590167, -0.3612084, 57032.297, 57032.297, 0.00029797413, 10.000065, 10.000199 
1.5001224e+1, 1.2461834e+2, -1680685.3, -1719604.8, -19152.25, 0.071702994, -0.22841415, -1672841.4, 45871.543, 0.00135349, 10.000318, 9.999811 
1.5000452e+1, 1.3461566e+2, -1640375.9, -1740256.1, -37049.94, -0.004368651, -0.3948534, -1628133.1, -7391.677, 0.0008181531, 10.000318, 9.998995 
1.5000117e+1, 1.4461733e+2, -1463777.8, -1480718.8, -32263.945, -0.03930158, -0.18287013, -1438891.0, 83835.62, 0.00037595516, 10.000324, 10.000094 
1.5000342e+1, 1.5461674e+2, -1368298.5, -1394005.6, -239.73523, -0.020267384, -0.2521489, -1368296.3, 56436.633, 0.00011312574, 10.000352, 10.000004 
1.5000136e+1, 1.6461684e+2, -1322346.3, -1358735.8, -10199.712, -0.011203235, -0.22630502, -1319682.3, 7050.9634, 0.000014709239, 10.000155, 9.99967 
1.4999439e+1, 1.7461729e+2, -1292286.9, -1297589.3, -11106.522, -0.0136209065, -0.15102203, -1283519.5, -54788.79, 0.00000010097208, 9.999707, 9.999633 
1.4999422e+1, 1.8461709e+2, -1186366.1, -1165413.3, 31647.62, -0.0043876697, -0.14686702, -1142553.1, -11819.859, 0.0, 9.999633, 9.999905 
1.5000209e+1, 1.9461627e+2, -1036404.25, -1044718.06, 32031.902, 0.019558804, -0.22415482, -1008260.6, 24479.09, 0.0, 10.0, 9.999884 
1.5000226e+1, 2.0461585e+2, -931519.56, -955971.8, 3011.3027, 0.0055541275, -0.24914576, -931154.2, 3589.0046, 0.0, 10.000102, 9.99977 
1.4999339e+1, 2.1461584e+2, -864996.4, -877422.44, 9921.448, -0.05312943, -0.23195083, -859503.1, -22759.89, 0.0, 9.999904, 9.999732 
1.4999402e+1, 2.2461559e+2, -780724.56, -794789.6, 21798.365, -0.038525842, -0.22439921, -764852.4, -26107.883, 0.0, 9.999846, 9.999653 
1.5000562e+1, 2.3461515e+2, -669923.56, -694914.25, 6100.5825, 0.061694108, -0.23941982, -668513.8, -27767.414, 0.0, 9.999953, 9.999615 
1.5001068e+1, 2.446143e+2, -584406.3, -643962.4, 605.8821, 0.09873332, -0.2650568, -584400.1, -41647.184, 0.0, 10.000044, 9.999249 
1.5000819e+1, 2.5461304e+2, -478005.78, -545426.75, 16062.544, 0.06252573, -0.319496, -474374.56, -29610.1, 0.0, 10.000117, 9.999217 
1.5000297e+1, 2.6461196e+2, -403731.66, -497392.94, 11011.019, 0.009969811, -0.33139676, -402454.6, -55680.547, 0.0, 10.00012, 9.998872 
1.4999454e+1, 2.7461112e+2, -323103.8, -413707.28, 2383.1628, -0.060608793, -0.30594566, -323041.16, -74260.195, 0.0, 10.000027, 9.998818 
1.4999415e+1, 2.8460968e+2, -252589.88, -358856.9, 5374.2607, -0.055040997, -0.31778747, -252318.77, -101523.76, 0.000000009053116, 9.999966, 9.99855 
1.500027e+1, 2.9460767e+2, -155474.16, -259161.97, 18866.84, 0.032616116, -0.38060877, -152147.88, -99331.81, 0.0000075983085, 9.99995, 9.9985695 
1.5000188e+1, 3.046082e+2, -113283.375, -234582.39, 29978.389, 0.018203463, -0.1749157, -106278.87, -106278.87, 0.000082482155, 9.999994, 9.998387 
1.4999324e+1, 3.1460547e+2, 26314.146, 41584.07, 30335.457, -0.07870042, -0.28764525, 65230.613, 65230.613, 0.00029308064, 10.00005, 10.000258 
2.5001353e+1, 1.2461854e+2, -1599144.5, -1683262.9, 17504.76, 0.023701662, -0.22963051, -1595647.3, 123064.89, 0.0013145427, 10.000896, 9.999781 
2.5000608e+1, 1.3461605e+2, -1646769.9, -1750570.1, 35383.547, -0.019999877, -0.3723978, -1635855.8, -15116.497, 0.0007913486, 10.000307, 9.998931 
2.5000226e+1, 1.4461778e+2, -1519069.4, -1495943.1, 44537.832, -0.039104704, -0.1554767, -1461491.9, 61232.344, 0.00036019128, 9.999895, 10.000198 
2.5000396e+1, 1.546172e+2, -1454963.6, -1423799.3, 21015.78, -0.01772175, -0.2341597, -1413219.1, 11511.512, 0.00010584406, 9.999705, 10.000112 
2.5000146e+1, 1.6461745e+2, -1366373.0, -1368880.9, -9792.947, -0.008577215, -0.20243941, -1357754.0, -31024.596, 0.000012859098, 9.999807, 9.999768 
2.4999423e+1, 1.7461824e+2, -1206430.0, -1245599.1, -3909.3726, -0.0129231075, -0.10371772, -1206043.6, 22679.701, 0.00000006033416, 10.000253, 9.999727 
2.4999332e+1, 1.8461809e+2, -1106728.4, -1127432.8, 40880.887, -0.0038499543, -0.098792106, -1074909.3, 55815.793, 0.0, 10.00018, 9.999902 
2.4999978e+1, 1.9461703e+2, -1108358.0, -1080085.4, 43146.61, 0.020971067, -0.20101897, -1048818.4, -16084.303, 0.0, 9.999509, 9.999878 
2.5000104e+1, 2.0461649e+2, -1019878.8, -980394.5, 28791.883, 0.0176527, -0.24420896, -965226.44, -30488.555, 0.0, 9.999416, 9.999933 
2.499962e+1, 2.1461652e+2, -839793.94, -845939.1, 33105.35, -0.019795217, -0.24028492, -809618.9, 27117.164, 0.0, 9.999993, 9.999905 
2.4999721e+1, 2.2461632e+2, -740360.0, -800667.0, 45303.23, -0.010408237, -0.22572634, -716092.75, 22644.258, 0.0, 10.000233, 9.999427 
2.5000504e+1, 2.3461595e+2, -668026.4, -721593.25, 43450.043, 0.05396482, -0.20831066, -643768.06, -3027.7498, 0.0, 10.000086, 9.999368 
2.500089e+1, 2.4461508e+2, -578686.06, -626146.8, 43187.67, 0.07800363, -0.23184265, -553138.6, -10390.93, 0.0, 10.000018, 9.999384 
2.500082e+1, 2.546136e+2, -477679.44, -527946.1, 39595.72, 0.054500192, -0.32413605, -455913.9, -11154.291, 0.0, 10.000045, 9.9993725 
2.5000492e+1, 2.6461253e+2, -414976.3, -520483.1, 26284.97, 0.017682532, -0.3366547, -408790.6, -62021.313, 0.0, 10.00012, 9.998714 
2.499989e+1, 2.7461195e+2, -299213.3, -422413.13, 20771.486, -0.03214041, -0.2682957, -295805.5, -47029.543, 0.0, 10.0002775, 9.998638 
2.4999766e+1, 2.8461057e+2, -199498.69, -315191.16, 18247.72, -0.030521363, -0.2700621, -196688.78, -45899.047, 0.000000009457464, 10.000254, 9.998712 
2.5000128e+1, 2.946084e+2, -139065.97, -231827.9, 20162.494, 0.022121381, -0.3618095, -134873.03, -82062.58, 0.0000073463098, 9.99998, 9.998743 
2.4999666e+1, 3.0460903e+2, -156882.47, -249499.33, 27265.299, -0.017250042, -0.16215423, -149452.02, -149452.02, 0.00008001909, 9.999671, 9.998441 
2.4998748e+1, 3.1460682e+2, -71294.2, 8088.8735, 23287.723, -0.1047308, -0.22957034, 14416.204, 14416.204, 0.0002860611, 9.999326, 10.000376 
3.500079e+1, 1.2461903e+2, -1566971.5, -1615524.8, -8564.522, -0.1255585, -0.26603466, -1565505.0, 153202.98, 0.0012623775, 10.000894, 10.000248 
3.500061e+1, 1.3461757e+2, -1617105.5, -1688851.6, 14056.416, -0.052005555, -0.34588337, -1614449.9, 6273.6333, 0.000755357, 10.000308, 9.999354 
3.5000363e+1, 1.4461952e+2, -1558240.1, -1577370.4, 35121.645, -0.017083028, -0.10209003, -1531404.4, -8697.785, 0.00033918672, 9.999896, 9.9996395 
3.500027e+1, 1.5461828e+2, -1497276.5, -1511112.4, 14251.115, -0.002302986, -0.18697007, -1488353.0, -63630.668, 0.00009620481, 9.999703, 9.999513 
3.5000062e+1, 1.6461788e+2, -1354872.0, -1343772.4, 5494.9253, 0.0007752691, -0.19784915, -1341512.3, -14784.401, 0.000010539653, 9.999803, 9.999943 
3.4999755e+1, 1.74618e+2, -1192351.5, -1215627.8, 13789.537, -0.006317469, -0.18453279, -1185945.4, 42780.7, 0.000000028001644, 10.00025, 9.999934 
3.4999526e+1, 1.8461803e+2, -1103957.5, -1120572.8, 16387.605, -0.0037710893, -0.17614134, -1093892.0, 36833.633, 0.0, 10.000176, 9.999951 
3.499937e+1, 1.946181e+2, -1106630.4, -1075213.9, 18551.516, 0.00840058, -0.1679829, -1066613.5, -33888.6, 0.0, 9.999503, 9.999914 
3.49997e+1, 2.0461799e+2, -1010742.8, -959114.75, 48148.88, 0.035026293, -0.17696738, -930296.56, 4427.902, 0.0, 9.999408, 10.000083 
3.500061e+1, 2.146176e+2, -830163.1, -823933.7, 55723.203, 0.07910683, -0.22978011, -771238.25, 65486.62, 0.0, 9.999986, 10.00006 
3.5000747e+1, 2.2461711e+2, -742852.7, -804073.5, 39943.574, 0.067886956, -0.2522101, -723139.3, 15589.028, 0.0, 10.000226, 9.999408 
3.5000002e+1, 2.346166e+2, -670926.9, -725834.1, 38748.316, -0.0055257566, -0.2449494, -650892.25, -10157.938, 0.0, 10.000078, 9.999343 
3.4999812e+1, 2.4461593e+2, -584954.9, -637155.25, 43280.348, -0.032415617, -0.2452609, -560513.94, -17773.18, 0.0, 10.0000105, 9.999311 
3.5000265e+1, 2.54615e+2, -485650.7, -541492.0, 41176.434, -0.006752063, -0.27194822, -463821.34, -19073.938, 0.0, 10.000032, 9.999284 
3.5000676e+1, 2.646142e+2, -423903.8, -538054.56, 31049.037, 0.022877758, -0.2469101, -416005.03, -69249.586, 0.0, 10.000115, 9.998596 
3.500111e+1, 2.7461356e+2, -307416.63, -437293.0, 27769.268, 0.060902715, -0.17313197, -301728.3, -52963.89, 0.0, 10.000269, 9.998541 
3.5000855e+1, 2.8461182e+2, -197479.98, -308770.25, 8134.3003, 0.05173016, -0.2110192, -196888.58, -46106.527, 0.000000011907709, 10.000245, 9.99876 
3.4999654e+1, 2.9460886e+2, -138182.19, -226920.8, 10838.28, -0.024620606, -0.3901402, -136877.61, -84068.3, 0.000006964684, 9.999969, 9.998782 
3.4998488e+1, 3.0460927e+2, -154572.73, -242345.28, 13358.136, -0.102774255, -0.20977363, -152584.78, -152584.78, 0.00007659062, 9.999662, 9.998494 
3.4998038e+1, 3.1460804e+2, -59354.49, 35247.027, 9024.619, -0.111034736, -0.18262449, 36100.246, 36100.246, 0.00027653438, 9.999317, 10.0005665 
4.5001122e+1, 1.24620184e+2, -1684670.3, -1653672.8, 1516.7677, -0.13567704, -0.25317508, -1653598.6, 65099.35, 0.0011988538, 10.000001, 10.000421 
4.5000744e+1, 1.346188e+2, -1599876.1, -1668316.4, -67.24907, -0.07207893, -0.33713195, -1599876.1, 20835.92, 0.0007112032, 10.000374, 9.999465 
4.5000303e+1, 1.446207e+2, -1491913.0, -1564074.9, 21208.967, -0.039508723, -0.09628027, -1486141.1, 36554.26, 0.00031351, 10.000433, 9.999474 
4.5000052e+1, 1.5461934e+2, -1444189.4, -1506133.5, 29382.146, -0.016755575, -0.17444225, -1432469.8, -7757.1943, 0.000084590996, 10.000156, 9.999331 
4.4999862e+1, 1.6461878e+2, -1327195.9, -1322227.3, 50186.438, -0.006578494, -0.19629243, -1274463.8, 52255.906, 0.000007991499, 9.999957, 10.000017 
4.499979e+1, 1.7461869e+2, -1243369.0, -1230359.5, 48949.23, -0.008007591, -0.21392414, -1187484.8, 41234.24, 0.000000008983813, 9.999858, 10.000023 
4.4999588e+1, 1.8461868e+2, -1141705.3, -1154902.8, 29805.617, -0.005284221, -0.2061578, -1117776.6, 12942.334, 0.0, 9.999987, 9.999807 
4.4999206e+1, 1.9461896e+2, -989667.25, -1035867.1, 15733.014, -0.0015557108, -0.16292264, -984818.4, 47899.33, 0.0, 10.00038, 9.999763 
4.4999522e+1, 2.0461893e+2, -865923.7, -885891.2, 43224.74, 0.027837072, -0.15585819, -831544.7, 103172.086, 0.0, 10.000386, 10.000115 
4.5000663e+1, 2.1461853e+2, -834382.94, -821241.6, 41122.492, 0.08843171, -0.21417457, -786168.2, 50548.41, 0.0, 9.999935, 10.000103 
4.5000863e+1, 2.2461802e+2, -815181.06, -841099.94, 19564.781, 0.08146477, -0.24044839, -804672.9, -65952.57, 0.0, 9.999738, 9.99939 
4.4999984e+1, 2.3461746e+2, -706304.4, -744551.25, 17706.154, -0.0028574476, -0.23696713, -699366.1, -58638.36, 0.0, 9.999842, 9.999329 
4.4999793e+1, 2.4461684e+2, -591534.0, -638065.3, 31344.309, -0.03235091, -0.229886, -575764.4, -33030.418, 0.0, 9.999955, 9.999332 
4.500038e+1, 2.5461617e+2, -475733.06, -534672.44, 35716.39, -0.00042334807, -0.23635507, -458898.06, -14159.539, 0.0, 10.000092, 9.999304 
4.500079e+1, 2.6461545e+2, -436985.38, -546285.3, 30029.65, 0.027276164, -0.2019917, -429278.3, -82532.336, 0.0, 10.000034, 9.998579 
4.500106e+1, 2.7461475e+2, -385322.0, -476359.0, 32643.398, 0.056117795, -0.13268186, -374826.88, -126070.86, 0.0, 9.999741, 9.998528 
4.5000726e+1, 2.8461298e+2, -278361.5, -362404.28, 16210.679, 0.039730858, -0.16694379, -275343.1, -124568.68, 0.000000014300223, 9.999754, 9.99863 
4.499953e+1, 2.9461e+2, -119331.38, -234639.53, 3676.0125, -0.043168973, -0.3348957, -119214.31, -66411.914, 0.000006428048, 10.000171, 9.998633 
4.499826e+1, 3.0460998e+2, -64052.156, -209914.81, -16592.262, -0.124518834, -0.18207042, -62188.555, -62188.555, 0.00007216027, 10.000332, 9.998396 
4.4997746e+1, 3.1460848e+2, 56426.457, 94388.21, -38972.652, -0.110370316, -0.1733271, 118756.4, 118756.4, 0.00026447666, 10.000094, 10.000603 
5.50023e+1, 1.2462205e+2, -1689889.4, -1667585.9, 12231.371, -0.021260958, -0.18713033, -1662185.6, 56496.176, 0.0011275938, 10.000014, 10.0003195 
5.500101e+1, 1.3461977e+2, -1610828.8, -1692073.4, 13682.611, -0.084654085, -0.34206912, -1608586.4, 12118.2705, 0.00066134764, 10.000378, 9.999301 
5.5000025e+1, 1.4462133e+2, -1476497.5, -1531227.1, 11220.769, -0.11185474, -0.139086, -1474286.4, 48404.28, 0.00028458898, 10.000429, 9.999701 
5.499971e+1, 1.546204e+2, -1427534.3, -1471865.5, 20054.838, -0.06893687, -0.19765185, -1419808.3, 4893.4487, 0.00007188515, 10.000158, 9.999566 
5.4999524e+1, 1.6462013e+2, -1328421.1, -1325257.5, 45202.316, -0.038139816, -0.19823402, -1281609.4, 45095.266, 0.0000055425044, 9.999959, 9.999996 
5.4999524e+1, 1.7462027e+2, -1245573.1, -1234855.3, 45519.613, -0.021434164, -0.1908757, -1194380.3, 34321.844, 0.00000000116644, 9.999857, 9.999992 
5.4999506e+1, 1.8462002e+2, -1165622.6, -1203014.1, 43309.582, -0.013551603, -0.18834057, -1137145.8, -6440.7485, 0.0, 9.999981, 9.99948 
5.4999465e+1, 1.9461955e+2, -1013941.44, -1085345.9, 31349.934, -0.014910222, -0.18619104, -1002130.8, 30581.656, 0.0, 10.000377, 9.999424 
5.499955e+1, 2.0461929e+2, -871425.1, -896375.7, 26931.693, -0.009746291, -0.18218504, -854219.6, 80495.2, 0.0, 10.000382, 10.000046 
5.4999757e+1, 2.146193e+2, -840162.25, -831582.6, 24872.766, 0.0036488317, -0.19329108, -810632.44, 26078.79, 0.0, 9.9999275, 10.000036 
5.5000055e+1, 2.2461902e+2, -817038.9, -842675.5, 22177.49, 0.025528612, -0.19118968, -804241.75, -65528.68, 0.0, 9.999729, 9.999382 
5.500044e+1, 2.3461851e+2, -707717.4, -746104.4, 22274.059, 0.057640452, -0.18262619, -697508.06, -56787.645, 0.0, 9.999836, 9.999321 
5.500081e+1, 2.4461785e+2, -583100.94, -619625.1, 35688.047, 0.0728714, -0.18637118, -561273.9, -18546.594, 0.0, 9.999951, 9.999462 
5.5001163e+1, 2.5461704e+2, -467569.25, -515994.1, 41618.72, 0.067360975, -0.21769917, -443632.34, 1100.6805, 0.0, 10.000083, 9.999437 
5.500082e+1, 2.6461625e+2, -431324.63, -533316.8, 19130.928, 0.025838343, -0.2035162, -427854.28, -81113.33, 0.0, 10.00003, 9.99867 
5.4999727e+1, 2.7461547e+2, -380979.97, -465095.25, 21871.729, -0.052364156, -0.14686488, -375632.78, -126882.05, 0.0, 9.999732, 9.998609 
5.4999363e+1, 2.8461406e+2, -301022.84, -408720.22, 29891.465, -0.07289509, -0.13688944, -293282.75, -142516.0, 0.00000001499631, 9.99975, 9.998313 
5.4999745e+1, 2.946118e+2, -142523.72, -281582.7, 21441.713, -0.040273484, -0.19400279, -139292.66, -86503.13, 0.000005758176, 10.000165, 9.998314 
5.499896e+1, 3.0461118e+2, -82481.73, -246937.52, -24490.838, -0.08878305, -0.08042556, -78912.02, -78912.02, 0.00006691841, 10.000327, 9.998145 
5.499781e+1, 3.1460804e+2, 47078.902, 76862.34, -46757.445, -0.11584562, -0.20794234, 111042.23, 111042.23, 0.00025031384, 10.000088, 10.000485 
6.500252e+1, 1.2462328e+2, -1703638.5, -1669967.0, -27578.098, 0.005285783, -0.12348578, -1654491.9, 64181.31, 0.001052614, 9.999904, 10.000352 
6.5001136e+1, 1.3462068e+2, -1702617.9, -1739240.0, -17558.355, -0.07814748, -0.3067961, -1695559.9, -74861.086, 0.00060904585, 9.999763, 9.999272 
6.500005e+1, 1.4462207e+2, -1547531.1, -1540192.8, -15541.432, -0.121894725, -0.13101937, -1527893.3, -5207.6226, 0.000254567, 9.999834, 9.999926 
6.499966e+1, 1.5462135e+2, -1409239.9, -1437105.0, -8224.933, -0.09010299, -0.19077419, -1406993.3, 17699.654, 0.00005931439, 10.000174, 9.999797 
6.4999384e+1, 1.6462119e+2, -1299712.5, -1331045.3, 5583.376, -0.06172959, -0.18732256, -1298747.3, 27947.393, 0.0000034805446, 10.000241, 9.999821 
6.499927e+1, 1.7462122e+2, -1237832.3, -1252578.6, -7450.162, -0.039945338, -0.16947234, -1234723.6, -6029.5415, 0.00000000000024211628, 10.000004, 9.999801 
6.499932e+1, 1.8462096e+2, -1177793.3, -1200161.3, 13121.928, -0.023900185, -0.16399834, -1171735.9, -41038.105, 0.0, 9.999862, 9.999556 
6.4999586e+1, 1.9462049e+2, -1087298.1, -1110705.1, 32560.324, -0.012781629, -0.1702448, -1064401.8, -31697.361, 0.0, 9.999831, 9.999513 
6.499967e+1, 2.0462018e+2, -948990.94, -945651.44, 33391.465, -0.011104268, -0.16999377, -913888.0, 20819.248, 0.0, 9.999903, 9.999938 
6.499952e+1, 2.146201e+2, -822536.4, -835322.06, 26239.035, -0.021554336, -0.17805657, -801922.6, 34782.836, 0.0, 10.000105, 9.999924 
6.4999723e+1, 2.2461985e+2, -752402.56, -799981.94, 30090.674, 0.000952101, -0.17223899, -737833.44, 873.74036, 0.0, 10.000123, 9.999486 
6.5000373e+1, 2.3461948e+2, -687201.4, -723276.3, 38375.934, 0.06278643, -0.16175953, -662835.3, -22122.98, 0.0, 9.999922, 9.999436 
6.5000856e+1, 2.4461888e+2, -605935.7, -639166.6, 55470.813, 0.088441126, -0.16046834, -564645.4, -21926.773, 0.0, 9.999831, 9.999387 
6.500118e+1, 2.5461808e+2, -504121.34, -542133.1, 44802.008, 0.07105918, -0.18330325, -474460.6, -29734.906, 0.0, 9.999869, 9.999361 
6.5000695e+1, 2.646172e+2, -430492.72, -521627.78, 11377.369, 0.012963567, -0.17688279, -429093.8, -82359.15, 0.0, 9.999988, 9.99877 
6.499936e+1, 2.746163e+2, -302325.44, -415857.0, 14138.426, -0.086248495, -0.14682576, -300591.22, -51845.98, 0.0, 10.000224, 9.998709 
6.499908e+1, 2.84615e+2, -230495.8, -370787.72, 40072.055, -0.09930836, -0.12725547, -219856.7, -69097.34, 0.000000013847158, 10.000217, 9.998349 
6.49999e+1, 2.9461333e+2, -178814.28, -293781.66, 58020.09, -0.027409893, -0.13560699, -154623.6, -101846.31, 0.00000502331, 9.999894, 9.998361 
6.499927e+1, 3.0461234e+2, -156997.0, -331441.7, 28324.453, -0.07482086, -0.03718481, -152513.22, -152513.22, 0.000061189545, 10.000025, 9.997709 
6.499803e+1, 3.146088e+2, 112623.586, 70946.09, -14514.859, -0.13211127, -0.15887187, 117180.4, 117180.4, 0.0002346527, 10.0007, 10.000149 
7.500174e+1, 1.2462385e+2, -1691734.6, -1646863.6, -35855.27, -0.06678469, -0.06973853, -1627003.1, 91669.055, 0.0009783517, 9.99991, 10.000507 
7.500107e+1, 1.3462153e+2, -1694369.5, -1725051.0, -21845.209, -0.062395956, -0.2349928, -1683016.6, -62321.867, 0.00055803865, 9.999773, 9.999364 
7.500033e+1, 1.446229e+2, -1530896.5, -1507324.4, -4286.979, -0.08010302, -0.07398816, -1506569.0, 16111.778, 0.00022607559, 9.999842, 10.000148 
7.499991e+1, 1.5462224e+2, -1392475.1, -1403224.4, 4991.83, -0.0834134, -0.15305285, -1390514.5, 34171.65, 0.000048170983, 10.000176, 10.000029 
7.4999434e+1, 1.646219e+2, -1322511.1, -1377402.3, -3023.0916, -0.081555374, -0.1632889, -1322345.1, 4344.733, 0.0000019773436, 10.000237, 9.999503 
7.4998975e+1, 1.7462157e+2, -1261769.5, -1302614.8, -15416.763, -0.07049542, -0.1501821, -1256603.9, -27908.85, 0.0, 10.000006, 9.999455 
7.4999e+1, 1.8462142e+2, -1144418.6, -1130902.4, 11398.736, -0.043760505, -0.1345187, -1124409.0, 6288.0786, 0.0, 9.999862, 10.000031 
7.499957e+1, 1.9462174e+2, -1052031.8, -1036746.8, 31757.543, 0.0017357714, -0.11399856, -1011725.1, 20968.375, 0.0, 9.999827, 10.000023 
7.499989e+1, 2.046216e+2, -959430.5, -965710.8, 40169.32, 0.020347266, -0.11862489, -922278.8, 12415.267, 0.0, 9.999896, 9.999803 
7.499992e+1, 2.1462095e+2, -835056.8, -859728.9, 34710.914, 0.0072040875, -0.16774596, -810555.0, 26144.336, 0.0, 10.000098, 9.99976 
7.499988e+1, 2.2462049e+2, -737158.5, -767582.6, 22464.53, 0.0020684241, -0.18420146, -725240.06, 13462.707, 0.0, 10.000119, 9.99971 
7.4999756e+1, 2.3462035e+2, -670973.06, -688865.75, 31413.76, 0.008025641, -0.17517586, -647256.56, -6553.092, 0.0, 9.999918, 9.999676 
7.4999917e+1, 2.4461994e+2, -625814.25, -678912.56, 56163.3, 0.01020346, -0.15404066, -590241.1, -47533.105, 0.0, 9.999825, 9.999116 
7.50004e+1, 2.546193e+2, -525721.4, -585132.75, 46546.49, 0.005578379, -0.131929, -500209.28, -55492.83, 0.0, 9.999862, 9.999069 
7.5000405e+1, 2.6461837e+2, -423114.88, -505469.9, 19105.031, -0.015780244, -0.12090937, -418898.66, -72171.59, 0.0, 9.999984, 9.998882 
7.499995e+1, 2.746172e+2, -294999.63, -398907.84, 24367.486, -0.050848167, -0.13281125, -289569.03, -40829.5, 0.0, 10.0002165, 9.998829 
7.4999845e+1, 2.8461587e+2, -203724.02, -314181.88, 27921.89, -0.045522694, -0.13936794, -197067.02, -46314.598, 0.000000011324871, 10.000214, 9.998739 
7.4999964e+1, 2.9461443e+2, -150614.16, -234064.7, 46095.645, -0.011402465, -0.16218719, -130163.81, -77397.95, 0.0000042980337, 9.999889, 9.998773 
7.4999154e+1, 3.046135e+2, -200559.72, -421349.03, 52008.89, -0.08979284, -0.052050095, -188921.98, -188921.98, 0.00005527223, 10.000023, 9.997092 
7.4998385e+1, 3.1461084e+2, 73664.94, -7413.8857, 8967.211, -0.17004848, -0.022735063, 74644.85, 74644.85, 0.00021799415, 10.0006895, 9.999614 
8.5001206e+1, 1.2462409e+2, -1730745.0, -1634351.8, -12194.391, -0.09086577, -0.08048271, -1632833.0, 85838.4, 0.00090933184, 9.999506, 10.000791 
8.5000646e+1, 1.3462238e+2, -1685761.6, -1697035.5, 10608.5625, -0.08007405, -0.2071944, -1679385.4, -58698.082, 0.0005120121, 9.99973, 9.9995775 
8.500007e+1, 1.4462382e+2, -1537662.0, -1514584.4, 29582.277, -0.08798233, -0.050736684, -1494370.1, 28302.41, 0.00020159004, 9.999813, 10.000112 
8.499996e+1, 1.5462288e+2, -1453454.9, -1437924.5, 16537.893, -0.07571254, -0.15011048, -1427419.5, -2738.6462, 0.000039447743, 9.9997835, 9.999979 
8.4999555e+1, 1.6462249e+2, -1369657.1, -1393192.3, 7025.3213, -0.0752665, -0.1655066, -1367719.6, -41034.42, 0.0000010481418, 9.9998865, 9.999562 
8.499892e+1, 1.7462236e+2, -1239058.5, -1284330.5, 23402.559, -0.08348234, -0.13783093, -1229135.8, -447.4526, 0.0, 10.000132, 9.999519 
8.4998876e+1, 1.8462236e+2, -1094769.0, -1092718.3, 49281.785, -0.05529192, -0.118572585, -1044451.2, 86237.375, 0.0, 10.000141, 10.000159 
8.499954e+1, 1.9462271e+2, -1033238.75, -1012107.25, 40562.14, 0.012291771, -0.106493525, -980757.3, 51926.03, 0.0, 9.999892, 10.000159 
8.499988e+1, 2.0462252e+2, -979387.1, -989163.3, 46704.313, 0.03292979, -0.11614986, -937315.8, -2631.5134, 0.0, 9.999819, 9.999679 
8.499987e+1, 2.1462172e+2, -867799.5, -891027.7, 42359.63, 0.00032696026, -0.16701983, -835490.6, 1201.7483, 0.0, 9.999939, 9.999622 
8.499982e+1, 2.2462124e+2, -741819.44, -758949.6, 20115.834, -0.011379762, -0.18412495, -728521.1, 10175.304, 0.0, 10.000041, 9.999807 
8.499973e+1, 2.3462121e+2, -631016.4, -656939.7, 17124.201, 0.0025361623, -0.17263484, -622501.44, 18193.66, 0.0, 10.000139, 9.999787 
8.4999704e+1, 2.4462087e+2, -604893.1, -677795.5, 40205.008, -0.0021833428, -0.14661415, -587075.25, -44376.195, 0.0, 10.000008, 9.999035 
8.4999764e+1, 2.5462025e+2, -567766.06, -615733.1, 44809.707, -0.031390868, -0.11632475, -540925.2, -96216.6, 0.0, 9.999618, 9.998977 
8.4999895e+1, 2.6461932e+2, -485034.38, -533027.9, 38761.117, -0.04329503, -0.10019695, -463443.1, -116723.35, 0.0, 9.999548, 9.998904 
8.500022e+1, 2.746182e+2, -347680.63, -420621.88, 35759.605, -0.026569929, -0.10909325, -333074.3, -84342.38, 0.0, 9.999838, 9.998863 
8.500031e+1, 2.8461698e+2, -215601.8, -320145.28, 14156.894, -0.015693475, -0.10841271, -213718.64, -62974.516, 0.000000007967864, 10.000132, 9.998739 
8.4999925e+1, 2.9461566e+2, -68148.65, -194484.7, -94.15203, -0.03237118, -0.12062688, -68148.58, -15391.841, 0.00000360919, 10.000455, 9.998773 
8.4999144e+1, 3.046143e+2, -127129.24, -377928.38, 21672.28, -0.11568713, -0.05141593, -125270.26, -125270.26, 0.000049311082, 10.000491, 9.997166 
8.4999067e+1, 3.1461203e+2, 414.23306, -27265.613, 27848.557, -0.14077148, 0.0083508855, 17672.309, 17672.309, 0.0002005974, 10.000118, 9.999753 
9.500086e+1, 1.24624e+2, -1700457.9, -1573518.5, -8174.2593, -0.08009422, -0.15440278, -1572994.3, 145676.5, 0.0008487081, 9.999514, 10.0012045 
9.499986e+1, 1.346232e+2, -1661016.9, -1647991.4, 19145.738, -0.1333769, -0.22298288, -1634281.0, -13604.518, 0.00047347447, 9.999738, 9.999911 
9.4999284e+1, 1.4462474e+2, -1557179.0, -1555878.9, 28126.275, -0.14973214, -0.060085777, -1528395.1, -5734.1797, 0.00018256163, 9.999817, 9.999826 
9.4999766e+1, 1.5462324e+2, -1475502.4, -1485155.8, 16808.148, -0.07597678, -0.1837627, -1462841.6, -38164.63, 0.00003354367, 9.999789, 9.999652 
9.4999695e+1, 1.646229e+2, -1340531.6, -1332447.4, 15789.068, -0.052328907, -0.19596824, -1320191.3, 6489.647, 0.00000057940093, 9.9998865, 9.99998 
9.4999075e+1, 1.746236e+2, -1207173.9, -1218193.0, 33118.85, -0.081684805, -0.13275172, -1179109.4, 49564.754, 0.0, 10.000132, 9.999973 
9.499896e+1, 1.8462372e+2, -1109002.9, -1122395.5, 39772.754, -0.062296007, -0.11507188, -1075366.6, 55305.605, 0.0, 10.000142, 9.999955 
9.4999444e+1, 1.9462338e+2, -1049730.0, -1046414.94, 31870.092, 0.013217663, -0.14772627, -1016159.3, 16514.787, 0.0, 9.999892, 9.999924 
9.4999593e+1, 2.0462297e+2, -988573.3, -1006961.6, 50314.67, 0.021885345, -0.16290079, -946619.7, -11941.62, 0.0, 9.999814, 9.999559 
9.4999343e+1, 2.1462242e+2, -876358.75, -907461.56, 47518.637, -0.04643629, -0.17558537, -841911.5, -5226.937, 0.0, 9.999933, 9.999513 
9.499954e+1, 2.2462209e+2, -745138.1, -764656.56, 23182.22, -0.043731652, -0.17139472, -729744.7, 8943.472, 0.0, 10.000036, 9.99977 
9.5000273e+1, 2.3462209e+2, -634478.8, -662047.8, 21306.342, 0.04267374, -0.15465769, -622886.7, 17800.623, 0.0, 10.000131, 9.999756 
9.500022e+1, 2.4462171e+2, -597858.75, -662107.56, 25356.965, 0.047732245, -0.1374265, -589057.0, -46365.246, 0.0, 10.000003, 9.999145 
9.4999254e+1, 2.5462088e+2, -561125.25, -600071.44, 30915.879, -0.045260742, -0.1374692, -544060.75, -99358.57, 0.0, 9.99961, 9.999087 
9.4999146e+1, 2.6462004e+2, -491041.72, -544174.75, 48155.297, -0.07386874, -0.11560879, -462610.84, -115898.0, 0.0, 9.999542, 9.998831 
9.5000136e+1, 2.746193e+2, -352975.5, -430525.72, 46890.56, -0.019588677, -0.07531127, -330904.63, -82182.2, 0.0, 9.999833, 9.998798 
9.500045e+1, 2.8461832e+2, -242897.02, -376071.7, 24951.563, -0.015830588, -0.032224312, -238375.61, -87641.26, 0.0000000042394483, 10.000129, 9.998356 
9.499977e+1, 2.946169e+2, -98517.195, -254964.88, 13499.826, -0.09416452, -0.010700297, -97360.84, -44611.004, 0.000002925069, 10.000444, 9.998363 
9.499924e+1, 3.046148e+2, -75434.87, -267933.28, 8438.983, -0.15590484, -0.035845064, -75065.62, -75065.62, 0.000043225835, 10.000481, 9.997925 
9.500006e+1, 3.1461236e+2, 55546.742, 89109.55, 13426.435, -0.056033347, -0.07200578, 93819.65, 93819.65, 0.00018228774, 10.000111, 10.000556 
1.0500026e+2, 1.24624334e+2, -1788388.3, -1613438.0, -3442.5154, -0.058908828, -0.17143017, -1613370.3, 105296.11, 0.00079770345, 9.998901, 10.001224 
1.0499959e+2, 1.3462348e+2, -1697987.9, -1670251.8, -5793.273, -0.122780904, -0.24124368, -1669090.3, -48417.457, 0.0004431459, 9.999506, 9.999868 
1.0499908e+2, 1.4462492e+2, -1565723.1, -1565118.6, -18974.54, -0.15030082, -0.08394449, -1546443.9, -23785.186, 0.00016917764, 9.99978, 9.999782 
1.0499937e+2, 1.5462369e+2, -1495884.4, -1500755.8, -12187.316, -0.08665917, -0.17630821, -1485891.6, -61218.89, 0.000030278157, 9.999674, 9.999601 
1.0499937e+2, 1.6462345e+2, -1361898.4, -1322477.3, -420.69592, -0.06066249, -0.18416326, -1322472.8, 4202.5835, 0.0000004316036, 9.999652, 10.000162 
1.0499907e+2, 1.7462409e+2, -1250502.1, -1217067.4, -3089.6477, -0.07546714, -0.14577673, -1216784.3, 11883.484, 0.0, 9.999741, 10.000169 
1.0499896e+2, 1.8462409e+2, -1166288.1, -1163805.1, -12483.482, -0.06008863, -0.1456618, -1152501.6, -21834.887, 0.0, 9.999808, 9.999831 
1.04999095e+2, 1.946235e+2, -1065620.3, -1069820.1, -15334.332, -0.008998451, -0.18838677, -1052242.8, -19571.113, 0.0, 9.999849, 9.9997835 
1.0499916e+2, 2.0462313e+2, -980177.06, -991796.44, 20049.861, -0.0026796118, -0.19666702, -965112.1, -30436.768, 0.0, 9.999823, 9.99966 
1.0499915e+2, 2.1462297e+2, -900013.44, -905466.5, 33287.73, -0.049079027, -0.18295223, -869340.75, -32662.959, 0.0, 9.999715, 9.99963 
1.0499943e+2, 2.2462274e+2, -811606.2, -811577.7, 16405.115, -0.039238896, -0.16729693, -795186.8, -56506.12, 0.0, 9.999645, 9.999636 
1.05000086e+2, 2.3462254e+2, -719086.44, -719803.1, 4983.233, 0.03687723, -0.15624101, -714448.7, -73765.46, 0.0, 9.999621, 9.999605 
1.05000034e+2, 2.4462211e+2, -634745.75, -671537.3, 13.661365, 0.043302987, -0.13928683, -634745.75, -92057.3, 0.0, 9.999713, 9.999221 
1.0499914e+2, 2.5462142e+2, -506927.03, -564068.9, 1291.723, -0.03384309, -0.13557887, -506897.88, -62200.902, 0.0, 9.999938, 9.999177 
1.0499901e+2, 2.646206e+2, -427104.3, -517645.38, 26583.744, -0.06354898, -0.11367235, -419876.13, -73169.0, 0.0, 9.999998, 9.998795 
1.0499988e+2, 2.7461982e+2, -352472.4, -435755.7, 26867.705, -0.029550722, -0.074908085, -344557.03, -95839.3, 0.0, 9.999859, 9.998751 
1.05000265e+2, 2.8461888e+2, -281828.16, -405282.6, 24769.043, -0.035733435, -0.015467057, -277044.06, -126314.6, 0.0000000012344323, 9.999905, 9.998265 
1.0499989e+2, 2.9461777e+2, -146195.52, -287223.6, 35939.227, -0.11076319, 0.041242905, -137565.02, -84821.64, 0.0000022309773, 10.0001545, 9.998282 
1.0499973e+2, 3.046152e+2, -66662.62, -236618.7, 15863.218, -0.15221153, -0.036610562, -65194.67, -65194.67, 0.00003695323, 10.000422, 9.998171 
1.0500089e+2, 3.1461295e+2, 150820.86, 155010.34, -27039.213, -0.011459696, -0.07904787, 180035.83, 180035.83, 0.00016279968, 10.000678, 10.000737 
1.1499943e+2, 1.246251e+2, -1814125.1, -1668256.5, 16784.27, -0.036958214, -0.1333603, -1666350.1, 52308.02, 0.0007564602, 9.998908, 10.000844 
1.1499977e+2, 1.346232e+2, -1727609.4, -1731656.3, 17693.479, -0.05600409, -0.26493448, -1711824.0, -91147.31, 0.00042056636, 9.999505, 9.999449 
1.1499938e+2, 1.4462432e+2, -1553853.3, -1539276.9, -22049.883, -0.0992309, -0.1246779, -1523342.0, -675.78455, 0.00016082273, 9.999775, 9.99996 
1.1499881e+2, 1.5462421e+2, -1480220.0, -1470007.8, -15163.251, -0.112489924, -0.12748352, -1459114.0, -34445.44, 0.000029173776, 9.999681, 9.999808 
1.149986e+2, 1.6462414e+2, -1363131.4, -1326875.1, 1666.1519, -0.104313366, -0.12846108, -1326798.8, -130.14178, 0.0000005105562, 9.999659, 10.000129 
1.1499887e+2, 1.7462386e+2, -1253712.8, -1224518.3, 962.9944, -0.070909895, -0.17625403, -1224486.5, 4182.3853, 0.0, 9.999743, 10.000118 
1.14998825e+2, 1.8462345e+2, -1171094.3, -1172671.6, -11128.857, -0.055288795, -0.21089539, -1160726.1, -30054.389, 0.0, 9.9998045, 9.999772 
1.1499847e+2, 1.9462307e+2, -1069795.6, -1077882.5, -13063.236, -0.058050614, -0.22928284, -1060164.4, -27488.31, 0.0, 9.999846, 9.99973 
1.1499858e+2, 2.0462301e+2, -957892.56, -944754.5, 15405.44, -0.044207644, -0.2175755, -934576.0, 100.3973, 0.0, 9.999819, 9.999985 
1.14999235e+2, 2.1462335e+2, -876684.2, -855751.9, 29815.08, -0.01143822, -0.18934691, -834619.3, 2052.9282, 0.0, 9.999709, 9.999974 
1.1499945e+2, 2.246232e+2, -829067.5, -846471.6, 14895.917, -0.0021435702, -0.17235208, -820518.06, -81843.77, 0.0, 9.9996395, 9.999399 
1.1499915e+2, 2.3462257e+2, -738543.0, -758574.3, 4801.3633, -0.019470112, -0.17652677, -737451.56, -96768.89, 0.0, 9.999615, 9.999342 
1.1499912e+2, 2.4462211e+2, -633416.25, -667226.1, 7527.878, -0.019515462, -0.15131977, -631815.9, -89126.805, 0.0, 9.999706, 9.999254 
1.14999406e+2, 2.5462183e+2, -503572.47, -555551.3, 10404.619, -0.0021014437, -0.110210344, -501567.16, -56874.258, 0.0, 9.999932, 9.999239 
1.14999495e+2, 2.64621e+2, -427471.22, -517784.13, 20841.389, -0.01629472, -0.09363887, -422893.72, -76191.1, 0.0, 9.999994, 9.9987955 
1.14999436e+2, 2.7461967e+2, -355091.66, -439375.1, 22254.51, -0.06054793, -0.109295726, -349576.4, -100858.4, 0.0, 9.99985, 9.998731 
1.1499975e+2, 2.8461874e+2, -269427.16, -376585.0, 32858.89, -0.07843017, -0.059984103, -260153.83, -109424.26, 0.00000000006210851, 9.999893, 9.998467 
1.1500028e+2, 2.9461822e+2, -129892.68, -252310.98, 46645.902, -0.08965976, 0.03507683, -114144.695, -61407.363, 0.0000015849012, 10.00015, 9.998525 
1.1500056e+2, 3.0461556e+2, -85248.28, -273841.53, 24889.152, -0.11108403, -0.052514955, -82018.89, -82018.89, 0.000030721083, 10.000417, 9.997918 
1.1500157e+2, 3.1461382e+2, 118440.95, 90737.27, -17972.586, -0.015149125, -0.014102208, 127280.24, 127280.24, 0.00014243502, 10.000666, 10.000302 
1.2499832e+2, 1.246254e+2, -1754960.4, -1647857.6, 5017.743, -0.059718896, -0.11295276, -1647623.1, 71032.35, 0.0007247361, 9.999351, 10.0007715 
1.2499921e+2, 1.3462338e+2, -1757899.1, -1759444.5, 27889.236, -0.054335076, -0.2435251, -1730771.9, -110096.16, 0.00040489552, 9.999356, 9.9993305 
1.2499911e+2, 1.446243e+2, -1590392.1, -1540224.0, -6969.549, -0.08621397, -0.1258187, -1539273.8, -16606.709, 0.00015657058, 9.999452, 10.000111 
1.2499865e+2, 1.5462433e+2, -1468297.4, -1446288.4, -5646.666, -0.09661124, -0.12903102, -1444924.3, -20257.79, 0.000029665785, 9.999685, 9.999969 
1.24998435e+2, 1.6462418e+2, -1364767.9, -1344187.3, 1505.5135, -0.09010129, -0.13819063, -1344077.6, -17410.877, 0.0000007617598, 9.999717, 9.999983 
1.24998555e+2, 1.7462361e+2, -1299651.3, -1264791.8, -9477.382, -0.063996546, -0.19997366, -1262381.8, -33710.99, 0.0, 9.999504, 9.999957 
1.2499852e+2, 1.8462321e+2, -1217035.6, -1187412.3, -13830.394, -0.048649393, -0.2274191, -1181959.0, -51285.047, 0.0, 9.999455, 9.99984 
1.24998316e+2, 1.9462323e+2, -1100515.6, -1083551.9, -6260.534, -0.045099758, -0.21448001, -1081491.6, -48817.023, 0.0, 9.999598, 9.999811 
1.24998495e+2, 2.0462331e+2, -972562.4, -946717.94, 14218.28, -0.02810543, -0.19723547, -940427.06, -5753.396, 0.0, 9.999697, 10.0000305 
1.2499912e+2, 2.1462342e+2, -868061.56, -847121.9, 4101.871, 0.0046136295, -0.19415687, -846347.0, -9676.063, 0.0, 9.999747, 10.000016 
1.2499919e+2, 2.2462317e+2, -821911.3, -851801.0, -16873.361, 0.0038165455, -0.1861057, -814316.0, -75642.21, 0.0, 9.999724, 9.999323 
1.24998614e+2, 2.3462257e+2, -743349.1, -769456.6, -14658.116, -0.03559655, -0.1804194, -736774.8, -96092.586, 0.0, 9.999619, 9.999266 
1.2499864e+2, 2.44622e+2, -643365.25, -682388.0, 3494.465, -0.03751956, -0.15626657, -643054.8, -100365.26, 0.0, 9.999683, 9.999161 
1.2499937e+2, 2.546215e+2, -510426.97, -570066.0, -4996.638, 0.0011029104, -0.12704043, -510011.22, -65315.836, 0.0, 9.999933, 9.999139 
1.24999605e+2, 2.646206e+2, -421558.7, -513066.38, -11883.519, -0.005914618, -0.11390258, -420040.63, -73334.95, 0.0, 10.000029, 9.998812 
1.2499936e+2, 2.746193e+2, -338911.84, -429829.8, -11135.221, -0.058101073, -0.1246535, -337567.9, -88847.79, 0.0, 9.999953, 9.998747 
1.249997e+2, 2.8461844e+2, -258496.97, -355796.88, 8753.388, -0.072212696, -0.07889409, -257715.77, -106985.07, 0.0, 9.999899, 9.998609 
1.250005e+2, 2.9461795e+2, -165277.34, -251800.55, 15489.824, -0.064624935, 0.0037936918, -162587.88, -109850.586, 0.0000010474641, 9.999831, 9.998682 
1.2500104e+2, 3.046151e+2, -150143.61, -301637.5, 9129.826, -0.08120831, -0.1150099, -149595.38, -149595.38, 0.000024841802, 9.999955, 9.997951 
1.2500209e+2, 3.146141e+2, 44489.22, 27314.81, -15484.868, -0.00789949, -0.0053605377, 53608.543, 53608.543, 0.00012195601, 10.000276, 10.000055 
1.3499692e+2, 1.2462526e+2, -1740585.9, -1616919.9, 484.47986, -0.13740766, -0.10706694, -1616918.0, 101739.875, 0.0007016644, 9.999346, 10.000987 
1.3499789e+2, 1.3462403e+2, -1744645.4, -1734923.4, 29034.266, -0.12376573, -0.17462465, -1710346.0, -89676.055, 0.00039489288, 9.999369, 9.999493 
1.3499828e+2, 1.4462481e+2, -1579093.6, -1519458.5, -202.99496, -0.1175639, -0.08583914, -1519457.8, 3203.571, 0.00015526546, 9.999464, 10.000247 
1.3499886e+2, 1.5462404e+2, -1459315.3, -1427838.0, 3947.9336, -0.046378992, -0.18205929, -1427350.4, -2683.716, 0.000031126172, 9.999686, 10.000095 
1.3499881e+2, 1.6462362e+2, -1384496.6, -1384178.9, -6273.4507, -0.025484126, -0.2149214, -1378062.3, -51392.168, 0.0000011270397, 9.999713, 9.99971 
1.3499814e+2, 1.7462333e+2, -1318810.3, -1305389.3, -16804.85, -0.058517054, -0.21834493, -1294004.6, -65331.035, 0.0, 9.999508, 9.999677 
1.3499804e+2, 1.8462338e+2, -1201909.6, -1156687.3, -9744.321, -0.043744512, -0.19535032, -1154677.0, -24003.629, 0.0, 9.999458, 10.00005 
1.349986e+2, 1.9462402e+2, -1084810.0, -1051087.8, -319.82727, 0.024858404, -0.1427161, -1051084.6, -18417.44, 0.0, 9.999598, 10.000034 
1.3499889e+2, 2.04624e+2, -990187.8, -982355.4, 15749.197, 0.040447056, -0.13555577, -970042.8, -35375.617, 0.0, 9.999692, 9.999787 
1.349988e+2, 2.146232e+2, -887871.25, -886132.75, 6985.335, -0.0047056517, -0.19752558, -879962.75, -43288.785, 0.0, 9.999738, 9.999753 
1.3499865e+2, 2.2462267e+2, -817432.0, -840419.0, -21257.096, -0.025459625, -0.20766605, -804760.1, -66080.914, 0.0, 9.999715, 9.999406 
1.3499843e+2, 2.346225e+2, -736232.56, -754121.6, -17867.686, -0.015882524, -0.16883554, -725195.6, -84513.695, 0.0, 9.999616, 9.9993725 
1.3499855e+2, 2.4462178e+2, -659345.7, -714435.3, 11811.491, -0.015512608, -0.15547091, -656920.06, -114229.93, 0.0, 9.999679, 9.998943 
1.34999e+2, 2.5462046e+2, -528307.0, -605631.75, 4928.829, -0.028776841, -0.18633491, -527994.1, -83289.6, 0.0, 9.999926, 9.9988985 
1.3499935e+2, 2.646194e+2, -421380.3, -511013.34, -14881.849, -0.03597154, -0.17492431, -418974.06, -72257.71, 0.0, 10.000021, 9.99883 
1.3499962e+2, 2.7461883e+2, -335561.94, -422159.3, -12785.775, -0.029342929, -0.1206399, -333713.6, -84989.53, 0.0, 9.99995, 9.9988 
1.350001e+2, 2.8461805e+2, -253604.03, -344623.88, 5326.544, -0.02328612, -0.07146084, -253293.38, -102560.57, 0.0, 9.999894, 9.998688 
1.3500059e+2, 2.9461697e+2, -160951.56, -241033.73, 14016.471, -0.041640118, -0.054138426, -158569.19, -105825.766, 0.0000006413962, 9.999823, 9.99876 
1.3500114e+2, 3.0461377e+2, -129957.08, -255720.7, 19852.287, -0.06624589, -0.22701482, -126897.74, -126897.74, 0.000019439243, 9.999941, 9.998272 
1.3500246e+2, 3.1461367e+2, 39969.902, 20895.086, -4412.6987, -0.00080322433, -0.056388047, 40941.254, 40941.254, 0.000102001, 10.000266, 10.000015 
1.4499643e+2, 1.2462469e+2, -1754455.5, -1611754.6, -19525.104, -0.11162999, -0.117145024, -1609131.4, 109531.96, 0.0006852014, 9.999198, 10.001094 
1.4499725e+2, 1.3462383e+2, -1766067.8, -1734474.3, 2865.6406, -0.11380371, -0.15865251, -1734216.4, -113544.95, 0.00038852147, 9.999173, 9.99959 
1.4499758e+2, 1.446245e+2, -1613720.8, -1519644.4, -23295.697, -0.11671799, -0.09398196, -1514191.8, 8471.798, 0.00015533686, 9.999152, 10.000397 
1.449983e+2, 1.5462358e+2, -1532439.1, -1446949.1, -19351.164, -0.041145872, -0.21827269, -1442772.9, -18103.125, 0.00003278088, 9.999113, 10.000241 
1.4499837e+2, 1.646233e+2, -1444377.5, -1403455.1, -14003.994, -0.018194666, -0.24751122, -1399121.8, -72450.1, 0.0000015078091, 9.999261, 9.999796 
1.4499776e+2, 1.7462353e+2, -1294424.8, -1284397.5, 1659.4016, -0.053360462, -0.20855454, -1284130.0, -55459.465, 0.0, 9.999635, 9.99976 
1.449977e+2, 1.8462369e+2, -1169676.9, -1154836.3, 7848.048, -0.037505146, -0.17452766, -1151456.0, -20786.283, 0.0, 9.999738, 9.999928 
1.449983e+2, 1.9462392e+2, -1104537.3, -1075355.8, -11266.288, 0.03591536, -0.14901933, -1071512.3, -38844.797, 0.0, 9.999524, 9.999904 
1.4499852e+2, 2.0462367e+2, -1044735.2, -1027654.44, -3410.0012, 0.049134713, -0.14810917, -1026998.9, -92328.945, 0.0, 9.999399, 9.999618 
1.4499833e+2, 2.1462293e+2, -952691.5, -936119.6, -6581.9546, -0.0072011333, -0.18945627, -933823.56, -97146.305, 0.0, 9.999375, 9.999584 
1.4499822e+2, 2.2462232e+2, -849123.5, -855309.44, -29376.914, -0.026424069, -0.19714904, -822677.2, -83994.14, 0.0, 9.999496, 9.999409 
1.4499828e+2, 2.3462196e+2, -711009.4, -740794.75, -33764.51, -0.0011606276, -0.17860293, -688999.0, -48312.4, 0.0, 9.999784, 9.999383 
1.449985e+2, 2.4462119e+2, -633686.0, -706809.8, -1475.8074, 0.0024440656, -0.17048034, -633656.25, -90961.26, 0.0, 9.999874, 9.998902 
1.4499891e+2, 2.5461996e+2, -559161.4, -625713.2, 4455.4023, -0.02259514, -0.18752901, -558864.44, -114155.77, 0.0, 9.999737, 9.998852 
1.4499924e+2, 2.646188e+2, -453799.78, -539059.75, -7268.0127, -0.03875121, -0.17810497, -453184.66, -106463.266, 0.0, 9.999852, 9.998718 
1.4499962e+2, 2.7461788e+2, -304080.8, -419527.25, -17161.188, -0.036910832, -0.1466185, -301583.8, -52851.688, 0.0, 10.000221, 9.998688 
1.450001e+2, 2.84617e+2, -197263.42, -321381.6, -19441.727, -0.03224206, -0.09863746, -194289.34, -43547.8, 0.0, 10.000299, 9.9986515 
1.4500047e+2, 2.946162e+2, -127518.59, -229060.36, -20936.879, -0.047059726, -0.05441649, -123371.03, -70621.1, 0.0000003644557, 10.00007, 9.998724 
1.4500122e+2, 3.04613e+2, -91601.99, -194256.16, -3000.6472, -0.05490995, -0.24174863, -91514.35, -91514.35, 0.000014553311, 10.000017, 9.998657 
1.4500289e+2, 3.146132e+2, 4762.3496, 2555.5837, -27441.896, 0.027976945, -0.07996824, 31123.035, 31123.035, 0.0000830069, 10.000029, 10.000004 
1.5499683e+2, 1.2462366e+2, -1751468.4, -1609167.9, -23207.656, 0.0034466337, -0.14501412, -1605478.6, 113193.58, 0.0006719969, 9.999212, 10.001105 
1.5499726e+2, 1.3462272e+2, -1762698.6, -1728149.5, 2131.5542, -0.031919803, -0.1978127, -1728018.5, -107337.83, 0.00038301162, 9.999174, 9.999634 
1.5499702e+2, 1.4462331e+2, -1602988.8, -1496493.5, -25491.209, -0.090427004, -0.1515739, -1490706.4, 31967.672, 0.00015494693, 9.999149, 10.000557 
1.5499699e+2, 1.5462296e+2, -1519846.0, -1422434.3, -20136.805, -0.085263595, -0.23722252, -1418435.8, 6240.147, 0.000033834087, 9.99912, 10.000406 
1.5499708e+2, 1.6462328e+2, -1411832.3, -1337417.4, -1453.7955, -0.07354568, -0.23583485, -1337389.0, -10717.403, 0.0000017896223, 9.999267, 10.000246 
1.549974e+2, 1.7462423e+2, -1262207.8, -1217730.5, 16409.182, -0.05446091, -0.16998845, -1212331.9, 16329.815, 0.0, 9.999636, 10.000217 
1.5499747e+2, 1.8462412e+2, -1202096.5, -1221669.3, 119.665565, -0.03599465, -0.1649616, -1202095.8, -71432.85, 0.0, 9.999735, 9.999472 
1.549973e+2, 1.946229e+2, -1139234.1, -1147142.8, -18568.932, -0.015851777, -0.23472819, -1124203.1, -91527.59, 0.0, 9.999522, 9.999413 
1.5499738e+2, 2.0462234e+2, -1052043.5, -1041769.0, -5267.8374, -0.0058434163, -0.23554027, -1039548.1, -104866.19, 0.0, 9.999394, 9.999524 
1.5499769e+2, 2.1462257e+2, -958422.4, -947849.8, -6858.621, -0.00771429, -0.17091066, -944476.7, -107795.84, 0.0, 9.9993725, 9.999505 
1.5499796e+2, 2.2462213e+2, -854742.06, -865968.06, -19603.639, -0.0044521918, -0.15582885, -839963.7, -101278.14, 0.0, 9.999492, 9.999338 
1.5499814e+2, 2.3462097e+2, -717193.9, -752317.6, -22197.48, 0.005184167, -0.21030515, -706451.2, -65754.836, 0.0, 9.999778, 9.999308 
1.549985e+2, 2.4462022e+2, -625573.44, -688085.75, -6619.641, 0.012129803, -0.20115094, -624880.2, -82176.05, 0.0, 9.9998665, 9.999034 
1.54999e+2, 2.5462e+2, -549377.9, -604542.94, 190.27855, 0.013541471, -0.13038243, -549377.2, -104669.375, 0.0, 9.999733, 9.998999 
1.549993e+2, 2.6461878e+2, -471513.88, -574320.94, 5622.993, -0.019672066, -0.124196984, -471207.25, -124486.27, 0.0, 9.9998455, 9.998478 
1.5499936e+2, 2.746165e+2, -323273.75, -457460.56, -2910.624, -0.08600997, -0.2034906, -323210.63, -74466.24, 0.0, 10.000214, 9.99843 
1.5499969e+2, 2.8461537e+2, -209413.52, -345496.2, -28097.61, -0.103252605, -0.16209887, -203840.33, -53083.293, 0.0, 10.000294, 9.998489 
1.5500015e+2, 2.9461554e+2, -137320.64, -249428.92, -26934.348, -0.087619744, 0.0021187302, -131185.34, -78428.45, 0.00000019831394, 10.000069, 9.998585 
1.5500127e+2, 3.046128e+2, -61842.29, -130646.0, -2694.1748, -0.054087065, -0.1598538, -61736.953, -61736.953, 0.000010333069, 10.00001, 9.999097 
1.5500331e+2, 3.1461266e+2, 5705.114, 6323.8237, -24974.188, 0.06430531, -0.07518692, 30990.572, 30990.572, 0.00006547037, 10.000021, 10.000031 
1.6499618e+2, 1.2462285e+2, -1739146.1, -1593716.5, -10736.022, 0.0140716955, -0.17472096, -1592928.3, 125750.98, 0.00065754744, 9.999254, 10.00119 
1.649967e+2, 1.3462201e+2, -1776204.8, -1722347.4, 18794.1, 0.0036816422, -0.22819684, -1716437.5, -95751.2, 0.00037533476, 9.999029, 9.999742 
1.6499642e+2, 1.4462262e+2, -1634298.5, -1520627.6, -6531.156, -0.057347953, -0.1815151, -1520253.6, 2426.273, 0.00015252095, 9.998974, 10.000475 
1.6499618e+2, 1.5462269e+2, -1527484.1, -1436022.3, -22469.803, -0.079189725, -0.21415572, -1430800.1, -6121.3667, 0.000033788867, 9.99911, 10.000317 
1.6499628e+2, 1.6462313e+2, -1415128.3, -1327215.4, -19916.354, -0.07865972, -0.20392622, -1322913.9, 3760.1296, 0.0000018950186, 9.999192, 10.000352 
1.6499682e+2, 1.7462379e+2, -1317578.8, -1231846.1, -29378.906, -0.05402597, -0.17740877, -1222744.8, 5921.235, 0.0, 9.999201, 10.00033 
1.6499697e+2, 1.8462357e+2, -1258280.0, -1247871.6, -46128.844, -0.03959263, -0.18956184, -1206654.3, -75986.6, 0.0, 9.999346, 9.999479 
1.6499668e+2, 1.9462246e+2, -1119530.6, -1137038.4, -29068.36, -0.035841525, -0.25068986, -1097926.6, -65247.395, 0.0, 9.999655, 9.999418 
1.6499677e+2, 2.046219e+2, -1006610.3, -1028633.56, 767.18176, -0.021860745, -0.24640445, -1006583.6, -71898.12, 0.0, 9.9997425, 9.999447 
1.6499728e+2, 2.1462205e+2, -934502.44, -945118.6, -2021.3334, 0.0034442956, -0.18111408, -934130.6, -97445.35, 0.0, 9.999575, 9.999428 
1.6499768e+2, 2.2462153e+2, -840735.2, -864454.3, 1262.0999, 0.013531966, -0.16739112, -840668.2, -101977.48, 0.0, 9.999612, 9.99929 
1.6499798e+2, 2.3462032e+2, -704125.8, -751029.25, -311.72137, 0.006623268, -0.22373447, -704123.75, -63421.65, 0.0, 9.99989, 9.999261 
1.6499834e+2, 2.4461955e+2, -609110.25, -698605.6, -5291.7686, 0.00210005, -0.20469488, -608798.44, -66088.35, 0.0, 10.000058, 9.998869 
1.6499877e+2, 2.546194e+2, -509957.5, -604026.3, -22959.32, -0.001634796, -0.11039772, -504652.94, -59939.176, 0.0, 10.000083, 9.998834 
1.6499914e+2, 2.6461813e+2, -440643.72, -552350.0, -11525.822, -0.027303027, -0.105526365, -439466.88, -92739.5, 0.0, 10.000027, 9.998542 
1.6499954e+2, 2.7461556e+2, -366993.1, -471214.84, 2852.9958, -0.071743585, -0.217404, -366915.03, -118162.89, 0.0, 9.999882, 9.998496 
1.65e+2, 2.8461432e+2, -271085.44, -373236.6, -8113.8433, -0.08006698, -0.19077283, -270444.97, -119679.766, 0.0, 9.999863, 9.998506 
1.6500035e+2, 2.9461464e+2, -152712.5, -255203.03, 4059.8706, -0.06790632, -0.013374979, -152551.92, -99788.375, 0.000000103924, 9.999958, 9.998597 
1.6500136e+2, 3.046121e+2, -47631.78, -112379.24, 27422.37, -0.04750216, -0.16129136, -37578.58, -37578.58, 0.000006944009, 10.000058, 9.999197 
1.6500294e+2, 3.1461173e+2, -954.61804, -31843.164, -25580.73, 0.022944255, -0.11383764, 13482.53, 13482.53, 0.000049939055, 10.000125, 9.999719 
1.7499441e+2, 1.2462224e+2, -1728012.3, -1570821.1, -24122.191, -0.08958898, -0.20565791, -1567202.8, 151481.63, 0.0006370072, 9.999254, 10.001347 
1.749956e+2, 1.346217e+2, -1762910.4, -1696511.3, 11341.601, -0.011676755, -0.24887736, -1694627.5, -73939.19, 0.00036284848, 9.999036, 9.999915 
1.7499575e+2, 1.4462239e+2, -1656562.0, -1568434.4, -3159.8755, -0.023583896, -0.18406014, -1568321.1, -45639.92, 0.00014707113, 9.99898, 10.000144 
1.749958e+2, 1.5462282e+2, -1551434.9, -1486533.6, -16713.705, -0.030135734, -0.14914502, -1482482.4, -57803.66, 0.00003249045, 9.999113, 9.999969 
1.7499587e+2, 1.646228e+2, -1431507.8, -1361406.3, -20253.416, -0.040080495, -0.15195249, -1355975.5, -29296.541, 0.0000018022155, 9.999192, 10.000118 
1.74996e+2, 1.7462218e+2, -1333702.6, -1265577.8, -28455.316, -0.055736624, -0.23131515, -1255256.0, -26572.445, 0.0, 9.999202, 10.000099 
1.7499618e+2, 1.8462202e+2, -1224930.3, -1178654.6, -35491.79, -0.053366113, -0.24851802, -1159424.8, -28740.566, 0.0, 9.999345, 9.999954 
1.7499644e+2, 1.9462253e+2, -1084270.3, -1063798.0, -16784.9, -0.028246373, -0.19703938, -1054374.3, -21695.564, 0.0, 9.999654, 9.999922 
1.7499672e+2, 2.0462234e+2, -1010914.9, -1036700.8, -5502.4263, -0.002918117, -0.18047608, -1009789.8, -75109.27, 0.0, 9.99974, 9.999393 
1.7499706e+2, 2.1462137e+2, -940954.56, -956844.7, -7583.2534, 0.02224196, -0.2205903, -937916.44, -101225.96, 0.0, 9.999567, 9.9993515 
1.749974e+2, 2.2462055e+2, -843540.94, -868458.25, 10537.951, 0.023319477, -0.23171254, -839681.94, -100983.336, 0.0, 9.999603, 9.999267 
1.7499779e+2, 2.3461998e+2, -706085.25, -754528.8, 10963.9, -0.0021310288, -0.21991567, -703719.4, -63015.504, 0.0, 9.999887, 9.999239 
1.7499806e+2, 2.4461918e+2, -641868.7, -765688.2, -4509.981, -0.032654475, -0.18281426, -641704.6, -98991.42, 0.0, 10.000054, 9.99841 
1.7499815e+2, 2.5461814e+2, -543734.9, -672834.7, -21466.184, -0.07215709, -0.12837508, -540259.2, -95532.59, 0.0, 10.000077, 9.9983635 
1.749988e+2, 2.6461682e+2, -415914.1, -500245.13, -17439.025, -0.06499991, -0.12290857, -412450.13, -65709.44, 0.0, 10.000023, 9.998901 
1.7500016e+2, 2.746151e+2, -339765.06, -413925.1, -1475.9884, 0.0004374188, -0.18922634, -339735.7, -90980.16, 0.0, 9.999878, 9.998892 
1.7500098e+2, 2.846139e+2, -259621.42, -347941.34, -5525.632, 0.030875644, -0.18454379, -259277.06, -108510.945, 0.0, 9.999857, 9.998682 
1.7500106e+2, 2.9461348e+2, -142290.33, -232076.75, 9012.711, 0.0051835505, -0.10067306, -141394.58, -88624.49, 0.00000004563321, 9.999952, 9.998758 
1.7500149e+2, 3.0461094e+2, -63577.15, -146033.42, 29783.502, -0.041435413, -0.24686897, -53944.53, -53944.53, 0.0000044345684, 10.000059, 9.998966 
1.7500183e+2, 3.146104e+2, -45009.945, -123834.87, -21562.383, -0.10556635, -0.19072153, -39497.152, -39497.152, 0.00003672069, 10.000125, 9.999087 
1.8499354e+2, 1.2462235e+2, -1736235.3, -1588138.1, 1107.1539, -0.10369481, -0.20489681, -1588129.9, 130552.92, 0.0006065531, 9.999257, 10.0012245 
1.8499456e+2, 1.3462195e+2, -1741169.6, -1695966.9, 16999.79, -0.028802432, -0.2244922, -1690287.3, -69601.55, 0.00034376056, 9.999228, 9.9998255 
1.849948e+2, 1.4462242e+2, -1616710.5, -1557420.9, 12497.311, -0.031842954, -0.1762621, -1554894.4, -32213.313, 0.00013809917, 9.999288, 10.000072 
1.8499531e+2, 1.5462258e+2, -1509372.8, -1474044.0, 18690.846, -0.0036190543, -0.15869787, -1465991.1, -41310.996, 0.000029920388, 9.999435, 9.9999 
1.8499553e+2, 1.6462237e+2, -1415664.6, -1375328.9, 19314.697, -0.0024542983, -0.17025198, -1367571.9, -40889.39, 0.0000015280342, 9.999394, 9.999925 
1.8499537e+2, 1.7462158e+2, -1356666.0, -1298682.6, 11621.375, -0.036554396, -0.24527454, -1296440.1, -67750.72, 0.0, 9.999139, 9.999902 
1.8499555e+2, 1.8462145e+2, -1240628.3, -1179385.6, 10546.771, -0.04420796, -0.25130463, -1177620.3, -46930.332, 0.0, 9.9992075, 10.000016 
1.8499617e+2, 1.9462222e+2, -1079215.5, -1052909.6, -3283.1582, -0.020279195, -0.18161108, -1052506.0, -19824.334, 0.0, 9.999652, 9.999997 
1.8499655e+2, 2.0462205e+2, -1004390.8, -1044153.5, -28079.404, 0.0021906667, -0.16488953, -989866.94, -55183.62, 0.0, 9.99983, 9.999298 
1.849967e+2, 2.1462075e+2, -928144.06, -961839.0, -34478.777, 0.02264608, -0.22507618, -906616.75, -69920.7, 0.0, 9.999703, 9.999251 
1.8499698e+2, 2.2461982e+2, -833255.56, -879586.7, -5312.4688, 0.014408104, -0.23563854, -832654.25, -93948.81, 0.0, 9.9997425, 9.999124 
1.849975e+2, 2.3461935e+2, -703124.2, -769233.1, -14338.116, -0.025524745, -0.19859111, -700148.44, -59438.207, 0.0, 9.999977, 9.999096 
1.8499793e+2, 2.4461836e+2, -625855.4, -753028.1, -22193.479, -0.05546755, -0.1747687, -622093.56, -79372.44, 0.0, 10.000144, 9.998454 
1.8499826e+2, 2.5461683e+2, -517858.28, -654871.56, -1590.4545, -0.07639361, -0.17710999, -517839.8, -73101.4, 0.0, 10.000233, 9.998412 
1.8499899e+2, 2.6461554e+2, -384144.2, -476343.03, 5387.8193, -0.058330897, -0.17300473, -383830.44, -37078.99, 0.0, 10.000206, 9.998977 
1.8500021e+2, 2.7461454e+2, -311753.72, -391547.2, -4082.729, 0.009745014, -0.1790085, -311545.38, -62785.867, 0.0, 10.000033, 9.998969 
1.8500093e+2, 2.846133e+2, -246939.61, -340269.03, -17036.66, 0.036437895, -0.18037951, -243926.94, -93157.195, 0.0, 9.999938, 9.998695 
1.8500096e+2, 2.9461217e+2, -144459.92, -233437.5, -15743.701, 0.0013100422, -0.1703363, -141756.38, -88976.41, 0.000000013949684, 9.999939, 9.9987545 
1.8500155e+2, 3.0460986e+2, -55534.367, -118880.41, 16817.34, -0.03694957, -0.29883316, -51346.504, -51346.504, 0.0000026902987, 10.000015, 9.999173 
1.85002e+2, 3.1460938e+2, -48544.63, -127170.4, -2162.4407, -0.10063495, -0.26037535, -48485.203, -48485.203, 0.000025863523, 10.000112, 9.999068 
1.949935e+2, 1.246232e+2, -1763882.4, -1647716.5, -3984.4263, -0.036438603, -0.17134961, -1647580.0, 71094.266, 0.0005643703, 9.999266, 10.000813 
1.9499357e+2, 1.346228e+2, -1765498.6, -1747409.3, 16688.701, -0.052920267, -0.15504974, -1737471.9, -116793.23, 0.00031730495, 9.999231, 9.999472 
1.9499354e+2, 1.4462267e+2, -1603561.1, -1530390.1, 17226.266, -0.08880221, -0.15824513, -1526537.5, -3858.1584, 0.00012543245, 9.999289, 10.000257 
1.9499476e+2, 1.5462202e+2, -1493888.6, -1442786.9, 25136.826, -0.0033588314, -0.24261853, -1432494.9, -7811.6865, 0.000026112697, 9.999439, 10.000113 
1.9499527e+2, 1.6462179e+2, -1426286.8, -1397764.0, 9567.33, 0.02987653, -0.25898662, -1394852.1, -68167.42, 0.0000011234973, 9.999396, 9.99977 
1.9499488e+2, 1.74622e+2, -1368033.9, -1322457.6, 2614.3682, -0.000037137157, -0.21915433, -1322308.1, -93624.52, 0.0, 9.999139, 9.999739 
1.9499505e+2, 1.8462189e+2, -1264989.4, -1229466.9, 25928.951, -0.016704066, -0.19765615, -1215799.4, -85114.33, 0.0, 9.999206, 9.999673 
1.9499587e+2, 1.9462155e+2, -1104428.3, -1104798.5, 14056.901, -0.015701141, -0.20434415, -1090555.3, -57866.945, 0.0, 9.99965, 9.999641 
1.9499627e+2, 2.0462099e+2, -1014421.06, -1064090.6, -32655.957, -0.010490395, -0.19961172, -998229.3, -63535.297, 0.0, 9.9998255, 9.999164 
1.9499616e+2, 2.146202e+2, -937653.56, -980356.75, -38446.633, 0.00009013279, -0.19590016, -915027.5, -78325.35, 0.0, 9.999698, 9.999126 
1.9499642e+2, 2.2461936e+2, -852501.94, -918191.25, 2207.1487, -0.017151592, -0.17958984, -852427.9, -113716.58, 0.0, 9.999737, 9.998861 
1.9499706e+2, 2.3461846e+2, -722412.4, -807954.44, -4892.5776, -0.06696337, -0.15994951, -722133.44, -81412.37, 0.0, 9.999971, 9.998833 
1.9499794e+2, 2.4461716e+2, -588544.56, -674520.56, -19334.848, -0.06909878, -0.18025135, -584396.56, -41662.727, 0.0, 10.000139, 9.998995 
1.9499908e+2, 2.5461543e+2, -478947.53, -572587.6, 2487.6414, -0.019263232, -0.25703913, -478881.5, -34132.12, 0.0, 10.000227, 9.99898 
1.9499967e+2, 2.6461428e+2, -399897.94, -508681.5, -1533.7375, -0.011840121, -0.25563365, -399876.3, -53116.637, 0.0, 10.000203, 9.998757 
1.9499967e+2, 2.746138e+2, -328884.4, -426587.16, -10341.328, -0.04855855, -0.18686579, -327801.84, -79037.58, 0.0, 10.0000305, 9.998731 
1.9499983e+2, 2.8461248e+2, -258139.0, -362140.88, -17931.725, -0.06776672, -0.17840229, -255134.08, -104357.85, 0.0, 9.999932, 9.998548 
1.9500007e+2, 2.9461065e+2, -157539.7, -258715.63, -13552.901, -0.08366458, -0.22331141, -155755.7, -102962.29, 0.0000000023315327, 9.999931, 9.998585 
1.9500157e+2, 3.0460888e+2, -11916.1455, -27240.0, 19263.617, -0.03873556, -0.31717965, 1153.355, 1153.355, 0.0000015022418, 10.0000105, 9.9998045 
1.950034e+2, 3.1460875e+2, -9301.122, -46074.152, 4759.396, 0.026113212, -0.3104453, -8695.117, -8695.117, 0.000017298122, 10.000113, 9.999626 
2.049929e+2, 1.2462331e+2, -1791483.1, -1683994.1, -40081.617, -0.017089013, -0.15810455, -1670693.9, 47979.055, 0.0005112227, 9.999177, 10.000607 
2.0499322e+2, 1.346227e+2, -1739992.4, -1751450.4, -4220.8154, -0.023499653, -0.14987272, -1738605.4, -117925.49, 0.00028397882, 9.999477, 9.999326 
2.0499313e+2, 1.4462227e+2, -1566291.0, -1510882.0, -6331.98, -0.069976754, -0.17382091, -1510167.5, 12515.893, 0.000109345056, 9.999537, 10.000272 
2.0499408e+2, 1.546217e+2, -1512433.4, -1448203.3, -13993.08, -0.009437785, -0.2531889, -1445287.1, -20600.959, 0.000021261263, 9.999296, 10.000145 
2.0499457e+2, 1.6462159e+2, -1428045.1, -1405618.0, -25099.586, 0.019459918, -0.25663334, -1389341.0, -62654.53, 0.00000067965186, 9.9994135, 9.999709 
2.0499448e+2, 1.74622e+2, -1253757.6, -1274670.4, -25508.059, 0.005615339, -0.191203, -1236646.0, -7962.4214, 0.0, 9.999955, 9.999674 
2.0499477e+2, 1.8462169e+2, -1167528.4, -1209197.9, -495.55197, -0.0048273425, -0.17415752, -1167522.5, -36835.59, 0.0, 9.9999895, 9.999435 
2.0499548e+2, 1.946207e+2, -1152196.0, -1154833.5, -5679.9185, -0.009422728, -0.22129804, -1147683.8, -114987.19, 0.0, 9.999439, 9.9994 
2.0499593e+2, 2.0461991e+2, -1057448.5, -1081169.1, -26256.406, -0.011371577, -0.22722453, -1040497.94, -105793.65, 0.0, 9.999515, 9.999196 
2.0499606e+2, 2.1461944e+2, -844482.8, -930519.1, -19772.805, -0.010713034, -0.19857882, -840156.25, -3446.915, 0.0, 10.000317, 9.999171 
2.0499647e+2, 2.2461864e+2, -741699.1, -877935.94, 18860.342, -0.026896046, -0.17474365, -739136.4, -418.21667, 0.0, 10.000555, 9.998744 
2.0499717e+2, 2.3461746e+2, -706427.2, -814115.7, 20262.844, -0.0624745, -0.1694392, -702740.7, -62009.67, 0.0, 10.000141, 9.998708 
2.0499808e+2, 2.4461618e+2, -608151.56, -670718.2, 2837.8237, -0.059732515, -0.18702464, -608023.1, -65279.523, 0.0, 9.9999485, 9.999113 
2.0499924e+2, 2.5461483e+2, -501403.06, -569390.7, -9620.551, -0.014518497, -0.23973067, -500067.94, -55312.95, 0.0, 10.000012, 9.9991045 
2.0499982e+2, 2.646137e+2, -408200.16, -527989.94, -25756.154, -0.017477322, -0.23872943, -402897.06, -56131.984, 0.0, 10.000213, 9.99862 
2.0499974e+2, 2.7461272e+2, -261693.27, -410894.7, -29235.902, -0.07072778, -0.19970965, -256169.05, -7394.8423, 0.0, 10.000564, 9.998582 
2.0499979e+2, 2.846112e+2, -175176.66, -322191.13, -40493.0, -0.09458157, -0.20809045, -164761.33, -13972.587, 0.0, 10.000503, 9.998548 
2.0499985e+2, 2.946094e+2, -155439.48, -258859.1, -26184.092, -0.09840598, -0.24829698, -149188.0, -96382.45, 0.000000000097020676, 9.999952, 9.998573 
2.0500155e+2, 3.0460835e+2, -52072.152, -46282.715, 7201.1997, -0.028548548, -0.2727869, -41416.203, -41416.203, 0.0000007350318, 9.999732, 9.99981 
2.0500359e+2, 3.1460804e+2, -38564.637, -49910.406, -55705.004, 0.04616292, -0.28591406, 11755.596, 11755.596, 0.000010898163, 9.999865, 9.999722 
2.1499175e+2, 1.2462268e+2, -1792039.8, -1685816.3, -32663.008, -0.055345178, -0.16549072, -1676576.4, 42102.43, 0.00045034575, 9.999179, 10.000593 
2.1499352e+2, 1.3462159e+2, -1735293.1, -1743463.0, 8420.2705, 0.05621518, -0.20917796, -1730019.3, -109329.53, 0.0002457903, 9.999484, 9.999378 
2.149936e+2, 1.4462124e+2, -1575876.0, -1531712.3, -15475.385, 0.019603727, -0.22262533, -1526829.4, -4135.8784, 0.00009091271, 9.999542, 10.000127 
2.1499322e+2, 1.5462165e+2, -1522610.3, -1469370.9, -22343.357, -0.025225809, -0.19059443, -1461236.6, -36547.438, 0.000015871614, 9.999295, 10.0 
2.149934e+2, 1.6462177e+2, -1426230.4, -1401320.3, -6139.635, -0.03892603, -0.16323103, -1399889.3, -73201.555, 0.00000031009594, 9.999412, 9.999739 
2.1499416e+2, 1.7462157e+2, -1250888.8, -1269840.1, -4250.0137, -0.023731995, -0.16159542, -1249979.3, -21290.012, 0.0, 9.999959, 9.999705 
2.1499467e+2, 1.8462087e+2, -1176333.5, -1227825.3, -20101.08, -0.013585376, -0.18094572, -1169415.9, -38720.14, 0.0, 9.999991, 9.999307 
2.1499498e+2, 1.9461969e+2, -1161563.4, -1173689.3, -25641.973, -0.004533416, -0.23254603, -1141277.3, -108570.6, 0.0, 9.999436, 9.999272 
2.1499553e+2, 2.0461886e+2, -1044414.3, -1052389.6, 1663.6227, -0.003619842, -0.24753268, -1044081.2, -109366.87, 0.0, 9.999508, 9.999396 
2.1499635e+2, 2.1461846e+2, -830162.06, -899549.06, 11281.4, -0.013599431, -0.23194692, -828373.94, 8343.561, 0.0, 10.000311, 9.999386 
2.1499711e+2, 2.2461763e+2, -740881.6, -875029.9, 4216.5806, -0.018100709, -0.22112395, -740749.25, -2023.2599, 0.0, 10.000549, 9.998766 
2.1499777e+2, 2.3461637e+2, -706575.0, -812581.44, 5242.1714, -0.016149484, -0.22781539, -706316.4, -65576.22, 0.0, 10.000134, 9.998721 
2.1499833e+2, 2.4461544e+2, -630267.5, -716026.94, 3675.1863, -0.030651964, -0.1944987, -630110.3, -87359.86, 0.0, 9.999945, 9.998805 
2.1499875e+2, 2.5461498e+2, -523773.3, -614562.2, -6666.239, -0.06659573, -0.12505415, -523286.47, -78531.164, 0.0, 10.000006, 9.998798 
2.1499942e+2, 2.646137e+2, -413893.56, -537890.06, -13585.605, -0.078640856, -0.12199427, -412422.5, -65654.79, 0.0, 10.000205, 9.998556 
2.150004e+2, 2.7461132e+2, -267757.13, -421265.28, -15130.924, -0.061429378, -0.21833636, -266279.9, -17490.389, 0.0, 10.000555, 9.998514 
2.1500076e+2, 2.8460938e+2, -165081.1, -301164.28, -61205.41, -0.048329726, -0.26921308, -141603.5, 9203.949, 0.0, 10.0005, 9.998694 
2.150003e+2, 2.9460838e+2, -144695.98, -237795.61, -46470.113, -0.049821842, -0.24601763, -125470.75, -72654.07, 0.0, 9.999954, 9.998719 
2.1500143e+2, 3.0460814e+2, -95574.48, -133757.88, 10870.73, -0.012585211, -0.16598867, -92696.516, -92696.516, 0.00000029764618, 9.999723, 9.999212 
2.1500252e+2, 3.1460726e+2, -67339.85, -105697.75, -45221.36, -0.049670972, -0.1767653, -37398.504, -37398.504, 0.0000064156898, 9.999849, 9.999345 
2.2499062e+2, 1.2462181e+2, -1778473.6, -1658300.1, -48893.484, -0.085663326, -0.1737949, -1640920.8, 77766.86, 0.0003861587, 9.999186, 10.000779 
2.2499299e+2, 1.3462093e+2, -1775141.3, -1733486.8, 9923.356, 0.075595155, -0.22180416, -1731243.5, -110548.44, 0.00020573656, 9.999088, 9.999637 
2.2499335e+2, 1.4462061e+2, -1634715.3, -1579463.3, -6683.427, 0.05651252, -0.23694567, -1578666.3, -55967.875, 0.00007189719, 9.999222, 9.999953 
2.2499298e+2, 1.5462117e+2, -1486617.3, -1472166.3, -18964.521, 0.0035616325, -0.17175496, -1459097.4, -34403.28, 0.000010694928, 9.999632, 9.99982 
2.2499324e+2, 1.6462122e+2, -1364321.4, -1369426.0, 3043.1506, -0.017821802, -0.14320537, -1362901.9, -36208.195, 0.000000092361944, 9.999827, 9.999759 
2.2499414e+2, 1.746207e+2, -1276235.9, -1278422.0, 3786.976, -0.012181531, -0.17670412, -1273387.4, -44689.63, 0.0, 9.99977, 9.999738 
2.2499469e+2, 1.8461993e+2, -1180153.3, -1227303.5, -15798.125, -0.009815395, -0.20437585, -1175349.4, -44645.12, 0.0, 9.999955, 9.999328 
2.2499487e+2, 1.9461899e+2, -1015235.5, -1100847.4, -11299.594, -0.0075543756, -0.23462626, -1013769.25, 18943.594, 0.0, 10.000431, 9.999293 
2.2499545e+2, 2.0461823e+2, -917835.3, -996105.1, 19257.287, -0.005695732, -0.24118774, -913353.9, 21365.93, 0.0, 10.000398, 9.999354 
2.2499648e+2, 2.1461771e+2, -911718.4, -944039.0, 8424.992, -0.0060527995, -0.23220457, -909654.06, -72929.55, 0.0, 9.999774, 9.999339 
2.2499736e+2, 2.246169e+2, -857272.6, -912820.94, -4094.7834, -0.003701295, -0.227831, -856972.44, -118239.5, 0.0, 9.999673, 9.998929 
2.249981e+2, 2.3461574e+2, -689291.75, -785571.6, 7430.217, 0.002191557, -0.24043745, -688721.7, -47976.55, 0.0, 10.000173, 9.998889 
2.2499861e+2, 2.4461484e+2, -572014.5, -709316.7, 17383.799, -0.02139675, -0.20304777, -569847.75, -27092.602, 0.0, 10.000438, 9.998613 
2.2499882e+2, 2.5461432e+2, -476988.06, -615706.9, 13132.63, -0.081362136, -0.11870712, -475755.72, -30993.926, 0.0, 10.000429, 9.998587 
2.2499941e+2, 2.64613e+2, -421840.4, -534907.0, 8942.012, -0.09540097, -0.11128557, -421137.6, -74362.414, 0.0, 10.000121, 9.998616 
2.2500047e+2, 2.7461064e+2, -423130.7, -488179.56, 16057.069, -0.054896317, -0.21351548, -419382.97, -170586.3, 0.0, 9.9994545, 9.998586 
2.2500098e+2, 2.8460875e+2, -309714.2, -363918.53, -14926.533, -0.02516328, -0.26556516, -305875.63, -155061.52, 0.0, 9.999476, 9.998757 
2.2500078e+2, 2.9460785e+2, -94557.08, -209623.25, -10044.448, -0.013366119, -0.2395616, -93686.85, -40864.133, 0.0, 10.00028, 9.998756 
2.2500165e+2, 3.0460775e+2, -22998.197, -137038.25, 39840.914, 0.0050194254, -0.12937701, -10458.309, -10458.309, 0.000000091080636, 10.000384, 9.998873 
2.250016e+2, 3.1460625e+2, -87619.805, -114981.664, 5945.898, -0.11754969, -0.16776215, -86383.58, -86383.58, 0.000003445728, 9.999709, 9.999349 
2.3498951e+2, 1.2462073e+2, -1750374.3, -1601227.4, -59510.32, -0.11902359, -0.17846607, -1580392.9, 138306.44, 0.00032267286, 9.999191, 10.001167 
2.3499165e+2, 1.3462073e+2, -1743341.4, -1666125.4, 6892.4907, 0.031448185, -0.18790272, -1665515.0, -44818.91, 0.0001666326, 9.999082, 10.000103 
2.3499238e+2, 1.4462037e+2, -1650522.4, -1610395.0, 7657.9717, 0.03654552, -0.21792135, -1608983.3, -86284.69, 0.00005400246, 9.999214, 9.999745 
2.3499331e+2, 1.5462026e+2, -1501552.8, -1505521.3, -2470.2014, 0.07143218, -0.19691454, -1500368.6, -75667.39, 0.000006396683, 9.99964, 9.999587 
2.3499404e+2, 1.6461992e+2, -1361667.6, -1365497.9, 657.66003, 0.07626897, -0.19702274, -1361557.9, -34853.035, 0.000000013163342, 9.999834, 9.999782 
2.3499441e+2, 1.7461938e+2, -1273666.1, -1272879.0, 2152.199, 0.0372421, -0.23661764, -1271084.6, -42375.61, 0.0, 9.999768, 9.999776 
2.3499478e+2, 1.8461889e+2, -1169123.4, -1202879.5, 1028.4053, 0.0028795118, -0.24485996, -1169092.1, -38379.402, 0.0, 9.999949, 9.999497 
2.3499516e+2, 1.9461863e+2, -1002966.6, -1075300.9, 7315.697, -0.022228014, -0.22651906, -1002234.2, 30480.79, 0.0, 10.000431, 9.999468 
2.349957e+2, 2.0461805e+2, -937965.5, -1037521.44, -3238.505, -0.02163101, -0.20800199, -937860.25, -3139.3784, 0.0, 10.000396, 9.999071 
2.349964e+2, 2.1461725e+2, -934194.3, -988537.2, -14245.746, 0.007574338, -0.19961937, -930686.3, -93955.88, 0.0, 9.999766, 9.999037 
2.3499721e+2, 2.2461642e+2, -837264.06, -869735.5, 12427.934, 0.012647753, -0.19422373, -833053.5, -94314.555, 0.0, 9.999665, 9.999229 
2.3499815e+2, 2.3461558e+2, -666441.56, -736982.94, 27110.348, -0.010786213, -0.20598686, -657226.4, -16480.633, 0.0, 10.000168, 9.999225 
2.3499891e+2, 2.4461439e+2, -579253.3, -723286.94, 17043.555, -0.035717387, -0.21243247, -577264.0, -34506.33, 0.0, 10.000433, 9.99852 
2.3499943e+2, 2.5461286e+2, -486654.34, -633558.5, 13406.185, -0.063416176, -0.22127146, -485440.94, -40666.26, 0.0, 10.000421, 9.998468 
2.3499979e+2, 2.646116e+2, -409187.94, -507529.6, -16158.52, -0.07187061, -0.20612812, -406600.97, -59813.477, 0.0, 10.000116, 9.998808 
2.3499992e+2, 2.746107e+2, -408038.2, -455728.22, -8287.611, -0.057133414, -0.18554315, -406639.03, -157843.27, 0.0, 9.999449, 9.998812 
2.3500042e+2, 2.8460932e+2, -313262.47, -368781.94, 12770.991, -0.030259164, -0.19764881, -310465.66, -159656.9, 0.0, 9.999467, 9.998729 
2.3500127e+2, 2.946078e+2, -101007.97, -221121.39, 20750.346, 0.0058035464, -0.23020676, -97524.26, -44700.344, 0.0, 10.000273, 9.998681 
2.3500222e+2, 3.0460715e+2, -28664.623, -147804.08, 15045.184, 0.021127267, -0.16406065, -26794.055, -26794.055, 0.000000018380936, 10.00038, 9.998801 
2.3500082e+2, 3.1460506e+2, -63641.91, -63553.363, -12456.482, -0.17033942, -0.25622362, -51141.08, -51141.08, 0.0000016180604, 9.999701, 9.999707 
2.4498884e+2, 1.24619655e+2, -1782491.0, -1631096.3, -32129.293, -0.09412566, -0.20365965, -1624559.9, 94148.07, 0.00026299746, 9.999032, 10.00104 
2.4499117e+2, 1.3461983e+2, -1623668.3, -1614064.0, -3939.6702, 0.03392761, -0.19102713, -1612654.8, 8049.1494, 0.0001305452, 9.999928, 10.0000515 
2.4499197e+2, 1.4461942e+2, -1504738.9, -1532259.0, -26685.357, 0.027482849, -0.22816081, -1488474.8, 34232.258, 0.000038366878, 10.000181, 9.999817 
2.4499303e+2, 1.5461925e+2, -1492746.3, -1491459.4, -14939.696, 0.078890465, -0.22029424, -1477149.3, -52439.855, 0.000003303544, 9.99966, 9.999675 
2.4499388e+2, 1.6461886e+2, -1415105.6, -1396008.6, 4792.1367, 0.09498454, -0.22643372, -1394873.5, -68160.24, 0.00000000018007511, 9.999489, 9.99974 
2.4499437e+2, 1.7461832e+2, -1280460.1, -1281058.3, -1687.9398, 0.057167754, -0.26088953, -1279045.0, -50326.83, 0.0, 9.999744, 9.999732 
2.4499488e+2, 1.8461795e+2, -1171668.3, -1199097.4, -2850.8955, 0.020119283, -0.2603725, -1171375.0, -40653.61, 0.0, 9.999908, 9.999544 
2.4499547e+2, 1.9461782e+2, -1068079.6, -1100784.6, -6286.3755, -0.0113214385, -0.23063514, -1066913.0, -34190.58, 0.0, 9.999959, 9.999521 
2.4499597e+2, 2.0461737e+2, -987555.6, -1066465.5, -29076.832, -0.017770642, -0.20294206, -977998.75, -43271.09, 0.0, 10.000077, 9.999026 
2.4499637e+2, 2.1461657e+2, -863004.2, -960297.75, -23256.291, 0.0030289895, -0.18854685, -857731.0, -20993.477, 0.0, 10.000278, 9.998986 
2.4499707e+2, 2.2461574e+2, -750049.0, -828963.75, 16512.223, 0.002620219, -0.18005326, -746733.25, -7987.039, 0.0, 10.000271, 9.999217 
2.4499813e+2, 2.3461488e+2, -687531.6, -748762.7, 4357.1, -0.022985196, -0.19310549, -687223.1, -46469.887, 0.0, 10.00003, 9.99921 
2.4499899e+2, 2.4461366e+2, -662248.25, -733939.3, -16391.03, -0.03525733, -0.21306998, -658678.44, -115913.61, 0.0, 9.999737, 9.998781 
2.4499962e+2, 2.5461215e+2, -618524.06, -666476.56, 7557.2393, -0.033813935, -0.24840124, -617361.25, -172580.47, 0.0, 9.999383, 9.998742 
2.4499996e+2, 2.646111e+2, -484566.34, -526033.75, 1517.7822, -0.036313787, -0.23540683, -484510.88, -137719.47, 0.0, 9.999522, 9.998967 
2.449999e+2, 2.746106e+2, -284352.06, -379020.06, 3313.893, -0.042277202, -0.18737413, -284236.22, -35440.18, 0.0, 10.000224, 9.998965 
2.4500018e+2, 2.846095e+2, -192559.4, -306825.78, 26034.27, -0.03840379, -0.18168601, -186907.36, -36100.547, 0.0, 10.000279, 9.998762 
2.4500087e+2, 2.94608e+2, -203290.63, -268458.2, 37522.184, -0.025742296, -0.21312003, -186179.16, -133357.22, 0.0, 9.999564, 9.998697 
2.4500197e+2, 3.046071e+2, -175906.23, -203477.1, 38124.285, 0.014215694, -0.18072096, -149151.56, -149151.56, 0.000000001915935, 9.999306, 9.998935 
2.45001e+2, 3.1460494e+2, -36955.008, 6344.9146, 28279.752, -0.117909655, -0.2969652, 20310.473, 20310.473, 0.00000063402746, 9.999639, 10.000216 
2.5498867e+2, 1.2461854e+2, -1829114.8, -1726341.3, -4259.311, -0.017618373, -0.25324428, -1726165.0, -7450.6807, 0.000209724, 9.999024, 10.000391 
2.5499153e+2, 1.3461821e+2, -1661906.8, -1697740.8, 30978.387, 0.07448474, -0.23192891, -1644037.1, -23318.268, 0.00009902971, 9.999945, 9.999471 
2.549921e+2, 1.4461768e+2, -1477337.5, -1478143.9, -45831.81, 0.019810896, -0.26752925, -1431907.0, 90817.29, 0.000025643241, 10.000194, 10.000181 
2.5499213e+2, 1.546181e+2, -1464100.9, -1430884.6, -34626.85, 0.021817906, -0.24191287, -1409089.0, 15630.002, 0.0000014046367, 9.999655, 10.0000925 
2.5499278e+2, 1.6461806e+2, -1424358.8, -1413380.5, 12674.42, 0.03514885, -0.23190531, -1405057.6, -78338.336, 0.0, 9.999481, 9.999624 
2.5499398e+2, 1.7461754e+2, -1289174.5, -1300979.3, 8743.219, 0.042469837, -0.24979828, -1284527.9, -55802.617, 0.0, 9.999752, 9.999592 
2.5499496e+2, 1.8461703e+2, -1175496.0, -1208000.9, -1286.3882, 0.035693366, -0.2517162, -1175445.3, -44714.516, 0.0, 9.999913, 9.99948 
2.5499576e+2, 1.946166e+2, -1072610.8, -1109294.1, -3824.4473, 0.021000579, -0.24709281, -1072216.3, -39481.125, 0.0, 9.999956, 9.999464 
2.5499627e+2, 2.0461613e+2, -975300.3, -1039149.2, -22030.459, 0.0024495733, -0.22640051, -968436.75, -33696.5, 0.0, 10.00007, 9.999218 
2.549964e+2, 2.1461567e+2, -849489.75, -930449.06, -14759.345, -0.023642167, -0.19726892, -846882.94, -10137.301, 0.0, 10.000272, 9.999194 
2.5499696e+2, 2.2461484e+2, -773714.3, -877397.44, 7389.118, -0.038318787, -0.18442374, -773190.4, -34435.645, 0.0, 10.000266, 9.998887 
2.54998e+2, 2.3461358e+2, -713501.94, -801111.94, -3976.3281, -0.03867562, -0.20182432, -713321.8, -72554.1, 0.0, 10.000023, 9.998855 
2.5499883e+2, 2.4461265e+2, -619461.44, -643834.2, -30168.52, -0.025587415, -0.20452826, -599110.94, -56334.305, 0.0, 9.999731, 9.999403 
2.5499937e+2, 2.5461218e+2, -571807.5, -568433.9, -4910.51, 0.002277057, -0.20051725, -564928.56, -120148.445, 0.0, 9.999378, 9.999417 
2.549999e+2, 2.6461142e+2, -476614.8, -509105.1, 25893.943, 0.0064608804, -0.19990383, -462291.97, -115505.05, 0.0, 9.999519, 9.999084 
2.5500038e+2, 2.7461034e+2, -279475.97, -368072.9, 30577.418, -0.01627728, -0.2191258, -269947.56, -21149.94, 0.0, 10.00022, 9.999043 
2.550003e+2, 2.846093e+2, -186308.84, -292312.16, 285.0602, -0.0554834, -0.21801463, -186308.08, -35499.67, 0.0, 10.000273, 9.998865 
2.5499955e+2, 2.946085e+2, -196172.2, -251386.98, 10677.492, -0.11587448, -0.18908046, -194179.31, -141362.42, 0.0, 9.999555, 9.998818 
2.5500092e+2, 3.0460757e+2, -153754.44, -156817.83, 48530.45, -0.021796953, -0.17971879, -106731.52, -106731.52, 0.000000000039700524, 9.999301, 9.999259 
2.5500214e+2, 3.1460574e+2, 7420.1094, 98664.42, 51796.234, 0.028071327, -0.29810885, 122065.68, 122065.68, 0.00000021774382, 9.999637, 10.000853 
2.6498866e+2, 1.24617524e+2, -1656792.3, -1677405.6, -27049.34, 0.012212819, -0.27181968, -1638152.5, 80569.87, 0.0001649167, 10.000352, 10.000086 
2.6499137e+2, 1.3461708e+2, -1775941.6, -1779299.9, 38393.03, 0.09857707, -0.23999432, -1739191.0, -118461.375, 0.000073287774, 9.999276, 9.999234 
2.6499188e+2, 1.4461644e+2, -1630201.4, -1539770.1, -23315.375, 0.0314133, -0.27947927, -1534112.8, -11376.1045, 0.000016155976, 9.999092, 10.00029 
2.6499197e+2, 1.5461697e+2, -1409387.3, -1389507.8, -35835.746, 0.024586968, -0.25622997, -1362258.8, 62470.996, 0.00000046134082, 9.999966, 10.000227 
2.6499262e+2, 1.6461712e+2, -1301489.9, -1350266.6, 1060.8174, 0.031100696, -0.2332532, -1301466.9, 25261.154, 0.0, 10.000307, 9.9996605 
2.6499376e+2, 1.7461695e+2, -1248203.9, -1277824.4, 8445.348, 0.031061962, -0.22012475, -1245965.1, -17233.85, 0.0, 10.000018, 9.999623 
2.649947e+2, 1.8461654e+2, -1188541.5, -1208500.1, 9398.274, 0.026270194, -0.21831588, -1184812.6, -54076.504, 0.0, 9.999799, 9.999532 
2.649956e+2, 1.9461586e+2, -1109370.6, -1121525.8, 13620.736, 0.023548514, -0.24224137, -1100533.1, -67790.78, 0.0, 9.999679, 9.999515 
2.6499626e+2, 2.0461528e+2, -1017662.6, -1050997.8, 6802.298, 0.010829384, -0.24035506, -1016328.0, -81579.83, 0.0, 9.999742, 9.999295 
2.649966e+2, 2.1461482e+2, -881841.06, -937204.8, 4340.6445, -0.016957697, -0.2192031, -881502.8, -44749.6, 0.0, 10.000011, 9.999273 
2.649971e+2, 2.2461402e+2, -809317.2, -893972.7, 16636.652, -0.035665732, -0.20629898, -806165.06, -67403.14, 0.0, 10.000019, 9.998893 
2.6499784e+2, 2.3461288e+2, -756849.6, -821605.25, 30253.752, -0.04366001, -0.21309419, -744914.8, -104140.34, 0.0, 9.9997225, 9.99886 
2.6499853e+2, 2.4461213e+2, -619243.56, -631634.0, 9489.383, -0.027828585, -0.20438977, -614106.1, -71324.125, 0.0, 9.9996805, 9.999512 
2.6499918e+2, 2.5461185e+2, -482428.06, -512439.94, -7604.389, 0.016036171, -0.19086005, -480611.25, -35828.03, 0.0, 9.999936, 9.999534 
2.6499972e+2, 2.646112e+2, -449844.7, -486993.16, -291.315, 0.02828775, -0.19013952, -449842.4, -103053.4, 0.0, 9.999664, 9.9991665 
2.650001e+2, 2.7461013e+2, -483213.66, -456839.7, 3171.022, 0.0039099893, -0.2151086, -456463.78, -207664.27, 0.0, 9.998782, 9.9991255 
2.65e+2, 2.846092e+2, -391002.3, -373743.97, -14675.938, -0.04017786, -0.21622267, -365348.28, -214539.13, 0.0, 9.9987955, 9.999017 
2.6499933e+2, 2.9460847e+2, -147461.23, -209744.75, -4396.429, -0.106464505, -0.19603209, -147152.42, -94336.125, 0.0, 9.999812, 9.9989805 
2.6500076e+2, 3.0460724e+2, -55267.63, -125647.15, 10543.614, -0.006086787, -0.21943936, -53722.027, -53722.027, 0.0, 10.000049, 9.999112 
2.6500192e+2, 3.1460607e+2, -16918.45, 84848.39, -17490.541, 0.051902167, -0.2550504, 87770.56, 87770.56, 0.000000083141636, 9.999483, 10.00083 
2.7498874e+2, 1.2461661e+2, -1651415.0, -1668602.8, -77755.8, -0.0179711, -0.25766215, -1581779.6, 136952.81, 0.00012966055, 10.000364, 10.000139 
2.7499068e+2, 1.346164e+2, -1768789.3, -1761910.4, -2962.3977, 0.10180364, -0.21463378, -1760810.5, -140074.27, 0.00005392466, 9.999266, 9.999357 
2.7499124e+2, 1.4461567e+2, -1641569.3, -1561769.9, 5984.9355, 0.05787715, -0.26436278, -1561323.5, -38579.29, 0.0000098627, 9.999084, 10.000143 
2.749925e+2, 1.5461582e+2, -1418904.0, -1411411.1, -2075.037, 0.08048851, -0.26338768, -1410874.8, 13867.058, 0.00000011248763, 9.999975, 10.000073 
2.7499342e+2, 1.6461608e+2, -1286986.4, -1322002.6, -9407.612, 0.075614005, -0.23109095, -1284618.9, 42120.67, 0.0, 10.000315, 9.99985 
2.7499366e+2, 1.7461656e+2, -1233246.5, -1246738.8, -2392.698, 0.01905165, -0.17136137, -1232834.8, -4098.31, 0.0, 10.000018, 9.999837 
2.7499413e+2, 1.8461645e+2, -1178057.4, -1185641.6, 3901.62, -0.011888517, -0.15979117, -1176408.6, -45670.94, 0.0, 9.999795, 9.999691 
2.7499497e+2, 1.9461562e+2, -1098837.5, -1099195.3, 9701.781, -0.0076975645, -0.21511115, -1089313.0, -56569.105, 0.0, 9.999677, 9.999668 
2.7499592e+2, 2.0461477e+2, -1020703.8, -1055859.6, 16076.379, 0.0030343002, -0.24441074, -1014460.9, -79709.37, 0.0, 9.999735, 9.999265 
2.7499697e+2, 2.1461397e+2, -885444.2, -943098.9, 15564.218, 0.019513244, -0.25473493, -881510.9, -44750.527, 0.0, 10.000004, 9.999236 
2.7499756e+2, 2.2461326e+2, -786754.94, -845090.6, 5811.055, 0.005956496, -0.24642646, -786181.7, -47413.73, 0.0, 10.0000105, 9.999232 
2.749976e+2, 2.3461275e+2, -732241.5, -769231.56, 19828.41, -0.04134271, -0.22700036, -723621.4, -82847.8, 0.0, 9.999717, 9.999222 
2.7499804e+2, 2.4461202e+2, -647500.9, -689940.56, 17584.059, -0.045414362, -0.21317638, -641162.0, -98381.04, 0.0, 9.999679, 9.999113 
2.7499896e+2, 2.5461113e+2, -514004.78, -576776.25, 2488.9229, 0.0016587694, -0.21934181, -513906.25, -69116.055, 0.0, 9.99993, 9.999096 
2.7499932e+2, 2.646104e+2, -447211.56, -479222.7, -32664.555, 0.023445765, -0.2054287, -426841.97, -80044.43, 0.0, 9.999656, 9.999224 
2.74999e+2, 2.7460998e+2, -478349.16, -444168.03, -28889.396, 0.013022356, -0.17557158, -427692.47, -178890.72, 0.0, 9.998773, 9.999217 
2.7499923e+2, 2.8460917e+2, -378254.9, -346408.34, 20701.64, 0.0027941118, -0.17806602, -336214.4, -185405.2, 0.0, 9.998792, 9.999207 
2.7500018e+2, 2.9460785e+2, -134192.34, -182015.08, 33855.19, -0.0038247614, -0.23442997, -116655.82, -63835.47, 0.0, 9.99981, 9.999173 
2.750014e+2, 3.04606e+2, -99023.4, -216656.86, -10523.496, 0.054469306, -0.29910615, -98089.38, -98089.38, 0.0, 10.00005, 9.9984865 
2.750003e+2, 3.1460574e+2, -67401.945, -16802.836, -28748.99, -0.060143244, -0.17868587, -3806.5427, -3806.5427, 0.000000039236188, 9.99947, 10.000137 
2.849886e+2, 1.2461565e+2, -1807057.6, -1712538.6, -94949.39, -0.008261062, -0.23378052, -1653737.6, 65006.297, 0.00010364884, 9.999163, 10.000419 
2.849904e+2, 1.3461584e+2, -1611363.1, -1643676.1, 3317.3328, 0.10019657, -0.19004683, -1611026.1, 9715.684, 0.000040612387, 10.000163, 9.999738 
2.8499085e+2, 1.4461508e+2, -1468988.5, -1497181.0, 26946.092, 0.04828455, -0.25225905, -1452674.3, 70074.8, 0.0000062724685, 10.000351, 9.999976 
2.8499228e+2, 1.5461493e+2, -1491687.4, -1466709.0, 14890.523, 0.082218036, -0.26360214, -1459763.5, -35013.02, 0.000000028346124, 9.999563, 9.999892 
2.8499332e+2, 1.6461505e+2, -1417822.5, -1377706.3, 6356.007, 0.08335558, -0.2393825, -1376723.3, -49973.46, 0.0, 9.999388, 9.999914 
2.8499368e+2, 1.746156e+2, -1237406.5, -1240148.1, 1818.4067, 0.024198344, -0.18111593, -1236500.0, -7754.2974, 0.0, 9.999955, 9.999912 
2.8499416e+2, 1.8461554e+2, -1113093.3, -1141872.3, -8041.7227, -0.009753161, -0.17082195, -1110998.6, 19747.365, 0.0, 10.000188, 9.999802 
2.849948e+2, 1.9461483e+2, -1040645.6, -1058820.0, -7445.3896, -0.009247313, -0.22679381, -1037985.0, -5234.1694, 0.0, 10.000023, 9.999779 
2.8499568e+2, 2.0461413e+2, -1004172.2, -1036299.94, 7861.542, 0.0020120526, -0.2521745, -1002351.7, -67594.78, 0.0, 9.999799, 9.999369 
2.8499678e+2, 2.1461353e+2, -951034.3, -962642.25, 16693.334, 0.023269217, -0.2535748, -939164.75, -102400.8, 0.0, 9.999503, 9.999343 
2.8499737e+2, 2.24613e+2, -860252.2, -857232.56, 7067.573, 0.018287078, -0.24443345, -851515.3, -112745.63, 0.0, 9.999405, 9.999441 
2.8499746e+2, 2.346126e+2, -743443.94, -750553.25, 9323.092, -0.015361512, -0.23344216, -737020.9, -96247.516, 0.0, 9.9995365, 9.999437 
2.8499785e+2, 2.4461186e+2, -673748.75, -721410.0, 17789.12, -0.025239578, -0.22498433, -667841.4, -125060.33, 0.0, 9.999579, 9.998944 
2.849986e+2, 2.5461078e+2, -585537.56, -631639.4, 20485.393, -0.0076494208, -0.23180309, -577750.25, -132957.25, 0.0, 9.999528, 9.998913 
2.8499886e+2, 2.646099e+2, -448454.06, -485768.16, -20797.701, 0.009980706, -0.22235605, -439171.34, -92369.016, 0.0, 9.999673, 9.999171 
2.849985e+2, 2.7460933e+2, -298497.56, -362011.0, -28670.28, 0.027321786, -0.20159721, -287470.25, -38662.637, 0.0, 10.000027, 9.999177 
2.8499886e+2, 2.846085e+2, -213405.7, -274016.0, 26241.764, 0.031138908, -0.19688503, -203623.03, -52808.32, 0.0, 9.999953, 9.999145 
2.8500003e+2, 2.946074e+2, -196121.6, -216804.53, 19404.81, 0.022875967, -0.22925952, -184474.6, -131650.39, 0.0, 9.999408, 9.999126 
2.8500122e+2, 3.0460525e+2, -200588.19, -268431.0, -20232.898, 0.0653083, -0.32025874, -195012.36, -195012.36, 0.0, 9.999365, 9.99846 
2.8499988e+2, 3.1460539e+2, -22624.553, -23570.463, 13521.7295, -0.07185359, -0.15426974, -9567.51, -9567.51, 0.000000022768178, 9.999898, 9.999886 
2.949882e+2, 1.24614656e+2, -1770975.9, -1638739.9, -67435.914, 0.030986454, -0.20207019, -1610416.5, 108340.5, 0.000085497144, 9.9991665, 10.000924 
2.9499045e+2, 1.3461539e+2, -1565888.8, -1551005.3, 41935.117, 0.08750331, -0.16632284, -1515856.6, 104889.54, 0.000032281903, 10.00017, 10.00037 
2.949907e+2, 1.4461471e+2, -1481689.8, -1525275.0, -960.0161, -0.0039613526, -0.24226864, -1481668.6, 41082.543, 0.0000046245973, 10.000358, 9.999781 
2.9499128e+2, 1.5461433e+2, -1506840.3, -1497811.3, -14930.71, 0.02346396, -0.2552242, -1486727.5, -61972.17, 0.00000001715619, 9.999562, 9.99968 
2.9499236e+2, 1.6461407e+2, -1422870.3, -1387354.4, 24791.904, 0.047973122, -0.2564212, -1374616.8, -47858.223, 0.0, 9.999384, 9.99985 
2.9499385e+2, 1.7461403e+2, -1241902.9, -1249011.0, 23956.732, 0.04137771, -0.25039545, -1221238.0, 7521.529, 0.0, 9.999953, 9.999852 
2.949947e+2, 1.8461384e+2, -1109797.1, -1134171.0, -13633.049, 0.02770631, -0.25309262, -1103697.9, 27063.215, 0.0, 10.000184, 9.999857 
2.949951e+2, 1.946135e+2, -1036177.25, -1049264.1, -13001.994, 0.015499082, -0.27769086, -1028165.0, 4598.2334, 0.0, 10.000023, 9.9998455 
2.949955e+2, 2.0461336e+2, -988272.2, -1002084.56, -3650.37, 0.0038228554, -0.2635978, -987366.8, -52602.402, 0.0, 9.999793, 9.999606 
2.9499593e+2, 2.1461348e+2, -934934.0, -927751.3, 6315.3115, -0.0102939615, -0.21587825, -924077.6, -87313.44, 0.0, 9.9994955, 9.999586 
2.949966e+2, 2.2461317e+2, -855386.94, -845170.5, 10679.469, -0.0034159373, -0.20059852, -838440.44, -99673.08, 0.0, 9.999397, 9.999528 
2.9499745e+2, 2.3461242e+2, -739061.2, -739742.6, 14948.47, 0.02965626, -0.23246302, -724449.56, -83675.695, 0.0, 9.999529, 9.999516 
2.94998e+2, 2.446116e+2, -670160.25, -712784.06, 15369.11, 0.027929924, -0.23960619, -665196.56, -122414.46, 0.0, 9.999574, 9.999006 
2.9499805e+2, 2.5461075e+2, -582160.3, -622764.25, 19419.13, -0.01617905, -0.22933668, -574368.25, -129576.46, 0.0, 9.999519, 9.998977 
2.949983e+2, 2.6460958e+2, -460952.97, -510536.75, -8679.034, -0.014747046, -0.24225472, -459477.7, -112674.09, 0.0, 9.999667, 9.999003 
2.9499868e+2, 2.7460814e+2, -311790.9, -388426.72, -14891.827, 0.039809577, -0.2934473, -308998.88, -60181.63, 0.0, 10.000021, 9.998999 
2.949989e+2, 2.8460723e+2, -235956.78, -319564.22, 5711.29, 0.037417304, -0.27124095, -235568.44, -84742.79, 0.0, 9.9999485, 9.998834 
2.949989e+2, 2.9460704e+2, -218427.27, -259647.33, -308.99448, -0.033414587, -0.17955863, -218424.95, -165597.11, 0.0, 9.999393, 9.998839 
2.950002e+2, 3.0460495e+2, -162462.52, -187372.75, -2452.1426, 0.02272009, -0.28282687, -162223.42, -162223.42, 0.0, 9.999356, 9.999021 
2.9500058e+2, 3.146048e+2, -7421.218, 7487.6553, 45365.656, 0.0050219963, -0.20037983, 46007.246, 46007.246, 0.000000019534246, 9.9999, 10.000097 
3.0498815e+2, 1.24613844e+2, -1662143.9, -1601612.9, -13985.762, 0.072480075, -0.21527489, -1598537.6, 120226.15, 0.000073591786, 9.999985, 10.000782 
3.049904e+2, 1.3461435e+2, -1655995.4, -1600859.9, 50397.414, 0.100698814, -0.19802395, -1570983.1, 49773.242, 0.000027638554, 9.99958, 10.000313 
3.049906e+2, 1.446138e+2, -1577985.0, -1551322.3, -19114.906, -0.011571901, -0.26676992, -1541349.0, -18588.818, 0.000004191702, 9.999611, 9.999961 
3.0499098e+2, 1.5461409e+2, -1408992.8, -1429143.5, -5320.9536, 0.009882382, -0.23287101, -1407674.0, 17083.484, 0.000000032166714, 10.000142, 9.999871 
3.0499202e+2, 1.6461384e+2, -1318294.1, -1343619.3, 54947.27, 0.03927761, -0.2377389, -1274569.3, 52190.535, 0.0, 10.000132, 9.999789 
3.0499357e+2, 1.7461313e+2, -1314012.5, -1292252.8, 51569.605, 0.04490374, -0.2927308, -1250427.8, -21660.969, 0.0, 9.999495, 9.999777 
3.0499452e+2, 1.8461283e+2, -1236151.3, -1194989.1, 17903.918, 0.036458388, -0.3025092, -1188291.5, -57521.74, 0.0, 9.999317, 9.999857 
3.04995e+2, 1.9461305e+2, -1083358.6, -1070526.9, 13391.106, 0.022541279, -0.2715834, -1062094.0, -29326.371, 0.0, 9.999695, 9.999856 
3.0499533e+2, 2.0461303e+2, -972603.3, -989791.7, 4418.008, 0.0055899736, -0.24662057, -971534.2, -36766.508, 0.0, 9.999882, 9.999647 
3.049955e+2, 2.1461281e+2, -881408.6, -897450.25, -2505.5798, -0.019404743, -0.23782407, -881026.4, -44256.543, 0.0, 9.999845, 9.999627 
3.049961e+2, 2.2461241e+2, -796708.44, -823874.6, -977.1744, -0.011716088, -0.2308111, -796673.3, -57899.594, 0.0, 9.999829, 9.999467 
3.049972e+2, 2.3461187e+2, -697875.6, -727184.94, -8765.259, 0.03551516, -0.23641627, -695454.3, -54675.113, 0.0, 9.999843, 9.999452 
3.0499774e+2, 2.4461119e+2, -639620.75, -683748.75, -19052.834, 0.039826866, -0.23205668, -632532.9, -89746.586, 0.0, 9.9997225, 9.999134 
3.0499765e+2, 2.5461042e+2, -582552.4, -607635.1, -11066.408, -0.0063986587, -0.2274919, -578368.0, -133573.0, 0.0, 9.999451, 9.999115 
3.0499792e+2, 2.6460928e+2, -490616.9, -522685.38, -9229.762, -0.0077226316, -0.24531138, -488150.2, -141343.84, 0.0, 9.999456, 9.999021 
3.0499864e+2, 2.7460778e+2, -343627.22, -402232.8, -2300.02, 0.04391051, -0.3002275, -343537.1, -94716.77, 0.0, 9.999798, 9.99901 
3.0499884e+2, 2.8460693e+2, -234314.84, -331316.16, 12456.818, 0.03508323, -0.2709522, -232740.7, -81911.875, 0.0, 10.000015, 9.998721 
3.0499852e+2, 2.9460683e+2, -127172.1, -227420.8, 17968.428, -0.04378972, -0.1569188, -124048.77, -71218.23, 0.0, 10.000071, 9.998734 
3.0499965e+2, 3.0460477e+2, -76961.234, -114208.164, 22130.402, 0.014414044, -0.26544327, -66660.87, -66660.87, 0.0, 9.999805, 9.999308 
3.0500045e+2, 3.1460458e+2, -122538.12, -59435.582, 53611.125, 0.041664854, -0.2169481, -28780.459, -28780.459, 0.000000009333619, 9.999159, 9.999995 
3.1498855e+2, 1.2461329e+2, -1717831.8, -1719354.6, -40200.316, 0.10897386, -0.27084586, -1678385.6, 40378.266, 0.00006650563, 9.999993, 9.999971 
3.149903e+2, 1.3461275e+2, -1706628.5, -1708279.9, 36247.082, 0.13007356, -0.28362718, -1671197.8, -50425.945, 0.000025576577, 9.99959, 9.999572 
3.1499052e+2, 1.4461237e+2, -1538431.5, -1470742.1, -1328.3635, 0.014495628, -0.3244055, -1470716.0, 52060.105, 0.000004447986, 9.999617, 10.000512 
3.1499138e+2, 1.5461417e+2, -1367361.6, -1341569.0, 15553.273, 0.037386604, -0.19816586, -1334260.9, 90496.086, 0.00000006594377, 10.000137, 10.000474 
3.149923e+2, 1.646144e+2, -1324267.0, -1354835.9, 31966.76, 0.053673893, -0.18382968, -1304118.6, 22635.008, 0.0, 10.000127, 9.999715 
3.1499293e+2, 1.746129e+2, -1320648.6, -1306541.1, 27982.516, 0.029236032, -0.30661792, -1284737.0, -55969.47, 0.0, 9.999496, 9.999678 
3.1499362e+2, 1.8461251e+2, -1239508.1, -1202441.8, 29752.787, 0.009344603, -0.3168758, -1185922.1, -55150.402, 0.0, 9.999319, 9.999805 
3.1499457e+2, 1.9461344e+2, -1087266.0, -1077753.6, 28213.137, 0.0075927046, -0.20966443, -1053898.6, -21134.441, 0.0, 9.99969, 9.999809 
3.149952e+2, 2.0461318e+2, -985236.1, -1013131.5, 3115.3274, 0.0029591033, -0.20213164, -984892.44, -50125.523, 0.0, 9.999869, 9.999494 
3.149955e+2, 2.1461153e+2, -893664.06, -921249.2, -2998.9866, -0.008266945, -0.31919837, -893341.8, -56560.76, 0.0, 9.999837, 9.999467 
3.1499594e+2, 2.2461072e+2, -812168.56, -854996.75, -1086.5582, -0.01082994, -0.33504894, -812141.0, -73351.984, 0.0, 9.999825, 9.999255 
3.1499666e+2, 2.3461092e+2, -713486.4, -758472.4, -7520.6836, -0.0019156493, -0.24514303, -712262.4, -71473.01, 0.0, 9.999837, 9.999239 
3.1499714e+2, 2.446106e+2, -627146.4, -656613.6, -29689.912, 0.0064462717, -0.20273022, -608735.3, -65941.45, 0.0, 9.999718, 9.999323 
3.1499732e+2, 2.5460973e+2, -568809.75, -577205.9, -20849.955, 0.015069837, -0.22619636, -551739.44, -106936.875, 0.0, 9.999443, 9.999327 
3.149977e+2, 2.6460895e+2, -476815.66, -493651.84, 1982.2548, 0.025455238, -0.23018356, -476585.44, -129775.0, 0.0, 9.999454, 9.999222 
3.1499833e+2, 2.746083e+2, -330544.44, -373212.53, 11616.751, 0.033933382, -0.22183181, -327586.72, -78769.805, 0.0, 9.999789, 9.999213 
3.1499875e+2, 2.8460753e+2, -231001.1, -321883.2, 14036.04, 0.021274911, -0.19660558, -228882.72, -78058.31, 0.0, 10.000005, 9.998791 
3.149989e+2, 2.9460672e+2, -122271.17, -216483.88, 21021.24, -0.01521037, -0.16254112, -117793.6, -64961.094, 0.0, 10.000069, 9.99881 
3.1499967e+2, 3.046047e+2, -75661.21, -113060.09, -2705.2588, 0.033738278, -0.26977608, -75466.54, -75466.54, 0.0, 9.99981, 9.999314 
3.1499946e+2, 3.1460467e+2, -151249.0, -116630.47, 36704.168, 0.02194261, -0.20587334, -93358.87, -93358.87, 0.0000000005270663, 9.999147, 9.999608 
3.2498813e+2, 1.246131e+2, -1769275.1, -1772818.0, -40942.3, 0.08088177, -0.30538103, -1730066.0, -11302.189, 0.00006287029, 9.999766, 9.999712 
3.249902e+2, 1.3461292e+2, -1674720.4, -1712229.5, 87713.516, 0.14328663, -0.26506805, -1603778.8, 16991.227, 0.000025189593, 9.999893, 9.999398 
3.2499057e+2, 1.4461249e+2, -1497326.1, -1457785.3, 62357.914, 0.04538638, -0.2989293, -1412138.8, 110637.01, 0.0000050024137, 9.99993, 10.000448 
3.2499155e+2, 1.5461376e+2, -1421160.4, -1373241.5, 27362.334, 0.054844864, -0.21890175, -1360831.3, 63929.945, 0.000000115129794, 9.999793, 10.0004225 
3.2499236e+2, 1.64614e+2, -1347658.3, -1343456.0, 18500.959, 0.06012966, -0.21119708, -1326937.3, -180.0812, 0.0, 9.999868, 9.999917 
3.2499275e+2, 1.7461315e+2, -1199829.6, -1223769.3, 36318.793, 0.025568867, -0.2919955, -1173559.0, 55205.188, 0.0, 10.000222, 9.999895 
3.249933e+2, 1.8461289e+2, -1125675.3, -1171117.9, 49349.08, 0.002656039, -0.29178524, -1094068.0, 36699.19, 0.0, 10.000202, 9.999595 
3.2499424e+2, 1.9461334e+2, -1094407.8, -1107190.1, 32731.248, 0.0028212476, -0.20916912, -1067449.6, -34684.16, 0.0, 9.999752, 9.999578 
3.2499498e+2, 2.0461287e+2, -1011864.8, -1019907.75, 15949.552, 0.0056162234, -0.21119298, -999437.56, -64667.4, 0.0, 9.99966, 9.999549 
3.2499555e+2, 2.1461138e+2, -868002.0, -900662.8, 25871.195, 0.008369764, -0.32038912, -853738.25, -16956.252, 0.0, 9.999978, 9.99954 
3.2499593e+2, 2.2461054e+2, -800032.4, -859192.94, 29789.553, 0.00053818536, -0.337231, -787631.56, -48841.586, 0.0, 9.999952, 9.999165 
3.2499617e+2, 2.3461053e+2, -765473.25, -793946.7, 30405.9, -0.01866895, -0.25859568, -746136.1, -105343.02, 0.0, 9.999526, 9.9991455 
3.249966e+2, 2.4461018e+2, -654111.06, -663606.2, 20416.725, -0.010079226, -0.21788661, -637897.2, -95098.99, 0.0, 9.999507, 9.999376 
3.2499716e+2, 2.546095e+2, -488691.63, -532274.8, 16961.508, 0.031016424, -0.23105039, -482868.63, -38063.66, 0.0, 9.999966, 9.999384 
3.2499763e+2, 2.646089e+2, -400283.38, -458162.3, 20745.055, 0.044413373, -0.21932037, -393615.97, -46804.832, 0.0, 9.999986, 9.99921 
3.2499787e+2, 2.746084e+2, -373658.63, -395545.0, 12283.397, 0.023833005, -0.19160444, -368150.8, -119334.35, 0.0, 9.999499, 9.999201 
3.2499835e+2, 2.846076e+2, -308392.8, -349688.7, 20518.268, 0.0121975, -0.17767338, -299931.72, -149106.83, 0.0, 9.999433, 9.998875 
3.2499912e+2, 2.9460645e+2, -149022.55, -220185.03, 27775.963, 0.01152689, -0.18204239, -139464.8, -86629.195, 0.0, 9.9998455, 9.998893 
3.2499978e+2, 3.046048e+2, -32870.902, -90874.39, -14523.6455, 0.04964442, -0.257653, -29437.52, -29437.52, 0.0, 10.000098, 9.999328 
3.2499897e+2, 3.1460464e+2, -23926.852, -83569.1, 28133.518, 0.009241328, -0.20465812, -12750.484, -12750.484, 0.0, 10.000143, 9.999356 
3.3498684e+2, 1.2461333e+2, -1747495.0, -1731402.4, -48811.945, -0.030672755, -0.3185284, -1689978.0, 28784.805, 0.000061273975, 9.9997835, 9.999988 
3.3499005e+2, 1.3461491e+2, -1648344.5, -1655540.4, 94751.47, 0.13910714, -0.1416486, -1557122.6, 63628.035, 0.000025556885, 9.999885, 9.999791 
3.3499086e+2, 1.446142e+2, -1546786.0, -1559034.9, 58266.875, 0.07911558, -0.1891523, -1494322.5, 28436.238, 0.0000055599335, 9.999924, 9.999757 
3.3499134e+2, 1.5461291e+2, -1470670.5, -1477388.5, 23420.625, 0.051936015, -0.29361835, -1450369.3, -25599.14, 0.00000016881297, 9.9998, 9.999703 
3.3499214e+2, 1.646127e+2, -1312458.5, -1272726.8, 30077.346, 0.046775013, -0.31755742, -1256546.8, 70223.64, 0.0, 9.999877, 10.0004 
3.3499303e+2, 1.7461385e+2, -1162639.1, -1146361.3, 50457.027, 0.031090863, -0.25084406, -1103391.0, 125365.94, 0.0, 10.000219, 10.000429 
3.3499363e+2, 1.8461391e+2, -1153350.8, -1226551.9, 33081.24, 0.012955716, -0.22817308, -1140616.0, -9859.519, 0.0, 10.000195, 9.999218 
3.34994e+2, 1.946127e+2, -1124345.3, -1168940.5, 16625.223, 0.003368332, -0.26955974, -1118829.5, -86058.15, 0.0, 9.99975, 9.999155 
3.349947e+2, 2.0461212e+2, -994027.44, -981720.94, 26507.684, 0.007793422, -0.27264363, -960661.7, -25884.203, 0.0, 9.999654, 9.999813 
3.349957e+2, 2.1461232e+2, -847768.2, -857677.75, 38815.188, 0.026056914, -0.24203579, -813592.8, 23180.066, 0.0, 9.999973, 9.999838 
3.349961e+2, 2.2461188e+2, -799185.5, -855341.06, 14079.441, 0.018020453, -0.23768568, -795853.2, -57076.35, 0.0, 9.999944, 9.999195 
3.3499572e+2, 2.3461072e+2, -764795.3, -790844.06, 15078.123, -0.018641757, -0.2763018, -757895.2, -117104.81, 0.0, 9.999519, 9.99917 
3.3499607e+2, 2.4460992e+2, -660680.44, -676352.75, 35848.22, -0.014156821, -0.276908, -631821.94, -89022.58, 0.0, 9.999503, 9.99929 
3.349972e+2, 2.5460964e+2, -496100.2, -545964.7, 35079.61, 0.0367217, -0.24086803, -477995.28, -33193.176, 0.0, 9.999959, 9.999293 
3.3499765e+2, 2.6460904e+2, -418025.78, -493394.88, 2820.5415, 0.0460616, -0.21240231, -417920.38, -71111.875, 0.0, 9.999978, 9.998972 
3.3499724e+2, 2.7460808e+2, -390593.25, -429162.22, -5645.051, 0.00746841, -0.21095781, -389784.03, -140964.8, 0.0, 9.999494, 9.998973 
3.3499768e+2, 2.84607e+2, -301750.22, -335466.34, 34081.285, 0.0014212179, -0.2140037, -280585.56, -129755.29, 0.0, 9.99943, 9.998975 
3.3499914e+2, 2.9460603e+2, -142813.02, -205794.67, 45255.035, 0.03000565, -0.21297069, -119170.45, -66330.96, 0.0, 9.999838, 9.998996 
3.3499998e+2, 3.04605e+2, -34037.863, -91090.24, -13717.363, 0.057668425, -0.22896974, -30911.098, -30911.098, 0.0, 10.00009, 9.99933 
3.3499897e+2, 3.146045e+2, -33124.67, -100351.945, 35931.33, -0.008116469, -0.21589547, -17535.293, -17535.293, 0.0, 10.000134, 9.999244 
3.4498635e+2, 1.246134e+2, -1872685.0, -1766557.9, -91152.055, -0.008236922, -0.27892098, -1714149.0, 4615.6733, 0.000060228966, 9.998816, 10.000213 
3.449897e+2, 1.346151e+2, -1645395.5, -1617513.4, 56714.82, 0.12246112, -0.12322337, -1573051.3, 47698.086, 0.000025763518, 9.999743, 10.000121 
3.449907e+2, 1.4461435e+2, -1508832.9, -1558960.4, 19297.566, 0.055023454, -0.18463199, -1502264.5, 20492.584, 0.000005876301, 10.000263, 9.999593 
3.449913e+2, 1.5461278e+2, -1414835.5, -1470138.3, 21912.123, 0.048423655, -0.29998535, -1407206.0, 17565.691, 0.0000002059256, 10.000268, 9.999527 
3.4499222e+2, 1.6461249e+2, -1289538.8, -1276309.8, 30938.47, 0.057068594, -0.31608385, -1251286.6, 75487.01, 0.0, 10.000098, 10.000267 
3.449931e+2, 1.7461382e+2, -1239545.8, -1197768.3, -117.52503, 0.040720735, -0.2176266, -1197767.9, 30991.637, 0.0, 9.999753, 10.0003 
3.4499368e+2, 1.8461384e+2, -1209215.1, -1231899.9, -23466.71, 0.02444012, -0.19985552, -1194493.4, -63734.31, 0.0, 9.999718, 9.999411 
3.4499407e+2, 1.946124e+2, -1067335.8, -1117739.8, 5719.836, 0.021910438, -0.28779188, -1066694.9, -33920.477, 0.0, 10.000041, 9.999365 
3.4499466e+2, 2.0461187e+2, -932882.9, -954678.4, 34199.773, 0.020995745, -0.2960547, -907886.5, 26892.992, 0.0, 10.000084, 9.999791 
3.4499553e+2, 2.1461245e+2, -875060.06, -874264.44, 20799.781, 0.017143957, -0.22233321, -853858.7, -17086.223, 0.0, 9.999801, 9.999807 
3.4499586e+2, 2.2461218e+2, -828260.5, -864920.2, -20352.598, 0.012270575, -0.20211494, -819200.4, -80425.07, 0.0, 9.999724, 9.999235 
3.449957e+2, 2.3461089e+2, -708152.06, -758883.6, -19566.586, 0.008259184, -0.25675267, -701482.3, -60692.883, 0.0, 9.999887, 9.999211 
3.4499598e+2, 2.4460998e+2, -602311.94, -646371.75, 16646.8, 0.008240426, -0.27178618, -596729.6, -53930.676, 0.0, 9.999896, 9.999308 
3.449968e+2, 2.5460958e+2, -528775.06, -559934.9, 22927.084, 0.011655999, -0.24860975, -516635.2, -71832.72, 0.0, 9.999727, 9.99931 
3.4499726e+2, 2.646089e+2, -443210.9, -518938.22, -4206.277, 0.016025193, -0.22645923, -442978.0, -96168.25, 0.0, 9.999864, 9.998852 
3.449973e+2, 2.7460775e+2, -276253.22, -389046.72, -6068.349, 0.02230035, -0.22621752, -275927.7, -27105.871, 0.0, 10.000341, 9.99884 
3.4499785e+2, 2.8460652e+2, -175561.39, -294708.5, 28175.773, 0.028905818, -0.23171228, -169234.39, -18399.197, 0.0, 10.000381, 9.9987955 
3.4499905e+2, 2.946054e+2, -141232.64, -227133.19, 15279.827, 0.03229864, -0.22818044, -138595.64, -85748.41, 0.0, 9.999944, 9.998797 
3.4499973e+2, 3.0460486e+2, -65430.7, -95603.516, -45719.37, 0.037222598, -0.18958914, -32372.94, -32372.94, 0.0, 9.999829, 9.999423 
3.4499905e+2, 3.1460404e+2, -37019.594, -78957.984, 12768.271, -0.004681938, -0.2206281, -33438.11, -33438.11, 0.0, 10.00001, 9.99945 
3.549867e+2, 1.2461331e+2, -1860827.3, -1741215.8, -68653.0, 0.14171498, -0.18684758, -1709972.3, 8797.176, 0.00005843651, 9.998812, 10.000388 
3.5498905e+2, 1.346135e+2, -1625006.3, -1577611.0, 94094.54, 0.08088598, -0.20895186, -1504275.9, 116490.26, 0.000025162195, 9.999753, 10.000391 
3.5499004e+2, 1.4461292e+2, -1480821.3, -1504733.1, 20690.803, -0.041454036, -0.28408653, -1468880.5, 53890.117, 0.0000057861466, 10.000278, 9.999959 
3.5499156e+2, 1.5461335e+2, -1389312.5, -1416967.8, 22896.453, 0.043040797, -0.23852982, -1376392.3, 48373.867, 0.00000020730299, 10.000266, 9.999894 
3.5499266e+2, 1.6461335e+2, -1342837.1, -1386041.6, 17711.03, 0.0891105, -0.20602848, -1336504.9, -9738.046, 0.0, 10.000094, 9.999516 
3.5499296e+2, 1.7461306e+2, -1294986.6, -1313904.0, -12091.495, 0.04724908, -0.19201295, -1289093.8, -60321.625, 0.0, 9.999758, 9.999501 
3.5499346e+2, 1.8461272e+2, -1155244.4, -1120537.6, -12756.789, 0.028541187, -0.20604861, -1116353.3, 14421.734, 0.0, 9.999719, 10.0001745 
3.5499445e+2, 1.9461238e+2, -1008656.0, -995950.3, 18627.096, 0.054313447, -0.26552406, -982622.5, 50152.066, 0.0, 10.00004, 10.000202 
3.5499495e+2, 2.0461205e+2, -955725.56, -999857.7, 23752.771, 0.041790526, -0.28274387, -945370.9, -10594.335, 0.0, 10.000075, 9.999486 
3.549949e+2, 2.1461175e+2, -900990.2, -926357.6, 11171.625, -0.022308052, -0.26158643, -896771.75, -59990.996, 0.0, 9.999793, 9.999454 
3.5499525e+2, 2.2461142e+2, -826400.25, -859057.9, -15364.774, -0.021581281, -0.23049891, -820307.94, -81522.54, 0.0, 9.999716, 9.999279 
3.5499606e+2, 2.3461106e+2, -704699.8, -750739.56, -12786.433, 0.057474755, -0.19899632, -701387.06, -60596.883, 0.0, 9.999884, 9.9992695 
3.5499632e+2, 2.4461035e+2, -594980.94, -629881.4, 9822.688, 0.05341212, -0.20224623, -592406.25, -49609.074, 0.0, 9.99989, 9.999423 
3.549959e+2, 2.5460932e+2, -520901.13, -541579.5, 16963.482, -0.048367303, -0.25450426, -511374.3, -66568.15, 0.0, 9.999719, 9.999439 
3.5499647e+2, 2.646084e+2, -444152.06, -519501.4, 12684.744, -0.050749328, -0.2618533, -442073.97, -95259.02, 0.0, 9.999857, 9.998851 
3.5499805e+2, 2.746075e+2, -278035.06, -391642.0, 13188.455, 0.06280443, -0.23608054, -276524.13, -27700.086, 0.0, 10.000337, 9.998824 
3.5499886e+2, 2.8460613e+2, -209844.06, -364630.47, 11573.652, 0.08999407, -0.22981952, -208983.47, -58143.98, 0.0, 10.000377, 9.998319 
3.549988e+2, 2.946045e+2, -178068.69, -301490.22, -367.9625, 0.012129478, -0.2287808, -178067.6, -125208.59, 0.0, 9.999934, 9.998291 
3.54999e+2, 3.0460432e+2, -53402.84, -69121.35, -40131.547, -0.01827654, -0.13983314, -20368.219, -20368.219, 0.0, 9.999822, 9.999609 
3.5499918e+2, 3.1460336e+2, -1627.7041, -2990.3672, 24460.371, 0.004206201, -0.20752895, 22160.822, 22160.822, 0.0, 9.999999, 9.999976 
3.6498615e+2, 1.2461273e+2, -1758164.8, -1693019.9, -43657.68, 0.17122836, -0.17030989, -1671122.5, 47653.883, 0.000055122826, 9.999522, 10.000376 
3.6498863e+2, 1.3461253e+2, -1656805.0, -1583530.4, 117124.37, 0.07869095, -0.23975313, -1497446.9, 123329.51, 0.000023501116, 9.999494, 10.000475 
3.6498994e+2, 1.446122e+2, -1570329.8, -1535429.9, 15713.909, -0.046010368, -0.3016523, -1529397.3, -6618.6367, 0.00000526637, 9.99961, 10.00007 
3.649916e+2, 1.5461339e+2, -1444373.5, -1429850.0, -4309.267, 0.046889786, -0.18969457, -1428667.6, -3900.448, 0.00000017249042, 9.999827, 10.000016 
3.649927e+2, 1.6461349e+2, -1376669.4, -1417563.9, -5153.3594, 0.094260484, -0.14903612, -1376030.0, -49262.49, 0.0, 9.999928, 9.999378 
3.6499274e+2, 1.7461243e+2, -1284699.3, -1324966.4, 12296.626, 0.043174695, -0.19493791, -1281241.1, -52460.78, 0.0, 9.999899, 9.999355 
3.6499313e+2, 1.8461202e+2, -1126921.6, -1085557.0, 28335.605, 0.019991217, -0.21817271, -1071158.5, 59625.17, 0.0, 9.999821, 10.000366 
3.649942e+2, 1.9461238e+2, -1043170.56, -989642.0, 11693.392, 0.04386126, -0.22777827, -987199.06, 45576.65, 0.0, 9.9997015, 10.000409 
3.6499482e+2, 2.0461215e+2, -1024545.1, -1051291.1, -8643.946, 0.038094115, -0.23710935, -1021994.75, -87218.07, 0.0, 9.99968, 9.999324 
3.6499482e+2, 2.1461129e+2, -918169.44, -954122.75, -10119.431, -0.0086859185, -0.25606698, -915516.9, -78729.28, 0.0, 9.999759, 9.99928 
3.6499515e+2, 2.2461085e+2, -797365.2, -823374.1, -15070.939, -0.008484456, -0.23627749, -790463.6, -51670.297, 0.0, 9.999822, 9.999475 
3.6499584e+2, 2.3461093e+2, -693073.75, -721674.25, -2061.313, 0.049604606, -0.18211897, -692925.94, -52133.33, 0.0, 9.999862, 9.99948 
3.6499614e+2, 2.4461037e+2, -606799.25, -651242.0, 11874.914, 0.04449276, -0.17479655, -603825.3, -61027.293, 0.0, 9.999876, 9.999284 
3.649958e+2, 2.5460914e+2, -511189.84, -554273.8, -3580.3638, -0.036259778, -0.23083399, -510894.34, -66084.336, 0.0, 9.999858, 9.999286 
3.6499652e+2, 2.6460817e+2, -421903.22, -496572.5, 2755.6157, -0.03572711, -0.23725519, -421801.66, -74982.305, 0.0, 9.999956, 9.9989605 
3.6499828e+2, 2.746075e+2, -287883.06, -382938.9, 11766.592, 0.060945846, -0.20481578, -286448.2, -37621.89, 0.0, 10.000211, 9.998945 
3.6499923e+2, 2.846062e+2, -204455.02, -359996.88, 15408.372, 0.08712407, -0.19882311, -202943.31, -52102.656, 0.0, 10.000403, 9.998339 
3.6499915e+2, 2.9460448e+2, -101260.7, -265565.2, 39785.26, 0.026108557, -0.20729943, -92133.94, -39273.383, 0.0, 10.000464, 9.998284 
3.649991e+2, 3.0460426e+2, 7519.0127, -79708.5, 11527.45, -0.02135289, -0.10318764, 9016.694, 9016.694, 0.0, 10.000411, 9.999253 
3.6499918e+2, 3.1460264e+2, 46698.598, 22441.44, 29739.713, -0.0098207155, -0.20356287, 66687.81, 66687.81, 0.0, 10.000318, 10.0 
3.7498468e+2, 1.2461164e+2, -1771055.8, -1721191.3, -59999.313, 0.06640547, -0.22913373, -1681150.1, 37635.535, 0.00005010573, 9.999527, 10.00018 
3.749885e+2, 1.346122e+2, -1663793.6, -1598815.3, 117989.94, 0.11533893, -0.21467525, -1508923.3, 111857.04, 0.000020857056, 9.999495, 10.00037 
3.7499037e+2, 1.4461213e+2, -1580183.8, -1555629.4, 23432.813, 0.038921606, -0.2360149, -1541452.4, -18671.021, 0.000004428325, 9.999609, 9.999931 
3.749915e+2, 1.5461291e+2, -1452918.4, -1448128.3, 4848.7007, 0.050871566, -0.15287851, -1445115.4, -20340.387, 0.00000011962439, 9.99983, 9.999889 
3.7499234e+2, 1.6461286e+2, -1341987.0, -1347123.9, -6517.4473, 0.06256466, -0.1444203, -1337550.3, -10774.286, 0.0, 9.999933, 9.99986 
3.7499246e+2, 1.7461194e+2, -1248534.6, -1251043.9, 11865.597, 0.025538517, -0.22714941, -1237857.5, -9073.045, 0.0, 9.999903, 9.999862 
3.749927e+2, 1.8461174e+2, -1153854.1, -1141345.5, 23199.803, -0.005562454, -0.23709856, -1123571.8, 7213.727, 0.0, 9.99982, 9.999984 
3.7499335e+2, 1.9461241e+2, -1072746.6, -1050679.5, 8115.426, -0.014181564, -0.1747829, -1048016.3, -15238.564, 0.0, 9.999701, 9.999991 
3.7499416e+2, 2.0461221e+2, -1027080.06, -1055324.6, -6382.03, 0.0052787624, -0.15832925, -1025704.94, -90925.04, 0.0, 9.999674, 9.999299 
3.749952e+2, 2.1461105e+2, -919373.9, -955216.6, -6248.325, 0.05297866, -0.20598292, -918315.9, -81522.7, 0.0, 9.999753, 9.999275 
3.749955e+2, 2.2461045e+2, -773759.4, -772982.5, -14414.951, 0.047169022, -0.21971817, -758950.75, -20151.42, 0.0, 9.999815, 9.999824 
3.7499505e+2, 2.3461047e+2, -667980.44, -668121.25, 175.8291, -0.018921368, -0.20710474, -667861.44, -27064.514, 0.0, 9.999855, 9.999851 
3.7499532e+2, 2.4461e+2, -635772.0, -709423.1, 10960.331, -0.023000117, -0.19055983, -634175.56, -91373.91, 0.0, 9.999867, 9.998888 
3.7499648e+2, 2.5460905e+2, -542116.44, -617643.0, -3435.899, 0.043490868, -0.1769975, -541960.44, -97146.56, 0.0, 9.999855, 9.998852 
3.749974e+2, 2.6460826e+2, -407715.06, -466763.4, 10877.014, 0.057544336, -0.15175602, -405775.22, -58952.25, 0.0, 9.999954, 9.9991665 
3.74998e+2, 2.746077e+2, -272386.13, -347985.47, 22119.523, 0.011936752, -0.13282858, -266389.8, -17561.133, 0.0, 10.000198, 9.999191 
3.749989e+2, 2.8460667e+2, -168518.52, -282180.28, 17786.605, 0.014221735, -0.13937132, -165800.16, -14961.314, 0.0, 10.00039, 9.9988785 
3.7500003e+2, 2.9460534e+2, -64987.188, -189475.47, 42824.797, 0.06749508, -0.16300292, -51678.06, 1173.5654, 0.0, 10.000463, 9.998807 
3.7499994e+2, 3.0460474e+2, -56227.88, -212670.39, 6640.708, 0.023130633, -0.077960655, -55946.5, -55946.5, 0.0, 10.000413, 9.99834 
3.7499905e+2, 3.146019e+2, 8783.694, -51335.586, 27688.896, -0.058231596, -0.20436504, 19592.83, 19592.83, 0.0, 10.000298, 9.999502 
3.8498333e+2, 1.2461081e+2, -1900764.8, -1791492.0, -78752.695, 0.023099663, -0.23670319, -1750278.9, -31484.727, 0.00004363311, 9.998675, 10.000106 
3.8498795e+2, 1.3461185e+2, -1674728.0, -1603184.4, 119464.74, 0.113309704, -0.17481273, -1514250.8, 106534.13, 0.000017489165, 9.9994135, 10.00038 
3.8499036e+2, 1.4461187e+2, -1546854.4, -1543318.3, 25378.352, 0.060655784, -0.18845731, -1519646.5, 3139.1826, 0.0000034194288, 9.999853, 9.999898 
3.849913e+2, 1.54612e+2, -1457098.8, -1453398.5, 10602.638, 0.05014677, -0.1649134, -1444485.8, -19700.71, 0.00000006772674, 9.999816, 9.99986 
3.849921e+2, 1.6461188e+2, -1338954.9, -1322715.6, -5882.5415, 0.049003128, -0.17206155, -1320808.6, 5977.4805, 0.0, 9.999854, 10.000067 
3.849922e+2, 1.7461154e+2, -1213730.6, -1209671.1, -10457.58, 0.006576281, -0.21833478, -1201048.1, 27739.85, 0.0, 10.000033, 10.000084 
3.849925e+2, 1.846115e+2, -1133923.9, -1161000.8, -11826.415, -0.020285718, -0.21254043, -1129485.9, 1302.1348, 0.0, 10.000082, 9.9997225 
3.8499317e+2, 1.9461179e+2, -1054108.1, -1072963.5, -18381.537, -0.013972853, -0.15874633, -1042877.6, -10091.722, 0.0, 9.999964, 9.999711 
3.8499403e+2, 2.0461154e+2, -975224.06, -1005561.75, -10077.6045, 0.010530072, -0.14361538, -972181.56, -37392.617, 0.0, 9.999925, 9.999519 
3.8499504e+2, 2.146107e+2, -868562.5, -904029.1, 7545.9316, 0.051207483, -0.18348196, -867023.75, -30226.133, 0.0, 9.999986, 9.999515 
3.8499537e+2, 2.2461016e+2, -749284.9, -766043.9, -5820.9136, 0.040477578, -0.20025563, -747461.5, -8659.091, 0.0, 10.000004, 9.999781 
3.8499483e+2, 2.3460999e+2, -654471.44, -667379.4, -25186.08, -0.028799266, -0.20315719, -634925.56, 5876.872, 0.0, 9.999973, 9.9998 
3.8499525e+2, 2.4460948e+2, -613122.6, -694495.8, -12763.69, -0.026084008, -0.18907066, -611167.56, -68359.94, 0.0, 10.000006, 9.998924 
3.8499665e+2, 2.546087e+2, -501722.7, -593806.4, 6815.6157, 0.058754567, -0.16291441, -501220.94, -56402.74, 0.0, 10.0001135, 9.998891 
3.8499755e+2, 2.6460794e+2, -379068.6, -463904.06, 33809.305, 0.06696757, -0.13280077, -367243.03, -20415.648, 0.0, 10.000196, 9.99907 
3.84998e+2, 2.7460724e+2, -274114.56, -360042.13, 18915.611, -0.011782987, -0.11627569, -270134.9, -21299.762, 0.0, 10.000233, 9.999093 
3.8499898e+2, 2.8460628e+2, -154102.39, -247455.8, -6153.7163, -0.015892848, -0.122235335, -153698.48, -2854.121, 0.0, 10.000368, 9.999128 
3.8500053e+2, 2.946052e+2, -21239.848, -141507.22, -6631.2207, 0.061614398, -0.14978859, -20875.324, 31978.332, 0.0, 10.000645, 9.99905 
3.8500056e+2, 3.0460435e+2, -32889.76, -248018.1, -42606.734, 0.024001943, -0.078837804, -24758.71, -24758.71, 0.0, 10.000772, 9.997924 
3.8499987e+2, 3.1460154e+2, 68536.445, -27932.084, 15842.562, -0.026403626, -0.16109872, 71071.57, 71071.57, 0.000000000002787424, 10.00073, 9.999456 
3.9498216e+2, 1.2461023e+2, -1898543.1, -1786354.6, -66105.96, 0.033317223, -0.1915516, -1755750.8, -36948.89, 0.0000362571, 9.998673, 10.000141 
3.9498687e+2, 1.3461149e+2, -1666002.1, -1585160.0, 149355.13, 0.066340975, -0.12048053, -1470852.9, 149937.53, 0.000013744367, 9.9994135, 10.0005045 
3.9498973e+2, 1.4461134e+2, -1542651.1, -1534440.6, 25792.617, 0.011530172, -0.15877703, -1512428.5, 10363.188, 0.0000023661473, 9.999851, 9.999961 
3.9499107e+2, 1.5461065e+2, -1451953.8, -1444046.3, 9720.701, 0.040013943, -0.22616613, -1437506.0, -12708.32, 0.000000028035489, 9.999821, 9.999923 
3.9499196e+2, 1.6461052e+2, -1343363.8, -1332544.6, -908.5571, 0.048469763, -0.23168504, -1332468.9, -5670.6484, 0.0, 9.999858, 9.999998 
3.9499202e+2, 1.7461123e+2, -1218550.8, -1219417.0, -2998.184, -0.017586326, -0.16750216, -1215954.6, 12836.441, 0.0, 10.000032, 10.000017 
3.9499253e+2, 1.8461126e+2, -1144035.0, -1181871.9, -16192.536, -0.029173434, -0.14331158, -1138051.5, -7260.205, 0.0, 10.000081, 9.999579 
3.949937e+2, 1.946105e+2, -1064484.1, -1093945.1, -22125.59, 0.040455207, -0.17966956, -1052634.0, -19833.797, 0.0, 9.999961, 9.999568 
3.9499432e+2, 2.0461012e+2, -943134.25, -937939.0, -8675.252, 0.049323063, -0.19347456, -931480.8, 3323.1147, 0.0, 9.99992, 9.999986 
3.9499435e+2, 2.1461023e+2, -834790.4, -832327.1, 10951.585, -0.01828172, -0.18917377, -822538.1, 14262.872, 0.0, 9.999979, 10.0000105 
3.9499462e+2, 2.2461002e+2, -781599.3, -831321.0, -7318.33, -0.032891463, -0.17767364, -780544.5, -41741.938, 0.0, 9.999996, 9.999336 
3.949953e+2, 2.3460945e+2, -689014.4, -738113.75, -25672.271, 0.016585274, -0.17031534, -678042.9, -37233.668, 0.0, 9.9999695, 9.999315 
3.949958e+2, 2.4460877e+2, -581068.6, -627081.06, -9744.435, 0.031745892, -0.17032543, -579090.06, -36273.84, 0.0, 10.000002, 9.999389 
3.9499623e+2, 2.5460804e+2, -467291.6, -519981.44, 11636.255, 0.0051089753, -0.18897736, -464836.22, -20013.12, 0.0, 10.000104, 9.999403 
3.9499697e+2, 2.646072e+2, -407599.06, -520483.6, 34981.457, -0.012455, -0.1807733, -397637.78, -50805.027, 0.0, 10.000186, 9.998687 
3.949982e+2, 2.7460614e+2, -304439.66, -422549.75, 21202.338, -0.015734702, -0.15396792, -300748.88, -51903.414, 0.0, 10.000232, 9.998664 
3.949994e+2, 2.846051e+2, -157771.86, -255728.19, 3029.187, -0.008125249, -0.1468304, -157678.27, -6821.162, 0.0, 10.00037, 9.99907 
3.9500058e+2, 2.94604e+2, -26478.525, -148591.69, 4280.9307, 0.0024747578, -0.16703892, -26328.633, 26538.023, 0.0, 10.000628, 9.999009 
3.9500082e+2, 3.046031e+2, -28894.357, -235571.75, -44332.926, -0.024466725, -0.1053143, -19786.201, -19786.201, 0.0, 10.000756, 9.998016 
3.950016e+2, 3.1460148e+2, 95897.1, 32040.852, 16399.771, 0.07087944, -0.079238944, 99862.67, 99862.67, 0.000000001718879, 10.00072, 9.99987 
4.0498126e+2, 1.2460872e+2, -1826378.6, -1749547.9, -113950.24, 0.053872004, -0.1669041, -1667711.9, 51106.81, 0.000028702449, 9.999162, 10.000159 
4.0498605e+2, 1.3460991e+2, -1645621.4, -1565239.0, 112178.88, 0.038046528, -0.11028902, -1486268.9, 134538.73, 0.000010028613, 9.999509, 10.000596 
4.0498918e+2, 1.4460993e+2, -1547599.9, -1532460.8, -28297.795, -0.024844771, -0.13990605, -1510737.6, 12069.645, 0.0000013962007, 9.999799, 10.0 
4.0499058e+2, 1.5460931e+2, -1426653.9, -1427057.3, -50462.555, 0.003131793, -0.20176925, -1376392.5, 48419.555, 0.000000006286357, 9.999973, 9.999966 
4.0499163e+2, 1.6460921e+2, -1338972.4, -1332002.1, -65038.332, 0.029884286, -0.20831218, -1270355.6, 56456.94, 0.0, 9.999893, 9.999985 
4.0499198e+2, 1.746098e+2, -1297945.1, -1259606.1, -64636.367, 0.0015317035, -0.15380622, -1211356.5, 17450.166, 0.0, 9.999495, 10.000001 
4.0499258e+2, 1.8460983e+2, -1231866.8, -1205738.0, -55956.65, 0.0013278845, -0.13652945, -1161340.9, -30534.115, 0.0, 9.9994, 9.999743 
4.0499362e+2, 1.9460922e+2, -1091431.9, -1087821.9, -39223.645, 0.05204704, -0.17668328, -1050361.8, -17548.063, 0.0, 9.999693, 9.99974 
4.0499413e+2, 2.0460892e+2, -950908.1, -935291.5, -29570.885, 0.040634647, -0.19356887, -912515.4, 22300.75, 0.0, 9.999839, 10.000044 
4.0499392e+2, 2.1460904e+2, -854614.1, -835292.94, -44561.82, -0.05118372, -0.1928413, -799356.56, 37456.367, 0.0, 9.999816, 10.000068 
4.0499428e+2, 2.2460885e+2, -800465.44, -838349.25, -60766.598, -0.060783364, -0.18126857, -755756.94, -16942.746, 0.0, 9.99986, 9.999352 
4.0499538e+2, 2.3460837e+2, -685727.75, -734901.2, -42483.117, 0.028475614, -0.16844942, -661229.6, -20409.313, 0.0, 9.999986, 9.99933 
4.0499607e+2, 2.4460773e+2, -560839.2, -611550.4, -17613.965, 0.04915709, -0.169036, -555321.5, -12494.573, 0.0, 10.000115, 9.999442 
4.0499622e+2, 2.5460696e+2, -440876.53, -500609.6, -31945.02, -0.012315227, -0.19678606, -427011.0, 17822.73, 0.0, 10.000256, 9.999462 
4.0499705e+2, 2.646061e+2, -371435.1, -494832.63, -9165.939, -0.03462015, -0.19660474, -370757.97, -23914.924, 0.0, 10.000399, 9.99876 
4.049987e+2, 2.746051e+2, -251489.95, -388973.8, 12948.758, -0.0066213147, -0.17218694, -250281.02, -1426.2543, 0.0, 10.000561, 9.998736 
4.0500012e+2, 2.8460407e+2, -132390.78, -270614.72, 9888.721, 0.009188202, -0.15134233, -131686.92, 19179.27, 0.0, 10.000661, 9.998829 
4.050012e+2, 2.9460293e+2, -40033.19, -182294.81, -5813.459, -0.000027362048, -0.15240222, -39796.023, 13081.572, 0.0, 10.000651, 9.998767 
4.0500137e+2, 3.0460143e+2, -14605.654, -228790.75, -57657.66, -0.050208554, -0.13623478, -70.82149, -70.82149, 0.0, 10.0008545, 9.998015 
4.0500256e+2, 3.1460032e+2, 201438.6, 96677.8, -11828.034, 0.06469225, -0.06356816, 202757.44, 202757.44, 0.00000001196501, 10.001382, 9.999997 
4.1498065e+2, 1.2460621e+2, -1827269.6, -1750141.6, -116157.42, 0.0753869, -0.16745375, -1666313.9, 52531.38, 0.000021697306, 9.999158, 10.000156 
4.1498545e+2, 1.3460715e+2, -1640245.4, -1556412.1, 126874.65, 0.023215903, -0.14474456, -1464709.3, 156127.25, 0.000006740833, 9.999517, 10.000654 
4.1498867e+2, 1.446076e+2, -1546643.5, -1531034.0, -21635.611, -0.055594645, -0.13139136, -1515838.5, 6993.755, 0.0000006540361, 9.999801, 10.00001 
4.149899e+2, 1.5460803e+2, -1425161.4, -1423409.5, -43230.11, -0.06317115, -0.090957165, -1381046.5, 43781.88, 0.0000000002364484, 9.999971, 9.999992 
4.1499114e+2, 1.6460793e+2, -1336725.3, -1326309.6, -79931.38, -0.010126072, -0.101350285, -1251416.6, 75412.63, 0.0, 9.999889, 10.000026 
4.1499206e+2, 1.7460725e+2, -1295661.5, -1254119.6, -79171.445, 0.058971755, -0.17691703, -1193039.8, 35795.21, 0.0, 9.999493, 10.00004 
4.149926e+2, 1.8460721e+2, -1199392.3, -1138016.8, -46879.047, 0.06532815, -0.19251688, -1112674.3, 18160.15, 0.0, 9.999399, 10.000209 
4.14993e+2, 1.9460791e+2, -1058203.6, -1017370.75, -27541.479, 0.018031875, -0.14830565, -1003503.6, 29322.621, 0.0, 9.999687, 10.000226 
4.1499338e+2, 2.0460792e+2, -976431.94, -986887.5, -30556.637, -0.01880399, -0.1424383, -950659.06, -15833.535, 0.0, 9.999833, 9.999692 
4.1499373e+2, 2.1460713e+2, -882771.0, -891761.5, -44797.55, -0.051201243, -0.19428921, -842243.75, -5410.1885, 0.0, 9.999808, 9.999683 
4.149943e+2, 2.2460671e+2, -767344.1, -768378.3, -56773.926, -0.047116447, -0.2116589, -711084.94, 27752.443, 0.0, 9.999854, 9.999836 
4.149951e+2, 2.3460676e+2, -649895.9, -659271.94, -36791.492, 0.0025709306, -0.19734423, -617494.94, 23340.771, 0.0, 9.99998, 9.999852 
4.149959e+2, 2.4460635e+2, -587049.94, -664511.3, -12669.541, 0.021151299, -0.18432271, -585030.4, -42190.668, 0.0, 10.000109, 9.999081 
4.1499662e+2, 2.546054e+2, -469635.6, -559344.9, -25978.678, 0.0021964896, -0.18679497, -462655.6, -17805.371, 0.0, 10.000252, 9.999062 
4.149978e+2, 2.6460466e+2, -335124.6, -418224.7, -3833.425, -0.0026571439, -0.1813778, -334948.16, 11910.345, 0.0, 10.000395, 9.999288 
4.1499943e+2, 2.7460408e+2, -213687.69, -307181.88, 20397.436, 0.011187064, -0.17052466, -209431.39, 39431.797, 0.0, 10.000547, 9.999304 
4.15001e+2, 2.846033e+2, -162984.17, -331089.97, 9271.096, 0.030753447, -0.13573697, -162474.4, -11602.701, 0.0, 10.0006485, 9.99842 
4.1500235e+2, 2.9460204e+2, -71103.445, -245613.4, -6177.764, 0.04837019, -0.105009936, -70885.02, -17998.684, 0.0, 10.000648, 9.998334 
4.1500217e+2, 3.045995e+2, -21921.865, -244809.19, -39139.754, -0.058337454, -0.16928345, -15248.592, -15248.592, 0.0, 10.000858, 9.997904 
4.1500276e+2, 3.1459796e+2, 188607.28, 73573.86, 5709.2236, -0.057526115, -0.12370717, 188889.94, 188889.94, 0.000000036873733, 10.001368, 9.999845 
4.2498007e+2, 1.2460419e+2, -1759910.5, -1743314.4, -104436.16, 0.07139323, -0.14064369, -1646847.1, 72019.44, 0.000015823704, 9.999733, 9.999926 
4.2498496e+2, 1.3460465e+2, -1618987.4, -1566110.0, 132340.5, 0.012636511, -0.14917815, -1457593.1, 163269.7, 0.0000041887733, 9.999748, 10.000477 
4.249885e+2, 1.4460519e+2, -1550055.6, -1515111.8, -26491.564, -0.04976073, -0.1252367, -1500849.4, 22008.484, 0.00000021832761, 9.999702, 10.000167 
4.2498958e+2, 1.5460604e+2, -1490654.5, -1435185.3, -39274.824, -0.06356384, -0.060084783, -1414839.5, 10010.277, 0.0, 9.999437, 10.000169 
4.249908e+2, 1.6460611e+2, -1398195.4, -1355505.8, -67477.67, -0.012682946, -0.0631203, -1306077.4, 20771.705, 0.0, 9.999468, 10.000028 
4.2499173e+2, 1.7460528e+2, -1237171.8, -1226676.4, -72078.16, 0.056912392, -0.15279518, -1159655.1, 69201.25, 0.0, 9.999898, 10.000032 
4.2499226e+2, 1.8460517e+2, -1098418.8, -1075828.0, -52084.29, 0.056999154, -0.18071185, -1033828.4, 97027.92, 0.0, 10.000034, 10.000329 
4.249925e+2, 1.946059e+2, -1029786.75, -989330.3, -60832.793, -0.006592586, -0.14609548, -945450.7, 87396.35, 0.0, 9.999823, 10.000352 
4.2499292e+2, 2.0460607e+2, -991037.9, -986763.56, -63685.656, -0.040796004, -0.13520198, -925179.25, 9665.492, 0.0, 9.999705, 9.999753 
4.2499354e+2, 2.1460554e+2, -893753.3, -890811.06, -45969.465, -0.047372762, -0.16552918, -846289.2, -9438.827, 0.0, 9.999705, 9.99974 
4.2499423e+2, 2.2460514e+2, -765801.56, -767577.9, -47608.535, -0.03902678, -0.1822881, -719072.94, 19780.994, 0.0, 9.999865, 9.999837 
4.2499506e+2, 2.3460497e+2, -615997.75, -642361.6, -68409.27, -0.010823005, -0.19003287, -559511.94, 81342.32, 0.0, 10.000211, 9.999856 
4.2499602e+2, 2.4460451e+2, -554497.94, -658221.1, -60419.36, 0.011641563, -0.17815496, -526734.6, 16124.116, 0.0, 10.000374, 9.998996 
4.2499712e+2, 2.5460374e+2, -465013.88, -567150.94, -51487.688, 0.025770774, -0.15877949, -443563.63, 1304.6003, 0.0, 10.000326, 9.998971 
4.2499834e+2, 2.646029e+2, -339625.5, -411953.2, -30003.053, 0.019966668, -0.15423475, -328799.94, 18076.63, 0.0, 10.000326, 9.999365 
4.249997e+2, 2.746022e+2, -233053.88, -306196.34, -43404.2, -0.0047584125, -0.1692791, -212867.9, 36014.484, 0.0, 10.00037, 9.999396 
4.2500135e+2, 2.846015e+2, -175615.98, -327820.66, -51837.867, 0.0060072825, -0.13542536, -159638.3, -8748.701, 0.0, 10.000521, 9.998504 
4.2500308e+2, 2.9460055e+2, -39799.508, -218961.98, -29945.818, 0.048325665, -0.083003186, -34926.785, 17974.035, 0.0, 10.000812, 9.998439 
4.2500305e+2, 3.0459762e+2, 17688.088, -207867.52, -22707.574, -0.063966535, -0.19567546, 19951.438, 19951.438, 0.0, 10.001053, 9.998064 
4.2500404e+2, 3.145964e+2, 158733.56, 46647.17, 34047.32, -0.060513247, -0.13302693, 168265.22, 168265.22, 0.00000007454206, 10.001218, 9.999732 
4.349794e+2, 1.24602675e+2, -1791825.0, -1810444.8, -118401.83, 0.029303068, -0.08509951, -1682367.6, 36514.777, 0.0000113764345, 9.999738, 9.999462 
4.3498462e+2, 1.346024e+2, -1646252.3, -1625369.5, 135726.95, 0.0037027688, -0.12388309, -1499682.9, 121203.69, 0.0000025044064, 9.999757, 10.000067 
4.349886e+2, 1.4460267e+2, -1528264.3, -1469789.3, -35542.316, -0.011624492, -0.12255232, -1453004.1, 69880.11, 0.000000047491298, 9.999702, 10.000477 
4.3498963e+2, 1.5460333e+2, -1467649.5, -1386882.3, -48883.938, -0.004295311, -0.11038939, -1363858.6, 61017.93, 0.0, 9.999435, 10.000502 
4.3499058e+2, 1.6460373e+2, -1402209.8, -1363125.0, -52960.73, 0.015014847, -0.09424303, -1326216.1, 656.0535, 0.0, 9.999465, 9.999977 
4.34991e+2, 1.7460388e+2, -1241413.3, -1235400.6, -54831.92, -0.008156597, -0.08024494, -1183492.6, 45378.316, 0.0, 9.999898, 9.999972 
4.3499145e+2, 1.8460372e+2, -1114494.9, -1108594.6, -59972.816, -0.02821133, -0.09972772, -1051499.4, 79372.8, 0.0, 10.000032, 10.000105 
4.3499213e+2, 1.9460316e+2, -1046916.56, -1023413.25, -68537.586, -0.025902197, -0.17031896, -965627.1, 67249.16, 0.0, 9.999817, 10.00012 
4.3499276e+2, 2.046033e+2, -959045.44, -918600.4, -64311.01, -0.02898868, -0.1725435, -871407.4, 63466.48, 0.0, 9.999698, 10.000225 
4.3499327e+2, 2.1460424e+2, -859669.75, -818375.3, -44883.848, -0.044235896, -0.10579137, -789617.4, 47245.957, 0.0, 9.999699, 10.00024 
4.3499407e+2, 2.2460419e+2, -800953.75, -838974.7, -35712.504, -0.04142332, -0.091824, -779507.06, -40643.332, 0.0, 9.999857, 9.99935 
4.3499523e+2, 2.34603e+2, -653916.0, -719539.44, -54820.004, -0.014692218, -0.14748688, -622838.44, 18037.797, 0.0, 10.000205, 9.999329 
4.349965e+2, 2.4460222e+2, -541438.8, -629842.1, -62253.94, 0.018018458, -0.15135165, -509290.34, 33594.04, 0.0, 10.000368, 9.999193 
4.3499774e+2, 2.5460187e+2, -449937.44, -534171.0, -52422.965, 0.053165153, -0.11122762, -424808.5, 20079.27, 0.0, 10.0003195, 9.999201 
4.3499878e+2, 2.6460093e+2, -366462.56, -466499.34, -29164.93, 0.028551664, -0.114157364, -358580.75, -11683.519, 0.0, 10.000321, 9.998993 
4.3499956e+2, 2.7459943e+2, -261537.84, -363961.28, -41398.645, -0.05895191, -0.16850026, -246897.55, 2014.9586, 0.0, 10.000363, 9.999003 
4.350011e+2, 2.8459862e+2, -136432.11, -244290.16, -41807.066, -0.069253854, -0.15015845, -122125.0, 28795.03, 0.0, 10.000513, 9.999081 
4.3500337e+2, 2.9459843e+2, 2949.1577, -127362.36, -17419.307, -0.0057357512, -0.08561434, 5237.4883, 58158.63, 0.0, 10.0008, 9.999073 
4.3500403e+2, 3.045959e+2, 47074.336, -145099.48, -17243.686, -0.072752535, -0.21550252, 48609.344, 48609.344, 0.0, 10.001046, 9.998498 
4.350063e+2, 3.1459555e+2, 153673.1, 38350.508, 36291.234, 0.04299156, -0.10234571, 164143.13, 164143.13, 0.0000001100893, 10.001208, 9.99968 
4.449791e+2, 1.2460075e+2, -1780985.3, -1793692.1, -142555.23, 0.024404941, -0.056345828, -1644641.9, 74260.76, 0.000008277144, 9.999767, 9.99956 
4.4498414e+2, 1.3460045e+2, -1655169.4, -1613205.8, 165212.94, -0.014239592, -0.11300626, -1467647.6, 153258.34, 0.0000015575915, 9.999626, 10.000214 
4.449883e+2, 1.446007e+2, -1538787.8, -1486064.6, 3230.0718, -0.009975233, -0.11540102, -1485867.5, 37035.73, 0.000000013935479, 9.999679, 10.000377 
4.4498932e+2, 1.54601e+2, -1410842.5, -1371167.3, -47453.227, -0.0021394296, -0.13004352, -1339572.0, 85327.62, 0.0, 9.999877, 10.000396 
4.4499022e+2, 1.6460131e+2, -1330605.6, -1321295.8, -56020.824, 0.008291412, -0.11783783, -1269736.9, 57159.156, 0.0, 9.999926, 10.000042 
4.4499058e+2, 1.7460178e+2, -1249319.4, -1230263.0, -47719.09, -0.03526718, -0.08143593, -1191130.1, 37761.457, 0.0, 9.999807, 10.000051 
4.4499108e+2, 1.8460174e+2, -1176824.8, -1158663.0, -55949.984, -0.04890145, -0.081937514, -1111061.8, 19830.176, 0.0, 9.999693, 9.999925 
4.44992e+2, 1.9460115e+2, -1092494.6, -1066893.6, -63268.793, -0.009183531, -0.13846913, -1015143.5, 17754.225, 0.0, 9.999597, 9.999928 
4.4499278e+2, 2.0460114e+2, -960542.6, -913649.1, -61353.45, 0.0038529846, -0.14864601, -871414.8, 63481.99, 0.0, 9.999662, 10.000276 
4.4499332e+2, 2.1460181e+2, -823971.3, -793977.25, -75869.12, -0.020768583, -0.114635654, -731637.1, 105250.55, 0.0, 9.999914, 10.000303 
4.449942e+2, 2.246017e+2, -775152.8, -839098.9, -66014.555, -0.026813945, -0.10408943, -733776.0, 5112.3574, 0.0, 10.000091, 9.999235 
4.449955e+2, 2.3460068e+2, -666333.1, -739666.4, -55583.113, -0.00879375, -0.13048832, -636412.06, 4488.1055, 0.0, 10.00018, 9.999203 
4.449968e+2, 2.4459992e+2, -544762.1, -618647.56, -55149.715, 0.016811015, -0.12887335, -515325.2, 27582.658, 0.0, 10.00029, 9.999309 
4.449981e+2, 2.5459948e+2, -425519.56, -507643.47, -54812.348, 0.047388583, -0.1104335, -398094.44, 46816.527, 0.0, 10.000424, 9.999332 
4.449991e+2, 2.6459846e+2, -359144.16, -481635.06, -29265.352, 0.020345699, -0.1235408, -352511.28, -5589.9224, 0.0, 10.000451, 9.998826 
4.4499984e+2, 2.745968e+2, -273628.4, -390625.78, -26857.441, -0.06614492, -0.17292455, -267757.7, -18818.766, 0.0, 10.000368, 9.998818 
4.4500142e+2, 2.8459603e+2, -146487.77, -226810.4, -24540.676, -0.07872454, -0.15130967, -139583.42, 11362.676, 0.0, 10.000346, 9.999282 
4.4500378e+2, 2.9459605e+2, -41786.234, -120808.29, -31393.998, -0.021017484, -0.08740445, -30832.379, 22111.412, 0.0, 10.000372, 9.999323 
4.4500476e+2, 3.0459368e+2, 9465.805, -152021.36, -45273.395, -0.08766524, -0.21874923, 21292.229, 21292.229, 0.00000000000009396187, 10.000738, 9.9986 
4.450079e+2, 3.1459352e+2, 161997.69, -1606.5791, -28542.115, 0.07002125, -0.09390445, 166834.13, 166834.13, 0.00000013361628, 10.001453, 9.999289 
4.5497912e+2, 1.24598384e+2, -1732835.6, -1696415.0, -161404.1, 0.047388796, -0.05921415, -1552197.3, 166730.44, 0.0000061456926, 9.99978, 10.000222 
4.5498347e+2, 1.3459875e+2, -1606650.0, -1512965.1, 161954.25, -0.045255527, -0.118060336, -1391215.3, 229705.95, 0.0000010596042, 9.999625, 10.000904 
4.549876e+2, 1.4459927e+2, -1576041.4, -1561418.5, 11345.069, -0.05140734, -0.104348786, -1555233.0, -32317.986, 0.000000007555667, 9.999671, 9.999863 
4.549886e+2, 1.5459901e+2, -1449689.5, -1452146.5, -38424.793, -0.06316277, -0.11764237, -1412473.6, 12445.29, 0.0, 9.99988, 9.999839 
4.5498964e+2, 1.645989e+2, -1316129.5, -1292380.5, -61113.19, -0.03827618, -0.1325459, -1241998.9, 84921.54, 0.0, 9.99993, 10.000237 
4.5499048e+2, 1.7459895e+2, -1234661.9, -1198469.0, -51592.7, -0.027481286, -0.15699172, -1161891.1, 67027.42, 0.0, 9.999802, 10.000272 
4.5499122e+2, 1.8459927e+2, -1187844.3, -1179619.0, -59822.72, -0.009082243, -0.12858275, -1123767.8, 7147.8247, 0.0, 9.999684, 9.9997835 
4.549921e+2, 1.9459985e+2, -1104046.0, -1089692.8, -66150.03, 0.038856104, -0.04995085, -1030331.25, 2580.0876, 0.0, 9.999592, 9.999774 
4.5499292e+2, 2.0459956e+2, -987435.25, -967874.1, -53155.29, 0.052789435, -0.062374026, -923607.1, 11306.584, 0.0, 9.999656, 9.999907 
4.5499364e+2, 2.1459822e+2, -850915.0, -848791.56, -65572.7, 0.020164385, -0.19241202, -784272.0, 52651.53, 0.0, 9.999909, 9.999929 
4.5499456e+2, 2.2459766e+2, -758325.6, -802612.44, -62891.598, 0.002097523, -0.21974114, -713793.06, 25134.94, 0.0, 10.000084, 9.99949 
4.5499578e+2, 2.3459801e+2, -647282.6, -699180.25, -51604.67, 0.0031456184, -0.13746431, -615470.0, 25456.037, 0.0, 10.000175, 9.999483 
4.5499697e+2, 2.4459769e+2, -543381.56, -614598.44, -50920.348, 0.00423524, -0.10939227, -516854.34, 26074.83, 0.0, 10.000284, 9.999339 
4.5499805e+2, 2.545966e+2, -425472.0, -504424.75, -49408.504, 0.004085884, -0.15788765, -401706.13, 43232.008, 0.0, 10.000411, 9.999361 
4.5499924e+2, 2.6459545e+2, -358065.16, -477473.5, -32614.871, -0.008157307, -0.18306282, -349737.6, -2788.366, 0.0, 10.0004425, 9.998858 
4.5500058e+2, 2.7459437e+2, -272160.63, -387113.66, -28837.234, -0.031621594, -0.18195355, -265332.13, -16370.29, 0.0, 10.000366, 9.998844 
4.5500228e+2, 2.8459376e+2, -159420.73, -251992.7, -24631.793, -0.027492242, -0.13871665, -153274.69, -2306.7756, 0.0, 10.0003395, 9.999112 
4.5500433e+2, 2.9459345e+2, -53330.18, -141989.31, -29778.072, -0.002825688, -0.08705077, -44257.09, 8711.742, 0.0, 10.0003605, 9.999184 
4.5500526e+2, 3.0459103e+2, -8625.004, -186657.6, -19458.398, -0.11292971, -0.20674159, -6523.079, -6523.079, 0.00000000000087855477, 10.000728, 9.998366 
4.5500875e+2, 3.1459033e+2, 110047.555, -106182.77, -10436.524, 0.008541273, -0.10916211, 110550.12, 110550.12, 0.00000014519496, 10.00144, 9.998575 
4.6497908e+2, 1.2459597e+2, -1699922.8, -1685553.4, -161620.13, 0.05233603, -0.08374114, -1530958.3, 187992.69, 0.000004581255, 10.000031, 10.000173 
4.649833e+2, 1.3459648e+2, -1550912.0, -1490527.1, 116279.78, -0.043109603, -0.124271415, -1400584.0, 220359.63, 0.0000007444035, 10.000026, 10.000865 
4.6498752e+2, 1.4459728e+2, -1538391.9, -1538494.0, -39968.063, -0.036015425, -0.08387349, -1498474.8, 24460.49, 0.0000000034677494, 9.99991, 9.999906 
4.649881e+2, 1.545971e+2, -1489138.1, -1465351.4, -46536.16, -0.085420325, -0.093869895, -1429212.8, -4274.287, 0.0, 9.999584, 9.99989 
4.649891e+2, 1.6459697e+2, -1384303.9, -1327686.9, -48985.273, -0.06347747, -0.11085725, -1299418.6, 27521.53, 0.0, 9.999474, 10.000216 
4.6499032e+2, 1.745969e+2, -1260062.4, -1213603.6, -59362.03, -0.014014477, -0.14420314, -1173087.8, 55851.75, 0.0, 9.999639, 10.000247 
4.6499118e+2, 1.845971e+2, -1169166.1, -1168697.4, -69165.41, 0.014208345, -0.12735096, -1099765.9, 31171.533, 0.0, 9.9998045, 9.999801 
4.6499184e+2, 1.945976e+2, -1045031.1, -1058924.4, -62675.336, 0.037531193, -0.061912805, -988918.6, 44014.906, 0.0, 9.999989, 9.999793 
4.6499264e+2, 2.0459725e+2, -949190.1, -971086.0, -35471.664, 0.04420008, -0.07079514, -923015.3, 11921.029, 0.0, 10.000012, 9.999712 
4.6499354e+2, 2.1459594e+2, -875028.0, -883481.8, -36937.633, 0.022441376, -0.1767165, -842076.2, -5129.3716, 0.0, 9.999844, 9.9997225 
4.6499458e+2, 2.2459528e+2, -801211.7, -818607.7, -33326.8, 0.009914315, -0.20499842, -775466.5, -36514.258, 0.0, 9.999767, 9.999534 
4.6499586e+2, 2.3459539e+2, -699201.3, -717519.5, -39804.12, 0.010443371, -0.15290225, -667516.1, -26564.633, 0.0, 9.999791, 9.999542 
4.649971e+2, 2.4459496e+2, -593794.3, -642786.94, -42699.953, 0.004764479, -0.1366825, -569063.06, -26107.84, 0.0, 9.999956, 9.999303 
4.6499828e+2, 2.545939e+2, -445457.16, -519468.8, -47247.47, -0.010003836, -0.17509863, -422448.34, 22515.81, 0.0, 10.000296, 9.999313 
4.6499956e+2, 2.6459292e+2, -349727.13, -469888.38, -41645.14, -0.02517034, -0.18510856, -336705.1, 10268.803, 0.0, 10.000485, 9.998891 
4.6500096e+2, 2.7459204e+2, -251590.75, -372344.0, -39808.42, -0.037050832, -0.1658276, -239648.3, 9335.435, 0.0, 10.000489, 9.998885 
4.650028e+2, 2.8459126e+2, -155204.86, -291803.63, -36771.207, -0.020840336, -0.126088, -145935.39, 5056.714, 0.0, 10.000548, 9.998738 
4.6500504e+2, 2.9459035e+2, -33730.69, -174579.33, -58951.105, 0.017061707, -0.09474212, -12313.749, 40686.688, 0.0, 10.000674, 9.99881 
4.6500605e+2, 3.0458826e+2, 28275.963, -136490.03, -24278.8, -0.11239458, -0.17842782, 31779.043, 31779.043, 0.00000000000042122027, 10.000838, 9.998659 
4.6500948e+2, 3.1458747e+2, 34165.227, -147667.69, 13981.848, -0.036841933, -0.119092874, 35234.066, 35234.066, 0.00000014428599, 10.000937, 9.998533 
4.749789e+2, 1.245935e+2, -1753580.0, -1796682.4, -173805.14, 0.025670335, -0.12952146, -1599995.0, 118977.79, 0.0000033199578, 10.000029, 9.999413 
4.749836e+2, 1.3459368e+2, -1603097.4, -1602389.9, 119041.766, -0.01632854, -0.1284425, -1483701.4, 137271.88, 0.00000048107097, 10.000039, 10.0000925 
4.749881e+2, 1.4459471e+2, -1493445.1, -1449450.5, -52026.863, 0.02814928, -0.050568134, -1414961.8, 108002.125, 0.000000000765976, 9.999927, 10.000509 
4.7498783e+2, 1.5459521e+2, -1443490.1, -1369199.4, -58474.785, -0.07143789, -0.05957638, -1337069.4, 87889.305, 0.0, 9.999578, 10.000553 
4.7498852e+2, 1.6459553e+2, -1402217.1, -1363309.5, -43733.97, -0.07052892, -0.053251017, -1334897.8, -7942.188, 0.0, 9.999467, 9.999974 
4.7499007e+2, 1.7459567e+2, -1279405.3, -1253507.8, -52120.844, -0.0026805676, -0.041554537, -1212751.3, 16203.52, 0.0, 9.999639, 9.999972 
4.7499096e+2, 1.8459529e+2, -1155652.1, -1141311.6, -63141.59, 0.012928023, -0.075722925, -1084934.5, 46023.16, 0.0, 9.999807, 9.999989 
4.7499132e+2, 1.9459434e+2, -1030337.44, -1028725.44, -54934.168, -0.015302777, -0.17543162, -974591.4, 58373.13, 0.0, 9.999989, 10.000001 
4.7499198e+2, 2.0459418e+2, -953077.7, -977034.0, -41713.188, -0.02505277, -0.17494127, -921656.94, 13308.055, 0.0, 10.000004, 9.999676 
4.74993e+2, 2.1459498e+2, -878912.0, -890534.5, -42662.92, -0.018988516, -0.0672627, -841666.4, -4708.623, 0.0, 9.999839, 9.999676 
4.7499418e+2, 2.2459456e+2, -813528.6, -842293.25, -33689.543, -0.008979838, -0.059375513, -791279.9, -52318.715, 0.0, 9.999759, 9.999374 
4.7499564e+2, 2.3459281e+2, -711175.3, -740673.3, -38246.82, 0.009624239, -0.17805022, -684932.2, -43955.605, 0.0, 9.9997835, 9.999387 
4.7499716e+2, 2.4459174e+2, -602948.6, -660319.8, -31087.813, 0.014638981, -0.2118661, -589333.94, -46347.71, 0.0, 9.999949, 9.9991865 
4.7499868e+2, 2.545915e+2, -453979.56, -536928.5, -33885.887, 0.0004199348, -0.16017696, -441896.72, 3092.354, 0.0, 10.000295, 9.999195 
4.7499993e+2, 2.6459086e+2, -348095.53, -465622.4, -41621.277, -0.03485963, -0.12805809, -334848.75, 12146.589, 0.0, 10.000482, 9.998921 
4.7500095e+2, 2.7458984e+2, -249967.55, -366068.03, -39214.027, -0.08739688, -0.12541044, -237963.73, 11041.163, 0.0, 10.000477, 9.998934 
4.7500294e+2, 2.8458855e+2, -197008.5, -376253.75, -32928.44, -0.06344811, -0.11392823, -191150.77, -40131.883, 0.0, 10.000538, 9.998163 
4.750059e+2, 2.9458675e+2, -76131.53, -261685.27, -52019.438, 0.03313574, -0.11091162, -62543.137, -9504.377, 0.0, 10.0006695, 9.998215 
4.750071e+2, 3.0458534e+2, 84407.086, -17273.861, -20560.105, -0.091206774, -0.13592146, 88407.03, 88407.03, 0.0, 10.000829, 9.999482 
4.7501004e+2, 3.1458503e+2, 76596.27, -55151.01, 9947.014, -0.07772469, -0.116908476, 77343.05, 77343.05, 0.00000012581201, 10.00092, 9.999176 
4.8497885e+2, 1.2459174e+2, -1715272.9, -1783838.8, -174989.25, 0.0069453996, -0.1315716, -1571239.9, 147750.02, 0.0000022837717, 10.00032, 9.999358 
4.8498306e+2, 1.3459183e+2, -1671251.0, -1643613.0, 176939.19, -0.05177888, -0.13036494, -1479954.0, 141037.48, 0.0000002759338, 9.999605, 10.00002 
4.8498777e+2, 1.445929e+2, -1580737.1, -1492161.8, 21710.057, 0.03324263, -0.046491638, -1487126.8, 35855.34, 0.000000000009128432, 9.999331, 10.000503 
4.8498768e+2, 1.5459323e+2, -1461064.0, -1378461.6, -37733.13, -0.03821875, -0.07093315, -1363820.1, 61158.03, 0.0, 9.999459, 10.000548 
4.8498836e+2, 1.6459356e+2, -1386968.3, -1357444.1, -28951.666, -0.03645464, -0.06226507, -1339708.3, -12733.338, 0.0, 9.999578, 9.999961 
4.8498985e+2, 1.7459394e+2, -1265461.0, -1248642.5, -18503.553, 0.003842286, -0.02627073, -1236727.0, -7754.7876, 0.0, 9.9997425, 9.999956 
4.8499075e+2, 1.8459356e+2, -1146685.9, -1139968.3, -26964.52, 0.005064291, -0.058020033, -1116154.1, 14820.7705, 0.0, 9.99988, 9.999964 
4.849912e+2, 1.9459237e+2, -1034568.56, -1033606.6, -37784.74, -0.026588537, -0.17799717, -996299.8, 36683.85, 0.0, 9.99997, 9.999977 
4.849919e+2, 2.0459214e+2, -954177.94, -993819.06, -42328.086, -0.033980813, -0.17750625, -927259.7, 7725.5693, 0.0, 10.000064, 9.999533 
4.8499298e+2, 2.1459301e+2, -843022.0, -889536.0, -51531.504, -0.017483303, -0.04637266, -809742.4, 27235.664, 0.0, 10.000155, 9.999532 
4.849942e+2, 2.2459258e+2, -748246.9, -818475.44, -38769.613, -0.0032498054, -0.029623834, -731053.44, 7928.413, 0.0, 10.000241, 9.999305 
4.849957e+2, 2.3459066e+2, -637592.6, -713249.1, -38551.77, 0.009484388, -0.15671293, -621409.6, 19588.578, 0.0, 10.000323, 9.999315 
4.8499724e+2, 2.4458942e+2, -566365.0, -672006.8, -29394.64, 0.010309692, -0.1926717, -558736.8, -15727.047, 0.0, 10.000325, 9.998925 
4.8499888e+2, 2.5458896e+2, -482365.8, -580192.4, -44999.15, -0.0062220995, -0.13540217, -464815.3, -19799.49, 0.0, 10.000228, 9.998929 
4.8500025e+2, 2.645882e+2, -379903.3, -480455.47, -59679.066, -0.038689643, -0.10231079, -352145.6, -5122.1455, 0.0, 10.000262, 9.998925 
4.8500144e+2, 2.7458712e+2, -253318.98, -366733.03, -60316.176, -0.082502715, -0.10752337, -227238.77, 21793.848, 0.0, 10.000448, 9.998944 
4.8500338e+2, 2.8458557e+2, -218136.19, -390622.28, -40825.113, -0.065796375, -0.11782298, -208961.45, -57913.023, 0.0, 10.000411, 9.998126 
4.85006e+2, 2.945835e+2, -159550.0, -305447.0, -19749.824, 0.0055338787, -0.14110498, -156923.78, -103852.23, 0.0, 10.0001135, 9.99818 
4.8500735e+2, 3.045828e+2, 6147.459, -38722.305, 24463.633, -0.115052156, -0.098893, 16905.85, 16905.85, 0.0, 10.000221, 9.999627 
4.8501086e+2, 3.145824e+2, 54459.41, -48452.89, -11848.837, -0.07467158, -0.10364591, 55806.01, 55806.01, 0.00000009052117, 10.000692, 9.999333 
4.9497893e+2, 1.2459066e+2, -1669481.4, -1691274.6, -209650.9, -0.020179708, -0.08846992, -1470444.1, 248558.1, 0.0000015131136, 10.00033, 9.999989 
4.9498168e+2, 1.3459091e+2, -1629215.8, -1554800.6, 151543.75, -0.1509009, -0.1313016, -1435963.6, 185035.34, 0.00000014199817, 9.999598, 10.000633 
4.9498653e+2, 1.4459176e+2, -1624430.1, -1581912.0, 26158.2, -0.024028217, -0.071648486, -1569463.5, -46473.145, 0.0, 9.999326, 9.99989 
4.9498758e+2, 1.5459117e+2, -1506951.0, -1474618.1, -31839.766, 0.0044934186, -0.12453978, -1455075.6, -30078.697, 0.0, 9.999464, 9.999886 
4.9498865e+2, 1.6459109e+2, -1370603.6, -1326340.8, -24305.617, 0.0287177, -0.13275917, -1315600.3, 11397.706, 0.0, 9.99959, 10.000169 
4.949896e+2, 1.7459168e+2, -1248138.4, -1212924.6, -11588.017, 0.0039236126, -0.09934687, -1209453.5, 19538.393, 0.0, 9.9997425, 10.000201 
4.9499044e+2, 1.8459187e+2, -1164575.1, -1175657.9, -23686.932, -0.01177224, -0.07434251, -1145790.0, -14800.591, 0.0, 9.999873, 9.999722 
4.9499142e+2, 1.9459169e+2, -1052860.6, -1071559.0, -33769.855, -0.0016205701, -0.06936396, -1027169.7, 5821.48, 0.0, 9.99997, 9.999717 
4.9499246e+2, 2.045911e+2, -971553.5, -1028662.0, -39611.664, 0.011177877, -0.07840734, -951277.1, -16279.985, 0.0, 10.000058, 9.999296 
4.9499357e+2, 2.1459006e+2, -859837.4, -923693.94, -46998.35, 0.024171613, -0.115910016, -834947.9, 2060.0522, 0.0, 10.000151, 9.9993 
4.9499473e+2, 2.2458932e+2, -749571.9, -819421.5, -36330.473, 0.023046458, -0.11752227, -734101.8, 4912.821, 0.0, 10.000234, 9.999302 
4.94996e+2, 2.34589e+2, -637401.2, -712649.44, -34870.223, 0.0067539606, -0.087712295, -623727.1, 17289.09, 0.0, 10.000321, 9.99932 
4.9499735e+2, 2.44588e+2, -595525.2, -731413.4, -33438.477, -0.012215369, -0.07788247, -587742.6, -44716.758, 0.0, 10.00032, 9.99852 
4.949988e+2, 2.545863e+2, -512589.03, -641257.94, -48052.336, -0.034296483, -0.10186841, -496624.38, -51579.8, 0.0, 10.00022, 9.998513 
4.9500048e+2, 2.6458493e+2, -383017.25, -485424.6, -53766.164, -0.041402645, -0.10905453, -359973.9, -12915.4795, 0.0, 10.000256, 9.998895 
4.9500245e+2, 2.7458388e+2, -255359.64, -370030.5, -52389.895, -0.027488662, -0.11269794, -235028.78, 14038.224, 0.0, 10.000444, 9.998923 
4.9500412e+2, 2.8458238e+2, -185089.06, -320044.78, -51978.36, -0.03248676, -0.13703886, -167390.56, -16309.863, 0.0, 10.000403, 9.998614 
4.9500537e+2, 2.9458058e+2, -124272.2, -229995.03, -28980.516, -0.07080382, -0.18317297, -116849.29, -63750.535, 0.0, 10.000104, 9.998703 
4.9500686e+2, 3.0458066e+2, -32022.549, -115664.625, 41547.215, -0.18808204, -0.06624744, -14893.013, -14893.013, 0.0, 10.000212, 9.999103 
4.9501193e+2, 3.1457967e+2, 28551.102, -97933.64, -1913.265, -0.039455343, -0.07449601, 28580.035, 28580.035, 0.000000050936965, 10.000675, 9.999001 
5.0497854e+2, 1.2458977e+2, -1802211.6, -1743799.4, -181133.11, -0.042802963, -0.075408086, -1589532.9, 129478.17, 0.0000009949754, 9.999374, 10.000088 
5.0498134e+2, 1.3458991e+2, -1566066.3, -1517822.5, 143673.67, -0.16529863, -0.13592714, -1396259.8, 224748.52, 0.000000065122016, 10.000001, 10.000694 
5.049865e+2, 1.4459066e+2, -1492317.0, -1539807.6, 17339.53, -0.0071778437, -0.07961628, -1486659.9, 36340.48, 0.0, 10.000326, 9.999697 
5.049873e+2, 1.5458983e+2, -1402416.6, -1447634.1, -10038.68, -0.0068504107, -0.13599695, -1400288.1, 24720.95, 0.0, 10.000281, 9.999678 
5.049883e+2, 1.6458946e+2, -1294587.9, -1306736.0, 1423.1156, 0.010267442, -0.154872, -1294423.4, 32589.355, 0.0, 10.000184, 10.000018 
5.0498945e+2, 1.7458971e+2, -1221544.6, -1216691.5, -16668.547, 0.004130826, -0.138578, -1202273.9, 26735.803, 0.0, 9.999995, 10.000054 
5.0499046e+2, 1.845899e+2, -1174556.5, -1193173.5, -35998.84, 0.0007131107, -0.10326846, -1146682.1, -15674.262, 0.0, 9.999859, 9.999609 
5.049915e+2, 1.9459002e+2, -1083571.1, -1098688.8, -35809.1, 0.013950407, -0.05546053, -1054531.8, -21524.498, 0.0, 9.999812, 9.999607 
5.0499266e+2, 2.0458934e+2, -996282.4, -1056230.1, -24104.547, 0.0323271, -0.0600055, -987792.44, -52778.14, 0.0, 9.999954, 9.999159 
5.0499403e+2, 2.1458778e+2, -847260.1, -933373.44, -26168.299, 0.051289983, -0.13677585, -839931.7, -2901.742, 0.0, 10.000303, 9.999161 
5.0499517e+2, 2.2458684e+2, -736533.4, -837874.0, -26945.355, 0.036529027, -0.14189641, -729814.4, 9224.797, 0.0, 10.000428, 9.999083 
5.0499606e+2, 2.3458664e+2, -658439.44, -747497.2, -44322.887, -0.015788529, -0.07441339, -640140.44, 900.1445, 0.0, 10.000284, 9.999099 
5.049974e+2, 2.4458572e+2, -599497.9, -724348.2, -31809.934, -0.038330927, -0.05058246, -591860.44, -48810.465, 0.0, 10.000256, 9.998599 
5.0499916e+2, 2.54584e+2, -483940.13, -617359.4, -8805.003, -0.02688364, -0.08773941, -483361.53, -38293.3, 0.0, 10.000374, 9.998604 
5.050009e+2, 2.645825e+2, -377620.9, -496286.8, 2836.0972, -0.02890128, -0.101418264, -377553.16, -30470.535, 0.0, 10.000351, 9.998773 
5.0500256e+2, 2.7458134e+2, -306443.75, -409254.97, -7028.869, -0.04459617, -0.106615774, -305965.44, -56872.223, 0.0, 10.000158, 9.99879 
5.0500417e+2, 2.8457978e+2, -198139.53, -308989.28, -20081.805, -0.056892727, -0.13630205, -194613.63, -43506.316, 0.0, 10.000238, 9.99877 
5.050057e+2, 2.9457814e+2, -38071.996, -170474.05, -23509.086, -0.07314867, -0.18414457, -34021.668, 19101.293, 0.0, 10.000618, 9.998865 
5.0500727e+2, 3.045785e+2, -14528.257, -140654.75, 35062.027, -0.17752977, -0.030880805, -5436.678, -5436.678, 0.0, 10.000476, 9.998804 
5.0501186e+2, 3.1457677e+2, -113806.43, -158734.6, -3213.2476, -0.06060293, -0.083168246, -113577.78, -113577.78, 0.000000020855737, 9.999663, 9.999071 
5.1497763e+2, 1.2458899e+2, -1833406.6, -1807202.8, -166220.88, -0.072947115, -0.093936436, -1653568.3, 65448.43, 0.00000067894854, 9.999367, 9.999657 
5.149819e+2, 1.3458884e+2, -1597681.6, -1586042.5, 169255.9, -0.10467384, -0.13864815, -1422506.1, 198513.27, 0.000000029496794, 10.0000105, 10.000222 
5.1498765e+2, 1.4458963e+2, -1476529.5, -1510363.9, 15302.399, 0.070992194, -0.063382626, -1470635.4, 52376.2, 0.0, 10.000339, 9.999893 
5.1498693e+2, 1.5458915e+2, -1386207.1, -1414198.1, -11459.203, -0.075259715, -0.106226355, -1382114.4, 42900.605, 0.0, 10.000281, 9.999907 
5.1498747e+2, 1.6458863e+2, -1329605.4, -1378740.8, -6273.4316, -0.094903864, -0.128906, -1328817.0, -1797.531, 0.0, 10.00018, 9.999526 
5.149894e+2, 1.7458805e+2, -1257654.4, -1292547.3, -23222.227, -0.0022295471, -0.14315891, -1246055.1, -17029.465, 0.0, 9.999999, 9.999532 
5.149907e+2, 1.8458761e+2, -1172989.9, -1190932.9, -39066.65, 0.033941906, -0.14302705, -1141877.8, -10847.746, 0.0, 9.999863, 9.999622 
5.1499134e+2, 1.9458735e+2, -1081161.0, -1093394.8, -36896.797, 0.01731749, -0.13717179, -1049877.5, -16845.445, 0.0, 9.999809, 9.999645 
5.1499254e+2, 2.0458686e+2, -1001163.4, -1063798.9, -12144.372, 0.02600419, -0.12277696, -998891.1, -63854.355, 0.0, 9.999943, 9.999112 
5.1499444e+2, 2.1458617e+2, -851176.06, -941065.4, -12199.627, 0.059840187, -0.10918431, -849549.75, -12505.454, 0.0, 10.0003, 9.999109 
5.1499563e+2, 2.245851e+2, -767873.6, -901506.1, -32266.055, 0.03278226, -0.10293143, -760490.75, -21435.063, 0.0, 10.0004225, 9.998649 
5.1499593e+2, 2.3458363e+2, -690423.06, -813037.0, -48844.54, -0.06195079, -0.11789103, -673344.25, -32272.686, 0.0, 10.000279, 9.9986515 
5.149973e+2, 2.4458256e+2, -561096.7, -643383.9, -28669.521, -0.07366974, -0.11294148, -552093.2, -9010.792, 0.0, 10.000251, 9.999158 
5.149999e+2, 2.54582e+2, -442687.75, -530542.56, -3667.2927, 0.011810826, -0.09342472, -442534.94, 2551.9038, 0.0, 10.000368, 9.999204 
5.1500154e+2, 2.6458102e+2, -394183.47, -528976.94, -4256.22, -0.0044001807, -0.07851451, -394049.22, -46953.266, 0.0, 10.000344, 9.998552 
5.1500183e+2, 2.745795e+2, -324787.38, -446267.1, -13158.106, -0.13809907, -0.08894656, -323378.5, -74267.13, 0.0, 10.000154, 9.998539 
5.1500356e+2, 2.8457776e+2, -211813.75, -335361.97, -7130.886, -0.14474642, -0.11685992, -211403.55, -60275.02, 0.0, 10.00023, 9.998592 
5.1500696e+2, 2.9457614e+2, -53106.664, -199059.08, -7345.3745, -0.008712695, -0.14672534, -52737.92, 406.6041, 0.0, 10.0006075, 9.998673 
5.150087e+2, 3.045764e+2, -21885.225, -152656.86, 6020.336, -0.08923628, 0.0064633745, -21608.652, -21608.652, 0.0, 10.000463, 9.998729 
5.150107e+2, 3.1457373e+2, -84704.695, -94462.305, -39021.89, -0.14478838, -0.12873861, -50257.8, -50257.8, 0.0000000053166334, 9.999648, 9.999519 
5.249771e+2, 1.2458771e+2, -1808393.4, -1811980.9, -188094.52, -0.072412975, -0.11956687, -1622084.0, 96943.47, 0.0000005002885, 9.999616, 9.9995 
5.2498186e+2, 1.3458756e+2, -1662578.6, -1641383.6, 166518.45, -0.095727324, -0.14245939, -1485125.8, 135905.53, 0.000000016983103, 9.999667, 10.000009 
5.2498806e+2, 1.4458834e+2, -1566930.1, -1558076.9, 2869.6611, 0.108703375, -0.054489866, -1557228.0, -34204.01, 0.0, 9.999736, 9.999857 
5.24987e+2, 1.5458782e+2, -1470259.5, -1457836.8, -45656.047, -0.06814278, -0.09888922, -1417971.5, 7056.2754, 0.0, 9.999718, 9.999879 
5.249874e+2, 1.6458723e+2, -1390321.5, -1426905.5, -32692.541, -0.10221924, -0.1188787, -1371151.5, -44118.363, 0.0, 9.999844, 9.999359 
5.249895e+2, 1.7458656e+2, -1242506.6, -1305247.0, -25496.813, 0.0012437764, -0.12534365, -1233451.9, -4411.322, 0.0, 10.000187, 9.999356 
5.2499086e+2, 1.8458587e+2, -1092599.1, -1170661.5, -32376.676, 0.03805627, -0.13225034, -1080918.6, 50128.86, 0.0, 10.000493, 9.999459 
5.2499145e+2, 1.9458523e+2, -957728.56, -1051980.5, -46940.72, 0.005071459, -0.14868219, -938339.25, 94713.945, 0.0, 10.000735, 9.999484 
5.249927e+2, 2.0458467e+2, -887521.25, -1006855.9, -28695.232, 0.0065487484, -0.13568759, -880979.8, 54078.8, 0.0, 10.000714, 9.99913 
5.249946e+2, 2.1458422e+2, -836335.9, -930508.75, -24661.438, 0.0451857, -0.09806242, -830268.6, 6794.6274, 0.0, 10.00039, 9.999138 
5.249959e+2, 2.2458324e+2, -789281.1, -907503.7, -24675.99, 0.034016907, -0.08691239, -784337.4, -45263.594, 0.0, 10.000256, 9.998689 
5.2499646e+2, 2.3458162e+2, -677501.25, -801895.2, -5791.2354, -0.03357441, -0.121096835, -677232.2, -36140.863, 0.0, 10.000347, 9.998695 
5.2499783e+2, 2.4458049e+2, -547645.5, -635591.3, 15999.002, -0.048582308, -0.125043, -544825.4, -1722.5713, 0.0, 10.000338, 9.99917 
5.250001e+2, 2.5458e+2, -466445.22, -540654.6, -5306.8833, -0.0023220624, -0.10088663, -466067.63, -20961.059, 0.0, 10.0002, 9.999214 
5.250016e+2, 2.645792e+2, -414674.56, -532979.8, -19109.236, -0.026028002, -0.07241643, -411664.53, -64550.336, 0.0, 10.000177, 9.998606 
5.2500206e+2, 2.7457792e+2, -302842.28, -428852.78, -5391.7197, -0.12936898, -0.061384622, -302612.0, -53484.676, 0.0, 10.000276, 9.9986 
5.2500397e+2, 2.8457618e+2, -226595.81, -361593.22, 18464.555, -0.12589745, -0.0869589, -224115.84, -72970.625, 0.0, 10.000212, 9.998421 
5.250073e+2, 2.945742e+2, -162722.45, -274285.2, 15244.493, -0.0032493146, -0.13305005, -160676.88, -107511.73, 0.0, 9.999952, 9.998472 
5.25009e+2, 3.045741e+2, -101580.14, -187103.42, 20315.352, -0.07542937, -0.0035683385, -96999.71, -96999.71, 0.0, 9.999899, 9.998763 
5.250105e+2, 3.1457147e+2, 11733.153, 12116.745, -24698.51, -0.14978725, -0.14154261, 36624.203, 36624.203, 0.00000000056215, 10.000051, 10.000058 
5.3497684e+2, 1.24585934e+2, -1800854.4, -1800623.4, -190539.48, -0.06256377, -0.14970225, -1610199.4, 108843.92, 0.00000041209, 9.999633, 9.999571 
5.349811e+2, 1.34586e+2, -1660498.8, -1638998.4, 168872.94, -0.14142938, -0.14868401, -1480533.8, 140510.55, 0.000000018082496, 9.999673, 10.000024 
5.3498775e+2, 1.4458676e+2, -1584779.9, -1594121.4, 1470.5416, 0.102093436, -0.053977463, -1584553.9, -61515.715, 0.0, 9.999732, 9.999612 
5.349875e+2, 1.5458585e+2, -1488455.6, -1495774.6, -46082.406, 0.00701297, -0.11233794, -1445887.6, -20840.178, 0.0, 9.99972, 9.999617 
5.349881e+2, 1.6458529e+2, -1379305.8, -1405661.3, -21949.299, -0.020631326, -0.12176733, -1366882.3, -39829.008, 0.0, 9.999849, 9.999502 
5.3498983e+2, 1.7458522e+2, -1230740.9, -1281059.8, -11842.772, 0.011355482, -0.08571285, -1228093.0, 961.4745, 0.0, 10.000187, 9.999522 
5.349911e+2, 1.8458468e+2, -1116866.1, -1220289.4, -23742.86, 0.008798849, -0.07105409, -1111675.9, 19384.17, 0.0, 10.000489, 9.99912 
5.3499186e+2, 1.9458364e+2, -983184.56, -1104996.1, -37435.313, -0.02787676, -0.09092583, -972599.7, 60471.055, 0.0, 10.000734, 9.999121 
5.3499305e+2, 2.045827e+2, -882261.2, -994749.3, -40859.863, -0.031330127, -0.09900885, -868986.0, 66093.85, 0.0, 10.000709, 9.999216 
5.349946e+2, 2.1458194e+2, -830087.75, -915869.25, -36246.613, 0.0031682572, -0.10392518, -816823.06, 20263.836, 0.0, 10.000382, 9.999242 
5.349962e+2, 2.2458124e+2, -754232.75, -832873.1, -22934.404, 0.035169303, -0.0950273, -748033.0, -8939.3545, 0.0, 10.000248, 9.999205 
5.349979e+2, 2.345806e+2, -640494.25, -724757.7, -1642.3162, 0.06580383, -0.0844373, -640462.25, 637.8584, 0.0, 10.000345, 9.999228 
5.34999e+2, 2.445795e+2, -585966.44, -713782.9, 10792.028, 0.033732295, -0.08745948, -585061.6, -41950.22, 0.0, 10.000332, 9.998636 
5.3499955e+2, 2.5457793e+2, -507816.53, -625948.7, -9573.203, -0.07396939, -0.11100953, -507045.75, -61918.145, 0.0, 10.000197, 9.998631 
5.3500104e+2, 2.6457697e+2, -392465.2, -485628.84, -16256.931, -0.09927696, -0.085299976, -389709.88, -42572.234, 0.0, 10.000172, 9.998933 
5.350034e+2, 2.7457657e+2, -277930.9, -375453.75, -890.65344, -0.023987228, -0.02500059, -277922.78, -28781.44, 0.0, 10.000268, 9.99897 
5.350054e+2, 2.8457496e+2, -239804.06, -386640.94, 8562.717, -0.004977746, -0.046555102, -239306.42, -88148.94, 0.0, 10.000201, 9.998254 
5.350067e+2, 2.9457226e+2, -178146.44, -305368.97, 7092.336, -0.060140517, -0.14395462, -177752.28, -124567.234, 0.0, 9.999948, 9.998261 
5.3500825e+2, 3.0457166e+2, -92728.1, -166434.17, 25389.363, -0.14126982, -0.061081033, -84828.87, -84828.87, 0.0, 9.99989, 9.998908 
5.3501123e+2, 3.145699e+2, 52565.4, 100771.11, -20218.816, -0.08744676, -0.13499707, 108128.516, 108128.516, 0.0000000000003731001, 10.000034, 10.000674 
5.4497665e+2, 1.2458409e+2, -1762580.9, -1768888.1, -206784.9, -0.062272117, -0.15603146, -1558925.5, 160134.9, 0.00000036785775, 9.999842, 9.999686 
5.4498047e+2, 1.34584e+2, -1600375.0, -1603914.5, 154473.78, -0.19164556, -0.1776002, -1447660.9, 173401.45, 0.000000024396927, 10.00006, 10.000077 
5.4498744e+2, 1.4458464e+2, -1534862.3, -1586400.4, -10978.332, 0.07707751, -0.089015745, -1532621.1, -9563.998, 0.0, 10.000146, 9.999464 
5.449875e+2, 1.5458378e+2, -1442537.8, -1491790.0, -55441.523, 0.018630264, -0.1262648, -1406499.3, 18567.88, 0.0, 10.000112, 9.999456 
5.449883e+2, 1.6458325e+2, -1330657.9, -1379352.5, -20544.377, -0.0032294143, -0.12610309, -1323148.3, 3924.7964, 0.0, 10.000173, 9.999526 
5.4499e+2, 1.7458317e+2, -1209678.9, -1266561.8, -21014.807, 0.0027580466, -0.09382577, -1202757.4, 26316.441, 0.0, 10.000316, 9.9995575 
5.449914e+2, 1.845827e+2, -1141678.0, -1232614.0, -31316.068, -0.0017769628, -0.07322238, -1131937.0, -858.3094, 0.0, 10.000321, 9.999116 
5.449925e+2, 1.9458184e+2, -1063555.6, -1144116.8, -19968.06, -0.014298054, -0.075682335, -1058877.9, -25789.818, 0.0, 10.000185, 9.999116 
5.449937e+2, 2.0458087e+2, -959239.9, -1026286.5, -15484.589, -0.008512133, -0.088756055, -955836.44, -20738.951, 0.0, 10.000155, 9.999267 
5.4499507e+2, 2.1457984e+2, -846025.44, -917645.7, -15839.776, 0.017327888, -0.12561683, -842678.6, -5571.9834, 0.0, 10.000246, 9.999296 
5.4499656e+2, 2.2457919e+2, -743848.56, -822584.4, -13621.531, 0.045947984, -0.11685418, -741558.56, -2445.7463, 0.0, 10.000297, 9.999251 
5.449983e+2, 2.3457898e+2, -642365.3, -720455.5, -30732.725, 0.0793013, -0.0676007, -631721.2, 9394.254, 0.0, 10.000311, 9.999272 
5.4499936e+2, 2.4457797e+2, -584504.0, -716183.56, -20924.254, 0.04138098, -0.062801145, -581259.0, -38132.863, 0.0, 10.000356, 9.998608 
5.4499984e+2, 2.5457606e+2, -476022.66, -613578.06, -739.54724, -0.08202446, -0.11688118, -476018.66, -30872.926, 0.0, 10.00043, 9.998602 
5.4500127e+2, 2.6457497e+2, -368665.9, -471035.28, 1972.629, -0.098271914, -0.101654224, -368627.9, -21470.936, 0.0, 10.000323, 9.9989605 
5.4500395e+2, 2.7457476e+2, -314679.8, -390394.16, -10313.239, 0.01505157, -0.025843456, -313300.16, -64141.016, 0.0, 10.000004, 9.998995 
5.450058e+2, 2.8457344e+2, -260003.72, -368860.56, 4910.8633, 0.027680468, -0.036076583, -259782.63, -108609.96, 0.0, 9.999945, 9.998499 
5.450065e+2, 2.9457098e+2, -130158.5, -253757.25, 35517.98, -0.08387189, -0.13144496, -120678.92, -67482.4, 0.0, 10.000156, 9.998513 
5.450082e+2, 3.0456993e+2, -75119.54, -184791.16, 58834.426, -0.14553799, -0.09699102, -49528.64, -49528.64, 0.0, 10.000125, 9.998669 
5.450116e+2, 3.145685e+2, 25302.646, 85991.39, -23440.21, -0.042059984, -0.1141121, 93990.52, 93990.52, 0.000000000015387011, 9.999854, 10.000659 
5.5497634e+2, 1.2458214e+2, -1747924.4, -1741369.5, -200974.8, -0.081140734, -0.14033788, -1543645.4, 175433.8, 0.0000003291145, 9.999853, 9.99987 
5.549799e+2, 1.345815e+2, -1590073.3, -1585105.1, 162964.42, -0.25420755, -0.22866765, -1424605.8, 196479.02, 0.000000025104656, 10.00007, 10.000202 
5.549871e+2, 1.44582e+2, -1539207.1, -1597395.1, -13413.872, 0.023759518, -0.15849277, -1536263.8, -13183.114, 0.0, 10.000154, 9.999386 
5.549871e+2, 1.545816e+2, -1447965.6, -1503526.8, -56149.406, -0.03794031, -0.14015721, -1413100.3, 11986.259, 0.0, 10.0001135, 9.999375 
5.549879e+2, 1.6458108e+2, -1336785.6, -1392220.5, -16470.36, -0.0548881, -0.13141294, -1332261.4, -5168.889, 0.0, 10.000173, 9.999438 
5.5499e+2, 1.745804e+2, -1215938.3, -1279514.3, -15435.669, -0.029872539, -0.1494576, -1212388.8, 16709.959, 0.0, 10.000316, 9.999469 
5.549918e+2, 1.8457994e+2, -1118760.9, -1184834.6, -37035.363, 0.0006368591, -0.13864893, -1102168.6, 28934.611, 0.0, 10.0003195, 9.999445 
5.549932e+2, 1.9457981e+2, -1039678.94, -1093540.5, -24579.35, 0.042312156, -0.10269446, -1030148.6, 2956.6392, 0.0, 10.00018, 9.999466 
5.5499464e+2, 2.0457914e+2, -958414.4, -1022647.25, -13186.954, 0.07091158, -0.10525212, -955812.5, -20700.95, 0.0, 10.000148, 9.999296 
5.5499595e+2, 2.1457791e+2, -846455.0, -916486.5, -11699.087, 0.08301566, -0.16423963, -844552.3, -7429.7266, 0.0, 10.000237, 9.999309 
5.549971e+2, 2.2457708e+2, -774926.9, -885526.94, -13679.527, 0.062059637, -0.15308139, -773260.06, -34128.66, 0.0, 10.00029, 9.998822 
5.5499786e+2, 2.3457676e+2, -674477.1, -786156.1, -29719.504, 0.0027215036, -0.070700265, -667060.75, -25923.268, 0.0, 10.000306, 9.998824 
5.549991e+2, 2.4457589e+2, -551811.44, -646781.9, -18940.975, -0.029607348, -0.052181445, -548173.25, -5025.918, 0.0, 10.000349, 9.999087 
5.550008e+2, 2.5457436e+2, -440021.75, -537423.4, 2635.876, -0.030524885, -0.118777014, -439950.47, 5210.621, 0.0, 10.000424, 9.999127 
5.5500233e+2, 2.6457325e+2, -388447.9, -511324.3, -10209.223, -0.026602963, -0.12148021, -387605.44, -40433.152, 0.0, 10.000319, 9.998686 
5.5500364e+2, 2.7457255e+2, -337831.13, -437551.9, -21289.727, -0.017700767, -0.06556253, -333476.13, -84295.11, 0.0, 9.999998, 9.998674 
5.5500513e+2, 2.845715e+2, -216233.81, -275394.28, 11757.138, -0.03304513, -0.057431735, -213982.92, -62791.895, 0.0, 9.999934, 9.9991455 
5.5500674e+2, 2.9457036e+2, -83189.03, -153613.11, 43685.277, -0.07972543, -0.09559046, -62291.434, -9091.518, 0.0, 10.000146, 9.999207 
5.550088e+2, 3.0456886e+2, -119697.46, -274353.3, 47660.563, -0.09248244, -0.10819495, -106189.62, -106189.62, 0.0, 10.000112, 9.99806 
5.5501163e+2, 3.1456706e+2, -18126.795, -2364.7434, -31841.578, -0.023830108, -0.098139726, 22556.62, 22556.62, 0.0000000020600701, 9.9998455, 10.000056 
5.649754e+2, 1.245798e+2, -1856582.0, -1782114.3, -201106.88, -0.11753481, -0.13861081, -1614823.5, 104278.62, 0.00000027083397, 9.999059, 9.999972 
5.649797e+2, 1.3457921e+2, -1672198.5, -1621027.5, 149167.56, -0.25705242, -0.22812748, -1495267.1, 125839.96, 0.000000017878008, 9.999487, 10.000238 
5.649874e+2, 1.4457962e+2, -1564449.0, -1596379.3, -25548.246, 0.054910794, -0.17308393, -1550287.8, -27184.66, 0.0, 9.999923, 9.999503 
5.6498724e+2, 1.5457925e+2, -1397832.4, -1465405.3, -53527.098, -0.043406874, -0.16286792, -1368320.6, 56786.984, 0.0, 10.000399, 9.999497 
5.64988e+2, 1.6457877e+2, -1292535.4, -1366805.8, -12415.021, -0.07621781, -0.15919544, -1290515.0, 36597.64, 0.0, 10.000463, 9.999471 
5.649901e+2, 1.7457812e+2, -1251858.8, -1294015.9, -5913.928, -0.03670226, -0.17781873, -1251044.8, -21926.105, 0.0, 10.000058, 9.999494 
5.649919e+2, 1.845776e+2, -1174900.5, -1208013.3, -27116.678, 0.001477721, -0.1752971, -1159685.4, -28561.658, 0.0, 9.999918, 9.999479 
5.649933e+2, 1.9457734e+2, -1049783.8, -1094572.0, -39302.773, 0.03867692, -0.15606335, -1026942.9, 6184.084, 0.0, 10.000094, 9.9995 
5.649948e+2, 2.0457676e+2, -936456.5, -1013832.9, -34968.203, 0.06312121, -0.15072455, -922995.4, 12137.191, 0.0, 10.000306, 9.99928 
5.649963e+2, 2.1457587e+2, -799503.94, -895391.8, -37262.727, 0.07281468, -0.17288347, -786726.1, 50414.563, 0.0, 10.0005665, 9.999294 
5.649973e+2, 2.2457504e+2, -741927.1, -881223.1, -38437.832, 0.04830938, -0.15585898, -732024.44, 7125.4727, 0.0, 10.000567, 9.998718 
5.649979e+2, 2.3457433e+2, -688361.25, -804666.06, -30235.313, -0.016371695, -0.1035032, -680970.75, -39810.5, 0.0, 10.000262, 9.998717 
5.649992e+2, 2.4457349e+2, -597036.2, -654324.9, -15168.8545, -0.03432495, -0.081228815, -593267.7, -50097.83, 0.0, 9.999978, 9.999213 
5.6500113e+2, 2.5457254e+2, -531715.75, -567074.8, -24264.7, 0.0031522107, -0.10422854, -519372.94, -74194.664, 0.0, 9.999731, 9.999259 
5.650027e+2, 2.645715e+2, -452724.53, -529554.44, -32022.137, 0.0028664572, -0.11283158, -441128.25, -93939.69, 0.0, 9.999824, 9.998798 
5.650035e+2, 2.7457023e+2, -285887.9, -398695.6, -12233.757, -0.043903448, -0.12164146, -284576.44, -35374.926, 0.0, 10.0002985, 9.998794 
5.65005e+2, 2.8456923e+2, -144490.55, -243953.36, 12369.411, -0.06387607, -0.11217677, -142975.34, 8235.393, 0.0, 10.000441, 9.999117 
5.650072e+2, 2.9456884e+2, -78373.29, -157265.36, -12587.181, -0.050069302, -0.07132836, -76413.69, -23200.594, 0.0, 10.000203, 9.999154 
5.650095e+2, 3.045671e+2, -126920.16, -275130.78, -18627.107, -0.037105575, -0.108024485, -124614.95, -124614.95, 0.0, 10.000049, 9.998087 
5.650115e+2, 3.1456548e+2, -6047.6426, -10906.672, -48508.03, -0.036081515, -0.08168012, 40091.676, 40091.676, 0.000000017271022, 9.999988, 9.999931 
5.749738e+2, 1.2457714e+2, -1855804.5, -1785247.9, -184890.88, -0.18346053, -0.14979486, -1632299.8, 86828.77, 0.00000019303324, 9.999077, 9.999944 
5.7497966e+2, 1.3457713e+2, -1675865.9, -1630568.9, 165172.3, -0.20431317, -0.17311725, -1486499.5, 134629.16, 0.000000007774616, 9.999495, 10.00017 
5.749885e+2, 1.4457752e+2, -1541309.3, -1549274.1, -9414.562, 0.16520226, -0.13045812, -1535069.5, -11945.278, 0.0, 9.999927, 9.9998255 
5.74988e+2, 1.5457676e+2, -1372959.9, -1414510.6, -35076.047, -0.0037585122, -0.19394562, -1352968.4, 72161.72, 0.0, 10.0004015, 9.9998455 
5.7498854e+2, 1.6457634e+2, -1282206.5, -1346435.1, -27189.777, -0.072869994, -0.20960703, -1272242.1, 54891.348, 0.0, 10.000465, 9.999611 
5.749903e+2, 1.745763e+2, -1242504.6, -1275309.3, -20541.13, -0.0210053, -0.17880176, -1232620.5, -3486.8818, 0.0, 10.00006, 9.999621 
5.749917e+2, 1.8457566e+2, -1193728.5, -1246664.3, -22198.576, -0.004796118, -0.18270952, -1185651.9, -54511.855, 0.0, 9.999916, 9.999215 
5.749927e+2, 1.9457439e+2, -1070112.9, -1135569.3, -32323.328, -0.030589119, -0.23637412, -1056841.9, -23688.566, 0.0, 10.00009, 9.999222 
5.7499415e+2, 2.045737e+2, -941840.7, -1023584.2, -26165.969, -0.03603479, -0.22530605, -934182.44, 978.13806, 0.0, 10.000299, 9.999216 
5.7499593e+2, 2.1457373e+2, -804084.75, -903166.3, -26912.447, -0.017516648, -0.14985949, -797246.75, 39914.113, 0.0, 10.00056, 9.999245 
5.749974e+2, 2.2457308e+2, -726779.1, -848340.9, -49842.703, 0.0005382217, -0.1240339, -708955.9, 30212.336, 0.0, 10.000561, 9.998947 
5.7499856e+2, 2.3457164e+2, -672175.75, -769583.44, -41124.496, 0.018321516, -0.16699933, -657135.6, -15951.946, 0.0, 10.000257, 9.998961 
5.7499975e+2, 2.4457076e+2, -613726.1, -688375.0, -25333.123, 0.023209544, -0.15088476, -605940.94, -62747.066, 0.0, 9.999974, 9.998981 
5.7500106e+2, 2.5457057e+2, -550906.94, -605392.8, -32878.215, 0.013467989, -0.07324505, -535451.44, -90254.16, 0.0, 9.999724, 9.998999 
5.750023e+2, 2.6456967e+2, -419594.94, -459126.78, -15771.867, -0.014118283, -0.075335704, -414073.63, -66867.86, 0.0, 9.999816, 9.999286 
5.750036e+2, 2.7456787e+2, -248947.95, -320359.63, 6021.2065, -0.06696875, -0.19226831, -248443.81, 776.80475, 0.0, 10.000292, 9.999335 
5.750054e+2, 2.8456667e+2, -193810.19, -344845.56, 3350.7966, -0.06851844, -0.19820717, -193735.88, -42504.098, 0.0, 10.000433, 9.998428 
5.7500786e+2, 2.945665e+2, -133180.98, -269572.78, -20308.389, -0.004544118, -0.062573634, -130221.336, -76984.95, 0.0, 10.0001955, 9.998387 
5.7501e+2, 3.0456463e+2, -84887.84, -185513.13, -22072.574, 0.013722789, -0.10091727, -80259.055, -80259.055, 0.00000000021282408, 10.000039, 9.998707 
5.75011e+2, 3.1456372e+2, 16710.629, 40650.344, -45643.26, -0.084222764, -0.07312696, 75867.19, 75867.19, 0.0000000699572, 9.99997, 10.000293 
5.84974e+2, 1.24574766e+2, -1667226.6, -1716388.4, -148013.39, -0.1425641, -0.1649404, -1541766.9, 177383.39, 0.00000011738098, 10.00047, 9.999742 
5.8497924e+2, 1.3457471e+2, -1595028.3, -1619967.0, 179414.48, -0.22693637, -0.16729885, -1427650.4, 193501.17, 0.0000000014227642, 10.000175, 9.999912 
5.849882e+2, 1.4457496e+2, -1543771.8, -1535706.8, -5826.6157, 0.14475848, -0.1311661, -1532653.4, -9504.871, 0.0, 9.999848, 9.999955 
5.849881e+2, 1.5457429e+2, -1483083.8, -1451502.4, -48806.59, 0.0010737041, -0.20128484, -1415995.6, 9157.572, 0.0, 9.9995775, 9.9999895 
5.8498865e+2, 1.6457392e+2, -1409939.4, -1403369.1, -56805.957, -0.061823703, -0.21891798, -1349753.4, -22597.646, 0.0, 9.999568, 9.999652 
5.849903e+2, 1.7457396e+2, -1265822.1, -1282545.4, -58492.766, -0.019790841, -0.18533804, -1215096.4, 14059.196, 0.0, 9.999883, 9.999658 
5.8499163e+2, 1.8457338e+2, -1158750.5, -1228692.8, -44146.023, -0.013110642, -0.18563539, -1137402.5, -6241.028, 0.0, 10.000153, 9.999224 
5.8499277e+2, 1.9457215e+2, -1029893.5, -1114889.1, -33345.82, -0.05122707, -0.23532619, -1018372.7, 14801.373, 0.0, 10.000361, 9.999231 
5.8499414e+2, 2.0457146e+2, -944838.8, -1027521.4, -22206.979, -0.061466742, -0.2251364, -939251.94, -4070.343, 0.0, 10.000291, 9.999192 
5.84996e+2, 2.145714e+2, -901838.75, -953119.06, -22699.297, -0.03816558, -0.15605162, -893234.56, -56051.582, 0.0, 9.999901, 9.999218 
5.8499753e+2, 2.245707e+2, -825040.3, -878572.6, -44406.914, -0.0061065704, -0.13975736, -799956.7, -60766.28, 0.0, 9.999812, 9.999101 
5.849989e+2, 2.345693e+2, -685831.44, -758611.5, -43215.707, 0.03604605, -0.1964524, -665725.2, -24520.363, 0.0, 10.000086, 9.99912 
5.85e+2, 2.4456838e+2, -576366.06, -683509.2, -27598.457, 0.035119317, -0.18654549, -569675.0, -26460.012, 0.0, 10.000287, 9.998865 
5.850008e+2, 2.5456807e+2, -463057.3, -576610.3, -26793.084, -0.017452257, -0.10690261, -457052.94, -11833.148, 0.0, 10.000386, 9.998878 
5.8500206e+2, 2.6456726e+2, -353590.3, -425330.16, -14866.29, -0.04665973, -0.095523976, -350631.66, -3403.8308, 0.0, 10.000262, 9.999302 
5.8500385e+2, 2.7456576e+2, -305044.4, -345803.22, -32299.182, -0.050312344, -0.18226255, -287232.75, -37992.734, 0.0, 9.999899, 9.9993515 
5.850058e+2, 2.845646e+2, -286667.66, -386827.13, -32951.066, -0.037947025, -0.19070467, -276799.47, -125548.31, 0.0, 9.999783, 9.998454 
5.850079e+2, 2.9456398e+2, -172499.77, -285923.63, -1707.3772, -0.0022348117, -0.10102349, -172474.06, -119214.78, 0.0, 9.999915, 9.998409 
5.850101e+2, 3.045619e+2, -67296.75, -151284.89, 20407.965, 0.020787317, -0.16959602, -62600.484, -62600.484, 0.000000006848287, 10.000051, 9.998934 
5.850112e+2, 3.1456152e+2, 49082.27, 40487.332, -33739.566, -0.07372684, -0.11142497, 78796.95, 78796.95, 0.00000018333391, 10.000261, 10.000152 
5.949759e+2, 1.2457276e+2, -1689795.1, -1769942.6, -152929.56, -0.0031733708, -0.1801023, -1571776.0, 147390.6, 0.000000058921596, 10.000496, 9.999364 
5.9497845e+2, 1.3457195e+2, -1624823.9, -1683502.1, 167393.78, -0.33034638, -0.21277285, -1484217.6, 136957.8, 0.000000000010343272, 10.000181, 9.999474 
5.9498644e+2, 1.4457195e+2, -1549287.0, -1547407.5, -17507.383, -0.012254538, -0.17692365, -1530814.6, -7638.7734, 0.0, 9.999848, 9.999876 
5.949874e+2, 1.5457183e+2, -1487443.0, -1461107.3, -57998.348, -0.03303754, -0.18421748, -1414800.8, 10375.88, 0.0, 9.999579, 9.999924 
5.949884e+2, 1.6457157e+2, -1414663.5, -1413332.8, -46728.816, -0.048859898, -0.18644568, -1367264.5, -40085.176, 0.0, 9.999568, 9.999583 
5.9499e+2, 1.7457108e+2, -1269498.9, -1291127.3, -46074.203, -0.038139854, -0.19764051, -1232986.8, -3802.324, 0.0, 9.999886, 9.999597 
5.949917e+2, 1.8457076e+2, -1138768.8, -1187247.6, -36803.82, -0.028798094, -0.18433364, -1118939.3, 12248.726, 0.0, 10.000153, 9.999509 
5.9499335e+2, 1.9457065e+2, -1008794.8, -1071098.9, -25166.973, -0.027010884, -0.15152277, -999899.06, 33290.22, 0.0, 10.0003605, 9.999533 
5.949949e+2, 2.0457004e+2, -944865.75, -1025776.4, -36902.63, -0.016823594, -0.14944005, -930563.06, 4632.3945, 0.0, 10.000283, 9.999208 
5.9499633e+2, 2.1456885e+2, -903137.2, -953390.4, -36754.86, 0.0065084426, -0.19283873, -883741.1, -46534.023, 0.0, 9.999891, 9.999221 
5.949977e+2, 2.2456792e+2, -821083.56, -868836.6, -36173.527, 0.02379833, -0.20420709, -801617.1, -62400.563, 0.0, 9.9998045, 9.999171 
5.9499896e+2, 2.3456728e+2, -681478.4, -748369.6, -32240.084, 0.032373697, -0.190669, -668469.4, -27245.906, 0.0, 10.00008, 9.999192 
5.9499985e+2, 2.4456635e+2, -577572.94, -684254.94, -24124.174, -0.0034368373, -0.18673405, -572371.3, -29138.197, 0.0, 10.000279, 9.998863 
5.9500045e+2, 2.545651e+2, -463220.2, -575617.56, -22580.451, -0.09286758, -0.2043108, -458853.47, -13607.889, 0.0, 10.000381, 9.998886 
5.950018e+2, 2.6456425e+2, -385820.2, -491741.72, -28803.889, -0.097615704, -0.1725218, -378494.1, -31239.395, 0.0, 10.000258, 9.998848 
5.9500426e+2, 2.7456394e+2, -340271.44, -417623.84, -44716.8, -0.0021976402, -0.0948792, -319825.38, -70565.47, 0.0, 9.999891, 9.998861 
5.9500617e+2, 2.8456295e+2, -238706.61, -284302.75, -29389.523, 0.019724948, -0.09229538, -224309.31, -73040.27, 0.0, 9.99977, 9.999165 
5.9500736e+2, 2.945613e+2, -119451.125, -172305.27, 2826.3833, -0.044983625, -0.18149693, -119300.414, -66019.0, 0.0, 9.999901, 9.999196 
5.950098e+2, 3.04559e+2, -79543.516, -173837.73, 26781.805, -0.016578622, -0.3088037, -72467.8, -72467.8, 0.000000033052434, 10.000037, 9.998787 
5.95012e+2, 3.1455898e+2, 7330.6943, -43727.848, -16555.992, -0.018578516, -0.19314687, 12229.117, 12229.117, 0.00000037488923, 10.00025, 9.999578 
6.049764e+2, 1.2457033e+2, -1700687.1, -1763596.5, -189488.4, 0.007268233, -0.18577002, -1540060.4, 179128.89, 0.000000021349177, 10.000375, 9.999465 
6.0497856e+2, 1.3456921e+2, -1618644.0, -1674173.0, 153634.36, -0.33344632, -0.25578606, -1490285.5, 130914.29, 0.0, 10.000199, 9.999528 
6.049863e+2, 1.4456902e+2, -1535626.6, -1553746.8, -8487.087, -0.0111453645, -0.23381346, -1532272.4, -9070.338, 0.0, 10.000001, 9.999757 
6.049869e+2, 1.5456933e+2, -1443410.1, -1453249.5, -54058.055, -0.05305014, -0.1893899, -1394048.4, 31152.203, 0.0, 9.999942, 9.999801 
6.049878e+2, 1.6456917e+2, -1356516.1, -1371266.9, -25471.432, -0.07971269, -0.17892514, -1337373.8, -10171.24, 0.0, 9.999907, 9.99971 
6.0498965e+2, 1.745685e+2, -1263003.9, -1272289.1, -10791.523, -0.0650068, -0.22195533, -1255898.8, -26690.145, 0.0, 9.999864, 9.999737 
6.049915e+2, 1.8456827e+2, -1192788.4, -1196080.5, -3150.0024, -0.039330103, -0.21274714, -1190880.4, -59669.723, 0.0, 9.999708, 9.999662 
6.0499346e+2, 1.945686e+2, -1131841.1, -1113487.0, -4386.298, -0.008873009, -0.15154669, -1112492.6, -79285.0, 0.0, 9.999444, 9.999683 
6.049951e+2, 2.0456809e+2, -1053722.5, -1069830.8, -17188.951, 0.009234506, -0.15156668, -1042794.3, -107581.49, 0.0, 9.999499, 9.999284 
6.0499626e+2, 2.1456659e+2, -895042.6, -942227.0, -13050.3545, 0.016167386, -0.23330732, -891673.6, -54446.293, 0.0, 9.999914, 9.999288 
6.049976e+2, 2.2456571e+2, -777565.4, -857722.1, -9035.888, 0.014869745, -0.23705861, -776559.44, -37322.887, 0.0, 10.000147, 9.999083 
6.0499877e+2, 2.345656e+2, -675695.25, -756159.3, -19542.863, 0.0011603617, -0.16206713, -671199.9, -29960.387, 0.0, 10.000167, 9.999097 
6.0499984e+2, 2.4456467e+2, -595714.1, -680372.0, -19003.578, -0.031907246, -0.15813437, -591644.0, -48395.22, 0.0, 10.000101, 9.998976 
6.050006e+2, 2.5456282e+2, -519658.22, -590399.1, -10622.92, -0.08782194, -0.24605134, -518097.44, -72832.516, 0.0, 9.999939, 9.999 
6.0500216e+2, 2.6456177e+2, -447439.16, -554280.9, -6945.7363, -0.079073615, -0.22924174, -446989.5, -99713.375, 0.0, 9.999974, 9.998558 
6.050044e+2, 2.745616e+2, -314660.66, -439686.44, -12049.637, 0.0046585784, -0.103085436, -313509.94, -64228.22, 0.0, 10.000215, 9.998555 
6.050061e+2, 2.845607e+2, -167355.33, -230075.05, -7599.2563, 0.017482515, -0.0870872, -166447.72, -15156.921, 0.0, 10.0001745, 9.999342 
6.0500723e+2, 2.94559e+2, -114888.07, -148999.14, -20037.36, -0.051887717, -0.20216013, -105630.35, -52327.918, 0.00000000003092486, 9.99984, 9.999387 
6.0500985e+2, 3.0455706e+2, -99806.95, -164650.67, 6726.496, -0.0049795965, -0.31112894, -99116.54, -99116.54, 0.00000008707832, 9.999817, 9.998957 
6.0501254e+2, 3.1455696e+2, -17014.215, -68355.81, -6351.6084, 0.013069103, -0.22299479, -16240.112, -16240.112, 0.0000006525611, 10.000139, 9.999463 
6.1497563e+2, 1.2456754e+2, -1660124.9, -1681155.4, -188997.69, -0.11546445, -0.17895305, -1481350.1, 237867.7, 0.0000000039655865, 10.0003805, 10.000029 
6.1497974e+2, 1.345665e+2, -1580760.5, -1595922.3, 146051.48, -0.24040385, -0.29382047, -1442093.3, 179131.05, 0.0, 10.000201, 10.000064 
6.149879e+2, 1.4456622e+2, -1546509.4, -1578125.5, -13334.838, 0.14133549, -0.30017033, -1541636.3, -18409.752, 0.0, 10.000007, 9.999587 
6.149868e+2, 1.5456669e+2, -1456024.3, -1481400.4, -55333.32, -0.06341391, -0.21781373, -1411943.0, 13281.94, 0.0, 9.9999485, 9.999605 
6.1498696e+2, 1.6456671e+2, -1333291.8, -1323798.0, -27828.3, -0.16036579, -0.19652584, -1300314.6, 26910.758, 0.0, 9.999909, 10.000034 
6.149891e+2, 1.7456621e+2, -1238211.8, -1221668.0, -12135.305, -0.104071684, -0.2585238, -1215253.5, 13974.378, 0.0, 9.9998665, 10.000083 
6.1499107e+2, 1.8456593e+2, -1192421.4, -1194823.3, -13965.667, -0.049368065, -0.27166092, -1179605.1, -48375.793, 0.0, 9.999705, 9.999672 
6.14993e+2, 1.9456601e+2, -1132213.1, -1113947.4, -13631.964, -0.001168906, -0.23691754, -1106671.8, -73442.39, 0.0, 9.999442, 9.999681 
6.149946e+2, 2.0456558e+2, -1045516.06, -1050799.4, -3482.5752, 0.012106391, -0.23282562, -1043786.6, -108552.78, 0.0, 9.999491, 9.999418 
6.149959e+2, 2.1456462e+2, -885567.94, -921181.7, 3018.7507, -0.013697691, -0.27597788, -885313.9, -48070.383, 0.0, 9.999908, 9.999434 
6.149972e+2, 2.2456415e+2, -797123.0, -896293.3, -8556.619, -0.0378236, -0.23650822, -796390.1, -57140.074, 0.0, 10.000137, 9.998822 
6.149983e+2, 2.3456426e+2, -695184.94, -795496.56, -18163.736, -0.060904082, -0.11160022, -691997.25, -50744.355, 0.0, 10.000162, 9.998829 
6.149997e+2, 2.4456334e+2, -581340.06, -649563.44, -25764.082, -0.053275518, -0.10111163, -572703.7, -29441.715, 0.0, 10.000096, 9.999189 
6.150013e+2, 2.545613e+2, -504666.8, -557902.1, -15778.275, -0.008035248, -0.2333015, -500341.72, -55063.81, 0.0, 9.999932, 9.999226 
6.1500293e+2, 2.6455978e+2, -458183.94, -574859.75, 1175.567, 0.0022893723, -0.26691642, -458172.1, -110879.87, 0.0, 9.999967, 9.998421 
6.150042e+2, 2.7455887e+2, -325150.78, -459743.5, -2625.1768, -0.032166373, -0.20361294, -325099.6, -75794.484, 0.0, 10.000207, 9.998421 
6.150057e+2, 2.8455785e+2, -192198.1, -280334.25, -20189.754, -0.046528287, -0.17133938, -187793.28, -36477.22, 0.0, 10.000168, 9.999001 
6.150073e+2, 2.94557e+2, -141818.0, -203391.05, -31044.232, -0.032136817, -0.16607076, -128883.195, -75560.7, 0.0000000010306047, 9.999832, 9.999018 
6.150102e+2, 3.04556e+2, -70657.63, -100962.24, 17133.123, 0.04560616, -0.18314056, -62937.77, -62937.77, 0.00000016756015, 9.999804, 9.9994 
6.150127e+2, 3.1455547e+2, 1350.2733, -23188.588, 14459.637, 0.012496787, -0.18353225, 8044.492, 8044.492, 0.000001002472, 10.000111, 9.999786 
6.249761e+2, 1.24565154e+2, -1613398.9, -1634505.9, -145148.52, -0.11744596, -0.19779612, -1478420.8, 240820.52, 0.00000000008306351, 10.000593, 10.000247 
6.249799e+2, 1.3456477e+2, -1649435.0, -1605954.5, 148565.78, -0.21053368, -0.26840222, -1477546.8, 143693.86, 0.0, 9.99963, 10.000269 
6.2498796e+2, 1.4456446e+2, -1643737.8, -1613927.6, 17846.248, 0.18238491, -0.2925892, -1605580.8, -82338.56, 0.0, 9.99929, 9.999687 
6.2498665e+2, 1.5456456e+2, -1466219.5, -1475250.5, -933.4875, -0.060874395, -0.25944903, -1466124.0, -40880.41, 0.0, 9.99983, 9.999704 
6.249868e+2, 1.6456455e+2, -1321408.5, -1316940.5, 13769.6875, -0.16904058, -0.24576177, -1305224.8, 22019.227, 0.0, 9.999988, 10.000044 
6.249891e+2, 1.7456445e+2, -1259751.8, -1231245.9, 1303.5758, -0.087029, -0.26663527, -1231186.5, -1943.5138, 0.0, 9.999717, 10.000089 
6.2499094e+2, 1.8456419e+2, -1194599.6, -1198130.8, -8129.356, -0.036288127, -0.27896485, -1188046.4, -56801.867, 0.0, 9.999699, 9.999654 
6.249924e+2, 1.9456376e+2, -1058749.0, -1081288.8, -10374.269, -0.03121252, -0.29178095, -1054701.0, -21452.14, 0.0, 9.999956, 9.999659 
6.249939e+2, 2.0456332e+2, -970741.1, -1020346.6, -1014.7615, -0.028854186, -0.28630728, -970720.4, -35466.57, 0.0, 10.000028, 9.99937 
6.2499565e+2, 2.145629e+2, -891607.6, -929524.0, -10472.371, -0.028195232, -0.27079847, -888907.44, -51648.39, 0.0, 9.999891, 9.999386 
6.249972e+2, 2.2456247e+2, -831312.06, -908582.94, -19851.188, -0.038649246, -0.22462219, -826510.56, -87245.42, 0.0, 9.999886, 9.998858 
6.2499833e+2, 2.3456207e+2, -712485.3, -800163.0, -7543.958, -0.0637033, -0.15335295, -711841.0, -70568.98, 0.0, 10.000026, 9.998863 
6.249998e+2, 2.4456114e+2, -580749.2, -658960.94, -17150.791, -0.05124996, -0.14304464, -577153.56, -33872.04, 0.0, 10.000141, 9.999104 
6.250016e+2, 2.545596e+2, -469212.3, -550752.8, -33716.805, 0.0059330664, -0.2145294, -457076.66, -11782.855, 0.0, 10.000219, 9.999135 
6.250031e+2, 2.6455814e+2, -426355.78, -545987.8, -17450.736, 0.021783724, -0.24669833, -423862.22, -76554.67, 0.0, 10.000128, 9.99854 
6.250044e+2, 2.7455664e+2, -367998.34, -466050.5, -1632.1188, -0.014294081, -0.2512977, -367971.2, -118647.78, 0.0, 9.99985, 9.998549 
6.250058e+2, 2.845554e+2, -254962.8, -345558.63, -5054.4395, -0.032815564, -0.23538634, -254681.67, -103345.1, 0.0, 9.999887, 9.998688 
6.250074e+2, 2.9455468e+2, -100185.1, -221302.0, -16611.934, -0.02558983, -0.18466528, -97947.99, -44603.67, 0.000000004235602, 10.000281, 9.998678 
6.2501025e+2, 3.0455413e+2, -12708.491, -78283.78, 11653.302, 0.051301025, -0.13575847, -10699.166, -10699.166, 0.000000262113, 10.000224, 9.999353 
6.250126e+2, 3.1455302e+2, -63646.24, -53327.25, -24207.844, 0.01505846, -0.19458085, -33735.176, -33735.176, 0.0000013873902, 9.999658, 9.999798 
6.349778e+2, 1.24563225e+2, -1619449.8, -1650545.5, -170984.73, -0.0041026464, -0.24317576, -1463307.4, 255951.89, 0.0, 10.000605, 10.000133 
6.349792e+2, 1.3456404e+2, -1658141.1, -1624652.6, 110701.21, -0.24874239, -0.18055755, -1529436.5, 91812.09, 0.0, 9.999632, 10.00014 
6.349865e+2, 1.4456378e+2, -1617603.3, -1560211.4, 32872.65, 0.10587061, -0.21100494, -1545271.8, -22022.53, 0.0, 9.999293, 10.000054 
6.3498664e+2, 1.5456289e+2, -1438452.6, -1418281.9, 19806.033, -0.04995179, -0.31440803, -1406141.4, 19115.22, 0.0, 9.999832, 10.000095 
6.3498735e+2, 1.6456269e+2, -1342853.6, -1361915.6, 3550.2454, -0.11170891, -0.3270837, -1342213.9, -14955.429, 0.0, 9.999989, 9.999734 
6.3498944e+2, 1.7456326e+2, -1282999.0, -1280853.4, -8319.046, -0.018119864, -0.24645425, -1273538.3, -44284.586, 0.0, 9.999722, 9.999747 
6.34991e+2, 1.8456304e+2, -1198803.0, -1206260.8, -115.04462, -0.005744544, -0.2346697, -1198801.3, -67545.21, 0.0, 9.999697, 9.999598 
6.3499165e+2, 1.9456188e+2, -1061489.0, -1086868.8, -454.9576, -0.10325526, -0.3147045, -1061480.9, -28214.578, 0.0, 9.999956, 9.99962 
6.34993e+2, 2.0456131e+2, -988280.5, -1055823.9, -6797.34, -0.11918442, -0.31097654, -987603.25, -52330.645, 0.0, 10.000023, 9.999128 
6.349955e+2, 2.1456139e+2, -909316.0, -965719.56, -14980.591, -0.031770606, -0.21982951, -905584.1, -68309.914, 0.0, 9.999887, 9.999139 
6.3499755e+2, 2.2456068e+2, -809925.4, -862062.06, -15845.557, 0.0076645985, -0.20389907, -805487.4, -66205.445, 0.0, 9.999877, 9.999183 
6.349989e+2, 2.345591e+2, -688828.94, -749654.9, -1409.844, -0.011596384, -0.2875362, -688796.25, -47499.605, 0.0, 10.00002, 9.999212 
6.3500017e+2, 2.445581e+2, -609431.44, -717062.06, -14837.459, -0.03131871, -0.28370714, -607423.5, -64116.336, 0.0, 10.000134, 9.998709 
6.3500124e+2, 2.545578e+2, -499038.16, -611650.6, -30265.441, -0.04974724, -0.18767062, -491419.53, -46107.215, 0.0, 10.000215, 9.99872 
6.350028e+2, 2.6455683e+2, -400110.8, -491194.84, -27933.84, -0.023998082, -0.16644031, -392226.5, -44904.605, 0.0, 10.000125, 9.998919 
6.3500494e+2, 2.74555e+2, -340540.47, -407514.56, -10909.17, 0.05213822, -0.24856216, -338808.3, -89471.52, 0.0, 9.999843, 9.998956 
6.3500655e+2, 2.8455332e+2, -276728.34, -388493.72, 8441.688, 0.051360562, -0.28307572, -276094.3, -124741.7, 0.0, 9.999878, 9.998397 
6.3500756e+2, 2.9455203e+2, -124827.65, -268644.0, -991.69336, -0.03520822, -0.2540965, -124820.81, -71453.234, 0.000000008608103, 10.000266, 9.998361 
6.3501006e+2, 3.0455148e+2, -50951.65, -155456.19, -8615.863, 0.00980859, -0.16357954, -50246.08, -50246.08, 0.00000035003856, 10.000214, 9.99883 
6.350122e+2, 3.145497e+2, -86713.305, -98413.99, -36049.926, 0.009506389, -0.23633674, -56042.098, -56042.098, 0.0000017531552, 9.999645, 9.999495 
6.4497894e+2, 1.2456198e+2, -1716296.6, -1719472.3, -138974.94, 0.072262146, -0.2553625, -1578900.5, 140369.13, 0.0, 10.000034, 9.999935 
6.4497906e+2, 1.3456264e+2, -1555713.8, -1599112.6, 118536.17, -0.26297367, -0.18713802, -1456907.3, 164354.61, 0.0, 10.000442, 9.999924 
6.4498585e+2, 1.4456226e+2, -1474504.3, -1477118.6, 36575.145, 0.06653193, -0.2248227, -1439212.9, 84050.945, 0.0, 10.000215, 10.000181 
6.4498633e+2, 1.5456164e+2, -1486905.1, -1425351.6, 4140.3823, -0.04021282, -0.31460834, -1425074.4, 193.18484, 0.0, 9.999431, 10.000239 
6.449872e+2, 1.6456147e+2, -1452313.5, -1423580.6, -2242.1665, -0.08696549, -0.3276592, -1423406.8, -96137.98, 0.0, 9.999275, 9.999656 
6.4498925e+2, 1.7456178e+2, -1272629.1, -1286036.6, 3450.318, -0.015713744, -0.26391906, -1271793.3, -42526.26, 0.0, 9.999835, 9.999657 
6.4499086e+2, 1.8456149e+2, -1146545.5, -1192010.0, 19621.307, -0.008724842, -0.24824737, -1139248.6, -7978.2964, 0.0, 10.000103, 9.9995 
6.449917e+2, 1.9456054e+2, -1055671.8, -1094221.0, 13671.335, -0.09458305, -0.29873514, -1051315.5, -18036.309, 0.0, 10.000042, 9.999527 
6.449932e+2, 2.0455995e+2, -988487.4, -1056101.9, 9380.232, -0.111182585, -0.29198653, -987210.2, -51924.41, 0.0, 10.000024, 9.9991255 
6.4499545e+2, 2.1455972e+2, -886346.8, -955261.3, 17710.342, -0.039162327, -0.23004562, -882061.9, -44772.434, 0.0, 10.000048, 9.999134 
6.449974e+2, 2.2455887e+2, -775922.2, -832475.1, 24848.396, 0.0043731728, -0.23678133, -766555.56, -27257.637, 0.0, 10.0000515, 9.999302 
6.4499915e+2, 2.3455726e+2, -678252.56, -730180.0, 20735.254, 0.01096303, -0.3356138, -670988.8, -29676.914, 0.0, 10.000031, 9.99934 
6.450006e+2, 2.4455622e+2, -628806.4, -757016.06, 7962.7544, -0.0056098416, -0.32795155, -628313.75, -84990.76, 0.0, 10.000134, 9.998434 
6.4500153e+2, 2.545559e+2, -495198.84, -642633.44, 1152.2285, -0.049497984, -0.20491402, -495189.84, -49859.348, 0.0, 10.000382, 9.998426 
6.4500296e+2, 2.6455495e+2, -336445.0, -450731.44, -12136.912, -0.036450624, -0.16808416, -335170.3, 12169.845, 0.0, 10.000522, 9.999004 
6.4500505e+2, 2.745532e+2, -232710.34, -343778.4, -20494.918, 0.04335837, -0.25007123, -229049.19, 20303.527, 0.0, 10.000534, 9.99906 
6.4500666e+2, 2.8455147e+2, -203164.06, -352261.4, 4582.973, 0.050905604, -0.29733533, -203023.31, -51654.773, 0.0, 10.00038, 9.9984045 
6.450078e+2, 2.945499e+2, -159731.52, -285329.34, 18218.725, -0.022804823, -0.29644075, -157142.16, -103755.91, 0.000000011710588, 10.000026, 9.998361 
6.450101e+2, 3.045494e+2, -120864.336, -195692.14, 29006.81, 0.022173956, -0.20118496, -110936.97, -110936.97, 0.00000040808163, 9.999761, 9.998771 
6.4501184e+2, 3.145474e+2, -69361.695, -61627.234, 41079.645, 0.010012683, -0.29172927, -24233.191, -24233.191, 0.0000020409286, 9.99964, 9.99975 
6.5497935e+2, 1.24561444e+2, -1734166.5, -1759764.8, -114189.414, 0.10637279, -0.23540436, -1632061.1, 87210.46, 0.0, 10.000047, 9.999654 
6.549796e+2, 1.3456057e+2, -1578156.4, -1645600.3, 131656.3, -0.25805476, -0.28954864, -1475972.0, 145308.0, 0.0, 10.000442, 9.999604 
6.54986e+2, 1.4455988e+2, -1482930.9, -1494373.3, 5314.353, 0.059171107, -0.33633345, -1480843.5, 42442.9, 0.0, 10.000214, 10.000063 
6.5498585e+2, 1.545608e+2, -1493860.9, -1441173.6, -24759.648, -0.037644546, -0.25965127, -1431364.5, -6087.9443, 0.0, 9.999435, 10.000129 
6.549864e+2, 1.645609e+2, -1442172.3, -1402865.0, 15478.453, -0.10102284, -0.24635729, -1397501.8, -70226.836, 0.0, 9.999277, 9.999797 
6.549884e+2, 1.7456001e+2, -1261653.5, -1263755.1, 24644.918, -0.08393135, -0.319685, -1238037.0, -8754.216, 0.0, 9.999837, 9.999809 
6.5499055e+2, 1.8455957e+2, -1156106.3, -1211546.0, 16820.459, -0.050586477, -0.3207805, -1151402.0, -20114.572, 0.0, 10.000101, 9.999368 
6.5499264e+2, 1.9455974e+2, -1066084.3, -1115825.4, 11645.141, -0.008535246, -0.24538831, -1063492.9, -30205.02, 0.0, 10.000041, 9.99938 
6.549942e+2, 2.0455924e+2, -974074.06, -1024478.06, 9343.593, -0.008705725, -0.23096626, -972397.75, -37104.473, 0.0, 10.000016, 9.999346 
6.549954e+2, 2.1455793e+2, -870571.2, -921398.4, 19244.342, -0.053894363, -0.30125728, -864106.94, -26802.295, 0.0, 10.000042, 9.999369 
6.5499693e+2, 2.2455703e+2, -782943.3, -845436.4, 23100.762, -0.053718466, -0.32211435, -775331.25, -36018.285, 0.0, 10.000044, 9.999217 
6.549991e+2, 2.3455654e+2, -685391.44, -744743.06, 20550.959, 0.0005371131, -0.29758802, -678970.25, -37652.715, 0.0, 10.00003, 9.999242 
6.55001e+2, 2.4455552e+2, -640957.06, -781111.5, 16205.447, 0.021183396, -0.27673903, -639107.75, -95778.62, 0.0, 10.000129, 9.998271 
6.550024e+2, 2.5455388e+2, -508009.88, -667274.0, 11241.614, 0.0025782664, -0.26734465, -507220.3, -61871.93, 0.0, 10.000373, 9.998261 
6.550037e+2, 2.6455256e+2, -352139.47, -481834.38, -11723.043, -0.01892596, -0.2534449, -351088.34, -3725.9294, 0.0, 10.000516, 9.998794 
6.550047e+2, 2.7455142e+2, -248911.47, -374782.9, -19051.195, -0.04526371, -0.25279582, -246091.19, 3279.6682, 0.0, 10.000524, 9.998852 
6.550062e+2, 2.8454998e+2, -182614.08, -308375.5, -8470.14, -0.04023859, -0.27369127, -182046.17, -30662.256, 0.0, 10.000374, 9.998709 
6.5500814e+2, 2.9454833e+2, -138133.95, -238719.14, 5652.896, 0.005518554, -0.3132703, -137817.25, -84416.75, 0.000000011654482, 10.000017, 9.998686 
6.550106e+2, 3.0454785e+2, -93053.164, -135802.39, 23559.236, 0.083756775, -0.25151122, -82617.22, -82617.22, 0.00000041978168, 9.999752, 9.999186 
6.550115e+2, 3.1454608e+2, -18383.256, 51000.184, 45070.207, 0.008966427, -0.36061117, 73184.11, 73184.11, 0.000002202322, 9.999613, 10.000536 
6.649795e+2, 1.24560475e+2, -1685734.5, -1737495.1, -97999.87, 0.1026656, -0.26443088, -1610255.3, 109023.664, 0.0, 10.000382, 9.999646 
6.649801e+2, 1.3455954e+2, -1671710.0, -1692709.9, 151509.17, -0.21650393, -0.3210346, -1530337.4, 90950.86, 0.0, 9.999813, 9.999583 
6.649863e+2, 1.4455873e+2, -1575821.5, -1564558.6, 35451.37, 0.09888029, -0.36651412, -1534294.1, -10997.588, 0.0, 9.999686, 9.999835 
6.649857e+2, 1.5455982e+2, -1390010.6, -1417904.0, -4126.9604, -0.031532805, -0.25203773, -1389412.9, 35873.645, 0.0, 10.000264, 9.999889 
6.6498613e+2, 1.6455987e+2, -1276018.3, -1314752.0, 36098.875, -0.10972488, -0.23279643, -1254419.3, 72866.164, 0.0, 10.000384, 9.9998665 
6.6498834e+2, 1.7455874e+2, -1237379.8, -1241996.3, 38365.36, -0.08487105, -0.33807042, -1201253.3, 28041.17, 0.0, 9.999964, 9.999895 
6.6499054e+2, 1.8455832e+2, -1208510.8, -1236899.4, 31016.105, -0.041093733, -0.34356368, -1188595.3, -57296.39, 0.0, 9.999744, 9.999364 
6.6499275e+2, 1.9455874e+2, -1106849.8, -1136962.3, 33924.22, 0.01383233, -0.24141908, -1084790.8, -51493.266, 0.0, 9.999768, 9.999366 
6.6499436e+2, 2.0455822e+2, -987962.0, -1021987.06, 38128.668, 0.01303499, -0.23195909, -963222.6, -27919.797, 0.0, 9.999881, 9.999429 
6.6499543e+2, 2.145566e+2, -855479.2, -903192.25, 35811.05, -0.050135683, -0.34306753, -836305.9, 1010.122, 0.0, 10.000102, 9.999463 
6.64997e+2, 2.2455573e+2, -770953.44, -872485.3, 24944.605, -0.061219815, -0.3495513, -765156.0, -25831.674, 0.0, 10.00027, 9.998921 
6.649992e+2, 2.3455572e+2, -657659.0, -766343.06, 4857.394, -0.01138111, -0.24634416, -657442.4, -16115.319, 0.0, 10.000371, 9.998928 
6.650012e+2, 2.4455473e+2, -577949.1, -720670.4, 12139.489, 0.015676687, -0.21752514, -576923.9, -33585.516, 0.0, 10.000433, 9.99854 
6.65003e+2, 2.5455263e+2, -476199.47, -618942.6, 40240.58, 0.016883422, -0.28568432, -465636.9, -20277.334, 0.0, 10.00045, 9.998556 
6.650044e+2, 2.645511e+2, -372203.6, -512566.06, 32965.2, -0.0011690415, -0.29560754, -364847.03, -17472.223, 0.0, 10.000469, 9.998605 
6.650052e+2, 2.745502e+2, -269753.16, -407978.84, 24093.143, -0.044278305, -0.25309524, -265674.0, -16290.613, 0.0, 10.000481, 9.998644 
6.6500646e+2, 2.8454894e+2, -176754.55, -288919.38, 18620.39, -0.043489896, -0.25258762, -173744.19, -22348.723, 0.0, 10.000344, 9.998855 
6.6500825e+2, 2.9454744e+2, -120748.94, -212230.03, 17422.78, 0.013902431, -0.29921007, -117543.08, -64132.96, 0.000000008469742, 10.000059, 9.998845 
6.6501033e+2, 3.0454677e+2, -101158.375, -146481.31, 14853.494, 0.08573368, -0.25396642, -96724.3, -96724.3, 0.00000038345433, 9.999727, 9.999123 
6.6501087e+2, 3.1454536e+2, -44811.176, 63856.563, 2747.8232, 0.00024522658, -0.3243109, 63926.004, 63926.004, 0.0000022156387, 9.999321, 10.000764 
6.749795e+2, 1.24559075e+2, -1665508.6, -1698006.4, -109993.68, 0.056525853, -0.3446368, -1570570.1, 148720.88, 0.0, 10.000389, 9.999916 
6.7498064e+2, 1.3455962e+2, -1651189.3, -1651752.0, 128363.4, -0.14651379, -0.28051144, -1523106.9, 98179.22, 0.0, 9.99982, 9.99986 
6.749869e+2, 1.4455892e+2, -1598769.4, -1614066.0, 52096.58, 0.17831628, -0.3145745, -1553762.6, -30468.73, 0.0, 9.999694, 9.999493 
6.74986e+2, 1.5455869e+2, -1415840.6, -1471997.5, 18124.563, -0.026551107, -0.2934708, -1410499.0, 14798.434, 0.0, 10.000265, 9.999518 
6.749864e+2, 1.645584e+2, -1276733.5, -1315045.6, 20688.244, -0.11789299, -0.28941756, -1267694.5, 59605.523, 0.0, 10.00038, 9.9998665 
6.7498887e+2, 1.7455804e+2, -1235716.4, -1238870.8, 23107.984, -0.022922887, -0.31857, -1214131.9, 15169.775, 0.0, 9.999965, 9.999916 
6.7499083e+2, 1.8455777e+2, -1201102.4, -1221350.0, 30081.88, 0.014388728, -0.31601438, -1179486.5, -48182.324, 0.0, 9.999743, 9.999471 
6.749921e+2, 1.9455758e+2, -1099534.1, -1121429.5, 34903.105, -0.031726517, -0.28667068, -1073902.0, -40594.188, 0.0, 9.999765, 9.999475 
6.749936e+2, 2.045569e+2, -992387.8, -1029498.25, 44881.406, -0.050658006, -0.29476687, -962377.25, -27063.014, 0.0, 9.999874, 9.999381 
6.749957e+2, 2.1455573e+2, -859959.7, -911538.8, 44515.35, -0.030994097, -0.35666347, -834303.0, 3020.4702, 0.0, 10.000097, 9.99941 
6.749977e+2, 2.2455499e+2, -807530.4, -946588.6, 28027.49, -0.022303855, -0.32084048, -802093.9, -62761.715, 0.0, 10.000262, 9.998417 
6.749994e+2, 2.3455483e+2, -695103.2, -843127.6, 9404.628, -0.027765041, -0.1821502, -694508.06, -53167.74, 0.0, 10.000366, 9.998404 
6.750012e+2, 2.4455392e+2, -529813.2, -619629.1, 12190.121, -0.025681917, -0.15086037, -528188.1, 15162.616, 0.0, 10.000427, 9.999236 
6.750032e+2, 2.545522e+2, -424595.6, -510427.22, 41649.87, -0.012017575, -0.25889665, -407707.75, 37656.11, 0.0, 10.000443, 9.999305 
6.75005e+2, 2.6455072e+2, -384694.0, -537469.0, 33002.05, 0.010685149, -0.29281983, -377869.8, -30492.713, 0.0, 10.000464, 9.998436 
6.750065e+2, 2.745496e+2, -285679.13, -438695.75, 25296.229, 0.042059332, -0.2518896, -281605.7, -32215.234, 0.0, 10.000471, 9.998437 
6.7500764e+2, 2.8454837e+2, -178654.61, -291203.38, 7715.39, 0.03884543, -0.2362169, -178128.17, -26724.795, 0.0, 10.000338, 9.998843 
6.750082e+2, 2.945471e+2, -123535.84, -214553.9, 8139.5645, -0.0034506363, -0.2527042, -122813.664, -69398.77, 0.0000000040864183, 10.000045, 9.9988365 
6.7500937e+2, 3.0454627e+2, -140427.31, -226110.86, -264.44366, 0.021548599, -0.20505653, -140426.5, -140426.5, 0.0000003121116, 9.999718, 9.99858 
6.750099e+2, 3.1454507e+2, -71521.016, 12516.476, -4410.9023, -0.029677121, -0.19299226, 12747.357, 12747.357, 0.0000020914758, 9.999304, 10.000419 
6.8497956e+2, 1.2455839e+2, -1771789.1, -1739703.6, -105052.48, 0.06642863, -0.347019, -1649476.0, 69822.02, 0.0, 9.9996195, 10.000001 
6.8498063e+2, 1.3455938e+2, -1636842.9, -1637420.0, 101689.71, -0.1280209, -0.24490021, -1535441.3, 85847.734, 0.0, 9.999888, 9.999925 
6.8498677e+2, 1.4455861e+2, -1559075.4, -1584023.9, 49317.492, 0.18795283, -0.29291132, -1520679.0, 2617.9573, 0.0, 9.99992, 9.999589 
6.8498635e+2, 1.5455799e+2, -1470563.1, -1487855.6, 51009.973, -0.0031307663, -0.3211711, -1427471.8, -2168.7305, 0.0, 9.999846, 9.999611 
6.849869e+2, 1.6455767e+2, -1362387.8, -1374225.3, 54145.227, -0.08835562, -0.31844792, -1313838.8, 13467.408, 0.0, 9.999871, 9.999704 
6.849892e+2, 1.7455767e+2, -1241212.3, -1261373.9, 38708.2, 0.006241373, -0.29261965, -1211293.8, 18011.922, 0.0, 10.000013, 9.999738 
6.8499094e+2, 1.8455735e+2, -1145755.5, -1199851.8, 40904.01, 0.035571676, -0.28349507, -1123765.5, 7543.6514, 0.0, 10.000146, 9.999424 
6.849921e+2, 1.9455661e+2, -1028296.1, -1090091.6, 34514.285, -0.031439517, -0.30448383, -1012869.94, 20447.18, 0.0, 10.000272, 9.999444 
6.849936e+2, 2.0455591e+2, -932720.94, -1005506.3, 40791.313, -0.057374306, -0.31208444, -914447.75, 20875.957, 0.0, 10.000306, 9.999335 
6.849959e+2, 2.1455528e+2, -843286.3, -908989.1, 38988.45, -0.028354568, -0.31376588, -825154.25, 12174.244, 0.0, 10.000235, 9.999361 
6.849979e+2, 2.2455454e+2, -813644.4, -948800.7, 42933.83, -0.020842047, -0.27856585, -801159.3, -61821.656, 0.0, 10.0002165, 9.998424 
6.849996e+2, 2.3455365e+2, -708558.3, -847779.9, 62676.03, -0.040444065, -0.21209769, -684499.75, -43147.777, 0.0, 10.000269, 9.998418 
6.8500143e+2, 2.4455272e+2, -539104.5, -610943.75, 64799.03, -0.042639058, -0.1901724, -500935.44, 42427.125, 0.0, 10.000308, 9.999352 
6.850034e+2, 2.5455174e+2, -433095.63, -500506.5, 45832.145, -0.023441661, -0.2344419, -409909.56, 35459.18, 0.0, 10.000326, 9.999429 
6.850053e+2, 2.645506e+2, -399563.0, -531747.25, 23271.566, 0.0055701383, -0.2484315, -395585.63, -48206.49, 0.0, 10.000307, 9.998549 
6.85007e+2, 2.7454925e+2, -308254.16, -437217.78, 37733.582, 0.046390954, -0.23927805, -298025.03, -48630.51, 0.0, 10.000262, 9.998548 
6.85008e+2, 2.8454807e+2, -172585.47, -291838.44, 33944.47, 0.03967785, -0.22653197, -163600.4, -12193.028, 0.0, 10.000395, 9.99881 
6.850083e+2, 2.9454702e+2, -28661.936, -172575.38, 29950.322, -0.023292921, -0.21670116, -22677.707, 30739.12, 0.0000000009738006, 10.000714, 9.998802 
6.8500924e+2, 3.045457e+2, -42239.316, -211267.55, 11242.868, -0.008432338, -0.19929723, -41494.777, -41494.777, 0.00000022618863, 10.000533, 9.99829 
6.850095e+2, 3.145446e+2, -15120.86, 12693.39, 26247.715, -0.03101233, -0.15153123, 28490.652, 28490.652, 0.0000018666766, 9.999809, 10.000176 
6.949798e+2, 1.24558456e+2, -1778608.5, -1758652.1, -85780.73, 0.124431625, -0.27410537, -1682271.3, 37028.29, 0.0, 9.999637, 9.999865 
6.949802e+2, 1.3455886e+2, -1648350.5, -1659712.6, 109979.25, -0.1655214, -0.21575725, -1543905.8, 77390.8, 0.0, 9.999883, 9.999774 
6.9498605e+2, 1.4455786e+2, -1522413.5, -1505751.8, 44487.324, 0.123264015, -0.3036175, -1468822.0, 54483.16, 0.0, 9.999911, 10.000131 
6.949866e+2, 1.5455778e+2, -1429135.5, -1403388.6, 49988.26, 0.032602504, -0.33454394, -1364642.8, 60659.934, 0.0, 9.999853, 10.000187 
6.9498736e+2, 1.6455771e+2, -1386754.4, -1426065.4, 58123.133, -0.028979726, -0.31936818, -1345053.3, -17750.227, 0.0, 9.999876, 9.999347 
6.9498914e+2, 1.7455766e+2, -1269440.5, -1319969.8, 44151.727, -0.0021974263, -0.2605999, -1243835.9, -14529.423, 0.0, 10.000012, 9.999336 
6.94991e+2, 1.8455708e+2, -1159545.5, -1226588.3, 44519.05, 0.017448457, -0.24663202, -1137338.8, -6025.016, 0.0, 10.000138, 9.999245 
6.949928e+2, 1.945559e+2, -1040677.9, -1114869.4, 39849.156, 0.011868556, -0.29594666, -1023330.5, 9994.602, 0.0, 10.000267, 9.999276 
6.9499445e+2, 2.0455527e+2, -937032.06, -1013286.56, 37410.375, -0.010977749, -0.28532115, -921743.75, 13587.466, 0.0, 10.0003, 9.999286 
6.94996e+2, 2.1455532e+2, -847405.7, -916448.1, 36939.95, -0.047308337, -0.21466865, -831367.3, 5963.647, 0.0, 10.000229, 9.999312 
6.949977e+2, 2.2455436e+2, -777807.2, -873294.8, 43615.164, -0.06224441, -0.2226196, -760884.5, -21543.922, 0.0, 10.000212, 9.998944 
6.9499975e+2, 2.3455222e+2, -671084.56, -769401.2, 65180.168, -0.0530596, -0.3359771, -638603.44, 2758.461, 0.0, 10.000265, 9.998959 
6.950018e+2, 2.4455114e+2, -571635.44, -677094.0, 64914.348, -0.039643697, -0.33588082, -540733.06, 2640.7002, 0.0, 10.000302, 9.998901 
6.950038e+2, 2.5455132e+2, -468703.25, -572717.44, 47334.703, -0.020681057, -0.21280871, -450387.44, -5013.2427, 0.0, 10.000319, 9.998937 
6.9500536e+2, 2.6455075e+2, -372675.7, -474733.97, 21101.496, -0.019132191, -0.16365708, -368484.84, -21103.883, 0.0, 10.000302, 9.998944 
6.9500643e+2, 2.7454925e+2, -279767.8, -376172.16, 37090.773, -0.03679067, -0.21372809, -267149.13, -17753.777, 0.0, 10.000254, 9.998971 
6.9500756e+2, 2.8454804e+2, -177663.9, -300500.06, 45286.59, -0.04787099, -0.2217907, -162773.03, -11365.802, 0.0, 10.000387, 9.998754 
6.950088e+2, 2.9454714e+2, -35174.414, -183130.7, 42977.48, -0.05143052, -0.19170159, -23596.557, 29819.42, 0.000000000021633938, 10.000702, 9.998735 
6.9500977e+2, 3.0454516e+2, -45876.434, -217764.06, -15638.186, -0.007732717, -0.23648775, -44465.27, -44465.27, 0.00000014519733, 10.000527, 9.998249 
6.950094e+2, 3.1454378e+2, -27053.768, -8217.48, 4230.14, -0.015021786, -0.20761943, -7311.1133, -7311.1133, 0.0000015881137, 9.999792, 10.000041 
7.049796e+2, 1.2455783e+2, -1765186.1, -1748633.8, -83478.69, 0.14064084, -0.24679634, -1673022.0, 46285.035, 0.0, 9.999714, 9.999895 
7.049801e+2, 1.3455787e+2, -1656433.0, -1662778.0, 109248.36, -0.16051386, -0.22437315, -1550311.1, 70995.86, 0.0, 9.999828, 9.999777 
7.049858e+2, 1.4455684e+2, -1529743.3, -1492100.0, 29863.791, 0.11277404, -0.32406506, -1475621.5, 47694.05, 0.0, 9.999789, 10.000281 
7.049865e+2, 1.5455727e+2, -1434470.8, -1388587.8, 2996.9412, 0.052388284, -0.3193449, -1388392.8, 36914.867, 0.0, 9.999743, 10.00034 
7.0498747e+2, 1.6455728e+2, -1405694.4, -1451151.0, 11577.217, 0.002812278, -0.29674223, -1402915.6, -75608.6, 0.0, 9.999814, 9.999205 
7.049893e+2, 1.7455682e+2, -1280019.9, -1341973.5, 15705.846, 0.015229512, -0.26376107, -1276265.8, -46950.8, 0.0, 10.000015, 9.999184 
7.049912e+2, 1.8455611e+2, -1157244.1, -1224403.9, 31730.018, 0.029401982, -0.256467, -1144624.4, -13300.775, 0.0, 10.000151, 9.999252 
7.049932e+2, 1.9455507e+2, -1047976.6, -1117645.8, 38046.63, 0.028926766, -0.29063803, -1031226.4, 2106.461, 0.0, 10.000213, 9.999284 
7.049948e+2, 2.0455445e+2, -963058.0, -1036534.44, 34540.434, 0.00248941, -0.27474445, -949370.6, -14031.613, 0.0, 10.000167, 9.99919 
7.049961e+2, 2.1455434e+2, -887300.3, -945972.9, 28344.355, -0.048661985, -0.21163286, -875844.2, -38502.586, 0.0, 10.000001, 9.999219 
7.049978e+2, 2.2455344e+2, -783976.5, -833312.25, 37950.895, -0.06646203, -0.22743212, -763381.0, -24030.729, 0.0, 9.999984, 9.999329 
7.05e+2, 2.3455164e+2, -660484.75, -719062.5, 48277.027, -0.04668346, -0.3482941, -633306.75, 8059.3164, 0.0, 10.000142, 9.999364 
7.05002e+2, 2.4455069e+2, -601515.5, -714331.3, 48814.387, -0.036424845, -0.34551185, -583326.5, -39950.15, 0.0, 10.000195, 9.998697 
7.0500386e+2, 2.5455078e+2, -511499.22, -619313.6, 48600.02, -0.037146382, -0.20786172, -492825.78, -47445.81, 0.0, 10.000136, 9.998705 
7.050053e+2, 2.6455024e+2, -375366.2, -450944.84, 29993.707, -0.046791106, -0.1574142, -364909.72, -17522.316, 0.0, 10.000175, 9.999169 
7.050064e+2, 2.7454883e+2, -251776.1, -334453.1, 31447.525, -0.06596853, -0.22206421, -241174.06, 8225.372, 0.0, 10.000325, 9.999223 
7.050076e+2, 2.8454772e+2, -194806.23, -306658.38, 35830.164, -0.073582016, -0.23177357, -184312.98, -32903.28, 0.0, 10.000261, 9.998774 
7.05009e+2, 2.9454696e+2, -141986.77, -233217.03, 37723.625, -0.06714049, -0.18976055, -128408.9, -74990.836, 0.0, 9.999962, 9.998748 
7.050099e+2, 3.0454484e+2, -101883.8, -218926.2, -10920.915, -0.021669202, -0.26093218, -100873.516, -100873.516, 0.00000008201181, 10.000031, 9.99848 
7.0500964e+2, 3.1454393e+2, 82009.3, 46610.195, 28919.018, -0.00833719, -0.20623133, 98215.26, 98215.26, 0.0000012936833, 10.00053, 10.000063 
7.14979e+2, 1.2455654e+2, -1753176.6, -1723490.0, -70488.33, 0.10596172, -0.26759782, -1666299.1, 53021.188, 0.0, 9.999712, 10.00007 
7.1498036e+2, 1.3455649e+2, -1643478.6, -1638088.0, 113393.24, -0.12083678, -0.27050295, -1527358.1, 93961.55, 0.0, 9.999839, 9.999941 
7.149859e+2, 1.4455557e+2, -1547256.5, -1530499.1, 25264.303, 0.14681186, -0.35507828, -1512260.4, 11067.126, 0.0, 9.999798, 10.000014 
7.1498626e+2, 1.5455645e+2, -1454801.9, -1430687.5, 1623.0154, 0.051809058, -0.27681583, -1430578.8, -5260.9688, 0.0, 9.999742, 10.000053 
7.149873e+2, 1.6455638e+2, -1400395.1, -1438354.1, 18244.254, 0.0020097035, -0.2521221, -1393048.3, -65729.97, 0.0, 9.999807, 9.999295 
7.149897e+2, 1.745552e+2, -1271763.0, -1325638.6, 24416.342, 0.054206874, -0.30301383, -1262344.1, -33013.285, 0.0, 10.000018, 9.999294 
7.1499175e+2, 1.8455443e+2, -1144979.3, -1199269.3, 33329.38, 0.06549916, -0.3141698, -1129139.5, 2199.046, 0.0, 10.000152, 9.999425 
7.149933e+2, 1.9455417e+2, -1036540.7, -1092964.1, 40728.406, 0.014817028, -0.2879333, -1015207.44, 18132.7, 0.0, 10.000207, 9.999455 
7.1499467e+2, 2.0455351e+2, -973636.94, -1056623.8, 27442.299, -0.021862563, -0.27980685, -965383.1, -30036.057, 0.0, 10.000158, 9.999057 
7.149962e+2, 2.1455236e+2, -898943.8, -968509.1, 22513.79, -0.03568766, -0.30503234, -892293.3, -54932.934, 0.0, 9.999993, 9.999068 
7.149981e+2, 2.2455177e+2, -766617.56, -795916.44, 42344.387, -0.0372075, -0.29359806, -736460.1, 2906.4854, 0.0, 9.999978, 9.999588 
7.150004e+2, 2.3455188e+2, -642055.94, -678973.0, 55107.246, -0.025524562, -0.24927378, -602398.0, 38966.3, 0.0, 10.0001335, 9.999643 
7.150022e+2, 2.4455139e+2, -599935.0, -709552.8, 46122.344, -0.038027402, -0.2190184, -583110.9, -39740.7, 0.0, 10.000188, 9.9987335 
7.150036e+2, 2.5455016e+2, -511285.6, -617676.2, 46981.22, -0.07720517, -0.21794397, -493509.25, -48123.355, 0.0, 10.000131, 9.998718 
7.1500516e+2, 2.64549e+2, -371055.63, -441316.1, 34751.508, -0.08149295, -0.22905678, -356771.28, -9372.875, 0.0, 10.000173, 9.999237 
7.1500695e+2, 2.7454793e+2, -247733.36, -323633.44, 37880.605, -0.045717094, -0.265122, -232063.02, 17343.734, 0.0, 10.000315, 9.999303 
7.150082e+2, 2.8454712e+2, -189472.2, -293520.5, 24675.832, -0.04209659, -0.25672296, -183916.77, -32501.984, 0.0, 10.000252, 9.998868 
7.1500885e+2, 2.945465e+2, -137148.42, -220570.05, 27601.28, -0.075854346, -0.2084128, -128843.01, -75420.27, 0.0, 9.99995, 9.99884 
7.1500957e+2, 3.0454475e+2, -68202.305, -147311.94, 6177.5347, -0.055046793, -0.27163926, -67722.82, -67722.82, 0.00000004119849, 10.000023, 9.998976 
7.1501005e+2, 3.1454504e+2, 92556.26, 72754.38, 51739.973, -0.022983383, -0.15037914, 135334.1, 135334.1, 0.0000010048329, 10.000512, 10.000252 
7.2497857e+2, 1.2455562e+2, -1783903.9, -1720992.8, -37885.89, 0.105041966, -0.2745203, -1703206.1, 16123.187, 0.0, 9.999422, 10.000229 
7.2498035e+2, 1.345557e+2, -1679202.3, -1640196.5, 130088.23, -0.089070775, -0.2775992, -1528157.4, 93168.98, 0.0, 9.999531, 10.000073 
7.2498584e+2, 1.4455467e+2, -1588392.8, -1594947.0, 40571.766, 0.16491151, -0.36026606, -1550965.9, -27630.377, 0.0, 9.999707, 9.999615 
7.2498626e+2, 1.5455525e+2, -1431264.4, -1467164.6, 6522.9727, 0.05870252, -0.26902565, -1430115.9, -4785.2266, 0.0, 10.00011, 9.999624 
7.249874e+2, 1.6455501e+2, -1318627.4, -1387508.0, 16631.686, 0.0003231437, -0.24514343, -1314821.9, 12511.427, 0.0, 10.0003195, 9.999397 
7.2498983e+2, 1.7455375e+2, -1221988.3, -1287950.4, 21547.918, 0.04611778, -0.314142, -1215573.0, 13771.717, 0.0, 10.0003, 9.999417 
7.249918e+2, 1.84553e+2, -1147836.8, -1206608.9, 16678.404, 0.057077162, -0.3286824, -1143433.6, -12081.815, 0.0, 10.000156, 9.9993725 
7.249933e+2, 1.9455282e+2, -1088596.0, -1123953.1, 5432.9937, 0.011779373, -0.28898352, -1087780.0, -54426.54, 0.0, 9.999877, 9.999401 
7.249948e+2, 2.0455217e+2, -1018603.25, -1064547.4, -2258.5752, -0.014538938, -0.28182474, -1018492.5, -83132.11, 0.0, 9.999791, 9.99918 
7.249964e+2, 2.1455099e+2, -899859.25, -954506.25, 12512.428, -0.012756382, -0.324913, -897130.56, -59757.094, 0.0, 9.999924, 9.999199 
7.2499824e+2, 2.2455047e+2, -781098.25, -820845.8, 31927.594, -0.019385964, -0.30354667, -763364.4, -23985.19, 0.0, 9.999955, 9.999429 
7.2500026e+2, 2.3455085e+2, -690340.1, -721449.2, 8316.5205, -0.03745443, -0.21736665, -688256.4, -46880.36, 0.0, 9.999885, 9.999472 
7.25002e+2, 2.4455042e+2, -624387.9, -681979.7, -8033.9473, -0.058440603, -0.18741016, -623288.2, -79907.1, 0.0, 9.999849, 9.999086 
7.2500354e+2, 2.5454906e+2, -524198.97, -581297.4, 19158.87, -0.081477605, -0.237164, -518366.22, -72970.27, 0.0, 9.999858, 9.999101 
7.250052e+2, 2.6454797e+2, -422726.84, -461366.16, 22968.71, -0.08030225, -0.26249853, -412033.0, -64625.926, 0.0, 9.999798, 9.99928 
7.250068e+2, 2.7454728e+2, -340395.1, -365486.3, 20289.709, -0.05173137, -0.26795897, -329085.63, -79672.28, 0.0, 9.999666, 9.999329 
7.250082e+2, 2.8454667e+2, -256470.97, -313644.3, 7028.5527, -0.042329542, -0.24405305, -255619.6, -104199.91, 0.0, 9.999738, 9.998979 
7.25009e+2, 2.945461e+2, -112673.49, -195794.78, 10876.035, -0.0561595, -0.19952905, -111273.98, -57847.44, 0.0, 10.000061, 9.998959 
7.2500974e+2, 3.0454442e+2, -5068.954, -113530.31, -8228.387, -0.060996257, -0.26472765, -4448.262, -4448.262, 0.000000018939705, 10.000443, 9.999005 
7.250102e+2, 3.1454468e+2, 124578.26, 52516.484, -981.7174, -0.0787793, -0.1469372, 124591.63, 124591.63, 0.0000007295325, 10.000885, 9.999934 
7.349782e+2, 1.2455502e+2, -1773616.0, -1701458.6, -25107.424, 0.12331111, -0.27214208, -1693582.1, 25752.215, 0.0, 9.999428, 10.000361 
7.3498005e+2, 1.3455547e+2, -1672522.9, -1625327.3, 132749.72, -0.06838422, -0.24759598, -1514094.3, 107232.83, 0.0, 9.999527, 10.000177 
7.3498553e+2, 1.4455415e+2, -1625600.1, -1671374.0, 53489.01, 0.1617229, -0.34100166, -1590307.3, -66967.86, 0.0, 9.999705, 9.999091 
7.349864e+2, 1.5455373e+2, -1469675.5, -1548908.3, 23276.252, 0.06701391, -0.29591343, -1463343.6, -37997.81, 0.0, 10.000118, 9.999059 
7.349876e+2, 1.6455318e+2, -1311160.8, -1373635.1, 15556.667, -0.009256437, -0.27663013, -1307501.4, 19850.348, 0.0, 10.000325, 9.99949 
7.349895e+2, 1.7455253e+2, -1213028.5, -1269881.0, 21127.924, -0.012791898, -0.2969026, -1206036.6, 23319.846, 0.0, 10.000301, 9.999541 
7.349914e+2, 1.8455182e+2, -1167024.1, -1245591.1, 5351.5693, -0.0007834299, -0.29989666, -1166661.3, -35297.965, 0.0, 10.000153, 9.999106 
7.3499316e+2, 1.9455102e+2, -1108773.9, -1165742.3, -4736.178, 0.015206576, -0.2940339, -1108382.8, -75010.0, 0.0, 9.999876, 9.999115 
7.349949e+2, 2.0455047e+2, -992075.7, -1008485.44, 1063.9521, 0.019479949, -0.28116924, -992007.0, -56628.195, 0.0, 9.999786, 9.999567 
7.3499656e+2, 2.1455023e+2, -871935.9, -894616.44, 18272.01, 0.015660666, -0.27047843, -861771.06, -24390.477, 0.0, 9.999914, 9.999615 
7.349982e+2, 2.2454959e+2, -823729.75, -907300.9, 28337.389, -0.017448923, -0.25649014, -815027.3, -75639.62, 0.0, 9.999947, 9.998839 
7.3499966e+2, 2.3454851e+2, -735962.75, -814955.1, 6112.1563, -0.08610436, -0.25129554, -735492.56, -94091.48, 0.0, 9.999879, 9.998833 
7.3500144e+2, 2.4454778e+2, -576270.6, -581740.7, -8649.273, -0.101929605, -0.250145, -569934.25, -26525.324, 0.0, 9.999847, 9.999776 
7.3500365e+2, 2.545475e+2, -472364.4, -471514.63, 20206.234, -0.054960005, -0.26623106, -451728.8, -6318.7813, 0.0, 9.999848, 9.999859 
7.350053e+2, 2.6454717e+2, -423607.63, -461141.47, 17921.004, -0.04827235, -0.2577544, -416425.38, -69012.05, 0.0, 9.999788, 9.999286 
7.3500615e+2, 2.7454677e+2, -344402.47, -371997.13, 16296.453, -0.0882171, -0.2282239, -336847.03, -87428.055, 0.0, 9.999659, 9.999288 
7.350076e+2, 2.8454635e+2, -246874.9, -292663.38, 18055.36, -0.07869174, -0.19257183, -240611.95, -89187.71, 0.0, 9.999732, 9.999125 
7.3500955e+2, 2.945458e+2, -102544.195, -172012.75, 24874.162, -0.0136279315, -0.16525021, -94556.18, -41126.777, 0.0, 10.000049, 9.999127 
7.350104e+2, 3.0454385e+2, -39371.71, -182529.75, 8422.567, -0.04514373, -0.24190144, -38877.88, -38877.88, 0.0000000073965225, 10.000434, 9.998537 
7.3501e+2, 3.1454307e+2, 62382.637, -70688.08, 18131.85, -0.18758947, -0.17849693, 64808.992, 64808.992, 0.0000004773962, 10.00086, 9.999099 
7.449777e+2, 1.2455357e+2, -1715011.1, -1693519.5, -65812.54, 0.108789675, -0.2828702, -1637581.3, 81766.95, 0.0, 9.999917, 10.000179 
7.449798e+2, 1.3455433e+2, -1632306.0, -1630418.8, 52893.145, -0.06386724, -0.20694052, -1578460.9, 42878.47, 0.0, 9.99991, 9.999956 
7.449853e+2, 1.4455292e+2, -1603085.3, -1651853.6, -10580.702, 0.16018121, -0.3012817, -1600888.6, -77536.05, 0.0, 9.999819, 9.999171 
7.449866e+2, 1.54552e+2, -1511845.9, -1558422.0, 8651.92, 0.08307354, -0.3134869, -1510290.6, -84928.3, 0.0, 9.999782, 9.999157 
7.449878e+2, 1.6455133e+2, -1394088.9, -1419618.5, 17696.842, 0.007995085, -0.30789223, -1385033.5, -57664.72, 0.0, 9.9997835, 9.999434 
7.449896e+2, 1.7455101e+2, -1284811.4, -1311455.3, 7659.4385, -0.01650338, -0.2907582, -1282766.5, -53395.1, 0.0, 9.999841, 9.999476 
7.4499136e+2, 1.845504e+2, -1193017.6, -1254794.4, -5321.35, -0.016560262, -0.2812961, -1192562.6, -61184.84, 0.0, 9.999958, 9.999138 
7.44993e+2, 1.9454947e+2, -1067336.6, -1141827.0, 6903.97, -0.0034666208, -0.29290882, -1066702.1, -33313.383, 0.0, 10.000142, 9.999152 
7.449947e+2, 2.0454895e+2, -935062.1, -987452.1, 13209.112, -0.00079985725, -0.27641127, -931920.2, 3474.4106, 0.0, 10.000205, 9.999509 
7.449964e+2, 2.1454892e+2, -844350.7, -887593.8, -7445.3066, -0.0052251476, -0.23777342, -843104.7, -5710.3525, 0.0, 10.000133, 9.999557 
7.449981e+2, 2.2454822e+2, -810135.5, -897014.7, 3124.9368, -0.027860116, -0.22875057, -810023.25, -70621.37, 0.0, 10.000022, 9.998874 
7.4499965e+2, 2.3454674e+2, -736751.75, -810659.6, 30582.55, -0.07282591, -0.2678089, -725738.2, -84319.49, 0.0, 9.999853, 9.998875 
7.450013e+2, 2.4454595e+2, -602040.2, -587928.94, 21076.586, -0.08844498, -0.27866858, -572758.4, -29331.432, 0.0, 9.999646, 9.99983 
7.450031e+2, 2.54546e+2, -533475.5, -495226.22, -5198.5513, -0.07016892, -0.26779264, -494532.28, -49107.316, 0.0, 9.999405, 9.99991 
7.450048e+2, 2.645459e+2, -465877.53, -474980.63, -22498.84, -0.06637511, -0.24164605, -447474.47, -100048.31, 0.0, 9.999469, 9.999346 
7.45006e+2, 2.7454558e+2, -303183.22, -345894.0, -17579.52, -0.07749607, -0.20702815, -296878.3, -47447.266, 0.0, 9.999913, 9.999345 
7.4500763e+2, 2.8454506e+2, -187317.66, -270262.75, -17218.818, -0.06871749, -0.17861186, -183885.2, -32448.217, 0.0, 10.000169, 9.999068 
7.4500936e+2, 2.9454428e+2, -86002.64, -170618.67, -29470.682, -0.040185615, -0.17001052, -76750.12, -23305.875, 0.0, 10.000191, 9.999068 
7.4501044e+2, 3.045425e+2, -42198.79, -171665.86, -23575.908, -0.07629897, -0.23450296, -38039.26, -38039.26, 0.0000000015345106, 10.000362, 9.998645 
7.4501103e+2, 3.1454125e+2, 36190.746, -95978.93, 28905.674, -0.16179739, -0.22753787, 42235.957, 42235.957, 0.00000026410652, 10.000735, 9.998985 
7.5497705e+2, 1.2455129e+2, -1751357.0, -1770397.1, -59326.51, 0.043803405, -0.30561024, -1700791.6, 18578.746, 0.0, 9.999923, 9.99965 
7.5497955e+2, 1.3455223e+2, -1672370.5, -1713076.1, 51324.723, -0.080881394, -0.15544702, -1637510.4, -16147.432, 0.0, 9.999909, 9.999389 
7.5498503e+2, 1.4455095e+2, -1553627.0, -1549828.9, -14744.941, 0.15471484, -0.24131219, -1536861.3, -13486.258, 0.0, 9.999823, 9.99987 
7.549866e+2, 1.545501e+2, -1457772.8, -1447029.9, 7754.0977, 0.10332851, -0.3207679, -1442968.5, -17588.693, 0.0, 9.999784, 9.999921 
7.5498796e+2, 1.6454951e+2, -1407505.0, -1448316.8, 18646.662, 0.046166964, -0.3394346, -1400268.5, -72883.96, 0.0, 9.999786, 9.999237 
7.5498986e+2, 1.7454919e+2, -1301706.4, -1348055.3, 10279.01, 0.029412452, -0.296914, -1299529.0, -70139.61, 0.0, 9.9998455, 9.999225 
7.549915e+2, 1.8454875e+2, -1169848.0, -1206542.9, 250.89465, 0.0032005133, -0.2741412, -1169846.3, -38451.375, 0.0, 9.999957, 9.99947 
7.549927e+2, 1.9454817e+2, -1042692.0, -1090299.5, 14097.777, -0.04737466, -0.2854794, -1038830.5, -5429.516, 0.0, 10.00014, 9.999507 
7.5499415e+2, 2.0454761e+2, -971652.9, -1062071.3, 9530.402, -0.078593425, -0.26775384, -970659.25, -35251.684, 0.0, 10.000199, 9.999001 
7.5499576e+2, 2.1454704e+2, -883463.75, -967665.9, -9999.53, -0.08121608, -0.2266167, -882292.56, -44877.82, 0.0, 10.000127, 9.99901 
7.549978e+2, 2.2454637e+2, -763751.6, -799037.6, -4244.725, -0.056582242, -0.22047338, -763248.2, -23826.441, 0.0, 10.000015, 9.99955 
7.5500023e+2, 2.3454553e+2, -686749.94, -704840.8, 24681.521, -0.0009953474, -0.267187, -669508.56, -28080.021, 0.0, 9.999845, 9.999605 
7.5500166e+2, 2.445449e+2, -644591.25, -674697.06, 11546.031, -0.021192942, -0.27258343, -640673.1, -97238.25, 0.0, 9.999639, 9.999238 
7.5500196e+2, 2.545445e+2, -580859.0, -592117.94, -13446.421, -0.13177072, -0.23995382, -571911.2, -126470.69, 0.0, 9.999398, 9.999248 
7.5500345e+2, 2.6454413e+2, -457855.16, -457425.84, -7302.4307, -0.13948576, -0.21316864, -450334.9, -102889.484, 0.0, 9.999465, 9.999468 
7.5500655e+2, 2.745437e+2, -292445.25, -321767.63, 841.5567, -0.024311462, -0.20751484, -292421.1, -42971.48, 0.0, 9.999905, 9.999515 
7.550083e+2, 2.8454292e+2, -208403.58, -311928.72, -15407.405, -0.017182518, -0.20321558, -206159.19, -54701.35, 0.0, 10.000159, 9.998787 
7.550085e+2, 2.945417e+2, -109516.766, -216678.22, -27083.768, -0.14154625, -0.20666032, -103060.63, -49590.254, 0.0, 10.000178, 9.998758 
7.5500995e+2, 3.045404e+2, 6251.5723, -68325.12, -10752.622, -0.1613522, -0.2376883, 7770.9526, 7770.9526, 0.00000000001992495, 10.000351, 9.99936 
7.550133e+2, 3.145394e+2, 77453.945, -6080.728, 44821.688, -0.0119732795, -0.28038618, 96952.375, 96952.375, 0.000000109993245, 10.000717, 9.999612 
7.649771e+2, 1.24549e+2, -1679977.6, -1746958.5, -78750.65, 0.032850817, -0.29810575, -1627891.9, 91501.34, 0.0, 10.000458, 9.999554 
7.649798e+2, 1.3454947e+2, -1635561.1, -1708879.9, 53087.375, -0.0651226, -0.18133643, -1607705.5, 13685.157, 0.0, 10.000221, 9.999266 
7.649849e+2, 1.4454824e+2, -1524550.5, -1523026.0, -12045.47, 0.1540221, -0.26251236, -1511718.6, 11683.91, 0.0, 9.999967, 9.999985 
7.6498616e+2, 1.5454796e+2, -1441875.3, -1425413.6, -37833.227, 0.083003975, -0.2970419, -1394926.1, 30475.852, 0.0, 9.999832, 10.000046 
7.649875e+2, 1.6454762e+2, -1411567.4, -1430017.0, -36256.445, 0.02796009, -0.305498, -1383380.6, -55976.477, 0.0, 9.999666, 9.999422 
7.6498955e+2, 1.7454718e+2, -1343232.4, -1346461.9, -13022.786, 0.034612745, -0.29388183, -1331724.6, -102315.26, 0.0, 9.999466, 9.999419 
7.6499134e+2, 1.8454677e+2, -1244349.0, -1247312.8, -7049.817, 0.014942624, -0.27648783, -1238627.0, -107212.586, 0.0, 9.999469, 9.999425 
7.649926e+2, 1.9454637e+2, -1106865.8, -1127708.4, -25148.414, -0.048951864, -0.26367465, -1090065.0, -56645.617, 0.0, 9.999728, 9.999448 
7.64994e+2, 2.0454577e+2, -1027314.6, -1094492.5, -38314.863, -0.08798459, -0.24464023, -1009950.25, -74523.59, 0.0, 9.999841, 9.998951 
7.6499563e+2, 2.145449e+2, -940489.8, -1001005.5, -22262.71, -0.0931622, -0.2299245, -933182.2, -95745.5, 0.0, 9.999761, 9.998959 
7.6499754e+2, 2.2454418e+2, -801344.7, -806299.25, -17225.123, -0.06973298, -0.22857536, -786419.6, -46975.793, 0.0, 9.999714, 9.999644 
7.6499987e+2, 2.3454365e+2, -699060.44, -699849.7, -38570.617, -0.014071449, -0.25466233, -660882.44, -19434.91, 0.0, 9.999716, 9.9997015 
7.650014e+2, 2.4454312e+2, -621750.06, -673267.75, -53993.332, -0.022938253, -0.2505155, -587685.9, -44233.09, 0.0, 9.999836, 9.999153 
7.650019e+2, 2.545426e+2, -484435.8, -556120.6, -37598.848, -0.108754046, -0.22161268, -468332.56, -22872.662, 0.0, 10.000106, 9.999154 
7.650035e+2, 2.64542e+2, -365664.78, -416640.06, -11509.828, -0.12009531, -0.20642702, -363186.44, -15720.045, 0.0, 10.000114, 9.999434 
7.650062e+2, 2.7454138e+2, -309943.28, -333327.66, -20532.379, -0.041536577, -0.22238736, -298007.4, -48535.016, 0.0, 9.999799, 9.999485 
7.6500803e+2, 2.8454044e+2, -254633.75, -320699.75, -23670.508, -0.03815118, -0.23601042, -247028.45, -95547.05, 0.0, 9.9997835, 9.998908 
7.6500887e+2, 2.9453924e+2, -103239.17, -199654.14, -3735.9763, -0.12715362, -0.24915226, -103094.62, -49601.285, 0.0, 10.000161, 9.998884 
7.6501054e+2, 3.0453858e+2, 22717.549, -63243.113, 7482.2305, -0.1457142, -0.2250297, 23363.96, 23363.96, 0.0, 10.000474, 9.999337 
7.6501393e+2, 3.1453753e+2, 66987.51, -11928.941, -812.8604, -0.01570398, -0.27090117, 66995.88, 66995.88, 0.000000028836135, 10.000647, 9.999605 
7.749779e+2, 1.24546744e+2, -1655419.3, -1696669.9, -81499.1, 0.06338058, -0.25554985, -1591976.0, 127440.336, 0.00000000003061157, 10.00046, 9.999898 
7.749805e+2, 1.3454609e+2, -1612723.4, -1661177.5, 43287.39, -0.022387864, -0.28476313, -1587344.5, 34077.71, 0.0, 10.000221, 9.999593 
7.7498484e+2, 1.4454478e+2, -1556473.0, -1590819.0, -19754.113, 0.14940195, -0.36586943, -1547470.9, -24035.707, 0.0, 9.999972, 9.9995165 
7.749854e+2, 1.5454558e+2, -1477485.1, -1501103.1, -42436.227, 0.017136587, -0.24413249, -1445245.4, -19816.352, 0.0, 9.999838, 9.999524 
7.7498645e+2, 1.645457e+2, -1371057.6, -1345676.1, -45157.035, -0.051208768, -0.20692457, -1311460.4, 15966.97, 0.0, 9.999666, 10.000001 
7.7498865e+2, 1.7454503e+2, -1298648.9, -1253775.5, -20271.22, -0.0046272795, -0.28041437, -1245974.4, -16543.57, 0.0, 9.999466, 10.000055 
7.749908e+2, 1.845445e+2, -1274004.3, -1308857.0, 814.3249, 0.013240041, -0.2879797, -1273985.3, -142549.23, 0.0, 9.999468, 9.999003 
7.7499276e+2, 1.945441e+2, -1140395.6, -1196983.6, -15086.284, -0.012978607, -0.22749197, -1136624.9, -103181.3, 0.0, 9.999725, 9.998975 
7.7499443e+2, 2.0454347e+2, -999671.4, -1034981.9, -41906.914, -0.034270156, -0.207383, -971852.5, -36401.0, 0.0, 9.999831, 9.999364 
7.7499586e+2, 2.1454251e+2, -910276.8, -936151.2, -25039.418, -0.044544492, -0.24715622, -895029.94, -57569.996, 0.0, 9.999752, 9.999407 
7.7499723e+2, 2.2454172e+2, -837721.9, -880784.1, -18572.998, -0.07045814, -0.25285795, -830818.06, -91350.13, 0.0, 9.999708, 9.999136 
7.7499855e+2, 2.3454113e+2, -738524.1, -780404.4, -37969.3, -0.11727219, -0.22927223, -716103.5, -74628.125, 0.0, 9.999709, 9.999151 
7.7500045e+2, 2.4454065e+2, -593050.56, -611841.5, -45108.684, -0.09930813, -0.21228977, -556369.3, -12888.66, 0.0, 9.999828, 9.999579 
7.750031e+2, 2.5454026e+2, -451845.7, -486836.47, -26391.273, -0.004404417, -0.2149204, -437677.4, 7805.853, 0.0, 10.000099, 9.999633 
7.750047e+2, 2.6453963e+2, -380548.34, -447010.84, -22443.367, -0.010454612, -0.22183539, -373679.44, -26190.38, 0.0, 10.000111, 9.9992285 
7.7500504e+2, 2.7453867e+2, -328632.44, -370163.94, -31295.982, -0.1363143, -0.2468844, -311839.5, -62340.59, 0.0, 9.999789, 9.999238 
7.7500683e+2, 2.8453773e+2, -216993.45, -240087.55, -11334.153, -0.14021046, -0.27370286, -212360.36, -60852.973, 0.0, 9.999773, 9.999466 
7.750103e+2, 2.9453692e+2, -62623.273, -114439.22, 13281.602, -0.00089592434, -0.30652246, -59417.26, -5903.5796, 0.0, 10.000156, 9.999473 
7.7501214e+2, 3.04537e+2, -33963.47, -178969.0, 15898.988, -0.0323163, -0.20252152, -32240.709, -32240.709, 0.0, 10.000465, 9.998546 
7.7501285e+2, 3.1453583e+2, 14602.454, -116577.66, 7039.0215, -0.18793371, -0.17357503, 14979.081, 14979.081, 0.0000000029769756, 10.0006275, 9.998897 
7.8497845e+2, 1.2454457e+2, -1777189.0, -1725284.0, -50346.535, 0.1217658, -0.2331493, -1694594.6, 24844.635, 0.0000000009851104, 9.999492, 10.00017 
7.8498065e+2, 1.3454385e+2, -1670785.4, -1661112.6, 56769.484, 0.005447419, -0.29178065, -1608973.9, 12469.953, 0.0, 9.999703, 9.999843 
7.8498477e+2, 1.445426e+2, -1570257.8, -1609062.8, 10555.923, 0.13830893, -0.37719575, -1567572.1, -44116.184, 0.0, 9.999926, 9.999416 
7.8498524e+2, 1.5454344e+2, -1424881.3, -1488547.0, 17448.19, 0.0009830879, -0.23945397, -1420413.0, 5037.3623, 0.0, 10.000255, 9.999411 
7.8498626e+2, 1.6454355e+2, -1276396.1, -1311288.4, -1334.0647, -0.07075665, -0.19266444, -1276345.3, 51104.258, 0.0, 10.000366, 9.999899 
7.849883e+2, 1.7454281e+2, -1193144.3, -1214821.8, -34511.5, -0.028062973, -0.26332155, -1167809.5, 61644.43, 0.0, 10.000241, 9.9999485 
7.849904e+2, 1.8454213e+2, -1195610.0, -1276155.4, -22668.162, -0.0041538025, -0.2783378, -1189668.8, -58208.11, 0.0, 10.000027, 9.99896 
7.8499246e+2, 1.945415e+2, -1146140.6, -1203925.5, -7161.8486, -0.014722743, -0.23786624, -1145266.3, -111796.375, 0.0, 9.999704, 9.998937 
7.849942e+2, 2.0454085e+2, -1017738.4, -1031375.06, -21743.637, -0.028517088, -0.22109026, -1001769.06, -66291.586, 0.0, 9.999657, 9.999472 
7.8499573e+2, 2.1454015e+2, -874416.44, -906651.44, -31670.563, -0.04113461, -0.24405994, -854998.06, -17514.625, 0.0, 9.999946, 9.999516 
7.849971e+2, 2.2453946e+2, -804777.6, -882193.9, -31612.102, -0.07029209, -0.24008164, -793509.3, -54018.227, 0.0, 10.00001, 9.9989805 
7.8499824e+2, 2.345387e+2, -735319.44, -797641.5, -24587.895, -0.122564524, -0.21621014, -726786.94, -85285.99, 0.0, 9.999813, 9.998982 
7.8500015e+2, 2.4453816e+2, -599822.4, -596413.94, -16342.947, -0.10614768, -0.20437777, -581686.6, -38179.9, 0.0, 9.999704, 9.9997425 
7.8500295e+2, 2.5453785e+2, -498180.16, -489397.63, -21690.217, -0.008603888, -0.2179632, -471658.63, -26151.186, 0.0, 9.999697, 9.999808 
7.850046e+2, 2.6453725e+2, -425112.53, -478526.13, -28393.938, -0.009697231, -0.22779918, -412838.97, -65326.527, 0.0, 9.999848, 9.999139 
7.8500515e+2, 2.7453622e+2, -274069.6, -355781.0, -28567.193, -0.12760346, -0.2464589, -265072.78, -15550.003, 0.0, 10.0002165, 9.999131 
7.85007e+2, 2.845353e+2, -131004.016, -207617.86, -19887.637, -0.13146959, -0.26600382, -126149.17, 25382.846, 0.0, 10.000402, 9.999386 
7.850106e+2, 2.9453447e+2, -42747.72, -113177.53, -48472.203, 0.000022586393, -0.28750288, -18048.984, 35490.12, 0.0, 10.000332, 9.999395 
7.8501236e+2, 3.045348e+2, -66423.33, -197301.27, -45671.99, -0.04570747, -0.15315437, -52061.363, -52061.363, 0.0, 10.000255, 9.998521 
7.850131e+2, 3.145333e+2, -32196.03, -112778.45, 2013.0183, -0.20831127, -0.16001852, -32145.773, -32145.773, 0.0, 10.000195, 9.99913 
7.949786e+2, 1.2454251e+2, -1762256.9, -1696152.3, -37533.445, 0.1874784, -0.23046203, -1679192.5, 40268.96, 0.0000000034592607, 9.999498, 10.000368 
7.9498047e+2, 1.3454282e+2, -1657835.5, -1636336.9, 64200.16, 0.0152139375, -0.20388028, -1581992.4, 39463.16, 0.0, 9.999711, 10.0000105 
7.9498446e+2, 1.4454171e+2, -1550184.0, -1567850.1, 20251.46, 0.11646572, -0.29647127, -1536923.1, -13458.527, 0.0, 9.999928, 9.999697 
7.949858e+2, 1.5454161e+2, -1403900.3, -1444975.1, 30560.525, 0.027253862, -0.2818462, -1387617.4, 37847.883, 0.0, 10.000255, 9.999709 
7.9498696e+2, 1.6454123e+2, -1332247.1, -1427465.6, -6385.8794, -0.037923306, -0.26266298, -1331820.8, -4350.9023, 0.0, 10.000366, 9.999103 
7.949884e+2, 1.7454053e+2, -1252794.3, -1339778.8, -38720.8, -0.038563106, -0.24316564, -1238055.3, -8576.704, 0.0, 10.000245, 9.99909 
7.9499e+2, 1.8453966e+2, -1172196.3, -1227042.9, -35767.348, -0.041916523, -0.248328, -1154549.3, -23061.35, 0.0, 10.000025, 9.999297 
7.949917e+2, 1.9453856e+2, -1119377.4, -1147039.1, -19248.457, -0.058903333, -0.2949675, -1109506.0, -76008.07, 0.0, 9.9997, 9.99933 
7.949934e+2, 2.0453793e+2, -1032677.3, -1061043.9, -13168.231, -0.07543111, -0.28559163, -1027506.9, -92002.43, 0.0, 9.99965, 9.999271 
7.9499525e+2, 2.1453792e+2, -891430.94, -940192.1, -20393.904, -0.08706235, -0.21993466, -884025.94, -46519.082, 0.0, 9.999938, 9.9992895 
7.949971e+2, 2.2453743e+2, -792428.44, -854692.75, -39486.805, -0.074101135, -0.19018419, -773277.25, -33764.1, 0.0, 10.000001, 9.999173 
7.9499894e+2, 2.3453641e+2, -721067.4, -767099.56, -31568.629, -0.03249773, -0.21550092, -705015.3, -63491.184, 0.0, 9.999808, 9.999195 
7.9500043e+2, 2.4453568e+2, -607650.75, -612368.0, -17453.28, -0.047026295, -0.22622855, -592397.5, -48866.605, 0.0, 9.9997015, 9.999635 
7.950014e+2, 2.5453538e+2, -508326.84, -508536.06, -21198.162, -0.12868252, -0.22799754, -487233.03, -41700.86, 0.0, 9.999687, 9.999681 
7.9500335e+2, 2.6453486e+2, -423994.53, -474167.66, -15979.967, -0.124851115, -0.22356172, -419337.28, -71800.97, 0.0, 9.999839, 9.999173 
7.9500645e+2, 2.7453402e+2, -271465.03, -349833.03, -13182.664, -0.018165318, -0.22765239, -269306.94, -19762.559, 0.0, 10.000213, 9.999174 
7.950086e+2, 2.8453305e+2, -184013.58, -316971.4, -20965.213, -0.01430495, -0.21590985, -180786.06, -29230.588, 0.0, 10.000399, 9.998637 
7.950095e+2, 2.9453203e+2, -99328.836, -228269.89, -49212.023, -0.1364493, -0.18452504, -82692.81, -29123.838, 0.0, 10.000319, 9.998611 
7.950111e+2, 3.045321e+2, -13777.315, -84402.69, -48847.508, -0.19848262, -0.06940528, 11184.907, 11184.907, 0.0, 10.00024, 9.999304 
7.950145e+2, 3.1452984e+2, 47883.168, 55875.145, 635.76013, -0.08611608, -0.23525909, 55925.402, 55925.402, 0.0, 10.000184, 10.000294 
8.049787e+2, 1.24540366e+2, -1596402.4, -1634571.9, -29475.26, 0.18675503, -0.2367238, -1580372.8, 139110.66, 0.0000000057252847, 10.000714, 10.000206 
8.049805e+2, 1.3454102e+2, -1569233.1, -1613396.9, 35766.676, 0.015679931, -0.15798573, -1549280.9, 72194.22, 0.0, 10.000407, 9.999831 
8.049844e+2, 1.4453994e+2, -1533766.1, -1550119.5, -26771.684, 0.111862555, -0.24220349, -1513950.3, 9533.605, 0.0, 10.000001, 9.999782 
8.049858e+2, 1.5453935e+2, -1493561.5, -1477964.4, -32819.56, 0.04354265, -0.28579664, -1452029.5, -26541.443, 0.0, 9.999597, 9.9998 
8.049872e+2, 1.6453876e+2, -1467888.5, -1515097.6, -49131.6, -0.01069479, -0.2812012, -1436985.4, -109490.72, 0.0, 9.99953, 9.998905 
8.049886e+2, 1.7453822e+2, -1322719.8, -1396855.1, -34289.223, -0.01717189, -0.22517338, -1309292.3, -79788.555, 0.0, 9.999866, 9.998881 
8.049901e+2, 1.8453747e+2, -1146198.8, -1187420.3, -15805.52, -0.03412925, -0.21939833, -1140836.1, -9324.297, 0.0, 10.000089, 9.999537 
8.0499154e+2, 1.9453642e+2, -1029419.94, -1074745.0, -10748.444, -0.072619855, -0.28640935, -1027000.2, 6519.1636, 0.0, 10.000194, 9.999588 
8.0499315e+2, 2.0453581e+2, -981058.2, -1061619.0, -5551.0786, -0.09044006, -0.27963597, -980677.5, -45151.863, 0.0, 10.000114, 9.999043 
8.049952e+2, 2.1453573e+2, -927513.44, -985020.6, -16084.274, -0.08112438, -0.19587107, -923320.5, -85790.04, 0.0, 9.99981, 9.9990425 
8.0499715e+2, 2.2453526e+2, -818645.56, -850025.7, -35260.418, -0.056579486, -0.15729141, -795741.9, -56205.066, 0.0, 9.999747, 9.999327 
8.04999e+2, 2.345344e+2, -684274.25, -730173.06, -31551.018, -0.013995456, -0.18411125, -668209.0, -26663.932, 0.0, 9.999978, 9.999366 
8.050005e+2, 2.4453355e+2, -567392.25, -635772.9, -26272.35, -0.037982352, -0.19817929, -558463.94, -14910.881, 0.0, 10.000162, 9.999253 
8.0500126e+2, 2.5453278e+2, -447346.34, -524957.3, -53173.72, -0.14281845, -0.2064932, -420323.97, 25236.625, 0.0, 10.000304, 9.999272 
8.050033e+2, 2.6453212e+2, -341584.44, -425611.53, -52868.523, -0.1413864, -0.20033082, -316068.6, 31498.123, 0.0, 10.000368, 9.999251 
8.050068e+2, 2.7453145e+2, -248666.27, -327320.47, -47372.715, -0.011200162, -0.1926753, -226423.92, 23147.867, 0.0, 10.000321, 9.999275 
8.0500895e+2, 2.8453052e+2, -217876.08, -348259.75, -38648.766, -0.003217259, -0.17840114, -207280.69, -55698.273, 0.0, 10.000231, 9.998503 
8.0500966e+2, 2.9452926e+2, -139947.7, -264274.22, -21545.182, -0.14527571, -0.15535916, -136319.89, -82721.33, 0.0, 10.000111, 9.998464 
8.0501103e+2, 3.0452904e+2, -42495.24, -89610.625, -19411.637, -0.21446785, -0.063643344, -35527.914, -35527.914, 0.0, 10.000007, 9.999381 
8.050146e+2, 3.145265e+2, 30554.207, 94607.11, -32893.145, -0.082842395, -0.26986504, 108489.836, 108489.836, 0.0, 9.999864, 10.000714 
8.149786e+2, 1.2453821e+2, -1631773.5, -1710368.0, -37605.86, 0.09954864, -0.24778579, -1616678.9, 102825.445, 0.000000004999778, 10.000726, 9.9996805 
8.1498075e+2, 1.3453849e+2, -1607529.5, -1691208.8, 23214.705, -0.0010906952, -0.15321854, -1601520.8, 19981.633, 0.0, 10.000402, 9.999298 
8.1498444e+2, 1.4453733e+2, -1542412.8, -1568007.5, -43856.27, 0.116735704, -0.21328217, -1509524.9, 13988.51, 0.0, 9.999999, 9.999661 
8.1498545e+2, 1.5453666e+2, -1499662.8, -1493602.9, -46835.574, 0.046935778, -0.25179654, -1449699.3, -24180.895, 0.0, 9.999607, 9.999689 
8.149869e+2, 1.6453618e+2, -1439145.8, -1456562.0, -38886.02, 0.006410633, -0.2504969, -1408004.8, -80481.07, 0.0, 9.999536, 9.999304 
8.1498903e+2, 1.7453592e+2, -1293120.4, -1334071.1, -21481.896, 0.03010531, -0.21017346, -1283918.9, -54390.016, 0.0, 9.999861, 9.999314 
8.149907e+2, 1.8453558e+2, -1136817.9, -1166897.6, -12597.29, 0.013688391, -0.19134498, -1132239.1, -706.7949, 0.0, 10.000082, 9.999681 
8.1499183e+2, 1.9453514e+2, -1020329.9, -1056025.0, -6479.381, -0.058901273, -0.21095636, -1019190.1, 14343.714, 0.0, 10.000193, 9.999717 
8.149934e+2, 2.0453449e+2, -999846.94, -1099469.8, -17486.328, -0.076995894, -0.20315917, -996866.75, -61326.004, 0.0, 10.00011, 9.998787 
8.149955e+2, 2.1453358e+2, -947958.1, -1026005.2, -27363.973, -0.027372537, -0.17168435, -939320.1, -101766.11, 0.0, 9.999804, 9.998765 
8.1499726e+2, 2.2453298e+2, -810915.25, -832984.9, -28546.191, -0.022867447, -0.14087339, -791345.3, -51783.355, 0.0, 9.9997425, 9.999446 
8.1499845e+2, 2.345327e+2, -675538.56, -710503.4, -22306.035, -0.07185507, -0.12151109, -664680.3, -23116.854, 0.0, 9.999971, 9.999504 
8.150002e+2, 2.4453177e+2, -614775.7, -732869.75, -21695.992, -0.08389754, -0.12092931, -610915.9, -67342.8, 0.0, 10.000155, 9.9985895 
8.150025e+2, 2.5453004e+2, -496942.1, -627344.0, -47260.42, -0.052996896, -0.15509823, -481615.34, -36022.695, 0.0, 10.0003, 9.998571 
8.1500447e+2, 2.6452896e+2, -334569.28, -410040.06, -54272.15, -0.061997283, -0.15767494, -306203.03, 41400.516, 0.0, 10.000363, 9.999361 
8.15006e+2, 2.745286e+2, -239955.9, -306452.7, -47704.22, -0.11677177, -0.13595842, -215056.66, 34547.777, 0.0, 10.000308, 9.999426 
8.1500816e+2, 2.845277e+2, -184460.48, -276764.72, -43922.746, -0.1080286, -0.15060723, -166900.56, -15287.988, 0.0, 10.00022, 9.999 
8.150109e+2, 2.9452613e+2, -105633.2, -192340.38, -24233.74, -0.028549643, -0.2087969, -99319.82, -45691.18, 0.0, 10.000107, 9.9989605 
8.150123e+2, 3.045256e+2, -88357.67, -183481.36, -23358.71, -0.094933875, -0.14208181, -82931.23, -82931.23, 0.0, 10.0, 9.998738 
8.150131e+2, 3.1452322e+2, 2107.6816, 39583.516, -37636.51, -0.2181415, -0.26212588, 62888.63, 62888.63, 0.0000000016901937, 9.9998455, 10.000346 
8.249791e+2, 1.2453633e+2, -1730819.0, -1771060.9, -43324.57, 0.11367419, -0.2185038, -1703171.0, 16352.763, 0.0000000017683296, 10.000105, 9.99956 
8.249812e+2, 1.3453603e+2, -1648253.1, -1726718.1, 38487.08, 0.01300373, -0.1686951, -1632527.0, -10998.836, 0.0, 10.000192, 9.999156 
8.2498455e+2, 1.445348e+2, -1519570.8, -1576562.5, -14115.774, 0.11739199, -0.22015041, -1516266.1, 7274.729, 0.0, 10.000239, 9.999488 
8.2498544e+2, 1.5453446e+2, -1409714.9, -1469753.4, -23915.25, 0.049886085, -0.20863594, -1401353.1, 24190.658, 0.0, 10.000309, 9.999514 
8.249868e+2, 1.6453414e+2, -1321678.3, -1375556.3, -16011.996, 0.00807229, -0.192684, -1317278.9, 10268.519, 0.0, 10.000239, 9.999518 
8.249889e+2, 1.7453383e+2, -1253263.9, -1289557.5, -14284.024, 0.023755278, -0.17879835, -1248316.5, -18765.057, 0.0, 10.000026, 9.999539 
8.249907e+2, 1.845335e+2, -1179523.3, -1212228.1, -25242.691, 0.010766695, -0.16048622, -1165799.1, -34244.313, 0.0, 9.999897, 9.999459 
8.24992e+2, 1.9453311e+2, -1084915.6, -1114537.3, -49200.76, -0.04622274, -0.15060984, -1048344.75, -14786.935, 0.0, 9.999868, 9.999471 
8.249936e+2, 2.0453234e+2, -1014162.75, -1093406.5, -63494.547, -0.059190497, -0.14691512, -978941.8, -43375.707, 0.0, 9.999957, 9.9989 
8.249956e+2, 2.1453114e+2, -882430.0, -979766.1, -43680.98, -0.016624069, -0.15853043, -865702.3, -28121.926, 0.0, 10.000191, 9.998896 
8.2499725e+2, 2.2453044e+2, -740033.3, -808137.7, -31501.666, -0.02185647, -0.13974726, -727696.8, 11891.65, 0.0, 10.000269, 9.999365 
8.249984e+2, 2.3453031e+2, -655032.3, -710852.9, -44505.42, -0.08487592, -0.09601262, -630409.6, 11179.696, 0.0, 10.000156, 9.999413 
8.250002e+2, 2.4452947e+2, -620006.8, -726296.0, -25077.512, -0.08972292, -0.08619908, -614387.2, -70788.8, 0.0, 10.000082, 9.99867 
8.250029e+2, 2.5452775e+2, -525840.9, -630927.3, 7661.7056, -0.025800759, -0.12832855, -525285.25, -79667.734, 0.0, 10.000058, 9.998663 
8.250049e+2, 2.6452664e+2, -389641.13, -445601.63, 21870.143, -0.038209103, -0.13299152, -382108.03, -34479.48, 0.0, 10.000025, 9.999279 
8.25006e+2, 2.7452627e+2, -294383.6, -342780.44, 8313.582, -0.13949847, -0.10506986, -292995.3, -43365.09, 0.0, 9.999978, 9.999334 
8.25008e+2, 2.845253e+2, -218828.6, -279324.56, -11174.252, -0.13330765, -0.12517783, -216830.58, -65192.055, 0.0, 9.999925, 9.999125 
8.250112e+2, 2.9452366e+2, -132764.89, -189990.23, -21268.861, -0.0036292383, -0.20583151, -125725.78, -72071.46, 0.0, 9.999855, 9.999098 
8.250125e+2, 3.045229e+2, -134185.86, -241888.23, -19279.531, -0.061567053, -0.15438116, -130838.7, -130838.7, 0.0, 9.999842, 9.998414 
8.250129e+2, 3.14521e+2, 1011.8169, 29720.834, -14089.016, -0.22075461, -0.19226123, 35479.813, 35479.813, 0.000000023716037, 9.999879, 10.00026 
8.349803e+2, 1.2453478e+2, -1710524.8, -1730224.1, -35722.4, 0.21046993, -0.14876765, -1683319.0, 36222.145, 0.000000000051048894, 10.000106, 9.999842 
8.349818e+2, 1.3453366e+2, -1626775.9, -1686865.1, 43028.527, 0.053752024, -0.20675889, -1604340.6, 17211.668, 0.0, 10.000208, 9.999423 
8.349847e+2, 1.4453235e+2, -1536304.8, -1613003.6, -13195.466, 0.10771352, -0.26674768, -1534098.0, -10531.94, 0.0, 10.000249, 9.999232 
8.349858e+2, 1.5453275e+2, -1428688.0, -1507566.5, -21049.033, 0.047692873, -0.15683399, -1423422.5, 2141.616, 0.0, 10.000303, 9.999256 
8.3498687e+2, 1.6453265e+2, -1319503.3, -1370578.4, -24375.35, -0.011325453, -0.1056642, -1309737.5, 17828.021, 0.0, 10.000235, 9.999556 
8.349883e+2, 1.7453203e+2, -1248843.9, -1282935.6, -21295.148, -0.040773068, -0.12937354, -1238612.6, -9041.822, 0.0, 10.000035, 9.999581 
8.3498996e+2, 1.8453129e+2, -1222137.4, -1300748.8, -27735.03, -0.048694327, -0.12725206, -1213337.3, -81758.2, 0.0, 9.999898, 9.998851 
8.3499193e+2, 1.9453035e+2, -1130511.8, -1207448.4, -50309.75, -0.03901349, -0.10655289, -1105648.5, -72057.39, 0.0, 9.999861, 9.9988365 
8.349938e+2, 2.045294e+2, -981079.4, -1023132.8, -56462.88, -0.04116672, -0.11071384, -941855.1, -6253.8276, 0.0, 9.9999485, 9.999388 
8.349955e+2, 2.1452841e+2, -844568.75, -900602.44, -34877.797, -0.053092375, -0.1563032, -827848.56, 9760.683, 0.0, 10.000187, 9.999441 
8.349972e+2, 2.2452769e+2, -761512.5, -851782.94, -36508.797, -0.057473894, -0.15435027, -748595.3, -8979.06, 0.0, 10.000264, 9.999067 
8.3499885e+2, 2.3452726e+2, -678866.1, -759893.7, -48704.887, -0.055286437, -0.10719066, -656027.5, -14405.12, 0.0, 10.000154, 9.999078 
8.3500063e+2, 2.4452668e+2, -562609.1, -606398.5, -27003.492, -0.058421228, -0.09206393, -549739.4, -6110.8267, 0.0, 10.000078, 9.9994955 
8.3500254e+2, 2.545259e+2, -465258.5, -503473.34, 7790.9863, -0.06817805, -0.12591697, -463731.16, -18096.264, 0.0, 10.000051, 9.999542 
8.350045e+2, 2.6452518e+2, -409747.97, -486531.72, 19666.242, -0.07663025, -0.12754478, -405004.03, -57362.348, 0.0, 10.000019, 9.999001 
8.3500654e+2, 2.7452445e+2, -318632.56, -392318.34, 7485.531, -0.08175568, -0.103440106, -317879.84, -68230.44, 0.0, 9.999973, 9.998998 
8.3500844e+2, 2.8452337e+2, -237890.39, -317111.97, -13504.919, -0.08196267, -0.10308306, -235651.47, -83991.14, 0.0, 9.999917, 9.998868 
8.3501023e+2, 2.945219e+2, -151701.23, -226259.3, -22067.479, -0.08031033, -0.14145094, -145659.38, -91984.18, 0.0, 9.999843, 9.998855 
8.350118e+2, 3.0452096e+2, -134691.7, -241675.3, -18061.004, -0.123244174, -0.09575547, -131724.92, -131724.92, 0.0, 9.999834, 9.99842 
8.3501405e+2, 3.145196e+2, 12779.438, 56047.215, -12039.611, -0.10131946, -0.08013676, 59171.707, 59171.707, 0.00000010288848, 9.999869, 10.000446 
8.4498054e+2, 1.2453247e+2, -1771340.3, -1743642.4, -31405.256, 0.2544629, -0.139417, -1723168.1, -3601.9487, 0.0, 9.999618, 9.999986 
8.449819e+2, 1.3453178e+2, -1648141.0, -1678742.5, 31704.186, 0.054069247, -0.17000262, -1628238.5, -6665.177, 0.0, 9.999986, 9.999582 
8.449846e+2, 1.4453074e+2, -1542500.6, -1611134.4, -23059.553, 0.07970446, -0.21469367, -1535472.8, -11888.259, 0.0, 10.000186, 9.999274 
8.449859e+2, 1.5453102e+2, -1434042.8, -1505808.5, -8269.872, 0.03481346, -0.119783655, -1433102.1, -7518.8984, 0.0, 10.000249, 9.999293 
8.4498703e+2, 1.6453071e+2, -1329506.5, -1401276.1, -13515.381, -0.014674563, -0.08111751, -1327045.6, 541.0348, 0.0, 10.0002775, 9.999325 
8.449884e+2, 1.7452975e+2, -1232887.3, -1302809.1, -34950.375, -0.045848947, -0.11563037, -1218413.4, 11182.278, 0.0, 10.000264, 9.999334 
8.4499e+2, 1.8452881e+2, -1190503.0, -1286875.0, -32596.963, -0.049240783, -0.117257394, -1180512.9, -48907.035, 0.0, 10.000118, 9.998841 
8.4499186e+2, 1.9452794e+2, -1138009.4, -1210935.5, -7646.9146, -0.028172348, -0.09073367, -1137216.1, -103598.53, 0.0, 9.999807, 9.998839 
8.449937e+2, 2.0452715e+2, -987337.2, -997080.25, 21291.436, -0.03354776, -0.090690665, -970367.06, -34741.348, 0.0, 9.999779, 9.999648 
8.4499544e+2, 2.1452644e+2, -841661.0, -868859.9, 21476.725, -0.0672087, -0.13652156, -829840.06, 7789.7007, 0.0, 10.000075, 9.999712 
8.449972e+2, 2.245257e+2, -776357.0, -866042.56, 5078.482, -0.0702492, -0.1462556, -776070.3, -36433.93, 0.0, 10.000194, 9.999002 
8.4499913e+2, 2.3452498e+2, -692762.8, -776109.75, 9493.517, -0.039358266, -0.122633405, -691695.2, -50049.176, 0.0, 10.000099, 9.998993 
8.450008e+2, 2.445245e+2, -561093.1, -587579.56, 19616.566, -0.04730714, -0.10072464, -550668.0, -7016.615, 0.0, 10.0000105, 9.999657 
8.450022e+2, 2.5452432e+2, -471543.06, -486870.5, -955.6613, -0.10165538, -0.09262521, -471483.7, -25831.973, 0.0, 9.999924, 9.999717 
8.450042e+2, 2.6452368e+2, -438259.16, -515269.38, -8569.47, -0.10736896, -0.0856222, -437317.1, -89659.484, 0.0, 9.999889, 9.998865 
8.4500676e+2, 2.745225e+2, -334108.0, -416094.0, -8295.482, -0.053443745, -0.09129263, -333277.06, -83606.766, 0.0, 9.99994, 9.998848 
8.4500873e+2, 2.845214e+2, -225413.64, -330042.22, -14866.204, -0.053007063, -0.080644004, -223342.38, -71659.77, 0.0, 10.000087, 9.998696 
8.450099e+2, 2.945203e+2, -94557.836, -217593.95, -19932.371, -0.11855375, -0.06381057, -91409.28, -37714.51, 0.0, 10.000318, 9.998684 
8.4501135e+2, 3.0451912e+2, -84621.38, -207148.88, -22993.717, -0.16231684, -0.038496576, -80448.46, -80448.46, 0.00000000024035085, 10.000135, 9.99851 
8.4501404e+2, 3.14518e+2, -34993.75, 51831.22, -16078.986, -0.06457755, -0.008404378, 54713.2, 54713.2, 0.00000026211356, 9.99946, 10.000614 
8.5497993e+2, 1.2452946e+2, -1771752.0, -1746822.4, -18673.318, 0.22360283, -0.1915656, -1736835.8, -17237.273, 0.0, 9.999628, 9.999959 
8.549815e+2, 1.3453043e+2, -1647971.1, -1677611.4, 44768.523, 0.012639865, -0.056624938, -1615633.4, 5957.3423, 0.0, 9.999983, 9.999592 
8.5498434e+2, 1.4452998e+2, -1516392.9, -1557057.3, -21621.12, 0.02902032, -0.060815744, -1507045.6, 16550.057, 0.0, 10.000184, 9.999647 
8.549859e+2, 1.5452933e+2, -1405704.0, -1450786.6, -4266.005, 0.0039387443, -0.0975103, -1405303.9, 20297.084, 0.0, 10.000262, 9.999666 
8.5498744e+2, 1.6452834e+2, -1366329.9, -1478604.4, -14674.342, -0.009562727, -0.12147677, -1364443.6, -36832.754, 0.0, 10.000282, 9.998792 
8.549892e+2, 1.7452694e+2, -1272596.3, -1384666.6, -35301.55, 0.006584038, -0.13947377, -1262403.5, -32777.3, 0.0, 10.000261, 9.998774 
8.5499066e+2, 1.8452612e+2, -1148738.1, -1199181.5, -44763.37, 0.005740106, -0.1311637, -1122579.9, 9055.291, 0.0, 10.0001135, 9.999446 
8.549918e+2, 1.9452593e+2, -1090972.4, -1114502.1, -19054.957, -0.017823236, -0.10336939, -1080343.0, -46705.992, 0.0, 9.999811, 9.999499 
8.549934e+2, 2.0452566e+2, -985978.25, -993250.44, 30193.084, -0.041048836, -0.088036306, -959203.1, -23564.053, 0.0, 9.999774, 9.999678 
8.549956e+2, 2.1452528e+2, -842605.9, -869584.0, 32840.824, -0.06260635, -0.09887797, -820591.75, 17049.813, 0.0, 10.00007, 9.999711 
8.549976e+2, 2.2452459e+2, -766575.75, -843972.94, 717.65497, -0.06412623, -0.113885075, -766569.1, -26920.752, 0.0, 10.000185, 9.999159 
8.549992e+2, 2.3452348e+2, -681338.94, -751923.9, 6566.409, -0.0413949, -0.14419693, -680733.3, -39073.254, 0.0, 10.000096, 9.999161 
8.550007e+2, 2.445229e+2, -597770.25, -663308.94, 15801.101, -0.06076276, -0.11475071, -594159.56, -50492.832, 0.0, 10.000008, 9.99914 
8.5500187e+2, 2.5452298e+2, -510934.78, -567343.2, -3720.7712, -0.12912036, -0.027773174, -510690.4, -65022.656, 0.0, 9.999917, 9.999168 
8.5500383e+2, 2.6452222e+2, -438502.75, -514149.63, -7786.211, -0.13292281, -0.004512044, -437709.63, -90033.72, 0.0, 9.999883, 9.998877 
8.5500664e+2, 2.7452052e+2, -333058.63, -411695.2, -5162.092, -0.060817882, -0.066786036, -332721.22, -83028.54, 0.0, 9.99993, 9.998883 
8.5500884e+2, 2.8451934e+2, -233026.03, -344544.4, -5999.761, -0.053278256, -0.05710951, -232704.17, -80998.93, 0.0, 10.00008, 9.9986 
8.550103e+2, 2.945188e+2, -103082.32, -233508.2, -9450.65, -0.124082, 0.02486992, -102401.086, -48687.83, 0.0, 10.000309, 9.99858 
8.550113e+2, 3.045173e+2, -73783.484, -183117.23, -46632.223, -0.18297727, 0.015442672, -56596.12, -56596.12, 0.0000000059514194, 10.000129, 9.998679 
8.5501295e+2, 3.1451598e+2, -26378.572, 73711.266, -40669.242, -0.12077101, 0.0072322744, 88152.63, 88152.63, 0.0000005093443, 9.999444, 10.000772 
8.649796e+2, 1.24527164e+2, -1620933.9, -1670864.5, -35919.637, 0.18381046, -0.15022789, -1602155.8, 117469.22, 0.00000000000000000000885557, 10.000652, 9.999984 
8.6498153e+2, 1.3452822e+2, -1646906.0, -1671004.5, 26332.393, 0.015554551, -0.013090584, -1629997.0, -8381.395, 0.0, 9.999966, 9.999645 
8.6498433e+2, 1.4452781e+2, -1590152.5, -1585394.6, -37710.25, 0.03861355, -0.019603979, -1549988.4, -26368.635, 0.0, 9.999647, 9.999712 
8.649859e+2, 1.5452696e+2, -1467632.8, -1473952.5, -46688.28, 0.0022818993, -0.080855034, -1423997.5, 1629.2288, 0.0, 9.999808, 9.999726 
8.649875e+2, 1.6452599e+2, -1415782.0, -1496587.8, -51003.477, -0.009519503, -0.10731598, -1391117.6, -63481.035, 0.0, 9.999914, 9.998847 
8.6498946e+2, 1.7452493e+2, -1313770.9, -1397121.0, -24612.229, 0.020465542, -0.09970649, -1307045.8, -77396.7, 0.0, 9.999947, 9.998839 
8.649908e+2, 1.8452424e+2, -1154931.0, -1177806.9, -26797.566, 0.016393015, -0.092399865, -1137232.4, -5575.961, 0.0, 9.999966, 9.999663 
8.649916e+2, 1.9452392e+2, -1052784.4, -1071393.3, -36092.145, -0.030266767, -0.09916666, -1024816.7, 8841.29, 0.0, 9.999967, 9.999721 
8.6499304e+2, 2.0452371e+2, -990483.6, -1008474.0, -4362.8423, -0.054928202, -0.083577015, -989481.44, -53822.15, 0.0, 9.999799, 9.999561 
8.649954e+2, 2.1452366e+2, -946596.0, -934555.94, -12659.916, -0.053960487, -0.05019679, -926557.6, -88897.45, 0.0, 9.999419, 9.999578 
8.649974e+2, 2.2452308e+2, -860363.2, -866803.4, -37937.93, -0.059587076, -0.052032374, -825508.94, -85843.27, 0.0, 9.999445, 9.999358 
8.649989e+2, 2.3452193e+2, -687465.9, -730006.2, -30346.287, -0.07258493, -0.10956127, -671677.75, -30000.938, 0.0, 9.9999485, 9.999381 
8.650005e+2, 2.4452119e+2, -589757.6, -690383.8, -19094.133, -0.08954045, -0.09726194, -586256.3, -42571.176, 0.0, 10.000197, 9.998861 
8.650021e+2, 2.545209e+2, -498038.0, -594840.4, -21757.787, -0.111695886, -0.014450832, -493372.47, -47682.176, 0.0, 10.000152, 9.998865 
8.6500394e+2, 2.6452002e+2, -391524.28, -476084.8, -7104.125, -0.11875707, 0.0054573286, -390931.6, -43231.777, 0.0, 10.00014, 9.999013 
8.650062e+2, 2.7451843e+2, -290169.0, -373544.66, 3012.1387, -0.10707369, -0.058753878, -290060.3, -40345.81, 0.0, 10.00015, 9.99904 
8.6500835e+2, 2.845174e+2, -237510.63, -332081.0, 13215.88, -0.10471699, -0.05201579, -235698.47, -83973.3, 0.0, 9.999987, 9.998731 
8.6501026e+2, 2.9451692e+2, -189996.03, -260297.06, 24819.764, -0.11609946, 0.022952821, -182116.56, -128384.77, 0.0, 9.999648, 9.998713 
8.650114e+2, 3.045151e+2, -135737.72, -219349.55, -9753.741, -0.15942872, -0.021834526, -134614.98, -134614.98, 0.000000027135602, 9.999731, 9.998621 
8.6501265e+2, 3.1451416e+2, 78286.03, 103746.78, -27603.02, -0.13651702, 0.0137995165, 121413.59, 121413.59, 0.00000083365, 10.000249, 10.000591 
8.749797e+2, 1.24525614e+2, -1612780.4, -1655885.0, -59815.715, 0.11806409, -0.016243033, -1570752.6, 148892.58, 0.0000000055054987, 10.000658, 10.000085 
8.749819e+2, 1.3452516e+2, -1636718.8, -1652168.8, 1095.5697, 0.054382857, -0.042589143, -1636641.5, -14993.838, 0.0, 9.999973, 9.999772 
8.749846e+2, 1.445242e+2, -1610693.5, -1628890.8, -34054.887, 0.09967098, -0.0942874, -1584542.8, -60886.195, 0.0, 9.99965, 9.999412 
8.7498593e+2, 1.5452392e+2, -1488521.9, -1517404.8, -40180.813, 0.029076528, -0.06935911, -1460266.1, -34605.273, 0.0, 9.999808, 9.999429 
8.7498736e+2, 1.6452372e+2, -1367829.6, -1397385.9, -50872.637, -0.016155472, -0.036704354, -1329632.1, -1968.4082, 0.0, 9.999914, 9.999529 
8.749891e+2, 1.7452371e+2, -1262248.8, -1292140.9, -22898.795, -0.010131716, 0.0037933807, -1249849.9, -20185.71, 0.0, 9.999954, 9.9995575 
8.7499034e+2, 1.8452317e+2, -1167798.1, -1204400.8, -27869.213, -0.024519777, -0.0020031193, -1152758.4, -21089.086, 0.0, 9.999966, 9.999481 
8.749912e+2, 1.9452195e+2, -1068748.5, -1104093.0, -36019.57, -0.06912827, -0.07791255, -1046299.5, -12619.234, 0.0, 9.999965, 9.999498 
8.749926e+2, 2.0452134e+2, -1009809.8, -1046783.6, -19221.406, -0.07895388, -0.076872684, -1001627.8, -65941.82, 0.0, 9.999791, 9.999303 
8.7499493e+2, 2.1452154e+2, -964956.0, -972335.3, -26794.596, -0.04508059, 0.007985379, -941598.25, -103912.96, 0.0, 9.999417, 9.999321 
8.7499684e+2, 2.2452125e+2, -844881.3, -833572.7, -21862.504, -0.060916606, 0.036305066, -816645.1, -76956.89, 0.0, 9.99944, 9.99959 
8.749982e+2, 2.3452039e+2, -670615.4, -693455.6, -11040.193, -0.13542359, -0.016811375, -666151.4, -24455.49, 0.0, 9.999942, 9.999637 
8.750002e+2, 2.4451937e+2, -592388.0, -694454.44, -21041.557, -0.13731222, -0.04491, -588220.3, -44514.35, 0.0, 10.000191, 9.9988365 
8.750028e+2, 2.5451812e+2, -502068.1, -602018.5, -22580.01, -0.05460118, -0.05352591, -497203.72, -51484.56, 0.0, 10.000146, 9.998818 
8.7500465e+2, 2.645171e+2, -374963.6, -440555.84, -6445.916, -0.069633625, -0.058062155, -374336.16, -26606.814, 0.0, 10.000134, 9.99926 
8.750055e+2, 2.745163e+2, -272472.28, -334908.44, 4853.7964, -0.19736952, -0.067587376, -272097.2, -22361.42, 0.0, 10.000141, 9.99931 
8.750073e+2, 2.8451556e+2, -214139.25, -282173.22, 149.57309, -0.2122376, -0.06448372, -214138.92, -62396.61, 0.0, 9.99998, 9.999077 
8.7501013e+2, 2.9451466e+2, -166809.0, -209229.92, 13540.117, -0.098457284, -0.06818674, -162855.63, -109105.34, 0.0, 9.999636, 9.999069 
8.7501186e+2, 3.045125e+2, -156887.94, -260849.48, 9702.833, -0.09516381, -0.1491563, -155990.11, -155990.11, 0.00000006425192, 9.999721, 9.99834 
8.7501305e+2, 3.1451237e+2, 40931.063, 30066.629, -5621.295, -0.12612446, -0.005076054, 43316.004, 43316.004, 0.0000011924308, 10.000234, 10.000092 
8.8497984e+2, 1.2452345e+2, -1769394.8, -1734988.1, -33932.254, 0.12765439, 0.030048769, -1714147.4, 5520.792, 0.00000006865043, 9.999599, 10.000054 
8.8498193e+2, 1.3452247e+2, -1583550.5, -1627016.3, 11472.8955, 0.04675596, -0.04990659, -1580708.1, 40967.594, 0.0, 10.000342, 9.999766 
8.8498455e+2, 1.4452145e+2, -1491375.5, -1583872.1, -25706.041, 0.086833425, -0.1037431, -1484711.6, 38974.203, 0.0, 10.000524, 9.9993 
8.849861e+2, 1.5452154e+2, -1457388.4, -1514228.9, -17799.225, 0.04932287, -0.028476695, -1452274.8, -26587.6, 0.0, 10.000075, 9.999321 
8.849874e+2, 1.6452156e+2, -1368808.0, -1360558.8, -28937.656, 0.005469408, 0.014822506, -1335453.3, -7765.4624, 0.0, 9.99975, 9.999859 
8.8498867e+2, 1.745215e+2, -1293956.5, -1269501.4, -31403.01, -0.025220888, 0.017038152, -1248029.4, -18342.213, 0.0, 9.999572, 9.999898 
8.849899e+2, 1.845211e+2, -1222079.3, -1244687.8, -38388.04, -0.046702147, 0.012369364, -1193365.6, -61674.82, 0.0, 9.999652, 9.999357 
8.8499117e+2, 1.945202e+2, -1067439.0, -1119032.6, -41311.223, -0.06643752, -0.013525395, -1044531.7, -10831.777, 0.0, 10.000041, 9.999358 
8.8499266e+2, 2.0451944e+2, -945735.94, -1016925.0, -25223.322, -0.07419001, -0.022201825, -937704.94, -1997.2155, 0.0, 10.000236, 9.999292 
8.849945e+2, 2.145188e+2, -853288.5, -918754.94, -15655.27, -0.0645624, -0.020987505, -849737.44, -12023.429, 0.0, 10.000185, 9.999318 
8.849963e+2, 2.2451843e+2, -761448.9, -789009.3, 4330.488, -0.087590665, -0.0025919597, -760784.5, -21066.916, 0.0, 9.999994, 9.999628 
8.8499784e+2, 2.3451842e+2, -711957.75, -709065.0, -2448.4128, -0.15048866, 0.025365923, -707667.6, -65949.76, 0.0, 9.999639, 9.999675 
8.85e+2, 2.4451771e+2, -657468.75, -684002.2, -4353.8545, -0.14777319, 0.010301775, -656772.56, -113048.27, 0.0, 9.999564, 9.999209 
8.850027e+2, 2.5451615e+2, -520319.88, -566909.2, 24765.273, -0.06783462, -0.06917591, -509615.13, -63876.79, 0.0, 9.999831, 9.999211 
8.850045e+2, 2.6451513e+2, -412630.44, -463778.16, 42268.84, -0.08042009, -0.09067589, -388801.1, -41053.332, 0.0, 9.999898, 9.999215 
8.8500535e+2, 2.745148e+2, -336522.7, -372676.75, 26502.545, -0.20045285, -0.05142624, -322519.16, -72767.66, 0.0, 9.999732, 9.999246 
8.850071e+2, 2.8451422e+2, -232690.06, -282128.8, 3655.401, -0.21787119, -0.031589475, -232421.25, -80664.72, 0.0, 9.999816, 9.999155 
8.850098e+2, 2.9451317e+2, -82831.27, -159381.42, -4719.1494, -0.11713007, -0.057256933, -82541.445, -28776.994, 0.0, 10.000171, 9.999155 
8.8501173e+2, 3.0451065e+2, -79049.734, -225975.77, -3084.9524, -0.1012644, -0.18145068, -78984.99, -78984.99, 0.00000010587227, 10.000266, 9.998318 
8.8501346e+2, 3.1451038e+2, -1434.5386, -18684.99, -2085.769, -0.097148284, -0.043699965, -1185.9291, -1185.9291, 0.0000015115112, 10.000066, 9.999837 
8.949801e+2, 1.2452071e+2, -1782685.8, -1763136.4, -9703.614, 0.18790878, -0.014026563, -1759137.8, -39444.152, 0.00000033567557, 9.999601, 9.999861 
8.9498174e+2, 1.3452017e+2, -1595896.6, -1653365.1, 39560.934, -0.0075977594, -0.030864153, -1575735.8, 45963.566, 0.00000000007521531, 10.000345, 9.999584 
8.9498425e+2, 1.4451954e+2, -1480738.3, -1565033.5, -42958.203, -0.00075196876, -0.043987505, -1462704.3, 61002.523, 0.0, 10.000535, 9.999426 
8.949863e+2, 1.5451986e+2, -1448041.8, -1496447.4, -34250.99, 0.05525061, 0.04080595, -1430305.3, -4599.945, 0.0, 10.00008, 9.999441 
8.949876e+2, 1.645195e+2, -1372359.3, -1367885.1, -36868.33, 0.046726633, 0.045022078, -1333186.1, -5477.575, 0.0, 9.999749, 9.999809 
8.9498824e+2, 1.7451833e+2, -1297501.1, -1276733.9, -37916.492, -0.027762093, -0.060041923, -1247804.9, -18087.338, 0.0, 9.999571, 9.999848 
8.9498955e+2, 1.8451802e+2, -1226613.9, -1253800.5, -26095.658, -0.05404383, -0.048615284, -1210783.4, -79062.66, 0.0, 9.99965, 9.999296 
8.9499164e+2, 1.9451876e+2, -1071257.1, -1127743.3, -26758.404, -0.025491232, 0.09293985, -1060594.1, -26877.389, 0.0, 10.000044, 9.999297 
8.9499325e+2, 2.0451802e+2, -929743.44, -982554.94, -28074.059, -0.04408926, 0.0783168, -917608.06, 18116.229, 0.0, 10.000231, 9.999532 
8.949942e+2, 2.1451546e+2, -836744.8, -882388.44, -17655.352, -0.11720434, -0.13642171, -830712.75, 7033.2, 0.0, 10.000176, 9.999572 
8.949957e+2, 2.2451468e+2, -772926.94, -811262.7, -9894.813, -0.14552212, -0.16704665, -770523.6, -30770.559, 0.0, 9.999987, 9.999479 
8.949978e+2, 2.3451604e+2, -724530.75, -734474.7, -15438.442, -0.121862285, 0.015500025, -713283.4, -71540.78, 0.0, 9.999635, 9.999503 
8.949998e+2, 2.4451625e+2, -605121.75, -574317.3, 4063.2385, -0.12437387, 0.065573655, -573790.4, -30050.287, 0.0, 9.999559, 9.999966 
8.9500165e+2, 2.5451502e+2, -464594.97, -449311.1, 35928.977, -0.15614171, -0.060460214, -420220.34, 25527.266, 0.0, 9.999823, 10.000024 
8.950037e+2, 2.645142e+2, -436290.34, -511844.56, 35739.313, -0.15667926, -0.08987135, -422063.53, -74308.75, 0.0, 9.999892, 9.998888 
8.9500594e+2, 2.745139e+2, -365600.94, -430747.66, 21349.123, -0.120895274, -0.00927586, -359228.06, -109466.63, 0.0, 9.999722, 9.998853 
8.9500785e+2, 2.8451335e+2, -247558.7, -310769.44, 16995.332, -0.12585442, 0.04714999, -243278.97, -91511.35, 0.0, 9.999805, 9.998963 
8.950094e+2, 2.9451248e+2, -95987.72, -185506.64, 11151.992, -0.17933765, 0.055180296, -94619.35, -40845.168, 0.0, 10.000165, 9.998979 
8.950112e+2, 3.0450946e+2, -64405.348, -195593.38, -10232.861, -0.185216, -0.11924691, -63611.97, -63611.97, 0.00000013409642, 10.000265, 9.998527 
8.950139e+2, 3.145081e+2, -5820.521, -22383.105, -7756.053, -0.061398536, -0.11156668, -2755.6174, -2755.6174, 0.0000016978646, 10.000042, 9.999823 
9.049799e+2, 1.24517545e+2, -1629420.4, -1700714.1, -29230.227, 0.14743923, -0.06838261, -1618968.4, 100755.92, 0.0000010657902, 10.000698, 9.999762 
9.049819e+2, 1.3451794e+2, -1645009.5, -1684130.1, 26308.324, -0.0068245223, 0.014920619, -1631786.6, -10063.654, 0.000000007369457, 10.000037, 9.999521 
9.0498435e+2, 1.4451756e+2, -1566848.3, -1577816.1, -48545.496, -0.0015701695, 0.019724874, -1523477.9, 250.10628, 0.0, 9.999823, 9.99968 
9.0498614e+2, 1.5451732e+2, -1417579.9, -1452586.6, -31794.37, 0.033113223, 0.020960007, -1398789.4, 26940.777, 0.0, 10.000162, 9.999704 
9.049875e+2, 1.6451679e+2, -1280210.1, -1337509.3, -26587.744, 0.025051644, -0.0010758713, -1269773.9, 57960.78, 0.0, 10.000442, 9.999685 
9.0498835e+2, 1.745159e+2, -1148242.4, -1219389.6, -35573.668, -0.027928231, -0.06367332, -1133507.3, 96234.72, 0.0, 10.00066, 9.999716 
9.049896e+2, 1.8451568e+2, -1123764.0, -1191575.8, -31474.277, -0.04092585, -0.0408139, -1111407.1, 20337.525, 0.0, 10.000304, 9.999406 
9.0499145e+2, 1.945163e+2, -1177460.1, -1166021.8, -20201.533, -0.00740125, 0.07569682, -1150745.4, -117003.53, 0.0, 9.99926, 9.999413 
9.0499294e+2, 2.0451581e+2, -1101918.5, -1035148.94, 7529.9756, -0.027338363, 0.06784394, -1034310.3, -98563.54, 0.0, 9.998918, 9.999804 
9.04994e+2, 2.1451399e+2, -926738.8, -894575.94, 18580.791, -0.11189996, -0.10156039, -886083.8, -48322.906, 0.0, 9.999425, 9.99985 
9.0499556e+2, 2.2451334e+2, -811654.3, -828712.5, 20117.55, -0.14786987, -0.13293907, -798332.5, -58566.16, 0.0, 9.999716, 9.99949 
9.049974e+2, 2.3451413e+2, -707478.2, -726649.6, 24965.986, -0.12690566, -0.0075748293, -690320.94, -48559.754, 0.0, 9.999754, 9.999499 
9.049993e+2, 2.4451427e+2, -578468.5, -565188.25, 33895.51, -0.13532141, 0.036903467, -537288.56, 6470.8774, 0.0, 9.99976, 9.999931 
9.0500116e+2, 2.545136e+2, -481534.28, -461302.22, 893.9058, -0.17760512, -0.031574093, -461262.8, -15500.523, 0.0, 9.999724, 9.999989 
9.0500337e+2, 2.645128e+2, -452137.97, -524347.4, -24879.06, -0.17283988, -0.05334568, -444396.16, -96626.91, 0.0, 9.999805, 9.998843 
9.050059e+2, 2.7451193e+2, -324040.06, -416053.78, -15517.777, -0.1130108, -0.024629543, -321493.5, -71712.516, 0.0, 10.00003, 9.998806 
9.05008e+2, 2.8451133e+2, -195346.3, -296400.38, 6884.452, -0.1140094, 0.030467467, -194879.44, -43091.215, 0.0, 10.000209, 9.998869 
9.0500957e+2, 2.945109e+2, -77466.484, -186349.1, 5251.754, -0.18764177, 0.0965424, -77213.76, -23422.648, 0.0, 10.000337, 9.998889 
9.050114e+2, 3.0450806e+2, -18267.975, -151049.39, -20759.482, -0.19905378, -0.065804936, -15098.046, -15098.046, 0.0000001316986, 10.000488, 9.998724 
9.050141e+2, 3.1450662e+2, 78623.51, 13046.634, -24232.146, -0.07371836, -0.08891993, 86606.125, 86606.125, 0.0000016698094, 10.000643, 9.999778 
9.14979e+2, 1.2451397e+2, -1622157.9, -1692328.6, -53513.46, -0.0099051595, -0.13377422, -1593253.6, 126506.55, 0.000002613721, 10.000725, 9.999808 
9.149825e+2, 1.345158e+2, -1638900.0, -1671428.6, 848.86304, 0.041574024, 0.08605058, -1638877.9, -17131.87, 0.00000007607973, 10.000036, 9.99961 
9.14985e+2, 1.4451557e+2, -1542125.8, -1525835.4, -37892.63, 0.0747191, 0.084657736, -1495222.4, 28526.547, 0.0, 9.999819, 10.000038 
9.149858e+2, 1.5451398e+2, -1390106.4, -1396175.0, -18091.166, -0.021496445, -0.08710603, -1374796.8, 50964.223, 0.0, 10.000165, 10.00009 
9.149871e+2, 1.6451345e+2, -1291947.6, -1364187.3, -19677.477, -0.06372541, -0.1211045, -1286935.5, 40829.934, 0.0, 10.000449, 9.999499 
9.14989e+2, 1.7451425e+2, -1162873.1, -1250903.4, -27318.293, -0.030400561, 0.006631932, -1155084.6, 74675.2, 0.0, 10.000664, 9.999499 
9.1499025e+2, 1.8451414e+2, -1104109.1, -1150839.4, -70159.49, -0.012616285, 0.03577462, -1053526.4, 78235.88, 0.0, 10.000304, 9.999686 
9.1499066e+2, 1.9451286e+2, -1156777.5, -1122296.3, -59810.457, -0.0170112, -0.065560766, -1077291.1, -43516.31, 0.0, 9.999256, 9.999715 
9.149918e+2, 2.0451286e+2, -1082961.4, -994256.2, 22557.25, -0.02987041, -0.05348179, -988849.56, -53074.996, 0.0, 9.99891, 10.000089 
9.1499406e+2, 2.145144e+2, -906961.4, -852494.9, 37806.46, -0.05223153, 0.0834928, -833134.4, 4624.2544, 0.0, 9.99942, 10.000142 
9.1499573e+2, 2.2451447e+2, -800747.44, -805180.6, 20770.525, -0.09740801, 0.09955993, -782075.56, -42318.4, 0.0, 9.999711, 9.999655 
9.1499674e+2, 2.3451273e+2, -697190.0, -703609.94, 26849.201, -0.16970664, -0.042819068, -673359.56, -31586.305, 0.0, 9.999746, 9.999662 
9.149986e+2, 2.4451181e+2, -636838.06, -685228.2, 32032.143, -0.18726401, -0.073682964, -620890.2, -77108.19, 0.0, 9.999754, 9.99911 
9.150013e+2, 2.5451186e+2, -544428.4, -590293.75, 464.68286, -0.13779542, 0.0180588, -544423.6, -98641.62, 0.0, 9.999717, 9.999106 
9.1500354e+2, 2.6451096e+2, -436605.22, -491047.06, -16870.453, -0.13282557, 0.018476633, -431801.3, -84010.375, 0.0, 9.9998, 9.999074 
9.150052e+2, 2.7450892e+2, -303662.13, -373182.22, -5234.6045, -0.18175314, -0.09871593, -303270.2, -53460.086, 0.0, 10.000026, 9.999103 
9.150075e+2, 2.8450805e+2, -197103.63, -298472.47, 10824.443, -0.18973503, -0.08177663, -195960.66, -44142.367, 0.0, 10.000202, 9.998858 
9.1501033e+2, 2.945085e+2, -82192.664, -191306.08, 11337.957, -0.14868452, 0.070519164, -81026.99, -27212.19, 0.0, 10.000315, 9.998865 
9.150125e+2, 3.0450648e+2, -6126.621, -122961.18, -14468.52, -0.1472625, -0.018289367, -4361.5396, -4361.5396, 0.00000009563079, 10.000474, 9.998924 
9.150141e+2, 3.145057e+2, 75597.37, 7393.912, -14762.419, -0.14470111, 0.010020205, 78655.52, 78655.52, 0.0000014046396, 10.000639, 9.999742 
9.2497957e+2, 1.2451201e+2, -1640983.8, -1700524.8, -32842.2, -0.01919397, -0.077707425, -1626427.1, 93354.55, 0.0000053718704, 10.000599, 9.999808 
9.2498267e+2, 1.3451326e+2, -1587454.9, -1644803.5, 10767.169, 0.039390795, 0.08049272, -1585500.0, 36272.598, 0.00000033393198, 10.000383, 9.999624 
9.249849e+2, 1.4451294e+2, -1474597.8, -1476970.0, -14888.519, 0.061142404, 0.063352264, -1460848.3, 62927.74, 0.0, 10.000215, 10.000183 
9.249858e+2, 1.5451193e+2, -1384226.9, -1374839.5, -13579.23, -0.029241236, -0.065657035, -1365165.6, 60616.84, 0.0, 10.00013, 10.000251 
9.2498726e+2, 1.6451174e+2, -1367109.0, -1387006.5, -20536.463, -0.0610496, -0.080821395, -1354238.4, -26454.428, 0.0, 9.999882, 9.999614 
9.249892e+2, 1.7451254e+2, -1332775.4, -1321136.6, -5095.662, -0.011931046, 0.038630374, -1319221.0, -89442.125, 0.0, 9.999449, 9.999602 
9.2499036e+2, 1.8451242e+2, -1178308.3, -1163614.3, -32505.135, -0.002160387, 0.05228217, -1137636.1, -5855.0894, 0.0, 9.999696, 9.999892 
9.2499036e+2, 1.9451113e+2, -921999.44, -984892.0, -31002.256, -0.04579902, -0.07290773, -909286.8, 124505.414, 0.0, 10.000765, 9.99993 
9.2499137e+2, 2.0451121e+2, -808496.0, -870715.8, 24786.934, -0.061692286, -0.0587114, -799828.8, 135961.69, 0.0, 10.0008335, 10.000009 
9.249937e+2, 2.14513e+2, -874177.8, -847611.8, 8736.878, -0.04331207, 0.1123137, -844996.06, -7222.8574, 0.0, 9.999693, 10.000044 
9.2499554e+2, 2.2451301e+2, -867219.06, -842754.5, -9596.201, -0.06796999, 0.13119042, -839439.56, -99667.12, 0.0, 9.999281, 9.999603 
9.249968e+2, 2.3451088e+2, -700363.75, -710434.94, -20969.47, -0.14452499, -0.04616217, -683833.7, -42041.98, 0.0, 9.999748, 9.999613 
9.249986e+2, 2.4450977e+2, -609500.6, -688621.56, -8330.31, -0.17263958, -0.08771736, -608633.06, -64830.664, 0.0, 10.000012, 9.998963 
9.2500114e+2, 2.5450987e+2, -506753.5, -589215.2, 12590.589, -0.14281991, 0.024366146, -504873.97, -59071.19, 0.0, 10.000049, 9.998955 
9.250033e+2, 2.6450893e+2, -389952.47, -466986.72, 24149.342, -0.15230812, 0.0327981, -383007.97, -35196.566, 0.0, 10.0001135, 9.999089 
9.250051e+2, 2.7450687e+2, -275728.13, -356645.34, 13911.224, -0.20800081, -0.09250556, -273403.3, -23573.51, 0.0, 10.000205, 9.999129 
9.250074e+2, 2.845057e+2, -208470.67, -310014.88, 11538.313, -0.2093213, -0.104010336, -207176.11, -55336.02, 0.0, 10.000151, 9.998803 
9.2501044e+2, 2.945056e+2, -143019.56, -226860.33, 6634.3286, -0.14530969, -0.0013586056, -142497.84, -88656.01, 0.0, 9.999923, 9.998812 
9.250129e+2, 3.0450386e+2, -56323.95, -141153.72, -5752.653, -0.13218088, -0.06295389, -55935.613, -55935.613, 0.00000004550982, 10.000103, 9.99898 
9.2501485e+2, 3.1450403e+2, 85363.13, -3765.4326, -19743.107, -0.13896209, 0.054084677, 89540.67, 89540.67, 0.0000009683944, 10.000774, 9.999599 
9.349814e+2, 1.2451168e+2, -1645818.9, -1710690.6, -40683.977, 0.09775597, 0.090267226, -1626223.4, 93565.61, 0.000009857008, 10.000599, 9.999739 
9.349825e+2, 1.3451038e+2, -1591979.0, -1656779.4, 3712.4475, -0.017099798, 0.00087769795, -1591767.1, 30034.693, 0.0000009955157, 10.000395, 9.9995365 
9.34984e+2, 1.4450975e+2, -1476110.0, -1485154.8, -20041.51, -0.0470983, -0.039781906, -1460087.0, 63721.035, 0.00000000002439963, 10.000234, 10.000119 
9.3498635e+2, 1.5451123e+2, -1389059.1, -1385135.0, -16707.965, 0.0052272715, 0.087474555, -1370274.3, 55519.285, 0.0, 10.00013, 10.000181 
9.3498796e+2, 1.6451167e+2, -1339033.3, -1327899.1, -37176.063, 0.027957119, 0.1207102, -1295875.6, 31914.148, 0.0, 9.999878, 10.000021 
9.3498904e+2, 1.7451084e+2, -1302996.8, -1258738.4, -21123.81, 0.022916231, 0.03169269, -1250274.8, -20476.137, 0.0, 9.999447, 10.000031 
9.349899e+2, 1.8451062e+2, -1170104.0, -1146650.0, 3925.378, -0.015803924, 0.009027373, -1146010.5, -14210.09, 0.0, 9.999695, 10.00001 
9.349906e+2, 1.9451115e+2, -913511.3, -968096.56, 9334.615, -0.097187884, 0.054256987, -911959.1, 121834.37, 0.0, 10.000768, 10.000045 
9.349916e+2, 2.0451093e+2, -839978.6, -936373.1, -16194.857, -0.12578963, 0.05298655, -837330.5, 98463.74, 0.0, 10.0008335, 9.999558 
9.349929e+2, 2.1450984e+2, -908878.6, -918484.25, -34398.586, -0.08991809, -0.01479885, -878949.2, -41144.934, 0.0, 9.999687, 9.999561 
9.349949e+2, 2.2450905e+2, -887934.06, -883933.44, 3834.192, -0.06555401, -0.037336312, -881609.1, -141797.38, 0.0, 9.999272, 9.999325 
9.3499744e+2, 2.3450862e+2, -720298.2, -750221.44, -2885.3523, -0.054822333, -0.017369388, -720022.5, -78206.13, 0.0, 9.999741, 9.999344 
9.349994e+2, 2.4450815e+2, -573203.44, -612434.8, -7134.251, -0.09464466, -0.0048252214, -571946.4, -28125.797, 0.0, 10.000008, 9.999489 
9.3500066e+2, 2.545076e+2, -467081.53, -506123.66, 15079.429, -0.19673356, -0.013558886, -461935.6, -16111.297, 0.0, 10.000044, 9.999529 
9.350026e+2, 2.6450688e+2, -404758.13, -496458.72, 26998.424, -0.2363806, -0.011192482, -397399.75, -49569.223, 0.0, 10.000108, 9.99889 
9.3500537e+2, 2.7450582e+2, -295161.03, -394011.03, 18528.887, -0.19844714, -0.0049756733, -291802.03, -41962.26, 0.0, 10.000193, 9.998879 
9.3500787e+2, 2.845043e+2, -215918.61, -323684.84, 3202.9595, -0.17898212, -0.034407604, -215823.5, -63970.277, 0.0, 10.000141, 9.998714 
9.3501e+2, 2.9450223e+2, -148292.63, -238386.58, 142.5688, -0.18330021, -0.12129393, -148292.4, -94420.35, 0.0, 9.999924, 9.998733 
9.350127e+2, 3.045002e+2, -64870.46, -157841.6, 17145.975, -0.16083784, -0.20256743, -61809.156, -61809.156, 0.000000010385675, 10.000099, 9.998866 
9.350163e+2, 3.1450152e+2, 62127.57, -44266.535, 8675.124, -0.073594876, 0.04006884, 62830.277, 62830.277, 0.00000050425, 10.000741, 9.999337 
9.4498205e+2, 1.24510214e+2, -1610573.9, -1682814.5, -14363.537, 0.09953599, 0.11326864, -1607822.8, 111982.02, 0.000016753027, 10.000793, 9.999838 
9.449829e+2, 1.3450876e+2, -1534982.4, -1617943.4, 37649.137, -0.030852087, -0.0004010321, -1520444.3, 101373.336, 0.000002343361, 10.00074, 9.999636 
9.449841e+2, 1.4450812e+2, -1455619.6, -1492294.3, 12108.923, -0.075691074, -0.03998657, -1451982.4, 71841.625, 0.0000000053592455, 10.000453, 9.999962 
9.449864e+2, 1.5450981e+2, -1433648.9, -1425923.0, 6011.8027, 0.01123333, 0.12532268, -1422640.0, 3169.7058, 0.0, 9.999908, 10.000008 
9.449879e+2, 1.6451035e+2, -1344330.4, -1307773.8, -15368.672, 0.03988576, 0.16894951, -1302171.3, 25634.252, 0.0, 9.999744, 10.000223 
9.449886e+2, 1.7450951e+2, -1200562.4, -1183825.6, -16575.393, 0.0036432128, 0.055648133, -1173625.9, 56187.47, 0.0, 10.000043, 10.0002575 
9.449896e+2, 1.8450937e+2, -1129154.6, -1127635.0, 10785.198, -0.030466104, 0.030195607, -1117582.9, 14230.678, 0.0, 9.999983, 9.999999 
9.449911e+2, 1.9451012e+2, -1099357.1, -1060709.3, 5537.098, -0.06439608, 0.10020528, -1059931.6, -26127.088, 0.0, 9.999506, 10.000016 
9.449922e+2, 2.0450966e+2, -1043945.6, -1056320.9, -35632.168, -0.083147205, 0.085029975, -1013967.8, -78160.04, 0.0, 9.999528, 9.999364 
9.449929e+2, 2.1450776e+2, -855129.9, -915429.6, -36303.03, -0.08404304, -0.043103073, -838089.44, -263.58847, 0.0, 10.000155, 9.999355 
9.4499457e+2, 2.245068e+2, -730395.7, -809213.8, 36145.445, -0.0742033, -0.07157941, -716329.8, 23505.168, 0.0, 10.000359, 9.999314 
9.449974e+2, 2.3450698e+2, -674887.1, -728145.4, 48882.266, -0.051813673, 0.009515076, -645851.3, -4018.0913, 0.0, 10.000052, 9.999346 
9.449995e+2, 2.445066e+2, -585505.8, -630664.44, 35277.36, -0.08200243, 0.036325246, -566200.56, -22364.203, 0.0, 9.999976, 9.999379 
9.45001e+2, 2.5450552e+2, -456938.75, -513996.2, 3760.5078, -0.17612328, -0.016867418, -456691.97, -10846.239, 0.0, 10.000169, 9.999414 
9.45003e+2, 2.6450455e+2, -397573.53, -497797.34, -11287.554, -0.2119274, -0.026585432, -396318.03, -48463.97, 0.0, 10.000177, 9.998848 
9.4500566e+2, 2.7450377e+2, -328459.56, -414005.97, -5710.966, -0.17542537, 0.008386732, -328079.97, -78219.06, 0.0, 9.99998, 9.998845 
9.4500816e+2, 2.8450236e+2, -224072.53, -332567.8, -1312.1332, -0.15925333, -0.007491287, -224056.67, -72183.484, 0.0, 10.000107, 9.998672 
9.450104e+2, 2.9450017e+2, -51895.0, -196362.03, -3384.7927, -0.1681218, -0.09844911, -51815.74, 2076.509, 0.0, 10.000606, 9.998693 
9.4501305e+2, 3.04498e+2, 24001.62, -128728.52, 19212.592, -0.16578424, -0.18713361, 26381.375, 26381.375, 0.00000000032400083, 10.000769, 9.998744 
9.450165e+2, 3.1449863e+2, 15346.377, -94613.88, 5804.511, -0.12169195, -0.0011178437, 15651.933, 15651.933, 0.00000016973306, 10.000542, 9.999087 
9.549815e+2, 1.245077e+2, -1587740.9, -1642040.8, -14168.054, -0.038342383, -0.0072322926, -1584266.5, 135561.92, 0.00002677623, 10.00082, 10.000106 
9.549839e+2, 1.3450852e+2, -1516094.6, -1578842.1, 35677.227, -0.0060202545, 0.07835968, -1499958.6, 121860.21, 0.0000047533053, 10.000738, 9.999907 
9.5498496e+2, 1.4450814e+2, -1474542.4, -1530129.8, -7999.8335, -0.029940154, 0.06273846, -1473414.0, 50409.242, 0.000000046136613, 10.000446, 9.999705 
9.5498604e+2, 1.5450774e+2, -1453387.3, -1467304.1, -13493.411, -0.01609429, 0.047024183, -1445163.8, -19333.344, 0.0, 9.99991, 9.999722 
9.54987e+2, 1.6450785e+2, -1344140.6, -1309294.9, -6419.515, -0.03164083, 0.06433358, -1308149.9, 19680.826, 0.0, 9.99975, 10.000211 
9.549879e+2, 1.7450862e+2, -1199184.5, -1182032.6, -4925.437, -0.07328975, 0.111608215, -1180718.8, 49103.523, 0.0, 10.000046, 10.000269 
9.549894e+2, 1.8450874e+2, -1139154.0, -1149090.9, -7331.417, -0.050361298, 0.117930554, -1135266.1, -3446.1753, 0.0, 9.999985, 9.999851 
9.549917e+2, 1.945081e+2, -1111260.5, -1084860.9, -12622.826, 0.04902977, 0.06523088, -1079796.8, -45972.023, 0.0, 9.999503, 9.999852 
9.549932e+2, 2.0450744e+2, -1041692.6, -1050436.6, -15452.356, 0.061829403, 0.037118506, -1030005.7, -94175.086, 0.0, 9.999522, 9.999408 
9.5499367e+2, 2.1450679e+2, -851502.94, -906670.25, -12529.75, -0.028952207, 0.02710421, -848790.5, -10952.737, 0.0, 10.00015, 9.999418 
9.549947e+2, 2.2450629e+2, -712895.5, -771609.2, 24610.027, -0.0979136, 0.029013937, -703944.7, 35897.082, 0.0, 10.000352, 9.999577 
9.549965e+2, 2.3450598e+2, -656100.06, -688592.56, 37796.094, -0.1403879, 0.033513267, -631206.44, 10635.469, 0.0, 10.000049, 9.9996195 
9.549989e+2, 2.445051e+2, -638942.44, -740352.6, 41112.188, -0.13984643, 0.033683605, -624369.5, -80519.91, 0.0, 9.999971, 9.998629 
9.55002e+2, 2.5450358e+2, -514985.88, -632662.2, 11926.391, -0.086382486, 0.01602005, -513789.3, -67922.64, 0.0, 10.00016, 9.998604 
9.5500445e+2, 2.6450208e+2, -389227.72, -479895.3, -18616.262, -0.08394097, -0.010216696, -385554.2, -37672.723, 0.0, 10.000174, 9.998974 
9.55006e+2, 2.745007e+2, -316137.72, -387828.7, -11868.197, -0.14417055, -0.05384444, -314224.06, -64330.973, 0.0, 9.999976, 9.999028 
9.550084e+2, 2.8449982e+2, -225438.45, -333142.63, 16118.066, -0.15547355, -0.026768195, -223078.08, -71178.016, 0.0, 10.000097, 9.9986725 
9.5501167e+2, 2.9449946e+2, -55168.88, -199238.14, 17247.287, -0.10800782, 0.067510076, -53132.887, 769.27545, 0.0, 10.000588, 9.998682 
9.55014e+2, 3.0449727e+2, 13617.207, -147852.55, 11686.009, -0.15416595, -0.014165092, 14458.572, 14458.572, 0.0, 10.000756, 9.99862 
9.5501524e+2, 3.1449535e+2, -3267.034, -129631.09, 1663.3102, -0.29579738, -0.07268344, -3245.1438, -3245.1438, 0.000000027453995, 10.000524, 9.998856 
9.6498185e+2, 1.2450625e+2, -1516130.1, -1605335.4, -11912.225, -0.11084569, -0.041846555, -1514566.8, 205275.58, 0.000040530904, 10.001306, 10.00012 
9.649846e+2, 1.3450758e+2, -1597115.5, -1618968.5, 8056.2476, 0.020295978, 0.09682254, -1594466.5, 27361.654, 0.000008656152, 10.000189, 9.999894 
9.649855e+2, 1.4450723e+2, -1573822.9, -1568423.5, -14660.036, 0.0077644116, 0.080908716, -1556216.6, -32384.637, 0.00000019058375, 9.999725, 9.999788 
9.64986e+2, 1.5450633e+2, -1429408.9, -1445532.8, 5705.453, -0.0145789785, 0.006336565, -1427594.1, -1751.2207, 0.0, 10.000032, 9.999811 
9.649868e+2, 1.6450627e+2, -1280102.1, -1297381.8, 36134.715, -0.04591463, 0.0092011625, -1251588.8, 76255.83, 0.0, 10.000275, 10.000038 
9.6498805e+2, 1.7450725e+2, -1151618.0, -1179364.9, 22674.1, -0.08113972, 0.09599537, -1138909.8, 90924.84, 0.0, 10.000462, 10.000086 
9.649896e+2, 1.8450731e+2, -1087341.0, -1138071.8, -9084.052, -0.047377374, 0.111561686, -1085763.5, 46069.785, 0.0, 10.0004015, 9.999726 
9.649916e+2, 1.9450627e+2, -1040890.8, -1064040.9, -14137.728, 0.066626444, 0.03141536, -1034194.1, -351.7392, 0.0, 10.000045, 9.999733 
9.649932e+2, 2.0450562e+2, -984379.06, -1030934.56, 12974.413, 0.08743872, 0.01379617, -981007.44, -45158.754, 0.0, 9.999952, 9.999333 
9.64994e+2, 2.1450546e+2, -851712.7, -914814.0, 5997.6104, -0.0041304706, 0.060434684, -851147.7, -13296.131, 0.0, 10.000184, 9.999346 
9.6499527e+2, 2.2450504e+2, -726990.06, -789535.3, 5234.7266, -0.07870909, 0.078016356, -726554.94, 13300.198, 0.0, 10.000304, 9.999476 
9.6499676e+2, 2.3450425e+2, -628872.0, -686704.3, -13526.462, -0.13374399, 0.04684927, -625864.6, 15995.09, 0.0, 10.000284, 9.999518 
9.649991e+2, 2.4450317e+2, -621831.94, -745835.75, 2491.9822, -0.12939766, 0.034551274, -621781.9, -77912.055, 0.0, 10.000148, 9.998506 
9.6500236e+2, 2.5450167e+2, -564406.1, -669617.75, 24066.322, -0.052110314, 0.035094786, -559162.5, -113275.99, 0.0, 9.99988, 9.998485 
9.650049e+2, 2.6450014e+2, -421734.25, -508073.0, 22272.361, -0.042885132, 0.015594784, -416327.38, -68425.25, 0.0, 10.000006, 9.998861 
9.6500653e+2, 2.7449852e+2, -235790.89, -361606.4, 5683.231, -0.11691314, -0.037245188, -235534.69, 14381.528, 0.0, 10.000582, 9.998917 
9.650089e+2, 2.844976e+2, -152827.77, -311387.22, 11626.37, -0.13856389, -0.0057830587, -151979.8, -55.595768, 0.0, 10.000653, 9.998554 
9.650121e+2, 2.9449734e+2, -127567.39, -247402.72, 1906.9297, -0.09632764, 0.11073479, -127537.055, -73611.61, 0.0, 10.000149, 9.998563 
9.650144e+2, 3.0449528e+2, -89647.75, -175150.56, 3969.6042, -0.14731552, 0.034526706, -89463.85, -89463.85, 0.0, 9.999952, 9.998819 
9.650156e+2, 3.144931e+2, -55775.727, -137962.22, 16671.58, -0.2958302, -0.06912792, -52522.65, -52522.65, 0.00000000015790982, 10.000091, 9.999008 
9.749829e+2, 1.24505885e+2, -1532403.1, -1637640.8, -45175.582, -0.13688992, 0.004722407, -1515670.8, 204175.64, 0.000058506626, 10.0013, 9.999902 
9.7498506e+2, 1.3450603e+2, -1617072.6, -1661603.5, -32587.014, 0.042624466, 0.054581624, -1599870.8, 21974.105, 0.00001444443, 10.000194, 9.9995985 
9.749854e+2, 1.4450547e+2, -1544142.6, -1508547.5, -5842.3223, 0.029981792, 0.0147915445, -1507613.1, 16236.636, 0.0000005546723, 9.999732, 10.000196 
9.749863e+2, 1.5450567e+2, -1397802.9, -1380293.4, 18210.584, 0.011959918, 0.004464488, -1368842.4, 57004.223, 0.0, 10.000033, 10.000259 
9.749875e+2, 1.6450566e+2, -1303654.9, -1346586.6, 42144.215, -0.007942932, 0.005545379, -1277824.8, 50021.71, 0.0, 10.000276, 9.999701 
9.7498906e+2, 1.7450543e+2, -1178425.8, -1235157.3, 29907.65, -0.022982877, 0.009766862, -1165571.5, 64277.965, 0.0, 10.000462, 9.999703 
9.7499025e+2, 1.845051e+2, -1094180.5, -1152483.3, -22908.146, -0.0264156, 0.0110721765, -1086256.5, 45596.535, 0.0, 10.0004015, 9.999628 
9.749909e+2, 1.9450465e+2, -1046565.4, -1075713.6, -27681.057, -0.015849624, -0.0018646908, -1029856.2, 4000.887, 0.0, 10.000043, 9.999655 
9.7499216e+2, 2.0450422e+2, -998591.5, -1059512.1, 18968.201, -0.011847578, 0.01505305, -993168.3, -57306.684, 0.0, 9.999948, 9.99914 
9.749941e+2, 2.1450381e+2, -866381.5, -944531.0, 14722.882, -0.013895169, 0.057090193, -863699.8, -25832.938, 0.0, 10.00018, 9.999145 
9.749961e+2, 2.2450306e+2, -760957.94, -858473.6, 3511.1348, -0.020884763, 0.07439711, -760831.7, -20956.822, 0.0, 10.000297, 9.999006 
9.7499806e+2, 2.3450188e+2, -664355.3, -758218.3, -13988.03, -0.034945514, 0.05069345, -662315.1, -20428.904, 0.0, 10.000275, 9.999032 
9.75e+2, 2.4450079e+2, -586940.4, -672267.75, -8257.394, -0.054182332, 0.041814025, -586148.6, -42252.26, 0.0, 10.000141, 9.999014 
9.75002e+2, 2.5449985e+2, -525264.56, -587307.5, 14706.057, -0.0787054, 0.038395334, -521955.28, -76050.086, 0.0, 9.999874, 9.999053 
9.7500443e+2, 2.644987e+2, -447644.28, -559824.06, 42726.56, -0.09418712, 0.0461449, -433224.34, -85308.08, 0.0, 9.999996, 9.99851 
9.750073e+2, 2.744974e+2, -265296.94, -421149.6, 29127.557, -0.09947449, 0.058483705, -260031.16, -10101.167, 0.0, 10.000574, 9.998511 
9.7500974e+2, 2.844958e+2, -170018.28, -347323.2, -5891.802, -0.11442949, 0.060057357, -169822.72, -17877.752, 0.0, 10.000652, 9.998309 
9.750118e+2, 2.9449385e+2, -145164.4, -281775.7, -15111.371, -0.1407192, 0.033948768, -143512.83, -89551.09, 0.0, 10.000137, 9.998333 
9.7501427e+2, 3.044919e+2, -57287.375, -104112.84, 8496.91, -0.1516934, -0.04090909, -55793.21, -55793.21, 0.0, 9.999934, 9.999317 
9.7501725e+2, 3.144917e+2, -23819.7, -65756.93, 25964.322, -0.13633558, -0.0033233513, -11414.239, -11414.239, 0.0, 10.000065, 9.999517 
9.8498416e+2, 1.2450573e+2, -1683839.4, -1716729.4, -16412.287, -0.092516795, 0.0366995, -1677050.8, 42797.938, 0.00008108169, 10.000287, 9.9998455 
9.8498523e+2, 1.3450542e+2, -1558891.0, -1646566.5, -4623.9683, 0.018135484, 0.0507112, -1558647.9, 63203.906, 0.000022462764, 10.000648, 9.999484 
9.8498505e+2, 1.4450468e+2, -1423327.9, -1464207.4, 22182.91, -0.026147977, 0.0050835223, -1413603.6, 110254.43, 0.0000013019285, 10.00062, 10.000073 
9.849865e+2, 1.54505e+2, -1391603.5, -1389679.8, 2619.9233, 0.01937324, 0.01916857, -1387850.8, 38002.42, 0.0, 10.000131, 10.000147 
9.849879e+2, 1.6450489e+2, -1384762.3, -1386881.6, 19271.664, 0.034601822, 0.01575227, -1366521.1, -38667.836, 0.0, 9.999725, 9.999689 
9.8498946e+2, 1.7450424e+2, -1330341.6, -1308950.9, 33476.55, 0.02050042, -0.0206959, -1284502.8, -54642.816, 0.0, 9.999421, 9.999698 
9.8499054e+2, 1.8450378e+2, -1216619.0, -1236017.1, 5438.524, -0.00092098356, -0.021082032, -1215198.3, -83333.44, 0.0, 9.999666, 9.999409 
9.84991e+2, 1.9450358e+2, -982851.44, -1070547.1, -11347.651, -0.034300227, 0.012296159, -981406.9, 52460.992, 0.0, 10.00059, 9.999427 
9.8499227e+2, 2.0450304e+2, -865757.8, -1007399.44, 20726.63, -0.04268584, 0.036084563, -862787.2, 73086.54, 0.0, 10.00091, 9.999034 
9.849944e+2, 2.1450211e+2, -826644.6, -936214.3, 21823.96, -0.019834276, 0.035707653, -822457.75, 15425.313, 0.0, 10.000499, 9.999047 
9.8499656e+2, 2.2450109e+2, -776968.8, -888235.25, 29088.139, -0.00061173417, 0.040443156, -769823.25, -29929.367, 0.0, 10.000283, 9.998808 
9.8499876e+2, 2.3449996e+2, -674575.8, -785752.3, 31470.336, 0.013535529, 0.04286223, -666285.8, -24379.607, 0.0, 10.000304, 9.998829 
9.8500067e+2, 2.4449898e+2, -544389.1, -640406.3, 33301.375, -0.0124713555, 0.0493938, -533969.94, 9945.828, 0.0, 10.000387, 9.999114 
9.8500216e+2, 2.5449812e+2, -421178.9, -524554.7, 19446.877, -0.08814206, 0.04531486, -417641.63, 28280.795, 0.0, 10.000534, 9.999166 
9.8500454e+2, 2.64497e+2, -383247.66, -554208.6, 44649.254, -0.11392033, 0.061296847, -372289.2, -24356.041, 0.0, 10.000548, 9.998282 
9.85008e+2, 2.7449563e+2, -304186.25, -466903.28, 41452.453, -0.078804314, 0.09376317, -294234.78, -44286.125, 0.0, 10.000426, 9.998266 
9.850106e+2, 2.8449383e+2, -204296.89, -353072.13, 8429.818, -0.08124954, 0.081782155, -203820.78, -51854.68, 0.0, 10.000374, 9.998403 
9.8501223e+2, 2.9449153e+2, -105264.58, -249802.98, 22472.666, -0.12828244, 0.0021029334, -101851.164, -47865.08, 0.0, 10.000359, 9.9984455 
9.850143e+2, 3.0448988e+2, -37952.69, -71050.61, 49766.797, -0.14082772, -0.05779118, -2055.4673, -2055.4673, 0.0, 9.999969, 9.999525 
9.8501724e+2, 3.1449053e+2, -141408.73, -102190.94, 38079.82, -0.10600674, 0.048764672, -78967.82, -78967.82, 0.0, 9.999171, 9.999696 
9.949854e+2, 1.24505825e+2, -1677615.3, -1705372.0, 7307.75, 0.0031865772, 0.04819458, -1675808.8, 44040.13, 0.000108580556, 10.000295, 9.999921 
9.949851e+2, 1.345058e+2, -1555126.9, -1639479.8, 9953.53, -0.056731056, 0.08586201, -1553968.4, 67879.88, 0.000033028722, 10.000649, 9.999533 
9.9498427e+2, 1.4450492e+2, -1468746.5, -1559257.8, 4231.7803, -0.16646393, 0.053976733, -1468549.1, 55307.363, 0.0000026281716, 10.000623, 9.99942 
9.949865e+2, 1.5450437e+2, -1438908.4, -1488502.8, -15170.085, 0.002177172, 0.05097458, -1434636.1, -8774.293, 0.00000000019976186, 10.000133, 9.999468 
9.949881e+2, 1.6450398e+2, -1362411.3, -1340587.1, 6296.4526, 0.075178996, 0.0386804, -1338900.8, -11035.834, 0.0, 9.999724, 10.000008 
9.9498916e+2, 1.7450373e+2, -1304469.0, -1255582.4, 22247.861, 0.04464314, 0.003964913, -1246973.5, -17108.309, 0.0, 9.999421, 10.000065 
9.9499047e+2, 1.8450342e+2, -1240624.8, -1286143.8, 36502.977, 0.022859273, 0.015830116, -1220367.3, -88499.02, 0.0, 9.999667, 9.999064 
9.949921e+2, 1.9450308e+2, -1009506.0, -1125980.0, 23263.469, 0.008235992, 0.075704515, -1005031.5, 28842.61, 0.0, 10.000589, 9.999046 
9.949935e+2, 2.0450212e+2, -867550.8, -1010288.5, 5838.1885, -0.008546968, 0.077788554, -867312.44, 68571.836, 0.0, 10.000905, 9.999017 
9.949949e+2, 2.1450038e+2, -827553.9, -936173.0, 6006.1943, -0.025921024, -0.0039759655, -827222.75, 10677.036, 0.0, 10.000491, 9.999051 
9.9499667e+2, 2.2449915e+2, -772759.75, -877833.3, 27483.996, -0.02252747, -0.023497114, -766005.0, -26093.178, 0.0, 10.000275, 9.998884 
9.9499905e+2, 2.3449855e+2, -669387.2, -774035.94, 32662.146, 0.006774796, 0.022469789, -660029.6, -18110.234, 0.0, 10.0002985, 9.998912 
9.950011e+2, 2.4449772e+2, -567903.7, -687538.4, 38143.617, -0.010218083, 0.05493691, -556777.0, -12849.149, 0.0, 10.00038, 9.998795 
9.950027e+2, 2.544966e+2, -445992.5, -575003.1, 26255.004, -0.08432712, 0.057908237, -440854.0, 5083.5693, 0.0, 10.000529, 9.998821 
9.9500513e+2, 2.6449516e+2, -391612.22, -572155.5, 40050.863, -0.105120815, 0.06618491, -383126.38, -35174.43, 0.0, 10.000549, 9.998159 
9.950086e+2, 2.744934e+2, -313295.88, -483298.56, 38204.355, -0.061857272, 0.07085235, -305104.94, -55133.027, 0.0, 10.000414, 9.998161 
9.950113e+2, 2.8449172e+2, -176220.11, -290302.7, 8420.918, -0.047224365, 0.057561003, -175601.88, -23614.02, 0.0, 10.000354, 9.998842 
9.950132e+2, 2.9449025e+2, -72494.76, -180701.33, 24733.98, -0.065116316, 0.0116018765, -67109.086, -13110.376, 0.0, 10.000355, 9.998921 
9.9501455e+2, 3.044891e+2, -44489.09, -86146.73, 21328.389, -0.11935001, -0.017719425, -35506.168, -35506.168, 0.0, 9.999972, 9.999421 
9.9501526e+2, 3.1448963e+2, -157398.7, -128626.18, 12797.597, -0.21717015, 0.088060305, -123757.76, -123757.76, 0.0, 9.999142, 9.99953 
1.0049859e+3, 1.24505855e+2, -1608322.5, -1675631.0, 3224.0532, -0.0053996844, 0.0752043, -1608168.5, 111680.49, 0.00014134821, 10.000783, 9.999892 
1.0049857e+3, 1.345056e+2, -1612977.9, -1672988.8, -16916.627, -0.04477092, 0.09760139, -1608537.6, 13312.54, 0.000046426092, 10.000277, 9.999482 
1.00498475e+3, 1.4450456e+2, -1553398.5, -1621153.6, -7528.8403, -0.15859982, 0.06141054, -1552571.9, -28711.871, 0.00000474816, 10.0001335, 9.99923 
1.0049868e+3, 1.545037e+2, -1413616.0, -1499152.9, 5801.9175, 0.008910466, 0.04574529, -1413224.3, 12644.624, 0.000000004412824, 10.000402, 9.999266 
1.0049882e+3, 1.6450322e+2, -1252149.5, -1302567.8, 30138.22, 0.072713695, 0.041877106, -1238067.3, 89805.69, 0.0, 10.000545, 9.999874 
1.0049889e+3, 1.7450318e+2, -1148588.4, -1193830.1, 7640.3633, 0.021799084, 0.04133028, -1147332.9, 82538.11, 0.0, 10.000549, 9.999944 
1.00499034e+3, 1.8450272e+2, -1144726.4, -1261711.1, 26258.873, 0.0072455956, 0.05346591, -1139102.6, -7227.064, 0.0, 10.00042, 9.998869 
1.00499265e+3, 1.9450177e+2, -1090182.5, -1186894.3, 26277.184, 0.032420073, 0.0712445, -1083504.0, -49616.25, 0.0, 10.000132, 9.998849 
1.00499436e+3, 2.0450069e+2, -991712.1, -1066624.0, 3358.2388, 0.030993607, 0.069145545, -991561.9, -55662.402, 0.0, 10.000039, 9.999046 
1.0049954e+3, 2.1449941e+2, -868259.25, -951218.4, 4011.5698, -0.0013511811, 0.03143857, -868065.7, -30154.967, 0.0, 10.000192, 9.999092 
1.00499704e+3, 2.2449832e+2, -769803.8, -883271.56, 30635.664, -0.016020052, 0.026206145, -762060.75, -22139.332, 0.0, 10.000327, 9.99882 
1.0049992e+3, 2.3449741e+2, -653536.44, -774234.25, 22056.857, -0.010321178, 0.047088705, -649631.94, -7700.3447, 0.0, 10.0004425, 9.99884 
1.00500144e+3, 2.444963e+2, -554110.0, -697246.9, 30375.672, -0.020698704, 0.063942865, -547930.6, -3988.0593, 0.0, 10.0005455, 9.998646 
1.0050036e+3, 2.5449502e+2, -440530.2, -588502.0, 31423.775, -0.051007938, 0.066486716, -434133.47, 11820.776, 0.0, 10.000641, 9.998673 
1.0050061e+3, 2.6449355e+2, -385818.75, -547431.0, 50035.043, -0.06342767, 0.067428924, -371582.06, -23613.2, 0.0, 10.000499, 9.998352 
1.0050089e+3, 2.7449182e+2, -353461.72, -479075.84, 69593.016, -0.05520355, 0.054478142, -322524.88, -72537.7, 0.0, 10.000038, 9.99837 
1.0050114e+3, 2.8449035e+2, -240993.8, -315895.16, 55642.59, -0.051084768, 0.048013207, -211372.5, -59371.625, 0.0, 9.9998865, 9.998891 
1.0050136e+3, 2.9448926e+2, -100370.91, -189710.22, 36196.586, -0.049669262, 0.03874282, -87546.46, -33537.727, 0.0, 10.000146, 9.998959 
1.0050148e+3, 3.0448812e+2, -16451.7, -92486.02, -9242.877, -0.107299805, 0.017561298, -15344.248, -15344.248, 0.0, 10.000252, 9.999243 
1.0050147e+3, 3.1448796e+2, -31932.35, -90559.49, -24400.113, -0.23547785, 0.07326999, -23106.033, -23106.033, 0.0, 10.000101, 9.999328 
1.0149854e+3, 1.245058e+2, -1614804.3, -1688525.9, -408.9266, -0.14003506, 0.115107, -1614801.9, 105046.79, 0.0001798155, 10.000782, 9.999804 
1.0149869e+3, 1.3450491e+2, -1621800.3, -1692032.9, -35039.484, 0.04753814, 0.084761605, -1607308.9, 14548.397, 0.000062927356, 10.000279, 9.9993515 
1.0149864e+3, 1.4450371e+2, -1534370.9, -1582637.0, 509.11575, -0.009476737, 0.025579624, -1534365.5, -10497.078, 0.000007860604, 10.000135, 9.999495 
1.01498745e+3, 1.5450305e+2, -1394312.8, -1460093.9, 16512.574, 0.034143846, 0.0036099036, -1390400.4, 35473.27, 0.000000028517778, 10.000405, 9.999534 
1.0149882e+3, 1.6450268e+2, -1292496.3, -1387858.6, 29587.672, 0.020179357, 0.027075926, -1284062.1, 43814.457, 0.0, 10.00055, 9.999286 
1.0149887e+3, 1.7450269e+2, -1191644.5, -1283873.1, 7809.269, -0.052362233, 0.092546366, -1190988.0, 38888.77, 0.0, 10.000552, 9.999325 
1.0149902e+3, 1.8450175e+2, -1147531.9, -1267935.4, 13978.79, -0.05252898, 0.09118909, -1145930.3, -14043.686, 0.0, 10.000421, 9.998827 
1.0149928e+3, 1.9449969e+2, -1091630.4, -1189214.5, 14945.56, 0.032908138, -0.0026127053, -1089392.6, -55484.28, 0.0, 10.000128, 9.998836 
1.0149948e+3, 2.0449877e+2, -986991.75, -1055962.8, 6500.84, 0.06993637, 0.009774651, -986384.4, -50465.547, 0.0, 10.000034, 9.999123 
1.0149962e+3, 2.1449928e+2, -863254.25, -939933.4, 9696.529, 0.049486406, 0.14258805, -862047.06, -24131.805, 0.0, 10.000187, 9.999172 
1.0149976e+3, 2.2449864e+2, -786393.94, -915644.0, 33522.953, 0.013322515, 0.18997568, -778216.6, -38294.4, 0.0, 10.000318, 9.998603 
1.0149994e+3, 2.3449656e+2, -670257.3, -808119.2, 26783.768, -0.041370265, 0.11751552, -665236.6, -23294.28, 0.0, 10.000438, 9.99861 
1.0150017e+3, 2.444948e+2, -553412.06, -695077.44, 32882.563, -0.04759754, 0.07897061, -546151.7, -2192.4114, 0.0, 10.000542, 9.998664 
1.0150048e+3, 2.5449345e+2, -439430.1, -584490.4, 35790.887, 0.005285686, 0.071174346, -431080.03, 14892.167, 0.0, 10.000631, 9.998706 
1.0150073e+3, 2.6449212e+2, -351550.9, -473321.34, 34118.613, 0.003704212, 0.062149797, -342642.94, 5341.1094, 0.0, 10.000484, 9.998867 
1.0150088e+3, 2.7449086e+2, -314831.9, -399542.2, 54460.176, -0.06402528, 0.042624053, -288195.25, -38200.875, 0.0, 10.00004, 9.998915 
1.01501085e+3, 2.8448972e+2, -266353.78, -371031.78, 64201.8, -0.09748198, 0.054134704, -235860.16, -83855.37, 0.0, 9.999895, 9.998509 
1.0150134e+3, 2.944886e+2, -134090.31, -255239.92, 48224.754, -0.08984637, 0.09026865, -117238.16, -63222.51, 0.0, 10.000125, 9.99852 
1.01501495e+3, 3.0448696e+2, -37669.465, -129558.71, -12913.176, -0.11451275, 0.05324335, -35889.27, -35889.27, 0.0, 10.000221, 9.9990015 
1.0150155e+3, 3.1448546e+2, -49238.266, -123395.97, -25431.12, -0.176833, -0.004447605, -41355.098, -41355.098, 0.0, 10.000089, 9.999107 
1.0249858e+3, 1.245049e+2, -1676375.6, -1724802.0, -115.71877, -0.14917561, 0.07463867, -1676375.3, 43480.125, 0.00022439056, 10.000391, 9.999741 
1.0249873e+3, 1.3450404e+2, -1675642.0, -1728570.1, -53474.77, 0.068957694, 0.056445178, -1642441.1, -20576.307, 0.0000828242, 9.999954, 9.999257 
1.0249867e+3, 1.44503e+2, -1548581.6, -1576353.1, 12364.876, 0.019866435, 0.013778622, -1543874.3, -19999.742, 0.000012107546, 9.99998, 9.999614 
1.0249881e+3, 1.5450247e+2, -1364107.3, -1430092.9, 17463.576, 0.04389315, -0.008399413, -1359770.5, 66107.055, 0.00000009714164, 10.000547, 9.99967 
1.02498874e+3, 1.6450197e+2, -1302832.3, -1438263.0, 12042.497, 0.015599497, 0.012629518, -1301769.8, 26112.432, 0.0, 10.000677, 9.9988785 
1.02498904e+3, 1.7450146e+2, -1261523.6, -1366906.3, 1264.9991, -0.062987946, 0.07141419, -1261508.4, -31619.375, 0.0, 10.000284, 9.998885 
1.0249904e+3, 1.8450035e+2, -1183257.0, -1271897.9, 26378.102, -0.062389854, 0.070827045, -1176001.3, -44100.18, 0.0, 10.000118, 9.998944 
1.0249929e+3, 1.9449854e+2, -1062968.3, -1158628.3, 38177.8, 0.02953879, -0.012159201, -1049599.8, -15680.537, 0.0, 10.000253, 9.998984 
1.02499515e+3, 2.0449768e+2, -941457.7, -1063774.8, 36762.895, 0.06840722, 0.011671611, -931258.9, 4670.2627, 0.0, 10.000477, 9.998855 
1.0249966e+3, 2.1449803e+2, -791502.7, -937767.8, 10671.927, 0.042868126, 0.15523173, -790728.2, 47200.71, 0.0, 10.00082, 9.998881 
1.0249982e+3, 2.2449729e+2, -700905.1, -867969.06, 19142.275, 0.005944014, 0.20394519, -698739.9, 41197.53, 0.0, 10.000877, 9.99866 
1.02499984e+3, 2.3449521e+2, -643139.56, -786158.8, 33407.5, -0.044974506, 0.12582293, -635720.8, 6235.7036, 0.0, 10.000588, 9.998687 
1.0250022e+3, 2.4449348e+2, -589978.25, -717508.56, 50269.285, -0.047252234, 0.089579016, -572546.1, -28573.094, 0.0, 10.000314, 9.998618 
1.0250053e+3, 2.5449216e+2, -528906.2, -633867.8, 44300.348, 0.008811551, 0.09100001, -512708.38, -66721.82, 0.0, 10.000044, 9.99865 
1.0250076e+3, 2.6449087e+2, -382540.06, -463565.1, 35817.855, 0.0052885856, 0.077695176, -368976.84, -20979.055, 0.0, 10.000167, 9.999086 
1.02500916e+3, 2.7448964e+2, -192140.67, -313309.0, 30450.248, -0.07023615, 0.03767689, -184918.81, 65087.13, 0.0, 10.00077, 9.999153 
1.0250111e+3, 2.8448856e+2, -137129.13, -321761.72, 27873.098, -0.1119037, 0.047341064, -133013.02, 19002.578, 0.0, 10.00084, 9.99839 
1.0250133e+3, 2.944875e+2, -126243.01, -266565.94, 33327.64, -0.11300493, 0.103704184, -118729.75, -64702.316, 0.0, 10.000244, 9.9983835 
1.0250149e+3, 3.0448592e+2, -86116.47, -125120.375, 4280.603, -0.1154839, 0.06526006, -85652.2, -85652.2, 0.0, 9.999769, 9.999249 
1.0250157e+3, 3.144842e+2, -127727.44, -133577.34, 22659.484, -0.11765191, -0.038941655, -107804.91, -107804.91, 0.0, 9.999429, 9.999356 
1.0349873e+3, 1.2450319e+2, -1681379.8, -1735079.8, -584.7248, -0.048528027, -0.047723494, -1681373.4, 38495.016, 0.00027553758, 10.000391, 9.999669 
1.0349867e+3, 1.3450305e+2, -1680332.1, -1738555.3, -69385.87, 0.013470749, 0.013625228, -1634198.3, -12325.979, 0.000106410545, 9.999954, 9.999188 
1.0349857e+3, 1.4450254e+2, -1550022.6, -1579942.1, 31300.832, -0.0776761, 0.028066043, -1530290.4, -6412.809, 0.000017580353, 9.999982, 9.999589 
1.03498854e+3, 1.5450205e+2, -1363865.1, -1430135.3, 39560.348, 0.033828955, 0.009576013, -1345396.4, 80483.5, 0.00000023822265, 10.000549, 9.999669 
1.0349899e+3, 1.645011e+2, -1318271.0, -1471897.3, -2662.3557, 0.054820772, -0.0031706207, -1318224.9, 9664.3545, 0.0, 10.000682, 9.998646 
1.0349897e+3, 1.7449956e+2, -1279342.8, -1404155.6, -13633.683, -0.014791294, -0.022399722, -1277870.9, -47963.457, 0.0, 10.000285, 9.99863 
1.03499085e+3, 1.8449861e+2, -1163790.6, -1232093.9, 28899.223, -0.028873853, -0.0058846516, -1153204.1, -21286.059, 0.0, 10.00012, 9.999218 
1.034993e+3, 1.9449843e+2, -1041831.4, -1114323.9, 42915.71, 0.018893844, 0.044571042, -1021903.3, 12016.146, 0.0, 10.00025, 9.99929 
1.0349951e+3, 2.0449752e+2, -985905.94, -1154839.0, 47566.746, 0.02238918, 0.07529179, -973433.4, -37503.55, 0.0, 10.000471, 9.998233 
1.0349967e+3, 2.1449569e+2, -839000.75, -1035565.5, 23462.262, -0.025289126, 0.067577474, -836239.06, 1712.2422, 0.0, 10.000816, 9.998212 
1.0349985e+3, 2.2449426e+2, -678182.0, -819823.8, 7649.502, -0.043034315, 0.06883143, -677770.06, 62196.41, 0.0, 10.000872, 9.998994 
1.0350006e+3, 2.3449339e+2, -616537.5, -730478.9, 22887.816, -0.024966799, 0.07176492, -612111.8, 29861.914, 0.0, 10.000585, 9.999072 
1.0350027e+3, 2.444924e+2, -599385.6, -734995.75, 39656.22, -0.024781346, 0.09335823, -588640.44, -44656.754, 0.0, 10.000304, 9.998503 
1.0350048e+3, 2.5449127e+2, -538395.9, -654232.44, 35522.83, -0.04459624, 0.12544794, -528370.1, -82373.17, 0.0, 10.000046, 9.998508 
1.0350071e+3, 2.644899e+2, -389476.2, -478662.78, 56866.21, -0.062409803, 0.11635986, -361803.8, -13794.272, 0.0, 10.000169, 9.998982 
1.0350099e+3, 2.744882e+2, -201313.75, -329432.1, 54624.45, -0.07907086, 0.04418679, -181186.17, 68835.24, 0.0, 10.000755, 9.999051 
1.0350121e+3, 2.844869e+2, -128128.484, -298056.66, 8279.767, -0.10098424, 0.02902183, -127726.01, 24307.139, 0.0, 10.000819, 9.998564 
1.0350134e+3, 2.9448596e+2, -111856.586, -236890.06, 14060.354, -0.126624, 0.07396682, -110294.97, -56250.66, 0.0, 10.000245, 9.998587 
1.0350146e+3, 3.0448493e+2, -35464.883, -23154.305, -7568.087, -0.116608225, 0.049154107, -19554.414, -19554.414, 0.0, 9.999781, 9.999946 
1.0350157e+3, 3.144842e+2, -82049.25, -34145.91, 13852.95, -0.06805284, -0.026330782, -30428.342, -30428.342, 0.0, 9.999408, 10.00005 
1.0449879e+3, 1.24502406e+2, -1765582.0, -1764113.6, 6823.5063, 0.008543208, -0.054601796, -1757985.0, -38109.285, 0.0003338259, 9.999761, 9.999774 
1.0449867e+3, 1.3450211e+2, -1604273.6, -1687311.4, -66042.016, -0.0020747213, -0.021826304, -1567783.8, 54096.24, 0.00013404706, 10.000412, 9.99932 
1.0449857e+3, 1.445017e+2, -1468656.9, -1561904.3, 40470.28, -0.106449366, 0.0058062165, -1453542.4, 70341.84, 0.000024406929, 10.000633, 9.999397 
1.0449888e+3, 1.5450133e+2, -1415293.5, -1478958.0, 30055.97, 0.015918285, 0.020231381, -1403346.1, 22540.607, 0.0000004785213, 10.000298, 9.999456 
1.0449903e+3, 1.6450034e+2, -1388573.3, -1500718.3, -17467.875, 0.051219545, 0.012725573, -1385915.4, -58018.258, 0.0, 10.000176, 9.9986925 
1.0449903e+3, 1.744986e+2, -1266187.1, -1390682.3, -6721.534, 0.0010416172, -0.033137564, -1265825.4, -35908.293, 0.0, 10.000344, 9.998693 
1.04499124e+3, 1.8449774e+2, -1120466.4, -1223137.5, 44126.113, -0.016603786, -0.0063238754, -1104108.1, 27818.973, 0.0, 10.000472, 9.999107 
1.04499325e+3, 1.9449799e+2, -1003762.94, -1109042.8, 25531.146, -0.0030222486, 0.099157766, -997898.1, 36026.734, 0.0, 10.000569, 9.999171 
1.04499534e+3, 2.044969e+2, -965422.75, -1143159.6, 39245.96, -0.009074293, 0.11776664, -957142.6, -21206.049, 0.0, 10.000605, 9.998247 
1.04499735e+3, 2.1449417e+2, -873169.75, -1049121.6, 66065.125, -0.036490683, 0.018873965, -851125.8, -13160.599, 0.0, 10.000571, 9.998237 
1.0449993e+3, 2.2449264e+2, -743532.0, -859197.0, 49856.605, -0.037875757, 0.010205101, -725008.25, 14973.503, 0.0, 10.000458, 9.998922 
1.0450012e+3, 2.3449257e+2, -670941.3, -765479.3, 26896.842, -0.009201295, 0.10087358, -663824.7, -21841.338, 0.0, 10.000249, 9.998993 
1.0450031e+3, 2.4449179e+2, -597388.1, -728274.25, 42814.703, -0.020485515, 0.14649804, -584627.06, -40635.37, 0.0, 10.000292, 9.998554 
1.0450047e+3, 2.544902e+2, -448506.63, -603405.3, 52765.918, -0.07978979, 0.1264198, -432240.2, 13767.727, 0.0, 10.000633, 9.998573 
1.0450071e+3, 2.644887e+2, -332645.34, -453190.28, 84699.82, -0.09605598, 0.101852246, -288961.9, 59059.51, 0.0, 10.000569, 9.998963 
1.0450104e+3, 2.7448732e+2, -311212.6, -385166.6, 87043.15, -0.061272506, 0.056928102, -253617.88, -3586.0933, 0.0, 10.000012, 9.999025 
1.0450127e+3, 2.8448603e+2, -265598.16, -343348.25, 38269.813, -0.061762813, 0.043042623, -249921.88, -97878.96, 0.0, 9.999784, 9.998751 
1.0450138e+3, 2.9448497e+2, -143291.89, -229244.17, 39983.293, -0.10156856, 0.058504324, -127568.69, -73514.25, 0.0, 9.999932, 9.998789 
1.04501456e+3, 3.0448425e+2, 5390.944, 2729.8477, -2449.1594, -0.121400535, 0.048990335, 6847.6416, 6847.6416, 0.0, 10.000036, 9.999999 
1.04501486e+3, 3.1448424e+2, 21537.309, 19825.293, -31624.373, -0.12271866, 0.03709125, 52317.258, 52317.258, 0.0, 10.000102, 10.000085 
1.0549877e+3, 1.2450257e+2, -1744935.9, -1721241.8, 46539.316, 0.005242309, 0.049231622, -1685065.3, 34811.676, 0.00039971265, 9.99976, 10.00007 
1.0549873e+3, 1.345013e+2, -1579332.5, -1637558.3, -40126.008, 0.018921612, -0.04985965, -1558870.6, 63016.582, 0.00016604259, 10.000419, 9.99966 
1.0549867e+3, 1.4450058e+2, -1493537.0, -1615696.4, 29011.262, -0.07112059, -0.053711392, -1486997.3, 36896.504, 0.000032768716, 10.000642, 9.999024 
1.0549888e+3, 1.5450041e+2, -1445873.6, -1541340.0, 17698.996, -0.015290939, 0.023848725, -1442697.9, -16800.574, 0.0000008393984, 10.000293, 9.99903 
1.05498984e+3, 1.6449982e+2, -1366212.6, -1454418.9, -13203.4375, -0.0025483172, 0.062977016, -1364278.6, -36373.754, 0.0, 10.000176, 9.99901 
1.0549904e+3, 1.7449868e+2, -1240184.8, -1336968.0, -298.757, -0.019154059, 0.040649217, -1240183.9, -10266.683, 0.0, 10.000344, 9.999062 
1.05499156e+3, 1.844978e+2, -1154948.6, -1295396.6, 46255.37, -0.02987563, 0.0691948, -1141083.5, -9156.118, 0.0, 10.000474, 9.998611 
1.0549935e+3, 1.9449726e+2, -1042124.25, -1188677.3, 28901.021, -0.040268924, 0.14955898, -1036630.75, -2695.7346, 0.0, 10.000568, 9.998626 
1.0549957e+3, 2.0449589e+2, -920076.6, -1048411.8, 36615.617, -0.031067766, 0.13998482, -910364.7, 25584.068, 0.0, 10.000602, 9.998899 
1.0549983e+3, 2.1449357e+2, -823688.8, -945322.5, 64835.934, 0.00508, 0.009534525, -795610.3, 42359.77, 0.0, 10.000566, 9.998952 
1.0550003e+3, 2.2449245e+2, -778765.2, -930973.25, 40950.31, 0.016369577, 0.026926816, -768447.3, -28464.525, 0.0, 10.000451, 9.998433 
1.0550016e+3, 2.3449276e+2, -709237.75, -845573.1, 19391.94, -0.001684262, 0.21150509, -706533.2, -64548.03, 0.0, 10.00025, 9.998444 
1.0550032e+3, 2.4449173e+2, -582679.44, -696985.5, 54045.332, -0.039355163, 0.2493808, -561172.6, -17176.045, 0.0, 10.000288, 9.998772 
1.0550051e+3, 2.5448903e+2, -431134.84, -566136.7, 66663.18, -0.10100215, 0.09502551, -403765.56, 42253.58, 0.0, 10.000627, 9.998834 
1.0550077e+3, 2.6448733e+2, -329187.16, -443537.1, 65339.824, -0.10027169, 0.032138392, -299538.9, 48494.453, 0.0, 10.000558, 9.999035 
1.05501086e+3, 2.7448684e+2, -306584.25, -375806.53, 67992.94, -0.024017394, 0.07220665, -264900.1, -14863.039, 0.0, 10.000012, 9.99909 
1.0550132e+3, 2.84486e+2, -253742.97, -318912.94, 43182.02, -0.0014986165, 0.087961525, -232231.11, -80186.336, 0.0, 9.9997835, 9.998919 
1.0550143e+3, 2.944847e+2, -133445.4, -206017.33, 47503.484, -0.042182833, 0.062411327, -109954.69, -55897.344, 0.0, 9.999919, 9.998956 
1.0550145e+3, 3.0448398e+2, -36312.35, -80480.5, 254.0201, -0.13329066, 0.06965928, -36310.89, -36310.89, 0.0, 10.000022, 9.999435 
1.0550133e+3, 3.144843e+2, -19889.336, -65464.324, -24611.213, -0.29403138, 0.14993511, -9136.083, -9136.083, 0.0, 10.000098, 9.999501 
1.0649873e+3, 1.2450203e+2, -1720493.4, -1703690.0, 73592.37, -0.013415424, 0.09166347, -1638021.3, 81862.53, 0.00047318285, 9.9999075, 10.000117 
1.0649878e+3, 1.3450058e+2, -1629093.1, -1651308.1, -48729.332, 0.04635874, -0.03410929, -1590221.4, 31673.275, 0.00020250746, 10.000031, 9.999753 
1.0649878e+3, 1.4449981e+2, -1552805.3, -1646465.8, 9990.846, -0.004838072, -0.047522027, -1551751.4, -27849.82, 0.000042863663, 10.000245, 9.999003 
1.0649891e+3, 1.5449955e+2, -1414111.3, -1528347.0, 25164.803, -0.016443243, 0.021734122, -1408813.5, 17093.127, 0.0000013547858, 10.0005245, 9.999006 
1.06499e+3, 1.64499e+2, -1301061.4, -1423392.9, 3457.8699, -0.030717166, 0.06750587, -1300963.8, 26949.947, 0.0, 10.000629, 9.999002 
1.0649908e+3, 1.7449808e+2, -1210248.8, -1322936.3, -12980.615, -0.02491832, 0.06880954, -1208772.9, 21150.363, 0.0, 10.000553, 9.999056 
1.0649921e+3, 1.8449703e+2, -1160089.9, -1305293.8, 34559.746, -0.028326582, 0.08397824, -1152284.0, -20349.154, 0.0, 10.00047, 9.998545 
1.0649939e+3, 1.9449586e+2, -1071038.5, -1210535.1, 51425.57, -0.052165408, 0.10848774, -1054129.9, -20181.146, 0.0, 10.000404, 9.998554 
1.064996e+3, 2.0449464e+2, -954784.56, -1040538.75, 57969.51, -0.04363988, 0.10558622, -925558.2, 10403.193, 0.0, 10.000258, 9.999119 
1.06499866e+3, 2.1449336e+2, -886300.2, -949098.4, 47745.91, 0.0069409315, 0.057493266, -860554.06, -22581.664, 0.0, 10.000022, 9.999187 
1.06500074e+3, 2.2449245e+2, -834159.4, -979810.44, 29073.896, 0.02476735, 0.09244095, -828570.3, -88586.91, 0.0, 10.000167, 9.998235 
1.0650021e+3, 2.3449194e+2, -648001.0, -839993.56, 31483.266, 0.0027601398, 0.21729265, -642970.1, -975.9218, 0.0, 10.000776, 9.998227 
1.0650038e+3, 2.4449067e+2, -473110.16, -620773.7, 71878.11, -0.03538856, 0.2310264, -443900.22, 100107.84, 0.0, 10.000941, 9.9989805 
1.0650057e+3, 2.5448838e+2, -423642.44, -536632.6, 79872.28, -0.09385605, 0.094424695, -382304.63, 63721.152, 0.0, 10.0005665, 9.999064 
1.06500804e+3, 2.6448697e+2, -378559.03, -468180.63, 60464.844, -0.10008817, 0.049217887, -348110.25, -72.98782, 0.0, 10.000219, 9.999029 
1.06501065e+3, 2.7448663e+2, -327507.56, -387406.6, 54343.867, -0.042105347, 0.108162284, -295406.84, -45366.277, 0.0, 9.999875, 9.999076 
1.0650127e+3, 2.8448585e+2, -242125.97, -304732.78, 48418.055, -0.025168398, 0.12389492, -215773.4, -63725.434, 0.0, 9.999828, 9.998994 
1.06501415e+3, 2.9448438e+2, -90480.24, -176443.98, 45991.98, -0.057906378, 0.07308379, -70512.11, -16451.604, 0.0, 10.000176, 9.999034 
1.0650147e+3, 3.044833e+2, -19440.518, -97423.49, -3689.905, -0.13283129, 0.054187223, -19266.313, -19266.313, 0.0, 10.000246, 9.999209 
1.0650137e+3, 3.1448328e+2, -67197.98, -114648.06, -8994.246, -0.26233253, 0.12576917, -65550.31, -65550.31, 0.0, 9.99989, 9.999263 
1.0749867e+3, 1.24500886e+2, -1735561.9, -1735954.9, 87499.56, -0.062512815, 0.07335405, -1648258.6, 71636.43, 0.00055371417, 9.999913, 9.999892 
1.0749882e+3, 1.3450004e+2, -1641673.3, -1676040.0, -42985.195, 0.0754385, 0.02576437, -1612564.1, 9337.578, 0.00024334127, 10.000026, 9.999586 
1.074989e+3, 1.4449948e+2, -1529408.6, -1598043.8, 20040.648, 0.08550474, 0.025885519, -1523985.5, -79.02416, 0.00005483326, 10.000244, 9.999337 
1.0749899e+3, 1.5449879e+2, -1387713.5, -1474657.4, 36212.895, 0.008631198, 0.015527756, -1374606.4, 51307.254, 0.000002073113, 10.000528, 9.999373 
1.0749906e+3, 1.6449791e+2, -1323162.5, -1471369.4, -343.56555, -0.038172428, 0.026097935, -1323161.8, 4761.2114, 0.0000000000166348, 10.000637, 9.99867 
1.07499145e+3, 1.7449686e+2, -1236671.0, -1378017.9, -15707.015, -0.020286638, 0.050106097, -1234946.6, -5011.99, 0.0, 10.000554, 9.998678 
1.07499264e+3, 1.8449552e+2, -1134896.1, -1253340.9, 30371.973, -0.018254807, 0.039357867, -1127562.1, 4386.54, 0.0, 10.000471, 9.998901 
1.07499436e+3, 1.9449386e+2, -1043717.1, -1153143.4, 48647.74, -0.042820234, -0.023077285, -1025217.3, 8748.168, 0.0, 10.000401, 9.99895 
1.0749962e+3, 2.0449317e+2, -971260.44, -1073809.0, 47504.543, -0.050738603, 0.014671895, -952636.7, -16662.81, 0.0, 10.000253, 9.998895 
1.07499816e+3, 2.1449359e+2, -904527.0, -986519.5, 38495.65, -0.035081975, 0.16149402, -889286.2, -51314.098, 0.0, 10.000019, 9.998933 
1.0750005e+3, 2.2449268e+2, -827849.6, -965979.6, 48789.895, -0.017402103, 0.20742072, -812354.44, -72371.19, 0.0, 10.000162, 9.998333 
1.0750028e+3, 2.3449016e+2, -640562.6, -823827.9, 54993.04, 0.00081684696, 0.118702576, -625327.25, 16682.943, 0.0, 10.000771, 9.998342 
1.075005e+3, 2.444886e+2, -460418.2, -593150.7, 58979.008, -0.012733727, 0.090079546, -437998.16, 106027.67, 0.0, 10.000935, 9.999173 
1.0750067e+3, 2.5448823e+2, -410070.4, -508446.84, 66761.38, -0.064019255, 0.12304704, -376333.6, 69694.06, 0.0, 10.000565, 9.99926 
1.0750083e+3, 2.6448762e+2, -385369.75, -481378.47, 47844.65, -0.10042496, 0.15250157, -365598.53, -17565.672, 0.0, 10.000215, 9.998941 
1.0750098e+3, 2.7448672e+2, -335443.2, -402319.0, 42855.645, -0.11865442, 0.1658132, -314523.97, -64481.96, 0.0, 9.999867, 9.998978 
1.07501134e+3, 2.8448555e+2, -244558.1, -307554.34, 59691.07, -0.13650173, 0.15043204, -208564.31, -56512.047, 0.0, 9.999818, 9.9989805 
1.0750134e+3, 2.94484e+2, -90832.04, -176860.75, 61745.87, -0.1558891, 0.08716352, -58594.895, -4531.005, 0.0, 10.000174, 9.999033 
1.0750149e+3, 3.0448228e+2, -14321.056, -86256.6, -14079.169, -0.12596236, 0.00053466036, -11663.66, -11663.66, 0.0, 10.000242, 9.9992895 
1.07501574e+3, 3.144813e+2, -63585.613, -103854.2, -18840.635, -0.038137127, -0.029313771, -56145.293, -56145.293, 0.0, 9.999874, 9.999346 
1.08498715e+3, 1.24499306e+2, -1650234.5, -1706059.8, 69212.555, -0.041808467, 0.043318145, -1603518.1, 116392.06, 0.00064071716, 10.00055, 9.999789 
1.0849878e+3, 1.3449892e+2, -1633353.8, -1676449.5, -61598.516, 0.03896881, 0.045609497, -1589643.0, 32270.441, 0.00028839763, 10.000103, 9.999545 
1.084989e+3, 1.4449856e+2, -1578732.5, -1610063.9, 11806.232, 0.08582946, 0.06202234, -1574781.9, -50865.07, 0.00006873226, 9.999859, 9.999439 
1.0849902e+3, 1.5449765e+2, -1484420.5, -1509515.9, 5205.6396, 0.028381364, 0.020994065, -1483383.5, -57457.97, 0.0000030594845, 9.999815, 9.999476 
1.0849911e+3, 1.6449668e+2, -1411987.5, -1500617.6, -22539.977, -0.013040861, 0.009277447, -1406584.6, -78649.33, 0.000000000186287, 9.9999695, 9.998791 
1.0849921e+3, 1.7449564e+2, -1253576.3, -1372151.3, -1860.961, -0.0043334602, 0.023386318, -1253547.1, -23601.086, 0.0, 10.0003805, 9.998801 
1.08499326e+3, 1.8449442e+2, -1124213.6, -1237054.4, 44919.28, -0.0021535777, 0.013362073, -1108516.0, 23442.408, 0.0, 10.000499, 9.999 
1.084995e+3, 1.9449298e+2, -1055413.5, -1147739.1, 38876.96, -0.018569859, -0.037269175, -1041223.8, -7250.8496, 0.0, 10.000275, 9.999047 
1.0849966e+3, 2.044924e+2, -963470.9, -1084297.5, 41135.258, -0.037540507, 0.014785264, -950796.06, -14815.384, 0.0, 10.000369, 9.998765 
1.0849984e+3, 2.1449287e+2, -792145.2, -948384.94, 39562.516, -0.05694654, 0.18060629, -782698.5, 55281.492, 0.0, 10.00086, 9.998789 
1.0850006e+3, 2.2449183e+2, -713656.1, -880168.0, 55502.816, -0.047948726, 0.20743053, -696851.5, 43140.37, 0.0, 10.0008135, 9.998608 
1.0850032e+3, 2.3448895e+2, -715101.1, -826637.56, 72373.266, -0.0071270303, 0.053061705, -679502.06, -37482.906, 0.0, 10.000116, 9.998638 
1.0850054e+3, 2.4448751e+2, -631915.4, -691185.1, 71084.164, -0.005773782, 0.025588855, -584536.06, -40502.57, 0.0, 9.999823, 9.999036 
1.0850071e+3, 2.5448778e+2, -501653.16, -569899.3, 50880.918, -0.0511035, 0.14223723, -474512.44, -28480.45, 0.0, 10.000011, 9.999104 
1.0850087e+3, 2.6448733e+2, -385463.16, -496264.66, 21280.42, -0.08854749, 0.20152315, -381516.63, -33479.055, 0.0, 10.00028, 9.998807 
1.08501e+3, 2.7448598e+2, -228802.14, -366263.88, 12136.522, -0.117383584, 0.1781164, -227738.83, 22312.953, 0.0, 10.000667, 9.99884 
1.08501144e+3, 2.844846e+2, -152025.97, -258995.14, 17632.186, -0.13947695, 0.1508962, -149194.52, 2869.1401, 0.0, 10.000435, 9.999016 
1.08501315e+3, 2.9448327e+2, -200744.95, -225054.14, 20084.658, -0.15247375, 0.107956186, -189423.45, -135350.98, 0.0, 9.999399, 9.999075 
1.0850149e+3, 3.0448154e+2, -153942.5, -138028.16, -28330.691, -0.10320373, 0.009814876, -116558.39, -116558.39, 0.0, 9.999218, 9.999426 
1.08501635e+3, 3.144805e+2, -13946.311, -61876.29, -30810.008, 0.019426111, -0.03914669, 1121.7281, 1121.7281, 0.0, 10.000138, 9.999505 
1.0949885e+3, 1.2449735e+2, -1648547.4, -1701493.4, 55910.96, 0.038114775, -0.001941439, -1613158.9, 106769.836, 0.000734217, 10.0005455, 9.999823 
1.0949868e+3, 1.344973e+2, -1626951.1, -1664582.9, -76639.38, -0.068612725, 0.02756506, -1566851.6, 55077.492, 0.00033773432, 10.000108, 9.999625 
1.0949879e+3, 1.4449711e+2, -1587031.1, -1628827.8, 8938.392, -0.011569088, 0.06304073, -1585199.9, -61268.316, 0.0000845864, 9.999866, 9.999308 
1.09499015e+3, 1.5449621e+2, -1496349.6, -1533765.9, 4239.9746, 0.037625384, 0.03758468, -1495875.1, -69933.55, 0.0000043925156, 9.999812, 9.999312 
1.0949917e+3, 1.6449533e+2, -1371819.3, -1417439.6, -9097.016, 0.038840603, 0.017404953, -1370072.1, -42122.035, 0.0000000006358386, 9.9999695, 9.999362 
1.0949927e+3, 1.7449448e+2, -1210528.1, -1283384.0, 13776.612, 0.018676156, -0.010080863, -1208010.1, 21946.463, 0.0, 10.000381, 9.99941 
1.0949939e+3, 1.8449378e+2, -1135581.6, -1260689.8, 36001.504, 0.013493741, 0.0060559986, -1125961.4, 6002.1055, 0.0, 10.000498, 9.998837 
1.0949956e+3, 1.9449322e+2, -1069742.9, -1176842.3, 30136.037, 0.016058583, 0.065053165, -1061845.4, -27874.7, 0.0, 10.000272, 9.99885 
1.0949973e+3, 2.0449243e+2, -966764.5, -1090474.0, 56475.6, -0.008744614, 0.106422104, -944860.6, -8879.483, 0.0, 10.000364, 9.998726 
1.09499924e+3, 2.1449131e+2, -795274.25, -953745.25, 58272.066, -0.06317698, 0.11555174, -776153.75, 61841.742, 0.0, 10.0008545, 9.998755 
1.09500125e+3, 2.2448996e+2, -683775.5, -816841.0, 29745.049, -0.07157506, 0.093353495, -677429.06, 62579.68, 0.0, 10.000807, 9.999046 
1.0950032e+3, 2.3448835e+2, -682877.75, -759079.75, 46238.887, -0.025066365, 0.019548267, -661064.5, -19043.656, 0.0, 10.000113, 9.999104 
1.0950051e+3, 2.4448736e+2, -664921.94, -759099.75, 75995.88, -0.018194277, 0.036745552, -622608.7, -78577.8, 0.0, 9.999819, 9.998572 
1.09500706e+3, 2.5448713e+2, -538313.9, -644031.7, 59026.496, -0.05955871, 0.15171169, -511937.75, -65899.266, 0.0, 10.000003, 9.9986 
1.09500915e+3, 2.6448616e+2, -400018.22, -524503.6, 35130.8, -0.0695475, 0.19655721, -390788.38, -42737.28, 0.0, 10.000271, 9.998619 
1.0950114e+3, 2.7448434e+2, -241429.94, -391817.6, 28654.871, -0.043817177, 0.14553711, -236155.06, 13914.504, 0.0, 10.000663, 9.998667 
1.09501295e+3, 2.8448302e+2, -147802.27, -249285.98, -17716.242, -0.038708765, 0.12629117, -144798.4, 7283.3374, 0.0, 10.00043, 9.999085 
1.09501354e+3, 2.9448226e+2, -196554.88, -213584.14, -16608.533, -0.05457597, 0.13394748, -186405.58, -132319.47, 0.0, 9.999386, 9.99916 
1.09501444e+3, 3.044811e+2, -142848.83, -112723.78, 1891.1709, -0.07202212, 0.07946137, -112605.52, -112605.52, 0.0, 9.999206, 9.999606 
1.0950154e+3, 3.1448096e+2, 826.1258, -29002.732, 8090.067, -0.10045655, 0.09881335, 2878.9998, 2878.9998, 0.0, 10.000127, 9.999737 
1.1049889e+3, 1.2449574e+2, -1822178.8, -1768696.5, 45880.02, 0.08082982, 0.011511425, -1742333.4, -22387.475, 0.00083503575, 9.999285, 9.999968 
1.1049867e+3, 1.344957e+2, -1641427.8, -1648156.1, -78802.234, -0.08496346, 0.021763785, -1565917.9, 56028.03, 0.0003918232, 9.999905, 9.999837 
1.10498816e+3, 1.4449558e+2, -1528976.8, -1603719.3, 12914.486, -0.002689814, 0.053501554, -1526808.3, -2860.6133, 0.000102570426, 10.000276, 9.999282 
1.10499e+3, 1.544948e+2, -1437868.0, -1509590.0, 14112.529, 0.018034121, 0.04624673, -1435191.1, -9234.709, 0.0000061708192, 10.000234, 9.999274 
1.1049916e+3, 1.6449411e+2, -1316732.3, -1375457.1, 4961.0044, 0.013922954, 0.03974156, -1316316.1, 11647.091, 0.0000000015512864, 10.000284, 9.999497 
1.1049931e+3, 1.744935e+2, -1185471.0, -1255038.1, -8145.1797, 0.016091412, 0.019763147, -1184530.0, 45437.867, 0.0, 10.000484, 9.999555 
1.10499464e+3, 1.8449289e+2, -1135580.1, -1257730.1, -14891.915, 0.026410703, 0.038146906, -1133790.9, -1817.293, 0.0, 10.000485, 9.998864 
1.104996e+3, 1.9449234e+2, -1070399.1, -1175039.9, -6622.8237, 0.0339776, 0.09386045, -1069981.6, -36001.586, 0.0, 10.0002575, 9.998869 
1.1049977e+3, 2.0449138e+2, -1028898.75, -1116773.1, 40891.71, 0.012073886, 0.11614507, -1012814.25, -76822.65, 0.0, 9.999923, 9.998758 
1.1049996e+3, 2.1448988e+2, -995791.1, -1046673.25, 45577.695, -0.042992868, 0.0861931, -969034.75, -131025.69, 0.0, 9.999463, 9.998788 
1.1050015e+3, 2.2448865e+2, -840869.7, -865827.4, 16981.629, -0.06055573, 0.06103317, -832274.94, -92253.96, 0.0, 9.999616, 9.999283 
1.1050034e+3, 2.344877e+2, -606923.8, -695025.0, 15840.15, -0.034115426, 0.028630875, -604162.4, 37863.727, 0.0, 10.000517, 9.999349 
1.1050052e+3, 2.4448687e+2, -551001.3, -728716.0, 34492.113, -0.02961319, 0.059524674, -544541.6, -506.74628, 0.0, 10.000708, 9.998352 
1.1050071e+3, 2.544862e+2, -549011.0, -677473.1, 33819.598, -0.053644642, 0.15451525, -540651.5, -94603.49, 0.0, 10.000051, 9.998347 
1.1050092e+3, 2.6448506e+2, -490600.63, -557733.94, 42620.855, -0.055792812, 0.18917307, -469915.47, -121852.375, 0.0, 9.999604, 9.998711 
1.1050116e+3, 2.7448338e+2, -418165.72, -464564.25, 56481.29, -0.03181442, 0.14225289, -380304.84, -130224.7, 0.0, 9.999396, 9.998777 
1.10501304e+3, 2.8448227e+2, -281531.9, -304876.34, 9089.951, -0.02369779, 0.13717048, -278409.94, -126319.41, 0.0, 9.999476, 9.999163 
1.1050134e+3, 2.9448184e+2, -111606.555, -164546.0, 6291.23, -0.033019293, 0.16854486, -110869.19, -56776.21, 0.0, 9.999935, 9.999231 
1.1050143e+3, 3.0448082e+2, -31021.396, -60558.453, 37836.79, -0.051594652, 0.12901284, -5173.0327, -5173.0327, 0.0, 9.999982, 9.999591 
1.1050153e+3, 3.1448114e+2, -89551.03, -69737.41, 23994.432, -0.08479219, 0.19551694, -53685.066, -53685.066, 0.0, 9.999495, 9.999762 
1.1149882e+3, 1.2449454e+2, -1803723.4, -1730844.4, 60107.215, 0.07335142, 0.080758765, -1696993.6, 22967.637, 0.000944546, 9.999288, 10.000226 
1.1149873e+3, 1.344942e+2, -1618652.4, -1600835.8, -52703.027, -0.015051525, 0.027734289, -1556293.5, 65669.82, 0.00045159098, 9.999904, 10.000163 
1.1149895e+3, 1.4449401e+2, -1521928.5, -1589733.5, 12299.858, 0.10766227, 0.03253755, -1519766.3, 4198.1953, 0.00012308804, 10.0002775, 9.999377 
1.11498974e+3, 1.5449356e+2, -1431590.0, -1497547.5, 12682.254, -0.036042083, 0.04834461, -1429235.5, -3266.4753, 0.000008505592, 10.0002365, 9.999355 
1.1149907e+3, 1.6449311e+2, -1337423.6, -1419071.3, 10474.461, -0.09564514, 0.07731922, -1336101.3, -8127.1045, 0.0000000033697685, 10.000287, 9.999197 
1.1149932e+3, 1.7449273e+2, -1207687.0, -1301530.0, -423.27124, -0.016217332, 0.11283086, -1207685.1, 22294.262, 0.0, 10.000485, 9.999235 
1.1149951e+3, 1.8449186e+2, -1120704.9, -1227203.8, -24489.188, 0.031402472, 0.11019735, -1115343.5, 16644.404, 0.0, 10.000485, 9.999074 
1.1149962e+3, 1.9449039e+2, -1054050.0, -1141173.4, -15390.812, 0.03067299, 0.05023705, -1051411.1, -17410.637, 0.0, 10.000257, 9.999102 
1.1149977e+3, 2.0448929e+2, -1023277.25, -1104158.8, 21968.508, 0.019315928, 0.044437803, -1017695.5, -81684.18, 0.0, 9.999918, 9.998847 
1.1149995e+3, 2.1448866e+2, -990637.5, -1034302.9, 27843.348, -0.00051628455, 0.09212329, -977087.75, -139067.48, 0.0, 9.999456, 9.998877 
1.1150016e+3, 2.2448793e+2, -839237.44, -861042.8, 46789.438, -0.019781714, 0.11021831, -802097.25, -62069.145, 0.0, 9.999608, 9.99932 
1.1150039e+3, 2.3448704e+2, -605621.7, -690453.7, 50455.11, -0.038482476, 0.08121483, -582122.4, 59912.117, 0.0, 10.000508, 9.999385 
1.1150058e+3, 2.4448608e+2, -551750.5, -728614.56, 11862.471, -0.045313522, 0.0961667, -550958.44, -6913.604, 0.0, 10.000699, 9.998358 
1.1150073e+3, 2.54485e+2, -549530.06, -678207.7, 10143.252, -0.037654962, 0.15129514, -548735.44, -102675.29, 0.0, 10.000049, 9.998343 
1.1150089e+3, 2.6448396e+2, -465309.3, -505000.22, 34067.47, -0.05089962, 0.17919661, -445728.44, -97655.05, 0.0, 9.999602, 9.999074 
1.1150104e+3, 2.74483e+2, -393008.25, -408996.72, 50178.133, -0.08792182, 0.16563426, -350191.53, -100107.94, 0.0, 9.999382, 9.999166 
1.1150117e+3, 2.8448236e+2, -277665.3, -293923.6, 24853.371, -0.10232666, 0.18208662, -259645.39, -107555.375, 0.0, 9.999462, 9.999246 
1.11501284e+3, 2.9448202e+2, -106595.055, -154739.5, 26678.154, -0.092532784, 0.2155051, -94734.06, -40641.566, 0.0, 9.999937, 9.999299 
1.11501426e+3, 3.044808e+2, -46439.363, -94139.94, 22125.236, -0.045362137, 0.16318496, -37757.17, -37757.17, 0.0, 9.999988, 9.999358 
1.1150163e+3, 3.1448114e+2, -104598.45, -97407.86, 9426.206, 0.051446386, 0.25654468, -90914.57, -90914.57, 0.0, 9.999478, 9.99958 
1.12498745e+3, 1.24493234e+2, -1806887.9, -1735633.6, 85826.055, 0.07619073, 0.118891396, -1678333.9, 41642.457, 0.0010643419, 9.999281, 10.000197 
1.1249869e+3, 1.3449307e+2, -1649437.9, -1612931.0, -37901.844, -0.02932913, 0.082105964, -1589116.3, 32860.86, 0.00051804923, 9.999681, 10.000187 
1.1249901e+3, 1.4449286e+2, -1546643.1, -1576902.4, 4987.6206, 0.14964697, 0.072271414, -1545842.3, -21864.31, 0.00014661087, 10.000003, 9.999598 
1.1249901e+3, 1.5449226e+2, -1435730.0, -1474392.8, 11384.194, -0.0086863395, 0.050332498, -1432627.0, -6644.575, 0.00001150662, 10.000099, 9.999581 
1.1249911e+3, 1.6449176e+2, -1375356.0, -1455599.4, 22659.873, -0.08384577, 0.07009638, -1369399.3, -41411.625, 0.0000000061074554, 10.000103, 9.999035 
1.1249934e+3, 1.7449145e+2, -1289323.6, -1361027.3, 20709.57, -0.019386545, 0.13191909, -1283772.0, -53778.457, 0.0, 10.000013, 9.999055 
1.1249953e+3, 1.8449062e+2, -1173377.1, -1231269.4, 43.118275, 0.017166384, 0.13385463, -1173377.1, -41375.176, 0.0, 10.000033, 9.999264 
1.12499624e+3, 1.9448914e+2, -1047859.06, -1114458.9, 4929.41, 0.0063398397, 0.050962314, -1047496.2, -13482.629, 0.0, 10.000198, 9.999312 
1.1249976e+3, 2.0448796e+2, -968866.06, -1078238.0, 32993.12, -0.0036331287, 0.025750045, -959684.2, -23660.066, 0.0, 10.000294, 9.998843 
1.1249993e+3, 2.1448717e+2, -867162.7, -976532.44, 29710.643, -0.009312935, 0.05810904, -859612.8, -21579.344, 0.0, 10.000311, 9.99886 
1.1250013e+3, 2.2448649e+2, -784737.44, -857100.25, 52454.29, -0.017682321, 0.09290935, -757196.44, -17154.932, 0.0, 10.000079, 9.99912 
1.1250039e+3, 2.3448597e+2, -759038.8, -787166.4, 35124.414, -0.031517226, 0.12079363, -735267.25, -93219.76, 0.0, 9.999555, 9.999179 
1.125006e+3, 2.4448511e+2, -713118.7, -766293.94, -12143.003, -0.03454535, 0.14016938, -710476.94, -166419.77, 0.0, 9.999421, 9.9987135 
1.12500735e+3, 2.5448382e+2, -565244.06, -642249.94, 13677.863, -0.025043493, 0.1352007, -562886.75, -116815.125, 0.0, 9.999755, 9.998732 
1.12500854e+3, 2.6448277e+2, -430512.56, -481527.1, 40457.2, -0.048885446, 0.13943914, -408193.0, -60109.445, 0.0, 9.999815, 9.999132 
1.12500966e+3, 2.7448204e+2, -365921.44, -392040.56, 27853.584, -0.113027595, 0.1476513, -348217.8, -98126.01, 0.0, 9.999552, 9.999201 
1.125011e+3, 2.844817e+2, -264534.72, -284787.7, 10294.155, -0.12772672, 0.18714845, -260221.14, -108124.58, 0.0, 9.99954, 9.99927 
1.1250128e+3, 2.944816e+2, -120490.85, -158961.83, 6732.3574, -0.083417706, 0.2459949, -119346.73, -65249.063, 0.0, 9.999832, 9.99932 
1.1250145e+3, 3.044802e+2, -64598.176, -115728.305, -19909.797, -0.01719924, 0.17818837, -57759.96, -57759.96, 0.0, 9.999921, 9.999241 
1.12501614e+3, 3.1448022e+2, -65866.01, -81703.945, -26941.71, 0.08201626, 0.25149393, -45703.563, -45703.563, 0.0, 9.99976, 9.999553 
1.1349868e+3, 1.2449188e+2, -1826752.9, -1777235.6, 80668.03, 0.08091433, 0.1259974, -1717612.3, 2378.2532, 0.0011953667, 9.999283, 9.999909 
1.1349856e+3, 1.3449241e+2, -1668279.6, -1652880.5, -20320.02, -0.1352238, 0.18663679, -1638850.3, -16863.875, 0.00059164723, 9.999683, 9.999913 
1.1349898e+3, 1.4449222e+2, -1522518.4, -1526447.0, 9612.67, 0.114430666, 0.17426237, -1514671.4, 9315.806, 0.00017336896, 10.000002, 9.999944 
1.13499135e+3, 1.5449096e+2, -1409898.3, -1420964.5, 15676.15, 0.09554786, 0.05142768, -1398807.4, 27188.283, 0.000015247707, 10.0001, 9.999948 
1.1349925e+3, 1.6449012e+2, -1376623.4, -1459636.1, 18016.313, 0.043861963, 0.01749887, -1372881.9, -44878.63, 0.000000009421829, 10.000108, 9.999006 
1.13499366e+3, 1.7448974e+2, -1291885.8, -1367634.9, 17255.12, 0.001283903, 0.076950476, -1288140.4, -58130.55, 0.0, 10.000016, 9.999008 
1.13499485e+3, 1.8448924e+2, -1162041.9, -1207579.3, 3792.332, -0.023486592, 0.10853543, -1161728.1, -29713.041, 0.0, 10.000032, 9.999427 
1.134996e+3, 1.9448863e+2, -1035973.3, -1088780.1, 10772.249, -0.04251586, 0.09647157, -1033860.44, 158.43005, 0.0, 10.000195, 9.999492 
1.13499716e+3, 2.0448741e+2, -976357.25, -1092267.3, 32099.096, -0.061730035, 0.061043628, -968061.75, -32032.445, 0.0, 10.000286, 9.998752 
1.1349989e+3, 2.1448542e+2, -875689.06, -993252.06, 30362.035, -0.07403751, -0.014230388, -868310.75, -30262.736, 0.0, 10.000306, 9.998749 
1.1350011e+3, 2.2448437e+2, -816947.2, -923038.2, 31968.732, -0.06029545, 0.010661894, -808058.6, -67998.21, 0.0, 10.000074, 9.998671 
1.13500364e+3, 2.3448446e+2, -792695.94, -856009.06, 15636.692, -0.016754566, 0.14670679, -789044.7, -146979.8, 0.0, 9.999549, 9.99871 
1.1350057e+3, 2.4448393e+2, -664513.4, -663200.6, -1954.9183, -0.0023787695, 0.1898851, -661794.9, -117722.914, 0.0, 9.999413, 9.999426 
1.1350072e+3, 2.5448263e+2, -512282.3, -529273.8, 27426.172, -0.020859439, 0.10547635, -492066.2, -45983.93, 0.0, 9.9997425, 9.999513 
1.1350083e+3, 2.644815e+2, -449314.28, -518299.72, 31706.648, -0.055725507, 0.071791515, -436955.56, -88862.54, 0.0, 9.999804, 9.998886 
1.13500915e+3, 2.744806e+2, -386782.22, -436361.47, 20317.488, -0.11257442, 0.09132436, -379519.94, -129415.914, 0.0, 9.999554, 9.998896 
1.1350107e+3, 2.8448024e+2, -269462.22, -295123.38, 20257.662, -0.10530931, 0.15450779, -258313.72, -106204.086, 0.0, 9.999541, 9.999199 
1.1350133e+3, 2.9448056e+2, -126984.08, -168354.06, 19649.277, -0.014399076, 0.25591815, -119139.04, -65030.188, 0.0, 9.999815, 9.999264 
1.1350149e+3, 3.0447897e+2, -66106.01, -114539.82, -25084.38, 0.023968918, 0.17053938, -55456.246, -55456.246, 0.0, 9.999901, 9.99926 
1.13501504e+3, 3.1447852e+2, -54373.23, -58686.047, -28086.285, -0.0038380628, 0.1927635, -28360.693, -28360.693, 0.0, 9.999761, 9.99971 
1.1449862e+3, 1.24489896e+2, -1769418.3, -1741927.6, 33290.89, 0.080326214, 0.121095546, -1719656.0, 353.761, 0.0013373722, 9.999645, 9.999977 
1.14498496e+3, 1.3449048e+2, -1654373.4, -1636189.3, -18068.334, -0.1637106, 0.1768411, -1625054.4, -3049.1943, 0.000672049, 9.999734, 10.000005 
1.1449899e+3, 1.4449039e+2, -1553232.8, -1544033.3, 4774.6353, 0.13227984, 0.17210872, -1542003.1, -17997.596, 0.0002032588, 9.999802, 9.999921 
1.14499144e+3, 1.5448955e+2, -1475952.0, -1456135.1, -23309.744, 0.119763955, 0.094398126, -1440715.3, -14703.467, 0.000019742625, 9.999661, 9.999918 
1.14499256e+3, 1.6448884e+2, -1419726.5, -1445008.0, -19282.152, 0.06396438, 0.060581185, -1409311.0, -81293.055, 0.000000013934886, 9.999661, 9.999321 
1.1449937e+3, 1.7448825e+2, -1290837.5, -1330308.0, 7095.762, 0.0025956167, 0.065311015, -1289600.6, -59576.55, 0.0, 9.999865, 9.999338 
1.1449949e+3, 1.8448775e+2, -1181721.6, -1238052.3, -610.356, -0.025442952, 0.08757982, -1181715.0, -49685.63, 0.0, 9.999989, 9.999238 
1.1449962e+3, 1.9448738e+2, -1075510.3, -1132082.6, -24912.063, -0.029621674, 0.1219267, -1066104.0, -32070.656, 0.0, 10.000028, 9.999274 
1.14499755e+3, 2.0448638e+2, -999429.0, -1069073.6, -9556.77, -0.044963457, 0.105767444, -998141.44, -62099.18, 0.0, 9.999981, 9.999057 
1.14499904e+3, 2.144846e+2, -920974.25, -977108.6, 19591.432, -0.068888396, 0.017103886, -914812.94, -76755.86, 0.0, 9.999833, 9.999086 
1.1450008e+3, 2.2448352e+2, -883785.9, -966720.06, 42072.28, -0.06424953, 0.024900302, -866180.1, -126110.95, 0.0, 9.999667, 9.998565 
1.1450031e+3, 2.3448326e+2, -811599.7, -879572.2, 49716.97, -0.028636247, 0.13895738, -785362.6, -143284.64, 0.0, 9.999483, 9.998579 
1.145005e+3, 2.4448268e+2, -663285.94, -651753.9, 43484.38, -0.014967534, 0.18083504, -613654.94, -69569.24, 0.0, 9.999374, 9.999522 
1.1450066e+3, 2.5448173e+2, -560590.94, -540224.1, 20308.783, -0.025789201, 0.12189854, -527688.6, -81596.73, 0.0, 9.999358, 9.999622 
1.14500806e+3, 2.6448068e+2, -501865.4, -543745.7, 977.13556, -0.044794887, 0.08974769, -501842.63, -153741.3, 0.0, 9.999444, 9.998885 
1.1450092e+3, 2.7447948e+2, -373180.97, -430097.47, 10002.875, -0.07704303, 0.08069049, -371474.2, -121359.7, 0.0, 9.999652, 9.998891 
1.14501074e+3, 2.8447902e+2, -275853.5, -326886.66, 16106.786, -0.062316958, 0.14261483, -271195.2, -119073.65, 0.0, 9.999622, 9.99894 
1.1450132e+3, 2.9447937e+2, -224860.73, -246999.16, -2166.1104, 0.01568392, 0.27468672, -224650.8, -170529.2, 0.0, 9.999278, 9.998982 
1.1450146e+3, 3.0447742e+2, -102402.02, -135007.03, -33334.81, 0.027692469, 0.17104177, -81596.83, -81596.83, 0.0, 9.999664, 9.999232 
1.145015e+3, 3.1447655e+2, 130723.9, 46473.37, -44914.195, -0.037657473, 0.15519403, 150176.42, 150176.42, 0.0, 10.000967, 9.999851 
1.1549857e+3, 1.2448738e+2, -1741019.9, -1681260.6, 5026.0557, 0.062088802, 0.10507689, -1680840.9, 39192.555, 0.001489488, 9.999638, 10.000397 
1.1549852e+3, 1.3448729e+2, -1622953.4, -1571814.3, -11328.862, -0.119621955, 0.050487734, -1569417.0, 52616.09, 0.00075867696, 9.999738, 10.000445 
1.1549903e+3, 1.4448743e+2, -1578817.0, -1599518.1, 400.84335, 0.19742407, 0.0640321, -1578809.3, -54776.605, 0.0002361324, 9.99981, 9.9995365 
1.1549905e+3, 1.5448813e+2, -1505112.6, -1517458.9, -28245.45, 0.058325894, 0.18025413, -1482373.6, -56343.844, 0.000024990082, 9.999663, 9.999497 
1.15499124e+3, 1.6448803e+2, -1374041.6, -1349694.0, -13943.117, -0.031251173, 0.20123594, -1343358.0, -15327.373, 0.000000023716384, 9.999659, 9.999976 
1.15499325e+3, 1.7448707e+2, -1241226.1, -1227230.0, 14898.843, -0.01993886, 0.0978602, -1217767.5, 12268.086, 0.0, 9.999865, 10.000046 
1.15499526e+3, 1.8448621e+2, -1220102.4, -1317717.8, -357.72632, 0.005886414, 0.07143296, -1220101.1, -88057.086, 0.0, 9.999988, 9.9986925 
1.154997e+3, 1.9448544e+2, -1118728.8, -1221910.9, -23506.156, 0.040062916, 0.12719466, -1113626.1, -79569.66, 0.0, 10.000027, 9.998659 
1.1549984e+3, 2.0448492e+2, -951201.8, -968328.2, -16775.762, 0.039929014, 0.15934749, -940930.06, -4867.665, 0.0, 9.999977, 9.999751 
1.15499966e+3, 2.1448472e+2, -867981.8, -865487.2, 13560.744, 0.0026993556, 0.15169258, -853116.5, -15056.35, 0.0, 9.9998255, 9.999857 
1.15500085e+3, 2.2448392e+2, -868324.3, -931584.8, 33414.434, -0.033785935, 0.1356588, -853943.75, -113876.28, 0.0, 9.999655, 9.998813 
1.15500204e+3, 2.3448236e+2, -797280.2, -848537.1, 43280.043, -0.07100777, 0.09766439, -772609.75, -130523.33, 0.0, 9.999477, 9.9987955 
1.15500376e+3, 2.444814e+2, -701066.4, -728551.0, 41985.457, -0.07794909, 0.1139418, -670631.44, -126533.57, 0.0, 9.999366, 9.999 
1.15500584e+3, 2.544812e+2, -600522.75, -623346.75, 20877.219, -0.04561879, 0.18437873, -588142.06, -142041.95, 0.0, 9.999357, 9.999053 
1.1550077e+3, 2.6448032e+2, -486905.84, -511267.06, 7783.531, -0.022280278, 0.19153391, -484631.3, -136522.98, 0.0, 9.999438, 9.99911 
1.1550095e+3, 2.7447873e+2, -355847.84, -390751.22, 18815.018, -0.0111216875, 0.113390565, -347637.0, -97513.72, 0.0, 9.999639, 9.9991665 
1.155011e+3, 2.8447798e+2, -306406.1, -387191.94, 4785.8667, -0.0039856485, 0.15032916, -306123.56, -153991.38, 0.0, 9.999607, 9.998535 
1.1550123e+3, 2.9447806e+2, -255631.42, -312348.0, -11467.971, -0.002333182, 0.30503592, -253400.38, -199265.4, 0.0, 9.999283, 9.998532 
1.1550139e+3, 3.0447558e+2, -113570.555, -158839.03, 12699.951, -0.013869645, 0.18087405, -110251.04, -110251.04, 0.0, 9.999667, 9.999068 
1.1550161e+3, 3.1447434e+2, 131167.53, 51048.066, 7128.716, -0.029263746, 0.13973387, 131796.88, 131796.88, 0.0, 10.000951, 9.999891 
1.1649856e+3, 1.24485254e+2, -1791520.8, -1705270.1, 24306.18, 0.10266833, 0.070127994, -1698892.0, 21160.182, 0.0016512593, 9.99929, 10.0004 
1.16498485e+3, 1.3448508e+2, -1674753.9, -1598283.9, 6904.8115, -0.10760885, 0.008329358, -1597665.5, 24387.396, 0.0008513687, 9.999387, 10.000433 
1.16499014e+3, 1.4448522e+2, -1596147.5, -1615739.6, 16194.518, 0.2048262, 0.024577357, -1587016.8, -62963.363, 0.00027198074, 9.999725, 9.999466 
1.16499014e+3, 1.5448618e+2, -1432850.9, -1490951.5, 9115.834, 0.032373358, 0.17548913, -1431454.3, -5404.972, 0.00003101119, 10.0001955, 9.999422 
1.1649908e+3, 1.6448635e+2, -1282770.4, -1291584.9, 9181.223, -0.061106097, 0.2195603, -1276993.4, 51055.133, 0.00000004774233, 10.000224, 10.000104 
1.16499305e+3, 1.7448561e+2, -1248776.9, -1215113.8, -6981.8057, -0.020791398, 0.1251121, -1213723.1, 16328.311, 0.0, 9.999745, 10.000186 
1.1649951e+3, 1.8448482e+2, -1271222.1, -1324210.6, -8922.517, 0.017379625, 0.092014104, -1269760.0, -137701.02, 0.0, 9.9995575, 9.998856 
1.16499685e+3, 1.9448398e+2, -1149324.3, -1217637.6, 26027.248, 0.041086346, 0.12230366, -1140538.0, -106465.73, 0.0, 9.999735, 9.998828 
1.1649982e+3, 2.0448364e+2, -984338.56, -967959.9, 33352.215, 0.035922814, 0.15698512, -941806.3, -5729.555, 0.0, 9.999682, 9.999894 
1.16499916e+3, 2.1448395e+2, -926544.2, -878344.0, 14287.703, -0.00032492026, 0.18536143, -874427.06, -36356.633, 0.0, 9.999357, 9.999993 
1.16500035e+3, 2.2448339e+2, -886248.9, -922452.7, 23668.248, -0.03916039, 0.1802038, -874553.75, -134478.81, 0.0, 9.9994545, 9.998971 
1.16500184e+3, 2.3448181e+2, -700319.25, -783503.3, 27023.313, -0.08271262, 0.124189466, -692311.3, -50218.84, 0.0, 10.000066, 9.998957 
1.1650034e+3, 2.444807e+2, -589871.8, -712479.5, 18555.244, -0.088944465, 0.13243318, -587125.2, -43019.926, 0.0, 10.000292, 9.998664 
1.1650055e+3, 2.5448015e+2, -525926.25, -627610.06, 11312.833, -0.050320044, 0.20579056, -524682.8, -78570.375, 0.0, 10.000045, 9.9986925 
1.1650074e+3, 2.6447922e+2, -424284.9, -465480.16, 8388.343, -0.018687924, 0.21922518, -422642.3, -74520.79, 0.0, 9.999803, 9.9992485 
1.16500914e+3, 2.744779e+2, -358852.66, -374806.9, 9517.446, 0.0061012735, 0.15268864, -354411.4, -104278.984, 0.0, 9.999541, 9.999324 
1.16501085e+3, 2.84477e+2, -288234.34, -387368.28, 13870.365, 0.0096408455, 0.17087473, -286330.22, -134188.86, 0.0, 9.99977, 9.998456 
1.1650121e+3, 2.9447642e+2, -67174.7, -231891.05, 20525.623, -0.015129496, 0.2668892, -64655.496, -10506.025, 0.0, 10.000624, 9.998439 
1.16501406e+3, 3.0447367e+2, 18559.807, -126708.46, 53735.293, -0.02319205, 0.13263051, 36276.098, 36276.098, 0.0, 10.000713, 9.998785 
1.1650168e+3, 3.144728e+2, -45745.05, -45941.637, 37286.758, 0.009451598, 0.16077243, -8556.459, -8556.459, 0.0, 9.999786, 9.999787 
1.17498584e+3, 1.2448363e+2, -1819800.8, -1765849.8, -12091.604, 0.19202119, 0.019419886, -1763263.8, -43198.6, 0.0018234614, 9.999297, 9.999981 
1.174984e+3, 1.3448395e+2, -1707594.6, -1666133.5, 14135.974, -0.13345507, 0.052511092, -1661772.6, -39709.0, 0.0009506097, 9.999384, 9.9999695 
1.1749893e+3, 1.4448382e+2, -1580001.3, -1581927.9, 33498.836, 0.14650686, 0.056425698, -1547451.9, -23385.203, 0.00031097958, 9.999723, 9.999699 
1.1749904e+3, 1.5448377e+2, -1413628.0, -1452372.8, 27175.316, 0.036272176, 0.07885657, -1399626.9, 26442.75, 0.00003785508, 10.0002, 9.999685 
1.1749914e+3, 1.6448379e+2, -1310157.6, -1350200.6, -8749.402, -0.03211847, 0.112509035, -1308329.4, 19741.818, 0.00000010132158, 10.000231, 9.999699 
1.1749929e+3, 1.7448388e+2, -1279036.1, -1278547.3, -25079.64, -0.004088114, 0.14606784, -1253710.9, -23639.918, 0.0, 9.999746, 9.999751 
1.1749945e+3, 1.8448366e+2, -1210219.8, -1196771.8, -5212.2046, 0.0024510166, 0.15001418, -1194988.3, -62914.45, 0.0, 9.999554, 9.999732 
1.1749958e+3, 1.9448303e+2, -1083408.0, -1079859.1, 32623.889, -0.030649807, 0.10835918, -1048961.4, -14881.397, 0.0, 9.999731, 9.999776 
1.17499694e+3, 2.0448257e+2, -1013767.6, -1027925.4, 20479.602, -0.061804086, 0.09915355, -999178.0, -63093.336, 0.0, 9.999677, 9.999485 
1.1749977e+3, 2.1448228e+2, -961215.8, -949537.06, 2096.9548, -0.08342374, 0.116987124, -949171.94, -111084.59, 0.0, 9.999353, 9.999508 
1.1749994e+3, 2.2448197e+2, -883594.2, -915486.44, 43459.684, -0.08735808, 0.15835845, -853247.5, -113156.445, 0.0, 9.999447, 9.9990225 
1.1750019e+3, 2.3448163e+2, -694510.94, -771187.9, 50292.25, -0.06881786, 0.21707599, -669610.56, -27514.686, 0.0, 10.000063, 9.999044 
1.1750042e+3, 2.4448058e+2, -601414.9, -734072.25, 9649.618, -0.053247247, 0.23478605, -600716.6, -56608.883, 0.0, 10.000282, 9.998521 
1.1750056e+3, 2.5447866e+2, -537527.06, -650188.9, 2934.6345, -0.043149047, 0.18639238, -537450.6, -91322.24, 0.0, 10.000037, 9.998541 
1.1750069e+3, 2.6447743e+2, -420670.5, -456988.0, -869.9328, -0.037503015, 0.1731087, -420649.66, -72509.234, 0.0, 9.999796, 9.9993105 
1.1750083e+3, 2.744771e+2, -354197.5, -365219.47, 2110.2295, -0.036284354, 0.19804594, -353807.28, -103666.02, 0.0, 9.999539, 9.999392 
1.1750101e+3, 2.8447613e+2, -276984.13, -362332.22, 43476.53, -0.03249957, 0.20240855, -258737.86, -106589.09, 0.0, 9.999763, 9.9986315 
1.1750127e+3, 2.9447436e+2, -55455.79, -204507.83, 53874.12, -0.02596958, 0.15909661, -38022.316, 16143.067, 0.0, 10.000611, 9.998633 
1.1750149e+3, 3.0447158e+2, -5105.538, -173587.42, 23403.96, -0.003125097, 0.0255686, -1914.8972, -1914.8972, 0.0, 10.000701, 9.99847 
1.1750172e+3, 3.1447208e+2, -55416.047, -65665.94, 8280.934, 0.058579683, 0.22299343, -50802.465, -50802.465, 0.0, 9.999783, 9.999654 
1.1849846e+3, 1.24481834e+2, -1853169.5, -1777479.1, -89501.1, 0.15256803, 0.035544213, -1718150.8, 1932.8872, 0.0020081834, 9.999053, 10.000018 
1.18498355e+3, 1.3448253e+2, -1623915.6, -1625150.5, 8530.861, -0.14231364, 0.10673158, -1615979.9, 6099.312, 0.0010574218, 9.999959, 9.999972 
1.18498914e+3, 1.444824e+2, -1503061.4, -1516216.3, 22992.197, 0.14691924, 0.09847833, -1485724.4, 38357.297, 0.00035351914, 10.00013, 9.999953 
1.18499026e+3, 1.5448196e+2, -1532151.6, -1479061.5, 12189.811, 0.053102694, 0.05614676, -1476396.4, -50310.35, 0.00004562391, 9.999257, 9.999955 
1.1849912e+3, 1.6448191e+2, -1489258.3, -1443261.6, -533.6391, -0.010561666, 0.06994578, -1443255.5, -115167.2, 0.00000019883093, 9.999031, 9.999639 
1.18499264e+3, 1.7448229e+2, -1304314.8, -1298722.1, 9266.124, 0.003402134, 0.1398159, -1291839.5, -61752.043, 0.0, 9.999609, 9.999678 
1.1849941e+3, 1.8448244e+2, -1133748.5, -1118594.5, 27446.896, -0.008059566, 0.16775183, -1097697.9, 34389.305, 0.0, 9.999902, 10.0001 
1.18499525e+3, 1.9448228e+2, -1037140.8, -1013923.9, 21507.39, -0.06449731, 0.1336084, -1001092.1, 32995.375, 0.0, 9.99986, 10.000167 
1.18499644e+3, 2.044819e+2, -978088.7, -1045320.9, -6839.2607, -0.09452154, 0.12637222, -977400.0, -41308.703, 0.0, 10.000069, 9.999179 
1.1849977e+3, 2.1448123e+2, -805462.4, -911896.25, -15927.037, -0.08740657, 0.14039001, -803130.1, 34969.332, 0.0, 10.000586, 9.999172 
1.1849995e+3, 2.2448061e+2, -738320.5, -848574.6, 20962.719, -0.06908586, 0.17141704, -734469.4, 5637.132, 0.0, 10.000459, 9.998995 
1.1850021e+3, 2.3448007e+2, -770343.1, -808925.4, 18556.938, -0.038758077, 0.21152325, -762866.6, -120754.5, 0.0, 9.999547, 9.999033 
1.1850041e+3, 2.4447905e+2, -730872.2, -769047.3, -919.1686, -0.029727412, 0.21870536, -730850.06, -186727.23, 0.0, 9.999275, 9.998765 
1.18500546e+3, 2.5447738e+2, -557921.5, -631414.0, 21358.955, -0.046760075, 0.17117488, -552164.94, -106024.98, 0.0, 9.999775, 9.998796 
1.1850069e+3, 2.6447618e+2, -400277.8, -481047.4, 13255.848, -0.04717573, 0.16176963, -398157.9, -50006.164, 0.0, 10.000082, 9.999008 
1.1850083e+3, 2.7447554e+2, -286030.03, -369064.16, -17051.207, -0.028455198, 0.19178791, -282664.9, -32508.295, 0.0, 10.000168, 9.999062 
1.1850102e+3, 2.8447446e+2, -225875.56, -313158.53, 21587.553, -0.018506272, 0.18801145, -220828.22, -68662.84, 0.0, 10.0000105, 9.998849 
1.1850128e+3, 2.9447272e+2, -198101.48, -246363.28, 36771.574, -0.016086323, 0.12188263, -178250.02, -124070.26, 0.0, 9.999515, 9.998874 
1.18501514e+3, 3.0447012e+2, -159842.72, -243743.31, 14734.046, 0.004240897, -0.004811227, -157330.45, -157330.45, 0.0, 9.99962, 9.9985075 
1.18501745e+3, 3.1447092e+2, 66457.984, 20839.607, 19387.672, 0.07002218, 0.21747322, 73584.41, 73584.41, 0.0, 10.000502, 9.9999 
1.1949818e+3, 1.24479994e+2, -1819436.3, -1708671.5, -96095.56, -0.035958234, 0.12242145, -1653141.5, 66965.02, 0.0022081332, 9.999054, 10.000491 
1.1949835e+3, 1.344809e+2, -1591669.5, -1559626.6, 45849.156, -0.13909169, 0.16959098, -1527080.3, 95018.76, 0.0011730703, 9.999963, 10.000422 
1.1949899e+3, 1.4448102e+2, -1482352.6, -1475486.3, -6567.8286, 0.20020625, 0.14863932, -1471508.5, 52589.26, 0.00040013902, 10.000138, 10.00023 
1.19498976e+3, 1.5448086e+2, -1512674.0, -1439160.4, -20694.693, 0.079025276, 0.10794312, -1433735.0, -7637.41, 0.00005450229, 9.999258, 10.000229 
1.19499035e+3, 1.644808e+2, -1469642.4, -1402511.5, 17363.658, -0.0024111096, 0.09455269, -1398286.3, -70187.58, 0.00000035173326, 9.99903, 9.999919 
1.1949923e+3, 1.744809e+2, -1284251.0, -1257814.3, 31386.379, -0.0028442817, 0.10650059, -1236976.4, -6876.069, 0.0, 9.999611, 9.999958 
1.1949939e+3, 1.844812e+2, -1143994.6, -1140256.9, 25371.877, -0.020424124, 0.14289363, -1116685.1, 15413.865, 0.0, 9.999903, 9.999951 
1.1949951e+3, 1.9448176e+2, -1049871.0, -1039779.75, 19542.598, -0.06520401, 0.19693887, -1024641.94, 9452.346, 0.0, 9.999856, 9.999991 
1.1949968e+3, 2.0448169e+2, -993402.75, -1075502.9, 9861.799, -0.06809678, 0.23940063, -992234.8, -56138.574, 0.0, 10.000061, 9.998976 
1.1949989e+3, 2.1448083e+2, -820332.56, -941846.94, 3308.139, -0.015462953, 0.25477383, -820242.56, 17863.768, 0.0, 10.00058, 9.998969 
1.1950007e+3, 2.2447939e+2, -746797.75, -864582.44, -12250.595, 0.011077536, 0.21882756, -745537.1, -5416.2983, 0.0, 10.000451, 9.998889 
1.19500205e+3, 2.3447724e+2, -777574.56, -823916.94, -15442.166, 0.004489485, 0.1075785, -772900.44, -130759.89, 0.0, 9.999546, 9.998932 
1.19500354e+3, 2.4447614e+2, -688159.94, -679362.2, 14573.412, -0.02199317, 0.08470966, -668538.25, -124388.234, 0.0, 9.9992695, 9.999384 
1.195005e+3, 2.5447634e+2, -512792.03, -536178.75, 41295.145, -0.06960831, 0.15851709, -481566.6, -35419.82, 0.0, 9.999766, 9.9994545 
1.1950068e+3, 2.644755e+2, -450372.13, -583292.56, 16825.264, -0.05583245, 0.18277097, -448275.4, -100120.08, 0.0, 10.000073, 9.998311 
1.19500905e+3, 2.7447334e+2, -340037.5, -480458.97, -12787.533, 0.028575616, 0.13541058, -338882.5, -88704.305, 0.0, 10.000164, 9.998299 
1.19501084e+3, 2.84472e+2, -204298.11, -268266.88, 4481.806, 0.050344154, 0.1289295, -203985.63, -51794.754, 0.0, 10.000008, 9.999159 
1.1950125e+3, 2.944715e+2, -174489.5, -195382.03, 21105.734, -0.0014032098, 0.15273687, -161386.31, -107194.32, 0.0, 9.999505, 9.9992285 
1.19501464e+3, 3.0446932e+2, -142962.03, -206265.95, 45143.305, -0.016749175, 0.039466664, -119479.93, -119479.93, 0.0, 9.999609, 9.998771 
1.1950177e+3, 3.1446934e+2, 98808.9, 91972.81, 55853.1, 0.039537508, 0.15404043, 151348.44, 151348.44, 0.0, 10.000485, 10.000396 
1.2049808e+3, 1.2447779e+2, -1798391.9, -1691858.8, -66071.32, -0.042038858, 0.11700005, -1660256.4, 59872.098, 0.0024257244, 9.999173, 10.000547 
1.2049834e+3, 1.3447869e+2, -1727165.3, -1623805.5, 73932.8, -0.10769592, 0.16379952, -1585280.8, 36840.723, 0.0012988481, 9.999028, 10.000431 
1.2049894e+3, 1.44479e+2, -1593449.4, -1503325.9, -15232.438, 0.18021385, 0.15044034, -1500820.9, 23297.693, 0.00045139206, 9.999266, 10.000458 
1.204989e+3, 1.5447925e+2, -1408833.3, -1361431.1, -36835.04, 0.044249304, 0.12457032, -1341330.8, 84783.914, 0.00006471426, 9.999853, 10.000475 
1.2049896e+3, 1.6447946e+2, -1311256.6, -1300300.0, 9437.629, -0.030413752, 0.11640988, -1294865.9, 33246.457, 0.00000057087306, 10.000007, 10.000148 
1.2049919e+3, 1.7447974e+2, -1258288.0, -1220272.8, 18254.424, -0.006665201, 0.12255421, -1212926.8, 17184.627, 0.0, 9.999681, 10.000181 
1.2049938e+3, 1.8447994e+2, -1206887.8, -1207434.3, 4740.43, -0.00811248, 0.15138686, -1202412.8, -70301.484, 0.0, 9.999629, 9.999622 
1.2049952e+3, 1.9448005e+2, -1067912.8, -1087293.8, -16020.234, -0.046112835, 0.19629057, -1058880.1, -24768.041, 0.0, 9.999902, 9.999641 
1.2049969e+3, 2.0447989e+2, -996281.8, -1050833.3, -15123.988, -0.046691842, 0.23887871, -992369.4, -56254.254, 0.0, 9.999931, 9.999206 
1.20499924e+3, 2.144794e+2, -935051.2, -968194.9, 11515.454, 0.00040954532, 0.26559183, -931443.06, -93322.23, 0.0, 9.999667, 9.999228 
1.20500095e+3, 2.2447807e+2, -840744.75, -904577.56, 10606.317, 0.019934047, 0.22412337, -839028.56, -98894.92, 0.0, 9.999783, 9.998937 
1.2050021e+3, 2.344757e+2, -655700.5, -760677.3, 14995.433, 0.004519585, 0.088330455, -653600.5, -11445.587, 0.0, 10.000365, 9.998971 
1.2050034e+3, 2.444746e+2, -508350.5, -603470.94, 35109.473, -0.022675961, 0.0682177, -496795.16, 47369.137, 0.0, 10.000552, 9.999287 
1.2050051e+3, 2.5447506e+2, -449468.88, -516667.34, 2793.5718, -0.06335623, 0.17685902, -449352.94, -3193.7065, 0.0, 10.000251, 9.999354 
1.20500706e+3, 2.6447415e+2, -446801.8, -600610.94, -29720.242, -0.04864936, 0.20887564, -441258.78, -93090.03, 0.0, 10.000183, 9.998137 
1.2050094e+3, 2.7447155e+2, -318396.84, -490291.9, -15935.933, 0.03270016, 0.13592096, -316931.97, -66735.84, 0.0, 10.0004, 9.998118 
1.2050111e+3, 2.8447005e+2, -157023.89, -254273.5, -9371.029, 0.055751335, 0.12944494, -156129.13, -3918.6704, 0.0, 10.000371, 9.99908 
1.20501235e+3, 2.944698e+2, -100476.95, -168369.16, -31420.348, 0.007714298, 0.1845683, -88167.5, -33957.688, 0.0, 10.000052, 9.99915 
1.2050143e+3, 3.0446777e+2, -114883.766, -197318.7, -5050.357, -0.013037748, 0.08809384, -114575.516, -114575.516, 0.0, 9.999823, 9.998728 
1.2050177e+3, 3.144672e+2, -10405.172, 56287.23, -14747.851, 0.03803431, 0.14928435, 59402.902, 59402.902, 0.0, 9.99966, 10.00055 
1.2149817e+3, 1.2447534e+2, -1824786.1, -1748270.8, -100480.64, 0.120116815, 0.021984177, -1679010.9, 41137.19, 0.0026624324, 9.999177, 10.00016 
1.21498294e+3, 1.3447599e+2, -1757832.6, -1687979.1, 70485.914, -0.05271851, 0.08901984, -1644241.1, -22095.324, 0.0014356553, 9.999029, 9.99999 
1.2149876e+3, 1.4447646e+2, -1580712.0, -1477830.8, 5573.666, 0.078635596, 0.10451974, -1477529.8, 46613.83, 0.0005075534, 9.999269, 10.000632 
1.2149878e+3, 1.5447716e+2, -1393929.9, -1330657.5, -14239.124, -0.05623692, 0.10464575, -1327600.6, 98535.9, 0.000076397075, 9.999853, 10.000687 
1.2149889e+3, 1.6447794e+2, -1299454.6, -1276806.9, -3293.7932, -0.10109658, 0.13344996, -1276337.6, 51791.316, 0.0000008702971, 10.00001, 10.000308 
1.2149916e+3, 1.7447886e+2, -1247070.6, -1197903.8, 5737.7163, -0.012487516, 0.1881137, -1197243.1, 32876.965, 0.0, 9.999683, 10.000335 
1.21499375e+3, 1.8447869e+2, -1241988.3, -1279718.1, 12466.951, 0.02292765, 0.19587786, -1238241.0, -106118.016, 0.0, 9.999626, 9.999127 
1.21499546e+3, 1.9447717e+2, -1105364.8, -1164989.3, -5765.587, -0.011309546, 0.13187614, -1104812.4, -70672.016, 0.0, 9.999901, 9.999109 
1.2149971e+3, 2.0447655e+2, -949719.7, -954794.1, -25804.934, -0.03589417, 0.12343499, -926327.56, 9820.182, 0.0, 9.999932, 9.999865 
1.21499844e+3, 2.1447702e+2, -884725.5, -863082.56, 1540.1136, -0.0448289, 0.17259426, -862973.5, -24831.053, 0.0, 9.999662, 9.999952 
1.21500015e+3, 2.2447671e+2, -828920.7, -878125.06, 29314.41, -0.04788349, 0.18857774, -815252.75, -75108.37, 0.0, 9.999774, 9.999123 
1.21500194e+3, 2.3447551e+2, -645299.4, -737907.75, 37275.043, -0.04349359, 0.15172245, -632160.25, 9994.782, 0.0, 10.000359, 9.99913 
1.2150038e+3, 2.4447446e+2, -566394.25, -722756.7, 24531.24, -0.037334442, 0.16665341, -562635.94, -18470.28, 0.0, 10.0005455, 9.998471 
1.2150056e+3, 2.544736e+2, -509998.84, -642804.94, -7517.8726, -0.030913657, 0.2275335, -509574.63, -63397.797, 0.0, 10.000251, 9.998488 
1.21500745e+3, 2.644722e+2, -422412.16, -549898.8, -22662.176, -0.02785569, 0.24167189, -418503.56, -70312.03, 0.0, 10.000181, 9.998487 
1.2150092e+3, 2.7447024e+2, -290988.6, -430089.78, -5747.0054, -0.027593654, 0.19134171, -290751.56, -40541.52, 0.0, 10.000385, 9.998538 
1.2150109e+3, 2.8446874e+2, -195639.39, -332045.38, -20179.424, -0.014852257, 0.18769813, -192716.75, -40492.832, 0.0, 10.000359, 9.998552 
1.21501245e+3, 2.9446772e+2, -141034.39, -252051.33, -41995.46, 0.010358065, 0.22058918, -126938.195, -72705.19, 0.0, 10.000049, 9.998577 
1.2150145e+3, 3.044654e+2, -134145.55, -237729.86, -10918.65, 0.016107602, 0.144438, -133007.14, -133007.14, 0.0, 9.999823, 9.998451 
1.21501744e+3, 3.144646e+2, -20031.543, 42367.9, -14921.753, 0.043946475, 0.20652114, 45752.586, 45752.586, 0.0, 9.999635, 10.000466 
1.2249812e+3, 1.2447394e+2, -1777966.6, -1730231.8, -98603.21, 0.13965964, 0.0070110983, -1652648.5, 67512.55, 0.0029179724, 9.999519, 10.000118 
1.22498244e+3, 1.3447426e+2, -1701508.8, -1668711.4, 116686.0, -0.030844098, 0.047622968, -1567277.4, 54883.996, 0.0015834377, 9.999453, 9.999917 
1.2249863e+3, 1.4447474e+2, -1588326.4, -1500140.0, 64828.953, 0.024157919, 0.07755686, -1465830.4, 58328.816, 0.00056846405, 9.999299, 10.000463 
1.2249872e+3, 1.5447569e+2, -1527311.4, -1414390.4, 13036.843, -0.061454065, 0.11902418, -1412904.8, 13246.529, 0.00008951281, 9.9990225, 10.00051 
1.2249886e+3, 1.6447641e+2, -1423486.8, -1346011.3, 3428.319, -0.08843836, 0.15497018, -1345859.9, -17714.992, 0.0000012652538, 9.999199, 10.000223 
1.2249912e+3, 1.744769e+2, -1217173.3, -1191342.5, -6726.0537, -0.026248995, 0.17682624, -1189696.0, 40443.453, 0.0, 9.999925, 10.000261 
1.2249934e+3, 1.8447664e+2, -1145882.4, -1201491.3, 11475.981, 0.0011371942, 0.16545528, -1143607.3, -11464.971, 0.0, 10.000151, 9.999412 
1.22499526e+3, 1.944754e+2, -1100014.4, -1128592.6, 53967.72, -0.020832948, 0.097658016, -1058476.1, -24320.713, 0.0, 9.999792, 9.999412 
1.2249968e+3, 2.0447482e+2, -980203.06, -986591.1, 44122.44, -0.041821238, 0.08483182, -939159.2, -2997.346, 0.0, 9.999797, 9.999713 
1.2249983e+3, 2.1447507e+2, -811269.4, -846523.56, 2308.9358, -0.05742946, 0.13064434, -811118.8, 27040.756, 0.0, 10.000251, 9.999783 
1.225e+3, 2.2447489e+2, -728988.5, -826796.06, -4779.8066, -0.060939323, 0.16588497, -728755.44, 11405.649, 0.0, 10.000448, 9.999149 
1.2250022e+3, 2.3447418e+2, -648088.0, -735234.1, -8312.232, -0.050707977, 0.17618714, -647302.25, -5135.02, 0.0, 10.000322, 9.999166 
1.2250043e+3, 2.4447311e+2, -627063.2, -785983.56, -19064.98, -0.035966728, 0.20062254, -624808.06, -80629.375, 0.0, 10.000275, 9.998167 
1.2250061e+3, 2.5447157e+2, -519550.72, -683430.5, -12876.707, -0.017297331, 0.22620712, -518545.1, -72348.086, 0.0, 10.00034, 9.998166 
1.2250079e+3, 2.6446992e+2, -388871.16, -525780.94, -8312.905, -0.012728367, 0.22614424, -388368.28, -40153.75, 0.0, 10.000378, 9.998558 
1.2250095e+3, 2.7446815e+2, -289619.44, -419217.03, -19130.096, -0.024752624, 0.18629277, -286854.6, -36624.02, 0.0, 10.000352, 9.998629 
1.2250112e+3, 2.8446665e+2, -200094.92, -353304.94, -37676.86, -0.014258997, 0.18725619, -191330.89, -39086.457, 0.0, 10.000413, 9.998379 
1.22501284e+3, 2.9446542e+2, -75614.08, -242429.77, -31654.586, 0.022098752, 0.21982501, -69809.37, -15553.017, 0.0, 10.000592, 9.998381 
1.2250146e+3, 3.044632e+2, -67311.52, -247419.97, 2080.5303, 0.024195371, 0.17743106, -67287.49, -67287.49, 0.0, 10.0004635, 9.998075 
1.2250172e+3, 3.1446183e+2, 6603.529, 25860.857, -17699.973, 0.037220713, 0.22433738, 36381.64, 36381.64, 0.0, 9.999943, 10.000204 
1.2349794e+3, 1.24473736e+2, -1757254.1, -1687949.0, -115258.086, -0.0015535452, 0.07695832, -1602247.0, 117918.61, 0.0031899144, 9.999521, 10.000408 
1.2349817e+3, 1.3447356e+2, -1682015.8, -1627395.3, 115646.69, -0.04589758, 0.039632287, -1535877.9, 86289.48, 0.0017411282, 9.999449, 10.000203 
1.2349856e+3, 1.4447394e+2, -1625487.8, -1577575.6, 53204.28, 0.00989091, 0.06915311, -1543182.9, -19018.121, 0.0006337289, 9.999299, 9.999932 
1.2349871e+3, 1.5447488e+2, -1566839.6, -1498625.0, 2709.5205, 0.023680793, 0.16822638, -1498517.6, -72359.41, 0.00010392506, 9.999029, 9.99993 
1.2349888e+3, 1.6447493e+2, -1445859.0, -1392801.8, 27608.125, 0.0012548589, 0.1819142, -1381042.4, -52882.97, 0.0000017603737, 9.999201, 9.999902 
1.2349909e+3, 1.7447396e+2, -1238803.8, -1236563.0, 20761.342, -0.052007902, 0.08794485, -1216891.9, 13277.119, 0.0, 9.999926, 9.999951 
1.2349928e+3, 1.8447384e+2, -1071531.6, -1047441.94, -2199.5996, -0.07929577, 0.057748683, -1047242.75, 84926.08, 0.0, 10.000151, 10.000469 
1.2349944e+3, 1.9447476e+2, -1021201.0, -964011.7, 39971.344, -0.07858963, 0.09377845, -943460.0, 90696.734, 0.0, 9.999786, 10.000545 
1.2349963e+3, 2.0447476e+2, -1048755.0, -1127893.4, 58060.813, -0.068058774, 0.1254453, -1018062.0, -81905.14, 0.0, 9.999791, 9.998745 
1.2349986e+3, 2.1447363e+2, -887731.3, -1004515.5, 19353.783, -0.041555967, 0.13884191, -884607.5, -46435.703, 0.0, 10.000246, 9.998699 
1.2350009e+3, 2.2447263e+2, -738722.56, -846654.1, -9760.622, -0.02490494, 0.15533297, -737847.0, 2336.4216, 0.0, 10.000445, 9.999015 
1.2350028e+3, 2.344718e+2, -654272.25, -747947.6, -12380.1455, -0.021115316, 0.16259761, -652663.75, -10472.854, 0.0, 10.00032, 9.99908 
1.2350047e+3, 2.4447061e+2, -614317.6, -758960.44, -17945.484, -0.022282457, 0.17198102, -612124.44, -67921.734, 0.0, 10.000272, 9.998355 
1.2350064e+3, 2.54469e+2, -506179.9, -653767.3, -9072.852, -0.029182311, 0.17157593, -505624.25, -59404.6, 0.0, 10.000331, 9.998375 
1.2350083e+3, 2.6446727e+2, -406630.03, -559978.9, -8846.734, -0.010361103, 0.16086237, -406121.38, -57883.688, 0.0, 10.000364, 9.99833 
1.2350105e+3, 2.7446526e+2, -307535.22, -456553.97, -18282.8, 0.038202636, 0.12372155, -305324.94, -55067.566, 0.0, 10.000351, 9.998373 
1.23501234e+3, 2.8446376e+2, -187091.81, -326297.5, -31443.943, 0.05381333, 0.1302432, -180318.77, -28046.943, 0.0, 10.000412, 9.998565 
1.2350135e+3, 2.9446292e+2, -63140.47, -212622.56, -22254.38, 0.030958744, 0.179176, -59897.664, -5617.8037, 0.0, 10.000575, 9.998594 
1.2350149e+3, 3.0446103e+2, -107068.34, -326738.03, -15130.594, -0.0019066926, 0.1853141, -106031.06, -106031.06, 0.0, 10.000447, 9.997539 
1.2350169e+3, 3.14459e+2, -30037.242, -48742.375, -31640.703, 0.009249178, 0.2191911, -6395.7993, -6395.7993, 0.0, 9.999934, 9.999696 
1.24497816e+3, 1.2447275e+2, -1849686.5, -1716659.8, -163524.7, -0.034212165, 0.15331334, -1606638.9, 113540.86, 0.003475539, 9.99882, 10.000548 
1.24498144e+3, 1.3447253e+2, -1650410.9, -1594201.8, 58557.637, -0.024189882, 0.097281106, -1557353.6, 64826.48, 0.0019075654, 9.999589, 10.000361 
1.2449847e+3, 1.444728e+2, -1540557.8, -1547058.8, -11857.59, -0.029559538, 0.10866101, -1531513.3, -7336.0957, 0.0007030745, 9.999926, 9.999839 
1.2449866e+3, 1.5447307e+2, -1470663.4, -1462636.0, -30061.662, 0.029604143, 0.1514782, -1436321.3, -10145.875, 0.00011956255, 9.999737, 9.999835 
1.2449884e+3, 1.6447279e+2, -1406134.1, -1387735.6, 40284.73, 0.028822456, 0.14443305, -1355613.1, -27434.012, 0.0000023468863, 9.999536, 9.999774 
1.2449906e+3, 1.7447191e+2, -1333481.4, -1297045.9, 46225.777, -0.042544708, 0.07251048, -1265577.5, -35388.84, 0.0, 9.99934, 9.999818 
1.2449925e+3, 1.8447194e+2, -1190365.3, -1115674.1, -19774.207, -0.08693771, 0.06841458, -1110762.0, 21425.715, 0.0, 9.999382, 10.00037 
1.244994e+3, 1.9447309e+2, -1040427.3, -983575.0, -72149.945, -0.099401385, 0.13508444, -934453.4, 99720.59, 0.0, 9.9997, 10.000451 
1.2449961e+3, 2.0447299e+2, -1032256.1, -1115170.8, -55824.99, -0.08482315, 0.1616765, -1004178.25, -68003.945, 0.0, 9.999886, 9.998786 
1.2449988e+3, 2.144714e+2, -931575.4, -1020269.44, -11112.255, -0.03677566, 0.12550701, -930204.4, -92012.414, 0.0, 9.999922, 9.998747 
1.24500126e+3, 2.2447012e+2, -820511.2, -908700.2, -5991.3833, -0.0079949815, 0.12080416, -820106.0, -79899.96, 0.0, 9.999981, 9.998813 
1.2450032e+3, 2.3446923e+2, -703339.2, -794795.5, -20726.064, -0.0034074048, 0.1417124, -698861.44, -56645.742, 0.0, 10.000085, 9.998872 
1.245005e+3, 2.4446806e+2, -613924.3, -724014.2, -25205.064, -0.004417062, 0.14985976, -608428.0, -64200.727, 0.0, 10.000126, 9.998664 
1.2450067e+3, 2.5446662e+2, -520710.34, -622887.6, -8933.016, -0.01220391, 0.13107957, -519935.25, -73694.2, 0.0, 10.00007, 9.998712 
1.2450086e+3, 2.6446503e+2, -454587.47, -594156.44, 4038.164, 0.0047976607, 0.12294022, -454470.72, -106213.55, 0.0, 10.000083, 9.99823 
1.245011e+3, 2.7446318e+2, -337628.53, -484906.34, 3332.8083, 0.050656695, 0.111719444, -337553.13, -87276.43, 0.0, 10.000204, 9.998248 
1.2450128e+3, 2.8446174e+2, -206611.52, -339178.88, -10273.298, 0.06796183, 0.13059281, -205820.11, -53528.18, 0.0, 10.000294, 9.998533 
1.24501415e+3, 2.944608e+2, -105505.42, -235761.97, -23140.928, 0.051645264, 0.17835753, -101516.445, -47214.91, 0.0, 10.000298, 9.998568 
1.2450154e+3, 3.0445918e+2, -113468.25, -326099.88, -10709.705, -0.0008200872, 0.20930108, -112930.19, -112930.19, 0.0, 10.000389, 9.997569 
1.24501675e+3, 3.1445664e+2, 72698.984, 6057.607, 18417.457, -0.032686666, 0.1901422, 77450.21, 77450.21, 0.0, 10.000619, 9.999741 
1.2549777e+3, 1.24471106e+2, -1850625.1, -1721405.4, -133537.31, 0.028757831, 0.23772576, -1637668.9, 82533.37, 0.0037739007, 9.998827, 10.000515 
1.2549816e+3, 1.344713e+2, -1648007.0, -1591465.4, 87382.87, 0.02960104, 0.22029069, -1527893.9, 94304.86, 0.0020822603, 9.999596, 10.00038 
1.254984e+3, 1.4447135e+2, -1515241.9, -1495068.0, -18743.697, -0.10107188, 0.1945035, -1483869.4, 40326.418, 0.0007764397, 9.999928, 10.0001955 
1.2549855e+3, 1.5447031e+2, -1442942.5, -1406030.5, -36920.7, -0.048421346, 0.06741382, -1383209.9, 42992.62, 0.00013646827, 9.99974, 10.000223 
1.2549876e+3, 1.6447006e+2, -1402565.5, -1379789.5, 30713.129, -0.012042133, 0.039830454, -1358421.1, -30217.238, 0.0000030208696, 9.999532, 9.999831 
1.2549904e+3, 1.7447086e+2, -1330545.6, -1291548.4, 38738.008, -0.0022654214, 0.1320006, -1267678.4, -37480.49, 0.0, 9.999341, 9.999856 
1.2549925e+3, 1.8447103e+2, -1278617.3, -1298571.5, -10182.656, -0.02662249, 0.19934587, -1274338.5, -142140.16, 0.0, 9.99938, 9.999117 
1.2549938e+3, 1.9447039e+2, -1134047.8, -1177123.1, -60330.05, -0.08738419, 0.22154504, -1091526.1, -57319.465, 0.0, 9.999696, 9.9991255 
1.2549959e+3, 2.0446956e+2, -959720.25, -963541.06, -55803.33, -0.09766543, 0.19264123, -905794.6, 30419.293, 0.0, 9.99988, 9.99983 
1.2549986e+3, 2.144685e+2, -850054.6, -849886.1, -9741.883, -0.04652222, 0.0913405, -840228.1, -2008.6711, 0.0, 9.999917, 9.99992 
1.2550013e+3, 2.2446746e+2, -840204.44, -948857.7, -3938.8677, -0.013847102, 0.06340215, -840061.8, -99833.414, 0.0, 9.999976, 9.99854 
1.2550034e+3, 2.344665e+2, -728805.1, -846376.06, -16473.145, -0.0016257077, 0.112740934, -726540.6, -84299.26, 0.0, 10.000077, 9.998522 
1.2550053e+3, 2.4446549e+2, -584649.06, -661230.06, -27439.154, 0.012312886, 0.13340004, -575832.56, -31580.191, 0.0, 10.000116, 9.999101 
1.2550072e+3, 2.5446442e+2, -487801.5, -554427.1, -9716.581, 0.028853595, 0.10550163, -486413.38, -40152.453, 0.0, 10.000068, 9.999184 
1.255009e+3, 2.644632e+2, -453236.66, -591225.0, 8071.1846, 0.028080074, 0.112199, -452766.16, -104493.41, 0.0, 10.000082, 9.998252 
1.2550108e+3, 2.7446187e+2, -338965.53, -485129.75, 9801.806, 0.0055721453, 0.14838052, -338311.16, -88022.46, 0.0, 10.000192, 9.998254 
1.2550128e+3, 2.8446048e+2, -227942.05, -379941.06, -8943.415, 0.02025594, 0.18632363, -227417.64, -75112.68, 0.0, 10.000277, 9.998261 
1.2550148e+3, 2.9445913e+2, -126104.41, -278119.2, -20777.936, 0.07823361, 0.22010444, -123315.57, -68994.305, 0.0, 10.000295, 9.998278 
1.255016e+3, 3.0445763e+2, -70540.89, -237308.19, -3130.6167, 0.02196388, 0.25216436, -70482.14, -70482.14, 0.0, 10.000389, 9.99818 
1.2550168e+3, 3.1445482e+2, 111755.18, 92749.945, 33251.758, -0.102519184, 0.13980763, 136835.5, 136835.5, 0.0, 10.000594, 10.000348 
1.2649769e+3, 1.2446884e+2, -1785068.5, -1703510.1, -86911.414, 0.053116523, 0.23405135, -1648286.5, 71939.03, 0.004085261, 9.999336, 10.000391 
1.2649813e+3, 1.3446897e+2, -1735145.3, -1639461.3, 112186.58, 0.07307674, 0.21892843, -1565341.5, 56881.605, 0.0022650692, 9.999027, 10.000321 
1.2649831e+3, 1.4446923e+2, -1627151.8, -1537807.6, -3300.2024, -0.13489199, 0.2115926, -1537685.9, -13467.772, 0.00085386867, 9.999115, 10.000292 
1.2649854e+3, 1.5446831e+2, -1432774.0, -1390115.3, -44661.746, -0.040026177, 0.08491427, -1361951.0, 64272.36, 0.00015477135, 9.9997635, 10.0003195 
1.2649876e+3, 1.6446808e+2, -1350042.6, -1375619.0, -13059.794, 0.007856597, 0.06331477, -1344552.5, -16328.153, 0.0000038088367, 9.999985, 9.99964 
1.2649897e+3, 1.7446882e+2, -1297015.4, -1297944.4, -26140.396, -0.014018647, 0.16847461, -1271335.4, -41116.152, 0.0, 9.999671, 9.999652 
1.2649918e+3, 1.8446863e+2, -1253137.1, -1304742.3, -24037.754, -0.037075005, 0.21917582, -1243675.3, -111452.53, 0.0, 9.999636, 9.99895 
1.2649938e+3, 1.9446729e+2, -1107897.1, -1182447.1, 12424.77, -0.058491677, 0.18617156, -1105880.9, -71643.625, 0.0, 9.999954, 9.998963 
1.2649961e+3, 2.0446628e+2, -941437.8, -952008.94, 12146.452, -0.059557565, 0.14827225, -933476.75, 2769.1968, 0.0, 9.999994, 9.999854 
1.2649985e+3, 2.1446571e+2, -881630.1, -860669.7, -30038.121, -0.037358772, 0.09518643, -839336.06, -1089.1875, 0.0, 9.999682, 9.999958 
1.2650008e+3, 2.2446492e+2, -885728.8, -949662.4, -42037.617, -0.023867678, 0.079561554, -864884.25, -124631.0, 0.0, 9.999575, 9.998727 
1.2650031e+3, 2.3446384e+2, -766946.75, -842663.9, -15047.363, -0.020251848, 0.09730372, -764066.0, -121799.64, 0.0, 9.9997225, 9.998716 
1.2650053e+3, 2.4446289e+2, -606471.3, -681319.7, -18928.623, 0.00064230163, 0.11706087, -601956.7, -57679.723, 0.0, 10.000008, 9.999014 
1.2650076e+3, 2.5446206e+2, -435475.84, -540327.6, -46309.945, 0.041808035, 0.12541239, -417951.16, 28333.598, 0.0, 10.000476, 9.9990835 
1.2650093e+3, 2.6446113e+2, -361813.16, -512334.7, -53006.01, 0.03501034, 0.1480107, -345020.56, 3273.9329, 0.0, 10.00056, 9.998563 
1.2650105e+3, 2.7446e+2, -323344.66, -439824.94, -29228.555, -0.030075807, 0.17435643, -316421.75, -66114.94, 0.0, 10.000136, 9.99859 
1.2650125e+3, 2.8445864e+2, -261683.94, -398987.66, -11466.05, -0.012861441, 0.19939347, -260733.02, -108410.35, 0.0, 10.000058, 9.998235 
1.2650155e+3, 2.9445717e+2, -110364.42, -276395.8, -6143.413, 0.102847055, 0.2202154, -110137.414, -55795.227, 0.0, 10.000428, 9.998226 
1.2650168e+3, 3.0445614e+2, -33960.023, -184182.94, 2443.6045, 0.053951498, 0.2880231, -33920.285, -33920.285, 0.0, 10.000489, 9.998496 
1.2650168e+3, 3.144535e+2, 59102.598, 88657.95, 10989.832, -0.11951405, 0.16308406, 92296.47, 92296.47, 0.0, 10.00014, 10.000539 
1.2749761e+3, 1.2446607e+2, -1800833.8, -1736733.0, -80710.46, 0.026889196, 0.14312573, -1681942.1, 38306.508, 0.0044096503, 9.999337, 10.000163 
1.2749808e+3, 1.344657e+2, -1744214.8, -1658769.8, 99699.7, 0.10258271, 0.09137976, -1593024.6, 29227.395, 0.0024558255, 9.999029, 10.000188 
1.2749822e+3, 1.4446655e+2, -1638825.6, -1563069.4, 17366.064, -0.13707216, 0.1583153, -1559278.3, -35034.85, 0.00093550276, 9.999117, 10.000119 
1.274986e+3, 1.5446717e+2, -1445823.1, -1418505.1, -19763.99, 0.04902417, 0.20444229, -1408139.5, 18098.04, 0.00017466526, 9.999766, 10.000124 
1.2749884e+3, 1.6446693e+2, -1381596.0, -1441072.4, -24405.564, 0.082894705, 0.21518709, -1372863.5, -44623.438, 0.0000047674703, 9.999984, 9.999192 
1.2749888e+3, 1.7446582e+2, -1328695.6, -1364027.9, -38116.98, -0.08151807, 0.18188673, -1304349.9, -74098.17, 0.0, 9.999671, 9.999199 
1.2749906e+3, 1.8446477e+2, -1188824.4, -1170751.8, -15184.907, -0.12478251, 0.12622876, -1162117.9, -29857.563, 0.0, 9.999633, 9.999872 
1.2749943e+3, 1.9446377e+2, -1038090.5, -1037624.8, 24469.703, -0.01642566, 0.029482482, -1013386.9, 20878.436, 0.0, 9.999953, 9.999959 
1.274997e+3, 2.0446321e+2, -1011433.6, -1096963.8, 99.555115, 0.02518894, 0.029726023, -1011433.5, -75163.66, 0.0, 9.999992, 9.998859 
1.2749985e+3, 2.1446316e+2, -960148.9, -1022544.44, -41916.477, -0.013167369, 0.13720302, -939094.44, -100820.75, 0.0, 9.999676, 9.998851 
1.2750003e+3, 2.2446257e+2, -841553.6, -855758.06, -38892.145, -0.043787777, 0.16932029, -809120.56, -68840.26, 0.0, 9.999565, 9.999376 
1.2750024e+3, 2.3446132e+2, -715281.8, -734583.4, -8969.898, -0.06307791, 0.09593195, -711757.0, -69466.84, 0.0, 9.999718, 9.999461 
1.2750049e+3, 2.4446031e+2, -650189.5, -771461.0, -2603.038, -0.04386021, 0.10082275, -650133.7, -105832.84, 0.0, 10.000004, 9.998398 
1.2750079e+3, 2.5445962e+2, -484521.34, -640754.2, -27317.73, 0.02201341, 0.19041872, -479882.53, -33570.18, 0.0, 10.000468, 9.998399 
1.2750098e+3, 2.6445878e+2, -321285.25, -425963.66, -66780.875, 0.02066755, 0.22994393, -288777.06, 59545.203, 0.0, 10.000549, 9.999162 
1.2750104e+3, 2.7445763e+2, -276736.44, -342580.53, -43139.414, -0.063035235, 0.1913064, -255391.83, -5061.0566, 0.0, 10.000134, 9.99926 
1.2750123e+3, 2.8445634e+2, -246530.6, -367812.34, 687.756, -0.03848488, 0.17132197, -246526.69, -94181.88, 0.0, 10.000057, 9.99845 
1.2750159e+3, 2.9445487e+2, -98964.29, -248806.33, 10041.502, 0.118674636, 0.17702119, -98294.36, -43929.973, 0.0, 10.000409, 9.998425 
1.2750176e+3, 3.0445465e+2, -36973.242, -186959.98, -7670.863, 0.088414565, 0.31425816, -36581.95, -36581.95, 0.0, 10.000472, 9.998486 
1.2750173e+3, 3.1445286e+2, 40235.71, 52335.363, 5690.751, -0.099733785, 0.2732892, 54591.26, 54591.26, 0.0, 10.000128, 10.000296 
1.2849754e+3, 1.2446389e+2, -1653477.4, -1703147.9, -69981.99, -0.039957058, 0.11874623, -1604054.5, 116214.33, 0.0047468157, 10.000514, 9.9998255 
1.2849805e+3, 1.344634e+2, -1623434.3, -1622534.8, 75499.02, 0.13249645, 0.07477168, -1547484.1, 74789.914, 0.0026545508, 9.999954, 9.9999895 
1.2849817e+3, 1.4446424e+2, -1611410.0, -1593805.4, 7856.0493, -0.1257649, 0.16904837, -1590809.5, -66542.555, 0.0010215283, 9.999495, 9.999725 
1.2849858e+3, 1.544647e+2, -1543167.5, -1510945.3, -45609.29, 0.08002744, 0.24276677, -1478685.1, -52420.605, 0.00019628371, 9.999295, 9.999716 
1.2849882e+3, 1.6446428e+2, -1449921.4, -1456404.8, -38635.527, 0.115658276, 0.24747466, -1414391.8, -86122.46, 0.0000059623408, 9.99944, 9.999349 
1.2849887e+3, 1.744629e+2, -1267699.9, -1313509.9, -5843.971, -0.076558076, 0.16886063, -1266966.1, -36684.87, 0.0, 10.000001, 9.999385 
1.2849905e+3, 1.8446189e+2, -1110900.0, -1122319.1, 8274.036, -0.12293996, 0.103986345, -1106556.8, 25731.234, 0.0, 10.000123, 9.999967 
1.2849943e+3, 1.9446135e+2, -1068039.6, -1041635.06, -22358.373, 0.014215578, 0.042039283, -1028872.06, 5416.5537, 0.0, 9.999704, 10.00005 
1.2849972e+3, 2.0446086e+2, -1093107.0, -1162719.0, -55426.605, 0.06572679, 0.056561112, -1062464.0, -126171.01, 0.0, 9.999547, 9.998623 
1.2849984e+3, 2.1446045e+2, -971860.44, -1055588.0, -35130.62, 0.010557858, 0.15239704, -959073.2, -120771.36, 0.0, 9.999716, 9.998604 
1.2850001e+3, 2.2445975e+2, -785228.5, -812567.56, -6612.2705, -0.029352421, 0.18029393, -783713.25, -43403.688, 0.0, 9.999883, 9.99952 
1.2850024e+3, 2.3445871e+2, -656859.2, -687470.8, -21722.338, -0.049259886, 0.11179822, -645591.94, -3276.005, 0.0, 10.000038, 9.999631 
1.2850049e+3, 2.4445769e+2, -653317.94, -773432.2, -18251.078, -0.04005031, 0.1073559, -650606.0, -106279.82, 0.0, 9.999985, 9.998394 
1.2850077e+3, 2.5445673e+2, -601137.56, -698519.1, 5595.458, 0.003992349, 0.1711238, -600817.1, -154476.25, 0.0, 9.999674, 9.998384 
1.2850098e+3, 2.644559e+2, -440010.03, -461357.2, -24876.525, 0.003240802, 0.20545322, -423613.94, -75263.36, 0.0, 9.9996395, 9.999356 
1.2850104e+3, 2.744552e+2, -288564.25, -325422.72, -38316.777, -0.052539703, 0.18500549, -264475.13, -14120.379, 0.0, 9.999953, 9.999465 
1.2850125e+3, 2.84454e+2, -227000.75, -354415.06, -8594.88, -0.0378907, 0.16574174, -226423.58, -74056.54, 0.0, 10.000174, 9.9984865 
1.2850158e+3, 2.9445237e+2, -119855.85, -255630.48, -14594.889, 0.063657984, 0.15221712, -118304.72, -63916.773, 0.0, 10.000251, 9.998454 
1.2850177e+3, 3.0445242e+2, -46498.363, -182250.7, -42745.523, 0.056008704, 0.30972716, -34160.105, -34160.105, 0.0, 10.000369, 9.998567 
1.2850185e+3, 3.1445074e+2, 94524.56, 56412.367, -23133.975, -0.013906366, 0.27513787, 105440.375, 105440.375, 0.0, 10.000596, 10.000098 
1.2949745e+3, 1.2446242e+2, -1685585.6, -1773232.3, -62365.777, -0.16118094, 0.16125348, -1653185.8, 67099.06, 0.0050962004, 10.000525, 9.99934 
1.2949806e+3, 1.3446216e+2, -1642803.0, -1661546.0, 52540.188, 0.15760398, 0.1697473, -1598805.0, 23483.268, 0.0028611089, 9.999949, 9.999723 
1.2949814e+3, 1.4446236e+2, -1655944.6, -1685577.4, -3032.9973, -0.10776863, 0.24381423, -1655637.4, -131349.36, 0.00111182, 9.999491, 9.999099 
1.2949848e+3, 1.5446103e+2, -1585939.1, -1601241.4, -52787.133, 0.04805042, 0.19979934, -1540251.5, -113947.66, 0.000219555, 9.999301, 9.999095 
1.2949875e+3, 1.6446017e+2, -1395962.4, -1345675.6, -20411.79, 0.09926528, 0.15890606, -1338433.3, -10121.948, 0.0000074533, 9.999444, 10.000107 
1.2949894e+3, 1.744601e+2, -1209396.5, -1193478.0, 15286.019, -0.00388062, 0.12824875, -1184203.3, 46103.83, 0.0, 10.000004, 10.000209 
1.2949915e+3, 1.8446007e+2, -1163004.1, -1230396.5, -7290.8477, -0.03639836, 0.15181598, -1162224.4, -29919.172, 0.0, 10.000121, 9.999227 
1.2949942e+3, 1.9446003e+2, -1126539.3, -1162419.5, -38480.445, 0.029518303, 0.22396217, -1102022.4, -67715.62, 0.0, 9.999701, 9.999224 
1.2949966e+3, 2.0445926e+2, -1057248.4, -1086880.6, -52010.22, 0.056076594, 0.22855207, -1017985.1, -81670.055, 0.0, 9.999539, 9.999147 
1.2949982e+3, 2.144576e+2, -930060.3, -968563.6, -28851.81, 0.030397477, 0.13944967, -914626.9, -76295.94, 0.0, 9.999713, 9.999203 
1.2950003e+3, 2.2445649e+2, -811286.7, -865572.9, -2096.9434, 0.015635878, 0.111590266, -811205.8, -70864.99, 0.0, 9.999877, 9.999159 
1.295003e+3, 2.3445605e+2, -686668.56, -748312.9, -15253.362, 0.016853696, 0.14496224, -683100.75, -40757.375, 0.0, 10.000031, 9.999217 
1.2950054e+3, 2.4445508e+2, -612301.94, -686683.1, -29712.459, 0.006446576, 0.13733587, -601890.3, -57537.656, 0.0, 9.999977, 9.998994 
1.2950072e+3, 2.5445345e+2, -555267.94, -602922.7, -4949.702, -0.017699437, 0.06820347, -554759.25, -108389.14, 0.0, 9.999672, 9.9990425 
1.2950091e+3, 2.6445258e+2, -455107.75, -492963.3, -14310.087, -0.022558019, 0.07424331, -450307.1, -101927.86, 0.0, 9.999639, 9.99914 
1.2950109e+3, 2.744526e+2, -308341.84, -363772.34, -24484.549, -0.004171731, 0.15543184, -299075.63, -48697.133, 0.0, 9.99994, 9.999208 
1.2950128e+3, 2.8445166e+2, -240075.97, -378886.72, -4348.002, -0.016740523, 0.18290891, -239939.9, -87550.664, 0.0, 10.000161, 9.998325 
1.2950146e+3, 2.9444972e+2, -131339.19, -277987.6, -9061.557, -0.069527954, 0.15027213, -130781.39, -76368.94, 0.0, 10.000245, 9.998304 
1.295017e+3, 3.0444947e+2, -33941.426, -157660.05, -35289.55, -0.051333874, 0.27890372, -24583.275, -24583.275, 0.0, 10.000372, 9.998735 
1.2950206e+3, 3.1444728e+2, 80019.96, 32824.363, -7748.844, 0.1260229, 0.17718837, 81259.65, 81259.65, 0.0, 10.0005665, 9.999951 
1.3049752e+3, 1.2446014e+2, -1812531.3, -1843438.6, -119598.57, -0.12293445, 0.2383321, -1707392.1, 12919.629, 0.0054552136, 9.999693, 9.999258 
1.3049808e+3, 1.3445988e+2, -1650355.5, -1650248.5, -13032.642, 0.18080148, 0.23515996, -1637269.3, -14954.659, 0.003073975, 9.999834, 9.999856 
1.3049808e+3, 1.4445986e+2, -1575998.5, -1639317.5, -12697.627, -0.13964272, 0.27675864, -1573547.1, -49231.8, 0.0012055306, 10.000009, 9.999166 
1.3049842e+3, 1.5445824e+2, -1428117.8, -1518558.9, -10768.093, 0.0058234376, 0.1983425, -1426853.3, -521.0646, 0.000244213, 10.000358, 9.999151 
1.3049874e+3, 1.6445734e+2, -1276793.4, -1291744.6, 17528.855, 0.08453896, 0.15127215, -1265212.6, 63127.004, 0.000009295233, 10.000279, 10.000073 
1.3049898e+3, 1.7445754e+2, -1258052.0, -1221188.5, -13698.079, 0.05197874, 0.15084897, -1216655.8, 13677.501, 0.0, 9.999689, 10.00017 
1.3049921e+3, 1.8445757e+2, -1267038.0, -1300358.8, -50771.07, 0.036214057, 0.19113366, -1230263.6, -97931.914, 0.0, 9.999494, 9.999049 
1.3049942e+3, 1.9445734e+2, -1127859.3, -1182872.4, -35700.215, 0.04971232, 0.2627635, -1110298.0, -75961.62, 0.0, 9.999779, 9.999043 
1.3049963e+3, 2.0445643e+2, -963555.0, -1007373.3, -20440.463, 0.04909575, 0.24924462, -955500.44, -19155.098, 0.0, 10.000036, 9.999454 
1.3049982e+3, 2.1445471e+2, -828397.44, -882136.3, -18506.963, 0.027235178, 0.12203421, -822640.56, 15718.534, 0.0, 10.000252, 9.9995365 
1.3050005e+3, 2.2445375e+2, -763848.75, -850578.3, -454.08527, 0.022469653, 0.09485876, -763846.4, -23479.273, 0.0, 10.0002365, 9.999088 
1.3050033e+3, 2.3445371e+2, -706265.4, -767982.06, 7615.83, 0.040109143, 0.17602982, -705339.5, -62971.445, 0.0, 9.999943, 9.999124 
1.3050056e+3, 2.4445282e+2, -626511.4, -676406.0, -10808.17, 0.03468175, 0.17540368, -624270.75, -79894.08, 0.0, 9.999805, 9.999147 
1.3050072e+3, 2.5445092e+2, -516828.4, -565743.4, -24826.066, 0.0009862708, 0.062708065, -506436.2, -60041.656, 0.0, 9.999855, 9.999209 
1.305009e+3, 2.6445e+2, -405372.06, -483179.9, -33477.73, -0.01713183, 0.06144882, -392950.8, -44547.12, 0.0, 10.000043, 9.999013 
1.3050109e+3, 2.7445024e+2, -251242.72, -352732.6, -36608.563, -0.01592119, 0.17904577, -239415.81, 10986.777, 0.0, 10.000402, 9.999062 
1.305013e+3, 2.8444925e+2, -168284.23, -329994.63, -10104.386, -0.03625685, 0.20039153, -167655.31, -15241.475, 0.0, 10.000594, 9.998452 
1.3050151e+3, 2.9444683e+2, -71096.84, -232935.66, 4245.2944, -0.08540187, 0.10885115, -70985.56, -16546.992, 0.0, 10.000589, 9.998448 
1.3050173e+3, 3.0444646e+2, -1943.1953, -138348.14, -11688.763, -0.058627147, 0.21703693, -948.8152, -948.8152, 0.0, 10.000577, 9.99877 
1.305021e+3, 3.1444475e+2, 58519.527, -11297.569, 2484.0872, 0.12562238, 0.15820469, 58607.8, 58607.8, 0.0, 10.000563, 9.999651 
1.3149767e+3, 1.2445712e+2, -1792236.4, -1800577.9, -81826.43, 0.06404574, 0.3494486, -1714474.5, 5874.2725, 0.005819013, 9.999686, 9.9995575 
1.3149808e+3, 1.3445663e+2, -1611690.4, -1572225.0, -9438.295, 0.19800426, 0.27092767, -1570084.0, 52267.953, 0.0032902497, 9.999843, 10.000389 
1.31498e+3, 1.444568e+2, -1521571.5, -1528803.0, -2538.0698, -0.23001726, 0.26690137, -1520769.6, 3578.2627, 0.0013013786, 10.000018, 9.99992 
1.314984e+3, 1.544564e+2, -1376932.8, -1411695.8, 2423.0967, -0.052081075, 0.23779596, -1376764.6, 49584.46, 0.00026992275, 10.000355, 9.9998865 
1.3149874e+3, 1.6445585e+2, -1335911.6, -1414357.4, -4712.4653, 0.06645334, 0.22492878, -1335629.5, -7276.215, 0.00001153221, 10.0002775, 9.999234 
1.3149898e+3, 1.7445526e+2, -1321450.1, -1353693.3, -36078.26, 0.08667511, 0.23787248, -1298055.3, -67696.01, 0.0, 9.999692, 9.99926 
1.314992e+3, 1.8445444e+2, -1240054.8, -1244127.5, -43276.668, 0.0874314, 0.22299851, -1198766.5, -66399.66, 0.0, 9.999491, 9.999436 
1.3149942e+3, 1.944533e+2, -1095707.5, -1116531.8, -25106.355, 0.07095898, 0.15693472, -1078939.9, -44563.082, 0.0, 9.999779, 9.9995 
1.3149963e+3, 2.0445241e+2, -957863.7, -995158.1, -13831.239, 0.041472636, 0.11728255, -953294.06, -16910.54, 0.0, 10.000033, 9.999539 
1.3149981e+3, 2.1445186e+2, -824676.44, -873511.94, -10216.875, -0.0037493045, 0.10008113, -822625.1, 15760.776, 0.0, 10.000246, 9.999599 
1.3150004e+3, 2.244516e+2, -750426.1, -820513.9, -12074.096, -0.015346551, 0.13042293, -748404.44, -8016.455, 0.0, 10.000226, 9.999301 
1.3150029e+3, 2.3445171e+2, -691429.9, -736502.2, -3199.5269, 0.01657819, 0.20420317, -691203.9, -48814.066, 0.0, 9.999938, 9.999343 
1.3150054e+3, 2.4445096e+2, -647423.56, -718938.06, -10127.251, 0.04086007, 0.22007851, -646017.06, -101618.97, 0.0, 9.999801, 9.9988575 
1.3150075e+3, 2.5444922e+2, -540312.0, -612740.6, -21402.654, 0.0554914, 0.1544582, -534460.3, -88046.43, 0.0, 9.9998455, 9.998893 
1.3150094e+3, 2.6444826e+2, -410965.7, -492657.78, -20056.867, 0.014684966, 0.1669046, -406307.06, -57883.316, 0.0, 10.000032, 9.998953 
1.3150106e+3, 2.744482e+2, -255171.9, -360026.72, -20525.7, -0.09407644, 0.2581284, -251297.13, -870.397, 0.0, 10.000399, 9.999014 
1.3150129e+3, 2.8444675e+2, -139218.38, -269987.38, -9710.076, -0.10437528, 0.22035296, -138501.3, 13939.287, 0.0, 10.000593, 9.998866 
1.3150164e+3, 2.9444376e+2, -42589.855, -169637.66, 6676.538, 0.0078027872, 0.026946751, -42239.96, 12226.353, 0.0, 10.00057, 9.998894 
1.3150188e+3, 3.0444345e+2, -12462.303, -156260.4, -10766.893, 0.026290996, 0.122129574, -11660.601, -11660.601, 0.0, 10.00056, 9.998655 
1.3150202e+3, 3.144432e+2, 23703.213, -79173.66, 9772.877, -0.02647731, 0.22665198, 24623.365, 24623.365, 0.0, 10.000545, 9.999194 
1.324977e+3, 1.2445366e+2, -1668683.0, -1741027.4, -5497.097, 0.07027473, 0.35236698, -1668267.6, 52117.46, 0.006183249, 10.000535, 9.9995575 
1.3249807e+3, 1.344536e+2, -1601488.9, -1545425.1, 2307.3813, 0.20552813, 0.30010483, -1545330.4, 77053.67, 0.0035072896, 9.999822, 10.000582 
1.3249797e+3, 1.4445384e+2, -1594488.5, -1526204.3, -1224.9968, -0.21358475, 0.27709603, -1526182.4, -1803.6837, 0.0013982238, 9.999356, 10.000256 
1.3249844e+3, 1.544539e+2, -1495149.5, -1431955.1, -26056.06, -0.009760207, 0.25960338, -1422597.4, 3776.387, 0.00029637254, 9.999385, 10.000216 
1.3249877e+3, 1.6445343e+2, -1464617.0, -1500599.6, -37947.207, 0.10871865, 0.2495412, -1440612.1, -112235.086, 0.000014169166, 9.999498, 9.999018 
1.3249896e+3, 1.7445253e+2, -1337835.8, -1389037.8, -22715.23, 0.09528139, 0.2562541, -1329211.1, -98823.234, 0.0, 9.999699, 9.999013 
1.3249917e+3, 1.8445158e+2, -1167792.1, -1186408.1, 6794.288, 0.07956046, 0.23106235, -1165576.1, -33179.016, 0.0, 9.99989, 9.9996395 
1.3249941e+3, 1.9445051e+2, -1034655.56, -1061501.0, 7628.4053, 0.06527223, 0.14973535, -1032639.3, 1765.6001, 0.0, 10.000089, 9.999729 
1.3249964e+3, 2.044498e+2, -947392.4, -981191.6, 646.5682, 0.042758472, 0.11192969, -947380.0, -10970.826, 0.0, 10.000068, 9.999619 
1.3249983e+3, 2.1444955e+2, -889313.0, -896056.8, 1640.7784, 0.00797701, 0.11830695, -888935.0, -50526.19, 0.0, 9.999767, 9.999674 
1.3250005e+3, 2.2444938e+2, -832894.75, -871444.9, -8861.88, -0.0032171162, 0.15766607, -830955.2, -90544.35, 0.0, 9.999709, 9.9992 
1.3250029e+3, 2.344493e+2, -698187.94, -751698.1, -26232.678, 0.01589046, 0.22298947, -687473.25, -45057.332, 0.0, 9.999945, 9.999235 
1.3250053e+3, 2.4444857e+2, -557190.06, -647719.8, -15143.109, 0.028310107, 0.2356437, -554724.2, -10300.528, 0.0, 10.000303, 9.9991045 
1.3250077e+3, 2.5444713e+2, -379326.6, -504644.97, 15446.922, 0.031555384, 0.17202699, -377450.66, 68983.72, 0.0, 10.000823, 9.999163 
1.3250096e+3, 2.6444614e+2, -325427.1, -477511.97, 16108.057, 0.0011826537, 0.17978756, -323739.72, 24704.248, 0.0, 10.000733, 9.998719 
1.325011e+3, 2.744457e+2, -349801.2, -434769.66, -3510.2952, -0.06950505, 0.25904986, -349656.4, -99203.85, 0.0, 9.999877, 9.998752 
1.3250135e+3, 2.8444433e+2, -244804.89, -285749.63, 17778.193, -0.071099386, 0.22880559, -238163.02, -85697.32, 0.0, 9.999719, 9.999178 
1.325017e+3, 2.9444197e+2, -37103.504, -126350.75, 25078.342, 0.014089421, 0.062890686, -30539.326, 23943.873, 0.0, 10.000435, 9.999254 
1.3250196e+3, 3.0444148e+2, 17092.219, -157118.78, -6763.169, 0.026053773, 0.12406149, 17354.383, 17354.383, 0.0, 10.00083, 9.998518 
1.3250208e+3, 3.1444097e+2, 35756.33, -118356.52, 11069.874, -0.023957552, 0.22120824, 36547.414, 36547.414, 0.0, 10.000823, 9.998789 
1.3349757e+3, 1.2444981e+2, -1688383.6, -1785579.9, -2388.9897, -0.12080235, 0.24626167, -1688324.9, 32095.102, 0.0065457188, 10.000547, 9.999248 
1.3349804e+3, 1.3445088e+2, -1614401.5, -1569568.4, -27515.613, 0.20082808, 0.32404774, -1556493.9, 65916.12, 0.0037237175, 9.999811, 10.000421 
1.3349803e+3, 1.4445107e+2, -1601516.3, -1538940.0, -4841.1816, -0.09472006, 0.30810612, -1538567.6, -14160.951, 0.0014951822, 9.999348, 10.000174 
1.334985e+3, 1.5445079e+2, -1498840.5, -1440809.9, -24133.77, 0.12697817, 0.2638476, -1432085.0, -5679.158, 0.00032323142, 9.999389, 10.000154 
1.3349882e+3, 1.644502e+2, -1436734.6, -1444268.6, -31994.018, 0.20233825, 0.2259356, -1408286.6, -79876.57, 0.000017128494, 9.999503, 9.999403 
1.334989e+3, 1.7444943e+2, -1309237.0, -1330674.1, -15449.674, 0.07348041, 0.20522319, -1301151.9, -70733.36, 0.00000000003443261, 9.9997015, 9.9994135 
1.3349909e+3, 1.8444903e+2, -1166341.9, -1183385.4, 12277.661, 0.007224781, 0.21437567, -1159918.4, -27496.275, 0.0, 9.999889, 9.999661 
1.3349938e+3, 1.9444905e+2, -1034444.1, -1060961.0, 14974.139, 0.028164677, 0.24098213, -1027702.25, 6717.874, 0.0, 10.000087, 9.999734 
1.3349965e+3, 2.0444869e+2, -944210.4, -972635.2, -11246.509, 0.0460976, 0.23404904, -940298.9, -3877.0186, 0.0, 10.000058, 9.999682 
1.3349986e+3, 2.1444786e+2, -885353.3, -887172.9, -9957.223, 0.05847467, 0.17585683, -876264.4, -37836.8, 0.0, 9.999763, 9.999739 
1.3350008e+3, 2.2444713e+2, -861737.2, -930404.4, -2465.4924, 0.05524111, 0.1751984, -861648.8, -121213.32, 0.0, 9.999704, 9.998797 
1.3350031e+3, 2.3444654e+2, -729121.1, -814873.9, -16501.047, 0.034603648, 0.23249424, -726055.5, -83609.66, 0.0, 9.999939, 9.998806 
1.3350053e+3, 2.4444571e+2, -504833.22, -537370.0, 3528.2612, -0.008038395, 0.22220792, -504455.0, 39998.02, 0.0, 10.000295, 9.9998665 
1.3350074e+3, 2.5444466e+2, -321727.72, -384474.8, 36311.418, -0.0769535, 0.11635605, -305113.6, 141342.33, 0.0, 10.000818, 9.99999 
1.3350098e+3, 2.644437e+2, -353420.2, -535500.06, -13139.663, -0.06351745, 0.100492835, -352476.88, -4012.4253, 0.0, 10.000731, 9.9983225 
1.335012e+3, 2.744428e+2, -383938.5, -503840.13, -33610.4, 0.051182684, 0.18010262, -375159.7, -124679.46, 0.0, 9.999867, 9.998283 
1.3350144e+3, 2.84442e+2, -232927.0, -258399.31, 42507.176, 0.056502655, 0.223273, -201288.95, -48799.535, 0.0, 9.999706, 9.9993725 
1.3350166e+3, 2.944415e+2, -21114.701, -92270.35, 55144.945, -0.0722736, 0.2214114, 8933.28, 63422.297, 0.0, 10.00043, 9.999492 
1.3350195e+3, 3.0444053e+2, 6521.9585, -178618.05, -4723.182, -0.06735648, 0.22798719, 6642.3755, 6642.3755, 0.0, 10.000828, 9.998372 
1.335023e+3, 3.14438e+2, 9046.75, -167707.75, 17151.84, 0.11601671, 0.1381449, 10695.74, 10695.74, 0.0, 10.000796, 9.998463 
1.3449757e+3, 1.2444739e+2, -1707704.5, -1822275.1, 74156.16, -0.16442488, 0.19885194, -1671284.1, 49156.457, 0.0069055543, 10.000538, 9.998999 
1.3449804e+3, 1.3444851e+2, -1573462.0, -1574416.4, 11580.882, 0.19842201, 0.3047911, -1562348.5, 60082.438, 0.0039389143, 10.0002, 10.000199 
1.3449803e+3, 1.4444824e+2, -1525649.0, -1512480.3, 53514.258, -0.061235867, 0.2589092, -1465146.9, 59286.1, 0.0015916337, 9.999912, 10.000083 
1.3449846e+3, 1.5444818e+2, -1444369.3, -1424579.0, 31531.293, 0.12181723, 0.24588488, -1401426.6, 25004.373, 0.0003501717, 9.999808, 10.000062 
1.3449876e+3, 1.6444774e+2, -1381842.8, -1406994.5, 21709.96, 0.18037947, 0.22325133, -1369329.3, -40895.043, 0.000020254476, 9.999835, 9.999498 
1.3449888e+3, 1.7444701e+2, -1251047.9, -1290564.3, 15634.924, 0.060769185, 0.19744967, -1245610.0, -15168.656, 0.0000000014653116, 10.000049, 9.999521 
1.3449907e+3, 1.8444666e+2, -1156136.5, -1183961.5, 19467.383, -0.0009093186, 0.20572376, -1146121.3, -13676.559, 0.0, 9.999982, 9.999614 
1.3449936e+3, 1.9444668e+2, -1117154.8, -1106427.6, 14383.567, 0.01572751, 0.23896068, -1096440.1, -61996.633, 0.0, 9.999544, 9.999683 
1.3449961e+3, 2.0444652e+2, -1023770.1, -1007361.8, -6791.0664, 0.036157753, 0.25362182, -1004915.75, -68471.69, 0.0, 9.999496, 9.999715 
1.3449985e+3, 2.1444614e+2, -857405.9, -869305.4, -8228.831, 0.057773348, 0.23479635, -853201.2, -14754.601, 0.0, 9.999936, 9.999778 
1.3450009e+3, 2.2444525e+2, -786494.44, -891382.94, 17483.252, 0.06119617, 0.21568029, -783657.0, -43201.453, 0.0, 10.000212, 9.99882 
1.3450032e+3, 2.3444377e+2, -676127.1, -785691.9, 34478.816, 0.042921465, 0.18286334, -666180.1, -23707.738, 0.0, 10.00029, 9.998835 
1.3450055e+3, 2.444429e+2, -518199.03, -533464.6, 46508.74, -0.0017973661, 0.16194724, -478700.94, 65778.6, 0.0, 10.000161, 9.999956 
1.3450077e+3, 2.5444284e+2, -468225.9, -443769.88, 22493.242, -0.07895874, 0.14374647, -430395.75, 16078.681, 0.0, 9.999768, 10.000088 
1.34501e+3, 2.6444206e+2, -468827.97, -599881.6, -44502.066, -0.06417807, 0.14371091, -455144.97, -106663.445, 0.0, 9.999981, 9.99824 
1.3450126e+3, 2.7444032e+2, -231513.97, -439631.13, -39389.594, 0.06398625, 0.15020323, -224308.33, 26195.605, 0.0, 10.000958, 9.998197 
1.3450149e+3, 2.844393e+2, -38828.758, -196663.13, 33746.355, 0.059406985, 0.18840574, -31916.236, 120599.26, 0.0, 10.00118, 9.999085 
1.3450167e+3, 2.9443926e+2, -37009.297, -132205.9, 4555.0806, -0.10870176, 0.26314512, -36791.836, 17720.719, 0.0, 10.000464, 9.9992 
1.3450198e+3, 3.0443805e+2, -40737.46, -144563.6, -45723.684, -0.09026246, 0.23738433, -23472.34, -23472.34, 0.0, 10.000259, 9.99888 
1.3450241e+3, 3.144359e+2, 24498.912, -99703.2, 28357.57, 0.1546435, 0.13229182, 30667.123, 30667.123, 0.0, 10.000645, 9.999003 
1.3549772e+3, 1.244465e+2, -1723936.4, -1853954.3, 84596.89, -0.067968324, 0.21159719, -1682255.1, 38190.625, 0.0072628423, 10.000527, 9.998788 
1.3549806e+3, 1.3444658e+2, -1592189.6, -1613759.6, -2210.9387, 0.19212814, 0.24109668, -1591965.3, 30480.441, 0.004152666, 10.000204, 9.999927 
1.3549796e+3, 1.4444543e+2, -1533170.0, -1531240.8, 46804.414, -0.12534636, 0.1273199, -1485391.0, 39065.754, 0.0016872559, 9.999924, 9.999949 
1.3549829e+3, 1.5444615e+2, -1453985.8, -1445472.8, 27432.268, -0.029916152, 0.20687386, -1421968.8, 4480.1025, 0.0003769789, 9.99981, 9.999919 
1.3549861e+3, 1.6444612e+2, -1395060.4, -1434152.6, 27148.432, 0.038715407, 0.24269682, -1381153.6, -52704.926, 0.000023370363, 9.999833, 9.999313 
1.3549888e+3, 1.7444539e+2, -1262961.3, -1316271.8, 23951.7, 0.052620765, 0.23174989, -1253781.0, -23325.012, 0.0000000068048798, 10.0000515, 9.999344 
1.3549912e+3, 1.8444452e+2, -1165613.3, -1202866.0, 2682.8706, 0.046267282, 0.20560172, -1165421.0, -32956.67, 0.0, 9.999978, 9.999486 
1.3549931e+3, 1.9444346e+2, -1126113.9, -1124952.5, -2433.6401, 0.02399156, 0.14269766, -1123031.3, -88556.7, 0.0, 9.999543, 9.9995575 
1.3549954e+3, 2.0444335e+2, -1023579.9, -1006506.2, 6124.2114, 0.00917906, 0.1690919, -1004536.7, -68061.03, 0.0, 9.999494, 9.9997225 
1.3549978e+3, 2.1444443e+2, -856677.3, -866893.6, 8332.234, 0.0012667152, 0.29555404, -852012.06, -13546.853, 0.0, 9.99993, 9.999798 
1.3550004e+3, 2.244438e+2, -757350.44, -829100.2, 19698.256, 0.008790501, 0.2794362, -752298.2, -11827.613, 0.0, 10.000202, 9.999253 
1.3550034e+3, 2.3444104e+2, -645246.44, -720497.1, 37742.55, 0.03636309, 0.07408616, -629578.56, 12916.663, 0.0, 10.000284, 9.999286 
1.3550061e+3, 2.4444017e+2, -558917.06, -616342.8, 32003.178, 0.04194328, 0.0545563, -544634.25, -131.10735, 0.0, 10.000154, 9.999391 
1.3550085e+3, 2.5444165e+2, -513609.22, -535766.6, 8999.525, 0.02026627, 0.2529606, -510414.56, -63924.688, 0.0, 9.999758, 9.999462 
1.3550106e+3, 2.6444113e+2, -455456.16, -570479.44, -9886.71, -0.0055410387, 0.30741513, -454612.53, -106117.234, 0.0, 9.999972, 9.998447 
1.3550125e+3, 2.7443826e+2, -213909.36, -402564.63, -158.61125, -0.036513288, 0.17232701, -213909.22, 36614.297, 0.0, 10.000955, 9.998453 
1.3550147e+3, 2.844362e+2, -92820.1, -307949.47, 10916.221, -0.069632284, 0.12827636, -92267.6, 60276.3, 0.0, 10.001175, 9.998323 
1.3550173e+3, 2.9443514e+2, -97056.32, -253876.97, -19403.36, -0.10468068, 0.18393593, -94691.22, -40136.598, 0.0, 10.00045, 9.998371 
1.3550204e+3, 3.0443394e+2, 37357.21, 21037.02, -31813.568, -0.050933525, 0.14659144, 62040.535, 62040.535, 0.0, 10.000244, 10.000026 
1.355024e+3, 3.1443453e+2, 120578.81, 104027.17, 48003.246, 0.08223085, 0.1921124, 161014.39, 161014.39, 0.0, 10.000626, 10.000414 
1.3649778e+3, 1.24444924e+2, -1774714.4, -1852537.5, 45596.824, -0.04048241, 0.23228149, -1753682.9, -33221.324, 0.0076198755, 10.000061, 9.999023 
1.3649806e+3, 1.3444506e+2, -1610016.8, -1609341.6, -36612.83, 0.17626895, 0.25563613, -1573064.8, 49394.79, 0.004366158, 10.000026, 10.000043 
1.3649794e+3, 1.4444338e+2, -1559499.0, -1584631.8, 25298.264, -0.12803927, 0.09992344, -1543817.9, -19342.195, 0.0017823466, 9.999919, 9.999585 
1.3649826e+3, 1.5444407e+2, -1468931.5, -1497739.4, -12660.412, -0.05661275, 0.21423171, -1464158.4, -37688.355, 0.0004035849, 9.999901, 9.999517 
1.3649856e+3, 1.64444e+2, -1371312.9, -1399965.4, -1277.1178, 0.003865391, 0.25943658, -1371256.0, -42785.52, 0.000026350568, 9.999898, 9.9995165 
1.3649885e+3, 1.744433e+2, -1270724.8, -1292982.8, 24723.234, 0.03244485, 0.22782756, -1254741.1, -24265.139, 0.000000016360648, 9.999884, 9.999584 
1.3649909e+3, 1.8444252e+2, -1190436.1, -1208304.3, 13442.344, 0.042333193, 0.19563147, -1183229.8, -50746.9, 0.0, 9.99978, 9.999544 
1.3649929e+3, 1.9444162e+2, -1116511.8, -1115009.3, 19538.748, 0.03356681, 0.14291927, -1096207.3, -61715.586, 0.0, 9.999585, 9.999605 
1.364995e+3, 2.0444135e+2, -1019719.9, -1018471.9, 54963.26, 0.018398799, 0.15908548, -964129.06, -27634.639, 0.0, 9.999582, 9.999597 
1.3649976e+3, 2.1444197e+2, -882416.4, -893761.8, 44747.066, -0.0066235284, 0.25063825, -842983.9, -4494.95, 0.0, 9.99982, 9.999665 
1.3650005e+3, 2.2444141e+2, -769982.7, -811331.7, 35299.656, -0.008419757, 0.2387279, -749748.75, -9255.336, 0.0, 10.000016, 9.999463 
1.3650036e+3, 2.344394e+2, -647827.6, -696111.0, 34100.09, 0.017832974, 0.08622616, -630188.5, 12321.52, 0.0, 10.000158, 9.999513 
1.3650063e+3, 2.444387e+2, -572217.8, -681062.7, 14068.908, 0.0311173, 0.094942495, -570428.7, -25911.254, 0.0, 10.000317, 9.998866 
1.3650087e+3, 2.5443953e+2, -444760.38, -565495.2, -7876.1123, 0.028640326, 0.2884103, -444248.75, 2264.7607, 0.0, 10.0005045, 9.998896 
1.365011e+3, 2.6443872e+2, -337197.56, -480919.72, 1995.1357, -0.005445443, 0.32766953, -337169.88, 11352.484, 0.0, 10.0006485, 9.9987335 
1.365013e+3, 2.7443594e+2, -222142.55, -368094.94, 16542.111, -0.078959405, 0.16903426, -220291.17, 30255.055, 0.0, 10.000738, 9.998792 
1.3650154e+3, 2.8443387e+2, -165149.77, -353711.8, 20320.826, -0.1036485, 0.11109264, -162984.7, -10419.59, 0.0, 10.000729, 9.998223 
1.3650182e+3, 2.944326e+2, -87124.09, -262322.38, 38150.09, -0.06400486, 0.15725583, -79177.234, -24598.63, 0.0, 10.000577, 9.998251 
1.3650212e+3, 3.044309e+2, 56901.78, -24435.424, 25805.248, -0.0015830242, 0.10278383, 64397.957, 64397.957, 0.0, 10.000616, 9.999534 
1.3650243e+3, 3.14432e+2, 141210.28, 85037.77, -30509.607, 0.030513695, 0.24533506, 154592.98, 154592.98, 0.0, 10.000892, 10.0001545 
1.3749772e+3, 1.2444268e+2, -1725710.4, -1752896.3, 55755.69, -0.095198505, 0.2559517, -1681914.5, 38573.176, 0.0079810945, 10.000069, 9.999706 
1.3749804e+3, 1.3444404e+2, -1575441.4, -1536842.3, -40183.793, 0.14811182, 0.3524962, -1511563.8, 110907.66, 0.0045821774, 10.000022, 10.000545 
1.3749799e+3, 1.444422e+2, -1600836.5, -1670028.6, 21193.982, -0.07325141, 0.18108551, -1594860.8, -70371.89, 0.0018779465, 9.999917, 9.999001 
1.3749833e+3, 1.5444194e+2, -1514140.3, -1591706.6, -12600.846, 0.03622784, 0.26647186, -1512144.6, -85650.555, 0.00043006244, 9.999902, 9.998872 
1.374986e+3, 1.6444144e+2, -1330405.3, -1316327.6, -2947.55, 0.06693963, 0.27279633, -1315735.4, 12763.455, 0.000029160963, 9.999901, 10.000091 
1.3749881e+3, 1.7444082e+2, -1224546.8, -1198810.1, 23870.592, -0.0031780228, 0.18603024, -1184560.3, 45940.715, 0.000000027808229, 9.999888, 10.00023 
1.3749902e+3, 1.844407e+2, -1172758.4, -1171557.8, 4360.0527, -0.01679131, 0.17468497, -1167756.9, -35257.168, 0.0, 9.999778, 9.999798 
1.3749924e+3, 1.9444123e+2, -1100741.0, -1081657.3, 12067.857, 0.039777678, 0.23982511, -1075814.6, -41320.137, 0.0, 9.999581, 9.999837 
1.374995e+3, 2.0444064e+2, -1039619.44, -1058125.0, 61446.6, 0.057701208, 0.22480996, -986732.8, -50233.098, 0.0, 9.999574, 9.99933 
1.3749978e+3, 2.1443878e+2, -904291.6, -937552.44, 53786.516, 0.029573409, 0.1000552, -864623.2, -26105.875, 0.0, 9.999811, 9.999369 
1.3750006e+3, 2.244381e+2, -772155.06, -813874.2, 39475.973, 0.0047895713, 0.092480354, -748366.25, -7842.422, 0.0, 10.000007, 9.999451 
1.3750033e+3, 2.3443891e+2, -648545.0, -696077.25, 40074.348, -0.016304057, 0.2192703, -625719.5, 16796.814, 0.0, 10.000151, 9.999517 
1.3750058e+3, 2.444385e+2, -608260.94, -754443.94, 20705.494, -0.03791554, 0.28231955, -605384.75, -60862.383, 0.0, 10.000309, 9.998366 
1.3750084e+3, 2.5443658e+2, -483002.9, -643249.06, 627.9173, -0.059144054, 0.2523293, -483000.44, -36455.313, 0.0, 10.000497, 9.998366 
1.375011e+3, 2.644348e+2, -312615.47, -429580.7, 5626.174, -0.069525726, 0.20724773, -312345.44, 36217.137, 0.0, 10.000646, 9.999088 
1.3750137e+3, 2.744333e+2, -195063.13, -309915.94, 22009.477, -0.07103296, 0.13588238, -190989.88, 59582.855, 0.0, 10.000728, 9.999197 
1.3750166e+3, 2.8443226e+2, -128700.445, -274530.1, 16008.671, -0.05130697, 0.13177027, -126963.75, 25616.232, 0.0, 10.000713, 9.998775 
1.3750194e+3, 2.9443166e+2, -48992.406, -180590.33, 35694.12, 0.0053976723, 0.1895317, -39934.348, 14649.994, 0.0, 10.000566, 9.998817 
1.3750225e+3, 3.0442905e+2, -91842.58, -334081.63, 36565.785, 0.049370006, 0.11323505, -86443.35, -86443.35, 0.0, 10.000616, 9.997408 
1.3750248e+3, 3.1442797e+2, 3681.9507, -198113.58, -16035.258, -0.015773494, 0.26833305, 4948.213, 4948.213, 0.0, 10.000878, 9.998218 
1.3849771e+3, 1.2444015e+2, -1780125.0, -1754668.9, 79171.71, -0.08304051, 0.24528523, -1687208.6, 33304.902, 0.008351057, 9.999591, 9.999924 
1.3849798e+3, 1.3444217e+2, -1602160.0, -1546877.0, -66619.63, 0.10214263, 0.40514764, -1502392.0, 120099.3, 0.004803759, 9.999826, 10.000569 
1.3849798e+3, 1.4444031e+2, -1589983.3, -1632536.9, 2138.2898, -0.08122704, 0.2159994, -1589876.0, -65367.47, 0.0019753822, 9.999852, 9.999289 
1.3849834e+3, 1.5443984e+2, -1524191.8, -1562967.1, 37572.8, 0.06155343, 0.2506696, -1501299.4, -74785.46, 0.00045665295, 9.999687, 9.999173 
1.384986e+3, 1.644393e+2, -1385199.3, -1345924.8, 67103.0, 0.09824582, 0.24039115, -1295644.6, 32873.633, 0.00003186285, 9.99954, 10.000061 
1.3849878e+3, 1.744389e+2, -1289717.1, -1235532.8, 40599.176, 0.0018768614, 0.17817052, -1213816.4, 16702.938, 0.000000039188958, 9.999465, 10.000181 
1.3849899e+3, 1.8443888e+2, -1204891.3, -1196226.8, -12227.684, -0.024746088, 0.18395998, -1187586.5, -55068.934, 0.0, 9.9995985, 9.999714 
1.3849922e+3, 1.9443941e+2, -1047615.0, -1065323.5, -29969.467, 0.032226596, 0.259388, -1025219.2, 9293.505, 0.0, 9.999988, 9.999752 
1.3849947e+3, 2.0443876e+2, -964564.1, -1019268.56, 14419.557, 0.05311632, 0.2404654, -960996.0, -24477.383, 0.0, 10.000078, 9.999352 
1.3849975e+3, 2.1443671e+2, -904370.5, -934884.3, 29412.842, 0.029151492, 0.09311051, -886493.0, -47955.387, 0.0, 9.999798, 9.999393 
1.3850005e+3, 2.2443604e+2, -821265.3, -852028.25, 32180.033, 0.0065874876, 0.09295, -800979.7, -60435.434, 0.0, 9.999734, 9.99932 
1.3850035e+3, 2.3443715e+2, -687993.7, -729801.3, 20012.297, -0.015287693, 0.2633792, -679958.56, -37423.3, 0.0, 9.999946, 9.999383 
1.385006e+3, 2.4443664e+2, -623561.06, -755261.8, 17161.81, -0.048640747, 0.3204536, -621361.44, -76818.97, 0.0, 10.000179, 9.998422 
1.3850084e+3, 2.5443414e+2, -486675.97, -637076.6, 40500.07, -0.09694055, 0.22432953, -476463.5, -29893.9, 0.0, 10.000441, 9.998433 
1.3850112e+3, 2.6443234e+2, -337491.4, -436202.84, 47437.5, -0.09347292, 0.172343, -318390.53, 30196.344, 0.0, 10.000455, 9.999133 
1.3850147e+3, 2.7443156e+2, -273938.1, -342974.66, 33281.4, -0.028279742, 0.16571437, -260506.8, -9915.411, 0.0, 10.000166, 9.99924 
1.3850176e+3, 2.844309e+2, -187331.88, -294560.34, 9747.631, 0.007723498, 0.19587378, -186452.97, -33857.977, 0.0, 10.000278, 9.998845 
1.3850203e+3, 2.9443032e+2, 5987.1797, -144499.77, -10347.389, 0.01624009, 0.2495997, 6695.3276, 61293.438, 0.0, 10.000908, 9.9988985 
1.3850233e+3, 3.044271e+2, -16762.588, -342019.75, 31499.44, 0.04193071, 0.12514983, -13740.119, -13740.119, 0.0, 10.001326, 9.99701 
1.3850258e+3, 3.144248e+2, 82114.63, -161643.28, 115046.414, -0.022613999, 0.19921617, 127836.86, 127836.86, 0.0, 10.001428, 9.9982 
1.3949776e+3, 1.24437414e+2, -1798123.9, -1791434.3, 91927.02, -0.014013051, 0.20057748, -1702791.3, 17746.824, 0.008733579, 9.999586, 9.999674 
1.3949789e+3, 1.344395e+2, -1634729.6, -1613675.3, -58347.82, 0.032448746, 0.41092017, -1564912.6, 57606.215, 0.005033633, 9.999824, 10.000111 
1.3949788e+3, 1.4443772e+2, -1508725.5, -1465488.8, -5490.646, -0.1626653, 0.2012425, -1464802.4, 59732.305, 0.002076125, 9.999857, 10.000435 
1.3949826e+3, 1.5443783e+2, -1436645.8, -1381796.9, 31183.148, 0.014669361, 0.16800338, -1367694.4, 58834.594, 0.00048381835, 9.999689, 10.000416 
1.3949856e+3, 1.6443771e+2, -1429120.4, -1438509.5, 61942.43, 0.092436545, 0.16515541, -1371694.9, -43166.996, 0.000034571214, 9.999544, 9.999425 
1.3949877e+3, 1.7443758e+2, -1341901.4, -1343855.5, 37710.594, 0.04222787, 0.20443745, -1305155.1, -74624.836, 0.00000005013657, 9.999463, 9.99944 
1.3949898e+3, 1.8443713e+2, -1235454.0, -1258755.8, 42.67842, 0.010687203, 0.2238212, -1235454.0, -102917.945, 0.0, 9.999594, 9.999288 
1.3949919e+3, 1.9443625e+2, -1076336.1, -1125006.1, -15339.93, 0.0066995374, 0.20121805, -1071904.6, -37358.79, 0.0, 9.999987, 9.999343 
1.3949943e+3, 2.0443577e+2, -943125.94, -974237.7, 3793.3574, -0.00083178945, 0.20427005, -942670.1, -6119.23, 0.0, 10.000074, 9.999664 
1.394997e+3, 2.1443577e+2, -880049.4, -883841.4, 18983.516, -0.012520672, 0.22986697, -862867.44, -24318.025, 0.0, 9.999795, 9.999746 
1.395e+3, 2.2443528e+2, -840172.1, -890366.2, 37815.62, -0.008430903, 0.24071711, -819883.25, -79329.08, 0.0, 9.999728, 9.99906 
1.3950036e+3, 2.3443419e+2, -709476.1, -773274.8, 28503.441, 0.015663628, 0.21978584, -698596.8, -56030.293, 0.0, 9.999939, 9.999088 
1.3950066e+3, 2.4443313e+2, -581462.06, -666618.9, 26173.326, -0.007566948, 0.21032412, -574060.9, -29483.16, 0.0, 10.000172, 9.999035 
1.3950089e+3, 2.544322e+2, -441040.1, -540724.56, 51463.19, -0.0906922, 0.20327127, -419239.4, 27347.62, 0.0, 10.000432, 9.9991 
1.3950118e+3, 2.6443133e+2, -357702.44, -477026.25, 38083.18, -0.08237305, 0.22155981, -346583.9, 2011.4761, 0.0, 10.000448, 9.998857 
1.3950156e+3, 2.744307e+2, -297764.75, -391291.28, 24670.848, 0.041437052, 0.26332852, -291655.97, -41054.184, 0.0, 10.000159, 9.998912 
1.3950185e+3, 2.844298e+2, -217267.42, -357750.0, 31836.523, 0.0638718, 0.3080212, -210389.31, -57779.438, 0.0, 10.000279, 9.998412 
1.3950206e+3, 2.944285e+2, -27048.764, -211736.2, 15883.175, -0.039823066, 0.33064187, -25692.762, 28928.299, 0.0, 10.000898, 9.998443 
1.3950239e+3, 3.0442488e+2, 75513.414, -147268.08, 37006.664, -0.032493137, 0.13322528, 81499.805, 81499.805, 0.0, 10.001312, 9.998353 
1.3950275e+3, 3.1442234e+2, 210814.56, 110983.76, 120887.76, -0.0052392143, 0.03194632, 291686.78, 291686.78, 0.0, 10.001405, 10.000084 
1.4049773e+3, 1.2443524e+2, -1773149.9, -1773960.0, 123270.94, -0.0012867268, 0.17548393, -1650283.4, 70272.86, 0.009133226, 9.999737, 9.9997225 
1.4049783e+3, 1.3443673e+2, -1731834.0, -1676446.9, -11939.624, 0.0275003, 0.34040132, -1673982.8, -51439.402, 0.005275387, 9.999227, 9.999967 
1.4049783e+3, 1.44435e+2, -1588733.5, -1472264.8, 37990.953, -0.15125732, 0.12951247, -1460968.1, 63591.035, 0.0021822979, 9.999173, 10.000717 
1.404982e+3, 1.5443602e+2, -1397377.9, -1328064.1, 4680.903, -0.018489167, 0.15895237, -1327749.5, 98795.0, 0.00051218417, 9.999809, 10.000726 
1.404985e+3, 1.6443628e+2, -1356205.4, -1411362.4, 6588.7466, 0.05124111, 0.17858478, -1355429.3, -26889.22, 0.000037386584, 10.000082, 9.999351 
1.4049873e+3, 1.7443576e+2, -1284465.8, -1327239.5, 27945.27, 0.04135608, 0.19065456, -1270662.6, -40116.55, 0.00000006103049, 9.999906, 9.99934 
1.4049897e+3, 1.8443498e+2, -1217672.4, -1264249.9, 38914.473, 0.029933868, 0.18886824, -1195610.3, -63055.117, 0.0, 9.999778, 9.999161 
1.4049919e+3, 1.9443387e+2, -1122135.5, -1161111.0, 43704.67, 0.016062684, 0.15344644, -1093770.6, -59202.805, 0.0, 9.999734, 9.999216 
1.4049941e+3, 2.0443347e+2, -993839.25, -1008347.94, 52229.496, -0.0034969635, 0.1777397, -948362.7, -11789.987, 0.0, 9.999771, 9.999575 
1.4049967e+3, 2.1443404e+2, -867593.9, -886911.3, 32474.65, -0.030324588, 0.26643476, -843372.0, -4804.636, 0.0, 9.999924, 9.9996605 
1.4049998e+3, 2.2443357e+2, -806052.1, -872114.5, 48460.79, -0.02782071, 0.28434145, -780436.0, -39863.73, 0.0, 9.999957, 9.999073 
1.4050034e+3, 2.3443188e+2, -723392.8, -778160.25, 61124.504, 0.008440351, 0.20232941, -683798.4, -41208.91, 0.0, 9.999837, 9.999104 
1.4050066e+3, 2.4443077e+2, -631265.9, -680385.0, 57515.9, 0.0008000464, 0.18056674, -593285.44, -48684.684, 0.0, 9.999787, 9.999125 
1.4050093e+3, 2.5443038e+2, -522177.78, -569533.56, 37605.797, -0.061872866, 0.21932936, -501416.53, -54811.977, 0.0, 9.99983, 9.999191 
1.4050125e+3, 2.644296e+2, -429100.53, -545034.3, 522.79, -0.050128702, 0.2538468, -429098.2, -80485.516, 0.0, 10.000104, 9.998554 
1.4050162e+3, 2.7442843e+2, -246453.92, -401805.47, -15255.125, 0.053493254, 0.27699515, -244970.08, 5655.0503, 0.0, 10.000668, 9.998592 
1.4050193e+3, 2.8442708e+2, -123247.46, -333987.78, 9791.637, 0.064718194, 0.29983237, -122793.49, 29845.088, 0.0, 10.0010195, 9.998218 
1.4050215e+3, 2.9442528e+2, -11027.456, -225829.38, 12093.802, -0.03700611, 0.2958513, -10348.694, 44305.613, 0.0, 10.001101, 9.998248 
1.4050251e+3, 3.0442226e+2, 46591.543, -120306.53, -7123.3877, -0.020153597, 0.15072249, 46895.027, 46895.027, 0.0, 10.000937, 9.998719 
1.4050286e+3, 3.144206e+2, 127356.74, 153647.22, -13307.528, 0.009268874, 0.09711628, 159207.27, 159207.27, 0.0, 10.000476, 10.000824 
1.4149766e+3, 1.2443368e+2, -1750009.9, -1726522.1, 103750.48, -0.055002987, 0.16669656, -1633853.0, 86714.46, 0.009556688, 9.999738, 10.00005 
1.4149782e+3, 1.3443395e+2, -1722223.6, -1655024.9, -32201.607, 0.083684124, 0.19666216, -1642085.5, -19521.492, 0.0055341963, 9.999221, 10.000115 
1.4149787e+3, 1.4443223e+2, -1627781.8, -1555675.0, 56760.086, -0.053042594, 0.0049064006, -1524485.9, 95.299995, 0.0022969088, 9.999181, 10.000142 
1.4149816e+3, 1.5443456e+2, -1440480.4, -1417944.4, 29218.762, -0.04333772, 0.22405154, -1397896.1, 28663.625, 0.0005425403, 9.99981, 10.00011 
1.4149843e+3, 1.6443507e+2, -1323111.6, -1343188.8, 66.63804, -0.033321038, 0.28144768, -1323111.5, 5442.6064, 0.000040406845, 10.000082, 9.999819 
1.4149868e+3, 1.7443351e+2, -1246260.9, -1249442.5, 21218.543, -0.004733368, 0.13638765, -1226573.6, 3992.4788, 0.00000007226826, 9.99991, 9.999872 
1.4149894e+3, 1.8443254e+2, -1205208.1, -1239168.1, 35517.97, 0.026385466, 0.07909648, -1182820.0, -50245.58, 0.0, 9.99978, 9.999332 
1.4149919e+3, 1.9443232e+2, -1112273.8, -1139880.8, 42072.473, 0.055612464, 0.11682821, -1081798.3, -47220.19, 0.0, 9.99973, 9.999365 
1.4149944e+3, 2.0443197e+2, -1029445.5, -1081077.3, 56024.85, 0.03976639, 0.16182059, -993574.7, -56991.13, 0.0, 9.9997635, 9.999079 
1.4149965e+3, 2.1443154e+2, -905525.75, -964757.9, 38472.043, -0.028422035, 0.20281863, -886590.7, -47999.457, 0.0, 9.999918, 9.99913 
1.4149994e+3, 2.2443095e+2, -787612.4, -831824.94, 43537.92, -0.057782937, 0.22404268, -760890.0, -20291.756, 0.0, 9.999947, 9.999355 
1.4150028e+3, 2.3443028e+2, -700457.06, -730458.1, 57487.69, -0.039936904, 0.21042217, -656045.0, -13441.075, 0.0, 9.999835, 9.999433 
1.4150062e+3, 2.4442953e+2, -662606.5, -745300.56, 58696.32, -0.026896046, 0.22990382, -632156.3, -87544.67, 0.0, 9.999784, 9.998681 
1.4150096e+3, 2.544287e+2, -557117.6, -641065.25, 40702.86, -0.016513133, 0.27510378, -540623.3, -94001.55, 0.0, 9.999825, 9.998704 
1.415013e+3, 2.6442713e+2, -453866.03, -596233.75, 20997.768, -0.004986258, 0.27258223, -450833.7, -102195.336, 0.0, 10.0001, 9.998206 
1.4150162e+3, 2.744247e+2, -270744.88, -451700.75, 8038.406, 0.0023422602, 0.2040384, -270388.5, -19726.646, 0.0, 10.000663, 9.998253 
1.4150196e+3, 2.8442264e+2, -119028.25, -324162.06, 14518.8125, 0.0052263616, 0.16913159, -118005.74, 34675.742, 0.0, 10.001014, 9.998288 
1.4150234e+3, 2.9442084e+2, -5938.6753, -213968.4, 18421.238, 0.01626286, 0.15149467, -4320.051, 50377.074, 0.0, 10.001095, 9.998334 
1.415027e+3, 3.044193e+2, 2522.4946, -214059.92, -21666.621, 0.069162406, 0.184517, 4668.727, 4668.727, 0.0, 10.000943, 9.998074 
1.415029e+3, 3.1441957e+2, 91006.19, 79268.55, -31258.105, 0.0069932505, 0.38800317, 116941.65, 116941.65, 0.0, 10.000467, 10.000319 
1.4249761e+3, 1.24431595e+2, -1849099.1, -1735188.5, 38358.277, -0.033908803, 0.19243968, -1723476.0, -2887.47, 0.010011913, 9.998886, 10.000398 
1.4249775e+3, 1.3443172e+2, -1722487.9, -1631513.1, -94806.79, 0.10517347, 0.18310481, -1571846.1, 50738.246, 0.0058154534, 9.999116, 10.000329 
1.4249782e+3, 1.444299e+2, -1636464.0, -1591998.1, 26432.309, -0.012943194, -0.014323979, -1579691.6, -55089.566, 0.002423067, 9.999263, 9.99985 
1.4249812e+3, 1.5443203e+2, -1523099.8, -1493556.3, 20317.625, -0.041755226, 0.21769981, -1483208.1, -56623.598, 0.00057589856, 9.999398, 9.999788 
1.4249837e+3, 1.6443256e+2, -1384603.5, -1342631.0, -16353.663, -0.060615923, 0.28128445, -1337011.5, -8432.261, 0.00004378684, 9.999532, 10.000087 
1.4249863e+3, 1.744313e+2, -1257976.4, -1219652.5, -14845.251, -0.047077812, 0.1332033, -1214574.8, 16013.029, 0.00000008454083, 9.999682, 10.000184 
1.424989e+3, 1.8443051e+2, -1208201.6, -1230495.3, -13810.214, -0.0030124781, 0.0757196, -1201600.9, -69007.6, 0.0, 9.999719, 9.99942 
1.4249918e+3, 1.9443041e+2, -1121040.8, -1135493.8, -14114.725, 0.07109126, 0.11844994, -1112410.1, -77815.2, 0.0, 9.999635, 9.999439 
1.4249945e+3, 2.0442992e+2, -1057283.3, -1116481.6, 17182.814, 0.072999366, 0.15562393, -1052657.3, -116055.5, 0.0, 9.999668, 9.998881 
1.4249967e+3, 2.1442907e+2, -930601.3, -1001048.75, 21800.86, -0.013218997, 0.17448491, -924400.56, -85785.74, 0.0, 9.999849, 9.998914 
1.4249992e+3, 2.2442845e+2, -778707.94, -821590.56, 25960.2, -0.06279296, 0.2009952, -766479.3, -25856.611, 0.0, 9.999982, 9.99941 
1.4250025e+3, 2.3442823e+2, -662369.1, -703351.0, 17817.447, -0.06886088, 0.22616906, -655706.06, -13082.342, 0.0, 10.00006, 9.99951 
1.425006e+3, 2.4442755e+2, -615337.2, -731749.56, 25414.541, -0.042678643, 0.25321513, -610030.75, -65400.145, 0.0, 10.000149, 9.998599 
1.42501e+3, 2.5442636e+2, -501886.28, -624210.6, 36129.61, 0.025191428, 0.26816884, -492012.13, -45367.62, 0.0, 10.000246, 9.998617 
1.4250138e+3, 2.644246e+2, -394104.1, -569768.5, 62234.01, 0.04098319, 0.25336006, -374290.75, -25628.031, 0.0, 10.000521, 9.998185 
1.425017e+3, 2.7442223e+2, -218598.02, -428902.34, 72296.055, -0.014112489, 0.19222184, -196142.6, 54542.715, 0.0, 10.001028, 9.998235 
1.4250205e+3, 2.8442007e+2, -76905.51, -298391.88, 73128.39, -0.021527557, 0.1487136, -54939.184, 97766.22, 0.0, 10.00128, 9.998337 
1.4250247e+3, 2.944181e+2, 15167.757, -197738.89, 69414.12, 0.044615842, 0.10723657, 35799.563, 90522.15, 0.0, 10.001216, 9.998385 
1.4250283e+3, 3.0441692e+2, -22136.553, -302960.16, 16986.418, 0.103822336, 0.20703481, -21112.813, -21112.813, 0.0, 10.001107, 9.997383 
1.4250295e+3, 3.1441653e+2, 112751.234, 10803.602, -2528.7417, -0.01995337, 0.4164095, 112813.92, 112813.92, 0.0, 10.000957, 9.999612 
1.4349759e+3, 1.2442904e+2, -1822714.0, -1679783.9, 40834.19, 0.054708574, 0.250293, -1668940.5, 51678.516, 0.010506618, 9.998881, 10.000784 
1.4349765e+3, 1.3443007e+2, -1702794.6, -1588774.5, -86180.03, 0.08486492, 0.30065107, -1542454.4, 80149.62, 0.006123269, 9.999109, 10.000627 
1.4349772e+3, 1.4442807e+2, -1638044.8, -1596888.8, 29127.6, -0.04120741, 0.072304435, -1581803.5, -57182.227, 0.002563054, 9.999268, 9.999816 
1.4349808e+3, 1.544285e+2, -1525693.3, -1499972.8, 25311.451, -0.01840667, 0.13906035, -1484441.9, -57823.668, 0.0006133788, 9.999401, 9.999743 
1.4349836e+3, 1.6442882e+2, -1379391.3, -1332626.8, -12857.372, -0.036555953, 0.17930356, -1329324.9, -709.7463, 0.000047750204, 9.999534, 10.000155 
1.4349854e+3, 1.7442912e+2, -1253036.6, -1209275.6, -9398.361, -0.0898782, 0.1817397, -1207342.6, 23268.242, 0.00000010052836, 9.9996805, 10.0002575 
1.4349881e+3, 1.8442896e+2, -1208461.5, -1230541.8, -18320.947, -0.06421966, 0.17981066, -1198111.4, -65499.94, 0.0, 9.999715, 9.999423 
1.4349914e+3, 1.9442819e+2, -1120871.9, -1135631.6, -17182.762, 0.057348624, 0.15721875, -1109551.3, -74932.95, 0.0, 9.999635, 9.999439 
1.4349942e+3, 2.0442739e+2, -1051857.1, -1104285.5, 22368.092, 0.089094296, 0.15930022, -1043611.0, -106983.94, 0.0, 9.999663, 9.998968 
1.4349967e+3, 2.1442665e+2, -924494.5, -988175.56, 29178.607, 0.011311712, 0.1805059, -913147.0, -74509.01, 0.0, 9.999846, 9.999004 
1.4349994e+3, 2.2442608e+2, -792029.25, -848460.5, 28121.83, -0.047400273, 0.21430519, -780408.25, -39762.707, 0.0, 9.999976, 9.999228 
1.4350024e+3, 2.3442577e+2, -677029.8, -732866.06, 21654.803, -0.083529025, 0.25088918, -669615.94, -26967.375, 0.0, 10.000054, 9.9993105 
1.435006e+3, 2.4442486e+2, -596790.6, -691377.9, 28769.646, -0.05409126, 0.2523052, -588727.44, -44070.086, 0.0, 10.000138, 9.998881 
1.4350106e+3, 2.544233e+2, -480627.5, -579588.56, 41085.266, 0.05902409, 0.19713667, -465793.8, -19120.896, 0.0, 10.000242, 9.998926 
1.4350148e+3, 2.6442194e+2, -372357.25, -524171.38, 80959.59, 0.08464366, 0.19411598, -337285.3, 11400.585, 0.0, 10.000518, 9.998501 
1.435018e+3, 2.74421e+2, -197981.3, -384509.16, 93862.695, -0.0015478722, 0.24416707, -158926.05, 91769.11, 0.0, 10.0010195, 9.998546 
1.4350219e+3, 2.8441942e+2, -78588.16, -300431.6, 72711.81, -0.024739852, 0.24112163, -56880.184, 95829.9, 0.0, 10.001272, 9.998327 
1.435026e+3, 2.9441702e+2, 10590.325, -204594.33, 69090.85, 0.03953502, 0.16012461, 30863.764, 85595.16, 0.0, 10.001203, 9.998345 
1.4350294e+3, 3.044151e+2, -70306.7, -402021.9, 11529.23, 0.079056226, 0.21715724, -69906.47, -69906.47, 0.0, 10.001102, 9.996706 
1.43503e+3, 3.1441173e+2, 48899.43, -120450.9, -7882.929, -0.08093952, 0.20572239, 49265.57, 49265.57, 0.0, 10.00095, 9.9987135 
1.4449753e+3, 1.2442587e+2, -1796616.6, -1665337.5, 71146.32, 0.10322003, 0.22988099, -1634176.5, 86474.8, 0.011047917, 9.999055, 10.0008 
1.4449756e+3, 1.3442762e+2, -1651305.6, -1573649.6, -87829.34, 0.0661031, 0.3595983, -1516448.5, 106181.945, 0.00646129, 9.999506, 10.000539 
1.4449765e+3, 1.4442578e+2, -1579917.4, -1555677.3, 4978.489, -0.06374211, 0.14662717, -1554694.6, -30048.816, 0.0027186894, 9.999613, 9.99993 
1.4449802e+3, 1.5442538e+2, -1522559.9, -1482360.1, 13157.063, -0.023739936, 0.1164012, -1478436.9, -51788.46, 0.0006559602, 9.999357, 9.999884 
1.444983e+3, 1.6442548e+2, -1442422.9, -1379130.4, -20163.55, -0.027980031, 0.13493527, -1373252.6, -44605.523, 0.000052490832, 9.999176, 10.000006 
1.4449851e+3, 1.7442632e+2, -1346854.0, -1274002.6, -37761.617, -0.069262035, 0.20770855, -1257961.5, -27321.752, 0.00000012546444, 9.999122, 10.000081 
1.4449877e+3, 1.8442634e+2, -1237084.4, -1222608.8, -38160.473, -0.057587326, 0.22434805, -1191005.8, -58366.547, 0.0, 9.999426, 9.999615 
1.4449908e+3, 1.9442534e+2, -1026067.1, -1065624.4, -22552.398, 0.012680243, 0.15849468, -1015849.0, 18797.693, 0.0, 10.000184, 9.999654 
1.4449939e+3, 2.0442452e+2, -934622.4, -1040764.75, 10228.108, 0.04205348, 0.14120571, -933645.75, 3009.141, 0.0, 10.000439, 9.99903 
1.4449969e+3, 2.1442391e+2, -888377.5, -964539.44, 11394.805, 0.022629235, 0.17306425, -886709.25, -48045.754, 0.0, 10.000072, 9.999057 
1.4449997e+3, 2.2442329e+2, -819198.94, -874582.8, 16079.697, -0.0038037861, 0.20519474, -814869.0, -74197.65, 0.0, 9.999847, 9.99911 
1.4450027e+3, 2.3442268e+2, -723105.25, -769899.75, 12704.057, -0.04188699, 0.22509475, -719878.75, -77200.88, 0.0, 9.999802, 9.999178 
1.4450063e+3, 2.4442168e+2, -621736.06, -699735.7, 23828.857, -0.031320766, 0.22136113, -615032.5, -70344.65, 0.0, 9.99995, 9.998916 
1.4450108e+3, 2.5442022e+2, -461986.7, -565477.0, 14356.157, 0.04017251, 0.1752593, -460032.13, -13330.492, 0.0, 10.000347, 9.998972 
1.445015e+3, 2.6441908e+2, -373506.63, -512126.97, 32248.709, 0.07186384, 0.18128105, -366371.53, -17658.824, 0.0, 10.000455, 9.998613 
1.4450192e+3, 2.7441832e+2, -309524.6, -424373.97, 28648.172, 0.05131947, 0.23899873, -302775.22, -52055.22, 0.0, 10.0001955, 9.998667 
1.4450231e+3, 2.8441697e+2, -213616.02, -366817.56, 9098.504, 0.03119626, 0.25431803, -213077.55, -60344.27, 0.0, 10.000349, 9.998317 
1.4450268e+3, 2.9441488e+2, -16440.75, -220529.77, 4883.2095, 0.019241488, 0.20788178, -16323.978, 38429.152, 0.0, 10.001027, 9.998322 
1.4450301e+3, 3.0441317e+2, 29020.4, -315283.4, -18843.684, 0.030797863, 0.27016458, 30048.64, 30048.64, 0.0, 10.001617, 9.997053 
1.4450313e+3, 3.144086e+2, 221079.64, -28196.352, 33748.258, -0.08897244, 0.099449486, 225567.83, 225567.83, 0.0, 10.002094, 9.998796 
1.4549744e+3, 1.2442221e+2, -1821914.1, -1720056.0, 84892.64, 0.10093989, 0.13189708, -1671987.4, 48696.957, 0.011640448, 9.9990635, 10.000419 
1.4549749e+3, 1.3442443e+2, -1687133.3, -1648350.6, -71438.55, 0.045412555, 0.3595883, -1593718.4, 28944.816, 0.0068325973, 9.999507, 10.000024 
1.4549759e+3, 1.444231e+2, -1559828.9, -1515152.4, -6528.0703, -0.08649377, 0.21149068, -1514218.1, 10456.87, 0.0028915813, 9.999617, 10.000207 
1.4549792e+3, 1.5442273e+2, -1499425.4, -1433870.3, 3594.1738, -0.06439191, 0.15084471, -1433673.8, -6999.4536, 0.00070428615, 9.999355, 10.0002165 
1.454982e+3, 1.6442262e+2, -1469512.8, -1436543.1, -24420.137, -0.043704037, 0.1495597, -1423564.5, -94890.24, 0.000058062662, 9.999178, 9.999612 
1.454985e+3, 1.7442289e+2, -1377053.0, -1337828.6, -39479.477, 0.009495231, 0.2096457, -1313358.4, -82684.125, 0.00000016567238, 9.999125, 9.999643 
1.4549877e+3, 1.8442269e+2, -1211780.4, -1169279.0, -12688.98, 0.009892342, 0.20935251, -1165778.9, -33102.707, 0.0, 9.999422, 9.999984 
1.4549902e+3, 1.944219e+2, -996758.2, -1004980.8, 6410.294, -0.06615866, 0.121986, -993254.06, 41425.87, 0.0, 10.000184, 10.000071 
1.4549932e+3, 2.0442127e+2, -933215.94, -1037371.2, -2929.9128, -0.072123155, 0.101181716, -933133.56, 3551.4504, 0.0, 10.000435, 9.999056 
1.4549968e+3, 2.1442086e+2, -888091.8, -963796.6, -2062.5718, 0.014788851, 0.1517559, -888035.7, -49344.438, 0.0, 10.000068, 9.999064 
1.4550002e+3, 2.2442012e+2, -825329.3, -884969.0, 12566.212, 0.06054251, 0.17412195, -822789.7, -82089.68, 0.0, 9.999836, 9.999044 
1.4550035e+3, 2.3441899e+2, -728128.44, -779867.44, 11899.925, 0.052586272, 0.14740987, -725522.7, -82810.95, 0.0, 9.999798, 9.999111 
1.4550069e+3, 2.4441798e+2, -637201.0, -731306.1, 37510.875, 0.022599094, 0.15821631, -624078.75, -79356.57, 0.0, 9.999947, 9.998701 
1.4550103e+3, 2.544172e+2, -478823.8, -599295.06, 30913.22, -0.0354217, 0.20381561, -471354.5, -24624.057, 0.0, 10.00034, 9.998745 
1.4550148e+3, 2.6441595e+2, -381489.7, -526547.3, 24372.04, -0.0037417752, 0.21636784, -377504.3, -28761.3, 0.0, 10.000444, 9.998519 
1.4550203e+3, 2.7441415e+2, -316207.75, -436793.3, 20657.81, 0.13819383, 0.17590135, -312767.0, -62006.92, 0.0, 10.000189, 9.998586 
1.4550246e+3, 2.844127e+2, -212461.52, -364451.5, 33064.816, 0.14154845, 0.18662314, -205579.97, -52804.707, 0.0, 10.000347, 9.998334 
1.4550275e+3, 2.9441178e+2, -16986.297, -220317.64, 33032.305, -0.021015001, 0.25158167, -11754.626, 43032.836, 0.0, 10.0010195, 9.998327 
1.455031e+3, 3.0441123e+2, 121773.016, -122394.164, 1084.6044, -0.048232622, 0.3670319, 121777.836, 121777.836, 0.0, 10.001615, 9.99838 
1.4550337e+3, 3.1440732e+2, 286699.6, 111060.586, 50760.453, -0.05761103, 0.12121683, 300314.25, 300314.25, 0.0, 10.002079, 9.999762 
1.4649732e+3, 1.24419294e+2, -1744476.4, -1694014.0, 71168.39, 0.050831184, 0.12951489, -1643736.5, 76975.375, 0.012283002, 9.999644, 10.000318 
1.4649743e+3, 1.3442111e+2, -1764293.0, -1712948.8, -66819.98, 0.051940218, 0.33919862, -1667039.0, -44342.75, 0.00723705, 9.999096, 9.999777 
1.4649756e+3, 1.4441992e+2, -1655709.4, -1552431.1, 7500.1753, -0.036586724, 0.21624367, -1551889.3, -27182.3, 0.0030819494, 9.998923, 10.000283 
1.4649789e+3, 1.5441985e+2, -1498167.1, -1421580.3, -2114.2283, -0.024706835, 0.17487426, -1421521.9, 5180.75, 0.0007585455, 9.999313, 10.000321 
1.4649819e+3, 1.6441958e+2, -1417675.9, -1432033.5, -29471.414, -0.01483769, 0.1591387, -1394521.5, -65817.9, 0.00006440502, 9.999623, 9.999428 
1.4649846e+3, 1.7441906e+2, -1285809.8, -1315006.1, -28593.48, 0.027242403, 0.161433, -1268303.5, -37592.887, 0.00000022299002, 9.9998455, 9.99945 
1.4649875e+3, 1.8441866e+2, -1149572.3, -1152425.0, -146.21892, 0.021097684, 0.15996896, -1149564.9, -16850.084, 0.0, 9.999908, 9.999864 
1.4649902e+3, 1.9441849e+2, -1063084.8, -1050350.3, -22160.93, -0.058357943, 0.14375421, -1033660.0, 1054.6746, 0.0, 9.999787, 9.999949 
1.4649934e+3, 2.0441808e+2, -1010983.9, -1059841.3, -61085.105, -0.07420741, 0.14564128, -969623.9, -32905.867, 0.0, 9.999838, 9.999188 
1.4649966e+3, 2.1441744e+2, -873881.3, -940757.0, -53212.418, -0.0074653327, 0.15917942, -844472.9, -5747.89, 0.0, 10.000098, 9.9992075 
1.4650002e+3, 2.2441658e+2, -763155.25, -863862.75, -28986.729, 0.049673192, 0.16646078, -755408.0, -14673.863, 0.0, 10.0003, 9.998966 
1.465004e+3, 2.3441549e+2, -643517.2, -749295.9, -33488.316, 0.09170849, 0.15103376, -633806.6, 8939.018, 0.0, 10.000424, 9.99902 
1.4650075e+3, 2.4441443e+2, -560832.1, -700901.3, 3148.1213, 0.06411073, 0.16482455, -560761.4, -16004.976, 0.0, 10.000501, 9.998642 
1.4650106e+3, 2.5441352e+2, -457376.47, -595128.75, 7557.998, -0.051231388, 0.20306312, -456963.03, -10197.175, 0.0, 10.000516, 9.998688 
1.465015e+3, 2.644121e+2, -350789.63, -517843.34, 5168.436, -0.041385446, 0.20561136, -350629.88, -1849.9913, 0.0, 10.000682, 9.998466 
1.4650208e+3, 2.7441013e+2, -196442.05, -385592.66, 1250.6987, 0.12372715, 0.15141281, -196433.77, 54365.16, 0.0, 10.001037, 9.998529 
1.4650252e+3, 2.8440857e+2, -121039.2, -324892.7, 14650.608, 0.13931853, 0.157003, -119991.67, 32823.813, 0.0, 10.000996, 9.998293 
1.4650282e+3, 2.9440767e+2, -99200.14, -264230.8, 7765.9463, -0.025664289, 0.2284644, -98835.5, -44007.383, 0.0, 10.000475, 9.998286 
1.465032e+3, 3.0440745e+2, -4400.1045, -124989.19, -33906.72, -0.04702523, 0.35662508, 4479.7515, 4479.7515, 0.0, 10.000498, 9.998898 
1.4650358e+3, 3.1440446e+2, 166797.61, 68914.44, -53995.98, -0.018086787, 0.14571373, 190731.56, 190731.56, 0.0, 10.00119, 9.999897 
1.4749718e+3, 1.24417245e+2, -1730232.9, -1666275.5, 46899.367, -0.05398557, 0.22850747, -1641489.9, 79242.95, 0.012969953, 9.999649, 10.000507 
1.4749736e+3, 1.3441773e+2, -1761799.0, -1708220.9, -87996.33, 0.077025816, 0.29909003, -1643026.3, -20297.57, 0.0076708426, 9.999097, 9.999809 
1.4749756e+3, 1.4441633e+2, -1664013.4, -1573484.1, 17794.225, 0.07517564, 0.16215366, -1570112.1, -45371.117, 0.0032881629, 9.998937, 10.0001335 
1.4749794e+3, 1.544168e+2, -1508495.0, -1443248.1, 12833.466, 0.09206025, 0.18772665, -1440814.6, -14081.671, 0.00081847684, 9.999312, 10.000174 
1.474982e+3, 1.6441637e+2, -1416306.6, -1428412.6, -22989.697, 0.052679047, 0.16518807, -1398586.5, -69851.75, 0.000071419374, 9.9996195, 9.9994545 
1.474984e+3, 1.7441487e+2, -1283139.5, -1309798.0, -20117.238, -0.021762691, 0.0640633, -1272336.4, -41587.92, 0.0000002932695, 9.999846, 9.999485 
1.474987e+3, 1.8441436e+2, -1192397.3, -1242420.3, -5362.648, -0.031705745, 0.07701252, -1191828.9, -59074.203, 0.0, 9.99991, 9.999246 
1.474991e+3, 1.9441514e+2, -1108578.3, -1146011.1, -26455.271, 0.030312208, 0.22291264, -1094888.1, -60137.5, 0.0, 9.99979, 9.999292 
1.4749941e+3, 2.0441498e+2, -997045.4, -1029513.94, -53404.965, 0.029020077, 0.27460602, -957461.7, -20708.219, 0.0, 9.99983, 9.999401 
1.4749964e+3, 2.1441369e+2, -855308.94, -901730.06, -42920.207, -0.048385747, 0.1948632, -829725.3, 9039.359, 0.0, 10.000095, 9.999477 
1.4749996e+3, 2.2441271e+2, -771551.4, -879751.8, -25118.246, -0.040370263, 0.18120396, -766004.7, -25231.064, 0.0, 10.000293, 9.998862 
1.4750041e+3, 2.3441218e+2, -652611.4, -767539.5, -27758.719, 0.0706356, 0.23705935, -646258.0, -3478.7446, 0.0, 10.000421, 9.998897 
1.4750081e+3, 2.4441102e+2, -555919.75, -689087.2, 3703.6348, 0.08754499, 0.24203047, -555816.8, -11026.319, 0.0, 10.000492, 9.998728 
1.4750114e+3, 2.5440913e+2, -451423.53, -581031.9, 9613.533, -0.013101013, 0.17182283, -450714.34, -3906.3809, 0.0, 10.000507, 9.998789 
1.4750156e+3, 2.6440752e+2, -352490.06, -520217.44, 18414.684, -0.045754515, 0.14748242, -350492.13, -1668.5426, 0.0, 10.000675, 9.998453 
1.4750206e+3, 2.7440622e+2, -199537.69, -390046.94, 16804.645, 0.0041984483, 0.1665962, -198066.72, 52769.81, 0.0, 10.001028, 9.998504 
1.4750251e+3, 2.8440455e+2, -130362.29, -342688.1, -2750.436, 0.019554002, 0.16755362, -130326.67, 22527.158, 0.0, 10.000988, 9.998175 
1.475029e+3, 2.9440254e+2, -109268.84, -283337.1, -9491.869, -0.0013576649, 0.13970801, -108752.79, -53877.438, 0.0, 10.000466, 9.998159 
1.4750333e+3, 3.0440184e+2, -21573.97, -161224.22, -9243.419, 0.028887093, 0.23905903, -20964.809, -20964.809, 0.0, 10.000498, 9.998651 
1.4750373e+3, 3.1440023e+2, 118989.5, -28467.535, -25918.486, 0.017442016, 0.19365337, 123412.52, 123412.52, 0.0, 10.001179, 9.999235 
1.4849713e+3, 1.2441414e+2, -1818448.0, -1696180.9, 20751.06, -0.037330937, 0.26284268, -1692755.0, 28008.738, 0.013700781, 9.998993, 10.000615 
1.484973e+3, 1.3441402e+2, -1713143.1, -1691504.9, -126161.016, 0.09320426, 0.27657917, -1575699.9, 47065.008, 0.00813248, 9.999461, 9.999749 
1.4849752e+3, 1.444126e+2, -1566294.9, -1545100.9, -15680.637, 0.10220168, 0.15109432, -1536772.3, -11994.685, 0.0035089266, 9.99969, 9.999965 
1.484979e+3, 1.544131e+2, -1467312.1, -1440829.0, -22407.506, 0.11145463, 0.19681172, -1428042.9, -1272.4598, 0.0008836724, 9.999674, 10.000014 
1.4849819e+3, 1.6441277e+2, -1377478.8, -1399561.0, -49706.176, 0.06002106, 0.18697256, -1337602.3, -8830.616, 0.00007901186, 9.999845, 9.999542 
1.484984e+3, 1.7441137e+2, -1212255.9, -1264824.0, -44136.125, -0.03226825, 0.08683008, -1187170.1, 43613.06, 0.00000037325287, 10.000286, 9.999582 
1.484987e+3, 1.8441077e+2, -1155505.5, -1258415.3, -37513.926, -0.036292788, 0.09898985, -1143282.3, -10492.011, 0.0, 10.00031, 9.998943 
1.4849912e+3, 1.944112e+2, -1128350.6, -1191524.0, -37098.043, 0.057846747, 0.24482875, -1111213.8, -76423.28, 0.0, 9.999813, 9.998968 
1.4849944e+3, 2.044108e+2, -1002536.44, -1035710.1, -31947.1, 0.06932821, 0.29067186, -983126.9, -46330.875, 0.0, 9.999811, 9.999367 
1.484997e+3, 2.1440934e+2, -808553.0, -882153.1, -43392.625, -0.020200303, 0.1961958, -788456.94, 50350.965, 0.0, 10.00043, 9.999451 
1.4850001e+3, 2.2440825e+2, -709708.8, -860788.6, -49528.7, -0.042856265, 0.17773142, -694919.44, 45898.03, 0.0, 10.000767, 9.998762 
1.4850041e+3, 2.3440771e+2, -613178.0, -761472.94, -54904.32, 0.0126717435, 0.24230316, -595063.2, 47760.34, 0.0, 10.000749, 9.99878 
1.4850083e+3, 2.4440646e+2, -534258.7, -677578.75, -30675.7, 0.039338194, 0.24393637, -527969.0, 16866.668, 0.0, 10.000638, 9.998735 
1.4850125e+3, 2.544044e+2, -465524.88, -586416.7, -34043.617, 0.02989386, 0.1540764, -456597.34, -9742.504, 0.0, 10.000406, 9.998799 
1.4850168e+3, 2.6440293e+2, -393029.66, -534117.6, -11527.224, 0.013970512, 0.143994, -392094.06, -43224.88, 0.0, 10.000375, 9.998501 
1.4850213e+3, 2.7440226e+2, -257430.52, -412163.22, -8397.261, -0.014146619, 0.21981943, -256976.14, -6099.04, 0.0, 10.0006075, 9.998553 
1.4850256e+3, 2.844007e+2, -145205.56, -332394.5, -29947.46, -0.02115666, 0.2213959, -140531.13, 12361.784, 0.0, 10.000813, 9.998329 
1.4850296e+3, 2.9439813e+2, -23525.066, -224563.19, -19716.377, 0.0058410694, 0.12229161, -21609.674, 33307.914, 0.0, 10.00098, 9.998315 
1.4850341e+3, 3.043969e+2, 49290.555, -127153.46, 16633.332, 0.03680779, 0.15988679, 50844.883, 50844.883, 0.0, 10.000987, 9.998648 
1.4850381e+3, 3.1439626e+2, 45362.49, -87874.766, 14347.708, -0.0009584251, 0.21349454, 46890.016, 46890.016, 0.0, 10.00078, 9.999016 
1.4949717e+3, 1.24410115e+2, -1817895.0, -1695644.6, 37012.086, 0.094615944, 0.23839173, -1685312.3, 35491.22, 0.014485426, 9.998996, 10.000617 
1.4949726e+3, 1.3441002e+2, -1726624.1, -1718964.5, -109236.76, 0.09866485, 0.27183762, -1613490.4, 9314.248, 0.008627366, 9.999459, 9.999561 
1.4949743e+3, 1.4440882e+2, -1577731.9, -1570828.6, -17988.77, 0.0386348, 0.18550698, -1555963.4, -31147.242, 0.0037456865, 9.999697, 9.999785 
1.4949779e+3, 1.5440886e+2, -1479153.0, -1466055.1, -23174.494, 0.025147328, 0.20260763, -1448522.0, -21707.35, 0.0009542572, 9.999676, 9.999841 
1.494981e+3, 1.6440883e+2, -1367333.0, -1379977.1, -35725.89, -0.0021276257, 0.22545083, -1337374.1, -8560.195, 0.00008722728, 9.999849, 9.999675 
1.4949845e+3, 1.7440863e+2, -1201710.3, -1243396.0, -27322.51, -0.0075420975, 0.22990142, -1188188.3, 42626.277, 0.0000004647829, 10.000287, 9.99973 
1.4949876e+3, 1.8440795e+2, -1155823.1, -1258153.6, -55757.836, 0.0019928194, 0.22746156, -1131312.6, 1508.4597, 0.0, 10.000305, 9.998948 
1.4949904e+3, 1.9440676e+2, -1128351.5, -1191867.4, -55686.773, 0.019475702, 0.2097711, -1096003.4, -61169.414, 0.0, 9.999813, 9.998965 
1.4949939e+3, 2.0440558e+2, -1024353.7, -1080177.3, -12325.428, 0.04104753, 0.19342545, -1021753.44, -84908.03, 0.0, 9.999805, 9.999065 
1.4949983e+3, 2.1440445e+2, -830610.4, -927551.44, -19454.395, 0.071703725, 0.16326639, -826851.94, 12002.643, 0.0, 10.000427, 9.99914 
1.4950018e+3, 2.2440326e+2, -719682.75, -879968.06, -49992.363, 0.03597005, 0.15606646, -705368.6, 35496.977, 0.0, 10.000758, 9.998635 
1.4950038e+3, 2.3440208e+2, -621801.94, -777848.44, -54959.24, -0.08619479, 0.16718815, -604388.56, 38489.656, 0.0, 10.000741, 9.998672 
1.4950077e+3, 2.4440072e+2, -541600.44, -691284.3, -38986.32, -0.084843405, 0.17073917, -532054.9, 12837.0205, 0.0, 10.000629, 9.998647 
1.4950132e+3, 2.5439927e+2, -472506.88, -599758.06, -41233.176, 0.07353688, 0.15031296, -460314.34, -13407.858, 0.0, 10.000401, 9.998712 
1.4950183e+3, 2.6439834e+2, -386142.22, -518427.13, -3616.1995, 0.13230465, 0.19505541, -386043.44, -37126.67, 0.0, 10.000368, 9.998612 
1.4950226e+3, 2.7439824e+2, -249850.45, -394198.13, 2486.9666, 0.062071975, 0.31022802, -249807.63, 1113.2039, 0.0, 10.000597, 9.998681 
1.4950268e+3, 2.8439698e+2, -117407.484, -273774.03, -22668.436, 0.010874755, 0.31790128, -114187.555, 38745.47, 0.0, 10.000807, 9.998735 
1.4950305e+3, 2.943944e+2, 3981.011, -165565.88, -10863.237, -0.010181942, 0.1769967, 4674.208, 59629.285, 0.0, 10.000971, 9.998727 
1.4950344e+3, 3.0439258e+2, 64714.73, -93956.92, 9874.07, -0.029452313, 0.12028857, 65326.83, 65326.83, 0.0, 10.000981, 9.998879 
1.4950381e+3, 3.1439245e+2, 59847.34, -56656.63, 10665.335, -0.08593337, 0.20548594, 60815.645, 60815.645, 0.0, 10.000773, 9.999234 
1.5049706e+3, 1.244055e+2, -1900928.6, -1705105.3, 38684.496, 0.12291882, 0.20153193, -1697740.3, 23108.541, 0.015336173, 9.998293, 10.000891 
1.504972e+3, 1.3440578e+2, -1715188.6, -1699268.1, -88271.875, 0.10177715, 0.25788048, -1618598.3, 4247.8096, 0.0091627855, 9.9994755, 9.999687 
1.504974e+3, 1.44405e+2, -1531169.0, -1564085.8, -11088.644, 0.032621324, 0.21416202, -1527782.0, -2928.275, 0.0040015904, 10.000086, 9.999644 
1.5049775e+3, 1.5440476e+2, -1430654.9, -1459715.1, -18839.555, 0.007485252, 0.21718095, -1421393.1, 5463.3306, 0.001031135, 10.000079, 9.999691 
1.5049809e+3, 1.6440466e+2, -1356258.1, -1385675.0, -32793.438, -0.002755395, 0.24762751, -1335025.8, -6168.604, 0.000096309515, 9.999971, 9.999578 
1.5049851e+3, 1.7440474e+2, -1288229.6, -1294538.5, -43821.746, 0.047125485, 0.28733525, -1247448.9, -16593.104, 0.000000575819, 9.999735, 9.999644 
1.5049884e+3, 1.8440396e+2, -1195189.5, -1261945.9, -73266.51, 0.056818835, 0.27437767, -1148056.3, -15193.633, 0.0, 9.999972, 9.999081 
1.5049906e+3, 1.9440223e+2, -970268.2, -1100394.3, -63836.168, 0.0007674769, 0.18872735, -944181.56, 90696.88, 0.0, 10.000833, 9.999103 
1.5049939e+3, 2.044009e+2, -871944.75, -1021574.4, -18781.771, 0.0037386154, 0.1545041, -869623.25, 67267.336, 0.0, 10.000917, 9.998931 
1.5049987e+3, 2.1440005e+2, -900666.5, -978575.44, -16858.951, 0.08318049, 0.17035173, -897174.9, -58277.277, 0.0, 10.000022, 9.998984 
1.5050024e+3, 2.2439885e+2, -865804.1, -946339.06, -20836.732, 0.0707489, 0.16838765, -860732.44, -119823.42, 0.0, 9.999741, 9.998669 
1.5050046e+3, 2.3439723e+2, -692514.44, -807358.94, -15341.322, -0.061442237, 0.13304675, -690500.4, -47575.125, 0.0, 10.000237, 9.998711 
1.5050083e+3, 2.4439593e+2, -551920.06, -703348.3, -689.60315, -0.07632995, 0.13844563, -551916.94, -6977.9097, 0.0, 10.000593, 9.99858 
1.5050137e+3, 2.5439498e+2, -422696.75, -584521.6, -5315.126, 0.054783724, 0.17979188, -422522.34, 24426.877, 0.0, 10.000781, 9.9986315 
1.5050186e+3, 2.6439413e+2, -332965.6, -481279.38, 29957.879, 0.10499511, 0.2291312, -327143.0, 21816.164, 0.0, 10.000686, 9.9987135 
1.505023e+3, 2.7439344e+2, -296228.5, -404238.2, 32484.621, 0.05109953, 0.27876392, -287211.34, -36243.617, 0.0, 10.000227, 9.998791 
1.5050273e+3, 2.8439233e+2, -202243.42, -299893.06, 13018.94, 0.01485537, 0.2863013, -200537.5, -47558.973, 0.0, 10.000162, 9.998866 
1.5050314e+3, 2.9439068e+2, -39621.99, -170993.28, 2188.6113, 0.004168027, 0.22599696, -39585.54, 15406.389, 0.0, 10.0006075, 9.998863 
1.5050355e+3, 3.0438864e+2, 55603.68, -103103.56, -6749.079, -0.024888275, 0.1414023, 55890.17, 55890.17, 0.0, 10.000939, 9.998837 
1.505039e+3, 3.1438845e+2, 117008.53, -14400.821, -28357.488, -0.0822336, 0.22425456, 122866.77, 122866.77, 0.0, 10.001102, 9.999368 
1.5149681e+3, 1.2440044e+2, -1860791.4, -1622858.0, 80946.055, 0.04195985, 0.16114771, -1597931.3, 122967.2, 0.016257107, 9.998292, 10.001466 
1.5149714e+3, 1.3440137e+2, -1683135.5, -1633377.5, -44226.492, 0.095721215, 0.23583513, -1607512.5, 15375.854, 0.009740974, 9.999476, 10.00014 
1.5149747e+3, 1.4440125e+2, -1538956.3, -1581889.9, -11337.711, 0.07534121, 0.2390389, -1536146.1, -11256.277, 0.0042781597, 10.000092, 9.99952 
1.5149781e+3, 1.5440084e+2, -1441225.5, -1481579.8, -18671.607, 0.05495943, 0.24084477, -1433911.8, -7016.4614, 0.0011151112, 10.000078, 9.999542 
1.5149815e+3, 1.6440035e+2, -1377650.8, -1430680.0, -42829.03, 0.05256587, 0.25518924, -1353793.3, -24892.563, 0.000106548556, 9.999973, 9.9992695 
1.5149856e+3, 1.7439975e+2, -1311392.8, -1342816.4, -52745.99, 0.12558308, 0.25955743, -1272068.1, -41161.55, 0.0000007145684, 9.999735, 9.999313 
1.514989e+3, 1.8439884e+2, -1178542.3, -1226729.1, -44459.184, 0.11972652, 0.24015771, -1152067.8, -19153.445, 0.0, 9.999968, 9.999325 
1.5149915e+3, 1.9439769e+2, -950521.94, -1059204.4, -30958.805, -0.0023257572, 0.1827317, -942321.9, 92601.53, 0.0, 10.000831, 9.999387 
1.5149944e+3, 2.0439675e+2, -871483.1, -1019960.5, -49909.027, -0.047782063, 0.17493328, -856266.25, 80664.88, 0.0, 10.000913, 9.998945 
1.514998e+3, 2.143962e+2, -901918.44, -979558.0, -50256.055, 0.009906205, 0.21794423, -877235.1, -38298.5, 0.0, 10.000014, 9.998981 
1.515002e+3, 2.2439507e+2, -854732.7, -920904.6, -5990.702, 0.055182904, 0.21481869, -854194.7, -113247.29, 0.0, 9.999728, 9.99885 
1.5150063e+3, 2.3439325e+2, -679320.2, -779358.9, 4653.646, 0.08292437, 0.13998044, -679104.2, -36139.63, 0.0, 10.000234, 9.998905 
1.5150103e+3, 2.4439201e+2, -557140.94, -712858.7, 6966.6353, 0.058518313, 0.14686035, -556829.9, -11852.895, 0.0, 10.000586, 9.998519 
1.5150136e+3, 2.5439158e+2, -429382.72, -596016.56, 3382.7334, -0.031640776, 0.2431816, -429314.06, 17668.98, 0.0, 10.000771, 9.998559 
1.5150174e+3, 2.6439026e+2, -329252.34, -471689.44, 14724.625, -0.07261285, 0.24802497, -327746.1, 21250.244, 0.0, 10.000677, 9.998784 
1.5150222e+3, 2.7438793e+2, -291619.9, -393913.47, 17142.342, -0.050702114, 0.12782182, -288823.63, -37805.797, 0.0, 10.000223, 9.998863 
1.5150271e+3, 2.8438672e+2, -211253.64, -318631.4, 27547.346, -0.015084022, 0.12897158, -204598.9, -51569.4, 0.0, 10.00016, 9.998739 
1.5150325e+3, 2.9438695e+2, -49729.176, -192109.22, 20981.887, 0.041179452, 0.26813105, -46701.55, 8326.866, 0.0, 10.000606, 9.99872 
1.5150371e+3, 3.0438504e+2, 32203.69, -150920.75, 956.7221, 0.04319185, 0.22067308, 32208.688, 32208.688, 0.0, 10.000936, 9.998512 
1.515041e+3, 3.1438398e+2, 120769.36, -3613.817, -14625.343, -0.005890535, 0.24867891, 122465.914, 122465.914, 0.0, 10.001088, 9.99945 
1.5249664e+3, 1.2439615e+2, -1635035.4, -1536391.8, 140213.83, -0.03042713, 0.14656122, -1437077.9, 283860.84, 0.017244658, 9.999945, 10.001273 
1.5249705e+3, 1.3439696e+2, -1705398.6, -1674803.4, -46846.547, 0.049892534, 0.23541519, -1640820.0, -17888.352, 0.010359608, 9.999455, 9.9998665 
1.5249744e+3, 1.4439707e+2, -1647381.0, -1618096.3, -39268.207, 0.07411434, 0.2702054, -1590829.3, -65897.586, 0.0045741852, 9.999276, 9.999665 
1.5249784e+3, 1.5439674e+2, -1508309.9, -1492603.5, -23127.148, 0.10290767, 0.26312414, -1476032.6, -49096.86, 0.0012060112, 9.999527, 9.999732 
1.524982e+3, 1.6439612e+2, -1395176.3, -1453265.3, -23986.275, 0.1054342, 0.25725856, -1386552.1, -57609.85, 0.000118081814, 9.999916, 9.99914 
1.5249857e+3, 1.74395e+2, -1207609.6, -1309932.4, -22594.97, 0.12608285, 0.22568952, -1202842.3, 28110.6, 0.0000008766353, 10.000521, 9.99916 
1.5249892e+3, 1.8439399e+2, -1102109.5, -1197254.5, -21408.398, 0.109390154, 0.20643136, -1097514.4, 35447.496, 0.0, 10.000523, 9.999262 
1.524992e+3, 1.9439325e+2, -1110935.1, -1143066.9, -35057.707, 0.026529433, 0.1973171, -1088437.4, -53469.797, 0.0, 9.999758, 9.99933 
1.5249948e+3, 2.0439252e+2, -1029166.3, -1089085.3, -63727.527, -0.024090596, 0.20923726, -988707.3, -51733.3, 0.0, 9.999803, 9.999004 
1.524998e+3, 2.1439186e+2, -769578.8, -909730.56, -61336.246, -0.029784871, 0.23698354, -746527.0, 92453.66, 0.0, 10.000896, 9.999037 
1.525002e+3, 2.2439082e+2, -639350.7, -822030.4, -26828.486, 0.015263207, 0.24394087, -635492.1, 105498.77, 0.0, 10.001229, 9.998806 
1.5250072e+3, 2.343894e+2, -630173.7, -761312.06, -37821.426, 0.120035745, 0.21108477, -620047.56, 22957.5, 0.0, 10.000598, 9.998853 
1.5250112e+3, 2.443881e+2, -594417.2, -727112.6, -33056.707, 0.111904085, 0.21524416, -586638.25, -41620.582, 0.0, 10.000315, 9.998551 
1.5250142e+3, 2.543871e+2, -470906.34, -611688.06, -29155.121, -0.04032627, 0.25409928, -465107.34, -18079.727, 0.0, 10.000467, 9.998597 
1.5250178e+3, 2.6438552e+2, -333173.72, -477236.66, -25283.354, -0.10375222, 0.23125984, -328865.28, 20177.424, 0.0, 10.000667, 9.998752 
1.5250227e+3, 2.7438328e+2, -193422.14, -350588.06, -33982.344, -0.054937154, 0.11853486, -186389.2, 64674.418, 0.0, 10.0009165, 9.998827 
1.5250278e+3, 2.8438213e+2, -103357.15, -267484.7, -16539.459, -0.007545903, 0.130911, -101707.02, 51367.594, 0.0, 10.000907, 9.998732 
1.525033e+3, 2.9438254e+2, -55933.62, -196039.47, -15526.656, 0.039182156, 0.28940862, -54233.57, 838.8682, 0.0, 10.000568, 9.998712 
1.5250379e+3, 3.0438045e+2, -28660.52, -208614.22, -13684.622, 0.04248348, 0.23623036, -27625.818, -27625.818, 0.0, 10.000641, 9.998257 
1.5250425e+3, 3.14379e+2, 154631.52, 29629.006, -21754.078, 0.031198094, 0.2506785, 158309.16, 158309.16, 0.0, 10.001251, 9.9995985 
1.5349658e+3, 1.2439276e+2, -1703163.4, -1678424.9, 125304.86, -0.10149617, 0.1623725, -1564880.3, 156088.3, 0.018294634, 9.999951, 10.000283 
1.534969e+3, 1.3439259e+2, -1777779.4, -1827083.9, -66094.81, -0.04250902, 0.2554287, -1731889.1, -108913.39, 0.011016667, 9.999461, 9.998821 
1.5349731e+3, 1.4439252e+2, -1616706.0, -1554215.0, -34120.65, 0.01992675, 0.30778033, -1539195.0, -14216.003, 0.0048880493, 9.999275, 10.000105 
1.5349784e+3, 1.5439259e+2, -1471509.6, -1414888.4, -13543.338, 0.1453083, 0.285862, -1411815.6, 15161.366, 0.0013030368, 9.999521, 10.000268 
1.5349825e+3, 1.64392e+2, -1392258.4, -1447413.1, -3331.4553, 0.14729707, 0.25529647, -1392057.9, -63076.574, 0.00013086536, 9.999916, 9.999182 
1.5349855e+3, 1.7439052e+2, -1206398.4, -1308289.5, 954.4885, 0.04354759, 0.18564594, -1206389.4, 24604.902, 0.0000010420176, 10.000524, 9.999171 
1.5349887e+3, 1.8438941e+2, -1128517.3, -1251697.4, -48531.01, 0.019396998, 0.17403515, -1111694.4, 21310.525, 0.0, 10.000521, 9.998889 
1.5349923e+3, 1.9438894e+2, -1140171.8, -1202347.6, -63747.316, 0.0819638, 0.23178758, -1100335.9, -65325.152, 0.0, 9.999751, 9.998926 
1.5349956e+3, 2.0438817e+2, -1024653.8, -1078000.3, -27855.549, 0.06726965, 0.25708538, -1012760.3, -75741.35, 0.0, 9.999794, 9.999086 
1.5349987e+3, 2.1438706e+2, -762226.4, -893322.9, -19006.459, -0.040429104, 0.2273226, -759526.44, 79503.19, 0.0, 10.000891, 9.999152 
1.5350026e+3, 2.2438619e+2, -660433.6, -864411.8, -47464.63, -0.055293676, 0.25677213, -649929.75, 91109.35, 0.0, 10.001222, 9.99852 
1.5350069e+3, 2.3438565e+2, -652820.2, -807548.8, -60688.875, 0.04621514, 0.34703958, -631856.56, 11190.122, 0.0, 10.000592, 9.998539 
1.5350112e+3, 2.443842e+2, -587115.6, -710155.7, -29371.861, 0.07841479, 0.3439515, -580463.7, -35402.63, 0.0, 10.000306, 9.9986725 
1.5350153e+3, 2.5438166e+2, -461379.28, -591440.4, -21677.918, 0.023865405, 0.2126927, -457861.28, -10778.248, 0.0, 10.000464, 9.998738 
1.5350197e+3, 2.6437998e+2, -341932.3, -495569.28, -15615.51, 0.0046404516, 0.17756484, -340361.22, 8737.238, 0.0, 10.000666, 9.998627 
1.5350243e+3, 2.7437937e+2, -203624.27, -371334.25, -22427.09, 0.030661197, 0.24734792, -200676.98, 50428.313, 0.0, 10.000912, 9.998688 
1.5350291e+3, 2.843785e+2, -98598.12, -255990.58, -27078.959, 0.030185776, 0.29008344, -94069.55, 59044.47, 0.0, 10.000899, 9.998815 
1.5350331e+3, 2.9437748e+2, -49671.34, -182367.92, -26045.86, -0.0062992107, 0.293243, -44742.13, 10381.713, 0.0, 10.000565, 9.998808 
1.5350378e+3, 3.0437484e+2, -40965.066, -233543.0, 6869.6226, -0.029792115, 0.19036475, -40720.324, -40720.324, 0.0, 10.000636, 9.998089 
1.5350436e+3, 3.143731e+2, 169397.66, 62685.113, 10950.237, 0.010855242, 0.19565773, 170509.72, 170509.72, 0.0, 10.001239, 9.999832 
1.5449652e+3, 1.2438857e+2, -1869060.6, -1775465.6, 46232.85, -0.10331833, 0.21391697, -1756479.5, -35469.535, 0.019406972, 9.998884, 10.000121 
1.5449683e+3, 1.343874e+2, -1816552.3, -1857844.1, -86876.84, -0.04256225, 0.22044004, -1747901.9, -124876.1, 0.0117135905, 9.999251, 9.998709 
1.5449724e+3, 1.4438704e+2, -1577640.0, -1540115.1, -19965.365, 0.012366716, 0.25211775, -1531479.6, -6448.0483, 0.0052204016, 9.999565, 10.000062 
1.5449777e+3, 1.543875e+2, -1417911.5, -1392883.4, -43501.38, 0.10962995, 0.27193984, -1360131.9, 66894.6, 0.0014059248, 9.999905, 10.0002365 
1.5449819e+3, 1.6438723e+2, -1344331.4, -1402961.1, -46262.01, 0.10380805, 0.26467025, -1318878.3, 10149.67, 0.00014487762, 10.00015, 9.999375 
1.5449856e+3, 1.7438595e+2, -1226672.4, -1294634.1, -28705.074, 0.01941121, 0.19623941, -1216170.9, 14867.62, 0.000001197513, 10.000282, 9.999381 
1.5449892e+3, 1.8438494e+2, -1141259.0, -1262935.6, -80550.66, 0.0075874445, 0.18463908, -1101153.3, 31894.887, 0.0, 10.000457, 9.998842 
1.5449925e+3, 1.943844e+2, -1006460.5, -1145236.9, -73561.336, 0.068892814, 0.24060872, -974725.0, 60330.043, 0.0, 10.0007, 9.99886 
1.5449959e+3, 2.0438346e+2, -912054.5, -1034019.44, -8926.307, 0.0689269, 0.2590387, -911404.6, 25660.367, 0.0, 10.000611, 9.998993 
1.5449996e+3, 2.1438214e+2, -882986.6, -962195.9, -16794.996, -0.0046007293, 0.21619207, -879572.7, -40494.547, 0.0, 10.000108, 9.999056 
1.5450034e+3, 2.2438116e+2, -811308.1, -941781.5, -50010.082, -0.034082707, 0.24317175, -794344.9, -53255.86, 0.0, 10.000208, 9.998476 
1.5450074e+3, 2.3438072e+2, -583495.25, -779423.06, -44868.72, -0.01072929, 0.34644064, -573708.9, 69387.43, 0.0, 10.001092, 9.998492 
1.5450116e+3, 2.4437933e+2, -417852.5, -609292.44, -9512.681, 0.0259253, 0.34556872, -417381.0, 127728.836, 0.0, 10.001388, 9.998844 
1.5450165e+3, 2.5437686e+2, -380951.16, -532205.9, -2242.5042, 0.078532584, 0.20292242, -380917.9, 66212.35, 0.0, 10.00093, 9.99892 
1.5450211e+3, 2.643753e+2, -356208.28, -510881.94, 15370.309, 0.08931122, 0.17670172, -354695.7, -5551.6025, 0.0, 10.000606, 9.998549 
1.5450253e+3, 2.7437496e+2, -275489.03, -417082.7, 10283.68, 0.04667372, 0.2799016, -274746.06, -23596.766, 0.0, 10.000469, 9.998586 
1.5450297e+3, 2.8437385e+2, -154966.3, -312969.22, -1851.2098, 0.016463257, 0.31354207, -154944.61, -1783.2813, 0.0, 10.000644, 9.998546 
1.545034e+3, 2.943719e+2, 18855.984, -180790.58, -31807.635, 0.00029259687, 0.25873977, 23801.082, 78981.32, 0.0, 10.001174, 9.998525 
1.5450387e+3, 3.0436963e+2, 34151.66, -183873.03, -9169.479, -0.022327872, 0.19940634, 34536.625, 34536.625, 0.0, 10.001098, 9.998206 
1.545044e+3, 3.143684e+2, 56694.035, 51227.496, 18886.668, -0.012262625, 0.23937008, 73044.19, 73044.19, 0.0, 10.000283, 10.000213 
1.5549648e+3, 1.2438364e+2, -1822163.3, -1676795.0, 64264.414, -0.039679345, 0.30828083, -1652459.0, 68603.04, 0.020587768, 9.998876, 10.000811 
1.5549685e+3, 1.3438149e+2, -1757449.9, -1737078.1, -74213.086, 0.046828005, 0.13088037, -1672355.1, -49273.88, 0.012455585, 9.999258, 9.999536 
1.5549724e+3, 1.4438069e+2, -1614607.0, -1618558.3, -9537.205, 0.044903003, 0.10182462, -1606843.0, -81753.81, 0.0055746003, 9.999571, 9.999521 
1.5549764e+3, 1.543815e+2, -1461371.1, -1484068.3, -30192.215, -0.012108751, 0.21935686, -1440465.1, -13381.291, 0.001515748, 9.9999075, 9.99961 
1.5549807e+3, 1.643818e+2, -1319760.4, -1352379.1, -42347.07, -0.033487663, 0.28569755, -1290690.6, 38391.273, 0.00016035176, 10.000152, 9.9997225 
1.5549862e+3, 1.7438135e+2, -1198950.0, -1236409.6, -23606.871, 0.048284296, 0.25812933, -1187545.3, 43539.72, 0.0000013687348, 10.000278, 9.9997835 
1.5549901e+3, 1.843806e+2, -1123194.4, -1223655.1, -72955.12, 0.0657041, 0.23944123, -1084849.8, 48241.516, 0.0, 10.000448, 9.999117 
1.5549923e+3, 1.9437963e+2, -988055.1, -1106226.6, -63726.08, -0.01674995, 0.22523777, -960237.8, 74862.36, 0.0, 10.000697, 9.999129 
1.5549956e+3, 2.0437846e+2, -931885.9, -1075017.4, -27306.574, -0.023531087, 0.21698837, -926853.25, 10258.578, 0.0, 10.000609, 9.998714 
1.5550005e+3, 2.1437709e+2, -906259.56, -1008844.3, -35238.8, 0.072816975, 0.20405328, -895321.06, -56194.9, 0.0, 10.0001, 9.998741 
1.5550047e+3, 2.2437577e+2, -798835.2, -913957.06, -20851.467, 0.07180603, 0.20389624, -795174.9, -54034.438, 0.0, 10.000198, 9.9986725 
1.555008e+3, 2.3437457e+2, -568492.3, -747288.7, -9953.957, -0.0545208, 0.20845273, -567939.9, 75214.02, 0.0, 10.001085, 9.998716 
1.5550122e+3, 2.4437352e+2, -404339.03, -579353.9, -23168.953, -0.051703244, 0.21906696, -401323.8, 143840.27, 0.0, 10.001378, 9.999055 
1.5550178e+3, 2.5437272e+2, -366860.63, -502350.22, -17504.998, 0.117957644, 0.22399814, -364635.56, 82533.89, 0.0, 10.000925, 9.999129 
1.5550222e+3, 2.6437157e+2, -359722.53, -517531.03, 9993.766, 0.14517763, 0.22984092, -359092.2, -9912.598, 0.0, 10.000602, 9.998507 
1.5550253e+3, 2.7437004e+2, -280414.25, -427472.66, 7598.8286, -0.010281822, 0.22010946, -280022.66, -28827.197, 0.0, 10.000468, 9.998516 
1.5550296e+3, 2.843681e+2, -197799.14, -401747.66, 17668.207, -0.054144323, 0.20237981, -196279.84, -43063.207, 0.0, 10.000641, 9.997938 
1.5550357e+3, 2.9436585e+2, -26720.594, -274723.84, -9232.265, 0.047679216, 0.17927416, -26377.385, 28864.793, 0.0, 10.001168, 9.997883 
1.5550406e+3, 3.0436474e+2, 56587.355, -135179.83, -35894.695, 0.054774225, 0.25801483, 63085.855, 63085.855, 0.0, 10.001088, 9.998547 
1.555044e+3, 3.143647e+2, 87862.34, 117090.305, -3598.4702, -0.049541093, 0.37690306, 117526.82, 117526.82, 0.0, 10.0002775, 10.000669 
1.5649638e+3, 1.24377154e+2, -1827097.0, -1633030.6, 50561.535, -0.006785663, 0.30622345, -1620647.6, 100481.01, 0.021849003, 9.99864, 10.00123 
1.5649678e+3, 1.3437589e+2, -1695906.1, -1636223.8, -113350.04, 0.043358143, 0.15539266, -1548852.6, 74283.62, 0.013250772, 9.999374, 10.000177 
1.5649718e+3, 1.4437525e+2, -1604380.9, -1627352.0, -55878.56, 0.021001425, 0.113569185, -1558819.6, -33678.336, 0.0059556314, 9.999701, 9.999398 
1.5649761e+3, 1.5437552e+2, -1516189.3, -1529446.0, -45048.824, -0.021966983, 0.19385612, -1477283.8, -50142.125, 0.0016345053, 9.999616, 9.999437 
1.5649806e+3, 1.6437566e+2, -1397063.0, -1385889.5, -49373.33, -0.034433175, 0.2525447, -1341787.9, -12646.092, 0.00017771397, 9.999609, 9.999752 
1.5649863e+3, 1.7437556e+2, -1279872.4, -1270488.0, -60156.227, 0.0496758, 0.2574817, -1214841.3, 16301.09, 0.0000016137079, 9.999706, 9.999824 
1.5649903e+3, 1.8437506e+2, -1180348.1, -1220396.4, -115065.87, 0.06488015, 0.24842617, -1083577.0, 49569.25, 0.0, 9.999922, 9.9993925 
1.5649927e+3, 1.9437419e+2, -1026747.06, -1092935.3, -105884.41, -0.027083362, 0.21527444, -948905.44, 86247.96, 0.0, 10.000292, 9.999416 
1.564996e+3, 2.0437314e+2, -944819.8, -1078038.6, -76270.36, -0.039150406, 0.2037482, -910167.25, 26996.105, 0.0, 10.000508, 9.998742 
1.5650006e+3, 2.1437195e+2, -841961.4, -977443.2, -62953.57, 0.05496282, 0.2070396, -817225.4, 21950.912, 0.0, 10.000541, 9.998744 
1.565005e+3, 2.2437072e+2, -736764.4, -846209.6, -8795.971, 0.064123735, 0.1983982, -736061.94, 5127.381, 0.0, 10.0004635, 9.999009 
1.5650088e+3, 2.3436946e+2, -665760.0, -753848.4, 10157.239, -0.03802995, 0.16293214, -664603.94, -21402.322, 0.0, 10.000246, 9.999075 
1.5650132e+3, 2.4436863e+2, -568958.7, -664857.8, -19699.39, -0.036827534, 0.17732441, -565069.8, -19859.94, 0.0, 10.000274, 9.999 
1.5650183e+3, 2.5436836e+2, -416897.47, -535020.0, -38524.58, 0.09713571, 0.24295847, -405443.66, 41768.395, 0.0, 10.000621, 9.99905 
1.5650228e+3, 2.6436737e+2, -317933.72, -500221.0, -18051.295, 0.12182587, 0.2680028, -316163.34, 33058.453, 0.0, 10.000902, 9.998482 
1.5650262e+3, 2.7436543e+2, -193673.52, -388218.94, -18564.275, 0.0059346557, 0.22076675, -191917.89, 59323.42, 0.0, 10.001076, 9.998493 
1.5650307e+3, 2.8436336e+2, -134689.52, -359373.22, 22468.703, -0.025828566, 0.18963201, -132464.64, 20798.605, 0.0, 10.001023, 9.998045 
1.5650368e+3, 2.943615e+2, -88878.055, -291110.8, 49500.69, 0.052390184, 0.19248118, -77411.84, -22126.775, 0.0, 10.000685, 9.998003 
1.5650415e+3, 3.043609e+2, -1742.4272, -179222.23, 32471.262, 0.05363908, 0.31971192, 4011.8665, 4011.8665, 0.0, 10.000756, 9.998403 
1.5650447e+3, 3.143599e+2, 219786.19, 140062.78, 19994.846, -0.06453637, 0.3604384, 224519.89, 224519.89, 0.0, 10.001359, 10.000307 
1.5749624e+3, 1.243691e+2, -1818407.9, -1616154.6, 79028.74, -0.010845893, 0.20506792, -1588937.5, 132271.84, 0.023204513, 9.998641, 10.001351 
1.5749662e+3, 1.3437067e+2, -1665027.1, -1574062.6, -87325.74, -0.06141439, 0.2933794, -1521084.6, 102105.87, 0.014108494, 9.999378, 10.000607 
1.5749706e+3, 1.4437076e+2, -1584936.5, -1586602.4, -60456.805, -0.06783229, 0.2890211, -1525306.9, -119.04275, 0.0063687824, 9.999698, 9.9996805 
1.5749767e+3, 1.5436958e+2, -1497034.1, -1489754.6, -47928.273, 0.076685205, 0.19733015, -1445328.1, -18128.527, 0.00176415, 9.999615, 9.99971 
1.5749815e+3, 1.6436884e+2, -1417181.3, -1427777.5, -47435.777, 0.09533709, 0.1671132, -1374748.6, -45541.35, 0.00019721544, 9.999608, 9.999465 
1.5749855e+3, 1.7436862e+2, -1303030.6, -1318704.0, -56048.227, 0.019726781, 0.19268157, -1254273.9, -23063.482, 0.0000019795527, 9.999705, 9.999494 
1.5749896e+3, 1.8436834e+2, -1162468.8, -1181985.1, -102585.13, 0.00017456019, 0.20978548, -1069178.8, 64034.594, 0.0, 9.999915, 9.99966 
1.5749936e+3, 1.9436811e+2, -1006846.2, -1049792.1, -91598.39, 0.03203339, 0.21017385, -934237.5, 100977.17, 0.0, 10.000283, 9.999718 
1.574997e+3, 2.0436756e+2, -922813.06, -1030851.75, -75075.45, 0.013588368, 0.21935315, -884342.4, 52877.23, 0.0, 10.0005, 9.99907 
1.575e+3, 2.1436675e+2, -819689.44, -930212.0, -60565.72, -0.061552115, 0.22516128, -792962.8, 46265.594, 0.0, 10.000535, 9.999071 
1.5750042e+3, 2.2436598e+2, -705473.7, -779735.9, -16611.281, -0.061449245, 0.22663262, -701927.4, 39308.2, 0.0, 10.000455, 9.999471 
1.5750098e+3, 2.3436539e+2, -633316.25, -685871.5, 3103.8228, 0.033490703, 0.20894584, -633133.56, 10106.215, 0.0, 10.000241, 9.999545 
1.5750146e+3, 2.4436462e+2, -591901.56, -711114.1, -8005.8716, 0.06441202, 0.2205633, -591366.3, -46118.87, 0.0, 10.000267, 9.998685 
1.5750182e+3, 2.5436375e+2, -443947.63, -590263.4, -23575.172, 0.012306617, 0.2614464, -440242.88, 7015.3174, 0.0, 10.000615, 9.998674 
1.5750226e+3, 2.6436257e+2, -318082.75, -499918.34, -10107.639, 0.013832642, 0.28959796, -317522.63, 31748.563, 0.0, 10.000897, 9.9984865 
1.575028e+3, 2.74361e+2, -192008.36, -384616.63, -9624.342, 0.08655631, 0.27638027, -191528.64, 59758.895, 0.0, 10.001073, 9.998521 
1.5750329e+3, 2.8435957e+2, -80173.94, -245131.28, 11683.991, 0.09266024, 0.2720266, -79350.47, 73951.31, 0.0, 10.001018, 9.998833 
1.575037e+3, 2.9435885e+2, -29357.92, -167481.36, 38913.188, 0.011147883, 0.3018712, -19149.486, 36159.69, 0.0, 10.000683, 9.998854 
1.5750414e+3, 3.04358e+2, -44317.35, -266871.03, 52850.82, -0.03022999, 0.3878399, -32404.318, -32404.318, 0.0, 10.000752, 9.997804 
1.575046e+3, 3.1435403e+2, 136522.75, -29697.674, 47140.33, -0.07831057, 0.20223485, 148961.05, 148961.05, 0.0, 10.001344, 9.999147 
1.5849616e+3, 1.24362275e+2, -1691514.3, -1599053.3, 118870.625, -0.013136379, 0.18817803, -1517739.6, 203536.58, 0.024665277, 9.999716, 10.000952 
1.5849656e+3, 1.343643e+2, -1717613.0, -1611925.0, -98538.32, -0.04021074, 0.33557573, -1552955.4, 70299.25, 0.0150364665, 9.999074, 10.000488 
1.5849699e+3, 1.4436452e+2, -1658692.1, -1578288.4, -75733.71, -0.056863096, 0.33242613, -1532747.8, -7496.748, 0.0068181083, 9.999007, 10.000068 
1.5849763e+3, 1.5436348e+2, -1437961.1, -1414501.0, -53627.76, 0.07145718, 0.21145858, -1371335.4, 55924.32, 0.0019058621, 9.999822, 10.000126 
1.5849814e+3, 1.6436282e+2, -1330228.1, -1384568.9, -50063.965, 0.08121283, 0.16684952, -1300436.9, 28829.082, 0.0002187055, 10.0002, 9.9994755 
1.5849854e+3, 1.7436263e+2, -1258111.9, -1299497.1, -38652.12, 0.0065478003, 0.19659682, -1234961.9, -3692.671, 0.000002466339, 10.000025, 9.999471 
1.5849894e+3, 1.8436238e+2, -1166820.8, -1182171.0, -74395.195, -0.0065322504, 0.21834156, -1099705.8, 33566.45, 0.0, 9.99988, 9.999674 
1.5849936e+3, 1.9436221e+2, -1078194.9, -1081878.4, -85917.05, 0.0351742, 0.22431509, -994099.9, 41173.58, 0.0, 9.999787, 9.999734 
1.5849972e+3, 2.0436181e+2, -977339.5, -1022924.75, -74851.46, 0.008274059, 0.23092777, -921887.4, 15389.467, 0.0, 9.999982, 9.9993725 
1.5850003e+3, 2.1436119e+2, -795160.0, -882852.4, -63479.668, -0.099259354, 0.22456981, -761856.0, 77426.57, 0.0, 10.000552, 9.999388 
1.5850043e+3, 2.2436066e+2, -671659.1, -763490.0, -56764.57, -0.09460573, 0.23245883, -644564.7, 96722.27, 0.0, 10.000689, 9.999468 
1.5850101e+3, 2.3436035e+2, -628952.7, -686179.1, -76909.2, 0.050788146, 0.24584988, -575506.56, 67782.336, 0.0, 10.000284, 9.99952 
1.5850149e+3, 2.4435948e+2, -588723.8, -707978.94, -68808.31, 0.08351041, 0.24965021, -557301.75, -12004.183, 0.0, 10.000285, 9.998697 
1.5850185e+3, 2.5435805e+2, -416445.2, -575502.1, -56076.117, -0.029690415, 0.23285328, -398663.3, 48650.44, 0.0, 10.000799, 9.998686 
1.585023e+3, 2.6435688e+2, -315204.38, -495644.1, -44939.71, -0.034770407, 0.25650248, -304631.34, 44696.027, 0.0, 10.000907, 9.99851 
1.5850289e+3, 2.7435595e+2, -274905.03, -420988.2, -48169.16, 0.10160242, 0.30753487, -260451.8, -9113.614, 0.0, 10.000492, 9.9985485 
1.585034e+3, 2.8435472e+2, -167000.03, -281628.94, -47111.836, 0.118107155, 0.31666577, -150122.36, 3228.5017, 0.0, 10.000401, 9.998878 
1.5850374e+3, 2.943535e+2, -19705.041, -156745.52, -80974.08, -0.022285301, 0.29406637, 17849.336, 73211.3, 0.0, 10.000726, 9.998905 
1.585042e+3, 3.043527e+2, -15434.081, -214965.0, -59743.82, -0.053941146, 0.3670389, 1086.6193, 1086.6193, 0.0, 10.000787, 9.998143 
1.5850472e+3, 3.143494e+2, 2157.1697, -99916.125, 7204.9365, -0.037790027, 0.21887128, 2663.2278, 2663.2278, 0.0, 10.000443, 9.999099 
1.5949611e+3, 1.2435684e+2, -1757173.4, -1735414.4, 100052.62, -0.021697065, 0.26611835, -1645651.5, 75676.01, 0.026239868, 9.999718, 10.0 
1.594966e+3, 1.3435687e+2, -1762917.9, -1708111.3, -124639.09, 0.104730524, 0.28147194, -1607898.6, 15429.694, 0.016040104, 9.999082, 9.999822 
1.5949701e+3, 1.4435661e+2, -1624981.5, -1509418.6, -51741.605, 0.048461553, 0.24287683, -1489637.9, 35692.484, 0.0073062, 9.999009, 10.000542 
1.594975e+3, 1.5435722e+2, -1400283.9, -1335882.5, -22323.621, -0.04423856, 0.2345421, -1328901.3, 98420.84, 0.002060233, 9.999818, 10.000669 
1.5949799e+3, 1.6435762e+2, -1309609.4, -1341882.8, -55503.367, -0.084927484, 0.25172323, -1267944.5, 61372.88, 0.00024185247, 10.000199, 9.99977 
1.5949854e+3, 1.743576e+2, -1238886.4, -1259954.1, -44898.73, 0.0038268375, 0.27041182, -1203302.4, 28016.31, 0.0000030340082, 10.000025, 9.999743 
1.5949897e+3, 1.8435723e+2, -1183615.6, -1216146.6, -79196.27, 0.03630423, 0.27631274, -1119031.8, 14291.081, 0.0, 9.999875, 9.999444 
1.5949927e+3, 1.9435656e+2, -1097311.1, -1121176.5, -88616.26, -0.020816043, 0.25906134, -1019827.75, 15501.624, 0.0, 9.999784, 9.999466 
1.5949965e+3, 2.0435588e+2, -959820.8, -986631.3, -55630.477, -0.059124194, 0.23947921, -916003.25, 21331.754, 0.0, 9.99998, 9.999624 
1.595001e+3, 2.1435525e+2, -776194.2, -841732.06, -41126.9, -0.064993784, 0.20502341, -756377.7, 82961.12, 0.0, 10.000543, 9.999675 
1.5950055e+3, 2.2435468e+2, -705450.7, -831529.25, -70383.32, -0.043535028, 0.21686295, -674003.1, 67340.45, 0.0, 10.000678, 9.999007 
1.59501e+3, 2.3435432e+2, -665724.25, -761425.3, -90555.64, 0.0096148625, 0.27414247, -611154.1, 32194.793, 0.0, 10.000278, 9.999007 
1.5950145e+3, 2.4435319e+2, -567177.7, -661543.3, -51288.367, 0.015800385, 0.26414564, -544670.4, 690.13135, 0.0, 10.000276, 9.999022 
1.5950191e+3, 2.5435123e+2, -390162.47, -520204.06, -34495.914, -0.03542033, 0.15640546, -381578.44, 65800.7, 0.0, 10.000794, 9.99907 
1.5950239e+3, 2.6435015e+2, -313345.3, -491137.9, -57776.715, -0.02970494, 0.16902922, -296219.44, 53171.395, 0.0, 10.000902, 9.998544 
1.595029e+3, 2.7435023e+2, -274666.34, -420531.94, -61740.797, 0.046650305, 0.31762588, -252042.25, -648.7909, 0.0, 10.00049, 9.998553 
1.5950336e+3, 2.8434867e+2, -214743.23, -380759.53, -35971.15, 0.04361397, 0.32489333, -207284.39, -53873.477, 0.0, 10.0004, 9.9981985 
1.5950377e+3, 2.9434532e+2, -71387.266, -263663.47, -65562.0, -0.058994908, 0.16346323, -51159.945, 4284.351, 0.0, 10.000722, 9.998174 
1.595043e+3, 3.043449e+2, 68926.82, -36770.07, -69442.41, -0.029242678, 0.25295073, 103343.516, 103343.516, 0.0, 10.000775, 9.9993725 
1.5950486e+3, 3.1434622e+2, 71123.6, 45730.5, -7651.2007, 0.04951376, 0.4299616, 73250.8, 73250.8, 0.0, 10.000434, 10.000104 
1.6049606e+3, 1.2435063e+2, -1839748.0, -1803267.3, 91785.26, -0.032046877, 0.29019687, -1727927.5, -6539.953, 0.027939666, 9.999274, 9.999738 
1.6049659e+3, 1.3434975e+2, -1643343.8, -1649887.8, -92358.42, 0.13507181, 0.2149067, -1554199.4, 69196.99, 0.01712635, 9.999903, 9.999828 
1.6049698e+3, 1.4434926e+2, -1483073.4, -1458140.1, -4218.8765, 0.060551535, 0.16042845, -1457445.6, 67955.51, 0.007836914, 10.000061, 10.000387 
1.6049747e+3, 1.5435064e+2, -1421133.8, -1365304.4, -28971.102, -0.050675556, 0.24578431, -1352987.9, 74399.45, 0.0022287087, 9.999762, 10.000492 
1.6049796e+3, 1.6435137e+2, -1373759.1, -1359681.6, -103302.555, -0.10278681, 0.30205163, -1263178.3, 66201.77, 0.00026665046, 9.999708, 9.999882 
1.6049851e+3, 1.743512e+2, -1235594.1, -1242876.0, -106795.92, -0.01797673, 0.29306972, -1132377.1, 99005.1, 0.0000036433328, 9.999987, 9.999876 
1.6049896e+3, 1.8435077e+2, -1129940.5, -1179728.5, -135602.27, 0.014260655, 0.28052294, -1016966.2, 116420.266, 0.0, 10.0002, 9.9995365 
1.6049927e+3, 1.9435011e+2, -1013354.3, -1071339.8, -120394.73, -0.041208558, 0.25637177, -918510.56, 116881.516, 0.0, 10.000321, 9.99955 
1.6049966e+3, 2.0434943e+2, -924570.3, -964254.2, -77569.62, -0.06262887, 0.22986303, -864345.1, 73052.16, 0.0, 10.000201, 9.99967 
1.6050015e+3, 2.1434876e+2, -883469.8, -888344.8, -82622.516, -0.033473123, 0.18922314, -803248.8, 36152.04, 0.0, 9.999787, 9.999718 
1.6050062e+3, 2.2434807e+2, -854292.2, -912456.8, -111366.945, -0.018796803, 0.18790376, -768272.9, -26865.873, 0.0, 9.999698, 9.998922 
1.6050097e+3, 2.3434739e+2, -709375.9, -793591.75, -103865.305, -0.02845505, 0.22358309, -639407.56, 4008.1074, 0.0, 10.000028, 9.998907 
1.6050144e+3, 2.4434632e+2, -580483.1, -646694.3, -46346.688, -0.028959485, 0.21507977, -556632.6, -11205.815, 0.0, 10.0000925, 9.999211 
1.6050197e+3, 2.5434485e+2, -519729.8, -558478.56, -44149.73, -0.01498473, 0.13926008, -490890.44, -43450.56, 0.0, 9.999804, 9.999282 
1.6050246e+3, 2.643441e+2, -433921.06, -536106.6, -66338.375, -0.002227233, 0.16465014, -401280.63, -51831.82, 0.0, 10.000021, 9.998657 
1.6050291e+3, 2.7434415e+2, -209073.75, -377634.28, -64832.582, 0.0049046176, 0.30232486, -187022.34, 64429.934, 0.0, 10.000894, 9.998652 
1.6050337e+3, 2.8434262e+2, -112531.82, -331299.5, -24533.904, -0.015840186, 0.30827713, -109814.2, 43655.492, 0.0, 10.0011015, 9.9981985 
1.6050382e+3, 2.9433933e+2, -112733.63, -282799.66, -4239.52, -0.068903334, 0.15302402, -112628.016, -57125.72, 0.0, 10.000437, 9.9981785 
1.6050436e+3, 3.043386e+2, -18073.068, -88249.41, -15415.739, -0.017346056, 0.21528022, -14835.99, -14835.99, 0.0, 10.00022, 9.999285 
1.6050489e+3, 3.1434053e+2, 74431.836, 23390.064, -71828.82, 0.041752096, 0.4625751, 125138.87, 125138.87, 0.0, 10.000564, 9.999886 
1.6149595e+3, 1.2434378e+2, -1812186.9, -1748117.3, 110193.43, -0.05473705, 0.2677799, -1665396.6, 56058.086, 0.02978273, 9.999281, 10.000122 
1.6149649e+3, 1.3434297e+2, -1596186.6, -1554593.8, -69583.83, 0.045476064, 0.13607994, -1502765.1, 120693.37, 0.018308382, 9.999908, 10.000487 
1.614969e+3, 1.4434253e+2, -1538490.1, -1573362.3, -16651.885, -0.028984835, 0.08747139, -1531816.0, -6353.491, 0.008418617, 10.00006, 9.999594 
1.6149755e+3, 1.5434374e+2, -1485121.9, -1497737.0, -39948.195, 0.046771217, 0.24595231, -1450986.4, -23531.387, 0.0024150687, 9.99976, 9.999583 
1.6149805e+3, 1.6434413e+2, -1379279.6, -1371725.3, -95627.57, 0.021373924, 0.32019785, -1279800.3, 49653.06, 0.0002938315, 9.999707, 9.999801 
1.6149846e+3, 1.7434347e+2, -1237138.3, -1246957.0, -95615.12, -0.061979856, 0.26415336, -1146306.6, 85152.99, 0.000004294035, 9.999988, 9.999849 
1.6149889e+3, 1.8434298e+2, -1101980.3, -1120928.4, -131463.03, -0.07863925, 0.2297963, -979650.3, 153812.73, 0.0, 10.000196, 9.999943 
1.614993e+3, 1.9434287e+2, -984191.94, -1009783.94, -115104.18, -0.032180164, 0.21598053, -881174.7, 154287.03, 0.0, 10.000316, 9.999975 
1.6149974e+3, 2.0434247e+2, -936691.94, -988337.06, -92640.75, -0.0102505265, 0.20282997, -866342.2, 71121.41, 0.0, 10.000195, 9.999508 
1.6150016e+3, 2.1434176e+2, -897904.06, -917765.75, -96929.23, -0.009150597, 0.17695445, -810398.3, 29070.436, 0.0, 9.9997835, 9.999517 
1.6150057e+3, 2.243408e+2, -836630.44, -875531.06, -101099.54, -0.025933916, 0.14628166, -753127.2, -11649.908, 0.0, 9.999695, 9.999179 
1.6150095e+3, 2.343395e+2, -688817.06, -751204.3, -89865.984, -0.06853718, 0.094088316, -624884.8, 18604.832, 0.0, 10.000027, 9.999199 
1.6150142e+3, 2.443388e+2, -578136.7, -639967.8, -55694.176, -0.05678123, 0.103198424, -545352.9, 143.97383, 0.0, 10.000084, 9.999262 
1.6150199e+3, 2.5433892e+2, -518219.53, -554459.3, -53070.363, 0.025205106, 0.18184417, -480260.97, -32764.615, 0.0, 9.999799, 9.999312 
1.6150251e+3, 2.6433858e+2, -422364.66, -510898.5, -35783.254, 0.04076701, 0.2419234, -409710.56, -60208.582, 0.0, 10.000014, 9.998835 
1.6150297e+3, 2.7433765e+2, -196922.16, -351332.6, -29485.8, -0.029915996, 0.25948495, -191483.22, 60032.203, 0.0, 10.000887, 9.998837 
1.6150343e+3, 2.8433654e+2, -68254.234, -237412.92, -45543.832, -0.06692733, 0.26665393, -56771.586, 96756.375, 0.0, 10.001093, 9.998849 
1.6150387e+3, 2.9433545e+2, -64592.805, -182573.98, -27524.41, -0.059190553, 0.2642794, -58487.44, -2950.535, 0.0, 10.000435, 9.998868 
1.6150437e+3, 3.0433375e+2, -113809.87, -287331.1, -4582.182, -0.025343299, 0.25615528, -113688.95, -113688.95, 0.0, 10.000221, 9.997917 
1.6150485e+3, 3.1433228e+2, -23414.342, -177759.77, -62215.05, -0.07027433, 0.31460467, -1459.1556, -1459.1556, 0.0, 10.000554, 9.9985075 
1.6249597e+3, 1.2433694e+2, -1628212.3, -1663065.1, 91732.59, -0.045471013, 0.26849356, -1552265.5, 169257.14, 0.03179242, 10.000581, 10.000085 
1.6249649e+3, 1.3433667e+2, -1581668.4, -1533223.6, -125034.89, 0.052049477, 0.17871489, -1430086.5, 193434.48, 0.019603958, 9.999951, 10.000617 
1.6249685e+3, 1.443363e+2, -1591888.5, -1610785.5, -64323.215, -0.06393216, 0.13568394, -1536323.5, -10799.62, 0.009062119, 9.999748, 9.999485 
1.6249752e+3, 1.5433688e+2, -1422181.6, -1482670.6, -30806.87, 0.022810232, 0.24408358, -1409254.4, 18267.879, 0.002624408, 10.00026, 9.999444 
1.6249804e+3, 1.6433693e+2, -1280021.9, -1316868.6, -55812.766, 0.008071098, 0.28762648, -1239670.4, 89853.31, 0.00032476612, 10.000361, 9.999861 
1.6249844e+3, 1.7433627e+2, -1242424.4, -1241512.6, -50821.656, -0.068538696, 0.22662084, -1191144.8, 40384.207, 0.000005034694, 9.999918, 9.999919 
1.6249889e+3, 1.8433587e+2, -1162779.1, -1149560.0, -86275.93, -0.07942369, 0.19605894, -1069640.9, 63890.633, 0.0, 9.999779, 9.999945 
1.6249932e+3, 1.9433592e+2, -1023986.3, -1028170.44, -103984.13, -0.029563805, 0.19804358, -922073.2, 113455.72, 0.0, 10.000044, 9.999977 
1.6249974e+3, 2.0433564e+2, -961387.9, -1006051.5, -113525.6, -0.0062601077, 0.20079032, -868018.5, 69511.5, 0.0, 10.000051, 9.999456 
1.6250013e+3, 2.1433505e+2, -912799.1, -931495.25, -110472.766, -0.009158222, 0.18974292, -811279.6, 28255.35, 0.0, 9.999709, 9.999459 
1.6250053e+3, 2.2433405e+2, -821506.9, -853116.3, -84082.91, -0.030494485, 0.1532313, -751756.2, -10212.557, 0.0, 9.999736, 9.999311 
1.6250095e+3, 2.3433259e+2, -647514.8, -715220.56, -84015.57, -0.078520514, 0.07119304, -590788.25, 52767.95, 0.0, 10.000244, 9.99934 
1.6250141e+3, 2.4433199e+2, -541818.94, -623710.56, -84761.984, -0.07328766, 0.08422055, -488631.06, 56931.152, 0.0, 10.00034, 9.9992485 
1.6250195e+3, 2.543326e+2, -504648.34, -551176.9, -91143.71, -0.0023266764, 0.21112108, -433846.66, 13711.849, 0.0, 9.9999075, 9.999282 
1.6250247e+3, 2.643322e+2, -485217.72, -535457.56, -56019.094, 0.017517256, 0.26825073, -448944.25, -99379.39, 0.0, 9.999558, 9.998885 
1.6250299e+3, 2.7433062e+2, -426541.8, -455033.34, -60288.496, -0.02647558, 0.21486896, -378838.84, -127254.734, 0.0, 9.999283, 9.998896 
1.6250347e+3, 2.8432986e+2, -288565.8, -295482.6, -99757.96, -0.055020753, 0.23307453, -192206.33, -38613.31, 0.0, 9.999375, 9.999274 
1.6250388e+3, 2.943304e+2, -103913.48, -150731.08, -102724.59, -0.06669487, 0.34691304, -21964.246, 33621.926, 0.0, 9.9999485, 9.999319 
1.6250437e+3, 3.0432853e+2, -110111.07, -310074.03, -36929.19, -0.048509356, 0.30935386, -103508.96, -103508.96, 0.0, 10.000348, 9.997702 
1.6250491e+3, 3.1432557e+2, -29201.064, -178214.05, -8983.121, -0.058703195, 0.24385713, -28661.479, -28661.479, 0.0, 10.000502, 9.998532 
1.6349606e+3, 1.2433032e+2, -1658745.5, -1727194.6, 58291.434, -0.015662257, 0.30661082, -1625374.1, 96215.266, 0.03398967, 10.000583, 9.999635 
1.6349658e+3, 1.3433088e+2, -1609748.5, -1591849.1, -149808.1, 0.14973944, 0.34221143, -1450723.6, 172859.88, 0.02102759, 9.999955, 10.000212 
1.6349684e+3, 1.4433065e+2, -1552572.3, -1528606.1, -50887.164, -0.05327113, 0.30683938, -1488310.1, 37274.863, 0.009775217, 9.999743, 10.000054 
1.634974e+3, 1.543301e+2, -1378581.3, -1392964.6, -10022.693, -0.12778619, 0.2416243, -1373437.0, 54151.902, 0.002860367, 10.00026, 10.000062 
1.6349792e+3, 1.6432977e+2, -1266608.8, -1288299.4, -71072.9, -0.14917958, 0.20431076, -1205558.5, 124032.29, 0.00036087315, 10.000357, 10.000059 
1.6349848e+3, 1.7432965e+2, -1231620.6, -1218681.6, -66987.266, -0.043113027, 0.17985073, -1157852.1, 73738.18, 0.000005927034, 9.999915, 10.000077 
1.6349895e+3, 1.8432945e+2, -1191551.1, -1208245.3, -78575.086, 0.0046461793, 0.17979133, -1120881.0, 12710.577, 0.0, 9.999772, 9.999545 
1.6349933e+3, 1.9432928e+2, -1055092.3, -1092720.6, -92715.14, -0.037423037, 0.20303285, -979301.7, 56292.074, 0.0, 10.000041, 9.9995365 
1.6349971e+3, 2.0432898e+2, -958735.8, -999202.0, -125723.66, -0.05606153, 0.22402202, -851627.56, 85969.055, 0.0, 10.000044, 9.999507 
1.6350007e+3, 2.143286e+2, -908271.75, -920873.9, -122367.78, -0.03807933, 0.22798046, -792042.94, 47556.836, 0.0, 9.999703, 9.9995365 
1.635005e+3, 2.2432782e+2, -823215.1, -854398.2, -67495.55, -0.03838822, 0.21036616, -769533.7, -27927.535, 0.0, 9.999724, 9.999309 
1.63501e+3, 2.3432662e+2, -649331.4, -717542.2, -62977.53, -0.06346131, 0.15295148, -611817.3, 31798.54, 0.0, 10.0002365, 9.999329 
1.6350144e+3, 2.4432586e+2, -549749.6, -638429.4, -98406.35, -0.08444569, 0.15683413, -486155.1, 59468.168, 0.0, 10.000331, 9.999153 
1.6350184e+3, 2.543258e+2, -511284.2, -565930.56, -105261.21, -0.10173645, 0.22747941, -429857.75, 17768.994, 0.0, 9.999908, 9.999182 
1.6350234e+3, 2.6432493e+2, -491652.13, -548297.9, -66091.125, -0.07618988, 0.24355155, -448070.75, -98432.836, 0.0, 9.999555, 9.998799 
1.6350296e+3, 2.7432302e+2, -432695.9, -468161.0, -68626.17, 0.007202846, 0.16949946, -379548.3, -127889.42, 0.0, 9.999284, 9.998807 
1.6350347e+3, 2.843225e+2, -273794.56, -265932.63, -79913.09, 0.010146403, 0.20686296, -189853.88, -36188.22, 0.0, 9.999377, 9.999477 
1.6350384e+3, 2.9432404e+2, -88873.79, -119961.56, -78737.664, -0.0991912, 0.39812365, -24160.393, 31490.652, 0.0, 9.999948, 9.999532 
1.6350438e+3, 3.0432284e+2, -49025.668, -179743.45, -30583.17, -0.092973076, 0.37423852, -42224.215, -42224.215, 0.0, 10.000334, 9.998604 
1.6350509e+3, 3.1432003e+2, 65521.605, 22664.063, -2813.3423, 0.06357447, 0.22944565, 65705.49, 65705.49, 0.0, 10.000484, 9.99992 
1.6449608e+3, 1.2432314e+2, -1870473.0, -1849560.4, 70580.87, 0.019861875, 0.27205035, -1788665.5, -67006.87, 0.036383986, 9.999199, 9.999455 
1.644966e+3, 1.3432391e+2, -1589601.0, -1602600.5, -115219.02, 0.16772418, 0.34893548, -1480698.5, 142954.11, 0.022584815, 10.000185, 10.000024 
1.644968e+3, 1.4432384e+2, -1436435.3, -1454010.5, -27185.924, -0.0909273, 0.33147493, -1416652.0, 109001.04, 0.010560797, 10.000464, 10.000222 
1.6449739e+3, 1.5432318e+2, -1417158.1, -1391054.5, -20459.03, -0.14985663, 0.23698018, -1379838.6, 47818.082, 0.0031241647, 9.999909, 10.000243 
1.6449794e+3, 1.6432291e+2, -1360552.4, -1333137.4, -106834.69, -0.15110871, 0.19655539, -1239134.4, 90522.9, 0.0004029895, 9.999712, 10.000062 
1.644985e+3, 1.7432314e+2, -1222350.8, -1214546.3, -117853.12, -0.025957843, 0.20625482, -1100530.8, 131123.23, 0.0000070009137, 9.999984, 10.000072 
1.6449896e+3, 1.8432301e+2, -1150383.6, -1192464.0, -117072.87, 0.019218404, 0.21671526, -1052475.3, 81179.445, 0.0, 10.000075, 9.999508 
1.644993e+3, 1.9432257e+2, -1075577.0, -1107420.1, -102621.46, -0.05520842, 0.21820813, -987649.3, 48010.055, 0.0, 9.999923, 9.999492 
1.6449967e+3, 2.0432205e+2, -984125.2, -1034645.5, -129914.125, -0.089632615, 0.2281554, -877038.25, 60626.652, 0.0, 9.99997, 9.999298 
1.6450004e+3, 2.143215e+2, -840902.6, -913368.75, -152196.58, -0.067758285, 0.23672654, -720685.6, 118984.98, 0.0, 10.000276, 9.9993105 
1.6450049e+3, 2.2432078e+2, -762528.4, -807943.56, -108413.4, -0.04659725, 0.23112532, -674470.0, 67206.516, 0.0, 10.000067, 9.999462 
1.6450098e+3, 2.3431996e+2, -788187.3, -764497.9, -92670.14, -0.028559959, 0.19409847, -682918.5, -39236.633, 0.0, 9.999197, 9.999506 
1.6450144e+3, 2.4431923e+2, -760362.44, -758249.7, -112287.44, -0.043714013, 0.19785519, -647013.6, -101324.44, 0.0, 9.998964, 9.998989 
1.645018e+3, 2.543187e+2, -579336.3, -620354.7, -127120.17, -0.103623725, 0.24167152, -471081.5, -23383.273, 0.0, 9.999535, 9.998987 
1.6450228e+3, 2.6431772e+2, -424943.53, -492485.44, -85039.86, -0.103369325, 0.24694297, -367214.47, -17504.3, 0.0, 9.999911, 9.99901 
1.6450287e+3, 2.7431616e+2, -304981.16, -380799.3, -65417.363, -0.023256946, 0.18220195, -267282.5, -15556.71, 0.0, 10.000049, 9.999038 
1.6450341e+3, 2.8431556e+2, -195790.69, -239730.47, -68444.38, -0.013314739, 0.2048928, -145876.58, 7856.345, 0.0, 9.999963, 9.999374 
1.6450383e+3, 2.9431653e+2, -159823.11, -167353.03, -96379.06, -0.10113059, 0.35331094, -67135.5, -11409.77, 0.0, 9.999519, 9.999412 
1.6450435e+3, 3.0431584e+2, -188741.95, -209907.56, -77382.016, -0.09817184, 0.37062678, -121222.44, -121222.44, 0.0, 9.999217, 9.998932 
1.6450511e+3, 3.1431407e+2, -75858.85, 23632.143, -96206.68, 0.09000114, 0.29095662, 82193.336, 82193.336, 0.0, 9.999215, 10.000538 
1.6549602e+3, 1.243155e+2, -1863800.4, -1836555.1, 85788.27, 0.04073489, 0.17094192, -1763314.6, -41585.445, 0.03897044, 9.999199, 9.999546 
1.6549656e+3, 1.3431579e+2, -1588129.9, -1601309.4, -77638.836, 0.10148221, 0.19849883, -1516801.6, 106926.18, 0.024272982, 10.000187, 10.0000305 
1.6549677e+3, 1.4431588e+2, -1453987.5, -1489053.3, -46723.45, -0.1829896, 0.2081296, -1421615.6, 104112.13, 0.0114189135, 10.000458, 9.999983 
1.6549747e+3, 1.5431611e+2, -1436332.6, -1430561.5, -41174.723, -0.04974815, 0.22907639, -1392171.4, 35554.14, 0.0034161112, 9.999907, 9.999973 
1.6549805e+3, 1.6431637e+2, -1374082.5, -1361088.1, -99589.36, -0.0054555545, 0.26441535, -1267784.3, 61938.98, 0.00045137366, 9.999708, 9.999873 
1.6549848e+3, 1.7431675e+2, -1235160.6, -1241717.1, -106601.01, -0.022119187, 0.30699936, -1131787.5, 99932.586, 0.000008273259, 9.999983, 9.9998865 
1.654989e+3, 1.8431658e+2, -1128469.6, -1145915.6, -122621.31, -0.042908423, 0.30804843, -1014261.44, 119459.4, 0.0, 10.00007, 9.99983 
1.6549927e+3, 1.9431582e+2, -1051285.8, -1056826.1, -107587.484, -0.08718078, 0.2434051, -946432.8, 89293.17, 0.0, 9.999921, 9.999842 
1.6549964e+3, 2.0431484e+2, -1018401.3, -1104117.6, -120033.45, -0.11240743, 0.21259125, -933804.2, 3930.7554, 0.0, 9.999963, 9.998825 
1.6550003e+3, 2.143137e+2, -879163.94, -992023.8, -139451.69, -0.10397381, 0.21442415, -785157.44, 54590.297, 0.0, 10.000271, 9.998774 
1.6550048e+3, 2.243129e+2, -742385.8, -765226.75, -138926.28, -0.06230063, 0.21410684, -614411.4, 127343.75, 0.0, 10.000061, 9.99976 
1.6550097e+3, 2.3431261e+2, -762465.25, -712075.1, -124003.19, 0.020985294, 0.19451682, -610733.3, 33021.332, 0.0, 9.999199, 9.9998665 
1.6550143e+3, 2.4431206e+2, -777495.94, -792824.0, -93922.06, 0.0431405, 0.20736681, -690925.75, -145165.28, 0.0, 9.998959, 9.9987545 
1.6550186e+3, 2.5431126e+2, -599679.56, -661838.56, -103382.72, -0.014831457, 0.25289616, -522805.72, -75032.33, 0.0, 9.99953, 9.998705 
1.6550231e+3, 2.6431054e+2, -391389.34, -421837.8, -78291.82, -0.0704581, 0.2774553, -326855.28, 22926.84, 0.0, 9.999906, 9.999499 
1.655028e+3, 2.7430996e+2, -267198.94, -302058.56, -57314.9, -0.12263341, 0.254167, -224722.2, 27063.125, 0.0, 10.000046, 9.99958 
1.655033e+3, 2.8430897e+2, -225252.84, -300752.6, -82841.125, -0.12911223, 0.22875856, -171965.89, -18170.498, 0.0, 9.999959, 9.998959 
1.655038e+3, 2.943078e+2, -191929.44, -235259.42, -111981.54, -0.08152109, 0.21387795, -99536.38, -43725.492, 0.0, 9.999522, 9.998945 
1.6550429e+3, 3.0430746e+2, -204551.67, -241984.63, -79144.67, -0.072868794, 0.2990644, -141940.5, -141940.5, 0.0, 9.999213, 9.998713 
1.6550495e+3, 3.1430748e+2, -89378.65, -1620.0612, -85765.53, 0.004674738, 0.42498836, 50839.207, 50839.207, 0.0, 9.999204, 10.000369 
1.66496e+3, 1.2430894e+2, -1585506.1, -1687938.8, 99180.99, -0.0017899643, 0.14336959, -1525098.1, 196692.92, 0.041736465, 10.001097, 9.999665 
1.6649662e+3, 1.3430905e+2, -1510268.8, -1557598.1, -37567.49, 0.11200052, 0.14733973, -1489533.8, 134256.97, 0.026087236, 10.000711, 10.000078 
1.664968e+3, 1.4430912e+2, -1474417.9, -1516926.9, -25118.271, -0.18333621, 0.15962891, -1462768.3, 63022.875, 0.012349877, 10.000396, 9.999819 
1.664975e+3, 1.5430959e+2, -1406720.1, -1437416.6, -15968.184, -0.028177476, 0.22235379, -1399920.0, 27867.781, 0.003737191, 10.000201, 9.999784 
1.6649806e+3, 1.643097e+2, -1333427.4, -1367211.4, -52636.78, 0.012723497, 0.26479587, -1295038.6, 34748.902, 0.00050616945, 10.000098, 9.999642 
1.6649847e+3, 1.7430949e+2, -1232851.9, -1267325.1, -64826.113, -0.046736266, 0.2748746, -1183010.0, 48779.594, 0.000009797576, 10.0001135, 9.999648 
1.6649887e+3, 1.843091e+2, -1151318.5, -1175904.3, -111958.695, -0.069878004, 0.27222264, -1050979.9, 82813.32, 0.0, 9.999993, 9.999661 
1.6649927e+3, 1.9430852e+2, -1095314.3, -1095245.1, -138293.27, -0.06306977, 0.23997502, -956986.4, 78811.234, 0.0, 9.999695, 9.999685 
1.6649967e+3, 2.0430759e+2, -1050357.6, -1089253.1, -127154.734, -0.06377557, 0.20969915, -941172.0, -3366.0938, 0.0, 9.999615, 9.999094 
1.6650008e+3, 2.1430632e+2, -925535.1, -980859.7, -84473.81, -0.06763179, 0.17016317, -864309.7, -24491.518, 0.0, 9.99981, 9.999071 
1.665005e+3, 2.2430553e+2, -764460.8, -811777.25, -88800.516, -0.050304245, 0.16994302, -696221.06, 45604.63, 0.0, 10.000066, 9.999437 
1.6650091e+3, 2.3430541e+2, -615540.06, -683401.44, -132595.52, -0.00914689, 0.20453236, -512602.7, 131223.55, 0.0, 10.00039, 9.99949 
1.6650137e+3, 2.4430484e+2, -572055.6, -682803.44, -110309.44, 0.014043624, 0.23067722, -504001.66, 41831.53, 0.0, 10.000322, 9.998853 
1.6650185e+3, 2.5430378e+2, -559336.7, -628329.2, -90808.69, 0.01295065, 0.23744857, -496692.78, -48845.68, 0.0, 9.999747, 9.99883 
1.6650231e+3, 2.6430318e+2, -476208.84, -439432.88, -63923.883, -0.019455388, 0.25691617, -391304.84, -41451.02, 0.0, 9.999224, 9.999705 
1.6650276e+3, 2.7430317e+2, -444217.84, -363824.94, -70459.35, -0.091192454, 0.26863608, -322902.5, -71051.07, 0.0, 9.998731, 9.999788 
1.6650325e+3, 2.843022e+2, -418653.13, -405778.38, -88544.13, -0.11208059, 0.24506922, -323437.9, -169577.0, 0.0, 9.998684, 9.99885 
1.6650374e+3, 2.9430056e+2, -243201.25, -273565.66, -94500.33, -0.07531683, 0.19287497, -162671.33, -106789.36, 0.0, 9.999229, 9.998822 
1.665042e+3, 3.0430043e+2, -141031.3, -184332.0, -32293.873, -0.09983475, 0.29110697, -123801.945, -123801.945, 0.0, 9.999533, 9.998955 
1.6650483e+3, 3.143003e+2, -39988.836, 27755.05, 947.81555, -0.040661696, 0.37770277, 27768.31, 27768.31, 0.0, 9.999518, 10.000419 
1.6749598e+3, 1.2430339e+2, -1572559.1, -1661909.6, 54061.53, -0.12309097, 0.18061163, -1547102.3, 174742.64, 0.044670317, 10.001101, 9.999847 
1.6749677e+3, 1.343037e+2, -1504216.8, -1545941.1, -50794.844, 0.19209427, 0.19617178, -1470166.8, 153674.25, 0.028026333, 10.000716, 10.000161 
1.6749692e+3, 1.4430355e+2, -1481041.3, -1530269.6, -34435.465, -0.09966767, 0.18582602, -1463327.5, 62515.215, 0.013357116, 10.000392, 9.99973 
1.6749746e+3, 1.5430361e+2, -1414539.5, -1453034.4, -21897.107, -0.09074472, 0.21668583, -1404633.0, 23210.143, 0.004090086, 10.000196, 9.99968 
1.6749795e+3, 1.6430292e+2, -1354524.0, -1410299.1, -53451.34, -0.103101194, 0.1980145, -1322122.5, 7727.3047, 0.0005678562, 10.000093, 9.999351 
1.6749842e+3, 1.7430142e+2, -1254149.5, -1312174.9, -63733.15, -0.104876794, 0.108776435, -1213136.1, 18726.758, 0.000011659807, 10.000114, 9.999341 
1.6749887e+3, 1.8430057e+2, -1198129.0, -1271197.4, -123047.97, -0.067067936, 0.10757917, -1106306.0, 27565.732, 0.0, 9.999985, 9.999012 
1.6749932e+3, 1.943006e+2, -1143361.4, -1194685.6, -148513.17, 0.011199642, 0.20645551, -1018309.44, 17565.057, 0.0, 9.999692, 9.999004 
1.6749975e+3, 2.0430021e+2, -980565.06, -942788.06, -121983.5, 0.048560683, 0.21831408, -838239.3, 99638.87, 0.0, 9.999607, 10.000104 
1.6750017e+3, 2.1429934e+2, -846940.5, -816830.3, -75884.6, 0.037428755, 0.1044378, -754521.75, 85360.22, 0.0, 9.9998045, 10.000201 
1.6750054e+3, 2.2429866e+2, -832380.94, -950799.2, -76941.73, -0.014899971, 0.099672504, -794503.75, -52615.492, 0.0, 10.000056, 9.998488 
1.6750084e+3, 2.3429832e+2, -694271.75, -845995.0, -118494.47, -0.12240158, 0.22313578, -629435.4, 14461.649, 0.0, 10.000384, 9.998376 
1.6750124e+3, 2.4429752e+2, -544519.1, -624198.44, -129409.2, -0.13582194, 0.26688072, -448955.88, 96951.88, 0.0, 10.000314, 9.99926 
1.6750178e+3, 2.542962e+2, -522276.03, -552262.8, -109943.48, -0.026372507, 0.19663824, -426308.3, 21611.375, 0.0, 9.999748, 9.999353 
1.675023e+3, 2.6429555e+2, -481683.66, -451287.8, -81579.91, 0.042686757, 0.18505655, -383502.25, -33576.453, 0.0, 9.999224, 9.999625 
1.6750279e+3, 2.7429566e+2, -452182.2, -381830.75, -86599.55, 0.06291144, 0.22476074, -323535.56, -71610.77, 0.0, 9.998734, 9.999664 
1.6750325e+3, 2.842953e+2, -406213.4, -379668.72, -70048.875, 0.028702157, 0.2528455, -321645.9, -167715.63, 0.0, 9.998682, 9.999031 
1.6750365e+3, 2.9429474e+2, -227865.16, -241273.4, -70713.695, -0.08936659, 0.29252362, -163538.5, -107598.95, 0.0, 9.999227, 9.999045 
1.6750407e+3, 3.042946e+2, -94592.2, -87520.484, -31118.555, -0.18336536, 0.3467515, -59737.55, -59737.55, 0.0, 9.999529, 9.999623 
1.6750476e+3, 3.142927e+2, -28021.902, 53919.086, 19453.33, -0.06600692, 0.18756472, 58302.902, 58302.902, 0.0, 9.999511, 10.000604 
1.6849609e+3, 1.2429733e+2, -1596542.0, -1684372.4, 12902.483, -0.12652497, 0.17140675, -1594685.8, 127217.91, 0.04776628, 10.000979, 9.999745 
1.6849688e+3, 1.3429777e+2, -1502365.4, -1566800.8, -83304.336, 0.22485086, 0.21897475, -1445265.8, 178633.36, 0.030093629, 10.000827, 9.999961 
1.6849701e+3, 1.442974e+2, -1439568.5, -1540465.6, -78025.01, -0.083003044, 0.21063913, -1397103.4, 128799.88, 0.0144471, 10.000812, 9.99946 
1.6849752e+3, 1.5429705e+2, -1331601.1, -1444110.8, -81057.68, -0.07987198, 0.2293644, -1289190.0, 138717.55, 0.004479329, 10.000902, 9.999403 
1.6849801e+3, 1.6429605e+2, -1265532.4, -1372336.5, -115939.56, -0.0892238, 0.19625272, -1191287.4, 138629.67, 0.0006375465, 10.000728, 9.999305 
1.6849846e+3, 1.7429438e+2, -1240771.4, -1308015.3, -107130.68, -0.08578695, 0.09274417, -1162110.6, 69820.54, 0.00001399049, 10.000219, 9.999317 
1.684989e+3, 1.842934e+2, -1187641.0, -1255299.1, -121357.85, -0.049953017, 0.07682381, -1095485.4, 38455.15, 0.0, 10.0000105, 9.999108 
1.6849932e+3, 1.9429342e+2, -1065488.3, -1146914.4, -89768.8, 0.016805697, 0.16163534, -1007631.56, 28311.72, 0.0, 10.000181, 9.999098 
1.6849974e+3, 2.0429324e+2, -896741.4, -916355.06, -66323.32, 0.052504957, 0.19600417, -839503.75, 98441.45, 0.0, 10.000242, 9.99998 
1.6850017e+3, 2.1429293e+2, -805101.8, -811918.94, -117725.73, 0.050778892, 0.15191758, -690735.3, 149209.66, 0.0, 10.000158, 10.000063 
1.6850056e+3, 2.2429225e+2, -844530.06, -957487.94, -137849.89, 0.012308253, 0.15648833, -752037.6, -10085.925, 0.0, 9.999979, 9.998478 
1.6850089e+3, 2.3429124e+2, -798807.1, -896211.0, -98545.22, -0.07595413, 0.21095987, -737586.2, -93619.42, 0.0, 9.99967, 9.998374 
1.6850129e+3, 2.4429026e+2, -621451.7, -630779.6, -71891.516, -0.09341869, 0.22646323, -554073.0, -8094.6416, 0.0, 9.999658, 9.99953 
1.6850176e+3, 2.5428948e+2, -462647.6, -491172.13, -72747.43, -0.020002399, 0.17968589, -402777.53, 45206.586, 0.0, 10.000022, 9.9996395 
1.6850224e+3, 2.6428905e+2, -374823.13, -418200.94, -68628.1, 0.024593776, 0.18281198, -324538.25, 25450.064, 0.0, 10.000037, 9.99946 
1.6850267e+3, 2.7428904e+2, -340524.6, -350668.84, -81883.28, 0.034139488, 0.22943087, -263556.47, -11565.92, 0.0, 9.9996, 9.999461 
1.6850314e+3, 2.8428876e+2, -311574.8, -310800.94, -45441.215, 0.013352792, 0.26931795, -265745.0, -111749.42, 0.0, 9.999232, 9.999239 
1.6850358e+3, 2.9428852e+2, -254732.67, -225887.7, -45328.035, -0.055285197, 0.31609923, -192742.98, -136742.39, 0.0, 9.998921, 9.999298 
1.6850403e+3, 3.0428827e+2, -216594.17, -115780.54, -28460.787, -0.13215977, 0.33236954, -108300.71, -108300.71, 0.0, 9.998563, 9.999892 
1.6850464e+3, 3.1428647e+2, -233551.27, -55705.715, 859.8096, -0.063248105, 0.16056307, -55701.56, -55701.56, 0.0, 9.998145, 10.000508 
1.6949628e+3, 1.2429056e+2, -1625034.6, -1743429.1, -31416.393, -0.026074974, 0.09604899, -1617214.8, 104754.69, 0.051028147, 10.000975, 9.999332 
1.6949694e+3, 1.3429129e+2, -1537381.4, -1637333.6, -87077.8, 0.20353599, 0.21712919, -1486957.5, 137007.3, 0.032295942, 10.000818, 9.9994755 
1.6949703e+3, 1.4429067e+2, -1473502.3, -1610844.4, -76796.66, -0.14048514, 0.23297071, -1439151.8, 86821.05, 0.015627254, 10.000807, 9.99898 
1.694977e+3, 1.5428995e+2, -1363319.8, -1511753.4, -77405.53, -0.0014129162, 0.26034915, -1330299.8, 97681.35, 0.004910431, 10.000908, 9.998936 
1.6949822e+3, 1.6428912e+2, -1250546.5, -1341629.6, -134686.61, 0.047301695, 0.26151058, -1153910.3, 176078.69, 0.0007170378, 10.000728, 9.9995165 
1.6949858e+3, 1.742884e+2, -1222016.8, -1269886.3, -125293.73, 0.005243739, 0.22582339, -1118392.1, 113602.22, 0.000016975888, 10.00022, 9.99958 
1.6949892e+3, 1.8428765e+2, -1131377.3, -1136193.9, -117216.914, -0.025620932, 0.1796346, -1016543.9, 117455.7, 0.0, 10.0, 9.999931 
1.6949926e+3, 1.9428694e+2, -1005471.9, -1021586.7, -82223.17, -0.05012973, 0.10598546, -930912.25, 105091.71, 0.0, 10.000177, 9.999961 
1.6949967e+3, 2.0428666e+2, -986425.7, -1100466.5, -69314.56, -0.056090757, 0.14245771, -953691.75, -15684.69, 0.0, 10.000232, 9.998721 
1.6950011e+3, 2.1428704e+2, -905763.56, -1019652.6, -119609.805, -0.032864396, 0.31126764, -830234.75, 9772.65, 0.0, 10.000153, 9.998641 
1.6950057e+3, 2.2428629e+2, -780698.5, -823424.75, -149354.17, 0.023781724, 0.33954397, -651187.4, 90829.03, 0.0, 9.99997, 9.999403 
1.6950107e+3, 2.342841e+2, -722019.3, -736757.94, -108280.97, 0.12380561, 0.16787507, -620857.2, 23178.73, 0.0, 9.999668, 9.999471 
1.6950148e+3, 2.4428304e+2, -613901.25, -614034.6, -59365.926, 0.13452725, 0.10844316, -554602.0, -8556.421, 0.0, 9.999652, 9.999648 
1.6950183e+3, 2.5428355e+2, -460415.47, -485955.5, -56716.473, 0.027869167, 0.18515405, -415049.16, 32991.887, 0.0, 10.000018, 9.999678 
1.6950215e+3, 2.642836e+2, -393537.8, -456169.88, -82499.62, -0.07770906, 0.24965337, -336610.53, 13431.447, 0.0, 10.000032, 9.999202 
1.6950242e+3, 2.742832e+2, -360593.03, -392497.1, -95671.97, -0.18385367, 0.28432176, -279552.3, -27503.031, 0.0, 9.999599, 9.999174 
1.6950288e+3, 2.842826e+2, -296336.38, -279762.7, -56671.848, -0.16564067, 0.29563323, -230775.02, -76717.46, 0.0, 9.999232, 9.999454 
1.6950357e+3, 2.9428184e+2, -236163.58, -186986.61, -54183.63, 0.01965555, 0.26547483, -152073.33, -96007.516, 0.0, 9.998917, 9.999569 
1.6950406e+3, 3.042813e+2, -225636.92, -134947.3, -43327.145, 0.045668215, 0.24368322, -117575.336, -117575.336, 0.0, 9.998563, 9.999762 
1.6950446e+3, 3.1428185e+2, -251311.42, -94230.66, 4722.016, -0.053470585, 0.3282935, -94088.836, -94088.836, 0.0, 9.998151, 10.000241 
1.7049648e+3, 1.2428551e+2, -1588486.3, -1775923.4, 13964.861, 0.039149154, 0.09887103, -1587451.5, 134566.5, 0.054460447, 10.001464, 9.998873 
1.7049707e+3, 1.3428572e+2, -1348207.6, -1604755.9, -7293.2764, 0.17273705, 0.2221332, -1348000.5, 276019.78, 0.034638863, 10.002433, 9.998918 
1.7049715e+3, 1.4428458e+2, -1232159.3, -1505196.0, -17692.135, -0.19422169, 0.22095793, -1231017.6, 295016.13, 0.016903277, 10.002547, 9.998865 
1.7049782e+3, 1.5428357e+2, -1304061.4, -1491664.6, 4885.685, 0.019707942, 0.22724676, -1303934.3, 124109.04, 0.00538814, 10.001354, 9.9988575 
1.7049834e+3, 1.6428271e+2, -1266478.6, -1363400.8, -35714.65, 0.10117884, 0.23461038, -1254740.0, 75311.5, 0.0008082668, 10.000677, 9.9993925 
1.7049864e+3, 1.742823e+2, -1158610.4, -1254400.9, -57142.395, 0.029330974, 0.24420285, -1131945.5, 100109.83, 0.000020835996, 10.000719, 9.999447 
1.7049897e+3, 1.8428174e+2, -1028677.5, -1097266.5, -84713.586, -0.013239306, 0.22740145, -971579.94, 162479.83, 0.0, 10.00075, 9.999838 
1.7049934e+3, 1.9428101e+2, -927831.44, -993567.6, -122678.39, -0.026165307, 0.160631, -833694.44, 202369.72, 0.0, 10.000753, 9.999874 
1.7049973e+3, 2.0428033e+2, -926416.6, -1103074.4, -116367.34, -0.034515135, 0.1763191, -868651.9, 69419.1, 0.0, 10.000782, 9.998437 
1.7050016e+3, 2.1427986e+2, -827623.7, -1016564.25, -84949.5, -0.035335075, 0.2891758, -795046.5, 45033.36, 0.0, 10.000838, 9.998332 
1.7050059e+3, 2.2427897e+2, -660309.44, -721439.56, -101848.016, 0.015069949, 0.30271617, -584539.0, 157550.7, 0.0, 10.00061, 9.999795 
1.7050105e+3, 2.3427764e+2, -639389.56, -647149.25, -114459.984, 0.13102037, 0.1712029, -528743.7, 115356.0, 0.0, 10.000024, 9.999913 
1.7050146e+3, 2.4427703e+2, -620173.4, -620151.1, -77057.234, 0.14864755, 0.13578083, -543105.0, 2999.4106, 0.0, 9.999623, 9.999619 
1.7050181e+3, 2.5427744e+2, -546216.44, -534621.25, -83068.2, 0.03798178, 0.21263611, -457148.56, -9047.125, 0.0, 9.999464, 9.999609 
1.7050211e+3, 2.642774e+2, -488186.22, -499492.22, -113283.625, -0.07356197, 0.26809543, -380414.63, -30310.47, 0.0, 9.999377, 9.999219 
1.7050236e+3, 2.7427685e+2, -393413.4, -405905.56, -108021.59, -0.1910801, 0.28597692, -291457.47, -39344.25, 0.0, 9.999367, 9.999193 
1.7050277e+3, 2.8427643e+2, -320034.5, -272914.84, -68889.984, -0.17998567, 0.30798647, -223667.44, -69547.73, 0.0, 9.998996, 9.999613 
1.7050341e+3, 2.9427615e+2, -330807.38, -214126.33, -75086.21, 0.010269474, 0.30976903, -177379.75, -121256.73, 0.0, 9.998192, 9.99973 
1.7050391e+3, 3.042754e+2, -299085.16, -153102.03, -37982.98, 0.070369095, 0.24973658, -143810.69, -143810.69, 0.0, 9.997987, 9.999914 
1.705043e+3, 3.1427646e+2, -179019.22, -16497.063, 40930.023, -0.051686723, 0.36887404, -6771.165, -6771.165, 0.0, 9.998467, 10.000621 
1.7149664e+3, 1.24282e+2, -1628164.9, -1859404.0, 4172.62, 0.0582098, 0.16089913, -1628089.6, 93961.65, 0.058051143, 10.001447, 9.998311 
1.7149727e+3, 1.3428113e+2, -1390302.8, -1695029.0, 32079.055, 0.124149024, 0.2370513, -1386962.4, 237102.56, 0.037118543, 10.002439, 9.998292 
1.7149734e+3, 1.4427918e+2, -1215132.9, -1470287.8, -55793.535, -0.25426638, 0.1776282, -1203466.1, 322619.3, 0.018276531, 10.002551, 9.999109 
1.7149793e+3, 1.542779e+2, -1282626.6, -1446294.6, -39339.164, -0.02163511, 0.12680434, -1273662.1, 154432.25, 0.005915651, 10.001351, 9.999172 
1.7149837e+3, 1.642768e+2, -1301266.4, -1433536.1, -38255.598, 0.065378465, 0.113796905, -1290998.9, 39105.52, 0.0009130136, 10.000668, 9.998916 
1.7149867e+3, 1.742761e+2, -1196083.9, -1333451.6, -54258.906, -0.019579124, 0.14731255, -1177237.8, 54876.496, 0.000025810483, 10.000723, 9.998903 
1.7149903e+3, 1.8427564e+2, -1100401.8, -1245341.0, -85254.85, -0.020911854, 0.21899919, -1060977.5, 73143.836, 0.0, 10.000746, 9.998824 
1.7149952e+3, 1.9427557e+2, -1002100.25, -1146739.6, -121459.48, 0.08347668, 0.32364243, -933060.3, 103063.766, 0.0, 10.000748, 9.998826 
1.7149995e+3, 2.0427425e+2, -880106.7, -1004703.56, -114872.52, 0.11033516, 0.29690346, -811726.94, 126410.24, 0.0, 10.0007715, 9.999118 
1.7150031e+3, 2.1427134e+2, -772113.1, -899745.6, -81226.56, 0.038409866, 0.08602516, -732632.4, 107530.21, 0.0, 10.00083, 9.999139 
1.7150062e+3, 2.2427027e+2, -672956.44, -745508.7, -122558.29, -0.018806284, 0.046382923, -581418.3, 160753.53, 0.0, 10.0006, 9.999635 
1.7150086e+3, 2.3427176e+2, -656323.06, -681786.25, -134856.97, -0.05712003, 0.22011565, -533598.0, 110560.54, 0.0, 10.00002, 9.999679 
1.7150122e+3, 2.4427216e+2, -633581.44, -647267.25, -83923.87, -0.055485196, 0.30795473, -556221.94, -10066.317, 0.0, 9.9996195, 9.999435 
1.7150173e+3, 2.542712e+2, -559118.94, -561315.3, -86521.18, 0.0021956807, 0.26298973, -473689.0, -25523.273, 0.0, 9.999462, 9.999428 
1.7150216e+3, 2.642704e+2, -469868.5, -460791.7, -113242.76, 0.02836186, 0.23805495, -351996.44, -1820.9374, 0.0, 9.9993725, 9.999489 
1.715025e+3, 2.742699e+2, -372437.84, -361966.25, -106285.67, 0.005782203, 0.23478936, -260787.5, -8604.389, 0.0, 9.999364, 9.999497 
1.7150281e+3, 2.842702e+2, -313381.34, -258408.53, -96785.375, -0.036412288, 0.30690673, -185282.25, -31099.352, 0.0, 9.998992, 9.999714 
1.7150313e+3, 2.942714e+2, -327450.6, -207305.22, -101255.55, -0.09069951, 0.44905964, -149643.4, -93470.26, 0.0, 9.998192, 9.999778 
1.7150357e+3, 3.0427042e+2, -272465.5, -99888.164, -22529.092, -0.06564134, 0.34923813, -96995.586, -96995.586, 0.0, 9.997992, 10.000279 
1.7150414e+3, 3.1426966e+2, -101962.96, 141869.61, 65982.11, -0.07243574, 0.24169952, 158579.5, 158579.5, 0.0, 9.998471, 10.00171 
1.724968e+3, 1.2427747e+2, -1486847.6, -1766897.0, -77540.305, 0.012466986, 0.1995047, -1466811.8, 255286.3, 0.06177432, 10.0023985, 9.998493 
1.7249748e+3, 1.3427643e+2, -1442824.5, -1711568.4, 40588.215, 0.11922003, 0.2488995, -1436828.3, 187283.47, 0.039721623, 10.002029, 9.998375 
1.724976e+3, 1.4427434e+2, -1293166.8, -1515834.5, -54223.645, -0.21606858, 0.17513332, -1280664.4, 245468.77, 0.019743169, 10.002043, 9.999037 
1.7249809e+3, 1.5427321e+2, -1133561.3, -1383497.6, -73612.125, -0.033859868, 0.14627403, -1113492.3, 314649.47, 0.006494274, 10.002422, 9.999088 
1.724985e+3, 1.6427216e+2, -1076244.4, -1343592.8, -74465.41, 0.04098121, 0.15099461, -1056902.6, 273249.44, 0.001032908, 10.002294, 9.998752 
1.7249879e+3, 1.7427136e+2, -1097170.9, -1304566.4, -63904.375, -0.0085295085, 0.19194615, -1079061.5, 153101.55, 0.00003215152, 10.001484, 9.998734 
1.7249916e+3, 1.842706e+2, -1086154.3, -1286313.3, -43430.02, 0.0099583855, 0.26125184, -1077137.1, 57036.668, 0.0, 10.001049, 9.998397 
1.7249964e+3, 1.9426997e+2, -978618.1, -1186370.9, -35317.965, 0.11082969, 0.3546792, -972778.2, 63405.24, 0.0, 10.001127, 9.998372 
1.7250006e+3, 2.042685e+2, -836365.1, -935455.3, -24619.986, 0.13933481, 0.318701, -830585.2, 107612.234, 0.0, 10.000865, 9.999548 
1.725004e+3, 2.14266e+2, -834533.06, -873196.94, -18457.9, 0.07544404, 0.099189095, -827136.44, 13079.548, 0.0, 10.000161, 9.99964 
1.7250067e+3, 2.2426505e+2, -775919.75, -838376.5, -65003.324, -0.0033120185, 0.06306396, -735032.6, 7190.6904, 0.0, 10.000079, 9.999247 
1.7250085e+3, 2.342663e+2, -574331.44, -693313.7, -94853.59, -0.105083, 0.258078, -521856.53, 122358.15, 0.0, 10.000804, 9.99922 
1.7250118e+3, 2.4426651e+2, -457953.53, -558244.1, -65487.473, -0.12427422, 0.34901267, -425617.53, 120597.09, 0.0, 10.000811, 9.99947 
1.7250165e+3, 2.542654e+2, -494727.66, -522832.53, -54533.625, -0.030055122, 0.2822224, -452465.03, -4239.5127, 0.0, 9.999876, 9.999491 
1.7250209e+3, 2.6426467e+2, -499078.2, -439046.44, -62656.86, 0.033624668, 0.24802282, -399586.9, -49353.41, 0.0, 9.999021, 9.999805 
1.7250241e+3, 2.742646e+2, -508533.75, -389761.53, -54727.125, 0.047446743, 0.2542388, -368390.2, -116154.47, 0.0, 9.99827, 9.999832 
1.7250271e+3, 2.8426495e+2, -440887.53, -309595.47, -33876.68, -0.0020997562, 0.30932093, -301369.78, -147135.63, 0.0, 9.998075, 9.9998045 
1.7250293e+3, 2.9426572e+2, -265367.16, -173149.73, -40795.625, -0.11403367, 0.39568168, -157693.06, -101464.26, 0.0, 9.998603, 9.999813 
1.7250341e+3, 3.0426502e+2, -223478.64, -105091.914, 10716.891, -0.060271963, 0.33940706, -104129.59, -104129.59, 0.0, 9.998454, 10.000021 
1.7250393e+3, 3.1426477e+2, -247840.44, 102343.8, 39594.39, -0.06970465, 0.30531007, 106764.81, 106764.81, 0.0, 9.997336, 10.0019865 
1.7349692e+3, 1.2427195e+2, -1434875.1, -1648888.5, -130756.99, -0.11368783, 0.21427372, -1372920.9, 349237.4, 0.06561491, 10.002376, 9.999342 
1.7349772e+3, 1.342716e+2, -1391184.6, -1597649.6, 28572.498, 0.15225737, 0.25403297, -1387303.5, 236857.3, 0.042436883, 10.002021, 9.999167 
1.7349795e+3, 1.4427006e+2, -1322102.8, -1575278.0, -42189.27, -0.084722094, 0.21238784, -1315257.4, 210919.34, 0.021297567, 10.002036, 9.998632 
1.7349835e+3, 1.542695e+2, -1166931.6, -1454475.0, -58604.62, -0.023341129, 0.28764912, -1155446.1, 272739.2, 0.0071235094, 10.002428, 9.998599 
1.734987e+3, 1.6426882e+2, -1064939.4, -1320133.9, -102980.38, 0.018453365, 0.34901324, -1028567.06, 301626.8, 0.0011691477, 10.002293, 9.998913 
1.73499e+3, 1.742681e+2, -1083115.5, -1274776.3, -93769.13, 0.058371387, 0.37702188, -1044870.9, 187330.75, 0.00004011834, 10.001479, 9.998942 
1.7349933e+3, 1.842666e+2, -1077635.1, -1265607.0, -43315.93, 0.07442395, 0.35355952, -1068133.8, 66083.555, 0.0, 10.001035, 9.998547 
1.7349969e+3, 1.9426417e+2, -969952.6, -1166927.4, -30806.459, 0.05079351, 0.25423053, -965247.0, 70995.25, 0.0, 10.00112, 9.99851 
1.7350006e+3, 2.0426308e+2, -825165.2, -911158.44, -49767.004, 0.045727495, 0.24107341, -802393.5, 135858.34, 0.0, 10.000858, 9.999719 
1.7350042e+3, 2.1426381e+2, -823244.8, -849572.9, -43370.113, 0.07097577, 0.32617107, -791084.94, 49155.652, 0.0, 10.000157, 9.999805 
1.7350073e+3, 2.2426331e+2, -820411.75, -928072.0, -41419.56, 0.054496504, 0.35215572, -806320.9, -64076.117, 0.0, 10.000069, 9.998636 
1.7350103e+3, 2.3426126e+2, -623078.25, -792609.25, -65167.348, -0.0192365, 0.28582013, -600923.3, 43345.02, 0.0, 10.000795, 9.998544 
1.7350131e+3, 2.4426003e+2, -443872.53, -526730.75, -96235.31, -0.06346608, 0.25916797, -380527.56, 165754.45, 0.0, 10.0008, 9.999693 
1.7350161e+3, 2.5425997e+2, -474500.94, -480470.47, -87805.92, -0.06310267, 0.26937443, -389629.06, 58652.527, 0.0, 9.999872, 9.9997835 
1.735019e+3, 2.642602e+2, -474758.03, -387959.72, -90761.79, -0.062291905, 0.2976794, -330754.75, 19524.273, 0.0, 9.999017, 10.000158 
1.7350212e+3, 2.7426094e+2, -483842.4, -338408.97, -80964.22, -0.07324084, 0.3456217, -302300.47, -50028.582, 0.0, 9.998269, 10.000185 
1.7350243e+3, 2.8426063e+2, -435485.25, -299294.25, -17467.994, -0.08556703, 0.31527707, -297089.47, -142814.88, 0.0, 9.9980755, 9.999876 
1.7350286e+3, 2.942589e+2, -264306.66, -173090.72, -18058.395, -0.06648371, 0.15009841, -169645.73, -113354.48, 0.0, 9.998609, 9.999813 
1.735034e+3, 3.0425912e+2, -284486.1, -232838.77, -26436.607, 0.079097435, 0.2294335, -221706.3, -221706.3, 0.0, 9.998459, 9.999142 
1.7350368e+3, 3.1426087e+2, -288184.66, 19983.404, -20357.033, -0.048849333, 0.48115522, 21322.336, 21322.336, 0.0, 9.997332, 10.001422 
1.7449719e+3, 1.2426763e+2, -1383931.9, -1604657.4, -83856.97, -0.08441884, 0.22469133, -1355687.5, 366516.13, 0.06957688, 10.002668, 9.999531 
1.7449792e+3, 1.3426766e+2, -1354309.4, -1566768.3, 58730.297, 0.13498272, 0.28831846, -1339155.4, 285046.06, 0.045260757, 10.002234, 9.999287 
1.7449819e+3, 1.4426601e+2, -1337502.1, -1591805.0, -8200.73, -0.047555104, 0.23424372, -1337238.0, 188980.42, 0.022935338, 10.001971, 9.998548 
1.744986e+3, 1.5426537e+2, -1264722.8, -1513344.6, 1316.9025, -0.00005969105, 0.31396237, -1264715.8, 163513.14, 0.0078018596, 10.001803, 9.998494 
1.7449892e+3, 1.6426477e+2, -1134315.9, -1346931.6, -43868.363, 0.022819376, 0.3854013, -1125620.3, 204617.23, 0.0013223152, 10.00179, 9.998969 
1.7449915e+3, 1.7426427e+2, -999714.25, -1227374.3, -48911.094, 0.04024487, 0.42802995, -989650.9, 242592.14, 0.000049909977, 10.002026, 9.999003 
1.7449945e+3, 1.8426275e+2, -922614.75, -1172518.4, 3332.43, 0.045018587, 0.39417118, -922570.3, 211687.44, 0.0000000000000006446772, 10.002022, 9.998709 
1.7449981e+3, 1.9426008e+2, -874287.2, -1101771.5, 16657.027, 0.021760272, 0.2503126, -873074.0, 163209.52, 0.0, 10.001697, 9.998677 
1.7450014e+3, 2.0425905e+2, -758427.0, -918334.56, -26780.865, 0.010605925, 0.25158858, -754061.06, 184231.84, 0.0, 10.001488, 9.999365 
1.7450044e+3, 2.1426032e+2, -664217.8, -817593.25, -66202.89, 0.018871693, 0.4311528, -639595.0, 200684.63, 0.0, 10.001443, 9.999406 
1.7450076e+3, 2.2425978e+2, -709980.6, -859341.1, -60168.688, 0.036424134, 0.46964762, -688757.7, 53527.035, 0.0, 10.000761, 9.998775 
1.745011e+3, 2.3425694e+2, -837161.8, -875228.3, -22577.852, 0.063881524, 0.30559343, -826665.06, -182351.81, 0.0, 9.999239, 9.998725 
1.7450137e+3, 2.4425542e+2, -767243.6, -679586.7, -18988.098, 0.03371048, 0.23771529, -675650.25, -129321.664, 0.0, 9.998568, 9.999718 
1.7450155e+3, 2.5425574e+2, -599019.75, -539049.8, -32664.883, -0.0694625, 0.28375086, -524694.1, -76368.664, 0.0, 9.999014, 9.999794 
1.7450175e+3, 2.6425624e+2, -458764.53, -368557.8, -66693.75, -0.11500465, 0.33264676, -333148.0, 17172.42, 0.0, 9.99908, 10.00026 
1.7450196e+3, 2.7425697e+2, -422622.0, -297143.56, -78967.31, -0.098247506, 0.37361556, -259026.22, -6714.486, 0.0, 9.998641, 10.000288 
1.7450225e+3, 2.8425655e+2, -390884.06, -260337.11, 5596.7163, -0.08456351, 0.31759754, -260097.61, -105782.914, 0.0, 9.99831, 10.000029 
1.7450272e+3, 2.9425463e+2, -330248.8, -191691.44, 12820.182, -0.035653636, 0.118367895, -190515.22, -134182.84, 0.0, 9.998102, 9.9999275 
1.7450327e+3, 3.0425543e+2, -363560.22, -308634.84, 9935.373, 0.13349956, 0.2667184, -306892.9, -306892.9, 0.0, 9.998077, 9.998806 
1.7450343e+3, 3.1425598e+2, -192048.56, 14024.418, 16686.662, -0.07862091, 0.43266523, 15366.867, 15366.867, 0.0, 9.998222, 10.00095 
1.7549764e+3, 1.242647e+2, -1420648.1, -1674761.5, -127167.055, 0.093503, 0.24333246, -1367941.5, 354290.75, 0.07366958, 10.002648, 9.99903 
1.7549807e+3, 1.342646e+2, -1392417.3, -1646399.8, 45711.12, 0.06048747, 0.35163105, -1384440.9, 239792.36, 0.048192136, 10.002234, 9.998725 
1.7549832e+3, 1.4426222e+2, -1323986.6, -1561003.9, -15083.395, -0.115375504, 0.24468835, -1323030.6, 203226.64, 0.024652572, 10.0019655, 9.998762 
1.754988e+3, 1.5426086e+2, -1246977.4, -1474630.5, -4432.622, 0.030453835, 0.22357504, -1246891.0, 181381.38, 0.008527423, 10.001798, 9.998763 
1.7549913e+3, 1.6426e+2, -1140518.1, -1357792.3, -37291.242, 0.04843838, 0.25806892, -1134296.0, 195987.02, 0.0014925194, 10.0017805, 9.9989 
1.7549926e+3, 1.7425984e+2, -1006835.75, -1242363.8, -39035.324, -0.06982046, 0.34517652, -1000534.8, 231752.38, 0.00006156021, 10.002024, 9.998902 
1.7549953e+3, 1.8425907e+2, -910317.25, -1146263.4, -7697.4775, -0.08774902, 0.38251987, -910066.4, 224228.92, 0.0000000010737394, 10.002017, 9.998892 
1.7549998e+3, 1.9425763e+2, -861263.6, -1073736.5, 5824.929, 0.018632496, 0.3418098, -861104.0, 175203.64, 0.0, 10.001691, 9.998874 
1.755003e+3, 2.0425639e+2, -822202.94, -1048618.5, -29409.56, 0.028992888, 0.3509253, -818445.25, 119875.44, 0.0, 10.001477, 9.998477 
1.7550048e+3, 2.1425551e+2, -733674.2, -960255.5, -66074.13, -0.08581839, 0.41401166, -715813.94, 124519.51, 0.0, 10.001434, 9.998432 
1.7550074e+3, 2.2425447e+2, -649459.2, -731708.44, -113417.05, -0.06405193, 0.414756, -569941.1, 172402.67, 0.0, 10.0007515, 9.999656 
1.7550111e+3, 2.3425332e+2, -766176.5, -727688.0, -77735.164, 0.13955212, 0.31604126, -666850.44, -22500.441, 0.0, 9.999236, 9.999741 
1.7550136e+3, 2.4425259e+2, -780502.25, -704915.9, -7280.748, 0.16063641, 0.2834847, -704220.94, -157865.73, 0.0, 9.998559, 9.999548 
1.7550147e+3, 2.5425264e+2, -618437.44, -578304.06, -13649.348, -0.055551633, 0.3269298, -574101.94, -125744.24, 0.0, 9.999009, 9.999526 
1.7550163e+3, 2.6425266e+2, -469733.97, -392111.0, -80522.04, -0.13096876, 0.35348886, -341534.97, 8823.377, 0.0, 9.99908, 10.0001 
1.7550188e+3, 2.742527e+2, -432334.3, -319050.84, -93080.4, -0.03389836, 0.3385272, -266732.75, -14376.745, 0.0, 9.998646, 10.000137 
1.7550217e+3, 2.8425264e+2, -376085.47, -228515.89, -2648.896, -0.0064720493, 0.3156046, -228468.36, -74113.016, 0.0, 9.998305, 10.000249 
1.7550254e+3, 2.9425275e+2, -314190.25, -159598.3, 6415.9077, -0.028936205, 0.29364812, -159332.48, -102978.65, 0.0, 9.998107, 10.000146 
1.7550305e+3, 3.0425388e+2, -347279.5, -276868.2, 15819.496, 0.09485234, 0.45331478, -273477.28, -273477.28, 0.0, 9.998084, 9.9990225 
1.7550318e+3, 3.142509e+2, -242635.0, -87889.125, -19981.863, -0.14417827, 0.24318983, -85350.57, -85350.57, 0.0, 9.998209, 10.000256 
1.7649795e+3, 1.2426183e+2, -1437202.4, -1732549.0, -137366.5, 0.13330978, 0.25752574, -1383190.4, 339071.06, 0.07790593, 10.002764, 9.998571 
1.7649825e+3, 1.3426134e+2, -1324459.8, -1658168.0, 59264.734, -0.018374538, 0.36937714, -1314247.3, 310020.13, 0.05123237, 10.002936, 9.998305 
1.7649852e+3, 1.4425868e+2, -1200937.9, -1464231.6, -2788.53, -0.14504065, 0.24172631, -1200908.4, 325385.8, 0.026445003, 10.002676, 9.999095 
1.7649895e+3, 1.5425801e+2, -1202676.1, -1409483.4, 13689.723, -0.0072614513, 0.25235775, -1201773.9, 226527.08, 0.009296644, 10.00192, 9.99915 
1.7649926e+3, 1.6425733e+2, -1172188.9, -1375083.4, 13380.86, 0.022191983, 0.28436464, -1171310.3, 158998.58, 0.0016790463, 10.001574, 9.99888 
1.7649946e+3, 1.7425662e+2, -1047952.75, -1268609.9, 14492.67, -0.05415435, 0.3219049, -1047004.94, 185313.5, 0.000074904594, 10.00177, 9.998843 
1.7649974e+3, 1.8425578e+2, -944723.9, -1146046.8, 26866.861, -0.058809843, 0.34693643, -941200.1, 193126.97, 0.000000009428086, 10.001709, 9.999042 
1.7650014e+3, 1.9425489e+2, -903731.56, -1076554.8, 33549.9, 0.019804643, 0.3455321, -897447.06, 138886.3, 0.0, 10.001323, 9.999032 
1.7650042e+3, 2.0425364e+2, -925145.6, -1132802.3, 23577.143, 0.022379879, 0.36211988, -922502.4, 15844.395, 0.0, 10.000922, 9.998165 
1.7650059e+3, 2.1425207e+2, -891342.2, -1074687.0, 31713.115, -0.074086756, 0.3897775, -886011.75, -45643.316, 0.0, 10.000522, 9.998084 
1.7650081e+3, 2.2425091e+2, -703890.2, -737235.75, -32152.287, -0.051456336, 0.3879064, -684344.9, 58035.766, 0.0, 10.000288, 9.999841 
1.7650108e+3, 2.3425041e+2, -600623.56, -622649.1, -60195.26, 0.12785812, 0.3324255, -550442.0, 93937.1, 0.0, 10.000264, 9.999966 
1.7650127e+3, 2.4425e+2, -588410.2, -620325.8, 4585.155, 0.14517108, 0.32082152, -587764.5, -41383.473, 0.0, 9.99991, 9.999478 
1.7650138e+3, 2.5424987e+2, -608206.8, -584333.0, 11105.851, -0.047500595, 0.35593703, -579965.6, -131579.3, 0.0, 9.9991255, 9.99943 
1.7650154e+3, 2.6424968e+2, -549547.2, -442058.88, -51413.5, -0.10665374, 0.37445703, -421427.1, -71037.75, 0.0, 9.998584, 9.999994 
1.7650175e+3, 2.7424955e+2, -481534.53, -354229.16, -63290.92, -0.0017218367, 0.3487816, -328118.78, -75729.875, 0.0, 9.998361, 10.000031 
1.7650202e+3, 2.8424945e+2, -422417.13, -278669.9, 17722.34, 0.023915181, 0.33980206, -276517.2, -122128.35, 0.0, 9.998107, 10.000001 
1.7650233e+3, 2.942498e+2, -372481.28, -217353.86, -11467.32, -0.022592159, 0.3709617, -216510.75, -160125.33, 0.0, 9.997836, 9.999878 
1.7650281e+3, 3.0425075e+2, -315406.0, -180467.81, 19865.56, 0.053644188, 0.4905912, -177603.98, -177603.98, 0.0, 9.997954, 9.999745 
1.7650303e+3, 3.1424734e+2, -205326.05, -60761.188, -17972.959, -0.12874094, 0.16411488, -58560.22, -58560.22, 0.0, 9.998427, 10.000335 
1.7749812e+3, 1.2425928e+2, -1472292.6, -1801934.0, -143924.42, 0.028918045, 0.2874648, -1418298.1, 303990.38, 0.08231803, 10.002741, 9.998104 
1.7749844e+3, 1.3425785e+2, -1347743.3, -1706226.4, 65326.688, -0.10995164, 0.33984822, -1336209.9, 288094.2, 0.054393712, 10.002932, 9.997978 
1.7749879e+3, 1.4425536e+2, -1171126.1, -1400476.5, -30577.957, -0.14529881, 0.22376536, -1167119.4, 359209.88, 0.02831169, 10.00267, 9.999551 
1.7749904e+3, 1.5425685e+2, -1167502.6, -1336163.9, -13887.54, -0.11963994, 0.3999125, -1166366.8, 261947.45, 0.010105246, 10.001918, 9.9996605 
1.7749932e+3, 1.642568e+2, -1171316.4, -1372757.5, 17657.986, -0.06461676, 0.46488273, -1169780.3, 160534.77, 0.0018804772, 10.00157, 9.9988985 
1.7749977e+3, 1.7425461e+2, -1050101.1, -1272624.5, 22981.543, 0.08225068, 0.35820618, -1047752.44, 184584.48, 0.00008970714, 10.001766, 9.998817 
1.775001e+3, 1.8425286e+2, -939301.5, -1132530.9, 13368.61, 0.12732491, 0.28865564, -938381.0, 195972.38, 0.000000028818846, 10.0016985, 9.999141 
1.7750026e+3, 1.9425182e+2, -897501.9, -1061239.4, 20311.938, 0.019382365, 0.26299733, -895019.75, 141341.06, 0.0, 10.001312, 9.999143 
1.7750047e+3, 2.0425083e+2, -907120.0, -1095157.8, 8184.4805, -0.01740672, 0.28617957, -906764.44, 31606.902, 0.0, 10.000918, 9.998426 
1.7750077e+3, 2.1424997e+2, -872841.8, -1036943.0, 18568.826, 0.0487471, 0.35688084, -870766.94, -30381.635, 0.0, 10.000521, 9.998345 
1.7750095e+3, 2.2424905e+2, -740983.94, -812140.7, -33951.645, 0.0689101, 0.38955167, -727383.7, 15012.176, 0.0, 10.000278, 9.999331 
1.7750101e+3, 2.342482e+2, -642125.0, -706869.1, -58966.67, 0.024718637, 0.355682, -607228.8, 37172.125, 0.0, 10.000255, 9.999393 
1.775011e+3, 2.4424753e+2, -586779.25, -615764.56, -22582.363, -0.017605873, 0.3484385, -574439.06, -28032.2, 0.0, 9.999905, 9.999513 
1.7750128e+3, 2.5424734e+2, -603626.44, -574458.25, -16307.307, -0.052251324, 0.3690344, -567164.9, -118752.69, 0.0, 9.999123, 9.9995 
1.7750145e+3, 2.6424724e+2, -554525.5, -451490.6, -61054.125, -0.050985117, 0.39458242, -423122.8, -72708.61, 0.0, 9.998578, 9.999932 
1.7750159e+3, 2.7424738e+2, -486309.4, -364944.84, -70051.48, -0.008731754, 0.4053755, -332947.3, -80536.055, 0.0, 9.9983635, 9.999956 
1.7750181e+3, 2.8424686e+2, -470721.1, -380107.4, 7095.8433, -0.00009126468, 0.3912176, -379555.1, -225139.27, 0.0, 9.998111, 9.999303 
1.7750213e+3, 2.9424575e+2, -423698.47, -324884.75, -18742.412, -0.021548092, 0.35076466, -321449.25, -265021.56, 0.0, 9.997838, 9.999141 
1.7750256e+3, 3.0424595e+2, -228983.89, 470.22238, 39496.496, 0.00046839807, 0.37320897, 7078.5303, 7078.5303, 0.0, 9.997947, 10.000993 
1.7750302e+3, 3.142472e+2, -148460.69, 57286.027, -28567.725, -0.0019148024, 0.37705308, 61178.97, 61178.97, 0.0, 9.998428, 10.001145 
1.784984e+3, 1.24257125e+2, -1306080.1, -1701863.8, -120423.22, -0.017662592, 0.31435198, -1272319.4, 449991.9, 0.08696164, 10.003943, 9.998207 
1.7849872e+3, 1.3425565e+2, -1345605.3, -1665826.9, 126622.68, -0.1298805, 0.32773098, -1301586.8, 322737.97, 0.057701517, 10.002787, 9.998336 
1.784991e+3, 1.4425296e+2, -1285046.6, -1501577.8, 36703.652, -0.05807334, 0.19283174, -1278994.3, 247356.95, 0.030258754, 10.002082, 9.999116 
1.7849922e+3, 1.5425426e+2, -1161122.8, -1388726.3, -22894.453, -0.13269226, 0.39848435, -1158842.8, 269497.13, 0.0109521225, 10.002211, 9.999153 
1.7849945e+3, 1.6425397e+2, -1107135.6, -1326159.4, -27802.041, -0.11765699, 0.46379784, -1103661.6, 226680.98, 0.0020959692, 10.001948, 9.999034 
1.784999e+3, 1.7425162e+2, -1126656.1, -1288792.3, -9099.742, 0.0791304, 0.3203712, -1126147.1, 106216.94, 0.000105867584, 10.001156, 9.998999 
1.7850025e+3, 1.8424994e+2, -1060460.6, -1206950.9, -4085.5354, 0.13817666, 0.25601813, -1060346.9, 74032.484, 0.0000000562377, 10.000938, 9.998994 
1.7850037e+3, 1.9424933e+2, -882915.1, -1073841.1, -19788.975, -0.010356772, 0.29082364, -880885.6, 155499.25, 0.0, 10.001499, 9.998965 
1.7850056e+3, 2.0424844e+2, -827850.6, -1028403.2, -72150.11, -0.03977798, 0.32288745, -804591.6, 133803.17, 0.0, 10.001341, 9.998681 
1.7850086e+3, 2.142473e+2, -896073.9, -1015966.5, -65174.918, 0.09747471, 0.33612978, -867468.94, -27059.459, 0.0, 10.000224, 9.9986315 
1.78501e+3, 2.2424628e+2, -820964.8, -860204.8, -66325.43, 0.113354065, 0.34642452, -771418.3, -28997.783, 0.0, 9.999771, 9.999247 
1.7850095e+3, 2.3424552e+2, -655820.0, -725344.94, -56038.465, -0.035343714, 0.33509606, -624637.5, 19788.303, 0.0, 10.000214, 9.999285 
1.7850101e+3, 2.4424501e+2, -581799.56, -623365.1, -44586.875, -0.092262685, 0.35099193, -553389.75, -6958.34, 0.0, 9.99998, 9.999425 
1.785012e+3, 2.5424495e+2, -653360.7, -608364.2, -55796.613, -0.02435652, 0.39509302, -570700.75, -122264.88, 0.0, 9.998822, 9.999413 
1.7850137e+3, 2.6424485e+2, -592425.8, -478269.9, -66806.52, 0.0064895977, 0.42576188, -447478.63, -97040.28, 0.0, 9.998353, 9.999858 
1.7850146e+3, 2.742447e+2, -423348.03, -344959.6, -74030.586, -0.01207255, 0.4170218, -300388.0, -47950.125, 0.0, 9.998835, 9.999869 
1.7850165e+3, 2.84244e+2, -351524.53, -305189.34, 12991.407, -0.0012759779, 0.38132936, -301795.4, -147351.81, 0.0, 9.998852, 9.999461 
1.78502e+3, 2.9424286e+2, -358510.22, -269737.6, 49928.395, 0.046641618, 0.31879044, -247318.3, -190863.92, 0.0, 9.998184, 9.999352 
1.7850229e+3, 3.0424252e+2, -312820.66, -39710.938, 116380.77, -0.014831572, 0.27845636, 3154.702, 3154.702, 0.0, 9.997369, 10.000996 
1.7850283e+3, 3.1424543e+2, -443340.7, -94188.9, -63060.582, 0.07071065, 0.44913125, -83148.58, -83148.58, 0.0, 9.99645, 10.001055 
1.794988e+3, 1.24255456e+2, -1267236.3, -1610377.3, -145810.13, -0.01845509, 0.3420777, -1213646.8, 508682.0, 0.09190124, 10.003917, 9.998904 
1.7949905e+3, 1.342548e+2, -1278115.1, -1519263.3, 82259.99, -0.081153534, 0.33424038, -1252727.5, 371601.44, 0.06119029, 10.002782, 9.999376 
1.7949949e+3, 1.4425154e+2, -1379342.8, -1700647.4, 35291.67, 0.11001519, 0.1514586, -1375512.0, 150847.33, 0.03230053, 10.002075, 9.997749 
1.7949952e+3, 1.5425022e+2, -1270719.0, -1615866.9, -17131.295, -0.054110773, 0.25015476, -1269870.8, 158506.64, 0.011841973, 10.002201, 9.997597 
1.7949963e+3, 1.642489e+2, -1091435.3, -1291488.1, -55954.676, -0.14496379, 0.2835746, -1076848.4, 253543.06, 0.0023264778, 10.001937, 9.999279 
1.7949988e+3, 1.7424762e+2, -1100050.5, -1233086.3, -38053.77, -0.06866981, 0.20927115, -1089934.8, 142465.0, 0.00012352158, 10.001152, 9.999384 
1.7950016e+3, 1.8424699e+2, -1089474.5, -1266585.8, 12931.857, -0.03394778, 0.24864018, -1088535.3, 45870.047, 0.000000085167756, 10.000934, 9.998589 
1.7950046e+3, 1.9424736e+2, -916633.75, -1142944.0, 2838.7742, -0.07465101, 0.4278932, -916598.1, 119807.89, 0.0, 10.001493, 9.998494 
1.795007e+3, 2.0424648e+2, -812641.8, -994669.4, -109666.19, -0.04980082, 0.47305977, -761141.8, 177275.58, 0.0, 10.00133, 9.998919 
1.7950085e+3, 2.1424402e+2, -876696.44, -974210.56, -105379.7, 0.06800807, 0.32733712, -809340.94, 31100.623, 0.0, 10.000215, 9.998924 
1.7950094e+3, 2.2424251e+2, -797961.06, -810588.06, -53739.207, 0.07627674, 0.25678217, -750165.75, -7710.3765, 0.0, 9.999762, 9.999592 
1.7950095e+3, 2.3424235e+2, -632760.44, -676918.6, -36957.28, -0.05980496, 0.26962703, -611789.25, 32665.156, 0.0, 10.000208, 9.999621 
1.7950103e+3, 2.4424236e+2, -596774.9, -652278.1, -83378.39, -0.08660961, 0.32882512, -536650.94, 9804.381, 0.0, 9.99997, 9.999231 
1.7950115e+3, 2.542427e+2, -670654.2, -643341.06, -97539.26, 0.030978756, 0.4378053, -558507.0, -110049.5, 0.0, 9.998817, 9.999175 
1.7950125e+3, 2.642424e+2, -597791.75, -490878.16, -52336.29, 0.060771715, 0.46814334, -469523.75, -119061.46, 0.0, 9.998357, 9.999771 
1.7950132e+3, 2.7424136e+2, -428707.8, -357709.4, -52122.1, -0.02040998, 0.37645194, -330145.9, -77675.984, 0.0, 9.998839, 9.999781 
1.7950155e+3, 2.8424075e+2, -283214.84, -162168.77, -8686.829, 0.011358299, 0.3083241, -161548.55, -7075.7773, 0.0, 9.998847, 10.000446 
1.7950194e+3, 2.9424107e+2, -279435.7, -106861.195, 25399.563, 0.17300533, 0.2832343, -103200.53, -46735.1, 0.0, 9.998188, 10.000469 
1.7950204e+3, 3.0424035e+2, -397227.34, -215704.3, 81638.63, -0.0050794682, 0.2005153, -184389.94, -184389.94, 0.0, 9.997372, 9.999786 
1.7950247e+3, 3.1424156e+2, -481961.75, -178012.64, -57913.68, 0.07464945, 0.34120592, -167351.83, -167351.83, 0.0, 9.996464, 10.000474 
1.8049914e+3, 1.24252714e+2, -1508519.8, -1748420.3, -184687.9, 0.0070980275, 0.3379688, -1408248.1, 314108.7, 0.097200245, 10.0021925, 9.998763 
1.8049929e+3, 1.342528e+2, -1290507.4, -1518321.1, -54861.004, -0.11901589, 0.4003909, -1277984.4, 346365.7, 0.06490086, 10.002666, 9.999443 
1.8049975e+3, 1.442498e+2, -1316712.4, -1668772.0, -94856.0, 0.141229, 0.23766208, -1292781.9, 233595.44, 0.034457777, 10.002521, 9.997758 
1.8049976e+3, 1.5424724e+2, -1320317.0, -1639649.0, -31985.914, -0.021694545, 0.21260372, -1317144.6, 111260.13, 0.0127833225, 10.001855, 9.997601 
1.8049982e+3, 1.6424538e+2, -1127663.9, -1340795.3, -13674.849, -0.1362147, 0.20486906, -1126790.1, 203632.97, 0.0025744103, 10.00183, 9.998989 
1.8050003e+3, 1.7424452e+2, -900112.2, -1172301.4, -50785.555, -0.11648443, 0.20536703, -890945.25, 341483.03, 0.00014305822, 10.002682, 9.9990635 
1.8050027e+3, 1.8424386e+2, -884828.0, -1173100.0, -39098.85, -0.08994974, 0.25793743, -879619.1, 254815.73, 0.00000010953618, 10.002363, 9.99854 
1.8050055e+3, 1.9424349e+2, -1065809.0, -1217790.0, -19927.818, -0.07701492, 0.36767995, -1063239.5, -26797.28, 0.0, 10.0004835, 9.9984665 
1.8050075e+3, 2.0424254e+2, -1022388.2, -1058000.5, -92384.43, -0.044440337, 0.3926479, -946109.56, -7656.0757, 0.0, 9.99973, 9.999253 
1.8050084e+3, 2.1424091e+2, -809074.5, -900648.75, -84618.68, 0.017793357, 0.2932535, -758649.44, 81819.375, 0.0, 10.000506, 9.999287 
1.8050091e+3, 2.2423993e+2, -687318.25, -740019.94, -42280.402, 0.032364156, 0.24829294, -663849.4, 78627.88, 0.0, 10.000446, 9.999745 
1.8050097e+3, 2.342399e+2, -763353.9, -724132.06, -43320.75, -0.014848441, 0.26110506, -696190.1, -51714.645, 0.0, 9.999246, 9.99976 
1.8050103e+3, 2.4423978e+2, -789851.0, -746286.0, -93065.016, -0.014350944, 0.30063638, -672488.3, -126010.836, 0.0, 9.998647, 9.999225 
1.8050104e+3, 2.5423962e+2, -665406.75, -642857.6, -92650.055, 0.046367217, 0.3623767, -560798.6, -112315.32, 0.0, 9.998861, 9.999158 
1.805011e+3, 2.6423916e+2, -537093.94, -456580.28, -17632.896, 0.06435908, 0.37164488, -452887.94, -102398.45, 0.0, 9.998751, 9.999817 
1.8050124e+3, 2.742383e+2, -520794.5, -396449.56, -8523.366, 0.037969913, 0.29106164, -395868.03, -143372.4, 0.0, 9.998184, 9.999829 
1.8050145e+3, 2.8423792e+2, -433265.22, -248913.3, -4736.1357, 0.08205839, 0.25434342, -248791.7, -94295.25, 0.0, 9.997878, 10.000317 
1.8050176e+3, 2.9423875e+2, -326816.1, -141411.63, -64688.754, 0.18263742, 0.29420742, -121072.55, -64586.895, 0.0, 9.997913, 10.000365 
1.8050171e+3, 3.042382e+2, -337718.8, -210037.72, -26621.773, -0.08319163, 0.23966672, -204709.39, -204709.39, 0.0, 9.997881, 9.999578 
1.8050227e+3, 3.1423867e+2, -256093.94, -46046.82, -33932.05, 0.13722827, 0.3364151, -40701.31, -40701.31, 0.0, 9.997914, 10.000683 
1.8149939e+3, 1.2424894e+2, -1576137.9, -1891708.1, -137546.5, 0.042608175, 0.30436307, -1524602.3, 197792.97, 0.10291468, 10.002169, 9.997758 
1.814994e+3, 1.3424975e+2, -1352758.9, -1645368.1, -41652.992, -0.25306413, 0.5271832, -1346945.1, 277442.94, 0.06887483, 10.002658, 9.998529 
1.8149988e+3, 1.4424774e+2, -1225514.1, -1470450.9, -118567.945, 0.023335086, 0.4521894, -1177521.8, 348883.2, 0.036753505, 10.002506, 9.999137 
1.8149993e+3, 1.5424533e+2, -1213299.0, -1412372.8, -55228.53, -0.04163061, 0.28516725, -1199003.6, 229418.33, 0.01378539, 10.001845, 9.9991665 
1.8150003e+3, 1.6424343e+2, -1187666.1, -1464740.3, 13833.162, -0.10017289, 0.22844806, -1186977.3, 143460.19, 0.002842686, 10.001824, 9.998143 
1.8150035e+3, 1.7424235e+2, -972999.3, -1323743.0, -17029.908, -0.07022821, 0.30842724, -972174.4, 260275.36, 0.00016504708, 10.002679, 9.998026 
1.8150055e+3, 1.8424048e+2, -865298.75, -1130661.1, -102385.32, -0.037300915, 0.2853452, -830388.0, 304080.16, 0.00000012908751, 10.002355, 9.9988365 
1.8150066e+3, 1.9423768e+2, -1037772.7, -1158965.0, -89085.29, -0.023309337, 0.11130753, -990628.0, 45865.52, 0.0, 10.00048, 9.998872 
1.8150073e+3, 2.042366e+2, -993890.7, -998649.25, -70536.82, -0.031292222, 0.08221476, -925693.0, 12810.538, 0.0, 9.999727, 9.999663 
1.815008e+3, 2.1423788e+2, -780603.56, -841645.75, -53149.125, -0.059660256, 0.2325942, -749835.44, 90656.61, 0.0, 10.000504, 9.999694 
1.815009e+3, 2.2423846e+2, -690639.56, -744473.5, -81831.65, -0.024852403, 0.32138336, -631411.6, 111075.336, 0.0, 10.000436, 9.999722 
1.8150102e+3, 2.3423812e+2, -768508.2, -733848.6, -86511.53, 0.094082355, 0.30991414, -662948.25, -18458.639, 0.0, 9.999239, 9.999698 
1.8150103e+3, 2.4423718e+2, -778591.3, -721159.25, -88685.67, 0.11897814, 0.26401806, -656656.44, -110157.77, 0.0, 9.998639, 9.999401 
1.815009e+3, 2.5423566e+2, -652804.2, -616162.6, -82304.21, 0.013709819, 0.16770582, -550164.75, -101650.51, 0.0, 9.9988575, 9.999344 
1.8150093e+3, 2.6423496e+2, -524710.9, -430277.97, -36844.43, 0.009015845, 0.13687257, -417603.63, -67082.89, 0.0, 9.998748, 10.0 
1.8150117e+3, 2.7423534e+2, -508590.22, -370567.34, -28280.879, 0.15577286, 0.165403, -364997.38, -112481.99, 0.0, 9.998181, 10.000009 
1.8150137e+3, 2.8423548e+2, -516375.0, -424457.88, -4099.4136, 0.20312393, 0.22166882, -424275.4, -269760.28, 0.0, 9.997888, 9.999109 
1.8150143e+3, 2.9423574e+2, -413436.66, -328435.4, -60466.26, 0.06853245, 0.340445, -297027.5, -240510.98, 0.0, 9.997939, 9.999071 
1.8150134e+3, 3.042359e+2, -289577.4, -107723.945, -29763.564, -0.2544576, 0.39156967, -102976.54, -102976.54, 0.0, 9.997876, 10.000281 
1.8150203e+3, 3.1423458e+2, -195075.67, 85171.47, 45977.473, 0.10400717, 0.22506052, 92521.77, 92521.77, 0.0, 9.99789, 10.001597 
1.8249974e+3, 1.2424614e+2, -1193934.6, -1718924.3, -45487.78, 0.019984215, 0.2784687, -1190022.5, 532396.8, 0.10907774, 10.005257, 9.997438 
1.8249968e+3, 1.3424596e+2, -1235999.0, -1626723.4, 35627.395, -0.3056029, 0.4412127, -1232777.0, 391646.25, 0.07313931, 10.003719, 9.998144 
1.8250012e+3, 1.4424428e+2, -1188590.9, -1421005.5, -46589.96, -0.0013687795, 0.40502304, -1179599.3, 346838.1, 0.039204508, 10.002639, 9.999424 
1.8250014e+3, 1.5424258e+2, -1091455.0, -1315017.3, -72102.266, -0.050112754, 0.27468905, -1070218.3, 358227.66, 0.014855209, 10.002532, 9.999512 
1.8250024e+3, 1.6424088e+2, -1177395.8, -1473671.0, -19623.57, -0.08369943, 0.22515863, -1176101.6, 154357.44, 0.0031336718, 10.001957, 9.998017 
1.8250056e+3, 1.7423931e+2, -1269412.4, -1484722.0, 13122.075, -0.020289753, 0.27412555, -1268615.6, -36138.594, 0.00019006866, 10.000726, 9.997862 
1.8250075e+3, 1.8423729e+2, -1141448.5, -1237521.9, -50606.66, 0.016234616, 0.23447755, -1119710.1, 14786.741, 0.00000015151502, 10.000348, 9.999068 
1.8250075e+3, 1.9423482e+2, -926174.75, -1075620.1, -52057.355, -0.00999882, 0.06580853, -909829.06, 126688.84, 0.0, 10.001122, 9.999133 
1.8250075e+3, 2.0423381e+2, -801647.8, -927387.8, -43669.14, -0.050305784, 0.038912576, -787969.56, 150557.16, 0.0, 10.001141, 9.999471 
1.825008e+3, 2.1423484e+2, -851274.25, -900631.8, -74959.08, -0.10100593, 0.18777002, -797035.94, 43482.25, 0.0, 10.000129, 9.999469 
1.8250085e+3, 2.2423536e+2, -840524.8, -820404.06, -149853.42, -0.056775995, 0.28473097, -680273.7, 62240.586, 0.0, 9.999423, 9.999689 
1.8250094e+3, 2.3423521e+2, -787144.9, -744108.5, -155801.22, 0.11250629, 0.29471993, -608346.5, 36169.25, 0.0, 9.99912, 9.999684 
1.8250094e+3, 2.4423428e+2, -727641.94, -666452.4, -125016.65, 0.15613946, 0.23784803, -568341.25, -21817.14, 0.0, 9.998859, 9.99967 
1.825008e+3, 2.542325e+2, -665578.25, -590080.06, -110232.23, 0.027057419, 0.08547225, -511312.47, -62772.574, 0.0, 9.998631, 9.999632 
1.8250081e+3, 2.6423186e+2, -525664.0, -458893.8, -69196.09, 0.0035800596, 0.05992932, -415450.1, -64905.004, 0.0, 9.998865, 9.999745 
1.8250105e+3, 2.742329e+2, -307264.06, -308141.25, -99051.95, 0.13690507, 0.17813097, -208649.73, 43886.563, 0.0, 9.999714, 9.9997 
1.8250123e+3, 2.8423283e+2, -267996.25, -351552.06, -86722.49, 0.17667198, 0.25380602, -213513.14, -58973.75, 0.0, 9.999792, 9.998693 
1.8250126e+3, 2.9423186e+2, -317106.06, -326757.25, -81852.43, 0.050054733, 0.29068315, -239937.1, -183383.5, 0.0, 9.998792, 9.998672 
1.8250117e+3, 3.04232e+2, -338609.8, -97525.125, -41695.797, -0.19578075, 0.34743538, -90517.49, -90517.49, 0.0, 9.997395, 10.000582 
1.8250175e+3, 3.142311e+2, -499432.47, -32471.832, 47028.984, 0.15332894, 0.18882085, -27782.496, -27782.496, 0.0, 9.99567, 10.001862 
1.8350016e+3, 1.24244355e+2, -1180776.5, -1678139.3, -58946.08, -0.08745166, 0.26067537, -1173885.9, 548543.2, 0.11569034, 10.005232, 9.9977665 
1.8350007e+3, 1.342415e+2, -1232049.5, -1611137.0, -22143.822, -0.2836266, 0.1436548, -1230760.4, 393694.94, 0.07769921, 10.003706, 9.998262 
1.8350044e+3, 1.4423944e+2, -1246066.9, -1537987.0, -58449.492, 0.05684181, 0.10072739, -1234798.9, 291675.16, 0.04181763, 10.002629, 9.998601 
1.835004e+3, 1.5423898e+2, -1153809.0, -1443440.1, -74340.23, -0.05554465, 0.18283369, -1135842.5, 292634.3, 0.015997248, 10.002526, 9.998625 
1.8350042e+3, 1.642377e+2, -1138083.3, -1389659.5, -63353.914, -0.09670208, 0.19559836, -1123029.6, 207458.53, 0.0034491862, 10.001947, 9.998599 
1.8350068e+3, 1.7423539e+2, -1220633.6, -1383992.6, -32397.762, 0.028259913, 0.10153233, -1214443.0, 18067.266, 0.00021871291, 10.000725, 9.998554 
1.8350083e+3, 1.8423425e+2, -1131706.0, -1216350.4, -27214.178, 0.06303605, 0.10509084, -1123711.4, 10809.889, 0.00000018976193, 10.000342, 9.999217 
1.8350083e+3, 1.9423482e+2, -919807.9, -1061614.3, -21016.402, -0.043016262, 0.22991304, -916758.7, 119757.17, 0.0, 10.001117, 9.999232 
1.8350081e+3, 2.042341e+2, -859210.94, -1044239.75, -76954.35, -0.108497806, 0.26343736, -831388.8, 107134.734, 0.0, 10.001128, 9.998675 
1.835008e+3, 2.1423173e+2, -912386.25, -1026984.44, -111039.77, -0.11186372, 0.15811433, -844733.25, -4185.567, 0.0, 10.000125, 9.998604 
1.8350078e+3, 2.2423056e+2, -845232.1, -828802.9, -162835.67, -0.0699587, 0.13674907, -673974.75, 68585.11, 0.0, 9.999415, 9.999635 
1.8350078e+3, 2.3423113e+2, -786825.7, -743508.1, -164911.66, 0.032897875, 0.2149857, -598839.06, 45715.65, 0.0, 9.999118, 9.99969 
1.8350075e+3, 2.44231e+2, -702943.4, -612919.06, -133394.69, 0.08967794, 0.22146516, -517146.84, 29407.898, 0.0, 9.998849, 10.000044 
1.835007e+3, 2.5423008e+2, -637705.75, -531489.6, -116385.76, 0.080704615, 0.11637205, -456667.6, -8106.7783, 0.0, 9.998628, 10.000036 
1.8350074e+3, 2.6422986e+2, -575399.7, -563332.5, -39551.6, 0.043037355, 0.14011015, -529356.94, -178793.66, 0.0, 9.998867, 9.999028 
1.8350086e+3, 2.7423072e+2, -363296.25, -426367.97, -64628.38, -0.024715459, 0.32572755, -322920.1, -70360.555, 0.0, 9.999719, 9.998887 
1.8350102e+3, 2.8422984e+2, -242742.69, -299200.5, -119073.72, -0.0044109067, 0.34873497, -148597.48, 5972.919, 0.0, 9.999792, 9.999053 
1.835012e+3, 2.94227e+2, -284251.4, -259521.75, -119534.836, 0.11378566, 0.14783026, -151713.92, -95115.984, 0.0, 9.998796, 9.999131 
1.835012e+3, 3.042265e+2, -343369.3, -108088.7, -108468.84, 0.0900959, 0.11998346, -65714.22, -65714.22, 0.0, 9.997396, 10.000509 
1.8350132e+3, 3.1422913e+2, -551016.2, -147316.34, 6420.0103, 0.14672053, 0.3276323, -147214.27, -147214.27, 0.0, 9.995693, 10.001068 
1.845006e+3, 1.242427e+2, -1390063.6, -1744139.9, -21195.0, -0.0842223, 0.20589806, -1388799.4, 333641.0, 0.122727856, 10.0034485, 9.998135 
1.8450046e+3, 1.3423963e+2, -1315933.1, -1642695.3, -27563.088, -0.24052352, 0.055496823, -1313624.4, 310842.63, 0.08254445, 10.003048, 9.998357 
1.8450074e+3, 1.442375e+2, -1264164.8, -1614706.1, -19374.266, 0.083880566, 0.030033763, -1263097.1, 263389.63, 0.04459436, 10.002801, 9.997989 
1.845007e+3, 1.5423667e+2, -1137006.0, -1510538.4, -17342.254, -0.016734706, 0.14310727, -1136202.5, 292294.28, 0.017215712, 10.002972, 9.997949 
1.845007e+3, 1.642352e+2, -997684.44, -1318832.4, -44206.863, -0.076051906, 0.17192352, -991710.4, 338801.44, 0.0037916328, 10.002905, 9.998623 
1.845008e+3, 1.7423296e+2, -952359.0, -1245464.9, -64364.633, -0.02154095, 0.07570353, -938847.7, 293684.84, 0.00025177147, 10.002531, 9.998632 
1.8450087e+3, 1.8423203e+2, -937952.4, -1145105.8, -75556.29, -0.002864248, 0.10502684, -913322.6, 221219.16, 0.00000025167606, 10.001769, 9.999018 
1.845009e+3, 1.9423299e+2, -1027180.94, -1138298.6, -94616.41, -0.051112663, 0.2914465, -973017.2, 63517.305, 0.0, 10.000488, 9.999009 
1.845009e+3, 2.0423219e+2, -1014366.5, -1102233.6, -128011.05, -0.0750366, 0.323083, -922959.8, 15583.097, 0.0, 9.999991, 9.998824 
1.8450087e+3, 2.1422915e+2, -838618.1, -971226.0, -86704.27, -0.0609082, 0.13329145, -795771.5, 44799.645, 0.0, 10.000547, 9.998782 
1.8450081e+3, 2.2422755e+2, -679324.6, -767384.06, -105643.35, -0.03679099, 0.06711624, -608902.9, 133683.55, 0.0, 10.000636, 9.999467 
1.8450071e+3, 2.3422801e+2, -659985.2, -705153.4, -125852.56, 0.0002658659, 0.15466273, -554706.44, 89876.766, 0.0, 10.000088, 9.999485 
1.8450063e+3, 2.44228e+2, -587598.6, -579966.2, -111958.91, 0.041797005, 0.19448039, -471758.5, 74824.055, 0.0, 9.999741, 9.999839 
1.8450063e+3, 2.5422752e+2, -502343.7, -488074.56, -142432.02, 0.0866222, 0.15132703, -352598.53, 95986.22, 0.0, 9.999655, 9.999838 
1.8450066e+3, 2.6422712e+2, -528138.1, -551370.56, -61886.234, 0.068568155, 0.1740596, -476787.34, -126198.26, 0.0, 9.99924, 9.998931 
1.8450075e+3, 2.7422708e+2, -564275.4, -533304.2, -33634.863, -0.03041651, 0.2796124, -511761.3, -259166.83, 0.0, 9.998384, 9.998794 
1.8450087e+3, 2.8422627e+2, -516119.84, -371622.47, -78762.66, -0.02565935, 0.28533843, -336990.7, -182386.1, 0.0, 9.997664, 9.9995775 
1.8450099e+3, 2.942245e+2, -495342.06, -298458.7, -78497.38, 0.11308217, 0.13955772, -270993.25, -214373.86, 0.0, 9.997083, 9.999687 
1.8450098e+3, 3.0422378e+2, -432046.38, -180264.28, -62649.164, 0.16262026, 0.07376225, -165537.14, -165537.14, 0.0, 9.996921, 10.00024 
1.8450087e+3, 3.1422594e+2, -310737.7, -60781.33, 33075.44, 0.05029963, 0.2634138, -56478.688, -56478.688, 0.0, 9.997468, 10.000805 
1.8550102e+3, 1.242412e+2, -1367793.5, -1685744.5, -6920.469, -0.0031239602, 0.12081453, -1367643.0, 354809.97, 0.13014571, 10.003429, 9.998581 
1.8550082e+3, 1.3424028e+2, -1311722.9, -1629017.8, -42783.64, -0.18407385, 0.17256698, -1306055.3, 318403.34, 0.08765755, 10.003043, 9.998456 
1.85501e+3, 1.4423841e+2, -1296171.6, -1679167.1, -17935.17, 0.06866324, 0.18713643, -1295333.6, 231142.58, 0.04753598, 10.002785, 9.997555 
1.8550107e+3, 1.5423565e+2, -1172845.8, -1583420.1, -9978.312, 0.058024593, 0.15426467, -1172603.4, 255902.72, 0.01851746, 10.002962, 9.997453 
1.8550104e+3, 1.6423339e+2, -1035971.44, -1397515.4, -57100.367, -0.031139629, 0.15726554, -1027167.6, 303362.2, 0.0041650403, 10.002898, 9.998086 
1.8550089e+3, 1.7423196e+2, -989873.7, -1324079.8, -76808.62, -0.1751413, 0.19736557, -973066.44, 259477.34, 0.00029041685, 10.00253, 9.9980955 
1.8550086e+3, 1.8423057e+2, -977610.2, -1225990.6, -121343.17, -0.18888025, 0.23249951, -928170.44, 206388.44, 0.0000003514084, 10.001761, 9.9984665 
1.8550096e+3, 1.9422926e+2, -1066368.6, -1219350.4, -140876.03, -0.04107477, 0.24776381, -982557.0, 54017.254, 0.0, 10.000485, 9.998454 
1.8550102e+3, 2.0422804e+2, -940147.56, -946482.6, -112283.89, 0.042672787, 0.21757984, -830986.56, 107598.73, 0.0, 9.999984, 9.999897 
1.8550104e+3, 2.1422707e+2, -755340.75, -796748.0, -63336.883, 0.045124646, 0.11288148, -709409.56, 131179.61, 0.0, 10.000539, 9.999985 
1.8550095e+3, 2.2422625e+2, -701467.2, -810109.1, -123314.59, 0.035715982, 0.07519478, -621039.3, 121555.484, 0.0, 10.000622, 9.999181 
1.8550073e+3, 2.342258e+2, -689799.44, -766110.94, -144406.72, 0.009557041, 0.11300342, -578592.7, 66009.21, 0.0, 10.000083, 9.99907 
1.8550058e+3, 2.4422525e+2, -643964.56, -696803.8, -116238.11, 0.0066052615, 0.15575387, -551181.44, -4573.0835, 0.0, 9.999738, 9.999039 
1.8550055e+3, 2.542247e+2, -560329.1, -608326.75, -143920.72, 0.037546754, 0.19019331, -438420.03, 10192.594, 0.0, 9.999652, 9.999014 
1.8550059e+3, 2.642236e+2, -492237.94, -477103.53, -92291.88, 0.074456334, 0.162734, -392069.16, -41445.637, 0.0, 9.999239, 9.999443 
1.8550074e+3, 2.7422193e+2, -520549.03, -442824.3, -63457.45, 0.114216454, 0.041697234, -407274.78, -154632.69, 0.0, 9.998384, 9.999416 
1.8550077e+3, 2.842219e+2, -468151.1, -273320.3, -102134.98, 0.10379109, 0.06500447, -229592.83, -74949.664, 0.0, 9.997666, 10.000254 
1.8550062e+3, 2.9422423e+2, -448941.34, -204830.34, -101670.76, 0.036133576, 0.26173583, -168032.17, -111412.41, 0.0, 9.99709, 10.000328 
1.8550053e+3, 3.0422366e+2, -463580.13, -247093.63, -46048.31, 0.021359472, 0.19923297, -237705.89, -237705.89, 0.0, 9.996928, 9.999777 
1.8550052e+3, 3.1422344e+2, -283662.75, -8341.662, 5952.6563, -0.051440403, 0.20154294, -8213.0205, -8213.0205, 0.0, 9.997485, 10.001158 
1.8650146e+3, 1.2424046e+2, -1204031.0, -1642998.6, 5358.3413, 0.0047825025, 0.114924654, -1203965.6, 518493.13, 0.13788314, 10.004948, 9.998191 
1.8650125e+3, 1.3423948e+2, -1104104.8, -1586005.5, -104595.35, -0.14477849, 0.21866566, -1082381.8, 542085.7, 0.09301639, 10.004912, 9.997871 
1.8650132e+3, 1.4423722e+2, -1070255.1, -1566444.1, -100126.37, 0.03691377, 0.22569928, -1050812.5, 475677.56, 0.050644647, 10.004433, 9.9975395 
1.8650138e+3, 1.542343e+2, -1102038.1, -1545376.6, -57544.254, 0.04489572, 0.17526059, -1094690.8, 333829.88, 0.01991141, 10.003449, 9.997479 
1.8650131e+3, 1.6423199e+2, -1075241.0, -1418906.4, -66775.93, -0.030926058, 0.17249121, -1062722.1, 267822.3, 0.0045744055, 10.002641, 9.998064 
1.8650112e+3, 1.7423064e+2, -1060480.3, -1361097.9, -51821.707, -0.18481189, 0.22189869, -1051797.8, 180759.9, 0.0003360051, 10.00206, 9.998067 
1.8650103e+3, 1.8422894e+2, -989971.2, -1221921.4, -61815.68, -0.20110825, 0.22687292, -974525.56, 160049.1, 0.00000050835786, 10.001634, 9.998556 
1.8650106e+3, 1.9422695e+2, -923565.25, -1139291.9, -35051.71, -0.0443265, 0.1620158, -918012.9, 118582.555, 0.0, 10.001419, 9.998553 
1.8650109e+3, 2.042258e+2, -803556.4, -875980.0, 5918.6333, 0.05593036, 0.13268352, -803075.9, 135529.52, 0.0, 10.000901, 9.99994 
1.8650112e+3, 2.1422595e+2, -835203.5, -831665.1, -33880.65, 0.08239782, 0.13684832, -799507.5, 41092.29, 0.0, 9.999975, 10.000016 
1.86501e+3, 2.2422552e+2, -873449.25, -917550.4, -135727.97, 0.07681271, 0.14461644, -757992.3, -15389.52, 0.0, 9.999547, 9.998962 
1.8650073e+3, 2.3422441e+2, -749927.3, -821283.4, -146219.36, 0.025285266, 0.14146711, -635096.1, 9520.372, 0.0, 9.9997835, 9.998835 
1.8650056e+3, 2.4422336e+2, -634340.4, -684014.75, -80793.16, 0.014229918, 0.14400333, -574652.9, -28025.639, 0.0, 9.999774, 9.999106 
1.8650052e+3, 2.542225e+2, -586502.7, -611566.25, -42001.55, 0.06202061, 0.14078428, -555203.25, -106570.54, 0.0, 9.999434, 9.999095 
1.8650052e+3, 2.6422152e+2, -530047.7, -466527.2, 15965.785, 0.095451586, 0.1071873, -462740.0, -112098.18, 0.0, 9.998861, 9.999694 
1.8650055e+3, 2.7422044e+2, -562276.2, -431757.13, 14138.073, 0.10013232, 0.018967418, -430243.22, -177588.38, 0.0, 9.997968, 9.99969 
1.865005e+3, 2.8422076e+2, -467507.16, -263800.56, -30582.314, 0.068830505, 0.059162486, -259308.33, -104655.164, 0.0, 9.997633, 10.000335 
1.8650036e+3, 2.9422325e+2, -309328.53, -130756.29, -77111.664, 0.0062704915, 0.26044747, -102066.91, -45436.83, 0.0, 9.998022, 10.000386 
1.8650019e+3, 3.0422312e+2, -392633.72, -184568.53, -42875.215, -0.026607977, 0.23109786, -176079.72, -176079.72, 0.0, 9.99729, 10.000033 
1.865001e+3, 3.1422302e+2, -589681.9, -91023.28, 30412.117, -0.10400758, 0.2172098, -89175.36, -89175.36, 0.0, 9.995112, 10.001729 
1.8750185e+3, 1.2424034e+2, -1288470.4, -1818242.0, 5468.8364, -0.09910709, 0.17336972, -1288413.9, 434045.06, 0.14588156, 10.004922, 9.996915 
1.8750176e+3, 1.3423729e+2, -1193721.8, -1778475.3, -108942.61, -0.1317363, 0.20002404, -1174084.6, 450408.38, 0.098605596, 10.004899, 9.996541 
1.8750173e+3, 1.4423396e+2, -1046539.2, -1508851.1, -133635.2, -0.023118993, 0.15447773, -1010690.56, 515837.1, 0.053927336, 10.004416, 9.9979515 
1.8750161e+3, 1.542326e+2, -1064873.1, -1464940.9, -91634.46, -0.062224124, 0.20509492, -1044883.3, 383657.25, 0.021407956, 10.003444, 9.998037 
1.8750152e+3, 1.6423091e+2, -1044556.8, -1352258.6, -90293.766, -0.08405844, 0.21250837, -1020017.5, 310538.75, 0.0050250688, 10.002628, 9.9985285 
1.8750145e+3, 1.7422888e+2, -1029825.6, -1296005.6, -72467.77, -0.057683, 0.14753534, -1011375.1, 221199.42, 0.00038988978, 10.002052, 9.998519 
1.8750134e+3, 1.8422714e+2, -939814.9, -1116255.3, -71083.945, -0.04783239, 0.09052385, -914740.2, 219849.34, 0.000000733184, 10.001626, 9.999286 
1.8750118e+3, 1.9422598e+2, -872079.4, -1031089.06, -41437.344, -0.06662193, 0.035249043, -861928.9, 174669.56, 0.0, 10.001412, 9.999301 
1.8750107e+3, 2.0422542e+2, -873801.1, -1020223.44, -27415.063, -0.041406143, 0.067834824, -868836.44, 69767.484, 0.0, 10.000893, 9.998955 
1.8750106e+3, 2.1422575e+2, -916182.6, -998619.2, -66871.99, 0.045471348, 0.20468372, -878846.4, -38242.77, 0.0, 9.999969, 9.998875 
1.8750097e+3, 2.2422527e+2, -884834.75, -940112.8, -129772.42, 0.08008218, 0.27533874, -779790.75, -37179.715, 0.0, 9.999541, 9.998811 
1.8750073e+3, 2.3422377e+2, -756007.75, -831846.7, -134763.75, 0.040763285, 0.24009171, -653930.25, -9302.615, 0.0, 9.999773, 9.998768 
1.8750058e+3, 2.4422227e+2, -570842.6, -550520.94, -91685.3, 0.05733159, 0.15841521, -468435.16, 78204.96, 0.0, 9.999765, 10.000029 
1.8750057e+3, 2.542209e+2, -517047.34, -468388.66, -52799.824, 0.153313, 0.003203766, -434582.47, 14063.341, 0.0, 9.999437, 10.000077 
1.8750043e+3, 2.642208e+2, -530573.25, -469153.7, -16314.441, 0.124115996, 0.0079019, -465089.2, -114444.37, 0.0, 9.998866, 9.999675 
1.8750016e+3, 2.742225e+2, -567878.3, -445066.47, -17672.754, -0.07989677, 0.21016505, -442573.94, -189939.9, 0.0, 9.997973, 9.999597 
1.8750006e+3, 2.8422278e+2, -503323.53, -338642.6, -20153.174, -0.13798913, 0.26972738, -336212.16, -181576.56, 0.0, 9.997635, 9.99982 
1.8750016e+3, 2.9422137e+2, -347611.8, -210400.69, -61068.883, 0.019102441, 0.14002207, -187157.83, -130506.734, 0.0, 9.998021, 9.999841 
1.8749997e+3, 3.0422196e+2, -321426.28, -41682.36, -119428.125, 0.00782542, 0.16476613, 2367.5205, 2367.5205, 0.0, 9.997306, 10.001009 
1.8749978e+3, 3.1422293e+2, -514650.66, 56246.43, -66976.164, 0.059219837, 0.15227835, 63998.63, 63998.63, 0.0, 9.995149, 10.002724 
1.8850234e+3, 1.24240234e+2, -1298539.4, -1828532.6, 11460.116, -0.0915204, 0.19809413, -1298291.6, 424169.0, 0.15411124, 10.004902, 9.996855 
1.8850225e+3, 1.3423678e+2, -1291975.0, -1818480.6, -2184.4976, -0.09351561, 0.17692797, -1291966.0, 332532.03, 0.10442929, 10.004119, 9.996633 
1.8850209e+3, 1.4423329e+2, -1137110.5, -1541954.6, 20083.107, -0.058302775, 0.10472944, -1136116.6, 390417.78, 0.057399224, 10.003725, 9.998043 
1.8850195e+3, 1.5423259e+2, -1017512.6, -1432015.8, 27432.623, -0.08252274, 0.21204661, -1015705.0, 412836.88, 0.023018045, 10.003742, 9.9981165 
1.8850182e+3, 1.6423132e+2, -955386.5, -1280747.3, -13416.224, -0.07614245, 0.24485019, -954834.2, 375719.56, 0.005521801, 10.00312, 9.998784 
1.8850167e+3, 1.7422935e+2, -1069189.5, -1284984.1, -12469.4375, -0.022684913, 0.16133556, -1068471.3, 164099.34, 0.0004532519, 10.001652, 9.998787 
1.885015e+3, 1.8422773e+2, -1048196.2, -1161438.5, -5713.2095, -0.0038566801, 0.09940308, -1047908.7, 86675.14, 0.0000010252129, 10.000853, 9.999348 
1.8850133e+3, 1.9422673e+2, -933068.5, -1056449.0, -28441.408, -0.03528491, 0.055280074, -926827.94, 109762.695, 0.0, 10.000975, 9.999337 
1.8850118e+3, 2.0422602e+2, -878059.06, -1066458.0, -34791.883, -0.041404933, 0.088678084, -871839.3, 66758.57, 0.0, 10.001056, 9.998557 
1.8850106e+3, 2.142258e+2, -783660.94, -983467.8, -26096.588, -0.012602869, 0.21338108, -780308.75, 60295.734, 0.0, 10.00109, 9.998438 
1.8850093e+3, 2.2422503e+2, -678348.8, -836636.1, -38762.996, 0.017098812, 0.27934507, -669365.9, 73249.18, 0.0, 10.000948, 9.998839 
1.8850075e+3, 2.3422368e+2, -632877.06, -764674.0, -34952.14, 0.04501034, 0.25014853, -624181.56, 20448.348, 0.0, 10.00059, 9.998833 
1.885006e+3, 2.442224e+2, -530535.56, -522341.9, -33018.734, 0.08879506, 0.18378782, -493166.8, 53473.582, 0.0, 10.000003, 10.000109 
1.885005e+3, 2.5422138e+2, -559096.0, -479530.47, -66108.06, 0.15808661, 0.055656582, -442157.9, 6485.874, 0.0, 9.999109, 10.000159 
1.8850029e+3, 2.642214e+2, -594228.06, -509301.34, -66330.38, 0.101314925, 0.07321276, -473006.47, -122364.24, 0.0, 9.998469, 9.999591 
1.8849991e+3, 2.7422303e+2, -549269.56, -446205.9, -69603.61, -0.1362925, 0.27481985, -411134.1, -158501.33, 0.0, 9.998146, 9.999506 
1.8849976e+3, 2.8422323e+2, -524705.4, -318895.16, -38419.254, -0.17565389, 0.32182395, -311957.2, -157322.55, 0.0, 9.997363, 10.000084 
1.8849994e+3, 2.9422173e+2, -618505.44, -308831.4, -15616.843, 0.08620845, 0.15485193, -308045.84, -251395.77, 0.0, 9.996028, 10.000123 
1.8849963e+3, 3.0422297e+2, -547314.0, -110679.63, -76019.93, 0.032793332, 0.20882177, -97822.805, -97822.805, 0.0, 9.995585, 10.001364 
1.8849935e+3, 3.1422406e+2, -384827.25, 116285.49, -69288.91, 0.06323483, 0.17744547, 125689.59, 125689.59, 0.0, 9.9960575, 10.002693 
1.8950292e+3, 1.2424003e+2, -1240190.8, -1675646.5, -31295.863, -0.010685694, 0.1797813, -1237953.0, 484511.84, 0.16258268, 10.004871, 9.997981 
1.8950272e+3, 1.3423792e+2, -1201033.6, -1602047.0, -25060.469, -0.03867332, 0.14222921, -1199473.6, 425009.4, 0.110513166, 10.004109, 9.998142 
1.8950245e+3, 1.4423507e+2, -1158460.9, -1581266.4, 18152.447, -0.079352364, 0.06501465, -1157683.0, 368828.5, 0.0610817, 10.003704, 9.997784 
1.8950239e+3, 1.542342e+2, -1049488.5, -1495464.0, 29196.87, -0.024280306, 0.19730374, -1047585.1, 380939.6, 0.024752133, 10.003728, 9.997688 
1.8950218e+3, 1.6423316e+2, -953843.44, -1274407.4, -65110.246, -0.01719228, 0.27651617, -941123.56, 389413.2, 0.0060684755, 10.003107, 9.998836 
1.8950178e+3, 1.7423202e+2, -1063716.5, -1272964.5, -66804.57, -0.0850298, 0.26434934, -1044207.44, 188338.72, 0.0005270964, 10.001648, 9.998874 
1.8950152e+3, 1.8423066e+2, -1091837.6, -1250052.8, -5989.4307, -0.07502188, 0.24900733, -1091611.1, 42947.12, 0.0000013718216, 10.000843, 9.998744 
1.895015e+3, 1.9422914e+2, -981335.75, -1153919.5, -21771.793, 0.043488923, 0.21994898, -978631.56, 57940.92, 0.0, 10.000962, 9.998673 
1.8950136e+3, 2.0422755e+2, -866549.7, -1041293.44, -33294.656, 0.04866282, 0.1956868, -860420.9, 78166.72, 0.0, 10.001048, 9.998734 
1.8950109e+3, 2.1422601e+2, -768097.5, -948934.2, -22499.273, -0.098177716, 0.16335212, -765340.25, 75262.6, 0.0, 10.001079, 9.998681 
1.895009e+3, 2.2422476e+2, -664723.25, -806874.6, -51044.81, -0.117732085, 0.1562013, -648292.75, 94322.99, 0.0, 10.000938, 9.99905 
1.895008e+3, 2.3422405e+2, -620487.6, -738353.94, -46206.74, 0.030955303, 0.17227815, -604533.0, 40091.1, 0.0, 10.000585, 9.999017 
1.8950062e+3, 2.4422368e+2, -583547.8, -632323.44, -65320.566, 0.10023056, 0.22279155, -538210.9, 8417.771, 0.0, 10.000002, 9.999354 
1.8950032e+3, 2.5422385e+2, -616994.56, -600670.6, -97847.07, 0.07048829, 0.2970483, -510645.7, -62018.15, 0.0, 9.999111, 9.999328 
1.8950005e+3, 2.6422325e+2, -604006.56, -529874.0, -79865.84, 0.020681314, 0.30033794, -478892.22, -128256.984, 0.0, 9.998469, 9.99945 
1.894998e+3, 2.7422184e+2, -555039.75, -460626.4, -80943.18, -0.079750605, 0.21055855, -414130.0, -161477.83, 0.0, 9.998155, 9.999404 
1.8949963e+3, 2.8422204e+2, -450910.1, -166129.03, -86885.49, -0.05345354, 0.21505372, -141713.83, 12937.398, 0.0, 9.997365, 10.001133 
1.8949966e+3, 2.9422423e+2, -541484.25, -150297.38, -59353.066, 0.20471671, 0.3042775, -141490.28, -84862.195, 0.0, 9.996031, 10.001213 
1.894992e+3, 3.0422598e+2, -566028.56, -152430.03, -62531.08, 0.033650436, 0.3651414, -143182.83, -143182.83, 0.0, 9.995596, 10.001073 
1.894988e+3, 3.1422648e+2, -488584.06, -100206.95, 18284.457, -0.09442644, 0.31296915, -99348.03, -99348.03, 0.0, 9.996066, 10.0012 
1.9050339e+3, 1.2424127e+2, -1178567.5, -1608695.8, 26235.02, -0.04643001, 0.14354837, -1176973.3, 545479.5, 0.17133604, 10.00524, 9.998363 
1.9050317e+3, 1.3424034e+2, -1140674.4, -1514650.1, -7245.8984, -0.0066128806, 0.1672594, -1140534.0, 483924.38, 0.116890006, 10.004326, 9.998717 
1.9050282e+3, 1.4423805e+2, -1187844.1, -1604064.9, 23431.563, -0.05927398, 0.11743349, -1186529.3, 339951.75, 0.06499296, 10.003534, 9.997709 
1.9050275e+3, 1.5423627e+2, -1206518.8, -1588368.9, 53231.953, 0.00930185, 0.17262203, -1199236.8, 229266.31, 0.026617203, 10.002691, 9.997551 
1.9050248e+3, 1.6423488e+2, -1075843.3, -1349649.4, -38636.96, 0.0053687673, 0.23019941, -1070495.6, 260023.52, 0.0066676727, 10.002339, 9.998686 
1.9050196e+3, 1.7423409e+2, -923079.8, -1222160.4, -61705.43, -0.11720379, 0.26872095, -910849.06, 321677.03, 0.0006122247, 10.002689, 9.998719 
1.9050165e+3, 1.842328e+2, -875065.25, -1175714.6, 6012.044, -0.11378938, 0.28366515, -874945.06, 259593.16, 0.0000017786746, 10.0024605, 9.998475 
1.9050163e+3, 1.9423108e+2, -929413.44, -1160655.4, 16497.117, 0.06195659, 0.2603402, -928242.44, 108313.0, 0.0, 10.001457, 9.998389 
1.905015e+3, 2.0422925e+2, -898901.25, -1050613.9, 30692.291, 0.08269467, 0.22430962, -892927.3, 45645.527, 0.0, 10.000802, 9.998789 
1.9050115e+3, 2.142274e+2, -825468.56, -967528.4, 27914.012, -0.10547654, 0.15193848, -820180.44, 20409.225, 0.0, 10.000646, 9.998762 
1.9050092e+3, 2.2422604e+2, -789947.8, -858632.06, -34705.613, -0.13540974, 0.12799999, -775465.2, -32862.414, 0.0, 10.000042, 9.999126 
1.9050078e+3, 2.3422559e+2, -868900.75, -850143.56, -43021.63, 0.042019892, 0.16237482, -815490.1, -170881.19, 0.0, 9.998846, 9.999087 
1.9050054e+3, 2.4422541e+2, -825947.3, -775620.06, -23220.695, 0.10453916, 0.24089262, -766543.25, -219930.5, 0.0, 9.998455, 9.999114 
1.9050018e+3, 2.5422573e+2, -631390.75, -636984.2, -13452.845, 0.026223222, 0.35450354, -620447.0, -171834.08, 0.0, 9.999144, 9.999061 
1.9049989e+3, 2.6422504e+2, -521216.97, -473016.6, 13417.605, -0.011449389, 0.35762718, -469533.25, -118910.984, 0.0, 9.998968, 9.999598 
1.9049962e+3, 2.7422333e+2, -621370.4, -470790.7, 28245.59, -0.029356528, 0.21869382, -465666.75, -213025.94, 0.0, 9.997609, 9.999595 
1.904994e+3, 2.842237e+2, -513124.5, -183784.92, 13862.409, -0.01295803, 0.223771, -183202.45, -28565.164, 0.0, 9.996884, 10.001243 
1.9049926e+3, 2.9422653e+2, -390845.97, -76716.18, -34190.047, 0.14218171, 0.36610937, -73037.984, -16430.361, 0.0, 9.997064, 10.001219 
1.9049881e+3, 3.042275e+2, -389539.22, -114185.0, -73997.14, 0.025344511, 0.37474617, -95559.31, -95559.31, 0.0, 9.9970045, 10.000658 
1.904985e+3, 3.142275e+2, -507389.9, -151652.86, 50528.355, -0.003577615, 0.30727577, -144615.11, -144615.11, 0.0, 9.996123, 10.000818 
1.9150373e+3, 1.24243855e+2, -1215739.1, -1663272.0, -30936.363, -0.23373477, 0.080574706, -1213610.8, 508814.38, 0.18041946, 10.005182, 9.997944 
1.915036e+3, 1.3424408e+2, -1169813.6, -1564037.3, -33423.227, -0.0047117188, 0.25639495, -1167000.0, 457423.8, 0.123582475, 10.004307, 9.998345 
1.9150324e+3, 1.4424226e+2, -1182992.6, -1587720.9, -6570.6978, -0.007790325, 0.2692489, -1182886.0, 343556.4, 0.06914076, 10.003523, 9.9978285 
1.9150302e+3, 1.5423878e+2, -1196765.4, -1565458.0, 22581.41, 0.009090465, 0.13691102, -1195387.5, 233089.77, 0.028615339, 10.002685, 9.997712 
1.9150269e+3, 1.6423637e+2, -1102863.9, -1403297.3, -30026.342, -0.017572721, 0.10103575, -1099892.3, 230609.25, 0.0073205116, 10.002326, 9.998324 
1.9150223e+3, 1.7423552e+2, -952865.25, -1282189.3, -46638.492, -0.12545094, 0.1739653, -946387.75, 286123.13, 0.00070924795, 10.00268, 9.998313 
1.9150189e+3, 1.8423422e+2, -873033.0, -1169428.0, -28233.465, -0.12853579, 0.2074544, -870367.56, 264156.2, 0.0000023137907, 10.00245, 9.998526 
1.9150174e+3, 1.9423252e+2, -925534.7, -1150161.3, -20060.805, 0.013484238, 0.18084791, -923757.2, 112782.47, 0.0, 10.001446, 9.998468 
1.9150154e+3, 2.0423102e+2, -905135.06, -1061975.9, 22418.832, 0.054025147, 0.17519324, -901993.44, 36560.65, 0.0, 10.0007925, 9.998716 
1.9150129e+3, 2.1422985e+2, -833035.6, -981158.56, 24306.129, -0.041359834, 0.18045755, -829149.06, 11416.423, 0.0, 10.000635, 9.9986725 
1.91501e+3, 2.2422884e+2, -794214.25, -867043.0, -76664.04, -0.04304132, 0.19753824, -745755.9, -3179.437, 0.0, 10.000037, 9.999073 
1.915007e+3, 2.342282e+2, -873138.4, -857964.1, -85781.58, 0.07127519, 0.21830261, -779434.8, -134849.52, 0.0, 9.998839, 9.999039 
1.9150038e+3, 2.4422753e+2, -807974.4, -736762.3, -1969.5197, 0.0946266, 0.23466593, -736707.9, -190114.19, 0.0, 9.998448, 9.999385 
1.915001e+3, 2.542269e+2, -611101.2, -596353.94, 14829.076, 0.015561063, 0.22790514, -587166.44, -138565.69, 0.0, 9.999148, 9.999338 
1.914998e+3, 2.642267e+2, -489884.66, -408213.63, -32318.61, -0.0033589231, 0.24668546, -396971.97, -46367.918, 0.0, 9.998967, 10.000045 
1.9149943e+3, 2.7422735e+2, -586902.1, -400868.5, -21877.56, 0.007232253, 0.298912, -398330.3, -145730.64, 0.0, 9.997613, 10.000074 
1.9149902e+3, 2.8422806e+2, -569507.2, -302600.66, 15652.892, -0.06364926, 0.34543908, -301685.8, -147091.83, 0.0, 9.996893, 10.0004225 
1.9149871e+3, 2.9422843e+2, -466425.34, -238833.19, -21020.816, -0.11224654, 0.3358969, -236907.95, -180317.72, 0.0, 9.997084, 10.000096 
1.9149849e+3, 3.0422738e+2, -422647.03, -188237.97, -98475.96, -0.0028929398, 0.23676063, -152359.47, -152359.47, 0.0, 9.9970255, 10.000141 
1.9149826e+3, 3.142294e+2, -446070.78, -27379.23, 66461.664, 0.15059544, 0.39995906, -17082.557, -17082.557, 0.0, 9.99613, 10.001673 
1.9250418e+3, 1.2424718e+2, -1367782.3, -1779181.8, -50882.613, -0.24183752, 0.063641146, -1361582.5, 360809.22, 0.18986572, 10.004119, 9.99758 
1.92504e+3, 1.342471e+2, -1233995.1, -1646499.4, -38161.645, -0.024221607, 0.2613493, -1230494.5, 393901.63, 0.13059849, 10.004075, 9.997836 
1.9250357e+3, 1.4424545e+2, -1119822.9, -1528516.8, -18650.42, -0.03518003, 0.30662823, -1118973.5, 407439.97, 0.07352464, 10.003896, 9.9980545 
1.9250329e+3, 1.5424182e+2, -1083575.5, -1478628.5, 11521.693, -0.02612758, 0.13355891, -1083239.8, 345207.13, 0.030745385, 10.003361, 9.997982 
1.9250295e+3, 1.6423926e+2, -1042284.2, -1396053.0, -8241.153, -0.026240697, 0.07687627, -1042092.3, 288379.06, 0.008026891, 10.002844, 9.998124 
1.9250253e+3, 1.7423822e+2, -1018272.44, -1341227.0, -13621.587, -0.07503318, 0.15533724, -1017698.9, 214784.52, 0.0008187495, 10.002352, 9.998065 
1.9250216e+3, 1.842368e+2, -955561.6, -1222376.6, -12937.397, -0.074711025, 0.19528899, -954935.75, 179562.4, 0.0000031359323, 10.001944, 9.9984045 
1.9250187e+3, 1.9423504e+2, -899738.7, -1150984.5, -22997.564, -0.0011352833, 0.17338167, -897651.0, 138864.02, 0.0, 10.001679, 9.998349 
1.925016e+3, 2.0423359e+2, -864387.75, -1022325.1, 19486.258, 0.031242264, 0.17003535, -862019.06, 76509.91, 0.0, 10.00099, 9.998891 
1.9250135e+3, 2.1423264e+2, -951569.44, -1016878.75, 39249.742, 0.0064942334, 0.17836288, -933166.6, -92628.94, 0.0, 9.999733, 9.998862 
1.9250102e+3, 2.2423185e+2, -890951.94, -901122.1, -26527.797, 0.0037650433, 0.20450729, -869026.25, -126479.99, 0.0, 9.999323, 9.999181 
1.9250059e+3, 2.3423143e+2, -686587.7, -756995.25, -25385.45, 0.019393533, 0.2374832, -678389.56, -33835.813, 0.0, 10.000073, 9.999135 
1.9250022e+3, 2.4423073e+2, -576242.56, -603317.94, 61086.508, 0.020292206, 0.2368768, -527211.6, 19350.457, 0.0, 9.999942, 9.999582 
1.925e+3, 2.5422984e+2, -676577.5, -605512.3, 69461.67, 0.024013769, 0.1827922, -563022.56, -114452.53, 0.0, 9.998601, 9.999539 
1.9249968e+3, 2.642298e+2, -667855.4, -484774.8, -8574.666, 0.052775238, 0.2016046, -484374.06, -133802.86, 0.0, 9.997706, 10.000127 
1.9249924e+3, 2.7423105e+2, -610974.94, -403424.66, -31272.053, 0.057286657, 0.30358005, -398815.2, -146253.23, 0.0, 9.99741, 10.0001545 
1.9249871e+3, 2.842317e+2, -540219.75, -301502.56, 44171.813, -0.068081066, 0.34788728, -293591.25, -139034.27, 0.0, 9.997151, 10.000306 
1.924983e+3, 2.9423153e+2, -494564.5, -272679.53, 74286.586, -0.21262147, 0.30063486, -250105.22, -193547.05, 0.0, 9.99698, 9.999914 
1.9249824e+3, 3.042303e+2, -483758.7, -256888.6, 23054.242, 0.057323284, 0.21168114, -254569.55, -254569.55, 0.0, 9.996778, 9.999789 
1.9249797e+3, 3.1423226e+2, -483122.7, -44656.95, 149436.3, 0.2460257, 0.3983481, 1429.3466, 1429.3466, 0.0, 9.995875, 10.001676 
1.9350475e+3, 1.2425135e+2, -1395027.8, -1830892.3, -83175.234, -0.09165052, 0.10502051, -1379694.9, 342656.2, 0.19970149, 10.004084, 9.997253 
1.9350436e+3, 1.342494e+2, -1277473.5, -1740619.8, -36593.12, -0.0779844, 0.17865159, -1274600.1, 349775.38, 0.13794531, 10.0040655, 9.997194 
1.9350384e+3, 1.442476e+2, -1104321.1, -1488412.8, -35017.492, -0.1543062, 0.22883189, -1101154.6, 425239.66, 0.078145124, 10.003879, 9.99836 
1.9350354e+3, 1.5424542e+2, -1061284.4, -1426261.8, -6472.939, -0.103621766, 0.16367994, -1061169.6, 367242.2, 0.03300694, 10.003348, 9.998347 
1.9350322e+3, 1.6424356e+2, -1047706.56, -1405799.1, -27741.742, -0.0306981, 0.16055071, -1045570.1, 284858.34, 0.008786739, 10.002835, 9.998062 
1.9350286e+3, 1.7424217e+2, -1025734.3, -1356341.4, -31171.809, 0.02607395, 0.21424621, -1022820.94, 209623.1, 0.00094156526, 10.002348, 9.997964 
1.9350247e+3, 1.8424048e+2, -977054.3, -1265921.1, -23579.656, 0.04030822, 0.24523984, -975142.2, 159319.97, 0.0000044945964, 10.001936, 9.99811 
1.9350207e+3, 1.9423854e+2, -922308.7, -1195385.8, -30556.633, 0.011117553, 0.23598355, -918931.25, 117550.91, 0.0, 10.001668, 9.998051 
1.9350168e+3, 2.0423687e+2, -838228.5, -965518.44, -24808.021, 0.0063725063, 0.20873985, -833564.44, 104933.49, 0.0, 10.000977, 9.999289 
1.9350135e+3, 2.1423566e+2, -921775.9, -952538.7, -5669.509, 0.033197176, 0.14706215, -920764.25, -80257.6, 0.0, 9.999721, 9.99931 
1.9350097e+3, 2.2423501e+2, -874279.56, -864789.1, -3416.4792, -0.00022277016, 0.14987637, -863687.1, -121174.2, 0.0, 9.999312, 9.999435 
1.9350044e+3, 2.3423521e+2, -670782.06, -722780.06, 5784.968, -0.122335576, 0.22032014, -670146.25, -25631.08, 0.0, 10.000067, 9.999373 
1.9350007e+3, 2.44235e+2, -567733.56, -585127.4, 16607.564, -0.12759414, 0.24970412, -557683.56, -11164.878, 0.0, 9.999938, 9.99971 
1.9349986e+3, 2.5423443e+2, -666970.1, -587370.6, 20249.117, 0.044161644, 0.2167323, -582515.6, -133993.73, 0.0, 9.998607, 9.999663 
1.9349957e+3, 2.6423416e+2, -687286.2, -525108.4, -22597.826, 0.15015554, 0.2182801, -522018.5, -171493.44, 0.0, 9.997705, 9.99985 
1.9349903e+3, 2.7423424e+2, -634895.6, -453531.5, -40580.28, 0.10972118, 0.2334905, -444865.72, -192336.98, 0.0, 9.997411, 9.999811 
1.9349848e+3, 2.842345e+2, -496398.44, -214142.22, 36062.82, -0.03685728, 0.23239633, -209607.47, -55080.082, 0.0, 9.997163, 10.000902 
1.9349806e+3, 2.9423574e+2, -436979.22, -160635.48, 73334.17, -0.16812058, 0.25946257, -142380.48, -85867.74, 0.0, 9.997005, 10.000674 
1.9349808e+3, 3.0423626e+2, -493167.25, -278726.03, 3044.5967, 0.20481904, 0.3052823, -278682.84, -278682.84, 0.0, 9.996788, 9.999634 
1.9349743e+3, 3.1423452e+2, -517322.3, -119188.93, 17246.467, 0.12793496, 0.15754181, -118443.234, -118443.234, 0.0, 9.995887, 10.00116 
1.9450517e+3, 1.2425583e+2, -1436965.0, -1814185.4, -84962.836, -0.047106035, 0.18554848, -1418711.8, 303598.13, 0.20996629, 10.003583, 9.997615 
1.9450481e+3, 1.3425289e+2, -1190699.1, -1678390.9, 25989.771, -0.060716536, 0.14971453, -1189318.0, 435023.22, 0.14563756, 10.004735, 9.997298 
1.9450434e+3, 1.4425072e+2, -976850.1, -1442009.0, -3660.2603, -0.10723918, 0.16497202, -976821.4, 549541.56, 0.083004326, 10.004926, 9.998203 
1.9450389e+3, 1.5424931e+2, -1034484.7, -1433327.3, -22245.063, -0.10242938, 0.1962129, -1033247.9, 395126.5, 0.03539976, 10.003638, 9.998158 
1.9450349e+3, 1.6424762e+2, -1046040.44, -1398511.1, -39103.11, -0.04309329, 0.21646659, -1041754.44, 288635.06, 0.009600047, 10.00283, 9.998112 
1.9450313e+3, 1.7424557e+2, -966772.5, -1320739.8, -31374.627, 0.040980484, 0.19700934, -964013.06, 268396.34, 0.0010784023, 10.002726, 9.998024 
1.9450271e+3, 1.8424352e+2, -912565.7, -1240995.5, -12595.877, 0.073837, 0.19242576, -912083.3, 222346.92, 0.0000066792873, 10.00241, 9.998051 
1.9450226e+3, 1.9424167e+2, -907346.06, -1195607.3, -5322.24, 0.048905715, 0.199491, -907247.8, 129202.45, 0.0, 10.001807, 9.997979 
1.9450182e+3, 2.0424019e+2, -798868.7, -926687.06, -15832.373, 0.030355643, 0.1885215, -796936.75, 141527.6, 0.0, 10.0011635, 9.999465 
1.9450136e+3, 2.1423931e+2, -798820.75, -871933.6, -20079.273, 0.016709758, 0.14146405, -793669.25, 46800.074, 0.0, 10.000474, 9.9995 
1.945009e+3, 2.2423877e+2, -827461.6, -860818.44, -8316.362, -0.017765608, 0.14996332, -825503.25, -83028.3, 0.0, 9.999715, 9.999269 
1.9450045e+3, 2.3423871e+2, -860185.4, -836804.7, -31497.432, -0.08673211, 0.21532126, -814898.1, -170417.67, 0.0, 9.998864, 9.999171 
1.9450004e+3, 2.4423851e+2, -767797.6, -636406.7, -48213.14, -0.08075953, 0.2388169, -620613.5, -74129.95, 0.0, 9.998377, 10.000108 
1.9449972e+3, 2.5423834e+2, -666699.0, -537223.9, -24058.133, 0.038555913, 0.20121758, -532898.06, -84416.88, 0.0, 9.998398, 10.000106 
1.9449933e+3, 2.642382e+2, -617125.0, -504536.72, -37108.484, 0.12207469, 0.19842392, -493406.3, -142924.03, 0.0, 9.998245, 9.99973 
1.9449879e+3, 2.7423802e+2, -592017.25, -453514.22, -45819.5, 0.11554815, 0.20377536, -439728.4, -187239.31, 0.0, 9.997795, 9.999624 
1.9449823e+3, 2.842382e+2, -510071.2, -199647.94, 15080.734, 0.016942572, 0.19541353, -198917.02, -44428.125, 0.0, 9.996981, 10.001088 
1.9449778e+3, 2.9423985e+2, -591747.94, -193464.97, 18979.668, -0.085206985, 0.23867781, -192562.56, -136092.6, 0.0, 9.99577, 10.00104 
1.9449773e+3, 3.0424094e+2, -580723.6, -289451.34, -2028.3163, 0.22301556, 0.3045105, -289437.22, -289437.22, 0.0, 9.996055, 9.999912 
1.9449705e+3, 3.14239e+2, -211844.3, 40143.598, -40327.66, 0.05187207, 0.117785536, 46440.22, 46440.22, 0.0, 9.997933, 10.001267 
1.9550544e+3, 1.24260806e+2, -1388637.5, -1679304.8, -57855.996, -0.14327683, 0.32284, -1377544.9, 344720.94, 0.22066993, 10.0035515, 9.998614 
1.9550537e+3, 1.3425756e+2, -1149559.6, -1572465.0, 65501.223, 0.018637517, 0.17539775, -1139646.9, 484646.7, 0.1536768, 10.004716, 9.998097 
1.9550502e+3, 1.442548e+2, -1022541.75, -1527376.4, -42198.063, 0.09313596, 0.118482195, -1019038.75, 507280.56, 0.0880999, 10.004904, 9.997579 
1.9550432e+3, 1.5425351e+2, -1086759.1, -1541689.4, -69202.24, -0.033209622, 0.23268792, -1076465.4, 351869.25, 0.037922636, 10.003629, 9.99742 
1.9550374e+3, 1.642514e+2, -1037325.6, -1378694.4, -46654.76, -0.07287226, 0.24579391, -1031064.2, 299290.4, 0.010466628, 10.002822, 9.998253 
1.9550332e+3, 1.7424834e+2, -952111.8, -1289835.1, -33317.15, -0.0344288, 0.104258746, -948856.4, 283523.63, 0.0012294218, 10.002722, 9.9982395 
1.955029e+3, 1.8424588e+2, -902547.06, -1219115.4, -33212.99, 0.018672204, 0.03903982, -899100.0, 235302.5, 0.000009908067, 10.002402, 9.998206 
1.9550252e+3, 1.9424438e+2, -898396.1, -1176274.3, -25798.67, 0.10435485, 0.06675744, -896021.2, 140398.39, 0.0, 10.001801, 9.9981165 
1.95502e+3, 2.042435e+2, -805041.44, -936451.44, -41686.094, 0.09392379, 0.11073186, -792933.4, 145495.53, 0.0, 10.001148, 9.999405 
1.9550133e+3, 2.1424355e+2, -804805.8, -882661.6, -43687.637, -0.049752526, 0.16154557, -785218.8, 55207.688, 0.0, 10.000465, 9.999431 
1.9550084e+3, 2.2424302e+2, -869924.5, -948157.94, -39470.49, -0.056492243, 0.204473, -853471.1, -111038.055, 0.0, 9.999709, 9.998674 
1.9550052e+3, 2.3424183e+2, -906211.1, -930542.2, -61120.563, 0.11975687, 0.2210442, -856057.1, -211606.56, 0.0, 9.998855, 9.998534 
1.955001e+3, 2.4424118e+2, -723418.4, -542266.0, -49489.55, 0.15331216, 0.20399794, -529627.56, 16830.078, 0.0, 9.998367, 10.000758 
1.9549952e+3, 2.5424147e+2, -613859.0, -428588.7, -20526.8, -0.00051643606, 0.1365413, -426341.7, 22107.244, 0.0, 9.998401, 10.000852 
1.9549899e+3, 2.6424184e+2, -614129.56, -499489.8, -52400.938, -0.038896736, 0.14231347, -479147.44, -128703.555, 0.0, 9.998248, 9.999765 
1.9549853e+3, 2.7424225e+2, -592289.56, -458760.22, -61990.973, 0.06502656, 0.21197447, -434418.34, -181973.81, 0.0, 9.997812, 9.999583 
1.95498e+3, 2.842426e+2, -524062.03, -231734.1, -31009.139, 0.08498313, 0.23699106, -228480.95, -74038.14, 0.0, 9.996994, 10.000861 
1.9549747e+3, 2.942437e+2, -596264.3, -203862.52, -23260.63, 0.026485775, 0.24409327, -202488.48, -146057.6, 0.0, 9.995772, 10.000969 
1.954972e+3, 3.04244e+2, -526343.6, -180069.89, 65749.74, 0.099093094, 0.19418493, -168005.78, -168005.78, 0.0, 9.996067, 10.000658 
1.9549695e+3, 3.142444e+2, -177662.16, 95624.734, -56472.05, 0.1462613, 0.17615652, 106834.336, 106834.336, 0.0, 9.997994, 10.001622 
1.9650586e+3, 1.24264814e+2, -1284742.0, -1622381.9, -10039.209, -0.13548943, 0.292123, -1284443.8, 437782.6, 0.23172194, 10.004492, 9.998673 
1.9650577e+3, 1.3426194e+2, -1300229.6, -1641507.9, 66683.01, 0.02014401, 0.17513968, -1287663.0, 336585.78, 0.16202237, 10.003491, 9.998161 
1.965055e+3, 1.442589e+2, -1244998.6, -1660595.4, -60865.766, 0.15785588, 0.091729864, -1236268.0, 290009.16, 0.09342027, 10.003323, 9.997423 
1.9650474e+3, 1.5425743e+2, -1019971.44, -1527244.0, -54023.844, -0.0018938108, 0.20859164, -1014281.8, 414013.66, 0.040574197, 10.0042, 9.997242 
1.9650412e+3, 1.6425535e+2, -839813.7, -1280075.1, -26862.791, -0.06470452, 0.23225977, -838180.7, 492135.34, 0.011385711, 10.004186, 9.998277 
1.965036e+3, 1.7425255e+2, -910042.06, -1264190.0, -30583.22, -0.0402975, 0.11362373, -907420.44, 324918.28, 0.0013940044, 10.002994, 9.998282 
1.9650312e+3, 1.8425015e+2, -940931.0, -1220747.1, -34773.297, 0.008494494, 0.045200646, -936674.44, 197685.53, 0.000014255441, 10.0020685, 9.998354 
1.9650267e+3, 1.9424845e+2, -930091.7, -1174097.6, -28231.7, 0.10210108, 0.037317444, -926867.9, 109509.88, 0.0, 10.001512, 9.99827 
1.9650212e+3, 2.0424758e+2, -825111.06, -980140.0, -43017.645, 0.1006233, 0.08712997, -813974.44, 124412.77, 0.0, 10.001158, 9.9991 
1.9650143e+3, 2.1424787e+2, -742118.1, -890868.44, -67592.93, -0.033693366, 0.19775406, -715992.2, 124392.45, 0.0, 10.001063, 9.999085 
1.9650087e+3, 2.2424713e+2, -727255.3, -856386.0, -62883.195, -0.033052277, 0.22893666, -701693.06, 40699.8, 0.0, 10.000594, 9.998876 
1.965005e+3, 2.342451e+2, -774383.7, -839713.25, -23058.678, 0.14937307, 0.13834156, -767064.8, -122650.24, 0.0, 9.999645, 9.998774 
1.965e+3, 2.4424435e+2, -635837.56, -510429.16, 28672.666, 0.18207029, 0.10096092, -504184.53, 42237.234, 0.0, 9.99901, 10.000669 
1.9649939e+3, 2.542455e+2, -568354.9, -418929.88, -6809.837, 0.009030449, 0.12850668, -418620.16, 29787.613, 0.0, 9.998767, 10.00074 
1.964988e+3, 2.6424614e+2, -591397.25, -473544.28, -83541.24, -0.05577679, 0.16229987, -430238.34, -79837.66, 0.0, 9.998343, 9.999896 
1.9649826e+3, 2.7424613e+2, -601937.6, -446529.75, -83359.46, 0.040012084, 0.17700662, -410274.47, -157871.31, 0.0, 9.997679, 9.999728 
1.9649772e+3, 2.8424618e+2, -515530.88, -263132.56, -53243.645, 0.110745564, 0.17614569, -252360.5, -97956.49, 0.0, 9.997207, 10.000543 
1.9649719e+3, 2.942468e+2, -447745.97, -160001.8, -56061.723, 0.10881745, 0.17209193, -149465.03, -93067.2, 0.0, 9.996913, 10.00072 
1.964967e+3, 3.0424744e+2, -480910.06, -96515.03, 56560.816, -0.026397122, 0.13552076, -88365.32, -88365.32, 0.0, 9.996117, 10.001208 
1.9649656e+3, 3.142493e+2, -558950.75, -26782.549, -62350.574, 0.10398296, 0.21636893, -19574.969, -19574.969, 0.0, 9.995121, 10.002163 
1.975064e+3, 1.24267854e+2, -1335843.1, -1711921.1, -30069.588, -0.04505558, 0.09349821, -1333454.1, 388737.78, 0.2429396, 10.004467, 9.997886 
1.9750604e+3, 1.3426608e+2, -1342309.4, -1733708.4, 37249.363, -0.06544035, 0.15233918, -1338795.9, 285410.44, 0.17058846, 10.003481, 9.997521 
1.9750576e+3, 1.4426298e+2, -1230055.9, -1621113.4, -33335.27, 0.076166846, 0.08591148, -1227234.6, 299001.56, 0.098942205, 10.003315, 9.997697 
1.9750515e+3, 1.542611e+2, -999116.06, -1478126.3, -19821.5, -0.015491957, 0.12505554, -998297.25, 429959.78, 0.043353386, 10.004193, 9.997582 
1.9750457e+3, 1.6425943e+2, -849769.9, -1297418.0, -66664.74, -0.030189466, 0.17705043, -840052.94, 490221.44, 0.012356995, 10.004173, 9.998163 
1.9750395e+3, 1.7425813e+2, -921822.8, -1287721.4, -74420.04, 0.015361334, 0.22376004, -907265.7, 325020.53, 0.0015709848, 10.002987, 9.998125 
1.9750334e+3, 1.8425626e+2, -932840.94, -1201507.4, -57622.46, 0.035100296, 0.21017513, -921003.9, 213299.44, 0.000019593592, 10.002058, 9.998491 
1.9750276e+3, 1.9425379e+2, -919015.1, -1150215.8, -47294.832, 0.03458406, 0.10741369, -909714.56, 126611.09, 0.0, 10.001506, 9.998436 
1.9750218e+3, 2.0425229e+2, -865397.3, -1062553.5, -47579.145, 0.043152884, 0.11370165, -854515.75, 83824.75, 0.0, 10.00115, 9.99854 
1.9750163e+3, 2.1425225e+2, -787462.9, -982733.75, -68555.4, 0.058476977, 0.2516467, -765798.2, 74546.06, 0.0, 10.001051, 9.998462 
1.97501e+3, 2.2425105e+2, -660354.44, -716149.44, -95947.766, 0.04417231, 0.22541353, -588330.75, 154024.11, 0.0, 10.000585, 9.999844 
1.9750029e+3, 2.3424843e+2, -697640.0, -680711.8, -56358.535, -0.0056636175, -0.03447429, -632185.4, 12188.348, 0.0, 9.999643, 9.999867 
1.9749972e+3, 2.442479e+2, -694434.6, -631321.75, 17519.04, -0.0027256699, -0.07058588, -626784.9, -80407.805, 0.0, 9.999005, 9.999841 
1.9749932e+3, 2.5425026e+2, -636400.9, -562099.56, -14773.8, 0.056864675, 0.17763619, -559269.75, -110910.86, 0.0, 9.998773, 9.999756 
1.9749875e+3, 2.6425093e+2, -574311.44, -440460.3, -108381.29, 0.061109506, 0.25749162, -380006.38, -29652.295, 0.0, 9.998352, 10.000119 
1.9749804e+3, 2.7424952e+2, -578629.1, -400828.0, -106660.766, 0.030484384, 0.09776965, -350876.75, -98510.37, 0.0, 9.997687, 10.000038 
1.9749744e+3, 2.8424868e+2, -541706.94, -320949.0, -66025.78, 0.08582808, 0.012612809, -302708.7, -148334.81, 0.0, 9.997219, 10.000141 
1.9749692e+3, 2.94249e+2, -474763.1, -224415.97, -67961.8, 0.15159236, 0.021464417, -207156.3, -150783.86, 0.0, 9.996944, 10.000265 
1.9749616e+3, 3.0425102e+2, -457089.0, -52005.5, 6041.358, -0.16544178, 0.134257, -51915.42, -51915.42, 0.0, 9.996139, 10.001503 
1.9749613e+3, 3.142536e+2, -502715.03, 85092.38, 16700.924, 0.16326076, 0.25122088, 85566.51, 85566.51, 0.0, 9.995138, 10.002925 
1.9850694e+3, 1.2427254e+2, -1275854.6, -1702010.8, -34414.97, 0.0041695074, 0.094077945, -1273093.3, 449052.75, 0.25413695, 10.0052, 9.997625 
1.9850644e+3, 1.342709e+2, -1074074.9, -1586885.5, 43384.938, -0.12685864, 0.17028147, -1070430.3, 553728.75, 0.17926817, 10.005764, 9.997483 
1.9850615e+3, 1.4426771e+2, -955404.8, -1475809.6, -11583.02, 0.032408305, 0.09494995, -955147.1, 571042.5, 0.104625024, 10.005426, 9.997716 
1.9850558e+3, 1.5426563e+2, -1047922.4, -1497596.3, -24502.0, 0.005324878, 0.11217614, -1046591.25, 381620.56, 0.04625297, 10.003836, 9.997619 
1.9850497e+3, 1.6426386e+2, -1036452.56, -1409825.6, -90377.195, 0.014004806, 0.16104795, -1015726.7, 314504.03, 0.01338027, 10.002977, 9.997963 
1.9850427e+3, 1.742626e+2, -919277.56, -1310657.6, -106491.875, 0.026201384, 0.23467304, -892178.2, 340066.0, 0.0017591557, 10.003114, 9.997905 
1.9850358e+3, 1.8426095e+2, -785599.5, -1114877.4, -89692.39, 0.019267485, 0.24814388, -762753.2, 371506.44, 0.0000256483, 10.003002, 9.9986315 
1.9850293e+3, 1.9425888e+2, -754241.25, -1052476.0, -81214.24, -0.0006004208, 0.17030868, -733559.44, 302716.97, 0.0, 10.00256, 9.998601 
1.985023e+3, 2.0425718e+2, -787246.94, -1033511.9, -71968.24, 0.021264808, 0.14929987, -767757.4, 170535.03, 0.0, 10.001729, 9.998458 
1.9850174e+3, 2.1425606e+2, -890630.94, -1044572.8, -58477.42, 0.09211607, 0.19177134, -870936.8, -30630.66, 0.0, 10.000397, 9.998351 
1.9850105e+3, 2.2425474e+2, -753937.7, -723001.75, -70465.75, 0.078313746, 0.14327717, -666326.25, 75990.82, 0.0, 9.999781, 10.000182 
1.9850025e+3, 2.3425327e+2, -603744.6, -592638.6, -85673.81, -0.04226167, -0.03985558, -512338.03, 131985.06, 0.0, 10.000109, 10.000246 
1.984996e+3, 2.44253e+2, -626801.0, -653990.0, -44692.68, -0.050879307, -0.046701685, -593681.0, -47357.063, 0.0, 9.999714, 9.999342 
1.9849919e+3, 2.5425437e+2, -735849.75, -672938.25, -48613.88, 0.07350333, 0.16314882, -646490.9, -198173.61, 0.0, 9.998366, 9.999187 
1.9849858e+3, 2.642547e+2, -669958.8, -449059.06, -107650.375, 0.09265299, 0.2184732, -405276.06, -54959.34, 0.0, 9.997536, 10.000453 
1.9849777e+3, 2.742537e+2, -599633.25, -366355.78, -100577.79, 0.013921479, 0.0625503, -328979.94, -76657.2, 0.0, 9.9973545, 10.000435 
1.9849713e+3, 2.8425315e+2, -532194.5, -328909.44, -32571.996, 0.061787117, -0.013040375, -323818.0, -169491.33, 0.0, 9.997341, 10.000027 
1.9849665e+3, 2.9425323e+2, -414403.22, -216296.61, -15218.783, 0.17176962, -0.008070782, -215134.31, -158807.03, 0.0, 9.997455, 10.0000725 
1.984958e+3, 3.0425507e+2, -437154.44, -58530.8, -7925.2813, -0.1521701, 0.10411567, -58364.984, -58364.984, 0.0, 9.996345, 10.001357 
1.9849558e+3, 3.142574e+2, -668370.9, -10179.538, 62949.996, 0.14585322, 0.20649086, -4213.0317, -4213.0317, 0.0, 9.994063, 10.0027895 
1.9950743e+3, 1.2427871e+2, -1276822.9, -1683327.0, 152.92729, -0.01114422, 0.2727901, -1276822.9, 445267.63, 0.26521957, 10.005159, 9.997822 
1.9950697e+3, 1.3427643e+2, -1054260.6, -1529157.5, 61822.813, -0.17542452, 0.23187666, -1046344.44, 577762.4, 0.1879824, 10.00574, 9.997985 
1.9950667e+3, 1.4427303e+2, -975436.94, -1507645.4, -60347.93, 0.014603081, 0.1216746, -968679.75, 557458.06, 0.11042515, 10.005412, 9.997481 
1.99506e+3, 1.5427098e+2, -1068848.6, -1537831.0, -81255.85, 0.051240727, 0.16810362, -1055169.3, 372990.94, 0.04926155, 10.003822, 9.997354 
1.9950531e+3, 1.6426861e+2, -1059562.3, -1454425.6, -89865.87, 0.05679196, 0.18549265, -1040072.0, 290113.25, 0.0144563075, 10.002962, 9.997664 
1.9950455e+3, 1.7426597e+2, -940986.6, -1355281.6, -99059.24, -0.014460944, 0.14896761, -918519.6, 313693.06, 0.0019582892, 10.003111, 9.997601 
1.9950382e+3, 1.842642e+2, -776720.06, -1095282.5, -104352.56, -0.04569504, 0.16131629, -745580.75, 388648.53, 0.000032105352, 10.002996, 9.99877 
1.9950317e+3, 1.9426373e+2, -744984.06, -1029726.1, -95273.79, -0.010921571, 0.2284133, -716046.56, 320183.78, 0.0, 10.002544, 9.998765 
1.9950248e+3, 2.0426217e+2, -764022.0, -982771.75, -119455.29, 0.02627645, 0.195999, -711432.56, 226810.83, 0.0, 10.001715, 9.998814 
1.9950175e+3, 2.1425924e+2, -864636.5, -989960.7, -106041.92, 0.060342442, 0.017504677, -804126.25, 36145.094, 0.0, 10.000392, 9.998729 
1.9950101e+3, 2.242581e+2, -774650.9, -765235.75, -62217.23, 0.06379767, -0.018530017, -707548.25, 34732.363, 0.0, 9.999775, 9.999897 
1.9950032e+3, 2.3425952e+2, -628820.75, -643880.56, -70587.0, 0.032021515, 0.122027494, -565363.2, 78900.56, 0.0, 10.000103, 9.999899 
1.9949965e+3, 2.4425954e+2, -640154.4, -681101.56, -91382.7, 0.027987143, 0.1723319, -566979.8, -20716.574, 0.0, 9.999709, 9.999159 
1.99499e+3, 2.5425777e+2, -747033.3, -698214.44, -97872.305, 0.052610055, 0.083694436, -621753.6, -173469.44, 0.0, 9.998373, 9.999012 
1.9949828e+3, 2.6425722e+2, -638809.9, -386929.25, -118617.53, 0.03580289, 0.04518027, -339863.56, 10426.411, 0.0, 9.997543, 10.000878 
1.9949748e+3, 2.7425858e+2, -565668.25, -300341.5, -106037.4, -0.019931221, 0.07410362, -263171.13, -10897.668, 0.0, 9.997371, 10.000882 
1.9949684e+3, 2.8425938e+2, -517618.5, -302123.2, -30348.328, 0.026539162, 0.1016064, -297930.78, -143666.97, 0.0, 9.997356, 10.000202 
1.994964e+3, 2.942593e+2, -408736.3, -208303.69, -14008.781, 0.15845044, 0.07734001, -207329.31, -151064.73, 0.0, 9.997471, 10.000119 
1.994956e+3, 3.0425942e+2, -475930.28, -144308.5, -97653.68, 0.018252835, 0.049343344, -117688.91, -117688.91, 0.0, 9.996364, 10.000761 
1.9949484e+3, 3.14261e+2, -761320.06, -210819.8, 65580.98, -0.011931593, 0.12896451, -203114.98, -203114.98, 0.0, 9.994093, 10.001398 
2.0050803e+3, 1.2428397e+2, -1117442.5, -1615939.4, 44385.047, -0.017945863, 0.275524, -1113521.4, 608518.06, 0.2762447, 10.006801, 9.997677 
2.0050755e+3, 1.3428159e+2, -1173448.4, -1584483.3, 56688.766, -0.11610257, 0.22459254, -1165773.4, 458283.9, 0.19674045, 10.004773, 9.997986 
2.005072e+3, 1.4427845e+2, -1184906.6, -1598959.6, -65014.734, 0.06956506, 0.13419345, -1174938.0, 351147.6, 0.11633648, 10.003736, 9.99765 
2.0050636e+3, 1.5427667e+2, -1033615.3, -1498988.0, -58072.95, 0.019785546, 0.18959606, -1026477.94, 401626.84, 0.05237858, 10.003997, 9.997535 
2.005056e+3, 1.642743e+2, -905778.4, -1379935.4, -15342.229, 0.0034436914, 0.19677621, -905282.5, 424846.66, 0.015589366, 10.00404, 9.997658 
2.0050491e+3, 1.7427123e+2, -840380.1, -1309951.1, -3890.7917, -0.0037459596, 0.12029209, -840347.9, 391811.84, 0.0021699998, 10.003818, 9.997572 
2.0050417e+3, 1.8426917e+2, -782683.8, -1119412.5, -41333.54, -0.0039345967, 0.11620997, -777684.3, 356494.84, 0.00003871999, 10.003051, 9.998576 
2.0050341e+3, 1.9426869e+2, -903414.3, -1129996.3, -65711.91, 0.015190828, 0.20157865, -885736.2, 150446.1, 0.0, 10.00156, 9.998549 
2.005026e+3, 2.0426726e+2, -876643.6, -993676.7, -88435.625, 0.026337251, 0.1769654, -829117.5, 109076.45, 0.0, 10.00076, 9.999197 
2.0050177e+3, 2.1426468e+2, -760481.4, -892345.2, -73161.21, 0.019959768, -0.008962282, -727926.9, 112289.15, 0.0, 10.000908, 9.999149 
2.00501e+3, 2.2426371e+2, -682167.25, -781807.06, -21739.047, 0.026910817, -0.024741713, -677630.9, 64593.05, 0.0, 10.000677, 9.999347 
2.0050035e+3, 2.3426507e+2, -697218.8, -747595.44, -53483.543, 0.052939147, 0.17386681, -663289.1, -19077.42, 0.0, 9.999941, 9.999264 
2.0049964e+3, 2.4426486e+2, -682010.06, -656463.7, -91541.164, 0.052659415, 0.21556376, -576808.9, -30594.91, 0.0, 9.9992285, 9.999558 
2.004988e+3, 2.5426263e+2, -691798.9, -618037.6, -53167.758, 0.016535675, 0.031644978, -590211.25, -141976.56, 0.0, 9.998523, 9.99949 
2.0049803e+3, 2.6426196e+2, -582851.44, -405815.53, -41698.195, -0.0029827408, -0.026646618, -396485.8, -46245.24, 0.0, 9.998132, 10.00046 
2.0049727e+3, 2.7426356e+2, -481703.22, -313087.0, -98961.7, 0.00075152016, 0.078493126, -267390.22, -15165.505, 0.0, 9.998182, 10.0004 
2.0049658e+3, 2.8426465e+2, -483798.56, -249984.84, -82336.89, 0.0378123, 0.14789194, -223900.19, -69686.69, 0.0, 9.997437, 10.000521 
2.00496e+3, 2.94265e+2, -672928.44, -305432.78, -58079.39, 0.111944646, 0.12931387, -296472.3, -240263.03, 0.0, 9.99553, 10.000385 
2.0049526e+3, 3.0426484e+2, -706865.2, -256283.5, -106053.95, 0.09763317, 0.060793005, -232569.52, -232569.52, 0.0, 9.994784, 10.000752 
2.0049424e+3, 3.142647e+2, -553896.9, -105435.98, 116567.164, -0.07203232, -0.03473384, -76946.82, -76946.82, 0.0, 9.995505, 10.001436 
2.015087e+3, 1.2428816e+2, -1154583.5, -1665668.5, 5150.0156, -0.028365018, 0.093999036, -1154531.6, 567463.0, 0.28750965, 10.006749, 9.997236 
2.0150818e+3, 1.3428637e+2, -1208237.9, -1643032.3, -2892.6592, 0.03604645, 0.14865428, -1208218.6, 415791.8, 0.20571008, 10.004736, 9.997535 
2.0150767e+3, 1.4428401e+2, -1156665.3, -1523062.0, -58807.242, 0.18058941, 0.1338913, -1147458.0, 378574.84, 0.1224332, 10.003715, 9.998184 
2.0150666e+3, 1.5428273e+2, -996336.6, -1413595.9, -45979.957, -0.097185165, 0.18019278, -991329.94, 436715.75, 0.055631973, 10.00399, 9.998129 
2.0150584e+3, 1.6428092e+2, -889510.7, -1341592.0, -22858.59, -0.15366709, 0.19877976, -888357.8, 441704.94, 0.016791452, 10.004026, 9.997928 
2.0150535e+3, 1.7427833e+2, -826379.56, -1277662.4, -10083.703, 0.0510698, 0.14837034, -826154.4, 405931.66, 0.0023981123, 10.003803, 9.997802 
2.0150462e+3, 1.8427585e+2, -822836.9, -1198365.5, -93657.34, 0.13430716, 0.111781836, -800774.75, 333335.34, 0.000045425786, 10.003031, 9.998044 
2.0150362e+3, 1.942737e+2, -947118.6, -1217996.4, -119309.55, 0.0693015, 0.090919346, -902062.5, 134070.53, 0.0, 10.001549, 9.9979515 
2.0150268e+3, 2.0427242e+2, -849543.1, -936796.9, -86713.52, 0.011788958, 0.09381859, -796100.25, 142044.47, 0.0, 10.000754, 9.999592 
2.015018e+3, 2.1427234e+2, -729064.56, -826173.75, -64741.945, -0.036504954, 0.11341368, -696692.8, 143447.88, 0.0, 10.000901, 9.999608 
2.01501e+3, 2.2427152e+2, -742391.1, -905175.4, -46755.457, -0.04096056, 0.12589261, -729917.6, 12230.057, 0.0, 10.000668, 9.998507 
2.0150031e+3, 2.3426986e+2, -762551.44, -884579.44, -78924.61, 0.012201357, 0.11518332, -723806.75, -79638.65, 0.0, 9.999944, 9.998323 
2.0149952e+3, 2.4426885e+2, -612442.6, -512167.9, -118224.65, 0.01598079, 0.08187934, -433888.7, 112288.43, 0.0, 9.9992285, 10.00055 
2.0149861e+3, 2.5426885e+2, -612421.5, -453701.75, -78431.39, -0.04422822, 0.007917745, -421484.44, 26685.334, 0.0, 9.998524, 10.000618 
2.0149781e+3, 2.642687e+2, -671279.0, -592532.8, -42408.316, -0.032533314, 0.0033038252, -574037.9, -223868.31, 0.0, 9.998142, 9.999174 
2.0149715e+3, 2.742685e+2, -578846.8, -520533.22, -94870.33, 0.06798586, 0.07312721, -450440.34, -198262.25, 0.0, 9.998205, 9.998965 
2.0149639e+3, 2.842689e+2, -449785.94, -183533.5, -151363.5, 0.08898078, 0.12539318, -115082.19, 39095.184, 0.0, 9.997453, 10.000971 
2.0149545e+3, 2.942703e+2, -638365.4, -237458.34, -133053.95, 0.02088026, 0.15371117, -197318.92, -141156.5, 0.0, 9.995543, 10.000849 
2.0149471e+3, 3.0427104e+2, -664394.4, -170505.31, -81476.016, 0.07349192, 0.13519448, -157411.5, -157411.5, 0.0, 9.994795, 10.001336 
2.0149373e+3, 3.1427085e+2, -439887.5, 127715.516, 69206.24, -0.15427917, -0.040780324, 136031.8, 136031.8, 0.0, 9.995528, 10.003024 
2.0250945e+3, 1.2429541e+2, -1242155.4, -1718980.3, 35410.637, 0.07940788, 0.11684791, -1239540.0, 482383.8, 0.29960895, 10.006067, 9.997055 
2.0250873e+3, 1.3429336e+2, -1143519.0, -1619284.3, 30786.242, 0.07561196, 0.16170585, -1141535.1, 482407.78, 0.21524194, 10.005417, 9.99738 
2.0250806e+3, 1.4429085e+2, -1020349.3, -1465332.9, 11976.558, 0.14506513, 0.14471595, -1020027.2, 505939.75, 0.12887706, 10.004859, 9.998082 
2.0250705e+3, 1.5428925e+2, -950093.0, -1401728.3, -19166.398, -0.123460844, 0.17037155, -949281.1, 478701.28, 0.059080698, 10.004394, 9.998019 
2.0250624e+3, 1.6428746e+2, -903232.25, -1324005.8, -35099.555, -0.16466661, 0.18778475, -900324.44, 429674.22, 0.018082863, 10.003834, 9.998138 
2.0250571e+3, 1.7428537e+2, -904216.75, -1288016.5, -26311.252, 0.06445453, 0.16259083, -902421.44, 329595.25, 0.0026487417, 10.003155, 9.998039 
2.025049e+3, 1.8428308e+2, -877150.2, -1219790.9, -102974.38, 0.15368679, 0.13005437, -848584.56, 285454.22, 0.000052423693, 10.002637, 9.998087 
2.0250382e+3, 1.942807e+2, -829172.8, -1158185.1, -85935.984, 0.066750586, 0.08243425, -808079.25, 227985.44, 0.0, 10.002345, 9.997978 
2.025028e+3, 2.0427947e+2, -691712.7, -896468.94, -25533.773, 0.006495162, 0.10511946, -688576.56, 249500.22, 0.0, 10.001993, 9.999271 
2.0250194e+3, 2.1427985e+2, -657063.3, -830173.7, -64659.633, -0.019639444, 0.20657277, -635578.4, 204491.4, 0.0, 10.001562, 9.999263 
2.025011e+3, 2.2427882e+2, -729233.2, -900831.56, -77963.586, -0.018362325, 0.21659273, -699102.1, 42977.094, 0.0, 10.000767, 9.998487 
2.0250028e+3, 2.3427601e+2, -828364.7, -915545.3, -43536.66, 0.017368898, 0.091126435, -810346.94, -166237.56, 0.0, 9.999492, 9.998327 
2.0249942e+3, 2.4427482e+2, -666540.2, -520714.34, -48815.88, 0.0077922414, 0.032546222, -505881.72, 40237.61, 0.0, 9.998784, 10.000706 
2.0249845e+3, 2.5427592e+2, -556281.7, -408652.66, -82418.09, -0.062160186, 0.054031152, -371826.66, 76274.336, 0.0, 9.998834, 10.000778 
2.0249762e+3, 2.6427612e+2, -653532.8, -583223.56, -50188.125, -0.04435076, 0.07331913, -557102.6, -207005.36, 0.0, 9.998262, 9.99918 
2.0249693e+3, 2.742751e+2, -777334.2, -617657.9, 4695.85, 0.08789316, 0.0632082, -617519.9, -365406.84, 0.0, 9.99685, 9.998952 
2.0249608e+3, 2.8427497e+2, -637739.94, -298370.34, -18638.867, 0.104941465, 0.07348327, -297349.72, -143231.95, 0.0, 9.996269, 10.000751 
2.0249504e+3, 2.9427645e+2, -469287.38, -174280.69, -65231.547, -0.021638209, 0.1359755, -160500.47, -104397.21, 0.0, 9.996787, 10.00068 
2.0249422e+3, 3.0427784e+2, -464245.16, -19421.012, -37417.18, 0.052617643, 0.15871286, -16295.56, -16295.56, 0.0, 9.995925, 10.001833 
2.0249319e+3, 3.1427893e+2, -772044.8, -6775.311, 46620.766, -0.12717755, 0.06603614, -3945.6038, -3945.6038, 0.0, 9.993138, 10.00325 
2.0351025e+3, 1.24305695e+2, -1256220.9, -1720623.6, 17685.766, 0.273799, 0.34132975, -1255548.3, 466278.8, 0.31328797, 10.006017, 9.997063 
2.035092e+3, 1.3430251e+2, -1145375.6, -1609145.0, 13283.647, -0.008658504, 0.2662366, -1144995.5, 478859.75, 0.22578269, 10.005413, 9.997472 
2.0350836e+3, 1.4429899e+2, -1068292.6, -1560669.1, -4843.7856, -0.046580255, 0.17490357, -1068245.0, 457643.06, 0.1358817, 10.004852, 9.99737 
2.0350753e+3, 1.5429617e+2, -1006895.3, -1517627.3, -34506.215, -0.07089637, 0.15685181, -1004574.56, 423341.13, 0.06280852, 10.004375, 9.997222 
2.0350674e+3, 1.6429389e+2, -895885.75, -1303358.6, -59117.824, -0.04390672, 0.16049217, -887482.0, 442455.5, 0.019493168, 10.003814, 9.998294 
2.0350598e+3, 1.742923e+2, -889246.2, -1255562.9, -49356.637, 0.029562648, 0.16389401, -882712.5, 349239.5, 0.0029308582, 10.003147, 9.998267 
2.0350507e+3, 1.8429081e+2, -835551.6, -1131615.1, -114792.46, 0.048038747, 0.17198096, -796258.25, 337707.75, 0.00006041413, 10.002628, 9.998696 
2.0350398e+3, 1.9428961e+2, -786596.2, -1067699.1, -94412.26, 0.0005882119, 0.17827715, -757830.25, 278147.66, 0.0, 10.002335, 9.998605 
2.03503e+3, 2.0428835e+2, -765534.8, -1047599.25, -40622.508, 0.00036441893, 0.21173787, -759800.94, 178190.05, 0.0, 10.001983, 9.9982395 
2.0350218e+3, 2.1428715e+2, -738900.8, -999416.6, -77974.69, 0.06285921, 0.26857, -717345.75, 122658.52, 0.0, 10.001558, 9.998103 
2.0350128e+3, 2.2428553e+2, -674879.9, -785631.5, -123439.46, 0.08649401, 0.24551888, -594964.25, 147055.27, 0.0, 10.000756, 9.999284 
2.0350029e+3, 2.3428348e+2, -763784.7, -779446.8, -89118.14, 0.06056254, 0.10185823, -682154.2, -38117.793, 0.0, 9.999482, 9.999266 
2.034993e+3, 2.442827e+2, -715821.06, -624250.0, -50725.527, 0.020399217, 0.06803644, -601702.56, -55661.04, 0.0, 9.998786, 9.999995 
2.0349835e+3, 2.542838e+2, -612487.44, -528545.94, -78858.34, -0.044061884, 0.17189027, -481184.8, -33155.496, 0.0, 9.998844, 9.999951 
2.0349744e+3, 2.6428407e+2, -560535.7, -393138.2, -100487.21, -0.04550655, 0.18429412, -346057.88, 3966.7695, 0.0, 9.998273, 10.000482 
2.0349658e+3, 2.7428326e+2, -675535.25, -409337.6, -47654.633, 0.049516283, 0.046791423, -401063.63, -149033.08, 0.0, 9.99686, 10.000379 
2.034957e+3, 2.8428277e+2, -701742.5, -432218.53, -4811.6914, 0.07850765, -0.008592752, -432132.66, -278097.1, 0.0, 9.996273, 9.99983 
2.0349473e+3, 2.942834e+2, -523378.9, -293805.63, -43916.543, -0.015799815, 0.07153664, -285691.34, -229658.1, 0.0, 9.996816, 9.999846 
2.0349377e+3, 3.04285e+2, -427835.3, 51572.246, -134474.83, 0.0131318495, 0.12923984, 86716.38, 86716.38, 0.0, 9.995942, 10.002314 
2.0349272e+3, 3.142869e+2, -823020.7, -117992.49, -60970.773, 0.08454833, 0.08387556, -112758.59, -112758.59, 0.0, 9.9931555, 10.002481 
2.0451094e+3, 1.2431406e+2, -1015142.0, -1628805.0, 8645.509, 0.21903534, 0.3255548, -1015020.2, 706724.4, 0.32913408, 10.008787, 9.996662 
2.0450981e+3, 1.3431086e+2, -1006131.06, -1568128.6, -21141.953, -0.010672959, 0.2837504, -1005336.8, 618437.94, 0.23770429, 10.006901, 9.997125 
2.0450889e+3, 1.4430751e+2, -978795.0, -1501149.3, -10489.771, -0.042221356, 0.22321932, -978584.44, 547221.9, 0.14364366, 10.005557, 9.997466 
2.0450804e+3, 1.5430436e+2, -923131.2, -1461368.1, 20321.256, -0.0376878, 0.16090876, -922365.0, 505470.84, 0.06690532, 10.0049515, 9.997332 
2.0450717e+3, 1.6430196e+2, -833505.8, -1270837.3, 23975.947, -0.010258716, 0.14504597, -832195.3, 497663.25, 0.021059506, 10.004247, 9.998313 
2.0450631e+3, 1.7430049e+2, -849801.5, -1236278.0, 15016.111, 0.02902788, 0.16102415, -849219.0, 382653.66, 0.003256253, 10.003419, 9.998269 
2.0450532e+3, 1.8429922e+2, -795097.5, -1110084.9, -59430.727, 0.02077842, 0.18838313, -784257.4, 349627.5, 0.00007088071, 10.002899, 9.998713 
2.0450419e+3, 1.942983e+2, -720993.7, -1032413.25, -85742.56, -0.046528805, 0.22280969, -698947.06, 336946.16, 0.0, 10.002774, 9.998633 
2.0450318e+3, 2.0429686e+2, -750755.8, -1051070.3, -45205.285, -0.023779571, 0.24215654, -744098.8, 193809.03, 0.0, 10.002132, 9.998143 
2.0450234e+3, 2.1429485e+2, -853009.75, -1066116.3, -7946.2803, 0.115339406, 0.22909501, -852713.9, -12784.424, 0.0, 10.000829, 9.997995 
2.0450138e+3, 2.2429314e+2, -737804.1, -784057.2, -15830.787, 0.14014797, 0.19055979, -732904.75, 9040.269, 0.0, 10.000188, 9.999567 
2.0450023e+3, 2.3429196e+2, -606091.56, -669081.4, -30562.152, 0.01634417, 0.1029442, -593700.56, 50251.27, 0.0, 10.000415, 9.999575 
2.0449917e+3, 2.4429147e+2, -608061.06, -605996.8, -16549.36, -0.02989366, 0.09474553, -590447.44, -44493.074, 0.0, 9.999674, 9.99969 
2.0449825e+3, 2.54292e+2, -806980.4, -661343.3, -11506.133, 0.017637115, 0.17996895, -660439.9, -212489.75, 0.0, 9.99768, 9.999598 
2.0449728e+3, 2.6429218e+2, -741043.06, -438475.2, -23973.428, 0.039546017, 0.18108945, -436587.5, -86640.31, 0.0, 9.996858, 10.000851 
2.044963e+3, 2.7429184e+2, -543209.7, -297308.9, -49970.805, 0.046840295, 0.051547997, -287542.0, -35596.3, 0.0, 9.997565, 10.000805 
2.0449534e+3, 2.8429163e+2, -542446.94, -342793.06, -12054.134, 0.045412328, -0.005815847, -342067.94, -188121.16, 0.0, 9.997313, 9.999943 
2.0449434e+3, 2.94292e+2, -665724.56, -345455.06, 34280.28, -0.0154562555, 0.041369542, -341826.94, -285880.13, 0.0, 9.995768, 9.999995 
2.0449331e+3, 3.0429393e+2, -635887.2, -74288.5, -89658.24, 0.023505652, 0.12886249, -60322.05, -60322.05, 0.0, 9.994634, 10.002074 
2.044921e+3, 3.14296e+2, -688133.2, -78925.5, -60152.53, 0.10440837, 0.14066002, -73042.91, -73042.91, 0.0, 9.994199, 10.002243 
2.055115e+3, 1.2432072e+2, -1076889.6, -1710003.9, -47471.215, -0.107109874, 0.092780836, -1073350.0, 648324.4, 0.34730047, 10.008721, 9.995869 
2.0551057e+3, 1.3431834e+2, -1060842.9, -1665806.9, -73007.33, 0.054635067, 0.21080513, -1052157.0, 571545.06, 0.2511463, 10.006863, 9.996375 
2.0550965e+3, 1.4431633e+2, -935502.44, -1395519.1, -32083.965, 0.13974145, 0.28315073, -933275.5, 592446.94, 0.15227471, 10.005531, 9.998338 
2.0550852e+3, 1.5431379e+2, -863309.25, -1326596.3, 1754.3124, -0.0355712, 0.18380976, -863302.6, 564440.8, 0.07144633, 10.004936, 9.998319 
2.0550755e+3, 1.6431162e+2, -846335.25, -1292053.0, -5781.4253, -0.07454223, 0.1451117, -846260.3, 483501.94, 0.022823026, 10.004229, 9.998176 
2.0550668e+3, 1.7430988e+2, -867591.7, -1271993.4, -13874.595, 0.0535587, 0.15538536, -867116.2, 364663.0, 0.0036400405, 10.003411, 9.99803 
2.0550564e+3, 1.8430816e+2, -836123.7, -1192744.8, -65075.965, 0.061747123, 0.17850654, -824619.75, 309176.6, 0.00008593674, 10.002888, 9.998153 
2.0550442e+3, 1.9430669e+2, -764686.6, -1119681.3, -87412.52, -0.083276205, 0.21562563, -744329.8, 291481.7, 0.0, 10.002758, 9.998043 
2.0550334e+3, 2.0430495e+2, -695126.75, -932739.4, -90784.984, -0.07602928, 0.19757362, -664411.0, 273417.2, 0.0, 10.002118, 9.998962 
2.0550244e+3, 2.143029e+2, -789508.56, -932921.7, -54265.258, 0.1306363, 0.08972756, -771289.9, 68556.21, 0.0, 10.00082, 9.998914 
2.0550139e+3, 2.2430159e+2, -756511.0, -821491.44, -10201.605, 0.13479245, 0.05227204, -754947.0, -13090.306, 0.0, 10.000181, 9.999314 
2.0550013e+3, 2.3430137e+2, -630128.6, -718504.8, -19280.215, -0.12196324, 0.09544824, -626105.56, 17750.855, 0.0, 10.000412, 9.999238 
2.0549902e+3, 2.4430099e+2, -601810.6, -592754.3, -86414.1, -0.15006489, 0.1120813, -510749.8, 35109.13, 0.0, 9.999672, 9.999782 
2.0549811e+3, 2.5430048e+2, -799579.3, -644643.2, -85564.734, 0.1158376, 0.07610081, -606687.6, -158823.13, 0.0, 9.997675, 9.999715 
2.0549715e+3, 2.643003e+2, -781938.6, -524293.3, -4866.236, 0.20391001, 0.06378555, -524201.44, -174335.61, 0.0, 9.99686, 10.000261 
2.0549607e+3, 2.7430072e+2, -583361.0, -384944.34, -22313.238, 0.069386326, 0.07745302, -382466.03, -130606.17, 0.0, 9.9975815, 10.000196 
2.0549501e+3, 2.843014e+2, -456436.72, -168994.33, -66789.914, -0.0042610024, 0.08418601, -154233.11, -380.5161, 0.0, 9.997331, 10.001128 
2.0549393e+3, 2.9430225e+2, -581562.75, -175788.75, -23826.29, -0.02786903, 0.048185054, -174394.5, -118549.77, 0.0, 9.995787, 10.001153 
2.0549282e+3, 3.0430433e+2, -713292.0, -232261.58, -118145.83, 0.08569932, 0.14673892, -204810.36, -204810.36, 0.0, 9.994623, 10.000995 
2.0549133e+3, 3.1430557e+2, -700404.5, -119212.6, -33015.867, -0.08459922, 0.18106309, -117343.08, -117343.08, 0.0, 9.9942465, 10.001952 
2.0651223e+3, 1.2433091e+2, -1305872.6, -1835502.9, -1887.1252, -0.12624756, 0.05901168, -1305866.0, 415706.2, 0.36739781, 10.0063305, 9.996118 
2.0651126e+3, 1.3432823e+2, -1125758.3, -1699202.4, 27893.01, 0.09038136, 0.14738087, -1124404.8, 499198.13, 0.26595062, 10.006358, 9.996372 
2.0651026e+3, 1.443266e+2, -918251.1, -1412816.5, 73684.21, 0.19561002, 0.27147347, -907506.5, 618114.06, 0.16176999, 10.00587, 9.998044 
2.0650905e+3, 1.5432414e+2, -905375.3, -1379859.6, 26356.361, -0.0069920523, 0.21419111, -903915.75, 523726.84, 0.076480314, 10.004804, 9.997991 
2.0650794e+3, 1.6432188e+2, -874064.56, -1303787.6, -15010.242, -0.07939161, 0.18407007, -873540.9, 456121.9, 0.024824377, 10.004035, 9.998186 
2.0650698e+3, 1.7431992e+2, -831476.25, -1249206.1, -5079.0947, 0.0071860706, 0.16774316, -831414.5, 400265.9, 0.0041001905, 10.003643, 9.998072 
2.0650591e+3, 1.8431793e+2, -802686.75, -1171415.6, -16580.96, 0.03068188, 0.15891926, -801942.6, 331756.44, 0.000108260756, 10.003096, 9.998198 
2.0650473e+3, 1.9431607e+2, -821647.5, -1142304.4, 5854.5396, -0.026222054, 0.15397516, -821540.7, 214176.64, 0.0, 10.002344, 9.998088 
2.0650358e+3, 2.0431432e+2, -741561.8, -951679.8, -10080.346, -0.008170232, 0.13068123, -741079.3, 196654.36, 0.0, 10.001784, 9.998994 
2.0650254e+3, 2.1431275e+2, -690650.8, -880843.94, -45132.863, 0.10779615, 0.067167856, -680484.25, 159262.72, 0.0, 10.001481, 9.998953 
2.065014e+3, 2.243117e+2, -674898.5, -795429.0, -18011.707, 0.08815828, 0.05940506, -672264.5, 69491.04, 0.0, 10.0008, 9.999195 
2.0650014e+3, 2.3431145e+2, -751557.94, -791289.1, -12802.242, -0.10748644, 0.11324794, -747790.1, -104033.35, 0.0, 9.999642, 9.999107 
2.0649898e+3, 2.4431084e+2, -722405.56, -659202.2, -98647.21, -0.1256539, 0.11727875, -587218.44, -41456.465, 0.0, 9.998882, 9.999706 
2.0649791e+3, 2.5430983e+2, -664019.9, -587761.0, -115993.53, 0.08590673, 0.04099721, -503790.7, -56018.953, 0.0, 9.998643, 9.9996395 
2.0649682e+3, 2.6430959e+2, -618198.75, -449327.4, 10521.86, 0.16163419, 0.027121847, -448674.34, -98900.65, 0.0, 9.998002, 10.000226 
2.0649578e+3, 2.743104e+2, -691569.2, -441235.7, 39161.086, 0.06122508, 0.08461727, -435252.5, -183488.22, 0.0, 9.996857, 10.000161 
2.0649466e+3, 2.8431123e+2, -666122.6, -234713.02, -50986.492, -0.008152614, 0.09427344, -228769.03, -75013.38, 0.0, 9.995744, 10.00144 
2.0649344e+3, 2.9431206e+2, -728466.06, -217893.92, -88276.73, -0.04348334, 0.022847412, -203061.95, -147314.16, 0.0, 9.994662, 10.001403 
2.0649236e+3, 3.0431464e+2, -671402.4, -227519.5, -108026.36, 0.12900585, 0.16937879, -202625.58, -202625.58, 0.0, 9.994984, 10.00085 
2.0649087e+3, 3.1431392e+2, -339518.16, 21033.855, 31202.033, -0.09959252, 0.015166408, 23714.143, 23714.143, 0.0, 9.99687, 10.001651 
2.0751311e+3, 1.2434458e+2, -1272547.1, -1686152.3, -10733.86, 0.114364445, 0.22543022, -1272268.8, 449169.28, 0.38854608, 10.006277, 9.997322 
2.0751187e+3, 1.3434048e+2, -1103637.0, -1606035.0, 28363.428, 0.07661069, 0.09896999, -1102040.9, 521436.88, 0.28168672, 10.006337, 9.997065 
2.0751077e+3, 1.4433828e+2, -1010682.94, -1604492.8, 41375.527, 0.11130538, 0.19821729, -1007813.8, 517687.13, 0.17201744, 10.005863, 9.996589 
2.0750958e+3, 1.543353e+2, -1013078.56, -1611215.8, -8643.775, 0.03755612, 0.24914373, -1012953.7, 414581.03, 0.08203176, 10.004796, 9.996381 
2.075084e+3, 1.6433267e+2, -864585.75, -1280418.1, -29883.648, -0.035568275, 0.2580219, -862449.2, 467111.94, 0.027103037, 10.0040245, 9.998358 
2.0750722e+3, 1.7433055e+2, -810531.25, -1205057.0, -16972.19, -0.116376, 0.19705853, -809802.44, 421774.47, 0.0046564634, 10.003639, 9.99838 
2.0750614e+3, 1.8432844e+2, -758777.4, -1079194.8, -43097.438, -0.07938198, 0.1289952, -753081.8, 380512.1, 0.00014131474, 10.003089, 9.998836 
2.075051e+3, 1.9432639e+2, -777057.5, -1048088.25, -19986.238, 0.11455707, 0.03889111, -775591.6, 260019.81, 0.0000000002137382, 10.002335, 9.998741 
2.0750396e+3, 2.043249e+2, -796846.44, -1063969.3, -22220.45, 0.16833726, 0.04352074, -795010.7, 142614.72, 0.0, 10.001772, 9.99823 
2.0750262e+3, 2.1432427e+2, -754236.25, -1009827.06, -53896.746, 0.039896876, 0.16015261, -743335.8, 96297.34, 0.0, 10.001467, 9.9980755 
2.075014e+3, 2.2432333e+2, -675506.75, -794459.56, -59114.266, -0.0069564036, 0.21069704, -651126.5, 90516.1, 0.0, 10.000791, 9.999206 
2.0750026e+3, 2.3432209e+2, -749128.4, -783210.56, -53685.324, 0.05109979, 0.15731461, -709844.44, -66190.76, 0.0, 9.99963, 9.999169 
2.0749903e+3, 2.4432093e+2, -740762.7, -697033.1, -110446.8, 0.03206886, 0.11346919, -606307.6, -60643.297, 0.0, 9.998879, 9.999449 
2.0749758e+3, 2.5432003e+2, -682225.06, -628161.56, -124175.89, -0.08413792, 0.07719723, -528109.2, -80436.4, 0.0, 9.9986515, 9.999358 
2.0749639e+3, 2.6431996e+2, -581066.94, -375988.9, -31910.514, -0.096064255, 0.07369779, -371138.3, -21466.512, 0.0, 9.998016, 10.000723 
2.0749544e+3, 2.7432078e+2, -651601.94, -361232.4, -3168.0476, 0.017102437, 0.07322137, -361197.84, -109537.63, 0.0, 9.996868, 10.000706 
2.0749426e+3, 2.8432095e+2, -708995.0, -325476.34, -95131.68, 0.023579868, 0.017934183, -303175.7, -149517.73, 0.0, 9.9957485, 10.000815 
2.0749284e+3, 2.9432112e+2, -776531.3, -322644.88, -131016.36, -0.08757104, -0.048126172, -287541.3, -231881.89, 0.0, 9.994679, 10.000677 
2.0749189e+3, 3.0432492e+2, -609417.4, -102891.08, -41045.89, 0.15994245, 0.21915603, -99586.516, -99586.516, 0.0, 9.995004, 10.001695 
2.0749067e+3, 3.1432363e+2, -345156.25, -876.4827, 5539.038, -0.005776076, -0.08352046, -787.38947, -787.38947, 0.0, 9.996914, 10.001479 
2.0851365e+3, 1.2435688e+2, -1235588.1, -1641537.4, 27325.453, 0.00091232127, 0.17375638, -1233757.1, 487557.28, 0.40960965, 10.00674, 9.997628 
2.0851246e+3, 1.3435309e+2, -1065401.5, -1596143.3, 23823.04, -0.014374182, 0.09374789, -1064334.4, 559016.2, 0.29777762, 10.006909, 9.996888 
2.0851132e+3, 1.4435048e+2, -957196.44, -1586604.0, 9478.548, 0.069018744, 0.16870664, -957053.7, 568324.0, 0.18284136, 10.006449, 9.996426 
2.0851009e+3, 1.5434706e+2, -973532.94, -1607520.0, 50937.063, 0.041338872, 0.191711, -969466.56, 457949.47, 0.088109106, 10.005197, 9.996214 
2.0850883e+3, 1.6434418e+2, -821838.4, -1266342.3, 110646.0, -0.0194816, 0.1891846, -795819.4, 533625.5, 0.029699383, 10.004368, 9.998293 
2.085076e+3, 1.7434214e+2, -747700.5, -1181522.9, 98926.48, -0.13586304, 0.14306742, -726206.75, 505253.06, 0.005331501, 10.004104, 9.998319 
2.0850642e+3, 1.8434009e+2, -727327.3, -1107817.3, 4328.107, -0.10716211, 0.103785634, -727278.06, 406198.84, 0.00018959571, 10.003492, 9.998445 
2.0850535e+3, 1.943381e+2, -789609.9, -1098571.8, -56498.03, 0.11308577, 0.06020977, -779602.5, 255893.34, 0.000000020895914, 10.002443, 9.99834 
2.0850416e+3, 2.043364e+2, -780781.6, -1062543.6, -44966.047, 0.1700486, 0.06713681, -773779.56, 163732.64, 0.0, 10.001915, 9.998168 
2.0850275e+3, 2.1433519e+2, -668659.7, -972611.6, -14472.535, 0.013053418, 0.12995374, -667972.1, 171551.75, 0.0, 10.002075, 9.998035 
2.0850146e+3, 2.2433394e+2, -620840.75, -800344.7, -47322.508, -0.024795458, 0.16423433, -609129.25, 132406.97, 0.0, 10.001304, 9.998918 
2.0850027e+3, 2.3433268e+2, -814511.3, -849397.0, -77814.85, 0.094073854, 0.1414696, -752208.3, -108659.31, 0.0, 9.999329, 9.99886 
2.0849892e+3, 2.4433145e+2, -824002.2, -733937.06, -81428.586, 0.090304926, 0.106878206, -685918.3, -140357.66, 0.0, 9.998294, 9.999477 
2.0849746e+3, 2.5433046e+2, -699546.6, -629828.8, -67538.64, -0.06911596, 0.053381704, -588683.7, -141114.61, 0.0, 9.998505, 9.999418 
2.0849617e+3, 2.6433048e+2, -600274.94, -384192.56, -26394.24, -0.09883342, 0.056228675, -381015.25, -31448.213, 0.0, 9.997883, 10.000729 
2.084951e+3, 2.7433163e+2, -751554.56, -410037.53, -45929.7, 0.031596094, 0.09220606, -403968.4, -152415.03, 0.0, 9.996188, 10.000695 
2.0849384e+3, 2.8433177e+2, -774719.9, -358370.9, -102836.28, 0.038445767, 0.032675803, -334356.0, -180804.03, 0.0, 9.995302, 10.000807 
2.0849234e+3, 2.9433143e+2, -672977.44, -274913.8, -86458.26, -0.093745716, -0.08115285, -256946.33, -201389.13, 0.0, 9.995397, 10.000662 
2.0849136e+3, 3.0433518e+2, -623007.25, -87655.39, 39367.09, 0.13802195, 0.17383134, -84776.016, -84776.016, 0.0, 9.99481, 10.001897 
2.0849028e+3, 3.1433558e+2, -794420.94, -116642.97, -8763.058, 0.10106991, 0.012842731, -116529.69, -116529.69, 0.0, 9.993395, 10.002381 
2.0951384e+3, 1.243681e+2, -1282091.3, -1696112.3, 30982.72, -0.48160002, -0.060129248, -1279785.5, 441412.72, 0.42961934, 10.006656, 9.997047 
2.0951296e+3, 1.34366e+2, -1133821.4, -1739607.4, 29654.764, -0.19194219, 0.13096227, -1132373.3, 490848.66, 0.313764, 10.00685, 9.995859 
2.0951197e+3, 1.4436312e+2, -907633.0, -1449316.1, -26503.451, 0.055041403, 0.18172587, -906339.3, 618912.1, 0.1941297, 10.006411, 9.997513 
2.0951055e+3, 1.5435934e+2, -898555.2, -1426442.1, 7812.2485, -0.0053025438, 0.044417106, -898439.56, 528847.6, 0.09474792, 10.005187, 9.99746 
2.0950925e+3, 1.6435638e+2, -846613.44, -1313504.5, 98085.49, -0.042231414, -0.016656645, -826844.44, 502470.13, 0.032667264, 10.004358, 9.997968 
2.0950808e+3, 1.7435463e+2, -780440.0, -1246858.0, 90237.195, -0.06185305, 0.008624393, -763590.6, 467739.25, 0.0061559905, 10.004092, 9.997877 
2.0950681e+3, 1.8435284e+2, -827111.6, -1312972.1, -33109.12, -0.06289816, 0.08511116, -824865.75, 308483.2, 0.0002604527, 10.003481, 9.997044 
2.0950544e+3, 1.9435114e+2, -893341.1, -1313625.5, -93374.83, -0.037052203, 0.2158133, -873529.8, 161841.67, 0.00000016154512, 10.0024395, 9.996867 
2.0950416e+3, 2.0434871e+2, -735818.0, -968584.8, -41410.95, -0.008836697, 0.19879146, -728670.2, 208725.1, 0.0, 10.00191, 9.9988165 
2.0950298e+3, 2.1434544e+2, -614569.9, -858320.8, -4880.8677, 0.01990574, -0.022167983, -614472.2, 224947.67, 0.0, 10.002064, 9.998828 
2.0950165e+3, 2.2434343e+2, -664993.4, -889640.3, -115722.12, 0.028047841, -0.078214, -616046.3, 125390.7, 0.0, 10.001293, 9.998311 
2.0950012e+3, 2.3434314e+2, -866268.8, -954676.44, -149924.22, 0.012146987, 0.065990515, -754167.6, -110723.836, 0.0, 9.999318, 9.998144 
2.094987e+3, 2.4434233e+2, -801767.4, -687416.94, -79631.06, 0.04060408, 0.0971256, -646560.94, -101108.7, 0.0, 9.998293, 9.999797 
2.0949751e+3, 2.5434095e+2, -671346.6, -572320.2, -58065.71, 0.123378724, -0.031354103, -545523.6, -98061.8, 0.0, 9.998509, 9.99981 
2.0949619e+3, 2.64341e+2, -635469.6, -459557.03, -87474.3, 0.14544895, -0.025313418, -423464.7, -74003.99, 0.0, 9.997891, 10.000208 
2.0949477e+3, 2.7434286e+2, -790683.1, -495307.44, -109493.3, 0.094080545, 0.13865277, -459146.22, -207700.64, 0.0, 9.996204, 10.000102 
2.0949335e+3, 2.8434363e+2, -730088.94, -268713.22, -106379.1, 0.030584643, 0.14676948, -245366.81, -91928.375, 0.0, 9.995315, 10.001415 
2.0949192e+3, 2.943431e+2, -620992.1, -169636.8, -83060.06, -0.06240141, -0.05594792, -154837.06, -99396.79, 0.0, 9.995407, 10.00138 
2.0949075e+3, 3.0434495e+2, -651485.56, -150862.05, -13082.459, 0.041909363, -0.0070322305, -150520.4, -150520.4, 0.0, 9.994826, 10.001456 
2.0948978e+3, 3.1434727e+2, -635747.94, 204854.86, -48212.77, 0.23713388, 0.071264416, 207611.06, 207611.06, 0.0, 9.993429, 10.004573 
2.1051438e+3, 1.2438064e+2, -1376810.6, -1689616.9, -15415.773, -0.53991115, -0.053695973, -1376052.8, 345022.13, 0.4482529, 10.005305, 9.997781 
2.1051359e+3, 1.3437898e+2, -1286610.6, -1762689.4, 65602.125, -0.1534003, 0.10572686, -1277736.3, 345355.7, 0.32958186, 10.005061, 9.996579 
2.1051258e+3, 1.4437594e+2, -1070735.4, -1517090.6, 25657.32, 0.08505447, 0.099371806, -1069265.4, 455856.63, 0.2059608, 10.005043, 9.997591 
2.1051098e+3, 1.5437254e+2, -904814.7, -1425022.4, -21120.59, -0.08275496, -0.001982844, -903958.56, 523195.63, 0.10205367, 10.00516, 9.997484 
2.1050961e+3, 1.643698e+2, -818429.94, -1330952.3, 18273.03, -0.12809354, -0.027318638, -817779.25, 511401.03, 0.03608414, 10.004714, 9.997671 
2.105085e+3, 1.7436811e+2, -872576.8, -1325175.4, 15357.703, -0.0363001, 0.035292562, -872056.3, 359140.47, 0.0071720355, 10.003606, 9.997571 
2.105072e+3, 1.8436603e+2, -876566.4, -1346903.3, -40743.97, -0.00794422, 0.101775, -873062.9, 260156.16, 0.0003659938, 10.00319, 9.996948 
2.1050571e+3, 1.9436353e+2, -717433.75, -1239385.1, 186.14104, -0.058777906, 0.16352308, -717433.7, 317814.06, 0.00000091193453, 10.003695, 9.996772 
2.1050437e+3, 2.0436089e+2, -562726.9, -904300.9, 60347.74, -0.042114794, 0.13696182, -552378.4, 384895.1, 0.0, 10.0031805, 9.998646 
2.105032e+3, 2.1435808e+2, -728557.8, -932107.56, 19062.217, 0.061753806, -0.020829635, -726788.06, 112506.875, 0.0, 10.001365, 9.998656 
2.105018e+3, 2.2435598e+2, -769615.9, -951998.06, -105008.305, 0.08462167, -0.07077296, -721729.44, 19583.55, 0.0, 10.000628, 9.998202 
2.1050015e+3, 2.3435491e+2, -588796.7, -831557.3, -94104.07, 0.0076833544, 0.0074924417, -556590.7, 86735.12, 0.0, 10.001272, 9.998046 
2.1049866e+3, 2.4435398e+2, -462635.78, -547282.8, -23504.805, 0.02262637, 0.0393421, -456546.94, 88788.51, 0.0, 10.000723, 9.999588 
2.104974e+3, 2.5435323e+2, -666108.4, -595337.9, -51530.59, 0.15430091, -0.0067314194, -568213.0, -120872.414, 0.0, 9.998655, 9.999582 
2.10496e+3, 2.6435304e+2, -753415.3, -538980.25, -102401.78, 0.18392181, 0.0015434457, -497935.47, -148593.16, 0.0, 9.997177, 10.000009 
2.1049441e+3, 2.7435383e+2, -763696.9, -504151.72, -96605.22, 0.08592034, 0.07841674, -472142.06, -220804.13, 0.0, 9.99648, 9.999912 
2.104929e+3, 2.8435475e+2, -626585.94, -179650.27, -50059.805, 0.014239612, 0.09487892, -174111.86, -20783.492, 0.0, 9.995855, 10.001768 
2.1049148e+3, 2.9435557e+2, -613353.06, -124761.39, -51391.22, -0.02830976, -0.013914213, -119414.45, -64099.76, 0.0, 9.995282, 10.001749 
2.1049021e+3, 3.0435568e+2, -728512.94, -221876.06, -25649.33, 0.049012948, -0.13980317, -220580.83, -220580.83, 0.0, 9.994447, 10.001149 
2.104891e+3, 3.1435895e+2, -652329.5, 185774.42, -32706.656, 0.21504308, 0.068409525, 187048.84, 187048.84, 0.0, 9.993373, 10.004466 
2.1151523e+3, 1.2439432e+2, -1321097.5, -1542995.8, -31921.365, -0.22938462, 0.16413364, -1316596.8, 404349.03, 0.4661482, 10.005231, 9.999714 
2.1151432e+3, 1.3439202e+2, -1188100.4, -1486630.5, 55327.28, 0.071958534, 0.020426016, -1178176.3, 444784.38, 0.3457376, 10.005024, 9.998961 
2.1151313e+3, 1.4438894e+2, -1133483.0, -1658863.3, 29997.791, 0.1419748, -0.068334624, -1131775.8, 393213.44, 0.2186713, 10.00502, 9.996621 
2.1151137e+3, 1.5438658e+2, -984271.56, -1598447.0, -16536.123, -0.20102847, 0.05029052, -983826.6, 443190.88, 0.11022182, 10.005154, 9.996298 
2.1150991e+3, 1.6438435e+2, -839499.4, -1369690.0, -18661.854, -0.2871759, 0.15120998, -838843.3, 490199.13, 0.04005944, 10.0047035, 9.997411 
2.1150881e+3, 1.7438252e+2, -886124.75, -1351428.3, -23757.846, -0.067297146, 0.21824633, -884914.9, 346146.1, 0.008436758, 10.0036, 9.997394 
2.1150757e+3, 1.8437956e+2, -794972.56, -1176715.9, -24920.713, 0.04934094, 0.1512839, -793352.56, 339735.5, 0.00052568427, 10.003184, 9.998121 
2.115062e+3, 1.9437525e+2, -629909.75, -1056665.8, 21986.041, 0.03829473, -0.09469823, -628780.06, 406345.34, 0.0000034897541, 10.003688, 9.998031 
2.1150479e+3, 2.0437287e+2, -634616.9, -1051471.6, -1971.012, 0.061599787, -0.11529704, -634607.56, 302540.06, 0.0, 10.003169, 9.9976425 
2.1150339e+3, 2.1437298e+2, -812119.5, -1103524.6, -46615.89, 0.12713373, 0.13502945, -804844.06, 34306.176, 0.0, 10.001353, 9.997487 
2.1150191e+3, 2.2437143e+2, -742075.8, -893666.44, -86145.74, 0.1358167, 0.18420221, -703127.9, 38037.707, 0.0, 10.000622, 9.998606 
2.1150032e+3, 2.3436792e+2, -552119.3, -755893.1, -67524.42, 0.07185268, -0.034380868, -531774.94, 111421.24, 0.0, 10.001274, 9.998565 
2.1149874e+3, 2.4436627e+2, -513882.88, -656144.06, -96052.64, 0.027791353, -0.06546638, -465490.78, 79720.6, 0.0, 10.000731, 9.998837 
2.1149711e+3, 2.5436705e+2, -725651.75, -721233.9, -129167.62, 0.013643067, 0.12777162, -594256.3, -147049.73, 0.0, 9.998663, 9.998714 
2.1149553e+3, 2.643665e+2, -743147.7, -520039.28, -133648.66, 0.0070009595, 0.14069515, -457506.44, -108293.78, 0.0, 9.997187, 10.000134 
2.1149397e+3, 2.743645e+2, -745567.0, -469961.38, -121813.31, -0.0062170676, -0.08407817, -423840.03, -172609.11, 0.0, 9.996493, 10.00014 
2.1149245e+3, 2.8436497e+2, -616876.0, -165270.9, -72818.234, -0.022534816, -0.12971042, -153819.83, -596.778, 0.0, 9.995876, 10.001858 
2.1149103e+3, 2.9436845e+2, -608248.56, -123905.92, -71193.16, 0.0005242719, 0.020051211, -113658.12, -58474.617, 0.0, 9.995319, 10.001738 
2.1148977e+3, 3.0436772e+2, -746360.44, -260599.25, -72938.82, 0.15483937, -0.17897297, -249883.61, -249883.61, 0.0, 9.994457, 10.000876 
2.1148828e+3, 3.1437176e+2, -836585.7, -204460.44, -15194.203, 0.07115627, 0.14198801, -204095.42, -204095.42, 0.0, 9.9934, 10.001776 
2.1251582e+3, 1.2440838e+2, -1430694.9, -1636924.4, 88748.26, -0.11203185, 0.10097423, -1397762.1, 323041.63, 0.48490533, 10.004299, 9.999 
2.1251479e+3, 1.3440606e+2, -1265520.9, -1545754.0, 70697.68, 0.064254746, -0.011553699, -1248695.4, 374125.7, 0.36331084, 10.004466, 9.998636 
2.1251352e+3, 1.4440316e+2, -1187125.5, -1686129.5, 3798.0806, 0.06426034, -0.06432418, -1187096.6, 337752.5, 0.23285325, 10.004599, 9.996633 
2.1251194e+3, 1.544009e+2, -1029776.3, -1610694.1, 33766.75, -0.13895203, 0.058234576, -1027820.1, 399056.6, 0.11953954, 10.004797, 9.996383 
2.1251047e+3, 1.6439857e+2, -867205.94, -1386857.9, 55616.55, -0.19271976, 0.14371413, -861320.2, 467582.75, 0.044742517, 10.004544, 9.997369 
2.1250919e+3, 1.743963e+2, -851114.0, -1342677.3, 57134.438, -0.082434185, 0.17585996, -844560.6, 386364.94, 0.010030171, 10.003885, 9.997316 
2.1250786e+3, 1.8439338e+2, -761186.56, -1135393.1, 60087.055, 0.0044765025, 0.106123574, -751775.0, 381176.88, 0.0007715085, 10.003312, 9.9983425 
2.1250655e+3, 1.9438963e+2, -736514.2, -1081665.9, 29938.314, 0.06487723, -0.10522675, -733936.56, 301046.06, 0.000010944595, 10.002846, 9.998262 
2.1250513e+3, 2.0438734e+2, -735632.4, -1138644.0, -40271.01, 0.0968192, -0.11055845, -731647.7, 205356.38, 0.0, 10.002645, 9.997294 
2.1250357e+3, 2.1438703e+2, -633083.75, -1061147.0, -31411.564, 0.08962013, 0.13613728, -630791.0, 208221.6, 0.0, 10.002775, 9.997091 
2.12502e+3, 2.243854e+2, -519869.2, -779543.75, -36814.14, 0.09571952, 0.19227111, -514750.9, 226278.5, 0.0, 10.002121, 9.998666 
2.1250047e+3, 2.343821e+2, -663322.1, -799806.3, -52298.477, 0.116792545, -0.011497479, -645586.8, -2530.55, 0.0, 10.00047, 9.998649 
2.124988e+3, 2.443802e+2, -734619.94, -811331.4, -109037.98, 0.0960636, -0.051798448, -657388.3, -112314.45, 0.0, 9.999428, 9.998399 
2.1249703e+3, 2.5438017e+2, -688863.94, -756124.4, -117612.05, 0.032422632, 0.10770213, -600168.44, -153089.83, 0.0, 9.999145, 9.998241 
2.1249531e+3, 2.6437944e+2, -546305.94, -413504.22, -95105.6, 0.003978373, 0.12194508, -363913.06, -14826.288, 0.0, 9.99849, 10.0002365 
2.1249366e+3, 2.7437788e+2, -618980.94, -391683.9, -91338.516, -0.0048985756, -0.07353367, -359528.75, -108429.805, 0.0, 9.9972925, 10.000289 
2.1249203e+3, 2.8437823e+2, -624219.44, -179163.73, -53162.133, -0.019990262, -0.13127713, -172901.61, -19810.453, 0.0, 9.995875, 10.00176 
2.1249056e+3, 2.943814e+2, -760455.1, -212766.27, -65282.164, 0.027005326, 0.0023008836, -205092.44, -150037.4, 0.0, 9.9943495, 10.001593 
2.1248923e+3, 3.043814e+2, -817606.0, -320408.3, -41938.01, 0.19378641, -0.10542382, -316895.72, -316895.72, 0.0, 9.994073, 10.000654 
2.1248765e+3, 3.1438506e+2, -742249.6, -214592.72, 7284.4614, 0.050268687, 0.19646929, -214492.17, -214492.17, 0.0, 9.994279, 10.001284 
2.1351498e+3, 1.3442105e+2, -1401699.1, -1921166.9, 91595.05, -0.18003446, 0.013960871, -1386021.9, 236651.78, 0.38358548, 10.004497, 9.995773 
2.1351378e+3, 1.444185e+2, -1143550.5, -1545750.8, 10214.337, -0.15537132, 0.1047229, -1143291.3, 381411.25, 0.24914299, 10.004595, 9.9976 
2.1351264e+3, 1.5441543e+2, -957802.0, -1423760.9, 39657.367, 0.08715752, 0.021548212, -954450.94, 472281.5, 0.13031703, 10.004778, 9.997678 
2.1351126e+3, 1.6441238e+2, -862850.06, -1368250.8, 32379.389, 0.13416477, -0.042161953, -860784.06, 467978.03, 0.05031748, 10.004528, 9.997504 
2.1350954e+3, 1.744094e+2, -850592.44, -1340812.5, 34851.668, -0.09111566, -0.08428077, -848127.1, 382663.84, 0.0120638795, 10.003887, 9.997329 
2.1350802e+3, 1.8440738e+2, -813169.2, -1244557.1, 43086.176, -0.14777757, -0.029012537, -808907.9, 323903.22, 0.0011542491, 10.003315, 9.997593 
2.1350679e+3, 1.9440654e+2, -792168.44, -1197396.3, 15121.574, 0.014580106, 0.12900583, -791604.94, 243215.64, 0.000030850606, 10.002845, 9.997469 
2.1350534e+3, 2.0440422e+2, -715037.56, -1095156.0, -35660.215, 0.056674868, 0.14641057, -711721.1, 225122.73, 0.0, 10.00264, 9.997597 
2.1350369e+3, 2.1440014e+2, -606669.8, -1006499.2, -23205.553, -0.0557496, -0.019262545, -605327.5, 233555.72, 0.0, 10.002773, 9.997468 
2.1350208e+3, 2.2439772e+2, -541815.56, -823975.2, -94134.94, -0.040193688, -0.046869274, -513293.2, 227612.5, 0.0, 10.002114, 9.998364 
2.1350051e+3, 2.3439737e+2, -690134.2, -853726.44, -112544.74, 0.13527545, 0.078261554, -632801.1, 10105.825, 0.0, 10.000461, 9.998284 
2.1349888e+3, 2.4439564e+2, -743889.44, -830425.0, -123449.23, 0.22086152, 0.08175189, -656345.06, -111421.31, 0.0, 9.999426, 9.99827 
2.1349712e+3, 2.5439242e+2, -692708.06, -768362.8, -126534.125, 0.20363744, -0.06797435, -598468.06, -151510.1, 0.0, 9.999161, 9.998152 
2.1349534e+3, 2.6439166e+2, -538622.2, -400856.3, -139599.84, 0.16810465, -0.05774156, -314069.8, 34896.21, 0.0, 9.998505, 10.000317 
2.1349348e+3, 2.7439374e+2, -611261.94, -381800.34, -138371.42, 0.08345801, 0.10765259, -316781.84, -65838.37, 0.0, 9.997317, 10.000346 
2.1349168e+3, 2.8439447e+2, -644632.5, -226016.34, -115149.97, 0.015720643, 0.09705763, -196432.42, -43498.85, 0.0, 9.995894, 10.001428 
2.1349e+3, 2.9439446e+2, -780115.1, -255707.11, -116890.695, 0.040969964, -0.05348572, -230832.08, -175902.22, 0.0, 9.994356, 10.001294 
2.134886e+3, 3.0439645e+2, -815448.6, -317090.88, -18055.145, 0.15608603, 0.05538634, -316437.6, -316437.6, 0.0, 9.994078, 10.000675 
2.1348703e+3, 3.1439584e+2, -611017.8, 51388.27, -55586.367, 0.002522929, -0.07471833, 56020.453, 56020.453, 0.0, 9.994312, 10.003091 
2.1451558e+3, 1.3443674e+2, -1098351.1, -1704826.9, 99901.164, -0.22677958, -0.025754549, -1082318.8, 540200.56, 0.40699646, 10.008209, 9.995499 
2.1451424e+3, 1.4443438e+2, -1065018.3, -1473934.9, 117974.15, -0.2012483, 0.0874463, -1033423.4, 491123.3, 0.2676787, 10.005284, 9.997884 
2.1451311e+3, 1.54432e+2, -1012822.8, -1417649.8, 116450.13, 0.0992444, 0.038949374, -981715.75, 444854.72, 0.14270084, 10.00423, 9.998015 
2.1451172e+3, 1.6442913e+2, -941484.9, -1402032.3, 90854.18, 0.16243823, -0.026052972, -924209.6, 404388.28, 0.056966405, 10.003962, 9.997548 
2.1450996e+3, 1.7442568e+2, -767596.6, -1298715.3, 92239.02, -0.09910499, -0.11677159, -752033.56, 478596.2, 0.014684631, 10.004474, 9.997334 
2.145084e+3, 1.8442349e+2, -661463.2, -1204620.3, 101918.27, -0.17462192, -0.06267352, -642968.94, 489682.47, 0.0017514924, 10.00451, 9.997289 
2.145071e+3, 1.9442295e+2, -650143.25, -1166083.0, 105741.92, -0.009891328, 0.15760122, -629312.44, 405347.47, 0.00008036173, 10.003983, 9.997136 
2.1450564e+3, 2.0442052e+2, -592427.25, -1017915.25, 78887.09, 0.04341489, 0.17582777, -578272.2, 358411.88, 0.000000018813253, 10.003408, 9.997755 
2.1450397e+3, 2.1441583e+2, -591488.56, -979170.3, 73457.625, -0.048696138, -0.06860852, -578036.6, 260690.3, 0.0, 10.002794, 9.997644 
2.1450229e+3, 2.2441313e+2, -562573.4, -879676.94, -40097.176, -0.034194816, -0.11384802, -557581.75, 183169.98, 0.0, 10.002168, 9.997957 
2.145006e+3, 2.3441297e+2, -568494.9, -844167.8, -68492.016, 0.11601228, 0.074053094, -552415.6, 90337.98, 0.0, 10.00151, 9.997845 
2.1449885e+3, 2.4441123e+2, -567641.44, -741884.25, -57812.12, 0.20895816, 0.098908246, -550204.8, -5433.9126, 0.0, 10.000621, 9.998302 
2.1449707e+3, 2.544077e+2, -648694.0, -739125.8, -49411.918, 0.23268536, -0.085484944, -626932.2, -180126.27, 0.0, 9.999429, 9.998222 
2.144952e+3, 2.6440662e+2, -598334.2, -492326.7, -88524.375, 0.19649076, -0.08421966, -442151.16, -93334.19, 0.0, 9.998362, 9.999759 
2.1449319e+3, 2.7440846e+2, -636358.5, -461695.75, -141329.39, 0.07549098, 0.11409378, -382892.34, -132092.88, 0.0, 9.997435, 9.9997425 
2.1449128e+3, 2.84409e+2, -602877.8, -226519.58, -152065.63, 0.019263873, 0.12677252, -172757.92, -19965.11, 0.0, 9.996268, 10.001246 
2.144895e+3, 2.9440874e+2, -721944.94, -236979.56, -136493.16, 0.07802721, -0.03300761, -201202.95, -146411.03, 0.0, 9.994794, 10.001213 
2.1448798e+3, 3.044111e+2, -900913.8, -299081.9, 25609.068, 0.17716368, 0.08685521, -297994.16, -297994.16, 0.0, 9.99323, 10.001209 
2.144864e+3, 3.1440878e+2, -961225.8, -23824.564, 1639.2068, 0.08740782, -0.26471516, -23821.7, -23821.7, 0.0, 9.991527, 10.003906 
2.1551652e+3, 1.3445315e+2, -1047322.06, -1497642.1, 20929.27, -0.10011007, -0.13038397, -1046351.44, 576006.75, 0.43217334, 10.008079, 9.99757 
2.1551484e+3, 1.4445084e+2, -1098975.5, -1521994.3, 70769.58, -0.103792794, -0.10137667, -1087450.0, 436931.7, 0.28775284, 10.005281, 9.997461 
2.1551333e+3, 1.5445049e+2, -1053552.4, -1503380.0, 87214.805, -0.10212667, 0.11023488, -1037234.75, 389157.06, 0.15656865, 10.00425, 9.997401 
2.1551184e+3, 1.6444862e+2, -948105.9, -1411602.5, 107460.016, -0.10125805, 0.18352164, -924403.75, 404008.03, 0.064848855, 10.003969, 9.997482 
2.155104e+3, 1.7444493e+2, -770728.44, -1301344.4, 113219.6, -0.11305228, 0.06956066, -747580.2, 482863.28, 0.018082013, 10.004469, 9.997319 
2.1550894e+3, 1.8444155e+2, -656830.1, -1190921.8, 85142.625, -0.08942587, 0.0013321649, -643585.5, 488888.47, 0.0026809594, 10.004495, 9.997391 
2.1550749e+3, 1.9443874e+2, -642543.06, -1149074.5, 88814.7, -0.01603015, -0.018076496, -627421.8, 407079.7, 0.00019723277, 10.003976, 9.997256 
2.1550599e+3, 2.0443617e+2, -595148.9, -1022749.4, 56412.08, 0.049260437, -0.01824989, -587831.8, 348693.63, 0.0000007869328, 10.003402, 9.997726 
2.1550442e+3, 2.1443397e+2, -595748.6, -986495.4, 52931.734, 0.10104563, -0.010586705, -588705.3, 249839.48, 0.0, 10.002785, 9.9976 
2.1550266e+3, 2.2443147e+2, -599985.9, -956014.56, -63913.71, 0.10414591, -0.009133961, -588859.9, 151708.88, 0.0, 10.00216, 9.9974375 
2.1550068e+3, 2.344287e+2, -605179.1, -922539.75, -91515.6, 0.050227422, -0.026332533, -580680.44, 61917.035, 0.0, 10.001516, 9.997305 
2.1549876e+3, 2.4442677e+2, -553917.94, -713757.94, -102779.6, 0.05063322, -0.0027098262, -503642.5, 40974.09, 0.0, 10.000622, 9.998494 
2.154969e+3, 2.544259e+2, -631116.44, -704764.4, -93987.06, 0.11013267, 0.0548046, -566996.94, -120373.42, 0.0, 9.999435, 9.998456 
2.1549492e+3, 2.6442426e+2, -679954.3, -664768.06, -125368.87, 0.078848064, 0.041602712, -546762.56, -198121.94, 0.0, 9.998374, 9.9985695 
2.1549283e+3, 2.744218e+2, -722766.25, -645354.44, -176029.11, -0.044578303, -0.05855589, -503826.06, -253157.72, 0.0, 9.997452, 9.998475 
2.1549086e+3, 2.8442165e+2, -601032.94, -226303.86, -208367.28, -0.018104846, -0.047622465, -133449.92, 19220.408, 0.0, 9.996284, 10.001242 
2.1548904e+3, 2.9442415e+2, -708194.5, -216001.39, -189043.63, 0.13720876, 0.056944445, -151773.9, -97131.46, 0.0, 9.994823, 10.001345 
2.1548736e+3, 3.044252e+2, -832623.6, -159443.13, -44823.395, 0.23431621, -0.008742179, -156471.7, -156471.7, 0.0, 9.993237, 10.002166 
2.1548565e+3, 3.1442624e+2, -989848.94, -92180.27, -16859.77, 0.16046798, -0.1236713, -91863.73, -91863.73, 0.0, 9.991553, 10.00343 
2.1651706e+3, 1.3447182e+2, -1441036.4, -1560585.8, 82272.79, -0.096540354, -0.11447618, -1399116.4, 223059.8, 0.45695698, 10.002459, 9.999553 
2.1651548e+3, 1.4447068e+2, -1057154.4, -1575402.6, 106671.15, -0.053633668, -0.042399216, -1036057.06, 488129.16, 0.30832198, 10.0062065, 9.996674 
2.1651381e+3, 1.5446892e+2, -911780.0, -1533419.4, 90616.42, -0.12851436, 0.130712, -898840.2, 527373.06, 0.17166984, 10.005989, 9.996352 
2.1651231e+3, 1.6446662e+2, -718865.9, -1265913.0, 126543.69, -0.12367975, 0.20547354, -691011.9, 637226.56, 0.07411869, 10.005573, 9.997736 
2.1651097e+3, 1.744637e+2, -667422.06, -1211237.0, 159310.02, -0.030678257, 0.13394324, -624189.4, 606071.25, 0.022498326, 10.005039, 9.997671 
2.1650948e+3, 1.8446022e+2, -675381.44, -1215956.8, 120211.74, 0.006314625, 0.04441407, -649854.5, 482436.28, 0.0041168327, 10.004439, 9.997248 
2.1650787e+3, 1.9445623e+2, -679660.3, -1187681.8, 97548.1, -0.023313653, -0.072257586, -661573.5, 372755.47, 0.00045329655, 10.00381, 9.997071 
2.1650627e+3, 2.044534e+2, -623861.3, -1052341.8, 53322.984, 0.014250748, -0.08510417, -617325.2, 319030.38, 0.000007502901, 10.003271, 9.997586 
2.1650471e+3, 2.1445195e+2, -596464.75, -1002174.0, 39863.734, 0.13231526, 0.013865798, -592585.0, 245782.66, 0.0, 10.002847, 9.997462 
2.165029e+3, 2.2444938e+2, -578188.25, -990714.7, -70982.75, 0.12883809, 0.03410468, -566316.0, 174076.77, 0.0, 10.002509, 9.997029 
2.165008e+3, 2.344455e+2, -524418.4, -931378.7, -92138.92, -0.01910519, -0.051720638, -504529.4, 137903.75, 0.0, 10.00228, 9.996874 
2.1649875e+3, 2.4444321e+2, -476241.53, -689961.8, -150630.69, -0.044378858, -0.03567554, -398416.28, 146039.61, 0.0, 10.001215, 9.998371 
2.1649678e+3, 2.5444287e+2, -689972.0, -742042.75, -171489.1, 0.069886416, 0.08703474, -542553.2, -96096.48, 0.0, 9.999075, 9.998371 
2.1649471e+3, 2.644411e+2, -780783.3, -697180.8, -134505.42, 0.07780825, 0.05761623, -598130.9, -249656.92, 0.0, 9.997617, 9.99871 
2.1649258e+3, 2.744377e+2, -780080.4, -655856.0, -77411.91, -0.010418926, -0.15568645, -618718.4, -368208.84, 0.0, 9.99699, 9.998622 
2.1649052e+3, 2.8443757e+2, -618844.4, -252851.75, -73921.89, 0.018595386, -0.14189456, -238485.2, -85973.82, 0.0, 9.996242, 10.001076 
2.164885e+3, 2.9444107e+2, -665981.3, -213695.05, -80682.586, 0.09917412, 0.088096015, -199733.2, -145257.98, 0.0, 9.995197, 10.001176 
2.1648665e+3, 3.044415e+2, -735157.2, -97976.66, 10848.523, 0.17501096, -0.0400786, -97792.01, -97792.01, 0.0, 9.993853, 10.002287 
2.1648481e+3, 3.14443e+2, -844455.4, -55962.348, -25084.057, 0.13382022, -0.12518668, -55165.164, -55165.164, 0.0, 9.992705, 10.003119 
2.1751718e+3, 1.3449271e+2, -1358570.6, -1407295.8, 183153.5, -0.20675582, 0.030130027, -1198166.5, 423807.34, 0.48018137, 10.002728, 10.0014715 
2.175161e+3, 1.4449362e+2, -1128834.4, -1746720.4, 132274.88, -0.05775766, 0.24670017, -1101708.3, 422254.56, 0.3288021, 10.006202, 9.995502 
2.1751454e+3, 1.5448721e+2, -1007755.7, -1749918.0, 88849.734, 0.0008486535, 0.09935239, -997267.06, 428768.53, 0.18790832, 10.005981, 9.994866 
2.1751305e+3, 1.6448313e+2, -693848.5, -1195570.9, 110414.914, 0.07172765, 0.04948491, -670624.3, 657453.44, 0.08499955, 10.005551, 9.998281 
2.1751162e+3, 1.7448191e+2, -626077.75, -1114869.1, 142886.83, 0.13569455, 0.08035503, -587372.94, 642708.8, 0.028260903, 10.005023, 9.998358 
2.1751001e+3, 1.8447939e+2, -706386.4, -1276477.9, 97802.77, 0.10335917, 0.0670007, -690074.44, 442028.3, 0.0063231546, 10.004428, 9.996839 
2.1750823e+3, 1.9447535e+2, -714587.6, -1260865.8, 77393.2, -0.038963776, -0.006046467, -703834.75, 330308.6, 0.0009805082, 10.003812, 9.996569 
2.1750651e+3, 2.0447204e+2, -641216.5, -1089467.9, 38955.793, -0.06791467, -0.027426563, -637856.2, 298319.25, 0.000047541267, 10.003275, 9.997331 
2.175049e+3, 2.1446966e+2, -614653.2, -1038846.75, 27242.492, 0.037800692, 0.0010561146, -612910.8, 225285.92, 0.00000000032497088, 10.00284, 9.997214 
2.1750307e+3, 2.2446674e+2, -601430.8, -1037273.4, -79191.21, 0.03427803, 0.015167491, -587488.06, 152736.95, 0.0, 10.0025, 9.996715 
2.1750095e+3, 2.3446321e+2, -547576.56, -979022.9, -98646.79, -0.09906678, -0.0023890664, -526091.7, 116170.086, 0.0, 10.002275, 9.996551 
2.1749882e+3, 2.4446039e+2, -507455.75, -753885.5, -227899.97, -0.08377525, -0.0015501558, -371594.75, 172695.14, 0.0, 10.001211, 9.997935 
2.1749671e+3, 2.5445852e+2, -718761.06, -805305.56, -252057.31, 0.10288205, 0.009249757, -506288.6, -59981.84, 0.0, 9.999087, 9.997933 
2.1749458e+3, 2.64457e+2, -675858.94, -480229.75, -162837.72, 0.18824635, -0.039263997, -388086.94, -39768.54, 0.0, 9.99762, 10.000198 
2.1749246e+3, 2.7445596e+2, -665090.75, -421507.38, -97654.57, 0.1756496, -0.17483127, -387191.3, -136867.67, 0.0, 9.997005, 10.000225 
2.1749026e+3, 2.8445658e+2, -639571.4, -302936.22, -114114.45, 0.11510065, -0.15596311, -267899.63, -115583.03, 0.0, 9.99627, 10.00072 
2.1748784e+3, 2.9445937e+2, -696495.3, -287492.97, -126224.445, -0.06870533, 0.049899492, -251674.89, -197382.75, 0.0, 9.995239, 10.00065 
2.1748589e+3, 3.044598e+2, -791365.0, -213635.83, -46610.6, 0.02127241, -0.0073422906, -209899.5, -209899.5, 0.0, 9.9938545, 10.00149 
2.1748416e+3, 3.1446022e+2, -820317.4, -27403.371, -123570.61, 0.18948095, -0.12925501, -8591.968, -8591.968, 0.0, 9.992778, 10.003292 
2.1851675e+3, 1.4451253e+2, -878852.8, -1466745.0, 67290.35, -0.13644896, 0.19634725, -871249.1, 652531.0, 0.34929764, 10.008456, 9.996489 
2.1851522e+3, 1.5450692e+2, -837728.8, -1547561.4, 151370.77, 0.008557323, 0.03910561, -806797.06, 619043.6, 0.20548765, 10.007107, 9.9957485 
2.1851373e+3, 1.645034e+2, -697129.3, -1212762.1, 241270.14, 0.17003193, 0.008085777, -601844.4, 726031.75, 0.09785266, 10.005677, 9.998106 
2.1851213e+3, 1.7450212e+2, -744543.3, -1197224.4, 218296.84, 0.17929953, 0.05763638, -656426.3, 573457.2, 0.035833158, 10.00433, 9.998122 
2.1851045e+3, 1.8449967e+2, -774912.5, -1300477.3, 196635.11, 0.11441544, 0.060709886, -709487.75, 422416.8, 0.009714438, 10.003926, 9.996918 
2.1850866e+3, 1.9449586e+2, -581286.8, -1186752.4, 219037.23, -0.029861204, 0.0020079468, -510356.03, 523585.7, 0.0020295784, 10.004692, 9.996655 
2.185069e+3, 2.0449236e+2, -468461.75, -1048337.6, 173444.94, -0.07693711, -0.02366796, -420542.97, 515432.28, 0.00020777977, 10.004647, 9.996952 
2.1850517e+3, 2.1448927e+2, -528971.44, -1044435.56, 143873.44, -0.009638546, -0.021680063, -491533.4, 346470.78, 0.0000008687663, 10.003633, 9.996795 
2.185033e+3, 2.2448605e+2, -546538.8, -1013637.2, 58949.203, -0.0065682232, -0.015168488, -539214.1, 200821.16, 0.0, 10.002889, 9.996689 
2.185012e+3, 2.3448263e+2, -522881.16, -967584.4, 60900.617, -0.07739713, -0.019440219, -514691.8, 127377.234, 0.0, 10.002447, 9.996546 
2.1849902e+3, 2.4447949e+2, -452653.47, -790496.4, -96964.43, -0.047986273, -0.02448783, -426801.84, 117298.58, 0.0, 10.001858, 9.997374 
2.1849671e+3, 2.5447676e+2, -476225.22, -754654.0, -138095.86, 0.09869629, -0.039132357, -419350.06, 26777.574, 0.0, 10.0010395, 9.99734 
2.1849443e+3, 2.644751e+2, -407365.94, -362857.97, -112110.53, 0.1739337, -0.06414699, -270814.06, 77327.336, 0.0, 9.999513, 10.0000925 
2.1849217e+3, 2.7447474e+2, -658778.25, -425234.53, -174327.08, 0.18131512, -0.12358179, -332183.63, -82044.54, 0.0, 9.997083, 10.000162 
2.1848984e+3, 2.8447536e+2, -786421.8, -364503.03, -225447.25, 0.13015792, -0.10467959, -266706.3, -114574.51, 0.0, 9.995225, 10.000801 
2.1848732e+3, 2.9447758e+2, -872739.94, -363810.47, -201290.03, -0.042846184, 0.031283684, -293821.84, -239707.84, 0.0, 9.993999, 10.000724 
2.1848516e+3, 3.044782e+2, -985653.1, -298271.66, -76961.5, -0.019507205, -0.010436955, -289760.2, -289760.2, 0.0, 9.992475, 10.001577 
2.1848333e+3, 3.144797e+2, -1084978.6, -40139.58, -74246.23, 0.18996532, -0.033406477, -34890.02, -34890.02, 0.0, 9.990472, 10.004314 
2.1951741e+3, 1.445276e+2, -787026.8, -1204988.9, 29547.846, -0.32829595, -0.16865326, -784948.25, 738687.6, 0.37055498, 10.008256, 9.999458 
2.195158e+3, 1.5452787e+2, -694820.5, -1173534.3, 104331.85, -0.10521819, -0.04504626, -673070.44, 752559.9, 0.22491662, 10.0070095, 9.998818 
2.1951428e+3, 1.645271e+2, -767424.0, -1336796.0, 191700.27, 0.1686327, 0.07498358, -708897.06, 618740.06, 0.113207474, 10.005638, 9.997236 
2.1951248e+3, 1.745241e+2, -823568.9, -1358981.5, 172456.14, 0.09848745, 0.06362158, -772829.25, 456838.63, 0.045863308, 10.004337, 9.997002 
2.1951076e+3, 1.8452093e+2, -735583.75, -1217892.3, 222826.17, 0.036054716, 0.0262066, -648398.44, 483299.06, 0.014933353, 10.003943, 9.99748 
2.1950915e+3, 1.9451758e+2, -537634.06, -1093683.3, 250582.27, -0.0044589913, -0.049145263, -441373.8, 592351.75, 0.0040767505, 10.00469, 9.997298 
2.1950743e+3, 2.0451419e+2, -505337.0, -1125005.1, 138863.9, -0.023903837, -0.074309416, -475641.5, 460115.1, 0.0007107779, 10.004646, 9.996427 
2.1950555e+3, 2.1451071e+2, -569819.6, -1131016.6, 108228.82, -0.019821852, -0.052352976, -549670.7, 288120.6, 0.000021765427, 10.003637, 9.996199 
2.1950358e+3, 2.245072e+2, -527975.0, -976854.7, 42606.28, -0.0014772828, -0.056083497, -523966.72, 215857.94, 0.000000000011542125, 10.002893, 9.99694 
2.1950157e+3, 2.3450363e+2, -500683.84, -924412.1, 46017.715, 0.035023455, -0.105889454, -495743.8, 146112.72, 0.0, 10.002457, 9.996839 
2.1949932e+3, 2.4450035e+2, -501509.06, -892936.4, -128459.086, 0.05307188, -0.10575186, -463116.8, 80771.83, 0.0, 10.001862, 9.996669 
2.1949676e+3, 2.5449747e+2, -527609.2, -865300.94, -168366.81, 0.04452754, -0.05844421, -458009.44, -12089.026, 0.0, 10.001054, 9.996574 
2.1949421e+3, 2.6449525e+2, -527938.2, -615601.0, -202893.13, 0.019729966, -0.017912332, -364195.97, -16251.812, 0.0, 9.999523, 9.998353 
2.194917e+3, 2.7449384e+2, -779927.94, -682273.75, -266737.28, -0.008679908, -0.0035151069, -459931.4, -209973.7, 0.0, 9.997105, 9.998388 
2.1948928e+3, 2.844937e+2, -748195.25, -286705.66, -277468.97, 0.05514348, 0.008292438, -156573.47, -4614.245, 0.0, 9.995231, 10.001333 
2.1948697e+3, 2.9449546e+2, -823139.06, -262777.94, -247702.92, 0.17712675, 0.030875063, -168982.73, -115040.055, 0.0, 9.994002, 10.001418 
2.1948445e+3, 3.0449656e+2, -907025.06, -135635.53, -148620.7, 0.02771638, -0.055786453, -107991.98, -107991.98, 0.0, 9.992479, 10.002691 
2.1948235e+3, 3.1449908e+2, -989548.0, 155925.05, -63760.586, 0.18138203, -0.083416514, 159463.23, 159463.23, 0.0, 9.99049, 10.005647 
2.2051802e+3, 1.4455101e+2, -1221089.6, -1433759.8, 58940.805, -0.3107418, -0.023818672, -1205846.9, 317561.44, 0.39395127, 10.003795, 9.99915 
2.2051638e+3, 1.5455118e+2, -1113338.4, -1293505.5, 128819.19, -0.031321593, 0.0029914277, -1046229.6, 379171.25, 0.24712132, 10.002927, 9.999761 
2.2051474e+3, 1.645503e+2, -1022388.7, -1450673.8, 233184.8, 0.18697622, 0.052317675, -919936.56, 407470.94, 0.13187234, 10.003657, 9.997428 
2.205129e+3, 1.7454745e+2, -627886.5, -1252296.3, 289181.6, 0.0033534481, 0.04855925, -514535.4, 714902.4, 0.059260372, 10.00578, 9.997068 
2.2051118e+3, 1.8454415e+2, -422880.9, -1115759.6, 332146.7, -0.06506803, 0.015826235, -289381.06, 842088.3, 0.022945477, 10.006388, 9.99702 
2.205097e+3, 1.9454035e+2, -488053.38, -1121931.4, 277687.53, 0.020840848, -0.05618037, -383612.84, 649888.94, 0.007959494, 10.005273, 9.996826 
2.2050796e+3, 2.0453662e+2, -469959.66, -1151514.0, 138339.9, 0.035298277, -0.071083575, -442950.2, 492586.2, 0.0020908655, 10.005082, 9.996036 
2.2050601e+3, 2.1453291e+2, -252012.86, -1020218.0, 119628.42, -0.036970712, -0.032988917, -233814.88, 603759.7, 0.0002178583, 10.006006, 9.995818 
2.20504e+3, 2.2452924e+2, -143536.69, -807524.3, 8461.496, -0.019363003, -0.026451813, -143428.88, 596180.8, 0.0000012360896, 10.0056095, 9.996794 
2.2050193e+3, 2.3452559e+2, -347589.2, -864435.9, -24894.025, 0.10923319, -0.070325516, -346392.94, 295248.3, 0.0, 10.003574, 9.996711 
2.2049959e+3, 2.4452204e+2, -469317.53, -914278.0, -178895.31, 0.13430747, -0.0748688, -406314.0, 137361.67, 0.0, 10.002244, 9.996337 
2.2049688e+3, 2.545187e+2, -459936.63, -871166.44, -188881.0, 0.029390283, -0.040751796, -386349.94, 59362.586, 0.0, 10.001687, 9.996229 
2.2049414e+3, 2.6451603e+2, -456008.06, -632777.8, -223132.92, -0.035988223, -0.0018713338, -304392.53, 43347.895, 0.0, 10.000244, 9.997887 
2.2049141e+3, 2.745142e+2, -735972.7, -713975.7, -195060.38, -0.034704905, 0.015261959, -529604.0, -279846.25, 0.0, 9.997636, 9.997912 
2.2048879e+3, 2.845132e+2, -735107.75, -284564.22, -137039.33, 0.035399705, -0.027668763, -246155.98, -94389.07, 0.0, 9.995337, 10.001297 
2.204863e+3, 2.945139e+2, -889193.56, -287872.7, -157039.05, 0.14486712, -0.10968182, -249331.17, -195570.73, 0.0, 9.993524, 10.001474 
2.2048366e+3, 3.045172e+2, -960882.4, -115776.67, -112882.06, 0.03828759, 0.0017367462, -100958.66, -100958.66, 0.0, 9.991908, 10.003106 
2.2048147e+3, 3.1451923e+2, -1023259.1, 139777.84, -47236.75, 0.26221657, -0.11451005, 141693.22, 141693.22, 0.0, 9.990272, 10.005635 
2.2151868e+3, 1.4458254e+2, -1374604.9, -1850831.0, -146935.17, -0.038033053, 0.6440893, -1332918.4, 190181.56, 0.42183277, 10.003818, 9.995952 
2.2151689e+3, 1.5457663e+2, -1178336.1, -1414830.6, 117155.766, 0.20369437, 0.17213751, -1130126.5, 295027.78, 0.27389875, 10.00292, 9.998746 
2.2151513e+3, 1.64573e+2, -970896.7, -1303973.4, 294317.03, 0.20968376, -0.054139957, -799267.1, 527919.94, 0.15531531, 10.003605, 9.998561 
2.2151336e+3, 1.7457205e+2, -569638.8, -1095364.9, 357023.75, -0.11385096, 0.013520958, -389147.7, 840046.9, 0.0774459, 10.005741, 9.998223 
2.2151169e+3, 1.845691e+2, -535445.1, -1330521.3, 292780.13, -0.19618095, 0.029236693, -439265.9, 691956.2, 0.035233058, 10.006356, 9.995558 
2.2151023e+3, 1.9456401e+2, -598819.56, -1348462.0, 237531.88, 0.036402564, -0.017821917, -529892.75, 503378.5, 0.015084999, 10.005279, 9.995269 
2.2150852e+3, 2.0455956e+2, -486669.78, -1186357.8, 171465.98, 0.09097973, -0.0134313535, -446909.6, 488405.8, 0.005450839, 10.005095, 9.995791 
2.2150657e+3, 2.1455577e+2, -266513.63, -1047360.0, 157608.42, -0.07333949, 0.03421647, -235901.56, 601453.5, 0.0012128138, 10.005999, 9.995635 
2.2150451e+3, 2.2455207e+2, -183385.67, -889861.56, -61607.094, -0.07061606, 0.07396421, -178053.58, 561337.75, 0.00008662467, 10.005605, 9.996232 
2.2150232e+3, 2.345484e+2, -386563.38, -946767.25, -99570.52, 0.13685843, 0.08578773, -369392.06, 272032.25, 0.00000041783392, 10.003577, 9.996145 
2.2149988e+3, 2.4454443e+2, -467494.0, -908674.94, -202674.95, 0.18811136, 0.06795999, -388522.63, 154939.8, 0.0, 10.002237, 9.996378 
2.2149707e+3, 2.5454026e+2, -451588.78, -858148.0, -208190.92, 0.045040857, 0.012093225, -363894.06, 81611.04, 0.0, 10.001705, 9.996309 
2.2149421e+3, 2.6453733e+2, -396952.7, -511982.2, -319317.22, 0.00021613998, -0.022303773, -130011.85, 217519.61, 0.0, 10.000253, 9.998713 
2.2149128e+3, 2.7453566e+2, -672585.1, -588080.25, -293710.16, 0.08843862, -0.07525654, -333598.94, -84058.97, 0.0, 9.997658, 9.998767 
2.2148836e+3, 2.845338e+2, -779170.25, -378867.84, -209287.6, 0.058694992, -0.21851668, -289430.03, -137874.73, 0.0, 9.995351, 10.000643 
2.2148535e+3, 2.945328e+2, -929418.4, -376659.5, -220552.1, -0.14488009, -0.3975407, -299444.8, -245876.64, 0.0, 9.993544, 10.000856 
2.2148281e+3, 3.0454016e+2, -977579.7, -149433.84, -175799.92, -0.014787807, 0.15521659, -113660.13, -113660.13, 0.0, 9.991904, 10.002878 
2.2148041e+3, 3.145398e+2, -1126111.9, -91768.91, -85396.49, 0.17713541, -0.16357091, -84765.9, -84765.9, 0.0, 9.990343, 10.004014 
2.2251885e+3, 1.4459841e+2, -1013997.25, -1354897.6, -276707.13, -0.41649705, -0.18120533, -859454.94, 663492.4, 0.45806304, 10.007021, 9.998718 
2.2251727e+3, 1.5459928e+2, -1039874.1, -1338404.1, 87549.61, 0.19900233, 0.017056225, -1016093.0, 408838.97, 0.3085831, 10.004407, 9.998712 
2.225154e+3, 1.6459787e+2, -1010199.5, -1357763.6, 343980.94, 0.10245739, 0.03121847, -798594.6, 528347.25, 0.1863732, 10.003573, 9.998273 
2.2251388e+3, 1.745959e+2, -825852.06, -1246628.8, 313652.13, -0.07215358, 0.021887071, -658562.06, 570398.75, 0.10297283, 10.004047, 9.998004 
2.2251233e+3, 1.8459296e+2, -712200.06, -1323621.6, 236709.14, -0.10954433, 0.006685484, -631271.06, 499716.97, 0.054276574, 10.004763, 9.99638 
2.2251078e+3, 1.9458893e+2, -445982.56, -1175474.8, 349179.66, 0.035270665, -0.016794479, -305786.94, 727237.44, 0.027842514, 10.005989, 9.996132 
2.225091e+3, 2.0458455e+2, -338503.7, -1170244.5, 374074.2, 0.09220127, -0.025682773, -195017.6, 740049.44, 0.012848719, 10.006407, 9.995277 
2.2250727e+3, 2.145796e+2, -337370.38, -1147234.8, 327461.84, 0.034955624, -0.032636497, -221532.61, 615586.4, 0.0044845087, 10.005811, 9.995044 
2.2250515e+3, 2.245752e+2, -239270.19, -975148.5, 55335.406, 0.020155163, -0.004389402, -235132.44, 504030.53, 0.0009192706, 10.005476, 9.995708 
2.2250268e+3, 2.3457141e+2, -162726.67, -896634.2, 14316.172, 0.06283408, 0.048358597, -162447.52, 478750.97, 0.00006996202, 10.005367, 9.995626 
2.225001e+3, 2.445673e+2, -126356.81, -764404.8, -88292.73, 0.085308544, 0.05290613, -114364.32, 428874.22, 0.00000013250366, 10.004667, 9.996199 
2.2249734e+3, 2.5456297e+2, -246952.0, -773094.3, -114425.04, 0.074606225, -0.0029121283, -223144.23, 222138.05, 0.0, 10.003176, 9.9961815 
2.2249433e+3, 2.6455998e+2, -237065.44, -419105.34, -310711.88, 0.0683803, -0.040902104, -4316.1777, 342992.38, 0.0, 10.001282, 9.998856 
2.2249109e+3, 2.745585e+2, -492944.97, -481097.16, -346171.13, 0.08690395, -0.09178136, -140799.23, 108515.64, 0.0, 9.99881, 9.998946 
2.224879e+3, 2.8455696e+2, -712587.75, -349576.78, -266610.56, 0.050107878, -0.2122174, -208552.52, -57225.19, 0.0, 9.995823, 10.000615 
2.224847e+3, 2.9455614e+2, -1130363.0, -484810.88, -229013.58, -0.0971695, -0.36711314, -411819.84, -358480.7, 0.0, 9.992218, 10.000753 
2.224819e+3, 3.045634e+2, -1295616.9, -214274.0, -101141.125, 0.016472906, 0.14740928, -204895.33, -204895.33, 0.0, 9.989338, 10.003672 
2.224791e+3, 3.1456268e+2, -1577163.8, -281979.6, 33210.234, -0.01218111, -0.29944804, -281128.6, -281128.6, 0.0, 9.987143, 10.0042515 
2.2351746e+3, 1.5461923e+2, -1057073.3, -1271424.8, 23198.71, -0.035011005, -0.4334845, -1054591.3, 370141.66, 0.3567708, 10.004069, 9.999642 
2.2351553e+3, 1.6462466e+2, -1135738.3, -1595517.0, 359277.63, -0.13563356, 0.30001414, -939095.6, 387578.8, 0.23026906, 10.003513, 9.996626 
2.2351448e+3, 1.7461894e+2, -949308.9, -1473760.3, 329536.22, 0.105436265, 0.06890239, -790397.5, 438339.44, 0.14063272, 10.003986, 9.9964695 
2.2351308e+3, 1.8461566e+2, -538200.9, -905277.1, 265917.06, 0.16783944, -0.049153246, -398632.03, 732135.06, 0.084542274, 10.004701, 9.999404 
2.2351135e+3, 1.9461499e+2, -250691.86, -730380.3, 383786.66, 0.009362703, -0.053560514, -37968.453, 994793.7, 0.050409872, 10.005973, 9.999288 
2.235097e+3, 2.0461142e+2, -405349.13, -1293569.9, 351737.28, 0.033668958, -0.10536748, -282932.25, 651860.7, 0.02795673, 10.006411, 9.994433 
2.2350807e+3, 2.1460427e+2, -409512.1, -1293331.0, 306478.0, 0.2771511, -0.23052888, -313636.53, 523230.97, 0.012856372, 10.005825, 9.994037 
2.2350591e+3, 2.2459857e+2, -276331.56, -1050515.9, 52135.074, 0.23828147, -0.2578627, -272836.47, 466089.22, 0.004253267, 10.005484, 9.995186 
2.2350305e+3, 2.3459448e+2, -196034.03, -968044.6, 11325.87, -0.12508588, -0.18555747, -195867.9, 445097.44, 0.00081727805, 10.00538, 9.99513 
2.235003e+3, 2.4459049e+2, -155944.39, -825013.75, -143291.47, -0.18396069, -0.12285405, -126547.9, 416457.47, 0.000049504226, 10.004663, 9.995784 
2.2349767e+3, 2.5458667e+2, -272044.34, -827299.56, -170427.14, 0.10375891, -0.08989189, -223907.47, 221137.97, 0.000000001536272, 10.003183, 9.995806 
2.2349456e+3, 2.6458392e+2, -276862.5, -502088.75, -405025.0, 0.15681233, -0.057568293, 30913.441, 377986.4, 0.0, 10.001284, 9.998286 
2.2349085e+3, 2.7458262e+2, -526091.06, -556964.06, -439211.66, -0.048057888, -0.03164083, -102044.72, 147039.13, 0.0, 9.998837, 9.998415 
2.2348742e+3, 2.8458259e+2, -664655.75, -255467.86, -404895.63, -0.00504147, -0.007159014, -6410.8867, 144673.58, 0.0, 9.995847, 10.001251 
2.2348428e+3, 2.945839e+2, -1101298.8, -427364.13, -366618.22, 0.27063173, -0.016025402, -266379.75, -213305.67, 0.0, 9.9922285, 10.001144 
2.2348095e+3, 3.0458683e+2, -1183703.1, 30105.127, -186100.75, 0.1514613, -0.026452899, 57997.113, 57997.113, 0.0, 9.989289, 10.005372 
2.2347766e+3, 3.145912e+2, -1429898.9, 27618.44, -157469.95, -0.15914613, -0.170569, 44437.387, 44437.387, 0.0, 9.98711, 10.0064 
2.245176e+3, 1.5464728e+2, -1795638.0, -1329663.4, -71239.02, 0.10074596, 0.44726953, -1319015.5, 105443.23, 0.42739788, 9.995916, 10.003122 
2.245159e+3, 1.6464403e+2, -1099814.3, -1349164.5, 199880.16, -0.09141502, 0.027079223, -988913.56, 337564.97, 0.29589328, 10.002912, 9.99865 
2.2451475e+3, 1.7464104e+2, -1129190.9, -1375518.8, 393262.7, 0.10383354, -0.11035977, -840256.6, 388257.13, 0.19897951, 10.001909, 9.998282 
2.2451343e+3, 1.8463966e+2, -820588.06, -1040260.3, 435589.25, 0.15002482, -0.14030932, -481200.44, 649327.1, 0.13405272, 10.00275, 9.999538 
2.2451194e+3, 1.9463983e+2, -312538.97, -756840.6, 333321.47, -0.006491156, -0.060894635, -134122.45, 898397.44, 0.09013023, 10.005744, 9.999296 
2.2451037e+3, 2.0463718e+2, -197300.17, -1075814.1, 180724.3, 0.027107954, -0.0695216, -161575.08, 772968.56, 0.057129934, 10.007579, 9.995369 
2.2450879e+3, 2.1463098e+2, -52199.887, -1003953.9, 266872.2, 0.2956944, -0.19433606, 17523.416, 854130.25, 0.031238468, 10.007947, 9.995008 
2.2450662e+3, 2.2462563e+2, 139733.67, -860852.5, 122309.75, 0.25934497, -0.23131709, 154467.61, 893128.1, 0.013286835, 10.008479, 9.995049 
2.2450376e+3, 2.3462117e+2, 312929.97, -740217.5, 104930.99, -0.13136356, -0.17680444, 323283.06, 963986.8, 0.0038435764, 10.008986, 9.994959 
2.2450088e+3, 2.4461696e+2, 253946.44, -619919.06, -122400.38, -0.20668831, -0.12879008, 270767.0, 813512.3, 0.0005691312, 10.007457, 9.995846 
2.2449797e+3, 2.5461307e+2, -224376.78, -796846.1, -122487.15, 0.07442174, -0.108489, -199270.19, 245514.45, 0.000014184254, 10.003476, 9.995876 
2.244946e+3, 2.6461035e+2, -424021.16, -549782.2, -299775.2, 0.12909116, -0.08396837, -180602.6, 166209.5, 0.0, 10.000174, 9.998488 
2.2449064e+3, 2.7460933e+2, -678960.3, -606552.56, -276983.28, -0.053471513, -0.051784817, -363417.13, -114594.32, 0.0, 9.997685, 9.998625 
2.2448699e+3, 2.8460997e+2, -769722.8, -297365.9, -265466.06, 0.029816415, 0.0285528, -178224.1, -27405.584, 0.0, 9.995085, 10.001331 
2.2448356e+3, 2.9461223e+2, -1113515.4, -426608.66, -283171.38, 0.34223098, 0.10894253, -324925.8, -272125.94, 0.0, 9.992122, 10.001199 
2.2447976e+3, 3.046137e+2, -1340102.1, 18043.0, -148628.22, 0.09739752, -0.07565453, 34117.824, 34117.824, 0.0, 9.98795, 10.005932 
2.2447632e+3, 3.1462136e+2, -1931776.0, -86846.75, -174715.13, -0.020183109, 0.045640655, -70446.97, -70446.97, 0.0, 9.983121, 10.007542 
2.2551645e+3, 1.6465645e+2, -951929.0, -888430.1, 140273.08, 0.17902206, -0.7480976, -776358.3, 549990.94, 0.39729485, 10.002386, 10.003813 
2.2551477e+3, 1.7466226e+2, -889497.3, -814167.7, 278282.4, -0.07949405, -0.5055518, -571012.75, 657278.44, 0.29210526, 10.001731, 10.0031595 
2.255134e+3, 1.8466485e+2, -1050178.9, -1449627.6, 522924.78, -0.15102465, -0.26055133, -690135.3, 440135.84, 0.2164207, 10.002634, 9.996793 
2.255125e+3, 1.946634e+2, -564558.8, -1200733.8, 428919.0, -0.021818504, -0.040694434, -348650.8, 683647.06, 0.15960407, 10.005689, 9.996271 
2.2551116e+3, 2.046618e+2, -76569.664, -714511.5, 190969.58, 0.053794205, 0.08000628, -23772.074, 910546.8, 0.11119311, 10.007546, 9.998041 
2.2550938e+3, 2.1465956e+2, 107027.734, -605158.75, 273199.7, 0.083615564, 0.066481486, 199755.69, 1036093.75, 0.0677656, 10.007968, 9.997841 
2.255073e+3, 2.2465615e+2, 140204.64, -825494.4, 142012.88, 0.077972285, 0.06666363, 160655.55, 899024.9, 0.03306998, 10.008494, 9.995286 
2.2550482e+3, 2.3465134e+2, 317416.66, -715431.1, 125515.66, 0.03466981, 0.06945785, 332450.94, 972865.9, 0.011639545, 10.008987, 9.995129 
2.2550184e+3, 2.4464662e+2, 283932.9, -548944.0, -265508.9, 0.003976859, 0.033735197, 361372.94, 903832.06, 0.0024632656, 10.007434, 9.9963455 
2.2549821e+3, 2.546421e+2, -187792.55, -720808.94, -271557.84, -0.027866608, -0.062514, -73813.85, 370687.0, 0.00018384855, 10.003477, 9.996398 
2.2549446e+3, 2.6463926e+2, -354441.34, -408765.38, -398459.22, -0.027868845, -0.1261924, 17780.574, 364307.4, 0.00000037887435, 10.000185, 9.9994545 
2.2549053e+3, 2.7463853e+2, -611732.4, -470441.78, -366919.84, 0.05660181, -0.16190718, -167428.22, 81104.56, 0.0, 9.997695, 9.999558 
2.2548662e+3, 2.8463903e+2, -807665.06, -376729.47, -377599.9, 0.14627886, -0.11308144, -157446.69, -6916.4043, 0.0, 9.995087, 10.000788 
2.2548252e+3, 2.946411e+2, -1132987.6, -471523.2, -402331.94, 0.1000177, 0.005374072, -281434.16, -228916.83, 0.0, 9.99214, 10.000884 
2.2547828e+3, 3.04644e+2, -1372556.6, -46111.41, -340496.28, -0.18925096, -0.012730877, 36187.246, 36187.246, 0.0, 9.987936, 10.005501 
2.2547491e+3, 3.1465098e+2, -1912302.3, -30260.256, -115717.37, 0.2528218, 0.11661494, -23172.068, -23172.068, 0.0, 9.983052, 10.007962 
2.2651553e+3, 1.746958e+2, -1274671.9, -1656223.0, 33581.08, 0.52312195, 0.8036813, -1271738.9, -43764.688, 0.44179335, 10.001313, 9.9964485 
2.2651385e+3, 1.8468218e+2, -908761.56, -921727.4, 93671.32, 0.08283096, -0.47048378, -821349.1, 308764.63, 0.35350764, 10.00162, 10.001422 
2.2651294e+3, 1.9468789e+2, -767153.9, -829212.44, 474519.4, 0.04248832, -0.026125839, -322650.34, 709412.5, 0.27974397, 10.002223, 10.001194 
2.2651175e+3, 2.0469056e+2, -392499.03, -718691.75, 523188.8, 0.016762018, 0.18706039, -7574.4473, 926463.56, 0.20806904, 10.004939, 9.999674 
2.2651018e+3, 2.1468924e+2, 306966.34, -352096.3, 525584.56, 0.016693244, 0.123042546, 597781.75, 1433830.5, 0.13519292, 10.0093975, 9.999303 
2.2650824e+3, 2.2468647e+2, 520720.28, -572655.9, 299040.97, 0.044875223, 0.09297483, 597164.06, 1335237.6, 0.07058292, 10.011337, 9.995742 
2.2650586e+3, 2.3468204e+2, 495014.06, -572826.3, 305723.44, 0.115756676, 0.08938565, 576347.94, 1216462.6, 0.027025817, 10.010132, 9.995576 
2.2650269e+3, 2.4467762e+2, 414083.1, -439839.9, -178044.4, 0.090857536, 0.04324557, 449718.53, 991874.56, 0.0066331555, 10.008158, 9.996754 
2.264986e+3, 2.546734e+2, 109673.08, -530105.44, -197411.2, -0.06672959, -0.064580366, 165683.17, 609879.25, 0.0007478478, 10.005319, 9.996822 
2.2649446e+3, 2.6467133e+2, -89932.2, -190516.0, -339171.47, -0.09591551, -0.109420925, 202655.7, 548870.75, 0.0000096977, 10.001614, 10.000263 
2.2649029e+3, 2.7467182e+2, -670899.25, -410135.2, -321464.63, 0.07656773, -0.10018988, -193618.16, 54590.89, 0.0, 9.99691, 10.000348 
2.2648606e+3, 2.8467295e+2, -1030896.8, -398818.94, -255246.23, 0.18428293, -0.06672594, -308617.5, -158417.6, 0.0, 9.993189, 10.001547 
2.2648162e+3, 2.9467517e+2, -1292154.4, -450658.44, -184708.19, 0.06792112, -0.0063359234, -411900.2, -359716.6, 0.0, 9.9906225, 10.001758 
2.26477e+3, 3.046788e+2, -1593471.9, -109060.805, -156379.64, -0.15066117, -0.014353744, -92765.42, -92765.42, 0.0, 9.9862385, 10.005883 
2.2647305e+3, 3.1468514e+2, -2370685.8, -229940.42, 212809.4, 0.26045454, 0.032013834, -208990.27, -208990.27, 0.0, 9.979842, 10.008133 
2.2751325e+3, 1.9471313e+2, -390363.2, 57340.383, 334961.1, 0.13841717, -0.018186444, 236363.95, 1268179.8, 0.48327696, 10.001972, 10.013526 
2.2751214e+3, 2.0472313e+2, -539024.6, -777210.4, 564016.4, -0.08844246, 0.2557541, -81664.914, 852040.06, 0.37418672, 10.004712, 10.00018 
2.2751118e+3, 2.147198e+2, 172877.22, -397602.75, 589611.56, 0.077018864, -0.024181481, 542620.94, 1378362.4, 0.2497723, 10.009491, 9.999427 
2.2750947e+3, 2.2471647e+2, 490571.7, -493766.47, 252658.81, 0.14022495, -0.14713724, 551635.75, 1289410.5, 0.1324667, 10.011445, 9.996396 
2.2750683e+3, 2.3471309e+2, 516565.5, -475263.84, 258350.83, 0.100297496, -0.115251034, 579825.7, 1219630.4, 0.05143751, 10.010157, 9.996276 
2.2750346e+3, 2.4470979e+2, 426372.28, -395755.4, -283964.94, 0.042199507, -0.10098736, 514917.84, 1056755.4, 0.013119554, 10.008128, 9.99708 
2.2749917e+3, 2.5470683e+2, 130280.85, -484846.9, -302535.28, -0.050972655, -0.11586285, 254136.88, 698008.25, 0.0017125256, 10.005313, 9.997137 
2.2749463e+3, 2.6470655e+2, -42034.63, -95615.71, -517926.03, -0.08330361, -0.028798955, 449793.28, 795670.4, 0.000043717213, 10.001631, 10.000911 
2.2748987e+3, 2.7470934e+2, -622698.0, -314524.1, -500069.53, -0.012578135, 0.14614171, 54659.746, 302510.84, 0.0, 9.996926, 10.001001 
2.274853e+3, 2.847118e+2, -877583.0, -80112.984, -355349.06, 0.12594889, 0.17366266, 55251.785, 205078.33, 0.0, 9.993182, 10.003743 
2.2748086e+3, 2.947145e+2, -1141847.8, -135082.31, -276168.66, 0.24421923, 0.05806141, -64301.91, -12503.75, 0.0, 9.990601, 10.003939 
2.2747603e+3, 3.0471882e+2, -1521362.8, 51048.336, -393223.88, 0.25021327, -0.049752798, 143901.47, 143901.47, 0.0, 9.986189, 10.007012 
2.2747073e+3, 3.1472412e+2, -2427574.8, -353220.66, -124501.83, -0.042721417, -0.21534044, -345774.84, -345774.84, 0.0, 9.979841, 10.007301 
2.2851261e+3, 2.1475373e+2, 558673.3, 229505.0, 1085093.3, 0.36232093, -0.35834303, 1491593.3, 2326998.5, 0.42084974, 10.01354, 10.006147 
2.2851138e+3, 2.2475664e+2, 2043392.6, 188321.44, 533159.3, 0.121952094, -0.13948013, 2185708.0, 2923089.3, 0.21747895, 10.0267105, 9.995264 
2.2850828e+3, 2.3475195e+2, 1412388.1, -157989.2, 456064.53, 0.13778377, -0.109870195, 1535228.3, 2174654.8, 0.08201442, 10.017742, 9.995049 
2.2850439e+3, 2.447488e+2, 759925.9, -106536.64, -83976.99, 0.084463604, -0.0698311, 767989.8, 1309449.1, 0.0205149, 10.00997, 9.998227 
2.2849959e+3, 2.5474757e+2, -24384.445, -425098.72, -31877.813, -0.053551503, -0.027838271, -21864.336, 421611.25, 0.0027378094, 10.003669, 9.998338 
2.2849466e+3, 2.6474813e+2, -396648.78, -158560.64, -182575.25, -0.07741741, 0.040288575, -59647.81, 285824.0, 0.00008665317, 9.998727, 10.001875 
2.2848953e+3, 2.7475086e+2, -782668.3, -284559.7, -145457.39, 0.039343692, 0.11948724, -245194.33, 2250.2551, 0.0, 9.995363, 10.001959 
2.2848457e+3, 2.8475407e+2, -1041678.7, -38391.152, -7874.2676, 0.15808368, 0.11930903, -38329.355, 111083.31, 0.0, 9.991538, 10.00482 
2.2847971e+3, 2.947581e+2, -1574292.1, -232750.02, -25016.885, 0.22517745, 0.041567735, -232283.66, -180912.08, 0.0, 9.987172, 10.004916 
2.2847456e+3, 3.047642e+2, -1843061.1, 23934.705, -240610.0, 0.32957584, 0.01675764, 54444.844, 54444.844, 0.0, 9.983445, 10.008144 
2.284686e+3, 3.1476998e+2, -2340296.3, -255208.1, -35423.004, -0.14690024, -0.22633047, -254606.48, -254606.48, 0.0, 9.980199, 10.007797 
2.295139e+3, 2.2480649e+2, 1580732.9, -218965.47, 259269.56, -0.02459202, 0.11385792, 1617339.4, 2354237.0, 0.30722156, 10.026666, 9.992294 
2.2951011e+3, 2.3479831e+2, 1154367.6, -574597.56, 148213.75, 0.20869935, 0.100799665, 1166981.0, 1805964.3, 0.11068678, 10.017714, 9.991963 
2.295055e+3, 2.4479447e+2, 874660.9, 162517.63, -321502.16, 0.19504584, 0.13579695, 998329.44, 1539351.8, 0.026611958, 10.009894, 10.000184 
2.294999e+3, 2.5479555e+2, 117886.61, -125091.63, -267023.78, -0.090773456, 0.20171617, 289759.56, 732768.75, 0.0034486402, 10.003651, 10.000417 
2.2949448e+3, 2.647961e+2, -303968.94, 30735.244, -314376.72, -0.093556084, 0.09529039, 219528.4, 564527.4, 0.00011195637, 9.9987335, 10.003177 
2.2948924e+3, 2.7479634e+2, -690705.75, -97748.21, -266293.72, 0.22623941, -0.20271881, 4285.271, 251274.7, 0.0, 9.995374, 10.003241 
2.2948381e+3, 2.8479972e+2, -1056226.4, -66625.336, -170782.2, 0.26945442, -0.24091128, -37981.38, 110975.33, 0.0, 9.991525, 10.004637 
2.2947815e+3, 2.9480642e+2, -1610988.9, -296827.88, -188909.63, -0.026616601, -0.030411124, -270211.34, -219311.45, 0.0, 9.987112, 10.004511 
2.294726e+3, 3.0481493e+2, -1764823.8, 195026.3, -352055.72, 0.04861021, 0.15517202, 256348.73, 256348.73, 0.0, 9.9834, 10.009345 
2.2946684e+3, 3.1482422e+2, -2182971.8, 69727.086, -188522.5, 0.0803839, 0.12957005, 85395.07, 85395.07, 0.0, 9.980212, 10.010019 
2.3051693e+3, 2.2486064e+2, 1937222.8, -65325.48, 258807.56, 0.013136077, 0.092175126, 1970130.0, 2706498.3, 0.36925462, 10.033298, 9.991256 
2.3051193e+3, 2.3485199e+2, 1364177.0, -566563.5, 348790.22, 0.13801344, 0.15131307, 1425254.1, 2063713.4, 0.1282337, 10.020196, 9.990834 
2.3050645e+3, 2.4484777e+2, 1007227.6, 273450.44, 109958.47, 0.13984278, 0.19467747, 1023350.9, 1563852.9, 0.029791756, 10.010659, 10.000617 
2.3050041e+3, 2.548486e+2, 362627.63, 43757.85, 58888.02, -0.017084114, 0.19931944, 373155.34, 815646.2, 0.003714319, 10.005125, 10.000869 
2.3049451e+3, 2.6484936e+2, -69938.11, 217623.84, -1595.6359, 0.0029301876, 0.06404977, 217632.7, 562110.6, 0.00011620496, 10.00003, 10.003832 
2.3048876e+3, 2.7485022e+2, -626715.7, 6890.7954, -3565.2603, 0.23474042, -0.22750369, 6910.856, 253372.08, 0.0, 9.995505, 10.003889 
2.3048286e+3, 2.8485447e+2, -1112664.9, -22739.59, 74045.07, 0.22438572, -0.2377721, -17732.275, 130687.38, 0.0, 9.990838, 10.005264 
2.3047674e+3, 2.948622e+2, -1718018.4, -274239.03, 117741.086, -0.094018124, 0.018631928, -264700.2, -214347.13, 0.0, 9.986063, 10.00517 
2.3047082e+3, 3.0487004e+2, -1963783.5, 133167.55, 14087.385, 0.018828535, 0.09429473, 133262.19, 133262.19, 0.0, 9.9818945, 10.009644 
2.3046489e+3, 3.1488028e+2, -2503933.3, -56526.25, -13504.668, 0.22644888, 0.14668103, -56451.734, -56451.734, 0.0, 9.977913, 10.010253 
2.3152038e+3, 2.2491878e+2, 1910611.0, -29780.014, -101400.26, 0.16138685, -0.19113761, 1915895.5, 2651692.0, 0.37731934, 10.033088, 9.991837 
2.315137e+3, 2.3491268e+2, 1391143.9, -483465.97, -72844.734, -0.094482936, 0.050927103, 1393970.3, 2031828.0, 0.12954085, 10.020084, 9.991543 
2.3150726e+3, 2.4490844e+2, 924771.25, 111967.36, -103708.664, -0.09625432, 0.1075574, 937795.1, 1477696.4, 0.029656231, 10.010604, 9.999504 
2.3150107e+3, 2.5490656e+2, 278162.84, -129539.43, -147166.31, 0.15642187, -0.037296485, 325734.1, 767655.9, 0.0036146352, 10.005108, 9.999687 
2.3149468e+3, 2.64908e+2, -66916.12, 216127.78, -175741.34, 0.19232605, -0.044674356, 300246.0, 644153.7, 0.00011062112, 10.000054, 10.003814 
2.3148811e+3, 2.749129e+2, -626950.0, 1075.2937, -172210.63, 0.031194251, 0.06988676, 45197.313, 291054.28, 0.000000010957248, 9.99552, 10.003848 
2.3148172e+3, 2.8491873e+2, -1004194.44, 201968.95, -102282.95, 0.0051078275, 0.14327314, 210581.08, 358379.0, 0.0, 9.990833, 10.006813 
2.3147546e+3, 2.9492572e+2, -1587839.4, -4817.3896, -49351.207, 0.049548913, 0.16867705, -3280.3428, 46447.844, 0.0, 9.986056, 10.007028 
2.3146921e+3, 3.0493024e+2, -2020853.3, 19359.334, -119780.36, 0.22883707, -0.15849783, 26367.535, 26367.535, 0.0, 9.981863, 10.0088825 
2.3146257e+3, 3.149399e+2, -2627767.5, -308188.53, -275421.63, 0.14400704, -0.056041133, -275934.1, -275934.1, 0.0, 9.977877, 10.008551 
2.3252356e+3, 2.2498651e+2, 2002119.8, -7233.774, -86881.21, 0.12273163, -0.22978543, 2005869.4, 2741004.0, 0.32826427, 10.031759, 9.992147 
2.3251557e+3, 2.3498102e+2, 1268090.1, -480198.47, -52681.87, -0.1100843, 0.0065699336, 1269676.1, 1906864.4, 0.11453747, 10.018492, 9.992312 
2.3250823e+3, 2.4497706e+2, 729026.56, 826.7485, 244940.56, -0.10061547, 0.06758786, 803748.56, 1342976.6, 0.026459157, 10.009278, 9.999331 
2.325015e+3, 2.5497496e+2, 143570.77, -222499.47, 279097.28, 0.1540951, -0.0661207, 294297.75, 735549.0, 0.0032317734, 10.004312, 9.999422 
2.3249462e+3, 2.649764e+2, -153573.86, 129299.766, 302163.13, 0.18082371, -0.026127664, 321489.88, 664728.25, 0.00009725643, 9.999675, 10.003391 
2.324876e+3, 2.7498156e+2, -664320.75, -64645.695, 264903.9, -0.01007686, 0.16984424, 35612.54, 280800.16, 0.000000015576806, 9.995484, 10.003407 
2.3248078e+3, 2.849868e+2, -1002184.4, 187951.4, 236388.31, -0.0033256167, 0.22272955, 233184.4, 380319.4, 0.0, 9.990923, 10.006669 
2.3247415e+3, 2.9499263e+2, -1598568.0, -16084.548, 150295.95, 0.14563937, 0.15161446, -1936.7157, 47138.34, 0.0, 9.986026, 10.006955 
2.3246743e+3, 3.0499738e+2, -1993230.8, 45016.51, 77667.15, 0.27907038, -0.14968759, 47971.723, 47971.723, 0.0, 9.98201, 10.008985 
2.3246028e+3, 3.1500706e+2, -2430923.3, -157206.44, -6989.412, 0.045190975, -0.04185356, -157184.94, -157184.94, 0.0, 9.978995, 10.009042 
2.3353879e+3, 2.1507008e+2, -137299.63, 378172.4, -1092547.5, 0.14265966, 1.0496125, 1242972.8, 2075300.9, 0.49165666, 10.002411, 10.015737 
2.3352647e+3, 2.2506306e+2, 2323859.3, 144383.94, -458759.16, -0.11566854, -0.053945713, 2416487.0, 3150877.5, 0.24330807, 10.031172, 9.992988 
2.3351757e+3, 2.3505667e+2, 1353384.3, -378800.7, -499960.06, 0.06752297, 0.012627722, 1487329.9, 2123783.5, 0.087629385, 10.018301, 9.993141 
2.3350933e+3, 2.450535e+2, 773066.2, 91678.14, 62250.195, 0.08747885, 0.07480544, 778706.56, 1317190.5, 0.020744128, 10.009221, 9.999978 
2.3350173e+3, 2.5505376e+2, 184766.4, -133999.08, 94614.33, -0.04945702, 0.11646574, 210733.95, 651213.0, 0.002566081, 10.004289, 10.000044 
2.3349436e+3, 2.6505464e+2, -214865.33, -6299.317, 144246.67, -0.04366928, 0.11571652, 67412.195, 409881.13, 0.00007146203, 9.999699, 10.002453 
2.3348723e+3, 2.750562e+2, -724256.5, -198089.58, 111898.18, 0.11214772, 0.046650734, -175281.27, 69171.55, 0.0, 9.995511, 10.002482 
2.3348005e+3, 2.850588e+2, -1145305.1, -112130.016, 55093.766, 0.1927153, -0.016250657, -109200.46, 37229.09, 0.0, 9.990929, 10.004607 
2.3347273e+3, 2.9506317e+2, -1758379.8, -348825.66, -27430.771, 0.15749109, -0.022329653, -348292.03, -299900.7, 0.0, 9.986023, 10.004677 
2.3346551e+3, 3.050718e+2, -1907764.0, 215383.38, -40000.473, 0.16395102, 0.12598388, 216136.73, 216136.73, 0.0, 9.982029, 10.010152 
2.3345813e+3, 3.1508052e+2, -2266432.0, 151897.36, 39352.777, -0.009483992, 0.005317312, 152537.56, 152537.56, 0.0, 9.979117, 10.011114 
2.3455118e+3, 2.0515221e+2, -317598.53, -851607.44, -511475.56, 0.48606244, -0.28864852, -7629.3037, 921886.1, 0.46781272, 10.009476, 9.9974785 
2.3453926e+3, 2.1515135e+2, 236119.56, -541790.94, -582778.56, -0.064938456, -0.06581505, 547819.06, 1379345.8, 0.3044914, 10.011902, 9.997197 
2.3452854e+3, 2.2514774e+2, 488922.84, -706726.44, -189972.6, -0.17833497, 0.05713987, 518381.13, 1251944.0, 0.1548418, 10.012812, 9.994055 
2.3451911e+3, 2.3514156e+2, 628813.5, -648185.75, -153431.22, 0.13340174, 0.06388751, 646989.56, 1282611.9, 0.05718915, 10.012069, 9.994113 
2.3451027e+3, 2.451379e+2, 668642.8, -70520.61, 446494.6, 0.16331719, 0.09280896, 878671.4, 1416328.3, 0.013770525, 10.008944, 9.99894 
2.3450205e+3, 2.5513697e+2, 3976.7813, -334122.38, 354615.25, -0.0824853, 0.13401663, 227775.45, 667439.44, 0.0016737203, 10.003552, 9.999011 
2.3449424e+3, 2.651367e+2, -318781.6, -154657.03, 403278.56, -0.100112624, 0.12043687, 174823.9, 516489.66, 0.000037002836, 9.999431, 10.001554 
2.3448682e+3, 2.75137e+2, -641252.06, -253744.05, 366289.56, 0.11463145, 0.02217815, -33120.598, 210541.86, 0.0, 9.996518, 10.001604 
2.3447922e+3, 2.8513876e+2, -876815.94, -79199.67, 327778.03, 0.19783229, -0.026073324, 38215.367, 183863.75, 0.0, 9.993206, 10.003727 
2.3447146e+3, 2.9514265e+2, -1326340.5, -254708.61, 331830.75, 0.1269932, 0.017105278, -160278.28, -112660.95, 0.0, 9.989491, 10.003643 
2.3446375e+3, 3.0515087e+2, -1559048.6, 301436.2, 281378.4, 0.09935767, 0.23436134, 343060.4, 343060.4, 0.0, 9.984783, 10.009407 
2.34456e+3, 3.151582e+2, -2387819.5, 82232.14, 225621.47, 0.027834471, 0.037441075, 102671.91, 102671.91, 0.0, 9.978358, 10.010988 
2.3557529e+3, 1.8524776e+2, -1287839.3, -810058.1, -111538.49, -0.0034812465, 0.73246723, -785302.06, 339275.4, 0.42592916, 9.996152, 10.005739 
2.3556367e+3, 1.9524725e+2, -384923.5, -320655.97, -503372.0, 0.4563334, 0.19681679, 151606.89, 1178187.6, 0.34800705, 10.004069, 10.005537 
2.3555203e+3, 2.0524593e+2, -54126.547, -754557.4, -573499.0, 0.448447, -0.049528576, 267634.2, 1196229.6, 0.26322186, 10.009527, 9.997336 
2.3554045e+3, 2.1524356e+2, 434657.56, -490417.47, -607171.0, 0.0054551815, 0.032972954, 735400.9, 1566024.3, 0.16955222, 10.011853, 9.997136 
2.3552984e+3, 2.2523995e+2, 643122.5, -573075.5, -225079.6, -0.111016825, 0.10644708, 683440.94, 1416099.1, 0.085903354, 10.012728, 9.995084 
2.3552021e+3, 2.3523514e+2, 721637.56, -516235.2, -181725.73, 0.07245938, 0.15114933, 747764.4, 1382464.3, 0.03156185, 10.01202, 9.995069 
2.3551108e+3, 2.4522986e+2, 476917.47, -471263.88, 246591.56, 0.12183775, 0.11054221, 537213.7, 1073964.6, 0.0074121193, 10.008883, 9.99618 
2.3550251e+3, 2.552245e+2, -186530.55, -732071.8, 155533.98, 0.04543394, -0.015409669, -145303.34, 293503.8, 0.00080176466, 10.003545, 9.9962845 
2.3549424e+3, 2.6522267e+2, -380346.25, -288508.1, 293390.63, -0.0068972325, -0.0062516923, -37464.867, 303362.88, 0.000009620857, 9.999448, 10.000629 
2.354863e+3, 2.7522415e+2, -698000.44, -380186.9, 260445.11, -0.029063124, 0.10966451, -233998.58, 8815.454, 0.0, 9.996546, 10.000726 
2.3547833e+3, 2.8522718e+2, -841367.9, -20556.482, 195243.02, -0.012446386, 0.20699586, 23518.48, 168305.2, 0.0, 9.993259, 10.004108 
2.354703e+3, 2.9523167e+2, -1290564.6, -214604.78, 209097.31, 0.025617944, 0.27671337, -175398.36, -128652.61, 0.0, 9.989625, 10.0038595 
2.3546219e+3, 3.052351e+2, -1759739.5, -136015.77, 67632.12, 0.09098064, 0.15993075, -133203.58, -133203.58, 0.0, 9.984867, 10.006364 
2.3545393e+3, 3.1524098e+2, -2563544.8, -269512.7, -117815.12, 0.13906714, 0.11068866, -263477.9, -263477.9, 0.0, 9.978292, 10.008611 
2.3659796e+3, 1.653474e+2, -1328102.0, -969872.2, -133250.33, 0.2755914, 0.53754795, -925743.25, 393859.1, 0.4084775, 9.997569, 10.005292 
2.3658653e+3, 1.7534176e+2, -979079.06, -739422.0, -253637.03, 0.019790728, -0.48845407, -578732.06, 642916.44, 0.3173301, 10.00011, 10.004833 
2.3657529e+3, 1.8534067e+2, -931649.9, -1261239.3, -506578.4, 0.07176094, -0.68972546, -563735.44, 559922.4, 0.24903244, 10.003118, 9.998026 
2.3656408e+3, 1.9534303e+2, -362522.94, -920268.8, -477099.97, 0.40016013, -0.19390093, -88770.78, 936869.8, 0.19333372, 10.006741, 9.997895 
2.365528e+3, 2.0534274e+2, -7059.809, -808218.25, -347352.5, 0.38230467, 0.08995526, 122566.09, 1050214.8, 0.13976645, 10.008983, 9.996662 
2.3654152e+3, 2.1533965e+2, 241009.23, -668027.94, -389783.25, 0.059325412, 0.16574468, 385254.47, 1214938.3, 0.08637494, 10.009736, 9.9965515 
2.3653096e+3, 2.2533518e+2, 316098.9, -697408.9, -59081.36, -0.051262908, 0.1619526, 319531.38, 1051256.5, 0.041918717, 10.009668, 9.995599 
2.3652114e+3, 2.3532951e+2, 298090.9, -676942.2, -44310.047, 0.032265246, 0.07663678, 300100.44, 933872.1, 0.014531276, 10.008685, 9.995529 
2.365118e+3, 2.4532372e+2, 68235.73, -805764.5, 309723.6, 0.07923946, 0.028171664, 166864.02, 702692.06, 0.00305821, 10.006636, 9.994953 
2.3650289e+3, 2.5531793e+2, -271392.88, -906753.06, 326791.06, 0.090893894, -0.009363598, -133317.52, 304574.03, 0.0002377873, 10.003558, 9.9950695 
2.3649424e+3, 2.653152e+2, -307815.75, -327817.22, 563940.94, 0.041615557, 0.016053606, 246213.11, 586134.5, 0.00000047140506, 10.000287, 9.9999485 
2.3648591e+3, 2.7531558e+2, -706044.8, -457424.22, 539731.44, -0.048484016, 0.09572553, -27872.54, 214045.13, 0.0, 9.99683, 10.00005 
2.3647754e+3, 2.853181e+2, -860458.06, -89125.97, 426687.7, -0.088038154, 0.21531343, 100360.734, 244256.34, 0.0, 9.993406, 10.003558 
2.3646909e+3, 2.953226e+2, -1291474.0, -266800.53, 359984.13, -0.10240223, 0.34387496, -152976.34, -107119.8, 0.0, 9.989867, 10.003373 
2.3646072e+3, 3.053248e+2, -1587739.0, -221891.02, 239466.75, 0.09152255, 0.21151635, -181123.42, -181123.42, 0.0, 9.986791, 10.004836 
2.3645215e+3, 3.1532875e+2, -1683348.6, 22882.713, 108078.875, 0.25564578, 0.13462077, 29701.568, 29701.568, 0.0, 9.984889, 10.007429 
2.3760825e+3, 1.5543477e+2, -1566709.8, -1214577.8, -59109.75, -0.22656983, -1.1369551, -1204920.4, 211814.22, 0.38949916, 9.99724, 10.003654 
2.3759755e+3, 1.6545042e+2, -1529881.9, -1356774.8, -135841.61, 0.17401901, 0.27661735, -1282255.4, 36330.824, 0.2779911, 9.998236, 10.000707 
2.3758647e+3, 1.7544948e+2, -1158180.5, -1153619.3, -241175.9, 0.006848791, 0.16914473, -914713.25, 305883.97, 0.19763389, 10.000425, 10.000559 
2.3757552e+3, 1.8544775e+2, -839163.4, -1173722.8, -413959.25, 0.05187651, 0.09687648, -559962.7, 562654.4, 0.1433379, 10.003207, 9.998347 
2.375646e+3, 1.9544512e+2, -273385.8, -852048.44, -394275.47, 0.27875173, 0.057162583, -73671.375, 950975.7, 0.1038478, 10.006663, 9.998174 
2.3755357e+3, 2.054424e+2, -24825.025, -972506.2, -348582.63, 0.27986157, 0.14857401, 89581.57, 1016258.75, 0.07010907, 10.008859, 9.995507 
2.3754245e+3, 2.1543922e+2, 205435.92, -826167.75, -376915.7, 0.08096367, 0.329164, 328474.4, 1157185.8, 0.040158644, 10.009622, 9.995454 
2.3753193e+3, 2.2543316e+2, 330730.84, -702412.06, -91720.23, -0.01090319, 0.21912602, 338810.38, 1069576.3, 0.017736124, 10.009577, 9.995606 
2.3752195e+3, 2.354247e+2, 299023.06, -682692.4, -79570.58, -0.001406301, -0.14582987, 305430.66, 938268.06, 0.0053361207, 10.008629, 9.995523 
2.3751235e+3, 2.4541952e+2, 79991.14, -780995.94, 193570.7, 0.020564478, -0.14265609, 121508.516, 656395.75, 0.00086791854, 10.006608, 9.995142 
2.3750316e+3, 2.5541726e+2, -255870.08, -879912.8, 213881.03, 0.038511686, 0.15556183, -189602.63, 247314.34, 0.000029556171, 10.003567, 9.995255 
2.3749425e+3, 2.6541436e+2, -340529.56, -403395.94, 433747.6, 0.03332203, 0.17951342, 62922.336, 401868.97, 0.0, 10.000306, 9.999424 
2.3748565e+3, 2.754112e+2, -742287.06, -544643.9, 415787.47, 0.036906987, -0.041121863, -216095.67, 24877.826, 0.0, 9.996867, 9.999438 
2.374769e+3, 2.854116e+2, -971552.6, -326630.28, 294749.84, -0.03427883, -0.018944904, -212217.72, -69242.97, 0.0, 9.993425, 10.001921 
2.374679e+3, 2.954155e+2, -1377247.5, -450847.44, 224936.63, -0.24458982, 0.21511045, -399119.56, -354170.5, 0.0, 9.98988, 10.002109 
2.3745933e+3, 3.0542046e+2, -1554729.9, -176126.61, 162173.47, 0.054126866, 0.39040315, -157306.11, -157306.11, 0.0, 9.986875, 10.005116 
2.3745061e+3, 3.1542337e+2, -1523301.4, 252662.05, 78348.39, 0.23498182, 0.20865236, 256111.77, 256111.77, 0.0, 9.985301, 10.0088215 
2.386195e+3, 1.4555867e+2, -1640465.8, -1637857.8, -312970.53, -0.24719271, 0.5894197, -1326188.5, 187334.78, 0.4277616, 9.99973, 9.999794 
2.386085e+3, 1.5555407e+2, -1081658.5, -1303529.9, -276408.13, 0.029589804, 0.17727378, -894755.06, 520813.84, 0.29976803, 10.003577, 9.999566 
2.3859763e+3, 1.6555166e+2, -843396.06, -1178841.3, -195161.39, 0.14833698, 0.06973221, -753788.44, 563804.6, 0.19592907, 10.00454, 9.99904 
2.3858677e+3, 1.755516e+2, -815296.8, -1136892.6, -193223.14, 0.13060795, 0.21436772, -724716.25, 494878.6, 0.12527299, 10.003726, 9.998908 
2.385759e+3, 1.8554968e+2, -748509.4, -1181445.3, -266890.66, 0.13610172, 0.2376594, -621336.56, 500280.75, 0.08194859, 10.003897, 9.997808 
2.3856498e+3, 1.9554597e+2, -489747.0, -1019509.7, -307438.72, 0.16800754, 0.13932832, -348819.66, 674839.7, 0.054047115, 10.005024, 9.997697 
2.385541e+3, 2.0554231e+2, -399020.25, -1143698.8, -274702.4, 0.15859649, 0.15186901, -308652.3, 617044.75, 0.033001896, 10.005845, 9.995732 
2.3854321e+3, 2.1553852e+2, -227068.2, -1024646.0, -214868.63, 0.10631989, 0.24967478, -172865.81, 654867.4, 0.01666508, 10.006344, 9.995628 
2.3853272e+3, 2.2553225e+2, -172711.56, -1012805.06, 51963.27, 0.04572228, 0.14459297, -169509.63, 560281.2, 0.0061798794, 10.006281, 9.995053 
2.3852259e+3, 2.3552392e+2, -167537.13, -964216.0, 22815.162, -0.0090049645, -0.14788577, -166884.28, 464981.9, 0.0013984359, 10.005636, 9.995025 
2.3851284e+3, 2.4551897e+2, -141374.27, -821997.4, 252206.72, -0.009726694, -0.12510681, -58105.63, 475808.5, 0.00012963079, 10.004812, 9.995719 
2.3850344e+3, 2.5551704e+2, -193263.63, -788314.0, 292508.0, 0.023877716, 0.15376905, -73557.26, 362379.88, 0.00000014877344, 10.003747, 9.9957905 
2.3849423e+3, 2.655138e+2, -252479.97, -415426.16, 467809.06, 0.013606287, 0.14652407, 140897.66, 478866.34, 0.0, 10.001163, 9.998922 
2.3848528e+3, 2.7550966e+2, -720564.3, -589130.0, 445979.63, -0.00047763146, -0.11857741, -204051.67, 35953.83, 0.0, 9.99727, 9.998933 
2.3847622e+3, 2.8550962e+2, -878994.2, -336295.72, 406520.44, -0.044122055, -0.08264272, -118881.95, 23128.57, 0.0, 9.994311, 10.001421 
2.3846702e+3, 2.9551354e+2, -1081416.4, -363147.3, 415490.28, -0.18991245, 0.21064545, -173091.72, -129107.35, 0.0, 9.992164, 10.001602 
2.3845811e+3, 3.0551708e+2, -1201170.8, -134863.98, 320877.5, 0.029223034, 0.3344071, -45751.434, -45751.434, 0.0, 9.989865, 10.003952 
2.3844899e+3, 3.1551784e+2, -1292641.6, 438995.7, 71937.33, 0.073839694, 0.065667614, 441979.06, 441979.06, 0.0, 9.986587, 10.009469 
2.3963068e+3, 1.3565068e+2, -1662691.8, -1148066.9, -49235.723, -0.37222904, -0.12655167, -1143398.8, 467226.13, 0.49037614, 9.9957, 10.008338 
2.3961955e+3, 1.4565729e+2, -1544407.6, -1591440.5, -192886.75, -0.13532092, 0.2266014, -1373609.1, 138952.0, 0.36333084, 10.000305, 9.999598 
2.396088e+3, 1.5565449e+2, -1061020.6, -1309687.3, -184147.83, 0.0016229347, 0.0319158, -963162.1, 451429.03, 0.24035747, 10.003571, 9.999279 
2.3959805e+3, 1.6565184e+2, -810829.8, -1141878.6, -230858.56, 0.1674891, -0.10227426, -692287.3, 624326.6, 0.14375587, 10.00442, 9.999321 
2.3958728e+3, 1.7564979e+2, -776049.0, -1106737.8, -228642.61, 0.34314206, -0.18232532, -659229.94, 559396.06, 0.0815221, 10.003795, 9.999064 
2.3957638e+3, 1.8564796e+2, -791544.94, -1331100.4, -237953.17, 0.28489545, -0.09615408, -701598.1, 419048.13, 0.04683907, 10.004012, 9.996691 
2.3956533e+3, 1.9564608e+2, -539111.94, -1157553.9, -272008.4, 0.051008433, 0.097308554, -436500.22, 586174.2, 0.027251527, 10.005037, 9.996714 
2.395545e+3, 2.0564258e+2, -298737.4, -952067.4, -257617.67, 0.014415601, 0.104188286, -209377.31, 715331.5, 0.014380753, 10.005827, 9.997054 
2.3954383e+3, 2.156377e+2, -143461.48, -856894.2, -198950.69, 0.12501258, -0.038052257, -91732.086, 735017.25, 0.00589967, 10.006308, 9.996799 
2.3953335e+3, 2.2563247e+2, -246916.55, -1171144.0, 25370.053, 0.10822923, -0.035777535, -246220.67, 482579.9, 0.0015893901, 10.006262, 9.993982 
2.3952311e+3, 2.3562695e+2, -234207.44, -1104941.1, 1154.344, -0.005787593, 0.060701624, -234205.9, 396654.25, 0.00021003718, 10.00563, 9.99407 
2.3951328e+3, 2.4562182e+2, -77639.28, -692441.25, 211279.7, -0.023399279, 0.06096065, -12032.927, 520878.06, 0.0000050635254, 10.004811, 9.996615 
2.3950379e+3, 2.556172e+2, -133657.19, -669774.0, 248964.06, 0.031732257, -0.017789055, -35876.266, 399076.6, 0.0, 10.003758, 9.996605 
2.394943e+3, 2.656136e+2, -286400.13, -492557.2, 319041.22, -0.030694442, -0.07373175, -54198.957, 282788.16, 0.0, 10.001179, 9.99839 
2.3948479e+3, 2.7561104e+2, -743406.2, -645647.7, 302768.75, -0.17925708, -0.11967911, -387838.0, -148825.84, 0.0, 9.997295, 9.998537 
2.3947553e+3, 2.8561243e+2, -822774.94, -234854.95, 328275.1, -0.13050933, 0.033959072, -88159.73, 52840.582, 0.0, 9.994363, 10.002099 
2.3946643e+3, 2.9561687e+2, -1051366.9, -332165.78, 349943.75, 0.04806997, 0.31292036, -189996.3, -147036.6, 0.0, 9.992284, 10.001762 
2.3945706e+3, 3.056146e+2, -1403676.4, -586718.6, 215393.97, 0.02806773, 0.02656741, -533408.0, -533408.0, 0.0, 9.989989, 10.000795 
2.3944764e+3, 3.1561345e+2, -1529573.8, -94151.33, -110745.43, 0.07828213, -0.14603394, -85657.38, -85657.38, 0.0, 9.9867325, 10.005751 
2.4063088e+3, 1.3576055e+2, -1557477.5, -2010540.4, -222970.94, -0.068543464, -0.24276292, -1466152.8, 143391.98, 0.4450429, 10.003033, 9.995955 
2.4061982e+3, 1.4575893e+2, -1138224.6, -1422569.6, -34979.84, -0.059866358, -0.08934653, -1133984.8, 377579.8, 0.31926644, 10.004355, 9.99885 
2.40609e+3, 1.5575813e+2, -1064907.4, -1380425.6, -72065.7, -0.08399862, 0.0037450755, -1049226.6, 364348.16, 0.20036122, 10.003739, 9.998537 
2.4059829e+3, 1.6575548e+2, -897342.75, -1262915.6, -158351.03, 0.06358048, -0.053556994, -838290.56, 477306.9, 0.10991623, 10.00397, 9.9985485 
2.4058765e+3, 1.7575184e+2, -662670.3, -1131398.0, -211409.28, 0.32260817, -0.22052525, -581407.3, 636218.06, 0.05473018, 10.004882, 9.998328 
2.4057679e+3, 1.8574911e+2, -652989.44, -1289453.0, -200836.5, 0.29334882, -0.17261787, -594914.44, 524738.25, 0.026856456, 10.005051, 9.996459 
2.4056575e+3, 1.9574708e+2, -589954.9, -1211304.5, -185501.78, 0.048115257, 0.028582592, -538787.56, 482892.34, 0.013271143, 10.004761, 9.996459 
2.4055497e+3, 2.057433e+2, -456235.72, -1056199.6, -196881.58, 0.037798837, 0.038271956, -397398.03, 526319.3, 0.005669898, 10.004819, 9.996814 
2.4054441e+3, 2.1573812e+2, -325356.8, -964666.7, -242891.39, 0.20938465, -0.1126212, -243545.05, 582218.3, 0.0016424304, 10.005123, 9.996622 
2.4053396e+3, 2.2573358e+2, -377967.47, -1156241.6, -27421.7, 0.19251828, -0.07104214, -377002.5, 350806.72, 0.00024698873, 10.005032, 9.994671 
2.405236e+3, 2.357296e+2, -345088.44, -1085573.4, 66276.38, 0.036411226, 0.11115312, -339203.2, 290651.5, 0.000014609981, 10.004563, 9.99471 
2.4051365e+3, 2.4572489e+2, -269614.66, -755909.5, 272754.84, -0.021273999, 0.11435387, -147363.83, 384538.13, 0.000000023051545, 10.003378, 9.996864 
2.4050398e+3, 2.5571975e+2, -436152.4, -785028.94, 256617.53, -0.0033837536, -0.03728068, -300298.44, 133650.64, 0.0, 10.001557, 9.996868 
2.4049424e+3, 2.6571646e+2, -492708.13, -550585.1, 290508.34, -0.06893358, -0.09071695, -229700.5, 106278.8, 0.0, 9.999595, 9.998749 
2.4048448e+3, 2.7571502e+2, -695099.2, -587060.44, 338546.13, -0.19127145, -0.06294924, -298251.06, -60258.34, 0.0, 9.997488, 9.99884 
2.4047503e+3, 2.8571594e+2, -640012.6, -210032.05, 380556.16, -0.11957024, 0.06599736, 12063.245, 152046.44, 0.0, 9.995903, 10.001522 
2.4046578e+3, 2.9571858e+2, -759182.6, -261625.23, 301957.25, 0.08460518, 0.22447939, -119163.56, -77206.04, 0.0, 9.994601, 10.001125 
2.4045618e+3, 3.0571446e+2, -1106398.0, -517790.28, 216747.88, 0.08040726, -0.17742702, -446588.47, -446588.47, 0.0, 9.992354, 10.000124 
2.4044663e+3, 3.1571576e+2, -1213071.6, -134533.34, 81742.91, 0.30432138, -0.031763453, -128373.19, -128373.19, 0.0, 9.989737, 10.004023 
2.4163146e+3, 1.3587078e+2, -1462478.0, -1845686.9, -119784.71, 0.2725236, 0.12884907, -1428116.4, 180347.47, 0.41402748, 10.003356, 9.996886 
2.4162024e+3, 1.4586267e+2, -1173440.8, -1544246.0, -77131.59, -0.024605967, -0.35509598, -1158036.4, 352507.97, 0.2886995, 10.004387, 9.997753 
2.4160919e+3, 1.5586397e+2, -1107268.6, -1519681.1, -110999.01, -0.21776608, 0.053479537, -1079291.6, 333240.63, 0.17280358, 10.003783, 9.997533 
2.4159844e+3, 1.6586156e+2, -977224.06, -1468678.3, -145973.63, -0.13859598, 0.14275126, -937136.3, 377418.8, 0.08737195, 10.003995, 9.997095 
2.4158789e+3, 1.7585668e+2, -749176.6, -1325456.9, -191249.75, 0.12323807, -0.0041201385, -691482.7, 525118.6, 0.037979532, 10.004834, 9.997 
2.4157715e+3, 1.858525e+2, -626573.5, -1232960.5, -214490.78, 0.19594774, -0.061180394, -558374.25, 560267.0, 0.015468389, 10.004994, 9.996874 
2.4156626e+3, 1.9584885e+2, -574272.0, -1180144.3, -197176.5, 0.12960508, -0.062021494, -515754.3, 504922.47, 0.0062107183, 10.004736, 9.996686 
2.4155557e+3, 2.0584454e+2, -558393.94, -1276059.8, -186293.88, 0.18569742, -0.03350447, -512917.0, 409805.13, 0.0019507682, 10.0048275, 9.995303 
2.4154499e+3, 2.1583971e+2, -410432.72, -1145398.9, -225545.0, 0.33115402, 0.00050629594, -346737.9, 478036.75, 0.00031322072, 10.005127, 9.995384 
2.415345e+3, 2.2583555e+2, -224259.45, -836663.1, -41321.727, 0.28574407, 0.016494453, -221483.88, 505332.28, 0.000020924452, 10.00502, 9.996875 
2.415241e+3, 2.3583189e+2, -209865.53, -797997.0, 47517.047, 0.10305127, 0.014435036, -206051.2, 422798.06, 0.00000041680406, 10.004525, 9.996707 
2.4151394e+3, 2.4582824e+2, -299795.47, -814617.8, 201346.14, -0.014884328, 0.052550074, -230402.73, 300484.0, 0.0, 10.003349, 9.996481 
2.4150398e+3, 2.5582474e+2, -451339.34, -820516.75, 187692.5, -0.09710473, 0.10242568, -372676.34, 60249.55, 0.0, 10.001563, 9.996629 
2.4149412e+3, 2.6582247e+2, -403993.88, -374869.22, 209916.39, -0.10922834, 0.09547723, -179010.66, 155934.6, 0.0, 9.999617, 9.999951 
2.4148433e+3, 2.7582148e+2, -625038.4, -454446.9, 265715.53, -0.046806607, 0.049908694, -260672.58, -23725.584, 0.0, 9.99753, 9.999737 
2.4147469e+3, 2.8581998e+2, -768288.4, -495366.34, 331031.8, -0.018588476, 0.0034353952, -273771.97, -134810.94, 0.0, 9.995973, 9.999535 
2.4146502e+3, 2.9581824e+2, -839895.94, -459387.94, 244906.08, -0.09902209, -0.07620355, -339520.1, -298537.28, 0.0, 9.994718, 9.999718 
2.4145545e+3, 3.058171e+2, -925432.9, -173610.58, 110740.32, 0.16034175, -0.25393566, -157638.31, -157638.31, 0.0, 9.9924755, 10.002434 
2.4144518e+3, 3.1582445e+2, -1078927.4, 124586.95, -21217.64, -0.06692446, 0.29373217, 124960.9, 124960.9, 0.0, 9.989837, 10.005743 
2.4263184e+3, 1.3597517e+2, -1215025.8, -1546792.4, -143959.36, 0.24530578, 0.24853308, -1161269.4, 446177.28, 0.3925936, 10.005381, 9.99816 
2.4262068e+3, 1.4596742e+2, -1081217.1, -1551840.4, -210953.1, -0.034461223, -0.23585616, -1000502.25, 509018.7, 0.26698217, 10.005393, 9.997338 
2.4260959e+3, 1.5596722e+2, -1036458.4, -1528529.6, -234920.0, -0.1597023, 0.060371503, -942316.2, 469206.3, 0.15320243, 10.004501, 9.997175 
2.4259883e+3, 1.6596451e+2, -965935.0, -1481441.4, -185588.36, -0.08467223, 0.14031515, -906072.5, 407475.47, 0.071845, 10.004116, 9.996947 
2.4258828e+3, 1.759601e+2, -847047.5, -1392525.4, -164636.83, 0.124960534, 0.05609959, -801208.6, 414381.03, 0.027236324, 10.004192, 9.996835 
2.4257754e+3, 1.859555e+2, -740769.7, -1300227.8, -187906.52, 0.18127283, -0.02911705, -683516.25, 434116.63, 0.00895565, 10.004235, 9.996767 
2.4256665e+3, 1.959508e+2, -648279.1, -1228225.4, -204205.56, 0.13582759, -0.1233435, -583591.4, 436085.06, 0.0027782163, 10.004272, 9.9965725 
2.4255596e+3, 2.0594665e+2, -600258.9, -1289519.4, -129301.64, 0.18103743, -0.073755436, -576800.9, 344919.63, 0.00055415026, 10.004513, 9.995359 
2.4254538e+3, 2.1594292e+2, -440766.84, -1149360.0, -73988.67, 0.2877339, 0.06683348, -433123.66, 390641.2, 0.00003327847, 10.00488, 9.995472 
2.4253486e+3, 2.259391e+2, -312050.78, -806258.56, 43762.215, 0.25531444, 0.08455736, -308205.56, 417597.56, 0.00000079492037, 10.004106, 9.997521 
2.4252442e+3, 2.3593533e+2, -462157.56, -846055.94, 24329.93, 0.12908807, 0.0066487924, -460621.78, 167214.27, 0.0, 10.002479, 9.99736 
2.4251413e+3, 2.4593237e+2, -597881.9, -892842.5, 157434.44, 0.02399988, 0.050724044, -529640.06, 226.79955, 0.0, 10.001029, 9.997056 
2.4250403e+3, 2.559301e+2, -688742.5, -873550.25, 209136.45, -0.07555013, 0.16985346, -552505.75, -120610.85, 0.0, 9.999677, 9.997169 
2.4249402e+3, 2.6592797e+2, -541120.06, -424319.78, 215040.48, -0.07022175, 0.14447711, -259890.42, 74022.055, 0.0, 9.998613, 10.00009 
2.4248414e+3, 2.759262e+2, -603177.8, -432497.38, 189239.31, 0.0456908, 0.009684117, -310245.53, -74325.516, 0.0, 9.997636, 9.999833 
2.4247429e+3, 2.8592443e+2, -754951.3, -504259.44, 308019.5, 0.04214638, -0.05975251, -297058.2, -159121.23, 0.0, 9.996134, 9.9993925 
2.4246438e+3, 2.9592294e+2, -901932.5, -489359.3, 352700.22, -0.14816232, -0.09560679, -287048.78, -247090.81, 0.0, 9.994302, 9.999707 
2.4245463e+3, 3.0592364e+2, -883662.44, -53137.465, 167740.13, 0.16312623, -0.14050886, -20538.719, -20538.719, 0.0, 9.992341, 10.003321 
2.4244373e+3, 3.1592906e+2, -1004393.8, 215939.23, -136291.98, -0.45794383, 0.13326357, 230975.64, 230975.64, 0.0, 9.990124, 10.006227 
2.4364294e+3, 1.26079e+2, -1437776.1, -1572685.0, -87632.65, 0.25437185, 0.42414495, -1394643.1, 309804.25, 0.4943716, 10.003636, 10.000106 
2.4363205e+3, 1.3607658e+2, -1190564.5, -1450999.8, -103463.71, -0.006264803, 0.24038659, -1154465.0, 451997.25, 0.37736937, 10.004942, 9.999405 
2.436211e+3, 1.4607288e+2, -1115672.0, -1584841.9, -235275.98, -0.083067924, 0.10890605, -1018014.7, 490480.13, 0.25095394, 10.005026, 9.997294 
2.4361016e+3, 1.5606888e+2, -1028128.4, -1526168.5, -251461.2, 0.019135976, 0.02983058, -923250.5, 487282.78, 0.13867642, 10.004503, 9.997192 
2.4359941e+3, 1.6606554e+2, -896240.44, -1366773.0, -174282.69, 0.13561238, 0.005850068, -838718.94, 473843.56, 0.06073466, 10.004233, 9.997681 
2.4358878e+3, 1.7606267e+2, -789258.4, -1301056.6, -159973.88, 0.25672585, 0.004985374, -743369.5, 471215.53, 0.020154364, 10.004294, 9.9974165 
2.4357793e+3, 1.8605828e+2, -766325.9, -1370982.1, -187288.97, 0.21617217, -0.055142775, -713014.5, 403611.22, 0.005222053, 10.004294, 9.996255 
2.4356697e+3, 1.9605297e+2, -672305.75, -1280861.9, -196747.67, 0.07125962, -0.16223615, -614237.6, 404440.03, 0.0011818603, 10.004274, 9.996213 
2.4355623e+3, 2.0604958e+2, -511055.84, -1102546.9, -114160.125, 0.045600526, -0.09133761, -489787.25, 430925.63, 0.000117974094, 10.004497, 9.996654 
2.4354564e+3, 2.1604751e+2, -372358.78, -997245.8, -65192.34, 0.094843864, 0.08947199, -365629.94, 457106.75, 0.0000012222184, 10.004829, 9.996544 
2.4353509e+3, 2.260441e+2, -371403.03, -917040.25, -19168.78, 0.11215079, 0.13798615, -370730.44, 354042.28, 0.0, 10.0040455, 9.996794 
2.4352458e+3, 2.3603986e+2, -505757.06, -926389.8, -32978.992, 0.10682123, 0.085473716, -503187.13, 123628.55, 0.0, 10.002428, 9.996838 
2.4351425e+3, 2.460372e+2, -497104.75, -684816.56, 104763.016, 0.08738703, 0.10388946, -450304.28, 78538.14, 0.0, 10.001024, 9.998492 
2.4350408e+3, 2.560358e+2, -601235.06, -697383.25, 161050.11, 0.048490137, 0.16598624, -481237.0, -50380.527, 0.0, 9.999692, 9.998375 
2.4349394e+3, 2.6603281e+2, -604917.8, -564314.6, 176119.25, 0.040202558, 0.054391403, -407330.72, -74448.42, 0.0, 9.998633, 9.999125 
2.4348386e+3, 2.7602896e+2, -643542.06, -528255.25, 149183.94, 0.07242292, -0.19308136, -425965.5, -191051.14, 0.0, 9.997676, 9.999162 
2.4347386e+3, 2.8602943e+2, -620849.44, -236566.45, 234705.34, 0.04670371, -0.11246211, -125384.766, 11525.704, 0.0, 9.996166, 10.001221 
2.4346381e+3, 2.960334e+2, -798776.25, -278770.06, 284375.06, -0.08705705, 0.22119132, -153454.1, -114577.984, 0.0, 9.994305, 10.001158 
2.4345379e+3, 3.060344e+2, -938417.56, -164022.83, 89753.52, 0.11622547, 0.18788047, -153756.38, -153756.38, 0.0, 9.992317, 10.002578 
2.4344294e+3, 3.1603196e+2, -1079303.8, 27134.69, -202026.81, -0.20766334, -0.26356182, 62869.07, 62869.07, 0.0, 9.990238, 10.0048895 
2.4464317e+3, 1.2618013e+2, -1328432.6, -1563556.0, 38089.313, 0.09671713, -0.00010684251, -1322416.3, 381038.3, 0.48514262, 10.005394, 9.999335 
2.4463242e+3, 1.3618086e+2, -1416478.1, -1599976.4, -11789.508, 0.04374667, 0.20297606, -1415723.8, 189717.77, 0.3657029, 10.002674, 9.998851 
2.4462153e+3, 1.4617819e+2, -1339367.4, -1694216.9, -97918.695, 0.04358675, 0.1946542, -1314140.6, 193323.47, 0.23835163, 10.002855, 9.9974375 
2.4461067e+3, 1.5617344e+2, -975967.0, -1486388.3, -88889.03, 0.1116949, 0.031015212, -960930.1, 448578.34, 0.12733604, 10.004823, 9.997235 
2.4459988e+3, 1.661696e+2, -751060.75, -1339991.8, -63612.547, 0.16318025, -0.014065457, -744268.1, 567274.94, 0.05243944, 10.005462, 9.9972515 
2.4458914e+3, 1.7616658e+2, -669829.8, -1283816.0, -115990.94, 0.19633631, 0.011771178, -648648.2, 564921.06, 0.015345581, 10.005291, 9.997048 
2.4457827e+3, 1.8616252e+2, -684153.5, -1316358.3, -152970.92, 0.1623996, -0.0035270173, -649085.25, 466522.38, 0.0030764684, 10.004794, 9.996387 
2.4456733e+3, 1.9615787e+2, -685116.9, -1270011.3, -122934.24, 0.08564346, -0.05567034, -660328.9, 357324.53, 0.00047438045, 10.004123, 9.996356 
2.4455656e+3, 2.0615426e+2, -600569.56, -1104994.0, -46480.734, 0.049255904, -0.028953923, -596322.3, 323366.94, 0.000015590547, 10.003718, 9.997005 
2.4454595e+3, 2.1615146e+2, -547046.1, -1042690.0, -68210.79, 0.04233919, 0.043498475, -537830.25, 283887.25, 0.00000000006110458, 10.003469, 9.996882 
2.4453533e+3, 2.2614823e+2, -600352.25, -998439.44, -62666.508, 0.087618135, 0.084293626, -590720.4, 133030.55, 0.0, 10.00236, 9.997041 
2.4452473e+3, 2.3614481e+2, -741760.25, -1009845.25, -6725.8257, 0.17041005, 0.08894865, -741591.6, -115804.47, 0.0, 10.0006895, 9.997095 
2.4451436e+3, 2.4614237e+2, -595541.1, -686320.0, 150311.7, 0.17257932, 0.10049474, -483915.25, 43896.26, 0.0, 10.000153, 9.998901 
2.4450408e+3, 2.5614086e+2, -490687.66, -602681.44, 124860.85, 0.11872151, 0.11300816, -409842.0, 19983.664, 0.0, 10.000271, 9.998748 
2.444938e+3, 2.6613832e+2, -556659.06, -542438.8, 121596.91, 0.0839218, 0.026131295, -427744.3, -95895.66, 0.0, 9.99898, 9.999103 
2.4448355e+3, 2.7613515e+2, -767096.1, -577281.75, 162575.31, 0.08145943, -0.15086313, -483938.84, -250061.77, 0.0, 9.996791, 9.999248 
2.4447334e+3, 2.8613615e+2, -724988.3, -174396.11, 230175.36, 0.021765988, -0.07441631, -90848.73, 45018.082, 0.0, 9.994976, 10.002218 
2.4446312e+3, 2.9614064e+2, -888649.06, -237518.8, 215390.8, -0.13547425, 0.21333657, -172717.64, -134893.84, 0.0, 9.993326, 10.001911 
2.4445292e+3, 3.0614185e+2, -856527.75, -195582.75, 44647.105, 0.052271996, 0.20673142, -192580.45, -192580.45, 0.0, 9.993192, 10.001935 
2.4444233e+3, 3.1613988e+2, -593866.5, 138977.48, -204557.28, 0.03096719, -0.13820949, 192208.63, 192208.63, 0.0, 9.994108, 10.003784 
2.4564356e+3, 1.262896e+2, -1422083.4, -1736692.3, -32094.059, -0.0012169802, 0.087936014, -1418842.8, 283527.9, 0.47682422, 10.004988, 9.997462 
2.4563284e+3, 1.3628699e+2, -1444925.6, -1797314.6, -82511.45, 0.25943562, 0.13806121, -1426562.5, 177835.2, 0.35539037, 10.003124, 9.997292 
2.45622e+3, 1.4628369e+2, -1269924.5, -1631811.8, -40320.414, 0.26065215, 0.12378599, -1265486.6, 240941.0, 0.22747336, 10.003332, 9.997622 
2.456111e+3, 1.5628004e+2, -965538.4, -1483392.9, -43287.27, 0.13284668, 0.054281663, -961944.94, 446513.7, 0.11789781, 10.004865, 9.99723 
2.4560024e+3, 1.6627584e+2, -850739.1, -1529619.6, -78881.914, 0.050755158, 0.04165899, -841694.0, 468805.63, 0.045946293, 10.005307, 9.996026 
2.455894e+3, 1.762715e+2, -769130.56, -1448675.9, -122587.53, -0.009524291, 0.05796304, -747692.56, 464852.16, 0.011967845, 10.005084, 9.996018 
2.4557856e+3, 1.8626796e+2, -657887.3, -1236870.1, -175183.67, 0.039852902, 0.10624431, -609008.2, 505571.66, 0.0018358231, 10.004676, 9.996994 
2.4556775e+3, 1.96265e+2, -654428.25, -1204988.8, -142561.58, 0.15196455, 0.16436207, -619703.6, 396904.56, 0.00017879701, 10.004109, 9.996812 
2.4555701e+3, 2.0626038e+2, -629819.8, -1168647.0, -54343.137, 0.15642649, 0.09412627, -624393.7, 294258.94, 0.00000078958124, 10.003725, 9.996568 
2.455463e+3, 2.1625489e+2, -571353.9, -1084299.9, -77884.09, 0.09495253, -0.05936107, -559789.0, 260916.48, 0.0, 10.003427, 9.99662 
2.4553557e+3, 2.2625172e+2, -527426.2, -847314.1, -123880.17, 0.15919372, -0.059594117, -485062.53, 237673.28, 0.0, 10.002353, 9.998087 
2.4552488e+3, 2.3625012e+2, -677962.06, -884611.56, -58263.23, 0.29953766, 0.024695225, -662667.25, -37915.957, 0.0, 10.000714, 9.997947 
2.4551441e+3, 2.4624784e+2, -631142.1, -768225.3, 152279.5, 0.26867956, 0.04443547, -532689.75, -5914.3604, 0.0, 10.000175, 9.998333 
2.4550405e+3, 2.5624537e+2, -515438.47, -659713.0, 118886.56, 0.11958906, 0.017718043, -448515.3, -19712.76, 0.0, 10.000286, 9.998354 
2.4549362e+3, 2.6624453e+2, -491523.38, -412042.78, 35643.914, 0.048475966, 0.069965474, -398399.75, -67588.6, 0.0, 9.99899, 9.999999 
2.4548316e+3, 2.7624488e+2, -708563.06, -457176.2, 83549.48, 0.05519599, 0.15749069, -431941.3, -199134.67, 0.0, 9.996788, 10.000079 
2.4547273e+3, 2.862445e+2, -720971.9, -163512.08, 165564.98, -0.041473445, 0.052614477, -118047.4, 16759.432, 0.0, 9.994953, 10.002311 
2.4546221e+3, 2.9624403e+2, -890368.2, -239199.06, 161381.83, -0.30148336, -0.16694601, -201397.61, -164590.92, 0.0, 9.993306, 10.001915 
2.4545208e+3, 3.0624506e+2, -892900.1, -296759.16, 78367.62, -0.082680956, -0.15178354, -286629.22, -286629.22, 0.0, 9.993289, 10.0012 
2.454417e+3, 3.1625092e+2, -638312.9, -9557.596, -157696.33, 0.027036967, 0.36596698, 27776.906, 27776.906, 0.0, 9.994357, 10.002641 
2.4664402e+3, 1.2639593e+2, -1501792.1, -1850027.9, -78728.17, 0.077577874, 0.07684041, -1484820.6, 216505.44, 0.46720555, 10.004072, 9.99716 
2.4663335e+3, 1.3639274e+2, -1090754.8, -1584092.1, -65352.297, 0.29944444, 0.10002223, -1082244.4, 521114.47, 0.34471062, 10.006934, 9.996948 
2.4662253e+3, 1.4638896e+2, -891366.7, -1472275.9, -59972.77, 0.31423026, 0.082974344, -885239.75, 620155.2, 0.21707843, 10.006899, 9.997053 
2.4661164e+3, 1.5638494e+2, -950726.56, -1526732.8, -110738.195, 0.22819327, 0.031537745, -930170.56, 477260.78, 0.10949185, 10.005162, 9.9967985 
2.466007e+3, 1.6638102e+2, -1008788.7, -1561640.8, -117084.164, 0.10648215, 0.03882426, -985014.7, 324454.78, 0.04060691, 10.00396, 9.996453 
2.4658972e+3, 1.7637722e+2, -1034031.9, -1537359.1, -66803.7, -0.038151678, 0.07098426, -1025316.3, 186191.45, 0.0095061, 10.003075, 9.99637 
2.4657886e+3, 1.8637364e+2, -872709.7, -1337661.5, -77900.2, -0.0013260158, 0.10135104, -860005.06, 253538.88, 0.0011114385, 10.003194, 9.997009 
2.4656808e+3, 1.9637035e+2, -678184.6, -1210204.3, -87133.89, 0.14619553, 0.12709208, -664277.44, 351299.56, 0.00006243244, 10.003923, 9.996863 
2.4655733e+3, 2.0636627e+2, -618294.4, -1119463.3, -4173.5244, 0.15707892, 0.08984989, -618259.6, 299356.9, 0.0000000031066179, 10.003624, 9.996951 
2.4654654e+3, 2.1636176e+2, -651471.56, -1083141.9, 18144.139, 0.08597475, -0.0010002074, -650710.25, 168949.42, 0.0, 10.002714, 9.996967 
2.4653572e+3, 2.2635852e+2, -549512.3, -836977.94, -53712.977, 0.1292849, -0.030303277, -539803.9, 181886.25, 0.0, 10.00212, 9.998266 
2.465249e+3, 2.3635629e+2, -522712.1, -787637.7, -44049.25, 0.24775039, -0.023256527, -515580.0, 108130.6, 0.0, 10.001687, 9.998143 
2.4651434e+3, 2.4635434e+2, -596479.5, -719695.06, 182333.8, 0.22680084, 0.005387721, -465626.53, 60104.69, 0.0, 10.000285, 9.998608 
2.4650393e+3, 2.5635266e+2, -788804.2, -759828.56, 204029.45, 0.10607445, 0.031800125, -569773.2, -142022.16, 0.0, 9.998283, 9.998626 
2.4649335e+3, 2.6635227e+2, -730709.4, -499686.3, 102049.016, 0.039708823, 0.10596181, -461065.06, -131308.89, 0.0, 9.997231, 10.000244 
2.4648276e+3, 2.7635303e+2, -711499.4, -439507.1, 98582.95, 0.049515996, 0.21322636, -407534.34, -175785.42, 0.0, 9.996686, 10.00025 
2.4647224e+3, 2.8635246e+2, -637692.1, -181320.39, 129378.875, -0.0113512855, 0.11024775, -147194.08, -13441.914, 0.0, 9.995783, 10.001783 
2.4646161e+3, 2.963509e+2, -724811.94, -193428.2, 80240.33, -0.24186306, -0.16757056, -181576.06, -145812.81, 0.0, 9.994599, 10.001598 
2.4645135e+3, 3.0635157e+2, -832658.5, -193102.69, 105167.88, -0.0898637, -0.21447274, -176252.92, -176252.92, 0.0, 9.993394, 10.001855 
2.4644087e+3, 3.163581e+2, -937900.7, -155564.63, -35739.09, -0.0915172, 0.3171892, -153935.36, -153935.36, 0.0, 9.992314, 10.002618 
2.4764453e+3, 1.2650064e+2, -1437917.5, -1729809.4, -8021.775, 0.2265683, 0.0077911112, -1437697.1, 262604.97, 0.454729, 10.004504, 9.997717 
2.4763389e+3, 1.3649848e+2, -1089528.8, -1563933.9, -14183.556, 0.20993787, 0.07599878, -1089105.1, 513216.25, 0.33249012, 10.006699, 9.997259 
2.476231e+3, 1.4649421e+2, -968902.6, -1636032.8, -118143.49, 0.2571987, 0.059635054, -948598.3, 555765.1, 0.20635125, 10.006655, 9.996019 
2.4761225e+3, 1.5648894e+2, -979102.0, -1617963.4, -156578.8, 0.36440045, -0.018954111, -942790.0, 463626.94, 0.10156405, 10.00523, 9.996149 
2.476012e+3, 1.664857e+2, -872784.8, -1324129.1, -138057.48, 0.26767367, -0.0012245531, -833904.9, 474540.84, 0.036018275, 10.004173, 9.997989 
2.4759004e+3, 1.7648374e+2, -911638.0, -1338889.9, -87621.84, 0.047498908, 0.060979366, -894366.5, 316093.38, 0.0076507675, 10.003315, 9.997621 
2.4757913e+3, 1.8647958e+2, -886872.8, -1395785.0, -47342.74, 0.008985515, 0.008114013, -882506.1, 229995.06, 0.0006855044, 10.003312, 9.996556 
2.4756835e+3, 1.9647442e+2, -710126.6, -1256376.1, -59753.715, 0.0739208, -0.10945513, -703666.6, 310889.13, 0.000019873376, 10.003832, 9.996593 
2.4755752e+3, 2.0647217e+2, -562278.75, -981651.9, -34703.13, 0.06630924, -0.007606858, -559426.44, 357152.7, 0.0, 10.003524, 9.997948 
2.4754666e+3, 2.1647163e+2, -604415.9, -975111.7, -12108.096, 0.012649327, 0.20021498, -604020.8, 214563.7, 0.0, 10.002663, 9.997737 
2.4753574e+3, 2.2646816e+2, -591655.0, -923916.4, -69921.734, -0.0000019715367, 0.146959, -577540.1, 143078.1, 0.0, 10.002109, 9.99768 
2.4752478e+3, 2.3646326e+2, -548943.7, -840190.44, -63760.434, 0.016639883, -0.05555711, -535596.75, 87068.79, 0.0, 10.001671, 9.997795 
2.4751413e+3, 2.4646188e+2, -525629.0, -571873.5, 104721.625, 0.04957532, -0.013011312, -441507.34, 83171.55, 0.0, 10.000274, 9.999633 
2.4750367e+3, 2.564626e+2, -728122.3, -638442.94, 135092.81, 0.07120281, 0.15459698, -540942.7, -114270.695, 0.0, 9.998296, 9.999457 
2.4749304e+3, 2.664613e+2, -757358.25, -560349.0, 79089.49, 0.052001406, 0.12610374, -532527.44, -203842.08, 0.0, 9.997243, 9.999828 
2.474824e+3, 2.764593e+2, -745231.8, -516712.84, 76561.8, 0.054860257, -0.0006540489, -493433.47, -262727.38, 0.0, 9.996707, 9.999715 
2.474719e+3, 2.8645983e+2, -724513.94, -371361.28, 81941.03, 0.115861714, 0.106796175, -353275.0, -220570.84, 0.0, 9.995816, 10.000466 
2.4746133e+3, 2.9646158e+2, -758101.5, -283596.97, 29436.232, 0.058196753, 0.28671882, -281777.84, -247086.48, 0.0, 9.994685, 10.000942 
2.4745078e+3, 3.064619e+2, -657325.4, 165199.5, 50258.617, 0.06454615, 0.08587955, 168259.06, 168259.06, 0.0, 9.993404, 10.004318 
2.4743974e+3, 3.164644e+2, -787472.2, 160438.63, -67337.84, -0.3708591, -0.022480642, 165198.28, 165198.28, 0.0, 9.992258, 10.004836 
2.4864504e+3, 1.2660795e+2, -1166489.9, -1598984.3, 16884.807, 0.16135527, 0.1202291, -1165831.8, 533421.9, 0.43856272, 10.007799, 9.997562 
2.486344e+3, 1.3660444e+2, -1195899.6, -1633385.9, -12461.874, 0.16683187, 0.072667725, -1195545.0, 405739.9, 0.31809375, 10.005531, 9.99722 
2.4862356e+3, 1.4660068e+2, -1094588.0, -1637511.8, -72503.375, 0.20250179, 0.06893742, -1085072.5, 418249.72, 0.19484146, 10.005194, 9.996689 
2.4861267e+3, 1.565968e+2, -840602.06, -1474512.4, -24755.36, 0.28722882, 0.068997465, -839636.8, 565725.8, 0.093794845, 10.005946, 9.996765 
2.4860163e+3, 1.6659358e+2, -576396.6, -1136317.5, -16588.088, 0.2276746, 0.04300312, -575905.6, 731484.7, 0.031936683, 10.006076, 9.998386 
2.4859048e+3, 1.7659096e+2, -518482.38, -1106578.8, -32071.209, 0.07759801, 0.0027299628, -516738.6, 692670.25, 0.0062123854, 10.005853, 9.997994 
2.4857952e+3, 1.8658735e+2, -697570.2, -1268796.8, 3344.1633, 0.06300572, -0.026652211, -697550.6, 413893.78, 0.0004336192, 10.004465, 9.996869 
2.4856865e+3, 1.9658329e+2, -893615.25, -1311788.6, 37799.633, 0.12500544, -0.06048028, -890225.94, 123262.63, 0.00000583165, 10.0024395, 9.996878 
2.4855775e+3, 2.0658103e+2, -811350.75, -1086796.0, 62191.914, 0.08589502, 0.023449387, -797959.6, 117552.73, 0.0, 10.001759, 9.998072 
2.4854681e+3, 2.1657997e+2, -720207.94, -1020042.06, 26719.94, -0.0052181664, 0.17042074, -717845.4, 99677.375, 0.0, 10.001827, 9.997827 
2.4853584e+3, 2.2657669e+2, -671384.5, -973166.3, -30170.533, -0.027958687, 0.14051202, -668397.75, 51157.992, 0.0, 10.001612, 9.997577 
2.4852483e+3, 2.365723e+2, -620516.0, -879373.06, -258.12875, -0.009721731, 0.00069533347, -620515.75, 1084.1398, 0.0, 10.001207, 9.9977455 
2.4851406e+3, 2.46571e+2, -500813.84, -536591.3, 107508.42, 0.012207125, 0.04294318, -409716.03, 113896.05, 0.0, 10.000348, 9.999838 
2.4850345e+3, 2.5657162e+2, -582866.3, -548973.7, 81781.23, 0.030163867, 0.17997915, -482401.47, -56796.97, 0.0, 9.999212, 9.999628 
2.4849275e+3, 2.6656997e+2, -593602.3, -493069.13, 52486.313, 0.029987114, 0.11395513, -470661.5, -143040.7, 0.0, 9.998423, 9.999718 
2.4848205e+3, 2.7656734e+2, -601947.6, -461600.06, 66263.6, 0.054862175, -0.064379536, -435258.44, -205610.64, 0.0, 9.997756, 9.999583 
2.4847145e+3, 2.8656822e+2, -654988.2, -362526.34, 110364.984, 0.12903088, 0.09670357, -325552.7, -193909.05, 0.0, 9.996404, 10.000241 
2.4846078e+3, 2.9657105e+2, -765275.3, -301407.3, 135954.31, 0.11806666, 0.40717408, -264497.6, -230875.05, 0.0, 9.994694, 10.000817 
2.4845012e+3, 3.0657175e+2, -649912.94, 206296.86, 70274.85, 0.12969115, 0.23618166, 212026.44, 212026.44, 0.0, 9.993314, 10.004636 
2.4843886e+3, 3.1657177e+2, -808009.3, 177394.73, -169856.45, -0.39945778, -0.1454139, 205851.52, 205851.52, 0.0, 9.992015, 10.005065 
2.4964556e+3, 1.2671705e+2, -1172222.0, -1644573.6, -22425.908, -0.040362637, 0.33815345, -1171159.6, 527028.5, 0.41862938, 10.007783, 9.996987 
2.4963486e+3, 1.3671093e+2, -1190732.8, -1663688.3, -44685.75, 0.14551874, 0.08394712, -1186547.9, 413697.6, 0.30143192, 10.0055895, 9.996998 
2.4962395e+3, 1.4670825e+2, -1000388.7, -1417755.3, -34670.19, 0.13526595, 0.10335701, -997528.25, 504743.0, 0.18244398, 10.005122, 9.998351 
2.4961299e+3, 1.5670744e+2, -787283.7, -1309259.1, -1615.7637, 0.058439884, 0.24549478, -787278.7, 617001.3, 0.08605625, 10.005665, 9.998098 
2.49602e+3, 1.6670373e+2, -648028.8, -1218476.4, -26124.592, 0.04886463, 0.1402155, -646834.9, 659477.4, 0.028221842, 10.005751, 9.997962 
2.49591e+3, 1.766988e+2, -578252.5, -1163731.4, -51222.746, 0.060766857, -0.08988577, -573804.9, 634549.44, 0.005066235, 10.00555, 9.997747 
2.4957998e+3, 1.8669666e+2, -655190.56, -1154276.4, -76299.82, 0.143353, -0.010231706, -643786.5, 466588.56, 0.00028112996, 10.004343, 9.997717 
2.4956897e+3, 1.9669603e+2, -836162.06, -1214370.6, -27849.53, 0.2609362, 0.21439327, -834122.3, 178262.05, 0.0000014559189, 10.002527, 9.997507 
2.4955796e+3, 2.066922e+2, -835291.5, -1164436.8, 62598.26, 0.18581365, 0.1494259, -823788.3, 90634.05, 0.0, 10.001871, 9.997489 
2.4954695e+3, 2.1668698e+2, -749269.4, -1086109.6, 29797.967, 0.010402424, -0.0633316, -746653.6, 69819.09, 0.0, 10.001844, 9.99737 
2.49536e+3, 2.2668438e+2, -651957.56, -935025.4, -43405.78, 0.027014218, -0.020429494, -645451.25, 73049.26, 0.0, 10.001615, 9.997842 
2.4952506e+3, 2.3668328e+2, -609109.9, -859423.4, -16341.749, 0.14028713, 0.14272079, -608047.5, 12467.782, 0.0, 10.001216, 9.997882 
2.4951413e+3, 2.466815e+2, -538272.25, -618796.75, 61881.684, 0.0944375, 0.1646677, -504707.75, 17825.035, 0.0, 10.000359, 9.999273 
2.4950324e+3, 2.5667965e+2, -610359.6, -612172.0, 42175.105, -0.03614206, 0.11051605, -569081.0, -144531.86, 0.0, 9.999229, 9.999191 
2.4949248e+3, 2.6667824e+2, -577433.6, -468028.13, 26555.324, -0.037283253, 0.07685237, -461923.2, -135360.56, 0.0, 9.998451, 9.99988 
2.4948177e+3, 2.7667722e+2, -571640.94, -412616.3, 34040.535, 0.038704425, 0.042652845, -405636.06, -177062.95, 0.0, 9.997808, 9.999898 
2.4947092e+3, 2.8667745e+2, -579090.94, -214387.75, 43205.965, 0.0013041331, 0.06598019, -209339.08, -78767.65, 0.0, 9.996433, 10.001249 
2.4945997e+3, 2.9667878e+2, -735691.5, -243835.75, 81063.14, -0.13495588, 0.13072318, -230820.1, -198260.64, 0.0, 9.994704, 10.001212 
2.4944939e+3, 3.066809e+2, -828687.44, -171059.89, 15600.533, 0.106623404, 0.23667042, -170690.02, -170690.02, 0.0, 9.99333, 10.00204 
2.4943836e+3, 3.1667987e+2, -1001109.2, -231911.1, -164895.25, -0.06663461, 0.00883316, -198052.42, -198052.42, 0.0, 9.992048, 10.002238 
2.5064635e+3, 1.2682526e+2, -1107364.6, -1620709.1, 34376.64, 0.0010086551, 0.15987854, -1105072.9, 592050.0, 0.39551285, 10.00827, 9.996996 
2.506355e+3, 1.3682072e+2, -1110597.1, -1614092.3, 51335.45, 0.22924604, 0.070775256, -1105416.4, 493750.16, 0.2828829, 10.006242, 9.997023 
2.5062445e+3, 1.4681827e+2, -1039485.44, -1438428.0, 81445.664, 0.19588253, 0.11642995, -1023498.6, 477692.25, 0.16933332, 10.004733, 9.998351 
2.506134e+3, 1.5681705e+2, -1073246.9, -1457564.8, 44808.99, 0.06427396, 0.22086664, -1068091.6, 335111.94, 0.07836202, 10.003522, 9.998049 
2.5060233e+3, 1.668134e+2, -1079521.1, -1469705.8, -1120.6245, 0.035309028, 0.14475867, -1079517.9, 225720.1, 0.024801921, 10.0028715, 9.997601 
2.505913e+3, 1.7680866e+2, -1031469.94, -1408156.5, -25195.412, 0.051990453, -0.029045533, -1029792.1, 177489.83, 0.0041287136, 10.002535, 9.997516 
2.5058028e+3, 1.8680653e+2, -809596.9, -1181110.4, -64644.9, 0.120048575, 0.037768535, -798669.75, 310632.56, 0.00018420957, 10.003087, 9.998132 
2.5056922e+3, 1.9680591e+2, -585362.1, -1050140.6, -48341.55, 0.21640177, 0.22209212, -580387.4, 430921.78, 0.00000026313862, 10.004069, 9.997888 
2.5055817e+3, 2.0680225e+2, -580975.75, -1016088.94, 52093.777, 0.14908491, 0.14495173, -574825.75, 338518.78, 0.0, 10.003514, 9.997713 
2.5054708e+3, 2.1679716e+2, -685610.0, -1030621.44, 68025.19, 0.00028668527, -0.07336505, -672682.06, 142711.3, 0.0, 10.002184, 9.997583 
2.5053608e+3, 2.2679493e+2, -638992.44, -904791.8, 26271.969, 0.024735117, -0.013931666, -636420.6, 80996.96, 0.0, 10.001605, 9.998052 
2.5052512e+3, 2.3679432e+2, -579117.25, -835194.25, 47236.64, 0.14103684, 0.18356232, -570681.75, 48745.367, 0.0, 10.001386, 9.997962 
2.5051415e+3, 2.4679194e+2, -522820.56, -679937.8, 101122.66, 0.09321105, 0.17902495, -473327.44, 48124.508, 0.0, 10.000769, 9.998651 
2.5050312e+3, 2.5678888e+2, -544397.7, -627871.9, 72651.77, -0.039508976, 0.06492802, -502347.75, -78865.484, 0.0, 9.999896, 9.998757 
2.5049227e+3, 2.6678813e+2, -563175.56, -419505.8, 59576.086, -0.030075205, 0.09404946, -398015.66, -72526.4, 0.0, 9.998378, 10.000244 
2.5048146e+3, 2.7678862e+2, -732615.6, -457388.3, 80762.984, 0.06172781, 0.1813353, -435439.5, -207956.11, 0.0, 9.99657, 10.000185 
2.5047046e+3, 2.8678787e+2, -638905.7, -259193.7, 48593.19, -0.036306556, 0.10312298, -253073.69, -123583.914, 0.0, 9.996098, 10.0011015 
2.504593e+3, 2.9678696e+2, -549351.2, -192951.73, -6624.7827, -0.24767542, -0.039767023, -192828.63, -161331.11, 0.0, 9.996154, 10.000859 
2.5044873e+3, 3.0678993e+2, -636249.94, -208620.23, -36072.582, 0.09858841, 0.23635605, -205598.69, -205598.69, 0.0, 9.995217, 10.000869 
2.5043783e+3, 3.1678885e+2, -774070.6, -235266.95, -3757.779, 0.14855546, 0.11158992, -235240.75, -235240.75, 0.0, 9.994089, 10.001232 
2.5164726e+3, 1.2693329e+2, -1098881.9, -1601757.4, -21768.34, 0.15376523, -0.23709786, -1097941.4, 598113.3, 0.37014496, 10.007928, 9.997328 
2.5163618e+3, 1.3693282e+2, -1069710.1, -1590086.1, -10225.354, 0.35999838, 0.04712567, -1069509.3, 528552.06, 0.26306912, 10.006456, 9.997091 
2.51625e+3, 1.4693e+2, -1054421.5, -1558710.4, 31830.537, 0.32778203, 0.114059635, -1052420.4, 447670.28, 0.15582134, 10.005059, 9.997288 
2.5161383e+3, 1.569262e+2, -1097443.4, -1578473.3, 2219.4617, 0.21307914, 0.06579973, -1097433.1, 304696.1, 0.07079477, 10.003778, 9.997096 
2.5160265e+3, 1.6692299e+2, -1069156.5, -1504254.9, -14988.177, 0.12301194, 0.09353076, -1068640.9, 235522.88, 0.021646293, 10.003103, 9.997255 
2.515915e+3, 1.7692013e+2, -1020155.44, -1432245.1, -24501.03, 0.036715165, 0.14261438, -1018703.8, 187491.13, 0.0033480534, 10.002734, 9.997257 
2.5158042e+3, 1.8691686e+2, -795403.56, -1169312.1, -22658.123, 0.013552237, 0.0998697, -794035.56, 314190.97, 0.00011957305, 10.003155, 9.998184 
2.5156936e+3, 1.9691361e+2, -590054.6, -1033613.7, -21700.42, 0.021516422, 0.017418854, -588995.5, 421260.13, 0.00000002568285, 10.00395, 9.998062 
2.5155827e+3, 2.0691158e+2, -538390.2, -905137.9, 1547.7959, -0.0009928904, 0.04632902, -538383.6, 373890.88, 0.0, 10.003409, 9.998528 
2.5154722e+3, 2.1691015e+2, -642379.1, -934415.1, 25228.682, -0.041235637, 0.11370707, -640215.6, 174072.36, 0.0, 10.002149, 9.998265 
2.5153613e+3, 2.2690788e+2, -627194.3, -881143.9, 16107.415, -0.036936756, 0.13347998, -626176.75, 90134.11, 0.0, 10.001602, 9.9982195 
2.5152504e+3, 2.3690541e+2, -579672.4, -835233.8, 34594.754, -0.008165173, 0.12773168, -575072.2, 43264.023, 0.0, 10.001374, 9.997972 
2.5151408e+3, 2.4690235e+2, -573501.06, -784144.7, 66443.51, 0.010156377, 0.09558523, -554294.06, -33924.38, 0.0, 10.000756, 9.997945 
2.5150314e+3, 2.5689927e+2, -574559.56, -695065.56, 32637.701, 0.013707898, 0.046513468, -566287.8, -143883.39, 0.0, 9.9999075, 9.998294 
2.514921e+3, 2.6689953e+2, -522377.78, -338652.66, -12743.665, 0.045677215, 0.16584232, -337772.94, -13371.583, 0.0, 9.998385, 10.0008 
2.514811e+3, 2.769016e+2, -719064.4, -429947.66, 27185.307, 0.1044153, 0.35451052, -427413.66, -201034.86, 0.0, 9.996564, 10.0003805 
2.5147006e+3, 2.8689954e+2, -740356.75, -474726.7, 51799.855, 0.024233183, 0.22515112, -464982.75, -336583.94, 0.0, 9.99611, 9.99962 
2.5145897e+3, 2.968958e+2, -611036.5, -342453.8, -18567.424, -0.17788988, -0.050730556, -341176.3, -310740.44, 0.0, 9.996241, 9.999794 
2.5144815e+3, 3.0689844e+2, -564365.8, -89465.95, -89219.02, 0.038531877, 0.18478157, -73257.64, -73257.64, 0.0, 9.995336, 10.001635 
2.51437e+3, 3.168993e+2, -662159.8, -37992.465, 53860.277, -0.026959345, 0.17221254, -33378.887, -33378.887, 0.0, 9.994247, 10.002507 
2.5264794e+3, 1.2704547e+2, -1224044.5, -1715797.3, -25342.955, 0.15584436, -0.16342644, -1222741.9, 472212.6, 0.34342846, 10.006586, 9.996824 
2.5263673e+3, 1.3704412e+2, -904489.56, -1552899.1, -58932.145, 0.2115462, 0.08199276, -899176.94, 697794.8, 0.24259527, 10.008015, 9.996676 
2.5262552e+3, 1.4704059e+2, -760005.5, -1421725.8, -47330.652, 0.2561719, 0.10098938, -756637.25, 742370.3, 0.1422144, 10.0074215, 9.997169 
2.5261435e+3, 1.5703617e+2, -806170.06, -1433411.1, -33302.87, 0.31904528, 0.0027923088, -804406.8, 596644.2, 0.063444465, 10.00592, 9.997056 
2.526031e+3, 1.6703354e+2, -754027.56, -1310981.4, 21190.275, 0.22350839, 0.07076117, -753222.5, 549857.1, 0.018741917, 10.005146, 9.997593 
2.5259182e+3, 1.7703186e+2, -714326.0, -1254738.1, 47118.79, 0.05064291, 0.20558135, -710248.44, 494851.63, 0.0026928529, 10.00472, 9.997515 
2.5258067e+3, 1.8702826e+2, -731014.8, -1147332.0, 56604.54, -0.016590774, 0.1302001, -723455.8, 383679.1, 0.000075747565, 10.003644, 9.9980955 
2.5256956e+3, 1.97024e+2, -836001.5, -1154154.8, 45172.0, -0.031037597, -0.04336901, -829712.25, 179461.92, 0.00000000011876218, 10.002277, 9.998036 
2.5255847e+3, 2.0702243e+2, -753845.8, -982101.7, 34569.133, -0.00042138557, 0.023472467, -748725.2, 162463.86, 0.0, 10.001822, 9.998759 
2.5254744e+3, 2.1702228e+2, -681635.44, -930730.4, 19157.342, 0.04900883, 0.19461735, -680170.75, 133020.5, 0.0, 10.00179, 9.998458 
2.5253627e+3, 2.2701985e+2, -660371.5, -895614.9, -2232.0256, 0.010434205, 0.1903189, -660350.3, 54865.074, 0.0, 10.001374, 9.998226 
2.5252506e+3, 2.3701653e+2, -664910.25, -868363.0, 434.6168, -0.059882298, 0.09801479, -664909.3, -47661.027, 0.0, 10.00076, 9.998037 
2.5251397e+3, 2.4701391e+2, -697423.7, -811295.56, 58462.523, -0.04462752, 0.091083206, -672753.5, -153476.5, 0.0, 9.999773, 9.998228 
2.5250298e+3, 2.570118e+2, -751989.44, -762784.2, 92888.1, 0.006206614, 0.11872303, -664342.06, -243040.25, 0.0, 9.99862, 9.9984455 
2.524919e+3, 2.6701158e+2, -519767.75, -380027.44, 31845.549, 0.047776528, 0.20658012, -373112.34, -49808.066, 0.0, 9.998595, 10.000411 
2.5248078e+3, 2.7701253e+2, -395260.56, -312141.84, -2543.5627, 0.105442554, 0.31889737, -312064.06, -86770.29, 0.0, 9.998959, 10.000032 
2.5246972e+3, 2.870107e+2, -565660.94, -411100.8, 55987.38, 0.06532293, 0.2427937, -392951.34, -265639.5, 0.0, 9.997408, 9.999426 
2.5245857e+3, 2.970077e+2, -795949.0, -443053.28, 80672.84, -0.090873204, 0.061157677, -425485.78, -396143.13, 0.0, 9.9950285, 9.999684 
2.5244752e+3, 3.0700913e+2, -705895.6, -123461.14, 26108.904, -0.0135101825, 0.16392407, -122293.09, -122293.09, 0.0, 9.994229, 10.001927 
2.524365e+3, 3.1701258e+2, -694786.9, -41268.098, 116747.41, 0.105505206, 0.38680393, -21038.072, -21038.072, 0.0, 9.993979, 10.002608 
2.536484e+3, 1.2716016e+2, -1252702.9, -1856454.8, 2051.465, 0.050445676, 0.17675667, -1252695.9, 441138.75, 0.31610495, 10.006567, 9.995863 
2.5363714e+3, 1.3715507e+2, -961346.1, -1662515.6, -34633.734, -0.11219191, 0.14170036, -959639.56, 636250.5, 0.221952, 10.007674, 9.995996 
2.53626e+3, 1.4715074e+2, -758417.75, -1384321.3, -96934.13, 0.053660367, 0.08117781, -743749.25, 754183.44, 0.12876962, 10.007133, 9.997595 
2.5361496e+3, 1.5714693e+2, -783750.4, -1371121.1, -79147.016, 0.3879419, -0.0010202423, -773272.4, 626695.25, 0.05639638, 10.005809, 9.997552 
2.5360367e+3, 1.6714492e+2, -708719.06, -1207929.1, 728.17883, 0.32408586, 0.06536281, -708718.0, 593269.0, 0.01608737, 10.005085, 9.998344 
2.5359225e+3, 1.7714389e+2, -690613.7, -1184441.4, 15672.425, 0.07578482, 0.19108146, -690116.75, 513881.13, 0.0021442834, 10.004619, 9.99805 
2.53581e+3, 1.8714066e+2, -753761.3, -1183893.8, -4387.45, 0.0047943946, 0.14346834, -753716.56, 352313.34, 0.000046550977, 10.003593, 9.99787 
2.5356978e+3, 1.971366e+2, -849268.3, -1186463.6, 416.47107, 0.017842447, 0.011561369, -849267.8, 158802.0, 0.0, 10.002292, 9.99781 
2.5355873e+3, 2.0713459e+2, -768586.4, -1018597.6, 30576.154, 0.11327399, 0.05799073, -764901.25, 145189.52, 0.0, 10.001842, 9.998504 
2.5354773e+3, 2.1713367e+2, -702530.75, -969789.75, 13700.158, 0.23590526, 0.17980884, -701830.3, 110271.33, 0.0, 10.001764, 9.998206 
2.5353646e+3, 2.2713098e+2, -672650.4, -919976.5, -25741.13, 0.14628497, 0.16948412, -669999.7, 44129.68, 0.0, 10.001364, 9.998067 
2.5352508e+3, 2.3712772e+2, -656501.44, -852843.8, -25707.652, -0.032475267, 0.09482659, -653191.25, -37028.66, 0.0, 10.000761, 9.998148 
2.5351387e+3, 2.4712662e+2, -613544.2, -640112.94, 11963.096, -0.0820917, 0.16362092, -608951.44, -90777.555, 0.0, 9.999779, 9.999405 
2.535027e+3, 2.571266e+2, -702413.25, -666399.94, 61390.723, -0.08059221, 0.28432754, -620429.56, -200255.1, 0.0, 9.998641, 9.999102 
2.5349164e+3, 2.6712418e+2, -612355.6, -581531.7, 47789.793, -0.031613484, 0.21116745, -546730.2, -224530.77, 0.0, 9.998626, 9.999018 
2.5348058e+3, 2.771211e+2, -444237.1, -434737.88, -9636.188, 0.05954346, 0.059599973, -428744.34, -204512.95, 0.0, 9.999041, 9.999155 
2.534694e+3, 2.871213e+2, -474944.8, -233447.86, -41691.926, 0.07272165, 0.14737236, -226452.8, -100222.57, 0.0, 9.997445, 10.000632 
2.5345805e+3, 2.9712296e+2, -737711.56, -312637.4, 9507.125, -0.03523703, 0.3087923, -312424.88, -284209.84, 0.0, 9.994981, 10.000606 
2.5344688e+3, 3.0712247e+2, -736208.5, -177265.17, 25945.85, 0.0067951907, 0.21232244, -176063.38, -176063.38, 0.0, 9.994178, 10.001588 
2.5343588e+3, 3.1712487e+2, -786979.06, -258194.34, 72671.93, 0.1596795, 0.3808241, -248388.73, -248388.73, 0.0, 9.994054, 10.0011 
2.5464904e+3, 1.2727109e+2, -1208631.0, -1810867.0, -1711.4116, 0.08699471, 0.17705654, -1208626.1, 484122.72, 0.2888267, 10.006713, 9.996099 
2.5463772e+3, 1.3726549e+2, -1171336.1, -1773010.4, 109.35453, -0.11096577, 0.06897717, -1171336.1, 423471.9, 0.20156336, 10.005624, 9.996216 
2.5462648e+3, 1.4726174e+2, -996067.2, -1500864.3, -66938.484, 0.00973166, 0.057653863, -987341.7, 509503.6, 0.11570813, 10.005191, 9.997621 
2.5461537e+3, 1.5725893e+2, -880265.44, -1415591.4, -68982.9, 0.3022864, 0.075656846, -871519.1, 527352.1, 0.04972552, 10.005064, 9.997592 
2.5460404e+3, 1.672565e+2, -795233.0, -1251576.9, -24212.898, 0.27169776, 0.09885904, -793951.9, 506942.88, 0.013684009, 10.004482, 9.998327 
2.5459263e+3, 1.7725447e+2, -821307.6, -1242971.5, -56933.48, 0.08913159, 0.12524642, -813755.7, 389159.44, 0.001689124, 10.003702, 9.998088 
2.545813e+3, 1.8725191e+2, -800380.06, -1181520.5, -78336.29, 0.044558138, 0.12895875, -784907.6, 320033.28, 0.000027889511, 10.00317, 9.998089 
2.5457e+3, 1.9724922e+2, -771324.0, -1127976.9, -48724.99, 0.06806107, 0.11245374, -764787.1, 242180.94, 0.0, 10.002743, 9.997992 
2.5455883e+3, 2.0724703e+2, -735119.6, -998970.3, 13156.986, 0.10400864, 0.13276252, -734465.1, 174525.66, 0.0, 10.002062, 9.998529 
2.5454772e+3, 2.1724527e+2, -771826.3, -1000612.9, 12942.675, 0.1473403, 0.1675548, -771096.5, 39913.26, 0.0, 10.001285, 9.998222 
2.545365e+3, 2.2724256e+2, -719382.6, -941539.8, -7658.7573, 0.12209542, 0.15314557, -719118.94, -6080.525, 0.0, 10.001048, 9.998066 
2.5452518e+3, 2.3723963e+2, -612525.25, -816362.4, -6750.4585, 0.06317125, 0.11214652, -612302.0, 2767.0322, 0.0, 10.001008, 9.998273 
2.5451386e+3, 2.4723877e+2, -488515.5, -521600.66, -18246.275, -0.009518023, 0.17085294, -480429.16, 36646.617, 0.0, 10.000395, 9.999917 
2.5450253e+3, 2.5723898e+2, -555099.8, -551439.1, -12806.07, -0.08612924, 0.26491147, -540333.25, -121262.4, 0.0, 9.999472, 9.999486 
2.5449136e+3, 2.672366e+2, -690045.5, -630246.5, 43420.44, -0.06727743, 0.18401912, -607426.75, -286330.5, 0.0, 9.998151, 9.998908 
2.5448027e+3, 2.772333e+2, -787026.4, -597320.06, 69758.74, 0.018608807, 0.023805752, -574430.25, -351297.72, 0.0, 9.996683, 9.999171 
2.54469e+3, 2.872342e+2, -617669.3, -243627.38, 7345.5664, 0.046890136, 0.15068993, -243483.17, -118357.305, 0.0, 9.99622, 10.001148 
2.5445753e+3, 2.9723707e+2, -544723.6, -166661.13, 8402.578, -0.0243688, 0.38521767, -166474.47, -139375.31, 0.0, 9.996082, 10.001074 
2.5444633e+3, 3.0723658e+2, -614437.94, -80009.19, 51579.86, 0.05131782, 0.2496968, -75076.53, -75076.53, 0.0, 9.994863, 10.00192 
2.5443497e+3, 3.172374e+2, -987391.2, -336601.4, 144548.02, -0.055175863, 0.23184195, -305940.16, -305940.16, 0.0, 9.992618, 10.0012455 
2.5564978e+3, 1.2738027e+2, -1111971.5, -1669398.4, -18581.434, 0.18425404, -0.008795173, -1111352.8, 580325.8, 0.26214477, 10.007024, 9.99697 
2.556384e+3, 1.3737598e+2, -1100942.0, -1668835.5, -20078.16, 0.071241975, -0.073354654, -1100233.0, 493489.2, 0.18178691, 10.005822, 9.996837 
2.5562698e+3, 1.4737356e+2, -983728.44, -1526103.3, -66899.13, 0.047268182, 0.039093602, -975598.6, 520148.66, 0.10320978, 10.005344, 9.997376 
2.556156e+3, 1.5737198e+2, -884054.9, -1456672.9, -69255.18, 0.103596784, 0.20467238, -875797.94, 521966.28, 0.043485697, 10.005166, 9.997265 
2.5560424e+3, 1.6736834e+2, -826015.5, -1329181.0, -45547.03, 0.113837965, 0.15442276, -821925.75, 477875.88, 0.011527933, 10.004528, 9.997769 
2.5559294e+3, 1.7736417e+2, -845251.9, -1291158.9, -75074.53, 0.088060096, 0.020544887, -832951.3, 368893.1, 0.0013157567, 10.003691, 9.997765 
2.555816e+3, 1.873625e+2, -764642.3, -1109709.0, -88389.016, 0.09209487, 0.096524745, -743319.06, 360542.56, 0.000016496271, 10.003173, 9.998585 
2.5557026e+3, 1.9736199e+2, -740339.3, -1065368.8, -62384.086, 0.106252834, 0.2472707, -728777.0, 277090.2, 0.0, 10.002743, 9.9984255 
2.5555885e+3, 2.0735982e+2, -720539.1, -966416.5, -16316.372, -0.014621004, 0.23748508, -719461.1, 188427.5, 0.0, 10.002047, 9.998763 
2.555475e+3, 2.1735713e+2, -764208.0, -975466.1, -9354.662, -0.1804024, 0.15752757, -763794.56, 46120.46, 0.0, 10.001239, 9.99842 
2.5553638e+3, 2.2735456e+2, -714673.8, -927800.75, -8173.389, -0.038951747, 0.14436539, -714360.8, -2418.5593, 0.0, 10.001025, 9.998175 
2.5552538e+3, 2.3735219e+2, -608983.3, -807674.3, -13187.257, 0.21384288, 0.14948381, -608111.94, 5856.0645, 0.0, 10.000995, 9.9983425 
2.5551403e+3, 2.4735032e+2, -497952.66, -540954.1, -52925.09, 0.16010524, 0.1112135, -462327.7, 53655.633, 0.0, 10.000386, 9.999792 
2.555025e+3, 2.5734895e+2, -540440.2, -526513.3, -51122.668, -0.02251021, 0.05938517, -481882.0, -63890.344, 0.0, 9.999488, 9.999653 
2.554911e+3, 2.6734895e+2, -606007.56, -458985.53, -16297.828, -0.06773963, 0.13350067, -457200.53, -137206.28, 0.0, 9.998157, 10.000085 
2.5547984e+3, 2.7734944e+2, -727278.56, -470260.78, 25709.201, -0.041634854, 0.24196729, -467714.38, -245720.39, 0.0, 9.996662, 10.000057 
2.5546852e+3, 2.8734943e+2, -637249.94, -284178.22, 6819.0977, -0.01702338, 0.25440687, -284046.56, -160047.9, 0.0, 9.996209, 10.000882 
2.5545707e+3, 2.9734963e+2, -535796.1, -165646.02, -4015.842, -0.044714037, 0.25024074, -165602.45, -139602.53, 0.0, 9.996152, 10.001052 
2.5544575e+3, 3.073514e+2, -548111.8, 45671.01, -23610.426, 0.05931627, 0.2887482, 46608.348, 46608.348, 0.0, 9.994905, 10.002768 
2.5543422e+3, 3.173529e+2, -801323.3, 70297.96, 61332.234, 0.008742198, 0.22583027, 74592.484, 74592.484, 0.0, 9.992525, 10.004087 
2.5665054e+3, 1.2749487e+2, -875472.1, -1606051.0, 57782.816, 0.19701491, 0.05107956, -870930.2, 819627.3, 0.23644964, 10.009182, 9.996503 
2.5663912e+3, 1.3749024e+2, -929007.75, -1606851.8, 18476.543, 0.22167774, 0.0026183024, -928504.5, 664100.06, 0.16287698, 10.007266, 9.996569 
2.5662756e+3, 1.4748713e+2, -826689.7, -1433685.3, 8282.244, 0.11200214, 0.04785094, -826576.75, 668057.94, 0.091401406, 10.006406, 9.997533 
2.56616e+3, 1.5748474e+2, -768900.06, -1401289.9, 22206.61, -0.004048904, 0.12343497, -768121.25, 628535.56, 0.03771105, 10.005973, 9.997253 
2.5660458e+3, 1.6748124e+2, -803904.6, -1377197.3, 34849.95, 0.03445351, 0.12285704, -801793.94, 496900.7, 0.009610779, 10.004933, 9.997242 
2.565933e+3, 1.7747748e+2, -870055.5, -1341054.5, 12963.496, 0.12085652, 0.08416182, -869699.0, 331037.47, 0.0010123339, 10.003689, 9.997419 
2.5658187e+3, 1.874755e+2, -757870.75, -1087208.5, 9878.639, 0.12476368, 0.13508475, -757574.7, 345181.66, 0.000009793076, 10.003147, 9.998746 
2.5657046e+3, 1.9747445e+2, -718788.8, -1048812.3, 7339.875, 0.09838848, 0.22156277, -718625.6, 286139.88, 0.0, 10.002873, 9.998471 
2.5655904e+3, 2.0747207e+2, -761573.44, -1019636.0, 2343.4048, 0.005290957, 0.21132824, -761552.2, 145237.42, 0.0, 10.001917, 9.998457 
2.5654757e+3, 2.1746935e+2, -845049.4, -1019607.7, -17339.934, -0.11241106, 0.15481894, -843343.56, -34525.6, 0.0, 10.000712, 9.998367 
2.565364e+3, 2.274676e+2, -758469.1, -867338.8, 34726.96, -0.03517222, 0.18137473, -748335.25, -37498.254, 0.0, 10.000378, 9.998899 
2.565253e+3, 2.3746635e+2, -663750.3, -772876.3, 60597.992, 0.1297563, 0.23041044, -636770.5, -23919.482, 0.0, 10.000363, 9.998883 
2.5651392e+3, 2.4746421e+2, -600940.5, -599559.5, 11704.615, 0.12569098, 0.15114534, -588525.06, -73655.99, 0.0, 9.999727, 9.999703 
2.565024e+3, 2.57462e+2, -636980.5, -561868.8, 7464.3125, 0.042088337, 0.02401496, -561134.25, -144248.34, 0.0, 9.998784, 9.999747 
2.5649086e+3, 2.6746252e+2, -655397.7, -408032.53, -1368.6664, -0.034919918, 0.11280806, -408024.97, -89143.32, 0.0, 9.997504, 10.000745 
2.5647935e+3, 2.7746424e+2, -772714.7, -426679.0, 12595.0205, -0.08657916, 0.2752323, -426221.2, -205353.22, 0.0, 9.9960785, 10.000634 
2.5646797e+3, 2.874643e+2, -718857.6, -294617.8, 50729.477, -0.06312898, 0.26181692, -288636.06, -165764.88, 0.0, 9.995538, 10.001127 
2.5645658e+3, 2.974641e+2, -650163.06, -199312.28, 62027.082, -0.04607524, 0.19462705, -190934.4, -166057.75, 0.0, 9.995284, 10.001235 
2.5644514e+3, 3.0746612e+2, -589064.44, 19406.742, -27192.857, 0.045000345, 0.2564772, 20619.586, 20619.586, 0.0, 9.994659, 10.002704 
2.5643367e+3, 3.1746826e+2, -454378.6, 369585.13, -7938.927, 0.19574386, 0.24748912, 369661.6, 369661.6, 0.0, 9.994349, 10.005261 
2.5765133e+3, 1.2761267e+2, -970376.56, -1780203.5, -4758.2075, 0.14889947, 0.25105858, -970348.6, 719057.8, 0.21204852, 10.008679, 9.995367 
2.576399e+3, 1.3760698e+2, -963795.4, -1721631.5, -24868.99, 0.3409508, 0.20444815, -962980.2, 628486.2, 0.14502604, 10.007246, 9.995792 
2.5762823e+3, 1.4760198e+2, -786098.56, -1380506.3, -5119.4995, 0.18307051, 0.06810966, -786054.5, 707456.44, 0.08037806, 10.006471, 9.997895 
2.5761646e+3, 1.5759757e+2, -759317.9, -1385416.6, -7309.743, -0.060278025, -0.0930687, -759232.56, 636314.6, 0.032429207, 10.005955, 9.997376 
2.57605e+3, 1.6759512e+2, -839151.5, -1453910.5, -16127.255, 0.003510779, 0.041189943, -838728.75, 458847.03, 0.007925337, 10.004932, 9.996719 
2.5759363e+3, 1.7759351e+2, -893297.4, -1396850.9, -20377.053, 0.16649692, 0.26870754, -892474.1, 307126.2, 0.0007675484, 10.0037155, 9.997026 
2.5758216e+3, 1.8759035e+2, -757118.5, -1099536.6, 4125.294, 0.13980995, 0.2197657, -757068.8, 344562.34, 0.000005913737, 10.003201, 9.998639 
2.5757062e+3, 1.975868e+2, -734348.06, -1088849.1, -8157.5356, 0.048024468, 0.07073297, -734160.44, 269501.88, 0.0, 10.002902, 9.998186 
2.5755927e+3, 2.075841e+2, -807652.1, -1129331.6, -40992.367, 0.13744026, 0.08656232, -802510.56, 103181.26, 0.0, 10.001971, 9.997681 
2.5754797e+3, 2.1758196e+2, -852830.94, -1052442.4, -43776.07, 0.27459008, 0.15961051, -843652.6, -35934.41, 0.0, 10.000778, 9.998114 
2.575365e+3, 2.2758159e+2, -670116.25, -686664.5, 39246.43, 0.09425781, 0.25691745, -638281.25, 71442.03, 0.0, 10.000383, 10.000141 
2.5752497e+3, 2.3758197e+2, -609757.4, -645896.06, 53033.273, -0.18534002, 0.34972644, -571799.7, 39919.746, 0.0, 10.000293, 9.999792 
2.575136e+3, 2.475803e+2, -611338.06, -614807.3, -24398.824, -0.10156151, 0.28846616, -588612.25, -74878.164, 0.0, 9.999695, 9.999618 
2.5750226e+3, 2.5757807e+2, -634981.3, -563622.3, -32065.268, 0.09689585, 0.16494937, -551330.9, -135577.16, 0.0, 9.998803, 9.999729 
2.5749063e+3, 2.6757723e+2, -646275.3, -392708.28, -57775.625, 0.026719462, 0.114495136, -380164.56, -62404.895, 0.0, 9.99751, 10.000853 
2.5747886e+3, 2.775773e+2, -752656.6, -387703.56, -28769.762, -0.12568276, 0.09881402, -385449.5, -165692.1, 0.0, 9.996083, 10.000903 
2.5746742e+3, 2.875788e+2, -664611.7, -185361.58, 39894.07, -0.1028096, 0.16978392, -182063.39, -60319.75, 0.0, 9.995542, 10.001881 
2.5745603e+3, 2.9758087e+2, -621979.6, -143190.66, 46900.188, -0.058018442, 0.2572809, -138639.77, -114915.04, 0.0, 9.995285, 10.001625 
2.5744453e+3, 3.0758032e+2, -651445.44, -116200.945, -52424.668, 0.02983766, 0.10553612, -111114.53, -111114.53, 0.0, 9.994675, 10.001771 
2.5743303e+3, 3.1758016e+2, -578932.1, 71174.89, 11503.852, 0.17748472, -0.018224433, 71378.39, 71378.39, 0.0, 9.99451, 10.003139 
2.5865203e+3, 1.2772796e+2, -1178209.1, -1899699.3, 13034.593, 0.14501134, 0.18255408, -1177973.8, 510300.9, 0.18919736, 10.006659, 9.995526 
2.5864056e+3, 1.3772321e+2, -939498.44, -1726367.4, 36455.613, 0.31152296, 0.22183909, -937813.06, 652513.2, 0.12838475, 10.007392, 9.995689 
2.5862885e+3, 1.4771779e+2, -784108.56, -1474765.4, 17637.982, 0.22106133, 0.106763, -783658.44, 708718.9, 0.07020315, 10.006864, 9.996999 
2.586171e+3, 1.5771246e+2, -797161.8, -1454378.1, -50004.246, 0.07103246, -0.061304756, -793379.0, 601046.0, 0.027652275, 10.005884, 9.996931 
2.5860548e+3, 1.6771021e+2, -781226.25, -1346776.4, -33322.586, 0.07886522, 0.06328464, -779269.6, 517180.0, 0.006462531, 10.0049925, 9.997422 
2.5859392e+3, 1.7770919e+2, -801220.1, -1310059.6, 35147.246, 0.13904878, 0.2853373, -798803.9, 399661.1, 0.0005722533, 10.004169, 9.997401 
2.5858238e+3, 1.8770559e+2, -715201.56, -1136372.4, 80514.445, 0.09462748, 0.21701843, -700334.56, 400165.94, 0.0000035552432, 10.00374, 9.998124 
2.5857088e+3, 1.9770129e+2, -675803.1, -1093173.3, 37301.0, 0.021129837, 0.042593837, -672495.7, 330045.63, 0.0, 10.003449, 9.9978895 
2.5855947e+3, 2.0769897e+2, -638635.06, -1013226.5, 34348.54, 0.13455418, 0.090434484, -635511.5, 269055.66, 0.0, 10.00299, 9.997984 
2.5854808e+3, 2.176976e+2, -599859.4, -899225.25, 90716.19, 0.3063151, 0.21595071, -574515.44, 232069.8, 0.0, 10.00239, 9.998385 
2.585365e+3, 2.2769699e+2, -659701.7, -663853.9, 125932.25, 0.12895916, 0.27371097, -535828.4, 172763.23, 0.0, 10.000391, 10.000287 
2.5852484e+3, 2.3769687e+2, -933414.25, -777720.75, 80366.84, -0.16750236, 0.30193928, -743679.4, -133087.63, 0.0, 9.997974, 10.000001 
2.585134e+3, 2.4769594e+2, -847178.8, -685499.7, 46067.902, -0.111108, 0.285759, -673294.75, -160694.23, 0.0, 9.997896, 9.999996 
2.5850204e+3, 2.5769478e+2, -640532.9, -533858.25, 56735.305, 0.07118575, 0.23883058, -509325.4, -94714.03, 0.0, 9.998634, 10.00001 
2.584903e+3, 2.6769358e+2, -522084.25, -336086.2, 3757.3523, 0.006329738, 0.14070268, -336010.3, -19389.752, 0.0, 9.998389, 10.000812 
2.5847846e+3, 2.776926e+2, -527186.2, -288122.6, 19791.113, -0.12518868, 0.030520987, -286495.22, -67869.02, 0.0, 9.997676, 10.000816 
2.58467e+3, 2.8769413e+2, -543294.4, -149582.52, 38604.55, -0.062011667, 0.1234199, -145832.94, -25221.588, 0.0, 9.99648, 10.001671 
2.5845557e+3, 2.9769653e+2, -664116.6, -199390.95, -23909.645, 0.0047035087, 0.2673842, -198164.06, -175575.25, 0.0, 9.995157, 10.001296 
2.5844392e+3, 3.0769524e+2, -639033.06, -189041.83, -113477.57, -0.00047190455, 0.095834315, -162045.0, -162045.0, 0.0, 9.995112, 10.001053 
2.5843245e+3, 3.176934e+2, -626904.75, -137421.56, -43258.457, 0.18460882, -0.11383127, -133627.95, -133627.95, 0.0, 9.994992, 10.001466 
2.596526e+3, 1.278421e+2, -1118309.8, -1773609.4, 15419.12, 0.13815671, -0.028268028, -1117947.1, 569204.0, 0.16801456, 10.006627, 9.996402 
2.596411e+3, 1.3783938e+2, -935602.25, -1713053.1, 27235.043, 0.17978632, 0.13280377, -934649.3, 654533.6, 0.113030605, 10.0072565, 9.995846 
2.596295e+3, 1.4783438e+2, -909264.4, -1728022.0, -25476.799, 0.23688823, 0.16035603, -908472.4, 582763.5, 0.060908318, 10.006695, 9.995337 
2.5961787e+3, 1.578289e+2, -871862.56, -1578672.1, -74065.54, 0.31201795, 0.13028097, -864184.75, 529108.06, 0.023379613, 10.005706, 9.996167 
2.5960606e+3, 1.6782628e+2, -685399.6, -1135198.4, -57149.758, 0.2125688, 0.14797164, -678252.0, 617064.8, 0.0052107163, 10.004927, 9.998916 
2.595942e+3, 1.7782477e+2, -742009.3, -1190386.4, 9480.903, 0.049489398, 0.18221352, -741808.94, 455519.4, 0.00041931498, 10.004179, 9.99822 
2.5958258e+3, 1.8782136e+2, -778019.56, -1262890.8, 68723.39, 0.0030431093, 0.15741916, -768467.25, 330896.88, 0.0000020172258, 10.003717, 9.99727 
2.595711e+3, 1.9781755e+2, -711415.5, -1143571.4, 28071.008, -0.0019877036, 0.1093191, -709599.75, 291805.88, 0.0, 10.003343, 9.997599 
2.5955957e+3, 2.0781623e+2, -572881.2, -853352.2, 16567.426, 0.011196442, 0.1934738, -571905.94, 331514.06, 0.0, 10.002883, 9.999137 
2.59548e+3, 2.1781585e+2, -573542.9, -817903.75, 51860.793, 0.033198554, 0.31090057, -562992.0, 242432.05, 0.0, 10.002269, 9.999005 
2.5953645e+3, 2.2781362e+2, -722624.25, -789205.25, 30625.215, 0.09039482, 0.23735794, -710680.25, -3235.6584, 0.0, 10.000363, 9.999444 
2.5952488e+3, 2.3781106e+2, -953338.7, -831341.4, 21456.283, 0.14482628, 0.102411665, -827677.75, -218209.9, 0.0, 9.998021, 9.999614 
2.5951332e+3, 2.4781115e+2, -786564.56, -568530.1, 75425.625, 0.06890249, 0.15087564, -544981.2, -33513.363, 0.0, 9.997927, 10.000789 
2.5950173e+3, 2.5781223e+2, -600833.6, -459386.06, 71299.25, -0.053243104, 0.25015053, -429683.56, -16224.62, 0.0, 9.998661, 10.000512 
2.5948998e+3, 2.678115e+2, -534630.7, -368583.1, -22064.564, -0.1030202, 0.19651103, -365701.16, -50236.73, 0.0, 9.998409, 10.000582 
2.594782e+3, 2.778103e+2, -553831.56, -358706.84, -11949.825, -0.0959149, 0.09107415, -357977.75, -140504.7, 0.0, 9.997734, 10.000307 
2.594667e+3, 2.8781018e+2, -627814.06, -336938.6, -17632.326, 0.068459556, 0.12242761, -335873.66, -216397.55, 0.0, 9.996522, 10.000369 
2.5945514e+3, 2.978107e+2, -739065.0, -359229.22, -61328.0, 0.15749694, 0.20420963, -349572.72, -328098.0, 0.0, 9.99517, 10.000196 
2.5944325e+3, 3.0781126e+2, -670977.1, -265642.8, -105807.13, -0.09796547, 0.28796548, -239685.55, -239685.55, 0.0, 9.995147, 10.000516 
2.594319e+3, 3.1780976e+2, -651312.8, -203437.69, -81883.445, 0.20588894, 0.16587037, -188936.73, -188936.73, 0.0, 9.99505, 10.000989 
2.606533e+3, 1.2795632e+2, -1033530.9, -1659946.1, -44064.918, 0.19453587, -0.047652815, -1030446.3, 655589.3, 0.14847127, 10.00686, 9.997103 
2.6064172e+3, 1.379547e+2, -955447.06, -1644637.8, -57382.47, 0.17423294, 0.15377706, -950702.06, 637351.9, 0.09896323, 10.006664, 9.996601 
2.6062998e+3, 1.4795072e+2, -987145.6, -1679068.3, -55535.703, 0.1831127, 0.2013571, -982716.5, 507380.16, 0.052496914, 10.005709, 9.996142 
2.6061824e+3, 1.5794614e+2, -989718.44, -1571959.6, 22074.363, 0.2327429, 0.18654215, -988882.75, 403262.7, 0.019602794, 10.004588, 9.996748 
2.606064e+3, 1.6794305e+2, -764510.56, -1169925.4, 34121.31, 0.17898518, 0.13769317, -761658.8, 532513.75, 0.0041559143, 10.004364, 9.998946 
2.6059458e+3, 1.7794062e+2, -709246.0, -1171235.6, 15261.481, 0.0777859, 0.081035905, -708742.4, 487448.38, 0.00030227643, 10.004391, 9.99825 
2.6058292e+3, 1.8793787e+2, -816904.9, -1280450.5, 77315.16, 0.026902298, 0.12108154, -804349.5, 293872.22, 0.0000010444409, 10.003453, 9.997272 
2.6057133e+3, 1.979352e+2, -866277.1, -1199998.0, 83820.96, 0.0029059376, 0.18686281, -846406.9, 153847.81, 0.0, 10.002208, 9.997754 
2.605597e+3, 2.0793389e+2, -777336.75, -896328.2, 58677.453, 0.012492526, 0.2375071, -753269.4, 148997.88, 0.0, 10.001247, 9.999625 
2.6054808e+3, 2.1793315e+2, -818451.9, -901908.94, 47525.363, 0.0341046, 0.27482194, -796935.44, 7336.305, 0.0, 10.000446, 9.999303 
2.6053643e+3, 2.2793052e+2, -728442.4, -814303.9, 39424.215, 0.1048902, 0.16338661, -713086.56, -6791.3115, 0.0, 10.000424, 9.999239 
2.6052478e+3, 2.3792754e+2, -596333.56, -674829.75, 70568.625, 0.19299439, 0.006296689, -554833.0, 53489.547, 0.0, 10.000548, 9.999465 
2.605131e+3, 2.4792784e+2, -659767.2, -514042.5, 97579.99, 0.09398801, 0.088445336, -465123.16, 45198.855, 0.0, 9.998835, 10.000721 
2.6050138e+3, 2.579294e+2, -904879.75, -606465.0, 43702.504, -0.07393818, 0.2423444, -600196.5, -187886.02, 0.0, 9.996583, 10.000501 
2.6048967e+3, 2.6792908e+2, -754096.56, -461112.94, -17075.588, -0.10578627, 0.22606353, -460121.13, -145808.39, 0.0, 9.996853, 10.000693 
2.6047796e+3, 2.779283e+2, -535582.56, -346603.28, 4235.3354, -0.051490597, 0.14718905, -346508.4, -130189.9, 0.0, 9.997856, 10.000326 
2.6046637e+3, 2.8792778e+2, -503875.72, -296049.22, 32224.69, 0.10029452, 0.15148145, -291167.28, -172842.02, 0.0, 9.997465, 10.000189 
2.6045468e+3, 2.9792762e+2, -558954.6, -300089.0, 82916.43, 0.16191168, 0.19050416, -275807.8, -255477.69, 0.0, 9.996533, 9.999942 
2.6044273e+3, 3.0792862e+2, -546461.8, -233370.72, 108269.6, -0.14309902, 0.3552982, -199577.58, -199577.58, 0.0, 9.996134, 10.000255 
2.6043138e+3, 3.1792828e+2, -506454.66, -110357.37, 75362.17, 0.18869728, 0.37480184, -96503.38, -96503.38, 0.0, 9.995956, 10.001184 
2.61654e+3, 1.2807088e+2, -975742.1, -1575404.9, -23752.895, 0.27056015, 0.044416454, -974802.75, 710119.06, 0.13048522, 10.006903, 9.997741 
2.6164237e+3, 1.3806985e+2, -921133.2, -1513042.9, -48192.094, 0.22257122, 0.23398075, -917235.1, 669694.94, 0.08613883, 10.006315, 9.997718 
2.6163036e+3, 1.4806722e+2, -862765.06, -1374624.3, -86401.11, 0.07034381, 0.23074767, -848574.1, 640381.5, 0.044945538, 10.005491, 9.998378 
2.6161835e+3, 1.5806413e+2, -903482.25, -1389838.1, -10578.725, -0.060774114, 0.15644585, -903252.25, 487733.53, 0.016302118, 10.00457, 9.998011 
2.6160663e+3, 1.6806044e+2, -830935.44, -1311212.3, 34210.703, 0.036718424, 0.06830629, -828510.8, 464508.28, 0.0032805854, 10.00437, 9.9979725 
2.6159504e+3, 1.7805685e+2, -751405.75, -1248341.6, 8100.797, 0.17916949, -0.017052885, -751273.75, 443777.2, 0.00021471149, 10.004341, 9.997746 
2.615833e+3, 1.8805511e+2, -776284.75, -1194111.3, 34515.855, 0.12524013, 0.101766385, -773452.7, 323620.38, 0.00000047553752, 10.003438, 9.997875 
2.615715e+3, 1.9805403e+2, -837995.56, -1141708.0, 45090.766, 0.021156052, 0.27065152, -831442.5, 167648.23, 0.0, 10.002203, 9.99816 
2.6155987e+3, 2.0805193e+2, -779554.75, -907360.4, 28093.541, 0.112558596, 0.23429361, -773652.0, 127457.414, 0.0, 10.00127, 9.999541 
2.6154825e+3, 2.1804973e+2, -813620.1, -896274.8, 30048.828, 0.24743593, 0.12865053, -803850.7, -724.1859, 0.0, 10.00046, 9.999338 
2.6153645e+3, 2.2804773e+2, -704257.75, -766360.2, 48583.727, 0.14848517, 0.059322633, -677650.0, 27493.195, 0.0, 10.000427, 9.99957 
2.615246e+3, 2.3804604e+2, -603787.0, -682635.6, 50466.184, -0.013517973, 0.0035402111, -579171.4, 27986.69, 0.0, 10.000508, 9.999434 
2.6151282e+3, 2.480458e+2, -725952.5, -647158.0, 5731.922, -0.024313675, 0.09087575, -646743.2, -137578.44, 0.0, 9.998813, 9.999819 
2.6150107e+3, 2.5804624e+2, -936703.9, -677830.8, -7579.351, -0.0012967777, 0.21701469, -677609.06, -266442.4, 0.0, 9.996601, 10.000005 
2.614894e+3, 2.6804632e+2, -719635.44, -397423.88, 23268.434, -0.006759402, 0.22875373, -395752.22, -82586.016, 0.0, 9.996878, 10.001123 
2.6147774e+3, 2.780465e+2, -487009.34, -256461.9, 23562.146, -0.0028580609, 0.20128863, -254078.47, -38915.227, 0.0, 9.997894, 10.000931 
2.6146594e+3, 2.8804696e+2, -425014.47, -141983.39, -2617.9, 0.004084592, 0.21622486, -141959.17, -24801.596, 0.0, 9.9975, 10.001234 
2.6145408e+3, 2.9804763e+2, -498222.47, -196062.31, 60460.234, -0.04420937, 0.23912935, -184413.69, -165262.9, 0.0, 9.99662, 10.000619 
2.6144233e+3, 3.0804732e+2, -535698.56, -234285.08, 108376.87, -0.070707865, 0.2545089, -199362.98, -199362.98, 0.0, 9.9962225, 10.000213 
2.614309e+3, 3.1804886e+2, -458670.94, -45661.54, -19313.877, 0.1473378, 0.4537389, -44760.316, -44760.316, 0.0, 9.996068, 10.001595 
2.626546e+3, 1.2819026e+2, -892062.56, -1525618.6, 130391.87, 0.24456304, 0.15972933, -866276.2, 817476.7, 0.11399358, 10.007372, 9.997888 
2.6264286e+3, 1.381873e+2, -1146914.5, -1619723.1, 102209.734, 0.24678905, 0.14923377, -1125765.3, 460012.38, 0.074501395, 10.004529, 9.99781 
2.6263082e+3, 1.481846e+2, -1051064.9, -1468309.6, 23207.62, 0.11652407, 0.14443208, -1049778.0, 438025.94, 0.03820985, 10.004134, 9.998351 
2.6261878e+3, 1.5818207e+2, -907017.56, -1385087.3, -11738.694, -0.0029226062, 0.12900393, -906729.5, 483100.2, 0.013445508, 10.004515, 9.998064 
2.6260707e+3, 1.6817883e+2, -823222.1, -1291814.4, 52027.52, 0.07837675, 0.076053195, -817515.0, 474344.44, 0.0025642305, 10.004368, 9.998098 
2.6259544e+3, 1.7817563e+2, -778162.44, -1233221.4, 73003.414, 0.20332117, 0.017281787, -766737.6, 427150.9, 0.00015052193, 10.00405, 9.997983 
2.6258358e+3, 1.8817423e+2, -759330.6, -1129134.8, 85826.81, 0.14598307, 0.1337461, -740382.2, 355523.56, 0.0000001940375, 10.00332, 9.998375 
2.625717e+3, 1.981735e+2, -782699.8, -1086653.4, 90290.55, 0.045826424, 0.2916791, -757901.8, 240016.45, 0.0, 10.002468, 9.998407 
2.6255995e+3, 2.0817068e+2, -721426.06, -918578.4, 69664.5, 0.11873373, 0.20145804, -699294.3, 200649.27, 0.0, 10.001845, 9.999184 
2.6254827e+3, 2.1816753e+2, -709357.7, -865890.8, 55319.57, 0.23524736, 0.036373075, -691781.1, 110189.31, 0.0, 10.001269, 9.999152 
2.6253638e+3, 2.2816624e+2, -711293.2, -752063.4, 66281.266, 0.1249036, 0.035340555, -662333.06, 41648.824, 0.0, 10.00031, 9.999721 
2.6252446e+3, 2.381657e+2, -781855.6, -766332.06, 49962.156, -0.04471756, 0.08336676, -723532.4, -117545.02, 0.0, 9.999283, 9.999447 
2.6251262e+3, 2.4816507e+2, -698416.75, -666705.5, 20219.055, -0.028418975, 0.15050042, -656866.56, -148868.77, 0.0, 9.999148, 9.99952 
2.6250082e+3, 2.581646e+2, -578352.75, -526147.75, 53191.5, 0.04202268, 0.2169806, -492999.28, -82991.55, 0.0, 9.999158, 9.99981 
2.6248908e+3, 2.6816452e+2, -611854.7, -344308.97, 86172.94, 0.023644997, 0.22087254, -318956.25, -6947.4546, 0.0, 9.997621, 10.001127 
2.6247734e+3, 2.7816477e+2, -795494.5, -387887.2, 53027.227, -0.0025362938, 0.2031179, -381101.63, -167096.84, 0.0, 9.99571, 10.001078 
2.624655e+3, 2.8816548e+2, -679095.8, -211244.72, -10805.559, -0.029579457, 0.2034777, -210995.28, -94999.6, 0.0, 9.995534, 10.001702 
2.6245356e+3, 2.981664e+2, -582312.44, -182824.28, 9559.069, -0.104940034, 0.20042498, -182595.67, -164611.02, 0.0, 9.995819, 10.001091 
2.6244187e+3, 3.0816585e+2, -614456.0, -212250.69, 80163.59, -0.044502396, 0.14456217, -196862.05, -196862.05, 0.0, 9.995433, 10.00074 
2.624303e+3, 3.1816855e+2, -637192.75, -66998.04, -20639.813, 0.10692013, 0.40453354, -66251.9, -66251.9, 0.0, 9.994579, 10.002159 
2.636552e+3, 1.2831256e+2, -912140.1, -1553754.5, 15318.972, 0.14473316, 0.28611642, -911774.56, 770776.5, 0.09895705, 10.007192, 9.997737 
2.6364323e+3, 1.3830638e+2, -1151783.1, -1690700.0, 23023.924, 0.2469849, -0.025732566, -1150801.3, 433804.47, 0.063996725, 10.004747, 9.997209 
2.6363128e+3, 1.483028e+2, -1117851.6, -1663752.0, 34149.06, 0.25754115, -0.0020364034, -1115723.6, 370919.7, 0.03223686, 10.004328, 9.996917 
2.6361942e+3, 1.5830022e+2, -956032.06, -1487319.1, 4634.4897, 0.2700723, 0.10773379, -955991.6, 432681.88, 0.0109932665, 10.004495, 9.9973755 
2.6360756e+3, 1.682981e+2, -778512.9, -1180320.6, 46067.957, 0.22916594, 0.13510235, -773298.75, 517394.8, 0.001986362, 10.004279, 9.998912 
2.6359573e+3, 1.782963e+2, -751209.44, -1146808.0, 53507.37, 0.16121235, 0.13854301, -744099.94, 448609.13, 0.000104982326, 10.003913, 9.998647 
2.635838e+3, 1.8829483e+2, -743090.1, -1078701.8, 49113.957, 0.10754386, 0.1997004, -736050.4, 358673.56, 0.00000008640195, 10.003242, 9.998761 
2.635719e+3, 1.9829348e+2, -781204.4, -1078303.1, 58352.324, 0.060115725, 0.26279104, -770154.5, 226583.92, 0.0, 10.0024395, 9.998482 
2.6356e+3, 2.0829006e+2, -765519.7, -1006572.2, 46934.74, 0.038054995, 0.14661956, -756703.56, 142067.13, 0.0, 10.001824, 9.998592 
2.635481e+3, 2.182864e+2, -745310.94, -929687.44, 29848.791, 0.025631985, -0.012643822, -740599.1, 60205.844, 0.0, 10.001216, 9.998743 
2.6353627e+3, 2.2828591e+2, -717120.2, -759544.6, 26316.184, 0.047558695, 0.082901314, -704531.5, -1719.3289, 0.0, 10.000286, 9.999684 
2.6352444e+3, 2.3828645e+2, -778371.7, -759131.25, 25214.541, 0.072779864, 0.24103312, -741764.0, -136953.39, 0.0, 9.999277, 9.999502 
2.6351258e+3, 2.4828556e+2, -679458.8, -630099.3, 24341.459, 0.06515136, 0.26419434, -620115.0, -113293.5, 0.0, 9.999153, 9.999772 
2.635007e+3, 2.5828445e+2, -571738.94, -519719.16, 31768.002, 0.039100975, 0.24327059, -504671.53, -95837.39, 0.0, 9.999183, 9.9998455 
2.634887e+3, 2.682836e+2, -643598.75, -412540.72, 6077.732, -0.024300443, 0.20006403, -412380.97, -101539.86, 0.0, 9.997624, 10.00066 
2.634768e+3, 2.7828303e+2, -826136.5, -445698.44, 3166.486, -0.06846052, 0.14587474, -445672.06, -232827.67, 0.0, 9.995679, 10.000699 
2.6346502e+3, 2.8828302e+2, -698824.7, -244536.55, 71.278595, 0.011556822, 0.10153451, -244536.53, -129694.55, 0.0, 9.995492, 10.001498 
2.634532e+3, 2.9828346e+2, -566815.25, -145930.69, 9073.595, 0.01520827, 0.06669599, -145735.17, -128899.92, 0.0, 9.995791, 10.001362 
2.6344126e+3, 3.0828395e+2, -533990.75, -39083.332, 49923.895, -0.13601868, 0.0207659, -34097.48, -34097.48, 0.0, 9.995397, 10.001952 
2.634296e+3, 3.1828758e+2, -568888.4, 93879.45, 27400.063, 0.034401778, 0.25579378, 95010.29, 95010.29, 0.0, 9.994511, 10.003291 
2.6465577e+3, 1.2843254e+2, -1008113.94, -1670885.3, -48190.063, 0.10324868, 0.25879082, -1004628.4, 676747.1, 0.08531146, 10.0067, 9.997078 
2.646437e+3, 1.3842656e+2, -937738.44, -1613702.6, -57595.973, 0.22135061, 0.027276997, -932866.06, 650566.0, 0.054565724, 10.006402, 9.996939 
2.6463175e+3, 1.4842343e+2, -919342.9, -1514252.4, 41517.12, 0.28323132, 0.07157557, -916459.44, 569005.1, 0.026974568, 10.005503, 9.99737 
2.646199e+3, 1.5842123e+2, -944372.6, -1462651.3, 99119.37, 0.3548108, 0.18393578, -926063.1, 461425.7, 0.008906841, 10.004494, 9.997542 
2.646079e+3, 1.6841863e+2, -911736.4, -1286555.0, 107341.68, 0.2495718, 0.18628666, -883172.4, 406341.47, 0.0015275393, 10.003549, 9.9985285 
2.645959e+3, 1.7841618e+2, -945498.9, -1260249.8, 51242.68, 0.09268879, 0.160974, -937366.5, 254169.81, 0.00007381441, 10.002671, 9.998462 
2.6458398e+3, 1.8841425e+2, -841634.56, -1108009.6, 28484.744, 0.08261758, 0.17123458, -838622.6, 254931.83, 0.000000036839044, 10.002495, 9.998915 
2.645721e+3, 1.9841252e+2, -768243.56, -1056383.0, 16120.457, 0.113157965, 0.18264122, -767344.5, 228226.31, 0.0, 10.002472, 9.9986105 
2.645601e+3, 2.0840973e+2, -798672.0, -1018887.3, 19040.28, 0.06541066, 0.12138106, -797037.9, 100560.59, 0.0, 10.001588, 9.998619 
2.645481e+3, 2.1840693e+2, -846522.06, -968558.44, 40792.05, 0.004040695, 0.04713892, -834142.6, -34516.16, 0.0, 10.000484, 9.998826 
2.645362e+3, 2.2840673e+2, -747927.3, -754327.06, 63476.86, 0.04448281, 0.1562564, -687569.75, 14061.552, 0.0, 9.999993, 9.999858 
2.6452437e+3, 2.3840731e+2, -716443.94, -715036.9, 79066.195, 0.11377635, 0.30600706, -636671.06, -33042.355, 0.0, 9.999648, 9.999623 
2.645124e+3, 2.4840608e+2, -693084.6, -634270.5, 80045.984, 0.070383586, 0.2906314, -578400.75, -72758.8, 0.0, 9.999055, 9.999789 
2.6450044e+3, 2.5840452e+2, -696552.8, -591384.2, 59330.59, -0.009851068, 0.2253116, -564689.06, -157031.28, 0.0, 9.998382, 9.999737 
2.6448837e+3, 2.6840347e+2, -597801.44, -433615.2, 12492.948, -0.07389636, 0.19512735, -432670.03, -123003.5, 0.0, 9.998133, 10.000265 
2.6447636e+3, 2.7840272e+2, -534128.25, -349760.9, 22928.201, -0.09177624, 0.16381419, -346952.3, -135280.3, 0.0, 9.99788, 10.000295 
2.644646e+3, 2.884022e+2, -492611.53, -194533.63, 29560.064, 0.040870767, 0.112219125, -191630.45, -77954.95, 0.0, 9.9971285, 10.001049 
2.644528e+3, 2.984021e+2, -519802.0, -143074.83, 8691.292, 0.08533624, 0.06470945, -142874.42, -127199.7, 0.0, 9.996207, 10.001177 
2.6444072e+3, 3.0840278e+2, -526700.8, -7118.2505, -26830.148, -0.12998235, 0.024871385, -5736.4727, -5736.4727, 0.0, 9.995333, 10.002198 
2.6442897e+3, 3.1840587e+2, -450146.97, 182126.02, -52272.64, -0.006256618, 0.18481857, 186418.47, 186418.47, 0.0, 9.9952135, 10.003549 
2.6565632e+3, 1.2855159e+2, -1075892.0, -1814165.1, -53037.47, 0.08093715, 0.16092567, -1072101.3, 608109.94, 0.07295838, 10.006588, 9.99614 
2.6564422e+3, 1.3854772e+2, -971410.3, -1638932.6, -60717.535, 0.16656595, 0.21674044, -965932.4, 616322.0, 0.04613522, 10.006143, 9.996889 
2.6563218e+3, 1.4854574e+2, -832362.25, -1304951.3, 7575.41, 0.22809653, 0.27398467, -832240.8, 652031.6, 0.02236825, 10.005344, 9.998916 
2.656202e+3, 1.5854421e+2, -910105.5, -1381616.3, 54692.445, 0.304457, 0.31512305, -903844.6, 482439.8, 0.0071488433, 10.004439, 9.998127 
2.6560813e+3, 1.6854015e+2, -985423.0, -1456416.4, 68204.84, 0.17855093, 0.23096442, -975745.06, 312578.3, 0.0011680983, 10.003615, 9.997333 
2.6559603e+3, 1.7853567e+2, -982547.6, -1368441.5, 33785.598, 0.00014629461, 0.115656294, -979612.0, 210754.66, 0.000052712003, 10.002801, 9.99766 
2.6558414e+3, 1.8853293e+2, -840574.9, -1114223.8, 34719.11, 0.063763276, 0.075365216, -836238.6, 256154.06, 0.000000014947995, 10.002525, 9.99886 
2.6557237e+3, 1.9853091e+2, -773826.3, -1044556.3, 6182.4434, 0.18497041, 0.059218954, -773685.25, 220726.7, 0.0, 10.002364, 9.998748 
2.655603e+3, 2.0852974e+2, -770055.3, -949127.3, -21205.557, 0.17481199, 0.12198459, -767578.44, 128847.31, 0.0, 10.001538, 9.999124 
2.655482e+3, 2.1852893e+2, -812205.5, -901388.2, 12782.123, 0.12512332, 0.196966, -810409.6, -11973.112, 0.0, 10.000496, 9.999285 
2.655362e+3, 2.2852851e+2, -721395.06, -704869.2, 52603.84, 0.095784575, 0.2464382, -659883.25, 40557.38, 0.0, 10.000011, 10.000192 
2.655242e+3, 2.3852827e+2, -707444.25, -696612.6, 62259.508, 0.06918328, 0.2815858, -639533.8, -37091.336, 0.0, 9.999642, 9.999756 
2.6551217e+3, 2.485266e+2, -707467.6, -666149.5, 52253.164, -0.013935662, 0.23404865, -630619.7, -126160.055, 0.0, 9.999059, 9.999571 
2.655001e+3, 2.5852478e+2, -709512.94, -626342.25, 40206.42, -0.11631483, 0.16739134, -610083.9, -203605.2, 0.0, 9.99841, 9.999487 
2.654881e+3, 2.6852417e+2, -617885.25, -482065.47, 6423.6177, -0.1266706, 0.2097505, -481762.34, -173277.47, 0.0, 9.998156, 9.999926 
2.654761e+3, 2.7852398e+2, -555185.9, -410955.72, 8505.238, -0.0802195, 0.27239504, -410455.9, -199969.34, 0.0, 9.997951, 9.999844 
2.6546425e+3, 2.8852317e+2, -535603.5, -299465.44, -7278.0215, 0.045292743, 0.25357708, -299241.34, -186746.19, 0.0, 9.99719, 10.000301 
2.6545236e+3, 2.9852244e+2, -567931.7, -255049.77, -27503.55, 0.07570721, 0.21773759, -252650.5, -238147.9, 0.0, 9.996253, 10.00039 
2.6544034e+3, 3.0852246e+2, -586129.6, -135382.45, -65478.996, 0.019364467, 0.19971259, -126063.16, -126063.16, 0.0, 9.995342, 10.001319 
2.6542845e+3, 3.1852224e+2, -521386.06, 3291.8918, 13111.972, 0.034456532, 0.12174937, 3619.3623, 3619.3623, 0.0, 9.995322, 10.002281 
2.666571e+3, 1.2867306e+2, -1100549.4, -1814410.3, -1256.3727, 0.31089565, 0.14542985, -1100547.3, 578473.8, 0.06179753, 10.006281, 9.996288 
2.6664466e+3, 1.3866992e+2, -1160626.3, -1741560.5, 40414.652, 0.14521468, 0.26995897, -1157828.1, 423230.97, 0.038622357, 10.004777, 9.996843 
2.6663253e+3, 1.4866714e+2, -1011680.0, -1439791.5, 55353.26, 0.15956545, 0.28157252, -1004638.8, 478446.38, 0.01835572, 10.00429, 9.99847 
2.6662055e+3, 1.5866454e+2, -965100.1, -1428202.8, 7881.803, 0.25168723, 0.2543848, -964966.0, 420141.3, 0.005678272, 10.004145, 9.997946 
2.6660848e+3, 1.686609e+2, -879933.8, -1377810.8, 66134.766, 0.19386487, 0.20280553, -871298.7, 415843.1, 0.00088780833, 10.004231, 9.997571 
2.6659638e+3, 1.7865713e+2, -765003.25, -1252879.5, 93820.13, 0.08964213, 0.14052542, -747583.3, 441594.7, 0.00003796397, 10.004258, 9.997746 
2.665844e+3, 1.886543e+2, -817673.6, -1124580.8, 88279.67, 0.10504513, 0.10324419, -794092.44, 297113.56, 0.0000000057994387, 10.002784, 9.998661 
2.6657245e+3, 1.9865207e+2, -959825.56, -1125615.3, 61570.125, 0.15864769, 0.08415408, -939461.3, 53767.06, 0.0, 10.001058, 9.9988165 
2.6656035e+3, 2.0865168e+2, -804255.56, -908207.1, 52595.41, 0.15808181, 0.19051887, -782287.06, 112947.555, 0.0, 10.001063, 9.999629 
2.6654825e+3, 2.1865176e+2, -658820.0, -799086.06, 74233.234, 0.13761716, 0.3121529, -626829.5, 170406.77, 0.0, 10.001436, 9.999529 
2.6653612e+3, 2.2865027e+2, -656586.0, -700903.1, 70578.82, 0.06995042, 0.26491144, -604769.06, 94479.734, 0.0, 10.000583, 9.999939 
2.6652402e+3, 2.3864856e+2, -748862.1, -742614.1, 50385.176, -0.0014156371, 0.18058126, -695256.2, -93993.664, 0.0, 9.999477, 9.999516 
2.6651198e+3, 2.486472e+2, -676544.44, -676025.3, 44214.355, -0.044176895, 0.18671775, -632069.75, -128791.75, 0.0, 9.999383, 9.999344 
2.6649994e+3, 2.5864607e+2, -570162.5, -570174.1, 24236.645, -0.083157904, 0.20976308, -545931.7, -140639.33, 0.0, 9.999419, 9.999384 
2.6648787e+3, 2.6864547e+2, -576445.6, -453481.13, 4969.947, -0.0908581, 0.25062987, -453280.56, -145982.28, 0.0, 9.998408, 9.999998 
2.664758e+3, 2.7864513e+2, -675856.06, -476463.28, 38663.01, -0.051186822, 0.29423916, -469228.84, -259927.95, 0.0, 9.997161, 9.99977 
2.664639e+3, 2.8864428e+2, -617743.94, -376809.63, 56476.395, 0.08166164, 0.30090848, -364228.22, -252917.6, 0.0, 9.996797, 9.999956 
2.6645195e+3, 2.9864347e+2, -551671.2, -306500.94, 65867.836, 0.1288741, 0.29729828, -289925.4, -276605.25, 0.0, 9.996626, 9.999854 
2.6643986e+3, 3.08643e+2, -448363.06, -163488.05, 36763.227, -0.010058193, 0.30755544, -158820.23, -158820.23, 0.0, 9.996706, 10.000462 
2.6642787e+3, 3.1864077e+2, -500216.6, -33015.816, 98134.89, -0.04798006, 0.10853694, -13239.808, -13239.808, 0.0, 9.995679, 10.001851 
2.67658e+3, 1.287961e+2, -1040255.1, -1701080.3, -61869.83, 0.6540012, 0.17552322, -1034512.5, 643302.1, 0.051754914, 10.006308, 9.997052 
2.6764503e+3, 1.3879298e+2, -1129243.3, -1744980.6, -4255.6055, 0.12679149, 0.24335405, -1129213.9, 450637.5, 0.031952396, 10.005055, 9.996685 
2.6763278e+3, 1.4878818e+2, -1078621.3, -1663279.4, 46635.05, 0.0760416, 0.1736075, -1074924.8, 406974.38, 0.01487625, 10.004624, 9.996774 
2.676208e+3, 1.5878339e+2, -971003.25, -1503664.9, 13793.739, 0.1899704, 0.077654265, -970646.3, 413299.0, 0.004454035, 10.004407, 9.997305 
2.6760888e+3, 1.6878137e+2, -797353.7, -1210925.9, 74732.914, 0.2642675, 0.13005807, -784263.7, 501700.0, 0.00066839694, 10.004244, 9.998714 
2.6759696e+3, 1.787801e+2, -756530.44, -1180727.0, 68654.76, 0.2933912, 0.2095742, -745695.6, 442279.47, 0.000027206008, 10.004018, 9.998361 
2.6758468e+3, 1.8877773e+2, -850851.44, -1176234.9, 17568.918, 0.17897803, 0.22085044, -849905.56, 240094.42, 0.000000001728097, 10.002704, 9.998348 
2.6757237e+3, 1.9877543e+2, -948209.94, -1123939.9, 28019.51, 0.04547976, 0.22101843, -943850.5, 48174.406, 0.0, 10.001149, 9.998788 
2.6756024e+3, 2.0877518e+2, -765227.94, -838341.1, 70254.52, 0.03685028, 0.3100101, -722588.06, 171440.19, 0.0, 10.001108, 10.00009 
2.675482e+3, 2.1877524e+2, -668639.94, -804656.0, 65995.09, 0.047244683, 0.39241472, -641882.75, 154144.94, 0.0, 10.001366, 9.999528 
2.67536e+3, 2.2877195e+2, -712512.0, -814184.25, 23395.328, -0.0260095, 0.2194332, -707386.94, -9330.8955, 0.0, 10.000566, 9.999172 
2.675238e+3, 2.3876828e+2, -786395.4, -825690.44, 25823.72, -0.10435117, 0.0117746, -773594.6, -173506.48, 0.0, 9.999494, 9.99894 
2.6751187e+3, 2.4876791e+2, -693673.0, -713649.2, 50184.87, -0.02385518, 0.15166345, -652491.94, -150395.03, 0.0, 9.999389, 9.999084 
2.6749998e+3, 2.5876838e+2, -563821.4, -565479.94, 8832.725, 0.072709955, 0.35467765, -555779.06, -151680.14, 0.0, 9.999451, 9.999403 
2.6748773e+3, 2.6876727e+2, -541869.75, -385204.56, -47046.67, 0.026143875, 0.31377885, -372162.2, -66054.63, 0.0, 9.998415, 10.000467 
2.674755e+3, 2.7876604e+2, -652252.06, -430104.25, 5975.789, -0.01707509, 0.21892774, -429943.6, -221827.28, 0.0, 9.997165, 10.000091 
2.674636e+3, 2.8876546e+2, -608406.1, -359654.38, 51319.758, 0.15284707, 0.23988211, -349482.56, -239360.17, 0.0, 9.9967985, 10.000077 
2.6745167e+3, 2.9876527e+2, -564604.4, -343456.3, 68972.64, 0.24032207, 0.29342738, -323708.28, -311582.0, 0.0, 9.996662, 9.999586 
2.674392e+3, 3.087643e+2, -500646.22, -295455.63, 45815.73, -0.28371596, 0.32902274, -285690.44, -285690.44, 0.0, 9.9967985, 9.999515 
2.6742718e+3, 3.1876245e+2, -453229.28, 66120.875, -95265.97, -0.24712424, 0.23077324, 83044.336, 83044.336, 0.0, 9.995663, 10.002545 
2.686585e+3, 1.2891924e+2, -990878.25, -1722300.8, -43968.402, 0.562571, 0.1760285, -988244.7, 688366.2, 0.04276927, 10.006789, 9.996676 
2.6864564e+3, 1.3891643e+2, -877946.0, -1659620.3, -34769.668, 0.17398126, 0.30861142, -876402.44, 702243.6, 0.026060468, 10.0069685, 9.99635 
2.6863334e+3, 1.489114e+2, -789992.5, -1560938.3, 68600.555, 0.08404472, 0.25060946, -783935.9, 696760.75, 0.011872877, 10.006794, 9.9964285 
2.686212e+3, 1.5890628e+2, -695045.7, -1383364.4, 78432.42, 0.12634549, 0.15430954, -686221.6, 696524.8, 0.0034378232, 10.006369, 9.997182 
2.686092e+3, 1.6890451e+2, -796180.9, -1188105.1, 82177.5, 0.22297478, 0.22322184, -779647.56, 505115.28, 0.00049574056, 10.004162, 9.998905 
2.6859716e+3, 1.789036e+2, -1059471.5, -1294921.4, 46098.867, 0.30231625, 0.32145905, -1050767.5, 136003.1, 0.000019101311, 10.001804, 9.998639 
2.6858488e+3, 1.8890126e+2, -917637.8, -1165078.8, 44482.883, 0.21648882, 0.30014217, -909884.0, 178909.4, 0.0000000002885943, 10.002068, 9.998725 
2.6857254e+3, 1.9889884e+2, -708291.4, -1008362.2, 79134.83, 0.09655196, 0.25910276, -688700.9, 302116.5, 0.0, 10.002805, 9.998777 
2.6856032e+3, 2.0889786e+2, -727222.25, -891863.2, 65282.074, 0.025437888, 0.32348603, -704478.9, 188349.13, 0.0, 10.001684, 9.999441 
2.6854813e+3, 2.1889721e+2, -853723.5, -929833.44, 5532.4277, -0.022788398, 0.38916364, -853323.44, -58488.02, 0.0, 10.000258, 9.999198 
2.6853597e+3, 2.2889405e+2, -713306.9, -802235.75, 7150.365, -0.021959273, 0.232409, -712735.6, -15873.176, 0.0, 10.000509, 9.99928 
2.6852384e+3, 2.3889072e+2, -564038.56, -704260.25, 55935.863, -0.005494361, 0.047312967, -544459.1, 54432.195, 0.0, 10.000965, 9.999061 
2.685118e+3, 2.4889064e+2, -651720.06, -678727.2, 101145.16, 0.019074114, 0.20566694, -563181.0, -62284.3, 0.0, 9.9996195, 9.999209 
2.6849976e+3, 2.5889128e+2, -776811.3, -659087.5, 87570.19, 0.04408051, 0.42158565, -612435.1, -209539.05, 0.0, 9.997959, 9.999475 
2.684875e+3, 2.6888967e+2, -600299.56, -414499.0, 15173.498, 0.02096181, 0.32803392, -413268.0, -108358.914, 0.0, 9.998028, 10.000447 
2.6847523e+3, 2.7888772e+2, -478054.16, -344565.34, 35086.508, 0.017530654, 0.16769156, -335905.0, -128981.414, 0.0, 9.99836, 10.000099 
2.6846325e+3, 2.8888726e+2, -421323.03, -260855.31, 73472.62, 0.12823287, 0.19422254, -232297.19, -123368.66, 0.0, 9.9980545, 10.000145 
2.684512e+3, 2.9888737e+2, -440137.8, -279753.56, 88938.57, 0.15177631, 0.27105588, -240192.4, -229262.8, 0.0, 9.997511, 9.999609 
2.684388e+3, 3.0888665e+2, -541848.0, -319016.5, 120964.85, -0.251786, 0.33398992, -265975.66, -265975.66, 0.0, 9.996538, 9.999474 
2.6842672e+3, 3.18885e+2, -415174.84, 115132.195, -76760.86, -0.20624548, 0.2622662, 126019.65, 126019.65, 0.0, 9.995799, 10.0028105 
2.6965877e+3, 1.2904271e+2, -1107045.5, -1892328.4, -51279.11, 0.22827812, 0.16819465, -1103711.1, 571695.4, 0.034769334, 10.006395, 9.995699 
2.6964635e+3, 1.3904035e+2, -892250.6, -1714362.8, -25144.922, 0.25392213, 0.4326535, -891482.25, 685957.56, 0.020880695, 10.007038, 9.995942 
2.6963398e+3, 1.4903618e+2, -760354.8, -1497342.9, 62212.574, 0.13805668, 0.44077307, -755140.06, 724341.56, 0.009290114, 10.006766, 9.996881 
2.696217e+3, 1.5903191e+2, -718268.7, -1381420.9, 32285.674, 0.048496295, 0.38893592, -716700.56, 664822.0, 0.002596012, 10.006144, 9.997305 
2.696094e+3, 1.690295e+2, -835344.94, -1257914.6, -15692.585, 0.10063066, 0.4226068, -834763.0, 448782.84, 0.00035955504, 10.004105, 9.998456 
2.6959714e+3, 1.7902765e+2, -1039994.3, -1281618.1, 3698.424, 0.16991624, 0.4614115, -1039937.75, 145625.81, 0.000012945302, 10.001916, 9.998679 
2.69585e+3, 1.89025e+2, -849489.7, -1042258.75, 77043.875, 0.22851008, 0.34994808, -822481.6, 265103.38, 0.000000000007316074, 10.002141, 9.9995365 
2.695729e+3, 1.9902228e+2, -722185.1, -1027012.2, 70683.43, 0.26071894, 0.2177354, -706592.6, 283014.03, 0.0, 10.002755, 9.998677 
2.695605e+3, 2.0901994e+2, -832313.06, -1111721.1, 3812.8872, 0.09315627, 0.2521172, -832261.06, 59371.434, 0.0, 10.001686, 9.997933 
2.6954806e+3, 2.1901792e+2, -887739.5, -1011226.75, -14816.817, -0.087210216, 0.31553623, -885986.56, -92330.31, 0.0, 10.0002985, 9.998623 
2.6953605e+3, 2.2901663e+2, -653862.94, -680299.8, 34797.105, 0.068359986, 0.30093274, -629858.2, 65808.73, 0.0, 10.000513, 10.000116 
2.6952416e+3, 2.3901564e+2, -522291.0, -607136.25, 44294.895, 0.25941184, 0.27153778, -503380.8, 94292.664, 0.0, 10.000916, 9.999755 
2.6951173e+3, 2.490152e+2, -619146.6, -608791.1, 30924.58, 0.06919131, 0.3379277, -582613.8, -82934.91, 0.0, 9.999604, 9.999701 
2.6949924e+3, 2.5901484e+2, -767537.06, -645480.6, 53048.695, -0.18255103, 0.40915197, -625647.2, -223962.95, 0.0, 9.997977, 9.999562 
2.6948708e+3, 2.6901263e+2, -636898.2, -495080.28, 32382.117, -0.11155365, 0.29422152, -488036.16, -184333.22, 0.0, 9.998043, 9.999889 
2.69475e+3, 2.7901033e+2, -492933.38, -390259.34, 39519.723, 0.0340785, 0.14956503, -376809.78, -171087.56, 0.0, 9.998418, 9.99976 
2.6946285e+3, 2.890096e+2, -415793.3, -263337.88, 53016.027, -0.018420395, 0.16533098, -246714.3, -138984.78, 0.0, 9.998108, 10.000106 
2.6945058e+3, 2.990096e+2, -401977.2, -216953.72, 60410.61, -0.16796069, 0.22471248, -198976.25, -189244.66, 0.0, 9.997574, 10.000013 
2.694388e+3, 3.090101e+2, -464764.8, -162330.02, 79610.86, 0.15739426, 0.3222568, -142653.9, -142653.9, 0.0, 9.996545, 10.00055 
2.694264e+3, 3.1900853e+2, -444704.72, 40008.18, -71911.35, -0.04153499, 0.17909878, 50451.832, 50451.832, 0.0, 9.995843, 10.002281 
2.706592e+3, 1.2916614e+2, -1292566.3, -1858944.9, 16932.85, 0.19441086, 0.22263491, -1292060.5, 382141.9, 0.02769053, 10.004507, 9.996837 
2.7064693e+3, 1.3916412e+2, -779661.3, -1596292.9, 76487.05, 0.19451801, 0.42346054, -772559.2, 803666.9, 0.016356124, 10.0075245, 9.996518 
2.7063453e+3, 1.4916024e+2, -817584.5, -1548874.9, 76150.305, 0.12458994, 0.45843935, -809739.0, 668527.56, 0.0070838192, 10.006466, 9.996667 
2.706222e+3, 1.5915617e+2, -944581.9, -1501218.8, 11091.432, 0.084840424, 0.4492566, -944360.94, 435946.97, 0.0019036715, 10.004629, 9.9972105 
2.706097e+3, 1.691535e+2, -879240.3, -1278919.4, -24657.705, 0.10017857, 0.45916846, -877724.8, 404608.9, 0.00025238845, 10.003807, 9.998454 
2.7059728e+3, 1.7915124e+2, -855569.44, -1202933.4, 35308.93, 0.11853288, 0.46099752, -852016.7, 332338.25, 0.0000083357545, 10.003231, 9.998584 
2.7058512e+3, 1.8914837e+2, -783003.7, -1037503.5, 95343.59, 0.14837728, 0.35121956, -751247.44, 335130.63, 0.0, 10.002722, 9.999287 
2.70573e+3, 1.9914554e+2, -799910.3, -1071853.4, 23474.85, 0.18038955, 0.22795829, -797898.8, 190501.84, 0.0, 10.00226, 9.998604 
2.7056062e+3, 2.0914312e+2, -767348.2, -1064176.6, 10192.291, 0.112059385, 0.2449069, -766998.6, 123427.7, 0.0, 10.002069, 9.998071 
2.705482e+3, 2.1914102e+2, -661801.06, -893677.56, 84690.61, 0.030643431, 0.29250994, -634162.94, 158287.05, 0.0, 10.001821, 9.9986925 
2.7053607e+3, 2.2914022e+2, -662339.4, -688828.8, 111372.836, 0.10039564, 0.33246014, -563426.5, 131030.81, 0.0, 10.000482, 10.00007 
2.70524e+3, 2.3913981e+2, -781512.56, -722217.0, 67097.21, 0.19534443, 0.36373672, -678509.25, -82049.234, 0.0, 9.999102, 9.999834 
2.705116e+3, 2.4913886e+2, -600194.6, -571104.44, 30672.66, 0.051391732, 0.359658, -551702.94, -53234.918, 0.0, 9.999619, 9.9999485 
2.704991e+3, 2.5913775e+2, -427954.34, -484539.38, 34046.75, -0.13692601, 0.33791825, -411978.97, -11501.473, 0.0, 10.000325, 9.999533 
2.704869e+3, 2.691356e+2, -478876.28, -469476.1, 17322.957, -0.10975742, 0.26089108, -456226.94, -153729.39, 0.0, 9.999352, 9.999431 
2.704747e+3, 2.791336e+2, -555097.3, -428324.66, 31043.488, -0.016084388, 0.18279473, -421131.06, -216614.4, 0.0, 9.998037, 9.999677 
2.7046248e+3, 2.8913352e+2, -527983.06, -268863.66, 70198.625, -0.07687314, 0.23485348, -251068.13, -144550.72, 0.0, 9.997137, 10.000532 
2.7045017e+3, 2.99134e+2, -571617.5, -263354.63, 98774.125, -0.20772314, 0.3043775, -234420.97, -225907.06, 0.0, 9.996263, 10.000324 
2.704384e+3, 3.091337e+2, -601619.9, -207675.58, 57171.39, 0.23971432, 0.30277646, -199546.3, -199546.3, 0.0, 9.995528, 10.000725 
2.7042583e+3, 3.191324e+2, -546096.2, -34025.383, -71460.35, -0.063148886, 0.17533587, -24239.96, -24239.96, 0.0, 9.995269, 10.002045 
2.716597e+3, 1.2928976e+2, -1053659.5, -1490809.5, 132505.34, 0.2961882, 0.31252536, -1016631.9, 656364.25, 0.021503419, 10.005069, 9.999119 
2.7164745e+3, 1.3928804e+2, -760863.6, -1474686.9, 95247.336, 0.038495444, 0.33752337, -748373.06, 826633.06, 0.012456495, 10.007136, 9.997549 
2.7163506e+3, 1.4928399e+2, -910901.4, -1665631.0, -10866.722, 0.070210375, 0.37372878, -910744.94, 566305.06, 0.005229065, 10.006109, 9.996043 
2.716227e+3, 1.5927976e+2, -982852.8, -1546259.6, -40827.64, 0.18705444, 0.4007642, -979909.56, 399187.78, 0.0013447349, 10.004474, 9.99698 
2.716101e+3, 1.6927701e+2, -851520.9, -1237595.4, -45415.016, 0.17269072, 0.38792112, -846250.56, 434872.7, 0.00016899512, 10.003875, 9.998706 
2.715975e+3, 1.7927462e+2, -847247.75, -1229666.9, 16452.58, 0.10815528, 0.36330232, -846541.2, 336602.72, 0.0000049507566, 10.003417, 9.998312 
2.7158517e+3, 1.892716e+2, -839966.4, -1179278.4, 78108.6, -0.008020419, 0.31983393, -822849.5, 262321.72, 0.0, 10.002819, 9.998268 
2.715729e+3, 1.9926877e+2, -806272.6, -1076730.0, 14064.178, -0.09500045, 0.2758844, -805543.25, 181653.83, 0.0, 10.002221, 9.998591 
2.7156073e+3, 2.0926729e+2, -678025.94, -866110.5, 5514.1787, 0.09437653, 0.28860778, -677864.44, 211345.81, 0.0, 10.002011, 9.99946 
2.7154857e+3, 2.1926616e+2, -640713.2, -830121.5, 54237.07, 0.28306344, 0.3124606, -626281.94, 164938.39, 0.0, 10.00173, 9.999174 
2.7153602e+3, 2.2926472e+2, -719100.06, -806521.8, 48365.973, 0.066790394, 0.3301074, -697619.6, -4384.0015, 0.0, 10.000477, 9.999266 
2.7152348e+3, 2.3926331e+2, -809501.75, -789200.3, 47329.477, -0.18161501, 0.3352668, -750945.3, -155694.78, 0.0, 9.999134, 9.999361 
2.715114e+3, 2.4926165e+2, -599415.8, -574090.6, 65683.234, -0.023537861, 0.27605486, -519860.53, -22596.814, 0.0, 9.999633, 9.999923 
2.714994e+3, 2.5926006e+2, -433597.4, -506288.7, 31919.502, 0.16575165, 0.21364668, -421570.97, -22295.082, 0.0, 10.000363, 9.999369 
2.7148688e+3, 2.692586e+2, -501313.72, -521568.47, -36781.477, 0.017795423, 0.23161882, -473290.88, -171997.58, 0.0, 9.999371, 9.999067 
2.714743e+3, 2.792575e+2, -537891.6, -396819.28, -12296.45, -0.14849325, 0.27404022, -395755.47, -192448.17, 0.0, 9.99805, 9.99989 
2.7146217e+3, 2.8925914e+2, -464986.0, -132387.19, 36466.1, -0.031428546, 0.41931483, -128435.99, -23145.008, 0.0, 9.997106, 10.001489 
2.7144995e+3, 2.992609e+2, -568408.44, -245466.7, 68640.31, 0.045857362, 0.54613584, -231482.92, -224210.02, 0.0, 9.996208, 10.000477 
2.7143756e+3, 3.092572e+2, -676363.06, -349193.56, 29240.41, -0.09293808, 0.2612515, -346600.78, -346600.78, 0.0, 9.9954605, 9.999789 
2.714252e+3, 3.1925717e+2, -527780.75, -3479.3062, 25549.566, -0.16676979, 0.3293658, -2237.2012, -2237.2012, 0.0, 9.995295, 10.002242 
2.7266026e+3, 1.2941317e+2, -658411.0, -1314972.8, 94226.98, 0.25976357, 0.40692914, -645155.5, 1026636.75, 0.016199246, 10.007865, 9.998994 
2.726479e+3, 1.39411e+2, -1073598.5, -1574567.8, -50767.88, -0.008069885, 0.38627863, -1068505.5, 505300.56, 0.009169486, 10.004725, 9.9980135 
2.7263546e+3, 1.4940733e+2, -1165665.1, -1656227.0, -98600.08, 0.05109067, 0.35899138, -1146588.9, 329254.28, 0.0037121254, 10.00378, 9.997224 
2.72623e+3, 1.5940362e+2, -1076059.6, -1512661.3, -20457.277, 0.19932671, 0.33155736, -1075103.1, 302779.03, 0.00090806675, 10.003501, 9.997673 
2.7261043e+3, 1.6940117e+2, -766045.94, -1194941.9, 12237.284, 0.15810254, 0.32899323, -765697.06, 514207.5, 0.000106237785, 10.00446, 9.9987135 
2.7259785e+3, 1.79399e+2, -576313.06, -1119295.3, 33902.883, 0.0668085, 0.3320106, -574204.4, 607718.94, 0.0000025953589, 10.005373, 9.998125 
2.725854e+3, 1.893962e+2, -715565.3, -1170226.9, 79817.85, -0.015992375, 0.34863833, -701960.06, 381991.34, 0.0, 10.003901, 9.997806 
2.7257305e+3, 1.993935e+2, -838978.1, -1104745.1, 52146.816, -0.06738491, 0.3580737, -829112.5, 156866.25, 0.0, 10.002054, 9.998475 
2.725608e+3, 2.0939167e+2, -784994.6, -883265.6, 12762.526, 0.08679831, 0.32002863, -783364.2, 104629.12, 0.0, 10.001134, 9.9997635 
2.7254853e+3, 2.193902e+2, -811629.7, -905609.9, 1790.2683, 0.2447326, 0.2838358, -811595.56, -21591.297, 0.0, 10.000531, 9.999232 
2.7253595e+3, 2.2938883e+2, -674555.0, -817314.06, 11802.441, 0.023958113, 0.3272148, -673585.8, 18433.78, 0.0, 10.000927, 9.998972 
2.7252337e+3, 2.3938748e+2, -508694.0, -660677.4, 38865.527, -0.22355744, 0.36466587, -499331.9, 94703.33, 0.0, 10.001276, 9.999208 
2.7251127e+3, 2.4938546e+2, -574552.25, -561316.06, 64189.94, -0.041724365, 0.27503762, -503403.94, -7352.4785, 0.0, 9.999807, 9.999923 
2.7249926e+3, 2.5938362e+2, -752865.75, -643503.8, 33448.01, 0.18781292, 0.17971459, -634085.0, -236018.97, 0.0, 9.998111, 9.999506 
2.7248666e+3, 2.6938275e+2, -679120.75, -569633.4, 6307.8975, 0.027182495, 0.2353147, -569271.2, -269193.44, 0.0, 9.997998, 9.999393 
2.7247402e+3, 2.7938232e+2, -531236.6, -366887.72, 65120.426, -0.15479295, 0.31703207, -344213.2, -142127.3, 0.0, 9.997986, 10.000123 
2.724618e+3, 2.893837e+2, -457638.25, -117319.336, 56195.027, 0.0040792357, 0.42404467, -108280.24, -4208.619, 0.0, 9.997115, 10.001584 
2.7244955e+3, 2.993852e+2, -575778.56, -240085.28, 41851.57, 0.108551316, 0.51286566, -234946.23, -228890.45, 0.0, 9.996131, 10.0005455 
2.7243692e+3, 3.093818e+2, -611632.7, -307598.8, 70213.19, -0.2228088, 0.25667518, -292167.13, -292167.13, 0.0, 9.995875, 9.999867 
2.7242467e+3, 3.193831e+2, -524170.2, 50918.09, 126078.64, -0.13691401, 0.44492525, 77344.42, 77344.42, 0.0, 9.995109, 10.0027 
2.7366084e+3, 1.2953664e+2, -817081.25, -1551069.4, -6930.546, 0.14200135, 0.505904, -817015.8, 853572.2, 0.011762517, 10.007431, 9.997547 
2.7364832e+3, 1.3953362e+2, -1069486.5, -1552464.8, -99506.64, 0.0028930416, 0.51021004, -1049788.8, 522826.5, 0.006481583, 10.004654, 9.9982 
2.7363575e+3, 1.4953062e+2, -984956.56, -1322440.9, -98149.8, 0.0446125, 0.3822746, -958487.8, 516152.03, 0.0025181407, 10.003952, 9.999437 
2.7362323e+3, 1.5952784e+2, -956925.75, -1325987.3, -5763.7007, 0.14354423, 0.24784064, -956835.75, 419826.63, 0.0005826298, 10.003757, 9.998835 
2.736107e+3, 1.6952592e+2, -774167.7, -1218098.1, 54476.664, 0.08216857, 0.28068772, -767580.4, 511098.75, 0.0000621286, 10.004482, 9.998547 
2.7359825e+3, 1.7952424e+2, -619296.56, -1156332.8, 21138.346, -0.0027315472, 0.34719637, -618465.8, 562228.94, 0.0000011486238, 10.005143, 9.997984 
2.7358583e+3, 1.8952192e+2, -736705.5, -1190971.5, 5351.6333, 0.08356962, 0.42150488, -736642.44, 346078.4, 0.0, 10.003797, 9.997716 
2.735734e+3, 1.9951946e+2, -854631.0, -1143866.6, 1941.5251, 0.17445442, 0.46903202, -854618.0, 130130.25, 0.0, 10.002078, 9.9981985 
2.7356082e+3, 2.0951626e+2, -813823.3, -960024.4, -11642.093, 0.07098019, 0.3405596, -812902.06, 73873.35, 0.0, 10.001204, 9.999205 
2.7354825e+3, 2.1951336e+2, -824373.4, -941825.3, 1400.8647, -0.048122544, 0.21056531, -824356.7, -35557.504, 0.0, 10.000569, 9.998968 
2.7353594e+3, 2.2951269e+2, -664889.5, -801437.9, 37521.984, -0.017612407, 0.32331374, -655258.2, 35549.625, 0.0, 10.000941, 9.999076 
2.7352366e+3, 2.3951232e+2, -506040.16, -650069.44, 21821.123, 0.023665216, 0.4509727, -502806.75, 90007.35, 0.0, 10.001249, 9.999296 
2.735112e+3, 2.4951033e+2, -575074.5, -558457.0, -6830.3345, -0.026808532, 0.3558345, -556009.9, -61178.473, 0.0, 9.999786, 9.999955 
2.7349874e+3, 2.5950834e+2, -716410.4, -574751.3, -2650.9019, -0.089854755, 0.23721792, -574701.7, -177853.84, 0.0, 9.998136, 9.999969 
2.734863e+3, 2.6950812e+2, -607424.94, -421057.94, 12818.864, -0.084245354, 0.26983562, -420180.38, -121329.79, 0.0, 9.997995, 10.000416 
2.734739e+3, 2.7950814e+2, -515142.1, -339833.3, 52082.145, -0.04165691, 0.30980086, -325527.7, -124676.33, 0.0, 9.998009, 10.0003 
2.7346146e+3, 2.8950685e+2, -522879.63, -254451.94, 14647.464, 0.015381304, 0.21473226, -253655.02, -150792.6, 0.0, 9.997116, 10.000645 
2.7344894e+3, 2.9950598e+2, -570942.9, -236315.83, 17116.422, -0.051880635, 0.14250325, -235442.58, -230573.05, 0.0, 9.996152, 10.000564 
2.7343652e+3, 3.0950794e+2, -515441.53, -119112.73, 66331.47, -0.12227825, 0.32242042, -108305.85, -108305.85, 0.0, 9.995915, 10.001145 
2.7342418e+3, 3.1950927e+2, -485097.8, 122057.46, -26321.3, -0.067045905, 0.40931708, 123196.4, 123196.4, 0.0, 9.995118, 10.003201 
2.746614e+3, 1.2966213e+2, -1137164.6, -1773224.1, 101685.62, 0.15447477, 0.462614, -1121303.8, 548052.75, 0.00816851, 10.00547, 9.996963 
2.746488e+3, 1.3965906e+2, -1115072.1, -1588974.4, 75937.44, 0.09331884, 0.5158602, -1103201.4, 468188.22, 0.004366392, 10.004395, 9.998074 
2.7463615e+3, 1.4965665e+2, -818950.5, -1201845.1, 54076.227, 0.078852795, 0.43204272, -811459.8, 661947.8, 0.001621027, 10.004927, 9.999793 
2.7462357e+3, 1.5965438e+2, -702673.56, -1212406.3, 40571.375, 0.1097416, 0.32679245, -699464.56, 675959.06, 0.0003527308, 10.005546, 9.998753 
2.7461106e+3, 1.6965146e+2, -829459.5, -1312894.6, 49399.277, 0.055972107, 0.3074677, -824463.3, 452987.2, 0.000033582863, 10.004399, 9.997934 
2.7459857e+3, 1.7964879e+2, -916942.75, -1297910.8, -9445.239, -0.0069913804, 0.32295498, -916708.7, 262767.75, 0.00000040337267, 10.003095, 9.997993 
2.7458605e+3, 1.896475e+2, -814961.25, -1150728.4, 1028.7455, 0.074321225, 0.44698903, -814958.1, 266534.56, 0.0, 10.002929, 9.998406 
2.745736e+3, 1.9964615e+2, -718617.75, -1053480.8, 41844.586, 0.16212703, 0.5498322, -713468.06, 270040.9, 0.0, 10.002911, 9.998416 
2.745609e+3, 2.0964217e+2, -661306.2, -926300.25, 50017.617, 0.036933232, 0.36711347, -652179.7, 233363.33, 0.0, 10.002428, 9.998843 
2.7454823e+3, 2.1963826e+2, -646401.2, -868703.3, 84172.96, -0.10207572, 0.17071183, -618126.1, 169449.78, 0.0, 10.001855, 9.998846 
2.7453595e+3, 2.2963764e+2, -614292.8, -763737.0, 136113.23, -0.03220935, 0.28406188, -533740.25, 155843.38, 0.0, 10.001237, 9.999189 
2.745237e+3, 2.3963754e+2, -604403.94, -688165.44, 95967.62, 0.06345169, 0.43146417, -541576.6, 50010.402, 0.0, 10.000543, 9.9993725 
2.745111e+3, 2.49636e+2, -621010.44, -578706.25, 36606.83, -0.02042186, 0.38297307, -557579.8, -63977.734, 0.0, 9.999472, 9.999964 
2.7449843e+3, 2.596345e+2, -656586.4, -498850.7, 60562.17, -0.12946594, 0.30594105, -478280.56, -82664.63, 0.0, 9.998349, 10.000384 
2.7448598e+3, 2.69635e+2, -582573.94, -313083.84, 91728.91, -0.09386743, 0.33615783, -284824.53, 12784.952, 0.0, 9.99776, 10.001269 
2.7447358e+3, 2.7963546e+2, -615596.44, -378528.97, 111677.5, -0.0042480966, 0.3600316, -334206.6, -134603.88, 0.0, 9.997289, 10.000377 
2.744611e+3, 2.8963295e+2, -558634.6, -364664.8, 71048.0, -0.018813258, 0.20001334, -341425.38, -239798.14, 0.0, 9.99728, 9.9998045 
2.7444842e+3, 2.9963067e+2, -451734.5, -198336.45, 68907.6, -0.15647636, 0.06239921, -180810.31, -177161.11, 0.0, 9.99706, 10.000384 
2.744361e+3, 3.0963388e+2, -528649.3, -57785.367, 62888.16, -0.056603786, 0.32893863, -49530.79, -49530.79, 0.0, 9.995538, 10.001747 
2.7442357e+3, 3.1963518e+2, -623776.94, 41144.094, -81681.27, -0.036188874, 0.36729267, 51031.1, 51031.1, 0.0, 9.99424, 10.003062 
2.7566195e+3, 1.2978896e+2, -1116348.9, -1773652.3, 46929.938, 0.22462557, 0.3465848, -1113015.0, 555093.0, 0.0053772535, 10.0056505, 9.996869 
2.7564928e+3, 1.3978636e+2, -1112616.6, -1634288.0, 64425.957, 0.21479288, 0.46064043, -1104777.9, 465363.28, 0.0027776638, 10.004603, 9.997663 
2.756366e+3, 1.4978454e+2, -860266.56, -1313794.8, 83586.78, 0.1289165, 0.50443935, -845351.7, 626804.5, 0.0009806288, 10.00503, 9.998977 
2.7562404e+3, 1.5978253e+2, -771623.44, -1343536.6, 29863.854, 0.08037532, 0.50995296, -770068.25, 604103.3, 0.00019869788, 10.005491, 9.997879 
2.7561143e+3, 1.697776e+2, -898046.06, -1447430.1, 1514.67, 0.059944242, 0.37873888, -898041.9, 378176.97, 0.000016383336, 10.004364, 9.997028 
2.755988e+3, 1.7977299e+2, -912090.25, -1284356.0, -23073.072, 0.023579342, 0.26688892, -910665.7, 267598.25, 0.00000009587778, 10.003077, 9.998098 
2.755862e+3, 1.897731e+2, -734554.2, -976476.3, 9908.443, -0.023548521, 0.4388321, -734149.06, 346115.5, 0.0, 10.002893, 9.999622 
2.7557358e+3, 1.9977343e+2, -692928.5, -980865.8, 32232.8, -0.05437839, 0.60560447, -689364.3, 292897.88, 0.0, 10.002824, 9.998959 
2.75561e+3, 2.0976919e+2, -680905.56, -961408.94, 28157.78, -0.006878816, 0.39746174, -678106.9, 206191.56, 0.0, 10.002399, 9.998619 
2.7554846e+3, 2.1976471e+2, -651047.5, -876750.0, 64291.816, 0.029873429, 0.1616367, -634018.6, 152318.13, 0.0, 10.0018425, 9.998798 
2.75536e+3, 2.2976357e+2, -607979.06, -747447.5, 113620.08, -0.038218226, 0.21479483, -544400.2, 143948.08, 0.0, 10.00122, 9.999311 
2.7552354e+3, 2.3976311e+2, -606605.94, -684789.06, 63271.0, -0.09967715, 0.31479126, -571324.4, 19029.977, 0.0, 10.000504, 9.999417 
2.7551097e+3, 2.4976246e+2, -627476.9, -588912.56, -6438.985, -0.018092623, 0.35849577, -587865.9, -95501.93, 0.0, 9.999453, 9.999906 
2.7549836e+3, 2.5976208e+2, -629030.06, -449559.9, 28545.836, 0.055064116, 0.38982168, -445128.9, -50758.734, 0.0, 9.998379, 10.000711 
2.7548575e+3, 2.6976335e+2, -534304.4, -215428.27, 71949.54, -0.008791489, 0.4374492, -199945.67, 96408.445, 0.0, 9.997766, 10.00194 
2.7547318e+3, 2.7976444e+2, -613721.0, -380354.44, 104053.65, -0.069138326, 0.47445723, -340697.88, -142358.89, 0.0, 9.997309, 10.000357 
2.7546063e+3, 2.8976238e+2, -608593.25, -471730.06, 74482.67, -0.11011669, 0.41768914, -439015.47, -338653.53, 0.0, 9.997291, 9.999066 
2.75448e+3, 2.997601e+2, -477674.4, -261062.03, 40068.19, -0.21292172, 0.34027117, -253887.95, -251500.14, 0.0, 9.997094, 9.99994 
2.754356e+3, 3.0975932e+2, -547906.4, -96049.734, -6871.9834, -0.029267317, 0.23991412, -95945.24, -95945.24, 0.0, 9.995521, 10.001498 
2.754229e+3, 3.1976166e+2, -699144.3, -89545.12, 13151.679, -0.0655199, 0.41678032, -89261.51, -89261.51, 0.0, 9.994161, 10.002185 
2.7666244e+3, 1.2991704e+2, -959558.44, -1688303.0, 30691.287, 0.17462057, 0.33268008, -958268.1, 708582.5, 0.0033167764, 10.006678, 9.9969635 
2.766497e+3, 1.3991445e+2, -958769.4, -1605086.4, 72054.83, 0.21422528, 0.45459944, -950833.75, 618050.9, 0.001647182, 10.005854, 9.99726 
2.7663705e+3, 1.4991213e+2, -869587.56, -1429478.9, 106727.26, 0.11885521, 0.533532, -849933.0, 620974.7, 0.00054833957, 10.005449, 9.997975 
2.7662447e+3, 1.5990965e+2, -846963.06, -1397373.0, 27404.678, 0.061849367, 0.5715498, -845602.0, 527328.7, 0.00010119908, 10.005052, 9.997719 
2.766118e+3, 1.6990508e+2, -882546.9, -1358299.5, 51762.613, 0.07472227, 0.42611948, -876980.1, 397991.97, 0.000006741736, 10.004125, 9.997753 
2.765991e+3, 1.7990074e+2, -884388.7, -1245012.1, 114285.234, 0.07109975, 0.28673527, -851221.06, 325790.56, 0.00000000965895, 10.003165, 9.9983225 
2.7658638e+3, 1.8989994e+2, -819552.3, -1055994.8, 97756.945, -0.009967933, 0.39289254, -784369.9, 294651.06, 0.0, 10.002483, 9.9992695 
2.7657372e+3, 1.9989948e+2, -825342.44, -1054880.5, 43113.293, -0.07336886, 0.5102109, -817511.75, 163515.16, 0.0, 10.001965, 9.99886 
2.7656117e+3, 2.0989645e+2, -719511.06, -965843.44, 48535.957, -0.00042679338, 0.4168006, -710292.8, 172761.05, 0.0, 10.002081, 9.998737 
2.7654862e+3, 2.1989328e+2, -592924.9, -815146.2, 89145.84, 0.069066755, 0.2979621, -561583.56, 223497.86, 0.0, 10.002105, 9.999092 
2.7653602e+3, 2.2989185e+2, -627329.9, -705881.9, 140817.58, -0.03755552, 0.28320527, -520413.53, 166679.66, 0.0, 10.000875, 9.99976 
2.765234e+3, 2.3989089e+2, -733031.44, -723328.7, 114837.52, -0.13915564, 0.29725084, -613240.1, -24138.645, 0.0, 9.999545, 9.999611 
2.765108e+3, 2.4989048e+2, -690099.06, -630374.4, 53402.7, -0.048525468, 0.37003708, -599051.7, -107942.086, 0.0, 9.999079, 9.999798 
2.7649814e+3, 2.5989032e+2, -595297.2, -450059.6, 79776.375, 0.053517174, 0.4383439, -414799.94, -21685.205, 0.0, 9.998693, 10.000551 
2.764855e+3, 2.698906e+2, -494933.66, -225960.47, 61530.91, 0.006991737, 0.413194, -212552.86, 82554.73, 0.0, 9.998168, 10.001671 
2.7647287e+3, 2.798909e+2, -580986.56, -366937.22, 46215.043, -0.048596967, 0.39022544, -357385.25, -160285.48, 0.0, 9.997547, 10.000332 
2.7646026e+3, 2.8989044e+2, -633623.75, -456799.06, 78810.58, -0.1165878, 0.47385314, -426772.2, -327662.8, 0.0, 9.997012, 9.999297 
2.764476e+3, 2.9988962e+2, -558841.56, -290672.66, 94163.55, -0.21907339, 0.5249927, -260911.4, -259788.45, 0.0, 9.996508, 10.000012 
2.7643514e+3, 3.09887e+2, -438994.5, -62343.05, 49720.69, 0.0028142827, 0.25397533, -55890.117, -55890.117, 0.0, 9.996356, 10.001324 
2.7642232e+3, 3.1988928e+2, -475529.47, -92397.766, 83445.48, -0.095547214, 0.46705985, -75012.37, -75012.37, 0.0, 9.9961815, 10.001187 
2.776629e+3, 1.30046e+2, -979939.7, -1680626.3, -20858.691, 0.04938949, 0.382774, -979319.25, 686267.0, 0.0018843454, 10.006455, 9.997121 
2.7765015e+3, 1.4004318e+2, -1007599.06, -1680499.9, 35392.375, 0.13454348, 0.4792594, -1005742.6, 561879.1, 0.0008926402, 10.005738, 9.9967985 
2.7763748e+3, 1.5003966e+2, -973722.94, -1605951.4, 89871.914, 0.07167505, 0.5316772, -961195.75, 508464.5, 0.00027563874, 10.005272, 9.996853 
2.7762488e+3, 1.6003624e+2, -860785.6, -1367442.5, 6231.105, 0.046110857, 0.5532681, -860709.0, 510986.28, 0.000044277564, 10.004796, 9.998049 
2.7761212e+3, 1.7003363e+2, -770141.2, -1106500.8, 11526.934, 0.09058686, 0.46351588, -769746.6, 503966.28, 0.0000020107127, 10.004043, 9.999523 
2.7759936e+3, 1.8003106e+2, -868172.4, -1219950.8, 73321.38, 0.117172115, 0.36358747, -853501.75, 322228.63, 0.00000000000031198744, 10.0032, 9.998481 
2.7758664e+3, 1.9002767e+2, -921160.56, -1271684.1, 70166.99, 0.08155363, 0.3151496, -907636.5, 170129.67, 0.0, 10.002499, 9.997785 
2.7757394e+3, 2.0002465e+2, -870838.2, -1139595.6, 38833.656, 0.04434269, 0.30162477, -865339.44, 114459.99, 0.0, 10.001918, 9.998303 
2.7756134e+3, 2.1002401e+2, -697977.94, -914653.5, 60410.945, 0.03388897, 0.43454286, -682273.1, 199534.61, 0.0, 10.002051, 9.9991045 
2.775487e+3, 2.2002363e+2, -562731.4, -740226.25, 69200.51, 0.018709356, 0.5526347, -538940.75, 244871.5, 0.0, 10.0020485, 9.999636 
2.7753603e+3, 2.3002216e+2, -581665.94, -605476.4, 86951.03, -0.029563572, 0.4660395, -505808.88, 180012.19, 0.0, 10.000847, 10.000465 
2.7752334e+3, 2.400207e+2, -714541.3, -683898.8, 79582.33, -0.08267244, 0.37066492, -618176.3, -30346.375, 0.0, 9.999536, 9.999889 
2.7751055e+3, 2.5001997e+2, -700601.0, -654484.0, 39534.367, -0.12377946, 0.41630062, -631775.0, -141935.45, 0.0, 9.999084, 9.999632 
2.7749774e+3, 2.6001912e+2, -641266.56, -552653.44, 63336.258, -0.14797838, 0.44824392, -519664.78, -127814.586, 0.0, 9.99872, 9.999836 
2.774852e+3, 2.7001655e+2, -584550.56, -413424.1, 37828.38, -0.047578502, 0.25067937, -405434.94, -111563.1, 0.0, 9.998171, 10.000383 
2.7747265e+3, 2.800145e+2, -576542.4, -361580.06, 22681.004, 0.056648184, 0.08758618, -359213.03, -163324.75, 0.0, 9.9975605, 10.000364 
2.7745995e+3, 2.9001674e+2, -541267.7, -266511.38, 55803.64, -0.030920718, 0.3428516, -255610.03, -157737.81, 0.0, 9.99701, 10.000608 
2.774472e+3, 3.0001906e+2, -507939.7, -192757.19, 83548.375, -0.18466088, 0.5943521, -171979.9, -171979.9, 0.0, 9.996533, 10.000677 
2.774347e+3, 3.100175e+2, -437191.03, -69404.72, 52695.85, 0.025956534, 0.41257685, -62003.48, -62003.48, 0.0, 9.996401, 10.001254 
2.7742186e+3, 3.2001767e+2, -534521.44, -271442.25, -2239.3762, -0.08228843, 0.45977405, -271423.2, -271423.2, 0.0, 9.99637, 9.999894 
2.7866337e+3, 1.3017319e+2, -1159491.9, -1793422.5, -89148.27, 0.04583951, 0.38372427, -1147193.6, 517148.44, 0.000962883, 10.005321, 9.996896 
2.7865058e+3, 1.4017123e+2, -1094347.8, -1708190.1, -52520.688, 0.14051245, 0.5764169, -1089886.5, 476482.4, 0.0004300329, 10.0050745, 9.996929 
2.786379e+3, 1.501671e+2, -1125894.8, -1630646.4, 63182.227, 0.115049995, 0.53046954, -1118106.0, 350305.13, 0.000119606506, 10.004022, 9.997284 
2.7862528e+3, 1.6016315e+2, -1082815.1, -1435698.8, 53638.918, 0.121732734, 0.4602022, -1074842.0, 295607.78, 0.000015302234, 10.00311, 9.99839 
2.7861246e+3, 1.701617e+2, -846557.1, -1121579.1, 6247.682, 0.11728708, 0.4638393, -846415.25, 426043.13, 0.00000031509992, 10.003425, 9.999718 
2.7859962e+3, 1.8016027e+2, -786873.75, -1169991.9, -17762.006, 0.10237635, 0.45869854, -786052.0, 388415.0, 0.0, 10.003705, 9.998582 
2.7858683e+3, 1.901564e+2, -894499.44, -1259151.6, 27552.713, 0.10201939, 0.36172467, -892429.4, 184076.9, 0.0, 10.002687, 9.99778 
2.785741e+3, 2.0015284e+2, -894075.44, -1123273.8, 95536.914, 0.09794998, 0.29003575, -859475.8, 119067.836, 0.0, 10.001653, 9.99854 
2.785614e+3, 2.1015275e+2, -731212.4, -885501.5, 151888.42, 0.03228438, 0.44018453, -638000.3, 242546.84, 0.0, 10.001634, 9.999505 
2.7854875e+3, 2.2015294e+2, -605769.06, -725073.44, 130531.06, -0.02751831, 0.58308095, -521905.6, 260640.67, 0.0, 10.001601, 9.999955 
2.7853602e+3, 2.3015152e+2, -608616.56, -594736.44, 91194.16, -0.022598615, 0.48108667, -510218.66, 174335.23, 0.0, 10.0005665, 10.000671 
2.7852327e+3, 2.4014997e+2, -714612.9, -686114.2, 74489.984, -0.019692868, 0.36277354, -624522.9, -37959.86, 0.0, 9.999554, 9.999861 
2.785104e+3, 2.501487e+2, -647696.44, -658063.3, 46527.28, -0.103838496, 0.3783521, -606064.75, -117487.6, 0.0, 9.9995775, 9.999367 
2.7849755e+3, 2.6014742e+2, -532956.9, -528960.8, 61975.652, -0.17691292, 0.3885182, -468951.0, -78358.78, 0.0, 9.999588, 9.999579 
2.784849e+3, 2.7014503e+2, -505854.84, -407042.94, 89085.51, -0.07718921, 0.23912743, -354580.47, -61967.285, 0.0, 9.998858, 10.000091 
2.7847233e+3, 2.8014317e+2, -519744.8, -328475.34, 125282.77, 0.056271147, 0.11739069, -266497.34, -71868.07, 0.0, 9.997939, 10.000403 
2.7845964e+3, 2.9014534e+2, -528734.4, -216284.48, 99859.4, 0.026777828, 0.33998895, -187096.02, -90483.24, 0.0, 9.996915, 10.000997 
2.7844682e+3, 3.001477e+2, -553987.7, -193928.83, 90406.016, -0.10569632, 0.5653541, -172503.94, -172503.94, 0.0, 9.996134, 10.000857 
2.7843425e+3, 3.1014663e+2, -345468.47, -25271.418, 70537.66, -0.028123232, 0.4299668, -10421.099, -10421.099, 0.0, 9.997042, 10.001244 
2.7842143e+3, 3.2014585e+2, -551312.5, -297698.63, -80378.945, -0.07846679, 0.3872423, -274369.72, -274369.72, 0.0, 9.996346, 9.99972 
2.796639e+3, 1.3029961e+2, -1194484.1, -1854077.9, -98222.72, 0.09737013, 0.36664343, -1180168.1, 482939.3, 0.00043004233, 10.005271, 9.996503 
2.7965108e+3, 1.4029902e+2, -1055552.0, -1630355.4, -66741.12, 0.18652776, 0.71403056, -1047904.3, 517215.75, 0.00017775758, 10.005087, 9.9974575 
2.7963832e+3, 1.5029468e+2, -1011108.06, -1424441.4, 26377.967, 0.20346063, 0.5292493, -1009431.5, 457727.5, 0.000042312564, 10.004157, 9.998634 
2.7962562e+3, 1.6029046e+2, -1043711.44, -1392306.4, 44616.07, 0.23674399, 0.32509178, -1038091.7, 331104.3, 0.00000369064, 10.003271, 9.998611 
2.7961275e+3, 1.7028953e+2, -913494.0, -1250927.4, 29122.387, 0.14331347, 0.43975505, -910999.06, 360207.25, 0.000000010797318, 10.00338, 9.998852 
2.7959985e+3, 1.8028878e+2, -812832.4, -1170981.8, -26589.717, 0.039308205, 0.56386906, -810869.06, 362346.03, 0.0, 10.003475, 9.998687 
2.79587e+3, 1.9028606e+2, -833518.94, -1114619.3, -13284.268, 0.06597684, 0.50092757, -832892.56, 242348.23, 0.0, 10.002609, 9.99881 
2.7957416e+3, 2.0028342e+2, -840791.5, -1015536.5, 79517.96, 0.09091317, 0.42461723, -810024.0, 167241.6, 0.0, 10.001661, 9.999276 
2.7956146e+3, 2.1028236e+2, -702102.7, -823329.1, 157626.02, -0.000505727, 0.42731202, -593837.44, 285437.6, 0.0, 10.001623, 9.999938 
2.795488e+3, 2.2028151e+2, -610828.5, -718359.5, 108018.95, -0.08426566, 0.42974678, -543934.06, 237347.75, 0.0, 10.001525, 10.000039 
2.79536e+3, 2.3028019e+2, -633871.75, -637329.8, 45034.82, -0.021456603, 0.35654014, -590532.8, 92757.35, 0.0, 10.00052, 10.000403 
2.7952322e+3, 2.4027877e+2, -742489.7, -737903.56, 55579.195, 0.041311864, 0.28016934, -684570.2, -99269.875, 0.0, 9.999523, 9.999522 
2.795104e+3, 2.5027674e+2, -673922.2, -712760.06, 52860.137, 0.005382741, 0.25473195, -637026.94, -149704.3, 0.0, 9.999577, 9.998993 
2.7949756e+3, 2.6027524e+2, -512048.97, -492080.9, 48534.72, -0.052639622, 0.263399, -452513.97, -63173.598, 0.0, 9.999614, 9.999822 
2.7948472e+3, 2.7027628e+2, -451804.94, -300844.47, 56404.98, -0.09282205, 0.3983193, -282097.38, 9231.938, 0.0, 9.998877, 10.000815 
2.7947193e+3, 2.802773e+2, -517328.06, -333902.03, 90857.6, -0.07865565, 0.5150012, -296516.72, -103198.34, 0.0, 9.997978, 10.00035 
2.7945927e+3, 2.9027632e+2, -581160.56, -322190.2, 58166.74, 0.049744725, 0.4773308, -309725.44, -214395.86, 0.0, 9.9969, 10.0002775 
2.7944648e+3, 3.0027518e+2, -588135.56, -255477.48, 94158.49, 0.024233326, 0.41464737, -230675.23, -230675.23, 0.0, 9.996091, 10.000457 
2.794337e+3, 3.1027374e+2, -338802.66, -30434.781, 112906.195, -0.20119295, 0.25847757, 6484.646, 6484.646, 0.0, 9.997114, 10.001178 
2.794209e+3, 3.20274e+2, -474312.5, -123405.07, -276305.03, -0.14427252, 0.28798646, 28446.072, 28446.072, 0.0, 9.996296, 10.000936 
2.8066432e+3, 1.3042761e+2, -1126878.0, -1695018.0, -80048.305, 0.09953776, 0.490235, -1115815.0, 546040.75, 0.0001622652, 10.005192, 9.997632 
2.8065145e+3, 1.4042506e+2, -1000195.3, -1499354.8, -1579.4908, 0.16687307, 0.5339911, -1000190.3, 563690.44, 0.00005995252, 10.005018, 9.998391 
2.8063864e+3, 1.5042204e+2, -864959.6, -1273219.3, 61337.977, 0.14899907, 0.41016477, -855943.2, 609962.0, 0.00001120781, 10.004817, 9.999354 
2.8062585e+3, 1.6041937e+2, -861097.0, -1279858.5, 47023.19, 0.1647315, 0.30191755, -855881.7, 512045.78, 0.00000051064126, 10.004422, 9.99883 
2.8061295e+3, 1.7041858e+2, -996823.0, -1317904.5, 57413.86, 0.11141735, 0.44668835, -986865.44, 283074.38, 0.000000000000026948692, 10.0029335, 9.998604 
2.806e+3, 1.8041782e+2, -1064897.4, -1259032.4, 42272.918, 0.049036138, 0.5839664, -1056091.9, 115859.82, 0.0, 10.0016165, 9.99897 
2.8058717e+3, 1.904154e+2, -890603.6, -1066618.8, 50570.76, 0.0983243, 0.49193567, -877108.8, 196864.33, 0.0, 10.001897, 9.999479 
2.8057435e+3, 2.0041305e+2, -736156.3, -923968.25, 118099.76, 0.1408395, 0.39181674, -679178.6, 296814.34, 0.0, 10.002199, 9.999647 
2.8056154e+3, 2.104123e+2, -722368.7, -823001.25, 168540.77, 0.006604522, 0.4095461, -596793.75, 281206.16, 0.0, 10.001443, 10.000026 
2.8054878e+3, 2.204116e+2, -763428.06, -809877.5, 84607.445, -0.1081119, 0.4264857, -698915.6, 81090.4, 0.0, 10.000562, 9.99987 
2.8053597e+3, 2.3041008e+2, -768709.44, -750319.3, 727.6899, 0.0012812266, 0.36759332, -750290.56, -68271.4, 0.0, 9.9998045, 9.999969 
2.8052315e+3, 2.4040852e+2, -774653.8, -737941.2, 41215.645, 0.109579444, 0.30645412, -711178.94, -127146.125, 0.0, 9.99924, 9.999657 
2.805103e+3, 2.5040707e+2, -613668.44, -614085.9, 123910.13, 0.028677283, 0.28653365, -489966.84, -3919.0205, 0.0, 9.999699, 9.999608 
2.8049743e+3, 2.6040605e+2, -452804.13, -445250.6, 136968.56, -0.06731384, 0.29920644, -312006.72, 76051.99, 0.0, 9.99995, 9.999977 
2.804845e+3, 2.7040714e+2, -495994.4, -350235.88, 57379.035, -0.100674726, 0.45571372, -330358.78, -40311.043, 0.0, 9.998697, 10.000561 
2.804716e+3, 2.80408e+2, -619337.06, -442676.56, 48645.875, -0.07830511, 0.58878154, -430167.06, -238128.03, 0.0, 9.997534, 9.999817 
2.8045896e+3, 2.9040554e+2, -465158.97, -351528.6, 20389.766, 0.065457344, 0.47792137, -347980.66, -253916.98, 0.0, 9.998068, 9.999511 
2.8044617e+3, 3.0040315e+2, -294809.2, -113334.87, 45752.676, 0.06253087, 0.34062546, -102452.445, -102452.445, 0.0, 9.998105, 10.000461 
2.8043324e+3, 3.1040257e+2, -597787.6, -84197.32, 106975.195, -0.18838261, 0.22065571, -62806.484, -62806.484, 0.0, 9.995036, 10.001807 
2.8042036e+3, 3.2040387e+2, -693296.25, -155444.28, -237790.78, -0.13785549, 0.29428005, -65391.656, -65391.656, 0.0, 9.994486, 10.001581 
2.8166473e+3, 1.3055655e+2, -1016245.44, -1430477.4, -54120.34, 0.05721233, 0.67014337, -1009291.25, 651302.5, 0.00004963288, 10.005051, 9.999511 
2.8165182e+3, 1.4055021e+2, -971500.3, -1371388.5, 9282.725, 0.09884783, 0.17179449, -971284.94, 591360.1, 0.00001551503, 10.004725, 9.99941 
2.816389e+3, 1.5054952e+2, -882168.1, -1250878.6, 61251.9, 0.006833372, 0.23094569, -872259.0, 592389.5, 0.0000019981007, 10.00456, 9.999635 
2.8162602e+3, 1.6054937e+2, -876795.75, -1263841.5, 11158.954, -0.022980697, 0.35204804, -876474.25, 490174.4, 0.00000003306773, 10.0042095, 9.999043 
2.8161308e+3, 1.7054854e+2, -988122.94, -1293603.5, -1061.2756, 0.04024045, 0.4720964, -988119.25, 280543.44, 0.0, 10.002905, 9.998786 
2.8160015e+3, 1.8054736e+2, -1030772.1, -1206637.3, 28696.44, 0.09427192, 0.5444664, -1026208.1, 144471.1, 0.0, 10.001693, 9.999295 
2.8158736e+3, 1.9054455e+2, -859768.4, -1007776.4, 71283.8, 0.17539652, 0.37560233, -831020.4, 241682.81, 0.0, 10.001914, 9.999878 
2.8157455e+3, 2.0054215e+2, -744423.06, -920889.94, 108830.11, 0.22045821, 0.23701045, -692552.5, 282170.75, 0.0, 10.0021105, 9.999712 
2.8156164e+3, 2.1054262e+2, -748503.0, -860804.5, 134528.28, 0.039825432, 0.39431792, -658877.3, 217844.02, 0.0, 10.001369, 9.999803 
2.8154877e+3, 2.20543e+2, -803983.5, -875997.25, 53295.816, -0.115457796, 0.5456952, -775671.3, 3049.4067, 0.0, 10.000482, 9.999456 
2.815359e+3, 2.30541e+2, -809114.0, -833970.4, -24397.46, 0.037508037, 0.4938394, -794161.6, -113419.54, 0.0, 9.999802, 9.999397 
2.8152305e+3, 2.4053922e+2, -727767.3, -647554.1, 45317.15, 0.16385058, 0.43475124, -627144.75, -44384.527, 0.0, 9.999267, 10.000266 
2.815101e+3, 2.505397e+2, -503546.97, -388200.1, 146403.77, -0.039827168, 0.47265473, -288519.5, 196232.94, 0.0, 9.999706, 10.001159 
2.8149718e+3, 2.605399e+2, -451838.47, -448014.72, 114931.71, -0.22890338, 0.49605176, -334978.97, 51768.22, 0.0, 9.999968, 9.999952 
2.8148428e+3, 2.7053735e+2, -590145.25, -543297.56, 359.49753, -0.09797696, 0.39423296, -543294.8, -254524.44, 0.0, 9.998686, 9.999242 
2.8147143e+3, 2.8053477e+2, -689102.2, -590758.2, 39468.0, 0.059219453, 0.30507225, -576877.75, -386082.44, 0.0, 9.997544, 9.998797 
2.814587e+3, 2.905328e+2, -512096.34, -468427.44, 47641.6, 0.0588216, 0.3275808, -437855.16, -345037.28, 0.0, 9.998144, 9.998675 
2.814458e+3, 3.0053163e+2, -235163.75, -21376.037, -22437.701, -0.029610012, 0.35980415, -19046.512, -19046.512, 0.0, 9.998238, 10.001031 
2.814329e+3, 3.1053376e+2, -515074.28, 130427.74, -36305.332, 0.07907978, 0.37349033, 132463.27, 132463.27, 0.0, 9.994847, 10.003375 
2.8141978e+3, 3.2053545e+2, -707725.3, -184468.28, 73455.19, -0.08541749, 0.3820352, -174352.17, -174352.17, 0.0, 9.994465, 10.0014 
2.8266516e+3, 1.3068561e+2, -1142038.5, -1496139.3, 116856.984, 0.115931064, 0.467891, -1106951.1, 552369.4, 0.000012653356, 10.004193, 9.999479 
2.826522e+3, 1.4068088e+2, -1202854.5, -1509338.1, 106118.48, 0.15883249, 0.14374407, -1169698.4, 391660.2, 0.0000031917798, 10.003251, 9.999171 
2.826392e+3, 1.5068004e+2, -1154586.3, -1432843.5, 127040.74, 0.06482336, 0.23317546, -1105310.8, 358056.0, 0.00000021516627, 10.002917, 9.999172 
2.8262633e+3, 1.6067956e+2, -1090354.3, -1363182.0, 33304.605, 0.03161687, 0.35519147, -1086347.6, 279025.16, 0.0, 10.002732, 9.99907 
2.826133e+3, 1.7067826e+2, -1001616.5, -1259893.0, 17469.055, 0.08507352, 0.3998525, -1000440.3, 266949.1, 0.0, 10.00264, 9.999145 
2.826003e+3, 1.8067682e+2, -901050.1, -1123081.6, 63384.848, 0.13074188, 0.41891125, -884229.5, 285177.06, 0.0, 10.002489, 9.999488 
2.8258744e+3, 1.9067504e+2, -849547.8, -996895.75, 97722.77, 0.16215977, 0.346444, -800838.8, 270583.8, 0.0, 10.001967, 9.999924 
2.825746e+3, 2.0067352e+2, -852325.9, -967063.75, 103682.49, 0.16825444, 0.29301897, -791199.0, 182237.06, 0.0, 10.001357, 9.999751 
2.8256166e+3, 2.1067356e+2, -878378.9, -924170.8, 124989.414, 0.013224565, 0.40643525, -774205.6, 101233.08, 0.0, 10.000491, 9.999786 
2.825487e+3, 2.2067353e+2, -883404.5, -883697.7, 82805.56, -0.1080278, 0.5132669, -800745.44, -23303.582, 0.0, 9.999807, 9.999727 
2.825358e+3, 2.30672e+2, -731513.0, -744034.0, 84529.0, 0.031101005, 0.46595833, -653012.94, 26444.592, 0.0, 10.000113, 9.999864 
2.8252292e+3, 2.4067073e+2, -575954.5, -570753.8, 191733.3, 0.14644046, 0.42792162, -381603.22, 199867.03, 0.0, 10.0003, 10.000292 
2.8250998e+3, 2.5067145e+2, -561520.0, -451087.63, 175023.33, -0.0369497, 0.51791143, -322777.28, 160685.08, 0.0, 9.999459, 10.000844 
2.8249708e+3, 2.6067165e+2, -652372.4, -576207.56, 35111.754, -0.20039086, 0.571767, -562491.3, -177032.58, 0.0, 9.998726, 9.999669 
2.8248414e+3, 2.7066803e+2, -530555.7, -544553.94, -22985.89, -0.057427827, 0.3880447, -513526.94, -226035.55, 0.0, 9.999229, 9.998969 
2.8247124e+3, 2.806644e+2, -420321.2, -469947.6, 97461.766, 0.11017643, 0.2220175, -344563.56, -155038.5, 0.0, 9.999437, 9.998711 
2.824584e+3, 2.9066285e+2, -504615.44, -462998.56, 177008.89, 0.051303424, 0.28284806, -305579.22, -214035.52, 0.0, 9.998191, 9.998691 
2.8244543e+3, 3.006622e+2, -420880.13, -126808.234, 98431.13, -0.07356076, 0.3756046, -96902.78, -96902.78, 0.0, 9.997033, 10.000888 
2.824325e+3, 3.1066477e+2, -237758.48, 225127.63, -86176.08, 0.17036346, 0.4677018, 240650.58, 240650.58, 0.0, 9.99692, 10.003026 
2.8241926e+3, 3.20665e+2, -511667.3, -121215.09, 135490.2, -0.050677717, 0.36219558, -78805.28, -78805.28, 0.0, 9.9959545, 10.001112 
2.836656e+3, 1.3081512e+2, -1208488.3, -1638960.0, 67116.86, 0.2197026, 0.09306994, -1198266.5, 459771.53, 0.0000032699234, 10.004222, 9.998481 
2.8365254e+3, 1.4081492e+2, -1240621.5, -1634589.9, 86317.1, 0.27410662, 0.31826693, -1222539.6, 337501.34, 0.00000064756176, 10.003452, 9.998216 
2.836396e+3, 1.5081245e+2, -1189622.4, -1551141.4, 129204.484, 0.22641973, 0.3378095, -1148193.3, 313876.03, 0.000000014730344, 10.00311, 9.998269 
2.836267e+3, 1.6080993e+2, -1082634.9, -1372966.6, 42451.56, 0.21943395, 0.32360622, -1076555.1, 287542.53, 0.0, 10.002842, 9.998952 
2.836136e+3, 1.7080791e+2, -966903.6, -1195867.9, 24977.389, 0.1991981, 0.2641238, -964210.56, 301906.94, 0.0, 10.002672, 9.99957 
2.836005e+3, 1.8080638e+2, -904256.25, -1117618.6, 55924.625, 0.15221131, 0.24082439, -890486.5, 277646.16, 0.0, 10.002437, 9.999551 
2.835875e+3, 1.9080661e+2, -869659.7, -1030592.2, 82485.69, 0.075720884, 0.38471398, -834892.7, 235240.73, 0.0, 10.001929, 9.999711 
2.835745e+3, 2.0080665e+2, -860105.7, -970610.2, 81697.3, 0.0022595911, 0.5006937, -816731.06, 155404.72, 0.0, 10.0013, 9.999756 
2.8356153e+3, 2.1080497e+2, -863582.7, -900702.94, 96246.234, -0.062316544, 0.43104324, -784123.4, 90029.74, 0.0, 10.000519, 9.999935 
2.835486e+3, 2.2080344e+2, -816290.6, -755385.75, 80227.97, -0.10408503, 0.35084286, -700025.1, 76142.51, 0.0, 9.999853, 10.000587 
2.8353566e+3, 2.3080316e+2, -635504.1, -547794.06, 99294.65, -0.019339215, 0.3067947, -483100.97, 195064.47, 0.0, 10.000125, 10.001206 
2.8352278e+3, 2.4080294e+2, -626612.75, -668264.2, 175815.06, 0.058187738, 0.2980823, -470394.25, 109770.37, 0.0, 10.000264, 9.999641 
2.8350994e+3, 2.5080222e+2, -711694.44, -761310.2, 136636.67, 0.03628911, 0.42654517, -597631.8, -115453.16, 0.0, 9.99945, 9.99872 
2.8349704e+3, 2.608013e+2, -675779.7, -633634.0, 30673.092, -0.0018014956, 0.53043324, -617492.56, -233299.0, 0.0, 9.998761, 9.99926 
2.8348404e+3, 2.707993e+2, -466503.84, -420388.16, 251.1571, 0.010440228, 0.4496816, -420386.78, -134177.13, 0.0, 9.999261, 9.999809 
2.8347105e+3, 2.8079736e+2, -341334.1, -325014.6, 77398.89, 0.04903031, 0.3617278, -255346.52, -67121.44, 0.0, 9.9995165, 9.99967 
2.8345814e+3, 2.9079613e+2, -436983.78, -317787.88, 125065.43, 0.043353684, 0.35910836, -238846.03, -148609.64, 0.0, 9.99817, 9.999698 
2.8344506e+3, 3.007953e+2, -512756.7, -297916.88, 87397.81, -0.06411735, 0.39192483, -266854.25, -266854.25, 0.0, 9.996945, 9.999757 
2.8343195e+3, 3.107953e+2, -412534.5, -176669.95, -77088.76, -0.003448915, 0.47374058, -153709.73, -153709.73, 0.0, 9.99708, 10.000192 
2.8341883e+3, 3.2079247e+2, -535876.3, -178809.25, -5223.552, 0.022046078, 0.27336407, -178732.84, -178732.84, 0.0, 9.996, 10.000687 
2.8466594e+3, 1.3094804e+2, -1189324.9, -1659267.9, 40618.26, 0.20509325, 0.10418635, -1185840.0, 470894.72, 0.00000095191774, 10.004477, 9.998222 
2.8465286e+3, 1.4094818e+2, -1085957.9, -1554218.3, 92626.086, 0.25385237, 0.38328388, -1068301.4, 490435.66, 0.00000015361707, 10.00449, 9.998268 
2.8463984e+3, 1.5094566e+2, -1044682.7, -1460103.1, 191215.44, 0.1922229, 0.3824889, -970068.9, 490696.34, 0.0000000003731763, 10.004018, 9.998456 
2.846269e+3, 1.6094297e+2, -988486.44, -1329150.9, 144383.6, 0.18214804, 0.3420709, -935525.9, 427268.47, 0.0, 10.003497, 9.998937 
2.8461376e+3, 1.7094068e+2, -958042.1, -1211099.1, 104497.3, 0.16479973, 0.27515274, -920469.6, 344346.3, 0.0, 10.002821, 9.999391 
2.8460062e+3, 1.8093896e+2, -947600.06, -1136714.3, 109940.14, 0.116780244, 0.24634959, -897147.25, 269685.25, 0.0, 10.002139, 9.999558 
2.845875e+3, 1.9093935e+2, -930185.5, -1051927.0, 145242.06, 0.029134735, 0.40184036, -833574.5, 235258.2, 0.0, 10.001484, 9.99978 
2.8457448e+3, 2.0093954e+2, -896242.7, -977304.56, 167475.84, -0.032943413, 0.5302584, -764463.1, 206371.3, 0.0, 10.001004, 9.999855 
2.8456157e+3, 2.1093763e+2, -758160.9, -837739.25, 186487.31, -0.012953132, 0.4308909, -607265.25, 265587.94, 0.0, 10.00119, 10.000045 
2.8454867e+3, 2.209359e+2, -617386.1, -668773.8, 150028.03, 0.005143321, 0.328035, -490867.7, 284001.6, 0.0, 10.001263, 10.000501 
2.8453565e+3, 2.3093584e+2, -586129.25, -549611.4, 71560.69, -0.007006314, 0.32478335, -494016.97, 182849.31, 0.0, 10.000579, 10.000972 
2.8452262e+3, 2.4093565e+2, -706371.2, -733530.2, 71492.36, -0.0018623694, 0.3408259, -647180.06, -68314.16, 0.0, 9.999835, 9.999398 
2.8450978e+3, 2.5093397e+2, -755054.25, -811842.2, 135233.77, 0.046023548, 0.39839193, -645265.75, -164377.11, 0.0, 9.999286, 9.99845 
2.8449693e+3, 2.6093245e+2, -653917.5, -588117.56, 162059.19, 0.07467416, 0.45294625, -455652.53, -72743.27, 0.0, 9.998769, 9.999566 
2.8448385e+3, 2.7093178e+2, -496058.56, -355259.28, 149852.7, 0.018663473, 0.449649, -260093.39, 24817.953, 0.0, 9.998723, 10.000514 
2.8447083e+3, 2.809311e+2, -436252.88, -337580.6, 178410.86, 0.0022619485, 0.43266737, -201810.03, -14896.073, 0.0, 9.998719, 9.99997 
2.8445792e+3, 2.9092965e+2, -351991.22, -271163.88, 133459.31, 0.06938357, 0.40461966, -172133.47, -83206.71, 0.0, 9.998733, 9.999745 
2.8444484e+3, 3.0092832e+2, -338476.06, -282960.94, 63610.445, 0.009084856, 0.40089658, -241315.55, -241315.55, 0.0, 9.998453, 9.999127 
2.844315e+3, 3.1092685e+2, -433894.8, -320382.75, 24482.586, -0.09568268, 0.4409011, -315327.44, -315327.44, 0.0, 9.997523, 9.998987 
2.8441843e+3, 3.2092336e+2, -531637.56, -146748.38, 40361.113, 0.08269406, 0.26127166, -142561.48, -142561.48, 0.0, 9.995902, 10.000956 
2.856662e+3, 1.310827e+2, -1188521.1, -1645155.8, 40842.504, 0.099526316, 0.31059343, -1184896.9, 470524.3, 0.0000002696297, 10.004431, 9.998337 
2.856531e+3, 1.4108102e+2, -1059726.8, -1478199.1, 78623.414, 0.15541516, 0.38061878, -1045442.44, 511998.1, 0.000000029966262, 10.004398, 9.998833 
2.8564e+3, 1.510795e+2, -1006035.56, -1349381.9, 162565.69, 0.045019872, 0.39830062, -941278.44, 518177.38, 0.0, 10.003884, 9.999281 
2.8562698e+3, 1.6107783e+2, -1014005.4, -1340461.8, 109342.07, 0.0012687446, 0.4000241, -980766.94, 380705.34, 0.0, 10.003317, 9.998947 
2.856138e+3, 1.7107558e+2, -1008585.2, -1296042.8, 76514.3, 0.027417112, 0.3809787, -989487.7, 274006.8, 0.0, 10.002734, 9.998851 
2.8560066e+3, 1.8107362e+2, -956979.75, -1146965.6, 88349.62, 0.029779898, 0.36838892, -922244.9, 243269.52, 0.0, 10.002098, 9.99951 
2.8558755e+3, 1.9107294e+2, -916146.44, -1018480.2, 120950.36, 0.011294017, 0.39777055, -835985.3, 231538.13, 0.0, 10.001461, 10.000022 
2.8557453e+3, 2.0107234e+2, -892926.94, -958976.6, 161690.16, 0.021549258, 0.42617008, -760923.44, 208607.95, 0.0, 10.000954, 10.000006 
2.8556177e+3, 2.1107145e+2, -762302.2, -832528.06, 193887.11, 0.1303665, 0.41805148, -600374.2, 271166.66, 0.0, 10.001131, 10.00011 
2.855489e+3, 2.2107054e+2, -698044.7, -812090.75, 133694.36, 0.19005555, 0.42202646, -609720.5, 163830.17, 0.0, 10.001158, 9.999568 
2.8553566e+3, 2.3106977e+2, -703932.2, -788295.5, 43734.285, 0.05326235, 0.4971334, -685352.2, -9790.685, 0.0, 10.00055, 9.99935 
2.855225e+3, 2.4106878e+2, -688265.1, -696004.25, 51174.47, -0.06198426, 0.53869635, -640814.1, -63240.664, 0.0, 9.999832, 9.999659 
2.8550956e+3, 2.5106668e+2, -648694.4, -591336.9, 114877.71, -0.015172353, 0.42633873, -501612.25, -22020.395, 0.0, 9.999285, 9.999967 
2.8549665e+3, 2.6106504e+2, -583310.75, -448951.7, 152644.16, 0.017540617, 0.3357204, -349357.9, 32247.273, 0.0, 9.998798, 10.000508 
2.854836e+3, 2.710655e+2, -458889.38, -280274.53, 151061.61, -0.036336, 0.38330477, -194095.69, 89500.086, 0.0, 9.998728, 10.001029 
2.8547058e+3, 2.8106564e+2, -469698.84, -406750.53, 181620.1, -0.037894346, 0.4293489, -253897.6, -68306.586, 0.0, 9.9987135, 9.999499 
2.8545776e+3, 2.9106337e+2, -425451.03, -431063.0, 135076.5, 0.1280305, 0.4144925, -293151.38, -205535.73, 0.0, 9.998761, 9.998634 
2.8544474e+3, 3.0106106e+2, -311960.28, -259326.13, 33914.59, 0.13137141, 0.39315885, -242715.5, -242715.5, 0.0, 9.998586, 9.999227 
2.8543118e+3, 3.110595e+2, -372555.25, -195457.22, -11072.348, -0.077314116, 0.35037464, -194767.64, -194767.64, 0.0, 9.997534, 9.999841 
2.8541788e+3, 3.210585e+2, -457770.16, 4615.9556, -82939.49, 0.06995901, 0.32618177, 19042.908, 19042.908, 0.0, 9.995878, 10.002023 
2.8666654e+3, 1.312161e+2, -1241467.9, -1702994.0, 43946.805, 0.0821896, 0.38142815, -1237320.5, 416797.3, 0.00000003603988, 10.004194, 9.998057 
2.8665343e+3, 1.4121372e+2, -1148721.3, -1508551.0, 45384.09, 0.14162995, 0.39660877, -1143085.4, 413059.66, 0.00000000029145006, 10.003727, 9.998948 
2.8664032e+3, 1.5121256e+2, -1136043.0, -1377891.3, 93801.945, 0.085468166, 0.42381096, -1103926.5, 354228.88, 0.0, 10.002846, 9.999584 
2.8662723e+3, 1.6121137e+2, -1156516.4, -1352378.3, 37549.94, 0.07674934, 0.4365304, -1149564.3, 210601.36, 0.0, 10.002096, 9.999449 
2.8661397e+3, 1.7120957e+2, -1081913.9, -1267054.4, 65080.06, 0.041192655, 0.40469393, -1061326.5, 200855.5, 0.0, 10.001955, 9.999423 
2.8660074e+3, 1.812079e+2, -1003619.0, -1172171.4, 112820.03, 0.0026005425, 0.381838, -947073.2, 217125.25, 0.0, 10.001787, 9.999488 
2.8658763e+3, 1.9120668e+2, -978027.56, -1091557.3, 110770.55, 0.030472137, 0.39156023, -910324.06, 155889.94, 0.0, 10.001226, 9.999631 
2.865746e+3, 2.0120564e+2, -939802.25, -989289.94, 134248.9, 0.0775972, 0.40446213, -828035.94, 140191.2, 0.0, 10.00067, 9.999929 
2.8656176e+3, 2.1120512e+2, -885806.0, -883603.25, 168602.83, 0.14160392, 0.42840937, -716098.2, 154134.13, 0.0, 10.000251, 10.00018 
2.8654885e+3, 2.2120462e+2, -882258.4, -913038.8, 121358.15, 0.17639948, 0.47089687, -775318.44, -3080.304, 0.0, 9.999948, 9.999456 
2.8653562e+3, 2.3120384e+2, -798819.4, -862983.1, 114874.01, 0.0668599, 0.5680642, -711631.44, -37380.34, 0.0, 10.000027, 9.999087 
2.8652245e+3, 2.4120279e+2, -629536.4, -636935.2, 189207.17, -0.027457314, 0.618556, -443992.47, 132272.28, 0.0, 10.000111, 9.9999275 
2.8650948e+3, 2.5120077e+2, -481350.2, -443564.06, 197501.52, -0.010949965, 0.4644617, -264054.0, 214224.31, 0.0, 10.00015, 10.000563 
2.8649652e+3, 2.6119903e+2, -418732.16, -386621.13, 161049.5, 0.007083542, 0.33055314, -240828.8, 139460.34, 0.0, 10.000001, 10.000359 
2.8648344e+3, 2.711988e+2, -407816.9, -326166.53, 70920.74, -0.012708973, 0.36360455, -285159.9, -2871.1714, 0.0, 9.999384, 10.000398 
2.864704e+3, 2.8119856e+2, -476086.03, -397343.44, 56955.83, 0.013962865, 0.40728024, -367475.53, -183185.66, 0.0, 9.998627, 9.999601 
2.864575e+3, 2.911969e+2, -499096.6, -406141.5, 130748.13, 0.12242637, 0.40410724, -313855.8, -227548.48, 0.0, 9.998005, 9.999168 
2.864444e+3, 3.0119506e+2, -424679.2, -277631.28, 117753.15, 0.09749732, 0.38479435, -212333.13, -212333.13, 0.0, 9.99766, 9.99955 
2.8643093e+3, 3.1119344e+2, -268971.3, -123857.15, 28693.283, -0.011781899, 0.31865084, -118389.66, -118389.66, 0.0, 9.9981575, 10.000031 
2.864176e+3, 3.2119337e+2, 71037.95, 235444.98, -80738.8, 0.089449175, 0.37489498, 268463.72, 268463.72, 0.0, 9.999625, 10.0018 
2.8766686e+3, 1.3134897e+2, -1288630.9, -1770884.0, 31693.98, 0.110839486, 0.39251685, -1286556.9, 366261.78, 0.0, 10.004073, 9.997645 
2.876537e+3, 1.4134642e+2, -1193264.1, -1545808.9, 33815.723, 0.15906943, 0.42269278, -1190049.9, 364798.94, 0.0, 10.003493, 9.998803 
2.8764066e+3, 1.5134521e+2, -1144225.1, -1383704.1, 74464.164, 0.22709095, 0.44797155, -1122959.5, 333900.28, 0.0, 10.002794, 9.99957 
2.8762758e+3, 1.6134416e+2, -1095718.4, -1235321.0, 35126.414, 0.29814357, 0.45092335, -1087378.3, 271489.78, 0.0, 10.002134, 10.000236 
2.876142e+3, 1.7134312e+2, -998271.0, -1086327.5, 65688.08, 0.14789538, 0.3760125, -963220.75, 297653.28, 0.0, 10.001922, 10.000681 
2.8760082e+3, 1.8134202e+2, -1022380.1, -1188798.9, 94509.586, 0.011010947, 0.32796854, -979669.44, 183213.5, 0.0, 10.001691, 9.99942 
2.875877e+3, 1.9134061e+2, -1032314.94, -1211394.4, 90100.266, 0.07025375, 0.38744444, -994829.4, 70074.26, 0.0, 10.001257, 9.998795 
2.8757462e+3, 2.0133935e+2, -947589.8, -1021644.8, 122424.63, 0.11543149, 0.44196695, -856715.7, 110205.984, 0.0, 10.000739, 9.999675 
2.875616e+3, 2.1133873e+2, -868778.56, -868330.06, 158622.86, 0.03759178, 0.45516872, -709931.3, 158995.13, 0.0, 10.000333, 10.000247 
2.8754857e+3, 2.2133829e+2, -833118.5, -822237.06, 120680.695, -0.019496623, 0.47902763, -706874.5, 64055.58, 0.0, 9.999995, 10.000058 
2.8753552e+3, 2.313381e+2, -728007.0, -725340.1, 119096.26, 0.04292998, 0.5488616, -607569.9, 65365.125, 0.0, 10.000067, 10.000013 
2.8752246e+3, 2.4133766e+2, -616359.06, -610778.2, 191204.89, 0.08759506, 0.5914084, -422343.38, 152597.33, 0.0, 10.000114, 10.000106 
2.8750947e+3, 2.5133622e+2, -502634.75, -491048.72, 197243.7, 0.04862872, 0.5182521, -299513.0, 177435.5, 0.0, 10.00016, 10.000234 
2.8749645e+3, 2.6133445e+2, -503278.47, -571415.3, 143667.48, 0.018956125, 0.44183227, -389695.25, -10733.93, 0.0, 10.000037, 9.999072 
2.874834e+3, 2.7133164e+2, -536195.3, -596004.0, 41033.59, 0.08907332, 0.39079717, -515325.4, -234333.45, 0.0, 9.999395, 9.998539 
2.8747034e+3, 2.8132963e+2, -408333.9, -267629.78, 25164.22, 0.14348842, 0.35823038, -263264.72, -80251.086, 0.0, 9.99867, 10.000473 
2.8745714e+3, 2.9133025e+2, -330956.88, -51280.98, 108845.32, 0.025877591, 0.36904377, -13912.965, 71088.81, 0.0, 9.997976, 10.001621 
2.8744385e+3, 3.0133063e+2, -399447.22, -209350.5, 127577.33, -0.12569907, 0.386001, -145307.17, -145307.17, 0.0, 9.997593, 10.0000515 
2.874308e+3, 3.1132925e+2, -310557.6, -223847.23, 59676.453, 0.10666954, 0.39049172, -193439.61, -193439.61, 0.0, 9.99822, 9.999313 
2.8741753e+3, 3.2132795e+2, -18857.125, -27493.99, 101975.57, 0.112973906, 0.4314915, 78891.414, 78891.414, 0.0, 9.999975, 9.999813 
2.886673e+3, 1.3148308e+2, -1344422.4, -1727994.0, 31616.52, 0.23900183, 0.44621077, -1341833.8, 309674.53, 0.0, 10.003378, 9.998279 
2.8865385e+3, 1.4148068e+2, -1360324.8, -1579720.1, 101521.24, 0.1100366, 0.43946975, -1320556.3, 232977.89, 0.0, 10.002142, 9.999223 
2.886408e+3, 1.514792e+2, -1201555.8, -1386924.9, 171119.86, 0.22122917, 0.41319975, -1099632.0, 355915.16, 0.0, 10.002296, 9.999786 
2.8862777e+3, 1.6147798e+2, -1062963.9, -1215290.3, 116758.68, 0.339721, 0.38685888, -999723.2, 357833.72, 0.0, 10.002341, 10.000273 
2.886143e+3, 1.7147735e+2, -1059461.1, -1123794.9, 76222.484, 0.18347542, 0.36117497, -1008896.06, 250664.19, 0.0, 10.001538, 10.0006075 
2.886009e+3, 1.8147668e+2, -1118977.3, -1225642.3, 76333.805, 0.03409242, 0.3589539, -1079190.5, 82375.445, 0.0, 10.000986, 9.999504 
2.8858778e+3, 1.9147569e+2, -975860.56, -1166502.8, 128688.54, 0.07295466, 0.44602662, -911035.3, 152547.03, 0.0, 10.001568, 9.998952 
2.885747e+3, 2.0147467e+2, -747488.25, -904571.25, 198197.17, 0.109336354, 0.50909466, -612837.6, 352759.72, 0.0, 10.002022, 9.999864 
2.8856158e+3, 2.1147355e+2, -661771.7, -748466.2, 236849.52, 0.032617487, 0.45780504, -464335.47, 403268.88, 0.0, 10.001668, 10.000429 
2.8854853e+3, 2.2147258e+2, -651492.9, -753615.44, 198535.88, -0.028449198, 0.42765975, -497557.22, 272054.1, 0.0, 10.001326, 9.999887 
2.8853548e+3, 2.31472e+2, -578425.9, -689990.2, 122061.28, 0.017386006, 0.49036586, -500004.44, 171616.92, 0.0, 10.001255, 9.999683 
2.8852242e+3, 2.4147137e+2, -494366.7, -570475.6, 119070.875, 0.073184736, 0.5377018, -407417.1, 166213.25, 0.0, 10.001032, 9.999941 
2.8850946e+3, 2.5147024e+2, -497750.03, -502440.8, 124433.62, 0.087341905, 0.50547445, -375639.7, 99996.414, 0.0, 10.000257, 10.000107 
2.884964e+3, 2.6146877e+2, -594627.1, -618927.56, 105275.734, 0.09722724, 0.4707106, -500802.78, -123156.1, 0.0, 9.99944, 9.999025 
2.8848326e+3, 2.7146608e+2, -629303.0, -646684.44, 126951.31, 0.1326648, 0.43424967, -510745.28, -231068.52, 0.0, 9.998796, 9.998472 
2.884701e+3, 2.8146392e+2, -467522.25, -264051.34, 191018.58, 0.15425335, 0.39265767, -149365.44, 32334.248, 0.0, 9.998132, 10.000753 
2.8845683e+3, 2.9146445e+2, -266081.75, 15338.362, 146325.13, 0.00091623096, 0.35665765, 77631.66, 161319.66, 0.0, 9.998278, 10.001929 
2.8844357e+3, 3.0146497e+2, -228971.36, -128365.55, 58546.46, -0.15034342, 0.36693516, -101479.914, -101479.914, 0.0, 9.998776, 10.000036 
2.8843066e+3, 3.1146443e+2, -143687.7, -186429.52, 26551.195, 0.19311641, 0.47698358, -130975.16, -130975.16, 0.0, 9.999569, 9.99893 
2.8841734e+3, 3.2146186e+2, -168253.08, -214316.5, 112584.15, 0.031880558, 0.4647228, -76368.945, -76368.945, 0.0, 9.999436, 9.998812 
2.896677e+3, 1.3161787e+2, -1295639.5, -1571058.4, -24374.65, 0.39658874, 0.51746726, -1293498.9, 356692.6, 0.0, 10.00315, 9.999462 
2.8965387e+3, 1.4161597e+2, -1315489.8, -1483240.9, 90190.445, 0.015710885, 0.45473322, -1276201.0, 276006.75, 0.0, 10.0021305, 9.999888 
2.8964084e+3, 1.516141e+2, -1188276.3, -1343413.6, 175453.86, 0.12590735, 0.35086116, -1074009.3, 380213.97, 0.0, 10.002229, 10.000117 
2.8962782e+3, 1.6161256e+2, -1114277.1, -1294874.6, 88766.98, 0.2663204, 0.28457206, -1077952.6, 278283.8, 0.0, 10.002226, 9.999783 
2.8961435e+3, 1.7161204e+2, -1114907.0, -1254433.5, 42885.28, 0.16773891, 0.3555227, -1102779.8, 155462.84, 0.0, 10.001606, 9.999679 
2.8960094e+3, 1.8161169e+2, -1083775.4, -1184866.5, 86702.57, 0.05276348, 0.44181094, -1033960.6, 126287.22, 0.0, 10.001125, 9.999717 
2.895878e+3, 1.9161165e+2, -910699.56, -1039557.94, 154975.06, 0.043528277, 0.5477382, -807294.3, 254958.22, 0.0, 10.001602, 9.999808 
2.8957474e+3, 2.016112e+2, -728059.8, -842249.06, 193992.86, 0.060724, 0.59556854, -582934.25, 381324.28, 0.0, 10.001927, 10.000338 
2.8956178e+3, 2.1160935e+2, -655972.44, -715827.1, 217088.58, 0.106517516, 0.43942514, -466758.06, 399511.16, 0.0, 10.001578, 10.000697 
2.8954872e+3, 2.2160742e+2, -728514.4, -890255.94, 187411.0, 0.1047395, 0.32592478, -605270.06, 163013.61, 0.0, 10.001224, 9.999 
2.8953546e+3, 2.3160562e+2, -685055.25, -903233.56, 121223.08, -0.023408365, 0.40065706, -631063.2, 39246.848, 0.0, 10.001218, 9.998237 
2.895223e+3, 2.4160399e+2, -527393.06, -634806.7, 100264.72, -0.08257434, 0.4613252, -467357.03, 104975.46, 0.0, 10.001013, 9.999509 
2.895094e+3, 2.5160283e+2, -493982.7, -491899.34, 94196.31, 0.10791935, 0.42616895, -398738.94, 75601.74, 0.0, 10.000244, 10.000186 
2.8949642e+3, 2.6160204e+2, -501345.16, -432140.16, 79816.02, 0.22882697, 0.41618913, -379748.8, -3404.0537, 0.0, 9.999469, 10.000295 
2.8948304e+3, 2.7160236e+2, -502952.47, -383721.28, 101378.72, 0.10252404, 0.5015535, -325728.78, -47388.367, 0.0, 9.99879, 10.00028 
2.894697e+3, 2.816019e+2, -505052.72, -347482.47, 182374.98, 0.022003457, 0.52435, -227602.72, -47259.184, 0.0, 9.998148, 10.000174 
2.8945664e+3, 2.9159933e+2, -421131.06, -305890.38, 167056.86, 0.06498778, 0.36254796, -186795.97, -104428.984, 0.0, 9.998284, 9.999713 
2.8944352e+3, 3.015975e+2, -247083.38, -187262.61, 79508.16, 0.029227486, 0.30211383, -132224.9, -132224.9, 0.0, 9.998876, 9.999578 
2.8943056e+3, 3.1159806e+2, -126187.29, -162784.56, 50294.65, 0.22182092, 0.5054279, -90965.914, -90965.914, 0.0, 9.999637, 9.999056 
2.89417e+3, 3.21594e+2, -169684.83, -193210.63, 35313.758, -0.16112038, 0.35336185, -144226.4, -144226.4, 0.0, 9.999324, 9.999019 
2.9066786e+3, 1.317527e+2, -1415905.0, -1570637.9, -774.22736, 0.40921208, 0.50161695, -1415901.1, 232971.08, 0.0, 10.002066, 9.999993 
2.90654e+3, 1.4175159e+2, -1344754.1, -1511833.3, 88580.73, 0.02258841, 0.49072286, -1306534.1, 244344.64, 0.0, 10.001989, 9.9997635 
2.9064095e+3, 1.5174988e+2, -1311863.0, -1456163.6, 134215.81, 0.111987256, 0.44375536, -1231633.8, 221261.75, 0.0, 10.001607, 9.999644 
2.906279e+3, 1.6174833e+2, -1227679.9, -1349781.4, 33247.234, 0.23871143, 0.406956, -1219213.9, 135696.98, 0.0, 10.001443, 9.9997835 
2.9061446e+3, 1.7174755e+2, -1026557.4, -1187302.4, 47397.395, 0.15427251, 0.43093404, -1013622.56, 243295.56, 0.0, 10.002103, 9.999901 
2.9060104e+3, 1.8174691e+2, -878545.06, -1072965.5, 126328.09, 0.060962286, 0.47128284, -816354.5, 342570.28, 0.0, 10.002477, 9.999835 
2.905879e+3, 1.917465e+2, -882403.6, -1018046.94, 150310.03, 0.055970665, 0.5350605, -785322.6, 275609.03, 0.0, 10.0017605, 9.999879 
2.9057482e+3, 2.0174587e+2, -864549.6, -906346.94, 139160.69, 0.075370826, 0.55749315, -744727.1, 218211.55, 0.0, 10.000978, 10.000355 
2.9056177e+3, 2.117443e+2, -854557.44, -813666.94, 134267.86, 0.115679145, 0.43035707, -698296.6, 166650.95, 0.0, 10.000223, 10.000678 
2.9054868e+3, 2.2174264e+2, -933477.7, -980978.1, 136847.27, 0.116348766, 0.3408982, -818334.94, -51374.633, 0.0, 9.999781, 9.999072 
2.9053545e+3, 2.317409e+2, -808312.9, -946240.1, 181652.61, -0.019704457, 0.40856102, -682973.5, -13987.92, 0.0, 10.0003, 9.9983835 
2.9052228e+3, 2.417394e+2, -567746.94, -620746.75, 226847.36, -0.08111828, 0.46648967, -365856.9, 205149.42, 0.0, 10.000594, 9.999806 
2.905093e+3, 2.5173876e+2, -494091.7, -444825.44, 235198.86, 0.11150838, 0.4513167, -232973.25, 240036.1, 0.0, 10.000043, 10.000605 
2.9049626e+3, 2.617384e+2, -462206.6, -362525.28, 228765.72, 0.23020262, 0.44510484, -178233.84, 196775.27, 0.0, 9.999521, 10.000747 
2.9048282e+3, 2.7173868e+2, -344005.84, -241770.81, 154592.94, 0.0651751, 0.479865, -130063.35, 146939.77, 0.0, 9.9996, 10.000862 
2.9046944e+3, 2.8173837e+2, -355824.75, -296077.9, 171488.5, -0.0064121685, 0.48399898, -151880.28, 27123.844, 0.0, 9.999281, 9.999971 
2.9045635e+3, 2.9173613e+2, -684529.7, -460895.75, 223526.58, 0.112160616, 0.4001805, -322778.38, -241750.5, 0.0, 9.996613, 9.999448 
2.916679e+3, 1.318876e+2, -1372576.1, -1529809.0, -10926.721, 0.33842772, 0.450018, -1371820.5, 275730.13, 0.0, 10.002288, 10.000161 
2.9165417e+3, 1.4188741e+2, -1347600.6, -1580535.4, 75912.3, 0.080072165, 0.53999555, -1325045.3, 224502.98, 0.0, 10.002264, 9.999158 
2.9164103e+3, 1.5188614e+2, -1361510.5, -1585427.8, 119785.164, 0.13850984, 0.62473136, -1309508.1, 142057.88, 0.0, 10.0017185, 9.998703 
2.9162794e+3, 1.6188478e+2, -1212084.1, -1304506.5, 51594.105, 0.22657856, 0.6592364, -1189031.9, 164550.5, 0.0, 10.001388, 10.000121 
2.9161456e+3, 1.7188357e+2, -980014.1, -1057047.3, 76893.17, 0.13781254, 0.5541247, -932530.2, 323058.9, 0.0, 10.001956, 10.000866 
2.916012e+3, 1.8188229e+2, -912270.5, -1093396.5, 114535.4, 0.052802995, 0.46546888, -856819.75, 300778.28, 0.0, 10.002265, 9.999797 
2.91588e+3, 1.9188055e+2, -932780.4, -1097648.9, 124187.16, 0.09475719, 0.4391455, -866158.06, 193459.4, 0.0, 10.001652, 9.999386 
2.9157487e+3, 2.0187913e+2, -895840.6, -958606.2, 116576.32, 0.12189448, 0.42636338, -806496.75, 155136.33, 0.0, 10.000923, 10.000023 
2.9156163e+3, 2.1187864e+2, -869835.56, -848977.75, 110966.76, 0.061490525, 0.43463752, -747950.94, 115685.27, 0.0, 10.000237, 10.000429 
2.915485e+3, 2.2187822e+2, -864859.2, -845739.7, 147245.94, 0.012708759, 0.45170012, -707743.5, 57896.5, 0.0, 9.999809, 9.999989 
2.9153544e+3, 2.3187765e+2, -697299.1, -720138.94, 205069.98, 0.027581058, 0.49773407, -503331.3, 164318.03, 0.0, 10.000316, 9.999931 
2.9152238e+3, 2.418774e+2, -506211.06, -487547.72, 217111.05, 0.04850994, 0.54534304, -279567.9, 290085.9, 0.0, 10.000571, 10.000731 
2.9150924e+3, 2.51878e+2, -446932.75, -341510.63, 211213.28, 0.08224235, 0.5817925, -176530.38, 295112.25, 0.0, 10.000022, 10.001322 
2.91496e+3, 2.6187778e+2, -490260.34, -432955.8, 220541.25, 0.0800702, 0.5577169, -239213.39, 134426.81, 0.0, 9.999567, 10.000244 
2.9148263e+3, 2.7187482e+2, -393555.53, -356536.5, 157670.27, 0.018663656, 0.35457352, -216293.03, 59374.29, 0.0, 9.999642, 10.000059 
2.9146934e+3, 2.8187305e+2, -332147.5, -257521.97, 125332.16, 0.042849235, 0.2570733, -164066.27, 13618.27, 0.0, 9.999336, 10.000209 
2.9145592e+3, 2.9187515e+2, -563383.56, -204545.33, 73831.555, 0.12885475, 0.48895392, -189948.16, -110280.27, 0.0, 9.996596, 10.001219 
2.9266807e+3, 1.3202195e+2, -1211199.1, -1461573.6, -21725.938, 0.29397565, 0.41059834, -1209327.9, 436905.78, 0.0, 10.003431, 10.000079 
2.9265448e+3, 1.4202227e+2, -1137875.5, -1484697.6, 19918.08, 0.16588861, 0.5599827, -1136735.4, 411491.9, 0.0, 10.00372, 9.999116 
2.926412e+3, 1.5202047e+2, -1288175.5, -1550289.0, 85112.02, 0.16084015, 0.5908385, -1262963.5, 187286.22, 0.0, 10.002219, 9.998706 
2.9262793e+3, 1.6201884e+2, -1266593.4, -1307143.5, 81305.625, 0.19827527, 0.59151727, -1203072.9, 149195.55, 0.0, 10.000906, 10.000338 
2.9261458e+3, 1.7201813e+2, -1155349.1, -1110360.6, 88763.734, 0.1239438, 0.51097655, -1041285.25, 212985.48, 0.0, 10.000613, 10.001149 
2.9260123e+3, 1.8201742e+2, -1149247.0, -1168876.1, 99210.28, 0.05491434, 0.44800788, -1059367.0, 96907.555, 0.0, 10.000459, 10.000154 
2.9258803e+3, 1.9201633e+2, -1068516.4, -1119967.8, 151068.38, 0.09094535, 0.45065758, -940998.94, 117288.42, 0.0, 10.000529, 9.999777 
2.9257485e+3, 2.020154e+2, -942110.6, -985758.2, 186511.98, 0.11004648, 0.46327198, -776149.94, 184148.84, 0.0, 10.000625, 9.999981 
2.9256156e+3, 2.120149e+2, -821523.5, -854616.4, 182803.55, 0.027995715, 0.49526027, -654519.06, 207785.34, 0.0, 10.000689, 10.000175 
2.925484e+3, 2.2201456e+2, -712903.0, -728065.7, 221886.0, -0.021997027, 0.528913, -498468.88, 265839.63, 0.0, 10.000658, 10.000389 
2.9253542e+3, 2.3201445e+2, -636551.94, -605361.56, 230543.78, 0.04203742, 0.5514259, -389886.1, 276424.84, 0.0, 10.000361, 10.0007 
2.9252237e+3, 2.4201453e+2, -568224.7, -475152.0, 175266.6, 0.092668734, 0.5689163, -340348.88, 227960.77, 0.0, 9.999956, 10.001117 
2.9250908e+3, 2.5201505e+2, -521202.7, -345061.34, 128540.87, 0.06553661, 0.56811756, -277314.2, 192984.8, 0.0, 9.999366, 10.001618 
2.924958e+3, 2.6201493e+2, -599992.06, -470746.5, 149598.05, 0.04221379, 0.527566, -372410.16, -114.32089, 0.0, 9.998736, 10.000391 
2.9248253e+3, 2.7201244e+2, -576425.8, -416847.06, 170221.28, 0.084427096, 0.35446948, -308642.75, -34323.03, 0.0, 9.998258, 10.000317 
2.924692e+3, 2.8201118e+2, -522380.25, -274120.88, 175332.33, 0.15440781, 0.26546848, -183425.97, -7093.0957, 0.0, 9.9976845, 10.000909 
2.9245546e+3, 2.9201376e+2, -365710.06, -17887.713, 46477.61, 0.05238596, 0.4662008, -11784.264, 66525.266, 0.0, 9.997526, 10.002081 
2.936683e+3, 1.3215595e+2, -1302510.8, -1528349.0, 21702.377, 0.25116688, 0.3778472, -1300444.1, 344475.3, 0.0, 10.0029125, 9.999866 
2.9365486e+3, 1.4215656e+2, -1179142.1, -1474423.5, 1382.1835, 0.25748095, 0.55913675, -1179135.8, 367776.03, 0.0, 10.003311, 9.999381 
2.9364133e+3, 1.5215363e+2, -1269849.8, -1479652.3, 32530.56, 0.1752698, 0.42717198, -1264921.5, 184019.66, 0.0, 10.002079, 9.999258 
2.9362792e+3, 1.6215143e+2, -1260726.0, -1297643.4, 62515.08, 0.1505099, 0.3315418, -1214001.4, 136961.78, 0.0, 10.000918, 10.000397 
2.9361454e+3, 1.7215171e+2, -1168352.3, -1136874.9, 84858.43, 0.10625947, 0.3644476, -1066308.0, 186651.48, 0.0, 10.000611, 10.000968 
2.9360119e+3, 1.8215235e+2, -1111312.6, -1078180.8, 101018.64, 0.05628158, 0.42553273, -992378.7, 162574.48, 0.0, 10.000407, 10.000801 
2.9358795e+3, 1.921534e+2, -1002272.75, -972604.2, 153107.5, 0.05037508, 0.5433066, -833614.0, 223331.36, 0.0, 10.000485, 10.00081 
2.9357475e+3, 2.0215382e+2, -941362.2, -970572.3, 186841.63, 0.041772164, 0.6204627, -768555.7, 190387.8, 0.0, 10.0005665, 10.0001135 
2.9356155e+3, 2.1215256e+2, -838270.2, -889183.06, 183331.17, 0.010620873, 0.59379596, -678636.5, 182320.55, 0.0, 10.000687, 9.999939 
2.9354838e+3, 2.2215153e+2, -719698.3, -737335.5, 215500.56, -0.009821667, 0.5763041, -512836.0, 250131.88, 0.0, 10.000637, 10.000335 
2.9353535e+3, 2.3215124e+2, -643240.56, -601894.1, 217891.03, 0.016811868, 0.57805574, -403697.75, 261272.9, 0.0, 10.000287, 10.000759 
2.9352224e+3, 2.421508e+2, -584701.3, -495352.9, 154138.3, 0.04495349, 0.5431659, -379545.34, 187428.4, 0.0, 9.999893, 10.001011 
2.9350895e+3, 2.5214988e+2, -528453.75, -361447.38, 105402.375, 0.06176902, 0.40998733, -310479.6, 158499.03, 0.0, 9.999365, 10.00151 
2.9349563e+3, 2.6214987e+2, -528841.25, -331280.72, 129109.41, 0.10137912, 0.3575849, -267497.84, 103477.78, 0.0, 9.998771, 10.001331 
2.9348242e+3, 2.7215192e+2, -479787.8, -215611.03, 152237.86, 0.260064, 0.50328547, -146146.17, 126810.87, 0.0, 9.998257, 10.001696 
2.9346904e+3, 2.8215307e+2, -429595.8, -104783.2, 150683.63, 0.3045247, 0.5315469, -45646.37, 129299.49, 0.0, 9.997768, 10.002039 
2.9345492e+3, 2.921524e+2, -328375.3, 45394.15, 67789.54, -0.18032424, 0.3391822, 57309.125, 134257.13, 0.0, 9.997586, 10.002485 
2.9466823e+3, 1.3229166e+2, -1677869.3, -1731973.5, 105965.48, 0.13043155, 0.4026652, -1595557.3, 48031.875, 0.0, 10.000411, 9.999685 
2.9465497e+3, 1.4229153e+2, -1484373.4, -1597859.9, 49282.242, 0.23897801, 0.51795864, -1465959.9, 79630.6, 0.0, 10.001104, 9.999602 
2.946414e+3, 1.5228918e+2, -1368651.5, -1489892.3, 53528.27, 0.17769969, 0.41307983, -1348401.0, 99211.73, 0.0, 10.001232, 9.999599 
2.9462793e+3, 1.6228743e+2, -1243451.9, -1304463.4, 75021.37, 0.16324443, 0.34653935, -1192971.1, 156658.56, 0.0, 10.001096, 10.000269 
2.946145e+3, 1.72288e+2, -1199365.3, -1183941.6, 93739.914, 0.10732408, 0.43401358, -1097596.8, 154029.27, 0.0, 10.000529, 10.0006895 
2.946011e+3, 1.822887e+2, -1154646.0, -1078089.6, 109537.836, 0.055727255, 0.51602525, -1000334.4, 153286.0, 0.0, 10.000016, 10.000993 
2.945879e+3, 1.9228934e+2, -1062901.4, -964467.0, 127401.36, 0.080673665, 0.55853856, -877106.6, 178507.77, 0.0, 9.999901, 10.001151 
2.9457477e+3, 2.0228955e+2, -1001652.9, -982574.3, 149353.92, 0.09235941, 0.5853584, -842455.3, 115157.43, 0.0, 10.000065, 10.000279 
2.9456154e+3, 2.122884e+2, -830555.94, -876487.25, 163084.98, 0.028337168, 0.55836195, -688827.56, 170797.9, 0.0, 10.0006895, 10.0000305 
2.9454836e+3, 2.2228755e+2, -706505.5, -725804.56, 170771.75, -0.013728309, 0.5492857, -545110.9, 216524.17, 0.0, 10.000691, 10.000396 
2.9453522e+3, 2.3228769e+2, -839553.06, -687703.2, 157955.3, 0.020699155, 0.5866267, -588372.7, 75261.6, 0.0, 9.998886, 10.00085 
2.9452202e+3, 2.4228749e+2, -912554.3, -637284.94, 138091.75, 0.059137445, 0.56254274, -579951.4, -14315.89, 0.0, 9.997562, 10.001163 
2.9450873e+3, 2.5228631e+2, -698496.8, -424052.38, 126102.25, 0.074009605, 0.38675553, -374910.13, 92732.43, 0.0, 9.998104, 10.001693 
2.944954e+3, 2.6228648e+2, -529237.7, -280812.56, 139132.25, 0.11355639, 0.3263475, -218513.63, 151124.28, 0.0, 9.998544, 10.001794 
2.944822e+3, 2.7228993e+2, -404903.94, -130055.53, 97900.945, 0.27038747, 0.5575743, -98749.16, 172858.42, 0.0, 9.998538, 10.002161 
2.9446876e+3, 2.822917e+2, -290765.88, -33460.56, 33980.68, 0.30048156, 0.62118644, -29048.598, 144542.6, 0.0, 9.998694, 10.00208 
2.9445463e+3, 2.9229116e+2, -35011.76, 183796.45, -90723.43, -0.20733224, 0.44632104, 216519.05, 292111.28, 0.0, 9.99959, 10.002467 
2.95668e+3, 1.3242814e+2, -1629145.9, -1721451.0, 128548.25, -0.038440347, 0.4589043, -1538716.1, 103535.44, 0.0, 10.000814, 9.999558 
2.956549e+3, 1.4242691e+2, -1477053.4, -1571836.9, 55380.285, 0.14984812, 0.46083418, -1451555.1, 92711.016, 0.0, 10.001064, 9.999797 
2.9564142e+3, 1.5242618e+2, -1365696.6, -1463847.4, 53488.523, 0.16867717, 0.49431476, -1342181.3, 104091.125, 0.0, 10.001147, 9.99982 
2.9562798e+3, 1.6242549e+2, -1278240.9, -1349606.8, 58868.047, 0.20632249, 0.5318131, -1245085.5, 103193.91, 0.0, 10.000978, 10.000016 
2.9561445e+3, 1.7242593e+2, -1227813.8, -1232081.3, 74919.74, 0.11463144, 0.6382924, -1154997.4, 95281.766, 0.0, 10.000482, 10.000382 
2.9560104e+3, 1.8242592e+2, -1168552.8, -1103395.1, 101182.16, 0.042062268, 0.6738086, -1029676.2, 122604.664, 0.0, 10.000002, 10.000826 
2.9558793e+3, 1.9242434e+2, -1072075.6, -986720.5, 128364.91, 0.16045098, 0.5119273, -894124.56, 160167.73, 0.0, 9.999914, 10.000992 
2.955748e+3, 2.0242326e+2, -991282.94, -954463.7, 171898.03, 0.22503088, 0.41085252, -799992.3, 156308.0, 0.0, 10.000037, 10.000486 
2.9556158e+3, 2.1242283e+2, -822404.1, -834882.0, 187838.22, 0.064315856, 0.4247533, -640701.25, 217604.67, 0.0, 10.000583, 10.000368 
2.9554832e+3, 2.2242272e+2, -716528.8, -712210.25, 127189.42, -0.046295688, 0.4638687, -587161.8, 173147.28, 0.0, 10.000543, 10.00056 
2.9553503e+3, 2.324238e+2, -830855.25, -667225.0, 85751.016, 0.048600484, 0.57842577, -630520.3, 31781.436, 0.0, 9.998876, 10.000996 
2.9552177e+3, 2.4242456e+2, -873080.1, -568821.2, 133562.52, 0.120975636, 0.62554204, -518509.72, 45785.04, 0.0, 9.997619, 10.001607 
2.9550847e+3, 2.5242436e+2, -661149.3, -351491.78, 150129.2, 0.09239597, 0.50016236, -290657.1, 175633.4, 0.0, 9.998123, 10.002184 
2.9549512e+3, 2.624248e+2, -529705.9, -289297.44, 143026.53, 0.06225976, 0.43521446, -222671.16, 145611.56, 0.0, 9.998573, 10.001723 
2.954818e+3, 2.7242622e+2, -430508.75, -191477.19, 103702.64, 0.09032537, 0.4999571, -152758.14, 117514.83, 0.0, 9.998575, 10.001721 
2.9546836e+3, 2.8242692e+2, -350585.25, -186265.61, 48857.81, 0.10325717, 0.5229793, -172836.08, -565.6525, 0.0, 9.998807, 10.00098 
2.9545468e+3, 2.924292e+2, -62262.48, 88428.27, -46854.797, -0.028691681, 0.74889606, 101808.87, 176060.72, 0.0, 9.999753, 10.001735 
2.966683e+3, 1.3256513e+2, -1329057.5, -1633459.6, 45262.527, 0.10805336, 0.6095563, -1322469.9, 318440.88, 0.0, 10.003121, 9.999049 
2.9665485e+3, 1.425633e+2, -1475920.4, -1543673.4, -1211.0212, 0.11484278, 0.57860005, -1475898.8, 67034.77, 0.0, 10.000949, 10.000051 
2.9664135e+3, 1.5256222e+2, -1405701.5, -1419259.6, 20312.932, 0.10652729, 0.5217569, -1391066.3, 53874.914, 0.0, 10.000595, 10.000395 
2.9662788e+3, 1.6256149e+2, -1378220.4, -1387162.5, 44413.17, 0.15009701, 0.5138429, -1338053.8, 8893.246, 0.0, 10.000241, 10.000116 
2.966144e+3, 1.7256154e+2, -1301011.5, -1294450.3, 68892.734, 0.12786405, 0.59856606, -1228760.1, 20190.627, 0.0, 10.000089, 10.000147 
2.96601e+3, 1.8256128e+2, -1172468.5, -1122059.9, 105168.52, 0.100333475, 0.62931263, -1039117.6, 111837.46, 0.0, 10.00003, 10.000693 
2.965878e+3, 1.925601e+2, -1030226.25, -965053.7, 143754.34, 0.13819163, 0.5094548, -850238.56, 202723.58, 0.0, 10.000182, 10.001019 
2.9657462e+3, 2.0255913e+2, -982838.56, -937908.3, 182671.7, 0.14305952, 0.41770568, -776325.56, 178643.05, 0.0, 10.000033, 10.000606 
2.965614e+3, 2.125589e+2, -1027581.8, -896369.4, 190584.81, 0.021928953, 0.42411938, -760414.8, 96556.8, 0.0, 9.999005, 10.0007105 
2.9654816e+3, 2.2255914e+2, -985869.1, -821089.9, 139761.2, -0.037400097, 0.4701314, -741241.25, 17729.732, 0.0, 9.998601, 10.00075 
2.9653493e+3, 2.3256026e+2, -708432.4, -607818.2, 89211.02, 0.07057641, 0.58299845, -555707.44, 105256.34, 0.0, 9.999705, 10.00101 
2.965216e+3, 2.4256104e+2, -509622.72, -417721.38, 118228.445, 0.14746177, 0.6363088, -336827.94, 226129.52, 0.0, 10.000201, 10.0014105 
2.9650828e+3, 2.5256082e+2, -498154.56, -324022.25, 77192.414, 0.12404808, 0.5459072, -294730.4, 170224.14, 0.0, 9.999445, 10.001744 
2.9649493e+3, 2.6256096e+2, -500226.03, -302523.6, 24365.543, 0.072083496, 0.48575175, -299564.97, 67385.36, 0.0, 9.998881, 10.001491 
2.9648143e+3, 2.725615e+2, -414649.47, -213700.36, 458.94003, -0.01856024, 0.47608715, -213699.31, 55249.695, 0.0, 9.998808, 10.001461 
2.9646802e+3, 2.825618e+2, -379226.38, -240408.22, -8157.19, -0.028873326, 0.48705518, -239930.53, -68980.125, 0.0, 9.998789, 10.0006275 
2.9645467e+3, 2.9256514e+2, -199021.48, -10597.004, -36355.727, 0.08540876, 0.86148816, -3825.6558, 69098.53, 0.0, 9.998995, 10.001419 
2.9766878e+3, 1.3270217e+2, -1499540.1, -1804654.0, -60254.105, 0.39251128, 0.7937498, -1488072.3, 151497.8, 0.0, 10.002338, 9.998249 
2.9765487e+3, 1.4270009e+2, -1469314.0, -1512222.0, -15220.831, 0.10503801, 0.7796917, -1464463.1, 77134.48, 0.0, 10.000876, 10.0003 
2.9764125e+3, 1.5269749e+2, -1318006.3, -1290500.1, 10821.072, 0.012357701, 0.5049139, -1286753.5, 156863.48, 0.0, 10.000827, 10.001167 
2.9762772e+3, 1.6269618e+2, -1315844.4, -1323980.5, 28943.166, 0.023899226, 0.37042984, -1290684.8, 54941.465, 0.0, 10.00053, 10.00041 
2.9761437e+3, 1.7269565e+2, -1296564.3, -1314486.1, 60410.504, 0.14345911, 0.40444407, -1244453.6, 3180.9019, 0.0, 10.0002165, 9.999947 
2.97601e+3, 1.8269542e+2, -1181612.9, -1142238.6, 103749.28, 0.20653826, 0.45844004, -1056325.1, 93313.3, 0.0, 10.000037, 10.000549 
2.9758763e+3, 1.9269636e+2, -1018277.0, -939420.0, 143509.27, 0.03524967, 0.54390013, -830021.4, 221605.06, 0.0, 10.000179, 10.001195 
2.9757428e+3, 2.0269637e+2, -983970.6, -934580.94, 149606.98, -0.116576105, 0.5454851, -807644.4, 145980.19, 0.0, 10.00001, 10.000639 
2.9756114e+3, 2.1269609e+2, -996168.0, -837652.1, 145951.88, -0.080966376, 0.51769286, -750826.44, 104800.57, 0.0, 9.999035, 10.001099 
2.97548e+3, 2.2269656e+2, -968392.75, -790147.8, 160959.36, 0.0028236606, 0.54963356, -695284.6, 62338.5, 0.0, 9.998623, 10.000952 
2.975348e+3, 2.3269707e+2, -711272.4, -620871.5, 130337.13, 0.081170276, 0.6027699, -528119.6, 131501.22, 0.0, 9.999733, 10.000908 
2.975215e+3, 2.4269705e+2, -569954.25, -539173.3, 100045.54, 0.12608445, 0.6100246, -453341.38, 108281.22, 0.0, 10.000184, 10.000584 
2.9750818e+3, 2.5269574e+2, -593547.8, -521589.6, 50051.375, 0.16465668, 0.5292372, -495927.5, -32293.127, 0.0, 9.999444, 10.000386 
2.9749477e+3, 2.6269504e+2, -517047.1, -346686.3, 13607.547, 0.1326255, 0.4805073, -345606.28, 20034.643, 0.0, 9.99892, 10.001168 
2.974812e+3, 2.7269575e+2, -410660.38, -211266.66, -1357.003, -0.059594356, 0.49242643, -211257.42, 56378.09, 0.0, 9.998832, 10.001468 
2.9746774e+3, 2.8269652e+2, -335102.13, -158013.81, -8297.947, -0.116614565, 0.52364916, -157625.84, 12003.808, 0.0, 9.998844, 10.0011635 
2.974545e+3, 2.9269877e+2, -196791.33, -9868.733, -13596.547, 0.12442754, 0.743911, -8884.913, 62724.055, 0.0, 9.999041, 10.001389 
2.9866853e+3, 1.3283265e+2, -1792338.0, -1883442.4, 35552.62, 0.1551981, 0.15689522, -1780106.1, -141815.42, 0.0, 10.000046, 9.998834 
2.9865485e+3, 1.4283283e+2, -1551379.9, -1563166.8, 114673.17, 0.13831985, 0.34426656, -1442448.8, 97845.34, 0.0, 10.000366, 10.000199 
2.9864138e+3, 1.5283541e+2, -1311674.3, -1343857.6, 106497.695, 0.1401474, 0.63388485, -1220059.4, 222204.7, 0.0, 10.001129, 10.000649 
2.9862794e+3, 1.6283582e+2, -1285718.6, -1357569.1, 2212.074, 0.26922205, 0.7266543, -1285650.6, 58607.06, 0.0, 10.000973, 9.999953 
2.9861453e+3, 1.728337e+2, -1321558.9, -1335406.1, 28453.486, 0.38310716, 0.62517387, -1299198.8, -52917.09, 0.0, 10.000116, 9.999838 
2.9860103e+3, 1.82832e+2, -1219563.0, -1180188.8, 109008.516, 0.30612436, 0.54464334, -1089103.9, 59196.42, 0.0, 9.999897, 10.00034 
2.9858756e+3, 1.9283123e+2, -1120935.5, -1053362.0, 104204.76, 0.06780892, 0.506659, -977603.4, 72703.086, 0.0, 9.999775, 10.000598 
2.985743e+3, 2.0283136e+2, -976920.75, -886519.94, 93980.44, -0.021877779, 0.53282183, -827435.2, 124868.5, 0.0, 9.999875, 10.001032 
2.985611e+3, 2.1283117e+2, -852189.3, -744339.94, 73496.74, 0.036769666, 0.4818955, -707107.4, 147196.0, 0.0, 9.999916, 10.00132 
2.9854786e+3, 2.2283089e+2, -839736.44, -739791.5, 94621.266, 0.041537914, 0.43296897, -682757.25, 73548.06, 0.0, 9.999546, 10.000861 
2.9853466e+3, 2.3283169e+2, -653200.2, -582791.1, 93272.73, 0.05315235, 0.5103554, -518300.34, 139998.81, 0.0, 10.0000925, 10.000997 
2.9852143e+3, 2.4283199e+2, -502021.84, -542431.4, 34751.61, 0.10609445, 0.5580264, -482028.25, 78269.31, 0.0, 10.000804, 10.000265 
2.9850808e+3, 2.5283062e+2, -501529.34, -521546.75, 25928.139, 0.17238879, 0.5084019, -483745.2, -21433.014, 0.0, 10.000262, 9.999997 
2.9849467e+3, 2.6282993e+2, -409189.78, -318743.06, 63711.56, 0.15848807, 0.49478105, -285836.3, 78483.76, 0.0, 9.999753, 10.00097 
2.984811e+3, 2.7283093e+2, -254864.7, -159877.17, 42051.117, -0.011987725, 0.55432844, -143936.3, 122374.586, 0.0, 9.999983, 10.001283 
2.9846764e+3, 2.8283146e+2, -140431.1, -52255.316, 5093.8843, -0.078064404, 0.56794953, -51962.02, 116343.1, 0.0, 10.000123, 10.001306 
2.9845437e+3, 2.9283053e+2, -90218.14, -24501.818, -30724.834, 0.12705952, 0.47991586, -12374.712, 57935.816, 0.0, 9.999988, 10.000926 
2.9966852e+3, 1.3297455e+2, -1584340.5, -1577089.8, -109810.65, 0.22367571, 0.62588954, -1470844.6, 166053.4, 0.0, 10.000619, 10.000641 
2.9965463e+3, 1.4297397e+2, -1562585.0, -1593441.6, -4031.274, -0.022938792, 0.6161949, -1562067.0, -23162.371, 0.0, 10.000387, 9.999985 
2.9964146e+3, 1.5296957e+2, -1339976.6, -1505852.6, 4558.167, 0.22010438, 0.30877435, -1339851.5, 101095.22, 0.0, 10.001514, 9.999378 
2.9962772e+3, 1.6296856e+2, -1194865.8, -1432807.6, -129047.516, 0.08248772, 0.3910777, -1138316.5, 204640.75, 0.0, 10.002026, 9.998971 
2.9961395e+3, 1.7296818e+2, -1107600.9, -1259247.5, -78513.47, -0.10396764, 0.4926381, -1074275.0, 170690.34, 0.0, 10.0016165, 9.999678 
2.9960057e+3, 1.8297009e+2, -1166528.0, -1215787.9, -28356.986, -0.03257561, 0.7780618, -1153598.0, -6648.3545, 0.0, 10.000426, 9.999888 
2.9958776e+3, 1.9296665e+2, -1219393.6, -1247497.0, 11372.728, 0.36703014, 0.5692778, -1215368.0, -166385.55, 0.0, 9.999652, 9.999359 
2.9957452e+3, 2.0296554e+2, -1125437.9, -909390.9, 23917.828, 0.2981804, 0.49420613, -906774.7, 44216.746, 0.0, 9.9985895, 10.00152 
2.9956093e+3, 2.1296677e+2, -988971.8, -810992.9, 15971.841, -0.012191578, 0.55760264, -809570.94, 43404.055, 0.0, 9.99895, 10.001337 
2.9954758e+3, 2.2296548e+2, -761106.4, -753588.8, 44317.902, -0.105851464, 0.4395158, -712870.56, 42114.01, 0.0, 10.000296, 10.000408 
2.9953456e+3, 2.3296563e+2, -632439.25, -545219.25, 71634.23, 0.033923816, 0.44718826, -504964.5, 152019.02, 0.0, 10.000115, 10.00124 
2.9952142e+3, 2.4296589e+2, -481973.06, -515210.0, 16159.892, 0.08804267, 0.4770228, -475411.47, 83570.57, 0.0, 10.00087, 10.000414 
2.9950798e+3, 2.529656e+2, -446857.34, -426505.84, -4396.753, 0.13536783, 0.48313427, -425596.6, 35390.375, 0.0, 10.000345, 10.000601 
2.9949453e+3, 2.6296586e+2, -422881.47, -350221.4, 64737.21, 0.14278503, 0.5319095, -312316.84, 50669.45, 0.0, 9.999759, 10.000752 
2.9948115e+3, 2.729671e+2, -279338.56, -228448.39, 60157.977, 0.12180881, 0.66237515, -188575.53, 76398.93, 0.0, 10.000047, 10.000784 
2.9946768e+3, 2.8296643e+2, -174521.27, -108117.055, -2895.3105, 0.065067545, 0.60075724, -107991.055, 58987.367, 0.0, 10.00011, 10.000901 
2.9945415e+3, 2.929614e+2, -137022.66, -80658.85, -2589.9824, 0.028235812, 0.1251101, -80540.09, -11520.87, 0.0, 9.999886, 10.000554 
