coord_x,coord_y,stress_xx,stress_yy,tau_xy,velocity_x,velocity_y,stress_1,eps,damage,lx,ly
5.000464e+0, 1.2423582e+2, -1641412.5, -1884847.9, -36285.555, -0.023098296, -0.2187321, -1636119.0, 86346.2, 0.0013801174, 10.001378, 9.998165 
5.000637e+0, 1.3423462e+2, -1448778.1, -1597223.5, -22045.281, -0.0072769425, -0.27969357, -1445573.5, 178906.39, 0.0008364695, 10.001412, 9.999448 
5.0006896e+0, 1.4423557e+2, -1386480.4, -1560774.5, -13416.32, 0.0005888592, -0.11296223, -1385453.8, 141018.36, 0.00038681776, 10.00136, 9.999045 
5.0006235e+0, 1.5423422e+2, -1324427.4, -1496666.5, -10397.931, 0.002800651, -0.14814569, -1323801.9, 104683.836, 0.00011816065, 10.001184, 9.998897 
5.000547e+0, 1.6423324e+2, -1216670.6, -1338557.3, -8670.51, 0.0038588978, -0.15878527, -1216057.0, 114438.05, 0.000016018055, 10.001013, 9.999394 
5.0004643e+0, 1.7423207e+2, -1140009.4, -1247677.3, -13843.267, 0.0035736451, -0.22675306, -1138258.0, 94246.57, 0.00000013955699, 10.000854, 9.999422 
5.0004286e+0, 1.8423125e+2, -1034572.7, -1116107.4, -15922.732, 0.0038274284, -0.2615887, -1031573.5, 102937.24, 0.0, 10.000776, 9.999692 
5.0004566e+0, 1.9423114e+2, -933158.1, -1017342.2, -24213.896, 0.0053189765, -0.25053728, -926690.4, 109819.625, 0.0, 10.000804, 9.999684 
5.000523e+0, 2.0423059e+2, -886085.3, -1015861.25, -18316.803, 0.013844503, -0.2419357, -883549.56, 54964.97, 0.0, 10.000765, 9.999038 
5.000632e+0, 2.1422943e+2, -812351.25, -938503.9, 9034.258, 0.031228824, -0.26464167, -811707.56, 28818.73, 0.0, 10.000636, 9.998958 
5.000577e+0, 2.2422834e+2, -717197.56, -816585.75, 22340.7, 0.032158084, -0.27822867, -712406.75, 30130.387, 0.0, 10.000507, 9.999185 
5.000298e+0, 2.3422734e+2, -638122.3, -726756.1, 11274.54, 0.010974479, -0.30684865, -636710.6, 7835.7725, 0.0, 10.000374, 9.999192 
5.0001585e+0, 2.4422655e+2, -552405.6, -631302.06, 5769.094, 0.0019186032, -0.30477408, -551986.0, -5432.437, 0.0, 10.000275, 9.999224 
5.0002104e+0, 2.5422612e+2, -463219.84, -541354.75, 1058.4896, 0.009286961, -0.2784105, -463205.5, -14648.474, 0.0, 10.000231, 9.999189 
5.000203e+0, 2.642255e+2, -401798.7, -498993.47, -3920.8745, 0.012966248, -0.23682007, -401640.75, -51078.56, 0.0, 10.000143, 9.998849 
5.000123e+0, 2.7422476e+2, -328266.38, -416395.75, -10625.174, 0.012542808, -0.20314053, -327003.47, -74433.92, 0.0, 9.99999, 9.998816 
5.00008e+0, 2.842228e+2, -243802.84, -335574.03, -13896.855, 0.010718528, -0.27478248, -241744.61, -87156.31, 0.000000010220777, 9.999943, 9.99872 
5.000075e+0, 2.942194e+2, -130041.76, -229424.22, -24828.67, 0.004917194, -0.49819055, -124184.08, -67562.95, 0.000007764773, 10.000049, 9.998726 
5.000113e+0, 3.0421972e+2, -77822.81, -213296.0, -27804.275, 0.00033170037, -0.3216045, -72338.34, -72338.34, 0.00008416529, 10.000217, 9.9984255 
5.0003314e+0, 3.1421822e+2, 81726.98, 72123.12, -29538.254, 0.012139982, -0.31576136, 106851.08, 106851.08, 0.00029797413, 10.00041, 10.000295 
1.500138e+1, 1.2423516e+2, -1614591.0, -1826391.8, -37707.086, -0.07026664, -0.18463084, -1608078.3, 114397.08, 0.00135349, 10.0013685, 9.998572 
1.5001912e+1, 1.3423419e+2, -1419505.4, -1535065.9, -20347.748, -0.021955796, -0.26214385, -1416027.3, 208457.86, 0.0008181531, 10.001409, 9.999878 
1.5002069e+1, 1.4423501e+2, -1377266.5, -1539329.9, -20583.813, 0.0019364308, -0.13861181, -1374693.0, 151783.52, 0.00037595516, 10.00135, 9.999197 
1.5001868e+1, 1.542331e+2, -1317148.0, -1479586.3, -16445.635, 0.008469603, -0.24321222, -1315499.6, 112995.1, 0.00011312574, 10.001178, 9.999018 
1.5001643e+1, 1.6423216e+2, -1223889.9, -1352148.9, -15810.678, 0.011668741, -0.24981512, -1221969.6, 108533.98, 0.000014709239, 10.001007, 9.999305 
1.5001395e+1, 1.7423204e+2, -1148626.1, -1264551.8, -19471.098, 0.0107499445, -0.20114705, -1145443.1, 87062.06, 0.00000010097208, 10.00085, 9.99931 
1.5001285e+1, 1.842315e+2, -1049518.1, -1144930.6, -15973.259, 0.011436683, -0.19216707, -1046915.06, 87595.266, 0.0, 10.000768, 9.999498 
1.500137e+1, 1.9423066e+2, -947883.5, -1046243.25, -22350.396, 0.015960751, -0.23333815, -943043.0, 93474.984, 0.0, 10.000797, 9.999489 
1.5001564e+1, 2.042301e+2, -838991.8, -915707.0, -23506.967, 0.04132846, -0.24700966, -832361.8, 106160.18, 0.0, 10.000755, 9.999731 
1.5001896e+1, 2.1422994e+2, -760049.1, -827773.44, 5255.1426, 0.09375031, -0.24455433, -759643.8, 80877.3, 0.0, 10.0006275, 9.999723 
1.5001729e+1, 2.2422937e+2, -730460.3, -841917.5, 16439.656, 0.09632747, -0.23922612, -728086.06, 14439.516, 0.0, 10.000499, 9.999015 
1.5000893e+1, 2.3422834e+2, -657995.56, -766119.2, 7153.53, 0.032848317, -0.24287988, -657524.4, -12987.85, 0.0, 10.000366, 9.998926 
1.5000474e+1, 2.4422719e+2, -561804.3, -649101.9, 2823.0115, 0.005682789, -0.25770968, -561713.1, -15165.363, 0.0, 10.000268, 9.999106 
1.5000628e+1, 2.542259e+2, -470356.47, -553830.7, 236.00339, 0.02766764, -0.30421257, -470355.8, -21797.055, 0.0, 10.000221, 9.999109 
1.500061e+1, 2.6422477e+2, -412042.97, -518116.78, -9992.084, 0.0389843, -0.3102321, -411109.94, -60540.664, 0.0, 10.000135, 9.998722 
1.5000366e+1, 2.742238e+2, -341228.06, -440580.2, -15697.36, 0.03747553, -0.27892643, -338806.9, -86227.984, 0.0, 9.99998, 9.998656 
1.5000242e+1, 2.8422248e+2, -264260.16, -375730.34, -11633.082, 0.032390747, -0.2688368, -263059.06, -108465.52, 0.000000009053116, 9.999934, 9.99845 
1.5000223e+1, 2.942208e+2, -149556.72, -267640.16, -19251.271, 0.014440946, -0.2852701, -146497.42, -89885.17, 0.0000075983085, 10.000039, 9.998468 
1.5000343e+1, 3.0422112e+2, -79451.62, -214088.22, -20568.992, 0.001433224, -0.09633717, -76379.32, -76379.32, 0.000082482155, 10.000209, 9.9984255 
1.5000986e+1, 3.1421742e+2, 81098.13, 74973.414, -21179.896, 0.035488732, -0.31349665, 99435.914, 99435.914, 0.00029308064, 10.000395, 10.000322 
2.500279e+1, 1.24234974e+2, -1668065.8, -1825953.9, 5792.026, -0.042671792, -0.15257387, -1667853.6, 54625.402, 0.0013145427, 10.000894, 9.998802 
2.5003254e+1, 1.3423385e+2, -1451795.9, -1526819.6, 5746.1665, -0.012489481, -0.26914135, -1451358.3, 173130.52, 0.0007913486, 10.001087, 10.000091 
2.5003284e+1, 1.4423467e+2, -1390112.6, -1528739.4, -7454.6045, -0.0033243266, -0.1636999, -1389712.9, 136766.33, 0.00036019128, 10.00119, 9.999349 
2.5003016e+1, 1.5423286e+2, -1305625.1, -1458069.4, -3165.8855, 0.005052396, -0.2704069, -1305559.4, 122936.4, 0.00010584406, 10.001188, 9.999161 
2.5002673e+1, 1.6423202e+2, -1219140.9, -1359134.5, -2831.8713, 0.010138488, -0.27359757, -1219083.6, 111420.36, 0.000012859098, 10.001082, 9.999221 
2.500225e+1, 1.7423189e+2, -1157314.4, -1280471.8, -7505.5073, 0.011807424, -0.21443316, -1156858.6, 75647.555, 0.00000006033416, 10.000842, 9.999204 
2.5002086e+1, 1.8423142e+2, -1053073.9, -1143436.0, 14472.576, 0.016937878, -0.1942531, -1050812.5, 83698.68, 0.0, 10.00073, 9.999528 
2.5002274e+1, 1.9423075e+2, -946316.3, -1040908.75, 26013.248, 0.027087005, -0.22272256, -939634.56, 96882.99, 0.0, 10.000789, 9.99953 
2.5002435e+1, 2.0423028e+2, -811142.1, -887817.4, 15440.554, 0.046576105, -0.23505932, -808149.56, 130371.086, 0.0, 10.000884, 9.999862 
2.5002545e+1, 2.1423009e+2, -693385.7, -779698.7, -3873.268, 0.07675636, -0.25004214, -693212.25, 147307.34, 0.0, 10.001018, 9.9998665 
2.5002307e+1, 2.2422959e+2, -663530.7, -810412.44, -17612.867, 0.08110008, -0.24519253, -661448.25, 81074.86, 0.0, 10.000962, 9.999009 
2.5001597e+1, 2.342288e+2, -616339.56, -748648.0, -10767.171, 0.051661614, -0.22453901, -615469.06, 29062.605, 0.0, 10.000664, 9.998903 
2.5001237e+1, 2.442276e+2, -546387.5, -664306.8, 381.40274, 0.045155123, -0.2326457, -546386.25, 157.3852, 0.0, 10.000471, 9.998903 
2.5001356e+1, 2.5422588e+2, -456844.3, -570873.4, -11358.335, 0.068726875, -0.30163082, -455723.94, -7164.2305, 0.0, 10.000415, 9.9988985 
2.5001222e+1, 2.6422453e+2, -367931.56, -495132.44, -18950.666, 0.07213673, -0.32005697, -365168.28, -14595.553, 0.0, 10.000431, 9.998738 
2.500078e+1, 2.742236e+2, -253751.83, -395628.7, -11940.459, 0.05179572, -0.28757846, -252753.92, -172.36636, 0.0, 10.000568, 9.998682 
2.5000563e+1, 2.8422242e+2, -182073.81, -352467.63, 5336.768, 0.039854635, -0.25628272, -181906.83, -27311.871, 0.000000009457464, 10.000569, 9.998303 
2.5000557e+1, 2.9422107e+2, -115440.3, -269377.8, 5039.1577, 0.028456887, -0.22572884, -115275.516, -58663.594, 0.0000073463098, 10.000353, 9.998305 
2.5000444e+1, 3.0422133e+2, -117108.234, -243949.52, 2370.9326, 0.0012105632, -0.028753111, -117063.93, -117063.93, 0.00008001909, 10.000003, 9.99832 
2.500074e+1, 3.1421736e+2, -56667.023, 5744.439, -11957.492, 0.017859504, -0.26337793, 7956.9556, 7956.9556, 0.0002860611, 9.999467, 10.000293 
3.500468e+1, 1.2423522e+2, -1665841.8, -1820216.6, 9195.427, 0.05348059, -0.1300964, -1665295.9, 57180.926, 0.0012623775, 10.000891, 9.998843 
3.5004655e+1, 1.3423353e+2, -1451698.1, -1526477.4, 13954.035, 0.01726172, -0.30104926, -1449179.1, 175312.22, 0.000755357, 10.001088, 10.0000925 
3.5004327e+1, 1.4423451e+2, -1377623.8, -1502978.1, -8654.965, -0.020085467, -0.1884585, -1377029.0, 149451.02, 0.00033918672, 10.001191, 9.999526 
3.500406e+1, 1.5423356e+2, -1292512.8, -1430433.0, -2813.3022, -0.010817667, -0.22701474, -1292455.4, 136033.23, 0.00009620481, 10.001187, 9.9993515 
3.5003626e+1, 1.6423278e+2, -1224771.8, -1369700.8, -11854.263, -0.0041984045, -0.23111844, -1223808.5, 106687.53, 0.000010539653, 10.001078, 9.99915 
3.5003012e+1, 1.7423162e+2, -1164189.9, -1294012.0, -15662.26, 0.002552382, -0.26679143, -1162327.0, 70180.64, 0.000000028001644, 10.00084, 9.999112 
3.500282e+1, 1.8423098e+2, -1035335.75, -1105580.4, 15122.669, 0.01590091, -0.26881397, -1032218.44, 102295.0, 0.0, 10.000725, 9.999789 
3.500316e+1, 1.942314e+2, -927098.4, -999889.06, 29107.36, 0.036110688, -0.21753582, -916890.5, 119618.15, 0.0, 10.000784, 9.999814 
3.5003126e+1, 2.0423113e+2, -841653.25, -948603.25, 19625.313, 0.026166638, -0.20732045, -838165.7, 100344.81, 0.0, 10.0008745, 9.999449 
3.5002574e+1, 2.1422988e+2, -727794.7, -849022.94, 2017.0466, -0.02318271, -0.27932903, -727761.1, 112760.65, 0.0, 10.001009, 9.999394 
3.500229e+1, 2.2422898e+2, -651987.0, -784692.94, -28596.078, -0.017586097, -0.2980164, -646087.3, 96442.46, 0.0, 10.000955, 9.999189 
3.5002396e+1, 2.3422867e+2, -600969.75, -714893.94, -21121.01, 0.06406003, -0.25129816, -597180.06, 47351.965, 0.0, 10.000656, 9.99914 
3.5002437e+1, 2.4422775e+2, -566778.94, -704308.0, -3018.1934, 0.11679857, -0.23196188, -566712.75, -20171.428, 0.0, 10.000463, 9.998632 
3.500238e+1, 2.5422603e+2, -481873.16, -619467.1, -12838.465, 0.1284281, -0.26846227, -480685.5, -32125.799, 0.0, 10.000402, 9.99857 
3.5002026e+1, 2.6422477e+2, -356691.16, -470608.16, -15378.022, 0.10827771, -0.2661252, -354651.72, -4079.2007, 0.0, 10.000426, 9.998909 
3.5001355e+1, 2.7422416e+2, -238786.36, -362093.9, -5707.527, 0.050830975, -0.22758591, -238522.73, 14054.602, 0.0, 10.000559, 9.998918 
3.5001045e+1, 2.8422266e+2, -184375.95, -354975.88, -2364.7053, 0.029823963, -0.23879056, -184343.19, -29750.607, 0.000000011907709, 10.000561, 9.998291 
3.500107e+1, 2.9422015e+2, -120551.8, -277141.2, -2134.076, 0.042766266, -0.31984693, -120522.71, -63902.402, 0.000006964684, 10.000342, 9.998258 
3.500041e+1, 3.0422032e+2, -132698.98, -273949.28, -17836.41, -0.0029037392, -0.12025091, -130481.51, -130481.51, 0.00007659062, 9.999994, 9.998118 
3.499957e+1, 3.1421804e+2, -63654.26, -5945.5264, -33535.586, -0.048735935, -0.16130076, 9440.473, 9440.473, 0.00027653438, 9.999456, 10.0002165 
4.5006108e+1, 1.2423573e+2, -1507515.8, -1756961.0, 54186.668, 0.051152118, -0.15060174, -1496253.4, 226216.95, 0.0011988538, 10.002031, 9.998732 
4.5005876e+1, 1.3423395e+2, -1419950.6, -1531112.9, 43556.69, 0.015924005, -0.3132815, -1404917.0, 219569.34, 0.0007112032, 10.001392, 9.999916 
4.5005473e+1, 1.4423501e+2, -1394914.0, -1520327.1, 19765.377, -0.020407101, -0.17891942, -1391872.8, 134602.25, 0.00031351, 10.001112, 9.999446 
4.5005387e+1, 1.5423413e+2, -1273758.3, -1430351.8, 4175.824, -0.005073216, -0.20316304, -1273647.0, 154836.89, 0.000084590996, 10.001353, 9.999274 
4.5004922e+1, 1.6423334e+2, -1162024.1, -1319305.9, -16013.541, 0.0007402811, -0.21123609, -1160410.3, 170080.98, 0.000007991499, 10.001422, 9.999331 
4.5004016e+1, 1.742321e+2, -1088275.9, -1234354.6, 366.08234, -0.0020457974, -0.27496654, -1088275.0, 144227.16, 0.000000008983813, 10.001262, 9.999319 
4.5003587e+1, 1.8423143e+2, -993996.44, -1090619.9, 36379.742, 0.0053613964, -0.29145285, -981830.9, 152676.58, 0.0, 10.00103, 9.999746 
4.500376e+1, 1.9423182e+2, -942832.94, -1014459.44, 22806.059, 0.0217639, -0.23555122, -936187.9, 100314.64, 0.0, 10.000707, 9.999752 
4.5003676e+1, 2.0423141e+2, -913127.4, -1019423.5, 12130.144, 0.011180039, -0.21928355, -911760.7, 26745.455, 0.0, 10.00054, 9.999125 
4.500326e+1, 2.1422993e+2, -814774.4, -929290.7, 3234.9536, -0.033869073, -0.28259796, -814683.06, 25838.553, 0.0, 10.000576, 9.999052 
4.5003045e+1, 2.242289e+2, -686158.0, -781699.4, -27161.537, -0.021865012, -0.30382103, -678976.1, 63555.12, 0.0, 10.000636, 9.999365 
4.5003125e+1, 2.3422861e+2, -575090.56, -677298.75, -22540.068, 0.06832696, -0.27713034, -570340.56, 74191.35, 0.0, 10.000726, 9.999365 
4.500307e+1, 2.4422775e+2, -539126.4, -700556.8, 2759.2214, 0.12288308, -0.25895548, -539079.25, 7460.7915, 0.0, 10.000693, 9.998548 
4.5002812e+1, 2.5422618e+2, -473445.34, -628277.06, 7212.8774, 0.12601754, -0.27093467, -473110.06, -24552.23, 0.0, 10.000515, 9.998457 
4.5002326e+1, 2.6422498e+2, -372715.0, -484562.16, 11050.997, 0.10025587, -0.2515876, -371633.56, -21063.027, 0.0, 10.000343, 9.998854 
4.500164e+1, 2.7422437e+2, -298740.53, -396229.16, -476.98352, 0.043641552, -0.20717889, -298738.2, -46162.453, 0.0, 10.000169, 9.998872 
4.5001397e+1, 2.842228e+2, -249102.22, -365830.03, -4284.096, 0.035850924, -0.2318541, -248945.2, -94353.734, 0.000000014300223, 10.00003, 9.998473 
4.500156e+1, 2.9422006e+2, -159613.03, -275187.47, 11954.17, 0.07659008, -0.3550724, -158389.53, -101769.34, 0.000006428048, 9.999985, 9.998445 
4.5000637e+1, 3.0422005e+2, -120794.945, -273724.06, 13645.877, 0.01573535, -0.17880438, -119586.87, -119586.87, 0.00007216027, 10.0001, 9.998071 
4.4999132e+1, 3.1421834e+2, 67407.52, 63834.48, 2838.071, -0.08058623, -0.15973619, 68974.555, 68974.555, 0.00026447666, 10.000323, 10.000283 
5.500701e+1, 1.2423651e+2, -1522666.9, -1790870.6, 28742.498, -0.06557449, -0.20961243, -1519621.3, 202837.86, 0.0011275938, 10.002044, 9.998494 
5.500692e+1, 1.3423511e+2, -1441643.3, -1576785.8, 19062.457, -0.020507658, -0.30193567, -1439005.9, 185467.67, 0.00066134764, 10.001395, 9.999601 
5.500671e+1, 1.4423615e+2, -1418791.9, -1569213.5, 25880.355, -0.009880904, -0.13707332, -1414463.6, 112000.46, 0.00028458898, 10.001109, 9.999112 
5.500695e+1, 1.5423454e+2, -1297977.3, -1480853.6, 14560.259, 0.013771907, -0.19980615, -1296825.3, 131656.4, 0.00007188515, 10.001355, 9.998927 
5.500652e+1, 1.642337e+2, -1130966.9, -1255368.1, -21937.484, 0.016879257, -0.21394874, -1127211.8, 203277.7, 0.0000055425044, 10.001424, 9.99977 
5.500525e+1, 1.7423335e+2, -1052785.4, -1160816.1, -5384.647, -0.006071482, -0.23801757, -1052517.6, 179971.84, 0.00000000116644, 10.001262, 9.999824 
5.5004376e+1, 1.8423273e+2, -1018600.2, -1140420.4, 23845.645, -0.020349333, -0.2618102, -1014098.9, 120394.37, 0.0, 10.001026, 9.999406 
5.500404e+1, 1.94232e+2, -971904.5, -1074165.1, 11295.622, -0.02226744, -0.27721295, -970671.6, 65827.65, 0.0, 10.000705, 9.999343 
5.500407e+1, 2.0423116e+2, -928936.44, -1051553.8, 11931.819, -0.0046935515, -0.27231207, -927786.2, 10721.498, 0.0, 10.000537, 9.998906 
5.500458e+1, 2.1423021e+2, -830477.94, -960516.44, 5467.805, 0.039413553, -0.259722, -830248.44, 10270.667, 0.0, 10.00057, 9.998842 
5.500454e+1, 2.242293e+2, -674983.5, -756071.75, -24478.322, 0.06302711, -0.26354766, -668167.2, 74360.42, 0.0, 10.000627, 9.999545 
5.5003774e+1, 2.3422861e+2, -561445.1, -647279.25, -18526.768, 0.059516095, -0.30018803, -557617.0, 86914.3, 0.0, 10.000719, 9.999575 
5.500312e+1, 2.442276e+2, -531475.6, -683895.0, -4040.078, 0.057085004, -0.31361672, -531368.6, 15171.184, 0.0, 10.0006895, 9.998665 
5.5002624e+1, 2.542263e+2, -467097.66, -613326.0, 1232.1315, 0.05472967, -0.3092765, -467087.28, -18533.086, 0.0, 10.000506, 9.998565 
5.5002105e+1, 2.6422516e+2, -392819.63, -525061.9, 3909.4802, 0.042777874, -0.27842662, -392704.13, -42137.22, 0.0, 10.000338, 9.998578 
5.500162e+1, 2.742243e+2, -322229.06, -442808.2, -6725.3496, 0.023952277, -0.22653425, -321855.13, -69278.31, 0.0, 10.000161, 9.998555 
5.500158e+1, 2.842229e+2, -223710.63, -312346.63, -7414.9146, 0.05061361, -0.23442218, -223094.61, -68503.12, 0.00000001499631, 10.000027, 9.998842 
5.500202e+1, 2.9422086e+2, -129809.805, -211723.95, 12266.774, 0.12249844, -0.32944185, -128012.28, -71400.91, 0.000005758176, 9.999977, 9.998884 
5.500109e+1, 3.0422065e+2, -114250.12, -258558.7, 21473.246, 0.050571226, -0.20593736, -111122.66, -111122.66, 0.00006691841, 10.000093, 9.9981785 
5.4999375e+1, 3.142182e+2, 81241.625, 94638.68, 12783.669, -0.091167144, -0.26452655, 102372.5, 102372.5, 0.00025031384, 10.000317, 10.000499 
6.500835e+1, 1.2423717e+2, -1673915.4, -1862897.3, -12589.75, -0.083425045, -0.22439303, -1673080.4, 49371.293, 0.001052614, 10.001, 9.9985 
6.500837e+1, 1.342359e+2, -1423285.0, -1575205.4, -6530.4756, -0.021824539, -0.2969576, -1423004.8, 201460.64, 0.00060904585, 10.001554, 9.999536 
6.500808e+1, 1.44237e+2, -1345938.9, -1529063.9, 20644.344, -0.0070170034, -0.12689695, -1343640.4, 182815.28, 0.000254567, 10.001589, 9.999156 
6.500808e+1, 1.5423511e+2, -1352527.6, -1501597.9, 37575.934, 0.0120340865, -0.2226932, -1343591.6, 84883.67, 0.00005931439, 10.000958, 9.998976 
6.5007555e+1, 1.6423427e+2, -1231372.1, -1308440.4, 12942.394, 0.011650436, -0.2366659, -1229256.8, 101226.37, 0.0000034805446, 10.000755, 9.999728 
6.500634e+1, 1.7423433e+2, -1073937.1, -1176600.9, -12155.423, -0.016739916, -0.21543278, -1072517.5, 159962.52, 0.00000000000024211628, 10.0011425, 9.999773 
6.5005434e+1, 1.8423365e+2, -978397.4, -1148028.5, -7701.0093, -0.03632668, -0.22949158, -978048.44, 156436.36, 0.0, 10.00142, 9.999163 
6.500497e+1, 1.9423226e+2, -867094.56, -1052561.8, -11026.253, -0.042257264, -0.28560534, -866441.4, 170056.23, 0.0, 10.00155, 9.9990835 
6.5004885e+1, 2.0423122e+2, -789829.06, -961889.94, 6326.157, -0.019830024, -0.29737768, -789596.75, 148910.73, 0.0, 10.001396, 9.999106 
6.5005296e+1, 2.1423067e+2, -769259.44, -903565.8, 32258.89, 0.039069425, -0.2674898, -761913.06, 78600.22, 0.0, 10.0008745, 9.999084 
6.500515e+1, 2.2422993e+2, -685349.75, -781527.2, 22396.625, 0.061239313, -0.26068604, -680390.06, 62129.97, 0.0, 10.000644, 9.999362 
6.500428e+1, 2.34229e+2, -565215.7, -673133.6, -3751.4348, 0.034917593, -0.29838237, -565085.44, 79442.03, 0.0, 10.000796, 9.999359 
6.500356e+1, 2.4422793e+2, -502319.2, -651176.06, -13873.883, 0.02678061, -0.31380218, -501037.13, 45499.863, 0.0, 10.000809, 9.998833 
6.500306e+1, 2.542268e+2, -434745.53, -574685.5, -3134.4026, 0.042001948, -0.31330848, -434675.34, 13873.199, 0.0, 10.000629, 9.998771 
6.500247e+1, 2.642256e+2, -387599.88, -536220.6, 10100.373, 0.041531835, -0.29037836, -386916.6, -36355.297, 0.0, 10.000434, 9.998455 
6.500185e+1, 2.742245e+2, -321444.4, -459902.13, 10098.858, 0.02685382, -0.2508567, -320711.7, -68136.72, 0.0, 10.000242, 9.998398 
6.500166e+1, 2.842232e+2, -213229.78, -306882.25, 8195.947, 0.052630827, -0.2393034, -212517.94, -57928.68, 0.000000013847158, 10.000096, 9.998846 
6.500192e+1, 2.9422176e+2, -127811.195, -207068.55, -3934.1887, 0.11537119, -0.2772328, -127616.38, -71013.1, 0.00000502331, 9.999976, 9.998917 
6.5000975e+1, 3.0422118e+2, -155570.19, -270700.03, -8601.587, 0.046228547, -0.19241846, -154931.1, -154931.1, 0.000061189545, 9.999776, 9.998246 
6.4999545e+1, 3.142182e+2, -27388.826, 64287.08, -23476.512, -0.063042276, -0.31519234, 69949.266, 69949.266, 0.0002346527, 9.9994755, 10.000692 
7.501008e+1, 1.2423767e+2, -1655922.0, -1827203.1, 5237.2603, -0.01382429, -0.20431171, -1655762.0, 66686.5, 0.0009783517, 10.001007, 9.998741 
7.501018e+1, 1.342363e+2, -1409845.9, -1549974.1, 15331.456, 0.0008779312, -0.30165324, -1408188.0, 216274.06, 0.00055803865, 10.001563, 9.999703 
7.500953e+1, 1.4423752e+2, -1315168.1, -1466658.6, -819.20404, -0.023770384, -0.14961563, -1315163.8, 211286.08, 0.00022607559, 10.0015955, 9.999581 
7.50088e+1, 1.5423581e+2, -1320391.8, -1435866.0, 14093.559, -0.013858403, -0.27095455, -1318696.5, 109768.46, 0.000048170983, 10.000961, 9.999426 
7.5008017e+1, 1.6423504e+2, -1267520.5, -1382848.0, 24199.342, -0.019141214, -0.2793594, -1262648.5, 67823.65, 0.0000019773436, 10.000752, 9.999218 
7.5007254e+1, 1.7423502e+2, -1115332.9, -1263058.0, 3619.7693, -0.041459285, -0.20770383, -1115244.3, 117229.48, 0.0, 10.001144, 9.999178 
7.500673e+1, 1.8423422e+2, -989114.25, -1170299.4, -2387.3389, -0.050760545, -0.19577664, -989082.8, 145399.39, 0.0, 10.001421, 9.99901 
7.500653e+1, 1.9423261e+2, -875785.75, -1069608.6, -5759.0757, -0.041886665, -0.25970867, -875614.8, 160882.61, 0.0, 10.001545, 9.998969 
7.5006104e+1, 2.0423159e+2, -746659.56, -870412.4, -11993.726, -0.037876256, -0.2936782, -745507.94, 192997.67, 0.0, 10.001389, 9.999738 
7.5005376e+1, 2.1423133e+2, -721775.94, -803474.1, 13484.017, -0.040872063, -0.30514017, -719608.0, 120896.12, 0.0, 10.000869, 9.999774 
7.500486e+1, 2.2423072e+2, -723475.75, -860124.4, 25631.924, -0.033390895, -0.29590645, -718826.0, 23682.686, 0.0, 10.00064, 9.998824 
7.500463e+1, 2.3422977e+2, -610640.1, -766804.5, 2771.577, -0.01035762, -0.27245018, -610590.94, 33929.723, 0.0, 10.0007925, 9.998718 
7.5004387e+1, 2.4422875e+2, -487198.1, -618167.44, -20190.973, 0.02734746, -0.26139492, -484156.0, 62375.76, 0.0, 10.000803, 9.999063 
7.5004107e+1, 2.5422767e+2, -414827.88, -531430.9, -9636.668, 0.0820174, -0.281793, -414036.84, 34504.035, 0.0, 10.000622, 9.999071 
7.5003415e+1, 2.642264e+2, -385793.72, -531674.5, 2020.6349, 0.09142786, -0.28596118, -385765.75, -35212.21, 0.0, 10.00043, 9.998487 
7.5002307e+1, 2.7422497e+2, -322514.34, -460269.97, 4211.284, 0.04676627, -0.28037417, -322385.72, -69815.44, 0.0, 10.000235, 9.998399 
7.5001603e+1, 2.842237e+2, -239085.56, -359403.88, 2631.0115, 0.035547532, -0.24809949, -239028.05, -84443.164, 0.000000011324871, 10.000092, 9.998487 
7.5001234e+1, 2.9422274e+2, -154840.4, -262140.61, -8155.452, 0.04806441, -0.20077722, -154224.08, -97628.0, 0.0000042980337, 9.999972, 9.99854 
7.500025e+1, 3.0422178e+2, -153528.69, -266126.8, -19757.844, -0.0051181945, -0.1376284, -150162.38, -150162.38, 0.00005527223, 9.999775, 9.998278 
7.4999595e+1, 3.1421834e+2, -15870.986, 91251.13, -36783.242, -0.008439358, -0.30881515, 102665.41, 102665.41, 0.00021799415, 9.999463, 10.000882 
8.5011667e+1, 1.242385e+2, -1576258.9, -1767196.3, 45227.645, 0.021638986, -0.19941112, -1566087.6, 156353.31, 0.00090933184, 10.001461, 9.998935 
8.5011643e+1, 1.3423702e+2, -1462751.3, -1563714.1, 49090.266, 0.012819864, -0.32025978, -1442818.0, 181637.22, 0.0005120121, 10.00115, 9.999808 
8.501074e+1, 1.4423828e+2, -1391353.4, -1493827.9, 8970.866, -0.03360694, -0.16983278, -1390574.0, 135867.61, 0.00020159004, 10.001033, 9.999666 
8.5009694e+1, 1.5423672e+2, -1275195.9, -1405193.9, -6367.0176, -0.033657752, -0.28495175, -1274884.9, 153570.28, 0.000039447743, 10.001237, 9.999503 
8.50089e+1, 1.6423596e+2, -1205578.0, -1372051.3, 12113.826, -0.03128575, -0.28909013, -1204701.1, 125761.38, 0.0000010481418, 10.001263, 9.999044 
8.500855e+1, 1.7423578e+2, -1144357.9, -1298773.5, 20475.955, -0.020048046, -0.21288443, -1141688.9, 90777.664, 0.0, 10.00104, 9.998982 
8.500815e+1, 1.8423499e+2, -1073797.9, -1203442.9, 34535.305, -0.019683523, -0.19357616, -1065172.1, 69303.21, 0.0, 10.000806, 9.99908 
8.500763e+1, 1.942336e+2, -1011205.75, -1123570.0, 46040.223, -0.037340786, -0.24586084, -994750.9, 41737.363, 0.0, 10.000569, 9.999068 
8.500695e+1, 2.0423263e+2, -857589.5, -918071.56, 28910.764, -0.0528786, -0.28005332, -845993.3, 92501.984, 0.0, 10.000602, 9.999789 
8.500607e+1, 2.1423225e+2, -701863.56, -789180.94, 4409.7417, -0.06399664, -0.30821067, -701641.4, 138853.25, 0.0, 10.000983, 9.999818 
8.500544e+1, 2.2423156e+2, -684901.06, -851768.44, 2183.884, -0.05504824, -0.3066193, -684872.5, 57627.637, 0.0, 10.000951, 9.998732 
8.5005134e+1, 2.3423056e+2, -679064.3, -810613.25, 17510.969, -0.018168563, -0.2765239, -676773.25, -32260.258, 0.0, 10.000371, 9.99862 
8.500486e+1, 2.4422958e+2, -588572.5, -659443.4, 17928.326, 0.030798823, -0.2576054, -584295.25, -37771.453, 0.0, 10.000074, 9.999129 
8.50046e+1, 2.542287e+2, -475593.4, -552039.3, 11492.478, 0.09241336, -0.2685093, -473903.06, -25371.752, 0.0, 10.000167, 9.999148 
8.5003906e+1, 2.6422748e+2, -393513.72, -530782.4, 18746.68, 0.10091334, -0.27413046, -390999.56, -40456.152, 0.0, 10.000357, 9.99853 
8.500276e+1, 2.7422595e+2, -257367.97, -423769.94, 22177.014, 0.048354022, -0.28232777, -254463.06, -1902.3552, 0.0, 10.000659, 9.998446 
8.5001886e+1, 2.842247e+2, -151441.84, -326991.84, 26581.486, 0.023016175, -0.24746114, -147505.2, 7070.0713, 0.000000007967864, 10.000734, 9.998402 
8.50011e+1, 2.9422385e+2, -80181.35, -236945.72, 35451.875, 0.009458633, -0.17937665, -72536.79, -15950.615, 0.00000360919, 10.00053, 9.9984455 
8.499993e+1, 3.0422252e+2, -105721.82, -264567.03, 19303.318, -0.034675423, -0.13479224, -103409.68, -103409.68, 0.000049311082, 10.000194, 9.998087 
8.499947e+1, 3.1421962e+2, -3461.0344, 81894.76, -24925.756, 0.026838887, -0.23583502, 88640.51, 88640.51, 0.0002005974, 9.999613, 10.000746 
9.501303e+1, 1.2423964e+2, -1564284.3, -1744584.3, 30671.326, 0.008458713, -0.20853396, -1559209.5, 163219.72, 0.0008487081, 10.001471, 9.999086 
9.501281e+1, 1.3423796e+2, -1458816.5, -1557740.9, 37434.043, 0.012246002, -0.35255355, -1446248.0, 178196.72, 0.00047347447, 10.001158, 9.999846 
9.501172e+1, 1.4423932e+2, -1407905.6, -1528968.0, 14483.812, -0.040238883, -0.1863869, -1406196.9, 120233.99, 0.00018256163, 10.001036, 9.999423 
9.501072e+1, 1.5423782e+2, -1294384.8, -1446561.6, 2931.6694, -0.05714767, -0.26654503, -1294328.3, 134117.48, 0.00003354367, 10.001243, 9.999216 
9.501014e+1, 1.6423698e+2, -1195764.5, -1351640.6, 4795.977, -0.03549953, -0.26784366, -1195617.0, 134837.2, 0.00000057940093, 10.001264, 9.999184 
9.5010257e+1, 1.7423658e+2, -1131520.5, -1272121.9, 12532.379, 0.04422573, -0.23125696, -1130412.3, 102046.336, 0.0, 10.00104, 9.999166 
9.500969e+1, 1.8423593e+2, -1052073.9, -1158509.6, 24874.127, 0.05283437, -0.22173609, -1046547.7, 87916.805, 0.0, 10.000807, 9.999387 
9.500823e+1, 1.9423518e+2, -989014.1, -1077738.4, 37900.543, -0.034712233, -0.24419281, -975028.56, 61441.555, 0.0, 10.000569, 9.999382 
9.5007384e+1, 2.0423435e+2, -895943.06, -996525.94, 41150.48, -0.07003671, -0.25681934, -881253.06, 57223.773, 0.0, 10.000597, 9.999253 
9.5007354e+1, 2.1423344e+2, -744993.75, -877285.9, 19572.428, -0.034836072, -0.27639145, -742158.75, 98326.09, 0.0, 10.0009775, 9.999216 
9.5006865e+1, 2.2423242e+2, -661299.94, -801537.06, -17588.668, -0.0085363155, -0.29238462, -659127.6, 83366.734, 0.0, 10.000945, 9.99908 
9.5005774e+1, 2.3423135e+2, -650179.06, -748656.5, -3881.6125, 0.007511889, -0.31118885, -650026.3, -5521.808, 0.0, 10.000363, 9.999049 
9.5004964e+1, 2.4423046e+2, -595755.1, -673471.94, 18752.83, 0.033279773, -0.30168292, -591466.75, -44953.535, 0.0, 10.000071, 9.999034 
9.500452e+1, 2.5422984e+2, -486664.06, -573334.6, 15980.957, 0.067450285, -0.27452248, -483811.28, -35291.31, 0.0, 10.00016, 9.999005 
9.5003915e+1, 2.6422882e+2, -390995.0, -524280.47, 28944.412, 0.065364055, -0.2558649, -384980.78, -34449.746, 0.0, 10.000351, 9.998578 
9.5003206e+1, 2.742274e+2, -252432.58, -412399.4, 33795.043, 0.025220431, -0.2563217, -245585.98, 6960.285, 0.0, 10.000653, 9.998528 
9.500248e+1, 2.8422618e+2, -138181.33, -298459.75, 18915.957, 0.008658684, -0.23516549, -135979.13, 18581.13, 0.0000000042394483, 10.000731, 9.998599 
9.5001495e+1, 2.9422504e+2, -68685.25, -210097.84, 29094.016, -0.0045551397, -0.2130331, -62933.44, -6360.0093, 0.000002925069, 10.000518, 9.998636 
9.500002e+1, 3.0422348e+2, -136677.48, -325944.0, -1863.9773, -0.04581665, -0.18466407, -136659.13, -136659.13, 0.000043225835, 10.000183, 9.99767 
9.499915e+1, 3.1422195e+2, -37592.46, 13113.743, -47103.156, 0.030324755, -0.10186487, 41253.508, 41253.508, 0.00018228774, 9.999604, 10.000278 
1.0501434e+2, 1.2424136e+2, -1569865.6, -1745924.9, 42371.39, -0.0050739683, -0.19700022, -1560199.1, 162213.16, 0.00079770345, 10.001428, 9.999096 
1.0501381e+2, 1.3423958e+2, -1515275.6, -1596286.9, 34887.84, 0.013445264, -0.34144875, -1502322.3, 122106.87, 0.0004431459, 10.000821, 9.9997425 
1.0501263e+2, 1.4424089e+2, -1482782.6, -1582155.3, 35661.473, -0.029790394, -0.16674387, -1471309.5, 55106.535, 0.00016917764, 10.000594, 9.999271 
1.0501197e+2, 1.5423928e+2, -1357026.1, -1495351.0, 33310.77, -0.037719432, -0.24083194, -1349422.4, 79010.086, 0.000030278157, 10.000892, 9.999051 
1.05011456e+2, 1.6423833e+2, -1223872.1, -1357664.6, 26082.26, -0.0183791, -0.24964072, -1218967.4, 111474.71, 0.0000004316036, 10.001038, 9.999252 
1.0501124e+2, 1.7423777e+2, -1132403.1, -1262069.9, 25050.346, 0.041486707, -0.23692858, -1127731.9, 104714.88, 0.0, 10.000991, 9.999258 
1.0501053e+2, 1.8423705e+2, -1026461.0, -1140556.1, 26372.736, 0.048546866, -0.24213299, -1020659.94, 113792.53, 0.0, 10.000959, 9.999436 
1.0500919e+2, 1.942363e+2, -930203.2, -1044920.4, 17112.047, -0.014903788, -0.26736003, -927705.0, 108752.375, 0.0, 10.000953, 9.999423 
1.0500837e+2, 2.0423551e+2, -906242.1, -1036209.56, 17965.416, -0.03508542, -0.26476124, -903804.5, 34660.023, 0.0, 10.000675, 9.998944 
1.05008215e+2, 2.1423465e+2, -907012.75, -992141.1, 15340.667, 0.00166546, -0.24552244, -904332.6, -63858.08, 0.0, 10.000026, 9.998886 
1.0500759e+2, 2.2423361e+2, -794033.44, -832336.4, -7110.164, 0.02260639, -0.25963467, -792756.2, -50271.48, 0.0, 9.999891, 9.999374 
1.0500634e+2, 2.3423241e+2, -612559.44, -692533.75, -401.92157, 0.023838317, -0.32565004, -612557.44, 31936.346, 0.0, 10.000457, 9.99939 
1.05005324e+2, 2.4423152e+2, -500802.03, -640920.94, 20842.244, 0.026693339, -0.32920724, -497767.53, 48734.22, 0.0, 10.000778, 9.998918 
1.05004594e+2, 2.5423104e+2, -408149.16, -552237.7, 15278.3545, 0.027943414, -0.27165046, -406546.97, 41961.36, 0.0, 10.000771, 9.9988575 
1.0500389e+2, 2.642301e+2, -350801.13, -488326.56, 28580.451, 0.01810712, -0.24471867, -345098.06, 5420.9277, 0.0, 10.000553, 9.998729 
1.0500334e+2, 2.7422866e+2, -328313.94, -430291.1, 39620.58, 0.0044324356, -0.2629479, -314729.88, -62196.543, 0.0, 10.000051, 9.998696 
1.0500272e+2, 2.8422755e+2, -272323.97, -348309.2, 25979.207, 0.009387564, -0.24775805, -264290.97, -109745.09, 0.0000000012344323, 9.999744, 9.9987335 
1.0500176e+2, 2.942266e+2, -179088.75, -247565.22, 29901.922, 0.01223148, -0.21979447, -167869.52, -111312.34, 0.0000022309773, 9.999689, 9.998779 
1.05000176e+2, 3.0422476e+2, -162200.27, -328755.16, 24393.07, -0.037219785, -0.23138076, -158701.25, -158701.25, 0.00003695323, 9.999963, 9.99776 
1.0499895e+2, 3.142239e+2, 114314.33, 86665.6, 14822.788, -0.0011364274, -0.09003595, 120758.86, 120758.86, 0.00016279968, 10.000646, 10.000283 
1.15015574e+2, 1.2424363e+2, -1578249.0, -1764306.4, 19324.455, -0.028799035, -0.16666085, -1576263.1, 146127.25, 0.0007564602, 10.001432, 9.998968 
1.1501458e+2, 1.342418e+2, -1532456.8, -1631817.9, 12515.973, 0.00778493, -0.29056945, -1530904.5, 93504.266, 0.00042056636, 10.000819, 9.9995 
1.1501341e+2, 1.4424297e+2, -1488853.9, -1593947.9, 44215.535, -0.013076957, -0.1138187, -1472726.4, 53671.01, 0.00016082273, 10.000591, 9.999191 
1.1501345e+2, 1.5424111e+2, -1360435.0, -1504131.9, 45677.734, 0.01974568, -0.20724627, -1347144.5, 81270.8, 0.000029173776, 10.000899, 9.998987 
1.15012854e+2, 1.6423996e+2, -1221563.3, -1354589.6, 24211.105, 0.016085926, -0.23259763, -1217293.9, 113132.164, 0.0000005105562, 10.001044, 9.99927 
1.1501148e+2, 1.7423935e+2, -1130917.0, -1259590.5, 23924.305, -0.034328956, -0.22949673, -1126612.6, 105818.375, 0.0, 10.000992, 9.999275 
1.1501062e+2, 1.8423831e+2, -1043038.7, -1173903.8, 25694.47, -0.039393015, -0.25517613, -1038174.56, 96264.91, 0.0, 10.000955, 9.999208 
1.1501049e+2, 1.9423695e+2, -947565.44, -1080377.3, 17706.31, 0.018149884, -0.31610826, -945245.44, 91204.7, 0.0, 10.000951, 9.999181 
1.1500989e+2, 2.0423609e+2, -912273.94, -1047903.6, -5534.128, 0.048175693, -0.30424488, -912048.5, 26409.965, 0.0, 10.000671, 9.998866 
1.15008645e+2, 2.1423587e+2, -911983.0, -1001174.44, -8577.024, 0.041259978, -0.21603008, -911165.7, -70701.95, 0.0, 10.00002, 9.998827 
1.150076e+2, 2.2423512e+2, -778117.25, -798228.44, 10254.364, 0.033623233, -0.20868598, -773810.9, -31339.611, 0.0, 9.9998865, 9.999611 
1.1500683e+2, 2.3423374e+2, -595518.4, -655579.8, 21771.838, 0.025905764, -0.31908855, -588456.56, 56024.23, 0.0, 10.00045, 9.999646 
1.1500591e+2, 2.4423276e+2, -512091.47, -662609.44, 21467.025, 0.006657947, -0.33935988, -509089.7, 37399.66, 0.0, 10.000771, 9.998773 
1.15004785e+2, 2.5423232e+2, -420460.13, -576115.1, 15561.165, -0.03114481, -0.25957045, -418919.7, 29576.637, 0.0, 10.000764, 9.998697 
1.15003824e+2, 2.6423132e+2, -333506.03, -451583.94, 9960.039, -0.04502226, -0.2399476, -332671.78, 17835.525, 0.0, 10.000549, 9.998983 
1.15003176e+2, 2.7422974e+2, -310653.03, -391837.03, 21328.965, -0.018506067, -0.30394015, -305390.53, -52868.473, 0.0, 10.000042, 9.998964 
1.15002595e+2, 2.8422877e+2, -269122.28, -338636.0, 21930.54, 0.021702008, -0.2871702, -262781.84, -108249.61, 0.00000000006210851, 9.999732, 9.998805 
1.15001865e+2, 2.9422852e+2, -173362.08, -234859.36, 29268.004, 0.052250598, -0.19967447, -161659.63, -105122.31, 0.0000015849012, 9.999686, 9.998868 
1.1500036e+2, 3.042264e+2, -120393.44, -240474.94, 47364.727, -0.015709804, -0.27406713, -103959.95, -103959.95, 0.000030721083, 9.999958, 9.998368 
1.1499887e+2, 3.1422544e+2, 146149.9, 156178.52, 39982.38, -0.07653276, -0.2022965, 191459.8, 191459.8, 0.00014243502, 10.000631, 10.000769 
1.250165e+2, 1.2424505e+2, -1773960.9, -1849420.9, -20274.37, -0.009846983, -0.16087155, -1768858.6, -46481.92, 0.0007247361, 10.00005, 9.999051 
1.2501559e+2, 1.3424313e+2, -1511437.4, -1626133.3, -14094.074, 0.019084383, -0.2889606, -1509730.8, 114665.45, 0.00040489552, 10.000985, 9.999459 
1.2501441e+2, 1.442443e+2, -1390055.0, -1535140.0, 22722.385, -0.003326938, -0.115852274, -1386579.6, 139805.1, 0.00015657058, 10.001222, 9.999292 
1.2501447e+2, 1.5424246e+2, -1401550.3, -1511493.8, 34676.94, 0.048570365, -0.21719892, -1391526.8, 36874.414, 0.000029665785, 10.000563, 9.999099 
1.2501384e+2, 1.6424125e+2, -1341493.9, -1432406.3, 24842.193, 0.047309145, -0.24679896, -1335148.6, -4736.3896, 0.0000007617598, 10.000305, 9.999094 
1.2501237e+2, 1.7424048e+2, -1204983.0, -1318276.9, 6959.6826, -0.023616817, -0.23822156, -1204557.1, 27862.281, 0.0, 10.000581, 9.999072 
1.2501147e+2, 1.842394e+2, -1086706.9, -1205743.8, 514.6779, -0.036721647, -0.25450957, -1086704.6, 47724.477, 0.0, 10.0007, 9.999114 
1.2501135e+2, 1.942381e+2, -1003805.0, -1116516.0, 3084.63, 0.027736645, -0.3017973, -1003720.6, 32719.28, 0.0, 10.000604, 9.9991 
1.2501065e+2, 2.0423716e+2, -909916.06, -1024236.6, -10313.576, 0.062335946, -0.30010116, -908993.06, 29455.406, 0.0, 10.00059, 9.999067 
1.2500916e+2, 2.1423675e+2, -797999.0, -921587.7, 5470.5557, 0.057109047, -0.25394925, -797757.3, 42696.688, 0.0, 10.000694, 9.999048 
1.2500797e+2, 2.2423609e+2, -675880.56, -760309.0, 39912.58, 0.04446635, -0.24477841, -659999.56, 82460.82, 0.0, 10.000635, 9.999513 
1.250072e+2, 2.342352e+2, -617243.9, -679560.3, 22587.924, 0.022069868, -0.29477942, -609917.7, 34549.06, 0.0, 10.000359, 9.999526 
1.2500636e+2, 2.4423434e+2, -588828.9, -691462.8, 11382.372, 0.0030372632, -0.29931146, -587581.7, -41106.973, 0.0, 10.000209, 9.998845 
1.2500544e+2, 2.5423357e+2, -493925.47, -602466.06, 23402.342, -0.014862815, -0.2617185, -489094.72, -40610.25, 0.0, 10.000219, 9.998778 
1.2500437e+2, 2.6423252e+2, -372229.0, -447833.2, 16465.875, -0.026693568, -0.26154354, -368798.53, -18302.992, 0.0, 10.000188, 9.999183 
1.2500322e+2, 2.7423123e+2, -287091.84, -357590.47, 19211.152, -0.020804867, -0.31499428, -282196.63, -29689.629, 0.0, 10.000105, 9.99917 
1.250024e+2, 2.842305e+2, -202609.45, -309814.7, 31195.1, 0.006931371, -0.28583515, -194192.92, -39678.14, 0.0, 10.0002, 9.998779 
1.250018e+2, 2.942303e+2, -58295.35, -183180.08, 29455.205, 0.037784826, -0.18520677, -51696.727, 4822.1064, 0.0000010474641, 10.000493, 9.998835 
1.2500048e+2, 3.0422774e+2, -31542.271, -177461.06, 28803.137, -0.025237441, -0.31346267, -26062.557, -26062.557, 0.000024841802, 10.000482, 9.99855 
1.2499908e+2, 3.1422687e+2, 53832.69, 102364.266, -17223.973, -0.08749159, -0.25084847, 107855.73, 107855.73, 0.00012195601, 10.000036, 10.000688 
1.3501707e+2, 1.2424564e+2, -1755370.8, -1810451.9, 10140.228, 0.04035839, -0.17671329, -1753563.4, -31192.275, 0.0007016644, 10.000048, 9.99932 
1.3501681e+2, 1.342436e+2, -1499992.5, -1605251.9, 22070.44, 0.041016158, -0.33314866, -1495552.1, 128839.445, 0.00039489288, 10.000998, 9.999598 
1.3501562e+2, 1.4424485e+2, -1367447.5, -1490817.8, 289.35742, -0.0069850017, -0.17044125, -1367446.9, 158931.36, 0.00015526546, 10.001232, 9.999591 
1.3501497e+2, 1.5424334e+2, -1380238.5, -1467516.9, 10321.704, 0.041446146, -0.27201983, -1379034.5, 49355.91, 0.000031126172, 10.000564, 9.9994 
1.3501436e+2, 1.6424218e+2, -1369019.9, -1488713.9, 32200.84, 0.06739611, -0.29376367, -1360906.9, -30506.115, 0.0000011270397, 10.000301, 9.998709 
1.3501391e+2, 1.7424119e+2, -1234897.6, -1381336.0, 18305.764, 0.06911272, -0.26428986, -1232644.0, -231.8946, 0.0, 10.000586, 9.998637 
1.3501307e+2, 1.8424028e+2, -1082561.1, -1197865.6, -2880.5195, 0.05209925, -0.24037926, -1082489.1, 51932.44, 0.0, 10.000703, 9.999167 
1.3501178e+2, 1.942397e+2, -997766.8, -1103924.8, 14.628546, 0.008599361, -0.22365136, -997766.8, 38659.883, 0.0, 10.000603, 9.999187 
1.3501064e+2, 2.0423876e+2, -877590.75, -956013.5, -7522.778, 0.0018491144, -0.25204214, -876875.7, 61558.723, 0.0, 10.000586, 9.999538 
1.3500975e+2, 2.142373e+2, -764346.8, -849631.56, 10453.858, 0.0452453, -0.3592211, -763084.1, 77361.27, 0.0, 10.000685, 9.999547 
1.3500868e+2, 2.2423653e+2, -707775.4, -824349.0, 29860.725, 0.050797984, -0.36709383, -700571.6, 41880.438, 0.0, 10.000626, 9.999077 
1.3500741e+2, 2.3423676e+2, -652676.5, -752533.44, 12948.783, 0.007732922, -0.25390813, -651024.7, -6572.7764, 0.0, 10.000356, 9.999027 
1.3500665e+2, 2.4423625e+2, -569230.75, -649598.0, 10323.998, 0.010596919, -0.21038467, -567925.75, -21467.584, 0.0, 10.000204, 9.999135 
1.3500653e+2, 2.5423476e+2, -470900.34, -553093.06, 24366.174, 0.07159615, -0.27834386, -464219.9, -15747.231, 0.0, 10.000213, 9.999122 
1.3500552e+2, 2.6423365e+2, -364184.44, -429313.1, 13037.626, 0.06921213, -0.31002596, -361671.5, -11187.821, 0.0, 10.00018, 9.999313 
1.3500345e+2, 2.7423316e+2, -277689.25, -337316.38, 17301.629, -0.009688109, -0.29592332, -273032.63, -20544.457, 0.0, 10.000102, 9.9993105 
1.3500214e+2, 2.8423268e+2, -212108.06, -328444.03, 40241.336, -0.04153322, -0.24350654, -199545.02, -45051.418, 0.0, 10.0001955, 9.998654 
1.3500156e+2, 2.9423198e+2, -70110.25, -205727.81, 41633.953, -0.037430577, -0.17812854, -58348.832, -1846.9215, 0.0000006413962, 10.000483, 9.998685 
1.3500051e+2, 3.0422875e+2, -50743.293, -213224.89, 13281.061, -0.069587454, -0.35216975, -49664.87, -49664.87, 0.000019439243, 10.000466, 9.998311 
1.3499956e+2, 3.1422815e+2, 8222.692, 10765.317, -34976.25, -0.045677528, -0.2389627, 44493.35, 44493.35, 0.000102001, 10.000025, 10.000062 
1.4501783e+2, 1.2424635e+2, -1571596.5, -1715663.3, 22387.418, 0.051538065, -0.19325657, -1568197.8, 154166.3, 0.0006852014, 10.001282, 9.999375 
1.4501764e+2, 1.342444e+2, -1587010.1, -1654810.6, 16443.852, 0.053150453, -0.3322768, -1583232.5, 41151.39, 0.00038852147, 10.00043, 9.999531 
1.4501639e+2, 1.4424571e+2, -1514368.6, -1561311.3, -24230.713, -0.0026748925, -0.16269585, -1504105.3, 22265.17, 0.00015533686, 10.00022, 9.999596 
1.4501564e+2, 1.5424423e+2, -1338263.6, -1447081.4, -38685.445, 0.037872333, -0.2602804, -1325912.5, 102470.02, 0.00003278088, 10.00085, 9.999403 
1.4501509e+2, 1.642431e+2, -1248638.1, -1414554.9, -8921.42, 0.072813794, -0.2859341, -1248159.8, 82232.734, 0.0000015078091, 10.001059, 9.998853 
1.450149e+2, 1.7424214e+2, -1205779.9, -1349901.3, 20019.367, 0.104685046, -0.2684772, -1203050.8, 29351.652, 0.0, 10.00071, 9.998793 
1.4501406e+2, 1.8424131e+2, -1130390.9, -1223319.0, 15982.618, 0.09754005, -0.24654254, -1127718.9, 6692.256, 0.0, 10.000383, 9.999147 
1.4501241e+2, 1.942408e+2, -1074656.0, -1145050.1, 7615.1685, 0.036406964, -0.21984191, -1073841.6, -37425.004, 0.0, 10.000092, 9.999152 
1.4501107e+2, 2.0423995e+2, -947542.3, -976450.4, -2226.955, 0.012317454, -0.24113168, -947371.8, -8948.223, 0.0, 10.000048, 9.999658 
1.4501017e+2, 2.1423867e+2, -806795.4, -854992.06, -12148.085, 0.038371872, -0.34297204, -803906.56, 36525.367, 0.0, 10.000329, 9.999681 
1.450091e+2, 2.2423786e+2, -746907.9, -858843.6, -9665.021, 0.040457726, -0.35650146, -746079.44, -3640.464, 0.0, 10.000425, 9.998938 
1.4500776e+2, 2.3423772e+2, -677095.75, -782392.44, -3275.3547, 0.011971821, -0.2650092, -676994.0, -32550.49, 0.0, 10.000266, 9.998865 
1.4500695e+2, 2.442372e+2, -553411.9, -606549.9, 17281.602, 0.022611095, -0.22931443, -548286.0, -1836.2853, 0.0, 10.000159, 9.999453 
1.4500679e+2, 2.5423616e+2, -458733.5, -507578.72, 30990.39, 0.08144625, -0.2856339, -443698.94, 4759.093, 0.0, 10.000126, 9.9994755 
1.4500575e+2, 2.6423526e+2, -378772.34, -453851.8, 12307.751, 0.075170256, -0.3070939, -376806.25, -26339.55, 0.0, 10.000155, 9.999157 
1.4500362e+2, 2.7423465e+2, -272699.03, -357007.3, -8486.357, -0.009134862, -0.2872362, -271853.28, -19379.037, 0.0, 10.000233, 9.999111 
1.4500226e+2, 2.8423414e+2, -206723.1, -322216.28, 10612.083, -0.049508885, -0.23015551, -205756.11, -51275.305, 0.0, 10.000218, 9.998685 
1.4500165e+2, 2.9423356e+2, -120618.97, -224922.81, 25715.477, -0.056826428, -0.15899195, -114623.586, -58136.16, 0.0000003644557, 10.0001135, 9.998732 
1.4500085e+2, 3.0423024e+2, -64622.07, -207605.47, 17536.365, -0.075748734, -0.34698638, -62502.72, -62502.72, 0.000014553311, 10.000315, 9.998423 
1.450002e+2, 3.142299e+2, 96068.266, 18715.8, -9684.601, -0.021386577, -0.21642238, 97262.36, 97262.36, 0.0000830069, 10.000775, 9.999756 
1.5501873e+2, 1.2424714e+2, -1579342.0, -1735274.6, -9878.867, 0.008945925, -0.2117169, -1578718.6, 143637.44, 0.0006719969, 10.001295, 9.999235 
1.5501803e+2, 1.3424556e+2, -1604401.6, -1691959.9, -15609.669, 0.047913898, -0.28921136, -1601702.0, 22671.314, 0.00038301162, 10.000433, 9.999275 
1.5501668e+2, 1.4424683e+2, -1535015.4, -1603764.3, -5365.6187, 0.002357816, -0.09469701, -1534599.1, -8237.428, 0.00015494693, 10.000219, 9.999305 
1.5501647e+2, 1.5424517e+2, -1358101.5, -1489835.4, -14029.305, 0.033019636, -0.18143928, -1356624.0, 71753.85, 0.000033834087, 10.000856, 9.999106 
1.5501602e+2, 1.6424404e+2, -1200190.4, -1315332.4, -20416.04, 0.057931524, -0.22325511, -1196677.5, 133709.78, 0.0000017896223, 10.001063, 9.999532 
1.5501535e+2, 1.7424338e+2, -1152751.1, -1240051.3, 7337.4033, 0.077368066, -0.25070792, -1152138.8, 80251.46, 0.0, 10.00071, 9.999546 
1.5501443e+2, 1.8424244e+2, -1137447.4, -1237444.6, 4144.3047, 0.09335997, -0.27292377, -1137275.9, -2878.01, 0.0, 10.0003805, 9.999052 
1.5501322e+2, 1.9424133e+2, -1086177.3, -1168995.6, -2647.5771, 0.10651508, -0.2911608, -1086092.6, -49682.7, 0.0, 10.000091, 9.998988 
1.550119e+2, 2.0424074e+2, -964043.0, -1009785.0, 6123.7534, 0.089207396, -0.26802352, -963237.4, -24821.246, 0.0, 10.000043, 9.999431 
1.5501045e+2, 2.1424088e+2, -823200.6, -888949.9, -724.9784, 0.03123418, -0.20669636, -823192.6, 17221.195, 0.0, 10.000328, 9.99945 
1.550092e+2, 2.2424005e+2, -736460.7, -836015.6, -15127.552, 0.00766838, -0.21479414, -734212.8, 8208.648, 0.0, 10.000421, 9.999096 
1.5500824e+2, 2.3423806e+2, -665015.06, -756056.75, -8550.534, 0.031029731, -0.328416, -664219.0, -19777.428, 0.0, 10.00026, 9.99905 
1.5500724e+2, 2.4423715e+2, -530406.56, -557034.94, 15133.721, 0.03445991, -0.3560904, -523563.94, 22885.523, 0.0, 10.000153, 9.999796 
1.5500621e+2, 2.5423777e+2, -433744.13, -454850.22, 30666.842, 0.008208907, -0.28341007, -411865.38, 36575.215, 0.0, 10.000122, 9.999839 
1.5500502e+2, 2.6423737e+2, -410829.22, -518995.88, 14363.8545, -0.014627769, -0.2535364, -408954.28, -58509.504, 0.0, 10.00015, 9.998712 
1.5500371e+2, 2.742357e+2, -309903.88, -432380.13, -5274.3135, -0.024580818, -0.28968114, -309677.16, -57211.83, 0.0, 10.000225, 9.998597 
1.5500276e+2, 2.842348e+2, -195347.9, -297207.7, 6315.978, -0.021428807, -0.24714126, -194957.77, -40481.277, 0.0, 10.000211, 9.998861 
1.5500207e+2, 2.9423496e+2, -102969.44, -188317.83, 24425.94, -0.027509745, -0.12867062, -96473.38, -39997.883, 0.00000019831394, 10.000113, 9.998983 
1.550014e+2, 3.042322e+2, -33840.004, -141831.27, 33431.13, -0.05111346, -0.299051, -24328.402, -24328.402, 0.000010333069, 10.000308, 9.998876 
1.5500091e+2, 3.1423217e+2, 96428.12, 22090.805, 9854.19, -0.029868828, -0.18214236, 97712.21, 97712.21, 0.00006547037, 10.000765, 9.999783 
1.6501942e+2, 1.2424795e+2, -1732995.9, -1797317.4, -31545.31, 0.003446252, -0.19331074, -1720107.6, 2241.0637, 0.00065754744, 10.000186, 9.999343 
1.6501884e+2, 1.3424629e+2, -1501834.6, -1641905.5, -20212.256, 0.050828382, -0.27997026, -1498976.4, 125389.59, 0.00037533476, 10.001136, 9.999278 
1.6501752e+2, 1.4424743e+2, -1379067.6, -1542827.3, 4133.2183, 0.008196825, -0.09355525, -1378963.4, 147392.22, 0.00015252095, 10.001351, 9.999176 
1.6501734e+2, 1.5424576e+2, -1407156.0, -1529048.8, 4567.7817, 0.048179638, -0.16724236, -1406985.0, 21387.764, 0.000033788867, 10.0005865, 9.998966 
1.6501674e+2, 1.642447e+2, -1310104.5, -1345084.6, -11865.253, 0.06638774, -0.20383923, -1306459.6, 23922.463, 0.0000018950186, 10.000207, 9.999741 
1.6501565e+2, 1.7424427e+2, -1190284.8, -1231638.4, -24530.293, 0.055931766, -0.23241994, -1178879.4, 53502.945, 0.0, 10.000338, 9.9997835 
1.6501465e+2, 1.8424347e+2, -1105443.5, -1202229.5, -34648.805, 0.071451955, -0.26309782, -1094318.3, 40069.79, 0.0, 10.000515, 9.9992285 
1.6501378e+2, 1.9424233e+2, -976514.44, -1096828.9, -17620.715, 0.121954724, -0.30002138, -973986.9, 62412.24, 0.0, 10.00076, 9.999162 
1.6501266e+2, 2.0424172e+2, -875435.3, -988285.44, 7053.2856, 0.12657288, -0.2775932, -874996.2, 63409.375, 0.0, 10.000742, 9.999243 
1.6501118e+2, 2.1424188e+2, -832070.25, -917347.4, 238.21393, 0.06963283, -0.1928426, -832069.6, 8335.654, 0.0, 10.00037, 9.999235 
1.6500986e+2, 2.242412e+2, -743884.3, -810526.2, -6136.9937, 0.039511666, -0.1898005, -743323.9, -911.5527, 0.0, 10.000245, 9.999355 
1.6500874e+2, 2.3423944e+2, -616200.7, -699088.06, 7327.7793, 0.046188638, -0.30735382, -615557.9, 28870.496, 0.0, 10.000453, 9.999348 
1.6500752e+2, 2.4423853e+2, -491608.66, -567635.56, 13214.817, 0.02853713, -0.340073, -489377.2, 57058.82, 0.0, 10.000545, 9.999535 
1.6500616e+2, 2.5423878e+2, -404561.66, -474759.34, -22077.582, -0.024204042, -0.27334505, -398195.5, 50236.402, 0.0, 10.000469, 9.999536 
1.6500497e+2, 2.6423818e+2, -379293.63, -506740.66, -48161.926, -0.045300014, -0.24434742, -363140.63, -12702.18, 0.0, 10.00038, 9.998685 
1.6500404e+2, 2.7423653e+2, -303475.56, -430384.8, -31804.715, -0.01614248, -0.27753478, -295951.1, -43492.582, 0.0, 10.000274, 9.998587 
1.6500321e+2, 2.842357e+2, -185294.53, -272397.16, -657.718, 0.0034731457, -0.23906504, -185289.56, -30820.563, 0.0, 10.0001955, 9.999038 
1.6500232e+2, 2.9423597e+2, -88796.05, -159992.92, 12514.656, -0.013895871, -0.12579386, -86660.34, -30194.059, 0.000000103924, 10.000119, 9.999173 
1.6500169e+2, 3.0423364e+2, -35497.68, -123107.35, 26661.023, -0.04686386, -0.27446482, -28022.17, -28022.17, 0.000006944009, 10.000214, 9.999048 
1.6500126e+2, 3.1423375e+2, 37292.17, -34611.902, -22230.86, -0.057084035, -0.15585463, 43610.22, 43610.22, 0.000049939055, 10.000479, 9.999529 
1.7501985e+2, 1.242488e+2, -1707746.4, -1745882.0, -553.32245, 0.024765462, -0.13844675, -1707738.4, 14603.514, 0.0006370072, 10.000191, 9.999693 
1.7502007e+2, 1.3424662e+2, -1482729.8, -1603741.1, 16517.633, 0.056968994, -0.3030944, -1480515.6, 143845.77, 0.00036284848, 10.001142, 9.9995365 
1.7501889e+2, 1.442475e+2, -1376380.8, -1538436.8, -21396.398, 0.008326807, -0.15875459, -1373603.4, 152748.69, 0.00014707113, 10.001355, 9.999205 
1.7501822e+2, 1.5424599e+2, -1405793.9, -1527244.6, -23854.973, 0.07565824, -0.21759103, -1401276.4, 27091.242, 0.00003249045, 10.00059, 9.998978 
1.7501721e+2, 1.6424507e+2, -1327371.9, -1381648.6, -10338.211, 0.0909588, -0.22774084, -1325469.4, 4907.396, 0.0000018022155, 10.00021, 9.999489 
1.750158e+2, 1.7424479e+2, -1209268.5, -1271559.9, -18891.66, 0.036188807, -0.21385485, -1203986.9, 28391.967, 0.0, 10.0003395, 9.99951 
1.7501472e+2, 1.8424432e+2, -1073954.1, -1136865.4, -26374.31, 0.026421122, -0.21752402, -1064360.3, 70021.586, 0.0, 10.000515, 9.999678 
1.7501411e+2, 1.9424377e+2, -941031.9, -1022992.25, -7793.7773, 0.07835885, -0.24718033, -940297.4, 96086.95, 0.0, 10.000759, 9.999669 
1.7501335e+2, 2.0424291e+2, -886055.25, -1009446.5, -5983.7524, 0.12043504, -0.26984856, -885765.75, 52626.27, 0.0, 10.000738, 9.999099 
1.7501236e+2, 2.1424171e+2, -846914.4, -946590.75, -12989.479, 0.14892465, -0.30149803, -845249.44, -4843.2036, 0.0, 10.000363, 9.999038 
1.7501102e+2, 2.2424126e+2, -719834.7, -758767.1, -554.4242, 0.13069092, -0.28104275, -719826.8, 22584.736, 0.0, 10.0002365, 9.999715 
1.7500927e+2, 2.3424186e+2, -588276.0, -640514.4, 15954.509, 0.05188938, -0.203041, -583788.7, 60615.43, 0.0, 10.00045, 9.999751 
1.7500779e+2, 2.4424128e+2, -552771.4, -693592.1, 10482.545, -0.00036102, -0.18319021, -551995.3, -5585.658, 0.0, 10.000541, 9.998672 
1.750067e+2, 2.542392e+2, -472736.22, -614980.9, -24329.537, -0.020326965, -0.25616142, -468690.0, -20257.967, 0.0, 10.0004635, 9.998575 
1.750056e+2, 2.6423776e+2, -352819.25, -451015.0, -52680.285, -0.02060813, -0.28022593, -329904.53, 20543.207, 0.0, 10.000375, 9.99907 
1.7500459e+2, 2.742372e+2, -268923.97, -358103.0, -34605.62, 0.010438019, -0.25206986, -257070.83, -4616.915, 0.0, 10.000271, 9.999085 
1.7500356e+2, 2.8423676e+2, -175041.3, -249464.95, -4455.219, 0.018101428, -0.20627168, -174775.55, -20317.063, 0.0, 10.000189, 9.999198 
1.7500237e+2, 2.942366e+2, -80929.93, -142055.52, 10915.343, -0.022981282, -0.14978181, -79039.234, -22579.313, 0.00000004563321, 10.0001135, 9.999299 
1.7500171e+2, 3.0423453e+2, -42585.6, -138100.22, 35595.957, -0.06893747, -0.27370006, -30779.225, -30779.225, 0.0000044345684, 10.000213, 9.998946 
1.750012e+2, 3.1423476e+2, 1366.397, -109554.266, -10760.815, -0.113499254, -0.13229443, 2400.6982, 2400.6982, 0.00003672069, 10.000478, 9.999016 
1.8502046e+2, 1.2424882e+2, -1547300.5, -1660321.1, -13806.518, 0.01394684, -0.1376803, -1545638.4, 176703.39, 0.0006065531, 10.001258, 9.999764 
1.8502122e+2, 1.3424654e+2, -1544218.6, -1635673.9, -19144.012, 0.079945065, -0.30997118, -1540373.0, 83988.6, 0.00034376056, 10.000729, 9.999516 
1.8502006e+2, 1.442473e+2, -1483300.5, -1564772.9, -77444.21, 0.03200338, -0.18651533, -1436532.3, 89820.65, 0.00013809917, 10.000512, 9.999431 
1.8501887e+2, 1.5424594e+2, -1372381.3, -1483279.1, -65280.92, 0.076137066, -0.25487697, -1342178.6, 86187.52, 0.000029920388, 10.0007, 9.999227 
1.850177e+2, 1.6424514e+2, -1252364.1, -1363348.4, -25338.521, 0.08948381, -0.25907505, -1246852.9, 83521.53, 0.0000015280342, 10.000803, 9.999329 
1.850166e+2, 1.7424498e+2, -1155785.8, -1267426.8, -28559.525, 0.05882038, -0.2147448, -1148904.0, 83472.85, 0.0, 10.0008, 9.999315 
1.8501553e+2, 1.8424459e+2, -1042367.4, -1107271.9, -45564.203, 0.047224402, -0.20623295, -1018880.0, 115499.87, 0.0, 10.000669, 9.999806 
1.8501452e+2, 1.9424406e+2, -986959.2, -1027313.6, -54391.29, 0.0616081, -0.2491298, -949123.2, 87258.48, 0.0, 10.000366, 9.999828 
1.850136e+2, 2.042433e+2, -936859.56, -1010388.06, -54411.203, 0.094893895, -0.28068748, -907956.56, 30431.418, 0.0, 10.000288, 9.99931 
1.8501283e+2, 2.142423e+2, -809312.94, -904325.7, -32565.576, 0.1528817, -0.31459668, -799222.7, 41177.137, 0.0, 10.000517, 9.999254 
1.8501161e+2, 2.2424196e+2, -672311.44, -751392.2, -13731.36, 0.14753331, -0.2868154, -669995.0, 72409.05, 0.0, 10.000629, 9.999577 
1.8500985e+2, 2.3424262e+2, -580005.0, -655110.75, -40452.52, 0.05941543, -0.18771178, -562361.6, 82035.58, 0.0, 10.0005865, 9.999586 
1.850084e+2, 2.4424198e+2, -575810.5, -724084.5, -51652.52, 0.011303243, -0.1563492, -559591.1, -13186.715, 0.0, 10.000466, 9.998497 
1.8500738e+2, 2.5423974e+2, -517338.25, -656210.94, -29818.156, 0.013970965, -0.22870512, -511206.53, -62776.844, 0.0, 10.000242, 9.998398 
1.850062e+2, 2.6423827e+2, -368896.47, -439106.63, -26882.313, 0.0103969155, -0.25233507, -359785.88, -9340.301, 0.0, 10.000181, 9.999245 
1.8500482e+2, 2.7423787e+2, -246702.97, -324411.97, -31459.209, 0.0039005466, -0.22789872, -235563.92, 16884.652, 0.0, 10.000325, 9.99929 
1.8500353e+2, 2.842373e+2, -182148.38, -285047.9, -34018.37, -0.0065193647, -0.19264331, -171918.9, -17464.752, 0.0, 10.000278, 9.99891 
1.8500227e+2, 2.9423675e+2, -123265.21, -200679.58, -55631.33, -0.0369804, -0.14316471, -94200.05, -37739.01, 0.000000013949684, 9.999988, 9.998956 
1.8500179e+2, 3.0423504e+2, -57459.684, -124180.195, -20674.645, -0.07154632, -0.22091585, -51572.68, -51572.68, 0.0000026902987, 10.000021, 9.999134 
1.8500142e+2, 3.1423518e+2, -10214.912, -115893.26, -41770.63, -0.13498056, -0.114984274, 4301.418, 4301.418, 0.000025863523, 10.000405, 9.999004 
1.9502126e+2, 1.24248005e+2, -1561480.1, -1691235.1, -34558.234, -0.03771194, -0.18921098, -1552850.0, 169497.83, 0.0005643703, 10.001264, 9.999551 
1.9502233e+2, 1.3424605e+2, -1564519.8, -1678754.1, -38307.555, 0.114128895, -0.30090293, -1552863.1, 71503.57, 0.00031730495, 10.000733, 9.999219 
1.95021e+2, 1.4424685e+2, -1453154.5, -1502969.4, -72852.91, 0.07198121, -0.17743893, -1401068.9, 125289.234, 0.00012543245, 10.000515, 9.999853 
1.9501927e+2, 1.5424563e+2, -1337538.9, -1411961.8, -57206.074, 0.04573116, -0.27856684, -1306506.5, 121861.86, 0.000026112697, 10.000704, 9.999714 
1.950182e+2, 1.6424493e+2, -1257460.4, -1374084.6, -25684.963, 0.05756207, -0.29764423, -1252054.1, 78320.57, 0.0000011234973, 10.000804, 9.999254 
1.9501802e+2, 1.7424482e+2, -1163849.5, -1284201.0, -27896.957, 0.1197354, -0.23497573, -1157697.5, 74679.086, 0.0, 10.0008, 9.999201 
1.9501702e+2, 1.8424426e+2, -1054953.3, -1133144.6, -56575.72, 0.12833248, -0.22887686, -1025279.1, 109103.055, 0.0, 10.000668, 9.99963 
1.9501495e+2, 1.9424321e+2, -1000285.44, -1054720.4, -65243.938, 0.06736237, -0.3055122, -956809.5, 79581.66, 0.0, 10.000365, 9.999641 
1.9501342e+2, 2.0424289e+2, -898037.06, -928889.06, -47837.938, 0.045638345, -0.30993077, -863199.44, 75194.016, 0.0, 10.000283, 9.999871 
1.9501258e+2, 2.142436e+2, -766258.25, -813748.06, -22997.994, 0.076945, -0.23389359, -756946.7, 83439.59, 0.0, 10.000512, 9.999878 
1.9501165e+2, 2.2424328e+2, -717444.0, -843897.4, -15588.392, 0.086018816, -0.20794448, -715550.75, 26839.313, 0.0, 10.000625, 9.998944 
1.950105e+2, 2.3424168e+2, -632174.3, -762008.0, -41459.89, 0.065176025, -0.26157343, -620064.44, 24343.256, 0.0, 10.00058, 9.998855 
1.9500938e+2, 2.4424061e+2, -540911.7, -650340.9, -60227.88, 0.060365174, -0.2588968, -514256.25, 32164.0, 0.0, 10.000461, 9.999006 
1.9500822e+2, 2.5424036e+2, -475893.38, -568653.75, -37451.246, 0.07333265, -0.19151467, -462660.5, -14235.471, 0.0, 10.0002365, 9.9990015 
1.950067e+2, 2.6423976e+2, -372546.88, -446135.78, -23334.89, 0.042665448, -0.16066633, -365771.28, -15339.156, 0.0, 10.000178, 9.999199 
1.9500472e+2, 2.742386e+2, -253278.1, -337459.38, -25724.676, -0.04086306, -0.2050464, -246039.42, 6403.2754, 0.0, 10.000322, 9.999203 
1.9500314e+2, 2.8423733e+2, -234191.3, -392006.13, -44539.55, -0.07517479, -0.19835654, -222488.83, -68032.68, 0.0, 10.000275, 9.998178 
1.9500205e+2, 2.9423642e+2, -181070.97, -319288.28, -64472.59, -0.06056645, -0.10728853, -155666.55, -99196.71, 0.0000000023315327, 9.999981, 9.998145 
1.9500194e+2, 3.0423516e+2, -25672.191, -57099.742, -8922.394, -0.05968145, -0.11631283, -23315.775, -23315.775, 0.0000015022418, 10.000016, 9.999598 
1.9500187e+2, 3.142351e+2, 21693.697, -49221.26, -23771.885, -0.13366252, -0.09126104, 28925.037, 28925.037, 0.000017298122, 10.000402, 9.999465 
2.0502248e+2, 1.24247655e+2, -1608028.5, -1702810.8, -26462.053, -0.02149793, -0.2198298, -1601141.1, 121209.516, 0.0005112227, 10.000898, 9.999647 
2.0502292e+2, 1.3424604e+2, -1554207.8, -1670402.6, -9413.087, 0.09913598, -0.30162907, -1553450.1, 70916.49, 0.00028397882, 10.00079, 9.999249 
2.0502137e+2, 1.442469e+2, -1422547.0, -1488958.0, -29273.395, 0.045576077, -0.1713015, -1411485.9, 114871.79, 0.000109345056, 10.000728, 9.999848 
2.0502004e+2, 1.5424587e+2, -1334311.9, -1410194.0, -50382.652, 0.050503984, -0.25598052, -1309182.0, 119184.54, 0.000021261263, 10.000724, 9.999718 
2.0501912e+2, 1.6424514e+2, -1256309.6, -1346672.4, -30424.332, 0.07481757, -0.28693432, -1247020.9, 83351.64, 0.00000067965186, 10.000695, 9.9994955 
2.0501876e+2, 1.7424485e+2, -1169968.0, -1257997.6, -6202.627, 0.12132648, -0.26942512, -1169533.1, 62841.473, 0.0, 10.000632, 9.999462 
2.0501769e+2, 1.8424429e+2, -1073223.4, -1160365.6, -20812.168, 0.13019755, -0.27023807, -1068508.0, 65872.19, 0.0, 10.000622, 9.999466 
2.050157e+2, 1.9424348e+2, -966183.75, -1060009.9, -31895.617, 0.08992596, -0.30390757, -956367.94, 80021.19, 0.0, 10.000693, 9.999447 
2.0501404e+2, 2.0424326e+2, -841731.2, -905837.56, -27957.7, 0.0595724, -0.2852816, -831251.56, 107139.94, 0.0, 10.000689, 9.999834 
2.0501278e+2, 2.1424392e+2, -758614.6, -812730.56, -52326.9, 0.042151805, -0.21182545, -726763.9, 113620.55, 0.0, 10.000577, 9.999854 
2.0501167e+2, 2.2424346e+2, -747665.0, -854242.1, -53544.797, 0.038445592, -0.19955923, -725410.75, 16978.451, 0.0, 10.000399, 9.998981 
2.0501074e+2, 2.3424159e+2, -693912.9, -786965.1, -23603.531, 0.053413212, -0.2838705, -688268.06, -43858.65, 0.0, 10.000135, 9.998898 
2.050097e+2, 2.4424064e+2, -574685.75, -630221.56, -11247.089, 0.067075856, -0.28729025, -572494.5, -26074.016, 0.0, 10.0000725, 9.9993305 
2.0500852e+2, 2.5424102e+2, -445132.6, -515063.34, -8485.544, 0.07654748, -0.19131173, -444117.7, 4300.4365, 0.0, 10.000281, 9.999349 
2.0500694e+2, 2.6424065e+2, -373331.75, -485635.6, -13323.649, 0.040979896, -0.1375032, -371772.7, -21349.57, 0.0, 10.000341, 9.998849 
2.0500489e+2, 2.7423924e+2, -300370.7, -405738.75, -41290.61, -0.04866714, -0.16869052, -286118.03, -33679.406, 0.0, 10.0001955, 9.998795 
2.0500326e+2, 2.842377e+2, -249458.67, -403883.78, -50350.56, -0.08608247, -0.1678346, -234492.28, -80036.414, 0.0, 10.000189, 9.998137 
2.0500213e+2, 2.9423654e+2, -127485.086, -296602.47, -13142.039, -0.067012504, -0.098170735, -126469.92, -69999.055, 0.000000000097020676, 10.000364, 9.9981165 
2.0500216e+2, 3.042356e+2, 4983.1465, -47593.43, 58558.805, -0.05176219, -0.07292104, 42883.703, 42883.703, 0.0000007350318, 10.000249, 9.999553 
2.0500195e+2, 3.1423476e+2, -77114.23, -92351.45, -1968.5936, -0.13034646, -0.11596593, -76864.0, -76864.0, 0.000010898163, 9.999702, 9.999508 
2.1502416e+2, 1.2424774e+2, -1579634.5, -1645514.8, -31985.514, 0.051221907, -0.23036724, -1566660.4, 155689.81, 0.00045034575, 10.000904, 10.000038 
2.1502306e+2, 1.3424645e+2, -1528860.4, -1619787.5, -12199.987, 0.031896945, -0.31203136, -1527251.9, 97109.56, 0.0002457903, 10.000797, 9.999594 
2.1502113e+2, 1.4424747e+2, -1451641.0, -1550054.5, -30710.268, -0.05192831, -0.16755685, -1442844.1, 83507.484, 0.00009091271, 10.000731, 9.999427 
2.1502113e+2, 1.542466e+2, -1367674.3, -1479407.1, -49522.355, 0.086186305, -0.18773678, -1348884.6, 79476.44, 0.000015871614, 10.000724, 9.999243 
2.1502045e+2, 1.6424578e+2, -1217462.9, -1265897.3, -32842.414, 0.13516192, -0.22748828, -1200874.5, 129493.24, 0.00000031009594, 10.000694, 10.000051 
2.1501878e+2, 1.7424506e+2, -1124920.8, -1165557.8, -7761.6396, 0.05970057, -0.31833217, -1123488.8, 108882.09, 0.0, 10.000636, 10.000095 
2.150175e+2, 1.8424465e+2, -1083433.1, -1181620.5, -18972.629, 0.047993585, -0.3301962, -1079894.5, 54479.344, 0.0, 10.000623, 9.999319 
2.1501677e+2, 1.9424482e+2, -980828.94, -1089753.1, -28223.234, 0.12588854, -0.24436155, -973950.4, 62425.324, 0.0, 10.00069, 9.999244 
2.1501546e+2, 2.042444e+2, -887038.7, -998338.2, -32087.283, 0.13291751, -0.20659336, -878450.7, 59931.426, 0.0, 10.000682, 9.999203 
2.150134e+2, 2.1424323e+2, -806097.06, -910130.2, -55682.004, 0.044133738, -0.24694598, -781915.1, 58478.91, 0.0, 10.000572, 9.999187 
2.150117e+2, 2.242425e+2, -699488.94, -752662.94, -63774.926, 0.0011590837, -0.26172423, -656981.0, 85420.57, 0.0, 10.000393, 9.999682 
2.1501054e+2, 2.3424233e+2, -638225.56, -669293.0, -32895.54, 0.019721545, -0.2552991, -617380.56, 27021.984, 0.0, 10.000129, 9.999708 
2.150094e+2, 2.4424206e+2, -565119.44, -610041.56, -5671.545, 0.027754452, -0.2412006, -564414.44, -18009.28, 0.0, 10.00007, 9.999473 
2.1500824e+2, 2.542417e+2, -438978.94, -501071.06, -54.008305, 0.01886015, -0.22792265, -438978.9, 9430.121, 0.0, 10.000275, 9.999448 
2.150069e+2, 2.64241e+2, -420862.53, -582335.2, -18545.025, 0.0017925686, -0.18236773, -418760.03, -68341.42, 0.0, 10.000334, 9.998189 
2.1500534e+2, 2.7423978e+2, -353272.66, -513321.44, -45941.133, -0.024423236, -0.11948454, -341023.06, -88586.586, 0.0, 10.000187, 9.998059 
2.150039e+2, 2.8423834e+2, -204415.1, -309982.72, -46005.668, -0.043764804, -0.10076504, -187179.95, -32726.488, 0.0, 10.000186, 9.998785 
2.1500257e+2, 2.9423708e+2, -74457.95, -187297.2, -5983.437, -0.06335321, -0.11649078, -74141.56, -17677.13, 0.0, 10.000364, 9.998869 
2.1500239e+2, 3.042363e+2, -33739.086, -125309.34, 39829.215, -0.05435532, -0.09099781, -18839.422, -18839.422, 0.00000029764618, 10.00024, 9.999022 
2.1500163e+2, 3.142344e+2, -106373.08, -149058.36, -16951.834, -0.13512255, -0.17899793, -100460.016, -100460.016, 0.0000064156898, 9.999686, 9.999126 
2.2502542e+2, 1.242487e+2, -1557531.4, -1636529.0, 20562.37, 0.07987511, -0.23189732, -1552499.6, 169840.34, 0.0003861587, 10.001067, 10.000021 
2.2502393e+2, 1.3424744e+2, -1533502.1, -1630082.6, 8071.013, 0.038952243, -0.3056954, -1532832.3, 91519.13, 0.00020573656, 10.000803, 9.999519 
2.2502176e+2, 1.4424819e+2, -1453507.0, -1558149.3, -3198.839, -0.06283375, -0.17815123, -1453409.3, 72934.53, 0.00007189719, 10.000751, 9.999363 
2.2502197e+2, 1.5424712e+2, -1332630.3, -1468590.3, 7662.52, 0.08478198, -0.21396811, -1332199.8, 96155.164, 0.000010694928, 10.000993, 9.999188 
2.250212e+2, 1.6424628e+2, -1189957.0, -1256097.9, 8179.57, 0.13144982, -0.25217158, -1188960.4, 141401.63, 0.000000092361944, 10.000897, 10.00002 
2.2501902e+2, 1.7424577e+2, -1167110.3, -1188249.4, -18420.297, 0.035116427, -0.3168799, -1156442.5, 75921.22, 0.0, 10.000357, 10.000073 
2.2501753e+2, 1.842456e+2, -1144719.0, -1199939.1, -30114.23, 0.013486394, -0.308866, -1131473.5, 2891.5125, 0.0, 10.000154, 9.999419 
2.25017e+2, 1.94246e+2, -1014281.56, -1093634.9, -15619.828, 0.09470199, -0.21329045, -1011317.7, 25046.703, 0.0, 10.000408, 9.999353 
2.2501586e+2, 2.0424545e+2, -926313.25, -1032923.44, 1270.1626, 0.11603544, -0.18612029, -926298.1, 12073.73, 0.0, 10.00048, 9.999062 
2.2501394e+2, 2.1424375e+2, -855714.0, -952171.5, 13700.022, 0.055956643, -0.26419115, -853805.94, -13416.448, 0.0, 10.00031, 9.999025 
2.2501224e+2, 2.2424296e+2, -708002.75, -745258.0, 9952.571, 0.02049993, -0.2806359, -705510.6, 36887.13, 0.0, 10.000285, 9.999784 
2.2501081e+2, 2.342434e+2, -582877.94, -629317.94, -11775.032, 0.018096445, -0.22737932, -580062.94, 64330.1, 0.0, 10.00045, 9.999828 
2.2500943e+2, 2.4424323e+2, -524322.3, -611967.56, -21071.324, 0.004807458, -0.19695671, -519519.6, 26874.965, 0.0, 10.000444, 9.999278 
2.2500803e+2, 2.5424242e+2, -464213.88, -538449.7, -41092.387, -0.02528436, -0.20911123, -445957.38, 2446.1458, 0.0, 10.000211, 9.999223 
2.2500677e+2, 2.6424143e+2, -455792.1, -603539.75, -50707.316, -0.032636996, -0.17833795, -440063.6, -89647.46, 0.0, 10.000113, 9.99815 
2.2500567e+2, 2.742402e+2, -355296.6, -517171.5, -26374.328, -0.008764043, -0.1135927, -351107.8, -98673.805, 0.0, 10.000185, 9.9980345 
2.2500429e+2, 2.8423887e+2, -194831.69, -271877.78, -8232.545, -0.018560553, -0.09749389, -193961.84, -39512.17, 0.0, 10.000107, 9.999085 
2.2500248e+2, 2.9423782e+2, -134902.11, -182822.48, -4283.1475, -0.07777748, -0.12266545, -134522.28, -78064.73, 0.0, 9.9998045, 9.999169 
2.2500214e+2, 3.0423743e+2, -160027.11, -195962.89, 25344.148, -0.059828196, -0.069471344, -146927.8, -146927.8, 0.000000091080636, 9.999413, 9.998936 
2.2500132e+2, 3.142353e+2, -195223.38, -164089.33, 8451.814, -0.09777914, -0.17644738, -161942.92, -161942.92, 0.000003445728, 9.998958, 9.9993725 
2.3502626e+2, 1.2425056e+2, -1585986.0, -1697227.8, 6736.1147, 0.053154472, -0.22016029, -1585579.5, 136740.45, 0.00032267286, 10.001075, 9.9996 
2.3502551e+2, 1.3424893e+2, -1568777.5, -1701994.5, -1418.3958, 0.11565298, -0.2831514, -1568762.4, 55573.996, 0.0001666326, 10.000797, 9.99903 
2.3502323e+2, 1.4424907e+2, -1434665.6, -1517457.6, 4188.8955, 0.006711635, -0.20429043, -1434454.3, 91880.17, 0.00005400246, 10.000744, 9.999646 
2.3502253e+2, 1.5424739e+2, -1307041.6, -1417449.9, 17890.781, 0.040899828, -0.33414054, -1304214.9, 124133.43, 0.000006396683, 10.001, 9.9995365 
2.3502138e+2, 1.6424659e+2, -1230871.4, -1342330.6, -11163.679, 0.05736494, -0.36036876, -1229764.1, 100591.48, 0.000000013163342, 10.000904, 9.999425 
2.3501949e+2, 1.7424701e+2, -1213807.5, -1285148.9, -38273.1, 0.04387036, -0.26520157, -1197159.6, 35193.87, 0.0, 10.000357, 9.999409 
2.3501779e+2, 1.8424715e+2, -1121248.9, -1150087.5, -22990.695, 0.022134567, -0.20702691, -1108529.9, 25823.525, 0.0, 10.00015, 9.9997635 
2.3501639e+2, 1.9424696e+2, -984546.0, -1031730.5, -5310.991, -0.007673759, -0.20974869, -983955.56, 52399.55, 0.0, 10.000408, 9.999779 
2.3501524e+2, 2.0424642e+2, -901981.2, -981889.06, -4605.9785, 0.0048494656, -0.22374986, -901716.56, 36644.14, 0.0, 10.000478, 9.9994135 
2.3501444e+2, 2.1424545e+2, -832728.94, -902283.2, 8159.3677, 0.07273611, -0.26383504, -831784.56, 8586.127, 0.0, 10.000301, 9.999371 
2.3501325e+2, 2.2424485e+2, -743901.6, -818244.7, 14430.321, 0.09183094, -0.2557501, -741198.94, 1178.9973, 0.0, 10.0002775, 9.999288 
2.3501153e+2, 2.3424475e+2, -622531.8, -710342.56, -4726.1543, 0.04479827, -0.19876081, -622278.2, 22102.668, 0.0, 10.000445, 9.999274 
2.3500977e+2, 2.442442e+2, -563303.7, -691763.44, -29551.79, -0.0057855616, -0.15416771, -556831.5, -10442.855, 0.0, 10.00044, 9.9987335 
2.350079e+2, 2.5424314e+2, -504392.06, -619507.25, -49221.34, -0.06078645, -0.13563557, -486215.8, -37814.02, 0.0, 10.0002, 9.998671 
2.3500656e+2, 2.642419e+2, -415729.16, -518643.13, -49601.766, -0.06687316, -0.12506628, -395714.75, -45298.965, 0.0, 10.000105, 9.998736 
2.3500587e+2, 2.7424043e+2, -307095.53, -415516.47, -22577.672, -0.008327147, -0.15119453, -302581.84, -50150.57, 0.0, 10.000178, 9.998736 
2.3500441e+2, 2.8423923e+2, -200322.92, -280747.75, -19012.568, -0.01667383, -0.1583313, -196054.81, -41610.348, 0.0, 10.000097, 9.999029 
2.3500194e+2, 2.9423878e+2, -146904.86, -205836.9, -15239.272, -0.11564378, -0.117313296, -143197.36, -86746.91, 0.0, 9.999797, 9.999015 
2.3500144e+2, 3.0423895e+2, -134849.44, -142676.17, 7021.581, -0.07130845, -0.009203326, -130724.33, -130724.33, 0.000000018380936, 9.999408, 9.999305 
2.3500097e+2, 3.1423736e+2, -137125.03, -41479.72, -1371.1898, -0.0325975, -0.105673164, -41460.066, -41460.066, 0.0000016180604, 9.998947, 10.000221 
2.4502721e+2, 1.24252155e+2, -1618808.6, -1721117.4, -29477.447, 0.051457133, -0.19680254, -1610923.3, 111382.06, 0.00026299746, 10.000883, 9.99953 
2.4502668e+2, 1.3425031e+2, -1583995.5, -1721661.9, -12369.055, 0.15554872, -0.2717316, -1582893.0, 41430.79, 0.0001305452, 10.000747, 9.9989195 
2.4502416e+2, 1.4425021e+2, -1450650.6, -1509785.6, 13646.879, 0.035524316, -0.21645562, -1447653.1, 78670.4, 0.000038366878, 10.000567, 9.999784 
2.4502298e+2, 1.5424868e+2, -1394696.4, -1440468.5, 13062.872, 0.019288126, -0.34757084, -1391230.8, 37104.285, 0.000003303544, 10.000317, 9.999708 
2.4502164e+2, 1.6424796e+2, -1334677.9, -1421325.8, -13518.773, 0.02254931, -0.36350524, -1332617.6, -2275.9678, 0.00000000018007511, 10.000317, 9.9991665 
2.4501997e+2, 1.742484e+2, -1188542.1, -1305487.1, -14821.745, 0.041543264, -0.23870102, -1186692.8, 45648.293, 0.0, 10.000671, 9.999118 
2.4501826e+2, 1.842483e+2, -1043152.1, -1111660.1, 5417.2705, 0.028806036, -0.18820074, -1042726.4, 91617.31, 0.0, 10.000681, 9.999772 
2.4501656e+2, 1.9424754e+2, -1008428.9, -1039272.56, -6753.0195, -0.023019968, -0.25028294, -1007015.1, 29334.78, 0.0, 10.000227, 9.999815 
2.4501517e+2, 2.0424709e+2, -951182.0, -976584.7, -21142.771, -0.02780137, -0.2699788, -939218.75, -864.78076, 0.0, 10.000015, 9.999673 
2.450142e+2, 2.1424705e+2, -838043.8, -874380.4, -15118.108, 0.028642775, -0.24466208, -832576.44, 7778.0205, 0.0, 10.000132, 9.999646 
2.450131e+2, 2.242467e+2, -784776.7, -877115.8, -1575.3818, 0.055359207, -0.21042337, -784749.8, -42390.02, 0.0, 10.000167, 9.998936 
2.4501178e+2, 2.3424593e+2, -700252.56, -793247.44, -10457.379, 0.041277643, -0.18091476, -699091.06, -54719.855, 0.0, 10.000107, 9.998867 
2.4501014e+2, 2.4424504e+2, -614250.44, -713596.25, -13750.931, 0.0045243553, -0.14848822, -612382.25, -65999.125, 0.0, 10.000078, 9.998757 
2.45008e+2, 2.5424415e+2, -516403.38, -618511.9, 10397.607, -0.063579574, -0.119732715, -515355.34, -66961.05, 0.0, 10.000089, 9.998732 
2.4500647e+2, 2.6424313e+2, -399585.56, -466628.22, 32466.365, -0.08138964, -0.11017045, -386440.6, -36035.41, 0.0, 10.000026, 9.999132 
2.4500565e+2, 2.7424195e+2, -325149.6, -376912.2, 37874.03, -0.03208931, -0.1510912, -305158.44, -52742.547, 0.0, 9.99985, 9.99916 
2.4500406e+2, 2.8424078e+2, -274978.6, -352554.8, 18080.893, -0.04275842, -0.16008912, -270971.4, -116542.984, 0.0, 9.999739, 9.998709 
2.4500151e+2, 2.9424003e+2, -189472.83, -270413.7, -235.55698, -0.13258424, -0.109762624, -189472.14, -133032.22, 0.0, 9.999696, 9.99862 
2.450009e+2, 3.042401e+2, -122393.74, -117228.27, -2854.139, -0.065656535, 0.001988143, -115961.766, -115961.766, 0.000000001915935, 9.999413, 9.9994755 
2.4500011e+2, 3.1423926e+2, -104627.86, 40857.867, -24581.146, -0.008839555, -0.044555325, 44898.836, 44898.836, 0.00000063402746, 9.998885, 10.000816 
2.5502828e+2, 1.2425345e+2, -1600894.3, -1682418.1, -36482.293, 0.06683417, -0.16558442, -1586952.5, 135343.9, 0.000209724, 10.0008745, 9.999801 
2.5502738e+2, 1.3425153e+2, -1563515.1, -1683678.3, -16386.773, 0.15035033, -0.27144513, -1561320.5, 62993.277, 0.00009902971, 10.000764, 9.999172 
2.5502455e+2, 1.442516e+2, -1447813.9, -1507256.6, 2858.389, 0.014284245, -0.21408743, -1447676.8, 78634.805, 0.000025643241, 10.000583, 9.999794 
2.5502327e+2, 1.5425098e+2, -1394758.0, -1439795.0, 3626.3755, 0.015165636, -0.2551183, -1394467.9, 33847.203, 0.0000014046367, 10.000313, 9.999714 
2.5502196e+2, 1.6425036e+2, -1330865.8, -1411805.3, -2445.8806, 0.022903183, -0.26294002, -1330791.9, -471.53476, 0.0, 10.00031, 9.999235 
2.5502047e+2, 1.7424987e+2, -1182771.5, -1295051.4, -541.61615, 0.022919828, -0.23760468, -1182768.9, 49557.836, 0.0, 10.000678, 9.9991865 
2.5501895e+2, 1.8424903e+2, -1064404.9, -1156577.5, -10173.023, 0.026940886, -0.25256237, -1063295.4, 71040.7, 0.0, 10.000685, 9.999462 
2.5501746e+2, 1.9424774e+2, -1032547.9, -1088538.9, -23276.865, 0.043581825, -0.33440113, -1024135.1, 12213.681, 0.0, 10.000224, 9.999477 
2.550156e+2, 2.0424744e+2, -940622.0, -953239.94, -18635.123, 0.013806033, -0.32481986, -927256.9, 11094.771, 0.0, 10.000009, 9.999837 
2.5501326e+2, 2.1424858e+2, -824219.44, -843915.2, -9764.435, -0.08061892, -0.2049186, -820199.2, 20141.375, 0.0, 10.000125, 9.999859 
2.550118e+2, 2.242485e+2, -800134.44, -908298.94, -4079.6572, -0.093619145, -0.14365748, -799980.8, -57637.434, 0.0, 10.000163, 9.998725 
2.5501153e+2, 2.3424688e+2, -718913.8, -830278.9, -11866.695, 0.0030620322, -0.17390768, -717663.4, -73299.14, 0.0, 10.000099, 9.998617 
2.5501046e+2, 2.4424577e+2, -573438.1, -627505.5, -14062.0, 0.029360047, -0.17921154, -569999.56, -23621.553, 0.0, 10.000072, 9.9993515 
2.5500834e+2, 2.5424543e+2, -469589.06, -520244.13, 11775.973, -0.039690915, -0.16185549, -466985.28, -18604.129, 0.0, 10.000085, 9.999409 
2.550065e+2, 2.6424503e+2, -386024.63, -437830.1, 25717.916, -0.08144357, -0.13475038, -375425.8, -25041.373, 0.0, 10.000023, 9.999331 
2.5500497e+2, 2.7424464e+2, -315918.2, -356632.6, 32023.482, -0.085695535, -0.11329408, -298329.13, -45941.188, 0.0, 9.999845, 9.999303 
2.550032e+2, 2.8424346e+2, -316608.3, -437419.53, 15319.848, -0.10296847, -0.10280293, -314695.9, -160294.25, 0.0, 9.999732, 9.998129 
2.550012e+2, 2.9424158e+2, -234522.17, -361663.97, -1521.9069, -0.13752063, -0.100956455, -234503.95, -178077.84, 0.0, 9.999686, 9.997998 
2.550005e+2, 3.0424085e+2, -126148.086, -123937.01, -22259.074, -0.050006244, -0.036400612, -102756.03, -102756.03, 0.000000000039700524, 9.999407, 9.9994335 
2.5499874e+2, 3.142408e+2, -82688.54, 86760.17, -33275.902, -0.038383204, -0.0019905663, 93060.55, 93060.55, 0.00000021774382, 9.998881, 10.001135 
2.650293e+2, 1.2425503e+2, -1626789.9, -1670891.1, 10591.443, 0.09744165, -0.16223633, -1624378.1, 97904.266, 0.0001649167, 10.000592, 10.000015 
2.650281e+2, 1.342533e+2, -1514859.1, -1638869.0, 27163.129, 0.12975293, -0.27053952, -1509170.3, 115126.72, 0.000073287774, 10.001004, 9.999364 
2.65025e+2, 1.442534e+2, -1381489.9, -1503010.6, 24234.258, -0.028413728, -0.20696792, -1376835.3, 149459.36, 0.000016155976, 10.001157, 9.999547 
2.6502395e+2, 1.5425305e+2, -1313762.5, -1430934.5, 737.20135, 0.018788626, -0.19456105, -1313757.9, 114539.875, 0.00000046134082, 10.000999, 9.999445 
2.6502267e+2, 1.642524e+2, -1264124.3, -1357445.0, -5957.5093, 0.046566945, -0.2021745, -1263745.5, 66558.234, 0.0, 10.000672, 9.999435 
2.650209e+2, 1.7425142e+2, -1248416.4, -1300347.6, 7230.4243, 0.028354323, -0.24742918, -1247428.5, -15116.011, 0.0, 10.0001135, 9.999423 
2.6501924e+2, 1.842505e+2, -1183865.4, -1227305.3, 13062.646, 0.025914852, -0.27562705, -1180239.9, -45918.215, 0.0, 9.999922, 9.999344 
2.6501775e+2, 1.942497e+2, -1041036.44, -1109439.5, 12851.22, 0.05084949, -0.29451737, -1038701.75, -2370.8354, 0.0, 10.000237, 9.999329 
2.6501587e+2, 2.0424946e+2, -891754.06, -942245.3, 20731.227, 0.020430047, -0.2698788, -884332.8, 54001.41, 0.0, 10.000399, 9.999725 
2.6501343e+2, 2.1424995e+2, -799005.75, -844047.56, 5357.497, -0.08703691, -0.19962859, -798377.25, 41951.813, 0.0, 10.00035, 9.999749 
2.650117e+2, 2.2424975e+2, -788416.5, -871285.1, 5628.827, -0.11556805, -0.15889846, -788035.9, -45703.152, 0.0, 10.000108, 9.999006 
2.6501095e+2, 2.3424865e+2, -768094.1, -818923.8, 37669.04, -0.038926784, -0.16883741, -748068.1, -103720.69, 0.0, 9.99961, 9.998933 
2.650098e+2, 2.4424781e+2, -660272.7, -647482.94, 58823.86, -0.010921173, -0.17406866, -594707.4, -48349.793, 0.0, 9.999382, 9.999547 
2.6500806e+2, 2.5424734e+2, -538986.0, -532499.7, 48592.11, -0.047895595, -0.18740526, -487042.63, -38681.656, 0.0, 9.9995165, 9.999598 
2.6500642e+2, 2.6424694e+2, -455278.25, -483923.63, 27836.018, -0.07337022, -0.16578498, -438296.25, -87931.88, 0.0, 9.999602, 9.999218 
2.6500472e+2, 2.7424672e+2, -357727.44, -391893.78, 10987.79, -0.08316722, -0.10940186, -354498.88, -102131.61, 0.0, 9.999624, 9.999166 
2.6500297e+2, 2.8424576e+2, -299536.0, -404765.63, 18131.18, -0.10317875, -0.082632065, -296499.6, -142120.61, 0.0, 9.999746, 9.998345 
2.65001e+2, 2.942439e+2, -178160.97, -306009.44, 63888.133, -0.13357252, -0.1032439, -151708.2, -95307.35, 0.0, 9.999951, 9.998252 
2.650001e+2, 3.042425e+2, -99271.695, -152142.73, 47639.33, -0.048232757, -0.104456246, -71224.72, -71224.72, 0.0, 9.999769, 9.999065 
2.6499754e+2, 3.1424236e+2, -55471.37, 69225.305, 8587.593, -0.06080713, -0.038867198, 69813.93, 69813.93, 0.000000083141636, 9.999207, 10.000855 
2.750303e+2, 1.2425689e+2, -1612758.0, -1644568.5, 17668.36, 0.12856361, -0.18421623, -1604890.4, 117373.05, 0.00012966055, 10.000606, 10.000188 
2.7502868e+2, 1.3425557e+2, -1506346.0, -1618257.8, 41772.582, 0.089187786, -0.26896837, -1492473.5, 131800.2, 0.00005392466, 10.000993, 9.999511 
2.750255e+2, 1.442556e+2, -1417926.4, -1576694.1, 18724.05, -0.09712178, -0.19583249, -1415748.0, 110524.94, 0.0000098627, 10.001148, 9.999046 
2.75025e+2, 1.5425488e+2, -1350945.3, -1510162.9, -4421.7236, 0.022868194, -0.16541265, -1350822.5, 77460.4, 0.00000011248763, 10.001008, 9.998898 
2.7502376e+2, 1.64254e+2, -1239448.0, -1308439.3, -27217.986, 0.0854447, -0.18107286, -1230003.1, 100288.76, 0.0, 10.000681, 9.999767 
2.750213e+2, 1.7425302e+2, -1219375.1, -1240268.6, -13875.846, 0.05342533, -0.26761153, -1212453.1, 19845.428, 0.0, 10.0001135, 9.999836 
2.7501914e+2, 1.8425275e+2, -1179851.3, -1218076.5, 21838.857, 0.02168988, -0.2572793, -1169942.8, -35642.066, 0.0, 9.999918, 9.99941 
2.7501747e+2, 1.9425344e+2, -1038659.9, -1104205.3, 25498.848, -0.0051856, -0.13021597, -1029908.56, 6387.6836, 0.0, 10.0002365, 9.999365 
2.7501592e+2, 2.0425303e+2, -919305.5, -998168.06, 19400.188, -0.012520398, -0.105166584, -914791.44, 23510.43, 0.0, 10.000393, 9.999344 
2.750147e+2, 2.1425119e+2, -829288.75, -905241.25, 4543.969, 0.00496666, -0.22915459, -829017.9, 11302.3125, 0.0, 10.000342, 9.999333 
2.7501282e+2, 2.2425042e+2, -735819.44, -759943.3, -12469.101, -0.016299559, -0.25644007, -730532.94, 11795.047, 0.0, 10.000099, 9.999775 
2.7501008e+2, 2.342512e+2, -707706.9, -692143.3, 19568.484, -0.088424884, -0.16555052, -678866.06, -34545.164, 0.0, 9.999604, 9.999805 
2.7500808e+2, 2.442511e+2, -674198.4, -676207.9, 61291.09, -0.119530335, -0.13356525, -613903.8, -67581.76, 0.0, 9.99938, 9.999351 
2.7500713e+2, 2.5424984e+2, -560294.7, -575561.9, 54130.395, -0.0941408, -0.19631693, -513262.28, -64928.43, 0.0, 9.999511, 9.999306 
2.7500612e+2, 2.6424885e+2, -485779.47, -544957.7, 28171.666, -0.063541375, -0.2024809, -474513.25, -124168.27, 0.0, 9.999594, 9.998802 
2.750049e+2, 2.742483e+2, -388160.63, -452554.9, 13077.727, -0.030760147, -0.13948323, -385606.03, -133252.19, 0.0, 9.999615, 9.998754 
2.7500322e+2, 2.8424767e+2, -229909.38, -258943.36, 25242.018, -0.048863493, -0.101267114, -215307.61, -60947.1, 0.0, 9.999741, 9.999351 
2.7500108e+2, 2.9424697e+2, -100085.58, -143467.28, 71642.14, -0.1267781, -0.11774776, -46922.637, 9441.736, 0.0, 9.999949, 9.999371 
2.7499968e+2, 3.0424497e+2, -148619.44, -255000.47, 25971.303, -0.06723164, -0.20176575, -142617.55, -142617.55, 0.0, 9.99977, 9.998358 
2.7499646e+2, 3.1424367e+2, -120092.26, -61917.46, -2527.4875, -0.09170491, -0.16647072, -61807.855, -61807.855, 0.000000039236188, 9.999192, 9.999962 
2.8503084e+2, 1.2425873e+2, -1608622.6, -1652223.3, 5220.8843, 0.12265823, -0.18836746, -1608006.3, 114239.695, 0.00010364884, 10.000675, 10.000103 
2.850296e+2, 1.3425763e+2, -1581948.4, -1665927.9, 11589.274, 0.10608192, -0.24174003, -1580378.4, 43876.313, 0.000040612387, 10.000522, 9.999413 
2.8502634e+2, 1.442575e+2, -1518612.1, -1626009.8, -7986.5825, -0.08990347, -0.17812322, -1518021.5, 8234.469, 0.0000062724685, 10.000462, 9.999039 
2.8502572e+2, 1.5425655e+2, -1422706.1, -1543767.6, 7741.377, 0.020019935, -0.17298046, -1422213.1, 6055.162, 0.000000028346124, 10.000512, 9.998906 
2.8502432e+2, 1.6425566e+2, -1252722.9, -1318938.3, -9042.131, 0.07585134, -0.18730645, -1251510.4, 78767.21, 0.0, 10.00061, 9.999728 
2.850216e+2, 1.7425503e+2, -1121423.3, -1197474.5, -31106.697, 0.039348617, -0.23443362, -1110320.8, 121960.445, 0.0, 10.000808, 9.999794 
2.8501928e+2, 1.8425496e+2, -1044944.8, -1138011.8, -3817.007, 0.0022813715, -0.20829396, -1044788.5, 89492.74, 0.0, 10.00078, 9.999543 
2.8501752e+2, 1.9425565e+2, -997704.3, -1068134.0, 6780.6313, -0.03173037, -0.0964315, -997057.44, 39218.504, 0.0, 10.000447, 9.999511 
2.8501603e+2, 2.0425507e+2, -975212.3, -1049013.0, 5432.9897, -0.028159406, -0.08412303, -974814.5, -36531.57, 0.0, 10.000112, 9.99913 
2.8501496e+2, 2.1425292e+2, -929201.0, -979983.1, 1653.2249, 0.023512917, -0.21773505, -929147.25, -88841.445, 0.0, 9.999772, 9.999094 
2.8501302e+2, 2.2425218e+2, -764066.06, -742599.1, -17466.404, 0.011822923, -0.24235006, -732831.8, 9481.678, 0.0, 9.999771, 10.000052 
2.8501004e+2, 2.3425347e+2, -595646.56, -602225.3, -26961.74, -0.083139084, -0.13256161, -571774.25, 72525.914, 0.0, 10.000218, 10.000128 
2.8500786e+2, 2.4425356e+2, -549882.6, -621898.5, -6404.831, -0.122893125, -0.095703796, -549317.44, -3018.7659, 0.0, 10.0002575, 9.999301 
2.8500682e+2, 2.5425208e+2, -529127.44, -569291.94, 111.433975, -0.08817058, -0.17092074, -529127.1, -80814.49, 0.0, 9.9997635, 9.999227 
2.8500578e+2, 2.6425084e+2, -483732.2, -538419.9, 10724.734, -0.05587933, -0.19716585, -481704.16, -131378.27, 0.0, 9.999583, 9.998852 
2.8500462e+2, 2.7425006e+2, -355874.44, -429377.22, 31375.324, -0.029460521, -0.16377048, -344303.22, -91966.26, 0.0, 9.999803, 9.998822 
2.8500295e+2, 2.8424963e+2, -211848.94, -212486.67, 31869.635, -0.049485303, -0.12820858, -180296.58, -25955.615, 0.0, 9.999702, 9.999688 
2.8500068e+2, 2.9424956e+2, -183146.25, -141062.27, 18792.107, -0.12239708, -0.11577604, -133892.39, -77556.06, 0.0, 9.999198, 9.999747 
2.8499913e+2, 3.0424732e+2, -240892.48, -296863.06, -25645.912, -0.06374867, -0.2507815, -230918.72, -230918.72, 0.0, 9.999127, 9.998379 
2.849959e+2, 3.1424582e+2, -71236.36, -64886.484, 14894.221, -0.08692666, -0.23334958, -52832.566, -52832.566, 0.000000022768178, 9.99964, 9.999725 
2.9503104e+2, 1.24260545e+2, -1631667.8, -1701715.3, -6118.023, 0.06995934, -0.17695163, -1631137.5, 91092.22, 0.000085497144, 10.000682, 9.999762 
2.950308e+2, 1.342595e+2, -1604837.9, -1715599.3, 6568.009, 0.173178, -0.18872596, -1604449.8, 19789.973, 0.000032281903, 10.00053, 9.999067 
2.9502755e+2, 1.4425915e+2, -1484236.4, -1556832.5, -7645.5176, -0.015173891, -0.15241432, -1483440.0, 42803.25, 0.0000046245973, 10.000471, 9.99951 
2.950261e+2, 1.5425804e+2, -1384109.4, -1463278.5, 9517.04, 0.0039197574, -0.21545137, -1382981.5, 45272.38, 0.00000001715619, 10.00051, 9.999459 
2.950243e+2, 1.6425739e+2, -1281912.1, -1378715.9, -3049.8306, 0.012120913, -0.2190025, -1281816.1, 48444.434, 0.0, 10.000607, 9.99932 
2.9502186e+2, 1.7425744e+2, -1155780.3, -1268315.4, -22839.605, -0.018976733, -0.14902401, -1151321.5, 80939.234, 0.0, 10.000806, 9.999309 
2.9501966e+2, 1.8425712e+2, -1031974.94, -1110262.9, -15449.774, -0.03796495, -0.13016294, -1029036.3, 105227.34, 0.0, 10.000776, 9.999736 
2.95018e+2, 1.9425632e+2, -980316.7, -1031665.8, -5218.529, -0.032661684, -0.19282128, -979791.7, 56478.242, 0.0, 10.000445, 9.999763 
2.9501614e+2, 2.0425561e+2, -979241.1, -1056069.9, -7930.774, -0.0308908, -0.20585899, -978431.0, -40153.582, 0.0, 10.000106, 9.999084 
2.9501414e+2, 2.142551e+2, -934924.94, -990509.25, -10275.046, -0.03588669, -0.16546245, -933086.3, -92800.26, 0.0, 9.999766, 9.999025 
2.9501233e+2, 2.2425498e+2, -779457.06, -772802.8, -3416.2644, -0.035826378, -0.11750634, -771361.2, -29071.688, 0.0, 9.999764, 9.999848 
2.950108e+2, 2.342554e+2, -612152.94, -634652.94, -9301.686, -0.02818714, -0.07025034, -608805.56, 35479.766, 0.0, 10.000211, 9.999908 
2.950091e+2, 2.4425516e+2, -543833.9, -608087.6, -23301.678, -0.02690084, -0.0600437, -536273.2, 10014.197, 0.0, 10.000252, 9.999398 
2.9500714e+2, 2.5425407e+2, -521448.03, -551513.75, -17726.863, -0.0350218, -0.1122913, -513238.06, -64940.734, 0.0, 9.999755, 9.999352 
2.9500538e+2, 2.64253e+2, -448834.3, -464486.4, 16446.418, -0.053251192, -0.15122958, -438446.88, -88139.43, 0.0, 9.9995775, 9.999363 
2.9500383e+2, 2.7425212e+2, -318919.56, -351123.34, 40242.125, -0.08630221, -0.18278886, -291677.5, -39360.758, 0.0, 9.999797, 9.999362 
2.9500204e+2, 2.8425166e+2, -235519.4, -260427.23, 13477.618, -0.11277816, -0.16223285, -229622.67, -75302.336, 0.0, 9.999698, 9.999361 
2.949998e+2, 2.9425174e+2, -211176.89, -195863.17, 525.2517, -0.1287059, -0.09601174, -195845.19, -139528.48, 0.0, 9.999183, 9.999378 
2.949985e+2, 3.0424947e+2, -189865.56, -188758.5, -10167.813, -0.04258396, -0.25091517, -179129.16, -179129.16, 0.0, 9.999118, 9.999126 
2.9499587e+2, 3.1424847e+2, -39644.06, 151.14056, 46399.875, -0.05877207, -0.25849986, 30739.807, 30739.807, 0.000000019534246, 9.999643, 10.000172 
3.0503172e+2, 1.2426246e+2, -1587540.4, -1674886.5, -34729.094, 0.056053195, -0.12819514, -1575415.1, 146800.34, 0.000073591786, 10.000968, 9.999805 
3.050317e+2, 1.3426141e+2, -1557561.0, -1688065.4, 9914.342, 0.19483696, -0.14601637, -1556812.1, 67413.41, 0.000027638554, 10.000836, 9.999109 
3.0502832e+2, 1.4426097e+2, -1424381.3, -1505785.9, 10977.622, -0.002286767, -0.12807201, -1422926.9, 103302.05, 0.000004191702, 10.000788, 9.999706 
3.0502665e+2, 1.5426014e+2, -1319438.8, -1408405.1, 1269.6943, -0.010382638, -0.18415569, -1319420.6, 108814.63, 0.000000032166714, 10.000853, 9.999671 
3.0502477e+2, 1.6425954e+2, -1265563.0, -1386926.5, -17143.422, -0.010214009, -0.18760905, -1263187.8, 67053.24, 0.0, 10.00079, 9.999174 
3.050224e+2, 1.7425935e+2, -1204124.3, -1311642.0, -15954.655, -0.029669523, -0.1247444, -1201806.8, 30437.78, 0.0, 10.00056, 9.99913 
3.0502024e+2, 1.8425879e+2, -1095713.8, -1145405.5, -10696.094, -0.035931833, -0.1193246, -1093509.3, 40740.99, 0.0, 10.00036, 9.999696 
3.0501845e+2, 1.9425772e+2, -1015483.4, -1050751.5, -22689.81, -0.015242753, -0.2041878, -1004380.94, 31877.754, 0.0, 10.000216, 9.999741 
3.0501643e+2, 2.0425718e+2, -935672.8, -1001958.56, -15875.78, -0.019978257, -0.21494162, -932066.6, 6197.3643, 0.0, 10.000264, 9.99938 
3.05014e+2, 2.1425736e+2, -796305.75, -888028.2, 9993.377, -0.06235306, -0.13690913, -795229.56, 45035.063, 0.0, 10.000565, 9.999345 
3.0501208e+2, 2.2425726e+2, -710730.9, -778142.4, 24386.832, -0.06738188, -0.08570301, -702833.8, 39433.656, 0.0, 10.0004015, 9.999505 
3.0501077e+2, 2.3425686e+2, -725159.1, -733390.56, 3230.9553, -0.021633767, -0.082291886, -724042.44, -79769.75, 0.0, 9.999625, 9.999514 
3.0500907e+2, 2.4425645e+2, -670590.4, -641190.6, -11030.792, -0.005712891, -0.07876108, -637512.1, -91235.21, 0.0, 9.999262, 9.999648 
3.0500677e+2, 2.542561e+2, -543731.25, -528344.6, 6512.151, -0.029635642, -0.08792499, -525958.5, -77679.086, 0.0, 9.999455, 9.999657 
3.0500486e+2, 2.642554e+2, -458932.5, -453022.78, 41119.027, -0.058163665, -0.11235935, -414752.56, -64467.336, 0.0, 9.999439, 9.999508 
3.0500326e+2, 2.742544e+2, -403905.38, -377112.44, 32520.156, -0.09273276, -0.16720857, -355337.53, -103042.76, 0.0, 9.99915, 9.999495 
3.0500147e+2, 2.8425387e+2, -308553.4, -305932.88, 1191.3292, -0.115376286, -0.1571107, -305472.25, -151173.02, 0.0, 9.999242, 9.999268 
3.049994e+2, 2.9425395e+2, -124295.2, -164994.14, 7294.267, -0.11886668, -0.081054136, -123027.38, -66730.4, 0.0, 9.999827, 9.999281 
3.0499807e+2, 3.0425197e+2, -37230.67, -68707.34, -2424.0706, -0.03671112, -0.2168206, -37045.086, -37045.086, 0.0, 9.999965, 9.999543 
3.0499557e+2, 3.1425184e+2, -58880.027, -3759.7654, 31045.135, -0.04468477, -0.18950272, 10193.489, 10193.489, 0.000000009333619, 9.999488, 10.000219 
3.1503287e+2, 1.2426452e+2, -1558316.6, -1616286.9, -47782.945, 0.07139302, -0.03903165, -1531414.9, 190787.89, 0.00006650563, 10.000975, 10.000205 
3.150322e+2, 1.3426335e+2, -1526063.6, -1625030.4, 6012.1987, 0.16182329, -0.11188997, -1525699.6, 98512.11, 0.000025576577, 10.000846, 9.999537 
3.1502855e+2, 1.4426301e+2, -1429088.3, -1517028.0, 11980.941, -0.061491795, -0.10370072, -1427485.1, 98727.81, 0.000004447986, 10.000793, 9.999627 
3.1502733e+2, 1.5426287e+2, -1328404.4, -1425804.1, 4747.825, -0.027689962, -0.08136997, -1328173.4, 100039.3, 0.00000006594377, 10.000849, 9.999554 
3.1502572e+2, 1.6426213e+2, -1259691.3, -1373622.8, -25656.066, 0.003743409, -0.09413422, -1254180.4, 76038.63, 0.0, 10.000785, 9.999269 
3.1502327e+2, 1.742608e+2, -1195828.5, -1294967.8, -24154.043, 0.00088438997, -0.1595955, -1190256.9, 41975.645, 0.0, 10.000563, 9.999243 
3.15021e+2, 1.8425997e+2, -1113981.5, -1184137.4, -17313.264, 0.0007245783, -0.1728576, -1109941.5, 24299.402, 0.0, 10.000362, 9.999429 
3.15019e+2, 1.9425985e+2, -1036570.94, -1093822.8, -27389.65, 0.015729738, -0.13232096, -1025578.25, 10664.104, 0.0, 10.000212, 9.999448 
3.1501687e+2, 2.0425974e+2, -892995.75, -910838.8, -6274.517, -0.00034650418, -0.113003515, -891010.25, 47232.59, 0.0, 10.000253, 10.0000105 
3.1501463e+2, 2.1425965e+2, -748138.3, -786126.1, 22193.863, -0.060906295, -0.13175291, -737920.3, 102321.18, 0.0, 10.000556, 10.000049 
3.150123e+2, 2.2425906e+2, -745160.0, -848562.2, -2716.268, -0.08754214, -0.14619458, -745088.7, -2841.306, 0.0, 10.000396, 9.999024 
3.1500995e+2, 2.3425786e+2, -766144.9, -817390.3, -25358.389, -0.06769999, -0.16792913, -755718.0, -111455.67, 0.0, 9.99962, 9.9989395 
3.1500775e+2, 2.4425745e+2, -643601.9, -584199.25, -7119.5864, -0.06335626, -0.15169784, -583357.9, -37090.406, 0.0, 9.999258, 10.000042 
3.1500578e+2, 2.5425816e+2, -511128.75, -458920.5, 14428.877, -0.07889617, -0.098144285, -455198.16, -6939.31, 0.0, 9.99945, 10.000136 
3.1500408e+2, 2.642581e+2, -474651.9, -485326.63, 30659.596, -0.07653293, -0.079556175, -448868.56, -98609.27, 0.0, 9.999436, 9.999288 
3.150028e+2, 2.7425697e+2, -424304.25, -417690.44, 22579.049, -0.05496526, -0.116815716, -398177.4, -145906.36, 0.0, 9.999143, 9.99922 
3.1500128e+2, 2.8425628e+2, -301206.47, -288031.13, 19872.879, -0.06083087, -0.11310228, -273682.5, -119404.79, 0.0, 9.999231, 9.999395 
3.1499946e+2, 2.9425618e+2, -112727.945, -140192.72, 30495.23, -0.09987925, -0.07249689, -93015.79, -36738.363, 0.0, 9.9998255, 9.999452 
3.1499788e+2, 3.0425495e+2, -30852.85, -56970.85, -18977.918, -0.05255471, -0.15091455, -20874.947, -20874.947, 0.0, 9.9999695, 9.999623 
3.149949e+2, 3.1425577e+2, -83279.15, -51858.082, 20529.203, -0.062324725, -0.027656345, -41717.715, -41717.715, 0.0000000005270663, 9.9994755, 9.999895 
3.2503378e+2, 1.24267064e+2, -1668007.4, -1677447.5, 30644.125, 0.10423456, -0.0015737672, -1641721.9, 80458.47, 0.00006287029, 10.00026, 10.000128 
3.2503304e+2, 1.3426599e+2, -1522845.9, -1630846.6, 54481.793, 0.1576341, -0.05866693, -1500137.0, 124051.75, 0.000025189593, 10.0009, 9.999472 
3.250292e+2, 1.4426544e+2, -1395586.1, -1517156.5, 22550.703, -0.089456335, -0.061727583, -1391537.9, 134654.47, 0.0000050024137, 10.001096, 9.999479 
3.2502806e+2, 1.5426505e+2, -1368430.5, -1461382.6, 8907.6875, -0.026158353, -0.049187418, -1367584.5, 60610.133, 0.000000115129794, 10.000645, 9.999407 
3.2502648e+2, 1.6426425e+2, -1305252.4, -1381057.9, -14395.541, 0.023442537, -0.06645875, -1302610.8, 27590.605, 0.0, 10.00041, 9.999398 
3.25024e+2, 1.7426309e+2, -1194704.6, -1276807.5, -10988.895, 0.02182326, -0.12669079, -1193259.4, 38952.777, 0.0, 10.000496, 9.999399 
3.2502156e+2, 1.8426232e+2, -1086736.3, -1184043.5, 6187.8975, 0.011987812, -0.13833049, -1086344.4, 47875.504, 0.0, 10.000607, 9.999311 
3.2501933e+2, 1.9426207e+2, -968090.94, -1076927.8, 6009.8643, -0.001019751, -0.09926695, -967760.06, 68463.234, 0.0, 10.000751, 9.999305 
3.250171e+2, 2.0426191e+2, -845843.9, -887085.94, 7620.6006, -0.02147024, -0.07592118, -844480.8, 93743.58, 0.0, 10.000571, 10.000021 
3.2501492e+2, 2.1426196e+2, -833382.7, -824065.9, -16696.201, -0.054490685, -0.08359636, -811390.4, 28831.344, 0.0, 9.999958, 10.000076 
3.2501248e+2, 2.2426134e+2, -830299.8, -872264.25, -48228.43, -0.075221226, -0.11061519, -798687.0, -56459.785, 0.0, 9.999738, 9.999179 
3.2500967e+2, 2.3425986e+2, -692483.94, -763313.7, -17232.53, -0.078903615, -0.17603931, -688513.9, -44270.684, 0.0, 10.000046, 9.999105 
3.2500723e+2, 2.4425933e+2, -532513.56, -548966.2, 19805.25, -0.08292785, -0.17221916, -519294.1, 26954.986, 0.0, 10.0001, 9.999878 
3.2500532e+2, 2.5426015e+2, -471073.5, -461167.2, -9537.663, -0.087501734, -0.087891385, -455373.22, -7132.4067, 0.0, 9.999817, 9.999945 
3.2500365e+2, 2.6426017e+2, -434899.03, -463878.63, -12691.664, -0.077377275, -0.050559778, -430126.63, -79885.83, 0.0, 9.9997, 9.999308 
3.250023e+2, 2.742591e+2, -323423.75, -364789.0, 898.1445, -0.04998544, -0.08869853, -323404.28, -71152.86, 0.0, 9.999816, 9.99926 
3.2500088e+2, 2.8425828e+2, -235470.63, -251121.23, 14723.799, -0.043079168, -0.10349693, -226621.83, -72362.87, 0.0, 9.99966, 9.999443 
3.249993e+2, 2.942579e+2, -211159.56, -182936.92, 15368.541, -0.060624607, -0.09371272, -176183.89, -119922.52, 0.0, 9.999129, 9.999494 
3.2499763e+2, 3.042571e+2, -146437.88, -111450.98, -37026.465, -0.036726218, -0.13216504, -87993.484, -87993.484, 0.0, 9.999171, 9.999633 
3.2499433e+2, 3.1425792e+2, -33075.57, -56630.99, 1313.2162, -0.0906344, -0.0074460083, -33002.582, -33002.582, 0.0, 9.999946, 9.999636 
3.350344e+2, 1.2427011e+2, -1704966.5, -1758251.0, 43688.15, 0.13440967, -0.015518118, -1680437.8, 41710.457, 0.000061273975, 10.000279, 9.999564 
3.350342e+2, 1.3426936e+2, -1562753.8, -1711811.8, 80789.03, 0.180209, 0.013618191, -1527367.1, 96789.09, 0.000025556885, 10.000893, 9.9989195 
3.3503032e+2, 1.4426827e+2, -1413062.9, -1551934.3, 8720.004, -0.08898471, -0.0012493796, -1412517.4, 113649.26, 0.0000055599335, 10.001089, 9.999244 
3.3502883e+2, 1.5426672e+2, -1380720.1, -1488312.6, -7087.3135, -0.016382916, -0.08510932, -1380255.3, 47925.48, 0.00000016881297, 10.000651, 9.999218 
3.3502707e+2, 1.6426592e+2, -1291884.5, -1355811.8, -13642.601, 0.036747847, -0.10131551, -1289094.8, 41092.95, 0.0, 10.000419, 9.999568 
3.350246e+2, 1.7426628e+2, -1180922.6, -1247959.4, -6821.1987, 0.029901065, -0.028606439, -1180235.5, 51947.887, 0.0, 10.000494, 9.999599 
3.35022e+2, 1.8426585e+2, -1086697.0, -1181775.4, 11012.131, -0.005959888, -0.017633637, -1085438.1, 48749.047, 0.0, 10.000597, 9.9993305 
3.3501938e+2, 1.9426434e+2, -968780.5, -1077695.8, 12362.042, -0.070520654, -0.1038491, -967395.06, 68806.52, 0.0, 10.000748, 9.999301 
3.35017e+2, 2.042637e+2, -889167.5, -975607.5, -14018.125, -0.08907471, -0.101616494, -886951.0, 51257.65, 0.0, 10.000565, 9.999416 
3.3501494e+2, 2.1426427e+2, -879581.75, -918898.2, -38995.008, -0.04788429, 0.0067212754, -855570.1, -15364.798, 0.0, 9.999952, 9.999428 
3.3501264e+2, 2.2426406e+2, -776790.06, -759095.1, -39837.215, -0.035421655, 0.020165367, -727134.75, 15072.355, 0.0, 9.999729, 9.99996 
3.3500993e+2, 2.3426285e+2, -630331.25, -632462.94, -4726.325, -0.05978562, -0.10668934, -626552.06, 17663.246, 0.0, 10.000038, 10.000008 
3.350075e+2, 2.4426211e+2, -583869.44, -654589.25, 9956.925, -0.0694378, -0.1397131, -582494.25, -36272.414, 0.0, 10.000095, 9.999155 
3.350054e+2, 2.542621e+2, -532035.6, -586050.94, -19517.803, -0.06056511, -0.055896237, -525721.25, -77496.09, 0.0, 9.999809, 9.99909 
3.350035e+2, 2.642617e+2, -418414.22, -428038.75, -10420.639, -0.06403942, -0.024783503, -411748.34, -61518.63, 0.0, 9.999693, 9.9995575 
3.350018e+2, 2.7426073e+2, -299413.3, -313547.38, 5801.026, -0.084063455, -0.08446669, -297337.34, -45101.3, 0.0, 9.99981, 9.999614 
3.350003e+2, 2.8425983e+2, -238284.28, -256263.31, -4283.136, -0.068616524, -0.12862095, -237316.05, -83073.05, 0.0, 9.999656, 9.99941 
3.3499897e+2, 2.9425913e+2, -217480.3, -194368.9, -2819.686, -0.008078291, -0.14239968, -194029.88, -137781.42, 0.0, 9.999121, 9.999419 
3.3499724e+2, 3.0425847e+2, -153304.56, -123306.695, -12717.641, 0.005698091, -0.16025378, -118640.78, -118640.78, 0.0, 9.999162, 9.999556 
3.349938e+2, 3.1425828e+2, -47751.867, -84760.38, 36958.08, -0.14126576, -0.13250388, -24924.451, -24924.451, 0.0, 9.999937, 9.999446 
3.450354e+2, 1.24272004e+2, -1560566.5, -1697325.6, -49989.176, 0.15411225, -0.026494656, -1544242.6, 177887.03, 0.000060228966, 10.001307, 9.999487 
3.4503517e+2, 1.3427126e+2, -1580551.6, -1725254.8, 31514.307, 0.19642514, 0.00799697, -1573986.1, 50151.652, 0.000025763518, 10.000787, 9.9988785 
3.4503108e+2, 1.4427012e+2, -1484381.9, -1586009.8, -14032.668, -0.09231098, -0.010407613, -1482479.9, 43669.496, 0.000005876301, 10.000598, 9.999246 
3.450295e+2, 1.5426882e+2, -1355985.6, -1474714.3, -17476.57, -0.022131477, -0.070610546, -1353466.5, 74695.26, 0.0000002059256, 10.0008135, 9.999233 
3.4502763e+2, 1.6426812e+2, -1242216.1, -1335541.9, -22453.768, 0.032188393, -0.07548857, -1237094.9, 93073.21, 0.0, 10.000777, 9.999534 
3.45025e+2, 1.7426844e+2, -1192219.4, -1257448.3, -35192.99, 0.02348362, -0.005310239, -1176852.0, 55312.207, 0.0, 10.000434, 9.999563 
3.4502232e+2, 1.8426801e+2, -1147274.4, -1205552.0, -20304.07, -0.012706507, 0.0060392716, -1140898.1, -6730.369, 0.0, 10.000157, 9.999379 
3.4501973e+2, 1.9426662e+2, -1077743.6, -1123317.3, -15882.46, -0.072720304, -0.07497054, -1072754.6, -36573.992, 0.0, 9.999972, 9.99936 
3.450172e+2, 2.0426579e+2, -1014806.56, -1066996.0, -38347.324, -0.08950956, -0.081110895, -994517.5, -56327.734, 0.0, 9.999835, 9.999141 
3.4501478e+2, 2.142658e+2, -928673.94, -976346.2, -39507.996, -0.05299631, 0.0010074034, -906368.5, -66175.51, 0.0, 9.999761, 9.999126 
3.4501234e+2, 2.2426562e+2, -763690.1, -733907.7, -27925.963, -0.038315546, 0.02708306, -717150.7, 25044.064, 0.0, 9.999737, 10.000129 
3.450099e+2, 2.3426525e+2, -654382.3, -620976.8, -44799.746, -0.051704627, -0.036270015, -589867.44, 54326.883, 0.0, 9.999774, 10.000214 
3.4500766e+2, 2.4426463e+2, -639551.8, -703657.3, -49194.37, -0.04829419, -0.05887321, -612889.44, -66689.99, 0.0, 9.999809, 9.998956 
3.4500557e+2, 2.542638e+2, -542947.75, -617167.4, -34435.555, -0.023313172, -0.035183318, -529432.06, -81220.96, 0.0, 9.999846, 9.998858 
3.4500352e+2, 2.6426306e+2, -407122.5, -412580.47, -3204.0298, -0.032851093, -0.028419591, -405642.78, -55424.305, 0.0, 9.999727, 9.999648 
3.4500137e+2, 2.7426243e+2, -353893.0, -327721.1, -5742.8184, -0.087856755, -0.06858383, -326516.44, -74295.64, 0.0, 9.999383, 9.999723 
3.4499958e+2, 2.8426147e+2, -304593.94, -306815.34, -29949.389, -0.08570502, -0.113796055, -275734.66, -121506.945, 0.0, 9.99928, 9.999244 
3.4499827e+2, 2.942604e+2, -171106.92, -195166.2, -39908.563, -0.010562484, -0.14680234, -141454.36, -85216.81, 0.0, 9.999538, 9.999213 
3.4499666e+2, 3.0425993e+2, -56458.453, -83019.086, -28957.531, -0.00014417904, -0.12994035, -37881.188, -37881.188, 0.0, 9.999855, 9.999497 
3.4499398e+2, 3.1425905e+2, -13229.614, -61547.754, 25275.902, -0.12743339, -0.16633266, -2423.96, -2423.96, 0.0, 10.000148, 9.999503 
3.5503674e+2, 1.2427278e+2, -1532845.9, -1638820.6, -78719.56, 0.15669069, -0.034339733, -1490941.5, 231182.89, 0.00005843651, 10.001303, 9.99989 
3.5503596e+2, 1.3427177e+2, -1546728.3, -1657084.0, 14133.155, 0.1936695, -0.07323261, -1544947.0, 79186.14, 0.000025162195, 10.000795, 9.999343 
3.5503152e+2, 1.4427105e+2, -1465268.5, -1550068.1, -8074.636, -0.11458792, -0.08704827, -1464506.5, 61633.492, 0.0000057861466, 10.000612, 9.999487 
3.550301e+2, 1.5427135e+2, -1340866.4, -1443039.0, -8288.37, -0.044775322, -0.006898075, -1340198.4, 87939.48, 0.00000020730299, 10.000811, 9.999453 
3.5502818e+2, 1.642709e+2, -1260089.9, -1371625.3, -34710.977, 0.007932785, 0.010786447, -1250169.8, 79972.67, 0.0, 10.000772, 9.999288 
3.5502517e+2, 1.7426954e+2, -1211448.4, -1298384.1, -47107.875, -0.0045349794, -0.055681963, -1190817.8, 41336.652, 0.0, 10.000438, 9.999279 
3.5502246e+2, 1.842688e+2, -1141237.1, -1193881.3, -28268.58, -0.017003983, -0.06550516, -1128933.3, 5228.01, 0.0, 10.00016, 9.999458 
3.5502028e+2, 1.9426882e+2, -1069460.4, -1106334.3, -22157.848, -0.012565379, -0.014613553, -1059072.1, -22911.182, 0.0, 9.999971, 9.999477 
3.5501763e+2, 2.0426814e+2, -1012597.25, -1060206.9, -42108.43, -0.027188659, -0.016561536, -988030.7, -49862.54, 0.0, 9.999826, 9.999191 
3.5501432e+2, 2.1426652e+2, -926514.56, -970279.1, -41170.684, -0.07389914, -0.100728735, -901772.2, -61587.254, 0.0, 9.999753, 9.999171 
3.5501155e+2, 2.2426602e+2, -796061.56, -799093.5, -27379.676, -0.08892596, -0.08929979, -770155.9, -27965.602, 0.0, 9.999728, 9.999685 
3.5500962e+2, 2.3426706e+2, -689084.4, -691942.44, -42764.504, -0.059367698, 0.036269497, -647725.0, -3544.9495, 0.0, 9.99977, 9.999728 
3.550077e+2, 2.4426691e+2, -617852.4, -657324.56, -48781.023, -0.023434157, 0.0703774, -584966.25, -38784.375, 0.0, 9.999804, 9.999277 
3.550059e+2, 2.5426525e+2, -516303.38, -559878.94, -32563.47, 0.019722756, -0.026179632, -498910.97, -50712.33, 0.0, 9.999838, 9.999256 
3.5500368e+2, 2.642643e+2, -412963.78, -423037.25, -15398.006, 0.010783376, -0.06206959, -401799.66, -51592.473, 0.0, 9.99972, 9.999579 
3.5500097e+2, 2.7426416e+2, -362793.56, -344927.13, -17592.574, -0.06719169, -0.03961994, -334129.63, -81924.19, 0.0, 9.999377, 9.999608 
3.5499874e+2, 2.8426325e+2, -327718.63, -353532.56, -23311.701, -0.09920999, -0.057983566, -313979.28, -159766.34, 0.0, 9.999274, 9.998925 
3.549972e+2, 2.942617e+2, -196553.22, -245916.02, -29066.049, -0.07468191, -0.108512804, -183103.17, -126874.35, 0.0, 9.999529, 9.998869 
3.549959e+2, 3.0426148e+2, -60419.813, -89573.07, -18244.262, -0.061197832, -0.041814644, -51644.113, -51644.113, 0.0, 9.999846, 9.999457 
3.5499477e+2, 3.1426045e+2, 6220.937, -18607.936, 41220.113, -0.06525944, -0.09738607, 36855.496, 36855.496, 0.0, 10.000136, 9.999804 
3.650372e+2, 1.2427419e+2, -1623468.0, -1661519.0, -57331.582, 0.108311996, -0.029109107, -1582087.5, 140025.47, 0.000055122826, 10.00059, 10.000076 
3.650368e+2, 1.3427353e+2, -1532141.4, -1621470.0, 29721.719, 0.1996992, -0.058760755, -1523156.0, 100961.586, 0.000023501116, 10.000772, 9.999598 
3.650324e+2, 1.4427295e+2, -1443090.4, -1531064.3, -3249.064, -0.09365637, -0.07498188, -1442970.5, 83152.22, 0.00000526637, 10.000729, 9.99956 
3.6503083e+2, 1.5427348e+2, -1405756.3, -1466446.9, -17570.002, -0.030829312, 0.021764573, -1401036.8, 27081.494, 0.00000017249042, 10.000331, 9.999523 
3.6502868e+2, 1.6427295e+2, -1341743.9, -1419957.0, -38476.605, 0.011287563, 0.032412704, -1325989.0, 4134.3228, 0.0, 10.000251, 9.999207 
3.6502555e+2, 1.7427114e+2, -1195126.8, -1300508.9, -37948.426, -0.018256065, -0.073180996, -1182883.8, 49256.184, 0.0, 10.000594, 9.999188 
3.650227e+2, 1.8427026e+2, -1095460.0, -1176550.8, -29183.756, -0.027075944, -0.086815424, -1086049.1, 48098.805, 0.0, 10.000494, 9.999416 
3.6502036e+2, 1.942707e+2, -1093204.8, -1121979.6, -36818.074, 0.004623135, 0.0072473255, -1068062.9, -31918.205, 0.0, 9.999825, 9.999441 
3.6501765e+2, 2.0427018e+2, -1023550.94, -1039972.56, -33645.31, 0.00032973886, 0.014091713, -997129.06, -58979.43, 0.0, 9.9996395, 9.999421 
3.650144e+2, 2.1426845e+2, -860472.7, -910290.9, -17681.078, -0.05805274, -0.1060283, -854835.4, -14670.18, 0.0, 10.000086, 9.999423 
3.6501157e+2, 2.2426772e+2, -768547.4, -837325.44, -8563.819, -0.08258395, -0.11182742, -767497.1, -25324.389, 0.0, 10.000138, 9.999226 
3.6500934e+2, 2.3426831e+2, -740194.4, -774424.2, -28777.428, -0.058757592, 0.02223675, -723827.06, -79657.83, 0.0, 9.999666, 9.999212 
3.6500728e+2, 2.4426804e+2, -659151.1, -659544.7, -29706.342, -0.027584163, 0.06564359, -629640.94, -83468.18, 0.0, 9.999442, 9.999436 
3.6500546e+2, 2.5426668e+2, -543477.06, -549446.8, -27642.973, 0.0104583595, -0.020911548, -518658.28, -70473.48, 0.0, 9.999548, 9.999468 
3.6500332e+2, 2.642658e+2, -447545.28, -473295.5, -32393.387, 0.008892239, -0.044784497, -425562.1, -75369.69, 0.0, 9.999626, 9.999279 
3.6500072e+2, 2.742655e+2, -340926.47, -372675.22, -54635.074, -0.043148134, -0.0074495557, -299906.3, -47711.426, 0.0, 9.999692, 9.999266 
3.6499858e+2, 2.8426453e+2, -259167.0, -312734.97, -46301.598, -0.065962404, -0.018377723, -232460.63, -78256.516, 0.0, 9.99971, 9.998998 
3.649969e+2, 2.9426304e+2, -180143.33, -229141.98, -20191.572, -0.056255706, -0.07162632, -172894.95, -116676.55, 0.0, 9.999601, 9.99895 
3.6499545e+2, 3.04263e+2, -143893.58, -147508.72, 3586.3003, -0.066561565, 0.018303154, -141685.08, -141685.08, 0.0, 9.999349, 9.999299 
3.649944e+2, 3.1426162e+2, -142423.88, -65922.24, 48369.11, -0.057156947, -0.06155346, -42507.06, -42507.06, 0.0, 9.999006, 10.000025 
3.750367e+2, 1.2427619e+2, -1623984.1, -1664117.1, -64688.344, -0.0055842907, -0.011163935, -1576321.4, 145774.16, 0.00005010573, 10.000595, 10.000057 
3.7503773e+2, 1.3427651e+2, -1527842.3, -1614089.9, 38687.95, 0.2140623, 0.050406296, -1513031.5, 111060.06, 0.000020857056, 10.000776, 9.999647 
3.7503377e+2, 1.4427581e+2, -1449415.0, -1544096.0, -17250.488, -0.03272035, 0.02525165, -1446370.0, 79727.65, 0.000004428325, 10.000729, 9.999471 
3.7503156e+2, 1.5427522e+2, -1411162.6, -1478272.5, -31741.822, 0.009499774, 0.016361726, -1398528.0, 29574.85, 0.00000011962439, 10.000334, 9.99944 
3.7502918e+2, 1.6427432e+2, -1334878.5, -1407208.1, -28020.953, 0.031264015, -0.009111323, -1325293.3, 4817.412, 0.0, 10.000256, 9.999292 
3.7502614e+2, 1.7427316e+2, -1187541.6, -1285961.5, -24111.88, -0.021323768, -0.05853878, -1181951.9, 50168.85, 0.0, 10.000598, 9.999287 
3.7502298e+2, 1.8427241e+2, -1107043.1, -1200549.9, -52629.1, -0.047828533, -0.059105773, -1083399.8, 50728.355, 0.0, 10.000493, 9.999252 
3.750199e+2, 1.9427222e+2, -1106243.3, -1148832.8, -61213.72, -0.025617843, -0.009562133, -1062726.1, -26594.236, 0.0, 9.999824, 9.999257 
3.750172e+2, 2.0427193e+2, -996223.7, -982350.8, -20233.96, -0.011307122, 0.011975806, -967897.4, -29763.234, 0.0, 9.999636, 9.999819 
3.7501496e+2, 2.1427158e+2, -829907.3, -845370.3, 130.11617, -0.011436067, -0.0156119615, -829906.2, 10227.728, 0.0, 10.000079, 9.999871 
3.7501228e+2, 2.2427064e+2, -802706.0, -906867.8, -25047.838, -0.024834028, -0.041364722, -796995.75, -54853.438, 0.0, 10.000132, 9.998752 
3.7500903e+2, 2.34269e+2, -778737.7, -853015.9, -45959.613, -0.054051682, -0.07922573, -756787.0, -112625.18, 0.0, 9.9996605, 9.998676 
3.7500635e+2, 2.4426806e+2, -660537.3, -660826.7, -27613.484, -0.06572224, -0.073448025, -633068.2, -86896.016, 0.0, 9.999435, 9.999431 
3.7500435e+2, 2.5426817e+2, -541687.3, -545308.94, -22760.414, -0.05614578, -0.018467398, -520665.8, -72496.39, 0.0, 9.999546, 9.999497 
3.7500247e+2, 2.642677e+2, -486110.03, -552890.44, -31036.814, -0.042288925, 0.024253001, -473913.06, -123738.945, 0.0, 9.999624, 9.9987335 
3.7500066e+2, 2.7426648e+2, -383382.34, -457466.78, -51416.38, -0.02098975, 0.027376782, -357054.47, -104865.195, 0.0, 9.999678, 9.998691 
3.7499902e+2, 2.8426528e+2, -227464.75, -243724.86, -50140.05, 0.0072735646, 0.0043635294, -184799.9, -30598.55, 0.0, 9.999696, 9.999477 
3.7499747e+2, 2.942645e+2, -142933.7, -151317.92, -23564.826, 0.03814119, -0.035291243, -123191.016, -66984.99, 0.0, 9.9996, 9.999485 
3.7499526e+2, 3.0426458e+2, -163714.05, -188888.11, -10337.516, -0.020811193, 0.052020352, -160013.13, -160013.13, 0.0, 9.99935, 9.999015 
3.7499285e+2, 3.142626e+2, -136739.58, -48271.1, 37068.46, -0.11620843, -0.054582153, -34792.79, -34792.79, 0.0, 9.998982, 10.000156 
3.8503727e+2, 1.2427867e+2, -1618943.6, -1696763.0, -35938.457, -0.016119035, 0.0050218687, -1604886.0, 117185.37, 0.00004363311, 10.000785, 9.999739 
3.8503835e+2, 1.342791e+2, -1547184.4, -1652649.8, 54617.914, 0.20031457, 0.103268586, -1523997.0, 100070.836, 0.000017489165, 10.000768, 9.999387 
3.8503426e+2, 1.4427811e+2, -1449249.5, -1548029.6, -22986.693, -0.052967783, 0.06312194, -1444162.4, 81915.06, 0.0000034194288, 10.000746, 9.999435 
3.8503206e+2, 1.54277e+2, -1375290.6, -1461981.3, -35992.81, 0.012767117, 0.003973353, -1362295.0, 65791.734, 0.00000006772674, 10.000585, 9.999431 
3.850297e+2, 1.6427611e+2, -1303393.0, -1370370.9, -11627.998, 0.051726885, -0.027434014, -1301431.8, 28662.201, 0.0, 10.000378, 9.999487 
3.8502675e+2, 1.742757e+2, -1234798.8, -1284831.1, 323.31158, 0.0032861792, -0.023249568, -1234796.6, -2699.9495, 0.0, 10.000169, 9.999502 
3.850235e+2, 1.842751e+2, -1166814.1, -1242932.8, -31578.873, -0.028225983, -0.014969796, -1155419.1, -21316.385, 0.0, 10.000141, 9.999132 
3.8502e+2, 1.9427425e+2, -1042515.9, -1134576.3, -39814.55, -0.023497501, -0.016292341, -1027685.75, 8427.048, 0.0, 10.000332, 9.999111 
3.8501704e+2, 2.0427375e+2, -929158.44, -959832.1, -8535.55, -0.0143009955, -0.0033999465, -926943.25, 11173.99, 0.0, 10.000139, 9.99973 
3.850148e+2, 2.142738e+2, -927894.25, -902439.56, -29246.04, -0.0037838414, 0.017018465, -883271.5, -43157.96, 0.0, 9.999448, 9.999784 
3.850122e+2, 2.242729e+2, -916552.7, -960785.4, -49115.492, -0.007121929, -0.00006637989, -884803.8, -142682.42, 0.0, 9.999347, 9.998759 
3.8500917e+2, 2.3427084e+2, -723583.75, -824486.94, -30035.344, -0.028288485, -0.08108984, -715320.06, -71176.07, 0.0, 10.000031, 9.9986925 
3.850065e+2, 2.4426967e+2, -537594.8, -619449.3, 1872.0995, -0.04164548, -0.092846565, -537552.0, 8604.247, 0.0, 10.000358, 9.99927 
3.8500434e+2, 2.5426975e+2, -457437.1, -524322.5, -10757.348, -0.04671737, -0.021402828, -455749.53, -7595.603, 0.0, 10.00021, 9.999321 
3.8500226e+2, 2.6426923e+2, -448301.03, -550645.44, -17347.418, -0.04042514, 0.028878141, -445440.6, -95280.66, 0.0, 9.99995, 9.998593 
3.8500032e+2, 2.7426782e+2, -415053.84, -488093.34, -5359.8296, -0.016258495, 0.029778289, -414662.63, -162485.34, 0.0, 9.999524, 9.998555 
3.849986e+2, 2.8426662e+2, -287216.75, -264081.66, 6039.501, 0.018889649, 0.010122382, -262599.9, -108410.266, 0.0, 9.9992485, 9.999553 
3.849971e+2, 2.9426593e+2, -194746.7, -168591.31, -6480.7485, 0.060788658, -0.028315939, -167073.6, -110880.484, 0.0, 9.999209, 9.999556 
3.8499454e+2, 3.0426586e+2, -212852.56, -231948.05, -13609.929, -0.01487512, 0.04806944, -205775.34, -205775.34, 0.0, 9.999094, 9.998842 
3.8499177e+2, 3.142642e+2, -136341.22, -24280.781, 42681.535, -0.116806075, -0.010580251, -9875.933, -9875.933, 0.000000000002787424, 9.998881, 10.000371 
3.950389e+2, 1.2428163e+2, -1662910.8, -1788204.6, -51098.496, 0.06699542, 0.020902494, -1644714.0, 77326.49, 0.0000362571, 10.000788, 9.99911 
3.9503866e+2, 1.342813e+2, -1587221.1, -1736056.9, 55841.49, 0.15219271, 0.10025364, -1568599.8, 55446.84, 0.000013744367, 10.000769, 9.998815 
3.9503396e+2, 1.4427981e+2, -1448655.0, -1546503.5, -28207.582, -0.1616409, 0.039634876, -1441105.8, 84956.39, 0.0000023661473, 10.000744, 9.999448 
3.9503226e+2, 1.5427878e+2, -1370114.0, -1452773.8, -41456.29, -0.025246732, -0.015644658, -1352905.3, 75164.9, 0.000000028035489, 10.00059, 9.999492 
3.9503023e+2, 1.6427831e+2, -1281901.1, -1326533.1, -20950.563, 0.067412935, -0.022829466, -1273607.9, 56465.203, 0.0, 10.000381, 9.999786 
3.950274e+2, 1.7427875e+2, -1212059.4, -1237343.5, -6916.8555, 0.05107292, 0.032949876, -1210290.9, 21776.986, 0.0, 10.000168, 9.999829 
3.9502418e+2, 1.8427834e+2, -1172720.5, -1254855.3, -25833.188, 0.025860788, 0.04639462, -1165271.0, -31199.37, 0.0, 10.000139, 9.999051 
3.9502063e+2, 1.942768e+2, -1050552.6, -1150566.3, -31755.771, 0.0060078218, -0.012664232, -1041321.7, -5234.2627, 0.0, 10.000329, 9.999002 
3.9501718e+2, 2.0427565e+2, -970224.2, -1044051.1, -33023.33, -0.014095626, -0.032285534, -957608.44, -19509.463, 0.0, 10.000134, 9.999154 
3.950139e+2, 2.1427512e+2, -971378.56, -991257.94, -54245.45, -0.03932904, -0.008282285, -926169.6, -86065.52, 0.0, 9.999442, 9.999178 
3.950113e+2, 2.2427452e+2, -883997.06, -891665.25, -27428.158, -0.03365197, 0.013160838, -860136.3, -118026.62, 0.0, 9.99934, 9.999237 
3.950096e+2, 2.3427385e+2, -684797.7, -743071.44, -3302.8506, 0.014782532, 0.016547235, -684611.1, -40495.355, 0.0, 10.000028, 9.999253 
3.950077e+2, 2.4427284e+2, -560852.2, -666669.25, -2419.4197, 0.04026331, 0.006888267, -560796.94, -14671.694, 0.0, 10.000353, 9.998948 
3.9500538e+2, 2.5427148e+2, -485833.0, -580626.9, -15623.178, 0.033611238, -0.030526577, -483324.5, -35185.97, 0.0, 10.000198, 9.99894 
3.9500272e+2, 2.6427037e+2, -430499.44, -511034.47, -32964.6, 0.009095789, -0.03125255, -418727.2, -68577.25, 0.0, 9.99994, 9.99887 
3.9499962e+2, 2.7426958e+2, -392728.03, -441465.97, -20583.42, -0.034550503, 0.0013156417, -385198.34, -133039.64, 0.0, 9.999523, 9.998876 
3.949973e+2, 2.842686e+2, -311305.94, -314427.47, 2398.5415, -0.03661672, -0.00018145458, -310005.06, -155836.2, 0.0, 9.99925, 9.999207 
3.9499575e+2, 2.942674e+2, -225437.55, -227863.77, -7470.771, 0.004701584, -0.050081093, -219082.03, -162902.36, 0.0, 9.99919, 9.999157 
3.9499325e+2, 3.0426687e+2, -218848.78, -240268.16, -21718.598, -0.055293236, 0.0068765325, -205342.88, -205342.88, 0.0, 9.999078, 9.998793 
3.9499113e+2, 3.1426638e+2, -116905.98, 19234.299, 37070.75, -0.0732762, 0.06500914, 28674.059, 28674.059, 0.000000001718879, 9.998872, 10.000672 
4.050398e+2, 1.2428383e+2, -1603723.3, -1766493.8, -121185.19, 0.05295114, 0.03616236, -1539131.0, 182888.28, 0.000028702449, 10.001224, 9.99905 
4.0503967e+2, 1.3428307e+2, -1522918.4, -1702508.3, 42855.418, 0.1578013, 0.07105492, -1513216.0, 110813.28, 0.000010028613, 10.001199, 9.998839 
4.0503487e+2, 1.4428152e+2, -1408018.5, -1515810.6, -23277.533, -0.15644725, 0.00057355803, -1403206.5, 122838.78, 0.0000013962007, 10.000975, 9.999548 
4.0503278e+2, 1.5428118e+2, -1382938.4, -1446315.8, -37169.42, -0.02467532, 0.0023722413, -1365783.0, 62264.137, 0.000000006286357, 10.000446, 9.999605 
4.050305e+2, 1.6428104e+2, -1317987.6, -1347411.5, -16648.184, 0.06594294, 0.02011893, -1310482.4, 19565.355, 0.0, 10.000147, 9.999757 
4.0502754e+2, 1.7428122e+2, -1221739.4, -1246730.8, -30590.643, 0.047957093, 0.056620583, -1201190.6, 30854.674, 0.0, 10.00012, 9.999788 
4.0502426e+2, 1.8428072e+2, -1177838.6, -1244507.5, -49862.883, 0.025126385, 0.057757642, -1151194.0, -17144.174, 0.0, 10.000051, 9.999164 
4.0502083e+2, 1.9427927e+2, -1096062.3, -1158519.8, -39427.62, 0.013423475, -0.0043173516, -1076994.1, -40930.63, 0.0, 9.999956, 9.999127 
4.050174e+2, 2.0427811e+2, -1000066.25, -1080851.0, -25683.316, -0.0011800709, -0.024014357, -992592.44, -54517.03, 0.0, 10.000027, 9.998954 
4.050139e+2, 2.1427737e+2, -859795.1, -962026.3, -20177.852, -0.02731742, 0.0021525822, -855956.6, -15872.574, 0.0, 10.000315, 9.998958 
4.0501124e+2, 2.2427675e+2, -742288.6, -803197.75, 22319.916, -0.018407451, 0.025467925, -734985.25, 7104.5366, 0.0, 10.000228, 9.999416 
4.0500972e+2, 2.3427632e+2, -724974.1, -738890.5, 19793.707, 0.03955795, 0.031554773, -710951.2, -66859.74, 0.0, 9.999651, 9.999463 
4.0500784e+2, 2.4427536e+2, -704203.06, -755485.1, 14237.393, 0.06554066, 0.02217722, -700515.56, -154415.36, 0.0, 9.999453, 9.998773 
4.0500546e+2, 2.542737e+2, -563646.06, -640517.44, 12849.586, 0.04666788, -0.020221375, -561555.06, -113437.3, 0.0, 9.999761, 9.99874 
4.0500265e+2, 2.6427254e+2, -424858.28, -479717.97, -9509.437, 0.014890719, -0.026301967, -423256.66, -73126.88, 0.0, 9.999856, 9.9991255 
4.0499932e+2, 2.7427208e+2, -348191.2, -387695.3, -2530.4705, -0.028092513, 0.006351218, -348029.75, -95895.85, 0.0, 9.999691, 9.999164 
4.0499672e+2, 2.8427124e+2, -281689.0, -332662.9, 30719.871, -0.033355284, 0.017023461, -267259.88, -113117.51, 0.0, 9.999593, 9.998918 
4.0499505e+2, 2.942698e+2, -197955.34, -250712.9, 25227.744, -0.002781594, -0.021037592, -187833.73, -131676.81, 0.0, 9.999534, 9.998836 
4.0499213e+2, 3.0426866e+2, -213589.23, -223808.14, 6060.062, -0.07313913, -0.017279154, -210772.1, -210772.1, 0.0, 9.999054, 9.998917 
4.0498984e+2, 3.142687e+2, -206241.16, 7478.239, 68099.89, -0.050394878, 0.07994781, 27333.143, 27333.143, 0.00000001196501, 9.99812, 10.000955 
4.1503984e+2, 1.2428523e+2, -1569914.6, -1693836.3, -137746.39, -0.06713824, 0.04664275, -1480835.0, 241173.19, 0.000021697306, 10.001214, 9.999552 
4.1504145e+2, 1.3428442e+2, -1479292.0, -1613428.3, 43889.73, 0.21106827, 0.01573731, -1466207.6, 157808.25, 0.000006740833, 10.001204, 9.999449 
4.1503698e+2, 1.442833e+2, -1395175.3, -1489334.4, -42216.324, -0.046076342, -0.053844202, -1379019.5, 147007.47, 0.0000006540361, 10.000976, 9.999729 
4.150336e+2, 1.5428422e+2, -1371393.5, -1421954.3, -56400.656, 0.011021851, 0.057857834, -1334866.6, 93151.35, 0.0000000002364484, 10.000445, 9.999774 
4.1503042e+2, 1.6428424e+2, -1343466.5, -1399440.1, -19528.525, 0.04371052, 0.10111054, -1337326.8, -7308.674, 0.0, 10.000144, 9.999401 
4.1502708e+2, 1.7428315e+2, -1249927.0, -1304795.5, -30802.76, -0.010836963, 0.04878311, -1236112.6, -4083.6084, 0.0, 10.000119, 9.99939 
4.150237e+2, 1.8428226e+2, -1156794.0, -1200935.4, -54175.813, -0.03615204, 0.019724794, -1120365.6, 13671.439, 0.0, 10.000051, 9.999463 
4.1502064e+2, 1.942817e+2, -1071811.4, -1107054.5, -42296.727, -0.0038536107, 0.0101893265, -1043612.25, -7571.254, 0.0, 9.999951, 9.999483 
4.1501763e+2, 2.042811e+2, -988643.44, -1055787.8, -16400.217, 0.02095044, 0.02223126, -984851.75, -46805.34, 0.0, 10.000021, 9.999128 
4.1501474e+2, 2.1428053e+2, -849783.3, -938925.06, -8501.412, 0.027876588, 0.048200566, -848979.8, -8926.2295, 0.0, 10.000306, 9.99912 
4.1501197e+2, 2.242796e+2, -751021.94, -820231.25, 2232.267, 0.033888962, 0.036064435, -750950.0, -8888.086, 0.0, 10.000223, 9.999302 
4.1500938e+2, 2.3427826e+2, -734870.2, -758429.25, -1089.2078, 0.041715782, -0.035691764, -734819.94, -90748.84, 0.0, 9.999647, 9.999331 
4.1500694e+2, 2.4427721e+2, -707054.4, -760185.0, 23113.762, 0.029095894, -0.045735937, -698406.6, -152325.66, 0.0, 9.999448, 9.998743 
4.1500464e+2, 2.542765e+2, -566064.1, -644652.1, 25212.592, -0.012187959, 0.00936693, -558670.94, -110579.32, 0.0, 9.999756, 9.998714 
4.150021e+2, 2.6427585e+2, -409339.88, -446674.0, -15391.739, -0.02670755, 0.042916108, -403812.63, -53712.953, 0.0, 9.999853, 9.999353 
4.1499928e+2, 2.7427533e+2, -332475.66, -352219.66, -7488.509, -0.0016151825, 0.04504951, -329956.78, -77853.734, 0.0, 9.999679, 9.9994135 
4.1499692e+2, 2.8427458e+2, -298859.94, -365077.2, 27829.172, 0.022896778, 0.06145497, -288717.6, -134607.31, 0.0, 9.999579, 9.998701 
4.1499493e+2, 2.9427326e+2, -215355.67, -285437.1, 23128.502, 0.03284673, 0.059490036, -208410.92, -152286.23, 0.0, 9.999529, 9.998599 
4.1499117e+2, 3.0427125e+2, -193169.64, -182722.27, -27801.791, -0.073784746, -0.021829281, -159657.69, -159657.69, 0.0, 9.999059, 9.999197 
4.1498786e+2, 3.142711e+2, -189925.97, 45043.73, 30615.627, -0.062877074, 0.025093004, 48967.31, 48967.31, 0.000000036873733, 9.998105, 10.00122 
4.2504033e+2, 1.2428707e+2, -1654364.9, -1693199.5, -90739.664, -0.0991715, 0.020895625, -1580988.3, 141003.08, 0.000015823704, 10.000459, 9.99992 
4.2504224e+2, 1.3428709e+2, -1564753.1, -1600677.4, 94080.0, 0.21228081, 0.022218155, -1486935.9, 137053.67, 0.0000041887733, 10.000383, 9.999932 
4.2503786e+2, 1.4428629e+2, -1462958.5, -1527743.8, -5970.0425, -0.03165819, -0.038258485, -1462413.0, 63584.105, 0.00000021832761, 10.000535, 9.999679 
4.250344e+2, 1.5428711e+2, -1321790.5, -1407449.0, -41150.117, 0.027444873, 0.07163022, -1305225.5, 122764.3, 0.0, 10.000827, 9.99969 
4.2503098e+2, 1.6428693e+2, -1248416.0, -1369358.6, -5447.177, 0.04870422, 0.10673256, -1248171.1, 81821.21, 0.0, 10.000867, 9.999258 
4.2502716e+2, 1.742855e+2, -1185671.1, -1290528.8, -268.7939, -0.03722299, 0.036150552, -1185670.4, 46336.555, 0.0, 10.000633, 9.99924 
4.2502367e+2, 1.842846e+2, -1084340.1, -1147696.9, -15672.254, -0.0659707, 0.0046780654, -1080675.3, 53339.938, 0.0, 10.00047, 9.999626 
4.250208e+2, 1.9428441e+2, -994707.4, -1048673.4, -17208.54, -0.0026957095, 0.014290876, -989687.0, 46327.84, 0.0, 10.000391, 9.999671 
4.2501804e+2, 2.0428404e+2, -951238.8, -1034318.2, 3056.5852, 0.04602094, 0.036330234, -951126.5, -13108.684, 0.0, 10.000265, 9.999157 
4.2501536e+2, 2.1428345e+2, -881040.4, -952714.7, -1176.1995, 0.06864619, 0.059380114, -881021.1, -40995.785, 0.0, 10.000086, 9.999132 
4.250124e+2, 2.242824e+2, -768796.4, -836494.56, 1153.7657, 0.06004723, 0.037707902, -768776.7, -26741.756, 0.0, 10.0001335, 9.999233 
4.2500916e+2, 2.3428081e+2, -616962.25, -709374.5, -199.66989, 0.012766094, -0.05064252, -616961.9, 27084.645, 0.0, 10.00049, 9.999261 
4.2500642e+2, 2.4427983e+2, -563435.94, -673934.75, 29980.035, -0.013404182, -0.056546576, -555825.94, -9770.479, 0.0, 10.0003605, 9.998895 
4.250043e+2, 2.542796e+2, -577463.25, -631435.44, 45397.438, -0.014051665, 0.02865253, -551636.7, -103575.484, 0.0, 9.999598, 9.998881 
4.2500192e+2, 2.6427895e+2, -487396.63, -492734.34, 16117.491, -0.0045289756, 0.057985034, -473728.53, -123659.47, 0.0, 9.999352, 9.999279 
4.2499927e+2, 2.7427787e+2, -323416.4, -357160.25, -1974.7931, 0.024961807, 0.013008087, -323301.22, -71223.164, 0.0, 9.999781, 9.9993305 
4.2499685e+2, 2.8427723e+2, -255595.02, -332459.3, 19808.389, 0.0491015, 0.041722585, -250790.58, -96706.305, 0.0, 9.9998255, 9.998806 
4.2499456e+2, 2.9427686e+2, -227516.25, -275457.44, 38902.64, 0.050390247, 0.121112645, -205792.16, -149702.28, 0.0, 9.999375, 9.998741 
4.2499012e+2, 3.042745e+2, -206090.81, -173241.84, -16345.175, -0.07710612, -0.009361748, -166494.61, -166494.61, 0.0, 9.998902, 9.999338 
4.2498615e+2, 3.1427383e+2, -160990.52, 43596.57, 19067.426, -0.056018066, -0.026907025, 45358.473, 45358.473, 0.00000007454206, 9.998371, 10.001082 
4.3504125e+2, 1.2428938e+2, -1637073.1, -1658683.9, -109923.05, -0.05732833, -0.040987287, -1537425.6, 184543.14, 0.0000113764345, 10.000465, 10.000153 
4.350421e+2, 1.3429104e+2, -1537418.8, -1547448.9, 94210.805, 0.15916878, 0.0887942, -1448089.6, 175861.13, 0.0000025044064, 10.000396, 10.000293 
4.3503755e+2, 1.4429046e+2, -1481923.8, -1567318.3, 4260.9155, -0.116720766, 0.045236446, -1481711.6, 44244.188, 0.000000047491298, 10.000537, 9.999406 
4.3503517e+2, 1.5428986e+2, -1345116.5, -1455249.0, -29721.324, 0.018165752, 0.043506842, -1337607.6, 90354.94, 0.0, 10.000825, 9.999363 
4.350321e+2, 1.642891e+2, -1245009.6, -1361528.9, -13628.086, 0.07299306, 0.037506565, -1243437.0, 86533.58, 0.0, 10.000863, 9.999313 
4.3502784e+2, 1.742883e+2, -1179444.8, -1277423.0, -8149.3975, -0.035307586, 0.019683288, -1178771.5, 53207.668, 0.0, 10.000632, 9.9993305 
4.350241e+2, 1.842877e+2, -1082652.0, -1143374.8, -19870.52, -0.06955516, 0.013167735, -1076727.8, 57256.676, 0.0, 10.000466, 9.999657 
4.3502137e+2, 1.9428739e+2, -993800.7, -1045221.44, -19698.523, 0.012174159, 0.0076277955, -987121.94, 48863.1, 0.0, 10.000385, 9.999697 
4.3501857e+2, 2.0428686e+2, -961052.06, -1052740.3, -3876.9822, 0.0699773, 0.017930781, -960888.44, -22898.678, 0.0, 10.0002575, 9.999035 
4.3501565e+2, 2.142861e+2, -891496.4, -972567.0, -6856.996, 0.09020255, 0.036897305, -890920.5, -50921.23, 0.0, 10.000078, 9.998999 
4.3501252e+2, 2.2428513e+2, -771718.25, -841064.0, 12518.739, 0.054588884, 0.031659342, -769527.5, -27518.629, 0.0, 10.000127, 9.999206 
4.35009e+2, 2.3428394e+2, -619302.56, -712575.75, 13850.028, -0.05071324, -0.01443315, -617289.44, 26728.416, 0.0, 10.0004835, 9.999242 
4.3500626e+2, 2.442832e+2, -540313.56, -624656.44, 3422.0718, -0.06490082, -0.010858862, -540174.94, 5849.034, 0.0, 10.000355, 9.999235 
4.3500438e+2, 2.54283e+2, -552448.8, -577963.06, 17359.219, 0.03551881, 0.039320033, -543663.25, -95636.67, 0.0, 9.999591, 9.999251 
4.3500212e+2, 2.642819e+2, -514458.2, -547809.06, 28442.994, 0.076175146, 0.0198933, -498162.8, -148124.86, 0.0, 9.999348, 9.998904 
4.3499926e+2, 2.742797e+2, -354321.22, -420055.88, 14659.086, 0.04670829, -0.09015275, -351200.34, -99141.23, 0.0, 9.999775, 9.998901 
4.349966e+2, 2.8427923e+2, -226509.4, -270248.78, 4523.8145, 0.040715154, -0.042385083, -226046.42, -71981.945, 0.0, 9.999819, 9.999237 
4.349939e+2, 2.9428065e+2, -193234.44, -201552.0, 23488.957, 0.043705773, 0.1650291, -173538.94, -117486.44, 0.0, 9.999365, 9.999254 
4.3498892e+2, 3.0427843e+2, -206932.47, -172875.13, -37069.85, -0.089052334, 0.020811442, -149109.81, -149109.81, 0.0, 9.998894, 9.999345 
4.3498468e+2, 3.1427678e+2, -198988.73, -32958.3, -4645.077, -0.04307711, -0.08675206, -32828.445, -32828.445, 0.0000001100893, 9.998362, 10.00056 
4.4504204e+2, 1.2429282e+2, -1533947.9, -1639760.4, -83525.79, -0.06477629, -0.04654433, -1487982.3, 233952.14, 0.000008277144, 10.001309, 9.999874 
4.4504264e+2, 1.3429484e+2, -1437072.5, -1519487.4, 94197.87, 0.13471152, 0.1358277, -1375463.1, 248451.48, 0.0000015575915, 10.001174, 10.00011 
4.4503805e+2, 1.4429405e+2, -1422386.1, -1552035.4, -7816.211, -0.14414187, 0.08754679, -1421916.5, 104005.42, 0.000000013935479, 10.001004, 9.999286 
4.4503585e+2, 1.5429258e+2, -1370838.0, -1479704.4, -29624.076, 0.014195875, 0.01200979, -1363299.0, 64636.95, 0.0, 10.000702, 9.999253 
4.450329e+2, 1.6429171e+2, -1289310.5, -1365236.4, -5242.091, 0.08535239, -0.010438112, -1288950.3, 40994.547, 0.0, 10.0004835, 9.999472 
4.450285e+2, 1.7429166e+2, -1203175.8, -1268055.4, 6238.456, -0.017299669, 0.0302422, -1202581.4, 29364.832, 0.0, 10.000382, 9.999515 
4.4502464e+2, 1.842914e+2, -1108747.9, -1160126.3, 1213.3782, -0.055923592, 0.050213877, -1108719.3, 25229.135, 0.0, 10.000307, 9.999618 
4.4502163e+2, 1.9429086e+2, -1012760.4, -1060807.8, -5917.797, 0.008105075, 0.028139733, -1012042.25, 23909.512, 0.0, 10.000283, 9.9996395 
4.4501868e+2, 2.0429009e+2, -960733.2, -1063085.4, 8843.048, 0.05593293, 0.02003101, -959974.75, -22015.81, 0.0, 10.000304, 9.99894 
4.4501576e+2, 2.1428901e+2, -854329.06, -965157.25, 7296.5386, 0.07555439, 0.018743668, -853850.75, -13880.022, 0.0, 10.00038, 9.998904 
4.4501263e+2, 2.2428806e+2, -757100.1, -829130.06, 31378.613, 0.05180665, 0.017934032, -745348.0, -3367.6787, 0.0, 10.000209, 9.999248 
4.4500938e+2, 2.3428729e+2, -727166.75, -759260.56, 36779.836, -0.026154675, 0.0077882768, -703085.6, -59099.03, 0.0, 9.99972, 9.99929 
4.450065e+2, 2.4428672e+2, -634819.3, -650963.2, 20873.047, -0.037653383, 0.017538907, -620511.75, -74520.586, 0.0, 9.999623, 9.999408 
4.450042e+2, 2.5428635e+2, -473469.7, -518860.25, 18906.68, 0.033396564, 0.03493834, -466626.22, -18632.307, 0.0, 10.000043, 9.999439 
4.4500163e+2, 2.642852e+2, -409128.22, -487701.4, 43415.203, 0.061112467, -0.0014734856, -389863.0, -39858.23, 0.0, 10.0000305, 9.998987 
4.4499883e+2, 2.7428317e+2, -395170.6, -432182.5, 66344.055, 0.04146431, -0.10567272, -344799.8, -92775.266, 0.0, 9.99946, 9.99897 
4.4499606e+2, 2.8428274e+2, -318879.28, -293956.25, 61969.67, 0.040894296, -0.06525067, -243207.58, -89178.29, 0.0, 9.999093, 9.999424 
4.4499305e+2, 2.9428408e+2, -233576.5, -195122.6, 56424.293, 0.043656725, 0.115239374, -154739.34, -98721.695, 0.0, 9.998977, 9.999485 
4.4498774e+2, 3.042823e+2, -168701.4, -150317.95, -2727.6343, -0.10686904, -0.003736727, -149921.77, -149921.77, 0.00000000000009396187, 9.999138, 9.999383 
4.4498342e+2, 3.1428173e+2, -52800.816, -15455.505, 22105.21, -0.06528161, -0.0024874152, -5191.879, -5191.879, 0.00000013361628, 9.999592, 10.00009 
4.5504272e+2, 1.2429739e+2, -1587919.0, -1753290.3, -105853.13, -0.1309463, -0.00019105412, -1536284.9, 185603.78, 0.0000061456926, 10.001317, 9.999091 
4.5504382e+2, 1.3429844e+2, -1488684.0, -1627082.4, 91261.99, 0.13411787, 0.16210867, -1443352.5, 180528.63, 0.0000010596042, 10.001173, 9.999373 
4.550393e+2, 1.4429703e+2, -1421245.3, -1548257.6, -17997.676, -0.12153362, 0.088026024, -1418744.1, 107151.42, 0.000000007555667, 10.0009985, 9.999313 
4.5503652e+2, 1.5429533e+2, -1363859.0, -1465727.4, -39482.977, 0.009507126, -0.021907488, -1350347.9, 77561.99, 0.0, 10.000705, 9.999348 
4.5503336e+2, 1.6429469e+2, -1269218.5, -1324921.8, -10526.034, 0.080541305, -0.03599328, -1267295.8, 62619.348, 0.0, 10.00049, 9.999745 
4.5502922e+2, 1.7429554e+2, -1184028.8, -1227377.4, 3131.9436, 0.01329136, 0.06684135, -1183803.6, 48104.43, 0.0, 10.000379, 9.999795 
4.550252e+2, 1.8429567e+2, -1117889.1, -1177244.4, -279.45395, -0.029748349, 0.11435029, -1117887.9, 16019.54, 0.0, 10.0003, 9.999503 
4.5502165e+2, 1.9429483e+2, -1023435.94, -1082019.9, -6125.878, -0.020053314, 0.07613613, -1022802.25, 13112.682, 0.0, 10.000279, 9.999495 
4.550184e+2, 2.0429368e+2, -965999.9, -1072565.1, 10601.975, -0.0016514993, 0.04310362, -964955.3, -27029.807, 0.0, 10.000298, 9.9988785 
4.550156e+2, 2.142922e+2, -858687.7, -973041.25, 11054.917, 0.02160022, 0.004781192, -857628.8, -17689.047, 0.0, 10.000374, 9.998852 
4.5501283e+2, 2.242912e+2, -750596.7, -814167.94, 13796.118, 0.0486028, -0.0029308626, -747731.8, -5782.405, 0.0, 10.000202, 9.999353 
4.5501018e+2, 2.3429085e+2, -719420.5, -742415.5, 18957.75, 0.0823618, 0.01782809, -708746.2, -64793.633, 0.0, 9.999717, 9.999408 
4.5500717e+2, 2.4429037e+2, -635452.0, -651203.0, 33612.332, 0.063656196, 0.029437354, -608804.9, -62847.75, 0.0, 9.999619, 9.999409 
4.5500365e+2, 2.542897e+2, -475129.88, -519471.16, 35291.668, -0.02521941, 0.013677974, -455622.7, -7659.2715, 0.0, 10.000031, 9.999441 
4.5500052e+2, 2.6428893e+2, -372805.0, -410167.22, 23976.674, -0.053323224, -0.006826868, -361090.97, -11121.315, 0.0, 10.000021, 9.999524 
4.5499793e+2, 2.7428827e+2, -355635.03, -349507.88, 45991.2, 0.0036906519, -0.03242361, -306478.34, -54503.902, 0.0, 9.999457, 9.999539 
4.5499521e+2, 2.8428778e+2, -323706.5, -302412.0, 55351.863, 0.044199087, -0.02623536, -256692.66, -102713.93, 0.0, 9.999087, 9.999369 
4.5499203e+2, 2.9428717e+2, -239640.45, -205007.84, 52696.344, 0.044451118, -0.027541999, -166855.61, -110870.16, 0.0, 9.998965, 9.999423 
4.549866e+2, 3.0428603e+2, -165369.72, -140754.1, 13142.1045, -0.13506095, -0.085390754, -135056.44, -135056.44, 0.00000000000087855477, 9.999127, 9.999453 
4.5498234e+2, 3.142886e+2, -82617.68, -74820.89, 30712.434, -0.13607398, 0.22503127, -47760.426, -47760.426, 0.00000014519496, 9.999582, 9.999685 
4.6504322e+2, 1.2430131e+2, -1745068.5, -1861396.1, -149028.44, -0.16684581, 0.033572145, -1643255.8, 78594.04, 0.000004581255, 10.000383, 9.998797 
4.65045e+2, 1.3430154e+2, -1521037.1, -1666932.3, 101461.555, 0.14225109, 0.13468604, -1469021.5, 154830.11, 0.0000007444035, 10.001056, 9.999157 
4.650407e+2, 1.4430003e+2, -1360855.8, -1498354.0, -528.9434, -0.095059805, 0.05541615, -1360853.8, 165013.53, 0.0000000034677494, 10.001325, 9.999498 
4.6503738e+2, 1.5429918e+2, -1309245.5, -1414701.1, -16841.371, 0.012443309, 0.008539806, -1306621.3, 121251.33, 0.0, 10.000974, 9.999568 
4.6503383e+2, 1.6429879e+2, -1250915.9, -1322864.0, 11647.13, 0.07412129, 0.007633364, -1249077.5, 80797.67, 0.0, 10.000646, 9.999684 
4.6502963e+2, 1.7429903e+2, -1189771.6, -1239340.0, -3090.7842, 0.016841926, 0.057422813, -1189579.6, 42294.105, 0.0, 10.000379, 9.999713 
4.6502554e+2, 1.8429895e+2, -1119444.6, -1188145.9, -7986.306, -0.027955303, 0.09359372, -1118528.4, 15347.033, 0.0, 10.000333, 9.999413 
4.650219e+2, 1.9429846e+2, -984475.9, -1073049.5, -9416.983, -0.03558812, 0.100372925, -983485.75, 52395.297, 0.0, 10.00059, 9.999406 
4.6501866e+2, 2.0429751e+2, -905150.25, -1014861.5, 12984.681, -0.021820266, 0.07977022, -903634.44, 34255.496, 0.0, 10.000595, 9.99913 
4.6501577e+2, 2.14296e+2, -856040.94, -940913.2, 35446.51, 0.011025193, 0.012385715, -843184.44, -3281.6196, 0.0, 10.00026, 9.999126 
4.6501288e+2, 2.2429506e+2, -781446.4, -830394.3, 41567.746, 0.04520175, -0.0035381578, -757682.9, -15771.45, 0.0, 9.999994, 9.999343 
4.6500993e+2, 2.3429488e+2, -707921.4, -739723.25, 34138.98, 0.08292482, 0.0358983, -686161.9, -42247.81, 0.0, 9.999808, 9.999381 
4.6500677e+2, 2.4429442e+2, -631388.94, -643757.1, 61929.324, 0.06336506, 0.049981568, -575335.7, -29416.879, 0.0, 9.999623, 9.999456 
4.6500328e+2, 2.5429362e+2, -556348.5, -553323.8, 67516.055, -0.033333387, 0.016242055, -487303.16, -39376.863, 0.0, 9.99945, 9.999489 
4.6500006e+2, 2.6429313e+2, -445886.13, -412117.0, 37962.926, -0.06959205, 0.0053715184, -387453.13, -37523.37, 0.0, 9.999376, 9.999822 
4.6499714e+2, 2.7429318e+2, -338110.2, -304796.47, 37642.055, -0.02051677, 0.02155732, -280290.53, -28363.492, 0.0, 9.999424, 9.999862 
4.6499428e+2, 2.842928e+2, -280685.94, -297850.5, 42666.15, 0.02619098, 0.025793152, -245747.47, -91817.055, 0.0, 9.999452, 9.999225 
4.6499133e+2, 2.9429153e+2, -179562.36, -194649.67, 33341.88, 0.052023835, -0.024298234, -152921.4, -96977.445, 0.0, 9.999455, 9.999259 
4.6498585e+2, 3.0429062e+2, -120514.16, -77741.54, 2419.6284, -0.1301608, -0.06915255, -77605.09, -77605.09, 0.00000000000042122027, 9.999254, 9.9998255 
4.6498123e+2, 3.14293e+2, -214822.88, -133551.22, 31528.633, -0.15905046, 0.18714929, -122754.33, -122754.33, 0.00000014428599, 9.99865, 9.999731 
4.7504342e+2, 1.24304585e+2, -1731411.4, -1833373.1, -142331.98, -0.18635187, 0.0551752, -1631205.5, 90612.4, 0.0000033199578, 10.000382, 9.998991 
4.750462e+2, 1.3430414e+2, -1498608.8, -1622959.3, 130316.98, 0.15018058, 0.05737388, -1416394.8, 207431.2, 0.00000048107097, 10.001064, 9.999456 
4.7504228e+2, 1.4430311e+2, -1335200.4, -1448294.6, -11411.932, -0.07317696, -0.006178646, -1334060.4, 191776.47, 0.000000000765976, 10.001337, 9.999838 
4.7503844e+2, 1.5430413e+2, -1286072.9, -1365266.9, -29797.096, 0.020187829, 0.10181322, -1276113.9, 151710.38, 0.0, 10.000968, 9.99991 
4.750344e+2, 1.6430391e+2, -1279425.4, -1381043.4, 867.9773, 0.062917896, 0.119075425, -1279417.9, 50407.156, 0.0, 10.000641, 9.999287 
4.750297e+2, 1.7430206e+2, -1221013.4, -1304226.1, -12175.07, -0.014702202, 0.0035631652, -1219268.6, 12574.533, 0.0, 10.00038, 9.999267 
4.7502556e+2, 1.8430124e+2, -1122683.1, -1195490.6, -387.7465, -0.058834355, -0.008957534, -1122681.1, 11171.326, 0.0, 10.000335, 9.999362 
4.7502246e+2, 1.9430175e+2, -985964.2, -1076202.3, 1251.6324, -0.040927652, 0.10019951, -985946.8, 49903.313, 0.0, 10.00059, 9.999385 
4.750194e+2, 2.0430155e+2, -868251.5, -935762.2, 1396.848, -0.007912875, 0.12923904, -868222.6, 69629.664, 0.0, 10.000584, 9.999679 
4.7501633e+2, 2.1430042e+2, -815190.5, -854965.0, 23439.686, 0.038436938, 0.041475307, -804338.2, 35521.766, 0.0, 10.000256, 9.99972 
4.7501278e+2, 2.2429964e+2, -790885.0, -848190.9, 33143.953, 0.03539116, 0.015515032, -775725.7, -33859.125, 0.0, 9.999987, 9.999225 
4.7500864e+2, 2.3429935e+2, -720593.3, -764405.9, 27816.271, -0.028239155, 0.060451582, -707092.94, -63221.695, 0.0, 9.999801, 9.999215 
4.7500533e+2, 2.4429888e+2, -626627.0, -632257.3, 54512.297, -0.042564273, 0.07833011, -574857.2, -28980.713, 0.0, 9.999616, 9.999539 
4.7500315e+2, 2.5429815e+2, -549714.0, -539357.5, 61531.69, 0.004015354, 0.044493876, -482786.56, -34904.125, 0.0, 9.999449, 9.999586 
4.750002e+2, 2.6429778e+2, -442250.63, -403964.53, 38492.094, 0.007447669, 0.036327694, -380118.1, -30232.986, 0.0, 9.999373, 9.999879 
4.749964e+2, 2.7429795e+2, -334949.53, -295595.06, 39953.37, -0.03681655, 0.05505772, -270736.2, -18853.559, 0.0, 9.999413, 9.99993 
4.749933e+2, 2.8429776e+2, -298499.34, -332605.4, 42053.965, -0.018208493, 0.090121605, -270172.4, -116287.74, 0.0, 9.999442, 9.998991 
4.7499087e+2, 2.9429713e+2, -197666.17, -231407.48, 35737.21, 0.060435843, 0.12513907, -175017.63, -119124.31, 0.0, 9.999453, 9.999008 
4.7498542e+2, 3.0429602e+2, -74330.664, 20420.988, -18832.414, -0.09685772, 0.043372925, 24026.813, 24026.813, 0.0, 9.999246, 10.000504 
4.7498006e+2, 3.1429502e+2, -182008.19, -60500.473, 887.37225, -0.14578146, -0.11057719, -60493.992, -60493.992, 0.00000012581201, 9.998631, 10.000241 
4.8504415e+2, 1.2430783e+2, -1693701.4, -1784070.0, -124473.48, -0.15592182, 0.03955382, -1606464.9, 115321.26, 0.0000022837717, 10.000511, 9.999265 
4.850466e+2, 1.3430767e+2, -1600686.9, -1633032.9, 165218.58, 0.13377456, 0.03473208, -1450851.6, 172938.55, 0.0000002759338, 10.000193, 9.999808 
4.8504278e+2, 1.4430691e+2, -1482704.4, -1517222.6, 13113.348, -0.10472019, -0.020694053, -1478287.8, 47510.336, 0.000000000009128432, 10.000317, 9.999856 
4.8503903e+2, 1.543081e+2, -1297692.3, -1371844.1, -34294.074, -0.014891052, 0.10283738, -1284263.8, 143521.31, 0.0, 10.000892, 9.999903 
4.8503497e+2, 1.6430786e+2, -1220401.6, -1356647.3, -16335.352, 0.03498209, 0.12234021, -1218470.5, 111315.63, 0.0, 10.001065, 9.999249 
4.850302e+2, 1.7430583e+2, -1167680.3, -1283238.6, -1440.3662, -0.01833476, -0.007528325, -1167662.3, 64143.14, 0.0, 10.000766, 9.999226 
4.8502612e+2, 1.8430477e+2, -1123265.5, -1208592.5, 31224.6, -0.042055205, -0.034320693, -1113059.9, 20756.879, 0.0, 10.000384, 9.9992485 
4.85023e+2, 1.9430508e+2, -1096595.8, -1142944.3, 24520.078, -0.013840265, 0.06448028, -1086031.6, -50214.566, 0.0, 9.9998865, 9.999267 
4.850197e+2, 2.0430504e+2, -985401.8, -965809.3, 12303.409, 0.012455334, 0.10629123, -959878.5, -22060.602, 0.0, 9.999664, 9.999918 
4.8501626e+2, 2.1430461e+2, -863752.1, -848512.94, 9438.112, 0.031300876, 0.060946874, -844002.56, -4183.4077, 0.0, 9.999793, 9.999989 
4.850125e+2, 2.2430411e+2, -793663.56, -852503.06, 15550.96, 0.011213805, 0.050653324, -789806.4, -47983.1, 0.0, 9.999982, 9.999196 
4.8500836e+2, 2.3430358e+2, -658490.3, -740679.9, 16824.803, -0.058298875, 0.07629102, -655179.56, -11348.902, 0.0, 10.000255, 9.99916 
4.8500493e+2, 2.4430297e+2, -551640.9, -590177.5, 31563.133, -0.067327216, 0.08194334, -533929.5, 11907.547, 0.0, 10.000105, 9.999594 
4.850025e+2, 2.543023e+2, -552845.75, -533403.4, 33032.06, -0.00097494444, 0.04607567, -508691.72, -60849.582, 0.0, 9.999395, 9.999651 
4.8499948e+2, 2.64302e+2, -493272.53, -436964.97, 23959.344, 0.0121644195, 0.04160797, -428150.03, -78305.414, 0.0, 9.999061, 9.999803 
4.8499572e+2, 2.743021e+2, -370355.03, -323245.03, 14548.453, -0.035561457, 0.06701618, -319114.38, -67271.05, 0.0, 9.999215, 9.999837 
4.8499253e+2, 2.8430185e+2, -331766.88, -326748.13, 16267.074, -0.023278428, 0.09213203, -312798.03, -158951.89, 0.0, 9.99912, 9.9991865 
4.8498982e+2, 2.9430124e+2, -291136.53, -251608.17, 42608.62, 0.04608383, 0.10997088, -224403.03, -168549.4, 0.0, 9.998704, 9.9992285 
4.8498452e+2, 3.0430076e+2, -107739.29, 11379.301, 2739.3193, -0.097296715, 0.0734551, 11442.262, 11442.262, 0.0, 9.998987, 10.000566 
4.849797e+2, 3.1429896e+2, 26529.969, 45239.48, -42251.348, -0.11245458, -0.1666228, 79159.29, 79159.29, 0.00000009052117, 10.000039, 10.000292 
4.9504536e+2, 1.2431105e+2, -1670151.9, -1737441.8, -151581.45, -0.093547195, -0.011597728, -1548526.4, 173228.27, 0.0000015131136, 10.000521, 9.999581 
4.950464e+2, 1.3431206e+2, -1574596.9, -1578070.8, 154885.78, 0.09199104, 0.06538931, -1421438.3, 202306.75, 0.00000014199817, 10.000188, 10.000188 
4.9504226e+2, 1.443114e+2, -1502766.6, -1558922.1, 32853.27, -0.19221693, 0.012047731, -1487627.5, 38123.96, 0.0, 10.000315, 9.999571 
4.9503908e+2, 1.5431106e+2, -1320533.8, -1419818.9, -11498.271, -0.10235768, 0.016535858, -1319219.5, 108534.88, 0.0, 10.000895, 9.999572 
4.950355e+2, 1.6431068e+2, -1196966.1, -1310250.9, -26769.543, -0.020149695, 0.024382971, -1190959.0, 138798.66, 0.0, 10.001074, 9.999564 
4.950312e+2, 1.743103e+2, -1142384.9, -1230756.5, -12052.148, 0.0038652583, 0.022893911, -1140770.6, 90990.266, 0.0, 10.000766, 9.999585 
4.9502712e+2, 1.8430957e+2, -1136934.3, -1235547.6, 12497.117, 0.019417461, 0.01656065, -1135375.1, -1606.426, 0.0, 10.000379, 9.999067 
4.950234e+2, 1.9430843e+2, -1111744.4, -1174737.0, 6345.1255, 0.039649155, -0.0065326737, -1111111.6, -75329.625, 0.0, 9.999887, 9.999048 
4.9501958e+2, 2.0430802e+2, -990096.94, -974548.06, 14835.02, 0.032214783, 0.011278387, -965573.8, -27786.926, 0.0, 9.99966, 9.999861 
4.9501562e+2, 2.1430857e+2, -867327.94, -855146.94, 15508.191, -0.014023082, 0.06940808, -844576.1, -4795.618, 0.0, 9.999788, 9.999945 
4.9501207e+2, 2.2430849e+2, -792003.56, -847470.4, 24667.94, -0.031902045, 0.100761555, -782620.3, -40838.684, 0.0, 9.999974, 9.999234 
4.950091e+2, 2.3430757e+2, -655420.2, -734264.25, 27768.072, -0.011230762, 0.084560804, -646622.3, -2830.2058, 0.0, 10.000254, 9.999205 
4.9500558e+2, 2.4430671e+2, -550518.4, -586670.0, 6517.259, -0.0154423, 0.061765842, -549379.4, -3578.8909, 0.0, 10.0001, 9.9996195 
4.950014e+2, 2.5430602e+2, -551786.75, -529238.44, 6812.3716, -0.053220104, 0.019798748, -527340.06, -79534.46, 0.0, 9.999388, 9.999683 
4.949978e+2, 2.6430562e+2, -509574.88, -469435.47, 26842.068, -0.060575247, 0.020088693, -455989.66, -106181.11, 0.0, 9.999055, 9.999583 
4.9499506e+2, 2.7430564e+2, -387844.63, -359091.75, 21418.238, -0.022409327, 0.05697191, -347672.4, -95863.14, 0.0, 9.999212, 9.999592 
4.9499196e+2, 2.8430507e+2, -290105.7, -238444.8, 1140.001, 0.0058008945, 0.032118347, -238419.66, -84604.75, 0.0, 9.999112, 9.999797 
4.9498808e+2, 2.9430395e+2, -244157.38, -151568.23, 29061.55, 0.0028858439, -0.06769375, -143202.39, -87377.58, 0.0, 9.998694, 9.99992 
4.9498314e+2, 3.0430484e+2, -147900.02, -70099.82, 39597.883, -0.13630179, 0.022887236, -53491.27, -53491.27, 0.0, 9.99898, 10.000009 
4.9498016e+2, 3.1430483e+2, -3966.2996, -15123.443, -9985.818, -0.07291514, 0.026316073, 1893.5306, 1893.5306, 0.000000050936965, 10.000028, 9.999881 
5.050459e+2, 1.2431497e+2, -1712462.5, -1751383.1, -145865.08, -0.07163081, -0.009578765, -1584765.4, 136950.89, 0.0000009949754, 10.000207, 9.999635 
5.0504667e+2, 1.343161e+2, -1477922.4, -1521345.1, 152483.55, 0.07267393, 0.07007068, -1345612.3, 278091.7, 0.000000065122016, 10.000807, 10.00028 
5.050427e+2, 1.4431542e+2, -1418926.1, -1523876.0, 24419.096, -0.20754926, 0.01149162, -1413522.6, 112187.47, 0.0, 10.000914, 9.999523 
5.050397e+2, 1.5431465e+2, -1404596.4, -1467858.8, -4415.913, -0.10111408, -0.019418823, -1404289.6, 23428.28, 0.0, 10.000348, 9.999507 
5.050361e+2, 1.6431428e+2, -1350898.4, -1395250.8, -26569.738, -0.012749377, -0.004084342, -1338466.3, -8744.009, 0.0, 10.000062, 9.99947 
5.0503165e+2, 1.7431445e+2, -1243538.8, -1290166.5, -47346.1, 0.0038025724, 0.05958953, -1214077.8, 17643.883, 0.0, 10.000115, 9.999493 
5.0502723e+2, 1.843139e+2, -1149268.5, -1218293.1, -27044.111, 0.0051747584, 0.06683865, -1139934.8, -6207.354, 0.0, 10.000193, 9.999275 
5.050231e+2, 1.9431245e+2, -1031672.06, -1110220.3, -850.4774, 0.0009597754, -0.009427925, -1031662.8, 4077.9587, 0.0, 10.000325, 9.99928 
5.050192e+2, 2.0431177e+2, -920191.4, -981133.0, 20867.277, -0.0060656318, -0.013914473, -913731.0, 24016.904, 0.0, 10.000311, 9.999501 
5.050155e+2, 2.1431214e+2, -851266.2, -892565.06, -7203.8066, -0.0224023, 0.06365273, -850045.7, -10299.399, 0.0, 10.0000925, 9.999542 
5.0501204e+2, 2.2431202e+2, -805044.25, -820937.25, -4209.8433, -0.022119224, 0.1016984, -803998.0, -62249.695, 0.0, 9.9997425, 9.99953 
5.0500894e+2, 2.3431134e+2, -781903.06, -756180.4, 20020.504, 0.0020439064, 0.07413357, -745246.0, -101491.305, 0.0, 9.999217, 9.999554 
5.050053e+2, 2.4431066e+2, -688891.7, -645447.6, 13637.586, -0.0038052197, 0.047571875, -641521.44, -95760.92, 0.0, 9.999117, 9.999689 
5.050009e+2, 2.543101e+2, -520560.06, -509137.03, 14298.2295, -0.050984167, 0.012874961, -499451.78, -51686.79, 0.0, 9.99958, 9.999729 
5.049971e+2, 2.643098e+2, -418146.13, -430628.3, 43679.266, -0.072958425, 0.018549703, -380264.3, -30496.525, 0.0, 9.999706, 9.999535 
5.0499403e+2, 2.7430972e+2, -366645.44, -355295.9, 49451.777, -0.0577189, 0.05404989, -311194.34, -59424.86, 0.0, 9.999387, 9.999532 
5.049907e+2, 2.843091e+2, -266254.4, -211374.83, 16801.664, -0.033793002, 0.021124791, -206639.5, -52863.863, 0.0, 9.999208, 9.999935 
5.049869e+2, 2.9430804e+2, -161912.08, -95795.375, 3992.7869, -0.013126781, -0.085436985, -95555.125, -39770.773, 0.0, 9.999189, 10.000066 
5.049824e+2, 3.0430946e+2, -152101.67, -100966.0, 26047.355, -0.107718475, 0.061244134, -90034.81, -90034.81, 0.0, 9.999076, 9.999751 
5.049802e+2, 3.1430924e+2, -179264.48, -88371.65, -8726.002, -0.0076593226, 0.07053549, -87541.51, -87541.51, 0.000000020855737, 9.998775, 9.999983 
5.150458e+2, 1.2431954e+2, -1725949.9, -1779050.4, -140567.53, -0.10235792, 0.044066582, -1609447.1, 112224.414, 0.00000067894854, 10.000203, 9.999447 
5.1504743e+2, 1.3431984e+2, -1487684.9, -1544098.6, 177402.97, 0.064903475, 0.05405901, -1336260.3, 287406.22, 0.000000029496794, 10.000815, 10.000121 
5.150441e+2, 1.44319e+2, -1407086.0, -1501709.1, 4605.625, -0.16566809, -0.01626442, -1406862.4, 118811.14, 0.0, 10.000923, 9.999671 
5.150409e+2, 1.5431884e+2, -1392567.6, -1442670.0, -25669.719, -0.015582266, -0.006424193, -1381751.0, 45924.77, 0.0, 10.000346, 9.9996805 
5.150369e+2, 1.6431859e+2, -1384722.1, -1465258.3, -27183.346, 0.053278137, 0.036113434, -1376405.6, -46725.438, 0.0, 10.00006, 9.99899 
5.150315e+2, 1.7431827e+2, -1279401.6, -1366262.3, -44600.746, -0.025267718, 0.103071116, -1260579.1, -28891.508, 0.0, 10.000122, 9.998967 
5.150265e+2, 1.843178e+2, -1106798.9, -1131331.5, -23181.084, -0.0933207, 0.11832882, -1092838.8, 40853.62, 0.0, 10.000197, 9.99987 
5.150221e+2, 1.9431715e+2, -984513.4, -1011829.2, 4873.921, -0.13229884, 0.054540563, -983669.75, 52023.754, 0.0, 10.000322, 9.999958 
5.150185e+2, 2.0431632e+2, -968704.1, -1079205.3, 12825.543, -0.10553153, 0.029570177, -967235.0, -29533.902, 0.0, 10.000299, 9.998835 
5.150158e+2, 2.1431528e+2, -905149.94, -1004275.1, -14581.101, 0.0015996452, 0.04312799, -903049.56, -63332.945, 0.0, 10.000091, 9.998776 
5.150123e+2, 2.2431475e+2, -767051.4, -740647.75, -23959.012, 0.035327405, 0.053171296, -726494.06, 15229.317, 0.0, 9.999737, 10.000084 
5.150079e+2, 2.3431489e+2, -736836.5, -661441.8, 1128.194, -0.022720098, 0.04414306, -661424.94, -17706.332, 0.0, 9.999211, 10.000207 
5.150041e+2, 2.4431482e+2, -682326.8, -630577.1, 27793.236, -0.038366985, 0.037555914, -618478.6, -72761.266, 0.0, 9.999111, 9.999794 
5.15001e+2, 2.5431454e+2, -516685.22, -500390.53, 32683.549, 0.0007341156, 0.025220895, -474854.16, -27133.865, 0.0, 9.999577, 9.999791 
5.149972e+2, 2.6431435e+2, -411305.75, -414827.56, 33178.95, -0.029278558, 0.03775397, -379841.0, -30118.736, 0.0, 9.9997, 9.999646 
5.1499254e+2, 2.7431428e+2, -358695.63, -337784.3, 38623.207, -0.1462428, 0.058734592, -308226.56, -56502.477, 0.0, 9.999383, 9.999655 
5.149888e+2, 2.843139e+2, -291077.7, -261269.6, 14832.931, -0.14792794, 0.058341354, -255146.36, -101417.78, 0.0, 9.999202, 9.999596 
5.149861e+2, 2.9431352e+2, -190508.97, -153177.08, 5170.9355, -0.009610877, 0.055158675, -152474.08, -96741.5, 0.0, 9.999181, 9.999676 
5.149824e+2, 3.0431458e+2, -151463.17, -96713.06, 15121.288, -0.018436924, 0.18793382, -92814.375, -92814.375, 0.0, 9.9990635, 9.999786 
5.149798e+2, 3.143121e+2, -139535.0, -1992.8334, -24990.389, 0.07545552, -0.034200218, 2406.9893, 2406.9893, 0.0000000053166334, 9.998758, 10.000584 
5.250461e+2, 1.24323666e+2, -1678236.9, -1761805.9, -150854.8, -0.116380416, 0.06179453, -1563486.6, 158142.98, 0.0000005002885, 10.00056, 9.999391 
5.250479e+2, 1.3432315e+2, -1574210.3, -1592540.1, 182096.95, 0.06135716, -0.0030863348, -1401047.8, 222584.05, 0.000000016983103, 10.000249, 10.000062 
5.250448e+2, 1.4432225e+2, -1515700.4, -1565476.9, -4831.193, -0.14712697, -0.07297751, -1515235.8, 10404.012, 0.0, 10.000226, 9.99957 
5.250413e+2, 1.543227e+2, -1385092.9, -1450499.5, -58229.594, -0.01605527, 0.01008187, -1351011.5, 76626.04, 0.0, 10.000447, 9.9995775 
5.2503705e+2, 1.643226e+2, -1301837.9, -1421505.9, -40890.055, 0.035612494, 0.070864715, -1289200.5, 40440.59, 0.0, 10.000611, 9.999026 
5.250317e+2, 1.7432179e+2, -1184645.4, -1316220.0, -17759.508, -0.051859822, 0.08469454, -1182290.4, 49361.89, 0.0, 10.000751, 9.999009 
5.2502674e+2, 1.8432112e+2, -1050348.3, -1105619.9, -5094.806, -0.106474854, 0.07910922, -1049882.5, 83775.98, 0.0, 10.00059, 9.999859 
5.250225e+2, 1.9432071e+2, -1029464.06, -1035014.6, -31276.191, -0.10825644, 0.038851164, -1000840.25, 34817.418, 0.0, 10.00002, 9.999945 
5.250188e+2, 2.0432001e+2, -1052817.8, -1116422.9, -19915.615, -0.07790451, 0.027512725, -1047096.56, -109432.42, 0.0, 9.999707, 9.998863 
5.2501565e+2, 2.1431902e+2, -954241.56, -1023968.6, 11050.286, -0.009618018, 0.042823717, -952532.25, -112852.58, 0.0, 9.999738, 9.99881 
5.2501184e+2, 2.2431852e+2, -759317.94, -729332.8, 12073.441, 0.0066625588, 0.05069975, -725075.9, 16610.277, 0.0, 9.999756, 10.000153 
5.250072e+2, 2.3431864e+2, -652014.06, -612232.2, -8358.685, -0.04275721, 0.0330641, -610547.25, 33133.594, 0.0, 9.999759, 10.000281 
5.250033e+2, 2.4431859e+2, -603251.1, -594851.56, 5631.0625, -0.052859057, 0.024364654, -592026.6, -46347.215, 0.0, 9.999664, 9.999774 
5.250004e+2, 2.5431836e+2, -538699.4, -514089.63, 2479.6934, -0.0125219915, 0.019798957, -513842.28, -66160.016, 0.0, 9.99944, 9.9997635 
5.249967e+2, 2.6431826e+2, -460122.1, -436875.03, -11054.985, -0.03477698, 0.04065877, -432457.4, -82773.61, 0.0, 9.999357, 9.9996605 
5.2499205e+2, 2.7431825e+2, -348926.6, -330403.72, -14588.633, -0.13536647, 0.0683224, -322385.03, -70700.25, 0.0, 9.999439, 9.999678 
5.249882e+2, 2.8431782e+2, -267197.34, -259389.63, -31302.518, -0.14126842, 0.06582657, -231748.47, -78058.83, 0.0, 9.999409, 9.999509 
5.249851e+2, 2.9431722e+2, -192556.22, -167260.19, -22734.408, -0.033012353, 0.052370213, -153892.33, -98197.02, 0.0, 9.999224, 9.9995575 
5.249815e+2, 3.0431798e+2, -145446.7, -130994.96, -8709.262, -0.02365592, 0.17771764, -126904.27, -126904.27, 0.0, 9.999265, 9.999453 
5.249792e+2, 3.143155e+2, -12469.921, 75860.96, -88951.05, 0.09474728, -0.017026776, 131007.52, 131007.52, 0.00000000056215, 9.999559, 10.000732 
5.3504646e+2, 1.2432738e+2, -1674488.0, -1759199.4, -174623.7, -0.13618182, 0.045713443, -1537156.6, 184433.39, 0.00000041209, 10.000581, 9.9994 
5.350481e+2, 1.3432603e+2, -1572928.6, -1592446.4, 171101.11, 0.059167475, -0.10153212, -1411308.3, 212291.81, 0.000000018082496, 10.000257, 10.000061 
5.3504497e+2, 1.443251e+2, -1538189.0, -1611762.1, 1099.538, -0.15558355, -0.15815416, -1538172.5, -12563.163, 0.0, 10.000224, 9.999253 
5.3504086e+2, 1.5432627e+2, -1408676.8, -1500236.0, -49462.508, -0.10947635, 0.031672586, -1387059.6, 40543.273, 0.0, 10.000451, 9.999234 
5.3503656e+2, 1.6432635e+2, -1263695.6, -1344398.3, -36978.406, -0.07450771, 0.10274014, -1249314.5, 80289.836, 0.0, 10.000619, 9.999552 
5.3503215e+2, 1.7432502e+2, -1143244.0, -1230000.9, -11835.008, -0.07949472, 0.004169396, -1141658.5, 89957.305, 0.0, 10.000749, 9.999602 
5.3502804e+2, 1.8432388e+2, -1093957.5, -1194886.6, -25672.414, -0.039599165, -0.050254185, -1087802.8, 45822.996, 0.0, 10.000585, 9.999249 
5.350243e+2, 1.9432311e+2, -1078433.0, -1136921.1, -52398.766, 0.066092744, -0.056712452, -1047670.06, -12036.772, 0.0, 10.00002, 9.999246 
5.3501993e+2, 2.0432286e+2, -1002660.7, -1011410.3, -21061.031, 0.06969788, -0.019570455, -985524.94, -47887.906, 0.0, 9.999703, 9.999586 
5.350148e+2, 2.1432334e+2, -897526.1, -904285.7, 12930.6875, -0.06065299, 0.062291298, -887540.8, -47905.35, 0.0, 9.999729, 9.999637 
5.350104e+2, 2.2432332e+2, -789583.5, -790159.44, 11154.508, -0.11304511, 0.09281051, -778713.25, -37076.586, 0.0, 9.999747, 9.99974 
5.3500676e+2, 2.3432261e+2, -687697.9, -686324.06, -7485.2124, -0.062193163, 0.0402651, -679494.3, -35852.742, 0.0, 9.999758, 9.999774 
5.35003e+2, 2.4432196e+2, -614534.56, -616928.2, -2791.6143, -0.051492695, 0.007396082, -612694.0, -67047.336, 0.0, 9.99966, 9.999624 
5.3499895e+2, 2.5432152e+2, -547929.25, -532576.5, -5091.579, -0.09550403, -0.004299802, -531041.44, -83390.37, 0.0, 9.999436, 9.999639 
5.3499544e+2, 2.6432142e+2, -466758.13, -449388.5, -9112.937, -0.094669804, 0.025404628, -445484.75, -95832.11, 0.0, 9.9993515, 9.9995775 
5.349926e+2, 2.7432162e+2, -355147.13, -342183.06, -10559.516, -0.030998668, 0.08196491, -336274.78, -84623.0, 0.0, 9.9994335, 9.9996 
5.3498876e+2, 2.8432083e+2, -257238.75, -236366.06, -38404.977, -0.01989202, 0.042953588, -207004.67, -53345.684, 0.0, 9.999398, 9.999672 
5.3498375e+2, 2.943192e+2, -181536.7, -143667.52, -27940.95, -0.08723148, -0.09518158, -128849.84, -73177.03, 0.0, 9.99922, 9.999722 
5.3497976e+2, 3.043197e+2, -196225.4, -235051.83, 1084.2671, -0.12911181, 0.030438999, -196195.16, -196195.16, 0.0, 9.99926, 9.99874 
5.3497815e+2, 3.1431922e+2, -36453.305, 28752.016, -79103.7, 0.0365695, 0.10987721, 81708.28, 81708.28, 0.0000000000003731001, 9.999547, 10.000414 
5.450472e+2, 1.24330476e+2, -1617638.5, -1730193.3, -190016.44, -0.13450308, -0.03222432, -1475740.8, 245816.69, 0.00000036785775, 10.000967, 9.999411 
5.450486e+2, 1.3432992e+2, -1505624.9, -1562338.8, 161311.97, 0.05075577, -0.0958661, -1370196.4, 253364.14, 0.000000024396927, 10.0007305, 10.000037 
5.4504544e+2, 1.4432923e+2, -1491667.0, -1600755.0, 14256.786, -0.15210234, -0.123264216, -1489834.6, 35733.414, 0.0, 10.000593, 9.999149 
5.4504114e+2, 1.5432969e+2, -1394447.3, -1506664.8, -23039.092, -0.12990864, 0.0047956887, -1389901.4, 37667.17, 0.0, 10.000605, 9.999117 
5.450368e+2, 1.6432951e+2, -1276703.9, -1326694.3, -20824.73, -0.09838227, 0.0476274, -1269165.6, 60406.23, 0.0, 10.000427, 9.999765 
5.4503256e+2, 1.7432855e+2, -1238645.4, -1248668.1, -23644.154, -0.076154985, -0.035529222, -1219487.4, 12091.143, 0.0, 9.999979, 9.999843 
5.450283e+2, 1.8432766e+2, -1205750.6, -1259904.1, -30398.01, -0.027706996, -0.07432367, -1192118.8, -58532.38, 0.0, 9.999866, 9.999148 
5.4502434e+2, 1.9432692e+2, -1060258.9, -1142032.9, -15911.012, 0.060414944, -0.0648545, -1057272.1, -21676.596, 0.0, 10.000205, 9.999121 
5.4501975e+2, 2.0432673e+2, -923201.6, -953999.9, 15362.467, 0.05874575, -0.02415839, -916849.0, 20750.066, 0.0, 10.000167, 9.999758 
5.450145e+2, 2.1432729e+2, -897885.75, -882834.7, 630.85815, -0.06156275, 0.0442965, -882808.3, -43213.13, 0.0, 9.999632, 9.999831 
5.450101e+2, 2.2432724e+2, -829280.25, -832149.3, 1721.1853, -0.11105761, 0.07192364, -828474.2, -86877.94, 0.0, 9.999574, 9.999534 
5.450067e+2, 2.3432642e+2, -647388.5, -693160.06, 2700.2627, -0.06630534, 0.03181113, -647229.75, -3626.0085, 0.0, 10.000148, 9.999538 
5.450029e+2, 2.4432571e+2, -537593.06, -587302.94, -2061.0784, -0.05903557, 0.009577816, -537507.75, 8102.3984, 0.0, 10.000219, 9.9995575 
5.4499847e+2, 2.543253e+2, -523411.63, -526094.8, -1758.2224, -0.1027778, 0.0043692547, -522541.6, -74927.43, 0.0, 9.99963, 9.999588 
5.449948e+2, 2.64325e+2, -481493.56, -468635.28, 13940.062, -0.095084876, 0.023018489, -459713.22, -110096.08, 0.0, 9.999304, 9.999468 
5.449921e+2, 2.7432477e+2, -379625.06, -367460.75, 8872.614, -0.016595185, 0.048682302, -362785.78, -111166.05, 0.0, 9.999324, 9.99948 
5.449883e+2, 2.8432387e+2, -261675.92, -243601.81, -30221.11, -0.008133589, 0.007747617, -221095.5, -67468.055, 0.0, 9.99939, 9.999627 
5.4498297e+2, 2.9432252e+2, -148293.92, -132117.89, -38654.598, -0.09802369, -0.10075988, -100714.21, -45075.82, 0.0, 9.999471, 9.99968 
5.4497904e+2, 3.0432236e+2, -188460.5, -265832.4, 4131.4233, -0.13112794, -0.023085669, -188240.52, -188240.52, 0.0, 9.999461, 9.998431 
5.449775e+2, 3.1432182e+2, -63723.457, 6563.667, -46841.63, 0.02177316, 0.08045237, 29979.547, 29979.547, 0.000000000015387011, 9.999399, 10.000333 
5.550484e+2, 1.2433296e+2, -1612924.5, -1722847.8, -209911.14, -0.12205779, -0.1707149, -1450898.9, 270632.78, 0.0000003291145, 10.000976, 9.999458 
5.550491e+2, 1.3433486e+2, -1504139.0, -1562159.1, 153029.58, 0.02800148, 0.012597865, -1377394.0, 246118.78, 0.000000025104656, 10.000742, 10.000033 
5.550461e+2, 1.4433467e+2, -1485239.4, -1589828.8, 12448.525, -0.14684573, 0.0296929, -1483778.1, 41737.332, 0.0, 10.000603, 9.999221 
5.550422e+2, 1.5433292e+2, -1389009.0, -1495261.1, -22013.406, -0.08307123, -0.06938557, -1384628.8, 42905.387, 0.0, 10.000604, 9.999196 
5.5503786e+2, 1.6433209e+2, -1283053.8, -1339425.1, -37851.113, -0.042225458, -0.09200248, -1264046.9, 65496.42, 0.0, 10.000425, 9.99968 
5.5503285e+2, 1.7433244e+2, -1245152.8, -1262538.8, -40411.043, -0.047795467, -0.03398032, -1212510.3, 19029.77, 0.0, 9.999981, 9.999747 
5.550277e+2, 1.8433249e+2, -1177473.6, -1201521.6, -20527.938, -0.07622901, 0.006186423, -1165707.5, -32167.137, 0.0, 9.9998665, 9.999549 
5.550227e+2, 1.9433217e+2, -1030244.8, -1078527.0, -2507.1387, -0.12769116, 0.014205804, -1030115.0, 5429.478, 0.0, 10.0002, 9.999559 
5.5501825e+2, 2.0433162e+2, -950038.5, -1007707.06, -3559.5593, -0.11399628, 0.013009176, -949819.6, -12269.08, 0.0, 10.000158, 9.999393 
5.550146e+2, 2.143308e+2, -928882.8, -945345.4, -18843.98, -0.01763881, -0.012073023, -916550.75, -76991.98, 0.0, 9.999624, 9.999406 
5.550108e+2, 2.2433026e+2, -830353.44, -833247.3, 19897.385, 0.007279495, -0.012107688, -811850.5, -70285.766, 0.0, 9.999569, 9.999528 
5.550069e+2, 2.3433004e+2, -646335.0, -689752.5, 24989.48, -0.059802197, 0.0075970003, -634941.7, 8625.691, 0.0, 10.000142, 9.999564 
5.5500287e+2, 2.4432984e+2, -537204.44, -584995.5, -22170.377, -0.079791486, 0.03004071, -528503.6, 17066.297, 0.0, 10.000213, 9.999577 
5.549987e+2, 2.5432962e+2, -522370.94, -522967.6, -23471.938, -0.039142217, 0.045285553, -499195.44, -51623.746, 0.0, 9.999626, 9.999611 
5.5499464e+2, 2.64329e+2, -491695.66, -489343.0, 12479.169, -0.040722463, 0.033123873, -477984.84, -128407.445, 0.0, 9.999301, 9.999327 
5.549906e+2, 2.7432767e+2, -391500.66, -391463.22, 10853.115, -0.09795884, -0.033223484, -380628.8, -129039.95, 0.0, 9.999319, 9.999318 
5.5498666e+2, 2.843269e+2, -281889.22, -283164.28, -27672.156, -0.111346416, -0.04141903, -254847.25, -101251.99, 0.0, 9.99938, 9.99936 
5.549827e+2, 2.943271e+2, -168928.39, -172500.06, -35431.15, -0.071000524, 0.03634199, -135238.11, -79645.83, 0.0, 9.99946, 9.999407 
5.549795e+2, 3.0432594e+2, -182578.9, -250833.08, 322.97568, -0.034626223, 0.02025852, -182577.39, -182577.39, 0.0, 9.999449, 9.998541 
5.549771e+2, 3.1432304e+2, -50058.2, 35882.73, -47009.836, 0.0401136, -0.12606996, 56602.027, 56602.027, 0.0000000020600701, 9.999394, 10.000537 
5.650491e+2, 1.2433675e+2, -1713616.4, -1767609.9, -220819.94, -0.104355745, -0.15591022, -1518149.0, 203345.44, 0.00000027083397, 10.000271, 9.999489 
5.650497e+2, 1.343388e+2, -1492603.1, -1561743.8, 140296.02, 0.010568159, 0.043004606, -1382681.0, 240794.17, 0.000000017878008, 10.00084, 9.999991 
5.650468e+2, 1.443386e+2, -1436880.5, -1544299.8, -15062.36, -0.14318693, 0.05459739, -1434808.5, 90668.8, 0.0, 10.000839, 9.999419 
5.650428e+2, 1.5433654e+2, -1445445.8, -1497978.1, -41056.336, -0.05782427, -0.09524729, -1422972.5, 4524.4297, 0.0, 10.0001135, 9.999412 
5.6503826e+2, 1.6433573e+2, -1356748.9, -1380493.6, -33106.86, -0.015899222, -0.12698536, -1333450.0, -3944.22, 0.0, 9.999947, 9.999626 
5.6503314e+2, 1.7433648e+2, -1172492.4, -1236126.0, -35961.734, -0.04112328, -0.022831261, -1156293.0, 75207.78, 0.0, 10.000518, 9.999669 
5.650279e+2, 1.8433687e+2, -1059359.8, -1122852.4, -28235.486, -0.08410308, 0.04757046, -1048620.0, 84878.6, 0.0, 10.000584, 9.999743 
5.650226e+2, 1.9433685e+2, -1044156.06, -1061412.8, -28662.424, -0.14803918, 0.0652591, -1022851.4, 12647.853, 0.0, 10.000001, 9.999773 
5.6501806e+2, 2.0433618e+2, -1000613.9, -1039839.0, -24853.764, -0.13386594, 0.04323082, -988566.3, -51060.52, 0.0, 9.999845, 9.999324 
5.6501454e+2, 2.1433467e+2, -844465.2, -914326.7, -16745.947, -0.018798308, -0.04211773, -840658.56, -1138.919, 0.0, 10.000246, 9.999319 
5.650107e+2, 2.2433393e+2, -744709.6, -782693.0, 38567.652, 0.012434233, -0.06019996, -720711.2, 20815.682, 0.0, 10.000118, 9.999611 
5.650066e+2, 2.343342e+2, -761263.94, -734333.0, 47617.74, -0.06544056, -0.0032282113, -698313.44, -54788.125, 0.0, 9.999308, 9.9996605 
5.6500256e+2, 2.4433416e+2, -697718.2, -676854.56, 6749.4683, -0.07983699, 0.04032999, -674861.5, -129335.28, 0.0, 9.999175, 9.999445 
5.649988e+2, 2.5433382e+2, -487736.3, -523799.38, -8572.545, -0.011316524, 0.055407073, -485802.25, -38272.32, 0.0, 9.999938, 9.999456 
5.649946e+2, 2.6433292e+2, -364856.13, -427379.5, 14984.846, -0.022009274, 0.026909083, -361450.25, -11912.656, 0.0, 10.00017, 9.999333 
5.649897e+2, 2.7433127e+2, -335358.72, -360938.6, 24115.008, -0.13774441, -0.075924486, -320851.84, -69301.06, 0.0, 9.999694, 9.999344 
5.649855e+2, 2.8433052e+2, -281457.6, -302184.66, 9919.045, -0.16279678, -0.078547835, -277475.72, -123918.74, 0.0, 9.999467, 9.9991865 
5.649823e+2, 2.9433107e+2, -166336.78, -194323.83, 7332.5864, -0.068016015, 0.05668857, -164532.03, -108980.3, 0.0, 9.999577, 9.999202 
5.649794e+2, 3.0432943e+2, -181887.8, -217141.53, 36728.8, 0.013995834, -0.007293447, -158775.11, -158775.11, 0.0, 9.999308, 9.998841 
5.6497633e+2, 3.1432676e+2, -159347.7, 3121.8574, 136.92134, 0.06785822, -0.16768286, 3121.973, 3121.973, 0.000000017271022, 9.998556, 10.000717 
5.750496e+2, 1.243419e+2, -1713208.3, -1773032.3, -207382.8, -0.09354877, 0.009143089, -1533591.4, 187854.14, 0.00000019303324, 10.000295, 9.999442 
5.750504e+2, 1.3434172e+2, -1499348.5, -1577027.3, 162119.14, -0.0063920757, -0.00056879, -1371481.3, 251965.72, 0.000000007774616, 10.000844, 9.999886 
5.750477e+2, 1.4434108e+2, -1413730.6, -1495687.0, -41124.227, -0.14708176, -0.043575734, -1396653.5, 128799.266, 0.0, 10.000836, 9.999755 
5.750429e+2, 1.5434062e+2, -1418110.6, -1442623.9, -67915.55, -0.060118966, -0.072964534, -1361354.6, 66101.85, 0.0, 10.000118, 9.999789 
5.7503814e+2, 1.6434044e+2, -1358504.3, -1385840.0, -15428.184, -0.02482464, -0.059418596, -1351560.5, -22101.328, 0.0, 9.999952, 9.999587 
5.750334e+2, 1.7434064e+2, -1177320.1, -1246721.9, -13508.309, -0.059514944, -0.0024808852, -1174783.6, 56677.023, 0.0, 10.000519, 9.999597 
5.750288e+2, 1.843408e+2, -1060909.8, -1125111.1, -48287.324, -0.058024913, 0.050244667, -1035026.6, 98434.45, 0.0, 10.00058, 9.99973 
5.75024e+2, 1.9434097e+2, -1045251.56, -1062653.3, -50297.33, -0.007475028, 0.08806511, -1002908.06, 32551.756, 0.0, 9.999997, 9.999766 
5.750192e+2, 2.0434041e+2, -986042.0, -1008414.1, -12923.095, -0.006307257, 0.06664486, -980136.1, -42671.324, 0.0, 9.999839, 9.999542 
5.750143e+2, 2.143389e+2, -828836.75, -879948.4, -880.2405, -0.06931354, -0.044126824, -828821.56, 10656.036, 0.0, 10.000238, 9.999558 
5.750097e+2, 2.2433828e+2, -733258.25, -757332.06, 10063.826, -0.099662825, -0.07133531, -729605.4, 11877.286, 0.0, 10.000111, 9.999788 
5.7500565e+2, 2.3433883e+2, -749948.1, -709279.5, 17585.404, -0.08719076, -0.0014622014, -702730.2, -59252.62, 0.0, 9.999301, 9.999835 
5.7500196e+2, 2.4433875e+2, -718277.0, -719341.3, 30946.395, -0.06354036, 0.03993939, -687858.2, -142379.13, 0.0, 9.999173, 9.999154 
5.749986e+2, 2.5433788e+2, -511741.75, -572279.7, 21174.732, -0.025043448, 0.034932397, -505070.5, -57581.61, 0.0, 9.999931, 9.999126 
5.749945e+2, 2.6433685e+2, -355920.56, -407265.22, -467.14294, -0.043457147, 0.0050721704, -355916.3, -6418.659, 0.0, 10.000162, 9.9994755 
5.749894e+2, 2.7433556e+2, -322514.34, -332896.78, 6480.2207, -0.13960005, -0.07770083, -319402.44, -67897.04, 0.0, 9.999688, 9.999539 
5.7498497e+2, 2.8433466e+2, -286967.47, -312315.38, 11522.679, -0.1666112, -0.10214267, -282512.47, -128999.85, 0.0, 9.99946, 9.999121 
5.749816e+2, 2.943344e+2, -174801.02, -210605.4, 12854.876, -0.09870925, -0.04420035, -170663.78, -115146.66, 0.0, 9.99957, 9.999094 
5.749786e+2, 3.0433288e+2, -151837.28, -152544.9, 9283.023, 0.007703874, -0.1102537, -142901.33, -142901.33, 0.00000000021282408, 9.999298, 9.9992895 
5.749752e+2, 3.1433284e+2, -150795.72, 25478.158, -23114.291, 0.09873682, -0.051687784, 28458.674, 28458.674, 0.0000000699572, 9.998537, 10.000879 
5.850506e+2, 1.243456e+2, -1574535.1, -1695743.9, -225684.84, -0.06766739, 0.041194476, -1401459.1, 319950.06, 0.00000011738098, 10.001206, 9.999531 
5.850507e+2, 1.3434461e+2, -1622109.6, -1634052.6, 152138.11, -0.013859699, -0.053009443, -1475825.9, 147592.47, 0.0000000014227642, 9.999996, 9.9999 
5.850478e+2, 1.4434403e+2, -1554361.1, -1520528.6, -26995.719, -0.15487325, -0.10787397, -1505586.9, 19836.26, 0.0, 9.999688, 10.000136 
5.8504283e+2, 1.5434462e+2, -1318822.0, -1349823.6, -53108.992, -0.10057965, -0.07192513, -1278997.9, 148418.08, 0.0, 10.000607, 10.000192 
5.850382e+2, 1.6434489e+2, -1222267.5, -1312888.3, 767.60986, -0.060844157, -0.037733823, -1222261.0, 107153.07, 0.0, 10.000856, 9.999653 
5.850341e+2, 1.7434475e+2, -1212302.3, -1258838.8, 9758.216, -0.037415914, -0.018864535, -1210338.9, 21079.783, 0.0, 10.000259, 9.999639 
5.850296e+2, 1.8434465e+2, -1142247.1, -1167768.9, -24966.254, -0.004219559, 0.0063864626, -1126969.5, 6452.2188, 0.0, 10.000037, 9.999698 
5.850246e+2, 1.9434465e+2, -1005344.94, -1047116.7, -30815.832, 0.04102139, 0.029886533, -989004.0, 46418.254, 0.0, 10.000289, 9.999732 
5.8501947e+2, 2.0434427e+2, -919146.5, -952260.6, 10421.776, 0.02127105, 0.019748263, -916139.56, 21285.82, 0.0, 10.000196, 9.999755 
5.850141e+2, 2.1434343e+2, -894740.56, -886087.06, 20611.842, -0.08269212, -0.04687477, -869352.75, -29921.033, 0.0, 9.999676, 9.999786 
5.850093e+2, 2.2434303e+2, -825937.4, -814954.2, 16121.804, -0.12267358, -0.057738118, -803414.4, -61979.81, 0.0, 9.99953, 9.999673 
5.850053e+2, 2.3434325e+2, -676083.3, -689761.8, -1825.0923, -0.079708144, -0.008196994, -675843.94, -32411.314, 0.0, 9.999877, 9.999693 
5.850016e+2, 2.4434282e+2, -614956.75, -670925.25, 23764.387, -0.0521223, 0.0070208074, -606227.75, -60790.49, 0.0, 9.999887, 9.999144 
5.849981e+2, 2.543416e+2, -581166.1, -605025.1, 38081.766, -0.045812044, -0.03235546, -553189.06, -105739.17, 0.0, 9.999453, 9.999131 
5.849941e+2, 2.6434067e+2, -487744.84, -461716.94, 16157.77, -0.056026496, -0.057522524, -453983.94, -104526.25, 0.0, 9.99922, 9.999555 
5.849893e+2, 2.7434006e+2, -377653.8, -350899.0, 13504.062, -0.09017271, -0.081521645, -345268.13, -93808.74, 0.0, 9.999271, 9.999618 
5.8498484e+2, 2.8433925e+2, -338516.63, -352109.63, 15650.979, -0.10970319, -0.09237376, -328250.16, -174784.14, 0.0, 9.999169, 9.998988 
5.849807e+2, 2.9433835e+2, -294389.4, -285111.53, 9402.341, -0.104507625, -0.08439046, -279266.03, -223788.58, 0.0, 9.998822, 9.998941 
5.849775e+2, 3.043368e+2, -179166.39, -136737.56, 6389.1963, -0.017649991, -0.15884635, -135796.33, -135796.33, 0.000000006848287, 9.998988, 9.999545 
5.849741e+2, 3.1433794e+2, 39423.367, 106256.945, -38059.57, 0.06678522, -0.011350005, 123488.086, 123488.086, 0.00000018333391, 9.999891, 10.000781 
5.950521e+2, 1.2434798e+2, -1556299.8, -1661994.6, -271104.5, -0.0373279, -0.052772168, -1332939.8, 388444.63, 0.000000058921596, 10.001221, 9.999758 
5.950507e+2, 1.3434744e+2, -1609865.1, -1611462.4, 106511.305, -0.017078876, -0.11611465, -1504149.5, 119239.65, 0.000000000010343272, 10.000007, 10.000051 
5.9504735e+2, 1.4434743e+2, -1524553.0, -1460793.0, 1461.3179, -0.17205365, -0.14108779, -1460759.5, 64628.734, 0.0, 9.999696, 10.000543 
5.9504265e+2, 1.5434858e+2, -1289523.0, -1288996.1, -17254.068, -0.18320887, -0.0913781, -1272003.5, 155371.84, 0.0, 10.000606, 10.00061 
5.950384e+2, 1.6434911e+2, -1211645.6, -1289897.0, -19252.66, -0.13028103, -0.06078854, -1207165.4, 122204.805, 0.0, 10.000851, 9.999813 
5.950349e+2, 1.7434882e+2, -1201061.9, -1236654.8, -12280.534, 0.019449368, -0.07201745, -1197236.0, 34139.074, 0.0, 10.000262, 9.999789 
5.9503037e+2, 1.843484e+2, -1145583.8, -1174719.0, -18116.303, 0.0714706, -0.0842029, -1136904.5, -3523.9214, 0.0, 10.000037, 9.99965 
5.950244e+2, 1.9434789e+2, -1009911.56, -1056211.0, -20810.87, -0.0060309777, -0.10724237, -1001932.5, 33453.793, 0.0, 10.000287, 9.99967 
5.950189e+2, 2.0434777e+2, -906014.44, -923134.9, -8423.251, -0.054867033, -0.09613913, -902565.1, 34822.223, 0.0, 10.000189, 9.999958 
5.95014e+2, 2.1434827e+2, -880631.8, -854415.44, 1490.3801, -0.06372352, -0.051513296, -854331.0, -14948.942, 0.0, 9.999666, 10.000009 
5.9500945e+2, 2.2434822e+2, -855801.1, -875581.5, 26018.451, -0.061939478, -0.020762948, -837856.5, -96473.984, 0.0, 9.999523, 9.99926 
5.950056e+2, 2.3434748e+2, -708987.0, -756822.2, 12017.169, -0.048213515, -0.021932842, -706137.75, -62747.273, 0.0, 9.999871, 9.999235 
5.9500146e+2, 2.4434642e+2, -597260.6, -632582.44, 8675.963, -0.05125213, -0.05675744, -595244.6, -49844.06, 0.0, 9.999881, 9.999411 
5.9499717e+2, 2.5434503e+2, -558603.5, -557090.75, 22126.482, -0.07701231, -0.14604315, -535707.75, -88294.9, 0.0, 9.999449, 9.999463 
5.9499323e+2, 2.643444e+2, -487083.9, -459630.97, 15976.727, -0.06281456, -0.16016914, -452293.94, -102876.25, 0.0, 9.999215, 9.999571 
5.949895e+2, 2.743447e+2, -380075.56, -354397.3, 16883.146, 0.0020981345, -0.0905356, -346025.97, -94612.97, 0.0, 9.999264, 9.999598 
5.949851e+2, 2.843443e+2, -356532.94, -386569.5, 2783.7107, -0.00039804963, -0.051614307, -356277.13, -202859.75, 0.0, 9.999157, 9.998757 
5.949797e+2, 2.94343e+2, -312016.66, -318267.9, -4248.0547, -0.08770234, -0.058304977, -309868.25, -254436.0, 0.0, 9.998808, 9.99872 
5.94976e+2, 3.0434123e+2, -175486.5, -126498.27, 36056.25, -0.063144885, -0.14801916, -107403.23, -107403.23, 0.000000033052434, 9.998976, 9.999623 
5.949729e+2, 3.1434202e+2, 17951.674, 63489.33, 5490.6436, -0.042651985, -0.04455469, 64142.0, 64142.0, 0.00000037488923, 9.999883, 10.000492 
6.050527e+2, 1.2435155e+2, -1734279.9, -1741704.0, -189971.06, -0.033299074, -0.13194437, -1547984.6, 173362.97, 0.000000021349177, 9.999976, 9.999809 
6.0505116e+2, 1.3435172e+2, -1464407.9, -1546722.3, 165805.72, -0.025069531, -0.12204597, -1334727.6, 288618.84, 0.0, 10.001033, 9.999999 
6.05048e+2, 1.4435197e+2, -1329849.4, -1377504.0, 35861.234, -0.14866455, -0.11101385, -1310621.3, 214722.36, 0.0, 10.001081, 10.000445 
6.050433e+2, 1.5435286e+2, -1386117.9, -1346043.0, -22408.2, -0.15367833, -0.07804118, -1336020.1, 91314.164, 0.0, 9.999992, 10.000512 
6.050387e+2, 1.643533e+2, -1381766.4, -1343830.3, -40229.613, -0.11417959, -0.062449858, -1318321.3, 11008.549, 0.0, 9.999562, 10.000063 
6.0503477e+2, 1.7435318e+2, -1227890.5, -1218375.5, -25790.037, 0.000279566, -0.08415245, -1196907.8, 34423.836, 0.0, 9.999946, 10.000067 
6.050301e+2, 1.843529e+2, -1122620.0, -1148183.8, -11783.202, 0.03359269, -0.104721546, -1118017.4, 15317.657, 0.0, 10.000129, 9.999788 
6.050242e+2, 1.9435243e+2, -1031060.94, -1052367.6, -1369.9058, -0.0444798, -0.13419062, -1030973.2, 4366.9697, 0.0, 10.000081, 9.999796 
6.050188e+2, 2.043525e+2, -932106.8, -944349.06, -3374.6265, -0.07667519, -0.11057537, -931238.2, 6102.028, 0.0, 10.000046, 9.999882 
6.0501397e+2, 2.1435323e+2, -837480.4, -844525.6, -19159.912, -0.046006646, -0.02923454, -821521.94, 17811.574, 0.0, 10.000008, 9.999913 
6.0500944e+2, 2.2435315e+2, -802484.9, -838945.0, 22800.14, -0.027463304, -0.0023778023, -791522.8, -50188.16, 0.0, 9.999843, 9.999357 
6.0500544e+2, 2.3435196e+2, -751668.4, -764977.6, 50040.574, -0.02789842, -0.06021268, -707841.9, -64496.016, 0.0, 9.999526, 9.999345 
6.050012e+2, 2.4435091e+2, -664616.0, -658846.56, 57141.363, -0.040751334, -0.10376185, -604517.1, -59161.707, 0.0, 9.9993925, 9.999464 
6.0499674e+2, 2.543501e+2, -547881.94, -547381.94, 47717.406, -0.069565125, -0.13704664, -499913.84, -52551.69, 0.0, 9.999501, 9.999505 
6.049926e+2, 2.6434967e+2, -464140.8, -471626.3, 25590.45, -0.057741635, -0.12317829, -442020.84, -92654.79, 0.0, 9.999469, 9.999369 
6.0498875e+2, 2.7434966e+2, -401823.66, -389377.72, 8529.293, 0.0045002303, -0.06441422, -385042.56, -133676.03, 0.0, 9.999218, 9.99938 
6.049844e+2, 2.8434908e+2, -337607.13, -363575.66, 5780.747, 0.00647309, -0.036875203, -336378.44, -183005.7, 0.0, 9.999228, 9.998881 
6.049791e+2, 2.9434785e+2, -185167.48, -241996.95, 26451.695, -0.066043995, -0.052120436, -174760.97, -119376.11, 0.00000000003092486, 9.999611, 9.998858 
6.0497534e+2, 3.0434632e+2, -123256.4, -110935.125, 73638.836, -0.049671758, -0.11919012, -43199.67, -43199.67, 0.00000008707832, 9.999376, 9.999537 
6.0497147e+2, 3.143466e+2, -237128.17, -102764.83, 30254.186, -0.09294776, -0.055214267, -96266.836, -96266.836, 0.0000006525611, 9.99832, 10.000103 
6.1505246e+2, 1.24356374e+2, -1741865.5, -1761124.4, -151307.67, -0.05826293, -0.19455495, -1599881.1, 121417.11, 0.0000000039655865, 9.99999, 9.99967 
6.15052e+2, 1.3435742e+2, -1483507.0, -1585888.1, 205053.06, -0.042878028, -0.06932, -1323351.3, 299938.7, 0.0, 10.001031, 9.999731 
6.150496e+2, 1.4435767e+2, -1372219.1, -1465536.9, -2841.0144, -0.09375279, -0.016954994, -1372132.8, 153156.42, 0.0, 10.0010805, 9.999843 
6.150446e+2, 1.5435743e+2, -1428486.5, -1436143.8, -62586.91, -0.019239584, -0.033648375, -1369611.3, 57681.617, 0.0, 9.999999, 9.999891 
6.150392e+2, 1.6435747e+2, -1356951.4, -1293825.1, -29849.35, -0.02001198, -0.04342341, -1281946.1, 47346.79, 0.0, 9.999569, 10.000403 
6.150338e+2, 1.7435783e+2, -1198954.6, -1159211.1, -10927.739, -0.09783757, -0.05582915, -1156404.6, 74883.586, 0.0, 9.9999485, 10.000471 
6.150287e+2, 1.843581e+2, -1101088.0, -1103044.0, -13891.481, -0.121764064, -0.05642268, -1088140.1, 45145.08, 0.0, 10.000126, 10.000099 
6.15024e+2, 1.9435829e+2, -1009880.5, -1007750.94, -2473.6985, -0.079312965, -0.05280494, -1006122.56, 29161.428, 0.0, 10.000078, 10.000104 
6.150191e+2, 2.0435838e+2, -958400.25, -996765.7, -5821.256, -0.049599264, -0.025231913, -957536.44, -20252.234, 0.0, 10.000037, 9.999526 
6.150141e+2, 2.143584e+2, -866093.5, -902408.9, -20137.496, -0.034704853, 0.021445584, -857136.25, -17850.342, 0.0, 10.000002, 9.999518 
6.1500937e+2, 2.2435787e+2, -762214.56, -753464.9, 10550.319, -0.02462088, -0.00039813475, -746418.3, -5127.842, 0.0, 9.999834, 9.999949 
6.15005e+2, 2.3435669e+2, -705209.0, -667529.44, 38687.367, -0.022002442, -0.12406647, -643338.44, -39.731693, 0.0, 9.999521, 10.000015 
6.150008e+2, 2.4435624e+2, -677213.4, -684106.3, 59293.99, -0.023793893, -0.13433412, -621265.75, -75963.89, 0.0, 9.999389, 9.999293 
6.149967e+2, 2.5435683e+2, -565344.8, -582409.4, 52927.27, -0.02965818, -0.006467797, -520266.5, -72968.516, 0.0, 9.9994955, 9.999268 
6.149922e+2, 2.643565e+2, -495628.38, -535459.9, 16704.762, -0.048016172, 0.052389476, -489550.16, -140247.3, 0.0, 9.999461, 9.998935 
6.1498713e+2, 2.74355e+2, -432660.16, -452081.0, -548.1378, -0.08635974, 0.00029901922, -432644.72, -181325.1, 0.0, 9.999212, 9.998953 
6.149826e+2, 2.8435367e+2, -303892.6, -292545.66, 17765.328, -0.09171244, -0.044394713, -279569.88, -126238.195, 0.0, 9.999222, 9.999372 
6.149789e+2, 2.943529e+2, -148793.9, -164578.33, 42782.824, -0.048958085, -0.069283456, -113181.445, -57846.063, 0.0000000010306047, 9.999603, 9.999394 
6.1497533e+2, 3.0435207e+2, -146025.88, -155346.34, 36442.965, 0.013115033, -0.07873587, -113946.39, -113946.39, 0.00000016756015, 9.999364, 9.999238 
6.1496985e+2, 3.143519e+2, -277685.28, -179672.3, -1168.7549, -0.09362429, -0.024639372, -179658.36, -179658.36, 0.000001002472, 9.998289, 9.999588 
6.2505317e+2, 1.24362245e+2, -1508728.6, -1668322.4, -177911.67, -0.076043375, -0.10985145, -1393538.1, 327704.88, 0.00000000008306351, 10.001671, 9.999496 
6.2505245e+2, 1.3436265e+2, -1583456.1, -1664615.1, 167837.48, -0.07636995, -0.019940427, -1451362.3, 171878.64, 0.0, 10.000475, 9.999458 
6.2505e+2, 1.4436251e+2, -1551205.5, -1556116.3, -29433.363, -0.101131596, 0.0068387785, -1524125.3, 1118.9242, 0.0, 9.999869, 9.9998045 
6.250447e+2, 1.543621e+2, -1409443.1, -1429282.1, -45955.84, -0.020125564, -0.025260236, -1372348.4, 54900.89, 0.0, 10.000139, 9.99987 
6.250391e+2, 1.6436215e+2, -1253229.4, -1231143.8, 22980.865, -0.023656558, -0.034472167, -1216690.3, 112558.484, 0.0, 10.000228, 10.000516 
6.250337e+2, 1.7436285e+2, -1166565.6, -1129768.5, 20390.674, -0.11277422, -0.026019502, -1120702.8, 110537.82, 0.0, 10.0001135, 10.000594 
6.2502855e+2, 1.843634e+2, -1131413.0, -1109346.5, -13540.653, -0.13174269, -0.011474645, -1102913.1, 30322.02, 0.0, 9.999882, 10.0001745 
6.2502384e+2, 1.943637e+2, -1092778.8, -1040163.44, -22249.799, -0.06648473, -0.0009940632, -1032016.1, 3216.859, 0.0, 9.999475, 10.000173 
6.2501895e+2, 2.0436372e+2, -1038314.5, -1016131.6, -863.52313, -0.03298765, 0.0086615635, -1016098.06, -78864.7, 0.0, 9.999405, 9.999698 
6.250139e+2, 2.1436343e+2, -885300.5, -891649.0, 27172.033, -0.040350206, 0.005005601, -861117.94, -21881.156, 0.0, 9.999784, 9.999697 
6.2500906e+2, 2.2436298e+2, -752947.8, -746630.75, 45814.41, -0.04106527, -0.0193277, -703866.1, 37374.355, 0.0, 9.999888, 9.999969 
6.250045e+2, 2.343624e+2, -689078.75, -659521.5, 21929.982, -0.03485219, -0.08263584, -647855.25, -4610.834, 0.0, 9.99963, 10.000019 
6.2500024e+2, 2.4436222e+2, -655726.7, -657667.94, 39642.984, -0.017523132, -0.07508426, -617042.44, -71796.99, 0.0, 9.999466, 9.999437 
6.249966e+2, 2.5436255e+2, -566003.25, -565351.5, 60809.87, 0.014337191, 0.013587181, -504866.63, -57624.22, 0.0, 9.999417, 9.999421 
6.249921e+2, 2.6436207e+2, -512585.84, -562894.75, 47660.863, -0.004968718, 0.05607313, -483848.7, -134599.97, 0.0, 9.99943, 9.99876 
6.249864e+2, 2.7436048e+2, -398764.9, -457937.3, 47299.63, -0.09359129, 0.017532533, -372560.44, -121292.914, 0.0, 9.99954, 9.9987545 
6.249817e+2, 2.8435907e+2, -267912.56, -259450.4, 64245.48, -0.115606576, -0.0312819, -199296.83, -46016.01, 0.0, 9.999401, 9.999513 
6.249782e+2, 2.9435822e+2, -236821.36, -189456.69, 57456.33, -0.045931395, -0.081423715, -150993.38, -95708.84, 0.000000004235602, 9.998922, 9.999551 
6.249745e+2, 3.04358e+2, -232159.55, -193669.88, 37241.465, 0.021394651, -0.039662547, -170994.67, -170994.67, 0.000000262113, 9.998759, 9.999266 
6.249683e+2, 3.1435782e+2, -165374.8, -118904.305, 32597.135, -0.117947206, 0.009152718, -102108.945, -102108.945, 0.0000013873902, 9.99903, 9.99965 
6.350547e+2, 1.2436916e+2, -1521022.4, -1695898.5, -216426.25, -0.09447498, 0.11859439, -1375038.6, 346142.97, 0.0, 10.001677, 9.999307 
6.350524e+2, 1.3436747e+2, -1602826.0, -1705270.4, 121902.54, -0.13009699, 0.02475277, -1521821.3, 101377.59, 0.0, 10.000477, 9.999179 
6.350491e+2, 1.4436649e+2, -1514728.8, -1481492.4, -25284.129, -0.17541012, -0.03823429, -1467854.1, 57354.082, 0.0, 9.999874, 10.000315 
6.3504344e+2, 1.5436682e+2, -1369468.5, -1346948.8, -35285.633, -0.15848765, -0.05232775, -1321170.0, 106033.52, 0.0, 10.000141, 10.000436 
6.3503826e+2, 1.6436741e+2, -1261320.4, -1247837.9, 18179.342, -0.13038902, -0.03552707, -1235190.1, 94006.94, 0.0, 10.000226, 10.000402 
6.3503444e+2, 1.7436828e+2, -1177720.0, -1153390.9, 16788.066, -0.050724097, 0.0052598454, -1144823.5, 86365.09, 0.0, 10.0001135, 10.000432 
6.3502973e+2, 1.8436873e+2, -1143809.6, -1133997.1, -29019.498, -0.0041924557, 0.029788699, -1109472.0, 23712.762, 0.0, 9.999878, 10.000007 
6.3502395e+2, 1.943687e+2, -1104285.4, -1063898.8, -37307.9, -0.01110399, 0.02293549, -1041669.8, -6483.0366, 0.0, 9.999475, 10.00001 
6.350184e+2, 2.0436858e+2, -990493.1, -916468.06, 10374.973, -0.032863252, -0.0072614965, -915041.44, 22146.02, 0.0, 9.999402, 10.000384 
6.350134e+2, 2.1436831e+2, -833116.3, -782936.9, 42275.49, -0.06778895, -0.08045116, -758866.56, 80319.76, 0.0, 9.999782, 10.000444 
6.350086e+2, 2.2436844e+2, -793773.44, -829212.06, 36622.184, -0.08207849, -0.061439745, -770809.1, -29624.209, 0.0, 9.99988, 9.999406 
6.3500375e+2, 2.3436911e+2, -735516.75, -754630.3, 12966.294, -0.07144129, 0.06397663, -728965.9, -85782.97, 0.0, 9.999624, 9.999369 
6.3499963e+2, 2.443688e+2, -625149.3, -592759.3, 36497.277, -0.028106138, 0.07434152, -569025.25, -23839.293, 0.0, 9.999459, 9.999887 
6.349964e+2, 2.543673e+2, -528807.0, -487304.88, 59558.504, 0.05841925, -0.07503122, -444985.97, 2209.2432, 0.0, 9.9994135, 9.99996 
6.3499224e+2, 2.6436636e+2, -506694.66, -550583.2, 50866.805, 0.067976, -0.110461235, -473240.5, -124037.055, 0.0, 9.999429, 9.998846 
6.3498664e+2, 2.7436614e+2, -396494.34, -451630.28, 52880.824, -0.02301557, -0.015573279, -364426.97, -113216.49, 0.0, 9.999533, 9.998802 
6.349815e+2, 2.843653e+2, -284813.4, -292466.78, 47288.62, -0.0722429, -0.001507256, -241196.9, -87976.49, 0.0, 9.999392, 9.99929 
6.34977e+2, 2.9436386e+2, -255586.17, -224666.48, 40022.074, -0.060432352, -0.08369611, -197222.1, -141990.2, 0.000000008608103, 9.998907, 9.999316 
6.349727e+2, 3.0436417e+2, -207822.38, -140963.25, 45224.125, -0.028209448, 0.004377594, -118154.41, -118154.41, 0.00000035003856, 9.998749, 9.999635 
6.349667e+2, 3.1436452e+2, -122097.15, -26414.066, 52708.3, -0.17934135, 0.06494693, -3072.8975, -3072.8975, 0.0000017531552, 9.999018, 10.000291 
6.450559e+2, 1.2437428e+2, -1600196.5, -1703504.3, -218296.06, -0.10106046, 0.1400082, -1427526.4, 293607.8, 0.0, 10.001001, 9.99958 
6.450526e+2, 1.3437253e+2, -1615597.9, -1688440.0, 140688.4, -0.14548403, 0.020895246, -1506692.6, 116458.02, 0.0, 10.000295, 9.99938 
6.4504904e+2, 1.443717e+2, -1504174.1, -1452419.3, 44044.797, -0.17707217, -0.046440322, -1427212.6, 97944.89, 0.0, 9.999844, 10.000528 
6.450432e+2, 1.5437248e+2, -1388291.8, -1331549.8, 9712.238, -0.18267918, -0.038669206, -1329933.4, 97214.48, 0.0, 9.999908, 10.000653 
6.4503795e+2, 1.6437311e+2, -1336715.5, -1298919.5, 34995.9, -0.1586957, -0.02254244, -1278045.1, 51095.82, 0.0, 9.999771, 10.000272 
6.450341e+2, 1.7437352e+2, -1300499.4, -1230148.8, 30950.805, -0.05553707, -0.011028332, -1218470.5, 12666.839, 0.0, 9.999346, 10.000277 
6.4502937e+2, 1.8437384e+2, -1216642.3, -1160875.0, 7677.9907, -0.001069444, 0.0045725303, -1159837.3, -26701.951, 0.0, 9.999342, 10.00008 
6.4502347e+2, 1.9437408e+2, -1035526.94, -1019928.5, 17949.645, -0.02380082, 0.015555316, -1008156.9, 26977.709, 0.0, 9.999903, 10.000104 
6.45018e+2, 2.0437409e+2, -897662.2, -860628.7, 51199.656, -0.04578296, -0.01153381, -824700.25, 112433.3, 0.0, 9.999994, 10.000482 
6.450131e+2, 2.1437375e+2, -870555.75, -790824.9, 31984.07, -0.06079691, -0.10085633, -779580.25, 59551.906, 0.0, 9.999481, 10.000536 
6.450084e+2, 2.2437394e+2, -872420.7, -885609.94, 22838.758, -0.06616159, -0.07453458, -855243.5, -114112.85, 0.0, 9.999417, 9.999243 
6.450036e+2, 2.3437479e+2, -703552.8, -759202.25, 32792.29, -0.06258251, 0.088063695, -688371.2, -45242.438, 0.0, 9.99993, 9.999189 
6.4499927e+2, 2.443745e+2, -547506.7, -531900.25, 49643.02, -0.029850235, 0.100171775, -489450.9, 55681.19, 0.0, 9.999891, 10.000096 
6.449955e+2, 2.543728e+2, -550708.44, -471587.63, 47770.887, 0.039650097, -0.0923073, -449123.2, -1981.1526, 0.0, 9.999149, 10.000195 
6.449913e+2, 2.64372e+2, -578442.7, -560932.4, 52258.953, 0.062481154, -0.13787928, -516700.25, -167552.03, 0.0, 9.998833, 9.999061 
6.4498645e+2, 2.7437228e+2, -450100.97, -453359.06, 65904.05, 0.024292972, -0.01332897, -385805.84, -134655.81, 0.0, 9.999063, 9.999016 
6.449814e+2, 2.8437167e+2, -311710.78, -317143.47, 60938.023, -0.019263452, 0.018911181, -253428.58, -100270.4, 0.0, 9.999258, 9.999185 
6.449761e+2, 2.9437014e+2, -192074.58, -208412.73, 59685.6, -0.063204914, -0.059736513, -140001.61, -84829.41, 0.000000011710588, 9.999405, 9.999187 
6.449714e+2, 3.0437043e+2, -145962.1, -109444.87, 57352.098, -0.05917236, 0.030541604, -67515.11, -67515.11, 0.00000040808163, 9.999165, 9.99965 
6.4496523e+2, 3.143702e+2, -176430.13, -14029.23, 40481.72, -0.19959122, 0.027881745, -4497.753, -4497.753, 0.0000020409286, 9.998478, 10.000637 
6.5505695e+2, 1.2437767e+2, -1548079.0, -1596887.8, -236483.28, -0.102152616, -0.04206146, -1334744.3, 386355.8, 0.0, 10.001006, 10.000311 
6.550531e+2, 1.3437788e+2, -1569789.9, -1592844.9, 112127.99, -0.12822193, -0.031191824, -1468598.4, 154497.67, 0.0, 10.000293, 10.000036 
6.550495e+2, 1.4437816e+2, -1509545.1, -1463392.1, 41256.6, -0.113456346, -0.0206157, -1439196.8, 85895.33, 0.0, 9.999843, 10.000454 
6.5504396e+2, 1.5437908e+2, -1397177.0, -1350573.3, 13121.776, -0.101146825, 0.015123915, -1347132.6, 79949.72, 0.0, 9.999909, 10.000523 
6.5503824e+2, 1.643793e+2, -1348174.1, -1322404.1, 18814.049, -0.11652955, 0.0050440826, -1312485.9, 16594.266, 0.0, 9.99977, 10.000112 
6.550327e+2, 1.7437865e+2, -1311488.1, -1253588.4, 14879.692, -0.13059282, -0.07463032, -1249988.3, -18901.307, 0.0, 9.999348, 10.000115 
6.5502745e+2, 1.8437876e+2, -1194034.4, -1114219.0, 24996.238, -0.12637609, -0.08705377, -1107037.0, 26049.607, 0.0, 9.999342, 10.000401 
6.550225e+2, 1.9437985e+2, -1011091.44, -969111.94, 39472.6, -0.108098924, -0.02436702, -945395.4, 89681.08, 0.0, 9.999901, 10.000454 
6.550177e+2, 2.0438026e+2, -934377.7, -934919.8, 33330.727, -0.076484025, -0.005739619, -901316.94, 35754.906, 0.0, 9.999986, 9.999974 
6.55013e+2, 2.1437976e+2, -910876.44, -873368.94, 13163.706, -0.023215577, -0.05622031, -869210.1, -30135.838, 0.0, 9.9994755, 9.999971 
6.5500844e+2, 2.2437946e+2, -856984.1, -852075.3, 38806.594, 0.0007583259, -0.057506796, -815645.56, -74568.06, 0.0, 9.999411, 9.999476 
6.55004e+2, 2.3437946e+2, -683244.0, -717299.6, 52986.195, -0.012152825, -0.010833676, -644616.8, -1534.9878, 0.0, 9.99993, 9.999477 
6.549992e+2, 2.443793e+2, -551189.3, -538578.3, 23841.77, -0.02808854, 0.0011306715, -520222.3, 24861.686, 0.0, 9.999887, 10.000052 
6.549938e+2, 2.5437906e+2, -556606.6, -481767.38, 20470.975, -0.04660458, -0.038803983, -476533.88, -29451.05, 0.0, 9.99914, 10.00013 
6.5498924e+2, 2.6437894e+2, -555498.5, -511879.78, 58192.027, -0.025634836, -0.027669782, -471544.47, -122461.4, 0.0, 9.998827, 9.999401 
6.5498567e+2, 2.743789e+2, -425552.38, -399886.94, 75664.07, 0.043392528, 0.028072953, -335975.1, -84889.3, 0.0, 9.999052, 9.999388 
6.549812e+2, 2.8437826e+2, -311312.63, -315280.34, 66460.44, 0.036710765, 0.034805078, -246806.42, -93712.81, 0.0, 9.999252, 9.999201 
6.5497553e+2, 2.9437706e+2, -194088.23, -211115.05, 66196.67, -0.060905587, -0.011656476, -135859.77, -80754.13, 0.000000011654482, 9.999398, 9.999173 
6.549704e+2, 3.0437672e+2, -170341.47, -158224.75, 32745.887, -0.07631268, 0.035002653, -130981.5, -130981.5, 0.00000041978168, 9.999157, 9.999318 
6.5496385e+2, 3.1437477e+2, -179377.84, -13114.852, 23036.885, -0.18558751, -0.10222991, -9981.965, -9981.965, 0.000002202322, 9.998448, 10.000656 
6.650571e+2, 1.2438344e+2, -1714888.1, -1658228.5, -144930.28, -0.12111144, -0.09455799, -1538885.1, 182156.73, 0.0, 9.999777, 10.000484 
6.6505337e+2, 1.343841e+2, -1572258.0, -1582168.0, 144634.03, -0.12977792, -0.049419336, -1432494.1, 190539.77, 0.0, 10.000228, 10.00014 
6.650497e+2, 1.4438455e+2, -1484639.3, -1473286.5, 44077.676, -0.08755733, -0.017713208, -1434521.1, 90507.664, 0.0, 10.000109, 10.000258 
6.650439e+2, 1.5438536e+2, -1482775.4, -1416175.9, 8846.036, -0.075109966, 0.027740197, -1415020.9, 12000.605, 0.0, 9.999428, 10.000304 
6.6503775e+2, 1.6438545e+2, -1434258.9, -1359435.6, 28156.277, -0.10383786, 0.01631743, -1350024.1, -21003.44, 0.0, 9.999163, 10.000148 
6.650319e+2, 1.7438471e+2, -1295091.9, -1238628.1, 39005.965, -0.14808811, -0.07821305, -1218709.1, 12318.707, 0.0, 9.9994335, 10.000174 
6.650266e+2, 1.8438482e+2, -1162050.0, -1109005.3, 58405.625, -0.15657365, -0.08886704, -1071382.0, 61645.21, 0.0, 9.99961, 10.000306 
6.650221e+2, 1.9438604e+2, -1053549.0, -1001914.7, 37278.758, -0.12931976, -0.005170234, -982386.2, 52630.63, 0.0, 9.999662, 10.000344 
6.6501737e+2, 2.0438652e+2, -977996.4, -971887.1, 9461.468, -0.0880151, 0.034530114, -964999.44, -27987.219, 0.0, 9.999754, 9.999833 
6.6501266e+2, 2.1438612e+2, -859216.06, -863365.3, 18241.766, -0.025932295, 0.007355199, -842931.3, -3916.5151, 0.0, 9.999897, 9.999835 
6.6500807e+2, 2.2438557e+2, -803825.3, -798457.9, 65645.37, 0.012417919, -0.024276469, -735441.4, 5578.3022, 0.0, 9.999657, 9.999724 
6.650038e+2, 2.3438482e+2, -810196.75, -747622.3, 77528.984, 0.019469643, -0.077337205, -695305.5, -52277.918, 0.0, 9.998927, 9.999752 
6.6499877e+2, 2.4438475e+2, -705979.06, -633405.44, 50644.242, -0.0073206355, -0.06364834, -607390.0, -62361.074, 0.0, 9.998912, 9.999871 
6.64993e+2, 2.543856e+2, -474503.63, -465904.13, 34894.4, -0.07532471, 0.025437366, -435045.56, 11975.865, 0.0, 9.999805, 9.999917 
6.649882e+2, 2.6438567e+2, -375414.97, -410911.34, 49616.04, -0.071236335, 0.062036823, -340468.28, 8552.486, 0.0, 10.000003, 9.999527 
6.6498464e+2, 2.7438474e+2, -378063.03, -359661.28, 48457.586, 0.021777902, 0.012926445, -319538.8, -68509.45, 0.0, 9.999304, 9.999542 
6.649803e+2, 2.8438404e+2, -340661.63, -310154.47, 51454.863, 0.035797186, -0.0021634942, -271739.84, -118703.19, 0.0, 9.99897, 9.999371 
6.64975e+2, 2.943838e+2, -220558.69, -205004.3, 63384.375, -0.044904955, 0.030925917, -148921.78, -93881.195, 0.000000008469742, 9.999136, 9.99934 
6.649697e+2, 3.043834e+2, -186682.94, -186563.05, 21555.191, -0.058858257, 0.06982517, -165067.72, -165067.72, 0.00000038345433, 9.999135, 9.999132 
6.649627e+2, 3.1438074e+2, -106698.83, 32694.604, 24297.51, -0.16817255, -0.11785153, 36808.465, 36808.465, 0.0000022156387, 9.998901, 10.0007515 
6.750565e+2, 1.2439157e+2, -1738760.3, -1711095.5, -118914.16, -0.16238394, -0.022832029, -1605211.9, 115748.125, 0.0, 9.999787, 10.000118 
6.750533e+2, 1.3439122e+2, -1602343.5, -1645951.4, 160324.17, -0.15829496, -0.033616908, -1462347.4, 160616.16, 0.0, 10.000235, 9.9997 
6.750496e+2, 1.4439094e+2, -1506531.8, -1519645.9, 17609.559, -0.106870435, -0.036425546, -1494298.1, 30669.021, 0.0, 10.000113, 9.999938 
6.75043e+2, 1.5439133e+2, -1504023.9, -1461113.4, -16622.709, -0.109074235, -0.0016991923, -1455427.5, -28462.5, 0.0, 9.999431, 9.999995 
6.750367e+2, 1.643916e+2, -1417494.5, -1324205.0, 35084.92, -0.1254186, 0.009300356, -1312483.0, 16479.607, 0.0, 9.999161, 10.000391 
6.7503166e+2, 1.7439178e+2, -1275114.5, -1197783.4, 50117.25, -0.11361361, -0.022161875, -1173149.9, 57809.59, 0.0, 9.999436, 10.000453 
6.7502683e+2, 1.843921e+2, -1199309.5, -1186028.3, 59802.07, -0.09872073, -0.0016109869, -1132499.3, 457.84314, 0.0, 9.999608, 9.999779 
6.750222e+2, 1.9439264e+2, -1094930.3, -1087149.9, 39455.31, -0.09238707, 0.072861575, -1051393.5, -16438.018, 0.0, 9.99966, 9.999761 
6.7501724e+2, 2.0439288e+2, -962959.75, -938896.44, 13390.052, -0.08549666, 0.109469555, -932926.56, 4027.856, 0.0, 9.999746, 10.000064 
6.750121e+2, 2.1439283e+2, -839802.1, -822408.56, 24108.146, -0.07238624, 0.08807863, -805476.56, 33477.215, 0.0, 9.999893, 10.000119 
6.750073e+2, 2.243922e+2, -786820.8, -761316.75, 39151.848, -0.03592672, 0.023044514, -732892.56, 8064.658, 0.0, 9.999649, 9.999984 
6.750028e+2, 2.343909e+2, -792750.6, -710362.4, 50756.59, 0.028968288, -0.11153621, -686186.9, -43220.86, 0.0, 9.998922, 10.0000105 
6.749981e+2, 2.4439086e+2, -729147.2, -680469.9, 79947.78, 0.028393742, -0.09468724, -621238.1, -76271.25, 0.0, 9.998907, 9.99955 
6.7499304e+2, 2.5439242e+2, -500564.94, -519067.25, 69574.21, -0.052229445, 0.10150751, -439629.53, 7328.029, 0.0, 9.999802, 9.999554 
6.749881e+2, 2.6439217e+2, -381778.2, -423651.88, 26469.37, -0.08076379, 0.13263099, -368966.28, -20005.182, 0.0, 10.0, 9.99944 
6.7498326e+2, 2.7438977e+2, -383867.4, -369552.75, 22751.215, -0.045775387, -0.060373146, -352859.6, -101878.77, 0.0, 9.999295, 9.999478 
6.749787e+2, 2.8438902e+2, -318798.75, -263357.0, 54956.777, -0.025326138, -0.09473159, -229525.5, -76537.945, 0.0, 9.998963, 9.999696 
6.749744e+2, 2.943904e+2, -198488.75, -155738.9, 71220.43, -0.020648284, 0.0703057, -102754.984, -47778.215, 0.0000000040864183, 9.999121, 9.999685 
6.749693e+2, 3.0439046e+2, -191247.83, -193843.77, 13727.01, -0.012946638, 0.1400375, -178757.56, -178757.56, 0.0000003121116, 9.999125, 9.999087 
6.749617e+2, 3.1438798e+2, -97971.234, 54316.406, 23936.088, -0.16287224, -0.02821503, 57989.99, 57989.99, 0.0000020914758, 9.998887, 10.000906 
6.850565e+2, 1.2439888e+2, -1651504.5, -1688943.3, -127606.16, -0.17747486, -0.0058352975, -1541252.0, 179635.75, 0.0, 10.000473, 9.99994 
6.8505305e+2, 1.3439837e+2, -1690766.8, -1717597.0, 147794.73, -0.18097377, -0.005524118, -1555779.5, 67114.484, 0.0, 9.999755, 9.999438 
6.8504924e+2, 1.4439781e+2, -1601291.4, -1582009.5, 23450.176, -0.12513313, -0.016488621, -1566295.8, -41394.703, 0.0, 9.999535, 9.999788 
6.8504256e+2, 1.5439774e+2, -1415456.9, -1434774.1, 1273.5419, -0.12936349, -0.013446709, -1415373.3, 11530.374, 0.0, 10.000111, 9.999847 
6.850363e+2, 1.6439801e+2, -1259107.8, -1246396.8, 52437.55, -0.13754335, 0.005348136, -1199931.0, 128970.13, 0.0, 10.000243, 10.000402 
6.850314e+2, 1.7439876e+2, -1218123.0, -1168498.4, 45264.938, -0.10187473, 0.030424919, -1141691.3, 89200.914, 0.0, 9.99982, 10.000468 
6.850266e+2, 1.8439907e+2, -1215594.4, -1196737.8, 63971.875, -0.07387354, 0.04895364, -1141503.1, -8613.8125, 0.0, 9.999508, 9.999753 
6.850219e+2, 1.9439882e+2, -1142335.8, -1111409.6, 84884.03, -0.07186188, 0.047989674, -1040591.7, -5697.868, 0.0, 9.999344, 9.999744 
6.850169e+2, 2.0439881e+2, -1034092.9, -982663.2, 78404.91, -0.07479341, 0.062471706, -925863.9, 11031.579, 0.0, 9.999301, 9.999976 
6.850117e+2, 2.143991e+2, -916216.1, -869974.5, 59100.516, -0.078896165, 0.0856067, -829633.2, 9260.129, 0.0, 9.999414, 10.000023 
6.850067e+2, 2.2439878e+2, -778080.0, -740522.06, 45726.676, -0.05782347, 0.04908507, -709868.5, 31025.639, 0.0, 9.999638, 10.000132 
6.850019e+2, 2.3439774e+2, -623564.25, -609782.7, 47442.465, -0.0062599643, -0.07640382, -568733.2, 74165.44, 0.0, 10.000003, 10.000179 
6.8499726e+2, 2.4439752e+2, -626205.2, -675721.75, 77700.38, 0.01219374, -0.06558345, -569413.94, -24512.826, 0.0, 9.999807, 9.999149 
6.849928e+2, 2.5439838e+2, -663282.1, -645969.75, 60756.695, -0.010303357, 0.10334163, -593255.75, -146354.6, 0.0, 9.998894, 9.99912 
6.8498796e+2, 2.6439798e+2, -539209.7, -461546.8, 34722.844, -0.034533422, 0.12227716, -448286.44, -99379.65, 0.0, 9.998756, 9.999779 
6.849826e+2, 2.74396e+2, -309093.44, -290703.88, 63339.117, -0.061234456, -0.06272235, -235895.63, 15023.967, 0.0, 9.999623, 9.999862 
6.8497765e+2, 2.8439537e+2, -206719.55, -238960.52, 82952.14, -0.06998402, -0.09234802, -138336.02, 14588.436, 0.0, 9.999862, 9.99943 
6.849732e+2, 2.9439643e+2, -197998.34, -189062.17, 47063.355, -0.05477974, 0.0670293, -146255.28, -91336.49, 0.0000000009738006, 9.99927, 9.999385 
6.849681e+2, 3.0439618e+2, -206914.88, -202411.45, -24443.78, -0.034484107, 0.12478899, -180115.89, -180115.89, 0.00000022618863, 9.9990225, 9.999078 
6.8496096e+2, 3.1439486e+2, -36953.25, 91288.305, -7913.805, -0.14248809, 0.07425457, 91774.82, 91774.82, 0.0000018666766, 9.999275, 10.000974 
6.9505703e+2, 1.2440542e+2, -1652096.6, -1692895.1, -142594.95, -0.17594472, -0.04501399, -1528449.3, 192375.31, 0.0, 10.000482, 9.999909 
6.950526e+2, 1.344056e+2, -1698367.0, -1731220.3, 118929.5, -0.2028549, 0.032842137, -1594735.0, 28089.822, 0.0, 9.999746, 9.999348 
6.950486e+2, 1.4440517e+2, -1600992.4, -1579236.0, 39955.6, -0.14711934, 0.038824618, -1548704.3, -23873.623, 0.0, 9.999526, 9.999811 
6.950425e+2, 1.5440461e+2, -1412559.8, -1429976.4, 25066.654, -0.14225218, -0.0073917937, -1394731.9, 32104.889, 0.0, 10.000115, 9.999878 
6.950364e+2, 1.6440473e+2, -1276772.0, -1283411.9, 37544.13, -0.14848165, 0.0046801236, -1242401.3, 86434.516, 0.0, 10.000245, 10.000148 
6.950311e+2, 1.744057e+2, -1237509.6, -1208292.6, 29352.676, -0.11796619, 0.07930316, -1190114.1, 40711.625, 0.0, 9.999817, 10.000197 
6.95026e+2, 1.8440574e+2, -1181840.5, -1124898.9, 56090.938, -0.08711216, 0.06261181, -1090466.8, 42356.97, 0.0, 9.9995, 10.00025 
6.9502115e+2, 1.9440463e+2, -1104409.8, -1031952.75, 79291.7, -0.071223184, -0.08015392, -981005.1, 53826.563, 0.0, 9.99934, 10.000292 
6.950163e+2, 2.044043e+2, -1064204.5, -1043864.8, 80906.62, -0.060793925, -0.107042566, -972491.44, -35656.137, 0.0, 9.999295, 9.999559 
6.950114e+2, 2.1440494e+2, -950686.06, -940465.5, 64096.156, -0.050795436, 0.0002988496, -881276.25, -42442.89, 0.0, 9.999409, 9.999542 
6.950063e+2, 2.244053e+2, -775802.1, -734918.44, 57853.223, -0.05891644, 0.054329056, -694001.8, 46828.395, 0.0, 9.999633, 10.000173 
6.9500107e+2, 2.3440532e+2, -619076.94, -600229.4, 61919.105, -0.09073108, 0.028055646, -547021.06, 95804.37, 0.0, 10.000001, 10.000247 
6.9499636e+2, 2.4440475e+2, -660361.94, -744992.56, 45368.35, -0.060821936, 0.022608183, -640638.0, -95806.16, 0.0, 9.999801, 9.998676 
6.9499224e+2, 2.544035e+2, -699792.75, -719572.25, 27043.703, 0.04682725, 0.030187055, -680887.2, -234035.1, 0.0, 9.998885, 9.998618 
6.949877e+2, 2.64403e+2, -486288.88, -350971.22, 62847.547, 0.0645135, 0.03000717, -326285.4, 22572.475, 0.0, 9.998753, 10.000541 
6.949825e+2, 2.744035e+2, -251714.48, -170218.7, 97396.58, -0.030107101, 0.008126098, -105389.68, 145455.61, 0.0, 9.999617, 10.000692 
6.9497716e+2, 2.8440318e+2, -268386.06, -365344.38, 63897.668, -0.1051829, 0.00738764, -236658.36, -83811.336, 0.0, 9.999855, 9.998565 
6.949715e+2, 2.9440176e+2, -266885.84, -329432.16, 25668.355, -0.15487231, 0.019280814, -257700.69, -202833.86, 0.000000000021633938, 9.99926, 9.998425 
6.9496626e+2, 3.044005e+2, -205878.88, -199957.94, -18291.205, -0.12878282, 0.022886751, -184389.17, -184389.17, 0.00000014519733, 9.999019, 9.999098 
6.9496053e+2, 3.1440136e+2, -39638.816, 88434.17, 7175.579, -0.11825416, 0.18249808, 88834.945, 88834.945, 0.0000015881137, 9.999262, 10.00096 
7.050569e+2, 1.2441218e+2, -1801277.5, -1721565.3, -165226.47, -0.17544475, -0.020736912, -1591455.8, 129304.75, 0.0, 9.999273, 10.000295 
7.050525e+2, 1.3441259e+2, -1711388.0, -1699189.5, 109952.33, -0.17474267, 0.045611337, -1595167.4, 27589.707, 0.0, 9.999496, 9.999685 
7.050485e+2, 1.4441226e+2, -1604785.6, -1572457.0, 68336.2, -0.10207178, 0.04057444, -1518399.4, 6361.1333, 0.0, 9.999464, 9.9998865 
7.0504254e+2, 1.5441166e+2, -1530193.8, -1480543.6, 55726.816, -0.10669575, -0.017092751, -1444362.4, -17596.164, 0.0, 9.999284, 9.999931 
7.0503646e+2, 1.6441157e+2, -1424085.0, -1374360.3, 63671.895, -0.12642083, -0.01870622, -1330868.8, -2101.8513, 0.0, 9.999319, 9.9999695 
7.050308e+2, 1.7441219e+2, -1281179.8, -1250279.0, 59995.402, -0.11817164, 0.039800584, -1203776.5, 26984.455, 0.0, 9.99961, 10.000008 
7.050255e+2, 1.8441214e+2, -1155256.1, -1114362.9, 70159.19, -0.09548608, 0.025193695, -1061731.6, 71028.31, 0.0, 9.999695, 10.000227 
7.050206e+2, 1.9441125e+2, -1078733.8, -1021885.0, 48319.41, -0.07082007, -0.09384475, -994249.5, 40515.742, 0.0, 9.999525, 10.000272 
7.050157e+2, 2.044108e+2, -1039743.8, -1054725.8, 49496.246, -0.056528952, -0.12114583, -997174.9, -60405.383, 0.0, 9.999559, 9.999358 
7.05011e+2, 2.1441092e+2, -900607.7, -939278.25, 52035.08, -0.04961779, -0.045737263, -864431.7, -25659.115, 0.0, 9.999853, 9.999335 
7.0500606e+2, 2.244112e+2, -774160.5, -765732.56, 36695.402, -0.05556244, 0.023920631, -733009.94, 7761.5884, 0.0, 9.99978, 9.99989 
7.050008e+2, 2.344117e+2, -749565.06, -695426.4, 11692.452, -0.07943995, 0.0737676, -693009.06, -50243.727, 0.0, 9.999243, 9.999959 
7.049958e+2, 2.4441114e+2, -731753.5, -744714.75, 6361.5127, -0.06413703, 0.07110194, -729153.0, -184381.5, 0.0, 9.999161, 9.998986 
7.049911e+2, 2.544093e+2, -561665.75, -614325.25, 49560.41, 0.00038169842, -0.01131642, -531875.2, -85081.97, 0.0, 9.999666, 9.998965 
7.049864e+2, 2.6440886e+2, -363283.22, -316488.13, 98203.65, 0.013016172, -0.017982358, -238933.2, 109864.97, 0.0, 9.999704, 10.0003195 
7.049818e+2, 2.744101e+2, -337997.1, -239947.4, 50052.406, -0.038964927, 0.059210926, -218910.28, 31871.58, 0.0, 9.999146, 10.000441 
7.049767e+2, 2.8440988e+2, -373569.38, -408616.0, 3255.6763, -0.097467616, 0.08112021, -373269.5, -220486.3, 0.0, 9.999101, 9.9986315 
7.049709e+2, 2.944078e+2, -191890.42, -283183.63, 42129.438, -0.1638933, 0.017044682, -175420.19, -120613.086, 0.0, 9.99973, 9.998516 
7.049655e+2, 3.044059e+2, -90904.6, -140501.42, 34377.582, -0.14378758, -0.05382082, -73314.58, -73314.58, 0.00000008201181, 9.999791, 9.999134 
7.049599e+2, 3.1440705e+2, -73248.016, 51080.582, 54682.63, -0.09563168, 0.13458382, 71708.734, 71708.734, 0.0000012936833, 9.999122, 10.000772 
7.1505606e+2, 1.24419205e+2, -1747934.6, -1610208.9, -144150.53, -0.1857319, 0.06258292, -1519317.4, 201378.17, 0.0, 9.999268, 10.001062 
7.1505266e+2, 1.3441941e+2, -1656131.0, -1586932.3, 118391.09, -0.10548757, 0.033533555, -1498188.4, 124501.695, 0.0, 9.999507, 10.00045 
7.15049e+2, 1.4441915e+2, -1597000.9, -1558149.5, 59074.2, -0.0010413629, -0.010829633, -1515389.0, 9301.278, 0.0, 9.999473, 9.999981 
7.150426e+2, 1.5441886e+2, -1526221.3, -1472575.1, 49244.92, -0.02854459, -0.043555755, -1443322.0, -16630.006, 0.0, 9.999284, 9.999986 
7.150363e+2, 1.6441855e+2, -1430831.4, -1386985.4, 73119.67, -0.07738362, -0.06651752, -1332572.9, -3878.4917, 0.0, 9.999314, 9.999886 
7.150305e+2, 1.7441826e+2, -1287052.3, -1263517.6, 72096.11, -0.10726555, -0.08820109, -1202234.9, 28462.709, 0.0, 9.999615, 9.999915 
7.150251e+2, 1.8441829e+2, -1194783.6, -1196470.6, 63600.99, -0.10524359, -0.06383931, -1132020.6, 677.17035, 0.0, 9.999695, 9.999664 
7.1502006e+2, 1.944187e+2, -1121075.6, -1109033.5, 42235.086, -0.07550497, 0.0068553737, -1072392.5, -37698.215, 0.0, 9.999521, 9.999676 
7.150152e+2, 2.0441835e+2, -1039266.75, -1052298.4, 58353.004, -0.06711513, 0.019267885, -987066.94, -50368.832, 0.0, 9.999553, 9.999378 
7.150106e+2, 2.1441704e+2, -897592.1, -931558.44, 63599.383, -0.07942905, -0.05359923, -848747.44, -10036.396, 0.0, 9.999846, 9.9993925 
7.150059e+2, 2.2441648e+2, -816928.4, -852777.3, 17127.994, -0.052094597, -0.043095846, -810060.6, -69342.36, 0.0, 9.999773, 9.999296 
7.150011e+2, 2.3441687e+2, -795448.5, -788548.25, -7632.0317, 0.023401862, 0.060451005, -783622.75, -140904.58, 0.0, 9.999234, 9.999324 
7.149956e+2, 2.4441673e+2, -656301.56, -586778.56, 22271.676, -0.0032446263, 0.08018951, -580255.8, -35535.836, 0.0, 9.999155, 10.000073 
7.149892e+2, 2.5441593e+2, -479016.97, -441924.44, 69459.78, -0.15516661, -0.019248959, -388577.56, 58146.62, 0.0, 9.999662, 10.000151 
7.1498406e+2, 2.6441556e+2, -447893.16, -491738.4, 78915.59, -0.19405013, -0.021112582, -387911.75, -39184.184, 0.0, 9.999702, 9.999117 
7.149804e+2, 2.7441576e+2, -433866.6, -436207.06, 29636.512, -0.09288569, 0.08913616, -405377.22, -154647.75, 0.0, 9.999135, 9.999098 
7.1497625e+2, 2.8441548e+2, -304080.94, -262574.34, 23632.893, -0.05198099, 0.12890224, -251875.89, -99142.89, 0.0, 9.999093, 9.999639 
7.1497136e+2, 2.9441458e+2, -112171.35, -115990.88, 67364.95, -0.08620353, 0.06358437, -46689.098, 8050.0483, 0.0, 9.999723, 9.999668 
7.149659e+2, 3.044123e+2, -88672.95, -134697.44, 11603.38, -0.08313922, -0.10473304, -85913.086, -85913.086, 0.00000004119849, 9.999785, 9.999177 
7.149591e+2, 3.1441185e+2, -100841.47, -1895.4661, 33554.816, -0.08803545, -0.07567469, 8410.321, 8410.321, 0.0000010048329, 9.999104, 10.000417 
7.250554e+2, 1.2442592e+2, -1818116.1, -1641904.3, -65566.055, -0.15614839, 0.043347605, -1620185.0, 100443.055, 0.0, 9.998773, 10.001086 
7.250521e+2, 1.3442594e+2, -1717191.0, -1617416.1, 122412.51, -0.09012091, -0.0036746764, -1535115.9, 87508.9, 0.0, 9.999095, 10.000439 
7.250486e+2, 1.4442573e+2, -1596925.3, -1541536.8, 31314.201, 0.009050026, -0.046943787, -1527427.3, -2803.1216, 0.0, 9.999401, 10.000129 
7.250423e+2, 1.544258e+2, -1438030.5, -1412743.6, 28421.67, -0.017015982, -0.059602246, -1394280.0, 32341.637, 0.0, 9.999815, 10.00014 
7.250361e+2, 1.6442558e+2, -1358767.3, -1374350.3, 49570.207, -0.056850284, -0.07225655, -1316380.0, 12243.214, 0.0, 9.999904, 9.999688 
7.2503054e+2, 1.7442507e+2, -1305133.8, -1297173.4, 36394.184, -0.069469884, -0.09691722, -1264542.4, -33912.68, 0.0, 9.999597, 9.999693 
7.250251e+2, 1.8442488e+2, -1228157.9, -1256058.5, 36645.71, -0.07247841, -0.06315189, -1202897.0, -70263.97, 0.0, 9.999652, 9.999276 
7.2501993e+2, 1.9442514e+2, -1054948.1, -1120797.9, 29738.19, -0.07693939, 0.031649165, -1043506.3, -8873.866, 0.0, 10.000165, 9.999284 
7.250149e+2, 2.0442468e+2, -930006.75, -984980.75, 50423.902, -0.0810084, 0.04856417, -900064.6, 36572.52, 0.0, 10.00024, 9.99951 
7.250104e+2, 2.1442334e+2, -898659.6, -914117.8, 61205.203, -0.07936752, -0.04435243, -844697.44, -6048.955, 0.0, 9.99976, 9.999555 
7.250056e+2, 2.2442253e+2, -866694.7, -904486.6, 29167.564, -0.044040784, -0.055168163, -850837.2, -110179.54, 0.0, 9.99955, 9.999049 
7.250006e+2, 2.3442242e+2, -746977.75, -795637.1, 28925.44, 0.031613387, 0.024477242, -733510.44, -90846.39, 0.0, 9.999698, 9.999052 
7.24995e+2, 2.4442224e+2, -570217.25, -523670.9, 53973.473, -0.00046914283, 0.046672907, -488166.72, 56499.164, 0.0, 9.999652, 10.000269 
7.249886e+2, 2.54422e+2, -506816.75, -429874.1, 28260.38, -0.16544008, -0.018017516, -420609.75, 26052.496, 0.0, 9.999361, 10.00038 
7.249834e+2, 2.6442155e+2, -533391.3, -579899.7, 19992.775, -0.21126595, -0.02020315, -525978.44, -177312.17, 0.0, 9.999318, 9.998697 
7.2497964e+2, 2.7442086e+2, -397728.66, -470527.13, 34548.496, -0.10998926, 0.04668463, -383943.2, -133263.75, 0.0, 9.999605, 9.998636 
7.2497547e+2, 2.8442058e+2, -235545.08, -199141.06, 42125.72, -0.058307678, 0.09395661, -171453.1, -18769.006, 0.0, 9.999431, 9.999912 
7.2497076e+2, 2.944207e+2, -240284.69, -141906.03, 22416.248, -0.06975208, 0.09876249, -137039.11, -82360.36, 0.0, 9.998688, 9.99999 
7.249654e+2, 3.0441862e+2, -212538.27, -174876.08, -47440.38, -0.0633595, -0.075248584, -142666.02, -142666.02, 0.000000018939705, 9.998852, 9.999351 
7.24959e+2, 3.1441724e+2, 38040.65, 44549.54, -12673.291, -0.05902398, -0.15094697, 54379.58, 54379.58, 0.0000007295325, 10.000145, 10.000236 
7.3505473e+2, 1.244323e+2, -1866967.5, -1745514.5, -41787.375, -0.10245743, -0.07975045, -1732526.1, -11967.728, 0.0, 9.99878, 10.000372 
7.3505086e+2, 1.3443214e+2, -1771267.5, -1729430.4, 133069.72, -0.13132966, -0.06754361, -1615645.0, 6916.233, 0.0, 9.999095, 9.99967 
7.350471e+2, 1.4443205e+2, -1582282.9, -1510665.1, 45016.42, -0.07601917, -0.06996733, -1488952.3, 35609.555, 0.0, 9.999399, 10.000341 
7.350415e+2, 1.5443255e+2, -1418824.1, -1374703.6, 45352.473, -0.07743542, -0.06528628, -1346330.8, 80223.89, 0.0, 9.999822, 10.000398 
7.350359e+2, 1.6443273e+2, -1381064.4, -1421928.4, 38052.656, -0.07144448, -0.037087154, -1358305.4, -29752.479, 0.0, 9.999908, 9.99936 
7.350307e+2, 1.7443259e+2, -1330011.8, -1349786.1, 25052.17, -0.008593684, 0.012599763, -1312966.3, -82409.08, 0.0, 9.999599, 9.999331 
7.350255e+2, 1.8443191e+2, -1242442.6, -1285198.9, 53169.195, -0.0027193828, 0.025781963, -1206514.6, -73948.99, 0.0, 9.999649, 9.999077 
7.350201e+2, 1.9443059e+2, -1068710.8, -1149016.9, 49660.69, -0.080598414, -0.019487651, -1045001.0, -10421.525, 0.0, 10.000162, 9.999092 
7.35015e+2, 2.0442984e+2, -913697.4, -949461.7, 33368.277, -0.1039287, -0.03274573, -893721.7, 42864.707, 0.0, 10.000233, 9.999757 
7.350104e+2, 2.1442986e+2, -880982.5, -875369.4, 43888.76, -0.053705957, -0.01713015, -834197.56, 4387.111, 0.0, 9.999751, 9.9998255 
7.3500526e+2, 2.2442938e+2, -861681.56, -892330.2, 32094.258, -0.03620665, -0.011726768, -841440.75, -100851.26, 0.0, 9.999542, 9.999136 
7.349994e+2, 2.3442833e+2, -742432.25, -785174.25, 35113.754, -0.05948004, -0.032893654, -722697.4, -80094.68, 0.0, 9.999693, 9.999126 
7.3499405e+2, 2.4442771e+2, -618539.5, -623167.3, 43125.957, -0.060760956, -0.029259041, -577665.44, -33056.188, 0.0, 9.999648, 9.999588 
7.349893e+2, 2.544276e+2, -559083.5, -535905.0, 18046.936, -0.034721922, -0.007987994, -526046.56, -79439.17, 0.0, 9.999351, 9.999657 
7.349844e+2, 2.644269e+2, -509325.75, -528489.56, 29070.412, -0.04382969, -0.015167508, -488298.8, -139684.61, 0.0, 9.999311, 9.999053 
7.349794e+2, 2.7442545e+2, -369487.53, -410879.56, 46470.7, -0.095073365, -0.066358924, -339312.63, -88681.06, 0.0, 9.999601, 9.999048 
7.3497427e+2, 2.844251e+2, -267563.06, -264743.75, 15656.524, -0.121738374, -0.023063105, -250433.55, -97797.19, 0.0, 9.999427, 9.999463 
7.3496896e+2, 2.9442608e+2, -276755.7, -214101.34, -4158.687, -0.121036865, 0.120397866, -213826.52, -159200.53, 0.0, 9.9986725, 9.999501 
7.34964e+2, 3.0442476e+2, -195060.8, -135833.52, -2721.0496, -0.09150666, 0.033924814, -135708.77, -135708.77, 0.0000000073965225, 9.99884, 9.999625 
7.349596e+2, 3.144234e+2, 34517.56, 41165.973, 39133.527, -0.021479927, -0.07076279, 77116.23, 77116.23, 0.0000004773962, 10.000129, 10.000219 
7.4505407e+2, 1.244388e+2, -1845761.4, -1754574.1, -69360.2, -0.05803394, -0.11221689, -1717164.0, 3327.566, 0.0, 9.99901, 10.000199 
7.450502e+2, 1.3443847e+2, -1721186.8, -1728241.8, 129335.01, -0.12492138, -0.09464942, -1595331.1, 27165.547, 0.0, 9.999539, 9.999462 
7.450466e+2, 1.4443831e+2, -1557836.3, -1531289.1, 37550.17, -0.082985364, -0.08222656, -1504735.5, 19763.674, 0.0, 9.999704, 10.000054 
7.4504125e+2, 1.5443872e+2, -1475501.5, -1434339.6, -4262.417, -0.0725436, -0.055962455, -1433902.9, -7408.3276, 0.0, 9.999572, 10.000109 
7.450357e+2, 1.6443883e+2, -1419399.1, -1446473.0, -24870.89, -0.06295995, -0.017614065, -1404619.9, -76125.68, 0.0, 9.999673, 9.999304 
7.450305e+2, 1.7443858e+2, -1265182.5, -1323260.3, -15667.408, -0.009038062, 0.026897209, -1261225.6, -30726.701, 0.0, 10.000067, 9.999287 
7.450254e+2, 1.8443781e+2, -1162831.5, -1219126.8, 41778.23, 0.00058780843, 0.01978114, -1140603.5, -8096.0234, 0.0, 10.000074, 9.999328 
7.4502015e+2, 1.9443636e+2, -1132048.3, -1149653.3, 70635.375, -0.059673425, -0.06471747, -1069669.0, -35148.285, 0.0, 9.999598, 9.999361 
7.4501514e+2, 2.0443568e+2, -1046098.2, -1036418.5, 52328.098, -0.07116169, -0.07659534, -988706.9, -52179.617, 0.0, 9.999423, 9.999551 
7.4501044e+2, 2.1443596e+2, -914514.9, -917111.3, 22581.572, -0.017028023, -0.0097096525, -893194.2, -54668.996, 0.0, 9.999632, 9.999595 
7.4500513e+2, 2.2443563e+2, -812852.56, -853444.8, 4492.3657, -0.015488967, 0.013664704, -812361.3, -71832.055, 0.0, 9.99981, 9.999275 
7.4499905e+2, 2.344345e+2, -696042.94, -744298.1, 13326.648, -0.07916607, -0.031496786, -692607.2, -50066.145, 0.0, 9.999931, 9.999292 
7.449936e+2, 2.4443366e+2, -613900.4, -675032.9, 20164.938, -0.08057774, -0.03422324, -607848.0, -63298.547, 0.0, 9.999914, 9.999103 
7.449891e+2, 2.5443318e+2, -539513.7, -585423.06, 7068.2954, -0.005881344, 0.0036071339, -538450.06, -91896.32, 0.0, 9.999739, 9.999129 
7.449842e+2, 2.644323e+2, -479891.6, -489587.97, 26678.86, 0.0017993657, -0.002211771, -457624.0, -109061.68, 0.0, 9.999407, 9.999275 
7.449789e+2, 2.7443093e+2, -453958.1, -422201.2, 31852.984, -0.07170788, -0.07297195, -402488.38, -151912.17, 0.0, 9.998894, 9.999311 
7.449736e+2, 2.8443033e+2, -351206.7, -335220.38, 8495.499, -0.11346926, -0.05747269, -331548.88, -178966.38, 0.0, 9.998983, 9.999193 
7.449682e+2, 2.944307e+2, -130505.76, -177125.34, 1049.8429, -0.120083645, 0.052155033, -130482.125, -75902.7, 0.0, 9.999822, 9.999202 
7.449633e+2, 3.044298e+2, -34108.402, -66022.15, 9706.686, -0.0975176, 0.028987424, -31387.973, -31387.973, 0.0000000015345106, 9.99998, 9.999556 
7.449594e+2, 3.1442913e+2, -106772.79, -58638.855, 19866.33, -0.009606594, 0.00029686853, -51498.61, -51498.61, 0.00000026410652, 9.999295, 9.999934 
7.550533e+2, 1.24445446e+2, -1822127.4, -1707002.6, -40118.51, -0.0404097, -0.05493555, -1694401.5, 26025.783, 0.0, 9.999015, 10.000523 
7.5505024e+2, 1.3444498e+2, -1699110.5, -1681464.5, 147807.81, -0.076929934, -0.08572159, -1542216.6, 80214.22, 0.0, 9.9995365, 9.999784 
7.55047e+2, 1.444445e+2, -1611788.6, -1643219.3, 30833.008, -0.018976009, -0.08416238, -1592896.9, -68460.555, 0.0, 9.999705, 9.999286 
7.550415e+2, 1.5444435e+2, -1533028.1, -1554557.8, -8698.949, -0.007196946, -0.030966667, -1529952.6, -103511.77, 0.0, 9.999575, 9.999284 
7.5503564e+2, 1.6444391e+2, -1403591.0, -1414539.0, -12007.141, -0.038334776, -0.014355078, -1395869.0, -67422.164, 0.0, 9.999675, 9.999522 
7.5503e+2, 1.7444308e+2, -1245445.1, -1283780.8, -208.31125, -0.07649297, -0.05414885, -1245444.0, -14989.369, 0.0, 10.000071, 9.999557 
7.550248e+2, 1.8444258e+2, -1114001.9, -1117490.8, 24346.39, -0.068872295, -0.08124379, -1091337.5, 41120.563, 0.0, 10.0000725, 10.000026 
7.550202e+2, 1.9444248e+2, -1081717.0, -1045110.1, 52782.46, -0.017267019, -0.10402335, -1007547.6, 26908.482, 0.0, 9.999597, 10.000079 
7.550154e+2, 2.0444217e+2, -1093459.5, -1133549.4, 57258.645, 0.013433517, -0.08358692, -1052838.5, -116378.84, 0.0, 9.999417, 9.998887 
7.550105e+2, 2.1444167e+2, -967417.7, -1025810.6, 30702.936, 0.02398406, -0.021645747, -954245.5, -115775.375, 0.0, 9.999626, 9.998853 
7.550052e+2, 2.2444125e+2, -799312.2, -823400.75, 8104.735, 0.011343114, 0.021138657, -796839.2, -56362.395, 0.0, 9.999802, 9.999485 
7.5499946e+2, 2.344409e+2, -678803.6, -706754.2, 18512.078, -0.031089582, 0.028300386, -669583.94, -27105.082, 0.0, 9.999924, 9.999554 
7.5499374e+2, 2.4444011e+2, -635709.06, -718844.5, 13452.694, -0.06405784, 0.032056186, -633586.4, -89099.9, 0.0, 9.999908, 9.998805 
7.54988e+2, 2.5443882e+2, -563839.7, -634880.56, 1373.6866, -0.08524525, 0.018684179, -563813.1, -117312.016, 0.0, 9.999734, 9.998792 
7.5498277e+2, 2.6443785e+2, -473744.4, -476065.7, 7537.1626, -0.08093532, 0.019700758, -467279.06, -118768.59, 0.0, 9.999403, 9.99937 
7.54978e+2, 2.7443737e+2, -446051.88, -403834.75, 14119.007, -0.044571348, 0.024083303, -399548.06, -149034.63, 0.0, 9.998885, 9.999442 
7.549733e+2, 2.844363e+2, -360539.03, -352956.13, 37547.992, -0.0386315, -0.010285517, -319008.63, -166486.16, 0.0, 9.998976, 9.999075 
7.549685e+2, 2.9443452e+2, -140923.84, -197897.95, 34488.66, -0.07339913, -0.10012289, -124678.586, -70140.02, 0.0, 9.999817, 9.999063 
7.549634e+2, 3.0443373e+2, -62273.598, -122430.56, -13802.154, -0.08908915, -0.08662637, -59258.055, -59258.055, 0.00000000001992495, 9.999971, 9.999171 
7.5495845e+2, 3.1443456e+2, -147766.0, -138572.45, -4354.296, -0.034690008, 0.07525972, -136837.53, -136837.53, 0.000000109993245, 9.999273, 9.999396 
7.650528e+2, 1.24450795e+2, -1751800.8, -1645743.4, -108467.3, -0.0073973434, -0.013036868, -1578036.0, 142341.75, 0.0, 9.999377, 10.00077 
7.650498e+2, 1.3445045e+2, -1752355.9, -1677694.0, 59255.074, -0.04618543, -0.05620878, -1644991.0, -22612.865, 0.0, 9.999044, 10.000047 
7.6504666e+2, 1.4444998e+2, -1711235.9, -1684089.4, -25458.26, 0.011037007, -0.070889704, -1668812.0, -144429.63, 0.0, 9.998992, 9.99935 
7.6504123e+2, 1.5444958e+2, -1550863.3, -1557527.1, 121.01348, 0.02001427, -0.048596386, -1550861.0, -124471.84, 0.0, 9.999427, 9.999334 
7.6503557e+2, 1.64449e+2, -1385216.0, -1391916.5, 34152.273, -0.01863671, -0.05445313, -1354250.1, -25854.102, 0.0, 9.999738, 9.999649 
7.6502997e+2, 1.744482e+2, -1261086.9, -1275882.6, 34209.414, -0.07471324, -0.10608166, -1233484.6, -3081.6855, 0.0, 9.999896, 9.999696 
7.6502484e+2, 1.8444802e+2, -1133993.6, -1125691.9, 10479.369, -0.065102786, -0.11076061, -1118571.3, 13832.426, 0.0, 9.99993, 10.000037 
7.650202e+2, 1.9444853e+2, -1048039.75, -1028414.4, -17227.656, 0.013502261, -0.06981104, -1018400.8, 15996.134, 0.0, 9.999826, 10.000082 
7.6501524e+2, 2.0444831e+2, -1039403.6, -1113966.9, -1792.961, 0.037120026, -0.039124995, -1039360.5, -102960.07, 0.0, 9.999816, 9.998829 
7.6501e+2, 2.1444719e+2, -931168.44, -1015387.25, 22259.648, -0.002767456, -0.033667777, -925647.0, -87230.41, 0.0, 9.999906, 9.99879 
7.6500475e+2, 2.2444656e+2, -782251.8, -814288.3, 16010.552, -0.020608965, -0.006315347, -775622.25, -35197.36, 0.0, 9.999919, 9.99949 
7.649995e+2, 2.3444659e+2, -689845.3, -711366.06, 4149.677, -0.012665071, 0.036329668, -689072.9, -46649.47, 0.0, 9.999847, 9.999558 
7.649939e+2, 2.444459e+2, -651196.56, -726444.9, -3670.5962, -0.033653036, 0.05067276, -651017.94, -106587.85, 0.0, 9.999802, 9.998804 
7.649877e+2, 2.544444e+2, -556138.94, -631213.56, 7599.434, -0.090481095, 0.016732186, -555377.4, -108930.56, 0.0, 9.999788, 9.998791 
7.649822e+2, 2.644434e+2, -415297.44, -464380.94, 17761.967, -0.10040345, 0.017435865, -409544.22, -61087.34, 0.0, 9.999876, 9.999221 
7.649774e+2, 2.7444297e+2, -282870.78, -342494.6, 146.67386, -0.05045562, 0.04597012, -282870.4, -32411.674, 0.0, 10.000081, 9.999287 
7.6497287e+2, 2.8444174e+2, -228794.89, -293990.56, 26113.797, -0.028484486, 0.0069819903, -219624.92, -67156.125, 0.0, 9.9999, 9.999036 
7.6496834e+2, 2.9443958e+2, -222834.98, -241248.48, 29927.94, -0.045071922, -0.1189556, -200729.66, -146241.38, 0.0, 9.99927, 9.999027 
7.6496315e+2, 3.0443904e+2, -194182.42, -174060.84, -8643.64, -0.065097794, -0.08777461, -170857.69, -170857.69, 0.0, 9.999012, 9.99928 
7.649578e+2, 3.1443942e+2, -156301.53, -126536.03, 34195.375, -0.022117551, 0.021179156, -104125.08, -104125.08, 0.000000028836135, 9.999145, 9.99954 
7.7505255e+2, 1.2445494e+2, -1739012.0, -1619979.4, -111091.42, 0.026404707, 0.018301554, -1553465.9, 166876.23, 0.00000000003061157, 9.99938, 10.000946 
7.75049e+2, 1.3445498e+2, -1737660.0, -1647632.5, 45939.39, -0.03871896, -0.0061685946, -1628329.4, -5991.429, 0.0, 9.999047, 10.000252 
7.750455e+2, 1.4445484e+2, -1647585.5, -1554177.3, -12953.123, -0.0012560115, -0.043095924, -1552414.3, -28077.299, 0.0, 9.999, 10.0002365 
7.750405e+2, 1.5445445e+2, -1485632.8, -1424576.4, 17103.004, 0.0046896343, -0.11017474, -1420112.0, 6227.369, 0.0, 9.999435, 10.000244 
7.750354e+2, 1.6445413e+2, -1382081.3, -1385406.1, 39066.793, -0.008485753, -0.13871877, -1344641.5, -16299.863, 0.0, 9.999739, 9.999694 
7.750305e+2, 1.7445396e+2, -1261155.4, -1275845.4, 40357.973, -0.008171928, -0.12839441, -1227479.5, 2864.0327, 0.0, 9.999896, 9.999697 
7.750254e+2, 1.8445408e+2, -1181064.5, -1223166.1, 5738.3022, 0.0055771866, -0.06919166, -1180296.5, -47952.426, 0.0, 9.999928, 9.99937 
7.750201e+2, 1.9445457e+2, -1098068.3, -1131839.9, -20888.604, 0.026940294, 0.037536893, -1088094.0, -53750.89, 0.0, 9.999823, 9.999374 
7.7501464e+2, 2.0445412e+2, -1001985.1, -1034008.5, 80.10194, -0.005951123, 0.056097627, -1001984.94, -65635.625, 0.0, 9.999806, 9.999382 
7.750089e+2, 2.1445253e+2, -888922.1, -925642.7, 26015.43, -0.10103303, -0.045898333, -875440.56, -37076.17, 0.0, 9.999897, 9.999409 
7.7500373e+2, 2.2445163e+2, -798295.8, -846733.1, 12311.097, -0.11473481, -0.06900334, -795346.4, -54973.043, 0.0, 9.999914, 9.99927 
7.749992e+2, 2.3445156e+2, -709181.2, -750470.5, 2101.0461, -0.029709915, -0.0068208426, -709074.56, -66700.04, 0.0, 9.999843, 9.999293 
7.749941e+2, 2.4445103e+2, -631398.3, -682989.6, -5150.7134, 0.004569506, 0.02149135, -630889.1, -86509.04, 0.0, 9.999792, 9.999107 
7.7498823e+2, 2.5444993e+2, -533182.9, -581930.06, 8291.939, -0.024568886, -0.004652695, -531811.0, -85419.94, 0.0, 9.999782, 9.999132 
7.749826e+2, 2.6444885e+2, -444223.72, -524665.44, 24911.625, -0.058829244, -0.009829542, -437133.8, -88732.21, 0.0, 9.999876, 9.998808 
7.74977e+2, 2.7444774e+2, -316168.66, -410833.63, 9063.758, -0.09819903, -0.0031872578, -315308.66, -64896.867, 0.0, 10.000075, 9.99882 
7.749721e+2, 2.8444672e+2, -224742.81, -283350.78, 3132.4553, -0.09370891, -0.0023622573, -224575.88, -72154.63, 0.0, 9.999891, 9.999112 
7.749677e+2, 2.944458e+2, -216929.88, -227356.98, 8925.062, -0.03822858, -0.012224304, -211807.19, -157378.03, 0.0, 9.999264, 9.999126 
7.7496254e+2, 3.044456e+2, -155364.23, -90962.55, -3505.7292, -0.02728108, 0.020200599, -90772.27, -90772.27, 0.0, 9.999001, 9.999856 
7.749573e+2, 3.1444395e+2, -105350.62, -18270.281, 41072.277, 0.01007605, -0.13904025, -1954.973, -1954.973, 0.0000000029769756, 9.999131, 10.000293 
7.850523e+2, 1.24459736e+2, -1738269.4, -1636956.3, -19361.605, 0.061308034, 0.006425482, -1633382.3, 86913.07, 0.0000000009851104, 9.999458, 10.0007925 
7.850485e+2, 1.3445951e+2, -1666550.3, -1629848.9, 95875.74, -0.019601058, -0.031279486, -1550583.4, 71711.21, 0.0, 9.999608, 10.000103 
7.8504485e+2, 1.444595e+2, -1528658.3, -1470024.8, 15934.172, 0.0027976432, -0.055862598, -1465974.4, 58318.035, 0.0, 9.999698, 10.000481 
7.8504e+2, 1.5445973e+2, -1413070.1, -1359322.9, -2430.2788, -0.0063172495, -0.088354304, -1359213.1, 67075.37, 0.0, 9.999804, 10.000515 
7.85035e+2, 1.644598e+2, -1365868.1, -1360172.6, -9702.256, -0.019430706, -0.10120709, -1352908.9, -24621.906, 0.0, 9.999777, 9.999847 
7.850303e+2, 1.744597e+2, -1292835.0, -1275228.6, -33.966187, -0.002694821, -0.09729466, -1275228.5, -44940.727, 0.0, 9.99961, 9.999838 
7.8502536e+2, 1.844597e+2, -1241813.5, -1274239.0, -8674.037, 0.013854213, -0.04815605, -1239638.9, -107348.94, 0.0, 9.999604, 9.999176 
7.850199e+2, 1.9445983e+2, -1116849.3, -1164417.3, 167.5131, 0.018722821, 0.043664917, -1116848.6, -82554.625, 0.0, 9.999796, 9.999165 
7.8501433e+2, 2.0445943e+2, -976596.7, -976978.6, 32283.379, -0.018267663, 0.0594338, -944503.7, -8204.216, 0.0, 9.99979, 9.999781 
7.850086e+2, 2.1445839e+2, -909347.56, -887553.2, 42014.434, -0.102185324, -0.030210363, -855045.75, -16739.0, 0.0, 9.999552, 9.999837 
7.850034e+2, 2.2445762e+2, -865458.5, -890528.1, 31420.988, -0.114574745, -0.057745486, -844164.4, -103850.88, 0.0, 9.999503, 9.999167 
7.8499883e+2, 2.3445717e+2, -740035.8, -780192.06, 29385.541, -0.04164496, -0.021778403, -724524.0, -82204.445, 0.0, 9.999696, 9.999159 
7.849938e+2, 2.4445647e+2, -624915.7, -688211.0, 15921.282, -0.0032989918, -0.0005963612, -621136.5, -76809.164, 0.0, 9.999875, 9.999029 
7.849883e+2, 2.5445545e+2, -502160.25, -575520.3, -4026.7705, -0.008162347, -0.009129263, -501939.88, -55602.992, 0.0, 10.000032, 9.999055 
7.849827e+2, 2.6445436e+2, -439076.44, -533801.5, 3351.3477, -0.034245618, -0.007264848, -438958.03, -90610.516, 0.0, 9.999962, 9.998704 
7.849771e+2, 2.744531e+2, -387950.97, -457614.0, 12217.687, -0.08594743, -0.007871443, -385870.3, -135510.52, 0.0, 9.999637, 9.998711 
7.849718e+2, 2.84452e+2, -293083.88, -312223.8, 8726.738, -0.087307796, -0.008248003, -289702.38, -137332.4, 0.0, 9.999404, 9.999147 
7.8496706e+2, 2.9445124e+2, -216120.39, -221684.6, 6042.5645, -0.02687263, -0.00832231, -212250.23, -157873.77, 0.0, 9.9992485, 9.99917 
7.849618e+2, 3.0445117e+2, -102729.27, -82039.79, -3919.7896, -0.017256105, 0.0454546, -81322.055, -81322.055, 0.0, 9.9994335, 9.999708 
7.8495705e+2, 3.1444883e+2, 36111.965, 61138.547, -21193.836, 0.025741266, -0.16899945, 73237.47, 73237.47, 0.0, 10.000056, 10.000391 
7.9505193e+2, 1.2446523e+2, -1770092.1, -1706401.5, -6193.146, 0.076508164, -0.047391925, -1705804.9, 14432.079, 0.0000000034592607, 9.999471, 10.000311 
7.9504836e+2, 1.3446401e+2, -1700191.9, -1702716.6, 100805.97, 0.007690865, -0.13277455, -1600640.4, 21607.838, 0.0, 9.9996195, 9.9995985 
7.950447e+2, 1.4446403e+2, -1554930.1, -1524853.9, 17371.098, 0.018354427, -0.10948024, -1516915.9, 7332.643, 0.0, 9.999701, 10.000102 
7.950397e+2, 1.544655e+2, -1438588.6, -1411504.4, 2158.3303, -0.021032855, 0.016844647, -1411333.5, 14902.667, 0.0, 9.999801, 10.000157 
7.9503447e+2, 1.6446604e+2, -1348551.9, -1323643.8, -16653.543, -0.059025522, 0.05694647, -1315302.5, 12928.805, 0.0, 9.999773, 10.000101 
7.9502934e+2, 1.7446545e+2, -1272902.4, -1234714.5, -5697.2334, -0.06100058, -0.013970743, -1233882.6, -3647.2703, 0.0, 9.999612, 10.000116 
7.9502434e+2, 1.844649e+2, -1222821.5, -1234110.5, -3405.58, -0.044841915, -0.048752367, -1221873.8, -89632.4, 0.0, 9.999602, 9.999452 
7.950193e+2, 1.9446434e+2, -1098294.6, -1124691.3, 7535.5347, -0.016188899, -0.05138485, -1096294.9, -62045.332, 0.0, 9.999791, 9.999439 
7.950142e+2, 2.0446429e+2, -960442.25, -942383.6, 22746.334, -0.0048979656, -0.028288987, -926940.0, 9310.71, 0.0, 9.999784, 10.000021 
7.950091e+2, 2.1446481e+2, -893560.6, -853132.9, 33342.816, -0.01086129, 0.014279832, -834355.2, 3888.0923, 0.0, 9.999543, 10.000077 
7.9500383e+2, 2.2446458e+2, -866203.3, -889750.2, 36498.727, -0.025664141, 0.027361237, -839626.1, -99380.99, 0.0, 9.999493, 9.999178 
7.949984e+2, 2.344634e+2, -740750.5, -780788.06, 37234.973, -0.05189458, -0.008954771, -718494.06, -76235.53, 0.0, 9.999692, 9.999157 
7.949931e+2, 2.444622e+2, -657766.3, -756303.56, 21353.643, -0.06137806, -0.01541097, -653337.9, -109066.305, 0.0, 9.999873, 9.998564 
7.949879e+2, 2.54461e+2, -538002.8, -648550.44, 2790.7937, -0.050079025, 0.006039725, -537932.44, -91648.45, 0.0, 10.000025, 9.998558 
7.949827e+2, 2.6445994e+2, -425436.4, -503093.38, -8985.725, -0.035086755, 0.025776135, -424410.22, -76115.78, 0.0, 9.999951, 9.99892 
7.9497737e+2, 2.7445891e+2, -370255.22, -420057.6, 1546.5964, -0.015290113, 0.02567452, -370207.22, -119904.03, 0.0, 9.999633, 9.99897 
7.94972e+2, 2.8445756e+2, -296242.13, -318540.66, 3324.481, -0.010121755, -0.013974029, -295757.03, -143441.86, 0.0, 9.999401, 9.999106 
7.949663e+2, 2.9445583e+2, -221106.88, -230610.42, 2207.9321, -0.026012868, -0.10108826, -220618.95, -166289.11, 0.0, 9.999239, 9.999115 
7.949609e+2, 3.044558e+2, -162850.25, -203457.11, 17146.57, -0.051088024, -0.0056255306, -156578.61, -156578.61, 0.0, 9.99942, 9.99888 
7.9495704e+2, 3.1445405e+2, -4708.218, -21979.596, 3433.934, 0.016545048, -0.072046556, -4050.5205, -4050.5205, 0.0, 10.00005, 9.999824 
8.050525e+2, 1.2447082e+2, -1645625.6, -1675467.8, -50538.72, 0.13379663, -0.021230046, -1607851.3, 112332.21, 0.0000000057252847, 10.00045, 10.000053 
8.050483e+2, 1.3446946e+2, -1665860.4, -1712282.1, 63146.92, 0.023599561, -0.097265534, -1621793.6, 403.3943, 0.0, 9.99997, 9.999363 
8.050443e+2, 1.4446938e+2, -1585721.8, -1550110.4, 5273.7065, 0.013401632, -0.06949136, -1549345.8, -25146.701, 0.0, 9.9995365, 10.000006 
8.0503917e+2, 1.5447064e+2, -1521713.9, -1462208.8, 9106.258, -0.02512932, 0.04708973, -1460846.4, -34657.61, 0.0, 9.999276, 10.000062 
8.050338e+2, 1.644712e+2, -1426307.1, -1343047.4, 524.3282, -0.06710375, 0.08691835, -1343044.1, -14860.257, 0.0, 9.999161, 10.000264 
8.0502856e+2, 1.744709e+2, -1317916.6, -1236329.0, 1910.9265, -0.083688, 0.025508948, -1236284.3, -6099.2666, 0.0, 9.999217, 10.000296 
8.0502343e+2, 1.8447046e+2, -1237862.4, -1211070.1, 11713.455, -0.08222561, -0.019353624, -1206671.3, -74482.4, 0.0, 9.999371, 9.999721 
8.0501854e+2, 1.9446984e+2, -1098125.1, -1094233.8, 21899.19, -0.06708113, -0.0566801, -1074194.0, -39997.902, 0.0, 9.999663, 9.999709 
8.0501366e+2, 2.0446977e+2, -977267.06, -965059.0, 8794.837, -0.04082, -0.041078553, -960457.5, -24260.695, 0.0, 9.999732, 9.99989 
8.050087e+2, 2.1447042e+2, -907591.56, -876474.56, -13001.775, 0.0012530652, 0.027025027, -871757.2, -33567.62, 0.0, 9.99952, 9.9999275 
8.050035e+2, 2.2447027e+2, -859433.4, -885410.6, -7132.765, -0.0032329632, 0.058359195, -857603.75, -117412.664, 0.0, 9.999536, 9.999186 
8.0499804e+2, 2.3446922e+2, -719179.06, -768491.0, -5436.078, -0.06473211, 0.032486107, -718586.94, -76383.555, 0.0, 9.999832, 9.999173 
8.049928e+2, 2.4446803e+2, -626763.75, -733243.94, -3930.267, -0.09056605, 0.021809505, -626618.9, -82402.75, 0.0, 10.000051, 9.998637 
8.049877e+2, 2.5446668e+2, -509642.28, -626532.94, 18411.25, -0.07381666, 0.01970393, -506810.94, -60581.645, 0.0, 10.000184, 9.998632 
8.049826e+2, 2.644655e+2, -406943.03, -497031.44, 4336.782, -0.043171916, 0.03090414, -406734.75, -58494.777, 0.0, 10.000092, 9.998894 
8.0497724e+2, 2.744646e+2, -363645.13, -420423.38, -10291.236, 0.006623464, 0.041238934, -361837.34, -111589.19, 0.0, 9.999695, 9.998938 
8.049718e+2, 2.8446308e+2, -271952.6, -327597.25, -5977.5386, 0.022392659, -0.0024462773, -271317.7, -119056.12, 0.0, 9.999658, 9.99892 
8.0496615e+2, 2.9446098e+2, -111009.695, -199377.28, -18876.885, -0.008890693, -0.11209288, -107146.17, -52865.953, 0.0, 10.00009, 9.9989195 
8.049606e+2, 3.0446076e+2, -98281.04, -209603.3, 3802.7239, -0.05189243, -0.0051391893, -98151.29, -98151.29, 0.0, 10.000024, 9.998548 
8.049566e+2, 3.1445923e+2, -117350.5, -76942.195, 24374.734, 0.006951928, -0.016932221, -65486.668, -65486.668, 0.0, 9.999279, 9.999817 
8.1505376e+2, 1.2447664e+2, -1647202.3, -1680842.9, -62732.074, 0.2124978, 0.08886233, -1599074.6, 121059.086, 0.000000004999778, 10.000459, 10.000012 
8.150482e+2, 1.344759e+2, -1665083.5, -1709115.1, 44253.035, 0.020341255, 0.074293815, -1637672.3, -15531.845, 0.0, 9.999965, 9.999387 
8.150435e+2, 1.4447553e+2, -1573751.1, -1525059.8, -6746.986, -0.019591242, 0.063898206, -1524142.1, 1.3910412, 0.0, 9.999534, 10.000181 
8.150385e+2, 1.544752e+2, -1507670.5, -1436431.4, 845.3194, -0.022192258, 0.002658005, -1436421.4, -10275.311, 0.0, 9.999289, 10.000235 
8.150332e+2, 1.6447532e+2, -1420729.8, -1333045.9, 887.8979, -0.04898354, -0.012201934, -1333036.9, -4892.704, 0.0, 9.999167, 10.000328 
8.1502783e+2, 1.7447604e+2, -1313835.5, -1226526.5, 4167.0674, -0.077456735, 0.020878378, -1226328.1, 3808.3599, 0.0, 9.999212, 10.000364 
8.150226e+2, 1.844764e+2, -1220369.4, -1173355.8, 21042.12, -0.10442667, 0.039931208, -1165313.6, -33181.152, 0.0, 9.999364, 9.999984 
8.150175e+2, 1.944763e+2, -1079374.6, -1054867.5, 33266.95, -0.13742167, 0.028405854, -1031669.06, 2464.1929, 0.0, 9.9996605, 9.999981 
8.150125e+2, 2.0447592e+2, -1013610.44, -1039048.44, 583.5428, -0.12982887, 0.020703489, -1013597.06, -77459.66, 0.0, 9.999726, 9.999386 
8.1500757e+2, 2.1447518e+2, -946998.94, -956948.7, -20713.729, -0.07051389, 0.0077489275, -930671.06, -92525.7, 0.0, 9.999515, 9.999378 
8.150026e+2, 2.2447476e+2, -859132.44, -883971.1, 2030.2295, -0.052962475, 0.03577227, -858967.6, -118816.6, 0.0, 9.999531, 9.999198 
8.149977e+2, 2.3447467e+2, -717022.44, -762832.06, 6362.393, -0.08570983, 0.10303589, -716155.2, -74001.305, 0.0, 9.9998255, 9.999215 
8.149928e+2, 2.4447396e+2, -585189.4, -645283.44, 418.24493, -0.09628859, 0.11014422, -585186.5, -41025.688, 0.0, 10.000043, 9.999245 
8.1498784e+2, 2.5447246e+2, -464628.03, -532980.6, 24225.14, -0.08126163, 0.029928682, -456913.06, -10740.24, 0.0, 10.000183, 9.999276 
8.149825e+2, 2.644712e+2, -427257.84, -538613.4, -9597.51, -0.06126122, 0.008094026, -426436.7, -78252.76, 0.0, 10.000088, 9.9986105 
8.149766e+2, 2.7447018e+2, -388801.5, -470392.72, -23814.246, -0.032825593, 0.04388261, -382359.4, -132165.16, 0.0, 9.999683, 9.9986 
8.1497127e+2, 2.8446862e+2, -295188.8, -373821.34, 7777.2363, -0.002532191, 0.028548235, -294426.97, -142217.97, 0.0, 9.999648, 9.998609 
8.1496656e+2, 2.944665e+2, -133677.02, -246755.11, -454.88672, 0.023868935, -0.04918922, -133675.19, -79446.88, 0.0, 10.000091, 9.998594 
8.14961e+2, 3.04466e+2, -87771.75, -187489.27, -20681.527, -0.018845586, 0.041474715, -83652.54, -83652.54, 0.0, 10.000022, 9.9987 
8.149556e+2, 3.144644e+2, -84177.43, -4357.3877, -3088.9326, -0.026874254, -0.0034528621, -4238.029, -4238.029, 0.0000000016901937, 9.999261, 10.000325 
8.25054e+2, 1.24482065e+2, -1629989.1, -1660202.9, -63061.973, 0.1886538, 0.15130259, -1580249.9, 139835.48, 0.0000000017683296, 10.000527, 10.000117 
8.250482e+2, 1.3448143e+2, -1648278.1, -1685534.3, 40247.25, 0.01933843, 0.13233678, -1622557.0, -467.14117, 0.0, 10.000015, 9.999523 
8.2504314e+2, 1.444811e+2, -1552993.0, -1499301.1, 4873.1543, -0.016738182, 0.11063916, -1498862.5, 25229.377, 0.0, 9.999608, 10.000322 
8.250377e+2, 1.5448058e+2, -1482758.8, -1408439.8, 8786.627, -0.03858327, 0.017523453, -1407415.0, 18680.498, 0.0, 9.9993925, 10.000377 
8.250323e+2, 1.6448063e+2, -1408412.8, -1327604.9, 15218.406, -0.06293248, -0.012070317, -1324833.8, 3260.1572, 0.0, 9.999257, 10.000321 
8.2502717e+2, 1.744814e+2, -1310876.4, -1227768.9, 11634.412, -0.064732775, 0.028913518, -1226170.9, 3914.7336, 0.0, 9.999244, 10.00034 
8.2502204e+2, 1.844819e+2, -1245481.1, -1170506.8, 22704.658, -0.08338092, 0.05615874, -1164167.1, -32087.3, 0.0, 9.999128, 10.000116 
8.2501686e+2, 1.9448201e+2, -1182936.9, -1089134.1, 23104.55, -0.13226299, 0.05161293, -1083752.0, -49674.38, 0.0, 9.998882, 10.00012 
8.2501173e+2, 2.0448156e+2, -1112129.3, -1100935.4, 9667.48, -0.1480561, 0.03672984, -1095361.5, -159279.36, 0.0, 9.999113, 9.999255 
8.250068e+2, 2.1448046e+2, -895699.94, -948420.5, 18262.25, -0.120764785, 0.00027109456, -889991.94, -51897.324, 0.0, 9.999937, 9.999232 
8.2500196e+2, 2.2447982e+2, -771077.7, -844098.9, 41338.918, -0.10154325, 0.018286373, -752434.56, -12332.191, 0.0, 10.000147, 9.999176 
8.249973e+2, 2.3447978e+2, -751636.9, -781283.7, 38401.586, -0.0927413, 0.091439396, -725297.0, -83192.4, 0.0, 9.999597, 9.999199 
8.2499254e+2, 2.4447925e+2, -676179.5, -667315.8, 25112.346, -0.08652613, 0.10767716, -646247.25, -102137.695, 0.0, 9.999326, 9.999439 
8.249876e+2, 2.544781e+2, -564064.1, -557299.0, 15085.868, -0.08434011, 0.04192172, -545221.1, -99103.2, 0.0, 9.9994, 9.999485 
8.249823e+2, 2.644769e+2, -484425.53, -579562.5, -27902.121, -0.07275084, 0.022199789, -476846.13, -128717.71, 0.0, 9.999754, 9.998489 
8.249765e+2, 2.744756e+2, -286984.34, -437012.72, -29184.133, -0.047298815, 0.04551822, -281507.28, -31365.395, 0.0, 10.00045, 9.99846 
8.2497126e+2, 2.8447402e+2, -167470.88, -319126.72, 12139.354, -0.010541385, 0.035863385, -166505.33, -14347.916, 0.0, 10.000556, 9.998547 
8.2496667e+2, 2.944721e+2, -162086.95, -266704.97, 20951.512, 0.034754455, -0.016757919, -158047.06, -103872.125, 0.0, 9.999923, 9.998538 
8.249608e+2, 3.0447134e+2, -154578.67, -223300.14, -2957.9395, -0.012529341, 0.053465154, -154451.6, -154451.6, 0.0, 9.999579, 9.998668 
8.249547e+2, 3.144698e+2, -22407.16, 51595.758, -9239.132, -0.04850573, 0.021898864, 52731.805, 52731.805, 0.000000023716037, 9.999576, 10.000557 
8.350531e+2, 1.2448717e+2, -1612651.9, -1625953.6, -74368.35, 0.043950967, 0.16705698, -1544637.6, 175400.02, 0.000000000051048894, 10.00053, 10.000354 
8.350482e+2, 1.3448608e+2, -1627289.5, -1646818.4, 22267.955, 0.015996413, 0.07613927, -1612739.1, 9305.679, 0.0, 10.000031, 9.999782 
8.350431e+2, 1.4448604e+2, -1546429.9, -1486758.0, -5498.534, 0.014951236, 0.068126254, -1486255.6, 37788.086, 0.0, 9.999614, 10.000404 
8.350367e+2, 1.5448678e+2, -1477402.5, -1395104.4, 970.87164, -0.07896366, 0.09048704, -1395092.9, 30944.104, 0.0, 9.999384, 10.000471 
8.3503103e+2, 1.6448711e+2, -1414326.9, -1338783.6, 13549.102, -0.114268355, 0.08795998, -1336427.0, -8394.035, 0.0, 9.99925, 10.000249 
8.3502656e+2, 1.7448701e+2, -1315964.0, -1240504.1, 12326.811, -0.05032563, 0.051322915, -1238541.5, -8509.542, 0.0, 9.999252, 10.00025 
8.350218e+2, 1.8448697e+2, -1246359.3, -1172592.8, 12885.95, -0.025568744, 0.029486002, -1170406.5, -38375.965, 0.0, 9.999129, 10.000101 
8.350165e+2, 1.9448695e+2, -1184113.6, -1090158.3, 13942.163, -0.05705404, 0.01225257, -1088133.1, -54104.043, 0.0, 9.998877, 10.000115 
8.350113e+2, 2.0448671e+2, -1096012.5, -1065900.0, 37315.598, -0.100518405, 0.0071721952, -1040717.6, -104686.72, 0.0, 9.999105, 9.999499 
8.3500636e+2, 2.1448621e+2, -877983.56, -910738.1, 49437.234, -0.15415227, 0.0047945306, -842281.5, -4244.4414, 0.0, 9.999932, 9.999494 
8.350016e+2, 2.2448552e+2, -776828.3, -854867.5, 21871.277, -0.15321974, 0.0055379635, -771116.7, -31071.637, 0.0, 10.00014, 9.999105 
8.3499694e+2, 2.3448457e+2, -757798.94, -793781.56, 17724.81, -0.08841654, -0.0027629496, -750534.44, -108479.086, 0.0, 9.999595, 9.999115 
8.349921e+2, 2.4448392e+2, -691952.44, -699218.7, 25863.61, -0.064636715, 0.01564205, -669468.0, -125405.984, 0.0, 9.999321, 9.999222 
8.34987e+2, 2.544836e+2, -581338.25, -591414.5, 19015.896, -0.091041565, 0.055972893, -566704.4, -120640.08, 0.0, 9.999392, 9.999255 
8.349819e+2, 2.6448268e+2, -482296.25, -574398.5, -3289.668, -0.08525838, 0.07151892, -482178.9, -134105.5, 0.0, 9.999749, 9.998528 
8.3497703e+2, 2.744809e+2, -283109.28, -429200.06, -1698.785, -0.038420677, 0.04248618, -283089.53, -32998.3, 0.0, 10.00045, 9.998514 
8.3497185e+2, 2.844793e+2, -155563.61, -293349.63, -9031.17, -0.0039436226, 0.018273408, -154974.17, -2867.344, 0.0, 10.000551, 9.998726 
8.3496636e+2, 2.944778e+2, -150709.23, -239663.98, -1245.0403, 0.011206911, -0.0107065905, -150691.81, -96572.06, 0.0, 9.999908, 9.998731 
8.349601e+2, 3.044768e+2, -170601.25, -254740.88, -3953.1807, -0.044828348, 0.03507235, -170415.92, -170415.92, 0.0, 9.99957, 9.998457 
8.3495414e+2, 3.1447536e+2, -26788.465, 42234.14, -8048.653, -0.06775429, 0.03943631, 43160.258, 43160.258, 0.00000010288848, 9.999574, 10.000494 
8.4505296e+2, 1.2449231e+2, -1596725.3, -1592216.9, -40209.836, -0.021954618, 0.121730216, -1554198.1, 165788.75, 0.0, 10.000525, 10.000587 
8.450479e+2, 1.3449167e+2, -1656627.0, -1629135.1, 46644.395, 0.0020402137, 0.046459984, -1594253.4, 27736.23, 0.0, 9.999698, 10.000062 
8.450426e+2, 1.4449191e+2, -1628503.9, -1545634.3, 28653.852, 0.032904018, 0.06168855, -1536691.6, -12705.729, 0.0, 9.999136, 10.00023 
8.4503615e+2, 1.544928e+2, -1552296.5, -1453209.6, 14624.612, -0.05127951, 0.11905528, -1451096.3, -25117.457, 0.0, 9.998966, 10.000273 
8.450303e+2, 1.644931e+2, -1450142.1, -1357545.0, 32473.564, -0.09258106, 0.12293467, -1347292.0, -19316.49, 0.0, 9.999011, 10.000235 
8.450258e+2, 1.7449269e+2, -1307866.4, -1237291.0, 35552.535, -0.057948988, 0.055772297, -1222486.8, 7489.833, 0.0, 9.999311, 10.000243 
8.4502095e+2, 1.8449233e+2, -1200287.0, -1167498.5, 27386.926, -0.040239397, 0.011263058, -1151973.9, -19996.035, 0.0, 9.9995165, 9.999949 
8.4501576e+2, 1.9449204e+2, -1089123.5, -1062311.0, 15995.14, -0.052248903, -0.017590186, -1054847.0, -20867.736, 0.0, 9.999604, 9.999957 
8.4501076e+2, 2.0449196e+2, -1045592.25, -1022642.44, 38997.617, -0.08091619, -0.007316591, -993466.5, -57486.766, 0.0, 9.999369, 9.999671 
8.45006e+2, 2.144921e+2, -1041248.7, -968570.06, 44146.383, -0.1263681, 0.03609814, -947730.3, -109750.81, 0.0, 9.998721, 9.9996805 
8.450013e+2, 2.2449155e+2, -967900.44, -939401.2, 24032.059, -0.13112378, 0.03807117, -925711.75, -185726.11, 0.0, 9.998797, 9.999171 
8.4499663e+2, 2.3449016e+2, -728803.0, -773503.7, 29090.668, -0.08940737, -0.021428348, -714468.1, -72468.67, 0.0, 9.999766, 9.999171 
8.449918e+2, 2.4448933e+2, -571654.75, -652403.2, 37351.41, -0.0693428, -0.017827356, -557027.1, -13019.453, 0.0, 10.0001955, 9.999123 
8.449868e+2, 2.5448918e+2, -506318.72, -567320.75, 36651.332, -0.07548408, 0.051086284, -489137.13, -43128.063, 0.0, 9.999959, 9.999147 
8.449819e+2, 2.6448834e+2, -473055.7, -553510.2, 36846.164, -0.06237402, 0.07395744, -458731.38, -110713.68, 0.0, 9.9997425, 9.998673 
8.449772e+2, 2.7448657e+2, -399496.66, -466849.56, 45443.59, -0.02425696, 0.028269663, -376611.44, -126576.06, 0.0, 9.999574, 9.998676 
8.44972e+2, 2.8448513e+2, -290753.2, -344296.47, 23218.92, 0.002989456, 0.008670311, -282087.0, -130037.984, 0.0, 9.999564, 9.99885 
8.449662e+2, 2.9448402e+2, -169999.55, -234769.03, 22610.922, 0.014590652, 0.006378682, -162887.13, -108828.9, 0.0, 9.999717, 9.998856 
8.4495974e+2, 3.0448264e+2, -154699.69, -253808.56, 29319.947, -0.048150353, 0.008206928, -146675.47, -146675.47, 0.00000000024035085, 9.999709, 9.998395 
8.449535e+2, 3.144811e+2, -37096.984, 36812.703, 32419.781, -0.0839806, 0.009717682, 49017.83, 49017.83, 0.00000026211356, 9.999506, 10.000488 
8.550534e+2, 1.24497555e+2, -1582467.5, -1563288.9, -68717.766, -0.032400806, 0.016601583, -1503494.5, 216438.13, 0.0, 10.000528, 10.000785 
8.5504735e+2, 1.344982e+2, -1638781.5, -1591421.6, 14523.229, -0.02408593, 0.044144407, -1587322.8, 34601.25, 0.0, 9.999695, 10.000321 
8.5504174e+2, 1.4449875e+2, -1656105.9, -1603950.3, 19426.69, 0.032479495, 0.09347642, -1597509.6, -73591.33, 0.0, 9.999137, 9.99983 
8.5503596e+2, 1.5449871e+2, -1581237.4, -1517875.5, 9936.98, 0.035789236, 0.103982285, -1516353.6, -90433.14, 0.0, 9.998982, 9.999822 
8.5503024e+2, 1.644986e+2, -1448343.3, -1355524.5, 42178.38, -0.0070209373, 0.09137549, -1339221.4, -11300.292, 0.0, 9.999019, 10.000245 
8.5502476e+2, 1.7449841e+2, -1304431.9, -1229750.5, 47093.063, -0.09013246, 0.04059853, -1206990.5, 22928.951, 0.0, 9.99931, 10.000296 
8.5501957e+2, 1.8449801e+2, -1220314.5, -1207884.4, 29933.873, -0.13072918, 0.00089474686, -1183527.3, -51605.79, 0.0, 9.999511, 9.999676 
8.550147e+2, 1.9449732e+2, -1108997.5, -1104724.0, 19578.916, -0.1221224, -0.037929967, -1087165.5, -53237.605, 0.0, 9.999608, 9.999664 
8.5501003e+2, 2.0449732e+2, -1039773.75, -1009671.0, 14598.319, -0.09413764, -0.007755274, -1003754.44, -67826.1, 0.0, 9.999364, 9.999763 
8.5500556e+2, 2.1449816e+2, -1034116.1, -952411.8, 19784.75, -0.041492414, 0.09439891, -947873.06, -109951.68, 0.0, 9.998714, 9.999795 
8.55001e+2, 2.2449799e+2, -955532.25, -912154.4, 55982.27, -0.039980784, 0.11772645, -873806.44, -133882.9, 0.0, 9.99879, 9.999362 
8.5499626e+2, 2.3449655e+2, -715054.56, -744623.56, 66418.96, -0.10057536, 0.034103256, -661794.5, -19857.871, 0.0, 9.9997635, 9.999371 
8.549916e+2, 2.444955e+2, -571730.1, -652300.06, 30096.38, -0.10531327, 0.004960752, -561729.2, -17782.883, 0.0, 10.000193, 9.9991255 
8.5498714e+2, 2.5449488e+2, -507260.75, -568363.4, 28258.018, -0.04036755, 0.027261157, -496195.97, -50243.97, 0.0, 9.999953, 9.999144 
8.5498226e+2, 2.6449397e+2, -456085.5, -516540.28, 29340.383, -0.006486758, 0.031596497, -444187.44, -96226.46, 0.0, 9.999736, 9.998931 
8.549769e+2, 2.7449268e+2, -382661.1, -429017.25, 40288.707, -0.012121185, 0.0046911603, -359359.03, -109385.08, 0.0, 9.999561, 9.998941 
8.549715e+2, 2.844916e+2, -287579.8, -335856.94, 29000.379, 0.0023081328, 0.007837482, -273986.53, -122002.71, 0.0, 9.999555, 9.998913 
8.5496616e+2, 2.944908e+2, -167353.2, -227974.56, 30450.969, 0.040185187, 0.03250514, -154698.8, -100708.336, 0.0, 9.99971, 9.998906 
8.5495967e+2, 3.0448887e+2, -150095.19, -243392.34, 22516.164, -0.02573881, -0.029464101, -144945.42, -144945.42, 0.0000000059514194, 9.999705, 9.998468 
8.5495275e+2, 3.1448686e+2, -36251.01, 42609.883, 25657.863, -0.11017389, -0.085675456, 50222.887, 50222.887, 0.0000005093443, 9.999489, 10.000537 
8.650534e+2, 1.2450418e+2, -1782370.1, -1707713.4, -26904.379, -0.02893039, 0.0004517805, -1699028.1, 20837.525, 0.00000000000000000000885557, 9.999367, 10.000352 
8.650473e+2, 1.3450491e+2, -1614523.8, -1625230.1, -531.17444, -0.018369852, 0.077110104, -1614497.4, 7361.739, 0.0, 10.000058, 9.999915 
8.650415e+2, 1.4450517e+2, -1496005.1, -1537683.5, -15092.626, 0.03309654, 0.12435528, -1491113.9, 32742.938, 0.0, 10.000282, 9.999733 
8.650354e+2, 1.545045e+2, -1441981.4, -1460499.6, -990.7249, 0.032058265, 0.07702339, -1441928.5, -16065.01, 0.0, 9.99998, 9.999736 
8.6502975e+2, 1.6450407e+2, -1355615.4, -1334716.4, 50382.53, 0.00027457761, 0.04779413, -1293711.1, 34155.387, 0.0, 9.999756, 10.000034 
8.650246e+2, 1.7450401e+2, -1272553.3, -1237567.1, 36231.402, -0.056705274, 0.032345522, -1214826.9, 15037.542, 0.0, 9.999628, 10.000088 
8.6501944e+2, 1.8450372e+2, -1215671.6, -1213398.6, 17552.105, -0.09682565, 0.018982397, -1196946.3, -65080.465, 0.0, 9.999577, 9.999606 
8.650143e+2, 1.9450311e+2, -1113577.5, -1114394.6, 22546.6, -0.11843525, -0.00599915, -1091435.8, -57563.9, 0.0, 9.999609, 9.999598 
8.650096e+2, 2.0450296e+2, -995155.8, -1000185.25, 10439.698, -0.091591045, 0.017670594, -986932.25, -51058.543, 0.0, 9.9997225, 9.999655 
8.650052e+2, 2.1450341e+2, -864927.6, -883376.4, -3319.2869, -0.0073756333, 0.09064274, -864348.56, -26478.332, 0.0, 9.999929, 9.999684 
8.6500067e+2, 2.245031e+2, -801566.4, -825424.94, 37933.66, -0.0018539887, 0.102249734, -773730.5, -33857.41, 0.0, 9.999792, 9.9994755 
8.6499584e+2, 2.3450185e+2, -784458.75, -763520.7, 41151.89, -0.091401204, 0.025282077, -731527.06, -89643.43, 0.0, 9.999226, 9.999499 
8.6499125e+2, 2.4450098e+2, -722782.7, -709143.6, 3887.5247, -0.10723938, -0.0004755436, -708113.4, -164221.83, 0.0, 9.999088, 9.999266 
8.649869e+2, 2.545005e+2, -565029.75, -580017.6, 11521.577, -0.034031656, 0.021815505, -558779.4, -112882.84, 0.0, 9.999489, 9.999286 
8.64982e+2, 2.6449975e+2, -457410.4, -498963.88, 7324.9717, 0.0008720282, 0.029200174, -456156.97, -108253.04, 0.0, 9.999649, 9.999092 
8.6497647e+2, 2.744987e+2, -381035.66, -410358.06, 7962.8438, -0.010258246, 0.009492657, -379012.78, -129098.58, 0.0, 9.9994955, 9.999103 
8.6497104e+2, 2.844978e+2, -294874.8, -336112.16, 4979.9507, 0.0037365325, 0.019295402, -294281.94, -142359.47, 0.0, 9.999491, 9.998941 
8.649659e+2, 2.9449707e+2, -166768.22, -224524.52, 2506.65, 0.045541495, 0.047104694, -166659.64, -112730.51, 0.0, 9.999702, 9.998932 
8.6495954e+2, 3.0449492e+2, -119740.32, -208241.13, -11440.373, -0.010801865, -0.04613257, -118285.36, -118285.36, 0.000000027135602, 9.999826, 9.998651 
8.649527e+2, 3.1449348e+2, 10754.799, 73577.42, -5191.997, -0.08106086, -0.061991133, 74003.625, 74003.625, 0.00000083365, 9.999774, 10.000612 
8.750528e+2, 1.2451218e+2, -1854012.4, -1857898.1, 1701.8739, -0.030820958, 0.070322946, -1853372.4, -133586.52, 0.0000000055054987, 9.999371, 9.999321 
8.750477e+2, 1.3451183e+2, -1685906.6, -1775268.9, 26257.709, 0.009796761, 0.14206877, -1678762.4, -56967.73, 0.0, 10.000065, 9.998883 
8.7504166e+2, 1.4451125e+2, -1485280.4, -1516236.4, -25678.68, 0.025336139, 0.15190126, -1470775.6, 53025.492, 0.0, 10.000286, 9.999879 
8.750345e+2, 1.5451011e+2, -1425636.3, -1426667.9, -12025.401, -0.06275764, 0.038800754, -1414115.6, 11691.914, 0.0, 9.99998, 9.999968 
8.750287e+2, 1.6450949e+2, -1382999.9, -1392600.0, 43837.977, -0.07164776, -0.005785836, -1343700.0, -15888.597, 0.0, 9.999759, 9.999637 
8.7502515e+2, 1.7450953e+2, -1302231.5, -1301691.9, 31923.678, 0.03548903, 0.030810812, -1270036.9, -40225.797, 0.0, 9.999639, 9.999643 
8.750205e+2, 1.8450952e+2, -1206837.8, -1195307.8, 17315.979, 0.052369133, 0.064006135, -1182822.4, -51011.605, 0.0, 9.9995775, 9.99973 
8.7501466e+2, 1.9450945e+2, -1102802.4, -1091466.8, 23941.344, -0.045647003, 0.07794393, -1072531.5, -38720.863, 0.0, 9.999605, 9.999757 
8.750094e+2, 2.0450892e+2, -1018057.44, -1046077.3, 16751.578, -0.07771657, 0.06910153, -1010229.44, -74414.086, 0.0, 9.999714, 9.999345 
8.7500495e+2, 2.1450783e+2, -888405.6, -931987.1, 4795.6685, -0.028257433, 0.02324063, -887884.1, -50058.316, 0.0, 9.9999275, 9.9993515 
8.7500024e+2, 2.245069e+2, -800863.06, -822675.1, 16545.344, -0.021286096, -0.01131509, -791952.7, -52118.516, 0.0, 9.999786, 9.999497 
8.7499535e+2, 2.345061e+2, -782853.6, -758301.75, 19984.52, -0.06454981, -0.046302766, -747123.94, -105283.85, 0.0, 9.999217, 9.999539 
8.7499064e+2, 2.4450581e+2, -703059.9, -666878.0, 15974.073, -0.07922087, -0.030905213, -660834.9, -116991.87, 0.0, 9.999082, 9.999559 
8.749861e+2, 2.5450608e+2, -544703.9, -536883.9, 27622.719, -0.062358864, 0.034206107, -512895.8, -67053.305, 0.0, 9.999484, 9.999584 
8.749812e+2, 2.6450574e+2, -454520.66, -491726.94, 2795.061, -0.045702077, 0.0646357, -454311.84, -106465.3, 0.0, 9.999644, 9.999145 
8.7497574e+2, 2.745047e+2, -378949.84, -403947.47, 3608.3962, -0.024335125, 0.042559113, -378439.4, -128583.31, 0.0, 9.999486, 9.99915 
8.7497056e+2, 2.8450376e+2, -296748.2, -339060.0, 11220.663, 0.0017212708, 0.043759614, -293956.75, -142091.8, 0.0, 9.999486, 9.998924 
8.749654e+2, 2.9450276e+2, -169617.58, -227534.36, 11823.279, 0.025871322, 0.050697155, -167296.92, -113422.64, 0.0, 9.99969, 9.998918 
8.749594e+2, 3.0450076e+2, -100091.97, -165071.44, -11522.986, -0.0071078236, -0.040747046, -98109.08, -98109.08, 0.00000006425192, 9.999817, 9.998952 
8.749532e+2, 3.145009e+2, 18118.23, 91704.22, -4467.4883, -0.010372621, 0.06693058, 91974.45, 91974.45, 0.0000011924308, 9.9997635, 10.000741 
8.8505185e+2, 1.2451862e+2, -1820579.0, -1826571.5, -74989.94, -0.07081165, 0.115998164, -1748525.5, -28802.088, 0.00000006865043, 9.9995365, 9.999456 
8.8504755e+2, 1.3451794e+2, -1734687.0, -1780557.3, 30232.168, 0.014699116, 0.13989009, -1719674.8, -97940.55, 0.0, 9.999653, 9.999044 
8.850421e+2, 1.4451714e+2, -1557213.4, -1571802.3, 3314.1748, 0.051664535, 0.12706809, -1556495.8, -32753.344, 0.0, 9.999883, 9.999691 
8.850349e+2, 1.5451598e+2, -1392848.6, -1432758.0, -15753.813, -0.030512996, 0.03129616, -1387379.5, 38369.887, 0.0, 10.000301, 9.99977 
8.8502914e+2, 1.6451527e+2, -1299340.6, -1377375.1, 23715.346, -0.04293219, 0.00061864086, -1292698.6, 35055.582, 0.0, 10.000443, 9.999409 
8.850252e+2, 1.7451516e+2, -1229756.4, -1293932.0, 24460.104, 0.04928285, 0.045815177, -1221496.6, 8259.501, 0.0, 10.000251, 9.999403 
8.850206e+2, 1.8451498e+2, -1140465.3, -1166448.1, 16094.335, 0.080109105, 0.07601798, -1132773.3, -1015.8351, 0.0, 10.000045, 9.999704 
8.850151e+2, 1.9451474e+2, -1071569.0, -1077236.1, 8595.862, 0.027070072, 0.074355714, -1065351.8, -31593.604, 0.0, 9.999825, 9.999749 
8.8500977e+2, 2.0451397e+2, -1025210.5, -1062403.1, 11535.168, -0.011486015, 0.046845682, -1021923.44, -86158.59, 0.0, 9.999721, 9.9992285 
8.8500476e+2, 2.1451253e+2, -922140.3, -961595.25, 14530.443, -0.029503373, -0.023301782, -917366.6, -79587.836, 0.0, 9.999755, 9.99923 
8.849999e+2, 2.2451162e+2, -806967.94, -804707.5, 23001.822, -0.032758523, -0.05669682, -782808.2, -43021.574, 0.0, 9.999656, 9.999683 
8.849951e+2, 2.3451139e+2, -742175.25, -716465.06, 35481.434, -0.018793078, -0.05748171, -691581.75, -49794.965, 0.0, 9.999401, 9.999739 
8.8499033e+2, 2.4451129e+2, -690430.7, -670839.8, 45271.08, -0.020612417, -0.025964666, -634316.56, -90528.77, 0.0, 9.999212, 9.99947 
8.8498557e+2, 2.545114e+2, -606157.6, -578121.94, 25077.816, -0.043534517, 0.031760924, -563410.06, -117620.06, 0.0, 9.999112, 9.999481 
8.849806e+2, 2.64511e+2, -495173.28, -491856.28, -9175.884, -0.050002247, 0.05179863, -484190.22, -136395.19, 0.0, 9.999281, 9.999319 
8.849753e+2, 2.7450997e+2, -322508.63, -355167.84, 748.7967, -0.032622803, 0.01642908, -322491.47, -72688.01, 0.0, 9.999783, 9.999342 
8.849701e+2, 2.8450918e+2, -219274.67, -290005.06, 13857.101, -0.013043195, 0.0186496, -216656.77, -64846.305, 0.0, 9.9999695, 9.999026 
8.8496494e+2, 2.9450852e+2, -152630.03, -208617.4, 21083.652, 0.0035352118, 0.043593794, -145578.52, -91761.48, 0.0, 9.999758, 9.999015 
8.8495916e+2, 3.045065e+2, -127130.76, -179563.03, -8447.276, -0.0017359202, -0.05353764, -125803.44, -125803.44, 0.00000010587227, 9.999636, 9.9989395 
8.8495356e+2, 3.1450686e+2, -17710.494, 47485.367, -32240.83, 0.056785982, 0.0829962, 60736.063, 60736.063, 0.0000015115112, 9.999635, 10.000499 
8.9505035e+2, 1.2452354e+2, -1733104.9, -1645103.9, -70952.97, -0.17354381, 0.13623479, -1605615.6, 114062.055, 0.00000033567557, 9.999536, 10.000702 
8.9504707e+2, 1.3452332e+2, -1643972.9, -1592490.5, 34440.85, -0.0032248914, 0.0760487, -1575234.3, 46442.934, 0.00000000007521531, 9.999654, 10.000335 
8.9504254e+2, 1.4452289e+2, -1588968.0, -1640469.3, 15661.904, 0.110758, 0.054900333, -1584579.1, -60898.86, 0.0, 9.999892, 9.999217 
8.9503676e+2, 1.5452208e+2, -1433101.0, -1517641.6, 428.23163, 0.11895219, 0.053444184, -1433098.9, -7410.412, 0.0, 10.000305, 9.999187 
8.9503074e+2, 1.6452144e+2, -1305244.0, -1389625.9, 16750.16, 0.07546588, 0.06425599, -1302040.6, 25654.2, 0.0, 10.000443, 9.999325 
8.950248e+2, 1.7452095e+2, -1233316.5, -1301050.0, 17452.293, -0.018047284, 0.077459745, -1229084.1, 614.92474, 0.0, 10.00025, 9.999354 
8.950197e+2, 1.8452017e+2, -1152913.3, -1192081.4, 6295.155, -0.016425144, 0.05645687, -1151926.3, -20220.885, 0.0, 10.000043, 9.99953 
8.950156e+2, 1.9451903e+2, -1083698.5, -1103262.5, 88.51297, 0.09615259, -0.01702774, -1083698.1, -49983.992, 0.0, 9.999827, 9.999569 
8.950107e+2, 2.0451814e+2, -1020005.25, -1050944.6, 10386.573, 0.10259831, -0.050425477, -1016841.9, -81119.94, 0.0, 9.999718, 9.999309 
8.9500463e+2, 2.1451752e+2, -916780.7, -948394.6, 15671.579, -0.01647986, -0.047917526, -910328.75, -72599.98, 0.0, 9.999745, 9.999326 
8.9499944e+2, 2.2451733e+2, -783139.75, -753671.1, 12583.634, -0.042532388, -0.031798955, -749028.94, -9299.155, 0.0, 9.999647, 10.000038 
8.949951e+2, 2.3451768e+2, -717024.5, -663643.2, 26485.326, 0.041087016, -0.009429716, -652732.44, -11008.828, 0.0, 9.999397, 10.000103 
8.949905e+2, 2.4451746e+2, -725868.5, -743395.2, 40446.523, 0.064570695, 0.011826636, -693246.9, -149520.95, 0.0, 9.9992075, 9.998974 
8.949854e+2, 2.5451645e+2, -644664.94, -655732.3, 22284.893, 0.017661441, 0.015341544, -627236.94, -181498.16, 0.0, 9.999103, 9.998953 
8.9498025e+2, 2.645155e+2, -474310.06, -447480.97, 7712.18, -0.017451191, -0.0071284613, -445422.06, -97672.97, 0.0, 9.999275, 9.999627 
8.9497507e+2, 2.745146e+2, -299757.97, -306091.56, 20968.574, -0.040115837, -0.06824811, -281718.4, -31962.277, 0.0, 9.999774, 9.999684 
8.9496976e+2, 2.845142e+2, -204942.5, -258338.8, 7771.408, -0.045455556, -0.055605453, -203834.44, -52075.676, 0.0, 9.999961, 9.9992485 
8.949644e+2, 2.9451427e+2, -138196.02, -177023.2, 15560.611, -0.029114269, 0.02633815, -132729.5, -78972.375, 0.0, 9.999751, 9.999235 
8.9495885e+2, 3.0451208e+2, -152468.33, -232271.66, -9357.251, -0.0027534303, -0.08481177, -151385.83, -151385.83, 0.00000013409642, 9.999635, 9.998579 
8.949537e+2, 3.145113e+2, -65226.44, -46299.473, -30441.916, 0.10764322, -0.026703224, -23884.002, -23884.002, 0.0000016978646, 9.999613, 9.999865 
9.050496e+2, 1.2452782e+2, -1825068.6, -1658574.8, -39667.33, -0.15785842, 0.07674935, -1649607.0, 70026.58, 0.0000010657902, 9.998766, 10.000983 
9.050465e+2, 1.34528e+2, -1665459.0, -1567541.1, -12622.4, -0.0027474726, 0.025121152, -1565940.1, 55688.06, 0.000000007369457, 9.999352, 10.000651 
9.0504235e+2, 1.4452787e+2, -1591154.8, -1642012.0, -47381.477, 0.10776568, 0.017751738, -1562809.5, -39181.176, 0.0, 9.999882, 9.99921 
9.050373e+2, 1.5452737e+2, -1427402.9, -1518566.9, -23827.176, 0.146558, 0.047944102, -1421551.0, 4084.1318, 0.0, 10.000359, 9.999156 
9.050316e+2, 1.6452672e+2, -1288669.4, -1391283.5, -3775.014, 0.10936423, 0.06463473, -1288530.8, 39111.438, 0.0, 10.000597, 9.999241 
9.0502524e+2, 1.7452589e+2, -1192791.3, -1289826.9, -8108.276, -0.012433048, 0.052052688, -1192118.4, 37531.313, 0.0, 10.000566, 9.999278 
9.050198e+2, 1.8452497e+2, -1090986.4, -1173963.1, -16647.264, -0.0279809, 0.02520425, -1087771.1, 43886.72, 0.0, 10.000522, 9.999422 
9.0501565e+2, 1.945239e+2, -997889.0, -1075017.8, -18807.623, 0.0824105, -0.029143099, -993547.25, 40119.49, 0.0, 10.000473, 9.999452 
9.050107e+2, 2.0452319e+2, -915956.5, -975606.75, 695.507, 0.10028336, -0.047206145, -915948.44, 19724.316, 0.0, 10.000324, 9.999534 
9.0500474e+2, 2.1452293e+2, -854678.1, -891637.75, 14616.191, 0.0061906707, -0.033684455, -849596.56, -11921.233, 0.0, 10.000056, 9.999566 
9.0499943e+2, 2.245229e+2, -760067.1, -763810.75, -1803.3671, -0.019923078, -0.0044073015, -759339.75, -19664.775, 0.0, 9.999898, 9.999847 
9.0499467e+2, 2.3452319e+2, -661145.7, -660589.06, -33367.47, 0.033990454, 0.033071335, -627498.75, 14172.307, 0.0, 9.999884, 9.999889 
9.0498996e+2, 2.4452272e+2, -647080.44, -689018.56, -22614.635, 0.0651627, 0.034040965, -637209.25, -93533.805, 0.0, 9.99968, 9.999119 
9.04985e+2, 2.5452128e+2, -612973.5, -622263.2, 9521.902, 0.06992912, -0.024397625, -607024.0, -161333.84, 0.0, 9.999243, 9.999115 
9.0497994e+2, 2.645203e+2, -505774.2, -445950.34, 35862.633, 0.03858413, -0.06647533, -429162.7, -81462.984, 0.0, 9.998988, 9.999775 
9.049744e+2, 2.7451983e+2, -407204.94, -341779.03, 32972.73, -0.03797682, -0.09528922, -328044.8, -78342.0, 0.0, 9.998965, 9.999828 
9.049692e+2, 2.8451985e+2, -299451.7, -274359.6, 12065.583, -0.06143791, -0.06423519, -269499.28, -117797.305, 0.0, 9.999183, 9.999515 
9.0496415e+2, 2.945202e+2, -128967.8, -141016.28, 21282.748, -0.020506835, 0.017937038, -112873.11, -59175.668, 0.0, 9.9996805, 9.9995165 
9.049588e+2, 3.0451804e+2, -86071.055, -209773.98, 12566.085, 0.004983213, -0.09920136, -84807.46, -84807.46, 0.0000001316986, 10.000134, 9.99849 
9.049534e+2, 3.145171e+2, 41855.004, -35536.887, 8807.018, 0.07354239, -0.0424495, 42844.57, 42844.57, 0.0000016698094, 10.000522, 9.999502 
9.150496e+2, 1.2453149e+2, -1865186.9, -1747059.9, -14895.324, -0.042547606, -0.06093486, -1745210.6, -25619.826, 0.000002613721, 9.998787, 10.000367 
9.1504604e+2, 1.3453205e+2, -1708149.5, -1656376.9, 9009.245, 0.007396316, -0.014422359, -1654853.9, -33267.305, 0.00000007607973, 9.999353, 10.000042 
9.150415e+2, 1.4453213e+2, -1560554.6, -1578923.0, -29594.871, 0.03240341, 0.012132287, -1538751.6, -15165.392, 0.0, 9.999883, 9.999643 
9.1503674e+2, 1.5453187e+2, -1391811.0, -1445641.1, -4991.1523, 0.049034163, 0.016210169, -1391352.1, 34236.402, 0.0, 10.000362, 9.999655 
9.150317e+2, 1.6453117e+2, -1293133.9, -1402374.3, -5851.149, 0.055997774, 0.005413043, -1292821.4, 34774.063, 0.0, 10.000603, 9.999163 
9.1502655e+2, 1.7453001e+2, -1200167.5, -1305503.6, -9336.81, 0.06050678, -0.029229606, -1199346.3, 30261.096, 0.0, 10.000566, 9.999171 
9.1502106e+2, 1.845294e+2, -1093801.4, -1179690.5, -19981.684, 0.038060706, -0.017679945, -1089380.4, 42233.94, 0.0, 10.000521, 9.999384 
9.150151e+2, 1.9452938e+2, -1001266.1, -1081058.4, -20600.924, -0.019514957, 0.03776575, -996261.25, 37354.227, 0.0, 10.000469, 9.999413 
9.1500974e+2, 2.0452921e+2, -892726.0, -925861.9, -10366.084, -0.024208454, 0.05673547, -889750.3, 45866.42, 0.0, 10.000316, 9.99988 
9.1500515e+2, 2.145288e+2, -829270.56, -837701.75, 4603.3086, 0.034314986, 0.018899256, -827244.25, 10373.956, 0.0, 10.0000515, 9.999939 
9.1499984e+2, 2.2452839e+2, -813006.2, -872894.9, -4536.059, 0.031305198, 0.02501294, -812664.56, -73042.56, 0.0, 9.999893, 9.999102 
9.149938e+2, 2.3452798e+2, -718000.56, -777091.9, -33414.88, -0.04500207, 0.07103872, -702942.4, -61313.6, 0.0, 9.999877, 9.999094 
9.149887e+2, 2.4452716e+2, -591998.7, -573861.6, -39101.773, -0.026278505, 0.042867105, -542790.56, 845.3273, 0.0, 9.999676, 9.999912 
9.1498464e+2, 2.5452587e+2, -553359.1, -497197.7, -6004.282, 0.10695813, -0.08730803, -496562.94, -50919.293, 0.0, 9.999237, 9.999976 
9.1497964e+2, 2.6452532e+2, -508307.22, -450153.9, 34078.152, 0.113603584, -0.12672909, -434433.56, -86786.96, 0.0, 9.998983, 9.999748 
9.149735e+2, 2.7452573e+2, -412189.25, -350913.78, 33888.79, -0.03170416, -0.06512516, -335866.5, -86223.07, 0.0, 9.99896, 9.999768 
9.149683e+2, 2.8452608e+2, -279454.06, -231006.39, 29033.508, -0.068912864, -0.006483921, -217418.33, -65778.414, 0.0, 9.999175, 9.999816 
9.149643e+2, 2.9452625e+2, -109180.03, -95493.93, 41475.465, 0.023033336, 0.02168504, -60300.785, -6663.165, 0.0, 9.999661, 9.999839 
9.149591e+2, 3.045244e+2, -72716.94, -180370.42, 27822.4, 0.016469749, -0.09399504, -65951.57, -65951.57, 0.00000009563079, 10.000125, 9.998698 
9.149527e+2, 3.1452426e+2, 38936.367, -42430.938, 27609.81, -0.059481207, 0.024050582, 47420.4, 47420.4, 0.0000014046396, 10.000524, 9.999455 
9.250488e+2, 1.245357e+2, -1921224.9, -1805227.4, -41.85933, 0.0149617875, -0.10668411, -1805227.4, -85681.85, 0.0000053718704, 9.998545, 10.00008 
9.250456e+2, 1.3453615e+2, -1670154.5, -1672091.5, 38950.824, 0.013609199, -0.041784626, -1632160.1, -10615.628, 0.00000033393198, 9.999762, 9.999737 
9.2504126e+2, 1.445362e+2, -1475692.8, -1522987.8, -19422.26, -0.007153132, -0.008731689, -1468739.1, 54806.36, 0.0, 10.000402, 9.999776 
9.2503655e+2, 1.545361e+2, -1376300.4, -1419549.6, -23822.984, -0.0051266947, -0.0029426878, -1365751.1, 59794.902, 0.0, 10.000393, 9.999817 
9.250318e+2, 1.6453563e+2, -1322712.4, -1396472.0, -38913.68, 0.017279262, -0.008396657, -1305978.8, 21572.076, 0.0, 10.0003195, 9.999337 
9.25027e+2, 1.7453475e+2, -1244628.0, -1308307.4, -23322.174, 0.07320245, -0.031330816, -1237000.1, -7439.646, 0.0, 10.000182, 9.999337 
9.250216e+2, 1.8453434e+2, -1144207.6, -1206331.9, -16035.98, 0.060265508, -0.007458057, -1140312.5, -8746.315, 0.0, 10.000185, 9.999363 
9.2501533e+2, 1.9453444e+2, -1019142.4, -1092504.4, -18107.678, -0.040408056, 0.06117779, -1014916.4, 18651.033, 0.0, 10.00036, 9.999387 
9.250098e+2, 2.0453434e+2, -890990.5, -925578.0, -29961.014, -0.051153693, 0.08967003, -873690.4, 61878.074, 0.0, 10.000333, 9.999873 
9.250053e+2, 2.1453397e+2, -827556.3, -838100.2, -45888.4, 0.04598039, 0.05772495, -786638.0, 50931.17, 0.0, 10.000069, 9.9999275 
9.2499995e+2, 2.2453335e+2, -827789.56, -880953.06, -37808.883, 0.055067223, 0.04473643, -808153.3, -68578.586, 0.0, 9.999798, 9.999091 
9.249935e+2, 2.3453245e+2, -771209.8, -803758.2, -9688.039, -0.04173596, 0.041947488, -768544.4, -126958.23, 0.0, 9.9995165, 9.9990835 
9.2498803e+2, 2.445317e+2, -592589.06, -546682.9, 2070.305, -0.048606187, 0.009759255, -546589.75, -2997.6765, 0.0, 9.999553, 10.000158 
9.249837e+2, 2.5453117e+2, -425323.8, -406657.5, -12272.738, 0.05175019, -0.069375806, -400572.22, 45019.195, 0.0, 9.99999, 10.0002365 
9.2497873e+2, 2.645309e+2, -361555.9, -393561.22, -5105.034, 0.075001255, -0.092876576, -360761.34, -13169.717, 0.0, 10.0000515, 9.999623 
9.2497313e+2, 2.745309e+2, -322472.66, -323349.8, -13831.551, 0.0065918015, -0.05826244, -309072.72, -59480.145, 0.0, 9.999644, 9.999628 
9.249682e+2, 2.8453097e+2, -262229.56, -243178.02, -22428.164, -0.011820153, -0.009678176, -228336.53, -76744.29, 0.0, 9.999383, 9.999632 
9.249639e+2, 2.945311e+2, -172636.11, -146484.58, -50084.99, 0.029628295, 0.031947825, -107796.63, -54205.027, 0.0, 9.999312, 9.999658 
9.249588e+2, 3.0452943e+2, -99882.96, -143210.27, -55047.266, -0.0013712479, -0.07420639, -62389.91, -62389.91, 0.00000004550982, 9.9997225, 9.999148 
9.249531e+2, 3.145295e+2, 82992.66, 10377.961, -36646.766, -0.07802822, 0.01752943, 98272.21, 98272.21, 0.0000009683944, 10.000692, 9.999736 
9.350472e+2, 1.2454043e+2, -1919556.5, -1802823.9, 48184.676, -0.008117414, -0.0741672, -1785504.0, -66006.2, 0.000009857008, 9.9985485, 10.000094 
9.3504536e+2, 1.3454041e+2, -1670843.1, -1675135.5, 85798.53, 0.012160904, -0.05415655, -1587164.0, 34337.047, 0.0000009955157, 9.999769, 9.999712 
9.350416e+2, 1.4454018e+2, -1485401.5, -1546881.1, -19742.166, -0.016227601, -0.03883767, -1479607.9, 43897.305, 0.00000000002439963, 10.000416, 9.999607 
9.350368e+2, 1.5454017e+2, -1389099.6, -1445684.8, -24194.916, -0.021853825, -0.007957215, -1380165.0, 45341.67, 0.0, 10.00039, 9.9996395 
9.350318e+2, 1.6454016e+2, -1293960.5, -1335952.5, -44857.67, -0.013170334, 0.022807656, -1265428.3, 62079.51, 0.0, 10.000316, 9.999755 
9.350267e+2, 1.7454018e+2, -1213902.3, -1244133.3, -28136.697, 0.020839509, 0.044830214, -1197078.0, 32430.596, 0.0, 10.00018, 9.999778 
9.350215e+2, 1.8453985e+2, -1145521.9, -1209146.5, -11411.186, 0.032515008, 0.056268934, -1143537.1, -12024.073, 0.0, 10.000183, 9.999345 
9.350162e+2, 1.945391e+2, -1020911.4, -1096361.4, -11521.538, 0.015288303, 0.041873787, -1019191.2, 14330.924, 0.0, 10.00036, 9.99936 
9.350108e+2, 2.0453863e+2, -916773.6, -979314.4, -41090.086, 0.01500151, 0.052969646, -896408.44, 39118.83, 0.0, 10.000332, 9.999505 
9.3500525e+2, 2.145385e+2, -855656.75, -894984.06, -55733.695, 0.035896663, 0.08365882, -816219.6, 21308.236, 0.0, 10.000062, 9.999541 
9.3499964e+2, 2.245379e+2, -778574.6, -777013.75, -49669.047, 0.04518935, 0.05611205, -728119.0, 11413.72, 0.0, 9.999789, 9.999809 
9.349939e+2, 2.3453666e+2, -718126.7, -691984.94, -19757.908, 0.040273868, -0.05428956, -681365.7, -39822.734, 0.0, 9.99951, 9.999855 
9.34988e+2, 2.4453638e+2, -614659.25, -591933.9, 16421.81, -0.005669014, -0.06537919, -583326.94, -39783.24, 0.0, 9.999549, 9.99985 
9.349822e+2, 2.5453725e+2, -450386.56, -458337.44, 5545.6865, -0.10112033, 0.029446116, -447538.6, -2005.3623, 0.0, 9.999988, 9.999884 
9.3497723e+2, 2.6453695e+2, -377613.9, -426335.72, -19557.693, -0.08357248, 0.035622466, -370734.5, -23199.922, 0.0, 10.000049, 9.9994 
9.349735e+2, 2.7453527e+2, -339938.13, -357249.84, -28124.338, 0.07000885, -0.074045576, -319167.75, -69617.67, 0.0, 9.999634, 9.9994 
9.3496877e+2, 2.8453448e+2, -309901.53, -340964.16, -26433.748, 0.10342925, -0.07267615, -294774.0, -143215.31, 0.0, 9.999375, 9.998965 
9.349628e+2, 2.9453465e+2, -220676.14, -246673.88, -50942.48, -0.007895966, 0.047010906, -181100.23, -127540.836, 0.0, 9.999311, 9.998971 
9.34958e+2, 3.0453315e+2, -53723.51, -46024.72, -21155.023, -0.05642402, -0.04242944, -28371.725, -28371.725, 0.000000010385675, 9.999717, 9.999818 
9.3495464e+2, 3.1453282e+2, 120005.91, 94046.85, 2771.138, 0.0021438147, -0.06795118, 120298.43, 120298.43, 0.00000050425, 10.000663, 10.000325 
9.450464e+2, 1.2454436e+2, -1723906.5, -1691781.1, -565.6649, 0.00097494735, -0.024456697, -1691771.1, 27690.42, 0.000016753027, 9.999819, 10.000246 
9.450449e+2, 1.3454424e+2, -1737773.3, -1691363.1, 38512.51, 0.010166071, -0.027150404, -1669605.0, -48140.832, 0.000002343361, 9.999244, 9.999852 
9.450412e+2, 1.4454396e+2, -1649689.6, -1611344.3, -48170.387, -0.035443656, -0.030708395, -1578671.3, -55202.824, 0.0000000053592455, 9.99923, 9.999733 
9.450368e+2, 1.5454394e+2, -1449578.0, -1461283.5, -31501.738, -0.03570345, -0.012449353, -1423389.9, 2080.576, 0.0, 9.999918, 9.99976 
9.450319e+2, 1.6454418e+2, -1293262.9, -1314954.1, -64155.19, -0.036455266, 0.027479367, -1239043.0, 88426.89, 0.0, 10.000232, 9.999939 
9.450263e+2, 1.7454472e+2, -1211837.3, -1221441.1, -69547.89, -0.032039702, 0.08356255, -1146925.8, 82540.41, 0.0, 10.000104, 9.9999695 
9.4502115e+2, 1.8454467e+2, -1143123.1, -1176831.8, -40552.727, -0.016503993, 0.09916709, -1116061.6, 15406.058, 0.0, 10.000071, 9.9996195 
9.4501644e+2, 1.9454388e+2, -1030171.56, -1070135.3, -18364.389, 0.009347732, 0.054558445, -1023014.4, 10461.287, 0.0, 10.000165, 9.999634 
9.45011e+2, 2.0454332e+2, -954815.8, -1006213.75, -38593.39, 0.017984523, 0.045847144, -934147.94, 1333.5986, 0.0, 10.000109, 9.999427 
9.4500494e+2, 2.1454303e+2, -889425.44, -922126.7, -34423.715, 0.00530228, 0.06969627, -867666.5, -30181.8, 0.0, 9.999878, 9.999443 
9.449992e+2, 2.2454253e+2, -752192.3, -742598.7, -25147.14, 0.01930982, 0.048933886, -721794.94, 17693.45, 0.0, 9.999877, 10.000004 
9.44994e+2, 2.3454174e+2, -608360.7, -615738.6, -39103.426, 0.064310834, -0.037224412, -572772.6, 68720.02, 0.0, 10.000164, 10.000064 
9.4498837e+2, 2.4454157e+2, -543951.0, -596989.0, -21937.387, 0.03501673, -0.034082443, -536053.3, 7439.3745, 0.0, 10.000203, 9.999501 
9.449823e+2, 2.5454205e+2, -484284.38, -516636.84, -36308.902, -0.0833049, 0.061563756, -460711.3, -15223.315, 0.0, 9.999935, 9.999509 
9.449771e+2, 2.6454148e+2, -423876.94, -459885.1, -67362.016, -0.08604533, 0.062253915, -372154.47, -24661.463, 0.0, 9.999779, 9.9993 
9.4497293e+2, 2.745396e+2, -324413.28, -359452.34, -67577.16, 0.050638385, -0.059425395, -272121.6, -22611.986, 0.0, 9.999782, 9.999315 
9.4496816e+2, 2.8453848e+2, -232728.25, -318122.38, -25081.547, 0.07658608, -0.07636515, -225906.4, -74386.22, 0.0, 9.999967, 9.998837 
9.449624e+2, 2.9453832e+2, -79263.42, -192385.22, -8932.766, -0.030674359, 0.018799134, -78562.38, -25038.635, 0.0, 10.000343, 9.998847 
9.44958e+2, 3.045368e+2, 32054.135, -7100.1665, 23100.94, -0.060000442, -0.06339192, 42757.64, 42757.64, 0.00000000032400083, 10.000318, 9.999796 
9.449551e+2, 3.1453645e+2, -10332.481, 15823.115, -14117.713, 0.032465246, -0.08841331, 21989.502, 21989.502, 0.00000016973306, 9.999836, 10.000185 
9.550465e+2, 1.245476e+2, -1700009.9, -1648716.0, -14733.067, 0.016854813, 0.04541946, -1644785.4, 74649.945, 0.00002677623, 9.999845, 10.00053 
9.5504403e+2, 1.3454774e+2, -1717625.8, -1649939.6, 16811.207, 0.003042204, 0.04002807, -1645994.3, -24561.256, 0.0000047533053, 9.999243, 10.000138 
9.550401e+2, 1.445476e+2, -1621698.8, -1551968.3, -24922.973, -0.07110961, 0.014180208, -1543976.3, -20541.842, 0.000000046136613, 9.999225, 10.000144 
9.550366e+2, 1.5454748e+2, -1421067.1, -1401271.8, -4362.315, -0.05169387, -0.016718632, -1400353.0, 25083.736, 0.0, 9.999915, 10.000173 
9.550319e+2, 1.6454776e+2, -1296933.0, -1323490.4, -68444.97, -0.05900601, 0.0075331824, -1240490.5, 86945.76, 0.0, 10.000234, 9.999881 
9.5502585e+2, 1.7454846e+2, -1216426.6, -1231592.0, -73943.31, -0.08918064, 0.0864847, -1149678.3, 79754.22, 0.0, 10.000105, 9.9999 
9.550205e+2, 1.8454885e+2, -1103806.1, -1095336.4, -38712.883, -0.09145747, 0.123141736, -1060627.5, 70802.06, 0.0, 10.00007, 10.000179 
9.550159e+2, 1.9454886e+2, -990118.3, -986060.44, -14685.587, -0.06183997, 0.099580415, -973264.3, 60163.37, 0.0, 10.000161, 10.000213 
9.550105e+2, 2.0454846e+2, -941664.2, -978159.1, -48414.383, -0.04725948, 0.0681854, -908172.7, 27258.021, 0.0, 10.000104, 9.999623 
9.550043e+2, 2.1454759e+2, -877196.5, -895402.6, -43051.797, -0.049508583, 0.015446528, -842295.9, -4856.314, 0.0, 9.999871, 9.99963 
9.549986e+2, 2.2454731e+2, -776510.94, -791749.6, -16880.895, -0.027052438, 0.024244836, -765609.5, -26168.074, 0.0, 9.99987, 9.99967 
9.549937e+2, 2.3454775e+2, -633739.3, -668058.6, -27664.664, 0.024848074, 0.09324687, -618344.56, 23090.447, 0.0, 10.00016, 9.999706 
9.549889e+2, 2.4454725e+2, -572084.7, -654610.6, -31737.998, 0.06785419, 0.10259254, -561290.6, -17851.713, 0.0, 10.000199, 9.999107 
9.5498407e+2, 2.5454563e+2, -513588.5, -575634.3, -45556.574, 0.10068727, 0.028173462, -489494.97, -44039.613, 0.0, 9.9999275, 9.999107 
9.549784e+2, 2.6454443e+2, -421770.34, -455382.44, -68556.04, 0.06323467, -0.010792271, -367990.47, -20523.953, 0.0, 9.999777, 9.999332 
9.549717e+2, 2.745438e+2, -320412.97, -350736.47, -66174.51, -0.05815973, -0.015413254, -267685.5, -18214.465, 0.0, 9.999778, 9.999378 
9.549663e+2, 2.8454304e+2, -204649.3, -257721.86, -11414.92, -0.09974055, -0.022972096, -202298.3, -50821.66, 0.0, 9.999959, 9.999257 
9.549626e+2, 2.9454204e+2, -50692.477, -130117.21, 7435.317, -0.04724316, -0.052521598, -50002.418, 3481.8635, 0.0, 10.000332, 9.99928 
9.549587e+2, 3.045404e+2, -18980.553, -112351.57, 5895.644, -0.019195488, -0.13505664, -18609.762, -18609.762, 0.0, 10.000311, 9.999078 
9.549547e+2, 3.1454042e+2, -73701.0, -112856.58, -27996.59, -0.0022253653, -0.0466626, -59115.96, -59115.96, 0.000000027453995, 9.999821, 9.9993105 
9.6504676e+2, 1.245508e+2, -1664520.1, -1630498.4, 16462.033, 0.048741058, 0.061583202, -1623837.1, 95569.664, 0.000040530904, 10.000087, 10.000535 
9.650434e+2, 1.3455078e+2, -1658375.0, -1622910.9, 12646.768, -0.0020196792, 0.041922268, -1618863.0, 2542.4502, 0.000008656152, 9.999659, 10.000122 
9.65039e+2, 1.4455092e+2, -1593739.9, -1491622.3, -15518.739, -0.10218025, 0.025239818, -1489315.9, 34087.984, 0.00000019058375, 9.999217, 10.00056 
9.650357e+2, 1.5455154e+2, -1560979.8, -1419652.0, 4498.121, -0.067914814, 0.021911869, -1419508.9, 5890.0503, 0.0, 9.998745, 10.000608 
9.650313e+2, 1.6455202e+2, -1489425.0, -1404430.6, -42067.598, -0.068491094, 0.04151108, -1387130.6, -59734.67, 0.0, 9.998864, 9.999983 
9.6502566e+2, 1.745524e+2, -1267048.1, -1245559.4, -36207.715, -0.10482843, 0.077707626, -1218535.5, 10859.685, 0.0, 9.999715, 9.99999 
9.650203e+2, 1.8455279e+2, -1117303.6, -1081280.3, -29579.67, -0.11028932, 0.10186513, -1064659.9, 66731.836, 0.0, 9.999889, 10.000362 
9.6501535e+2, 1.9455323e+2, -1108572.4, -1021419.25, -37616.08, -0.081694566, 0.101688124, -1007429.44, 25955.81, 0.0, 9.999256, 10.000405 
9.6501005e+2, 2.0455314e+2, -1036958.1, -1006943.3, -61911.594, -0.06312775, 0.085164115, -958246.2, -22861.22, 0.0, 9.999379, 9.999774 
9.650043e+2, 2.1455248e+2, -788503.2, -836106.9, -59762.91, -0.056222986, 0.036878537, -747976.7, 89415.41, 0.0, 10.00041, 9.999778 
9.6499884e+2, 2.2455212e+2, -655484.75, -763977.4, -45616.42, -0.040899746, 0.043158032, -638854.3, 100540.62, 0.0, 10.000833, 9.999397 
9.6499366e+2, 2.3455215e+2, -600531.8, -684423.44, -54717.582, -0.016865198, 0.100386284, -573532.25, 67860.39, 0.0, 10.000527, 9.999417 
9.649888e+2, 2.4455132e+2, -574025.0, -667131.6, -54102.383, 0.04102133, 0.097944185, -549204.1, -5804.2446, 0.0, 10.0002365, 9.999002 
9.649844e+2, 2.545495e+2, -513173.16, -585470.9, -46613.5, 0.14012979, 0.013444499, -490334.22, -44915.805, 0.0, 9.999975, 9.999016 
9.6497875e+2, 2.645483e+2, -387026.47, -452005.97, -42417.332, 0.108293146, -0.015556528, -366085.75, -18655.775, 0.0, 10.000074, 9.999213 
9.649716e+2, 2.7454787e+2, -212740.94, -312319.4, -54756.52, -0.08014564, 0.012427437, -188521.77, 60911.266, 0.0, 10.000575, 9.999258 
9.649662e+2, 2.845472e+2, -118582.695, -213820.2, -34232.36, -0.14082165, 0.020837203, -107555.055, 43882.746, 0.0, 10.00054, 9.999279 
9.649627e+2, 2.9454625e+2, -110792.13, -155834.8, -49106.17, -0.048881937, -0.0113759255, -79289.15, -25843.86, 0.0, 9.999905, 9.999309 
9.649589e+2, 3.045447e+2, -91398.76, -149897.64, -34066.797, -0.004497652, -0.08522507, -75747.46, -75747.46, 0.0, 9.999827, 9.999052 
9.649548e+2, 3.1454456e+2, -223.67458, -87597.11, -14595.866, -0.0012519665, -0.004509368, 2150.0964, 2150.0964, 0.00000000015790982, 10.00037, 9.999219 
9.750471e+2, 1.2455397e+2, -1682189.0, -1665981.1, 12508.89, 0.07612563, 0.01960887, -1659180.5, 60195.363, 0.000058506626, 10.000082, 10.000294 
9.7504306e+2, 1.3455345e+2, -1679233.3, -1667331.9, -1665.5996, -0.010482662, -0.019814616, -1667103.3, -45722.363, 0.00001444443, 9.999663, 9.999815 
9.7503793e+2, 1.4455402e+2, -1564300.9, -1432374.4, -33305.773, -0.13692908, 0.004102875, -1424443.0, 98932.84, 0.0000005546723, 9.999224, 10.000964 
9.7503424e+2, 1.545561e+2, -1529624.6, -1355208.6, -12475.955, -0.08923974, 0.10366492, -1354320.8, 71035.805, 0.0, 9.998747, 10.001052 
9.750301e+2, 1.6455702e+2, -1471250.5, -1366745.0, -13598.155, -0.071169734, 0.13020234, -1365004.6, -37656.074, 0.0, 9.998864, 10.000242 
9.750256e+2, 1.7455657e+2, -1250389.8, -1210233.6, -3864.478, -0.08275708, 0.058642447, -1209865.1, 19488.623, 0.0, 9.999711, 10.000236 
9.750205e+2, 1.8455653e+2, -1130197.1, -1107700.1, -52351.223, -0.07871372, 0.03607218, -1065402.6, 65951.336, 0.0, 9.9998865, 10.000183 
9.7501487e+2, 1.9455703e+2, -1122371.4, -1050013.9, -61423.5, -0.055119056, 0.061094772, -1014906.2, 18441.793, 0.0, 9.999254, 10.000211 
9.7500974e+2, 2.0455742e+2, -1030060.1, -991975.44, -27432.555, -0.035836373, 0.09716194, -977623.8, -42279.984, 0.0, 9.999375, 9.999879 
9.7500515e+2, 2.145577e+2, -780941.06, -819478.8, -20707.701, -0.019728085, 0.13424124, -771923.94, 65417.996, 0.0, 10.000405, 9.999894 
9.7499985e+2, 2.2455697e+2, -671535.5, -796013.94, -56359.254, -0.027371136, 0.10487802, -649809.94, 89538.54, 0.0, 10.000827, 9.99918 
9.749937e+2, 2.3455498e+2, -618156.06, -719049.75, -65938.875, -0.06444917, -0.01508623, -585579.9, 55785.26, 0.0, 10.000519, 9.999183 
9.7498816e+2, 2.4455385e+2, -561042.1, -639279.7, -65257.01, -0.04957275, -0.045895018, -524077.03, 19298.018, 0.0, 10.000231, 9.999197 
9.749833e+2, 2.5455374e+2, -498485.03, -553910.94, -55568.297, 0.028113544, 0.016047763, -464102.56, -18725.559, 0.0, 9.9999695, 9.999236 
9.749782e+2, 2.645531e+2, -407684.38, -493086.4, -24395.332, 0.041957576, 0.044739008, -401207.06, -53823.574, 0.0, 10.000067, 9.998934 
9.749728e+2, 2.7455184e+2, -234983.89, -357380.13, -34002.04, -0.021019734, 0.02437461, -226172.39, 23222.883, 0.0, 10.000571, 9.99895 
9.749676e+2, 2.845511e+2, -144907.22, -269903.97, -57051.098, -0.051785573, 0.059398673, -122783.65, 28619.44, 0.0, 10.000543, 9.998893 
9.7496265e+2, 2.9455093e+2, -139053.67, -212500.0, -71299.26, -0.043518983, 0.1458522, -95575.99, -42169.54, 0.0, 9.999894, 9.998926 
9.7495854e+2, 3.0454966e+2, -48514.035, -56400.277, -15008.4, -0.022877306, 0.08756704, -36939.414, -36939.414, 0.0, 9.999807, 9.999705 
9.749554e+2, 3.145488e+2, 43665.8, 8861.566, 10275.292, 0.02023222, 0.025912106, 46472.973, 46472.973, 0.0, 10.000347, 9.999893 
9.8504746e+2, 1.24558255e+2, -1610558.1, -1628642.6, 37555.297, 0.07870371, 0.041265614, -1580971.9, 138364.1, 0.00008108169, 10.000563, 10.000319 
9.850423e+2, 1.3455784e+2, -1713952.8, -1684316.1, 27898.494, -0.03218087, 0.012178277, -1667544.8, -46204.336, 0.000022462764, 9.999424, 9.999815 
9.850366e+2, 1.4455844e+2, -1624900.1, -1476765.0, 13711.017, -0.16640565, 0.04564523, -1475506.6, 47828.723, 0.0000013019285, 9.998872, 10.00083 
9.850331e+2, 1.545603e+2, -1497362.3, -1353873.4, -8745.544, -0.09654224, 0.13644777, -1353342.4, 71975.97, 0.0, 9.999031, 10.000922 
9.8502916e+2, 1.6456123e+2, -1427425.4, -1307568.0, -10967.711, -0.06488223, 0.15464115, -1306572.6, 20736.666, 0.0, 9.999002, 10.000582 
9.850249e+2, 1.7456104e+2, -1365643.4, -1225319.8, 6074.66, -0.07300759, 0.07397377, -1225057.3, 4252.873, 0.0, 9.998746, 10.000597 
9.8502004e+2, 1.84561e+2, -1260850.5, -1178160.0, -37083.703, -0.07196655, 0.034749582, -1163965.9, -32656.387, 0.0, 9.999022, 10.000116 
9.8501444e+2, 1.9456115e+2, -1027646.9, -1013694.8, -39759.96, -0.062063016, 0.03484233, -980303.56, 53003.3, 0.0, 9.999945, 10.000128 
9.8500943e+2, 2.0456143e+2, -935115.2, -969067.5, -10148.642, -0.042055268, 0.07137524, -932312.94, 2991.3965, 0.0, 10.000124, 9.999676 
9.8500514e+2, 2.145618e+2, -938128.0, -918196.94, -29544.324, -0.009407861, 0.13793314, -896982.7, -59680.51, 0.0, 9.999425, 9.999688 
9.850002e+2, 2.2456108e+2, -863156.0, -867693.5, -58331.85, -0.003078554, 0.11373227, -807048.8, -67740.09, 0.0, 9.999424, 9.999363 
9.849945e+2, 2.3455909e+2, -642525.3, -708366.5, -36899.46, -0.029069258, -0.027809035, -625995.56, 15329.817, 0.0, 10.0002575, 9.999382 
9.8498863e+2, 2.4455805e+2, -481794.72, -616746.94, -38619.64, -0.05059412, -0.051428765, -471524.44, 71810.06, 0.0, 10.000845, 9.999056 
9.8498285e+2, 2.5455818e+2, -340836.03, -495742.9, -60461.133, -0.06728933, 0.049375053, -320031.75, 125303.21, 0.0, 10.001129, 9.999077 
9.849777e+2, 2.6455754e+2, -281005.38, -433895.7, -38267.055, -0.05375333, 0.086484335, -271962.38, 75379.195, 0.0, 10.000945, 9.998917 
9.849733e+2, 2.7455604e+2, -285241.56, -382308.25, -27786.027, -0.004354279, 0.039317, -277850.44, -28495.117, 0.0, 10.000232, 9.99894 
9.849684e+2, 2.84555e+2, -245235.14, -354276.72, -37709.664, 0.0059208064, 0.06147725, -233464.64, -82098.28, 0.0, 10.000012, 9.998568 
9.849629e+2, 2.945545e+2, -98547.336, -230926.0, -50606.766, -0.029394027, 0.15285084, -81417.57, -28043.227, 0.0, 10.000338, 9.998586 
9.849584e+2, 3.045534e+2, 34860.12, 2612.2356, 748.5771, -0.03860775, 0.11884081, 34877.49, 34877.49, 0.0, 10.000302, 9.99987 
9.849552e+2, 3.1455287e+2, -12484.471, -876.09424, -17292.74, -0.010968283, 0.07527119, 11560.536, 11560.536, 0.0, 9.999887, 10.000047 
9.950477e+2, 1.2456366e+2, -1592854.5, -1591836.5, 8174.102, 0.03629926, 0.11973998, -1584155.5, 135131.6, 0.000108580556, 10.000562, 10.000571 
9.950414e+2, 1.3456398e+2, -1693953.3, -1643435.6, -14535.612, -0.07065201, 0.13626987, -1639551.9, -18267.986, 0.000033028722, 9.999426, 10.000095 
9.9503523e+2, 1.4456421e+2, -1670603.9, -1572408.4, 16426.078, -0.1963693, 0.15052967, -1569733.5, -46451.38, 0.0000026281716, 9.998875, 10.000173 
9.9503213e+2, 1.5456419e+2, -1545836.4, -1454733.0, -1572.2333, -0.095177755, 0.12150886, -1454705.9, -29422.385, 0.00000000019976186, 9.999031, 10.000231 
9.9502826e+2, 1.6456471e+2, -1397971.8, -1246549.0, -20770.781, -0.057020944, 0.11471734, -1243751.5, 83526.27, 0.0, 9.9990015, 10.001001 
9.9502355e+2, 1.7456587e+2, -1332145.3, -1156946.5, -3256.636, -0.08117254, 0.12259953, -1156886.0, 72377.87, 0.0, 9.998749, 10.001065 
9.950188e+2, 1.8456624e+2, -1257761.1, -1172113.9, -5961.7007, -0.096795104, 0.097493224, -1171700.9, -40442.98, 0.0, 9.9990225, 10.000157 
9.9501395e+2, 1.9456568e+2, -1026453.94, -1010670.3, -5223.181, -0.105927765, 0.02403939, -1009098.4, 24162.865, 0.0, 9.999942, 10.00015 
9.950092e+2, 2.045652e+2, -971432.9, -1043481.6, -35847.156, -0.08594501, 0.008671902, -956636.25, -21370.266, 0.0, 10.000119, 9.999167 
9.9500436e+2, 2.1456479e+2, -976435.4, -995793.44, -56152.598, -0.029344343, 0.048128836, -929133.75, -91861.234, 0.0, 9.999416, 9.99916 
9.949999e+2, 2.2456452e+2, -823468.9, -783673.06, -31117.377, 0.027265865, 0.07080604, -766635.6, -27360.54, 0.0, 9.999416, 9.999944 
9.9499583e+2, 2.3456448e+2, -598625.6, -616318.8, -5054.435, 0.08422546, 0.062131867, -597283.5, 43989.473, 0.0, 10.000253, 10.000017 
9.9499035e+2, 2.4456398e+2, -516953.1, -688372.56, -27522.049, 0.031840295, 0.079815626, -512642.72, 30635.33, 0.0, 10.000839, 9.998568 
9.9498314e+2, 2.5456288e+2, -379109.84, -574849.5, -48462.977, -0.15037647, 0.1154653, -367768.13, 77523.66, 0.0, 10.001127, 9.998535 
9.949774e+2, 2.645617e+2, -264034.28, -399803.6, -64217.637, -0.18257122, 0.114322454, -238472.53, 108831.01, 0.0, 10.000949, 9.99915 
9.9497324e+2, 2.745604e+2, -267770.75, -343400.7, -53341.24, -0.037472587, 0.05904463, -240200.25, 9112.626, 0.0, 10.000218, 9.999215 
9.9496865e+2, 2.845588e+2, -266420.44, -393448.3, -26283.607, 0.023498585, 0.024769532, -261196.84, -109869.07, 0.0, 9.999992, 9.998308 
9.9496347e+2, 2.9455695e+2, -118528.08, -271635.53, -35176.926, -0.01290833, 0.004299914, -110832.83, -57483.668, 0.0, 10.000335, 9.998306 
9.949586e+2, 3.045558e+2, 10997.378, -48806.73, -13466.12, -0.057119515, 0.005286246, 13889.672, 13889.672, 0.0, 10.000308, 9.9995165 
9.949541e+2, 3.1455684e+2, -44092.01, -59604.438, -28137.19, -0.10993703, 0.14444834, -22661.578, -22661.578, 0.0, 9.999857, 9.99966 
1.0050471e+3, 1.245686e+2, -1815417.4, -1698911.0, -8325.962, 0.0037871369, 0.1746553, -1698319.0, 20923.518, 0.00014134821, 9.999032, 10.000576 
1.0050408e+3, 1.3456914e+2, -1710068.9, -1647394.3, -66502.75, -0.067463316, 0.21065582, -1605215.4, 16022.308, 0.000046426092, 9.999299, 10.00013 
1.0050345e+3, 1.4456932e+2, -1593760.9, -1516777.6, 858.1239, -0.17287283, 0.21098162, -1516768.0, 6467.359, 0.00000474816, 9.999323, 10.000338 
1.00503124e+3, 1.5456872e+2, -1533536.8, -1430577.8, 43982.363, -0.084820375, 0.105925664, -1414347.8, 10892.227, 0.000000004412824, 9.999036, 10.000396 
1.0050272e+3, 1.6456902e+2, -1413213.0, -1272367.9, 41228.434, -0.058731813, 0.0768774, -1261187.0, 66048.336, 0.0, 9.998974, 10.000838 
1.0050224e+3, 1.7457044e+2, -1277771.5, -1149272.9, 9597.046, -0.094662316, 0.12711363, -1148560.1, 80659.586, 0.0, 9.999203, 10.000898 
1.005018e+3, 1.8457095e+2, -1215892.8, -1160710.1, -2828.6294, -0.10513928, 0.12979028, -1160565.5, -29352.64, 0.0, 9.999349, 10.000078 
1.0050138e+3, 1.945704e+2, -1111559.0, -1059760.1, -9792.605, -0.09033002, 0.065339744, -1057970.6, -24754.203, 0.0, 9.9993925, 10.000077 
1.0050092e+3, 2.0456968e+2, -1023684.4, -1053261.8, -37974.17, -0.068688944, 0.024375333, -997720.9, -62498.156, 0.0, 9.999696, 9.999303 
1.0050041e+3, 2.1456876e+2, -835297.0, -911671.7, -10261.639, -0.037153076, -0.000810336, -833942.25, 3289.853, 0.0, 10.000317, 9.999303 
1.00499965e+3, 2.2456859e+2, -694937.8, -742589.4, 21409.387, 0.009957043, 0.030714143, -686731.9, 52502.082, 0.0, 10.000391, 9.999755 
1.0049958e+3, 2.3456928e+2, -675985.9, -676477.3, -18188.87, 0.074085, 0.11509771, -658041.06, -16814.014, 0.0, 9.999821, 9.99981 
1.00499064e+3, 2.445688e+2, -673652.7, -759651.5, -44223.47, 0.037237685, 0.14533865, -654970.1, -111737.69, 0.0, 9.999745, 9.998603 
1.00498416e+3, 2.5456697e+2, -502664.06, -628182.75, -21935.314, -0.119479746, 0.1014587, -498941.16, -53688.883, 0.0, 10.000256, 9.998586 
1.0049783e+3, 2.6456565e+2, -332681.16, -427175.3, -51220.39, -0.16621275, 0.082098946, -310244.56, 37020.51, 0.0, 10.000456, 9.999197 
1.00497305e+3, 2.7456492e+2, -258817.16, -333918.47, -60716.695, -0.08329535, 0.07966143, -224977.56, 24292.168, 0.0, 10.000259, 9.99926 
1.0049682e+3, 2.8456348e+2, -219386.48, -364148.16, -388.6063, -0.03518568, 0.054248516, -219385.44, -68102.484, 0.0, 10.000287, 9.998366 
1.00496374e+3, 2.945612e+2, -74176.49, -243373.19, 13748.14, -0.026198182, -0.009795497, -73066.664, -19760.37, 0.0, 10.000611, 9.998365 
1.0049591e+3, 3.0455995e+2, 32135.781, -85880.37, 20308.525, -0.052230608, -0.00898189, 35532.746, 35532.746, 0.0, 10.000657, 9.999092 
1.0049541e+3, 3.1456077e+2, -11241.598, -94627.21, -3700.6094, -0.118250646, 0.15862277, -11077.688, -11077.688, 0.0, 10.000303, 9.999202 
1.0150457e+3, 1.24573074e+2, -1829232.9, -1728111.4, 16059.606, -0.04095223, 0.20456691, -1725622.1, -6420.1875, 0.0001798155, 9.999036, 10.000374 
1.0150405e+3, 1.3457339e+2, -1723099.0, -1675252.1, -54833.03, -0.030693816, 0.23558252, -1639350.9, -18150.004, 0.000062927356, 9.999302, 9.999938 
1.0150346e+3, 1.4457384e+2, -1526245.4, -1377390.0, -9549.46, -0.10527781, 0.22648256, -1376779.9, 146414.56, 0.000007860604, 9.999324, 10.001295 
1.01503044e+3, 1.545739e+2, -1462965.1, -1285211.4, 33511.008, -0.07205177, 0.08960443, -1279103.5, 146083.58, 0.000000028517778, 9.999039, 10.001392 
1.015026e+3, 1.6457419e+2, -1464170.6, -1379491.9, 47448.285, -0.07728871, 0.04258662, -1358239.1, -31057.754, 0.0, 9.99898, 10.0001 
1.01502135e+3, 1.7457475e+2, -1334201.8, -1266623.3, 18229.51, -0.11780757, 0.088608794, -1262019.5, -32842.316, 0.0, 9.999203, 10.000093 
1.0150173e+3, 1.8457517e+2, -1229631.3, -1188900.5, -2687.3464, -0.101886004, 0.13129933, -1188724.0, -57550.023, 0.0, 9.999346, 9.9998865 
1.0150138e+3, 1.9457537e+2, -1123632.8, -1084070.5, -8347.777, -0.021301284, 0.1579879, -1082381.3, -49209.29, 0.0, 9.999389, 9.999912 
1.01500966e+3, 2.0457496e+2, -969969.06, -940808.06, -17452.008, 0.0029306342, 0.11818253, -932647.3, 2526.6685, 0.0, 9.999691, 10.000078 
1.01500444e+3, 2.1457382e+2, -778643.5, -793108.5, 13161.178, -0.03775754, -0.008987833, -770858.44, 66322.07, 0.0, 10.000312, 10.00012 
1.0149993e+3, 2.2457331e+2, -764575.1, -885181.25, 223.30083, -0.06124254, -0.0068269903, -764574.7, -25389.771, 0.0, 10.000382, 9.99878 
1.0149942e+3, 2.3457348e+2, -750182.3, -830033.44, -39288.645, -0.06401771, 0.1316643, -734093.1, -92905.984, 0.0, 9.999818, 9.998758 
1.0149897e+3, 2.4457258e+2, -635187.7, -678603.8, -27935.926, -0.03886854, 0.14730611, -621517.0, -78319.85, 0.0, 9.99974, 9.999163 
1.0149858e+3, 2.5457042e+2, -459727.84, -536790.25, -1760.0349, 0.019634439, 0.006619074, -459687.7, -14471.432, 0.0, 10.000245, 9.999219 
1.0149803e+3, 2.6456934e+2, -344036.44, -447548.88, -57108.098, -0.011716796, -0.013483258, -318721.0, 28505.354, 0.0, 10.000442, 9.999064 
1.0149726e+3, 2.745696e+2, -270123.03, -357990.3, -65734.16, -0.14808059, 0.09951386, -234992.48, 14233.195, 0.0, 10.000261, 9.999093 
1.0149671e+3, 2.8456903e+2, -193935.56, -313693.1, 11238.763, -0.17686184, 0.15189573, -192889.97, -41658.543, 0.0, 10.000296, 9.99871 
1.0149638e+3, 2.9456744e+2, -51584.56, -192318.48, 28393.691, -0.07859398, 0.1194341, -46071.938, 7173.039, 0.0, 10.000592, 9.998727 
1.01495996e+3, 3.0456573e+2, -5612.1147, -157942.63, 9356.787, -0.033805907, 0.082613125, -5039.5337, -5039.5337, 0.0, 10.00063, 9.99861 
1.01495504e+3, 3.1456465e+2, -48707.97, -169911.72, -12354.76, -0.05116308, 0.10782687, -47461.42, -47461.42, 0.0, 10.000294, 9.998689 
1.0250449e+3, 1.2457801e+2, -1666351.1, -1648113.5, 95871.83, -0.077679895, 0.17908439, -1560927.9, 158224.28, 0.00022439056, 10.000151, 10.000383 
1.02503955e+3, 1.3457797e+2, -1751637.5, -1685432.0, 22292.432, -0.03449867, 0.17413265, -1678625.6, -57471.48, 0.0000828242, 9.999089, 9.99997 
1.025034e+3, 1.4457867e+2, -1620037.6, -1425356.3, 59813.344, -0.0716062, 0.18737331, -1408447.9, 114697.88, 0.000012107546, 9.998691, 10.001271 
1.0250298e+3, 1.5457946e+2, -1461106.1, -1286372.6, 25267.023, -0.04501421, 0.1274217, -1282792.3, 142340.02, 0.00000009714164, 9.999062, 10.001372 
1.0250254e+3, 1.6457978e+2, -1444891.5, -1403489.0, 20071.773, -0.056854058, 0.09664029, -1395356.0, -68229.0, 0.0, 9.999257, 9.999802 
1.0250208e+3, 1.7457946e+2, -1348832.0, -1309201.3, 25977.342, -0.102431074, 0.085621044, -1296344.4, -67213.08, 0.0, 9.999255, 9.999777 
1.02501675e+3, 1.8457945e+2, -1243042.3, -1191937.6, 30781.658, -0.08344031, 0.10258326, -1177484.5, -46352.64, 0.0, 9.99924, 9.999917 
1.0250134e+3, 1.9457984e+2, -1143103.8, -1088063.8, 38994.195, 0.007602957, 0.14141378, -1067856.4, -34728.48, 0.0, 9.999232, 9.99996 
1.0250094e+3, 2.0457973e+2, -1019232.94, -951004.94, 29211.293, 0.031755265, 0.12545629, -940207.2, -5080.4443, 0.0, 9.999296, 10.000197 
1.0250045e+3, 2.1457909e+2, -896285.2, -836036.3, 6166.393, -0.023007484, 0.034457427, -835411.7, 1716.9786, 0.0, 9.999445, 10.000242 
1.02499925e+3, 2.2457838e+2, -847333.9, -940887.44, -12360.915, -0.074519366, 0.018108098, -845728.25, -106593.51, 0.0, 9.999882, 9.998638 
1.0249939e+3, 2.3457763e+2, -638539.2, -792889.75, 13982.875, -0.12260174, 0.077601716, -637282.7, 3862.961, 0.0, 10.000659, 9.998607 
1.02498926e+3, 2.4457659e+2, -479304.44, -573106.44, 40787.027, -0.09646299, 0.07472289, -464050.1, 79106.125, 0.0, 10.000682, 9.999432 
1.0249858e+3, 2.545752e+2, -504826.72, -526777.75, 37711.637, 0.016872287, -0.01603898, -476525.9, -31359.209, 0.0, 9.999798, 9.999502 
1.0249806e+3, 2.645744e+2, -482889.47, -548872.2, -20369.922, 0.013878136, -0.01005551, -477107.6, -129932.72, 0.0, 9.999637, 9.998755 
1.0249732e+3, 2.7457428e+2, -283464.3, -400440.25, -43798.51, -0.12583107, 0.10074756, -268882.78, -19702.652, 0.0, 10.000329, 9.998767 
1.0249675e+3, 2.8457364e+2, -139108.1, -273018.2, 11429.192, -0.1752073, 0.15586688, -138139.61, 13047.764, 0.0, 10.000613, 9.998835 
1.024964e+3, 2.945723e+2, -69450.01, -184688.97, 11122.764, -0.11808723, 0.13146736, -68386.266, -15188.913, 0.0, 10.0004, 9.998871 
1.02496006e+3, 3.0457067e+2, -67175.95, -160819.72, -1056.2482, -0.05643474, 0.08724165, -67164.04, -67164.04, 0.0, 10.000093, 9.998848 
1.02495566e+3, 3.1456938e+2, -125057.15, -182236.48, 27728.598, 0.01222144, 0.06753607, -113819.14, -113819.14, 0.0, 9.999661, 9.99891 
1.0350447e+3, 1.2458345e+2, -1655139.8, -1623007.6, 67987.64, -0.123632014, 0.09854004, -1569213.5, 149878.88, 0.00027553758, 10.000144, 10.000558 
1.0350382e+3, 1.3458301e+2, -1734840.9, -1651022.3, -17365.527, -0.08394795, 0.028472064, -1647566.9, -26470.193, 0.000106410545, 9.99909, 10.000206 
1.0350326e+3, 1.445839e+2, -1688454.0, -1568591.8, 70593.43, -0.07770264, 0.0965395, -1535920.6, -12831.777, 0.000017580353, 9.998695, 10.000287 
1.03502914e+3, 1.545855e+2, -1532601.9, -1435192.4, 40066.285, -0.008256549, 0.21847221, -1420830.0, 4244.951, 0.00000023822265, 9.9990635, 10.000351 
1.0350251e+3, 1.6458581e+2, -1435191.0, -1384680.8, 19155.678, -0.002786238, 0.23661914, -1378237.9, -51166.094, 0.0, 9.999262, 9.999928 
1.0350205e+3, 1.745846e+2, -1336664.6, -1284314.3, 26076.773, -0.054615892, 0.11793535, -1273541.6, -44460.06, 0.0, 9.999256, 9.999948 
1.03501625e+3, 1.845839e+2, -1225727.0, -1156354.0, 28867.115, -0.057416897, 0.045207765, -1145913.4, -14827.347, 0.0, 9.99924, 10.000161 
1.0350126e+3, 1.9458386e+2, -1125757.4, -1051705.3, 38444.332, -0.007531848, 0.01714017, -1035356.2, -2272.5244, 0.0, 9.99923, 10.000211 
1.0350086e+3, 2.0458409e+2, -1058095.4, -1030419.6, 32816.043, 0.013534208, 0.046346996, -1008643.2, -73562.805, 0.0, 9.9992895, 9.999656 
1.0350042e+3, 2.1458459e+2, -937285.5, -920167.6, 11678.961, 0.002954973, 0.12823215, -914247.1, -77170.93, 0.0, 9.99944, 9.999667 
1.03499964e+3, 2.2458388e+2, -799328.94, -840004.9, 14233.122, -0.03510913, 0.106328525, -794843.25, -55760.383, 0.0, 9.999875, 9.999334 
1.0349947e+3, 2.3458171e+2, -586159.25, -683921.94, 43923.82, -0.10598901, -0.04804195, -569323.9, 71778.2, 0.0, 10.000656, 9.999357 
1.0349895e+3, 2.445808e+2, -482696.25, -578014.44, 9626.558, -0.14165732, -0.075450405, -481733.75, 61375.77, 0.0, 10.000672, 9.999403 
1.03498414e+3, 2.5458136e+2, -508996.84, -536098.0, 5842.629, -0.13357696, 0.033566117, -507790.9, -62687.75, 0.0, 9.9998, 9.999438 
1.03497915e+3, 2.6458085e+2, -518237.2, -622979.3, 3125.1184, -0.094930686, 0.09507804, -518144.0, -171033.97, 0.0, 9.999639, 9.998246 
1.0349746e+3, 2.7457902e+2, -322208.4, -478505.4, -16162.507, -0.02092922, 0.08739755, -320554.56, -71422.0, 0.0, 10.000317, 9.998239 
1.0349696e+3, 2.8457728e+2, -146300.55, -283541.66, 5217.144, -0.035775673, 0.06625687, -146102.5, 5048.3477, 0.0, 10.000594, 9.998772 
1.034964e+3, 2.945757e+2, -71307.07, -188864.25, 6237.6226, -0.15241753, 0.019628104, -70977.03, -17813.197, 0.0, 10.0004015, 9.998841 
1.0349595e+3, 3.0457476e+2, -176.15753, -24271.436, -15348.733, -0.12730348, -0.0011075946, 7288.487, 7288.487, 0.0, 10.000102, 9.9997835 
1.0349559e+3, 3.1457505e+2, -61835.645, -45672.33, 16299.796, 0.060162857, 0.042146377, -35560.676, -35560.676, 0.0, 9.999638, 9.99986 
1.0450439e+3, 1.2458887e+2, -1804823.6, -1695762.4, 22164.463, -0.15832132, 0.074584484, -1691430.0, 27607.045, 0.0003338259, 9.999114, 10.000554 
1.0450372e+3, 1.3458845e+2, -1698749.4, -1627067.6, -89536.484, -0.09850103, 0.0012782954, -1566465.0, 54574.813, 0.00013404706, 9.999307, 10.000266 
1.045032e+3, 1.4458917e+2, -1611480.4, -1583121.4, 36694.637, -0.04781713, 0.07250458, -1557961.9, -34927.977, 0.000024406929, 9.999448, 9.999824 
1.0450286e+3, 1.5459031e+2, -1504358.0, -1476854.8, 43579.676, 0.004519045, 0.19605732, -1444908.5, -19881.455, 0.0000004785213, 9.999492, 9.999859 
1.0450247e+3, 1.6459048e+2, -1389248.3, -1331076.3, 40452.6, 0.010805957, 0.2119659, -1310338.5, 16687.176, 0.0, 9.999439, 10.000212 
1.04502015e+3, 1.7458954e+2, -1307834.5, -1234308.8, 56336.47, -0.016863184, 0.088781096, -1203801.3, 25229.525, 0.0, 9.999299, 10.00027 
1.045016e+3, 1.8458892e+2, -1197743.5, -1136566.9, 69547.11, -0.024233434, 0.0051689455, -1091178.6, 39854.324, 0.0, 9.999408, 10.000215 
1.04501195e+3, 1.9458875e+2, -1036141.56, -1003713.0, 62862.37, -0.015909484, -0.04165532, -955007.5, 78024.04, 0.0, 9.999826, 10.000252 
1.0450079e+3, 2.0458883e+2, -983158.75, -1038022.94, 49433.96, -0.0135374395, -0.00883591, -954055.56, -19025.275, 0.0, 9.999994, 9.999263 
1.0450037e+3, 2.1458925e+2, -902298.3, -949029.9, 38831.008, -0.016198207, 0.105060615, -880345.1, -43315.746, 0.0, 9.99988, 9.999256 
1.04499936e+3, 2.2458863e+2, -815731.94, -803983.1, 41868.703, -0.032454986, 0.096334934, -767578.75, -28543.262, 0.0, 9.999574, 9.999726 
1.044995e+3, 2.345868e+2, -791494.44, -735367.2, 44386.76, -0.06586199, -0.067940086, -710916.5, -69866.734, 0.0, 9.999042, 9.999782 
1.04498975e+3, 2.4458611e+2, -700549.56, -702569.1, -7250.6577, -0.115493946, -0.08760893, -694238.7, -151183.77, 0.0, 9.999258, 9.9992285 
1.04498364e+3, 2.545868e+2, -443377.44, -525447.4, -22804.068, -0.18324445, 0.051345266, -437466.75, 7582.4194, 0.0, 10.000343, 9.999248 
1.04497865e+3, 2.6458606e+2, -375191.13, -550526.2, -14379.014, -0.15388766, 0.10373264, -374019.75, -26961.898, 0.0, 10.000608, 9.998276 
1.0449747e+3, 2.745837e+2, -378708.6, -501642.38, 7588.5713, -0.0112635, 0.039196555, -378241.94, -129158.07, 0.0, 9.99991, 9.998274 
1.0449701e+3, 2.8458184e+2, -277818.03, -336436.22, 59963.574, 0.0042383214, -0.0008610387, -240383.94, -89281.016, 0.0, 9.999645, 9.998865 
1.04496434e+3, 2.9458064e+2, -142639.6, -211696.84, 67122.26, -0.12640518, -0.021362983, -101685.62, -48572.242, 0.0, 9.999863, 9.998943 
1.0449596e+3, 3.0458e+2, 7799.739, -20009.615, 14955.893, -0.12229209, -0.01737693, 14316.099, 14316.099, 0.0, 10.000156, 9.999785 
1.0449557e+3, 3.1458044e+2, 70153.12, 16832.0, -27764.145, 0.035253324, 0.04280327, 81984.55, 81984.55, 0.0, 10.000549, 9.999849 
1.0550426e+3, 1.24594264e+2, -1816502.6, -1719112.6, 36313.832, -0.19951436, 0.10129038, -1707063.1, 11922.555, 0.00039971265, 9.99911, 10.000397 
1.0550367e+3, 1.3459438e+2, -1704436.1, -1640782.1, -80950.76, -0.08287547, 0.09109859, -1585626.5, 35356.043, 0.00016604259, 9.999313, 10.000171 
1.055032e+3, 1.445946e+2, -1608079.8, -1577912.9, 38010.656, 0.011640235, 0.1131789, -1552102.3, -29122.076, 0.000032768716, 9.9994545, 9.999857 
1.0550279e+3, 1.5459399e+2, -1503500.0, -1473581.0, 45723.07, -0.013128014, 0.061437964, -1440432.5, -15444.702, 0.0000008393984, 9.999486, 9.999885 
1.0550237e+3, 1.6459389e+2, -1358975.4, -1268196.4, 34097.367, -0.023276659, 0.027227871, -1256815.9, 70171.61, 0.0, 9.999438, 10.000645 
1.05501965e+3, 1.7459434e+2, -1275564.3, -1167733.5, 51040.51, 0.006693673, -0.00048506673, -1147406.1, 81571.94, 0.0, 9.999299, 10.000728 
1.0550158e+3, 1.8459457e+2, -1207480.8, -1156629.5, 82711.25, 0.010892479, -0.01878308, -1095524.1, 35448.184, 0.0, 9.999407, 10.000078 
1.05501175e+3, 1.9459452e+2, -1048054.25, -1027873.25, 78360.03, -0.02191624, -0.036597595, -958956.75, 74014.375, 0.0, 9.999824, 10.000088 
1.0550074e+3, 2.0459405e+2, -1000862.44, -1074255.1, 44202.12, -0.05512213, -0.03906415, -980109.25, -45133.387, 0.0, 9.999991, 9.999016 
1.0550028e+3, 2.1459311e+2, -920476.3, -985865.25, 34685.9, -0.08552994, -0.035288468, -905504.9, -68517.26, 0.0, 9.999875, 9.999006 
1.05499856e+3, 2.2459272e+2, -811517.56, -793836.8, 21027.38, -0.072635494, -0.012905136, -779867.06, -40874.855, 0.0, 9.999567, 9.9998 
1.0549946e+3, 2.3459291e+2, -784863.56, -722310.56, 24720.87, -0.0072535924, 0.016982544, -713720.5, -72732.03, 0.0, 9.999042, 9.999871 
1.05499e+3, 2.4459253e+2, -723131.9, -748750.75, 30556.64, -0.023746585, 0.038743757, -702808.44, -159816.31, 0.0, 9.999255, 9.998914 
1.0549845e+3, 2.5459146e+2, -467051.3, -574166.1, 19311.094, -0.13632436, 0.037597265, -463676.16, -18671.768, 0.0, 10.000339, 9.998917 
1.0549791e+3, 2.6459008e+2, -335707.4, -466128.0, -38321.453, -0.16820471, 0.01338153, -325280.97, 21737.354, 0.0, 10.000598, 9.99886 
1.05497375e+3, 2.745884e+2, -334991.1, -410783.0, -16608.03, -0.10571988, -0.04768759, -331511.6, -82477.65, 0.0, 9.999909, 9.9988985 
1.054969e+3, 2.8458738e+2, -262408.0, -304566.97, 67682.016, -0.06415861, -0.04707211, -212598.83, -61555.53, 0.0, 9.999643, 9.999084 
1.0549651e+3, 2.9458717e+2, -130973.38, -184391.5, 77567.23, -0.043814868, 0.014767913, -75645.57, -22600.385, 0.0, 9.999847, 9.999139 
1.0549606e+3, 3.0458647e+2, -59879.59, -156340.78, 29888.152, -0.04437188, 0.044959374, -51369.617, -51369.617, 0.0, 10.000138, 9.9988575 
1.0549552e+3, 3.145856e+2, 3372.5325, -122450.01, -8185.3325, -0.07861246, 0.06915853, 3902.7913, 3902.7913, 0.0, 10.000552, 9.998891 
1.0650417e+3, 1.2459915e+2, -1841930.4, -1720100.8, 11720.433, -0.18812394, 0.13768104, -1718983.5, -44.311314, 0.00047318285, 9.998894, 10.000492 
1.0650361e+3, 1.3459924e+2, -1701048.4, -1621754.4, -94677.3, -0.06981094, 0.10895502, -1558757.9, 62176.95, 0.00020250746, 9.99926, 10.000328 
1.0650319e+3, 1.4459926e+2, -1614717.4, -1561066.8, 25472.438, 0.062662445, 0.09563678, -1550899.6, -27966.803, 0.000042863663, 9.999324, 10.000034 
1.0650272e+3, 1.5459837e+2, -1563837.6, -1482101.3, 41282.633, -0.00371075, -0.0025995101, -1464879.4, -39937.773, 0.0000013547858, 9.998986, 10.000065 
1.0650228e+3, 1.6459836e+2, -1422416.8, -1287168.8, 35426.566, -0.02799613, -0.04169171, -1278451.1, 48488.61, 0.0, 9.998958, 10.000743 
1.06501915e+3, 1.7459935e+2, -1265781.6, -1151962.0, 24091.219, 0.020546347, -0.026514586, -1147072.9, 81852.55, 0.0, 9.999321, 10.000823 
1.06501535e+3, 1.845998e+2, -1200138.8, -1178675.1, 45884.645, 0.025127599, -0.015045035, -1142284.0, -11365.548, 0.0, 9.999567, 9.999849 
1.0650115e+3, 1.9459967e+2, -1083874.3, -1072295.4, 34328.313, -0.031029804, -0.01613236, -1043271.75, -10351.964, 0.0, 9.999694, 9.9998455 
1.0650072e+3, 2.0459905e+2, -1020446.7, -1054459.4, 3280.626, -0.0693286, -0.03448182, -1020133.1, -85207.07, 0.0, 9.99973, 9.999278 
1.0650025e+3, 2.1459785e+2, -930728.25, -958839.06, 31219.016, -0.083856314, -0.08528361, -910546.56, -73608.32, 0.0, 9.999667, 9.999291 
1.0649981e+3, 2.2459742e+2, -812663.75, -821935.75, 24423.168, -0.072163545, -0.06923131, -792440.5, -53497.74, 0.0, 9.999679, 9.999554 
1.06499374e+3, 2.3459789e+2, -696250.8, -708855.25, -616.1915, -0.02936291, 0.0130323935, -696220.75, -55282.49, 0.0, 9.99978, 9.999608 
1.0649893e+3, 2.4459752e+2, -661869.3, -705537.7, 27066.945, -0.038217433, 0.044114243, -648927.75, -105985.28, 0.0, 9.999619, 9.999035 
1.0649845e+3, 2.5459617e+2, -630296.25, -637386.0, 49459.188, -0.108209305, 0.0007124279, -584255.06, -139298.0, 0.0, 9.999153, 9.999054 
1.0649795e+3, 2.6459482e+2, -512730.25, -527150.0, -11470.196, -0.12887101, -0.037082806, -506392.13, -159422.28, 0.0, 9.999273, 9.99908 
1.06497385e+3, 2.7459356e+2, -299348.56, -367731.5, -22033.598, -0.090765685, -0.07784656, -292864.03, -43883.848, 0.0, 10.000042, 9.99913 
1.064969e+3, 2.845928e+2, -171782.98, -281958.84, 31830.725, -0.06642457, -0.05598101, -163248.0, -12260.777, 0.0, 10.00036, 9.998894 
1.064965e+3, 2.945926e+2, -97539.586, -191832.28, 9188.549, -0.056813184, 0.026897771, -96652.53, -43662.082, 0.0, 10.00018, 9.998926 
1.06496066e+3, 3.0459157e+2, -51580.17, -175318.02, -11429.832, -0.056638565, 0.04736535, -50533.242, -50533.242, 0.0, 10.000294, 9.9986515 
1.0649558e+3, 3.1459022e+2, 5268.293, -143964.63, 2500.8862, -0.071868256, 0.043399572, 5310.192, 5310.192, 0.0, 10.000664, 9.998689 
1.07504115e+3, 1.2460362e+2, -1819070.6, -1673822.8, 24080.41, -0.14127445, 0.18268532, -1669934.6, 48961.87, 0.00055371417, 9.998899, 10.000807 
1.0750354e+3, 1.3460311e+2, -1674776.8, -1565486.1, -79456.305, -0.06451222, 0.0558848, -1523698.0, 97197.88, 0.00024334127, 9.999252, 10.000718 
1.0750316e+3, 1.4460328e+2, -1592513.5, -1514379.6, 13503.594, 0.09825664, 0.022521595, -1512111.8, 10779.163, 0.00005483326, 9.99932, 10.000357 
1.0750265e+3, 1.5460354e+2, -1540194.6, -1434181.3, 29012.033, 0.028395873, 0.0052412576, -1426761.1, -1873.4701, 0.000002073113, 9.998991, 10.000392 
1.0750221e+3, 1.6460396e+2, -1436992.8, -1320214.9, 46440.46, -0.008750591, 0.0036166143, -1303998.3, 22883.45, 0.0000000000166348, 9.998968, 10.000511 
1.0750184e+3, 1.746046e+2, -1283902.4, -1190131.8, 37961.79, 0.020253047, 0.008525486, -1176690.3, 52182.17, 0.0, 9.999322, 10.000561 
1.0750148e+3, 1.8460473e+2, -1223129.8, -1226330.4, 49256.797, 0.01147808, 0.017161924, -1175447.3, -44576.81, 0.0, 9.999566, 9.999523 
1.075011e+3, 1.946043e+2, -1107560.1, -1120488.4, 38795.332, -0.048427623, 0.02020129, -1074694.0, -41817.145, 0.0, 9.99969, 9.9995165 
1.07500695e+3, 2.0460391e+2, -968014.0, -944564.94, -857.3618, -0.061267555, 0.0049198894, -944533.6, -9653.19, 0.0, 9.999724, 10.000036 
1.0750029e+3, 2.1460353e+2, -874466.8, -841575.44, 28529.975, -0.015886186, -0.04580201, -825090.6, 11790.252, 0.0, 9.999663, 10.000099 
1.07499816e+3, 2.2460282e+2, -852469.7, -903948.6, 26223.047, -0.036513727, -0.07193774, -841464.56, -102577.86, 0.0, 9.999675, 9.998993 
1.0749924e+3, 2.3460175e+2, -740166.1, -799717.25, 3844.8284, -0.13609435, -0.08081699, -739918.94, -99020.13, 0.0, 9.999776, 9.998986 
1.07498765e+3, 2.4460107e+2, -623952.44, -625890.06, 9612.288, -0.163577, -0.07351783, -615260.25, -72354.43, 0.0, 9.999613, 9.999585 
1.0749838e+3, 2.5460088e+2, -588493.9, -550766.3, 32994.094, -0.10527523, -0.060812216, -531624.1, -86717.19, 0.0, 9.999151, 9.99965 
1.0749796e+3, 2.6460028e+2, -523417.97, -548330.25, 16142.334, -0.040899027, -0.04888661, -515484.66, -168572.39, 0.0, 9.999269, 9.998938 
1.0749751e+3, 2.7459928e+2, -312300.44, -393052.53, 8665.846, 0.030935748, -0.04977825, -311380.94, -62458.67, 0.0, 10.000034, 9.998961 
1.07497e+3, 2.845981e+2, -215631.17, -370565.22, 25806.518, -0.006961181, -0.027091634, -211445.78, -60511.27, 0.0, 10.000348, 9.998292 
1.07496396e+3, 2.9459682e+2, -139978.8, -281103.9, 5034.884, -0.1758537, 0.010949973, -139799.4, -86850.06, 0.0, 10.000183, 9.998312 
1.07495986e+3, 3.0459526e+2, -16426.625, -102582.414, 3306.244, -0.16702595, -0.01425058, -16299.934, -16299.934, 0.0, 10.000295, 9.999151 
1.0749578e+3, 3.1459436e+2, 41196.363, -66008.25, 20534.486, 0.04841735, -0.030752694, 44995.035, 44995.035, 0.0, 10.0006485, 9.999233 
1.08504064e+3, 1.2460763e+2, -1836807.8, -1666921.3, 65952.85, -0.07531594, 0.13625383, -1644323.1, 74531.38, 0.00064071716, 9.9987135, 10.000943 
1.0850345e+3, 1.3460737e+2, -1729388.5, -1570507.1, -50190.074, -0.052949797, 0.015903246, -1555980.4, 64870.984, 0.00028839763, 9.998787, 10.000908 
1.085031e+3, 1.4460772e+2, -1629929.4, -1530628.4, 21851.742, 0.12657614, -0.010235141, -1526032.5, -3187.897, 0.00006873226, 9.999059, 10.00037 
1.08502574e+3, 1.5460826e+2, -1464529.6, -1397495.8, 8945.68, 0.026727622, 0.00046087653, -1396322.5, 28516.184, 0.0000030594845, 9.999511, 10.000392 
1.0850211e+3, 1.6460858e+2, -1359798.9, -1316781.4, 12710.4, -0.03310405, 0.0029812066, -1313306.5, 13527.596, 0.000000000186287, 9.999644, 10.000209 
1.0850175e+3, 1.7460868e+2, -1290813.3, -1228430.8, -1433.9025, -0.015690912, -0.014277342, -1228397.9, 433.08765, 0.0, 9.999428, 10.000246 
1.0850139e+3, 1.8460861e+2, -1255979.0, -1221711.6, 25260.23, -0.014529979, -0.017598929, -1208322.5, -77491.36, 0.0, 9.999254, 9.999704 
1.0850104e+3, 1.9460839e+2, -1173886.9, -1129761.4, 53282.164, -0.043293145, -0.015829148, -1094154.8, -61319.395, 0.0, 9.999138, 9.999719 
1.0850066e+3, 2.0460832e+2, -1043475.5, -968303.9, 14956.302, -0.044871893, -0.013480337, -965437.44, -30601.592, 0.0, 9.999154, 10.000146 
1.0850026e+3, 2.1460845e+2, -915181.7, -849633.5, -10344.42, -0.011878688, -0.022852138, -848039.8, -11207.675, 0.0, 9.999334, 10.000201 
1.08499765e+3, 2.2460783e+2, -870880.75, -911607.7, -14152.508, -0.042816192, -0.04779115, -866445.75, -127608.28, 0.0, 9.999543, 9.999004 
1.0849921e+3, 2.346063e+2, -737698.5, -797604.5, 7886.553, -0.15107605, -0.10236837, -736677.6, -95824.27, 0.0, 9.999789, 9.998994 
1.08498715e+3, 2.4460553e+2, -597151.8, -608244.6, 382.44617, -0.18004803, -0.10656708, -597138.6, -54277.66, 0.0, 9.999776, 9.999628 
1.0849829e+3, 2.5460568e+2, -542009.6, -522650.06, -19727.633, -0.114182286, -0.06485818, -510355.38, -65496.387, 0.0, 9.999447, 9.999701 
1.084979e+3, 2.6460522e+2, -488571.0, -526205.9, -12863.813, -0.036297426, -0.043344203, -484594.28, -137731.47, 0.0, 9.999487, 9.998983 
1.0849754e+3, 2.746041e+2, -317688.2, -391091.94, -4701.4277, 0.05464988, -0.05682539, -317388.28, -68514.984, 0.0, 9.999979, 9.999001 
1.08497046e+3, 2.846028e+2, -231930.81, -395445.2, 14480.243, 0.013454475, -0.04702498, -230658.39, -79771.21, 0.0, 10.000308, 9.99814 
1.0849642e+3, 2.9460123e+2, -120819.57, -289759.66, 24821.473, -0.1820145, -0.021730151, -117248.19, -64343.33, 0.0, 10.000392, 9.998152 
1.0849601e+3, 3.0459952e+2, 5239.774, -65811.2, 37370.926, -0.17799988, -0.06515201, 21276.35, 21276.35, 0.0, 10.00033, 9.999386 
1.08495824e+3, 3.1459892e+2, -13183.744, -61436.945, 28896.777, 0.058928166, -0.075662434, 334.26425, 334.26425, 0.0, 10.000142, 9.999505 
1.09504014e+3, 1.2461126e+2, -1839542.6, -1670934.5, 59202.086, -0.001414383, -0.0010343286, -1652223.6, 66588.92, 0.000734217, 9.998707, 10.000918 
1.0950334e+3, 1.3461211e+2, -1728909.8, -1571604.0, -45459.727, -0.04044499, -0.009551124, -1559411.6, 61388.926, 0.00033773432, 9.998795, 10.000897 
1.0950303e+3, 1.4461266e+2, -1649366.4, -1573196.6, 37813.016, 0.1399578, -0.002473832, -1557613.3, -34819.926, 0.0000845864, 9.999068, 10.000073 
1.0950249e+3, 1.5461262e+2, -1488343.1, -1445959.9, 26675.113, -0.014447655, -0.017420257, -1433083.3, -8289.261, 0.0000043925156, 9.999506, 10.000062 
1.09502e+3, 1.646123e+2, -1386644.9, -1372127.9, 4136.159, -0.10777366, -0.042308453, -1371032.1, -44235.984, 0.0000000006358386, 9.999641, 9.99983 
1.0950161e+3, 1.7461166e+2, -1317375.3, -1284137.0, -9473.033, -0.0917828, -0.09322157, -1281626.8, -52826.55, 0.0, 9.99943, 9.999864 
1.0950127e+3, 1.8461153e+2, -1207707.3, -1121250.9, 19113.967, -0.05977375, -0.118401825, -1117213.6, 13586.242, 0.0, 9.999252, 10.000395 
1.09500974e+3, 1.9461195e+2, -1122654.8, -1022504.94, 48677.49, -0.020302517, -0.124038786, -1002744.4, 30050.166, 0.0, 9.999133, 10.000457 
1.09500594e+3, 2.0461233e+2, -1082498.1, -1048738.8, 19390.588, -0.025010534, -0.0887438, -1039910.1, -105118.484, 0.0, 9.999149, 9.999598 
1.09500125e+3, 2.146127e+2, -958113.8, -938014.56, -3269.3423, -0.07675693, -0.016831549, -937496.1, -100704.59, 0.0, 9.9993305, 9.999598 
1.0949967e+3, 2.2461246e+2, -831799.1, -829134.4, -6791.1772, -0.09628048, 0.003417337, -823546.06, -84751.51, 0.0, 9.9995365, 9.999574 
1.0949927e+3, 2.3461156e+2, -694668.9, -707728.3, 17504.744, -0.07889321, -0.05172557, -682515.6, -41714.04, 0.0, 9.999786, 9.999613 
1.0949878e+3, 2.446109e+2, -629747.5, -675278.06, -11810.233, -0.09219808, -0.055302013, -626866.3, -84058.55, 0.0, 9.999773, 9.99917 
1.0949822e+3, 2.5461057e+2, -577721.3, -595084.25, -31090.97, -0.14046925, -0.011987676, -554122.5, -109309.62, 0.0, 9.999439, 9.9992075 
1.0949776e+3, 2.646097e+2, -473998.03, -493957.13, 4051.8853, -0.12154544, -0.02045839, -473206.84, -126385.65, 0.0, 9.999477, 9.999209 
1.0949746e+3, 2.7460817e+2, -299917.06, -354328.47, 15853.373, -0.027017955, -0.099498354, -295635.0, -46801.918, 0.0, 9.999978, 9.999253 
1.09497055e+3, 2.8460684e+2, -211414.75, -352883.06, 19240.033, -0.01039628, -0.1166052, -208844.75, -57999.72, 0.0, 10.000307, 9.998433 
1.0949657e+3, 2.9460573e+2, -101602.44, -247374.19, 30487.518, -0.08015151, -0.073160216, -95483.0, -42626.094, 0.0, 10.0003805, 9.998449 
1.0949612e+3, 3.046043e+2, 182.49696, -73315.984, 30024.693, -0.09650151, -0.1073099, 10888.381, 10888.381, 0.0, 10.000315, 9.999342 
1.0949573e+3, 3.1460392e+2, -14745.912, -63841.285, 26234.043, -0.058977842, -0.08681218, -3365.6997, -3365.6997, 0.0, 10.000137, 9.999492 
1.1050392e+3, 1.2461579e+2, -1869369.9, -1726132.8, 78245.6, 0.043800935, -0.06557856, -1691677.9, 27085.314, 0.00083503575, 9.99868, 10.00055 
1.10503234e+3, 1.3461657e+2, -1675780.5, -1585761.3, -41864.19, -0.055131424, -0.046486586, -1569301.6, 51452.645, 0.0003918232, 9.999328, 10.000544 
1.1050295e+3, 1.4461693e+2, -1595237.1, -1565647.5, 21234.855, 0.14174584, -0.030983023, -1554561.8, -31811.875, 0.000102570426, 9.99952, 9.999907 
1.1050241e+3, 1.5461682e+2, -1562740.6, -1499580.4, 18643.086, -0.031570032, -0.036156274, -1494488.0, -69736.71, 0.0000061708192, 9.999074, 9.999902 
1.1050193e+3, 1.646164e+2, -1472747.4, -1414220.8, 23844.285, -0.12133617, -0.06219708, -1405736.4, -78981.91, 0.0000000015512864, 9.999056, 9.999823 
1.1050157e+3, 1.7461565e+2, -1297585.8, -1274501.9, 37203.742, -0.075793974, -0.12694101, -1247090.9, -18331.145, 0.0, 9.999566, 9.999863 
1.1050123e+3, 1.8461543e+2, -1175028.5, -1111393.8, 35192.707, -0.04159271, -0.1560496, -1095767.8, 34992.33, 0.0, 9.999502, 10.000341 
1.10500865e+3, 1.9461587e+2, -1176715.8, -1054824.3, 2923.92, -0.0339011, -0.15395652, -1054754.3, -21999.658, 0.0, 9.99879, 10.000401 
1.1050046e+3, 2.0461628e+2, -1151107.4, -1100630.6, -9758.529, -0.059179142, -0.10757543, -1098809.8, -164057.45, 0.0, 9.998761, 9.999428 
1.1050002e+3, 2.1461658e+2, -941024.8, -948967.6, -1546.7107, -0.1196043, -0.021245155, -940734.25, -103980.35, 0.0, 9.999533, 9.999425 
1.1049961e+3, 2.2461648e+2, -797552.0, -786631.1, -22986.93, -0.11881709, 0.010132596, -768465.0, -29708.816, 0.0, 9.999661, 9.9998045 
1.1049923e+3, 2.346159e+2, -786232.94, -724361.75, -29298.074, -0.047975004, -0.037493497, -712690.0, -71930.47, 0.0, 9.99904, 9.999858 
1.1049876e+3, 2.4461535e+2, -746592.4, -735093.75, -44300.277, -0.04666055, -0.043635335, -696171.25, -153406.7, 0.0, 9.998986, 9.999138 
1.1049818e+3, 2.5461483e+2, -556133.0, -590147.6, -32031.543, -0.1274209, -0.01387247, -536873.7, -92102.18, 0.0, 9.999611, 9.999158 
1.1049773e+3, 2.6461387e+2, -392909.38, -464528.22, 18561.766, -0.13301407, -0.021436103, -388384.53, -41603.887, 0.0, 10.000075, 9.999124 
1.1049745e+3, 2.7461246e+2, -255096.44, -342509.06, 3490.8376, -0.052010026, -0.08182046, -254957.25, -6165.181, 0.0, 10.000328, 9.9991665 
1.1049708e+3, 2.8461123e+2, -201734.64, -310073.56, -25126.426, -0.015682511, -0.10110432, -196190.89, -45388.47, 0.0, 10.000212, 9.998773 
1.1049662e+3, 2.946102e+2, -176421.02, -243727.4, -12976.547, -0.028481241, -0.085963875, -174005.83, -121194.18, 0.0, 9.999698, 9.998802 
1.1049616e+3, 3.0460864e+2, -54025.11, -119923.8, 14397.035, -0.06623616, -0.13910975, -51017.063, -51017.063, 0.0, 10.000032, 9.999158 
1.1049572e+3, 3.146084e+2, 146006.66, -4354.844, -5291.4053, -0.13650388, -0.08475593, 146192.64, 146192.64, 0.0, 10.00132, 9.999332 
1.11503795e+3, 1.2462124e+2, -1917859.1, -1828042.4, 81630.96, 0.04672373, -0.06428254, -1779782.3, -61076.297, 0.000944546, 9.998687, 9.999847 
1.11503124e+3, 1.346208e+2, -1725929.4, -1689626.5, -14450.018, -0.10242759, -0.09460677, -1684577.1, -63865.56, 0.00045159098, 9.999327, 9.999831 
1.1150289e+3, 1.4462064e+2, -1596851.8, -1569209.8, 5609.861, 0.12615424, -0.094632216, -1568114.6, -45401.066, 0.00012308804, 9.99952, 9.999883 
1.11502305e+3, 1.5462098e+2, -1562193.6, -1499558.8, 2028.3391, -0.030887648, -0.054362148, -1499493.1, -74783.45, 0.000008505592, 9.999078, 9.9999 
1.11501865e+3, 1.6462097e+2, -1446927.3, -1361308.3, 40192.582, -0.082345285, -0.056560256, -1345397.3, -18689.02, 0.0000000033697685, 9.999059, 10.000185 
1.1150165e+3, 1.7462064e+2, -1271136.1, -1219398.5, 56637.79, 0.02733819, -0.11635796, -1183001.5, 45707.492, 0.0, 9.999565, 10.000242 
1.11501254e+3, 1.846204e+2, -1231478.5, -1228290.8, 8015.609, 0.03379269, -0.13104337, -1221712.0, -91000.97, 0.0, 9.999499, 9.999541 
1.1150068e+3, 1.9462022e+2, -1236511.8, -1179114.4, -24127.486, -0.0891571, -0.10513565, -1170319.6, -137604.92, 0.0, 9.998789, 9.999549 
1.1150024e+3, 2.0462017e+2, -1137598.1, -1071966.1, 15094.659, -0.15337649, -0.06964357, -1068661.0, -133943.66, 0.0, 9.998757, 9.999627 
1.1149995e+3, 2.1462017e+2, -924808.94, -913812.2, 27255.34, -0.14472839, -0.036129534, -891506.1, -54787.33, 0.0, 9.999525, 9.99967 
1.11499585e+3, 2.2461994e+2, -805953.7, -802319.5, -46130.77, -0.11566982, -0.027616184, -757970.06, -19248.195, 0.0, 9.999653, 9.9997015 
1.1149912e+3, 2.3461938e+2, -795666.2, -742153.44, -52033.23, -0.063009195, -0.059158374, -710400.3, -69673.664, 0.0, 9.999031, 9.999741 
1.11498654e+3, 2.4461891e+2, -721273.5, -680774.6, -23333.146, -0.04920614, -0.070001125, -670129.44, -127398.61, 0.0, 9.998978, 9.999516 
1.1149819e+3, 2.5461847e+2, -528941.25, -533800.56, -7189.328, -0.07956969, -0.07037857, -523782.13, -79047.53, 0.0, 9.999611, 9.999546 
1.11497805e+3, 2.6461783e+2, -421126.6, -523317.47, 28670.932, -0.074526675, -0.046997257, -413632.22, -66891.18, 0.0, 10.000076, 9.99872 
1.1149751e+3, 2.7461702e+2, -287084.13, -405869.13, 14520.126, -0.027097577, -0.0054292367, -285334.97, -36584.73, 0.0, 10.000316, 9.998737 
1.11497104e+3, 2.84616e+2, -176843.88, -255451.36, -43948.445, -0.01119738, -0.00046312524, -157187.89, -6428.6787, 0.0, 10.000197, 9.999155 
1.1149658e+3, 2.9461467e+2, -146725.89, -183195.22, -29396.338, -0.034491573, -0.056219675, -130367.96, -77599.45, 0.0, 9.999701, 9.999218 
1.1149614e+3, 3.046127e+2, -77433.16, -170742.03, 61394.6, -0.09222805, -0.15639864, -46977.715, -46977.715, 0.0, 10.000041, 9.998806 
1.114958e+3, 3.1461242e+2, 122390.34, -51436.703, 47279.973, -0.18680274, -0.06475749, 134418.0, 134418.0, 0.0, 10.00131, 9.999015 
1.1250372e+3, 1.2462614e+2, -1845300.8, -1800163.6, 5178.4194, 0.07753119, -0.023671368, -1799577.1, -80918.13, 0.0010643419, 9.999216, 9.999784 
1.1250303e+3, 1.3462566e+2, -1736619.0, -1701631.1, -20771.912, -0.13489115, -0.050399695, -1691968.0, -71302.625, 0.00051804923, 9.999285, 9.999769 
1.12502836e+3, 1.4462519e+2, -1615379.1, -1586865.6, 6260.893, 0.120729804, -0.07581661, -1585551.5, -62881.246, 0.00014661087, 9.999431, 9.9998045 
1.1250227e+3, 1.5462509e+2, -1502702.8, -1479988.8, -8112.0283, -0.00014160079, -0.07062764, -1477389.1, -52719.418, 0.00001150662, 9.999524, 9.99982 
1.1250182e+3, 1.6462512e+2, -1425991.6, -1355006.8, 16386.938, -0.042859204, -0.0636348, -1351406.4, -24738.275, 0.0000000061074554, 9.999217, 10.000153 
1.1250156e+3, 1.7462535e+2, -1432800.3, -1300649.3, 579.86536, 0.04588569, -0.063120924, -1300646.8, -71981.96, 0.0, 9.99847, 10.000213 
1.1250116e+3, 1.8462522e+2, -1381195.0, -1330795.8, -30263.066, 0.029774314, -0.050280873, -1316614.3, -185947.48, 0.0, 9.998604, 9.9992695 
1.12500586e+3, 1.9462468e+2, -1114711.9, -1151544.5, -21331.102, -0.12203797, -0.03522715, -1104947.0, -72272.02, 0.0, 9.999761, 9.999269 
1.12500146e+3, 2.046242e+2, -961872.5, -974126.8, 26566.775, -0.1837021, -0.031278744, -940735.5, -6054.5684, 0.0, 9.999908, 9.999743 
1.1249988e+3, 2.1462381e+2, -1007101.5, -938632.06, 28472.111, -0.13682994, -0.05409919, -928339.5, -91655.15, 0.0, 9.998897, 9.999802 
1.1249951e+3, 2.2462359e+2, -946837.1, -864853.1, -36441.64, -0.10375897, -0.050606, -850996.8, -112310.39, 0.0, 9.998663, 9.999749 
1.1249901e+3, 2.3462366e+2, -746622.06, -712665.5, -33416.18, -0.089160934, -0.026306508, -692161.7, -51475.137, 0.0, 9.999345, 9.999791 
1.12498574e+3, 2.446233e+2, -617151.5, -639772.3, -2830.8555, -0.06893946, -0.022449683, -616802.6, -74112.79, 0.0, 9.999734, 9.999432 
1.12498194e+3, 2.5462246e+2, -511929.1, -535228.8, -23274.813, -0.04221377, -0.056620695, -497551.34, -52854.426, 0.0, 9.99977, 9.999458 
1.1249783e+3, 2.646216e+2, -465647.53, -534851.56, 3268.8335, -0.03598493, -0.057283223, -465493.47, -118788.22, 0.0, 9.99973, 9.998806 
1.1249747e+3, 2.7462074e+2, -383076.44, -442042.22, 25416.564, -0.052965716, -0.027321806, -373633.2, -124918.586, 0.0, 9.999615, 9.998826 
1.1249707e+3, 2.8461993e+2, -215778.67, -268445.0, -21152.445, -0.0535619, -0.0057015605, -208335.2, -57613.668, 0.0, 9.999906, 9.9992075 
1.1249661e+3, 2.9461917e+2, -4205.1016, -109077.85, -37360.56, -0.03629841, -0.011338408, 7743.187, 60469.336, 0.0, 10.000657, 9.999266 
1.12496205e+3, 3.046171e+2, 3047.9043, -140180.17, 52408.563, -0.07066926, -0.119590536, 20176.348, 20176.348, 0.0, 10.000631, 9.998731 
1.12495884e+3, 3.1461644e+2, -110807.83, -161836.48, 58906.035, -0.15877007, -0.05911405, -72127.91, -72127.91, 0.0, 9.999702, 9.999029 
1.135037e+3, 1.2463056e+2, -1803611.5, -1713360.0, -21733.223, 0.12657024, 0.057126634, -1708399.1, 10222.428, 0.0011953667, 9.999214, 10.0003805 
1.1350293e+3, 1.3463122e+2, -1695648.6, -1617557.4, -15701.886, -0.1600332, 0.08539559, -1614518.5, 6096.277, 0.00059164723, 9.999286, 10.000347 
1.1350277e+3, 1.4463063e+2, -1624397.8, -1604633.6, 10352.855, 0.11648717, 0.024378743, -1600203.5, -77584.35, 0.00017336896, 9.999428, 9.999683 
1.1350229e+3, 1.5462922e+2, -1514548.8, -1503979.5, -3749.2488, 0.054843366, -0.085505225, -1502784.6, -78153.81, 0.000015247707, 9.999523, 9.999656 
1.1350178e+3, 1.6462891e+2, -1455824.9, -1418296.4, -12368.045, -0.009854074, -0.08315122, -1414587.0, -87953.42, 0.000000009421829, 9.999222, 9.999717 
1.1350134e+3, 1.7462985e+2, -1462714.3, -1364759.9, -27579.8, -0.025432153, 0.032526426, -1357528.5, -128902.06, 0.0, 9.998477, 9.99977 
1.1350093e+3, 1.8463002e+2, -1363532.6, -1293880.1, 8672.902, -0.06079105, 0.08561501, -1292816.5, -162190.03, 0.0, 9.998603, 9.999523 
1.1350055e+3, 1.946293e+2, -1095797.4, -1110649.1, 21932.12, -0.13632278, 0.056337107, -1080068.1, -47433.473, 0.0, 9.999754, 9.999553 
1.13500156e+3, 2.0462848e+2, -960371.2, -969435.1, -10486.807, -0.15576264, 0.007988357, -953478.94, -18836.547, 0.0, 9.9999, 9.999781 
1.13499805e+3, 2.146275e+2, -1005980.2, -935666.4, -9680.82, -0.10172789, -0.074104466, -934357.9, -97708.016, 0.0, 9.998893, 9.999825 
1.1349939e+3, 2.2462754e+2, -934017.06, -837529.0, -15089.973, -0.09035918, -0.057616387, -835224.1, -96574.94, 0.0, 9.998659, 9.999939 
1.1349891e+3, 2.3462874e+2, -733717.25, -684951.75, -7338.3306, -0.1306916, 0.060845945, -683871.4, -43232.363, 0.0, 9.99934, 9.999985 
1.1349851e+3, 2.4462853e+2, -655847.2, -718154.0, -1327.5592, -0.11169415, 0.097680226, -655818.94, -113177.516, 0.0, 9.999726, 9.998897 
1.13498196e+3, 2.5462675e+2, -552718.8, -617251.1, -20721.602, -0.021081466, 0.026693098, -546638.0, -101979.734, 0.0, 9.99976, 9.9989 
1.13497816e+3, 2.646251e+2, -426806.6, -452116.28, -976.7792, -0.023803607, -0.051063657, -426768.94, -80096.055, 0.0, 9.99972, 9.999381 
1.13497354e+3, 2.7462363e+2, -339279.34, -352388.97, 23408.594, -0.13646506, -0.14643842, -321525.16, -72840.48, 0.0, 9.999618, 9.999441 
1.1349696e+3, 2.846231e+2, -238181.69, -315029.28, 5959.8584, -0.14942013, -0.11663057, -237722.22, -87033.15, 0.0, 9.999906, 9.998887 
1.1349667e+3, 2.946236e+2, -31002.152, -161530.42, -7024.8203, -0.042378847, 0.044412043, -30625.178, 22059.865, 0.0, 10.000644, 9.998912 
1.13496326e+3, 3.046218e+2, 16839.824, -107968.43, 19537.805, -0.009957218, -0.031700682, 19826.836, 19826.836, 0.0, 10.000614, 9.998961 
1.13495946e+3, 3.1462055e+2, -83619.76, -105622.17, 28864.852, -0.06530437, -0.05655229, -63730.734, -63730.734, 0.0, 9.999701, 9.999417 
1.1450359e+3, 1.2463411e+2, -1968178.1, -1760077.1, -36968.16, 0.16597791, 0.057756834, -1753705.0, -35116.508, 0.0013373722, 9.997946, 10.000673 
1.14502855e+3, 1.3463524e+2, -1768899.6, -1622378.6, -25136.385, -0.12963198, 0.10773132, -1618186.4, 2390.5347, 0.000672049, 9.99865, 10.000624 
1.14502735e+3, 1.4463489e+2, -1664425.9, -1613261.3, -14311.682, 0.14972833, 0.05007134, -1609530.1, -86951.195, 0.0002032588, 9.999105, 9.999782 
1.1450222e+3, 1.546336e+2, -1570623.5, -1521079.8, -14349.651, 0.06690238, -0.057703514, -1517223.6, -92634.266, 0.000019742625, 9.999095, 9.999745 
1.14501685e+3, 1.6463317e+2, -1455477.3, -1447750.9, -8467.439, -0.028958874, -0.05933397, -1442307.0, -115713.24, 0.000000013934886, 9.999352, 9.999451 
1.1450119e+3, 1.7463373e+2, -1267204.0, -1301996.1, -13196.329, -0.088600956, 0.046015866, -1262765.0, -34173.797, 0.0, 9.999954, 9.999489 
1.14500806e+3, 1.846338e+2, -1184570.5, -1194407.9, 30391.666, -0.09839356, 0.09972637, -1158702.0, -28109.652, 0.0, 9.999775, 9.99964 
1.1450054e+3, 1.9463336e+2, -1238541.8, -1164556.3, 30879.252, -0.06906784, 0.08362939, -1153361.9, -120764.305, 0.0, 9.99871, 9.999686 
1.1450017e+3, 2.0463271e+2, -1166692.1, -1059860.1, -12146.548, -0.065265715, 0.04352678, -1058496.5, -123893.266, 0.0, 9.9984455, 9.99986 
1.1449972e+3, 2.1463187e+2, -968625.75, -908376.25, -10044.869, -0.084737055, -0.035246097, -906745.7, -70136.28, 0.0, 9.999111, 9.999907 
1.1449928e+3, 2.246318e+2, -838108.1, -823461.94, -11099.103, -0.105809145, -0.018016137, -817487.75, -78877.95, 0.0, 9.999459, 9.999649 
1.1449885e+3, 2.3463266e+2, -740851.44, -722328.8, -41460.9, -0.1327044, 0.09745245, -689107.44, -48503.684, 0.0, 9.999438, 9.99968 
1.1449847e+3, 2.446323e+2, -692250.2, -726598.2, -41814.56, -0.107281275, 0.1289148, -664220.2, -121612.35, 0.0, 9.999437, 9.998979 
1.1449815e+3, 2.5463054e+2, -589356.2, -623991.0, -15462.363, -0.018991388, 0.05103156, -583457.7, -138834.2, 0.0, 9.999462, 9.998997 
1.1449778e+3, 2.64629e+2, -436697.16, -433943.25, 17314.49, -0.021919852, -0.030203655, -417951.06, -71314.836, 0.0, 9.999554, 9.999586 
1.1449733e+3, 2.7462772e+2, -309909.16, -314500.6, 9536.948, -0.13366418, -0.12590943, -302395.5, -53750.09, 0.0, 9.99972, 9.999652 
1.1449695e+3, 2.8462726e+2, -261099.69, -357253.6, -5766.3506, -0.15004997, -0.08625798, -260755.13, -110105.336, 0.0, 9.999886, 9.998605 
1.1449669e+3, 2.946277e+2, -142801.39, -249982.0, -15982.336, -0.05026301, 0.09490528, -140468.92, -87820.03, 0.0, 10.000026, 9.998602 
1.14496365e+3, 3.0462563e+2, -30776.506, -111105.81, -16164.545, -0.01657466, 0.003204452, -27645.756, -27645.756, 0.0, 10.000202, 9.999138 
1.1449596e+3, 3.1462443e+2, 48074.98, -2627.3665, -19574.037, -0.055870846, -0.03938213, 54752.305, 54752.305, 0.0, 10.000439, 9.999767 
1.1550341e+3, 1.246369e+2, -1969686.9, -1761660.5, -46046.56, 0.18197306, -0.018120889, -1751923.9, -33364.96, 0.001489488, 9.99794, 10.000664 
1.155028e+3, 1.3463785e+2, -1771724.0, -1628079.5, 5085.8335, -0.049812242, 0.017017387, -1627899.6, -7348.782, 0.00075867696, 9.99865, 10.000584 
1.1550271e+3, 1.4463805e+2, -1640814.8, -1566462.0, -13216.024, 0.21353707, 0.0015862933, -1564182.8, -41633.844, 0.0002361324, 9.999113, 10.0001 
1.155021e+3, 1.5463828e+2, -1545986.5, -1471172.0, -14423.687, 0.030287918, 0.012902012, -1468487.6, -43942.656, 0.000024990082, 9.999098, 10.000088 
1.1550155e+3, 1.6463795e+2, -1462577.4, -1461729.1, 11589.985, -0.107382804, 0.008484037, -1450555.5, -124007.59, 0.000000023716384, 9.999351, 9.999356 
1.15501136e+3, 1.7463703e+2, -1276181.9, -1319655.6, 9741.48, -0.14824702, -0.02199095, -1274098.8, -45540.258, 0.0, 9.99995, 9.99937 
1.1550079e+3, 1.8463667e+2, -1186385.4, -1197898.0, -9106.882, -0.089448236, -0.007259095, -1181368.1, -50804.19, 0.0, 9.999773, 9.999619 
1.1550055e+3, 1.946369e+2, -1239908.8, -1167692.3, -9310.422, 0.07363797, 0.04679983, -1166511.3, -133947.78, 0.0, 9.99871, 9.999665 
1.1550016e+3, 2.0463698e+2, -1159350.3, -1043784.56, 8444.724, 0.07984164, 0.07509305, -1043170.75, -108607.77, 0.0, 9.998442, 9.999972 
1.1549962e+3, 2.146369e+2, -961177.44, -891275.75, 14618.154, -0.089711115, 0.062318206, -888341.9, -51779.33, 0.0, 9.999104, 10.000028 
1.1549918e+3, 2.2463644e+2, -893147.75, -934905.8, -12770.661, -0.15442534, 0.06793125, -889551.9, -150983.84, 0.0, 9.999447, 9.99889 
1.15498826e+3, 2.3463549e+2, -797304.44, -838577.75, -41677.785, -0.099607214, 0.08313132, -771434.0, -130853.59, 0.0, 9.999434, 9.998885 
1.1549846e+3, 2.4463463e+2, -644906.94, -626533.2, -41802.92, -0.06179749, 0.07175106, -592919.56, -50330.977, 0.0, 9.999429, 9.999669 
1.1549808e+3, 2.5463384e+2, -537484.56, -515996.0, -13381.938, -0.042216063, 0.016555585, -509578.84, -64986.707, 0.0, 9.999459, 9.999741 
1.15497716e+3, 2.6463327e+2, -450412.13, -460853.16, 22850.713, -0.036681034, 0.0045117335, -432193.2, -85598.16, 0.0, 9.999547, 9.999404 
1.1549739e+3, 2.7463302e+2, -326529.72, -345875.44, 16947.43, -0.048746932, 0.03386774, -316689.0, -68092.22, 0.0, 9.999707, 9.999441 
1.1549703e+3, 2.8463247e+2, -277618.97, -388559.38, -79.4371, -0.059881225, 0.08579115, -277618.9, -127015.48, 0.0, 9.99987, 9.998399 
1.15496665e+3, 2.9463148e+2, -157431.25, -281047.97, -7150.013, -0.06984402, 0.14283606, -157019.06, -104402.25, 0.0, 10.000026, 9.998389 
1.154963e+3, 3.0462867e+2, -29346.584, -107523.96, -7302.4907, -0.09984929, -0.013906075, -28670.313, -28670.313, 0.0, 10.0002, 9.999164 
1.1549592e+3, 3.14628e+2, 62157.453, 29039.83, -7678.9795, -0.14212887, -0.006206088, 63851.336, 63851.336, 0.0, 10.000429, 9.9999895 
1.165032e+3, 1.2464016e+2, -1894917.4, -1721847.6, -37155.363, 0.15626194, -0.074733816, -1714208.3, 4316.869, 0.0016512593, 9.998437, 10.000696 
1.1650266e+3, 1.346414e+2, -1778384.0, -1632070.8, 48677.797, -0.05220494, -0.011057603, -1617355.8, 3159.9136, 0.0008513687, 9.998607, 10.000577 
1.1650261e+3, 1.4464183e+2, -1655764.4, -1571167.1, 16281.195, 0.20488232, -0.00267686, -1568142.0, -45629.75, 0.00027198074, 9.999001, 10.000122 
1.16502024e+3, 1.5464234e+2, -1488274.8, -1440516.3, -13981.631, 0.03154863, 0.036016233, -1436724.1, -12218.343, 0.00003101119, 9.999482, 10.000113 
1.1650151e+3, 1.646421e+2, -1436924.4, -1448653.1, -627.9655, -0.08405095, 0.03585634, -1436890.9, -110382.36, 0.00000004774233, 9.999522, 9.999364 
1.1650114e+3, 1.7464095e+2, -1401506.8, -1379143.3, 5001.2593, -0.09173728, -0.017692495, -1378075.8, -149554.58, 0.0, 9.999086, 9.999377 
1.1650078e+3, 1.8464042e+2, -1302937.4, -1258526.3, -24040.137, -0.041644335, -0.016328955, -1248005.5, -117477.54, 0.0, 9.99899, 9.99958 
1.1650044e+3, 1.946406e+2, -1156509.1, -1131324.9, -27638.291, 0.062324338, 0.036163896, -1113545.4, -81017.28, 0.0, 9.999299, 9.999631 
1.1650003e+3, 2.0464082e+2, -1038568.94, -1007259.2, 2158.0645, 0.046060987, 0.08793174, -1007111.1, -72584.16, 0.0, 9.999368, 9.999776 
1.1649952e+3, 2.1464105e+2, -966510.5, -916934.4, -16664.3, -0.10445756, 0.12641415, -911853.6, -75329.02, 0.0, 9.9991665, 9.999821 
1.1649911e+3, 2.2464044e+2, -939974.94, -952233.6, -32766.6, -0.14609891, 0.1278851, -912769.3, -174238.06, 0.0, 9.999103, 9.998936 
1.1649879e+3, 2.346389e+2, -827839.7, -846693.75, -970.7039, -0.0635722, 0.076988354, -827789.9, -187241.6, 0.0, 9.999198, 9.998941 
1.1649844e+3, 2.4463786e+2, -651288.2, -626407.4, 12655.735, -0.027501483, 0.04430485, -621101.44, -78543.95, 0.0, 9.9993725, 9.999698 
1.1649804e+3, 2.5463742e+2, -510171.4, -499574.94, -13974.583, -0.04625798, 0.018839682, -489927.94, -45369.91, 0.0, 9.999634, 9.999769 
1.16497666e+3, 2.6463705e+2, -464458.7, -492326.44, -16826.207, -0.045434967, 0.03531083, -456545.97, -109986.28, 0.0, 9.999558, 9.999181 
1.1649735e+3, 2.7463683e+2, -436118.28, -426030.03, -26940.729, -0.020209456, 0.092061356, -403665.3, -155102.94, 0.0, 9.999071, 9.999199 
1.16497025e+3, 2.8463614e+2, -376721.72, -405495.16, -7740.3984, -0.022756789, 0.13012363, -374771.63, -224201.55, 0.0, 9.999057, 9.998674 
1.1649667e+3, 2.946348e+2, -196823.19, -266970.84, 19709.146, -0.059920203, 0.123756595, -191664.89, -139080.03, 0.0, 9.999616, 9.998683 
1.1649632e+3, 3.0463195e+2, -49905.957, -133746.0, 33998.46, -0.10614803, -0.044160336, -37852.063, -37852.063, 0.0, 10.000132, 9.999017 
1.16495974e+3, 3.1463182e+2, 76128.79, 37705.41, 18396.822, -0.14342885, 0.03155291, 83516.58, 83516.58, 0.0, 10.000516, 10.0000105 
1.17502965e+3, 1.2464398e+2, -1888849.5, -1711192.0, -67250.26, 0.07917292, -0.10939372, -1688606.5, 29879.762, 0.0018234614, 9.998443, 10.000769 
1.1750243e+3, 1.3464594e+2, -1776670.9, -1628850.9, 58440.21, -0.14194505, 0.023881594, -1608538.0, 11932.616, 0.0009506097, 9.998606, 10.000601 
1.1750241e+3, 1.4464633e+2, -1674987.0, -1611110.4, 34354.48, 0.11561401, 0.0392648, -1596141.5, -73673.445, 0.00031097958, 9.999, 9.999847 
1.17502004e+3, 1.5464589e+2, -1508598.4, -1483837.3, 4538.8, 0.064064436, 0.011136587, -1483031.5, -58560.09, 0.00003785508, 9.999487, 9.999813 
1.1750159e+3, 1.6464561e+2, -1428972.1, -1433546.4, -17678.139, 0.0330213, 0.020391798, -1413433.8, -86958.805, 0.00000010132158, 9.999527, 9.999466 
1.1750122e+3, 1.7464551e+2, -1392519.6, -1360923.1, -11396.673, 0.07483342, 0.05776139, -1357241.4, -128762.83, 0.0, 9.999086, 9.999504 
1.1750077e+3, 1.8464518e+2, -1306663.5, -1265388.6, -15416.736, 0.036972202, 0.07288, -1260266.0, -129782.195, 0.0, 9.998987, 9.999535 
1.1750019e+3, 1.9464457e+2, -1161224.1, -1139792.1, -16238.356, -0.10724205, 0.05290881, -1131052.6, -98561.78, 0.0, 9.999293, 9.999576 
1.1749975e+3, 2.046443e+2, -1074889.6, -1081225.6, -6394.7813, -0.17122908, 0.08221741, -1070921.1, -136426.48, 0.0, 9.99936, 9.999271 
1.1749941e+3, 2.1464434e+2, -1003778.25, -993476.06, -24162.34, -0.13511539, 0.15553205, -973921.8, -137426.73, 0.0, 9.999162, 9.999297 
1.1749908e+3, 2.2464392e+2, -882364.44, -831151.1, -31295.635, -0.088512026, 0.16147782, -816321.2, -77822.12, 0.0, 9.999095, 9.999771 
1.1749874e+3, 2.3464292e+2, -765652.3, -717120.8, 2813.9885, -0.029945597, 0.07750981, -716958.2, -76451.08, 0.0, 9.999194, 9.999833 
1.1749839e+3, 2.4464206e+2, -697188.7, -719228.06, 21189.73, -0.010112141, 0.045532122, -684324.56, -141810.27, 0.0, 9.999362, 9.999065 
1.1749801e+3, 2.546413e+2, -558809.7, -599601.25, -2841.8252, -0.035635907, 0.058278516, -558612.6, -114091.89, 0.0, 9.99963, 9.999084 
1.1749762e+3, 2.6464033e+2, -483261.72, -530455.9, -33954.438, -0.05288628, 0.061701577, -465509.97, -118980.1, 0.0, 9.999553, 9.998923 
1.1749721e+3, 2.7463916e+2, -453924.56, -462195.94, -43001.42, -0.06030662, 0.04702123, -414860.4, -166318.73, 0.0, 9.999065, 9.998954 
1.174969e+3, 2.846383e+2, -329380.75, -305206.8, 11601.041, -0.051425032, 0.043894462, -300540.3, -149990.84, 0.0, 9.999048, 9.999368 
1.1749667e+3, 2.9463762e+2, -146407.8, -160094.53, 42141.914, -0.024256429, 0.035134204, -110557.22, -58003.92, 0.0, 9.999606, 9.999422 
1.17496386e+3, 3.046355e+2, -67322.71, -168067.3, 50170.27, -0.03806258, -0.08933208, -46600.53, -46600.53, 0.0, 10.000121, 9.998787 
1.1749608e+3, 3.1463602e+2, 71781.78, 29072.754, 39491.535, -0.08013384, 0.07900354, 95322.664, 95322.664, 0.0, 10.000512, 9.999954 
1.18502736e+3, 1.24648064e+2, -2051111.6, -1814266.6, -105371.12, 0.052845184, -0.057964057, -1774174.3, -55727.453, 0.0020081834, 9.997439, 10.000544 
1.18502334e+3, 1.3464949e+2, -1744852.8, -1643109.5, 26619.604, -0.11769903, 0.050853074, -1636565.8, -16128.71, 0.0010574218, 9.998955, 10.000333 
1.1850234e+3, 1.446496e+2, -1578235.8, -1568388.3, -26743.879, 0.1022429, 0.05259194, -1546118.6, -23681.041, 0.00035351914, 9.999682, 9.999811 
1.1850193e+3, 1.5464905e+2, -1528534.0, -1496112.9, -41281.676, 0.046989657, 0.015899515, -1467973.0, -43530.984, 0.00004562391, 9.999362, 9.999787 
1.18501514e+3, 1.6464889e+2, -1482454.4, -1442420.4, -63691.93, 0.030357512, 0.032175902, -1395674.1, -69229.9, 0.00000019883093, 9.999088, 9.999616 
1.1850115e+3, 1.7464922e+2, -1410984.9, -1351249.3, -56950.758, 0.10263681, 0.096036956, -1316809.5, -88365.94, 0.0, 9.998882, 9.999667 
1.1850067e+3, 1.8464905e+2, -1310565.9, -1280621.6, -33544.832, 0.049951814, 0.12423966, -1258859.4, -128412.12, 0.0, 9.999019, 9.9994135 
1.1850008e+3, 1.9464827e+2, -1130707.4, -1139958.6, -40948.195, -0.16107632, 0.10018333, -1094124.4, -61668.293, 0.0, 9.999566, 9.999443 
1.1849964e+3, 2.0464763e+2, -1037346.44, -1054117.6, -41209.375, -0.2202523, 0.09719778, -1003678.1, -69215.33, 0.0, 9.999576, 9.999356 
1.1849935e+3, 2.1464716e+2, -1024141.8, -992277.2, -15429.254, -0.09942169, 0.10734565, -986030.7, -149563.83, 0.0, 9.998976, 9.999396 
1.1849903e+3, 2.246467e+2, -922165.3, -848560.9, -4116.186, -0.028998762, 0.10429879, -848331.4, -109860.875, 0.0, 9.998815, 9.999786 
1.1849867e+3, 2.3464626e+2, -769029.75, -717316.4, -37105.02, -0.019518789, 0.073485635, -697947.56, -57473.867, 0.0, 9.999165, 9.9998455 
1.18498325e+3, 2.4464564e+2, -688263.1, -736629.56, -32882.65, -0.018849008, 0.07577571, -671628.5, -129149.27, 0.0, 9.999516, 9.998872 
1.1849798e+3, 2.546448e+2, -541051.4, -614252.0, -23021.51, -0.02745256, 0.102543436, -534413.1, -89925.43, 0.0, 9.999851, 9.998878 
1.18497595e+3, 2.6464352e+2, -425646.13, -500685.75, -48043.387, -0.0469106, 0.085008465, -402207.72, -55707.67, 0.0, 9.99994, 9.998941 
1.1849713e+3, 2.7464175e+2, -351094.6, -409058.03, -40206.18, -0.08130919, 0.0067869113, -330513.47, -81996.67, 0.0, 9.999759, 9.998984 
1.18496805e+3, 2.8464088e+2, -228028.53, -230129.2, 31559.283, -0.07270666, -0.010216182, -197502.11, -46978.5, 0.0, 9.999633, 9.9996 
1.18496634e+3, 2.946409e+2, -139304.22, -130699.04, 25353.586, -0.011480391, 0.025434097, -109285.555, -56765.84, 0.0, 9.999542, 9.999655 
1.18496396e+3, 3.046391e+2, -182347.22, -233690.63, 14228.398, -0.0025237114, -0.07188555, -178667.89, -178667.89, 0.0, 9.999375, 9.998694 
1.1849612e+3, 3.146394e+2, -117734.1, -48988.363, 7917.6597, -0.030722955, 0.0859495, -48088.25, -48088.25, 0.0, 9.999154, 10.00007 
1.1950249e+3, 1.24652535e+2, -2087570.8, -1892471.9, -77833.53, 0.055537455, 0.08449756, -1865225.6, -146820.39, 0.0022081332, 9.997446, 10.000007 
1.1950236e+3, 1.3465215e+2, -1784519.3, -1726750.9, 86677.24, 0.01482171, 0.06866496, -1664271.9, -43857.766, 0.0011730703, 9.998959, 9.999758 
1.19502366e+3, 1.446517e+2, -1563564.3, -1539022.4, -36336.875, 0.15789339, 0.03547255, -1512940.4, 9479.928, 0.00040013902, 9.999685, 10.000011 
1.1950179e+3, 1.546519e+2, -1511455.6, -1461070.9, -53049.29, -0.024112688, 0.050565016, -1427536.1, -3119.1714, 0.00005450229, 9.999363, 10.000029 
1.1950129e+3, 1.6465205e+2, -1468610.9, -1413760.0, -73066.31, -0.09809485, 0.07366019, -1363141.6, -36726.293, 0.00000035173326, 9.999088, 9.999812 
1.1950091e+3, 1.7465216e+2, -1397453.3, -1323568.0, -64563.16, -0.012672031, 0.09756396, -1286125.4, -57710.277, 0.0, 9.998883, 9.999857 
1.19500525e+3, 1.8465209e+2, -1324505.0, -1309777.5, -15529.744, -0.008594512, 0.13532044, -1299954.1, -169536.36, 0.0, 9.99902, 9.999213 
1.195001e+3, 1.9465175e+2, -1146367.6, -1171506.5, -20493.535, -0.10537523, 0.17662768, -1134896.0, -102472.445, 0.0, 9.99956, 9.999229 
1.19499706e+3, 2.0465092e+2, -991361.7, -957137.7, -64311.035, -0.10904406, 0.13379766, -907701.0, 26729.713, 0.0, 9.999569, 10.000025 
1.19499356e+3, 2.1464953e+2, -975615.3, -890378.94, -38343.01, -0.0014279732, -0.018780403, -875669.1, -39229.703, 0.0, 9.99897, 10.000098 
1.19498976e+3, 2.2464882e+2, -979591.6, -966485.0, 6183.197, 0.026872622, -0.043678932, -964028.44, -225583.27, 0.0, 9.998809, 9.9989805 
1.1949857e+3, 2.3464891e+2, -829329.1, -842938.94, -23426.217, -0.036438473, 0.06455704, -811739.44, -171291.98, 0.0, 9.999165, 9.998984 
1.1949823e+3, 2.4464865e+2, -672931.44, -703397.5, -21048.719, -0.058678273, 0.135161, -662181.94, -119730.08, 0.0, 9.99951, 9.999103 
1.1949798e+3, 2.5464797e+2, -522987.88, -575032.2, -9275.11, -0.030666932, 0.1503051, -521384.3, -76925.77, 0.0, 9.999843, 9.99915 
1.19497605e+3, 2.6464668e+2, -408059.34, -462552.5, -54649.477, -0.036129903, 0.103067294, -374240.88, -27770.713, 0.0, 9.999931, 9.999208 
1.19497105e+3, 2.7464464e+2, -331986.53, -369189.34, -45827.777, -0.08480247, -0.026952637, -301128.88, -52641.527, 0.0, 9.999757, 9.999259 
1.19496755e+3, 2.8464395e+2, -240214.6, -256424.25, 28342.703, -0.08888184, -0.030382115, -218840.66, -68348.54, 0.0, 9.999636, 9.999419 
1.19496554e+3, 2.9464468e+2, -155420.83, -162032.88, 24865.082, -0.03813866, 0.09358852, -133642.95, -81159.49, 0.0, 9.999532, 9.999445 
1.1949632e+3, 3.0464283e+2, -189571.56, -245652.6, 5966.773, -0.015710903, 0.0072276215, -188943.75, -188943.75, 0.0, 9.999362, 9.998619 
1.1949607e+3, 3.1464207e+2, -108873.26, -26366.64, 2947.8572, -0.00092815317, 0.0612751, -26261.451, -26261.451, 0.0, 9.999136, 10.000233 
1.20502256e+3, 1.24654576e+2, -1928444.3, -1787219.5, -158849.14, 0.038239744, 0.11178659, -1683995.3, 34392.98, 0.0024257244, 9.998423, 10.000255 
1.2050227e+3, 1.346541e+2, -1870826.1, -1742434.3, 80680.73, 0.06350844, 0.064668566, -1703525.9, -83130.34, 0.0012988481, 9.998258, 9.999988 
1.2050225e+3, 1.4465389e+2, -1736061.0, -1593965.9, -31651.55, 0.13912483, 0.029801771, -1587234.4, -64835.69, 0.00045139206, 9.998382, 10.000262 
1.20501675e+3, 1.5465453e+2, -1588252.8, -1469236.0, -52767.945, -0.050223317, 0.064046495, -1449210.1, -24818.361, 0.00006471426, 9.9987135, 10.000284 
1.20501176e+3, 1.6465479e+2, -1468344.5, -1408304.6, -72226.23, -0.13290708, 0.082572624, -1360108.1, -33719.207, 0.00000057087306, 9.999067, 9.99986 
1.2050078e+3, 1.7465462e+2, -1305493.1, -1275233.4, -76768.15, -0.067281716, 0.0741717, -1212118.4, 16271.943, 0.0, 9.9994955, 9.999893 
1.20500416e+3, 1.8465434e+2, -1276734.3, -1272312.5, -31360.314, -0.03128146, 0.08556657, -1243085.3, -112691.62, 0.0, 9.999284, 9.999343 
1.2050006e+3, 1.9465396e+2, -1315468.1, -1237024.3, -11949.147, -0.03631069, 0.108190924, -1235244.4, -202845.45, 0.0, 9.998334, 9.99937 
1.20499685e+3, 2.0465346e+2, -1186608.9, -1041692.7, -50777.52, -0.023197394, 0.085282706, -1025671.8, -91268.625, 0.0, 9.998191, 10.000107 
1.2049925e+3, 2.1465278e+2, -968188.75, -878018.5, -73405.984, 0.012761789, -0.0034408874, -836957.75, -551.4794, 0.0, 9.998982, 10.000176 
1.2049887e+3, 2.2465208e+2, -895465.8, -957215.2, -25063.773, 0.009042272, -0.016892137, -886573.2, -148160.86, 0.0, 9.99952, 9.998702 
1.2049851e+3, 2.3465143e+2, -762330.4, -842729.7, -13888.286, -0.04086046, 0.045079637, -759998.94, -119577.414, 0.0, 9.999764, 9.998696 
1.204982e+3, 2.4465083e+2, -659991.25, -693455.3, -12409.71, -0.04699458, 0.09647382, -655891.56, -113462.45, 0.0, 9.999583, 9.999135 
1.20497935e+3, 2.5465032e+2, -655078.7, -633126.56, -20777.432, -0.0023884969, 0.121888444, -620604.2, -176169.28, 0.0, 9.998913, 9.999199 
1.20497584e+3, 2.646493e+2, -561083.9, -528259.5, -66335.65, 0.0076161535, 0.097776525, -476335.9, -129891.81, 0.0, 9.998849, 9.999277 
1.2049713e+3, 2.746477e+2, -367824.34, -379529.88, -73365.04, -0.023484843, 0.0052833296, -300079.0, -51621.813, 0.0, 9.99948, 9.999322 
1.20496765e+3, 2.8464702e+2, -249910.6, -298486.22, -25920.213, -0.04448705, 0.014813623, -238677.2, -88214.42, 0.0, 9.999731, 9.999084 
1.204965e+3, 2.9464722e+2, -175576.48, -211212.61, -46031.66, -0.053368594, 0.12309354, -144034.67, -91573.99, 0.0, 9.999565, 9.99909 
1.2049624e+3, 3.0464515e+2, -134693.75, -210114.22, -53399.957, -0.055377975, 0.027189936, -107031.08, -107031.08, 0.0, 9.9997015, 9.998698 
1.2049602e+3, 3.1464392e+2, 57303.863, 85814.984, -43419.52, -0.012964525, 0.028693423, 117259.266, 117259.266, 0.0, 10.000138, 10.000521 
1.2150205e+3, 1.2465434e+2, -1858298.0, -1644267.6, -174544.05, -0.016895114, 0.027396811, -1546544.3, 171850.05, 0.0026624324, 9.998428, 10.001237 
1.2150205e+3, 1.3465546e+2, -1798924.9, -1594979.8, 76412.46, 0.023605252, 0.038484197, -1569526.8, 50853.824, 0.0014356553, 9.998261, 10.0009985 
1.2150199e+3, 1.4465623e+2, -1715419.1, -1552070.0, -19523.068, 0.037414286, 0.03645463, -1549769.1, -27397.016, 0.0005075534, 9.998384, 10.000548 
1.21501565e+3, 1.5465698e+2, -1569903.4, -1431045.8, -39819.723, -0.036714263, 0.055403896, -1420437.3, 3928.6716, 0.000076397075, 9.998713, 10.000547 
1.21501125e+3, 1.6465713e+2, -1476220.1, -1424730.1, -58472.633, -0.08120442, 0.05649442, -1386585.8, -60221.273, 0.0000008702971, 9.999066, 9.999747 
1.2150073e+3, 1.7465663e+2, -1314616.5, -1294282.6, -60580.785, -0.06680233, 0.02656351, -1243021.6, -14653.122, 0.0, 9.999495, 9.9997635 
1.2150035e+3, 1.8465593e+2, -1244361.1, -1204449.9, -67023.13, -0.025463436, -0.021626592, -1154474.6, -24100.566, 0.0, 9.999281, 9.99981 
1.2149998e+3, 1.9465499e+2, -1281507.8, -1166318.1, -47980.25, 0.041596238, -0.1045958, -1148951.1, -116569.43, 0.0, 9.998333, 9.999855 
1.21499546e+3, 2.0465526e+2, -1221721.3, -1115413.3, -25014.152, 0.031427436, -0.049103346, -1109821.6, -175441.73, 0.0, 9.998193, 9.9996 
1.21499084e+3, 2.1465693e+2, -1006793.8, -957580.8, -43354.93, -0.06287228, 0.153624, -932336.2, -95969.32, 0.0, 9.998979, 9.999633 
1.21498734e+3, 2.2465655e+2, -880043.75, -923640.7, -16788.117, -0.08946475, 0.18661104, -874328.3, -135956.98, 0.0, 9.999513, 9.998936 
1.21498495e+3, 2.3465382e+2, -744242.06, -804504.9, -4318.4204, -0.038441245, 0.01280723, -743934.2, -103538.65, 0.0, 9.999761, 9.9989605 
1.2149822e+3, 2.446522e+2, -672610.3, -718481.3, -37667.766, 0.0100787515, -0.043399528, -651444.8, -109033.96, 0.0, 9.999577, 9.998967 
1.2149789e+3, 2.5465184e+2, -667942.25, -659731.9, -44939.813, 0.053973675, 0.017973427, -618710.1, -174293.73, 0.0, 9.998911, 9.999018 
1.2149755e+3, 2.6465142e+2, -570835.0, -548289.94, -44310.13, 0.081491396, 0.06988268, -513840.97, -167419.44, 0.0, 9.998847, 9.999141 
1.2149719e+3, 2.7465096e+2, -379028.22, -399365.53, -47549.793, 0.091003865, 0.10231206, -340571.94, -92146.016, 0.0, 9.999465, 9.999192 
1.2149684e+3, 2.8465006e+2, -290223.63, -380127.03, -31190.424, 0.047466714, 0.124653816, -280462.47, -130027.11, 0.0, 9.99972, 9.99853 
1.2149645e+3, 2.9464856e+2, -215658.56, -293768.38, -50947.348, -0.05870526, 0.11688792, -190519.1, -138067.72, 0.0, 9.999561, 9.998526 
1.2149614e+3, 3.0464602e+2, -113728.84, -167356.52, -37012.668, -0.121501915, -0.0087588895, -94837.984, -94837.984, 0.0, 9.999703, 9.998992 
1.2149596e+3, 3.1464514e+2, 89848.19, 157673.73, -20946.514, -0.09053543, -0.0083805835, 163621.13, 163621.13, 0.0, 10.000121, 10.001023 
1.22501865e+3, 1.24655865e+2, -1822218.3, -1599404.3, -77209.02, -0.044949163, -0.0040250192, -1575265.1, 143114.64, 0.0029179724, 9.998556, 10.001483 
1.22501895e+3, 1.3465725e+2, -1726070.9, -1528561.9, 115560.51, 0.01666449, 0.0067664487, -1475307.6, 145053.58, 0.0015834377, 9.99863, 10.001277 
1.2250177e+3, 1.4465825e+2, -1704254.0, -1568980.9, -21181.486, -0.03066968, 0.02266066, -1565741.8, -43391.52, 0.00056846405, 9.99856, 10.000346 
1.22501425e+3, 1.5465897e+2, -1641909.6, -1489979.0, -81122.49, -0.017601449, 0.059408776, -1454806.6, -30460.13, 0.00008951281, 9.998323, 10.000329 
1.2250105e+3, 1.6465914e+2, -1574078.1, -1443099.3, -93938.37, -0.02510043, 0.061372656, -1394075.5, -67729.94, 0.0000012652538, 9.998271, 10.000005 
1.2250066e+3, 1.7465875e+2, -1451937.4, -1328667.5, -67123.57, -0.03815477, 0.015020586, -1299173.8, -70826.484, 0.0, 9.998417, 10.000046 
1.22500256e+3, 1.8465818e+2, -1303872.1, -1209947.0, -81894.695, -0.016775168, -0.043223143, -1162505.0, -32154.879, 0.0, 9.998775, 10.000016 
1.2249985e+3, 1.946574e+2, -1110885.4, -1061514.9, -86533.41, 0.03730196, -0.130986, -996214.6, 36140.105, 0.0, 9.999405, 10.000058 
1.22499436e+3, 2.0465754e+2, -1046369.3, -1100744.9, -59057.617, 0.01952436, -0.06833216, -1008541.9, -74187.1, 0.0, 9.999697, 9.998977 
1.22499e+3, 2.1465881e+2, -961102.4, -1007437.94, -86733.67, -0.076562725, 0.15724288, -894495.56, -58146.293, 0.0, 9.999604, 9.998989 
1.2249867e+3, 2.2465834e+2, -852779.1, -858857.94, -65157.664, -0.0913745, 0.19241995, -790590.0, -52234.96, 0.0, 9.99948, 9.999395 
1.22498475e+3, 2.3465587e+2, -773733.94, -762901.1, -38028.504, -0.014097874, -0.0025703053, -729905.2, -89531.484, 0.0, 9.999319, 9.999459 
1.2249819e+3, 2.4465431e+2, -692128.44, -734511.9, -61504.996, 0.030807111, -0.07702396, -648266.7, -105879.28, 0.0, 9.999472, 9.998908 
1.2249781e+3, 2.5465375e+2, -515865.7, -595268.7, -63348.47, 0.0375205, -0.02911916, -480806.0, -36410.34, 0.0, 9.999993, 9.998939 
1.2249748e+3, 2.6465338e+2, -389360.53, -475994.28, -48509.332, 0.05665678, 0.03684182, -367642.75, -21241.451, 0.0, 10.000159, 9.999004 
1.2249717e+3, 2.746532e+2, -325730.44, -389212.3, -55782.55, 0.08967764, 0.11347262, -293290.53, -44886.78, 0.0, 9.9999, 9.999052 
1.2249681e+3, 2.8465223e+2, -303062.94, -384215.44, -31767.297, 0.062298782, 0.13456295, -292106.75, -141692.48, 0.0, 9.999625, 9.998546 
1.22496426e+3, 2.946502e+2, -246715.1, -307142.72, -8486.945, -0.035194766, 0.07486193, -245545.75, -193111.1, 0.0, 9.99934, 9.998539 
1.22496106e+3, 3.0464792e+2, -198477.67, -218872.89, 30505.635, -0.09835447, -0.022300713, -176510.31, -176510.31, 0.0, 9.999167, 9.998896 
1.22495934e+3, 3.146473e+2, -55467.285, 89785.33, 8776.403, -0.071239784, 0.011197883, 90313.69, 90313.69, 0.0, 9.99911, 10.001045 
1.2350171e+3, 1.246593e+2, -1856326.8, -1670535.0, -68862.26, -0.064237505, 0.02332898, -1647795.0, 70548.38, 0.0031899144, 9.998558, 10.000993 
1.23501785e+3, 1.3465956e+2, -1758784.4, -1595218.5, 119291.74, 0.038890127, -0.030609736, -1532367.5, 87968.98, 0.0017411282, 9.998625, 10.000821 
1.23501584e+3, 1.4466003e+2, -1753136.9, -1670960.0, -31345.754, -0.07316636, -0.012740784, -1660368.5, -138036.1, 0.0006337289, 9.99856, 9.999648 
1.2350128e+3, 1.5466055e+2, -1690210.9, -1593098.5, -89709.19, 0.0009692162, 0.075976886, -1539647.6, -115314.71, 0.00010392506, 9.998333, 9.999619 
1.2350093e+3, 1.6466087e+2, -1529135.6, -1350011.6, -90238.91, 0.028247673, 0.097843714, -1312434.3, 13896.973, 0.0000017603737, 9.998272, 10.000643 
1.2350055e+3, 1.7466104e+2, -1404135.0, -1229458.1, -61467.008, 0.013783857, 0.03929229, -1209996.8, 18329.51, 0.0, 9.998417, 10.000728 
1.23500146e+3, 1.8466118e+2, -1307751.0, -1218441.3, -61025.113, -0.011825008, 0.018856887, -1187477.8, -57156.207, 0.0, 9.9987755, 9.999958 
1.2349971e+3, 1.9466129e+2, -1117894.5, -1074489.3, -63028.21, -0.05353141, 0.029600888, -1029531.9, 2785.578, 0.0, 9.999398, 9.999973 
1.2349933e+3, 2.046604e+2, -1099509.3, -1209926.1, -63446.094, -0.06305718, 0.030110877, -1070614.3, -136286.94, 0.0, 9.999691, 9.998231 
1.23499e+3, 2.1465841e+2, -1015570.0, -1119508.1, -90409.93, -0.032643933, 0.0059777913, -963257.06, -126903.83, 0.0, 9.9995985, 9.998222 
1.2349871e+3, 2.2465748e+2, -804510.6, -758697.06, -72826.97, -0.0023496062, -0.00018479089, -705259.3, 33103.996, 0.0, 9.999478, 10.000085 
1.2349845e+3, 2.3465769e+2, -722196.6, -656114.25, -43412.363, 0.027377564, -0.0001506108, -634599.5, 5756.002, 0.0, 9.999318, 10.000194 
1.2349812e+3, 2.4465723e+2, -690295.1, -730301.5, -43706.984, 0.010476376, -0.0025852425, -662231.44, -119873.27, 0.0, 9.999469, 9.998939 
1.2349772e+3, 2.5465605e+2, -515995.7, -593941.1, -42289.28, -0.059545897, -0.019934148, -497459.66, -53087.117, 0.0, 9.999987, 9.998951 
1.2349735e+3, 2.646551e+2, -401369.7, -499487.84, -57330.004, -0.075708225, -0.0024130081, -374973.3, -28590.002, 0.0, 10.000151, 9.998848 
1.2349703e+3, 2.7465445e+2, -337185.53, -413610.8, -63896.035, -0.031994376, 0.04080903, -300947.44, -52556.99, 0.0, 9.999901, 9.998884 
1.2349672e+3, 2.846535e+2, -260913.23, -296655.63, -42595.258, -0.0047060545, 0.04521111, -232592.05, -82192.68, 0.0, 9.999624, 9.999147 
1.234964e+3, 2.946522e+2, -204806.98, -216178.72, -16444.31, 0.0054674284, -0.0066078794, -193093.3, -140682.88, 0.0, 9.999324, 9.999172 
1.2349613e+3, 3.0465084e+2, -238929.34, -299807.5, 29347.975, 0.0016402289, -0.015177777, -227085.55, -227085.55, 0.0, 9.999151, 9.998348 
1.2349596e+3, 3.1465048e+2, -93552.58, 12771.712, 12837.249, 0.03653574, 0.104235426, 14299.682, 14299.682, 0.0, 9.999099, 10.000521 
1.2450161e+3, 1.24662034e+2, -1871909.5, -1732506.5, -116785.88, -0.030907271, 0.07905015, -1666203.4, 52114.145, 0.003475539, 9.998687, 10.0005045 
1.245017e+3, 1.3466187e+2, -1763754.6, -1644418.5, 54001.55, 0.08659315, 0.024277518, -1623610.3, -3292.9453, 0.0019075654, 9.998793, 10.000401 
1.2450141e+3, 1.4466201e+2, -1706322.0, -1633525.3, -70725.42, -0.11335306, 0.024989398, -1590381.6, -68065.28, 0.0007030745, 9.998816, 9.999781 
1.2450111e+3, 1.5466215e+2, -1615683.4, -1538466.3, -66947.07, -0.024912056, 0.059634764, -1499792.6, -75474.67, 0.00011956255, 9.998767, 9.999783 
1.2450077e+3, 1.6466245e+2, -1454290.3, -1318146.8, -45862.44, 0.015320587, 0.07244774, -1304138.5, 22177.135, 0.0000023468863, 9.998805, 10.000604 
1.245004e+3, 1.7466298e+2, -1328761.0, -1198594.3, -73389.49, 0.00057224446, 0.055319242, -1165586.5, 62721.84, 0.0, 9.998959, 10.000677 
1.2450002e+3, 1.8466339e+2, -1275787.8, -1214241.6, -95485.33, -0.025425395, 0.06936275, -1144693.0, -14391.052, 0.0, 9.999043, 9.999857 
1.2449962e+3, 1.9466364e+2, -1177619.3, -1114474.1, -100086.055, -0.06439542, 0.10588004, -1041098.9, -8801.976, 0.0, 9.999037, 9.999872 
1.2449928e+3, 2.0466241e+2, -1167165.9, -1212485.3, -72224.164, -0.05064146, 0.06271234, -1114130.1, -179821.19, 0.0, 9.999099, 9.998497 
1.24499e+3, 2.1465947e+2, -1045069.75, -1102689.8, -23244.213, 0.023083063, -0.084823504, -1036862.06, -200521.39, 0.0, 9.999262, 9.998499 
1.244987e+3, 2.2465853e+2, -822970.75, -773817.4, 6080.2134, 0.05103497, -0.10062299, -773076.44, -34726.25, 0.0, 9.999377, 10.00003 
1.2449839e+3, 2.3465991e+2, -706556.0, -654746.5, -27052.41, 0.026669402, 0.020199016, -643196.1, -2861.6765, 0.0, 9.999453, 10.000137 
1.2449805e+3, 2.4466e+2, -680727.1, -713299.6, -43669.95, -0.0096283415, 0.07067653, -650405.4, -108072.414, 0.0, 9.999483, 9.999047 
1.2449768e+3, 2.546587e+2, -586887.44, -615429.2, -36610.77, -0.059772585, 0.029340154, -561864.5, -117516.9, 0.0, 9.999446, 9.9990635 
1.2449734e+3, 2.6465744e+2, -502856.56, -545394.1, -52204.05, -0.06819568, 0.008532459, -467754.94, -121394.29, 0.0, 9.999441, 9.998874 
1.24497e+3, 2.7465624e+2, -394786.78, -438752.4, -46204.418, -0.030195365, -0.0048205173, -365602.28, -117229.83, 0.0, 9.999494, 9.998907 
1.2449667e+3, 2.846553e+2, -251353.19, -280837.9, -32375.982, -0.007245894, -0.004204055, -230521.1, -80140.086, 0.0, 9.999642, 9.999247 
1.2449635e+3, 2.946547e+2, -119073.69, -163363.1, -50610.305, -0.00052032433, 0.0033952815, -85975.375, -33589.746, 0.0, 9.999865, 9.999273 
1.2449606e+3, 3.0465382e+2, -191400.03, -283566.22, -22846.469, -0.0027834882, 0.038180187, -186047.61, -186047.61, 0.0, 9.999509, 9.998285 
1.2449585e+3, 3.1465256e+2, -182533.95, -35689.47, -743.9823, 0.0482318, 0.07677081, -35685.7, -35685.7, 0.0, 9.998517, 10.000465 
1.2550154e+3, 1.2466418e+2, -1905312.9, -1804840.5, -91985.984, 0.04017407, 0.16338004, -1750266.9, -31965.486, 0.0037739007, 9.998695, 10.000006 
1.2550165e+3, 1.3466421e+2, -1790722.8, -1702291.3, 57649.105, 0.15461469, 0.16953065, -1673854.1, -53551.26, 0.0020822603, 9.998797, 10.000002 
1.2550125e+3, 1.4466424e+2, -1638438.9, -1492717.4, -73934.92, -0.15861455, 0.13388695, -1461775.1, 60526.324, 0.0007764397, 9.998816, 10.000748 
1.2550092e+3, 1.5466382e+2, -1543121.3, -1388671.8, -68312.66, -0.10044683, 0.00969743, -1362793.3, 61507.785, 0.00013646827, 9.998768, 10.000811 
1.2550056e+3, 1.6466391e+2, -1505452.3, -1423502.6, -42403.01, -0.07024331, -0.016792642, -1405511.8, -79213.26, 0.0000030208696, 9.9988, 9.999883 
1.2550022e+3, 1.7466465e+2, -1383593.4, -1312854.1, -67437.555, -0.08278077, 0.064845756, -1272073.8, -43780.848, 0.0, 9.998959, 9.999893 
1.2549989e+3, 1.846649e+2, -1285784.9, -1234798.5, -96965.29, -0.06319394, 0.10970554, -1160031.3, -29740.574, 0.0, 9.999042, 9.999717 
1.2549959e+3, 1.9466457e+2, -1186388.9, -1131579.9, -100307.72, -0.00025317093, 0.09811198, -1055000.5, -22707.86, 0.0, 9.999032, 9.999758 
1.254993e+3, 2.0466363e+2, -1078217.6, -1027412.44, -68288.62, 0.050683573, 0.02963284, -979954.7, -45655.4, 0.0, 9.999096, 9.999769 
1.25499e+3, 2.1466203e+2, -953393.1, -911290.0, -16962.963, 0.08651752, -0.11436828, -905306.2, -68995.17, 0.0, 9.999257, 9.999816 
1.2549865e+3, 2.2466162e+2, -879943.44, -891307.1, 7352.5923, 0.06440069, -0.107384965, -876333.1, -138018.05, 0.0, 9.9993725, 9.999226 
1.2549828e+3, 2.3466256e+2, -768735.4, -782425.1, -23762.916, -0.021300856, 0.058220554, -750851.1, -110540.88, 0.0, 9.999445, 9.999265 
1.2549797e+3, 2.4466266e+2, -668233.44, -685477.8, -45543.94, -0.035556674, 0.14250016, -630502.7, -88191.04, 0.0, 9.999474, 9.999244 
1.2549773e+3, 2.5466174e+2, -571689.94, -583214.6, -36603.09, 0.032258052, 0.12046001, -540398.4, -96077.98, 0.0, 9.999442, 9.999287 
1.2549743e+3, 2.646604e+2, -489023.2, -516312.53, -50393.484, 0.07512555, 0.07044591, -450459.8, -104126.9, 0.0, 9.999438, 9.999076 
1.2549707e+3, 2.746586e+2, -381682.06, -408873.28, -42177.06, 0.08868115, -0.024445942, -350963.53, -102613.77, 0.0, 9.999481, 9.99912 
1.2549669e+3, 2.846577e+2, -283717.8, -344995.53, -23358.07, 0.046853337, -0.01429874, -275829.53, -125470.29, 0.0, 9.999628, 9.998814 
1.2549628e+3, 2.9465777e+2, -151336.69, -230327.9, -39966.094, -0.060068052, 0.10880993, -134643.4, -82283.26, 0.0, 9.999864, 9.998814 
1.254959e+3, 3.0465683e+2, -160793.03, -220723.61, -59630.605, -0.11900925, 0.14099655, -124022.07, -124022.07, 0.0, 9.999511, 9.998717 
1.2549561e+3, 3.1465355e+2, -157338.94, 22467.725, -32298.008, -0.052730087, -0.07098406, 28093.293, 28093.293, 0.0, 9.998491, 10.000878 
1.2650147e+3, 1.2466594e+2, -1784674.3, -1746338.8, -46232.04, 0.04852357, 0.1714961, -1715458.5, 2828.5132, 0.004085261, 9.999523, 10.000006 
1.2650153e+3, 1.346662e+2, -1839994.9, -1713120.9, 106742.09, 0.16980237, 0.18892883, -1652388.1, -32101.139, 0.0022650692, 9.998408, 10.0001135 
1.2650107e+3, 1.446666e+2, -1720997.5, -1484940.9, 6625.688, -0.19288592, 0.16446991, -1484755.0, 37526.29, 0.00085386867, 9.998048, 10.001169 
1.265008e+3, 1.5466672e+2, -1532807.4, -1336261.4, -33282.9, -0.08227931, 0.05125254, -1330778.3, 93495.66, 0.00015477135, 9.998635, 10.001233 
1.2650049e+3, 1.6466677e+2, -1498487.9, -1442849.8, -17422.3, -0.040782686, 0.011370603, -1437844.5, -111573.91, 0.0000038088367, 9.998946, 9.99968 
1.265001e+3, 1.746669e+2, -1403692.3, -1347031.6, -2542.1453, -0.094780765, 0.052546255, -1346917.9, -118646.766, 0.0, 9.998928, 9.999673 
1.2649977e+3, 1.8466677e+2, -1291525.6, -1243521.1, -3737.3918, -0.08285143, 0.07362929, -1243231.9, -112958.984, 0.0, 9.999028, 9.999663 
1.2649952e+3, 1.9466633e+2, -1154100.1, -1121075.0, -4206.8716, 0.008667506, 0.054793738, -1120547.5, -88270.8, 0.0, 9.999275, 9.999712 
1.2649924e+3, 2.0466581e+2, -1006657.75, -961541.56, -3605.826, 0.061329287, 0.019132698, -961255.25, -26976.055, 0.0, 9.999452, 10.00005 
1.2649891e+3, 2.1466531e+2, -891723.9, -848399.75, -31422.217, 0.066812426, -0.045891155, -831896.4, 4383.3086, 0.0, 9.999539, 10.000112 
1.2649857e+3, 2.2466505e+2, -891400.6, -939872.75, -37060.527, 0.038554206, -0.021401862, -871355.0, -133072.06, 0.0, 9.999482, 9.998838 
1.2649822e+3, 2.3466505e+2, -823730.75, -854932.75, -35847.195, -0.027350942, 0.09238923, -800236.8, -159947.58, 0.0, 9.999268, 9.998851 
1.264979e+3, 2.4466477e+2, -712850.25, -664412.4, -36276.79, -0.025929729, 0.14377432, -645012.94, -102718.72, 0.0, 9.998983, 9.999623 
1.2649764e+3, 2.5466415e+2, -660992.6, -580283.25, -15795.73, 0.05163961, 0.10945853, -577301.94, -133004.02, 0.0, 9.9986315, 9.999698 
1.2649736e+3, 2.646632e+2, -577760.0, -548885.44, -4430.092, 0.09111274, 0.06747314, -548221.0, -201914.8, 0.0, 9.998787, 9.999165 
1.2649702e+3, 2.7466175e+2, -373463.1, -395818.78, -7631.6455, 0.08710912, 0.00375082, -371106.3, -122786.49, 0.0, 9.999499, 9.999199 
1.2649667e+3, 2.8466082e+2, -278852.8, -357864.7, 3916.0713, 0.052892584, 0.019251266, -278659.2, -128329.25, 0.0, 9.999727, 9.998676 
1.2649629e+3, 2.946606e+2, -225269.67, -282804.84, 8499.812, -0.018209564, 0.12065501, -224040.23, -171704.55, 0.0, 9.999428, 9.998663 
1.2649585e+3, 3.0465993e+2, -191899.44, -198599.98, -23944.73, -0.096818455, 0.17687224, -171071.73, -171071.73, 0.0, 9.999139, 9.999047 
1.264954e+3, 3.146567e+2, -94136.336, 75029.555, -9458.51, -0.10785208, -0.06384006, 75556.766, 75556.766, 0.0, 9.998827, 10.001079 
1.2750135e+3, 1.2466746e+2, -1750450.4, -1676499.5, -55154.12, -0.017474206, 0.106974214, -1647073.4, 71199.76, 0.0044096503, 9.999524, 10.000488 
1.2750132e+3, 1.3466789e+2, -1796184.9, -1623704.9, 63616.523, 0.12814426, 0.08329116, -1602779.6, 17489.145, 0.0024558255, 9.998414, 10.000725 
1.2750083e+3, 1.4466915e+2, -1729176.8, -1503709.0, 24404.342, -0.2230202, 0.116363354, -1501097.8, 21157.7, 0.00093550276, 9.998053, 10.0010395 
1.2750077e+3, 1.5467088e+2, -1544521.9, -1361769.1, -10514.52, 0.022829259, 0.18346037, -1361166.1, 63069.668, 0.00017466526, 9.998639, 10.001057 
1.2750052e+3, 1.6467112e+2, -1477221.8, -1398357.8, -18624.63, 0.097394824, 0.15566465, -1394180.5, -67949.336, 0.0000047674703, 9.998944, 9.999987 
1.2750004e+3, 1.7466979e+2, -1380365.0, -1298663.9, -3171.4768, -0.040145285, 0.018808177, -1298540.9, -70298.58, 0.0, 9.998927, 10.000006 
1.2749967e+3, 1.8466905e+2, -1289816.1, -1239482.3, 3292.524, -0.091731295, -0.03982722, -1239267.9, -109019.52, 0.0, 9.999025, 9.999693 
1.2749939e+3, 1.9466896e+2, -1153269.4, -1119130.9, 5244.438, -0.04167377, -0.023470575, -1118343.4, -86094.75, 0.0, 9.999274, 9.999726 
1.2749909e+3, 2.0466906e+2, -1056726.9, -1065172.5, -1704.5092, -0.023836737, 0.0330167, -1056395.9, -122147.88, 0.0, 9.99945, 9.999339 
1.2749876e+3, 2.1466935e+2, -944071.75, -956028.94, -27946.018, -0.040535647, 0.12182152, -921472.0, -85225.91, 0.0, 9.999533, 9.999376 
1.2749845e+3, 2.2466885e+2, -890717.8, -936107.75, -46382.313, -0.03290789, 0.1588678, -861775.75, -123522.445, 0.0, 9.999472, 9.998869 
1.2749816e+3, 2.3466742e+2, -820608.3, -847692.25, -43318.67, 0.0043134335, 0.12379918, -788764.25, -148493.27, 0.0, 9.999264, 9.998903 
1.2749784e+3, 2.4466643e+2, -674218.9, -583425.4, -50159.7, 0.014330999, 0.07401253, -561169.6, -18889.322, 0.0, 9.99898, 10.000182 
1.2749745e+3, 2.5466594e+2, -621286.2, -495802.25, -27750.77, -0.007419218, -0.004317913, -489939.1, -45659.12, 0.0, 9.998621, 10.000283 
1.2749712e+3, 2.6466572e+2, -580907.06, -553286.75, 21622.27, -0.027103558, -0.0006676161, -541440.7, -195160.2, 0.0, 9.998776, 9.99914 
1.2749684e+3, 2.7466568e+2, -377338.2, -403332.2, 21698.559, -0.043820545, 0.08141418, -365041.94, -116759.57, 0.0, 9.999497, 9.999148 
1.274966e+3, 2.8466487e+2, -267888.0, -335572.9, -6422.776, 0.0022354608, 0.097550616, -267283.9, -116991.1, 0.0, 9.999727, 9.99883 
1.2749636e+3, 2.9466313e+2, -215788.77, -258984.1, -558.48645, 0.119466245, 0.036349393, -215781.55, -163469.3, 0.0, 9.999409, 9.9988365 
1.2749593e+3, 3.046632e+2, -180282.06, -170563.77, -33538.555, 0.059002854, 0.14401397, -141534.19, -141534.19, 0.0, 9.999121, 9.999249 
1.2749527e+3, 3.1466228e+2, -97430.44, 71193.914, -12258.024, -0.13337487, 0.11527606, 72080.336, 72080.336, 0.0, 9.998814, 10.001059 
1.285013e+3, 1.246707e+2, -1786775.4, -1681987.9, 38804.66, -0.013658531, 0.109447256, -1669182.6, 49059.84, 0.0047468157, 9.999227, 10.000591 
1.2850118e+3, 1.3467127e+2, -1721353.6, -1561375.1, 88041.29, 0.13410586, 0.07553949, -1522412.5, 97822.664, 0.0026545508, 9.998816, 10.000959 
1.2850064e+3, 1.4467244e+2, -1680177.6, -1518243.1, 67641.73, -0.24773556, 0.10675711, -1493706.4, 28516.4, 0.0010215283, 9.998555, 10.000697 
1.2850063e+3, 1.546742e+2, -1573955.5, -1416863.9, 17990.232, 0.010119611, 0.21191955, -1414830.0, 9375.66, 0.00019628371, 9.998614, 10.00069 
1.285004e+3, 1.646745e+2, -1505890.9, -1394083.0, -11724.688, 0.10827783, 0.19975762, -1392866.8, -66665.2, 0.0000059623408, 9.998671, 10.000147 
1.2849997e+3, 1.7467324e+2, -1398839.8, -1287731.3, -10058.868, -0.0009638232, 0.0548345, -1286827.9, -58617.234, 0.0, 9.998717, 10.000181 
1.284996e+3, 1.8467261e+2, -1298724.5, -1233135.8, 5278.486, -0.052639224, -0.0075202715, -1232713.8, -102498.71, 0.0, 9.99892, 9.999785 
1.2849933e+3, 1.9467263e+2, -1142561.3, -1103970.1, 11396.807, -0.032772582, 0.009558739, -1100855.8, -68641.42, 0.0, 9.999306, 9.999814 
1.2849902e+3, 2.0467266e+2, -1077985.8, -1105810.5, 11928.156, -0.039195254, 0.0709311, -1073572.4, -139357.58, 0.0, 9.999436, 9.999066 
1.2849867e+3, 2.1467279e+2, -999669.75, -1013512.44, 16852.611, -0.07734474, 0.1693721, -988372.56, -152155.9, 0.0, 9.999286, 9.999099 
1.2849835e+3, 2.2467211e+2, -912807.3, -907293.25, 24488.445, -0.066198006, 0.18672477, -885407.1, -147182.14, 0.0, 9.999148, 9.999224 
1.2849808e+3, 2.3467052e+2, -830117.0, -809751.06, 49941.78, 0.0024460407, 0.09812373, -768964.7, -128723.8, 0.0, 9.999015, 9.999284 
1.2849775e+3, 2.4466957e+2, -643794.06, -596236.5, 41515.36, 0.015384342, 0.044401657, -572172.25, -29922.875, 0.0, 9.999307, 9.999937 
1.2849736e+3, 2.5466937e+2, -427052.2, -432002.25, -1820.1797, -0.03643424, 0.019165521, -426454.94, 17794.361, 0.0, 10.000083, 10.000017 
1.2849702e+3, 2.6466936e+2, -378686.13, -445177.78, 10963.073, -0.06838876, 0.05804619, -376925.2, -30676.59, 0.0, 10.000118, 9.999236 
1.2849675e+3, 2.746696e+2, -395354.0, -400057.97, 20421.62, -0.07710288, 0.15274362, -377149.38, -128901.48, 0.0, 9.99932, 9.999257 
1.2849651e+3, 2.846687e+2, -365930.84, -366634.72, -1627.416, -0.01663159, 0.15054888, -364617.75, -214359.33, 0.0, 9.998984, 9.998976 
1.284963e+3, 2.946666e+2, -242676.52, -255196.64, -865.18896, 0.12346347, 0.037665967, -242617.0, -190336.33, 0.0, 9.99915, 9.998987 
1.2849586e+3, 3.04667e+2, -189469.89, -186987.5, -50127.16, 0.090466864, 0.17368418, -138086.17, -138086.17, 0.0, 9.999111, 9.99914 
1.2849523e+3, 3.1466657e+2, -113710.29, 19589.596, -55158.86, -0.07087528, 0.20518251, 39453.9, 39453.9, 0.0, 9.998892, 10.000665 
1.2950128e+3, 1.2467575e+2, -1807337.8, -1726848.6, 58965.242, 0.04494447, 0.17782643, -1695703.3, 22490.863, 0.0050962004, 9.999234, 10.000281 
1.2950112e+3, 1.3467638e+2, -1732235.5, -1582286.9, 70568.43, 0.18172564, 0.16491501, -1554299.9, 65885.45, 0.0028611089, 9.998809, 10.000818 
1.2950046e+3, 1.446766e+2, -1720776.0, -1601838.3, 66419.77, -0.27416757, 0.13510993, -1572154.9, -49972.242, 0.00111182, 9.99855, 10.000127 
1.2950036e+3, 1.5467677e+2, -1612309.3, -1498095.1, 20769.18, -0.12504396, 0.13744423, -1494435.6, -70252.92, 0.000219555, 9.99862, 10.000131 
1.2950017e+3, 1.6467695e+2, -1504231.8, -1391858.0, -11363.669, -0.01485527, 0.14374518, -1390720.4, -64539.547, 0.0000074533, 9.998675, 10.000161 
1.2949987e+3, 1.7467734e+2, -1397100.9, -1285208.6, -8277.741, 0.017536351, 0.15988313, -1284599.5, -56424.145, 0.0, 9.99872, 10.000197 
1.2949957e+3, 1.8467751e+2, -1288581.9, -1211630.5, 17647.986, 0.029107394, 0.16982976, -1207776.1, -77603.64, 0.0, 9.998918, 9.999935 
1.2949933e+3, 1.9467735e+2, -1132251.5, -1081402.9, 25925.113, 0.031674065, 0.15429534, -1070515.9, -38342.86, 0.0, 9.9993, 9.999972 
1.2949902e+3, 2.0467673e+2, -1067593.1, -1082700.5, 5102.6777, 0.008727794, 0.13286151, -1066031.1, -131851.89, 0.0, 9.999429, 9.999229 
1.2949862e+3, 2.1467564e+2, -988576.3, -990476.75, 11155.2, -0.04727516, 0.09421183, -978330.94, -142139.7, 0.0, 9.999284, 9.999259 
1.2949827e+3, 2.2467485e+2, -865236.9, -807056.94, 18127.996, -0.06541756, 0.059557773, -801870.8, -63672.91, 0.0, 9.999142, 9.999915 
1.2949795e+3, 2.3467441e+2, -781219.3, -707213.7, 45878.15, -0.03803207, 0.015019616, -685275.75, -45077.2, 0.0, 9.999008, 9.999991 
1.2949765e+3, 2.4467425e+2, -719342.25, -751566.7, 69288.45, -0.02932291, 0.055701714, -664317.3, -122116.305, 0.0, 9.999299, 9.998875 
1.2949736e+3, 2.5467443e+2, -506010.28, -595745.0, 28931.16, -0.041115727, 0.18177032, -497491.4, -53285.895, 0.0, 10.000081, 9.998894 
1.2949707e+3, 2.646742e+2, -363557.94, -414643.88, -17530.516, -0.037393358, 0.24448656, -358120.88, -11910.49, 0.0, 10.00012, 9.999446 
1.2949674e+3, 2.746735e+2, -378616.16, -362162.6, -7899.61, -0.017407626, 0.21862115, -358983.94, -110767.78, 0.0, 9.999306, 9.999525 
1.2949641e+3, 2.8467244e+2, -359484.7, -350101.34, 4299.122, -0.009823024, 0.18036613, -348429.5, -198203.14, 0.0, 9.99897, 9.999097 
1.2949607e+3, 2.946711e+2, -235662.75, -238734.89, 8439.58, -0.017048975, 0.12985568, -228620.6, -176380.16, 0.0, 9.999143, 9.9991045 
1.2949567e+3, 3.0467135e+2, -219593.94, -250854.42, -58807.3, -0.014058813, 0.2698947, -174375.16, -174375.16, 0.0, 9.999113, 9.998701 
1.2949525e+3, 3.1466955e+2, -173288.28, -97665.78, -56651.684, 0.06841982, 0.21298248, -67366.06, -67366.06, 0.0, 9.998862, 9.999875 
1.3050123e+3, 1.2467993e+2, -1797104.1, -1743622.3, 31108.785, 0.05316162, 0.22478269, -1729340.9, -11185.125, 0.0054552136, 9.999401, 10.000083 
1.3050102e+3, 1.3468061e+2, -1757424.5, -1607282.1, 1008.2828, 0.20444225, 0.2308002, -1607275.4, 12870.931, 0.003073975, 9.9986925, 10.000702 
1.3050035e+3, 1.4468035e+2, -1750750.0, -1616969.9, 48713.465, -0.24978516, 0.15794127, -1601111.6, -78963.46, 0.0012055306, 9.99835, 10.000118 
1.3050021e+3, 1.5468012e+2, -1619620.8, -1502783.0, 45336.61, -0.1264739, 0.12276439, -1487254.9, -63103.36, 0.000244213, 9.998578, 10.000118 
1.3050002e+3, 1.6468032e+2, -1470637.1, -1365358.1, 40023.188, -0.029061848, 0.12552324, -1351870.8, -25721.412, 0.000009295233, 9.998863, 10.000251 
1.3049975e+3, 1.7468117e+2, -1316857.5, -1235851.8, 47228.773, 0.002033049, 0.17834009, -1214137.0, 14002.38, 0.0, 9.999227, 10.000292 
1.3049948e+3, 1.8468155e+2, -1256612.1, -1205450.4, 59290.934, 0.020703107, 0.21019423, -1166457.4, -36322.67, 0.0, 9.999177, 9.999853 
1.3049923e+3, 1.9468136e+2, -1232698.6, -1138428.9, 46548.82, 0.03707069, 0.19906479, -1119318.0, -87181.41, 0.0, 9.99865, 9.999893 
1.3049893e+3, 2.0468071e+2, -1158318.8, -1092330.0, 34754.082, 0.027119715, 0.16368529, -1077402.8, -143259.77, 0.0, 9.99866, 9.999533 
1.3049859e+3, 2.146796e+2, -967252.25, -944451.06, 51420.527, -0.016845737, 0.091595024, -903182.44, -67028.52, 0.0, 9.999278, 9.9995775 
1.3049823e+3, 2.2467905e+2, -788862.94, -764401.25, 32679.025, -0.03789295, 0.061401576, -741739.25, -3581.4575, 0.0, 9.999641, 9.999967 
1.3049789e+3, 2.3467912e+2, -674974.6, -650724.1, 7371.088, -0.031801127, 0.06369091, -648659.44, -8505.771, 0.0, 9.999717, 10.000037 
1.3049759e+3, 2.4467902e+2, -721442.5, -785157.75, 36762.785, -0.022919301, 0.12075958, -704654.4, -162497.94, 0.0, 9.999425, 9.998584 
1.3049734e+3, 2.546787e+2, -727597.44, -736606.2, 56900.258, -0.010040262, 0.22782667, -675023.5, -230856.58, 0.0, 9.998706, 9.99859 
1.3049704e+3, 2.646782e+2, -571759.94, -497111.53, 36952.32, -0.0012316633, 0.27373347, -481913.66, -135739.23, 0.0, 9.998614, 9.999605 
1.304967e+3, 2.7467752e+2, -375799.53, -341934.94, 37045.53, 0.0017961237, 0.23288512, -318135.5, -69956.58, 0.0, 9.999242, 9.999695 
1.3049634e+3, 2.846765e+2, -256055.1, -312617.0, 52330.62, -0.01366378, 0.19398345, -224852.39, -74663.94, 0.0, 9.999734, 9.998985 
1.30496e+3, 2.9467517e+2, -105512.44, -189267.83, 36055.98, -0.05174307, 0.1587623, -92129.164, -39926.617, 0.0, 10.000093, 9.998986 
1.304956e+3, 3.0467546e+2, -86419.24, -154101.4, -41122.945, -0.04464625, 0.29099312, -67003.25, -67003.25, 0.0, 9.999889, 9.998993 
1.3049516e+3, 3.1467378e+2, -147754.36, -86729.95, 16533.238, 0.07610192, 0.21437414, -82538.516, -82538.516, 0.0, 9.999043, 9.999864 
1.3150111e+3, 1.2468333e+2, -1806552.4, -1762905.5, 38575.918, -0.0020078279, 0.24876328, -1740407.8, -22281.275, 0.005819013, 9.999396, 9.999955 
1.3150088e+3, 1.3468409e+2, -1763427.9, -1621933.1, -27393.668, 0.19791709, 0.27427423, -1616814.8, 3302.5415, 0.0032902497, 9.998701, 10.000597 
1.3150024e+3, 1.4468378e+2, -1711179.3, -1537080.1, 53060.313, -0.18335645, 0.17516822, -1522183.5, -64.81559, 0.0013013786, 9.998359, 10.000663 
1.315002e+3, 1.5468435e+2, -1582717.4, -1425329.0, 53990.81, -0.0004940484, 0.16681878, -1408588.4, 15522.907, 0.00026992275, 9.998574, 10.000651 
1.3149999e+3, 1.6468465e+2, -1459965.3, -1342729.8, 51832.754, 0.05953636, 0.14446993, -1323100.0, 3006.1982, 0.00001153221, 9.998859, 10.000409 
1.314996e+3, 1.746848e+2, -1304793.1, -1211663.3, 61080.633, -0.05260973, 0.110767744, -1181422.4, 46679.348, 0.0, 9.9992285, 10.000458 
1.3149929e+3, 1.8468483e+2, -1278884.8, -1251344.8, 39007.855, -0.08661396, 0.11411042, -1223747.8, -93646.9, 0.0, 9.999174, 9.999539 
1.3149904e+3, 1.946847e+2, -1256304.1, -1187670.6, 26504.584, -0.021807272, 0.14263386, -1178626.9, -146522.28, 0.0, 9.99865, 9.999557 
1.3149878e+3, 2.0468464e+2, -1126498.6, -1025846.06, 54943.063, 0.011675703, 0.16229533, -1001664.1, -67558.195, 0.0, 9.998657, 9.999991 
1.3149853e+3, 2.1468472e+2, -934269.9, -875068.3, 75164.91, 0.008699815, 0.16155742, -823885.6, 12218.674, 0.0, 9.999272, 10.000058 
1.3149825e+3, 2.2468475e+2, -832279.8, -852338.8, 34826.47, 0.00943, 0.19301316, -806067.44, -67963.24, 0.0, 9.999631, 9.999369 
1.3149792e+3, 2.3468469e+2, -719857.7, -743610.75, 10666.984, 0.016749958, 0.24522765, -715770.6, -75664.59, 0.0, 9.999715, 9.999402 
1.3149758e+3, 2.4468385e+2, -687562.2, -713526.1, 9688.343, 0.030761177, 0.23886602, -684345.5, -142230.0, 0.0, 9.999418, 9.999079 
1.3149726e+3, 2.5468218e+2, -692164.8, -659612.1, 31205.182, 0.052108876, 0.15651186, -640693.56, -196560.23, 0.0, 9.99869, 9.999127 
1.3149694e+3, 2.6468146e+2, -567584.3, -485402.78, 59644.707, 0.034547783, 0.1450161, -454064.7, -107924.33, 0.0, 9.9986, 9.999693 
1.3149658e+3, 2.7468178e+2, -372007.38, -332722.72, 63598.477, -0.027391832, 0.19692832, -285802.38, -37666.63, 0.0, 9.999236, 9.999762 
1.314963e+3, 2.846809e+2, -280287.1, -363096.72, 66120.85, -0.037023507, 0.19206434, -243677.0, -93532.59, 0.0, 9.999733, 9.99864 
1.3149609e+3, 2.946789e+2, -132876.75, -242113.92, 52474.49, 0.01323989, 0.123243555, -111753.92, -59586.98, 0.0, 10.000075, 9.998633 
1.3149562e+3, 3.0467933e+2, -15975.048, -4819.764, -70073.43, -0.007271599, 0.23590259, 59897.656, 59897.656, 0.0, 9.999876, 10.000025 
1.3149492e+3, 3.146793e+2, -96870.55, 24045.422, -6847.6396, -0.06493614, 0.21824929, 24431.979, 24431.979, 0.0, 9.9990225, 10.000635 
1.3250104e+3, 1.2468696e+2, -1808047.8, -1755065.3, 105632.67, -0.011744667, 0.22745265, -1672652.6, 45438.56, 0.006183249, 9.999347, 10.000036 
1.3250077e+3, 1.3468823e+2, -1731017.1, -1600719.9, 15134.404, 0.20306928, 0.3004345, -1598985.1, 21092.605, 0.0035072896, 9.998902, 10.000645 
1.3250013e+3, 1.4468774e+2, -1680754.1, -1521547.1, 107904.055, -0.1366474, 0.18052688, -1467061.1, 55019.656, 0.0013982238, 9.998566, 10.000669 
1.3250007e+3, 1.5468839e+2, -1586971.6, -1428783.1, 68507.625, 0.03080161, 0.1801893, -1403238.9, 20833.113, 0.00029637254, 9.99855, 10.00064 
1.3249989e+3, 1.646887e+2, -1487581.5, -1350042.9, 50457.56, 0.07654904, 0.15789625, -1333517.5, -7450.996, 0.000014169166, 9.998645, 10.000463 
1.3249952e+3, 1.7468883e+2, -1357656.5, -1230451.3, 49045.664, -0.050335728, 0.11594826, -1213737.3, 14325.479, 0.0, 9.998839, 10.000516 
1.3249919e+3, 1.8468879e+2, -1285624.6, -1251445.9, 23934.21, -0.08902425, 0.109095536, -1239126.1, -109063.766, 0.0, 9.999117, 9.999566 
1.3249893e+3, 1.9468857e+2, -1130271.9, -1124059.5, 37086.355, -0.02027519, 0.12544829, -1089949.5, -57882.813, 0.0, 9.999503, 9.999581 
1.324987e+3, 2.046885e+2, -994562.25, -961107.1, 72610.81, 0.014901759, 0.14242412, -903322.0, 30745.83, 0.0, 9.999558, 10.000002 
1.3249846e+3, 2.1468867e+2, -939472.7, -875705.9, 54741.332, 0.008943134, 0.150152, -844239.75, -8174.667, 0.0, 9.99923, 10.0000725 
1.3249817e+3, 2.246889e+2, -903578.44, -900512.3, 16938.49, 0.009478915, 0.20654054, -885037.6, -146973.44, 0.0, 9.999203, 9.999244 
1.3249788e+3, 2.3468916e+2, -759151.3, -776764.4, 29435.705, 0.019141076, 0.30262172, -737233.0, -97167.375, 0.0, 9.999507, 9.999274 
1.3249755e+3, 2.4468826e+2, -607108.06, -637631.9, 29007.62, 0.029397357, 0.28090826, -589592.44, -47517.207, 0.0, 9.999811, 9.99941 
1.3249719e+3, 2.5468612e+2, -459306.44, -508153.6, 32938.625, 0.03911981, 0.11526384, -442724.34, 1369.395, 0.0, 10.000121, 9.999476 
1.3249686e+3, 2.646853e+2, -348281.6, -403542.3, 60601.656, 0.019261621, 0.08788608, -309308.66, 36792.03, 0.0, 10.000211, 9.999478 
1.3249655e+3, 2.7468598e+2, -270004.78, -309339.78, 40038.555, -0.03290013, 0.20002013, -245064.03, 3031.0334, 0.0, 10.00005, 9.99953 
1.3249627e+3, 2.8468546e+2, -282657.56, -313295.75, 41521.523, -0.034237865, 0.21747153, -253719.31, -103618.52, 0.0, 9.999498, 9.999095 
1.3249601e+3, 2.946837e+2, -326442.97, -280212.03, 87288.875, 0.023466872, 0.12540631, -213029.81, -160911.39, 0.0, 9.998508, 9.9991255 
1.3249557e+3, 3.0468386e+2, -179910.56, -108867.16, -15057.73, 0.0060512684, 0.19987878, -105807.44, -105807.44, 0.0, 9.998859, 9.9998 
1.3249491e+3, 3.1468403e+2, 119642.65, 74198.24, -52700.152, -0.06938545, 0.2257285, 154310.38, 154310.38, 0.0, 10.000743, 10.000151 
1.33501e+3, 1.24690905e+2, -1785981.8, -1711463.5, 112020.52, 0.0069351955, 0.16112785, -1630668.1, 87381.055, 0.0065457188, 9.999354, 10.000334 
1.3350067e+3, 1.3469312e+2, -1718452.3, -1572387.6, -4509.305, 0.21691434, 0.31006962, -1572248.6, 47778.01, 0.0037237175, 9.998892, 10.000845 
1.3350001e+3, 1.446923e+2, -1719217.5, -1599885.0, 103441.555, -0.115348965, 0.17364107, -1540135.1, -18101.43, 0.0014951822, 9.998558, 10.000135 
1.3349986e+3, 1.546923e+2, -1624534.9, -1508101.0, 68933.51, -0.039871514, 0.16317303, -1476090.1, -52057.316, 0.00032323142, 9.998555, 10.000093 
1.3349968e+3, 1.6469257e+2, -1492018.5, -1360874.9, 56286.277, 0.011565852, 0.16742846, -1340030.3, -14000.658, 0.000017128494, 9.99865, 10.000386 
1.3349946e+3, 1.746933e+2, -1361804.5, -1240452.5, 56007.758, 0.0040620887, 0.19357727, -1218554.6, 9467.084, 0.00000000003443261, 9.998843, 10.000445 
1.334992e+3, 1.846935e+2, -1259200.1, -1196673.4, 36128.883, 0.007908961, 0.19378144, -1180159.1, -50140.2, 0.0, 9.999116, 9.999943 
1.3349895e+3, 1.9469303e+2, -1102524.0, -1066486.5, 51573.434, 0.036801606, 0.14672299, -1029874.75, 2147.6858, 0.0, 9.999501, 9.999978 
1.3349867e+3, 2.0469236e+2, -1027082.56, -1026791.8, 59473.438, 0.029423278, 0.10431121, -967463.56, -33435.438, 0.0, 9.99955, 9.999556 
1.3349836e+3, 2.146915e+2, -973555.2, -945869.7, 42185.523, -0.02120711, 0.056418233, -915313.8, -79277.664, 0.0, 9.999227, 9.999594 
1.3349806e+3, 2.2469151e+2, -878636.0, -847977.75, 26294.094, -0.042757105, 0.09987436, -832870.7, -94832.83, 0.0, 9.999198, 9.999607 
1.3349777e+3, 2.3469254e+2, -732476.56, -720471.2, 41948.344, -0.028967703, 0.23401628, -684098.25, -44065.95, 0.0, 9.999501, 9.999664 
1.3349746e+3, 2.4469227e+2, -597552.2, -616105.6, 40401.887, -0.033307884, 0.24554728, -565375.7, -23340.365, 0.0, 9.999804, 9.999562 
1.334971e+3, 2.546905e+2, -449654.6, -488095.28, 46113.813, -0.05765358, 0.10563442, -418915.9, 25132.092, 0.0, 10.00012, 9.999615 
1.3349682e+3, 2.6468974e+2, -383743.1, -478222.44, 54994.375, -0.054791365, 0.103572436, -358484.7, -12429.361, 0.0, 10.000214, 9.998965 
1.3349655e+3, 2.7469015e+2, -308333.53, -387450.53, 36106.035, -0.021845846, 0.24202758, -294333.47, -46276.57, 0.0, 10.000042, 9.998999 
1.3349622e+3, 2.8469008e+2, -196807.36, -132121.3, 5684.554, -0.012933909, 0.26984236, -131625.55, 18432.117, 0.0, 9.999485, 10.000346 
1.3349581e+3, 2.9468957e+2, -236565.31, -90139.56, 52993.99, -0.029644033, 0.17115894, -72972.75, -20916.248, 0.0, 9.998493, 10.000439 
1.3349544e+3, 3.0468914e+2, -285316.0, -326770.34, 53654.49, -0.015093461, 0.18916135, -248524.31, -248524.31, 0.0, 9.998854, 9.998305 
1.334951e+3, 3.146879e+2, -4957.9033, -181064.75, 25560.533, 0.047469385, 0.23437503, -1323.0161, -1323.0161, 0.0, 10.000727, 9.9984045 
1.3450095e+3, 1.24694735e+2, -1806635.5, -1737380.1, 105227.68, 0.03127877, 0.12103924, -1661229.0, 56779.75, 0.0069055543, 9.999287, 10.000186 
1.3450058e+3, 1.3469683e+2, -1659696.8, -1585331.4, -79496.945, 0.20298834, 0.2939501, -1534751.3, 85237.64, 0.0039389143, 9.9994755, 10.000475 
1.3449992e+3, 1.446957e+2, -1590797.3, -1529179.4, 32319.906, -0.10145191, 0.14066976, -1515336.8, 6663.0845, 0.0015916337, 9.999401, 10.000215 
1.3449973e+3, 1.546961e+2, -1528870.0, -1452047.8, 44645.04, -0.06268474, 0.16307366, -1431564.1, -7569.3076, 0.0003501717, 9.99917, 10.000181 
1.3449955e+3, 1.6469651e+2, -1465495.5, -1370689.9, 57208.66, -0.007694183, 0.18771945, -1343797.0, -17806.31, 0.000020254476, 9.99893, 10.000183 
1.3449937e+3, 1.746971e+2, -1397541.8, -1281485.3, 45105.258, 0.03389852, 0.21898468, -1266016.9, -38030.895, 0.0000000014653116, 9.9987, 10.000234 
1.3449913e+3, 1.8469721e+2, -1308844.3, -1203198.4, 25772.47, 0.04652262, 0.21451809, -1197246.5, -67262.055, 0.0, 9.998699, 10.000099 
1.3449886e+3, 1.9469678e+2, -1172180.3, -1080331.3, 21964.87, 0.035518564, 0.1538695, -1075348.8, -43361.965, 0.0, 9.9989395, 10.000154 
1.3449858e+3, 2.0469627e+2, -1071665.3, -1031620.2, 31440.307, 0.008747129, 0.11157656, -1014368.1, -80377.84, 0.0, 9.999172, 9.999704 
1.3449827e+3, 2.146957e+2, -938162.6, -912023.06, 59701.52, -0.039357416, 0.078370035, -863977.44, -27982.684, 0.0, 9.999397, 9.999744 
1.3449799e+3, 2.2469553e+2, -827606.06, -835085.06, 63147.844, -0.058418162, 0.099684924, -768087.06, -30089.002, 0.0, 9.9996, 9.999501 
1.3449773e+3, 2.3469582e+2, -698156.7, -715467.5, 37870.06, -0.04367915, 0.17046502, -667965.5, -27965.705, 0.0, 9.99979, 9.9995575 
1.3449743e+3, 2.4469575e+2, -570283.94, -571037.75, 18263.852, -0.04303882, 0.19589297, -552393.06, -10392.434, 0.0, 9.999857, 9.999845 
1.344971e+3, 2.546953e+2, -478844.97, -468380.3, 34000.27, -0.05837659, 0.15657319, -439212.13, 4788.3433, 0.0, 9.999779, 9.999914 
1.3449681e+3, 2.646947e+2, -489802.03, -548692.56, 48539.574, -0.047914676, 0.16150343, -462474.8, -116468.58, 0.0, 9.999572, 9.998789 
1.3449654e+3, 2.746939e+2, -440054.53, -471187.03, 52651.383, -0.00876949, 0.2013167, -400716.53, -152697.58, 0.0, 9.9992285, 9.998813 
1.3449617e+3, 2.846936e+2, -208709.94, -148657.36, -5660.1226, -0.026465312, 0.21840194, -148128.53, 1893.7865, 0.0, 9.999454, 10.000246 
1.3449568e+3, 2.9469386e+2, 24067.4, 25849.627, -66960.484, -0.10781878, 0.20616673, 91924.93, 143939.16, 0.0, 10.00033, 10.00035 
1.3449535e+3, 3.04693e+2, -51161.89, -196715.17, -38594.957, -0.06056659, 0.18123938, -41561.29, -41561.29, 0.0, 10.000391, 9.998459 
1.3449518e+3, 3.1469148e+2, -175810.39, -247114.83, 63433.566, 0.1278605, 0.18223116, -138696.56, -138696.56, 0.0, 9.999486, 9.998549 
1.3550091e+3, 1.24698564e+2, -1851644.3, -1829196.8, 125066.8, 0.05133826, 0.10774358, -1714851.1, 3117.8013, 0.0072628423, 9.999277, 9.99956 
1.3550048e+3, 1.3469942e+2, -1725068.6, -1721547.3, -73699.805, 0.15444611, 0.25192383, -1649587.1, -29623.434, 0.004152666, 9.999479, 9.9995365 
1.3549986e+3, 1.4469795e+2, -1542482.4, -1431785.6, 21147.93, -0.107293226, 0.08086823, -1427883.0, 94095.445, 0.0016872559, 9.999411, 10.00088 
1.3549967e+3, 1.5469986e+2, -1479115.8, -1349489.5, 35852.164, -0.04222584, 0.18080257, -1340234.3, 83722.97, 0.0003769789, 9.999171, 10.000885 
1.3549946e+3, 1.6470061e+2, -1488251.8, -1417564.3, 46498.676, 0.014686691, 0.2192757, -1394501.6, -68552.34, 0.000023370363, 9.998928, 9.999864 
1.3549922e+3, 1.7470025e+2, -1421261.6, -1331462.4, 36644.902, 0.034059554, 0.19057837, -1318406.6, -90451.81, 0.0000000068048798, 9.998702, 9.99989 
1.3549897e+3, 1.847e+2, -1314648.6, -1214534.3, 32703.227, 0.016592724, 0.17169441, -1204798.3, -74840.15, 0.0, 9.998695, 10.000024 
1.3549869e+3, 1.9469985e+2, -1176934.5, -1090428.9, 30750.21, -0.029949078, 0.14700182, -1080612.0, -48652.6, 0.0, 9.9989395, 10.000085 
1.3549843e+3, 2.0470028e+2, -1018723.6, -921426.06, 37865.043, -0.05210145, 0.16405658, -908426.94, 25526.936, 0.0, 9.99917, 10.0004635 
1.354982e+3, 2.1470135e+2, -883537.06, -797627.75, 68251.305, -0.05038744, 0.2170171, -759939.06, 76001.25, 0.0, 9.999392, 10.000533 
1.3549796e+3, 2.2470099e+2, -870469.5, -922470.5, 68766.21, -0.043625455, 0.20665522, -822952.56, -85008.19, 0.0, 9.999593, 9.998906 
1.3549772e+3, 2.3469898e+2, -743992.5, -809651.4, 45346.223, -0.030034091, 0.1120815, -720839.4, -80871.266, 0.0, 9.999784, 9.998915 
1.3549747e+3, 2.4469873e+2, -540956.4, -508552.44, 14733.925, -0.005081436, 0.13207027, -502854.8, 39116.395, 0.0, 9.999849, 10.000278 
1.3549717e+3, 2.547005e+2, -447853.84, -401375.06, 32325.85, 0.03273197, 0.26837465, -384802.03, 59149.008, 0.0, 9.999766, 10.0003805 
1.3549685e+3, 2.6470008e+2, -481443.75, -528710.8, 36421.617, 0.035776306, 0.26042768, -461659.78, -115706.305, 0.0, 9.999559, 9.998933 
1.3549647e+3, 2.7469724e+2, -431793.25, -452294.94, 42107.01, -0.00065855565, 0.0791974, -398707.25, -150726.06, 0.0, 9.99922, 9.998947 
1.3549605e+3, 2.8469595e+2, -312176.78, -362996.56, 26652.158, -0.084557444, 0.06476623, -300762.75, -150767.86, 0.0, 9.99945, 9.998777 
1.354956e+3, 2.9469642e+2, -83389.54, -196975.5, -30890.225, -0.22106303, 0.22608486, -75532.31, -23539.504, 0.0, 10.000326, 9.998822 
1.354953e+3, 3.0469537e+2, 75453.086, 68706.92, -70035.266, -0.13917838, 0.170641, 142196.45, 142196.45, 0.0, 10.000381, 10.000286 
1.3549517e+3, 3.146946e+2, -35797.13, 52287.55, 35002.297, 0.15905884, 0.056792744, 64502.555, 64502.555, 0.0, 9.99945, 10.000625 
1.3650085e+3, 1.2470224e+2, -1740946.4, -1739191.0, 97795.055, 0.04491974, 0.1306908, -1642269.8, 75663.63, 0.0076198755, 9.999878, 9.99989 
1.365004e+3, 1.3470271e+2, -1720016.3, -1717004.3, -43143.285, 0.13255359, 0.23470616, -1675340.6, -55410.45, 0.004366158, 9.999505, 9.999556 
1.3649982e+3, 1.4470099e+2, -1604290.3, -1476313.3, 53056.38, -0.07157644, 0.043354023, -1457178.4, 64769.0, 0.0017823466, 9.999051, 10.000748 
1.3649958e+3, 1.5470316e+2, -1562078.6, -1405983.3, 3797.1963, -0.012114801, 0.18412009, -1405890.9, 18034.15, 0.0004035849, 9.9986725, 10.000739 
1.3649935e+3, 1.6470398e+2, -1509726.6, -1401583.6, 18355.54, 0.018856557, 0.22489013, -1398553.0, -72636.32, 0.000026350568, 9.998668, 10.000098 
1.3649908e+3, 1.7470345e+2, -1351503.9, -1269659.3, 51112.504, -0.006711084, 0.1554989, -1245105.5, -17183.32, 0.000000016360648, 9.999062, 10.000141 
1.3649882e+3, 1.847033e+2, -1240590.3, -1173381.1, 74677.92, -0.029253846, 0.13274606, -1125095.1, 4828.9746, 0.0, 9.99918, 10.000073 
1.3649859e+3, 1.9470358e+2, -1164219.1, -1079681.9, 79831.84, -0.04101299, 0.14438583, -1031619.1, 303.4449, 0.0, 9.999005, 10.000127 
1.3649835e+3, 2.0470428e+2, -1049461.3, -933338.4, 70066.65, -0.049270097, 0.18629515, -900402.75, 33512.496, 0.0, 9.998949, 10.000486 
1.3649811e+3, 2.1470553e+2, -934816.75, -818950.25, 40448.89, -0.056820948, 0.25178844, -806226.75, 29674.412, 0.0, 9.999028, 10.00056 
1.3649787e+3, 2.2470514e+2, -932712.06, -908530.75, 43381.934, -0.051216614, 0.22094785, -875586.1, -137682.31, 0.0, 9.9989805, 9.999294 
1.3649765e+3, 2.3470296e+2, -862131.44, -821821.1, 96305.01, -0.031659685, 0.068671174, -743584.8, -103659.62, 0.0, 9.998784, 9.999311 
1.364974e+3, 2.4470256e+2, -692886.4, -635752.9, 86258.89, -0.0036118238, 0.076705545, -573453.5, -31523.977, 0.0, 9.999042, 9.999791 
1.3649715e+3, 2.5470418e+2, -476315.63, -471879.0, 27364.867, 0.034549452, 0.25035563, -446642.7, -2728.155, 0.0, 9.999818, 9.999869 
1.3649684e+3, 2.6470366e+2, -344269.63, -433482.13, -14524.111, 0.030024232, 0.2477064, -341964.63, 3953.7002, 0.0, 10.000381, 9.999188 
1.3649644e+3, 2.7470085e+2, -196342.31, -306961.25, -1191.8204, -0.023066938, 0.039198335, -196329.48, 51613.16, 0.0, 10.000706, 9.999227 
1.3649605e+3, 2.8469944e+2, -182898.13, -355652.88, 30302.045, -0.09533294, 0.02194681, -177737.17, -27779.93, 0.0, 10.000577, 9.998283 
1.3649563e+3, 2.9469955e+2, -178127.22, -299899.4, 46388.62, -0.18559563, 0.20176797, -162469.08, -110507.58, 0.0, 9.999924, 9.998308 
1.3649534e+3, 3.0469817e+2, 1976.7314, 41883.09, -25980.605, -0.11736152, 0.13505498, 54688.438, 54688.438, 0.0, 9.999839, 10.000363 
1.3649508e+3, 3.1469828e+2, 127080.45, 171233.23, -65872.63, 0.07348574, 0.0951914, 218630.38, 218630.38, 0.0, 10.000396, 10.000984 
1.375008e+3, 1.247058e+2, -1650000.4, -1554264.6, 84413.29, -0.0031254056, 0.18644916, -1505091.6, 212810.31, 0.0079810945, 9.999887, 10.0011635 
1.3750036e+3, 1.3470678e+2, -1652010.3, -1575961.3, -59011.83, 0.13358526, 0.24487224, -1543784.3, 76103.32, 0.0045821774, 9.999502, 10.000526 
1.374998e+3, 1.447049e+2, -1669924.0, -1611890.4, 35388.586, 0.001027464, 0.030866124, -1595143.4, -73237.78, 0.0018779465, 9.999048, 9.999818 
1.3749948e+3, 1.5470608e+2, -1631425.5, -1549547.0, -9669.321, 0.020760227, 0.17152055, -1548420.5, -124522.75, 0.00043006244, 9.998672, 9.999754 
1.374992e+3, 1.6470666e+2, -1454459.3, -1288263.8, 31052.268, -0.005912028, 0.20448755, -1282651.4, 43240.664, 0.000029160963, 9.998671, 10.000876 
1.374989e+3, 1.7470677e+2, -1291849.6, -1147979.1, 65714.516, -0.092736885, 0.11441201, -1122482.0, 105405.35, 0.000000027808229, 9.999067, 10.000975 
1.3749868e+3, 1.847072e+2, -1227811.8, -1146883.5, 66631.54, -0.09537313, 0.0965952, -1109391.9, 20489.982, 0.0, 9.999179, 10.000257 
1.3749853e+3, 1.9470799e+2, -1153188.1, -1056101.6, 73270.375, -0.0021574053, 0.14515363, -1016752.94, 15122.628, 0.0, 9.9990015, 10.000292 
1.374983e+3, 2.0470834e+2, -1101543.1, -1039902.6, 71199.21, 0.011114549, 0.17795451, -993139.25, -59265.383, 0.0, 9.99894, 9.99976 
1.37498e+3, 2.1470821e+2, -988730.7, -929402.94, 43531.85, -0.06381212, 0.18223822, -906388.9, -70511.85, 0.0, 9.999021, 9.999805 
1.3749774e+3, 2.2470802e+2, -836920.5, -707571.2, 34765.832, -0.08715218, 0.14210102, -698819.2, 39056.92, 0.0, 9.99897, 10.00068 
1.374975e+3, 2.3470779e+2, -761927.4, -611645.56, 89730.86, -0.052798513, 0.04073169, -569748.94, 70121.78, 0.0, 9.998774, 10.000761 
1.3749726e+3, 2.4470724e+2, -794808.5, -845386.5, 114328.25, -0.043136325, 0.028377283, -703005.75, -161130.45, 0.0, 9.999032, 9.998358 
1.3749705e+3, 2.5470635e+2, -584050.1, -693950.6, 58173.2, -0.060358327, 0.10271187, -558977.56, -115086.625, 0.0, 9.99981, 9.998348 
1.3749678e+3, 2.647055e+2, -318830.88, -381316.66, -1906.0085, -0.07312459, 0.12504932, -318772.78, 27128.03, 0.0, 10.000381, 9.999547 
1.3749644e+3, 2.747047e+2, -167623.86, -247180.25, 13154.529, -0.08486518, 0.07889752, -165505.2, 82398.65, 0.0, 10.000703, 9.99964 
1.3749613e+3, 2.8470397e+2, -150572.6, -285765.84, 7348.071, -0.0671927, 0.08706912, -150174.38, -264.40573, 0.0, 10.0005665, 9.998768 
1.3749582e+3, 2.9470333e+2, -146141.9, -229180.94, 25334.594, -0.0072873, 0.13938062, -139022.84, -87102.94, 0.0, 9.999906, 9.998802 
1.3749543e+3, 3.0470148e+2, -118118.53, -207706.02, -4827.7676, -0.0026737296, 0.08161476, -117859.12, -117859.12, 0.0, 9.999836, 9.998652 
1.3749489e+3, 3.1470212e+2, 26353.873, -38499.016, -41052.723, -0.14905453, 0.2760796, 46241.867, 46241.867, 0.0, 10.000394, 9.999547 
1.3850078e+3, 1.2470918e+2, -1651802.9, -1533705.6, 121231.23, 0.0014275167, 0.15908353, -1457907.1, 259960.48, 0.008351057, 9.999785, 10.001355 
1.3850026e+3, 1.347106e+2, -1707047.9, -1609970.8, -104593.33, 0.11043442, 0.26575634, -1543202.1, 76647.95, 0.004803759, 9.99916, 10.000458 
1.3849972e+3, 1.4470878e+2, -1677412.0, -1610009.3, 5646.726, 0.016419915, 0.061418194, -1609539.5, -87672.23, 0.0019753822, 9.998974, 9.9998665 
1.384994e+3, 1.5470946e+2, -1528341.9, -1494199.0, 37639.12, 0.015967902, 0.14680396, -1469940.8, -46077.29, 0.00045665295, 9.999354, 9.999805 
1.3849907e+3, 1.6470996e+2, -1372828.1, -1244672.4, 88487.78, -0.0144846, 0.16520819, -1199497.9, 126360.6, 0.00003186285, 9.999213, 10.000915 
1.384988e+3, 1.7471041e+2, -1368354.4, -1180782.5, 61524.492, -0.083915114, 0.10504769, -1162403.1, 65447.797, 0.000000039188958, 9.998525, 10.001011 
1.3849857e+3, 1.8471101e+2, -1345146.8, -1198877.0, 37357.883, -0.08155661, 0.10179025, -1189888.0, -60044.395, 0.0, 9.998356, 10.000295 
1.3849841e+3, 1.9471183e+2, -1184028.4, -1066348.9, 33043.51, -0.00040938554, 0.14978643, -1057705.4, -25868.66, 0.0, 9.998773, 10.00033 
1.3849819e+3, 2.04712e+2, -1101489.8, -1056181.6, 46965.25, 0.0042656823, 0.1693047, -1026692.25, -92855.195, 0.0, 9.999012, 9.999612 
1.384979e+3, 2.1471143e+2, -994451.8, -949694.4, 62847.926, -0.077310525, 0.14475179, -905359.75, -69514.39, 0.0, 9.999057, 9.999649 
1.3849764e+3, 2.2471137e+2, -772783.6, -666123.56, 36749.977, -0.10688019, 0.12122182, -654687.44, 83156.13, 0.0, 9.999366, 10.000773 
1.3849741e+3, 2.3471192e+2, -578317.75, -510928.03, -12281.111, -0.07856069, 0.08611542, -508759.7, 131070.67, 0.0, 9.999983, 10.000868 
1.384972e+3, 2.447113e+2, -609100.56, -758385.4, 20141.79, -0.07049193, 0.06185682, -606430.75, -64595.902, 0.0, 10.000322, 9.998331 
1.3849702e+3, 2.547094e+2, -506944.97, -659604.9, 75199.27, -0.086436234, 0.038264856, -476124.6, -32265.69, 0.0, 10.000357, 9.998319 
1.3849677e+3, 2.6470843e+2, -361948.84, -419820.75, 37750.258, -0.093731835, 0.059765287, -343320.4, 2549.9248, 0.0, 10.000165, 9.999385 
1.3849646e+3, 2.7470854e+2, -322007.25, -339918.13, 5963.19, -0.09282017, 0.11959262, -320203.53, -72336.03, 0.0, 9.9997225, 9.999475 
1.3849615e+3, 2.8470808e+2, -279632.28, -323565.56, -36994.305, -0.06043653, 0.15044288, -258574.38, -108702.85, 0.0, 9.9995775, 9.998983 
1.3849582e+3, 2.9470694e+2, -148400.05, -203208.53, -43060.566, 0.014251369, 0.1322005, -124763.086, -72879.67, 0.0, 9.99978, 9.999038 
1.3849548e+3, 3.0470452e+2, -73704.51, -283150.8, -6416.5996, 0.006734321, 0.050686292, -73508.12, -73508.12, 0.0, 10.000563, 9.997782 
1.3849497e+3, 3.147048e+2, 216846.45, -2262.594, 21780.002, -0.19892839, 0.2943862, 218990.47, 218990.47, 0.0, 10.0019455, 9.999045 
1.3950081e+3, 1.24712504e+2, -1715222.3, -1663249.3, 92592.23, 0.046673, 0.04898834, -1593066.0, 124763.61, 0.008733579, 9.999777, 10.000464 
1.3950013e+3, 1.347142e+2, -1785728.9, -1772062.1, -128879.82, 0.05730668, 0.29565564, -1649834.6, -30017.652, 0.005033633, 9.999156, 9.999346 
1.3949956e+3, 1.4471272e+2, -1605156.3, -1462088.5, 16672.385, -0.03619643, 0.13245095, -1460171.3, 61660.766, 0.002076125, 9.99898, 10.000881 
1.3949926e+3, 1.547134e+2, -1451453.6, -1336094.8, 52079.19, -0.031531006, 0.11072715, -1316062.1, 107759.32, 0.00048381835, 9.999359, 10.000889 
1.39499e+3, 1.6471393e+2, -1422014.4, -1347956.4, 61517.598, -0.012711758, 0.10953919, -1313183.1, 12632.017, 0.000034571214, 9.999217, 10.000204 
1.3949874e+3, 1.7471439e+2, -1421960.0, -1291500.1, 35507.484, 0.014119185, 0.12775688, -1282462.1, -54649.984, 0.00000005013657, 9.998522, 10.000253 
1.394985e+3, 1.8471481e+2, -1353638.5, -1215629.0, 50333.727, 0.004048635, 0.14891168, -1199222.3, -69413.27, 0.0, 9.99835, 10.000183 
1.3949825e+3, 1.9471516e+2, -1190363.9, -1079922.5, 48749.42, -0.041221865, 0.15881987, -1061483.0, -29677.531, 0.0, 9.998773, 10.000237 
1.3949803e+3, 2.047153e+2, -1071099.8, -992725.94, 47499.188, -0.076907955, 0.15949188, -970335.4, -36530.938, 0.0, 9.999009, 10.000051 
1.3949777e+3, 2.1471523e+2, -963233.06, -884471.94, 64790.938, -0.10257639, 0.13955899, -848032.4, -12226.521, 0.0, 9.999053, 10.000099 
1.3949756e+3, 2.2471522e+2, -858609.5, -843828.5, 58065.06, -0.1160581, 0.15817639, -792685.5, -54879.668, 0.0, 9.999362, 9.999556 
1.3949737e+3, 2.3471533e+2, -667533.56, -695486.0, 11347.155, -0.11477276, 0.20667437, -663507.25, -23703.148, 0.0, 9.999979, 9.999603 
1.3949722e+3, 2.4471472e+2, -511049.03, -554441.5, 20848.873, -0.09290127, 0.18000004, -502655.38, 39152.707, 0.0, 10.000319, 9.999734 
1.394971e+3, 2.5471333e+2, -403981.06, -444631.0, 77547.945, -0.04948904, 0.057242755, -344138.78, 99679.51, 0.0, 10.00035, 9.999799 
1.3949685e+3, 2.6471248e+2, -412259.44, -522718.2, 21896.268, -0.036143098, 0.051137973, -408077.28, -62250.375, 0.0, 10.000156, 9.998684 
1.3949648e+3, 2.7471238e+2, -376764.72, -451536.63, -8405.34, -0.054322597, 0.16568607, -375831.5, -127998.2, 0.0, 9.999712, 9.9987135 
1.3949609e+3, 2.8471166e+2, -285866.2, -336373.56, -29890.094, -0.085994214, 0.21658935, -271989.75, -122147.98, 0.0, 9.999574, 9.9988985 
1.3949566e+3, 2.9471028e+2, -155153.63, -215818.97, -33041.855, -0.13321936, 0.17481203, -140632.81, -88779.49, 0.0, 9.99977, 9.998958 
1.3949542e+3, 3.0470726e+2, -73499.484, -280634.72, 45429.895, -0.10037222, 0.036302928, -63973.664, -63973.664, 0.0, 10.000554, 9.997802 
1.3949527e+3, 3.1470615e+2, 246569.88, 61747.754, 77320.875, -0.090090275, 0.13949054, 274650.8, 274650.8, 0.0, 10.001935, 9.999491 
1.405008e+3, 1.2471653e+2, -1822348.0, -1753852.8, 74984.97, 0.08260436, 0.027728075, -1705664.6, 12122.73, 0.009133226, 9.999209, 10.000112 
1.4050002e+3, 1.347175e+2, -1776401.4, -1825332.6, -102536.17, 0.027881304, 0.25131172, -1695452.4, -75667.87, 0.005275387, 9.999468, 9.998829 
1.4049946e+3, 1.4471608e+2, -1544057.3, -1421445.4, 40633.242, -0.05129196, 0.11618727, -1409202.1, 112597.9, 0.0021822979, 9.9993515, 10.00098 
1.4049919e+3, 1.5471715e+2, -1505463.5, -1348457.8, 2989.3596, -0.038740437, 0.12127342, -1348400.9, 75384.14, 0.00051218417, 9.99893, 10.00101 
1.404989e+3, 1.6471784e+2, -1497413.8, -1406269.8, -13049.33, -0.0070547513, 0.13975754, -1404438.3, -78660.86, 0.000037386584, 9.998798, 10.000004 
1.4049864e+3, 1.747182e+2, -1366734.8, -1288327.1, -252.91298, 0.041662734, 0.17025563, -1288326.3, -60549.63, 0.00000006103049, 9.999003, 10.000041 
1.4049838e+3, 1.8471834e+2, -1234859.9, -1163190.1, 59936.13, 0.017486066, 0.17543036, -1129193.3, 583.04767, 0.0, 9.999187, 10.000139 
1.4049812e+3, 1.9471818e+2, -1106443.4, -1043412.8, 61293.5, -0.087197326, 0.13798715, -1006007.06, 25769.316, 0.0, 9.999367, 10.000201 
1.404979e+3, 2.0471829e+2, -1025047.44, -968935.3, 32194.33, -0.11799167, 0.13679807, -954287.56, -20512.752, 0.0, 9.999322, 10.000061 
1.4049771e+3, 2.147187e+2, -964051.2, -882629.1, 14604.666, -0.06727403, 0.16545142, -880088.7, -44317.566, 0.0, 9.9990425, 10.000114 
1.4049755e+3, 2.2471859e+2, -936488.25, -920114.6, 43575.617, -0.057084646, 0.18658394, -883963.44, -146190.2, 0.0, 9.998998, 9.999206 
1.4049736e+3, 2.3471785e+2, -804994.0, -802380.75, 63824.785, -0.09433233, 0.18790054, -739849.25, -100067.72, 0.0, 9.999211, 9.999238 
1.4049721e+3, 2.4471733e+2, -607918.06, -537308.94, 66512.4, -0.09285561, 0.16185212, -497312.0, 44472.63, 0.0, 9.999379, 10.000303 
1.4049709e+3, 2.5471702e+2, -485995.7, -417630.56, 53666.43, -0.048762035, 0.09001387, -388185.03, 55597.027, 0.0, 9.999499, 10.000394 
1.4049685e+3, 2.647166e+2, -480135.72, -563871.94, -17106.346, -0.036917116, 0.09324657, -476775.9, -130989.12, 0.0, 9.999729, 9.998606 
1.4049646e+3, 2.7471602e+2, -329199.53, -437976.47, -78.43991, -0.061647903, 0.17412175, -329199.47, -81400.67, 0.0, 10.000084, 9.998624 
1.4049608e+3, 2.847151e+2, -124528.805, -279611.7, 26978.74, -0.10887948, 0.21454158, -119969.53, 29840.773, 0.0, 10.000773, 9.99871 
1.4049569e+3, 2.947136e+2, 130294.055, -100708.805, 13551.914, -0.17999981, 0.18596067, 131086.38, 182908.56, 0.0, 10.001825, 9.998759 
1.404955e+3, 3.0471078e+2, 77354.02, -172411.55, 67077.805, -0.11967855, 0.064352, 94228.58, 94228.58, 0.0, 10.001436, 9.998121 
1.4049539e+3, 3.1470928e+2, -70166.96, -15304.118, 110715.67, -0.039676614, 0.09185426, 71327.79, 71327.79, 0.0, 9.999437, 10.000162 
1.4150073e+3, 1.2472132e+2, -1810734.5, -1730962.1, 76125.55, 0.098461896, 0.090634815, -1684906.5, 32833.91, 0.009556688, 9.999212, 10.000269 
1.4149997e+3, 1.3472056e+2, -1772551.9, -1816559.1, -93775.95, 0.017318364, 0.13536648, -1698232.8, -78480.92, 0.0055341963, 9.999465, 9.99889 
1.4149942e+3, 1.4471895e+2, -1599459.0, -1538937.4, 22427.355, -0.03664842, 0.01643759, -1531532.5, -9762.159, 0.0022969088, 9.999361, 10.00017 
1.414991e+3, 1.5472077e+2, -1563850.8, -1469672.9, -12577.422, -0.011827907, 0.17928074, -1468022.0, -44268.66, 0.0005425403, 9.998929, 10.000178 
1.4149879e+3, 1.6472176e+2, -1476592.6, -1363732.6, -7625.201, -0.005756595, 0.25690565, -1363219.9, -37475.266, 0.000040406845, 9.998798, 10.000297 
1.4149849e+3, 1.747219e+2, -1342825.6, -1240856.1, 7619.22, -0.0060889167, 0.2322957, -1240290.0, -12546.11, 0.00000007226826, 9.999011, 10.000365 
1.4149824e+3, 1.8472163e+2, -1232655.9, -1159658.3, 65206.902, -0.0492492, 0.18107323, -1121430.3, 8315.154, 0.0, 9.999191, 10.000162 
1.41498e+3, 1.9472094e+2, -1106058.4, -1041830.25, 68048.1, -0.14379373, 0.08731323, -998699.0, 33050.05, 0.0, 9.999362, 10.000215 
1.4149782e+3, 2.0472099e+2, -1055480.0, -1031054.1, 20540.945, -0.1246665, 0.10140234, -1019369.6, -85621.76, 0.0, 9.999315, 9.999639 
1.4149772e+3, 2.1472192e+2, -995102.1, -946075.06, 4240.7466, 0.024475409, 0.22283164, -945710.94, -109969.87, 0.0, 9.999036, 9.999682 
1.4149755e+3, 2.2472145e+2, -901327.5, -844752.94, 49978.758, 0.06396946, 0.20688514, -815611.6, -77865.99, 0.0, 9.998986, 9.999729 
1.4149734e+3, 2.3471947e+2, -767183.7, -723133.1, 72944.43, -0.0201363, 0.027777418, -668961.25, -29198.803, 0.0, 9.999207, 9.999785 
1.4149715e+3, 2.4471912e+2, -628212.2, -578952.7, 71133.2, -0.074206695, 0.004594883, -528305.9, 13458.5625, 0.0, 9.999375, 10.000021 
1.41497e+3, 2.5472057e+2, -508283.66, -462359.63, 59719.03, -0.091776475, 0.13946061, -421340.25, 22409.602, 0.0, 9.999491, 10.000092 
1.4149675e+3, 2.647207e+2, -443419.75, -487156.0, -4007.733, -0.10598511, 0.19051148, -443055.53, -97305.88, 0.0, 9.999723, 9.999136 
1.414964e+3, 2.7471942e+2, -290666.7, -357470.5, 15287.961, -0.12203943, 0.14060321, -287334.28, -39569.734, 0.0, 10.00008, 9.999181 
1.4149614e+3, 2.8471822e+2, -143517.8, -318730.38, 66661.17, -0.1347991, 0.13969284, -121039.695, 28737.91, 0.0, 10.0007715, 9.998443 
1.4149593e+3, 2.94717e+2, 109593.56, -144405.48, 56695.38, -0.13330619, 0.1700271, 121674.04, 173463.4, 0.0, 10.001828, 9.998459 
1.414957e+3, 3.0471528e+2, 119420.78, -88771.48, -4077.373, -0.059754938, 0.1419232, 119500.6, 119500.6, 0.0, 10.001448, 9.998692 
1.4149532e+3, 3.1471413e+2, -18088.13, 96374.195, 34508.438, -0.0641017, 0.14703608, 105972.95, 105972.95, 0.0, 9.999417, 10.000941 
1.4250065e+3, 1.24725334e+2, -1768525.9, -1653392.9, 29420.973, 0.09165586, 0.13979426, -1646310.4, 71394.31, 0.010011913, 9.999251, 10.000787 
1.424999e+3, 1.3472477e+2, -1777679.0, -1765766.4, -104178.32, 0.019334925, 0.1534712, -1667374.3, -47663.03, 0.0058154534, 9.9992, 9.999367 
1.4249937e+3, 1.4472324e+2, -1674616.4, -1618947.0, 29314.682, -0.0066331457, 0.040493544, -1606357.4, -84629.39, 0.002423067, 9.999038, 9.999774 
1.42499e+3, 1.5472448e+2, -1606466.5, -1536766.8, 22854.684, 0.0016829905, 0.1856183, -1529941.1, -106222.26, 0.00057589856, 9.998838, 9.999762 
1.4249866e+3, 1.6472512e+2, -1470147.0, -1371738.6, 53275.64, -0.0206407, 0.2567892, -1348421.5, -22707.531, 0.00004378684, 9.998891, 10.0001955 
1.4249836e+3, 1.7472523e+2, -1315665.5, -1236598.1, 36197.03, -0.060220253, 0.23780367, -1222530.1, 5182.659, 0.00000008454083, 9.999239, 10.000281 
1.4249812e+3, 1.8472499e+2, -1231559.3, -1159300.8, 62342.5, -0.08230557, 0.191222, -1123375.1, 6338.5127, 0.0, 9.999202, 10.000158 
1.4249794e+3, 1.9472434e+2, -1194457.6, -1084381.6, 62415.164, -0.0915713, 0.10251986, -1056204.0, -24487.47, 0.0, 9.998757, 10.000214 
1.424978e+3, 2.0472433e+2, -1111059.0, -1053517.6, 47888.504, -0.06280853, 0.10707489, -1026421.9, -92706.195, 0.0, 9.998917, 9.999676 
1.4249764e+3, 2.1472502e+2, -888160.9, -890572.4, 65211.703, 0.009845752, 0.20436308, -824143.75, 11566.693, 0.0, 9.999753, 9.99972 
1.4249748e+3, 2.2472453e+2, -746406.9, -751756.06, 102493.24, 0.0341268, 0.17662969, -646553.4, 91161.21, 0.0, 9.9999695, 9.999895 
1.4249732e+3, 2.3472273e+2, -712551.25, -676955.0, 94202.36, 0.0023390518, -0.0019082407, -598884.2, 40844.586, 0.0, 9.999496, 9.999962 
1.4249712e+3, 2.4472252e+2, -646190.3, -625033.2, 90054.51, -0.05180804, -0.004814143, -544938.06, -3207.3914, 0.0, 9.9994135, 9.999685 
1.4249693e+3, 2.547241e+2, -492361.7, -493732.9, 73870.85, -0.12965286, 0.17409956, -419173.25, 24545.434, 0.0, 9.999769, 9.9997425 
1.4249669e+3, 2.6472414e+2, -380254.2, -441155.03, -1018.8783, -0.1520391, 0.22974136, -380237.13, -34517.32, 0.0, 10.000091, 9.999275 
1.4249644e+3, 2.7472258e+2, -236581.86, -315121.6, -14626.907, -0.11804232, 0.13772786, -233946.27, 13788.59, 0.0, 10.000376, 9.9993305 
1.424962e+3, 2.8472134e+2, -202831.78, -328146.38, 36939.9, -0.10530821, 0.11940325, -192753.3, -43006.17, 0.0, 10.000281, 9.998613 
1.4249603e+3, 2.9472047e+2, -176744.94, -262983.5, 58333.26, -0.10545158, 0.16298373, -147324.28, -95567.55, 0.0, 9.99978, 9.998629 
1.4249578e+3, 3.0471945e+2, -109688.875, -233632.5, -42223.87, -0.046278954, 0.21513508, -96671.62, -96671.62, 0.0, 10.000027, 9.998379 
1.4249532e+3, 3.1471792e+2, 206058.14, 170970.88, -80776.06, -0.08554453, 0.2100497, 271173.75, 271173.75, 0.0, 10.0011, 10.000644 
1.4350054e+3, 1.247286e+2, -1706408.5, -1524711.9, 16201.19, 0.052812975, 0.17151642, -1523278.6, 194401.44, 0.010506618, 9.999247, 10.001681 
1.4349982e+3, 1.3473015e+2, -1714765.8, -1633262.3, -106149.38, 0.027147135, 0.30594254, -1560310.9, 59351.074, 0.006123269, 9.999193, 10.00028 
1.434993e+3, 1.4472905e+2, -1674115.5, -1619556.9, 19563.236, 0.029255837, 0.18826857, -1613267.1, -91594.99, 0.002563054, 9.9990425, 9.999769 
1.4349888e+3, 1.5472832e+2, -1607146.1, -1539708.4, 15498.382, -0.0033842525, 0.1388333, -1536317.1, -112636.15, 0.0006133788, 9.998844, 9.99974 
1.4349851e+3, 1.6472802e+2, -1504162.6, -1443517.8, 63811.223, -0.058898207, 0.1399198, -1403190.9, -77505.89, 0.000047750204, 9.998896, 9.999702 
1.4349821e+3, 1.7472829e+2, -1351580.4, -1311185.8, 49202.457, -0.1255789, 0.1868967, -1278196.5, -50513.59, 0.00000010052836, 9.999238, 9.999771 
1.4349803e+3, 1.8472841e+2, -1234277.0, -1164308.8, 44575.37, -0.08770999, 0.2067079, -1142628.5, -12947.729, 0.0, 9.999198, 10.000127 
1.4349799e+3, 1.9472839e+2, -1195496.4, -1086862.9, 45875.336, 0.06481782, 0.18298352, -1070082.1, -38403.664, 0.0, 9.998756, 10.000197 
1.4349781e+3, 2.0472828e+2, -1077624.4, -983279.94, 77078.484, 0.05992677, 0.15433036, -940084.5, -6406.5938, 0.0, 9.998912, 10.000161 
1.4349748e+3, 2.1472806e+2, -853227.06, -818359.25, 97588.73, -0.11741116, 0.108343944, -736659.4, 99019.85, 0.0, 9.999752, 10.000216 
1.4349729e+3, 2.2472785e+2, -760685.2, -781163.75, 85217.375, -0.1534007, 0.094233066, -685094.1, 52585.844, 0.0, 9.999967, 9.999695 
1.4349723e+3, 2.3472771e+2, -728675.9, -709391.6, 77447.85, -0.033044215, 0.10204898, -640988.0, -1308.0577, 0.0, 9.99949, 9.999743 
1.4349708e+3, 2.4472757e+2, -674875.3, -682452.94, 102195.17, -0.03381071, 0.13737184, -576398.75, -34715.883, 0.0, 9.999402, 9.999297 
1.4349686e+3, 2.5472748e+2, -520590.78, -551819.4, 88806.41, -0.16732965, 0.1910075, -446036.44, -2347.659, 0.0, 9.999764, 9.999346 
1.4349668e+3, 2.6472682e+2, -398258.56, -477926.38, 10317.779, -0.17848322, 0.20743006, -396944.0, -51246.46, 0.0, 10.000086, 9.999026 
1.4349653e+3, 2.7472553e+2, -255097.5, -352015.13, -1378.3506, -0.05502817, 0.1697925, -255077.9, -7368.78, 0.0, 10.000368, 9.999082 
1.4349632e+3, 2.8472453e+2, -163373.33, -244785.77, 18947.605, -0.029450165, 0.1584644, -159179.56, -9461.167, 0.0, 10.000274, 9.99919 
1.43496e+3, 2.9472387e+2, -138246.56, -178742.22, 41511.56, -0.106142625, 0.16259159, -112307.984, -60583.203, 0.0, 9.99976, 9.999217 
1.4349575e+3, 3.047233e+2, -192820.36, -403241.44, -2751.4158, -0.08549954, 0.28293207, -192784.39, -192784.39, 0.0, 10.000012, 9.997222 
1.434954e+3, 3.1472075e+2, 107815.26, -31822.115, -39774.21, -0.115622595, 0.30327418, 118349.77, 118349.77, 0.0, 10.001094, 9.999253 
1.4450043e+3, 1.24732114e+2, -1771045.8, -1538776.6, 46951.16, 0.04186421, 0.17795037, -1529644.9, 188003.53, 0.011047917, 9.9987335, 10.001831 
1.4449969e+3, 1.3473417e+2, -1826511.6, -1667489.1, -131143.5, 0.023814632, 0.34360692, -1593635.9, 25989.992, 0.00646129, 9.998344, 10.000453 
1.444992e+3, 1.4473349e+2, -1751597.9, -1646755.0, -10038.242, 0.049480125, 0.25742003, -1645802.5, -124171.01, 0.0027186894, 9.99847, 9.999856 
1.4449881e+3, 1.547326e+2, -1543205.1, -1497471.3, -5709.432, 0.013525531, 0.18254144, -1496769.3, -73128.42, 0.0006559602, 9.999237, 9.999837 
1.4449845e+3, 1.6473201e+2, -1429471.3, -1427410.5, 51192.227, -0.03893385, 0.15731233, -1377238.3, -51591.35, 0.000052490832, 9.999499, 9.999517 
1.4449817e+3, 1.7473179e+2, -1366401.1, -1340256.8, 57102.73, -0.09269669, 0.17579046, -1294749.1, -67100.1, 0.00000012546444, 9.999232, 9.999573 
1.4449798e+3, 1.8473175e+2, -1245187.5, -1187920.0, 56024.4, -0.067173794, 0.1962489, -1153636.1, -23987.479, 0.0, 9.999204, 9.99996 
1.4449787e+3, 1.9473192e+2, -1107149.3, -1062436.6, 43304.414, 0.039680265, 0.20841518, -1036058.1, -4412.741, 0.0, 9.999445, 10.000032 
1.444977e+3, 2.0473175e+2, -1022414.8, -978818.44, 56489.65, 0.034135614, 0.19266358, -940067.1, -6420.898, 0.0, 9.999387, 9.999962 
1.4449745e+3, 2.147312e+2, -977328.56, -899954.75, 22791.55, -0.09424228, 0.13371782, -893740.3, -58088.777, 0.0, 9.998997, 10.000018 
1.4449726e+3, 2.2473109e+2, -881562.6, -822416.3, -8990.626, -0.1257287, 0.13161063, -821079.9, -83428.11, 0.0, 9.999064, 9.9998455 
1.4449716e+3, 2.3473151e+2, -696188.5, -676331.1, 8840.788, -0.052259497, 0.18067276, -672965.5, -33319.414, 0.0, 9.999639, 9.999899 
1.44497e+3, 2.4473143e+2, -623639.25, -674033.4, 59370.324, -0.06388916, 0.22134152, -584340.4, -42691.71, 0.0, 9.999822, 9.999154 
1.4449683e+3, 2.5473082e+2, -560144.4, -587393.0, 62243.063, -0.16941664, 0.23902671, -510051.97, -66391.96, 0.0, 9.999562, 9.9992 
1.4449668e+3, 2.6473004e+2, -459568.47, -482156.75, 20014.104, -0.16509718, 0.23916596, -447881.72, -102212.164, 0.0, 9.999556, 9.999252 
1.4449656e+3, 2.7472907e+2, -315950.7, -353917.1, 43408.016, -0.04093494, 0.20717552, -287556.5, -39879.76, 0.0, 9.999834, 9.999325 
1.4449634e+3, 2.847281e+2, -171240.97, -251416.95, 53402.625, -0.026135545, 0.18974793, -144554.06, 5131.03, 0.0, 10.00023, 9.9991665 
1.4449601e+3, 2.9472724e+2, 4533.5156, -114205.54, 25942.76, -0.1268635, 0.17573401, 9954.169, 61648.523, 0.0, 10.000755, 9.999183 
1.4449577e+3, 3.0472693e+2, -31813.027, -330847.94, 24612.215, -0.11587194, 0.32845056, -29800.848, -29800.848, 0.0, 10.001141, 9.997176 
1.444955e+3, 3.147241e+2, 124849.34, -59474.98, 67432.28, -0.13296907, 0.31765184, 146884.28, 146884.28, 0.0, 10.001369, 9.998929 
1.455003e+3, 1.2473603e+2, -1813012.5, -1628976.0, 25514.975, 0.047094055, 0.16278018, -1625504.1, 92104.164, 0.011640448, 9.998747, 10.0012 
1.4549951e+3, 1.3473687e+2, -1869078.4, -1756713.6, -146581.31, 0.004953009, 0.26648173, -1655916.5, -36314.324, 0.0068325973, 9.998345, 9.99984 
1.4549905e+3, 1.4473666e+2, -1737676.4, -1618409.3, 14488.732, 0.047306098, 0.25052312, -1616674.4, -95069.18, 0.0028915813, 9.998472, 10.00005 
1.4549875e+3, 1.5473743e+2, -1527396.0, -1464345.0, 23577.71, 0.045342788, 0.31836936, -1456503.4, -32905.95, 0.00070428615, 9.999237, 10.000064 
1.4549847e+3, 1.6473718e+2, -1420842.5, -1411915.1, 40361.668, 0.03024367, 0.31081423, -1375771.0, -50172.06, 0.000058062662, 9.999507, 9.999622 
1.4549823e+3, 1.7473581e+2, -1357959.3, -1325217.3, 47492.625, 0.032744937, 0.2029399, -1291353.3, -63742.535, 0.00000016567238, 9.99924, 9.999674 
1.4549793e+3, 1.8473502e+2, -1267820.4, -1234560.8, 63075.34, -0.029427705, 0.15974332, -1185959.8, -56342.688, 0.0, 9.999202, 9.999641 
1.454976e+3, 1.9473493e+2, -1130227.0, -1110966.8, 52782.05, -0.17310648, 0.17813441, -1066943.5, -35326.266, 0.0, 9.999447, 9.999698 
1.4549746e+3, 2.0473473e+2, -1085977.3, -1110023.5, 40565.055, -0.14605416, 0.22200736, -1055691.0, -122070.44, 0.0, 9.999382, 9.999064 
1.4549752e+3, 2.1473446e+2, -1041552.25, -1032329.4, 8397.663, 0.07520439, 0.28146172, -1027360.3, -191733.08, 0.0, 9.998991, 9.999113 
1.4549741e+3, 2.2473425e+2, -848931.7, -752281.94, 10264.956, 0.11135403, 0.29095215, -751203.75, -13573.937, 0.0, 9.999052, 10.000334 
1.4549711e+3, 2.3473412e+2, -659326.6, -599761.1, 31377.377, -0.05968516, 0.23210354, -586282.44, 53345.207, 0.0, 9.999637, 10.000426 
1.454969e+3, 2.4473406e+2, -616318.7, -658332.94, 49915.742, -0.1465264, 0.24386457, -583169.75, -41541.348, 0.0, 9.999818, 9.999265 
1.4549682e+3, 2.5473416e+2, -554550.4, -574141.9, 54018.555, -0.14034918, 0.3204982, -509446.56, -65814.445, 0.0, 9.999554, 9.999296 
1.4549668e+3, 2.6473382e+2, -411841.75, -380707.94, 30158.938, -0.11927589, 0.32767332, -362335.34, -16699.736, 0.0, 9.999544, 9.999955 
1.454965e+3, 2.747331e+2, -266779.3, -249481.39, 55901.777, -0.08380799, 0.248042, -201563.47, 46074.504, 0.0, 9.999823, 10.000048 
1.454963e+3, 2.8473204e+2, -213983.72, -339248.4, 73529.86, -0.10156922, 0.21060759, -180026.97, -30379.441, 0.0, 10.000225, 9.998567 
1.4549604e+3, 2.947306e+2, -42159.01, -210054.89, 48482.7, -0.1734203, 0.20400047, -29164.55, 22500.658, 0.0, 10.00075, 9.998528 
1.4549586e+3, 3.0473042e+2, 43208.07, -177092.64, 35249.48, -0.14622696, 0.35240772, 48710.758, 48710.758, 0.0, 10.001146, 9.99823 
1.4549562e+3, 3.14728e+2, 171134.72, 36661.06, 76266.34, -0.15283525, 0.2738688, 205570.63, 205570.63, 0.0, 10.001365, 9.999595 
1.465001e+3, 1.2473975e+2, -2000390.8, -1745806.0, 24739.512, 0.016970964, 0.16192028, -1743424.3, -25852.832, 0.012283002, 9.9975815, 10.000952 
1.4649937e+3, 1.3474017e+2, -1758311.3, -1727850.9, -116175.984, -0.019325115, 0.24611573, -1625911.0, -6340.0415, 0.00723705, 9.999212, 9.9996195 
1.4649895e+3, 1.4474009e+2, -1547746.0, -1537572.1, 34769.22, 0.040260114, 0.25781426, -1507519.8, 14053.778, 0.0030819494, 9.999824, 9.999951 
1.4649868e+3, 1.5474078e+2, -1510747.1, -1466094.8, 16735.158, 0.03699276, 0.32590482, -1460519.0, -36952.727, 0.0007585455, 9.999392, 9.999977 
1.4649841e+3, 1.6474053e+2, -1447957.5, -1419831.0, 15320.645, 0.027349249, 0.32117617, -1413097.6, -87530.15, 0.00006440502, 9.999299, 9.999668 
1.4649819e+3, 1.7473926e+2, -1301875.8, -1291433.3, 16261.272, 0.043075398, 0.2186812, -1279575.5, -51997.254, 0.00000022299002, 9.9996, 9.99973 
1.464979e+3, 1.8473856e+2, -1203022.4, -1227042.8, 38723.785, -0.012968193, 0.19115849, -1174489.0, -44904.617, 0.0, 9.999751, 9.999427 
1.4649758e+3, 1.9473852e+2, -1102907.1, -1122993.0, 35228.117, -0.1607951, 0.23795997, -1076318.4, -44733.355, 0.0, 9.999744, 9.999472 
1.4649743e+3, 2.0473804e+2, -1049315.5, -1107510.1, 43855.164, -0.13380529, 0.27020356, -1025782.7, -92191.47, 0.0, 9.999701, 9.998928 
1.4649746e+3, 2.1473707e+2, -960935.94, -1008983.2, 66698.65, 0.08987011, 0.27440056, -914066.4, -78463.14, 0.0, 9.999614, 9.998973 
1.4649735e+3, 2.247367e+2, -786098.25, -733445.6, 95860.45, 0.122987725, 0.28145686, -660362.2, 77245.34, 0.0, 9.999534, 10.000231 
1.4649707e+3, 2.3473701e+2, -693242.25, -627296.75, 67579.805, -0.057825767, 0.27739593, -585074.9, 54528.08, 0.0, 9.999454, 10.000325 
1.4649688e+3, 2.4473707e+2, -656284.6, -634167.25, 56733.895, -0.14654237, 0.28508148, -587424.3, -45822.063, 0.0, 9.999359, 9.99965 
1.4649676e+3, 2.5473687e+2, -570988.9, -537250.1, 80603.484, -0.13392211, 0.29283416, -471769.66, -28164.168, 0.0, 9.99925, 9.999695 
1.4649662e+3, 2.647366e+2, -425728.6, -400547.78, 63909.31, -0.11544411, 0.29150262, -348000.5, -2392.9172, 0.0, 9.999506, 9.999837 
1.4649649e+3, 2.7473632e+2, -226991.58, -245788.7, 23560.768, -0.091442704, 0.2697706, -211023.97, 36583.785, 0.0, 10.000161, 9.999911 
1.4649631e+3, 2.847354e+2, -203264.36, -349587.94, 13698.344, -0.10050824, 0.26118383, -201993.02, -52375.918, 0.0, 10.000366, 9.9984255 
1.4649612e+3, 2.947338e+2, -147191.14, -276063.88, 23302.742, -0.14211926, 0.2522033, -143106.98, -91470.38, 0.0, 10.000096, 9.998386 
1.4649595e+3, 3.0473346e+2, -35433.88, -137574.03, 31144.318, -0.1250335, 0.36033794, -26686.557, -26686.557, 0.0, 10.000275, 9.9989195 
1.4649573e+3, 3.1473112e+2, 131943.9, 52153.51, 35686.176, -0.16430956, 0.21346346, 145575.63, 145575.63, 0.0, 10.00095, 9.999897 
1.4749978e+3, 1.2474339e+2, -1989907.9, -1725358.3, 78204.805, -0.05733498, 0.17801642, -1703969.0, 13567.898, 0.012969953, 9.997584, 10.001092 
1.4749925e+3, 1.3474423e+2, -1744396.1, -1700418.4, -54786.656, -0.058599904, 0.28291938, -1663372.6, -43841.406, 0.0076708426, 9.999218, 9.9998045 
1.4749892e+3, 1.4474389e+2, -1574379.5, -1598274.3, 17972.875, 0.016667373, 0.28152657, -1564745.4, -43209.78, 0.0032881629, 9.999844, 9.999527 
1.4749858e+3, 1.5474269e+2, -1540276.9, -1528071.5, 398.3042, -0.015931832, 0.20374353, -1528058.5, -104511.78, 0.00081847684, 9.999393, 9.999553 
1.4749825e+3, 1.6474213e+2, -1449806.3, -1422419.3, 23608.629, -0.05552971, 0.1889209, -1408820.3, -83268.125, 0.000071419374, 9.999294, 9.999652 
1.4749803e+3, 1.7474224e+2, -1302092.4, -1292414.6, 27833.104, -0.06918484, 0.22391827, -1269002.9, -41451.58, 0.0000002932695, 9.999602, 9.9997225 
1.4749786e+3, 1.8474242e+2, -1210312.0, -1243386.4, 37448.746, -0.025700089, 0.29180124, -1185911.6, -56361.293, 0.0, 9.999754, 9.999314 
1.4749779e+3, 1.9474275e+2, -1109692.5, -1139183.4, 35635.684, 0.07220536, 0.3872687, -1085872.0, -54323.664, 0.0, 9.99975, 9.999359 
1.474976e+3, 2.0474167e+2, -1007691.4, -1020458.06, 39094.688, 0.064075164, 0.33693627, -974462.3, -40904.594, 0.0, 9.999697, 9.999528 
1.4749728e+3, 2.1473902e+2, -917515.0, -918545.75, 64023.293, -0.05751179, 0.110844806, -854005.0, -18425.668, 0.0, 9.999611, 9.999595 
1.4749709e+3, 2.2473846e+2, -837387.75, -838221.06, 91869.586, -0.09779215, 0.100556925, -745933.9, -8349.08, 0.0, 9.999525, 9.9995165 
1.4749703e+3, 2.3474023e+2, -745901.75, -735864.56, 65840.99, -0.052133854, 0.31693992, -674851.2, -35279.227, 0.0, 9.999449, 9.999582 
1.474969e+3, 2.4474043e+2, -612058.06, -540310.4, 52193.71, -0.06975424, 0.34582168, -512850.84, 28719.277, 0.0, 9.999349, 10.0003 
1.4749667e+3, 2.5473893e+2, -523966.03, -437423.72, 78171.43, -0.15685087, 0.1537717, -391346.3, 52233.938, 0.0, 9.99924, 10.000385 
1.4749655e+3, 2.6473832e+2, -492982.78, -538726.56, 88516.555, -0.15912557, 0.12816519, -424430.9, -78845.1, 0.0, 9.999498, 9.998893 
1.4749654e+3, 2.747387e+2, -298047.22, -391171.1, 50539.492, -0.06963392, 0.27430373, -275890.5, -28304.52, 0.0, 10.000152, 9.998918 
1.4749642e+3, 2.847382e+2, -183205.67, -306438.56, 4379.9937, -0.029136678, 0.34470606, -183050.2, -33456.547, 0.0, 10.000359, 9.998727 
1.4749622e+3, 2.947368e+2, -125344.52, -227973.72, 15381.647, -0.038758703, 0.32050803, -123088.766, -71479.83, 0.0, 10.000084, 9.998724 
1.4749606e+3, 3.0473605e+2, -11271.159, -87098.69, 56256.3, -0.05642684, 0.3521926, 18654.777, 18654.777, 0.0, 10.00027, 9.9992695 
1.474958e+3, 3.147336e+2, 126220.55, 43257.402, 62786.348, -0.18235639, 0.15947509, 159990.86, 159990.86, 0.0, 10.000934, 9.9998455 
1.4849953e+3, 1.24746636e+2, -1889314.4, -1668566.9, 55679.684, -0.08955849, 0.23316933, -1655317.8, 62189.04, 0.013700781, 9.998239, 10.00117 
1.484991e+3, 1.3474715e+2, -1854250.8, -1738509.1, -82896.39, -0.08611937, 0.29052877, -1695281.8, -75777.91, 0.00813248, 9.998401, 9.999937 
1.4849883e+3, 1.4474694e+2, -1722513.0, -1666258.3, -21437.977, 0.0030906657, 0.29632974, -1659019.9, -137513.77, 0.0035089266, 9.9988165, 9.999555 
1.484985e+3, 1.547455e+2, -1511383.9, -1509152.4, -6080.4023, -0.036772583, 0.18912183, -1504086.3, -80566.83, 0.0008836724, 9.999574, 9.999594 
1.4849819e+3, 1.6474497e+2, -1374517.5, -1403385.4, 28700.629, -0.077655055, 0.1859845, -1356825.6, -31301.07, 0.00007901186, 9.999887, 9.9994955 
1.4849797e+3, 1.7474549e+2, -1294288.5, -1307388.1, 18212.281, -0.08532971, 0.27749336, -1281484.0, -53962.74, 0.00000037325287, 9.999736, 9.999555 
1.4849783e+3, 1.8474557e+2, -1229071.9, -1254728.9, 22506.18, -0.018412607, 0.34340665, -1215994.8, -86472.85, 0.0, 9.999637, 9.999292 
1.484978e+3, 1.9474524e+2, -1133512.4, -1151984.8, 25592.717, 0.118384086, 0.37423688, -1115540.3, -84014.266, 0.0, 9.999596, 9.999344 
1.4849761e+3, 2.0474415e+2, -970555.0, -966715.6, 31392.865, 0.10819832, 0.30780655, -937183.8, -3649.4482, 0.0, 9.999799, 9.9998455 
1.4849727e+3, 2.1474218e+2, -800221.9, -826635.6, 31981.398, -0.06108994, 0.11808436, -778827.75, 56719.95, 0.0, 10.000265, 9.999911 
1.4849706e+3, 2.2474168e+2, -743207.25, -831565.1, 48650.37, -0.11703527, 0.1151252, -721669.8, 15882.445, 0.0, 10.000341, 9.999167 
1.48497e+3, 2.3474284e+2, -693608.1, -752913.94, 46787.43, -0.053597532, 0.3070047, -667868.25, -28321.525, 0.0, 9.999993, 9.999202 
1.4849687e+3, 2.4474284e+2, -540067.1, -497159.84, 32657.807, -0.057078462, 0.3336874, -479539.3, 62007.754, 0.0, 9.999808, 10.000374 
1.4849663e+3, 2.5474164e+2, -437455.47, -386739.25, 10501.107, -0.13482118, 0.16341674, -384650.9, 58902.6, 0.0, 9.999796, 10.000464 
1.4849654e+3, 2.6474103e+2, -433060.66, -533602.2, 48377.43, -0.14059088, 0.1449759, -413563.78, -68004.8, 0.0, 10.000013, 9.998678 
1.4849655e+3, 2.747411e+2, -263619.84, -399517.13, 67104.44, -0.07003235, 0.28025913, -236069.69, 11493.414, 0.0, 10.000497, 9.998693 
1.4849648e+3, 2.8474036e+2, -122189.08, -275755.0, 17463.748, -0.03137371, 0.33724663, -120228.12, 29344.82, 0.0, 10.000773, 9.998736 
1.4849629e+3, 2.9473883e+2, -17588.672, -174815.56, 124.01558, -0.023316933, 0.29868472, -17588.574, 33999.695, 0.0, 10.000819, 9.998734 
1.4849612e+3, 3.0473778e+2, 62961.39, -44333.055, 32251.527, -0.03967887, 0.29611897, 71909.58, 71909.58, 0.0, 10.000752, 9.99933 
1.4849591e+3, 3.147362e+2, 62178.25, -3091.6443, 12372.523, -0.15220691, 0.18553695, 64444.867, 64444.867, 0.0, 10.000564, 9.999702 
1.4949937e+3, 1.2474965e+2, -1889017.1, -1669804.1, 57680.496, -0.08773963, 0.33626893, -1655553.4, 61926.188, 0.014485426, 9.998247, 10.001158 
1.4949892e+3, 1.3474898e+2, -1851738.4, -1732244.3, -77643.84, -0.10389639, 0.2687484, -1694020.5, -74532.305, 0.008627366, 9.998397, 9.999982 
1.494987e+3, 1.4474933e+2, -1687349.4, -1594926.0, 4041.3325, -0.006971453, 0.3031762, -1594749.5, -73264.71, 0.0037456865, 9.99882, 10.000043 
1.4949846e+3, 1.5474926e+2, -1475238.1, -1435269.0, 22804.602, -0.034066807, 0.28255045, -1424931.4, -1447.8845, 0.0009542572, 9.9995775, 10.000099 
1.4949822e+3, 1.6474919e+2, -1395701.9, -1449266.1, 22317.227, -0.04759547, 0.3145304, -1387622.3, -62138.004, 0.00008722728, 9.999894, 9.999178 
1.4949802e+3, 1.7474909e+2, -1317944.8, -1357336.0, 12743.306, -0.0085296575, 0.37928683, -1314181.6, -86693.805, 0.0000004647829, 9.999739, 9.999211 
1.4949782e+3, 1.8474802e+2, -1225514.3, -1246478.9, 19239.6, 0.0020124146, 0.3460098, -1214086.8, -84587.71, 0.0, 9.999632, 9.9993515 
1.4949761e+3, 1.9474599e+2, -1128300.5, -1141557.3, 24431.031, -0.029857637, 0.19764748, -1109614.6, -78097.18, 0.0, 9.999597, 9.999414 
1.4949748e+3, 2.0474544e+2, -969684.44, -964318.3, 47256.855, -0.009057614, 0.18171513, -919668.44, 13852.584, 0.0, 9.999795, 9.999866 
1.4949743e+3, 2.1474656e+2, -797949.3, -822557.5, 50375.695, 0.074612044, 0.29785287, -758396.9, 77110.98, 0.0, 10.000267, 9.999938 
1.4949727e+3, 2.2474638e+2, -745380.44, -835413.75, 34549.668, 0.05969763, 0.32718524, -733650.44, 3859.0796, 0.0, 10.000337, 9.999145 
1.4949699e+3, 2.3474482e+2, -695740.6, -755921.2, 34244.348, -0.06738868, 0.24796975, -680244.75, -40717.414, 0.0, 9.999986, 9.999186 
1.4949678e+3, 2.4474429e+2, -578201.9, -574357.6, 31732.588, -0.11454487, 0.24828216, -544489.0, -2955.8523, 0.0, 9.999799, 9.999849 
1.4949667e+3, 2.54745e+2, -475980.25, -465605.7, 11600.677, -0.072112806, 0.3238307, -458085.34, -14560.008, 0.0, 9.999791, 9.999926 
1.4949661e+3, 2.6474476e+2, -397299.13, -458019.97, 65949.55, -0.065157965, 0.34321502, -355057.22, -9530.016, 0.0, 10.000007, 9.999201 
1.4949659e+3, 2.7474347e+2, -225819.7, -318822.28, 87379.72, -0.09988602, 0.28702962, -173338.25, 74201.06, 0.0, 10.000487, 9.999252 
1.4949648e+3, 2.8474182e+2, -143456.03, -319831.16, 20210.621, -0.115002535, 0.23859577, -141169.75, 8385.427, 0.0, 10.000771, 9.998437 
1.4949629e+3, 2.947398e+2, -42194.453, -224746.33, 4249.123, -0.10436469, 0.18718228, -42095.6, 9479.257, 0.0, 10.000812, 9.998397 
1.4949615e+3, 3.0473855e+2, 45231.676, -80042.914, 25376.738, -0.08328941, 0.1924138, 50176.992, 50176.992, 0.0, 10.000746, 9.999088 
1.4949605e+3, 3.147388e+2, 43872.1, -38608.367, 9683.863, -0.08849429, 0.29165694, 44993.813, 44993.813, 0.0, 10.000551, 9.999466 
1.5049915e+3, 1.2475091e+2, -2093464.8, -1762958.1, 31593.111, -0.06930221, 0.33637923, -1759965.3, -42497.6, 0.015336173, 9.996824, 10.001199 
1.5049875e+3, 1.347503e+2, -1903798.8, -1745225.8, -102297.055, -0.10867128, 0.26362944, -1695086.4, -75610.54, 0.0091627855, 9.997987, 10.000091 
1.5049858e+3, 1.447512e+2, -1690998.1, -1570397.6, -30653.46, -0.011634271, 0.33566478, -1563053.5, -41586.156, 0.0040015904, 9.998684, 10.000277 
1.5049838e+3, 1.5475126e+2, -1546099.1, -1442235.8, -34425.805, -0.04054358, 0.303684, -1431861.4, -8396.633, 0.001031135, 9.998972, 10.000344 
1.5049817e+3, 1.6475128e+2, -1482131.5, -1466727.4, -42798.42, -0.044019803, 0.32041526, -1430943.5, -105479.1, 0.000096309515, 9.999195, 9.999396 
1.5049802e+3, 1.7475122e+2, -1359710.3, -1352313.4, -12136.09, 0.019747758, 0.3674935, -1343324.8, -115857.9, 0.000000575819, 9.999345, 9.999435 
1.5049781e+3, 1.8475017e+2, -1218694.8, -1230175.8, 27126.045, 0.020945285, 0.31952232, -1196708.5, -67231.336, 0.0, 9.999624, 9.999466 
1.5049756e+3, 1.9474812e+2, -1052229.3, -1093309.9, 33363.027, -0.061149698, 0.1595819, -1033590.56, -2095.2834, 0.0, 10.000069, 9.999519 
1.5049745e+3, 2.047478e+2, -922482.5, -970904.0, 47789.254, -0.039829005, 0.1743475, -893121.1, 40376.664, 0.0, 10.000246, 9.999602 
1.5049747e+3, 2.1474944e+2, -837459.06, -872587.3, 25699.135, 0.09792774, 0.36844438, -823895.3, 11587.376, 0.0, 10.00013, 9.9996605 
1.5049733e+3, 2.2474916e+2, -763407.4, -819532.4, -2999.859, 0.10158247, 0.39239937, -763247.5, -25762.363, 0.0, 10.00011, 9.999361 
1.50497e+3, 2.3474684e+2, -650413.7, -708776.44, 12877.493, -0.046922978, 0.21595898, -647698.6, -8192.209, 0.0, 10.000189, 9.999411 
1.504968e+3, 2.4474604e+2, -541147.6, -619090.7, 28811.307, -0.101636246, 0.2033749, -531654.0, 9860.729, 0.0, 10.000326, 9.999287 
1.5049672e+3, 2.5474697e+2, -408520.9, -498969.22, 2263.8538, -0.054672197, 0.35717842, -408464.25, 35044.14, 0.0, 10.000539, 9.999336 
1.5049666e+3, 2.6474664e+2, -285799.84, -367718.34, 52421.273, -0.047533028, 0.38620105, -260233.55, 85277.54, 0.0, 10.000618, 9.999526 
1.5049665e+3, 2.7474508e+2, -193652.64, -264657.9, 55992.49, -0.08649603, 0.2657096, -162855.98, 84667.04, 0.0, 10.000543, 9.999598 
1.5049657e+3, 2.8474346e+2, -139649.14, -313871.28, -1268.5375, -0.106295414, 0.2022568, -139639.9, 9896.977, 0.0, 10.000782, 9.998471 
1.504964e+3, 2.9474187e+2, 43227.355, -180192.4, 7299.4795, -0.102987014, 0.18952769, 43465.59, 95018.17, 0.0, 10.001388, 9.998425 
1.5049626e+3, 3.0474013e+2, 128449.125, -111562.7, 11767.979, -0.092810474, 0.17918389, 129024.734, 129024.734, 0.0, 10.001628, 9.998447 
1.5049614e+3, 3.1474054e+2, 141051.58, -45132.53, -38275.527, -0.08068533, 0.35596874, 148613.13, 148613.13, 0.0, 10.001451, 9.998989 
1.5149885e+3, 1.2475054e+2, -2084672.0, -1745857.1, 72048.38, -0.04141471, 0.2418398, -1731172.5, -13702.611, 0.016257107, 9.996828, 10.001314 
1.5149854e+3, 1.347512e+2, -1890113.9, -1718061.1, -59078.813, -0.10753916, 0.277021, -1699728.3, -80262.39, 0.009740974, 9.99799, 10.000277 
1.5149844e+3, 1.4475264e+2, -1693628.6, -1577898.8, -21842.533, -0.020614358, 0.39654687, -1573913.5, -52460.613, 0.0042781597, 9.998691, 10.000222 
1.5149826e+3, 1.5475152e+2, -1549217.8, -1448686.6, -23300.412, -0.06086804, 0.25178775, -1443548.9, -20085.873, 0.0011151112, 9.998971, 10.000301 
1.5149806e+3, 1.6475126e+2, -1427288.1, -1353411.5, -38803.582, -0.07454438, 0.20416051, -1336776.0, -11311.237, 0.000106548556, 9.999196, 10.000174 
1.5149792e+3, 1.747519e+2, -1304258.8, -1237842.1, -6407.479, -0.008744032, 0.24212217, -1237229.6, -9771.842, 0.0000007145684, 9.999346, 10.000221 
1.5149778e+3, 1.8475203e+2, -1207787.6, -1207537.9, 42418.223, 0.029220711, 0.26493233, -1165244.4, -35788.45, 0.0, 9.999623, 9.999623 
1.5149766e+3, 1.9475171e+2, -1042008.56, -1072587.3, 50681.6, 0.020578671, 0.26244134, -1004360.3, 27098.549, 0.0, 10.000071, 9.999661 
1.5149753e+3, 2.0475128e+2, -962873.44, -1054235.6, 42371.94, 0.009839081, 0.28710565, -946247.7, -12783.366, 0.0, 10.000243, 9.999033 
1.514974e+3, 2.1475081e+2, -879951.06, -958694.6, 21748.984, 0.002882902, 0.32890514, -874343.4, -38871.176, 0.0, 10.00012, 9.999074 
1.5149726e+3, 2.2475003e+2, -733774.5, -754788.0, -794.46356, 0.0008561948, 0.30979288, -733744.56, 3734.352, 0.0, 10.000094, 9.999814 
1.5149708e+3, 2.3474896e+2, -616883.0, -639080.6, 17409.563, 0.0032543708, 0.21111058, -607335.4, 32148.533, 0.0, 10.000188, 9.99989 
1.5149692e+3, 2.4474809e+2, -585487.1, -710325.7, 36298.03, -0.025951853, 0.19785516, -575700.4, -34208.586, 0.0, 10.000321, 9.998663 
1.5149672e+3, 2.5474748e+2, -455241.28, -593676.7, 11865.195, -0.089688815, 0.26368883, -454231.7, -10729.029, 0.0, 10.000528, 9.998691 
1.5149668e+3, 2.6474673e+2, -279419.16, -352434.22, 50313.633, -0.094576016, 0.27548203, -253763.5, 91747.0, 0.0, 10.000608, 9.999637 
1.5149675e+3, 2.747459e+2, -186392.27, -247746.02, 55202.04, -0.03427646, 0.21766944, -153915.88, 93598.48, 0.0, 10.000534, 9.999718 
1.5149674e+3, 2.847453e+2, -112993.41, -258261.66, 20611.176, -0.011412784, 0.22960483, -110125.63, 39392.56, 0.0, 10.000778, 9.998857 
1.5149662e+3, 2.94745e+2, 71107.0, -123046.234, 32388.852, -0.02626501, 0.30655614, 76367.6, 127889.125, 0.0, 10.001388, 9.998818 
1.5149646e+3, 3.0474254e+2, 53743.86, -267331.13, 6749.0947, -0.07503263, 0.2571569, 53885.664, 53885.664, 0.0, 10.001629, 9.997378 
1.5149623e+3, 3.1474105e+2, 90457.88, -147560.52, -37276.777, -0.14580022, 0.3576793, 96159.336, 96159.336, 0.0, 10.001436, 9.998293 
1.5249856e+3, 1.24750964e+2, -1885004.0, -1645149.9, 114371.805, -0.08309932, 0.21107425, -1599356.0, 118108.414, 0.017244658, 9.998174, 10.001369 
1.5249833e+3, 1.3475133e+2, -1830248.5, -1673237.6, -26302.428, -0.13195841, 0.20079699, -1668948.6, -49485.957, 0.010359608, 9.998332, 10.00042 
1.5249829e+3, 1.4475323e+2, -1732305.9, -1564067.0, 1586.9507, -0.019543543, 0.3470714, -1564052.1, -42607.137, 0.0045741852, 9.998284, 10.000515 
1.5249811e+3, 1.5475287e+2, -1660593.8, -1467327.3, 25025.018, -0.056626692, 0.24755737, -1464139.5, -40691.227, 0.0012060112, 9.998056, 10.000614 
1.5249793e+3, 1.6475289e+2, -1527592.1, -1390265.6, 21999.867, -0.08374834, 0.20567508, -1386827.3, -61379.563, 0.000118081814, 9.998462, 10.000274 
1.5249783e+3, 1.7475322e+2, -1261226.5, -1206708.8, -10.352837, -0.049888644, 0.20528926, -1206708.8, 20734.666, 0.0000008766353, 9.999598, 10.000313 
1.5249772e+3, 1.8475357e+2, -1162461.5, -1179676.0, -6780.354, 0.003217362, 0.24135806, -1160111.8, -30671.773, 0.0, 9.9999075, 9.999679 
1.5249765e+3, 1.9475402e+2, -1149624.9, -1118710.9, -7257.352, 0.05770135, 0.31127417, -1117091.9, -85655.55, 0.0, 9.999306, 9.999714 
1.5249753e+3, 2.0475365e+2, -1073222.4, -1095444.0, 24952.848, 0.040279765, 0.33400393, -1057018.5, -123576.95, 0.0, 9.999436, 9.999138 
1.5249737e+3, 2.1475244e+2, -834313.9, -925817.25, 54518.086, -0.051030945, 0.29323497, -808893.6, 26562.025, 0.0, 10.000386, 9.999172 
1.5249725e+3, 2.2475164e+2, -654743.94, -723891.8, 19427.32, -0.051634453, 0.26930234, -649659.56, 87803.016, 0.0, 10.000669, 9.99975 
1.5249714e+3, 2.347513e+2, -617773.75, -647371.44, -7452.418, 0.043394674, 0.2509694, -616003.25, 23457.852, 0.0, 10.0002165, 9.999819 
1.5249701e+3, 2.4475035e+2, -602586.56, -721499.56, 32589.393, 0.04277176, 0.23358038, -594240.8, -52771.652, 0.0, 10.0002165, 9.998637 
1.5249683e+3, 2.5474876e+2, -431270.44, -584622.6, 54107.902, -0.06393382, 0.20491858, -414101.5, 29385.896, 0.0, 10.000706, 9.998668 
1.5249676e+3, 2.6474765e+2, -234875.56, -361460.88, 93087.445, -0.099122465, 0.19625978, -185601.66, 159896.81, 0.0, 10.001047, 9.999363 
1.5249683e+3, 2.7474713e+2, -106060.93, -240375.4, 64813.46, -0.056812506, 0.19595428, -79886.08, 167615.3, 0.0, 10.001223, 9.999436 
1.5249684e+3, 2.8474677e+2, -49204.555, -232396.77, 7260.678, -0.017207095, 0.24994536, -48917.234, 100586.695, 0.0, 10.00124, 9.998812 
1.5249678e+3, 2.9474673e+2, 23955.03, -150210.23, -16572.342, 0.021289505, 0.35598442, 25517.912, 77023.12, 0.0, 10.001085, 9.998777 
1.5249664e+3, 3.047439e+2, 5012.4116, -287162.66, -17212.771, -0.02583503, 0.2671606, 6022.964, 6022.964, 0.0, 10.001281, 9.997409 
1.5249641e+3, 3.1474152e+2, 183262.9, -52520.652, 26651.371, -0.13179795, 0.27529806, 186237.86, 186237.86, 0.0, 10.001862, 9.99874 
1.5349826e+3, 1.2475227e+2, -1885696.8, -1648677.5, 119852.164, -0.20462075, 0.24705541, -1598637.1, 118813.086, 0.018294634, 9.998181, 10.001343 
1.5349811e+3, 1.3475066e+2, -1824797.0, -1664887.6, -21003.133, -0.18841553, 0.03244955, -1662175.0, -42708.957, 0.011016667, 9.998341, 10.000475 
1.5349811e+3, 1.44753e+2, -1685208.6, -1466910.4, -9517.929, -0.01752139, 0.18650627, -1466496.1, 54947.176, 0.0048880493, 9.998286, 10.001183 
1.5349793e+3, 1.5475538e+2, -1613620.0, -1368754.9, 16662.018, -0.035154805, 0.29401925, -1367626.4, 55793.617, 0.0013030368, 9.998053, 10.001293 
1.5349779e+3, 1.6475621e+2, -1569054.9, -1477017.3, 62297.785, -0.08114739, 0.32752922, -1445584.5, -120171.83, 0.00013086536, 9.998463, 9.999679 
1.5349773e+3, 1.7475523e+2, -1304266.1, -1297313.8, 43604.184, -0.1083155, 0.25677142, -1257047.4, -29623.85, 0.0000010420176, 9.999601, 9.99969 
1.5349765e+3, 1.8475479e+2, -1166186.4, -1186949.4, -29404.623, -0.06434829, 0.24909644, -1145384.5, -15955.402, 0.0, 9.999906, 9.999629 
1.5349758e+3, 1.9475505e+2, -1153354.6, -1124995.1, -29648.578, 0.042817548, 0.30488464, -1106310.0, -74882.25, 0.0, 9.9993, 9.999674 
1.5349749e+3, 2.0475492e+2, -1020411.75, -984191.2, 58264.33, 0.042868152, 0.3147713, -941287.44, -7858.397, 0.0, 9.999427, 9.999907 
1.5349738e+3, 2.1475437e+2, -779388.8, -811065.94, 91726.46, -0.06901485, 0.26156682, -702143.56, 133289.33, 0.0, 10.000382, 9.999962 
1.534973e+3, 2.2475404e+2, -698313.94, -813208.0, 2659.5303, -0.06359289, 0.27245346, -698252.4, 39183.492, 0.0, 10.000662, 9.999141 
1.5349719e+3, 2.3475389e+2, -663742.44, -741636.9, -23454.22, 0.06866261, 0.33755234, -657225.5, -17787.691, 0.0, 10.00021, 9.999176 
1.5349708e+3, 2.4475281e+2, -563611.9, -638144.9, 49724.902, 0.09903705, 0.31269017, -538738.56, 2708.2646, 0.0, 10.000206, 9.999215 
1.5349697e+3, 2.547508e+2, -389708.0, -497657.13, 74409.67, 0.01891413, 0.18040892, -351758.38, 91704.32, 0.0, 10.000702, 9.999268 
1.534969e+3, 2.647494e+2, -280654.47, -456905.84, 100429.26, -0.06797835, 0.14560533, -235168.14, 110307.086, 0.0, 10.001047, 9.998708 
1.5349683e+3, 2.7474874e+2, -154141.52, -339990.13, 73604.05, -0.16317496, 0.19880761, -128522.65, 118961.516, 0.0, 10.00122, 9.9987545 
1.5349683e+3, 2.847479e+2, -86007.5, -307052.47, 2379.8794, -0.13312702, 0.26404056, -85981.88, 63512.22, 0.0, 10.001232, 9.998303 
1.534969e+3, 2.9474708e+2, -13386.251, -225298.66, -20433.127, 0.034340117, 0.34095743, -11434.022, 40069.676, 0.0, 10.001074, 9.998267 
1.5349685e+3, 3.0474406e+2, 86050.586, -117864.15, 4201.293, 0.051118385, 0.20860095, 86137.11, 86137.11, 0.0, 10.001273, 9.998577 
1.5349668e+3, 3.1474146e+2, 296803.38, 183475.63, 59028.977, -0.05799344, 0.07042392, 321963.78, 321963.78, 0.0, 10.001857, 10.000365 
1.5449812e+3, 1.2475373e+2, -1934153.4, -1679854.0, 159835.14, -0.16934983, 0.2574503, -1602762.9, 114672.04, 0.019406972, 9.997888, 10.001269 
1.544979e+3, 1.3475218e+2, -1916172.4, -1708258.3, 5280.019, -0.1807278, 0.048402097, -1708124.3, -88674.68, 0.0117135905, 9.997716, 10.000476 
1.5449794e+3, 1.4475432e+2, -1755492.1, -1530547.1, -8640.764, -0.015284111, 0.19646572, -1530215.8, -8786.951, 0.0052204016, 9.997933, 10.000915 
1.5449777e+3, 1.5475634e+2, -1542383.8, -1364706.3, -56190.89, -0.043536864, 0.2932555, -1348427.3, 74982.53, 0.0014059248, 9.99867, 10.001025 
1.5449764e+3, 1.6475703e+2, -1518323.0, -1433773.1, -17588.162, -0.083554976, 0.3199836, -1430260.4, -104856.82, 0.00014487762, 9.998727, 9.999849 
1.5449764e+3, 1.7475623e+2, -1517617.5, -1379728.4, 22651.324, -0.086294144, 0.24867734, -1376102.8, -148690.72, 0.000001197513, 9.998048, 9.999874 
1.5449758e+3, 1.8475583e+2, -1383498.3, -1271010.8, -4835.7764, -0.050485924, 0.22662875, -1270803.3, -141386.88, 0.0, 9.998325, 9.999814 
1.5449749e+3, 1.9475599e+2, -1087134.9, -1072481.1, 9946.687, 0.008922444, 0.252524, -1067454.1, -36038.445, 0.0, 9.999665, 9.999858 
1.5449743e+3, 2.0475589e+2, -929468.3, -938601.56, 72060.57, 0.020591134, 0.25714707, -861829.8, 71586.34, 0.0, 10.000044, 9.999923 
1.5449743e+3, 2.1475558e+2, -926475.9, -881161.25, 43746.383, -0.015944937, 0.22562185, -854553.0, -19135.24, 0.0, 9.99937, 9.999969 
1.5449736e+3, 2.247553e+2, -862746.44, -915883.56, -48655.2, -0.017302483, 0.2525994, -833878.44, -96457.055, 0.0, 9.999637, 9.998928 
1.5449719e+3, 2.3475505e+2, -570946.6, -721691.7, -44364.58, 0.016590457, 0.32989162, -558859.25, 80567.555, 0.0, 10.000956, 9.998954 
1.544971e+3, 2.44754e+2, -376574.56, -522906.63, 16736.752, 0.04771771, 0.30866626, -374684.72, 166751.02, 0.0, 10.001384, 9.999439 
1.544971e+3, 2.5475216e+2, -356104.88, -455977.03, 9966.942, 0.07518318, 0.16889644, -355119.9, 88327.734, 0.0, 10.000823, 9.999496 
1.5449706e+3, 2.647509e+2, -357420.78, -520492.13, 47085.957, 0.011856044, 0.14554168, -344801.5, 657.2389, 0.0, 10.000637, 9.998468 
1.5449695e+3, 2.7475026e+2, -221358.0, -400763.2, 50471.637, -0.15183072, 0.2307871, -208133.72, 39335.33, 0.0, 10.000883, 9.998499 
1.5449695e+3, 2.8474897e+2, -81317.93, -310958.66, 13812.591, -0.14785697, 0.26635334, -80490.1, 68993.43, 0.0, 10.001293, 9.998246 
1.5449707e+3, 2.9474714e+2, 96890.45, -178355.34, 22862.48, 0.0402271, 0.24837992, 98776.53, 150277.52, 0.0, 10.001861, 9.998211 
1.5449703e+3, 3.047445e+2, 184144.22, -62410.504, 21332.94, 0.08445513, 0.15081283, 185976.42, 185976.42, 0.0, 10.001918, 9.998645 
1.544969e+3, 3.1474248e+2, 255714.48, 198199.97, -11907.299, 0.006095337, 0.062663555, 258082.2, 258082.2, 0.0, 10.001431, 10.000669 
1.5549809e+3, 1.2475547e+2, -1941817.9, -1695609.5, 157417.69, 0.017658215, 0.24883686, -1618876.3, 98540.8, 0.020587768, 9.997889, 10.001159 
1.5549776e+3, 1.3475597e+2, -1919819.9, -1717947.1, -2699.8074, -0.11378585, 0.25132474, -1717911.1, -98498.7, 0.012455585, 9.997724, 10.000406 
1.5549773e+3, 1.4475724e+2, -1840198.0, -1707966.4, 15835.972, -0.020942772, 0.377295, -1706096.4, -184695.63, 0.0055746003, 9.997939, 9.999695 
1.554976e+3, 1.5475573e+2, -1628666.4, -1545330.6, -27736.063, -0.08988763, 0.24217269, -1536943.5, -113525.82, 0.001515748, 9.998675, 9.9997835 
1.5549749e+3, 1.6475537e+2, -1451684.0, -1296225.0, -43828.156, -0.100019716, 0.18215156, -1284720.0, 40700.45, 0.00016035176, 9.99873, 10.0007925 
1.5549754e+3, 1.7475626e+2, -1449232.6, -1236694.6, -2976.7473, 0.010001826, 0.18168437, -1236652.9, -9244.541, 0.0000013687348, 9.998042, 10.000859 
1.554975e+3, 1.8475673e+2, -1355565.5, -1211099.8, 42758.016, 0.035640877, 0.17521077, -1199393.3, -69991.6, 0.0, 9.998316, 10.00023 
1.554974e+3, 1.9475682e+2, -1058927.8, -1013608.56, 61549.117, -0.04917092, 0.15511979, -970680.44, 60719.363, 0.0, 9.999663, 10.000263 
1.5549739e+3, 2.0475659e+2, -982771.4, -1049693.9, 47057.563, -0.03193312, 0.16224684, -958491.2, -25088.568, 0.0, 10.000043, 9.999162 
1.5549749e+3, 2.1475604e+2, -983124.6, -996566.44, 18764.26, 0.10369778, 0.18543616, -969913.94, -134503.67, 0.0, 9.999359, 9.999183 
1.5549742e+3, 2.2475542e+2, -851343.2, -889402.4, -1682.3413, 0.0805945, 0.20992273, -851269.0, -113849.95, 0.0, 9.999623, 9.999117 
1.5549715e+3, 2.3475477e+2, -556947.75, -692158.9, 7252.5713, -0.118801996, 0.22501972, -556559.8, 82868.47, 0.0, 10.000952, 9.999159 
1.5549709e+3, 2.447539e+2, -388086.1, -545006.7, -2568.9785, -0.12019094, 0.21793708, -388044.06, 153392.13, 0.0, 10.001376, 9.999291 
1.5549722e+3, 2.547528e+2, -367660.25, -479121.3, -9267.484, 0.09793007, 0.17113537, -366894.97, 76547.27, 0.0, 10.000817, 9.999341 
1.5549724e+3, 2.647521e+2, -346377.28, -497053.16, 55922.484, 0.13529694, 0.19959106, -327890.22, 17558.635, 0.0, 10.000632, 9.998632 
1.5549716e+3, 2.7475175e+2, -210686.13, -377915.44, 62274.375, -0.02642665, 0.2959166, -190043.84, 57411.977, 0.0, 10.000878, 9.998659 
1.5549716e+3, 2.8474995e+2, -53200.117, -251557.1, 35612.016, -0.06670554, 0.2564837, -47000.297, 102472.1, 0.0, 10.001287, 9.998657 
1.5549724e+3, 2.9474685e+2, 125951.89, -116966.84, 46725.785, 0.02771294, 0.07025477, 134629.67, 186127.22, 0.0, 10.001855, 9.998635 
1.5549722e+3, 3.0474508e+2, 105212.664, -225982.06, 4690.6084, 0.064031586, 0.09026765, 105279.08, 105279.08, 0.0, 10.001913, 9.997526 
1.5549709e+3, 3.1474435e+2, 176468.39, 35334.992, -22150.719, 0.046235763, 0.25268376, 179863.27, 179863.27, 0.0, 10.001421, 9.999557 
1.5649788e+3, 1.2475571e+2, -1943530.5, -1710202.5, 31682.56, 0.02464536, 0.28101292, -1705977.0, 11438.99, 0.021849003, 9.99794, 10.001024 
1.5649757e+3, 1.3475624e+2, -1827398.6, -1680144.4, -140789.36, -0.100548536, 0.2934604, -1594892.4, 24518.162, 0.013250772, 9.998386, 10.00035 
1.5649755e+3, 1.4475708e+2, -1773196.5, -1649493.3, -68725.695, 0.005400451, 0.36579645, -1618884.9, -97482.555, 0.0059556314, 9.998286, 9.999928 
1.5649743e+3, 1.5475535e+2, -1753519.5, -1578252.0, -2171.406, -0.05798849, 0.18762803, -1578225.1, -154805.67, 0.0016345053, 9.997704, 10.000024 
1.5649734e+3, 1.6475506e+2, -1561659.0, -1328107.3, 15835.369, -0.081879854, 0.11353287, -1327038.5, -1618.0881, 0.00017771397, 9.997888, 10.000978 
1.5649736e+3, 1.7475633e+2, -1310539.0, -1149084.4, -6294.7686, -0.0052962974, 0.13193744, -1148839.4, 78564.62, 0.0000016137079, 9.998908, 10.001042 
1.5649736e+3, 1.8475707e+2, -1205475.0, -1133782.8, 11182.182, 0.019480655, 0.14067851, -1132079.1, -2684.578, 0.0, 9.999324, 10.000275 
1.5649734e+3, 1.9475733e+2, -1140668.6, -1049343.1, 408.11685, -0.032406565, 0.13169079, -1049341.3, -17949.3, 0.0, 9.999084, 10.000298 
1.5649737e+3, 2.0475714e+2, -1098816.9, -1095231.8, -18844.705, -0.010606954, 0.1376508, -1078094.5, -144699.95, 0.0, 9.999206, 9.99925 
1.5649743e+3, 2.1475653e+2, -921741.25, -957466.75, 16126.88, 0.09692108, 0.14670709, -915538.4, -80135.8, 0.0, 9.999742, 9.999266 
1.564974e+3, 2.2475594e+2, -781449.8, -841131.6, 56806.004, 0.07922241, 0.16367841, -747123.75, -9712.803, 0.0, 10.000041, 9.999247 
1.5649724e+3, 2.3475541e+2, -675902.5, -735265.25, 56980.83, -0.07964876, 0.17834167, -641335.94, -1916.9319, 0.0, 10.000074, 9.999285 
1.5649721e+3, 2.4475475e+2, -543802.1, -643450.06, 20399.81, -0.082856074, 0.19525228, -539787.6, 1638.2988, 0.0, 10.000405, 9.999083 
1.5649728e+3, 2.5475398e+2, -345535.66, -491663.75, 6538.9595, 0.08567364, 0.2009298, -345243.63, 98187.37, 0.0, 10.001073, 9.999129 
1.5649734e+3, 2.6475307e+2, -256679.25, -461482.47, 58989.023, 0.12832181, 0.23035195, -240903.89, 104535.36, 0.0, 10.001283, 9.998564 
1.5649731e+3, 2.747521e+2, -201900.98, -381198.53, 46223.207, 0.03137441, 0.26747593, -190686.06, 56765.13, 0.0, 10.000972, 9.998591 
1.5649734e+3, 2.847502e+2, -55936.68, -227810.11, 30996.951, -0.019037254, 0.20518127, -50517.336, 98950.89, 0.0, 10.001162, 9.99888 
1.5649739e+3, 2.9474753e+2, 149591.6, -79105.32, 25421.158, -0.017831372, 0.041531827, 152383.23, 203871.58, 0.0, 10.001905, 9.998871 
1.564974e+3, 3.047462e+2, 145457.86, -274041.0, -27441.852, 0.029998116, 0.12481845, 147245.38, 147245.38, 0.0, 10.002481, 9.996922 
1.5649736e+3, 3.147445e+2, 331084.25, 17237.316, -17145.11, 0.11121644, 0.2514001, 332018.1, 332018.1, 0.0, 10.002882, 9.99873 
1.574975e+3, 1.2475447e+2, -1955453.9, -1736016.1, 51019.523, -0.15777077, 0.35226902, -1724734.1, -7302.815, 0.023204513, 9.997944, 10.000845 
1.5749736e+3, 1.3475302e+2, -1830908.3, -1689432.4, -126157.31, -0.14910433, 0.17190592, -1615534.5, 3909.4204, 0.014108494, 9.998393, 10.000283 
1.5749745e+3, 1.447538e+2, -1654873.4, -1405034.3, -93080.664, 0.055778306, 0.16083924, -1374169.0, 147264.38, 0.0063687824, 9.998286, 10.001613 
1.5749732e+3, 1.5475528e+2, -1632571.5, -1327828.3, -23714.818, 0.04672284, 0.13153356, -1325993.9, 97420.7, 0.00176415, 9.997704, 10.001744 
1.574972e+3, 1.6475621e+2, -1601365.8, -1410866.1, 51852.973, -0.03694547, 0.117124446, -1397666.5, -72263.97, 0.00019721544, 9.997888, 10.000411 
1.5749712e+3, 1.7475648e+2, -1354066.1, -1240532.3, 32932.906, -0.13780695, 0.09852891, -1231671.0, -4272.4326, 0.0000019795527, 9.998912, 10.000413 
1.5749718e+3, 1.8475686e+2, -1229487.0, -1183537.3, 2080.2742, -0.10521909, 0.12128456, -1183443.3, -54047.9, 0.0, 9.999323, 9.999934 
1.5749735e+3, 1.9475748e+2, -1165544.6, -1099181.0, -8333.266, 0.053019002, 0.18260378, -1098150.6, -66758.45, 0.0, 9.999076, 9.99996 
1.5749738e+3, 2.0475756e+2, -1034319.25, -959909.75, -272.00977, 0.07529248, 0.18521045, -959908.75, -26516.82, 0.0, 9.999197, 10.000185 
1.5749727e+3, 2.1475707e+2, -854644.5, -817776.25, 37861.96, -0.042720683, 0.10981811, -794099.25, 41295.19, 0.0, 9.999738, 10.000227 
1.5749729e+3, 2.2475685e+2, -778654.8, -834321.2, 58199.63, -0.028148804, 0.11361312, -741975.4, -4578.36, 0.0, 10.000034, 9.999298 
1.5749747e+3, 2.3475698e+2, -674519.1, -731319.6, 59644.0, 0.13028818, 0.18991442, -636858.94, 2540.1843, 0.0, 10.000067, 9.999317 
1.5749748e+3, 2.4475655e+2, -564051.56, -682973.5, 44887.44, 0.15515824, 0.24309808, -549010.94, -7605.993, 0.0, 10.000395, 9.9988165 
1.5749735e+3, 2.5475562e+2, -366054.84, -533045.25, 33842.324, 0.0325873, 0.26069033, -359457.03, 83956.89, 0.0, 10.001065, 9.99885 
1.5749732e+3, 2.647539e+2, -277759.03, -504539.8, 49069.85, -0.017995713, 0.23501669, -267596.88, 77833.59, 0.0, 10.001278, 9.998271 
1.574974e+3, 2.7475128e+2, -222781.5, -424287.63, 36862.707, 0.012010683, 0.13961527, -216249.72, 31206.15, 0.0, 10.00097, 9.998298 
1.5749747e+3, 2.8474957e+2, -55422.07, -226177.42, 58912.418, -0.013342573, 0.110110514, -37069.227, 112402.27, 0.0, 10.001158, 9.998895 
1.574975e+3, 2.9474914e+2, 151567.4, -74867.45, 56241.254, -0.10219286, 0.16895154, 164767.0, 216240.13, 0.0, 10.001903, 9.998902 
1.574976e+3, 3.0474788e+2, 139432.47, -285890.16, -11802.268, -0.025664, 0.2591946, 139759.72, 139759.72, 0.0, 10.002478, 9.996842 
1.5749773e+3, 3.147429e+2, 292389.88, -60779.133, 2897.6685, 0.17850299, 0.06478164, 292413.63, 292413.63, 0.0, 10.0028715, 9.9981985 
1.584973e+3, 1.2475348e+2, -1857977.1, -1674409.3, 176439.14, -0.17825902, 0.28954947, -1567308.6, 150130.03, 0.024665277, 9.998551, 10.000991 
1.584972e+3, 1.3475206e+2, -1905017.5, -1696920.0, 10818.178, -0.13133849, 0.08699477, -1696359.1, -76909.414, 0.0150364665, 9.997764, 10.000532 
1.5849726e+3, 1.4475289e+2, -1743463.5, -1440928.4, 8544.683, 0.08546096, 0.06503408, -1440687.3, 80751.97, 0.0068181083, 9.997654, 10.001667 
1.5849714e+3, 1.5475565e+2, -1522026.9, -1269948.9, -50298.95, 0.062350027, 0.15945649, -1260283.0, 163127.13, 0.0019058621, 9.998444, 10.001784 
1.5849702e+3, 1.6475685e+2, -1468844.6, -1362659.6, -7060.4927, -0.035518974, 0.17740497, -1362192.1, -36795.957, 0.0002187055, 9.998866, 10.00027 
1.5849699e+3, 1.7475627e+2, -1368274.1, -1264242.9, 8011.8726, -0.1515492, 0.0895057, -1263629.5, -36229.84, 0.000002466339, 9.998887, 10.000262 
1.584971e+3, 1.8475631e+2, -1287673.9, -1217465.1, -14202.031, -0.102369465, 0.08680924, -1214701.1, -85300.95, 0.0, 9.998952, 9.999879 
1.584973e+3, 1.947571e+2, -1169710.3, -1106340.4, -5409.7153, 0.1045826, 0.17252791, -1105881.9, -74485.79, 0.0, 9.999074, 9.999909 
1.5849733e+3, 2.0475739e+2, -984263.6, -915450.6, 11619.223, 0.109466426, 0.18889566, -913541.7, 19852.29, 0.0, 9.999455, 10.000364 
1.584972e+3, 2.147571e+2, -786304.7, -764716.06, -11365.986, -0.09989034, 0.11488867, -759835.5, 75558.16, 0.0, 10.000121, 10.000406 
1.5849726e+3, 2.2475703e+2, -708883.44, -787981.3, -38805.04, -0.09262834, 0.12004686, -693025.25, 44368.605, 0.0, 10.000462, 9.999408 
1.5849751e+3, 2.3475729e+2, -608950.6, -687180.7, -34001.563, 0.14914131, 0.19935016, -596238.1, 43155.99, 0.0, 10.000468, 9.999425 
1.5849759e+3, 2.4475677e+2, -531270.2, -683629.8, -19918.635, 0.19144468, 0.24483672, -528709.2, 12691.827, 0.0, 10.000692, 9.998668 
1.5849744e+3, 2.547555e+2, -365812.1, -550664.06, -24037.514, 0.012752234, 0.24272723, -362737.5, 80676.9, 0.0, 10.001144, 9.998691 
1.5849741e+3, 2.647536e+2, -260252.7, -476314.6, -14345.335, -0.0502381, 0.19930083, -259304.4, 86127.695, 0.0, 10.001315, 9.998446 
1.5849751e+3, 2.74751e+2, -179271.69, -382290.4, 6657.231, 0.01589124, 0.088443205, -179053.63, 68401.35, 0.0, 10.001181, 9.998483 
1.584976e+3, 2.8474948e+2, -79197.2, -274955.25, 59787.836, 0.016734453, 0.08455115, -62381.46, 87087.805, 0.0, 10.001158, 9.998559 
1.5849769e+3, 2.947494e+2, 33586.227, -169914.56, 26837.975, -0.05837067, 0.21366617, 37066.15, 88537.164, 0.0, 10.00126, 9.998558 
1.5849786e+3, 3.047482e+2, 101361.83, -241699.11, -15094.618, 0.01582061, 0.29868793, 102024.71, 102024.71, 0.0, 10.0019455, 9.997402 
1.5849802e+3, 3.1474286e+2, 357034.9, -9468.827, 43782.1, 0.16807714, 0.014956182, 362192.5, 362192.5, 0.0, 10.003227, 9.998381 
1.5949729e+3, 1.2475291e+2, -1825375.9, -1610335.5, 153492.75, -0.044966083, 0.101756975, -1530450.8, 186985.66, 0.026239868, 9.998559, 10.001436 
1.5949705e+3, 1.3475345e+2, -1863373.6, -1613336.1, -20461.852, -0.05118655, 0.039811272, -1611672.6, 7754.373, 0.016040104, 9.997772, 10.001104 
1.5949704e+3, 1.4475441e+2, -1855748.6, -1674196.6, 33659.004, 0.08657348, 0.080291085, -1668157.3, -146738.39, 0.0073062, 9.997657, 10.000062 
1.594969e+3, 1.5475647e+2, -1639110.8, -1512747.3, -19766.64, -0.018364653, 0.27057597, -1509727.4, -86321.586, 0.002060233, 9.998445, 10.000116 
1.5949686e+3, 1.64757e+2, -1449134.1, -1322892.8, -6983.691, -0.086008355, 0.29456207, -1322507.6, 2893.5854, 0.00024185247, 9.998869, 10.000542 
1.5949698e+3, 1.7475575e+2, -1345917.9, -1218550.5, 9171.851, -0.052790802, 0.106020994, -1217893.4, 9513.781, 0.0000030340082, 9.998888, 10.000576 
1.5949711e+3, 1.8475541e+2, -1271288.1, -1182721.6, -10883.4, 0.019369662, 0.039885473, -1181403.9, -51995.355, 0.0, 9.998947, 10.00012 
1.5949723e+3, 1.9475622e+2, -1153430.8, -1072651.0, 284.50714, 0.11795732, 0.102758974, -1072650.0, -41246.543, 0.0, 9.999073, 10.000142 
1.5949726e+3, 2.0475662e+2, -1026268.4, -1002856.06, 35440.758, 0.08601289, 0.14820881, -977238.25, -43837.402, 0.0, 9.9994545, 9.999765 
1.5949725e+3, 2.147566e+2, -830865.0, -855280.56, 14713.078, -0.08082245, 0.16146606, -823954.6, 11445.75, 0.0, 10.000112, 9.999789 
1.5949728e+3, 2.2475648e+2, -698328.4, -764315.0, -38816.574, -0.12286205, 0.18469618, -680377.75, 57023.91, 0.0, 10.000452, 9.999577 
1.5949738e+3, 2.3475635e+2, -596402.25, -660439.75, -31929.27, -0.030813698, 0.2057697, -583202.9, 56201.332, 0.0, 10.0004635, 9.999611 
1.5949747e+3, 2.4475537e+2, -535588.2, -690788.4, -3130.1309, 0.017481955, 0.19790246, -535525.06, 5889.575, 0.0, 10.000684, 9.998624 
1.5949756e+3, 2.5475353e+2, -369640.88, -558411.8, -4885.925, 0.019651162, 0.14514935, -369514.5, 73918.54, 0.0, 10.001142, 9.99864 
1.5949762e+3, 2.6475215e+2, -215694.53, -383387.88, -18470.092, 0.026475329, 0.12319962, -213684.3, 131760.31, 0.0, 10.001311, 9.999086 
1.5949765e+3, 2.7475128e+2, -134005.44, -287688.16, 3869.5303, 0.036652587, 0.11868105, -133908.06, 113540.46, 0.0, 10.001176, 9.999135 
1.5949777e+3, 2.8474987e+2, -128011.016, -375736.25, 63852.176, 0.061690893, 0.13017851, -112521.39, 36940.57, 0.0, 10.001153, 9.9978695 
1.5949799e+3, 2.9474816e+2, -18025.15, -276171.16, 33411.313, 0.10355673, 0.16663401, -13770.902, 37712.625, 0.0, 10.001252, 9.997832 
1.5949818e+3, 3.0474705e+2, 181450.25, -71475.484, 33273.883, 0.14460832, 0.23748766, 185754.39, 185754.39, 0.0, 10.00193, 9.998578 
1.5949826e+3, 3.1474462e+2, 416606.34, 116971.01, 91187.234, 0.07179095, 0.1271632, 442175.25, 442175.25, 0.0, 10.003217, 9.999254 
1.6049714e+3, 1.24753185e+2, -2015756.5, -1688362.5, 112503.42, 0.023468023, 0.06776577, -1653429.9, 64001.684, 0.027939666, 9.997204, 10.001534 
1.6049683e+3, 1.3475484e+2, -1867494.1, -1590683.9, -105180.555, -0.045844443, 0.095340855, -1555253.1, 64157.457, 0.01712635, 9.997638, 10.00133 
1.604968e+3, 1.4475529e+2, -1837142.6, -1745739.6, 4339.9917, 0.06061964, 0.108886816, -1745534.0, -224125.86, 0.007836914, 9.998135, 9.999339 
1.6049679e+3, 1.5475605e+2, -1633514.0, -1595017.8, 19335.344, 0.00023304873, 0.24595183, -1586983.3, -163573.08, 0.0022287087, 9.998853, 9.999352 
1.604968e+3, 1.6475628e+2, -1417693.1, -1282344.3, 30037.686, -0.040816408, 0.26635012, -1275977.6, 49432.1, 0.00026665046, 9.9989805, 10.000764 
1.604969e+3, 1.747558e+2, -1390293.4, -1211283.6, 37340.715, -0.0030736616, 0.13107821, -1203806.8, 23600.734, 0.0000036433328, 9.9984665, 10.000826 
1.6049702e+3, 1.8475571e+2, -1310118.0, -1218868.9, 34391.29, 0.037264466, 0.082713775, -1207358.9, -77952.65, 0.0, 9.998756, 9.999963 
1.6049711e+3, 1.9475612e+2, -1041874.1, -1038181.94, 13706.254, 0.061642665, 0.12275533, -1026198.0, 5206.9077, 0.0, 9.999921, 9.9999695 
1.604972e+3, 2.0475613e+2, -918267.1, -973049.5, 28902.887, 0.036089633, 0.14720796, -905838.06, 27567.729, 0.0, 10.000294, 9.999565 
1.6049728e+3, 2.1475568e+2, -888209.2, -904971.0, 37263.09, -0.036890812, 0.14243913, -858396.1, -22987.656, 0.0, 9.999815, 9.99959 
1.6049734e+3, 2.2475538e+2, -796253.3, -814836.1, -593.71075, -0.07010737, 0.15549545, -796234.4, -58822.684, 0.0, 9.999795, 9.999546 
1.6049738e+3, 2.3475519e+2, -624699.94, -677656.2, -13084.572, -0.06523294, 0.17512661, -621643.4, 17771.62, 0.0, 10.000284, 9.999579 
1.6049752e+3, 2.4475423e+2, -508522.25, -657550.0, 25661.854, -0.025710756, 0.1602923, -504227.2, 37197.61, 0.0, 10.000783, 9.998804 
1.6049771e+3, 2.5475243e+2, -335886.47, -520531.8, 39657.156, 0.05370078, 0.0960126, -327729.44, 115711.56, 0.0, 10.001286, 9.998828 
1.6049781e+3, 2.6475126e+2, -195127.64, -395082.22, -14706.4, 0.07623318, 0.092914306, -194051.8, 151398.98, 0.0, 10.001549, 9.99889 
1.6049778e+3, 2.747507e+2, -94950.836, -292460.97, -60132.746, 0.033019878, 0.14035144, -78083.625, 169369.86, 0.0, 10.001547, 9.998922 
1.6049787e+3, 2.8474906e+2, -76235.42, -362570.84, -5870.588, 0.036720723, 0.14223547, -76115.11, 73354.5, 0.0, 10.00156, 9.997763 
1.6049811e+3, 2.9474643e+2, 22297.832, -266925.28, 7453.3315, 0.09373147, 0.09952878, 22489.78, 73988.016, 0.0, 10.001575, 9.997739 
1.6049838e+3, 3.047449e+2, 175198.38, -60727.453, 27371.295, 0.1521338, 0.13034151, 178332.27, 178332.27, 0.0, 10.00183, 9.998698 
1.6049854e+3, 3.1474397e+2, 289988.72, 57237.17, -7772.936, 0.0939296, 0.15289907, 290248.03, 290248.03, 0.0, 10.002347, 9.999259 
1.6149686e+3, 1.24754496e+2, -2036362.0, -1732937.8, 132446.75, 0.013498245, 0.19679762, -1683257.9, 34164.574, 0.02978273, 9.997211, 10.001222 
1.6149652e+3, 1.3475628e+2, -1877013.1, -1612786.3, -90866.5, -0.12054656, 0.2545537, -1584554.1, 34845.71, 0.018308382, 9.997644, 10.001175 
1.6149656e+3, 1.447556e+2, -1825931.3, -1722861.1, 27504.787, -0.00063929544, 0.15307164, -1715980.6, -194574.13, 0.008418617, 9.998135, 9.9994955 
1.6149679e+3, 1.5475446e+2, -1623226.8, -1574240.0, 47073.42, 0.11236011, 0.0845153, -1545668.9, -122245.984, 0.0024150687, 9.998854, 9.999495 
1.6149683e+3, 1.6475472e+2, -1405379.5, -1257815.9, 10398.866, 0.09225866, 0.09312619, -1257086.8, 68334.64, 0.0002938315, 9.998982, 10.000932 
1.6149676e+3, 1.7475647e+2, -1377824.6, -1186908.6, 18820.445, -0.007186184, 0.1643851, -1185071.0, 42329.43, 0.000004294035, 9.998469, 10.000993 
1.614968e+3, 1.8475716e+2, -1350057.3, -1301067.1, 76241.69, -0.056242343, 0.21412729, -1245482.3, -116088.8, 0.0, 9.998754, 9.9994 
1.6149698e+3, 1.9475678e+2, -1084070.6, -1124902.8, 58689.57, -0.07217653, 0.23298617, -1042347.5, -10946.933, 0.0, 9.999917, 9.999377 
1.6149716e+3, 2.0475587e+2, -904794.4, -944086.44, 11165.159, -0.050065015, 0.18789582, -901843.3, 31565.572, 0.0, 10.000288, 9.999766 
1.6149732e+3, 2.1475445e+2, -873637.94, -873522.25, 20580.941, 0.02626196, 0.058670297, -852999.06, -17581.25, 0.0, 9.999809, 9.999809 
1.6149744e+3, 2.2475371e+2, -814984.1, -853358.5, 16570.012, 0.059287492, 0.033001658, -808819.56, -71395.48, 0.0, 9.99979, 9.999286 
1.6149752e+3, 2.347538e+2, -643904.06, -716821.75, 7050.2397, 0.041125707, 0.10733175, -643228.6, -3801.9175, 0.0, 10.000279, 9.999313 
1.6149767e+3, 2.4475332e+2, -481533.84, -599574.56, 44554.05, 0.056536034, 0.13415952, -466605.13, 74826.53, 0.0, 10.000773, 9.9992075 
1.614979e+3, 2.5475222e+2, -307103.6, -460151.06, 60929.313, 0.10807125, 0.09685303, -285809.8, 157628.63, 0.0, 10.001281, 9.999246 
1.6149798e+3, 2.6475087e+2, -270057.78, -549241.5, -13756.443, 0.09124559, 0.10673015, -269381.6, 76069.68, 0.0, 10.001542, 9.997835 
1.614979e+3, 2.747492e+2, -171775.66, -451571.97, -57770.375, -0.0019502923, 0.15010679, -160316.9, 87153.93, 0.0, 10.001544, 9.997832 
1.6149794e+3, 2.847469e+2, -44207.207, -295865.44, -4937.9043, -0.06572805, 0.120733045, -44110.355, 105382.62, 0.0, 10.001558, 9.998223 
1.6149808e+3, 2.9474413e+2, 57861.773, -193477.63, 10250.051, -0.096887395, 0.015756724, 58279.098, 109794.77, 0.0, 10.001575, 9.998244 
1.6149844e+3, 3.0474177e+2, 109818.49, -196174.34, 46245.277, 0.028887374, -0.020590132, 116654.89, 116654.89, 0.0, 10.001829, 9.997768 
1.6149892e+3, 3.1474066e+2, 229280.3, -65276.414, 8137.0137, 0.22269225, 0.084182225, 229504.9, 229504.9, 0.0, 10.002331, 9.9984255 
1.6249661e+3, 1.2475371e+2, -1926511.3, -1701279.8, 89664.95, 0.014937839, 0.20410863, -1669943.8, 47486.7, 0.03179242, 9.998054, 10.001035 
1.6249631e+3, 1.3475555e+2, -1774707.0, -1571474.9, -135458.39, -0.117360674, 0.27478063, -1503754.6, 115654.26, 0.019603958, 9.998381, 10.001109 
1.6249634e+3, 1.4475474e+2, -1749209.5, -1617118.1, 448.99298, -0.03475228, 0.13258086, -1617116.6, -95701.06, 0.009062119, 9.998368, 10.000107 
1.6249661e+3, 1.547537e+2, -1681519.4, -1533189.0, 54000.277, 0.08077817, 0.012578102, -1515612.8, -92185.734, 0.002624408, 9.998159, 10.00011 
1.6249669e+3, 1.6475429e+2, -1499124.0, -1336627.8, 17267.975, 0.074992225, 0.03801373, -1334813.0, -9391.073, 0.00032476612, 9.9984865, 10.000628 
1.6249664e+3, 1.7475663e+2, -1267989.3, -1170989.3, -14392.5205, -0.0017869251, 0.20128964, -1168898.8, 58500.492, 0.000005034694, 9.999384, 10.000661 
1.6249673e+3, 1.8475723e+2, -1207106.9, -1242041.8, 53913.273, -0.052691627, 0.2637423, -1167902.0, -38507.586, 0.0, 9.999781, 9.99931 
1.6249694e+3, 1.9475605e+2, -1130176.0, -1154932.9, 72404.42, -0.0978874, 0.20872024, -1069099.5, -37691.668, 0.0, 9.99964, 9.999301 
1.6249712e+3, 2.0475501e+2, -995383.2, -971355.6, 17577.18, -0.08025063, 0.14743416, -962078.8, -28662.475, 0.0, 9.999597, 9.999913 
1.6249728e+3, 2.1475418e+2, -887769.3, -863263.4, 19148.06, 0.016162997, 0.063760534, -852783.5, -17364.338, 0.0, 9.999638, 9.999962 
1.6249743e+3, 2.2475342e+2, -830342.3, -921339.7, 32073.695, 0.06691713, 0.05459461, -820173.6, -82747.61, 0.0, 9.99995, 9.99874 
1.6249758e+3, 2.3475282e+2, -640895.2, -779292.8, -1724.3495, 0.0636804, 0.11611315, -640873.7, -1436.975, 0.0, 10.000578, 9.99874 
1.6249776e+3, 2.4475203e+2, -480420.22, -605814.44, -6795.838, 0.0735316, 0.14540921, -480053.0, 61392.1, 0.0, 10.000812, 9.999145 
1.6249798e+3, 2.547511e+2, -407114.0, -514574.03, -29738.387, 0.0941978, 0.12852664, -399433.22, 44016.805, 0.0, 10.000621, 9.999189 
1.624981e+3, 2.6474962e+2, -381397.9, -608960.75, -79774.61, 0.08351317, 0.13021727, -356218.2, -10753.988, 0.0, 10.000801, 9.997783 
1.6249809e+3, 2.7474743e+2, -203416.38, -472405.34, -47846.605, 0.039464053, 0.13262658, -195159.11, 52329.613, 0.0, 10.001351, 9.997781 
1.6249815e+3, 2.847452e+2, 27257.432, -250215.47, 37842.76, -0.030967858, 0.10379734, 32325.979, 181836.08, 0.0, 10.002005, 9.998319 
1.6249827e+3, 2.94743e+2, 240909.55, -93989.086, 19835.688, -0.13435075, 0.044978708, 242080.3, 293606.1, 0.0, 10.002788, 9.998342 
1.6249861e+3, 3.0474013e+2, 199670.64, -198187.61, 34565.895, -0.024307318, -0.022684533, 202651.39, 202651.39, 0.0, 10.002638, 9.997368 
1.6249914e+3, 3.1473833e+2, 88747.41, -148442.25, 28460.613, 0.2595457, 0.0530499, 92114.625, 92114.625, 0.0, 10.001428, 9.998291 
1.6349643e+3, 1.2475104e+2, -1928523.3, -1707162.4, 100747.72, 0.013827579, 0.10392766, -1668175.6, 49277.855, 0.03398967, 9.998058, 10.000994 
1.6349624e+3, 1.3475268e+2, -1771477.3, -1567289.8, -124520.055, -0.04227015, 0.15254164, -1508360.6, 111076.69, 0.02102759, 9.998389, 10.001136 
1.6349617e+3, 1.4475274e+2, -1674349.1, -1462777.1, -10689.282, -0.05218541, 0.046562176, -1462238.5, 59196.625, 0.009775217, 9.998367, 10.001171 
1.6349624e+3, 1.5475383e+2, -1605863.3, -1377587.6, 47415.527, -0.10216441, 0.03152266, -1368130.6, 55291.105, 0.002860367, 9.99816, 10.00118 
1.6349636e+3, 1.6475505e+2, -1555298.8, -1451954.1, 49153.387, -0.101171866, 0.102208376, -1432309.6, -106898.63, 0.00036087315, 9.998481, 9.99984 
1.634966e+3, 1.747563e+2, -1327417.3, -1294302.0, 20059.86, 0.006801968, 0.24167036, -1284849.0, -57445.0, 0.000005927034, 9.999384, 9.999815 
1.634968e+3, 1.8475594e+2, -1179662.1, -1185519.6, 48542.906, 0.04026667, 0.23171125, -1133959.8, -4550.529, 0.0, 9.999781, 9.999698 
1.6349697e+3, 1.9475389e+2, -1100642.0, -1094272.9, 68239.914, -0.020117434, 0.04982677, -1029143.25, 2283.4368, 0.0, 9.9996395, 9.999719 
1.6349709e+3, 2.0475347e+2, -989400.0, -957144.5, 18091.607, -0.06045856, 0.024657903, -949035.7, -15607.153, 0.0, 9.999588, 10.000015 
1.6349715e+3, 2.1475491e+2, -883150.94, -851602.94, 22211.4, -0.07309205, 0.15832679, -840134.25, -4721.6924, 0.0, 9.999628, 10.000048 
1.6349731e+3, 2.2475453e+2, -891581.0, -1046363.8, 54648.35, -0.055269707, 0.22327618, -874231.3, -136813.66, 0.0, 9.99994, 9.997887 
1.6349757e+3, 2.3475221e+2, -703580.9, -907701.7, 24003.209, -0.004724924, 0.19991222, -700796.25, -61350.82, 0.0, 10.00057, 9.997862 
1.6349779e+3, 2.4475032e+2, -520778.84, -688618.56, -12900.265, 0.01700457, 0.19319563, -519793.13, 21672.326, 0.0, 10.000805, 9.998581 
1.6349795e+3, 2.54749e+2, -445715.3, -595331.44, -34661.043, 0.0051334114, 0.19154912, -438075.6, 5400.5894, 0.0, 10.000621, 9.998636 
1.6349815e+3, 2.6474738e+2, -315715.4, -471444.28, -59232.656, 0.04705795, 0.16462226, -295746.44, 49743.63, 0.0, 10.000795, 9.998731 
1.6349834e+3, 2.7474546e+2, -135251.73, -329921.75, -24916.732, 0.14963818, 0.08949571, -132113.13, 115394.45, 0.0, 10.001347, 9.998763 
1.634985e+3, 2.8474385e+2, 7609.6113, -291255.72, 67223.914, 0.13187227, 0.090182446, 22034.127, 171555.98, 0.0, 10.002003, 9.998039 
1.6349865e+3, 2.9474288e+2, 219275.19, -140020.53, 51920.16, -0.02656564, 0.18398853, 226627.47, 278157.22, 0.0, 10.0027895, 9.998026 
1.6349888e+3, 3.0474e+2, 206504.64, -182366.33, -9582.863, -0.012686104, 0.12565728, 206740.64, 206740.64, 0.0, 10.00263, 9.99748 
1.6349922e+3, 3.1473675e+2, 125367.7, -69335.26, -15857.58, 0.19122772, 0.04293151, 126650.766, 126650.766, 0.0, 10.001414, 9.998841 
1.644962e+3, 1.2474916e+2, -2055725.1, -1764896.0, 122523.85, 0.024197644, 0.062020693, -1720159.4, -2689.6414, 0.036383986, 9.997183, 10.001005 
1.6449606e+3, 1.3475098e+2, -2002727.5, -1673691.6, -110439.03, 0.026225932, 0.12712918, -1640060.8, -20606.82, 0.022584815, 9.99679, 10.001162 
1.6449594e+3, 1.4475158e+2, -1831994.9, -1491345.8, 91.11934, -0.04208759, 0.05079264, -1491345.6, 30101.443, 0.010560797, 9.997081, 10.001595 
1.64496e+3, 1.5475346e+2, -1570795.8, -1313945.5, 8242.102, -0.1549064, 0.07424529, -1313681.3, 109743.17, 0.0031241647, 9.998201, 10.001596 
1.6449617e+3, 1.6475475e+2, -1534388.5, -1464616.3, 5470.6396, -0.15289845, 0.14082167, -1464189.9, -138777.05, 0.0004029895, 9.998723, 9.999636 
1.6449651e+3, 1.7475532e+2, -1459008.0, -1381064.6, 21480.816, 0.01832317, 0.23201717, -1375536.8, -148122.5, 0.0000070009137, 9.998585, 9.999602 
1.6449676e+3, 1.8475473e+2, -1333909.1, -1233573.3, 57248.48, 0.085242085, 0.19952269, -1207621.5, -78200.21, 0.0, 9.99861, 9.999931 
1.6449694e+3, 1.9475298e+2, -1205235.0, -1117652.4, 61371.64, 0.024284437, 0.021585518, -1086050.3, -54616.504, 0.0, 9.998806, 9.99996 
1.6449708e+3, 2.0475273e+2, -1052982.5, -1038699.7, 3233.6125, -0.0349417, 0.024612818, -1038001.75, -104567.39, 0.0, 9.999371, 9.999559 
1.6449714e+3, 2.1475425e+2, -813222.2, -870896.2, -38015.605, -0.088447146, 0.21464325, -794343.8, 41077.133, 0.0, 10.000339, 9.999572 
1.6449733e+3, 2.2475365e+2, -748770.7, -964584.7, 3855.3147, -0.08615877, 0.27470037, -748701.9, -11273.218, 0.0, 10.000862, 9.998005 
1.6449761e+3, 2.347507e+2, -645676.44, -865360.06, 46528.48, -0.024113644, 0.17672855, -636228.2, 3230.8225, 0.0, 10.000903, 9.9979925 
1.6449787e+3, 2.4474853e+2, -510636.56, -713014.3, 48905.188, -0.00087910984, 0.14640348, -499438.13, 42042.97, 0.0, 10.001001, 9.998318 
1.6449802e+3, 2.5474724e+2, -387111.75, -598610.2, 45757.453, -0.023282932, 0.17865524, -377636.66, 65856.625, 0.0, 10.001159, 9.998354 
1.6449822e+3, 2.6474565e+2, -239547.67, -447768.3, 10358.92, 0.025617799, 0.17300366, -239033.6, 106474.35, 0.0, 10.001376, 9.998612 
1.644985e+3, 2.7474368e+2, -95880.86, -324570.56, -40440.47, 0.15361738, 0.10473653, -88940.19, 158585.31, 0.0, 10.001676, 9.99864 
1.6449873e+3, 2.847421e+2, -74541.98, -341617.7, 1643.9467, 0.18300886, 0.11896249, -74531.86, 75008.4, 0.0, 10.001485, 9.997942 
1.6449896e+3, 2.9474127e+2, -93402.15, -301152.3, -1839.6438, 0.09799222, 0.23705584, -93385.86, -41837.133, 0.0, 10.000689, 9.99793 
1.6449912e+3, 3.047387e+2, -18885.807, -270701.8, -40864.09, 0.044221018, 0.20634758, -12420.478, -12420.478, 0.0, 10.0009985, 9.997655 
1.6449931e+3, 3.1473517e+2, 333003.94, 79701.81, -46112.992, 0.084726974, 0.07644316, 341137.53, 341137.53, 0.0, 10.002632, 9.999277 
1.6549592e+3, 1.24748275e+2, -2051260.8, -1758928.9, 100628.07, 0.021655004, 0.08830515, -1727639.3, -10162.007, 0.03897044, 9.997192, 10.001044 
1.654958e+3, 1.3475055e+2, -2003015.6, -1675784.3, -125187.37, 0.08344624, 0.20043671, -1633385.5, -13927.233, 0.024272982, 9.996792, 10.001148 
1.654957e+3, 1.4475125e+2, -1850339.1, -1526268.9, 38388.96, -0.009991686, 0.14603156, -1521783.4, -331.88037, 0.0114189135, 9.997068, 10.001359 
1.654959e+3, 1.547526e+2, -1588779.5, -1351136.9, 50864.27, -0.083648145, 0.14026266, -1340707.8, 82727.2, 0.0034161112, 9.9982, 10.001342 
1.6549611e+3, 1.647534e+2, -1506051.5, -1406782.1, 97.20249, -0.08828253, 0.15288942, -1406782.0, -81354.445, 0.00045137366, 9.998725, 10.000033 
1.6549638e+3, 1.7475367e+2, -1429728.9, -1321144.6, 16977.143, 0.026927281, 0.17205422, -1318552.1, -91122.15, 0.000008273259, 9.998585, 10.000015 
1.6549662e+3, 1.847536e+2, -1329657.1, -1222511.6, 63511.41, 0.073775016, 0.16683505, -1192995.6, -63564.92, 0.0, 9.998601, 10.000011 
1.6549683e+3, 1.9475324e+2, -1201902.1, -1109354.6, 69780.35, 0.029972086, 0.12419634, -1071899.3, -40470.105, 0.0, 9.998799, 10.000021 
1.6549703e+3, 2.0475276e+2, -1126295.8, -1188742.9, 38357.695, -0.009309025, 0.1477902, -1108060.0, -174626.11, 0.0, 9.999361, 9.998534 
1.6549723e+3, 2.1475217e+2, -887993.94, -1025541.2, -297.44913, -0.035878047, 0.23180003, -887993.3, -52548.47, 0.0, 10.000335, 9.998513 
1.6549747e+3, 2.2475068e+2, -672507.44, -805740.0, 5209.7144, -0.033837568, 0.20730849, -672304.06, 65155.49, 0.0, 10.000858, 9.999098 
1.6549774e+3, 2.3474829e+2, -565337.94, -698259.5, 49944.707, -0.00039733952, 0.046874437, -548663.25, 90814.484, 0.0, 10.0009, 9.999142 
1.6549797e+3, 2.4474661e+2, -508743.38, -708545.44, 55065.81, 0.0125603555, 0.006409232, -494572.25, 46919.95, 0.0, 10.000998, 9.998351 
1.6549815e+3, 2.5474584e+2, -387385.6, -598288.9, 54093.72, 0.0027158395, 0.08774623, -374320.66, 69181.09, 0.0, 10.001154, 9.998359 
1.6549835e+3, 2.6474434e+2, -324789.63, -624284.94, 22341.254, 0.012992682, 0.15268344, -323132.25, 22386.113, 0.0, 10.001371, 9.997403 
1.6549855e+3, 2.747421e+2, -182775.61, -505981.16, -25745.816, 0.044014964, 0.18000191, -180737.61, 66805.28, 0.0, 10.0016775, 9.997395 
1.6549882e+3, 2.847399e+2, -69645.78, -331623.9, -26868.176, 0.11550044, 0.19431159, -66918.6, 82647.05, 0.0, 10.001483, 9.998013 
1.6549915e+3, 2.9473808e+2, -84755.75, -283555.88, -30740.254, 0.22982916, 0.20361042, -80110.94, -28527.36, 0.0, 10.000688, 9.998052 
1.6549931e+3, 3.0473617e+2, -2731.1523, -235732.33, 18000.508, 0.13588515, 0.21584475, -1348.7251, -1348.7251, 0.0, 10.000991, 9.9979 
1.6549942e+3, 3.1473348e+2, 351530.34, 120284.875, 26337.787, -0.07998559, 0.14844726, 354492.16, 354492.16, 0.0, 10.002622, 9.999561 
1.664956e+3, 1.2474697e+2, -2086620.6, -1766489.4, 87265.17, -0.0021016719, 0.09451221, -1744247.0, -26758.055, 0.041736465, 9.99691, 10.001129 
1.6649552e+3, 1.3474908e+2, -1854753.5, -1601773.1, -129029.39, 0.07233077, 0.18693766, -1547574.8, 71896.56, 0.026087236, 9.997798, 10.001181 
1.664954e+3, 1.4474972e+2, -1746675.4, -1498784.6, 36661.89, -0.044398952, 0.13390577, -1493476.3, 27989.27, 0.012349877, 9.997878, 10.001157 
1.6649571e+3, 1.5475087e+2, -1766119.9, -1460430.1, 50710.71, -0.025557937, 0.13052355, -1452237.4, -28785.902, 0.003737191, 9.9970875, 10.001126 
1.6649598e+3, 1.6475153e+2, -1706430.3, -1491061.0, 7526.24, -0.015901353, 0.13425949, -1490798.3, -165352.97, 0.00050616945, 9.997297, 10.000143 
1.6649623e+3, 1.7475174e+2, -1417554.3, -1302621.3, -663.4979, 0.019072842, 0.13704738, -1302617.4, -75170.46, 0.000009797576, 9.998614, 10.000128 
1.6649647e+3, 1.8475178e+2, -1206499.6, -1181012.5, 17165.61, 0.027386144, 0.14410707, -1172377.3, -42930.66, 0.0, 9.999521, 9.999853 
1.6649672e+3, 1.947517e+2, -1041756.75, -1049610.9, 4205.8345, -0.0067242747, 0.14366572, -1039929.6, -8486.345, 0.0, 9.999975, 9.999863 
1.6649699e+3, 2.0475103e+2, -1043047.56, -1157945.3, -2872.687, -0.016564386, 0.16080315, -1042975.8, -109525.7, 0.0, 9.999975, 9.998449 
1.6649726e+3, 2.1474974e+2, -1021149.56, -1098591.9, 29817.088, 0.0060186354, 0.18397366, -1010999.56, -175532.19, 0.0, 9.999462, 9.998431 
1.6649753e+3, 2.247482e+2, -884076.94, -881172.56, 39602.426, 0.02403108, 0.14598379, -842995.7, -105513.53, 0.0, 9.999294, 9.999332 
1.664978e+3, 2.3474643e+2, -752307.44, -761961.3, 12372.715, 0.034485966, 0.024837865, -743853.4, -104359.79, 0.0, 9.999504, 9.999376 
1.6649805e+3, 2.4474508e+2, -652484.5, -778565.44, -4210.475, 0.029750763, 0.0050464654, -652344.0, -110838.94, 0.0, 10.000013, 9.998344 
1.6649827e+3, 2.547443e+2, -430222.1, -621241.5, -9170.91, 0.007011103, 0.08692222, -429782.8, 13732.876, 0.0, 10.00087, 9.998339 
1.664985e+3, 2.6474276e+2, -308622.2, -617843.94, -3131.476, 0.013466606, 0.15073584, -308590.47, 36942.28, 0.0, 10.001489, 9.99739 
1.6649874e+3, 2.7474046e+2, -163855.94, -498713.28, 39143.563, 0.051665813, 0.17332639, -159341.06, 88216.16, 0.0, 10.001817, 9.997376 
1.66499e+3, 2.847378e+2, 22516.064, -325999.4, 58001.656, 0.11383863, 0.15944457, 31915.484, 181500.0, 0.0, 10.002285, 9.9976635 
1.664993e+3, 2.947351e+2, 216537.06, -176791.13, 15387.638, 0.19728623, 0.11499937, 217138.13, 268750.06, 0.0, 10.002924, 9.997708 
1.6649945e+3, 3.047336e+2, 228507.23, -93191.09, 51135.34, 0.1062827, 0.17386839, 236439.81, 236439.81, 0.0, 10.002445, 9.998179 
1.6649963e+3, 3.147317e+2, 79346.97, -1189.9863, 67298.336, -0.027233975, 0.15600449, 117504.36, 117504.36, 0.0, 10.00071, 9.999646 
1.6749524e+3, 1.24745175e+2, -2074007.5, -1741527.5, 101114.34, -0.06268743, 0.071436465, -1713191.5, 4313.8833, 0.044670317, 9.99691, 10.001304 
1.674952e+3, 1.3474658e+2, -1848641.5, -1591373.4, -94982.59, -0.016815923, 0.08525374, -1560106.3, 59386.79, 0.028026333, 9.997806, 10.001248 
1.6749509e+3, 1.4474696e+2, -1757677.4, -1521975.5, 6989.8403, -0.15725164, 0.012378303, -1521768.4, -279.5012, 0.013357116, 9.997879, 10.000996 
1.6749547e+3, 1.547483e+2, -1779235.9, -1486150.0, 21960.834, 0.012024096, 0.04411405, -1484513.6, -61040.055, 0.004090086, 9.997081, 10.000953 
1.6749579e+3, 1.6474915e+2, -1722192.3, -1522187.1, 54252.45, 0.057661477, 0.0849826, -1508418.6, -182952.9, 0.0005678562, 9.997289, 9.999935 
1.6749606e+3, 1.7474954e+2, -1431850.9, -1332981.4, 49524.32, -0.010647596, 0.1269005, -1312441.5, -84976.29, 0.000011659807, 9.998614, 9.999921 
1.6749634e+3, 1.8474926e+2, -1234576.4, -1237944.4, 34279.97, -0.060001016, 0.1311548, -1201939.0, -72470.27, 0.0, 9.999515, 9.999466 
1.6749664e+3, 1.9474828e+2, -1069318.6, -1107382.3, 22371.938, -0.0938912, 0.07956518, -1058978.5, -27502.084, 0.0, 9.999977, 9.999467 
1.6749693e+3, 2.0474748e+2, -982233.06, -1030712.9, -22647.598, -0.06647358, 0.062513046, -973299.4, -39816.137, 0.0, 9.9999695, 9.999326 
1.6749723e+3, 2.1474697e+2, -958947.06, -968350.8, 11861.242, 0.032603968, 0.071460985, -950889.75, -115401.19, 0.0, 9.9994545, 9.99933 
1.6749752e+3, 2.2474614e+2, -930938.2, -975912.56, 46521.223, 0.082058944, 0.0916301, -901754.4, -164257.67, 0.0, 9.999283, 9.998688 
1.6749778e+3, 2.3474507e+2, -802262.56, -863640.8, 22054.617, 0.07621387, 0.10991438, -795159.75, -155652.61, 0.0, 9.999495, 9.998684 
1.6749805e+3, 2.4474385e+2, -658055.5, -788428.75, 27379.254, 0.043841816, 0.14146371, -652539.06, -111018.72, 0.0, 10.000005, 9.9982815 
1.6749832e+3, 2.5474256e+2, -433884.72, -628924.3, 25773.75, -0.01804286, 0.17824802, -430536.3, 12999.124, 0.0, 10.000868, 9.998288 
1.6749866e+3, 2.6474088e+2, -225826.44, -445598.78, 10801.027, 0.018947916, 0.16827774, -225296.88, 120254.67, 0.0, 10.001486, 9.998575 
1.6749904e+3, 2.7473864e+2, -78503.56, -321609.56, 54166.47, 0.16948316, 0.08264377, -66980.88, 180588.44, 0.0, 10.001815, 9.998595 
1.6749929e+3, 2.8473568e+2, -32366.57, -438821.7, 82442.516, 0.16911559, 0.011130143, -16281.089, 133316.63, 0.0, 10.002279, 9.996892 
1.674994e+3, 2.9473227e+2, 160124.58, -294112.5, 43031.383, -0.008088532, -0.024428198, 164165.14, 215799.16, 0.0, 10.002924, 9.9969015 
1.6749954e+3, 3.0473098e+2, 248932.95, -52124.36, -11563.022, -0.050947737, 0.08296996, 249376.4, 249376.4, 0.0, 10.002448, 9.998462 
1.6749996e+3, 3.1473005e+2, 64170.703, -31146.453, 21000.857, 0.2203531, 0.13515137, 68592.6, 68592.6, 0.0, 10.000702, 9.999444 
1.6849487e+3, 1.2474284e+2, -2283706.5, -1811775.1, 73654.37, -0.052016325, 0.06617233, -1800547.0, -83019.46, 0.04776628, 9.995341, 10.001575 
1.6849498e+3, 1.3474452e+2, -1985207.1, -1636845.8, -96191.03, 0.028152157, 0.08755948, -1612050.0, 7462.423, 0.030093629, 9.996786, 10.001417 
1.6849485e+3, 1.4474495e+2, -1775031.5, -1550319.1, -37754.066, -0.16986637, 0.019379303, -1544145.8, -22637.943, 0.0144471, 9.997843, 10.000821 
1.6849522e+3, 1.5474592e+2, -1602936.3, -1422067.6, -28376.908, 0.001872753, 0.033557512, -1417720.0, 5776.0625, 0.004479329, 9.998377, 10.000771 
1.684956e+3, 1.6474646e+2, -1503671.8, -1414776.9, 48594.418, 0.061801, 0.052648507, -1393368.5, -67878.29, 0.0006375465, 9.998781, 9.99995 
1.6849595e+3, 1.7474666e+2, -1364831.6, -1297122.9, 60802.695, 0.010481889, 0.071715824, -1261384.9, -33895.6, 0.00001399049, 9.9990635, 9.9999485 
1.684963e+3, 1.8474633e+2, -1303917.3, -1280661.0, 40506.313, -0.035734132, 0.07404455, -1250146.8, -120653.74, 0.0, 9.999079, 9.999383 
1.684966e+3, 1.9474547e+2, -1250564.5, -1205583.0, 48664.863, -0.08181939, 0.04489125, -1174463.0, -142961.72, 0.0, 9.998778, 9.999371 
1.684969e+3, 2.0474477e+2, -1105716.9, -1065050.6, -4897.499, -0.056651194, 0.030926643, -1064469.1, -130961.55, 0.0, 9.999013, 9.999551 
1.6849722e+3, 2.147443e+2, -887229.94, -906993.75, -23449.34, 0.04957651, 0.020853398, -871665.4, -36154.684, 0.0, 9.999833, 9.999567 
1.6849752e+3, 2.2474355e+2, -767040.0, -928606.4, 9740.016, 0.09293949, 0.049612254, -766454.94, -28936.773, 0.0, 10.0005455, 9.998404 
1.6849782e+3, 2.3474257e+2, -583637.8, -791138.0, 12901.597, 0.06551551, 0.10699518, -582838.75, 56691.11, 0.0, 10.00114, 9.998388 
1.6849811e+3, 2.4474128e+2, -479079.6, -688183.56, 32372.57, 0.030836418, 0.1399695, -474182.5, 67361.93, 0.0, 10.001176, 9.9984045 
1.684984e+3, 2.547397e+2, -465352.72, -629088.0, 41528.516, -0.01348059, 0.13462152, -455422.06, -11860.706, 0.0, 10.000589, 9.99842 
1.6849878e+3, 2.6473817e+2, -339143.13, -474622.63, 13323.861, 0.040308125, 0.12227777, -337845.22, 7730.725, 0.0, 10.000599, 9.998802 
1.6849922e+3, 2.747366e+2, -140539.95, -325214.9, -19275.822, 0.20540997, 0.080988176, -138549.45, 109038.68, 0.0, 10.001279, 9.998827 
1.6849951e+3, 2.8473413e+2, -85768.7, -426961.94, 10241.001, 0.18722723, 0.029117115, -85461.59, 64149.992, 0.0, 10.001751, 9.997229 
1.684996e+3, 2.9473087e+2, 44245.59, -310390.3, 55036.133, -0.03994807, -0.02178781, 52590.32, 104234.766, 0.0, 10.001958, 9.997255 
1.6849977e+3, 3.047292e+2, 212766.94, -92173.7, -8847.496, -0.061327536, 0.035954162, 213023.42, 213023.42, 0.0, 10.002301, 9.998255 
1.6850021e+3, 3.1472787e+2, 329383.97, 31020.73, -5752.7524, 0.28902996, 0.0752828, 329494.84, 329494.84, 0.0, 10.002806, 9.998861 
1.6949446e+3, 1.2473981e+2, -2260908.5, -1763617.3, 96510.4, 0.0107130855, 0.060204163, -1745544.1, -27986.898, 0.051028147, 9.995334, 10.001911 
1.6949484e+3, 1.3474292e+2, -1968719.9, -1599439.5, -39537.953, 0.2019311, 0.19744684, -1595253.8, 24275.477, 0.032295942, 9.996771, 10.001683 
1.6949473e+3, 1.4474365e+2, -1789878.5, -1581142.8, -17546.559, -0.08661702, 0.15664296, -1579678.1, -58155.945, 0.015627254, 9.997839, 10.000614 
1.69495e+3, 1.5474373e+2, -1615144.6, -1450465.5, -7735.6636, -0.06395685, 0.10001335, -1450103.0, -26584.096, 0.004910431, 9.998388, 10.00057 
1.694954e+3, 1.6474348e+2, -1484834.5, -1377883.1, 58173.777, -0.014541177, 0.039629467, -1352340.9, -26822.49, 0.0007170378, 9.998789, 10.000201 
1.6949594e+3, 1.7474306e+2, -1345783.8, -1259223.0, 72379.64, 0.07637597, -0.030552521, -1218170.8, 9348.688, 0.000016975888, 9.999068, 10.000207 
1.6949634e+3, 1.8474296e+2, -1290770.4, -1250893.9, 29005.486, 0.09389918, -0.029164933, -1235634.8, -106115.21, 0.0, 9.999067, 9.999594 
1.6949658e+3, 1.9474328e+2, -1237527.9, -1176714.0, 38400.313, 0.026221577, 0.039185762, -1158139.6, -126621.38, 0.0, 9.99877, 9.999574 
1.6949686e+3, 2.0474286e+2, -1138537.8, -1130232.3, 24652.924, 0.008889723, 0.06566084, -1109384.8, -175861.66, 0.0, 9.999, 9.99911 
1.694972e+3, 2.1474168e+2, -919621.2, -973694.56, 8851.129, 0.051100202, 0.031655706, -918209.25, -82675.22, 0.0, 9.999828, 9.999112 
1.6949753e+3, 2.2474034e+2, -760763.75, -914820.3, 31423.385, 0.048149105, 0.019108294, -754600.8, -17053.68, 0.0, 10.000541, 9.998501 
1.6949785e+3, 2.3473887e+2, -576904.44, -777528.4, 37371.652, -0.0049911877, 0.01637661, -570169.06, 69392.92, 0.0, 10.001139, 9.998484 
1.6949818e+3, 2.4473725e+2, -458650.8, -644674.1, 11643.438, -0.017634124, -0.00095975725, -457924.88, 83653.06, 0.0, 10.001171, 9.998706 
1.694985e+3, 2.547356e+2, -444803.28, -585264.25, 21608.424, 0.016113872, -0.046760567, -441554.2, 2039.9681, 0.0, 10.000585, 9.998723 
1.6949886e+3, 2.6473454e+2, -391837.4, -582718.94, 38297.254, 0.07182309, 0.011202467, -384440.34, -38833.758, 0.0, 10.000592, 9.998063 
1.694993e+3, 2.7473426e+2, -195302.66, -438466.34, 9389.384, 0.14820498, 0.17084831, -194940.64, 52673.504, 0.0, 10.001276, 9.99805 
1.6949967e+3, 2.8473303e+2, 14555.81, -219117.06, 19140.455, 0.15692332, 0.21590312, 16113.249, 165740.06, 0.0, 10.001751, 9.998657 
1.6949993e+3, 2.9473087e+2, 149212.84, -91866.664, 65744.28, 0.09531806, 0.12400872, 165976.19, 217620.25, 0.0, 10.001953, 9.99876 
1.6950013e+3, 3.047281e+2, 164190.36, -192964.84, 10598.399, 0.068563156, 0.027596455, 164504.6, 164504.6, 0.0, 10.002298, 9.997564 
1.6950035e+3, 3.1472543e+2, 269763.25, -92639.72, 34286.176, 0.15570901, 0.010247244, 272978.47, 272978.47, 0.0, 10.002803, 9.998013 
1.70494e+3, 1.2473606e+2, -2146063.8, -1696146.4, 76744.55, -0.017612176, 0.013439805, -1683415.9, 34176.223, 0.054460447, 9.9960575, 10.002041 
1.7049456e+3, 1.3473953e+2, -2019214.8, -1618653.3, -43733.73, 0.26166973, 0.17990567, -1613933.9, 5626.687, 0.034638863, 9.996407, 10.001724 
1.7049451e+3, 1.4474043e+2, -1883524.4, -1638004.3, -25148.596, -0.044302303, 0.16058722, -1635454.8, -113902.68, 0.016903277, 9.997253, 10.000503 
1.7049488e+3, 1.5474036e+2, -1613046.0, -1462174.8, -13333.573, -0.026420055, 0.100054316, -1461005.5, -37454.605, 0.00538814, 9.99846, 10.000455 
1.7049532e+3, 1.6473994e+2, -1476620.8, -1382995.4, 10455.522, 0.020069784, 0.030321043, -1381841.9, -56289.625, 0.0008082668, 9.998882, 10.000123 
1.7049584e+3, 1.7473927e+2, -1439081.9, -1314026.3, -4347.6055, 0.10221931, -0.052732974, -1313875.3, -86320.32, 0.000020835996, 9.998468, 10.000123 
1.7049624e+3, 1.8473922e+2, -1350227.1, -1264314.6, -52478.152, 0.11896997, -0.04940638, -1239453.5, -109899.234, 0.0, 9.998594, 9.99973 
1.7049652e+3, 1.9473983e+2, -1147528.9, -1116958.4, -49737.527, 0.059518185, 0.03549313, -1080210.4, -48660.813, 0.0, 9.999319, 9.999718 
1.7049684e+3, 2.0473939e+2, -1036353.3, -1100843.6, -43289.43, 0.04011058, 0.060057435, -1014619.56, -81064.836, 0.0, 9.999788, 9.998931 
1.7049721e+3, 2.1473783e+2, -912216.25, -992001.0, -41246.266, 0.06563933, 0.0060127554, -894726.94, -59156.992, 0.0, 9.999975, 9.998917 
1.7049757e+3, 2.2473642e+2, -788480.44, -896450.2, -2208.9348, 0.045168653, -0.017404633, -788435.25, -50851.57, 0.0, 10.000217, 9.998782 
1.7049791e+3, 2.3473524e+2, -645258.3, -776743.56, 14384.733, -0.026942935, -0.021309678, -643703.0, -4107.9214, 0.0, 10.000529, 9.998779 
1.7049825e+3, 2.4473386e+2, -510258.28, -657552.9, -34354.414, -0.039704774, -0.034542948, -502639.66, 38968.418, 0.0, 10.000766, 9.998813 
1.7049856e+3, 2.5473237e+2, -389875.2, -547307.8, -42550.098, 0.015429987, -0.0718659, -379110.94, 64511.156, 0.0, 10.000915, 9.998824 
1.7049897e+3, 2.647312e+2, -287915.16, -552949.9, 24659.098, 0.06981183, -0.022698047, -285640.38, 59995.766, 0.0, 10.001398, 9.997878 
1.7049944e+3, 2.7473047e+2, -67486.336, -399178.8, 36168.93, 0.117165044, 0.11149295, -63588.16, 184061.22, 0.0, 10.002252, 9.997849 
1.7049985e+3, 2.847296e+2, 101790.305, -141815.14, -13988.424, 0.1437833, 0.18936321, 102590.92, 252250.45, 0.0, 10.002203, 9.998969 
1.7050014e+3, 2.9472864e+2, 58386.805, -99887.59, -57967.33, 0.1572517, 0.18419, 77346.02, 129012.234, 0.0, 10.001179, 9.999078 
1.705004e+3, 3.0472574e+2, 75857.84, -234366.3, -69529.26, 0.14041929, 0.06033988, 90728.34, 90728.34, 0.0, 10.001689, 9.997573 
1.705006e+3, 3.1472307e+2, 435372.44, 12566.43, 15462.194, 0.0783161, 0.04200632, 435937.13, 435937.13, 0.0, 10.003838, 9.998234 
1.7149349e+3, 1.24731414e+2, -2156044.3, -1714624.9, 46596.03, -0.1514871, -0.095158376, -1709759.9, 7874.4185, 0.058051143, 9.996049, 10.001911 
1.7149413e+3, 1.3473436e+2, -2031696.3, -1643962.5, -27351.861, 0.19582033, 0.03540712, -1642042.5, -22436.217, 0.037118543, 9.996406, 10.001551 
1.7149425e+3, 1.4473532e+2, -1886437.0, -1643526.8, 20864.75, -0.055635158, 0.032522324, -1641747.6, -120150.41, 0.018276531, 9.997249, 10.000468 
1.7149486e+3, 1.5473579e+2, -1615925.4, -1467626.8, 33023.676, 0.11063442, 0.03029699, -1460605.4, -37013.098, 0.005915651, 9.998456, 10.00042 
1.7149535e+3, 1.6473576e+2, -1507599.9, -1445894.3, -5247.2915, 0.1603603, 0.024141474, -1445451.3, -119859.05, 0.0009130136, 9.998876, 9.999695 
1.7149566e+3, 1.7473532e+2, -1469609.6, -1378198.1, -19296.336, 0.08115794, 0.006143014, -1374291.8, -146695.8, 0.000025810483, 9.99847, 9.999682 
1.71496e+3, 1.847351e+2, -1347201.9, -1257049.4, -27087.438, 0.029071953, 0.013477456, -1249536.8, -119939.39, 0.0, 9.998589, 9.999783 
1.714964e+3, 1.9473515e+2, -1142733.4, -1106774.5, -21102.102, 0.009621333, 0.03295468, -1097031.0, -65435.348, 0.0, 9.999316, 9.99979 
1.7149681e+3, 2.0473436e+2, -1031318.0, -1089230.5, -36772.56, 0.02721531, 0.014464795, -1013469.5, -79866.695, 0.0, 9.999783, 9.999014 
1.7149723e+3, 2.147327e+2, -908651.8, -983068.9, -32585.799, 0.08696945, -0.055987407, -896400.2, -60781.473, 0.0, 9.999967, 9.998982 
1.7149761e+3, 2.2473171e+2, -759156.5, -832986.75, 8832.054, 0.07828571, -0.060453575, -758114.6, -20486.438, 0.0, 10.000205, 9.999224 
1.7149799e+3, 2.3473157e+2, -613874.56, -710728.44, 27749.613, -0.0054797544, -0.0067311223, -606487.44, 33142.258, 0.0, 10.0005245, 9.999236 
1.7149833e+3, 2.44731e+2, -516824.1, -670179.25, -28835.701, -0.04199794, 0.039214898, -511581.3, 30054.25, 0.0, 10.00076, 9.998729 
1.7149863e+3, 2.5473e+2, -398051.22, -563048.06, -34495.066, -0.025028758, 0.061422206, -391129.84, 52515.74, 0.0, 10.000909, 9.998719 
1.7149906e+3, 2.6472807e+2, -264058.38, -502896.6, 56575.254, 0.025074473, 0.021314776, -251334.83, 94330.46, 0.0, 10.001394, 9.998226 
1.7149965e+3, 2.7472514e+2, -42495.27, -347182.84, 70465.25, 0.10742778, -0.09714744, -26987.99, 220706.73, 0.0, 10.002251, 9.998209 
1.7150006e+3, 2.8472376e+2, 44647.023, -259331.58, -50382.418, 0.14248876, -0.05034984, 52779.973, 202490.64, 0.0, 10.002198, 9.998164 
1.7150025e+3, 2.9472408e+2, -3502.3716, -227065.06, -91875.22, 0.13473521, 0.15830384, 29409.492, 81121.336, 0.0, 10.001172, 9.998208 
1.7150058e+3, 3.04722e+2, 119302.68, -144962.86, 8380.433, 0.14233229, 0.13349456, 119568.17, 119568.17, 0.0, 10.00169, 9.998189 
1.7150097e+3, 3.1472018e+2, 528513.7, 205595.3, 103689.52, 0.041779023, 0.13076386, 558941.44, 558941.44, 0.0, 10.003838, 9.999563 
1.7249306e+3, 1.24728e+2, -2173278.8, -1737494.9, 30431.955, -0.17667127, -0.052041836, -1735380.0, -17713.45, 0.06177432, 9.995999, 10.001771 
1.724938e+3, 1.3472953e+2, -1816799.3, -1572443.4, -8647.405, 0.15208957, -0.036654126, -1572137.6, 47512.543, 0.039721623, 9.998012, 10.001278 
1.7249401e+3, 1.4473014e+2, -1670917.9, -1561537.3, -2467.8274, -0.08573717, -0.052928843, -1561481.5, -39837.094, 0.019743169, 9.998819, 10.000275 
1.7249477e+3, 1.5473114e+2, -1679578.1, -1519611.0, -8404.358, 0.19199638, 0.0176197, -1519170.8, -95534.7, 0.006494274, 9.998109, 10.000232 
1.724953e+3, 1.647313e+2, -1597768.9, -1502078.0, -32784.426, 0.25667015, 0.044686083, -1491923.4, -166287.98, 0.001032908, 9.99831, 9.999582 
1.7249557e+3, 1.7473063e+2, -1320475.1, -1318182.5, -23075.596, 0.08118696, 0.013639189, -1296224.9, -68582.65, 0.00003215152, 9.999545, 9.999575 
1.724959e+3, 1.8473019e+2, -1132767.8, -1153899.3, -25281.164, -0.014889712, 0.0058001326, -1115933.3, 13712.357, 0.0, 10.000061, 9.999782 
1.7249632e+3, 1.947301e+2, -1074532.6, -1074261.4, -27218.537, -0.022993116, 0.0114336265, -1047178.1, -15533.652, 0.0, 9.999785, 9.999787 
1.7249678e+3, 2.0472936e+2, -1016866.8, -1056302.0, -38876.805, 0.020313341, -0.010664977, -992993.25, -59343.223, 0.0, 9.999771, 9.999245 
1.7249727e+3, 2.1472801e+2, -879426.06, -941405.4, -25757.848, 0.1218342, -0.076235086, -870119.0, -34456.75, 0.0, 10.000053, 9.999224 
1.7249767e+3, 2.2472717e+2, -738865.2, -818915.2, 11299.357, 0.116350435, -0.080522135, -737300.8, 369.3589, 0.0, 10.000326, 9.999262 
1.7249803e+3, 2.3472703e+2, -605100.75, -702668.44, -3562.5432, -0.010518511, -0.02938197, -604970.8, 34701.574, 0.0, 10.000569, 9.9992695 
1.7249839e+3, 2.4472663e+2, -497182.13, -641520.06, -68127.79, -0.057775028, 0.024356907, -470105.16, 71571.81, 0.0, 10.000819, 9.998894 
1.7249873e+3, 2.5472596e+2, -360325.13, -526867.25, -57751.17, -0.014908569, 0.063497745, -342258.78, 101425.05, 0.0, 10.001094, 9.998876 
1.7249921e+3, 2.6472417e+2, -276480.1, -474780.5, 48403.0, 0.036870196, 0.014084638, -265296.2, 80405.02, 0.0, 10.001164, 9.998528 
1.724998e+3, 2.747212e+2, -201841.86, -389187.75, 56843.92, 0.09218107, -0.13988519, -185943.58, 61785.336, 0.0, 10.00101, 9.998516 
1.7250021e+3, 2.8471938e+2, -86355.08, -367705.75, -58836.8, 0.106113434, -0.13015717, -74546.586, 75201.875, 0.0, 10.001494, 9.997758 
1.7250039e+3, 2.9471886e+2, 185503.56, -186933.42, -72944.1, 0.0881228, 0.034770574, 199280.48, 251040.11, 0.0, 10.002694, 9.997747 
1.7250082e+3, 3.047171e+2, 319402.63, -70888.99, 43681.895, 0.14297095, 0.07419806, 324231.8, 324231.8, 0.0, 10.003164, 9.997988 
1.7250127e+3, 3.1471604e+2, 393699.7, 179669.02, 67795.08, 0.02182269, 0.16412346, 413366.84, 413366.84, 0.0, 10.00274, 9.999917 
1.7349273e+3, 1.2472591e+2, -2193470.5, -1775524.9, 54466.633, -0.107745744, 0.14735872, -1768543.5, -50855.176, 0.06561491, 9.99598, 10.001521 
1.7349358e+3, 1.3472506e+2, -1842647.4, -1626326.6, 69806.91, 0.12314009, -0.03730119, -1605756.0, 13936.709, 0.042436883, 9.998018, 10.0008955 
1.7349383e+3, 1.4472488e+2, -1694602.3, -1613720.5, -26660.494, -0.1436604, -0.09525021, -1605723.4, -84029.23, 0.021297567, 9.998831, 9.999913 
1.734946e+3, 1.5472643e+2, -1703270.0, -1569783.0, -35344.645, 0.20785697, 0.06424542, -1561002.1, -137320.17, 0.0071235094, 9.998112, 9.999887 
1.7349517e+3, 1.6472654e+2, -1583107.4, -1470561.9, 10574.674, 0.2964862, 0.095403984, -1469576.9, -143895.31, 0.0011691477, 9.998304, 9.999802 
1.7349555e+3, 1.7472515e+2, -1304498.8, -1285212.6, 24853.998, 0.09788548, -0.031640243, -1268196.6, -40502.89, 0.00004011834, 9.999544, 9.999803 
1.734959e+3, 1.8472445e+2, -1138697.6, -1164587.6, -34815.652, -0.01833544, -0.073762886, -1114498.3, 15200.919, 0.0, 10.000053, 9.999712 
1.7349628e+3, 1.9472466e+2, -1081195.3, -1087291.1, -36278.406, -0.044667967, -0.02901324, -1047836.94, -16140.868, 0.0, 9.999782, 9.9997015 
1.7349674e+3, 2.0472443e+2, -991702.5, -1002989.56, -29585.938, 0.011716026, -0.01652462, -967226.6, -33529.91, 0.0, 9.999764, 9.999616 
1.7349732e+3, 2.147237e+2, -853084.44, -886795.8, -13185.219, 0.16450986, -0.056919564, -848540.0, -12838.892, 0.0, 10.000051, 9.999601 
1.7349775e+3, 2.2472271e+2, -765671.0, -871060.06, 20370.25, 0.15075938, -0.07781919, -761870.75, -24160.555, 0.0, 10.000312, 9.99891 
1.7349806e+3, 2.3472157e+2, -633152.44, -759142.75, 7871.131, -0.05054217, -0.088576466, -632662.56, 7060.898, 0.0, 10.000561, 9.998885 
1.7349844e+3, 2.447207e+2, -471305.63, -586639.94, -58250.46, -0.09462149, -0.08009508, -447005.6, 94727.35, 0.0, 10.000813, 9.999274 
1.734989e+3, 2.5472018e+2, -332609.13, -468461.8, -45453.62, 0.04099032, -0.066660404, -318804.1, 124933.59, 0.0, 10.001089, 9.99928 
1.7349938e+3, 2.6471943e+2, -259315.92, -437999.53, 43509.55, 0.09850738, -0.044205647, -249284.48, 96460.25, 0.0, 10.001159, 9.998783 
1.7349988e+3, 2.7471852e+2, -185265.86, -353612.75, 53241.05, 0.060366254, -0.01578225, -169841.22, 77911.57, 0.0, 10.001005, 9.998762 
1.7350028e+3, 2.8471643e+2, -87685.46, -371113.38, -15381.932, 0.023726268, -0.049394455, -86853.11, 62920.777, 0.0, 10.001494, 9.997737 
1.7350058e+3, 2.9471287e+2, 181068.52, -198748.92, -25010.873, 0.011491, -0.18450083, 182708.39, 234519.14, 0.0, 10.002702, 9.997665 
1.7350112e+3, 3.047109e+2, 250330.5, -215262.84, 30047.117, 0.13506864, -0.108022004, 252261.6, 252261.6, 0.0, 10.003168, 9.996994 
1.7350154e+3, 3.1470972e+2, 346679.28, 85197.37, 35611.34, 0.0077954913, 0.06393396, 351442.44, 351442.44, 0.0, 10.002727, 9.999273 
1.7449239e+3, 1.24720015e+2, -2068040.0, -1676742.6, -97597.41, -0.072271176, 0.16489159, -1653750.9, 63996.902, 0.06957688, 9.996657, 10.0019045 
1.7449334e+3, 1.3471968e+2, -2016838.3, -1685732.6, 7872.3213, 0.15500963, 0.008773537, -1685545.6, -65799.555, 0.045260757, 9.996721, 10.001109 
1.7449367e+3, 1.4471935e+2, -1890305.0, -1708001.6, -77412.59, -0.11959675, -0.07262509, -1679565.1, -157817.33, 0.022935338, 9.997491, 9.99991 
1.7449442e+3, 1.5472017e+2, -1592609.1, -1516690.3, -67135.805, 0.1802645, 0.013338324, -1477525.5, -53783.566, 0.0078018596, 9.998876, 9.999881 
1.7449503e+3, 1.6472021e+2, -1413294.0, -1373856.5, -6148.309, 0.2662482, 0.031644437, -1372920.1, -47178.414, 0.0013223152, 9.999409, 9.999932 
1.7449549e+3, 1.7471945e+2, -1371307.6, -1302896.6, -2070.056, 0.1242635, -0.044415627, -1302834.1, -75086.46, 0.000049909977, 9.999027, 9.999929 
1.744959e+3, 1.8471903e+2, -1271465.3, -1224029.6, -69564.125, 0.030331925, -0.06869984, -1174251.3, -44500.285, 0.0000000000000006446772, 9.999125, 9.999751 
1.744963e+3, 1.9471908e+2, -1081821.4, -1083342.0, -64399.793, -0.016541561, -0.04354418, -1018177.44, 13572.667, 0.0, 9.999762, 9.999736 
1.7449674e+3, 2.0471886e+2, -922249.1, -964818.06, -59865.477, 0.011151153, -0.032332174, -879996.94, 53753.934, 0.0, 10.000221, 9.999657 
1.7449729e+3, 2.1471839e+2, -788097.0, -851147.6, -71931.55, 0.1246547, -0.05140459, -741085.75, 94667.03, 0.0, 10.000478, 9.999641 
1.7449775e+3, 2.2471747e+2, -759503.56, -859138.5, -50399.54, 0.11551279, -0.07159182, -738455.7, -694.9528, 0.0, 10.000317, 9.99899 
1.7449808e+3, 2.3471616e+2, -753632.4, -808151.1, -31409.607, -0.03270701, -0.106465675, -739302.9, -99528.39, 0.0, 9.999697, 9.998965 
1.744985e+3, 2.4471515e+2, -609551.94, -651392.75, -60698.453, -0.06264764, -0.1162252, -566269.8, -24484.834, 0.0, 9.999856, 9.999291 
1.74499e+3, 2.5471455e+2, -363011.4, -480981.53, -78386.695, 0.041857395, -0.11356807, -323895.94, 119895.32, 0.0, 10.0008745, 9.999296 
1.744995e+3, 2.6471406e+2, -204776.23, -402596.22, -32499.34, 0.078468405, -0.06791756, -199573.81, 146222.48, 0.0, 10.001498, 9.99886 
1.7449997e+3, 2.747138e+2, -79766.336, -294286.4, -39218.992, 0.029224476, 0.017662575, -72821.1, 174977.66, 0.0, 10.001697, 9.998836 
1.7450042e+3, 2.8471193e+2, 25844.516, -290601.5, -68258.81, -0.019154154, -0.0118415225, 39940.36, 189757.84, 0.0, 10.002167, 9.997964 
1.7450082e+3, 2.947081e+2, 225212.58, -155669.27, -59098.832, -0.04033411, -0.19159375, 234171.8, 286026.3, 0.0, 10.002914, 9.997858 
1.7450143e+3, 3.047064e+2, 214543.86, -284138.16, -20533.14, 0.13908097, -0.07866591, 215387.88, 215387.88, 0.0, 10.003142, 9.996535 
1.7450184e+3, 3.1470335e+2, 307927.56, 4567.5396, -17683.959, 0.048716355, -0.04773848, 308954.97, 308954.97, 0.0, 10.002737, 9.998709 
1.7549205e+3, 1.2471039e+2, -1999250.5, -1541735.8, -143024.4, -0.085867874, 0.00812433, -1500704.5, 217140.05, 0.07366958, 9.996649, 10.002914 
1.754931e+3, 1.3471338e+2, -1960279.1, -1568982.5, 11670.318, 0.24199928, 0.10253004, -1568634.8, 51175.527, 0.048192136, 9.996711, 10.001934 
1.7549352e+3, 1.4471364e+2, -1868623.1, -1659620.4, -25545.436, -0.02146058, 0.021827154, -1656543.4, -134738.7, 0.024652572, 9.997474, 10.000251 
1.7549424e+3, 1.547123e+2, -1569234.9, -1469755.3, -13811.295, 0.10071265, -0.13858467, -1467873.4, -44056.88, 0.008527423, 9.99888, 10.000202 
1.7549486e+3, 1.6471224e+2, -1411743.9, -1371297.5, -21096.014, 0.15516903, -0.15170239, -1362297.1, -36480.37, 0.0014925194, 9.999411, 9.999949 
1.7549542e+3, 1.7471352e+2, -1371367.9, -1302414.9, -16318.269, 0.15197697, -0.02433024, -1298748.0, -70943.8, 0.00006156021, 9.999023, 9.999935 
1.7549592e+3, 1.8471387e+2, -1261523.6, -1202368.8, -46983.15, 0.12117607, 0.021935647, -1176428.3, -46627.273, 0.0000000010737394, 9.999118, 9.999904 
1.7549634e+3, 1.9471326e+2, -1071547.9, -1061856.6, -38674.71, 0.05419323, -0.03351214, -1027725.2, 4081.7966, 0.0, 9.999759, 9.999886 
1.7549677e+3, 2.0471263e+2, -944916.4, -1009209.2, -50444.13, 0.010785574, -0.05790606, -917246.4, 16566.518, 0.0, 10.00021, 9.999358 
1.7549722e+3, 2.1471201e+2, -810915.1, -897181.4, -60661.445, -0.0053478302, -0.06063791, -779615.25, 56202.668, 0.0, 10.000471, 9.99933 
1.7549767e+3, 2.2471133e+2, -724555.8, -785062.2, -73296.26, 0.002090846, -0.06392715, -675514.6, 62307.883, 0.0, 10.000309, 9.999502 
1.7549813e+3, 2.3471072e+2, -717644.6, -732370.4, -52647.363, 0.03730892, -0.08376167, -671847.75, -32021.771, 0.0, 9.999689, 9.99949 
1.7549859e+3, 2.4470991e+2, -635914.9, -702417.44, -24019.768, 0.030499358, -0.08399522, -628146.7, -86312.99, 0.0, 9.99984, 9.998948 
1.7549902e+3, 2.54709e+2, -390397.8, -535735.75, -37938.93, -0.019806808, -0.074887864, -381090.3, 62754.723, 0.0, 10.000866, 9.998924 
1.7549954e+3, 2.6470798e+2, -212342.25, -419574.6, -24166.506, -0.030706383, -0.055720754, -209561.38, 136295.19, 0.0, 10.0015, 9.998745 
1.7550011e+3, 2.7470696e+2, -86686.914, -310143.1, -29264.72, -0.0074112755, -0.038873725, -82917.87, 164949.73, 0.0, 10.001699, 9.998727 
1.7550062e+3, 2.8470573e+2, 57640.81, -222577.27, -40247.6, -0.030511247, -0.018017298, 63306.98, 213187.16, 0.0, 10.002159, 9.998434 
1.7550108e+3, 2.9470444e+2, 257371.42, -88872.016, -29209.83, -0.076101795, 0.005898236, 259818.33, 311711.0, 0.0, 10.002915, 9.998317 
1.7550176e+3, 3.0470344e+2, 220615.83, -273664.25, -33678.855, 0.14544195, 0.16353437, 222900.05, 222900.05, 0.0, 10.003148, 9.996606 
1.7550224e+3, 3.1469762e+2, 247790.42, -118402.45, -74988.99, 0.15706344, -0.087527744, 262551.66, 262551.66, 0.0, 10.002727, 9.997871 
1.7649175e+3, 1.2470267e+2, -2093844.9, -1589743.3, -79123.73, -0.018235255, -0.06121774, -1577615.8, 140302.6, 0.07790593, 9.996025, 10.002852 
1.764928e+3, 1.3470612e+2, -1906972.1, -1566029.3, 36519.688, 0.24515584, 0.10081957, -1562161.4, 57720.152, 0.05123237, 9.997173, 10.001734 
1.7649332e+3, 1.4470656e+2, -1734919.1, -1551281.9, -16756.883, -0.004057112, 0.027134981, -1549765.4, -27890.324, 0.026445003, 9.998206, 10.00064 
1.7649412e+3, 1.5470572e+2, -1504183.0, -1393826.1, -2279.5383, 0.078140594, -0.12419585, -1393779.1, 30101.979, 0.009296644, 9.999137, 10.000599 
1.7649476e+3, 1.6470584e+2, -1385946.1, -1355655.4, -56075.445, 0.11047402, -0.13806163, -1312716.0, 13162.86, 0.0016790463, 9.999576, 9.999976 
1.7649531e+3, 1.7470698e+2, -1306061.6, -1270059.6, -55242.33, 0.11158273, -0.024483178, -1229959.5, -2091.7214, 0.000074904594, 9.999467, 9.999943 
1.7649582e+3, 1.8470728e+2, -1232050.5, -1194896.5, -73765.23, 0.09877267, 0.018490203, -1137405.0, -7539.597, 0.000000009428086, 9.999351, 9.999843 
1.7649628e+3, 1.9470674e+2, -1151901.5, -1108840.1, -84751.2, 0.061952863, -0.025684074, -1042927.44, -11055.709, 0.0, 9.999242, 9.999812 
1.7649676e+3, 2.0470615e+2, -1045188.06, -1055826.4, -83692.36, 0.027700951, -0.040227544, -966646.0, -32768.434, 0.0, 9.999517, 9.99937 
1.7649725e+3, 2.1470563e+2, -843957.44, -910890.7, -71981.21, -0.0031932888, -0.034921404, -798043.25, 37838.64, 0.0, 10.000239, 9.999344 
1.764977e+3, 2.247049e+2, -658624.56, -742147.7, -111239.484, -0.011114852, -0.04934007, -581565.9, 156320.45, 0.0, 10.000713, 9.999601 
1.7649812e+3, 2.3470409e+2, -535137.75, -632697.0, -126684.06, 0.005814807, -0.09996737, -448166.5, 191723.53, 0.0, 10.000894, 9.999593 
1.7649858e+3, 2.4470319e+2, -471148.4, -633801.56, -75436.17, -0.0038755985, -0.10886808, -441548.75, 100349.12, 0.0, 10.001018, 9.998852 
1.764991e+3, 2.5470233e+2, -365851.25, -535997.44, -70054.266, -0.040028736, -0.08371802, -340719.84, 103189.48, 0.0, 10.001085, 9.998817 
1.7649966e+3, 2.6470134e+2, -259158.83, -441706.63, -54092.207, -0.045638554, -0.058295313, -244334.22, 101587.05, 0.0, 10.001178, 9.998747 
1.7650025e+3, 2.7470022e+2, -144147.47, -337093.7, -53446.383, -0.027607212, -0.050634097, -130331.98, 117601.35, 0.0, 10.001303, 9.998733 
1.765008e+3, 2.8469908e+2, -74241.12, -278319.44, -69916.71, -0.026488895, -0.022921644, -52585.75, 97359.5, 0.0, 10.001219, 9.998504 
1.7650132e+3, 2.946982e+2, -27971.12, -219017.88, -91288.43, -0.020363089, 0.03376035, 8635.336, 60589.805, 0.0, 10.000924, 9.99838 
1.7650202e+3, 3.046973e+2, 54921.85, -286286.22, -67346.37, 0.14806129, 0.17086956, 67733.38, 67733.38, 0.0, 10.001722, 9.997205 
1.765025e+3, 3.1469172e+2, 375835.44, -66194.6, -112811.83, 0.11201049, -0.1216041, 402961.8, 402961.8, 0.0, 10.00365, 9.997784 
1.774915e+3, 1.24697216e+2, -2181672.0, -1756440.0, -76086.3, 0.12917998, -0.020097898, -1743236.0, -25270.357, 0.08231803, 9.996004, 10.00164 
1.7749242e+3, 1.3469796e+2, -1997542.3, -1751939.4, 81329.836, 0.15078282, -0.0010647516, -1727449.5, -107489.73, 0.054393712, 9.997176, 10.000436 
1.7749307e+3, 1.4469802e+2, -1705649.6, -1491815.9, 16001.805, -0.08421842, -0.061254777, -1490625.1, 31334.275, 0.02831169, 9.998205, 10.001055 
1.7749405e+3, 1.547004e+2, -1471580.5, -1326528.4, 33075.984, 0.10569778, 0.060075205, -1319342.1, 104593.414, 0.010105246, 9.999135, 10.001067 
1.7749473e+3, 1.647011e+2, -1384056.5, -1351867.6, -60008.566, 0.12580724, 0.07914439, -1305832.8, 20094.813, 0.0018804772, 9.999575, 10.000004 
1.7749514e+3, 1.7469989e+2, -1305423.9, -1269167.3, -58166.137, -0.0041138106, -0.044640843, -1226369.9, 1568.2134, 0.00008970714, 9.999468, 9.999949 
1.774956e+3, 1.8469927e+2, -1254919.1, -1240302.3, -78547.734, -0.04620123, -0.079261646, -1168723.6, -38779.125, 0.000000028818846, 9.999341, 9.999536 
1.7749615e+3, 1.9469945e+2, -1175728.8, -1155228.4, -87491.23, -0.0024518198, -0.018825239, -1077389.0, -45444.313, 0.0, 9.999229, 9.9995 
1.7749675e+3, 2.0469941e+2, -1023643.56, -1010326.75, -58067.45, 0.052542556, 0.022344789, -958537.25, -24592.09, 0.0, 9.999511, 9.999687 
1.774974e+3, 2.146992e+2, -821188.44, -863735.0, -42669.07, 0.12627299, 0.024525872, -794783.6, 41161.86, 0.0, 10.0002365, 9.99967 
1.7749786e+3, 2.2469813e+2, -682076.2, -788280.94, -103730.25, 0.070429996, -0.027337175, -618646.06, 119306.77, 0.0, 10.000704, 9.99929 
1.7749807e+3, 2.3469618e+2, -559484.2, -681880.1, -117769.93, -0.13364369, -0.15440467, -487960.8, 152006.28, 0.0, 10.000887, 9.99926 
1.7749852e+3, 2.446949e+2, -460548.94, -611139.56, -72788.07, -0.17409317, -0.19322652, -431118.5, 110859.96, 0.0, 10.001014, 9.99901 
1.7749922e+3, 2.546945e+2, -354772.63, -512776.88, -65213.207, -0.026670486, -0.14162415, -331334.03, 112650.99, 0.0, 10.001081, 9.99898 
1.7749985e+3, 2.64694e+2, -251812.13, -425919.2, -49330.848, 0.023871044, -0.07701896, -238806.42, 107184.84, 0.0, 10.001175, 9.9988575 
1.7750037e+3, 2.7469352e+2, -136692.6, -321644.6, -47131.055, -0.039883412, -0.017067038, -125374.81, 122621.914, 0.0, 10.001302, 9.998838 
1.7750093e+3, 2.8469196e+2, -96110.05, -324580.25, -81411.33, -0.015705192, -0.024836663, -70068.766, 79944.65, 0.0, 10.001221, 9.998187 
1.7750156e+3, 2.9468936e+2, -49753.11, -265812.16, -99680.19, 0.12015946, -0.105639994, -10791.074, 41249.32, 0.0, 10.000927, 9.998058 
1.7750217e+3, 3.0468792e+2, 135396.81, -118595.55, 5560.1064, 0.13742079, -0.06057318, 135518.47, 135518.47, 0.0, 10.0017185, 9.998359 
1.775027e+3, 3.1468734e+2, 418877.44, 23901.016, -68333.87, -0.05547235, 0.030683229, 430365.6, 430365.6, 0.0, 10.003648, 9.998403 
1.7849128e+3, 1.2469042e+2, -1827636.4, -1668335.4, -134981.34, 0.16755478, -0.025463903, -1591256.3, 126772.875, 0.08696164, 9.998782, 10.000965 
1.7849216e+3, 1.3469023e+2, -1788492.1, -1716577.1, 92095.21, 0.08524681, -0.038126916, -1653668.6, -33634.914, 0.057701517, 9.998896, 9.999848 
1.784929e+3, 1.4468978e+2, -1664453.4, -1493779.0, 16758.69, -0.08592281, -0.11020842, -1492149.0, 29891.041, 0.030258754, 9.998588, 10.0008545 
1.7849392e+3, 1.5469295e+2, -1652323.8, -1434219.8, -20153.162, 0.11119274, 0.10957514, -1432373.3, -8362.9375, 0.0109521225, 9.997992, 10.000871 
1.7849462e+3, 1.646939e+2, -1588889.6, -1426519.1, -125089.33, 0.1222844, 0.15443312, -1358578.9, -32578.463, 0.0020959692, 9.998069, 10.000215 
1.7849505e+3, 1.7469236e+2, -1372122.8, -1276278.5, -109923.12, -0.023401164, -0.02521074, -1204285.6, 23728.041, 0.000105867584, 9.998908, 10.000168 
1.7849553e+3, 1.8469161e+2, -1231951.4, -1238738.4, -120449.06, -0.07943424, -0.07950472, -1114848.0, 15172.874, 0.0000000562377, 9.999543, 9.999448 
1.7849606e+3, 1.946919e+2, -1077013.6, -1118650.1, -115705.02, -0.055477805, 0.002106286, -980268.9, 51751.063, 0.0, 9.999958, 9.999399 
1.7849667e+3, 2.0469178e+2, -954389.0, -981881.56, -88356.4, 0.011588538, 0.043820016, -878715.94, 55305.04, 0.0, 10.00001, 9.999641 
1.7849742e+3, 2.1469131e+2, -909620.8, -911771.25, -104435.99, 0.13365418, 0.02561698, -806254.5, 29769.102, 0.0, 9.999654, 9.999621 
1.784979e+3, 2.2469024e+2, -856720.56, -866112.1, -167533.19, 0.10114032, -0.026462557, -693817.3, 44213.734, 0.0, 9.999477, 9.999347 
1.7849812e+3, 2.3468858e+2, -755973.7, -769023.7, -153982.03, -0.108853556, -0.13292737, -608378.44, 31664.75, 0.0, 9.999506, 9.999326 
1.7849858e+3, 2.446874e+2, -652207.6, -708327.1, -93848.85, -0.15065084, -0.16349383, -582313.5, -40260.016, 0.0, 9.999719, 9.998967 
1.7849931e+3, 2.5468686e+2, -497103.1, -586553.7, -104599.97, -0.001009266, -0.11722659, -428067.66, 15992.701, 0.0, 10.000127, 9.998933 
1.7849992e+3, 2.646862e+2, -362053.78, -457494.06, -98644.086, 0.032593437, -0.07992707, -300193.5, 45874.02, 0.0, 10.000324, 9.999051 
1.7850041e+3, 2.7468538e+2, -267714.03, -363830.0, -90665.484, -0.06531976, -0.072713315, -213157.22, 34917.652, 0.0, 10.000308, 9.999029 
1.7850101e+3, 2.8468382e+2, -112045.71, -314668.56, -81753.62, -0.038272634, -0.092689976, -83173.96, 66916.51, 0.0, 10.001035, 9.998344 
1.7850174e+3, 2.9468182e+2, 198571.53, -124435.06, -68023.586, 0.13191786, -0.13324603, 212312.42, 264424.56, 0.0, 10.002542, 9.998251 
1.785023e+3, 3.0468017e+2, 299147.0, -24331.393, 16730.143, 0.049700283, -0.1289631, 300009.97, 300009.97, 0.0, 10.002774, 9.998499 
1.7850298e+3, 3.1468096e+2, 128730.625, -108142.11, -144260.95, -0.05010532, 0.09043739, 196944.72, 196944.72, 0.0, 10.001627, 9.998466 
1.7949107e+3, 1.24682315e+2, -1835666.6, -1683421.3, -148700.44, 0.07436679, -0.07511635, -1592491.6, 125617.31, 0.09190124, 9.998779, 10.000863 
1.7949201e+3, 1.3468306e+2, -1777448.9, -1695835.0, 94893.89, 0.0457015, -0.0059617087, -1633346.0, -13243.416, 0.06119029, 9.998905, 9.999986 
1.7949283e+3, 1.4468192e+2, -1725431.8, -1620113.6, -8980.043, -0.01346826, -0.114570744, -1619353.4, -97237.31, 0.03230053, 9.998589, 9.999983 
1.794937e+3, 1.5468335e+2, -1717455.8, -1566542.3, -42357.047, 0.08386418, 0.022767637, -1555466.8, -131361.03, 0.011841973, 9.997978, 9.9999695 
1.794944e+3, 1.646842e+2, -1564886.1, -1372914.9, -96277.75, 0.087174684, 0.08535473, -1332949.6, -6851.506, 0.0023264778, 9.998051, 10.000592 
1.79495e+3, 1.7468436e+2, -1343991.0, -1216678.9, -77308.99, 0.04874967, 0.034732923, -1180191.1, 47903.34, 0.00012352158, 9.9989, 10.000582 
1.7949554e+3, 1.8468428e+2, -1223481.1, -1220903.8, -105013.19, -0.007463612, 0.019828366, -1117171.4, 12923.343, 0.000000085167756, 9.99954, 9.999573 
1.79496e+3, 1.9468404e+2, -1069152.6, -1102268.4, -98707.71, -0.10376779, 0.036014233, -985623.7, 46474.414, 0.0, 9.999955, 9.999514 
1.7949657e+3, 2.0468324e+2, -985562.25, -1044765.8, -101328.555, -0.10380566, 0.023807442, -909600.1, 24505.535, 0.0, 10.0, 9.999215 
1.7949726e+3, 2.1468192e+2, -942492.0, -977855.7, -115995.92, 0.011993387, -0.03266147, -842838.0, -6721.0386, 0.0, 9.999642, 9.999174 
1.7949781e+3, 2.246812e+2, -827893.0, -803803.75, -166900.48, 0.07289815, -0.048613686, -648513.9, 89608.12, 0.0, 9.999465, 9.999782 
1.7949826e+3, 2.346812e+2, -724955.06, -703737.44, -150649.13, 0.07230751, -0.035987947, -563324.06, 76795.05, 0.0, 9.999499, 9.999779 
1.7949876e+3, 2.446806e+2, -670016.9, -742903.44, -78667.1, 0.059236508, -0.01826638, -619761.7, -77638.03, 0.0, 9.999708, 9.998734 
1.7949936e+3, 2.546795e+2, -516106.78, -624283.1, -86938.31, 0.031469714, -0.005805168, -467804.53, -23669.064, 0.0, 10.000119, 9.998678 
1.7949991e+3, 2.6467785e+2, -341471.97, -416202.72, -98166.22, -0.025759917, -0.06547808, -273800.3, 72350.2, 0.0, 10.000327, 9.999334 
1.795004e+3, 2.7467567e+2, -246009.23, -321196.1, -87676.336, -0.11388589, -0.22412454, -188206.61, 59962.184, 0.0, 10.000316, 9.99932 
1.7950106e+3, 2.846747e+2, -70384.51, -226611.98, -26619.467, -0.10430061, -0.22878386, -65973.39, 84203.65, 0.0, 10.001028, 9.998952 
1.7950188e+3, 2.946756e+2, 244850.03, -28344.488, -10355.59, 0.0070389146, -0.043280758, 245242.0, 297411.8, 0.0, 10.002541, 9.998912 
1.7950241e+3, 3.0467385e+2, 239339.05, -148410.1, -24129.568, -0.12811872, -0.04203584, 240834.84, 240834.84, 0.0, 10.002772, 9.997648 
1.7950329e+3, 3.1467214e+2, 124518.375, -120449.2, -147197.38, 0.10821896, 0.018421916, 193527.0, 193527.0, 0.0, 10.001637, 9.998378 
1.8049091e+3, 1.2467434e+2, -1844484.4, -1715358.0, -161415.8, 0.041284837, -0.082638286, -1606072.3, 112116.23, 0.097200245, 9.998842, 10.000608 
1.8049192e+3, 1.3467592e+2, -1763210.4, -1686876.5, 65970.49, 0.0591142, 0.06796146, -1648827.9, -28653.566, 0.06490086, 9.998987, 10.000011 
1.8049282e+3, 1.4467439e+2, -1672002.5, -1619190.1, -26119.486, 0.09159903, -0.069607906, -1608454.5, -86263.7, 0.034457777, 9.999062, 9.999761 
1.8049353e+3, 1.5467432e+2, -1529719.1, -1502449.4, -9081.825, 0.055360336, -0.059356283, -1499701.6, -75508.28, 0.0127833225, 9.999378, 9.999736 
1.8049419e+3, 1.6467485e+2, -1382062.1, -1296359.3, -37995.63, 0.013177247, -0.011157236, -1281940.1, 44248.727, 0.0025744103, 9.99936, 10.000484 
1.8049489e+3, 1.7467609e+2, -1342574.1, -1227954.1, -62463.996, 0.03356405, 0.05675549, -1200492.8, 27683.74, 0.00014305822, 9.998965, 10.000471 
1.8049549e+3, 1.8467633e+2, -1334411.3, -1273368.3, -113643.9, 0.01286607, 0.07948583, -1186218.6, -56044.273, 0.00000010953618, 9.998776, 9.999579 
1.8049598e+3, 1.9467553e+2, -1232585.6, -1180077.8, -117392.46, -0.078079626, 0.04101222, -1086039.4, -53856.855, 0.0, 9.99883, 9.999521 
1.8049653e+3, 2.0467451e+2, -1101491.3, -1080756.5, -105161.51, -0.09954896, -0.0028561563, -985452.56, -51260.95, 0.0, 9.999121, 9.999391 
1.8049717e+3, 2.1467336e+2, -921960.56, -947052.7, -76226.77, -0.03734681, -0.06414388, -857254.25, -21053.592, 0.0, 9.999698, 9.999357 
1.8049775e+3, 2.2467278e+2, -739473.1, -806655.0, -124526.09, 0.027504358, -0.054671172, -644086.94, 94118.14, 0.0, 10.000268, 9.999373 
1.8049829e+3, 2.3467296e+2, -562717.75, -672900.6, -177011.45, 0.09524815, 0.020214131, -432422.75, 207780.36, 0.0, 10.00082, 9.999352 
1.8049884e+3, 2.4467224e+2, -483385.6, -642781.56, -136086.06, 0.099291384, 0.042497985, -405377.6, 136831.98, 0.0, 10.000942, 9.998829 
1.8049939e+3, 2.5467062e+2, -442691.72, -576307.3, -118605.31, 0.030407332, -0.0070346626, -373372.72, 70851.65, 0.0, 10.000567, 9.998793 
1.8049991e+3, 2.6466897e+2, -328648.38, -399261.94, -121575.86, -0.04958929, -0.07663204, -237356.34, 108882.09, 0.0, 10.000367, 9.999433 
1.8050042e+3, 2.7466735e+2, -234409.58, -304780.97, -128736.02, -0.13624807, -0.18874456, -136137.42, 112114.03, 0.0, 10.00035, 9.999416 
1.8050112e+3, 2.8466666e+2, -151971.9, -268671.1, -61635.754, -0.11609347, -0.17407444, -125447.234, 24810.283, 0.0, 10.00048, 9.998926 
1.8050204e+3, 2.946674e+2, -9371.612, -150632.58, -95003.12, 0.005517054, 0.0040605552, 38379.74, 90631.016, 0.0, 10.0007925, 9.998914 
1.8050255e+3, 3.046656e+2, -13333.926, -244701.0, -147098.05, -0.17639542, -0.01515444, 58120.23, 58120.23, 0.0, 10.000932, 9.997871 
1.8050352e+3, 3.146636e+2, 70140.56, -74007.29, -144845.97, 0.19473264, -0.0046746805, 159853.56, 159853.56, 0.0, 10.000953, 9.999026 
1.8149082e+3, 1.2466654e+2, -1875788.6, -1775746.9, -145672.27, 0.054438855, -0.044731706, -1671746.6, 46520.81, 0.10291468, 9.998824, 10.000172 
1.8149188e+3, 1.3466883e+2, -1770612.1, -1700625.1, 68335.56, 0.115456656, 0.18442592, -1658844.4, -38595.566, 0.06887483, 9.998979, 9.999922 
1.8149287e+3, 1.4466722e+2, -1643719.1, -1557590.3, -18944.518, 0.21499754, 0.024907257, -1553607.5, -31343.19, 0.036753505, 9.999048, 10.00019 
1.8149343e+3, 1.5466587e+2, -1498326.3, -1437387.9, 5195.1104, 0.018814199, -0.13667849, -1436948.1, -12675.128, 0.01378539, 9.999379, 10.000181 
1.8149401e+3, 1.6466591e+2, -1425441.5, -1387877.0, -52372.387, -0.10902882, -0.13301167, -1351020.8, -24748.703, 0.002842686, 9.999365, 9.999855 
1.8149467e+3, 1.7466754e+2, -1389209.0, -1325085.3, -76033.32, -0.07735704, 0.040731743, -1274630.3, -46370.477, 0.00016504708, 9.998964, 9.999806 
1.8149532e+3, 1.8466772e+2, -1345123.1, -1292591.1, -112265.37, -0.028713388, 0.09994599, -1203560.0, -73300.01, 0.00000012908751, 9.998763, 9.9994545 
1.8149595e+3, 1.9466642e+2, -1241404.3, -1196168.3, -113166.17, 0.01520967, 0.017400997, -1103382.0, -71108.6, 0.0, 9.99882, 9.999415 
1.8149656e+3, 2.0466562e+2, -1049089.0, -971080.8, -84299.445, 0.01679142, -0.03521107, -917199.4, 17079.744, 0.0, 9.999115, 10.000147 
1.8149716e+3, 2.146655e+2, -866609.3, -832448.25, -52299.305, -0.020692408, -0.06975461, -794510.94, 41764.473, 0.0, 9.999695, 10.000146 
1.8149772e+3, 2.2466488e+2, -828136.2, -988518.44, -103334.16, -0.04221334, -0.04384375, -777527.6, -39246.7, 0.0, 10.000259, 9.99813 
1.8149823e+3, 2.346638e+2, -655681.7, -865169.5, -153799.83, -0.04707689, 0.035658512, -574345.8, 65950.14, 0.0, 10.000815, 9.998036 
1.814988e+3, 2.4466218e+2, -454730.34, -581928.1, -149007.9, -0.038351983, 0.015742859, -356316.34, 185995.9, 0.0, 10.000935, 9.999251 
1.814994e+3, 2.5466016e+2, -409524.63, -507832.16, -130658.49, -0.014402383, -0.12334601, -319079.94, 125248.2, 0.0, 10.0005665, 9.999264 
1.8149996e+3, 2.6465952e+2, -335020.22, -411989.97, -122766.59, -0.048437983, -0.114941925, -244847.7, 101484.6, 0.0, 10.000364, 9.999347 
1.8150043e+3, 2.746604e+2, -242865.13, -320562.06, -127499.48, -0.14033923, 0.035931043, -148426.98, 99896.36, 0.0, 10.000342, 9.9993105 
1.8150121e+3, 2.8465956e+2, -195158.31, -360364.7, -49828.914, -0.08294544, 0.07311694, -181292.81, -30960.402, 0.0, 10.000484, 9.998298 
1.8150224e+3, 2.9465714e+2, -49088.55, -239457.44, -80017.42, 0.117072016, -0.00024718483, -19923.223, 32434.436, 0.0, 10.000814, 9.998297 
1.8150271e+3, 3.046553e+2, 68485.766, -72086.93, -149219.3, -0.102089144, -0.050228488, 163143.56, 163143.56, 0.0, 10.000925, 9.999058 
1.8150347e+3, 3.1465298e+2, 157613.25, 111638.86, -65618.78, 0.055756316, -0.18973249, 204154.72, 204154.72, 0.0, 10.000932, 10.000314 
1.8249083e+3, 1.2465854e+2, -1694292.1, -1743010.5, -135384.88, 0.10340186, -0.012948715, -1581092.5, 137254.97, 0.10907774, 10.000368, 9.999672 
1.8249175e+3, 1.3466032e+2, -1724145.5, -1708612.0, 23228.299, 0.06901047, 0.1947066, -1691886.4, -71550.92, 0.07313931, 9.999433, 9.999645 
1.8249276e+3, 1.446591e+2, -1654189.0, -1534913.6, -51304.402, 0.22511393, 0.07467531, -1515882.5, 6465.0083, 0.039204508, 9.998862, 10.000435 
1.8249337e+3, 1.5465824e+2, -1523691.0, -1419679.8, -40328.54, 0.045165714, -0.064276315, -1405875.3, 18474.377, 0.014855209, 9.99908, 10.000446 
1.8249395e+3, 1.6465816e+2, -1477193.8, -1453988.9, -112326.03, -0.08571613, -0.068629324, -1352667.6, -26317.996, 0.0031336718, 9.999186, 9.999488 
1.8249457e+3, 1.74659e+2, -1392766.4, -1369398.6, -118281.2, -0.08118214, 0.06534897, -1262225.6, -33879.03, 0.00019006866, 9.9991255, 9.999424 
1.824952e+3, 1.8465881e+2, -1270245.5, -1230922.8, -116883.555, -0.038042717, 0.09689492, -1132058.5, -1708.2953, 0.00000015151502, 9.999168, 9.999681 
1.8249586e+3, 1.9465762e+2, -1150756.8, -1124825.4, -94292.16, 0.021106891, 0.0022780842, -1042611.6, -10251.566, 0.0, 9.999328, 9.99966 
1.824965e+3, 2.0465708e+2, -995607.7, -976229.4, -72917.484, 0.02695299, -0.023261653, -912360.1, 22003.262, 0.0, 9.999618, 9.999868 
1.8249714e+3, 2.146574e+2, -835775.94, -850364.25, -124997.625, -0.0196731, 0.014594048, -717859.8, 118498.54, 0.0, 10.0000515, 9.99985 
1.8249774e+3, 2.2465663e+2, -835219.3, -996158.6, -183142.11, -0.043655246, 0.043169435, -715647.94, 22718.248, 0.0, 10.000228, 9.998094 
1.8249828e+3, 2.3465475e+2, -762595.25, -919092.5, -139412.2, -0.044711202, 0.046174865, -680973.25, -40585.51, 0.0, 10.000094, 9.998013 
1.8249884e+3, 2.4465291e+2, -600838.8, -661114.94, -117086.34, -0.03823104, 0.0074931006, -510073.97, 32331.77, 0.0, 9.999971, 9.99917 
1.8249941e+3, 2.5465122e+2, -520726.9, -570974.2, -143110.25, -0.02482399, -0.08610017, -400551.75, 43866.4, 0.0, 9.9998455, 9.999177 
1.8249997e+3, 2.6465058e+2, -400140.44, -486114.6, -144774.08, -0.046356674, -0.05466696, -292106.25, 54316.59, 0.0, 10.000106, 9.99896 
1.8250054e+3, 2.7465108e+2, -204311.3, -347546.72, -174128.64, -0.09901272, 0.09491822, -87647.63, 160771.16, 0.0, 10.000805, 9.998902 
1.8250132e+3, 2.8464985e+2, -129675.36, -313891.06, -97249.21, -0.034124482, 0.10729907, -87838.2, 62593.227, 0.0, 10.000866, 9.998435 
1.8250231e+3, 2.94647e+2, -130068.086, -257975.44, -71992.06, 0.139654, -0.024859376, -97725.71, -45266.62, 0.0, 10.000168, 9.998482 
1.8250284e+3, 3.0464548e+2, 1400.3783, -108654.92, -116091.74, -0.053094666, -0.052909926, 74845.82, 74845.82, 0.0, 10.000482, 9.99902 
1.825036e+3, 3.146431e+2, 322429.3, 173269.88, -76262.555, 0.028910734, -0.18725292, 354517.8, 354517.8, 0.0, 10.00213, 10.000167 
1.8349093e+3, 1.24650344e+2, -1737226.6, -1830925.8, -141220.17, 0.15941288, 0.011559672, -1635287.6, 83140.54, 0.11569034, 10.000353, 9.999054 
1.8349154e+3, 1.3465044e+2, -1760051.4, -1780731.8, -17038.088, -0.091967575, 0.097363435, -1750461.3, -130027.07, 0.07769921, 9.999425, 9.999153 
1.8349253e+3, 1.4465001e+2, -1653310.4, -1531971.9, -50622.188, 0.10783588, 0.08307463, -1513626.1, 8814.212, 0.04181763, 9.998854, 10.000462 
1.8349338e+3, 1.546514e+2, -1520662.4, -1411613.3, -31182.777, 0.1262422, 0.16238461, -1403326.3, 21097.027, 0.015997248, 9.999069, 10.000509 
1.8349403e+3, 1.6465159e+2, -1485916.3, -1469065.6, -114880.58, 0.07439006, 0.18624465, -1362301.9, -35880.094, 0.0034491862, 9.999171, 9.9993925 
1.8349458e+3, 1.746504e+2, -1400493.3, -1386038.8, -119400.8, 0.01799997, 0.13023105, -1273646.8, -45209.293, 0.00021871291, 9.999126, 9.9993105 
1.8349515e+3, 1.8464953e+2, -1231049.8, -1149220.8, -111342.22, -0.022639913, 0.0696112, -1071513.6, 58931.688, 0.00000018976193, 9.999166, 10.000244 
1.834957e+3, 1.9464912e+2, -1110014.9, -1040066.25, -86280.16, -0.068549335, -0.0051697316, -981941.3, 50501.73, 0.0, 9.999324, 10.000244 
1.8349636e+3, 2.0464888e+2, -1091210.6, -1171705.0, -57187.465, -0.07943575, 0.034331195, -1061527.6, -127082.77, 0.0, 9.999604, 9.998533 
1.8349713e+3, 2.1464896e+2, -934937.6, -1055099.4, -106551.39, -0.041085448, 0.18872014, -872695.56, -36245.297, 0.0, 10.000046, 9.998448 
1.8349783e+3, 2.2464794e+2, -754793.1, -826849.5, -187405.45, 0.01615432, 0.20582764, -599984.1, 138477.69, 0.0, 10.000217, 9.999261 
1.8349843e+3, 2.3464574e+2, -675187.9, -737071.4, -142208.81, 0.09403883, 0.051623583, -560593.56, 79885.586, 0.0, 10.000089, 9.999266 
1.8349896e+3, 2.446443e+2, -642650.6, -744908.3, -121526.67, 0.091265485, 0.01704584, -561935.25, -19444.455, 0.0, 9.999958, 9.998602 
1.8349941e+3, 2.5464383e+2, -566310.94, -663840.75, -145188.31, -0.0064306436, 0.106493846, -461916.9, -17422.018, 0.0, 9.999838, 9.998544 
1.8349999e+3, 2.6464215e+2, -450252.22, -590367.2, -119057.484, -0.04878354, 0.105270416, -382169.44, -35658.754, 0.0, 10.000104, 9.998247 
1.835007e+3, 2.7463928e+2, -254505.61, -452879.47, -145295.86, -0.021005215, -0.012185727, -177769.45, 70769.3, 0.0, 10.000806, 9.99818 
1.8350147e+3, 2.8463736e+2, -67275.375, -184222.84, -121933.66, 0.020232402, -0.07134682, 9480.303, 160035.86, 0.0, 10.000866, 9.999326 
1.8350224e+3, 2.9463685e+2, -62824.69, -119383.02, -98311.11, 0.06118479, -0.06792479, 11193.68, 63750.434, 0.0, 10.000173, 9.99943 
1.8350291e+3, 3.0463606e+2, -82489.58, -284586.06, -60786.383, -0.0321399, -0.013344366, -65615.25, -65615.25, 0.0, 10.000487, 9.997809 
1.8350376e+3, 3.146349e+2, 187492.86, -111849.48, 11246.993, -0.027612908, 0.10222794, 187914.84, 187914.84, 0.0, 10.002139, 9.99821 
1.8449098e+3, 1.2464211e+2, -1872347.9, -1887992.6, -111050.43, 0.23228467, 0.043378893, -1768844.6, -50335.19, 0.12272786, 9.99934, 9.999126 
1.8449149e+3, 1.3464117e+2, -1623833.0, -1713719.0, 9251.962, -0.13341552, 0.024157178, -1622890.6, -2366.698, 0.08254445, 10.000352, 9.999167 
1.8449244e+3, 1.44641e+2, -1458585.5, -1474489.4, -24390.59, 0.058822874, 0.0494863, -1440883.4, 81645.12, 0.04459436, 10.000364, 10.000139 
1.844933e+3, 1.5464291e+2, -1485058.3, -1432063.6, -37587.402, 0.12535106, 0.21535544, -1412572.8, 11937.011, 0.017215712, 9.999475, 10.000173 
1.8449397e+3, 1.6464314e+2, -1479873.5, -1453631.1, -109720.586, 0.09705572, 0.2565384, -1356250.0, -29741.13, 0.0037916328, 9.999164, 9.999498 
1.8449453e+3, 1.746415e+2, -1333399.8, -1340099.6, -99710.74, 0.024955612, 0.14138201, -1236982.8, -8455.162, 0.00025177147, 9.999532, 9.999427 
1.8449509e+3, 1.8464069e+2, -1135991.6, -1099402.4, -100197.1, -0.022941494, 0.07868576, -1015843.4, 114690.766, 0.00000025167606, 9.999802, 10.000278 
1.8449567e+3, 1.946409e+2, -1015019.6, -990853.94, -119720.62, -0.06614829, 0.06466348, -882608.0, 149917.63, 0.0, 9.999962, 10.000274 
1.8449634e+3, 2.0464057e+2, -1061673.4, -1181377.0, -72570.68, -0.06895825, 0.10271807, -1027457.44, -92929.0, 0.0, 9.999909, 9.99832 
1.8449713e+3, 2.1463972e+2, -1015114.06, -1118452.8, -36093.867, -0.017999027, 0.18747357, -1003755.7, -167212.58, 0.0, 9.999604, 9.998225 
1.8449783e+3, 2.2463852e+2, -824662.25, -831011.25, -99881.04, 0.04020285, 0.18525542, -727905.25, 10650.814, 0.0, 9.999612, 9.999523 
1.8449844e+3, 2.3463699e+2, -672710.3, -705133.8, -130707.164, 0.10466023, 0.06934027, -557213.4, 83352.69, 0.0, 9.999975, 9.999538 
1.8449898e+3, 2.4463579e+2, -577515.2, -744527.9, -128637.15, 0.0930077, 0.0580944, -507656.5, 34918.965, 0.0, 10.000541, 9.9983225 
1.8449947e+3, 2.5463504e+2, -370375.44, -602114.75, -129586.07, -0.0075869956, 0.15051253, -312410.9, 132172.69, 0.0, 10.001327, 9.998249 
1.8450007e+3, 2.6463297e+2, -307721.94, -539664.75, -90304.09, -0.022950126, 0.12969916, -276709.7, 69894.21, 0.0, 10.001159, 9.998088 
1.8450081e+3, 2.746295e+2, -397843.8, -539134.56, -76050.89, 0.06298017, -0.029063663, -364688.88, -116052.164, 0.0, 9.999896, 9.998026 
1.8450154e+3, 2.8462747e+2, -249562.02, -327451.13, -56905.73, 0.07362338, -0.06818261, -219550.5, -68895.26, 0.0, 9.999858, 9.998824 
1.8450224e+3, 2.9462725e+2, 46443.293, -126073.33, -148017.11, -0.009235771, 0.016638495, 131502.13, 184157.86, 0.0, 10.001184, 9.998895 
1.8450299e+3, 3.0462575e+2, 46633.742, -231600.34, -124097.41, -0.04302365, 0.037351727, 93940.19, 93940.19, 0.0, 10.001424, 9.997718 
1.8450385e+3, 3.1462422e+2, -38904.367, -220392.4, 33013.324, -0.058615323, 0.11425797, -33085.676, -33085.676, 0.0, 10.000583, 9.99821 
1.8549098e+3, 1.246339e+2, -1819863.3, -1772221.8, -31071.654, 0.28745404, 0.092310496, -1756890.6, -38300.168, 0.13014582, 9.999308, 9.999936 
1.8549159e+3, 1.3463254e+2, -1587804.6, -1632230.3, 43821.055, -0.061030153, -0.028674934, -1560888.0, 59716.348, 0.08765755, 10.000352, 9.999738 
1.8549249e+3, 1.4463201e+2, -1508566.3, -1577391.3, -59221.117, 0.067362525, -0.033488385, -1474485.3, 48126.613, 0.04753598, 10.000357, 9.999427 
1.8549316e+3, 1.5463275e+2, -1539849.9, -1544417.3, -70156.83, 0.030863421, 0.08956394, -1471939.5, -47330.414, 0.01851746, 9.999469, 9.999404 
1.8549377e+3, 1.6463283e+2, -1459449.5, -1410472.3, -97636.83, -0.031964216, 0.14122058, -1334299.9, -7688.774, 0.0041650403, 9.999158, 9.999799 
1.8549438e+3, 1.7463227e+2, -1309088.6, -1290716.4, -83751.516, -0.068651184, 0.09892661, -1215648.6, 12968.494, 0.00029041685, 9.999533, 9.999767 
1.8549505e+3, 1.8463223e+2, -1172393.5, -1173718.9, -93894.875, -0.048427578, 0.122778825, -1079159.0, 51457.953, 0.0000003514084, 9.999796, 9.999771 
1.8549575e+3, 1.9463293e+2, -1053121.8, -1069707.8, -111604.38, 0.021249449, 0.20987828, -949502.6, 83105.56, 0.0, 9.99996, 9.999733 
1.8549646e+3, 2.046321e+2, -998908.25, -1049529.5, -83961.05, 0.0513026, 0.18251853, -936525.75, -1911.0208, 0.0, 9.999903, 9.9992285 
1.8549715e+3, 2.1462964e+2, -948805.4, -979613.94, -45169.617, 0.042173773, 0.009126741, -916485.6, -79847.984, 0.0, 9.999597, 9.999182 
1.8549778e+3, 2.2462833e+2, -872310.56, -926394.56, -86883.79, 0.019466585, -0.021477578, -808357.7, -69707.87, 0.0, 9.999597, 9.998876 
1.8549831e+3, 2.3462845e+2, -723951.06, -809811.0, -114419.88, -0.02048616, 0.09843881, -644672.6, -4023.7336, 0.0, 9.999967, 9.998824 
1.8549891e+3, 2.4462728e+2, -579527.94, -747503.7, -99489.17, -0.04147639, 0.13014534, -533315.75, 9344.728, 0.0, 10.000534, 9.998306 
1.8549958e+3, 2.546248e+2, -369543.34, -599539.8, -98285.91, -0.037861183, 0.046301294, -333264.66, 111420.516, 0.0, 10.001321, 9.998269 
1.8550025e+3, 2.6462287e+2, -279857.9, -482300.56, -135730.97, 0.023479212, 0.01898138, -211761.03, 134942.55, 0.0, 10.00116, 9.998483 
1.855009e+3, 2.7462167e+2, -369026.44, -479826.3, -121245.13, 0.14731021, 0.044630695, -291123.97, -42410.16, 0.0, 9.999898, 9.998433 
1.8550159e+3, 2.8462005e+2, -381188.56, -602043.44, -11108.361, 0.11676318, 0.11636245, -380631.25, -229899.52, 0.0, 9.99986, 9.99694 
1.8550228e+3, 2.9461807e+2, -94325.07, -419293.84, -98493.83, -0.08461649, 0.22647247, -66803.64, -14046.215, 0.0, 10.001184, 9.996883 
1.855031e+3, 3.0461448e+2, 116566.15, -86385.945, -153897.47, -0.0891049, 0.093348235, 199431.69, 199431.69, 0.0, 10.001426, 9.9987135 
1.85504e+3, 3.1461295e+2, 102166.24, 71224.33, -45957.527, 0.017923139, 0.0583766, 135186.98, 135186.98, 0.0, 10.000591, 10.000208 
1.8649085e+3, 1.2462426e+2, -1680929.3, -1660166.5, 9659.308, 0.19409023, 0.012364732, -1656367.8, 62317.03, 0.1378835, 10.000081, 10.000396 
1.8649162e+3, 1.346243e+2, -1666337.6, -1641008.3, 16657.54, -0.02998128, 0.0045642583, -1632747.6, -12062.896, 0.09301642, 9.9996605, 9.999997 
1.864925e+3, 1.4462411e+2, -1633090.6, -1655579.4, -100090.56, 0.08961684, 0.02863361, -1543614.8, -20925.568, 0.050644647, 9.999568, 9.999266 
1.8649308e+3, 1.5462382e+2, -1478970.6, -1535308.1, -66366.45, -0.0107536875, 0.06801828, -1435042.4, -10345.034, 0.01991141, 9.999974, 9.999222 
1.8649368e+3, 1.6462366e+2, -1316172.3, -1322211.0, -62541.98, -0.07350656, 0.096642844, -1256576.8, 70124.52, 0.0045744055, 10.00006, 9.999971 
1.8649437e+3, 1.7462373e+2, -1261686.1, -1246398.6, -63557.11, -0.054005507, 0.099462435, -1190027.3, 38672.25, 0.0003360051, 9.999766, 9.999958 
1.8649507e+3, 1.8462369e+2, -1213518.1, -1258656.4, -72425.24, -0.0030765715, 0.1389816, -1160227.0, -29526.957, 0.00000050835786, 9.999795, 9.999189 
1.8649581e+3, 1.946236e+2, -1061402.6, -1141949.4, -97184.72, 0.07105852, 0.21087132, -996477.0, 36224.9, 0.0, 10.0002, 9.999122 
1.864965e+3, 2.0462255e+2, -920628.0, -971500.94, -111731.086, 0.086789116, 0.17452693, -831474.56, 103236.58, 0.0, 10.000267, 9.999589 
1.8649714e+3, 2.1462047e+2, -871567.4, -898490.9, -119739.81, 0.038024887, -0.0008099562, -764534.94, 72192.73, 0.0, 9.999939, 9.999574 
1.8649773e+3, 2.2461934e+2, -802848.56, -905261.0, -129639.586, -0.012528622, -0.027838454, -714668.6, 24068.668, 0.0, 10.000126, 9.998766 
1.8649831e+3, 2.3461941e+2, -596429.3, -762117.0, -114415.17, -0.06772697, 0.10122588, -538014.75, 102723.125, 0.0, 10.000903, 9.9987 
1.8649897e+3, 2.4461831e+2, -530935.4, -715284.06, -96042.16, -0.06259651, 0.14049909, -489992.47, 52757.633, 0.0, 10.000834, 9.99838 
1.8649969e+3, 2.5461596e+2, -588259.75, -696950.25, -93676.02, 0.015315034, 0.06289196, -534306.3, -89531.74, 0.0, 9.999788, 9.998338 
1.8650036e+3, 2.646143e+2, -472215.28, -570795.06, -135069.89, 0.08643761, 0.06041668, -377722.8, -30932.023, 0.0, 9.999828, 9.998512 
1.8650094e+3, 2.746136e+2, -187713.42, -388232.25, -151499.58, 0.14120327, 0.12969479, -106302.6, 142494.05, 0.0, 10.001129, 9.9984665 
1.8650164e+3, 2.8461185e+2, -155998.36, -513946.38, 17045.732, 0.103983864, 0.19510421, -155188.47, -4372.039, 0.0, 10.001496, 9.996756 
1.8650244e+3, 2.946091e+2, -169630.14, -476566.06, 60137.504, -0.024371685, 0.24779654, -158268.1, -105417.59, 0.0, 10.000761, 9.996692 
1.8650319e+3, 3.0460587e+2, -59637.438, -120917.016, 18815.775, -0.0597639, 0.13809273, -54321.28, -54321.28, 0.0, 9.999993, 9.999168 
1.865039e+3, 3.1460524e+2, -41399.203, 89934.195, 40983.45, -0.06703241, 0.14352475, 101673.945, 101673.945, 0.0, 9.999232, 10.000988 
1.8749058e+3, 1.2461298e+2, -1679753.4, -1655248.1, 15576.212, -0.096472904, -0.21852133, -1647683.0, 71111.46, 0.14588223, 10.000067, 10.000448 
1.8749157e+3, 1.3461648e+2, -1677335.9, -1660461.3, -1875.8422, -0.051676225, 0.13130756, -1660255.3, -39490.457, 0.0986057, 9.999644, 9.999871 
1.8749249e+3, 1.4461736e+2, -1607573.3, -1597919.5, -87694.336, 0.11331714, 0.2486266, -1514919.3, 7840.535, 0.053927336, 9.999546, 9.999675 
1.8749309e+3, 1.5461616e+2, -1449612.4, -1473558.1, -48436.832, -0.0056944406, 0.1528679, -1411690.6, 13083.616, 0.021407956, 9.99997, 9.99965 
1.8749373e+3, 1.646156e+2, -1315004.8, -1319155.0, -73467.234, -0.036161505, 0.118858986, -1243583.4, 83196.695, 0.0050250688, 10.000055, 9.999996 
1.8749446e+3, 1.7461589e+2, -1261805.3, -1246127.9, -73636.984, 0.063538745, 0.14156155, -1179913.5, 48861.465, 0.00038988978, 9.999763, 9.999964 
1.8749516e+3, 1.84615e+2, -1260277.1, -1354268.5, -58328.85, 0.10614984, 0.12900689, -1232367.3, -101583.41, 0.000000733184, 9.999787, 9.998538 
1.8749584e+3, 1.946129e+2, -1110154.0, -1242176.4, -79858.055, 0.07524958, 0.06577874, -1072556.4, -39749.113, 0.0, 10.000195, 9.998437 
1.8749647e+3, 2.0461185e+2, -935906.56, -1001571.1, -123576.29, 0.02718934, 0.07594483, -840875.44, 93942.91, 0.0, 10.000258, 9.999388 
1.8749705e+3, 2.1461216e+2, -885640.75, -927145.5, -130143.016, -0.038126167, 0.15809248, -774605.94, 62208.023, 0.0, 9.999934, 9.999381 
1.8749769e+3, 2.2461149e+2, -773458.1, -842901.75, -101832.92, -0.06362008, 0.16833054, -700590.2, 38228.64, 0.0, 10.000119, 9.999198 
1.8749842e+3, 2.3460984e+2, -565362.3, -695909.9, -82585.375, -0.04543169, 0.07847038, -525369.7, 115463.78, 0.0, 10.000894, 9.99916 
1.8749914e+3, 2.4460874e+2, -520632.13, -692982.7, -132907.19, 0.020598475, 0.08747626, -448407.6, 94437.62, 0.0, 10.000829, 9.998537 
1.8749979e+3, 2.5460842e+2, -579103.56, -679212.25, -131118.53, 0.14509645, 0.19960347, -488810.1, -43957.55, 0.0, 9.999792, 9.998459 
1.875004e+3, 2.6460728e+2, -496476.44, -622166.94, -89565.06, 0.15838273, 0.25466746, -449907.66, -103041.49, 0.0, 9.999831, 9.998158 
1.8750095e+3, 2.7460515e+2, -212637.47, -440439.88, -100152.36, 0.036092248, 0.2263742, -174868.05, 74018.195, 0.0, 10.001129, 9.998108 
1.8750171e+3, 2.8460276e+2, -51186.215, -295583.25, -8766.539, 0.025081566, 0.17164499, -50872.164, 100037.92, 0.0, 10.001493, 9.998256 
1.8750271e+3, 2.9460022e+2, -59447.668, -247296.72, 33533.168, 0.16478069, 0.08578219, -53641.105, -705.08044, 0.0, 10.000757, 9.998268 
1.8750328e+3, 3.0459967e+2, -59547.695, -126484.92, -11343.171, 0.033145104, 0.16589077, -57677.723, -57677.723, 0.0, 10.000012, 9.999123 
1.8750376e+3, 3.1459925e+2, -52239.332, 59968.53, -1933.2262, -0.14449333, 0.20867439, 60001.832, 60001.832, 0.0, 9.999264, 10.000768 
1.884906e+3, 1.2460536e+2, -1535332.6, -1639257.4, 50640.594, -0.14439684, -0.14078009, -1514737.6, 204133.63, 0.15411249, 10.0015135, 9.999885 
1.8849152e+3, 1.3460796e+2, -1563700.3, -1667042.8, -16282.651, -0.103578046, 0.17640136, -1561195.4, 59656.305, 0.10442951, 10.000751, 9.999294 
1.8849239e+3, 1.4460823e+2, -1487513.3, -1502196.8, -92547.27, 0.014754463, 0.24575411, -1402017.0, 120835.24, 0.057399224, 10.000231, 10.000021 
1.8849307e+3, 1.5460745e+2, -1433622.0, -1424952.8, -65056.375, -0.0049542952, 0.15470086, -1364086.8, 60773.055, 0.023018045, 9.999907, 10.000017 
1.8849377e+3, 1.646071e+2, -1348137.1, -1362264.8, -99864.94, 0.012466803, 0.13354659, -1255086.5, 71776.64, 0.005521801, 9.999945, 9.999753 
1.8849449e+3, 1.7460732e+2, -1183679.4, -1238274.0, -122629.984, 0.079841554, 0.17681278, -1085345.3, 143515.4, 0.0004532519, 10.000429, 9.999697 
1.8849517e+3, 1.846063e+2, -1121504.1, -1261322.3, -82044.23, 0.102836855, 0.15367255, -1083623.9, 47246.87, 0.0000010252129, 10.0006275, 9.998769 
1.8849587e+3, 1.9460395e+2, -1047837.7, -1184981.3, -35367.652, 0.070575155, 0.04154327, -1039254.06, -6359.795, 0.0, 10.000503, 9.998681 
1.8849652e+3, 2.0460285e+2, -897015.0, -1016969.3, -45497.14, 0.02375078, 0.04930702, -881711.06, 53194.67, 0.0, 10.000674, 9.999081 
1.8849711e+3, 2.1460335e+2, -724337.1, -886085.44, -66168.13, -0.03951417, 0.18407926, -700718.0, 136183.88, 0.0, 10.001204, 9.999051 
1.8849775e+3, 2.2460286e+2, -651465.44, -760445.75, -63332.004, -0.051722538, 0.21749806, -622408.5, 116497.875, 0.0, 10.00086, 9.999404 
1.8849848e+3, 2.3460133e+2, -751124.75, -759618.0, -64658.285, -0.0064271265, 0.11717963, -690573.75, -49654.367, 0.0, 9.999512, 9.999385 
1.8849918e+3, 2.4460027e+2, -736314.0, -793100.5, -113374.06, 0.068440676, 0.11474199, -647831.9, -104901.164, 0.0, 9.9993305, 9.998572 
1.8849984e+3, 2.5459984e+2, -471607.5, -624437.6, -120959.57, 0.18136393, 0.21300805, -404947.5, 39991.48, 0.0, 10.000517, 9.998486 
1.8850046e+3, 2.645987e+2, -336490.44, -535829.9, -55025.33, 0.18288419, 0.26629505, -322310.1, 24642.686, 0.0, 10.00089, 9.998241 
1.8850103e+3, 2.7459687e+2, -328603.7, -485166.28, -33460.457, 0.043226436, 0.25599417, -321752.34, -72780.85, 0.0, 10.000288, 9.998205 
1.8850178e+3, 2.845949e+2, -245584.56, -311891.94, 18307.371, 0.030391205, 0.20446214, -240865.75, -89874.78, 0.0, 9.999827, 9.998945 
1.8850277e+3, 2.9459283e+2, -180116.56, -226532.56, -5140.46, 0.20426936, 0.0944365, -179554.1, -126543.93, 0.0, 9.999592, 9.998971 
1.8850325e+3, 3.0459306e+2, -101025.0, -134882.45, -71852.58, 0.01679564, 0.21141659, -44133.848, -44133.848, 0.0, 9.9996805, 9.999225 
1.8850374e+3, 3.1459248e+2, 15591.769, 60758.973, -37632.88, -0.11812315, 0.23418997, 82064.46, 82064.46, 0.0, 9.999875, 10.000473 
1.8949091e+3, 1.2460149e+2, -1612587.8, -1807971.5, 29171.975, 0.018420184, 0.2506425, -1608325.3, 110589.266, 0.16258536, 10.001497, 9.998641 
1.8949151e+3, 1.3459867e+2, -1630661.1, -1820552.9, -43058.027, -0.19525452, 0.13247566, -1621353.9, -407.76193, 0.110513955, 10.0007515, 9.998241 
1.8949217e+3, 1.4459655e+2, -1473416.6, -1469247.9, -104537.82, -0.22120461, 0.0024647356, -1366773.8, 156194.25, 0.06108175, 10.000215, 10.000268 
1.8949306e+3, 1.5459765e+2, -1416348.5, -1386717.4, -75929.836, -0.017843349, 0.072506554, -1324171.3, 100783.05, 0.024752133, 9.999895, 10.000291 
1.8949382e+3, 1.6459814e+2, -1385722.1, -1438042.8, -84117.0, 0.061776914, 0.14772397, -1323791.4, 3158.703, 0.0060684755, 9.999932, 9.999239 
1.8949443e+3, 1.7459798e+2, -1222444.8, -1318766.3, -103228.75, -0.01370608, 0.20604594, -1156694.9, 72261.914, 0.0005270964, 10.000426, 9.999146 
1.8949512e+3, 1.8459746e+2, -1043189.7, -1096820.9, -86490.85, -0.022853136, 0.20874916, -979452.9, 151508.95, 0.0000013718216, 10.000619, 9.999903 
1.8949589e+3, 1.9459674e+2, -965320.0, -1011002.1, -38157.008, 0.04955538, 0.13811503, -943690.0, 89273.26, 0.0, 10.000491, 9.999881 
1.8949664e+3, 2.045956e+2, -927424.06, -1079357.3, -26444.2, 0.069087446, 0.09752432, -922953.0, 12020.164, 0.0, 10.000669, 9.998656 
1.8949729e+3, 2.1459402e+2, -760097.44, -959062.9, -43635.44, 0.027118128, 0.07629674, -750948.4, 86043.56, 0.0, 10.001196, 9.998554 
1.8949792e+3, 2.2459334e+2, -653578.06, -763674.5, -111446.99, 0.017370138, 0.11611813, -584325.3, 154675.42, 0.0, 10.000853, 9.999387 
1.8949848e+3, 2.3459382e+2, -752921.3, -762679.1, -113261.41, 0.040938675, 0.21747975, -644433.75, -3437.4497, 0.0, 9.999507, 9.999368 
1.8949912e+3, 2.445928e+2, -742483.6, -805114.06, -72567.14, 0.07102671, 0.22593862, -694763.2, -151756.3, 0.0, 9.999327, 9.998492 
1.8949983e+3, 2.545901e+2, -477235.94, -636273.94, -73828.56, 0.117369786, 0.10301882, -448247.22, -3212.5684, 0.0, 10.000515, 9.998406 
1.8950053e+3, 2.6458853e+2, -299646.94, -459413.84, -74901.016, 0.15214829, 0.09266949, -270024.56, 77027.11, 0.0, 10.000889, 9.998768 
1.8950117e+3, 2.7458858e+2, -290064.47, -407707.4, -55295.086, 0.1493499, 0.21619436, -268154.8, -19101.227, 0.0, 10.000298, 9.9987335 
1.8950184e+3, 2.845881e+2, -251771.63, -326408.22, 7673.4907, 0.109452575, 0.29281285, -250990.88, -99930.766, 0.0, 9.999834, 9.998843 
1.8950261e+3, 2.9458675e+2, -192530.9, -253471.88, -6906.8174, 0.09228759, 0.2713373, -191757.9, -138683.88, 0.0, 9.999592, 9.99879 
1.8950307e+3, 3.0458587e+2, -84352.875, -101659.336, -64086.402, -0.124335766, 0.27627614, -28338.14, -28338.14, 0.0, 9.999685, 9.99945 
1.8950386e+3, 3.1458503e+2, -43524.65, -60649.727, 39966.1, 0.0010395579, 0.24491626, -11214.135, -11214.135, 0.0, 9.999872, 9.999639 
1.9049104e+3, 1.2459367e+2, -1742997.9, -1843923.5, -95563.914, 0.04735093, 0.39158317, -1685391.4, 33606.027, 0.1713416, 10.000338, 9.998962 
1.904916e+3, 1.3458993e+2, -1664583.9, -1773985.4, -48451.76, -0.16627127, 0.12407542, -1646211.0, -25177.363, 0.11689223, 10.000249, 9.998803 
1.9049217e+3, 1.4458744e+2, -1451986.3, -1473461.3, -44372.34, -0.25857136, -0.062879935, -1417070.8, 105985.63, 0.06499328, 10.000427, 10.000126 
1.9049309e+3, 1.5458892e+2, -1310688.3, -1356022.0, -51997.543, -0.015051568, 0.06285828, -1276631.8, 148407.25, 0.026617203, 10.000723, 10.000107 
1.9049387e+3, 1.6458939e+2, -1276307.3, -1410633.3, -58118.395, 0.08226089, 0.15619566, -1254652.4, 72383.35, 0.0066676727, 10.000799, 9.999008 
1.9049448e+3, 1.745887e+2, -1203905.4, -1336058.6, -56573.78, -0.013722658, 0.18650751, -1182995.1, 46053.477, 0.0006122247, 10.000669, 9.998909 
1.9049516e+3, 1.8458828e+2, -1030524.8, -1070853.4, -68941.445, -0.035436504, 0.20158142, -978859.25, 152194.27, 0.0000017786746, 10.00062, 10.000081 
1.9049594e+3, 1.9458838e+2, -925516.0, -970491.94, -99673.766, 0.033164416, 0.19377367, -845824.9, 187222.44, 0.0, 10.000674, 10.000072 
1.9049668e+3, 2.0458756e+2, -963015.4, -1067001.8, -105809.43, 0.07007215, 0.16532002, -897114.8, 37938.754, 0.0, 10.0003, 9.998917 
1.9049737e+3, 2.1458574e+2, -996892.94, -1044095.5, -68863.6, 0.069725804, 0.09194565, -947698.5, -110624.516, 0.0, 9.999444, 9.998814 
1.9049798e+3, 2.2458504e+2, -865923.44, -863254.1, -105427.24, 0.06885817, 0.11566978, -759153.06, -20070.0, 0.0, 9.999385, 9.99941 
1.904985e+3, 2.3458584e+2, -640894.56, -708202.94, -108471.02, 0.06075747, 0.24642153, -560976.94, 80100.195, 0.0, 10.000275, 9.9993725 
1.9049911e+3, 2.44585e+2, -513018.53, -646960.06, -18929.494, 0.06128466, 0.25324652, -510394.7, 32690.771, 0.0, 10.000699, 9.998915 
1.9049986e+3, 2.5458235e+2, -439269.13, -567684.0, 17955.633, 0.085653, 0.09110161, -436805.75, 8304.379, 0.0, 10.000565, 9.99885 
1.9050057e+3, 2.6458088e+2, -356143.78, -479495.4, -7856.6357, 0.13104752, 0.06436393, -355645.4, -8519.738, 0.0, 10.000472, 9.998828 
1.9050123e+3, 2.745811e+2, -268843.7, -391401.72, -29521.357, 0.16641806, 0.20068194, -262103.38, -12975.718, 0.0, 10.00042, 9.998785 
1.9050185e+3, 2.8458115e+2, -173815.47, -271914.4, 32152.727, 0.11046733, 0.31809685, -164216.42, -13085.945, 0.0, 10.0002985, 9.998992 
1.9050255e+3, 2.945806e+2, -108215.44, -204815.8, 39857.004, 0.040718637, 0.3595983, -93893.83, -40756.508, 0.0, 10.000143, 9.998855 
1.9050309e+3, 3.0457896e+2, -56440.094, -101126.72, -23094.059, -0.09184134, 0.29377416, -46649.95, -46649.95, 0.0, 9.999928, 9.999338 
1.9050393e+3, 3.145774e+2, -147787.98, -115393.31, 97655.43, 0.12558371, 0.19602408, -32601.068, -32601.068, 0.0, 9.999182, 9.999594 
1.9149093e+3, 1.2458161e+2, -1635419.0, -1600903.1, -104311.24, -0.10531715, 0.2606091, -1512431.9, 206690.94, 0.18042894, 10.000274, 10.00083 
1.9149175e+3, 1.3458171e+2, -1525850.8, -1473623.0, -41203.938, -0.022026366, 0.15659218, -1450954.8, 170159.17, 0.12358676, 10.000228, 10.001016 
1.9149236e+3, 1.4458105e+2, -1488623.5, -1548353.6, -34414.46, -0.10164018, 0.062817246, -1472922.4, 50193.766, 0.069141634, 10.000416, 9.999599 
1.9149317e+3, 1.5458128e+2, -1355783.0, -1448617.6, -40101.652, -0.0061145737, 0.12662342, -1340859.4, 84254.72, 0.028615344, 10.000716, 9.999464 
1.9149394e+3, 1.6458078e+2, -1275060.4, -1406026.4, -63551.19, 0.062537156, 0.15406397, -1249292.3, 77828.305, 0.0073205116, 10.000789, 9.999046 
1.9149464e+3, 1.7457947e+2, -1200025.5, -1327161.0, -59576.316, 0.074705176, 0.1162141, -1176471.5, 52664.88, 0.00070924795, 10.000663, 9.998974 
1.9149533e+3, 1.8457873e+2, -1088190.6, -1188863.6, -67444.336, 0.05812783, 0.1341298, -1054369.5, 76776.57, 0.0000023137907, 10.00061, 9.999277 
1.9149598e+3, 1.9457883e+2, -986541.0, -1094828.9, -96247.32, 0.013628236, 0.2111473, -930253.5, 102893.164, 0.0, 10.000663, 9.999225 
1.9149666e+3, 2.0457873e+2, -897803.9, -929903.4, -137029.03, 0.018164216, 0.25214958, -775887.9, 159259.89, 0.0, 10.000291, 9.999864 
1.9149731e+3, 2.1457848e+2, -926863.8, -896181.94, -99059.0, 0.080476925, 0.23379192, -811283.0, 25865.463, 0.0, 9.999433, 9.999835 
1.9149794e+3, 2.2457798e+2, -862260.5, -855183.3, -74058.62, 0.09478867, 0.22112156, -784578.8, -45425.21, 0.0, 9.999378, 9.999471 
1.9149852e+3, 2.3457727e+2, -640044.0, -705667.1, -72040.49, 0.044354215, 0.20156206, -593694.75, 47467.906, 0.0, 10.000268, 9.999395 
1.9149916e+3, 2.4457674e+2, -449066.22, -512391.3, -22139.697, 0.03029981, 0.1912226, -442093.5, 101074.01, 0.0, 10.000691, 9.999844 
1.914999e+3, 2.545765e+2, -372203.34, -429722.94, 14819.02, 0.07557898, 0.17655106, -368609.94, 76556.33, 0.0, 10.000568, 9.999797 
1.915006e+3, 2.645757e+2, -382610.94, -535155.56, -10382.94, 0.11046663, 0.18318376, -381907.47, -34732.074, 0.0, 10.000474, 9.998446 
1.9150119e+3, 2.7457437e+2, -297788.9, -452834.3, -30087.6, 0.08670047, 0.20926851, -292154.94, -42960.25, 0.0, 10.000423, 9.9983635 
1.915018e+3, 2.8457388e+2, -144487.17, -212410.92, 25428.234, 0.023426373, 0.2778697, -136022.6, 15180.569, 0.0, 10.000305, 9.999397 
1.9150256e+3, 2.9457414e+2, -88576.41, -168016.28, 40284.363, 0.03569513, 0.35647568, -71723.35, -18521.785, 0.0, 10.000157, 9.999102 
1.9150329e+3, 3.0457208e+2, -82458.95, -160681.69, -44935.645, 0.100604385, 0.26461512, -61997.582, -61997.582, 0.0, 9.99995, 9.99892 
1.915038e+3, 3.145718e+2, -86554.42, 8016.178, 119121.37, 0.06881822, 0.32400647, 88894.055, 88894.055, 0.0, 9.999189, 10.000443 
1.9249089e+3, 1.24571845e+2, -1566099.8, -1551533.1, 22109.262, -0.19184037, 0.13485591, -1535538.4, 183679.84, 0.18987963, 10.000776, 10.001013 
1.9249187e+3, 1.3457365e+2, -1397085.3, -1385867.6, -14744.228, 0.017722141, 0.17383955, -1375701.4, 245492.0, 0.13060497, 10.001117, 10.001289 
1.924925e+3, 1.4457387e+2, -1400195.0, -1544040.5, -74566.71, -0.0583736, 0.16985314, -1368517.3, 154670.9, 0.07352615, 10.001252, 9.999233 
1.9249326e+3, 1.5457308e+2, -1346433.6, -1490285.9, -72198.86, -0.0036506122, 0.17500249, -1316447.8, 108749.44, 0.030745408, 10.000986, 9.999048 
1.92494e+3, 1.6457209e+2, -1280977.9, -1381504.3, -88486.11, 0.061468598, 0.16213162, -1229475.8, 97732.375, 0.008026891, 10.00063, 9.999291 
1.924947e+3, 1.7457087e+2, -1252558.5, -1322468.9, -72310.14, 0.099553406, 0.10753982, -1207197.9, 22022.346, 0.0008187495, 10.0001745, 9.999242 
1.9249538e+3, 1.845702e+2, -1176467.3, -1235098.3, -26887.12, 0.07981085, 0.1194075, -1166004.5, -34775.773, 0.0000031359323, 10.000024, 9.99924 
1.9249602e+3, 1.9457029e+2, -1048951.9, -1131294.1, 2744.0718, 0.0007830698, 0.19942443, -1048860.6, -15629.222, 0.0, 10.000262, 9.999165 
1.9249666e+3, 2.0457031e+2, -848008.56, -858660.25, -43006.332, -0.010308608, 0.23755689, -809999.56, 125231.516, 0.0, 10.000433, 10.000281 
1.9249728e+3, 2.1457045e+2, -736493.3, -756147.25, -53284.977, 0.055800293, 0.21295178, -692136.7, 145089.39, 0.0, 10.000535, 10.000264 
1.9249791e+3, 2.245701e+2, -703703.94, -765109.44, -24563.441, 0.07728281, 0.18857831, -695087.2, 44141.58, 0.0, 10.000413, 9.999588 
1.924985e+3, 2.3456928e+2, -665192.7, -706279.44, -17839.566, 0.03753513, 0.1463425, -658528.0, -17288.25, 0.0, 10.000048, 9.999495 
1.9249918e+3, 2.4456914e+2, -558615.0, -551065.1, -1502.7184, 0.027353518, 0.16342159, -550777.0, -7535.1904, 0.0, 9.999877, 9.999971 
1.9249992e+3, 2.5456995e+2, -457011.0, -457270.0, -29827.02, 0.06964367, 0.24358235, -427313.2, 17918.492, 0.0, 9.999928, 9.999917 
1.9250062e+3, 2.6456955e+2, -463942.47, -553296.94, -69020.34, 0.11814574, 0.2756723, -426401.3, -79164.14, 0.0, 9.999827, 9.998633 
1.9250122e+3, 2.7456775e+2, -413048.34, -485822.38, -44440.89, 0.12545693, 0.23294546, -391998.38, -142738.36, 0.0, 9.9995365, 9.998563 
1.9250178e+3, 2.8456697e+2, -286860.22, -262090.47, 26453.814, 0.035065945, 0.253231, -245265.94, -93995.25, 0.0, 9.999247, 9.999567 
1.9250244e+3, 2.9456747e+2, -250232.42, -231909.97, 24950.275, -0.035735734, 0.33961976, -214492.17, -161225.63, 0.0, 9.998988, 9.999226 
1.9250332e+3, 3.0456573e+2, -174930.11, -229358.86, -37975.29, 0.17357099, 0.2881257, -155424.63, -155424.63, 0.0, 9.999421, 9.998705 
1.9250381e+3, 3.1456563e+2, 52257.566, 89704.65, 99180.61, 0.12124348, 0.38115537, 171913.58, 171913.58, 0.0, 10.000079, 10.000575 
1.9349094e+3, 1.2456462e+2, -1659932.1, -1744789.0, 2855.7026, -0.23152214, 0.030743767, -1659836.1, 59445.047, 0.1997211, 10.00075, 9.999431 
1.934919e+3, 1.3456573e+2, -1504105.8, -1603555.0, 556.9505, -0.06427209, 0.17115596, -1504102.6, 117169.72, 0.13795441, 10.001105, 9.9995775 
1.9349253e+3, 1.4456582e+2, -1420045.4, -1581730.6, -83374.02, -0.14881653, 0.25693178, -1384755.5, 138517.36, 0.07814733, 10.001233, 9.998983 
1.9349335e+3, 1.5456434e+2, -1361997.4, -1519768.1, -80774.305, -0.017398939, 0.2092316, -1327978.5, 97310.336, 0.033007, 10.000974, 9.998852 
1.9349408e+3, 1.6456333e+2, -1251379.5, -1318279.9, -106463.26, 0.067618586, 0.1851242, -1173235.1, 154063.25, 0.008786739, 10.000621, 9.999733 
1.9349468e+3, 1.7456293e+2, -1220551.0, -1254866.0, -88378.08, 0.051570375, 0.1639301, -1147680.4, 81619.85, 0.00094156526, 10.000168, 9.99971 
1.9349532e+3, 1.8456265e+2, -1126460.9, -1128897.6, -18916.143, 0.020651612, 0.15714553, -1108723.9, 22577.975, 0.0000044945964, 10.000012, 9.999975 
1.9349603e+3, 1.9456269e+2, -997808.25, -1021968.4, 14515.136, -0.013150689, 0.15771526, -991004.0, 42297.74, 0.0, 10.000247, 9.999923 
1.9349669e+3, 2.0456232e+2, -859278.06, -879929.56, -38446.01, -0.0242324, 0.12127159, -829795.3, 105508.57, 0.0, 10.000422, 10.000142 
1.9349729e+3, 2.1456158e+2, -751017.5, -784022.4, -46585.363, -0.010618268, 0.029879738, -718098.0, 119209.266, 0.0, 10.0005245, 10.000079 
1.9349788e+3, 2.2456133e+2, -693299.75, -742158.7, -37325.684, 0.009444203, 0.017661132, -673119.7, 66189.67, 0.0, 10.000404, 9.999751 
1.934985e+3, 2.3456177e+2, -653746.1, -680879.3, -28915.438, 0.030160045, 0.08128604, -635372.9, 5936.21, 0.0, 10.00004, 9.999673 
1.9349918e+3, 2.4456213e+2, -605993.44, -649150.1, -239.55037, 0.041663744, 0.17349781, -605992.1, -62683.16, 0.0, 9.999873, 9.9993 
1.9349991e+3, 2.5456262e+2, -505455.66, -559647.8, -26177.19, 0.058962177, 0.290016, -494876.25, -49568.793, 0.0, 9.999933, 9.999213 
1.9350064e+3, 2.6456234e+2, -410851.56, -443374.88, -79288.36, 0.146365, 0.33736745, -346174.44, 1137.777, 0.0, 9.999827, 9.999388 
1.9350132e+3, 2.7456117e+2, -357528.25, -371377.34, -53581.97, 0.2694887, 0.27258182, -310425.22, -61100.53, 0.0, 9.999538, 9.999349 
1.935018e+3, 2.8456026e+2, -288155.3, -268786.72, 15096.313, 0.13134128, 0.24616677, -260535.45, -109201.414, 0.0, 9.99926, 9.999516 
1.935022e+3, 2.9456043e+2, -246305.83, -231576.3, 20673.96, -0.18414639, 0.30764952, -216994.47, -163660.72, 0.0, 9.999015, 9.999219 
1.9350322e+3, 3.045599e+2, -171662.89, -225173.84, -3513.8118, 0.12635782, 0.37000597, -171433.14, -171433.14, 0.0, 9.9994335, 9.998727 
1.9350383e+3, 3.1455734e+2, 34424.16, 51542.24, 26029.104, 0.12646048, 0.22534105, 70383.41, 70383.41, 0.0, 10.000084, 10.000312 
1.9449107e+3, 1.2455846e+2, -1595649.1, -1781221.3, -47221.41, -0.20088422, 0.07739549, -1584324.1, 135016.61, 0.20999403, 10.001643, 9.998764 
1.9449203e+3, 1.3455835e+2, -1534587.4, -1718956.5, 26937.686, -0.0576506, 0.18703721, -1530732.1, 90614.52, 0.14565058, 10.001307, 9.9986725 
1.9449267e+3, 1.4455806e+2, -1399680.6, -1545678.4, -10378.196, -0.14367703, 0.26946777, -1398946.5, 124405.38, 0.083007626, 10.001278, 9.999197 
1.9449344e+3, 1.5455657e+2, -1281632.5, -1450452.8, 23326.752, -0.036324818, 0.19926226, -1278468.5, 146897.2, 0.03539992, 10.001418, 9.99911 
1.9449416e+3, 1.6455567e+2, -1152237.5, -1276171.8, -10037.795, 0.041515905, 0.1729882, -1151429.8, 175943.86, 0.009600047, 10.001341, 9.999672 
1.9449472e+3, 1.7455544e+2, -1096838.1, -1204023.1, -36573.492, 0.036370695, 0.17605953, -1085547.9, 143825.98, 0.0010784023, 10.001059, 9.999627 
1.9449535e+3, 1.8455519e+2, -1014632.9, -1063988.8, 293.17905, 0.010496488, 0.172266, -1014631.1, 116743.88, 0.0000066792873, 10.000735, 10.000072 
1.9449605e+3, 1.9455512e+2, -973755.44, -998534.9, -17663.545, -0.028122833, 0.15171231, -964569.56, 68805.97, 0.0, 10.000366, 10.000026 
1.9449669e+3, 2.0455483e+2, -928834.9, -899306.25, -92498.53, -0.039103117, 0.112617955, -820401.1, 114975.56, 0.0, 9.999884, 10.000268 
1.9449726e+3, 2.145544e+2, -924226.4, -853784.06, -80602.445, -0.021458715, 0.03807769, -801043.4, 36334.1, 0.0, 9.999275, 10.000201 
1.9449788e+3, 2.245544e+2, -871884.2, -832911.5, -51336.21, 0.013108996, 0.04565184, -797487.7, -58110.39, 0.0, 9.9992, 9.999707 
1.9449854e+3, 2.34555e+2, -697148.56, -708606.25, -62432.17, 0.061546624, 0.13429631, -640182.94, 1191.9943, 0.0, 9.999771, 9.999613 
1.9449918e+3, 2.4455513e+2, -630139.1, -650032.0, -31870.545, 0.06757875, 0.20002256, -606699.0, -63321.88, 0.0, 9.999666, 9.9993925 
1.9449982e+3, 2.5455487e+2, -667307.44, -626208.6, -40.753353, 0.032852028, 0.23035988, -626208.56, -180825.78, 0.0, 9.9987755, 9.999312 
1.945005e+3, 2.645546e+2, -546437.1, -455348.78, -5795.498, 0.0970505, 0.25232756, -454981.53, -107595.555, 0.0, 9.998667, 9.999865 
1.9450125e+3, 2.745543e+2, -337737.3, -309009.4, -6218.317, 0.24521057, 0.23120059, -307721.2, -58334.203, 0.0, 9.999447, 9.999821 
1.9450176e+3, 2.845535e+2, -240933.64, -259005.31, 30190.354, 0.13706453, 0.19087788, -218455.92, -67061.28, 0.0, 9.999643, 9.999397 
1.9450213e+3, 2.945529e+2, -218563.08, -217026.08, 32127.584, -0.17571141, 0.18757086, -185657.8, -132255.89, 0.0, 9.999208, 9.999222 
1.9450314e+3, 3.0455276e+2, -169657.75, -197363.94, 57253.99, 0.105571, 0.27487737, -124604.75, -124604.75, 0.0, 9.999332, 9.998965 
1.9450381e+3, 3.1455112e+2, -4254.5337, 44126.973, 12157.114, 0.12545997, 0.20396604, 47009.97, 47009.97, 0.0, 9.999775, 10.000406 
1.9549131e+3, 1.2455363e+2, -1588990.6, -1752396.1, -81938.19, -0.13644901, 0.3002131, -1554981.6, 164413.11, 0.22070916, 10.001609, 9.999012 
1.9549225e+3, 1.3455155e+2, -1543178.1, -1735778.3, 19468.414, 0.032173153, 0.2245023, -1541230.0, 80186.35, 0.15369554, 10.001296, 9.998562 
1.9549288e+3, 1.4455056e+2, -1357768.9, -1452948.4, -5571.1196, -0.052863993, 0.20943253, -1357443.9, 165981.22, 0.08810495, 10.001266, 9.9998865 
1.9549355e+3, 1.5454988e+2, -1233904.3, -1347546.0, 29922.578, -0.07071295, 0.14428659, -1226506.9, 198920.98, 0.037922986, 10.001409, 9.999842 
1.9549422e+3, 1.6454911e+2, -1195289.8, -1363389.9, -19889.42, -0.028502356, 0.12560925, -1192968.5, 134464.92, 0.010466628, 10.001328, 9.999077 
1.9549483e+3, 1.7454839e+2, -1143161.1, -1300193.8, -44935.902, 0.048758835, 0.14282966, -1131211.6, 98229.67, 0.0012294218, 10.001057, 9.99897 
1.9549544e+3, 1.845478e+2, -1054887.6, -1147406.9, -13049.617, 0.041310284, 0.16510925, -1053082.3, 78366.28, 0.000009908067, 10.000732, 9.999501 
1.9549605e+3, 1.9454753e+2, -1014610.2, -1082930.4, -29397.05, -0.053276557, 0.18394747, -1003702.56, 29750.627, 0.0, 10.0003605, 9.999451 
1.9549665e+3, 2.0454781e+2, -904528.25, -845360.44, -115275.9, -0.06533626, 0.212979, -755932.8, 179517.53, 0.0, 9.999867, 10.000647 
1.9549723e+3, 2.1454883e+2, -896085.56, -791982.94, -101046.39, 0.0154536255, 0.23995109, -730369.3, 107068.05, 0.0, 9.99926, 10.000633 
1.9549787e+3, 2.2454919e+2, -891555.4, -872231.8, -31384.54, 0.08004374, 0.27526546, -849055.5, -109622.37, 0.0, 9.999189, 9.999444 
1.9549857e+3, 2.3454891e+2, -719502.75, -752599.56, -38244.35, 0.12509646, 0.3042284, -694380.06, -52941.65, 0.0, 9.999759, 9.999319 
1.9549918e+3, 2.4454801e+2, -572285.44, -527937.3, -62904.676, 0.0969359, 0.24230376, -483412.88, 60034.38, 0.0, 9.999658, 10.000235 
1.9549964e+3, 2.5454655e+2, -604552.3, -496851.84, -30899.352, -0.016862687, 0.064915314, -488616.53, -43157.99, 0.0, 9.998778, 10.000199 
1.9550024e+3, 2.6454625e+2, -531838.75, -426292.7, 20975.828, -0.037776705, 0.022054685, -422276.8, -74817.52, 0.0, 9.99867, 10.000064 
1.9550098e+3, 2.7454716e+2, -324715.44, -286633.2, 24332.582, 0.042653807, 0.106252275, -274777.1, -25328.773, 0.0, 9.999463, 9.9999695 
1.9550164e+3, 2.8454655e+2, -251621.63, -284223.56, 13567.812, 0.04328694, 0.08769496, -246713.94, -95260.266, 0.0, 9.999657, 9.999217 
1.9550219e+3, 2.9454473e+2, -220061.53, -221475.17, 19595.418, -0.021166472, -0.013318985, -201160.19, -147688.42, 0.0, 9.999211, 9.999191 
1.9550307e+3, 3.045441e+2, -133251.75, -124825.92, 77080.59, 0.09596206, -0.011370617, -51843.2, -51843.2, 0.0, 9.999342, 9.99946 
1.9550392e+3, 3.1454572e+2, 7897.6147, 57107.07, -58302.895, 0.24321944, 0.21238047, 95784.414, 95784.414, 0.0, 9.999823, 10.000475 
1.9649155e+3, 1.2454785e+2, -1510593.8, -1680735.6, -59840.742, -0.084745474, 0.37064528, -1491655.3, 227798.77, 0.23177752, 10.002188, 9.999254 
1.9649239e+3, 1.3454492e+2, -1478121.9, -1692601.4, 57418.438, 0.022050098, 0.20370957, -1463717.6, 157763.23, 0.1620495, 10.001817, 9.998614 
1.9649304e+3, 1.4454351e+2, -1351317.8, -1471721.1, 18751.666, -0.021859778, 0.15523084, -1348464.9, 175028.17, 0.093428105, 10.001434, 9.999661 
1.9649372e+3, 1.5454346e+2, -1312435.8, -1409862.8, -21588.156, -0.0271341, 0.17582852, -1307866.4, 117625.555, 0.04057487, 10.000965, 9.999607 
1.9649434e+3, 1.6454287e+2, -1278782.3, -1405950.5, -85133.76, 0.0042431457, 0.18537395, -1236108.8, 91388.06, 0.011385711, 10.00076, 9.99906 
1.9649494e+3, 1.745417e+2, -1168228.8, -1312070.6, -63753.74, 0.039364193, 0.16260245, -1144039.6, 85468.03, 0.0013940044, 10.000888, 9.998967 
1.964955e+3, 1.8454082e+2, -1069221.6, -1173881.8, -4139.393, 0.02613842, 0.16336302, -1069058.3, 62458.926, 0.000014255441, 10.00072, 9.999324 
1.9649611e+3, 1.945404e+2, -1052007.6, -1121711.5, 5913.3345, -0.031067278, 0.18457843, -1051509.5, -17986.092, 0.0, 10.0001955, 9.999262 
1.9649668e+3, 2.0454064e+2, -897584.6, -868486.06, -74693.28, -0.038309366, 0.23162995, -806938.25, 128583.375, 0.0, 10.000031, 10.000408 
1.9649719e+3, 2.1454175e+2, -762194.0, -754436.6, -113634.71, 0.0074778786, 0.29350558, -644614.44, 192894.89, 0.0, 10.000298, 10.000389 
1.964978e+3, 2.2454187e+2, -756414.44, -772456.7, -49549.145, 0.061465804, 0.3013593, -714241.4, 25265.23, 0.0, 9.999972, 9.99975 
1.9649851e+3, 2.345409e+2, -813185.7, -760840.75, -12588.092, 0.12625718, 0.22797902, -757970.9, -116456.33, 0.0, 9.998959, 9.999645 
1.9649911e+3, 2.4453998e+2, -697143.5, -572086.5, -30176.7, 0.109663, 0.14001077, -565185.56, -21663.986, 0.0, 9.998729, 10.000379 
1.9649956e+3, 2.545393e+2, -500311.63, -430659.75, -57177.7, -0.009272909, 0.0290597, -398536.94, 46988.78, 0.0, 9.999428, 10.00034 
1.9650015e+3, 2.6453936e+2, -387395.06, -351609.53, -27262.953, -0.0542474, 0.014120909, -336892.2, 10631.164, 0.0, 9.999644, 10.000106 
1.9650088e+3, 2.745402e+2, -349587.5, -293410.56, -34833.31, 0.0008074293, 0.085712545, -276751.72, -27238.242, 0.0, 9.999277, 10.000009 
1.9650158e+3, 2.8453967e+2, -337415.88, -316328.03, -56808.203, 0.06294833, 0.070315875, -269093.53, -117575.664, 0.0, 9.999029, 9.999298 
1.9650222e+3, 2.94538e+2, -256846.02, -217410.66, -32187.52, 0.10240231, -0.030839048, -199381.52, -145847.03, 0.0, 9.998868, 9.999383 
1.9650285e+3, 3.045373e+2, -245432.89, -135683.13, 36811.37, 0.01470327, -0.06470827, -124479.8, -124479.8, 0.0, 9.998389, 9.999845 
1.9650376e+3, 3.1453893e+2, -245624.0, -27758.26, -93105.88, 0.19273126, 0.1301454, 6609.5166, 6609.5166, 0.0, 9.997928, 10.000802 
1.974918e+3, 1.24541014e+2, -1499982.6, -1647994.3, -75223.375, -0.06959885, 0.27664635, -1468463.9, 251055.52, 0.24301729, 10.002161, 9.999569 
1.9749245e+3, 1.3453849e+2, -1468147.3, -1659592.4, 46005.504, -0.102555506, 0.124820076, -1457665.8, 163874.27, 0.17062773, 10.001796, 9.99885 
1.9749315e+3, 1.4453696e+2, -1430308.6, -1641123.3, 3673.2205, -0.06706897, 0.10831771, -1430244.8, 93310.92, 0.09895461, 10.001411, 9.998475 
1.9749393e+3, 1.545373e+2, -1399189.0, -1593944.3, -38369.168, 0.08778776, 0.29581222, -1391902.5, 33655.934, 0.04335473, 10.000955, 9.998347 
1.9749455e+3, 1.6453682e+2, -1240798.6, -1324630.5, -82412.51, 0.13004442, 0.35485846, -1190255.0, 137309.17, 0.012356995, 10.000751, 9.999625 
1.9749498e+3, 1.7453535e+2, -1123687.4, -1218568.6, -57338.34, -0.0011194206, 0.23653768, -1096708.3, 132864.86, 0.0015709848, 10.000881, 9.999614 
1.974955e+3, 1.845342e+2, -1056006.6, -1142601.1, -22756.668, -0.04461768, 0.16825756, -1050390.5, 81190.83, 0.000019593592, 10.000704, 9.999546 
1.9749619e+3, 1.9453362e+2, -1039397.44, -1092700.4, -11587.272, 0.0300105, 0.15100116, -1036987.5, -3400.62, 0.0, 10.000183, 9.999467 
1.9749676e+3, 2.0453322e+2, -960488.2, -997188.25, -65521.273, 0.033644672, 0.16422127, -910795.9, 24795.615, 0.0, 10.000021, 9.999531 
1.9749717e+3, 2.1453314e+2, -828633.56, -890827.56, -100763.586, -0.05290337, 0.1999307, -754277.6, 83316.3, 0.0, 10.00029, 9.999457 
1.9749768e+3, 2.2453237e+2, -696880.25, -648801.0, -85756.875, -0.052352548, 0.12547421, -583778.06, 155820.36, 0.0, 9.999969, 10.000602 
1.9749834e+3, 2.3453084e+2, -747955.1, -624806.8, -48311.734, 0.054636635, -0.096133865, -608116.06, 33488.344, 0.0, 9.998954, 10.000583 
1.9749898e+3, 2.4453093e+2, -736494.44, -653610.7, -7119.411, 0.09507733, -0.10580946, -653003.6, -109402.59, 0.0, 9.998726, 9.999822 
1.9749956e+3, 2.5453302e+2, -543232.4, -521805.3, -29653.22, 0.04429999, 0.12251382, -500989.6, -55404.05, 0.0, 9.9994335, 9.999713 
1.975002e+3, 2.645339e+2, -394058.63, -367426.9, -40018.008, 0.03540528, 0.22700003, -338567.5, 9011.99, 0.0, 9.999651, 9.999994 
1.9750093e+3, 2.7453336e+2, -355238.84, -307318.03, -46591.78, 0.10818332, 0.16875166, -278886.7, -29302.904, 0.0, 9.999285, 9.99991 
1.9750161e+3, 2.845328e+2, -310313.97, -263576.8, -64369.555, 0.1861122, 0.13777617, -218465.25, -66876.66, 0.0, 9.999042, 9.999656 
1.975022e+3, 2.9453242e+2, -225282.66, -160227.75, -39132.457, 0.18450724, 0.13098602, -141869.2, -88277.36, 0.0, 9.9988985, 9.999764 
1.9750254e+3, 3.0453226e+2, -227063.48, -101855.32, 6162.369, -0.14987336, 0.1186065, -101552.76, -101552.76, 0.0, 9.998409, 10.000066 
1.9750358e+3, 3.145307e+2, -197954.58, 63255.055, 7471.121, 0.21074773, -0.028690409, 63468.566, 63468.566, 0.0, 9.997955, 10.001417 
1.984921e+3, 1.2453481e+2, -1480716.5, -1650907.9, -30513.299, -0.009580998, 0.17686974, -1475411.3, 244166.05, 0.25424254, 10.002447, 9.999416 
1.9849266e+3, 1.3453312e+2, -1382279.5, -1621038.3, 60228.41, -0.112045586, 0.11845234, -1367946.9, 253643.66, 0.17932345, 10.002569, 9.9987545 
1.9849335e+3, 1.445315e+2, -1305428.4, -1606601.0, 33517.79, -0.05753863, 0.11404352, -1301743.3, 221864.44, 0.104643695, 10.002516, 9.998181 
1.9849406e+3, 1.545315e+2, -1245417.5, -1549580.5, 59353.973, 0.057066344, 0.2934396, -1234245.6, 191369.3, 0.046255346, 10.002208, 9.998048 
1.9849464e+3, 1.6453077e+2, -1095110.9, -1244926.3, 43164.3, 0.091063775, 0.34178758, -1083564.4, 244058.56, 0.013380272, 10.001729, 9.9997015 
1.9849508e+3, 1.745293e+2, -1091830.1, -1192229.6, 24630.78, -0.009842706, 0.21275884, -1086113.0, 143518.27, 0.0017591557, 10.001057, 9.999708 
1.9849558e+3, 1.8452813e+2, -1078117.1, -1153202.8, 26183.594, -0.029576408, 0.1364818, -1069888.4, 61750.613, 0.0000256483, 10.000552, 9.999548 
1.9849624e+3, 1.9452746e+2, -1029747.75, -1088539.1, 19231.16, 0.05877946, 0.113111734, -1024015.9, 9628.436, 0.0, 10.000253, 9.999463 
1.9849679e+3, 2.0452684e+2, -993285.94, -1044326.56, -6759.392, 0.066907965, 0.11770856, -992405.94, -56754.957, 0.0, 9.999933, 9.999248 
1.9849718e+3, 2.1452636e+2, -951057.1, -984290.25, 2596.5793, -0.026500631, 0.14220808, -950855.44, -113197.25, 0.0, 9.999598, 9.99915 
1.9849767e+3, 2.2452547e+2, -741687.44, -672509.94, 6610.6987, -0.047189277, 0.07454723, -671883.9, 67780.01, 0.0, 9.999673, 10.00058 
1.9849826e+3, 2.3452425e+2, -559548.7, -534575.56, -30213.795, 0.02282329, -0.116812, -514369.8, 127296.58, 0.0, 10.000255, 10.000573 
1.984989e+3, 2.445243e+2, -561198.0, -623799.94, -17060.541, 0.080149144, -0.104496635, -556850.5, -13186.786, 0.0, 10.000172, 9.999328 
1.9849956e+3, 2.5452596e+2, -596851.0, -604630.44, -32824.742, 0.10692242, 0.13200952, -567686.3, -122032.09, 0.0, 9.999317, 9.999198 
1.9850019e+3, 2.6452637e+2, -529514.0, -452098.75, -45920.758, 0.10167228, 0.22430421, -430748.1, -83094.45, 0.0, 9.998805, 9.99982 
1.9850081e+3, 2.745254e+2, -455627.03, -374241.1, -60669.61, 0.0929976, 0.13996647, -341881.22, -92219.3, 0.0, 9.998676, 9.9997425 
1.9850148e+3, 2.8452498e+2, -350686.53, -267915.4, -78676.195, 0.16719632, 0.12583517, -220403.78, -68738.266, 0.0, 9.998702, 9.999789 
1.9850215e+3, 2.945252e+2, -227764.97, -147980.25, -74631.82, 0.25309142, 0.16749501, -103248.09, -49584.906, 0.0, 9.99883, 9.999878 
1.9850244e+3, 3.0452532e+2, -209793.47, -80172.88, -67960.78, -0.10022491, 0.17398793, -51073.42, -51073.42, 0.0, 9.998472, 10.000182 
1.9850332e+3, 3.145236e+2, -191684.75, 79962.79, 25915.975, 0.15661862, -0.0067487797, 82413.15, 82413.15, 0.0, 9.997935, 10.001543 
1.9949242e+3, 1.2452913e+2, -1526179.0, -1732944.8, -15603.061, 0.0704677, 0.057909753, -1525008.1, 194620.14, 0.26535824, 10.002391, 9.998722 
1.9949302e+3, 1.3452889e+2, -1414787.9, -1692234.9, 68626.83, -0.015045783, 0.1903515, -1398741.0, 222890.97, 0.18805622, 10.002558, 9.998269 
1.9949366e+3, 1.4452721e+2, -1267845.5, -1518148.9, 22102.564, -0.004576432, 0.17627633, -1265908.9, 257740.53, 0.11045076, 10.0025215, 9.998789 
1.9949408e+3, 1.5452597e+2, -1200384.8, -1449914.0, 49101.25, -0.1330349, 0.16590153, -1191070.5, 234591.03, 0.04926506, 10.002204, 9.998734 
1.9949459e+3, 1.645247e+2, -1127592.9, -1307962.6, 19087.568, -0.12880805, 0.14387341, -1125595.0, 202077.83, 0.014456319, 10.001713, 9.999271 
1.994952e+3, 1.745235e+2, -1127399.3, -1264209.5, 1368.7535, 0.005895551, 0.09044258, -1127385.5, 102296.664, 0.0019582892, 10.001048, 9.999219 
1.9949573e+3, 1.8452251e+2, -1094814.9, -1186284.1, 14644.125, 0.0655798, 0.06812763, -1092527.6, 39162.77, 0.000032105352, 10.000544, 9.999326 
1.9949625e+3, 1.9452193e+2, -1046200.7, -1120775.5, 10855.51, 0.04557407, 0.07342558, -1044652.6, -10956.749, 0.0, 10.000244, 9.999247 
1.9949676e+3, 2.0452146e+2, -974651.3, -1003884.94, -19293.543, 0.050094638, 0.09406307, -965062.94, -29362.404, 0.0, 9.999924, 9.999531 
1.9949725e+3, 2.145213e+2, -930404.9, -938949.8, -7012.925, 0.07858166, 0.11932708, -926465.44, -88762.56, 0.0, 9.999586, 9.999467 
1.9949776e+3, 2.2452113e+2, -806018.8, -805467.3, 27623.422, 0.07088652, 0.14843126, -778118.25, -38414.637, 0.0, 9.999668, 9.999671 
1.994983e+3, 2.3452103e+2, -628424.06, -676577.3, -5353.3315, 0.023353262, 0.16759813, -627836.1, 13865.155, 0.0, 10.000249, 9.999602 
1.9949889e+3, 2.4452004e+2, -592610.9, -689395.5, -47230.766, 0.054166835, 0.14637731, -573382.5, -29672.053, 0.0, 10.000172, 9.998878 
1.9949956e+3, 2.5451803e+2, -625917.94, -667348.0, -63097.816, 0.17119224, 0.05740358, -580221.75, -134488.9, 0.0, 9.999325, 9.998764 
1.9950011e+3, 2.6451662e+2, -545586.5, -488996.78, -53032.613, 0.14032497, 0.0070246146, -457182.94, -109435.914, 0.0, 9.998817, 9.999562 
1.9950053e+3, 2.745162e+2, -471745.56, -412971.66, -64134.727, -0.055144798, 0.0011189345, -371811.75, -122062.62, 0.0, 9.998695, 9.99947 
1.9950119e+3, 2.845161e+2, -354388.56, -278924.9, -75669.42, -0.0062090787, 0.03589158, -232101.7, -80351.61, 0.0, 9.998717, 9.999705 
1.9950208e+3, 2.945162e+2, -238811.81, -173951.36, -72682.02, 0.294393, 0.07280735, -126792.664, -73041.945, 0.0, 9.998842, 9.999694 
1.9950256e+3, 3.0451643e+2, -207001.73, -78729.45, -96721.89, 0.16498637, 0.104834616, -26811.434, -26811.434, 0.0, 9.998487, 10.000187 
1.9950292e+3, 3.1451797e+2, -236185.58, -24135.13, 95024.64, -0.03493418, 0.23920232, 12216.014, 12216.014, 0.0, 9.997977, 10.000812 
2.0049272e+3, 1.2452497e+2, -1372396.6, -1694470.5, -15758.775, 0.056092322, 0.08239193, -1371627.4, 348040.28, 0.27641812, 10.00411, 9.998222 
2.0049325e+3, 1.3452432e+2, -1453977.1, -1754781.4, 54801.992, -0.027525218, 0.2113146, -1444304.1, 177372.31, 0.1968332, 10.00242, 9.997894 
2.0049389e+3, 1.4452222e+2, -1366688.9, -1532241.9, 29389.895, 0.018735863, 0.15907916, -1361626.3, 162070.6, 0.11636926, 10.001607, 9.999129 
2.004943e+3, 1.5452072e+2, -1222639.8, -1418411.6, 30161.44, -0.10733212, 0.084916815, -1218098.3, 207610.02, 0.05238356, 10.001864, 9.999114 
2.0049478e+3, 1.6451949e+2, -1170550.0, -1370483.1, -34684.344, -0.10447114, 0.06306055, -1164703.9, 163015.17, 0.015589432, 10.001593, 9.9989 
2.004953e+3, 1.745186e+2, -1206060.0, -1348596.3, -51104.324, 0.024033789, 0.08353334, -1189631.0, 40097.688, 0.0021699998, 10.000708, 9.998804 
2.004958e+3, 1.8451768e+2, -1121840.6, -1222353.4, -1341.357, 0.07402187, 0.10093145, -1121822.8, 9915.064, 0.00003871999, 10.000462, 9.999116 
2.0049632e+3, 1.9451691e+2, -953573.0, -1099858.3, -5856.09, 0.03788115, 0.10707857, -953338.94, 80405.9, 0.0, 10.000982, 9.999034 
2.0049681e+3, 2.0451611e+2, -829107.3, -952020.75, -69648.734, 0.045538757, 0.11275145, -797677.7, 138074.61, 0.0, 10.001007, 9.999363 
2.0049727e+3, 2.1451543e+2, -815995.44, -903233.25, -98393.15, 0.099413864, 0.10289496, -751986.2, 85772.836, 0.0, 10.000459, 9.9992895 
2.0049778e+3, 2.2451505e+2, -774829.56, -839044.75, -40140.535, 0.10107555, 0.14347395, -755535.2, -15772.745, 0.0, 10.000098, 9.999231 
2.0049833e+3, 2.3451516e+2, -699726.6, -762505.25, -36629.793, 0.040298466, 0.2304141, -682876.6, -41115.88, 0.0, 9.999984, 9.99914 
2.0049891e+3, 2.44514e+2, -610087.7, -695410.7, -57690.63, 0.050777584, 0.21473731, -580998.1, -37225.82, 0.0, 10.000042, 9.998898 
2.004995e+3, 2.545114e+2, -482313.9, -593593.75, -41385.5, 0.14449427, 0.060591936, -468610.03, -22811.104, 0.0, 10.000293, 9.998803 
2.0050006e+3, 2.6450977e+2, -338870.44, -393514.5, -741.7222, 0.121835195, -0.011443092, -338860.38, 8953.7295, 0.0, 10.000262, 9.999518 
2.0050047e+3, 2.7450955e+2, -297669.5, -332589.28, 3094.0283, -0.03969221, 0.009392938, -297397.5, -47583.793, 0.0, 9.999914, 9.999431 
2.0050107e+3, 2.845092e+2, -300900.38, -283784.75, -14241.648, -0.01101829, 0.036425408, -275727.47, -123910.69, 0.0, 9.999217, 9.999431 
2.0050187e+3, 2.9450864e+2, -389044.2, -290779.3, -34237.125, 0.23955838, 0.033826478, -280027.03, -226202.38, 0.0, 9.998004, 9.999293 
2.0050244e+3, 3.0450854e+2, -358900.44, -175910.72, -53992.664, 0.25981832, 0.06735234, -161167.56, -161167.56, 0.0, 9.99755, 9.99997 
2.0050272e+3, 3.145097e+2, -250811.14, -45014.742, 133910.33, -0.031347148, 0.17847574, 20965.758, 20965.758, 0.0, 9.997951, 10.000675 
2.0149302e+3, 1.2452214e+2, -1395010.9, -1727519.4, -45702.543, -0.071056835, 0.23767294, -1388843.6, 330853.72, 0.28771394, 10.004077, 9.99796 
2.0149335e+3, 1.345194e+2, -1473249.5, -1788591.8, -302.1041, -0.16638549, 0.17935884, -1473249.3, 148474.67, 0.20582092, 10.002373, 9.997675 
2.0149404e+3, 1.4451656e+2, -1370584.3, -1529869.9, 34896.125, -0.0043687997, 0.062498905, -1363274.8, 160475.42, 0.12247417, 10.001565, 9.999169 
2.0149474e+3, 1.5451574e+2, -1222831.4, -1414821.0, 41330.094, 0.12872547, 0.05417995, -1214312.1, 211442.81, 0.055639356, 10.001851, 9.999148 
2.0149522e+3, 1.6451511e+2, -1194055.3, -1416847.8, -66569.2, 0.15807207, 0.1047862, -1175680.3, 152081.33, 0.016791714, 10.00158, 9.99859 
2.0149538e+3, 1.7451458e+2, -1231949.3, -1400108.9, -82157.47, 0.036319856, 0.19484022, -1198473.6, 31297.322, 0.0023981123, 10.000695, 9.998458 
2.0149575e+3, 1.8451363e+2, -1139938.8, -1254657.1, 16284.522, -0.016225003, 0.23612875, -1137671.9, -5890.2217, 0.000045425786, 10.00044, 9.998904 
2.0149639e+3, 1.9451235e+2, -970366.75, -1131372.3, 16717.703, 0.027462933, 0.21548097, -968649.25, 65142.516, 0.0, 10.000969, 9.998824 
2.014969e+3, 2.045107e+2, -875182.1, -1046836.94, -88376.31, 0.0442485, 0.17574032, -837815.75, 97991.09, 0.0, 10.001, 9.998716 
2.0149724e+3, 2.1450865e+2, -864828.06, -1002769.94, -116633.19, 0.026755424, 0.09746098, -798298.8, 39528.14, 0.0, 10.000449, 9.998612 
2.0149772e+3, 2.2450718e+2, -775689.0, -839912.7, -45587.336, 0.031648323, 0.06401929, -752039.06, -12198.176, 0.0, 10.000091, 9.99923 
2.0149834e+3, 2.3450655e+2, -696762.06, -757576.4, -38428.6, 0.063921824, 0.07104982, -678165.6, -36319.67, 0.0, 9.999987, 9.999173 
2.0149891e+3, 2.4450606e+2, -574824.7, -623401.5, -49077.867, 0.06091643, 0.099580854, -544353.94, -503.3707, 0.0, 10.000046, 9.999392 
2.0149942e+3, 2.5450593e+2, -446364.66, -520091.44, -30617.797, 0.016604649, 0.14154783, -435307.7, 10545.767, 0.0, 10.000297, 9.999307 
2.0149998e+3, 2.6450565e+2, -326299.56, -370375.16, -13698.383, 0.03636355, 0.16917321, -322389.13, 25466.848, 0.0, 10.000273, 9.999673 
2.0150064e+3, 2.745053e+2, -282241.94, -305494.9, -7837.5127, 0.12857185, 0.16224854, -279846.94, -29989.809, 0.0, 9.999933, 9.999608 
2.0150115e+3, 2.845042e+2, -330995.1, -351169.88, -60497.676, 0.1440103, 0.12693076, -279749.6, -127882.38, 0.0, 9.999236, 9.99896 
2.015015e+3, 2.9450244e+2, -429369.7, -381662.2, -82358.914, 0.078213215, 0.05520153, -319772.2, -265886.06, 0.0, 9.998031, 9.998659 
2.0150211e+3, 3.045014e+2, -386327.5, -237374.58, -38330.18, 0.17304257, 0.057424206, -228089.8, -228089.8, 0.0, 9.99757, 9.999537 
2.015026e+3, 3.1450117e+2, -211782.3, 37802.25, 73797.51, 0.042133987, 0.055555515, 57989.918, 57989.918, 0.0, 9.997954, 10.001237 
2.0249334e+3, 1.2451755e+2, -1536842.3, -1768092.1, -84468.63, -0.08238204, 0.2724792, -1509274.8, 210468.14, 0.29983783, 10.002504, 9.998486 
2.0249362e+3, 1.3451457e+2, -1396985.9, -1669903.9, -9070.821, -0.15413865, 0.12927452, -1396684.8, 225083.22, 0.21537028, 10.002747, 9.998311 
2.0249423e+3, 1.4451174e+2, -1288579.6, -1509943.8, 59709.0, 0.015636763, -0.009611679, -1273501.3, 250291.64, 0.12892798, 10.00232, 9.998955 
2.0249492e+3, 1.5451142e+2, -1348561.0, -1508374.9, 44775.617, 0.16872346, 0.05705989, -1336871.1, 88923.91, 0.05909158, 10.001071, 9.998879 
2.0249537e+3, 1.6451076e+2, -1313385.0, -1499719.5, -51977.598, 0.19551203, 0.13039896, -1299866.6, 27936.31, 0.018083457, 10.000858, 9.998364 
2.0249552e+3, 1.745096e+2, -1071047.4, -1346243.1, -59814.363, 0.044274114, 0.17846501, -1058608.9, 171209.63, 0.0026487417, 10.00191, 9.998238 
2.0249587e+3, 1.8450822e+2, -932233.4, -1170686.3, 33181.2, -0.014793515, 0.1956752, -927702.25, 204130.77, 0.000052423693, 10.001933, 9.998762 
2.024965e+3, 1.9450678e+2, -1017922.0, -1169683.4, 35789.94, 0.047172427, 0.17039445, -1009905.1, 23939.396, 0.0, 10.000708, 9.998687 
2.0249699e+3, 2.0450501e+2, -1006267.25, -1134548.9, -39601.375, 0.064797536, 0.13629436, -995026.94, -59166.164, 0.0, 10.000208, 9.998496 
2.024973e+3, 2.145029e+2, -858277.1, -1025043.44, -36387.117, 0.025426319, 0.07589941, -850683.56, -12801.626, 0.0, 10.000604, 9.998385 
2.0249774e+3, 2.2450122e+2, -689731.06, -802816.2, 50188.574, 0.0155904805, 0.03517472, -670669.7, 69228.21, 0.0, 10.000699, 9.999192 
2.0249835e+3, 2.3450017e+2, -634837.7, -730480.9, 50163.887, 0.03955627, 0.004088627, -613353.25, 28553.188, 0.0, 10.000426, 9.9991455 
2.024989e+3, 2.4449973e+2, -584569.8, -628273.75, 21088.422, 0.040523082, 0.037395407, -576053.56, -32142.598, 0.0, 9.999982, 9.999389 
2.0249939e+3, 2.5450018e+2, -586303.75, -587942.06, -1239.3297, 0.012937492, 0.13808492, -585637.3, -139728.25, 0.0, 9.99934, 9.999302 
2.0249997e+3, 2.645002e+2, -554723.56, -493063.16, -20356.56, 0.05996866, 0.20364504, -486948.94, -139039.23, 0.0, 9.99876, 9.999558 
2.0250061e+3, 2.7449977e+2, -538432.2, -443358.66, -36901.1, 0.19626984, 0.20136659, -430717.06, -180803.81, 0.0, 9.998236, 9.999479 
2.0250109e+3, 2.8449857e+2, -422105.38, -401941.88, -64665.316, 0.18507496, 0.16275649, -346577.13, -194651.95, 0.0, 9.998642, 9.998897 
2.0250134e+3, 2.9449686e+2, -116227.43, -229289.44, -54604.676, 0.00058096106, 0.10276125, -94161.836, -40219.12, 0.0, 10.00018, 9.998668 
2.0250191e+3, 3.0449584e+2, -74481.805, -65986.66, -4066.3323, 0.10751883, 0.0931512, -64354.016, -64354.016, 0.0, 9.999612, 9.999736 
2.0250233e+3, 3.1449565e+2, -447406.5, -88755.18, 90513.875, 0.06959004, 0.08479879, -67206.62, -67206.62, 0.0, 9.996389, 10.0011215 
2.0349367e+3, 1.2451126e+2, -1485874.6, -1624268.0, -64187.3, -0.0062057828, 0.19141078, -1460688.0, 259115.7, 0.3135409, 10.002416, 9.999755 
2.0349404e+3, 1.3450988e+2, -1321685.0, -1494401.4, 889.0269, -0.0048425184, 0.06572189, -1321680.4, 300128.13, 0.22593072, 10.002734, 9.999776 
2.0349452e+3, 1.4450787e+2, -1318852.3, -1574944.8, 19942.646, 0.06328152, -0.048232567, -1317308.6, 206516.14, 0.13594478, 10.002315, 9.998497 
2.0349486e+3, 1.5450771e+2, -1390461.9, -1594638.5, -122.949524, -0.0027364283, 0.0919075, -1390461.8, 35367.37, 0.06282382, 10.001044, 9.998298 
2.0349525e+3, 1.6450638e+2, -1326256.6, -1521423.9, -16205.741, -0.009225557, 0.13554958, -1324920.1, 2923.8677, 0.019494196, 10.000831, 9.99823 
2.034957e+3, 1.7450358e+2, -1079120.4, -1363006.4, -17221.336, 0.039195064, 0.032416806, -1078079.5, 151792.27, 0.0029308582, 10.001907, 9.998126 
2.0349616e+3, 1.8450141e+2, -936975.94, -1179746.8, -9124.317, 0.07063171, -0.022353413, -936633.5, 195259.16, 0.00006041413, 10.001929, 9.998702 
2.0349662e+3, 1.9450012e+2, -1024849.6, -1180764.0, -8034.7153, 0.08777027, -0.026550343, -1024436.6, 9466.981, 0.0, 10.000692, 9.998619 
2.0349704e+3, 2.0449895e+2, -994021.4, -1106158.8, -26673.621, 0.09398723, -0.004748313, -987999.94, -52085.2, 0.0, 10.000194, 9.998698 
2.0349742e+3, 2.1449809e+2, -843099.2, -993540.8, -17970.45, 0.086898394, 0.036135707, -840982.4, -3057.742, 0.0, 10.000603, 9.998602 
2.0349784e+3, 2.2449708e+2, -696013.8, -814731.8, 41538.063, 0.043826733, 0.055085618, -682923.5, 57010.86, 0.0, 10.000693, 9.999112 
2.034983e+3, 2.34496e+2, -643277.3, -745982.44, 42688.85, -0.041267242, 0.029988226, -627851.0, 14091.999, 0.0, 10.000417, 9.999043 
2.0349884e+3, 2.4449492e+2, -620344.0, -703390.75, -2884.828, -0.019505497, 0.029802183, -620243.9, -76289.76, 0.0, 9.999983, 9.998874 
2.0349944e+3, 2.5449404e+2, -621793.06, -663973.0, -23593.387, 0.12558374, 0.051814843, -611237.56, -165271.03, 0.0, 9.999348, 9.998776 
2.0349996e+3, 2.6449338e+2, -580328.0, -550037.7, -40733.395, 0.18434048, 0.09210285, -521725.0, -173748.73, 0.0, 9.998774, 9.999162 
2.0350039e+3, 2.744929e+2, -565655.7, -504951.9, -55323.03, 0.15171066, 0.12514566, -472201.7, -222218.5, 0.0, 9.998254, 9.999049 
2.0350087e+3, 2.8449216e+2, -398456.03, -354396.72, -12238.235, 0.10436667, 0.14463222, -351225.6, -199233.97, 0.0, 9.99865, 9.999218 
2.0350137e+3, 2.9449174e+2, -70050.945, -136796.9, 4630.6426, 0.003975376, 0.1729462, -69731.22, -15735.26, 0.0, 10.000195, 9.999296 
2.0350179e+3, 3.044917e+2, -8387.422, 66985.91, -116507.41, 0.03803299, 0.17222014, 151750.3, 151750.3, 0.0, 9.999627, 10.000645 
2.0350204e+3, 3.1449118e+2, -468278.97, -145409.31, -31829.938, 0.12060904, 0.06301743, -142301.28, -142301.28, 0.0, 9.996439, 10.000712 
2.0449388e+3, 1.2450558e+2, -1522342.1, -1638917.8, 14662.677, -0.00014873921, 0.034948807, -1520526.3, 199327.45, 0.3294151, 10.002081, 9.999785 
2.0449433e+3, 1.3450561e+2, -1367599.9, -1491136.1, 17450.066, 0.026204085, 0.022882182, -1365182.3, 256663.16, 0.23787552, 10.002217, 10.000072 
2.0449476e+3, 1.4450409e+2, -1322229.9, -1616653.4, -16824.443, 0.062294155, -0.04135429, -1321271.5, 202586.64, 0.14372098, 10.002482, 9.998127 
2.0449503e+3, 1.545031e+2, -1159589.9, -1523285.3, -32925.29, -0.032718107, 0.058292776, -1156633.3, 269239.3, 0.06692591, 10.002952, 9.9978695 
2.044954e+3, 1.6450147e+2, -1055653.3, -1368489.5, -18033.05, -0.036490712, 0.086058676, -1054617.1, 273273.47, 0.021061258, 10.002643, 9.998406 
2.0449589e+3, 1.7449903e+2, -1140008.5, -1370032.8, 1206.8589, 0.05525712, -0.0025296991, -1140002.1, 89911.4, 0.003256253, 10.001392, 9.998326 
2.0449632e+3, 1.8449698e+2, -1104800.3, -1272420.4, 7205.959, 0.104449645, -0.05050416, -1104491.0, 27441.654, 0.00007088071, 10.00083, 9.998594 
2.0449671e+3, 1.9449553e+2, -973802.2, -1168518.3, 116.47282, 0.104216956, -0.05759711, -973802.1, 60143.547, 0.0, 10.001101, 9.998504 
2.0449711e+3, 2.0449437e+2, -847908.3, -1045370.06, -4411.907, 0.09895201, -0.026240516, -847809.8, 88147.6, 0.0, 10.001241, 9.99861 
2.0449752e+3, 2.1449363e+2, -757461.3, -961789.8, -19953.809, 0.08575528, 0.038829986, -755530.94, 82435.42, 0.0, 10.001236, 9.998514 
2.0449792e+3, 2.2449265e+2, -693369.8, -824042.7, -2629.4373, 0.04820108, 0.06922058, -693316.94, 46659.414, 0.0, 10.00076, 9.999015 
2.0449834e+3, 2.3449144e+2, -752640.2, -810137.1, -6221.497, -0.017847909, 0.040692687, -751974.7, -109987.96, 0.0, 9.999715, 9.998941 
2.0449883e+3, 2.444902e+2, -697842.44, -746381.06, -6381.144, -0.007171989, 0.032872837, -697017.5, -153017.98, 0.0, 9.999478, 9.998818 
2.044994e+3, 2.544891e+2, -494565.94, -608364.5, 8238.343, 0.088940404, 0.037961043, -493972.63, -47958.754, 0.0, 10.000247, 9.998723 
2.0449986e+3, 2.6448825e+2, -364520.1, -461074.8, -4415.62, 0.12199909, 0.0710174, -364318.56, -16293.123, 0.0, 10.000323, 9.999024 
2.0450023e+3, 2.7448782e+2, -386752.72, -432931.47, -3532.293, 0.09630326, 0.1184857, -386484.1, -136450.92, 0.0, 9.999551, 9.998915 
2.045007e+3, 2.8448728e+2, -386256.5, -304745.56, 85132.4, 0.08524817, 0.14510395, -251116.0, -99076.31, 0.0, 9.998546, 9.999609 
2.0450127e+3, 2.9448703e+2, -468932.8, -275269.56, 103614.42, 0.04528152, 0.15316743, -230283.3, -176242.6, 0.0, 9.997225, 9.999775 
2.0450167e+3, 3.044876e+2, -385166.47, -104611.53, -98219.82, 0.08345218, 0.17624241, -73643.85, -73643.85, 0.0, 9.997006, 10.000722 
2.0450178e+3, 3.144873e+2, -189863.06, -197.16463, -59271.508, 0.130774, 0.093903095, 16801.9, 16801.9, 0.0, 9.998312, 10.000803 
2.05494e+3, 1.24500625e+2, -1588251.9, -1781257.6, 10044.393, -0.1017263, -0.18508628, -1587730.5, 132160.88, 0.3476065, 10.002036, 9.998561 
2.0549446e+3, 1.345017e+2, -1421828.8, -1589967.8, 22501.777, -0.077798665, -0.0054932353, -1418869.5, 203010.1, 0.2513395, 10.00218, 9.999206 
2.0549494e+3, 1.4450033e+2, -1345102.5, -1661889.5, -2325.719, -0.0025318991, 0.005473911, -1345085.5, 178808.75, 0.15236652, 10.002454, 9.997831 
2.0549543e+3, 1.5449758e+2, -1178800.5, -1563082.8, -13310.502, 0.068480685, -0.04365893, -1178340.0, 247585.77, 0.071473114, 10.002949, 9.997599 
2.054958e+3, 1.6449605e+2, -1024422.4, -1300516.1, -61092.027, 0.10249816, -0.015573125, -1011508.44, 316434.75, 0.022826005, 10.002636, 9.998882 
2.0549604e+3, 1.744959e+2, -1106546.6, -1298806.4, -43897.57, 0.08224364, 0.07664415, -1096998.0, 132945.97, 0.0036400491, 10.001382, 9.998822 
2.0549639e+3, 1.8449488e+2, -1117935.9, -1295646.8, 15455.492, 0.074614525, 0.11334381, -1116601.8, 15351.7295, 0.00008593674, 10.000812, 9.998445 
2.054968e+3, 1.9449298e+2, -988980.0, -1197198.4, 13560.191, 0.08610334, 0.079259425, -988100.6, 45870.605, 0.0, 10.001088, 9.998314 
2.0549722e+3, 2.0449117e+2, -876357.8, -1103454.3, -4159.368, 0.067732625, 0.07438773, -876281.6, 59707.81, 0.0, 10.001235, 9.998214 
2.0549756e+3, 2.1448952e+2, -787120.75, -1021999.7, -17459.48, 0.013156467, 0.08563372, -785830.0, 52177.598, 0.0, 10.001227, 9.998105 
2.0549798e+3, 2.2448789e+2, -704411.3, -844402.2, -39442.184, 0.01854755, 0.07851685, -694063.44, 45961.11, 0.0, 10.00075, 9.99888 
2.0549844e+3, 2.3448642e+2, -761805.9, -827542.8, -42869.5, 0.10090404, 0.037554935, -740654.6, -98616.055, 0.0, 9.999708, 9.998825 
2.0549886e+3, 2.4448547e+2, -670394.9, -689482.06, 18718.2, 0.0696305, 0.045996923, -658927.75, -114879.4, 0.0, 9.999477, 9.999209 
2.0549922e+3, 2.5448522e+2, -465676.66, -548137.8, 38903.8, -0.10597641, 0.0955067, -450219.78, -4167.5103, 0.0, 10.000247, 9.999137 
2.0549963e+3, 2.644848e+2, -354722.2, -443150.16, -31860.97, -0.13754582, 0.14246517, -344438.47, 3619.6729, 0.0, 10.000332, 9.999145 
2.055001e+3, 2.7448434e+2, -374993.53, -412607.16, -32145.479, 0.017681373, 0.18099482, -356557.53, -106493.02, 0.0, 9.999566, 9.999049 
2.0550062e+3, 2.844837e+2, -349689.16, -233599.73, 34282.152, 0.11615492, 0.16485734, -224231.88, -72161.11, 0.0, 9.998565, 10.00009 
2.0550108e+3, 2.944827e+2, -440222.03, -223581.56, 54297.695, 0.11433033, 0.046073906, -210734.5, -156656.53, 0.0, 9.997255, 10.000117 
2.0550154e+3, 3.0448318e+2, -445877.38, -230266.77, -64832.594, 0.24390106, 0.09560913, -212273.63, -212273.63, 0.0, 9.997006, 9.999858 
2.0550156e+3, 3.1448326e+2, -181533.16, 3692.4712, 32907.777, 0.085276216, 0.12250904, 9365.236, 9365.236, 0.0, 9.998352, 10.000819 
2.0649421e+3, 1.2449749e+2, -1572661.9, -1805792.1, -34558.715, -0.10643872, -0.15225446, -1567646.9, 152272.98, 0.36771804, 10.002423, 9.998216 
2.0649467e+3, 1.3449769e+2, -1412664.3, -1608309.0, 13938.296, -0.08016553, -0.02973451, -1411676.1, 210241.8, 0.26616043, 10.002445, 9.998912 
2.0649517e+3, 1.4449657e+2, -1387913.9, -1650432.5, 19909.143, 0.0060833925, 0.007281274, -1386412.6, 137517.38, 0.1618756, 10.001971, 9.998143 
2.0649566e+3, 1.5449391e+2, -1423313.0, -1652835.5, 52070.855, 0.10410398, -0.06719349, -1412052.4, 13906.407, 0.07651462, 10.000986, 9.99793 
2.0649602e+3, 1.6449225e+2, -1291597.6, -1476940.8, 4820.753, 0.14335173, -0.04967359, -1291472.3, 36504.965, 0.024829434, 10.000954, 9.998477 
2.0649624e+3, 1.7449185e+2, -1036872.0, -1313397.3, -50056.055, 0.100348614, 0.059226554, -1028089.9, 201893.13, 0.0041003036, 10.002075, 9.998385 
2.0649654e+3, 1.8449076e+2, -869272.06, -1175317.9, -19534.264, 0.07168086, 0.112460494, -868030.3, 263963.6, 0.000108260756, 10.002518, 9.998448 
2.0649695e+3, 1.94489e+2, -835594.5, -1120694.8, -8184.657, 0.06329756, 0.09028252, -835359.75, 198649.8, 0.0, 10.002127, 9.998341 
2.0649734e+3, 2.0448701e+2, -832673.9, -1092383.4, -14600.064, 0.04615639, 0.07214825, -831855.7, 104173.16, 0.0, 10.001577, 9.998127 
2.0649768e+3, 2.1448487e+2, -848266.4, -1060979.8, -9285.592, 0.017016316, 0.042385634, -847861.8, -9810.123, 0.0, 10.00085, 9.998019 
2.0649804e+3, 2.2448319e+2, -747503.25, -879662.25, -18925.576, 0.030032901, 0.04139633, -744846.44, -4776.94, 0.0, 10.000515, 9.998754 
2.0649844e+3, 2.3448221e+2, -631089.94, -778929.56, -25751.047, 0.09692955, 0.06332715, -626733.0, 15346.951, 0.0, 10.000668, 9.998697 
2.064988e+3, 2.4448133e+2, -564227.7, -635809.6, 32737.488, 0.05165948, 0.08321113, -551513.6, -7424.456, 0.0, 10.000199, 9.99923 
2.0649914e+3, 2.5448063e+2, -648927.7, -633707.9, 21651.799, -0.13522841, 0.08400707, -618367.6, -172271.39, 0.0, 9.998979, 9.999161 
2.0649953e+3, 2.644801e+2, -617513.1, -538603.25, -58480.965, -0.15837763, 0.10826717, -507512.34, -159410.61, 0.0, 9.998397, 9.999421 
2.0650002e+3, 2.7448e+2, -492318.03, -436500.03, -46898.016, 0.021421153, 0.151582, -409834.9, -159730.92, 0.0, 9.998622, 9.999341 
2.0650044e+3, 2.8447944e+2, -348574.3, -211713.25, -6803.645, 0.112375475, 0.121355526, -211375.86, -59267.043, 0.0, 9.998483, 10.000278 
2.065008e+3, 2.9447836e+2, -343281.03, -165080.63, -15603.139, 0.0831065, -0.021666626, -163724.73, -109607.95, 0.0, 9.997878, 10.000216 
2.0650132e+3, 3.0447948e+2, -333654.97, -204362.75, -49612.957, 0.28974578, 0.10095752, -187519.2, -187519.2, 0.0, 9.997905, 9.999599 
2.0650147e+3, 3.1447786e+2, -191601.22, -46241.5, 69069.86, 0.13675717, -0.01982063, -18656.672, -18656.672, 0.0, 9.998479, 10.000414 
2.0749453e+3, 1.24496296e+2, -1561138.5, -1741024.5, -42721.26, -0.054622516, 0.15154251, -1551508.1, 168429.58, 0.38886976, 10.002364, 9.998713 
2.0749499e+3, 1.3449365e+2, -1406347.3, -1581877.6, 15641.498, -0.0019858428, -0.040748008, -1404964.4, 216995.7, 0.28190908, 10.0024185, 9.99918 
2.0749544e+3, 1.4449286e+2, -1338220.0, -1521300.4, -12912.607, 0.068564825, -0.02817184, -1337313.8, 186651.38, 0.17213808, 10.001962, 9.999041 
2.0749573e+3, 1.5449202e+2, -1364545.8, -1518230.0, 16201.158, 0.061767522, -0.013696226, -1362856.4, 63115.668, 0.08207624, 10.000969, 9.998863 
2.0749605e+3, 1.6449001e+2, -1383371.9, -1665480.6, 43693.297, 0.07279346, -0.016602164, -1376759.6, -48766.18, 0.027111659, 10.000935, 9.997194 
2.0749646e+3, 1.7448676e+2, -1134492.1, -1516977.5, -5078.0903, 0.099442676, -0.056256033, -1134424.6, 95606.516, 0.0046569863, 10.002073, 9.996991 
2.074968e+3, 1.8448447e+2, -858155.4, -1152305.5, -31185.541, 0.08534553, -0.057511598, -854885.44, 277169.8, 0.00014131474, 10.002516, 9.998608 
2.0749712e+3, 1.9448347e+2, -819926.9, -1086714.4, -20405.352, 0.025993014, -0.026364783, -818375.2, 215686.45, 0.0000000002137382, 10.002118, 9.998578 
2.0749746e+3, 2.0448186e+2, -819836.06, -1063070.1, -40900.887, 0.022674294, -0.03158293, -813142.56, 122933.67, 0.0, 10.001565, 9.998334 
2.0749782e+3, 2.1447958e+2, -837126.25, -1034066.8, -33988.734, 0.08818603, -0.092171855, -831425.4, 6674.1484, 0.0, 10.000833, 9.998213 
2.0749815e+3, 2.2447845e+2, -757436.75, -897989.06, -14496.087, 0.07333585, -0.043558214, -755957.25, -15844.967, 0.0, 10.0005045, 9.9986315 
2.0749837e+3, 2.3447876e+2, -643148.4, -801379.56, -16644.783, -0.04084345, 0.11959437, -641416.4, 695.1553, 0.0, 10.000657, 9.9985485 
2.074987e+3, 2.444777e+2, -589494.9, -688563.3, -11324.366, -0.075213686, 0.14826043, -588216.9, -44094.184, 0.0, 10.000199, 9.998868 
2.0749918e+3, 2.5447518e+2, -674193.6, -687828.3, -23538.004, -0.010138165, 0.005229476, -656505.6, -210359.0, 0.0, 9.998985, 9.998785 
2.0749961e+3, 2.644741e+2, -586328.9, -477993.25, -53998.3, 0.051330715, -0.029645469, -455675.97, -107518.73, 0.0, 9.998412, 9.99983 
2.0749998e+3, 2.7447462e+2, -458285.56, -370670.56, -37027.508, 0.10065218, 0.031088935, -357118.38, -106965.484, 0.0, 9.99864, 9.999784 
2.0750025e+3, 2.844743e+2, -356386.8, -231046.05, -31494.684, 0.061118778, 0.00922079, -223577.34, -71421.484, 0.0, 9.998496, 10.000138 
2.0750044e+3, 2.9447377e+2, -353705.94, -191875.16, -40334.066, -0.07336771, -0.062591076, -182379.61, -128219.36, 0.0, 9.997898, 10.000022 
2.0750105e+3, 3.044765e+2, -304826.2, -148341.72, -27751.28, 0.22685327, 0.21474789, -143566.0, -143566.0, 0.0, 9.997922, 9.999976 
2.075014e+3, 3.1447378e+2, -238218.13, -147635.5, -7085.609, 0.21084228, -0.056866404, -147084.61, -147084.61, 0.0, 9.998502, 9.999705 
2.0849472e+3, 1.2449269e+2, -1520653.1, -1682904.1, -7641.7466, -0.09655458, 0.13786079, -1520294.1, 199677.02, 0.40993002, 10.002718, 9.999082 
2.0849529e+3, 1.3448961e+2, -1401957.8, -1587607.3, 29012.027, 0.036374174, -0.08748337, -1397529.6, 224467.8, 0.29801235, 10.002564, 9.999064 
2.0849575e+3, 1.4448892e+2, -1255212.1, -1494650.3, -41845.7, 0.1353297, -0.051454186, -1248109.5, 275892.78, 0.18298064, 10.00276, 9.998877 
2.0849593e+3, 1.5448834e+2, -1052925.3, -1376496.1, -95490.805, 0.04186498, 0.007471314, -1026846.3, 399162.22, 0.088167645, 10.003402, 9.998693 
2.0849621e+3, 1.6448651e+2, -1039441.7, -1452017.8, -53265.934, 0.028856168, 0.010132112, -1032675.7, 295352.7, 0.029713616, 10.003169, 9.997583 
2.0849666e+3, 1.7448327e+2, -1132230.3, -1469017.6, 30111.992, 0.103716776, -0.06590846, -1129559.1, 100504.04, 0.005333032, 10.001885, 9.997412 
2.0849702e+3, 1.8448094e+2, -1033303.1, -1247765.9, 71435.45, 0.10747767, -0.08915809, -1011687.4, 120399.234, 0.00018960002, 10.001359, 9.998511 
2.0849732e+3, 1.944798e+2, -879145.4, -1127464.6, 51464.79, 0.026977656, -0.062247064, -868901.75, 165193.48, 0.000000020895914, 10.001768, 9.998466 
2.0849763e+3, 2.0447816e+2, -790553.5, -1054896.6, -11430.152, 0.01977716, -0.061039474, -790060.2, 146050.17, 0.0, 10.001796, 9.998278 
2.0849796e+3, 2.1447603e+2, -763717.6, -1004623.1, -26723.854, 0.101414755, -0.10268627, -760788.75, 77343.516, 0.0, 10.001365, 9.9981575 
2.0849822e+3, 2.244747e+2, -696270.6, -891256.06, 2152.6746, 0.07440307, -0.059874564, -696246.9, 43899.71, 0.0, 10.001025, 9.9984255 
2.0849839e+3, 2.3447442e+2, -637172.4, -822749.0, -9146.635, -0.08516057, 0.06667384, -636722.6, 5428.383, 0.0, 10.000803, 9.99833 
2.084987e+3, 2.4447316e+2, -599010.94, -677849.5, -29829.994, -0.09994509, 0.07800636, -588996.4, -44832.723, 0.0, 10.000067, 9.999006 
2.0849915e+3, 2.5447085e+2, -700027.6, -681800.25, -5986.455, 0.06666483, -0.058364097, -680009.94, -233825.47, 0.0, 9.998727, 9.998952 
2.084995e+3, 2.644699e+2, -647933.25, -517750.03, 21936.377, 0.14410177, -0.08511628, -514153.06, -165959.42, 0.0, 9.998035, 9.999736 
2.084998e+3, 2.744704e+2, -538337.8, -422419.03, -3683.8242, 0.103797846, -0.013808366, -422302.06, -172112.11, 0.0, 9.99815, 9.999663 
2.0850004e+3, 2.8447e+2, -431491.56, -302245.44, -44849.418, 0.027314885, -0.023938952, -288207.13, -136011.97, 0.0, 9.998129, 9.999828 
2.0850022e+3, 2.9446936e+2, -377138.34, -240138.14, -68901.8, -0.077367894, -0.07386186, -211480.02, -157277.25, 0.0, 9.997892, 9.999697 
2.085008e+3, 3.044721e+2, -319866.8, -136059.28, -39732.203, 0.20103031, 0.21202797, -127838.375, -127838.375, 0.0, 9.997727, 10.000159 
2.0850122e+3, 3.144706e+2, -293909.75, -75045.21, -74243.555, 0.23284991, 0.040388614, -52237.066, -52237.066, 0.0, 9.997688, 10.000598 
2.0949484e+3, 1.24486834e+2, -1524328.3, -1670213.3, -10525.759, -0.27189934, -0.17195396, -1523572.8, 196445.4, 0.42994058, 10.002656, 9.999284 
2.0949553e+3, 1.3448548e+2, -1436130.3, -1653564.6, 25519.684, 0.017670477, -0.17284176, -1433175.3, 188855.4, 0.31401625, 10.002531, 9.998536 
2.0949607e+3, 1.4448468e+2, -1330917.1, -1671354.8, -25598.707, 0.19080931, -0.06022769, -1329003.0, 195039.05, 0.19429262, 10.002745, 9.99763 
2.0949624e+3, 1.544828e+2, -1135630.3, -1557645.3, -73376.35, 0.031366568, -0.006427126, -1123236.3, 302832.8, 0.094824284, 10.003408, 9.997421 
2.0949651e+3, 1.644816e+2, -900352.3, -1157977.4, -96638.49, -0.002979276, 0.029612128, -868131.7, 459951.28, 0.032688897, 10.003169, 9.999641 
2.0949686e+3, 1.744814e+2, -977614.4, -1145122.4, -16799.984, 0.10333238, 0.03203525, -975946.06, 254133.33, 0.0061590113, 10.001878, 9.999643 
2.094972e+3, 1.8448019e+2, -1060374.6, -1301196.8, 84379.86, 0.12814404, 0.02195376, -1033752.44, 98335.71, 0.00026052183, 10.001346, 9.998152 
2.0949754e+3, 1.944779e+2, -916196.44, -1202298.9, 69846.125, 0.056507472, -0.015725192, -900055.56, 134055.39, 0.00000016154512, 10.001757, 9.997958 
2.0949782e+3, 2.0447583e+2, -813384.7, -1099930.3, -26295.51, 0.027058048, -0.016237922, -810991.6, 125140.52, 0.0, 10.001784, 9.997973 
2.0949805e+3, 2.1447411e+2, -785833.94, -1048693.0, -39513.85, 0.047937952, 0.012986212, -780022.56, 58128.082, 0.0, 10.001354, 9.997861 
2.0949827e+3, 2.2447188e+2, -720080.1, -938042.2, -5706.8086, 0.025865884, -0.005521525, -719930.8, 20242.28, 0.0, 10.001014, 9.99811 
2.0949851e+3, 2.3446912e+2, -661537.2, -871345.25, -14591.553, -0.046073418, -0.09524246, -660527.25, -18327.84, 0.0, 10.000794, 9.998002 
2.0949878e+3, 2.4446753e+2, -553316.25, -583669.6, -79392.6, -0.03256208, -0.12827492, -487662.78, 56550.563, 0.0, 10.000071, 9.99965 
2.0949902e+3, 2.5446752e+2, -650016.7, -579136.44, -55310.188, 0.08331172, -0.10667443, -548886.25, -102675.234, 0.0, 9.998733, 9.999653 
2.0949928e+3, 2.644674e+2, -689661.94, -607367.75, 21666.37, 0.10570352, -0.0566987, -602012.0, -253799.92, 0.0, 9.998048, 9.999115 
2.0949954e+3, 2.7446717e+2, -584209.8, -522804.22, 1833.7189, 0.01770946, 0.012072833, -522749.5, -272532.47, 0.0, 9.998172, 9.998963 
2.0949984e+3, 2.8446645e+2, -462920.38, -372065.72, -56026.504, 0.0046194964, 0.028035253, -345363.94, -193136.39, 0.0, 9.998149, 9.999339 
2.0950015e+3, 2.944652e+2, -407350.53, -304834.28, -78372.086, 0.06977086, -0.033842225, -262446.38, -208202.9, 0.0, 9.9979, 9.9992485 
2.0950058e+3, 3.044657e+2, -317638.13, -135443.05, -43472.26, 0.1901473, 0.053672377, -125601.99, -125601.99, 0.0, 9.997745, 10.000156 
2.09501e+3, 3.1446582e+2, -94161.5, 325293.25, -59400.6, 0.21861118, 0.036030117, 333542.94, 333542.94, 0.0, 9.997752, 10.003317 
2.1049504e+3, 1.2448204e+2, -1575248.6, -1663371.6, -69513.93, -0.29489824, -0.24838787, -1537008.3, 183054.73, 0.44859928, 10.00188, 9.999752 
2.1049577e+3, 1.344818e+2, -1547975.0, -1705840.1, -14010.721, 0.08652681, -0.16576682, -1546741.3, 75324.7, 0.3298663, 10.001327, 9.998749 
2.1049637e+3, 1.444811e+2, -1509589.4, -1736105.3, 31552.736, 0.28856617, -0.07063132, -1505276.3, 18799.95, 0.20615475, 10.001057, 9.997997 
2.1049652e+3, 1.5447919e+2, -1434801.9, -1673590.6, 99349.88, 0.081122585, -0.056276605, -1398872.6, 27229.283, 0.10215144, 10.000984, 9.997791 
2.1049675e+3, 1.6447806e+2, -1142393.5, -1274441.0, 57522.98, 0.009752733, -0.03194446, -1120850.0, 207264.25, 0.036114734, 10.001454, 9.999643 
2.1049705e+3, 1.7447807e+2, -867102.75, -1092103.5, -29298.068, 0.085686, -0.0055438755, -863350.3, 366758.13, 0.007176738, 10.002647, 9.999639 
2.1049736e+3, 1.8447702e+2, -831027.25, -1193506.1, -7813.107, 0.10607563, 0.00007373297, -830858.94, 301257.34, 0.0003661867, 10.002937, 9.998122 
2.1049774e+3, 1.9447476e+2, -861709.9, -1180930.3, 9721.497, 0.061688796, -0.030962203, -861414.06, 172725.78, 0.00000091193453, 10.002153, 9.997914 
2.10498e+3, 2.0447266e+2, -857388.56, -1152780.8, -69377.66, 0.03725448, -0.018749768, -841905.6, 94256.58, 0.0, 10.001617, 9.997692 
2.1049817e+3, 2.1447083e+2, -801336.1, -1088463.4, -87674.945, 0.037342433, 0.029009972, -776681.44, 61500.86, 0.0, 10.0013895, 9.997569 
2.1049836e+3, 2.244684e+2, -716476.3, -921237.7, -39537.477, 0.029791329, -0.0008341859, -709107.2, 31099.041, 0.0, 10.000973, 9.998245 
2.1049863e+3, 2.344653e+2, -720726.56, -880842.9, -13213.417, 0.017390026, -0.13978188, -719643.44, -77409.51, 0.0, 10.000308, 9.99817 
2.1049882e+3, 2.4446367e+2, -607189.44, -651928.9, -101331.836, 0.023010986, -0.16873033, -525787.56, 18460.678, 0.0, 9.999885, 9.99927 
2.1049893e+3, 2.544639e+2, -529313.56, -568126.5, -164998.13, 0.04839227, -0.08017368, -382584.56, 63660.848, 0.0, 9.999765, 9.999231 
2.104991e+3, 2.6446354e+2, -488162.44, -503392.5, -89263.49, 0.054845016, -0.03432489, -406189.75, -57940.973, 0.0, 9.999401, 9.999179 
2.1049942e+3, 2.744626e+2, -490523.63, -467027.53, -50170.426, 0.042036533, -0.04547656, -427248.03, -176989.9, 0.0, 9.998767, 9.999062 
2.104997e+3, 2.8446195e+2, -441528.03, -352855.8, -55731.35, 0.053844403, -0.031654667, -325976.22, -173709.69, 0.0, 9.998258, 9.999419 
2.1049997e+3, 2.944614e+2, -409116.97, -299069.88, -41099.74, 0.09112905, -0.032080308, -285414.6, -231138.67, 0.0, 9.997862, 9.999307 
2.105003e+3, 3.0446e+2, -375234.22, -174146.84, 14652.6875, 0.16070767, -0.13228084, -173084.75, -173084.75, 0.0, 9.997399, 10.000053 
2.105007e+3, 3.144614e+2, -202641.4, 288567.38, 8051.7993, 0.20483479, -0.009746445, 288699.3, 288699.3, 0.0, 9.996948, 10.003449 
2.1149534e+3, 1.2447828e+2, -1556896.5, -1611959.8, -88600.31, -0.20547551, -0.099744916, -1491648.8, 228457.56, 0.46656314, 10.001832, 10.000463 
2.1149607e+3, 1.3447854e+2, -1507895.6, -1586663.6, -21831.486, 0.22209522, -0.06350915, -1502249.5, 119853.65, 0.34608045, 10.001303, 9.999703 
2.114966e+3, 1.4447819e+2, -1405396.5, -1471163.1, 22475.48, 0.4122997, -0.076673746, -1398449.5, 125655.12, 0.21890919, 10.001033, 9.99993 
2.1149671e+3, 1.5447748e+2, -1309577.9, -1390940.9, 88966.74, 0.17973982, -0.1397716, -1252432.6, 173674.52, 0.110347085, 10.00097, 9.99978 
2.1149692e+3, 1.6447584e+2, -1285291.3, -1575546.3, 101801.93, 0.05342278, -0.17249961, -1253146.0, 74976.47, 0.040102176, 10.001443, 9.997571 
2.1149726e+3, 1.7447326e+2, -1025818.7, -1422130.1, 17569.89, 0.03904728, -0.18050814, -1025041.3, 205109.88, 0.008443992, 10.002645, 9.997369 
2.114976e+3, 1.8447132e+2, -810318.6, -1150521.4, -33889.363, 0.030710611, -0.15849495, -806975.56, 325196.66, 0.00052604213, 10.002935, 9.99842 
2.1149792e+3, 1.9447026e+2, -831488.94, -1118284.1, -17168.324, 0.03323778, -0.110897034, -830464.9, 203718.25, 0.0000034897541, 10.0021515, 9.998346 
2.1149817e+3, 2.0446855e+2, -878401.9, -1194377.6, -78174.74, 0.042339683, -0.0699535, -860118.75, 76082.664, 0.0, 10.001608, 9.997412 
2.1149832e+3, 2.1446608e+2, -826532.0, -1137962.0, -93146.44, 0.057951216, -0.053937335, -800798.9, 37429.473, 0.0, 10.001376, 9.997237 
2.1149851e+3, 2.2446413e+2, -675865.9, -834126.8, -63730.418, 0.07564743, -0.04681225, -653393.25, 86854.13, 0.0, 10.00096, 9.99885 
2.1149875e+3, 2.3446289e+2, -674136.9, -783612.44, -36143.656, 0.094488025, -0.06490714, -663280.56, -21024.885, 0.0, 10.000305, 9.998838 
2.1149886e+3, 2.4446149e+2, -705392.94, -857340.3, -107817.41, 0.05683219, -0.040548597, -649470.5, -105201.18, 0.0, 9.99989, 9.997858 
2.114988e+3, 2.5445992e+2, -636903.7, -794584.06, -168539.56, -0.04625484, 0.0204144, -529675.75, -83386.66, 0.0, 9.999778, 9.997671 
2.1149898e+3, 2.6445824e+2, -434007.66, -394630.63, -114481.58, -0.016225228, -0.014601424, -298156.88, 50147.81, 0.0, 9.999418, 9.999917 
2.1149941e+3, 2.744567e+2, -425555.16, -334802.97, -73482.86, 0.16388325, -0.177965, -293815.2, -43501.656, 0.0, 9.998778, 9.999964 
2.1149963e+3, 2.844564e+2, -393655.9, -258238.78, -72366.44, 0.16134281, -0.20534079, -226844.61, -74531.14, 0.0, 9.998276, 10.000061 
2.1149963e+3, 2.9445758e+2, -365600.3, -218457.66, -54465.12, -0.02460912, -0.094184734, -200491.08, -146187.5, 0.0, 9.997901, 9.999843 
2.115e+3, 3.0445522e+2, -392587.28, -212898.69, -10213.928, 0.10615397, -0.30280784, -212319.97, -212319.97, 0.0, 9.997415, 9.999779 
2.1150044e+3, 3.144585e+2, -387120.5, -104711.625, 49157.22, 0.22920005, 0.03923754, -96399.76, -96399.76, 0.0, 9.996982, 10.000736 
2.1249565e+3, 1.2447672e+2, -1655270.0, -1710647.3, 62347.73, -0.008069342, -0.04747079, -1614739.1, 105383.65, 0.48543414, 10.001004, 9.999744 
2.124963e+3, 1.3447638e+2, -1409725.0, -1558587.1, 77671.33, 0.25283635, -0.04322699, -1376579.0, 245547.22, 0.36374193, 10.002524, 9.999433 
2.1249673e+3, 1.4447565e+2, -1131794.8, -1327238.5, 48859.96, 0.32374027, -0.0836362, -1120260.6, 403869.56, 0.23315254, 10.003436, 10.000066 
2.1249692e+3, 1.5447506e+2, -943900.8, -1192439.0, -7778.0713, 0.15075366, -0.15362915, -943657.6, 482470.72, 0.119702585, 10.003729, 9.999985 
2.1249717e+3, 1.6447324e+2, -1007777.44, -1448053.8, 1533.3778, 0.045575097, -0.21301357, -1007772.06, 320371.84, 0.044803485, 10.003491, 9.997455 
2.124975e+3, 1.7447002e+2, -1018500.75, -1436444.9, 74362.68, -0.0013106437, -0.2674557, -1005664.0, 224515.27, 0.01004214, 10.002776, 9.997208 
2.1249783e+3, 1.8446806e+2, -902515.3, -1222906.0, 67468.805, -0.014998466, -0.22664699, -888887.2, 243314.63, 0.0007722133, 10.002424, 9.998168 
2.1249814e+3, 1.9446771e+2, -796016.44, -1130841.9, 26808.748, 0.015031287, -0.08191293, -793883.5, 240324.7, 0.000010944595, 10.002526, 9.998078 
2.1249837e+3, 2.0446585e+2, -748465.25, -1142930.9, -46967.273, 0.047174636, -0.03652654, -742950.2, 193278.06, 0.0, 10.00255, 9.997311 
2.1249853e+3, 2.1446224e+2, -675108.9, -1076051.0, -46250.516, 0.07903889, -0.12649374, -669842.9, 168421.55, 0.0, 10.002466, 9.997137 
2.1249868e+3, 2.2446008e+2, -557364.06, -804927.8, -61188.15, 0.102660105, -0.12045256, -543066.44, 197218.72, 0.0, 10.0019, 9.998595 
2.1249883e+3, 2.3445985e+2, -630597.5, -792660.56, -108802.945, 0.113278545, -0.012705011, -575967.0, 66319.234, 0.0, 10.000738, 9.998566 
2.1249887e+3, 2.444584e+2, -671683.7, -854818.06, -135543.75, 0.08115987, 0.028875662, -599676.25, -55375.61, 0.0, 10.000182, 9.997734 
2.1249886e+3, 2.544556e+2, -559415.4, -769691.6, -89195.96, 0.0061400416, -0.023040274, -526676.94, -80346.41, 0.0, 10.000366, 9.997557 
2.1249898e+3, 2.6445353e+2, -407009.72, -373871.53, -47545.793, 0.041079637, -0.0968284, -340090.5, 8258.386, 0.0, 9.99957, 9.999986 
2.1249925e+3, 2.744524e+2, -608356.0, -411834.63, -73020.95, 0.18779638, -0.22321403, -387673.0, -137320.38, 0.0, 9.997479, 10.000058 
2.124994e+3, 2.8445232e+2, -628115.56, -345474.72, -60934.305, 0.16157795, -0.24533615, -332897.63, -180547.77, 0.0, 9.996561, 10.000284 
2.1249941e+3, 2.9445386e+2, -444870.5, -233793.08, -68398.414, -0.010399395, -0.12395903, -213567.08, -159231.08, 0.0, 9.997263, 10.000042 
2.1249978e+3, 3.0445242e+2, -354863.9, -240707.67, -59156.72, 0.1356203, -0.2307312, -215582.2, -215582.2, 0.0, 9.997866, 9.999373 
2.1250014e+3, 3.14455e+2, -395021.56, -187338.8, -26295.273, 0.2192507, 0.08650766, -184061.22, -184061.22, 0.0, 9.997262, 10.000033 
2.1349643e+3, 1.3447532e+2, -1494317.1, -1760321.9, 136467.7, 0.15725678, -0.098889515, -1436759.6, 185375.1, 0.3841158, 10.002514, 9.997923 
2.1349676e+3, 1.4447346e+2, -1229888.5, -1517281.0, 58118.652, 0.0009400203, -0.09043678, -1218580.3, 305573.13, 0.24951424, 10.003427, 9.998383 
2.1349712e+3, 1.5447187e+2, -1048385.75, -1398693.1, 2055.9216, -0.01985211, -0.09852208, -1048373.6, 377792.5, 0.13052781, 10.003722, 9.998383 
2.1349746e+3, 1.6447015e+2, -887965.2, -1190030.5, -24139.357, -0.026665097, -0.15165228, -886048.25, 442131.3, 0.05040442, 10.003491, 9.999277 
2.1349773e+3, 1.7446831e+2, -883286.4, -1152292.6, 49323.37, -0.04549932, -0.26508313, -874527.9, 355665.34, 0.012084308, 10.002774, 9.999165 
2.1349804e+3, 1.8446721e+2, -963175.2, -1347444.1, 70309.76, -0.041635823, -0.20227046, -950714.7, 181490.8, 0.001155736, 10.002416, 9.997318 
2.1349837e+3, 1.9446702e+2, -867083.7, -1276903.8, 33124.8, -0.0031314085, 0.057523362, -864423.56, 169792.42, 0.000030850606, 10.002518, 9.99708 
2.1349864e+3, 2.0446448e+2, -744096.06, -1131275.6, -49373.742, 0.04257064, 0.08293735, -737899.06, 198344.64, 0.0, 10.002538, 9.997396 
2.134988e+3, 2.1445915e+2, -665097.0, -1054588.3, -46281.746, 0.09347951, -0.19061826, -659673.0, 178618.55, 0.0, 10.002462, 9.997286 
2.1349888e+3, 2.2445616e+2, -637862.75, -970900.9, -102030.44, 0.10429363, -0.2246696, -609090.2, 131230.58, 0.0, 10.001893, 9.997459 
2.1349885e+3, 2.3445603e+2, -717073.8, -971378.94, -150268.69, 0.064608224, 0.016144414, -647380.1, -5053.2153, 0.0, 10.000732, 9.997342 
2.134989e+3, 2.4445431e+2, -590413.8, -686029.25, -132242.81, 0.086953886, 0.039605383, -497602.4, 46741.02, 0.0, 10.000182, 9.998894 
2.134991e+3, 2.5445083e+2, -464682.4, -576939.6, -80568.04, 0.19565374, -0.20924947, -422619.22, 23751.64, 0.0, 10.000381, 9.998874 
2.1349911e+3, 2.6444918e+2, -446777.47, -457635.3, -123268.164, 0.2164535, -0.2834869, -328818.75, 19563.9, 0.0, 9.999577, 9.999406 
2.1349892e+3, 2.744496e+2, -655908.75, -515585.7, -153553.75, 0.1035978, -0.18722403, -416923.66, -166546.36, 0.0, 9.9975, 9.999336 
2.1349892e+3, 2.844496e+2, -640991.7, -376268.63, -45453.453, 0.04504063, -0.15064456, -368681.63, -216304.53, 0.0, 9.996581, 10.000062 
2.1349926e+3, 2.9445013e+2, -452729.5, -252632.7, -35243.355, 0.1248548, -0.10999895, -246606.7, -192232.94, 0.0, 9.997273, 9.9999075 
2.1349968e+3, 3.0445123e+2, -380571.88, -295196.47, -59924.973, 0.24002671, 0.061043467, -264309.44, -264309.44, 0.0, 9.997871, 9.998997 
2.1349967e+3, 3.1444794e+2, -297399.03, 13788.436, -120408.91, 0.020286493, -0.16786425, 54937.465, 54937.465, 0.0, 9.99728, 10.0014 
2.144968e+3, 1.3447468e+2, -1266097.8, -1601845.3, 67942.62, 0.13555154, -0.026287135, -1252869.9, 369274.28, 0.40759718, 10.005194, 9.997689 
2.1449697e+3, 1.4447178e+2, -1235097.3, -1579321.5, 74140.57, -0.1505173, -0.081158094, -1219807.8, 304363.88, 0.26811314, 10.003727, 9.997817 
2.1449742e+3, 1.544695e+2, -1107104.9, -1490767.1, 95616.72, -0.086354636, -0.10376586, -1084595.8, 341596.03, 0.1429634, 10.003571, 9.997819 
2.144978e+3, 1.6446786e+2, -889639.75, -1182014.9, 36819.57, -0.032617915, -0.12336031, -885074.25, 443130.88, 0.057087164, 10.003468, 9.999352 
2.1449807e+3, 1.74467e+2, -809020.6, -1105870.3, -30729.71, -0.020772263, -0.14710432, -805872.94, 424336.94, 0.014719365, 10.003257, 9.999256 
2.1449834e+3, 1.8446594e+2, -897857.25, -1327224.6, -46767.453, -0.0012640776, -0.07928628, -892822.3, 239399.55, 0.0017550356, 10.002918, 9.997213 
2.1449865e+3, 1.9446467e+2, -885087.2, -1299602.9, -19428.182, 0.0330258, 0.08483083, -884178.56, 150063.81, 0.00008036648, 10.002456, 9.996954 
2.1449888e+3, 2.0446184e+2, -823258.94, -1122918.8, -63657.47, 0.07820384, 0.068210825, -810296.7, 125974.74, 0.000000018813253, 10.001797, 9.997809 
2.14499e+3, 2.1445718e+2, -858585.44, -1100047.1, -43585.484, 0.13126336, -0.1815017, -850958.9, -12648.824, 0.0, 10.000927, 9.997713 
2.1449904e+3, 2.2445418e+2, -794500.44, -1086817.4, -40876.934, 0.1268644, -0.22314966, -788891.94, -48553.44, 0.0, 10.000989, 9.997101 
2.1449898e+3, 2.344532e+2, -534263.5, -928323.0, -28746.008, 0.05209159, -0.02709651, -532177.6, 110176.67, 0.0, 10.002182, 9.996941 
2.14499e+3, 2.4445117e+2, -339963.13, -573338.2, -51559.945, 0.08589455, -0.01060172, -329079.47, 215294.58, 0.0, 10.001936, 9.998822 
2.1449918e+3, 2.54448e+2, -541346.7, -618344.3, -105949.95, 0.2569846, -0.22173648, -467117.72, -20720.674, 0.0, 9.999875, 9.998833 
2.144991e+3, 2.644464e+2, -549376.1, -577288.9, -188153.42, 0.26708493, -0.25952065, -374662.2, -26253.416, 0.0, 9.999171, 9.998781 
2.1449876e+3, 2.744466e+2, -319469.0, -427648.63, -216680.42, 0.06853084, -0.12120508, -150229.2, 100178.95, 0.0, 10.000129, 9.998675 
2.1449868e+3, 2.8444603e+2, -245867.05, -214983.94, -121317.22, 0.0059523117, -0.094296135, -108129.5, 44285.016, 0.0, 9.999415, 9.999806 
2.14499e+3, 2.944454e+2, -558084.25, -320610.84, -111734.7, 0.14556254, -0.147262, -276304.47, -221882.89, 0.0, 9.996623, 9.999754 
2.1449931e+3, 3.0444694e+2, -713810.1, -362497.56, -55066.145, 0.2311542, 0.030268025, -354068.5, -354068.5, 0.0, 9.995175, 9.999836 
2.144993e+3, 3.1444323e+2, -499299.8, 46280.824, -44484.938, 0.010950647, -0.32495156, 49884.188, 49884.188, 0.0, 9.995355, 10.002542 
2.1549736e+3, 1.3447446e+2, -1247199.9, -1523252.6, 35877.313, 0.17108406, 0.17484006, -1242613.3, 379541.25, 0.43279457, 10.005121, 9.998688 
2.1549734e+3, 1.4447066e+2, -1215902.5, -1505690.5, 48873.516, -0.15188955, -0.049609784, -1207881.9, 316302.7, 0.2882313, 10.003728, 9.9983425 
2.154978e+3, 1.5446791e+2, -1084718.8, -1425181.9, 91694.414, -0.059653096, -0.1666947, -1061594.1, 364611.28, 0.15688388, 10.00357, 9.998278 
2.154982e+3, 1.6446626e+2, -1007721.3, -1423307.1, 31002.05, 0.017925004, -0.12741295, -1005421.4, 322799.78, 0.06501246, 10.003449, 9.997645 
2.1549849e+3, 1.74466e+2, -936310.5, -1367348.8, -36620.117, 0.06322147, 0.08631332, -933221.5, 297008.5, 0.018139776, 10.003244, 9.997455 
2.1549873e+3, 1.8446417e+2, -856733.94, -1238352.9, -63249.484, 0.09570514, 0.1437251, -846524.1, 285727.78, 0.0026903055, 10.002905, 9.997831 
2.1549897e+3, 1.9446056e+2, -832077.75, -1188746.1, -33858.35, 0.1170429, -0.0029360743, -828892.06, 205396.47, 0.00019736934, 10.002451, 9.997718 
2.1549912e+3, 2.0445782e+2, -774241.7, -1020381.75, -95140.7, 0.1461799, -0.08369742, -741754.7, 194557.9, 0.0000007869328, 10.001791, 9.998517 
2.1549915e+3, 2.1445622e+2, -810304.3, -998703.94, -73255.08, 0.18249315, -0.09857772, -785173.0, 53147.742, 0.0, 10.000919, 9.998414 
2.1549916e+3, 2.2445405e+2, -767374.5, -1027885.9, 1262.4993, 0.1592271, -0.11361427, -767368.4, -27029.164, 0.0, 10.000978, 9.99751 
2.1549922e+3, 2.344512e+2, -505382.84, -869700.8, 18729.564, 0.06539237, -0.14328177, -504422.5, 137947.06, 0.0, 10.002187, 9.997341 
2.1549919e+3, 2.444488e+2, -431066.8, -762238.5, -123826.766, 0.06733512, -0.12485781, -389887.72, 154506.23, 0.0, 10.001937, 9.997524 
2.1549907e+3, 2.5444695e+2, -637723.5, -821465.25, -183417.3, 0.18071377, -0.064500995, -524455.0, -78044.29, 0.0, 9.9998865, 9.997434 
2.1549892e+3, 2.6444504e+2, -592523.6, -669603.9, -159903.73, 0.18261181, -0.028702233, -466581.1, -118152.41, 0.0, 9.999185, 9.99814 
2.1549878e+3, 2.744433e+2, -358284.16, -512474.28, -180106.28, 0.06768132, -0.024337793, -239466.16, 10980.118, 0.0, 10.000147, 9.998084 
2.1549866e+3, 2.8444153e+2, -262685.47, -252260.16, -221434.69, 0.035541613, -0.075810134, -35976.773, 116486.234, 0.0, 9.999429, 9.999543 
2.1549857e+3, 2.9443952e+2, -567792.6, -346331.38, -214484.75, 0.048213527, -0.24132416, -215680.61, -161199.89, 0.0, 9.996646, 9.999567 
2.1549869e+3, 3.0443934e+2, -574785.94, -75043.266, -60489.97, 0.08239177, -0.32349813, -67825.664, -67825.664, 0.0, 9.995182, 10.001806 
2.1549888e+3, 3.1444305e+2, -447750.84, 138614.95, 9374.852, 0.043717273, -0.14151308, 138764.8, 138764.8, 0.0, 9.995406, 10.003158 
2.1649775e+3, 1.3447297e+2, -1471408.5, -1598822.1, 59299.574, 0.20359875, 0.19629782, -1448080.9, 174089.97, 0.45757142, 10.002263, 9.999165 
2.1649773e+3, 1.4446953e+2, -1204486.1, -1488407.8, 42688.78, -0.14505607, -0.026823672, -1198206.6, 325989.4, 0.30883297, 10.00388, 9.998445 
2.1649821e+3, 1.5446681e+2, -1148186.6, -1459668.0, 44836.496, 0.014038791, -0.1403955, -1141861.0, 284355.75, 0.17203914, 10.003114, 9.998239 
2.1649858e+3, 1.6446483e+2, -1161244.0, -1564646.4, 12769.099, 0.09813197, -0.10223946, -1160840.3, 167396.7, 0.074334286, 10.0026045, 9.997083 
2.1649878e+3, 1.7446385e+2, -1079059.1, -1502085.0, 32364.998, 0.076961994, 0.096719764, -1076597.3, 153658.17, 0.022589553, 10.002526, 9.996879 
2.1649897e+3, 1.8446188e+2, -896581.06, -1171967.5, 51733.668, 0.08432202, 0.13394731, -887183.2, 245095.36, 0.00413868, 10.002259, 9.9986 
2.1649922e+3, 1.9445887e+2, -863414.06, -1111432.6, 82916.94, 0.12750845, -0.035209123, -838247.2, 196058.3, 0.00045452762, 10.001835, 9.998547 
2.1649931e+3, 2.0445675e+2, -680167.6, -968934.8, 35959.11, 0.13172312, -0.10245932, -675757.1, 260565.11, 0.000007502901, 10.002409, 9.998573 
2.1649931e+3, 2.1445571e+2, -329803.9, -765408.5, 4398.603, 0.084581904, -0.06165952, -329759.5, 508566.8, 0.0, 10.004215, 9.998427 
2.1649936e+3, 2.2445366e+2, -326903.0, -845866.94, -7911.4404, 0.08883868, -0.051438224, -326782.44, 413561.78, 0.0, 10.004137, 9.997237 
2.164995e+3, 2.3445044e+2, -594738.8, -945632.8, -46877.594, 0.1635931, -0.088760704, -588584.2, 53794.21, 0.0, 10.001717, 9.9970455 
2.1649943e+3, 2.4444756e+2, -628385.94, -934271.0, -185096.06, 0.17943992, -0.07018929, -541220.25, 3187.9658, 0.0, 10.000915, 9.996835 
2.1649909e+3, 2.5444505e+2, -367253.75, -768091.0, -194391.53, 0.10951772, -0.0045536784, -288466.9, 157965.88, 0.0, 10.002082, 9.99674 
2.1649885e+3, 2.6444247e+2, -310436.13, -519648.75, -146986.2, 0.07756988, -0.0047960486, -234633.39, 113823.44, 0.0, 10.001065, 9.998262 
2.164987e+3, 2.7444008e+2, -756786.06, -684619.8, -113416.33, 0.12861738, -0.082917504, -601685.06, -351206.97, 0.0, 9.997332, 9.998255 
2.1649854e+3, 2.844385e+2, -785794.4, -480722.4, -88871.266, 0.15551864, -0.1362386, -456721.34, -304229.3, 0.0, 9.995737, 9.999751 
2.1649824e+3, 2.9443744e+2, -553659.06, -313259.6, -52085.88, 0.058022127, -0.22662929, -302459.66, -247958.69, 0.0, 9.996635, 9.999795 
2.1649817e+3, 3.0443692e+2, -487576.9, -28831.809, 38402.29, 0.023176702, -0.35442805, -25639.309, -25639.309, 0.0, 9.995767, 10.00184 
2.1649821e+3, 3.14442e+2, -793949.1, -75315.09, -46768.52, -0.04188687, -0.044352837, -72284.195, -72284.195, 0.0, 9.993236, 10.002731 
2.1749802e+3, 1.3447025e+2, -1469307.9, -1616360.9, 105110.52, 0.23031166, 0.055364024, -1414559.9, 207632.44, 0.48078364, 10.002487, 9.999076 
2.1749812e+3, 1.444683e+2, -1236944.4, -1535370.6, 42451.492, -0.14336601, -0.016131647, -1231023.1, 293184.0, 0.32933584, 10.00383, 9.998057 
2.1749863e+3, 1.544661e+2, -1189580.3, -1542156.5, 22757.521, 0.11991037, -0.0265745, -1188117.5, 238109.31, 0.1883256, 10.0030775, 9.997683 
2.1749893e+3, 1.6446349e+2, -1130938.3, -1486831.0, 9873.374, 0.19452696, -0.045653254, -1130664.5, 197588.64, 0.08526978, 10.002581, 9.99763 
2.1749897e+3, 1.7446044e+2, -1036306.94, -1407817.6, 33191.8, 0.010598527, -0.118934035, -1033364.8, 196922.42, 0.028395083, 10.002519, 9.997531 
2.1749908e+3, 1.8445896e+2, -835122.94, -1042735.3, 37018.7, -0.048906077, -0.11110463, -828719.75, 303583.0, 0.006367479, 10.0022545, 9.999495 
2.1749932e+3, 1.9445953e+2, -800937.0, -982893.25, 70199.87, 0.053533375, -0.010121305, -777001.94, 257292.11, 0.0009868387, 10.001837, 9.99943 
2.1749946e+3, 2.0445849e+2, -723179.9, -1057898.0, 100905.23, 0.024507767, 0.013736506, -695113.94, 241187.38, 0.000047582707, 10.002407, 9.997964 
2.1749946e+3, 2.1445547e+2, -379990.25, -867893.8, 75542.46, -0.17308024, -0.07427456, -368561.66, 469766.44, 0.00000000032497088, 10.004207, 9.997728 
2.1749958e+3, 2.2445287e+2, -396121.56, -986361.5, -90454.336, -0.09243191, -0.039015707, -382570.56, 357784.53, 0.0, 10.004123, 9.99628 
2.1749985e+3, 2.3445079e+2, -664208.2, -1089070.1, -136183.31, 0.3381963, 0.13450845, -624304.44, 18077.621, 0.0, 10.001712, 9.996064 
2.1749978e+3, 2.4444732e+2, -633834.6, -944091.5, -148744.67, 0.41212624, 0.15119866, -574044.9, -29626.99, 0.0, 10.000911, 9.996768 
2.1749924e+3, 2.5444221e+2, -365493.25, -768544.56, -149226.23, 0.03145889, -0.041904252, -316257.94, 130206.21, 0.0, 10.002099, 9.996728 
2.1749882e+3, 2.6443857e+2, -247680.14, -391055.1, -279987.3, -0.058976088, -0.19084285, -30348.598, 318145.97, 0.0, 10.001075, 9.999141 
2.1749856e+3, 2.744368e+2, -688133.7, -547247.44, -251906.55, 0.2416016, -0.29876983, -356120.03, -105614.95, 0.0, 9.997353, 9.999188 
2.1749832e+3, 2.844367e+2, -735583.75, -380638.28, -67449.625, 0.34810847, -0.28101173, -368253.13, -215749.69, 0.0, 9.995757, 10.000427 
2.17498e+3, 2.9443893e+2, -507097.22, -222831.6, -24857.516, 0.14496405, -0.11275279, -220674.31, -166189.63, 0.0, 9.996664, 10.0004015 
2.174978e+3, 3.044396e+2, -628056.6, -313536.75, -65441.086, 0.07947131, -0.05965748, -300464.0, -300464.0, 0.0, 9.995748, 9.999889 
2.1749751e+3, 3.1444123e+2, -865545.75, -236694.64, -196919.9, -0.07001672, 0.10881376, -180120.36, -180120.36, 0.0, 9.9932785, 10.001612 
2.1849859e+3, 1.4446685e+2, -1300549.6, -1557755.0, 38312.113, -0.04260823, -0.05133454, -1294964.1, 229256.14, 0.34982812, 10.003172, 9.998222 
2.1849887e+3, 1.5446518e+2, -1172124.9, -1523714.5, 53894.9, 0.034286723, -0.015302177, -1164048.9, 262188.25, 0.20593035, 10.003244, 9.997742 
2.1849914e+3, 1.6446318e+2, -999114.25, -1310902.9, 91097.11, 0.124211624, -0.022452485, -974449.06, 353808.06, 0.09816926, 10.003142, 9.998589 
2.1849924e+3, 1.7446043e+2, -901936.94, -1229108.4, 144673.1, 0.0022086264, -0.1656475, -847140.9, 383143.72, 0.036017936, 10.003006, 9.998535 
2.1849935e+3, 1.8445924e+2, -720546.75, -1008353.7, 135070.13, -0.042790797, -0.17200314, -667087.25, 465208.28, 0.009796201, 10.003148, 9.999306 
2.1849956e+3, 1.9446011e+2, -557741.1, -896231.94, 79431.89, 0.017343517, -0.0149219055, -540028.1, 494257.13, 0.0020521113, 10.003646, 9.999157 
2.1849973e+3, 2.0445909e+2, -590326.8, -1023797.06, 92121.73, 0.0015415177, 0.037073098, -571561.3, 364732.6, 0.00020967671, 10.003448, 9.997699 
2.1849985e+3, 2.1445574e+2, -660997.6, -1035327.75, 95226.62, -0.113606036, -0.056330424, -638165.4, 200160.45, 0.00000086887735, 10.002409, 9.997448 
2.1849997e+3, 2.244526e+2, -698170.0, -1190475.6, -72252.58, -0.03281786, -0.032993864, -687785.0, 52573.81, 0.0, 10.002295, 9.995761 
2.1850008e+3, 2.3444977e+2, -470435.4, -1055564.5, -90647.1, 0.29736573, 0.118539765, -456714.28, 185678.84, 0.0, 10.003298, 9.995531 
2.184999e+3, 2.4444586e+2, -339006.88, -802667.8, -69199.234, 0.35069704, 0.11803536, -328899.56, 215533.27, 0.0, 10.002936, 9.996765 
2.184994e+3, 2.544407e+2, -543984.8, -850590.3, -68933.22, 0.053643815, -0.08219249, -529199.75, -82721.45, 0.0, 10.000858, 9.996761 
2.184989e+3, 2.6443735e+2, -433871.8, -506112.78, -278420.78, -0.032217253, -0.19455965, -189238.28, 159268.23, 0.0, 9.999901, 9.998919 
2.1849836e+3, 2.7443615e+2, -280481.9, -376504.94, -341601.34, 0.16765596, -0.2202602, 16465.385, 266979.34, 0.0, 10.000264, 9.9989605 
2.1849795e+3, 2.844364e+2, -344048.2, -223913.9, -234544.6, 0.27793944, -0.14479092, -41866.97, 110644.52, 0.0, 9.998585, 10.000141 
2.184976e+3, 2.9443884e+2, -870222.44, -431532.47, -271734.47, 0.22128005, 0.074045524, -301661.4, -247168.88, 0.0, 9.994323, 10.000096 
2.1849725e+3, 3.0443913e+2, -1094894.9, -520380.4, -236169.97, 0.11219286, 0.10092802, -435760.0, -435760.0, 0.0, 9.992459, 10.00006 
2.184968e+3, 3.1443954e+2, -765967.44, -60947.973, -180384.88, -0.11205126, 0.12529345, -17475.621, -17475.621, 0.0, 9.993414, 10.002751 
2.1949905e+3, 1.4446507e+2, -1292456.6, -1488712.9, 15648.844, 0.10885942, -0.12832543, -1291216.6, 233020.17, 0.37104458, 10.003015, 9.998894 
2.194989e+3, 1.5446395e+2, -1147781.8, -1432836.5, 55195.54, -0.25042883, -0.10486737, -1137467.4, 288781.72, 0.22535196, 10.003201, 9.998394 
2.1949922e+3, 1.6446377e+2, -920531.25, -1134961.5, 83156.37, -0.12601818, -0.031677, -892062.7, 436187.56, 0.113554426, 10.003132, 9.999955 
2.1949959e+3, 1.744637e+2, -814443.6, -1039290.8, 141365.81, 0.042542756, -0.042846907, -746247.9, 484000.78, 0.046104245, 10.003, 9.999895 
2.1949981e+3, 1.8446267e+2, -814059.9, -1196276.0, 153555.2, 0.094451256, -0.047265533, -760011.9, 372246.13, 0.015073835, 10.003134, 9.998018 
2.1949993e+3, 1.9446047e+2, -660104.4, -1105758.8, 101416.87, 0.010009116, -0.052791968, -638110.5, 396170.16, 0.0041389866, 10.003638, 9.997721 
2.1950012e+3, 2.0445836e+2, -585731.56, -1014385.6, 56822.938, 0.052383553, -0.036806438, -578326.94, 357974.66, 0.00072646124, 10.003447, 9.997765 
2.1950047e+3, 2.1445636e+2, -649730.3, -1014151.75, 59381.363, 0.2514277, -0.00897772, -640298.44, 198022.25, 0.000022642807, 10.002415, 9.997591 
2.1950048e+3, 2.244528e+2, -704395.5, -1203295.9, -37436.047, 0.2575201, -0.033531915, -701602.06, 38754.367, 0.000000000011542125, 10.002294, 9.995673 
2.1950012e+3, 2.3444729e+2, -476195.75, -1070001.1, -50504.793, 0.02643086, -0.13956073, -471930.8, 170482.05, 0.0, 10.003306, 9.995428 
2.1949983e+3, 2.4444303e+2, -334552.25, -793887.9, -143338.39, -0.019082861, -0.17199123, -293492.9, 250961.4, 0.0, 10.00294, 9.996822 
2.194996e+3, 2.544404e+2, -538072.0, -841403.56, -147172.95, 0.16210343, -0.12848231, -478403.03, -31926.393, 0.0, 10.000871, 9.996819 
2.1949907e+3, 2.6443863e+2, -526727.4, -697498.8, -271905.22, 0.14353149, -0.019680262, -327116.3, 21377.982, 0.0, 9.999901, 9.9976015 
2.1949811e+3, 2.7443802e+2, -373280.8, -575426.6, -326627.72, -0.106158905, 0.15030412, -132445.27, 118060.79, 0.0, 10.000293, 9.997579 
2.1949746e+3, 2.8443736e+2, -430434.03, -409420.4, -388967.2, -0.06850182, 0.26818576, -30818.135, 121699.64, 0.0, 9.998612, 9.998855 
2.194971e+3, 2.94437e+2, -954497.5, -611659.0, -432946.7, 0.2736665, 0.33280277, -317431.0, -262904.84, 0.0, 9.994344, 9.998853 
2.1949646e+3, 3.0443537e+2, -925449.9, -166995.53, -208376.61, 0.083956294, 0.12117802, -113517.195, -113517.195, 0.0, 9.992461, 10.0024805 
2.1949615e+3, 3.1443447e+2, -564518.4, 353567.4, -56956.02, -0.1292993, -0.24289471, 357087.3, 357087.3, 0.0, 9.993442, 10.005579 
2.2049922e+3, 1.4446567e+2, -1438868.1, -1552809.1, -23553.623, 0.07826426, -0.04762327, -1434191.1, 90039.664, 0.3943736, 10.001339, 9.99914 
2.2049919e+3, 1.5446484e+2, -1227920.0, -1363329.8, 141834.84, -0.2132797, -0.111814, -1138459.1, 287777.97, 0.24751912, 10.001947, 9.999651 
2.2049944e+3, 1.6446462e+2, -1057436.5, -1208548.6, 125851.64, -0.16961187, -0.107411176, -986202.4, 342035.88, 0.13222674, 10.002159, 9.99987 
2.2049978e+3, 1.744656e+2, -1051308.1, -1180291.6, 67771.71, 0.027060205, 0.008361509, -1022246.75, 207982.48, 0.05955568, 10.001433, 9.99964 
2.2050005e+3, 1.8446463e+2, -1025932.0, -1275988.6, 116367.42, 0.11474835, 0.015363093, -980157.94, 152080.34, 0.023171168, 10.0015545, 9.998236 
2.2050032e+3, 1.9446139e+2, -764343.3, -1127988.9, 189948.34, 0.08168295, -0.11950915, -683221.44, 351047.34, 0.008108, 10.002799, 9.997979 
2.2050054e+3, 2.0445885e+2, -597388.9, -1065955.8, 154887.52, 0.11559738, -0.14326085, -550818.5, 385475.5, 0.0021629783, 10.003566, 9.9973545 
2.2050075e+3, 2.144571e+2, -485577.9, -983951.75, 106344.08, 0.23260117, -0.045257885, -463834.63, 374478.72, 0.00023583494, 10.0037565, 9.99715 
2.2050075e+3, 2.244537e+2, -406521.63, -1029517.5, 49031.117, 0.19807129, -0.040715873, -402686.38, 337660.88, 0.0000019906881, 10.004212, 9.995941 
2.2050048e+3, 2.344483e+2, -214497.03, -907262.25, 67233.95, -0.02147746, -0.16742244, -208032.2, 434367.22, 0.0, 10.004952, 9.99575 
2.2050017e+3, 2.4444377e+2, -102054.51, -754524.1, -118927.64, -0.055108167, -0.21263376, -81053.18, 463389.16, 0.0, 10.004849, 9.996175 
2.204998e+3, 2.5444046e+2, -186144.48, -750849.44, -188997.77, 0.13920386, -0.1677213, -128727.805, 317745.22, 0.0, 10.003629, 9.996114 
2.2049914e+3, 2.6443833e+2, -307833.1, -679039.25, -303106.9, 0.1451859, -0.021888284, -138017.67, 210478.97, 0.0, 10.001785, 9.996818 
2.2049811e+3, 2.7443764e+2, -600347.25, -771120.7, -315531.94, -0.066943094, 0.2190828, -358852.78, -108340.6, 0.0, 9.999113, 9.9967985 
2.2049727e+3, 2.844357e+2, -626277.25, -523335.94, -356485.1, -0.07251556, 0.26137272, -214624.92, -62088.527, 0.0, 9.99735, 9.998683 
2.204965e+3, 2.9443285e+2, -601988.0, -449939.5, -317673.13, 0.1355584, 0.09080894, -199320.34, -144754.53, 0.0, 9.9967985, 9.998779 
2.2049573e+3, 3.0443367e+2, -649276.7, 63403.25, -96643.46, 0.030524246, 0.08299267, 76276.13, 76276.13, 0.0, 9.993927, 10.00336 
2.2049548e+3, 3.144345e+2, -1340459.0, 34534.145, -40073.863, 0.13151094, -0.19549945, 35701.098, 35701.098, 0.0, 9.987893, 10.006059 
2.2149925e+3, 1.4446913e+2, -1468308.9, -1581524.6, -157334.72, -0.053959902, 0.26398772, -1357708.4, 166488.8, 0.42217767, 10.001274, 9.9992285 
2.2149973e+3, 1.5446779e+2, -1140633.1, -1160857.0, 162614.92, 0.12385111, -0.037362546, -987816.06, 438385.78, 0.2742354, 10.001899, 10.001568 
2.214998e+3, 1.6446567e+2, -1174461.9, -1439398.6, 112456.31, -0.017694457, -0.24922611, -1133165.3, 195056.77, 0.15564759, 10.00208, 9.998228 
2.2149986e+3, 1.7446594e+2, -1182741.1, -1455872.6, 46196.4, -0.054546226, -0.0154798245, -1175139.3, 55088.64, 0.07778202, 10.001397, 9.9977455 
2.215001e+3, 1.84465e+2, -911384.06, -1028606.5, 154211.52, 0.0060896985, 0.014561555, -805021.1, 327216.66, 0.03557629, 10.001541, 9.999966 
2.2150074e+3, 1.944628e+2, -630367.2, -845757.9, 236334.19, 0.22034065, -0.21245976, -478347.03, 555903.7, 0.01541427, 10.002802, 9.999934 
2.2150095e+3, 2.0446044e+2, -660530.0, -1194821.5, 164296.39, 0.1796517, -0.27923313, -614051.5, 322220.56, 0.0057141464, 10.003564, 9.996471 
2.2150074e+3, 2.144578e+2, -558491.06, -1134809.3, 116336.055, -0.1839546, -0.16690513, -535893.44, 302411.56, 0.0013612037, 10.003756, 9.996115 
2.2150075e+3, 2.2445524e+2, -362784.88, -940153.4, 76468.47, -0.22434653, -0.055369936, -352828.8, 387503.7, 0.00013048094, 10.004217, 9.996553 
2.2150114e+3, 2.344527e+2, -162074.67, -800657.0, 96902.16, 0.14284573, 0.032989763, -147694.03, 494660.06, 0.000004592106, 10.00496, 9.996479 
2.2150095e+3, 2.4444799e+2, -198346.28, -950709.0, -162072.89, 0.23323081, -0.0050545055, -164918.03, 379480.1, 0.000000030624218, 10.004837, 9.994831 
2.215e+3, 2.5444078e+2, -285254.78, -961661.2, -232910.95, -0.027790513, -0.20291577, -212813.47, 233655.06, 0.0, 10.003652, 9.994654 
2.2149915e+3, 2.6443627e+2, -323763.25, -715978.25, -403603.2, -0.04219185, -0.20684066, -71146.234, 277368.66, 0.0, 10.001805, 9.996553 
2.2149839e+3, 2.7443483e+2, -610898.44, -798903.9, -417801.3, 0.26593065, -0.020130448, -276655.38, -26121.666, 0.0, 9.999139, 9.996596 
2.2149734e+3, 2.8443134e+2, -560843.94, -385921.03, -385718.16, 0.25226423, -0.17124595, -77872.69, 74696.11, 0.0, 9.997352, 9.99962 
2.2149587e+3, 2.9442626e+2, -520563.6, -285212.34, -333438.66, -0.19220482, -0.6644293, -49293.734, 5319.586, 0.0, 9.99682, 9.999897 
2.2149502e+3, 3.04434e+2, -690290.5, -18190.88, -314413.7, -0.06860604, -0.023746481, 105960.83, 105960.83, 0.0, 9.993917, 10.002804 
2.2149456e+3, 3.1443945e+2, -1479565.4, -265828.6, -244002.31, 0.41580757, 0.23889528, -218612.61, -218612.61, 0.0, 9.987938, 10.003978 
2.2249912e+3, 1.4446579e+2, -1267294.1, -1328106.5, -87237.84, -0.37637746, -0.3231604, -1205315.4, 318911.3, 0.45833313, 10.0026455, 10.001162 
2.2250012e+3, 1.5446785e+2, -1300760.3, -1333023.3, 102670.88, 0.37191528, -0.18247154, -1212961.4, 213238.3, 0.30885017, 10.000986, 10.000425 
2.2249998e+3, 1.64467e+2, -1306153.3, -1474601.1, 25306.137, 0.0038790104, -0.21728605, -1302433.5, 25774.361, 0.18666479, 10.000832, 9.998567 
2.2249998e+3, 1.7446657e+2, -1082154.6, -1348946.5, 110024.06, -0.09615476, -0.10126871, -1042635.0, 187586.02, 0.10333875, 10.001955, 9.998228 
2.2250026e+3, 1.8446602e+2, -795911.75, -938177.9, 269318.6, -0.032587722, -0.07730554, -588490.7, 543736.8, 0.054785665, 10.002249, 10.000304 
2.22501e+3, 1.9446547e+2, -765760.25, -877260.5, 231167.17, 0.25421003, -0.16749205, -583715.7, 450508.75, 0.028541567, 10.00173, 10.000253 
2.2250132e+3, 2.0446378e+2, -751915.7, -1220899.0, 182918.39, 0.211519, -0.19274858, -689009.5, 247229.77, 0.013680822, 10.002867, 9.996634 
2.2250114e+3, 2.1446049e+2, -230376.84, -961055.94, 220189.84, -0.24813768, -0.15643506, -169152.73, 669125.2, 0.0052527515, 10.00596, 9.996255 
2.2250125e+3, 2.2445747e+2, -6576.482, -819985.0, 116832.47, -0.2972353, -0.07629539, 9871.927, 750182.0, 0.0014095242, 10.006894, 9.996092 
2.2250168e+3, 2.344547e+2, -174076.44, -861425.9, 36901.945, 0.16654448, 0.039898135, -172100.94, 470233.78, 0.00025435496, 10.0051155, 9.995989 
2.2250147e+3, 2.4445002e+2, -278282.94, -984110.7, -214362.3, 0.28335243, 0.026218776, -218281.1, 326098.13, 0.000033623597, 10.004264, 9.994879 
2.2250041e+3, 2.5444308e+2, -150247.97, -883806.2, -171888.44, -0.039294448, -0.15267015, -111968.38, 334478.38, 0.0000010596754, 10.004529, 9.994764 
2.2249937e+3, 2.644382e+2, -125930.57, -652966.1, -364345.25, -0.06606819, -0.18594414, 60206.04, 408702.16, 0.0, 10.003299, 9.99627 
2.2249836e+3, 2.744357e+2, -485868.34, -771535.44, -397203.03, 0.2946334, -0.07835149, -206598.03, 43926.613, 0.0, 10.000139, 9.996304 
2.2249709e+3, 2.8443244e+2, -563589.9, -278428.1, -327892.63, 0.31468296, -0.2324285, -63457.734, 89097.5, 0.0, 9.996865, 10.000594 
2.2249545e+3, 2.9442903e+2, -942817.8, -377617.44, -274325.4, -0.13236278, -0.6593338, -266368.3, -211787.97, 0.0, 9.99345, 10.000885 
2.224943e+3, 3.0443698e+2, -1120579.5, -197669.11, -306183.56, -0.03167396, -0.062095284, -105328.97, -105328.97, 0.0, 9.990834, 10.003064 
2.2249326e+3, 3.1444082e+2, -1358698.0, -248902.5, -212403.08, 0.2871142, 0.013068517, -209639.86, -209639.86, 0.0, 9.988955, 10.003602 
2.2350039e+3, 1.5446481e+2, -1562737.6, -1894704.8, 88296.305, 0.53210485, -0.5439669, -1540713.8, -114481.734, 0.35698503, 10.000765, 9.996384 
2.2349992e+3, 1.6446866e+2, -1191405.6, -1187677.9, 47139.684, -0.12373659, -0.006222928, -1142365.3, 185831.14, 0.23053108, 10.0007515, 10.000862 
2.2350015e+3, 1.7446741e+2, -923564.56, -981300.0, 134755.86, -0.116941296, -0.25120652, -814619.06, 415590.25, 0.14104842, 10.001897, 10.001046 
2.2350049e+3, 1.8446757e+2, -888524.3, -1100508.0, 248342.98, -0.019984873, -0.25654218, -724500.4, 407707.56, 0.085322514, 10.00218, 9.999221 
2.235011e+3, 1.944693e+2, -866717.8, -1073452.9, 214309.95, 0.17335457, 0.01246292, -732149.2, 302041.63, 0.051863167, 10.001704, 9.998916 
2.235016e+3, 2.044687e+2, -678590.6, -1055376.1, 290521.16, 0.19893709, 0.11334625, -520725.7, 415471.13, 0.030267576, 10.00286, 9.997791 
2.2350203e+3, 2.1446507e+2, -146560.13, -773583.44, 337286.94, 0.028448364, -0.01638604, 419.2873, 838652.56, 0.015707966, 10.005961, 9.997558 
2.235022e+3, 2.2446032e+2, -123134.28, -1050177.1, 61065.25, -0.036963135, -0.10419971, -119129.16, 621152.06, 0.006814122, 10.006874, 9.994518 
2.2350205e+3, 2.344542e+2, -294236.94, -1111443.4, -27916.348, 0.0337695, -0.1532314, -293284.4, 349058.6, 0.0023828733, 10.005125, 9.994266 
2.2350168e+3, 2.4444968e+2, -179946.19, -777473.2, -210678.75, 0.08013018, -0.124530606, -113134.57, 431252.6, 0.00062937784, 10.00426, 9.996296 
2.2350098e+3, 2.5444716e+2, -33630.297, -643845.9, -161364.22, 0.0878156, -0.022448959, 6412.8574, 452822.13, 0.000100330886, 10.0045395, 9.996405 
2.2349983e+3, 2.6444396e+2, -148539.86, -697431.4, -480025.16, 0.05978824, 0.039015647, 129956.17, 478398.0, 0.0000028025358, 10.003296, 9.995963 
2.2349809e+3, 2.7443996e+2, -508862.47, -824919.9, -515309.97, 0.008455257, 0.039834734, -127894.484, 122591.95, 0.0, 10.000166, 9.995924 
2.2349656e+3, 2.844389e+2, -491279.53, -128673.14, -461048.56, 0.093386896, 0.072230764, 185439.25, 337936.22, 0.0, 9.996876, 10.001614 
2.2349522e+3, 2.9444125e+2, -886895.06, -261219.9, -403954.53, 0.28464454, 0.10885768, -63130.266, -8663.248, 0.0, 9.993453, 10.00168 
2.2349358e+3, 3.0444244e+2, -1065228.4, -68529.75, -379613.0, 0.14967509, -0.03722248, 59585.684, 59585.684, 0.0, 9.990785, 10.00397 
2.2349177e+3, 3.144417e+2, -1265680.6, -58139.383, -390165.3, -0.11468467, -0.546409, 56955.727, 56955.727, 0.0, 9.98896, 10.004912 
2.244995e+3, 1.5447038e+2, -1345801.5, -1090793.0, -26706.771, -0.3373126, 0.25989592, -1088026.0, 338160.06, 0.42759264, 9.998689, 10.004607 
2.2450007e+3, 1.6447093e+2, -1196198.9, -1215819.4, 172835.72, -0.06805007, 0.04173366, -1032895.2, 295281.8, 0.29616624, 10.000972, 10.000677 
2.2450027e+3, 1.7446926e+2, -1220406.4, -1198818.8, 49524.258, -0.08342498, -0.16831657, -1158925.8, 71266.5, 0.1995261, 9.999919, 10.0003 
2.2450061e+3, 1.8446927e+2, -1092018.9, -1108377.8, 111795.83, -0.017750684, -0.19577947, -988103.6, 144088.39, 0.13536249, 10.000262, 10.000086 
2.2450122e+3, 1.9447094e+2, -745007.3, -916801.1, 216369.25, 0.12061585, -0.017975828, -598108.3, 436067.9, 0.09316532, 10.002238, 9.999802 
2.2450185e+3, 2.0447102e+2, -561825.25, -904362.94, 404224.94, 0.15349185, 0.057480834, -294082.94, 642093.0, 0.06296764, 10.003371, 9.998663 
2.2450252e+3, 2.1446882e+2, -479298.1, -838603.8, 416624.6, 0.07134834, -0.012302778, -205242.69, 632954.4, 0.0397957, 10.003296, 9.998438 
2.2450283e+3, 2.2446464e+2, -348257.47, -1111470.8, 192160.4, 0.0031558734, -0.10752501, -302606.28, 437631.66, 0.022466442, 10.0051565, 9.994936 
2.2450271e+3, 2.3445804e+2, 324864.88, -762870.9, 260922.53, -0.044094518, -0.24467702, 384215.72, 1026518.75, 0.010854481, 10.009244, 9.994688 
2.2450233e+3, 2.4445356e+2, 587076.1, -467378.75, -3220.8608, 0.008195242, -0.20739613, 587086.0, 1131433.9, 0.0041681025, 10.009829, 9.995749 
2.2450161e+3, 2.5445172e+2, 154109.47, -619071.44, -129367.5, 0.16909102, 0.020224586, 175180.8, 621548.6, 0.0010930314, 10.006117, 9.995818 
2.2450024e+3, 2.6444873e+2, -78413.97, -599713.1, -517584.7, 0.1331499, 0.10796902, 240446.67, 588845.8, 0.00012870268, 10.003502, 9.996535 
2.244981e+3, 2.7444455e+2, -147447.97, -578422.6, -476441.13, -0.11167305, 0.02567623, 159970.94, 410413.44, 0.0000013958069, 10.002341, 9.996566 
2.2449625e+3, 2.8444436e+2, -256949.84, 12016.441, -531093.7, 0.000044827506, 0.10119112, 425389.28, 577833.56, 0.0, 9.998355, 10.001873 
2.2449458e+3, 2.9444864e+2, -1290535.6, -433716.1, -554971.7, 0.46098146, 0.30788395, -161034.92, -106635.48, 0.0, 9.990593, 10.001878 
2.2449246e+3, 3.0444872e+2, -1696293.1, -223146.64, -358795.75, 0.19912447, -0.022288186, -140406.42, -140406.42, 0.0, 9.98582, 10.005299 
2.2449045e+3, 3.144508e+2, -1632795.8, -20220.844, -287724.72, -0.15724014, -0.3952074, 29578.719, 29578.719, 0.0, 9.985505, 10.006845 
2.2550039e+3, 1.6447382e+2, -1437327.5, -1647357.0, 186923.67, 0.13009799, -0.07088081, -1327939.4, 210.75916, 0.3976515, 10.000343, 9.997611 
2.2550035e+3, 1.7447211e+2, -1546882.9, -1839366.5, 11440.135, -0.0076405634, 0.13597052, -1546436.1, -316265.72, 0.29297388, 9.999738, 9.995917 
2.2550063e+3, 1.8447104e+2, -965666.4, -811543.8, 145016.11, -0.03351104, 0.10475049, -724385.4, 407794.94, 0.21885973, 10.000081, 10.002754 
2.2550142e+3, 1.9447033e+2, -598590.3, -560843.5, 260147.05, 0.083595596, -0.261072, -318886.1, 715295.6, 0.16606681, 10.002163, 10.002837 
2.255021e+3, 2.0447056e+2, -561381.9, -843623.06, 384928.16, 0.05574927, -0.35677674, -292521.13, 643656.6, 0.12516294, 10.003323, 9.99922 
2.2550265e+3, 2.144716e+2, -474090.56, -793966.75, 400893.28, -0.13455579, -0.14672904, -202408.9, 635761.9, 0.09044297, 10.003312, 9.998821 
2.2550315e+3, 2.2447026e+2, -205066.97, -766658.06, 325411.1, -0.19220462, -0.08920505, -56050.324, 684132.06, 0.059949286, 10.005163, 9.997347 
2.255036e+3, 2.3446612e+2, 476521.6, -395429.28, 405013.6, -0.07910743, -0.2367046, 635618.06, 1277834.3, 0.034697067, 10.009247, 9.997268 
2.2550334e+3, 2.4446158e+2, 394425.22, -837509.6, -129160.98, 0.054340985, -0.22383039, 407821.3, 952084.06, 0.016323388, 10.0098, 9.993217 
2.2550225e+3, 2.5445658e+2, -43468.555, -1027985.75, -267844.4, 0.1887435, -0.032906428, 24682.65, 471006.8, 0.0055286493, 10.006129, 9.993005 
2.2550058e+3, 2.6445237e+2, 24356.105, -388479.97, -571385.94, 0.13675623, 0.013254656, 425466.13, 773835.7, 0.0010764735, 10.003521, 9.997976 
2.2549836e+3, 2.7444926e+2, -28390.652, -337861.84, -516587.28, -0.08821077, -0.13096745, 356137.66, 606532.2, 0.0000625209, 10.002372, 9.998201 
2.254961e+3, 2.8444865e+2, -294518.78, -64691.367, -814491.8, 0.02350999, -0.15663275, 642953.2, 795352.2, 0.000000008971545, 9.998359, 10.001347 
2.2549358e+3, 2.9445106e+2, -1318842.9, -489440.88, -857271.3, 0.39076447, -0.07104534, 48166.36, 102545.92, 0.0, 9.990587, 10.001503 
2.254909e+3, 3.044557e+2, -1565364.9, 66725.42, -396960.47, 0.0794052, -0.034478292, 158153.3, 158153.3, 0.0, 9.985753, 10.007317 
2.2548914e+3, 3.144662e+2, -1431709.0, 412558.72, -51544.664, -0.020218968, 0.2537375, 413998.22, 413998.22, 0.0, 9.985441, 10.009847 
2.2650035e+3, 1.7446664e+2, -938812.25, -263257.44, -74742.47, 0.16741298, -0.114428364, -255086.84, 975134.75, 0.44339716, 9.997045, 10.013376 
2.2650096e+3, 1.8447451e+2, -1377730.0, -1263358.1, 603495.06, 0.3530601, -0.092890985, -714345.7, 417783.8, 0.35843727, 9.998702, 10.000585 
2.2650161e+3, 1.9447245e+2, -1377914.8, -1264134.3, 344147.9, 0.27968395, -0.26193047, -972206.1, 61951.258, 0.29389387, 9.997901, 9.999508 
2.265023e+3, 2.0447306e+2, -920885.1, -777008.4, 287106.47, 0.12411615, -0.27456677, -552964.94, 383190.97, 0.24074654, 9.999461, 10.00186 
2.2650298e+3, 2.1447638e+2, -406818.5, -477944.78, 421303.03, -0.10879383, -0.12094795, -19580.299, 818544.1, 0.19109978, 10.002795, 10.001723 
2.2650376e+3, 2.244775e+2, -9245.391, -483323.13, 504158.63, -0.17402762, -0.053057194, 310818.38, 1050929.8, 0.14021182, 10.006257, 9.99907 
2.265046e+3, 2.3447603e+2, 587816.6, -154449.55, 542732.94, -0.022384493, -0.10372241, 874177.9, 1516297.4, 0.09011194, 10.009738, 9.998974 
2.2650442e+3, 2.4447235e+2, 583275.5, -698986.1, -95624.34, 0.08274186, -0.104356445, 590367.44, 1134525.3, 0.04717093, 10.011239, 9.993484 
2.2650298e+3, 2.544661e+2, 607080.0, -684072.7, -20104.512, 0.104662485, -0.060546707, 607393.0, 1053624.6, 0.018073585, 10.010612, 9.993213 
2.2650105e+3, 2.6446217e+2, 601518.1, -17535.313, -289501.03, 0.05767634, -0.035937615, 715804.6, 1064079.4, 0.004309457, 10.007107, 9.998805 
2.2649856e+3, 2.744611e+2, -294792.13, -376098.06, -301868.84, -0.015369434, -0.057171028, -30851.156, 219429.3, 0.00043159333, 10.000143, 9.999012 
2.264958e+3, 2.8446087e+2, -743799.75, -249660.88, -640116.44, 0.069381386, -0.10161209, 189412.8, 341694.13, 0.0000032045111, 9.995126, 10.001634 
2.2649252e+3, 2.9446185e+2, -1014229.56, -302230.5, -625050.4, 0.19271387, -0.18268684, 61091.61, 115366.27, 0.0, 9.992483, 10.001875 
2.2648945e+3, 3.0446783e+2, -1413655.5, 242191.08, -180729.48, 0.013519448, -0.08091771, 261687.47, 261687.47, 0.0, 9.986342, 10.008238 
2.2648746e+3, 3.1448087e+2, -2754793.8, -141407.58, 160296.61, 0.2244723, 0.38095504, -131612.22, -131612.22, 0.0, 9.976029, 10.010588 
2.275025e+3, 2.0447841e+2, -772408.5, -463808.28, 266206.97, 0.35926354, 0.30300197, -310415.88, 625695.5, 0.45034736, 9.998878, 10.006434 
2.2750351e+3, 2.1448298e+2, -298144.72, -94068.375, 403767.16, 0.13186637, 0.049871624, 220354.39, 1058414.9, 0.3812097, 10.002545, 10.007026 
2.275046e+3, 2.2448607e+2, -121123.78, -448703.38, 512551.84, 0.038887575, -0.004350111, 253172.36, 993199.8, 0.29702348, 10.006043, 10.000073 
2.2750571e+3, 2.3448756e+2, 486314.5, -111369.75, 585559.4, 0.10959905, 0.15134853, 844881.2, 1486895.8, 0.20111308, 10.009723, 9.999861 
2.2750553e+3, 2.4448572e+2, 704881.75, -281521.44, -107151.82, 0.0763798, 0.14512047, 716387.3, 1260421.9, 0.1095399, 10.011267, 9.9965515 
2.2750385e+3, 2.5448015e+2, 795432.56, -221937.0, -38370.207, -0.097720206, -0.0663551, 796877.6, 1242969.0, 0.043592926, 10.010604, 9.996454 
2.2750159e+3, 2.6447812e+2, 612614.94, 15452.553, -540146.56, -0.114141226, -0.03581798, 931212.06, 1279326.8, 0.01114868, 10.007117, 9.999045 
2.2749868e+3, 2.744802e+2, -288390.88, -366375.0, -563585.7, 0.090885505, 0.25417387, 237550.0, 487649.38, 0.0013876933, 10.000165, 9.999071 
2.2749536e+3, 2.8448117e+2, -662324.25, -74863.78, -748779.5, 0.11740909, 0.2660274, 435736.9, 587826.8, 0.000031079548, 9.995108, 10.002845 
2.2749141e+3, 2.9448113e+2, -931558.9, -126961.59, -716810.44, -0.16718303, -0.039984867, 292726.0, 346809.6, 0.0, 9.992471, 10.003085 
2.2748809e+3, 3.0448568e+2, -1442790.4, 195787.6, -559421.6, 0.015507106, -0.1297858, 368560.6, 368560.6, 0.0, 9.986292, 10.007946 
2.274854e+3, 3.1449473e+2, -2930099.8, -484280.66, -331579.6, 0.56701726, -0.029040065, -440125.56, -440125.56, 0.0, 9.975943, 10.008282 
2.2850622e+3, 2.3449358e+2, 720602.25, 1194604.6, 1421549.1, -0.19292277, -0.7830027, 2398773.8, 3040736.0, 0.39025778, 10.006824, 10.017522 
2.2850764e+3, 2.4451111e+2, 2860622.5, 854901.7, 563789.1, 0.05152098, 0.18527459, 3008234.8, 3552024.3, 0.20973285, 10.030942, 9.997249 
2.2850512e+3, 2.5450474e+2, 1631541.0, 172678.86, 444402.06, -0.20886768, -0.083621815, 1756254.4, 2202102.8, 0.08212083, 10.017335, 9.996256 
2.2850223e+3, 2.6450238e+2, 688296.06, 68135.484, -109910.59, -0.20536743, -0.077691294, 707199.25, 1055071.9, 0.02106947, 10.007629, 9.999203 
2.2849888e+3, 2.7450478e+2, 104221.85, -161009.16, -122514.98, 0.1293723, 0.23517004, 152152.16, 402008.38, 0.002827767, 10.002779, 9.999232 
2.2849502e+3, 2.8450653e+2, -424959.06, 148384.4, -299109.25, 0.20123687, 0.27355325, 276015.72, 427855.75, 0.00009466704, 9.996252, 10.003826 
2.2849047e+3, 2.945077e+2, -1577377.1, -336852.8, -293467.06, -0.101867765, -0.009272866, -270931.28, -217109.8, 0.0, 9.987602, 10.003988 
2.2848657e+3, 3.0451328e+2, -2235353.0, -141652.03, -197210.19, 0.15729423, -0.05500388, -123238.33, -123238.33, 0.0, 9.980668, 10.008343 
2.2848286e+3, 3.1452122e+2, -3002725.5, -550453.9, 14185.301, 0.45381144, -0.1084486, -550371.8, -550371.8, 0.0, 9.975568, 10.008009 
2.2951066e+3, 2.4454819e+2, 2241920.5, 455983.75, 199114.63, -0.015014781, 0.022625972, 2263850.5, 2807275.8, 0.331837, 10.030799, 9.995398 
2.295068e+3, 2.545397e+2, 1316977.4, -306956.63, -24619.352, -0.2474628, -0.10516774, 1317350.5, 1762854.4, 0.12458919, 10.017313, 9.992719 
2.2950296e+3, 2.64535e+2, 694951.3, 90532.5, -302933.22, -0.23970959, -0.15891528, 820642.7, 1168190.6, 0.03116133, 10.007666, 9.999374 
2.294991e+3, 2.745349e+2, 132511.78, -108522.52, -296882.03, 0.07483558, -0.12834701, 332405.8, 581956.06, 0.0042294026, 10.0028105, 9.99958 
2.2949472e+3, 2.8453726e+2, -371816.16, 255751.42, -617168.9, 0.30266613, -0.08469299, 634324.25, 785852.94, 0.0001690186, 9.99626, 10.00457 
2.2948973e+3, 2.945422e+2, -1542428.1, -256683.45, -614023.44, 0.38351035, -0.06424932, -10562.191, 42919.6, 0.000000012118067, 9.987561, 10.004568 
2.2948486e+3, 3.0455077e+2, -2160664.5, 29883.453, -378984.88, 0.41170824, 0.11052872, 93598.1, 93598.1, 0.0, 9.980595, 10.009558 
2.2947988e+3, 3.1456223e+2, -2851185.0, -225758.98, -199171.9, -0.07499369, 0.26886603, -210735.25, -210735.25, 0.0, 9.975534, 10.010246 
2.305141e+3, 2.445996e+2, 2486648.3, 444552.44, 406157.6, -0.12019388, -0.044485748, 2564464.8, 3107382.8, 0.43176952, 10.040045, 9.992586 
2.3050937e+3, 2.5458774e+2, 2306547.8, -248564.63, 342358.06, 0.032319296, -0.03384313, 2351624.8, 2796656.0, 0.15566939, 10.028134, 9.988034 
2.3050444e+3, 2.6458052e+2, 1787100.0, 598431.2, 187685.83, 0.10088566, -0.08446992, 1816030.6, 2163131.0, 0.03773777, 10.015609, 9.999204 
2.3049937e+3, 2.745781e+2, 37098.297, -156982.33, 177961.33, 0.11060577, -0.27362406, 142757.4, 391879.94, 0.005018539, 10.002157, 9.999561 
2.3049404e+3, 2.8458026e+2, -868922.06, 97616.45, -78528.68, 0.20345433, -0.27098158, 103955.13, 255056.78, 0.00020872243, 9.992496, 10.00529 
2.304884e+3, 2.9458743e+2, -1522820.6, -160237.95, -78869.414, 0.34744138, -0.09132586, -155688.0, -102653.69, 0.000000052263566, 9.987313, 10.005347 
2.3048289e+3, 3.0459633e+2, -2091759.3, 185456.16, 174806.73, 0.3883333, 0.028030008, 198796.77, 198796.77, 0.0, 9.98053, 10.010661 
2.3047723e+3, 3.146094e+2, -3386837.5, -362928.84, 219893.03, -0.0855052, 0.2545566, -347022.28, -347022.28, 0.0, 9.971379, 10.011306 
2.3151793e+3, 2.4466448e+2, 2186393.5, 64820.08, 9375.524, -0.2903464, -0.065731205, 2186435.0, 2728710.8, 0.45863697, 10.0399885, 9.988396 
2.3151274e+3, 2.5464875e+2, 1934795.5, -1058553.8, -35278.855, 0.598786, 0.13371281, 1935211.3, 2379643.3, 0.1623089, 10.028019, 9.982285 
2.3150666e+3, 2.6463905e+2, 1744428.4, 525829.8, -298345.75, 0.77120495, 0.15267901, 1813550.6, 2160079.0, 0.038388543, 10.015536, 9.998728 
2.3149966e+3, 2.7463472e+2, 6027.988, -214592.72, -320906.72, 0.20283177, -0.19378433, 235054.48, 483623.7, 0.004914195, 10.002122, 9.9991865 
2.3149297e+3, 2.8463608e+2, -820410.6, 201134.55, -277759.2, -0.12408673, -0.28537157, 271773.0, 422326.44, 0.00018893485, 9.992477, 10.006015 
2.3148653e+3, 2.946439e+2, -1444003.6, -6398.436, -252640.55, -0.24515027, -0.11523987, 36707.375, 89181.27, 0.000000019739163, 9.987345, 10.006395 
2.3148057e+3, 3.04651e+2, -2023041.9, 331572.9, -142358.47, 0.03672273, -0.2936684, 340148.56, 340148.56, 0.0, 9.980504, 10.011682 
2.3147476e+3, 3.146651e+2, -3389580.5, -357089.25, -226152.48, 0.34207517, -0.034056634, -340316.34, -340316.34, 0.0, 9.9713125, 10.011385 
2.3252214e+3, 2.4472848e+2, 2936224.0, 364305.3, -360510.3, -0.29022387, -0.1557346, 2985801.5, 3527437.8, 0.39448014, 10.044807, 9.988659 
2.325153e+3, 2.5471297e+2, 1569246.1, -1090375.0, -87969.37, 0.5995022, -0.1151939, 1572152.6, 2015945.3, 0.14077254, 10.023717, 9.984134 
2.3250793e+3, 2.6470473e+2, 978517.0, 230303.98, 204661.05, 0.7992537, -0.06521162, 1030839.7, 1376717.1, 0.03278679, 10.009692, 9.999389 
2.3249996e+3, 2.7470353e+2, 253467.72, -39981.324, 248770.77, 0.24776004, -0.13384312, 395559.72, 643450.9, 0.0039870758, 10.003606, 9.999664 
2.324924e+3, 2.847054e+2, -290368.63, 452422.47, 398861.97, -0.08827118, -0.18058065, 626027.4, 775899.2, 0.00012760548, 9.996145, 10.005969 
2.3248523e+3, 2.9471135e+2, -1471622.6, -22468.021, 348566.72, -0.2517681, -0.1753471, 57013.77, 108823.77, 0.00000000008400241, 9.9871855, 10.006351 
2.3247847e+3, 3.0471835e+2, -2301232.8, 197629.83, 303916.63, -0.012652, -0.35098755, 234061.63, 234061.63, 0.0, 9.978619, 10.011667 
2.3247181e+3, 3.1473252e+2, -3462944.3, -349042.94, 133155.66, 0.32275826, -0.06187491, -343359.34, -343359.34, 0.0, 9.970649, 10.011751 
2.3352662e+3, 2.4479304e+2, 3831414.8, 1126630.5, -919010.2, -0.24988464, -0.2378073, 4114120.0, 4655105.5, 0.2745417, 10.044057, 9.994592 
2.3351704e+3, 2.5478095e+2, 2205289.5, 153462.64, -789483.9, 0.021210875, -0.7660698, 2473896.5, 2917005.5, 0.10008415, 10.023476, 9.993251 
2.3350827e+3, 2.6477817e+2, 1098417.8, 445057.97, -24352.975, 0.1851686, -0.70872515, 1099324.3, 1444467.0, 0.023033276, 10.009734, 10.000849 
2.3350029e+3, 2.74785e+2, 349845.5, 143639.16, 29977.354, 0.23757531, -0.09291988, 354115.1, 601199.25, 0.002614445, 10.0036545, 10.000914 
2.3349239e+3, 2.8478897e+2, -357316.94, 310676.84, 73521.984, 0.298142, 0.045085337, 318673.22, 467723.34, 0.000062735715, 9.996153, 10.00499 
2.3348449e+3, 2.9479066e+2, -1564647.9, -214566.75, 28291.152, 0.33100596, -0.26391068, -213974.17, -162939.89, 0.0, 9.987174, 10.00504 
2.3347656e+3, 3.0479926e+2, -2387735.3, 23069.65, 7069.9775, 0.25704992, -0.14535727, 23090.385, 23090.385, 0.0, 9.978585, 10.01049 
2.3346835e+3, 3.1481093e+2, -3469308.5, -385484.1, 955.4485, -0.17128807, -0.000712079, -385483.8, -385483.8, 0.0, 9.970729, 10.011473 
2.3456016e+3, 2.2484721e+2, -690676.9, 244748.58, -754545.7, 0.8101042, -1.4096076, 664782.6, 1401250.5, 0.43460757, 9.994828, 10.014914 
2.3454346e+3, 2.3487069e+2, 1146756.9, 1427710.1, -1221534.1, 0.11281454, -0.5421352, 2516818.5, 3155048.5, 0.29755643, 10.009992, 10.015447 
2.3452958e+3, 2.4487872e+2, 1313399.1, 64855.21, -119062.15, -0.2200864, -0.30171868, 1324651.5, 1864800.3, 0.15666541, 10.016601, 9.996896 
2.345187e+3, 2.5487038e+2, 1378851.1, 105503.305, -183659.8, -0.17609932, -0.7683272, 1404811.8, 1847045.4, 0.05762301, 10.014826, 9.996823 
2.3450899e+3, 2.6486927e+2, 1090902.5, 429335.88, 532796.3, -0.029166494, -0.70022994, 1387247.1, 1731497.9, 0.012933089, 10.009676, 10.000696 
2.3450048e+3, 2.748757e+2, -38269.188, -54474.9, 475058.75, 0.23812392, -0.088413246, 428755.8, 674952.4, 0.0013151146, 10.001072, 10.000772 
2.3449194e+3, 2.848792e+2, -701580.56, 82052.234, 481536.34, 0.38346747, 0.056133572, 311039.6, 459207.66, 0.000019266114, 9.994092, 10.004401 
2.3448333e+3, 2.948801e+2, -1402070.6, -218156.11, 460154.6, 0.3841408, -0.25320107, -60342.977, -10180.99, 0.0, 9.988674, 10.004279 
2.3447455e+3, 3.0488858e+2, -1929890.8, 223101.16, 453212.66, 0.26213008, -0.076007135, 314614.3, 314614.3, 0.0, 9.981826, 10.010291 
2.3446551e+3, 3.148997e+2, -3170943.3, -200914.52, 522296.03, -0.16716683, 0.03639322, -111743.125, -111743.125, 0.0, 9.97262, 10.011815 
2.356147e+3, 1.8497631e+2, -2119000.3, -1130102.5, 303795.44, 0.82722986, 0.54216707, -1044231.25, 83014.84, 0.43588644, 9.990788, 10.004906 
2.3559953e+3, 1.9496989e+2, -842031.6, -616479.1, 272067.5, -0.13934967, -0.4353757, -434740.16, 594548.0, 0.3756139, 9.999743, 10.004703 
2.3558542e+3, 2.04974e+2, -467406.66, -169088.81, 411511.66, -0.42007273, -0.5214769, 119462.49, 1050703.5, 0.32589495, 10.001186, 10.007232 
2.3557265e+3, 2.1498838e+2, -1371981.8, -462259.03, 201172.84, 0.068316884, 0.29915094, -419757.97, 413348.22, 0.27614146, 9.992888, 10.00705 
2.3555891e+3, 2.2499268e+2, -1268455.4, -867909.1, -654362.75, 0.18527585, 0.39290857, -383857.8, 351205.7, 0.21618359, 9.995772, 10.001591 
2.3554412e+3, 2.3498775e+2, 754962.8, 194057.33, -1000171.9, -0.12698984, -0.2070885, 1513258.1, 2150362.5, 0.14431621, 10.010324, 10.001743 
2.3553123e+3, 2.4498379e+2, 1360839.5, -147153.03, -179993.6, -0.19945306, -0.37027124, 1382025.9, 1921165.9, 0.07461008, 10.016569, 9.994922 
2.3552029e+3, 2.549805e+2, 1306695.0, -140520.36, -245696.05, -0.029038735, -0.14981854, 1347269.6, 1788442.8, 0.0266634, 10.014762, 9.995006 
2.3551005e+3, 2.6497766e+2, 974712.56, 184213.28, 220417.08, 0.10807399, -0.076860584, 1032017.8, 1375221.3, 0.0055787, 10.009608, 9.998998 
2.3550054e+3, 2.749756e+2, -154713.78, -297158.16, 160818.98, 0.22066328, -0.14476952, -50051.504, 195176.11, 0.00045357316, 10.00106, 9.999113 
2.3549107e+3, 2.8497666e+2, -711908.25, 53184.46, 289296.63, 0.1327813, -0.15365501, 150256.97, 297477.44, 0.0000021252642, 9.994106, 10.004201 
2.3548159e+3, 2.949806e+2, -1404973.6, -255095.7, 280326.34, -0.1710302, -0.14122505, -190395.97, -141211.25, 0.0, 9.988785, 10.003982 
2.3547244e+3, 3.0498728e+2, -1863034.3, 335531.5, 148886.05, -0.01648189, -0.15741724, 345568.2, 345568.2, 0.0, 9.98192, 10.011022 
2.354633e+3, 3.1500095e+2, -3043829.3, 31090.865, 105079.78, 0.39721608, 0.118594594, 34677.59, 34677.59, 0.0, 9.972716, 10.013371 
2.366405e+3, 1.6510339e+2, -1593395.6, -1305487.4, -12862.3, 0.6605192, -0.452675, -1304913.9, 17058.764, 0.4091133, 9.997388, 10.001476 
2.366273e+3, 1.7510884e+2, -1229393.3, -1137360.0, 38490.793, 0.51885855, 0.045822877, -1123384.4, 100540.62, 0.31906334, 9.999391, 10.001199 
2.3661394e+3, 1.8511063e+2, -854350.5, -722248.75, -207499.73, 0.5384829, 0.07404902, -570540.94, 555364.2, 0.25411916, 10.000883, 10.003313 
2.3660041e+3, 1.9510801e+2, -610951.1, -552425.4, -361348.06, 0.7272559, -0.42868164, -219157.23, 808762.8, 0.2068962, 10.002066, 10.003156 
2.3658662e+3, 2.0511132e+2, -431220.22, -578457.2, -427781.78, 0.6366037, -0.2481191, -70768.51, 859119.7, 0.16910896, 10.003514, 10.001244 
2.3657268e+3, 2.1512023e+2, -157705.77, -415178.94, -472133.8, 0.2578392, 0.5953214, 202928.11, 1034741.06, 0.13413781, 10.004855, 10.000994 
2.3655887e+3, 2.251184e+2, -12229.26, -907092.06, -548360.5, 0.020350639, 0.68539417, 248078.06, 981914.8, 0.09810226, 10.007907, 9.995141 
2.3654522e+3, 2.3510599e+2, 748191.1, -490079.34, -564474.06, -0.07475319, -0.0074262167, 966886.0, 1602843.5, 0.061319675, 10.0125265, 9.99507 
2.3653272e+3, 2.4509758e+2, 793804.3, -539383.3, 155434.39, -0.08195504, -0.22370233, 811686.4, 1349723.9, 0.029647851, 10.012343, 9.994028 
2.3652136e+3, 2.550935e+2, 248785.28, -761141.56, 165904.36, -0.0035775872, 0.02046712, 275340.72, 715415.25, 0.009690529, 10.007659, 9.994086 
2.3651066e+3, 2.650893e+2, 106945.55, -367901.38, 612222.44, 0.09785761, 0.08371278, 526169.8, 868285.8, 0.0017168375, 10.004208, 9.997772 
2.3650067e+3, 2.7508512e+2, -102760.57, -402586.84, 577326.4, 0.22988398, -0.054726, 343799.03, 587960.4, 0.00008207236, 10.002016, 9.997912 
2.3649053e+3, 2.8508484e+2, -356475.22, 201810.45, 656835.2, 0.10354756, -0.11089893, 636357.44, 782522.56, 0.0000000086731085, 9.996686, 10.003966 
2.3648028e+3, 2.950883e+2, -1495662.6, -308876.03, 630605.25, -0.29515973, -0.10443232, -36371.78, 11757.309, 0.0, 9.988256, 10.00385 
2.3647068e+3, 3.050934e+2, -1774396.1, 203302.38, 484734.34, 0.027370322, -0.17821643, 315720.7, 315720.7, 0.0, 9.983313, 10.009427 
2.3646116e+3, 3.1510442e+2, -1710890.3, 550882.9, 193853.4, 0.57346976, 0.008285837, 567377.5, 567377.5, 0.0, 9.982378, 10.012264 
2.3765159e+3, 1.5523718e+2, -941071.56, -1919227.9, 68554.23, -0.1293247, -0.40598935, -936290.3, 482367.9, 0.38965693, 10.009146, 9.992182 
2.3763935e+3, 1.6523603e+2, -1455001.0, -1144980.6, 23771.463, -0.17128818, -0.20248537, -1143168.5, 177500.95, 0.27834773, 9.997705, 10.002811 
2.3762693e+3, 1.7523807e+2, -1151672.8, -962006.6, 65717.3, 0.28442073, -0.18845303, -941461.75, 281185.7, 0.1985831, 9.999349, 10.002581 
2.3761389e+3, 1.8523845e+2, -1129041.0, -1293730.4, -255571.38, 0.4691763, -0.12334454, -942876.2, 181770.64, 0.14599405, 10.000793, 9.998565 
2.3760022e+3, 1.952369e+2, -853294.2, -1114071.4, -385764.22, 0.42216125, -0.04802872, -576478.7, 450190.84, 0.11048994, 10.00214, 9.998539 
2.3758662e+3, 2.052348e+2, -445123.0, -705854.8, -422247.47, 0.35800985, -0.115669146, -133574.69, 795116.06, 0.083430625, 10.003638, 9.999991 
2.375731e+3, 2.1523215e+2, -177486.52, -550646.56, -460843.3, 0.2596329, -0.304606, 133114.17, 963825.75, 0.060247473, 10.004899, 9.999737 
2.3755977e+3, 2.2522943e+2, -19617.672, -1015902.3, -402795.3, 0.20481287, -0.19606951, 122856.77, 855598.1, 0.039651535, 10.007872, 9.994307 
2.3754665e+3, 2.3522633e+2, 729084.3, -610710.75, -418049.66, 0.2010186, 0.127159, 848824.8, 1483606.4, 0.022122076, 10.012378, 9.994241 
2.3753406e+3, 2.4521932e+2, 792985.5, -572140.7, -18974.24, 0.09324512, 0.0970493, 793249.1, 1330099.0, 0.009397611, 10.01221, 9.993875 
2.3752195e+3, 2.552092e+2, 248355.25, -783058.7, -3811.6165, -0.11710219, -0.24197197, 248369.34, 687308.56, 0.0025509265, 10.007687, 9.993931 
2.3751089e+3, 2.6520446e+2, 56696.81, -494354.44, 529634.4, -0.06819886, -0.18412136, 378186.2, 719172.44, 0.00031085577, 10.004273, 9.996879 
2.3750083e+3, 2.7520457e+2, -153986.94, -529990.6, 499632.4, 0.23480338, 0.19530056, 191843.81, 434838.8, 0.0000032423218, 10.002085, 9.997014 
2.3749036e+3, 2.8520414e+2, -379031.13, 143090.92, 342033.2, 0.2951844, 0.18964608, 312308.38, 457305.94, 0.0, 9.996715, 10.003554 
2.3747942e+3, 2.9520375e+2, -1505880.1, -334689.53, 322791.94, 0.058273032, -0.14830483, -251617.16, -204627.8, 0.0, 9.988251, 10.003683 
2.3746932e+3, 3.0520758e+2, -2048919.9, -398806.8, 454360.28, 0.3570529, -0.14713441, -281970.8, -281970.8, 0.0, 9.983433, 10.005245 
2.37459e+3, 3.152103e+2, -1889764.4, 35810.18, 158731.83, 0.168758, -0.33697277, 48807.27, 48807.27, 0.0, 9.98296, 10.008462 
2.3866512e+3, 1.4536461e+2, -1040773.25, -1179722.8, -23370.137, 0.088068426, 0.18108705, -1036947.9, 478483.72, 0.4277981, 10.004884, 10.001689 
2.3865202e+3, 1.5536329e+2, -1123945.8, -1160193.8, -46414.957, -0.12998338, -0.06596237, -1092241.8, 325188.53, 0.2998512, 10.002159, 10.001505 
2.3863928e+3, 1.6536301e+2, -1166839.0, -1069847.1, -104549.34, -0.06183804, -0.18165411, -1003093.6, 316331.97, 0.19613849, 10.000343, 10.002002 
2.3862678e+3, 1.7536406e+2, -1132816.5, -1010132.56, -182303.83, 0.27471468, -0.19737753, -879127.1, 342286.25, 0.1258275, 9.999869, 10.001779 
2.3861374e+3, 1.853637e+2, -1160032.8, -1403710.8, -417788.56, 0.35066497, -0.13173614, -846679.9, 276741.34, 0.0833774, 10.000966, 9.997713 
2.386002e+3, 1.9536187e+2, -694322.56, -1130171.6, -343648.47, 0.19435382, -0.007059386, -505325.28, 520123.53, 0.057241865, 10.003571, 9.997654 
2.385868e+3, 2.0535818e+2, -345710.7, -791847.0, -330514.16, 0.19584697, -0.117464975, -170032.05, 757452.06, 0.038689293, 10.00481, 9.998686 
2.3857357e+3, 2.1535264e+2, -257162.63, -730172.25, -375127.3, 0.32316646, -0.46433905, -50209.4, 779319.2, 0.024285814, 10.004811, 9.998424 
2.3856047e+3, 2.2534886e+2, -365436.63, -1256578.9, -208782.47, 0.33400732, -0.36331454, -318947.06, 412621.5, 0.013530839, 10.005616, 9.993704 
2.3854761e+3, 2.3534681e+2, -59192.625, -1065453.1, -211501.13, 0.25876188, 0.12890741, -16545.65, 617056.9, 0.006238663, 10.007065, 9.993646 
2.3853506e+3, 2.453401e+2, 157079.8, -874137.1, 29220.33, 0.17353153, 0.15658899, 157907.11, 693576.1, 0.0020933573, 10.007736, 9.993943 
2.3852283e+3, 2.553293e+2, 258318.55, -770099.9, 52233.652, 0.059708387, -0.25017464, 260964.69, 698728.25, 0.00039262508, 10.007727, 9.99399 
2.3851132e+3, 2.6532415e+2, 67548.01, -490111.56, 547013.8, 0.005007305, -0.2302871, 402697.16, 742509.75, 0.000017023604, 10.004374, 9.99685 
2.3850058e+3, 2.753242e+2, -751026.75, -821245.2, 570843.7, 0.04447313, 0.15397026, -214213.61, 27605.943, 0.0, 9.998021, 9.996964 
2.3848972e+3, 2.8532308e+2, -759406.94, -146964.61, 409218.38, 0.17422661, 0.14140892, 57921.914, 201748.92, 0.0, 9.994596, 10.002568 
2.3847869e+3, 2.9532135e+2, -782719.9, -95511.195, 338286.66, 0.30138046, -0.22463277, 43068.88, 88899.87, 0.0, 9.993707, 10.00268 
2.3846807e+3, 3.05324e+2, -1275456.8, -321114.03, 525681.5, 0.5108221, -0.15787475, -88332.195, -88332.195, 0.0, 9.990017, 10.002594 
2.3845693e+3, 3.1532192e+2, -1944727.1, -105387.88, 283668.22, -0.15191256, -0.5498278, -62633.547, -62633.547, 0.0, 9.983119, 10.007394 
2.3967879e+3, 1.3548899e+2, -2401751.0, -2093121.5, 183667.7, 0.23291552, -0.18169467, -2007546.9, -395340.25, 0.49039757, 9.995056, 9.999102 
2.3966531e+3, 1.454942e+2, -1088856.9, -1245811.1, -98772.61, -0.12882388, 0.4205086, -1041180.6, 472989.06, 0.36335638, 10.004146, 10.000931 
2.3965271e+3, 1.5548873e+2, -1156428.4, -1246571.3, -135114.48, 0.4282606, -0.14803073, -1059066.1, 357137.53, 0.24041012, 10.002085, 10.000569 
2.3963986e+3, 1.6548678e+2, -1256911.6, -1309927.5, -138730.02, 0.5674827, -0.27441448, -1142179.8, 176035.95, 0.14389224, 10.00061, 9.999891 
2.3962681e+3, 1.7548816e+2, -1224139.4, -1255918.0, -206588.69, 0.37221673, -0.04736424, -1032829.9, 187375.55, 0.081869274, 10.000154, 9.999785 
2.396136e+3, 1.8548721e+2, -1008012.2, -1129696.6, -321258.78, 0.18955103, -0.032666083, -741885.06, 380331.63, 0.04762492, 10.001106, 9.9995165 
2.3960027e+3, 1.9548425e+2, -591833.1, -894836.1, -264771.25, 0.012294336, -0.20347004, -438282.97, 585963.8, 0.028733762, 10.003388, 9.999336 
2.3958708e+3, 2.0548195e+2, -447079.44, -994035.2, -350526.75, 0.106132336, -0.18685868, -275968.56, 650298.4, 0.016587777, 10.004655, 9.997346 
2.3957404e+3, 2.1548e+2, -331778.16, -917030.44, -380866.44, 0.4201331, -0.042152476, -144103.05, 684177.5, 0.00836169, 10.004866, 9.997096 
2.3956104e+3, 2.254749e+2, -372812.3, -1304218.0, -157552.66, 0.40197852, 0.012551008, -346883.22, 383451.47, 0.0035139904, 10.005711, 9.993337 
2.395481e+3, 2.3546736e+2, -80955.82, -1119024.8, -156833.42, 0.114300005, -0.005126406, -57778.613, 574642.1, 0.0011566464, 10.007062, 9.993286 
2.3953576e+3, 2.4546036e+2, 166315.61, -850791.6, 28924.467, 0.17026675, 0.0009371811, 167137.5, 701628.3, 0.00024461743, 10.007689, 9.994136 
2.3952398e+3, 2.5545377e+2, 268628.78, -742569.25, 49466.023, 0.4982491, -0.0052591627, 271042.8, 707590.4, 0.00001664533, 10.007682, 9.994209 
2.3951198e+3, 2.654482e+2, 114926.55, -386302.88, 306536.78, 0.2797473, -0.07480637, 260256.94, 598853.4, 0.0, 10.004333, 9.997589 
2.394999e+3, 2.75444e+2, -697733.4, -714674.25, 340558.16, -0.37544107, -0.18811741, -365540.38, -124905.56, 0.0, 9.998021, 9.997702 
2.3948868e+3, 2.8544182e+2, -865271.06, -388527.8, 381467.38, -0.28794783, -0.2635819, -177079.03, -34426.293, 0.0, 9.994663, 10.000889 
2.394781e+3, 2.954411e+2, -887754.2, -371430.97, 317316.4, 0.38209984, -0.3551556, -220523.97, -175868.78, 0.0, 9.993931, 10.0006895 
2.39467e+3, 3.0544302e+2, -1329120.4, -484773.66, 275703.75, 0.4760532, -0.1822654, -402721.97, -402721.97, 0.0, 9.990226, 10.001373 
2.3945522e+3, 3.1544486e+2, -1932894.0, -121418.93, 54209.324, -0.12473648, -0.09936802, -119798.13, -119798.13, 0.0, 9.983252, 10.007238 
2.4067815e+3, 1.3562243e+2, -1751327.9, -2137374.8, 82149.94, -0.14589098, 0.24632746, -1734573.6, -123671.81, 0.4450749, 10.001037, 9.995933 
2.4066551e+3, 1.4561892e+2, -1442529.5, -1517710.0, -125449.03, -0.07566706, 0.19105256, -1349159.9, 163783.63, 0.31929898, 10.0009775, 9.999732 
2.4065293e+3, 1.556144e+2, -1137885.4, -1342999.5, -166548.44, 0.49850556, -0.15104985, -1044850.2, 370123.38, 0.20041105, 10.002711, 9.999388 
2.4064004e+3, 1.6561219e+2, -970660.9, -1257282.3, -140514.42, 0.6187861, -0.20242804, -913267.1, 403724.0, 0.11002212, 10.003193, 9.998967 
2.4062686e+3, 1.7561227e+2, -920271.5, -1197955.0, -153244.48, 0.3573672, -0.015874745, -852326.1, 366668.34, 0.054959267, 10.002729, 9.998901 
2.4061365e+3, 1.8561096e+2, -858200.0, -1061996.3, -248693.98, 0.14833413, 0.013461141, -691338.1, 429671.03, 0.027281834, 10.002166, 9.9994335 
2.4060042e+3, 1.956085e+2, -848093.44, -1028125.4, -302604.5, -0.012628441, -0.10343977, -622400.1, 400633.28, 0.013907911, 10.001621, 9.999247 
2.4058732e+3, 2.0560594e+2, -756692.94, -1194957.6, -377237.16, 0.0623718, -0.08359747, -539560.6, 385494.75, 0.0064041126, 10.002712, 9.996882 
2.4057436e+3, 2.1560335e+2, -328083.13, -964730.8, -359618.13, 0.33296674, 0.041101538, -166141.14, 660934.25, 0.002250424, 10.005095, 9.99664 
2.4056146e+3, 2.2559774e+2, -314244.66, -1201739.1, -112889.8, 0.3336248, 0.03327477, -300110.13, 429022.0, 0.00056430284, 10.005796, 9.993991 
2.4054861e+3, 2.3558965e+2, -320927.38, -1160880.3, -49702.047, 0.11548524, -0.10005096, -317996.63, 313221.8, 0.00009753823, 10.005106, 9.99393 
2.405363e+3, 2.4558336e+2, -282088.53, -981850.3, 159928.16, 0.18437542, -0.09048536, -247270.0, 286010.38, 0.00000565103, 10.004253, 9.994883 
2.4052444e+3, 2.555786e+2, -335289.47, -956300.8, 211052.52, 0.4935793, 0.018714217, -270352.84, 164968.44, 0.0, 10.003212, 9.994887 
2.4051228e+3, 2.6557302e+2, -315043.56, -634765.94, 312345.84, 0.3400158, -0.059005495, -124026.52, 213344.45, 0.0, 10.001572, 9.997205 
2.404999e+3, 2.7556717e+2, -513552.16, -666518.1, 259666.2, -0.19430408, -0.29391998, -319339.4, -79915.11, 0.0, 9.999475, 9.997325 
2.404883e+3, 2.8556448e+2, -621900.8, -376048.78, 370793.97, -0.15651044, -0.35224238, -108335.61, 33113.535, 0.0, 9.9967985, 9.999939 
2.4047737e+3, 2.9556406e+2, -1004271.2, -535504.5, 357575.16, 0.34233955, -0.31717047, -342341.84, -298888.06, 0.0, 9.99361, 9.999713 
2.4046592e+3, 3.0556524e+2, -1236301.8, -436345.3, 319418.25, 0.39682743, -0.16540459, -324453.8, -324453.8, 0.0, 9.990862, 10.001394 
2.4045405e+3, 3.1556794e+2, -1167458.6, 220544.0, 201850.05, 0.20573728, 0.008050126, 249302.17, 249302.17, 0.0, 9.988618, 10.007 
2.4167868e+3, 1.357465e+2, -1380221.3, -1384235.5, 7561.017, 0.357309, 0.17411627, -1374405.5, 235280.4, 0.41408566, 10.001848, 10.001804 
2.4166568e+3, 1.4574131e+2, -1466686.3, -1672721.3, -105279.3, 0.09079642, -0.2482903, -1422407.0, 89327.05, 0.28875875, 10.001359, 9.998333 
2.4165288e+3, 1.5574032e+2, -1198575.0, -1500658.0, -127751.805, 0.26699212, -0.104444034, -1151793.3, 261947.66, 0.17287283, 10.002715, 9.998197 
2.4163999e+3, 1.6573857e+2, -993333.4, -1289328.5, -158108.98, 0.32359573, -0.04926716, -924762.9, 390995.13, 0.08747305, 10.003033, 9.9988165 
2.4162695e+3, 1.7573649e+2, -954355.5, -1244246.3, -173205.55, 0.27028245, -0.06541585, -873448.44, 344332.4, 0.03813891, 10.002563, 9.998659 
2.4161382e+3, 1.8573508e+2, -947768.5, -1251547.5, -268259.75, 0.17860249, 0.037928153, -791382.6, 328415.06, 0.015689421, 10.002151, 9.998125 
2.4160056e+3, 1.9573417e+2, -902721.7, -1194610.1, -307336.9, 0.05864284, 0.20829383, -708437.0, 313373.38, 0.006452371, 10.001833, 9.997993 
2.4158747e+3, 2.057301e+2, -713795.4, -1153426.8, -278687.84, 0.032699484, 0.12796758, -578666.2, 345181.1, 0.0021419327, 10.002902, 9.997075 
2.4157454e+3, 2.1572375e+2, -312747.66, -931784.7, -266894.03, 0.08417369, -0.14342277, -213568.06, 612333.8, 0.0004068464, 10.005075, 9.996878 
2.4156179e+3, 2.2571838e+2, -223817.33, -998548.7, -134966.86, 0.15401068, -0.21235767, -200977.9, 526972.9, 0.00004169215, 10.005718, 9.995429 
2.4154916e+3, 2.3571372e+2, -226956.8, -958136.9, -73002.75, 0.22910853, -0.14757109, -219739.28, 410256.6, 0.0000013092525, 10.005061, 9.99535 
2.4153665e+3, 2.457088e+2, -199555.66, -807181.06, 116276.34, 0.1854514, -0.1317863, -178064.89, 353976.4, 0.0, 10.004226, 9.996102 
2.4152425e+3, 2.557038e+2, -261224.31, -805360.25, 166535.28, 0.0516118, -0.16383815, -214301.72, 219783.45, 0.0, 10.003211, 9.995932 
2.4151222e+3, 2.6569873e+2, -416764.84, -858682.3, 229089.64, 0.20824866, -0.16385978, -319439.4, 16695.984, 0.0, 10.001603, 9.995664 
2.4150056e+3, 2.756938e+2, -611962.56, -884991.9, 182086.36, 0.58877176, -0.15071765, -520899.3, -282711.7, 0.0, 9.999516, 9.995815 
2.4148865e+3, 2.8569123e+2, -629940.2, -406737.0, 247789.69, 0.5589853, -0.11265688, -246576.47, -106361.03, 0.0, 9.996842, 9.999714 
2.4147649e+3, 2.956904e+2, -986886.8, -511652.66, 238966.97, 0.1554433, -0.09206216, -412272.6, -370047.94, 0.0, 9.993644, 9.999868 
2.4146476e+3, 3.0569082e+2, -1118582.6, -216570.83, 242557.0, 0.23592703, -0.12228698, -155482.77, -155482.77, 0.0, 9.990946, 10.0028715 
2.4145271e+3, 3.156916e+2, -1166978.5, 171771.05, -6367.042, 0.034623355, -0.25658944, 171801.33, 171801.33, 0.0, 9.988838, 10.006553 
2.4267922e+3, 1.3587171e+2, -1022350.56, -1246472.0, -18054.031, 0.5373829, 0.10278917, -1020905.56, 587553.75, 0.3926926, 10.006078, 10.001223 
2.426661e+3, 1.4586785e+2, -1155037.1, -1463575.8, -109111.05, 0.30073425, -0.16892917, -1120350.8, 390144.28, 0.26708612, 10.004078, 9.998534 
2.4265306e+3, 1.5586732e+2, -1123933.5, -1439376.9, -94849.57, 0.21276993, 0.0009539869, -1097610.3, 314889.2, 0.15330808, 10.00317, 9.99838 
2.4264003e+3, 1.6586536e+2, -1106206.0, -1378123.3, -123478.73, 0.19254689, 0.04413751, -1058502.6, 256016.44, 0.071955405, 10.00231, 9.998528 
2.4262702e+3, 1.7586246e+2, -1109089.0, -1352517.1, -142957.78, 0.21137528, -0.019150702, -1043049.94, 173499.13, 0.02735525, 10.001609, 9.998359 
2.4261399e+3, 1.8586011e+2, -975718.6, -1312184.1, -160518.77, 0.2233202, 0.02718829, -911425.0, 207148.8, 0.009069118, 10.002159, 9.997687 
2.4260093e+3, 1.9585821e+2, -673019.5, -1131078.4, -152833.1, 0.22828965, 0.14687306, -626708.4, 393885.6, 0.0028592779, 10.003624, 9.997555 
2.4258791e+3, 2.0585401e+2, -532103.56, -1060972.5, -94223.055, 0.18034238, 0.07849445, -515818.28, 406814.22, 0.0005910513, 10.004132, 9.997113 
2.4257493e+3, 2.1584813e+2, -471355.5, -998960.0, -96279.945, 0.09903451, -0.14591767, -454334.94, 370349.63, 0.000041043342, 10.003954, 9.996952 
2.4256212e+3, 2.258434e+2, -467170.16, -1030159.6, -40094.54, 0.10978572, -0.18876848, -464329.06, 262397.06, 0.0000010162099, 10.003686, 9.996183 
2.4254946e+3, 2.3583966e+2, -433962.53, -979603.9, -25296.145, 0.19605821, -0.10537104, -432792.28, 195966.53, 0.0, 10.00331, 9.99604 
2.4253687e+3, 2.4583465e+2, -481958.75, -952793.3, 71250.84, 0.14969979, -0.12214355, -471412.66, 59393.086, 0.0, 10.0023365, 9.996008 
2.4252431e+3, 2.558289e+2, -596086.1, -966883.94, 27112.025, -0.009775846, -0.22625479, -594114.25, -161253.02, 0.0, 10.00092, 9.995922 
2.4251221e+3, 2.6582438e+2, -600909.0, -862135.44, 138714.92, 0.1816601, -0.2112903, -540992.3, -206086.38, 0.0, 9.999979, 9.996417 
2.4250051e+3, 2.7582094e+2, -601447.4, -804208.0, 250930.3, 0.6775128, -0.11925539, -432191.47, -195249.88, 0.0, 9.999268, 9.996487 
2.4248835e+3, 2.85819e+2, -553281.44, -343675.94, 352091.97, 0.6486508, -0.05711098, -81120.04, 57843.32, 0.0, 9.997267, 9.999938 
2.4247578e+3, 2.9581842e+2, -863352.75, -415752.2, 371439.72, 0.118909016, -0.027132763, -205900.52, -164929.0, 0.0, 9.994352, 10.000176 
2.4246377e+3, 3.0581942e+2, -974910.8, -113296.71, 350202.94, 0.16886601, -0.027271194, 11087.025, 11087.025, 0.0, 9.9917965, 10.003166 
2.4245134e+3, 3.1581822e+2, -1164806.8, 42877.117, -104466.32, -0.14846939, -0.36968923, 51846.977, 51846.977, 0.0, 9.989429, 10.005376 
2.4369243e+3, 1.2599836e+2, -1286955.6, -1648627.3, 1052.3599, 0.15087773, -0.24825306, -1286952.6, 418251.5, 0.4945162, 10.006954, 9.997479 
2.4367973e+3, 1.35998e+2, -1238158.3, -1636817.6, -87887.31, 0.54288965, 0.060644224, -1219642.9, 387579.94, 0.3775181, 10.005428, 9.997321 
2.4366662e+3, 1.4599665e+2, -1092701.1, -1354295.0, -126959.33, 0.50744545, 0.16127804, -1041216.7, 468023.0, 0.2511058, 10.004101, 9.9995165 
2.4365333e+3, 1.5599509e+2, -1049822.5, -1319440.3, -119804.22, 0.2462557, 0.1314711, -1004280.4, 406970.47, 0.13881776, 10.003314, 9.99921 
2.4364014e+3, 1.6599266e+2, -1087614.8, -1413205.4, -151471.06, 0.14849803, 0.11208251, -1028045.94, 285228.03, 0.060852747, 10.002611, 9.998145 
2.4362706e+3, 1.7598975e+2, -1064980.9, -1372576.4, -161769.1, 0.15570246, 0.08500903, -995568.0, 219736.17, 0.020245042, 10.002081, 9.997996 
2.4361417e+3, 1.8598577e+2, -914831.5, -1269240.4, -112921.625, 0.26953214, -0.01774045, -881910.5, 235430.47, 0.0052801482, 10.002515, 9.99781 
2.4360144e+3, 1.9598123e+2, -656817.7, -1114955.6, -113883.63, 0.45573774, -0.17599899, -630070.2, 389310.88, 0.001206236, 10.003692, 9.997634 
2.435885e+3, 2.0597802e+2, -539640.4, -1075160.6, -112395.73, 0.44606403, -0.14511679, -517007.2, 404403.2, 0.00012275462, 10.004117, 9.997027 
2.4357544e+3, 2.1597569e+2, -481167.4, -1016247.94, -106052.55, 0.29869398, -0.004058588, -460914.47, 362518.03, 0.0000014325344, 10.003934, 9.996847 
2.4356245e+3, 2.2597189e+2, -452493.3, -1001582.0, -58285.668, 0.15446983, 0.040319204, -446374.47, 279092.7, 0.0, 10.003687, 9.996383 
2.4354954e+3, 2.3596719e+2, -428138.84, -973124.9, -44252.625, 0.01983259, 0.008989139, -424568.94, 202940.47, 0.0, 10.003326, 9.99608 
2.4353696e+3, 2.4596094e+2, -566788.06, -1138067.1, 14811.48, 0.08675642, -0.06538796, -566404.3, -36831.52, 0.0, 10.002361, 9.994733 
2.4352461e+3, 2.5595382e+2, -654570.1, -1096596.9, -18350.791, 0.27258947, -0.1773603, -653809.56, -222161.22, 0.0, 10.000944, 9.995027 
2.4351218e+3, 2.6595008e+2, -390660.66, -435087.1, 113165.13, 0.21874367, -0.20695522, -297549.25, 36132.363, 0.0, 10.000005, 9.999344 
2.4349973e+3, 2.7594867e+2, -398359.34, -398871.03, 219854.36, 0.03489222, -0.20436014, -178760.69, 56925.008, 0.0, 9.999323, 9.99925 
2.4348748e+3, 2.8594777e+2, -502402.72, -251545.2, 241829.25, 0.09180705, -0.19401576, -104551.93, 33140.63, 0.0, 9.997305, 10.000561 
2.4347524e+3, 2.9594812e+2, -829833.75, -362919.3, 270585.97, 0.22529013, -0.13702124, -238998.53, -199304.98, 0.0, 9.994405, 10.000524 
2.4346294e+3, 3.0595145e+2, -1039332.06, -257806.9, 261087.7, 0.23678324, 0.14584689, -178609.72, -178609.72, 0.0, 9.991829, 10.002165 
2.4345039e+3, 3.1594992e+2, -1265864.3, -216936.86, -77269.32, 0.025932943, -0.14158033, -211275.38, -211275.38, 0.0, 9.989617, 10.003514 
2.4469234e+3, 1.2612575e+2, -2038904.9, -2245791.8, -26233.107, -0.0789615, -0.3700302, -2035630.4, -331679.97, 0.48536015, 9.999384, 9.99665 
2.4467984e+3, 1.361252e+2, -1440742.0, -1859738.8, -7960.4004, 0.28644028, -0.005365275, -1440590.9, 165383.8, 0.36591375, 10.003464, 9.996669 
2.4466684e+3, 1.4612374e+2, -1001503.8, -1310894.5, -55188.77, 0.3542037, 0.115105, -991954.06, 516038.66, 0.2385491, 10.004883, 9.99949 
2.4465361e+3, 1.5612173e+2, -902805.5, -1258597.8, -84098.77, 0.24209496, 0.048976395, -883928.56, 526077.4, 0.12749994, 10.004497, 9.999097 
2.4464048e+3, 1.661194e+2, -827966.3, -1340299.0, -106249.734, 0.19718376, 0.07579705, -806805.8, 505223.16, 0.05255283, 10.004732, 9.997606 
2.4462739e+3, 1.7611697e+2, -627314.7, -1222341.0, -128694.03, 0.19440371, 0.15167882, -600673.2, 613383.8, 0.015410269, 10.005408, 9.9974165 
2.4461448e+3, 1.8611225e+2, -605481.6, -1210911.6, -119108.21, 0.26009986, 0.046645246, -582891.94, 533211.06, 0.0031043177, 10.00504, 9.996993 
2.4460167e+3, 1.961062e+2, -655010.44, -1185266.0, -175520.45, 0.37987527, -0.18485694, -602175.7, 415983.6, 0.00048070858, 10.004022, 9.996987 
2.4458872e+3, 2.0610313e+2, -585994.6, -1023777.75, -174919.56, 0.35557458, -0.14767201, -524689.2, 395497.28, 0.000015860664, 10.003497, 9.997669 
2.4457566e+3, 2.1610208e+2, -537781.25, -980887.56, -130920.91, 0.231483, 0.057624448, -501990.13, 320204.22, 0.00000000006110458, 10.003285, 9.997395 
2.4456272e+3, 2.2609833e+2, -533213.25, -1022875.2, -69036.84, 0.15358812, 0.07629872, -523666.0, 200562.72, 0.0, 10.003073, 9.996526 
2.4454986e+3, 2.360929e+2, -485313.0, -978821.4, -65303.824, 0.109118685, -0.042017218, -476817.88, 149461.63, 0.0, 10.002857, 9.996259 
2.445372e+3, 2.4608743e+2, -562677.2, -1064858.5, 35138.17, 0.1850129, -0.07850857, -560230.44, -31894.373, 0.0, 10.002085, 9.995368 
2.4452469e+3, 2.560821e+2, -620633.6, -1008207.5, 129417.55, 0.34310475, -0.07186201, -581392.06, -150996.81, 0.0, 10.000865, 9.995673 
2.4451207e+3, 2.66079e+2, -447221.47, -374186.84, 224330.98, 0.21815325, -0.101003364, -183420.4, 149000.83, 0.0, 9.999244, 10.000124 
2.4449937e+3, 2.7607757e+2, -634240.4, -427643.47, 165398.63, -0.08236272, -0.17620866, -335936.1, -101512.59, 0.0, 9.997346, 10.0 
2.4448691e+3, 2.8607637e+2, -783207.4, -379468.78, 58023.336, -0.016062666, -0.24212979, -371295.44, -234863.48, 0.0, 9.995349, 10.000623 
2.4447456e+3, 2.9607603e+2, -1007605.06, -447455.75, 47687.62, 0.24028662, -0.25856337, -443424.94, -404987.6, 0.0, 9.9931755, 10.000535 
2.4446201e+3, 3.0608022e+2, -1024326.25, -231273.27, 116135.125, 0.19732265, 0.097623706, -214616.22, -214616.22, 0.0, 9.991858, 10.002328 
2.4444956e+3, 3.1608164e+2, -1039745.56, -121237.08, -13103.431, 0.23132013, 0.08138727, -121050.19, -121050.19, 0.0, 9.991238, 10.003382 
2.4569212e+3, 1.262565e+2, -1763239.5, -1994396.3, 96202.93, -0.17769171, -0.058935694, -1728440.4, -25770.91, 0.47715083, 10.00077, 9.997708 
2.4567969e+3, 1.3625303e+2, -1378484.0, -1711577.9, 67341.08, -0.12491532, -0.09534952, -1365384.9, 239333.98, 0.35568982, 10.003646, 9.997631 
2.4566692e+3, 1.4625022e+2, -1046477.9, -1387826.3, -93608.89, 0.009781727, -0.12031252, -1022492.6, 484254.7, 0.22772594, 10.004713, 9.998868 
2.4565396e+3, 1.5624793e+2, -936240.2, -1341230.9, -114977.484, 0.21304476, -0.15490869, -905874.7, 502886.88, 0.11807925, 10.004507, 9.99844 
2.4564096e+3, 1.6624597e+2, -886178.7, -1441249.5, -98216.1, 0.28988385, -0.024526324, -869312.5, 441470.13, 0.046048597, 10.00459, 9.996982 
2.4562792e+3, 1.7624432e+2, -742425.0, -1364577.9, -114272.74, 0.27957216, 0.19424123, -722100.1, 490706.78, 0.012010392, 10.004957, 9.996658 
2.4561483e+3, 1.8623942e+2, -752056.75, -1440241.5, -152068.2, 0.19969094, 0.18398677, -719951.94, 394908.16, 0.0018476526, 10.004703, 9.995586 
2.4560168e+3, 1.9623266e+2, -740168.1, -1352569.3, -192652.13, 0.07919064, 0.021922074, -684604.1, 332325.5, 0.00018021296, 10.003973, 9.995867 
2.4558863e+3, 2.0622912e+2, -507295.53, -860841.3, -170875.61, 0.0044290344, -0.0006220803, -438208.44, 480751.53, 0.0000007906511, 10.003493, 9.998794 
2.4557564e+3, 2.1622771e+2, -484858.1, -847771.75, -132020.36, -0.045067616, 0.05600134, -441913.6, 379051.63, 0.0, 10.00318, 9.998363 
2.4556291e+3, 2.2622328e+2, -539764.8, -1022249.7, -76703.76, 0.11906529, -0.03674324, -527864.25, 195140.92, 0.0, 10.003002, 9.99657 
2.4555036e+3, 2.3621716e+2, -470582.03, -941300.4, -74849.3, 0.41124573, -0.22942619, -458966.78, 166098.3, 0.0, 10.00282, 9.996539 
2.4553755e+3, 2.4621429e+2, -406998.28, -737163.4, -13816.077, 0.40090582, -0.14578703, -406421.16, 120673.25, 0.0, 10.002053, 9.997639 
2.4552456e+3, 2.562135e+2, -491327.38, -735574.2, 81183.18, 0.19556783, 0.093982145, -466805.5, -37701.508, 0.0, 10.000836, 9.997564 
2.4551189e+3, 2.6621094e+2, -538927.6, -566989.1, 148416.48, 0.18876192, 0.10346962, -403880.16, -72752.34, 0.0, 9.999241, 9.998809 
2.4549943e+3, 2.762075e+2, -716907.0, -605670.1, 91494.54, 0.32314652, -0.039312135, -554215.4, -321057.88, 0.0, 9.99736, 9.998778 
2.4548672e+3, 2.8620452e+2, -820133.5, -455245.03, -27945.246, 0.32163912, -0.19946153, -453117.25, -317933.9, 0.0, 9.995332, 10.000117 
2.4547371e+3, 2.9620212e+2, -1024187.94, -485923.22, -30884.252, 0.14087565, -0.37515646, -484156.97, -446952.84, 0.0, 9.993178, 10.0002775 
2.4546091e+3, 3.0620474e+2, -925624.8, -45826.676, 84923.16, -0.010812935, -0.23880911, -37704.39, -37704.39, 0.0, 9.99192, 10.003578 
2.454486e+3, 3.1620887e+2, -893426.8, 154724.83, 14384.9795, 0.22674058, -0.10612836, 154922.22, 154922.22, 0.0, 9.99136, 10.005216 
2.4669267e+3, 1.2638251e+2, -1193466.5, -1614086.4, 17853.293, -0.04909855, -0.08560419, -1192710.0, 508728.6, 0.46770835, 10.007888, 9.997401 
2.4668017e+3, 1.363801e+2, -1256373.0, -1643614.5, -29152.195, 0.010215675, 0.010443329, -1254190.6, 349283.53, 0.34513664, 10.0049715, 9.997422 
2.4666734e+3, 1.4637694e+2, -1093838.9, -1407935.3, -184345.88, 0.08891156, -0.04997262, -1008714.56, 496790.28, 0.21739928, 10.004225, 9.998908 
2.4665435e+3, 1.563735e+2, -892422.6, -1311342.0, -198595.4, 0.21607251, -0.20568448, -813241.56, 594289.2, 0.10969119, 10.004766, 9.998539 
2.4664128e+3, 1.663716e+2, -954501.2, -1403417.6, -171421.42, 0.28205234, -0.112606004, -896529.25, 413020.38, 0.040699318, 10.0037775, 9.997636 
2.466282e+3, 1.763707e+2, -1146176.6, -1498439.0, -118300.49, 0.29816994, 0.115446635, -1110135.3, 101428.61, 0.009533966, 10.001892, 9.997209 
2.4661511e+3, 1.863663e+2, -1128940.6, -1604232.1, -29093.605, 0.24974887, 0.12609245, -1127166.4, -13553.821, 0.001115965, 10.002046, 9.995732 
2.4660204e+3, 1.9635996e+2, -814596.5, -1378079.5, 5902.0195, 0.16060929, -0.0001782753, -814534.7, 201145.36, 0.00006263998, 10.003426, 9.995951 
2.4658889e+3, 2.0635645e+2, -588964.6, -928376.7, -30582.05, 0.024521202, -0.00222795, -586231.06, 331480.63, 0.0000000031066179, 10.003064, 9.99853 
2.4657568e+3, 2.1635474e+2, -720177.3, -984523.06, -70944.62, -0.1275121, 0.055589624, -702340.8, 117379.87, 0.0, 10.001677, 9.998142 
2.4656296e+3, 2.2635035e+2, -770412.7, -1120319.4, -11171.7295, 0.054124493, -0.0261951, -770056.4, -48294.13, 0.0, 10.001369, 9.99668 
2.4655053e+3, 2.3634453e+2, -615868.2, -978960.7, -14185.119, 0.43869108, -0.19833179, -615314.9, 8506.837, 0.0, 10.001681, 9.99683 
2.4653763e+3, 2.4634252e+2, -502211.5, -609406.94, -32157.26, 0.41602263, -0.12644532, -493304.78, 32535.754, 0.0, 10.00066, 9.99918 
2.465244e+3, 2.5634295e+2, -695799.1, -688466.6, 11847.401, 0.13101096, 0.08272075, -679731.1, -251897.72, 0.0, 9.998812, 9.998857 
2.4651162e+3, 2.6634088e+2, -793372.25, -742632.44, 106327.47, 0.17285058, 0.11096234, -658690.1, -328836.22, 0.0, 9.997732, 9.998326 
2.4649923e+3, 2.7633753e+2, -786671.0, -688901.75, 106127.33, 0.45729855, 0.022719134, -620941.5, -389053.0, 0.0, 9.997099, 9.998332 
2.4648638e+3, 2.8633446e+2, -599738.4, -363260.2, 34314.387, 0.45446217, -0.118791364, -358381.6, -224465.69, 0.0, 9.996913, 9.999985 
2.4647312e+3, 2.9633147e+2, -505507.06, -257683.16, 49133.3, 0.1452237, -0.33165836, -248297.48, -212357.95, 0.0, 9.996844, 10.0000725 
2.4646012e+3, 3.0633223e+2, -518876.56, 12382.641, 49161.363, -0.06744518, -0.30032256, 16893.604, 16893.604, 0.0, 9.995319, 10.002334 
2.4644776e+3, 3.1633323e+2, -698519.0, 173034.98, -208244.67, 0.24201524, -0.36465806, 220235.66, 220235.66, 0.0, 9.99303, 10.004533 
2.476936e+3, 1.265067e+2, -1233326.5, -1697055.1, -35307.625, 0.17066099, -0.25633377, -1230653.6, 469573.75, 0.45547685, 10.007719, 9.996406 
2.4768098e+3, 1.3650703e+2, -1289590.6, -1761649.4, -75184.484, 0.4001577, 0.21039917, -1277905.3, 324327.44, 0.3330715, 10.004953, 9.996639 
2.4766797e+3, 1.4650391e+2, -1065819.5, -1364648.6, -147353.48, 0.36522847, 0.16896513, -1005382.25, 498880.56, 0.20674157, 10.004238, 9.9992695 
2.4765474e+3, 1.5649901e+2, -867991.44, -1249945.3, -178185.28, 0.21697582, -0.17119922, -797774.56, 608530.4, 0.10177492, 10.004666, 9.999053 
2.476415e+3, 1.6649698e+2, -847866.2, -1199537.1, -236089.23, 0.20730168, -0.19122589, -729327.4, 578994.1, 0.036100637, 10.00385, 9.9990225 
2.4762827e+3, 1.7649668e+2, -1000166.56, -1280036.0, -175539.42, 0.26384562, -0.03997206, -915611.2, 294711.6, 0.007669575, 10.002258, 9.998537 
2.4761535e+3, 1.864932e+2, -1015038.25, -1424391.5, 13510.397, 0.3704782, -0.057449553, -1014592.8, 97766.586, 0.00068703305, 10.002285, 9.996855 
2.4760264e+3, 1.9648805e+2, -779302.5, -1275768.0, 35395.273, 0.4961373, -0.17543082, -776791.75, 237623.03, 0.000019881356, 10.003295, 9.996719 
2.4758938e+3, 2.0648488e+2, -691944.56, -1123093.5, -89211.56, 0.2950459, -0.10374894, -674214.44, 242232.14, 0.0, 10.002974, 9.997241 
2.4757583e+3, 2.1648297e+2, -782770.75, -1140560.4, -110967.77, -0.08545579, 0.061142057, -751149.06, 67314.59, 0.0, 10.0017805, 9.997025 
2.4756292e+3, 2.2647923e+2, -753782.5, -1096919.3, 4023.9275, -0.05247222, 0.08542288, -753735.3, -33232.445, 0.0, 10.001409, 9.996826 
2.4755041e+3, 2.364746e+2, -617184.8, -948583.75, -8574.355, 0.22044297, 0.0177616, -616963.1, 5590.0664, 0.0, 10.001531, 9.997116 
2.4753743e+3, 2.4647193e+2, -454353.97, -490671.13, -102189.97, 0.25679663, -0.040803157, -368721.78, 155854.84, 0.0, 10.000567, 10.000046 
2.4752419e+3, 2.5647056e+2, -636010.8, -575227.56, -50641.984, 0.13505563, -0.09858216, -546557.7, -119974.766, 0.0, 9.998849, 9.999622 
2.475113e+3, 2.6646903e+2, -766232.06, -698631.94, 79066.21, 0.15126759, -0.063630305, -646444.1, -317845.97, 0.0, 9.997771, 9.998616 
2.4749868e+3, 2.7646768e+2, -759574.8, -644690.25, 86109.555, 0.29550785, 0.021647247, -598621.8, -368005.97, 0.0, 9.997138, 9.998624 
2.4748589e+3, 2.864661e+2, -578209.75, -335256.78, 33791.824, 0.36923262, 0.0068930765, -330644.3, -198014.67, 0.0, 9.996975, 10.000153 
2.4747282e+3, 2.964642e+2, -503434.7, -292874.66, 38519.152, 0.24522457, -0.110018045, -286049.3, -251406.52, 0.0, 9.997007, 9.999756 
2.4745974e+3, 3.064632e+2, -779108.56, -568746.0, -49690.938, 0.062826164, -0.013231846, -557598.9, -557598.9, 0.0, 9.995476, 9.998279 
2.4744703e+3, 3.164581e+2, -874450.9, -245817.88, -307452.88, 0.27581716, -0.2817657, -120450.266, -120450.266, 0.0, 9.993218, 10.001586 
2.4869433e+3, 1.2663665e+2, -1158746.3, -1614623.0, -16640.004, 0.21719879, -0.087313116, -1158139.6, 540816.75, 0.4395701, 10.008052, 9.99725 
2.486814e+3, 1.3663422e+2, -1191806.4, -1635339.8, 20724.537, 0.37412983, 0.02964713, -1190840.1, 410140.4, 0.31882682, 10.005593, 9.99718 
2.4866827e+3, 1.4663099e+2, -1087402.3, -1462849.8, 15817.688, 0.30764815, 0.01932593, -1086737.0, 416275.75, 0.19528927, 10.004481, 9.998284 
2.4865504e+3, 1.5662733e+2, -980145.56, -1383546.4, -60740.055, 0.14867032, -0.0918122, -971198.4, 433850.63, 0.09400845, 10.004166, 9.9982605 
2.4864182e+3, 1.6662501e+2, -759723.25, -1140698.5, -182342.23, 0.18871562, -0.11321563, -686517.44, 620552.9, 0.03200842, 10.004399, 9.999163 
2.4862862e+3, 1.7662364e+2, -598017.8, -1054686.1, -188255.03, 0.32832623, -0.083938286, -530418.8, 678662.56, 0.006225684, 10.00491, 9.998806 
2.4861565e+3, 1.866212e+2, -719712.8, -1165585.3, -36564.227, 0.42909828, -0.0677451, -716734.25, 394371.5, 0.00043419475, 10.00382, 9.997888 
2.4860284e+3, 1.9661823e+2, -929419.25, -1254652.9, -19898.389, 0.512569, -0.07066625, -928206.3, 84930.69, 0.00000583165, 10.001873, 9.997542 
2.4858958e+3, 2.0661464e+2, -869228.94, -1246348.9, -85224.43, 0.33770767, -0.0544791, -850863.6, 64309.617, 0.0, 10.00193, 9.996892 
2.485761e+3, 2.16611e+2, -613878.3, -1080714.0, -63574.91, 0.019628234, -0.028092505, -605375.4, 211834.42, 0.0, 10.003041, 9.996824 
2.4856307e+3, 2.266078e+2, -696972.7, -984624.2, 43105.918, 0.02185326, 0.018312056, -690651.94, 28591.855, 0.0, 10.001438, 9.99758 
2.485503e+3, 2.3660496e+2, -1035315.1, -1081639.9, 74179.086, 0.20842883, 0.06067585, -980766.3, -359490.97, 0.0, 9.998374, 9.99772 
2.4853726e+3, 2.4660246e+2, -813111.94, -696148.0, -3045.5066, 0.23566598, 0.015716288, -696068.75, -172770.1, 0.0, 9.998251, 9.999747 
2.4852407e+3, 2.5660035e+2, -525590.4, -538906.94, -40761.043, 0.16748351, -0.08707953, -490947.4, -65632.125, 0.0, 9.999689, 9.999463 
2.4851109e+3, 2.665989e+2, -566472.0, -544422.1, 29830.365, 0.17619146, -0.06632092, -523644.53, -196315.06, 0.0, 9.998891, 9.999135 
2.4849826e+3, 2.7659816e+2, -779308.4, -603292.4, 55761.496, 0.26402023, 0.025101287, -587114.2, -357774.53, 0.0, 9.996787, 9.999073 
2.4848537e+3, 2.8659743e+2, -787439.9, -433312.63, 37515.65, 0.31191704, 0.07803734, -429381.9, -298035.13, 0.0, 9.99553, 10.000173 
2.4847232e+3, 2.9659665e+2, -836897.25, -464191.03, 27008.95, 0.22489035, 0.068998076, -462243.94, -428890.75, 0.0, 9.99476, 9.999665 
2.4845918e+3, 3.0659527e+2, -918971.0, -699573.5, 79231.445, 0.08857237, 0.16385306, -673952.5, -673952.5, 0.0, 9.994816, 9.997687 
2.4844636e+3, 3.1658936e+2, -680672.56, -228860.05, 65401.484, 0.2837683, -0.10490064, -219583.42, -219583.42, 0.0, 9.99489, 10.000892 
2.4969499e+3, 1.2676959e+2, -1149474.0, -1507757.1, -70940.305, 0.14391156, 0.22618265, -1135939.1, 561715.3, 0.419845, 10.007128, 9.9989195 
2.4968164e+3, 1.3676192e+2, -1151890.8, -1526857.3, -49577.168, 0.124770366, -0.34285498, -1145446.6, 454272.38, 0.3022777, 10.005368, 9.998249 
2.4966839e+3, 1.4675859e+2, -1184170.3, -1709387.3, -9530.715, 0.071523935, -0.3049483, -1183997.4, 317756.66, 0.18292636, 10.004447, 9.996548 
2.4965525e+3, 1.5675756e+2, -1085502.5, -1611648.9, -65090.758, 0.03646376, 0.017384546, -1077569.6, 326203.38, 0.08626388, 10.004086, 9.996726 
2.4964216e+3, 1.667548e+2, -821556.56, -1242238.5, -153285.83, 0.19574839, 0.05160022, -771628.7, 534175.1, 0.028282266, 10.004256, 9.998514 
2.4962912e+3, 1.7675139e+2, -660279.3, -1131485.6, -172601.47, 0.43823463, -0.059148386, -603820.6, 604017.2, 0.005075638, 10.004671, 9.998394 
2.4961594e+3, 1.8675014e+2, -669030.56, -1037214.1, -105962.34, 0.4300442, 0.039255656, -640712.9, 469136.28, 0.00028139996, 10.003713, 9.998825 
2.496027e+3, 1.9674999e+2, -857769.94, -1129689.4, -71564.305, 0.2962588, 0.22504239, -840085.56, 171763.4, 0.0000014559189, 10.001968, 9.998358 
2.4958958e+3, 2.0674545e+2, -842400.1, -1199968.8, -42500.953, 0.2194811, 0.09501983, -837417.8, 76475.29, 0.0, 10.001965, 9.997198 
2.4957646e+3, 2.1673892e+2, -608411.75, -1029063.5, -46165.08, 0.16665281, -0.19659518, -603404.9, 212552.7, 0.0, 10.002859, 9.997272 
2.4956334e+3, 2.2673622e+2, -624503.8, -819082.44, -77620.58, 0.22926888, -0.18893662, -597333.7, 120650.195, 0.0, 10.001366, 9.998756 
2.495502e+3, 2.3673563e+2, -960537.5, -961261.44, -16734.004, 0.3513191, -0.037251774, -944161.56, -324172.3, 0.0, 9.998515, 9.998483 
2.4953708e+3, 2.4673405e+2, -888644.0, -881535.0, 47716.332, 0.31993714, 0.055821735, -837240.94, -315232.66, 0.0, 9.9983635, 9.998426 
2.49524e+3, 2.5673217e+2, -593979.0, -681743.75, -5555.509, 0.20589995, 0.107843526, -593628.75, -169596.7, 0.0, 9.999681, 9.998492 
2.4951094e+3, 2.6673037e+2, -518332.6, -443027.16, -50951.94, 0.23704177, 0.089956425, -417325.1, -91275.98, 0.0, 9.998875, 9.999845 
2.4949795e+3, 2.767288e+2, -733705.94, -518311.8, -16163.418, 0.35170573, 0.033266813, -517105.63, -289044.78, 0.0, 9.996819, 9.999647 
2.494848e+3, 2.8672832e+2, -793796.9, -452855.22, 2725.084, 0.2671318, 0.091881916, -452833.44, -322764.47, 0.0, 9.995543, 10.000041 
2.4947153e+3, 2.967287e+2, -814698.5, -414438.8, 7142.489, 0.03408434, 0.20598981, -414311.4, -382239.16, 0.0, 9.994734, 10.000026 
2.4945849e+3, 3.0672842e+2, -691179.94, -235564.39, 98634.04, 0.0019509792, 0.21671261, -215128.23, -215128.23, 0.0, 9.99484, 10.000867 
2.4944575e+3, 3.1673e+2, -576091.6, -47166.996, 41240.605, 0.26369527, 0.38648224, -43970.754, -43970.754, 0.0, 9.995038, 10.002069 
2.5069532e+3, 1.2689914e+2, -1447324.4, -1729880.4, -47092.355, 0.03135717, 0.1166021, -1439682.4, 256699.98, 0.39686117, 10.003916, 9.998032 
2.5068212e+3, 1.3689236e+2, -1241293.6, -1635661.1, -109826.1, 0.21209419, -0.27540213, -1212771.4, 385672.1, 0.28379354, 10.004688, 9.997675 
2.5066888e+3, 1.4688912e+2, -1139625.3, -1615158.4, -49071.668, 0.21379237, -0.2477937, -1134614.3, 365862.03, 0.1698286, 10.004468, 9.997184 
2.5065565e+3, 1.5688778e+2, -1102800.8, -1581504.0, 523.5485, 0.16883771, -0.014199118, -1102800.1, 299693.38, 0.07855891, 10.003767, 9.997078 
2.5064248e+3, 1.6688481e+2, -1008944.5, -1422699.0, -34875.563, 0.23231466, 0.037852887, -1006025.4, 298502.94, 0.024852255, 10.003318, 9.997707 
2.5062934e+3, 1.768812e+2, -940546.0, -1328949.5, -65799.51, 0.34216413, -0.01111983, -929701.7, 276868.03, 0.0041352287, 10.003011, 9.9978285 
2.506161e+3, 1.8687965e+2, -751021.94, -1021172.25, -40530.008, 0.32946116, 0.055734657, -745072.3, 363510.78, 0.00018434241, 10.00292, 9.9993105 
2.5060284e+3, 1.9687927e+2, -694731.3, -1009141.56, -32822.508, 0.2538238, 0.1748304, -691341.4, 319240.22, 0.00000026313862, 10.002913, 9.998727 
2.505897e+3, 2.0687537e+2, -846194.2, -1206819.9, -12744.514, 0.22741528, 0.09798478, -845744.4, 66877.24, 0.0, 10.001966, 9.997148 
2.5057662e+3, 2.1686985e+2, -931119.94, -1168130.8, -46283.05, 0.23514736, -0.089451246, -922402.5, -107721.81, 0.0, 10.000585, 9.997408 
2.505634e+3, 2.2686751e+2, -670508.9, -753816.0, -117226.57, 0.29709387, -0.09725823, -587755.5, 128946.766, 0.0, 10.000674, 9.999536 
2.5055015e+3, 2.3686701e+2, -497233.97, -671929.6, -79075.555, 0.38636765, -0.013025839, -466757.4, 151945.58, 0.0, 10.001418, 9.999065 
2.5053695e+3, 2.4686567e+2, -647016.5, -800909.5, 34766.57, 0.32895064, 0.098385476, -639526.75, -118806.31, 0.0, 10.000182, 9.9981 
2.5052378e+3, 2.5686407e+2, -864217.44, -837494.25, 41979.88, 0.20163572, 0.2111072, -806800.9, -384056.22, 0.0, 9.997942, 9.998257 
2.5051066e+3, 2.6686195e+2, -757338.3, -535686.4, -20722.701, 0.23455065, 0.15892392, -533765.6, -209001.0, 0.0, 9.9971485, 10.000035 
2.5049755e+3, 2.7685967e+2, -686714.0, -473662.78, -28621.74, 0.3558189, 0.016428942, -469884.7, -243104.08, 0.0, 9.997055, 9.999836 
2.504843e+3, 2.8685933e+2, -727884.94, -412524.94, -14439.753, 0.24530792, 0.07716621, -411865.16, -283076.2, 0.0, 9.995968, 10.000108 
2.5047085e+3, 2.9686028e+2, -844654.6, -380398.03, 10878.113, -0.007930344, 0.24205089, -380143.28, -349353.4, 0.0, 9.994326, 10.000452 
2.504579e+3, 3.068617e+2, -696087.56, 24312.977, 112632.9, 0.06615083, 0.26781252, 41512.234, 41512.234, 0.0, 9.993684, 10.003205 
2.5044513e+3, 3.168669e+2, -676019.8, 37064.84, -4144.6772, 0.2668529, 0.57294136, 37088.93, 37088.93, 0.0, 9.993787, 10.003251 
2.5169548e+3, 1.2702748e+2, -1495640.0, -2004123.9, -33105.02, -0.10477972, -0.17616975, -1493493.8, 201626.95, 0.37155643, 10.00427, 9.995955 
2.5168276e+3, 1.3702463e+2, -1252899.4, -1790301.8, -72387.72, 0.4583217, 0.020517968, -1243319.5, 353837.38, 0.26400438, 10.005109, 9.996363 
2.516696e+3, 1.4702144e+2, -974886.5, -1346771.6, -47828.848, 0.536142, -0.0024673454, -968833.7, 530351.75, 0.1563141, 10.004867, 9.999026 
2.5165623e+3, 1.5701827e+2, -966912.56, -1372851.3, -17503.043, 0.41825128, -0.130455, -966159.3, 435049.66, 0.070979945, 10.004136, 9.998351 
2.5164276e+3, 1.6701531e+2, -1035314.94, -1541844.8, -47884.8, 0.2698616, -0.07211839, -1030827.94, 272416.4, 0.021689083, 10.003574, 9.99677 
2.516293e+3, 1.7701256e+2, -974139.7, -1423926.9, -70654.72, 0.10594089, 0.053935286, -963302.0, 241981.6, 0.0033525575, 10.00311, 9.997133 
2.5161615e+3, 1.8700968e+2, -739651.2, -1000529.4, -39438.61, 0.16672762, 0.0054501677, -733819.3, 373490.3, 0.00011963708, 10.002924, 9.999455 
2.5160313e+3, 1.9700699e+2, -707911.25, -1016574.25, -43905.824, 0.32309964, -0.11767913, -701787.3, 307539.9, 0.00000002568285, 10.002821, 9.998724 
2.515899e+3, 2.070049e+2, -872808.5, -1258864.0, -66162.77, 0.31045875, 0.009577371, -861784.2, 49569.55, 0.0, 10.001944, 9.996805 
2.5157657e+3, 2.1700315e+2, -930420.44, -1187271.8, -75455.21, 0.22216783, 0.23199517, -909894.25, -96510.73, 0.0, 10.000664, 9.997243 
2.5156334e+3, 2.2700104e+2, -632819.8, -684781.25, -82977.74, 0.24663468, 0.22325315, -571850.5, 143553.02, 0.0, 10.000706, 9.999999 
2.5155014e+3, 2.3699898e+2, -477251.63, -612776.75, -68497.12, 0.3203611, 0.10616148, -448662.66, 168754.0, 0.0, 10.001333, 9.999518 
2.5153682e+3, 2.4699734e+2, -620813.2, -731948.1, -52747.004, 0.26602277, 0.13898207, -599764.8, -80330.24, 0.0, 10.000111, 9.998611 
2.5152344e+3, 2.5699604e+2, -837089.8, -786427.44, -28507.91, 0.14579801, 0.23114513, -773622.44, -352169.06, 0.0, 9.997956, 9.998605 
2.515102e+3, 2.669935e+2, -773738.75, -582240.06, -25813.1, 0.15968952, 0.14702049, -578821.6, -255344.84, 0.0, 9.99719, 9.9997015 
2.5149706e+3, 2.7699068e+2, -694013.2, -500317.97, -41459.387, 0.2518824, -0.022423502, -491816.94, -266317.2, 0.0, 9.997094, 9.99964 
2.514838e+3, 2.8699034e+2, -707883.2, -376528.3, -79810.53, 0.24810122, 0.034014493, -358307.03, -230799.66, 0.0, 9.995981, 10.000354 
2.5147033e+3, 2.9699153e+2, -806170.4, -304646.7, -40983.58, 0.13518463, 0.19287854, -301319.66, -271814.94, 0.0, 9.994336, 10.000971 
2.5145736e+3, 3.069948e+2, -589277.0, 243400.84, 107751.4, 0.24294585, 0.2905452, 257118.27, 257118.27, 0.0, 9.993679, 10.00472 
2.5144416e+3, 3.1699502e+2, -584106.5, 235687.58, 56194.61, 0.028620055, -0.0532293, 239521.64, 239521.64, 0.0, 9.993762, 10.004622 
2.5269616e+3, 1.271598e+2, -1275588.0, -1773846.1, 63582.02, 0.09557751, -0.2319564, -1267602.4, 426219.13, 0.344836, 10.006133, 9.996662 
2.5268322e+3, 1.3715817e+2, -1006625.9, -1595126.4, 114157.92, 0.3925409, 0.029320251, -985257.3, 610587.56, 0.24351709, 10.007027, 9.996813 
2.5267e+3, 1.4715461e+2, -745106.0, -1279014.0, 89054.03, 0.44258422, -0.013664587, -730643.8, 767233.25, 0.14268951, 10.006862, 9.998579 
2.5265664e+3, 1.5715036e+2, -707319.5, -1294655.3, 23875.28, 0.4040318, -0.20252952, -706350.56, 693561.1, 0.06361514, 10.006236, 9.997905 
2.5264317e+3, 1.6714744e+2, -848611.6, -1500119.5, -30174.047, 0.30157986, -0.09135773, -847217.1, 454731.0, 0.018777212, 10.005097, 9.996318 
2.526296e+3, 1.7714524e+2, -912004.25, -1441581.9, -26866.361, 0.1647741, 0.13958049, -910644.75, 293339.22, 0.0026955868, 10.00375, 9.996699 
2.5261638e+3, 1.8714166e+2, -795805.4, -1082072.5, 1841.3505, 0.21446086, 0.06982115, -795793.5, 310224.66, 0.000075759795, 10.002787, 9.998954 
2.526033e+3, 1.971377e+2, -842190.9, -1106657.1, -41053.023, 0.35127193, -0.13361114, -835964.75, 172084.63, 0.00000000011876218, 10.002018, 9.998486 
2.5258997e+3, 2.0713586e+2, -835846.25, -1143716.0, -27367.148, 0.3028025, -0.02371824, -833432.5, 76639.29, 0.0, 10.001787, 9.997664 
2.5257656e+3, 2.1713513e+2, -726744.5, -1017880.25, 30721.03, 0.17359105, 0.2223363, -723538.06, 88550.46, 0.0, 10.001763, 9.99787 
2.5256327e+3, 2.2713333e+2, -637744.94, -721190.3, 20518.414, 0.191233, 0.24502969, -632972.6, 81134.29, 0.0, 10.000829, 9.999683 
2.5255004e+3, 2.3713121e+2, -758747.25, -768826.4, -21863.414, 0.27803296, 0.15363109, -741350.1, -125225.734, 0.0, 9.9994955, 9.999329 
2.5253665e+3, 2.4712935e+2, -794071.4, -779534.94, -56926.73, 0.2527698, 0.15478845, -729414.3, -211270.39, 0.0, 9.998776, 9.998923 
2.5252318e+3, 2.5712782e+2, -764923.75, -718065.44, -41742.008, 0.1713527, 0.19286641, -693626.9, -273464.3, 0.0, 9.998317, 9.998896 
2.5250986e+3, 2.671258e+2, -675282.75, -520131.94, 9740.0625, 0.15450713, 0.14261165, -519522.88, -197341.6, 0.0, 9.997812, 9.999824 
2.5249666e+3, 2.7712378e+2, -666555.2, -471537.78, 14386.618, 0.19421789, 0.044454813, -470482.2, -246284.0, 0.0, 9.997222, 9.999772 
2.524833e+3, 2.8712335e+2, -645467.75, -320752.53, -47265.277, 0.23146419, 0.07571882, -314012.53, -187807.7, 0.0, 9.996308, 10.000573 
2.524698e+3, 2.9712394e+2, -676037.25, -236867.98, -9043.368, 0.19455491, 0.15800147, -236681.84, -208477.63, 0.0, 9.995214, 10.001008 
2.524567e+3, 3.0712658e+2, -530180.7, 179455.48, 42797.61, 0.25435024, 0.24133189, 182027.25, 182027.25, 0.0, 9.994496, 10.003879 
2.5244355e+3, 3.171248e+2, -597004.44, 194850.17, -209445.55, 0.12285156, -0.23099007, 246835.66, 246835.66, 0.0, 9.99384, 10.004295 
2.53697e+3, 1.2729435e+2, -1161792.5, -1546768.6, 73923.766, 0.41478306, -0.17705783, -1148085.5, 544415.4, 0.31746578, 10.006137, 9.998656 
2.536836e+3, 1.3729267e+2, -991680.75, -1489620.6, 107955.94, 0.14882454, -0.112142384, -969282.8, 625234.2, 0.22283621, 10.006454, 9.997973 
2.5367028e+3, 1.4728855e+2, -895942.44, -1523525.4, 47121.47, 0.1250864, -0.15393457, -892424.06, 604132.8, 0.12921742, 10.006389, 9.996886 
2.5365704e+3, 1.5728359e+2, -816284.2, -1502253.8, -12985.606, 0.23646787, -0.24806304, -816038.44, 582566.56, 0.056549978, 10.00607, 9.996514 
2.536436e+3, 1.672808e+2, -847240.5, -1522623.0, -80640.87, 0.3277516, -0.059068944, -837745.44, 462896.75, 0.016114874, 10.005186, 9.996125 
2.5363013e+3, 1.7727904e+2, -896686.9, -1474497.4, -64820.527, 0.39495218, 0.23626854, -889504.4, 313168.97, 0.002145484, 10.004019, 9.996347 
2.5361675e+3, 1.8727519e+2, -828050.8, -1206630.8, -20239.1, 0.3823085, 0.21252795, -826971.9, 277740.75, 0.000046550977, 10.003027, 9.997987 
2.536034e+3, 1.9727065e+2, -851160.7, -1154526.5, -53395.527, 0.3356598, 0.040902097, -842036.94, 164716.5, 0.0, 10.002137, 9.998103 
2.5359e+3, 2.0726788e+2, -715465.7, -897986.56, -24169.875, 0.2246325, -0.026846256, -712319.3, 196458.94, 0.0, 10.001797, 9.999352 
2.5357658e+3, 2.1726616e+2, -664860.8, -864985.56, 16719.662, 0.086891755, -0.043938488, -663473.56, 147320.64, 0.0, 10.001651, 9.998979 
2.535632e+3, 2.2726482e+2, -709022.0, -864012.25, -34483.797, 0.12735453, 0.038075704, -701696.0, 11114.857, 0.0, 10.000797, 9.998723 
2.5354987e+3, 2.3726375e+2, -800516.94, -873503.7, -64876.848, 0.24483204, 0.14649938, -762573.94, -147747.6, 0.0, 9.999563, 9.998582 
2.5353646e+3, 2.4726167e+2, -777299.75, -761426.94, -74879.266, 0.27535528, 0.14948583, -694064.6, -177215.78, 0.0, 9.998839, 9.9990225 
2.5352302e+3, 2.572594e+2, -743383.1, -685250.6, -57618.277, 0.25425658, 0.10508787, -649782.25, -230910.39, 0.0, 9.998358, 9.999106 
2.535096e+3, 2.6725876e+2, -634640.44, -442388.16, -12927.117, 0.20804921, 0.15043415, -441522.84, -120644.53, 0.0, 9.99783, 10.000355 
2.5349626e+3, 2.7725896e+2, -631239.0, -409110.53, -12384.897, 0.1767804, 0.22398116, -408422.13, -185546.17, 0.0, 9.997259, 10.000188 
2.534828e+3, 2.8725827e+2, -631499.7, -299863.3, -90448.445, 0.17748865, 0.20230183, -276799.03, -151917.19, 0.0, 9.996333, 10.0007105 
2.5346914e+3, 2.9725733e+2, -712907.4, -328156.56, -41928.625, 0.10345703, 0.12661006, -323640.38, -296750.28, 0.0, 9.995269, 10.00036 
2.5345594e+3, 3.072568e+2, -779113.3, -351925.38, 10133.299, 0.124561206, 0.13882397, -351685.16, -351685.16, 0.0, 9.994545, 10.000212 
2.5344306e+3, 3.1725472e+2, -735235.1, -127482.91, -284243.6, 0.34343055, -0.0044383565, -15263.935, -15263.935, 0.0, 9.993951, 10.0020485 
2.5469756e+3, 1.2742753e+2, -1126226.0, -1550961.0, 43798.594, 0.45283568, -0.22414805, -1121756.5, 569438.8, 0.2901254, 10.006389, 9.998428 
2.5468397e+3, 1.3742611e+2, -1267870.8, -1652276.8, 2494.3337, 0.093099535, -0.11443638, -1267854.5, 325354.2, 0.20239988, 10.004021, 9.997814 
2.5467065e+3, 1.4742193e+2, -1186987.6, -1696953.1, -2885.4458, 0.09974738, -0.15196303, -1186971.4, 308278.63, 0.116124034, 10.00411, 9.996786 
2.5465754e+3, 1.5741684e+2, -924265.5, -1550427.1, -6519.41, 0.29025918, -0.25010672, -924197.6, 473102.97, 0.04986128, 10.005233, 9.996582 
2.5464407e+3, 1.6741401e+2, -723847.2, -1389212.0, -44245.426, 0.3208302, -0.10627615, -720917.8, 578417.5, 0.013704668, 10.005728, 9.996776 
2.5463045e+3, 1.7741224e+2, -599198.25, -1292218.0, 4656.9746, 0.28420198, 0.13052177, -599166.94, 602195.1, 0.0016894683, 10.005906, 9.996687 
2.5461698e+3, 1.8740878e+2, -611390.6, -1178054.3, 47695.07, 0.29161802, 0.17543386, -607404.25, 495996.1, 0.000027889511, 10.004847, 9.997304 
2.5460356e+3, 1.9740471e+2, -717823.56, -1139043.9, 28684.406, 0.3113511, 0.124160364, -715879.2, 289562.3, 0.0, 10.00327, 9.997661 
2.545901e+3, 2.0740148e+2, -704475.3, -862285.3, 16625.25, 0.2381381, 0.013088327, -702742.9, 204727.52, 0.0, 10.001751, 9.999615 
2.5457662e+3, 2.1739887e+2, -847246.1, -932504.4, -20533.832, 0.13101189, -0.117293924, -842558.44, -33066.62, 0.0, 10.0003195, 9.999152 
2.5456318e+3, 2.2739772e+2, -779631.5, -917552.0, -43105.883, 0.15764895, -0.012369344, -767267.5, -55760.406, 0.0, 10.000409, 9.998536 
2.545498e+3, 2.3739728e+2, -586822.94, -774595.75, -35571.836, 0.24520671, 0.17803423, -580310.06, 33208.523, 0.0, 10.001061, 9.998532 
2.5453636e+3, 2.4739526e+2, -526895.2, -592544.75, -31627.428, 0.28054255, 0.16454682, -514137.53, 1401.9753, 0.0, 10.00036, 9.999445 
2.5452283e+3, 2.5739282e+2, -619174.75, -582994.4, 2906.4373, 0.28487083, 0.06466044, -582762.4, -165200.45, 0.0, 9.999038, 9.999476 
2.545093e+3, 2.673925e+2, -673508.75, -440429.34, 29712.023, 0.21213414, 0.11783746, -436701.4, -117136.0, 0.0, 9.997485, 10.000528 
2.544958e+3, 2.773932e+2, -828275.7, -495367.47, 11115.913, 0.13741843, 0.22732373, -494996.72, -273437.6, 0.0, 9.995878, 10.000257 
2.5448227e+3, 2.873924e+2, -646752.7, -335841.28, -56956.066, 0.13750724, 0.21226102, -325735.9, -202171.0, 0.0, 9.996361, 10.000445 
2.5446868e+3, 2.9739106e+2, -423395.06, -251152.13, -46533.395, 0.088782474, 0.12727161, -239384.55, -213809.27, 0.0, 9.997533, 9.999793 
2.5445536e+3, 3.0738857e+2, -577564.06, -412849.25, 74105.164, 0.079610415, 0.059333798, -384417.13, -384417.13, 0.0, 9.996626, 9.998782 
2.5444227e+3, 3.1738597e+2, -765844.6, -293586.88, -57146.656, 0.2213377, 0.008281306, -286770.13, -286770.13, 0.0, 9.9944105, 10.000676 
2.55698e+3, 1.2756048e+2, -1162296.0, -1683841.6, -13886.057, 0.3378893, -0.30597973, -1161926.6, 527966.4, 0.26336896, 10.006504, 9.99708 
2.5568432e+3, 1.3755931e+2, -1212058.9, -1720043.9, -33801.76, 0.124457404, -0.04327938, -1209819.5, 382087.9, 0.18256763, 10.004828, 9.996964 
2.556711e+3, 1.4755534e+2, -1069980.1, -1558059.6, 40534.313, 0.21575208, -0.07445564, -1066636.6, 427310.16, 0.10359055, 10.004624, 9.9974985 
2.5565812e+3, 1.5755044e+2, -883848.5, -1444392.6, 24759.242, 0.45025685, -0.22672132, -882757.0, 513237.22, 0.043604657, 10.005115, 9.997372 
2.556445e+3, 1.6754742e+2, -691636.3, -1250938.1, -39813.402, 0.27851745, -0.20044017, -688816.44, 609208.8, 0.011543496, 10.005406, 9.997886 
2.556306e+3, 1.7754534e+2, -604748.56, -1218539.0, -7822.643, -0.045733515, -0.102277875, -604648.9, 595399.4, 0.0013158717, 10.005532, 9.997375 
2.556171e+3, 1.875426e+2, -679528.56, -1271308.8, -12922.462, 0.037860926, 0.02557089, -679246.56, 422834.84, 0.000016496271, 10.00463, 9.996773 
2.5560376e+3, 1.9753975e+2, -762585.7, -1225269.3, -23521.756, 0.2726582, 0.14647283, -761392.94, 242723.9, 0.0, 10.003233, 9.997091 
2.5559023e+3, 2.0753632e+2, -747326.56, -970705.06, -34391.06, 0.30883378, 0.086648, -742151.6, 163999.36, 0.0, 10.001828, 9.998837 
2.5557667e+3, 2.1753299e+2, -864809.4, -997874.06, -49351.586, 0.26209742, -0.04294033, -848503.75, -40321.727, 0.0, 10.000438, 9.998651 
2.5556323e+3, 2.2753185e+2, -747504.3, -860550.8, -11735.341, 0.25310475, 0.059884768, -746298.9, -36102.95, 0.0, 10.000444, 9.998915 
2.5554985e+3, 2.375317e+2, -567662.06, -714407.75, -22937.252, 0.25847822, 0.23975582, -564160.44, 48041.477, 0.0, 10.000964, 9.998997 
2.555363e+3, 2.4753e+2, -490732.47, -498444.06, -80157.49, 0.262798, 0.19687799, -414338.1, 99879.305, 0.0, 10.000269, 10.000139 
2.555226e+3, 2.575279e+2, -588952.8, -517321.0, -48155.69, 0.25524458, 0.06408546, -493122.3, -76887.73, 0.0, 9.999016, 9.999943 
2.555089e+3, 2.6752684e+2, -685982.44, -472339.25, -35791.64, 0.16013542, 0.040819474, -466502.53, -148258.61, 0.0, 9.9975, 10.000307 
2.5549522e+3, 2.7752638e+2, -844132.0, -539005.94, -24253.602, 0.05000173, 0.05542691, -537090.1, -316841.78, 0.0, 9.995914, 9.999945 
2.554818e+3, 2.8752562e+2, -686940.8, -435637.06, -9167.53, 0.114234194, 0.10222845, -435303.06, -313047.6, 0.0, 9.996417, 9.999741 
2.5546843e+3, 2.9752505e+2, -429743.2, -294266.38, -22252.576, 0.17946449, 0.16112873, -290704.94, -266443.47, 0.0, 9.997653, 9.999445 
2.5545493e+3, 3.0752212e+2, -495794.84, -270696.03, 283.70892, 0.06503134, 0.002666879, -270695.66, -270695.66, 0.0, 9.996736, 9.999711 
2.5544164e+3, 3.1752253e+2, -776263.94, -333888.1, -100489.18, 0.22856791, 0.17040913, -312131.22, -312131.22, 0.0, 9.994483, 10.000369 
2.566986e+3, 1.2769757e+2, -1090698.3, -1774778.9, 64059.6, 0.32498577, -0.14909542, -1084751.3, 603800.94, 0.23759426, 10.007496, 9.995989 
2.5668505e+3, 1.3769351e+2, -788222.4, -1573949.3, 46123.113, 0.25932452, -0.064353086, -785524.2, 805072.0, 0.16359949, 10.00862, 9.996161 
2.5667167e+3, 1.4768952e+2, -759476.06, -1415478.9, 69486.18, 0.24711244, -0.057677582, -752196.6, 740440.4, 0.091747485, 10.006985, 9.997388 
2.5665838e+3, 1.5768564e+2, -970326.6, -1470119.1, 25180.05, 0.29604387, -0.09855714, -969061.25, 425614.1, 0.037815634, 10.004397, 9.997538 
2.566448e+3, 1.6768245e+2, -922352.7, -1269834.3, -25859.28, 0.21688548, -0.14752977, -920438.8, 376265.6, 0.009623167, 10.003403, 9.998715 
2.5663105e+3, 1.7767973e+2, -915377.56, -1286301.5, -12226.949, 0.074369706, -0.19160846, -914975.0, 283753.16, 0.0010124278, 10.00305, 9.9981 
2.5661746e+3, 1.8767731e+2, -881113.75, -1318103.1, 6771.6563, 0.09354984, -0.08676595, -881008.9, 219748.31, 0.000009793076, 10.003041, 9.997211 
2.566039e+3, 1.9767512e+2, -767632.1, -1212716.8, 41563.44, 0.19028427, 0.06558596, -763784.06, 239002.78, 0.0, 10.003144, 9.997215 
2.5659037e+3, 2.076722e+2, -666131.06, -1016720.8, 35223.703, 0.2757335, 0.10043239, -662627.2, 242192.02, 0.0, 10.00276, 9.998069 
2.565768e+3, 2.1766917e+2, -646200.3, -938747.0, 20914.527, 0.34420055, 0.079851635, -644712.7, 162137.78, 0.0, 10.002144, 9.998232 
2.5656325e+3, 2.2766726e+2, -670847.75, -760694.3, 77075.6, 0.27538124, 0.0879477, -626559.2, 82309.73, 0.0, 10.000707, 9.999472 
2.5654966e+3, 2.37666e+2, -829408.56, -794592.06, 71799.516, 0.16637935, 0.10759272, -738120.56, -127240.25, 0.0, 9.998979, 9.999399 
2.5653598e+3, 2.4766473e+2, -812792.56, -662539.9, -24606.264, 0.15257357, 0.10375165, -658612.9, -145720.89, 0.0, 9.998107, 10.00005 
2.5652227e+3, 2.576636e+2, -805831.3, -631853.44, -42494.01, 0.17076495, 0.077953644, -622029.06, -207126.7, 0.0, 9.997578, 9.999846 
2.565086e+3, 2.6766205e+2, -624723.6, -460397.2, -28312.6, 0.15891927, 0.021924289, -455655.88, -138739.5, 0.0, 9.998008, 10.00014 
2.5649494e+3, 2.7766058e+2, -452570.78, -358734.53, -12582.983, 0.14817424, -0.048324578, -357076.5, -138146.7, 0.0, 9.99865, 9.999859 
2.5648147e+3, 2.876601e+2, -506718.0, -330219.3, 59874.41, 0.17380862, 0.016846478, -311824.88, -190889.92, 0.0, 9.99759, 9.999891 
2.5646803e+3, 2.9766023e+2, -663373.3, -378452.0, 98364.65, 0.1725441, 0.13438301, -347792.34, -324857.34, 0.0, 9.995939, 9.999688 
2.5645438e+3, 3.0765754e+2, -643597.06, -278669.84, 96689.125, -0.0124476915, -0.03652761, -254634.67, -254634.67, 0.0, 9.995456, 10.00027 
2.5644118e+3, 3.1766164e+2, -568847.25, -130616.91, -31677.861, 0.36902568, 0.4457446, -128338.89, -128338.89, 0.0, 9.995478, 10.001279 
2.5769928e+3, 1.2783664e+2, -1085034.0, -1875873.1, 80709.68, 0.3424361, 0.11056361, -1076881.1, 610311.75, 0.2131102, 10.0077915, 9.995149 
2.57686e+3, 1.3782848e+2, -893942.0, -1729281.9, 48470.773, 0.42648646, -0.13265763, -891138.9, 698138.44, 0.14569014, 10.008011, 9.995373 
2.5767225e+3, 1.4782447e+2, -844888.0, -1520667.4, -14688.673, 0.21448994, -0.06492204, -844568.9, 646751.25, 0.080692455, 10.006546, 9.996828 
2.5765836e+3, 1.5782201e+2, -978891.6, -1501535.4, -31681.574, -0.03885451, 0.08815032, -976978.2, 416368.44, 0.03252265, 10.004425, 9.9973135 
2.5764498e+3, 1.6781864e+2, -861042.3, -1171467.8, -26589.338, 0.1532212, -0.0113331, -858781.25, 436593.72, 0.007936235, 10.003517, 9.999344 
2.5763166e+3, 1.7781518e+2, -859975.6, -1179487.4, -15565.561, 0.46197772, -0.1941357, -859219.1, 338182.84, 0.00076767127, 10.003079, 9.998823 
2.576179e+3, 1.878128e+2, -814426.0, -1172376.1, 7572.393, 0.3297972, -0.17532848, -814265.94, 285161.56, 0.000005913737, 10.003005, 9.998232 
2.57604e+3, 1.9781096e+2, -750107.1, -1146688.0, 29885.285, 0.063339, -0.08410232, -747867.7, 253583.45, 0.0, 10.003012, 9.997735 
2.5759044e+3, 2.0780897e+2, -734626.9, -1139955.8, 7615.082, 0.16588539, 0.07745793, -734483.8, 168992.88, 0.0, 10.00267, 9.99727 
2.5757694e+3, 2.1780702e+2, -679910.3, -997521.1, -8658.415, 0.37549028, 0.23698276, -679674.44, 125827.195, 0.0, 10.002089, 9.997859 
2.5756317e+3, 2.2780368e+2, -625710.0, -664712.2, 11432.042, 0.23258092, 0.07293947, -622606.1, 84922.96, 0.0, 10.000688, 10.000145 
2.5754926e+3, 2.378002e+2, -811832.94, -757360.6, 16095.578, -0.025832301, -0.19028576, -752960.2, -143405.6, 0.0, 9.998967, 9.999664 
2.575355e+3, 2.4779956e+2, -865267.75, -779957.75, -49616.426, -0.04526956, -0.09074164, -757181.56, -245618.33, 0.0, 9.9981365, 9.999233 
2.5752178e+3, 2.5779995e+2, -839159.8, -717479.75, -49368.03, 0.019948976, 0.11627666, -699969.8, -286404.63, 0.0, 9.997641, 9.999233 
2.5750834e+3, 2.677981e+2, -626081.06, -476365.63, -1140.3638, 0.20629053, 0.058260836, -476356.94, -160773.55, 0.0, 9.998052, 10.000017 
2.57495e+3, 2.7779573e+2, -431477.13, -330514.4, -7912.313, 0.42544293, -0.088220805, -329898.1, -112293.836, 0.0, 9.998708, 10.00003 
2.5748128e+3, 2.8779578e+2, -431146.1, -183801.34, -8171.106, 0.2993491, -0.043186635, -183531.7, -63928.484, 0.0, 9.9976225, 10.000887 
2.5746736e+3, 2.977967e+2, -603112.9, -252570.67, 52130.313, 0.0100788595, 0.057059754, -244982.47, -223388.53, 0.0, 9.995924, 10.000565 
2.574537e+3, 3.0779508e+2, -620619.0, -230120.8, 102026.125, -0.1315969, -0.064911656, -205071.14, -205071.14, 0.0, 9.99544, 10.000619 
2.5744054e+3, 3.177987e+2, -422145.8, 150693.75, -92013.984, 0.2604581, 0.31781468, 165110.92, 165110.92, 0.0, 9.995565, 10.003175 
2.5870004e+3, 1.2797172e+2, -849364.25, -1685412.6, -24397.191, 0.3082607, 0.103101395, -848652.9, 837223.2, 0.19017051, 10.009372, 9.995688 
2.5868648e+3, 1.3796525e+2, -1164995.3, -1815413.5, 415.1444, 0.34403378, -0.027013252, -1164995.0, 422949.44, 0.12898982, 10.005462, 9.996004 
2.5867268e+3, 1.4796153e+2, -1055914.4, -1551657.5, 34399.883, 0.22412452, 0.0046492945, -1053538.8, 436443.4, 0.070487335, 10.004584, 9.9975605 
2.586589e+3, 1.5795898e+2, -900298.9, -1410029.9, 76465.695, 0.092628345, 0.084139965, -889075.25, 502931.7, 0.027735041, 10.004742, 9.997786 
2.5864533e+3, 1.6795613e+2, -781930.44, -1159208.1, 73937.01, 0.23735268, 0.039851174, -767958.06, 526072.7, 0.0064718816, 10.004176, 9.999106 
2.5863189e+3, 1.7795329e+2, -834792.6, -1195345.9, 40949.555, 0.46185955, -0.053224586, -830200.3, 365852.88, 0.0005723577, 10.003376, 9.99857 
2.586181e+3, 1.8795025e+2, -882351.75, -1232378.1, 7079.889, 0.3487884, -0.072238415, -882208.6, 215876.25, 0.0000035552432, 10.002658, 9.997986 
2.5860423e+3, 1.9794743e+2, -897332.44, -1213092.8, -38001.688, 0.12765108, -0.06025657, -892823.3, 107293.75, 0.0, 10.001986, 9.997771 
2.5859055e+3, 2.0794547e+2, -816713.44, -1103525.6, -10255.414, 0.17203368, 0.055926103, -816347.2, 85793.04, 0.0, 10.00179, 9.997939 
2.58577e+3, 2.1794388e+2, -705488.1, -957870.75, 38458.254, 0.30486378, 0.19104359, -699757.94, 104401.13, 0.0, 10.0017, 9.998313 
2.585631e+3, 2.279409e+2, -641113.25, -682176.44, 10001.775, 0.20312443, 0.055668116, -638806.7, 67375.44, 0.0, 10.000641, 10.000039 
2.5854915e+3, 2.3793766e+2, -780344.06, -768641.2, -20875.334, 0.024629865, -0.17197804, -752812.7, -144607.58, 0.0, 9.999304, 9.999421 
2.5853533e+3, 2.4793622e+2, -760966.25, -786046.2, -43728.25, 0.008915666, -0.10908341, -728015.44, -217792.81, 0.0, 9.999103, 9.998721 
2.5852156e+3, 2.5793564e+2, -629881.44, -640260.1, -28613.182, 0.056766253, 0.048194304, -605990.8, -193755.17, 0.0, 9.999191, 9.999008 
2.5850806e+3, 2.6793453e+2, -620922.44, -428623.25, 42581.27, 0.22052173, 0.0492194, -419616.25, -105369.625, 0.0, 9.997909, 10.000404 
2.5849465e+3, 2.779334e+2, -770694.2, -449096.03, 64202.133, 0.43169102, -0.013516794, -436752.8, -220497.27, 0.0, 9.996195, 10.0004225 
2.5848085e+3, 2.8793326e+2, -662227.75, -242918.34, 33254.973, 0.27560508, -0.022122005, -240297.31, -122042.45, 0.0, 9.995821, 10.001346 
2.5846678e+3, 2.9793367e+2, -595223.5, -202387.58, 56390.863, -0.069387004, -0.020260181, -194453.05, -174203.33, 0.0, 9.995788, 10.000971 
2.5845316e+3, 3.079331e+2, -616362.06, -198003.48, 105627.914, -0.13367446, -0.06649391, -172847.05, -172847.05, 0.0, 9.995354, 10.000874 
2.5843984e+3, 3.1793505e+2, -525311.4, 141030.28, -149292.81, 0.15966201, 0.11999099, 172950.05, 172950.05, 0.0, 9.994697, 10.003523 
2.5970078e+3, 1.2810546e+2, -903412.1, -1612640.9, -121752.13, 0.22106263, -0.013054474, -883093.25, 801480.3, 0.16890222, 10.008187, 9.996852 
2.596867e+3, 1.3810326e+2, -1091769.0, -1643715.9, -63824.668, 0.1223476, 0.16608493, -1084484.8, 502115.97, 0.113581546, 10.005381, 9.99723 
2.596731e+3, 1.4809993e+2, -944365.8, -1352122.1, 51912.21, 0.25685886, 0.103950374, -937860.56, 550770.06, 0.06116453, 10.004703, 9.998936 
2.5965965e+3, 1.5809655e+2, -848497.0, -1305277.5, 69467.39, 0.46844098, -0.02831233, -838166.0, 552492.56, 0.023451481, 10.004732, 9.998526 
2.596458e+3, 1.6809466e+2, -836470.25, -1273251.0, 34491.59, 0.3830788, 0.048623383, -833763.3, 458912.0, 0.005217854, 10.0041685, 9.998325 
2.5963187e+3, 1.7809325e+2, -902132.75, -1330381.1, 3482.7063, 0.20977549, 0.17723446, -902104.4, 292584.2, 0.0004193728, 10.00335, 9.997659 
2.5961816e+3, 1.8808915e+2, -953866.4, -1389290.5, -21194.5, 0.2349085, 0.15279582, -952837.2, 143895.4, 0.0000020172258, 10.002687, 9.9969 
2.5960448e+3, 1.9808446e+2, -908377.2, -1245353.5, -48362.87, 0.30681822, 0.075148016, -901573.56, 97209.48, 0.0, 10.00202, 9.997537 
2.5959072e+3, 2.0808186e+2, -707441.8, -863267.7, -9829.135, 0.24347666, 0.027512265, -706824.3, 193982.33, 0.0, 10.001725, 9.999623 
2.5957692e+3, 2.1808016e+2, -667443.56, -832176.94, 16726.037, 0.1460368, -0.0067532733, -665762.44, 137057.1, 0.0, 10.0014925, 9.99928 
2.5956306e+3, 2.2807896e+2, -704678.7, -799779.5, -47322.742, 0.18712498, 0.05063176, -685143.44, 19684.336, 0.0, 10.000571, 9.9992695 
2.5954923e+3, 2.3807786e+2, -814573.7, -857290.56, -55598.207, 0.2619813, 0.11473053, -776372.56, -169537.25, 0.0, 9.9993725, 9.998784 
2.595354e+3, 2.4807438e+2, -772345.8, -822142.94, -38134.023, 0.27115563, 0.012900316, -751701.6, -242829.39, 0.0, 9.999146, 9.998458 
2.5952157e+3, 2.5807068e+2, -623786.8, -629123.75, -42558.875, 0.24827115, -0.124065526, -583812.8, -172899.42, 0.0, 9.999188, 9.999091 
2.5950775e+3, 2.6807144e+2, -562926.4, -308788.3, -26794.656, 0.18281463, 0.0052388334, -305993.97, 6911.782, 0.0, 9.997904, 10.001234 
2.594939e+3, 2.7807355e+2, -728997.1, -366709.53, 17373.25, 0.13463198, 0.1911802, -365878.3, -150995.3, 0.0, 9.996204, 10.000989 
2.5948012e+3, 2.880725e+2, -669555.4, -260987.22, 33413.03, 0.09918739, 0.07865849, -258272.7, -141382.03, 0.0, 9.995821, 10.001228 
2.594663e+3, 2.9807085e+2, -594569.9, -211122.7, 52212.348, -0.04351465, -0.11174678, -204140.33, -185235.63, 0.0, 9.995823, 10.000898 
2.5945267e+3, 3.0807167e+2, -612351.56, -190869.86, 76785.945, -0.041850653, -0.019469105, -177316.73, -177316.73, 0.0, 9.995348, 10.000932 
2.5943905e+3, 3.1807244e+2, -622965.9, -62523.957, -101004.7, 0.002655989, 0.06146563, -44876.26, -44876.26, 0.0, 9.994695, 10.002127 
2.6070136e+3, 1.2824439e+2, -1350044.9, -1779227.9, 35219.32, 0.33408412, -0.0078070452, -1347174.0, 336042.0, 0.1492859, 10.0040655, 9.997602 
2.6068717e+3, 1.3824335e+2, -1059701.0, -1582879.0, 84847.14, 0.13419344, 0.22670977, -1046284.8, 538944.75, 0.099471435, 10.005359, 9.997661 
2.606735e+3, 1.4823988e+2, -882508.75, -1362917.1, 148880.58, 0.23815775, 0.16660458, -840111.7, 647148.44, 0.052733228, 10.005307, 9.99855 
2.6066002e+3, 1.5823591e+2, -867712.4, -1376627.1, 76798.336, 0.4543086, 0.016955493, -856375.56, 532918.3, 0.019668408, 10.004859, 9.997958 
2.606461e+3, 1.6823284e+2, -907347.56, -1417170.9, -2786.225, 0.36518008, 0.061929464, -907332.3, 383991.4, 0.0041620447, 10.004149, 9.997346 
2.606321e+3, 1.7823026e+2, -939284.9, -1412885.9, -38298.336, 0.17969295, 0.1646447, -936207.8, 257143.03, 0.0003022984, 10.003375, 9.997078 
2.606183e+3, 1.8822655e+2, -897382.94, -1328357.3, 2302.8342, 0.20259617, 0.18296161, -897370.6, 198019.19, 0.0000010444409, 10.002944, 9.997186 
2.6060462e+3, 1.9822267e+2, -814754.5, -1173247.9, 31080.41, 0.29155403, 0.16013685, -812079.8, 185350.9, 0.0, 10.002555, 9.997769 
2.6059076e+3, 2.0821992e+2, -801905.0, -895784.06, 1131.567, 0.2398752, 0.08444231, -801891.4, 97564.23, 0.0, 10.001031, 9.99973 
2.6057684e+3, 2.1821779e+2, -978861.6, -972521.06, -49049.13, 0.1500746, -0.0025861275, -926539.9, -125067.29, 0.0, 9.999319, 9.999359 
2.6056302e+3, 2.2821645e+2, -807219.9, -852235.2, -68521.44, 0.21562111, 0.03993683, -757604.2, -54122.285, 0.0, 9.999886, 9.999235 
2.6054922e+3, 2.3821546e+2, -580770.44, -747486.6, -46027.16, 0.33034962, 0.11625524, -568907.4, 36581.31, 0.0, 10.001004, 9.998745 
2.605353e+3, 2.482124e+2, -662775.2, -772382.94, -29514.057, 0.3082143, 0.062258463, -655333.25, -147810.8, 0.0, 9.999923, 9.99842 
2.6052135e+3, 2.5820905e+2, -767618.2, -692737.1, -25050.441, 0.23619291, -0.03505103, -685129.7, -275568.75, 0.0, 9.998183, 9.999136 
2.6050738e+3, 2.6820958e+2, -595392.7, -303986.25, -44758.113, 0.14480835, 0.057134554, -297266.63, 14288.524, 0.0, 9.997597, 10.001413 
2.604934e+3, 2.7821139e+2, -566959.3, -285618.84, -40485.07, 0.075309835, 0.19725442, -279908.88, -66374.33, 0.0, 9.997314, 10.001005 
2.6047963e+3, 2.8821042e+2, -543439.0, -237286.55, -28820.563, 0.0699533, 0.11334137, -234597.06, -119054.305, 0.0, 9.996861, 10.000882 
2.6046583e+3, 2.982089e+2, -536217.56, -177493.7, -37642.25, -0.007141103, -0.03706933, -173586.31, -156029.42, 0.0, 9.996209, 10.000939 
2.6045215e+3, 3.0821046e+2, -658749.1, -103300.4, 11153.319, 0.0010288118, 0.059454296, -103076.53, -103076.53, 0.0, 9.99457, 10.0019 
2.604383e+3, 3.1821063e+2, -823712.75, -149351.02, -26501.297, -0.07142275, 0.0019819585, -148311.16, -148311.16, 0.0, 9.993292, 10.002197 
2.6170188e+3, 1.2838599e+2, -1221427.3, -1651848.0, 56681.48, 0.5181537, 0.055799212, -1214088.1, 467741.72, 0.13124128, 10.004754, 9.998168 
2.6168773e+3, 1.3838471e+2, -994293.3, -1560870.1, 83915.305, 0.24007879, 0.2174853, -982125.94, 601716.4, 0.08661338, 10.005826, 9.997591 
2.6167384e+3, 1.483809e+2, -936942.94, -1542236.8, 106590.82, 0.17278683, 0.21400134, -918721.06, 567156.2, 0.04516718, 10.005541, 9.99717 
2.6166016e+3, 1.5837643e+2, -958252.9, -1572114.4, 39223.523, 0.21199398, 0.15013003, -955756.75, 432161.6, 0.016364047, 10.004857, 9.99662 
2.616463e+3, 1.6837098e+2, -972753.9, -1571555.3, -37418.133, 0.25511822, 0.0729276, -970424.7, 319548.22, 0.0032864625, 10.004219, 9.996255 
2.616324e+3, 1.7836568e+2, -939509.94, -1451951.8, -55110.285, 0.27186704, 0.0020060532, -933650.1, 258376.86, 0.00021471722, 10.003536, 9.996736 
2.6161852e+3, 1.8836333e+2, -811986.2, -1163574.5, -3842.616, 0.20764263, 0.09180333, -811944.2, 282106.0, 0.00000047553752, 10.002989, 9.9983 
2.616046e+3, 1.9836187e+2, -807327.06, -1125047.3, 2428.4731, 0.13376522, 0.21282287, -807308.5, 188755.6, 0.0, 10.002407, 9.998176 
2.615907e+3, 2.0835927e+2, -873048.7, -1049247.9, -68821.52, 0.18588449, 0.20715402, -849354.06, 48736.96, 0.0, 10.001049, 9.9986725 
2.6157677e+3, 2.1835646e+2, -990578.0, -1039346.9, -76790.37, 0.25969735, 0.14898336, -934393.44, -134273.77, 0.0, 9.9994955, 9.998819 
2.6156297e+3, 2.283535e+2, -761947.56, -773031.06, -20346.77, 0.2637342, 0.011894735, -746401.3, -44258.78, 0.0, 9.999942, 9.999757 
2.6154912e+3, 2.3835088e+2, -572623.1, -702018.06, -37344.996, 0.2441966, -0.123749875, -562618.44, 41542.742, 0.0, 10.000872, 9.9991255 
2.6153505e+3, 2.4835041e+2, -666036.56, -760827.7, -99459.9, 0.14249344, 0.06132215, -603256.75, -97084.805, 0.0, 9.99984, 9.998542 
2.6152086e+3, 2.5835052e+2, -767249.8, -697272.6, -72842.23, 0.021951562, 0.30233973, -651451.6, -243271.2, 0.0, 9.9981985, 9.999102 
2.61507e+3, 2.6834866e+2, -623137.0, -371194.72, -55550.34, 0.10995169, 0.187759, -359490.28, -49293.125, 0.0, 9.997627, 10.000942 
2.6149324e+3, 2.783467e+2, -597744.5, -362270.44, -52604.582, 0.25503546, -0.0054879487, -351053.03, -138840.67, 0.0, 9.997361, 10.000461 
2.6147935e+3, 2.8834686e+2, -584293.0, -331983.8, -55185.066, 0.18020229, 0.087759025, -320441.75, -206228.84, 0.0, 9.996895, 10.00022 
2.6146537e+3, 2.983478e+2, -515800.75, -147011.78, -83315.22, -0.0030020142, 0.23478448, -129063.11, -112855.88, 0.0, 9.99625, 10.001134 
2.614515e+3, 3.0834895e+2, -525705.7, 176655.33, -68766.25, 0.0158164, 0.16114908, 183324.72, 183324.72, 0.0, 9.994541, 10.003844 
2.6143777e+3, 3.18349e+2, -722853.0, 50338.977, -44330.184, 0.1761723, -0.10133274, 52872.3, 52872.3, 0.0, 9.993292, 10.003592 
2.627024e+3, 1.285262e+2, -895587.2, -1577211.8, 52011.516, 0.50473106, 0.101588264, -891641.25, 788814.9, 0.11469333, 10.007591, 9.997379 
2.6268837e+3, 1.3852328e+2, -739694.3, -1513533.5, -7096.643, 0.30675384, 0.17543378, -739629.25, 842855.5, 0.074937016, 10.007992, 9.996899 
2.6267442e+3, 1.4851911e+2, -820157.7, -1542812.3, -24439.578, 0.20881276, 0.19090398, -819332.1, 665192.6, 0.03840935, 10.006607, 9.996643 
2.6266053e+3, 1.5851465e+2, -973690.8, -1605174.4, -42141.035, 0.18953738, 0.17665237, -970891.0, 415676.4, 0.013498909, 10.004859, 9.9963875 
2.6264665e+3, 1.6850935e+2, -891295.8, -1494450.1, -22685.203, 0.24569556, 0.10014877, -890443.8, 398175.3, 0.0025687974, 10.004635, 9.996575 
2.626328e+3, 1.7850414e+2, -733311.25, -1300411.3, 8730.241, 0.30144724, 0.0065738168, -733176.9, 457493.16, 0.00015052299, 10.004744, 9.997187 
2.6261878e+3, 1.8850158e+2, -734314.25, -1051791.8, 26386.793, 0.23847747, 0.019971106, -732136.1, 360556.2, 0.0000001940375, 10.003214, 9.998953 
2.6260474e+3, 1.985e+2, -948952.3, -1179996.6, 18806.953, 0.15698715, 0.073486, -947431.44, 47273.63, 0.0, 10.001385, 9.998286 
2.6259074e+3, 2.0849791e+2, -867325.0, -1149499.8, -26612.79, 0.20661065, 0.18077917, -864837.0, 31893.314, 0.0, 10.00154, 9.997742 
2.6257682e+3, 2.1849567e+2, -655978.5, -942893.06, -36458.195, 0.28917217, 0.2684444, -651418.25, 147339.92, 0.0, 10.002082, 9.998229 
2.625629e+3, 2.2849205e+2, -688978.1, -736165.9, -11495.21, 0.28239182, 0.08563758, -686326.8, 14461.561, 0.0, 10.000445, 9.999762 
2.62549e+3, 2.3848853e+2, -923674.25, -840652.56, -57033.945, 0.24785785, -0.14279313, -811622.5, -208807.17, 0.0, 9.998339, 9.99939 
2.6253483e+3, 2.4848881e+2, -847475.5, -761598.9, -88382.93, 0.1324683, 0.056419984, -706276.1, -201458.69, 0.0, 9.998228, 9.99931 
2.6252058e+3, 2.5849012e+2, -687903.9, -617721.4, -21582.107, 0.0082699, 0.34684765, -611615.75, -204802.86, 0.0, 9.998577, 9.999459 
2.6250666e+3, 2.684879e+2, -609629.44, -418724.53, 4279.4536, 0.100843236, 0.22319831, -418628.66, -109794.97, 0.0, 9.997963, 10.000449 
2.6249287e+3, 2.784851e+2, -669088.6, -431866.13, 6767.4043, 0.2647946, -0.0050460645, -431673.22, -220814.52, 0.0, 9.997029, 10.000138 
2.6247895e+3, 2.8848523e+2, -660314.4, -362870.4, 46449.914, 0.21708678, 0.094634734, -355785.4, -242924.98, 0.0, 9.996355, 10.000264 
2.624649e+3, 2.9848644e+2, -592426.3, -184135.16, 46496.89, 0.056364555, 0.27131155, -178906.97, -164054.48, 0.0, 9.995735, 10.0011215 
2.624509e+3, 3.0848768e+2, -422089.56, 214764.66, -73129.336, 0.017589055, 0.216676, 223054.14, 223054.14, 0.0, 9.995315, 10.003728 
2.6243722e+3, 3.1848752e+2, -500503.13, 152510.02, -104194.92, 0.31553146, -0.058932044, 168732.39, 168732.39, 0.0, 9.994851, 10.003537 
2.6370296e+3, 1.2866592e+2, -1017670.2, -1790698.5, 42680.94, 0.3824335, 0.14446811, -1015320.8, 663765.9, 0.09958675, 10.007226, 9.995998 
2.6368913e+3, 1.3866077e+2, -873166.75, -1689767.9, -18832.787, 0.34323937, 0.1234408, -872732.6, 708406.3, 0.064377874, 10.007407, 9.995934 
2.6367506e+3, 1.4865619e+2, -865218.5, -1579481.1, -84077.74, 0.29246876, 0.1367267, -855454.94, 627729.8, 0.032402724, 10.006299, 9.996547 
2.63661e+3, 1.5865198e+2, -953701.0, -1558811.6, -71198.914, 0.27641544, 0.1477536, -945436.4, 439790.16, 0.011033236, 10.004823, 9.996727 
2.6364708e+3, 1.686482e+2, -836895.75, -1348033.8, -6605.3916, 0.28312236, 0.13808215, -836810.44, 450450.0, 0.001989007, 10.004483, 9.997657 
2.6363316e+3, 1.7864466e+2, -727974.9, -1207764.3, -11405.15, 0.28248042, 0.10745055, -727703.94, 461586.97, 0.000104982326, 10.004386, 9.997999 
2.6361904e+3, 1.8864092e+2, -720587.6, -1011996.75, -56732.844, 0.28384483, -0.044768985, -709932.2, 381389.47, 0.00000008640195, 10.003158, 9.999257 
2.636049e+3, 1.9863752e+2, -921329.56, -1182144.8, -33356.438, 0.28313196, -0.1949199, -917131.1, 76218.84, 0.0, 10.001635, 9.998156 
2.6359087e+3, 2.0863622e+2, -910344.06, -1266764.1, -7167.7134, 0.26495552, 0.054528758, -910200.0, -14829.471, 0.0, 10.001654, 9.996886 
2.6357687e+3, 2.186354e+2, -721595.9, -1052150.4, -46466.04, 0.24511452, 0.364614, -715188.3, 82200.73, 0.0, 10.001958, 9.997543 
2.6356283e+3, 2.286319e+2, -726300.56, -803093.1, -93135.484, 0.2767361, 0.24477045, -663957.1, 35464.33, 0.0, 10.000395, 9.99933 
2.635488e+3, 2.3862812e+2, -902915.2, -810583.44, -101773.555, 0.31103176, 0.021655036, -744994.5, -143540.73, 0.0, 9.998388, 9.999576 
2.6353467e+3, 2.486275e+2, -747453.4, -568197.9, -70910.016, 0.25325945, 0.036684882, -543539.3, -40079.582, 0.0, 9.9982815, 10.000615 
2.6352048e+3, 2.586279e+2, -635836.56, -520719.1, -22645.102, 0.16303019, 0.118955664, -516424.72, -110967.266, 0.0, 9.998616, 10.000111 
2.6350638e+3, 2.6862738e+2, -644938.94, -497951.03, -33389.93, 0.09862268, 0.1794917, -490721.7, -183257.47, 0.0, 9.997981, 9.999901 
2.634923e+3, 2.7862668e+2, -668621.44, -440393.3, -23906.232, 0.07654053, 0.20925967, -437916.1, -228443.14, 0.0, 9.997063, 10.000069 
2.6347846e+3, 2.8862548e+2, -602638.3, -247240.86, 22931.387, 0.17838113, 0.124022454, -245767.36, -134282.45, 0.0, 9.996363, 10.001059 
2.6346454e+3, 2.9862472e+2, -618894.2, -240038.36, 31305.576, 0.18679039, 0.04369268, -237468.94, -223976.16, 0.0, 9.995731, 10.000744 
2.6345026e+3, 3.086264e+2, -595731.06, -165540.97, -88732.09, -0.04852525, 0.22386317, -147957.56, -147957.56, 0.0, 9.995386, 10.00109 
2.6343647e+3, 3.1862724e+2, -570232.7, -33837.64, -8504.786, 0.14562204, 0.29238063, -33702.824, -33702.824, 0.0, 9.99504, 10.00216 
2.6470345e+3, 1.2880428e+2, -1113578.3, -1741069.8, -20955.635, 0.31263706, 0.20935974, -1112879.3, 564858.75, 0.08585583, 10.005972, 9.99694 
2.6468956e+3, 1.3879964e+2, -1135913.9, -1744488.9, 1834.185, 0.28480548, 0.15172313, -1135908.3, 443872.8, 0.05488277, 10.005092, 9.996669 
2.646755e+3, 1.4879552e+2, -1031885.8, -1614007.6, -23528.043, 0.28027603, 0.16136372, -1030936.44, 450884.4, 0.027103538, 10.0049, 9.996973 
2.6466143e+3, 1.587917e+2, -922252.44, -1494304.4, 4300.933, 0.31516173, 0.17421404, -922220.1, 461637.63, 0.008933647, 10.004829, 9.997161 
2.646474e+3, 1.687879e+2, -945457.94, -1353564.9, 42504.926, 0.30490395, 0.124753796, -941078.0, 344811.94, 0.0015288066, 10.003537, 9.998074 
2.6463336e+3, 1.7878433e+2, -1065813.5, -1385101.9, 12507.251, 0.27619627, 0.06192387, -1065324.4, 122594.92, 0.00007381441, 10.002133, 9.997864 
2.6461923e+3, 1.8878065e+2, -830036.4, -1188485.3, -79314.75, 0.28113437, -0.002608402, -813270.44, 276683.34, 0.000000036839044, 10.002948, 9.998143 
2.646051e+3, 1.9877721e+2, -588904.0, -1061022.3, -142389.89, 0.2937285, -0.06287318, -549284.4, 442702.97, 0.0, 10.004099, 9.997794 
2.6459098e+3, 2.0877518e+2, -706968.9, -1074266.1, -76754.125, 0.23799142, 0.061423495, -691574.75, 202436.6, 0.0, 10.002651, 9.997724 
2.6457682e+3, 2.1877362e+2, -875127.3, -1067090.6, -25012.063, 0.17861426, 0.22444685, -871921.9, -75890.49, 0.0, 10.000657, 9.998065 
2.6456273e+3, 2.2877102e+2, -767478.0, -827953.8, -34175.93, 0.2394215, 0.18189715, -752083.4, -54027.082, 0.0, 10.00014, 9.999279 
2.6454863e+3, 2.3876837e+2, -664649.75, -681389.4, -11036.648, 0.32618728, 0.07969861, -659168.1, -59088.11, 0.0, 9.9999695, 9.999698 
2.645345e+3, 2.4876752e+2, -538225.94, -423655.9, 1522.0553, 0.30861196, 0.04465756, -423635.7, 78451.65, 0.0, 9.999536, 10.001001 
2.6452035e+3, 2.5876734e+2, -574328.25, -478816.56, -19716.93, 0.24876727, 0.036675118, -474906.38, -70817.43, 0.0, 9.998993, 10.000214 
2.6450607e+3, 2.6876718e+2, -599308.5, -517095.38, -49852.234, 0.0811771, 0.15654357, -493587.75, -187493.52, 0.0, 9.998482, 9.999522 
2.644918e+3, 2.7876708e+2, -557665.3, -393961.84, -35634.66, -0.05199845, 0.280014, -386541.34, -178441.63, 0.0, 9.997862, 9.999998 
2.6447797e+3, 2.8876582e+2, -529656.4, -165632.97, -15546.817, 0.1383281, 0.15894014, -164970.19, -54858.79, 0.0, 9.9966755, 10.001464 
2.6446405e+3, 2.9876468e+2, -670925.06, -270650.53, -14800.416, 0.2543484, 0.011419591, -270104.0, -257983.27, 0.0, 9.995408, 10.000685 
2.6444966e+3, 3.087661e+2, -673367.4, -307156.75, -9105.1875, -0.094418764, 0.22571118, -306930.5, -306930.5, 0.0, 9.9953165, 10.000144 
2.6443583e+3, 3.1876755e+2, -599275.25, -53463.945, 166551.75, 0.08687954, 0.4512458, -6655.6914, -6655.6914, 0.0, 9.994896, 10.002083 
2.657039e+3, 1.2894244e+2, -953448.94, -1459078.3, -22956.578, 0.2503839, 0.29071108, -952408.8, 723985.25, 0.07342206, 10.006167, 9.998893 
2.6568988e+3, 1.3893951e+2, -1002130.3, -1520017.8, -13201.129, 0.16857229, 0.21835268, -1001794.06, 576619.8, 0.04639583, 10.005331, 9.998113 
2.6567584e+3, 1.4893626e+2, -971434.9, -1514564.9, -26928.646, 0.21272741, 0.22474417, -970103.0, 510338.97, 0.022467906, 10.004993, 9.997616 
2.656618e+3, 1.5893294e+2, -907165.44, -1443376.5, -24232.857, 0.31468055, 0.22607632, -906072.5, 476399.38, 0.0071666185, 10.004731, 9.997562 
2.6564765e+3, 1.6892833e+2, -932391.25, -1346244.6, -25658.426, 0.3107749, 0.080810755, -930806.5, 353704.38, 0.0011685966, 10.003616, 9.998088 
2.6563343e+3, 1.7892377e+2, -1085680.4, -1484810.9, -9602.645, 0.2660483, -0.06659576, -1085449.5, 101100.516, 0.000052712003, 10.00238, 9.997063 
2.656194e+3, 1.8892092e+2, -973906.1, -1487457.8, -18431.125, 0.2393413, 0.11697794, -973245.5, 115340.03, 0.000000014947995, 10.002942, 9.996098 
2.6560536e+3, 1.9891845e+2, -668278.6, -1153672.0, -117658.38, 0.2140563, 0.32984936, -641262.2, 349356.72, 0.0, 10.00378, 9.997315 
2.6559103e+3, 2.0891458e+2, -585411.5, -791366.94, -141453.13, 0.1462317, 0.14727652, -513422.34, 379229.5, 0.0, 10.002514, 9.999735 
2.6557672e+3, 2.1891083e+2, -771748.2, -869163.6, -69761.56, 0.080012135, -0.098032445, -735372.94, 59308.14, 0.0, 10.000723, 9.999395 
2.6556256e+3, 2.2890967e+2, -745674.3, -793906.06, -37774.086, 0.16955374, -0.051605023, -724974.4, -28283.174, 0.0, 10.000184, 9.999495 
2.655485e+3, 2.3890926e+2, -671223.4, -687603.4, -20511.88, 0.2865683, 0.050847102, -657326.9, -58631.137, 0.0, 9.999929, 9.999678 
2.6553434e+3, 2.4890876e+2, -572167.0, -489335.5, -19889.205, 0.29873165, 0.08056143, -484807.3, 15894.749, 0.0, 9.999507, 10.000567 
2.6552016e+3, 2.5890833e+2, -598810.44, -532949.9, -39578.87, 0.25494063, 0.09219277, -514393.34, -111685.06, 0.0, 9.999, 9.999843 
2.655058e+3, 2.6890725e+2, -613831.9, -551699.9, -70395.96, 0.048077986, 0.14635049, -505819.84, -201095.48, 0.0, 9.998493, 9.999284 
2.6549143e+3, 2.789063e+2, -560834.4, -408374.25, -66443.13, -0.13216138, 0.20550495, -383482.03, -176742.5, 0.0, 9.9978895, 9.999889 
2.6547748e+3, 2.8890622e+2, -529892.25, -170899.5, -69484.28, 0.08198314, 0.20953858, -157919.86, -49179.934, 0.0, 9.996689, 10.001425 
2.6546347e+3, 2.9890653e+2, -637841.94, -209867.69, -44913.543, 0.22411428, 0.20217237, -205205.06, -194469.84, 0.0, 9.995434, 10.001095 
2.654491e+3, 3.0890688e+2, -584630.4, -132835.16, 3043.0496, -0.09752062, 0.21692789, -132814.66, -132814.66, 0.0, 9.995347, 10.001333 
2.6543537e+3, 3.1890798e+2, -523935.8, 105383.2, -10639.737, 0.26989308, 0.2860655, 105563.03, 105563.03, 0.0, 9.994858, 10.003207 
2.6670444e+3, 1.2908393e+2, -833129.9, -1468452.1, 120031.14, 0.22302994, 0.33462042, -811208.8, 863798.3, 0.06219835, 10.007285, 9.998271 
2.666905e+3, 1.3908044e+2, -862263.0, -1487331.9, 23174.787, 0.27536184, 0.26876467, -861405.0, 715629.5, 0.038842876, 10.006442, 9.99781 
2.6667634e+3, 1.4907676e+2, -916311.0, -1473226.9, -25439.338, 0.30498037, 0.23632172, -915151.4, 563915.06, 0.018436952, 10.005308, 9.997743 
2.666622e+3, 1.5907314e+2, -967431.9, -1460950.5, -46380.996, 0.3673617, 0.1974589, -963110.8, 417987.75, 0.005691285, 10.004266, 9.997662 
2.6664796e+3, 1.6906889e+2, -849565.2, -1303761.9, -48794.465, 0.34451598, 0.0830254, -844382.4, 438752.75, 0.0008879425, 10.004186, 9.9981 
2.6663372e+3, 1.7906474e+2, -811551.8, -1330282.4, -26160.28, 0.28754973, -0.026281789, -810235.9, 374935.4, 0.00003796397, 10.004177, 9.997252 
2.666196e+3, 1.8906197e+2, -975940.56, -1437490.8, 76867.51, 0.23239607, 0.12845759, -963475.56, 123730.05, 0.0000000057994387, 10.002721, 9.996541 
2.6660544e+3, 1.9905959e+2, -1025956.06, -1281911.6, 98993.0, 0.185916, 0.3150724, -992137.9, -2900.6055, 0.0, 10.0011425, 9.997702 
2.6659113e+3, 2.090563e+2, -714758.8, -822727.94, 22353.318, 0.15073216, 0.16851613, -710313.9, 180950.13, 0.0, 10.0015, 10.000004 
2.665768e+3, 2.1905307e+2, -557068.75, -744409.0, -14222.881, 0.125269, -0.047299203, -555995.06, 237292.53, 0.0, 10.002112, 9.9995775 
2.6656252e+3, 2.290516e+2, -645854.06, -745645.5, -23221.06, 0.17954311, -0.03494848, -640715.2, 54585.543, 0.0, 10.000873, 9.999491 
2.665483e+3, 2.3905082e+2, -773106.94, -748642.56, -8166.722, 0.25716332, 0.036102302, -746166.8, -148857.72, 0.0, 9.999289, 9.999563 
2.6653415e+3, 2.490505e+2, -718670.8, -596293.9, 6724.3066, 0.28437617, 0.11016061, -595925.5, -96610.1, 0.0, 9.998668, 10.000233 
2.6651993e+3, 2.5905022e+2, -714371.0, -600178.56, -3843.956, 0.27342415, 0.16964869, -600049.3, -198727.67, 0.0, 9.998261, 9.999733 
2.6650554e+3, 2.6904875e+2, -646086.44, -538824.94, -13.465942, 0.068716176, 0.16972299, -538824.94, -235484.19, 0.0, 9.998156, 9.999531 
2.6649114e+3, 2.7904728e+2, -547703.2, -406722.63, 18560.627, -0.11805261, 0.16469106, -404320.0, -198960.64, 0.0, 9.998009, 9.999839 
2.6647702e+3, 2.8904763e+2, -472099.2, -202053.95, -29652.146, 0.030197347, 0.25460032, -198836.36, -91479.53, 0.0, 9.99735, 10.000888 
2.664629e+3, 2.990484e+2, -493520.16, -148644.38, -35201.313, 0.13715684, 0.3365833, -145088.08, -135738.58, 0.0, 9.996469, 10.001012 
2.6644865e+3, 3.0904722e+2, -532669.9, -36733.8, -16758.732, 0.0106558185, 0.15706581, -36168.133, -36168.133, 0.0, 9.995409, 10.001954 
2.6643485e+3, 3.1904897e+2, -518176.84, 134039.7, -142588.52, 0.33515158, 0.23318109, 163850.08, 163850.08, 0.0, 9.994795, 10.003427 
2.6770505e+3, 1.2922713e+2, -976062.06, -1730057.9, 78326.92, 0.20638119, 0.3599201, -968011.25, 705587.7, 0.052103728, 10.007041, 9.996499 
2.6769122e+3, 1.3922213e+2, -953977.1, -1658947.3, -4163.7417, 0.47744045, 0.3086063, -953952.5, 621693.9, 0.032144126, 10.006305, 9.996674 
2.6767692e+3, 1.4921744e+2, -935668.56, -1506679.4, -56353.406, 0.46588808, 0.22011805, -930160.1, 547529.5, 0.014946439, 10.005249, 9.997546 
2.676626e+3, 1.5921311e+2, -982357.8, -1483805.9, -54129.477, 0.4353835, 0.12800847, -976581.3, 403147.84, 0.0044647986, 10.00422, 9.99753 
2.6764834e+3, 1.692098e+2, -855973.75, -1310634.6, -29125.52, 0.38762483, 0.11474998, -854115.56, 427643.13, 0.0006684534, 10.00415, 9.998073 
2.6763406e+3, 1.7920682e+2, -764515.7, -1217986.1, -37698.453, 0.31563014, 0.1075622, -761403.06, 422382.22, 0.000027206008, 10.0041065, 9.998061 
2.6761976e+3, 1.892037e+2, -827485.1, -1141398.9, 15219.449, 0.24118449, 0.061935514, -826748.94, 259067.2, 0.000000001728097, 10.002765, 9.998556 
2.6760548e+3, 1.9920091e+2, -952911.3, -1160479.9, 71116.734, 0.18052755, 0.030886954, -930883.1, 56961.254, 0.0, 10.0012665, 9.998479 
2.6759127e+3, 2.0919992e+2, -784861.7, -970497.94, 52393.004, 0.21869287, 0.16066541, -771095.44, 118758.66, 0.0, 10.001505, 9.998988 
2.6757705e+3, 2.191991e+2, -627621.5, -854764.5, -19642.475, 0.2638333, 0.2838079, -625935.4, 165926.11, 0.0, 10.001949, 9.998902 
2.6756257e+3, 2.2919606e+2, -667576.94, -775339.2, -84400.19, 0.24392489, 0.1687048, -621325.3, 72565.305, 0.0, 10.000801, 9.999325 
2.6754808e+3, 2.3919302e+2, -785126.44, -777481.44, -48218.637, 0.21974936, 0.031193297, -732934.06, -137013.98, 0.0, 9.9993, 9.999363 
2.675339e+3, 2.4919274e+2, -732705.56, -636008.44, -7818.839, 0.26016212, 0.1357323, -635380.3, -137453.31, 0.0, 9.998711, 9.999941 
2.675197e+3, 2.5919303e+2, -698854.2, -582167.8, -12241.906, 0.2847999, 0.27065492, -580897.3, -180968.3, 0.0, 9.998318, 9.999832 
2.6750532e+3, 2.691916e+2, -593633.06, -438237.66, -3853.085, 0.13424356, 0.22649358, -438142.2, -136198.38, 0.0, 9.998182, 10.000213 
2.6749092e+3, 2.7919006e+2, -545829.5, -413215.75, 4780.78, -0.024993299, 0.16237094, -413043.63, -209084.69, 0.0, 9.998045, 9.999781 
2.6747662e+3, 2.8919002e+2, -543828.56, -360075.22, -61309.92, -0.02671471, 0.29080248, -341497.22, -235534.66, 0.0, 9.997379, 9.999793 
2.6746228e+3, 2.9919013e+2, -532435.7, -244336.97, -71105.86, -0.027753117, 0.40664995, -227743.06, -219777.9, 0.0, 9.996524, 10.000332 
2.6744834e+3, 3.0918667e+2, -547156.3, -67199.78, -67159.56, 0.25758892, 0.03612576, -57979.38, -57979.38, 0.0, 9.9954, 10.001755 
2.6743397e+3, 3.1919074e+2, -583740.4, -18765.727, -24323.852, 0.10088679, 0.38146564, -17720.445, -17720.445, 0.0, 9.994862, 10.002346 
2.6870573e+3, 1.2936845e+2, -1077172.3, -1797081.8, 63012.06, 0.32529727, 0.23824781, -1071698.6, 600509.7, 0.043068174, 10.006305, 9.996397 
2.6869172e+3, 1.3936369e+2, -1002462.9, -1678573.1, 31491.65, 0.4690561, 0.21732266, -1000999.25, 573255.8, 0.026227318, 10.005906, 9.996731 
2.6867732e+3, 1.4935954e+2, -954886.44, -1492218.8, 2585.421, 0.4353514, 0.1699933, -954874.0, 521420.5, 0.011935009, 10.005007, 9.997759 
2.686629e+3, 1.5935577e+2, -990379.8, -1472691.4, 40593.79, 0.40538836, 0.11965556, -986987.1, 391343.22, 0.0034474386, 10.004103, 9.997658 
2.686486e+3, 1.69353e+2, -902372.9, -1333678.0, 93701.14, 0.3493515, 0.16022816, -882895.8, 397462.8, 0.00049582403, 10.003843, 9.998055 
2.686343e+3, 1.7935055e+2, -795385.7, -1187390.1, 62999.746, 0.27659872, 0.20503917, -785509.7, 396873.72, 0.000019101311, 10.003707, 9.998459 
2.6861995e+3, 1.8934788e+2, -695296.3, -972422.06, 43393.65, 0.22736436, 0.13141152, -688660.44, 395745.8, 0.0000000002885943, 10.003229, 9.999485 
2.6860556e+3, 1.9934541e+2, -729752.25, -1008820.56, 53619.402, 0.19641395, 0.05079452, -719804.56, 266622.44, 0.0, 10.002617, 9.998863 
2.685913e+3, 2.0934397e+2, -822013.4, -1032249.75, 70939.99, 0.23162955, 0.15233777, -800315.5, 88126.39, 0.0, 10.001445, 9.9985895 
2.6857704e+3, 2.1934272e+2, -894429.7, -1018098.2, 26815.76, 0.27463624, 0.27161792, -888865.44, -98409.92, 0.0, 10.0002775, 9.99858 
2.685625e+3, 2.2933964e+2, -777517.75, -856792.4, -41425.39, 0.23243363, 0.18423429, -759821.1, -67334.84, 0.0, 10.000174, 9.999064 
2.6854795e+3, 2.3933658e+2, -659609.1, -735059.44, -3365.4397, 0.18913369, 0.07089573, -659459.3, -64942.23, 0.0, 10.000246, 9.999194 
2.685337e+3, 2.4933627e+2, -529509.6, -549552.8, 56295.555, 0.23517491, 0.1851567, -482350.63, 14174.286, 0.0, 10.000159, 9.999833 
2.6851952e+3, 2.593365e+2, -460586.47, -454662.7, 54964.688, 0.2785561, 0.32395816, -402580.16, -4052.6917, 0.0, 9.999908, 9.999937 
2.685051e+3, 2.6933527e+2, -451118.4, -323766.9, 42158.063, 0.1582164, 0.2709146, -311075.75, -10537.696, 0.0, 9.998974, 10.000612 
2.6849067e+3, 2.793339e+2, -571301.25, -431128.75, 33611.46, 0.03414759, 0.19194904, -423485.9, -220936.23, 0.0, 9.9979, 9.999724 
2.6847628e+3, 2.8933322e+2, -578563.8, -445854.28, -5504.9697, -0.012485183, 0.30674127, -445626.3, -341065.25, 0.0, 9.997447, 9.9991665 
2.6846182e+3, 2.9933262e+2, -509060.72, -282502.53, -2512.648, -0.061946154, 0.4149955, -282474.7, -275902.1, 0.0, 9.996906, 9.99988 
2.6844782e+3, 3.093294e+2, -584456.06, -113301.99, -18929.584, 0.32678658, 0.10063755, -112542.68, -112542.68, 0.0, 9.995272, 10.001495 
2.6843315e+3, 3.1933305e+2, -785197.75, -159816.63, 134495.78, -0.063275285, 0.43912077, -132118.44, -132118.44, 0.0, 9.993679, 10.001942 
2.6970643e+3, 1.295093e+2, -997695.06, -1682955.1, 52873.035, 0.47543177, 0.056949567, -993639.5, 677182.8, 0.035017427, 10.006506, 9.997082 
2.696921e+3, 1.3950554e+2, -980676.6, -1604453.0, 17526.305, 0.34093824, 0.069779396, -980184.56, 592674.0, 0.021020656, 10.005756, 9.997313 
2.6967755e+3, 1.495027e+2, -934256.4, -1438514.8, -26986.658, 0.30134585, 0.10560821, -932816.25, 542070.75, 0.009342593, 10.004942, 9.998163 
2.696631e+3, 1.5950015e+2, -972218.56, -1440941.1, 24540.443, 0.31023207, 0.14239928, -970937.25, 405975.94, 0.0026040534, 10.004122, 9.9978695 
2.696488e+3, 1.6949771e+2, -915018.0, -1344341.1, 91864.555, 0.25769183, 0.2127642, -896187.2, 382755.66, 0.00035961866, 10.003767, 9.998024 
2.696345e+3, 1.7949553e+2, -822365.3, -1193841.8, 52115.977, 0.1875053, 0.28291392, -815192.25, 365777.25, 0.000012945302, 10.003487, 9.998524 
2.6962012e+3, 1.8949383e+2, -699954.9, -956905.94, 22165.85, 0.19496836, 0.2924224, -698056.75, 384924.78, 0.000000000007316074, 10.003114, 9.999652 
2.6960576e+3, 1.9949207e+2, -728553.7, -997028.7, 20396.225, 0.21247965, 0.26792794, -727013.0, 257979.88, 0.0, 10.00257, 9.998971 
2.6959133e+3, 2.094883e+2, -815170.94, -1022968.8, 20194.94, 0.19843295, 0.12983945, -813226.44, 73801.414, 0.0, 10.001459, 9.998651 
2.6957688e+3, 2.1948457e+2, -899350.1, -1035988.44, 577.5919, 0.17610203, -0.0011863048, -899347.7, -110283.89, 0.0, 10.000303, 9.998448 
2.6956236e+3, 2.294827e+2, -796854.44, -908014.0, -37116.918, 0.15812439, 0.06090504, -785600.25, -94515.16, 0.0, 10.000218, 9.9986925 
2.6954782e+3, 2.3948139e+2, -670600.8, -760933.75, -208.44128, 0.14714183, 0.15451974, -670600.4, -77498.7, 0.0, 10.000254, 9.999016 
2.695336e+3, 2.494809e+2, -528732.8, -543743.6, 50155.7, 0.20191556, 0.2527185, -485524.06, 9586.82, 0.0, 10.000135, 9.999888 
2.6951936e+3, 2.5948063e+2, -457316.28, -444143.34, 33608.215, 0.24084833, 0.33653268, -416482.28, -19364.967, 0.0, 9.999886, 10.000024 
2.6950487e+3, 2.694797e+2, -444059.84, -310161.0, -575.3758, 0.13470323, 0.30541906, -310158.5, -11034.538, 0.0, 9.998973, 10.00071 
2.694904e+3, 2.7947873e+2, -567957.25, -432638.0, 4437.1064, 0.036934804, 0.25912824, -432492.66, -231361.33, 0.0, 9.997931, 9.999702 
2.69476e+3, 2.8947717e+2, -587514.06, -470614.1, -20253.953, 0.08043836, 0.2980223, -467204.38, -364051.9, 0.0, 9.997465, 9.998992 
2.694615e+3, 2.9947588e+2, -520198.88, -315843.28, -40290.652, 0.05126756, 0.35751957, -308186.47, -303015.0, 0.0, 9.996942, 9.999639 
2.6944706e+3, 3.09476e+2, -608976.94, -168635.39, -88596.07, 0.112483166, 0.4100445, -151478.48, -151478.48, 0.0, 9.995285, 10.001112 
2.694325e+3, 3.1947467e+2, -754622.3, -83953.96, 58823.1, -0.00082773395, 0.26711723, -78833.79, -78833.79, 0.0, 9.993606, 10.002507 
2.7070704e+3, 1.296534e+2, -802446.3, -1486869.1, 59464.145, 0.49875987, 0.07276559, -797318.3, 872094.3, 0.027887784, 10.007391, 9.998035 
2.7069247e+3, 1.3965048e+2, -1016586.56, -1555927.1, 49567.26, 0.2800965, 0.08771676, -1012069.0, 559368.7, 0.016465422, 10.005194, 9.997917 
2.706779e+3, 1.496478e+2, -972514.1, -1437898.9, 25570.496, 0.24950632, 0.1123067, -971113.4, 502350.72, 0.0071229073, 10.004593, 9.99833 
2.706634e+3, 1.5964526e+2, -956505.2, -1434992.0, 59812.867, 0.2801272, 0.14148615, -949141.7, 426348.6, 0.0019088372, 10.004239, 9.997851 
2.7064896e+3, 1.6964276e+2, -1011885.94, -1417259.3, 109985.125, 0.18815027, 0.22621013, -983967.7, 293553.84, 0.00025239418, 10.003221, 9.997785 
2.7063456e+3, 1.7964049e+2, -1008293.5, -1287551.5, 70749.11, 0.08767172, 0.3088487, -991392.4, 188157.8, 0.0000083357545, 10.002232, 9.998482 
2.7062026e+3, 1.8963881e+2, -815376.1, -998798.25, 53203.95, 0.16457304, 0.31302205, -801060.9, 280502.1, 0.0, 10.002269, 9.999767 
2.7060595e+3, 1.9963713e+2, -752938.0, -1004735.7, 31005.748, 0.2649998, 0.28909484, -749176.25, 234398.16, 0.0, 10.002395, 9.998998 
2.7059144e+3, 2.0963354e+2, -772762.75, -1010031.7, 3891.9438, 0.25801212, 0.17611219, -772698.94, 112909.45, 0.0, 10.001792, 9.998572 
2.705769e+3, 2.1962991e+2, -779125.0, -976058.9, -8184.8306, 0.22840339, 0.0608865, -778785.44, 8858.444, 0.0, 10.001128, 9.998458 
2.7056232e+3, 2.29628e+2, -687408.56, -846079.0, -1531.1108, 0.1830557, 0.112483144, -687393.8, 2271.4653, 0.0, 10.00094, 9.998765 
2.7054778e+3, 2.3962663e+2, -607165.5, -727368.3, 46471.848, 0.14971337, 0.19868134, -591294.5, 387.05945, 0.0, 10.000687, 9.999033 
2.705334e+3, 2.49626e+2, -637957.7, -605431.6, 75295.16, 0.15554148, 0.28940988, -544663.2, -50971.68, 0.0, 9.999431, 9.999801 
2.7051908e+3, 2.596255e+2, -728402.6, -586360.2, 50380.508, 0.16159463, 0.35925505, -570305.56, -174605.88, 0.0, 9.99808, 9.999913 
2.7050456e+3, 2.696243e+2, -633770.44, -421932.13, 1791.0305, 0.105445445, 0.31937414, -421916.97, -124207.83, 0.0, 9.997767, 10.000517 
2.7049008e+3, 2.7962315e+2, -615957.56, -445770.28, -7101.9404, 0.07011599, 0.2687982, -445474.44, -245755.83, 0.0, 9.99757, 9.999781 
2.7047566e+3, 2.8962177e+2, -608313.5, -433347.28, 7401.4004, 0.110546984, 0.29392993, -433034.75, -331297.3, 0.0, 9.997129, 9.999404 
2.7046108e+3, 2.9962072e+2, -566787.3, -327826.97, 14384.607, 0.066271655, 0.3487973, -326964.2, -323211.22, 0.0, 9.996586, 9.999723 
2.7044636e+3, 3.09622e+2, -483225.25, -144982.16, -37846.914, -0.025660086, 0.54013526, -140799.1, -140799.1, 0.0, 9.996322, 10.0007715 
2.7043197e+3, 3.1961814e+2, -551832.0, 56515.387, 26617.41, 0.17272282, 0.16563962, 57677.773, 57677.773, 0.0, 9.994823, 10.002883 
2.7170765e+3, 1.2979935e+2, -804020.44, -1376300.0, -12642.353, 0.4470574, 0.18564455, -803741.25, 864247.3, 0.021654231, 10.006849, 9.999063 
2.7169284e+3, 1.3979721e+2, -982522.7, -1482183.9, -926.07855, 0.24201824, 0.18618469, -982520.94, 587481.25, 0.012536152, 10.005159, 9.998447 
2.716782e+3, 1.497941e+2, -945646.1, -1426138.8, 11674.384, 0.23462008, 0.15530641, -945362.6, 526668.56, 0.0052545075, 10.004765, 9.998334 
2.7166373e+3, 1.5979101e+2, -937261.6, -1447223.5, 31647.94, 0.2755156, 0.13084379, -935305.06, 438756.84, 0.0013470671, 10.004458, 9.997665 
2.7164912e+3, 1.6978818e+2, -1013947.0, -1461127.1, 71439.81, 0.12521672, 0.21693008, -1002811.3, 273283.75, 0.00016899536, 10.00339, 9.997402 
2.7163458e+3, 1.7978558e+2, -1007821.44, -1302545.1, 63291.51, -0.028940694, 0.29876074, -994804.6, 183321.48, 0.0000049507566, 10.0022955, 9.998351 
2.7162033e+3, 1.897833e+2, -816516.44, -991878.4, 66921.586, 0.132665, 0.24018802, -793895.8, 286251.22, 0.0, 10.002224, 9.999841 
2.7160615e+3, 1.997813e+2, -785008.25, -1030028.44, 22257.506, 0.3299736, 0.18117349, -783002.8, 199161.84, 0.0, 10.002213, 9.998915 
2.7159163e+3, 2.0977968e+2, -799627.9, -1048765.8, -20141.857, 0.37593883, 0.2817077, -798010.0, 86172.81, 0.0, 10.001715, 9.998345 
2.7157706e+3, 2.1977799e+2, -776487.56, -965642.44, -17134.717, 0.37307554, 0.37610102, -774947.94, 11253.94, 0.0, 10.0011015, 9.998546 
2.715624e+3, 2.2977504e+2, -664400.7, -787682.9, -682.5106, 0.2786806, 0.29328147, -664396.9, 23833.62, 0.0, 10.000889, 9.999194 
2.7154776e+3, 2.3977232e+2, -612968.2, -717462.94, 23297.775, 0.17059582, 0.20746322, -608009.1, -17752.139, 0.0, 10.000585, 9.999153 
2.715332e+3, 2.4977157e+2, -655853.75, -642560.5, 21296.836, 0.08792154, 0.2995663, -626897.2, -134630.11, 0.0, 9.999426, 9.999551 
2.7151862e+3, 2.5977102e+2, -742872.3, -633400.56, 18826.236, 0.02056049, 0.39613256, -630253.44, -235978.72, 0.0, 9.998147, 9.999562 
2.7150422e+3, 2.6976895e+2, -664105.7, -492977.3, -5710.131, 0.06524624, 0.31185755, -492787.0, -196492.61, 0.0, 9.997795, 10.00002 
2.714898e+3, 2.7976704e+2, -593861.3, -411161.63, -19641.057, 0.12143444, 0.21949214, -409073.97, -210761.48, 0.0, 9.997612, 10.000001 
2.714752e+3, 2.89767e+2, -533088.2, -282009.66, -13793.341, 0.053553212, 0.29767048, -281254.2, -180938.66, 0.0, 9.997142, 10.0004425 
2.714605e+3, 2.997674e+2, -529801.3, -259981.78, 1271.4286, -0.07757045, 0.40236512, -259975.8, -257661.11, 0.0, 9.996617, 10.000178 
2.7144593e+3, 3.0976695e+2, -487588.3, -174369.0, -40304.273, -0.013427455, 0.42932266, -169265.89, -169265.89, 0.0, 9.996397, 10.000538 
2.7143154e+3, 3.1976536e+2, -544894.75, 51101.535, -132058.88, 0.36559787, 0.3005189, 79051.92, 79051.92, 0.0, 9.9949045, 10.002807 
2.7270806e+3, 1.2994699e+2, -1114999.1, -1609359.0, 65849.95, 0.41255915, 0.2585291, -1106378.1, 560163.94, 0.016312309, 10.005003, 9.998315 
2.7269325e+3, 1.3994353e+2, -1033572.2, -1555330.8, 20923.127, 0.24906845, 0.19727284, -1032734.5, 535836.9, 0.009225462, 10.005006, 9.99801 
2.726786e+3, 1.4994025e+2, -865725.7, -1405729.8, 36492.45, 0.21011676, 0.17321797, -863270.75, 607331.8, 0.0037276042, 10.005396, 9.998164 
2.726641e+3, 1.5993716e+2, -743122.75, -1319924.6, 24252.418, 0.2311476, 0.15672663, -742104.9, 630527.8, 0.00090895605, 10.005654, 9.997957 
2.726495e+3, 1.6993442e+2, -817232.7, -1283308.0, 81734.14, 0.19389577, 0.18856876, -803314.9, 471346.3, 0.00010623803, 10.004387, 9.998139 
2.7263492e+3, 1.7993185e+2, -920237.7, -1262569.0, 133809.19, 0.14033447, 0.22268103, -874141.8, 302546.6, 0.0000025953589, 10.002914, 9.998323 
2.7262047e+3, 1.8992926e+2, -935789.75, -1145162.1, 117205.66, 0.17135511, 0.19963922, -883325.1, 195390.97, 0.0, 10.001825, 9.998975 
2.726061e+3, 1.9992697e+2, -969977.44, -1126218.5, 38067.8, 0.23483099, 0.18147534, -961195.9, 19544.63, 0.0, 10.000978, 9.998844 
2.725916e+3, 2.0992598e+2, -835470.3, -983442.0, 48198.035, 0.298752, 0.2952474, -821155.8, 61595.848, 0.0, 10.001121, 9.999078 
2.7257702e+3, 2.1992506e+2, -727849.4, -893491.6, 87417.57, 0.3407624, 0.40530252, -690249.7, 94512.28, 0.0, 10.001233, 9.998975 
2.7256233e+3, 2.2992232e+2, -759703.6, -819210.5, 83574.195, 0.2505776, 0.32709283, -700744.56, -13956.605, 0.0, 10.000177, 9.999316 
2.7254763e+3, 2.3991954e+2, -827309.06, -834778.4, 100770.76, 0.1511825, 0.23196158, -730203.75, -141389.25, 0.0, 9.999181, 9.99902 
2.7253306e+3, 2.4991797e+2, -613454.44, -669342.0, 98155.625, 0.09727828, 0.28205597, -539342.44, -48510.254, 0.0, 9.999929, 9.999119 
2.7251852e+3, 2.5991672e+2, -421311.4, -512412.97, 63487.16, 0.056737028, 0.34821823, -388724.53, 4122.3916, 0.0, 10.000516, 9.999245 
2.7250394e+3, 2.6991504e+2, -567629.1, -470441.9, 34151.125, 0.08206766, 0.32993355, -459641.6, -164777.19, 0.0, 9.99857, 9.999796 
2.7248937e+3, 2.7991349e+2, -752057.8, -455747.4, 52220.336, 0.12572317, 0.2897205, -446813.7, -249933.69, 0.0, 9.996397, 10.000277 
2.7247474e+3, 2.8991345e+2, -644131.06, -242954.14, 61360.67, 0.030080369, 0.30321386, -233778.77, -134899.58, 0.0, 9.995995, 10.001258 
2.7245998e+3, 2.9991385e+2, -616571.2, -262804.06, 63035.824, -0.12383644, 0.34223604, -251907.69, -251033.22, 0.0, 9.995867, 10.000515 
2.7244547e+3, 3.099132e+2, -565341.7, -223386.13, 29023.197, 0.02611104, 0.3504459, -220940.3, -220940.3, 0.0, 9.995927, 10.000419 
2.72431e+3, 3.1991276e+2, -438302.34, 50383.594, -195659.0, 0.38467476, 0.35887662, 119067.664, 119067.664, 0.0, 9.995876, 10.002326 
2.7370843e+3, 1.3009557e+2, -1157922.1, -1802213.8, 52226.574, 0.37081522, 0.31021652, -1153716.1, 511368.03, 0.011846098, 10.005433, 9.996776 
2.7369368e+3, 1.400899e+2, -1084693.4, -1682285.0, 38137.066, 0.2715073, 0.16526335, -1082269.4, 484871.0, 0.0065201963, 10.005078, 9.997103 
2.7367902e+3, 1.5008657e+2, -924944.4, -1467744.4, 68794.11, 0.17424719, 0.1790733, -916361.2, 552812.4, 0.0025274816, 10.005121, 9.997872 
2.7366444e+3, 1.6008376e+2, -783706.2, -1279900.5, 21262.727, 0.15695891, 0.19889411, -782796.75, 588404.1, 0.00058306486, 10.005111, 9.998497 
2.7364996e+3, 1.7008133e+2, -754640.75, -1103465.6, 26112.207, 0.33586624, 0.14850011, -752696.9, 520523.94, 0.00006212914, 10.004165, 9.999485 
2.736354e+3, 1.8007904e+2, -916144.7, -1269185.1, 75514.53, 0.46253031, 0.10990116, -900670.56, 274570.1, 0.0000011486238, 10.002975, 9.998252 
2.7362064e+3, 1.9007629e+2, -1026661.75, -1355051.4, 83038.57, 0.2388975, 0.18476133, -1006858.3, 70415.74, 0.0, 10.001914, 9.997493 
2.7360588e+3, 2.000738e+2, -966448.1, -1128321.8, 40737.316, 0.015238445, 0.25529903, -956774.25, 22530.95, 0.0, 10.001014, 9.998815 
2.7359137e+3, 2.1007253e+2, -735351.1, -779238.4, 66143.54, 0.07976313, 0.23748767, -687606.25, 193709.19, 0.0, 10.001132, 10.000477 
2.735769e+3, 2.2007151e+2, -691752.3, -807818.9, 67269.3, 0.16319895, 0.21753788, -660942.9, 122379.695, 0.0, 10.001182, 9.999591 
2.735621e+3, 2.300699e+2, -763442.0, -839940.3, 32826.93, 0.12244288, 0.24975717, -751286.75, -65948.6, 0.0, 10.000231, 9.99915 
2.7354735e+3, 2.400681e+2, -839302.0, -883077.75, 95046.28, 0.081558846, 0.27535307, -763655.9, -176299.45, 0.0, 9.999276, 9.998645 
2.7353305e+3, 2.5006515e+2, -651773.56, -753806.1, 134844.75, 0.17213425, 0.23901333, -558617.1, -69229.195, 0.0, 9.999944, 9.998537 
2.7351862e+3, 2.600626e+2, -444228.16, -555249.06, 37129.63, 0.2399133, 0.22557749, -432955.22, -41539.438, 0.0, 10.000487, 9.998967 
2.7350375e+3, 2.7006257e+2, -568613.06, -469702.47, -57053.547, 0.13949998, 0.37924856, -443653.25, -150234.4, 0.0, 9.998554, 9.99981 
2.7348885e+3, 2.8006268e+2, -728438.8, -411455.84, 5131.06, 0.053508528, 0.4955162, -411372.78, -215953.64, 0.0, 9.99641, 10.000578 
2.7347425e+3, 2.9006106e+2, -608303.0, -169292.48, 56477.875, 0.04778763, 0.30468005, -162143.14, -64714.906, 0.0, 9.995988, 10.001772 
2.7345955e+3, 3.0005985e+2, -602913.6, -238139.08, 63442.246, -0.050976384, 0.14076376, -227420.08, -227420.08, 0.0, 9.995875, 10.000684 
2.7344495e+3, 3.1006092e+2, -572531.94, -238409.84, 31099.316, 0.03179746, 0.32473588, -235539.84, -235539.84, 0.0, 9.995918, 10.000324 
2.7343026e+3, 3.2005927e+2, -497303.47, -119462.64, -232983.11, 0.15021992, 0.25205526, -8429.633, -8429.633, 0.0, 9.996044, 10.001098 
2.747089e+3, 1.3024302e+2, -901808.0, -1668044.0, 18535.76, 0.31287694, 0.25766388, -901359.9, 762279.4, 0.008227939, 10.007142, 9.996876 
2.7469423e+3, 1.402383e+2, -1036180.06, -1640481.6, 72577.945, 0.42580825, 0.19863279, -1027585.5, 538101.4, 0.0043925126, 10.005326, 9.99727 
2.7467942e+3, 1.5023527e+2, -1125494.5, -1541937.8, 140396.69, 0.24619414, 0.2268656, -1082583.8, 385133.8, 0.0016269346, 10.003651, 9.998069 
2.7466467e+3, 1.6023251e+2, -1193120.1, -1494586.5, 117804.78, 0.122417755, 0.24839774, -1152546.0, 217198.69, 0.00035309666, 10.002374, 9.998342 
2.7465013e+3, 1.7022951e+2, -968634.0, -1262982.0, 60162.04, 0.26734617, 0.18499626, -956812.2, 314959.88, 0.000033583674, 10.002944, 9.998976 
2.7463558e+3, 1.8022679e+2, -815872.4, -1191643.3, 20913.395, 0.39549345, 0.13497908, -814712.0, 359085.06, 0.00000040337267, 10.003544, 9.998505 
2.7462077e+3, 1.90225e+2, -856730.9, -1173315.8, 109407.87, 0.2536, 0.2316282, -822600.4, 253217.6, 0.0, 10.002658, 9.998379 
2.74606e+3, 2.0022334e+2, -860212.3, -1053081.6, 186906.73, 0.09746093, 0.32197082, -746328.7, 231509.31, 0.0, 10.001646, 9.999026 
2.7459142e+3, 2.1022111e+2, -748356.25, -831930.25, 154973.78, 0.10206194, 0.23915574, -629634.56, 250223.78, 0.0, 10.0012455, 10.000059 
2.7457684e+3, 2.2021909e+2, -732371.06, -861352.75, 55417.242, 0.13012959, 0.15824586, -711831.7, 70044.67, 0.0, 10.001058, 9.999277 
2.745621e+3, 2.3021781e+2, -598932.8, -789917.0, -909.19, 0.108050555, 0.24936885, -598928.44, 84961.12, 0.0, 10.001492, 9.998884 
2.7454734e+3, 2.4021643e+2, -502029.53, -723005.25, 52713.715, 0.09585816, 0.33573756, -490098.8, 95805.49, 0.0, 10.001611, 9.998616 
2.7453288e+3, 2.5021315e+2, -686867.4, -747854.4, 127098.85, 0.15522681, 0.2538373, -586655.25, -98717.92, 0.0, 9.999616, 9.99873 
2.745184e+3, 2.6021022e+2, -836735.75, -714144.5, 74369.46, 0.2050664, 0.18379736, -679066.0, -289098.97, 0.0, 9.99767, 9.999231 
2.7450344e+3, 2.702105e+2, -624083.44, -464183.34, 4272.152, 0.1254718, 0.3439616, -464069.3, -172103.56, 0.0, 9.998045, 10.000091 
2.744885e+3, 2.802109e+2, -439397.5, -285446.22, 76366.09, 0.06673216, 0.4736722, -253992.02, -60029.59, 0.0, 9.9984665, 10.000445 
2.7447385e+3, 2.902082e+2, -398621.78, -127533.945, 62803.805, 0.077947244, 0.21893404, -113690.875, -17709.094, 0.0, 9.997691, 10.001233 
2.744591e+3, 3.00206e+2, -484701.0, -190688.88, 12159.779, -0.00058995426, 0.0010215668, -190186.83, -190186.83, 0.0, 9.996734, 10.000594 
2.7444452e+3, 3.1020862e+2, -506148.13, -168895.13, 6764.8965, 0.10533848, 0.31321797, -168759.48, -168759.48, 0.0, 9.996219, 10.000655 
2.7442953e+3, 3.2020676e+2, -548774.2, -178758.63, -177463.98, -0.039723758, 0.20312874, -107404.66, -107404.66, 0.0, 9.995856, 10.000773 
2.7570945e+3, 1.3039029e+2, -930262.06, -1586851.1, -49227.406, 0.24740684, 0.1678657, -926591.75, 735605.25, 0.0054178247, 10.006519, 9.997734 
2.7569488e+3, 1.40388e+2, -999745.25, -1555053.3, 8723.068, 0.62732255, 0.26980925, -999608.25, 564611.06, 0.0027953705, 10.005276, 9.997882 
2.756798e+3, 1.5038538e+2, -1072791.4, -1474029.3, 72068.58, 0.35962293, 0.29590267, -1060239.4, 406006.16, 0.0009848287, 10.00382, 9.998456 
2.7566478e+3, 1.6038261e+2, -1205043.3, -1571943.6, 96896.22, 0.09269085, 0.30241117, -1181025.8, 187248.05, 0.00019907262, 10.002599, 9.997704 
2.756501e+3, 1.7037854e+2, -1080447.3, -1491046.9, 101273.45, 0.06990336, 0.26406214, -1056827.1, 213490.23, 0.000016383781, 10.002924, 9.997419 
2.756355e+3, 1.8037502e+2, -819190.3, -1137724.1, 37294.035, 0.09154492, 0.23681942, -814882.2, 357472.0, 0.00000009587778, 10.003279, 9.999005 
2.7562094e+3, 1.9037497e+2, -713298.6, -843293.0, 71930.04, 0.2427593, 0.31442788, -681349.6, 393001.1, 0.0, 10.002514, 10.000716 
2.7560633e+3, 2.0037483e+2, -853427.9, -1028099.94, 150053.28, 0.36750495, 0.3790802, -767144.9, 209203.67, 0.0, 10.0015955, 9.999226 
2.755916e+3, 2.1037121e+2, -871155.3, -1083560.8, 137939.81, 0.28306147, 0.28434458, -803270.6, 75115.44, 0.0, 10.001226, 9.998344 
2.755769e+3, 2.2036761e+2, -808124.5, -1009133.0, 62177.68, 0.18498825, 0.19951603, -790445.94, -10021.84, 0.0, 10.001011, 9.998289 
2.755622e+3, 2.3036605e+2, -632522.6, -844726.0, 23784.273, 0.17673922, 0.31088045, -629889.5, 52551.62, 0.0, 10.001423, 9.998543 
2.7554744e+3, 2.4036466e+2, -498942.5, -690833.06, 22524.33, 0.15869232, 0.41347256, -496334.03, 88121.93, 0.0, 10.001494, 9.998896 
2.755326e+3, 2.5036195e+2, -637784.4, -633868.0, 43151.25, 0.042580046, 0.32018685, -592630.5, -106150.41, 0.0, 9.9995575, 9.999543 
2.755178e+3, 2.6035947e+2, -781269.2, -609146.9, 46800.92, -0.05341629, 0.21604338, -597244.5, -208742.7, 0.0, 9.997707, 9.999937 
2.7550307e+3, 2.7035877e+2, -581502.8, -385361.97, 29644.318, 0.043990377, 0.2170126, -380979.5, -90473.516, 0.0, 9.998079, 10.000618 
2.7548832e+3, 2.8035796e+2, -475047.0, -376883.1, 71202.56, 0.1533082, 0.2084927, -339484.75, -146973.53, 0.0, 9.998536, 9.999787 
2.7547354e+3, 2.903547e+2, -513997.06, -376099.72, 23379.613, 0.106421106, 0.043127365, -372243.7, -277702.53, 0.0, 9.997726, 9.999511 
2.754587e+3, 3.0035236e+2, -499139.97, -230189.58, -18090.781, 0.0011471837, -0.05481051, -228978.17, -228978.17, 0.0, 9.996769, 10.000309 
2.754442e+3, 3.1035617e+2, -435444.94, -37688.21, -12450.928, 0.28322682, 0.31772342, -37298.84, -37298.84, 0.0, 9.996274, 10.001537 
2.754288e+3, 3.2035574e+2, -485283.0, -32272.354, -109404.336, -0.23307863, 0.2577717, -7234.5, -7234.5, 0.0, 9.995828, 10.001774 
2.7670994e+3, 1.3053872e+2, -1213037.0, -1655659.6, 5310.703, 0.33594897, 0.124979764, -1212973.3, 447771.16, 0.0033443477, 10.004262, 9.998349 
2.766952e+3, 1.4053763e+2, -995151.2, -1535836.4, 15501.429, 0.54664177, 0.30362284, -994707.1, 568046.56, 0.0016594115, 10.005229, 9.998036 
2.7668002e+3, 1.5053444e+2, -981595.0, -1458977.5, 26378.355, 0.29033136, 0.28932974, -980141.8, 484644.28, 0.0005514423, 10.004576, 9.998191 
2.7666497e+3, 1.6053122e+2, -1019277.8, -1438744.9, 54455.645, 0.073834985, 0.25854483, -1012323.6, 354495.56, 0.00010150915, 10.00369, 9.99809 
2.7665034e+3, 1.7052853e+2, -1062042.8, -1384515.4, 178099.75, 0.1303336, 0.2829693, -983036.2, 285810.7, 0.0000067417363, 10.002635, 9.998288 
2.7663577e+3, 1.8052611e+2, -1037375.94, -1226345.6, 197117.56, 0.20476343, 0.30255932, -913268.2, 257603.1, 0.00000000965895, 10.00172, 9.9991455 
2.7662104e+3, 1.905246e+2, -889857.25, -983363.2, 106995.984, 0.2956259, 0.27715245, -819845.6, 253036.89, 0.0, 10.001548, 10.000216 
2.7660638e+3, 2.0052314e+2, -901519.25, -1093429.9, 64859.316, 0.37583426, 0.25573835, -881655.06, 93239.01, 0.0, 10.001452, 9.998839 
2.7659163e+3, 2.105203e+2, -907918.9, -1138234.1, 107892.07, 0.29848763, 0.27012673, -865272.9, 11652.755, 0.0, 10.001143, 9.998002 
2.765769e+3, 2.2051746e+2, -836778.1, -1011869.0, 112892.17, 0.21046785, 0.2851218, -781464.06, -2506.6675, 0.0, 10.000776, 9.998379 
2.7656218e+3, 2.3051532e+2, -765491.2, -859459.25, 132765.86, 0.19775158, 0.30637014, -671641.06, 9336.732, 0.0, 10.000308, 9.998976 
2.765474e+3, 2.4051338e+2, -726078.06, -756596.06, 138812.0, 0.1808613, 0.3199896, -601688.9, -18693.402, 0.0, 9.999755, 9.999279 
2.7653244e+3, 2.5051138e+2, -706859.5, -631476.5, 109595.25, 0.049514234, 0.26844922, -553272.5, -68260.08, 0.0, 9.998939, 9.999855 
2.7651748e+3, 2.6050952e+2, -708345.7, -579199.3, 116300.03, -0.059778105, 0.20818417, -510748.47, -123720.67, 0.0, 9.998244, 9.999878 
2.765028e+3, 2.70508e+2, -533143.3, -406093.78, 70125.63, 0.046000145, 0.16276585, -374998.25, -85958.336, 0.0, 9.998607, 10.000219 
2.764881e+3, 2.8050634e+2, -465786.7, -430466.97, 36402.56, 0.16799173, 0.111299, -407666.75, -216612.8, 0.0, 9.998854, 9.999265 
2.7647322e+3, 2.9050335e+2, -477446.13, -431493.84, 29413.291, 0.086796604, 0.0371616, -417146.47, -324062.38, 0.0, 9.9983015, 9.998848 
2.7645826e+3, 3.0050138e+2, -399108.03, -192767.42, 48596.777, -0.02689568, 0.026728837, -181894.94, -181894.94, 0.0, 9.997517, 10.000198 
2.7644375e+3, 3.1050473e+2, -389949.2, 18007.262, 23866.654, 0.29132468, 0.33242404, 19398.785, 19398.785, 0.0, 9.996449, 10.00183 
2.7642822e+3, 3.2050413e+2, -406009.75, -5342.1543, -95680.47, -0.32654566, 0.23838544, 16333.917, 16333.917, 0.0, 9.996429, 10.001665 
2.7771038e+3, 1.3068801e+2, -1125834.6, -1564776.3, 59739.445, 0.46216562, 0.1178986, -1117849.4, 541434.1, 0.0019016333, 10.004646, 9.998788 
2.776954e+3, 1.4068748e+2, -1023968.75, -1567121.5, 22396.916, 0.31620452, 0.32135737, -1023046.8, 538239.75, 0.00090028223, 10.005103, 9.997882 
2.7768022e+3, 1.506831e+2, -1056837.0, -1565602.0, 507.3927, 0.13209945, 0.24125381, -1056836.5, 406495.3, 0.00027760782, 10.004357, 9.997567 
2.776652e+3, 1.6067925e+2, -985500.75, -1311709.5, 26352.313, 0.06341055, 0.16243988, -983385.7, 381985.44, 0.00004443142, 10.003443, 9.999083 
2.776507e+3, 1.7067935e+2, -917855.6, -1067198.9, 133565.2, 0.33779913, 0.27176088, -839505.94, 427858.38, 0.0000020107127, 10.002555, 10.000508 
2.7763617e+3, 1.80679e+2, -1055754.9, -1270681.9, 162236.13, 0.546833, 0.34777194, -968618.94, 200744.03, 0.00000000000031198744, 10.001743, 9.998833 
2.7762118e+3, 1.9067402e+2, -1041390.6, -1314701.8, 102891.76, 0.36981773, 0.15974514, -1006986.4, 64427.477, 0.0, 10.001614, 9.997913 
2.7760622e+3, 2.0066945e+2, -946030.56, -1192445.1, 67470.45, 0.19409701, 0.013745797, -928766.2, 44695.504, 0.0, 10.001476, 9.998151 
2.7759156e+3, 2.1066889e+2, -863153.9, -1049284.8, 103349.125, 0.19459374, 0.22115785, -817143.0, 58328.29, 0.0, 10.001159, 9.998607 
2.7757686e+3, 2.2066832e+2, -782358.9, -891727.0, 101369.164, 0.2004421, 0.39742163, -721864.56, 55614.617, 0.0, 10.000741, 9.999223 
2.7756208e+3, 2.3066539e+2, -698893.0, -714828.7, 115751.375, 0.17531091, 0.24032979, -590835.56, 88666.99, 0.0, 10.000275, 9.999988 
2.7754727e+3, 2.406626e+2, -704254.25, -704354.3, 109997.33, 0.15370832, 0.085367195, -594306.94, -12782.487, 0.0, 9.99972, 9.999659 
2.7753234e+3, 2.5066143e+2, -713278.75, -651106.5, 73458.7, 0.16161169, 0.11865775, -602427.2, -118892.33, 0.0, 9.9989605, 9.999712 
2.775174e+3, 2.6066032e+2, -756560.2, -695696.7, 110939.05, 0.15283416, 0.16756423, -611091.2, -225545.64, 0.0, 9.998309, 9.999049 
2.7750263e+3, 2.706582e+2, -624058.44, -600478.44, 86332.46, 0.115972266, 0.18410783, -525134.6, -237566.64, 0.0, 9.998627, 9.998878 
2.7748778e+3, 2.8065613e+2, -481722.25, -471380.28, 28903.594, 0.08755952, 0.1962135, -447188.75, -257598.69, 0.0, 9.998883, 9.998972 
2.7747285e+3, 2.9065442e+2, -439796.28, -361832.13, 2821.2114, 0.0094170375, 0.2199466, -361730.2, -270121.25, 0.0, 9.99833, 9.999316 
2.774578e+3, 3.0065325e+2, -386183.0, -186850.89, 14320.719, -0.11352908, 0.25919724, -185827.3, -185827.3, 0.0, 9.997598, 10.000204 
2.7744308e+3, 3.1065416e+2, -423096.22, -47150.547, -18911.85, 0.06574149, 0.35220787, -46201.586, -46201.586, 0.0, 9.996431, 10.001393 
2.774279e+3, 3.2065162e+2, -503737.1, -252844.23, -53102.656, -0.1638615, 0.14757235, -242067.69, -242067.69, 0.0, 9.996563, 9.999929 
2.7871075e+3, 1.3083996e+2, -957745.94, -1512556.3, 104259.03, 0.4234198, 0.24612945, -938800.7, 718995.7, 0.0009725939, 10.0059185, 9.998532 
2.7869573e+3, 1.4083825e+2, -1129184.3, -1641056.9, 29653.123, 0.3089068, 0.36091253, -1127472.1, 432340.22, 0.00043414597, 10.004477, 9.997675 
2.7868053e+3, 1.508339e+2, -1229213.6, -1667623.1, 20530.133, 0.19527107, 0.30203348, -1228254.3, 233602.14, 0.0001205515, 10.0032625, 9.997392 
2.786655e+3, 1.6082999e+2, -1131454.3, -1348141.8, 66248.7, 0.18336639, 0.22434592, -1112804.9, 251089.81, 0.000015328103, 10.0023, 9.99938 
2.7865088e+3, 1.7082916e+2, -943153.9, -1016245.8, 107096.52, 0.38493735, 0.18925607, -866539.44, 399354.38, 0.00000031509992, 10.0021105, 10.001071 
2.7863622e+3, 1.8082827e+2, -1006102.8, -1239722.5, 88615.04, 0.53562546, 0.16915184, -976293.5, 191601.89, 0.0, 10.002048, 9.998899 
2.7862126e+3, 1.9082473e+2, -996393.06, -1326997.3, 126169.805, 0.3882202, 0.14673337, -953744.2, 116191.195, 0.0, 10.002073, 9.997607 
2.7860633e+3, 2.0082131e+2, -864780.7, -1140876.0, 169595.55, 0.2330346, 0.13838452, -784150.94, 187823.81, 0.0, 10.001995, 9.998251 
2.7859154e+3, 2.1081996e+2, -802233.8, -979718.9, 195674.73, 0.19702312, 0.24297783, -676118.6, 197871.23, 0.0, 10.001412, 9.99896 
2.7857682e+3, 2.2081874e+2, -763952.5, -852632.1, 169274.45, 0.18217841, 0.3234479, -633307.0, 142695.23, 0.0, 10.00074, 9.999492 
2.7856195e+3, 2.3081629e+2, -743964.06, -716965.75, 131331.22, 0.16708122, 0.19784705, -598441.75, 79579.18, 0.0, 9.9998865, 10.000156 
2.785471e+3, 2.4081388e+2, -781013.2, -762829.1, 90652.17, 0.16592899, 0.0766382, -680814.2, -100774.734, 0.0, 9.999295, 9.999455 
2.7853224e+3, 2.508123e+2, -596101.6, -649411.3, 37716.16, 0.21344717, 0.10875746, -576572.2, -94516.56, 0.0, 10.000007, 9.999216 
2.7851734e+3, 2.608108e+2, -442381.78, -563203.75, 65969.39, 0.2334318, 0.15799615, -413341.94, -29270.57, 0.0, 10.000549, 9.9988785 
2.785024e+3, 2.7080885e+2, -440308.16, -505615.72, 127315.86, 0.109214835, 0.19152294, -341525.25, -55433.73, 0.0, 9.999872, 9.998922 
2.784875e+3, 2.8080705e+2, -452644.88, -448477.03, 139193.69, 0.008079105, 0.22854358, -311351.66, -123240.91, 0.0, 9.99906, 9.999037 
2.7847254e+3, 2.9080576e+2, -395694.7, -329311.28, 87728.31, -0.048067737, 0.28965735, -268705.63, -178579.8, 0.0, 9.998595, 9.999408 
2.7845743e+3, 3.0080462e+2, -309306.72, -170101.81, 74794.38, -0.15250206, 0.3341666, -137534.3, -137534.3, 0.0, 9.99822, 10.000014 
2.7844262e+3, 3.108036e+2, -178838.3, 27250.55, 31647.74, 0.0032571747, 0.26842198, 32000.99, 32000.99, 0.0, 9.998305, 10.000995 
2.7842766e+3, 3.2080093e+2, -465148.06, -329497.0, 51428.78, -0.00057538, 0.11587609, -312203.66, -312203.66, 0.0, 9.997249, 9.999067 
2.7971113e+3, 1.3099311e+2, -1046483.8, -1622556.8, 43472.637, 0.30675355, 0.4254643, -1043221.7, 613075.4, 0.00043663103, 10.005598, 9.9979315 
2.7969617e+3, 1.4098966e+2, -1135907.0, -1667496.9, -24952.074, 0.4053209, 0.41142195, -1134738.4, 423594.56, 0.0001802558, 10.004529, 9.99747 
2.7968094e+3, 1.5098602e+2, -1187029.3, -1639351.1, -17967.234, 0.36214256, 0.42196357, -1186316.6, 274051.25, 0.000042659834, 10.003514, 9.997467 
2.796658e+3, 1.6098234e+2, -1102713.6, -1354305.3, 58074.61, 0.35042378, 0.36722705, -1089955.3, 272446.03, 0.0000036906401, 10.002583, 9.999203 
2.7965093e+3, 1.709784e+2, -965491.44, -1076571.5, 103642.41, 0.3263636, 0.057264965, -903445.56, 360984.5, 0.000000010797318, 10.002168, 10.00063 
2.796361e+3, 1.8097553e+2, -1002154.4, -1199838.6, 81543.86, 0.30769846, -0.14038695, -972859.25, 193591.73, 0.0, 10.001908, 9.999242 
2.7962136e+3, 1.9097658e+2, -932167.94, -1191199.5, 121275.984, 0.37446675, 0.21455099, -884251.5, 184196.08, 0.0, 10.002061, 9.998546 
2.7960658e+3, 2.0097692e+2, -829859.3, -1069310.4, 148789.61, 0.404231, 0.5020662, -758607.0, 211843.67, 0.0, 10.001995, 9.998744 
2.7959168e+3, 2.1097276e+2, -800587.5, -959593.5, 165012.5, 0.26446542, 0.30014765, -696924.3, 175565.42, 0.0, 10.001337, 9.999136 
2.7957672e+3, 2.2096895e+2, -799513.5, -894993.44, 134313.98, 0.14093271, 0.11437319, -704707.5, 69817.4, 0.0, 10.000602, 9.999269 
2.7956185e+3, 2.3096803e+2, -780095.9, -793731.9, 95364.875, 0.16613437, 0.18783881, -691305.6, -14772.944, 0.0, 9.999891, 9.999629 
2.7954698e+3, 2.4096695e+2, -822517.0, -863550.3, 94944.0, 0.19641148, 0.25613534, -745898.2, -167355.55, 0.0, 9.999353, 9.998739 
2.795321e+3, 2.5096378e+2, -652516.94, -769145.2, 70398.88, 0.20123395, 0.21319933, -619416.94, -138841.16, 0.0, 10.000015, 9.998392 
2.795172e+3, 2.6096097e+2, -406412.56, -488300.13, 62705.793, 0.16925025, 0.17375427, -372467.03, 10137.52, 0.0, 10.0005455, 9.999396 
2.795022e+3, 2.7096003e+2, -341425.63, -304358.38, 95095.98, 0.024374265, 0.18396932, -226006.81, 58603.15, 0.0, 9.999882, 10.000305 
2.794872e+3, 2.8095907e+2, -423401.88, -399316.88, 116024.84, -0.08561033, 0.20219348, -294711.25, -108095.37, 0.0, 9.999103, 9.999356 
2.7947223e+3, 2.9095724e+2, -418881.22, -380865.63, 70451.734, -0.091555156, 0.23081, -326902.6, -238267.25, 0.0, 9.998607, 9.99905 
2.7945718e+3, 3.009553e+2, -336852.66, -231054.67, 74405.53, -0.13695346, 0.2273347, -192660.25, -192660.25, 0.0, 9.998233, 9.999592 
2.794425e+3, 3.1095266e+2, -192115.1, -33997.555, 39774.906, 0.13934289, 0.055490002, -24555.86, -24555.86, 0.0, 9.99844, 10.000515 
2.794273e+3, 3.2095283e+2, -451711.16, -303901.25, -54989.434, 0.010959873, 0.20871763, -285687.9, -285687.9, 0.0, 9.9972725, 9.999225 
2.8071144e+3, 1.3114372e+2, -1269105.0, -1858548.8, 51709.555, 0.22316718, 0.32908294, -1264603.1, 390211.7, 0.00016830667, 10.004622, 9.996782 
2.806966e+3, 1.4113978e+2, -1104749.4, -1629871.8, -38333.293, 0.49691153, 0.34373996, -1101965.9, 454894.9, 0.00006180242, 10.004644, 9.997675 
2.806813e+3, 1.5113667e+2, -975636.8, -1422318.3, 6245.634, 0.44582936, 0.3213147, -975549.5, 483338.5, 0.000011320441, 10.004474, 9.998493 
2.8066608e+3, 1.611336e+2, -926331.75, -1320449.5, 94831.375, 0.40696067, 0.2718384, -904700.9, 456213.34, 0.00000051064126, 10.004017, 9.998744 
2.8065103e+3, 1.7112999e+2, -1033390.1, -1272032.3, 87628.664, 0.31441534, 0.12457843, -1004669.7, 258276.84, 0.000000000000026948692, 10.002415, 9.999165 
2.8063607e+3, 1.8112715e+2, -1108994.1, -1252885.5, 61930.01, 0.23734906, 0.032509495, -1086010.8, 78961.39, 0.0, 10.001201, 9.999209 
2.8062138e+3, 1.9112748e+2, -895494.56, -1078464.6, 115747.29, 0.32128245, 0.2453136, -839443.3, 227528.17, 0.0, 10.001912, 9.999388 
2.806067e+3, 2.011274e+2, -754702.8, -986250.3, 92770.91, 0.39398387, 0.41900748, -722118.9, 246855.64, 0.0, 10.002307, 9.999165 
2.8059167e+3, 2.1112382e+2, -888255.56, -987647.5, 76553.61, 0.29093692, 0.25568482, -846681.94, 24326.434, 0.0, 10.000675, 9.999261 
2.8057668e+3, 2.2112054e+2, -972180.94, -973918.6, 82897.37, 0.19661297, 0.11217097, -890147.8, -117108.625, 0.0, 9.999407, 9.999296 
2.805618e+3, 2.3111984e+2, -715325.0, -773054.94, 90832.69, 0.22885107, 0.21236514, -648881.2, 26164.566, 0.0, 10.000387, 9.999528 
2.8054693e+3, 2.4111885e+2, -573558.06, -753331.56, 110049.125, 0.25672886, 0.301153, -521351.72, 55703.957, 0.0, 10.001109, 9.998648 
2.8053197e+3, 2.5111535e+2, -659106.44, -779473.56, 126721.31, 0.19154285, 0.23160245, -579003.3, -99911.49, 0.0, 10.0000105, 9.998319 
2.80517e+3, 2.611122e+2, -617647.0, -584538.8, 150346.73, 0.11197973, 0.16604863, -449837.53, -68714.29, 0.0, 9.999081, 9.999437 
2.8050208e+3, 2.7111134e+2, -350563.97, -296921.2, 101915.69, 0.01888044, 0.17943077, -218356.66, 64770.45, 0.0, 9.999774, 10.000405 
2.8048712e+3, 2.8111044e+2, -269075.72, -313377.3, 28132.635, -0.042672444, 0.18843542, -255420.05, -70288.2, 0.0, 10.000113, 9.999461 
2.80472e+3, 2.911082e+2, -403214.5, -361312.2, -4430.691, -0.052752525, 0.16221376, -360848.8, -273695.13, 0.0, 9.998665, 9.999155 
2.8045687e+3, 3.0110586e+2, -459043.78, -293555.2, 66935.13, -0.09909061, 0.11612088, -269871.44, -269871.44, 0.0, 9.997416, 9.999555 
2.804422e+3, 3.1110328e+2, -279911.7, -94236.64, 82987.625, 0.16011596, -0.03882224, -62552.07, -62552.07, 0.0, 9.997921, 10.000347 
2.804269e+3, 3.2110494e+2, -79686.12, -91271.01, -23139.514, -0.08245037, 0.2679965, -61625.063, -61625.063, 0.0, 9.999692, 9.999514 
2.8171173e+3, 1.3129342e+2, -1375756.0, -2063691.8, 38167.316, 0.14278118, 0.123923905, -1373644.9, 279693.28, 0.000055113, 10.004562, 9.9953985 
2.8169703e+3, 1.4128943e+2, -1110718.5, -1588417.5, -36465.13, 0.5695153, 0.21440217, -1107950.9, 447439.7, 0.00001690069, 10.004415, 9.99807 
2.8168166e+3, 1.5128675e+2, -908876.6, -1230427.4, -6207.326, 0.4770886, 0.107956216, -908756.8, 548654.1, 0.0000020402292, 10.004237, 9.9999275 
2.8166637e+3, 1.6128452e+2, -1003121.7, -1436945.1, 41881.152, 0.39887276, 0.06321597, -999115.5, 360313.1, 0.00000003306773, 10.003829, 9.998037 
2.8165117e+3, 1.712832e+2, -1153692.1, -1554356.5, 31294.383, 0.32560435, 0.3206215, -1151262.6, 110186.7, 0.0, 10.002552, 9.997162 
2.816361e+3, 1.8128145e+2, -1086952.4, -1273124.5, 80588.38, 0.24368374, 0.4852677, -1056914.5, 106557.53, 0.0, 10.001481, 9.998939 
2.816214e+3, 1.912777e+2, -845163.0, -970011.44, 160868.14, 0.2341575, 0.23337954, -735031.9, 330471.22, 0.0, 10.001888, 10.000148 
2.8160667e+3, 2.0127457e+2, -771188.2, -957650.4, 64555.523, 0.24861301, 0.038595542, -751019.75, 216509.28, 0.0, 10.002035, 9.999494 
2.8159162e+3, 2.1127388e+2, -888898.4, -982418.1, 10585.957, 0.2884265, 0.15390474, -887715.06, -18177.098, 0.0, 10.000646, 9.999312 
2.8157663e+3, 2.2127318e+2, -944582.7, -940988.1, 88404.695, 0.3141442, 0.25945795, -854362.44, -82815.63, 0.0, 9.99951, 9.9994755 
2.8156185e+3, 2.3127167e+2, -689236.25, -733748.75, 135768.55, 0.33452967, 0.25445372, -573911.9, 99648.266, 0.0, 10.000449, 9.99977 
2.81547e+3, 2.4126987e+2, -544495.75, -690429.7, 94120.86, 0.32116324, 0.23353396, -498370.66, 77205.38, 0.0, 10.001095, 9.999088 
2.8153187e+3, 2.5126705e+2, -619838.8, -697283.44, 75378.29, 0.1763836, 0.17945017, -573818.5, -96215.625, 0.0, 10.000006, 9.998886 
2.8151676e+3, 2.6126444e+2, -647168.3, -656152.5, 150816.48, 0.052630443, 0.1420881, -500777.03, -121148.94, 0.0, 9.999121, 9.998929 
2.8150204e+3, 2.7126276e+2, -430989.38, -470443.63, 132466.33, 0.08935807, 0.18067841, -316789.3, -35145.598, 0.0, 9.9998, 9.999202 
2.814872e+3, 2.8126106e+2, -265096.56, -315306.28, -2073.8394, 0.12935492, 0.19249068, -265011.03, -81351.7, 0.0, 10.000152, 9.999432 
2.814719e+3, 2.9125845e+2, -359453.9, -271442.44, -70223.69, 0.0694869, 0.07996798, -232575.55, -146893.25, 0.0, 9.998662, 9.999778 
2.8145656e+3, 3.0125633e+2, -425772.28, -228471.03, 59010.883, -0.06345128, -0.002268675, -212168.48, -212168.48, 0.0, 9.997427, 9.999999 
2.8144175e+3, 3.1125602e+2, -261208.58, -57955.316, 109200.57, 0.021195872, 0.038153138, -10408.435, -10408.435, 0.0, 9.997926, 10.000597 
2.814266e+3, 3.2125625e+2, 2064.0696, 4118.8413, 157866.81, -0.27926937, 0.17506596, 160961.61, 160961.61, 0.0, 9.999994, 10.000032 
2.8271213e+3, 1.3144507e+2, -1372481.8, -1968017.8, 1834.9294, 0.23793362, 0.17892641, -1372476.0, 279375.7, 0.000016614085, 10.004165, 9.996253 
2.8269723e+3, 1.4143969e+2, -1203516.6, -1581608.3, -6048.7173, 0.49477196, 0.05934548, -1203419.9, 350494.66, 0.000004032603, 10.003557, 9.998526 
2.826818e+3, 1.5143889e+2, -1067527.4, -1291972.6, -19947.596, 0.37093818, 0.12048729, -1065768.4, 390151.84, 0.00000022629743, 10.003091, 10.000052 
2.8266647e+3, 1.6143806e+2, -1124971.9, -1466972.6, -11.911986, 0.30751392, 0.20142502, -1124971.9, 232954.95, 0.0, 10.0028715, 9.998289 
2.826514e+3, 1.7143601e+2, -1025359.9, -1460911.8, 89845.875, 0.35346714, 0.35518694, -1007554.3, 252398.4, 0.0, 10.0033, 9.997444 
2.8263634e+3, 1.8143351e+2, -838612.06, -1178358.8, 207632.55, 0.3530395, 0.43970346, -740216.44, 421764.88, 0.0, 10.003289, 9.998721 
2.8262147e+3, 1.9142947e+2, -938518.44, -1071481.6, 224125.02, 0.242805, 0.20874192, -771222.7, 292794.0, 0.0, 10.001497, 9.999635 
2.826066e+3, 2.0142618e+2, -1050879.1, -1091483.6, 85741.336, 0.18495579, 0.035744745, -983069.2, -17024.014, 0.0, 10.000121, 9.99949 
2.825916e+3, 2.1142614e+2, -862768.75, -942219.6, 46088.207, 0.299835, 0.19521134, -841648.25, 26399.828, 0.0, 10.000713, 9.999552 
2.8257665e+3, 2.2142582e+2, -697439.9, -840092.7, 145268.64, 0.3847253, 0.33205724, -606931.7, 163121.52, 0.0, 10.001287, 9.9993105 
2.8256178e+3, 2.3142336e+2, -610820.9, -739590.44, 165350.97, 0.31730217, 0.27058822, -497761.72, 174314.36, 0.0, 10.00118, 9.999377 
2.8254694e+3, 2.4142097e+2, -554654.4, -677405.06, 57222.598, 0.24011627, 0.21159264, -532116.94, 41981.055, 0.0, 10.000954, 9.999242 
2.8253174e+3, 2.5141913e+2, -499429.88, -589988.94, 11118.256, 0.13533184, 0.21013013, -498084.8, -21969.938, 0.0, 10.000619, 9.999328 
2.8251663e+3, 2.6141718e+2, -491895.3, -574234.56, 115472.69, 0.059454326, 0.20786658, -410472.6, -32339.979, 0.0, 10.000157, 9.998991 
2.825019e+3, 2.7141485e+2, -499743.5, -524997.94, 175182.06, 0.11957016, 0.19483013, -336734.16, -56579.227, 0.0, 9.999425, 9.999005 
2.824871e+3, 2.8141257e+2, -456345.47, -435291.6, 72285.42, 0.1885452, 0.17580706, -372770.63, -190593.66, 0.0, 9.99897, 9.999172 
2.8247175e+3, 2.914102e+2, -211177.14, -234639.45, -63304.87, 0.124496825, 0.11844358, -158525.64, -74326.08, 0.0, 9.999833, 9.999465 
2.8245637e+3, 3.0140832e+2, -18624.64, -53502.477, 11421.631, -0.030111806, 0.08492088, -15217.229, -15217.229, 0.0, 10.000315, 9.999809 
2.8244147e+3, 3.1140822e+2, -57081.055, 21374.02, 24042.322, -0.0030470877, 0.16326368, 28155.535, 28155.535, 0.0, 9.999415, 10.0004225 
2.8242633e+3, 3.2140648e+2, -381970.5, -116211.31, 85792.734, -0.31570867, 0.09118397, -90922.08, -90922.08, 0.0, 9.997095, 10.000595 
2.8371257e+3, 1.3159765e+2, -1269725.1, -1700354.4, -11569.707, 0.3880861, 0.3394234, -1269414.5, 380945.56, 0.000005296618, 10.003937, 9.998195 
2.8369728e+3, 1.4159061e+2, -1202194.5, -1541392.0, -19132.754, 0.32831398, -0.09352039, -1201118.6, 351313.44, 0.0000009746606, 10.003395, 9.998881 
2.836818e+3, 1.5159231e+2, -1106856.3, -1374230.1, -27698.502, 0.1847224, 0.25828522, -1104017.0, 350403.28, 0.000000015249226, 10.00309, 9.99949 
2.836665e+3, 1.615931e+2, -1062818.4, -1350595.9, 11911.115, 0.1647373, 0.51468724, -1062326.3, 294089.16, 0.0, 10.002925, 9.9990635 
2.8365165e+3, 1.7158857e+2, -924870.4, -1242405.9, 98702.3, 0.3917338, 0.28214896, -896690.7, 361765.5, 0.0, 10.003255, 9.998966 
2.8363672e+3, 1.815844e+2, -877582.8, -1232209.0, 150329.58, 0.51426244, 0.10362657, -822433.2, 338061.56, 0.0, 10.003173, 9.998407 
2.8362155e+3, 1.9158241e+2, -1015718.25, -1257214.8, 145883.03, 0.30405703, 0.19322398, -947093.9, 115423.164, 0.0, 10.001604, 9.998309 
2.8360647e+3, 2.015808e+2, -1036000.3, -1107184.0, 79202.65, 0.15990318, 0.28190258, -984759.94, -20224.695, 0.0, 10.0003195, 9.999289 
2.8359157e+3, 2.1157987e+2, -822654.4, -882544.2, 71609.23, 0.31408367, 0.32732844, -774981.1, 91563.37, 0.0, 10.000811, 9.999917 
2.8357667e+3, 2.2157848e+2, -735466.4, -909569.7, 147756.17, 0.39900914, 0.34492686, -651024.94, 117533.52, 0.0, 10.0012455, 9.998855 
2.835617e+3, 2.3157506e+2, -682709.5, -876311.44, 158813.34, 0.19498068, 0.26993817, -593520.94, 77071.62, 0.0, 10.001124, 9.998466 
2.835467e+3, 2.4157219e+2, -572125.25, -697655.2, 48002.46, 0.029824765, 0.22710031, -555873.25, 16747.791, 0.0, 10.000882, 9.999139 
2.835316e+3, 2.5157145e+2, -478289.78, -544535.56, -1319.3303, 0.07158636, 0.3145532, -478263.53, -3635.9272, 0.0, 10.000608, 9.999646 
2.835166e+3, 2.615704e+2, -440593.03, -476355.6, 93133.336, 0.104175635, 0.3576493, -363639.94, 12996.635, 0.0, 10.000191, 9.999649 
2.835017e+3, 2.715676e+2, -441389.2, -406795.44, 145210.89, 0.09828422, 0.21960498, -277854.88, 805.49066, 0.0, 9.999432, 9.999817 
2.8348678e+3, 2.815651e+2, -492246.16, -519122.9, 83599.96, 0.11067952, 0.14144404, -421011.38, -240327.47, 0.0, 9.999005, 9.998582 
2.834716e+3, 2.915637e+2, -299090.1, -430327.25, -25959.648, 0.099868305, 0.30191863, -294141.7, -211437.64, 0.0, 9.999888, 9.998096 
2.8345633e+3, 3.0156213e+2, -61738.48, -173750.23, -1582.9813, 0.0008282963, 0.42356926, -61716.117, -61716.117, 0.0, 10.0004425, 9.998924 
2.8344142e+3, 3.1155962e+2, -94721.57, -77723.195, -23624.283, 0.10480193, 0.32964393, -61115.75, -61115.75, 0.0, 9.999497, 9.999706 
2.8342605e+3, 3.2155615e+2, -398613.78, -70624.31, -122496.02, -0.16105169, 0.11750873, -29925.25, -29925.25, 0.0, 9.996763, 10.0010605 
2.8471285e+3, 1.3174924e+2, -1313876.8, -1599427.1, 31198.861, 0.42834973, 0.2558933, -1310507.8, 338370.2, 0.0000015499918, 10.003105, 9.999291 
2.8469735e+3, 1.4174451e+2, -1305582.6, -1572111.8, 7246.154, 0.21382949, -0.020670438, -1305385.8, 245538.03, 0.00000019575003, 10.002603, 9.999052 
2.8468198e+3, 1.5174589e+2, -1171307.1, -1448302.8, 17557.535, 0.1960807, 0.32970864, -1170198.6, 282718.53, 0.0000000003731763, 10.00284, 9.999101 
2.846668e+3, 1.6174605e+2, -1056758.3, -1368007.1, 46830.332, 0.25825143, 0.5587532, -1049864.9, 305055.03, 0.0, 10.003056, 9.998882 
2.846518e+3, 1.717406e+2, -985755.75, -1278581.9, 58100.777, 0.34731627, 0.24318784, -974649.0, 282319.25, 0.0, 10.002867, 9.998905 
2.8463677e+3, 1.8173613e+2, -938325.0, -1237690.8, 44194.754, 0.39291584, 0.028367085, -931936.94, 227071.88, 0.0, 10.002661, 9.998611 
2.846217e+3, 1.9173592e+2, -869328.6, -1158909.6, 100793.73, 0.32622126, 0.26861385, -837700.1, 223315.55, 0.0, 10.002496, 9.998553 
2.846066e+3, 2.0173533e+2, -780778.56, -1026186.7, 107144.31, 0.2765113, 0.4594725, -740583.3, 222442.31, 0.0, 10.002252, 9.998916 
2.845916e+3, 2.1173258e+2, -742451.2, -918691.94, 57361.883, 0.2987196, 0.3834149, -725426.0, 139626.66, 0.0, 10.001686, 9.999246 
2.8457657e+3, 2.2172986e+2, -748636.1, -903013.06, 96330.79, 0.29805693, 0.30825078, -702383.6, 64695.28, 0.0, 10.0011015, 9.998967 
2.8456163e+3, 2.3172733e+2, -735366.75, -849679.6, 177305.39, 0.18379666, 0.27942577, -606232.94, 62869.656, 0.0, 10.000541, 9.998927 
2.8454667e+3, 2.417251e+2, -681208.8, -759490.0, 136135.72, 0.09229962, 0.2756434, -578698.7, -7574.482, 0.0, 10.000176, 9.999052 
2.845316e+3, 2.5172392e+2, -514903.34, -601876.5, 55763.25, 0.101526365, 0.35206684, -487674.84, -14537.3125, 0.0, 10.000533, 9.999288 
2.8451654e+3, 2.617226e+2, -383113.72, -446720.28, 81895.445, 0.11544446, 0.39360666, -327063.06, 48087.82, 0.0, 10.000586, 9.99966 
2.8450155e+3, 2.717203e+2, -369880.34, -350872.9, 74381.984, 0.10530206, 0.28636152, -285389.97, -8219.977, 0.0, 9.999836, 10.000006 
2.844866e+3, 2.8171816e+2, -443109.38, -490954.66, 38052.793, 0.10746158, 0.23289196, -422084.2, -242894.7, 0.0, 9.999321, 9.998625 
2.8447142e+3, 2.9171696e+2, -302567.0, -436886.1, 44114.83, 0.07301364, 0.4154275, -289374.06, -208165.98, 0.0, 9.99989, 9.998048 
2.844562e+3, 3.0171534e+2, -145365.6, -238273.3, 99310.9, -0.02749672, 0.54538506, -82180.88, -82180.88, 0.0, 9.99999, 9.998692 
2.8444117e+3, 3.1171173e+2, -243177.45, -190859.28, 79187.0, 0.07978757, 0.38010287, -133622.45, -133622.45, 0.0, 9.998673, 9.999321 
2.8442582e+3, 3.217085e+2, -156349.27, 64224.58, -91473.336, -0.006315997, 0.21683429, 97222.6, 97222.6, 0.0, 9.998348, 10.001226 
2.8571302e+3, 1.3190067e+2, -1302558.0, -1520439.9, -4105.6895, 0.39184362, 0.08829991, -1302480.6, 344916.53, 0.00000031277617, 10.002875, 9.999939 
2.856974e+3, 1.4189988e+2, -1314094.8, -1576659.6, -1760.1816, 0.13133116, 0.16135116, -1314083.0, 235319.66, 0.000000029966262, 10.002548, 9.999046 
2.8568226e+3, 1.5189952e+2, -1180914.4, -1487033.6, 21066.115, 0.31345084, 0.36171123, -1179471.5, 271940.88, 0.0, 10.002919, 9.998797 
2.8566718e+3, 1.6189796e+2, -1096056.1, -1468516.8, 41367.785, 0.4620874, 0.46252677, -1091516.9, 261915.45, 0.0, 10.003137, 9.998154 
2.8565186e+3, 1.7189243e+2, -1051827.4, -1413421.5, 59345.633, 0.2367252, 0.22869267, -1042336.6, 213147.55, 0.0, 10.002857, 9.997984 
2.8563663e+3, 1.8188848e+2, -913693.1, -1164999.9, 53643.92, 0.092456356, 0.106278874, -902721.3, 254800.75, 0.0, 10.002566, 9.999158 
2.8562182e+3, 1.9188988e+2, -795156.7, -989261.75, 100540.08, 0.32858357, 0.39659667, -752468.4, 307043.9, 0.0, 10.002422, 9.999756 
2.8560692e+3, 2.0188987e+2, -833903.2, -1116249.5, 89114.44, 0.47082245, 0.58610314, -808129.5, 153386.34, 0.0, 10.002164, 9.998341 
2.8559157e+3, 2.1188459e+2, -843116.8, -1125369.4, 41414.742, 0.25066933, 0.38469318, -837165.56, 26403.36, 0.0, 10.001675, 9.997834 
2.8557637e+3, 2.2188038e+2, -708179.3, -814476.06, 85480.81, 0.10420677, 0.23269469, -660671.25, 104938.414, 0.0, 10.001081, 9.999586 
2.8556168e+3, 2.3188019e+2, -626324.6, -627173.6, 158808.98, 0.26382414, 0.29944468, -467939.56, 199666.63, 0.0, 10.000553, 10.000452 
2.8554684e+3, 2.4187945e+2, -691380.94, -782488.5, 135839.77, 0.35360324, 0.35168552, -593660.2, -24049.639, 0.0, 10.000182, 9.998894 
2.8553164e+3, 2.5187644e+2, -582192.94, -741208.5, 69797.266, 0.19857864, 0.32698226, -555903.06, -84257.74, 0.0, 10.00053, 9.998334 
2.8551644e+3, 2.6187384e+2, -422694.53, -534824.7, 66326.11, 0.081766665, 0.32599294, -391912.38, -18237.742, 0.0, 10.000608, 9.999044 
2.8550148e+3, 2.718729e+2, -402059.84, -420033.5, 43286.777, 0.13937858, 0.40282843, -366836.84, -91153.47, 0.0, 9.999842, 9.99953 
2.8548646e+3, 2.818718e+2, -382052.03, -372939.34, 42475.137, 0.16782215, 0.4561846, -334776.88, -157083.5, 0.0, 9.999353, 9.999421 
2.854713e+3, 2.918699e+2, -201245.61, -231290.1, 68577.7, 0.03121632, 0.4390591, -146064.08, -66351.95, 0.0, 9.999908, 9.999452 
2.8545594e+3, 3.018677e+2, -109023.8, -170262.38, 70846.4, -0.16507006, 0.40365908, -62463.08, -62463.08, 0.0, 10.00002, 9.9991455 
2.8544074e+3, 3.1186464e+2, -255831.42, -201879.98, 30409.357, -0.11802158, 0.28777713, -188205.75, -188205.75, 0.0, 9.998606, 9.99928 
2.8542572e+3, 3.218638e+2, -144800.22, 29457.729, -13527.104, 0.14551361, 0.37827966, 30501.543, 30501.543, 0.0, 9.998562, 10.000903 
2.8671315e+3, 1.320553e+2, -1399378.1, -1533238.0, -22567.797, 0.419118, 0.26221958, -1395675.8, 250214.28, 0.00000003603988, 10.00205, 10.000253 
2.866976e+3, 1.4205475e+2, -1382284.6, -1623810.3, -5782.4995, 0.19998121, 0.34384444, -1382146.3, 165744.31, 0.00000000029145006, 10.002134, 9.998923 
2.8668246e+3, 1.5205207e+2, -1188871.1, -1526126.9, 28224.045, 0.31701112, 0.34063286, -1186525.4, 263394.75, 0.0, 10.003015, 9.998482 
2.8666738e+3, 1.6204923e+2, -1015513.3, -1384439.6, 30572.924, 0.42528254, 0.32062107, -1012996.94, 338953.44, 0.0, 10.003498, 9.99855 
2.86652e+3, 1.72046e+2, -1035368.5, -1333366.4, 106563.78, 0.22704832, 0.25400865, -1001183.06, 252797.0, 0.0, 10.002661, 9.998624 
2.8663674e+3, 1.8204358e+2, -996974.6, -1196723.3, 158907.34, 0.08843069, 0.24668786, -909161.94, 246841.55, 0.0, 10.001956, 9.999235 
2.8662184e+3, 1.9204375e+2, -894721.75, -1054939.9, 145752.53, 0.26537415, 0.43006143, -808514.06, 249492.56, 0.0, 10.001819, 9.999594 
2.866069e+3, 2.0204283e+2, -899779.94, -1153054.8, 93676.2, 0.38741374, 0.5413593, -868898.25, 91121.336, 0.0, 10.0017395, 9.998286 
2.865916e+3, 2.1203804e+2, -844770.0, -1130568.5, 115504.98, 0.2318092, 0.39506236, -803926.0, 58141.45, 0.0, 10.001689, 9.997787 
2.8657645e+3, 2.220342e+2, -641276.44, -772516.2, 195514.9, 0.13855352, 0.28553858, -500663.3, 263440.9, 0.0, 10.001502, 9.999669 
2.8656167e+3, 2.3203392e+2, -566238.94, -585085.8, 183291.55, 0.29591125, 0.33587375, -392128.75, 273972.84, 0.0, 10.000916, 10.000564 
2.865468e+3, 2.4203318e+2, -648026.25, -755370.4, 127472.055, 0.38186213, 0.37851727, -563387.75, 4718.29, 0.0, 10.00046, 9.998943 
2.8653154e+3, 2.5203016e+2, -587563.94, -742404.56, 128825.77, 0.18650249, 0.35237792, -514684.6, -44543.81, 0.0, 10.000491, 9.9983425 
2.8651634e+3, 2.620275e+2, -453434.6, -554223.6, 164270.73, 0.05030483, 0.34626916, -332002.22, 40168.863, 0.0, 10.000418, 9.999003 
2.8650138e+3, 2.720264e+2, -367840.16, -416078.53, 160778.89, 0.13951012, 0.42291716, -229381.39, 44800.184, 0.0, 10.0001335, 9.999417 
2.8648633e+3, 2.8202522e+2, -329581.72, -332908.9, 171779.63, 0.19218849, 0.47986218, -159457.63, 16734.783, 0.0, 9.999664, 9.999543 
2.864711e+3, 2.920232e+2, -287219.75, -242940.0, 123901.61, 0.013103394, 0.43179795, -139215.73, -61004.586, 0.0, 9.999199, 9.999712 
2.8645575e+3, 3.0202094e+2, -257504.25, -234030.58, 36711.336, -0.19897911, 0.3675963, -207225.55, -207225.55, 0.0, 9.998967, 9.999219 
2.8644055e+3, 3.120182e+2, -164725.86, -161996.36, -17802.19, -0.082763776, 0.2844553, -145506.67, -145506.67, 0.0, 9.999256, 9.999239 
2.8642562e+3, 3.2201812e+2, 5231.0293, 29215.637, 56171.92, 0.25006822, 0.47357264, 74661.125, 74661.125, 0.0, 9.999924, 10.000237 
2.8771332e+3, 1.3221133e+2, -1342716.5, -1483134.3, -27972.137, 0.47214994, 0.5844752, -1337349.4, 307021.34, 0.0, 10.00235, 10.000448 
2.8769782e+3, 1.4220934e+2, -1370798.0, -1640221.1, 14854.119, 0.3191424, 0.5155246, -1369981.6, 176401.14, 0.0, 10.002314, 9.998722 
2.8768256e+3, 1.5220408e+2, -1228204.9, -1581069.1, 62271.695, 0.24401446, 0.28451204, -1217537.9, 230895.89, 0.0, 10.002898, 9.998162 
2.8766742e+3, 1.6220032e+2, -992719.44, -1263110.5, 16498.37, 0.25417423, 0.15495354, -991716.5, 358753.56, 0.0, 10.003178, 9.99954 
2.876522e+3, 1.7220074e+2, -951307.25, -1125752.4, 65643.49, 0.2827382, 0.3104342, -929365.5, 323097.16, 0.0, 10.002515, 10.000122 
2.87637e+3, 1.822004e+2, -1024652.6, -1244268.8, 134225.34, 0.25117782, 0.42644665, -961041.4, 193423.94, 0.0, 10.001913, 9.998931 
2.876218e+3, 1.9219755e+2, -967952.56, -1204246.1, 135193.45, 0.14453475, 0.3976158, -906555.7, 149944.28, 0.0, 10.001806, 9.998575 
2.876067e+3, 2.0219484e+2, -879137.94, -1104753.0, 88041.52, 0.1076347, 0.38337266, -848848.1, 109683.18, 0.0, 10.001715, 9.9986315 
2.8759167e+3, 2.1219268e+2, -767717.5, -992717.0, 112191.37, 0.23761882, 0.41907293, -721336.5, 139215.19, 0.0, 10.001779, 9.998693 
2.8757665e+3, 2.2219051e+2, -659464.8, -827727.5, 177516.02, 0.3172415, 0.43118054, -547152.75, 215419.02, 0.0, 10.001577, 9.999255 
2.8756163e+3, 2.3218834e+2, -635559.0, -730700.1, 159974.63, 0.2755897, 0.3808099, -516231.88, 148359.16, 0.0, 10.000923, 9.99956 
2.8754655e+3, 2.4218641e+2, -633729.9, -714789.0, 123739.19, 0.2073021, 0.36177474, -544051.75, 22556.9, 0.0, 10.000412, 9.999246 
2.8753138e+3, 2.5218508e+2, -530954.8, -623442.8, 131042.97, 0.07714076, 0.4266626, -438235.63, 30388.355, 0.0, 10.000482, 9.999166 
2.8751624e+3, 2.6218337e+2, -418222.25, -487448.44, 155292.38, -0.0033009446, 0.4474652, -293732.28, 76909.414, 0.0, 10.000442, 9.999452 
2.8750122e+3, 2.721807e+2, -349036.4, -379054.97, 147022.08, 0.096892454, 0.33906242, -216259.47, 56405.766, 0.0, 10.00014, 9.999668 
2.8748617e+3, 2.821784e+2, -367315.66, -426379.34, 153089.33, 0.15692265, 0.2909164, -240935.78, -66249.04, 0.0, 9.999723, 9.998874 
2.8747094e+3, 2.9217696e+2, -362148.44, -397541.4, 107880.02, 0.016839968, 0.39855325, -270523.1, -193818.39, 0.0, 9.99919, 9.998656 
2.8745565e+3, 3.0217525e+2, -285991.44, -281752.53, 38262.473, -0.10552388, 0.4697911, -245550.86, -245550.86, 0.0, 9.998919, 9.998916 
2.874407e+3, 3.121727e+2, -162108.13, -170359.72, -2036.1613, 0.23110096, 0.41515443, -161633.03, -161633.03, 0.0, 9.99932, 9.99915 
2.874255e+3, 3.221713e+2, -60901.89, -124108.91, 135041.47, 0.20689364, 0.50801045, 46184.832, 46184.832, 0.0, 10.000017, 9.999127 
2.8871343e+3, 1.3236415e+2, -1267192.8, -1557443.0, -3879.7974, 0.41757846, 0.51671517, -1267140.9, 375730.03, 0.0, 10.003331, 9.999472 
2.8869808e+3, 1.4236183e+2, -1309405.3, -1639165.9, 4323.6016, 0.4108022, 0.48804325, -1309348.6, 235541.88, 0.0, 10.002853, 9.998471 
2.886827e+3, 1.5235703e+2, -1352767.3, -1641728.9, 64166.273, 0.2366852, 0.30496782, -1339159.5, 107779.16, 0.0, 10.002046, 9.998156 
2.8866747e+3, 1.6235371e+2, -1204922.6, -1316001.0, 17540.943, 0.19342364, 0.20538901, -1202218.5, 146752.25, 0.0, 10.001509, 9.99998 
2.8865233e+3, 1.7235464e+2, -1038032.94, -1103980.4, 21894.137, 0.32537934, 0.356108, -1031426.1, 219530.64, 0.0, 10.001649, 10.000687 
2.8863716e+3, 1.8235448e+2, -1059165.1, -1276977.9, 67439.6, 0.3542213, 0.45778772, -1039975.0, 112981.695, 0.0, 10.001746, 9.998782 
2.8862187e+3, 1.9235083e+2, -1020504.1, -1274977.3, 95471.69, 0.16035064, 0.38610467, -988668.44, 66331.21, 0.0, 10.001641, 9.998168 
2.886067e+3, 2.023478e+2, -827391.75, -1019070.1, 90462.2, 0.06286899, 0.34279576, -791441.06, 165593.23, 0.0, 10.001805, 9.999178 
2.8859174e+3, 2.1234669e+2, -574887.56, -799702.2, 120731.08, 0.21352431, 0.39784163, -522336.1, 336706.5, 0.0, 10.002673, 9.999588 
2.8857675e+3, 2.2234537e+2, -481717.5, -757959.56, 144299.6, 0.32075626, 0.44340268, -420089.22, 340964.72, 0.0, 10.002869, 9.999111 
2.885616e+3, 2.3234311e+2, -632273.44, -790227.6, 132622.13, 0.27617943, 0.4349747, -556893.75, 106183.73, 0.0, 10.001211, 9.999012 
2.8854647e+3, 2.4234098e+2, -686643.25, -710510.6, 150169.61, 0.1940641, 0.4209357, -547933.9, 17164.955, 0.0, 9.999921, 9.999511 
2.885312e+3, 2.523394e+2, -580046.44, -584939.1, 153175.6, 0.026632441, 0.4113822, -429297.66, 37814.832, 0.0, 9.999883, 9.999716 
2.8851607e+3, 2.6233774e+2, -495578.97, -519504.38, 152003.25, -0.06748664, 0.39963055, -355068.4, 14059.144, 0.0, 9.999904, 9.999482 
2.8850105e+3, 2.7233547e+2, -382209.9, -417454.8, 103655.24, 0.032765754, 0.34744266, -294689.8, -23540.006, 0.0, 10.000023, 9.999453 
2.8848597e+3, 2.8233334e+2, -375570.25, -426209.3, 87726.375, 0.12030964, 0.32838938, -309582.63, -136411.4, 0.0, 9.999655, 9.998903 
2.8847075e+3, 2.9233184e+2, -425503.8, -435302.0, 128770.58, 0.071786046, 0.42714995, -301539.16, -226350.77, 0.0, 9.998796, 9.998582 
2.8845552e+3, 3.023298e+2, -315118.06, -346160.22, 152876.31, 0.0011501997, 0.4908918, -176976.94, -176976.94, 0.0, 9.998952, 9.998453 
2.8844061e+3, 3.123262e+2, 61822.633, -151657.25, 86945.45, 0.247111, 0.4044047, 92752.32, 92752.32, 0.0, 10.001265, 9.998351 
2.8842545e+3, 3.2232383e+2, 67412.08, -73380.234, 80049.07, 0.22787778, 0.4683549, 103615.516, 103615.516, 0.0, 10.0009365, 9.99906 
2.8971353e+3, 1.3251556e+2, -1419777.3, -1789840.0, -31340.863, 0.30916747, 0.2774526, -1417141.8, 224238.17, 0.0, 10.002982, 9.99804 
2.896983e+3, 1.4251353e+2, -1341778.6, -1680538.1, -6623.311, 0.48229358, 0.3769631, -1341649.1, 201754.47, 0.0, 10.002747, 9.998237 
2.896828e+3, 1.525107e+2, -1323159.8, -1610373.8, 51022.273, 0.26075545, 0.37889108, -1314365.1, 131071.32, 0.0, 10.002177, 9.998306 
2.8966752e+3, 1.6250849e+2, -1163381.4, -1287004.9, 29827.838, 0.18540107, 0.37524775, -1156560.9, 190899.05, 0.0, 10.001756, 10.00006 
2.896524e+3, 1.7250802e+2, -1003225.5, -1084573.4, 37467.07, 0.34724352, 0.38428044, -988598.94, 260858.88, 0.0, 10.001879, 10.00071 
2.8963727e+3, 1.8250693e+2, -1038886.1, -1273628.4, 71952.12, 0.405799, 0.39507258, -1018587.06, 132878.56, 0.0, 10.001914, 9.998726 
2.89622e+3, 1.9250394e+2, -996426.7, -1266223.8, 99101.984, 0.2618436, 0.39198887, -963937.0, 89565.23, 0.0, 10.001817, 9.998144 
2.8960687e+3, 2.0250142e+2, -774661.25, -920011.44, 121536.11, 0.15630177, 0.37815595, -705728.8, 249802.23, 0.0, 10.00185, 9.999837 
2.8959185e+3, 2.1250023e+2, -545717.8, -687337.8, 158335.48, 0.15508345, 0.33949643, -443079.9, 414458.25, 0.0, 10.002448, 10.000469 
2.895768e+3, 2.2249919e+2, -529812.0, -776932.44, 104676.52, 0.18546261, 0.3566412, -491433.0, 268113.44, 0.0, 10.002519, 9.99915 
2.8956166e+3, 2.3249829e+2, -656226.8, -825666.5, 69298.195, 0.2939676, 0.5030229, -631494.9, 30065.623, 0.0, 10.001147, 9.9988 
2.8954643e+3, 2.4249662e+2, -662081.3, -676382.1, 135575.83, 0.28999966, 0.54076624, -533467.44, 30111.283, 0.0, 9.999992, 9.999711 
2.895311e+3, 2.524931e+2, -551995.2, -534866.8, 154421.55, 0.019370183, 0.30858022, -388772.16, 76834.13, 0.0, 9.999918, 10.000044 
2.8951585e+3, 2.6249066e+2, -516491.1, -572971.6, 156880.1, -0.15746227, 0.21460764, -385329.72, -17702.172, 0.0, 9.999946, 9.999094 
2.8950086e+3, 2.7249077e+2, -429914.13, -520797.44, 104022.516, -0.05893156, 0.46136427, -361840.9, -92206.57, 0.0, 10.000038, 9.998734 
2.8948578e+3, 2.8249016e+2, -312173.0, -302880.44, 51132.46, 0.06855521, 0.6052764, -256183.61, -84538.96, 0.0, 9.999684, 9.999739 
2.8947064e+3, 2.9248786e+2, -358199.47, -284706.47, 108409.3, 0.17920929, 0.5098435, -206985.14, -133323.22, 0.0, 9.998761, 9.999625 
2.8945538e+3, 3.024844e+2, -354261.66, -438502.03, 221301.88, 0.07093088, 0.3909697, -171107.28, -171107.28, 0.0, 9.999007, 9.997786 
2.8944024e+3, 3.124778e+2, -34843.516, -379403.3, 182494.84, -0.13034311, 0.13470683, 43844.17, 43844.17, 0.0, 10.001394, 9.99672 
2.894256e+3, 3.2247496e+2, 155199.5, 107357.43, -109323.2, 0.43075934, 0.23901589, 243188.16, 243188.16, 0.0, 10.000929, 10.000316 
2.907137e+3, 1.3266796e+2, -1529643.6, -1697857.0, -49130.26, 0.36805853, 0.218169, -1516345.4, 123544.1, 0.0, 10.0015955, 9.999347 
2.906984e+3, 1.4266753e+2, -1361608.0, -1608769.0, 54621.07, 0.4677476, 0.3736109, -1350075.3, 191819.5, 0.0, 10.002258, 9.998967 
2.9068294e+3, 1.5266591e+2, -1217717.8, -1501155.3, 127508.1, 0.24452554, 0.4446141, -1168799.4, 275116.94, 0.0, 10.002646, 9.998833 
2.906676e+3, 1.6266412e+2, -1015755.1, -1252381.1, 115102.85, 0.15001673, 0.46612677, -969002.6, 376933.84, 0.0, 10.002921, 9.999738 
2.9065242e+3, 1.7266217e+2, -879175.25, -1092999.8, 94023.78, 0.22414288, 0.3881303, -843712.3, 404237.8, 0.0, 10.003019, 10.000104 
2.9063725e+3, 1.8266024e+2, -862905.5, -1175964.0, 108957.0, 0.25577563, 0.3511455, -828717.6, 321249.34, 0.0, 10.003064, 9.998843 
2.9062212e+3, 1.9265816e+2, -798786.75, -1131357.8, 152233.33, 0.21611847, 0.40799096, -739626.4, 312367.6, 0.0, 10.003002, 9.9985 
2.9060698e+3, 2.0265652e+2, -686028.06, -834588.0, 155493.17, 0.18412323, 0.44733652, -587983.8, 366029.8, 0.0, 10.002271, 10.000222 
2.9059184e+3, 2.1265593e+2, -878938.25, -806056.56, 155594.42, 0.15085271, 0.43341452, -682692.7, 173322.67, 0.0, 9.999978, 10.000845 
2.905767e+3, 2.2265507e+2, -1047916.0, -1004743.75, 126522.27, 0.1530331, 0.4412169, -897979.4, -139957.69, 0.0, 9.998865, 9.999347 
2.905616e+3, 2.3265356e+2, -718731.94, -834762.4, 124933.59, 0.2460391, 0.508313, -639000.44, 21040.498, 0.0, 10.000628, 9.998986 
2.9054636e+3, 2.4265161e+2, -416114.78, -559001.44, 183415.33, 0.25673953, 0.50874823, -290719.78, 271341.7, 0.0, 10.00169, 9.999699 
2.9053107e+3, 2.526485e+2, -408634.75, -467172.44, 169730.25, 0.037539333, 0.32293168, -265668.22, 198417.83, 0.0, 10.000909, 10.000031 
2.905158e+3, 2.6264647e+2, -501137.28, -552096.25, 176760.7, -0.10755767, 0.26542953, -348029.1, 18075.168, 0.0, 9.999993, 9.999214 
2.905007e+3, 2.7264696e+2, -532100.3, -542925.06, 182957.08, -0.03535441, 0.5340955, -354475.56, -86367.99, 0.0, 9.99922, 9.998974 
2.9048562e+3, 2.8264666e+2, -411219.63, -299461.9, 160444.75, 0.086683534, 0.6820074, -185443.83, -15328.773, 0.0, 9.998807, 10.000174 
2.9047033e+3, 2.9264438e+2, -373605.16, -193867.61, 137526.34, 0.1597801, 0.531398, -119450.375, -47319.152, 0.0, 9.998249, 10.000489 
2.9171383e+3, 1.3282107e+2, -1320911.4, -1323161.5, 9878.7705, 0.47571978, 0.25611836, -1312093.9, 326302.1, 0.0, 10.001859, 10.001786 
2.9169846e+3, 1.4282264e+2, -1279628.9, -1449589.8, 76141.96, 0.40033135, 0.41962624, -1250507.3, 289867.63, 0.0, 10.00231, 10.000033 
2.9168302e+3, 1.5282185e+2, -1193637.6, -1411540.4, 132421.69, 0.2029713, 0.49887204, -1131107.5, 311279.84, 0.0, 10.002475, 9.999531 
2.9166773e+3, 1.6282015e+2, -1107656.8, -1363937.0, 109195.33, 0.08726692, 0.51065135, -1067441.6, 276965.16, 0.0, 10.00258, 9.999138 
2.9165238e+3, 1.7281678e+2, -992811.6, -1253803.6, 97114.02, 0.015556015, 0.38126346, -960641.25, 285796.03, 0.0, 10.002694, 9.999157 
2.9163718e+3, 1.828142e+2, -897010.5, -1166631.9, 113943.44, -0.020623542, 0.32497847, -855307.6, 293155.1, 0.0, 10.002721, 9.999072 
2.9162216e+3, 1.9281314e+2, -807022.9, -1069692.9, 156258.9, 0.07604085, 0.43119556, -734236.06, 316242.3, 0.0, 10.002661, 9.999088 
2.9160708e+3, 2.0281263e+2, -713562.75, -831461.7, 90459.195, 0.15689926, 0.539498, -664540.44, 287946.22, 0.0, 10.002011, 10.000369 
2.9159173e+3, 2.1281317e+2, -860005.6, -796551.5, 68021.41, 0.17902802, 0.63814646, -753221.8, 101257.49, 0.0, 10.000105, 10.000849 
2.915765e+3, 2.2281244e+2, -985800.56, -938110.2, 159805.61, 0.17378147, 0.64453936, -800380.56, -43895.805, 0.0, 9.999131, 9.999678 
2.915614e+3, 2.3280878e+2, -673221.56, -755726.8, 192945.56, 0.13674578, 0.45244518, -517167.9, 141352.0, 0.0, 10.000691, 9.999502 
2.915463e+3, 2.4280609e+2, -444797.63, -596900.4, 172057.84, 0.105025806, 0.35480958, -332732.78, 227813.33, 0.0, 10.001596, 9.999483 
2.9153106e+3, 2.528055e+2, -441976.8, -519885.84, 135696.5, 0.075411715, 0.4566892, -339754.16, 122797.86, 0.0, 10.000839, 9.999701 
2.9151586e+3, 2.6280484e+2, -455336.4, -463418.66, 142659.45, 0.051084716, 0.533345, -316660.84, 47898.47, 0.0, 10.000014, 9.999817 
2.9150066e+3, 2.7280384e+2, -449681.8, -376019.66, 151821.27, 0.09376389, 0.55263096, -256625.81, 9945.001, 0.0, 9.9992285, 10.000122 
2.9148543e+3, 2.828027e+2, -420551.38, -324540.97, 167700.0, 0.13144356, 0.55390215, -198110.55, -29527.047, 0.0, 9.998839, 9.999986 
2.9146987e+3, 2.9280132e+2, -332576.44, -128179.12, 73934.85, -0.019827576, 0.49707323, -104239.25, -33641.793, 0.0, 9.99833, 10.000907 
2.927139e+3, 1.329781e+2, -1261538.0, -1421494.3, 134919.38, 0.4167639, 0.40169045, -1184673.1, 452185.47, 0.0, 10.002804, 10.000657 
2.926985e+3, 1.4297724e+2, -1293646.6, -1499181.9, 62686.953, 0.33996248, 0.4098577, -1276036.4, 262828.16, 0.0, 10.002387, 9.99966 
2.9268312e+3, 1.5297645e+2, -1347677.0, -1500610.4, 68727.79, 0.23160473, 0.505658, -1321330.0, 119545.23, 0.0, 10.001473, 9.999405 
2.9266784e+3, 1.6297498e+2, -1365616.0, -1485181.0, 49395.426, 0.18163268, 0.5453374, -1347849.4, -4957.633, 0.0, 10.000788, 9.999172 
2.9265252e+3, 1.7297216e+2, -1273286.5, -1383191.3, 88885.71, 0.103514805, 0.46022922, -1223738.0, 21181.422, 0.0, 10.000738, 9.999214 
2.926373e+3, 1.8296993e+2, -1168402.9, -1233576.4, 134469.67, 0.049539454, 0.41595137, -1062627.9, 84313.66, 0.0, 10.000569, 9.999655 
2.926222e+3, 1.9296901e+2, -1127751.6, -1144513.1, 182225.77, 0.111649826, 0.4671279, -953714.0, 95237.9, 0.0, 10.00011, 9.999807 
2.9260707e+3, 2.0296833e+2, -978821.6, -985334.25, 123185.61, 0.16955751, 0.5263401, -858849.3, 92109.98, 0.0, 10.000299, 10.000137 
2.9259175e+3, 2.12968e+2, -646887.2, -751522.7, 72842.19, 0.17720275, 0.5862277, -609521.44, 243440.34, 0.0, 10.001811, 10.000339 
2.9257646e+3, 2.229669e+2, -508004.22, -709846.44, 143692.3, 0.16123545, 0.58726597, -433333.34, 321638.66, 0.0, 10.002418, 9.999663 
2.9256135e+3, 2.3296389e+2, -607833.5, -701813.94, 153187.22, 0.09721802, 0.44333446, -494591.38, 162409.66, 0.0, 10.0010395, 9.999707 
2.9254618e+3, 2.4296185e+2, -703580.06, -730729.06, 101739.13, 0.06882748, 0.39956266, -614513.8, -55492.06, 0.0, 9.999853, 9.999408 
2.9253098e+3, 2.5296202e+2, -674932.6, -640254.4, 75227.02, 0.110298805, 0.58522093, -580394.06, -119370.57, 0.0, 9.9992695, 9.999633 
2.9251572e+3, 2.6296154e+2, -572005.9, -456975.34, 109729.96, 0.11864129, 0.6623348, -390600.84, -27571.676, 0.0, 9.998932, 10.000388 
2.9250044e+3, 2.729594e+2, -383282.34, -242794.77, 106080.26, 0.07925676, 0.4877567, -185809.6, 79235.99, 0.0, 9.999239, 10.001036 
2.9248518e+3, 2.8295806e+2, -342340.63, -270257.9, 136607.63, 0.08986509, 0.40091285, -165017.19, 2040.5013, 0.0, 9.999281, 10.000164 
2.9246965e+3, 2.9295817e+2, -166716.2, -60277.688, 12829.462, -0.008723724, 0.49195424, -58753.137, 10309.162, 0.0, 9.999486, 10.000845 
2.9371393e+3, 1.3313653e+2, -1490227.3, -1830539.4, 77816.98, 0.2724355, 0.586345, -1473277.5, 162028.14, 0.0, 10.002537, 9.99797 
2.9369858e+3, 1.431315e+2, -1377184.8, -1648732.8, 16903.793, 0.2787617, 0.37575233, -1376136.6, 161223.17, 0.0, 10.002292, 9.998675 
2.9368323e+3, 1.5313034e+2, -1353104.6, -1561119.8, 30429.701, 0.2925861, 0.48965514, -1348744.6, 90627.53, 0.0, 10.001686, 9.998886 
2.93668e+3, 1.6312921e+2, -1295745.9, -1408831.0, 45242.57, 0.34936813, 0.5769575, -1279873.4, 61511.17, 0.0, 10.001085, 9.999553 
2.9365274e+3, 1.731279e+2, -1215011.9, -1287834.8, 88480.2, 0.35245234, 0.5872541, -1155744.0, 87654.914, 0.0, 10.000849, 9.999815 
2.9363748e+3, 1.8312661e+2, -1114717.5, -1123883.5, 115932.445, 0.31297836, 0.5719624, -1003277.5, 142133.45, 0.0, 10.000577, 10.000403 
2.9362226e+3, 1.9312535e+2, -1048002.25, -1015767.3, 155523.3, 0.24546014, 0.50825, -875528.56, 171890.47, 0.0, 10.000268, 10.000614 
2.93607e+3, 2.0312364e+2, -997559.5, -1052528.9, 155986.19, 0.18912543, 0.434665, -866655.1, 82777.74, 0.0, 10.000422, 9.999619 
2.9359177e+3, 2.1312101e+2, -723497.3, -883460.56, 126041.766, 0.1475672, 0.3466269, -654202.06, 197256.19, 0.0, 10.001694, 9.99949 
2.9357654e+3, 2.2311926e+2, -563331.7, -765689.9, 112723.15, 0.115688056, 0.344744, -513038.97, 240437.6, 0.0, 10.002163, 9.999402 
2.9356134e+3, 2.3311903e+2, -629894.2, -719660.1, 98646.15, 0.10889392, 0.48689246, -566400.3, 89082.38, 0.0, 10.000919, 9.999642 
2.935461e+3, 2.4311863e+2, -700625.7, -723933.75, 73684.1, 0.111051604, 0.6089145, -637679.7, -80189.11, 0.0, 9.999846, 9.99946 
2.9353082e+3, 2.5311795e+2, -654642.44, -612601.6, 54181.65, 0.13305612, 0.698527, -575505.7, -116004.61, 0.0, 9.999325, 9.999801 
2.9351547e+3, 2.6311663e+2, -519820.2, -365985.22, 115512.36, 0.078094415, 0.6592319, -304124.44, 57388.72, 0.0, 9.999005, 10.0009775 
2.935001e+3, 2.731138e+2, -331740.78, -144254.36, 117795.03, -0.09235785, 0.3447316, -87453.695, 176077.6, 0.0, 9.999275, 10.001692 
2.9348484e+3, 2.831127e+2, -279991.16, -177691.95, 123317.625, -0.06022693, 0.2239287, -95336.805, 70201.375, 0.0, 9.999424, 10.000739 
2.9346967e+3, 2.9311553e+2, -159370.25, -60685.48, 41118.02, 0.19291927, 0.56790143, -45798.88, 21719.92, 0.0, 9.999555, 10.000806 
2.947139e+3, 1.3329044e+2, -1646824.3, -1963279.1, -96935.88, 0.1836071, 0.7045001, -1619491.8, 14313.927, 0.0, 10.001686, 9.997481 
2.9469863e+3, 1.4328513e+2, -1383436.3, -1572960.4, -63043.563, 0.24346828, 0.45954245, -1364381.3, 171481.19, 0.0, 10.001898, 9.999392 
2.946833e+3, 1.5328418e+2, -1159011.8, -1366853.0, 15625.611, 0.26073658, 0.50126123, -1157843.6, 280025.1, 0.0, 10.002577, 9.999795 
2.9466805e+3, 1.632833e+2, -1064640.0, -1272622.4, 36909.785, 0.3401098, 0.5549, -1058284.0, 281592.3, 0.0, 10.002559, 9.999781 
2.946528e+3, 1.7328262e+2, -1128567.5, -1233204.8, 52715.563, 0.38820213, 0.61594176, -1106615.3, 135271.06, 0.0, 10.001377, 9.999941 
2.9463747e+3, 1.8328167e+2, -1085220.1, -1105404.9, 83202.85, 0.36331484, 0.6234484, -1011499.8, 132395.89, 0.0, 10.000757, 10.000446 
2.946222e+3, 1.9328009e+2, -886128.06, -940577.94, 83548.945, 0.25360465, 0.52475023, -825480.2, 220425.56, 0.0, 10.001382, 10.000599 
2.9460698e+3, 2.0327824e+2, -849361.44, -989102.56, 58229.203, 0.17398493, 0.4378896, -828278.5, 119641.984, 0.0, 10.001458, 9.999561 
2.9459172e+3, 2.1327579e+2, -936897.6, -995578.94, 65608.05, 0.12565637, 0.3709402, -894368.4, -44422.605, 0.0, 10.000254, 9.999421 
2.945765e+3, 2.2327417e+2, -939778.94, -941520.75, 77395.016, 0.099160746, 0.38322294, -863249.94, -111286.484, 0.0, 9.999539, 9.999466 
2.9456127e+3, 2.3327428e+2, -790035.6, -782772.75, 70717.75, 0.12154227, 0.54752666, -715593.25, -61627.97, 0.0, 9.999743, 9.999781 
2.94546e+3, 2.4327381e+2, -664607.44, -692854.56, 78198.97, 0.13692163, 0.6496232, -599266.9, -43294.42, 0.0, 10.000023, 9.999593 
2.945307e+3, 2.5327218e+2, -445334.84, -495670.9, 65706.29, 0.119568564, 0.6267752, -400141.34, 57848.85, 0.0, 10.000679, 9.999958 
2.945153e+3, 2.632708e+2, -272647.63, -236316.63, 91626.66, 0.046681713, 0.56332076, -161072.11, 198930.16, 0.0, 10.000649, 10.001083 
2.944999e+3, 2.732694e+2, -317203.66, -145135.02, 44706.27, -0.102090836, 0.39172193, -134212.89, 127795.17, 0.0, 9.999388, 10.001648 
2.9448462e+3, 2.8326878e+2, -393671.7, -212509.48, 23173.35, -0.062957525, 0.3164894, -209592.25, -45581.086, 0.0, 9.998547, 10.00092 
2.9446948e+3, 2.932718e+2, -247519.48, -70298.83, -42689.465, 0.20545614, 0.65978235, -60551.742, 5437.058, 0.0, 9.998779, 10.001112 
2.957139e+3, 1.3344231e+2, -1604867.5, -1874778.1, -64410.703, 0.11469591, 0.792955, -1590284.6, 42044.492, 0.0, 10.001695, 9.99808 
2.9569867e+3, 1.4343843e+2, -1325634.3, -1375342.3, -911.684, 0.2134547, 0.5917295, -1325617.5, 208750.75, 0.0, 10.001572, 10.000901 
2.9568335e+3, 1.5343799e+2, -1142008.1, -1179679.1, 56624.164, 0.17619148, 0.5263276, -1101168.9, 335195.88, 0.0, 10.0019245, 10.001394 
2.9566807e+3, 1.6343735e+2, -1150202.0, -1305881.6, 6325.4136, 0.23061913, 0.50839376, -1149945.4, 188422.44, 0.0, 10.001937, 9.999854 
2.9565272e+3, 1.7343672e+2, -1131222.3, -1246368.5, 17115.215, 0.29876164, 0.5873777, -1128732.1, 111646.45, 0.0, 10.0014105, 9.999835 
2.9563734e+3, 1.8343571e+2, -1078279.9, -1150145.1, 101592.56, 0.27311105, 0.611065, -1006452.5, 135937.66, 0.0, 10.001012, 10.000017 
2.9562217e+3, 1.9343373e+2, -936073.2, -1026494.1, 117182.74, 0.18109708, 0.5269391, -855682.0, 188723.58, 0.0, 10.001305, 10.000047 
2.9560697e+3, 2.0343243e+2, -864430.06, -964263.9, 32364.38, 0.13027343, 0.5150539, -854856.2, 91560.766, 0.0, 10.001218, 9.999847 
2.9559162e+3, 2.1343185e+2, -911685.6, -930925.2, 22594.262, 0.104202166, 0.5916475, -896748.5, -48322.094, 0.0, 10.0002, 9.99989 
2.955763e+3, 2.2343083e+2, -911501.9, -893159.1, 81419.875, 0.08711938, 0.6244475, -820395.7, -69957.34, 0.0, 9.999584, 9.999776 
2.9556113e+3, 2.3342946e+2, -751537.6, -728141.6, 78365.87, 0.13021217, 0.6086461, -660605.5, -8155.422, 0.0, 9.999852, 10.000104 
2.955459e+3, 2.4342765e+2, -636572.94, -652591.44, 95589.73, 0.13717462, 0.54699194, -548657.5, 5808.1167, 0.0, 10.000097, 9.999834 
2.955306e+3, 2.5342488e+2, -434164.0, -470952.84, 89349.66, 0.06478582, 0.39283672, -361335.0, 95154.375, 0.0, 10.00067, 10.000134 
2.9551524e+3, 2.634241e+2, -300373.78, -291829.44, 51946.29, 0.017468816, 0.39574105, -243979.95, 114515.4, 0.0, 10.000639, 10.000708 
2.954999e+3, 2.7342626e+2, -362216.6, -241889.42, 3446.2788, 0.04951855, 0.640857, -241790.8, 18684.115, 0.0, 9.999405, 10.000974 
2.9548448e+3, 2.834264e+2, -392362.0, -228851.08, 12607.383, 0.047256283, 0.6839877, -227884.7, -65409.215, 0.0, 9.998616, 10.00078 
2.9546896e+3, 2.9342577e+2, -200968.48, 12162.468, -20140.451, -0.0742222, 0.650974, 14049.002, 78534.2, 0.0, 9.998835, 10.001656 
2.967141e+3, 1.3359642e+2, -1415389.3, -1570493.1, 40204.25, 0.22533762, 0.75763154, -1405587.4, 225234.31, 0.0, 10.002077, 9.999983 
2.966988e+3, 1.4359364e+2, -1513695.4, -1476154.5, 126499.89, 0.38048723, 0.57126564, -1367040.0, 165803.84, 0.0, 10.000321, 10.000815 
2.9668334e+3, 1.5359303e+2, -1604153.1, -1445695.6, 89392.88, 0.2624789, 0.53115785, -1405474.4, 29372.104, 0.0, 9.998936, 10.001012 
2.96668e+3, 1.6359249e+2, -1574186.8, -1496431.8, 57231.176, 0.25094453, 0.5390435, -1466122.0, -129271.17, 0.0, 9.99896, 9.999984 
2.966527e+3, 1.73592e+2, -1084103.4, -1215211.4, 92772.01, 0.2769564, 0.61980397, -1036061.7, 202797.13, 0.0, 10.001688, 9.999919 
2.9663745e+3, 1.8359098e+2, -854094.9, -1085237.8, 105201.0, 0.2685235, 0.6563085, -813384.5, 327486.06, 0.0, 10.002718, 9.99965 
2.9662225e+3, 1.9358899e+2, -1034830.7, -1109452.3, 119359.14, 0.2521246, 0.60811734, -947086.7, 95802.16, 0.0, 10.000765, 9.999744 
2.9660696e+3, 2.0358768e+2, -1083185.0, -1065086.6, 61510.363, 0.21190533, 0.61691195, -1011963.4, -67061.49, 0.0, 9.999686, 9.999898 
2.965915e+3, 2.1358766e+2, -918884.06, -904619.94, 38941.11, 0.10927998, 0.7274022, -872163.1, -25258.021, 0.0, 10.000015, 10.000165 
2.965762e+3, 2.2358695e+2, -760154.5, -822774.1, 123397.27, 0.06987842, 0.7770432, -664156.9, 84756.41, 0.0, 10.000627, 9.99976 
2.9656112e+3, 2.3358488e+2, -495551.03, -624523.94, 93509.25, 0.13600463, 0.70536697, -446448.4, 204482.63, 0.0, 10.001681, 9.999942 
2.9654586e+3, 2.435824e+2, -423055.66, -583726.2, 38308.89, 0.14357334, 0.595477, -414389.1, 138563.45, 0.0, 10.001692, 9.99955 
2.965305e+3, 2.535791e+2, -534428.0, -571467.44, -11031.492, 0.045603633, 0.42579526, -531391.44, -76410.414, 0.0, 10.000189, 9.999684 
2.965151e+3, 2.63578e+2, -492559.13, -421989.3, -67697.86, -0.0011040905, 0.43137363, -380932.72, -23942.244, 0.0, 9.999466, 10.000388 
2.9649973e+3, 2.7358034e+2, -297800.38, -257724.2, -95162.33, 0.057126235, 0.7234028, -180513.17, 78457.15, 0.0, 10.000045, 10.000563 
2.964843e+3, 2.835802e+2, -192244.25, -170355.1, -78344.12, 0.05590242, 0.77503127, -102194.77, 58779.234, 0.0, 10.000158, 10.000448 
2.9646873e+3, 2.935782e+2, -110782.76, 33679.676, -139712.47, -0.117814474, 0.6433997, 118728.21, 181723.08, 0.0, 9.999592, 10.001435 
2.9771435e+3, 1.3375169e+2, -1329463.6, -1270070.6, -59562.24, 0.406288, 0.6741173, -1233212.3, 396086.28, 0.0, 10.001553, 10.002298 
2.9769897e+3, 1.4374982e+2, -1597596.1, -1634776.3, 44006.477, 0.6267938, 0.49584126, -1568414.3, -37109.527, 0.0, 10.000258, 9.999757 
2.976833e+3, 1.537485e+2, -1604180.3, -1601884.8, 15121.124, 0.42293382, 0.52388424, -1587867.9, -154544.66, 0.0, 9.99961, 9.999616 
2.9766786e+3, 1.6374803e+2, -1455946.8, -1414241.8, 121442.76, 0.3164221, 0.60195166, -1311874.3, 23457.035, 0.0, 9.999667, 10.000206 
2.9765278e+3, 1.7374782e+2, -1094272.3, -1200786.5, 184873.34, 0.27681476, 0.6856653, -955137.94, 282195.28, 0.0, 10.00154, 10.000087 
2.9763764e+3, 1.837469e+2, -949536.2, -1172040.1, 43987.82, 0.31280443, 0.74280226, -941155.7, 198187.52, 0.0, 10.002241, 9.999282 
2.9762235e+3, 1.9374518e+2, -1041998.75, -1124408.5, 41317.645, 0.41170514, 0.73986745, -1024851.3, 16511.355, 0.0, 10.000767, 9.999639 
2.9760695e+3, 2.037434e+2, -1062351.0, -1070227.3, 64057.453, 0.3538827, 0.71817535, -1002110.75, -58729.18, 0.0, 9.999896, 9.999761 
2.9759142e+3, 2.1374309e+2, -889805.5, -871699.8, 49575.297, 0.12411731, 0.79142773, -830357.56, 15026.612, 0.0, 10.000134, 10.000333 
2.9757613e+3, 2.2374265e+2, -782586.7, -862769.3, 157964.75, 0.041740507, 0.867399, -659705.06, 87683.18, 0.0, 10.000599, 9.999499 
2.9756117e+3, 2.3374058e+2, -547259.4, -710537.2, 130939.87, 0.13449678, 0.8413046, -474592.84, 174815.56, 0.0, 10.001589, 9.999397 
2.975459e+3, 2.4373803e+2, -492498.66, -700041.3, -10460.811, 0.1394963, 0.7842153, -491972.72, 59460.754, 0.0, 10.001571, 9.998809 
2.9753038e+3, 2.537347e+2, -605700.1, -722229.06, -60727.055, 0.05240266, 0.7026794, -579806.9, -126340.836, 0.0, 10.000201, 9.998642 
2.9751492e+3, 2.6373225e+2, -495368.4, -445831.8, -55091.457, -0.02922118, 0.6452505, -410196.97, -54708.04, 0.0, 9.999543, 10.000187 
2.9749945e+3, 2.737314e+2, -297503.03, -265292.4, -70943.72, -0.09723213, 0.62186974, -208648.89, 48846.47, 0.0, 10.000079, 10.000495 
2.974841e+3, 2.8373024e+2, -221002.02, -244176.08, -98483.41, -0.054589145, 0.5952975, -133426.34, 26079.887, 0.0, 10.000236, 9.999902 
2.9746884e+3, 2.9372942e+2, -190648.8, -149638.78, -149381.56, 0.13085504, 0.6611465, -19361.475, 42154.11, 0.0, 9.999696, 10.0001135 
2.9871446e+3, 1.3390611e+2, -1447466.0, -1365566.5, -171663.89, 0.5154309, 0.6528917, -1230035.8, 397751.5, 0.0, 10.000892, 10.001984 
2.9869872e+3, 1.4390367e+2, -1675724.0, -1699743.9, -54839.89, 0.5003596, 0.44759053, -1631594.4, -101793.82, 0.0, 9.99984, 9.999517 
2.9868302e+3, 1.5390438e+2, -1291438.6, -1482706.9, 4133.4, 0.17977473, 0.6980393, -1291349.4, 140454.8, 0.0, 10.001909, 9.999319 
2.9866764e+3, 1.6390355e+2, -1122251.6, -1248012.5, 57020.313, 0.109181404, 0.7579392, -1100248.3, 233569.1, 0.0, 10.001962, 10.00023 
2.9865265e+3, 1.7390129e+2, -1328339.3, -1275423.9, 122649.8, 0.20926115, 0.61289626, -1176410.5, 59425.58, 0.0, 9.999801, 10.0004015 
2.9863748e+3, 1.8389952e+2, -1317233.9, -1291224.0, 42494.09, 0.1939292, 0.5440344, -1259789.4, -121937.33, 0.0, 9.999506, 9.9997635 
2.986221e+3, 1.9389851e+2, -1014345.2, -1093081.8, 47909.1, 0.18261303, 0.588987, -991704.25, 48159.617, 0.0, 10.000904, 9.999779 
2.986068e+3, 2.038978e+2, -786548.06, -940106.8, 90774.234, 0.21202913, 0.6627133, -744436.6, 197433.48, 0.0, 10.001813, 9.999727 
2.9859143e+3, 2.138961e+2, -702646.44, -829663.94, 39479.094, 0.1699339, 0.63042307, -691375.8, 152505.64, 0.0, 10.001625, 9.999908 
2.9857612e+3, 2.238941e+2, -810736.94, -932002.6, 106145.23, 0.0928809, 0.60022634, -749127.6, -3228.2869, 0.0, 10.000633, 9.999017 
2.9856104e+3, 2.338927e+2, -819683.44, -867385.1, 103952.766, 0.071746424, 0.66983926, -736880.44, -88964.336, 0.0, 9.999829, 9.999169 
2.9854584e+3, 2.4389143e+2, -636484.0, -698044.8, 5906.2456, 0.077692516, 0.72705835, -635922.5, -85992.67, 0.0, 10.000273, 9.999452 
2.9853037e+3, 2.5388968e+2, -377805.22, -532009.44, 62387.53, 0.058378693, 0.73214424, -355726.0, 96219.63, 0.0, 10.001414, 9.999372 
2.985149e+3, 2.6388764e+2, -198826.83, -363007.34, 142641.13, 0.004553946, 0.7035668, -116340.95, 237624.31, 0.0, 10.001826, 9.999666 
2.9849944e+3, 2.7388534e+2, -120541.945, -263062.8, 84580.84, -0.080406345, 0.61424434, -81204.14, 174783.64, 0.0, 10.001629, 9.999781 
2.98484e+3, 2.8388366e+2, -141117.63, -153010.95, 2129.183, -0.050654218, 0.5616427, -140747.94, 17255.195, 0.0, 10.000549, 10.000409 
2.9846865e+3, 2.9388252e+2, -415498.9, -277701.9, 44381.973, 0.17583863, 0.56553924, -264644.56, -204632.48, 0.0, 9.998169, 10.000061 
2.9971415e+3, 1.3406116e+2, -1524622.5, -1541779.1, 104901.305, 0.22378549, 0.7062738, -1427949.4, 198320.8, 0.0, 10.001012, 10.000688 
2.9969835e+3, 1.4406058e+2, -1791516.4, -1769738.4, 179279.38, 0.2598692, 0.7688442, -1601017.6, -72746.195, 0.0, 9.999108, 9.999389 
2.9968348e+3, 1.540602e+2, -1349029.9, -1543344.4, -34180.434, 0.55353254, 0.92770755, -1343192.9, 87097.125, 0.0, 10.001594, 9.999083 
2.9966792e+3, 1.640595e+2, -1162236.1, -1301167.1, -265675.84, 0.33104596, 1.0274214, -957094.44, 375208.16, 0.0, 10.001741, 10.000017 
2.9965255e+3, 1.7405707e+2, -1439854.4, -1296246.3, -132734.38, 0.2445554, 0.8300612, -1217139.0, 17181.227, 0.0, 9.998802, 10.000781 
2.9963735e+3, 1.8405771e+2, -1450508.3, -1270576.8, -93023.93, 0.25460067, 0.91719383, -1231131.1, -94821.98, 0.0, 9.998118, 10.000627 
2.9962218e+3, 1.9405583e+2, -883839.06, -1017963.06, 2772.3054, 0.28583828, 0.8257068, -883781.8, 154544.06, 0.0, 10.001662, 9.999967 
2.996068e+3, 2.0405415e+2, -745395.75, -943381.25, 25858.443, 0.15245001, 0.7747429, -742074.2, 198262.55, 0.0, 10.002135, 9.999577 
2.9959154e+3, 2.1405041e+2, -901466.4, -1032107.5, -5296.719, 0.22526751, 0.6029833, -901251.94, -58889.727, 0.0, 10.000687, 9.9989805 
2.9957616e+3, 2.240454e+2, -817631.5, -1026385.3, 27533.918, 0.19875383, 0.37012333, -814060.94, -69653.29, 0.0, 10.000963, 9.998214 
2.9956084e+3, 2.3404329e+2, -777963.6, -847263.4, 16135.671, 0.003357132, 0.3875474, -774390.8, -127956.12, 0.0, 10.000111, 9.999169 
2.9954562e+3, 2.440429e+2, -449345.94, -409002.8, 13593.682, -0.075436585, 0.45760143, -404849.9, 143589.33, 0.0, 10.000705, 10.001222 
2.9953036e+3, 2.5404418e+2, -186612.63, -175091.33, 88047.516, 0.030206727, 0.53443056, -92616.21, 357803.28, 0.0, 10.001589, 10.001729 
2.9951504e+3, 2.6404417e+2, -266340.47, -512739.25, 131839.08, 0.08825947, 0.6236592, -209096.97, 143322.22, 0.0, 10.001863, 9.998621 
2.9949966e+3, 2.740422e+2, -217143.84, -474000.5, 84223.83, 0.0965173, 0.70481104, -191989.98, 62457.51, 0.0, 10.001665, 9.998315 
2.99484e+3, 2.8404048e+2, -43179.516, 80060.94, -86226.484, 0.02771726, 0.6544051, 124422.12, 280886.75, 0.0, 10.000471, 10.002022 
2.9946807e+3, 2.9403898e+2, -314189.75, 532.21686, -3936.536, -0.08142899, 0.41725722, 581.44727, 59049.934, 0.0, 9.997953, 10.00204 
