coord_x,coord_y,stress_xx,stress_yy,tau_xy,velocity_x,velocity_y,stress_1,eps,damage,lx,ly
4.999691e+0, 1.2508376e+2, -1739094.4, -1645347.1, 23000.826, -0.00513632, 0.081164494, -1640008.0, 74184.49, 0.0013801174, 9.999478, 10.000726 
4.999849e+0, 1.3508528e+2, -1665027.5, -1616661.3, 2108.4517, 0.006352423, 0.21193466, -1616569.5, -392.58655, 0.0008364695, 9.999565, 10.000206 
4.9999046e+0, 1.450838e+2, -1577897.6, -1555888.0, -4080.1003, 0.0087726945, 0.055569433, -1555155.9, -36964.473, 0.00038681776, 9.999629, 9.999914 
4.9998942e+0, 1.550845e+2, -1480267.6, -1469839.4, 3218.7485, 0.0053278687, 0.13770653, -1468925.9, -48740.516, 0.00011816065, 9.999678, 9.999808 
4.999877e+0, 1.650846e+2, -1389137.4, -1401803.8, 8509.32, 0.0002443005, 0.17787223, -1384863.1, -62678.293, 0.000016018055, 9.999745, 9.999573 
4.9998584e+0, 1.7508365e+2, -1278424.6, -1299235.0, 7961.683, -0.0063267904, 0.120582126, -1275728.1, -51534.12, 0.00000013955699, 9.999841, 9.999558 
4.9998936e+0, 1.8508303e+2, -1161381.3, -1178466.8, 2007.6346, -0.0064059906, 0.097944774, -1161148.5, -34949.49, 0.0, 9.999913, 9.999681 
4.9999827e+0, 1.950829e+2, -1059207.5, -1082980.1, -8419.005, 0.00017460315, 0.11343525, -1056528.0, -28329.305, 0.0, 9.999961, 9.999641 
5.0000155e+0, 2.0508243e+2, -982801.0, -1039221.6, -8725.261, 0.0014136106, 0.12267867, -981482.5, -51280.02, 0.0, 10.000002, 9.999248 
4.9999896e+0, 2.1508159e+2, -881527.94, -942459.75, -575.6796, -0.0029294842, 0.10984662, -881522.5, -49311.96, 0.0, 10.000036, 9.999222 
5.000001e+0, 2.2508082e+2, -757415.9, -793472.75, 1984.0604, -0.0025288223, 0.09308173, -757307.06, -23089.844, 0.0, 10.000051, 9.999565 
5.000044e+0, 2.3508008e+2, -662298.6, -699563.0, -1405.3047, 0.0022778967, 0.059172064, -662245.7, -26023.143, 0.0, 10.000042, 9.999541 
5.000069e+0, 2.4507964e+2, -555339.44, -585943.1, -2733.4473, 0.004105617, 0.055101454, -555097.2, -16871.879, 0.0, 10.000055, 9.999643 
5.000077e+0, 2.5507945e+2, -454598.38, -491189.63, -4971.413, 0.0029497275, 0.06875653, -453934.97, -13709.398, 0.0, 10.000093, 9.999602 
5.000063e+0, 2.6507863e+2, -378336.5, -453858.5, -1855.9668, -0.0018182041, 0.051049374, -378290.94, -36057.668, 0.0, 10.00016, 9.999153 
5.000027e+0, 2.7507728e+2, -268221.34, -352034.53, 1814.7631, -0.009994909, -0.0046119746, -268182.06, -23934.54, 0.0, 10.000253, 9.999134 
5.000051e+0, 2.8507692e+2, -164990.89, -248657.64, -3042.9102, -0.008716946, 0.042159244, -164880.36, -18628.563, 0.000000004221918, 10.000276, 9.999159 
5.000133e+0, 2.950773e+2, -69198.336, -147392.66, -11262.349, 0.0011343599, 0.16273887, -67608.54, -19360.572, 0.0000065845143, 10.000241, 9.999198 
5.000128e+0, 3.0507433e+2, -72200.31, -203266.08, -7802.0605, 0.0013910772, -0.019797409, -71737.51, -71737.51, 0.0000754208, 10.000227, 9.998491 
5.000087e+0, 3.150746e+2, 11280.177, -27318.684, 5234.9746, -0.00224181, 0.15966067, 11977.57, 11977.57, 0.00026987135, 10.000215, 9.999706 
1.4999071e+1, 1.2508452e+2, -1777477.0, -1723588.1, 25834.176, -0.015693516, 0.102085374, -1713204.3, 979.1181, 0.00135349, 9.999474, 10.000191 
1.4999549e+1, 1.3508528e+2, -1702008.3, -1692550.8, 5209.5615, 0.019259607, 0.21062043, -1690243.9, -74066.32, 0.0008181531, 9.999563, 9.999687 
1.4999713e+1, 1.4508367e+2, -1563942.5, -1525745.5, -2943.7473, 0.026213141, 0.056852356, -1525520.0, -7325.9473, 0.00037595516, 9.999625, 10.000124 
1.4999682e+1, 1.5508479e+2, -1465965.9, -1439375.6, 5181.505, 0.016019456, 0.15990348, -1438401.6, -18218.709, 0.00011312574, 9.999675, 10.00002 
1.4999631e+1, 1.6508502e+2, -1389270.3, -1401219.1, 11377.35, 0.0007292443, 0.20294006, -1382394.1, -60213.582, 0.000014709239, 9.9997425, 9.999578 
1.4999574e+1, 1.7508395e+2, -1279468.4, -1300540.0, 11580.975, -0.018966591, 0.13506037, -1274347.8, -50157.19, 0.00000010097208, 9.999837, 9.999552 
1.499968e+1, 1.8508318e+2, -1180785.4, -1217612.8, 3623.5596, -0.019261489, 0.11041235, -1180432.3, -54234.547, 0.0, 9.999908, 9.999414 
1.499995e+1, 1.9508286e+2, -1077503.8, -1120572.9, -6276.2534, 0.0005575555, 0.134379, -1076607.8, -48407.38, 0.0, 9.99996, 9.999384 
1.5000047e+1, 2.050823e+2, -966782.4, -1005189.9, -7872.811, 0.004163545, 0.13392246, -965231.25, -35026.324, 0.0, 9.999999, 9.999483 
1.499997e+1, 2.1508141e+2, -865953.25, -909403.4, 1178.739, -0.008615524, 0.09418275, -865921.3, -33709.332, 0.0, 10.000033, 9.999451 
1.4999999e+1, 2.2508062e+2, -762735.6, -803421.9, 1301.5016, -0.007775312, 0.07022991, -762694.06, -28476.037, 0.0, 10.000047, 9.999499 
1.5000135e+1, 2.3508002e+2, -667892.2, -710808.75, -1240.3356, 0.0070107514, 0.055196576, -667856.4, -31633.62, 0.0, 10.000041, 9.999465 
1.5000205e+1, 2.4507953e+2, -559276.56, -593503.9, -1758.2269, 0.012097155, 0.05384939, -559186.44, -20960.307, 0.0, 10.000052, 9.999593 
1.500023e+1, 2.5507912e+2, -457412.25, -496403.22, -3211.0735, 0.008849846, 0.05278485, -457149.56, -16921.055, 0.0, 10.000091, 9.999568 
1.5000187e+1, 2.6507834e+2, -370251.7, -436261.84, 1364.123, -0.005494073, 0.031839423, -370223.5, -27987.754, 0.0, 10.000157, 9.999275 
1.500008e+1, 2.7507725e+2, -261969.38, -338232.16, 5513.224, -0.030093575, -0.009270898, -261572.88, -17325.85, 0.0, 10.000249, 9.999231 
1.5000154e+1, 2.850769e+2, -180727.33, -280555.16, -4734.2783, -0.026040444, 0.047536273, -180503.31, -34251.977, 0.0000000059189293, 10.000273, 9.998941 
1.5000395e+1, 2.9507715e+2, -83290.36, -175660.44, -11881.905, 0.0031046001, 0.17553648, -81786.43, -33536.32, 0.0000065077284, 10.000238, 9.999006 
1.5000388e+1, 3.0507407e+2, -50001.797, -156334.56, -8335.6, 0.0045729503, -0.027773034, -49352.324, -49352.324, 0.000074264535, 10.000224, 9.998816 
1.5000257e+1, 3.1507412e+2, 31283.219, 15768.7705, 8941.183, -0.0071999175, 0.10556543, 35363.195, 35363.195, 0.0002663471, 10.00021, 10.000005 
2.4998434e+1, 1.2508455e+2, -1798844.5, -1743167.8, -2807.7483, -0.021706967, 0.09987344, -1743026.5, -28844.28, 0.0013145427, 9.99937, 10.000106 
2.4999107e+1, 1.3508527e+2, -1692736.4, -1695683.0, 8889.039, 0.013877474, 0.21216749, -1685199.4, -69022.22, 0.0007913486, 9.9996605, 9.9996195 
2.4999379e+1, 1.4508362e+2, -1541028.3, -1517612.6, 4410.427, 0.02177514, 0.05799126, -1516809.4, 1385.0275, 0.00036019128, 9.999794, 10.000099 
2.4999437e+1, 1.5508467e+2, -1449350.1, -1434097.6, -5537.946, 0.017634273, 0.15737692, -1432299.0, -12114.958, 0.00010584406, 9.999801, 9.999996 
2.4999493e+1, 1.6508493e+2, -1369067.5, -1386100.6, -2985.4185, 0.006681982, 0.2021189, -1368559.4, -46378.152, 0.000012859098, 9.999859, 9.999627 
2.4999559e+1, 1.7508398e+2, -1257840.5, -1285083.1, 291.12814, -0.0105384635, 0.14126503, -1257837.4, -33647.32, 0.00000006033416, 9.999965, 9.999597 
2.499971e+1, 1.8508321e+2, -1172163.5, -1220812.9, -243.18694, -0.011588526, 0.11787135, -1172162.3, -45965.016, 0.0, 10.0, 9.99935 
2.4999946e+1, 1.950828e+2, -1079904.9, -1128638.3, 4611.175, 0.003498657, 0.13861589, -1079472.4, -51271.04, 0.0, 9.999974, 9.999321 
2.500004e+1, 2.0508215e+2, -962172.25, -999494.3, 5309.1895, 0.0027857164, 0.13298018, -961431.7, -31225.217, 0.0, 10.000016, 9.999515 
2.4999988e+1, 2.150812e+2, -851442.0, -899035.75, -1425.2296, -0.014328944, 0.08462341, -851399.4, -19185.896, 0.0, 10.000119, 9.999481 
2.5000033e+1, 2.2508046e+2, -748753.3, -799946.75, -9313.114, -0.014522144, 0.0621986, -747111.75, -12892.533, 0.0, 10.000155, 9.999471 
2.500017e+1, 2.3507996e+2, -657204.5, -708718.5, -9202.825, 0.0021224506, 0.061480768, -655609.8, -19386.777, 0.0, 10.000128, 9.999437 
2.5000265e+1, 2.4507941e+2, -553006.75, -602248.2, -6336.4526, 0.008062807, 0.060563866, -552204.44, -13977.091, 0.0, 10.000146, 9.999488 
2.5000328e+1, 2.5507876e+2, -447733.56, -502552.7, -12168.967, 0.0038899642, 0.044060595, -445153.66, -4921.19, 0.0, 10.000204, 9.999472 
2.5000343e+1, 2.6507798e+2, -353400.63, -417730.53, -10703.4795, -0.009195651, 0.021920329, -351666.47, -9426.776, 0.0, 10.000229, 9.999369 
2.5000325e+1, 2.7507704e+2, -257972.06, -326773.3, -8216.43, -0.029740691, -0.0064827907, -257004.44, -12756.073, 0.0, 10.000236, 9.999317 
2.500041e+1, 2.8507674e+2, -190768.31, -295458.06, -15292.155, -0.026200444, 0.054271866, -188580.3, -42327.9, 0.0000000086392555, 10.000247, 9.998852 
2.5000566e+1, 2.9507688e+2, -89636.48, -188335.16, -13970.764, -0.0035475215, 0.17782675, -87697.02, -39443.984, 0.0000063841276, 10.000236, 9.99892 
2.5000536e+1, 3.050737e+2, -47534.805, -135827.63, -12835.118, 0.00026740535, -0.04063516, -45706.813, -45706.813, 0.00007245599, 10.00016, 9.998987 
2.5000542e+1, 3.150737e+2, 17647.742, 23401.86, -3596.181, 0.0083434675, 0.06813127, 25130.23, 25130.23, 0.00026087384, 10.000056, 10.000132 
3.4997776e+1, 1.2508383e+2, -1772747.6, -1689543.1, 7442.916, -0.026328666, 0.07232579, -1688882.6, 25306.664, 0.0012623775, 9.9993725, 10.000474 
3.499852e+1, 1.3508525e+2, -1664816.3, -1638698.5, 20213.293, -0.011937578, 0.21554843, -1627692.6, -11516.652, 0.000755357, 9.999664, 10.00001 
3.4998897e+1, 1.4508364e+2, -1558584.9, -1554018.8, 3586.8796, -0.006821541, 0.058246568, -1552050.0, -33857.223, 0.00033918672, 9.999795, 9.999849 
3.4999165e+1, 1.5508416e+2, -1467930.5, -1471774.4, -5214.0283, 0.009346566, 0.13193405, -1464295.5, -44106.95, 0.00009620481, 9.999798, 9.99974 
3.4999457e+1, 1.6508433e+2, -1362696.0, -1372061.3, 830.5299, 0.016658664, 0.17532936, -1362622.9, -40435.83, 0.000010539653, 9.999855, 9.999725 
3.499981e+1, 1.7508373e+2, -1250664.6, -1270149.5, 4569.0874, 0.017266814, 0.1381631, -1249646.4, -25454.09, 0.000000028001644, 9.999965, 9.9997 
3.4999982e+1, 1.8508314e+2, -1162305.0, -1199908.1, -1664.7325, 0.014906388, 0.11942701, -1162231.5, -36033.79, 0.0, 9.999998, 9.999494 
3.4999973e+1, 1.9508272e+2, -1070965.8, -1109187.1, 4037.3782, 0.008460949, 0.12684014, -1070543.9, -42342.504, 0.0, 9.99997, 9.999456 
3.4999993e+1, 2.0508203e+2, -974839.1, -1024482.75, 9144.9375, -0.003860638, 0.11978045, -973208.1, -43001.105, 0.0, 10.000011, 9.999345 
3.5000047e+1, 2.1508102e+2, -863339.0, -923519.75, 2931.5815, -0.020959437, 0.080896266, -863196.56, -30981.4, 0.0, 10.000118, 9.999314 
3.5000095e+1, 2.250803e+2, -747549.1, -796615.4, -10732.522, -0.024331791, 0.067685515, -745304.25, -11083.379, 0.0, 10.000153, 9.9994955 
3.5000148e+1, 2.3507991e+2, -655966.7, -705981.25, -9803.614, -0.013106046, 0.07782526, -654113.7, -17890.082, 0.0, 10.000127, 9.999457 
3.500024e+1, 2.4507926e+2, -563735.94, -623449.4, -4390.4897, -0.00909114, 0.074081704, -563414.9, -25185.818, 0.0, 10.000142, 9.999344 
3.500037e+1, 2.5507832e+2, -458798.53, -524872.8, -9750.607, -0.012822449, 0.043026373, -457389.66, -17152.215, 0.0, 10.000201, 9.999319 
3.5000524e+1, 2.6507747e+2, -348944.44, -407804.44, -10809.154, -0.014431349, 0.020348912, -347022.22, -4777.0244, 0.0, 10.000226, 9.999438 
3.5000756e+1, 2.7507678e+2, -252831.17, -314934.22, -7391.14, -0.010558999, 0.004413072, -251963.64, -7712.108, 0.0, 10.000232, 9.9994 
3.5000825e+1, 2.850765e+2, -188489.42, -289690.06, -15746.027, -0.010158968, 0.06178222, -186096.06, -39841.055, 0.000000011844628, 10.000243, 9.998894 
3.5000637e+1, 2.9507652e+2, -88233.36, -184053.83, -14312.346, -0.020374928, 0.16997881, -86141.26, -37884.438, 0.0000061783935, 10.000232, 9.998952 
3.5000572e+1, 3.0507323e+2, -46088.016, -132369.36, -17551.488, -0.012512833, -0.05856229, -42654.313, -42654.313, 0.00006980885, 10.000158, 9.999012 
3.5000935e+1, 3.1507325e+2, 14987.97, 18766.363, -3132.4097, 0.040921826, 0.049048785, 20535.178, 20535.178, 0.00025299258, 10.000053, 10.000101 
4.499736e+1, 1.250833e+2, -1694982.4, -1649534.0, 12989.546, -0.030783238, 0.054723326, -1646083.5, 68110.66, 0.0011988538, 9.999894, 10.0005 
4.4998115e+1, 1.3508487e+2, -1685312.9, -1641061.1, -532.4258, -0.010263603, 0.20674184, -1641054.8, -24875.516, 0.0007112032, 9.999493, 10.000076 
4.4998553e+1, 1.4508326e+2, -1600787.4, -1574329.1, -9005.934, -0.006405366, 0.048565347, -1571554.6, -53359.043, 0.00031351, 9.999506, 9.99985 
4.4998974e+1, 1.5508378e+2, -1449427.0, -1463178.3, 633.2861, 0.004490581, 0.11787396, -1449397.9, -29206.115, 0.000084590996, 9.999927, 9.999738 
4.4999367e+1, 1.6508396e+2, -1343158.6, -1360120.3, 3426.846, 0.016054882, 0.16179295, -1342492.5, -20302.14, 0.000007991499, 9.999979, 9.999748 
4.4999763e+1, 1.7508341e+2, -1288500.5, -1285461.4, 1233.6727, 0.030042097, 0.13067555, -1285023.6, -60828.58, 0.000000008983813, 9.999693, 9.999725 
4.499995e+1, 1.8508288e+2, -1199424.1, -1213397.3, -2483.581, 0.025704637, 0.11494156, -1198995.8, -72795.97, 0.0, 9.999725, 9.999533 
4.4999912e+1, 1.950825e+2, -1054857.5, -1097295.6, -5112.8794, 0.0009099955, 0.12149997, -1054250.3, -26047.021, 0.0, 10.000063, 9.999494 
4.5000005e+1, 2.0508187e+2, -948021.9, -1012051.75, -1348.3585, -0.012881069, 0.11647897, -947993.5, -17785.111, 0.0, 10.000196, 9.999342 
4.500023e+1, 2.1508092e+2, -861769.9, -922502.0, 4525.696, -0.014545159, 0.08432278, -861434.5, -29218.686, 0.0, 10.000129, 9.999315 
4.5000318e+1, 2.2508012e+2, -759893.0, -817172.94, -7941.065, -0.016363116, 0.07106938, -758812.5, -24590.086, 0.0, 10.000131, 9.999366 
4.5000267e+1, 2.3507953e+2, -654357.0, -719279.9, -18655.568, -0.017641554, 0.07330832, -649378.1, -13150.518, 0.0, 10.000198, 9.999332 
4.5000345e+1, 2.4507886e+2, -555417.2, -619350.6, -13238.3955, -0.015717207, 0.072626665, -552784.4, -14550.751, 0.0, 10.000198, 9.999346 
4.5000544e+1, 2.5507808e+2, -468459.03, -529524.75, -8033.9033, -0.011871474, 0.05564152, -467419.78, -27179.088, 0.0, 10.000135, 9.999319 
4.500072e+1, 2.6507723e+2, -367163.34, -418619.06, -5752.6606, -0.011190712, 0.037166234, -366528.03, -24279.889, 0.0, 10.00011, 9.999421 
4.5000935e+1, 2.7507645e+2, -271872.28, -325486.1, -9093.587, -0.009322049, 0.013602534, -270371.88, -26116.482, 0.0, 10.000106, 9.999389 
4.5001033e+1, 2.850761e+2, -200457.13, -296968.9, -19994.67, -0.009505572, 0.06591254, -196478.75, -50219.277, 0.000000014278152, 10.000169, 9.99888 
4.5000923e+1, 2.9507607e+2, -75804.086, -180704.05, -22846.486, -0.019694712, 0.1717847, -71044.25, -22782.523, 0.0000058442592, 10.000328, 9.99893 
4.5000812e+1, 3.0507287e+2, -12112.35, -111656.64, -33466.047, -0.014864178, -0.051056374, -1907.4764, -1907.4764, 0.000066210356, 10.000374, 9.999052 
4.5001116e+1, 3.1507307e+2, 40650.94, 26505.725, -16502.334, 0.044376094, 0.07080973, 51532.41, 51532.41, 0.0002424885, 10.000249, 10.000061 
5.4997164e+1, 1.2508295e+2, -1715888.0, -1694679.3, -2374.412, -0.040812477, 0.048253745, -1694416.6, 19780.184, 0.0011275938, 9.999903, 10.000186 
5.49979e+1, 1.3508414e+2, -1703711.5, -1678905.9, -15747.314, 0.018323736, 0.18840069, -1671263.5, -55076.81, 0.00066134764, 9.999492, 9.999818 
5.499834e+1, 1.4508252e+2, -1582276.8, -1535586.6, 6990.185, 0.021113051, 0.028502991, -1534562.5, -16359.45, 0.00028458898, 9.999504, 10.000117 
5.499885e+1, 1.5508345e+2, -1430439.0, -1425022.8, 16856.514, -0.0014278777, 0.113768116, -1410658.3, 9535.85, 0.00007188515, 9.999931, 9.999997 
5.49992e+1, 1.6508375e+2, -1346316.1, -1366875.3, -7871.0938, 0.0010491097, 0.16065256, -1343648.8, -21457.64, 0.0000055425044, 9.999981, 9.999701 
5.4999435e+1, 1.7508309e+2, -1292821.9, -1293031.0, -9219.352, 0.0277762, 0.120521374, -1283706.5, -59508.637, 0.00000000116644, 9.999687, 9.999677 
5.4999614e+1, 1.8508251e+2, -1204771.4, -1223304.8, 10400.129, 0.019445943, 0.10513294, -1200108.4, -73904.81, 0.0, 9.999721, 9.999467 
5.4999757e+1, 1.9508214e+2, -1059107.3, -1106267.3, 7896.227, -0.021718971, 0.12131097, -1057820.3, -29613.295, 0.0, 10.000064, 9.999433 
5.5000067e+1, 2.0508161e+2, -935850.75, -986395.44, -4093.1038, -0.026698329, 0.12180454, -935521.44, -5310.6724, 0.0, 10.0001955, 9.999518 
5.5000544e+1, 2.1508089e+2, -850294.5, -898249.75, 2395.9834, 0.0034397226, 0.09451674, -850175.06, -17959.582, 0.0, 10.000127, 9.999483 
5.500069e+1, 2.2507994e+2, -779646.6, -857152.1, -5461.382, 0.007861505, 0.07143692, -779263.7, -45039.91, 0.0, 10.000127, 9.999093 
5.5000514e+1, 2.3507881e+2, -673287.44, -758638.0, -15751.613, -0.012845303, 0.048149284, -670473.25, -34238.17, 0.0, 10.000198, 9.999062 
5.500057e+1, 2.4507818e+2, -544820.4, -596918.06, -15886.82, -0.013837079, 0.05506903, -540358.06, -2116.8516, 0.0, 10.000197, 9.9995 
5.5000854e+1, 2.5507796e+2, -458459.44, -508130.78, -10026.156, 0.004578732, 0.08179582, -456512.0, -16269.752, 0.0, 10.000133, 9.999469 
5.5000937e+1, 2.6507723e+2, -374261.72, -432374.3, -5928.274, -0.0008292444, 0.07115297, -373663.13, -31414.38, 0.0, 10.000106, 9.999328 
5.500086e+1, 2.7507612e+2, -279077.28, -339706.47, -9285.879, -0.027610002, 0.02149059, -277686.94, -33427.027, 0.0, 10.000104, 9.999291 
5.500103e+1, 2.850756e+2, -205381.22, -307327.72, -14566.613, -0.026785187, 0.06643777, -203340.72, -57074.88, 0.000000014996283, 10.00017, 9.998809 
5.500141e+1, 2.9507563e+2, -80844.375, -190103.9, -15953.352, -0.0043176273, 0.18435162, -78562.625, -30294.969, 0.0000053587105, 10.000323, 9.998867 
5.500124e+1, 3.050726e+2, -9434.675, -105186.07, -37909.754, -0.009285944, -0.018577501, 3757.0642, 3757.0642, 0.00006167987, 10.00037, 9.999098 
5.5001086e+1, 3.1507313e+2, 36534.215, 18883.166, -17655.393, 0.015133478, 0.13187669, 47447.05, 47447.05, 0.00022941288, 10.000246, 10.00001 
6.4996964e+1, 1.2508294e+2, -1789966.0, -1743439.0, 10171.373, -0.028682848, 0.061286163, -1741312.6, -27115.645, 0.001052614, 9.999452, 10.000067 
6.4997697e+1, 1.3508391e+2, -1643503.6, -1656138.9, 10947.073, 0.027676253, 0.1858259, -1637182.0, -20993.197, 0.00060904585, 9.999932, 9.999762 
6.499811e+1, 1.4508224e+2, -1512766.9, -1498946.1, 33622.086, 0.024798375, 0.020180479, -1471531.6, 46674.07, 0.000254567, 9.999969, 10.000145 
6.4998645e+1, 1.5508324e+2, -1473925.9, -1442913.3, 25317.762, 0.00005979781, 0.11195265, -1428730.5, -8535.105, 0.00005931439, 9.99962, 10.000025 
6.499899e+1, 1.6508356e+2, -1398674.4, -1401990.5, -8622.572, -0.0025472608, 0.16126226, -1391551.9, -69359.26, 0.0000034805446, 9.999664, 9.999612 
6.499918e+1, 1.7508276e+2, -1242324.1, -1278444.6, -12988.141, 0.01440467, 0.11928951, -1238138.8, -13937.909, 0.00000000000024211628, 10.000077, 9.999588 
6.499946e+1, 1.8508215e+2, -1134021.6, -1184944.3, 11027.598, 0.009072899, 0.10268548, -1131736.1, -5529.0645, 0.0, 10.000188, 9.999505 
6.4999855e+1, 1.9508182e+2, -1062951.0, -1103540.3, 16130.223, -0.015592111, 0.1179829, -1057321.5, -29111.906, 0.0, 10.000019, 9.999473 
6.500023e+1, 2.0508131e+2, -963692.06, -1001212.75, -660.5913, -0.021096578, 0.11921342, -963680.44, -33467.21, 0.0, 10.000011, 9.999505 
6.500056e+1, 2.150806e+2, -846686.5, -897942.6, -8408.013, -0.009197257, 0.09479499, -845342.5, -13124.355, 0.0, 10.000158, 9.99947 
6.5000755e+1, 2.2507966e+2, -761982.94, -847869.1, -11474.679, -0.0043343967, 0.07219027, -760476.3, -26249.725, 0.0, 10.000245, 9.9991 
6.5000814e+1, 2.3507851e+2, -662737.56, -752144.3, -791.978, -0.0058854297, 0.045308564, -662730.56, -26492.346, 0.0, 10.000266, 9.999074 
6.5000933e+1, 2.4507788e+2, -536840.9, -596284.44, -196.07907, -0.00022375655, 0.054445278, -536840.25, 1403.9338, 0.0, 10.000265, 9.999473 
6.5001124e+1, 2.5507772e+2, -443962.06, -503799.03, -7812.246, 0.013181993, 0.089177415, -442958.9, -2714.1318, 0.0, 10.000243, 9.999445 
6.500113e+1, 2.6507697e+2, -360729.03, -438039.7, -7775.6396, 0.0007670989, 0.08179515, -359954.75, -17702.787, 0.0, 10.000251, 9.999219 
6.5000993e+1, 2.7507567e+2, -258325.55, -342244.25, -12470.264, -0.034634054, 0.02987322, -256511.69, -12246.602, 0.0, 10.0003, 9.99918 
6.5001243e+1, 2.8507516e+2, -172606.0, -283846.1, -9674.717, -0.032091092, 0.07450816, -171770.84, -25499.605, 0.000000013847158, 10.000361, 9.998878 
6.500182e+1, 2.950753e+2, -63246.707, -173256.44, -1094.7905, 0.0007731437, 0.19462533, -63235.816, -14964.36, 0.0000047556837, 10.000408, 9.998941 
6.500162e+1, 3.050723e+2, -3023.1082, -113110.37, -26747.281, -0.012606868, -0.0036683078, 3131.45, 3131.45, 0.000056396846, 10.000462, 9.998999 
6.500129e+1, 3.1507275e+2, 65048.58, 7685.6455, -15661.227, -0.0036653783, 0.15203544, 69045.86, 69045.86, 0.00021408794, 10.000549, 9.999787 
7.4996734e+1, 1.2508324e+2, -1782838.0, -1730188.8, 27888.518, 0.0017166832, 0.090557866, -1718163.0, -3968.091, 0.0009783517, 9.999456, 10.000155 
7.4997485e+1, 1.3508418e+2, -1631568.6, -1633795.6, 29176.363, 0.011282432, 0.19715834, -1603484.5, 12701.245, 0.00055803865, 9.999941, 9.99991 
7.499783e+1, 1.4508238e+2, -1527257.8, -1529794.1, 20136.098, -0.0009415374, 0.022636056, -1508349.9, 9853.542, 0.00022607559, 9.999972, 9.999931 
7.4998367e+1, 1.5508316e+2, -1489749.5, -1474698.3, 12730.738, 0.009902903, 0.11364706, -1467435.1, -47239.22, 0.000048170983, 9.999617, 9.999808 
7.4998736e+1, 1.6508332e+2, -1407576.5, -1419415.0, 7151.344, 0.0049679833, 0.16395444, -1404212.4, -82017.46, 0.0000019773436, 9.9996605, 9.999495 
7.4998975e+1, 1.7508246e+2, -1250117.9, -1295475.0, 2846.214, -0.014158843, 0.12590948, -1249939.9, -25735.602, 0.0, 10.00008, 9.99947 
7.4999475e+1, 1.8508182e+2, -1123801.1, -1164031.3, 4566.5435, -0.009380655, 0.10664082, -1123289.3, 2920.9622, 0.0, 10.00019, 9.999647 
7.500022e+1, 1.9508155e+2, -1053443.3, -1082997.0, 10056.573, 0.018974585, 0.11238958, -1050345.9, -22134.492, 0.0, 10.000016, 9.999615 
7.500049e+1, 2.0508096e+2, -978201.6, -1030388.1, 4935.3677, 0.003662005, 0.109025024, -977738.94, -47523.164, 0.0, 10.000008, 9.999307 
7.500027e+1, 2.1508007e+2, -860627.25, -926608.2, -2533.2854, -0.054515585, 0.0851986, -860530.1, -28306.266, 0.0, 10.000157, 9.999273 
7.5000495e+1, 2.2507927e+2, -741443.06, -804919.94, -10819.145, -0.054859295, 0.072767965, -739649.7, -5418.6563, 0.0, 10.000243, 9.999395 
7.500116e+1, 2.350786e+2, -642617.4, -710197.1, 174.95168, 0.0016124862, 0.06414863, -642616.94, -6379.859, 0.0, 10.000265, 9.999362 
7.500144e+1, 2.4507795e+2, -551309.1, -625792.75, -1153.154, 0.024165774, 0.06890804, -551291.25, -13048.388, 0.0, 10.000263, 9.99927 
7.500136e+1, 2.5507733e+2, -458010.78, -532908.44, -8658.346, 0.012234208, 0.07798336, -457022.88, -16774.54, 0.0, 10.000243, 9.999245 
7.50013e+1, 2.6507643e+2, -369215.22, -455460.38, -6424.796, -0.008224198, 0.069418386, -368739.22, -26481.404, 0.0, 10.000251, 9.999099 
7.500132e+1, 2.7507526e+2, -267827.3, -360862.63, -10061.434, -0.032116354, 0.03862405, -266751.66, -22480.746, 0.0, 10.000296, 9.999054 
7.5001657e+1, 2.8507483e+2, -158588.58, -253994.75, -7995.3784, -0.027302518, 0.08969874, -157923.17, -11647.414, 0.000000011324871, 10.000359, 9.999084 
7.500217e+1, 2.9507506e+2, -48327.594, -142443.16, 606.1257, -0.0062672957, 0.20194554, -48323.69, -50.501495, 0.000004098041, 10.000409, 9.999153 
7.500193e+1, 3.0507195e+2, -19513.418, -147436.95, -24065.426, -0.028385634, -0.006101811, -15135.94, -15135.94, 0.000050636394, 10.000463, 9.998762 
7.5001717e+1, 3.1507203e+2, 38015.258, -47336.27, -8955.438, -0.016744606, 0.13245375, 38944.777, 38944.777, 0.00019707165, 10.000545, 9.999411 
8.4996575e+1, 1.2508312e+2, -1729534.1, -1704811.9, 19092.592, 0.02156391, 0.098234825, -1694428.3, 19767.969, 0.00090933184, 9.999824, 10.000154 
8.499729e+1, 1.350841e+2, -1657328.4, -1638560.8, 12056.017, 0.008911477, 0.2028946, -1632667.0, -16480.715, 0.0005120121, 9.999732, 9.999978 
8.499761e+1, 1.4508222e+2, -1562010.5, -1562240.9, -6115.277, -0.011716859, 0.023747561, -1556009.3, -37804.492, 0.00020159004, 9.999802, 9.999791 
8.499816e+1, 1.5508284e+2, -1438924.8, -1466128.3, -7818.374, 0.0074987425, 0.11333525, -1436837.9, -16638.623, 0.000039447743, 10.000035, 9.999665 
8.4998614e+1, 1.6508293e+2, -1348209.1, -1390560.6, 2039.9729, 0.006831299, 0.1650423, -1348111.1, -25912.17, 0.0000010481418, 10.000068, 9.9994955 
8.499901e+1, 1.7508213e+2, -1273106.8, -1306346.6, 5964.556, -0.010640485, 0.13257016, -1272068.9, -47861.45, 0.0, 9.999922, 9.999472 
8.499957e+1, 1.8508144e+2, -1171674.9, -1195254.6, -2450.501, -0.0040293615, 0.11102244, -1171422.9, -45209.02, 0.0, 9.999896, 9.999576 
8.5000265e+1, 1.95081e+2, -1063531.5, -1095480.3, -13047.086, 0.02402618, 0.10682564, -1058880.5, -30663.64, 0.0, 9.99998, 9.999546 
8.500054e+1, 2.0508039e+2, -971030.56, -1017882.25, -10750.41, 0.008186991, 0.09999436, -968681.56, -38460.01, 0.0, 10.000018, 9.999388 
8.50004e+1, 2.1507959e+2, -876156.56, -925274.1, 2331.358, -0.049445685, 0.07918643, -876046.1, -43817.746, 0.0, 10.000012, 9.999353 
8.5000646e+1, 2.2507893e+2, -765228.5, -811762.75, -5173.553, -0.054552127, 0.07343288, -764660.25, -30425.91, 0.0, 10.00006, 9.999436 
8.500127e+1, 2.3507841e+2, -654005.56, -710779.75, -13845.496, -0.008218204, 0.07615209, -650809.0, -14569.889, 0.0, 10.000166, 9.999406 
8.5001594e+1, 2.4507776e+2, -549984.94, -626184.5, -17136.84, 0.012399649, 0.07891815, -546308.3, -8063.3228, 0.0, 10.000277, 9.999262 
8.500162e+1, 2.55077e+2, -436818.56, -523935.9, -10328.411, 0.0059697037, 0.073964335, -435610.8, 4640.979, 0.0, 10.000394, 9.999234 
8.5001594e+1, 2.6507604e+2, -347495.47, -448735.5, -269.59564, -0.011510676, 0.06388914, -347494.75, -5233.045, 0.0, 10.000416, 9.999066 
8.5001624e+1, 2.7507493e+2, -264086.9, -362193.3, 2162.9978, -0.033168785, 0.043724652, -264039.25, -19764.852, 0.0, 10.000335, 9.999026 
8.5002005e+1, 2.8507456e+2, -158375.75, -247690.02, 6679.765, -0.026308166, 0.09683346, -157878.94, -11600.096, 0.000000007967864, 10.000332, 9.999142 
8.500259e+1, 2.950748e+2, -42385.61, -132962.94, 3400.55, -0.0057967408, 0.20583354, -42258.12, 6017.5713, 0.0000034232567, 10.000422, 9.999212 
8.500236e+1, 3.0507174e+2, -10626.677, -132447.33, -15902.048, -0.031313222, -0.0069520073, -8585.093, -8585.093, 0.00004462947, 10.000476, 9.998859 
8.5002244e+1, 3.1507167e+2, 18575.557, -63155.13, 25833.639, -0.013313982, 0.108251296, 26056.395, 26056.395, 0.00017893763, 10.000438, 9.999353 
9.4996434e+1, 1.2508254e+2, -1736726.6, -1719868.6, 16111.33, 0.02444848, 0.08528085, -1710114.6, 4086.457, 0.0008487081, 9.999824, 10.000051 
9.4997156e+1, 1.3508362e+2, -1658907.6, -1642931.5, 8979.398, 0.021281974, 0.20241354, -1638901.3, -22710.676, 0.00047347447, 9.999737, 9.999947 
9.499746e+1, 1.4508171e+2, -1565011.8, -1568941.6, 2486.624, -0.00809976, 0.02340143, -1563807.4, -45597.555, 0.00018256163, 9.999804, 9.999744 
9.4998e+1, 1.5508226e+2, -1442202.3, -1473996.4, 1381.6149, -0.012920285, 0.11057432, -1442142.4, -21936.902, 0.00003354367, 10.000039, 9.99961 
9.49986e+1, 1.650824e+2, -1340498.3, -1374790.5, -3292.087, -0.002565522, 0.16411579, -1340185.0, -17980.518, 0.00000057940093, 10.000069, 9.999603 
9.4999295e+1, 1.7508179e+2, -1265594.9, -1290316.4, 927.67303, 0.025239926, 0.1394437, -1265560.1, -41349.79, 0.0, 9.99992, 9.999582 
9.4999754e+1, 1.8508099e+2, -1191385.6, -1235916.4, 601.64496, 0.024985574, 0.11653998, -1191377.5, -65159.44, 0.0, 9.999895, 9.999296 
9.4999987e+1, 1.9508016e+2, -1082768.6, -1135627.1, -9626.552, -0.0028439674, 0.10111763, -1081070.0, -52843.824, 0.0, 9.999981, 9.9992695 
9.5000386e+1, 2.0507956e+2, -946177.94, -966242.56, -11079.014, -0.009519729, 0.09217934, -941264.0, -11033.41, 0.0, 10.000017, 9.9997425 
9.500095e+1, 2.1507917e+2, -851321.0, -873547.0, 2397.0117, 0.00459785, 0.07659069, -851065.44, -18833.65, 0.0, 10.000011, 9.999709 
9.5001215e+1, 2.2507861e+2, -780578.2, -843294.56, -1379.7244, -0.004617654, 0.07414058, -780547.8, -46311.2, 0.0, 10.000059, 9.999221 
9.500117e+1, 2.3507793e+2, -669002.06, -741499.56, -9733.071, -0.036248848, 0.080982976, -667718.06, -31473.564, 0.0, 10.000164, 9.999196 
9.500139e+1, 2.4507728e+2, -537094.06, -599146.06, -13111.16, -0.0363723, 0.08552332, -534437.5, 3813.124, 0.0, 10.000276, 9.999448 
9.500188e+1, 2.5507668e+2, -424702.06, -498200.9, -5630.572, -0.007040169, 0.07618499, -424273.22, 15982.019, 0.0, 10.000392, 9.999412 
9.500203e+1, 2.650758e+2, -344515.53, -442018.28, -3471.8298, -0.0099357115, 0.064365804, -344392.06, -2128.2827, 0.0, 10.000413, 9.999114 
9.50019e+1, 2.7507475e+2, -259752.53, -353497.25, -950.963, -0.039837938, 0.044788495, -259742.89, -15467.2705, 0.0, 10.000336, 9.999086 
9.500229e+1, 2.8507435e+2, -164135.34, -259634.38, 9282.349, -0.031581387, 0.096646324, -163241.48, -16960.988, 0.0000000042394483, 10.000333, 9.999059 
9.5003074e+1, 2.9507452e+2, -49858.063, -147231.64, 7406.7915, 0.0006976015, 0.20548955, -49297.883, -1018.9236, 0.000002739973, 10.000417, 9.999117 
9.500293e+1, 3.0507162e+2, 18493.424, -70045.76, -17077.262, -0.02281989, -0.0069508706, 21673.064, 21673.064, 0.000038513957, 10.000469, 9.99929 
9.5002854e+1, 3.1507167e+2, 36510.164, -25538.348, 27115.932, 0.0030272845, 0.078641735, 46690.01, 46690.01, 0.00016010099, 10.000436, 9.999613 
1.04996376e+2, 1.2508161e+2, -1738570.6, -1727337.8, -5769.3193, 0.035865813, 0.062238287, -1724902.5, -10693.081, 0.00079770345, 9.999841, 9.9999895 
1.0499704e+2, 1.3508292e+2, -1647121.9, -1633984.8, -10360.827, 0.03303528, 0.19916713, -1628285.8, -12088.4375, 0.0004431459, 9.9998045, 9.999974 
1.049973e+2, 1.4508113e+2, -1563435.4, -1560104.4, -2534.435, -0.0028044637, 0.027599158, -1558737.1, -40521.656, 0.00016917764, 9.999779, 9.999817 
1.0499789e+2, 1.5508164e+2, -1473464.5, -1481615.4, 4383.06, -0.015748253, 0.105902955, -1471554.9, -51343.754, 0.000030278157, 9.999792, 9.999677 
1.0499855e+2, 1.6508178e+2, -1366113.4, -1386412.1, -2769.7822, -0.0043982477, 0.1547953, -1365742.1, -43531.938, 0.0000004316036, 9.999888, 9.999612 
1.0499934e+2, 1.750812e+2, -1245090.0, -1279296.5, -6034.8154, 0.031285398, 0.13175793, -1244056.5, -19840.621, 0.0, 10.000056, 9.999593 
1.049998e+2, 1.8508045e+2, -1158147.6, -1220311.1, 1763.7787, 0.02876918, 0.11413327, -1158097.6, -31874.486, 0.0, 10.000125, 9.999292 
1.0499995e+2, 1.950797e+2, -1064292.4, -1127786.8, 11345.1455, -0.010101041, 0.10684076, -1062326.1, -34095.406, 0.0, 10.000112, 9.999262 
1.050004e+2, 2.0507911e+2, -937686.2, -967886.5, 3302.2383, -0.014614261, 0.10014571, -937329.3, -7093.8896, 0.0, 10.000099, 9.999692 
1.0500109e+2, 2.1507862e+2, -844075.3, -875029.3, -14118.416, 0.01318326, 0.080921106, -838603.1, -6365.4585, 0.0, 10.000084, 9.999663 
1.0500142e+2, 2.2507803e+2, -768523.56, -832438.25, -18730.049, 0.0066779237, 0.07537814, -763439.2, -29196.455, 0.0, 10.00012, 9.999266 
1.0500138e+2, 2.3507738e+2, -659805.7, -732651.1, -7841.915, -0.03308708, 0.0806061, -658971.06, -22721.059, 0.0, 10.000208, 9.999236 
1.05001576e+2, 2.4507676e+2, -540217.44, -596653.5, -9227.7, -0.042946104, 0.08525462, -538747.0, -491.31396, 0.0, 10.0002365, 9.999484 
1.0500201e+2, 2.550762e+2, -448490.84, -505300.4, -13885.391, -0.024722897, 0.07670935, -445278.6, -5018.5654, 0.0, 10.000209, 9.999451 
1.0500226e+2, 2.6507542e+2, -356132.1, -435386.75, -13589.607, -0.021532396, 0.065022215, -353866.7, -11599.056, 0.0, 10.000279, 9.999226 
1.05002396e+2, 2.7507445e+2, -236889.4, -330277.4, -6897.4688, -0.028813837, 0.04549973, -236382.72, 7895.0728, 0.0, 10.00044, 9.999197 
1.05002806e+2, 2.8507403e+2, -149979.11, -256782.63, 4115.7075, -0.01838001, 0.09108793, -149820.75, -3537.921, 0.0000000012344323, 10.000445, 9.999025 
1.0500339e+2, 2.9507408e+2, -70480.11, -161152.52, 6171.807, -0.0028963329, 0.18986186, -70061.94, -21778.943, 0.0000020653147, 10.000289, 9.999084 
1.0500325e+2, 3.0507144e+2, 14232.522, -53413.08, -18584.135, -0.031265214, -0.0038403939, 19001.844, 19001.844, 0.00003243676, 10.000356, 9.999462 
1.0500354e+2, 3.150718e+2, 63876.527, -12147.733, 5923.534, 0.019254804, 0.09089051, 64335.297, 64335.297, 0.00014094144, 10.000623, 9.999616 
1.1499641e+2, 1.2508027e+2, -1738427.6, -1728728.0, -7059.7036, 0.05296563, 0.025826817, -1725012.8, -10790.833, 0.0007564602, 9.999847, 9.999977 
1.149969e+2, 1.3508198e+2, -1640879.8, -1620666.9, -11788.198, 0.038233005, 0.19350722, -1615245.9, 960.5556, 0.00042056636, 9.999802, 10.000068 
1.1499709e+2, 1.4508046e+2, -1551954.6, -1534952.0, -1821.0847, -0.0025051422, 0.036722153, -1534759.1, -16537.398, 0.00016082273, 9.999774, 9.999992 
1.1499783e+2, 1.55081e+2, -1460646.6, -1456071.9, 5751.95, -0.001424854, 0.09827474, -1452169.1, -31952.5, 0.000029173776, 9.999796, 9.99985 
1.14998505e+2, 1.6508107e+2, -1370551.1, -1396751.1, 3095.8594, 0.0011799537, 0.1369779, -1370190.3, -47973.93, 0.0000005105562, 9.999893, 9.999538 
1.1499914e+2, 1.7508039e+2, -1250239.6, -1290315.4, 425.66962, 0.0045057097, 0.1101318, -1250235.1, -26011.123, 0.0, 10.000057, 9.9995165 
1.1499969e+2, 1.8507984e+2, -1140187.0, -1182756.8, 1213.36, 0.0040685833, 0.10403721, -1140152.4, -13923.285, 0.0, 10.000124, 9.999551 
1.1500019e+2, 1.9507962e+2, -1046179.1, -1090115.5, 11200.774, 0.001688267, 0.12381323, -1043488.5, -15257.929, 0.0, 10.000111, 9.99952 
1.1500056e+2, 2.0507899e+2, -969882.3, -1034341.94, 2580.729, -0.007870186, 0.12429049, -969779.1, -39543.043, 0.0, 10.000098, 9.999237 
1.150008e+2, 2.1507794e+2, -875563.1, -940160.25, -14442.223, -0.02451825, 0.09204716, -872481.25, -40235.14, 0.0, 10.000083, 9.999217 
1.1500126e+2, 2.2507718e+2, -747543.56, -788452.25, -15611.159, -0.021602849, 0.07710516, -742266.8, -8014.119, 0.0, 10.000118, 9.999569 
1.1500193e+2, 2.3507676e+2, -639149.2, -689414.56, -4245.8, 0.0003965327, 0.07500728, -638793.06, -2537.3877, 0.0, 10.000206, 9.999534 
1.1500216e+2, 2.4507622e+2, -549250.1, -614831.4, -10471.599, -0.008470224, 0.0782381, -547618.7, -9358.485, 0.0, 10.000235, 9.99936 
1.1500198e+2, 2.550756e+2, -456266.72, -521160.78, -14742.659, -0.0488737, 0.07571771, -453074.5, -12808.252, 0.0, 10.000208, 9.999343 
1.15002275e+2, 2.6507485e+2, -343378.47, -408914.44, -8060.839, -0.047535636, 0.06633541, -342401.56, -128.27882, 0.0, 10.000279, 9.999408 
1.1500312e+2, 2.7507406e+2, -225874.19, -306630.0, -730.579, -0.0008122293, 0.044997092, -225867.58, 18413.395, 0.0, 10.000436, 9.999361 
1.1500357e+2, 2.850736e+2, -149942.44, -254939.9, -2045.2026, 0.013463137, 0.07925175, -149902.61, -3616.716, 0.00000000006210851, 10.00044, 9.999041 
1.1500352e+2, 2.9507348e+2, -68645.53, -157006.16, 997.27826, -0.019380514, 0.15870726, -68634.28, -20346.488, 0.0000014487281, 10.000289, 9.999113 
1.15003325e+2, 3.050712e+2, 8307.709, -65196.582, -8752.264, -0.059083685, 0.002432857, 9335.483, 9335.483, 0.000026628812, 10.000354, 9.999382 
1.1500429e+2, 3.150719e+2, 44472.99, -50648.418, 17583.275, 0.031436596, 0.14413114, 47619.207, 47619.207, 0.00012196842, 10.000615, 9.999355 
1.24996394e+2, 1.2507945e+2, -1723890.8, -1725792.6, 6789.4873, 0.059882257, 0.01822502, -1717985.9, -3756.0305, 0.0007247361, 9.999966, 9.999941 
1.2499671e+2, 1.3508122e+2, -1634947.6, -1611978.5, -3768.708, 0.038732864, 0.18979695, -1611375.9, 4837.833, 0.00040489552, 9.999819, 10.000119 
1.2499682e+2, 1.4507982e+2, -1552106.6, -1532542.4, 4860.8193, -0.005362546, 0.03871926, -1531401.3, -13173.096, 0.00015657058, 9.999761, 10.000015 
1.2499763e+2, 1.5508035e+2, -1459273.3, -1452933.9, 776.49036, -0.0007578302, 0.098613605, -1452840.3, -32617.33, 0.000029665785, 9.999795, 9.999872 
1.24998376e+2, 1.6508043e+2, -1373533.4, -1395709.4, 468.63785, 0.00044455117, 0.13546187, -1373523.5, -51300.89, 0.0000007617598, 9.999861, 9.999561 
1.2499907e+2, 1.7507975e+2, -1262198.5, -1293917.5, 3971.8616, -0.0028943853, 0.1076975, -1261708.8, -37478.594, 0.0, 9.999964, 9.999537 
1.2499972e+2, 1.8507928e+2, -1143309.1, -1176998.3, -1341.9894, -0.0025258763, 0.10274367, -1143255.9, -17021.072, 0.0, 10.00007, 9.999618 
1.2500033e+2, 1.9507915e+2, -1032790.56, -1076065.9, -6076.107, 0.001810415, 0.1262418, -1031953.6, -3718.7708, 0.0, 10.00017, 9.999588 
1.2500072e+2, 2.0507854e+2, -955690.56, -1039367.44, -8916.134, -0.010204452, 0.13059212, -954751.06, -24510.688, 0.0, 10.000247, 9.99913 
1.2500085e+2, 2.1507743e+2, -850582.4, -940353.4, -514.25684, -0.038339227, 0.1026941, -850579.44, -18327.74, 0.0, 10.000305, 9.999109 
1.2500134e+2, 2.2507659e+2, -720614.75, -770976.3, 406.56302, -0.033161998, 0.08302494, -720611.5, 13647.562, 0.0, 10.000282, 9.99961 
1.2500216e+2, 2.3507605e+2, -639826.4, -684772.9, -8391.599, 0.0041122925, 0.06704909, -638310.75, -2048.5342, 0.0, 10.00018, 9.999578 
1.2500249e+2, 2.4507552e+2, -553391.56, -615862.4, -15926.788, 0.0028356798, 0.0677594, -549565.4, -11298.977, 0.0, 10.000201, 9.99937 
1.2500235e+2, 2.55075e+2, -437351.3, -511349.66, -10623.043, -0.03809037, 0.07561236, -435856.47, 4415.0605, 0.0, 10.000335, 9.999351 
1.2500264e+2, 2.6507428e+2, -335623.44, -409367.66, -8627.007, -0.043585826, 0.06795296, -334627.63, 7651.0103, 0.0, 10.000351, 9.99937 
1.2500338e+2, 2.7507335e+2, -255087.28, -325501.56, -18339.785, -0.008401327, 0.037937626, -250596.94, -6309.2603, 0.0, 10.000254, 9.99932 
1.2500389e+2, 2.8507283e+2, -164154.92, -256322.7, -24805.34, 0.008423973, 0.06476363, -157903.06, -11610.039, 0.0, 10.000316, 9.999092 
1.2500402e+2, 2.9507273e+2, -32918.805, -133966.2, -20328.998, -0.009137176, 0.14095578, -28982.314, 19311.783, 0.00000094519226, 10.000509, 9.999166 
1.2500386e+2, 3.050707e+2, 37367.83, -64186.316, -26341.523, -0.054839402, 0.014706928, 43793.785, 43793.785, 0.000021325412, 10.00061, 9.999266 
1.2500486e+2, 3.1507128e+2, 24289.365, -91155.36, -1934.0414, 0.02695415, 0.15320718, 24321.756, 24321.756, 0.00010374953, 10.000608, 9.999082 
1.3499627e+2, 1.2507917e+2, -1731378.1, -1738734.0, 2014.8645, 0.051004007, 0.044265043, -1730862.4, -16629.346, 0.0007016644, 9.999955, 9.999857 
1.3499649e+2, 1.3508064e+2, -1634019.9, -1612903.9, -8426.339, 0.032649983, 0.1865647, -1609953.6, 6265.9463, 0.00039489288, 9.999831, 10.000108 
1.3499652e+2, 1.4507914e+2, -1558713.8, -1548468.4, 4919.85, -0.0132682165, 0.03174992, -1546488.5, -28253.42, 0.00015526546, 9.999771, 9.999902 
1.3499725e+2, 1.5507972e+2, -1467960.5, -1470120.1, 2060.3591, -0.017689917, 0.10821507, -1466714.1, -46484.34, 0.000031126172, 9.999791, 9.999757 
1.3499813e+2, 1.6507986e+2, -1366638.0, -1380247.6, 4269.7627, -0.0110929925, 0.15124623, -1365409.4, -43180.58, 0.0000011270397, 9.999856, 9.99967 
1.3499914e+2, 1.7507929e+2, -1254020.3, -1277486.1, 8377.624, 0.007911345, 0.12333429, -1251336.3, -27101.549, 0.0, 9.999967, 9.999649 
1.3499989e+2, 1.8507873e+2, -1150998.6, -1193536.4, 2154.6284, 0.007958439, 0.10973744, -1150889.8, -24649.734, 0.0, 10.000072, 9.999503 
1.3500036e+2, 1.950783e+2, -1041004.25, -1093206.6, -2104.2524, -0.010924663, 0.11405411, -1040919.56, -12676.022, 0.0, 10.000171, 9.999471 
1.3500082e+2, 2.0507774e+2, -939214.6, -1004776.4, -6918.788, -0.02321416, 0.119077, -938492.4, -8244.089, 0.0, 10.000245, 9.999369 
1.3500126e+2, 2.1507707e+2, -834472.7, -906391.44, 2108.3604, -0.029129755, 0.11281299, -834410.9, -2156.421, 0.0, 10.000302, 9.999344 
1.3500166e+2, 2.2507624e+2, -736962.1, -804108.56, -3580.656, -0.0296696, 0.09412665, -736771.7, -2509.9724, 0.0, 10.000279, 9.999385 
1.3500206e+2, 2.3507528e+2, -654894.9, -715984.5, -11862.182, -0.023670686, 0.056201793, -652672.3, -16402.518, 0.0, 10.00018, 9.999364 
1.3500257e+2, 2.4507469e+2, -543099.3, -594386.8, -11121.65, -0.010651858, 0.05283753, -540791.44, -2516.8567, 0.0, 10.000201, 9.999517 
1.3500315e+2, 2.5507447e+2, -428133.7, -491785.1, -5438.799, 0.007074584, 0.076174036, -427672.28, 12603.621, 0.0, 10.000333, 9.999486 
1.3500333e+2, 2.6507366e+2, -354786.53, -447976.28, -12491.955, -0.009862027, 0.06971906, -353141.06, -10857.327, 0.0, 10.000346, 9.999106 
1.3500318e+2, 2.7507237e+2, -272253.6, -360865.9, -21329.39, -0.054848287, 0.024789998, -267386.8, -23088.93, 0.0, 10.000254, 9.999077 
1.3500378e+2, 2.8507173e+2, -157966.23, -243617.7, -17666.145, -0.036706716, 0.047555644, -154465.56, -8161.34, 0.0, 10.000316, 9.99918 
1.3500488e+2, 2.950718e+2, -28538.5, -123767.39, -12529.969, 0.02545401, 0.13599636, -26917.434, 21384.6, 0.0000005800232, 10.000504, 9.999239 
1.3500482e+2, 3.0506998e+2, 25805.191, -85284.234, -26979.893, -0.019249309, 0.03142381, 32011.023, 32011.023, 0.000016654767, 10.000601, 9.999125 
1.3500524e+2, 3.1506988e+2, 4119.4956, -131018.98, -1073.5153, 0.0023477324, 0.118465856, 4128.023, 4128.023, 0.00008670888, 10.000603, 9.99881 
1.4499602e+2, 1.2507895e+2, -1749716.1, -1762137.9, 11151.468, 0.03508809, 0.06605014, -1743162.6, -28927.582, 0.0006852014, 9.999891, 9.999727 
1.4499642e+2, 1.3508013e+2, -1612795.9, -1608378.0, -4985.2373, 0.034533493, 0.1840502, -1605134.3, 11090.288, 0.00038852147, 10.000001, 10.000056 
1.449965e+2, 1.4507855e+2, -1529500.5, -1547219.8, 6980.5767, -0.005953836, 0.031218285, -1527080.9, -8840.094, 0.00015533686, 10.000026, 9.999787 
1.4499716e+2, 1.5507911e+2, -1451338.0, -1475328.9, 2968.5103, -0.013584983, 0.11690148, -1450976.1, -30740.06, 0.00003278088, 9.999961, 9.999639 
1.4499806e+2, 1.6507919e+2, -1350749.8, -1373738.5, 6161.8345, -0.007466382, 0.16000567, -1349202.3, -26966.572, 0.0000015078091, 9.9999695, 9.99966 
1.449992e+2, 1.7507856e+2, -1242691.4, -1273124.0, 592.6888, 0.012806133, 0.1261289, -1242679.9, -18437.914, 0.0, 10.000049, 9.9996395 
1.45e+2, 1.8507792e+2, -1147854.1, -1193101.1, -6889.5015, 0.00923301, 0.10800333, -1146828.4, -20580.74, 0.0, 10.000098, 9.999494 
1.4500044e+2, 1.9507743e+2, -1048688.8, -1098255.9, -3786.6567, -0.018259373, 0.10694164, -1048401.1, -20149.313, 0.0, 10.000122, 9.99946 
1.4500096e+2, 2.0507692e+2, -951848.7, -998790.44, -11132.397, -0.02723308, 0.10942944, -949342.44, -19086.207, 0.0, 10.000106, 9.999477 
1.4500153e+2, 2.1507639e+2, -863793.2, -908207.25, -12405.222, -0.018952103, 0.105943225, -860563.2, -28302.463, 0.0, 10.00005, 9.999453 
1.4500196e+2, 2.2507562e+2, -759867.5, -818999.0, -12330.232, -0.020351022, 0.09076986, -757399.4, -23132.182, 0.0, 10.000139, 9.99935 
1.4500228e+2, 2.3507465e+2, -629321.8, -707553.75, -6647.0835, -0.03021247, 0.055893008, -628761.06, 7514.4824, 0.0, 10.000372, 9.99933 
1.4500281e+2, 2.45074e+2, -510524.63, -583215.56, -7372.8955, -0.01886076, 0.050080247, -509784.34, 28496.553, 0.0, 10.000444, 9.999477 
1.4500353e+2, 2.5507367e+2, -427213.53, -496355.1, -16306.361, 0.01094047, 0.06682722, -423560.8, 16722.479, 0.0, 10.0003605, 9.999441 
1.4500375e+2, 2.6507288e+2, -352918.5, -456646.53, -22597.867, -0.0029583322, 0.066774204, -348209.2, -5917.942, 0.0, 10.0004, 9.999022 
1.4500359e+2, 2.7507165e+2, -237230.48, -352758.6, -18580.578, -0.053577185, 0.039253846, -234315.67, 9989.125, 0.0, 10.000533, 9.998998 
1.450042e+2, 2.850709e+2, -128736.586, -229810.6, -11605.23, -0.034524594, 0.05258707, -127421.2, 18890.975, 0.0, 10.000519, 9.999176 
1.450054e+2, 2.9507065e+2, -47814.24, -135057.6, -13275.422, 0.034845565, 0.10753423, -45838.902, 2473.5752, 0.00000034163278, 10.000379, 9.999222 
1.4500542e+2, 3.0506897e+2, 11746.349, -99236.96, -20822.172, -0.015042956, 0.025087414, 15524.304, 15524.304, 0.000012640429, 10.000532, 9.999063 
1.4500603e+2, 3.1506866e+2, 34850.805, -134320.38, 8476.193, 0.008095312, 0.0958857, 35274.438, 35274.438, 0.000071064576, 10.00089, 9.998649 
1.5499565e+2, 1.2507871e+2, -1759918.1, -1785597.9, 15866.286, 0.0069720587, 0.07857058, -1752347.3, -38110.7, 0.0006719969, 9.999901, 9.999561 
1.5499647e+2, 1.3507968e+2, -1619075.3, -1620811.9, -1044.1017, 0.039390568, 0.18361388, -1618585.6, -2357.0933, 0.00038301162, 9.999997, 9.999972 
1.5499671e+2, 1.450781e+2, -1538746.4, -1564780.8, 4193.5967, 0.0116507765, 0.038885437, -1538087.5, -19842.201, 0.00015494693, 10.000019, 9.99967 
1.5499738e+2, 1.5507852e+2, -1459255.0, -1492720.8, 1079.3618, 0.009714911, 0.12359823, -1459220.1, -38978.14, 0.000033834087, 9.999966, 9.999517 
1.5499821e+2, 1.650784e+2, -1358624.8, -1391517.5, 8515.928, 0.009617307, 0.16029476, -1356550.8, -34307.188, 0.0000017896223, 9.999975, 9.999536 
1.5499923e+2, 1.7507754e+2, -1251590.6, -1291333.9, 3653.1448, 0.00964574, 0.11710947, -1251257.6, -27005.906, 0.0, 10.000048, 9.999515 
1.5499999e+2, 1.850769e+2, -1141364.4, -1179340.8, -6258.508, -0.0014244709, 0.09851003, -1140359.5, -14102.172, 0.0, 10.000096, 9.99959 
1.5500054e+2, 1.9507657e+2, -1041874.0, -1084036.1, -2604.0815, -0.021480324, 0.10444415, -1041713.75, -13454.056, 0.0, 10.000122, 9.999558 
1.5500112e+2, 2.0507605e+2, -953583.06, -1002081.7, -13491.4795, -0.023790242, 0.10181894, -950082.6, -19818.463, 0.0, 10.000104, 9.999456 
1.5500169e+2, 2.1507531e+2, -865236.2, -911160.8, -14121.216, -0.009410843, 0.08117223, -861241.56, -28970.947, 0.0, 10.000049, 9.9994335 
1.5500224e+2, 2.250747e+2, -748649.25, -795375.75, -3767.6868, -0.0069962433, 0.07183806, -748347.44, -14071.708, 0.0, 10.000137, 9.999513 
1.5500279e+2, 2.3507418e+2, -618713.2, -685222.75, 2343.7732, -0.015800854, 0.06611816, -618630.75, 17648.59, 0.0, 10.000371, 9.999484 
1.550032e+2, 2.4507348e+2, -527181.5, -617207.9, -10727.649, -0.022827864, 0.06028274, -525920.9, 12364.54, 0.0, 10.000442, 9.999245 
1.5500349e+2, 2.5507262e+2, -442793.1, -528849.4, -18919.559, -0.029707946, 0.047486387, -438817.3, 1476.4373, 0.0, 10.000361, 9.999218 
1.5500394e+2, 2.6507187e+2, -346239.63, -442782.25, -17531.994, -0.025866112, 0.05797559, -343154.44, -852.99426, 0.0, 10.0004, 9.999117 
1.5500459e+2, 2.7507126e+2, -231234.9, -339480.4, -13565.239, -0.005942049, 0.08097862, -229560.81, 14747.778, 0.0, 10.000529, 9.99909 
1.550052e+2, 2.850703e+2, -135702.69, -243545.67, -17376.576, 0.0146434605, 0.07908694, -132971.97, 13345.033, 0.0, 10.000516, 9.9990835 
1.5500562e+2, 2.950692e+2, -53891.832, -148488.14, -17034.297, 0.016403481, 0.055224333, -50917.902, -2592.4263, 0.00000019535571, 10.000382, 9.999128 
1.5500563e+2, 3.0506772e+2, 12356.081, -97799.42, -6653.8154, -0.046637386, -0.0045241877, 12756.541, 12756.541, 0.000009261703, 10.000532, 9.999071 
1.550072e+2, 3.1506762e+2, 29756.223, -143373.28, 22599.438, 0.035065815, 0.08709338, 32657.613, 32657.613, 0.000056915687, 10.000883, 9.998589 
1.6499555e+2, 1.2507768e+2, -1749757.8, -1783827.3, -17073.098, 0.00087590225, 0.0600221, -1742674.5, -28428.533, 0.00065754744, 9.999981, 9.999535 
1.6499637e+2, 1.3507877e+2, -1624638.5, -1618590.5, -27751.947, 0.033089407, 0.17293468, -1593698.3, 22538.852, 0.00037533476, 9.999937, 10.000016 
1.6499664e+2, 1.4507735e+2, -1543194.0, -1567035.9, -11734.179, 0.0063613188, 0.04346187, -1538387.8, -20135.395, 0.00015252095, 9.999989, 9.999669 
1.6499746e+2, 1.5507773e+2, -1434267.3, -1480948.1, -6778.639, 0.012704018, 0.123171635, -1433302.8, -13053.323, 0.000033788867, 10.000138, 9.999515 
1.6499834e+2, 1.6507751e+2, -1330853.8, -1387634.1, 6666.4126, 0.012929369, 0.15461615, -1330081.5, -7829.594, 0.0000018950186, 10.000207, 9.99945 
1.6499928e+2, 1.7507653e+2, -1235824.1, -1293596.1, 3852.848, 0.0035099364, 0.10731453, -1235568.4, -11306.988, 0.0, 10.000198, 9.999427 
1.6500005e+2, 1.8507586e+2, -1132411.8, -1175671.0, -9754.67, -0.008123259, 0.091055006, -1130313.9, -4046.3738, 0.0, 10.000161, 9.999583 
1.6500066e+2, 1.9507562e+2, -1044900.44, -1086066.6, -14464.092, -0.020826273, 0.10653507, -1040326.5, -12057.414, 0.0, 10.000103, 9.999554 
1.6500126e+2, 2.0507511e+2, -949511.7, -994741.44, -25147.26, -0.020536382, 0.10487003, -938306.2, -8033.0083, 0.0, 10.000109, 9.999504 
1.650018e+2, 2.1507438e+2, -843032.6, -894914.94, -20863.916, -0.008521209, 0.0761164, -835683.44, -3403.6904, 0.0, 10.000177, 9.999483 
1.650024e+2, 2.2507375e+2, -737693.5, -787108.06, -8635.613, -0.0070806816, 0.06428705, -736227.8, -1943.3821, 0.0, 10.000199, 9.999539 
1.6500306e+2, 2.3507331e+2, -644624.94, -694860.2, -13193.505, -0.015608569, 0.063686624, -641370.7, -5083.483, 0.0, 10.000181, 9.999509 
1.6500352e+2, 2.4507262e+2, -556482.3, -638493.1, -26112.55, -0.026081258, 0.059103727, -548873.9, -10580.388, 0.0, 10.000271, 9.999181 
1.6500379e+2, 2.5507167e+2, -432487.06, -530172.94, -21715.902, -0.040383272, 0.043295383, -427877.1, 12425.98, 0.0, 10.00046, 9.999161 
1.650043e+2, 2.6507092e+2, -330790.53, -426912.2, -17008.912, -0.032622002, 0.054051127, -327869.53, 14440.921, 0.0, 10.00047, 9.99919 
1.650051e+2, 2.750704e+2, -258000.69, -344623.94, -15362.782, 0.0030506675, 0.07991231, -255356.78, -11040.929, 0.0, 10.000312, 9.999159 
1.6500577e+2, 2.850694e+2, -164135.02, -264178.06, -16611.75, 0.027414588, 0.06909391, -161448.81, -15123.806, 0.0, 10.00035, 9.999021 
1.6500612e+2, 2.9506803e+2, -33625.234, -145542.06, -14591.837, 0.021381235, 0.027589014, -31754.02, 16582.309, 0.00000010392393, 10.000552, 9.999065 
1.6500618e+2, 3.050669e+2, 35552.055, -71254.4, 6610.1494, -0.049339157, 0.0011384825, 35959.598, 35959.598, 0.0000064948904, 10.000625, 9.9992075 
1.6500798e+2, 3.1506673e+2, -7913.3975, -146651.19, 42831.227, 0.042696573, 0.067360416, 4244.13, 4244.13, 0.00004432351, 10.000561, 9.99872 
1.7499563e+2, 1.2507586e+2, -1742106.1, -1767521.5, -16789.08, 0.011171504, 0.012820409, -1733757.8, -19494.246, 0.0006370072, 9.999979, 9.999647 
1.7499612e+2, 1.3507736e+2, -1611917.0, -1593560.6, -28830.408, 0.013819232, 0.15045059, -1572482.6, 43767.82, 0.00036284848, 9.999943, 10.000185 
1.7499635e+2, 1.450763e+2, -1534285.1, -1549900.3, -6984.198, -0.023638705, 0.0428457, -1531617.1, -13355.123, 0.00014707113, 9.999994, 9.9997835 
1.7499739e+2, 1.5507676e+2, -1426035.1, -1463937.9, -1043.7578, -0.007795271, 0.11713872, -1426006.4, -5748.024, 0.00003249045, 10.000138, 9.999632 
1.7499842e+2, 1.6507654e+2, -1334101.0, -1394325.9, 5910.4453, -0.0009145523, 0.14453955, -1333526.5, -11265.641, 0.0000018022155, 10.000206, 9.999405 
1.7499939e+2, 1.7507549e+2, -1239258.8, -1300574.5, 3728.8633, -0.006933475, 0.096290454, -1239032.9, -14761.767, 0.0, 10.000197, 9.99938 
1.7500016e+2, 1.8507479e+2, -1140042.8, -1191756.8, -12144.343, -0.013053024, 0.08534513, -1137332.8, -11054.888, 0.0, 10.000161, 9.999473 
1.7500079e+2, 1.9507457e+2, -1052657.6, -1101996.8, -16339.532, -0.017315248, 0.113068394, -1047737.25, -19457.107, 0.0, 10.000102, 9.999444 
1.7500137e+2, 2.0507415e+2, -941101.5, -977132.9, -22764.182, -0.018748643, 0.1187455, -930086.6, 196.83136, 0.0, 10.000108, 9.999625 
1.7500189e+2, 2.1507351e+2, -835005.75, -877852.44, -17967.72, -0.017494073, 0.09067492, -828468.44, 3819.673, 0.0, 10.0001745, 9.999601 
1.7500246e+2, 2.2507282e+2, -745546.9, -802968.5, -9636.308, -0.02221372, 0.06876834, -743972.9, -9679.387, 0.0, 10.000197, 9.999432 
1.750031e+2, 2.3507206e+2, -651950.8, -710299.0, -13522.547, -0.031476565, 0.04759388, -648969.2, -12669.938, 0.0, 10.000181, 9.999403 
1.7500377e+2, 2.4507137e+2, -549139.75, -623144.25, -19194.021, -0.030415593, 0.045226745, -544457.75, -6152.4014, 0.0, 10.000271, 9.999287 
1.7500444e+2, 2.5507078e+2, -425153.7, -514503.53, -14614.733, -0.021995876, 0.054141268, -422823.94, 17487.455, 0.0, 10.000458, 9.9992695 
1.7500487e+2, 2.6507005e+2, -327049.8, -419164.3, -23257.162, -0.023366075, 0.05506377, -321510.88, 20807.484, 0.0, 10.00047, 9.999245 
1.750051e+2, 2.7506912e+2, -253991.78, -336969.53, -20648.223, -0.028799692, 0.035388134, -249137.63, -4810.9307, 0.0, 10.000315, 9.999211 
1.7500585e+2, 2.8506806e+2, -167206.28, -270574.34, -9072.896, 0.00045406376, 0.022432275, -166415.97, -20079.648, 0.0, 10.000351, 9.998977 
1.7500693e+2, 2.950671e+2, -37594.832, -152616.5, -6498.408, 0.046219323, 0.0249997, -37228.855, 11116.366, 0.00000004563321, 10.000547, 9.999019 
1.7500705e+2, 3.0506656e+2, 54807.18, -31066.098, 3926.0176, -0.026018027, 0.042670917, 54986.297, 54986.297, 0.000004309572, 10.000624, 9.999484 
1.7500842e+2, 3.1506595e+2, 16055.885, -98378.555, 39244.465, 0.028295968, 0.03953719, 28221.215, 28221.215, 0.000033325945, 10.000566, 9.999049 
1.8499541e+2, 1.2507467e+2, -1753875.8, -1771663.4, 7942.999, -0.0055137966, 0.002729531, -1750845.3, -36570.18, 0.0006065531, 9.999893, 9.99966 
1.8499602e+2, 1.350762e+2, -1597561.0, -1580306.9, -16319.294, 0.004851677, 0.13762824, -1570474.6, 45786.77, 0.00034376056, 10.000014, 10.000241 
1.8499632e+2, 1.450753e+2, -1521623.4, -1544152.3, -1438.505, -0.029853884, 0.041967142, -1521531.9, -3260.3794, 0.00013809917, 10.000082, 9.999781 
1.8499745e+2, 1.550757e+2, -1432184.9, -1466974.3, -5144.713, -0.014258249, 0.11139418, -1431440.0, -11171.531, 0.000029920388, 10.000096, 9.99963 
1.8499854e+2, 1.650755e+2, -1347165.9, -1399995.3, -2780.3716, -0.0056351167, 0.14042811, -1347019.9, -24749.0, 0.0000015280342, 10.000114, 9.999411 
1.8499953e+2, 1.7507456e+2, -1247213.9, -1303672.3, -1641.1688, -0.009405355, 0.10368918, -1247166.3, -22885.963, 0.0, 10.000139, 9.999387 
1.850003e+2, 1.8507387e+2, -1140597.8, -1195362.6, -12656.951, -0.015207794, 0.0931834, -1137814.0, -11526.86, 0.0, 10.000172, 9.999443 
1.8500091e+2, 1.950735e+2, -1038497.4, -1098185.0, -10975.74, -0.021642063, 0.109419316, -1036543.06, -8252.537, 0.0, 10.000213, 9.999417 
1.850015e+2, 2.0507307e+2, -924929.06, -971643.75, -17428.998, -0.021300128, 0.11638015, -919143.06, 11150.982, 0.0, 10.000229, 9.999605 
1.850021e+2, 2.1507257e+2, -828366.5, -877002.3, -24042.777, -0.015212349, 0.10333582, -818487.7, 13810.137, 0.0, 10.000231, 9.99958 
1.8500273e+2, 2.2507183e+2, -735535.4, -796559.56, -16209.938, -0.018180585, 0.07959419, -731496.75, 2806.474, 0.0, 10.000259, 9.999446 
1.8500337e+2, 2.3507093e+2, -631005.9, -698212.2, -11070.2705, -0.028394677, 0.040453766, -629229.4, 7080.6333, 0.0, 10.000317, 9.999421 
1.8500407e+2, 2.4507019e+2, -544149.4, -618937.9, -13910.9795, -0.027173858, 0.032690167, -541645.7, -3329.4844, 0.0, 10.000298, 9.999302 
1.850048e+2, 2.5506967e+2, -461192.97, -530383.0, -16971.803, -0.017718898, 0.048891906, -457254.16, -16932.422, 0.0, 10.000204, 9.999282 
1.8500525e+2, 2.6506898e+2, -357462.9, -426497.84, -30844.209, -0.019100538, 0.048672345, -345689.75, -3361.5361, 0.0, 10.000231, 9.99931 
1.8500547e+2, 2.75068e+2, -242321.81, -323649.47, -27614.97, -0.025375584, 0.019060757, -233831.45, 10504.702, 0.0, 10.000362, 9.999278 
1.8500628e+2, 2.8506693e+2, -157799.44, -269275.1, -9992.467, 0.003659926, 0.0009742963, -156910.81, -10564.679, 0.0, 10.00043, 9.998946 
1.8500747e+2, 2.9506597e+2, -56996.082, -166142.8, -7141.5938, 0.050110906, 0.0057882066, -56530.785, -8174.843, 0.000000013949684, 10.000433, 9.9989805 
1.8500754e+2, 3.050658e+2, 36613.145, -27371.309, -7215.4106, -0.029622251, 0.059911944, 37416.723, 37416.723, 0.0000026617806, 10.000445, 9.999596 
1.850089e+2, 3.1506497e+2, 14038.147, -71251.33, 12261.8545, 0.025469398, 0.02134107, 15765.999, 15765.999, 0.00002394661, 10.000432, 9.999299 
1.9499485e+2, 1.250741e+2, -1760251.0, -1785644.6, 14200.763, -0.050893907, 0.029312028, -1753898.6, -39618.06, 0.0005643703, 9.999895, 9.999563 
1.9499603e+2, 1.350753e+2, -1601561.1, -1588817.6, -11331.99, 0.003627588, 0.13584116, -1582188.9, 34080.996, 0.00031730495, 10.000015, 10.000183 
1.9499657e+2, 1.4507432e+2, -1530085.0, -1562020.8, -1248.8132, -0.015831241, 0.042184975, -1530036.3, -11755.646, 0.00012543245, 10.000083, 9.999658 
1.9499762e+2, 1.5507454e+2, -1440341.8, -1484363.0, -4207.2427, -0.0077453954, 0.10547186, -1439943.3, -19663.451, 0.000026112697, 10.000098, 9.999511 
1.9499868e+2, 1.6507438e+2, -1343089.5, -1391656.1, -2131.551, -0.0028076149, 0.14159887, -1342996.1, -20713.791, 0.0000011234973, 10.000114, 9.999468 
1.9499971e+2, 1.7507376e+2, -1243159.9, -1295146.5, -324.18796, -0.0048010345, 0.13004966, -1243157.9, -18868.928, 0.0, 10.000139, 9.999446 
1.9500047e+2, 1.8507308e+2, -1136690.0, -1187191.9, -11284.051, -0.016404435, 0.11531938, -1134283.5, -7988.227, 0.0, 10.000172, 9.999499 
1.9500099e+2, 1.950724e+2, -1034948.94, -1090523.4, -9322.158, -0.03477904, 0.09591167, -1033426.94, -5126.5903, 0.0, 10.000211, 9.999471 
1.9500166e+2, 2.0507187e+2, -936367.1, -995103.4, -17608.43, -0.02992939, 0.09842278, -931492.8, -1187.8774, 0.0, 10.000227, 9.999445 
1.9500247e+2, 2.1507148e+2, -839728.5, -900302.94, -23498.953, -0.0029906253, 0.11329489, -831681.44, 627.5327, 0.0, 10.000229, 9.999421 
1.9500321e+2, 2.2507082e+2, -726248.4, -776969.0, -14342.583, 0.003812634, 0.09643901, -722473.56, 11840.309, 0.0, 10.000258, 9.999581 
1.9500391e+2, 2.3506989e+2, -621519.94, -678267.25, -8673.341, -0.007426513, 0.042120818, -620223.94, 16095.504, 0.0, 10.000316, 9.999558 
1.9500448e+2, 2.4506907e+2, -549461.94, -630070.6, -17756.37, -0.017323218, 0.021625292, -545723.94, -7397.673, 0.0, 10.0002985, 9.999226 
1.9500491e+2, 2.5506836e+2, -466704.22, -542031.2, -20158.46, -0.02888891, 0.027044602, -461648.84, -21314.648, 0.0, 10.000205, 9.999202 
1.9500546e+2, 2.6506776e+2, -352664.38, -416629.6, -26169.12, -0.021229148, 0.03480037, -343322.53, -982.4323, 0.0, 10.000231, 9.999377 
1.950062e+2, 2.7506712e+2, -237186.75, -312780.97, -22724.15, 0.011348578, 0.031129792, -230881.61, 13462.747, 0.0, 10.000361, 9.999354 
1.9500703e+2, 2.8506598e+2, -158765.25, -270894.5, -10023.406, 0.03544753, 0.005237939, -157876.3, -11521.681, 0.0, 10.000428, 9.998937 
1.9500773e+2, 2.950646e+2, -58807.484, -170431.42, -5941.203, 0.032012004, -0.030886153, -58492.152, -10123.462, 0.0000000023315327, 10.000435, 9.99895 
1.9500768e+2, 3.0506468e+2, 32812.16, -35794.137, -8293.282, -0.06131256, 0.05256627, 33800.438, 33800.438, 0.0000014940416, 10.000447, 9.9995365 
1.9500937e+2, 3.1506383e+2, 24087.494, -49813.2, 9402.879, 0.028221829, 0.016395632, 25265.12, 25265.12, 0.000016254342, 10.00043, 9.999448 
2.0499468e+2, 1.2507345e+2, -1722155.5, -1778474.3, 13402.208, -0.0747381, 0.05570914, -1719128.9, -4841.335, 0.0005112227, 10.000208, 9.999461 
2.0499608e+2, 1.3507429e+2, -1570942.4, -1582927.4, -18527.05, -0.005364984, 0.13692388, -1557462.8, 58817.152, 0.00028397882, 10.000265, 10.000103 
2.049967e+2, 1.4507328e+2, -1513513.0, -1562082.8, -11764.277, -0.0170651, 0.045991734, -1510813.6, 7477.59, 0.000109345056, 10.000232, 9.999586 
2.049978e+2, 1.5507336e+2, -1441602.4, -1492165.8, -11207.548, -0.0012627804, 0.10342218, -1439229.6, -18938.008, 0.000021261263, 10.00012, 9.999447 
2.0499885e+2, 1.6507319e+2, -1340171.3, -1391010.1, -3923.7258, 0.001984955, 0.14165568, -1339870.1, -17575.826, 0.00000067965186, 10.000137, 9.999461 
2.0499983e+2, 1.7507268e+2, -1222940.4, -1285909.4, -7601.86, -0.01349295, 0.14228454, -1222035.6, 2264.4614, 0.0, 10.000279, 9.999441 
2.050006e+2, 1.8507202e+2, -1111537.8, -1163546.3, -22880.54, -0.02808129, 0.12422173, -1102904.8, 23401.18, 0.0, 10.000295, 9.999602 
2.0500115e+2, 1.9507127e+2, -1030384.94, -1076522.9, -17681.291, -0.03943072, 0.085573316, -1024388.4, 3922.603, 0.0, 10.000192, 9.999577 
2.0500188e+2, 2.0507069e+2, -947954.6, -1006508.4, -16860.855, -0.02876629, 0.08173047, -943446.56, -13130.941, 0.0, 10.000174, 9.9993925 
2.0500274e+2, 2.1507032e+2, -841748.1, -906775.94, -14901.12, 0.0020331393, 0.103427656, -838496.1, -6176.3003, 0.0, 10.000239, 9.9993725 
2.0500353e+2, 2.250697e+2, -720499.94, -768085.1, -3918.7163, 0.0091749905, 0.09027304, -720179.4, 14145.07, 0.0, 10.000272, 9.999636 
2.0500422e+2, 2.3506881e+2, -623733.1, -673155.75, -5116.3433, -0.0054643163, 0.035570167, -623209.0, 13120.269, 0.0, 10.000275, 9.999613 
2.050048e+2, 2.45068e+2, -553425.5, -634570.56, -17564.428, -0.015452078, 0.014181759, -549786.75, -11450.663, 0.0, 10.000282, 9.999202 
2.050052e+2, 2.550673e+2, -455145.88, -539054.8, -16157.845, -0.023568884, 0.019385261, -452142.0, -11797.531, 0.0, 10.000296, 9.999178 
2.050058e+2, 2.6506665e+2, -336043.53, -412738.38, -17391.018, -0.017748322, 0.032447603, -332284.28, 10066.049, 0.0, 10.000362, 9.999341 
2.0500658e+2, 2.750661e+2, -223730.97, -310488.6, -23165.295, 0.0082329, 0.04016851, -217933.05, 26421.02, 0.0, 10.000472, 9.999317 
2.0500746e+2, 2.8506494e+2, -152143.42, -263626.34, -19866.846, 0.035351735, 0.009829562, -148708.86, -2344.2737, 0.0, 10.000456, 9.998974 
2.0500821e+2, 2.9506338e+2, -74596.51, -175007.97, -11886.152, 0.0445195, -0.04538829, -73208.67, -24829.07, 0.000000000097020676, 10.000314, 9.998977 
2.0500816e+2, 3.050635e+2, 10889.413, -76090.75, -10446.099, -0.056077972, 0.05105854, 12126.372, 12126.372, 0.00000072960836, 10.000424, 9.999272 
2.0500988e+2, 3.150621e+2, 68624.88, -30405.426, -13532.49, 0.020201836, -0.013729497, 70440.8, 70440.8, 0.000010315381, 10.000743, 9.999433 
2.1499485e+2, 1.2507267e+2, -1729812.8, -1795458.8, 19036.775, -0.08140057, 0.083574854, -1724691.8, -10396.109, 0.00045034575, 10.000212, 9.999343 
2.1499617e+2, 1.3507318e+2, -1578171.6, -1598834.4, -15965.145, -0.023504442, 0.14041767, -1569486.6, 46805.16, 0.0002457903, 10.000268, 9.999992 
2.1499677e+2, 1.4507213e+2, -1514269.3, -1564101.9, -16533.934, -0.035870977, 0.053045113, -1509282.5, 9020.686, 0.00009091271, 10.000235, 9.999571 
2.1499798e+2, 1.5507215e+2, -1442205.8, -1493281.5, -14788.399, 0.004082914, 0.10557542, -1438233.0, -17929.205, 0.000015871614, 10.00012, 9.999439 
2.1499905e+2, 1.6507192e+2, -1345088.6, -1401205.1, 1314.4867, 0.0065656845, 0.14120063, -1345057.9, -22750.846, 0.00000031009594, 10.000137, 9.999392 
2.149999e+2, 1.7507133e+2, -1227612.8, -1296280.4, -2121.333, -0.036823057, 0.14068599, -1227547.3, -3233.3281, 0.0, 10.000282, 9.99937 
2.1500064e+2, 1.8507068e+2, -1100347.6, -1140609.0, -26908.45, -0.052572973, 0.11996664, -1086873.1, 39446.21, 0.0, 10.000296, 9.99976 
2.1500137e+2, 1.9507004e+2, -1019337.0, -1053644.5, -21147.389, -0.03649777, 0.07801928, -1009260.94, 19061.518, 0.0, 10.000192, 9.999734 
2.1500215e+2, 2.050695e+2, -944137.5, -998095.7, -14472.492, -0.018934842, 0.0660543, -940500.8, -10174.612, 0.0, 10.000172, 9.999451 
2.1500295e+2, 2.1506906e+2, -837783.8, -898244.9, -12001.886, -0.0013748185, 0.07432083, -835488.5, -3157.9966, 0.0, 10.000237, 9.999432 
2.1500368e+2, 2.2506845e+2, -722459.25, -771743.94, -4160.8613, -0.0034694283, 0.061212994, -722110.44, 12224.607, 0.0, 10.00027, 9.999612 
2.1500432e+2, 2.350677e+2, -625920.5, -677320.3, -4785.4263, -0.023330733, 0.02059659, -625478.75, 10860.991, 0.0, 10.000274, 9.999585 
2.1500501e+2, 2.4506699e+2, -551527.4, -630734.4, -17498.693, -0.022240736, 0.010912098, -547833.75, -9487.994, 0.0, 10.000282, 9.9992285 
2.1500571e+2, 2.550664e+2, -452689.88, -533928.5, -15461.365, -0.0032554888, 0.025581153, -449846.78, -9494.145, 0.0, 10.000296, 9.999214 
2.1500625e+2, 2.6506573e+2, -346731.4, -434474.16, -13345.391, -0.009767269, 0.041559227, -344746.53, -2387.5098, 0.0, 10.0003605, 9.999193 
2.1500662e+2, 2.75065e+2, -234707.95, -333126.8, -18711.77, -0.035660118, 0.045399193, -231270.47, 13094.98, 0.0, 10.000471, 9.999162 
2.150076e+2, 2.8506377e+2, -146263.06, -251540.2, -26103.666, 0.0027850391, 0.014447517, -140146.03, 6230.178, 0.0, 10.000456, 9.999057 
2.1500894e+2, 2.9506236e+2, -68442.164, -162984.39, -17023.986, 0.08452986, -0.037608035, -65470.13, -17081.307, 0.0, 10.000316, 9.99906 
2.1500897e+2, 3.0506223e+2, -22150.98, -143274.31, 1974.0203, -0.01636475, 0.056338143, -22118.816, -22118.816, 0.0000002906552, 10.00042, 9.998813 
2.150104e+2, 3.1505978e+2, 56098.32, -55865.24, -4664.346, -0.0018437776, -0.06815901, 56292.297, 56292.297, 0.0000060416633, 10.000741, 9.999258 
2.249951e+2, 1.2507148e+2, -1729618.1, -1801026.4, 8090.736, -0.07659332, 0.086114705, -1728713.0, -14405.272, 0.0003861587, 10.000238, 9.999292 
2.2499628e+2, 1.3507192e+2, -1609129.9, -1619132.8, -26531.766, -0.03103021, 0.13911492, -1587132.3, 29172.506, 0.00020573656, 10.00008, 9.999944 
2.2499682e+2, 1.4507096e+2, -1525176.5, -1567134.1, -17549.234, -0.04895029, 0.06386865, -1518804.1, -488.99796, 0.00007189719, 10.00015, 9.999592 
2.249982e+2, 1.5507096e+2, -1391279.4, -1465565.3, -14506.332, -0.0012345095, 0.11074318, -1388547.1, 31768.785, 0.000010694928, 10.000457, 9.999468 
2.2499931e+2, 1.6507071e+2, -1299664.0, -1374453.8, 617.0635, 0.0053387065, 0.14150807, -1299658.9, 22660.188, 0.000000092361944, 10.000428, 9.999435 
2.2500004e+2, 1.7507015e+2, -1253999.8, -1303611.1, 5783.308, -0.03996726, 0.13879807, -1253334.5, -29009.148, 0.0, 10.000078, 9.999417 
2.2500078e+2, 1.850695e+2, -1146032.5, -1167647.8, -16118.812, -0.05510901, 0.119681396, -1137433.4, -11102.739, 0.0, 10.000004, 9.999715 
2.2500157e+2, 1.9506888e+2, -1021185.2, -1059428.3, -26185.736, -0.036457762, 0.08196629, -1007882.56, 20451.799, 0.0, 10.0002, 9.99969 
2.250024e+2, 2.0506833e+2, -916916.75, -971825.75, -24419.986, -0.017257277, 0.06577458, -907627.75, 22710.088, 0.0, 10.000301, 9.99957 
2.2500326e+2, 2.150679e+2, -819134.3, -876029.8, -17881.592, 0.00062760303, 0.06173516, -813981.06, 18360.096, 0.0, 10.00031, 9.99955 
2.2500397e+2, 2.2506727e+2, -725255.4, -782076.1, -11619.333, -0.0023163366, 0.04777464, -722971.2, 11374.459, 0.0, 10.00029, 9.999531 
2.2500457e+2, 2.3506655e+2, -636459.75, -691755.06, -16670.29, -0.024094265, 0.018247208, -631822.9, 4528.171, 0.0, 10.00024, 9.999502 
2.250053e+2, 2.4506591e+2, -544138.6, -616054.8, -24212.053, -0.021607358, 0.01593995, -536746.9, 1609.5472, 0.0, 10.000285, 9.999329 
2.2500612e+2, 2.5506547e+2, -427960.97, -511272.03, -18038.113, 0.0019632147, 0.033463866, -424223.16, 16138.274, 0.0, 10.00042, 9.99931 
2.250067e+2, 2.6506475e+2, -340166.94, -440810.84, -13102.392, -0.0048075323, 0.04362739, -338489.16, 3879.056, 0.0, 10.000447, 9.999107 
2.2500704e+2, 2.7506378e+2, -256133.55, -353022.47, -13443.704, -0.035891023, 0.03378782, -254302.77, -9925.5205, 0.0, 10.000366, 9.999076 
2.2500803e+2, 2.8506255e+2, -148113.17, -251094.22, -19340.953, 0.0013160224, 0.0050362116, -144600.55, 1787.7538, 0.0, 10.000438, 9.999069 
2.2500944e+2, 2.9506135e+2, -21317.02, -140524.42, -17290.682, 0.08706578, -0.029627217, -18859.71, 29539.236, 0.0, 10.00064, 9.999059 
2.2500952e+2, 3.0506113e+2, -10552.044, -159295.52, 8615.396, -0.0116678225, 0.068736, -10054.693, -10054.693, 0.000000085825576, 10.000591, 9.998621 
2.2501105e+2, 3.1505826e+2, -601.6836, -68589.17, 17559.67, 0.011416891, -0.08063043, 3665.7354, 3665.7354, 0.0000031779714, 10.00029, 9.999388 
2.3499547e+2, 1.2506987e+2, -1728068.9, -1797965.5, 4662.27, -0.065563336, 0.06493991, -1727759.4, -13435.571, 0.00032267286, 10.00024, 9.999312 
2.3499638e+2, 1.3507047e+2, -1608943.0, -1617742.6, -32159.283, -0.02880669, 0.1337257, -1580884.0, 35435.01, 0.0001666326, 10.000075, 9.999956 
2.3499689e+2, 1.4506976e+2, -1521886.4, -1559804.6, -6268.32, -0.058006868, 0.078995, -1520877.0, -2549.9219, 0.00005400246, 10.000148, 9.999643 
2.349985e+2, 1.5506975e+2, -1386890.8, -1457900.4, -2944.9324, -0.019547168, 0.11893282, -1386768.9, 33559.45, 0.000006396683, 10.000462, 9.999519 
2.3499964e+2, 1.6506954e+2, -1287072.3, -1349206.8, -12928.682, -0.0050961096, 0.14219755, -1284489.4, 37841.34, 0.000000013163342, 10.000432, 9.999606 
2.3500027e+2, 1.7506911e+2, -1241771.5, -1278468.0, -6915.1157, -0.024025027, 0.13603419, -1240511.6, -16176.907, 0.0, 10.000079, 9.99959 
2.3500097e+2, 1.850685e+2, -1163794.9, -1204046.0, -8827.816, -0.037040673, 0.12308317, -1161943.9, -35603.668, 0.0, 10.000002, 9.999465 
2.3500173e+2, 1.9506773e+2, -1038290.0, -1095301.9, -18599.184, -0.040471435, 0.0982261, -1032758.94, -4412.317, 0.0, 10.000202, 9.999443 
2.3500262e+2, 2.0506716e+2, -904340.8, -945406.06, -24285.299, -0.025317164, 0.08121459, -893071.44, 37279.14, 0.0, 10.0003, 9.999751 
2.3500362e+2, 2.1506678e+2, -806813.9, -850071.0, -17174.266, 0.0064873067, 0.06517529, -800824.5, 31527.51, 0.0, 10.000308, 9.999728 
2.350044e+2, 2.2506617e+2, -735193.6, -802195.4, -13656.774, 0.011259269, 0.049880028, -732516.94, 1839.3925, 0.0, 10.000288, 9.999394 
2.3500496e+2, 2.3506539e+2, -645374.56, -710225.25, -18043.555, -0.008582466, 0.028694058, -640692.3, -4329.005, 0.0, 10.00024, 9.999375 
2.3500565e+2, 2.4506481e+2, -533055.0, -592934.0, -19398.29, -0.014533342, 0.02867411, -527320.06, 11048.226, 0.0, 10.000285, 9.999488 
2.3500642e+2, 2.5506446e+2, -417704.1, -489464.72, -12867.024, -0.00947515, 0.043120768, -415466.75, 24904.22, 0.0, 10.000417, 9.999461 
2.3500714e+2, 2.650637e+2, -341371.88, -443158.38, -16756.309, -0.0043083527, 0.039335046, -338684.38, 3693.625, 0.0, 10.000445, 9.999092 
2.3500782e+2, 2.7506247e+2, -256039.97, -352895.25, -16320.329, 0.005726183, 0.005509337, -253363.9, -8974.397, 0.0, 10.000366, 9.999077 
2.3500875e+2, 2.8506127e+2, -153520.64, -261670.11, -11434.215, 0.029866641, -0.018479818, -152324.97, -5924.1045, 0.0, 10.000435, 9.998999 
2.3500971e+2, 2.9506025e+2, -27647.021, -153609.89, -9158.949, 0.050446898, -0.022468815, -26984.545, 21425.658, 0.0, 10.00064, 9.998969 
2.350098e+2, 3.0506015e+2, -5432.3184, -147618.73, -3610.102, -0.043052204, 0.08640066, -5340.7173, -5340.7173, 0.000000016806371, 10.0005865, 9.998703 
2.3501179e+2, 3.150575e+2, 29837.469, -4967.479, 2473.0667, 0.054531828, -0.05262019, 30012.314, 30012.314, 0.0000014346882, 10.000289, 9.9998255 
2.4499552e+2, 1.2506855e+2, -1730948.0, -1784693.1, 10057.399, -0.08161386, 0.0706445, -1729127.6, -14790.098, 0.00026299746, 10.000155, 9.999445 
2.4499668e+2, 1.3506913e+2, -1556575.6, -1579601.3, -25116.023, -0.019359536, 0.12564434, -1540459.5, 75872.48, 0.0001305452, 10.00038, 10.000071 
2.4499723e+2, 1.4506856e+2, -1496461.9, -1550201.5, 2170.7168, -0.04790262, 0.08173932, -1496374.4, 21964.043, 0.000038366878, 10.000334, 9.99962 
2.449987e+2, 1.5506855e+2, -1450283.5, -1489819.3, 284.21378, -0.023665203, 0.12303901, -1450281.5, -29941.512, 0.000003303544, 10.000033, 9.999507 
2.4499981e+2, 1.6506831e+2, -1347736.4, -1371460.5, -18744.178, -0.010184929, 0.14305606, -1337416.1, -15073.512, 0.00000000018007511, 9.999986, 9.999669 
2.4500045e+2, 1.750679e+2, -1221302.0, -1261472.8, -22099.121, -0.020172058, 0.13183011, -1211524.4, 12821.849, 0.0, 10.00019, 9.999653 
2.4500114e+2, 1.8506736e+2, -1127122.9, -1187847.6, -13206.608, -0.03152245, 0.12282974, -1124375.0, 1976.0533, 0.0, 10.00026, 9.999453 
2.4500194e+2, 1.9506669e+2, -1039263.4, -1096885.5, -5205.656, -0.039355844, 0.10967319, -1038796.9, -10440.096, 0.0, 10.000201, 9.999433 
2.4500287e+2, 2.050661e+2, -923306.9, -963695.2, -12491.537, -0.025368944, 0.094406635, -919755.7, 10605.672, 0.0, 10.00021, 9.999669 
2.4500394e+2, 2.1506555e+2, -815888.5, -863830.8, -26057.58, 0.0077944803, 0.07082237, -804453.25, 27911.389, 0.0, 10.000286, 9.999645 
2.4500474e+2, 2.2506496e+2, -722453.2, -787484.6, -25241.438, 0.015397383, 0.056038875, -713805.8, 20563.121, 0.0, 10.000339, 9.999472 
2.4500534e+2, 2.3506431e+2, -621664.0, -690086.44, -14368.424, -0.0001111101, 0.04156996, -618769.2, 17604.994, 0.0, 10.000366, 9.999453 
2.4500602e+2, 2.4506374e+2, -529017.94, -588083.4, -12642.778, -0.006470737, 0.036382295, -526425.56, 11953.284, 0.0, 10.0003, 9.999513 
2.4500673e+2, 2.5506327e+2, -456189.47, -505382.44, -15999.63, -0.006903758, 0.03508152, -451443.6, -11060.927, 0.0, 10.000141, 9.999485 
2.4500749e+2, 2.6506254e+2, -377254.28, -454741.66, -18318.969, -0.000040685103, 0.030679455, -373141.72, -30752.334, 0.0, 10.000175, 9.999143 
2.4500835e+2, 2.750615e+2, -249069.31, -344167.13, -14592.685, 0.01904005, 0.010824972, -246880.47, -2481.2676, 0.0, 10.00039, 9.9991255 
2.4500929e+2, 2.8506035e+2, -159849.95, -262920.97, -7214.935, 0.04430844, -0.011563, -159347.36, -12937.143, 0.0, 10.000383, 9.999015 
2.4501021e+2, 2.950592e+2, -97355.28, -186488.5, 1749.0801, 0.059112597, -0.027462302, -97320.97, -48900.24, 0.0, 10.000159, 9.998975 
2.4501023e+2, 3.0505905e+2, -60244.707, -175082.33, 9064.247, -0.041657783, 0.07509143, -59533.66, -59533.66, 0.0000000018495133, 10.0002165, 9.998692 
2.4501212e+2, 3.150569e+2, 83013.79, 52094.72, 1124.2214, 0.047740325, -0.014274341, 83054.61, 83054.61, 0.00000052479436, 10.000518, 10.000108 
2.5499523e+2, 1.2506746e+2, -1714225.6, -1748961.4, 22136.574, -0.12672831, 0.10257779, -1703456.9, 10892.344, 0.000209724, 10.00015, 9.999693 
2.549972e+2, 1.3506782e+2, -1540601.6, -1548861.4, -16913.842, -0.007636143, 0.11361868, -1527320.8, 89023.24, 0.00009902971, 10.000389, 10.000278 
2.5499782e+2, 1.4506732e+2, -1501244.5, -1561698.8, -10165.35, -0.023922086, 0.07117188, -1499581.0, 18768.209, 0.000025643241, 10.00034, 9.999538 
2.5499883e+2, 1.5506734e+2, -1455489.5, -1500158.4, -10959.352, -0.014433161, 0.12320892, -1452945.5, -32594.336, 0.0000014046367, 10.000031, 9.999437 
2.5499982e+2, 1.6506706e+2, -1351983.8, -1379459.0, -11424.501, -0.010522922, 0.14472762, -1347854.0, -25499.184, 0.0, 9.999983, 9.999616 
2.5500056e+2, 1.7506653e+2, -1224595.3, -1269342.6, -14383.628, -0.030523472, 0.12638406, -1220370.6, 3989.434, 0.0, 10.000195, 9.999598 
2.550013e+2, 1.8506609e+2, -1110471.1, -1153738.8, -15678.361, -0.041119933, 0.11848055, -1105387.4, 20976.203, 0.0, 10.000262, 9.999686 
2.550022e+2, 1.9506577e+2, -1022898.06, -1062980.1, -7165.724, -0.03452475, 0.11537711, -1021655.5, 6709.4917, 0.0, 10.000201, 9.999665 
2.5500315e+2, 2.0506515e+2, -948229.94, -1014803.3, -9672.311, -0.018510731, 0.10444423, -946853.1, -16482.9, 0.0, 10.000208, 9.999319 
2.5500417e+2, 2.1506423e+2, -840103.1, -913773.94, -22775.893, 0.003805741, 0.079429805, -833630.5, -1251.4197, 0.0, 10.000285, 9.999303 
2.5500503e+2, 2.2506362e+2, -702493.06, -745718.56, -24447.133, 0.009137026, 0.066188246, -691474.94, 42908.586, 0.0, 10.000337, 9.999759 
2.5500572e+2, 2.3506333e+2, -602214.4, -649122.3, -13079.15, -0.00054580386, 0.05712814, -598814.06, 37569.707, 0.0, 10.000364, 9.999736 
2.550064e+2, 2.4506271e+2, -536150.7, -602678.25, -18963.15, 0.00023055646, 0.039664496, -531125.06, 7263.223, 0.0, 10.000299, 9.9994135 
2.5500703e+2, 2.5506184e+2, -462245.4, -517986.94, -21608.035, 0.009033001, 0.009122767, -454850.22, -14453.719, 0.0, 10.000141, 9.999398 
2.5500774e+2, 2.6506123e+2, -370160.97, -440315.13, -10103.084, 0.0077046817, 0.016541222, -368734.97, -26332.527, 0.0, 10.000176, 9.999242 
2.5500855e+2, 2.7506083e+2, -242770.14, -331259.75, -6216.4556, 0.0013776724, 0.04920924, -242335.56, 2070.9277, 0.0, 10.000391, 9.999215 
2.5500965e+2, 2.8505975e+2, -152478.34, -246959.47, -16424.092, 0.04112587, 0.025574345, -149704.69, -3288.1672, 0.0, 10.0003805, 9.9991255 
2.5501087e+2, 2.950582e+2, -89397.83, -169349.4, -6365.6235, 0.1107078, -0.04421228, -88894.18, -40463.66, 0.0, 10.000157, 9.999093 
2.5501078e+2, 3.050578e+2, -68844.48, -192634.78, 21099.338, -0.008401759, 0.03454866, -65347.03, -65347.03, 0.000000000039700524, 10.000215, 9.998573 
2.5501204e+2, 3.1505632e+2, 92320.125, 70703.086, 9210.693, -0.012502553, 0.028720804, 95712.34, 95712.34, 0.00000015406697, 10.00052, 10.000236 
2.6499557e+2, 1.2506633e+2, -1671535.6, -1728103.6, 40836.28, -0.120429, 0.10755942, -1650144.8, 64215.22, 0.0001649167, 10.000442, 9.999696 
2.6499745e+2, 1.3506652e+2, -1597447.9, -1579230.8, -21299.283, 0.000060653587, 0.10523569, -1565174.1, 51182.094, 0.000073287774, 10.000011, 10.000252 
2.6499796e+2, 1.4506605e+2, -1555892.5, -1584429.6, -14297.831, -0.024677975, 0.06471693, -1549961.5, -31600.617, 0.000016155976, 9.99995, 9.999571 
2.6499894e+2, 1.5506598e+2, -1418321.1, -1477368.4, -8047.929, -0.018218983, 0.10367513, -1417243.9, 3119.4087, 0.00000046134082, 10.000266, 9.99948 
2.649999e+2, 1.6506572e+2, -1308745.1, -1361110.8, -3612.0754, -0.012913234, 0.12511824, -1308497.1, 13869.704, 0.0, 10.000291, 9.999594 
2.6500067e+2, 1.750653e+2, -1249724.9, -1283823.5, -4437.7744, -0.029797012, 0.120266706, -1249156.8, -24785.273, 0.0, 10.000032, 9.999576 
2.6500148e+2, 1.8506488e+2, -1148041.5, -1165238.4, -8053.0625, -0.037731726, 0.11295555, -1144859.1, -18484.41, 0.0, 9.999977, 9.999744 
2.650024e+2, 1.9506449e+2, -1030038.1, -1059961.8, -13557.803, -0.029114997, 0.097554184, -1024809.1, 3567.32, 0.0, 10.000125, 9.9997225 
2.6500338e+2, 2.050639e+2, -942602.0, -1014653.3, -7854.0723, -0.017405352, 0.08833525, -941755.8, -11374.366, 0.0, 10.0002575, 9.999297 
2.650044e+2, 2.1506311e+2, -828694.94, -910864.3, 3381.418, -0.0058483444, 0.07839365, -828556.0, 3833.5962, 0.0, 10.000375, 9.99928 
2.6500526e+2, 2.2506255e+2, -700411.25, -739347.25, -1763.5306, 0.0000081833605, 0.06742567, -700331.5, 34062.402, 0.0, 10.000328, 9.999806 
2.6500598e+2, 2.350622e+2, -634428.7, -659279.75, -8794.036, 0.001155614, 0.048698068, -631631.56, 4762.7354, 0.0, 10.000119, 9.999784 
2.650067e+2, 2.4506159e+2, -565313.1, -618133.1, -15701.251, 0.009813508, 0.029712904, -560998.25, -22599.48, 0.0, 10.000106, 9.999401 
2.6500738e+2, 2.5506076e+2, -442606.03, -509672.63, -12641.26, 0.024179827, 0.004361866, -440302.4, 104.60224, 0.0, 10.000281, 9.999388 
2.650081e+2, 2.6506022e+2, -349472.6, -424047.13, 1365.8082, 0.018804848, 0.016510861, -349447.6, -7035.115, 0.0, 10.000291, 9.999299 
2.6500878e+2, 2.7505994e+2, -276156.9, -341033.66, 2272.0933, -0.0017666687, 0.05495151, -276077.44, -31661.965, 0.0, 10.000135, 9.99927 
2.6500988e+2, 2.8505892e+2, -174694.27, -260017.86, -12483.466, 0.03321985, 0.03714608, -172905.36, -26480.502, 0.0, 10.00024, 9.999104 
2.6501122e+2, 2.9505742e+2, -29784.23, -143448.17, -14214.581, 0.108534515, -0.028486593, -28033.549, 20405.178, 0.0, 10.000579, 9.999067 
2.6501113e+2, 3.050566e+2, -37753.234, -181664.77, 4772.0093, -0.0046451455, 0.015953125, -37595.17, -37595.17, 0.0, 10.000445, 9.998537 
2.6501226e+2, 3.1505546e+2, 6645.4395, 44413.305, -6595.015, -0.008025027, 0.04022757, 45531.8, 45531.8, 0.000000038019415, 9.99987, 10.000366 
2.7499655e+2, 1.2506515e+2, -1687081.1, -1761512.1, 28262.865, -0.0685636, 0.08569307, -1677565.6, 36804.39, 0.00012966055, 10.000447, 9.999463 
2.7499753e+2, 1.3506529e+2, -1615942.3, -1616534.1, -38181.69, 0.0027362425, 0.10183805, -1578055.4, 38313.15, 0.00005392466, 10.000007, 9.999998 
2.7499765e+2, 1.4506479e+2, -1546373.5, -1563585.3, -2953.5068, -0.05102203, 0.06357974, -1545880.8, -27507.402, 0.0000098627, 9.999946, 9.999716 
2.74999e+2, 1.5506445e+2, -1407552.0, -1455719.3, 3741.7957, -0.03851141, 0.06323045, -1407263.1, 13113.395, 0.00000011248763, 10.000269, 9.999628 
2.7500013e+2, 1.6506426e+2, -1307319.3, -1359040.4, -13914.994, -0.02082495, 0.082696356, -1303813.3, 18565.713, 0.0, 10.000295, 9.999606 
2.7500078e+2, 1.750642e+2, -1248452.1, -1281298.6, -14136.842, -0.019127727, 0.11356925, -1243205.8, -18825.158, 0.0, 10.000032, 9.999594 
2.750016e+2, 1.8506373e+2, -1156897.1, -1183202.8, -2731.9797, -0.022625031, 0.10672215, -1156616.4, -30231.695, 0.0, 9.999975, 9.999621 
2.750026e+2, 1.9506288e+2, -1038691.25, -1077897.5, -7806.643, -0.024120476, 0.05694032, -1037193.94, -8802.865, 0.0, 10.000125, 9.999599 
2.750036e+2, 2.0506236e+2, -921355.25, -970063.8, -3512.9343, -0.02326186, 0.046281442, -921103.2, 9291.834, 0.0, 10.000256, 9.999604 
2.750046e+2, 2.1506222e+2, -807451.4, -866606.25, 8217.158, -0.022635298, 0.06706099, -806331.1, 26065.363, 0.0, 10.000374, 9.999584 
2.7500546e+2, 2.2506171e+2, -714257.25, -767514.44, -9710.069, -0.013947859, 0.05889219, -712542.1, 21858.047, 0.0, 10.000325, 9.999615 
2.7500615e+2, 2.3506093e+2, -647345.6, -686237.44, -16299.279, 0.004969683, 0.01595842, -641418.1, -5012.3296, 0.0, 10.00012, 9.9995985 
2.7500692e+2, 2.4506035e+2, -560295.2, -607942.56, -9341.299, 0.021942424, 0.005697141, -558529.3, -20118.719, 0.0, 10.000107, 9.999471 
2.7500778e+2, 2.5506e+2, -438292.3, -500488.8, -5867.278, 0.035348304, 0.02089852, -437743.7, 2670.621, 0.0, 10.00028, 9.999452 
2.7500847e+2, 2.6505947e+2, -348288.88, -420851.06, -4961.8145, 0.0295913, 0.031522095, -347951.16, -5531.6987, 0.0, 10.000288, 9.999322 
2.7500904e+2, 2.750588e+2, -274348.0, -336639.63, -3106.358, 0.009323605, 0.02808667, -274193.47, -29767.346, 0.0, 10.0001335, 9.999301 
2.7501002e+2, 2.8505787e+2, -186482.58, -284542.0, 534.9636, 0.020999722, 0.021915851, -186479.66, -40044.344, 0.0, 10.00024, 9.998936 
2.7501124e+2, 2.9505676e+2, -41410.67, -168563.88, -1265.8927, 0.049207456, 0.018175595, -41398.07, 7047.4985, 0.0, 10.000583, 9.998895 
2.7501127e+2, 3.0505547e+2, -34523.734, -175377.39, -17667.477, -0.035813145, 0.018680139, -32341.488, -32341.488, 0.0, 10.000447, 9.998579 
2.750128e+2, 3.1505412e+2, 15862.711, 63792.098, -32547.105, 0.055564772, 0.017649204, 80245.48, 80245.48, 0.00000000643165, 9.999868, 10.000499 
2.8499708e+2, 1.2506415e+2, -1742712.5, -1801082.6, 46030.766, -0.04525923, 0.06458371, -1717394.4, -3016.4194, 0.00010364884, 10.000121, 9.99935 
2.8499776e+2, 1.3506424e+2, -1566683.4, -1608734.8, -19207.871, 0.006888911, 0.08823937, -1559230.6, 57147.465, 0.000040612387, 10.000414, 9.999856 
2.849977e+2, 1.4506377e+2, -1476815.1, -1526716.0, 19879.424, -0.060575236, 0.060441382, -1469863.9, 48518.72, 0.0000062724685, 10.00041, 9.999745 
2.849992e+2, 1.5506335e+2, -1426769.0, -1460940.8, 17420.813, -0.035400715, 0.046484064, -1419453.9, 932.23615, 0.000000028346124, 10.00012, 9.999663 
2.8500035e+2, 1.650631e+2, -1348445.0, -1387737.5, -9901.931, -0.013536444, 0.062620156, -1346090.6, -23701.648, 0.0, 10.000052, 9.999526 
2.8500095e+2, 1.7506303e+2, -1227599.9, -1279723.1, -18061.094, -0.01809016, 0.10196547, -1221953.4, 2437.8694, 0.0, 10.000214, 9.9995165 
2.8500167e+2, 1.8506259e+2, -1117721.3, -1160888.0, -2032.758, -0.02436748, 0.09927186, -1117625.8, 8769.546, 0.0, 10.00023, 9.999652 
2.8500268e+2, 1.9506177e+2, -1039502.7, -1075056.6, 3870.6995, -0.024911609, 0.04989694, -1039086.1, -10684.931, 0.0, 10.000106, 9.999628 
2.8500375e+2, 2.0506126e+2, -947838.75, -976026.5, 6660.281, -0.021021752, 0.035004634, -946344.25, -15939.325, 0.0, 10.000044, 9.999665 
2.8500488e+2, 2.1506107e+2, -851367.2, -880380.1, -631.80963, -0.016013864, 0.04690931, -851353.44, -18946.973, 0.0, 10.000041, 9.99965 
2.8500575e+2, 2.2506066e+2, -743184.94, -780480.06, -22383.621, -0.007826763, 0.04218661, -732699.06, 1710.563, 0.0, 10.000123, 9.999623 
2.8500634e+2, 2.3506002e+2, -622700.2, -673565.0, -14096.114, 0.0061292797, 0.014967399, -619054.94, 17359.297, 0.0, 10.000285, 9.999606 
2.850071e+2, 2.450595e+2, -535023.1, -594697.94, -819.89514, 0.019749327, 0.0093825115, -535011.9, 3406.7585, 0.0, 10.000275, 9.99948 
2.8500792e+2, 2.5505912e+2, -464540.8, -511914.25, -2179.7397, 0.030637652, 0.01900801, -464440.72, -24018.207, 0.0, 10.000095, 9.999462 
2.850087e+2, 2.6505855e+2, -370216.06, -436225.53, -2811.4907, 0.026766507, 0.025235083, -370096.53, -27668.195, 0.0, 10.000159, 9.999277 
2.8500935e+2, 2.7505776e+2, -230307.6, -319749.5, -6785.1943, 0.013838441, 0.01861438, -229795.78, 14640.319, 0.0, 10.000455, 9.999262 
2.8501034e+2, 2.850569e+2, -159598.11, -273164.47, -1641.0524, 0.021966727, 0.023038713, -159574.4, -13129.804, 0.0, 10.000432, 9.99892 
2.8501144e+2, 2.9505605e+2, -111636.4, -204055.08, 7509.456, 0.036207467, 0.042450443, -111030.195, -62577.56, 0.0, 10.00011, 9.998877 
2.8501153e+2, 3.0505428e+2, -83593.02, -211131.02, -12316.631, -0.038723707, 0.0026505562, -82414.47, -82414.47, 0.0, 10.000164, 9.998469 
2.8501317e+2, 3.1505296e+2, 104259.96, 89146.92, -44675.64, 0.07537634, 0.01717716, 142013.64, 142013.64, 0.00000000043435586, 10.000549, 10.000347 
2.9499713e+2, 1.2506337e+2, -1742638.9, -1801493.4, 61186.156, -0.053551633, 0.04447975, -1704171.4, 10212.109, 0.000085497144, 10.000124, 9.999346 
2.949982e+2, 1.3506335e+2, -1569429.0, -1614748.0, -8320.809, 0.009199318, 0.06269399, -1567949.6, 48435.387, 0.000032281903, 10.000416, 9.999814 
2.949982e+2, 1.4506301e+2, -1482703.6, -1539612.5, 8318.072, -0.056114424, 0.054517984, -1481512.8, 36875.867, 0.0000046245973, 10.000412, 9.999657 
2.9499957e+2, 1.5506266e+2, -1432668.1, -1472791.9, 6368.4995, -0.011281034, 0.055666797, -1431681.5, -11289.839, 0.00000001715619, 10.000119, 9.999583 
2.9500064e+2, 1.6506223e+2, -1360809.4, -1413004.0, -4321.2715, 0.0065903156, 0.067499265, -1360454.0, -38057.29, 0.0, 10.000051, 9.999353 
2.9500103e+2, 1.7506179e+2, -1240363.6, -1305345.4, -11809.796, -0.028227936, 0.08455036, -1238283.9, -13880.586, 0.0, 10.000211, 9.999342 
2.9500172e+2, 1.8506141e+2, -1105908.5, -1135623.5, -6833.174, -0.044320617, 0.08952132, -1104412.5, 21994.1, 0.0, 10.000227, 9.999826 
2.9500273e+2, 1.9506113e+2, -1027000.94, -1049331.5, -567.42645, -0.032328244, 0.07575314, -1026986.56, 1420.3688, 0.0, 10.000106, 9.999805 
2.9500392e+2, 2.0506054e+2, -960884.6, -1002764.4, 6462.663, -0.012065694, 0.054061104, -959910.0, -29498.705, 0.0, 10.000042, 9.999483 
2.9500523e+2, 2.150597e+2, -864085.3, -906668.44, -347.23337, 0.0131851975, 0.017922614, -864082.5, -31662.89, 0.0, 10.00004, 9.99947 
2.950061e+2, 2.2505935e+2, -728668.0, -749777.1, -16497.87, 0.017144509, 0.017298609, -719637.4, 14785.014, 0.0, 10.00012, 9.999836 
2.950066e+2, 2.3505948e+2, -608307.25, -643384.3, -7702.6997, 0.002652682, 0.045535013, -606690.3, 29729.36, 0.0, 10.000284, 9.999815 
2.9500717e+2, 2.4505906e+2, -538780.25, -602057.4, -7805.024, 0.0011738779, 0.040811963, -537831.75, 591.2156, 0.0, 10.000274, 9.999431 
2.9500782e+2, 2.5505808e+2, -467993.84, -518956.13, -8555.332, 0.009986885, -0.0021203991, -466595.97, -26164.201, 0.0, 10.000094, 9.9994135 
2.950087e+2, 2.6505736e+2, -378476.06, -453355.56, 8011.6035, 0.0108050965, -0.0036571035, -377628.47, -35189.215, 0.0, 10.000159, 9.99916 
2.9500976e+2, 2.750568e+2, -238031.95, -336003.53, 4274.672, 0.007943325, 0.0257584, -237845.8, 6599.708, 0.0, 10.000455, 9.99915 
2.9501086e+2, 2.8505608e+2, -150124.11, -253382.88, -14498.176, 0.031787444, 0.041231375, -148127.11, -1674.3752, 0.0, 10.000432, 9.999057 
2.9501188e+2, 2.950552e+2, -103102.22, -185043.17, -4156.458, 0.06842146, 0.0452792, -102891.92, -54431.97, 0.0, 10.000105, 9.99901 
2.9501197e+2, 3.05053e+2, -102618.61, -250030.48, 2411.6885, -0.013068917, -0.031399082, -102579.164, -102579.164, 0.0, 10.000161, 9.998203 
2.9501346e+2, 3.1505188e+2, 76090.18, 28476.914, -32812.83, 0.0465353, 0.030073693, 92822.88, 92822.88, 0.0, 10.000558, 9.999926 
3.0499753e+2, 1.2506253e+2, -1669345.3, -1763324.5, 40420.36, -0.050740726, 0.04751786, -1654352.4, 60038.625, 0.000073591786, 10.000618, 9.999368 
3.0499858e+2, 1.3506228e+2, -1620007.9, -1641727.6, -33797.17, 0.021783324, 0.04448368, -1595368.8, 21026.018, 0.000027638554, 10.000079, 9.999791 
3.0499834e+2, 1.4506204e+2, -1548779.4, -1572674.3, -7348.6646, -0.056679364, 0.048661683, -1546700.3, -28302.68, 0.000004191702, 9.999966, 9.999644 
3.0499974e+2, 1.5506187e+2, -1411451.1, -1463407.4, -5134.745, -0.017178025, 0.06951087, -1410948.6, 9450.709, 0.000000032166714, 10.000269, 9.999575 
3.0500075e+2, 1.6506143e+2, -1323100.1, -1391388.1, -6882.5283, 0.0033237387, 0.07852667, -1322413.3, -8.912968, 0.0, 10.000296, 9.999383 
3.050012e+2, 1.7506078e+2, -1259979.1, -1311697.6, 89.19011, -0.025971137, 0.072018705, -1259978.9, -35566.543, 0.0, 10.000062, 9.999371 
3.0500188e+2, 1.8506038e+2, -1139079.0, -1157869.3, 6644.115, -0.040088993, 0.07565889, -1136967.0, -10550.953, 0.0, 10.000027, 9.999771 
3.050029e+2, 1.9506024e+2, -1018031.4, -1050057.5, -4783.996, -0.028309444, 0.08258056, -1017332.0, 11083.55, 0.0, 10.000192, 9.999758 
3.0500406e+2, 2.0505969e+2, -932087.5, -985107.3, -545.4012, -0.007859538, 0.06481377, -932081.9, -1662.1802, 0.0, 10.000225, 9.999516 
3.0500534e+2, 2.1505876e+2, -849010.44, -896205.06, 8417.823, 0.016817756, 0.017502524, -847554.0, -15125.734, 0.0, 10.00013, 9.999499 
3.0500624e+2, 2.2505835e+2, -737543.3, -760872.4, -4404.0376, 0.018608669, 0.013230322, -736739.6, -2308.0254, 0.0, 10.000088, 9.999776 
3.0500674e+2, 2.3505847e+2, -639393.0, -664635.75, -16781.377, -0.00019659499, 0.04468957, -631016.44, 5413.2437, 0.0, 10.000098, 9.999758 
3.0500737e+2, 2.4505806e+2, -545356.94, -598350.3, -25304.826, -0.0045704697, 0.042142924, -535214.75, 3217.9685, 0.0, 10.000199, 9.999492 
3.05008e+2, 2.5505716e+2, -420605.6, -489304.25, -17824.117, 0.0036223016, 0.00035443727, -416256.4, 24183.93, 0.0, 10.000391, 9.9994755 
3.050089e+2, 2.6505637e+2, -354871.88, -449425.16, 6080.3594, 0.0048476662, -0.0057175863, -354482.47, -12034.295, 0.0, 10.000354, 9.999093 
3.0501002e+2, 2.750557e+2, -295480.5, -371217.84, 5076.6445, 0.002948952, 0.014125711, -295141.72, -50685.414, 0.0, 10.000094, 9.999082 
3.0501115e+2, 2.8505498e+2, -193913.73, -266168.44, -16783.377, 0.032749098, 0.032926995, -190205.58, -43742.387, 0.0, 10.000096, 9.99913 
3.0501223e+2, 2.9505432e+2, -63014.21, -157249.1, -11536.971, 0.08290451, 0.052612573, -61622.324, -13154.385, 0.0, 10.000343, 9.999086 
3.050124e+2, 3.0505198e+2, -60120.074, -219060.1, 14657.104, 0.0012809949, -0.049714375, -58779.73, -58779.73, 0.0, 10.000408, 9.998298 
3.0501378e+2, 3.1505105e+2, 26388.643, -11007.066, 612.91174, 0.033134058, 0.024634918, 26398.686, 26398.686, 0.0, 10.000285, 9.999785 
3.1499827e+2, 1.2506162e+2, -1665782.0, -1757033.9, 25954.014, -0.03916051, 0.0743116, -1658916.6, 55483.938, 0.00006650563, 10.000622, 9.99941 
3.1499884e+2, 1.3506104e+2, -1619203.5, -1640901.0, -53689.0, 0.038561948, 0.036480606, -1575278.1, 41128.91, 0.000025576577, 10.000084, 9.999795 
3.1499824e+2, 1.4506088e+2, -1543971.0, -1563573.0, 3712.4976, -0.068193145, 0.04579805, -1543291.4, -24882.39, 0.000004447986, 9.999969, 9.999706 
3.149996e+2, 1.5506098e+2, -1407670.8, -1454502.5, 6626.0054, -0.054188933, 0.08616237, -1406751.4, 13657.543, 0.00000006594377, 10.000264, 9.999639 
3.150008e+2, 1.6506067e+2, -1308249.4, -1359796.4, -16076.659, -0.024015434, 0.094372, -1303646.4, 18765.807, 0.0, 10.000292, 9.999602 
3.150014e+2, 1.7506e+2, -1244622.6, -1280048.1, -8597.297, -0.013641743, 0.06520201, -1242646.4, -18227.824, 0.0, 10.000063, 9.999587 
3.1500217e+2, 1.8505947e+2, -1158642.5, -1198668.9, 12577.783, -0.015178166, 0.059781715, -1155018.3, -28594.697, 0.0, 10.000027, 9.999492 
3.1500325e+2, 1.9505909e+2, -1037741.6, -1090606.9, 1781.4098, -0.013812066, 0.06987992, -1037681.6, -9254.387, 0.0, 10.000189, 9.999481 
3.1500426e+2, 2.0505868e+2, -915518.75, -949616.2, -4195.921, -0.009464842, 0.06661175, -915010.0, 15420.296, 0.0, 10.00022, 9.999762 
3.1500524e+2, 2.1505824e+2, -832334.75, -861349.8, 5313.38, -0.006312402, 0.044918563, -831392.3, 1040.2383, 0.0, 10.000128, 9.99974 
3.1500608e+2, 2.2505768e+2, -761153.6, -809606.6, -4030.8843, -0.004915666, 0.029377744, -760820.6, -26383.326, 0.0, 10.000087, 9.999442 
3.1500682e+2, 2.3505698e+2, -662410.56, -712560.4, -16096.583, -0.003001991, 0.0121777095, -657688.6, -21244.285, 0.0, 10.000098, 9.999429 
3.1500763e+2, 2.4505652e+2, -533320.44, -573286.1, -18538.56, 0.0018330647, 0.012865941, -526045.4, 12402.706, 0.0, 10.000198, 9.999664 
3.1500846e+2, 2.5505635e+2, -408086.06, -463157.88, -10595.272, 0.008367943, 0.026127776, -406117.97, 34330.3, 0.0, 10.00039, 9.999655 
3.1500924e+2, 2.6505563e+2, -356581.4, -452833.84, -4005.5933, 0.0065204934, 0.019553645, -356415.0, -13959.949, 0.0, 10.000354, 9.99907 
3.1501004e+2, 2.750544e+2, -297978.47, -375474.9, -4241.3647, -0.0016600725, -0.015998576, -297747.03, -53278.504, 0.0, 10.000091, 9.999054 
3.1501117e+2, 2.8505358e+2, -194251.83, -265682.88, -7922.427, 0.025302341, -0.0020351193, -193383.7, -46907.586, 0.0, 10.000092, 9.999136 
3.150125e+2, 2.950534e+2, -60551.453, -153297.77, -2010.1903, 0.07588051, 0.062377382, -60507.906, -12031.075, 0.0, 10.000349, 9.99911 
3.1501278e+2, 3.0505115e+2, -28292.555, -154575.27, 9481.623, 0.0008140953, -0.053859, -27584.62, -27584.62, 0.0, 10.000414, 9.998738 
3.15014e+2, 3.1505048e+2, 35700.918, 9750.458, -7792.0923, 0.030597745, 0.00075099734, 37860.855, 37860.855, 0.0, 10.000278, 9.999931 
3.2499868e+2, 1.2506038e+2, -1750350.8, -1777904.3, 31760.354, -0.02484257, 0.065122604, -1729507.9, -15094.956, 0.00006287029, 9.999959, 9.999585 
3.249991e+2, 1.3505994e+2, -1574876.8, -1605448.8, -45322.832, 0.04398847, 0.028953062, -1542331.6, 74085.43, 0.000025189593, 10.000327, 9.999921 
3.249982e+2, 1.4505994e+2, -1494286.3, -1538740.6, 15624.353, -0.08416729, 0.04635435, -1489344.1, 29073.268, 0.0000050024137, 10.000307, 9.999713 
3.2499957e+2, 1.5505992e+2, -1461046.0, -1478885.0, 13231.386, -0.06575397, 0.07499368, -1454008.4, -33589.676, 0.000000115129794, 9.999892, 9.999651 
3.2500082e+2, 1.6505963e+2, -1365592.1, -1376349.9, -10636.933, -0.0284576, 0.07922296, -1359051.4, -36629.668, 0.0, 9.999851, 9.999701 
3.2500154e+2, 1.7505912e+2, -1219296.4, -1256142.1, -12513.075, -0.011850938, 0.055861373, -1215448.8, 8977.367, 0.0, 10.000189, 9.99969 
3.2500237e+2, 1.8505862e+2, -1126215.0, -1187219.8, 11755.495, -0.007551395, 0.05020538, -1124028.1, 2402.5369, 0.0, 10.000268, 9.999453 
3.250035e+2, 1.9505815e+2, -1053200.5, -1102852.0, 18003.68, -0.0020080516, 0.05511767, -1047359.44, -18924.012, 0.0, 10.000103, 9.999439 
3.250045e+2, 2.0505771e+2, -932971.3, -966203.1, 11793.13, -0.005413125, 0.053990208, -929211.56, 1227.4854, 0.0, 10.0001335, 9.99969 
3.2500535e+2, 2.150573e+2, -803842.25, -854618.75, -3011.5984, -0.021785699, 0.04183918, -803664.25, 28777.16, 0.0, 10.000355, 9.999676 
3.2500616e+2, 2.250567e+2, -719767.2, -792674.0, -16818.148, -0.020939125, 0.02726012, -716074.6, 18371.83, 0.0, 10.000384, 9.999414 
3.2500702e+2, 2.3505588e+2, -645384.5, -707512.4, -5890.612, -0.0013689357, 0.0026942638, -644830.94, -8376.777, 0.0, 10.000228, 9.999401 
3.250079e+2, 2.4505538e+2, -550772.75, -590565.44, -768.0452, 0.010180442, 0.002909044, -550757.94, -12299.268, 0.0, 10.000117, 9.999585 
3.250087e+2, 2.550552e+2, -463383.53, -498835.4, -13017.93, 0.012297385, 0.022746427, -459116.84, -18657.229, 0.0, 10.00005, 9.999575 
3.2500955e+2, 2.650545e+2, -385051.56, -452201.03, -14628.46, 0.011729359, 0.0166836, -382003.16, -39537.176, 0.0, 10.000096, 9.999199 
3.2501036e+2, 2.7505332e+2, -264394.8, -344799.84, -3563.3557, 0.0112163555, -0.023942143, -264237.22, -19759.313, 0.0, 10.000258, 9.999185 
3.2501137e+2, 2.8505257e+2, -173392.42, -261185.11, 1416.7397, 0.029355437, -0.010668211, -173369.56, -26884.383, 0.0, 10.000258, 9.999086 
3.250125e+2, 2.9505238e+2, -102935.445, -179295.9, 1561.4191, 0.05568495, 0.057652023, -102903.52, -54416.57, 0.0, 10.000082, 9.999061 
3.2501295e+2, 3.0505028e+2, -60929.22, -134697.7, 2986.6335, -0.008237482, -0.05479469, -60808.496, -60808.496, 0.0, 10.000037, 9.999056 
3.2501444e+2, 3.1504998e+2, 13336.096, -696.15717, -26888.553, 0.051689602, 0.0069087, 34108.82, 34108.82, 0.0, 10.000121, 9.999936 
3.3499876e+2, 1.2505884e+2, -1728244.1, -1734420.3, 50621.62, -0.01709989, 0.022702968, -1680616.5, 33811.06, 0.000061273975, 9.999968, 9.99988 
3.3499935e+2, 1.35059e+2, -1558230.3, -1569965.3, -30455.531, 0.039065916, 0.021288944, -1533082.1, 83342.64, 0.000025556885, 10.000323, 10.000167 
3.349983e+2, 1.450592e+2, -1498835.0, -1547461.9, 121.789825, -0.10402373, 0.050088875, -1498834.8, 19588.092, 0.0000055599335, 10.000303, 9.999655 
3.3499953e+2, 1.5505873e+2, -1464192.5, -1485489.6, -1870.6055, -0.058157705, 0.037901953, -1464029.5, -43600.766, 0.00000016881297, 9.999893, 9.999604 
3.3500078e+2, 1.6505834e+2, -1366138.4, -1378301.6, 1917.319, -0.017062536, 0.03611898, -1365843.3, -43410.27, 0.0, 9.999854, 9.999686 
3.3500165e+2, 1.7505813e+2, -1220443.0, -1258253.5, 727.3796, -0.020361597, 0.042567242, -1220429.0, 4006.0188, 0.0, 10.000186, 9.999678 
3.3500257e+2, 1.8505782e+2, -1113306.4, -1159339.4, 5340.284, -0.017416548, 0.045563333, -1112694.9, 13742.508, 0.0, 10.000263, 9.999646 
3.350037e+2, 1.950574e+2, -1040463.56, -1076321.6, 12170.359, 0.00537182, 0.037837137, -1036723.06, -8282.846, 0.0, 10.000101, 9.999622 
3.350047e+2, 2.0505674e+2, -960309.75, -1022326.6, 20123.488, 0.0017749801, 0.027492588, -954352.25, -23906.17, 0.0, 10.000131, 9.999306 
3.3500558e+2, 2.150559e+2, -830377.7, -909678.3, 5766.212, -0.030716088, 0.008112667, -829960.6, 2494.223, 0.0, 10.000354, 9.999298 
3.3500645e+2, 2.2505537e+2, -700284.9, -751704.56, -23007.479, -0.030744383, 0.0067027584, -691493.44, 42965.797, 0.0, 10.000382, 9.999697 
3.3500728e+2, 2.350552e+2, -625512.25, -666163.1, -11421.067, 0.0032774233, 0.016042039, -622523.25, 13936.0205, 0.0, 10.000228, 9.999686 
3.3500805e+2, 2.4505462e+2, -574738.4, -640120.56, -3460.792, 0.018883217, 0.012254092, -574555.7, -36091.25, 0.0, 10.000116, 9.999245 
3.350088e+2, 2.5505367e+2, -487626.9, -548606.06, -15219.763, 0.014491003, -0.009461052, -484039.28, -43564.863, 0.0, 10.000047, 9.999233 
3.350097e+2, 2.6505294e+2, -365880.78, -411937.66, -9032.453, 0.02025677, -0.014412628, -364172.75, -21691.611, 0.0, 10.000093, 9.999476 
3.350109e+2, 2.750525e+2, -243432.97, -301706.34, 2580.2053, 0.038671035, -0.011206498, -243318.95, 1165.6007, 0.0, 10.00026, 9.999479 
3.3501178e+2, 2.850519e+2, -181281.44, -277625.53, -5598.0234, 0.04216414, 0.006443215, -180957.27, -34466.797, 0.0, 10.000258, 9.998974 
3.3501226e+2, 2.9505125e+2, -112329.71, -197115.42, -4610.2524, 0.02056555, 0.04012984, -112079.76, -63581.582, 0.0, 10.000074, 9.998941 
3.350128e+2, 3.050494e+2, -48696.527, -107540.69, 5176.6304, -0.026675, -0.052127726, -48244.598, -48244.598, 0.0, 10.00003, 9.999247 
3.3501494e+2, 3.150496e+2, 6037.496, -17361.996, -25224.367, 0.09174, 0.04114027, 22143.375, 22143.375, 0.0, 10.000128, 9.999818 
3.4499887e+2, 1.25058e+2, -1651765.1, -1690941.1, 78339.91, -0.026154187, 0.012145671, -1590601.5, 123833.65, 0.000060228966, 10.000465, 9.999937 
3.4499952e+2, 1.3505815e+2, -1620995.8, -1601035.6, -27728.1, 0.0440277, 0.011994253, -1581546.3, 34886.035, 0.000025763518, 9.999893, 10.000162 
3.449983e+2, 1.4505841e+2, -1574247.1, -1580555.6, 129.12704, -0.109914176, 0.044977747, -1574244.5, -55814.97, 0.000005876301, 9.999772, 9.999682 
3.449996e+2, 1.5505779e+2, -1436551.0, -1468389.0, 3522.4573, -0.049372293, 0.014023617, -1436166.0, -15729.353, 0.0000002059256, 10.000067, 9.999638 
3.4500092e+2, 1.6505738e+2, -1326180.8, -1366399.1, 15729.22, -0.0045050834, 0.011335793, -1320759.8, 1681.4081, 0.0, 10.00016, 9.9996195 
3.4500176e+2, 1.7505726e+2, -1240442.5, -1275313.8, 9423.872, -0.020159287, 0.03643517, -1238058.6, -13616.066, 0.0, 10.00008, 9.999611 
3.4500268e+2, 1.8505694e+2, -1131614.8, -1168911.9, 1000.2972, -0.024386074, 0.042077553, -1131587.9, -5142.7637, 0.0, 10.00014, 9.99964 
3.450038e+2, 1.9505641e+2, -1006803.6, -1059686.6, -6825.062, -0.002020649, 0.02199656, -1005937.0, 22511.861, 0.0, 10.000333, 9.999623 
3.450049e+2, 2.0505573e+2, -940749.1, -1017559.5, 6235.7217, -0.0005172881, 0.0097191725, -940246.2, -9791.091, 0.0, 10.000286, 9.999264 
3.4500584e+2, 2.150549e+2, -883830.7, -940343.0, 16955.133, -0.024434686, -0.0013613204, -879134.06, -46670.277, 0.0, 10.000008, 9.999255 
3.4500667e+2, 2.2505438e+2, -759643.25, -778629.0, -7121.063, -0.02392535, -0.0005434736, -757269.2, -22801.129, 0.0, 9.999967, 9.999713 
3.4500748e+2, 2.3505418e+2, -634726.0, -668786.2, -16490.55, 0.0028352456, 0.00504381, -628050.4, 8417.617, 0.0, 10.000157, 9.9997015 
3.4500828e+2, 2.4505354e+2, -553745.7, -636631.06, -8094.359, 0.020074636, -0.0027778407, -552962.6, -14488.954, 0.0, 10.000289, 9.9991865 
3.450091e+2, 2.5505248e+2, -445338.56, -534704.4, 1201.8507, 0.026191238, -0.029172946, -445322.4, -4837.5215, 0.0, 10.000365, 9.999176 
3.4500998e+2, 2.650518e+2, -334204.44, -394496.84, 8504.763, 0.025913108, -0.029693391, -333027.75, 9463.621, 0.0, 10.000302, 9.9994955 
3.450109e+2, 2.750515e+2, -266686.06, -311633.3, -592.14307, 0.02183082, -0.013608145, -266678.25, -22184.97, 0.0, 10.000094, 9.999493 
3.450117e+2, 2.8505087e+2, -223667.69, -304194.7, -19293.934, 0.024901317, 0.0040954514, -219283.63, -72783.97, 0.0, 9.999993, 9.9989195 
3.4501237e+2, 2.9505005e+2, -125153.055, -209746.72, -13999.139, 0.0260635, 0.025721624, -122896.57, -74386.875, 0.0, 10.000013, 9.998885 
3.4501293e+2, 3.050485e+2, -32884.96, -85875.36, 3184.4873, -0.014466766, -0.03841368, -32694.271, -32694.271, 0.0, 10.000078, 9.999372 
3.4501496e+2, 3.1504872e+2, -2330.4421, -35206.453, -37492.742, 0.076199085, 0.044505347, 22169.477, 22169.477, 0.0, 10.000133, 9.999693 
3.549991e+2, 1.250578e+2, -1664351.1, -1717109.9, 61510.46, -0.053809516, 0.033553135, -1623802.1, 90633.58, 0.00005843651, 10.000464, 9.999759 
3.5499948e+2, 1.350574e+2, -1638042.0, -1637380.8, -48055.438, 0.05066637, 0.0025339678, -1589654.8, 26784.633, 0.000025162195, 9.999896, 9.999911 
3.5499808e+2, 1.4505759e+2, -1565367.5, -1563235.4, 11761.477, -0.11057247, 0.033446718, -1552491.8, -34054.258, 0.0000057861466, 9.999776, 9.999801 
3.5499978e+2, 1.5505707e+2, -1428694.4, -1451586.1, 15201.1, -0.03765471, 0.0025898565, -1421111.9, -669.45074, 0.00000020730299, 10.000064, 9.999754 
3.550012e+2, 1.650567e+2, -1335345.1, -1385298.6, 12359.868, 0.010132388, 0.0045627668, -1332454.3, -10007.932, 0.0, 10.000159, 9.999491 
3.550019e+2, 1.7505653e+2, -1249498.8, -1294447.1, 6844.615, -0.015446297, 0.037562836, -1248479.6, -24030.734, 0.0, 10.000081, 9.999479 
3.5500276e+2, 1.8505603e+2, -1145070.6, -1196756.8, 8296.809, -0.03361745, 0.04071237, -1143771.5, -17317.654, 0.0, 10.000139, 9.99945 
3.5500392e+2, 1.9505516e+2, -1019612.94, -1086392.3, 861.10065, -0.024764067, 0.0068290047, -1019601.8, 8859.592, 0.0, 10.000333, 9.999441 
3.5500506e+2, 2.050546e+2, -920127.06, -974165.5, -4449.305, -0.012718806, 0.0000063224643, -919763.2, 10703.021, 0.0, 10.000283, 9.999563 
3.5500604e+2, 2.1505432e+2, -863472.2, -897762.75, 7055.8906, -0.004582666, 0.013267787, -862077.06, -29608.74, 0.0, 10.000006, 9.999549 
3.5500687e+2, 2.2505373e+2, -777831.4, -815938.06, -108.27326, -0.0026767002, 0.0050194603, -777831.06, -43357.953, 0.0, 9.999965, 9.999457 
3.5500756e+2, 2.3505285e+2, -652667.94, -705884.6, -9114.645, -0.003613755, -0.030109582, -651150.1, -14669.707, 0.0, 10.000156, 9.999448 
3.550085e+2, 2.4505217e+2, -538094.0, -604024.8, -5630.321, 0.013066991, -0.042069156, -537616.6, 869.8683, 0.0, 10.000288, 9.999411 
3.5500968e+2, 2.5505164e+2, -428987.03, -500559.53, 4060.4438, 0.04554371, -0.03683525, -428757.4, 11733.695, 0.0, 10.000364, 9.999411 
3.5501027e+2, 2.6505107e+2, -351470.2, -429823.88, 467.91025, 0.02660309, -0.029615182, -351467.4, -8970.581, 0.0, 10.000299, 9.999254 
3.550104e+2, 2.750503e+2, -284634.3, -348368.03, -8093.3164, -0.040875208, -0.030020071, -283622.63, -39118.668, 0.0, 10.000092, 9.999241 
3.5501122e+2, 2.8504953e+2, -224105.45, -304583.3, -19269.32, -0.023547446, -0.017304298, -219729.61, -73216.97, 0.0, 9.99999, 9.998919 
3.550128e+2, 2.9504877e+2, -123898.32, -207360.0, -12780.946, 0.069374554, 0.01283139, -121984.96, -73463.36, 0.0, 10.000013, 9.998901 
3.5501343e+2, 3.0504763e+2, -29962.092, -79440.26, 5195.7173, 0.025049997, -0.015043451, -29422.375, -29422.375, 0.0, 10.000075, 9.999416 
3.550143e+2, 3.1504747e+2, -12255.211, -54816.605, -37611.2, -0.0021890947, 0.021907656, 9678.331, 9678.331, 0.0, 10.000128, 9.99956 
3.649993e+2, 1.2505722e+2, -1725444.3, -1750400.3, 44536.656, -0.05576348, 0.034090057, -1691670.6, 22770.117, 0.000055122826, 10.000063, 9.9997225 
3.6499965e+2, 1.3505667e+2, -1597197.5, -1630076.4, -58685.08, 0.06280173, -0.0019832924, -1552692.8, 63753.63, 0.000023501116, 10.000229, 9.9998 
3.6499798e+2, 1.4505687e+2, -1502299.1, -1536181.3, 10191.701, -0.11836998, 0.03857311, -1499469.8, 18974.625, 0.00000526637, 10.000223, 9.99977 
3.6499983e+2, 1.550563e+2, -1438418.9, -1459119.3, 946.90155, -0.040306766, 0.005842027, -1438375.6, -17925.889, 0.00000017249042, 10.000009, 9.999729 
3.6500135e+2, 1.650559e+2, -1361323.8, -1398165.0, -1259.593, 0.013222456, 0.0053843157, -1361280.8, -38826.78, 0.0, 9.999981, 9.999488 
3.6500207e+2, 1.7505571e+2, -1239962.3, -1289604.3, 2957.8687, -0.01074853, 0.03550518, -1239786.6, -15330.098, 0.0, 10.000146, 9.999481 
3.6500293e+2, 1.8505518e+2, -1145813.9, -1203634.0, 14953.693, -0.029522443, 0.038548402, -1142175.4, -15713.4795, 0.0, 10.000162, 9.999392 
3.6500412e+2, 1.950543e+2, -1065600.1, -1114853.8, 16497.627, -0.023821412, 0.0078067933, -1060584.9, -32114.654, 0.0, 10.000042, 9.999386 
3.650052e+2, 2.0505375e+2, -952115.3, -979471.6, 3364.1333, -0.015600677, 0.0022493128, -951707.7, -21233.162, 0.0, 10.000019, 9.999655 
3.65006e+2, 2.1505356e+2, -845131.6, -878199.9, -915.2452, -0.0123171825, 0.014648382, -845106.3, -12631.271, 0.0, 10.000086, 9.999644 
3.6500686e+2, 2.2505292e+2, -755825.56, -813188.0, 1039.7988, -0.008480813, -0.00042073728, -755806.75, -21326.602, 0.0, 10.00015, 9.999387 
3.650078e+2, 2.3505186e+2, -649404.3, -712172.06, 5502.406, -0.00091914035, -0.047707845, -648925.6, -12436.019, 0.0, 10.000213, 9.999377 
3.650088e+2, 2.4505116e+2, -539026.1, -601200.7, 6936.7095, 0.015221785, -0.056608208, -538261.6, 233.8852, 0.0, 10.000268, 9.999439 
3.650099e+2, 2.5505087e+2, -433822.06, -500195.0, 822.7132, 0.037714545, -0.03391778, -433811.84, 6685.952, 0.0, 10.000319, 9.999435 
3.650105e+2, 2.650502e+2, -364339.63, -453089.06, -15224.359, 0.018103292, -0.026137136, -361800.66, -19296.357, 0.0, 10.000283, 9.999104 
3.650105e+2, 2.7504915e+2, -283085.25, -364307.7, -17236.797, -0.04102725, -0.04208073, -279578.7, -35063.496, 0.0, 10.0001745, 9.999092 
3.650113e+2, 2.850483e+2, -192549.55, -275007.63, -11864.06, -0.0243977, -0.035313454, -190876.5, -44352.043, 0.0, 10.000145, 9.999047 
3.650128e+2, 2.950477e+2, -93444.086, -179110.36, 3645.5405, 0.060359236, -0.0023253902, -93289.23, -44758.215, 0.0, 10.000163, 9.999023 
3.650135e+2, 3.0504695e+2, -36340.348, -92035.88, 18743.832, 0.026175302, 0.0045780865, -30619.838, -30619.838, 0.0, 10.0000725, 9.999332 
3.650144e+2, 3.1504613e+2, -53376.77, -91126.08, -37156.26, 0.006007679, -0.012895635, -30576.006, -30576.006, 0.0, 9.999914, 9.999415 
3.7499955e+2, 1.2505625e+2, -1719125.4, -1735931.4, 55241.953, -0.038923834, 0.014704335, -1671651.0, 42799.18, 0.00005010573, 10.000057, 9.999825 
3.750001e+2, 1.3505594e+2, -1595537.6, -1626424.4, -51202.06, 0.082162656, -0.0011548556, -1557500.6, 58952.633, 0.000020857056, 10.000228, 9.999826 
3.7499806e+2, 1.4505628e+2, -1514753.9, -1562218.9, 2158.1414, -0.13315418, 0.06078751, -1514655.9, 3794.435, 0.000004428325, 10.000223, 9.999592 
3.749996e+2, 1.550555e+2, -1450499.4, -1484207.9, -6868.722, -0.062465392, 0.024296917, -1449153.5, -28694.797, 0.00000011962439, 10.000009, 9.9995575 
3.750012e+2, 1.6505498e+2, -1351876.1, -1378486.5, 4810.2227, -0.00089709926, 0.014926559, -1351033.3, -28569.346, 0.0, 9.999981, 9.999623 
3.7500226e+2, 1.7505477e+2, -1230349.9, -1269841.0, 9561.047, -0.005901273, 0.029766647, -1228156.9, -3691.153, 0.0, 10.000146, 9.999617 
3.7500328e+2, 1.8505438e+2, -1140622.4, -1192988.9, 10170.796, -0.0128126675, 0.035471283, -1138716.3, -12246.85, 0.0, 10.000162, 9.999465 
3.7500438e+2, 1.9505376e+2, -1060931.1, -1105028.9, 12425.41, -0.0013427094, 0.025162455, -1057671.0, -29195.65, 0.0, 10.000041, 9.9994545 
3.7500525e+2, 2.0505317e+2, -960092.4, -995446.44, 5849.9766, -0.011496251, 0.016239166, -959149.5, -28669.281, 0.0, 10.000016, 9.999546 
3.7500575e+2, 2.1505259e+2, -852737.56, -893498.6, 2069.4282, -0.048816513, 0.0024915414, -852632.75, -20148.717, 0.0, 10.000084, 9.99954 
3.7500668e+2, 2.2505192e+2, -747833.6, -796283.2, 3066.8047, -0.04241013, -0.016724389, -747640.25, -13151.097, 0.0, 10.000149, 9.999504 
3.7500808e+2, 2.3505114e+2, -641316.9, -695042.75, 8032.0903, 0.009620133, -0.04783433, -640141.75, -3646.226, 0.0, 10.000211, 9.9994955 
3.7500915e+2, 2.4505053e+2, -551232.5, -626041.4, 8657.287, 0.024524111, -0.046952356, -550243.7, -11742.832, 0.0, 10.000266, 9.9992695 
3.750099e+2, 2.550501e+2, -445870.06, -525325.25, 2892.6511, 0.0016612193, -0.020288048, -445764.9, -5259.89, 0.0, 10.0003195, 9.999263 
3.7501058e+2, 2.6504925e+2, -369049.84, -462907.28, -19801.502, -0.00036749858, -0.019079689, -365043.28, -22529.531, 0.0, 10.000283, 9.999036 
3.750113e+2, 2.7504802e+2, -287048.7, -371836.8, -21130.791, 0.019413918, -0.050644916, -282074.3, -37547.27, 0.0, 10.000171, 9.9990425 
3.7501186e+2, 2.8504717e+2, -174814.34, -236878.16, -11221.464, 0.019575886, -0.050337262, -172847.77, -26312.564, 0.0, 10.000139, 9.999311 
3.7501234e+2, 2.9504684e+2, -75963.96, -142877.6, 4582.5796, -0.0042183977, -0.018297415, -75651.58, -27113.87, 0.0, 10.000164, 9.999272 
3.7501317e+2, 3.0504638e+2, -51275.094, -123487.78, 11662.479, -0.013894222, 0.020680128, -49438.305, -49438.305, 0.0, 10.000074, 9.999115 
3.7501523e+2, 3.1504476e+2, -64940.793, -113308.85, -44866.992, 0.0963751, -0.058336083, -38155.086, -38155.086, 0.0, 9.999907, 9.999266 
3.8499957e+2, 1.2505527e+2, -1682925.5, -1699216.6, 43463.35, -0.052163698, 0.013433981, -1646851.0, 67609.31, 0.00004363311, 10.000223, 9.999995 
3.8500035e+2, 1.3505499e+2, -1621183.4, -1630534.0, -62839.953, 0.09540955, -0.0067820214, -1562845.1, 53617.33, 0.000017489165, 10.000013, 9.999902 
3.8499814e+2, 1.4505547e+2, -1552213.9, -1579258.0, -2169.4966, -0.13669509, 0.0641209, -1552041.0, -33582.883, 0.0000034194288, 9.999961, 9.9996 
3.8499966e+2, 1.5505472e+2, -1451037.4, -1483033.1, 1364.0845, -0.057854928, 0.02934602, -1450979.4, -30512.793, 0.00000006772674, 9.999998, 9.99957 
3.8500124e+2, 1.6505422e+2, -1344741.8, -1366441.1, 24545.428, 0.0062797256, 0.016100803, -1328755.0, -6283.496, 0.0, 9.999992, 9.9997015 
3.8500232e+2, 1.75054e+2, -1250370.3, -1270446.0, 24360.781, -0.0063875015, 0.022757957, -1234060.4, -9587.71, 0.0, 9.999969, 9.999699 
3.8500333e+2, 1.8505365e+2, -1164280.1, -1204075.3, 17294.191, -0.013554407, 0.029191643, -1157814.8, -31339.006, 0.0, 9.999997, 9.999469 
3.8500452e+2, 1.9505313e+2, -1055795.5, -1101717.3, 14252.8955, 0.0055608107, 0.027758284, -1051731.5, -23250.396, 0.0, 10.000073, 9.999461 
3.8500538e+2, 2.0505248e+2, -952116.7, -993682.75, 10594.762, -0.004538428, 0.013635835, -949572.0, -19085.566, 0.0, 10.000081, 9.999527 
3.8500577e+2, 2.1505171e+2, -862490.3, -900158.8, 12874.551, -0.04949146, -0.018067585, -858510.44, -26018.781, 0.0, 10.000025, 9.999523 
3.8500676e+2, 2.2505103e+2, -761306.5, -809035.5, 15493.911, -0.048267554, -0.034719743, -756717.94, -22221.043, 0.0, 10.000083, 9.999448 
3.8500825e+2, 2.3505041e+2, -638288.94, -699842.0, 6779.08, 0.00021703512, -0.044154692, -637551.2, -1048.9093, 0.0, 10.000258, 9.99944 
3.8500935e+2, 2.4504977e+2, -551286.44, -626954.4, 1279.3212, 0.015327409, -0.04267486, -551264.8, -12756.862, 0.0, 10.000268, 9.999263 
3.8501003e+2, 2.5504914e+2, -475783.2, -540397.4, 7317.4893, -0.0037328019, -0.03548205, -474964.84, -34451.11, 0.0, 10.000117, 9.999257 
3.850108e+2, 2.650483e+2, -393131.6, -471445.0, -3009.181, 0.0007343024, -0.03401071, -393016.13, -50493.816, 0.0, 10.000105, 9.9990635 
3.8501155e+2, 2.7504727e+2, -277449.47, -364294.84, 2214.1707, 0.02969235, -0.045824766, -277393.03, -32859.406, 0.0, 10.000223, 9.999069 
3.8501206e+2, 2.8504643e+2, -171412.11, -234612.19, 2313.9333, 0.024818825, -0.050288934, -171327.5, -24785.436, 0.0, 10.000158, 9.999319 
3.8501224e+2, 2.9504576e+2, -110720.195, -160080.42, -2550.1665, -0.017112123, -0.048632838, -110588.79, -62041.53, 0.0, 9.999926, 9.9992695 
3.850132e+2, 3.0504566e+2, -70299.7, -139725.5, 7985.001, -0.015476413, 0.025127308, -69393.15, -69393.15, 0.0, 9.999973, 9.999052 
3.8501546e+2, 3.1504387e+2, -3601.2207, -72040.34, -39507.047, 0.112291105, -0.06734221, 14445.701, 14445.701, 0.000000000002787424, 10.000276, 9.999372 
3.9499933e+2, 1.2505427e+2, -1666495.9, -1664066.4, 36871.52, -0.09815831, 0.030113267, -1628389.6, 86081.67, 0.0000362571, 10.000219, 10.000238 
3.950004e+2, 1.3505384e+2, -1611733.3, -1611145.6, -69623.37, 0.09927258, -0.018679745, -1541815.5, 74658.51, 0.000013744367, 10.000013, 10.000035 
3.9499813e+2, 1.4505444e+2, -1539428.3, -1551858.3, -268.50546, -0.13326536, 0.049378857, -1539422.5, -20954.773, 0.0000023661473, 9.999957, 9.999791 
3.9499998e+2, 1.5505396e+2, -1437343.1, -1454697.3, 2988.9458, -0.027721204, 0.020565143, -1436842.8, -16369.402, 0.000000028035489, 9.999999, 9.999764 
3.950015e+2, 1.6505358e+2, -1343230.0, -1363521.1, 23026.393, 0.033078928, 0.009208191, -1328213.1, -5736.408, 0.0, 9.999993, 9.999722 
3.950022e+2, 1.7505339e+2, -1248956.6, -1267157.6, 23799.045, -0.013715297, 0.015033396, -1232577.5, -8100.077, 0.0, 9.999967, 9.9997225 
3.9500314e+2, 1.8505299e+2, -1168822.8, -1213056.8, 20064.256, -0.033611678, 0.019904077, -1161077.9, -34596.91, 0.0, 9.999995, 9.999408 
3.9500448e+2, 1.9505239e+2, -1060046.5, -1110128.5, 17421.68, -0.004505217, 0.01542628, -1054582.4, -26094.89, 0.0, 10.000072, 9.999405 
3.9500552e+2, 2.0505168e+2, -947090.75, -982947.3, 8277.726, 0.0036850593, -0.005248181, -945272.06, -14778.869, 0.0, 10.000079, 9.999601 
3.9500612e+2, 2.1505089e+2, -857869.1, -889988.4, 11239.77, -0.015901089, -0.0466867, -854326.6, -21828.684, 0.0, 10.000023, 9.999594 
3.95007e+2, 2.2505021e+2, -777616.6, -842388.4, 21964.998, -0.02794993, -0.05464951, -770870.56, -36367.086, 0.0, 10.000081, 9.99922 
3.9500818e+2, 2.3504964e+2, -654038.2, -732575.7, 13638.368, -0.02977336, -0.036878753, -651737.25, -15227.453, 0.0, 10.000258, 9.999216 
3.950093e+2, 2.4504888e+2, -540730.4, -604790.3, -4706.5166, -0.013316073, -0.04363937, -540386.44, -1869.6918, 0.0, 10.000267, 9.999415 
3.950104e+2, 2.5504795e+2, -465340.56, -517686.6, 1868.4713, 0.019645747, -0.07978835, -465273.97, -24749.85, 0.0, 10.000113, 9.999414 
3.9501107e+2, 2.6504734e+2, -384953.1, -453359.88, 1215.8065, 0.019221967, -0.07123205, -384931.5, -42401.4, 0.0, 10.0001, 9.999189 
3.950114e+2, 2.75047e+2, -268557.1, -346722.16, 6715.9414, -0.01206545, -0.027017832, -267984.28, -23449.375, 0.0, 10.000227, 9.999188 
3.9501187e+2, 2.8504604e+2, -189116.98, -271761.78, -6923.618, -0.010311557, -0.035225138, -188540.97, -41995.977, 0.0, 10.00016, 9.999063 
3.9501256e+2, 2.9504454e+2, -129725.61, -197194.95, -10880.385, 0.019147463, -0.09357208, -128014.4, -79454.78, 0.0, 9.999916, 9.999019 
3.950135e+2, 3.050447e+2, -65522.496, -127589.46, 19115.986, 0.019086996, 0.018073065, -60107.414, -60107.414, 0.0, 9.999964, 9.999141 
3.9501512e+2, 3.1504336e+2, 21698.383, -19534.785, -28220.758, 0.046835784, -0.036988337, 36031.117, 36031.117, 0.000000001718879, 10.0002775, 9.999731 
4.049993e+2, 1.2505373e+2, -1681160.3, -1663076.0, 73693.29, -0.11763271, 0.035290323, -1597872.1, 116604.09, 0.000028702449, 10.000086, 10.000309 
4.0500048e+2, 1.3505316e+2, -1628405.8, -1623431.3, -46797.883, 0.11191408, -0.024098272, -1579054.6, 37425.93, 0.000010028613, 9.999917, 9.999999 
4.0499803e+2, 1.4505377e+2, -1539277.6, -1544462.4, 22836.434, -0.13618259, 0.043952774, -1518886.9, -412.87088, 0.0000013962007, 9.999926, 9.999858 
4.050001e+2, 1.5505329e+2, -1425207.8, -1441012.9, 14346.608, -0.017189957, 0.008994874, -1416731.3, 3747.7175, 0.000000006286357, 10.000048, 9.999835 
4.050017e+2, 1.650529e+2, -1326505.4, -1358676.4, 25423.547, 0.047939554, -0.005941986, -1312506.0, 9976.29, 0.0, 10.000122, 9.999692 
4.0500233e+2, 1.7505266e+2, -1224135.9, -1258500.8, 21863.143, -0.0074568326, -0.0018955204, -1213511.3, 10972.086, 0.0, 10.000152, 9.999693 
4.0500316e+2, 1.8505225e+2, -1153826.9, -1210520.9, 17416.115, -0.03399112, 0.004000981, -1148904.1, -22416.988, 0.0, 10.000119, 9.999365 
4.0500453e+2, 1.9505164e+2, -1067819.9, -1118296.4, 15438.439, -0.008297364, 0.0037046578, -1063472.4, -34978.375, 0.0, 10.000037, 9.999365 
4.0500554e+2, 2.0505092e+2, -955495.1, -990684.25, 3840.0464, 0.0020536466, -0.013551451, -955081.0, -24580.951, 0.0, 10.000038, 9.999568 
4.0500626e+2, 2.1505013e+2, -845638.75, -887469.25, -1638.2104, -0.011686669, -0.053132396, -845574.7, -13069.562, 0.0, 10.000121, 9.999563 
4.0500718e+2, 2.2504947e+2, -769512.6, -835977.44, 16900.0, -0.02482442, -0.058272395, -765462.3, -30951.773, 0.0, 10.000126, 9.999242 
4.050083e+2, 2.3504896e+2, -682224.6, -743115.2, 27048.357, -0.033805296, -0.03604113, -671944.9, -35428.727, 0.0, 10.000052, 9.999242 
4.0500945e+2, 2.4504817e+2, -563305.25, -611281.1, 12551.581, -0.01767324, -0.04896686, -560219.9, -21696.697, 0.0, 10.000093, 9.9994545 
4.0501058e+2, 2.5504714e+2, -442347.1, -502136.16, 10084.0205, 0.021391045, -0.10191332, -440692.13, -160.6432, 0.0, 10.000251, 9.999455 
4.0501124e+2, 2.650466e+2, -365422.56, -437195.06, 1138.6567, 0.018148245, -0.08870294, -365404.5, -22868.031, 0.0, 10.000204, 9.999251 
4.0501136e+2, 2.750466e+2, -302377.56, -356651.94, 1017.81836, -0.024955664, -0.018091721, -302358.47, -57820.137, 0.0, 9.999967, 9.999246 
4.050118e+2, 2.8504565e+2, -221509.89, -286968.3, -4393.067, -0.020817699, -0.02833763, -221216.38, -74667.98, 0.0, 9.999936, 9.999066 
4.050126e+2, 2.9504383e+2, -103983.234, -184405.86, 10942.008, 0.026042802, -0.11894676, -102521.086, -53955.1, 0.0, 10.000091, 9.999023 
4.0501368e+2, 3.0504408e+2, -50795.51, -133173.17, 51178.168, 0.032676682, 0.008545063, -26290.166, -26290.166, 0.0, 10.00012, 9.999026 
4.050151e+2, 3.1504282e+2, 3971.833, -5035.036, -14898.71, 0.029572845, -0.02906781, 15032.86, 15032.86, 0.00000001196501, 10.000056, 9.999938 
4.149994e+2, 1.250536e+2, -1689251.1, -1678780.1, 67185.83, -0.11720159, 0.026708942, -1616626.1, 97849.43, 0.000021697306, 10.000082, 10.000203 
4.1500062e+2, 1.3505292e+2, -1642280.0, -1653783.6, -51957.188, 0.13132791, -0.024566941, -1595757.3, 20725.04, 0.000006740833, 9.999922, 9.999789 
4.1499788e+2, 1.4505342e+2, -1543945.6, -1553562.4, 28010.748, -0.14830355, 0.047199253, -1520333.5, -1856.5961, 0.0000006540361, 9.999924, 9.999796 
4.1500002e+2, 1.5505272e+2, -1429209.3, -1448845.0, 19245.361, -0.02693624, -0.004535988, -1417422.1, 3061.2603, 0.0000000002364484, 10.000046, 9.999783 
4.1500187e+2, 1.6505218e+2, -1332779.8, -1371074.5, 26064.447, 0.049713403, -0.028826144, -1319585.6, 2902.421, 0.0, 10.000119, 9.999609 
4.1500264e+2, 1.7505181e+2, -1230147.5, -1270548.9, 23247.775, 0.009978759, -0.028123045, -1219550.0, 4940.3555, 0.0, 10.00015, 9.999611 
4.1500348e+2, 1.8505138e+2, -1155618.8, -1214022.6, 14116.963, -0.017397758, -0.018518854, -1152385.5, -25890.922, 0.0, 10.000119, 9.999341 
4.1500458e+2, 1.9505085e+2, -1070026.4, -1122224.6, 12734.26, -0.006480859, -0.00702466, -1067085.4, -38584.66, 0.0, 10.000034, 9.999339 
4.150055e+2, 2.050502e+2, -965463.06, -1010868.2, 6792.3184, -0.010209261, -0.01131316, -964468.75, -33961.74, 0.0, 10.000036, 9.999431 
4.150061e+2, 2.1504939e+2, -855264.44, -906905.3, 1906.7476, -0.038302746, -0.03751412, -855194.1, -22680.842, 0.0, 10.000119, 9.999432 
4.1500714e+2, 2.2504878e+2, -750425.8, -795985.25, 13956.241, -0.04044952, -0.045598514, -746490.5, -11972.411, 0.0, 10.000125, 9.999517 
4.1500857e+2, 2.3504837e+2, -663301.06, -703280.4, 24600.867, -0.013304492, -0.041843895, -651592.3, -15070.969, 0.0, 10.000051, 9.9995165 
4.1500974e+2, 2.4504764e+2, -568500.44, -621501.7, 18189.643, 0.00052662, -0.058835328, -562858.44, -24331.12, 0.0, 10.000091, 9.999386 
4.1501066e+2, 2.5504664e+2, -447089.97, -512351.3, 16020.683, 0.00030104545, -0.10222215, -443369.28, -2833.299, 0.0, 10.000252, 9.999385 
4.150112e+2, 2.650461e+2, -366303.8, -438340.78, -8099.9155, -0.003622657, -0.086739376, -365404.28, -22862.766, 0.0, 10.000202, 9.999244 
4.1501147e+2, 2.7504602e+2, -303849.84, -357832.03, -7260.644, -0.010893635, -0.019550191, -302890.34, -58346.29, 0.0, 9.99996, 9.999241 
4.1501188e+2, 2.850452e+2, -203989.48, -249140.95, 1085.5321, -0.008736564, -0.029904876, -203963.4, -57411.066, 0.0, 9.999929, 9.99933 
4.1501245e+2, 2.9504365e+2, -84694.37, -145106.4, 16359.088, 0.0011118617, -0.12383186, -80548.92, -31982.639, 0.0, 10.000093, 9.999291 
4.150137e+2, 3.0504382e+2, -73363.18, -180338.5, 48274.723, 0.022664936, -0.0024051708, -54799.617, -54799.617, 0.0, 10.000122, 9.998701 
4.150154e+2, 3.150421e+2, 5752.415, 1573.8298, -17890.96, 0.054689165, -0.04879921, 21675.662, 21675.662, 0.000000036873733, 10.000046, 9.999987 
4.2499948e+2, 1.2505315e+2, -1739875.8, -1709867.6, 59128.16, -0.09992629, -0.00027246756, -1663869.5, 50608.527, 0.000015823704, 9.999766, 10.000141 
4.2500085e+2, 1.3505249e+2, -1625450.3, -1665770.5, -57252.113, 0.1512463, -0.031042965, -1584912.5, 31573.229, 0.0000041887733, 10.000126, 9.999609 
4.249978e+2, 1.4505298e+2, -1494460.8, -1534675.1, 21206.275, -0.16355766, 0.050432783, -1485344.5, 33136.438, 0.00000021832761, 10.000286, 9.999751 
4.250001e+2, 1.5505216e+2, -1417181.6, -1448095.3, 11702.8955, -0.03163757, -0.007950031, -1413251.0, 7237.099, 0.0, 10.000152, 9.999737 
4.2500198e+2, 1.6505152e+2, -1335701.3, -1377649.1, 23790.68, 0.051191363, -0.036336016, -1324959.3, -2465.713, 0.0, 10.000122, 9.999562 
4.2500284e+2, 1.7505111e+2, -1223041.8, -1272293.5, 22724.688, 0.009226313, -0.03759565, -1214158.8, 10338.142, 0.0, 10.000221, 9.999564 
4.2500362e+2, 1.8505068e+2, -1139116.6, -1203011.9, 11211.75, -0.018391935, -0.026490081, -1137206.4, -10705.178, 0.0, 10.00022, 9.999368 
4.2500466e+2, 1.9505022e+2, -1056185.6, -1112663.0, 13413.088, -0.005649104, -0.010121489, -1053162.0, -24655.428, 0.0, 10.000118, 9.999364 
4.2500553e+2, 2.0504962e+2, -961850.44, -1011654.0, 19529.959, -0.010990142, -0.009118118, -955105.44, -24593.033, 0.0, 10.0000725, 9.999407 
4.2500615e+2, 2.1504885e+2, -862110.94, -912558.6, 22612.574, -0.043781333, -0.030063542, -853458.94, -20940.123, 0.0, 10.000083, 9.99941 
4.250072e+2, 2.2504823e+2, -750558.4, -789705.9, 28317.36, -0.043615364, -0.040601306, -735708.25, -1184.5386, 0.0, 10.000096, 9.999574 
4.2500868e+2, 2.3504779e+2, -649740.1, -690343.56, 21831.441, -0.0075128926, -0.04540562, -640229.56, -3702.6394, 0.0, 10.000116, 9.999574 
4.2500985e+2, 2.4504714e+2, -569421.75, -620280.7, 13256.782, 0.005996302, -0.059194725, -566173.7, -27641.518, 0.0, 10.000077, 9.9994 
4.250107e+2, 2.5504628e+2, -485082.47, -529043.94, 16851.082, -0.0036078838, -0.08929025, -479366.44, -38826.934, 0.0, 9.999984, 9.999399 
4.2501128e+2, 2.6504567e+2, -394713.94, -455644.5, -7369.7676, -0.0062292833, -0.07782995, -393835.22, -51289.656, 0.0, 10.000022, 9.999212 
4.2501163e+2, 2.7504537e+2, -273403.28, -346279.9, -8505.968, -0.0014599169, -0.030751523, -272423.66, -27873.373, 0.0, 10.000181, 9.999213 
4.25012e+2, 2.8504458e+2, -164170.8, -225577.67, -6454.318, -0.0033667444, -0.03973784, -163499.73, -16941.475, 0.0, 10.000184, 9.999369 
4.2501235e+2, 2.9504323e+2, -90906.66, -143621.95, -9900.849, -0.012653617, -0.11499602, -89108.445, -40538.574, 0.0, 10.000031, 9.999332 
4.2501375e+2, 3.0504325e+2, -100895.0, -208292.27, 21631.084, 0.021537656, -0.006974448, -96701.945, -96701.945, 0.0, 9.999996, 9.9985695 
4.250156e+2, 3.1504133e+2, 26241.375, 35330.344, -30159.883, 0.06735831, -0.061960846, 61286.203, 61286.203, 0.00000007454206, 10.000081, 10.000203 
4.3499956e+2, 1.2505236e+2, -1742532.9, -1714741.9, 69788.4, -0.07149621, -0.044766583, -1657479.0, 57004.508, 0.0000113764345, 9.999764, 10.000108 
4.3500116e+2, 1.3505188e+2, -1635668.1, -1688495.6, -41892.836, 0.17051569, -0.04252144, -1612557.1, 3933.739, 0.0000025044064, 10.000131, 9.999452 
4.349979e+2, 1.4505243e+2, -1496408.9, -1538781.3, 16973.064, -0.1838591, 0.054082084, -1490448.5, 28037.64, 0.000000047491298, 10.000286, 9.999723 
4.350002e+2, 1.5505159e+2, -1419426.1, -1452464.3, 7019.8022, -0.033882968, -0.0029636624, -1417996.4, 2496.8162, 0.0, 10.00015, 9.999708 
4.3500212e+2, 1.6505095e+2, -1337633.9, -1380679.6, 27492.488, 0.049309004, -0.029925814, -1324241.6, -1742.6266, 0.0, 10.000118, 9.999543 
4.3500286e+2, 1.7505053e+2, -1224290.4, -1274504.4, 27023.893, -0.010691129, -0.02989294, -1212510.4, 11992.513, 0.0, 10.00022, 9.99955 
4.3500367e+2, 1.8505013e+2, -1134250.3, -1192277.0, 7130.4736, -0.038297333, -0.018959746, -1133386.9, -6879.9795, 0.0, 10.000217, 9.999442 
4.3500477e+2, 1.9504973e+2, -1051075.4, -1101477.5, 9896.116, -0.0075811786, -0.0050503598, -1049202.0, -20690.62, 0.0, 10.000116, 9.999442 
4.3500566e+2, 2.0504917e+2, -956021.0, -998806.1, 19932.5, -0.0018747856, -0.006981982, -948174.06, -17657.668, 0.0, 10.00007, 9.999496 
4.3500638e+2, 2.1504846e+2, -856252.5, -899799.8, 23482.635, -0.02954216, -0.030852025, -846002.3, -13480.489, 0.0, 10.000081, 9.999498 
4.350074e+2, 2.250478e+2, -762144.3, -813336.25, 28764.514, -0.03585794, -0.04293731, -749236.4, -14708.921, 0.0, 10.000094, 9.999413 
4.3500873e+2, 2.3504719e+2, -661006.4, -713755.6, 22730.156, -0.01760992, -0.047210235, -652563.2, -16030.178, 0.0, 10.000116, 9.9994135 
4.3500987e+2, 2.4504662e+2, -562875.56, -606115.0, 9578.502, -0.0023180274, -0.05078248, -560848.75, -22310.896, 0.0, 10.000075, 9.999498 
4.350108e+2, 2.55046e+2, -478484.9, -514782.53, 13747.1045, 0.007850883, -0.063244395, -473866.16, -33323.953, 0.0, 9.999982, 9.999498 
4.3501148e+2, 2.6504534e+2, -398891.56, -463688.28, -1667.4159, 0.008502237, -0.06213607, -398848.66, -56299.93, 0.0, 10.000019, 9.999158 
4.3501183e+2, 2.7504465e+2, -276859.53, -353526.25, -2720.455, 0.001685307, -0.05108836, -276763.1, -32206.053, 0.0, 10.000181, 9.999164 
4.3501213e+2, 2.8504378e+2, -177676.28, -252316.05, -12463.271, -0.006508003, -0.0575694, -175650.19, -29083.969, 0.0, 10.000179, 9.999187 
4.3501237e+2, 2.9504263e+2, -104379.61, -170343.88, -15167.39, -0.017879954, -0.092986435, -101059.25, -52482.387, 0.0, 10.000027, 9.99915 
4.350138e+2, 3.0504236e+2, -96891.24, -199091.58, 24173.678, 0.026705014, -0.005666271, -91461.83, -91461.83, 0.0, 9.999992, 9.998635 
4.3501565e+2, 3.1504035e+2, 53736.836, 92646.92, -24589.664, 0.063246675, -0.076276384, 104547.11, 104547.11, 0.0000001100893, 10.00008, 10.000598 
4.4499958e+2, 1.2505183e+2, -1658490.9, -1674316.1, 48973.074, -0.07262844, -0.043191794, -1616795.3, 97693.234, 0.000008277144, 10.000344, 10.000105 
4.450014e+2, 1.3505109e+2, -1659130.1, -1712912.5, -54395.285, 0.18628709, -0.052671604, -1625342.0, -8843.732, 0.0000015575915, 10.000025, 9.999336 
4.4499794e+2, 1.4505158e+2, -1534679.8, -1551754.9, 9647.606, -0.19463527, 0.04041483, -1530334.5, -11840.399, 0.000000013935479, 10.0, 9.999772 
4.4500044e+2, 1.5505092e+2, -1412470.3, -1443472.9, 2656.7673, -0.029596575, -0.004533067, -1412244.3, 8255.264, 0.0, 10.0001745, 9.999758 
4.450023e+2, 1.6505033e+2, -1333623.0, -1382183.3, 23871.986, 0.055609375, -0.026216635, -1323853.3, -1348.467, 0.0, 10.000161, 9.999512 
4.450029e+2, 1.7504987e+2, -1261804.1, -1295842.3, 22698.715, -0.017766584, -0.027623618, -1250452.8, -25943.244, 0.0, 9.999978, 9.99952 
4.4500366e+2, 1.8504949e+2, -1157697.3, -1192350.8, 7987.744, -0.0485375, -0.01786188, -1155944.6, -29431.326, 0.0, 10.000009, 9.999542 
4.450049e+2, 1.950492e+2, -1024752.25, -1077548.5, 11833.382, -0.010562376, -0.004985496, -1022221.3, 6295.339, 0.0, 10.000249, 9.999542 
4.4500592e+2, 2.0504871e+2, -919227.1, -972706.0, 17135.498, 0.003852884, -0.008712708, -914207.7, 16312.868, 0.0, 10.000286, 9.999571 
4.450066e+2, 2.1504804e+2, -844944.3, -886075.1, 19235.924, -0.014104629, -0.034655668, -837350.25, -4825.195, 0.0, 10.000123, 9.999572 
4.450076e+2, 2.2504734e+2, -770472.25, -828311.56, 31523.014, -0.0223567, -0.04944037, -756612.8, -22081.742, 0.0, 10.000086, 9.999314 
4.4500884e+2, 2.3504658e+2, -659874.5, -724299.75, 29673.51, -0.018003052, -0.05848387, -648290.25, -11751.629, 0.0, 10.000172, 9.999314 
4.4500995e+2, 2.4504599e+2, -545363.56, -596305.56, 11283.134, -0.008006894, -0.058233097, -542976.4, -4432.565, 0.0, 10.000189, 9.999512 
4.4501087e+2, 2.5504553e+2, -454625.2, -501193.9, 8673.708, 0.005585015, -0.057015445, -453062.13, -12515.266, 0.0, 10.000136, 9.9995165 
4.450115e+2, 2.650449e+2, -389518.38, -456147.03, -1720.9838, 0.008059934, -0.058838286, -389473.94, -46920.723, 0.0, 10.000071, 9.999186 
4.4501194e+2, 2.75044e+2, -302711.63, -363448.88, 2420.8665, 0.0016917217, -0.06639399, -302615.28, -58052.703, 0.0, 9.999993, 9.9991865 
4.4501224e+2, 2.8504315e+2, -202188.25, -270609.2, -1013.7621, -0.006527071, -0.06991065, -202173.23, -55601.67, 0.0, 10.000037, 9.99913 
4.4501245e+2, 2.950422e+2, -85195.86, -166650.73, 4920.8926, -0.016778098, -0.08272204, -84899.66, -36318.67, 0.0, 10.000182, 9.999102 
4.4501394e+2, 3.0504152e+2, -75252.125, -201485.58, 43964.625, 0.03299797, -0.02601292, -61449.35, -61449.35, 0.00000000000009396187, 10.000195, 9.998522 
4.4501555e+2, 3.1503963e+2, 61791.516, 108980.54, -18801.42, 0.045982465, -0.07168175, 115555.46, 115555.46, 0.00000013361628, 10.000082, 10.000709 
4.5499957e+2, 1.2505147e+2, -1655375.9, -1667967.1, 31296.354, -0.10947739, 0.0018252109, -1629748.3, 84745.11, 0.0000061456926, 10.000345, 10.000148 
4.5500156e+2, 1.350501e+2, -1663355.5, -1721687.5, -64293.4, 0.19757889, -0.06392373, -1621922.0, -5413.811, 0.0000010596042, 10.000023, 9.999277 
4.549979e+2, 1.4505042e+2, -1527355.5, -1535671.9, 17908.395, -0.19830026, 0.007879686, -1513128.9, 5376.4697, 0.000000007555667, 9.999995, 9.999885 
4.5500067e+2, 1.5505013e+2, -1404245.0, -1426689.6, 9856.269, -0.021451002, -0.010893433, -1400531.3, 19975.709, 0.0, 10.000175, 9.999872 
4.550026e+2, 1.6504969e+2, -1335730.1, -1386894.6, 16545.508, 0.06767084, -0.022999195, -1330845.9, -8334.984, 0.0, 10.000162, 9.999478 
4.5500293e+2, 1.750491e+2, -1264412.9, -1300870.9, 16464.555, -0.012686029, -0.031166332, -1258078.1, -33561.164, 0.0, 9.999976, 9.999486 
4.5500365e+2, 1.8504876e+2, -1150077.0, -1175226.9, 17327.03, -0.05062178, -0.02451395, -1141242.8, -14722.08, 0.0, 10.000003, 9.999661 
4.550051e+2, 1.9504857e+2, -1016631.25, -1060078.5, 21237.783, -0.016470624, -0.010590377, -1007974.6, 20547.81, 0.0, 10.000246, 9.999662 
4.550062e+2, 2.0504819e+2, -915435.7, -964071.5, 10664.721, 0.0041734846, -0.014316183, -913199.94, 17325.133, 0.0, 10.000283, 9.999632 
4.5500693e+2, 2.1504758e+2, -840634.25, -877012.0, 13432.062, 0.0014881854, -0.041154962, -836212.2, -3683.6663, 0.0, 10.000123, 9.999634 
4.5500788e+2, 2.2504683e+2, -773617.5, -834609.3, 34565.285, -0.0039558797, -0.060345225, -758018.3, -23483.58, 0.0, 10.000085, 9.999271 
4.5500913e+2, 2.3504594e+2, -662748.4, -730329.94, 33050.227, -0.009480746, -0.079165675, -649272.5, -12728.741, 0.0, 10.000172, 9.999272 
4.5501012e+2, 2.4504529e+2, -550728.0, -606963.44, 8928.976, -0.012249999, -0.08075843, -549344.3, -10794.224, 0.0, 10.000187, 9.999439 
4.550108e+2, 2.5504485e+2, -459701.22, -510764.47, 6636.272, -0.012073513, -0.07108948, -458852.84, -18299.275, 0.0, 10.000133, 9.999453 
4.5501143e+2, 2.6504424e+2, -382506.25, -440900.6, -4852.0977, -0.008480122, -0.068524994, -382105.84, -39546.617, 0.0, 10.000068, 9.999291 
4.5501187e+2, 2.750435e+2, -295270.4, -348701.84, 144.04854, -0.00355814, -0.07769424, -295270.03, -50703.004, 0.0, 9.999995, 9.999287 
4.550123e+2, 2.8504273e+2, -198164.81, -261549.9, 3996.0186, -0.0059698136, -0.07768718, -197913.89, -51339.395, 0.0, 10.000035, 9.999193 
4.550127e+2, 2.9504186e+2, -79914.82, -154484.28, 9783.487, -0.011630855, -0.08388335, -78652.6, -30070.293, 0.0, 10.000176, 9.999187 
4.5501423e+2, 3.0504075e+2, -97563.21, -245657.38, 39451.086, 0.038820848, -0.067428224, -87709.41, -87709.41, 0.00000000000087855477, 10.000186, 9.998222 
4.550153e+2, 3.150391e+2, 49703.93, 84360.16, -19827.158, 0.0109165115, -0.058862824, 93364.15, 93364.15, 0.00000014519496, 10.000081, 10.00054 
4.649995e+2, 1.250508e+2, -1753909.3, -1687178.9, 29673.64, -0.10869774, 0.014628749, -1675892.5, 38608.293, 0.000004581255, 9.99955, 10.000397 
4.650018e+2, 1.3504955e+2, -1641829.9, -1694900.8, -43422.902, 0.21785147, -0.05744251, -1617476.5, -963.06726, 0.0000007444035, 10.000099, 9.999425 
4.6499792e+2, 1.4504978e+2, -1494974.5, -1528131.3, 33273.863, -0.2066854, 0.0034351605, -1474377.8, 44133.195, 0.0000000034677494, 10.000253, 9.999812 
4.650007e+2, 1.5504944e+2, -1443321.9, -1453183.5, 10224.697, -0.025052475, -0.013412492, -1436901.1, -16387.586, 0.0, 9.999941, 9.999804 
4.6500266e+2, 1.6504899e+2, -1371141.0, -1398956.1, 16948.629, 0.07226516, -0.024659524, -1363124.3, -40606.543, 0.0, 9.999898, 9.999523 
4.650031e+2, 1.7504844e+2, -1240051.4, -1284101.5, 22123.994, 0.0017401435, -0.033103943, -1230858.3, -6335.353, 0.0, 10.000121, 9.999532 
4.6500388e+2, 1.8504806e+2, -1130450.1, -1172424.0, 21226.006, -0.037225198, -0.028176513, -1121587.5, 4939.3813, 0.0, 10.000166, 9.999603 
4.6500525e+2, 1.9504781e+2, -1050119.1, -1082725.5, 12159.3545, -0.014717516, -0.016627753, -1046084.06, -17554.355, 0.0, 10.000044, 9.999605 
4.6500638e+2, 2.0504741e+2, -935893.1, -966606.6, -5210.5264, -0.000019979085, -0.022607056, -935033.25, -4500.762, 0.0, 10.000111, 9.999698 
4.6500707e+2, 2.1504684e+2, -802399.8, -851498.9, -3164.8577, -0.00489592, -0.051556773, -802196.6, 30338.586, 0.0, 10.000354, 9.999698 
4.6500808e+2, 2.2504617e+2, -724389.0, -804083.44, 19444.777, -0.0076185134, -0.06976533, -719897.75, 14642.855, 0.0, 10.000393, 9.999332 
4.6500936e+2, 2.3504537e+2, -650045.4, -716904.8, 25441.041, -0.0051445924, -0.08409262, -641465.6, -4917.0977, 0.0, 10.000228, 9.999337 
4.6501032e+2, 2.4504477e+2, -561402.2, -617878.94, 6685.6333, -0.0061334865, -0.08098775, -560621.56, -22066.92, 0.0, 10.000139, 9.999387 
4.6501094e+2, 2.5504434e+2, -464456.13, -519587.25, 4859.332, -0.010383308, -0.06721262, -464031.1, -23472.283, 0.0, 10.000128, 9.999394 
4.6501148e+2, 2.6504368e+2, -367700.84, -427048.06, -7312.564, -0.010452179, -0.069820754, -366813.1, -24248.129, 0.0, 10.00014, 9.999352 
4.650119e+2, 2.7504283e+2, -265175.3, -327124.9, -6376.4287, -0.008450221, -0.0922312, -264525.8, -19952.863, 0.0, 10.000173, 9.99935 
4.6501237e+2, 2.8504217e+2, -171213.23, -244978.89, -466.5388, -0.010093559, -0.084794044, -171210.28, -24631.35, 0.0, 10.000205, 9.999226 
4.650129e+2, 2.9504165e+2, -70838.555, -145420.02, 1424.603, -0.010292119, -0.064361274, -70811.35, -22227.541, 0.0, 10.000219, 9.999229 
4.6501446e+2, 3.0504003e+2, -96852.84, -248115.69, 35379.555, 0.047133915, -0.0948398, -88986.81, -88986.81, 0.00000000000042122027, 10.000202, 9.9981985 
4.6501532e+2, 3.150386e+2, 58935.938, 86215.72, -915.1468, 0.000035173976, -0.063197754, 86246.38, 86246.38, 0.00000014428599, 10.0001545, 10.000518 
4.749994e+2, 1.2504981e+2, -1723998.5, -1624144.3, 40793.35, -0.077980675, -0.005693755, -1609598.0, 104913.0, 0.0000033199578, 9.999545, 10.000833 
4.7500217e+2, 1.3504939e+2, -1617577.4, -1645849.8, -20954.307, 0.24334332, -0.029644953, -1606436.8, 10077.162, 0.00000048107097, 10.000102, 9.999761 
4.7499803e+2, 1.4504966e+2, -1511183.6, -1562767.4, 22131.613, -0.22431716, 0.031182388, -1502989.8, 15521.033, 0.000000000765976, 10.0002575, 9.999573 
4.750005e+2, 1.550488e+2, -1460529.4, -1487916.4, -865.8383, -0.040727448, -0.013453995, -1460502.1, -39982.395, 0.0, 9.999937, 9.999567 
4.7500253e+2, 1.650482e+2, -1363482.8, -1382366.0, 25701.104, 0.06848585, -0.03259158, -1345543.9, -23018.607, 0.0, 9.999895, 9.999639 
4.7500345e+2, 1.7504789e+2, -1231768.9, -1267135.8, 31056.828, 0.021903727, -0.033233505, -1213713.9, 10813.738, 0.0, 10.000122, 9.999647 
4.7500432e+2, 1.8504743e+2, -1146266.6, -1205225.4, 16341.909, -0.012456005, -0.027498374, -1142040.0, -15507.983, 0.0, 10.000166, 9.999378 
4.750054e+2, 1.950469e+2, -1065836.9, -1115508.1, 8138.8994, -0.0053394404, -0.022860268, -1064537.4, -35998.824, 0.0, 10.000044, 9.99938 
4.7500637e+2, 2.0504636e+2, -932407.94, -958140.5, 3948.8179, -0.009412757, -0.033957906, -931815.56, -1272.6571, 0.0, 10.000106, 9.999759 
4.7500715e+2, 2.1504582e+2, -798169.06, -842546.06, 6168.744, -0.034668006, -0.06628473, -797327.5, 35217.74, 0.0, 10.000354, 9.99976 
4.7500822e+2, 2.2504534e+2, -713209.1, -780269.5, 12791.935, -0.03514071, -0.077717744, -710851.9, 23696.813, 0.0, 10.00039, 9.999497 
4.750096e+2, 2.350449e+2, -638276.5, -691942.06, 19488.691, -0.0064421166, -0.07419933, -631945.94, 4607.135, 0.0, 10.000226, 9.99951 
4.750106e+2, 2.4504447e+2, -564635.5, -624379.2, 5907.6157, 0.008844103, -0.060244948, -564056.94, -25499.33, 0.0, 10.000138, 9.999343 
4.750113e+2, 2.5504398e+2, -467520.0, -526680.25, 4546.5894, 0.009189484, -0.04511722, -467172.63, -26609.998, 0.0, 10.000131, 9.999345 
4.7501174e+2, 2.6504317e+2, -367198.06, -425793.72, -6457.0103, 0.00086593925, -0.061617367, -366494.97, -23924.512, 0.0, 10.000139, 9.999361 
4.7501203e+2, 2.750421e+2, -264702.2, -324521.06, -5144.2715, -0.014764219, -0.10970423, -264263.0, -19682.598, 0.0, 10.000166, 9.999371 
4.7501248e+2, 2.8504157e+2, -171723.16, -244915.25, -7.381675, -0.020049896, -0.091361456, -171723.16, -25138.107, 0.0, 10.000199, 9.999229 
4.7501308e+2, 2.9504147e+2, -69535.234, -143594.25, 2371.3318, -0.015960561, -0.025927195, -69459.38, -20873.676, 0.0, 10.000222, 9.999241 
4.7501478e+2, 3.0503947e+2, -80451.96, -212937.61, 32746.92, 0.0548149, -0.110263266, -72799.77, -72799.77, 0.0, 10.000198, 9.998442 
4.7501552e+2, 3.1503808e+2, 67846.83, 106914.625, 3200.3994, 0.007857018, -0.09337031, 107175.06, 107175.06, 0.00000012581201, 10.000146, 10.000664 
4.8499933e+2, 1.250489e+2, -1650523.9, -1582891.9, 48170.066, -0.061352678, -0.03584955, -1557853.1, 156665.78, 0.0000022837717, 10.000028, 10.000882 
4.8500228e+2, 1.3504878e+2, -1661080.9, -1669654.6, -29429.908, 0.26224446, -0.026321592, -1635627.3, -19108.299, 0.0000002759338, 9.999815, 9.999737 
4.84998e+2, 1.4504898e+2, -1562392.4, -1592544.1, 1381.5872, -0.23518512, 0.029674347, -1562329.3, -43812.39, 0.000000000009128432, 9.999928, 9.999527 
4.8500058e+2, 1.5504794e+2, -1423938.4, -1475658.3, -9820.787, -0.037974123, -0.027342929, -1422136.4, -1608.8921, 0.0, 10.00021, 9.99952 
4.8500267e+2, 1.6504732e+2, -1311481.5, -1361439.0, 21648.48, 0.074597105, -0.045674313, -1303405.9, 19127.783, 0.0, 10.000269, 9.999603 
4.8500356e+2, 1.750471e+2, -1229142.1, -1269677.8, 15506.743, 0.021236882, -0.031427152, -1223890.4, 644.6692, 0.0, 10.000156, 9.999614 
4.8500448e+2, 1.8504667e+2, -1142212.6, -1205634.1, 2593.4429, -0.012310282, -0.022959271, -1142106.8, -15567.276, 0.0, 10.000202, 9.999358 
4.8500568e+2, 1.9504602e+2, -1017521.2, -1094291.5, 9228.5625, 0.0009234291, -0.026333107, -1016427.4, 12119.44, 0.0, 10.000384, 9.999362 
4.8500666e+2, 2.0504545e+2, -894376.94, -938915.4, 10910.985, -0.005722617, -0.040218864, -891847.6, 38704.035, 0.0, 10.000361, 9.999767 
4.8500732e+2, 2.1504493e+2, -828483.06, -855759.8, 9371.608, -0.04147089, -0.07005442, -825573.56, 6980.346, 0.0, 10.000139, 9.999773 
4.8500833e+2, 2.2504458e+2, -753999.2, -787387.75, 9965.114, -0.044083107, -0.07641041, -751251.2, -16694.943, 0.0, 10.000056, 9.999609 
4.8500967e+2, 2.3504432e+2, -647535.2, -684365.5, 11204.934, -0.011139453, -0.06577464, -644394.2, -7835.533, 0.0, 10.00011, 9.999618 
4.850107e+2, 2.450439e+2, -560039.6, -621083.5, 570.2069, 0.0059656156, -0.055059567, -560034.3, -21471.426, 0.0, 10.000164, 9.999353 
4.850114e+2, 2.550433e+2, -453909.94, -518485.8, 2920.6892, 0.0056308983, -0.05350303, -453778.1, -13208.948, 0.0, 10.000217, 9.999359 
4.850119e+2, 2.6504254e+2, -354399.3, -414187.4, -5782.693, 0.00045511406, -0.069421455, -353845.13, -11268.567, 0.0, 10.000205, 9.999409 
4.850122e+2, 2.7504164e+2, -268968.28, -321792.75, -1895.0201, -0.007912888, -0.103635795, -268900.38, -24315.748, 0.0, 10.000115, 9.9994135 
4.8501265e+2, 2.8504112e+2, -184618.2, -261242.69, 5746.0044, -0.017913405, -0.08069802, -184189.7, -37600.6, 0.0, 10.0001545, 9.999139 
4.8501322e+2, 2.9504094e+2, -60531.938, -148165.5, -244.37103, -0.030175295, -0.01810914, -60531.254, -11940.075, 0.0, 10.000322, 9.999162 
4.8501492e+2, 3.050386e+2, -55909.176, -179813.86, 15683.797, 0.048998483, -0.13948327, -53954.758, -53954.758, 0.0, 10.000274, 9.998633 
4.8501566e+2, 3.1503785e+2, 41496.086, 90948.266, -13963.177, 0.0125770485, -0.07926706, 94618.48, 94618.48, 0.00000009052117, 9.999978, 10.000635 
4.949993e+2, 1.2504806e+2, -1674591.9, -1631656.3, 26383.305, -0.06953168, -0.074957676, -1619110.1, 95414.49, 0.0000015131136, 10.000023, 10.000549 
4.9500224e+2, 1.350477e+2, -1688000.1, -1725068.8, -35070.05, 0.27359244, -0.049395047, -1666868.0, -50339.055, 0.00000014199817, 9.999812, 9.999358 
4.949979e+2, 1.4504768e+2, -1552825.5, -1572317.5, 13564.572, -0.24095997, -0.0020501132, -1545868.8, -27339.457, 0.0, 9.999926, 9.999668 
4.95001e+2, 1.5504688e+2, -1414149.6, -1455586.1, 810.81476, -0.02129466, -0.052547857, -1414133.8, 6403.1914, 0.0, 10.000211, 9.999657 
4.9500304e+2, 1.6504632e+2, -1323327.5, -1387088.0, 16363.222, 0.08531511, -0.059821475, -1319373.4, 3169.1348, 0.0, 10.000273, 9.999425 
4.9500352e+2, 1.7504612e+2, -1241433.5, -1295437.3, 11894.236, -0.00051859615, -0.027872598, -1238929.9, -14384.496, 0.0, 10.000157, 9.999437 
4.9500442e+2, 1.8504573e+2, -1129860.9, -1179049.1, 9657.446, -0.037537083, -0.014820266, -1128032.6, -1483.1785, 0.0, 10.000198, 9.999542 
4.9500608e+2, 1.9504517e+2, -1004409.2, -1067321.8, 16357.125, 0.0019413016, -0.027741639, -1000410.56, 28144.379, 0.0, 10.000385, 9.999547 
4.9500713e+2, 2.0504466e+2, -897151.3, -944091.7, 2103.567, 0.008252272, -0.041794155, -897057.2, 33501.58, 0.0, 10.00036, 9.999734 
4.950076e+2, 2.1504422e+2, -830765.75, -860416.1, 1580.7197, -0.026330642, -0.06371019, -830681.7, 1879.4102, 0.0, 10.000138, 9.999742 
4.9500844e+2, 2.2504386e+2, -751322.3, -781116.6, 11730.237, -0.036550622, -0.06728983, -747258.4, -12695.089, 0.0, 10.000052, 9.999654 
4.950097e+2, 2.3504366e+2, -644466.25, -678438.44, 13351.971, -0.019729538, -0.057940822, -639846.75, -3281.5535, 0.0, 10.000112, 9.999658 
4.9501067e+2, 2.4504313e+2, -555879.9, -612102.75, 2196.0313, -0.015228908, -0.064001024, -555794.25, -17223.973, 0.0, 10.000163, 9.999415 
4.9501136e+2, 2.5504228e+2, -449357.16, -508209.03, 5148.2505, -0.022744136, -0.092728645, -448910.2, -8331.728, 0.0, 10.000214, 9.999431 
4.9501196e+2, 2.650417e+2, -348657.44, -401886.94, -9375.628, -0.013824964, -0.09465505, -347054.34, -4470.76, 0.0, 10.000203, 9.999495 
4.9501252e+2, 2.7504143e+2, -263311.13, -310360.2, -4945.3096, 0.009894974, -0.074847616, -262796.94, -18211.23, 0.0, 10.000117, 9.999492 
4.9501294e+2, 2.850409e+2, -198645.28, -289953.38, 11617.453, -0.005038695, -0.052563895, -197190.34, -50599.223, 0.0, 10.000153, 9.998942 
4.950133e+2, 2.9503998e+2, -73027.98, -172900.5, 6496.033, -0.05415058, -0.03956705, -72607.23, -24007.04, 0.0, 10.000318, 9.998994 
4.9501503e+2, 3.0503744e+2, -47338.063, -160220.11, 4625.736, 0.02869901, -0.18181175, -47148.824, -47148.824, 0.0, 10.000267, 9.998771 
4.950156e+2, 3.1503776e+2, 28555.64, 65295.3, -18514.533, 0.00803165, -0.02865076, 73006.85, 73006.85, 0.000000050936965, 9.999974, 10.000461 
5.049991e+2, 1.2504745e+2, -1725501.1, -1672753.0, 2703.091, -0.0780597, -0.06924029, -1672614.9, 41915.086, 0.0000009949754, 9.999747, 10.000399 
5.050023e+2, 1.3504677e+2, -1636022.3, -1720153.1, -28805.473, 0.278862, -0.057181016, -1627104.8, -10566.838, 0.000000065122016, 10.000254, 9.99918 
5.0499797e+2, 1.4504652e+2, -1482151.6, -1535974.3, 18126.434, -0.24926712, -0.024807906, -1476616.3, 41924.42, 0.0, 10.000401, 9.999688 
5.0500125e+2, 1.5504594e+2, -1423936.8, -1458071.5, -6268.82, -0.012822803, -0.05356346, -1422821.9, -2276.0955, 0.0, 10.0001335, 9.999678 
5.0500333e+2, 1.6504548e+2, -1348054.6, -1400268.4, 13140.995, 0.09413873, -0.053657554, -1344933.9, -22383.29, 0.0, 10.000108, 9.999414 
5.050037e+2, 1.7504519e+2, -1222893.8, -1287753.3, 20645.188, -0.006913656, -0.02814764, -1216879.9, 7674.5693, 0.0, 10.000289, 9.999427 
5.050046e+2, 1.8504483e+2, -1110432.1, -1161318.4, 20913.79, -0.04532311, -0.016857857, -1102939.9, 23618.46, 0.0, 10.000295, 9.999619 
5.050064e+2, 1.9504438e+2, -1032802.5, -1072425.0, 19020.309, 0.0051985006, -0.025453536, -1025150.0, 3412.3376, 0.0, 10.000153, 9.999624 
5.050075e+2, 2.0504396e+2, -934033.8, -961432.06, -1769.9185, 0.017597476, -0.03578259, -933919.94, -3354.5422, 0.0, 10.000103, 9.999738 
5.0500786e+2, 2.1504353e+2, -831082.7, -859897.56, -471.705, -0.017399844, -0.05559396, -831074.94, 1492.6031, 0.0, 10.000133, 9.999747 
5.050086e+2, 2.2504312e+2, -740567.25, -778315.3, 13606.873, -0.031578083, -0.065351635, -736173.8, -1603.4153, 0.0, 10.000136, 9.999634 
5.050098e+2, 2.3504274e+2, -646259.75, -681433.9, 10203.447, -0.022239264, -0.07023052, -643514.2, -6940.3667, 0.0, 10.000109, 9.999639 
5.050107e+2, 2.4504222e+2, -560677.8, -601273.1, -1070.0428, -0.022182344, -0.079285406, -560649.6, -22071.19, 0.0, 10.000073, 9.999533 
5.050114e+2, 2.5504157e+2, -467377.97, -504171.78, 5396.5996, -0.031654987, -0.10042111, -466602.78, -26018.39, 0.0, 10.000035, 9.999545 
5.050121e+2, 2.650411e+2, -361753.25, -414253.13, -9825.336, -0.018705405, -0.09860982, -359974.72, -17385.828, 0.0, 10.000139, 9.99944 
5.050128e+2, 2.7504075e+2, -228370.4, -299965.47, -17245.967, 0.014309723, -0.08036845, -224432.73, 20159.39, 0.0, 10.000385, 9.9994335 
5.050132e+2, 2.8504014e+2, -164503.16, -273854.3, -2698.846, -0.0024677045, -0.058660585, -164436.58, -17838.662, 0.0, 10.000389, 9.9989395 
5.050134e+2, 2.9503927e+2, -99609.67, -184913.22, 6115.5054, -0.062642254, -0.041152656, -99173.48, -50567.297, 0.0, 10.000132, 9.999001 
5.050152e+2, 3.050367e+2, -55396.37, -148165.3, 12836.729, 0.02530641, -0.19977224, -53652.88, -53652.88, 0.0, 10.000143, 9.998913 
5.050158e+2, 3.1503716e+2, 77840.2, 63923.754, -6177.6514, 0.010297775, -0.039242, 80186.83, 80186.83, 0.000000020855737, 10.000422, 10.000236 
5.149987e+2, 1.2504701e+2, -1724608.3, -1669651.8, 4345.33, -0.09467194, -0.021004623, -1669310.4, 45224.844, 0.00000067894854, 9.999742, 10.000423 
5.150025e+2, 1.3504602e+2, -1634099.8, -1716582.6, -8642.881, 0.27367035, -0.04589136, -1633203.9, -16658.04, 0.000000029496794, 10.000255, 9.999205 
5.149982e+2, 1.4504553e+2, -1488837.8, -1551015.5, 7899.9, -0.26698187, -0.03351006, -1487849.8, 30701.127, 0.0, 10.000404, 9.999583 
5.1500136e+2, 1.5504517e+2, -1430614.1, -1472235.3, -15893.841, -0.014430182, -0.030994676, -1425239.0, -4684.801, 0.0, 10.000135, 9.99958 
5.150035e+2, 1.6504477e+2, -1336874.9, -1376788.5, 19648.777, 0.10002521, -0.027518554, -1328825.4, -6267.508, 0.0, 10.000107, 9.999577 
5.1500404e+2, 1.7504433e+2, -1211344.8, -1264203.1, 27523.502, -0.0006674242, -0.0325389, -1199615.8, 24946.525, 0.0, 10.000291, 9.999588 
5.1500493e+2, 1.8504396e+2, -1112437.9, -1165872.1, 14957.956, -0.039935905, -0.02819426, -1108535.6, 18030.49, 0.0, 10.000297, 9.999587 
5.150066e+2, 1.9504367e+2, -1034938.8, -1077102.9, 14089.525, 0.009843959, -0.019720344, -1030664.06, -2094.8562, 0.0, 10.000154, 9.999593 
5.150076e+2, 2.050433e+2, -932034.25, -955918.6, -859.6489, 0.0208474, -0.02300456, -932003.4, -1431.7946, 0.0, 10.000097, 9.999779 
5.15008e+2, 2.1504289e+2, -828199.44, -854230.5, 861.87494, -0.015718829, -0.045546092, -828170.9, 4402.3774, 0.0, 10.0001335, 9.999786 
5.1500875e+2, 2.2504231e+2, -746450.6, -790226.2, 12243.625, -0.03069994, -0.07057976, -743258.9, -8681.234, 0.0, 10.000134, 9.999553 
5.1500994e+2, 2.3504156e+2, -651706.44, -692765.56, 9600.496, -0.020115135, -0.1036766, -649572.56, -12987.94, 0.0, 10.000108, 9.999561 
5.150109e+2, 2.4504119e+2, -549445.9, -577442.9, -3022.4172, -0.017459072, -0.103198364, -549123.3, -10535.613, 0.0, 10.0000725, 9.999698 
5.1501155e+2, 2.550412e+2, -456223.16, -480792.72, 4083.0972, -0.022381637, -0.076483086, -455562.38, -14975.443, 0.0, 10.000034, 9.999706 
5.1501226e+2, 2.650406e+2, -376165.16, -444145.3, -659.86414, -0.014502605, -0.08023299, -376158.75, -33566.38, 0.0, 10.000139, 9.999235 
5.150131e+2, 2.750395e+2, -242274.34, -328800.6, -7553.6353, 0.004262598, -0.11942989, -241619.86, 2984.031, 0.0, 10.000384, 9.999236 
5.150136e+2, 2.850389e+2, -152335.05, -247146.92, -12537.415, -0.012439308, -0.09895057, -150705.19, -4095.5671, 0.0, 10.000383, 9.999125 
5.1501364e+2, 2.950388e+2, -87635.56, -157840.08, -3024.0012, -0.0597431, -0.024343863, -87505.55, -38896.15, 0.0, 10.000124, 9.999189 
5.150154e+2, 3.050362e+2, -46405.117, -128575.51, 22562.506, 0.03602869, -0.19511959, -40617.504, -40617.504, 0.0, 10.000138, 9.999051 
5.150163e+2, 3.1503606e+2, 59923.09, 26658.918, 11234.184, 0.017381553, -0.11079946, 63361.707, 63361.707, 0.0000000053166334, 10.000422, 9.99998 
5.249985e+2, 1.2504604e+2, -1703529.0, -1647864.0, -9596.495, -0.09469676, -0.013317137, -1646256.1, 68289.43, 0.0000005002885, 9.99984, 10.000524 
5.250027e+2, 1.3504526e+2, -1660115.6, -1716220.6, 345.81735, 0.28390178, -0.028681176, -1660113.5, -43560.074, 0.000000016983103, 10.00002, 9.999321 
5.249985e+2, 1.4504468e+2, -1512222.4, -1565741.9, 9083.376, -0.27256513, -0.0304954, -1510722.8, 7836.4893, 0.0, 10.000259, 9.999552 
5.250015e+2, 1.5504432e+2, -1392384.8, -1457237.9, -11307.429, -0.02421182, -0.02483472, -1390469.8, 30093.012, 0.0, 10.000412, 9.999549 
5.250037e+2, 1.6504389e+2, -1299869.9, -1352466.3, 23852.988, 0.095155135, -0.024757916, -1290663.6, 31902.898, 0.0, 10.000333, 9.999635 
5.250043e+2, 1.7504343e+2, -1240448.4, -1272035.1, 22677.84, 0.0109687755, -0.038777996, -1228606.4, -4035.5828, 0.0, 10.000064, 9.999644 
5.250052e+2, 1.8504305e+2, -1152341.4, -1181038.5, 10589.843, -0.026737282, -0.039613366, -1148856.8, -22282.385, 0.0, 10.000005, 9.999624 
5.2500665e+2, 1.9504277e+2, -1035272.94, -1072857.5, 14112.039, 0.0071882415, -0.03224967, -1030564.2, -1987.281, 0.0, 10.000133, 9.999631 
5.2500767e+2, 2.0504239e+2, -911115.4, -951077.9, 2920.601, 0.012428004, -0.037523672, -910903.06, 19676.457, 0.0, 10.000263, 9.999732 
5.2500826e+2, 2.1504194e+2, -792998.2, -842259.44, -2402.801, -0.01965837, -0.061121345, -792881.25, 39700.78, 0.0, 10.000398, 9.999742 
5.25009e+2, 2.2504133e+2, -711779.4, -773783.25, 2212.2515, -0.03096087, -0.08326948, -711700.56, 22886.033, 0.0, 10.000374, 9.999551 
5.2501005e+2, 2.3504063e+2, -638844.4, -686475.25, 4858.3384, -0.018332353, -0.11204078, -638353.9, -1760.6039, 0.0, 10.000196, 9.999562 
5.25011e+2, 2.4504033e+2, -538640.5, -569877.4, -5496.392, -0.011884975, -0.106995374, -537701.6, 894.13403, 0.0, 10.000136, 9.999719 
5.250117e+2, 2.550404e+2, -433262.66, -467364.88, -10082.047, -0.011913753, -0.074596256, -430505.0, 10089.009, 0.0, 10.000183, 9.999727 
5.250125e+2, 2.650398e+2, -374150.5, -444692.44, -9837.337, -0.008075097, -0.08309999, -372804.34, -30204.67, 0.0, 10.00016, 9.999221 
5.2501327e+2, 2.7503848e+2, -289726.06, -352751.8, -2446.0, -0.0017057132, -0.13938262, -289631.28, -45018.406, 0.0, 10.000065, 9.999226 
5.2501374e+2, 2.850378e+2, -180821.1, -260381.89, -8220.205, -0.017854504, -0.124876164, -179980.66, -33361.688, 0.0, 10.000187, 9.999128 
5.25014e+2, 2.9503778e+2, -30087.59, -130319.07, -13542.725, -0.052433513, -0.04157545, -28290.01, 20327.537, 0.0, 10.00052, 9.999188 
5.250159e+2, 3.0503538e+2, 9010.139, -90374.46, -314.26236, 0.04784885, -0.20087135, 9011.132, 9011.132, 0.0, 10.00047, 9.999153 
5.2501655e+2, 3.1503507e+2, -14934.214, -37363.74, -8359.48, 0.021019204, -0.14483644, -12161.417, -12161.417, 0.00000000056215, 10.000027, 9.99973 
5.3499836e+2, 1.2504457e+2, -1692466.6, -1626619.3, -23623.146, -0.089624666, -0.042711556, -1619021.0, 95539.51, 0.00000041209, 9.999846, 10.000667 
5.3500307e+2, 1.350445e+2, -1645779.4, -1687834.6, 8608.284, 0.3074606, -0.005970225, -1644085.5, -27524.701, 0.000000018082496, 10.000024, 9.999515 
5.349988e+2, 1.4504394e+2, -1509439.0, -1559375.8, 15169.445, -0.2678512, -0.015907528, -1505192.1, 13373.9, 0.0, 10.000257, 9.999598 
5.350017e+2, 1.5504338e+2, -1389341.6, -1450786.5, -5999.1587, -0.04514247, -0.034581013, -1388761.4, 31810.123, 0.0, 10.000412, 9.999593 
5.350038e+2, 1.6504288e+2, -1303237.0, -1360247.5, 12715.68, 0.07484361, -0.04328497, -1300529.5, 22046.875, 0.0, 10.000336, 9.99958 
5.350045e+2, 1.7504245e+2, -1243696.0, -1279482.1, 12952.146, 0.026455622, -0.04667082, -1239500.3, -14920.192, 0.0, 10.000066, 9.999592 
5.3500545e+2, 1.8504207e+2, -1145283.3, -1165887.9, 15130.021, -0.0074548954, -0.051243708, -1137281.0, -10697.967, 0.0, 10.000003, 9.999729 
5.350067e+2, 1.9504169e+2, -1027907.1, -1057797.8, 18940.594, -0.0043323566, -0.06398851, -1018725.5, 9860.086, 0.0, 10.000133, 9.999735 
5.350078e+2, 2.050412e+2, -920546.44, -969896.2, 7662.8438, -0.009644481, -0.079680465, -919383.94, 11205.319, 0.0, 10.00026, 9.999604 
5.350085e+2, 2.1504061e+2, -802384.7, -861342.4, 2951.9028, -0.030519467, -0.10308756, -802237.3, 30356.572, 0.0, 10.000395, 9.999612 
5.350093e+2, 2.250402e+2, -706903.6, -762954.06, -4920.649, -0.03432193, -0.10535501, -706474.94, 28122.398, 0.0, 10.000371, 9.999626 
5.3501034e+2, 2.3503996e+2, -633416.4, -675570.9, -1585.2786, -0.017984373, -0.09523693, -633356.9, 3242.9548, 0.0, 10.000197, 9.999637 
5.350112e+2, 2.4503961e+2, -547172.75, -587540.44, -3743.238, -0.0067816763, -0.09053424, -546828.56, -8225.923, 0.0, 10.000135, 9.999598 
5.35012e+2, 2.550392e+2, -441743.34, -485331.22, -7959.251, -0.0016270358, -0.094735056, -440335.44, 270.1715, 0.0, 10.000183, 9.999603 
5.350127e+2, 2.6503858e+2, -362439.1, -419695.16, -13789.524, -0.001290493, -0.1082499, -359291.1, -16680.084, 0.0, 10.000157, 9.999393 
5.350133e+2, 2.7503765e+2, -278238.25, -327576.56, -5840.3438, -0.0060815564, -0.14106686, -277556.3, -32937.07, 0.0, 10.00006, 9.9994 
5.350139e+2, 2.8503686e+2, -193652.14, -286550.1, 4211.074, -0.020655379, -0.13679172, -193461.66, -46835.543, 0.0, 10.000183, 9.998951 
5.3501457e+2, 2.9503632e+2, -42607.395, -156595.52, -207.57793, -0.041488174, -0.09105327, -42607.02, 6023.476, 0.0, 10.00052, 9.999008 
5.350164e+2, 3.050342e+2, 12455.23, -81983.27, -17513.793, 0.05896813, -0.21612638, 15598.57, 15598.57, 0.0, 10.000465, 9.999212 
5.3501654e+2, 3.1503412e+2, -33674.18, -72855.64, -17723.28, 0.014065498, -0.14085178, -26846.896, -26846.896, 0.0000000000003731001, 10.000014, 9.999492 
5.4499817e+2, 1.2504342e+2, -1713401.3, -1627641.8, -27591.955, -0.08809234, -0.046238117, -1619531.4, 95040.8, 0.00000036785775, 9.999664, 10.000747 
5.45003e+2, 1.3504347e+2, -1644892.8, -1670902.9, 21812.379, 0.3086826, -0.010321222, -1632502.8, -15932.369, 0.000000024396927, 9.999959, 9.999661 
5.4499894e+2, 1.450429e+2, -1524788.9, -1562989.0, 21042.203, -0.26849174, -0.031970847, -1515470.9, 3104.789, 0.0, 10.000136, 9.999629 
5.450021e+2, 1.5504251e+2, -1425732.8, -1464900.9, -4470.395, -0.036863595, -0.037149943, -1425229.1, -4649.104, 0.0, 10.000148, 9.999623 
5.4500407e+2, 1.6504206e+2, -1323742.6, -1370415.0, 9368.016, 0.07836797, -0.040779237, -1321932.5, 651.7928, 0.0, 10.000196, 9.999577 
5.450046e+2, 1.750416e+2, -1214995.4, -1265482.6, 13122.145, 0.01614447, -0.047842577, -1211788.5, 12799.707, 0.0, 10.000264, 9.999591 
5.4500544e+2, 1.8504119e+2, -1103931.1, -1142609.4, 20094.62, -0.017285787, -0.05703201, -1095381.3, 31210.014, 0.0, 10.000273, 9.999758 
5.450069e+2, 1.950408e+2, -1011757.56, -1046820.6, 17433.951, -0.0016457703, -0.07428001, -1004564.7, 24028.99, 0.0, 10.000231, 9.9997635 
5.4500806e+2, 2.050403e+2, -935957.8, -975600.3, 7691.537, -0.0018742601, -0.09202947, -934517.75, -3920.5183, 0.0, 10.000147, 9.99962 
5.450088e+2, 2.1503972e+2, -855632.6, -885071.1, 13403.313, -0.024553772, -0.11646021, -850444.44, -17842.486, 0.0, 10.000021, 9.999629 
5.4500955e+2, 2.250394e+2, -754213.56, -783700.9, 8987.409, -0.02986728, -0.11121302, -751690.25, -17085.547, 0.0, 10.000037, 9.999644 
5.450105e+2, 2.3503934e+2, -633148.9, -673289.4, 7181.4346, -0.015133479, -0.08482665, -631902.75, 4702.802, 0.0, 10.000191, 9.999656 
5.4501134e+2, 2.4503894e+2, -533863.56, -584867.3, 7156.9663, -0.0078834, -0.08514121, -532878.3, 5730.565, 0.0, 10.000244, 9.999563 
5.450121e+2, 2.5503823e+2, -441575.16, -488907.1, 9452.439, -0.008982094, -0.11539788, -439757.28, 857.11346, 0.0, 10.000202, 9.99957 
5.450129e+2, 2.6503757e+2, -351914.22, -415276.66, 602.10614, -0.004355959, -0.13050695, -351908.5, -9288.563, 0.0, 10.000233, 9.999388 
5.450136e+2, 2.7503684e+2, -240167.6, -310210.6, -6077.36, 0.00537579, -0.1427004, -239644.19, 4981.9, 0.0, 10.000325, 9.999392 
5.450143e+2, 2.8503597e+2, -172333.77, -281093.97, 8226.709, -0.0071484903, -0.14297488, -171715.02, -25081.447, 0.0, 10.000351, 9.998907 
5.450151e+2, 2.9503515e+2, -75914.01, -177301.55, 13435.36, -0.038589746, -0.12176975, -74163.836, -25523.148, 0.0, 10.000313, 9.998965 
5.450168e+2, 3.0503336e+2, -955.44696, -88676.09, -11864.73, 0.058138028, -0.2114622, 620.9966, 620.9966, 0.0, 10.000374, 9.99921 
5.450168e+2, 3.1503308e+2, 25990.627, -67420.3, -10672.016, 0.019674439, -0.15508445, 27194.371, 27194.371, 0.000000000015387011, 10.000523, 9.999285 
5.5499774e+2, 1.2504259e+2, -1711094.6, -1622697.0, -37660.684, -0.0944152, -0.02401634, -1608828.1, 105752.24, 0.0000003291145, 9.999663, 10.000781 
5.5500275e+2, 1.3504225e+2, -1635769.4, -1653103.0, 33598.01, 0.28465983, -0.041562915, -1609738.4, 6843.254, 0.000000025104656, 9.999964, 9.999782 
5.5499893e+2, 1.4504157e+2, -1524186.5, -1562608.0, 21562.432, -0.27955902, -0.07796395, -1514518.4, 4069.368, 0.0, 10.000139, 9.999632 
5.5500257e+2, 1.5504168e+2, -1425006.9, -1463892.3, -3672.1472, -0.0012789222, -0.032002658, -1424663.1, -4075.2568, 0.0, 10.000149, 9.999631 
5.550046e+2, 1.6504146e+2, -1320966.9, -1363621.0, 11299.47, 0.10419416, -0.017362198, -1318158.5, 4431.8467, 0.0, 10.000193, 9.999625 
5.550045e+2, 1.7504086e+2, -1211727.5, -1258416.8, 15571.553, -0.021501968, -0.04296553, -1207010.6, 17584.717, 0.0, 10.000263, 9.99964 
5.550053e+2, 1.8504038e+2, -1107462.6, -1149724.0, 18148.89, -0.058357637, -0.05713104, -1100738.5, 25860.52, 0.0, 10.000271, 9.99971 
5.5500734e+2, 1.9504008e+2, -1015169.25, -1053752.6, 16066.86, 0.0141672455, -0.06351499, -1009354.94, 19246.271, 0.0, 10.000229, 9.999717 
5.5500853e+2, 2.050397e+2, -925087.9, -952443.25, 2656.2637, 0.034465794, -0.07586425, -924832.4, 5771.229, 0.0, 10.000144, 9.999781 
5.5500895e+2, 2.1503924e+2, -844645.9, -861941.9, 8915.275, -0.003684718, -0.10132785, -840873.3, -8266.986, 0.0, 10.00002, 9.999789 
5.550097e+2, 2.2503895e+2, -757193.0, -789422.3, 14551.005, -0.019226559, -0.10089226, -751595.56, -16986.906, 0.0, 10.000035, 9.999606 
5.5501074e+2, 2.3503877e+2, -636054.0, -679308.75, 13073.085, -0.010613917, -0.08113308, -632409.8, 4200.8066, 0.0, 10.000191, 9.999615 
5.550115e+2, 2.4503829e+2, -530318.9, -577235.6, 5146.218, -0.016047554, -0.09185816, -529761.06, 8853.607, 0.0, 10.000243, 9.999617 
5.550121e+2, 2.550375e+2, -437805.44, -480917.7, 8169.1787, -0.035519995, -0.13714735, -436309.4, 4311.0576, 0.0, 10.000201, 9.999624 
5.5501294e+2, 2.6503673e+2, -365193.84, -442576.25, 4005.8862, -0.01915814, -0.15035316, -364987.0, -22360.521, 0.0, 10.000232, 9.999201 
5.5501413e+2, 2.7503604e+2, -253674.1, -338510.03, -2268.758, 0.031511284, -0.14428236, -253613.47, -8980.049, 0.0, 10.000325, 9.999197 
5.5501497e+2, 2.8503513e+2, -167161.19, -269538.9, 6294.939, 0.02112141, -0.14306252, -166775.58, -20134.172, 0.0, 10.000348, 9.998988 
5.550153e+2, 2.9503426e+2, -71480.766, -166054.02, 12100.717, -0.046684366, -0.13366598, -69957.016, -21308.682, 0.0, 10.000304, 9.999045 
5.5501705e+2, 3.0503285e+2, -5376.5884, -96130.38, -6763.3975, 0.042177975, -0.18679927, -4875.317, -4875.317, 0.0, 10.000366, 9.999163 
5.5501753e+2, 3.1503204e+2, 15397.519, -88803.53, 1368.4015, 0.034063425, -0.18168207, 15415.485, 15415.485, 0.0000000020600701, 10.00052, 9.999139 
5.6499726e+2, 1.2504163e+2, -1742292.1, -1646308.4, -27159.809, -0.1006652, -0.029752795, -1639156.1, 75432.85, 0.00000027083397, 9.999488, 10.000702 
5.650027e+2, 1.3504134e+2, -1628983.3, -1646925.0, 54406.766, 0.2788317, -0.047029924, -1582812.8, 33777.426, 0.000000017878008, 9.999997, 9.999808 
5.649992e+2, 1.4504063e+2, -1503151.1, -1548366.1, 25526.904, -0.27768606, -0.0881085, -1491659.9, 26936.766, 0.0, 10.000266, 9.999668 
5.6500274e+2, 1.550409e+2, -1406891.6, -1450585.8, 2288.0813, -0.0023642278, -0.030118693, -1406772.1, 13822.984, 0.0, 10.000256, 9.999669 
5.650047e+2, 1.6504073e+2, -1314117.5, -1358517.3, 18171.342, 0.10045827, -0.014061793, -1307628.9, 14968.314, 0.0, 10.000234, 9.9996395 
5.650047e+2, 1.7504005e+2, -1221128.6, -1261731.9, 18228.277, -0.023753146, -0.04836354, -1214146.1, 10456.825, 0.0, 10.000194, 9.999651 
5.650055e+2, 1.850396e+2, -1126800.0, -1161466.0, 18566.225, -0.059985142, -0.059807982, -1118733.4, 7873.183, 0.0, 10.00015, 9.999688 
5.6500745e+2, 1.9503938e+2, -1034480.2, -1065181.0, 18115.967, 0.010174517, -0.052961726, -1026085.6, 2522.465, 0.0, 10.000107, 9.999697 
5.6500864e+2, 2.0503907e+2, -923157.56, -946864.25, 2901.3682, 0.035120998, -0.06087262, -922807.6, 7802.381, 0.0, 10.000137, 9.999822 
5.650093e+2, 2.1503863e+2, -809222.94, -840186.4, -364.75925, 0.00898138, -0.090344906, -809218.6, 23393.865, 0.0, 10.000243, 9.99983 
5.6501e+2, 2.2503826e+2, -725091.8, -770635.56, 5436.5654, -0.005700123, -0.09954723, -724451.8, 10163.241, 0.0, 10.000242, 9.999635 
5.6501096e+2, 2.3503798e+2, -640977.5, -678375.8, 8821.031, -0.0071714264, -0.094268315, -639001.4, -2383.6245, 0.0, 10.000143, 9.999643 
5.6501174e+2, 2.4503748e+2, -543052.3, -584467.7, 2305.17, -0.014896696, -0.106295876, -542924.4, -4302.799, 0.0, 10.00016, 9.999606 
5.650124e+2, 2.5503677e+2, -425392.13, -475868.84, -195.56213, -0.02888347, -0.14046857, -425391.38, 15235.177, 0.0, 10.00029, 9.999617 
5.6501335e+2, 2.6503608e+2, -344366.53, -442573.94, -435.15057, -0.014171991, -0.14729962, -344364.6, -1731.9926, 0.0, 10.000418, 9.99911 
5.650146e+2, 2.750353e+2, -228190.33, -335368.28, 367.3106, 0.027482864, -0.14028604, -228189.08, 16451.38, 0.0, 10.000542, 9.999113 
5.650154e+2, 2.8503424e+2, -139153.06, -248060.14, 4743.9077, 0.018538931, -0.15175785, -138946.81, 7702.8086, 0.0, 10.000506, 9.999059 
5.650157e+2, 2.9503322e+2, -67558.36, -158197.28, 9188.75, -0.03685156, -0.16505726, -66636.21, -17978.521, 0.0, 10.000304, 9.9991 
5.6501746e+2, 3.0503225e+2, -15453.52, -107554.58, 1454.5724, 0.049757645, -0.16939709, -15430.553, -15430.553, 0.0, 10.000325, 9.9991045 
5.6501806e+2, 3.1503132e+2, 21395.68, -88605.44, 12743.026, 0.0365378, -0.17621882, 22852.594, 22852.594, 0.000000017271022, 10.000572, 9.999115 
5.7499665e+2, 1.2504062e+2, -1756540.5, -1679154.0, -29668.873, -0.113526165, -0.06264202, -1669088.6, 45508.81, 0.00000019303324, 9.9995, 10.000471 
5.750028e+2, 1.3504076e+2, -1634085.6, -1658772.3, 74316.24, 0.2896811, -0.025945174, -1571094.6, 45501.19, 0.000000007774616, 10.000001, 9.999726 
5.7499963e+2, 1.450401e+2, -1498978.0, -1538299.6, 24742.92, -0.26450336, -0.061869666, -1487035.6, 31566.549, 0.0, 10.000261, 9.999739 
5.750026e+2, 1.5504017e+2, -1401278.3, -1439173.8, 2083.7922, -0.04209601, -0.03238815, -1401164.0, 19437.719, 0.0, 10.000257, 9.999747 
5.750046e+2, 1.6503987e+2, -1316171.5, -1362791.3, 16567.621, 0.06445369, -0.031601954, -1310883.5, 11721.107, 0.0, 10.000233, 9.999612 
5.750052e+2, 1.7503919e+2, -1223229.0, -1266336.5, 17083.988, 0.007961506, -0.064016506, -1217279.5, 7331.1514, 0.0, 10.000194, 9.9996195 
5.7500607e+2, 1.850388e+2, -1127183.0, -1161575.4, 16537.992, -0.024233628, -0.065608814, -1120520.9, 6093.01, 0.0, 10.000147, 9.999688 
5.7500726e+2, 1.9503875e+2, -1034518.1, -1064767.3, 16609.154, -0.015128338, -0.042533435, -1027179.0, 1435.2953, 0.0, 10.000105, 9.999701 
5.750085e+2, 2.0503844e+2, -929001.7, -958378.3, 6479.1255, -0.0009783545, -0.046584703, -927636.2, 2980.312, 0.0, 10.000134, 9.999744 
5.750095e+2, 2.1503784e+2, -814771.0, -851207.25, 3717.1082, 0.01215456, -0.08344608, -814395.7, 18224.82, 0.0, 10.00024, 9.999756 
5.7501036e+2, 2.2503735e+2, -718239.7, -756357.6, 1389.3888, 0.009514881, -0.10740888, -718189.06, 16434.805, 0.0, 10.000242, 9.999733 
5.7501113e+2, 2.3503694e+2, -634124.06, -664073.9, 5452.9653, -0.006042446, -0.12453499, -633162.1, 3464.6829, 0.0, 10.000142, 9.9997425 
5.75012e+2, 2.4503653e+2, -548280.94, -595191.7, 6958.087, -0.005899292, -0.129071, -547270.6, -8640.801, 0.0, 10.000159, 9.999533 
5.7501304e+2, 2.5503615e+2, -431048.7, -487372.3, 4798.0737, 0.009491336, -0.12553489, -430642.88, 9989.827, 0.0, 10.000289, 9.999537 
5.75014e+2, 2.6503548e+2, -343975.7, -441688.47, 3862.0168, 0.009566496, -0.12098115, -343823.28, -1184.975, 0.0, 10.000418, 9.999117 
5.7501477e+2, 2.7503455e+2, -227297.47, -333048.5, 5107.397, -0.007905601, -0.13038056, -227051.38, 17595.9, 0.0, 10.000539, 9.999131 
5.750155e+2, 2.850333e+2, -135127.25, -238460.61, -3192.6895, -0.016738905, -0.16905734, -135028.69, 11629.629, 0.0, 10.000501, 9.999126 
5.7501626e+2, 2.95032e+2, -64961.043, -152616.55, 1994.8466, -0.011804755, -0.21677338, -64915.668, -16246.805, 0.0, 10.000304, 9.999139 
5.7501805e+2, 3.0503163e+2, -21945.547, -120540.96, 9954.88, 0.07797102, -0.1594585, -20950.477, -20950.477, 0.00000000021282408, 10.000322, 9.999017 
5.750185e+2, 3.1503087e+2, 25058.996, -78664.195, 27641.887, 0.02327297, -0.13570203, 31965.58, 31965.58, 0.0000000699572, 10.000563, 9.999188 
5.8499634e+2, 1.2503979e+2, -1727133.8, -1690810.4, -38784.555, -0.111050114, -0.071563475, -1666145.8, 48458.63, 0.00000011738098, 9.999814, 10.00024 
5.8500266e+2, 1.350399e+2, -1636135.5, -1670537.6, 83517.72, 0.27960604, -0.02585656, -1568065.9, 48538.082, 0.0000000014227642, 10.000036, 9.999627 
5.849998e+2, 1.450392e+2, -1514107.4, -1540781.3, 18522.184, -0.2608359, -0.0629545, -1504620.0, 13990.997, 0.0, 10.000136, 9.999782 
5.850028e+2, 1.550393e+2, -1423758.6, -1445121.4, -8677.173, -0.044481646, -0.038018078, -1420678.3, -68.19432, 0.0, 10.000082, 9.99979 
5.8500475e+2, 1.6503899e+2, -1337104.6, -1370019.0, 8239.073, 0.06179429, -0.039345227, -1335157.4, -12544.855, 0.0, 10.000077, 9.999637 
5.850054e+2, 1.750383e+2, -1229775.0, -1266605.9, 12743.44, 0.017201802, -0.073045254, -1225795.8, -1177.2667, 0.0, 10.000137, 9.999644 
5.850063e+2, 1.8503794e+2, -1123361.1, -1161833.3, 13097.119, -0.015123227, -0.075772084, -1119325.8, 7296.1704, 0.0, 10.000182, 9.999669 
5.8500737e+2, 1.9503786e+2, -1022352.6, -1061041.1, 10946.841, -0.02113003, -0.05382839, -1019470.0, 9152.677, 0.0, 10.000197, 9.999681 
5.8500856e+2, 2.0503752e+2, -921824.5, -955561.56, 5253.953, -0.011061866, -0.056741092, -921025.25, 9599.772, 0.0, 10.000188, 9.999738 
5.850097e+2, 2.1503696e+2, -826834.06, -857640.1, 7219.8057, 0.009634477, -0.090206355, -825225.94, 7402.8843, 0.0, 10.000161, 9.99975 
5.8501065e+2, 2.2503647e+2, -726521.94, -758320.7, 2502.7024, 0.013115303, -0.11388987, -726326.2, 8305.897, 0.0, 10.000175, 9.999752 
5.8501136e+2, 2.3503605e+2, -619584.6, -654960.75, 79.47935, 0.0020259037, -0.1351407, -619584.5, 17050.432, 0.0, 10.000233, 9.999761 
5.850123e+2, 2.450356e+2, -528978.6, -593972.8, 4844.3564, 0.0046938914, -0.13980004, -528619.5, 10018.666, 0.0, 10.000327, 9.99946 
5.8501357e+2, 2.550352e+2, -411777.5, -485806.94, 2629.3496, 0.01977985, -0.1315067, -411684.25, 28957.385, 0.0, 10.000455, 9.999468 
5.8501446e+2, 2.6503456e+2, -340252.4, -435290.16, -2157.0027, 0.01637838, -0.12550318, -340203.47, 2443.6965, 0.0, 10.000423, 9.999158 
5.850151e+2, 2.7503362e+2, -268314.6, -348525.3, 937.01654, -0.0061017126, -0.1367276, -268303.66, -23648.113, 0.0, 10.000238, 9.99917 
5.8501595e+2, 2.8503233e+2, -166373.11, -264160.28, -8247.47, -0.015610977, -0.17822596, -165682.39, -19015.072, 0.0, 10.000332, 9.999032 
5.850168e+2, 2.9503086e+2, -16771.803, -141407.06, -16485.027, -0.008539019, -0.22985087, -14628.257, 34051.656, 0.0, 10.000688, 9.99903 
5.850185e+2, 3.050307e+2, 25808.662, -98313.95, -15845.508, 0.07475502, -0.14563963, 27799.568, 27799.568, 0.000000006848287, 10.000654, 9.99901 
5.85019e+2, 3.1502968e+2, -3095.8457, -66406.88, 12487.275, 0.024196073, -0.15229502, -721.9077, -721.9077, 0.00000018333391, 10.000258, 9.999418 
5.9499633e+2, 1.2503916e+2, -1742018.1, -1723237.3, -50096.195, -0.093410835, -0.052644428, -1681659.0, 32950.543, 0.000000058921596, 9.99982, 10.000015 
5.9500235e+2, 1.3503876e+2, -1643031.9, -1686429.0, 92268.17, 0.24614617, -0.04925637, -1569945.3, 46669.6, 0.000000000010343272, 10.000042, 9.999516 
5.9499985e+2, 1.4503793e+2, -1513639.8, -1539746.6, 16715.615, -0.26983082, -0.09403881, -1505484.6, 13138.715, 0.0, 10.000136, 9.999789 
5.9500325e+2, 1.5503824e+2, -1423362.0, -1444568.0, -10221.929, -0.01098146, -0.0467999, -1419237.1, 1382.8359, 0.0, 10.000082, 9.999795 
5.9500515e+2, 1.6503806e+2, -1332332.8, -1359568.4, 9914.803, 0.09046856, -0.03756361, -1329105.8, -6484.8706, 0.0, 10.000074, 9.999709 
5.9500545e+2, 1.7503744e+2, -1223858.8, -1254866.1, 15282.448, 0.002554037, -0.07535423, -1217592.8, 7033.482, 0.0, 10.000139, 9.999724 
5.950063e+2, 1.8503697e+2, -1126171.5, -1167576.6, 13618.997, -0.03446141, -0.09041386, -1122093.6, 4536.8105, 0.0, 10.000181, 9.999631 
5.950077e+2, 1.9503666e+2, -1025066.5, -1066843.8, 11668.944, -0.009314161, -0.08679581, -1022028.2, 6604.9375, 0.0, 10.000197, 9.999641 
5.9500885e+2, 2.0503633e+2, -917744.4, -946645.94, 3805.5999, 0.0032306465, -0.09165792, -917251.7, 13383.801, 0.0, 10.000186, 9.9998 
5.9500974e+2, 2.1503597e+2, -822935.75, -848798.94, 6437.9795, 0.00021152492, -0.11057899, -821421.8, 11215.721, 0.0, 10.000158, 9.999812 
5.9501076e+2, 2.2503562e+2, -731227.1, -767489.6, 4186.975, 0.0040510986, -0.11925195, -730749.94, 3889.6797, 0.0, 10.000173, 9.999691 
5.950117e+2, 2.350353e+2, -624144.7, -664081.2, 2342.2288, 0.015523623, -0.12568171, -624007.8, 12634.1875, 0.0, 10.000232, 9.999699 
5.950128e+2, 2.4503471e+2, -533632.5, -603871.9, 9539.577, 0.015051599, -0.13764651, -532359.94, 6286.716, 0.0, 10.000328, 9.9993925 
5.950138e+2, 2.5503394e+2, -416141.56, -494804.16, 7643.5713, 0.0014632457, -0.15789573, -415405.72, 25247.512, 0.0, 10.000455, 9.999407 
5.950148e+2, 2.6503325e+2, -335231.16, -424593.0, -9320.502, 0.0060277306, -0.16085061, -334269.38, 8389.831, 0.0, 10.0004225, 9.999232 
5.9501576e+2, 2.750325e+2, -263976.4, -339377.0, -5648.188, 0.029506624, -0.16056444, -263555.66, -18890.283, 0.0, 10.000237, 9.999233 
5.950166e+2, 2.850313e+2, -185491.48, -303383.13, 4802.5337, 0.018110774, -0.18013783, -185296.17, -38619.438, 0.0, 10.00033, 9.998764 
5.9501725e+2, 2.9502985e+2, -36268.26, -180808.23, -3513.3916, -0.027916525, -0.20312525, -36182.91, 12507.882, 0.0, 10.000682, 9.998763 
5.950188e+2, 3.0502954e+2, 30529.516, -86133.91, -31317.963, 0.04053914, -0.12512034, 38405.082, 38405.082, 0.000000033052434, 10.000645, 9.999098 
5.9501934e+2, 3.1502768e+2, 24272.598, -8447.351, 2542.2307, 0.034423973, -0.2257537, 24468.941, 24468.941, 0.00000037488923, 10.000255, 9.999819 
6.049962e+2, 1.2503803e+2, -1735977.3, -1723202.4, -81475.484, -0.09039695, -0.055261653, -1647864.4, 66756.34, 0.000000021349177, 9.999875, 9.9999895 
6.050022e+2, 1.3503778e+2, -1637444.6, -1672470.8, 90873.66, 0.22465888, -0.045885615, -1562411.9, 54212.527, 0.0, 10.000034, 9.999615 
6.050001e+2, 1.4503704e+2, -1519140.9, -1539744.0, 16121.083, -0.26211914, -0.08867319, -1510311.0, 8320.972, 0.0, 10.000088, 9.999812 
6.050035e+2, 1.5503718e+2, -1419410.3, -1439303.4, -9682.952, 0.0066997893, -0.058126908, -1415475.4, 5154.2974, 0.0, 10.000096, 9.999824 
6.0500526e+2, 1.6503702e+2, -1326173.4, -1356640.4, 11507.288, 0.09825562, -0.050843216, -1322315.6, 315.0263, 0.0, 10.000116, 9.999709 
6.050054e+2, 1.7503652e+2, -1227289.8, -1256488.4, 10176.799, -0.014830877, -0.07606554, -1224092.8, 542.1414, 0.0, 10.000116, 9.999724 
6.050063e+2, 1.8503608e+2, -1134336.6, -1170374.6, 7317.115, -0.05104474, -0.0883054, -1132907.6, -6268.7896, 0.0, 10.000121, 9.99964 
6.0500795e+2, 1.9503571e+2, -1031263.56, -1068906.6, 8592.792, -0.001662063, -0.09171597, -1029394.9, -752.65796, 0.0, 10.000152, 9.99965 
6.050091e+2, 2.0503537e+2, -930387.44, -949674.94, -2872.5286, 0.016292926, -0.099145845, -929968.7, 675.99805, 0.0, 10.000086, 9.999827 
6.0500985e+2, 2.1503505e+2, -856341.9, -862194.2, -3322.2737, 0.0005254358, -0.11678548, -854840.9, -22194.469, 0.0, 9.999917, 9.999836 
6.050108e+2, 2.2503476e+2, -756440.94, -782467.7, 6573.3, 0.0034695314, -0.120195284, -754875.0, -20226.955, 0.0, 10.000012, 9.999664 
6.050121e+2, 2.3503448e+2, -605771.2, -658219.56, 6654.5674, 0.024559865, -0.11714751, -604940.06, 31709.834, 0.0, 10.000371, 9.999672 
6.050133e+2, 2.4503385e+2, -515804.7, -597664.0, 8663.412, 0.025828212, -0.13233285, -514897.84, 23757.184, 0.0, 10.000461, 9.999372 
6.050142e+2, 2.550329e+2, -442003.88, -510081.9, 9283.43, 0.007127303, -0.1677897, -440760.66, -97.50151, 0.0, 10.000289, 9.999382 
6.050153e+2, 2.650321e+2, -344771.13, -437454.22, -7377.9204, 0.011908537, -0.17388599, -344187.5, -1517.5885, 0.0, 10.000392, 9.999159 
6.0501635e+2, 2.7503136e+2, -193935.36, -313607.22, -14965.279, 0.039648406, -0.16469656, -192092.3, 52583.79, 0.0, 10.000753, 9.999162 
6.0501724e+2, 2.8503022e+2, -127863.12, -279687.2, -3510.4883, 0.030523755, -0.1771391, -127781.984, 18905.418, 0.0, 10.000742, 9.998729 
6.0501796e+2, 2.9502878e+2, -84964.92, -210276.11, 4416.639, -0.014600198, -0.19533673, -84809.445, -36108.008, 0.00000000003092486, 10.000372, 9.99871 
6.050194e+2, 3.0502823e+2, -11755.618, -136745.89, -23910.613, 0.041170433, -0.123477854, -7337.68, -7337.68, 0.00000008707832, 10.000484, 9.998828 
6.0502e+2, 3.1502587e+2, 146801.45, 54708.566, -15641.696, 0.030595466, -0.24985534, 149385.64, 149385.64, 0.0000006525611, 10.001079, 9.999856 
6.1499596e+2, 1.2503637e+2, -1724022.6, -1699449.6, -91596.32, -0.10268338, -0.078667834, -1619319.4, 95318.33, 0.0000000039655865, 9.999878, 10.000152 
6.1500216e+2, 1.3503698e+2, -1617187.3, -1629827.6, 96727.85, 0.21312141, -0.014436636, -1526573.3, 90059.125, 0.0, 10.000031, 9.999908 
6.150004e+2, 1.450365e+2, -1516570.5, -1534366.6, 15306.238, -0.23959279, -0.04586008, -1507763.9, 10872.925, 0.0, 10.000087, 9.99985 
6.150036e+2, 1.5503614e+2, -1415685.8, -1432629.9, -8884.506, 0.007068264, -0.0729377, -1411881.4, 8757.955, 0.0, 10.000099, 9.999868 
6.1500525e+2, 1.6503581e+2, -1330891.8, -1366822.9, 11523.539, 0.08280733, -0.08021204, -1327513.6, -4871.7026, 0.0, 10.000118, 9.999639 
6.150053e+2, 1.7503552e+2, -1232431.4, -1267521.0, 10281.496, -0.036388334, -0.075590014, -1229640.8, -4996.161, 0.0, 10.000117, 9.999648 
6.150062e+2, 1.8503524e+2, -1131051.4, -1163227.0, 7727.427, -0.066974215, -0.06988885, -1129291.8, -2644.4846, 0.0, 10.000119, 9.99969 
6.150081e+2, 1.95035e+2, -1027486.8, -1061044.4, 9944.459, 0.00072340824, -0.06844456, -1024761.25, 3888.685, 0.0, 10.000152, 9.999703 
6.1500937e+2, 2.0503464e+2, -931413.8, -951201.1, -9670.233, 0.026836611, -0.079286024, -927472.8, 3179.7935, 0.0, 10.000083, 9.999818 
6.1500984e+2, 2.150342e+2, -856806.75, -863073.3, -9526.587, 0.008759181, -0.1085888, -849911.44, -17256.068, 0.0, 9.999916, 9.99983 
6.1501086e+2, 2.2503386e+2, -756515.3, -782306.25, 19694.686, 0.009061693, -0.11601421, -745869.9, -11212.601, 0.0, 10.000011, 9.999666 
6.150126e+2, 2.3503363e+2, -605261.9, -657038.3, 20336.762, 0.028920317, -0.10952343, -598229.25, 38429.273, 0.0, 10.000371, 9.9996805 
6.1501384e+2, 2.4503301e+2, -514806.53, -595397.06, 1728.6027, 0.03695826, -0.12410196, -514769.47, 23893.934, 0.0, 10.00046, 9.999388 
6.150148e+2, 2.5503206e+2, -441488.6, -508681.38, 3038.6511, 0.03387665, -0.16219676, -441351.47, -679.91077, 0.0, 10.000287, 9.9993925 
6.1501586e+2, 2.650312e+2, -360161.9, -469297.75, 6188.4136, 0.030440737, -0.1649269, -359812.13, -17132.797, 0.0, 10.000391, 9.998941 
6.15017e+2, 2.7503034e+2, -208495.45, -343564.16, -1244.7572, 0.024682462, -0.14694913, -208483.98, 36203.453, 0.0, 10.0007515, 9.998958 
6.1501795e+2, 2.8502908e+2, -114661.805, -251624.5, -17649.943, 0.023007436, -0.16677572, -112423.875, 34275.203, 0.0, 10.000739, 9.998923 
6.150187e+2, 2.950276e+2, -73138.3, -185387.11, -9190.758, 0.026935684, -0.20870163, -72390.75, -23678.664, 0.0000000010306047, 10.00037, 9.998882 
6.150202e+2, 3.0502677e+2, -57904.5, -231011.64, -1747.6301, 0.07096794, -0.14430615, -57886.86, -57886.86, 0.00000016756015, 10.000478, 9.998183 
6.150208e+2, 3.1502417e+2, 121733.055, 5308.122, 10155.549, 0.009482551, -0.22810002, 122612.266, 122612.266, 0.000001002472, 10.001067, 9.999522 
6.249958e+2, 1.250351e+2, -1732734.5, -1697064.8, -90619.79, -0.09792094, -0.07758894, -1622541.5, 92108.93, 0.00000000008306351, 9.999788, 10.000212 
6.25002e+2, 1.3503577e+2, -1642716.5, -1623815.0, 98936.03, 0.21048634, -0.023292702, -1533879.4, 82764.375, 0.0, 9.999779, 10.000071 
6.250006e+2, 1.4503545e+2, -1553779.8, -1554436.4, 12391.284, -0.21631221, -0.04656459, -1541712.5, -23065.984, 0.0, 9.99984, 9.999831 
6.2500346e+2, 1.5503506e+2, -1431099.9, -1441574.5, -16652.875, -0.008684034, -0.07426979, -1418880.1, 1769.4608, 0.0, 10.0, 9.999855 
6.250051e+2, 1.6503474e+2, -1337170.9, -1364730.4, 2465.007, 0.061263196, -0.08248738, -1336952.1, -14299.792, 0.0, 10.000053, 9.999684 
6.250055e+2, 1.7503448e+2, -1242865.6, -1267430.4, 9552.823, -0.024530401, -0.079240285, -1239588.0, -14933.44, 0.0, 10.000024, 9.999694 
6.250065e+2, 1.8503429e+2, -1145575.0, -1167060.6, 12187.403, -0.05016921, -0.069885686, -1140071.5, -13414.831, 0.0, 10.000006, 9.999719 
6.2500805e+2, 1.9503413e+2, -1050076.4, -1068918.1, 11829.189, -0.009158446, -0.0603872, -1044374.94, -15716.382, 0.0, 9.999983, 9.999731 
6.250093e+2, 2.0503381e+2, -930197.75, -952951.44, -6943.859, 0.015709598, -0.06895662, -928246.06, 2414.9937, 0.0, 10.000101, 9.999798 
6.250101e+2, 2.1503331e+2, -792667.1, -834484.56, -8494.49, 0.021302195, -0.10169361, -791007.5, 41656.734, 0.0, 10.000367, 9.999809 
6.2501127e+2, 2.2503293e+2, -700788.44, -757465.44, 20918.857, 0.026210373, -0.111529484, -693903.8, 40762.74, 0.0, 10.000402, 9.999648 
6.250129e+2, 2.3503266e+2, -630826.7, -671708.94, 19106.225, 0.03153349, -0.10575902, -623287.7, 13380.331, 0.0, 10.000205, 9.99966 
6.2501425e+2, 2.4503201e+2, -549877.75, -626854.06, -5350.725, 0.036238074, -0.11731327, -549507.56, -10833.889, 0.0, 10.000281, 9.999258 
6.250153e+2, 2.55031e+2, -401744.03, -504048.0, -15596.833, 0.03948602, -0.15072165, -399419.03, 41264.215, 0.0, 10.000623, 9.999263 
6.250164e+2, 2.650301e+2, -317167.25, -440058.3, -7850.3477, 0.03721442, -0.15095043, -316667.8, 26023.316, 0.0, 10.000649, 9.999017 
6.250176e+2, 2.7502936e+2, -258906.45, -359498.22, 5858.271, 0.028781226, -0.12986073, -258566.42, -13868.731, 0.0, 10.000368, 9.999032 
6.250186e+2, 2.8502807e+2, -157811.02, -283383.84, -9662.449, 0.028034043, -0.14999971, -157071.88, -10362.478, 0.0, 10.00049, 9.998825 
6.250195e+2, 2.9502645e+2, 10967.395, -156841.61, -24102.873, 0.0351823, -0.20020132, 14360.738, 63085.188, 0.000000004235602, 10.001, 9.9987755 
6.250209e+2, 3.050253e+2, 8432.97, -218880.98, -8236.381, 0.07119048, -0.15024112, 8731.012, 8731.012, 0.000000262113, 10.001018, 9.998007 
6.250217e+2, 3.15023e+2, 53791.89, -19967.828, 39701.45, 0.014890432, -0.18776049, 71099.94, 71099.94, 0.0000013873902, 10.000567, 9.999588 
6.349959e+2, 1.2503424e+2, -1734346.9, -1702148.3, -104102.32, -0.075716816, -0.052194543, -1612907.8, 101750.87, 0.0, 9.999793, 10.000175 
6.3500184e+2, 1.3503416e+2, -1640791.8, -1620007.8, 98000.46, 0.21456777, -0.07392347, -1531849.8, 84808.625, 0.0, 9.999779, 10.000096 
6.3500065e+2, 1.4503388e+2, -1558649.8, -1565074.5, 17220.408, -0.19443756, -0.09181183, -1544344.6, -25683.615, 0.0, 9.999842, 9.999758 
6.350031e+2, 1.5503399e+2, -1436257.1, -1452702.1, -10747.826, -0.042566318, -0.061977357, -1430947.3, -10286.864, 0.0, 10.000001, 9.999778 
6.350049e+2, 1.6503385e+2, -1325757.8, -1341172.5, 386.8096, 0.030815607, -0.05746929, -1325748.0, -3086.3967, 0.0, 10.000053, 9.999846 
6.35006e+2, 1.7503344e+2, -1230794.4, -1243169.6, 8530.413, 0.019192504, -0.08709138, -1226443.8, -1778.7147, 0.0, 10.000026, 9.99986 
6.3500696e+2, 1.850332e+2, -1145384.4, -1166590.5, 11068.496, -0.0027068611, -0.08860776, -1140659.8, -13992.577, 0.0, 10.000006, 9.9997225 
6.350078e+2, 1.9503316e+2, -1049546.0, -1068325.5, 11015.197, -0.032510836, -0.06754994, -1044461.56, -15793.547, 0.0, 9.999985, 9.999734 
6.3500905e+2, 2.050329e+2, -933359.8, -959052.1, 2365.0698, -0.019228557, -0.068028614, -933143.9, -2473.8977, 0.0, 10.000099, 9.999757 
6.350106e+2, 2.150324e+2, -795331.75, -840109.44, 1670.9146, 0.037212476, -0.09702326, -795269.5, 37403.625, 0.0, 10.000367, 9.999771 
6.35012e+2, 2.2503199e+2, -704417.6, -764025.7, 12986.852, 0.053504266, -0.107895225, -701711.06, 32964.844, 0.0, 10.000399, 9.999605 
6.3501304e+2, 2.3503163e+2, -633850.5, -677995.06, 12059.255, 0.030791735, -0.10620451, -630771.0, 5907.4185, 0.0, 10.000204, 9.999617 
6.3501436e+2, 2.4503087e+2, -569796.6, -668068.3, 7318.553, 0.021133102, -0.11176122, -569254.56, -30568.803, 0.0, 10.00028, 9.998975 
6.350157e+2, 2.5502968e+2, -420753.94, -543619.9, -2538.4587, 0.023758044, -0.13174322, -420701.53, 19996.508, 0.0, 10.000623, 9.998991 
6.3501704e+2, 2.6502886e+2, -291888.8, -387513.78, -18569.715, 0.032478902, -0.13040525, -288409.3, 54295.805, 0.0, 10.0006485, 9.999379 
6.350181e+2, 2.7502844e+2, -234396.03, -307890.7, -4204.915, 0.048237383, -0.11571937, -234156.23, 10550.895, 0.0, 10.000365, 9.999389 
6.3501924e+2, 2.850272e+2, -185731.75, -340169.88, 9567.864, 0.041204117, -0.13006057, -185141.25, -38422.637, 0.0, 10.000484, 9.998437 
6.3502026e+2, 2.950253e+2, -16555.834, -212834.11, -4762.2427, 0.010464435, -0.16782239, -16440.355, 32297.912, 0.000000008608103, 10.000996, 9.998393 
6.350217e+2, 3.050239e+2, 27721.781, -178086.86, -25234.123, 0.043061506, -0.1371344, 30770.563, 30770.563, 0.00000035003856, 10.001014, 9.998289 
6.350225e+2, 3.1502235e+2, 86143.93, 48183.023, 25563.748, 0.041156583, -0.13081461, 99003.12, 99003.12, 0.0000017531552, 10.000563, 10.00006 
6.449958e+2, 1.2503308e+2, -1738111.1, -1712912.3, -99093.73, -0.06590069, -0.06763109, -1625620.3, 89049.15, 0.0, 9.999804, 10.000097 
6.4500153e+2, 1.3503309e+2, -1607912.4, -1605538.1, 106344.56, 0.1907542, -0.07996181, -1500374.0, 116294.84, 0.0, 10.000012, 10.000082 
6.450007e+2, 1.4503293e+2, -1544028.9, -1555834.0, 22964.793, -0.18120892, -0.08388902, -1526220.1, -7549.9336, 0.0, 9.999933, 9.999777 
6.450031e+2, 1.5503286e+2, -1483329.0, -1473356.8, 1309.9061, -0.034363057, -0.07483374, -1473187.6, -52516.36, 0.0, 9.99967, 9.999796 
6.4500475e+2, 1.6503271e+2, -1377011.5, -1364218.9, 17935.045, 0.032465406, -0.070786975, -1351573.8, -28901.268, 0.0, 9.999694, 9.999862 
6.4500594e+2, 1.750325e+2, -1237306.0, -1244843.5, 13876.548, 0.017280387, -0.08112023, -1226695.5, -2021.408, 0.0, 9.999975, 9.999872 
6.4500695e+2, 1.8503231e+2, -1132630.6, -1163844.8, 4629.214, -0.0029362745, -0.07897316, -1131958.5, -5282.36, 0.0, 10.000108, 9.999691 
6.450079e+2, 1.9503213e+2, -1033487.5, -1063794.0, 1364.7323, -0.028247193, -0.068411574, -1033426.2, -4747.797, 0.0, 10.000111, 9.999703 
6.4500916e+2, 2.0503181e+2, -928283.4, -956083.0, -403.75583, -0.01874926, -0.072198324, -928277.5, 2403.1902, 0.0, 10.000133, 9.999761 
6.4501077e+2, 2.1503136e+2, -825264.25, -854498.5, 1249.2008, 0.025938408, -0.09824996, -825210.94, 7472.331, 0.0, 10.000161, 9.999771 
6.4501214e+2, 2.2503088e+2, -734067.25, -792582.1, 5255.666, 0.044077154, -0.10699679, -733598.94, 1087.7957, 0.0, 10.000256, 9.999478 
6.4501345e+2, 2.3503043e+2, -612093.2, -681553.2, -3005.3623, 0.03559551, -0.104123555, -611963.4, 24727.59, 0.0, 10.000415, 9.99949 
6.4501476e+2, 2.4502967e+2, -532401.7, -640664.5, 10471.254, 0.026352912, -0.10615955, -531398.2, 7300.1016, 0.0, 10.000497, 9.999059 
6.4501625e+2, 2.5502864e+2, -433390.9, -540456.25, 27199.607, 0.015556162, -0.11994912, -426877.22, 13831.506, 0.0, 10.000497, 9.999074 
6.4501756e+2, 2.6502776e+2, -314167.44, -409518.38, -2728.9707, 0.024823949, -0.12180818, -314089.4, 28626.79, 0.0, 10.000545, 9.999277 
6.450187e+2, 2.750271e+2, -201797.6, -303379.16, -23575.094, 0.054855034, -0.120232895, -196592.95, 48128.0, 0.0, 10.000638, 9.999288 
6.450199e+2, 2.8502595e+2, -154517.2, -319537.72, 2662.6526, 0.051610027, -0.12672104, -154474.25, -7742.121, 0.0, 10.000675, 9.9984865 
6.4502114e+2, 2.9502434e+2, -63418.715, -229951.63, 20099.836, 0.014494288, -0.13797116, -61027.094, -12278.407, 0.000000011710588, 10.000649, 9.998442 
6.4502245e+2, 3.0502272e+2, -11021.553, -192182.33, -6163.528, 0.03402889, -0.13482545, -10812.097, -10812.097, 0.00000040808163, 10.000728, 9.99833 
6.4502317e+2, 3.1502143e+2, 146884.66, 88412.805, 26148.922, 0.035003792, -0.10550023, 156872.52, 156872.52, 0.0000020409286, 10.000934, 10.000157 
6.549956e+2, 1.250316e+2, -1744722.6, -1729199.5, -97545.5, -0.06630731, -0.12626949, -1639107.3, 75575.516, 0.0, 9.999812, 9.999983 
6.55001e+2, 1.3503252e+2, -1612028.0, -1613763.9, 112752.29, 0.13518983, -0.04120308, -1500140.4, 116534.445, 0.0, 10.000011, 10.000026 
6.550006e+2, 1.4503263e+2, -1536639.9, -1540198.4, 10855.15, -0.18002263, -0.023132589, -1527419.1, -8745.412, 0.0, 9.999932, 9.999886 
6.550032e+2, 1.5503165e+2, -1475241.5, -1457557.9, -8368.663, 0.014232591, -0.11314819, -1454225.5, -33543.55, 0.0, 9.999673, 9.999904 
6.5500474e+2, 1.6503137e+2, -1386431.9, -1384373.8, 28116.596, 0.064557865, -0.1224633, -1357267.4, -34582.938, 0.0, 9.999697, 9.9997225 
6.5500546e+2, 1.7503172e+2, -1246930.8, -1265260.0, 24230.064, -0.03171452, -0.061833378, -1230190.0, -5508.2793, 0.0, 9.999976, 9.999732 
6.550066e+2, 1.8503161e+2, -1137885.3, -1174140.4, 3820.435, -0.053314332, -0.04134731, -1137487.0, -10803.375, 0.0, 10.000105, 9.999622 
6.550084e+2, 1.9503103e+2, -1038049.56, -1073546.6, 1545.1583, 0.0025217414, -0.064224936, -1037982.44, -9292.8545, 0.0, 10.000112, 9.999637 
6.550096e+2, 2.0503056e+2, -925824.9, -950209.06, 405.61926, 0.015817938, -0.08287574, -925818.1, 4875.0337, 0.0, 10.00013, 9.999803 
6.550105e+2, 2.1503016e+2, -822418.9, -848807.8, 2573.1177, -0.01349553, -0.10557539, -822170.3, 10524.307, 0.0, 10.000162, 9.99981 
6.5501195e+2, 2.2502968e+2, -749558.1, -824219.44, 10682.223, -0.003857412, -0.10870103, -748059.8, -13361.013, 0.0, 10.000254, 9.999262 
6.550139e+2, 2.3502906e+2, -626722.5, -712448.2, 3232.5137, 0.04505652, -0.09985954, -626600.75, 10104.96, 0.0, 10.000417, 9.999277 
6.550155e+2, 2.4502842e+2, -501949.22, -576888.0, 10146.499, 0.050187286, -0.10110647, -500599.72, 38111.63, 0.0, 10.000494, 9.999497 
6.550167e+2, 2.550278e+2, -403043.38, -476750.2, 27493.318, 0.012752611, -0.1169037, -393917.9, 46797.527, 0.0, 10.000493, 9.999513 
6.55018e+2, 2.6502684e+2, -354028.72, -491745.5, 674.179, 0.012467069, -0.12696417, -354025.4, -11300.916, 0.0, 10.000542, 9.9987135 
6.550193e+2, 2.7502543e+2, -240878.72, -384396.06, -19532.834, 0.048119754, -0.14105599, -238267.78, 6471.0254, 0.0, 10.000637, 9.998732 
6.5502065e+2, 2.8502432e+2, -121315.79, -250439.75, 1790.6791, 0.058137786, -0.13624592, -121290.96, 25458.545, 0.0, 10.000674, 9.998962 
6.55022e+2, 2.9502356e+2, -30816.803, -160940.72, 19329.98, 0.04363509, -0.112288006, -28006.04, 20749.865, 0.000000011654482, 10.000644, 9.998919 
6.550233e+2, 3.050217e+2, -25869.748, -221131.1, 1279.5986, 0.04061234, -0.14698341, -25861.363, -25861.363, 0.00000041978168, 10.00072, 9.998135 
6.5502375e+2, 3.1502026e+2, 127332.75, 49787.707, 35090.7, -0.005580386, -0.113248184, 140854.27, 140854.27, 0.000002202322, 10.000925, 9.999895 
6.649955e+2, 1.2503088e+2, -1738722.9, -1737511.6, -110881.42, -0.06041788, -0.09563219, -1627234.1, 87456.08, 0.0, 9.999901, 9.999883 
6.6500056e+2, 1.3503136e+2, -1680006.1, -1655477.0, 97113.05, 0.1144005, -0.046393596, -1569857.1, 46829.984, 0.0, 9.999586, 9.999944 
6.650006e+2, 1.4503153e+2, -1578640.3, -1551470.3, -130.86325, -0.16019882, -0.020141555, -1551469.6, -32784.42, 0.0, 9.999605, 9.999965 
6.650031e+2, 1.5503074e+2, -1417191.9, -1420771.5, -20904.703, 0.020480819, -0.09973112, -1398000.5, 22690.422, 0.0, 10.000034, 9.999982 
6.650046e+2, 1.6503045e+2, -1330138.0, -1366398.9, 14609.38, 0.061402436, -0.11010315, -1324984.4, -2290.9321, 0.0, 10.000124, 9.999639 
6.650053e+2, 1.750306e+2, -1266363.5, -1283803.4, 13695.595, -0.036040746, -0.06145674, -1258847.5, -34154.457, 0.0, 9.999886, 9.999647 
6.650066e+2, 1.8503042e+2, -1169538.8, -1188159.0, 2562.4854, -0.05310026, -0.045056432, -1169192.6, -42497.027, 0.0, 9.999884, 9.999632 
6.6500854e+2, 1.9502987e+2, -1037749.5, -1072730.5, 5015.071, 0.010461577, -0.06501299, -1037044.7, -8343.777, 0.0, 10.000111, 9.999642 
6.650099e+2, 2.0502941e+2, -913882.06, -951835.25, -18.427563, 0.01968066, -0.07895382, -913882.06, 16822.418, 0.0, 10.000242, 9.999737 
6.6501063e+2, 2.1502903e+2, -808851.56, -848915.0, -6463.243, -0.025111642, -0.09351935, -807834.7, 24871.61, 0.0, 10.000286, 9.999748 
6.6501206e+2, 2.250285e+2, -732187.75, -811370.4, 11361.201, -0.01952161, -0.09930856, -730589.9, 4121.0073, 0.0, 10.000354, 9.999301 
6.6501427e+2, 2.3502779e+2, -620247.6, -705083.25, 22563.998, 0.03566238, -0.10452005, -614619.6, 22098.691, 0.0, 10.0004425, 9.999315 
6.65016e+2, 2.450272e+2, -507537.94, -576244.7, 17600.14, 0.048319526, -0.105206475, -503291.84, 35431.465, 0.0, 10.000442, 9.999528 
6.650172e+2, 2.5502676e+2, -422135.0, -482580.75, 3178.5051, 0.01982386, -0.10708964, -421968.3, 18757.516, 0.0, 10.000348, 9.999542 
6.6501856e+2, 2.650257e+2, -365977.63, -503300.34, -9117.149, 0.01782854, -0.12125492, -365374.97, -22639.518, 0.0, 10.000485, 9.998661 
6.650199e+2, 2.7502406e+2, -214543.25, -377453.9, 8298.718, 0.040902752, -0.15553106, -214121.6, 30630.604, 0.0, 10.000843, 9.99868 
6.6502136e+2, 2.8502297e+2, -87293.04, -235679.22, 17838.082, 0.051258873, -0.142626, -85178.78, 61583.75, 0.0, 10.0009165, 9.998946 
6.650228e+2, 2.9502255e+2, -19993.008, -156774.19, -2407.451, 0.04917607, -0.08616358, -19950.646, 28815.488, 0.000000008469742, 10.000724, 9.998907 
6.650239e+2, 3.0502036e+2, -32251.467, -221176.6, -20834.613, 0.038172457, -0.15408333, -29981.115, -29981.115, 0.00000038345433, 10.000664, 9.99816 
6.6502446e+2, 3.150188e+2, 85862.984, 14911.275, 28635.219, -0.012934582, -0.13340129, 95977.83, 95977.83, 0.0000022156387, 10.000703, 9.999763 
6.7499554e+2, 1.250309e+2, -1744644.8, -1751020.1, -125385.97, -0.048756007, 0.02035103, -1622405.9, 92285.96, 0.0, 9.999904, 9.999791 
6.7500025e+2, 1.350296e+2, -1687040.1, -1671367.1, 84448.47, 0.12578155, -0.09581869, -1594392.4, 22313.1, 0.0, 9.999593, 9.999831 
6.7500055e+2, 1.450297e+2, -1574438.3, -1543960.3, 13995.092, -0.1231148, -0.075204186, -1538508.9, -19804.73, 0.0, 9.99961, 10.000014 
6.7500275e+2, 1.5503016e+2, -1413634.6, -1413348.0, -4966.14, -0.018303765, -0.035194717, -1408523.1, 12175.079, 0.0, 10.000033, 10.000033 
6.7500436e+2, 1.6502999e+2, -1333225.0, -1371702.4, 5029.9507, 0.01959858, -0.03444523, -1332578.3, -9879.027, 0.0, 10.000119, 9.999604 
6.750056e+2, 1.7502916e+2, -1268369.8, -1288231.9, 5092.2144, 0.003311114, -0.08063475, -1267140.3, -42432.766, 0.0, 9.9998865, 9.999617 
6.75007e+2, 1.8502872e+2, -1164358.8, -1177245.3, 10709.356, -0.003534174, -0.09061021, -1158303.8, -31591.916, 0.0, 9.999884, 9.999707 
6.750085e+2, 1.9502866e+2, -1032977.4, -1062498.4, 13403.488, -0.0057077487, -0.07089687, -1027799.8, 912.49426, 0.0, 10.000109, 9.999714 
6.7500985e+2, 2.050284e+2, -926444.06, -977003.75, 964.47076, -0.008936044, -0.060241662, -926425.7, 4288.8174, 0.0, 10.000238, 9.999566 
6.7501104e+2, 2.1502797e+2, -820588.6, -873369.0, -4686.1543, -0.010176806, -0.06341297, -820175.8, 12542.51, 0.0, 10.000285, 9.999581 
6.750126e+2, 2.2502737e+2, -711960.3, -768771.75, 14350.729, -0.0048249853, -0.08033951, -708541.06, 26181.896, 0.0, 10.000352, 9.999595 
6.750144e+2, 2.3502663e+2, -599896.4, -662753.75, 26262.826, 0.0070112906, -0.11878747, -590367.8, 46360.836, 0.0, 10.0004425, 9.999606 
6.750161e+2, 2.4502599e+2, -534164.8, -631463.44, 13766.716, 0.02006366, -0.11932349, -532254.5, 6479.718, 0.0, 10.000441, 9.999149 
6.750177e+2, 2.5502548e+2, -448500.22, -537694.9, 15.233205, 0.034856636, -0.08953066, -448500.22, -7760.534, 0.0, 10.000349, 9.999164 
6.750192e+2, 2.6502448e+2, -334609.34, -437866.88, 4334.1235, 0.038336862, -0.10311483, -334427.72, 8321.057, 0.0, 10.0004835, 9.999111 
6.750207e+2, 2.75023e+2, -183909.34, -312293.2, 22046.732, 0.031705976, -0.16545448, -180228.88, 64532.43, 0.0, 10.000836, 9.99913 
6.75022e+2, 2.8502193e+2, -123357.39, -309245.84, 10234.096, 0.029958092, -0.14861494, -122795.66, 23975.791, 0.0, 10.000911, 9.998444 
6.750233e+2, 2.9502133e+2, -55472.836, -229661.56, -9001.912, 0.02981147, -0.05824509, -55008.86, -6229.7217, 0.0000000040864183, 10.000721, 9.998408 
6.750244e+2, 3.0501872e+2, -15464.4795, -185739.42, -18796.37, 0.024910146, -0.15406398, -13414.265, -13414.265, 0.0000003121116, 10.000662, 9.9984045 
6.750254e+2, 3.1501716e+2, 85347.76, 15491.16, 31004.713, 0.0076454743, -0.16124439, 97123.62, 97123.62, 0.0000020914758, 10.000696, 9.999769 
6.849953e+2, 1.2502964e+2, -1799528.8, -1763118.4, -130226.61, -0.0366695, 0.02001044, -1649830.6, 64874.41, 0.0, 9.999466, 9.999919 
6.849998e+2, 1.3502847e+2, -1647557.1, -1641220.1, 92157.0, 0.11241182, -0.09279783, -1552177.1, 64539.445, 0.0, 9.999818, 9.999928 
6.850005e+2, 1.4502868e+2, -1548179.3, -1543649.8, 27546.223, -0.10365123, -0.058590453, -1518275.3, 438.86353, 0.0, 9.9998455, 9.999902 
6.850025e+2, 1.5502892e+2, -1477245.3, -1456694.9, -4077.508, -0.026317216, -0.030367369, -1455915.4, -35204.3, 0.0, 9.999653, 9.999918 
6.850042e+2, 1.6502868e+2, -1389250.8, -1390457.3, 960.5344, 0.007149908, -0.035403848, -1388719.8, -66006.69, 0.0, 9.999701, 9.999677 
6.850056e+2, 1.750279e+2, -1250594.1, -1271639.6, 7734.4785, 0.0142810345, -0.08152921, -1248057.4, -23337.387, 0.0, 9.999974, 9.999688 
6.850071e+2, 1.8502751e+2, -1138082.8, -1162849.9, 16884.393, 0.012031094, -0.0918931, -1129527.5, -2803.9788, 0.0, 10.000056, 9.999722 
6.8500847e+2, 1.9502747e+2, -1052730.3, -1069340.9, 15420.243, -0.0067989095, -0.07273085, -1043520.94, -14797.452, 0.0, 9.999965, 9.999735 
6.8500996e+2, 2.0502715e+2, -962825.06, -1004294.8, 7605.098, -0.010976216, -0.06387145, -961474.4, -30747.998, 0.0, 10.000032, 9.999476 
6.8501145e+2, 2.150266e+2, -830428.06, -888180.9, 6917.9214, 0.0021397802, -0.0705403, -829611.0, 3121.0305, 0.0, 10.000261, 9.999492 
6.8501306e+2, 2.2502604e+2, -705930.06, -755810.3, 17425.084, 0.003648659, -0.08425187, -700445.8, 34290.582, 0.0, 10.000349, 9.999686 
6.8501467e+2, 2.3502548e+2, -614164.94, -658738.8, 13373.835, -0.0061213495, -0.11271935, -610460.2, 26279.37, 0.0, 10.0002985, 9.999703 
6.850164e+2, 2.4502483e+2, -546541.3, -651516.2, 6711.37, 0.003753024, -0.11346209, -546113.94, -7368.709, 0.0, 10.000417, 9.9990225 
6.850182e+2, 2.5502408e+2, -405658.6, -530871.94, 11815.67, 0.032618385, -0.09431324, -404553.38, 36200.152, 0.0, 10.000703, 9.99904 
6.8501985e+2, 2.6502308e+2, -293149.56, -403514.3, 12236.858, 0.03988836, -0.109873295, -291809.06, 50953.71, 0.0, 10.000708, 9.999239 
6.850213e+2, 2.7502176e+2, -232685.19, -321502.72, 4726.321, 0.027930595, -0.16693114, -232434.39, 12338.55, 0.0, 10.000441, 9.999257 
6.850227e+2, 2.8502077e+2, -181845.45, -353086.72, -675.5496, 0.022595234, -0.14297238, -181842.78, -35060.188, 0.0, 10.000577, 9.998302 
6.850241e+2, 2.950201e+2, -9767.83, -222408.94, 6840.206, 0.019921169, -0.04371781, -9548.022, 39243.64, 0.0000000009738006, 10.001099, 9.998276 
6.850252e+2, 3.0501744e+2, 54579.336, -141678.53, -9027.077, 0.01518661, -0.14531149, 54993.67, 54993.67, 0.00000022618863, 10.001098, 9.998498 
6.8502617e+2, 3.15016e+2, 58031.625, -16672.281, 27435.467, 0.022464406, -0.1501909, 67024.83, 67024.83, 0.0000018666766, 10.000591, 9.9995985 
6.949949e+2, 1.2502708e+2, -1774400.1, -1713904.5, -112759.305, -0.024283724, -0.101361066, -1627406.5, 87322.99, 0.0, 9.999476, 10.000253 
6.949992e+2, 1.3502797e+2, -1626593.6, -1596319.4, 103901.555, 0.07090136, -0.038193174, -1506458.1, 110262.13, 0.0, 9.999813, 10.000238 
6.950003e+2, 1.4502853e+2, -1568636.3, -1584536.8, 19040.008, -0.10489997, 0.028366828, -1555953.4, -37238.625, 0.0, 9.999839, 9.999625 
6.950024e+2, 1.5502706e+2, -1495758.8, -1496507.4, -10107.504, -0.0048185987, -0.08553304, -1486018.6, -65289.305, 0.0, 9.999659, 9.999642 
6.95004e+2, 1.6502652e+2, -1377838.4, -1367334.1, 10628.667, 0.022179654, -0.113218814, -1360730.8, -37996.33, 0.0, 9.999702, 9.999834 
6.9500536e+2, 1.7502688e+2, -1240167.1, -1248959.3, 17637.383, -0.0058518583, -0.06409521, -1226386.3, -1655.9365, 0.0, 9.9999695, 9.9998455 
6.9500697e+2, 1.850268e+2, -1141020.6, -1167582.9, 12883.734, -0.009251833, -0.04893817, -1135798.3, -9067.918, 0.0, 10.000051, 9.999693 
6.9500864e+2, 1.950263e+2, -1054800.6, -1073438.0, 12298.448, 0.0066767004, -0.071557045, -1048689.1, -19954.88, 0.0, 9.999963, 9.999707 
6.950102e+2, 2.0502569e+2, -963981.8, -1006697.1, 15638.056, 0.01271741, -0.090934165, -958868.8, -28128.896, 0.0, 10.000032, 9.99946 
6.950118e+2, 2.1502495e+2, -832204.4, -891337.94, 15520.683, 0.010479755, -0.11452782, -828378.25, 4369.081, 0.0, 10.000258, 9.999472 
6.9501334e+2, 2.250245e+2, -713257.25, -770748.94, 15081.0625, 0.0043917433, -0.110721506, -709541.4, 25209.635, 0.0, 10.000347, 9.999584 
6.9501495e+2, 2.3502436e+2, -621361.3, -674024.1, 11686.114, -0.00532613, -0.08621369, -618884.6, 17866.363, 0.0, 10.0002985, 9.9995985 
6.9501674e+2, 2.4502373e+2, -537151.75, -632024.25, 17200.207, -0.0025306435, -0.08784728, -534129.6, 4626.798, 0.0, 10.000417, 9.999156 
6.950187e+2, 2.550226e+2, -396741.94, -511577.78, 22828.713, 0.012782683, -0.12212055, -392370.16, 48397.246, 0.0, 10.0007, 9.999173 
6.950204e+2, 2.6502147e+2, -307184.25, -431812.75, 1956.3906, 0.022279555, -0.14324534, -307153.56, 35623.93, 0.0, 10.000705, 9.999046 
6.9502175e+2, 2.750204e+2, -246864.03, -350534.4, -4859.1294, 0.027336413, -0.15923059, -246636.78, -1849.8685, 0.0, 10.000439, 9.999059 
6.9502336e+2, 2.8501952e+2, -166549.66, -320997.78, 19189.805, 0.026479073, -0.12422744, -164201.1, -17405.371, 0.0, 10.000575, 9.998524 
6.950252e+2, 2.9501888e+2, 5170.3477, -189442.16, 27009.695, 0.017667366, -0.04323309, 8849.394, 57653.15, 0.000000000021633938, 10.00109, 9.998507 
6.950262e+2, 3.050165e+2, 49402.992, -150486.92, -28765.691, 0.007803879, -0.12936072, 53460.246, 53460.246, 0.00000014519733, 10.00109, 9.998441 
6.950268e+2, 3.1501535e+2, 32296.797, -68100.3, 7665.0244, 0.026536386, -0.09204755, 32878.63, 32878.63, 0.0000015881137, 10.000584, 9.9992485 
7.0499444e+2, 1.2502567e+2, -1742697.8, -1689713.4, -97721.836, -0.028261356, -0.11153546, -1614956.4, 99786.59, 0.0, 9.999657, 10.000332 
7.049988e+2, 1.3502654e+2, -1673399.1, -1615473.0, 88179.836, 0.06041783, -0.052790333, -1551621.5, 65111.99, 0.0, 9.99948, 10.000266 
7.050002e+2, 1.4502725e+2, -1627608.5, -1610510.3, 2076.9734, -0.07567764, 0.025141872, -1610261.6, -91535.08, 0.0, 9.999424, 9.999646 
7.0500207e+2, 1.5502578e+2, -1502111.4, -1497460.1, -3922.7346, 0.00049195875, -0.08983056, -1495225.4, -74483.75, 0.0, 9.999607, 9.9996605 
7.050037e+2, 1.6502528e+2, -1371705.1, -1364261.3, 29055.127, 0.01619293, -0.115381315, -1338690.6, -15943.965, 0.0, 9.999745, 9.999834 
7.050052e+2, 1.750257e+2, -1259912.9, -1257978.3, 23801.29, -0.010367648, -0.061074425, -1235124.6, -10382.717, 0.0, 9.999834, 9.999847 
7.0500696e+2, 1.8502559e+2, -1154479.5, -1174622.5, 9722.959, -0.008475649, -0.046981316, -1150552.0, -23809.998, 0.0, 9.999962, 9.999686 
7.0500875e+2, 1.9502501e+2, -1030992.1, -1063347.9, 9350.539, 0.01605243, -0.07736486, -1028484.3, 262.47467, 0.0, 10.000132, 9.999696 
7.0501035e+2, 2.0502439e+2, -937899.1, -991269.8, 17666.633, 0.018404137, -0.097102, -932581.06, -1828.8529, 0.0, 10.000198, 9.999487 
7.050119e+2, 2.1502374e+2, -843146.9, -893051.44, 20616.043, 0.00075941073, -0.114347644, -835731.94, -2973.4412, 0.0, 10.000169, 9.999502 
7.0501363e+2, 2.2502327e+2, -732351.1, -793283.94, 22130.914, -0.0050872187, -0.10974953, -725161.44, 9601.209, 0.0, 10.000275, 9.999464 
7.050154e+2, 2.3502298e+2, -598060.4, -676215.3, 16881.346, -0.00012937174, -0.088879496, -594569.94, 42194.69, 0.0, 10.000517, 9.999478 
7.0501727e+2, 2.450223e+2, -510235.78, -609093.8, 19627.176, 0.0016223501, -0.09313801, -506481.56, 32288.875, 0.0, 10.000559, 9.999246 
7.050192e+2, 2.550212e+2, -432924.53, -519012.1, 20898.824, 0.0009850707, -0.1293889, -428119.28, 12660.868, 0.0, 10.000408, 9.999263 
7.0502084e+2, 2.6502013e+2, -346270.06, -464684.78, -218.55582, 0.009890111, -0.14553203, -346269.66, -3479.5903, 0.0, 10.000496, 9.99892 
7.0502234e+2, 2.7501908e+2, -200457.86, -341657.06, -1937.1056, 0.029074028, -0.14911856, -200431.3, 44369.02, 0.0, 10.000816, 9.998938 
7.0502406e+2, 2.8501815e+2, -126140.22, -280242.34, 25389.93, 0.031662732, -0.12264084, -122064.75, 24744.777, 0.0, 10.000761, 9.998714 
7.0502585e+2, 2.9501742e+2, -88695.06, -212815.72, 30460.672, 0.016271852, -0.07111864, -81622.64, -32805.008, 0.0, 10.000351, 9.998702 
7.05027e+2, 3.050154e+2, -22162.936, -176585.2, -17291.273, -0.00051945343, -0.13322487, -20250.45, -20250.45, 0.00000008201181, 10.000563, 9.998515 
7.050278e+2, 3.150146e+2, 133910.4, -38166.547, 25434.295, 0.028445, -0.06824287, 137591.06, 137591.06, 0.0000012936833, 10.001362, 9.999081 
7.149939e+2, 1.2502542e+2, -1755432.0, -1716955.3, -96230.43, -0.04963012, -0.014620402, -1638059.0, 76686.27, 0.0, 9.999658, 10.000146 
7.149984e+2, 1.3502423e+2, -1689725.3, -1651402.6, 81413.66, 0.07771625, -0.13671514, -1586925.9, 29829.912, 0.0, 9.999489, 10.000015 
7.150003e+2, 1.4502485e+2, -1605856.8, -1565996.8, 6690.431, -0.019746872, -0.06875335, -1564903.6, -46154.285, 0.0, 9.999428, 9.999949 
7.150015e+2, 1.550251e+2, -1481508.5, -1453584.5, 2986.3372, -0.01309679, -0.043490287, -1453268.8, -32520.852, 0.0, 9.999602, 9.999964 
7.1500313e+2, 1.6502495e+2, -1382482.5, -1385485.6, 32630.705, -0.013366065, -0.042749926, -1351318.9, -28569.303, 0.0, 9.99974, 9.999691 
7.1500516e+2, 1.7502436e+2, -1269560.1, -1278651.6, 27917.533, 0.000002208311, -0.0731449, -1245820.8, -21066.057, 0.0, 9.999836, 9.999705 
7.150071e+2, 1.850239e+2, -1154745.1, -1175208.8, 15569.533, 0.01287277, -0.086629815, -1146346.3, -19587.97, 0.0, 9.999962, 9.999682 
7.150089e+2, 1.9502361e+2, -1031948.44, -1064190.0, 15605.262, 0.01897665, -0.08909415, -1025632.56, 3128.1982, 0.0, 10.000126, 9.999693 
7.1501046e+2, 2.050233e+2, -932876.75, -980265.8, 15937.95, 0.004297866, -0.08139217, -928015.2, 2747.8708, 0.0, 10.0001955, 9.999565 
7.150118e+2, 2.1502301e+2, -838027.9, -882153.0, 19569.48, -0.027818533, -0.07044345, -830599.4, 2166.0466, 0.0, 10.000167, 9.999578 
7.150137e+2, 2.2502236e+2, -741398.9, -812222.9, 30602.605, -0.025846686, -0.081693016, -730007.75, 4763.4136, 0.0, 10.000275, 9.999334 
7.1501607e+2, 2.3502134e+2, -607643.44, -695637.06, 26222.064, 0.008571973, -0.120642394, -600421.94, 36358.453, 0.0, 10.000515, 9.999346 
7.150179e+2, 2.4502055e+2, -507503.38, -603036.75, 13609.466, 0.015199377, -0.12935407, -505602.4, 33184.754, 0.0, 10.000557, 9.999288 
7.1501946e+2, 2.5502002e+2, -430357.22, -513682.38, 15475.876, -0.004603261, -0.11549935, -427575.75, 13215.966, 0.0, 10.000408, 9.9993 
7.1502125e+2, 2.6501912e+2, -349566.5, -471739.94, 11806.014, 0.0009542127, -0.11625707, -348436.1, -5635.6733, 0.0, 10.000497, 9.998872 
7.150232e+2, 2.750178e+2, -204229.3, -348502.44, 10413.333, 0.031926896, -0.13741696, -203481.56, 41331.613, 0.0, 10.000813, 9.998894 
7.150249e+2, 2.8501666e+2, -115629.62, -257290.66, 9478.421, 0.036786325, -0.1392246, -114998.24, 31825.84, 0.0, 10.000757, 9.998875 
7.1502626e+2, 2.950157e+2, -77799.85, -189358.97, 15783.439, 0.013614274, -0.1260691, -75609.8, -26776.7, 0.0, 10.000348, 9.998864 
7.150274e+2, 3.0501416e+2, -7836.838, -146541.08, 12990.85, -0.011653616, -0.15579487, -6630.6226, -6630.6226, 0.00000004119849, 10.000561, 9.998723 
7.150291e+2, 3.1501383e+2, 132072.52, -39289.223, 54506.027, 0.023622997, -0.06782792, 147940.25, 147940.25, 0.0000010048329, 10.00135, 9.999079 
7.249935e+2, 1.2502414e+2, -1789489.3, -1725317.9, -105911.586, -0.040799852, 0.0038261646, -1646738.5, 68019.36, 0.0, 9.999387, 10.00022 
7.2499776e+2, 1.3502264e+2, -1689646.5, -1651401.9, 79462.5, 0.061105702, -0.1485314, -1588793.3, 27977.77, 0.0, 9.999492, 10.000012 
7.249999e+2, 1.4502329e+2, -1589653.9, -1558887.4, 9806.033, -0.005396351, -0.07920869, -1556027.8, -37263.25, 0.0, 9.999542, 9.999942 
7.250012e+2, 1.550237e+2, -1476841.6, -1452466.8, -16976.246, -0.01016473, -0.036387313, -1443756.1, -22994.447, 0.0, 9.9996395, 9.999952 
7.250028e+2, 1.6502358e+2, -1384121.0, -1381051.9, 6033.5767, -0.015544787, -0.03255794, -1376360.8, -53597.71, 0.0, 9.999706, 9.999738 
7.2500503e+2, 1.7502293e+2, -1279448.6, -1278554.5, 14672.864, 0.0020396747, -0.07364147, -1264321.9, -39553.258, 0.0, 9.999746, 9.999749 
7.2500706e+2, 1.850225e+2, -1175797.0, -1186874.6, 12351.381, 0.016258018, -0.08754617, -1167799.4, -41027.098, 0.0, 9.999824, 9.999669 
7.250089e+2, 1.9502226e+2, -1060075.6, -1078840.1, 11849.915, 0.018601138, -0.081432946, -1054343.4, -25569.371, 0.0, 9.999939, 9.999681 
7.250106e+2, 2.0502196e+2, -951991.8, -988354.7, 6880.6147, 0.005301056, -0.075683445, -950733.44, -19957.023, 0.0, 10.00006, 9.999574 
7.25012e+2, 2.1502155e+2, -834461.7, -879614.25, 4450.1567, -0.020263279, -0.07619713, -834027.25, -1247.7928, 0.0, 10.000187, 9.999586 
7.25014e+2, 2.2502087e+2, -737315.2, -803382.1, 24225.08, -0.020210637, -0.09166058, -729384.5, 5400.5854, 0.0, 10.000274, 9.999395 
7.250164e+2, 2.3501994e+2, -630575.56, -699511.6, 33694.086, 0.0042347712, -0.12876672, -616842.6, 19950.684, 0.0, 10.000326, 9.99941 
7.2501844e+2, 2.450192e+2, -531545.7, -618046.3, 19959.22, 0.012276071, -0.13636716, -527162.4, 11637.431, 0.0, 10.000407, 9.999257 
7.2502005e+2, 2.5501862e+2, -416885.03, -510207.5, 16426.592, 0.0046041417, -0.12146795, -414078.06, 26726.7, 0.0, 10.000514, 9.999273 
7.2502184e+2, 2.6501775e+2, -333425.94, -455630.1, 22456.396, 0.007841186, -0.120749556, -329430.0, 13383.106, 0.0, 10.000572, 9.998947 
7.250238e+2, 2.7501655e+2, -231555.47, -353528.38, 29390.26, 0.022334546, -0.14053656, -224843.08, 19981.791, 0.0, 10.000588, 9.998967 
7.2502553e+2, 2.850153e+2, -126760.62, -273994.13, 14769.393, 0.02637125, -0.14775397, -125293.67, 21542.717, 0.0, 10.000729, 9.998774 
7.250269e+2, 2.9501417e+2, 8882.024, -158527.61, 1239.0125, 0.017683465, -0.14562832, 8891.194, 57738.7, 0.0, 10.00099, 9.998767 
7.250282e+2, 3.050129e+2, 60771.926, -98041.266, -1764.8901, -0.010589942, -0.15078284, 60791.54, 60791.54, 0.000000018939705, 10.000966, 9.998861 
7.2503006e+2, 3.150123e+2, 33804.18, -82940.414, 31786.096, 0.018253878, -0.10147397, 41897.52, 41897.52, 0.0000007295325, 10.000659, 9.999112 
7.349932e+2, 1.2502182e+2, -1767113.0, -1679017.5, -91821.88, -0.0081954645, -0.05864563, -1621224.9, 93556.055, 0.0, 9.999386, 10.000539 
7.349967e+2, 1.3502179e+2, -1672675.6, -1615187.1, 82193.95, 0.008909481, -0.088409, -1556856.3, 59922.805, 0.0, 9.999488, 10.000262 
7.349991e+2, 1.4502253e+2, -1611632.9, -1604053.6, 12540.689, -0.03444408, -0.007208618, -1594742.5, -75970.695, 0.0, 9.99954, 9.999634 
7.35001e+2, 1.5502158e+2, -1498070.0, -1498134.3, -12273.658, 0.006966116, -0.06908927, -1485828.4, -65045.445, 0.0, 9.999646, 9.999636 
7.3500276e+2, 1.6502121e+2, -1368690.9, -1349304.3, 7041.4346, 0.006597532, -0.08535367, -1347016.8, -24229.709, 0.0, 9.999707, 9.999955 
7.3500466e+2, 1.7502144e+2, -1264216.0, -1246328.9, 16169.249, -0.0058680973, -0.061331227, -1236794.5, -12010.706, 0.0, 9.999744, 9.999972 
7.350067e+2, 1.8502137e+2, -1176840.9, -1188494.6, 16297.091, 0.00006657365, -0.04925462, -1165360.3, -38576.688, 0.0, 9.99982, 9.99966 
7.350088e+2, 1.95021e+2, -1060780.1, -1080453.1, 16273.849, 0.014037174, -0.055010915, -1051601.0, -22814.47, 0.0, 9.999939, 9.999671 
7.350108e+2, 2.0502034e+2, -956437.94, -997584.7, 11089.079, 0.019834097, -0.080269404, -953639.75, -22847.688, 0.0, 10.000059, 9.999511 
7.3501265e+2, 2.1501938e+2, -839406.2, -889121.6, 9274.492, 0.021633804, -0.13089581, -837732.4, -4931.968, 0.0, 10.000184, 9.999523 
7.3501456e+2, 2.2501887e+2, -719671.25, -766465.9, 25512.81, 0.010505882, -0.1389354, -708451.56, 26352.53, 0.0, 10.000272, 9.99965 
7.350165e+2, 2.3501883e+2, -612761.06, -662630.06, 35716.68, -0.014185996, -0.11273376, -594136.3, 42666.98, 0.0, 10.000326, 9.999664 
7.350186e+2, 2.4501821e+2, -537993.1, -631517.0, 23666.508, -0.0084803, -0.11404558, -532345.3, 6463.027, 0.0, 10.000407, 9.999165 
7.350208e+2, 2.550171e+2, -423580.63, -523353.8, 20658.328, 0.026969282, -0.14756887, -419472.4, 21346.777, 0.0, 10.000511, 9.999185 
7.3502266e+2, 2.650161e+2, -320058.28, -427382.16, 22915.986, 0.029002167, -0.15934189, -315370.0, 27458.031, 0.0, 10.00057, 9.999143 
7.3502415e+2, 2.7501532e+2, -218547.81, -326415.06, 30383.668, -0.000672796, -0.15703458, -210578.25, 34256.938, 0.0, 10.000588, 9.999154 
7.35026e+2, 2.850142e+2, -151125.89, -324375.78, 24677.473, -0.0007262746, -0.14711025, -147679.42, -833.1864, 0.0, 10.000728, 9.998427 
7.35028e+2, 2.9501283e+2, -16349.758, -209091.13, 12072.631, 0.025986977, -0.13122836, -15596.516, 33264.266, 0.0, 10.000982, 9.998424 
7.350293e+2, 3.050116e+2, 63754.2, -90563.13, -13258.9795, -0.0005508194, -0.11985683, 64885.125, 64885.125, 0.0000000073965225, 10.00096, 9.998916 
7.3503065e+2, 3.150102e+2, 34927.29, -78714.66, 18713.17, 0.00750786, -0.15591714, 37929.434, 37929.434, 0.0000004773962, 10.000651, 9.999145 
7.449928e+2, 1.2502009e+2, -1735324.5, -1665304.0, -70762.96, -0.0024599594, -0.07688735, -1621364.1, 93432.71, 0.0, 9.999612, 10.000523 
7.449959e+2, 1.350202e+2, -1699663.6, -1638160.4, 63094.355, -0.009143453, -0.08399375, -1598722.5, 18071.844, 0.0, 9.999348, 10.000172 
7.4499863e+2, 1.450209e+2, -1645953.8, -1614812.8, 4073.3782, -0.02286593, -0.0029670987, -1614288.8, -95501.414, 0.0, 9.999278, 9.999686 
7.450007e+2, 1.5501975e+2, -1512146.5, -1499168.4, 8025.13, 0.023151323, -0.09146697, -1495337.0, -74536.92, 0.0, 9.999524, 9.999688 
7.450025e+2, 1.650194e+2, -1370063.5, -1354006.3, 29355.205, 0.01502278, -0.106386475, -1331601.5, -8797.499, 0.0, 9.999716, 9.999919 
7.4500436e+2, 1.7501986e+2, -1252534.8, -1245221.8, 18429.371, -0.017197244, -0.05380704, -1230089.6, -5290.3916, 0.0, 9.999844, 9.999931 
7.4500644e+2, 1.8501987e+2, -1154619.4, -1168455.1, 13075.336, -0.014336064, -0.03785512, -1146744.6, -19946.133, 0.0, 9.999932, 9.999743 
7.4500877e+2, 1.9501938e+2, -1047982.1, -1065199.4, 19349.63, 0.01209293, -0.06422236, -1035412.5, -6610.579, 0.0, 9.999987, 9.999753 
7.4501085e+2, 2.0501867e+2, -958049.6, -997630.44, 21072.158, 0.02578756, -0.09702721, -948931.6, -18124.158, 0.0, 10.000045, 9.999517 
7.450129e+2, 2.1501778e+2, -849889.7, -893187.94, 24078.383, 0.030762956, -0.14311987, -839159.0, -6343.695, 0.0, 10.000108, 9.999531 
7.450149e+2, 2.2501732e+2, -733537.06, -773132.5, 33080.78, 0.017737607, -0.14725722, -714782.4, 20036.244, 0.0, 10.000176, 9.999651 
7.450169e+2, 2.350173e+2, -624343.1, -667972.1, 23525.12, -0.0141837755, -0.11701306, -614074.9, 22742.697, 0.0, 10.000246, 9.999665 
7.4501896e+2, 2.4501671e+2, -538248.6, -625073.7, 11294.674, -0.012122532, -0.119857624, -536803.44, 2019.1128, 0.0, 10.000378, 9.999223 
7.450213e+2, 2.5501555e+2, -410747.2, -510953.7, 18657.96, 0.023268167, -0.16026007, -407385.9, 33447.395, 0.0, 10.000572, 9.99924 
7.4502325e+2, 2.6501468e+2, -310287.16, -428621.97, 11956.467, 0.025933772, -0.16616623, -309091.16, 33750.586, 0.0, 10.000662, 9.99909 
7.450248e+2, 2.75014e+2, -212057.66, -329056.47, 774.38995, -0.0022028098, -0.14560376, -212052.53, 32795.61, 0.0, 10.000657, 9.999103 
7.450267e+2, 2.8501284e+2, -151148.48, -319118.63, 7730.025, 0.0010356827, -0.14028144, -150793.48, -3933.791, 0.0, 10.000705, 9.998475 
7.45029e+2, 2.9501122e+2, -39508.926, -215109.83, 23872.025, 0.032982405, -0.15164638, -36321.504, 12554.543, 0.0, 10.0008, 9.99847 
7.450303e+2, 3.0501023e+2, 59031.277, -114198.28, -333.73193, 0.002852037, -0.11133054, 59031.918, 59031.918, 0.0000000015345106, 10.00102, 9.998724 
7.450316e+2, 3.1500846e+2, 134307.89, -43306.105, 8645.618, 0.007436856, -0.1640853, 134727.73, 134727.73, 0.00000026410652, 10.001389, 9.999032 
7.549921e+2, 1.2501895e+2, -1762593.1, -1722071.6, -69268.84, -0.030901255, -0.052331567, -1670161.3, 44644.297, 0.0, 9.999612, 10.0001335 
7.549954e+2, 1.3501786e+2, -1730817.6, -1702890.4, 52115.55, 0.0038674192, -0.1360457, -1662900.3, -46083.363, 0.0, 9.999348, 9.999727 
7.549984e+2, 1.4501843e+2, -1617037.9, -1554295.9, 11538.214, 0.026265807, -0.06663403, -1552241.4, -33430.133, 0.0, 9.999277, 10.000103 
7.550004e+2, 1.5501823e+2, -1482161.5, -1436961.4, 17644.25, 0.037791654, -0.10215643, -1430889.5, -10076.5205, 0.0, 9.999524, 10.000115 
7.550022e+2, 1.6501817e+2, -1390194.1, -1395898.0, 33988.266, 0.008168513, -0.09566875, -1358938.4, -36124.23, 0.0, 9.999716, 9.999632 
7.5500405e+2, 1.7501825e+2, -1272773.4, -1288117.4, 23427.258, -0.033590768, -0.052356392, -1255793.9, -30979.111, 0.0, 9.999846, 9.999637 
7.5500625e+2, 1.85018e+2, -1142970.6, -1143791.3, 14635.865, -0.029481925, -0.05442817, -1128739.4, -1922.5757, 0.0, 9.99993, 9.999914 
7.5500876e+2, 1.9501741e+2, -1036269.4, -1040485.8, 21456.373, 0.012064859, -0.10833586, -1016817.9, 12002.214, 0.0, 9.999985, 9.999924 
7.550109e+2, 2.05017e+2, -952822.44, -986525.56, 22705.727, 0.022658195, -0.125542, -941398.1, -10575.627, 0.0, 10.000044, 9.999595 
7.5501275e+2, 2.1501675e+2, -844488.56, -881787.8, 26221.092, 0.0057829376, -0.113002986, -830961.3, 1862.7692, 0.0, 10.000107, 9.999611 
7.550149e+2, 2.2501622e+2, -751311.5, -809495.0, 35156.754, -0.00049095746, -0.11653457, -734770.75, 57.84065, 0.0, 10.0001745, 9.999402 
7.550173e+2, 2.3501539e+2, -642293.75, -704680.06, 26192.045, 0.0030488747, -0.14190651, -632755.6, 4080.4822, 0.0, 10.000244, 9.999414 
7.550195e+2, 2.450147e+2, -524129.7, -595370.8, 18336.434, 0.00057864684, -0.1538047, -519687.2, 19155.008, 0.0, 10.000376, 9.999428 
7.550216e+2, 2.550141e+2, -396894.94, -482085.5, 26129.17, -0.0073541193, -0.15874153, -389519.3, 51327.61, 0.0, 10.000571, 9.999439 
7.550236e+2, 2.650134e+2, -330819.8, -470838.66, 11581.909, -0.0025250197, -0.1407314, -329868.25, 12985.751, 0.0, 10.00066, 9.9988 
7.550256e+2, 2.7501258e+2, -232688.17, -370571.13, 1343.4724, 0.015390865, -0.108117506, -232675.08, 12188.556, 0.0, 10.000651, 9.99882 
7.550277e+2, 2.850112e+2, -121823.95, -257507.66, 11666.998, 0.02916048, -0.12856992, -120828.055, 26048.666, 0.0, 10.000701, 9.9989 
7.550298e+2, 2.950094e+2, -10413.925, -154272.4, 28195.008, 0.036760535, -0.20255242, -5085.3237, 43807.5, 0.0, 10.000798, 9.99889 
7.550312e+2, 3.0500883e+2, 29761.389, -174417.67, 13033.139, -0.002461269, -0.12067831, 30589.957, 30589.957, 0.00000000001992495, 10.001019, 9.998311 
7.550331e+2, 3.1500718e+2, 113417.11, -82944.93, 21380.994, 0.012792639, -0.12080413, 115718.23, 115718.23, 0.000000109993245, 10.001373, 9.998767 
7.649915e+2, 1.2501709e+2, -1814200.6, -1741548.9, -93857.71, -0.03116867, -0.05553689, -1677232.6, 37590.57, 0.0, 9.999232, 10.000185 
7.649948e+2, 1.3501583e+2, -1732967.9, -1704980.3, 46145.89, 0.007429898, -0.15528676, -1670753.0, -53916.695, 0.0, 9.999338, 9.999717 
7.6499796e+2, 1.4501643e+2, -1591816.4, -1535026.1, 20785.404, 0.05056979, -0.085383415, -1528231.5, -9401.123, 0.0, 9.999419, 10.000167 
7.649999e+2, 1.5501654e+2, -1469596.0, -1424275.4, 85.43083, 0.03524756, -0.094429806, -1424275.1, -3446.461, 0.0, 9.99958, 10.000175 
7.6500183e+2, 1.6501652e+2, -1396768.4, -1403073.5, 8579.193, 0.00095534686, -0.08718745, -1390780.9, -67951.16, 0.0, 9.999685, 9.9995985 
7.650039e+2, 1.7501633e+2, -1290507.0, -1300207.4, 16961.57, -0.02450879, -0.06800615, -1277715.8, -52882.44, 0.0, 9.99974, 9.999605 
7.6500624e+2, 1.8501605e+2, -1157940.0, -1149408.6, 12273.928, -0.019981323, -0.0718661, -1140680.3, -13844.546, 0.0, 9.999821, 9.999928 
7.650086e+2, 1.9501565e+2, -1044333.44, -1043042.9, 7026.4585, 0.00582309, -0.10655647, -1036632.1, -7794.982, 0.0, 9.999924, 9.999936 
7.650108e+2, 2.0501532e+2, -948633.56, -982655.44, 2595.9565, 0.010192816, -0.11858366, -948436.6, -17597.777, 0.0, 10.000064, 9.999612 
7.650128e+2, 2.15015e+2, -823994.44, -870090.25, 727.6219, -0.0041488344, -0.1146229, -823983.0, 8857.891, 0.0, 10.00024, 9.999626 
7.6501507e+2, 2.250144e+2, -726661.9, -801412.06, 13546.605, -0.0053826883, -0.12251218, -724282.6, 10563.232, 0.0, 10.0003605, 9.999367 
7.6501757e+2, 2.3501354e+2, -618756.0, -697719.1, 19882.281, 0.005264414, -0.14795019, -614032.4, 22821.465, 0.0, 10.000424, 9.999375 
7.650199e+2, 2.4501285e+2, -515934.9, -593019.5, 12827.094, 0.0018578152, -0.15720828, -513856.5, 25003.582, 0.0, 10.000439, 9.9994135 
7.65022e+2, 2.550123e+2, -421187.13, -495264.34, 3770.9229, -0.0153234005, -0.15737218, -420995.66, 19868.916, 0.0, 10.000411, 9.999425 
7.650241e+2, 2.6501164e+2, -350477.28, -475077.66, -5373.7666, -0.010770201, -0.1388995, -350245.94, -7374.4375, 0.0, 10.000504, 9.998846 
7.6502633e+2, 2.7501076e+2, -221983.95, -360410.1, 8248.462, 0.016211009, -0.11031739, -221494.17, 23386.9, 0.0, 10.000704, 9.998864 
7.650284e+2, 2.8500944e+2, -109399.31, -250246.81, 14067.68, 0.033357088, -0.13225411, -108007.99, 38886.094, 0.0, 10.00078, 9.998912 
7.6503056e+2, 2.9500765e+2, -14672.061, -155295.0, -975.36163, 0.038368493, -0.20462008, -14665.296, 34244.758, 0.0, 10.000764, 9.998899 
7.6503223e+2, 3.0500725e+2, 11361.6, -180487.1, -5649.279, -0.0012068748, -0.10403122, 11527.808, 11527.808, 0.0, 10.000879, 9.998336 
7.6503444e+2, 3.150054e+2, 90723.16, -66033.59, 32709.742, 0.023140827, -0.13100448, 97274.734, 97274.734, 0.000000028836135, 10.001095, 9.999018 
7.74991e+2, 1.2501454e+2, -1780792.6, -1670633.4, -77636.445, -0.010805604, -0.082613006, -1630522.8, 84326.42, 0.00000000003061157, 9.999225, 10.000675 
7.749941e+2, 1.3501412e+2, -1703008.5, -1642298.3, 49196.023, -0.000603334, -0.14114654, -1614846.1, 2006.431, 0.0, 9.999337, 10.000147 
7.7499735e+2, 1.4501493e+2, -1611676.6, -1576915.1, 25227.018, 0.046668008, -0.05972462, -1563661.0, -44816.45, 0.0, 9.999421, 9.999878 
7.749993e+2, 1.5501472e+2, -1490276.9, -1468239.5, 6489.128, 0.013621777, -0.07004368, -1466470.8, -45623.34, 0.0, 9.999584, 9.999873 
7.750014e+2, 1.6501445e+2, -1381804.9, -1371446.3, 9953.765, -0.008745062, -0.08201442, -1365404.9, -42554.266, 0.0, 9.999683, 9.999816 
7.7500397e+2, 1.7501411e+2, -1274789.8, -1267231.4, 19084.396, 0.009132261, -0.09984294, -1251555.6, -26701.195, 0.0, 9.999739, 9.999832 
7.7500635e+2, 1.8501402e+2, -1167998.8, -1169594.3, 15762.285, 0.01240664, -0.08990199, -1153014.0, -26159.049, 0.0, 9.999817, 9.999792 
7.7500844e+2, 1.9501415e+2, -1054393.0, -1063760.9, 10904.443, -0.007891809, -0.059023824, -1047209.06, -18356.234, 0.0, 9.999922, 9.999795 
7.750107e+2, 2.0501366e+2, -952255.56, -989301.44, 8465.537, -0.013660826, -0.07645062, -950412.75, -19556.422, 0.0, 10.00006, 9.999568 
7.7501315e+2, 2.1501252e+2, -827784.25, -877437.44, 7174.7124, -0.00008139508, -0.14818792, -826768.3, 6097.248, 0.0, 10.000238, 9.999577 
7.750155e+2, 2.2501191e+2, -714618.6, -776112.56, 15312.691, 0.0019915912, -0.1655791, -711016.6, 23853.7, 0.0, 10.00036, 9.999541 
7.7501786e+2, 2.350118e+2, -606482.5, -672190.8, 22398.86, -0.008578141, -0.13489541, -599573.5, 37297.11, 0.0, 10.000424, 9.999552 
7.750202e+2, 2.450112e+2, -532462.9, -626699.56, 11366.346, -0.010011952, -0.13002159, -531111.3, 7764.6084, 0.0, 10.000436, 9.999184 
7.750225e+2, 2.5501016e+2, -437592.47, -528496.94, 3084.5415, -0.002352568, -0.15724595, -437487.94, 3398.2212, 0.0, 10.000408, 9.999199 
7.750247e+2, 2.650093e+2, -324991.72, -421485.4, 2393.652, 0.00006525745, -0.16078886, -324932.38, 17961.723, 0.0, 10.0005, 9.999216 
7.750268e+2, 2.750087e+2, -196779.08, -307745.5, 16325.98, -0.0017293199, -0.14832824, -194426.97, 50473.066, 0.0, 10.000702, 9.999228 
7.7502906e+2, 2.8500757e+2, -135773.3, -304847.72, 12922.185, 0.011050257, -0.14870922, -134791.36, 12120.041, 0.0, 10.000779, 9.998538 
7.750314e+2, 2.9500598e+2, -42480.973, -211354.58, -304.819, 0.036088437, -0.16345303, -42480.42, 6447.514, 0.0, 10.000756, 9.998518 
7.750331e+2, 3.0500558e+2, 41392.8, -116457.61, 3729.5544, 0.005325713, -0.0651649, 41480.87, 41480.87, 0.0, 10.000872, 9.998779 
7.7503556e+2, 3.1500325e+2, 140153.94, 38309.56, 39478.875, 0.031142078, -0.1855499, 153665.06, 153665.06, 0.0000000029769756, 10.001088, 9.999739 
7.849903e+2, 1.2501225e+2, -1789562.4, -1668867.6, -46731.84, 0.0031136114, -0.09769717, -1652888.9, 61982.69, 0.0000000009851104, 9.99914, 10.000729 
7.849933e+2, 1.3501213e+2, -1688561.3, -1634491.3, 33299.805, -0.013441576, -0.124766484, -1618633.8, -1761.7543, 0.0, 9.9994335, 10.0001545 
7.849968e+2, 1.4501293e+2, -1601105.8, -1577150.5, -1652.3551, 0.04340157, -0.043683723, -1577037.1, -58172.62, 0.0, 9.999515, 9.999833 
7.8499883e+2, 1.550125e+2, -1507975.5, -1481725.0, -842.91174, 0.010158202, -0.070626765, -1481698.0, -60828.36, 0.0, 9.999484, 9.999829 
7.8500104e+2, 1.6501223e+2, -1397476.6, -1373552.4, 8756.827, -0.009415123, -0.08400738, -1370689.8, -47816.715, 0.0, 9.999553, 9.999865 
7.850038e+2, 1.7501208e+2, -1273811.0, -1261759.0, 3742.1328, 0.014670037, -0.08708749, -1260691.6, -35817.19, 0.0, 9.9997225, 9.999877 
7.850062e+2, 1.85012e+2, -1168540.0, -1181178.1, -4342.308, 0.017851481, -0.07403401, -1167191.9, -40316.63, 0.0, 9.999861, 9.999692 
7.850084e+2, 1.9501193e+2, -1054067.5, -1074369.3, -6729.3213, -0.010922942, -0.051476642, -1052039.6, -23164.05, 0.0, 9.999971, 9.999699 
7.850107e+2, 2.0501141e+2, -945861.4, -976568.3, -1403.207, -0.018842103, -0.071552955, -945797.44, -14918.026, 0.0, 10.000064, 9.999653 
7.850133e+2, 2.150104e+2, -836455.2, -872524.8, 6770.5483, -0.00055906153, -0.14010094, -835226.2, -2339.2976, 0.0, 10.000139, 9.999659 
7.850158e+2, 2.2500984e+2, -732123.56, -784381.2, 12875.601, 0.0012337633, -0.15612942, -729123.44, 5767.4624, 0.0, 10.000239, 9.999542 
7.850182e+2, 2.350097e+2, -614026.4, -675381.44, 5721.9634, -0.015679838, -0.12679562, -613497.3, 23394.164, 0.0, 10.000372, 9.999554 
7.8502065e+2, 2.4500906e+2, -529230.94, -621125.56, -5736.789, -0.013454368, -0.12914069, -528874.2, 10022.898, 0.0, 10.0004425, 9.999219 
7.8502303e+2, 2.5500792e+2, -430191.63, -521365.44, 5001.2573, 0.007992047, -0.16862, -429918.13, 10989.63, 0.0, 10.000443, 9.99923 
7.8502524e+2, 2.6500714e+2, -323026.38, -419308.5, 8142.075, 0.006795519, -0.1705013, -322342.72, 20572.484, 0.0, 10.000508, 9.999228 
7.850273e+2, 2.7500668e+2, -202661.11, -309394.4, -5311.085, -0.01633359, -0.14238742, -202397.48, 42522.223, 0.0, 10.000657, 9.999238 
7.850296e+2, 2.850055e+2, -138313.17, -308665.0, -14574.671, -0.0072909486, -0.14354418, -137075.22, 9856.141, 0.0, 10.000773, 9.998514 
7.850321e+2, 2.9500374e+2, -33637.645, -209975.75, -2159.571, 0.03332175, -0.17683965, -33611.203, 15338.829, 0.0, 10.00083, 9.998491 
7.8503406e+2, 3.0500335e+2, 29614.836, -137209.88, -741.84564, 0.0060413694, -0.06950423, 29618.135, 29618.135, 0.0, 10.000856, 9.998645 
7.8503656e+2, 3.1500122e+2, 122133.63, 45594.277, -13125.296, 0.025086213, -0.15297437, 124321.85, 124321.85, 0.0, 10.000895, 9.999882 
7.9498947e+2, 1.2501024e+2, -1816872.8, -1726626.0, -24754.484, -0.0006183486, -0.09837458, -1720281.9, -5391.982, 0.0000000034592607, 9.999143, 10.000331 
7.9499257e+2, 1.3500988e+2, -1717449.9, -1695288.5, 43558.06, -0.032310724, -0.10704658, -1661423.9, -44529.4, 0.0, 9.999436, 9.999737 
7.949963e+2, 1.4501046e+2, -1587070.5, -1547813.5, -4812.874, 0.038974732, -0.037426267, -1547232.0, -28342.293, 0.0, 9.999515, 10.000034 
7.949984e+2, 1.5500994e+2, -1493390.9, -1450652.8, -1772.9858, 0.0215053, -0.09556063, -1450579.4, -29684.268, 0.0, 9.999481, 10.000043 
7.950006e+2, 1.6500986e+2, -1406336.8, -1391539.1, 14732.496, -0.004441893, -0.092801265, -1382451.9, -59555.574, 0.0, 9.99955, 9.999743 
7.950033e+2, 1.7501025e+2, -1282846.4, -1280922.0, 10389.584, -0.00824207, -0.029992405, -1271450.1, -46556.95, 0.0, 9.999723, 9.999746 
7.9500586e+2, 1.8500999e+2, -1173326.1, -1190543.0, -821.44604, -0.0052081794, -0.024944695, -1173287.0, -46391.047, 0.0, 9.999859, 9.999628 
7.9500836e+2, 1.9500904e+2, -1058659.0, -1083546.0, -2718.2495, -0.005055588, -0.08491655, -1058365.5, -29460.418, 0.0, 9.9999695, 9.999637 
7.9501086e+2, 2.050086e+2, -930901.3, -944950.25, 708.16486, -0.007075837, -0.10468184, -930865.7, 42.22788, 0.0, 10.000061, 9.999871 
7.9501337e+2, 2.1500863e+2, -821497.6, -840997.8, 9546.682, -0.0065088556, -0.09002155, -817602.06, 15302.521, 0.0, 10.000136, 9.999876 
7.9501593e+2, 2.2500822e+2, -745020.4, -810472.9, 17172.07, -0.009427926, -0.09402924, -740788.75, -5881.4233, 0.0, 10.0002365, 9.999365 
7.9501855e+2, 2.3500732e+2, -626719.56, -701407.6, 10773.65, -0.016973762, -0.12396069, -625196.56, 11719.7, 0.0, 10.00037, 9.999376 
7.950211e+2, 2.4500646e+2, -508663.1, -578102.75, -5872.2935, -0.009534089, -0.15453655, -508170.0, 30753.531, 0.0, 10.000441, 9.999516 
7.9502356e+2, 2.5500563e+2, -409798.88, -478719.72, 5386.8154, 0.013278937, -0.19022012, -409380.38, 31548.762, 0.0, 10.000442, 9.999524 
7.950258e+2, 2.6500505e+2, -346983.2, -468856.66, 13238.201, 0.0069138645, -0.16795923, -345561.8, -2627.2283, 0.0, 10.000506, 9.998888 
7.950279e+2, 2.7500468e+2, -227044.72, -359082.25, 914.35846, -0.028406752, -0.09664921, -227038.39, 17901.84, 0.0, 10.000652, 9.998899 
7.950303e+2, 2.8500333e+2, -117604.16, -264117.88, -11568.373, -0.022272982, -0.11879756, -116696.375, 30257.598, 0.0, 10.000767, 9.998823 
7.9503286e+2, 2.95001e+2, -12739.085, -165300.77, 897.2164, 0.024369795, -0.23676772, -12733.809, 36241.754, 0.0, 10.000824, 9.998801 
7.9503477e+2, 3.0500063e+2, -18150.162, -236489.66, -173.754, -0.0052787038, -0.10982711, -18150.023, -18150.023, 0.0, 10.000856, 9.997963 
7.950372e+2, 3.149993e+2, 91761.39, -16152.965, -12488.323, 0.0025040102, -0.045344695, 93187.74, 93187.74, 0.0, 10.000889, 9.999461 
8.049888e+2, 1.2500784e+2, -1797283.6, -1715085.5, -48457.133, 0.023474392, -0.08589793, -1692645.4, 22268.268, 0.0000000057252847, 9.999267, 10.000353 
8.0499184e+2, 1.3500732e+2, -1766997.0, -1718629.5, 37844.418, -0.03299432, -0.11163575, -1697901.6, -80982.09, 0.0, 9.999095, 9.999742 
8.0499566e+2, 1.4500779e+2, -1641275.0, -1574706.3, 2815.813, 0.04439346, -0.05201961, -1574587.4, -55671.582, 0.0, 9.999147, 10.000026 
8.0499804e+2, 1.5500744e+2, -1487570.9, -1449300.1, -10489.221, 0.032703765, -0.092115216, -1446613.9, -25693.92, 0.0, 9.999527, 10.0000305 
8.050003e+2, 1.6500741e+2, -1374698.6, -1370605.1, 2731.3894, 0.0012286513, -0.08569699, -1369238.8, -46318.188, 0.0, 9.9997425, 9.999795 
8.0500287e+2, 1.7500775e+2, -1268513.3, -1268284.0, 11091.031, -0.021922946, -0.033142854, -1257307.0, -32389.646, 0.0, 9.999798, 9.999797 
8.050056e+2, 1.8500747e+2, -1173167.4, -1193231.5, 8450.985, -0.020258551, -0.0315026, -1170082.3, -43161.832, 0.0, 9.999873, 9.999602 
8.0500835e+2, 1.9500653e+2, -1060171.8, -1087488.1, 8904.872, -0.002648115, -0.088234745, -1057525.3, -28595.322, 0.0, 9.999973, 9.999607 
8.05011e+2, 2.0500615e+2, -925843.6, -938017.94, 6994.803, -0.00025181618, -0.10240668, -922658.25, 8274.082, 0.0, 10.000077, 9.999911 
8.050135e+2, 2.150063e+2, -812087.06, -831448.8, 1510.881, -0.010301629, -0.08008313, -811969.9, 20957.916, 0.0, 10.000181, 9.999919 
8.050161e+2, 2.250059e+2, -751153.0, -813153.25, 7245.446, -0.013130077, -0.085940145, -750317.56, -15387.19, 0.0, 10.000193, 9.999367 
8.050189e+2, 2.3500489e+2, -664535.9, -719499.9, 13985.989, -0.008803371, -0.12631884, -661181.75, -24241.588, 0.0, 10.00011, 9.999377 
8.0502146e+2, 2.4500404e+2, -538610.8, -590262.7, -877.9047, -0.0041775447, -0.15549576, -538595.94, 351.24493, 0.0, 10.000225, 9.999536 
8.050239e+2, 2.5500336e+2, -392972.8, -468279.56, -11245.733, 0.00017412414, -0.17922556, -391329.3, 49622.164, 0.0, 10.000547, 9.999544 
8.0502623e+2, 2.6500276e+2, -329959.6, -467121.6, -8634.2, -0.0082611535, -0.15992141, -329418.22, 13539.204, 0.0, 10.000652, 9.99883 
8.0502844e+2, 2.7500212e+2, -249229.84, -376349.6, -640.37317, -0.028161036, -0.10609757, -249226.63, -4261.235, 0.0, 10.000527, 9.99884 
8.050309e+2, 2.8500083e+2, -141485.8, -268855.9, -5853.17, -0.023993064, -0.123669565, -141217.39, 5761.1865, 0.0, 10.000574, 9.998883 
8.0503345e+2, 2.9499885e+2, -11364.914, -157783.14, -13240.432, 0.0025621012, -0.21521932, -10177.23, 38819.54, 0.0, 10.000805, 9.998862 
8.0503553e+2, 3.0499816e+2, -27036.457, -269223.44, -12648.752, -0.02213756, -0.10791246, -26377.64, -26377.64, 0.0, 10.000917, 9.997709 
8.050383e+2, 3.1499645e+2, 88963.266, -20470.123, 4012.3362, 0.018173778, -0.053293552, 89110.18, 89110.18, 0.0, 10.000883, 9.9994335 
8.1498855e+2, 1.2500514e+2, -1765788.3, -1650003.8, -44930.54, 0.06287253, -0.05454476, -1634613.9, 80328.12, 0.000000004999778, 9.999269, 10.000798 
8.1499106e+2, 1.3500448e+2, -1738014.0, -1656634.4, 30282.908, -0.019781744, -0.13803045, -1646602.3, -29655.504, 0.0, 9.999088, 10.000169 
8.1499493e+2, 1.4500496e+2, -1656433.4, -1606581.5, 15766.044, 0.055479813, -0.08627824, -1602013.9, -83071.6, 0.0, 9.999147, 9.999808 
8.149977e+2, 1.5500505e+2, -1502536.0, -1482279.5, 4701.744, 0.043491013, -0.060148895, -1481241.4, -60297.727, 0.0, 9.999534, 9.999803 
8.150001e+2, 1.6500491e+2, -1358972.4, -1338676.6, 4299.5205, 0.006024483, -0.06360315, -1337803.4, -14858.086, 0.0, 9.999746, 10.000011 
8.150026e+2, 1.750046e+2, -1253378.1, -1235729.4, 13165.092, -0.029691733, -0.09803921, -1228704.8, -3757.9626, 0.0, 9.999793, 10.000022 
8.1500536e+2, 1.8500447e+2, -1172904.5, -1191676.3, 11801.34, -0.030443365, -0.09390872, -1167211.8, -40263.75, 0.0, 9.999868, 9.999616 
8.150083e+2, 1.9500445e+2, -1059515.4, -1086215.4, 12731.802, -0.0040216413, -0.05997268, -1054417.6, -25468.244, 0.0, 9.999973, 9.999617 
8.15011e+2, 2.0500411e+2, -936076.2, -958945.4, 10239.28, 0.0005843785, -0.064117566, -932161.75, -1209.5187, 0.0, 10.000075, 9.999768 
8.150136e+2, 2.1500342e+2, -822362.44, -852420.1, 5251.8335, -0.013765798, -0.11092115, -821471.2, 11485.196, 0.0, 10.000179, 9.999776 
8.150163e+2, 2.2500287e+2, -737980.3, -785691.25, 3396.8525, -0.011605758, -0.13230364, -737739.7, -2779.7036, 0.0, 10.000193, 9.999556 
8.150192e+2, 2.3500244e+2, -651401.3, -692237.25, 10949.156, 0.00730583, -0.13384324, -648650.9, -11687.85, 0.0, 10.00011, 9.999564 
8.150218e+2, 2.4500188e+2, -557148.3, -628696.7, 10830.269, 0.0007157324, -0.13272378, -555544.9, -16577.041, 0.0, 10.000224, 9.999272 
8.1502414e+2, 2.5500113e+2, -411635.72, -506488.66, 1062.1476, -0.031523798, -0.13692743, -411623.84, 29350.871, 0.0, 10.000545, 9.999284 
8.150265e+2, 2.6500022e+2, -315484.0, -435967.78, -13097.729, -0.038845364, -0.14598912, -314076.6, 28907.006, 0.0, 10.000647, 9.999046 
8.15029e+2, 2.7499908e+2, -234733.67, -345407.63, -4495.7847, -0.020619376, -0.16585365, -234551.34, 10443.318, 0.0, 10.000524, 9.999055 
8.150315e+2, 2.849981e+2, -153442.11, -294001.97, 2278.3572, -0.01781454, -0.1558141, -153405.19, -6400.3525, 0.0, 10.000574, 9.998712 
8.1503385e+2, 2.9499716e+2, -24443.516, -184524.31, -3702.0527, -0.032491397, -0.120011754, -24357.947, 24656.266, 0.0, 10.000801, 9.998681 
8.150362e+2, 3.0499592e+2, -17039.385, -246320.03, -12841.734, -0.044336453, -0.06905006, -16322.377, -16322.377, 0.0, 10.00091, 9.9978695 
8.150396e+2, 3.1499276e+2, 112208.48, 30102.166, 1938.7745, 0.06136645, -0.17712794, 112254.234, 112254.234, 0.0000000016901937, 10.000874, 9.999785 
8.249879e+2, 1.2500226e+2, -1765906.0, -1646148.1, -22567.58, 0.07346137, -0.055062138, -1642036.5, 72934.375, 0.0000000017683296, 9.999252, 10.000831 
8.2499033e+2, 1.3500169e+2, -1691278.6, -1631489.1, 10690.084, -0.008221343, -0.13051315, -1629635.3, -12660.953, 0.0, 9.999396, 10.000193 
8.249944e+2, 1.4500216e+2, -1610189.3, -1579965.5, 137.17249, 0.068079956, -0.08515919, -1579964.9, -60995.0, 0.0, 9.999446, 9.999847 
8.249971e+2, 1.5500227e+2, -1506699.8, -1479681.1, 8590.005, 0.038729433, -0.060646433, -1477181.4, -56210.465, 0.0, 9.999486, 9.999843 
8.249997e+2, 1.6500215e+2, -1392346.1, -1350061.4, 5172.092, 0.0009737077, -0.067338936, -1349438.0, -26465.64, 0.0, 9.999498, 10.0000515 
8.250024e+2, 1.7500184e+2, -1294698.8, -1251670.1, -76.25357, -0.017780775, -0.105173595, -1251670.0, -26696.363, 0.0, 9.999493, 10.000057 
8.2500523e+2, 1.8500175e+2, -1206335.0, -1202701.5, -354.9193, -0.017996157, -0.1020253, -1202667.1, -75692.805, 0.0, 9.999617, 9.9996605 
8.2500815e+2, 1.9500177e+2, -1070764.3, -1086339.8, 2576.8574, -0.009275497, -0.06717475, -1070349.0, -41373.94, 0.0, 9.999874, 9.999662 
8.250111e+2, 2.0500144e+2, -946687.75, -972873.44, 820.2148, -0.007008503, -0.06734729, -946662.06, -15684.131, 0.0, 10.000041, 9.999689 
8.250139e+2, 2.1500078e+2, -837019.4, -868351.94, 561.78516, -0.0073096068, -0.10642714, -837009.3, -4026.3826, 0.0, 10.000117, 9.999697 
8.250166e+2, 2.2500022e+2, -725901.6, -771322.75, -4601.215, -0.0063274787, -0.12899229, -725440.2, 9546.428, 0.0, 10.000238, 9.999633 
8.250193e+2, 2.3499975e+2, -603412.4, -660357.75, -6493.022, -0.0051185014, -0.14129594, -602681.4, 34307.742, 0.0, 10.0004015, 9.999642 
8.250219e+2, 2.4499919e+2, -544064.75, -632212.0, -4123.385, -0.0125028435, -0.1384558, -543872.3, -4878.5024, 0.0, 10.000357, 9.999184 
8.250245e+2, 2.549985e+2, -481518.16, -549742.3, -1334.0782, -0.027692927, -0.12798661, -481492.1, -40491.234, 0.0, 10.000107, 9.999198 
8.2502705e+2, 2.6499757e+2, -372569.66, -451661.88, -8040.2813, -0.035025887, -0.14052601, -371760.6, -28750.684, 0.0, 10.000204, 9.999151 
8.2502955e+2, 2.749963e+2, -208793.11, -321025.66, -8485.974, -0.034167394, -0.18174796, -208155.11, 36866.02, 0.0, 10.000651, 9.99916 
8.250321e+2, 2.8499538e+2, -129268.25, -291631.9, -7748.653, -0.030976733, -0.16554616, -128899.29, 18131.313, 0.0, 10.00078, 9.998628 
8.250347e+2, 2.949947e+2, -61286.867, -211317.63, -7509.4937, -0.02659311, -0.097256064, -60911.93, -11873.329, 0.0, 10.000587, 9.998599 
8.2503706e+2, 3.0499315e+2, -53141.94, -249292.06, -10244.408, -0.035240766, -0.078919366, -52608.355, -52608.355, 0.0, 10.000599, 9.997998 
8.2504034e+2, 3.149901e+2, 117175.484, 59796.973, -2506.6848, 0.057038795, -0.19048707, 117284.79, 117284.79, 0.000000023716037, 10.000791, 10.000029 
8.3498687e+2, 1.2499927e+2, -1792437.8, -1702218.5, -8712.207, 0.043300785, -0.08552451, -1701384.9, 13614.8, 0.000000000051048894, 9.999253, 10.000446 
8.3498985e+2, 1.3499907e+2, -1715461.0, -1684424.1, 16508.496, -0.00010583542, -0.089340605, -1677285.3, -60283.676, 0.0, 9.999407, 9.9998255 
8.3499396e+2, 1.449994e+2, -1590171.1, -1539573.5, -25.886692, 0.07964141, -0.049685366, -1539573.5, -20575.084, 0.0, 9.999452, 10.000121 
8.349964e+2, 1.5499914e+2, -1487121.3, -1437347.1, 10018.816, 0.015979657, -0.09440612, -1435406.1, -14404.627, 0.0, 9.999479, 10.000135 
8.34999e+2, 1.6499914e+2, -1401500.0, -1368702.6, 4794.528, -0.016642615, -0.095682114, -1368016.1, -45014.883, 0.0, 9.999495, 9.999926 
8.350022e+2, 1.749995e+2, -1303606.4, -1271462.4, 247.77951, 0.012996902, -0.05277057, -1271460.5, -46463.223, 0.0, 9.999497, 9.99992 
8.3500516e+2, 1.8499932e+2, -1201370.9, -1192487.4, 8885.653, 0.0152397845, -0.055452213, -1186995.1, -59996.16, 0.0, 9.999618, 9.99973 
8.350079e+2, 1.949985e+2, -1066348.6, -1076179.5, 12074.242, -0.020612784, -0.1114423, -1058227.6, -29220.924, 0.0, 9.99987, 9.999734 
8.3501095e+2, 2.049982e+2, -947666.2, -974430.0, 2946.347, -0.024764355, -0.1129464, -947345.7, -16336.341, 0.0, 10.000038, 9.99968 
8.350141e+2, 2.1499838e+2, -837678.06, -869658.25, 3044.7473, 0.007879706, -0.066185765, -837390.75, -4383.6577, 0.0, 10.000116, 9.999688 
8.350169e+2, 2.2499792e+2, -729028.94, -777721.5, 741.175, 0.0014950971, -0.0758814, -729017.6, 5992.367, 0.0, 10.000237, 9.99959 
8.350193e+2, 2.3499681e+2, -606468.56, -666678.56, -523.39435, -0.046341337, -0.14831597, -606464.06, 30554.207, 0.0, 10.0004015, 9.999599 
8.35022e+2, 2.4499601e+2, -537901.06, -619248.3, -14031.176, -0.044156924, -0.17157616, -535548.9, 3475.857, 0.0, 10.000356, 9.999274 
8.3502495e+2, 2.5499552e+2, -475812.03, -537340.7, -10325.126, 0.00809576, -0.15139534, -474125.6, -33095.98, 0.0, 10.000104, 9.999285 
8.350276e+2, 2.649948e+2, -373193.94, -453219.3, 8585.703, -0.0005066494, -0.14405495, -372283.2, -29246.938, 0.0, 10.000204, 9.999141 
8.3502984e+2, 2.7499384e+2, -209654.92, -322562.7, 8611.025, -0.06902399, -0.15760623, -209001.97, 36043.04, 0.0, 10.000649, 9.999151 
8.350325e+2, 2.8499275e+2, -130075.73, -291816.78, -14721.223, -0.063234776, -0.1544596, -128746.766, 18309.172, 0.0, 10.000774, 9.99863 
8.350356e+2, 2.9499155e+2, -62160.645, -211273.23, -13681.958, 0.014555254, -0.14095433, -60915.64, -11846.304, 0.0, 10.00058, 9.998603 
8.3503795e+2, 3.0498996e+2, -46087.1, -234171.95, -2884.4792, -0.00046215992, -0.1327402, -46042.875, -46042.875, 0.0, 10.000596, 9.998104 
8.3504057e+2, 3.1498834e+2, 126816.01, 80401.586, 4165.9785, 0.0007650486, -0.11127077, 127186.97, 127186.97, 0.00000010288848, 10.000787, 10.000173 
8.449862e+2, 1.24996535e+2, -1749807.9, -1694172.4, -4519.585, 0.037233528, -0.08114161, -1693807.6, 21218.973, 0.0, 9.9996, 10.000334 
8.449893e+2, 1.349963e+2, -1715877.3, -1694654.1, 29726.607, 0.0052907253, -0.079743005, -1673701.9, -56672.535, 0.0, 9.999451, 9.999732 
8.449935e+2, 1.4499657e+2, -1603128.8, -1543598.4, 15405.297, 0.092008166, -0.04394719, -1539848.0, -20821.17, 0.0, 9.999354, 10.000139 
8.4499586e+2, 1.5499634e+2, -1500956.6, -1441934.3, 6272.423, 0.020085242, -0.08445906, -1441275.0, -20245.762, 0.0, 9.999376, 10.000154 
8.4499854e+2, 1.6499637e+2, -1405519.4, -1376621.3, -2624.8157, -0.011571263, -0.083942205, -1376384.8, -53355.86, 0.0, 9.999494, 9.999872 
8.450019e+2, 1.7499666e+2, -1276000.8, -1263984.9, -2183.2798, 0.025201028, -0.042747624, -1263600.5, -38574.727, 0.0, 9.999712, 9.999867 
8.45005e+2, 1.849964e+2, -1172814.6, -1180872.3, 7302.4355, 0.028910395, -0.048738196, -1168503.4, -41475.21, 0.0, 9.999822, 9.999712 
8.450079e+2, 1.9499552e+2, -1075148.6, -1082188.4, 3993.8843, -0.01050235, -0.10879677, -1073345.0, -44308.613, 0.0, 9.999816, 9.99972 
8.4501094e+2, 2.0499524e+2, -965524.94, -979331.06, -5726.615, -0.022261275, -0.10916449, -963458.8, -32419.994, 0.0, 9.999899, 9.999713 
8.450141e+2, 2.149955e+2, -841926.8, -867963.1, -2967.7434, -0.0018558421, -0.057422172, -841592.8, -8557.024, 0.0, 10.000071, 9.999722 
8.45017e+2, 2.2499506e+2, -744551.9, -789406.1, -4981.494, -0.008445549, -0.06583993, -744005.3, -8966.549, 0.0, 10.00015, 9.99955 
8.450196e+2, 2.3499389e+2, -647258.25, -690771.2, -6884.4937, -0.04405652, -0.13973409, -646195.0, -9147.287, 0.0, 10.00014, 9.999559 
8.4502226e+2, 2.4499309e+2, -545206.25, -610778.4, -22864.031, -0.04146959, -0.16699252, -538021.2, 1032.8235, 0.0, 10.000255, 9.99938 
8.450251e+2, 2.5499263e+2, -412160.97, -494767.2, -18699.625, -0.00072297675, -0.1540819, -408125.1, 32932.8, 0.0, 10.00049, 9.99939 
8.4502786e+2, 2.649919e+2, -334681.94, -441611.16, 4244.3247, -0.0047869976, -0.14884254, -334513.72, 8550.595, 0.0, 10.0005, 9.999078 
8.450304e+2, 2.7499095e+2, -265918.53, -356624.4, -635.7819, -0.052354306, -0.15841365, -265914.06, -20840.441, 0.0, 10.000295, 9.999087 
8.450333e+2, 2.8498986e+2, -184419.63, -307953.25, -24725.738, -0.0474171, -0.15473881, -179654.47, -32570.11, 0.0, 10.000359, 9.998718 
8.4503627e+2, 2.9498872e+2, -42916.043, -191672.1, -18121.082, 0.009360171, -0.14541869, -40740.4, 8356.539, 0.0, 10.000669, 9.998694 
8.4503853e+2, 3.0498698e+2, -21053.543, -217418.23, -7098.0938, -0.012409021, -0.15952142, -20797.299, -20797.299, 0.00000000024035085, 10.000748, 9.998145 
8.450412e+2, 3.1498593e+2, 99713.58, 68200.53, -8027.497, -0.008586494, -0.0813219, 101640.625, 101640.625, 0.00000026211356, 10.000597, 10.00018 
8.549859e+2, 1.24994144e+2, -1739442.0, -1673773.8, -2646.499, 0.04168686, -0.03991483, -1673667.3, 41383.73, 0.0, 9.999605, 10.000471 
8.549888e+2, 1.3499342e+2, -1706039.1, -1673486.1, 23278.986, 0.008123835, -0.10088243, -1661357.8, -44300.723, 0.0, 9.999447, 9.999879 
8.549929e+2, 1.4499365e+2, -1618248.1, -1575013.5, 15266.899, 0.103551835, -0.0660627, -1570166.0, -51110.875, 0.0, 9.999352, 9.999925 
8.5499555e+2, 1.5499397e+2, -1516080.0, -1475398.4, 8005.7393, 0.048099305, -0.029629601, -1473879.6, -52826.07, 0.0, 9.999384, 9.999921 
8.549983e+2, 1.6499384e+2, -1404947.3, -1376184.0, 5440.001, 0.012731398, -0.03259783, -1375189.5, -52134.504, 0.0, 9.999496, 9.999873 
8.550015e+2, 1.749933e+2, -1275441.5, -1261981.1, 6091.054, 0.017899118, -0.07637194, -1259634.1, -34575.063, 0.0, 9.999708, 9.999883 
8.550048e+2, 1.84993e+2, -1179734.1, -1194654.8, 6749.516, 0.021771958, -0.08214754, -1177134.0, -50072.246, 0.0, 9.999819, 9.9996195 
8.55008e+2, 1.9499287e+2, -1081604.4, -1096036.5, 3609.8193, 0.019657072, -0.058169726, -1080751.8, -51688.145, 0.0, 9.999818, 9.999623 
8.5501105e+2, 2.0499262e+2, -960094.8, -967929.75, -115.90381, -0.0007494628, -0.055640705, -960093.1, -29027.205, 0.0, 9.999898, 9.999792 
8.550138e+2, 2.1499218e+2, -836842.94, -856846.4, 3137.5063, -0.037727267, -0.079989016, -836362.4, -3293.7332, 0.0, 10.000068, 9.9998 
8.550168e+2, 2.2499165e+2, -747524.6, -795364.06, -6248.4424, -0.037277497, -0.098162524, -746722.0, -11649.571, 0.0, 10.000148, 9.999511 
8.5502017e+2, 2.3499103e+2, -649889.3, -696113.6, -7138.4487, -0.00059339835, -0.11626392, -648812.06, -11734.839, 0.0, 10.000139, 9.999523 
8.550229e+2, 2.4499044e+2, -537308.8, -594538.0, -14287.334, -0.006597539, -0.12617981, -533940.25, 5141.2314, 0.0, 10.000254, 9.999493 
8.550251e+2, 2.5498986e+2, -404239.56, -478215.28, -9808.199, -0.054299764, -0.13619396, -402961.22, 38124.273, 0.0, 10.000489, 9.999505 
8.55028e+2, 2.6498893e+2, -342775.28, -458376.56, -3926.0881, -0.047411066, -0.15334584, -342642.1, 451.72263, 0.0, 10.000499, 9.998963 
8.5503143e+2, 2.749876e+2, -274813.03, -374247.2, -7696.778, 0.012318467, -0.18192959, -274220.78, -29114.191, 0.0, 10.000291, 9.998968 
8.5503423e+2, 2.849867e+2, -173003.64, -283761.63, -12555.3955, 0.0128132505, -0.16544494, -171598.22, -24482.527, 0.0, 10.000356, 9.998886 
8.550364e+2, 2.9498616e+2, -31088.785, -166607.73, -5599.733, -0.045016058, -0.113675974, -30857.795, 18263.842, 0.0, 10.000666, 9.998868 
8.550387e+2, 3.0498412e+2, -22970.596, -220718.53, -12749.685, -0.07259692, -0.16198674, -22151.955, -22151.955, 0.0000000059514194, 10.000745, 9.998124 
8.550421e+2, 3.1498283e+2, 90539.51, 51097.0, -13979.968, 0.02411055, -0.10978998, 94991.945, 94991.945, 0.0000005093443, 10.000588, 10.000066 
8.649855e+2, 1.2499115e+2, -1780740.1, -1682478.9, -10202.424, 0.06395322, -0.03515139, -1681430.8, 33650.016, 0.00000000000000000000885557, 9.999275, 10.000569 
8.6498827e+2, 1.3499051e+2, -1686922.6, -1650491.3, 6977.1963, 0.0040805754, -0.101617, -1649200.8, -32115.314, 0.0, 9.999519, 10.000002 
8.649924e+2, 1.449907e+2, -1583222.6, -1568671.6, 2526.4382, 0.093854204, -0.07257481, -1568245.5, -49161.73, 0.0, 9.9996395, 9.99983 
8.649951e+2, 1.5499102e+2, -1479970.8, -1468758.5, 3973.3137, 0.05447783, -0.026743315, -1467493.3, -46410.383, 0.0, 9.999678, 9.999825 
8.64998e+2, 1.6499083e+2, -1374466.0, -1360465.4, 10289.959, 0.024909813, -0.030199213, -1355020.4, -31935.438, 0.0, 9.9997, 9.999886 
8.6500126e+2, 1.7499022e+2, -1275153.8, -1259891.9, 11745.06, 0.024233762, -0.08288024, -1253516.5, -28427.105, 0.0, 9.9997015, 9.999901 
8.6500466e+2, 1.8498994e+2, -1186678.9, -1199071.6, 15299.473, 0.025470752, -0.08643077, -1176368.6, -49276.797, 0.0, 9.999776, 9.999609 
8.6500794e+2, 1.9498993e+2, -1066669.6, -1090248.4, 17901.03, 0.023880899, -0.05008259, -1057024.6, -27931.793, 0.0, 9.999926, 9.999612 
8.6501104e+2, 2.0498966e+2, -944467.0, -963824.3, 14746.95, 0.0032072135, -0.04624868, -936506.25, -5410.9023, 0.0, 10.00002, 9.999762 
8.650139e+2, 2.1498913e+2, -841013.44, -862338.75, 9446.237, -0.035794467, -0.07870427, -837430.94, -4331.6226, 0.0, 10.000053, 9.999769 
8.65017e+2, 2.2498861e+2, -753375.7, -791152.3, -3537.59, -0.03868887, -0.0960995, -753047.25, -17944.365, 0.0, 10.000078, 9.999573 
8.650202e+2, 2.3498811e+2, -652377.0, -689985.0, 2012.07, -0.0059597036, -0.10664622, -652269.6, -15163.399, 0.0, 10.000092, 9.999588 
8.650231e+2, 2.4498755e+2, -560401.25, -612453.56, -1756.2935, -0.0077882707, -0.113989525, -560342.06, -21231.744, 0.0, 10.000126, 9.999431 
8.650256e+2, 2.549869e+2, -452265.03, -508502.9, -11182.526, -0.04382538, -0.12485194, -450123.06, -9007.753, 0.0, 10.000191, 9.99944 
8.650285e+2, 2.6498592e+2, -362248.25, -463214.3, -11370.754, -0.036993958, -0.14537975, -360983.5, -17859.4, 0.0, 10.000347, 9.999002 
8.6503184e+2, 2.749846e+2, -229296.67, -348185.63, -4293.547, 0.012336679, -0.18028934, -229141.81, 15995.079, 0.0, 10.000586, 9.999004 
8.650347e+2, 2.8498372e+2, -127699.5, -260155.73, -4525.9136, 0.010813371, -0.16248134, -127545.04, 19600.205, 0.0, 10.00066, 9.998901 
8.6503696e+2, 2.9498327e+2, -42186.113, -169800.7, -10349.18, -0.041742243, -0.1015546, -41352.27, 7797.4287, 0.0, 10.000581, 9.998886 
8.6503935e+2, 3.0498105e+2, -35037.984, -218840.05, -23878.87, -0.07056345, -0.17654057, -31986.396, -31986.396, 0.000000027135602, 10.000628, 9.998193 
8.650427e+2, 3.149799e+2, 109358.945, 51396.66, -21037.17, 0.0143619925, -0.11142835, 116189.38, 116189.38, 0.00000083365, 10.000754, 9.999989 
8.749851e+2, 1.24987625e+2, -1775603.1, -1671347.9, 2186.9246, 0.09387178, -0.06503098, -1671302.0, 43813.543, 0.0000000055054987, 9.999271, 10.000648 
8.749876e+2, 1.3498758e+2, -1678060.0, -1632629.6, 16352.125, -0.0118350405, -0.08266713, -1627356.0, -10241.989, 0.0, 9.999521, 10.000123 
8.7499166e+2, 1.4498772e+2, -1583137.6, -1569527.8, 3367.1194, 0.057241768, -0.06482673, -1568740.4, -49627.62, 0.0, 9.999643, 9.999823 
8.7499464e+2, 1.5498747e+2, -1479104.0, -1467082.5, 5627.0127, 0.039577104, -0.07555255, -1464859.6, -43742.758, 0.0, 9.999678, 9.999837 
8.7499774e+2, 1.6498737e+2, -1371384.6, -1354296.0, 9714.369, 0.02519666, -0.0750874, -1349903.0, -26784.682, 0.0, 9.9997, 9.9999275 
8.7500113e+2, 1.7498745e+2, -1272434.5, -1254933.1, 11856.782, 0.041745972, -0.06125292, -1248947.5, -23830.996, 0.0, 9.999704, 9.999933 
8.7500453e+2, 1.8498726e+2, -1181894.0, -1189091.9, 20349.094, 0.03699084, -0.061345935, -1164828.0, -37709.996, 0.0, 9.999775, 9.999679 
8.750076e+2, 1.9498673e+2, -1061877.1, -1080011.1, 23341.283, 0.0011148064, -0.084728956, -1045903.7, -16780.195, 0.0, 9.999924, 9.999682 
8.7501085e+2, 2.0498642e+2, -954587.0, -984484.56, 15251.185, -0.011683684, -0.0808349, -948180.06, -17053.428, 0.0, 10.000018, 9.999621 
8.7501436e+2, 2.1498634e+2, -850656.5, -882181.75, 10371.14, 0.0020588129, -0.053951006, -847550.6, -14423.154, 0.0, 10.000052, 9.999634 
8.750173e+2, 2.2498594e+2, -742324.3, -768395.1, -3934.255, -0.014076086, -0.06065338, -741743.5, -6613.5596, 0.0, 10.000077, 9.99973 
8.750198e+2, 2.3498522e+2, -641387.25, -667166.94, 2354.8584, -0.060156126, -0.109803624, -641173.94, -4039.514, 0.0, 10.000091, 9.999745 
8.750228e+2, 2.4498451e+2, -576382.75, -646012.06, -55.024055, -0.045736637, -0.12786512, -576382.75, -37242.688, 0.0, 10.000126, 9.999201 
8.7502646e+2, 2.549838e+2, -468831.5, -542640.4, -8382.372, 0.027729351, -0.119731635, -467891.5, -26744.541, 0.0, 10.000189, 9.999207 
8.7502944e+2, 2.6498294e+2, -350053.38, -437870.13, -1925.8704, 0.024192646, -0.1260862, -350011.16, -6856.1504, 0.0, 10.000346, 9.999178 
8.750318e+2, 2.749819e+2, -216508.39, -321499.97, 5339.2676, -0.054142565, -0.15463002, -216237.56, 28926.93, 0.0, 10.000585, 9.999189 
8.7503475e+2, 2.8498092e+2, -137284.61, -280148.2, -7884.4775, -0.05502494, -0.1455867, -136850.8, 10322.132, 0.0, 10.000659, 9.998765 
8.750382e+2, 2.949801e+2, -52444.637, -189838.86, -12408.685, 0.018072508, -0.10804291, -51332.95, -2152.0703, 0.0, 10.000575, 9.998752 
8.7504065e+2, 3.049777e+2, -25412.336, -196943.02, -17932.855, -0.0070261164, -0.20233135, -23557.582, -23557.582, 0.00000006425192, 10.000621, 9.998346 
8.7504286e+2, 3.1497714e+2, 106850.85, 47745.91, -15499.898, -0.04608602, -0.09772362, 110668.96, 110668.96, 0.0000011924308, 10.000749, 9.999966 
8.8498473e+2, 1.2498437e+2, -1705952.9, -1646326.4, 12768.533, 0.101130076, -0.075986885, -1643707.1, 71440.164, 0.00000006865042, 9.999787, 10.000572 
8.849872e+2, 1.3498448e+2, -1694227.5, -1645848.6, 7581.8257, -0.00446477, -0.07432222, -1644688.3, -27543.22, 0.0, 9.9994335, 10.000075 
8.849911e+2, 1.4498459e+2, -1620103.1, -1579047.5, -342.69266, 0.05657423, -0.05954853, -1579044.6, -59900.688, 0.0, 9.999353, 9.999898 
8.8499415e+2, 1.5498428e+2, -1485171.1, -1460913.0, 7863.4805, 0.027937122, -0.08412384, -1458587.0, -37438.99, 0.0, 9.999598, 9.999917 
8.849973e+2, 1.6498421e+2, -1365885.8, -1354867.1, 8667.894, 0.01517583, -0.08221588, -1350105.9, -26956.682, 0.0, 9.999753, 9.999897 
8.85001e+2, 1.7498443e+2, -1258870.4, -1252842.5, 4176.9956, 0.04559526, -0.052577507, -1250705.6, -25558.84, 0.0, 9.999815, 9.999895 
8.850044e+2, 1.8498427e+2, -1162777.8, -1171343.8, 13342.597, 0.045973256, -0.049728505, -1153047.6, -25899.627, 0.0, 9.999868, 9.999756 
8.8500756e+2, 1.9498375e+2, -1057494.6, -1068640.3, 16581.258, 0.0042188657, -0.08149801, -1045574.7, -16421.855, 0.0, 9.999915, 9.999765 
8.8501084e+2, 2.0498343e+2, -967892.56, -996118.25, 10631.521, -0.011782045, -0.079675995, -964336.2, -33180.227, 0.0, 9.99995, 9.999574 
8.8501436e+2, 2.1498333e+2, -865374.75, -894541.4, 11790.737, 0.0021312847, -0.05013366, -861204.5, -28047.148, 0.0, 9.999975, 9.999585 
8.850174e+2, 2.2498292e+2, -745752.2, -771650.2, -3023.0847, -0.011521449, -0.056463122, -745404.0, -10243.619, 0.0, 10.000061, 9.999716 
8.8501996e+2, 2.3498216e+2, -624816.6, -661248.8, -10902.991, -0.054115392, -0.10538223, -621803.0, 15362.039, 0.0, 10.000213, 9.999728 
8.850231e+2, 2.4498148e+2, -545056.9, -632318.9, -11314.337, -0.03835537, -0.12002161, -543613.75, -4443.0693, 0.0, 10.000348, 9.999187 
8.850269e+2, 2.5498083e+2, -428604.13, -524481.9, -4112.7104, 0.03478836, -0.10676117, -428428.03, 12749.362, 0.0, 10.00047, 9.999196 
8.850299e+2, 2.6498e+2, -327545.66, -428033.28, 4482.212, 0.028259771, -0.10992875, -327346.13, 15839.266, 0.0, 10.000505, 9.999168 
8.850323e+2, 2.749789e+2, -235937.48, -331850.56, -3192.1812, -0.05669269, -0.13602963, -235831.36, 9363.507, 0.0, 10.000456, 9.99918 
8.850353e+2, 2.8497797e+2, -149952.08, -279247.56, -17052.063, -0.059539463, -0.13007922, -147740.98, -537.9038, 0.0, 10.000544, 9.998826 
8.8503885e+2, 2.949771e+2, -21976.053, -168444.05, -7529.462, 0.017705878, -0.10079396, -21590.004, 27620.6, 0.0, 10.000755, 9.998812 
8.8504136e+2, 3.0497462e+2, 5361.2856, -179391.83, -11598.425, -0.0038437587, -0.20909448, 6086.564, 6086.564, 0.00000010587227, 10.00082, 9.998372 
8.8504356e+2, 3.1497428e+2, 90700.24, 20206.852, -21851.57, -0.04766116, -0.08555728, 96924.266, 96924.266, 0.0000015115112, 10.000724, 9.999788 
8.949842e+2, 1.2498142e+2, -1723478.5, -1682839.8, 2794.3022, 0.0682505, -0.068540685, -1682648.5, 32527.111, 0.00000033535434, 9.999787, 10.000321 
8.949869e+2, 1.3498122e+2, -1711332.1, -1681398.4, -5982.535, 0.027237749, -0.07412956, -1680247.0, -63068.934, 0.00000000007521531, 9.9994335, 9.999831 
8.9499086e+2, 1.4498137e+2, -1606366.5, -1552564.8, 6962.5654, 0.09326524, -0.052944485, -1551678.4, -32501.45, 0.0, 9.99936, 10.000077 
8.9499366e+2, 1.5498148e+2, -1473077.6, -1436056.6, 17060.473, 0.015693646, -0.052159853, -1429393.8, -8217.862, 0.0, 9.9995985, 10.000088 
8.949968e+2, 1.6498141e+2, -1374368.3, -1372519.0, 10908.987, -0.010257592, -0.052453432, -1362495.5, -39318.53, 0.0, 9.999753, 9.999776 
8.950007e+2, 1.7498118e+2, -1266813.4, -1269614.5, 6656.65, 0.03469504, -0.057198662, -1261411.5, -36231.52, 0.0, 9.999816, 9.99978 
8.9500433e+2, 1.8498103e+2, -1156691.3, -1158970.3, 14298.784, 0.050851166, -0.05076788, -1143486.6, -16305.502, 0.0, 9.999869, 9.999841 
8.950077e+2, 1.9498102e+2, -1051195.6, -1055738.1, 17857.63, 0.032148663, -0.04001305, -1035465.44, -6284.9287, 0.0, 9.999915, 9.999854 
8.95011e+2, 2.0498073e+2, -964954.9, -990068.44, 10376.519, 0.0019821215, -0.042947173, -961222.25, -30039.266, 0.0, 9.999949, 9.999616 
8.950139e+2, 2.1498014e+2, -862772.06, -888761.06, 12207.187, -0.036810387, -0.066614196, -857937.56, -24748.906, 0.0, 9.999973, 9.999626 
8.950172e+2, 2.2497955e+2, -759048.75, -799102.5, 1739.3153, -0.033404574, -0.081839904, -758973.4, -23779.754, 0.0, 10.00006, 9.999528 
8.9502084e+2, 2.3497899e+2, -638128.6, -688800.7, -5142.2046, 0.010346309, -0.093527354, -637612.06, -414.2905, 0.0, 10.000213, 9.999539 
8.95024e+2, 2.4497847e+2, -531535.5, -604712.6, -6982.7563, 0.013230398, -0.091892466, -530875.1, 8326.809, 0.0, 10.000349, 9.999377 
8.9502674e+2, 2.5497794e+2, -414915.22, -495894.75, 864.6744, -0.023414273, -0.08592502, -414905.97, 26300.473, 0.0, 10.000469, 9.999393 
8.9502984e+2, 2.6497704e+2, -340706.38, -455276.8, 2134.346, -0.02648669, -0.094987676, -340666.63, 2548.3403, 0.0, 10.0005045, 9.998982 
8.950333e+2, 2.7497575e+2, -249995.92, -360201.63, -4498.591, 0.0034749662, -0.12377434, -249812.6, -4584.9375, 0.0, 10.000452, 9.998987 
8.950364e+2, 2.8497484e+2, -133049.56, -243558.39, -8210.666, -0.0033802914, -0.11585335, -132442.84, 14792.573, 0.0, 10.00054, 9.999073 
8.95039e+2, 2.9497433e+2, -4366.631, -131547.94, 1805.6659, -0.047233947, -0.0795541, -4340.9995, 44897.676, 0.0, 10.000752, 9.999066 
8.9504164e+2, 3.049718e+2, -2951.2798, -195897.31, -15317.477, -0.065962814, -0.196862, -1742.8344, -1742.8344, 0.00000013409642, 10.000816, 9.99826 
8.9504486e+2, 3.149712e+2, 66870.06, -27098.275, -24896.01, 0.006070789, -0.0855086, 73058.48, 73058.48, 0.0000016978646, 10.000715, 9.999467 
9.0498394e+2, 1.2497834e+2, -1772257.3, -1719969.5, -3278.1487, 0.07855025, -0.061962552, -1719764.8, -4558.6133, 0.0000010631732, 9.999508, 10.000203 
9.049865e+2, 1.3497806e+2, -1666550.5, -1668261.6, -2727.732, 0.027675884, -0.06751273, -1664547.4, -47337.363, 0.000000007369457, 9.999777, 9.999756 
9.049904e+2, 1.4497818e+2, -1535267.5, -1512972.9, 15523.326, 0.088165894, -0.047596637, -1505009.1, 14200.053, 0.0, 9.999828, 10.000122 
9.0499324e+2, 1.5497844e+2, -1460737.1, -1425752.9, 14388.892, 0.013174707, -0.037225444, -1420595.3, 610.94763, 0.0, 9.999663, 10.000129 
9.049966e+2, 1.6497837e+2, -1387626.8, -1385523.1, 10713.94, -0.011481784, -0.037642416, -1375809.5, -52602.184, 0.0, 9.99969, 9.999718 
9.050005e+2, 1.7497797e+2, -1254086.5, -1269041.8, 10187.95, 0.02903138, -0.05120056, -1248926.6, -23714.338, 0.0, 9.99993, 9.999727 
9.0500426e+2, 1.8497781e+2, -1133648.5, -1149823.5, 11728.073, 0.04833545, -0.044205945, -1127489.8, -275.90997, 0.0, 10.000038, 9.999822 
9.0500784e+2, 1.9497786e+2, -1038925.9, -1052653.3, 6765.809, 0.042174313, -0.023434833, -1036151.8, -6939.3667, 0.0, 10.000011, 9.999828 
9.0501106e+2, 2.0497756e+2, -956291.06, -981562.25, -4757.466, 0.012186422, -0.028477555, -955425.1, -24210.236, 0.0, 9.99999, 9.999655 
9.0501386e+2, 2.1497686e+2, -859379.1, -882886.9, -4334.9414, -0.041121524, -0.06572737, -858605.25, -25383.916, 0.0, 9.999979, 9.999664 
9.0501726e+2, 2.2497629e+2, -755183.9, -799201.3, -1172.2441, -0.037674885, -0.08105522, -755152.6, -19926.41, 0.0, 10.000095, 9.99951 
9.0502125e+2, 2.3497584e+2, -619605.7, -681886.06, 3943.8936, 0.021140745, -0.07993869, -619356.94, 17872.705, 0.0, 10.000349, 9.99952 
9.0502447e+2, 2.4497534e+2, -518383.06, -597962.7, -4641.68, 0.02381954, -0.07467622, -518113.22, 21120.465, 0.0, 10.000439, 9.99938 
9.050271e+2, 2.5497475e+2, -430321.38, -503054.94, -12016.987, -0.02904186, -0.07383941, -428387.38, 12851.269, 0.0, 10.000362, 9.999395 
9.0503025e+2, 2.6497385e+2, -355514.56, -458546.75, -9026.377, -0.03193445, -0.086035185, -354729.78, -11482.539, 0.0, 10.000386, 9.999016 
9.0503395e+2, 2.749726e+2, -238548.56, -350998.9, 253.08366, 0.014629239, -0.11593292, -238548.0, 6711.6294, 0.0, 10.000514, 9.999021 
9.05037e+2, 2.8497174e+2, -133109.6, -244043.14, -2687.4707, 0.0068176035, -0.10401663, -133044.52, 14222.482, 0.0, 10.000541, 9.99907 
9.050395e+2, 2.9497132e+2, -48039.09, -152179.53, -12640.891, -0.055261243, -0.058463413, -46526.664, 2743.0962, 0.0, 10.000452, 9.999069 
9.050423e+2, 3.0496883e+2, -18384.107, -181548.9, -22845.857, -0.06978147, -0.18117946, -15245.665, -15245.665, 0.0000001316986, 10.000618, 9.998453 
9.0504587e+2, 3.1496826e+2, 112082.22, -8218.209, -11902.212, 0.019575715, -0.08606459, 113248.484, 113248.484, 0.0000016698094, 10.001036, 9.999444 
9.1498387e+2, 1.24975204e+2, -1765727.4, -1710973.1, 6006.177, 0.12336326, -0.05219356, -1710322.1, 4916.0356, 0.0000026057617, 9.999526, 10.0002575 
9.1498595e+2, 1.3497506e+2, -1659121.9, -1651913.1, 6902.2485, -0.008149608, -0.054990035, -1647730.8, -30490.404, 0.00000007607973, 9.999773, 9.999871 
9.149897e+2, 1.449751e+2, -1542987.3, -1528475.6, 9338.216, 0.034406677, -0.04485299, -1523905.6, -4665.462, 0.0, 9.9998255, 10.000017 
9.14993e+2, 1.549752e+2, -1467734.6, -1440638.1, 8653.065, 0.018789291, -0.038652603, -1438110.6, -16872.393, 0.0, 9.999665, 10.000025 
9.1499645e+2, 1.649751e+2, -1386530.1, -1385188.4, 18577.053, 0.0106490785, -0.03475396, -1367270.1, -44030.773, 0.0, 9.999697, 9.999718 
9.1500044e+2, 1.7497487e+2, -1253673.4, -1268581.1, 18934.748, 0.027433407, -0.03367757, -1240778.1, -15535.157, 0.0, 9.999931, 9.999731 
9.150042e+2, 1.8497463e+2, -1142454.0, -1167910.5, 9974.232, 0.03640954, -0.03006113, -1139011.5, -11765.68, 0.0, 10.000037, 9.999698 
9.1500777e+2, 1.9497433e+2, -1048120.7, -1071488.1, 5450.6123, 0.032250915, -0.031958114, -1046911.9, -17663.73, 0.0, 10.0000105, 9.999701 
9.1501105e+2, 2.0497397e+2, -955118.8, -978921.7, -6175.4565, 0.015905023, -0.03559319, -953612.0, -22360.824, 0.0, 9.9999895, 9.999674 
9.1501415e+2, 2.1497357e+2, -857699.4, -879230.06, -5289.747, -0.011505577, -0.047400538, -856469.94, -23214.96, 0.0, 9.999978, 9.99969 
9.1501755e+2, 2.2497316e+2, -744808.0, -778130.0, 7300.5293, -0.024436666, -0.0547069, -743278.7, -8020.6865, 0.0, 10.000097, 9.999655 
9.150211e+2, 2.3497275e+2, -609459.25, -660579.6, 13430.417, -0.022612382, -0.064076066, -606145.56, 31114.857, 0.0, 10.000347, 9.999668 
9.150246e+2, 2.4497215e+2, -531154.75, -624223.75, -7866.06, -0.009145431, -0.066727355, -530494.6, 8770.904, 0.0, 10.000437, 9.999201 
9.15028e+2, 2.5497136e+2, -443740.5, -530523.3, -14589.293, 0.01632811, -0.06972589, -441353.5, -79.94162, 0.0, 10.000361, 9.9992075 
9.150311e+2, 2.6497045e+2, -338053.1, -422671.78, -3994.3025, 0.011102855, -0.083299436, -337864.97, 5416.9395, 0.0, 10.000387, 9.999263 
9.1503406e+2, 2.7496946e+2, -220895.13, -314452.2, 5944.8735, -0.025584983, -0.11271007, -220518.89, 24771.691, 0.0, 10.000513, 9.999272 
9.1503716e+2, 2.8496867e+2, -151664.25, -281318.2, -6288.273, -0.03244558, -0.09400649, -151359.97, -4062.3516, 0.0, 10.000536, 9.9988165 
9.1504043e+2, 2.9496807e+2, -66778.0, -189376.7, -15318.567, -0.007977304, -0.037253965, -64892.945, -15589.344, 0.0, 10.000445, 9.998817 
9.150435e+2, 3.0496573e+2, 16361.96, -108762.34, -6692.151, -0.015833557, -0.16237953, 16718.865, 16718.865, 0.00000009563079, 10.000614, 9.998956 
9.150466e+2, 3.1496537e+2, 132939.33, 35159.145, 5566.133, -0.013282003, -0.097088866, 133255.16, 133255.16, 0.0000014046396, 10.001035, 9.9997425 
9.249835e+2, 1.249721e+2, -1743339.0, -1704566.0, 11123.617, 0.12600182, -0.034410693, -1701601.4, 13668.159, 0.0000053561066, 9.999703, 10.000213 
9.249857e+2, 1.3497195e+2, -1665119.3, -1655906.4, 846.3686, -0.0085462285, -0.038620066, -1655829.3, -38557.22, 0.00000033393198, 9.999737, 9.999861 
9.2498946e+2, 1.4497185e+2, -1544638.1, -1532068.8, -2239.4614, 0.031609956, -0.03787629, -1531681.6, -12408.876, 0.0, 9.999827, 9.999991 
9.249928e+2, 1.5497185e+2, -1420721.3, -1419926.8, 1695.0518, 0.022852018, -0.040781803, -1418583.0, 2688.5137, 0.0, 9.999999, 10.000005 
9.249964e+2, 1.6497174e+2, -1342355.5, -1368783.0, 15754.942, 0.015608758, -0.036171608, -1335006.6, -11733.859, 0.0, 10.000025, 9.99967 
9.250003e+2, 1.7497155e+2, -1260528.8, -1277672.4, 11825.926, 0.02723672, -0.02382461, -1254494.9, -29218.896, 0.0, 9.999909, 9.999679 
9.2500407e+2, 1.8497127e+2, -1163158.9, -1178528.0, 4822.7964, 0.032672353, -0.02134838, -1161770.9, -34491.582, 0.0, 9.999898, 9.999692 
9.250077e+2, 1.9497085e+2, -1049938.3, -1072314.4, 8329.108, 0.02433402, -0.036149096, -1047178.25, -17895.375, 0.0, 10.0, 9.999699 
9.2501104e+2, 2.049705e+2, -937218.94, -969865.0, 2261.9463, 0.011087152, -0.03968734, -937063.0, -5776.9688, 0.0, 10.000112, 9.999676 
9.2501426e+2, 2.1497022e+2, -820191.25, -861242.0, 987.0583, -0.0053464794, -0.038030483, -820167.56, 13121.091, 0.0, 10.000236, 9.999689 
9.250177e+2, 2.249699e+2, -721308.7, -761802.94, 9814.302, -0.02099165, -0.037506014, -719055.44, 16235.303, 0.0, 10.000237, 9.999699 
9.2502123e+2, 2.3496956e+2, -639758.2, -670139.1, 6746.5083, -0.036153343, -0.04531032, -638327.44, -1034.8623, 0.0, 10.000118, 9.999713 
9.2502487e+2, 2.4496888e+2, -574516.2, -653382.8, -13707.746, -0.01833217, -0.05557518, -572201.56, -32903.016, 0.0, 10.000175, 9.999126 
9.250285e+2, 2.5496784e+2, -440037.03, -537073.2, -12948.643, 0.032293182, -0.074151486, -438338.88, 2970.164, 0.0, 10.0004225, 9.999133 
9.2503166e+2, 2.6496693e+2, -317616.0, -405231.06, -7007.978, 0.027308844, -0.08448266, -317059.03, 26258.2, 0.0, 10.000495, 9.9993305 
9.250344e+2, 2.7496624e+2, -235585.19, -313357.78, -11261.885, -0.03357391, -0.09201584, -233987.25, 11335.869, 0.0, 10.000379, 9.999344 
9.250376e+2, 2.8496552e+2, -168303.56, -294243.06, -18811.383, -0.036884025, -0.070733696, -165553.78, -18223.84, 0.0, 10.000443, 9.998772 
9.2504126e+2, 2.9496473e+2, -32969.87, -178015.64, -13500.132, 0.018967368, -0.030167902, -31724.047, 17614.17, 0.0, 10.000698, 9.998775 
9.250444e+2, 3.0496246e+2, 54172.504, -78324.3, -6578.0723, 0.008726686, -0.14578086, 54498.285, 54498.285, 0.00000004550982, 10.00082, 9.999066 
9.250473e+2, 3.149623e+2, 92447.62, 8164.7866, -24371.602, -0.032482922, -0.07155922, 98987.555, 98987.555, 0.0000009683944, 10.00079, 9.999676 
9.349827e+2, 1.2496905e+2, -1755246.6, -1728077.8, 12009.769, 0.06967931, -0.013606732, -1723530.1, -8230.026, 0.000009830683, 9.999698, 10.000054 
9.3498576e+2, 1.3496877e+2, -1674944.9, -1677406.6, 2659.251, 0.025014998, -0.015456722, -1673245.5, -55941.426, 0.0000009955157, 9.9997425, 9.999709 
9.349898e+2, 1.4496857e+2, -1538275.0, -1523199.0, 3146.714, 0.07867305, -0.021669453, -1522568.5, -3262.6697, 0.00000000002439963, 9.999844, 10.000046 
9.3499285e+2, 1.5496844e+2, -1416844.0, -1412003.0, 8074.6167, 0.023600271, -0.042655423, -1405993.9, 15311.49, 0.0, 9.999998, 10.000061 
9.3499625e+2, 1.6496827e+2, -1349462.0, -1382827.3, 10967.385, 0.00056787004, -0.042083003, -1346179.9, -22872.805, 0.0, 10.000022, 9.999575 
9.3500024e+2, 1.7496806e+2, -1268028.3, -1292779.6, 7490.7827, 0.026327107, -0.022052584, -1265937.8, -40627.105, 0.0, 9.9999075, 9.999576 
9.3500406e+2, 1.8496779e+2, -1156226.3, -1164198.6, 7915.5713, 0.03424143, -0.017245868, -1151349.8, -24036.09, 0.0, 9.999897, 9.999792 
9.3500763e+2, 1.9496742e+2, -1041883.7, -1056172.3, 11763.078, 0.018314723, -0.03570112, -1035265.3, -5949.01, 0.0, 10.000002, 9.999809 
9.35011e+2, 2.0496711e+2, -937853.4, -971778.2, 5691.488, -0.0022439105, -0.040708385, -936924.0, -5604.9927, 0.0, 10.0001135, 9.999662 
9.3501437e+2, 2.1496685e+2, -821983.94, -864316.8, 5193.4253, -0.024658652, -0.03683213, -821356.1, 11965.689, 0.0, 10.000233, 9.99967 
9.350178e+2, 2.2496657e+2, -726141.94, -771456.25, 4377.815, -0.03032836, -0.028411431, -725722.9, 9601.102, 0.0, 10.000236, 9.999634 
9.3502146e+2, 2.3496628e+2, -644515.2, -679727.25, 2017.2977, -0.020255476, -0.023311136, -644400.0, -7074.3467, 0.0, 10.000116, 9.999647 
9.3502516e+2, 2.449655e+2, -572196.2, -649180.25, -4954.388, -0.0041783294, -0.04102897, -571878.7, -32546.088, 0.0, 10.000177, 9.999155 
9.3502873e+2, 2.5496423e+2, -437646.1, -532418.3, -3155.1028, 0.017204957, -0.08752064, -437541.16, 3803.6777, 0.0, 10.0004225, 9.999166 
9.3503207e+2, 2.6496342e+2, -325387.5, -420589.16, -11383.703, 0.014384832, -0.08980568, -324045.22, 19307.674, 0.0, 10.000492, 9.999227 
9.3503505e+2, 2.7496302e+2, -243854.34, -329523.8, -15185.513, -0.011402836, -0.053880192, -241242.25, 4114.6475, 0.0, 10.000375, 9.999235 
9.350383e+2, 2.8496227e+2, -156740.5, -270398.06, -9149.802, -0.008213477, -0.034097116, -156008.61, -8644.99, 0.0, 10.0004425, 9.998937 
9.3504196e+2, 2.949612e+2, -21132.182, -153907.06, -2851.0676, 0.022564767, -0.036883738, -21070.988, 28302.293, 0.0, 10.000698, 9.99894 
9.350452e+2, 3.0495915e+2, 33070.047, -120101.28, -7727.23, 0.0004908954, -0.1315602, 33458.887, 33458.887, 0.000000010385675, 10.0008135, 9.998782 
9.35048e+2, 3.1495908e+2, 60311.664, -54917.574, -23970.797, -0.044515636, -0.018288115, 65099.316, 65099.316, 0.00000050425, 10.000775, 9.999248 
9.4498235e+2, 1.2496554e+2, -1706006.3, -1707151.0, -6935.0396, 0.047656633, -0.0123992385, -1699620.0, 15714.992, 0.000016700973, 10.000049, 10.00003 
9.449856e+2, 1.349653e+2, -1652395.3, -1664920.3, -5363.0493, 0.033605356, -0.011924278, -1650412.8, -33074.504, 0.0000023433604, 9.999892, 9.9997225 
9.4498974e+2, 1.4496507e+2, -1544346.8, -1534487.4, 2836.106, 0.09204052, -0.016672458, -1533729.8, -14389.508, 0.0000000053592455, 9.999842, 9.999967 
9.449928e+2, 1.5496491e+2, -1436247.1, -1429942.4, -2939.465, 0.025475586, -0.03435828, -1428784.5, -7443.7236, 0.0, 9.999904, 9.999983 
9.4499624e+2, 1.6496469e+2, -1351348.3, -1377634.3, -3242.0562, -0.001663607, -0.036128033, -1350954.3, -27611.4, 0.0, 9.999984, 9.999629 
9.450002e+2, 1.7496446e+2, -1237994.9, -1271502.5, 3956.1094, 0.024267409, -0.02407718, -1237534.1, -12187.897, 0.0, 10.000087, 9.999634 
9.4500405e+2, 1.8496421e+2, -1120036.8, -1145236.9, 10481.512, 0.03249156, -0.020226356, -1116247.0, 11101.801, 0.0, 10.000141, 9.999804 
9.450077e+2, 1.9496393e+2, -1019547.75, -1044485.6, 6895.7437, 0.017662682, -0.03205605, -1017768.0, 11582.659, 0.0, 10.000151, 9.999818 
9.450112e+2, 2.0496365e+2, -936748.94, -969562.44, -2985.7986, -0.002052658, -0.033731814, -936479.44, -5126.4453, 0.0, 10.000114, 9.999678 
9.450145e+2, 2.1496339e+2, -850251.8, -876009.44, -2021.6653, -0.024805889, -0.03004576, -850094.06, -16738.227, 0.0, 10.000031, 9.999686 
9.45018e+2, 2.2496305e+2, -754136.94, -794220.9, -1055.1226, -0.028239086, -0.024940843, -754109.2, -18750.299, 0.0, 10.000084, 9.99955 
9.450218e+2, 2.3496263e+2, -626315.25, -680703.7, -5507.7603, -0.013318974, -0.025556497, -625763.1, 11599.187, 0.0, 10.000284, 9.99956 
9.4502544e+2, 2.449619e+2, -532313.25, -619270.25, -6559.3843, -0.0022201277, -0.03835844, -531821.25, 7547.5483, 0.0, 10.000405, 9.99925 
9.450291e+2, 2.5496086e+2, -428269.34, -516975.97, -976.8625, 0.004971378, -0.0702517, -428258.6, 13119.935, 0.0, 10.000441, 9.999263 
9.450324e+2, 2.6496008e+2, -343964.97, -440325.34, -15603.654, 0.00803481, -0.06970848, -341501.25, 1885.2473, 0.0, 10.00041, 9.99913 
9.450355e+2, 2.749595e+2, -258010.16, -347062.28, -19218.865, 0.0079100905, -0.041540418, -254039.47, -8646.695, 0.0, 10.000323, 9.99914 
9.450389e+2, 2.8495875e+2, -154547.38, -260497.4, -1526.0065, 0.008372308, -0.02578827, -154525.4, -7125.4985, 0.0, 10.000421, 9.999016 
9.4504255e+2, 2.9495776e+2, -17389.313, -142776.4, -2038.4038, 0.0083044395, -0.028146908, -17356.184, 32051.846, 0.0, 10.000686, 9.999023 
9.450458e+2, 3.0495584e+2, 34030.242, -124410.87, -9531.16, -0.011533248, -0.10816681, 34601.535, 34601.535, 0.00000000032400083, 10.000841, 9.998739 
9.45049e+2, 3.149556e+2, 66166.18, -71075.2, -10310.025, -0.026063325, -0.0077898637, 66936.375, 66936.375, 0.00000016973306, 10.000897, 9.999078 
9.5498234e+2, 1.2496167e+2, -1695163.3, -1690553.9, -16441.37, 0.04358988, -0.02801351, -1676256.5, 39116.656, 0.000026645826, 10.000072, 10.0001335 
9.5498544e+2, 1.3496159e+2, -1640990.3, -1640907.3, -11188.725, 0.015799252, -0.02790096, -1629759.9, -12386.207, 0.00000475329, 9.999888, 9.999889 
9.549894e+2, 1.4496143e+2, -1560535.0, -1566393.8, 5023.405, 0.069450185, -0.023901004, -1557649.3, -38273.855, 0.000000046136613, 9.999834, 9.999751 
9.549927e+2, 1.5496129e+2, -1451768.1, -1462067.4, -176.55594, 0.026616782, -0.015898125, -1451765.1, -30387.936, 0.0, 9.999904, 9.999762 
9.549963e+2, 1.6496107e+2, -1336522.9, -1347942.8, 393.84576, 0.0059468765, -0.017099626, -1336509.4, -13129.844, 0.0, 9.999988, 9.999831 
9.550002e+2, 1.7496082e+2, -1222823.3, -1240823.6, 7946.621, 0.0202647, -0.029524446, -1219817.0, 5565.1533, 0.0, 10.00009, 9.999845 
9.550041e+2, 1.8496059e+2, -1125335.8, -1156697.1, 9991.225, 0.026234591, -0.029769957, -1122423.3, 4960.9355, 0.0, 10.000143, 9.999723 
9.5500785e+2, 1.9496039e+2, -1025987.6, -1057365.6, 6843.6113, 0.02064882, -0.024298511, -1024560.0, 4825.4907, 0.0, 10.000149, 9.99973 
9.550114e+2, 2.0496017e+2, -934511.2, -964479.8, -7140.172, 0.009304732, -0.018385919, -932897.0, -1509.4122, 0.0, 10.000112, 9.999714 
9.550147e+2, 2.1495992e+2, -847315.75, -869748.5, -5736.1924, -0.0066460343, -0.017849023, -845934.06, -12543.682, 0.0, 10.0000305, 9.99973 
9.550182e+2, 2.2495942e+2, -761172.44, -809169.25, 5233.389, -0.01520629, -0.026851876, -760608.44, -25213.244, 0.0, 10.000085, 9.999447 
9.5502204e+2, 2.3495863e+2, -633418.06, -695506.94, 2054.1145, -0.017113633, -0.05192713, -633350.2, 4051.9502, 0.0, 10.000283, 9.999459 
9.5502573e+2, 2.4495812e+2, -521798.97, -597140.0, -5373.1094, -0.014188595, -0.047890563, -521417.72, 17989.191, 0.0, 10.000404, 9.999403 
9.550294e+2, 2.549578e+2, -418189.13, -495093.56, 658.879, -0.005815815, -0.021634636, -418183.47, 23226.234, 0.0, 10.000437, 9.999415 
9.550328e+2, 2.6495704e+2, -349905.3, -452909.7, -19047.547, 0.006893578, -0.022564685, -346495.88, -3078.323, 0.0, 10.00041, 9.999044 
9.55036e+2, 2.7495578e+2, -263456.13, -359182.6, -21915.066, 0.02234377, -0.05506262, -258677.55, -13247.109, 0.0, 10.000325, 9.999056 
9.550394e+2, 2.8495488e+2, -155705.97, -261927.75, 8619.018, 0.011231404, -0.046850894, -155011.16, -7572.5347, 0.0, 10.000417, 9.999007 
9.550429e+2, 2.9495436e+2, -19311.117, -144071.56, 8913.745, -0.02656533, -0.0048177233, -18677.477, 30764.787, 0.0, 10.000674, 9.999019 
9.5504653e+2, 3.049526e+2, 46673.773, -96808.82, -7308.5596, -0.030091677, -0.07543997, 47045.086, 47045.086, 0.0, 10.0008335, 9.998933 
9.550503e+2, 3.149519e+2, 72484.42, -57218.95, -6169.5527, 0.017022481, -0.040047526, 72777.23, 72777.23, 0.000000027453995, 10.000893, 9.999176 
9.649822e+2, 1.2495766e+2, -1768653.3, -1717142.9, -28585.498, 0.052387167, -0.03275312, -1704421.4, 10991.687, 0.000040247374, 9.999533, 10.000208 
9.649853e+2, 1.3495773e+2, -1604205.5, -1610438.9, -24560.518, 0.008590061, -0.029049156, -1582564.8, 34846.92, 0.0000086557575, 10.000089, 10.000001 
9.6498924e+2, 1.4495763e+2, -1505575.8, -1544160.6, -14175.614, 0.05403822, -0.023246653, -1500927.8, 18485.01, 0.00000019058375, 10.000232, 9.999712 
9.6499264e+2, 1.5495747e+2, -1452411.3, -1466448.5, -7858.7075, 0.023939935, -0.0134499045, -1448893.3, -27478.102, 0.0, 9.999918, 9.999723 
9.649962e+2, 1.6495728e+2, -1351637.6, -1348643.5, 5274.7065, 0.0074092713, -0.011596694, -1344657.5, -21240.17, 0.0, 9.999856, 9.999889 
9.650003e+2, 1.7495713e+2, -1221502.6, -1233155.0, 1686.9402, 0.014708581, -0.019540507, -1221263.4, 4155.464, 0.0, 10.000069, 9.999907 
9.650042e+2, 1.8495694e+2, -1118424.4, -1147052.4, -2503.518, 0.018892398, -0.022486635, -1118207.0, 9213.108, 0.0, 10.000164, 9.99978 
9.6500796e+2, 1.9495669e+2, -1023351.25, -1049376.3, 4381.159, 0.0167024, -0.027025906, -1022633.5, 6788.026, 0.0, 10.000139, 9.999788 
9.650115e+2, 2.0495647e+2, -934742.06, -973703.56, -7861.169, 0.007092905, -0.02052583, -933215.75, -1791.989, 0.0, 10.000151, 9.999631 
9.6501476e+2, 2.1495625e+2, -828456.5, -870269.75, -16317.445, -0.009354364, -0.009258806, -822842.5, 10584.447, 0.0, 10.000201, 9.999644 
9.650184e+2, 2.2495574e+2, -733566.75, -788266.1, 1531.4911, -0.015999211, -0.01741554, -733523.94, 1908.0344, 0.0, 10.000242, 9.999516 
9.650223e+2, 2.3495494e+2, -630279.6, -686105.94, 9853.546, -0.013568665, -0.052263286, -628591.5, 8847.487, 0.0, 10.000271, 9.99953 
9.650261e+2, 2.4495448e+2, -548019.9, -603947.6, -1829.8871, -0.01042874, -0.045945093, -547960.06, -8517.154, 0.0, 10.000199, 9.9994545 
9.650296e+2, 2.549544e+2, -473976.3, -516003.53, -3788.2114, -0.0059824623, -0.0038648085, -473637.56, -32193.754, 0.0, 10.000029, 9.999468 
9.650331e+2, 2.649536e+2, -378506.97, -471737.1, -13244.175, 0.004858348, -0.0037443864, -376662.03, -33210.45, 0.0, 10.000237, 9.998999 
9.650366e+2, 2.7495217e+2, -194914.56, -331472.75, -13972.186, 0.020987444, -0.050961178, -193499.64, 51966.63, 0.0, 10.00082, 9.999008 
9.6503997e+2, 2.849512e+2, -91748.086, -232386.69, 4126.092, 0.009931748, -0.0496509, -91627.14, 55848.15, 0.0, 10.000861, 9.998996 
9.650434e+2, 2.9495066e+2, -65038.992, -167374.9, 2344.011, -0.027374115, -0.0063865157, -64985.33, -15506.607, 0.0, 10.000366, 9.999008 
9.6504724e+2, 3.0494902e+2, -4838.8926, -119879.195, -1146.644, -0.02088807, -0.068130314, -4827.465, -4827.465, 0.0, 10.000473, 9.998948 
9.650516e+2, 3.149482e+2, 111881.984, -43416.676, -13352.035, 0.041580938, -0.04479527, 113021.586, 113021.586, 0.00000000015790982, 10.001187, 9.999129 
9.7498184e+2, 1.2495352e+2, -1766193.9, -1710217.1, -11026.495, 0.057820924, -0.032694947, -1708123.4, 7331.0806, 0.000057975532, 9.999524, 10.000259 
9.749854e+2, 1.349538e+2, -1599524.9, -1601903.4, -2203.5562, 0.008664505, -0.015004391, -1598210.1, 19241.082, 0.000014441633, 10.000093, 10.000057 
9.7498935e+2, 1.4495374e+2, -1495873.9, -1525360.1, -25462.496, 0.041316114, -0.013798992, -1481194.3, 38257.367, 0.0000005546723, 10.0002365, 9.999839 
9.7499245e+2, 1.5495348e+2, -1443223.8, -1447557.8, -19402.783, 0.016403038, -0.02649599, -1425867.4, -4413.049, 0.0, 9.999918, 9.999853 
9.7499603e+2, 1.6495338e+2, -1357541.8, -1361096.1, 12473.321, 0.0014603648, -0.018923571, -1346719.6, -23263.898, 0.0, 9.999857, 9.999804 
9.7500026e+2, 1.7495348e+2, -1227887.1, -1246158.0, 9590.275, 0.0061649396, 0.006512945, -1223777.6, 1678.0687, 0.0, 10.000067, 9.999818 
9.7500426e+2, 1.849533e+2, -1105003.9, -1118806.8, -4119.26, 0.007978336, 0.0012818133, -1103868.0, 23588.51, 0.0, 10.000161, 9.999975 
9.75008e+2, 1.9495289e+2, -1009105.4, -1020279.4, 3053.97, 0.004728168, -0.04091472, -1008325.2, 21133.145, 0.0, 10.000141, 9.999988 
9.7501147e+2, 2.0495261e+2, -948576.8, -1003103.2, -7255.932, -0.0097852275, -0.04032945, -947627.8, -16166.663, 0.0, 10.000154, 9.999429 
9.750147e+2, 2.1495244e+2, -843030.3, -900158.9, -14923.303, -0.0345716, -0.0032432913, -839366.94, -5901.934, 0.0, 10.000199, 9.99944 
9.750185e+2, 2.2495209e+2, -717988.56, -755358.56, 1653.6193, -0.032347076, 0.003491742, -717915.5, 17553.266, 0.0, 10.000239, 9.999743 
9.7502273e+2, 2.3495157e+2, -614606.75, -652757.7, 10759.092, -0.0033902384, -0.026100533, -611781.75, 25690.756, 0.0, 10.000268, 9.99976 
9.750264e+2, 2.449511e+2, -551364.06, -610838.5, -8870.582, 0.008238995, -0.030915042, -550069.2, -10592.792, 0.0, 10.000198, 9.999409 
9.750297e+2, 2.5495067e+2, -476724.3, -522235.03, -9986.853, 0.0021998056, -0.017554982, -474629.25, -33148.645, 0.0, 10.0000305, 9.999424 
9.7503334e+2, 2.649499e+2, -379624.88, -473849.3, 8936.164, 0.00030985053, -0.015206051, -378784.88, -35296.457, 0.0, 10.0002365, 9.998984 
9.750372e+2, 2.7494878e+2, -196704.98, -333817.78, 8963.235, 0.0019459655, -0.029743843, -196121.53, 49378.46, 0.0, 10.000814, 9.998995 
9.750408e+2, 2.8494772e+2, -93855.484, -236197.34, -14287.531, 0.0020856154, -0.03261853, -92435.55, 55073.945, 0.0, 10.000858, 9.998972 
9.750441e+2, 2.9494676e+2, -66606.164, -170712.38, -15405.9375, 0.0017774208, -0.030298296, -64374.2, -14857.223, 0.0, 10.000365, 9.998985 
9.75048e+2, 3.0494508e+2, -17305.729, -144808.23, 25605.38, 0.01279983, -0.084937274, -12355.76, -12355.76, 0.0, 10.000468, 9.99878 
9.750528e+2, 3.149444e+2, 95316.734, -73246.33, 15684.121, 0.041766506, -0.0335817, 96763.66, 96763.66, 0.0, 10.001167, 9.998935 
9.849817e+2, 1.24949716e+2, -1652987.8, -1666583.9, 6929.799, 0.049005575, -0.025161138, -1650078.3, 65413.76, 0.00008015815, 10.000347, 10.000163 
9.8498535e+2, 1.3495001e+2, -1647971.1, -1634176.8, 8179.419, 0.00956419, 0.003154011, -1630374.8, -12885.639, 0.000022452736, 9.999799, 9.999978 
9.8498935e+2, 1.4494988e+2, -1566936.1, -1553687.5, -21733.074, 0.03906684, 0.0005977986, -1537591.6, -18101.604, 0.0000013019285, 9.9997225, 9.999892 
9.8499244e+2, 1.5494955e+2, -1413402.8, -1426259.8, -21488.143, 0.016883597, -0.028999094, -1397402.1, 24091.084, 0.0, 10.000093, 9.999914 
9.849961e+2, 1.6494943e+2, -1305430.1, -1338205.3, 11870.398, 0.0012022454, -0.024578696, -1301582.6, 21912.012, 0.0, 10.000225, 9.999783 
9.850003e+2, 1.7494959e+2, -1222713.1, -1246076.5, 13019.85, 0.00081263727, 0.010691309, -1216902.6, 8591.229, 0.0, 10.0001135, 9.999796 
9.8500425e+2, 1.8494944e+2, -1114928.8, -1122660.8, -5051.504, -0.00052481313, 0.0073056337, -1112433.6, 15060.9795, 0.0, 10.000089, 9.999984 
9.85008e+2, 1.9494897e+2, -1005724.44, -1017670.8, -12405.473, -0.0064838137, -0.04117395, -997929.0, 31567.963, 0.0, 10.000159, 9.999998 
9.850115e+2, 2.0494866e+2, -936986.6, -993568.44, -19510.97, -0.020449046, -0.044309076, -930911.1, 588.72266, 0.0, 10.000216, 9.999464 
9.850149e+2, 2.1494852e+2, -831078.0, -890283.9, -9954.701, -0.041749515, -0.00913485, -829449.06, 4054.29, 0.0, 10.000264, 9.999476 
9.850186e+2, 2.2494824e+2, -729590.0, -759824.06, 1888.7098, -0.037851132, 0.0029884211, -729472.44, 6034.0347, 0.0, 10.000155, 9.999751 
9.850227e+2, 2.3494786e+2, -669490.0, -678475.0, -6483.3403, -0.008917171, -0.012881867, -666094.75, -28585.64, 0.0, 9.999889, 9.999765 
9.850266e+2, 2.4494742e+2, -571787.06, -618075.1, -18990.807, 0.009204798, -0.017634353, -564992.9, -25479.936, 0.0, 10.000049, 9.999431 
9.8503023e+2, 2.5494686e+2, -387158.28, -476984.44, -16498.252, 0.015171154, -0.019462489, -384223.94, 57294.234, 0.0, 10.000636, 9.999443 
9.8503387e+2, 2.6494604e+2, -315726.0, -438006.44, -823.4627, 0.008407785, -0.022629738, -315720.44, 27805.53, 0.0, 10.000653, 9.999029 
9.8503757e+2, 2.7494502e+2, -298212.53, -377201.88, 2289.8093, -0.011002749, -0.03204212, -298146.2, -52609.844, 0.0, 10.000095, 9.9990425 
9.8504126e+2, 2.8494397e+2, -188001.48, -291980.97, -13725.4, -0.00497043, -0.031741712, -186220.22, -38674.21, 0.0, 10.0002575, 9.998878 
9.85045e+2, 2.9494295e+2, 39537.605, -130328.45, -20116.438, 0.02776225, -0.027872292, 41887.4, 91442.43, 0.0, 10.001142, 9.998889 
9.8504907e+2, 3.049414e+2, 89399.02, -80561.75, 18849.787, 0.035834383, -0.071612075, 91464.49, 91464.49, 0.0, 10.001148, 9.998893 
9.8505336e+2, 3.1494072e+2, -29705.693, -124468.234, 27105.83, 0.024365142, -0.02652181, -22500.236, -22500.236, 0.0, 10.000268, 9.999016 
9.949817e+2, 1.2494627e+2, -1671181.1, -1705249.8, -19887.56, 0.011741822, -0.013092933, -1662029.9, 53495.438, 0.00010704937, 10.000352, 9.999896 
9.9498516e+2, 1.3494644e+2, -1664323.8, -1668056.1, -11525.427, 0.010702015, 0.026036112, -1654514.4, -36989.84, 0.000032992957, 9.999798, 9.999746 
9.949891e+2, 1.4494617e+2, -1568011.1, -1555608.5, -7929.3354, 0.045879126, 0.02094889, -1551743.5, -32216.105, 0.0000026281716, 9.999721, 9.99988 
9.949926e+2, 1.5494567e+2, -1413771.3, -1426915.8, -7058.295, 0.022745913, -0.021622846, -1410699.1, 10832.407, 0.00000000019976186, 10.0000925, 9.99991 
9.949963e+2, 1.6494547e+2, -1302984.3, -1332783.9, 7231.4707, 0.003809835, -0.029894406, -1301322.1, 22211.29, 0.0, 10.000222, 9.999822 
9.9500036e+2, 1.7494555e+2, -1219504.6, -1240203.1, 8720.268, -0.0029034805, -0.007109209, -1216320.5, 9212.354, 0.0, 10.000116, 9.999836 
9.950043e+2, 1.8494539e+2, -1126969.8, -1148403.0, -3386.0103, -0.009136654, -0.0036931073, -1126447.6, 1086.4083, 0.0, 10.000092, 9.999805 
9.9500805e+2, 1.9494501e+2, -1018222.75, -1043487.94, -10334.1875, -0.017901693, -0.026429404, -1014534.25, 15002.502, 0.0, 10.000158, 9.999821 
9.9501175e+2, 2.0494471e+2, -918491.5, -954605.94, -18961.078, -0.026081871, -0.032311358, -910365.06, 21174.29, 0.0, 10.000213, 9.999733 
9.9501526e+2, 2.1494454e+2, -812211.75, -850672.4, -8855.01, -0.032029588, -0.027250782, -810270.94, 23270.723, 0.0, 10.000262, 9.999749 
9.950188e+2, 2.2494426e+2, -744224.9, -790314.9, -9333.289, -0.03389428, -0.018688718, -742406.56, -6861.9185, 0.0, 10.000155, 9.999542 
9.950224e+2, 2.349439e+2, -683879.1, -708668.0, -16698.748, -0.031774104, -0.01293306, -675477.6, -37929.223, 0.0, 9.999889, 9.9995575 
9.950264e+2, 2.4494348e+2, -566454.8, -606820.8, 2876.6155, -0.00959666, -0.0073079583, -566250.9, -26698.715, 0.0, 10.000047, 9.999509 
9.95031e+2, 2.5494298e+2, -381853.6, -465532.66, 6365.186, 0.032025814, -0.009052584, -381372.2, 60183.83, 0.0, 10.000634, 9.999523 
9.9503475e+2, 2.6494217e+2, -309542.38, -425264.13, -21725.252, 0.028219419, -0.023114348, -305598.2, 37965.434, 0.0, 10.000653, 9.999118 
9.9503756e+2, 2.74941e+2, -291879.88, -364042.13, -18288.717, -0.021280777, -0.05573143, -287509.5, -41934.51, 0.0, 10.000094, 9.999134 
9.9504143e+2, 2.8494e+2, -199299.25, -314610.06, 19804.912, -0.014793284, -0.047440976, -195992.53, -48407.746, 0.0, 10.000254, 9.998724 
9.9504644e+2, 2.9493922e+2, 28100.193, -152243.4, 14967.897, 0.04828956, -0.0018314804, 29334.037, 78926.83, 0.0, 10.001134, 9.998742 
9.950504e+2, 3.0493793e+2, 114485.15, -27288.342, -12986.475, 0.046184387, -0.030034758, 115664.89, 115664.89, 0.0, 10.0011425, 9.999262 
9.9505323e+2, 3.149373e+2, -7334.491, -75478.82, -3390.1555, -0.016257983, -0.024214925, -7166.2476, -7166.2476, 0.0, 10.0002575, 9.999357 
1.0049816e+3, 1.24942474e+2, -1791346.4, -1760830.9, -60146.75, 0.012361534, 0.010522154, -1714036.8, 1526.3188, 0.0001389771, 9.999514, 9.999921 
1.0049851e+3, 1.3494232e+2, -1624925.5, -1643330.6, -23813.62, 0.01404951, 0.011996785, -1608598.1, 8966.8955, 0.000046326506, 10.000043, 9.999799 
1.0049891e+3, 1.4494202e+2, -1492766.8, -1525520.5, -4622.601, 0.041897595, 0.0035584958, -1492126.9, 27441.234, 0.00000474816, 10.000264, 9.999825 
1.0049927e+3, 1.5494175e+2, -1412577.3, -1433442.6, -10245.816, 0.024246164, -0.010018335, -1408387.5, 13183.007, 0.000000004412824, 10.00013, 9.999849 
1.0049965e+3, 1.6494156e+2, -1320077.8, -1338816.1, -3073.828, 0.009591393, -0.013517388, -1319586.4, 3985.77, 0.0, 10.000094, 9.999843 
1.00500055e+3, 1.7494147e+2, -1210263.1, -1232781.6, -2941.335, 0.0025602402, -0.009625737, -1209885.3, 15687.616, 0.0, 10.000166, 9.999863 
1.0050044e+3, 1.8494128e+2, -1117889.9, -1149619.9, -9095.029, -0.008393219, -0.009416224, -1115467.8, 12106.648, 0.0, 10.000178, 9.999755 
1.00500815e+3, 1.9494097e+2, -1024897.94, -1052369.4, -7070.4517, -0.025588866, -0.020096144, -1023185.0, 6392.08, 0.0, 10.000137, 9.99977 
1.0050118e+3, 2.0494072e+2, -931130.44, -951325.5, -17572.297, -0.03422939, -0.02271194, -920961.1, 10618.024, 0.0, 10.000087, 9.999815 
1.0050154e+3, 2.1494058e+2, -840529.25, -855310.75, -22096.344, -0.033350263, -0.02212651, -824620.4, 8960.121, 0.0, 10.000029, 9.99983 
1.00501895e+3, 2.2494026e+2, -742595.7, -793653.56, -20628.14, -0.030681862, -0.019189797, -735303.2, 280.37683, 0.0, 10.000186, 9.999504 
1.0050227e+3, 2.3493977e+2, -588295.5, -667032.94, -16780.563, -0.02740058, -0.022702122, -584868.4, 52720.156, 0.0, 10.000566, 9.999517 
1.0050267e+3, 2.4493928e+2, -498037.84, -577206.0, 5306.917, -0.01049181, -0.019908624, -497683.7, 41909.31, 0.0, 10.000532, 9.999477 
1.00503124e+3, 2.5493884e+2, -465179.4, -508532.94, -284.91968, 0.020042146, -0.015370002, -465177.53, -23580.74, 0.0, 10.000077, 9.999495 
1.00503504e+3, 2.6493812e+2, -378646.38, -453058.75, -34963.78, 0.021998333, -0.022727024, -364796.06, -21192.31, 0.0, 10.000157, 9.999165 
1.0050381e+3, 2.74937e+2, -189997.34, -309953.9, -35048.83, -0.0057131564, -0.04942964, -180507.55, 65106.566, 0.0, 10.000772, 9.999178 
1.00504205e+3, 2.849361e+2, -119857.99, -265884.84, 13905.058, -0.0033172653, -0.0427737, -118545.7, 29077.658, 0.0, 10.000755, 9.9988165 
1.0050469e+3, 2.9493532e+2, -116197.46, -211065.23, 24493.83, 0.030275298, -0.006973746, -110246.695, -60615.39, 0.0, 10.000097, 9.9988365 
1.00505084e+3, 3.0493414e+2, -24361.537, -87532.414, -11812.197, 0.030552214, -0.027940536, -22225.055, -22225.055, 0.0, 10.00016, 9.999321 
1.005054e+3, 3.149336e+2, 96169.32, -20541.967, -24824.168, 0.0012267157, -0.017954286, 101229.93, 101229.93, 0.0, 10.000949, 9.9994 
1.01498134e+3, 1.249383e+2, -1768114.9, -1710528.3, -45683.188, 0.031024361, 0.041174695, -1685321.5, 30284.129, 0.00017643356, 9.999506, 10.000269 
1.01498514e+3, 1.3493769e+2, -1599792.1, -1590312.9, -2519.2048, 0.015924752, -0.04051207, -1589685.0, 27925.021, 0.00006271102, 10.00004, 10.000164 
1.0149892e+3, 1.4493747e+2, -1501053.4, -1543294.0, -9466.453, 0.02421284, -0.053152137, -1499028.9, 20582.85, 0.000007860604, 10.000265, 9.999702 
1.0149928e+3, 1.549378e+2, -1421018.0, -1451988.9, -15161.354, 0.01930596, 0.00657599, -1414831.8, 6777.812, 0.000000028517778, 10.000133, 9.999721 
1.0149967e+3, 1.649378e+2, -1319406.5, -1338146.4, -1158.5546, 0.01528544, 0.026811646, -1319335.1, 4274.926, 0.0, 10.000097, 9.999846 
1.0150009e+3, 1.7493744e+2, -1209542.6, -1230963.3, -449.21976, 0.01594092, 0.0031746652, -1209533.3, 16079.917, 0.0, 10.000165, 9.999876 
1.0150047e+3, 1.8493715e+2, -1112966.9, -1139138.0, -11734.58, 0.0007303288, -0.010923609, -1108475.9, 19139.566, 0.0, 10.000176, 9.999828 
1.01500824e+3, 1.9493689e+2, -1019448.25, -1041490.44, -9197.944, -0.03139702, -0.022862032, -1016114.3, 13503.089, 0.0, 10.000138, 9.999845 
1.01501174e+3, 2.0493674e+2, -938239.5, -966333.8, -20940.379, -0.047603175, -0.01555453, -927071.1, 4547.564, 0.0, 10.000087, 9.999712 
1.01501524e+3, 2.149367e+2, -847918.75, -870416.44, -24815.941, -0.047091186, 0.006669246, -831921.2, 1698.1498, 0.0, 10.000028, 9.999726 
1.0150192e+3, 2.2493632e+2, -734730.9, -776684.9, -7432.342, -0.030157847, 0.0013152864, -733453.1, 2169.5227, 0.0, 10.000182, 9.999622 
1.0150235e+3, 2.3493555e+2, -579862.8, -649441.25, -2527.2842, 0.0036063006, -0.04158577, -579771.1, 57857.914, 0.0, 10.000565, 9.999639 
1.0150274e+3, 2.449349e+2, -508145.03, -598321.9, -12269.761, 0.0057447813, -0.05322034, -506505.38, 33129.535, 0.0, 10.000531, 9.999333 
1.0150309e+3, 2.5493443e+2, -475469.0, -529594.3, -17215.455, -0.02339133, -0.038064253, -470457.38, -28817.23, 0.0, 10.000074, 9.9993515 
1.01503484e+3, 2.6493382e+2, -378257.88, -451259.72, -11549.414, -0.013597791, -0.023410238, -376474.25, -32827.938, 0.0, 10.000153, 9.999179 
1.0150393e+3, 2.7493313e+2, -188623.9, -307178.88, -10305.665, 0.033926867, -0.015288978, -187734.72, 57918.723, 0.0, 10.000772, 9.999197 
1.0150432e+3, 2.8493226e+2, -98290.555, -221972.86, -9884.911, 0.027980287, -0.017796017, -97505.516, 50155.8, 0.0, 10.000758, 9.999118 
1.0150463e+3, 2.949312e+2, -96214.2, -168140.11, 808.5174, -0.030037593, -0.038006745, -96205.12, -46535.066, 0.0, 10.000091, 9.999135 
1.01505056e+3, 3.049301e+2, -41940.88, -121850.44, 18043.453, -0.015593522, -0.06050663, -38055.6, -38055.6, 0.0, 10.00015, 9.99909 
1.0150556e+3, 3.1492966e+2, 78601.914, -54924.21, 7491.2686, 0.06992125, -0.015305525, 79020.89, 79020.89, 0.0, 10.00094, 9.999168 
1.0249811e+3, 1.2493381e+2, -1725160.0, -1686970.9, -26921.088, 0.04501189, 0.02869125, -1673060.1, 42590.207, 0.00021988727, 9.999791, 10.000291 
1.02498524e+3, 1.3493341e+2, -1619558.4, -1596628.6, -6301.626, 0.025280247, -0.03300245, -1595010.9, 22641.92, 0.000082442966, 9.999889, 10.000193 
1.02498926e+3, 1.4493333e+2, -1527955.9, -1544051.1, -28413.082, 0.020669047, -0.0389606, -1506472.8, 13180.464, 0.000012107546, 10.000027, 9.999813 
1.0249929e+3, 1.5493372e+2, -1409840.5, -1433649.3, -16937.639, 0.02197286, 0.013514257, -1401042.3, 20607.67, 0.00000009714164, 10.0001545, 9.999836 
1.02499686e+3, 1.649337e+2, -1309013.0, -1338212.1, 6029.364, 0.017876448, 0.029961657, -1307817.0, 15833.432, 0.0, 10.000192, 9.9998 
1.02500096e+3, 1.7493328e+2, -1215640.3, -1239892.5, 1301.2845, 0.012556157, 0.005285517, -1215570.6, 10083.666, 0.0, 10.000148, 9.999823 
1.02500476e+3, 1.8493299e+2, -1120387.0, -1140831.0, -14982.654, -0.0029370452, -0.0065611578, -1112471.5, 15185.353, 0.0, 10.000117, 9.9998455 
1.0250083e+3, 1.9493282e+2, -1021855.25, -1040465.94, -17115.379, -0.030981356, -0.011890229, -1011679.2, 17978.78, 0.0, 10.000113, 9.999864 
1.02501184e+3, 2.0493266e+2, -928622.2, -961232.25, -25387.93, -0.04727426, -0.0059416015, -914754.4, 16904.773, 0.0, 10.000152, 9.999716 
1.0250154e+3, 2.1493253e+2, -816570.3, -854866.1, -21962.695, -0.051781952, 0.0055318926, -806580.6, 27079.87, 0.0, 10.000241, 9.99973 
1.0250193e+3, 2.2493212e+2, -733819.0, -777065.5, -1730.9052, -0.035146274, -0.00228248, -733749.9, 1914.0925, 0.0, 10.000193, 9.999614 
1.0250238e+3, 2.3493142e+2, -661892.0, -689598.3, -7081.788, 0.0032603426, -0.03625798, -660186.8, -22517.117, 0.0, 10.000006, 9.999631 
1.0250277e+3, 2.4493082e+2, -577597.56, -629994.06, -22551.871, 0.0070042266, -0.046366375, -569228.0, -29552.459, 0.0, 10.000049, 9.999347 
1.025031e+3, 2.5493026e+2, -438958.88, -510866.34, -16806.67, -0.024976198, -0.03950825, -435224.63, 6456.8813, 0.0, 10.0003195, 9.999362 
1.025035e+3, 2.6492968e+2, -337665.3, -426152.13, 9292.067, -0.018234435, -0.025006674, -336700.06, 6987.3145, 0.0, 10.000407, 9.999228 
1.0250398e+3, 2.7492914e+2, -253140.48, -331919.0, 11196.762, 0.027067414, -0.008214436, -251580.0, -5887.032, 0.0, 10.000304, 9.999251 
1.0250437e+3, 2.8492826e+2, -149836.81, -249103.27, -15170.016, 0.024511084, -0.011843844, -147570.27, 130.32341, 0.0, 10.000415, 9.999095 
1.0250468e+3, 2.9492706e+2, -2452.4097, -125791.62, -28134.895, -0.024842527, -0.043703444, 3662.2935, 53372.734, 0.0, 10.000747, 9.999109 
1.025051e+3, 3.049259e+2, 43812.543, -86497.46, 356.19498, -0.010560061, -0.064747006, 43813.516, 43813.516, 0.0, 10.000766, 9.999035 
1.02505624e+3, 3.149254e+2, 991.5191, -100319.836, -288.59998, 0.064580396, -0.022499422, 992.34125, 992.34125, 0.0, 10.00044, 9.999098 
1.0349809e+3, 1.24929026e+2, -1749960.4, -1738029.5, -28622.27, 0.039997425, -0.029953325, -1714757.6, 939.26263, 0.00026982953, 9.999789, 9.999942 
1.03498526e+3, 1.349296e+2, -1642329.1, -1643719.5, -1788.6646, 0.039554648, 0.03589349, -1641105.3, -23412.297, 0.00010582585, 9.999888, 9.99987 
1.03498936e+3, 1.449297e+2, -1503667.4, -1493548.8, -23617.87, 0.027827153, 0.048947934, -1474454.4, 45237.32, 0.000017580334, 10.000026, 10.00016 
1.03499316e+3, 1.5492953e+2, -1384709.5, -1380715.5, -11823.34, 0.030983035, 0.010220661, -1370721.8, 50969.58, 0.00000023822265, 10.000152, 10.0002 
1.0349971e+3, 1.6492932e+2, -1316056.8, -1353675.1, 3510.9197, 0.016875137, -0.0057084295, -1315731.9, 7960.7734, 0.0, 10.000194, 9.999693 
1.0350008e+3, 1.7492908e+2, -1223427.8, -1256566.8, -580.6914, -0.010158605, -0.003416834, -1223417.6, 2278.1443, 0.0, 10.00015, 9.999708 
1.0350048e+3, 1.8492891e+2, -1123619.8, -1147666.4, -16182.255, -0.023523621, 0.005210651, -1115483.1, 12214.483, 0.0, 10.000117, 9.999798 
1.0350086e+3, 1.9492884e+2, -1025014.9, -1046663.06, -17908.04, -0.024763942, 0.013752766, -1014913.9, 14784.184, 0.0, 10.000111, 9.999822 
1.0350121e+3, 2.0492858e+2, -921660.06, -946434.25, -23330.627, -0.033274047, 0.0062651965, -907632.0, 24067.936, 0.0, 10.00015, 9.999819 
1.03501566e+3, 2.149281e+2, -809192.8, -839500.94, -19241.58, -0.048607357, -0.02603895, -799854.4, 33849.156, 0.0, 10.00024, 9.999836 
1.0350194e+3, 2.2492772e+2, -743074.56, -796457.44, -9886.269, -0.04759771, -0.029333076, -741302.5, -5595.551, 0.0, 10.000193, 9.999481 
1.0350234e+3, 2.3492746e+2, -671405.5, -709468.06, -14224.816, -0.029570086, -0.00732756, -666676.8, -28966.71, 0.0, 10.000006, 9.9994955 
1.0350276e+3, 2.4492702e+2, -566245.8, -605670.6, -12590.809, -0.009123225, -0.0015577748, -562567.9, -22853.352, 0.0, 10.000045, 9.999516 
1.03503175e+3, 2.5492638e+2, -426666.53, -485904.1, -5830.5137, 0.013618513, -0.020481162, -426098.13, 15622.33, 0.0, 10.000321, 9.999532 
1.0350358e+3, 2.6492572e+2, -333062.16, -417214.38, 5816.517, 0.0071706646, -0.025821462, -332662.03, 11064.305, 0.0, 10.000409, 9.999289 
1.0350396e+3, 2.7492508e+2, -249789.84, -323617.47, 7944.564, -0.028366817, -0.024486559, -248944.61, -3212.3967, 0.0, 10.000298, 9.999312 
1.0350437e+3, 2.8492412e+2, -173419.95, -295668.28, -2471.7905, -0.016979257, -0.023581421, -173370.0, -25629.078, 0.0, 10.000404, 9.99878 
1.0350482e+3, 2.949229e+2, -24012.24, -170567.97, -13462.406, 0.04190076, -0.027798953, -22785.863, 26966.467, 0.0, 10.000747, 9.998801 
1.0350524e+3, 3.049217e+2, 50839.137, -73549.92, -9863.416, 0.042844493, -0.04448538, 51616.4, 51616.4, 0.0, 10.0007715, 9.999123 
1.0350559e+3, 3.149209e+2, 4898.454, -90785.93, -9916.55, -0.017151732, -0.03684218, 5915.379, 5915.379, 0.0, 10.000432, 9.999167 
1.0449808e+3, 1.2492501e+2, -1749739.1, -1744860.3, -29915.135, 0.05714323, -0.006959683, -1717285.3, -1547.5574, 0.00032683904, 9.999819, 9.999881 
1.04498535e+3, 1.3492556e+2, -1627508.4, -1640766.4, 23548.44, 0.04862748, 0.06093925, -1609673.6, 8060.4834, 0.00013321284, 10.000008, 9.999833 
1.0449894e+3, 1.4492561e+2, -1492794.8, -1487755.5, -2355.86, 0.020680692, 0.07010009, -1486825.8, 32907.453, 0.000024406861, 10.0001, 10.000163 
1.04499325e+3, 1.5492532e+2, -1396979.8, -1386901.4, -20017.664, 0.028487695, 0.019339321, -1371298.4, 50435.133, 0.0000004785213, 10.000067, 10.000199 
1.0449972e+3, 1.6492507e+2, -1338646.0, -1362801.1, -16359.373, 0.018573524, -0.0027203502, -1330389.0, -6653.846, 0.0, 10.0000305, 9.999709 
1.045001e+3, 1.7492484e+2, -1242903.6, -1263433.1, -11169.424, -0.008085814, 0.0014073424, -1237998.6, -12260.965, 0.0, 10.000006, 9.999729 
1.0450047e+3, 1.8492468e+2, -1140262.4, -1154910.0, -17499.47, -0.020914368, 0.009559523, -1128615.9, -876.67975, 0.0, 10.000002, 9.999803 
1.0450087e+3, 1.9492458e+2, -1036696.1, -1051931.5, -16089.013, -0.021027027, 0.015167953, -1026512.56, 3227.361, 0.0, 10.00003, 9.999824 
1.0450123e+3, 2.0492432e+2, -936492.25, -956996.56, -21818.504, -0.028421693, 0.00877853, -922637.25, 9104.724, 0.0, 10.000063, 9.999786 
1.0450159e+3, 2.1492389e+2, -830345.06, -853005.9, -28577.182, -0.04322624, -0.016779874, -810934.06, 22811.502, 0.0, 10.000111, 9.999805 
1.04501955e+3, 2.2492355e+2, -746927.1, -792361.7, -22950.4, -0.048450433, -0.017111786, -737352.06, -1603.306, 0.0, 10.000141, 9.999535 
1.0450234e+3, 2.349233e+2, -645879.56, -691492.25, -14696.989, -0.044376045, 0.0029973425, -641554.2, -3802.6448, 0.0, 10.000155, 9.999547 
1.0450276e+3, 2.4492297e+2, -541799.8, -588528.94, -734.6767, -0.019807875, 0.012485135, -541788.25, -2033.1316, 0.0, 10.000189, 9.999564 
1.0450321e+3, 2.5492248e+2, -434817.22, -483589.1, -3823.7405, 0.025704985, 0.004364593, -434519.25, 7240.208, 0.0, 10.00024, 9.999586 
1.04503624e+3, 2.649218e+2, -350401.3, -423188.53, -5674.2686, 0.01988974, -0.0066468464, -349961.63, -6196.383, 0.0, 10.000281, 9.999309 
1.0450397e+3, 2.7492094e+2, -246127.72, -320117.22, -6900.6426, -0.03788461, -0.029221993, -245489.63, 283.0784, 0.0, 10.000315, 9.999328 
1.0450439e+3, 2.8491992e+2, -174096.39, -298538.94, 3208.3855, -0.027581826, -0.034414846, -174013.73, -26231.818, 0.0, 10.000411, 9.998757 
1.045049e+3, 2.949188e+2, -53525.05, -186848.56, 11430.432, 0.052645564, -0.025831018, -52552.164, -2759.615, 0.0, 10.000553, 9.998782 
1.0450531e+3, 3.049176e+2, 30319.863, -83157.7, 7577.4106, 0.050858557, -0.039965276, 30823.605, 30823.605, 0.0, 10.000629, 9.999125 
1.0450563e+3, 3.149167e+2, 37815.94, -75647.36, 1496.395, -0.03654419, -0.045940787, 37835.67, 37835.67, 0.0, 10.000663, 9.99916 
1.0549808e+3, 1.2492179e+2, -1732836.4, -1709407.3, -27972.361, 0.07958835, 0.09586977, -1690795.5, 24976.822, 0.00039134276, 9.999817, 10.000126 
1.0549854e+3, 1.3492139e+2, -1609040.0, -1602376.8, 31944.543, 0.051909782, 0.04234854, -1573590.6, 44184.934, 0.00016489324, 10.000007, 10.000097 
1.05498925e+3, 1.4492112e+2, -1517278.6, -1539591.4, -3778.178, -0.0017179704, 0.024086887, -1516656.3, 3120.8577, 0.000032768054, 10.000103, 9.999806 
1.0549932e+3, 1.5492116e+2, -1423552.8, -1441164.3, -21285.42, 0.011392846, 0.041431952, -1409323.5, 12452.411, 0.0000008393984, 10.000063, 9.999829 
1.0549972e+3, 1.6492099e+2, -1329349.4, -1343285.3, -17938.44, 0.018325316, 0.041577283, -1317073.1, 6703.694, 0.0, 10.00003, 9.999844 
1.05500124e+3, 1.7492065e+2, -1232610.1, -1242031.9, -12286.519, 0.018544009, 0.020385412, -1224162.4, 1616.9811, 0.0, 10.000006, 9.999876 
1.0550051e+3, 1.8492039e+2, -1136304.3, -1147190.0, -17579.117, 0.0050942083, 0.006028979, -1123344.6, 4436.7466, 0.0, 10.000004, 9.999856 
1.0550087e+3, 1.9492012e+2, -1033215.8, -1044623.4, -15571.709, -0.021915592, -0.008976551, -1022336.1, 7446.948, 0.0, 10.000029, 9.999875 
1.05501235e+3, 2.0491996e+2, -948451.3, -981707.56, -21156.223, -0.036071207, 0.0018910539, -938170.75, -6386.089, 0.0, 10.000062, 9.999619 
1.055016e+3, 2.1491994e+2, -842453.0, -878051.94, -27247.918, -0.036558095, 0.033435002, -827706.06, 6079.9688, 0.0, 10.00011, 9.999634 
1.0550198e+3, 2.2491963e+2, -730947.6, -759076.6, -23440.328, -0.038868885, 0.033787113, -717676.06, 18112.887, 0.0, 10.00014, 9.9997635 
1.0550236e+3, 2.3491904e+2, -629206.94, -657321.25, -14344.691, -0.04252851, -0.005451467, -623179.94, 14613.698, 0.0, 10.000156, 9.999782 
1.0550277e+3, 2.449187e+2, -546662.7, -598939.1, 843.65784, -0.026461048, -0.0029710964, -546649.06, -6852.358, 0.0, 10.00019, 9.999494 
1.05503224e+3, 2.5491863e+2, -440244.5, -494352.53, -1529.458, 0.010219273, 0.03584181, -440201.3, 1596.8375, 0.0, 10.000237, 9.999515 
1.0550365e+3, 2.6491797e+2, -351796.28, -424951.0, -4411.3247, 0.018187957, 0.030928103, -351531.22, -7727.302, 0.0, 10.000276, 9.9993 
1.0550404e+3, 2.7491674e+2, -246536.69, -321353.94, -4504.9224, -0.004929064, -0.024997719, -246266.42, -452.2296, 0.0, 10.000316, 9.999319 
1.0550445e+3, 2.849157e+2, -157088.02, -264024.53, 9511.437, -0.0099019725, -0.0453852, -156248.61, -8425.443, 0.0, 10.000413, 9.998993 
1.0550491e+3, 2.949148e+2, -38205.668, -153263.28, 17833.018, 0.006679339, -0.034192655, -35505.08, 14325.536, 0.0, 10.000545, 9.999018 
1.0550533e+3, 3.0491373e+2, 24193.11, -93493.93, 8535.547, 0.011787408, -0.047633573, 24808.95, 24808.95, 0.0, 10.000619, 9.999058 
1.0550573e+3, 3.1491283e+2, 34326.53, -83823.414, 4986.747, -0.0016427159, -0.049706195, 34536.633, 34536.633, 0.0, 10.000666, 9.999102 
1.06498085e+3, 1.24917686e+2, -1728511.5, -1704258.8, -36006.594, 0.09116846, 0.12601154, -1678391.4, 37423.17, 0.00046328275, 9.999835, 10.000151 
1.0649853e+3, 1.3491715e+2, -1621747.3, -1604398.6, 9689.586, 0.060495287, 0.057832353, -1600067.9, 17750.166, 0.00020096678, 9.999901, 10.000135 
1.0649893e+3, 1.4491679e+2, -1529778.9, -1557143.9, -25478.873, -0.009221303, 0.030465713, -1514541.0, 5279.4165, 0.000042859534, 10.000067, 9.999703 
1.0649933e+3, 1.5491667e+2, -1397184.8, -1439677.8, -24272.14, 0.0069734454, 0.043993346, -1386173.8, 35647.168, 0.0000013547858, 10.000294, 9.999726 
1.0649975e+3, 1.6491649e+2, -1289638.1, -1320676.6, -21721.205, 0.019881155, 0.046784915, -1278461.8, 45360.027, 0.0, 10.00029, 9.999872 
1.06500134e+3, 1.7491628e+2, -1221035.6, -1233497.3, -25356.32, 0.028109234, 0.033916574, -1201155.8, 24667.15, 0.0, 10.0000725, 9.999903 
1.06500514e+3, 1.8491597e+2, -1140931.9, -1148697.0, -30769.904, 0.017113322, 0.016101424, -1113800.6, 14024.295, 0.0, 9.999969, 9.999862 
1.06500864e+3, 1.949156e+2, -1037771.6, -1045981.56, -32757.389, -0.014653014, -0.013033454, -1008863.0, 20964.662, 0.0, 9.999995, 9.999882 
1.0650124e+3, 2.0491543e+2, -954786.5, -982012.1, -32506.1, -0.033489604, -0.0036982878, -933157.94, -1328.7336, 0.0, 10.000008, 9.999642 
1.0650161e+3, 2.1491554e+2, -854856.9, -881341.06, -24717.05, -0.039016794, 0.039373547, -840058.2, -6228.7085, 0.0, 10.000012, 9.999658 
1.0650199e+3, 2.2491528e+2, -742355.94, -764848.9, -20263.805, -0.039512012, 0.042723395, -730426.9, 5405.177, 0.0, 10.000063, 9.999761 
1.06502384e+3, 2.3491463e+2, -628150.6, -656563.8, -29383.354, -0.034534324, -0.0017821651, -609719.7, 28117.428, 0.0, 10.000164, 9.999783 
1.06502794e+3, 2.4491423e+2, -555833.3, -605018.1, -25068.41, -0.02274025, -0.0044281944, -545308.56, -5467.891, 0.0, 10.000134, 9.999477 
1.06503226e+3, 2.5491408e+2, -479889.56, -515421.6, -24294.428, -0.0039039426, 0.028177474, -467558.22, -25715.29, 0.0, 9.999972, 9.999497 
1.0650365e+3, 2.6491347e+2, -380156.8, -434441.2, -13916.666, 0.007001063, 0.026906507, -376797.0, -32948.707, 0.0, 10.000062, 9.999337 
1.0650409e+3, 2.7491245e+2, -231661.42, -309188.47, -11087.797, 0.008702731, -0.01414946, -230106.83, 15749.78, 0.0, 10.000397, 9.999363 
1.06504515e+3, 2.849114e+2, -149979.4, -263862.25, -12392.357, 0.0007217719, -0.03263894, -148646.5, -781.0451, 0.0, 10.000477, 9.998963 
1.0650493e+3, 2.949104e+2, -73180.945, -173792.25, -24249.621, -0.01475113, -0.03428633, -67641.25, -17766.424, 0.0, 10.00032, 9.998983 
1.0650537e+3, 3.049093e+2, 5667.731, -81023.0, -26353.027, -0.007374861, -0.05469718, 13050.097, 13050.097, 0.0, 10.000401, 9.9992485 
1.0650581e+3, 3.149087e+2, 48994.504, -54638.34, -14106.494, 0.018227767, -0.04171435, 50880.36, 50880.36, 0.0, 10.000673, 9.999298 
1.0749806e+3, 1.2491277e+2, -1744263.0, -1735670.1, -37415.188, 0.07891206, 0.083291955, -1702305.5, 13558.131, 0.000542142, 9.999832, 9.999936 
1.07498534e+3, 1.3491297e+2, -1636948.5, -1634031.4, 12938.617, 0.07151531, 0.10775321, -1622469.4, -4608.4326, 0.00024133897, 9.999893, 9.999936 
1.0749894e+3, 1.4491266e+2, -1519433.3, -1534696.1, -16711.463, -0.0062828837, 0.09007685, -1508693.1, 11169.476, 0.0000548195, 10.000062, 9.99986 
1.0749937e+3, 1.5491195e+2, -1385475.1, -1415793.5, -15476.054, 0.014733205, 0.028155142, -1378970.8, 42896.875, 0.000002073113, 10.000296, 9.999889 
1.0749977e+3, 1.6491164e+2, -1294686.8, -1332198.5, -30835.205, 0.022624532, 0.012832992, -1277351.3, 46518.26, 0.0000000000166348, 10.000294, 9.999791 
1.07500136e+3, 1.7491175e+2, -1227594.0, -1246601.1, -33624.746, 0.018513404, 0.04130906, -1202155.6, 23712.332, 0.0, 10.00007, 9.999814 
1.07500516e+3, 1.8491156e+2, -1144514.0, -1155778.9, -30793.88, 0.010930048, 0.04078842, -1118841.8, 9027.354, 0.0, 9.999967, 9.999815 
1.0750089e+3, 1.9491105e+2, -1041147.0, -1052954.0, -32258.863, 0.00016221496, 0.003973807, -1014255.9, 15617.129, 0.0, 9.999994, 9.999834 
1.07501246e+3, 2.0491077e+2, -939710.0, -951205.3, -33599.93, -0.0210064, -0.0075772433, -911369.7, 20505.533, 0.0, 10.000009, 9.999854 
1.07501596e+3, 2.1491073e+2, -839910.94, -850279.94, -25228.098, -0.052276194, 0.000491829, -819340.1, 14535.447, 0.0, 10.000011, 9.999872 
1.07501976e+3, 2.2491053e+2, -758245.0, -797870.44, -17580.492, -0.052638095, 0.010084644, -751569.6, -15692.04, 0.0, 10.000062, 9.999535 
1.07502416e+3, 2.3491015e+2, -644255.9, -690282.94, -25542.338, -0.021110708, 0.014239272, -632888.7, 4992.704, 0.0, 10.000164, 9.999551 
1.0750282e+3, 2.4490958e+2, -553227.25, -599824.8, -31393.246, -0.009816017, 0.0072329743, -537431.7, 2454.954, 0.0, 10.000134, 9.999514 
1.075032e+3, 2.549089e+2, -477166.16, -510096.6, -29994.611, -0.019148404, -0.018642522, -459414.72, -17521.348, 0.0, 9.999974, 9.999534 
1.0750364e+3, 2.6490834e+2, -374152.16, -422453.75, -923.87805, -0.015264289, -0.017984373, -374134.5, -30236.719, 0.0, 10.000063, 9.999419 
1.07504115e+3, 2.7490804e+2, -226291.23, -297115.94, 2282.565, 0.0024153523, 0.004258501, -226217.75, 19681.799, 0.0, 10.000392, 9.999449 
1.0750457e+3, 2.849071e+2, -170713.03, -305438.7, -18411.223, 0.0029101444, 0.003379696, -168242.33, -20333.854, 0.0, 10.00047, 9.998681 
1.0750496e+3, 2.9490548e+2, -92987.016, -215153.86, -28535.377, -0.015583011, -0.028501566, -86650.47, -36725.637, 0.0, 10.000321, 9.998699 
1.0750541e+3, 3.0490434e+2, 35775.746, -19684.047, -14378.145, -0.009611725, -0.06289589, 39281.695, 39281.695, 0.0, 10.000404, 9.999668 
1.0750588e+3, 3.149045e+2, 78600.42, 7726.4175, -2232.7214, 0.020751104, -0.016592596, 78670.695, 78670.695, 0.0, 10.000669, 9.99973 
1.08498044e+3, 1.2490815e+2, -1726291.4, -1729358.6, -48092.496, 0.07884094, 0.08870302, -1679708.1, 36201.75, 0.0006273791, 9.999966, 9.999915 
1.0849855e+3, 1.3490835e+2, -1606276.1, -1619285.6, 20607.814, 0.08516691, 0.1129717, -1591170.9, 26736.049, 0.0002858709, 10.000104, 9.999935 
1.0849894e+3, 1.4490809e+2, -1512780.1, -1526650.8, -6632.069, -0.0048705763, 0.09712325, -1510119.4, 9788.659, 0.00006870092, 10.00009, 9.9999 
1.0849939e+3, 1.5490744e+2, -1439035.1, -1437433.0, -16833.482, 0.02317669, 0.03816821, -1421381.5, 530.8516, 0.0000030594845, 9.99991, 9.999927 
1.08499795e+3, 1.6490708e+2, -1351726.3, -1363273.9, -36053.465, 0.030838305, 0.01882765, -1320987.1, 2927.4143, 0.000000000186287, 9.999917, 9.99976 
1.08500145e+3, 1.7490707e+2, -1223373.3, -1247759.5, -35438.113, 0.016478622, 0.03699308, -1198089.3, 27825.008, 0.0, 10.000114, 9.9997835 
1.0850051e+3, 1.8490687e+2, -1120519.0, -1139973.4, -29046.984, 0.0070811165, 0.036980785, -1099613.8, 28301.498, 0.0, 10.000114, 9.999851 
1.0850089e+3, 1.949065e+2, -1048357.9, -1052248.9, -24551.07, 0.002714342, 0.010776299, -1025675.3, 4242.3604, 0.0, 9.9999275, 9.999871 
1.0850125e+3, 2.0490623e+2, -955865.94, -962875.44, -24726.398, -0.014879364, -0.0012510268, -934397.1, -2477.3835, 0.0, 9.999915, 9.999818 
1.085016e+3, 2.1490605e+2, -830884.3, -849755.9, -35619.51, -0.04663958, -0.0043297536, -803471.94, 30449.566, 0.0, 10.000091, 9.999837 
1.0850199e+3, 2.2490577e+2, -751248.3, -798429.94, -33340.086, -0.04872402, 0.0021648067, -733996.9, 1927.3177, 0.0, 10.000127, 9.999499 
1.0850242e+3, 2.3490539e+2, -667327.56, -705309.44, -28141.904, -0.020562679, 0.011285367, -652368.2, -14440.201, 0.0, 10.000023, 9.9995165 
1.08502835e+3, 2.4490485e+2, -556813.6, -604080.6, -25885.76, -0.012125249, 0.006018529, -545395.56, -5462.252, 0.0, 10.00012, 9.999492 
1.0850322e+3, 2.5490412e+2, -412795.7, -481125.03, -28929.512, -0.023765773, -0.020840153, -402192.72, 39747.418, 0.0, 10.000425, 9.999516 
1.0850365e+3, 2.6490355e+2, -328673.4, -411530.75, -10657.602, -0.020589998, -0.018681066, -327324.53, 16620.729, 0.0, 10.000424, 9.99932 
1.0850414e+3, 2.7490318e+2, -272842.16, -331063.13, -22093.898, -0.0019629, 0.00689629, -265407.3, -19458.77, 0.0, 10.000122, 9.999345 
1.0850459e+3, 2.8490224e+2, -212931.6, -314188.2, -32880.57, 0.00019697905, 0.010137263, -203191.39, -55234.277, 0.0, 10.00013, 9.998785 
1.08505e+3, 2.949008e+2, -68551.01, -191397.89, -14989.932, -0.015015531, -0.015368822, -66748.375, -16777.387, 0.0, 10.000438, 9.998806 
1.0850546e+3, 3.0489954e+2, 52455.273, -27904.102, -4227.457, -0.008714406, -0.058173243, 52677.055, 52677.055, 0.0, 10.000589, 9.999522 
1.0850594e+3, 3.1489962e+2, 62812.08, -14501.691, -35882.74, 0.01960438, -0.0059498497, 76899.16, 76899.16, 0.0, 10.000623, 9.9995985 
1.0949805e+3, 1.2490387e+2, -1714284.0, -1702036.8, -46937.617, 0.08042884, 0.13871574, -1660825.0, 55127.96, 0.0007190712, 9.999956, 10.000106 
1.09498575e+3, 1.349034e+2, -1591521.3, -1589343.8, 26998.373, 0.09926744, 0.07537577, -1563412.3, 54542.867, 0.00033462446, 10.000107, 10.000139 
1.0949895e+3, 1.4490312e+2, -1518078.5, -1538127.4, -13799.656, -0.007345196, 0.0528056, -1511046.5, 8909.483, 0.000084530904, 10.0000925, 9.999821 
1.0949939e+3, 1.5490319e+2, -1446174.5, -1451698.1, -23283.037, 0.030429117, 0.07303297, -1425490.0, -3535.3438, 0.0000043925156, 9.9999075, 9.99983 
1.0949979e+3, 1.649029e+2, -1350904.9, -1360918.0, -29263.512, 0.040864546, 0.064460844, -1326222.8, -2266.1523, 0.0000000006358386, 9.999914, 9.999777 
1.0950016e+3, 1.7490229e+2, -1222063.9, -1245335.0, -28185.916, 0.02080479, 0.021906786, -1203206.3, 22755.277, 0.0, 10.000115, 9.9998 
1.0950051e+3, 1.84902e+2, -1111773.5, -1122303.9, -37216.438, 0.0038356038, 0.0047661713, -1079451.6, 48511.438, 0.0, 10.000116, 9.999971 
1.0950087e+3, 1.9490202e+2, -1039875.1, -1034475.8, -32194.6, -0.008013599, 0.0068337074, -1004867.9, 25093.271, 0.0, 9.999927, 9.999994 
1.0950124e+3, 2.0490189e+2, -975648.2, -1003846.94, -19428.584, -0.017072618, 0.015556118, -965742.1, -33779.74, 0.0, 9.999914, 9.999538 
1.0950164e+3, 2.1490154e+2, -851014.8, -891681.56, -29386.998, -0.023403272, 0.025268873, -835612.5, -1645.6652, 0.0, 10.000091, 9.99955 
1.09502025e+3, 2.2490108e+2, -740654.3, -776960.9, -38346.633, -0.029183382, 0.019215673, -716381.1, 19590.36, 0.0, 10.000129, 9.999647 
1.09502405e+3, 2.3490046e+2, -656726.7, -683379.8, -32440.246, -0.03407411, -0.0107766595, -634982.4, 2994.1763, 0.0, 10.000022, 9.999667 
1.0950282e+3, 2.4490002e+2, -561736.5, -614440.06, -14815.244, -0.030786643, -0.008290133, -557857.4, -17877.043, 0.0, 10.00012, 9.99942 
1.0950327e+3, 2.5489977e+2, -418092.1, -491460.28, -17034.514, -0.018971577, 0.021184226, -414329.97, 27652.854, 0.0, 10.000422, 9.999447 
1.0950371e+3, 2.6489905e+2, -348895.06, -452996.06, -21819.047, -0.010512181, 0.024414852, -344506.88, -516.52765, 0.0, 10.000422, 9.999037 
1.0950415e+3, 2.748978e+2, -292728.97, -372822.13, -32430.03, -0.0064149546, -0.0060312785, -281244.63, -35241.516, 0.0, 10.000123, 9.999058 
1.0950459e+3, 2.848969e+2, -179434.03, -245219.55, -20573.496, -0.008535234, -0.011126416, -173529.86, -25519.02, 0.0, 10.000132, 9.999258 
1.0950504e+3, 2.948964e+2, -35764.85, -121561.195, -2257.9087, -0.015279837, 0.005178216, -35705.473, 14307.58, 0.0, 10.00043, 9.9992895 
1.0950552e+3, 3.0489495e+2, 2397.542, -130547.17, -3383.0273, -0.007849734, -0.04129184, 2483.574, 2483.574, 0.0, 10.000583, 9.998821 
1.09506e+3, 3.1489417e+2, 15858.519, -112898.18, -32340.336, 0.01025254, -0.0076300125, 23525.08, 23525.08, 0.0, 10.000626, 9.998921 
1.1049803e+3, 1.2489924e+2, -1714862.4, -1704349.5, -35749.434, 0.074199036, 0.14427437, -1673472.1, 42526.305, 0.000818133, 9.999961, 10.000088 
1.104986e+3, 1.3489865e+2, -1607651.8, -1596386.9, 24343.787, 0.11901267, 0.068910524, -1577032.4, 40969.324, 0.00038809632, 9.9999895, 10.000149 
1.10498965e+3, 1.448984e+2, -1520508.5, -1539822.1, -24878.148, -0.004669154, 0.04806546, -1503478.8, 16523.895, 0.000102482416, 10.000077, 9.999817 
1.1049939e+3, 1.5489858e+2, -1407260.0, -1433144.1, -28924.33, 0.02750155, 0.08191245, -1388514.3, 33486.035, 0.0000061708192, 10.000177, 9.999826 
1.1049979e+3, 1.6489838e+2, -1315531.5, -1333761.0, -26147.963, 0.04077415, 0.07694369, -1296955.1, 27046.223, 0.0000000015512864, 10.000116, 9.999865 
1.1050017e+3, 1.7489778e+2, -1245432.5, -1246672.1, -20348.102, 0.028824875, 0.026428878, -1225694.8, 310.85944, 0.0, 9.999913, 9.999887 
1.1050052e+3, 1.8489744e+2, -1145644.9, -1148713.6, -32623.564, 0.013446817, 0.0041718823, -1114519.6, 13487.983, 0.0, 9.999927, 9.999882 
1.1050088e+3, 1.9489737e+2, -1010975.8, -1030529.8, -44127.473, -0.003928464, 0.004950611, -975555.2, 54452.082, 0.0, 10.000168, 9.999904 
1.1050126e+3, 2.0489721e+2, -930664.06, -984153.4, -29051.4, -0.010723697, 0.018643225, -917921.25, 14087.475, 0.0, 10.000232, 9.99952 
1.1050166e+3, 2.1489698e+2, -849140.6, -892563.0, -19691.088, -0.007326764, 0.038886487, -841541.2, -7529.039, 0.0, 10.000112, 9.999534 
1.1050205e+3, 2.2489646e+2, -743578.9, -787418.3, -25643.096, -0.015228867, 0.033261396, -731763.7, 4253.5938, 0.0, 10.000149, 9.999565 
1.1050243e+3, 2.3489566e+2, -614686.94, -672378.7, -37623.063, -0.0344795, -0.006669053, -596124.1, 41900.19, 0.0, 10.000351, 9.999584 
1.1050285e+3, 2.4489519e+2, -539973.5, -607242.44, -29627.44, -0.036021896, -0.0017748051, -528785.4, 11243.283, 0.0, 10.000285, 9.999391 
1.10503286e+3, 2.5489506e+2, -489627.22, -529477.3, -30304.67, -0.019656394, 0.042916168, -473284.1, -31254.008, 0.0, 9.999946, 9.999414 
1.10503726e+3, 2.6489428e+2, -413701.28, -490859.25, -21626.582, -0.011799135, 0.047120582, -408053.03, -64014.906, 0.0, 10.000005, 9.998978 
1.1050417e+3, 2.748929e+2, -246044.02, -356831.75, -15688.834, -0.012885067, 0.003719586, -243865.16, 2187.8447, 0.0, 10.000473, 9.999 
1.1050463e+3, 2.8489193e+2, -113116.445, -204288.75, -12890.082, -0.014097093, -0.0053370446, -111329.06, 36731.605, 0.0, 10.00055, 9.999337 
1.1050508e+3, 2.9489154e+2, -59680.76, -124446.734, -25417.56, -0.013863829, 0.014984899, -50896.89, -836.10516, 0.0, 10.000228, 9.999368 
1.1050555e+3, 3.0488995e+2, -52742.31, -167561.58, -10561.094, -0.008728131, -0.045861416, -51778.98, -51778.98, 0.0, 10.000249, 9.998728 
1.1050606e+3, 3.148891e+2, 12801.353, -119717.64, 3676.2563, -0.0007117147, -0.0061845756, 12903.259, 12903.259, 0.0, 10.000628, 9.998874 
1.1149801e+3, 1.2489427e+2, -1731302.4, -1737658.6, -36736.023, 0.052588902, 0.1009449, -1697607.3, 18438.67, 0.00092609524, 9.999959, 9.99986 
1.11498624e+3, 1.3489415e+2, -1621608.0, -1625428.6, 26579.105, 0.14200416, 0.09154195, -1596870.6, 21175.785, 0.00044726714, 9.999989, 9.99995 
1.11498974e+3, 1.4489394e+2, -1515346.9, -1527766.6, -21380.553, 0.00032916834, 0.0808684, -1499292.6, 20754.844, 0.00012295434, 10.000072, 9.999902 
1.1149939e+3, 1.5489374e+2, -1401069.3, -1420289.8, -25159.346, 0.011717182, 0.06607688, -1383747.3, 38301.332, 0.000008505592, 10.000178, 9.999914 
1.11499794e+3, 1.6489361e+2, -1304279.4, -1310916.8, -34696.28, 0.027464997, 0.05711886, -1272743.4, 51304.8, 0.0000000033697685, 10.000118, 10.000021 
1.11500174e+3, 1.748936e+2, -1234148.0, -1223561.0, -28152.494, 0.039796572, 0.05012265, -1200208.8, 25837.357, 0.0, 9.999914, 10.000047 
1.1150055e+3, 1.8489327e+2, -1166792.9, -1192336.1, -24698.045, 0.034119587, 0.035206225, -1151759.8, -23711.342, 0.0, 9.999926, 9.999583 
1.1150092e+3, 1.9489259e+2, -1032568.4, -1075528.1, -35511.89, 0.0131539535, 0.005603346, -1012545.5, 17509.93, 0.0, 10.000169, 9.999596 
1.1150129e+3, 2.0489228e+2, -913657.1, -949146.94, -34803.555, 0.0021996056, 0.007927793, -892335.8, 39722.56, 0.0, 10.000232, 9.999761 
1.1150169e+3, 2.1489234e+2, -831944.7, -856460.6, -25026.602, 0.00097105216, 0.03631616, -816335.3, 17721.783, 0.0, 10.00011, 9.9997835 
1.1150207e+3, 2.2489195e+2, -765054.56, -831669.06, -19269.834, -0.0077256737, 0.0439784, -759882.0, -23820.744, 0.0, 10.000147, 9.999263 
1.11502476e+3, 2.3489106e+2, -636495.0, -717409.1, -30028.35, -0.023300955, 0.024077337, -626568.75, 11502.172, 0.0, 10.00035, 9.999276 
1.1150287e+3, 2.4489039e+2, -540310.0, -607526.94, -42461.074, -0.029647117, 0.026487643, -519766.16, 20311.547, 0.0, 10.000283, 9.99939 
1.1150327e+3, 2.5489e+2, -489586.94, -529689.7, -42553.348, -0.026697954, 0.044742364, -462597.44, -20515.953, 0.0, 9.999947, 9.999413 
1.1150371e+3, 2.648893e+2, -402111.84, -467558.7, -4074.3247, -0.024579851, 0.049270548, -401859.2, -57770.883, 0.0, 10.000008, 9.999137 
1.1150421e+3, 2.7488834e+2, -235804.94, -333809.3, 2728.4302, -0.023944054, 0.03471726, -235729.03, 10369.042, 0.0, 10.000465, 9.999161 
1.11504674e+3, 2.8488737e+2, -135477.5, -248769.44, -24388.299, -0.019981744, 0.026542313, -130450.5, 17655.896, 0.0, 10.000541, 9.999037 
1.11505106e+3, 2.9488632e+2, -80306.82, -168911.88, -35617.21, -0.012075464, 0.015565067, -67764.83, -17651.348, 0.0, 10.000235, 9.99906 
1.11505575e+3, 3.048846e+2, -18171.629, -97537.96, 4176.7627, -0.011349915, -0.06885256, -17952.426, -17952.426, 0.0, 10.000257, 9.999206 
1.11506104e+3, 3.1488457e+2, 49928.863, -39414.918, 19723.611, -0.017976552, 0.0062385625, 54089.324, 54089.324, 0.0, 10.000614, 9.999433 
1.1249801e+3, 1.24889515e+2, -1701718.6, -1731412.6, -49250.227, 0.04903182, 0.09664762, -1665126.1, 50966.707, 0.0010446907, 10.000197, 9.999787 
1.1249863e+3, 1.3488954e+2, -1603379.3, -1621685.3, 25558.15, 0.1522654, 0.107220665, -1585384.5, 32707.738, 0.0005132032, 10.000137, 9.999905 
1.1249898e+3, 1.4488935e+2, -1505127.1, -1516429.5, -13644.519, -0.007855454, 0.09811435, -1496009.9, 24083.342, 0.00014641856, 10.000115, 9.999958 
1.12499416e+3, 1.5488902e+2, -1405640.0, -1416597.3, -21437.072, 0.026801147, 0.06484925, -1388992.5, 33102.53, 0.00001150662, 10.00012, 9.999969 
1.1249982e+3, 1.6488887e+2, -1301885.4, -1312938.1, -43237.39, 0.044000182, 0.051446293, -1263822.6, 60272.32, 0.0000000061074554, 10.000147, 9.999994 
1.1250017e+3, 1.7488894e+2, -1194483.5, -1207403.1, -51387.543, 0.031875372, 0.054555517, -1149151.3, 76940.95, 0.0, 10.000199, 10.00002 
1.1250053e+3, 1.8488863e+2, -1137039.3, -1179126.1, -39495.277, 0.025087062, 0.04577351, -1113331.1, 14763.156, 0.0, 10.000135, 9.999573 
1.1250093e+3, 1.9488795e+2, -1064721.0, -1092269.9, -28731.34, 0.027073244, 0.017273402, -1046632.8, -16531.396, 0.0, 9.999953, 9.999584 
1.12501316e+3, 2.0488758e+2, -950823.0, -971004.06, -24183.877, 0.019192135, 0.015719017, -934708.94, -2603.9807, 0.0, 9.999994, 9.999724 
1.12501696e+3, 2.1488754e+2, -810278.6, -850015.9, -36164.41, -0.0002844969, 0.0352428, -788884.4, 45220.59, 0.0, 10.000276, 9.999747 
1.1250209e+3, 2.2488713e+2, -751355.4, -829447.5, -36142.3, -0.012548937, 0.045642097, -737195.6, -1086.3407, 0.0, 10.00026, 9.999224 
1.1250249e+3, 2.3488633e+2, -699591.9, -751815.06, -28530.594, -0.01696501, 0.041464526, -687027.75, -48909.74, 0.0, 9.999935, 9.99924 
1.12502895e+3, 2.4488567e+2, -589606.06, -637723.44, -29088.057, -0.018891187, 0.046924166, -575916.44, -35791.293, 0.0, 9.999973, 9.999331 
1.125033e+3, 2.548851e+2, -429723.7, -507387.38, -33722.81, -0.01845136, 0.05450211, -417124.6, 25006.162, 0.0, 10.000387, 9.999353 
1.1250374e+3, 2.6488438e+2, -341830.6, -432161.97, -1675.5746, -0.024395267, 0.054051068, -341799.53, 2338.419, 0.0, 10.000397, 9.999192 
1.12504214e+3, 2.7488348e+2, -302422.1, -360103.2, -3933.6375, -0.03747577, 0.04078145, -302155.06, -56008.527, 0.0, 9.999983, 9.999213 
1.1250469e+3, 2.8488255e+2, -214948.2, -295334.9, -22873.547, -0.029462527, 0.039924216, -208895.44, -60741.02, 0.0, 10.0000305, 9.998962 
1.1250516e+3, 2.9488158e+2, -36407.14, -156161.88, -18393.834, 0.0015682048, 0.0433857, -33645.605, 16516.164, 0.0, 10.000574, 9.998983 
1.1250563e+3, 3.048797e+2, 25189.824, -69122.414, 4504.7915, -0.000672162, -0.054896753, 25404.506, 25404.506, 0.0, 10.000523, 9.999271 
1.1250611e+3, 3.1487978e+2, -52779.734, -70821.73, -11570.161, -0.034334484, 0.019252911, -47129.434, -47129.434, 0.0, 9.999831, 9.999594 
1.1349805e+3, 1.2488501e+2, -1696326.5, -1717949.8, -51405.53, 0.059126973, 0.1303573, -1654608.0, 61530.848, 0.001174958, 10.000191, 9.999883 
1.1349864e+3, 1.3488492e+2, -1595372.1, -1605079.6, 23814.295, 0.1457695, 0.1176981, -1575921.9, 42216.523, 0.00058639556, 10.000136, 10.00002 
1.1349896e+3, 1.4488474e+2, -1503931.3, -1513649.9, -13770.866, -0.033382736, 0.10142218, -1494187.5, 25951.225, 0.00017311395, 10.0001135, 9.999979 
1.1349948e+3, 1.5488449e+2, -1404084.8, -1413902.5, -21062.57, 0.0715632, 0.07710837, -1387366.6, 34772.832, 0.000015247707, 10.000122, 9.999987 
1.1349988e+3, 1.6488418e+2, -1316886.8, -1343972.1, -42133.043, 0.08851394, 0.058720265, -1286173.4, 37967.6, 0.000000009421829, 10.000146, 9.999782 
1.13500156e+3, 1.7488381e+2, -1209600.4, -1239055.5, -49655.73, 0.0027412446, 0.040135324, -1172534.1, 53609.39, 0.0, 10.0002, 9.999802 
1.1350051e+3, 1.8488361e+2, -1117459.4, -1138902.0, -47475.27, -0.016476197, 0.035721455, -1079509.9, 48634.88, 0.0, 10.000136, 9.999849 
1.1350094e+3, 1.9488353e+2, -1044682.0, -1050762.9, -36298.86, 0.037376605, 0.039935756, -1011296.5, 18848.2, 0.0, 9.999953, 9.999869 
1.1350134e+3, 2.0488319e+2, -972629.44, -1016160.7, -14992.438, 0.039440338, 0.042357136, -967965.56, -35817.594, 0.0, 9.999993, 9.999415 
1.1350172e+3, 2.1488257e+2, -832644.56, -896500.8, -25956.658, -0.013438781, 0.036363132, -823424.75, 10730.237, 0.0, 10.000276, 9.999429 
1.135021e+3, 2.2488204e+2, -736621.2, -798544.1, -49296.42, -0.032364495, 0.039081283, -709369.7, 26791.102, 0.0, 10.000258, 9.999436 
1.1350249e+3, 2.3488156e+2, -684198.3, -719871.8, -41066.09, -0.015576824, 0.044916246, -657262.6, -19097.338, 0.0, 9.999935, 9.999459 
1.13502905e+3, 2.4488103e+2, -597293.94, -653879.1, -14232.443, -0.003996298, 0.05810619, -593915.8, -53745.004, 0.0, 9.999974, 9.99922 
1.1350336e+3, 2.5488043e+2, -438308.13, -524040.34, -17661.213, 0.0022816756, 0.07214217, -434812.38, 7365.1914, 0.0, 10.000382, 9.999242 
1.13503784e+3, 2.6487952e+2, -346037.94, -439342.4, -16424.934, -0.01423051, 0.06297877, -343231.0, 955.47784, 0.0, 10.000389, 9.999146 
1.135042e+3, 2.748783e+2, -304724.94, -366185.4, -17949.367, -0.05459368, 0.02361369, -299866.88, -53669.227, 0.0, 9.999988, 9.999169 
1.1350468e+3, 2.8487754e+2, -205640.02, -277485.8, -2589.4546, -0.043158274, 0.035751164, -205546.8, -57342.625, 0.0, 10.000036, 9.999083 
1.1350524e+3, 2.9487726e+2, -29882.033, -139289.22, 3116.4128, 0.022975972, 0.09539313, -29793.336, 20412.46, 0.0, 10.000559, 9.999106 
1.135057e+3, 3.0487528e+2, 938.0876, -115220.67, -20336.955, 0.018712562, -0.0066405036, 4395.738, 4395.738, 0.0, 10.000504, 9.998964 
1.13506064e+3, 3.1487477e+2, -64291.816, -97431.34, -34459.504, -0.054314304, 0.041353922, -42625.28, -42625.28, 0.0, 9.999842, 9.999406 
1.1449805e+3, 1.24880426e+2, -1685279.9, -1706662.6, -35067.242, 0.044610653, 0.14256823, -1659310.4, 56873.965, 0.0013167423, 10.000241, 9.999936 
1.1449868e+3, 1.3488023e+2, -1573054.5, -1584406.5, 33025.445, 0.16856545, 0.11307654, -1545220.9, 72963.4, 0.0006665531, 10.000245, 10.000112 
1.1449897e+3, 1.4488006e+2, -1490429.3, -1511696.3, -6228.935, -0.031791963, 0.09247668, -1488739.1, 31445.363, 0.00020295075, 10.000225, 9.999939 
1.144995e+3, 1.548799e+2, -1398105.0, -1415500.8, -18880.012, 0.0739389, 0.08075566, -1386015.8, 36168.793, 0.000019742625, 10.000183, 9.999946 
1.14499904e+3, 1.6487958e+2, -1322857.9, -1351513.9, -34562.14, 0.09689278, 0.065302216, -1299771.5, 24414.865, 0.000000013934886, 10.000125, 9.99974 
1.14500195e+3, 1.7487909e+2, -1234047.4, -1255944.4, -29542.107, 0.018799823, 0.03905351, -1213490.3, 12700.035, 0.0, 10.000053, 9.999758 
1.1450054e+3, 1.848788e+2, -1123467.5, -1142693.1, -30125.828, -0.006601007, 0.0303277, -1101458.0, 26734.152, 0.0, 10.0001, 9.999841 
1.1450094e+3, 1.9487871e+2, -997123.8, -1028584.75, -41513.01, 0.027131459, 0.033661827, -968460.8, 61731.12, 0.0, 10.000284, 9.999863 
1.1450134e+3, 2.0487842e+2, -935705.56, -1003734.6, -20015.256, 0.02673822, 0.04386694, -930253.7, 1941.2156, 0.0, 10.000271, 9.999367 
1.1450174e+3, 2.1487793e+2, -868937.9, -919184.8, -11868.891, -0.0113063, 0.055289004, -866275.44, -32074.193, 0.0, 10.000051, 9.99938 
1.14502124e+3, 2.2487733e+2, -767854.8, -810503.56, -34979.63, -0.025777062, 0.054656435, -748212.1, -12004.694, 0.0, 10.000032, 9.999462 
1.14502504e+3, 2.3487663e+2, -639779.9, -695608.44, -41440.207, -0.015785318, 0.034227315, -617729.2, 20484.334, 0.0, 10.000228, 9.999484 
1.14502914e+3, 2.4487606e+2, -558164.06, -644404.44, -12565.378, -0.008724144, 0.045786265, -556370.56, -16150.999, 0.0, 10.000284, 9.999136 
1.1450338e+3, 2.5487563e+2, -472058.2, -550112.25, -15470.566, -0.004565385, 0.08535844, -469103.7, -26878.3, 0.0, 10.000193, 9.999154 
1.1450381e+3, 2.6487473e+2, -380865.78, -455791.88, -24807.82, -0.014858442, 0.08245309, -373396.56, -29162.217, 0.0, 10.000149, 9.99915 
1.14504226e+3, 2.7487338e+2, -279718.56, -353378.22, -23457.1, -0.040929426, 0.028111, -272882.94, -26636.268, 0.0, 10.000158, 9.999175 
1.1450469e+3, 2.8487262e+2, -204302.45, -276330.63, 1973.5782, -0.036745384, 0.040425934, -204248.4, -55995.1, 0.0, 10.000045, 9.999085 
1.1450524e+3, 2.948725e+2, -143584.36, -194639.64, -1335.7372, 0.0004920813, 0.11600588, -143549.44, -93295.36, 0.0, 9.999781, 9.999102 
1.145057e+3, 3.048705e+2, -92826.11, -153084.19, -24385.951, -0.0016120384, 0.009377063, -84193.914, -84193.914, 0.0, 9.999829, 9.999029 
1.1450609e+3, 3.1487015e+2, 9152.055, -37007.848, -14776.266, -0.036711857, 0.06755763, 13476.887, 13476.887, 0.0, 10.000242, 9.999626 
1.1549802e+3, 1.2487582e+2, -1686272.9, -1705938.1, -28536.479, 0.000027670047, 0.13426657, -1665922.5, 50306.41, 0.0014692028, 10.000231, 9.999946 
1.1549877e+3, 1.3487557e+2, -1568577.3, -1575428.5, 33498.418, 0.21906443, 0.09158384, -1538329.8, 79899.56, 0.00075311697, 10.000245, 10.000173 
1.1549903e+3, 1.4487535e+2, -1496722.3, -1525203.3, -8645.878, -0.0043275356, 0.06980791, -1494303.1, 25926.87, 0.000235787, 10.000226, 9.999846 
1.15499474e+3, 1.548753e+2, -1404826.0, -1429622.5, -20387.273, 0.031667106, 0.07661345, -1393363.0, 28866.53, 0.000024990082, 10.000183, 9.999849 
1.1549989e+3, 1.6487509e+2, -1313932.3, -1332894.6, -38101.094, 0.06597086, 0.07201261, -1284150.4, 40079.883, 0.000000023716384, 10.000125, 9.999868 
1.1550026e+3, 1.748748e+2, -1224981.8, -1236865.5, -32656.26, 0.07876087, 0.0513468, -1197731.3, 28500.656, 0.0, 10.000052, 9.999889 
1.155006e+3, 1.848743e+2, -1144157.4, -1185734.8, -24279.125, 0.052860178, 0.029575609, -1132982.9, -4746.996, 0.0, 10.000099, 9.999545 
1.1550093e+3, 1.9487356e+2, -1018077.2, -1072540.4, -34948.156, -0.005686281, -0.0014686561, -1001003.8, 29238.814, 0.0, 10.000285, 9.99956 
1.1550132e+3, 2.0487334e+2, -921402.9, -974236.0, -29458.396, -0.021217642, 0.020137435, -908251.4, 23993.79, 0.0, 10.000272, 9.999569 
1.1550176e+3, 2.1487364e+2, -854239.8, -888484.5, -21072.506, 0.006011947, 0.09135701, -844210.25, -9966.9795, 0.0, 10.000049, 9.999592 
1.15502164e+3, 2.248731e+2, -778914.75, -832930.3, -28924.746, 0.0067176963, 0.091508515, -766349.06, -30100.23, 0.0, 10.00003, 9.99931 
1.15502514e+3, 2.3487163e+2, -651163.0, -718875.7, -34166.71, -0.019460127, 0.010200362, -636919.3, 1343.0067, 0.0, 10.000226, 9.999326 
1.1550292e+3, 2.4487084e+2, -563390.5, -654402.4, -16033.47, -0.035371393, 0.011552086, -560648.56, -20377.809, 0.0, 10.000279, 9.999069 
1.15503356e+3, 2.5487077e+2, -476414.2, -559567.75, -18361.66, -0.040001858, 0.09401345, -472540.13, -30266.314, 0.0, 10.000195, 9.999088 
1.1550381e+3, 2.6487005e+2, -377939.34, -450272.4, -24486.854, -0.027561106, 0.110596634, -370429.53, -26148.168, 0.0, 10.000151, 9.999187 
1.1550427e+3, 2.7486873e+2, -277988.6, -348208.88, -22540.287, 0.0011233416, 0.052652303, -271376.0, -25082.549, 0.0, 10.000151, 9.999214 
1.1550473e+3, 2.8486782e+2, -211186.08, -288122.78, -6839.9746, -0.012500666, 0.053926688, -210582.7, -62281.25, 0.0, 10.000034, 9.99901 
1.1550514e+3, 2.948674e+2, -148353.2, -205982.17, -8702.54, -0.06929035, 0.10706491, -147067.7, -96762.03, 0.0, 9.999786, 9.999022 
1.1550561e+3, 3.0486545e+2, -66717.836, -101024.05, -8841.262, -0.06457019, -0.0060260235, -64573.35, -64573.35, 0.0, 9.999837, 9.999385 
1.15506165e+3, 3.1486598e+2, 46459.883, 41339.395, 2051.4666, 0.014163357, 0.10183058, 47180.395, 47180.395, 0.0, 10.0002365, 10.000169 
1.1649806e+3, 1.24871075e+2, -1687491.1, -1726567.4, -13803.385, 0.0029831848, 0.10964994, -1683107.1, 33167.13, 0.0016317561, 10.00031, 9.999764 
1.16498806e+3, 1.3487099e+2, -1560996.5, -1587175.3, 23118.482, 0.2296337, 0.096737444, -1547519.0, 70755.375, 0.00084588735, 10.000362, 10.000036 
1.1649904e+3, 1.4487077e+2, -1482563.6, -1512500.4, -25093.387, -0.020673495, 0.07994553, -1468313.4, 51962.055, 0.00027161013, 10.000298, 9.999899 
1.1649948e+3, 1.5487069e+2, -1409323.6, -1425387.9, -26262.139, 0.030887429, 0.07763406, -1389892.8, 32382.137, 0.000031011183, 10.000124, 9.9999075 
1.164999e+3, 1.6487047e+2, -1315521.9, -1341251.9, -37223.04, 0.07113423, 0.0716383, -1289003.4, 35272.4, 0.00000004774233, 10.000147, 9.999801 
1.16500266e+3, 1.7487015e+2, -1179639.5, -1222809.1, -47634.344, 0.07569391, 0.056586947, -1148927.8, 77350.195, 0.0, 10.000398, 9.99982 
1.1650062e+3, 1.8486965e+2, -1101132.0, -1170252.6, -40766.633, 0.05036356, 0.040482037, -1082247.6, 46034.49, 0.0, 10.000417, 9.999498 
1.16500966e+3, 1.9486894e+2, -1033801.56, -1085057.9, -32706.787, 0.0013981619, 0.016366942, -1017878.1, 12410.488, 0.0, 10.000198, 9.999516 
1.16501346e+3, 2.048686e+2, -953680.25, -993413.9, -29618.363, -0.014815734, 0.030929655, -937882.8, -5590.772, 0.0, 10.000067, 9.999536 
1.16501756e+3, 2.1486865e+2, -858673.7, -894643.5, -39917.246, 0.00043591214, 0.07936555, -832876.8, 1415.5951, 0.0, 10.000035, 9.999557 
1.1650215e+3, 2.2486809e+2, -776364.1, -835268.1, -42366.844, -0.0006381992, 0.081225626, -754218.0, -17919.773, 0.0, 10.000063, 9.999278 
1.1650254e+3, 2.3486687e+2, -664469.06, -728612.2, -39539.355, -0.017684396, 0.028828848, -645629.5, -7319.852, 0.0, 10.000151, 9.999294 
1.1650294e+3, 2.448661e+2, -589480.8, -659980.94, -23450.736, -0.03434311, 0.031456087, -582392.94, -42075.152, 0.0, 10.000072, 9.999131 
1.1650334e+3, 2.548658e+2, -526837.25, -576765.4, -16479.38, -0.051647935, 0.08455151, -521888.53, -79565.984, 0.0, 9.999819, 9.999151 
1.165038e+3, 2.648651e+2, -419991.72, -472066.53, -6544.268, -0.04087705, 0.098585695, -419181.88, -74851.83, 0.0, 9.999869, 9.999172 
1.165043e+3, 2.7486402e+2, -268359.56, -346132.47, -9094.902, -0.00036139484, 0.06790727, -267310.13, -20969.941, 0.0, 10.000227, 9.999192 
1.16504736e+3, 2.848632e+2, -190094.63, -276986.94, -12311.32, -0.010166285, 0.07504861, -188383.98, -40036.113, 0.0, 10.0001745, 9.999021 
1.16505116e+3, 2.9486257e+2, -159367.66, -209999.61, -10300.257, -0.07234734, 0.10915942, -157352.44, -106998.805, 0.0, 9.999707, 9.999031 
1.1650558e+3, 3.0486047e+2, -102027.63, -131057.33, 3402.1567, -0.07065814, -0.014213403, -101634.24, -101634.24, 0.0, 9.999653, 9.999267 
1.16506174e+3, 3.1486103e+2, 15371.055, 33796.79, -19082.844, 0.012811873, 0.111026354, 45774.293, 45774.293, 0.0, 9.99999, 10.000237 
1.17498145e+3, 1.2486628e+2, -1714003.5, -1781641.1, -3436.5168, 0.05326712, 0.070837684, -1713829.4, 2490.098, 0.0018049687, 10.00031, 9.999387 
1.174988e+3, 1.3486657e+2, -1584794.9, -1636695.1, 25065.594, 0.19707838, 0.12935735, -1574666.0, 43652.77, 0.0009453062, 10.000361, 9.999698 
1.17499e+3, 1.4486639e+2, -1468937.1, -1483336.4, -32616.807, -0.084722504, 0.12411768, -1442734.8, 77585.33, 0.0003105983, 10.000294, 10.000101 
1.1749954e+3, 1.5486613e+2, -1394564.0, -1394248.9, -32933.82, 0.06979865, 0.0838716, -1361472.3, 60847.492, 0.000037854974, 10.000122, 10.000121 
1.1749995e+3, 1.6486575e+2, -1333933.8, -1380285.8, -28860.914, 0.1102508, 0.06319381, -1320095.1, 4227.091, 0.00000010132158, 10.00015, 9.999532 
1.17500246e+3, 1.7486522e+2, -1198783.0, -1262975.6, -38359.855, 0.008496617, 0.054551095, -1180862.8, 45465.094, 0.0, 10.000399, 9.999544 
1.17500596e+3, 1.8486492e+2, -1086952.8, -1140798.9, -49892.676, -0.016251065, 0.06381038, -1057182.5, 71147.81, 0.0, 10.000417, 9.999701 
1.1750103e+3, 1.9486491e+2, -1019460.2, -1054888.3, -41545.832, 0.047886662, 0.087447174, -992009.56, 38319.793, 0.0, 10.000196, 9.999723 
1.175014e+3, 2.048643e+2, -972428.44, -1032363.9, -31990.629, 0.044893075, 0.07621777, -958561.7, -26226.56, 0.0, 10.000067, 9.999269 
1.1750172e+3, 2.1486302e+2, -878005.9, -934668.9, -41537.25, -0.030104356, 0.019347763, -856058.0, -21709.865, 0.0, 10.000034, 9.999282 
1.1750211e+3, 2.2486238e+2, -771483.1, -824630.8, -40116.95, -0.05042643, 0.024342608, -749936.94, -13581.952, 0.0, 10.00006, 9.999352 
1.1750256e+3, 2.3486243e+2, -658600.9, -716609.0, -36526.76, -0.011126565, 0.089071944, -640963.3, -2608.1267, 0.0, 10.000151, 9.999377 
1.17502965e+3, 2.448619e+2, -576172.2, -632276.1, -33465.848, -0.0067339065, 0.103810064, -560556.4, -20195.914, 0.0, 10.000072, 9.999321 
1.17503345e+3, 2.5486082e+2, -513789.72, -549003.2, -25732.273, -0.04038358, 0.057457827, -500217.2, -57846.016, 0.0, 9.999816, 9.999343 
1.1750377e+3, 2.648599e+2, -424246.3, -480138.3, 7378.7417, -0.055353623, 0.047972422, -423288.6, -78908.72, 0.0, 9.999865, 9.999119 
1.1750427e+3, 2.7485934e+2, -272629.84, -354485.2, 6018.3037, -0.049951438, 0.07388371, -272189.72, -25803.473, 0.0, 10.000224, 9.999137 
1.1750472e+3, 2.8485873e+2, -187275.19, -271069.28, -29255.643, -0.03508258, 0.10213145, -178071.78, -29679.62, 0.0, 10.000173, 9.999062 
1.1750514e+3, 2.9485804e+2, -156565.23, -203533.7, -27479.85, -0.010119573, 0.12156621, -143901.84, -93503.75, 0.0, 9.999703, 9.999078 
1.175056e+3, 3.0485556e+2, -138124.89, -204812.83, 16951.691, -0.020104753, -0.015071337, -134063.25, -134063.25, 0.0, 9.999647, 9.998763 
1.1750612e+3, 3.1485552e+2, -6531.3745, -10800.146, -2014.511, -0.04898906, 0.10106106, -5730.8228, -5730.8228, 0.0, 9.999987, 9.999932 
1.1849819e+3, 1.248616e+2, -1629666.4, -1742135.1, -27825.387, 0.04917549, 0.076618746, -1623158.8, 93207.06, 0.001990702, 10.000896, 9.999374 
1.18498825e+3, 1.3486196e+2, -1618881.6, -1651183.9, 14946.354, 0.19535573, 0.14054616, -1613027.0, 5337.555, 0.0010523666, 10.000119, 9.999716 
1.18498996e+3, 1.4486173e+2, -1528689.3, -1515855.9, -18531.178, -0.104126856, 0.13032146, -1502661.9, 17704.625, 0.00035315592, 9.999901, 10.000066 
1.1849957e+3, 1.5486147e+2, -1367976.6, -1385060.5, -37794.56, 0.07977421, 0.0940171, -1337770.8, 84595.46, 0.000045623692, 10.00032, 10.000089 
1.185e+3, 1.6486107e+2, -1306611.3, -1372675.3, -40999.83, 0.123631716, 0.074965276, -1286992.5, 37376.58, 0.00000019883093, 10.0003605, 9.999482 
1.18500255e+3, 1.7486049e+2, -1259376.1, -1297223.9, -34029.527, -0.0052500064, 0.06684964, -1239362.6, -12987.13, 0.0, 10.000005, 9.999498 
1.185006e+3, 1.848602e+2, -1151794.0, -1169241.8, -39455.992, -0.036676116, 0.077208765, -1120109.0, 8269.061, 0.0, 9.999961, 9.999725 
1.1850105e+3, 1.9486022e+2, -1009019.1, -1047101.56, -45555.81, 0.042382844, 0.101329096, -978685.25, 51691.383, 0.0, 10.000256, 9.999748 
1.18501425e+3, 2.0485955e+2, -933853.1, -1016558.2, -37738.492, 0.047252286, 0.08750494, -919221.5, 13160.879, 0.0, 10.000342, 9.999245 
1.18501745e+3, 2.1485823e+2, -854126.1, -925038.5, -29141.658, -0.02845201, 0.026169294, -843687.0, -9291.224, 0.0, 10.000208, 9.999264 
1.1850211e+3, 2.2485758e+2, -773690.1, -823726.5, -18800.84, -0.05212352, 0.030863712, -767413.25, -31010.59, 0.0, 10.000037, 9.999369 
1.1850255e+3, 2.3485766e+2, -704164.6, -736697.3, -20637.955, -0.020146985, 0.098875575, -694153.25, -55750.598, 0.0, 9.999829, 9.999394 
1.1850297e+3, 2.4485719e+2, -600381.06, -641579.25, -22105.182, -0.012765966, 0.11484103, -590764.9, -50357.324, 0.0, 9.999894, 9.999343 
1.18503354e+3, 2.548561e+2, -449257.4, -515647.34, -28219.361, -0.031326097, 0.06823709, -438883.63, 3534.2405, 0.0, 10.000249, 9.999364 
1.1850377e+3, 2.6485527e+2, -386234.4, -452058.5, -5070.246, -0.05106396, 0.054913152, -385846.13, -41419.95, 0.0, 10.000085, 9.999207 
1.18504226e+3, 2.7485463e+2, -388994.47, -400421.84, 2679.1182, -0.073172316, 0.07170023, -388397.53, -141965.1, 0.0, 9.999384, 9.999225 
1.1850469e+3, 2.8485405e+2, -299404.94, -326228.3, -15958.281, -0.05334943, 0.09938785, -291971.0, -143533.03, 0.0, 9.99941, 9.999049 
1.18505165e+3, 2.9485345e+2, -86954.28, -172509.28, -17450.645, 0.012751068, 0.12914127, -83531.79, -33088.63, 0.0, 10.000191, 9.999057 
1.1850561e+3, 3.04851e+2, -74077.12, -187324.75, 22000.492, 0.0015290125, -0.002721004, -69953.27, -69953.27, 0.0, 10.000145, 9.998643 
1.1850605e+3, 3.1485063e+2, -109320.625, -48949.37, 27064.168, -0.06852867, 0.094668336, -38593.152, -38593.152, 0.0, 9.999232, 10.000032 
1.19498216e+3, 1.248571e+2, -1605628.0, -1690325.9, -45744.047, -0.014989011, 0.12753932, -1585639.6, 130773.13, 0.0021913827, 10.00089, 9.999733 
1.19498864e+3, 1.3485721e+2, -1592646.9, -1597121.0, -14648.694, 0.2224925, 0.1304516, -1580065.5, 38345.652, 0.0011682742, 10.00012, 10.000087 
1.1949901e+3, 1.4485681e+2, -1547094.3, -1554985.9, -4678.5024, -0.08057642, 0.09792093, -1544919.8, -24505.68, 0.00039982723, 9.999904, 9.999797 
1.1949959e+3, 1.5485676e+2, -1387569.1, -1426254.5, -22062.906, 0.059548885, 0.10811379, -1377570.5, 44843.098, 0.00005450218, 10.000322, 9.999805 
1.1950001e+3, 1.6485648e+2, -1294731.1, -1348127.0, -54786.56, 0.108517215, 0.10848946, -1260483.6, 63932.008, 0.00000035173326, 10.0003605, 9.999651 
1.19500294e+3, 1.7485602e+2, -1246967.0, -1271315.8, -47739.6, 0.033072066, 0.09386199, -1209873.9, 16546.17, 0.0, 10.000004, 9.999677 
1.1950062e+3, 1.848555e+2, -1162647.5, -1192091.8, -29566.523, -0.013116679, 0.07946807, -1144340.6, -15915.842, 0.0, 9.999961, 9.999568 
1.1950101e+3, 1.9485487e+2, -1020286.0, -1070714.0, -34975.266, -0.016734723, 0.05720677, -1002383.7, 28046.201, 0.0, 10.000256, 9.999587 
1.19501404e+3, 2.0485447e+2, -918696.06, -984694.7, -43740.6, -0.010008187, 0.065686606, -896903.1, 35530.223, 0.0, 10.00034, 9.999464 
1.1950179e+3, 2.1485433e+2, -838423.8, -892529.6, -34880.5, 0.0049427617, 0.09962562, -821334.8, 13100.205, 0.0, 10.000208, 9.999488 
1.1950216e+3, 2.2485372e+2, -776256.2, -829048.7, -27682.73, -0.006791939, 0.10025671, -764402.0, -27961.11, 0.0, 10.000037, 9.999332 
1.195025e+3, 2.3485269e+2, -707124.06, -742872.8, -28627.605, -0.04532145, 0.058690622, -691248.9, -52797.52, 0.0, 9.999828, 9.999352 
1.1950292e+3, 2.4485202e+2, -611285.8, -663960.75, -9349.451, -0.053540513, 0.06528537, -609675.56, -69217.055, 0.0, 9.999892, 9.99919 
1.1950338e+3, 2.5485176e+2, -460463.47, -538047.94, -14376.269, -0.028572263, 0.11584655, -457885.25, -15423.063, 0.0, 10.000244, 9.999212 
1.1950381e+3, 2.6485106e+2, -372554.72, -423304.47, -30918.14, -0.032343235, 0.1178286, -357931.9, -13463.15, 0.0, 10.000082, 9.999406 
1.1950416e+3, 2.7484998e+2, -374395.25, -370529.88, -23321.184, -0.06868372, 0.062622644, -349061.44, -102582.98, 0.0, 9.999385, 9.99943 
1.19504616e+3, 2.8484926e+2, -300587.4, -329085.03, 13351.74, -0.063494615, 0.06862441, -295309.38, -146824.52, 0.0, 9.999411, 9.999029 
1.1950515e+3, 2.9484895e+2, -91005.8, -178004.39, 14329.74, -0.012666994, 0.13040303, -88706.29, -38218.086, 0.0, 10.000178, 9.999024 
1.19505614e+3, 3.0484673e+2, -63895.12, -164263.5, -10707.124, -0.015353488, 0.02122757, -62765.613, -62765.613, 0.0, 10.000134, 9.998807 
1.1950601e+3, 3.148464e+2, -81680.64, 7641.383, -5518.9487, -0.045353174, 0.10179335, 7981.091, 7981.091, 0.0, 9.999234, 10.000421 
1.2049824e+3, 1.248526e+2, -1701223.3, -1736854.6, -8923.506, -0.045976788, 0.14323443, -1699113.4, 17344.273, 0.0024090873, 10.000236, 9.999728 
1.20498925e+3, 1.3485259e+2, -1528549.8, -1566847.0, -23130.963, 0.24456452, 0.13358694, -1517669.9, 100786.75, 0.0012942023, 10.000562, 10.000081 
1.2049904e+3, 1.4485203e+2, -1467220.1, -1520418.1, -10685.923, -0.06668787, 0.08642914, -1465153.9, 55307.277, 0.00045114366, 10.000468, 9.999762 
1.2049959e+3, 1.5485203e+2, -1438074.0, -1453789.3, -9538.024, 0.050291207, 0.10870189, -1433573.8, -11113.536, 0.00006471426, 9.99999, 9.999775 
1.2050003e+3, 1.6485186e+2, -1359449.9, -1374428.6, -36091.316, 0.09939885, 0.11707537, -1330079.0, -5617.4644, 0.00000057087306, 9.999897, 9.999692 
1.2050032e+3, 1.7485146e+2, -1212256.6, -1250269.4, -40163.305, 0.045237936, 0.10489144, -1186829.5, 39635.64, 0.0, 10.000224, 9.999715 
1.2050063e+3, 1.8485086e+2, -1116980.4, -1176014.8, -20134.912, -0.0043096906, 0.084265225, -1110766.9, 17703.613, 0.0, 10.000299, 9.999516 
1.2050101e+3, 1.9485006e+2, -1045398.3, -1087977.3, -17599.59, -0.037283782, 0.047522124, -1039065.56, -8587.865, 0.0, 10.000108, 9.999539 
1.2050141e+3, 2.0484973e+2, -960321.2, -991802.94, -30130.127, -0.032432333, 0.060339328, -942067.94, -9587.63, 0.0, 10.0, 9.999578 
1.2050181e+3, 2.1484993e+2, -863187.1, -891532.75, -30123.271, 0.008518133, 0.118535824, -844069.06, -9590.807, 0.0, 9.999981, 9.999603 
1.20502174e+3, 2.2484936e+2, -786549.94, -843504.44, -28304.34, 0.004612088, 0.1197816, -774876.4, -38392.508, 0.0, 10.000006, 9.9992485 
1.205025e+3, 2.34848e+2, -676420.9, -736979.9, -33425.313, -0.044701755, 0.054112546, -661599.4, -23101.963, 0.0, 10.000079, 9.999271 
1.205029e+3, 2.4484724e+2, -604174.3, -657383.1, -7100.7993, -0.06067012, 0.055555902, -603243.0, -62737.625, 0.0, 9.999929, 9.999217 
1.2050336e+3, 2.5484714e+2, -560828.5, -582857.4, 506.64026, -0.0415367, 0.12013023, -560816.9, -118309.46, 0.0, 9.99954, 9.999243 
1.2050378e+3, 2.6484653e+2, -442184.8, -458345.5, -18532.594, -0.038260538, 0.12714295, -430047.6, -85534.19, 0.0, 9.999612, 9.999391 
1.2050416e+3, 2.7484536e+2, -260576.36, -317483.56, -27302.814, -0.051900893, 0.06788217, -249595.81, -3072.212, 0.0, 10.000174, 9.999415 
1.205046e+3, 2.8484467e+2, -204851.2, -274103.94, 4374.8037, -0.052188624, 0.07033959, -204575.94, -56045.723, 0.0, 10.0000305, 9.999108 
1.2050509e+3, 2.9484436e+2, -237095.08, -239461.14, 10129.059, -0.037723146, 0.12773287, -228080.2, -177546.6, 0.0, 9.999138, 9.999102 
1.2050554e+3, 3.0484244e+2, -217307.67, -224567.44, -11712.685, -0.035307903, 0.035749916, -208675.3, -208675.3, 0.0, 9.999024, 9.998926 
1.2050598e+3, 3.1484216e+2, 12057.221, 88114.33, -7419.975, -0.0086620515, 0.10800959, 88831.445, 88831.445, 0.0, 9.999726, 10.000736 
1.21498264e+3, 1.2484819e+2, -1728620.8, -1793558.1, 17746.025, -0.044345208, 0.124256544, -1724087.6, -7587.899, 0.002645014, 10.000234, 9.99934 
1.2149899e+3, 1.3484812e+2, -1555691.4, -1624326.5, -11685.623, 0.25865167, 0.1491448, -1553756.4, 64744.223, 0.0014309159, 10.000565, 9.999686 
1.21499084e+3, 1.448474e+2, -1452680.8, -1490116.0, -29820.97, -0.06662907, 0.09534874, -1436189.9, 84317.26, 0.00050734985, 10.000468, 9.9999695 
1.2149958e+3, 1.5484741e+2, -1422583.5, -1421589.1, -27412.96, 0.050856464, 0.09546512, -1394668.9, 27836.59, 0.000076397075, 9.9999895, 9.999997 
1.215e+3, 1.6484724e+2, -1366376.1, -1388728.8, -25269.797, 0.094048075, 0.09907879, -1349921.4, -25414.951, 0.0000008702971, 9.999896, 9.999595 
1.2150032e+3, 1.7484687e+2, -1219712.4, -1266070.0, -28272.377, 0.029773362, 0.09986116, -1206331.9, 20178.45, 0.0, 10.000224, 9.999606 
1.21500656e+3, 1.848464e+2, -1112976.8, -1167541.0, -28097.582, -0.012517, 0.09373273, -1101095.3, 27419.354, 0.0, 10.0002985, 9.999574 
1.21501036e+3, 1.948458e+2, -1040900.4, -1079116.4, -25211.283, -0.019999633, 0.07229156, -1028374.1, 2145.3694, 0.0, 10.000109, 9.999599 
1.21501416e+3, 2.0484537e+2, -959542.94, -990670.25, -32123.65, -0.021386012, 0.07015978, -939411.25, -6888.208, 0.0, 10.000001, 9.999586 
1.2150178e+3, 2.148451e+2, -862879.75, -890626.2, -31507.732, -0.019263975, 0.082130454, -842326.2, -7800.944, 0.0, 9.999979, 9.999611 
1.21502146e+3, 2.2484455e+2, -796411.6, -863132.06, -26804.957, -0.019521099, 0.089574635, -786976.9, -50445.89, 0.0, 10.000002, 9.999116 
1.2150254e+3, 2.3484366e+2, -685982.7, -756725.25, -30879.27, -0.020242834, 0.08491367, -674400.2, -35859.727, 0.0, 10.000078, 9.999137 
1.2150292e+3, 2.4484293e+2, -589838.56, -627725.3, -22013.77, -0.03609228, 0.08543771, -579739.6, -39191.777, 0.0, 9.999928, 9.999421 
1.21503286e+3, 2.5484237e+2, -545675.75, -552238.75, -13739.188, -0.06943223, 0.082362026, -534831.6, -92278.49, 0.0, 9.999543, 9.999453 
1.2150371e+3, 2.648417e+2, -457260.56, -490130.4, 2404.148, -0.0681373, 0.08373078, -457085.66, -112525.93, 0.0, 9.999613, 9.999172 
1.215042e+3, 2.7484092e+2, -277758.4, -350549.44, -4733.122, -0.02995194, 0.08604732, -277451.94, -30884.447, 0.0, 10.000162, 9.999193 
1.2150463e+3, 2.8484032e+2, -196750.63, -255815.05, -27796.563, -0.026845576, 0.10315254, -185726.7, -37152.92, 0.0, 10.000022, 9.999238 
1.2150499e+3, 2.9483977e+2, -226846.16, -219471.03, -22966.652, -0.060247466, 0.123582646, -199897.78, -149318.58, 0.0, 9.999143, 9.999238 
1.2150543e+3, 3.0483812e+2, -206069.44, -202847.47, 14385.992, -0.05621625, 0.04375115, -189982.55, -189982.55, 0.0, 9.999031, 9.999072 
1.2150599e+3, 3.14838e+2, 31787.701, 133085.7, 23017.934, 0.028978456, 0.11725628, 138070.75, 138070.75, 0.0, 9.99971, 10.001053 
1.22498326e+3, 1.248435e+2, -1637636.3, -1746167.8, 8593.623, -0.040877886, 0.11123537, -1636960.0, 79585.25, 0.002898859, 10.000846, 9.999369 
1.22499034e+3, 1.3484356e+2, -1585231.6, -1639105.0, -9474.232, 0.259391, 0.15079066, -1583614.1, 34930.938, 0.0015783015, 10.000367, 9.999679 
1.2249911e+3, 1.4484282e+2, -1507705.4, -1518829.1, -25609.959, -0.07637542, 0.09616769, -1487060.3, 33491.664, 0.0005682736, 10.000102, 9.999948 
1.224996e+3, 1.5484288e+2, -1402994.0, -1414977.0, -42489.53, 0.05402704, 0.10433732, -1366075.6, 56474.75, 0.00008951281, 10.000137, 9.99997 
1.2250001e+3, 1.6484271e+2, -1321088.6, -1362681.9, -28514.633, 0.096666515, 0.10722653, -1306592.4, 17959.174, 0.0000012652538, 10.000188, 9.999633 
1.2250033e+3, 1.7484231e+2, -1213118.5, -1257469.4, -20627.275, 0.017922694, 0.09969575, -1205008.0, 21547.568, 0.0, 10.000247, 9.999653 
1.2250068e+3, 1.8484192e+2, -1124521.1, -1169802.8, -28479.076, -0.020985954, 0.09810136, -1110779.8, 17779.145, 0.0, 10.000206, 9.999602 
1.2250106e+3, 1.948415e+2, -1045201.9, -1078146.5, -29263.55, -0.008882879, 0.09337629, -1028093.06, 2468.8105, 0.0, 10.000066, 9.999626 
1.22501425e+3, 2.0484097e+2, -963061.8, -1007389.2, -34486.08, -0.0111698555, 0.08599242, -944231.4, -11664.827, 0.0, 10.000041, 9.999452 
1.2250177e+3, 2.1484031e+2, -849091.7, -898428.56, -44810.668, -0.030575585, 0.069791384, -822608.1, 11964.809, 0.0, 10.000137, 9.99948 
1.2250213e+3, 2.248397e+2, -778245.75, -839682.6, -39945.426, -0.032299828, 0.07324747, -758573.1, -21994.225, 0.0, 10.000065, 9.999246 
1.22502536e+3, 2.3483916e+2, -716358.9, -756589.8, -25474.936, -0.01412394, 0.09067122, -704015.06, -65430.71, 0.0, 9.999805, 9.999269 
1.2250291e+3, 2.448385e+2, -614272.94, -644534.2, -14790.7705, -0.02383515, 0.092748724, -608244.6, -67653.82, 0.0, 9.999782, 9.999377 
1.2250327e+3, 2.548377e+2, -478894.78, -524767.44, -26410.078, -0.064207055, 0.06969277, -466851.6, -24253.197, 0.0, 10.000023, 9.99941 
1.2250368e+3, 2.6483694e+2, -419057.94, -473370.94, -10083.96, -0.06675372, 0.06755345, -417246.16, -72640.38, 0.0, 9.999884, 9.999156 
1.22504175e+3, 2.7483627e+2, -401283.75, -411745.22, -3728.224, -0.028829025, 0.082302175, -400091.06, -153478.22, 0.0, 9.999322, 9.999176 
1.2250459e+3, 2.848357e+2, -306526.34, -301216.9, -28030.754, -0.022722991, 0.101096615, -275715.44, -127096.7, 0.0, 9.999238, 9.999303 
1.2250494e+3, 2.9483518e+2, -144040.47, -172578.61, -28142.352, -0.04984592, 0.114059426, -126756.43, -76132.5, 0.0, 9.999681, 9.9993 
1.22505374e+3, 3.0483368e+2, -123133.13, -179041.06, 6727.6304, -0.050261494, 0.055060275, -122334.96, -122334.96, 0.0, 9.999671, 9.998927 
1.2250593e+3, 3.1483307e+2, -51540.594, 90439.22, -9133.584, 0.026559096, 0.09497894, 91024.37, 91024.37, 0.0, 9.999148, 10.00103 
1.2349841e+3, 1.2483858e+2, -1606538.6, -1680427.1, 4364.5527, -0.040227596, 0.103006385, -1606281.6, 110312.36, 0.0031684104, 10.000841, 9.999823 
1.2349906e+3, 1.3483897e+2, -1558383.6, -1583726.4, -28167.307, 0.24606752, 0.13815537, -1540168.8, 78420.266, 0.001735363, 10.000367, 10.00006 
1.23499095e+3, 1.4483836e+2, -1526501.0, -1557744.4, -26489.45, -0.09787809, 0.088782206, -1511370.0, 9224.859, 0.00063353236, 10.000101, 9.999681 
1.2349961e+3, 1.5483853e+2, -1422536.8, -1456795.6, -41297.0, 0.05709888, 0.1354823, -1394957.5, 27636.857, 0.00010392506, 10.000141, 9.999682 
1.23500034e+3, 1.6483833e+2, -1308108.3, -1335694.1, -26985.576, 0.10399519, 0.1419821, -1291595.0, 33001.37, 0.0000017603737, 10.000187, 9.999819 
1.23500355e+3, 1.7483781e+2, -1199125.3, -1228877.0, -18496.637, 0.008765915, 0.10325701, -1190264.8, 36335.703, 0.0, 10.000248, 9.999849 
1.2350068e+3, 1.8483745e+2, -1125165.1, -1171207.0, -34959.098, -0.03205022, 0.09485646, -1106328.0, 22275.111, 0.0, 10.000206, 9.999593 
1.2350108e+3, 1.9483723e+2, -1045942.3, -1079897.1, -35271.777, -0.0054482087, 0.110671304, -1023774.75, 6829.565, 0.0, 10.000067, 9.999615 
1.2350144e+3, 2.048366e+2, -982193.2, -1046862.3, -32180.49, -0.0027377538, 0.10921524, -968908.56, -36298.406, 0.0, 10.00004, 9.999182 
1.2350179e+3, 2.1483555e+2, -868349.2, -938549.8, -41662.01, -0.027192896, 0.081646375, -848972.4, -14351.48, 0.0, 10.000137, 9.999205 
1.2350215e+3, 2.2483487e+2, -750914.2, -783182.0, -50494.04, -0.035671405, 0.07061998, -714039.1, 22588.115, 0.0, 10.000065, 9.999635 
1.235025e+3, 2.3483455e+2, -688393.6, -698867.3, -35335.074, -0.026751675, 0.07095335, -657909.44, -19280.666, 0.0, 9.999805, 9.999665 
1.23502895e+3, 2.4483398e+2, -635045.9, -687774.94, -6615.673, -0.02447297, 0.0768507, -634228.5, -93594.59, 0.0, 9.999782, 9.99908 
1.23503305e+3, 2.5483313e+2, -500997.44, -569613.6, -16724.861, -0.029872954, 0.08169127, -497137.9, -54495.03, 0.0, 10.000018, 9.999104 
1.2350371e+3, 2.6483235e+2, -407477.84, -448798.72, -30304.46, -0.037685364, 0.078826346, -391461.13, -46809.895, 0.0, 9.99988, 9.999328 
1.2350409e+3, 2.7483147e+2, -388239.28, -385822.47, -23996.738, -0.047745485, 0.058880493, -363003.72, -116344.42, 0.0, 9.999326, 9.999353 
1.23504505e+3, 2.848309e+2, -304701.25, -298549.1, -11649.774, -0.039966162, 0.066179216, -289576.13, -140911.31, 0.0, 9.999243, 9.999319 
1.23504944e+3, 2.9483056e+2, -144849.38, -171574.33, -9572.927, -0.013727766, 0.09726347, -141774.19, -91106.58, 0.0, 9.99967, 9.999312 
1.2350536e+3, 3.0482912e+2, -157913.08, -249379.5, -10978.029, -0.024370143, 0.068392165, -156613.92, -156613.92, 0.0, 9.9996605, 9.998449 
1.2350581e+3, 3.148275e+2, -80521.84, 29690.047, -24976.81, -0.016200207, 0.05497083, 35086.22, 35086.22, 0.0, 9.999149, 10.000613 
1.24498524e+3, 1.24834135e+2, -1591834.4, -1676269.4, 31607.408, -0.021777865, 0.105876796, -1581313.4, 135324.2, 0.0034511252, 10.000958, 9.999794 
1.244991e+3, 1.3483441e+2, -1564515.0, -1597591.9, -55751.97, 0.23819023, 0.13965014, -1522900.3, 95733.94, 0.0019010409, 10.000373, 9.999961 
1.2449908e+3, 1.4483373e+2, -1515596.5, -1546744.4, -35124.36, -0.11475391, 0.08544539, -1492748.3, 27892.652, 0.0007028683, 10.00015, 9.999734 
1.24499634e+3, 1.5483399e+2, -1382148.1, -1430013.9, -23466.43, 0.058950722, 0.13602774, -1372563.0, 50076.164, 0.00011956255, 10.000389, 9.999744 
1.2450007e+3, 1.648339e+2, -1280877.8, -1321705.9, -11203.9, 0.11323268, 0.14935133, -1278005.4, 46634.773, 0.0000023468863, 10.000373, 9.999825 
1.24500364e+3, 1.7483346e+2, -1224011.5, -1240633.1, -18357.266, 0.011818813, 0.11918026, -1212171.4, 14472.159, 0.0, 10.000077, 9.99985 
1.245007e+3, 1.8483305e+2, -1150799.3, -1190349.0, -36614.637, -0.03343933, 0.10888306, -1128960.6, -313.83313, 0.0, 10.000059, 9.999533 
1.2450109e+3, 1.9483265e+2, -1012741.56, -1070429.6, -40870.83, -0.008610292, 0.11248148, -991561.56, 39088.465, 0.0, 10.000323, 9.999555 
1.2450145e+3, 2.0483202e+2, -941836.06, -1020925.06, -34143.297, -0.0012336537, 0.10855492, -929135.6, 3520.3354, 0.0, 10.00029, 9.999239 
1.2450181e+3, 2.1483108e+2, -893528.1, -944213.06, -19963.807, -0.01622511, 0.08856451, -886609.25, -51944.406, 0.0, 9.999937, 9.999263 
1.24502145e+3, 2.248304e+2, -785192.75, -806490.5, -28283.838, -0.028051842, 0.0784268, -765619.56, -28948.566, 0.0, 9.999858, 9.999574 
1.2450249e+3, 2.3482996e+2, -652353.25, -687458.75, -48099.89, -0.035473112, 0.071686566, -618703.5, 19970.604, 0.0, 10.00008, 9.999611 
1.2450287e+3, 2.4482934e+2, -593527.7, -663066.0, -24764.59, -0.030269397, 0.07363229, -585609.9, -44930.27, 0.0, 10.000049, 9.99912 
1.2450331e+3, 2.5482854e+2, -539712.25, -583956.4, -10319.532, -0.011767905, 0.077893995, -537423.75, -94735.96, 0.0, 9.999733, 9.999142 
1.245037e+3, 2.648278e+2, -441610.3, -461438.6, -21630.922, -0.020935439, 0.07723078, -427729.78, -83034.48, 0.0, 9.999629, 9.999361 
1.2450403e+3, 2.7482703e+2, -320791.4, -349242.72, -26566.043, -0.060054157, 0.06185722, -304881.97, -58179.363, 0.0, 9.999772, 9.999389 
1.2450445e+3, 2.8482637e+2, -234185.89, -272781.5, -11374.343, -0.0494016, 0.06257349, -231083.22, -82374.164, 0.0, 9.999763, 9.999246 
1.2450493e+3, 2.9482576e+2, -166908.4, -190503.6, -18292.797, 0.014662114, 0.07653799, -156938.83, -106224.32, 0.0, 9.999555, 9.999237 
1.2450533e+3, 3.0482462e+2, -203286.38, -272894.34, -20758.063, -0.0024187607, 0.08023508, -197566.11, -197566.11, 0.0, 9.999357, 9.998433 
1.245057e+3, 3.1482282e+2, -73317.445, 33037.664, 2229.3389, -0.041338317, 0.05029258, 33084.375, 33084.375, 0.0, 9.9992, 10.000611 
1.2549865e+3, 1.2483026e+2, -1628543.9, -1753473.3, 24373.713, 0.013181667, 0.12212815, -1623956.9, 92718.1, 0.0037460001, 10.00096, 9.999263 
1.2549911e+3, 1.3482992e+2, -1606112.6, -1685086.9, -79132.65, 0.23241052, 0.1543928, -1557162.1, 61517.72, 0.0020748412, 10.000375, 9.99936 
1.2549908e+3, 1.4482896e+2, -1488785.6, -1490601.0, -28589.627, -0.13117453, 0.08375634, -1461089.4, 59600.04, 0.00077620865, 10.000148, 10.00012 
1.2549968e+3, 1.5482932e+2, -1352863.0, -1369829.0, -14310.042, 0.058917377, 0.10437465, -1344710.5, 77973.68, 0.00013646827, 10.000391, 10.000158 
1.2550013e+3, 1.6482946e+2, -1293893.9, -1348763.9, -23166.682, 0.122688025, 0.12765388, -1285421.1, 39261.37, 0.0000030208696, 10.000372, 9.9996395 
1.255004e+3, 1.7482935e+2, -1237219.5, -1269186.5, -29884.459, 0.025315367, 0.14847623, -1219312.6, 7371.6714, 0.0, 10.000081, 9.999653 
1.2550071e+3, 1.8482882e+2, -1158293.3, -1206171.1, -27822.818, -0.026812235, 0.14156404, -1145528.3, -16838.61, 0.0, 10.00006, 9.999424 
1.2550111e+3, 1.9482784e+2, -1020100.2, -1086048.0, -31273.77, -0.019870292, 0.098050445, -1007628.2, 23070.37, 0.0, 10.000324, 9.999448 
1.2550148e+3, 2.0482719e+2, -915816.7, -966706.7, -48324.848, -0.009118573, 0.08233913, -886647.25, 46056.4, 0.0, 10.000288, 9.999612 
1.2550181e+3, 2.1482694e+2, -866714.44, -888641.1, -33900.266, 0.0015312899, 0.09025394, -842048.8, -7344.3926, 0.0, 9.999937, 9.999644 
1.2550215e+3, 2.2482635e+2, -820377.56, -879631.8, -21557.39, -0.00972638, 0.0965657, -813364.75, -76654.984, 0.0, 9.999858, 9.999072 
1.255025e+3, 2.3482543e+2, -688461.1, -762257.3, -39853.727, -0.04218148, 0.093405455, -671047.25, -32327.414, 0.0, 10.000079, 9.999098 
1.2550287e+3, 2.4482463e+2, -567654.2, -609129.25, -36504.883, -0.043348633, 0.083678775, -546407.8, -5680.3096, 0.0, 10.000046, 9.999493 
1.2550329e+3, 2.5482392e+2, -512675.56, -528138.1, -21602.705, -0.010619653, 0.05907793, -497462.38, -54729.707, 0.0, 9.999734, 9.999526 
1.2550366e+3, 2.6482335e+2, -448825.22, -476827.44, -16413.35, -0.017672146, 0.06299524, -441252.53, -96514.87, 0.0, 9.99963, 9.999255 
1.25504e+3, 2.7482292e+2, -329079.84, -365447.53, -19918.773, -0.069016255, 0.0903078, -320293.16, -73550.586, 0.0, 9.999766, 9.999281 
1.2550442e+3, 2.8482208e+2, -247623.42, -299679.44, -17860.816, -0.053724255, 0.08934995, -242084.58, -93333.16, 0.0, 9.999757, 9.999064 
1.2550491e+3, 2.9482082e+2, -179720.0, -217158.55, -24899.3, 0.0339368, 0.053721808, -167288.25, -116523.79, 0.0, 9.999554, 9.999055 
1.2550528e+3, 3.0482015e+2, -170790.94, -205532.06, -26515.72, 0.013037128, 0.09238508, -156462.61, -156462.61, 0.0, 9.999357, 9.998896 
1.255056e+3, 3.148191e+2, -45561.66, 93067.08, 937.0366, -0.05563594, 0.08784959, 93073.414, 93073.414, 0.0, 9.999188, 10.001029 
1.2649873e+3, 1.24826126e+2, -1655016.5, -1763370.3, 21428.75, 0.009090641, 0.12664065, -1650932.5, 65783.6, 0.0040529803, 10.000764, 9.99929 
1.2649919e+3, 1.3482583e+2, -1553675.4, -1663833.1, -57258.082, 0.24705304, 0.166697, -1529305.0, 89415.32, 0.0022565385, 10.000754, 9.999323 
1.2649915e+3, 1.4482479e+2, -1430504.6, -1469396.1, 9863.668, -0.113952816, 0.093002856, -1428146.0, 92584.45, 0.0008535736, 10.00058, 10.000056 
1.2649971e+3, 1.5482496e+2, -1373018.9, -1387603.6, -12026.151, 0.04853077, 0.10033004, -1366246.9, 56480.33, 0.00015477135, 10.000287, 10.000085 
1.2650013e+3, 1.6482499e+2, -1310560.8, -1359151.9, -32255.969, 0.106482774, 0.11971896, -1294474.1, 30252.266, 0.0000038088367, 10.000268, 9.999618 
1.2650043e+3, 1.7482492e+2, -1171907.5, -1239293.1, -26151.934, 0.030327216, 0.14630227, -1162949.1, 63778.81, 0.0, 10.000538, 9.999638 
1.2650076e+3, 1.8482442e+2, -1092406.1, -1174235.8, -13882.419, -0.0142458165, 0.14402427, -1090115.1, 38617.797, 0.0, 10.000513, 9.999424 
1.2650113e+3, 1.9482347e+2, -1042853.1, -1096955.9, -10219.926, -0.018165663, 0.10286715, -1040987.0, -10245.348, 0.0, 10.000169, 9.999447 
1.2650149e+3, 2.0482284e+2, -946068.4, -977879.0, -37286.62, -0.012795573, 0.08665727, -921436.4, 11310.171, 0.0, 10.000067, 9.999642 
1.2650181e+3, 2.1482259e+2, -824067.06, -864431.4, -49879.492, -0.00017004074, 0.09094754, -790441.4, 44305.918, 0.0, 10.000215, 9.999677 
1.2650216e+3, 2.2482198e+2, -778258.94, -869421.7, -31312.563, -0.0047557997, 0.09930592, -768539.9, -31787.229, 0.0, 10.000192, 9.9989805 
1.265025e+3, 2.3482107e+2, -708838.44, -782864.2, -19418.871, -0.026460398, 0.10420784, -704053.6, -65290.63, 0.0, 9.999986, 9.9990015 
1.2650287e+3, 2.4482019e+2, -599167.7, -622033.25, -21089.51, -0.03293979, 0.09194057, -586611.4, -45840.125, 0.0, 9.999819, 9.999514 
1.2650324e+3, 2.5481936e+2, -514986.53, -526034.1, -34319.29, -0.023830904, 0.053148467, -485749.34, -42971.99, 0.0, 9.999704, 9.999554 
1.2650363e+3, 2.648188e+2, -446009.88, -478677.1, -29176.328, -0.02694455, 0.057655055, -428906.3, -84124.05, 0.0, 9.999663, 9.999226 
1.2650399e+3, 2.7481848e+2, -343842.47, -375930.7, -27461.752, -0.043320514, 0.10081999, -328081.53, -81295.445, 0.0, 9.99968, 9.99925 
1.2650439e+3, 2.8481767e+2, -274499.94, -304792.6, -24065.145, -0.031281482, 0.09864388, -261211.39, -112416.375, 0.0, 9.999538, 9.999133 
1.2650482e+3, 2.948163e+2, -219553.69, -228452.36, -13024.635, 0.011199848, 0.04512637, -210239.39, -159430.16, 0.0, 9.999246, 9.9991255 
1.2650518e+3, 3.0481607e+2, -185175.11, -192326.84, -6736.5845, -0.007348614, 0.11452168, -181124.16, -181124.16, 0.0, 9.999172, 9.999075 
1.2650557e+3, 3.1481504e+2, -24100.232, 109971.99, -767.3111, -0.018325526, 0.09550139, 109976.38, 109976.38, 0.0, 9.999308, 10.001087 
1.2749876e+3, 1.24821804e+2, -1613814.3, -1676273.0, 34498.957, -0.038003042, 0.12061018, -1598509.1, 118251.0, 0.0043717744, 10.000757, 9.999892 
1.274993e+3, 1.3482219e+2, -1515551.5, -1585463.9, -58271.11, 0.28144035, 0.17632578, -1482555.9, 136199.06, 0.0024458782, 10.000758, 9.999859 
1.2749925e+3, 1.4482129e+2, -1466476.4, -1545391.1, -2558.0112, -0.06462757, 0.113277934, -1466393.5, 54369.88, 0.00093509414, 10.000584, 9.999534 
1.274997e+3, 1.5482092e+2, -1411922.9, -1469479.6, -23190.879, 0.025208835, 0.12436004, -1403741.8, 19025.855, 0.00017466526, 10.000291, 9.999522 
1.2750012e+3, 1.6482057e+2, -1300796.1, -1338724.3, -23327.143, 0.0621812, 0.1251679, -1289697.1, 35074.1, 0.0000047674703, 10.000266, 9.999759 
1.2750047e+3, 1.7482024e+2, -1160548.3, -1215983.1, -16332.769, 0.02550237, 0.11183807, -1156094.0, 70679.836, 0.0, 10.000538, 9.999798 
1.2750082e+3, 1.8481994e+2, -1085143.0, -1158939.9, -27588.271, 0.0015524813, 0.1146801, -1075969.8, 52806.594, 0.0, 10.000511, 9.99953 
1.2750116e+3, 1.9481963e+2, -1035145.0, -1081543.9, -23695.934, -0.0039760927, 0.1272228, -1025182.5, 5596.212, 0.0, 10.000171, 9.999553 
1.275015e+3, 2.0481901e+2, -967682.9, -1023177.9, -33023.98, -0.012112994, 0.12189715, -952296.75, -19512.541, 0.0, 10.000068, 9.9993305 
1.2750182e+3, 2.1481808e+2, -846646.06, -911053.7, -44744.6, -0.023158418, 0.09078516, -823721.25, 11071.692, 0.0, 10.000213, 9.999358 
1.2750217e+3, 2.2481735e+2, -756983.6, -824501.5, -39971.945, -0.01618548, 0.0866498, -738422.2, -1622.8763, 0.0, 10.000188, 9.999291 
1.2750255e+3, 2.3481686e+2, -686385.75, -736431.3, -27319.598, 0.01086349, 0.10397404, -674361.25, -35558.0, 0.0, 9.999986, 9.999321 
1.2750287e+3, 2.4481604e+2, -622202.5, -670159.1, -25834.174, -0.00006343554, 0.09804676, -610933.6, -70122.99, 0.0, 9.99982, 9.999183 
1.2750319e+3, 2.548149e+2, -538582.06, -575032.56, -37977.945, -0.05286357, 0.06014802, -514682.7, -71861.125, 0.0, 9.999703, 9.999218 
1.2750356e+3, 2.6481414e+2, -443061.88, -472490.3, -27980.363, -0.0499173, 0.061077517, -426162.66, -81333.73, 0.0, 9.999662, 9.9992695 
1.2750402e+3, 2.7481377e+2, -340226.3, -368527.03, -25549.35, 0.014456896, 0.09418026, -325170.47, -78337.625, 0.0, 9.999679, 9.999302 
1.275044e+3, 2.8481314e+2, -252138.94, -258339.66, -34502.832, 0.014675252, 0.09119695, -220597.45, -71757.9, 0.0, 9.999537, 9.999454 
1.2750469e+3, 2.9481223e+2, -197976.39, -181769.98, -22668.398, -0.05566769, 0.05080028, -165800.02, -114951.336, 0.0, 9.999237, 9.999451 
1.2750505e+3, 3.0481234e+2, -194477.95, -209953.63, -358.20828, -0.06467835, 0.1461886, -194469.67, -194469.67, 0.0, 9.999164, 9.998959 
1.2750559e+3, 3.1481078e+2, -47453.875, 62836.996, 9800.645, 0.06509306, 0.085147716, 63701.13, 63701.13, 0.0, 9.999302, 10.000766 
1.2849885e+3, 1.2481777e+2, -1590258.6, -1650592.8, 64341.89, -0.029394774, 0.120256424, -1549362.8, 167437.2, 0.004702038, 10.000859, 10.00002 
1.2849936e+3, 1.3481817e+2, -1536748.9, -1586938.9, -78485.67, 0.273317, 0.16870657, -1479443.9, 139350.36, 0.0026428213, 10.000575, 9.999937 
1.284993e+3, 1.448173e+2, -1486492.8, -1566520.4, -21515.615, -0.06498489, 0.111115344, -1481075.0, 39727.125, 0.001020959, 10.000495, 9.999431 
1.2849976e+3, 1.5481696e+2, -1360093.6, -1456228.0, -7937.469, 0.027061308, 0.13359272, -1359442.6, 63364.082, 0.00019628371, 10.000698, 9.999415 
1.2850016e+3, 1.6481651e+2, -1250398.6, -1322117.0, 3152.6252, 0.062819324, 0.13644555, -1250260.4, 74551.0, 0.0000059623408, 10.000647, 9.999689 
1.285005e+3, 1.7481606e+2, -1199323.0, -1242537.8, -7786.791, 0.023237634, 0.115966566, -1197962.8, 28852.81, 0.0, 10.000307, 9.999726 
1.2850085e+3, 1.848157e+2, -1127737.4, -1171113.1, -31406.09, 0.00047341458, 0.11408885, -1111258.5, 17559.758, 0.0, 10.000184, 9.999603 
1.2850119e+3, 1.9481544e+2, -1011471.56, -1061396.5, -30279.953, -0.000020234109, 0.12391487, -997191.2, 33628.33, 0.0, 10.000297, 9.99963 
1.2850152e+3, 2.0481485e+2, -941849.9, -1026730.1, -28968.838, -0.0073517924, 0.12437846, -932905.6, -80.71916, 0.0, 10.000316, 9.9991865 
1.2850185e+3, 2.1481392e+2, -854398.4, -930847.0, -28532.273, -0.023228753, 0.1077487, -844923.75, -10089.233, 0.0, 10.00023, 9.999212 
1.2850219e+3, 2.248131e+2, -755022.2, -810285.94, -30105.047, -0.018234966, 0.096699715, -741790.44, -4948.917, 0.0, 10.000145, 9.99941 
1.2850253e+3, 2.3481244e+2, -667154.6, -712938.4, -33220.137, 0.009459542, 0.08372492, -649702.75, -10856.914, 0.0, 10.000057, 9.999447 
1.2850288e+3, 2.448116e+2, -603454.6, -676469.9, -28647.021, 0.0013256393, 0.07591201, -593556.9, -52703.652, 0.0, 10.000015, 9.999045 
1.2850317e+3, 2.548106e+2, -502755.03, -573867.75, -26934.885, -0.046074655, 0.06695538, -493704.88, -50841.043, 0.0, 10.000019, 9.999075 
1.2850355e+3, 2.6480988e+2, -417204.3, -451991.75, -13964.848, -0.043206368, 0.07417625, -412292.03, -67420.79, 0.0, 9.9998045, 9.999342 
1.2850398e+3, 2.748094e+2, -380649.06, -379436.06, -10734.589, 0.014830042, 0.088036336, -369290.88, -122415.12, 0.0, 9.999364, 9.999379 
1.2850435e+3, 2.8480873e+2, -291732.72, -276786.9, -23295.549, 0.014593866, 0.07687922, -259795.0, -110912.34, 0.0, 9.999263, 9.999459 
1.2850463e+3, 2.9480785e+2, -158109.45, -161839.86, -36505.92, -0.04903241, 0.042149454, -123421.12, -72529.734, 0.0, 9.999507, 9.999457 
1.2850498e+3, 3.0480826e+2, -157685.11, -176571.39, -22108.283, -0.05895657, 0.15706365, -143087.69, -143087.69, 0.0, 9.999351, 9.999097 
1.285055e+3, 3.1480655e+2, -129610.21, 10744.583, 9117.525, 0.06260454, 0.06877013, 11334.384, 11334.384, 0.0, 9.998791, 10.000654 
1.29499e+3, 1.24814115e+2, -1615374.4, -1704309.0, 64337.324, 0.031694505, 0.12615211, -1581632.8, 135202.0, 0.0050433725, 10.000864, 9.999648 
1.2949936e+3, 1.3481379e+2, -1565302.6, -1645344.3, -90211.94, 0.22086918, 0.14328831, -1506632.6, 112205.055, 0.0028472822, 10.000571, 9.999537 
1.294993e+3, 1.4481288e+2, -1464440.4, -1519720.9, -15900.356, -0.11824306, 0.08570688, -1460193.3, 60653.113, 0.0011110725, 10.00049, 9.999755 
1.2949985e+3, 1.5481308e+2, -1334950.6, -1404996.4, -206.4397, 0.05258583, 0.12799822, -1334950.0, 87894.05, 0.000219555, 10.000702, 9.999766 
1.2950028e+3, 1.6481291e+2, -1269664.4, -1362968.8, -10065.046, 0.10633109, 0.15304314, -1268591.0, 56255.13, 0.0000074533, 10.000649, 9.999408 
1.2950055e+3, 1.748124e+2, -1220069.9, -1286311.4, -20984.152, 0.022636248, 0.15830514, -1213981.9, 12870.49, 0.0, 10.000309, 9.999426 
1.2950085e+3, 1.8481177e+2, -1125108.0, -1166007.1, -28465.414, -0.018363057, 0.14193584, -1110508.1, 18350.016, 0.0, 10.000185, 9.999639 
1.2950121e+3, 1.9481097e+2, -1008592.75, -1055342.5, -26435.078, -0.007958231, 0.09359977, -996680.25, 34183.2, 0.0, 10.000296, 9.999672 
1.2950157e+3, 2.0481043e+2, -940602.7, -1023539.94, -33212.05, -0.0015318258, 0.0944084, -928942.3, 3925.706, 0.0, 10.000312, 9.99921 
1.295019e+3, 2.1481013e+2, -852689.6, -927506.56, -32305.941, -0.0010818908, 0.14117926, -840670.7, -5799.01, 0.0, 10.000231, 9.999236 
1.295022e+3, 2.2480929e+2, -759726.3, -820383.7, -34361.027, -0.011250691, 0.12858047, -744223.7, -7344.6367, 0.0, 10.000146, 9.99934 
1.2950252e+3, 2.3480783e+2, -672154.06, -723306.75, -36474.707, -0.031654056, 0.044044822, -653182.06, -14291.697, 0.0, 10.000056, 9.999377 
1.2950285e+3, 2.4480689e+2, -600283.2, -669376.44, -28772.736, -0.030590514, 0.026090495, -589870.5, -48971.742, 0.0, 10.000012, 9.999096 
1.2950322e+3, 2.548065e+2, -499445.88, -566717.5, -26182.592, -0.0054382673, 0.07388796, -490456.63, -47552.824, 0.0, 10.000017, 9.9991255 
1.2950355e+3, 2.64806e+2, -410443.66, -438063.13, -29884.156, -0.008810686, 0.09695173, -391332.7, -46423.78, 0.0, 9.999804, 9.999438 
1.2950386e+3, 2.7480537e+2, -374339.25, -365200.75, -26018.586, -0.043844532, 0.08289162, -343353.25, -96438.78, 0.0, 9.999358, 9.999479 
1.2950422e+3, 2.8480437e+2, -314052.78, -322752.5, -13283.697, -0.032669026, 0.05611311, -304424.88, -155500.78, 0.0, 9.99926, 9.9991455 
1.2950465e+3, 2.9480323e+2, -179987.56, -207162.97, -25635.227, 0.02747513, 0.02042784, -164561.64, -113624.56, 0.0, 9.999507, 9.999146 
1.2950498e+3, 3.048038e+2, -129749.01, -119033.93, -42339.832, 0.006462669, 0.14784938, -81714.02, -81714.02, 0.0, 9.9993515, 9.999492 
1.2950528e+3, 3.1480247e+2, -124912.44, 24888.365, -6918.3574, -0.03017849, 0.05726534, 25207.201, 25207.201, 0.0, 9.998774, 10.00076 
1.304991e+3, 1.2481024e+2, -1632375.5, -1724784.3, 68664.38, 0.04427218, 0.116880275, -1595817.3, 121055.0, 0.0053935107, 10.000801, 9.999538 
1.3049941e+3, 1.3480996e+2, -1537617.5, -1646083.0, -78336.516, 0.20036352, 0.15094678, -1496572.8, 122303.016, 0.0030578757, 10.000824, 9.999411 
1.3049935e+3, 1.4480905e+2, -1426669.8, -1494824.3, 3422.6284, -0.128126, 0.09753546, -1426498.4, 94386.19, 0.0012046372, 10.000723, 9.999813 
1.3049991e+3, 1.5480913e+2, -1358772.4, -1409595.3, -2860.8132, 0.051688332, 0.12149787, -1358611.9, 64270.99, 0.000244213, 10.000509, 9.999827 
1.3050033e+3, 1.6480894e+2, -1301756.5, -1385837.1, -19466.373, 0.107867606, 0.14551435, -1297468.3, 27416.574, 0.000009295233, 10.000462, 9.999341 
1.3050058e+3, 1.7480855e+2, -1181034.6, -1274686.3, -13326.418, 0.02372016, 0.16810685, -1179175.3, 47715.285, 0.0, 10.000608, 9.99936 
1.305009e+3, 1.8480788e+2, -1075201.1, -1149575.9, -14328.333, -0.016958188, 0.15554081, -1072536.3, 56360.4, 0.0, 10.000561, 9.99957 
1.3050124e+3, 1.9480692e+2, -1013392.25, -1064762.5, -21364.129, -0.00856635, 0.09685406, -1005668.56, 25234.912, 0.0, 10.000295, 9.999607 
1.3050158e+3, 2.0480625e+2, -959031.94, -1027010.94, -28942.965, -0.00045524075, 0.088509776, -948378.6, -15469.908, 0.0, 10.000163, 9.999258 
1.3050191e+3, 2.1480596e+2, -856958.8, -923894.06, -26715.158, 0.0060543544, 0.12758227, -847603.75, -12691.537, 0.0, 10.000177, 9.999287 
1.3050222e+3, 2.2480513e+2, -762059.9, -828608.0, -28561.775, -0.007708168, 0.11875197, -751482.6, -14563.319, 0.0, 10.00016, 9.999277 
1.305025e+3, 2.3480377e+2, -668417.2, -728464.7, -31485.635, -0.04282901, 0.050212104, -654934.94, -16004.641, 0.0, 10.000113, 9.999314 
1.3050283e+3, 2.4480288e+2, -603124.75, -655840.8, -23670.379, -0.040492848, 0.03321973, -594056.3, -53118.13, 0.0, 9.999928, 9.999229 
1.305032e+3, 2.5480247e+2, -551170.44, -576407.8, -15544.623, 0.003105685, 0.065591834, -543767.5, -100824.805, 0.0, 9.999596, 9.999262 
1.3050354e+3, 2.6480198e+2, -458237.28, -470717.2, -21306.518, 0.0010364124, 0.08729434, -442275.78, -97328.12, 0.0, 9.999518, 9.999351 
1.305038e+3, 2.7480137e+2, -328485.9, -353328.38, -32877.54, -0.051141992, 0.086502746, -305761.44, -58807.79, 0.0, 9.999718, 9.999388 
1.3050416e+3, 2.848004e+2, -264692.8, -302103.4, -14747.269, -0.03525991, 0.06531056, -259578.58, -110615.0, 0.0, 9.999613, 9.999117 
1.3050461e+3, 2.947992e+2, -228335.94, -233433.73, -6594.0054, 0.05375734, 0.026375173, -223815.33, -172838.53, 0.0, 9.9991865, 9.999121 
1.3050494e+3, 3.047997e+2, -170549.31, -124377.46, -27669.826, 0.032263115, 0.1455211, -111427.58, -111427.58, 0.0, 9.999011, 9.9996195 
1.3050514e+3, 3.147984e+2, -87597.3, 22225.602, -12597.451, -0.04220066, 0.04428619, 23652.09, 23652.09, 0.0, 9.999116, 10.000578 
1.3149913e+3, 1.2480627e+2, -1622643.8, -1703284.6, 78214.016, 0.0040957136, 0.09759075, -1574968.9, 141942.69, 0.0057480065, 10.000794, 9.99969 
1.3149951e+3, 1.3480672e+2, -1526796.6, -1624564.6, -77555.07, 0.21004078, 0.19109444, -1484004.9, 134902.94, 0.0032717513, 10.000829, 9.999556 
1.3149945e+3, 1.4480588e+2, -1440532.1, -1525364.0, -5558.6567, -0.097799376, 0.14584164, -1440169.4, 80746.63, 0.0013003696, 10.00073, 9.999601 
1.3149995e+3, 1.5480514e+2, -1375749.4, -1444388.9, -11271.547, 0.023055548, 0.11386948, -1373945.9, 48976.57, 0.00026992275, 10.000507, 9.99959 
1.3150035e+3, 1.6480467e+2, -1291691.8, -1364731.6, -15337.024, 0.06606986, 0.11382193, -1288601.9, 36325.15, 0.00001153221, 10.00046, 9.999488 
1.3150066e+3, 1.7480454e+2, -1169258.1, -1250773.9, -8023.4907, 0.024589455, 0.14611632, -1168475.9, 58453.37, 0.0, 10.00061, 9.999524 
1.3150096e+3, 1.848041e+2, -1086834.5, -1173885.9, -24965.234, 0.0013571645, 0.15538783, -1080183.0, 48750.266, 0.0, 10.000561, 9.999404 
1.3150129e+3, 1.948033e+2, -1025458.6, -1090449.8, -31928.945, -0.0025397989, 0.13227029, -1012397.44, 18541.729, 0.0, 10.000297, 9.999431 
1.315016e+3, 2.0480241e+2, -953714.7, -1016592.6, -29763.676, -0.0045379167, 0.10547178, -941860.6, -8914.045, 0.0, 10.000165, 9.999329 
1.3150193e+3, 2.148014e+2, -851988.06, -913479.7, -26490.688, -0.003319522, 0.06785016, -842149.9, -7194.339, 0.0, 10.000175, 9.999359 
1.3150224e+3, 2.2480069e+2, -766812.1, -837724.8, -31348.451, -0.010361875, 0.06843891, -754941.1, -17979.234, 0.0, 10.000156, 9.999216 
1.3150254e+3, 2.348003e+2, -673111.7, -738172.8, -33396.004, -0.025440888, 0.10144668, -659021.06, -20055.672, 0.0, 10.000112, 9.9992485 
1.3150284e+3, 2.4479957e+2, -587704.2, -623952.6, -36289.87, -0.029653696, 0.095919564, -565264.4, -24292.92, 0.0, 9.999928, 9.999449 
1.3150315e+3, 2.5479853e+2, -535715.75, -543692.9, -27378.172, -0.022059208, 0.042802908, -512037.13, -69057.07, 0.0, 9.999593, 9.999489 
1.3150346e+3, 2.6479787e+2, -478164.13, -511992.3, -13445.525, -0.015414862, 0.045945417, -473471.06, -128483.91, 0.0, 9.9995165, 9.999069 
1.3150382e+3, 2.747975e+2, -348898.5, -395914.28, -23884.732, -0.00929637, 0.099442646, -338893.7, -91900.67, 0.0, 9.999718, 9.999096 
1.3150416e+3, 2.8479677e+2, -246599.45, -265278.0, -29996.764, 0.0045700516, 0.10473788, -224521.73, -75520.75, 0.0, 9.999616, 9.999369 
1.315045e+3, 2.9479575e+2, -211977.66, -195827.5, -21017.945, 0.02586262, 0.06109416, -181386.78, -130376.484, 0.0, 9.999171, 9.999387 
1.315048e+3, 3.0479604e+2, -182719.92, -147840.75, -22622.768, 0.014286607, 0.15105215, -136715.88, -136715.88, 0.0, 9.9990015, 9.999464 
1.3150513e+3, 3.1479442e+2, -119432.375, -44219.96, -3069.9192, 0.021966072, 0.037737977, -44094.867, -44094.867, 0.0, 9.999118, 10.000121 
1.3249922e+3, 1.2480257e+2, -1588240.3, -1681575.6, 94545.945, -0.011495911, 0.092718795, -1529471.6, 187476.13, 0.006102575, 10.001008, 9.999738 
1.3249959e+3, 1.3480312e+2, -1536229.5, -1623135.0, -77477.39, 0.20547062, 0.19296852, -1490851.6, 128091.03, 0.0034860687, 10.00074, 9.999608 
1.3249953e+3, 1.4480227e+2, -1456838.9, -1553358.3, -3116.7327, -0.081735514, 0.15281163, -1456738.4, 64212.766, 0.0013970501, 10.000706, 9.99942 
1.325e+3, 1.5480135e+2, -1324432.5, -1441151.6, -5442.6143, 0.013474045, 0.12104582, -1324179.3, 98780.766, 0.00029637254, 10.000953, 9.999397 
1.3250038e+3, 1.6480075e+2, -1222837.4, -1326413.5, -14598.686, 0.04532545, 0.11553917, -1220819.1, 104146.93, 0.000014169166, 10.000912, 9.999533 
1.325007e+3, 1.7480059e+2, -1174557.8, -1247522.9, -17152.594, 0.01282076, 0.1387611, -1170726.6, 56241.293, 0.0, 10.000549, 9.999576 
1.32501e+3, 1.8480018e+2, -1107684.5, -1187845.5, -31077.28, -0.0010957711, 0.1502645, -1097047.8, 31923.732, 0.0, 10.000435, 9.999369 
1.3250133e+3, 1.9479947e+2, -983989.5, -1074389.1, -27576.102, 0.0020420537, 0.14031553, -976241.56, 54735.293, 0.0, 10.000598, 9.999396 
1.3250163e+3, 2.0479853e+2, -908474.6, -999976.1, -28977.219, -0.0029508981, 0.11370337, -900069.94, 32914.805, 0.0, 10.000498, 9.999283 
1.3250193e+3, 2.1479736e+2, -864986.8, -924266.5, -36113.777, -0.015371269, 0.06341489, -847907.0, -12911.77, 0.0, 10.000108, 9.999317 
1.3250223e+3, 2.2479667e+2, -797814.3, -841545.2, -33262.953, -0.019638445, 0.06257779, -779873.7, -42872.355, 0.0, 9.999897, 9.999315 
1.3250254e+3, 2.3479646e+2, -699779.94, -739374.75, -23365.543, -0.014721987, 0.106139764, -688952.44, -49949.62, 0.0, 9.999879, 9.999352 
1.3250284e+3, 2.4479581e+2, -597522.75, -627871.1, -32889.813, -0.016345887, 0.101577885, -576475.44, -35467.29, 0.0, 9.999858, 9.999455 
1.325031e+3, 2.547947e+2, -499476.13, -524928.75, -42019.46, -0.025583217, 0.03877369, -468298.06, -25280.516, 0.0, 9.999838, 9.999498 
1.3250344e+3, 2.64794e+2, -457046.13, -505862.88, -22679.027, -0.017116794, 0.04246591, -448136.22, -103111.21, 0.0, 9.9996805, 9.999032 
1.325038e+3, 2.747937e+2, -401607.1, -425784.3, -14720.698, 0.011838243, 0.107194446, -394647.53, -147616.69, 0.0, 9.999375, 9.999056 
1.3250412e+3, 2.8479305e+2, -291604.03, -274275.47, -20983.316, 0.021322578, 0.11672835, -260238.0, -111199.97, 0.0, 9.999253, 9.999481 
1.3250442e+3, 2.9479212e+2, -179559.67, -166015.36, -25022.607, 0.009274874, 0.06904469, -146864.69, -95818.836, 0.0, 9.999334, 9.999513 
1.3250473e+3, 3.0479228e+2, -139179.77, -129002.99, -19189.89, 0.0050169164, 0.1394438, -114238.33, -114238.33, 0.0, 9.999312, 9.999442 
1.3250507e+3, 3.1479105e+2, -129143.82, -80121.82, 12773.86, 0.051260617, 0.064779826, -76992.984, -76992.984, 0.0, 9.9991865, 9.999841 
1.3349931e+3, 1.24799185e+2, -1592633.1, -1691940.3, 88534.766, -0.008341451, 0.101540186, -1540778.6, 176201.61, 0.0064544743, 10.001013, 9.999665 
1.3349964e+3, 1.3479926e+2, -1541113.6, -1631548.1, -88314.39, 0.18698218, 0.15799664, -1487113.8, 131865.67, 0.0036991173, 10.000733, 9.999554 
1.334996e+3, 1.4479832e+2, -1467355.6, -1574146.5, 4583.24, -0.08168238, 0.119382106, -1467159.4, 53829.758, 0.0014937163, 10.000701, 9.99928 
1.335001e+3, 1.5479782e+2, -1333451.9, -1460772.5, 4052.3877, 0.020157635, 0.14237262, -1333323.0, 89672.2, 0.00032323142, 10.000956, 9.999262 
1.3350047e+3, 1.6479725e+2, -1227179.3, -1336500.8, -28498.182, 0.04215036, 0.15035994, -1220196.3, 104805.01, 0.000017128494, 10.000916, 9.999462 
1.3350073e+3, 1.7479672e+2, -1179448.4, -1258200.1, -31365.416, -0.012387242, 0.14566877, -1168483.0, 58523.105, 0.00000000003443261, 10.000551, 9.999502 
1.3350104e+3, 1.8479614e+2, -1100323.5, -1173004.1, -26517.346, -0.025375107, 0.13968213, -1091677.3, 37333.58, 0.0, 10.000436, 9.99947 
1.335014e+3, 1.9479547e+2, -976349.06, -1058909.9, -21812.254, 0.0037263855, 0.1215885, -970940.6, 60075.32, 0.0, 10.000599, 9.999502 
1.3350168e+3, 2.047947e+2, -920307.4, -1024222.25, -44401.543, 0.0019019111, 0.11421689, -903919.56, 29103.113, 0.0, 10.000496, 9.999118 
1.3350192e+3, 2.1479386e+2, -877194.56, -949703.0, -51436.613, -0.031482108, 0.11291946, -850519.5, -15488.496, 0.0, 10.000108, 9.999144 
1.335022e+3, 2.2479306e+2, -779073.25, -802924.3, -35200.28, -0.036519643, 0.09952484, -753833.25, -16795.697, 0.0, 9.999898, 9.999579 
1.3350254e+3, 2.3479235e+2, -680857.0, -699853.4, -23842.627, -0.011466782, 0.06503805, -664690.3, -25648.227, 0.0, 9.999877, 9.999625 
1.3350284e+3, 2.4479164e+2, -612874.75, -659173.0, -33776.54, -0.002109192, 0.051355578, -595075.94, -54028.004, 0.0, 9.999855, 9.999242 
1.3350311e+3, 2.5479096e+2, -515597.66, -558313.4, -42188.867, -0.009228275, 0.053970248, -489668.53, -46613.605, 0.0, 9.999837, 9.9992695 
1.335034e+3, 2.6479045e+2, -441918.8, -475054.88, -33619.5, -0.005507162, 0.0766168, -421006.6, -75945.44, 0.0, 9.999682, 9.999243 
1.3350372e+3, 2.7479005e+2, -387507.28, -394277.94, -24669.533, 0.009307804, 0.1101361, -365991.88, -118925.02, 0.0, 9.999366, 9.999277 
1.3350403e+3, 2.8478932e+2, -295874.4, -281772.44, -17059.518, 0.011841961, 0.10239907, -270364.2, -121289.695, 0.0, 9.999247, 9.9994335 
1.3350435e+3, 2.9478833e+2, -182240.47, -172324.9, -20202.018, 0.002734847, 0.05338349, -156481.22, -105398.01, 0.0, 9.999336, 9.999469 
1.3350464e+3, 3.047884e+2, -129480.805, -110181.22, -22858.607, 0.002476027, 0.11256318, -95019.03, -95019.03, 0.0, 9.999317, 9.99957 
1.3350499e+3, 3.1478816e+2, -136821.02, -91022.12, 12820.59, 0.03927647, 0.12601118, -87677.47, -87677.47, 0.0, 9.999166, 9.999775 
1.3449942e+3, 1.2479566e+2, -1602167.5, -1712443.3, 80782.664, -0.009627165, 0.11388603, -1559499.3, 157515.28, 0.0068022367, 10.001017, 9.999522 
1.3449971e+3, 1.3479532e+2, -1485836.1, -1618941.5, -107074.12, 0.17086202, 0.14252526, -1426316.9, 192700.9, 0.0039100754, 10.001176, 9.999426 
1.3449971e+3, 1.447943e+2, -1408015.0, -1540673.8, -8791.18, -0.079153895, 0.09835711, -1407435.0, 113593.44, 0.0015897118, 10.001087, 9.999323 
1.3450018e+3, 1.547941e+2, -1364992.1, -1471180.6, 2595.418, 0.015814804, 0.14794035, -1364928.8, 58102.984, 0.0003501717, 10.000719, 9.999304 
1.3450055e+3, 1.647936e+2, -1271681.0, -1362161.0, -21812.523, 0.03619663, 0.16255325, -1266697.0, 58339.996, 0.000020254476, 10.000628, 9.999425 
1.345008e+3, 1.7479287e+2, -1137549.3, -1242170.8, -21968.898, -0.0108707035, 0.14327002, -1133123.4, 93920.125, 0.0000000014653116, 10.000856, 9.999465 
1.345011e+3, 1.8479222e+2, -1058476.5, -1158006.3, -23983.941, -0.02573076, 0.13264567, -1052998.5, 76050.734, 0.0, 10.000746, 9.999424 
1.3450141e+3, 1.9479159e+2, -1029467.6, -1089267.8, -32198.635, -0.010631006, 0.121859, -1015427.25, 15627.351, 0.0, 10.000256, 9.999458 
1.3450171e+3, 2.0479089e+2, -968248.06, -1035586.94, -46433.99, -0.010091672, 0.12015608, -944561.2, -11500.65, 0.0, 10.000117, 9.999222 
1.3450195e+3, 2.1479018e+2, -832165.75, -915804.1, -32523.021, -0.023619058, 0.12152381, -821007.6, 14059.421, 0.0, 10.000363, 9.999253 
1.3450222e+3, 2.2478937e+2, -716642.25, -773368.25, -18912.23, -0.023741554, 0.10145465, -710915.2, 26158.213, 0.0, 10.000329, 9.999575 
1.3450253e+3, 2.3478849e+2, -664144.6, -691642.8, -30475.23, -0.010218389, 0.051161602, -644460.5, -5381.081, 0.0, 9.999993, 9.999623 
1.3450281e+3, 2.4478783e+2, -621730.4, -664961.75, -37815.58, -0.0029326004, 0.041181512, -599788.56, -58703.258, 0.0, 9.999804, 9.999226 
1.345031e+3, 2.5478736e+2, -526350.4, -565200.94, -31059.117, -0.001516414, 0.0677874, -509142.2, -66051.21, 0.0, 9.999772, 9.999253 
1.3450338e+3, 2.647869e+2, -439665.3, -456635.25, -26266.105, 0.0036635648, 0.090378135, -420547.7, -75451.16, 0.0, 9.999626, 9.999396 
1.3450366e+3, 2.7478644e+2, -376905.0, -370711.28, -24037.406, 0.012261355, 0.09845225, -349572.06, -102469.875, 0.0, 9.999363, 9.999439 
1.3450396e+3, 2.8478578e+2, -297391.53, -287698.16, -4384.9624, 0.008782342, 0.09190173, -286008.94, -136899.95, 0.0, 9.999261, 9.999385 
1.3450427e+3, 2.94785e+2, -185674.64, -179252.61, -7900.7666, -0.006497404, 0.070716366, -173935.27, -122819.055, 0.0, 9.999338, 9.999419 
1.3450457e+3, 3.0478486e+2, -127944.25, -93078.484, -21121.537, 0.00025251432, 0.100054964, -83124.79, -83124.79, 0.0, 9.999259, 9.999716 
1.345049e+3, 3.147851e+2, -156420.03, -93508.766, 15371.935, 0.043051943, 0.14839202, -89953.63, -89953.63, 0.0, 9.999002, 9.999838 
1.354995e+3, 1.2479206e+2, -1618258.4, -1744860.6, 89525.63, -0.018147474, 0.12974983, -1571915.1, 145134.84, 0.007146109, 10.001011, 9.999303 
1.3549982e+3, 1.3479139e+2, -1498874.6, -1646126.6, -100994.46, 0.15425508, 0.14481926, -1447518.0, 171539.08, 0.0041188756, 10.001178, 9.999238 
1.3549982e+3, 1.4479023e+2, -1392979.4, -1510885.5, -22813.537, -0.07927275, 0.08804466, -1388719.1, 132349.58, 0.001684743, 10.001093, 9.999526 
1.3550024e+3, 1.5479027e+2, -1350527.0, -1441552.9, -11799.666, -0.00041719552, 0.13940074, -1349022.3, 74046.54, 0.00037697863, 10.00072, 9.999507 
1.355006e+3, 1.6478987e+2, -1271036.4, -1361066.1, -14961.768, 0.026594738, 0.15330823, -1268615.1, 56457.695, 0.000023370363, 10.000628, 9.999433 
1.3550092e+3, 1.7478913e+2, -1136608.1, -1240965.9, -13601.533, 0.015409609, 0.13081965, -1134864.5, 92215.17, 0.0000000068048798, 10.000859, 9.999473 
1.3550119e+3, 1.8478845e+2, -1072388.9, -1187363.5, -42895.113, -0.005434777, 0.12936193, -1058149.1, 70937.04, 0.0, 10.000748, 9.999222 
1.3550141e+3, 1.9478785e+2, -1043523.56, -1118970.8, -51222.18, -0.042238366, 0.14081827, -1017632.9, 13459.45, 0.0, 10.0002575, 9.999254 
1.3550168e+3, 2.0478714e+2, -941252.06, -980274.0, -38897.23, -0.039888065, 0.13043751, -917246.7, 15851.27, 0.0, 10.00012, 9.999601 
1.3550201e+3, 2.147864e+2, -804601.44, -858492.44, -23690.451, 0.00690124, 0.0898508, -795668.0, 39434.883, 0.0, 10.000362, 9.999647 
1.355023e+3, 2.2478566e+2, -736676.5, -814299.5, -32047.496, 0.017181186, 0.069398515, -725155.4, 11953.125, 0.0, 10.000326, 9.999295 
1.3550253e+3, 2.3478495e+2, -685391.0, -735389.44, -43240.715, -0.01272042, 0.064216815, -660443.06, -21328.432, 0.0, 9.999991, 9.999325 
1.3550279e+3, 2.4478437e+2, -608498.94, -637427.5, -39552.316, -0.020497994, 0.06993863, -580849.06, -39728.79, 0.0, 9.999804, 9.999415 
1.3550308e+3, 2.5478393e+2, -512850.7, -536056.94, -31380.482, -0.004196906, 0.0801894, -490996.88, -47871.46, 0.0, 9.999767, 9.999456 
1.3550335e+3, 2.647834e+2, -435050.34, -446077.2, -35376.527, 0.008854847, 0.08407473, -404760.2, -59629.3, 0.0, 9.99962, 9.999472 
1.3550362e+3, 2.7478284e+2, -371720.88, -360326.28, -32646.746, 0.018393325, 0.07419752, -332883.44, -85746.75, 0.0, 9.999364, 9.999511 
1.3550389e+3, 2.847824e+2, -299681.34, -293536.56, -979.12573, 0.00878072, 0.08678629, -293384.3, -144242.81, 0.0, 9.999266, 9.999343 
1.3550419e+3, 2.947821e+2, -190739.72, -187095.94, -2817.1392, -0.022298262, 0.119443014, -185562.9, -134417.8, 0.0, 9.999326, 9.999372 
1.355045e+3, 3.0478153e+2, -119025.84, -72564.0, -29318.44, -0.0054478925, 0.100535505, -58388.418, -58388.418, 0.0, 9.999249, 9.999862 
1.3550481e+3, 3.147817e+2, -142819.44, -65028.86, 9273.8545, 0.058909416, 0.12732272, -63938.555, -63938.555, 0.0, 9.9990015, 10.000034 
1.3649963e+3, 1.2478807e+2, -1573428.9, -1716228.9, 89777.55, -0.019039929, 0.113746576, -1530120.6, 186968.69, 0.0074891904, 10.001289, 9.999367 
1.3649991e+3, 1.3478781e+2, -1496642.9, -1635132.5, -82667.86, 0.12776911, 0.16188152, -1458050.6, 161041.72, 0.0043270662, 10.001151, 9.999326 
1.3649991e+3, 1.4478667e+2, -1398930.0, -1517768.6, -10127.013, -0.08378829, 0.103219695, -1398073.1, 123030.664, 0.0017791736, 10.00107, 9.999489 
1.3650033e+3, 1.5478644e+2, -1305181.8, -1424664.5, -18132.191, 0.009942842, 0.1327958, -1302490.8, 120615.77, 0.00040358416, 10.001053, 9.999463 
1.3650069e+3, 1.64786e+2, -1226262.1, -1333775.0, -22322.332, 0.034965776, 0.14307702, -1221811.8, 103299.11, 0.000026350568, 10.000911, 9.999483 
1.3650097e+3, 1.747855e+2, -1166412.9, -1249351.8, -18051.596, 0.008185741, 0.13802606, -1162654.4, 64461.2, 0.000000016360648, 10.000629, 9.999526 
1.3650124e+3, 1.8478492e+2, -1097788.6, -1193839.4, -41014.375, -0.013330968, 0.14049037, -1082658.5, 46462.434, 0.0, 10.000548, 9.999273 
1.3650146e+3, 1.9478421e+2, -975503.5, -1080546.8, -30394.865, -0.037734438, 0.13916168, -967342.6, 63784.99, 0.0, 10.0007, 9.999306 
1.3650171e+3, 2.0478348e+2, -877155.6, -948124.44, -19247.582, -0.034283128, 0.12134655, -872271.56, 60862.023, 0.0, 10.000555, 9.999612 
1.3650204e+3, 2.1478274e+2, -843656.5, -875656.3, -33735.38, 0.0022487256, 0.08063981, -822319.1, 12819.489, 0.0, 10.00009, 9.9996605 
1.3650231e+3, 2.2478212e+2, -792287.9, -830783.9, -42920.465, 0.010238508, 0.06566573, -764497.0, -27353.781, 0.0, 9.999902, 9.999386 
1.3650253e+3, 2.3478161e+2, -676062.6, -721061.7, -25738.918, -0.01394524, 0.07112217, -664375.6, -25228.229, 0.0, 10.000013, 9.999413 
1.3650277e+3, 2.4478108e+2, -596433.1, -631576.94, -17604.049, -0.017789412, 0.07961101, -589131.9, -47979.313, 0.0, 9.999887, 9.999414 
1.3650304e+3, 2.547806e+2, -550926.06, -553956.6, -26430.133, 0.0009735033, 0.0832749, -525967.8, -82809.08, 0.0, 9.999506, 9.999457 
1.3650331e+3, 2.6478007e+2, -461016.44, -451183.38, -31508.7, 0.01231244, 0.08177367, -424209.94, -79045.54, 0.0, 9.9994135, 9.999535 
1.3650355e+3, 2.747795e+2, -328704.94, -332248.88, -30133.79, 0.014920522, 0.06937396, -300291.06, -53121.813, 0.0, 9.99963, 9.999574 
1.3650382e+3, 2.847792e+2, -265921.63, -277566.7, -4880.749, 0.008478682, 0.09320632, -264146.56, -114974.04, 0.0, 9.9995, 9.999339 
1.3650411e+3, 2.9477915e+2, -239293.8, -210123.17, -5242.198, -0.005735898, 0.14694975, -209209.7, -158035.4, 0.0, 9.998993, 9.999373 
1.3650443e+3, 3.04778e+2, -164723.58, -111149.09, -25315.916, 0.012005491, 0.08303763, -101079.16, -101079.16, 0.0, 9.999008, 9.999712 
1.3650472e+3, 3.1477815e+2, -59147.19, -25082.033, -9994.61, 0.03710784, 0.11849965, -22366.17, -22366.17, 0.0, 9.999577, 10.000031 
1.3749975e+3, 1.247837e+2, -1549735.5, -1667235.1, 82284.93, -0.017873285, 0.06100609, -1507379.6, 209752.9, 0.007836575, 10.001289, 9.999704 
1.3749999e+3, 1.3478465e+2, -1472317.4, -1583535.3, -88224.55, 0.09183482, 0.19652513, -1423638.6, 195484.25, 0.0045376513, 10.001148, 9.999681 
1.3750002e+3, 1.4478366e+2, -1417381.9, -1556650.8, -11758.107, -0.093129426, 0.14622739, -1416396.3, 104736.94, 0.001874079, 10.001072, 9.999223 
1.3750048e+3, 1.5478265e+2, -1324577.0, -1465598.3, -18823.662, 0.04459306, 0.12646097, -1322107.8, 101036.54, 0.00043006166, 10.001055, 9.999182 
1.375008e+3, 1.6478205e+2, -1219749.9, -1320941.5, -33490.14, 0.0579878, 0.13063912, -1209670.1, 115480.484, 0.000029160963, 10.000914, 9.999571 
1.37501e+3, 1.7478204e+2, -1159233.3, -1235074.1, -29145.137, -0.033203322, 0.16579442, -1149327.0, 77823.48, 0.000000027808229, 10.000631, 9.999623 
1.3750125e+3, 1.8478163e+2, -1076267.3, -1149903.8, -36834.496, -0.050624635, 0.16588934, -1061005.1, 68148.234, 0.0, 10.000551, 9.999575 
1.3750157e+3, 1.9478077e+2, -953735.8, -1035853.94, -25206.375, 0.001675966, 0.116648905, -946615.94, 84544.06, 0.0, 10.000701, 9.999612 
1.3750182e+3, 2.0477995e+2, -902269.44, -1000215.2, -37423.06, 0.005529584, 0.0935168, -889607.7, 43559.28, 0.0, 10.000554, 9.999255 
1.37502e+3, 2.1477926e+2, -870039.44, -930146.94, -51684.813, -0.038927674, 0.093890294, -840305.7, -5131.811, 0.0, 10.000088, 9.999288 
1.3750224e+3, 2.2477876e+2, -760556.44, -764542.9, -39983.555, -0.04622143, 0.08908904, -722516.44, 14661.064, 0.0, 9.9999, 9.999842 
1.3750252e+3, 2.347785e+2, -642898.0, -651780.25, -21421.404, -0.014730659, 0.0722387, -625462.2, 13715.255, 0.0, 10.000011, 9.999889 
1.3750279e+3, 2.4477804e+2, -610881.4, -661003.25, -31746.313, 0.0045544165, 0.07059307, -595496.3, -54314.605, 0.0, 9.999884, 9.999214 
1.37503e+3, 2.5477737e+2, -566654.56, -585997.1, -40145.047, 0.011456276, 0.0784477, -535032.3, -91841.63, 0.0, 9.999503, 9.999239 
1.3750325e+3, 2.6477683e+2, -457371.2, -443686.7, -23348.156, 0.011241568, 0.08417533, -426198.88, -81001.95, 0.0, 9.9994135, 9.999586 
1.375035e+3, 2.7477643e+2, -325152.7, -324037.3, -20434.86, -0.00011018137, 0.08213391, -304152.53, -56952.508, 0.0, 9.999626, 9.999632 
1.3750377e+3, 2.847762e+2, -264771.94, -274383.9, -22480.135, 0.0059992964, 0.10957525, -246589.8, -97387.65, 0.0, 9.9994955, 9.999363 
1.3750407e+3, 2.9477608e+2, -238082.16, -206574.69, -22360.1, 0.037529092, 0.15815969, -194976.0, -143772.55, 0.0, 9.998988, 9.9994 
1.3750435e+3, 3.0477437e+2, -195327.97, -175256.6, -3144.0085, 0.04603047, 0.051910777, -174775.64, -174775.64, 0.0, 9.999009, 9.999272 
1.375046e+3, 3.1477425e+2, -73985.82, -53696.676, 14187.721, -0.02590025, 0.10724402, -46399.81, -46399.81, 0.0, 9.999566, 9.99984 
1.3849989e+3, 1.2478032e+2, -1517892.5, -1666992.8, 108463.805, -0.02657033, 0.066814266, -1460829.1, 256336.4, 0.00819284, 10.001576, 9.999568 
1.385001e+3, 1.347811e+2, -1454931.5, -1588830.5, -97354.7, 0.084122546, 0.1977542, -1403727.9, 215430.13, 0.004753623, 10.001328, 9.999558 
1.3850014e+3, 1.4478001e+2, -1403048.8, -1543361.4, -22538.008, -0.08082205, 0.1411455, -1399517.4, 121652.01, 0.001970775, 10.001143, 9.999279 
1.3850057e+3, 1.5477924e+2, -1326144.0, -1459999.4, -5294.459, 0.04675259, 0.13834639, -1325934.9, 97243.11, 0.0004566524, 10.001017, 9.999239 
1.3850088e+3, 1.6477866e+2, -1226823.5, -1325271.0, -15055.664, 0.0547341, 0.14379063, -1224572.5, 100611.28, 0.00003186285, 10.000869, 9.999563 
1.3850106e+3, 1.7477849e+2, -1147439.4, -1230557.5, -19107.904, -0.03525864, 0.16300127, -1143257.1, 83928.08, 0.000000039188958, 10.000717, 9.999613 
1.3850132e+3, 1.8477803e+2, -1067078.4, -1137880.5, -30401.986, -0.050663657, 0.15598531, -1055815.6, 73372.88, 0.0, 10.000582, 9.999641 
1.3850163e+3, 1.9477728e+2, -983051.4, -1042018.44, -37084.7, 0.0037707752, 0.11083096, -965158.2, 66035.82, 0.0, 10.000466, 9.999682 
1.3850187e+3, 2.0477661e+2, -924217.56, -1005081.06, -53267.223, 0.0061609824, 0.095634036, -897775.4, 35424.293, 0.0, 10.00038, 9.999305 
1.3850202e+3, 2.1477608e+2, -832242.06, -906774.94, -36588.227, -0.044503942, 0.10654269, -817283.2, 17922.12, 0.0, 10.000324, 9.999333 
1.3850224e+3, 2.247756e+2, -726195.44, -745854.0, -19166.227, -0.0511179, 0.10226081, -714485.0, 22723.8, 0.0, 10.000127, 9.99986 
1.3850251e+3, 2.3477526e+2, -675313.94, -664496.3, -36045.164, -0.011392132, 0.07493507, -633456.44, 5753.417, 0.0, 9.999779, 9.999913 
1.3850276e+3, 2.4477483e+2, -640331.9, -669056.6, -54806.27, 0.009041988, 0.072781995, -598037.4, -56823.613, 0.0, 9.999658, 9.999266 
1.3850297e+3, 2.547743e+2, -522113.3, -558623.56, -43496.137, 0.008630412, 0.090966225, -493196.8, -49976.047, 0.0, 9.999785, 9.9992895 
1.385032e+3, 2.647738e+2, -421265.47, -428213.44, -17116.738, 0.010041156, 0.09417353, -407273.72, -62046.805, 0.0, 9.999671, 9.999567 
1.3850345e+3, 2.7477318e+2, -374014.44, -349598.66, -21550.879, 0.0118007865, 0.07488672, -337038.16, -89806.17, 0.0, 9.999299, 9.999613 
1.3850373e+3, 2.8477296e+2, -296145.22, -289868.94, -26494.06, 0.019005025, 0.10138293, -266327.8, -117093.55, 0.0, 9.999285, 9.999357 
1.38504e+3, 2.9477298e+2, -140246.16, -159398.28, -29953.182, 0.037411153, 0.16520342, -118375.53, -67141.62, 0.0, 9.999662, 9.999398 
1.3850428e+3, 3.04771e+2, -129875.37, -159845.05, -1132.6896, 0.04415669, 0.040466867, -129832.62, -129832.62, 0.0, 9.99953, 9.999126 
1.3850453e+3, 3.147708e+2, -168784.48, -77796.7, 37541.797, -0.035043005, 0.10469976, -64306.86, -64306.86, 0.0, 9.998825, 10.0000305 
1.3950002e+3, 1.24777995e+2, -1559620.3, -1754113.0, 97183.79, -0.046287518, 0.12967202, -1519383.8, 197803.92, 0.008561277, 10.001576, 9.99897 
1.3950026e+3, 1.3477722e+2, -1497661.0, -1676640.9, -106518.25, 0.10191467, 0.16441448, -1448030.1, 171167.11, 0.004977431, 10.001325, 9.998957 
1.3950028e+3, 1.4477578e+2, -1377067.3, -1489625.1, -28193.252, -0.051412083, 0.08597172, -1370400.4, 150811.84, 0.0020706747, 10.001143, 9.999648 
1.3950065e+3, 1.5477625e+2, -1298610.8, -1403086.0, -10638.429, 0.016129991, 0.16988009, -1297538.5, 125668.72, 0.0004838168, 10.001018, 9.999629 
1.3950095e+3, 1.6477592e+2, -1233344.4, -1340243.4, -21892.32, 0.024405094, 0.18446037, -1229034.8, 96175.15, 0.000034571214, 10.000874, 9.999458 
1.3950117e+3, 1.7477489e+2, -1154904.1, -1246960.8, -25206.566, 0.0005800397, 0.12909032, -1148454.1, 78765.43, 0.00000005013657, 10.00072, 9.999499 
1.3950142e+3, 1.8477419e+2, -1078811.6, -1162366.6, -35698.0, -0.015519822, 0.11066526, -1065637.3, 63588.715, 0.0, 10.000582, 9.999474 
1.3950165e+3, 1.9477382e+2, -994732.2, -1066726.5, -41777.242, -0.032440066, 0.121918015, -975582.9, 55646.23, 0.0, 10.000467, 9.999513 
1.3950187e+3, 2.0477349e+2, -892421.7, -939177.75, -56156.758, -0.034468986, 0.12657654, -854971.2, 78260.22, 0.0, 10.00038, 9.999758 
1.3950208e+3, 2.1477322e+2, -799522.56, -838976.06, -38918.07, -0.015748728, 0.11878592, -775617.2, 59615.375, 0.0, 10.000324, 9.9998 
1.395023e+3, 2.247727e+2, -755733.8, -807258.4, -32848.223, -0.005467737, 0.10556747, -739750.4, -2513.592, 0.0, 10.000127, 9.999439 
1.395025e+3, 2.3477192e+2, -706542.56, -729009.25, -49164.883, -0.005707352, 0.07983842, -667344.06, -28099.81, 0.0, 9.999776, 9.999472 
1.395027e+3, 2.447715e+2, -618956.44, -624208.1, -50624.016, -0.0066367774, 0.0859043, -570890.2, -29641.814, 0.0, 9.999655, 9.999577 
1.3950293e+3, 2.5477147e+2, -499652.63, -511272.8, -38050.355, -0.008921435, 0.11982693, -466971.34, -23722.434, 0.0, 9.999782, 9.999618 
1.3950317e+3, 2.647709e+2, -428266.4, -442629.5, -29978.926, 0.0075862943, 0.110966414, -404620.84, -59366.52, 0.0, 9.999669, 9.99947 
1.3950343e+3, 2.7476984e+2, -381932.94, -365292.8, -33822.27, 0.045775477, 0.051343523, -338782.3, -91517.625, 0.0, 9.999295, 9.999508 
1.3950367e+3, 2.8476945e+2, -299093.0, -296298.38, -11818.883, 0.042130385, 0.072125934, -285794.5, -136525.94, 0.0, 9.999285, 9.999313 
1.3950391e+3, 2.9476973e+2, -144783.67, -167788.83, -13605.383, -0.007728697, 0.16461688, -138470.08, -87203.97, 0.0, 9.999657, 9.999344 
1.395042e+3, 3.0476785e+2, -119090.72, -137194.1, -25925.852, 0.005001472, 0.046029817, -100681.836, -100681.836, 0.0, 9.999528, 9.999284 
1.3950445e+3, 3.1476775e+2, -130120.01, 4203.5034, 12171.242, 0.001077882, 0.10166864, 5297.4478, 5297.4478, 0.0, 9.998817, 10.000598 
1.4050019e+3, 1.2477505e+2, -1523352.9, -1745043.0, 81652.15, -0.05262566, 0.14031251, -1496525.5, 220691.25, 0.008945781, 10.001864, 9.998894 
1.4050041e+3, 1.3477412e+2, -1461380.3, -1668459.6, -81880.51, 0.11057996, 0.16872784, -1432916.5, 186311.19, 0.0052122944, 10.001616, 9.998873 
1.4050043e+3, 1.447725e+2, -1348581.9, -1473871.8, 5165.9585, -0.031703856, 0.0757327, -1348369.3, 172875.06, 0.0021757921, 10.001331, 9.999666 
1.4050074e+3, 1.5477307e+2, -1298817.3, -1401024.1, -5454.444, 0.00004891712, 0.16673408, -1298527.0, 124710.984, 0.0005121799, 10.001007, 9.999648 
1.40501e+3, 1.6477273e+2, -1239345.6, -1346730.9, -21936.09, 0.0067621972, 0.18113148, -1235037.4, 90203.234, 0.000037386584, 10.00085, 9.999425 
1.4050128e+3, 1.7477159e+2, -1132757.0, -1239932.8, -20085.58, 0.022019975, 0.11841656, -1129116.5, 98134.95, 0.00000006103049, 10.000889, 9.999466 
1.405015e+3, 1.8477088e+2, -1055760.8, -1150407.3, -27201.03, 0.009078844, 0.10208581, -1048500.25, 80757.67, 0.0, 10.000736, 9.999481 
1.4050168e+3, 1.9477066e+2, -1006495.3, -1071486.8, -20654.586, -0.04739236, 0.12543212, -1000486.7, 30773.172, 0.0, 10.000383, 9.99952 
1.4050187e+3, 2.0477037e+2, -918745.3, -947611.25, -36076.492, -0.054589316, 0.13173456, -894321.9, 38940.055, 0.0, 10.000181, 9.999795 
1.4050211e+3, 2.1477003e+2, -821803.44, -844904.75, -51194.656, -0.0027693321, 0.11439216, -780872.56, 54391.26, 0.0, 10.000153, 9.999841 
1.4050232e+3, 2.2476955e+2, -767159.7, -818875.5, -55300.016, 0.015170964, 0.10404712, -731970.7, 5297.468, 0.0, 10.000075, 9.999383 
1.405025e+3, 2.3476888e+2, -686757.8, -726420.8, -43754.777, -0.00646957, 0.09447579, -658550.06, -19274.986, 0.0, 9.999942, 9.99941 
1.4050268e+3, 2.4476849e+2, -596895.5, -601636.75, -30828.9, -0.013645087, 0.101055816, -568346.2, -27067.285, 0.0, 9.999755, 9.999682 
1.405029e+3, 2.5476837e+2, -530785.2, -514089.75, -35546.78, -0.0050132587, 0.11673065, -485923.66, -42644.29, 0.0, 9.999515, 9.999726 
1.4050312e+3, 2.647678e+2, -466977.7, -468662.56, -37787.82, 0.01707686, 0.10371135, -430022.9, -84738.12, 0.0, 9.999436, 9.999403 
1.4050336e+3, 2.7476677e+2, -351550.75, -357926.4, -40395.64, 0.053937245, 0.057284355, -314217.34, -66922.36, 0.0, 9.999537, 9.99944 
1.405036e+3, 2.847664e+2, -279632.1, -276914.88, -7750.3213, 0.04023438, 0.0782733, -270404.97, -121106.16, 0.0, 9.999375, 9.999403 
1.4050382e+3, 2.9476663e+2, -244777.69, -206395.88, 70.3035, -0.026882218, 0.15379292, -206395.73, -155098.97, 0.0, 9.998928, 9.99943 
1.405041e+3, 3.0476487e+2, -223579.95, -207544.72, -21898.443, -0.000980861, 0.053178966, -192242.3, -192242.3, 0.0, 9.998896, 9.9991045 
1.4050438e+3, 3.1476477e+2, -43388.16, 66909.805, -14453.287, 0.022463297, 0.12759553, 68772.29, 68772.29, 0.0, 9.999322, 10.000786 
1.4150038e+3, 1.2477152e+2, -1493332.6, -1682058.9, 66847.234, -0.05046924, 0.094772644, -1472054.3, 245198.33, 0.009352543, 10.001862, 9.999329 
1.4150058e+3, 1.3477191e+2, -1432578.0, -1607743.3, -91327.51, 0.110281244, 0.21305996, -1393624.3, 225624.45, 0.0054630674, 10.001614, 9.9992895 
1.4150056e+3, 1.4477028e+2, -1370325.4, -1520493.0, -7977.6245, -0.022276398, 0.11369023, -1369902.8, 151362.03, 0.002288969, 10.001337, 9.999344 
1.4150083e+3, 1.5476975e+2, -1322795.5, -1450985.3, -17760.7, -0.0041390005, 0.1285762, -1320380.3, 102889.73, 0.00054253166, 10.001007, 9.999306 
1.4150108e+3, 1.6476914e+2, -1237496.6, -1343134.9, -21835.563, -0.0016130201, 0.13341615, -1233161.1, 92114.66, 0.000040406845, 10.00085, 9.99945 
1.4150137e+3, 1.7476863e+2, -1129672.1, -1234584.4, -18955.025, 0.028101733, 0.1308304, -1126352.5, 100928.2, 0.00000007226826, 10.000893, 9.999501 
1.4150159e+3, 1.847682e+2, -1042609.9, -1124088.1, -41015.715, 0.02089486, 0.130126, -1025539.3, 103744.74, 0.0, 10.00074, 9.9996605 
1.4150172e+3, 1.9476782e+2, -993425.0, -1045134.8, -34248.316, -0.041849326, 0.121546276, -976368.06, 54917.91, 0.0, 10.000385, 9.999701 
1.4150189e+3, 2.0476727e+2, -944972.5, -1002230.06, -38392.184, -0.054831367, 0.11146338, -925710.06, 7580.8213, 0.0, 10.000181, 9.99942 
1.4150213e+3, 2.1476658e+2, -849060.1, -901340.44, -52481.598, -0.0071505634, 0.093455106, -816569.0, 18729.787, 0.0, 10.000151, 9.9994545 
1.4150232e+3, 2.2476617e+2, -746299.4, -774834.75, -60728.918, 0.008016206, 0.09705924, -698184.6, 39118.11, 0.0, 10.000072, 9.999688 
1.4150248e+3, 2.3476613e+2, -664212.0, -679832.4, -48476.504, -0.014591517, 0.118650116, -622920.56, 16381.636, 0.0, 9.999942, 9.99973 
1.4150265e+3, 2.4476576e+2, -603671.6, -616312.75, -39671.996, -0.012908767, 0.117916785, -569819.8, -28514.76, 0.0, 9.999757, 9.999581 
1.4150287e+3, 2.5476503e+2, -538921.4, -530458.44, -43824.11, 0.017608993, 0.08397105, -490662.0, -47350.31, 0.0, 9.999511, 9.999617 
1.415031e+3, 2.6476443e+2, -470131.38, -475434.63, -33574.523, 0.035170875, 0.074539915, -439103.94, -93785.945, 0.0, 9.999435, 9.999357 
1.415033e+3, 2.74764e+2, -355096.56, -364905.3, -35107.92, 0.03458153, 0.09031831, -324552.13, -77229.016, 0.0, 9.999535, 9.999394 
1.4150351e+3, 2.8476378e+2, -262837.28, -242071.9, -23244.885, 0.011897439, 0.11725372, -226996.3, -77671.03, 0.0, 9.999375, 9.999642 
1.4150372e+3, 2.9476368e+2, -228650.6, -172384.89, -14550.852, -0.026439354, 0.13664971, -168844.64, -117519.375, 0.0, 9.998924, 9.999665 
1.4150403e+3, 3.047621e+2, -259915.6, -284217.66, -5029.0103, 0.019249571, 0.06740776, -258916.02, -258916.02, 0.0, 9.998899, 9.998577 
1.415043e+3, 3.147618e+2, -60536.59, 32385.531, 1059.05, 0.025971506, 0.173568, 32397.6, 32397.6, 0.0, 9.999317, 10.000551 
1.4250058e+3, 1.2476868e+2, -1523900.5, -1684881.8, 81145.33, -0.015611835, 0.09386859, -1490096.3, 227184.55, 0.009788863, 10.001598, 9.999436 
1.4250071e+3, 1.3476922e+2, -1420826.8, -1590934.5, -96614.22, 0.099870704, 0.21637231, -1377162.0, 242112.72, 0.0057347612, 10.001647, 9.999389 
1.4250071e+3, 1.447675e+2, -1350247.3, -1521641.6, -25586.918, -0.028929463, 0.107630126, -1346509.0, 174782.48, 0.0024130836, 10.001524, 9.999245 
1.4250097e+3, 1.5476684e+2, -1300220.4, -1451964.6, -19384.887, 0.01654748, 0.1223603, -1297783.1, 125515.14, 0.0005758784, 10.001214, 9.9992 
1.4250119e+3, 1.6476628e+2, -1219666.9, -1328616.3, -3770.8245, 0.016587907, 0.13240513, -1219536.5, 105767.46, 0.00004378684, 10.000947, 9.999502 
1.4250144e+3, 1.7476591e+2, -1148024.9, -1236947.1, 242.34392, 0.0110117905, 0.13972883, -1148024.3, 79282.79, 0.00000008454083, 10.00074, 9.999558 
1.4250164e+3, 1.8476544e+2, -1064104.6, -1134308.4, -32199.38, 0.005559934, 0.1324674, -1051573.0, 77737.43, 0.0, 10.000593, 9.9996605 
1.4250179e+3, 1.9476485e+2, -972744.6, -1034687.5, -39660.285, -0.0146875465, 0.10076641, -953395.4, 77918.984, 0.0, 10.000527, 9.999702 
1.4250194e+3, 2.0476428e+2, -925125.06, -998653.0, -37127.785, -0.025215847, 0.09125339, -909639.06, 23680.621, 0.0, 10.000344, 9.999366 
1.4250213e+3, 2.1476378e+2, -870673.25, -918210.8, -27036.713, -0.020555818, 0.09947747, -858442.94, -23116.602, 0.0, 10.00003, 9.999396 
1.425023e+3, 2.2476342e+2, -768401.5, -775072.5, -25522.818, -0.013594137, 0.10769787, -745997.2, -8667.394, 0.0, 9.999874, 9.999782 
1.4250247e+3, 2.347633e+2, -664084.5, -668592.6, -31137.473, -0.0059671095, 0.10967748, -635119.6, 4209.931, 0.0, 9.999894, 9.999829 
1.4250265e+3, 2.4476287e+2, -601105.6, -629480.1, -37117.703, 0.0055506458, 0.10350322, -575556.2, -34223.086, 0.0, 9.999836, 9.999453 
1.4250283e+3, 2.5476214e+2, -521923.7, -536724.44, -43537.293, 0.022748433, 0.08010298, -485162.3, -41821.54, 0.0, 9.99969, 9.999487 
1.4250302e+3, 2.647616e+2, -448604.38, -456667.88, -22482.504, 0.0268081, 0.082321964, -429794.97, -84448.62, 0.0, 9.999547, 9.999433 
1.4250323e+3, 2.7476135e+2, -367120.72, -362175.1, -15639.932, 0.012900193, 0.10921836, -348813.7, -101464.67, 0.0, 9.999413, 9.999474 
1.4250343e+3, 2.84761e+2, -283625.3, -268107.06, -21673.324, -0.002279318, 0.12670414, -252845.83, -103493.414, 0.0, 9.9993, 9.999499 
1.4250363e+3, 2.9476047e+2, -196413.64, -173888.53, -44079.71, -0.010125426, 0.11644806, -139655.31, -88297.96, 0.0, 9.999221, 9.999512 
1.4250395e+3, 3.0475911e+2, -230407.92, -277701.0, -16206.9375, 0.039757088, 0.08468376, -225387.0, -225387.0, 0.0, 9.999137, 9.998507 
1.4250422e+3, 3.147586e+2, -90947.336, 32088.602, 21503.91, 0.01149883, 0.17467053, 35738.71, 35738.71, 0.0, 9.999045, 10.00068 
1.4350082e+3, 1.2476658e+2, -1538453.9, -1714830.5, 77980.09, 0.05223343, 0.13515092, -1508921.9, 208379.38, 0.010261075, 10.001596, 9.999232 
1.4350086e+3, 1.3476612e+2, -1436028.0, -1621383.4, -94655.94, 0.07509922, 0.17838277, -1396233.4, 223071.78, 0.0060308045, 10.001643, 9.999181 
1.4350083e+3, 1.4476418e+2, -1342548.3, -1506274.0, -37836.973, -0.057159692, 0.056899544, -1334227.1, 187096.89, 0.002550165, 10.001525, 9.999351 
1.4350113e+3, 1.5476443e+2, -1291441.4, -1434420.1, -31326.09, 0.06108326, 0.14838116, -1284879.1, 138443.2, 0.00061331474, 10.001216, 9.999319 
1.4350133e+3, 1.6476418e+2, -1213630.1, -1317351.9, -12957.813, 0.060340177, 0.17958646, -1212035.8, 113288.86, 0.000047750204, 10.000952, 9.9995775 
1.4350146e+3, 1.7476347e+2, -1142680.8, -1226411.1, -7971.737, -0.030436043, 0.14495263, -1141928.5, 85401.79, 0.00000010052836, 10.000742, 9.99963 
1.4350165e+3, 1.8476267e+2, -1076615.5, -1160420.0, -35765.906, -0.03864539, 0.109178536, -1063426.9, 65910.086, 0.0, 10.000593, 9.999482 
1.435019e+3, 1.9476174e+2, -985184.7, -1061326.8, -42361.76, 0.03203579, 0.062479205, -966300.3, 65044.477, 0.0, 10.00053, 9.999519 
1.4350204e+3, 2.0476139e+2, -906739.75, -960620.6, -49328.703, 0.031142317, 0.07055678, -877474.25, 55873.8, 0.0, 10.000344, 9.999627 
1.435021e+3, 2.1476167e+2, -851382.75, -878862.7, -38866.49, -0.0437121, 0.13223305, -823899.06, 11447.119, 0.0, 10.000031, 9.999666 
1.4350225e+3, 2.2476137e+2, -776767.8, -792828.5, -25559.807, -0.049852498, 0.13547821, -758006.56, -20657.484, 0.0, 9.999875, 9.99966 
1.4350249e+3, 2.347604e+2, -673600.25, -688208.94, -30186.387, 0.017892402, 0.068568945, -649847.06, -10490.147, 0.0, 9.999893, 9.999696 
1.4350267e+3, 2.447598e+2, -611836.2, -651427.1, -42497.54, 0.038887773, 0.058748536, -584749.9, -43387.035, 0.0, 9.999833, 9.999304 
1.435028e+3, 2.547596e+2, -532747.44, -558953.44, -48252.05, 0.008968554, 0.103896566, -495850.97, -52484.41, 0.0, 9.999688, 9.999335 
1.4350295e+3, 2.647593e+2, -434240.06, -426985.72, -26697.607, -0.008617462, 0.12569244, -403670.0, -58300.17, 0.0, 9.999547, 9.999637 
1.4350314e+3, 2.747589e+2, -352623.44, -331496.97, -18939.223, -0.01364467, 0.11687491, -320374.34, -73002.13, 0.0, 9.99941, 9.999686 
1.4350335e+3, 2.8475815e+2, -321368.6, -347071.72, -23506.709, -0.006225382, 0.1097402, -307429.7, -158049.98, 0.0, 9.999302, 9.998958 
1.4350359e+3, 2.9475695e+2, -237295.7, -257934.52, -45112.926, 0.018401187, 0.09071724, -201336.97, -149943.81, 0.0, 9.999216, 9.998938 
1.4350387e+3, 3.04756e+2, -201981.38, -218003.77, -18609.45, 0.058574054, 0.103024065, -189732.0, -189732.0, 0.0, 9.999133, 9.998919 
1.4350408e+3, 3.1475538e+2, -57664.57, 102451.266, 17399.105, -0.02562198, 0.14053081, 104320.14, 104320.14, 0.0, 9.999041, 10.001165 
1.4450103e+3, 1.2476427e+2, -1446124.8, -1683116.6, 81355.85, 0.06257504, 0.13392244, -1420884.6, 296438.8, 0.01077456, 10.002296, 9.999111 
1.4450103e+3, 1.3476369e+2, -1462780.1, -1648069.6, -82503.98, 0.08244099, 0.17809092, -1431368.6, 187960.31, 0.00635403, 10.001519, 9.999057 
1.4450097e+3, 1.4476167e+2, -1391218.3, -1526781.1, -14445.461, -0.04559882, 0.05085364, -1389696.0, 131652.81, 0.0027018294, 10.001179, 9.999375 
1.4450125e+3, 1.5476198e+2, -1273403.5, -1421775.0, -14532.107, 0.06521017, 0.14512905, -1271993.5, 151352.73, 0.0006557922, 10.001325, 9.999352 
1.4450145e+3, 1.6476174e+2, -1177605.4, -1304573.1, -10920.782, 0.061879184, 0.1784291, -1176673.0, 148675.4, 0.000052490832, 10.001223, 9.999533 
1.4450155e+3, 1.7476098e+2, -1128750.3, -1225058.4, -16499.771, -0.025593363, 0.1442036, -1126001.9, 101352.78, 0.00000012546444, 10.000862, 9.999579 
1.4450172e+3, 1.8476018e+2, -1078330.4, -1157556.9, -35534.69, -0.03442825, 0.1095804, -1064727.8, 64633.652, 0.0, 10.0005665, 9.999514 
1.4450192e+3, 1.9475931e+2, -1009670.2, -1069489.6, -26639.557, 0.028450238, 0.066438965, -999526.75, 31841.857, 0.0, 10.000347, 9.999551 
1.4450206e+3, 2.0475899e+2, -919861.2, -957894.94, -32884.055, 0.030785616, 0.07202736, -900891.2, 32480.2, 0.0, 10.000215, 9.999708 
1.4450212e+3, 2.1475928e+2, -823971.6, -856266.5, -37310.082, -0.027820673, 0.12454948, -799464.6, 35904.492, 0.0, 10.000181, 9.999748 
1.4450225e+3, 2.2475895e+2, -753798.06, -793272.06, -26820.096, -0.034358513, 0.12757817, -740235.4, -2863.234, 0.0, 10.000083, 9.999557 
1.4450248e+3, 2.3475797e+2, -678940.3, -703134.44, -30106.996, 0.013515992, 0.07003817, -658591.0, -19210.229, 0.0, 9.999909, 9.999586 
1.4450264e+3, 2.4475738e+2, -615387.0, -658376.3, -36479.594, 0.028289746, 0.06926034, -594540.4, -53153.36, 0.0, 9.999831, 9.999258 
1.4450277e+3, 2.5475723e+2, -511314.94, -554029.0, -35874.645, 0.0070901522, 0.122278415, -490921.34, -47530.734, 0.0, 9.999857, 9.999289 
1.4450292e+3, 2.647568e+2, -421961.7, -428289.53, -28783.037, -0.0044946894, 0.13810799, -396169.2, -50774.258, 0.0, 9.999661, 9.999573 
1.4450309e+3, 2.7475613e+2, -384466.84, -353477.22, -42576.855, -0.006249302, 0.107950084, -323663.34, -76263.83, 0.0, 9.99922, 9.999625 
1.445033e+3, 2.847553e+2, -342061.47, -361741.2, -21836.389, -0.0012757821, 0.09571081, -327950.3, -178542.39, 0.0, 9.99918, 9.998915 
1.4450353e+3, 2.9475418e+2, -187202.61, -239680.27, -5578.604, 0.015083536, 0.090410106, -186616.13, -135195.33, 0.0, 9.999583, 9.998886 
1.445038e+3, 3.0475357e+2, -167158.45, -184198.95, 6447.086, 0.05616403, 0.13705873, -164994.16, -164994.16, 0.0, 9.9993, 9.999069 
1.4450395e+3, 3.1475225e+2, -163219.64, 59669.13, 15520.874, -0.018343396, 0.08540654, 60744.734, 60744.734, 0.0, 9.9982815, 10.001236 
1.455012e+3, 1.2476185e+2, -1449777.1, -1691305.8, 46038.117, 0.010443002, 0.090475984, -1441299.3, 276047.34, 0.011332716, 10.002298, 9.999054 
1.4550123e+3, 1.3476202e+2, -1467470.9, -1657423.0, -111661.01, 0.121662796, 0.2160214, -1415857.0, 203488.39, 0.006706996, 10.001518, 9.998994 
1.4550115e+3, 1.4475998e+2, -1394258.3, -1533851.4, -11577.409, 0.00600463, 0.091609396, -1393304.6, 128060.914, 0.002869533, 10.001182, 9.999326 
1.4550136e+3, 1.5475951e+2, -1276418.3, -1428151.3, -9295.239, 0.026238056, 0.11257138, -1275851.0, 147518.77, 0.00070392614, 10.001326, 9.999308 
1.4550152e+3, 1.6475898e+2, -1189423.5, -1330354.0, -25014.414, 0.017179191, 0.12949277, -1185115.4, 140259.31, 0.000058062662, 10.001226, 9.999354 
1.4550169e+3, 1.7475848e+2, -1140627.1, -1250995.8, -30193.098, 0.02353567, 0.13717936, -1132907.3, 94472.53, 0.00000016567238, 10.000866, 9.9994 
1.4550184e+3, 1.8475801e+2, -1061441.0, -1123406.9, -44828.84, 0.015309797, 0.13408186, -1037930.2, 91453.37, 0.0, 10.000569, 9.999747 
1.4550191e+3, 1.947576e+2, -992043.9, -1034068.1, -34981.453, -0.025674434, 0.1120789, -972249.0, 59136.67, 0.0, 10.000351, 9.999792 
1.4550203e+3, 2.0475711e+2, -927037.4, -973146.75, -35213.184, -0.026355721, 0.09486994, -908003.0, 25386.48, 0.0, 10.000216, 9.999603 
1.455022e+3, 2.147566e+2, -831508.7, -872389.0, -38702.68, 0.024747623, 0.07644563, -808180.2, 27214.74, 0.0, 10.000182, 9.999638 
1.4550233e+3, 2.2475621e+2, -760028.5, -805734.7, -33688.973, 0.029371371, 0.084089555, -742172.75, -4773.8794, 0.0, 10.00008, 9.999473 
1.4550243e+3, 2.3475602e+2, -684368.1, -714783.75, -36160.824, -0.019637214, 0.11336379, -660347.3, -20946.38, 0.0, 9.99991, 9.999506 
1.4550258e+3, 2.4475563e+2, -611907.5, -651447.25, -35373.633, -0.025902111, 0.13358982, -591154.06, -49748.465, 0.0, 9.999831, 9.999306 
1.4550276e+3, 2.54755e+2, -508236.03, -547173.25, -33853.15, 0.015439009, 0.13629061, -488652.6, -45239.816, 0.0, 9.999854, 9.999338 
1.4550292e+3, 2.6475412e+2, -445636.72, -476864.13, -44225.297, 0.03613066, 0.121224284, -414349.8, -68928.44, 0.0, 9.999658, 9.999241 
1.4550306e+3, 2.7475306e+2, -408760.4, -403277.13, -57672.79, 0.032281455, 0.08220548, -348280.84, -100849.95, 0.0, 9.999217, 9.999286 
1.4550322e+3, 2.8475237e+2, -309132.63, -293656.56, -6147.3213, 0.011454452, 0.08329933, -291511.94, -142074.81, 0.0, 9.99918, 9.999383 
1.4550346e+3, 2.9475215e+2, -154242.64, -170800.78, 11624.493, -0.022210518, 0.11666016, -148250.34, -96810.31, 0.0, 9.99958, 9.999362 
1.455037e+3, 3.04752e+2, -174903.19, -201107.52, -29291.805, 0.028202465, 0.1889552, -155916.78, -155916.78, 0.0, 9.999302, 9.998952 
1.4550383e+3, 3.1474942e+2, -191399.84, 1884.2971, -24692.244, 0.027558664, 0.026408674, 4988.889, 4988.889, 0.0, 9.998279, 10.000841 
1.4650139e+3, 1.24759875e+2, -1554524.9, -1731717.1, 37475.324, 0.013938511, 0.08933156, -1546925.0, 170441.89, 0.011933646, 10.001527, 9.999147 
1.465014e+3, 1.3476029e+2, -1412072.3, -1619574.3, -103381.25, 0.13465056, 0.2273889, -1369358.4, 250004.47, 0.0070893364, 10.001855, 9.99909 
1.465013e+3, 1.4475821e+2, -1315638.0, -1508599.3, 2285.5444, 0.015158633, 0.10260729, -1315611.0, 205771.9, 0.0030533436, 10.001781, 9.999208 
1.4650147e+3, 1.5475751e+2, -1292159.6, -1449214.6, -2732.5942, 0.009710919, 0.11118489, -1292112.0, 131277.39, 0.0007578694, 10.001276, 9.9991865 
1.4650162e+3, 1.6475683e+2, -1228153.5, -1352470.1, -16719.592, 0.002123528, 0.12125274, -1225944.1, 99451.62, 0.00006440502, 10.000976, 9.999323 
1.465018e+3, 1.7475629e+2, -1136059.9, -1251802.9, -11435.796, 0.038648207, 0.1270892, -1134940.8, 92460.54, 0.00000022299002, 10.000913, 9.999372 
1.4650191e+3, 1.8475588e+2, -1031550.7, -1107914.8, -28616.21, 0.034895007, 0.13024078, -1022017.3, 107387.41, 0.0, 10.000772, 9.999755 
1.4650196e+3, 1.9475561e+2, -962199.94, -1018846.44, -36935.504, -0.030375088, 0.12451158, -943978.2, 87427.33, 0.0, 10.000554, 9.999798 
1.4650205e+3, 2.0475513e+2, -907336.75, -969162.75, -38938.67, -0.03791778, 0.108631894, -888532.25, 44877.23, 0.0, 10.000376, 9.999554 
1.4650223e+3, 2.1475439e+2, -827639.7, -876628.94, -38661.24, 0.023983607, 0.075658, -806366.6, 29049.936, 0.0, 10.000236, 9.999583 
1.4650235e+3, 2.2475396e+2, -751812.25, -803167.0, -29348.984, 0.030922886, 0.08141213, -738493.6, -1072.6497, 0.0, 10.000142, 9.99946 
1.4650244e+3, 2.3475388e+2, -657910.5, -703145.4, -27925.49, -0.025081849, 0.12137333, -644592.1, -5169.886, 0.0, 10.000097, 9.9994955 
1.4650255e+3, 2.4475348e+2, -595487.1, -644975.8, -27223.268, -0.03246995, 0.14223216, -583443.06, -42016.12, 0.0, 9.99995, 9.999292 
1.4650273e+3, 2.5475276e+2, -533864.94, -560889.9, -31009.688, 0.013928705, 0.13511367, -513551.56, -70116.47, 0.0, 9.999685, 9.999325 
1.465029e+3, 2.6475182e+2, -450020.53, -492688.97, -33838.918, 0.042077705, 0.121885024, -431352.0, -85907.63, 0.0, 9.999687, 9.999118 
1.4650303e+3, 2.7475074e+2, -305761.53, -367827.2, -32718.367, 0.04883376, 0.09605471, -291699.7, -44245.457, 0.0, 9.999985, 9.999159 
1.4650318e+3, 2.8475004e+2, -233906.31, -239659.56, 6215.383, 0.022562768, 0.09203729, -229934.14, -80473.44, 0.0, 9.9996195, 9.999542 
1.4650334e+3, 2.9474977e+2, -294567.94, -219888.25, -874.58405, -0.034435842, 0.10377412, -219878.02, -168414.69, 0.0, 9.998538, 9.999525 
1.4650358e+3, 3.0474994e+2, -291995.94, -256275.98, -33896.75, 0.016776415, 0.2016207, -235821.88, -235821.88, 0.0, 9.998493, 9.998962 
1.4650375e+3, 3.147474e+2, -23453.76, 45568.688, -25038.531, 0.05318175, 0.03925809, 53694.918, 53694.918, 0.0, 9.999592, 10.000507 
1.4750162e+3, 1.2475842e+2, -1536449.6, -1694353.3, 43749.586, 0.07554685, 0.13374828, -1525138.4, 192245.0, 0.012570836, 10.001528, 9.999406 
1.4750157e+3, 1.3475852e+2, -1392918.8, -1579827.1, -91102.96, 0.117234804, 0.21204306, -1355860.8, 263519.94, 0.007496925, 10.001857, 9.999362 
1.4750144e+3, 1.4475645e+2, -1329014.5, -1538239.8, -16798.295, -0.023860425, 0.084510446, -1327674.4, 193725.86, 0.00325146, 10.001788, 9.9990015 
1.475016e+3, 1.5475601e+2, -1306918.3, -1480086.9, -21816.084, 0.014586691, 0.1409821, -1304212.1, 119192.914, 0.0008173103, 10.001277, 9.998975 
1.4750172e+3, 1.6475533e+2, -1219951.3, -1336458.0, -20995.482, 0.015448525, 0.15479872, -1216283.3, 109128.164, 0.000071419374, 10.000979, 9.999432 
1.4750187e+3, 1.7475443e+2, -1127062.1, -1234504.0, -14177.685, 0.018593943, 0.113691844, -1125222.8, 102196.3, 0.0000002932695, 10.000917, 9.999488 
1.4750198e+3, 1.8475378e+2, -1046489.0, -1139918.3, -37383.18, 0.022019748, 0.09795677, -1033372.5, 96052.164, 0.0, 10.000775, 9.999534 
1.4750205e+3, 1.9475341e+2, -977720.3, -1052304.1, -45267.008, 0.01223134, 0.10375086, -956362.5, 75065.336, 0.0, 10.000559, 9.999567 
1.4750211e+3, 2.0475306e+2, -907489.5, -969680.5, -44924.434, -0.0067412113, 0.113422796, -883948.56, 49482.438, 0.0, 10.000376, 9.99955 
1.4750218e+3, 2.1475273e+2, -827148.06, -876390.75, -43808.813, -0.030580211, 0.1212048, -801515.8, 33918.113, 0.0, 10.000238, 9.999584 
1.475023e+3, 2.2475225e+2, -748616.2, -796360.2, -31499.865, -0.029793072, 0.11800801, -732964.6, 4473.816, 0.0, 10.000141, 9.999508 
1.4750245e+3, 2.3475157e+2, -654632.3, -696353.0, -29164.791, -0.004333068, 0.094891, -639635.44, -190.99974, 0.0, 10.000096, 9.999542 
1.4750259e+3, 2.4475095e+2, -600959.4, -655665.7, -36858.7, 0.0059770048, 0.09617742, -582413.06, -40962.137, 0.0, 9.999948, 9.999221 
1.4750269e+3, 2.5475043e+2, -539362.5, -571858.4, -40035.94, 0.000992165, 0.118598014, -512403.1, -68945.51, 0.0, 9.999682, 9.99925 
1.4750282e+3, 2.6474985e+2, -444227.03, -480979.25, -22054.498, 0.013164319, 0.13901094, -433896.3, -88432.414, 0.0, 9.999687, 9.999199 
1.4750302e+3, 2.7474922e+2, -300576.84, -356270.56, -19705.346, 0.041785054, 0.14949557, -294309.94, -46840.37, 0.0, 9.999979, 9.999242 
1.4750314e+3, 2.8474826e+2, -245174.13, -262025.7, -32479.352, 0.028678915, 0.12323697, -220045.45, -70566.87, 0.0, 9.999616, 9.999391 
1.4750321e+3, 2.94747e+2, -306457.66, -243828.84, -39898.867, -0.02430308, 0.052633725, -224423.31, -172932.64, 0.0, 9.998535, 9.999362 
1.4750344e+3, 3.047474e+2, -280526.16, -233837.45, 6913.6465, 0.020705994, 0.17447327, -232835.2, -232835.2, 0.0, 9.998497, 9.999116 
1.475037e+3, 3.1474638e+2, -42807.65, 5394.089, 15481.029, 0.05416962, 0.14622812, 9937.838, 9937.838, 0.0, 9.99959, 10.000234 
1.4850181e+3, 1.2475709e+2, -1510626.0, -1684120.4, 69239.84, 0.11257106, 0.1590456, -1486381.3, 231016.19, 0.013241886, 10.001719, 9.999384 
1.4850174e+3, 1.3475691e+2, -1428360.9, -1598081.8, -83141.33, 0.10508117, 0.21075471, -1394419.9, 224977.48, 0.007927433, 10.0016165, 9.999352 
1.4850159e+3, 1.4475487e+2, -1357764.1, -1548675.4, -23707.129, -0.046433084, 0.084184326, -1354864.3, 166552.36, 0.0034623703, 10.001576, 9.999032 
1.4850175e+3, 1.5475461e+2, -1255951.3, -1450694.6, -10483.152, 0.026788205, 0.15509698, -1255388.5, 168030.81, 0.00088177144, 10.001608, 9.999016 
1.4850186e+3, 1.6475397e+2, -1161540.9, -1307366.3, -4452.479, 0.030611627, 0.17013468, -1161405.1, 164019.97, 0.00007901186, 10.001379, 9.999437 
1.4850195e+3, 1.7475294e+2, -1132637.6, -1236965.4, -7500.9326, -0.00076710957, 0.11546526, -1132101.1, 95332.555, 0.00000037325287, 10.000879, 9.999489 
1.4850202e+3, 1.8475214e+2, -1075187.3, -1169295.6, -24589.105, 0.0020246203, 0.092914924, -1069149.9, 60290.797, 0.0, 10.000646, 9.999394 
1.4850213e+3, 1.9475165e+2, -966206.75, -1062364.3, -26342.576, 0.028484887, 0.10073921, -959463.06, 71982.38, 0.0, 10.000707, 9.999426 
1.4850219e+3, 2.0475125e+2, -868180.6, -951417.7, -25552.408, 0.011176958, 0.1142474, -860962.44, 72486.67, 0.0, 10.000649, 9.999542 
1.4850222e+3, 2.1475098e+2, -794900.94, -861353.25, -25893.164, -0.049827136, 0.12634932, -786003.06, 49448.215, 0.0, 10.000463, 9.999578 
1.4850229e+3, 2.2475043e+2, -735569.9, -795437.4, -16128.047, -0.054539416, 0.12049702, -731501.5, 5954.512, 0.0, 10.000255, 9.999458 
1.4850247e+3, 2.347496e+2, -670058.5, -709917.3, -22094.057, -0.00021078165, 0.08752014, -660233.44, -20770.06, 0.0, 10.000018, 9.999487 
1.4850259e+3, 2.4474889e+2, -610187.6, -665216.56, -31857.19, 0.018359456, 0.08405517, -595607.8, -54136.973, 0.0, 9.9999075, 9.999174 
1.4850268e+3, 2.5474834e+2, -506629.7, -561424.1, -34494.727, -0.0008942348, 0.10645004, -489975.88, -46497.67, 0.0, 9.999931, 9.999202 
1.4850278e+3, 2.6474786e+2, -431735.0, -455221.25, -12040.028, -0.00031272616, 0.13368113, -426659.6, -81176.38, 0.0, 9.999689, 9.999374 
1.4850296e+3, 2.7474755e+2, -407686.25, -387664.47, -3046.028, 0.018767241, 0.15748988, -387211.3, -139725.89, 0.0, 9.999159, 9.999421 
1.4850308e+3, 2.847466e+2, -325983.56, -328016.22, -18641.516, 0.018877236, 0.13314562, -308330.7, -158835.84, 0.0, 9.999178, 9.999147 
1.4850315e+3, 2.94745e+2, -140933.4, -192735.11, -35333.637, 0.0053313454, 0.053364024, -123024.21, -71512.75, 0.0, 9.999795, 9.999105 
1.4850335e+3, 3.0474532e+2, -118176.31, -115209.914, 18804.576, 0.038002077, 0.16406436, -97830.13, -97830.13, 0.0, 9.999439, 9.999476 
1.4850357e+3, 3.1474504e+2, -270795.78, -102930.92, 40205.844, 0.022208188, 0.17258126, -93797.984, -93797.984, 0.0, 9.99802, 10.000244 
1.49502e+3, 1.24755934e+2, -1533253.1, -1731465.6, 59247.063, 0.12311016, 0.16663623, -1516893.9, 200514.22, 0.013954315, 10.001721, 9.999056 
1.4950188e+3, 1.3475552e+2, -1450820.9, -1643906.0, -87162.72, 0.09810735, 0.22411087, -1417295.0, 202117.34, 0.0083850045, 10.001614, 9.999039 
1.4950174e+3, 1.447535e+2, -1337605.0, -1507848.1, -24185.984, -0.052761517, 0.10345665, -1334235.6, 187196.05, 0.003687204, 10.00158, 9.999311 
1.4950193e+3, 1.5475334e+2, -1234150.1, -1406577.1, -9744.609, 0.04354907, 0.15359874, -1233601.1, 189831.0, 0.00095130136, 10.001612, 9.999317 
1.4950201e+3, 1.6475278e+2, -1168246.1, -1322848.5, -23726.361, 0.0436885, 0.16757774, -1164686.9, 160749.52, 0.00008722728, 10.001385, 9.999329 
1.4950201e+3, 1.7475182e+2, -1140780.5, -1254875.6, -26606.443, -0.020346703, 0.13218178, -1134881.0, 92563.81, 0.0000004647829, 10.000882, 9.999365 
1.4950207e+3, 1.8475099e+2, -1079259.1, -1178327.0, -23688.092, -0.02656988, 0.11568809, -1073886.4, 55565.863, 0.0, 10.000648, 9.999331 
1.4950219e+3, 1.9475037e+2, -969476.56, -1070505.5, -24218.783, 0.017339222, 0.11468531, -963970.8, 67487.36, 0.0, 10.000711, 9.999368 
1.4950226e+3, 2.0474976e+2, -869322.56, -954027.5, -32982.934, 0.0144917825, 0.109731615, -857994.44, 75469.18, 0.0, 10.00065, 9.999525 
1.4950228e+3, 2.1474914e+2, -795591.06, -863463.3, -32972.234, -0.035124984, 0.0918859, -782210.9, 53257.504, 0.0, 10.000464, 9.999563 
1.4950234e+3, 2.2474855e+2, -746135.5, -817214.4, -25397.768, -0.045470722, 0.08929321, -737993.2, -519.54346, 0.0, 10.000254, 9.9993105 
1.4950246e+3, 2.34748e+2, -680550.0, -731768.4, -30622.043, -0.013896873, 0.09860152, -666240.0, -26761.084, 0.0, 10.000018, 9.999337 
1.4950256e+3, 2.4474728e+2, -613096.4, -670977.8, -30741.428, 0.003726474, 0.10449284, -599816.2, -58329.5, 0.0, 9.999906, 9.999136 
1.4950268e+3, 2.547464e+2, -509662.28, -567040.0, -32337.326, 0.006910389, 0.09926003, -495122.06, -51625.168, 0.0, 9.9999275, 9.999165 
1.4950275e+3, 2.647459e+2, -412955.22, -415382.03, -30945.16, -0.00048531673, 0.1067685, -383199.7, -37697.46, 0.0, 9.999685, 9.99965 
1.4950283e+3, 2.7474573e+2, -388024.34, -346630.0, -21628.13, -0.021547288, 0.12008527, -337391.44, -89889.56, 0.0, 9.999157, 9.999703 
1.4950296e+3, 2.84745e+2, -349884.4, -378433.25, 5036.396, -0.007614556, 0.120954886, -349021.97, -199512.31, 0.0, 9.99918, 9.998801 
1.4950319e+3, 2.947437e+2, -167792.53, -247164.67, -9921.307, 0.050222084, 0.106276646, -166571.19, -115045.414, 0.0, 9.999787, 9.998736 
1.4950332e+3, 3.0474365e+2, -78957.1, -32130.23, -32124.537, 0.06349438, 0.17081188, -15792.255, -15792.255, 0.0, 9.999432, 10.000051 
1.4950329e+3, 3.1474346e+2, -249292.88, -58642.54, -12288.299, -0.045847923, 0.13211963, -57853.766, -57853.766, 0.0, 9.998022, 10.000547 
1.5050215e+3, 1.2475447e+2, -1544536.9, -1747557.4, 45623.69, 0.10096373, 0.15764518, -1534755.4, 182666.94, 0.014719213, 10.001688, 9.998961 
1.5050207e+3, 1.3475412e+2, -1428836.6, -1642246.4, -79280.98, 0.114409, 0.22922412, -1402607.8, 216819.08, 0.008876167, 10.001805, 9.998958 
1.5050192e+3, 1.4475223e+2, -1315677.3, -1491628.3, -20139.465, -0.036310084, 0.12321145, -1313401.5, 208043.7, 0.003928814, 10.001709, 9.999361 
1.5050207e+3, 1.54752e+2, -1261102.8, -1413113.6, -25489.729, 0.0295876, 0.16182454, -1256942.4, 166503.5, 0.0010266986, 10.001398, 9.999376 
1.5050213e+3, 1.6475143e+2, -1192986.1, -1339336.3, -50418.13, 0.026193205, 0.17253847, -1177298.5, 148151.83, 0.00009630864, 10.001234, 9.999289 
1.5050212e+3, 1.7475048e+2, -1094044.1, -1237000.3, -47868.93, -0.012368089, 0.14227785, -1079495.8, 147963.23, 0.000000575819, 10.0012245, 9.999323 
1.5050216e+3, 1.8474968e+2, -1013019.94, -1133577.0, -30839.307, -0.015628517, 0.12717035, -1005589.06, 123876.625, 0.0, 10.001049, 9.999445 
1.5050225e+3, 1.9474916e+2, -963490.3, -1054921.5, -19265.793, 0.0051283115, 0.1239, -959596.6, 71873.08, 0.0, 10.000698, 9.999481 
1.505023e+3, 2.0474844e+2, -900799.2, -988513.0, -24835.621, 0.0021231484, 0.11219666, -894255.3, 39220.47, 0.0, 10.000518, 9.999352 
1.5050232e+3, 2.1474756e+2, -800488.3, -885918.6, -37923.813, -0.022427268, 0.08331921, -786082.5, 49401.57, 0.0, 10.000519, 9.999383 
1.5050238e+3, 2.2474688e+2, -726029.56, -807634.25, -37066.043, -0.032327376, 0.082426295, -711707.3, 25783.1, 0.0, 10.000394, 9.999308 
1.5050246e+3, 2.3474647e+2, -664686.1, -724000.5, -32135.547, -0.02744448, 0.10710606, -650614.1, -11119.971, 0.0, 10.000128, 9.999337 
1.5050253e+3, 2.4474584e+2, -613085.4, -664404.0, -17252.17, -0.016344761, 0.116328634, -607824.8, -66323.71, 0.0, 9.999879, 9.999193 
1.5050265e+3, 2.5474492e+2, -546740.1, -578336.6, -13105.971, 0.00096571696, 0.10015755, -542011.5, -98500.234, 0.0, 9.999646, 9.999223 
1.5050273e+3, 2.6474428e+2, -437532.1, -432439.0, -24973.793, -0.00057330367, 0.09794588, -409882.25, -64364.74, 0.0, 9.99954, 9.999602 
1.5050276e+3, 2.7474397e+2, -331477.88, -324879.53, -41520.71, -0.02345444, 0.103186995, -286527.13, -39008.043, 0.0, 9.999571, 9.999653 
1.5050288e+3, 2.847435e+2, -316306.44, -334872.56, 3432.6614, -0.015894113, 0.11714324, -315692.1, -166167.4, 0.0, 9.999294, 9.999045 
1.5050308e+3, 2.947428e+2, -310602.9, -287398.44, 33626.844, 0.028681388, 0.139305, -263428.53, -211894.47, 0.0, 9.998686, 9.998991 
1.505032e+3, 3.0474243e+2, -203936.55, -79638.18, -615.2584, 0.04092775, 0.15223874, -79635.14, -79635.14, 0.0, 9.998519, 10.000165 
1.5050316e+3, 3.1474233e+2, -134303.14, -5419.796, -19199.293, -0.026981905, 0.11025941, -2620.5432, -2620.5432, 0.0, 9.998819, 10.000529 
1.5150225e+3, 1.24752805e+2, -1533703.5, -1724906.8, 43749.4, 0.04868133, 0.14128856, -1524168.6, 193270.2, 0.015541437, 10.00169, 9.999117 
1.5150228e+3, 1.3475277e+2, -1417423.8, -1618183.3, -75071.37, 0.15046917, 0.2259186, -1392456.8, 226983.52, 0.00940343, 10.001806, 9.999123 
1.5150212e+3, 1.4475109e+2, -1328681.6, -1520104.3, -32347.836, -0.00096838525, 0.14422421, -1323363.0, 198093.64, 0.004188714, 10.001715, 9.999163 
1.5150216e+3, 1.5475065e+2, -1274816.0, -1442550.0, -37196.094, -0.015460404, 0.18016526, -1266937.5, 156522.7, 0.0011086961, 10.001402, 9.999172 
1.5150219e+3, 1.6474994e+2, -1189627.5, -1333751.8, -52012.98, -0.022768153, 0.18623301, -1172817.3, 152649.25, 0.000106542946, 10.001239, 9.999325 
1.5150227e+3, 1.747489e+2, -1090449.8, -1230588.0, -48474.31, 0.020797545, 0.14497592, -1075316.5, 152159.31, 0.0000007145684, 10.001228, 9.999365 
1.5150231e+3, 1.8474825e+2, -993376.56, -1093590.9, -44319.402, 0.031817455, 0.12644026, -976588.75, 152891.83, 0.0, 10.001051, 9.999719 
1.5150231e+3, 1.9474804e+2, -943378.4, -1014352.9, -32583.764, -0.0087802755, 0.12879899, -930688.4, 100791.28, 0.0, 10.000702, 9.999759 
1.5150233e+3, 2.0474738e+2, -923919.5, -1036897.44, -25702.098, -0.02668806, 0.12241986, -918347.2, 15138.231, 0.0, 10.000519, 9.99902 
1.5150239e+3, 2.147462e+2, -824996.25, -936871.2, -37848.414, -0.013607689, 0.09972971, -813394.8, 22103.445, 0.0, 10.000519, 9.999034 
1.5150243e+3, 2.2474541e+2, -717131.4, -788441.06, -47117.77, -0.017269544, 0.09824766, -693698.56, 43807.797, 0.0, 10.00039, 9.999442 
1.5150246e+3, 2.3474506e+2, -654443.1, -702891.75, -41613.277, -0.041256458, 0.11357821, -630516.8, 8992.127, 0.0, 10.000128, 9.999482 
1.515025e+3, 2.4474452e+2, -602886.8, -642991.2, -25798.459, -0.043217983, 0.11981106, -590264.06, -48750.13, 0.0, 9.999877, 9.999341 
1.515026e+3, 2.547438e+2, -536674.0, -556967.44, -20946.865, -0.02018567, 0.108515345, -523545.66, -80024.28, 0.0, 9.999643, 9.999372 
1.5150267e+3, 2.6474306e+2, -464195.38, -487219.75, -22921.902, -0.0020087254, 0.10638838, -450057.13, -104527.93, 0.0, 9.999537, 9.999228 
1.5150276e+3, 2.7474234e+2, -359466.25, -382268.88, -38425.2, 0.010296513, 0.10736411, -330786.56, -83249.484, 0.0, 9.999567, 9.999261 
1.5150282e+3, 2.8474206e+2, -257788.89, -213080.1, -18304.314, -0.009026931, 0.1227587, -206542.16, -57002.223, 0.0, 9.999292, 9.999883 
1.5150286e+3, 2.9474232e+2, -249699.05, -161397.14, 12164.799, -0.060091477, 0.15206501, -159751.92, -108215.414, 0.0, 9.998687, 9.999856 
1.5150298e+3, 3.0474165e+2, -227293.08, -129338.05, 11494.769, -0.030776892, 0.10574439, -128007.25, -128007.25, 0.0, 9.998523, 9.999823 
1.5150313e+3, 3.1474155e+2, -155527.97, -48711.1, -3895.8667, 0.070144616, 0.102983624, -48569.2, -48569.2, 0.0, 9.998815, 10.000236 
1.5250243e+3, 1.2475139e+2, -1491857.1, -1702090.9, 51523.6, 0.03355107, 0.1354153, -1479908.9, 237544.27, 0.016418394, 10.001974, 9.999138 
1.5250246e+3, 1.3475147e+2, -1410614.5, -1613102.4, -74260.35, 0.14249578, 0.22937444, -1386300.0, 233153.56, 0.009964891, 10.001845, 9.999139 
1.525023e+3, 1.447499e+2, -1321955.1, -1522230.3, -36506.555, -0.013049199, 0.1603045, -1315508.1, 205960.72, 0.0044658356, 10.001783, 9.999116 
1.5250231e+3, 1.547492e+2, -1222881.6, -1422277.5, -30288.625, -0.016770165, 0.17620976, -1218382.3, 205092.31, 0.0011971197, 10.00178, 9.99913 
1.5250234e+3, 1.6474845e+2, -1146221.3, -1313544.3, -43429.19, -0.015817573, 0.17943469, -1135620.6, 189860.66, 0.000118069845, 10.001542, 9.999317 
1.5250239e+3, 1.7474757e+2, -1115426.8, -1243842.6, -44843.766, 0.030343851, 0.15504032, -1101317.3, 126172.15, 0.0000008766353, 10.001062, 9.999354 
1.5250242e+3, 1.847469e+2, -1028968.56, -1113459.0, -50472.168, 0.037926402, 0.1360019, -1005395.1, 124099.28, 0.0, 10.000818, 9.999695 
1.5250239e+3, 1.947465e+2, -925905.1, -1008632.25, -61745.91, -0.01205235, 0.11990418, -892948.44, 138546.83, 0.0, 10.000834, 9.999734 
1.5250239e+3, 2.0474583e+2, -892474.56, -1011347.0, -50627.8, -0.034482617, 0.113291435, -873834.9, 59665.668, 0.0, 10.000691, 9.999111 
1.5250243e+3, 2.1474497e+2, -839411.75, -933660.7, -30528.482, -0.021442529, 0.110751584, -830387.25, 5123.2046, 0.0, 10.000377, 9.999124 
1.5250245e+3, 2.2474423e+2, -759979.2, -816605.1, -32077.012, -0.022815911, 0.11498778, -745507.1, -7989.045, 0.0, 10.000129, 9.999373 
1.5250245e+3, 2.3474371e+2, -684803.9, -725533.2, -44247.98, -0.043072294, 0.11930053, -656459.1, -16936.242, 0.0, 9.999955, 9.99941 
1.5250248e+3, 2.4474314e+2, -620603.75, -639806.25, -40779.07, -0.044522155, 0.12020507, -588310.9, -46782.637, 0.0, 9.999705, 9.999446 
1.5250254e+3, 2.5474253e+2, -568907.0, -560249.1, -39527.93, -0.023878526, 0.11103053, -524813.8, -81280.016, 0.0, 9.999372, 9.999479 
1.525026e+3, 2.6474187e+2, -509724.06, -504510.2, -16430.33, -0.0063838945, 0.110465184, -490481.25, -144940.75, 0.0, 9.999207, 9.999269 
1.5250269e+3, 2.747412e+2, -407238.2, -400782.88, -911.04913, 0.006222339, 0.110768266, -400656.75, -153108.36, 0.0, 9.999221, 9.999301 
1.5250273e+3, 2.8474098e+2, -288889.9, -213417.7, -9446.009, -0.0110213095, 0.1246146, -212253.42, -62703.01, 0.0, 9.999017, 10.000013 
1.5250273e+3, 2.9474133e+2, -256796.94, -149504.88, -34998.848, -0.058318455, 0.15192172, -139097.69, -87552.49, 0.0, 9.998573, 9.999992 
1.5250282e+3, 3.0474034e+2, -251309.17, -150370.63, -26621.566, -0.034031708, 0.06664933, -143779.78, -143779.78, 0.0, 9.998401, 9.999736 
1.5250301e+3, 3.1474063e+2, -189545.34, -50144.508, -19079.877, 0.0787576, 0.11285433, -47580.203, -47580.203, 0.0, 9.99852, 10.000366 
1.5350264e+3, 1.2475029e+2, -1499902.9, -1719481.3, 40461.05, 0.057399485, 0.1433788, -1492684.5, 224780.25, 0.017345058, 10.001977, 9.999017 
1.535026e+3, 1.3475026e+2, -1419668.6, -1633021.9, -79200.05, 0.08934949, 0.24007481, -1393482.4, 225983.94, 0.01055819, 10.001851, 9.999001 
1.535024e+3, 1.4474869e+2, -1313305.6, -1505912.0, -37821.727, -0.07336072, 0.1726453, -1306144.9, 215336.42, 0.004758545, 10.001791, 9.999225 
1.5350254e+3, 1.5474774e+2, -1213989.9, -1403922.9, -30686.4, 0.02316385, 0.14952031, -1209155.1, 214333.5, 0.0012911803, 10.0017805, 9.999256 
1.5350257e+3, 1.6474701e+2, -1150134.3, -1322962.6, -61748.492, 0.043663636, 0.15263385, -1130339.8, 195154.88, 0.00013084838, 10.001546, 9.999251 
1.535025e+3, 1.7474653e+2, -1119585.6, -1254113.1, -62890.582, 0.015665477, 0.17325327, -1094764.4, 132735.03, 0.0000010420176, 10.001068, 9.999282 
1.5350245e+3, 1.8474567e+2, -1050893.3, -1160117.0, -50919.06, 0.0020293703, 0.15721379, -1030837.75, 98669.0, 0.0, 10.000822, 9.999373 
1.5350246e+3, 1.947445e+2, -948859.1, -1056640.3, -61139.43, -0.006883619, 0.09618128, -921249.8, 110266.54, 0.0, 10.000835, 9.999404 
1.5350245e+3, 2.0474385e+2, -857121.56, -937888.56, -62651.633, -0.024057275, 0.083277054, -822966.1, 110555.08, 0.0, 10.0006895, 9.999617 
1.5350243e+3, 2.1474387e+2, -802539.5, -857392.4, -42052.06, -0.046288036, 0.11690549, -779760.5, 55759.938, 0.0, 10.000377, 9.999648 
1.5350243e+3, 2.247434e+2, -779430.1, -856816.44, -39062.855, -0.049827814, 0.13355796, -763140.8, -25615.53, 0.0, 10.000128, 9.999099 
1.5350245e+3, 2.3474243e+2, -705716.0, -768881.1, -50250.67, -0.034314454, 0.12388916, -677947.1, -38411.035, 0.0, 9.999954, 9.999113 
1.5350246e+3, 2.4474165e+2, -616644.4, -631009.9, -52922.934, -0.021898799, 0.11681417, -570418.94, -28874.87, 0.0, 9.999702, 9.999508 
1.5350248e+3, 2.5474113e+2, -564555.0, -551209.25, -50823.883, -0.011725923, 0.10844772, -506622.06, -63073.67, 0.0, 9.999371, 9.999542 
1.5350251e+3, 2.6474077e+2, -477541.5, -437846.16, -15226.797, -0.01609415, 0.10992261, -432678.13, -87126.65, 0.0, 9.999206, 9.999726 
1.5350257e+3, 2.7474058e+2, -374556.8, -332980.28, 1136.9519, -0.037186045, 0.11102103, -332949.22, -85396.0, 0.0, 9.99922, 9.999767 
1.5350263e+3, 2.8474027e+2, -329551.16, -297431.0, -24294.012, -0.023300355, 0.12085465, -284368.47, -134812.16, 0.0, 9.999015, 9.999438 
1.5350267e+3, 2.9473993e+2, -299174.84, -237439.05, -49549.06, 0.029885085, 0.14149076, -209929.4, -158369.52, 0.0, 9.998572, 9.99939 
1.5350272e+3, 3.047385e+2, -238748.19, -124898.5, -21555.498, 0.027842099, 0.036923, -120953.99, -120953.99, 0.0, 9.998402, 9.999911 
1.5350278e+3, 3.1473932e+2, -148786.89, 34574.164, -8090.045, -0.0072255433, 0.11493948, 34930.41, 34930.41, 0.0, 9.998518, 10.00095 
1.5450284e+3, 1.2474951e+2, -1478781.9, -1717251.8, 57183.945, 0.02712586, 0.15852973, -1465778.5, 251694.38, 0.018319318, 10.002161, 9.998944 
1.5450281e+3, 1.347492e+2, -1354737.6, -1612251.5, -54994.797, 0.09026062, 0.2368629, -1343484.6, 275992.2, 0.011183906, 10.002351, 9.998901 
1.5450262e+3, 1.4474764e+2, -1253743.6, -1476547.3, -26286.057, -0.06878449, 0.17627406, -1250684.5, 270807.13, 0.005067253, 10.002201, 9.999229 
1.5450272e+3, 1.5474676e+2, -1226934.6, -1408821.1, -28752.709, 0.034474056, 0.15785392, -1222497.6, 201000.75, 0.001390617, 10.001685, 9.999269 
1.5450272e+3, 1.6474594e+2, -1172496.9, -1343131.8, -62669.637, 0.05278496, 0.15690313, -1151953.4, 173551.73, 0.00014484508, 10.001432, 9.999167 
1.5450262e+3, 1.7474523e+2, -1066467.4, -1238300.8, -65542.945, 0.011172335, 0.16446787, -1044321.4, 183190.5, 0.000001197513, 10.001475, 9.999194 
1.5450257e+3, 1.8474434e+2, -990891.4, -1136823.0, -45202.457, -0.0022208574, 0.15045224, -978024.4, 151495.48, 0.0, 10.00126, 9.999322 
1.5450256e+3, 1.947433e+2, -962605.56, -1069190.6, -35306.93, 0.0034449815, 0.10862585, -951971.0, 79557.54, 0.0, 10.000767, 9.999351 
1.5450253e+3, 2.0474267e+2, -897309.9, -953676.2, -44207.97, -0.013542378, 0.09827638, -873065.56, 60467.797, 0.0, 10.0004, 9.999648 
1.5450247e+3, 2.1474257e+2, -829468.7, -866500.4, -61472.277, -0.05219968, 0.116435155, -783784.2, 51749.38, 0.0, 10.000176, 9.999681 
1.5450244e+3, 2.2474211e+2, -796654.94, -854052.2, -60614.47, -0.057529233, 0.127314, -758288.5, -20750.336, 0.0, 9.999962, 9.999197 
1.5450244e+3, 2.3474129e+2, -727560.06, -768523.8, -42384.406, -0.027115226, 0.122761995, -700968.1, -61420.89, 0.0, 9.999758, 9.99921 
1.5450244e+3, 2.447406e+2, -632406.56, -636744.3, -33091.36, -0.009742735, 0.1187072, -601413.06, -59858.797, 0.0, 9.999588, 9.999523 
1.5450244e+3, 2.547401e+2, -551620.56, -543814.94, -36723.33, -0.007540909, 0.11038827, -510787.63, -67229.03, 0.0, 9.999455, 9.999553 
1.5450244e+3, 2.6473975e+2, -474903.22, -419961.5, -14160.128, -0.018671995, 0.10687028, -416526.72, -70965.46, 0.0, 9.999153, 9.999875 
1.5450245e+3, 2.747396e+2, -444293.88, -349892.03, -22142.447, -0.04353299, 0.09753316, -344956.47, -97394.26, 0.0, 9.998671, 9.999916 
1.545025e+3, 2.8473938e+2, -396318.3, -336703.3, -33661.383, -0.022246242, 0.11245384, -321548.88, -171984.45, 0.0, 9.998589, 9.999373 
1.5450257e+3, 2.9473922e+2, -252473.08, -222600.03, -20794.371, 0.049863033, 0.15628658, -211933.7, -160366.75, 0.0, 9.998928, 9.99932 
1.5450259e+3, 3.0473766e+2, -210023.88, -130851.31, 3528.905, 0.038678072, 0.052471317, -130694.33, -130694.33, 0.0, 9.998687, 9.999732 
1.5450257e+3, 3.147381e+2, -233871.06, 17376.363, -7760.1084, -0.024865048, 0.1103325, 17615.816, 17615.816, 0.0, 9.997834, 10.001161 
1.5550296e+3, 1.24749154e+2, -1480556.5, -1720655.5, 56995.582, -0.05312657, 0.18763499, -1467713.8, 249762.75, 0.019345792, 10.002163, 9.9989195 
1.555031e+3, 1.3474832e+2, -1358991.1, -1620579.1, -48086.438, 0.1427635, 0.2194813, -1350431.8, 269053.06, 0.011846598, 10.002351, 9.998844 
1.555029e+3, 1.4474683e+2, -1260848.4, -1492505.1, -45687.16, -0.0027660262, 0.17256857, -1252163.6, 269335.63, 0.0053950804, 10.002205, 9.999118 
1.5550289e+3, 1.5474631e+2, -1233849.9, -1424658.4, -48168.973, 0.015546195, 0.20208101, -1222379.3, 201124.13, 0.0014964977, 10.001691, 9.999158 
1.5550283e+3, 1.647453e+2, -1178519.5, -1357474.6, -62320.406, 0.010488051, 0.19297768, -1158955.5, 166556.81, 0.00016027692, 10.00144, 9.999066 
1.5550275e+3, 1.7474377e+2, -1073565.0, -1253331.1, -63961.25, 0.015041523, 0.12772208, -1053130.4, 174396.33, 0.0000013687348, 10.001475, 9.999091 
1.555027e+3, 1.8474294e+2, -976063.75, -1106259.1, -63666.81, 0.021656055, 0.11560706, -950105.56, 179428.03, 0.0, 10.00126, 9.999532 
1.5550265e+3, 1.9474296e+2, -946611.44, -1037064.6, -53579.34, 0.018284263, 0.15789664, -921722.5, 109809.11, 0.0, 10.000771, 9.99957 
1.5550257e+3, 2.0474236e+2, -928338.1, -1018923.5, -53194.27, -0.0035429636, 0.15924256, -903766.25, 29770.645, 0.0, 10.0004015, 9.9992 
1.5550248e+3, 2.147411e+2, -862328.9, -934564.1, -69754.76, -0.041486558, 0.108805284, -819895.8, 15654.022, 0.0, 10.0001745, 9.999216 
1.5550244e+3, 2.2474037e+2, -763741.06, -785145.94, -68542.43, -0.04865893, 0.09531182, -705070.56, 32486.055, 0.0, 9.999959, 9.999673 
1.5550242e+3, 2.3474032e+2, -692832.3, -696599.2, -49322.145, -0.022211568, 0.116197474, -645357.7, -5801.4727, 0.0, 9.999758, 9.999704 
1.5550241e+3, 2.4474e+2, -635574.56, -643086.3, -37577.875, -0.009792247, 0.12563287, -601565.3, -60006.5, 0.0, 9.999586, 9.999481 
1.5550236e+3, 2.547394e+2, -555442.56, -551758.5, -40478.684, -0.013065946, 0.11535189, -513079.97, -69515.46, 0.0, 9.9994545, 9.999499 
1.5550235e+3, 2.6473886e+2, -485816.9, -442626.28, -31006.58, -0.014716951, 0.10075836, -426435.8, -80865.82, 0.0, 9.999152, 9.999721 
1.5550235e+3, 2.7473834e+2, -455775.28, -374335.22, -38286.906, -0.015119762, 0.072846994, -359162.44, -111587.34, 0.0, 9.998672, 9.999748 
1.5550236e+3, 2.847384e+2, -365161.6, -272422.53, -20139.092, -0.01106634, 0.10044494, -268237.97, -118663.32, 0.0, 9.9985895, 9.999815 
1.5550242e+3, 2.9473916e+2, -221076.95, -156913.42, -6403.517, -0.0019263477, 0.19129542, -156280.6, -104713.66, 0.0, 9.998925, 9.999773 
1.5550241e+3, 3.0473778e+2, -249455.89, -211790.97, -26341.428, -0.0044382485, 0.10883977, -198242.39, -198242.39, 0.0, 9.998682, 9.999179 
1.5550241e+3, 3.1473678e+2, -245901.31, -8944.052, -31921.941, 0.020662652, 0.08064986, -4718.9893, -4718.9893, 0.0, 9.997839, 10.0009775 
1.5650319e+3, 1.247485e+2, -1393750.1, -1675643.8, 45246.836, -0.07166824, 0.19035225, -1386665.6, 330817.03, 0.020435693, 10.002762, 9.998944 
1.5650333e+3, 1.3474749e+2, -1370036.9, -1626722.9, -50627.016, 0.14766851, 0.20413905, -1360412.5, 259079.94, 0.012553852, 10.002278, 9.9988365 
1.565031e+3, 1.4474602e+2, -1295165.3, -1516309.1, -49021.35, -0.0055743163, 0.1640951, -1284785.8, 236720.84, 0.0057467376, 10.002002, 9.999052 
1.5650305e+3, 1.5474556e+2, -1199619.5, -1415397.6, -49614.26, 0.014556237, 0.20637922, -1188758.4, 234752.56, 0.0016107617, 10.001959, 9.999091 
1.5650298e+3, 1.647446e+2, -1121939.1, -1320386.9, -49691.754, 0.0126545075, 0.2002034, -1110191.6, 215327.83, 0.00017757353, 10.001788, 9.999153 
1.5650292e+3, 1.747431e+2, -1066969.8, -1240267.6, -37641.09, 0.02071823, 0.12944949, -1059147.1, 168385.7, 0.0000016137079, 10.001479, 9.999179 
1.5650283e+3, 1.8474226e+2, -989657.9, -1119408.8, -47744.836, 0.026960779, 0.114474505, -973982.75, 155557.0, 0.0, 10.001195, 9.999473 
1.5650274e+3, 1.9474222e+2, -925720.44, -1034235.2, -60291.902, 0.018538918, 0.15751746, -898866.9, 132672.11, 0.0, 10.000946, 9.999504 
1.5650262e+3, 2.0474158e+2, -896243.25, -1011551.2, -53534.957, -0.0006318707, 0.1635307, -875220.9, 58324.008, 0.0, 10.000658, 9.999127 
1.5650253e+3, 2.1474032e+2, -845628.2, -935100.94, -40780.707, -0.027649794, 0.121922195, -829830.25, 5727.4287, 0.0, 10.000326, 9.999139 
1.5650246e+3, 2.2473958e+2, -761779.1, -780278.7, -41285.254, -0.03470736, 0.10593698, -728720.1, 8844.668, 0.0, 9.999957, 9.999706 
1.565024e+3, 2.347394e+2, -720976.25, -706445.4, -58674.457, -0.0212554, 0.11215481, -654588.25, -15022.916, 0.0, 9.999549, 9.999737 
1.5650235e+3, 2.4473909e+2, -673415.3, -649607.25, -52427.46, -0.012763547, 0.116160884, -607749.4, -66181.76, 0.0, 9.999275, 9.999586 
1.565023e+3, 2.5473866e+2, -591765.94, -557177.5, -43615.586, -0.008869162, 0.110476434, -527552.5, -83981.05, 0.0, 9.999154, 9.999606 
1.5650228e+3, 2.6473823e+2, -513295.47, -463350.5, -32638.725, -0.0032191488, 0.1053309, -447226.63, -101650.73, 0.0, 9.998998, 9.999652 
1.5650225e+3, 2.7473778e+2, -444214.88, -377435.75, -34765.34, 0.003338405, 0.09069745, -362622.72, -115041.7, 0.0, 9.998791, 9.99967 
1.5650223e+3, 2.8473777e+2, -367383.22, -249536.47, -10217.487, -0.0041846037, 0.10576918, -248657.16, -99076.08, 0.0, 9.998471, 10.000029 
1.5650223e+3, 2.9473838e+2, -335568.97, -186990.75, -14765.164, -0.02720753, 0.15952663, -185537.66, -133963.67, 0.0, 9.998032, 9.999996 
1.5650222e+3, 3.0473745e+2, -365640.75, -279030.5, -33909.598, -0.020728031, 0.11674483, -267333.84, -267333.84, 0.0, 9.997932, 9.999079 
1.5650225e+3, 3.1473637e+2, -184582.45, 31327.133, -1449.3513, 0.04974479, 0.09194144, 31336.861, 31336.861, 0.0, 9.998213, 10.001076 
1.5750352e+3, 1.2474763e+2, -1388440.0, -1665454.3, 18239.152, -0.0279284, 0.17022282, -1387244.3, 330246.38, 0.021602063, 10.002768, 9.999014 
1.5750352e+3, 1.3474675e+2, -1367116.5, -1621706.9, -68973.164, 0.10389462, 0.19236274, -1349631.3, 269867.88, 0.013314004, 10.002284, 9.99887 
1.5750323e+3, 1.4474528e+2, -1296182.9, -1519930.9, -51972.46, -0.07722473, 0.15233277, -1284699.9, 236813.58, 0.006126935, 10.002008, 9.999024 
1.5750328e+3, 1.5474455e+2, -1201227.8, -1419416.1, -50953.13, 0.029867204, 0.17074698, -1189915.3, 233605.22, 0.0017352505, 10.001962, 9.999063 
1.5750322e+3, 1.6474387e+2, -1102054.5, -1280586.1, -61545.277, 0.055529088, 0.18010573, -1082894.3, 242631.86, 0.00019699702, 10.001793, 9.999424 
1.5750308e+3, 1.7474324e+2, -1047073.1, -1200111.6, -49136.973, 0.027161058, 0.16979127, -1032654.9, 194875.27, 0.0000019795527, 10.001483, 9.999453 
1.5750295e+3, 1.847423e+2, -1012994.6, -1168828.8, -57532.344, 0.01287698, 0.14725582, -994055.94, 135482.45, 0.0, 10.001199, 9.999132 
1.575028e+3, 1.9474107e+2, -951014.9, -1086792.3, -69724.06, 0.0020621957, 0.10729429, -921588.0, 109962.836, 0.0, 10.000945, 9.999145 
1.5750268e+3, 2.0474039e+2, -875034.1, -967059.56, -66134.52, -0.007669274, 0.11120809, -840480.44, 93076.85, 0.0, 10.000654, 9.999434 
1.5750258e+3, 2.147403e+2, -823054.1, -888471.75, -52622.12, -0.011490705, 0.15579875, -793803.6, 41753.293, 0.0, 10.000327, 9.999459 
1.5750247e+3, 2.247397e+2, -791426.44, -842043.8, -56392.83, -0.016818734, 0.1590804, -754923.5, -17360.8, 0.0, 9.999957, 9.999283 
1.5750234e+3, 2.3473854e+2, -751730.6, -770634.2, -73383.3, -0.025613818, 0.11009238, -687192.94, -47618.18, 0.0, 9.99955, 9.999297 
1.5750226e+3, 2.4473788e+2, -655478.3, -612351.25, -56739.887, -0.019559449, 0.08997774, -573215.5, -31634.744, 0.0, 9.999274, 9.999843 
1.5750223e+3, 2.5473785e+2, -572953.3, -517969.56, -46775.336, 0.002995877, 0.0970311, -491205.25, -47625.816, 0.0, 9.999152, 9.999877 
1.5750219e+3, 2.6473784e+2, -512844.94, -462285.66, -38963.918, 0.012765704, 0.120275006, -441119.13, -95539.96, 0.0, 9.998997, 9.999661 
1.5750213e+3, 2.7473783e+2, -443533.94, -376715.38, -40651.777, 0.009148518, 0.14724661, -357505.78, -109925.28, 0.0, 9.998792, 9.999675 
1.5750207e+3, 2.8473744e+2, -368011.97, -251499.97, -25198.531, -0.0033481228, 0.12595205, -246283.7, -96699.586, 0.0, 9.998473, 10.000015 
1.5750204e+3, 2.947369e+2, -335460.88, -188523.64, -29406.22, -0.028253969, 0.06420774, -182857.17, -131269.11, 0.0, 9.998037, 9.999985 
1.5750203e+3, 3.047367e+2, -340200.2, -226709.58, -22762.182, -0.013261295, 0.07901268, -222314.5, -222314.5, 0.0, 9.997934, 9.999437 
1.5750207e+3, 3.1473678e+2, -159809.44, 83473.52, 15537.96, 0.051953647, 0.13400906, 84461.88, 84461.88, 0.0, 9.998209, 10.001436 
1.5850382e+3, 1.2474736e+2, -1363539.4, -1670549.3, 48094.617, -0.023179172, 0.13985988, -1356181.5, 361310.28, 0.022855148, 10.003023, 9.998854 
1.5850376e+3, 1.3474666e+2, -1332369.3, -1626043.6, -48420.188, 0.1066642, 0.19804324, -1324591.9, 294907.88, 0.014133484, 10.002622, 9.998674 
1.5850343e+3, 1.4474513e+2, -1251465.1, -1489136.9, -24743.188, -0.09087787, 0.15900956, -1248916.5, 272598.13, 0.006539009, 10.00228, 9.999104 
1.5850347e+3, 1.547441e+2, -1186811.0, -1402470.9, -16227.287, 0.03358222, 0.13910325, -1185596.8, 237926.83, 0.0018710105, 10.00202, 9.99915 
1.585034e+3, 1.6474344e+2, -1107324.6, -1278426.1, -35797.31, 0.06479107, 0.14261769, -1100137.1, 225391.66, 0.00021839465, 10.001739, 9.999464 
1.5850322e+3, 1.7474315e+2, -1050611.0, -1197614.5, -42485.76, 0.02659247, 0.16194612, -1039215.5, 188314.34, 0.000002466339, 10.001443, 9.999488 
1.5850306e+3, 1.8474226e+2, -1026952.94, -1191669.0, -50783.36, 0.007917071, 0.15163608, -1012554.6, 116983.45, 0.0, 10.001174, 9.998986 
1.585029e+3, 1.9474083e+2, -963029.2, -1109631.1, -47823.223, -0.0011591606, 0.1058257, -948808.2, 82745.24, 0.0, 10.000937, 9.998991 
1.5850276e+3, 2.0474005e+2, -868678.4, -949740.44, -46359.055, -0.005223407, 0.10288, -847630.8, 85929.9, 0.0, 10.000638, 9.99956 
1.5850261e+3, 2.1474005e+2, -821957.75, -872962.0, -48718.883, -0.00008133721, 0.13985635, -792470.0, 43088.664, 0.0, 10.000271, 9.999592 
1.5850247e+3, 2.2473948e+2, -798122.8, -867806.1, -48635.387, -0.0047340095, 0.1494509, -773136.9, -35572.79, 0.0, 10.000008, 9.999082 
1.5850233e+3, 2.3473829e+2, -720313.6, -778712.9, -48057.76, -0.021518303, 0.12172377, -693280.06, -53702.684, 0.0, 9.9998665, 9.999088 
1.585022e+3, 2.4473757e+2, -616000.7, -593151.9, -33579.586, -0.018607672, 0.103855774, -569106.5, -27521.783, 0.0, 9.999548, 9.999842 
1.5850213e+3, 2.5473738e+2, -591057.0, -526859.25, -45348.95, 0.004916176, 0.09312957, -503398.56, -59813.89, 0.0, 9.999029, 9.999874 
1.5850207e+3, 2.6473737e+2, -545586.75, -466604.3, -37453.133, 0.0114726685, 0.11136346, -451668.6, -106084.67, 0.0, 9.998722, 9.9997635 
1.5850198e+3, 2.747375e+2, -456828.03, -370837.06, -32364.605, 0.0014662564, 0.14679421, -360017.3, -112434.6, 0.0, 9.99865, 9.999783 
1.5850192e+3, 2.8473705e+2, -382342.2, -271171.88, -26463.549, -0.0044533806, 0.11942524, -265193.8, -115606.85, 0.0, 9.998431, 9.999899 
1.5850185e+3, 2.947362e+2, -344372.44, -205768.44, -40474.027, -0.009153912, 0.03864413, -194815.13, -143220.4, 0.0, 9.9980345, 9.999866 
1.5850183e+3, 3.0473652e+2, -355541.2, -191390.13, -22817.004, 0.009775781, 0.088675685, -188277.58, -188277.58, 0.0, 9.997646, 9.999818 
1.5850182e+3, 3.1473663e+2, -279163.94, 51659.387, 18652.93, 0.029755583, 0.111610785, 52707.78, 52707.78, 0.0, 9.99728, 10.001664 
1.5950407e+3, 1.2474783e+2, -1390446.3, -1725746.6, 23222.398, -0.0512553, 0.107165724, -1388845.6, 328639.5, 0.02420314, 10.003023, 9.998468 
1.5950407e+3, 1.3474724e+2, -1360592.5, -1687075.1, -63027.055, 0.15261549, 0.21978904, -1348847.6, 270646.28, 0.015016924, 10.00263, 9.998252 
1.595037e+3, 1.4474562e+2, -1237705.5, -1463034.3, -35636.598, -0.051121872, 0.18362756, -1232203.8, 289306.28, 0.0069850083, 10.002291, 9.99928 
1.5950367e+3, 1.5474427e+2, -1173063.6, -1374870.1, -26119.586, 0.025046362, 0.111864954, -1169737.8, 253782.2, 0.0020184768, 10.002024, 9.999339 
1.5950353e+3, 1.6474332e+2, -1120556.0, -1306675.1, -47518.95, 0.039905455, 0.08864256, -1109125.8, 216401.55, 0.00024140984, 10.001741, 9.999269 
1.5950336e+3, 1.7474282e+2, -1064966.0, -1228028.9, -53418.125, 0.0168343, 0.10659694, -1049025.0, 178506.89, 0.0000030340082, 10.001446, 9.999278 
1.5950318e+3, 1.8474218e+2, -1023143.4, -1184437.0, -60052.574, 0.008567178, 0.12911752, -1003240.56, 126298.016, 0.0, 10.001176, 9.999036 
1.59503e+3, 1.9474149e+2, -958682.75, -1101690.4, -56188.203, 0.008151994, 0.15248983, -939247.5, 92299.41, 0.0, 10.000941, 9.999044 
1.5950283e+3, 2.0474058e+2, -873021.4, -959698.06, -60014.926, 0.005777181, 0.1377796, -842332.7, 91222.516, 0.0, 10.000641, 9.999492 
1.5950266e+3, 2.147395e+2, -827285.4, -883728.2, -62300.85, 0.0044928854, 0.074525975, -787112.0, 48450.91, 0.0, 10.000269, 9.999519 
1.5950248e+3, 2.2473885e+2, -796376.7, -863716.25, -54380.008, -0.00054016535, 0.07773374, -766086.8, -28517.648, 0.0, 10.000005, 9.999111 
1.5950231e+3, 2.3473868e+2, -718309.5, -774365.5, -52311.977, -0.010544894, 0.14718226, -686990.1, -47416.8, 0.0, 9.999865, 9.999119 
1.5950218e+3, 2.4473812e+2, -635386.56, -633370.94, -51905.37, -0.012172263, 0.15754877, -582463.6, -40884.004, 0.0, 9.999546, 9.999567 
1.5950204e+3, 2.5473714e+2, -610181.7, -567439.1, -63295.65, -0.004577651, 0.097491495, -522004.2, -78416.56, 0.0, 9.999032, 9.999596 
1.5950193e+3, 2.6473668e+2, -531690.06, -438676.5, -39448.566, -0.0074973493, 0.07847076, -424199.1, -78608.65, 0.0, 9.998725, 9.999954 
1.5950184e+3, 2.7473685e+2, -442712.06, -341824.63, -33241.72, -0.022158792, 0.091559485, -331856.6, -84268.78, 0.0, 9.99865, 9.999982 
1.5950176e+3, 2.847366e+2, -398034.75, -303698.47, -39668.4, -0.01146919, 0.087083876, -289235.3, -139645.39, 0.0, 9.99843, 9.999677 
1.595017e+3, 2.9473624e+2, -359565.94, -238770.95, -53599.527, 0.025232594, 0.07846506, -218417.19, -166822.34, 0.0, 9.998039, 9.999638 
1.5950163e+3, 3.0473676e+2, -327983.94, -134037.4, -35607.13, 0.044351507, 0.14301088, -127706.836, -127706.836, 0.0, 9.997645, 10.000213 
1.5950151e+3, 3.1473607e+2, -274245.03, 61033.01, 7156.4453, -0.019983258, 0.038942493, 61185.695, 61185.695, 0.0, 9.997282, 10.001727 
1.6050437e+3, 1.24748774e+2, -1423006.4, -1741364.6, 25471.21, -0.057882223, 0.10363783, -1420981.4, 296493.28, 0.025656627, 10.002796, 9.99847 
1.6050437e+3, 1.34748e+2, -1308302.4, -1660725.9, -19719.596, 0.17066719, 0.19673112, -1307202.4, 312282.7, 0.015970975, 10.0029955, 9.998256 
1.6050397e+3, 1.447463e+2, -1174806.9, -1444238.1, 745.48145, -0.047723748, 0.1596723, -1174804.8, 346696.97, 0.007468348, 10.00278, 9.999174 
1.6050386e+3, 1.547451e+2, -1167683.8, -1384166.1, -13094.653, 0.019895688, 0.113630086, -1166894.5, 256616.1, 0.002178835, 10.002114, 9.99923 
1.605037e+3, 1.6474408e+2, -1133537.8, -1325282.6, -32814.867, 0.031904142, 0.0935747, -1128077.4, 197441.8, 0.00026599475, 10.001708, 9.999156 
1.605035e+3, 1.7474328e+2, -1051408.8, -1233890.9, -32404.598, 0.012346734, 0.09334519, -1045825.3, 181701.67, 0.0000036433328, 10.001594, 9.999166 
1.6050331e+3, 1.8474261e+2, -992642.1, -1163960.1, -38505.684, 0.010027762, 0.11455853, -984385.5, 145148.69, 0.0, 10.001362, 9.999085 
1.6050312e+3, 1.9474213e+2, -946651.94, -1089972.9, -35917.953, 0.016413892, 0.15367311, -938154.3, 93385.79, 0.0, 10.001, 9.999095 
1.6050291e+3, 2.0474121e+2, -879219.5, -982420.56, -44426.535, 0.013586796, 0.14332108, -862729.4, 70819.16, 0.0, 10.000685, 9.999313 
1.6050269e+3, 2.1473987e+2, -817449.75, -899655.8, -54970.586, 0.0043067224, 0.07290058, -789914.44, 45644.97, 0.0, 10.000426, 9.999333 
1.6050248e+3, 2.2473909e+2, -776218.06, -845238.25, -47452.22, -0.0015460873, 0.07075595, -752053.94, -14487.204, 0.0, 10.000108, 9.999187 
1.605023e+3, 2.3473898e+2, -733900.25, -773325.6, -43784.945, -0.0057762424, 0.13703083, -705595.1, -66025.125, 0.0, 9.999722, 9.999195 
1.6050212e+3, 2.4473847e+2, -655330.06, -654063.8, -37277.887, -0.007897888, 0.15484491, -617413.7, -75838.07, 0.0, 9.999456, 9.999468 
1.6050196e+3, 2.547376e+2, -574205.06, -561090.1, -36083.875, -0.0072346646, 0.11388489, -530972.7, -87389.445, 0.0, 9.999329, 9.999495 
1.6050181e+3, 2.64737e+2, -501055.4, -432275.7, -15972.375, -0.009813143, 0.089491405, -428747.5, -83159.9, 0.0, 9.998975, 9.999875 
1.6050169e+3, 2.7473676e+2, -489162.1, -373522.16, -31854.068, -0.017040487, 0.070933014, -365328.25, -117739.7, 0.0, 9.998373, 9.999896 
1.6050158e+3, 2.847365e+2, -451094.94, -318561.7, -33176.508, -0.008661761, 0.065797165, -310720.66, -161130.19, 0.0, 9.998021, 9.999771 
1.605015e+3, 2.9473656e+2, -368378.28, -230685.0, -23838.803, 0.01660703, 0.09064233, -226674.61, -175083.66, 0.0, 9.997928, 9.999746 
1.6050139e+3, 3.0473715e+2, -327260.56, -130984.75, -12695.952, 0.05086732, 0.15398948, -130166.93, -130166.93, 0.0, 9.99764, 10.000236 
1.6050123e+3, 3.1473607e+2, -318239.53, 5585.696, -4432.2114, -0.005233327, 0.010947488, 5646.348, 5646.348, 0.0, 9.99713, 10.001418 
1.6150466e+3, 1.2475021e+2, -1396031.8, -1685912.3, 17196.775, -0.04003473, 0.1261311, -1395015.1, 322445.3, 0.02723079, 10.002805, 9.998853 
1.6150466e+3, 1.3474898e+2, -1279893.4, -1601347.6, -12461.049, 0.16136037, 0.13186322, -1279411.1, 340061.56, 0.017007278, 10.002998, 9.998665 
1.6150421e+3, 1.4474727e+2, -1201730.5, -1499874.9, -24251.102, -0.080771245, 0.090037376, -1199770.8, 321718.72, 0.007996257, 10.00278, 9.998789 
1.6150407e+3, 1.5474665e+2, -1195670.0, -1443734.3, -37647.344, 0.014928886, 0.14340784, -1190082.3, 233413.23, 0.0023553798, 10.00212, 9.998818 
1.6150388e+3, 1.6474575e+2, -1134637.6, -1329558.8, -38055.39, 0.03675159, 0.15690796, -1127471.4, 198032.77, 0.00029283657, 10.001715, 9.999124 
1.6150366e+3, 1.7474455e+2, -1052274.5, -1237187.3, -36325.727, 0.012709387, 0.12123709, -1045394.44, 182120.78, 0.000004294035, 10.001598, 9.999142 
1.6150345e+3, 1.8474352e+2, -989706.56, -1158256.8, -52215.766, 0.011144842, 0.10703923, -974841.5, 154683.47, 0.0, 10.001363, 9.999125 
1.6150321e+3, 1.9474274e+2, -944087.56, -1084911.0, -49391.97, 0.021759922, 0.110498935, -928491.25, 103041.68, 0.0, 10.001, 9.999129 
1.6150297e+3, 2.0474191e+2, -898561.7, -1022818.56, -54523.36, 0.016049432, 0.12123234, -878029.75, 55511.11, 0.0, 10.000685, 9.999037 
1.6150272e+3, 2.1474113e+2, -837251.4, -941178.0, -63758.926, -0.001923441, 0.13397728, -806962.7, 28585.404, 0.0, 10.000427, 9.999048 
1.615025e+3, 2.247402e+2, -769311.0, -831381.1, -61560.547, -0.009814522, 0.12752643, -731405.0, 6152.075, 0.0, 10.000109, 9.999283 
1.6150227e+3, 2.3473917e+2, -726294.56, -757930.2, -57528.56, -0.008031472, 0.091752455, -682448.8, -42881.242, 0.0, 9.999722, 9.999301 
1.6150208e+3, 2.4473862e+2, -650009.7, -643091.9, -41852.098, -0.0065656374, 0.09656573, -604556.0, -62983.063, 0.0, 9.999455, 9.999544 
1.6150188e+3, 2.547387e+2, -569445.8, -550670.44, -39332.035, -0.005701749, 0.14280947, -519621.28, -76049.44, 0.0, 9.999325, 9.999568 
1.615017e+3, 2.6473823e+2, -526360.56, -484876.22, -36918.9, 0.0009414227, 0.1447871, -463271.7, -117695.95, 0.0, 9.998974, 9.999516 
1.6150156e+3, 2.7473718e+2, -513990.53, -427151.0, -52578.13, 0.014157108, 0.08372376, -402381.78, -154796.27, 0.0, 9.99838, 9.999525 
1.615014e+3, 2.8473672e+2, -422415.84, -260201.19, -36005.56, 0.002429283, 0.05483076, -252568.45, -102979.29, 0.0, 9.998025, 10.000171 
1.6150121e+3, 2.9473716e+2, -338139.53, -168409.58, -25736.03, -0.037636593, 0.07569407, -164593.06, -113009.45, 0.0, 9.997929, 10.0001745 
1.6150114e+3, 3.047376e+2, -352186.2, -182515.3, -30287.82, 0.025520744, 0.12200999, -177270.75, -177270.75, 0.0, 9.997639, 9.999882 
1.6150102e+3, 3.1473675e+2, -365290.22, -93504.43, -27430.06, 0.06859845, 0.042294566, -90763.69, -90763.69, 0.0, 9.997136, 10.000735 
1.6250499e+3, 1.2475187e+2, -1337707.8, -1661089.6, 22071.336, -0.017889885, 0.13482356, -1336208.4, 381235.72, 0.028943626, 10.003239, 9.998818 
1.6250493e+3, 1.3475046e+2, -1327334.9, -1622625.3, -21848.906, 0.14832902, 0.1217148, -1325727.0, 293730.63, 0.01813978, 10.002663, 9.998678 
1.6250443e+3, 1.4474866e+2, -1261180.9, -1530292.8, -38822.754, -0.11365154, 0.070974454, -1255692.3, 265783.0, 0.008577549, 10.002377, 9.998773 
1.6250432e+3, 1.5474822e+2, -1151737.0, -1423844.5, -24577.59, 0.023294346, 0.14293303, -1149534.9, 273944.84, 0.0025525978, 10.002431, 9.998804 
1.625041e+3, 1.6474736e+2, -1070613.6, -1312275.0, -13268.5205, 0.056886468, 0.16786075, -1069887.3, 255600.9, 0.00032325884, 10.002215, 9.999001 
1.6250382e+3, 1.7474607e+2, -1046394.4, -1248636.9, -19792.756, 0.010630423, 0.13466078, -1044475.56, 183024.97, 0.000005034694, 10.001702, 9.999012 
1.6250357e+3, 1.8474486e+2, -999451.5, -1175209.4, -43297.082, -0.002385025, 0.1140132, -989364.4, 140147.77, 0.0, 10.00135, 9.999013 
1.625033e+3, 1.9474378e+2, -926644.8, -1088850.5, -52156.42, 0.009080766, 0.10213917, -911321.7, 120200.83, 0.0, 10.001175, 9.999018 
1.6250305e+3, 2.0474291e+2, -869743.9, -1009649.06, -55366.723, 0.010651338, 0.11285888, -850484.1, 83046.76, 0.0, 10.000887, 9.999029 
1.6250277e+3, 2.1474226e+2, -831804.44, -939165.2, -45296.176, 0.0055212956, 0.14155096, -815247.1, 20289.46, 0.0, 10.000468, 9.999042 
1.625025e+3, 2.2474131e+2, -773657.5, -844286.9, -38639.832, -0.00029400844, 0.1355025, -756625.6, -19079.684, 0.0, 10.000125, 9.9991865 
1.6250224e+3, 2.3474e+2, -711589.9, -761496.94, -49898.82, -0.008221174, 0.08318614, -680753.0, -41193.938, 0.0, 9.99987, 9.999205 
1.6250202e+3, 2.447394e+2, -643635.6, -638139.94, -44216.17, -0.0105416635, 0.08527797, -596586.3, -55021.168, 0.0, 9.999494, 9.999558 
1.625018e+3, 2.547396e+2, -617707.2, -572444.1, -47680.2, -0.007705197, 0.14530212, -542297.0, -98734.27, 0.0, 9.998988, 9.99958 
1.625016e+3, 2.6473922e+2, -577488.2, -512810.34, -37830.004, 0.0016230211, 0.15419301, -495380.66, -149814.5, 0.0, 9.998636, 9.999486 
1.6250141e+3, 2.7473813e+2, -507351.06, -426862.9, -28678.549, 0.019202506, 0.09174813, -417689.94, -170113.44, 0.0, 9.99844, 9.999497 
1.6250122e+3, 2.8473765e+2, -414909.0, -257178.98, -10901.869, 0.009230497, 0.06325485, -256429.05, -106848.71, 0.0, 9.998081, 10.000163 
1.62501e+3, 2.9473808e+2, -394059.7, -195511.89, -34194.703, -0.03263825, 0.08636175, -189787.78, -138213.11, 0.0, 9.997547, 10.00017 
1.6250089e+3, 3.0473828e+2, -403550.44, -194183.3, -36460.477, 0.033479244, 0.099572316, -188015.55, -188015.55, 0.0, 9.997229, 10.0 
1.6250074e+3, 3.1473804e+2, -366666.34, -92042.43, -4362.1846, 0.0759245, 0.069204494, -91973.16, -91973.16, 0.0, 9.997115, 10.000756 
1.6350535e+3, 1.2475382e+2, -1367904.0, -1723165.9, -16198.624, 0.012534743, 0.13387133, -1367167.0, 350257.7, 0.030811023, 10.003241, 9.998381 
1.6350518e+3, 1.3475244e+2, -1352242.3, -1677410.5, -42513.207, 0.12745069, 0.16270518, -1346775.9, 272663.9, 0.01937926, 10.002673, 9.998299 
1.6350465e+3, 1.4475049e+2, -1236304.5, -1480394.0, -38100.547, -0.15050708, 0.099284925, -1230495.5, 290963.3, 0.009218335, 10.002385, 9.999114 
1.6350457e+3, 1.5474981e+2, -1125974.0, -1371426.1, -22150.355, 0.0447669, 0.113621555, -1123991.1, 299471.94, 0.0027736868, 10.002434, 9.999164 
1.6350436e+3, 1.6474894e+2, -1085343.3, -1342911.1, -32460.063, 0.091346644, 0.12786476, -1081315.5, 244155.53, 0.00035863268, 10.002215, 9.998791 
1.6350399e+3, 1.7474781e+2, -1062174.6, -1282568.4, -38769.277, 0.0041780975, 0.13379136, -1055553.6, 171929.39, 0.000005927034, 10.001707, 9.998777 
1.6350366e+3, 1.8474658e+2, -1017173.3, -1212860.0, -50140.918, -0.032943975, 0.13568446, -1005073.8, 124422.02, 0.0, 10.001353, 9.998754 
1.635034e+3, 1.947453e+2, -944406.1, -1126363.0, -57933.75, -0.022541955, 0.12761879, -927526.3, 103982.65, 0.0, 10.001177, 9.99876 
1.6350313e+3, 2.0474419e+2, -852423.56, -974034.8, -70678.91, -0.004237144, 0.116988465, -819993.9, 113525.14, 0.0, 10.000888, 9.999274 
1.6350284e+3, 2.1474332e+2, -814259.8, -902802.94, -60576.84, 0.025614481, 0.09677372, -783501.25, 52023.855, 0.0, 10.000467, 9.999292 
1.6350254e+3, 2.247424e+2, -793085.94, -884533.0, -48424.73, 0.0257903, 0.09658977, -772209.2, -34675.566, 0.0, 10.000124, 9.998911 
1.6350223e+3, 2.3474148e+2, -732173.4, -804250.9, -58402.773, -0.0081282435, 0.110776976, -699585.06, -60040.41, 0.0, 9.999869, 9.998912 
1.6350195e+3, 2.4474077e+2, -648072.56, -647498.56, -62096.3, -0.022411983, 0.12072015, -585688.6, -44136.125, 0.0, 9.999493, 9.9994955 
1.6350168e+3, 2.5474033e+2, -621196.94, -580876.0, -65030.914, -0.014687581, 0.12162038, -532952.25, -89396.03, 0.0, 9.998991, 9.999521 
1.6350146e+3, 2.6473993e+2, -556201.8, -469514.28, -44354.46, -0.008620104, 0.11768219, -450841.94, -105282.66, 0.0, 9.998639, 9.999783 
1.6350122e+3, 2.7473953e+2, -486078.8, -382954.16, -34488.848, -0.0040711896, 0.094614424, -372482.97, -124920.98, 0.0, 9.99844, 9.9998 
1.6350101e+3, 2.8473926e+2, -444545.72, -318831.16, -29573.844, 0.008473662, 0.091093555, -312221.53, -162656.92, 0.0, 9.99808, 9.999741 
1.6350082e+3, 2.9473934e+2, -423669.5, -259265.95, -52168.023, 0.026823163, 0.123265475, -244109.45, -192544.73, 0.0, 9.997556, 9.999728 
1.6350065e+3, 3.0473912e+2, -361584.97, -108124.57, -40334.945, 0.07135684, 0.087605, -101860.59, -101860.59, 0.0, 9.997232, 10.000589 
1.635004e+3, 3.147398e+2, -313774.16, 17788.457, -14767.283, 0.018355608, 0.09179019, 18444.87, 18444.87, 0.0, 9.997115, 10.001511 
1.6450563e+3, 1.2475602e+2, -1419725.3, -1759093.1, -15639.637, -0.0069129914, 0.12273587, -1419006.1, 298396.44, 0.032841798, 10.002923, 9.998286 
1.6450548e+3, 1.3475484e+2, -1306615.5, -1655218.9, 2926.0613, 0.15206666, 0.17120737, -1306590.9, 312825.1, 0.020730624, 10.002999, 9.998292 
1.6450492e+3, 1.4475283e+2, -1174091.0, -1457338.1, 10119.054, -0.12931913, 0.105080895, -1173729.9, 347705.63, 0.0099211065, 10.00285, 9.999049 
1.6450481e+3, 1.5475184e+2, -1127377.8, -1379905.6, -5796.798, 0.030309137, 0.09379552, -1127244.8, 296197.9, 0.0030197303, 10.002459, 9.999093 
1.6450456e+3, 1.647508e+2, -1099002.4, -1358819.1, -34100.043, 0.06783169, 0.1007252, -1094601.5, 230850.55, 0.00039977487, 10.002161, 9.998707 
1.6450416e+3, 1.7474973e+2, -1030306.06, -1276586.0, -30377.135, 0.0016832469, 0.120339446, -1026614.56, 200849.28, 0.0000070009137, 10.001966, 9.9986925 
1.6450383e+3, 1.8474855e+2, -974225.94, -1195783.5, -25706.924, -0.02560848, 0.13407321, -971282.3, 158193.83, 0.0, 10.001665, 9.99872 
1.6450351e+3, 1.9474733e+2, -937527.06, -1126841.8, -17527.416, -0.01978507, 0.13493754, -935918.0, 95570.59, 0.0, 10.001242, 9.998725 
1.6450322e+3, 2.0474605e+2, -858490.25, -991147.8, -35763.457, -0.00670096, 0.116007894, -849463.0, 84037.18, 0.0, 10.000908, 9.999146 
1.6450289e+3, 2.1474476e+2, -792927.8, -907266.44, -55160.145, 0.017614508, 0.06900226, -770655.5, 64854.824, 0.0, 10.000679, 9.99916 
1.6450256e+3, 2.2474386e+2, -765431.6, -866718.75, -48581.05, 0.02047065, 0.07203304, -745897.6, -8378.537, 0.0, 10.000296, 9.99895 
1.6450222e+3, 2.3474334e+2, -747448.75, -807117.5, -35414.36, -0.0021193526, 0.12324984, -730976.9, -91451.06, 0.0, 9.999745, 9.998951 
1.645019e+3, 2.447426e+2, -679843.4, -675308.56, -27357.45, -0.013994685, 0.13463078, -650124.7, -108590.89, 0.0, 9.999328, 9.999384 
1.6450159e+3, 2.5474164e+2, -620992.3, -593572.5, -35292.535, -0.013925414, 0.09641865, -569420.5, -125877.86, 0.0, 9.999048, 9.999406 
1.6450131e+3, 2.6474118e+2, -549218.25, -457719.03, -23592.49, -0.009725907, 0.08709226, -451994.06, -106447.42, 0.0, 9.998652, 9.999856 
1.6450106e+3, 2.7474117e+2, -525055.5, -393465.94, -31860.35, -0.00028308167, 0.097534925, -386157.8, -138612.25, 0.0, 9.998137, 9.999871 
1.6450082e+3, 2.847411e+2, -496678.34, -342321.7, -22181.236, 0.01718895, 0.10690082, -339197.44, -189650.75, 0.0, 9.997715, 9.999754 
1.6450058e+3, 2.947411e+2, -452223.97, -271199.75, -11941.404, 0.041516688, 0.12740532, -270415.4, -218867.34, 0.0, 9.997353, 9.999743 
1.6450036e+3, 3.0474067e+2, -392623.0, -113152.72, 7825.9717, 0.07028702, 0.069386125, -112933.74, -112933.74, 0.0, 9.996978, 10.000675 
1.6450009e+3, 3.1474182e+2, -357197.97, 38727.24, -15227.274, 0.015843358, 0.11036545, 39312.016, 39312.016, 0.0, 9.996637, 10.0018835 
1.6550586e+3, 1.2475846e+2, -1403374.6, -1723043.5, -34191.61, -0.07195623, 0.09646671, -1399758.4, 317619.66, 0.035036184, 10.002925, 9.998534 
1.6550586e+3, 1.3475767e+2, -1281718.0, -1603860.0, 6292.892, 0.22136046, 0.14991699, -1281595.1, 337790.66, 0.022193609, 10.003007, 9.998645 
1.6550528e+3, 1.4475566e+2, -1206173.5, -1524213.8, -4720.769, -0.053153384, 0.08920385, -1206103.5, 315301.7, 0.010686469, 10.002852, 9.998586 
1.6550499e+3, 1.5475422e+2, -1161060.3, -1451562.4, -20072.723, -0.022943141, 0.08163582, -1159679.9, 263738.7, 0.0032910502, 10.002465, 9.998598 
1.655047e+3, 1.6475292e+2, -1095356.9, -1352524.5, -41576.258, -0.015775204, 0.0849285, -1088802.3, 236629.06, 0.00044696988, 10.002166, 9.998749 
1.6550437e+3, 1.747518e+2, -1025765.9, -1267886.4, -36959.816, 0.002391531, 0.09476769, -1020249.6, 207193.4, 0.000008273259, 10.001968, 9.998753 
1.6550404e+3, 1.8475077e+2, -961312.3, -1169270.9, -41423.016, 0.01732048, 0.109814934, -953365.0, 176088.25, 0.0, 10.001665, 9.998902 
1.6550368e+3, 1.9474986e+2, -924796.94, -1100904.6, -33118.152, 0.015932547, 0.12484124, -918774.8, 112686.72, 0.0, 10.001243, 9.998903 
1.6550331e+3, 2.047485e+2, -892637.4, -1062667.6, -44603.824, 0.0020254278, 0.11081877, -881646.94, 51827.723, 0.0, 10.00091, 9.998654 
1.6550292e+3, 2.1474662e+2, -828653.1, -981674.8, -62929.91, -0.020406904, 0.057199232, -806097.94, 29394.703, 0.0, 10.000679, 9.99865 
1.6550255e+3, 2.2474562e+2, -741515.9, -817325.6, -68725.23, -0.018688599, 0.060850825, -700935.5, 36567.05, 0.0, 10.000296, 9.9992895 
1.655022e+3, 2.3474556e+2, -722059.44, -754883.56, -55044.254, 0.00860763, 0.12083794, -681032.6, -41529.637, 0.0, 9.999745, 9.9993105 
1.6550186e+3, 2.4474487e+2, -690968.25, -698420.4, -37293.21, 0.013443563, 0.12738128, -657215.44, -115705.84, 0.0, 9.999328, 9.999226 
1.655015e+3, 2.5474355e+2, -633022.7, -618894.4, -44244.113, -0.0070975693, 0.06950955, -581154.0, -137631.55, 0.0, 9.999049, 9.999232 
1.6550118e+3, 2.6474294e+2, -559899.6, -480757.9, -41579.71, -0.003621465, 0.063071564, -462929.06, -117400.44, 0.0, 9.998654, 9.999698 
1.6550091e+3, 2.7474308e+2, -535255.6, -416743.38, -48949.625, 0.02684593, 0.10211902, -399140.2, -151612.7, 0.0, 9.998144, 9.999709 
1.655006e+3, 2.847431e+2, -464847.28, -277440.34, -34814.008, 0.032850634, 0.11067922, -271182.06, -121654.89, 0.0, 9.99772, 10.000198 
1.6550028e+3, 2.9474324e+2, -419253.1, -202830.25, -24467.912, 0.009789095, 0.0962706, -200098.5, -148572.9, 0.0, 9.997352, 10.000214 
1.6550002e+3, 3.047429e+2, -422491.2, -174503.47, -4062.6523, 0.028254932, 0.043008577, -174436.94, -174436.94, 0.0, 9.996974, 10.000257 
1.6549979e+3, 3.14744e+2, -358073.5, 36238.91, -31348.055, 0.06385258, 0.12048424, 38715.543, 38715.543, 0.0, 9.99664, 10.001864 
1.6650614e+3, 1.2476115e+2, -1455159.3, -1741106.3, -40103.16, -0.06284975, 0.092473544, -1449641.4, 267709.84, 0.03738901, 10.00253, 9.9986 
1.6650616e+3, 1.3476029e+2, -1253170.4, -1570468.1, 7688.9043, 0.20815413, 0.12098859, -1252984.1, 366374.94, 0.02376597, 10.003127, 9.99882 
1.6650556e+3, 1.4475839e+2, -1170543.9, -1524141.6, -28047.24, -0.07060155, 0.07030742, -1168333.0, 353044.38, 0.011515061, 10.003176, 9.99843 
1.6650523e+3, 1.5475711e+2, -1150054.9, -1464356.9, -20266.986, -0.03324145, 0.09454072, -1148753.4, 274636.94, 0.0035885083, 10.002621, 9.998435 
1.6650489e+3, 1.6475578e+2, -1084505.0, -1344601.1, -19334.725, -0.021567384, 0.1032119, -1083075.6, 242327.84, 0.00050038745, 10.002229, 9.998773 
1.6650456e+3, 1.7475447e+2, -1016351.6, -1260405.5, -17523.365, -0.0020073666, 0.09003603, -1015099.8, 212316.66, 0.0000097975735, 10.00202, 9.998778 
1.665042e+3, 1.8475331e+2, -952708.9, -1170591.3, -37765.05, 0.014273467, 0.09462975, -946348.75, 183078.81, 0.0, 10.001748, 9.998854 
1.665038e+3, 1.9475238e+2, -904299.0, -1096637.1, -47461.77, 0.013916701, 0.1123325, -893224.9, 138211.31, 0.0, 10.001409, 9.998852 
1.665034e+3, 2.0475106e+2, -881601.56, -1062210.5, -50038.516, -0.0004974719, 0.107790574, -868664.8, 64784.21, 0.0, 10.001007, 9.9986105 
1.6650298e+3, 2.1474932e+2, -852905.7, -998339.3, -34640.797, -0.02565085, 0.07124102, -845076.1, -9609.967, 0.0, 10.000534, 9.998605 
1.6650258e+3, 2.2474825e+2, -762470.4, -829523.06, -37262.473, -0.023728905, 0.07246308, -745871.8, -8395.178, 0.0, 10.000161, 9.999271 
1.6650218e+3, 2.3474795e+2, -701538.9, -746970.2, -52883.688, 0.0067075593, 0.10873452, -666698.6, -27219.3, 0.0, 9.999896, 9.999292 
1.665018e+3, 2.447472e+2, -668930.8, -686752.25, -44208.81, 0.01997183, 0.11032266, -632743.6, -91257.4, 0.0, 9.999475, 9.999235 
1.6650143e+3, 2.5474608e+2, -656290.25, -629446.5, -38892.93, 0.013869545, 0.06935617, -601724.6, -158227.38, 0.0, 9.998887, 9.999238 
1.6650106e+3, 2.647455e+2, -595967.5, -504509.44, -24693.56, 0.014674575, 0.071176745, -498268.13, -152765.0, 0.0, 9.998434, 9.99964 
1.665007e+3, 2.7474555e+2, -544106.5, -428345.03, -25140.01, 0.024400484, 0.106883265, -423121.1, -175617.48, 0.0, 9.998116, 9.999643 
1.6650036e+3, 2.8474548e+2, -462951.25, -263004.9, -20627.139, 0.02603647, 0.10496947, -260899.13, -111394.97, 0.0, 9.997675, 10.000318 
1.6650002e+3, 2.9474556e+2, -446274.56, -200721.52, -38084.477, 0.015853422, 0.07435941, -194950.38, -143448.08, 0.0, 9.997103, 10.000347 
1.6649969e+3, 3.0474564e+2, -474882.0, -213661.13, -11956.104, 0.01263297, 0.058688585, -213115.03, -213115.03, 0.0, 9.9966755, 10.000131 
1.6649945e+3, 3.1474647e+2, -381887.66, 37373.715, -18864.148, 0.0678399, 0.12461501, 38220.773, 38220.773, 0.0, 9.996425, 10.001976 
1.6750649e+3, 1.24764025e+2, -1461797.3, -1755842.0, -40753.664, 0.018836481, 0.10478737, -1456253.4, 261069.4, 0.039892897, 10.002537, 9.998496 
1.6750637e+3, 1.3476266e+2, -1252734.9, -1570413.0, 29976.0, 0.1108994, 0.08322274, -1249931.1, 369404.75, 0.025446536, 10.003135, 9.998818 
1.6750576e+3, 1.4476098e+2, -1160136.8, -1502245.8, -47869.867, -0.18245909, 0.04733287, -1153564.8, 367787.56, 0.012409162, 10.003177, 9.998582 
1.6750553e+3, 1.5476048e+2, -1138270.9, -1440786.5, -40275.56, -0.0014060392, 0.13257842, -1133000.6, 290357.16, 0.003914194, 10.0026245, 9.998596 
1.6750519e+3, 1.6475937e+2, -1083854.1, -1344072.5, -27688.607, 0.047323056, 0.15529782, -1080940.6, 244427.92, 0.0005604397, 10.002232, 9.998775 
1.6750474e+3, 1.7475769e+2, -1016598.5, -1261646.9, -25143.777, -0.013885873, 0.10569478, -1014045.1, 213339.39, 0.000011659806, 10.002023, 9.998769 
1.6750434e+3, 1.8475617e+2, -971577.8, -1210224.1, -50461.965, -0.0360798, 0.087878145, -961346.25, 168053.1, 0.0, 10.001749, 9.998582 
1.6750391e+3, 1.9475488e+2, -923754.0, -1137436.1, -59450.29, -0.026698232, 0.09701732, -908327.5, 123085.055, 0.0, 10.001409, 9.998572 
1.6750349e+3, 2.0475374e+2, -853918.0, -1005001.44, -67626.67, -0.016073126, 0.106878184, -828069.75, 105353.64, 0.0, 10.001008, 9.999003 
1.6750306e+3, 2.1475284e+2, -824672.25, -939639.2, -51749.168, 0.0005631635, 0.11138636, -804810.25, 30620.861, 0.0, 10.000533, 9.999008 
1.6750261e+3, 2.2475174e+2, -788566.56, -883570.2, -47111.223, 0.0041193864, 0.10753237, -769166.3, -31724.59, 0.0, 10.000159, 9.9989 
1.6750216e+3, 2.3475046e+2, -728899.4, -804301.0, -61662.938, -0.008937435, 0.08650021, -694325.25, -54870.086, 0.0, 9.999897, 9.9988985 
1.6750173e+3, 2.4474956e+2, -656855.4, -662272.4, -65361.324, 0.0041133165, 0.08327466, -594146.44, -52682.31, 0.0, 9.9994755, 9.999403 
1.6750135e+3, 2.5474915e+2, -643442.8, -603543.0, -59246.96, 0.045943752, 0.09622478, -560977.3, -117509.914, 0.0, 9.998888, 9.999416 
1.6750093e+3, 2.647488e+2, -593207.4, -499258.97, -35545.156, 0.042937387, 0.11043727, -487326.16, -141855.48, 0.0, 9.998435, 9.999677 
1.6750048e+3, 2.7474853e+2, -541424.44, -423276.2, -35241.57, -0.008205673, 0.110599235, -413562.8, -166088.28, 0.0, 9.9981165, 9.999679 
1.6750011e+3, 2.847482e+2, -477809.28, -294668.4, -40702.59, -0.0042818896, 0.0899449, -286029.84, -136551.72, 0.0, 9.997677, 10.0001 
1.6749977e+3, 2.947481e+2, -460209.94, -231092.77, -57688.14, 0.0545354, 0.066473626, -217387.6, -165909.3, 0.0, 9.9971075, 10.000137 
1.6749935e+3, 3.0474883e+2, -462848.94, -189763.9, -20875.502, 0.019263845, 0.118136, -188177.33, -188177.33, 0.0, 9.996679, 10.000294 
1.6749907e+3, 3.1474918e+2, -367543.3, 67113.37, -22031.69, 0.02565806, 0.12107561, 68227.25, 68227.25, 0.0, 9.996425, 10.00218 
1.6850679e+3, 1.2476702e+2, -1321055.5, -1703512.6, -47159.434, 0.016097529, 0.10605597, -1315326.4, 401967.7, 0.042540483, 10.003632, 9.99833 
1.6850662e+3, 1.3476579e+2, -1290742.9, -1599222.8, 36460.9, 0.079549335, 0.10777461, -1286492.0, 332814.5, 0.027235117, 10.002918, 9.99872 
1.6850604e+3, 1.4476427e+2, -1230650.5, -1520525.8, -49267.7, -0.19390835, 0.08430935, -1222505.6, 298815.75, 0.013372134, 10.002619, 9.998725 
1.6850582e+3, 1.547635e+2, -1102735.6, -1407080.9, -43735.77, 0.014490616, 0.12974052, -1096575.3, 326753.0, 0.0042713434, 10.002799, 9.998744 
1.6850545e+3, 1.6476232e+2, -1037298.4, -1334962.6, -43767.85, 0.06511926, 0.14197795, -1030996.25, 294343.3, 0.0006280315, 10.002609, 9.998656 
1.6850494e+3, 1.747607e+2, -1028024.56, -1281115.8, -50396.97, -0.021038853, 0.11249507, -1018358.4, 208996.95, 0.00001399049, 10.002005, 9.998644 
1.6850446e+3, 1.8475921e+2, -991806.44, -1211581.0, -62812.3, -0.057246886, 0.100389265, -975121.2, 154248.86, 0.0, 10.001574, 9.998657 
1.6850403e+3, 1.9475792e+2, -929435.4, -1131653.9, -45849.13, -0.051529292, 0.10085793, -919525.6, 111857.52, 0.0, 10.001332, 9.99865 
1.6850357e+3, 2.047568e+2, -847169.44, -994673.25, -57162.367, -0.033261072, 0.10537736, -827610.7, 105782.945, 0.0, 10.001023, 9.999066 
1.685031e+3, 2.1475594e+2, -804006.06, -922119.75, -67754.03, 0.0037961532, 0.10854747, -773183.44, 62217.164, 0.0, 10.000643, 9.999075 
1.6850264e+3, 2.2475488e+2, -787437.25, -886033.7, -62669.348, 0.0151196085, 0.106966004, -756999.9, -19589.06, 0.0, 10.000181, 9.998873 
1.6850215e+3, 2.3475364e+2, -770338.0, -827996.94, -51029.02, -0.0041600354, 0.09223045, -740557.75, -101133.4, 0.0, 9.99963, 9.998864 
1.6850168e+3, 2.4475275e+2, -684376.4, -664368.44, -43130.62, 0.0039854567, 0.08797015, -630096.8, -88663.734, 0.0, 9.99924, 9.999502 
1.6850123e+3, 2.5475234e+2, -617294.56, -579805.2, -44195.51, 0.042721715, 0.09166026, -550543.56, -107107.87, 0.0, 9.999021, 9.999516 
1.6850077e+3, 2.647521e+2, -579564.7, -493949.38, -30200.059, 0.04103174, 0.10706582, -484368.7, -138930.25, 0.0, 9.998535, 9.999664 
1.6850029e+3, 2.747519e+2, -594180.2, -450384.34, -34503.516, -0.0038694323, 0.12026114, -442533.88, -195092.05, 0.0, 9.997763, 9.999661 
1.6849987e+3, 2.8475156e+2, -522579.66, -326845.5, -25444.928, 0.006282045, 0.10387072, -323591.8, -174145.9, 0.0, 9.9974165, 10.000005 
1.6849951e+3, 2.9475132e+2, -407551.63, -215079.9, -34411.766, 0.07248443, 0.07340075, -209112.48, -157664.56, 0.0, 9.997509, 10.000054 
1.6849902e+3, 3.047524e+2, -416327.4, -150260.11, -11608.96, 0.008854646, 0.15835655, -149754.55, -149754.55, 0.0, 9.996925, 10.000446 
1.6849865e+3, 3.1475207e+2, -490630.97, -7245.259, -6745.4614, 0.02735246, 0.08180368, -7151.147, -7151.147, 0.0, 9.995642, 10.0020485 
1.6950706e+3, 1.2477005e+2, -1338981.0, -1738603.4, -93333.55, -0.06846366, 0.08932081, -1318257.3, 399008.3, 0.045329686, 10.003625, 9.998095 
1.6950695e+3, 1.3476963e+2, -1302632.3, -1625365.8, 11114.051, 0.1117988, 0.19193374, -1302249.9, 317021.44, 0.029132646, 10.002929, 9.998533 
1.695064e+3, 1.4476818e+2, -1221280.1, -1502804.4, -43836.727, -0.11013967, 0.17813948, -1214612.1, 306673.22, 0.0144071635, 10.002628, 9.998844 
1.695061e+3, 1.5476617e+2, -1093347.0, -1388817.5, -36585.21, 0.011061215, 0.08729062, -1088884.5, 334417.5, 0.004663711, 10.002804, 9.998867 
1.6950567e+3, 1.6476458e+2, -1052944.0, -1368096.5, -65768.67, 0.030286822, 0.06522197, -1039769.56, 285547.06, 0.0007046785, 10.00261, 9.998429 
1.6950513e+3, 1.7476349e+2, -1043846.2, -1315127.0, -72328.98, -0.024004202, 0.11005355, -1025766.7, 201562.36, 0.000016975888, 10.002008, 9.99841 
1.6950464e+3, 1.8476242e+2, -962867.7, -1151973.3, -71918.89, -0.05129361, 0.13197471, -938624.2, 190715.56, 0.0, 10.0015745, 9.999066 
1.6950415e+3, 1.9476146e+2, -899908.1, -1070237.3, -54328.78, -0.062246285, 0.124131374, -884054.8, 147293.22, 0.0, 10.001331, 9.999072 
1.6950364e+3, 2.0476018e+2, -865736.2, -1032929.2, -71265.22, -0.05308216, 0.103709295, -839482.3, 93877.46, 0.0, 10.001021, 9.998806 
1.6950317e+3, 2.147586e+2, -823471.56, -962531.75, -81251.13, -0.017067095, 0.062492955, -786061.56, 49313.293, 0.0, 10.000643, 9.998798 
1.6950265e+3, 2.2475766e+2, -765592.3, -840654.6, -82969.766, 0.007748685, 0.07078283, -712059.9, 25324.396, 0.0, 10.00018, 9.999186 
1.6950214e+3, 2.3475744e+2, -747979.1, -781607.0, -70425.27, 0.019103605, 0.12570421, -692388.44, -53001.246, 0.0, 9.999629, 9.999184 
1.6950162e+3, 2.4475674e+2, -683286.4, -661663.4, -50570.61, 0.018152138, 0.12413646, -620761.5, -79368.05, 0.0, 9.999237, 9.999522 
1.695011e+3, 2.5475562e+2, -616150.9, -577878.4, -50740.555, 0.0038868254, 0.056282602, -542785.5, -99382.945, 0.0, 9.999022, 9.999529 
1.695006e+3, 2.6475525e+2, -583627.75, -503217.66, -57670.234, 0.008304562, 0.061872233, -473121.2, -127714.38, 0.0, 9.998537, 9.9996 
1.695001e+3, 2.7475566e+2, -598439.7, -460607.3, -61427.457, 0.03323652, 0.13713634, -437204.66, -189798.73, 0.0, 9.997767, 9.99959 
1.6949967e+3, 2.8475553e+2, -520821.22, -324417.84, -21498.383, 0.05425513, 0.14700961, -322092.2, -172683.98, 0.0, 9.99742, 10.00002 
1.6949925e+3, 2.9475507e+2, -404959.72, -209182.78, -29200.025, 0.068751834, 0.095012516, -204920.42, -153508.64, 0.0, 9.997505, 10.000097 
1.694987e+3, 3.0475622e+2, -406191.88, -129694.055, -58013.105, -0.020397576, 0.17534672, -118015.375, -118015.375, 0.0, 9.996926, 10.000588 
1.6949826e+3, 3.1475538e+2, -520132.63, -70957.25, -37345.195, 0.06298628, 0.03578518, -67873.48, -67873.48, 0.0, 9.995652, 10.001605 
1.7050736e+3, 1.2477376e+2, -1456172.5, -1794343.8, -89721.195, -0.08622032, 0.115721054, -1433842.8, 283387.38, 0.048263267, 10.002777, 9.99812 
1.705073e+3, 1.3477305e+2, -1197753.5, -1570496.5, 48168.023, 0.12146725, 0.18310595, -1191629.6, 427608.66, 0.03114109, 10.003661, 9.998567 
1.7050675e+3, 1.4477159e+2, -1078863.3, -1454016.8, -24336.508, -0.07549587, 0.17882474, -1077291.1, 443960.88, 0.015516711, 10.003713, 9.998662 
1.7050636e+3, 1.5476945e+2, -1100474.8, -1413445.5, -40643.12, -0.012447521, 0.09349677, -1095282.9, 327988.0, 0.0050944346, 10.002848, 9.998677 
1.7050588e+3, 1.6476786e+2, -1081291.1, -1360160.9, -66597.13, -0.011111335, 0.07013818, -1066203.4, 259082.3, 0.0007920333, 10.002321, 9.998623 
1.7050533e+3, 1.747669e+2, -1004277.8, -1273767.6, -41969.35, -0.039257694, 0.10795479, -997892.94, 229402.7, 0.000020835878, 10.002183, 9.9986105 
1.7050481e+3, 1.8476592e+2, -931259.56, -1138282.9, -43055.723, -0.046763502, 0.12888744, -922662.06, 206643.19, 0.0, 10.001799, 9.999053 
1.7050429e+3, 1.9476497e+2, -928910.94, -1086011.4, -58882.227, -0.045508713, 0.12553948, -909291.6, 122022.36, 0.0, 10.001142, 9.999055 
1.7050375e+3, 2.0476377e+2, -916276.6, -1046361.4, -76010.914, -0.04055444, 0.108464554, -881278.2, 52047.074, 0.0, 10.000628, 9.998902 
1.705032e+3, 2.1476232e+2, -871045.44, -974938.06, -58725.9, -0.027583824, 0.07024087, -844588.0, -9249.267, 0.0, 10.000271, 9.998892 
1.7050263e+3, 2.247614e+2, -790922.06, -841831.44, -55219.926, -0.009390509, 0.07240438, -755572.3, -18224.822, 0.0, 9.99996, 9.999283 
1.7050208e+3, 2.3476112e+2, -730654.1, -762262.7, -61255.566, 0.013608004, 0.11200599, -683196.9, -43846.23, 0.0, 9.999702, 9.99928 
1.7050155e+3, 2.4476051e+2, -667826.56, -645547.56, -46983.973, 0.015917022, 0.10862574, -608400.6, -67044.555, 0.0, 9.999307, 9.9995985 
1.7050098e+3, 2.5475958e+2, -649836.7, -585445.44, -42939.074, -0.004397578, 0.051638268, -563972.44, -120609.04, 0.0, 9.998755, 9.999603 
1.7050043e+3, 2.6475927e+2, -616027.4, -518619.25, -50728.75, 0.002246675, 0.06296765, -496999.13, -151632.19, 0.0, 9.998316, 9.9996 
1.7049989e+3, 2.747597e+2, -566735.6, -445833.84, -51018.78, 0.039130818, 0.14099376, -427182.1, -179815.94, 0.0, 9.997989, 9.999585 
1.7049941e+3, 2.8475964e+2, -514379.13, -307000.8, 2690.8882, 0.066251524, 0.15119486, -306965.9, -157598.14, 0.0, 9.997404, 10.000147 
1.7049897e+3, 2.9475918e+2, -532659.44, -254952.19, 2878.9573, 0.0811783, 0.08648678, -254922.34, -203551.53, 0.0, 9.996563, 10.0002365 
1.7049836e+3, 3.047603e+2, -483679.4, -137938.28, -23448.34, -0.018440405, 0.14445543, -136355.27, -136355.27, 0.0, 9.996271, 10.000847 
1.7049788e+3, 3.147601e+2, -412319.34, -50786.242, 24762.25, 0.0722479, 0.041790348, -49098.1, -49098.1, 0.0, 9.9965315, 10.00132 
1.7150769e+3, 1.2477807e+2, -1437275.9, -1754750.5, -74646.14, -0.041441992, 0.17611095, -1420600.6, 296588.3, 0.051339995, 10.0027895, 9.998386 
1.7150766e+3, 1.3477603e+2, -1181439.3, -1536315.5, 80763.06, 0.10584492, 0.08639818, -1163923.6, 455283.44, 0.033260748, 10.003666, 9.998809 
1.715071e+3, 1.4477457e+2, -1112427.9, -1522318.4, -55215.543, -0.092048, 0.09177274, -1105120.3, 416101.06, 0.016702162, 10.00371, 9.998188 
1.715066e+3, 1.5477332e+2, -1134552.9, -1485212.1, -72279.766, -0.056400895, 0.14525329, -1120238.5, 302996.84, 0.0055656503, 10.002851, 9.998183 
1.7150606e+3, 1.6477208e+2, -1038804.3, -1273062.0, -72234.555, -0.060490623, 0.15332018, -1018321.4, 306925.53, 0.00089159166, 10.002326, 9.99922 
1.7150553e+3, 1.7477089e+2, -960305.3, -1183201.1, -46571.74, -0.06871045, 0.10689869, -950966.0, 276289.38, 0.000025809924, 10.002185, 9.999231 
1.7150499e+3, 1.8476968e+2, -961407.44, -1200986.0, -67363.67, -0.046039168, 0.09241759, -943765.5, 185501.3, 0.0, 10.001798, 9.998623 
1.7150444e+3, 1.9476843e+2, -960463.7, -1152129.9, -82899.336, -0.0026860344, 0.10461779, -929583.44, 101697.94, 0.0, 10.0011425, 9.998601 
1.7150386e+3, 2.0476753e+2, -884698.8, -981035.56, -89206.24, 0.0024281065, 0.11938858, -831487.0, 101803.266, 0.0, 10.000629, 9.999351 
1.7150322e+3, 2.1476704e+2, -838805.4, -907805.75, -71119.99, -0.029546434, 0.13129692, -794259.25, 41033.176, 0.0, 10.000269, 9.999354 
1.715026e+3, 2.2476608e+2, -800423.9, -860998.06, -64556.734, -0.037603814, 0.11157402, -759402.6, -22101.916, 0.0, 9.999957, 9.999153 
1.7150202e+3, 2.3476467e+2, -740389.7, -782744.44, -69808.695, -0.02110113, 0.05138206, -688616.9, -49301.82, 0.0, 9.999702, 9.99914 
1.7150146e+3, 2.4476397e+2, -658340.7, -625565.06, -66528.08, -0.0040028715, 0.04130884, -573436.1, -32114.707, 0.0, 9.999305, 9.999737 
1.7150088e+3, 2.5476414e+2, -640054.56, -565417.3, -61817.953, 0.014427134, 0.07806267, -530526.94, -87208.234, 0.0, 9.998755, 9.999742 
1.7150028e+3, 2.6476413e+2, -611911.2, -511050.28, -62100.66, 0.02061355, 0.10994399, -481482.47, -136163.06, 0.0, 9.998319, 9.999652 
1.7149967e+3, 2.7476403e+2, -562921.0, -438260.88, -62010.605, 0.012915343, 0.13204232, -412668.53, -165345.34, 0.0, 9.997989, 9.999638 
1.7149913e+3, 2.8476384e+2, -497896.44, -272217.4, -27709.783, 0.04044495, 0.11671696, -268864.9, -119539.6, 0.0, 9.997402, 10.000387 
1.7149866e+3, 2.9476365e+2, -515755.66, -220683.31, -25782.775, 0.10575368, 0.05040116, -218447.4, -167121.92, 0.0, 9.996566, 10.00047 
1.7149802e+3, 3.0476466e+2, -458628.5, -88494.29, -14033.449, 0.010919377, 0.06567214, -87962.984, -87962.984, 0.0, 9.99628, 10.0011835 
1.7149751e+3, 3.147662e+2, -416570.63, -61721.617, 60754.844, 0.04527877, 0.1084127, -51607.84, -51607.84, 0.0, 9.996539, 10.001243 
1.7250806e+3, 1.24782205e+2, -1239659.8, -1658725.3, -53897.355, -0.020467931, 0.17015927, -1232838.9, 484309.6, 0.05455577, 10.004244, 9.998361 
1.7250796e+3, 1.3477999e+2, -1232340.1, -1571919.4, 89262.7, 0.06459888, 0.07265543, -1210306.1, 408862.16, 0.035489924, 10.003362, 9.998704 
1.725074e+3, 1.447787e+2, -1223469.4, -1566868.4, -52967.43, -0.10656221, 0.09758716, -1215485.1, 305695.66, 0.017963212, 10.002894, 9.998276 
1.7250688e+3, 1.547776e+2, -1115669.1, -1466061.9, -28269.41, -0.054785345, 0.1572355, -1113403.0, 309790.63, 0.006078312, 10.00294, 9.998271 
1.7250632e+3, 1.6477643e+2, -992647.3, -1247999.5, -26943.824, -0.05096814, 0.16595866, -989835.25, 335369.47, 0.0010047217, 10.002632, 9.999245 
1.7250574e+3, 1.7477518e+2, -997079.3, -1198610.0, -46129.715, -0.059160404, 0.11219023, -987022.25, 240191.34, 0.000032150663, 10.001924, 9.999251 
1.7250516e+3, 1.8477394e+2, -1010498.1, -1219996.1, -72731.125, -0.042426415, 0.09361661, -987723.9, 141501.19, 0.0, 10.001441, 9.998664 
1.7250456e+3, 1.9477278e+2, -947574.1, -1141855.1, -52602.727, -0.012996729, 0.107964285, -934245.94, 96993.016, 0.0, 10.001213, 9.998638 
1.7250392e+3, 2.0477194e+2, -835785.2, -944190.25, -49540.332, -0.009056832, 0.12220833, -816556.4, 116690.555, 0.0, 10.000908, 9.99947 
1.7250326e+3, 2.1477152e+2, -794182.5, -872706.9, -58336.477, -0.027989168, 0.1294916, -763126.4, 72121.61, 0.0, 10.000519, 9.999475 
1.725026e+3, 2.2477059e+2, -787237.06, -859662.06, -61914.305, -0.037357993, 0.10695088, -751722.8, -14466.763, 0.0, 10.000071, 9.999107 
1.7250198e+3, 2.3476912e+2, -766211.44, -800371.06, -60828.36, -0.0385227, 0.047113653, -720110.5, -80839.39, 0.0, 9.99955, 9.999092 
1.7250136e+3, 2.4476852e+2, -692480.75, -634442.9, -61467.105, -0.01904295, 0.044505488, -595489.0, -54212.035, 0.0, 9.999041, 9.999803 
1.7250074e+3, 2.5476885e+2, -666406.8, -570934.1, -63885.53, 0.02450868, 0.09474916, -538920.1, -95647.41, 0.0, 9.998546, 9.999804 
1.7250012e+3, 2.6476884e+2, -638790.3, -504887.44, -58260.0, 0.036737256, 0.111508794, -483087.97, -137814.53, 0.0, 9.998054, 9.999822 
1.7249945e+3, 2.747685e+2, -613110.1, -443050.3, -50013.902, 0.012981222, 0.09180621, -429431.97, -182153.45, 0.0, 9.997562, 9.999809 
1.7249884e+3, 2.8476858e+2, -526711.1, -282330.5, -22539.533, 0.030026635, 0.093276694, -280269.03, -130991.16, 0.0, 9.9971895, 10.00042 
1.7249833e+3, 2.9476908e+2, -459975.47, -193349.45, -37407.914, 0.09569384, 0.09385889, -188200.52, -136928.2, 0.0, 9.996948, 10.000473 
1.7249766e+3, 3.0476943e+2, -435413.28, -66137.67, -37368.27, 0.02646079, 0.044114295, -62394.195, -62394.195, 0.0, 9.996391, 10.001284 
1.7249711e+3, 3.147718e+2, -564265.25, -115031.77, 44825.68, 0.04829878, 0.15296187, -110602.62, -110602.62, 0.0, 9.99545, 10.001401 
1.7350847e+3, 1.2478617e+2, -1264213.3, -1705738.5, -97715.17, -0.029565385, 0.09997809, -1243554.3, 473554.38, 0.057916738, 10.00424, 9.998026 
1.7350823e+3, 1.3478483e+2, -1262355.8, -1634686.8, 57101.273, -0.002521966, 0.13653426, -1253795.4, 365326.97, 0.037830137, 10.003368, 9.99826 
1.7350769e+3, 1.4478393e+2, -1180079.8, -1476546.3, -52156.715, -0.120703846, 0.19084494, -1171171.6, 349959.53, 0.01929914, 10.0029, 9.998899 
1.7350723e+3, 1.5478233e+2, -1069783.8, -1371549.6, -25744.309, -0.011479695, 0.1327283, -1067603.1, 355542.72, 0.006632228, 10.002945, 9.998921 
1.7350665e+3, 1.6478091e+2, -1029922.44, -1325592.6, -52997.32, 0.01264634, 0.112571366, -1020710.0, 304449.03, 0.0011323413, 10.002633, 9.998712 
1.7350598e+3, 1.7477976e+2, -1036438.6, -1280780.9, -72112.945, -0.012427148, 0.12261775, -1016743.4, 210427.23, 0.000040117335, 10.0019245, 9.998687 
1.735053e+3, 1.8477874e+2, -975852.2, -1148203.8, -81150.914, -0.037423793, 0.13093567, -943656.8, 185523.58, 0.0, 10.001441, 9.999158 
1.735046e+3, 1.9477797e+2, -911042.4, -1066540.6, -60069.363, -0.07726734, 0.1351366, -890540.56, 140646.72, 0.0, 10.001214, 9.999155 
1.7350395e+3, 2.0477697e+2, -851023.1, -975800.0, -63860.984, -0.07602032, 0.11702545, -824133.7, 109062.02, 0.0, 10.000907, 9.999253 
1.7350332e+3, 2.1477574e+2, -810535.6, -906865.44, -72060.63, -0.024049778, 0.065016866, -772025.3, 63180.418, 0.0, 10.000519, 9.999241 
1.7350265e+3, 2.2477485e+2, -784498.9, -853549.4, -80692.3, -0.010558569, 0.05886374, -731256.0, 5957.864, 0.0, 10.000068, 9.99915 
1.7350192e+3, 2.3477444e+2, -763610.1, -794442.94, -78943.09, -0.04093456, 0.099226095, -698592.25, -59373.063, 0.0, 9.999546, 9.999134 
1.7350124e+3, 2.4477406e+2, -694301.6, -637695.44, -79206.99, -0.03098223, 0.118107855, -581886.6, -40663.363, 0.0, 9.999038, 9.999782 
1.7350061e+3, 2.5477374e+2, -667720.6, -573924.0, -80979.97, 0.024669582, 0.10142337, -527242.3, -84016.32, 0.0, 9.998546, 9.9997835 
1.7349994e+3, 2.647733e+2, -619019.75, -463968.28, -75576.71, 0.04901579, 0.06731842, -433225.47, -87995.73, 0.0, 9.998054, 10.000103 
1.7349923e+3, 2.7477297e+2, -592073.56, -401154.66, -66814.8, 0.035086397, 0.021528142, -380094.94, -132862.19, 0.0, 9.99757, 10.000094 
1.7349857e+3, 2.8477374e+2, -537932.94, -308234.28, -31035.227, 0.03136175, 0.08110186, -304114.9, -154888.66, 0.0, 9.997199, 10.000237 
1.7349797e+3, 2.9477534e+2, -476397.22, -228745.16, -44060.92, 0.048507817, 0.21503972, -221139.66, -169927.3, 0.0, 9.996952, 10.00023 
1.7349729e+3, 3.047747e+2, -446351.94, -88370.85, -72471.63, 0.025143286, 0.08370718, -74255.85, -74255.85, 0.0, 9.996389, 10.001132 
1.7349668e+3, 3.1477645e+2, -534437.56, -53260.23, 33007.105, 0.07130602, 0.14532894, -51006.613, -51006.613, 0.0, 9.995451, 10.001824 
1.7450891e+3, 1.2479148e+2, -1212691.6, -1679798.3, -90793.39, -0.03671868, 0.102756, -1195664.4, 521392.6, 0.06144034, 10.004631, 9.998023 
1.7450857e+3, 1.3479018e+2, -1201527.4, -1618342.1, 93171.875, -0.020505965, 0.15307492, -1181648.4, 437422.3, 0.040288065, 10.003872, 9.998132 
1.7450802e+3, 1.4478923e+2, -1133873.8, -1450721.9, -2988.6003, -0.092802234, 0.20986368, -1133845.6, 387233.9, 0.020710532, 10.003215, 9.998927 
1.7450751e+3, 1.5478736e+2, -1101757.8, -1383449.9, -21500.27, 0.0008143606, 0.124112375, -1100126.3, 322969.8, 0.007226658, 10.002711, 9.998951 
1.745069e+3, 1.6478589e+2, -1088178.6, -1361542.5, -66443.02, 0.015420532, 0.09804605, -1072884.9, 252225.17, 0.0012746613, 10.002267, 9.998641 
1.7450616e+3, 1.7478484e+2, -1047225.9, -1294383.3, -50790.402, -0.012287659, 0.12599938, -1037195.56, 189925.95, 0.0000499031, 10.001887, 9.998611 
1.7450546e+3, 1.8478392e+2, -942090.0, -1104931.3, -39271.1, -0.03816299, 0.1368192, -933114.06, 196015.86, 0.0000000000000006446772, 10.001557, 9.999398 
1.7450474e+3, 1.9478326e+2, -884423.25, -1026141.1, -38845.465, -0.07827585, 0.12595038, -874474.0, 156660.14, 0.0, 10.00128, 9.9994 
1.7450403e+3, 2.0478225e+2, -865229.6, -1003647.06, -58515.48, -0.0807028, 0.102573164, -843807.7, 89334.98, 0.0, 10.000901, 9.9990635 
1.7450334e+3, 2.1478087e+2, -840466.7, -943705.94, -65134.066, -0.03638712, 0.05708451, -808977.75, 26177.86, 0.0, 10.00041, 9.999039 
1.7450264e+3, 2.2478002e+2, -788310.44, -829892.4, -67663.234, -0.013941268, 0.054357927, -738316.0, -1152.3545, 0.0, 9.999933, 9.999377 
1.745019e+3, 2.3477983e+2, -757953.9, -765549.4, -53088.984, -0.017749937, 0.094449975, -708527.0, -69361.56, 0.0, 9.999474, 9.999367 
1.7450117e+3, 2.4477954e+2, -704630.56, -652953.3, -48007.008, -0.012043561, 0.114623256, -624273.06, -83104.47, 0.0, 9.999011, 9.999689 
1.7450044e+3, 2.5477913e+2, -675452.9, -588673.75, -56366.92, 0.0065000863, 0.100571565, -560930.44, -117757.11, 0.0, 9.998542, 9.999683 
1.7449972e+3, 2.647787e+2, -605549.4, -444928.72, -59037.55, 0.031053277, 0.06611676, -425563.66, -80386.41, 0.0, 9.998095, 10.000213 
1.74499e+3, 2.747785e+2, -569919.0, -377536.03, -64019.547, 0.056081153, 0.017065385, -358179.7, -111001.21, 0.0, 9.997668, 10.000208 
1.744983e+3, 2.847793e+2, -544338.94, -314361.34, -27764.012, 0.045393683, 0.08149387, -311057.03, -161886.14, 0.0, 9.9971695, 10.00021 
1.744976e+3, 2.94781e+2, -539162.4, -268852.47, -29652.678, 0.011747353, 0.22858608, -265637.84, -214481.16, 0.0, 9.996566, 10.00014 
1.7449693e+3, 3.0477983e+2, -505089.03, -170193.8, -65118.734, 0.040920038, 0.07338916, -157977.4, -157977.4, 0.0, 9.996218, 10.000653 
1.7449626e+3, 3.1478125e+2, -408956.06, 38633.777, 25960.352, 0.0710281, 0.14243749, 40134.453, 40134.453, 0.0, 9.996177, 10.002107 
1.7550936e+3, 1.24798074e+2, -1194771.8, -1638966.9, -123198.06, -0.048195705, 0.17250156, -1162890.8, 554103.44, 0.06514067, 10.00463, 9.998325 
1.7550899e+3, 1.3479598e+2, -1189298.5, -1592399.4, 65626.12, 0.0063562584, 0.12596203, -1178883.4, 440129.72, 0.042870563, 10.0038805, 9.998309 
1.7550841e+3, 1.4479463e+2, -1172051.3, -1530409.9, -22316.4, -0.02760064, 0.16033877, -1170666.9, 350358.75, 0.022198897, 10.003221, 9.998368 
1.7550777e+3, 1.5479273e+2, -1141620.6, -1467198.6, -39375.035, -0.018177358, 0.12933664, -1136926.4, 286117.97, 0.007860936, 10.002716, 9.998372 
1.7550707e+3, 1.647913e+2, -1061692.4, -1307008.3, -80211.16, -0.042365745, 0.11944, -1037793.9, 287264.3, 0.0014314154, 10.002268, 9.999016 
1.7550631e+3, 1.747904e+2, -1018316.2, -1236164.8, -64113.586, -0.05978388, 0.12305213, -1000848.0, 226218.55, 0.00006152053, 10.001894, 9.999009 
1.7550561e+3, 1.8478948e+2, -942369.2, -1106362.8, -49344.99, -0.04759643, 0.112618275, -928666.44, 200407.58, 0.0000000010737394, 10.00156, 9.999388 
1.7550492e+3, 1.9478858e+2, -886122.94, -1030050.6, -48253.563, -0.017826818, 0.080732204, -871442.7, 159637.31, 0.0, 10.001281, 9.999373 
1.7550418e+3, 2.0478767e+2, -877323.2, -1028249.06, -76226.57, -0.02509101, 0.07929555, -845524.06, 87564.086, 0.0, 10.000898, 9.998897 
1.7550336e+3, 2.1478686e+2, -852853.4, -969140.2, -82198.68, -0.0665354, 0.10504834, -810312.7, 24785.414, 0.0, 10.000408, 9.998866 
1.755026e+3, 2.2478601e+2, -760578.4, -771880.56, -84174.95, -0.049269788, 0.092476025, -681865.0, 55240.76, 0.0, 9.99993, 9.999777 
1.755019e+3, 2.3478523e+2, -729065.44, -705972.9, -68979.305, 0.029652087, 0.03220104, -647580.2, -8469.826, 0.0, 9.999475, 9.999777 
1.7550111e+3, 2.4478488e+2, -716474.4, -677404.25, -64899.17, 0.035906307, 0.033794466, -629163.8, -88050.15, 0.0, 9.99901, 9.999522 
1.7550026e+3, 2.5478503e+2, -687807.06, -615010.75, -72486.0, -0.033083003, 0.093100324, -570297.56, -127182.38, 0.0, 9.998544, 9.999502 
1.7549948e+3, 2.6478496e+2, -609638.4, -454623.13, -74152.98, -0.019821532, 0.10877791, -424864.28, -79747.74, 0.0, 9.998098, 10.000145 
1.754988e+3, 2.747849e+2, -574497.06, -387554.5, -78114.21, 0.0750336, 0.07880444, -359211.53, -112095.125, 0.0, 9.997669, 10.000138 
1.7549805e+3, 2.8478524e+2, -535366.9, -296062.78, -49410.84, 0.070764706, 0.09342099, -286261.97, -137149.33, 0.0, 9.99717, 10.000335 
1.7549723e+3, 2.9478598e+2, -532156.06, -257664.0, -51538.31, -0.02003632, 0.13086586, -248306.25, -197199.83, 0.0, 9.996579, 10.000211 
1.754966e+3, 3.047848e+2, -559871.56, -287089.78, -66538.02, 0.06819791, 0.018372994, -271725.0, -271725.0, 0.0, 9.99623, 9.999845 
1.7549585e+3, 3.1478623e+2, -412053.28, 33577.992, 26709.076, 0.04743205, 0.16119404, 35173.1, 35173.1, 0.0, 9.996171, 10.002075 
1.7650984e+3, 1.24804884e+2, -1235770.8, -1673714.9, -77210.516, -0.02947253, 0.17508332, -1222557.1, 494369.7, 0.069023415, 10.004418, 9.998172 
1.765094e+3, 1.3480236e+2, -1134851.3, -1594386.9, 80966.7, 0.0019656708, 0.11186694, -1121002.9, 497947.56, 0.045581564, 10.004413, 9.998038 
1.765088e+3, 1.4480074e+2, -1075995.0, -1497060.9, -18229.186, 0.00029538295, 0.14018087, -1075207.3, 445758.4, 0.02376459, 10.003961, 9.998244 
1.7650804e+3, 1.5479894e+2, -1096014.8, -1458563.5, -1875.5599, -0.034335382, 0.13104759, -1096005.1, 326978.44, 0.008533529, 10.003094, 9.998249 
1.7650728e+3, 1.6479753e+2, -1022402.9, -1279943.5, -22310.934, -0.067013405, 0.12677243, -1020484.4, 304512.53, 0.0016018841, 10.002506, 9.999085 
1.7650652e+3, 1.7479657e+2, -965127.1, -1202260.6, -31148.096, -0.05540923, 0.11825198, -961103.94, 265901.3, 0.00007476828, 10.002226, 9.999081 
1.7650579e+3, 1.8479557e+2, -923730.25, -1109763.4, -38371.05, -0.027643315, 0.10249877, -916126.6, 212886.78, 0.000000009428086, 10.001742, 9.999276 
1.7650506e+3, 1.9479458e+2, -929672.1, -1064161.0, -45220.645, 0.0028000341, 0.0733864, -915881.25, 115139.484, 0.0, 10.001039, 9.999255 
1.7650425e+3, 2.0479375e+2, -917785.3, -1027533.2, -59639.855, -0.009549823, 0.073426306, -891615.7, 41412.82, 0.0, 10.000533, 9.999078 
1.7650339e+3, 2.147931e+2, -863902.7, -953303.75, -40051.54, -0.063021064, 0.09936196, -848584.4, -13548.204, 0.0, 10.000242, 9.999054 
1.7650259e+3, 2.2479238e+2, -763372.9, -765175.3, -42195.984, -0.051271155, 0.08452697, -722068.5, 14973.997, 0.0, 9.999877, 9.999848 
1.7650183e+3, 2.347916e+2, -731301.56, -699432.9, -53203.848, 0.02882254, 0.018343508, -659828.44, -20781.531, 0.0, 9.999427, 9.999844 
1.76501e+3, 2.4479127e+2, -715807.25, -676539.94, -54196.953, 0.03609096, 0.018794399, -638529.94, -97479.92, 0.0, 9.999013, 9.999526 
1.7650011e+3, 2.547915e+2, -673179.25, -607753.94, -48834.57, -0.03217834, 0.08520435, -581687.94, -138636.86, 0.0, 9.998644, 9.999503 
1.7649929e+3, 2.6479155e+2, -607631.06, -460477.0, -47737.38, -0.019514097, 0.11292743, -446347.5, -101295.67, 0.0, 9.998142, 10.000083 
1.7649855e+3, 2.7479148e+2, -604356.4, -408937.7, -51995.67, 0.07275832, 0.09311813, -395964.28, -148912.63, 0.0, 9.997496, 10.000075 
1.7649774e+3, 2.8479156e+2, -554162.1, -305072.38, -22889.96, 0.06322435, 0.086157285, -302986.38, -153936.11, 0.0, 9.997042, 10.000335 
1.764969e+3, 2.9479194e+2, -505091.97, -247759.81, -35789.547, -0.030996483, 0.084919296, -242874.97, -191827.63, 0.0, 9.99678, 10.000181 
1.7649628e+3, 3.0479127e+2, -552584.56, -304553.0, -24046.281, 0.12775923, 0.03660279, -302243.25, -302243.25, 0.0, 9.996371, 9.999656 
1.7649542e+3, 3.1479156e+2, -459935.1, 22692.613, 95066.555, 0.02251886, 0.0850739, 40743.418, 40743.418, 0.0, 9.995791, 10.002181 
1.7751032e+3, 1.24811985e+2, -1278090.5, -1762406.3, -79434.61, 0.011771235, 0.119123295, -1265394.9, 451459.16, 0.0730958, 10.004423, 9.997545 
1.775098e+3, 1.3480924e+2, -1184271.8, -1699158.0, 81121.47, -0.03562597, 0.1090124, -1171793.4, 447089.6, 0.048424657, 10.0044155, 9.997314 
1.7750917e+3, 1.4480752e+2, -1056416.3, -1454402.8, -50024.54, -0.011287836, 0.14729384, -1050224.8, 470675.44, 0.02540726, 10.003957, 9.998548 
1.7750834e+3, 1.5480596e+2, -1072949.3, -1411404.3, -33230.84, -0.050097294, 0.12996382, -1069717.4, 353196.53, 0.009242489, 10.0030985, 9.998571 
1.7750753e+3, 1.6480456e+2, -1038332.6, -1314325.0, -32959.137, -0.06233884, 0.12138948, -1034451.25, 290475.22, 0.0017851728, 10.002512, 9.998847 
1.775068e+3, 1.7480333e+2, -982609.4, -1239217.8, -40599.03, -0.0011904879, 0.11114937, -976339.25, 250598.81, 0.000089384695, 10.002228, 9.998826 
1.77506e+3, 1.848022e+2, -939000.5, -1141296.0, -63756.85, 0.019811692, 0.10598155, -920583.2, 208365.25, 0.000000028818846, 10.00174, 9.999062 
1.7750514e+3, 1.9480126e+2, -943943.44, -1094877.6, -70290.414, -0.017426305, 0.10273388, -916279.44, 114677.445, 0.0, 10.001042, 9.999043 
1.7750429e+3, 2.0480037e+2, -881184.9, -952297.0, -69975.945, -0.03583291, 0.08379132, -838249.75, 94714.52, 0.0, 10.000536, 9.999594 
1.7750345e+3, 2.1479955e+2, -826588.1, -876434.56, -49698.586, -0.027877623, 0.0399439, -795913.5, 39056.758, 0.0, 10.000243, 9.999582 
1.775026e+3, 2.2479904e+2, -781138.0, -801913.0, -58352.418, -0.021888753, 0.031423412, -732255.75, 4718.5205, 0.0, 9.999875, 9.999598 
1.7750174e+3, 2.347989e+2, -750093.2, -738777.7, -68722.85, -0.021006739, 0.053337723, -675480.06, -36504.55, 0.0, 9.999427, 9.999575 
1.7750087e+3, 2.4479865e+2, -703760.4, -651669.8, -67058.09, -0.012805545, 0.068756044, -605776.6, -64798.26, 0.0, 9.999013, 9.999698 
1.7750002e+3, 2.5479844e+2, -660563.9, -582415.75, -61078.395, 0.007835011, 0.07489437, -548982.2, -106000.4, 0.0, 9.998647, 9.999677 
1.7749916e+3, 2.6479828e+2, -611358.9, -469066.47, -70955.195, 0.030277874, 0.07732358, -439731.72, -94747.82, 0.0, 9.998144, 10.000024 
1.7749827e+3, 2.7479818e+2, -607310.8, -417077.16, -74489.28, 0.043686617, 0.061320495, -391380.63, -144395.9, 0.0, 9.997502, 10.000017 
1.774974e+3, 2.8479826e+2, -561952.1, -323139.75, -32204.246, 0.017759364, 0.060376775, -318873.2, -169888.89, 0.0, 9.997049, 10.000208 
1.7749658e+3, 2.947988e+2, -514057.38, -267362.25, -44623.55, -0.019337706, 0.09025496, -259538.63, -208558.48, 0.0, 9.996783, 10.000046 
1.77496e+3, 3.0479917e+2, -518156.4, -233199.56, -42789.84, 0.21975459, 0.12572125, -226912.84, -226912.84, 0.0, 9.996371, 10.000146 
1.7749499e+3, 3.1479847e+2, -447163.1, 48265.01, 38450.285, 0.008137394, 0.025604203, 51231.387, 51231.387, 0.0, 9.995797, 10.002354 
1.7851084e+3, 1.2481971e+2, -1119396.3, -1691970.4, -87764.414, 0.035358094, 0.11327102, -1106245.6, 610532.1, 0.07736833, 10.005674, 9.997434 
1.785102e+3, 1.348169e+2, -1200385.5, -1726191.0, 104803.88, -0.069086485, 0.11369924, -1180265.8, 438541.94, 0.05140271, 10.0043955, 9.99714 
1.7850956e+3, 1.44815e+2, -1112122.5, -1471956.1, -10754.151, 0.00017551293, 0.14058122, -1111801.4, 409025.1, 0.027127404, 10.003532, 9.998627 
1.7850868e+3, 1.5481354e+2, -1049980.1, -1391253.8, -11430.826, -0.026798649, 0.12466008, -1049597.6, 373240.9, 0.009987896, 10.003222, 9.998651 
1.7850782e+3, 1.6481209e+2, -1009043.8, -1316957.0, -11555.057, -0.036791194, 0.11365872, -1008610.8, 316240.72, 0.0019811615, 10.002787, 9.998695 
1.7850703e+3, 1.7481062e+2, -997734.56, -1264147.4, -12884.035, 0.017348258, 0.096142806, -997112.94, 229752.53, 0.00010526353, 10.002201, 9.998668 
1.785062e+3, 1.8480943e+2, -943466.56, -1145684.6, -28295.646, 0.02624566, 0.09427052, -939581.9, 189294.89, 0.0000000562377, 10.001721, 9.999039 
1.7850524e+3, 1.9480862e+2, -898411.25, -1074842.9, -21636.738, -0.03019716, 0.10652304, -895796.56, 135087.89, 0.0, 10.001366, 9.999024 
1.7850435e+3, 2.0480773e+2, -821969.25, -912988.6, -26078.92, -0.046658605, 0.082427226, -815026.7, 117865.09, 0.0, 10.000896, 9.999689 
1.785035e+3, 2.1480674e+2, -810909.2, -858200.56, -38468.383, -0.013693961, 0.011301249, -789400.3, 45497.93, 0.0, 10.000305, 9.999677 
1.785026e+3, 2.248063e+2, -787445.44, -813858.5, -53759.47, -0.0070758746, 0.008500225, -745294.1, -8392.402, 0.0, 9.99987, 9.999517 
1.7850167e+3, 2.3480646e+2, -730370.9, -738177.8, -51427.965, -0.03210629, 0.071140654, -682698.44, -43797.008, 0.0, 9.999601, 9.999494 
1.7850076e+3, 2.4480624e+2, -685440.75, -628217.6, -52380.402, -0.025089046, 0.08605308, -597143.94, -56239.77, 0.0, 9.999075, 9.999829 
1.7849988e+3, 2.548057e+2, -707457.4, -590568.8, -50326.277, 0.022390962, 0.04795789, -571886.75, -128977.6, 0.0, 9.998261, 9.999806 
1.7849897e+3, 2.648056e+2, -661528.7, -497338.94, -50919.406, 0.052872106, 0.047001116, -482829.7, -137918.75, 0.0, 9.997817, 9.999988 
1.7849804e+3, 2.748058e+2, -569728.4, -403421.88, -52875.1, 0.05176292, 0.06739449, -388034.6, -141124.83, 0.0, 9.99778, 9.999977 
1.7849712e+3, 2.8480586e+2, -519131.3, -298369.9, -12484.143, 0.010949963, 0.06651413, -297666.16, -148756.39, 0.0, 9.997325, 10.000245 
1.7849623e+3, 2.948062e+2, -562691.44, -282735.16, -13756.326, -0.0359791, 0.07153801, -282060.8, -231153.56, 0.0, 9.996414, 10.000118 
1.7849566e+3, 3.0480713e+2, -549698.75, -211912.92, 5617.2754, 0.24260163, 0.14233522, -211819.53, -211819.53, 0.0, 9.9959955, 10.000474 
1.784946e+3, 3.1480646e+2, -430987.8, 30848.836, 21267.76, 0.023916796, 0.013564026, 31826.156, 31826.156, 0.0, 9.99602, 10.002125 
1.795114e+3, 1.2482808e+2, -1099620.5, -1642417.4, -124089.24, 0.029030595, 0.15852107, -1072597.6, 644100.06, 0.081845425, 10.005662, 9.997811 
1.7951062e+3, 1.3482529e+2, -1177338.9, -1673001.6, 57862.98, -0.099079005, 0.12539634, -1170673.8, 448051.2, 0.054517668, 10.004396, 9.997501 
1.7950995e+3, 1.448232e+2, -1122843.9, -1493723.0, -23797.654, 0.03323053, 0.12049409, -1121323.1, 399421.63, 0.028928485, 10.003535, 9.998473 
1.7950906e+3, 1.5482165e+2, -1061328.1, -1415090.3, -21699.305, 0.032008808, 0.11500156, -1060002.0, 362756.06, 0.010773709, 10.003226, 9.998484 
1.7950813e+3, 1.6482009e+2, -1014007.9, -1327725.0, -32650.344, 0.006301454, 0.103843406, -1010645.8, 314126.63, 0.0021913187, 10.002788, 9.998622 
1.7950724e+3, 1.7481843e+2, -1001447.44, -1273772.0, -33725.3, -0.0007138646, 0.07310779, -997333.0, 229454.97, 0.00012255237, 10.002208, 9.998599 
1.7950632e+3, 1.8481724e+2, -931529.06, -1122565.8, -41234.035, -0.009892328, 0.06739399, -923008.94, 205790.0, 0.000000085167756, 10.001727, 9.999196 
1.7950538e+3, 1.9481665e+2, -886772.2, -1051645.3, -33805.3, -0.036970127, 0.08529842, -880110.0, 150694.2, 0.0, 10.001368, 9.999183 
1.7950444e+3, 2.0481575e+2, -844180.7, -959274.06, -47383.047, -0.04310804, 0.0700259, -827183.6, 105627.91, 0.0, 10.000896, 9.9993725 
1.7950352e+3, 2.1481457e+2, -833665.75, -906127.6, -59027.098, -0.020886233, 0.012549675, -800637.2, 34183.42, 0.0, 10.000307, 9.999349 
1.7950259e+3, 2.2481404e+2, -781732.44, -802064.6, -63024.26, -0.007992697, 0.013904761, -728059.6, 8765.872, 0.0, 9.99987, 9.999599 
1.7950165e+3, 2.3481424e+2, -724166.8, -725619.44, -60063.99, -0.007291714, 0.07041645, -664824.75, -25999.438, 0.0, 9.999601, 9.999581 
1.7950068e+3, 2.4481396e+2, -678828.6, -614291.75, -81651.46, -0.003193958, 0.07058024, -558763.75, -17935.494, 0.0, 9.999073, 9.999927 
1.794997e+3, 2.5481328e+2, -700210.2, -576027.0, -79420.55, 0.009188657, 0.0066833836, -537306.94, -94473.37, 0.0, 9.998262, 9.999907 
1.7949876e+3, 2.6481336e+2, -661774.44, -499111.47, -51560.56, 0.04632058, 0.022078779, -484144.97, -139311.53, 0.0, 9.997822, 9.999974 
1.7949787e+3, 2.7481422e+2, -570197.5, -406970.6, -52123.055, 0.096961714, 0.10673531, -391746.2, -144918.47, 0.0, 9.997789, 9.999949 
1.7949687e+3, 2.8481433e+2, -503646.0, -267416.63, -45431.46, 0.043039978, 0.103006735, -258980.55, -110153.18, 0.0, 9.99733, 10.000455 
1.7949581e+3, 2.9481414e+2, -542773.8, -241242.64, -45948.92, -0.08885803, 0.03535099, -234396.16, -183567.69, 0.0, 9.996412, 10.000404 
1.7949519e+3, 3.0481502e+2, -538628.8, -190014.48, 9685.707, 0.18342587, 0.07761202, -189745.6, -189745.6, 0.0, 9.995998, 10.000624 
1.7949428e+3, 3.1481585e+2, -460313.84, -34509.176, -29210.139, 0.093899906, 0.09122811, -32514.707, -32514.707, 0.0, 9.996038, 10.001666 
1.8051197e+3, 1.2483682e+2, -1152316.9, -1653970.9, -91266.95, 0.046677638, 0.15965953, -1136228.4, 580384.1, 0.086523995, 10.005229, 9.997935 
1.8051107e+3, 1.3483423e+2, -1154309.4, -1645560.4, 60749.785, -0.093460366, 0.1325149, -1146908.3, 471728.28, 0.057774503, 10.004511, 9.997636 
1.8051036e+3, 1.4483194e+2, -1082724.5, -1491115.6, -5615.1465, 0.07738218, 0.11045841, -1082647.4, 438010.5, 0.0308184, 10.003902, 9.998314 
1.805094e+3, 1.5483019e+2, -1035864.2, -1421503.6, -3053.0806, 0.035451405, 0.09938841, -1035840.0, 386834.03, 0.011606396, 10.003489, 9.998312 
1.8050842e+3, 1.6482855e+2, -968540.0, -1293082.4, -12381.499, -0.0073252656, 0.08610551, -968068.3, 356620.47, 0.0024181777, 10.003049, 9.998733 
1.8050747e+3, 1.7482702e+2, -937015.0, -1229455.6, -1044.3003, -0.010449017, 0.057802096, -937011.3, 289690.8, 0.00014164914, 10.002596, 9.998714 
1.8050651e+3, 1.8482587e+2, -885562.9, -1113884.9, -8830.918, -0.010871594, 0.054007627, -885221.8, 243490.95, 0.00000010953618, 10.002103, 9.999074 
1.8050554e+3, 1.9482516e+2, -866916.6, -1056136.5, -23277.729, -0.022932274, 0.0730876, -864095.06, 166624.75, 0.0, 10.001566, 9.999056 
1.8050456e+3, 2.0482422e+2, -828026.2, -958946.4, -42003.563, -0.030335696, 0.06395697, -815708.94, 117019.016, 0.0, 10.00104, 9.999304 
1.8050355e+3, 2.1482311e+2, -806287.5, -899972.5, -35517.516, -0.027746275, 0.018269725, -794344.7, 40391.92, 0.0, 10.000527, 9.999283 
1.8050258e+3, 2.2482249e+2, -784812.1, -807084.9, -33106.03, -0.012784511, 0.018011417, -761019.56, -24277.379, 0.0, 9.999865, 9.999568 
1.8050161e+3, 2.3482251e+2, -808571.44, -770075.25, -39301.668, 0.013713095, 0.05896211, -745561.4, -106817.336, 0.0, 9.999038, 9.999547 
1.8050058e+3, 2.448222e+2, -737268.6, -630817.3, -58936.496, 0.016987199, 0.052235298, -604629.6, -63882.523, 0.0, 9.998621, 10.000031 
1.8049952e+3, 2.5482163e+2, -637508.0, -533545.56, -56840.063, -0.0017733577, -0.010252358, -508501.8, -65751.234, 0.0, 9.99864, 10.000016 
1.8049854e+3, 2.6482183e+2, -594265.44, -461989.75, -27386.982, 0.024506386, 0.008865598, -456543.66, -111794.37, 0.0, 9.998264, 10.000016 
1.8049762e+3, 2.7482277e+2, -617630.9, -426330.1, -24552.248, 0.09203565, 0.1003826, -423229.22, -176486.13, 0.0, 9.997447, 9.999982 
1.8049659e+3, 2.8482306e+2, -569609.8, -294703.56, -27447.898, 0.053246267, 0.106755294, -291989.8, -143248.11, 0.0, 9.996857, 10.000497 
1.8049547e+3, 2.94823e+2, -514339.13, -216610.92, -40690.074, -0.07635857, 0.047775768, -211150.03, -160408.48, 0.0, 9.996561, 10.000502 
1.8049477e+3, 3.0482352e+2, -493525.75, -160881.39, 21613.55, 0.13917471, 0.041960124, -159482.94, -159482.94, 0.0, 9.996277, 10.0006895 
1.8049392e+3, 3.148255e+2, -489601.16, -60399.23, -66773.58, 0.139511, 0.17166995, -50250.813, -50250.813, 0.0, 9.99589, 10.001561 
1.8151252e+3, 1.2484592e+2, -1164122.1, -1671289.0, -100600.07, 0.07827268, 0.12002727, -1144896.1, 571626.2, 0.091399275, 10.005222, 9.99781 
1.8151155e+3, 1.3484366e+2, -1161190.1, -1657725.5, 35549.016, -0.059447985, 0.13441543, -1158657.9, 459885.28, 0.061182026, 10.004514, 9.997549 
1.815108e+3, 1.4484122e+2, -1095067.4, -1515808.0, -21545.402, 0.12560013, 0.11024084, -1093967.0, 426599.22, 0.0328081, 10.003904, 9.998139 
1.8150969e+3, 1.5483908e+2, -1048054.0, -1447492.6, -17418.672, -0.015915481, 0.07817554, -1047295.9, 375290.94, 0.01249281, 10.003491, 9.998133 
1.8150866e+3, 1.6483746e+2, -948256.7, -1251861.4, -28918.02, -0.077156864, 0.06091831, -945526.8, 379074.25, 0.0026645006, 10.003053, 9.999016 
1.8150772e+3, 1.7483641e+2, -916064.94, -1186584.6, -16932.494, -0.013488316, 0.05026343, -915009.25, 311599.06, 0.00016313064, 10.002598, 9.999009 
1.8150675e+3, 1.8483527e+2, -913656.0, -1172417.0, -28291.092, 0.020589223, 0.054019008, -910599.0, 218019.77, 0.00000012908751, 10.002102, 9.9986725 
1.8150572e+3, 1.9483411e+2, -895157.75, -1115957.6, -42055.93, 0.010312987, 0.068932295, -887418.56, 143213.39, 0.0, 10.00157, 9.998644 
1.8150468e+3, 2.0483309e+2, -815709.3, -934221.3, -60345.85, -0.010420165, 0.06332807, -790390.5, 142251.03, 0.0, 10.001043, 9.999474 
1.815036e+3, 2.1483225e+2, -793623.44, -874018.06, -53400.758, -0.037104607, 0.02822699, -766981.6, 67665.17, 0.0, 10.000527, 9.999462 
1.8150255e+3, 2.248316e+2, -794870.5, -827565.3, -63127.363, -0.023549737, 0.021194065, -746008.25, -9355.728, 0.0, 9.999862, 9.99943 
1.8150152e+3, 2.3483121e+2, -818057.56, -790767.9, -68718.64, 0.030727068, 0.037121106, -734352.5, -95694.41, 0.0, 9.999041, 9.999405 
1.8150048e+3, 2.4483088e+2, -729414.44, -615345.75, -57508.1, 0.03500808, 0.029862544, -591385.7, -50724.363, 0.0, 9.998624, 10.000136 
1.8149938e+3, 2.5483072e+2, -629347.0, -518066.97, -54190.797, -0.013082111, -0.0047031855, -496038.13, -53377.117, 0.0, 9.998645, 10.000121 
1.8149833e+3, 2.648309e+2, -586574.6, -446627.56, -56632.316, -0.014811281, 0.005973315, -426581.56, -81922.3, 0.0, 9.998266, 10.000121 
1.814973e+3, 2.7483147e+2, -610496.8, -411094.88, -54257.504, 0.031398367, 0.050304465, -397287.4, -150631.27, 0.0, 9.997444, 10.000089 
1.8149626e+3, 2.8483197e+2, -577796.9, -313334.66, -37528.32, 0.03704683, 0.07888243, -308112.34, -159459.19, 0.0, 9.996861, 10.000368 
1.8149522e+3, 2.9483265e+2, -518157.28, -230573.0, -48130.08, 0.0050330507, 0.10634594, -222731.75, -172084.39, 0.0, 9.996584, 10.000397 
1.8149436e+3, 3.0483243e+2, -495042.97, -166511.75, 7501.2305, 0.11034103, 0.03265275, -166340.56, -166340.56, 0.0, 9.996289, 10.000645 
1.8149348e+3, 3.1483403e+2, -463182.9, -3683.9807, -100841.914, 0.11520668, 0.12889336, 17472.729, 17472.729, 0.0, 9.995879, 10.001957 
1.8251304e+3, 1.2485581e+2, -1180816.4, -1687597.3, -61216.277, 0.09043302, 0.10277468, -1173526.8, 542897.8, 0.09646621, 10.005163, 9.997717 
1.8251202e+3, 1.3485344e+2, -1111970.8, -1637370.9, 56236.266, -0.06566342, 0.11231467, -1106019.0, 512427.16, 0.064746045, 10.004913, 9.997498 
1.8251124e+3, 1.4485094e+2, -1038241.75, -1497111.8, 1141.435, 0.15289569, 0.08765827, -1038238.94, 482231.06, 0.034905985, 10.004358, 9.998053 
1.8251006e+3, 1.5484896e+2, -1040208.7, -1453363.1, 12638.247, -0.010024106, 0.08154084, -1039822.44, 382667.06, 0.013438225, 10.003593, 9.998042 
1.8250896e+3, 1.6484733e+2, -964839.25, -1267642.8, -2997.662, -0.07668058, 0.07258961, -964809.56, 359694.5, 0.0029326566, 10.0029745, 9.998943 
1.8250799e+3, 1.7484611e+2, -935658.6, -1204327.5, -19309.996, -0.0023894212, 0.05241253, -934277.9, 292235.16, 0.00018758782, 10.002501, 9.998934 
1.8250696e+3, 1.8484488e+2, -925217.56, -1173481.9, -30276.53, 0.031929556, 0.048495095, -921578.6, 206945.6, 0.00000015151502, 10.002005, 9.998712 
1.8250589e+3, 1.9484371e+2, -903410.75, -1115290.3, -11487.194, 0.009903755, 0.058256317, -902789.75, 127747.18, 0.0, 10.001495, 9.998684 
1.8250477e+3, 2.0484267e+2, -832630.2, -950429.1, -21972.646, -0.009133722, 0.053555164, -828665.2, 103881.53, 0.0, 10.000963, 9.9994 
1.8250366e+3, 2.1484183e+2, -817044.9, -893325.75, -34541.348, -0.020078804, 0.025905278, -803728.56, 30824.145, 0.0, 10.000402, 9.99939 
1.8250255e+3, 2.2484115e+2, -772127.8, -815902.6, -46890.56, -0.014218796, 0.017851008, -742267.94, -5709.0356, 0.0, 10.000015, 9.999435 
1.8250144e+3, 2.3484065e+2, -705597.0, -735182.56, -42210.652, 0.007882951, 0.023550976, -675662.1, -37097.395, 0.0, 9.999809, 9.999415 
1.8250035e+3, 2.4484035e+2, -645359.4, -585238.0, -30499.234, 0.012199714, 0.022549808, -572475.2, -31907.412, 0.0, 9.999247, 10.000043 
1.8249923e+3, 2.548403e+2, -686920.25, -556630.75, -42642.53, -0.002261342, 0.010608582, -543915.2, -101348.04, 0.0, 9.998297, 10.000024 
1.8249813e+3, 2.6484045e+2, -655213.7, -466115.06, -52533.605, -0.008433897, 0.01603617, -452500.84, -107934.97, 0.0, 9.997737, 10.000242 
1.8249702e+3, 2.7484086e+2, -581927.44, -383297.2, -50273.348, -0.0037183824, 0.02822486, -371297.88, -124734.04, 0.0, 9.9975815, 10.000212 
1.8249597e+3, 2.8484142e+2, -529154.4, -293470.3, -27429.863, 0.024789076, 0.062215067, -290320.0, -141760.16, 0.0, 9.997211, 10.000336 
1.8249494e+3, 2.9484245e+2, -522729.3, -235366.14, -31454.244, 0.07412509, 0.12557109, -231963.52, -181411.86, 0.0, 9.996563, 10.000374 
1.8249394e+3, 3.0484217e+2, -562745.7, -196883.84, 26391.807, 0.08184249, 0.04667102, -194989.84, -194989.84, 0.0, 9.995817, 10.000662 
1.8249305e+3, 3.148435e+2, -530660.94, 17730.23, -67080.06, 0.12723917, 0.1180982, 25816.338, 25816.338, 0.0, 9.995182, 10.002441 
1.8351355e+3, 1.2486642e+2, -1187431.3, -1696602.1, -47910.434, 0.064510554, 0.10624266, -1182962.4, 533357.06, 0.10172058, 10.00517, 9.997646 
1.8351246e+3, 1.3486356e+2, -1115685.9, -1640868.3, 46695.297, -0.10987895, 0.0685704, -1111566.4, 506779.25, 0.068468116, 10.004911, 9.997474 
1.8351169e+3, 1.4486106e+2, -1039815.44, -1497907.0, -27409.857, 0.1605378, 0.045317024, -1038181.2, 482188.4, 0.037117094, 10.004355, 9.99805 
1.8351047e+3, 1.5485977e+2, -1040165.9, -1453273.4, -14375.362, 0.047616865, 0.10794634, -1039666.25, 382716.5, 0.0144466655, 10.003595, 9.998043 
1.8350932e+3, 1.6485812e+2, -994724.7, -1330577.6, -20102.668, -0.012409051, 0.11904824, -993525.7, 330872.7, 0.0032247442, 10.002977, 9.99851 
1.8350826e+3, 1.7485611e+2, -965637.44, -1268403.9, -35892.64, 0.020730136, 0.063544095, -961440.56, 264976.25, 0.00021561696, 10.002506, 9.998491 
1.8350716e+3, 1.8485466e+2, -891953.7, -1105983.4, -48586.95, 0.021459458, 0.03809681, -881440.4, 246989.14, 0.00000018976193, 10.00201, 9.999173 
1.83506e+3, 1.948539e+2, -869577.0, -1046048.0, -29280.777, -0.024994075, 0.041578054, -864845.5, 165589.88, 0.0, 10.001498, 9.999159 
1.8350485e+3, 2.0485294e+2, -854490.06, -996165.44, -42042.313, -0.027079223, 0.034923837, -842953.44, 89490.57, 0.0, 10.000963, 9.999086 
1.8350375e+3, 2.148518e+2, -838953.94, -940202.7, -53953.336, 0.022368867, 0.010506527, -815593.25, 18861.74, 0.0, 10.000406, 9.999066 
1.8350257e+3, 2.2485104e+2, -761869.0, -795116.7, -53746.758, 0.013534145, 0.006571251, -722233.94, 14228.176, 0.0, 10.000016, 9.9995775 
1.8350135e+3, 2.3485076e+2, -695036.44, -713632.75, -48281.293, -0.05759602, 0.017871609, -655166.1, -16701.492, 0.0, 9.999809, 9.999564 
1.835002e+3, 2.4485053e+2, -666391.4, -628208.5, -64767.332, -0.053293314, 0.029979892, -579777.4, -39310.074, 0.0, 9.999243, 9.99975 
1.834991e+3, 2.5485036e+2, -707206.94, -598928.25, -76716.28, 0.02912056, 0.036427833, -559171.6, -116701.95, 0.0, 9.998297, 9.999734 
1.8349795e+3, 2.6485044e+2, -646065.56, -448320.78, -57739.848, 0.042143732, 0.039512906, -432695.8, -88226.016, 0.0, 9.99774, 10.000363 
1.8349676e+3, 2.7485076e+2, -572269.56, -365749.22, -53994.95, -0.014206748, 0.033949498, -352484.22, -106017.16, 0.0, 9.99759, 10.000329 
1.8349567e+3, 2.8485128e+2, -522140.88, -281657.9, -50860.707, 0.0154634295, 0.053881604, -271343.56, -122880.61, 0.0, 9.997222, 10.000412 
1.8349464e+3, 2.948522e+2, -516692.8, -224892.9, -56650.23, 0.12192618, 0.1003185, -214280.73, -163824.98, 0.0, 9.996572, 10.0004425 
1.8349348e+3, 3.0485275e+2, -559053.9, -188555.88, -813.15283, 0.051576514, 0.09642355, -188554.1, -188554.1, 0.0, 9.995814, 10.00072 
1.8349253e+3, 3.1485364e+2, -508200.13, 59684.645, -48123.387, 0.09218034, 0.11568359, 63733.82, 63733.82, 0.0, 9.995194, 10.0027275 
1.8451412e+3, 1.24877565e+2, -1056184.8, -1642735.0, -9953.384, 0.07166537, 0.09899882, -1056015.9, 660193.4, 0.10716535, 10.006259, 9.997536 
1.8451293e+3, 1.3487482e+2, -1136145.8, -1659880.4, 54472.758, -0.13045578, 0.08081901, -1130540.1, 487694.8, 0.07235474, 10.004817, 9.997389 
1.8451211e+3, 1.4487219e+2, -1097897.0, -1531182.4, -7820.737, 0.16426452, 0.054189313, -1097755.9, 422504.16, 0.039448917, 10.003975, 9.997997 
1.8451086e+3, 1.5487064e+2, -1011740.1, -1445423.5, 577.1897, 0.07238403, 0.09538897, -1011739.3, 410536.06, 0.015523509, 10.003825, 9.997986 
1.8450966e+3, 1.6486886e+2, -941647.56, -1321118.4, -848.0209, 0.010912092, 0.10244878, -941645.7, 382646.84, 0.003543386, 10.003416, 9.9983635 
1.8450852e+3, 1.7486686e+2, -942670.06, -1273884.8, 4394.607, 0.012090041, 0.062003184, -942611.75, 283699.72, 0.00024800916, 10.002738, 9.998341 
1.8450736e+3, 1.8486539e+2, -875160.94, -1085226.6, -9974.379, 0.0059436383, 0.038185727, -874688.4, 253635.81, 0.00000025167606, 10.002072, 9.999285 
1.8450613e+3, 1.9486463e+2, -872380.44, -1034442.4, -18568.69, -0.019352704, 0.02910903, -870280.1, 160049.42, 0.0, 10.001425, 9.999272 
1.8450496e+3, 2.0486365e+2, -849947.0, -1002058.56, -26870.379, -0.017499316, 0.020328572, -845339.94, 86998.055, 0.0, 10.00103, 9.999013 
1.845038e+3, 2.1486254e+2, -771947.2, -916242.4, -20737.016, 0.017096471, 0.005396252, -769026.1, 65323.063, 0.0, 10.000905, 9.99899 
1.8450259e+3, 2.2486177e+2, -711461.75, -780439.1, -27357.227, 0.0034215732, 0.0076376335, -701929.0, 34427.895, 0.0, 10.000405, 9.999491 
1.8450132e+3, 2.3486142e+2, -745390.75, -747695.44, -40477.363, -0.061512683, 0.021487067, -706049.3, -67688.98, 0.0, 9.999507, 9.999475 
1.8450011e+3, 2.4486116e+2, -722609.3, -657279.94, -59263.13, -0.051461518, 0.03719748, -622275.56, -81912.125, 0.0, 9.998867, 9.999731 
1.8449894e+3, 2.5486103e+2, -680207.1, -587049.3, -51090.65, 0.03602563, 0.047967162, -564491.8, -122126.18, 0.0, 9.998489, 9.999722 
1.8449774e+3, 2.6486102e+2, -624353.9, -449248.88, -21327.992, 0.051708076, 0.050227072, -446688.53, -102322.19, 0.0, 9.997941, 10.000258 
1.8449652e+3, 2.748612e+2, -633452.1, -407512.63, -34540.58, -0.0030814689, 0.037285663, -402350.2, -155985.03, 0.0, 9.997225, 10.000217 
1.8449537e+3, 2.8486153e+2, -573396.75, -292415.0, -37749.7, 0.022144815, 0.041737214, -287431.75, -139069.56, 0.0, 9.996811, 10.000535 
1.844943e+3, 2.9486236e+2, -499734.25, -202244.61, -44897.633, 0.117458545, 0.06622459, -195616.28, -145260.88, 0.0, 9.996629, 10.000568 
1.8449305e+3, 3.048635e+2, -521796.16, -165909.64, 3841.6968, 0.032970235, 0.11546809, -165868.17, -165868.17, 0.0, 9.996055, 10.000758 
1.8449205e+3, 3.1486344e+2, -489431.84, 56128.92, 3580.0269, 0.094858065, 0.03329543, 56152.414, 56152.414, 0.0, 9.995375, 10.002617 
1.8551478e+3, 1.24889195e+2, -1071266.8, -1662870.6, -32412.484, 0.09839238, 0.08056824, -1069496.3, 646598.4, 0.1128184, 10.006243, 9.997392 
1.855134e+3, 1.3488713e+2, -1147396.0, -1679424.0, 4350.779, -0.13505791, 0.14437734, -1147360.5, 470754.28, 0.07642483, 10.004814, 9.997253 
1.855125e+3, 1.448843e+2, -1106858.8, -1549450.9, -14205.932, 0.15777373, 0.10931784, -1106403.3, 413738.78, 0.04191596, 10.003978, 9.997871 
1.8551125e+3, 1.548816e+2, -1020479.0, -1464434.1, -3939.4827, 0.0641033, 0.04645262, -1020444.06, 401723.7, 0.016677704, 10.003831, 9.997853 
1.8550998e+3, 1.6487955e+2, -931518.06, -1301608.3, -25544.738, -0.0067139333, 0.02848998, -929763.2, 394423.28, 0.0038926734, 10.003422, 9.998495 
1.8550876e+3, 1.7487828e+2, -932395.5, -1253451.8, -19907.475, -0.02859365, 0.048387777, -931165.8, 295031.8, 0.000285931, 10.002741, 9.998481 
1.8550754e+3, 1.84877e+2, -892033.0, -1120877.4, -33549.37, -0.015957102, 0.047337, -887215.94, 240993.06, 0.0000003514084, 10.002074, 9.99904 
1.8550633e+3, 1.9487579e+2, -888862.56, -1070528.8, -41629.527, 0.024573397, 0.020032762, -879777.4, 150442.69, 0.0, 10.001431, 9.9990225 
1.855051e+3, 2.0487475e+2, -837896.56, -978469.6, -31049.035, 0.017067358, 0.009557066, -831344.0, 100885.26, 0.0, 10.001036, 9.999173 
1.8550384e+3, 2.1487397e+2, -760439.25, -892484.9, -23976.791, -0.03763899, 0.01062178, -756220.4, 78015.71, 0.0, 10.000903, 9.999154 
1.8550257e+3, 2.248732e+2, -734520.4, -827574.1, -59809.195, -0.045336567, 0.020929033, -705272.0, 30972.021, 0.0, 10.0004015, 9.999169 
1.8550134e+3, 2.3487253e+2, -768055.06, -795579.2, -72630.42, -0.0045011523, 0.03388545, -707894.4, -69641.71, 0.0, 9.999509, 9.999146 
1.8550006e+3, 2.4487215e+2, -704841.9, -621107.8, -72796.945, 0.015904425, 0.04312039, -578997.2, -38740.203, 0.0, 9.998869, 9.999979 
1.8549877e+3, 2.5487217e+2, -661636.3, -549645.94, -63985.78, 0.014958923, 0.044822548, -520613.8, -78357.94, 0.0, 9.998493, 9.999977 
1.8549751e+3, 2.6487213e+2, -648203.3, -499277.28, -47679.004, 0.01924408, 0.04747752, -485320.66, -141064.19, 0.0, 9.997943, 9.999915 
1.8549627e+3, 2.7487198e+2, -657696.4, -458225.63, -59106.3, 0.028726667, 0.03881378, -442026.97, -195767.9, 0.0, 9.997226, 9.999869 
1.8549508e+3, 2.848721e+2, -561925.94, -270434.97, -44269.844, 0.040631987, 0.026471836, -263859.84, -115601.27, 0.0, 9.996817, 10.000685 
1.854939e+3, 2.9487276e+2, -486373.06, -177935.2, -54675.76, 0.05285543, 0.022898415, -168529.81, -118277.836, 0.0, 9.996641, 10.0007305 
1.8549266e+3, 3.0487433e+2, -515867.94, -156680.28, -25887.11, 0.03326911, 0.09918131, -154824.16, -154824.16, 0.0, 9.996068, 10.000814 
1.854916e+3, 3.148746e+2, -532951.75, -39730.168, 20219.645, 0.11677404, 0.04865923, -38902.652, -38902.652, 0.0, 9.995396, 10.00195 
1.8651533e+3, 1.24901086e+2, -1213418.3, -1728033.3, -12410.253, 0.082966335, 0.06112705, -1213119.1, 502857.94, 0.11871306, 10.005152, 9.997424 
1.8651392e+3, 1.3489926e+2, -1107475.3, -1654861.4, 4644.702, -0.11840165, 0.1457644, -1107435.9, 510559.7, 0.08070642, 10.005117, 9.997275 
1.8651295e+3, 1.4489639e+2, -1005762.75, -1507435.3, 5477.81, 0.17305489, 0.10956053, -1005702.94, 514320.34, 0.044536892, 10.004753, 9.997789 
1.8651162e+3, 1.5489346e+2, -991970.94, -1459855.9, 19804.184, 0.043331753, 0.03586612, -991134.2, 430916.6, 0.017919822, 10.004076, 9.997766 
1.8651031e+3, 1.648914e+2, -928782.44, -1287226.6, -9929.162, -0.025764951, 0.013582792, -928507.6, 395561.94, 0.004277451, 10.003387, 9.9986105 
1.8650903e+3, 1.7489028e+2, -930331.5, -1239590.3, -7887.908, -0.012245323, 0.036328364, -930130.44, 295948.25, 0.0003307565, 10.0027, 9.998595 
1.8650776e+3, 1.8488894e+2, -895717.25, -1157882.6, -16844.93, 0.0054299524, 0.04111168, -894639.3, 233451.67, 0.00000050835786, 10.002201, 9.998724 
1.865065e+3, 1.9488752e+2, -843719.2, -1084557.5, -30584.598, 0.020438064, 0.023466986, -839895.9, 190209.78, 0.0, 10.001897, 9.998701 
1.865052e+3, 2.0488642e+2, -785587.9, -941846.8, -24391.938, 0.0034621423, 0.019112587, -781868.8, 150246.97, 0.0, 10.001347, 9.999274 
1.865039e+3, 2.1488577e+2, -805825.1, -902651.5, -23096.484, -0.04474768, 0.022926223, -800597.94, 33522.59, 0.0, 10.000544, 9.999257 
1.865026e+3, 2.24885e+2, -802278.94, -863197.06, -55919.844, -0.041155532, 0.027643101, -769060.8, -32932.5, 0.0, 9.99995, 9.999142 
1.8650131e+3, 2.3488414e+2, -760599.6, -795109.44, -46962.766, 0.01506814, 0.026488733, -727822.25, -89683.586, 0.0, 9.999576, 9.999117 
1.8649997e+3, 2.4488372e+2, -668633.3, -605997.06, -38485.953, 0.028149009, 0.032447994, -587696.7, -47553.055, 0.0, 9.999129, 9.999956 
1.8649861e+3, 2.548838e+2, -648168.75, -546460.6, -51762.83, -0.0005150296, 0.041665535, -524750.75, -82608.55, 0.0, 9.998602, 9.999946 
1.8649729e+3, 2.6488376e+2, -625986.7, -487547.84, -38947.414, 0.0069786008, 0.046502292, -477342.9, -133200.42, 0.0, 9.998093, 9.999923 
1.8649603e+3, 2.7488357e+2, -604898.44, -430277.25, -23743.936, 0.045236703, 0.035178896, -427106.28, -180961.73, 0.0, 9.997581, 9.999889 
1.8649477e+3, 2.8488362e+2, -562969.94, -297864.56, -3641.2712, 0.04238826, 0.02581878, -297814.56, -149669.7, 0.0, 9.996928, 10.000441 
1.864935e+3, 2.948841e+2, -573632.75, -247413.98, -45801.76, 0.01486867, 0.027052945, -241105.33, -190964.23, 0.0, 9.996162, 10.0004835 
1.864923e+3, 3.0488533e+2, -561004.0, -163727.78, -32587.248, 0.08217274, 0.07760476, -161072.5, -161072.5, 0.0, 9.995696, 10.000944 
1.8649112e+3, 3.14886e+2, -538779.7, -66120.09, 33216.355, 0.078124724, 0.056743074, -63797.22, -63797.22, 0.0, 9.995459, 10.001736 
1.8751577e+3, 1.2491316e+2, -1205507.3, -1704317.4, 11975.015, 0.013470674, 0.035746396, -1205219.9, 510637.72, 0.12489376, 10.005158, 9.997596 
1.8751447e+3, 1.349112e+2, -1099997.3, -1633114.4, 3546.2368, -0.08371592, 0.0912882, -1099973.6, 517903.44, 0.08523088, 10.005121, 9.997423 
1.8751347e+3, 1.4490846e+2, -1008867.7, -1511708.5, -18566.959, 0.20600554, 0.063368745, -1008183.06, 511720.72, 0.047330044, 10.004756, 9.997759 
1.8751198e+3, 1.5490623e+2, -995301.3, -1464565.6, -3920.7068, 0.008156598, 0.060835697, -995268.56, 426656.8, 0.019259134, 10.00407, 9.997737 
1.8751062e+3, 1.6490433e+2, -924098.56, -1276846.4, -35270.81, -0.0485391, 0.052002538, -920606.5, 403336.2, 0.0047020656, 10.003384, 9.998685 
1.8750937e+3, 1.7490277e+2, -924464.56, -1229122.4, -32773.75, 0.057566542, 0.025935367, -920978.8, 304976.5, 0.0003838387, 10.002706, 9.998665 
1.8750805e+3, 1.8490121e+2, -921478.0, -1213270.0, -27791.94, 0.06603019, 0.022544326, -918854.5, 209115.88, 0.000000733184, 10.002208, 9.998342 
1.8750663e+3, 1.9489975e+2, -870527.0, -1140970.6, -40697.27, -0.032323375, 0.039340485, -864535.5, 165451.48, 0.0, 10.001899, 9.998314 
1.8750528e+3, 2.0489861e+2, -783346.25, -937488.06, -53300.836, -0.057929892, 0.04794101, -766710.7, 165287.53, 0.0, 10.001347, 9.999305 
1.87504e+3, 2.1489787e+2, -803240.2, -898153.7, -51701.184, -0.005499554, 0.041655418, -780517.5, 53485.816, 0.0, 10.0005455, 9.999289 
1.8750265e+3, 2.2489704e+2, -783468.3, -824557.6, -69141.664, 0.01353562, 0.027417453, -731883.56, 4126.8975, 0.0, 9.999951, 9.999407 
1.8750124e+3, 2.3489621e+2, -741638.2, -756059.0, -59400.594, -0.005158095, -0.00060891773, -689012.0, -50992.98, 0.0, 9.999576, 9.999385 
1.8749984e+3, 2.4489576e+2, -689946.2, -650771.4, -57159.33, -0.01551107, 0.004869044, -609936.5, -69912.26, 0.0, 9.99913, 9.999649 
1.8749847e+3, 2.5489575e+2, -669923.25, -593699.75, -69986.336, -0.011936209, 0.038609616, -552120.9, -110095.46, 0.0, 9.998609, 9.999619 
1.8749711e+3, 2.6489574e+2, -599869.7, -435302.94, -57615.945, 0.012847128, 0.04692834, -417136.6, -73111.32, 0.0, 9.998099, 10.000278 
1.8749578e+3, 2.7489585e+2, -576772.56, -374601.63, -42208.637, 0.044370815, 0.025074132, -366143.3, -120120.664, 0.0, 9.99759, 10.000268 
1.8749444e+3, 2.8489602e+2, -607590.1, -391500.34, -32954.86, 0.026002755, 0.04134616, -386586.3, -238564.39, 0.0, 9.996932, 9.999796 
1.874931e+3, 2.948963e+2, -622120.7, -345604.8, -72696.625, 0.0006549792, 0.086457275, -327657.6, -277634.53, 0.0, 9.996151, 9.999815 
1.8749197e+3, 3.0489627e+2, -546812.9, -138046.56, -40656.965, 0.17945868, 0.03920923, -134041.94, -134041.94, 0.0, 9.9957075, 10.001118 
1.8749064e+3, 3.1489787e+2, -497633.38, 8787.634, -2587.532, 0.060727213, 0.09046099, 8800.8545, 8800.8545, 0.0, 9.995505, 10.002227 
1.8851633e+3, 1.24926e+2, -1086794.8, -1655893.9, 58208.395, 0.011308315, 0.021252709, -1080902.1, 634828.7, 0.13140902, 10.006181, 9.997485 
1.8851498e+3, 1.349239e+2, -1110139.6, -1649660.4, 8677.406, -0.08701454, 0.07540766, -1110000.1, 507752.16, 0.09002708, 10.005119, 9.997311 
1.8851389e+3, 1.4492115e+2, -1055454.5, -1517458.9, -15414.902, 0.18495531, 0.044522192, -1054940.8, 464838.4, 0.05030909, 10.004359, 9.997908 
1.8851238e+3, 1.5491931e+2, -1005885.56, -1453123.4, 10463.255, 0.014454441, 0.06621547, -1005640.94, 416155.6, 0.0207011, 10.00393, 9.997883 
1.8851098e+3, 1.6491747e+2, -924542.7, -1302391.1, -24988.71, -0.032417167, 0.06768731, -922897.25, 400916.38, 0.005169309, 10.003492, 9.998456 
1.8850967e+3, 1.7491566e+2, -892437.1, -1239883.1, -45600.28, 0.05838781, 0.037994802, -886552.06, 339278.1, 0.00044631175, 10.003039, 9.99843 
1.8850827e+3, 1.84914e+2, -872341.0, -1177128.9, -30082.377, 0.06034998, 0.029850911, -869400.25, 258446.08, 0.0000010252129, 10.002493, 9.998451 
1.8850681e+3, 1.9491257e+2, -867727.3, -1127281.0, -7146.8564, -0.034574855, 0.041076966, -867530.7, 162330.47, 0.0, 10.001865, 9.998424 
1.8850541e+3, 2.049114e+2, -795847.44, -954634.9, -12156.79, -0.05611682, 0.04570294, -794922.06, 136950.52, 0.0, 10.00131, 9.999205 
1.8850407e+3, 2.1491052e+2, -769240.94, -893351.5, -21830.35, 0.0010170756, 0.036762316, -765513.06, 68366.87, 0.0, 10.00083, 9.999184 
1.8850265e+3, 2.2490971e+2, -726051.0, -781501.7, -43410.03, 0.01683813, 0.022861648, -702267.9, 33619.008, 0.0, 10.00028, 9.999543 
1.885012e+3, 2.3490906e+2, -719950.5, -729997.56, -43927.965, -0.013581236, -0.0006934383, -680759.75, -42867.24, 0.0, 9.99966, 9.999522 
1.8849973e+3, 2.449086e+2, -702660.44, -666499.25, -38955.64, -0.027269082, 0.0036639085, -641632.8, -101735.516, 0.0, 9.999086, 9.999561 
1.8849832e+3, 2.5490844e+2, -684201.6, -611104.56, -35282.87, -0.015650686, 0.028206535, -596852.75, -154952.08, 0.0, 9.998558, 9.999523 
1.8849692e+3, 2.6490834e+2, -602381.6, -439639.03, -24974.18, 0.018836815, 0.034833055, -435892.78, -91991.12, 0.0, 9.998097, 10.00025 
1.8849556e+3, 2.7490854e+2, -563010.94, -370369.4, -40919.19, 0.053867966, 0.025009042, -362038.06, -116139.66, 0.0, 9.997696, 10.000245 
1.8849413e+3, 2.8490883e+2, -586249.3, -377921.06, -33199.242, 0.017400904, 0.054312035, -372758.38, -224862.11, 0.0, 9.9970665, 9.999825 
1.884927e+3, 2.9490912e+2, -606583.5, -339752.6, -18325.271, -0.021217985, 0.09746506, -338499.94, -288603.06, 0.0, 9.996265, 9.999799 
1.8849158e+3, 3.0490854e+2, -559885.06, -188890.97, 30656.414, 0.21414483, 0.019684672, -186374.8, -186374.8, 0.0, 9.995807, 10.000722 
1.8849015e+3, 3.1491053e+2, -520166.5, 18467.352, -29084.506, 0.012699752, 0.1456841, 20033.27, 20033.27, 0.0, 9.995271, 10.002402 
1.89517e+3, 1.249396e+2, -1115395.1, -1705517.5, 43344.234, 0.059663236, 0.022138005, -1112228.5, 603368.4, 0.13829201, 10.006181, 9.997094 
1.8951544e+3, 1.3493732e+2, -1137897.0, -1704016.0, -26376.29, -0.12898375, 0.093993545, -1136670.8, 480950.75, 0.095110975, 10.005108, 9.996944 
1.8951426e+3, 1.4493439e+2, -1036960.8, -1475116.5, -30316.832, 0.10978467, 0.047653094, -1034873.1, 484777.16, 0.053478677, 10.004354, 9.998219 
1.8951283e+3, 1.549327e+2, -984539.6, -1409047.8, -4269.7935, 0.05749215, 0.054656737, -984496.7, 437167.94, 0.022246547, 10.003939, 9.998183 
1.8951137e+3, 1.6493085e+2, -959706.0, -1378187.4, -41266.88, 0.016809067, 0.06673917, -955675.44, 368007.03, 0.005680365, 10.003504, 9.9979315 
1.895099e+3, 1.7492884e+2, -929225.94, -1317058.5, -61194.574, -0.009126344, 0.07121282, -919799.4, 305904.22, 0.00051906763, 10.003042, 9.9979 
1.8950845e+3, 1.8492715e+2, -831518.1, -1092638.1, -52627.055, -0.010402523, 0.059682596, -821310.5, 306408.97, 0.0000013718216, 10.002493, 9.999033 
1.8950704e+3, 1.9492592e+2, -826298.75, -1041794.25, -29289.54, 0.011606471, 0.028850272, -822388.75, 207340.13, 0.0, 10.001866, 9.999011 
1.895056e+3, 2.0492472e+2, -812825.06, -990159.3, -29257.33, 0.0054894164, 0.013985315, -808122.75, 123616.91, 0.0, 10.001309, 9.998961 
1.8950413e+3, 2.1492365e+2, -787240.3, -930503.5, -38174.63, -0.027480356, 0.008645595, -777703.0, 56048.184, 0.0, 10.000828, 9.998931 
1.8950264e+3, 2.249229e+2, -725144.75, -779866.2, -65812.63, -0.03188206, 0.013688884, -681231.94, 54526.387, 0.0, 10.000279, 9.999556 
1.8950117e+3, 2.349226e+2, -719017.44, -729219.5, -65702.53, -0.011174235, 0.026251469, -658218.2, -20458.2, 0.0, 9.999662, 9.999527 
1.8949966e+3, 2.449222e+2, -693040.0, -647623.3, -57837.375, -0.008500853, 0.029159041, -608196.06, -68432.52, 0.0, 9.999089, 9.99969 
1.8949817e+3, 2.5492173e+2, -674047.6, -591322.8, -53620.93, -0.013386227, 0.010259718, -564964.8, -123196.09, 0.0, 9.998562, 9.999659 
1.8949674e+3, 2.6492143e+2, -630507.0, -500066.47, -38993.11, 0.023611281, 0.009182047, -489298.94, -145526.42, 0.0, 9.998104, 9.999832 
1.8949535e+3, 2.7492154e+2, -591344.25, -432420.97, -56044.05, 0.06981459, 0.034520183, -414645.34, -168872.69, 0.0, 9.997708, 9.999815 
1.8949383e+3, 2.8492197e+2, -535005.06, -272431.13, -63101.527, 0.014792517, 0.063494965, -258053.86, -110285.17, 0.0, 9.99707, 10.000547 
1.894923e+3, 2.9492247e+2, -560899.94, -246368.06, -41138.76, -0.04867353, 0.0575599, -241076.4, -191313.03, 0.0, 9.99627, 10.000439 
1.8949112e+3, 3.0492216e+2, -628394.56, -336894.03, 16593.047, 0.17421366, 0.025771558, -335952.53, -335952.53, 0.0, 9.995827, 9.999699 
1.8948968e+3, 3.149227e+2, -533246.5, -7155.0405, -126011.99, 0.015827535, 0.10567962, 21470.41, 21470.41, 0.0, 9.995271, 10.002223 
1.9051763e+3, 1.24953724e+2, -1152337.4, -1721232.1, 49182.85, 0.076308236, 0.047791783, -1148116.6, 567342.75, 0.14552078, 10.005917, 9.997109 
1.9051598e+3, 1.3495143e+2, -1109889.4, -1676678.6, -8108.404, -0.114908114, 0.1091605, -1109773.4, 507710.0, 0.1004632, 10.005297, 9.99704 
1.9051468e+3, 1.4494829e+2, -982273.9, -1458519.3, 7331.321, 0.08169001, 0.04174489, -982161.06, 537352.8, 0.056826007, 10.004812, 9.998118 
1.9051324e+3, 1.5494655e+2, -926987.5, -1392678.3, 3601.2468, 0.0526991, 0.055030692, -926959.6, 494569.28, 0.023890154, 10.004401, 9.9980755 
1.9051175e+3, 1.6494466e+2, -907892.7, -1354995.0, -34080.156, 0.018294211, 0.06980254, -905309.9, 418237.53, 0.006234686, 10.003873, 9.997911 
1.905102e+3, 1.7494261e+2, -899087.06, -1304628.6, -17623.232, -0.026431324, 0.07166447, -898322.6, 327246.7, 0.00060267263, 10.003259, 9.997881 
1.905087e+3, 1.8494096e+2, -815227.0, -1070369.3, -13316.019, -0.025492093, 0.05812508, -814533.94, 313050.75, 0.0000017786746, 10.002543, 9.999161 
1.9050723e+3, 1.9493984e+2, -838960.1, -1033760.4, -25245.209, 0.022183774, 0.027298676, -835741.6, 193850.5, 0.0, 10.001719, 9.999136 
1.9050574e+3, 2.0493871e+2, -844340.94, -1009458.2, -23688.34, 0.018076453, 0.014453393, -841009.7, 90592.48, 0.0, 10.001112, 9.998923 
1.905042e+3, 2.1493763e+2, -803553.25, -942373.5, -17503.795, -0.03797335, 0.012737751, -801380.25, 32234.098, 0.0, 10.000734, 9.998894 
1.9050264e+3, 2.2493689e+2, -727522.2, -779398.9, -42683.625, -0.047348287, 0.020103129, -703513.7, 32107.94, 0.0, 10.000258, 9.999568 
1.9050112e+3, 2.3493661e+2, -715468.75, -726428.3, -43110.77, -0.013347966, 0.033875637, -677490.9, -39867.906, 0.0, 9.999683, 9.9995365 
1.9049957e+3, 2.4493621e+2, -680651.4, -634464.7, -33870.875, -0.005248476, 0.031912945, -616563.6, -76937.35, 0.0, 9.999145, 9.999754 
1.9049804e+3, 2.5493568e+2, -658178.94, -576359.75, -35375.793, -0.010295867, 0.0019754863, -563185.7, -121554.28, 0.0, 9.998641, 9.9997225 
1.9049655e+3, 2.649354e+2, -647799.7, -510660.25, -11071.681, 0.026183529, 0.00081122003, -509772.16, -166137.23, 0.0, 9.997997, 9.99981 
1.9049509e+3, 2.7493557e+2, -667307.6, -471014.94, 952.5328, 0.06895523, 0.03533447, -471010.3, -225375.42, 0.0, 9.997197, 9.999795 
1.9049352e+3, 2.8493598e+2, -588120.6, -275888.13, -7691.4497, 0.019988539, 0.05066937, -275698.78, -128067.49, 0.0, 9.996612, 10.000744 
1.9049196e+3, 2.9493636e+2, -550544.5, -228251.78, -22020.404, -0.0196164, 0.013590899, -226754.2, -177127.89, 0.0, 9.996287, 10.000554 
1.9049065e+3, 3.0493668e+2, -611851.0, -327549.06, 54892.934, 0.12117083, 0.042413455, -317318.5, -317318.5, 0.0, 9.995931, 9.999715 
1.904892e+3, 3.1493625e+2, -548140.4, 1010.6677, -75962.07, 0.0228673, 0.017375393, 11324.517, 11324.517, 0.0, 9.995108, 10.002356 
1.915182e+3, 1.2496833e+2, -1133533.1, -1669348.6, 41406.766, 0.05485558, 0.09716547, -1130352.1, 584966.75, 0.15298785, 10.00591, 9.99752 
1.9151656e+3, 1.3496622e+2, -1078298.3, -1600870.1, -27020.701, -0.05241751, 0.12372722, -1076904.9, 540433.25, 0.10601323, 10.005309, 9.997567 
1.9151518e+3, 1.4496285e+2, -1015112.0, -1526331.1, -6561.1226, 0.09265579, 0.031494394, -1015027.8, 504342.53, 0.060316157, 10.004825, 9.997623 
1.9151363e+3, 1.5496083e+2, -963195.8, -1465714.3, -10460.029, 0.00048765948, 0.06588235, -962978.2, 458411.84, 0.025619933, 10.004394, 9.997574 
1.9151208e+3, 1.6495883e+2, -877454.7, -1288945.5, -56197.395, -0.026927005, 0.07360673, -869917.9, 453491.34, 0.006830015, 10.003862, 9.998372 
1.9151054e+3, 1.749569e+2, -866899.56, -1237295.3, -39013.49, 0.0030570815, 0.040959153, -862834.9, 362592.97, 0.00069744006, 10.003256, 9.998345 
1.9150898e+3, 1.8495534e+2, -837857.75, -1117872.4, -43258.188, 0.009834822, 0.02895557, -831327.3, 296115.06, 0.0000023137907, 10.002543, 9.998836 
1.9150737e+3, 1.9495428e+2, -861741.9, -1082255.9, -54982.613, -0.00435341, 0.03667348, -848793.0, 180658.58, 0.0, 10.001722, 9.998803 
1.915058e+3, 2.0495328e+2, -832465.6, -985899.06, -36725.684, -0.01810781, 0.04576623, -824128.06, 107332.89, 0.0, 10.001115, 9.999084 
1.9150427e+3, 2.1495241e+2, -791999.6, -918545.6, -29875.951, -0.03157687, 0.04832449, -785300.9, 48169.207, 0.0, 10.000733, 9.999058 
1.9150269e+3, 2.2495162e+2, -726991.0, -778116.4, -63087.754, -0.031394966, 0.042084705, -684483.75, 50993.703, 0.0, 10.000256, 9.999579 
1.9150108e+3, 2.3495102e+2, -714458.7, -724594.6, -63094.4, -0.02213097, 0.022127286, -656229.06, -18746.797, 0.0, 9.999683, 9.99955 
1.9149947e+3, 2.4495052e+2, -680736.25, -635612.06, -51673.11, -0.01854645, 0.010912164, -601790.1, -62303.637, 0.0, 9.999147, 9.999745 
1.9149789e+3, 2.5495023e+2, -658196.5, -578187.5, -52797.676, -0.009292451, 0.0033807245, -551950.3, -110460.91, 0.0, 9.998647, 9.999707 
1.9149634e+3, 2.649502e+2, -620094.94, -454375.6, -40337.297, 0.024146317, 0.011236959, -445078.75, -101589.3, 0.0, 9.998001, 10.0001955 
1.914948e+3, 2.749506e+2, -638315.1, -412538.34, -28333.625, 0.04876849, 0.028146066, -409036.97, -163551.27, 0.0, 9.997203, 10.000195 
1.914932e+3, 2.849507e+2, -611029.44, -325495.16, -19106.434, 0.032954227, 0.0133196125, -324222.34, -176737.45, 0.0, 9.996619, 10.0004 
1.9149166e+3, 2.9495057e+2, -577266.3, -289021.3, -28329.803, 0.06797302, -0.041142706, -286263.3, -236776.17, 0.0, 9.996308, 10.000129 
1.9149017e+3, 3.0495209e+2, -530067.06, -161821.44, 32723.447, 0.041876987, 0.07698392, -158936.13, -158936.13, 0.0, 9.995946, 10.000847 
1.914887e+3, 3.1495264e+2, -534177.7, 33222.992, -128794.52, 0.009269658, 0.025933186, 61089.52, 61089.52, 0.0, 9.995096, 10.002582 
1.9251879e+3, 1.249832e+2, -1082067.1, -1662398.6, 78979.734, 0.026524462, 0.09047962, -1071510.5, 643662.7, 0.16052121, 10.006476, 9.997307 
1.9251715e+3, 1.3498111e+2, -1017747.3, -1575435.4, -33756.813, -0.018595714, 0.12582406, -1015711.44, 601481.0, 0.11165553, 10.005831, 9.997513 
1.9251567e+3, 1.4497775e+2, -981039.5, -1501411.4, -16051.959, 0.09108279, 0.03336921, -980544.8, 538679.8, 0.063899584, 10.005059, 9.997689 
1.9251403e+3, 1.5497576e+2, -998033.75, -1476400.0, 17433.523, -0.009929418, 0.06562594, -997399.25, 423844.63, 0.027418694, 10.0041275, 9.997629 
1.9251245e+3, 1.6497383e+2, -933899.44, -1300325.1, -13845.301, -0.029688517, 0.07019279, -933377.06, 389885.1, 0.0074624005, 10.003407, 9.998512 
1.9251087e+3, 1.7497201e+2, -909642.9, -1242193.6, -21706.045, 0.017782748, 0.03472817, -908232.06, 317047.03, 0.0008036164, 10.002896, 9.998484 
1.9250923e+3, 1.8497047e+2, -856016.9, -1145971.9, -31530.42, 0.017921228, 0.027694905, -852627.8, 274665.78, 0.0000031359323, 10.002504, 9.998661 
1.9250755e+3, 1.9496934e+2, -798651.1, -1071860.0, -32344.246, -0.02569842, 0.047363706, -794874.2, 234430.4, 0.0, 10.002244, 9.998623 
1.9250593e+3, 2.0496836e+2, -757660.0, -931645.7, -16030.139, -0.038672723, 0.059126433, -756195.44, 175118.6, 0.0, 10.001553, 9.999245 
1.9250433e+3, 2.149676e+2, -825197.25, -916759.25, -11111.468, -0.021878766, 0.055952054, -823868.06, 9453.092, 0.0, 10.00043, 9.999215 
1.925027e+3, 2.2496681e+2, -798576.9, -810038.75, -30360.328, -0.0151393, 0.040528037, -773411.3, -38083.09, 0.0, 9.999755, 9.999601 
1.9250104e+3, 2.3496608e+2, -734949.56, -732054.5, -29753.627, -0.021591015, 0.005476671, -703713.2, -66378.62, 0.0, 9.999533, 9.999571 
1.9249938e+3, 2.4496569e+2, -673436.44, -613042.94, -16831.482, -0.023056699, -0.004351036, -608668.8, -69331.07, 0.0, 9.999117, 9.999914 
1.9249776e+3, 2.5496575e+2, -667781.7, -564033.2, -5472.583, -0.0104365535, 0.0108350385, -563745.3, -122408.71, 0.0, 9.998502, 9.999874 
1.9249614e+3, 2.6496592e+2, -626215.0, -455316.88, -2186.093, 0.01439521, 0.024859037, -455288.94, -111953.875, 0.0, 9.997952, 10.000212 
1.924945e+3, 2.7496612e+2, -598368.9, -391076.28, -19524.975, 0.026968265, 0.022519907, -389253.25, -143920.08, 0.0, 9.99747, 10.000213 
1.9249289e+3, 2.849662e+2, -576683.0, -303289.47, -7582.1035, 0.04424543, -0.00061860745, -303079.38, -155746.36, 0.0, 9.996833, 10.000449 
1.9249135e+3, 2.9496634e+2, -616983.44, -302199.88, 16500.846, 0.13872276, -0.03008549, -301337.25, -252004.75, 0.0, 9.996013, 10.000179 
1.9248965e+3, 3.049681e+2, -581570.9, -115228.23, 75464.93, -0.03644817, 0.075022556, -103320.336, -103320.336, 0.0, 9.995287, 10.001483 
1.9248824e+3, 3.149687e+2, -626515.94, -22647.398, -117677.93, 0.0786447, -0.027713006, -525.5002, -525.5002, 0.0, 9.994514, 10.002478 
1.935194e+3, 1.24998264e+2, -1132773.3, -1768193.8, 61613.203, -0.013736153, 0.027743787, -1126854.0, 588169.06, 0.16796686, 10.006484, 9.996517 
1.9351773e+3, 1.3499609e+2, -1060709.3, -1660321.8, -53054.918, -0.015186653, 0.11659978, -1056051.0, 560995.4, 0.11729586, 10.005819, 9.996903 
1.9351617e+3, 1.4499295e+2, -945498.5, -1421834.0, -46634.805, 0.075073786, 0.046340518, -940975.75, 578101.4, 0.06753133, 10.005051, 9.99828 
1.9351448e+3, 1.5499131e+2, -958205.94, -1391851.0, -14843.545, 0.016510269, 0.056059998, -957698.44, 463392.7, 0.029269964, 10.004132, 9.998213 
1.9351281e+3, 1.649896e+2, -945383.7, -1326815.5, -32333.426, 0.0037297292, 0.062802374, -942662.25, 380444.44, 0.0081277015, 10.003418, 9.998325 
1.9351116e+3, 1.7498785e+2, -921850.0, -1269454.0, -39624.414, 0.015995307, 0.05211977, -917390.3, 307733.4, 0.00092162896, 10.002903, 9.998295 
1.9350946e+3, 1.8498626e+2, -857962.56, -1150445.0, -40234.582, -0.0015576355, 0.051764462, -852528.75, 274610.44, 0.0000044945964, 10.002504, 9.998631 
1.9350776e+3, 1.9498499e+2, -800843.9, -1075591.1, -40148.08, -0.043082636, 0.058417972, -795097.3, 234054.78, 0.0, 10.002238, 9.9986 
1.9350606e+3, 2.049839e+2, -748757.4, -912251.7, -56802.43, -0.045746, 0.05505787, -730960.0, 200202.06, 0.0, 10.001547, 9.999382 
1.9350438e+3, 2.1498312e+2, -815917.25, -897283.5, -51383.906, -0.011212207, 0.03710207, -791060.9, 42107.477, 0.0, 10.000427, 9.9993515 
1.935027e+3, 2.2498238e+2, -795981.9, -805354.0, -37538.03, -0.00009009814, 0.01613598, -762838.5, -27663.756, 0.0, 9.999756, 9.999633 
1.93501e+3, 2.349817e+2, -732155.1, -727107.3, -36123.47, -0.013876366, -0.015870709, -693419.7, -56238.887, 0.0, 9.999535, 9.999604 
1.934993e+3, 2.4498162e+2, -649507.75, -564538.44, -38833.758, -0.020326788, -0.013299209, -549464.4, -10283.494, 0.0, 9.99912, 10.000247 
1.934976e+3, 2.5498223e+2, -642524.3, -513489.13, -27371.17, -0.015156792, 0.02316939, -507923.2, -66749.4, 0.0, 9.998508, 10.000219 
1.934959e+3, 2.6498243e+2, -650920.44, -508000.44, -19574.58, -0.004248722, 0.039692655, -505367.97, -162195.2, 0.0, 9.997957, 9.999848 
1.9349422e+3, 2.7498206e+2, -624562.7, -447157.16, -36137.766, -0.0016974923, 0.01856794, -440078.28, -194899.94, 0.0, 9.997476, 9.9998255 
1.9349256e+3, 2.8498232e+2, -543000.44, -236474.08, -38188.547, 0.0502259, 0.011217439, -231788.0, -84611.54, 0.0, 9.996843, 10.000904 
1.93491e+3, 2.9498363e+2, -574753.25, -220754.17, -12396.104, 0.19190913, 0.051023696, -220320.61, -171157.8, 0.0, 9.996036, 10.00073 
1.934891e+3, 3.0498448e+2, -569607.25, -91453.73, 50659.285, -0.115033396, 0.026506335, -86145.42, -86145.42, 0.0, 9.995292, 10.001644 
1.9348772e+3, 3.149855e+2, -635460.5, -45459.816, -69061.34, 0.10890736, -0.045324832, -37483.805, -37483.805, 0.0, 9.994524, 10.00232 
1.9452009e+3, 1.2501463e+2, -1104491.8, -1755784.9, 66867.6, 0.006912267, 0.03784447, -1097697.4, 617165.25, 0.1752711, 10.006795, 9.996453 
1.9451833e+3, 1.3501216e+2, -1069950.5, -1655050.9, -1644.033, -0.0022527028, 0.09054741, -1069945.9, 546942.0, 0.12289258, 10.005739, 9.996975 
1.9451663e+3, 1.4500916e+2, -957244.7, -1432994.3, 14031.139, 0.04253032, 0.03386787, -956831.25, 562086.25, 0.07118606, 10.00501, 9.9982195 
1.945149e+3, 1.5500766e+2, -911375.8, -1375219.6, -182.40347, 0.013195495, 0.064142756, -911375.75, 509555.44, 0.031162815, 10.004502, 9.998152 
1.945132e+3, 1.6500601e+2, -868121.6, -1287080.3, -26678.436, 0.006077439, 0.07805073, -866429.7, 456516.84, 0.008822942, 10.003949, 9.9983425 
1.9451144e+3, 1.7500421e+2, -851865.75, -1233713.5, -19431.96, -0.004853946, 0.06240035, -850879.44, 374083.97, 0.0010518691, 10.003378, 9.99831 
1.945097e+3, 1.8500258e+2, -840095.06, -1132592.6, -11651.4795, -0.015793193, 0.052185573, -839631.6, 287347.38, 0.0000066792695, 10.002589, 9.998712 
1.9450797e+3, 1.9500123e+2, -890675.25, -1109743.9, -4946.276, -0.020136349, 0.044251595, -890563.6, 138428.64, 0.0, 10.001584, 9.99868 
1.9450621e+3, 2.0500016e+2, -836208.94, -954444.9, -24872.566, -0.02026061, 0.03827785, -831189.7, 99812.516, 0.0, 10.000948, 9.99938 
1.9450442e+3, 2.1499947e+2, -778620.94, -879710.3, -30613.488, -0.018575102, 0.029240068, -770072.94, 62935.168, 0.0, 10.000687, 9.999347 
1.9450267e+3, 2.2499882e+2, -733401.44, -761308.06, -12348.129, -0.017643688, 0.012669247, -728722.2, 6291.1216, 0.0, 10.000128, 9.999755 
1.9450094e+3, 2.3499826e+2, -761613.06, -727358.6, -5075.0864, -0.017491747, -0.019156916, -726622.56, -89605.09, 0.0, 9.999275, 9.999726 
1.944992e+3, 2.4499823e+2, -714949.94, -601250.2, -15202.428, -0.014749415, -0.015103793, -599252.6, -60235.438, 0.0, 9.998696, 10.000197 
1.9449745e+3, 2.5499883e+2, -662254.3, -528106.6, -32870.12, -0.008216995, 0.02351736, -520485.47, -79474.13, 0.0, 9.998397, 10.000172 
1.944957e+3, 2.6499903e+2, -661543.1, -501382.97, -29893.97, -0.0047366517, 0.039993152, -495985.16, -152974.77, 0.0, 9.997835, 9.999951 
1.9449393e+3, 2.7499875e+2, -689214.8, -467874.53, -11356.027, -0.0083670635, 0.01554475, -467293.44, -222278.31, 0.0, 9.996989, 9.999916 
1.9449224e+3, 2.8499913e+2, -591822.0, -244715.53, -1857.765, 0.06028644, 0.014332839, -244705.6, -97694.13, 0.0, 9.996446, 10.001039 
1.9449064e+3, 2.9500085e+2, -535159.2, -173869.3, -1368.7139, 0.21580036, 0.079318605, -173864.11, -124870.31, 0.0, 9.996192, 10.000974 
1.9448861e+3, 3.0500135e+2, -553873.6, -89437.83, 25094.36, -0.1390457, 0.0038631426, -88085.87, -88085.87, 0.0, 9.995431, 10.001588 
1.9448721e+3, 3.1500345e+2, -673259.7, -56019.76, -27373.582, 0.16202684, 0.052900936, -54808.168, -54808.168, 0.0, 9.994233, 10.002387 
1.9552082e+3, 1.2503217e+2, -1077117.0, -1678910.8, 28151.582, 0.06986727, 0.11143385, -1075803.0, 638890.0, 0.18249276, 10.00679, 9.997028 
1.9551893e+3, 1.3502927e+2, -1030629.2, -1562126.3, -33813.848, 0.016193062, 0.049638987, -1028486.6, 588231.44, 0.12847118, 10.005743, 9.997665 
1.9551708e+3, 1.4502631e+2, -1003149.0, -1526896.3, -2456.0352, -0.008664781, -0.0010906348, -1003137.5, 515609.13, 0.07486868, 10.005017, 9.997527 
1.9551532e+3, 1.5502474e+2, -958999.0, -1473878.3, -17370.502, -0.020623818, 0.08919248, -958413.6, 462351.22, 0.033095997, 10.004501, 9.997466 
1.9551356e+3, 1.6502297e+2, -854294.1, -1256907.6, -46706.6, -0.022972168, 0.114717714, -848946.8, 473835.56, 0.009546865, 10.003944, 9.998555 
1.9551174e+3, 1.7502104e+2, -837734.1, -1203343.1, -38909.2, -0.045190636, 0.065646365, -833639.2, 391159.63, 0.0011943025, 10.003373, 9.998522 
1.9550996e+3, 1.8501934e+2, -828370.4, -1107831.4, -47764.367, -0.027388243, 0.030547034, -820432.2, 306381.44, 0.000009907366, 10.002585, 9.998884 
1.955082e+3, 1.9501801e+2, -878252.0, -1084932.9, -40837.004, 0.040042587, 0.0068279384, -870475.8, 158350.02, 0.0, 10.001587, 9.99885 
1.9550636e+3, 2.0501705e+2, -846014.06, -976223.06, -33416.855, 0.03518604, 0.009391265, -837938.75, 92896.51, 0.0, 10.000953, 9.9992285 
1.9550447e+3, 2.150165e+2, -788893.56, -901325.94, -38487.816, -0.045577124, 0.031499393, -776980.6, 55860.664, 0.0, 10.000686, 9.999199 
1.9550264e+3, 2.2501603e+2, -718975.8, -731691.25, -43111.49, -0.06886785, 0.029304337, -681755.75, 53089.094, 0.0, 10.000127, 9.99996 
1.9550084e+3, 2.3501566e+2, -747230.4, -697738.7, -35507.508, -0.03371865, -0.004019273, -679204.75, -42359.344, 0.0, 9.999274, 9.999931 
1.9549908e+3, 2.4501541e+2, -745431.9, -665520.75, -25508.402, -0.007799201, -0.009649687, -658072.44, -119224.88, 0.0, 9.998699, 9.999755 
1.954973e+3, 2.550154e+2, -692917.6, -593224.4, -42749.938, 0.007121684, 0.012646798, -577403.4, -136553.22, 0.0, 9.998402, 9.9997225 
1.954955e+3, 2.6501563e+2, -621012.25, -418445.97, -61253.582, 0.011070524, 0.026805872, -401364.1, -58515.22, 0.0, 9.997838, 10.000522 
1.9549364e+3, 2.7501598e+2, -647730.3, -385080.4, -42150.477, 0.006562077, 0.010199634, -378481.8, -133636.94, 0.0, 9.997002, 10.000481 
1.954919e+3, 2.8501657e+2, -604712.5, -274541.25, -11921.387, 0.07228941, 0.00647605, -274111.34, -127272.08, 0.0, 9.996457, 10.000829 
1.9549024e+3, 2.9501793e+2, -540652.25, -188005.13, -11438.758, 0.20044403, 0.057098214, -187634.47, -138807.92, 0.0, 9.996201, 10.000874 
1.9548818e+3, 3.0501845e+2, -576789.44, -136868.31, -23872.361, -0.10106457, 0.0037449955, -135576.67, -135576.67, 0.0, 9.995431, 10.001262 
1.954866e+3, 3.1502008e+2, -641168.25, -2837.7817, 14738.268, 0.135021, 0.04823264, -2497.6743, -2497.6743, 0.0, 9.994279, 10.002737 
1.9652149e+3, 1.2505022e+2, -1051902.3, -1659403.0, 47963.28, 0.054801162, 0.13421984, -1048138.8, 666378.0, 0.18973818, 10.007025, 9.997083 
1.9651952e+3, 1.3504711e+2, -983518.2, -1529630.6, -40950.953, 0.029298529, 0.04344165, -980464.5, 636078.44, 0.13409843, 10.006109, 9.997747 
1.9651757e+3, 1.4504427e+2, -978730.25, -1526380.3, -152.88345, -0.023418866, 0.0064570834, -978730.25, 539839.75, 0.07860899, 10.00528, 9.997401 
1.9651577e+3, 1.5504235e+2, -976094.7, -1496621.3, 20864.842, -0.023716263, 0.076163985, -975259.7, 445332.0, 0.035076357, 10.004451, 9.997334 
1.9651394e+3, 1.6504046e+2, -895693.06, -1269732.0, 6846.285, -0.016825864, 0.0947138, -895567.8, 427042.44, 0.010298444, 10.00363, 9.998617 
1.9651206e+3, 1.7503868e+2, -910934.25, -1231026.8, 2944.3198, -0.0363731, 0.053369228, -910907.2, 313718.1, 0.0013479488, 10.00284, 9.998587 
1.965102e+3, 1.8503705e+2, -867719.5, -1126245.5, -15649.633, -0.024401592, 0.0209163, -866775.6, 259863.72, 0.000014253208, 10.002316, 9.998885 
1.9650836e+3, 1.950357e+2, -810607.8, -1052162.4, -21949.992, 0.030319147, -0.0048559904, -808629.4, 220022.05, 0.0, 10.002053, 9.998849 
1.9650647e+3, 2.050347e+2, -776761.75, -950697.1, -15660.61, 0.022642666, 0.00063501636, -775362.94, 155298.27, 0.0, 10.001464, 9.999156 
1.9650453e+3, 2.1503416e+2, -812517.06, -920525.94, -16147.774, -0.05209941, 0.029570458, -810154.6, 22513.457, 0.0, 10.00056, 9.999126 
1.9650264e+3, 2.2503372e+2, -747290.75, -736576.94, -23984.73, -0.070405036, 0.031011852, -717358.2, 17313.133, 0.0, 9.999898, 10.000035 
1.9650078e+3, 2.3503345e+2, -712048.1, -672513.2, -26980.332, -0.03063003, -0.0009215272, -658833.8, -22163.467, 0.0, 9.999481, 10.000004 
1.9649895e+3, 2.4503312e+2, -731461.0, -665626.4, -5471.08, 0.00023176786, -0.01566203, -665174.8, -126501.5, 0.0, 9.998825, 9.999693 
1.9649711e+3, 2.5503284e+2, -767345.44, -635671.0, 4969.156, 0.020114422, -0.013671979, -635483.75, -194804.88, 0.0, 9.997923, 9.9996605 
1.9649525e+3, 2.6503316e+2, -680553.5, -419984.5, -10296.769, 0.021993594, -0.00042256183, -419578.22, -76901.48, 0.0, 9.997316, 10.00076 
1.9649334e+3, 2.7503398e+2, -632784.5, -351265.72, -16721.166, 0.012452412, 0.005413758, -350276.03, -105608.49, 0.0, 9.996993, 10.000714 
1.9649154e+3, 2.850346e+2, -621195.44, -307756.66, 3514.7908, 0.06771979, 0.010277927, -307717.25, -161055.97, 0.0, 9.996454, 10.000601 
1.9648981e+3, 2.9503554e+2, -624793.1, -246156.36, 1738.095, 0.1691193, 0.041508093, -246148.38, -197494.72, 0.0, 9.995703, 10.000712 
1.9648778e+3, 3.050361e+2, -633320.9, -169145.2, -19332.318, -0.03186903, -0.002713649, -168341.42, -168341.42, 0.0, 9.9950695, 10.001212 
1.96486e+3, 3.150376e+2, -579097.75, 47301.504, 87546.77, 0.07556684, 0.04071167, 59307.113, 59307.113, 0.0, 9.994616, 10.002921 
1.975221e+3, 1.2506865e+2, -1082275.0, -1708497.0, 8904.16, -0.035920892, 0.10476344, -1082148.4, 632187.06, 0.1970886, 10.007012, 9.996675 
1.9752014e+3, 1.3506564e+2, -1016533.06, -1588606.5, -67101.33, 0.03414941, 0.0715809, -1008767.8, 607595.2, 0.13983081, 10.006102, 9.997286 
1.9751811e+3, 1.4506297e+2, -956802.1, -1475726.5, -25627.688, -0.008780947, 0.05531324, -955539.5, 562848.4, 0.082435116, 10.005279, 9.997776 
1.9751623e+3, 1.5506046e+2, -951445.1, -1442247.1, -7211.288, -0.00021999737, 0.027490413, -951339.2, 469073.06, 0.037110653, 10.004453, 9.997706 
1.9751434e+3, 1.6505848e+2, -901593.8, -1283218.9, -21890.744, 0.019975983, 0.022092372, -900342.2, 422088.72, 0.011075855, 10.003636, 9.998523 
1.975124e+3, 1.7505705e+2, -916187.4, -1244489.9, -25070.244, 0.017718365, 0.026986483, -914284.0, 310159.75, 0.0015109085, 10.00285, 9.99849 
1.9751044e+3, 1.8505558e+2, -878287.06, -1150219.4, -24221.307, -0.009495085, 0.022958754, -876146.5, 250310.66, 0.000019590076, 10.002323, 9.998718 
1.9750848e+3, 1.9505416e+2, -821895.2, -1076238.1, -30048.7, -0.04918832, 0.008056979, -818393.4, 210076.72, 0.0, 10.002054, 9.998684 
1.9750653e+3, 2.0505308e+2, -777089.25, -951642.25, -48079.72, -0.05728536, 0.010959403, -764722.2, 165758.77, 0.0, 10.001463, 9.999151 
1.975046e+3, 2.1505237e+2, -813217.8, -921728.9, -47859.715, -0.03955024, 0.024489451, -795125.5, 37363.62, 0.0, 10.000557, 9.999121 
1.9750266e+3, 2.2505182e+2, -751558.44, -746011.94, -38125.906, -0.024766486, 0.01883434, -710558.56, 23934.91, 0.0, 9.999898, 9.999971 
1.9750075e+3, 2.350515e+2, -716248.9, -682406.94, -40764.176, -0.0107740695, -0.010349957, -655191.3, -18697.916, 0.0, 9.999485, 9.999934 
1.9749884e+3, 2.450512e+2, -709046.25, -620456.44, -38805.355, 0.007961321, -0.033197824, -605862.5, -67367.16, 0.0, 9.998829, 10.000003 
1.9749692e+3, 2.55051e+2, -744909.06, -590871.6, -28127.225, 0.028483253, -0.056170493, -585896.3, -145397.66, 0.0, 9.997928, 9.999967 
1.97495e+3, 2.650514e+2, -686958.2, -435021.97, -22449.25, 0.026027678, -0.04256502, -433037.22, -90542.016, 0.0, 9.997323, 10.000654 
1.9749305e+3, 2.750525e+2, -639693.56, -368022.66, -28726.518, 0.0072402447, 0.0017024145, -365018.3, -120534.04, 0.0, 9.997002, 10.000597 
1.9749115e+3, 2.8505316e+2, -638282.0, -344835.94, -25501.629, 0.04292536, 0.027092354, -342636.22, -196157.56, 0.0, 9.99646, 10.000344 
1.9748932e+3, 2.9505357e+2, -638926.5, -280200.78, -26456.252, 0.11344259, 0.029282028, -278260.1, -229783.2, 0.0, 9.995721, 10.000471 
1.9748738e+3, 3.0505407e+2, -619062.7, -143326.73, -42285.824, 0.07562892, -0.014333962, -139597.39, -139597.39, 0.0, 9.995085, 10.001383 
1.9748548e+3, 3.150557e+2, -591828.4, 15085.875, 43195.582, 0.0895017, 0.02296252, 18144.793, 18144.793, 0.0, 9.9946375, 10.00269 
1.9852278e+3, 1.25088e+2, -1165425.4, -1756595.5, 34824.43, -0.03631399, 0.07380925, -1163381.0, 550762.8, 0.20456333, 10.006357, 9.996653 
1.9852076e+3, 1.35085e+2, -1024125.5, -1607677.0, -10209.539, 0.04981857, 0.059831858, -1023946.94, 592225.75, 0.1456726, 10.00616, 9.997106 
1.9851865e+3, 1.4508255e+2, -910496.3, -1442088.1, 22545.994, -0.013097948, 0.06833573, -909541.75, 608653.94, 0.086344324, 10.005596, 9.997877 
1.9851668e+3, 1.5507981e+2, -929527.1, -1418421.4, 22161.768, -0.0044075907, 0.009138017, -928524.56, 491696.22, 0.039194882, 10.004567, 9.997812 
1.9851471e+3, 1.6507773e+2, -882646.44, -1296902.1, 8496.24, 0.016587544, -0.0019927337, -882472.25, 439768.22, 0.011875872, 10.003877, 9.998309 
1.985127e+3, 1.7507629e+2, -833676.2, -1228282.6, -4122.295, 0.01408503, 0.023547241, -833633.1, 390621.3, 0.0016810263, 10.003523, 9.998276 
1.9851069e+3, 1.8507475e+2, -797329.0, -1112836.6, -2343.679, -0.016048813, 0.025310416, -797311.6, 328957.16, 0.000025644316, 10.002889, 9.998702 
1.9850866e+3, 1.9507323e+2, -831864.6, -1082535.4, 2026.1492, -0.062426645, 0.0010148899, -831848.25, 196434.16, 0.0, 10.001994, 9.998669 
1.9850665e+3, 2.0507206e+2, -807055.9, -964947.06, -16487.65, -0.066993624, -0.0012264107, -805352.5, 124941.016, 0.0, 10.001255, 9.99916 
1.9850466e+3, 2.1507137e+2, -797253.6, -913022.44, -16479.082, -0.03499291, 0.011542741, -794953.6, 37348.016, 0.0, 10.000664, 9.999128 
1.9850267e+3, 2.2507077e+2, -753254.0, -761458.2, -3726.1868, -0.012395334, 0.0072394004, -751814.3, -17507.328, 0.0, 9.99995, 9.999839 
1.985007e+3, 2.3507036e+2, -779548.0, -726977.5, -11319.747, 0.0035275028, -0.017999604, -724643.7, -88334.94, 0.0, 9.999114, 9.999806 
1.9849871e+3, 2.4507014e+2, -748018.5, -619590.2, -17950.115, 0.0153269265, -0.03404484, -617128.5, -78818.78, 0.0, 9.998482, 10.000174 
1.9849671e+3, 2.5507015e+2, -714864.25, -557275.0, -17464.896, 0.02014828, -0.05053611, -555362.7, -115053.13, 0.0, 9.9980545, 10.000135 
1.9849473e+3, 2.6507047e+2, -667933.6, -442845.88, -11525.572, 0.020102639, -0.04629454, -442257.25, -99950.375, 0.0, 9.997527, 10.000501 
1.9849275e+3, 2.750713e+2, -668877.1, -398760.94, -22911.951, 0.022743497, -0.016897902, -396831.28, -152531.27, 0.0, 9.996877, 10.000444 
1.984908e+3, 2.8507212e+2, -652080.06, -318777.56, -6888.154, 0.04752227, 0.018939005, -318635.25, -172342.69, 0.0, 9.996227, 10.000634 
1.9848886e+3, 2.9507294e+2, -644618.44, -256616.27, 32758.592, 0.07836609, 0.034149654, -253869.92, -205584.44, 0.0, 9.995572, 10.000704 
1.9848694e+3, 3.0507308e+2, -644328.25, -179865.47, 25246.563, 0.11088296, -0.043292727, -178497.19, -178497.19, 0.0, 9.995015, 10.001165 
1.984849e+3, 3.1507435e+2, -608711.75, -2649.5857, 47884.938, 0.064617746, -0.025415221, 1110.4728, 1110.4728, 0.0, 9.994564, 10.002603 
1.9952348e+3, 1.2510821e+2, -1156630.5, -1717829.5, 14962.139, 0.0323151, 0.039348066, -1156231.9, 557710.75, 0.2121332, 10.006349, 9.996922 
1.995214e+3, 1.3510515e+2, -1025686.3, -1602489.4, -13948.097, 0.07111727, 0.012815108, -1025349.2, 590623.7, 0.15158758, 10.00616, 9.9971485 
1.9951919e+3, 1.4510292e+2, -921690.5, -1462378.1, -11566.485, -0.03770905, 0.050847255, -921443.2, 596551.0, 0.09030972, 10.005603, 9.997725 
1.995171e+3, 1.5510033e+2, -938693.0, -1438303.1, -13806.198, -0.03604706, 0.019563517, -938311.75, 481706.63, 0.04131726, 10.004576, 9.997673 
1.9951504e+3, 1.650981e+2, -905937.06, -1346372.8, -3513.707, -0.027473196, 0.019792285, -905909.06, 416130.88, 0.012695438, 10.003881, 9.997966 
1.99513e+3, 1.750963e+2, -857403.25, -1277746.0, -15484.544, -0.04655689, 0.042184267, -856833.6, 367224.75, 0.0018570487, 10.003523, 9.997938 
1.9951095e+3, 1.8509449e+2, -788926.9, -1095184.3, -34464.61, -0.04503698, 0.02796566, -785096.3, 340978.75, 0.000032100925, 10.002886, 9.998826 
1.9950892e+3, 1.9509278e+2, -823524.0, -1065425.6, -29324.756, -0.0124237705, -0.025050927, -820019.9, 208069.3, 0.0, 10.001993, 9.998788 
1.9950683e+3, 2.0509163e+2, -806381.4, -964439.1, -37293.28, -0.010088282, -0.034891605, -798024.0, 132075.89, 0.0, 10.001257, 9.999164 
1.9950472e+3, 2.1509106e+2, -796894.8, -912942.6, -36699.625, -0.040988296, -0.00886774, -786262.75, 45843.94, 0.0, 10.000666, 9.999129 
1.9950263e+3, 2.2509046e+2, -766268.3, -789426.6, -34010.926, -0.034193233, -0.0038979123, -741919.5, -7806.68, 0.0, 9.999953, 9.999647 
1.995006e+3, 2.350899e+2, -793018.9, -755467.0, -41018.594, 0.01111006, -0.023541879, -729131.25, -93013.94, 0.0, 9.999114, 9.999612 
1.9949856e+3, 2.4508983e+2, -746063.44, -616755.2, -33402.008, 0.020256573, -0.017801657, -608636.7, -70519.35, 0.0, 9.998485, 10.000193 
1.9949648e+3, 2.5509024e+2, -711938.4, -553773.75, -32300.62, -0.007703486, 0.002771488, -547431.56, -107318.9, 0.0, 9.998063, 10.000156 
1.9949445e+3, 2.6509026e+2, -681683.2, -473770.75, -36315.074, 0.0036141116, -0.01055469, -467610.3, -125497.4, 0.0, 9.997536, 10.000286 
1.9949247e+3, 2.7509016e+2, -681312.7, -428949.13, -47711.96, 0.056215122, -0.051051036, -420229.94, -176113.78, 0.0, 9.996892, 10.000231 
1.9949044e+3, 2.850913e+2, -590801.56, -194074.33, -32579.266, 0.07885092, -0.01666319, -191416.72, -45312.105, 0.0, 9.996237, 10.001486 
1.9948839e+3, 2.950935e+2, -593052.0, -151556.4, 7587.9126, 0.0629103, 0.052591, -151426.03, -103345.22, 0.0, 9.995578, 10.001423 
1.9948639e+3, 3.0509305e+2, -685277.7, -268126.75, 7981.504, 0.065344796, -0.084711626, -267974.1, -267974.1, 0.0, 9.995027, 10.000555 
1.9948445e+3, 3.1509435e+2, -609199.7, -4152.453, -27544.074, 0.15606543, -0.012989273, -2901.1294, -2901.1294, 0.0, 9.994574, 10.002584 
2.0052412e+3, 1.2512898e+2, -1098496.8, -1671070.1, 21483.215, 0.016883962, -0.005056162, -1097691.9, 616044.6, 0.21980305, 10.0068245, 9.997093 
2.0052199e+3, 1.3512602e+2, -1055427.3, -1622107.1, 2643.5012, 0.061762195, -0.013688103, -1055415.0, 560351.2, 0.1575676, 10.005984, 9.997081 
2.0051973e+3, 1.4512381e+2, -956380.56, -1497153.3, -2997.8286, -0.049350556, 0.03950943, -956363.94, 561424.0, 0.09432167, 10.005457, 9.997529 
2.0051758e+3, 1.5512115e+2, -874442.94, -1426880.8, -12156.351, -0.044095997, 0.02260313, -874175.56, 545637.8, 0.043472838, 10.005139, 9.997479 
2.0051545e+3, 1.6511878e+2, -832383.4, -1316762.8, 4557.459, -0.035652474, 0.020915555, -832340.44, 489496.03, 0.013533494, 10.004425, 9.997908 
2.0051333e+3, 1.7511673e+2, -885868.9, -1297770.0, 12125.203, -0.05780403, 0.023965444, -885512.25, 338344.75, 0.0020388814, 10.003357, 9.997879 
2.0051122e+3, 1.8511482e+2, -838790.7, -1119345.3, -1960.9473, -0.05224624, 0.0027232247, -838777.0, 287097.44, 0.00003871262, 10.002547, 9.998821 
2.0050912e+3, 1.9511317e+2, -827054.1, -1067355.1, -6882.192, -0.009115563, -0.04418361, -826857.2, 201030.67, 0.0, 10.001973, 9.998782 
2.0050697e+3, 2.0511203e+2, -804041.56, -973586.2, -19839.906, -0.004114519, -0.047482505, -801750.9, 128147.734, 0.0, 10.00132, 9.999069 
2.0050478e+3, 2.1511142e+2, -814164.2, -931789.5, -27272.586, -0.039870717, -0.015730977, -808148.44, 23757.682, 0.0, 10.000593, 9.999034 
2.0050263e+3, 2.2511077e+2, -762521.56, -795301.6, -22320.053, -0.035917252, -0.0074696457, -751220.1, -17307.113, 0.0, 10.000013, 9.999577 
2.0050053e+3, 2.3511015e+2, -730307.9, -733352.5, -21094.008, 0.008321033, -0.025633201, -710681.3, -74762.83, 0.0, 9.99958, 9.999538 
2.0049843e+3, 2.4510999e+2, -681291.9, -594618.1, -10802.197, 0.018644359, -0.02118501, -593292.1, -55372.54, 0.0, 9.998968, 10.000112 
2.004963e+3, 2.551103e+2, -701529.06, -556805.8, -18041.184, -0.0043092174, -0.0024551817, -554590.75, -114674.84, 0.0, 9.998171, 10.000082 
2.004942e+3, 2.6511037e+2, -704556.06, -471206.1, -18405.467, 0.0058907345, -0.012259964, -469763.28, -127847.87, 0.0, 9.997324, 10.000403 
2.0049213e+3, 2.7511042e+2, -739148.9, -442957.56, -3816.8635, 0.05116398, -0.048889372, -442908.4, -198991.44, 0.0, 9.996439, 10.000351 
2.0049006e+3, 2.8511158e+2, -642450.06, -208612.58, 3452.997, 0.08317272, -0.024351409, -208585.11, -62679.816, 0.0, 9.99584, 10.001576 
2.0048797e+3, 2.9511377e+2, -615192.7, -160535.88, -17232.635, 0.09503033, 0.036106985, -159883.66, -112002.03, 0.0, 9.995421, 10.001435 
2.0048586e+3, 3.0511358e+2, -708638.75, -268884.53, -11721.268, 0.03559764, -0.07680409, -268572.3, -268572.3, 0.0, 9.994821, 10.000649 
2.0048392e+3, 3.1511462e+2, -641867.8, 22088.81, -12357.273, 0.19191599, -0.047049217, 22318.719, 22318.719, 0.0, 9.994177, 10.002951 
2.0152469e+3, 1.2515031e+2, -1099575.4, -1659956.0, -17405.787, -0.08230318, -0.049655754, -1099035.3, 614490.2, 0.22774053, 10.006819, 9.997199 
2.0152256e+3, 1.3514756e+2, -1068475.9, -1643412.5, -21127.793, 0.021325044, -0.023943277, -1067700.5, 547852.7, 0.16371544, 10.005979, 9.996939 
2.0152026e+3, 1.4514515e+2, -976512.44, -1535189.0, -11189.088, -0.05298387, 0.030631743, -976288.44, 541289.1, 0.09842909, 10.005452, 9.997257 
2.015181e+3, 1.5514229e+2, -894037.75, -1466111.3, -21713.254, -0.033198096, 0.020094903, -893214.8, 526391.44, 0.045678284, 10.005135, 9.997213 
2.0151591e+3, 1.6513976e+2, -819287.94, -1288770.4, -33853.645, -0.013003512, 0.0051379176, -816859.4, 504771.25, 0.014394222, 10.004423, 9.998104 
2.015137e+3, 1.751375e+2, -871850.94, -1270104.6, -25872.977, -0.023043115, -0.029541813, -870177.1, 353474.1, 0.0022278295, 10.003362, 9.998068 
2.0151147e+3, 1.8513565e+2, -846849.0, -1137817.1, -21958.31, -0.040372368, -0.049321525, -845201.25, 280466.56, 0.000045408513, 10.002553, 9.9986925 
2.0150927e+3, 1.951343e+2, -835480.06, -1086310.1, -26706.303, -0.053166937, -0.055377442, -832668.06, 195011.28, 0.0, 10.001978, 9.998651 
2.0150706e+3, 2.0513317e+2, -817003.5, -1002028.06, -45504.008, -0.04892627, -0.03961748, -806418.06, 123272.51, 0.0, 10.001324, 9.998873 
2.0150484e+3, 2.1513233e+2, -827854.56, -960571.75, -52217.1, -0.033042133, -0.009740283, -809773.3, 21927.44, 0.0, 10.000593, 9.998837 
2.0150265e+3, 2.2513157e+2, -759714.0, -790279.44, -37189.242, -0.019706884, -0.0034039533, -734789.75, -1081.2234, 0.0, 10.000015, 9.999612 
2.0150048e+3, 2.3513098e+2, -727186.7, -728435.94, -35974.06, -0.0071286676, -0.024207436, -691831.8, -56118.582, 0.0, 9.999585, 9.999571 
2.0149831e+3, 2.451305e+2, -692996.7, -621001.4, -40069.406, 0.0097918715, -0.044322778, -603134.5, -65417.016, 0.0, 9.998975, 9.999928 
2.0149615e+3, 2.551302e+2, -713122.6, -583340.5, -47618.344, 0.02854517, -0.06766098, -567743.3, -128022.95, 0.0, 9.998179, 9.999897 
2.0149396e+3, 2.6513067e+2, -671858.8, -405132.72, -52187.73, 0.024337143, -0.051596254, -395285.22, -53569.688, 0.0, 9.99733, 10.000855 
2.0149173e+3, 2.7513197e+2, -705537.1, -375825.1, -35254.785, 0.003171122, -0.009789355, -372097.56, -128394.25, 0.0, 9.996448, 10.000809 
2.0148961e+3, 2.8513283e+2, -691811.1, -312211.2, -12543.102, 0.06012748, -0.0038586874, -311797.16, -166101.47, 0.0, 9.995843, 10.000864 
2.014876e+3, 2.951335e+2, -664583.94, -265985.3, -36802.26, 0.17665425, -0.01894061, -262615.88, -214925.94, 0.0, 9.995432, 10.000708 
2.014853e+3, 3.0513456e+2, -645023.0, -139468.97, -36683.305, 0.010230499, -0.01717852, -136821.08, -136821.08, 0.0, 9.99483, 10.001534 
2.0148328e+3, 3.1513622e+2, -592116.7, 122760.21, 8859.338, 0.13421382, -0.016349796, 122869.984, 122869.984, 0.0, 9.994189, 10.003635 
2.0252535e+3, 1.2517251e+2, -1147381.5, -1673141.9, -12026.789, -0.103754684, -0.06351477, -1147106.6, 566200.7, 0.23630275, 10.006409, 9.997282 
2.0252314e+3, 1.3517e+2, -1046789.44, -1634988.1, -528.28674, 0.009224903, -0.007353435, -1046788.94, 568543.8, 0.17025083, 10.006223, 9.996878 
2.0252083e+3, 1.4516723e+2, -949296.0, -1523136.1, 18232.596, -0.050173514, 0.016728453, -948717.25, 568642.94, 0.102737285, 10.005698, 9.997222 
2.025186e+3, 1.5516414e+2, -946876.5, -1497355.3, 23165.154, -0.03775315, -0.013373509, -945903.4, 473487.34, 0.04797165, 10.0047865, 9.997166 
2.0251633e+3, 1.6516156e+2, -865269.6, -1315315.0, 7414.2188, -0.019459063, -0.027974261, -865147.5, 456267.94, 0.015288507, 10.004128, 9.998058 
2.0251405e+3, 1.7515944e+2, -823268.7, -1251299.3, -2168.701, -0.023902647, -0.04511676, -823257.7, 400177.28, 0.0024268308, 10.003719, 9.998022 
2.0251176e+3, 1.851576e+2, -776498.94, -1118926.8, -5041.46, -0.041501693, -0.053896982, -776424.75, 349026.94, 0.000052349504, 10.003103, 9.998556 
2.0250948e+3, 1.9515613e+2, -798914.4, -1084320.4, -11655.179, -0.062131826, -0.054939166, -798439.2, 229025.39, 0.0, 10.002297, 9.99851 
2.0250718e+3, 2.0515484e+2, -792256.94, -996424.9, -27269.047, -0.05562813, -0.046859477, -788677.56, 140799.83, 0.0, 10.001523, 9.998816 
2.0250492e+3, 2.1515375e+2, -805538.44, -955775.6, -24722.525, -0.026756003, -0.036371525, -801574.75, 29914.781, 0.0, 10.000774, 9.998782 
2.0250267e+3, 2.2515291e+2, -757253.1, -798560.75, -1247.6696, -0.013326872, -0.030978462, -757215.5, -23717.479, 0.0, 10.000074, 9.999526 
2.0250043e+3, 2.3515238e+2, -758019.1, -752513.25, -9341.8955, -0.012513542, -0.036757812, -745527.1, -110024.62, 0.0, 9.999414, 9.999487 
2.024982e+3, 2.4515188e+2, -737924.3, -637926.6, -19172.08, 0.0053472533, -0.054948475, -634376.9, -96869.914, 0.0, 9.998649, 9.999968 
2.0249596e+3, 2.551515e+2, -768465.9, -606085.5, -10388.738, 0.036740445, -0.086003, -605423.56, -165913.33, 0.0, 9.997785, 9.99993 
2.0249368e+3, 2.6515204e+2, -702327.9, -427862.06, -19378.672, 0.03000563, -0.06564338, -426500.6, -84995.38, 0.0, 9.997156, 10.000782 
2.0249137e+3, 2.7515334e+2, -669054.56, -365897.25, -42429.992, -0.0047423425, -0.012866436, -360070.72, -116578.14, 0.0, 9.996733, 10.000739 
2.024892e+3, 2.85154e+2, -666652.1, -312131.1, -16554.705, 0.053507358, -0.015520933, -311359.72, -165872.89, 0.0, 9.99607, 10.000753 
2.0248713e+3, 2.951545e+2, -705722.5, -290916.66, 3433.2668, 0.18066444, -0.04213926, -290888.22, -243404.6, 0.0, 9.995175, 10.000658 
2.0248477e+3, 3.0515575e+2, -690274.0, -138913.9, 8127.0396, 0.008494594, -0.029525988, -138794.14, -138794.14, 0.0, 9.994424, 10.001734 
2.024827e+3, 3.151577e+2, -651305.9, 87683.66, 36890.66, 0.15458025, -0.015319975, 89520.69, 89520.69, 0.0, 9.9938135, 10.003575 
2.0352602e+3, 1.2519555e+2, -1156384.3, -1673106.8, -26482.145, -0.06441527, -0.04632676, -1155030.5, 558051.8, 0.24586998, 10.006381, 9.9973 
2.0352378e+3, 1.3519329e+2, -1053812.9, -1638379.5, -4147.0, 0.017173663, 0.038534556, -1053783.5, 561321.6, 0.17740907, 10.006212, 9.99686 
2.035214e+3, 1.4519003e+2, -940535.4, -1499565.0, -10981.104, -0.046411656, 0.0047135716, -940319.75, 576816.4, 0.10736291, 10.005702, 9.997397 
2.0351905e+3, 1.5518656e+2, -936745.44, -1474376.9, -8159.3145, -0.058382757, -0.078011505, -936621.6, 482546.4, 0.050400153, 10.004791, 9.997322 
2.035167e+3, 1.6518405e+2, -884302.1, -1355767.4, -6420.01, -0.054815203, -0.08020379, -884214.7, 436977.5, 0.016232604, 10.004131, 9.99778 
2.0351438e+3, 1.7518239e+2, -842293.06, -1291338.3, -15720.137, -0.060303163, -0.023894098, -841743.44, 381465.84, 0.0026405435, 10.00372, 9.997748 
2.0351204e+3, 1.8518053e+2, -787706.2, -1142365.8, -33820.195, -0.05705746, -0.012354184, -784509.9, 340717.16, 0.00006006165, 10.003102, 9.998397 
2.0350972e+3, 1.951786e+2, -810269.25, -1107821.6, -39750.41, -0.03864602, -0.043311812, -805050.5, 222193.92, 0.0, 10.0022955, 9.998351 
2.0350738e+3, 2.0517692e+2, -787217.4, -986623.94, -53763.723, -0.02654667, -0.06863303, -773645.44, 155614.66, 0.0, 10.001523, 9.998883 
2.03505e+3, 2.1517555e+2, -800445.6, -946374.4, -50534.223, -0.023034826, -0.094170116, -784654.7, 46618.695, 0.0, 10.000777, 9.998846 
2.0350266e+3, 2.2517464e+2, -770667.44, -828120.25, -24720.29, -0.017949253, -0.089562766, -761495.3, -28212.766, 0.0, 10.000079, 9.999321 
2.0350036e+3, 2.3517421e+2, -771343.56, -781160.0, -32530.117, -0.009364837, -0.06383991, -743353.5, -108066.14, 0.0, 9.999416, 9.99929 
2.0349805e+3, 2.4517404e+2, -719872.5, -601755.25, -51228.08, 0.003968907, -0.052393522, -582633.06, -45344.18, 0.0, 9.998652, 10.000216 
2.0349571e+3, 2.5517422e+2, -750582.7, -570973.8, -41781.277, 0.017647674, -0.05650471, -561730.25, -122443.89, 0.0, 9.997791, 10.00017 
2.0349339e+3, 2.6517436e+2, -743705.5, -515976.34, -35310.17, 0.021649115, -0.055571992, -510627.03, -169341.48, 0.0, 9.997164, 10.0001745 
2.0349108e+3, 2.7517444e+2, -709853.6, -454531.8, -58459.0, 0.02548468, -0.0630189, -441783.44, -198497.0, 0.0, 9.996747, 10.000124 
2.0348881e+3, 2.851751e+2, -629629.2, -237732.08, -51503.43, 0.06124708, -0.0589944, -231076.48, -85796.664, 0.0, 9.996079, 10.001262 
2.0348656e+3, 2.951767e+2, -659306.1, -197360.03, -30792.6, 0.10270975, -0.023840383, -195316.48, -148054.02, 0.0, 9.995185, 10.001297 
2.0348422e+3, 3.051769e+2, -727439.7, -216334.83, -15916.163, 0.029659001, -0.13206507, -215839.67, -215839.67, 0.0, 9.994424, 10.001203 
2.0348209e+3, 3.151789e+2, -680954.0, 18394.424, 57693.484, 0.16625656, -0.046205945, 23121.951, 23121.951, 0.0, 9.993838, 10.003093 
2.0452668e+3, 1.2521891e+2, -1214455.6, -1693028.6, -16717.236, -0.021442682, -0.029507, -1213872.4, 498981.84, 0.256622, 10.00589, 9.997357 
2.0452434e+3, 1.3521668e+2, -1079186.8, -1636238.9, 21548.664, -0.019781252, 0.04807322, -1078354.4, 536521.5, 0.1853124, 10.005982, 9.996985 
2.0452194e+3, 1.4521326e+2, -936890.6, -1486124.8, -4691.68, -0.0733588, -0.015653687, -936850.56, 580057.56, 0.11237801, 10.005707, 9.997498 
2.0451954e+3, 1.5521011e+2, -893915.4, -1441674.1, -8215.169, -0.047733694, -0.075351246, -893792.2, 525144.1, 0.053001083, 10.005069, 9.997412 
2.0451716e+3, 1.6520761e+2, -852735.4, -1358067.4, 5231.814, -0.040849574, -0.07288301, -852681.2, 468279.16, 0.017242761, 10.004435, 9.997618 
2.0451474e+3, 1.7520565e+2, -840772.0, -1308816.9, 2769.004, -0.070410624, -0.029565314, -840755.6, 382225.25, 0.0028745206, 10.00381, 9.997584 
2.0451234e+3, 1.8520366e+2, -798314.6, -1149583.3, -18582.41, -0.06730637, -0.022649573, -797334.3, 327665.84, 0.00006955834, 10.003038, 9.998377 
2.0450994e+3, 1.9520174e+2, -835569.8, -1121480.3, -14406.191, -0.028292628, -0.050326996, -834845.75, 192171.45, 0.0, 10.0021305, 9.998335 
2.0450753e+3, 2.0520003e+2, -791764.9, -998679.06, -16644.285, -0.014268486, -0.07331018, -790434.5, 138598.52, 0.0, 10.001537, 9.998793 
2.0450509e+3, 2.1519856e+2, -740125.2, -927473.8, -26212.871, -0.026040547, -0.097848706, -736526.75, 94520.29, 0.0, 10.001237, 9.9987545 
2.0450267e+3, 2.2519754e+2, -713714.44, -805845.06, -14129.849, -0.024176138, -0.09701901, -711596.06, 21461.174, 0.0, 10.000495, 9.999273 
2.045003e+3, 2.35197e+2, -784726.6, -792467.94, -10751.422, -0.006642842, -0.07829354, -777170.3, -142107.08, 0.0, 9.999348, 9.999245 
2.0449792e+3, 2.4519686e+2, -733459.5, -616487.4, -25067.49, 0.005041149, -0.05595566, -611341.7, -74277.02, 0.0, 9.998595, 10.000142 
2.0449549e+3, 2.5519723e+2, -694376.06, -551549.9, -40055.477, 0.0076747723, -0.034629077, -541083.3, -102022.47, 0.0, 9.998211, 10.0001 
2.0449312e+3, 2.651972e+2, -699928.9, -498365.34, -26896.213, 0.019643744, -0.044938475, -494838.1, -153776.45, 0.0, 9.997481, 10.000142 
2.0449075e+3, 2.7519685e+2, -762021.06, -483287.63, -6961.662, 0.0505547, -0.091166615, -483113.84, -240047.73, 0.0, 9.996408, 10.000089 
2.044884e+3, 2.8519762e+2, -687538.2, -250790.89, 9600.007, 0.0735691, -0.083492346, -250579.98, -105521.836, 0.0, 9.995619, 10.001392 
2.0448604e+3, 2.9519963e+2, -659948.56, -178700.16, 17.047064, 0.06269732, -0.019951258, -178700.14, -131664.03, 0.0, 9.9951, 10.001465 
2.0448369e+3, 3.0519933e+2, -763389.8, -288269.56, -5057.0547, 0.061081957, -0.1621295, -288215.75, -288215.75, 0.0, 9.994417, 10.00071 
2.0448144e+3, 3.152019e+2, -700559.75, 41677.617, 80648.31, 0.13260381, 0.038233846, 50339.434, 50339.434, 0.0, 9.993565, 10.003383 
2.0552729e+3, 1.252427e+2, -1211699.4, -1679305.3, -15675.082, 0.014406982, 0.0015531738, -1211174.5, 501447.8, 0.26844805, 10.005937, 9.997466 
2.0552485e+3, 1.3524012e+2, -1068902.0, -1600157.1, 25976.57, -0.09997886, 0.018313391, -1067634.9, 547011.2, 0.19391824, 10.00599, 9.9972515 
2.0552246e+3, 1.4523679e+2, -939753.8, -1484016.1, -24646.371, -0.12994395, -0.04985404, -938640.0, 578037.3, 0.11778602, 10.005699, 9.997521 
2.055201e+3, 1.552347e+2, -894072.56, -1438881.5, -28826.268, -0.010912027, -0.007866914, -892551.56, 526144.6, 0.055792, 10.005067, 9.997435 
2.0551765e+3, 1.6523215e+2, -858116.5, -1368441.4, -16179.157, 0.015233026, -0.0064179357, -857604.1, 463116.5, 0.018331833, 10.004433, 9.997549 
2.0551513e+3, 1.7522915e+2, -846196.2, -1319768.8, -18843.756, -0.05793517, -0.060833473, -845447.56, 377302.94, 0.0031343608, 10.003808, 9.997512 
2.0551264e+3, 1.8522689e+2, -790073.94, -1132886.0, -50974.957, -0.07365447, -0.08311333, -782654.75, 342117.1, 0.00008216845, 10.003038, 9.998493 
2.0551015e+3, 1.9522543e+2, -827114.06, -1105485.5, -46045.69, -0.031802036, -0.0752444, -819695.3, 207088.55, 0.0, 10.002135, 9.998444 
2.0550767e+3, 2.05224e+2, -808583.56, -1035395.56, -26444.982, -0.019394953, -0.061075088, -805541.0, 123256.37, 0.0, 10.001543, 9.998538 
2.055052e+3, 2.1522267e+2, -757926.6, -964050.56, -35812.473, -0.03738077, -0.048222054, -751881.75, 78929.82, 0.0, 10.001233, 9.998506 
2.055027e+3, 2.2522151e+2, -707326.0, -792730.44, -55726.164, -0.033165153, -0.05373894, -679822.25, 53000.902, 0.0, 10.000494, 9.999365 
2.0550025e+3, 2.3522061e+2, -778487.2, -780306.3, -51804.414, -0.0063926047, -0.07975237, -727584.4, -92753.055, 0.0, 9.99935, 9.999329 
2.0549777e+3, 2.4522023e+2, -760593.8, -674703.2, -39255.34, 0.0072234077, -0.06541494, -659465.3, -122629.93, 0.0, 9.998602, 9.99974 
2.0549531e+3, 2.552204e+2, -719818.94, -607049.6, -54349.848, 0.0051132804, -0.021653296, -585119.94, -146284.78, 0.0, 9.99822, 9.999715 
2.0549287e+3, 2.6522046e+2, -660472.0, -418149.13, -67873.63, 0.022901997, -0.03272053, -400433.22, -59598.758, 0.0, 9.997486, 10.000691 
2.0549041e+3, 2.752205e+2, -722379.9, -402605.25, -47200.844, 0.06739575, -0.094868116, -395783.6, -152951.38, 0.0, 9.996412, 10.000643 
2.0548798e+3, 2.852214e+2, -705042.4, -288942.13, -9932.082, 0.088173665, -0.09018398, -288705.2, -143882.47, 0.0, 9.995625, 10.001129 
2.0548555e+3, 2.9522303e+2, -680073.6, -226333.05, -18986.951, 0.059940875, -0.04115419, -225539.92, -178733.27, 0.0, 9.995123, 10.001129 
2.0548318e+3, 3.0522302e+2, -798896.2, -362119.88, -40938.6, 0.10477558, -0.10534872, -358315.88, -358315.88, 0.0, 9.994419, 10.000201 
2.0548071e+3, 3.152243e+2, -635197.06, 178723.05, -1781.9658, 0.061999388, 0.008543769, 178726.95, 178726.95, 0.0, 9.993553, 10.004332 
2.0652795e+3, 1.2526743e+2, -1038973.44, -1624226.1, 30111.604, -0.0023395831, -0.0073503978, -1037428.25, 674950.75, 0.28102157, 10.007861, 9.997069 
2.0652546e+3, 1.3526466e+2, -1058921.0, -1609765.4, 48838.473, -0.10046817, 0.010804152, -1054624.4, 559781.0, 0.20305769, 10.006223, 9.997058 
2.0652302e+3, 1.452612e+2, -992536.1, -1508621.5, -767.7171, -0.108712606, -0.06050081, -992535.0, 523903.47, 0.12353225, 10.00532, 9.997512 
2.0652059e+3, 1.5525925e+2, -889609.44, -1437279.1, -7394.074, -0.018871095, -0.0013549854, -889509.6, 528946.6, 0.05876953, 10.005118, 9.99742 
2.0651808e+3, 1.6525678e+2, -837622.2, -1344516.6, -1599.6311, 0.0042725042, 0.0030651423, -837617.1, 482862.38, 0.019506246, 10.00452, 9.997671 
2.0651552e+3, 1.7525381e+2, -874205.0, -1319800.1, 10136.618, -0.045111433, -0.05980237, -873974.5, 348533.63, 0.0034237767, 10.003558, 9.997631 
2.0651294e+3, 1.8525146e+2, -810229.25, -1157705.4, -16209.236, -0.0595213, -0.08832472, -809474.75, 315055.38, 0.0000990456, 10.002968, 9.998356 
2.065104e+3, 1.9524984e+2, -752882.8, -1084885.5, -31326.469, -0.03841228, -0.08438467, -749952.8, 276591.75, 0.0, 10.002711, 9.998308 
2.0650783e+3, 2.0524843e+2, -745617.7, -1002874.56, -16188.769, -0.026201162, -0.064410925, -744602.94, 183955.36, 0.0, 10.001967, 9.998556 
2.065053e+3, 2.1524724e+2, -822023.6, -992642.2, -6847.8623, -0.024025584, -0.03801693, -821749.25, 8821.563, 0.0, 10.000786, 9.998524 
2.0650277e+3, 2.2524603e+2, -776326.94, -833810.4, -22030.967, -0.020243729, -0.04387247, -768854.7, -36272.082, 0.0, 10.000056, 9.999292 
2.0650017e+3, 2.3524493e+2, -726791.06, -763466.6, -31134.16, -0.012733586, -0.081627406, -708995.6, -74402.93, 0.0, 9.999742, 9.999254 
2.0649762e+3, 2.452444e+2, -708446.7, -654320.9, -10991.362, 0.00073904346, -0.07757498, -652174.0, -115575.75, 0.0, 9.998982, 9.999696 
2.0649512e+3, 2.5524443e+2, -782227.0, -641439.56, 427.52115, 0.016270835, -0.04291505, -641438.25, -202839.02, 0.0, 9.997813, 9.999674 
2.064926e+3, 2.652446e+2, -716093.06, -434985.44, -16097.832, 0.03474618, -0.044681925, -434066.56, -93469.35, 0.0, 9.997063, 10.000779 
2.0649007e+3, 2.7524498e+2, -674470.5, -369397.03, -31317.078, 0.06671215, -0.08067896, -366215.4, -123624.03, 0.0, 9.996698, 10.000732 
2.0648755e+3, 2.8524575e+2, -661972.25, -287946.53, -9304.27, 0.085630536, -0.08530912, -287715.22, -143131.73, 0.0, 9.996007, 10.000952 
2.0648503e+3, 2.9524678e+2, -719305.6, -268184.88, -13995.665, 0.06351648, -0.07781512, -267751.06, -221177.06, 0.0, 9.994956, 10.000919 
2.0648259e+3, 3.0524755e+2, -852931.4, -376005.2, -6715.974, 0.10708228, -0.055842996, -375910.66, -375910.66, 0.0, 9.993999, 10.000308 
2.0648001e+3, 3.1524715e+2, -654510.2, 208342.61, 42585.23, 0.022262625, -0.1259506, 210439.27, 210439.27, 0.0, 9.993251, 10.0046835 
2.0752868e+3, 1.25293e+2, -1095238.1, -1714627.6, -11822.29, -0.0709319, -0.051712405, -1095012.5, 617113.2, 0.29395047, 10.007835, 9.996228 
2.0752615e+3, 1.3529022e+2, -1098005.9, -1697037.1, 3156.9282, -0.034512945, 0.028581044, -1097989.3, 516165.6, 0.2125221, 10.006231, 9.9964485 
2.0752363e+3, 1.4528643e+2, -997506.4, -1515950.6, -5752.69, -0.023674654, -0.043500263, -997442.56, 518749.5, 0.12953846, 10.005339, 9.997447 
2.0752105e+3, 1.5528372e+2, -894619.6, -1446340.5, -12781.722, -0.07130701, -0.052991398, -894323.7, 523893.4, 0.061916575, 10.005124, 9.997356 
2.0751846e+3, 1.6528143e+2, -816564.2, -1299884.6, -35133.85, -0.0700606, -0.043211292, -814023.56, 506214.4, 0.020765098, 10.004522, 9.997981 
2.075159e+3, 1.7527954e+2, -852781.2, -1276333.0, -23224.107, -0.032993518, -0.028986668, -851511.56, 370743.47, 0.0037433722, 10.003562, 9.997929 
2.0751329e+3, 1.8527731e+2, -837780.8, -1215580.9, -24125.68, -0.028153462, -0.040954888, -836246.4, 288029.88, 0.000120829114, 10.002969, 9.997959 
2.0751065e+3, 1.9527489e+2, -780447.3, -1141186.6, -39318.293, -0.050403383, -0.077181526, -776211.6, 250088.5, 0.0, 10.002706, 9.997925 
2.0750803e+3, 2.0527317e+2, -726614.9, -963324.3, -58662.137, -0.0354625, -0.08231361, -712874.6, 215441.95, 0.0, 10.0019655, 9.998831 
2.0750542e+3, 2.1527214e+2, -803795.3, -955169.4, -48308.977, 0.011963337, -0.06629826, -789692.1, 40633.59, 0.0, 10.000786, 9.998782 
2.0750278e+3, 2.2527102e+2, -792460.6, -868816.7, -32404.11, 0.012631749, -0.06592454, -780562.8, -48226.086, 0.0, 10.000061, 9.99905 
2.0750014e+3, 2.3526987e+2, -742496.1, -797310.7, -41984.07, -0.027497439, -0.084128775, -719765.44, -85416.86, 0.0, 9.999744, 9.999022 
2.074975e+3, 2.4526924e+2, -686374.7, -609687.0, -54646.227, -0.015532503, -0.09316369, -581274.1, -44919.71, 0.0, 9.998985, 10.000002 
2.0749491e+3, 2.5526917e+2, -761299.8, -598963.0, -42883.13, 0.03848729, -0.099270314, -588331.25, -149977.06, 0.0, 9.997815, 9.999966 
2.074923e+3, 2.6526946e+2, -743693.06, -493636.8, -30059.305, 0.0542116, -0.08107548, -490074.13, -149723.05, 0.0, 9.997067, 10.000376 
2.074897e+3, 2.7527016e+2, -699805.0, -426329.53, -44820.188, 0.047245882, -0.048537906, -419171.28, -176826.31, 0.0, 9.996715, 10.000335 
2.0748714e+3, 2.852705e+2, -667551.2, -303463.9, -51048.92, 0.063176095, -0.069395155, -296441.75, -152099.73, 0.0, 9.996021, 10.000839 
2.0748454e+3, 2.9527068e+2, -724186.7, -281326.75, -57743.58, 0.06564526, -0.13131952, -273921.5, -227581.56, 0.0, 9.9949665, 10.000826 
2.0748197e+3, 3.0527285e+2, -795175.94, -255296.16, -37496.184, 0.06673053, -0.011876841, -252704.38, -252704.38, 0.0, 9.993995, 10.001138 
2.0747937e+3, 3.1527317e+2, -706356.44, 99563.164, -4679.0586, 0.0634635, -0.09332053, 99590.33, 99590.33, 0.0, 9.993256, 10.003934 
2.0852947e+3, 1.2531957e+2, -1152493.3, -1778025.6, -16385.205, -0.054584533, -0.03766173, -1152064.3, 559800.8, 0.30690747, 10.007514, 9.995948 
2.085268e+3, 1.3531643e+2, -1043656.0, -1673538.4, 17980.096, -0.040369913, 0.020675518, -1043143.2, 570754.7, 0.22213796, 10.006829, 9.996322 
2.0852421e+3, 1.4531262e+2, -916797.3, -1484945.4, 42603.88, -0.016937409, -0.04088822, -913620.3, 602314.94, 0.13573347, 10.006059, 9.997346 
2.0852156e+3, 1.5530978e+2, -885236.3, -1451198.4, 38564.105, -0.061118297, -0.052622013, -882620.7, 535340.8, 0.06520916, 10.005253, 9.997261 
2.0851892e+3, 1.653074e+2, -815353.06, -1302976.5, -3814.9365, -0.065456934, -0.046253957, -815323.2, 504660.28, 0.022100585, 10.004555, 9.997943 
2.0851626e+3, 1.7530549e+2, -799830.2, -1254823.3, -18292.348, -0.038830597, -0.031006752, -799095.94, 422905.1, 0.004090878, 10.003946, 9.997892 
2.0851357e+3, 1.8530329e+2, -805637.56, -1192437.0, -7045.0747, -0.029712673, -0.03970338, -805509.25, 318512.34, 0.00014761007, 10.003157, 9.998028 
2.0851092e+3, 1.9530097e+2, -848073.75, -1165982.4, 10894.709, -0.035803013, -0.07362879, -847700.8, 178343.34, 0.0, 10.002209, 9.997993 
2.0850821e+3, 2.0529918e+2, -780232.6, -989481.0, -7676.7554, -0.025409246, -0.08723253, -779951.4, 148109.61, 0.0, 10.001601, 9.998824 
2.0850551e+3, 2.1529798e+2, -730123.56, -920115.8, -18590.057, -0.00033429117, -0.08715599, -728321.7, 101750.01, 0.0, 10.001296, 9.9987755 
2.0850281e+3, 2.2529687e+2, -718527.06, -836746.44, -1897.6509, 0.00012464753, -0.082393646, -718496.6, 13586.037, 0.0, 10.000586, 9.999017 
2.085001e+3, 2.3529588e+2, -777815.9, -817716.44, 3230.5317, -0.020335699, -0.08010228, -777556.0, -143462.8, 0.0, 9.999519, 9.998989 
2.084974e+3, 2.4529526e+2, -712515.25, -620224.5, -16182.731, -0.0062693977, -0.088215105, -617469.2, -81370.09, 0.0, 9.998799, 10.000018 
2.0849472e+3, 2.5529507e+2, -677356.94, -556893.44, -26621.11, 0.036309212, -0.10836491, -551272.75, -113173.08, 0.0, 9.998386, 9.999979 
2.0849204e+3, 2.652953e+2, -683662.44, -484230.44, -13472.037, 0.054294404, -0.09046981, -483324.5, -143226.83, 0.0, 9.997564, 10.000199 
2.0848937e+3, 2.752959e+2, -762006.4, -475336.5, -10923.357, 0.06021089, -0.047501545, -474920.88, -232827.67, 0.0, 9.996372, 10.000162 
2.0848672e+3, 2.8529617e+2, -722372.2, -308901.3, 2579.2239, 0.074013755, -0.07293562, -308885.22, -164794.67, 0.0, 9.995555, 10.001026 
2.0848404e+3, 2.9529646e+2, -697124.75, -246207.2, 16995.15, 0.067217894, -0.14637363, -245567.56, -199480.66, 0.0, 9.995056, 10.001025 
2.0848134e+3, 3.0529886e+2, -764326.2, -235502.25, 9833.775, 0.04642859, -0.010861873, -235319.44, -235319.44, 0.0, 9.9941845, 10.0011835 
2.0847869e+3, 3.1529933e+2, -771258.4, 16854.94, -11303.206, 0.07554648, -0.07512117, 17017.018, 17017.018, 0.0, 9.993036, 10.003469 
2.095303e+3, 1.2534702e+2, -1153501.1, -1750693.6, -26788.795, 0.030738505, 0.027529107, -1152301.9, 559296.25, 0.31971934, 10.007516, 9.996139 
2.0952742e+3, 1.3534316e+2, -1038023.06, -1636978.1, -1502.6012, -0.114786364, -0.012198878, -1038019.25, 575616.44, 0.23181726, 10.006818, 9.996578 
2.0952474e+3, 1.4533961e+2, -929967.94, -1500914.0, 16633.621, -0.08338268, -0.05399642, -929483.75, 586186.06, 0.14207885, 10.006044, 9.997227 
2.0952214e+3, 1.5533729e+2, -894570.9, -1467277.1, 12536.388, 0.0047429795, -0.0042036204, -894296.6, 523394.53, 0.068628825, 10.00525, 9.997151 
2.0951943e+3, 1.6533457e+2, -842774.25, -1359710.6, -24019.97, 0.008822089, -0.008071447, -841660.5, 478056.72, 0.02350324, 10.004554, 9.997553 
2.0951663e+3, 1.7533155e+2, -825397.1, -1308309.8, -38736.79, -0.06445031, -0.062325813, -822309.6, 399437.03, 0.004462717, 10.003946, 9.997526 
2.0951384e+3, 1.8532935e+2, -769333.25, -1118362.8, -40523.844, -0.0635412, -0.0813526, -764690.0, 359076.75, 0.00017909522, 10.0031595, 9.998536 
2.0951116e+3, 1.9532792e+2, -813546.9, -1095958.6, -21842.223, 0.0033291935, -0.074331135, -811867.5, 213910.5, 0.0, 10.0022135, 9.998472 
2.095084e+3, 2.0532632e+2, -798944.75, -1030011.1, -17720.576, 0.0014512772, -0.07974479, -797593.7, 130199.16, 0.0, 10.001607, 9.998545 
2.0950557e+3, 2.1532463e+2, -749025.75, -959251.9, -28342.184, -0.06214276, -0.10048405, -745271.75, 84538.04, 0.0, 10.001293, 9.998509 
2.095028e+3, 2.2532348e+2, -707709.44, -814394.44, -40502.566, -0.057703353, -0.09383029, -694075.2, 37746.246, 0.0, 10.000585, 9.999172 
2.0950007e+3, 2.353229e+2, -767824.2, -797431.4, -34719.063, 0.0071254955, -0.06946686, -744884.44, -111056.64, 0.0, 9.999519, 9.999129 
2.0949732e+3, 2.4532236e+2, -731377.94, -660922.8, -31576.326, 0.026963664, -0.060431596, -648842.4, -113009.19, 0.0, 9.998804, 9.999738 
2.0949453e+3, 2.5532198e+2, -694460.2, -595964.75, -42690.973, 0.0060853213, -0.06824385, -580036.9, -142200.16, 0.0, 9.9984, 9.999705 
2.0949177e+3, 2.6532188e+2, -677825.25, -475742.03, -59761.184, 0.032688666, -0.07371064, -459391.97, -119553.65, 0.0, 9.997578, 10.000253 
2.0948906e+3, 2.7532202e+2, -756625.9, -466639.94, -55781.844, 0.10507982, -0.083331555, -456279.84, -214442.13, 0.0, 9.99638, 10.000219 
2.094863e+3, 2.8532273e+2, -687620.4, -236843.7, -16933.068, 0.11898937, -0.095159985, -236208.52, -92378.625, 0.0, 9.995554, 10.001522 
2.0948355e+3, 2.9532406e+2, -661375.9, -173712.5, -1994.4458, 0.06519, -0.11164904, -173704.34, -127890.03, 0.0, 9.995062, 10.001521 
2.0948076e+3, 3.053253e+2, -822052.4, -359125.97, -37249.043, 0.046167005, -0.0764098, -356147.9, -356147.9, 0.0, 9.994199, 10.000329 
2.0947796e+3, 3.153255e+2, -738600.8, 74248.17, -19871.758, 0.033580344, -0.08207716, 74733.69, 74733.69, 0.0, 9.993076, 10.003847 
2.1053106e+3, 1.253747e+2, -1130427.0, -1710866.6, -6330.514, 0.021030411, 0.03876092, -1130358.0, 580969.56, 0.33239546, 10.007795, 9.996271 
2.105281e+3, 1.3537082e+2, -1047927.75, -1629486.0, 3156.3499, -0.1032418, -0.014462189, -1047910.6, 565454.1, 0.24155825, 10.006753, 9.99666 
2.1052535e+3, 1.4536737e+2, -957633.44, -1514559.3, 24621.389, -0.06991281, -0.04685144, -956547.06, 558850.2, 0.14856295, 10.00587, 9.997201 
2.1052268e+3, 1.5536484e+2, -907597.94, -1474580.0, 25090.031, 0.0041728364, -0.016333954, -906489.8, 510930.7, 0.07216074, 10.005176, 9.997137 
2.105199e+3, 1.6536203e+2, -850427.75, -1367858.9, 9672.84, 0.007058291, -0.024170157, -850247.0, 469200.28, 0.024962354, 10.004525, 9.997511 
2.1051702e+3, 1.7535906e+2, -833720.25, -1316514.4, 20247.285, -0.05689717, -0.06929129, -832872.6, 388603.88, 0.004854071, 10.00391, 9.997486 
2.1051419e+3, 1.8535683e+2, -740366.56, -1102965.3, 7861.085, -0.056253344, -0.08891003, -740196.2, 383300.53, 0.0002146127, 10.003356, 9.998546 
2.105114e+3, 1.9535534e+2, -720181.56, -1049833.0, -10355.013, 0.0018664752, -0.09014792, -719856.6, 305651.7, 0.0, 10.0028515, 9.998482 
2.1050857e+3, 2.0535377e+2, -737162.44, -1005241.25, -12105.385, -0.0022040645, -0.09079889, -736616.94, 190906.14, 0.0, 10.002054, 9.998499 
2.105057e+3, 2.1535216e+2, -794043.94, -985855.06, -7163.984, -0.061730333, -0.097694635, -793776.7, 35763.195, 0.0, 10.001007, 9.998464 
2.1050283e+3, 2.2535104e+2, -756074.06, -831863.5, -19564.941, -0.054970145, -0.0892803, -751321.44, -19769.89, 0.0, 10.000229, 9.999222 
2.1050005e+3, 2.3535042e+2, -741234.3, -779105.25, -21699.064, 0.011357447, -0.07149506, -731370.44, -97812.82, 0.0, 9.9996805, 9.999176 
2.1049722e+3, 2.4534985e+2, -731163.2, -670251.0, -10506.707, 0.029463882, -0.06262864, -668489.6, -132926.0, 0.0, 9.998848, 9.999651 
2.1049434e+3, 2.5534946e+2, -792498.2, -652403.4, -7307.3467, 0.0051284004, -0.06601983, -652023.3, -214454.73, 0.0, 9.997768, 9.999621 
2.1049151e+3, 2.6534942e+2, -732406.9, -479273.56, -11634.515, 0.033698916, -0.067244574, -478739.94, -139170.84, 0.0, 9.997107, 10.000455 
2.1048872e+3, 2.753498e+2, -681472.7, -407679.28, 2479.3945, 0.11042644, -0.07348091, -407656.8, -166091.64, 0.0, 9.9967985, 10.0004225 
2.1048586e+3, 2.8535053e+2, -646112.75, -214823.1, 20177.012, 0.11288735, -0.09420472, -213881.22, -70324.28, 0.0, 9.995831, 10.00154 
2.1048298e+3, 2.953517e+2, -774178.0, -231316.14, -1718.8192, 0.04843252, -0.12758937, -231310.7, -185767.38, 0.0, 9.994304, 10.001491 
2.104802e+3, 3.05353e+2, -896653.94, -400088.84, -10841.218, 0.0957465, -0.07873678, -399852.25, -399852.25, 0.0, 9.99371, 10.000282 
2.1047728e+3, 3.153536e+2, -618704.2, 173028.95, 61653.83, 0.00030910544, -0.04303233, 177801.3, 177801.3, 0.0, 9.993727, 10.0042095 
2.1153171e+3, 1.2540254e+2, -1141294.1, -1704362.8, -24690.822, -0.07571848, -0.0008270475, -1140213.5, 570840.9, 0.34505844, 10.007755, 9.996357 
2.1152885e+3, 1.3539928e+2, -1058653.5, -1638878.5, -23983.137, -0.018238556, 0.01201956, -1057663.9, 555421.75, 0.25139678, 10.006751, 9.996599 
2.11526e+3, 1.4539582e+2, -959314.56, -1511238.9, 3790.0, 0.010901886, -0.019895334, -959288.56, 555829.6, 0.15517259, 10.005878, 9.997225 
2.1152312e+3, 1.5539236e+2, -905675.5, -1467701.4, 2916.1611, -0.061089765, -0.08322712, -905660.4, 511489.53, 0.07578254, 10.005181, 9.997183 
2.1152027e+3, 1.6538975e+2, -831462.94, -1326777.1, -11258.233, -0.06662231, -0.09020477, -831207.1, 487967.3, 0.026464118, 10.004527, 9.997792 
2.1151744e+3, 1.7538786e+2, -815138.5, -1278726.1, -614.7513, -0.019025208, -0.054106556, -815137.7, 406054.56, 0.0052593937, 10.003914, 9.997745 
2.1151455e+3, 1.853856e+2, -772899.06, -1171103.8, -9480.113, -0.012470293, -0.065195896, -772673.5, 350539.66, 0.0002533039, 10.003355, 9.99808 
2.1151164e+3, 1.953831e+2, -751797.44, -1114690.5, -27385.893, -0.040690772, -0.11958528, -749742.4, 275493.4, 0.00000000000010610821, 10.002847, 9.99804 
2.1150874e+3, 2.0538141e+2, -725955.44, -981874.9, -49412.37, -0.035371613, -0.11929004, -716746.4, 210506.08, 0.0, 10.002051, 9.998662 
2.1150583e+3, 2.1538046e+2, -783751.75, -963999.75, -43355.266, -0.001998431, -0.07819239, -773865.7, 55397.457, 0.0, 10.001002, 9.998617 
2.1150292e+3, 2.2537939e+2, -760050.75, -840671.56, -38529.984, 0.00503233, -0.067161426, -744598.4, -13324.397, 0.0, 10.00023, 9.999163 
2.1149997e+3, 2.3537834e+2, -743648.25, -785989.6, -41542.35, -0.010131352, -0.08653575, -718193.1, -84909.234, 0.0, 9.999686, 9.999127 
2.1149704e+3, 2.4537763e+2, -723143.8, -655039.7, -51349.523, 0.00023311633, -0.0977378, -627477.5, -92185.82, 0.0, 9.998853, 9.999754 
2.1149415e+3, 2.5537726e+2, -785174.4, -638143.3, -47195.15, 0.032766014, -0.10448946, -624298.06, -187001.5, 0.0, 9.99777, 9.999719 
2.1149124e+3, 2.6537785e+2, -707177.3, -428154.84, -23309.49, 0.0567468, -0.06919668, -426220.97, -86930.164, 0.0, 9.997109, 10.000806 
2.1148835e+3, 2.753792e+2, -653988.0, -355297.06, -10699.036, 0.06920654, -0.010954452, -354914.3, -113638.516, 0.0, 9.996817, 10.000775 
2.114854e+3, 2.8537947e+2, -678631.6, -285706.53, -39333.39, 0.04962254, -0.07136661, -281807.78, -138535.03, 0.0, 9.995843, 10.001049 
2.1148238e+3, 2.9537907e+2, -815374.44, -317475.13, -57149.816, 0.017836398, -0.212544, -310999.6, -265722.56, 0.0, 9.994304, 10.000899 
2.1147966e+3, 3.053822e+2, -840288.0, -283352.84, -6749.8086, 0.19617555, 0.012432068, -283271.03, -283271.03, 0.0, 9.99371, 10.001084 
2.1147661e+3, 3.1538263e+2, -617526.56, 171868.05, -3795.4866, -0.015504677, -0.060740687, 171886.3, 171886.3, 0.0, 9.993743, 10.004193 
2.1253245e+3, 1.2543134e+2, -1182867.5, -1705363.8, 1345.3845, -0.10753053, -0.030682819, -1182864.0, 527907.06, 0.35780844, 10.007334, 9.996551 
2.1252954e+3, 1.3542831e+2, -1056014.4, -1625763.8, 3622.6704, 0.0060151, -0.00019373263, -1055991.4, 556808.44, 0.2613371, 10.006818, 9.9966545 
2.1252663e+3, 1.4542492e+2, -931760.2, -1501131.9, 37220.44, 0.025602773, -0.024513338, -929337.3, 585494.44, 0.16186804, 10.006169, 9.997165 
2.1252364e+3, 1.5542138e+2, -878843.9, -1458279.8, 34459.297, -0.07947799, -0.092821755, -876801.75, 540063.3, 0.07945803, 10.005424, 9.99713 
2.125207e+3, 1.6541873e+2, -800869.2, -1307924.6, 13678.157, -0.08204366, -0.09815865, -800500.5, 518389.25, 0.027991053, 10.004737, 9.997821 
2.1251784e+3, 1.7541696e+2, -786305.44, -1261757.3, 4951.5415, -0.0007725527, -0.054155868, -786253.9, 434652.38, 0.0056731584, 10.004104, 9.997768 
2.1251492e+3, 1.8541469e+2, -782880.94, -1180805.5, 324.54727, 0.008394744, -0.06602196, -782880.7, 340046.72, 0.000294366, 10.00331, 9.9980345 
2.125119e+3, 1.9541204e+2, -822080.25, -1153317.0, 11442.611, -0.0441642, -0.13060765, -821685.44, 203266.33, 0.0000000000129771185, 10.002385, 9.997996 
2.1250892e+3, 2.0541035e+2, -785416.6, -1008464.3, -5434.193, -0.042425875, -0.12891491, -785284.3, 141684.47, 0.0, 10.001636, 9.998678 
2.1250594e+3, 2.1540953e+2, -777670.6, -958270.1, -10684.679, 0.0058771186, -0.074100025, -777040.7, 51937.633, 0.0, 10.001035, 9.998639 
2.1250296e+3, 2.2540855e+2, -745511.56, -817906.3, 1328.5145, 0.015765222, -0.06338521, -745487.2, -14498.876, 0.0, 10.000264, 9.999301 
2.1249993e+3, 2.3540747e+2, -783399.44, -790355.75, 12462.967, -0.0076345606, -0.09797306, -773938.4, -140940.33, 0.0, 9.9993515, 9.999258 
2.1249692e+3, 2.4540685e+2, -744466.5, -660098.4, 6107.837, -0.0018098847, -0.10778974, -659658.5, -124653.555, 0.0, 9.998684, 9.9998 
2.1249394e+3, 2.5540674e+2, -717679.94, -599833.5, 5587.6235, 0.03203803, -0.09580182, -599569.2, -162561.25, 0.0, 9.99821, 9.999769 
2.1249095e+3, 2.6540735e+2, -676199.06, -407033.16, 16696.13, 0.053885, -0.060084704, -406001.44, -66999.65, 0.0, 9.997297, 10.000859 
2.1248797e+3, 2.7540854e+2, -767931.2, -403978.7, 5241.862, 0.058083095, -0.022385543, -403903.2, -162915.03, 0.0, 9.996011, 10.000828 
2.1248494e+3, 2.854089e+2, -772720.5, -331809.97, -21504.664, 0.043441307, -0.07414943, -330763.6, -187779.38, 0.0, 9.995203, 10.001039 
2.1248186e+3, 2.9540902e+2, -740928.0, -284066.06, 663.9753, 0.036694065, -0.16337445, -284065.1, -239081.14, 0.0, 9.994828, 10.000875 
2.1247905e+3, 3.0541146e+2, -738495.25, -219697.97, 73040.32, 0.19314328, -0.010546434, -209610.92, -209610.92, 0.0, 9.994344, 10.001218 
2.1247596e+3, 3.1541118e+2, -701808.3, 85996.48, -53696.48, -0.026394716, -0.16480133, 89639.56, 89639.56, 0.0, 9.9933605, 10.003788 
2.1353321e+3, 1.2546103e+2, -1183721.0, -1683057.5, -7829.914, -0.08636231, -0.051980443, -1183598.3, 526880.5, 0.37065214, 10.007317, 9.996801 
2.135302e+3, 1.3545787e+2, -1057035.0, -1609725.3, -9577.951, -0.0285311, -0.046737142, -1056869.1, 555638.9, 0.27132943, 10.006822, 9.996768 
2.135272e+3, 1.4545459e+2, -942955.8, -1516222.8, 14326.723, -0.021202054, -0.05754381, -942597.94, 571941.25, 0.16858763, 10.006172, 9.997045 
2.135242e+3, 1.5545167e+2, -889223.6, -1476924.8, 10370.356, -0.056587387, -0.050273187, -889040.7, 527526.94, 0.08314642, 10.005423, 9.997003 
2.1352121e+3, 1.654489e+2, -817383.4, -1341282.9, -7546.0137, -0.046665017, -0.052963603, -817274.7, 501319.78, 0.029526694, 10.004734, 9.997593 
2.1351826e+3, 1.754463e+2, -800723.44, -1291646.4, -16576.975, -0.0033722678, -0.0676405, -800164.3, 420454.88, 0.006091055, 10.004102, 9.997565 
2.1351524e+3, 1.8544401e+2, -759090.06, -1131873.6, -32357.967, 0.006487256, -0.08925105, -756302.25, 366337.97, 0.00033722387, 10.00331, 9.998372 
2.1351215e+3, 1.95442e+2, -799650.94, -1107081.8, -20491.521, -0.011203617, -0.12309922, -798291.06, 226366.4, 0.0000000000136278775, 10.002385, 9.998315 
2.1350908e+3, 2.0544042e+2, -793970.2, -1027146.6, -26281.785, -0.026226165, -0.11947537, -791044.6, 135628.67, 0.0, 10.001637, 9.99855 
2.1350601e+3, 2.1543927e+2, -784832.44, -973924.0, -31232.729, -0.038918816, -0.08618748, -779807.2, 48879.51, 0.0, 10.001036, 9.998533 
2.1350293e+3, 2.2543836e+2, -722614.75, -771394.6, -31399.15, -0.022613287, -0.07998593, -707245.75, 23450.223, 0.0, 10.000266, 9.99962 
2.1349987e+3, 2.3543768e+2, -762254.56, -747050.9, -19555.719, 0.017283075, -0.10511855, -733671.44, -100970.28, 0.0, 9.9993515, 9.999556 
2.1349682e+3, 2.4543744e+2, -745159.44, -662822.06, -11339.038, 0.021736028, -0.089438796, -661289.06, -126584.95, 0.0, 9.998688, 9.999781 
2.1349372e+3, 2.554377e+2, -716892.56, -601846.3, -13105.622, -0.0009642728, -0.03796604, -600372.25, -163668.69, 0.0, 9.998223, 9.99975 
2.1349065e+3, 2.6543778e+2, -692524.6, -443263.56, -33418.477, 0.022074616, -0.042080507, -438860.9, -100157.52, 0.0, 9.997306, 10.0006075 
2.134876e+3, 2.7543762e+2, -785182.06, -440135.16, -43872.105, 0.07681363, -0.11517465, -434644.25, -193940.0, 0.0, 9.99601, 10.000581 
2.134845e+3, 2.8543875e+2, -739603.06, -263589.6, -36702.453, 0.09847282, -0.103247985, -260776.33, -118083.84, 0.0, 9.995204, 10.001509 
2.134814e+3, 2.954416e+2, -697998.56, -201368.34, -10154.5, 0.107785195, 0.033950575, -201160.81, -156497.34, 0.0, 9.994853, 10.001432 
2.1347837e+3, 3.0544057e+2, -769667.0, -289375.0, 44632.99, 0.063398995, -0.16973443, -285262.53, -285262.53, 0.0, 9.994364, 10.0007305 
2.1347535e+3, 3.154416e+2, -752053.75, -16434.834, -136514.83, 0.024763359, -0.1271503, 8082.226, 8082.226, 0.0, 9.993352, 10.003087 
2.1453395e+3, 1.254916e+2, -1198948.6, -1685378.0, 21505.01, -0.05259922, -0.06744909, -1197999.8, 512177.8, 0.38350835, 10.007264, 9.996804 
2.1453086e+3, 1.3548842e+2, -1036358.5, -1599612.0, 14055.12, -0.042065706, -0.06061911, -1036008.0, 576199.25, 0.2812789, 10.0071125, 9.996723 
2.1452779e+3, 1.45485e+2, -920140.0, -1511441.9, 20255.598, -0.053603634, -0.07882196, -919446.94, 594793.4, 0.17525114, 10.006451, 9.996943 
2.1452476e+3, 1.5548223e+2, -905043.0, -1494464.1, 16957.04, -0.03757035, -0.044851605, -904555.56, 511712.13, 0.08680003, 10.005365, 9.996908 
2.145217e+3, 1.6547945e+2, -842421.2, -1351569.8, 20359.852, -0.020486362, -0.04474219, -841608.3, 476686.63, 0.031052263, 10.004558, 9.997606 
2.1451865e+3, 1.7547666e+2, -816726.9, -1297998.8, 27459.928, -0.010389623, -0.08033887, -815165.2, 405156.34, 0.006508708, 10.003989, 9.997575 
2.1451555e+3, 1.8547441e+2, -755310.2, -1125258.5, -194.68062, -0.0034338953, -0.0989258, -755310.1, 367032.06, 0.00038138597, 10.003318, 9.998411 
2.1451242e+3, 1.954727e+2, -770648.06, -1087873.5, -10277.89, 0.0026313066, -0.10714849, -770315.4, 254041.55, 0.000000000027357056, 10.002564, 9.998359 
2.1450928e+3, 2.0547114e+2, -767314.8, -1002353.6, -12094.834, -0.011089521, -0.106068894, -766694.06, 159678.03, 0.0, 10.001772, 9.998654 
2.1450607e+3, 2.154698e+2, -791393.25, -966338.5, -1549.3756, -0.041872784, -0.10152505, -791379.5, 37007.16, 0.0, 10.000945, 9.998628 
2.1450293e+3, 2.2546895e+2, -739281.7, -780462.7, -11512.839, -0.032741535, -0.093170546, -736281.6, -5886.098, 0.0, 10.000157, 9.99961 
2.144998e+3, 2.3546858e+2, -755614.25, -743270.94, -24088.822, 0.011028511, -0.08798002, -724575.75, -92177.0, 0.0, 9.999397, 9.999558 
2.1449669e+3, 2.4546844e+2, -755774.75, -650570.5, -13053.868, 0.026072603, -0.06962706, -648975.0, -114574.5, 0.0, 9.998543, 9.999933 
2.1449353e+3, 2.5546864e+2, -794623.94, -621897.9, -2205.4512, 0.016577953, -0.041197564, -621869.75, -185470.02, 0.0, 9.997617, 9.999904 
2.1449035e+3, 2.6546863e+2, -739736.44, -464859.84, -11374.372, 0.025455747, -0.06140501, -464390.0, -125989.74, 0.0, 9.996978, 10.000616 
2.1448718e+3, 2.754684e+2, -707408.3, -402818.9, -2407.1758, 0.05340671, -0.1401266, -402799.9, -162397.63, 0.0, 9.996545, 10.000579 
2.1448405e+3, 2.854698e+2, -637038.94, -213465.81, 7608.6426, 0.10027632, -0.10153848, -213329.19, -70940.88, 0.0, 9.995906, 10.0015135 
2.1448094e+3, 2.95473e+2, -652131.8, -171413.13, -1144.1853, 0.15404949, 0.07450178, -171410.4, -127054.914, 0.0, 9.995135, 10.001501 
2.1447769e+3, 3.054714e+2, -816203.5, -301689.6, 33357.445, -0.025474085, -0.19963838, -299535.97, -299535.97, 0.0, 9.994002, 10.000817 
2.1447475e+3, 3.1547466e+2, -837631.2, -15565.032, -75993.305, 0.16273062, 0.05839137, -8599.099, -8599.099, 0.0, 9.992594, 10.003454 
2.1553472e+3, 1.2552297e+2, -1219229.1, -1705910.9, 16364.384, -0.0055922703, -0.078373946, -1218679.5, 491189.25, 0.39623114, 10.007261, 9.996577 
2.1553157e+3, 1.3551985e+2, -1055880.0, -1623716.8, 10266.443, -0.04224934, -0.045052473, -1055694.4, 556204.1, 0.2910522, 10.007088, 9.996538 
2.155284e+3, 1.4551604e+2, -932987.5, -1527819.1, -11472.373, -0.0785099, -0.089139074, -932766.3, 581169.6, 0.18175754, 10.00643, 9.9968405 
2.155253e+3, 1.5551302e+2, -911141.8, -1505710.3, -16901.816, -0.023443995, -0.07257553, -910661.7, 505304.2, 0.0903596, 10.005371, 9.99683 
2.1552217e+3, 1.6551031e+2, -826925.25, -1318964.4, 1713.0404, -0.0036233622, -0.0699246, -826919.3, 491072.53, 0.032543924, 10.004565, 9.997828 
2.1551903e+3, 1.7550789e+2, -802827.2, -1268870.9, 7897.5596, -0.02242526, -0.091601565, -802693.4, 417321.06, 0.006920752, 10.003988, 9.997776 
2.1551587e+3, 1.8550575e+2, -773068.0, -1162267.3, -26520.78, -0.022392564, -0.09544627, -771269.2, 350765.44, 0.00042638276, 10.003316, 9.998159 
2.1551268e+3, 1.9550398e+2, -785829.6, -1120163.8, -36027.2, -0.0032820557, -0.084073305, -781991.44, 242059.86, 0.00000000007381513, 10.002565, 9.998138 
2.1550944e+3, 2.0550242e+2, -744969.6, -956911.75, -41146.324, 0.0022097158, -0.09027405, -737261.8, 188804.47, 0.0, 10.001773, 9.998967 
2.1550623e+3, 2.1550107e+2, -772192.25, -925988.06, -29986.912, -0.005340065, -0.118331805, -766552.25, 61526.977, 0.0, 10.000941, 9.998908 
2.1550298e+3, 2.2550026e+2, -763700.0, -831258.56, -38208.547, -0.016581979, -0.10011416, -746479.94, -16391.97, 0.0, 10.000155, 9.999264 
2.1549971e+3, 2.3550004e+2, -776448.0, -788112.3, -51743.195, -0.028449755, -0.047248352, -730209.3, -98117.21, 0.0, 9.999401, 9.99925 
2.1549651e+3, 2.4549969e+2, -732099.1, -602920.25, -48522.48, 0.010090949, -0.051592372, -586724.6, -52628.977, 0.0, 9.998547, 10.000259 
2.1549337e+3, 2.5549936e+2, -771339.8, -574716.3, -36291.844, 0.083770774, -0.10778058, -568231.6, -132133.78, 0.0, 9.99762, 10.000227 
2.1549009e+3, 2.6549977e+2, -718858.1, -423459.66, -27905.713, 0.06392873, -0.1182171, -420846.6, -82753.12, 0.0, 9.996984, 10.000899 
2.1548676e+3, 2.7550086e+2, -687314.2, -365650.38, -20009.88, -0.017064055, -0.094617054, -364410.38, -124327.62, 0.0, 9.996562, 10.000827 
2.1548358e+3, 2.8550196e+2, -669951.8, -285635.53, -23305.129, 0.04227628, -0.067714594, -284227.47, -142154.92, 0.0, 9.99592, 10.001011 
2.1548046e+3, 2.955031e+2, -681959.2, -237927.84, -31284.08, 0.16886503, -0.048911177, -235734.58, -191672.42, 0.0, 9.995152, 10.001037 
2.1547705e+3, 3.0550388e+2, -771281.44, -209185.06, -27992.559, -0.06356684, -0.09615973, -207794.47, -207794.47, 0.0, 9.994002, 10.001455 
2.1547407e+3, 3.1550595e+2, -722448.1, 216247.17, -15958.253, 0.21468149, -0.027453888, 216518.4, 216518.4, 0.0, 9.992612, 10.005045 
2.1653548e+3, 1.255551e+2, -1199495.0, -1702166.3, 22815.953, -0.0014632058, -0.070718445, -1198461.5, 511091.63, 0.40859833, 10.007685, 9.996414 
2.1653228e+3, 1.3555191e+2, -1107113.3, -1660169.8, 27124.518, -0.014082699, -0.038312078, -1105786.0, 505798.38, 0.3004676, 10.006681, 9.996487 
2.1652903e+3, 1.4554794e+2, -978198.56, -1533992.4, 16270.441, -0.06872888, -0.10230197, -977722.7, 535900.3, 0.18798062, 10.006008, 9.997 
2.1652582e+3, 1.55545e+2, -875237.7, -1470265.9, 28632.643, -0.028440265, -0.0916374, -873863.06, 541788.0, 0.09375613, 10.005593, 9.996965 
2.1652263e+3, 1.6554236e+2, -788779.2, -1313975.1, 43861.293, -0.0050011906, -0.08244639, -785141.4, 532535.1, 0.033974808, 10.004906, 9.997697 
2.1651943e+3, 1.7553994e+2, -808442.8, -1284361.3, 26127.732, -0.006617912, -0.089092374, -807012.7, 412687.16, 0.0073208455, 10.004009, 9.997659 
2.1651618e+3, 1.8553776e+2, -788262.56, -1166788.5, -8512.991, -0.01173796, -0.093478255, -788071.2, 333649.63, 0.00047157618, 10.003202, 9.998182 
2.1651289e+3, 1.9553588e+2, -798072.1, -1123682.1, 71.52095, -0.015530441, -0.09455344, -798072.1, 225666.38, 0.00000000020128568, 10.002472, 9.9981575 
2.1650963e+3, 2.0553435e+2, -750441.8, -952612.3, -8866.149, -0.007563245, -0.1013634, -750053.75, 175699.2, 0.0, 10.001707, 9.999027 
2.1650632e+3, 2.1553314e+2, -771144.56, -917529.44, -16698.088, 0.007938331, -0.12086404, -769264.0, 58500.184, 0.0, 10.000917, 9.998976 
2.1650301e+3, 2.2553235e+2, -758741.94, -829866.1, -14980.657, -0.0033168355, -0.103867926, -755715.4, -25942.604, 0.0, 10.000196, 9.999251 
2.1649966e+3, 2.3553202e+2, -757957.5, -779944.8, -3813.5667, -0.03267754, -0.059436176, -757314.9, -125536.62, 0.0, 9.999534, 9.999242 
2.1649636e+3, 2.4553165e+2, -704474.25, -583045.0, -7957.4526, 0.0048073363, -0.06842946, -582525.75, -48743.742, 0.0, 9.998709, 10.000318 
2.1649311e+3, 2.5553134e+2, -748671.6, -556223.7, -15469.532, 0.090052746, -0.12859234, -554988.1, -119204.42, 0.0, 9.997744, 10.000294 
2.1648978e+3, 2.6553193e+2, -731167.2, -427962.63, -14062.266, 0.06572162, -0.12289989, -427311.8, -89534.336, 0.0, 9.996895, 10.00091 
2.1648638e+3, 2.755334e+2, -745069.2, -391753.34, -27089.572, -0.026751, -0.061087783, -389688.4, -149924.98, 0.0, 9.9961605, 10.00084 
2.1648316e+3, 2.8553426e+2, -731528.8, -313533.6, -23400.313, 0.041197583, -0.059898116, -312227.66, -170472.03, 0.0, 9.995493, 10.001025 
2.1647996e+3, 2.9553452e+2, -743179.44, -269457.6, 3732.5454, 0.17641889, -0.13559866, -269428.2, -225674.02, 0.0, 9.994744, 10.001016 
2.1647647e+3, 3.055367e+2, -769833.4, -175030.67, -3292.8232, -0.031323947, -0.05002931, -175012.45, -175012.45, 0.0, 9.993875, 10.001748 
2.1647334e+3, 3.1553683e+2, -622085.0, 238055.1, 50681.18, 0.19394211, -0.2122206, 241031.03, 241031.03, 0.0, 9.993415, 10.004807 
2.1753621e+3, 1.2558787e+2, -1217102.5, -1719199.4, -3450.4446, -0.039222367, -0.048753317, -1217078.8, 492153.13, 0.42032224, 10.00766, 9.996279 
2.17533e+3, 1.3558447e+2, -1109424.5, -1650114.1, 3435.3596, 0.038149282, -0.039589334, -1109402.8, 501863.03, 0.3093201, 10.00669, 9.99655 
2.1752967e+3, 1.4558059e+2, -959856.06, -1485865.9, 5056.894, -0.02999673, -0.118127525, -959807.44, 553495.1, 0.19379823, 10.006017, 9.997371 
2.1752636e+3, 1.5557806e+2, -857371.44, -1424473.8, 14900.997, -0.053510603, -0.102630556, -856980.1, 558344.6, 0.09693275, 10.0055895, 9.997282 
2.175231e+3, 1.6557544e+2, -821016.2, -1381187.6, 12691.791, -0.025196243, -0.082856715, -820728.8, 496621.63, 0.03532558, 10.004901, 9.997238 
2.1751988e+3, 1.7557272e+2, -836742.2, -1344749.8, -4622.5527, 0.033977073, -0.074222684, -836700.1, 382678.75, 0.0077045322, 10.004013, 9.997244 
2.1751656e+3, 1.8557033e+2, -768755.7, -1127953.6, -33510.055, 0.025034256, -0.09397472, -765656.25, 355745.66, 0.0005162709, 10.003207, 9.998447 
2.1751313e+3, 1.9556831e+2, -781520.2, -1089879.9, -24950.375, -0.03506836, -0.13555516, -779514.44, 243904.97, 0.0000000009394869, 10.002473, 9.998391 
2.1750975e+3, 2.0556685e+2, -763345.94, -980357.25, -36533.336, -0.04016099, -0.13619329, -757360.7, 168072.36, 0.0, 10.001709, 9.998837 
2.175064e+3, 2.155659e+2, -782097.1, -941225.56, -43696.82, -0.0035432016, -0.11038808, -770887.56, 56555.18, 0.0, 10.000918, 9.998815 
2.17503e+3, 2.2556508e+2, -735724.9, -783351.0, -38197.41, 0.0056908275, -0.10670735, -714525.7, 14925.736, 0.0, 10.000199, 9.999571 
2.1749963e+3, 2.3556444e+2, -737553.0, -738560.06, -27923.797, -0.003471225, -0.12388438, -710128.2, -78669.945, 0.0, 9.999535, 9.999527 
2.1749625e+3, 2.4556422e+2, -719622.2, -615580.06, -44258.363, 0.008887878, -0.118618466, -599300.3, -65839.836, 0.0, 9.998712, 10.000094 
2.1749282e+3, 2.5556445e+2, -762935.5, -588019.0, -52025.92, 0.030606512, -0.10178363, -573714.56, -138256.25, 0.0, 9.997751, 10.000073 
2.1748942e+3, 2.65565e+2, -750001.9, -468623.66, -43446.285, 0.028551782, -0.07438504, -462068.03, -124614.46, 0.0, 9.9969, 10.000629 
2.1748605e+3, 2.7556595e+2, -760037.4, -424818.8, -53751.56, 0.026586633, -0.040348627, -416410.75, -176964.88, 0.0, 9.996167, 10.000611 
2.1748275e+3, 2.8556657e+2, -691266.9, -232104.3, -53550.46, 0.09740477, -0.0816368, -225941.61, -84502.33, 0.0, 9.995499, 10.001583 
2.1747942e+3, 2.9556704e+2, -711962.25, -206205.52, -32118.313, 0.16709864, -0.18830186, -204173.98, -160741.38, 0.0, 9.994748, 10.00145 
2.1747595e+3, 3.0556977e+2, -780993.06, -197864.67, -30944.889, 0.08957659, -0.058804803, -196227.11, -196227.11, 0.0, 9.993873, 10.001593 
2.1747258e+3, 3.1557083e+2, -790814.94, -122224.266, 17062.578, 0.09938691, -0.11499237, -121789.11, -121789.11, 0.0, 9.993454, 10.002316 
2.1853696e+3, 1.2562157e+2, -1226275.5, -1747154.4, 22653.969, -0.027138617, -0.059176717, -1225292.1, 483607.94, 0.43112773, 10.007774, 9.9960375 
2.185337e+3, 1.3561796e+2, -1077385.8, -1634377.5, 34386.08, 0.04214843, -0.06084149, -1075270.9, 535665.94, 0.31744486, 10.007117, 9.996458 
2.1853027e+3, 1.4561413e+2, -919058.06, -1466324.4, 31821.201, -0.031306416, -0.12731762, -917214.0, 595759.3, 0.19913237, 10.006412, 9.997347 
2.1852693e+3, 1.5561171e+2, -849815.7, -1423054.0, 18526.168, -0.04347593, -0.09876378, -849217.56, 565776.94, 0.09986166, 10.005679, 9.997248 
2.1852358e+3, 1.6560902e+2, -822032.94, -1382137.1, 13454.5, -0.0205812, -0.082578294, -821709.94, 495310.78, 0.036588844, 10.004904, 9.99723 
2.1852027e+3, 1.7560613e+2, -826010.44, -1339839.4, 26456.684, 0.019930057, -0.08969019, -824651.75, 394399.2, 0.00807031, 10.004091, 9.997239 
2.1851684e+3, 1.8560375e+2, -744119.5, -1108485.5, 8642.062, 0.013367501, -0.108875155, -743914.6, 377158.97, 0.00055994984, 10.003346, 9.998513 
2.1851338e+3, 1.9560193e+2, -749652.0, -1066774.1, 2474.7874, -0.028101675, -0.13826022, -749632.7, 273456.44, 0.00000000393543, 10.002661, 9.998457 
2.1850991e+3, 2.0560047e+2, -737432.94, -973273.0, -11587.815, -0.035850104, -0.13894844, -736864.94, 188237.89, 0.0, 10.001913, 9.998786 
2.1850647e+3, 2.1559939e+2, -756008.6, -933286.5, -9738.936, -0.017579619, -0.12129551, -755475.2, 71638.96, 0.0, 10.00112, 9.998771 
2.1850303e+3, 2.2559857e+2, -726978.56, -767601.75, -9788.957, 0.00021249733, -0.119035915, -724742.75, 4379.677, 0.0, 10.000212, 9.999672 
2.1849959e+3, 2.3559804e+2, -778407.4, -747280.56, -15511.82, 0.020796385, -0.13449721, -740870.44, -109742.97, 0.0, 9.999209, 9.999622 
2.184961e+3, 2.4559785e+2, -743494.1, -634131.8, -24085.385, 0.0205467, -0.12819766, -629062.3, -95932.766, 0.0, 9.998581, 10.000029 
2.1849258e+3, 2.5559804e+2, -697417.9, -564361.06, -21516.697, -0.0012975531, -0.107907705, -560968.1, -125839.875, 0.0, 9.998237, 10.000001 
2.1848911e+3, 2.6559854e+2, -689650.6, -447813.72, -11931.6875, 0.009480998, -0.07952463, -447226.47, -110101.99, 0.0, 9.997352, 10.000554 
2.184857e+3, 2.755993e+2, -783291.25, -443558.25, -5013.0215, 0.06156326, -0.054372307, -443484.28, -204365.81, 0.0, 9.996041, 10.000543 
2.184823e+3, 2.8559992e+2, -735823.75, -241209.5, -6090.113, 0.117062606, -0.09737622, -241134.53, -100022.51, 0.0, 9.995142, 10.001692 
2.1847886e+3, 2.9560077e+2, -735392.44, -205499.77, -23956.223, 0.13085185, -0.17777668, -204418.92, -161316.94, 0.0, 9.994538, 10.001555 
2.1847539e+3, 3.0560368e+2, -744685.06, -189366.42, -14356.0625, 0.12951073, -0.029478246, -188995.53, -188995.53, 0.0, 9.994159, 10.001514 
2.1847187e+3, 3.156047e+2, -769252.44, -172310.05, 2160.1152, 0.027095063, -0.081709415, -172302.23, -172302.23, 0.0, 9.993862, 10.001775 
2.195378e+3, 1.2565598e+2, -1251594.5, -1798147.1, 1069.2013, 0.017810624, -0.10681119, -1251592.5, 456967.8, 0.44089827, 10.007725, 9.995706 
2.1953435e+3, 1.3565221e+2, -1095155.1, -1667488.0, 19115.473, -0.00012351833, -0.09939185, -1094517.4, 516081.78, 0.3248034, 10.007103, 9.996233 
2.1953088e+3, 1.4564845e+2, -944298.2, -1512907.0, 11535.17, -0.070728034, -0.12955722, -944064.25, 568572.06, 0.20398651, 10.006413, 9.99695 
2.1952754e+3, 1.5564582e+2, -872184.9, -1473355.6, -3404.0852, -0.0038032583, -0.081728846, -872165.6, 542495.44, 0.10255344, 10.005687, 9.9969 
2.195241e+3, 1.65643e+2, -795609.3, -1325531.3, -13693.507, 0.0038946082, -0.08282721, -795255.75, 521432.5, 0.037769455, 10.004909, 9.997617 
2.195206e+3, 1.7564008e+2, -801198.7, -1288370.3, -1386.4321, -0.046168108, -0.13262953, -801194.75, 417522.3, 0.008419428, 10.004093, 9.997593 
2.1951711e+3, 1.8563797e+2, -752561.7, -1126894.8, -15016.013, -0.04399255, -0.13563049, -751960.3, 368776.78, 0.00060259766, 10.003348, 9.998387 
2.1951367e+3, 1.9563662e+2, -756949.7, -1082261.9, -21099.857, 0.00228846, -0.104791954, -755586.8, 267162.16, 0.000000012004619, 10.00266, 9.998353 
2.1951015e+3, 2.0563507e+2, -731740.2, -962343.2, -39680.207, 0.0021183542, -0.112129144, -725103.4, 199660.27, 0.0, 10.001915, 9.998862 
2.1950656e+3, 2.156335e+2, -751997.75, -925139.44, -37523.11, -0.03562648, -0.15213329, -744215.56, 82563.836, 0.0, 10.001119, 9.998829 
2.1950303e+3, 2.2563274e+2, -735254.4, -785445.4, -45754.61, -0.020060567, -0.13913082, -708164.94, 20621.975, 0.0, 10.000213, 9.999551 
2.1949951e+3, 2.3563273e+2, -785461.56, -763026.9, -50417.465, 0.037714686, -0.09099814, -722593.94, -91806.77, 0.0, 9.999212, 9.999515 
2.1949597e+3, 2.456324e+2, -736452.9, -621284.1, -37283.137, 0.038210675, -0.09774251, -610268.25, -77477.83, 0.0, 9.998586, 10.000115 
2.194924e+3, 2.5563198e+2, -690265.3, -552845.6, -36999.25, -0.00780137, -0.1477971, -543517.1, -108722.35, 0.0, 9.998249, 10.000075 
2.1948884e+3, 2.6563236e+2, -678444.5, -427617.5, -62805.285, 0.0072917286, -0.14073184, -412770.34, -75979.01, 0.0, 9.997362, 10.0006895 
2.194853e+3, 2.7563336e+2, -775660.06, -429003.5, -52879.71, 0.075259805, -0.10521727, -421116.56, -182334.5, 0.0, 9.996045, 10.000642 
2.1948178e+3, 2.8563425e+2, -764174.4, -300601.44, -30026.783, 0.09726398, -0.10590261, -298664.63, -157889.97, 0.0, 9.995141, 10.001286 
2.1947822e+3, 2.9563555e+2, -752054.75, -243079.05, -47664.742, 0.06382426, -0.0994053, -238653.8, -195890.28, 0.0, 9.994548, 10.001294 
2.1947476e+3, 3.0563834e+2, -733798.7, -173739.08, -22202.016, 0.06686822, 0.038316682, -172860.31, -172860.31, 0.0, 9.994187, 10.001609 
2.1947141e+3, 3.1563747e+2, -618000.06, 139400.44, -72592.91, 0.18279071, -0.19857119, 146295.33, 146295.33, 0.0, 9.993877, 10.003906 
2.2053856e+3, 1.2569103e+2, -1283702.6, -1803437.6, 1017.29645, 0.020705855, -0.11411521, -1283700.6, 424515.1, 0.44975382, 10.00734, 9.995854 
2.2053505e+3, 1.3568737e+2, -1056327.1, -1622380.8, 39514.383, -0.025553415, -0.1129823, -1053582.0, 556671.4, 0.33150545, 10.007488, 9.996366 
2.2053152e+3, 1.4568368e+2, -896199.9, -1504800.8, 32890.785, -0.08593965, -0.1309919, -894427.5, 617862.7, 0.20843743, 10.006952, 9.996758 
2.205281e+3, 1.5568072e+2, -858793.3, -1485226.5, 32975.203, 0.006335456, -0.09582785, -857062.25, 557256.6, 0.105044335, 10.005888, 9.996722 
2.2052458e+3, 1.6567792e+2, -772911.2, -1297233.8, 26211.693, 0.011463294, -0.093423285, -771604.1, 544741.8, 0.038877092, 10.005003, 9.997769 
2.20521e+3, 1.756753e+2, -766544.8, -1255262.3, 22444.357, -0.06260799, -0.12642337, -765516.25, 452854.94, 0.008752948, 10.004267, 9.997735 
2.2051743e+3, 1.8567325e+2, -743501.44, -1128050.6, 4654.551, -0.061331857, -0.12829852, -743445.1, 376945.56, 0.0006443211, 10.003437, 9.998336 
2.2051391e+3, 1.9567174e+2, -777776.06, -1097090.8, 3074.6555, 0.0022430539, -0.10787244, -777746.5, 244658.03, 0.00000003061151, 10.00254, 9.998308 
2.2051033e+3, 2.0567018e+2, -750902.6, -968429.1, -13053.69, 0.009597348, -0.11498928, -750122.06, 174297.23, 0.0, 10.001772, 9.998888 
2.2050667e+3, 2.1566871e+2, -752214.8, -921954.94, -15989.738, -0.027607145, -0.1477718, -750721.7, 75712.23, 0.0, 10.001105, 9.998856 
2.2050305e+3, 2.2566786e+2, -704026.2, -773245.8, -24387.57, -0.018950453, -0.14272845, -696296.94, 32145.006, 0.0, 10.000442, 9.999522 
2.2049944e+3, 2.3566763e+2, -704363.5, -726067.7, -21242.54, 0.026930556, -0.112962745, -691361.56, -60917.664, 0.0, 9.999781, 9.999493 
2.2049582e+3, 2.4566735e+2, -704297.06, -603830.6, -5167.599, 0.03451979, -0.11410302, -603565.5, -71118.6, 0.0, 9.9988, 10.000131 
2.2049221e+3, 2.5566715e+2, -787491.1, -598025.4, -10350.791, 0.011435245, -0.1426246, -597461.56, -163011.92, 0.0, 9.997577, 10.000089 
2.2048858e+3, 2.6566747e+2, -738108.2, -451976.97, -42099.29, 0.020203466, -0.14161888, -445911.34, -109464.9, 0.0, 9.996936, 10.000727 
2.2048491e+3, 2.7566826e+2, -679973.56, -380576.22, -41392.53, 0.058726344, -0.13003151, -374958.97, -136520.66, 0.0, 9.996694, 10.000661 
2.2048129e+3, 2.8566915e+2, -675959.44, -286966.0, -16414.406, 0.07953212, -0.11764344, -286274.6, -145843.47, 0.0, 9.9958725, 10.001026 
2.2047769e+3, 2.9567054e+2, -736974.8, -253502.42, -20266.082, 0.07394527, -0.08041809, -252654.39, -210233.83, 0.0, 9.99473, 10.001134 
2.2047412e+3, 3.056727e+2, -762278.4, -165276.97, 22514.602, 0.041560493, -0.007923357, -164429.08, -164429.08, 0.0, 9.9938965, 10.001807 
2.2047085e+3, 3.1567273e+2, -699193.06, 178875.73, -39038.613, 0.26401109, -0.1668266, 180607.97, 180607.97, 0.0, 9.992988, 10.004603 
2.2153923e+3, 1.2572664e+2, -1270916.4, -1728485.4, 563.8596, -0.020421881, -0.08923777, -1270915.6, 436951.47, 0.45798647, 10.007331, 9.996372 
2.2153577e+3, 1.3572326e+2, -1046408.5, -1579034.4, 42591.08, -0.042725787, -0.10500079, -1043024.2, 566876.7, 0.33774862, 10.007443, 9.99678 
2.215322e+3, 1.4571966e+2, -904409.2, -1509259.0, 2200.8938, -0.086747035, -0.13204502, -904401.1, 607535.2, 0.21259646, 10.006915, 9.996738 
2.2152868e+3, 1.5571629e+2, -862582.0, -1489323.3, -360.77924, -0.011478245, -0.13716888, -862581.75, 551387.5, 0.10738181, 10.005879, 9.996698 
2.2152507e+3, 1.6571367e+2, -777873.06, -1307797.5, 1991.2572, 0.003666287, -0.111630544, -777865.56, 538129.44, 0.039923303, 10.005007, 9.997694 
2.2152144e+3, 1.7571169e+2, -770129.0, -1264359.4, -3140.0706, -0.03481196, -0.07420284, -770109.06, 447905.7, 0.00907106, 10.004272, 9.997671 
2.215178e+3, 1.8570946e+2, -741342.1, -1125915.4, -27208.006, -0.043934617, -0.09017702, -739426.7, 380609.16, 0.00068493106, 10.003445, 9.998348 
2.2151414e+3, 1.957072e+2, -776499.1, -1096374.6, -27722.898, -0.02837456, -0.14537711, -774114.2, 247942.34, 0.000000067517966, 10.002545, 9.998311 
2.2151047e+3, 2.0570572e+2, -752383.06, -973504.44, -36177.234, -0.012085764, -0.1448734, -746614.7, 177455.95, 0.0, 10.001779, 9.998851 
2.215068e+3, 2.1570487e+2, -753688.75, -925677.2, -38578.355, 0.0035870823, -0.108802915, -745431.75, 80647.19, 0.0, 10.001105, 9.998831 
2.215031e+3, 2.2570379e+2, -699277.2, -764086.44, -47601.01, 0.0009980161, -0.1312002, -674097.9, 53991.01, 0.0, 10.0004425, 9.999587 
2.2149937e+3, 2.3570263e+2, -699979.44, -718329.5, -46381.41, -0.013878249, -0.20079412, -661874.25, -31775.367, 0.0, 9.999784, 9.999545 
2.2149567e+3, 2.457026e+2, -708373.7, -613415.06, -52042.41, 0.009067148, -0.17748408, -590448.0, -58347.848, 0.0, 9.998803, 10.000065 
2.2149199e+3, 2.5570348e+2, -791669.56, -607452.2, -54125.844, 0.056422766, -0.08997612, -592726.3, -158632.47, 0.0, 9.997578, 10.000025 
2.2148828e+3, 2.6570383e+2, -742350.4, -462103.47, -51700.96, 0.04695565, -0.079947464, -452869.75, -116778.99, 0.0, 9.996939, 10.000657 
2.2148453e+3, 2.7570397e+2, -681694.9, -389555.28, -55729.01, 0.0026752888, -0.12760852, -379285.38, -141197.0, 0.0, 9.996714, 10.000591 
2.2148086e+3, 2.8570458e+2, -680556.5, -301073.72, -62772.195, 0.062303774, -0.13288432, -290959.8, -150877.27, 0.0, 9.995891, 10.000921 
2.2147727e+3, 2.9570553e+2, -739203.2, -259773.02, -57887.203, 0.17658575, -0.12559327, -252882.64, -210808.42, 0.0, 9.994735, 10.00109 
2.2147352e+3, 3.0570656e+2, -738526.56, -116707.08, -10144.406, 0.047352813, -0.18590751, -116541.625, -116541.625, 0.0, 9.993895, 10.002144 
2.2147e+3, 3.1570977e+2, -813462.3, -62981.465, -10376.245, 0.13718198, -0.05438955, -62838.03, -62838.03, 0.0, 9.993003, 10.002937 
2.2253999e+3, 1.2576278e+2, -1214110.8, -1689807.8, 28676.16, -0.030556098, -0.14105812, -1212388.4, 495122.7, 0.46593094, 10.008154, 9.9963455 
2.225365e+3, 1.357599e+2, -1124139.4, -1632939.8, 56720.082, -0.024001308, -0.092500016, -1117893.1, 491648.78, 0.34374115, 10.006737, 9.996667 
2.2253288e+3, 1.4575653e+2, -992287.44, -1528690.6, 16430.086, -0.061055657, -0.10645175, -991784.7, 519790.63, 0.21657228, 10.006034, 9.997025 
2.2252922e+3, 1.5575309e+2, -851182.1, -1453483.8, 32854.94, -0.033635195, -0.14424971, -849395.2, 564212.4, 0.109610446, 10.005855, 9.996957 
2.2252557e+3, 1.6575038e+2, -751647.06, -1313448.1, 36934.59, -0.016546696, -0.13124217, -749229.25, 566404.7, 0.040918797, 10.005284, 9.9975195 
2.225219e+3, 1.7574826e+2, -756871.25, -1275204.1, 25421.07, -0.01381745, -0.088831976, -755627.44, 462027.72, 0.009373281, 10.004442, 9.997515 
2.2251816e+3, 1.85746e+2, -709862.3, -1112486.9, -3001.9402, -0.02804685, -0.09986529, -709839.94, 409837.03, 0.000723853, 10.003671, 9.99833 
2.2251438e+3, 1.9574375e+2, -716732.8, -1068086.8, -6634.819, -0.05291294, -0.15125182, -716607.56, 305090.28, 0.00000012235222, 10.002961, 9.998304 
2.2251065e+3, 2.0574228e+2, -696011.06, -939892.56, -10971.343, -0.033714328, -0.1513852, -695518.5, 228193.17, 0.0, 10.00214, 9.998906 
2.2250694e+3, 2.1574147e+2, -730960.56, -908246.4, -7583.2065, 0.017926976, -0.118688084, -730636.8, 95082.54, 0.0, 10.001237, 9.998886 
2.2250316e+3, 2.2574036e+2, -722656.1, -778744.7, -18087.832, 0.017845819, -0.14350812, -717329.0, 10400.476, 0.0, 10.000299, 9.999554 
2.2249931e+3, 2.3573916e+2, -768051.0, -754349.9, -24202.455, -0.018949589, -0.21458842, -736047.1, -106306.8, 0.0, 9.999334, 9.999514 
2.2249553e+3, 2.4573913e+2, -735091.0, -629428.3, -31920.27, 0.003299253, -0.18379825, -620534.06, -88792.68, 0.0, 9.998637, 10.000033 
2.224918e+3, 2.557401e+2, -713977.06, -571350.2, -30583.762, 0.0669424, -0.08376355, -565068.75, -131334.5, 0.0, 9.99812, 10.000009 
2.2248799e+3, 2.657404e+2, -686401.9, -430216.94, -12433.588, 0.054247286, -0.08307602, -429614.9, -93883.12, 0.0, 9.997305, 10.000697 
2.2248416e+3, 2.7574039e+2, -741405.5, -412278.8, -10718.709, -0.005831305, -0.14958984, -411930.1, -174199.38, 0.0, 9.996282, 10.000642 
2.2248042e+3, 2.8574115e+2, -715373.5, -304035.2, -10048.651, 0.055416282, -0.14858972, -303789.84, -164066.86, 0.0, 9.995596, 10.001041 
2.2247675e+3, 2.957422e+2, -684609.3, -230954.61, 11175.46, 0.1782027, -0.13945635, -230679.48, -188966.77, 0.0, 9.995101, 10.00111 
2.224729e+3, 3.057429e+2, -729423.06, -130254.49, 23637.455, 0.052608967, -0.22430342, -129323.43, -129323.43, 0.0, 9.99404, 10.001979 
2.2246929e+3, 3.1574613e+2, -873514.5, -116190.234, 27695.672, 0.14365435, -0.08057526, -115178.74, -115178.74, 0.0, 9.992703, 10.002712 
2.235408e+3, 1.2579945e+2, -1249772.5, -1755443.0, -2938.6123, -0.031404726, -0.24555883, -1249755.5, 457392.25, 0.47390294, 10.008018, 9.995859 
2.235372e+3, 1.3579717e+2, -1157282.9, -1713444.6, 27952.934, 0.025157748, -0.07352573, -1155881.5, 453295.7, 0.34969756, 10.006698, 9.996117 
2.2353353e+3, 1.4579414e+2, -963988.8, -1462862.0, 13237.356, -0.012664704, -0.05572714, -963637.8, 547570.0, 0.22048238, 10.0060425, 9.997567 
2.2352979e+3, 1.5579098e+2, -820239.9, -1385555.4, 25963.795, -0.06339119, -0.120603316, -819049.9, 594185.44, 0.1117776, 10.00587, 9.997439 
2.2352605e+3, 1.657879e+2, -768574.44, -1351545.5, 7644.255, -0.052490424, -0.15264907, -768474.25, 546790.06, 0.041875284, 10.005293, 9.997254 
2.2352234e+3, 1.7578498e+2, -774129.44, -1311667.5, -3507.3025, -0.0007088279, -0.16538161, -774106.56, 443186.7, 0.009660196, 10.004441, 9.997266 
2.2351854e+3, 1.857828e+2, -714038.06, -1121310.0, -27414.19, -0.01386629, -0.15285863, -712201.06, 407113.7, 0.00076082407, 10.00367, 9.998271 
2.2351465e+3, 1.9578129e+2, -719823.44, -1074282.0, -31307.72, -0.07326516, -0.12612748, -717079.4, 304250.22, 0.00000018696807, 10.002957, 9.998264 
2.2351085e+3, 2.0577978e+2, -686390.06, -919970.94, -43141.71, -0.05680387, -0.13605215, -678676.6, 244667.06, 0.0, 10.002138, 9.999046 
2.2350706e+3, 2.1577835e+2, -722784.06, -891361.6, -39270.715, 0.014369215, -0.1765051, -714084.7, 111271.5, 0.0, 10.001235, 9.999004 
2.235032e+3, 2.2577746e+2, -732097.2, -799158.8, -52815.69, 0.03136796, -0.17797178, -703067.56, 24297.229, 0.0, 10.000301, 9.9994135 
2.2349927e+3, 2.3577707e+2, -776475.5, -772991.44, -58147.133, 0.009688704, -0.15334077, -716560.25, -87190.97, 0.0, 9.999336, 9.999386 
2.2349541e+3, 2.4577689e+2, -734591.4, -629498.8, -51634.617, 0.015588415, -0.13366319, -608375.3, -77003.51, 0.0, 9.998639, 10.000033 
2.2349158e+3, 2.5577694e+2, -710479.94, -567186.1, -52205.336, 0.03799022, -0.12638198, -550183.9, -116811.77, 0.0, 9.998132, 10.000033 
2.2348769e+3, 2.6577705e+2, -675308.3, -409149.03, -53070.25, 0.04043045, -0.15352672, -398957.44, -63586.54, 0.0, 9.997312, 10.00084 
2.2348382e+3, 2.757774e+2, -729342.4, -387114.3, -47991.918, 0.038236804, -0.19730067, -380511.63, -143145.11, 0.0, 9.996279, 10.000817 
2.2347999e+3, 2.8577873e+2, -689985.1, -252204.0, -29063.326, 0.057072066, -0.16628842, -250282.98, -110929.62, 0.0, 9.995597, 10.001399 
2.2347614e+3, 2.9578048e+2, -677146.75, -221520.56, -11736.722, 0.05691412, -0.12202925, -221218.42, -179881.75, 0.0, 9.995124, 10.001165 
2.2347231e+3, 3.0578178e+2, -785652.6, -248215.53, -32915.105, 0.06333392, -0.096615136, -246207.17, -246207.17, 0.0, 9.994044, 10.001166 
2.2346863e+3, 3.1578234e+2, -748316.2, 142147.84, -38580.605, 0.2218285, -0.17130518, 143816.28, 143816.28, 0.0, 9.992701, 10.004493 
2.2454143e+3, 1.2583779e+2, -1378577.8, -1832783.5, 9607.204, -0.10475023, -0.24454801, -1378374.6, 328396.56, 0.48218426, 10.006246, 9.996183 
2.2453786e+3, 1.3583553e+2, -1190823.1, -1715342.1, 84154.63, 0.029800287, -0.097499855, -1177652.0, 431147.53, 0.35583943, 10.006288, 9.996337 
2.2453418e+3, 1.4583226e+2, -950377.0, -1477797.1, 86250.984, 0.039126907, -0.09696502, -936630.3, 574202.0, 0.2244575, 10.006316, 9.997303 
2.2453041e+3, 1.5582915e+2, -770854.7, -1383257.6, 56646.27, -0.03270634, -0.13246967, -765659.06, 647200.94, 0.11393202, 10.006374, 9.997213 
2.2452661e+3, 1.6582607e+2, -707905.4, -1309888.3, 1178.847, -0.04397825, -0.15798554, -707903.06, 606986.0, 0.042800657, 10.005688, 9.997351 
2.2452278e+3, 1.7582309e+2, -760835.06, -1294395.3, 14261.257, -0.011970731, -0.18330346, -760454.1, 456464.2, 0.009931555, 10.004492, 9.997359 
2.2451887e+3, 1.8582092e+2, -740840.44, -1136465.9, 11265.599, -0.017261263, -0.17354399, -740519.9, 378419.97, 0.0007958755, 10.003497, 9.998249 
2.2451495e+3, 1.9581944e+2, -765954.06, -1098218.3, 9163.57, -0.050397314, -0.14070052, -765701.56, 255253.11, 0.000000258046, 10.00265, 9.998247 
2.2451104e+3, 2.0581795e+2, -722170.8, -931648.8, -6653.663, -0.04482372, -0.14995079, -721959.7, 201009.05, 0.0, 10.001871, 9.999093 
2.2450712e+3, 2.1581653e+2, -733072.75, -891132.6, -10521.418, -0.009969496, -0.19438823, -732375.44, 92605.77, 0.0, 10.001144, 9.999048 
2.245032e+3, 2.2581574e+2, -701702.5, -785057.56, -18922.063, 0.008609799, -0.18458702, -697608.2, 29380.62, 0.0, 10.000514, 9.999407 
2.2449924e+3, 2.3581558e+2, -688083.6, -730327.4, -13925.285, 0.016603354, -0.13711302, -683906.3, -54914.766, 0.0, 9.999947, 9.999383 
2.2449529e+3, 2.4581526e+2, -677295.25, -599775.25, -4297.2285, 0.0233431, -0.13165425, -599537.75, -68542.65, 0.0, 9.999027, 10.000049 
2.2449133e+3, 2.5581494e+2, -751022.25, -584361.9, -4777.669, 0.025823735, -0.16440853, -584225.0, -151226.6, 0.0, 9.997847, 10.0000515 
2.2448741e+3, 2.6581508e+2, -729091.5, -432024.72, -11811.286, 0.03282202, -0.18496102, -431555.84, -96559.3, 0.0, 9.996934, 10.000863 
2.2448345e+3, 2.7581578e+2, -736677.56, -385672.63, -14837.927, 0.05554449, -0.19387752, -385046.5, -148057.27, 0.0, 9.996212, 10.000856 
2.2447954e+3, 2.8581727e+2, -686585.06, -227923.95, 1355.9414, 0.075702794, -0.16322462, -227919.95, -88944.95, 0.0, 9.995527, 10.001596 
2.2447564e+3, 2.9581916e+2, -710411.7, -219855.06, 1454.2507, 0.057324037, -0.12743837, -219850.75, -178893.95, 0.0, 9.994824, 10.001318 
2.2447167e+3, 3.058204e+2, -823679.3, -268773.25, 1933.6117, 0.054100834, -0.10624304, -268766.5, -268766.5, 0.0, 9.993795, 10.001144 
2.2446784e+3, 3.158201e+2, -740623.9, 192491.05, 38930.008, 0.17924355, -0.2734377, 194112.4, 194112.4, 0.0, 9.992555, 10.0049095 
2.2554189e+3, 1.2587783e+2, -1349673.1, -1697031.8, 11737.462, -0.25004017, -0.13131128, -1349277.0, 357103.88, 0.49100205, 10.006227, 9.997181 
2.2553845e+3, 1.3587481e+2, -1144748.6, -1590220.8, 77293.71, -0.012522616, -0.16030753, -1131718.5, 476692.03, 0.3623551, 10.006418, 9.997163 
2.2553486e+3, 1.458708e+2, -993976.25, -1605830.9, 89967.836, 0.08563577, -0.2178755, -981021.56, 529428.2, 0.22860765, 10.006424, 9.996332 
2.2553113e+3, 1.5586749e+2, -824703.8, -1503459.4, 57208.297, 0.050319906, -0.17517883, -819915.9, 592566.4, 0.11610976, 10.006374, 9.996368 
2.2552723e+3, 1.6586478e+2, -684614.56, -1255618.0, -39277.543, 0.0043101357, -0.1483335, -681925.44, 632583.56, 0.043695536, 10.005663, 9.997753 
2.2552317e+3, 1.7586249e+2, -734912.8, -1240127.9, -26996.455, -0.047662474, -0.14679173, -733474.4, 483057.3, 0.010184369, 10.00449, 9.997733 
2.255192e+3, 1.8586022e+2, -739967.44, -1136126.8, -18784.05, -0.03887152, -0.16423085, -739078.8, 379475.0, 0.00082856487, 10.003501, 9.998251 
2.2551528e+3, 1.958581e+2, -765596.8, -1098301.1, -19882.191, 0.011525763, -0.19364737, -764412.9, 256161.17, 0.0000003336063, 10.002651, 9.998247 
2.2551125e+3, 2.058567e+2, -725912.9, -940690.2, -31712.857, -0.0006041363, -0.19142021, -721328.2, 201259.45, 0.0, 10.001874, 9.99903 
2.255072e+3, 2.1585585e+2, -735986.6, -897725.6, -34798.742, -0.057025317, -0.17318352, -728817.4, 95778.266, 0.0, 10.001144, 9.999004 
2.2550318e+3, 2.258551e+2, -693495.0, -768264.7, -38536.367, -0.050942753, -0.16501246, -677189.25, 49413.566, 0.0, 10.000513, 9.999524 
2.2549921e+3, 2.3585454e+2, -679354.94, -713757.94, -36190.207, 0.0005811088, -0.16736801, -656486.2, -27877.836, 0.0, 9.99995, 9.999496 
2.2549519e+3, 2.4585412e+2, -675624.94, -597481.4, -49395.01, 0.025919715, -0.1777256, -573573.25, -42960.79, 0.0, 9.99903, 10.000064 
2.254911e+3, 2.5585395e+2, -750802.44, -585454.7, -48671.254, 0.028250149, -0.19656882, -572191.8, -139577.56, 0.0, 9.997851, 10.000043 
2.2548708e+3, 2.6585445e+2, -736966.25, -448850.5, -40755.6, 0.029242076, -0.1762587, -443196.34, -108586.64, 0.0, 9.996934, 10.000749 
2.2548306e+3, 2.7585554e+2, -745313.44, -404458.97, -42590.055, 0.04044565, -0.13752693, -399217.9, -162617.88, 0.0, 9.996213, 10.000729 
2.2547913e+3, 2.8585663e+2, -686303.9, -228625.23, -27328.123, 0.112697944, -0.13614394, -226999.25, -88410.195, 0.0, 9.995529, 10.001592 
2.2547524e+3, 2.95858e+2, -691357.6, -183351.27, -30734.074, 0.19242434, -0.15046893, -181498.63, -140924.34, 0.0, 9.994834, 10.001566 
2.2547102e+3, 3.0585834e+2, -759883.25, -136502.39, -45534.402, 0.015800774, -0.29106265, -133193.92, -133193.92, 0.0, 9.993794, 10.002053 
2.25467e+3, 3.158616e+2, -820822.9, 24300.375, 24607.354, 0.08201097, -0.16018975, 25016.258, 25016.258, 0.0, 9.992556, 10.003756 
2.2653924e+3, 1.3591412e+2, -831255.1, -1475184.9, 112017.9, -0.049107656, -0.21826157, -812325.06, 795697.9, 0.36930844, 10.010149, 9.996618 
2.265357e+3, 1.4591053e+2, -642523.6, -1400352.3, 37683.37, 0.111330755, -0.21627216, -640654.44, 869403.94, 0.23294199, 10.009544, 9.996442 
2.2653174e+3, 1.5590712e+2, -821328.6, -1488622.8, 66872.016, 0.029337566, -0.19492584, -814693.1, 597399.4, 0.118294746, 10.006361, 9.996476 
2.265277e+3, 1.6590448e+2, -792687.4, -1300759.5, 18086.129, -0.020341966, -0.16703956, -792044.4, 522074.53, 0.04454377, 10.004863, 9.997812 
2.2652364e+3, 1.7590241e+2, -721225.3, -1225798.0, 7337.372, -0.046261527, -0.14984803, -721118.7, 495021.28, 0.010411241, 10.004557, 9.997799 
2.2651955e+3, 1.8590026e+2, -679654.0, -1094689.4, 3909.7915, -0.033676527, -0.16315952, -679617.2, 438543.72, 0.0008574611, 10.003866, 9.998358 
2.2651553e+3, 1.958982e+2, -722213.7, -1065946.4, 8887.829, 0.0062731057, -0.19642064, -721984.0, 298196.34, 0.00000039847941, 10.002903, 9.998347 
2.2651145e+3, 2.0589682e+2, -712640.56, -938933.4, 4153.7656, -0.0033075027, -0.19322196, -712564.4, 209629.39, 0.0, 10.001987, 9.998986 
2.265073e+3, 2.1589598e+2, -744556.1, -905342.1, 2001.3817, -0.048516594, -0.16928823, -744531.2, 79670.75, 0.0, 10.001103, 9.99897 
2.2650322e+3, 2.2589515e+2, -734896.7, -782426.1, -1199.7335, -0.045042124, -0.1688422, -734866.44, -8656.643, 0.0, 10.000207, 9.999573 
2.2649914e+3, 2.3589447e+2, -771611.3, -752612.9, -4342.739, -0.004091619, -0.18879505, -751667.25, -123450.96, 0.0, 9.999295, 9.999544 
2.2649504e+3, 2.4589412e+2, -737835.4, -624848.1, -22994.574, 0.020566894, -0.19467008, -620347.6, -90128.1, 0.0, 9.998594, 10.000085 
2.2649091e+3, 2.5589415e+2, -724045.3, -570909.7, -21503.35, 0.029363506, -0.19203785, -567947.44, -135728.23, 0.0, 9.998031, 10.000054 
2.2648679e+3, 2.6589462e+2, -679964.3, -427328.16, -6083.942, 0.030179875, -0.17478342, -427181.72, -92966.39, 0.0, 9.997354, 10.000692 
2.2648269e+3, 2.7589542e+2, -700281.5, -389301.03, -5174.705, 0.039715976, -0.15858643, -389214.97, -153006.55, 0.0, 9.996553, 10.000667 
2.2647868e+3, 2.8589648e+2, -691017.4, -236586.63, 6406.2183, 0.11625692, -0.15232098, -236496.34, -98298.76, 0.0, 9.995525, 10.001538 
2.264747e+3, 2.9589814e+2, -752109.7, -205492.58, -2773.7637, 0.20001505, -0.13370846, -205478.52, -165298.44, 0.0, 9.994391, 10.001625 
2.2647038e+3, 3.058981e+2, -754979.4, -93974.055, -50822.934, 0.015944652, -0.33443838, -90089.25, -90089.25, 0.0, 9.99366, 10.002407 
2.2646631e+3, 3.1590387e+2, -772749.44, -26022.965, 40376.918, 0.110848434, 0.021878388, -23846.055, -23846.055, 0.0, 9.993207, 10.003093 
2.2754021e+3, 1.3595358e+2, -906819.9, -1660028.9, 184073.81, -0.08269603, -0.26646203, -864241.7, 743393.75, 0.37652287, 10.010246, 9.994932 
2.2753665e+3, 1.4595136e+2, -607805.2, -1295962.3, -50519.633, 0.11609532, -0.108509496, -604116.2, 905542.6, 0.23729162, 10.009412, 9.997452 
2.2753225e+3, 1.5594786e+2, -766672.06, -1363500.8, -28176.139, -0.08743093, -0.19532998, -765344.8, 646347.2, 0.12038794, 10.006363, 9.997375 
2.275281e+3, 1.6594505e+2, -805499.25, -1335563.4, 9208.534, -0.113195166, -0.21038254, -805339.4, 508380.5, 0.045308065, 10.004896, 9.997555 
2.275241e+3, 1.7594276e+2, -735919.3, -1257440.3, -3181.8945, -0.012382188, -0.18981001, -735899.9, 479844.03, 0.01060279, 10.004558, 9.9975815 
2.2751997e+3, 1.8594094e+2, -668253.9, -1070033.3, -29723.082, -0.005370274, -0.17040986, -666066.9, 451695.28, 0.0008811429, 10.0038595, 9.998532 
2.2751574e+3, 1.9593959e+2, -712349.9, -1044271.56, -24490.477, -0.064645186, -0.1516447, -710552.6, 309222.38, 0.00000043907016, 10.002895, 9.998501 
2.275116e+3, 2.0593818e+2, -714939.6, -943071.8, -27369.34, -0.050612595, -0.15689525, -711702.06, 210086.42, 0.0, 10.001982, 9.998962 
2.2750747e+3, 2.159368e+2, -746680.6, -909838.75, -28491.668, 0.013252675, -0.18363394, -741848.4, 81953.11, 0.0, 10.001101, 9.998942 
2.275033e+3, 2.2593582e+2, -737575.06, -788379.2, -33720.723, 0.023590619, -0.19539253, -720759.2, 5051.5557, 0.0, 10.000206, 9.999533 
2.2749907e+3, 2.3593524e+2, -773229.8, -757104.56, -36528.348, -0.0011881427, -0.20080999, -727759.56, -99943.22, 0.0, 9.999298, 9.999514 
2.274949e+3, 2.4593514e+2, -736236.0, -622459.4, -44847.215, 0.005456076, -0.18257429, -606907.7, -77090.125, 0.0, 9.998595, 10.000102 
2.274907e+3, 2.559355e+2, -721099.25, -567641.56, -43417.34, 0.027529122, -0.15128884, -556209.3, -124394.71, 0.0, 9.99804, 10.000073 
2.2748652e+3, 2.6593545e+2, -679020.4, -428313.63, -37619.9, 0.036183596, -0.1810173, -422790.25, -88975.69, 0.0, 9.997363, 10.000682 
2.2748235e+3, 2.759353e+2, -697655.44, -388707.0, -38858.74, 0.05175768, -0.2584167, -383894.4, -148078.9, 0.0, 9.996572, 10.000664 
2.2747819e+3, 2.8593668e+2, -698147.44, -253152.9, -39553.457, 0.07818512, -0.2174311, -249664.53, -111862.41, 0.0, 9.99553, 10.001423 
2.2747397e+3, 2.959393e+2, -766982.9, -232926.61, -43805.07, 0.059344165, -0.08933573, -229357.44, -189580.98, 0.0, 9.994373, 10.001447 
2.274698e+3, 3.059401e+2, -776495.9, -139314.1, -72320.33, 0.07016794, -0.18283604, -131208.81, -131208.81, 0.0, 9.99366, 10.002097 
2.2746567e+3, 3.1594223e+2, -791717.7, -85294.65, 87027.49, 0.16104577, -0.16448806, -74731.29, -74731.29, 0.0, 9.993283, 10.002654 
2.2854131e+3, 1.3599582e+2, -808205.25, -1620014.4, 127078.37, -0.07037378, -0.2490322, -788777.7, 818443.06, 0.38340977, 10.01164, 9.994457 
2.2853735e+3, 1.4599313e+2, -960771.6, -1458948.9, 29794.799, 0.066290565, -0.120768346, -958996.0, 550253.25, 0.2412517, 10.006224, 9.9975195 
2.2853291e+3, 1.5598984e+2, -685160.6, -1317146.3, 8143.282, -0.09357201, -0.19245498, -685055.75, 726224.44, 0.122203626, 10.006984, 9.997437 
2.2852866e+3, 1.6598703e+2, -603164.9, -1241469.6, 35567.117, -0.104894616, -0.20817932, -601189.1, 712118.8, 0.045935027, 10.006381, 9.997507 
2.2852457e+3, 1.7598456e+2, -701577.0, -1245235.8, 37137.86, -0.0048381486, -0.19838677, -699051.8, 516281.7, 0.010750866, 10.00482, 9.997538 
2.2852033e+3, 1.8598275e+2, -708429.6, -1087366.4, 8888.621, -0.0025783058, -0.17673326, -708221.25, 409130.66, 0.0008991647, 10.003577, 9.998547 
2.28516e+3, 1.959815e+2, -760679.94, -1065027.6, 3140.262, -0.07177806, -0.14681138, -760647.56, 258716.4, 0.0000004566556, 10.002556, 9.99852 
2.2851177e+3, 2.059801e+2, -745687.75, -951686.75, 6839.194, -0.05454451, -0.15443516, -745460.94, 175916.42, 0.0, 10.001748, 9.999014 
2.2850756e+3, 2.1597865e+2, -746446.3, -904456.25, 9246.269, 0.023736289, -0.1927316, -745907.1, 77483.53, 0.0, 10.001082, 9.998987 
2.2850332e+3, 2.259777e+2, -723304.7, -778835.7, 5332.0117, 0.035777245, -0.20464587, -722797.3, 2602.2874, 0.0, 10.000295, 9.999556 
2.2849903e+3, 2.3597722e+2, -754558.5, -745785.44, 8167.5947, 0.0038843134, -0.20192437, -740901.0, -113496.586, 0.0, 9.999418, 9.999531 
2.2849475e+3, 2.459771e+2, -732275.3, -621343.6, 10158.129, 0.008199725, -0.18435803, -620421.1, -91015.28, 0.0, 9.998629, 10.0000925 
2.284905e+3, 2.5597736e+2, -743465.75, -577177.3, 8947.626, 0.032665342, -0.16076928, -576697.25, -145293.36, 0.0, 9.997884, 10.000082 
2.2848623e+3, 2.6597738e+2, -719664.8, -440523.53, 11558.062, 0.042135227, -0.1896047, -440045.75, -106642.56, 0.0, 9.997055, 10.000746 
2.2848198e+3, 2.7597737e+2, -751829.44, -408894.88, 14714.579, 0.059645943, -0.25712198, -408264.66, -172862.48, 0.0, 9.996176, 10.000714 
2.2847772e+3, 2.859786e+2, -713138.56, -270622.13, 14010.43, 0.068379425, -0.227512, -270179.0, -132788.81, 0.0, 9.995474, 10.001328 
2.284734e+3, 2.9598075e+2, -715166.0, -225522.98, 9230.898, 0.014603275, -0.1390874, -225349.03, -185979.4, 0.0, 9.994807, 10.0012865 
2.2846921e+3, 3.0598205e+2, -756395.06, -170196.36, -9293.513, 0.12728463, -0.14601299, -170049.05, -170049.05, 0.0, 9.993977, 10.001731 
2.2846495e+3, 3.1598186e+2, -799960.4, -75576.84, 127889.41, 0.11477838, -0.3328266, -53661.105, -53661.105, 0.0, 9.993174, 10.002769 
2.2954251e+3, 1.360404e+2, -812516.5, -1568858.4, -171903.02, -0.029605163, -0.18139242, -775279.4, 831503.75, 0.38886768, 10.011407, 9.995001 
2.2953786e+3, 1.4603575e+2, -986019.44, -1545533.3, 53075.258, -0.032434773, -0.23437093, -981029.25, 527801.56, 0.24424134, 10.006381, 9.996755 
2.2953369e+3, 1.560329e+2, -726387.06, -1402596.8, 28341.434, -0.0033797459, -0.18621276, -725201.3, 685657.2, 0.12352411, 10.0069895, 9.996767 
2.2952937e+3, 1.660302e+2, -600506.44, -1227977.5, -18048.584, -0.009760288, -0.16659847, -599987.7, 712897.25, 0.04637439, 10.006345, 9.997623 
2.2952503e+3, 1.7602766e+2, -697307.8, -1233036.0, -16255.339, -0.024192074, -0.17735414, -696815.0, 518095.34, 0.010851643, 10.004804, 9.997631 
2.2952065e+3, 1.8602555e+2, -718556.7, -1108321.5, -27342.758, -0.023750277, -0.18117997, -716647.94, 400283.63, 0.0009121488, 10.003574, 9.998406 
2.2951631e+3, 1.9602388e+2, -768283.25, -1081478.8, -30705.65, -0.020048998, -0.18123741, -765301.25, 253647.16, 0.00000046190817, 10.002556, 9.998408 
2.2951196e+3, 2.060225e+2, -738038.56, -936974.8, -15595.882, -0.019452652, -0.18516693, -736823.3, 184138.05, 0.0, 10.00175, 9.999115 
2.2950764e+3, 2.1602142e+2, -739588.1, -890072.3, -13828.155, -0.018984722, -0.19661541, -738327.94, 84642.766, 0.0, 10.001079, 9.999089 
2.2950329e+3, 2.2602068e+2, -718640.7, -769219.0, -26042.037, -0.008229121, -0.19682169, -707629.3, 17348.326, 0.0, 10.000292, 9.999623 
2.2949895e+3, 2.3602027e+2, -749779.56, -737345.4, -23367.752, 0.010220909, -0.19299603, -719381.8, -92400.21, 0.0, 9.999422, 9.999589 
2.2949463e+3, 2.460199e+2, -734556.06, -627396.7, -18642.695, 0.028490014, -0.20051427, -624246.0, -95260.57, 0.0, 9.9986315, 10.000051 
2.2949028e+3, 2.5601968e+2, -743276.7, -578442.1, -20558.498, 0.040425748, -0.22064558, -575916.7, -144928.67, 0.0, 9.997888, 10.000073 
2.2948594e+3, 2.6602027e+2, -709528.44, -420373.0, -23061.453, 0.04497188, -0.20048183, -418545.28, -85563.23, 0.0, 9.997055, 10.000886 
2.294816e+3, 2.7602157e+2, -743881.5, -393258.84, -16680.725, 0.06173781, -0.15187292, -392467.06, -157498.2, 0.0, 9.996177, 10.000823 
2.2947727e+3, 2.8602222e+2, -719519.6, -284710.47, -11504.591, 0.09095765, -0.17691958, -284406.28, -147444.5, 0.0, 9.995475, 10.001233 
2.2947292e+3, 2.960224e+2, -724624.25, -248814.61, -21055.512, 0.07340672, -0.27491844, -247884.69, -208925.39, 0.0, 9.994821, 10.001122 
2.2946867e+3, 3.0602348e+2, -782454.9, -229683.73, -38711.008, 0.18089081, -0.27553573, -226985.94, -226985.94, 0.0, 9.993995, 10.001316 
2.294642e+3, 3.160258e+2, -732901.5, 67468.7, -48471.24, 0.06814574, -0.18104234, 70393.484, 70393.484, 0.0, 9.99316, 10.0037565 
2.3054348e+3, 1.3608497e+2, -1081733.4, -1727923.4, -174177.84, -0.012368705, -0.19568872, -1037774.8, 568570.5, 0.39157742, 10.008247, 9.995416 
2.3053873e+3, 1.4608034e+2, -572826.0, -1390445.9, 52333.29, -0.03211803, -0.23054576, -569489.94, 938902.44, 0.24570273, 10.010476, 9.996094 
2.305344e+3, 1.5607655e+2, -732149.9, -1468001.8, 36573.125, 0.021413136, -0.20859727, -730336.6, 680093.44, 0.124166116, 10.007225, 9.996197 
2.3052998e+3, 1.6607368e+2, -716667.7, -1265713.5, 330.84787, 0.008757995, -0.19067591, -716667.5, 595790.8, 0.046584427, 10.005429, 9.997791 
2.3052546e+3, 1.7607145e+2, -723790.75, -1228831.9, 7203.5566, -0.03703868, -0.18417051, -723688.0, 490791.9, 0.010900713, 10.00455, 9.99778 
2.3052102e+3, 1.8606941e+2, -699428.44, -1103922.3, 11992.749, -0.03230208, -0.18420613, -699073.2, 417427.25, 0.00092025363, 10.003731, 9.998359 
2.3051658e+3, 1.9606765e+2, -714681.9, -1059748.4, 13380.918, 0.001369618, -0.19019915, -714163.8, 304355.03, 0.00000047448012, 10.002945, 9.998369 
2.3051216e+3, 2.0606622e+2, -707327.06, -917244.8, 28058.793, -0.00085902365, -0.19785807, -703641.3, 216890.9, 0.0, 10.001942, 9.999157 
2.3050772e+3, 2.1606517e+2, -778257.56, -903260.56, 25821.78, -0.02495728, -0.2105962, -773133.6, 49407.492, 0.0, 10.000793, 9.999134 
2.3050329e+3, 2.260645e+2, -766105.2, -787148.44, 16599.422, -0.016980587, -0.20717573, -756973.7, -32426.432, 0.0, 9.999948, 9.999665 
2.3049888e+3, 2.360642e+2, -764382.0, -739470.94, 17821.023, 0.014511097, -0.19622912, -730184.2, -103633.8, 0.0, 9.999303, 9.999631 
2.3049448e+3, 2.4606381e+2, -731633.0, -618602.2, 28597.293, 0.033979226, -0.20956764, -611778.8, -83224.67, 0.0, 9.998621, 10.000115 
2.3049006e+3, 2.5606352e+2, -737356.06, -568857.0, 33044.934, 0.04064248, -0.24393892, -562608.2, -132050.9, 0.0, 9.997901, 10.000132 
2.3048562e+3, 2.6606423e+2, -695375.0, -407889.97, 25262.71, 0.041678827, -0.21281072, -405686.9, -73136.97, 0.0, 9.99713, 10.000935 
2.304812e+3, 2.7606586e+2, -720071.56, -377030.6, 25755.572, 0.056236558, -0.1369617, -375107.63, -140573.56, 0.0, 9.996322, 10.000863 
2.3047683e+3, 2.8606638e+2, -718351.75, -290172.1, 33515.953, 0.1056523, -0.17251557, -287564.47, -151036.16, 0.0, 9.99551, 10.001178 
2.3047243e+3, 2.9606616e+2, -751966.9, -267304.66, 22329.582, 0.12870495, -0.30525205, -266278.03, -227748.28, 0.0, 9.994656, 10.001075 
2.3046799e+3, 3.0606735e+2, -806864.0, -233376.72, 34249.33, 0.13509133, -0.29559895, -231338.56, -231338.56, 0.0, 9.99379, 10.00139 
2.3046347e+3, 3.160702e+2, -724688.0, 98955.83, -19195.898, 0.042087276, -0.15455188, 99402.97, 99402.97, 0.0, 9.993106, 10.003996 
2.3154429e+3, 1.3612962e+2, -1053883.9, -1655567.9, 49796.707, -0.012770132, -0.27193534, -1049790.4, 556116.1, 0.39068815, 10.008362, 9.995721 
2.3153982e+3, 1.4612661e+2, -621210.06, -1464395.8, -40897.336, 0.041549698, -0.12618333, -619231.0, 888705.7, 0.24530782, 10.010315, 9.995499 
2.3153508e+3, 1.5612073e+2, -765994.0, -1542691.1, -59755.684, -0.014708452, -0.25581676, -761423.56, 648572.2, 0.12401273, 10.007197, 9.9957 
2.3153047e+3, 1.6611741e+2, -700470.6, -1235659.8, -28037.316, -0.040535852, -0.27200776, -699005.8, 613022.75, 0.046526346, 10.005442, 9.998003 
2.315259e+3, 1.7611587e+2, -711241.2, -1201854.6, -21887.273, -0.04486605, -0.21774705, -710266.7, 503776.56, 0.010888123, 10.004543, 9.997971 
2.3152138e+3, 1.8611424e+2, -699486.0, -1103154.1, -15026.875, -0.0317143, -0.18689898, -698927.4, 417132.66, 0.00092239876, 10.003723, 9.998369 
2.3151687e+3, 1.9611266e+2, -715280.3, -1059567.8, -14834.12, -0.00853893, -0.17369454, -714642.3, 303434.47, 0.000000529114, 10.002935, 9.998376 
2.3151232e+3, 2.0611113e+2, -708868.25, -920116.2, -13177.6875, 0.0019214831, -0.19200966, -708049.4, 212041.88, 0.0, 10.001938, 9.999141 
2.3150781e+3, 2.1610975e+2, -779051.94, -905021.56, -12735.213, 0.0037740455, -0.23587276, -777777.4, 44325.707, 0.0, 10.000791, 9.999125 
2.315033e+3, 2.2610904e+2, -766014.56, -787898.3, -5706.439, 0.0073900134, -0.23608716, -764615.94, -40506.27, 0.0, 9.999949, 9.9996605 
2.3149881e+3, 2.3610885e+2, -762310.8, -736431.44, -5775.9575, 0.0130289495, -0.2115485, -735200.8, -109089.1, 0.0, 9.999305, 9.999653 
2.3149431e+3, 2.4610873e+2, -719801.0, -595397.1, 861.4027, 0.023010617, -0.2114064, -595391.2, -67278.164, 0.0, 9.998624, 10.000275 
2.3148984e+3, 2.5610873e+2, -727134.4, -550540.4, 4881.132, 0.03160361, -0.2293423, -550405.56, -120293.13, 0.0, 9.9979105, 10.000255 
2.3148532e+3, 2.6610923e+2, -698565.44, -416367.75, -6999.9272, 0.03121744, -0.22697122, -416194.22, -84086.52, 0.0, 9.997135, 10.000875 
2.314808e+3, 2.761101e+2, -721558.25, -381146.16, -5105.4653, 0.03688133, -0.21728408, -381069.6, -146970.55, 0.0, 9.996324, 10.000836 
2.3147637e+3, 2.8611097e+2, -718285.1, -290944.47, 919.5867, 0.11003951, -0.21889152, -290942.5, -154851.66, 0.0, 9.995511, 10.001173 
2.3147194e+3, 2.9611197e+2, -743426.1, -253483.4, -11239.793, 0.18544632, -0.22692087, -253225.69, -215144.52, 0.0, 9.994669, 10.001165 
2.3146719e+3, 3.06114e+2, -764030.7, -145513.55, 3411.9907, -0.03873351, -0.17558481, -145494.73, -145494.73, 0.0, 9.993791, 10.001996 
2.3146291e+3, 3.161151e+2, -761773.6, 22190.082, -2533.6602, 0.1753028, -0.2539427, 22198.27, 22198.27, 0.0, 9.993104, 10.00347 
2.3254526e+3, 1.3617432e+2, -827649.44, -1505384.1, 33850.477, -0.0044420506, -0.2967643, -825962.94, 779504.75, 0.38633588, 10.010694, 9.996041 
2.3254065e+3, 1.4617184e+2, -915045.5, -1590584.4, -87747.55, -0.00012292564, -0.13470732, -903833.8, 603658.1, 0.24302785, 10.007404, 9.995959 
2.325358e+3, 1.5616634e+2, -761087.06, -1493895.9, -46285.48, -0.010889607, -0.2710342, -758175.1, 651372.0, 0.122998945, 10.007033, 9.99611 
2.3253103e+3, 1.6616319e+2, -623071.75, -1202617.1, 17776.922, -0.02571877, -0.28556398, -622527.0, 689051.75, 0.046154663, 10.0060215, 9.997958 
2.3252635e+3, 1.7616174e+2, -707758.2, -1202892.3, 9412.508, -0.04219755, -0.21821333, -707579.4, 506013.9, 0.010796571, 10.004582, 9.997943 
2.3252173e+3, 1.8616006e+2, -733141.06, -1113997.3, 22558.775, -0.03225188, -0.19082591, -731809.5, 383800.66, 0.00091625185, 10.003472, 9.998414 
2.3251714e+3, 1.9615836e+2, -765818.2, -1078228.4, 24934.383, -0.006154872, -0.1932457, -763840.6, 253786.97, 0.00000065345915, 10.002567, 9.998424 
2.3251252e+3, 2.061569e+2, -726184.9, -925937.8, 27415.133, 0.004171123, -0.20946014, -722490.56, 197150.94, 0.0, 10.001811, 9.99916 
2.3250791e+3, 2.1615566e+2, -725198.4, -876426.94, 29480.217, 0.0048682964, -0.23884006, -719654.75, 101997.27, 0.0, 10.001151, 9.9991455 
2.325033e+3, 2.2615491e+2, -706058.4, -757290.44, 43368.465, 0.009049941, -0.24351616, -681305.7, 42353.277, 0.0, 10.000355, 9.999675 
2.3249874e+3, 2.3615457e+2, -738620.56, -722166.8, 45382.313, 0.017106814, -0.23530963, -684271.75, -58609.39, 0.0, 9.999458, 9.999675 
2.3249416e+3, 2.4615449e+2, -715893.44, -585784.8, 49686.79, 0.024319263, -0.23363927, -568980.44, -41317.516, 0.0, 9.998621, 10.00034 
2.324896e+3, 2.561547e+2, -737650.25, -549583.8, 46241.207, 0.029567217, -0.23707022, -538829.2, -109168.88, 0.0, 9.997815, 10.000305 
2.3248501e+3, 2.6615515e+2, -726808.94, -433661.47, 29961.875, 0.032626707, -0.2373891, -430630.47, -98974.34, 0.0, 9.99696, 10.000839 
2.3248042e+3, 2.761558e+2, -764231.25, -403399.22, 31942.986, 0.042382035, -0.24787736, -400593.25, -166942.92, 0.0, 9.99604, 10.000818 
2.324759e+3, 2.861568e+2, -734731.5, -279596.3, 51093.64, 0.113764524, -0.24409758, -273931.03, -138290.13, 0.0, 9.995319, 10.001342 
2.3247144e+3, 2.961584e+2, -719365.75, -225346.1, 49315.57, 0.20000358, -0.20781642, -220471.25, -182846.08, 0.0, 9.994768, 10.0013075 
2.3246655e+3, 3.0616024e+2, -751204.2, -165136.88, 22092.576, -0.053470373, -0.16394635, -164305.25, -164305.25, 0.0, 9.993992, 10.001763 
2.324623e+3, 3.161608e+2, -774271.75, 35050.617, -18222.47, 0.27732474, -0.27994108, 35460.7, 35460.7, 0.0, 9.992938, 10.003638 
2.3354632e+3, 1.3621901e+2, -824666.75, -1485609.3, -124017.12, -0.004192488, -0.28237706, -802162.75, 802866.25, 0.37949622, 10.0104885, 9.996342 
2.3354124e+3, 1.462162e+2, -840317.5, -1419116.4, -91679.734, -0.13843599, -0.23750341, -826142.94, 680913.2, 0.23911157, 10.007393, 9.99731 
2.3353653e+3, 1.5621322e+2, -693309.56, -1336691.1, -58487.676, 0.02592067, -0.25773588, -688035.9, 721050.1, 0.121120825, 10.006987, 9.997279 
2.3353168e+3, 1.6621076e+2, -646229.8, -1244819.4, -31725.31, 0.041848287, -0.23959115, -644553.06, 666558.4, 0.045429856, 10.005987, 9.997672 
2.3352681e+3, 1.7620887e+2, -724032.0, -1237416.3, -38496.93, -0.032100353, -0.18730848, -721161.3, 491970.25, 0.010607151, 10.0045805, 9.997707 
2.3352204e+3, 1.8620677e+2, -726444.2, -1102917.6, -9105.6455, -0.03420953, -0.19518119, -726224.06, 388928.1, 0.00089874945, 10.003481, 9.998487 
2.3351738e+3, 1.9620465e+2, -759993.5, -1067491.6, -5151.248, 0.0061202687, -0.24891326, -759907.25, 257265.14, 0.00000084418537, 10.00257, 9.998497 
2.335127e+3, 2.0620337e+2, -723299.06, -921459.75, 4814.3296, 0.0040578763, -0.24978101, -723182.2, 196002.05, 0.0, 10.001815, 9.99919 
2.3350799e+3, 2.1620278e+2, -723148.0, -872418.3, 6634.5156, -0.02410094, -0.2197301, -722853.7, 98335.72, 0.0, 10.001149, 9.999176 
2.3350333e+3, 2.26202e+2, -704096.3, -753816.75, 10967.988, -0.012314025, -0.22908986, -701784.4, 21412.03, 0.0, 10.000355, 9.9997 
2.3349868e+3, 2.3620121e+2, -736652.5, -719546.06, 12692.483, 0.025100783, -0.26766583, -712793.8, -87590.47, 0.0, 9.999462, 9.999693 
2.3349404e+3, 2.4620102e+2, -717963.4, -591540.6, 18353.207, 0.037090104, -0.27668375, -588930.1, -61725.01, 0.0, 9.998625, 10.0003 
2.3348938e+3, 2.5620133e+2, -739216.75, -553861.5, 14919.365, 0.031409457, -0.26795208, -552668.3, -123466.3, 0.0, 9.997817, 10.000277 
2.3348472e+3, 2.6620197e+2, -729009.44, -438414.75, -6283.728, 0.045592774, -0.24391638, -438278.94, -107082.7, 0.0, 9.996958, 10.00081 
2.3348005e+3, 2.762029e+2, -764141.25, -405522.2, -3224.1877, 0.07363274, -0.22509834, -405493.22, -172304.7, 0.0, 9.996047, 10.000803 
2.3347545e+3, 2.8620377e+2, -711427.9, -233450.83, 28230.943, 0.11321598, -0.24669436, -231789.19, -96609.92, 0.0, 9.995326, 10.0016575 
2.3347084e+3, 2.9620525e+2, -707119.06, -201539.48, 27396.62, 0.15817171, -0.2560281, -200059.23, -162895.88, 0.0, 9.994772, 10.0014715 
2.3346613e+3, 3.0620587e+2, -831045.3, -330057.56, -18970.768, 0.12893817, -0.27867195, -329340.25, -329340.25, 0.0, 9.993986, 10.000634 
2.3346142e+3, 3.1620675e+2, -729324.25, 120225.734, -44825.26, 0.10357972, -0.2554666, 122584.33, 122584.33, 0.0, 9.992962, 10.004217 
2.3454721e+3, 1.3626634e+2, -1005892.9, -1562110.0, -79457.04, -0.028152928, -0.2979422, -994764.8, 609798.56, 0.37109327, 10.00829, 9.996548 
2.3454194e+3, 1.4626355e+2, -827179.75, -1387917.5, 1989.0748, -0.15255965, -0.27416816, -827172.75, 679418.06, 0.23389465, 10.00733, 9.997608 
2.3453714e+3, 1.562612e+2, -799982.0, -1363083.8, -13367.873, 0.015551494, -0.25976145, -799664.8, 608949.56, 0.11843427, 10.006016, 9.997537 
2.3453222e+3, 1.6625886e+2, -758697.44, -1307480.8, -2671.8242, 0.03490578, -0.2357329, -758684.44, 551954.44, 0.044337027, 10.005214, 9.997592 
2.3452727e+3, 1.7625676e+2, -706853.25, -1235931.1, 4808.9995, -0.036043625, -0.19479394, -706809.56, 505851.9, 0.010306884, 10.004733, 9.997642 
2.3452242e+3, 1.8625459e+2, -653922.9, -1065307.5, 37047.402, -0.036387477, -0.20790787, -650613.2, 464069.44, 0.0008667717, 10.003973, 9.998507 
2.3451765e+3, 1.9625244e+2, -692646.7, -1033081.94, 36327.91, 0.005398489, -0.2636866, -688813.25, 327888.94, 0.000001041521, 10.003028, 9.998511 
2.3451287e+3, 2.0625111e+2, -693705.3, -915084.0, 43568.082, 0.005453749, -0.26636654, -685439.6, 233275.17, 0.0, 10.002055, 9.999117 
2.3450808e+3, 2.1625045e+2, -740232.2, -885961.1, 37034.254, -0.01901626, -0.23576324, -731360.7, 89360.64, 0.0, 10.001059, 9.999125 
2.3450331e+3, 2.2624974e+2, -729262.3, -757976.25, 39652.46, -0.007066338, -0.23878059, -701447.7, 21279.893, 0.0, 10.000152, 9.999767 
2.344986e+3, 2.3624912e+2, -756608.1, -722336.06, 45534.05, 0.029250147, -0.26831478, -690820.3, -66087.64, 0.0, 9.999298, 9.999751 
2.3449387e+3, 2.4624884e+2, -736488.4, -604322.94, 56821.297, 0.04036142, -0.28306466, -583253.0, -56518.06, 0.0, 9.998517, 10.000264 
2.3448916e+3, 2.5624892e+2, -748116.56, -560302.1, 52965.227, 0.036530785, -0.28941914, -546395.25, -117661.31, 0.0, 9.997768, 10.000254 
2.3448442e+3, 2.662496e+2, -707992.3, -427039.0, 34306.668, 0.055207197, -0.264314, -422910.53, -92182.375, 0.0, 9.997101, 10.000816 
2.3447967e+3, 2.7625066e+2, -701138.9, -371232.53, 39461.742, 0.08837552, -0.23015425, -366578.0, -133859.11, 0.0, 9.996467, 10.0008335 
2.3447496e+3, 2.8625163e+2, -657627.1, -194927.03, 65463.28, 0.10414025, -0.24986249, -185843.53, -51134.973, 0.0, 9.995644, 10.001768 
2.3447026e+3, 2.9625303e+2, -721438.6, -209830.95, 47618.89, 0.115673445, -0.28037497, -205436.47, -168742.92, 0.0, 9.994682, 10.001457 
2.344656e+3, 3.0625322e+2, -869246.94, -374221.72, 25219.61, 0.21014278, -0.32571194, -372940.2, -372940.2, 0.0, 9.99384, 10.000399 
2.3446067e+3, 3.1625542e+2, -705140.8, 198466.53, 52523.977, 0.07735791, -0.15546039, 201509.34, 201509.34, 0.0, 9.992851, 10.004804 
2.3555353e+3, 1.2631978e+2, -1231196.4, -1691614.4, -75698.47, 0.083196364, -0.28546834, -1219070.0, 482966.2, 0.48977232, 10.008223, 9.996274 
2.3554797e+3, 1.3631596e+2, -997700.3, -1549557.1, -86676.13, -0.068553045, -0.3357594, -984406.94, 619667.75, 0.36138555, 10.008191, 9.996722 
2.3554274e+3, 1.4631343e+2, -862568.0, -1462182.3, -35427.11, -0.067009754, -0.25643533, -860482.1, 645618.3, 0.22758359, 10.00727, 9.99697 
2.3553768e+3, 1.5631013e+2, -830538.3, -1435741.9, -51111.383, -0.03848141, -0.27505186, -826252.2, 581881.56, 0.1150295, 10.006017, 9.997001 
2.3553267e+3, 1.6630742e+2, -750518.44, -1295184.9, -17166.393, -0.03798782, -0.26831725, -749977.94, 560183.8, 0.042897653, 10.005223, 9.997677 
2.3552771e+3, 1.763053e+2, -702901.75, -1226708.9, -12252.487, -0.05443853, -0.23785189, -702615.3, 509568.88, 0.009895845, 10.0047245, 9.997711 
2.355228e+3, 1.8630336e+2, -658846.44, -1073880.4, 3498.9712, -0.0407118, -0.22831765, -658816.94, 455386.0, 0.0008188093, 10.0039625, 9.998455 
2.3551792e+3, 1.9630162e+2, -698241.2, -1043469.6, 3095.456, -0.009255068, -0.23923975, -698213.44, 318005.13, 0.0000011539311, 10.00302, 9.9984455 
2.3551306e+3, 2.0629998e+2, -706314.6, -941525.5, 7839.7153, 0.008323038, -0.25960228, -706053.6, 212180.86, 0.0, 10.002053, 9.998938 
2.355082e+3, 2.1629855e+2, -750807.44, -907511.4, 2700.913, 0.017177057, -0.2870201, -750760.9, 69488.12, 0.0, 10.001054, 9.9989805 
2.3550338e+3, 2.2629802e+2, -722035.3, -743883.75, 9164.876, 0.022615174, -0.27210754, -718700.06, 3553.687, 0.0, 10.000152, 9.999866 
2.3549853e+3, 2.3629814e+2, -750293.1, -710692.44, 14631.252, 0.025908627, -0.23665445, -705873.1, -81621.73, 0.0, 9.999301, 9.999831 
2.3549372e+3, 2.4629788e+2, -738945.9, -611165.1, 27643.656, 0.032809395, -0.25157854, -605441.2, -79187.734, 0.0, 9.998521, 10.0002165 
2.3548892e+3, 2.5629753e+2, -748763.44, -564427.9, 24359.016, 0.04131927, -0.3006353, -561263.25, -133006.34, 0.0, 9.997777, 10.000223 
2.3548414e+3, 2.6629794e+2, -703950.0, -421297.63, 8821.552, 0.059267763, -0.2995996, -421022.6, -90769.68, 0.0, 9.99711, 10.000854 
2.354793e+3, 2.7629903e+2, -694785.7, -360857.16, 13561.845, 0.08412305, -0.26659024, -360307.28, -128064.734, 0.0, 9.996476, 10.000902 
2.3547448e+3, 2.8630036e+2, -664175.56, -210128.34, 27516.092, 0.08568201, -0.25316873, -208466.9, -74237.38, 0.0, 9.995647, 10.001663 
2.3546968e+3, 2.9630166e+2, -734280.75, -239804.4, 11053.954, 0.06775687, -0.27302986, -239557.42, -203341.55, 0.0, 9.994692, 10.001248 
2.3546492e+3, 3.0630225e+2, -818664.2, -273164.16, -4637.529, 0.16588417, -0.30451486, -273124.72, -273124.72, 0.0, 9.993854, 10.001088 
2.3546006e+3, 3.16305e+2, -678382.2, 258160.05, -56029.387, 0.19107354, -0.16720559, 261500.14, 261500.14, 0.0, 9.992832, 10.005223 
2.3655403e+3, 1.2636976e+2, -1303454.9, -1743035.0, -39327.76, -0.17648819, -0.36808324, -1299964.1, 401579.6, 0.47518757, 10.00702, 9.996441 
2.365487e+3, 1.3636664e+2, -1123448.1, -1631200.5, -61944.613, -0.07214649, -0.3452051, -1116000.3, 487576.56, 0.3503319, 10.006781, 9.99666 
2.3654348e+3, 1.4636403e+2, -950510.94, -1528588.6, -5732.591, -0.023298638, -0.2587442, -950454.1, 555149.2, 0.22028701, 10.006538, 9.996777 
2.3653826e+3, 1.5636022e+2, -796410.2, -1440325.8, 6627.3584, -0.05996852, -0.30602267, -796342.0, 611298.75, 0.111010745, 10.006362, 9.996797 
2.3653318e+3, 1.6635726e+2, -705213.0, -1292313.1, 40792.715, -0.06485223, -0.3035937, -702392.2, 607278.94, 0.041160904, 10.0056305, 9.997498 
2.3652814e+3, 1.7635506e+2, -734133.25, -1259544.9, 28340.97, -0.05094254, -0.263615, -732608.94, 479085.78, 0.009386668, 10.004586, 9.99755 
2.3652317e+3, 1.8635303e+2, -713613.56, -1109478.4, 30945.418, -0.030177852, -0.25057527, -711209.1, 402505.25, 0.00075588864, 10.00363, 9.998368 
2.3651822e+3, 1.9635122e+2, -746470.75, -1075522.8, 27617.727, -0.005566657, -0.25923282, -744168.9, 271561.84, 0.0000011146645, 10.00273, 9.998363 
2.3651326e+3, 2.0634955e+2, -725917.2, -959825.8, 37836.33, 0.006098329, -0.27263522, -719949.2, 197797.95, 0.0, 10.001961, 9.998856 
2.365083e+3, 2.1634811e+2, -725117.5, -902229.4, 38534.645, 0.011299658, -0.29199108, -717096.7, 102665.52, 0.0, 10.001264, 9.998915 
2.3650336e+3, 2.2634749e+2, -676516.3, -722434.75, 43439.145, 0.014212851, -0.2819642, -650342.2, 71425.6, 0.0, 10.00047, 9.999859 
2.3649843e+3, 2.3634748e+2, -706092.94, -690401.6, 42301.105, 0.01727663, -0.25749663, -655224.75, -31458.465, 0.0, 9.999613, 9.999818 
2.3649357e+3, 2.4634722e+2, -707801.3, -606055.7, 53312.66, 0.034185205, -0.26634264, -583238.06, -57469.54, 0.0, 9.998781, 10.000124 
2.3648871e+3, 2.563469e+2, -728970.06, -562467.9, 46236.133, 0.057748545, -0.2995468, -550490.1, -122718.34, 0.0, 9.99795, 10.000152 
2.3648384e+3, 2.6634726e+2, -710626.06, -419141.53, 29838.332, 0.06872256, -0.30584538, -416118.44, -86350.195, 0.0, 9.9970455, 10.000897 
2.3647892e+3, 2.7634814e+2, -747761.44, -382619.4, 34058.742, 0.0823057, -0.2962284, -379469.72, -147710.8, 0.0, 9.996102, 10.00093 
2.3647405e+3, 2.8634933e+2, -707547.44, -242797.03, 44509.66, 0.0943551, -0.29004788, -238572.69, -104825.39, 0.0, 9.995406, 10.001553 
2.3646916e+3, 2.963507e+2, -718422.3, -230108.81, 26294.498, 0.08035658, -0.2997743, -228697.0, -192962.5, 0.0, 9.994799, 10.001261 
2.3646428e+3, 3.063523e+2, -763156.1, -173249.36, 24873.678, 0.1474496, -0.2633859, -172202.4, -172202.4, 0.0, 9.993921, 10.001741 
2.3645933e+3, 3.1635284e+2, -694796.94, 114048.18, -42491.535, 0.17443725, -0.4041173, 116274.29, 116274.29, 0.0, 9.993312, 10.004 
2.3755476e+3, 1.2642185e+2, -1303466.8, -1779720.0, -46865.066, -0.14790078, -0.34343427, -1298898.9, 402133.34, 0.4590728, 10.006977, 9.996212 
2.375494e+3, 1.3641825e+2, -1129471.9, -1675508.0, -69410.29, -0.055809177, -0.33006424, -1120786.9, 482283.6, 0.33809826, 10.00677, 9.996362 
2.3754412e+3, 1.4641531e+2, -935814.44, -1506791.9, -9755.877, -0.020569295, -0.2741528, -935647.8, 569451.7, 0.21217859, 10.006538, 9.996929 
2.3753889e+3, 1.5641136e+2, -793244.75, -1434902.6, -2592.5283, -0.05438235, -0.35049585, -793234.25, 613902.56, 0.10651318, 10.006334, 9.996849 
2.3753373e+3, 1.6640824e+2, -736414.9, -1356454.5, 3935.8994, -0.051788516, -0.34215066, -736389.94, 572778.75, 0.039198052, 10.005605, 9.9970665 
2.3752864e+3, 1.7640586e+2, -761978.0, -1317433.1, -7777.066, -0.028745953, -0.27464104, -761869.1, 449325.34, 0.008802978, 10.004579, 9.997157 
2.3752356e+3, 1.8640347e+2, -722440.44, -1129132.9, -879.77136, -0.007024777, -0.274539, -722438.5, 390779.56, 0.000681663, 10.003632, 9.998234 
2.3751847e+3, 1.9640113e+2, -755011.56, -1093829.0, -2542.6423, 0.012734752, -0.32101429, -754992.44, 260247.03, 0.00000092378025, 10.00273, 9.998239 
2.3751342e+3, 2.0639972e+2, -725273.0, -959778.75, 13495.454, -0.0028831086, -0.3036056, -724498.9, 192754.81, 0.0, 10.001963, 9.998857 
2.3750837e+3, 2.16399e+2, -726589.1, -905324.25, 14075.765, -0.039214972, -0.25128648, -725487.44, 93774.766, 0.0, 10.001261, 9.998897 
2.3750336e+3, 2.2639804e+2, -684246.44, -739696.2, 12466.647, -0.032628417, -0.26839212, -681572.56, 39698.344, 0.0, 10.000472, 9.999741 
2.3749839e+3, 2.3639704e+2, -714208.75, -708531.25, 10915.376, 0.0014107575, -0.33141178, -700091.56, -76813.03, 0.0, 9.999616, 9.999695 
2.3749346e+3, 2.4639677e+2, -717302.3, -627509.3, 20867.295, 0.043961048, -0.3279791, -622896.9, -97615.586, 0.0, 9.998786, 9.999975 
2.3748852e+3, 2.5639707e+2, -736451.44, -580460.06, 12781.973, 0.08398877, -0.2840186, -579419.6, -152140.3, 0.0, 9.997957, 10.000026 
2.3748352e+3, 2.6639745e+2, -707941.2, -414491.9, -8302.508, 0.08263045, -0.28099835, -414257.2, -84982.21, 0.0, 9.9970455, 10.000931 
2.3747851e+3, 2.763979e+2, -749995.75, -387694.72, -403.68103, 0.07523444, -0.32037285, -387694.28, -156424.95, 0.0, 9.9961, 10.000898 
2.374736e+3, 2.8639847e+2, -717419.75, -264385.25, 19724.295, 0.13082679, -0.36495286, -263528.13, -130264.51, 0.0, 9.995408, 10.001405 
2.3746872e+3, 2.963998e+2, -699344.75, -193869.86, -3057.2817, 0.16862547, -0.3625889, -193851.38, -158600.42, 0.0, 9.99481, 10.001506 
2.3746365e+3, 3.0640328e+2, -716859.75, -75147.49, -13330.07, 0.15049252, -0.20147708, -74870.71, -74870.71, 0.0, 9.993911, 10.002422 
2.3745862e+3, 3.16402e+2, -829639.4, -178114.83, 61310.59, 0.14005925, -0.547974, -172395.52, -172395.52, 0.0, 9.993357, 10.001975 
2.3855545e+3, 1.2647435e+2, -1301918.5, -1767751.9, -23191.29, -0.13875327, -0.33355913, -1300766.9, 399750.13, 0.44200188, 10.006745, 9.996393 
2.3855007e+3, 1.3647057e+2, -1075324.1, -1638159.4, -21489.525, -0.042216975, -0.34455156, -1074504.8, 528050.75, 0.3250901, 10.007211, 9.996383 
2.3854478e+3, 1.4646731e+2, -916731.25, -1530912.3, 20173.607, -0.018707307, -0.30156258, -916069.4, 588518.3, 0.20352705, 10.006791, 9.996639 
2.3853947e+3, 1.5646322e+2, -870607.1, -1507283.5, 1632.2208, -0.058679804, -0.36362365, -870602.94, 536024.5, 0.101700716, 10.005846, 9.996586 
2.3853427e+3, 1.6645996e+2, -800669.2, -1395024.0, 9032.867, -0.049459253, -0.35282746, -800531.94, 508128.5, 0.037092935, 10.005167, 9.997011 
2.385291e+3, 1.764575e+2, -754653.56, -1322229.5, 21122.66, -0.014605431, -0.29108715, -753868.5, 456818.22, 0.008175011, 10.004667, 9.99708 
2.385239e+3, 1.8645488e+2, -688464.06, -1130339.9, 32207.508, -0.009699078, -0.29763657, -686128.9, 426583.34, 0.0006013719, 10.003946, 9.998072 
2.3851873e+3, 1.964523e+2, -712516.3, -1089376.4, 27520.154, -0.02080644, -0.3514433, -710517.25, 304219.0, 0.0000006457051, 10.003096, 9.998092 
2.385136e+3, 2.0645082e+2, -704623.9, -952883.7, 41621.613, -0.025096757, -0.33104748, -697831.75, 218919.3, 0.0, 10.002122, 9.998825 
2.385085e+3, 2.1645017e+2, -756256.7, -924716.9, 39405.27, -0.026592474, -0.26850012, -747494.94, 71263.805, 0.0, 10.001083, 9.998847 
2.385034e+3, 2.2644909e+2, -721277.94, -776393.3, 38941.254, -0.017221505, -0.2851762, -701129.75, 19638.963, 0.0, 10.000302, 9.999569 
2.3849835e+3, 2.3644784e+2, -718315.44, -727258.75, 33481.32, 0.0035760363, -0.35414225, -689008.5, -66229.516, 0.0, 9.999662, 9.999542 
2.3849331e+3, 2.4644746e+2, -704516.0, -621197.25, 46855.695, 0.038676564, -0.35301575, -600159.25, -75376.586, 0.0, 9.998878, 9.999973 
2.384883e+3, 2.5644776e+2, -730536.25, -578884.4, 48937.313, 0.07738302, -0.3090495, -564463.8, -137683.03, 0.0, 9.998009, 10.0000105 
2.3848322e+3, 2.6644817e+2, -677941.06, -408157.25, 28037.16, 0.082515, -0.29896227, -405274.28, -76497.9, 0.0, 9.997292, 10.000854 
2.3847815e+3, 2.7644864e+2, -680133.6, -363367.0, 26333.465, 0.08579043, -0.3264345, -361192.78, -130422.12, 0.0, 9.996624, 10.000811 
2.3847316e+3, 2.864491e+2, -695252.06, -261930.2, 46687.47, 0.14532766, -0.3726664, -256957.03, -124191.02, 0.0, 9.995601, 10.001327 
2.3846819e+3, 2.964502e+2, -755183.1, -219558.25, 27508.14, 0.18555613, -0.38397282, -218149.22, -183393.9, 0.0, 9.994428, 10.001511 
2.3846304e+3, 3.064537e+2, -696352.25, -36783.37, -12561.333, 0.14980686, -0.23976898, -36544.23, -36544.23, 0.0, 9.993932, 10.002673 
2.3845793e+3, 3.164557e+2, -777553.56, -73275.98, 88855.96, 0.13643768, -0.26909637, -62238.348, -62238.348, 0.0, 9.993377, 10.002683 
2.3955607e+3, 1.2652719e+2, -1268496.3, -1691162.4, -14363.65, -0.1603638, -0.33437553, -1268008.8, 431989.66, 0.42464244, 10.006718, 9.996965 
2.395508e+3, 1.3652347e+2, -1053720.8, -1598532.8, -14554.092, -0.03275264, -0.38764247, -1053332.3, 548701.2, 0.31178448, 10.007179, 9.996676 
2.3954543e+3, 1.4651994e+2, -951687.75, -1634485.8, -9874.009, -0.018427668, -0.34402362, -951545.0, 552524.1, 0.19463213, 10.00677, 9.99594 
2.3954004e+3, 1.5651572e+2, -903470.1, -1588764.1, -28315.28, -0.074415, -0.34986997, -902302.2, 503811.03, 0.09674096, 10.005838, 9.996034 
2.3953477e+3, 1.6651239e+2, -782479.6, -1357833.6, -7349.0596, -0.059617043, -0.33731028, -782385.75, 525761.06, 0.034927063, 10.00516, 9.997271 
2.3952954e+3, 1.7650981e+2, -744043.5, -1297698.6, 2200.8599, -0.0103391055, -0.31015748, -744034.75, 466137.47, 0.0075326865, 10.004652, 9.997257 
2.3952426e+3, 1.8650714e+2, -704287.0, -1160881.9, 1446.0261, -0.037378486, -0.31889814, -704282.44, 407915.47, 0.0005204185, 10.003933, 9.9978695 
2.3951894e+3, 1.9650455e+2, -726793.5, -1117465.6, -3649.0955, -0.10477138, -0.35363114, -726759.4, 287463.0, 0.00000036108204, 10.003085, 9.997905 
2.3951377e+3, 2.0650274e+2, -709785.9, -964222.6, 3768.0505, -0.059572972, -0.35592303, -709730.1, 206510.19, 0.0, 10.002121, 9.998749 
2.3950867e+3, 2.1650149e+2, -763414.94, -939923.2, 4826.21, 0.04638419, -0.34240043, -763283.06, 54969.82, 0.0, 10.001081, 9.998745 
2.3950349e+3, 2.2650053e+2, -737016.06, -810404.3, 16337.112, 0.058111925, -0.33076796, -733543.5, -13281.231, 0.0, 10.000305, 9.999335 
2.3949832e+3, 2.3649982e+2, -730402.3, -754197.4, 8516.641, 0.018371474, -0.3231615, -727668.25, -105399.79, 0.0, 9.999667, 9.999356 
2.3949316e+3, 2.4649924e+2, -694466.5, -602254.25, 12781.869, 0.015812606, -0.34082666, -600515.3, -76241.64, 0.0, 9.998882, 10.000103 
2.3948807e+3, 2.5649884e+2, -723991.3, -567569.56, 16480.883, 0.03236936, -0.378199, -565852.0, -139574.77, 0.0, 9.998014, 10.000087 
2.3948294e+3, 2.6649925e+2, -691443.56, -438512.13, 1737.1149, 0.066517465, -0.36137787, -438500.2, -110226.66, 0.0, 9.997299, 10.000643 
2.3947783e+3, 2.7650034e+2, -687352.1, -383769.7, -3686.2854, 0.11624018, -0.30624685, -383724.94, -153461.7, 0.0, 9.996645, 10.000662 
2.394727e+3, 2.8650117e+2, -697195.75, -267506.8, -1475.1942, 0.13451138, -0.30771655, -267501.75, -135246.75, 0.0, 9.995604, 10.001288 
2.3946753e+3, 2.965016e+2, -778405.2, -264104.53, -9977.114, 0.11222176, -0.379348, -263911.06, -229660.77, 0.0, 9.994409, 10.001216 
2.394624e+3, 3.065034e+2, -711564.06, -70472.805, -24961.469, 0.14426519, -0.36941695, -69502.375, -69502.375, 0.0, 9.993937, 10.002442 
2.3945732e+3, 3.165072e+2, -734636.94, 9981.712, -20600.75, 0.19828077, -0.22450262, 10551.22, 10551.22, 0.0, 9.993398, 10.003247 
2.4055676e+3, 1.265801e+2, -1259660.8, -1702372.1, 2103.9707, -0.11975343, -0.35389096, -1259650.8, 439826.75, 0.40754253, 10.006726, 9.996845 
2.4055147e+3, 1.3657613e+2, -1082476.6, -1639108.1, -27348.777, -0.04312149, -0.41661602, -1081136.1, 520379.56, 0.29858655, 10.006853, 9.996551 
2.4054606e+3, 1.4657262e+2, -965710.1, -1640479.1, -37145.996, -0.033562426, -0.37023696, -963671.4, 539880.25, 0.18574993, 10.006578, 9.995993 
2.4054062e+3, 1.5656878e+2, -868279.75, -1566720.1, -13775.553, -0.05964426, -0.3412525, -868008.1, 537584.0, 0.091771424, 10.006066, 9.996072 
2.4053527e+3, 1.6656546e+2, -762640.06, -1346628.0, 14808.648, -0.0524419, -0.33001655, -762264.8, 545360.9, 0.03276258, 10.005288, 9.997284 
2.4052995e+3, 1.7656265e+2, -784079.25, -1317300.1, 7064.8867, -0.030555416, -0.32638454, -783985.6, 425667.5, 0.0068983166, 10.004375, 9.997254 
2.405246e+3, 1.8655992e+2, -759176.2, -1194783.8, 4468.825, -0.047478225, -0.33643907, -759130.4, 352549.0, 0.00044314656, 10.003591, 9.9978 
2.4051924e+3, 1.965574e+2, -761898.5, -1142441.8, 7224.215, -0.08512183, -0.35646102, -761761.44, 251941.92, 0.00000014397028, 10.002884, 9.9978285 
2.40514e+3, 2.0655547e+2, -704753.1, -973145.8, 14283.482, -0.04369549, -0.36070353, -703995.1, 211727.16, 0.0, 10.00221, 9.998644 
2.4050876e+3, 2.1655397e+2, -702770.1, -921702.0, 12359.744, 0.043911543, -0.3611318, -702074.56, 115662.56, 0.0, 10.001549, 9.998643 
2.4050353e+3, 2.265529e+2, -682445.3, -789710.5, 33674.227, 0.05728287, -0.35076982, -672750.1, 46997.207, 0.0, 10.000708, 9.999282 
2.4049826e+3, 2.3655221e+2, -721584.06, -756707.06, 39049.816, 0.029818695, -0.334234, -696328.6, -74575.336, 0.0, 9.999761, 9.999292 
2.4049304e+3, 2.4655156e+2, -709628.7, -620157.8, 34246.31, 0.020217182, -0.35140303, -608554.4, -84794.98, 0.0, 9.998827, 10.000006 
2.4048781e+3, 2.56551e+2, -750023.7, -589948.3, 21926.027, 0.021275256, -0.39749044, -586999.4, -161234.42, 0.0, 9.997881, 9.999996 
2.4048264e+3, 2.665513e+2, -722858.9, -455451.78, 18252.658, 0.05752329, -0.38255197, -454211.63, -126449.54, 0.0, 9.997095, 10.000623 
2.4047747e+3, 2.7655247e+2, -723844.0, -401713.25, 23196.225, 0.11974451, -0.316046, -400051.5, -170300.47, 0.0, 9.996402, 10.000654 
2.4047224e+3, 2.865534e+2, -700838.06, -266842.0, 18959.623, 0.13688388, -0.30759683, -266015.3, -134273.78, 0.0, 9.995573, 10.001306 
2.4046697e+3, 2.965536e+2, -744968.6, -252524.16, 23706.037, 0.11347229, -0.40225694, -251385.6, -217647.03, 0.0, 9.99466, 10.001173 
2.404618e+3, 3.0655518e+2, -672446.75, -59443.24, 54025.137, 0.1232374, -0.40489453, -54718.32, -54718.32, 0.0, 9.994243, 10.002369 
2.4045675e+3, 3.1655636e+2, -765628.8, -137149.1, -19843.71, 0.24940549, -0.51640636, -136523.17, -136523.17, 0.0, 9.993766, 10.002052 
2.4155752e+3, 1.2663297e+2, -1276554.9, -1801248.4, 2118.9802, -0.039444845, -0.40362167, -1276546.3, 422409.56, 0.39104646, 10.006724, 9.996167 
2.4155213e+3, 1.3662872e+2, -1095889.5, -1707226.5, -25688.555, -0.07587591, -0.4257558, -1094811.9, 506188.6, 0.2857625, 10.006859, 9.996079 
2.4154668e+3, 1.4662546e+2, -921258.0, -1544049.3, -51184.113, -0.06594836, -0.37391913, -917079.44, 585954.56, 0.17705847, 10.006575, 9.996663 
2.4154127e+3, 1.5662237e+2, -835216.56, -1492608.9, -32794.402, -0.02229288, -0.33691373, -833584.6, 571480.3, 0.08689053, 10.006038, 9.996597 
2.4153581e+3, 1.6661906e+2, -779618.1, -1380782.0, -18106.16, -0.031723592, -0.3327086, -779073.3, 528024.94, 0.030643158, 10.005264, 9.997064 
2.4153034e+3, 1.766159e+2, -797697.44, -1344251.3, -24845.424, -0.07351605, -0.34420574, -796570.3, 412560.22, 0.0062874006, 10.004363, 9.997077 
2.4152498e+3, 1.8661314e+2, -756968.44, -1189798.3, -20778.959, -0.041609436, -0.35121286, -755973.2, 355184.13, 0.0003727422, 10.003586, 9.997839 
2.4151963e+3, 1.9661078e+2, -762572.44, -1142927.9, -16804.592, 0.028497878, -0.35837153, -761831.44, 251348.2, 0.00000003444413, 10.002877, 9.99783 
2.4151425e+3, 2.0660894e+2, -715549.94, -995494.2, -8742.843, 0.016903143, -0.34491977, -715277.2, 199920.72, 0.0, 10.002206, 9.998493 
2.4150884e+3, 2.166075e+2, -711788.4, -939256.5, -11715.719, -0.03726741, -0.32529745, -711186.56, 106025.98, 0.0, 10.00154, 9.9985285 
2.4150352e+3, 2.2660613e+2, -674435.44, -773726.8, -469.73154, -0.019343335, -0.34566262, -674433.2, 44791.723, 0.0, 10.000708, 9.999393 
2.4149825e+3, 2.3660494e+2, -718421.2, -751855.0, 4051.4907, 0.03753451, -0.3887733, -717937.25, -96702.73, 0.0, 9.999764, 9.999326 
2.4149294e+3, 2.4660432e+2, -733335.8, -670236.2, -2818.8162, 0.05258073, -0.38510746, -670110.56, -146869.52, 0.0, 9.998828, 9.999662 
2.4148762e+3, 2.566041e+2, -767883.4, -628764.56, -14028.5, 0.041561745, -0.36199567, -627364.06, -202119.38, 0.0, 9.997886, 9.999729 
2.4148232e+3, 2.6660424e+2, -711267.44, -432222.2, -10114.033, 0.053779773, -0.36071086, -431856.1, -104613.14, 0.0, 9.997095, 10.000785 
2.4147707e+3, 2.766049e+2, -715730.1, -384622.03, -5652.0083, 0.08812611, -0.36277062, -384525.6, -155289.92, 0.0, 9.996397, 10.000775 
2.414718e+3, 2.866057e+2, -693697.44, -251883.77, -16817.309, 0.15261048, -0.37860724, -251244.55, -120017.78, 0.0, 9.995569, 10.001411 
2.4146652e+3, 2.9660633e+2, -724568.7, -215508.83, -4326.4995, 0.20261367, -0.4430083, -215472.06, -182252.8, 0.0, 9.994679, 10.001419 
2.4146116e+3, 3.0660903e+2, -672909.44, -65328.41, 44530.066, 0.08119641, -0.34768227, -62082.113, -62082.113, 0.0, 9.99426, 10.002321 
2.41456e+3, 3.1661102e+2, -812811.2, -240191.11, -46665.016, 0.16937527, -0.3478169, -236413.13, -236413.13, 0.0, 9.99378, 10.001342 
2.4255823e+3, 1.266858e+2, -1205577.3, -1759596.6, 4365.714, -0.011356343, -0.46006626, -1205542.9, 492893.53, 0.3752651, 10.007398, 9.996131 
2.4255279e+3, 1.3668227e+2, -1043718.7, -1676025.6, 4404.421, -0.09992725, -0.4065152, -1043688.0, 556787.3, 0.2734194, 10.007258, 9.9960985 
2.4254732e+3, 1.4667907e+2, -899686.94, -1495762.5, -38129.152, -0.08672717, -0.36741254, -897257.8, 605249.8, 0.16864656, 10.006535, 9.997014 
2.4254185e+3, 1.5667595e+2, -884089.8, -1488272.4, -37966.168, -0.006213401, -0.36744565, -881713.44, 522824.34, 0.08215732, 10.005516, 9.996877 
2.425363e+3, 1.6667274e+2, -843906.75, -1420686.1, -20726.012, -0.018488357, -0.36232474, -843163.0, 463407.53, 0.028598709, 10.004838, 9.996993 
2.4253076e+3, 1.7666967e+2, -803078.25, -1349898.6, -18174.145, -0.084675446, -0.35379606, -802474.9, 406127.72, 0.0057109403, 10.004342, 9.9970455 
2.4252532e+3, 1.8666707e+2, -730801.3, -1157753.0, -5955.2705, -0.05061698, -0.35541856, -730718.25, 379909.75, 0.00031119632, 10.003686, 9.998008 
2.4251992e+3, 1.9666483e+2, -743712.94, -1119737.1, 5104.3467, 0.038931064, -0.36616755, -743643.6, 269004.9, 0.000000003872902, 10.002947, 9.997954 
2.4251445e+3, 2.0666295e+2, -737151.3, -1012672.0, 18462.06, 0.021911006, -0.35640106, -735919.75, 178747.31, 0.0, 10.0020895, 9.998429 
2.4250893e+3, 2.1666144e+2, -769808.06, -972720.94, 20343.838, -0.052203093, -0.33737236, -767788.5, 48894.188, 0.0, 10.001171, 9.998474 
2.4250354e+3, 2.2666e+2, -724161.56, -799568.44, 26604.1, -0.032949537, -0.35936537, -715720.4, 2975.4636, 0.0, 10.000379, 9.9993725 
2.4249819e+3, 2.3665875e+2, -736244.06, -761981.44, 22074.133, 0.04060096, -0.40767437, -723561.4, -102855.08, 0.0, 9.999653, 9.999308 
2.4249282e+3, 2.4665819e+2, -719639.7, -662747.5, 29963.35, 0.064380616, -0.39584848, -649877.94, -127165.81, 0.0, 9.998922, 9.999666 
2.4248743e+3, 2.5665814e+2, -725132.25, -606993.1, 44020.652, 0.058722153, -0.35418364, -592394.25, -167680.38, 0.0, 9.9981785, 9.999735 
2.4248204e+3, 2.666582e+2, -683314.0, -418639.44, 48755.902, 0.06199768, -0.36579388, -409943.78, -83230.65, 0.0, 9.99729, 10.000782 
2.4247669e+3, 2.766584e+2, -733580.44, -396138.7, 39056.18, 0.08260445, -0.4085338, -391677.25, -162967.81, 0.0, 9.996288, 10.000748 
2.4247134e+3, 2.8665912e+2, -705079.6, -259902.64, 19905.38, 0.14153859, -0.42469063, -259014.38, -128313.22, 0.0, 9.995506, 10.001385 
2.4246597e+3, 2.9666027e+2, -696085.5, -198159.44, 23624.691, 0.18739823, -0.4321342, -197041.05, -164352.17, 0.0, 9.994867, 10.001445 
2.424606e+3, 3.0666274e+2, -708376.1, -107748.29, 59679.707, 0.116082385, -0.3546002, -101875.8, -101875.8, 0.0, 9.994129, 10.002091 
2.4245535e+3, 3.1666452e+2, -803945.56, -128128.32, -22378.492, 0.1520892, -0.34722066, -127388.11, -127388.11, 0.0, 9.993376, 10.002307 
2.4355893e+3, 1.2673877e+2, -1175148.9, -1695890.1, 1463.176, -0.034939777, -0.51085263, -1175144.9, 522772.22, 0.36009973, 10.007381, 9.996578 
2.4355346e+3, 1.3673654e+2, -1021975.3, -1624776.6, -2286.55, -0.1207837, -0.37230614, -1021966.6, 577975.7, 0.26153284, 10.00719, 9.996484 
2.4354793e+3, 1.4673325e+2, -894647.25, -1490008.8, -70187.11, -0.100451976, -0.3621704, -886484.8, 615490.1, 0.16053474, 10.00649, 9.997085 
2.4354239e+3, 1.5672953e+2, -877465.3, -1479074.4, -68963.836, -0.0099403355, -0.42883718, -869661.06, 534349.44, 0.07760168, 10.00551, 9.996948 
2.4353679e+3, 1.667265e+2, -839766.8, -1413367.1, -36522.785, -0.013518823, -0.41169664, -837450.7, 468591.3, 0.026648555, 10.004831, 9.997048 
2.4353118e+3, 1.7672403e+2, -799976.3, -1339243.4, -35271.12, -0.07195744, -0.35189486, -797679.2, 410390.22, 0.0051758112, 10.004319, 9.997132 
2.4352564e+3, 1.8672165e+2, -715033.7, -1121684.8, -31290.824, -0.07606825, -0.3493328, -712640.0, 397452.2, 0.00025922162, 10.003668, 9.998266 
2.4352011e+3, 1.9671944e+2, -730513.8, -1090038.4, -21549.686, -0.048957378, -0.38158414, -729226.75, 282884.5, 0.0000000002134854, 10.0029335, 9.998167 
2.435146e+3, 2.0671742e+2, -736886.6, -1011721.56, -14899.79, -0.024532354, -0.39443251, -736081.25, 178049.56, 0.0, 10.002085, 9.99844 
2.4350908e+3, 2.167157e+2, -771822.4, -977064.6, -11014.16, -0.0040748916, -0.39711246, -771233.0, 44915.754, 0.0, 10.001168, 9.998447 
2.4350362e+3, 2.2671445e+2, -735248.9, -823700.75, 552.82367, 0.01381607, -0.39160806, -735245.44, -17084.25, 0.0, 10.0003805, 9.999207 
2.4349815e+3, 2.3671356e+2, -741849.4, -774373.2, -5138.1914, 0.032858565, -0.3872372, -741056.94, -120887.54, 0.0, 9.999653, 9.999225 
2.4349271e+3, 2.4671309e+2, -694706.5, -612249.94, 981.60406, 0.0531662, -0.38197362, -612238.25, -90064.84, 0.0, 9.998924, 10.000013 
2.4348724e+3, 2.5671303e+2, -704985.44, -568480.5, 14387.169, 0.06964071, -0.37561712, -566980.6, -142807.16, 0.0, 9.99819, 9.999995 
2.4348176e+3, 2.6671293e+2, -695677.0, -446147.78, 9608.868, 0.082993545, -0.39964724, -445778.3, -119604.97, 0.0, 9.997294, 10.000593 
2.4347632e+3, 2.7671286e+2, -746612.25, -425640.94, 1988.4552, 0.10560857, -0.45071295, -425628.6, -197456.02, 0.0, 9.996296, 10.000544 
2.4347082e+3, 2.8671363e+2, -721337.9, -295957.47, -6531.065, 0.096802235, -0.44293112, -295857.22, -165691.77, 0.0, 9.995512, 10.001137 
2.4346529e+3, 2.9671535e+2, -714139.3, -237407.27, -2894.0107, 0.03917202, -0.37040344, -237389.69, -205240.25, 0.0, 9.994872, 10.001175 
2.4346013e+3, 3.0671608e+2, -733947.7, -157080.95, 22696.166, 0.25588942, -0.43126345, -156189.38, -156189.38, 0.0, 9.994112, 10.001761 
2.434547e+3, 3.1671724e+2, -721832.5, 43048.824, -52775.613, 0.17738236, -0.47783658, 46673.086, 46673.086, 0.0, 9.993366, 10.003491 
2.4455966e+3, 1.2679373e+2, -1119031.0, -1663288.1, 28292.605, -0.040102843, -0.47653434, -1117564.3, 579815.06, 0.3453242, 10.007763, 9.996737 
2.4455415e+3, 1.3679114e+2, -1097493.6, -1660587.4, 20068.574, -0.11039055, -0.39156207, -1096779.3, 502627.1, 0.24999848, 10.006332, 9.996652 
2.4454853e+3, 1.4678784e+2, -974342.7, -1527327.8, -42027.688, -0.09691925, -0.39343733, -971166.8, 530272.0, 0.15269858, 10.005765, 9.997162 
2.445429e+3, 1.5678434e+2, -847369.7, -1452139.5, -40880.21, -0.023696255, -0.44314095, -844618.9, 558853.6, 0.07322913, 10.005665, 9.997054 
2.4453725e+3, 1.6678154e+2, -804342.0, -1366096.1, -6771.9307, -0.01967404, -0.42343628, -804260.4, 501241.06, 0.024799148, 10.004946, 9.997316 
2.4453159e+3, 1.7677926e+2, -842687.6, -1335170.6, 8661.088, -0.056376263, -0.3694704, -842535.3, 364990.97, 0.004683251, 10.003915, 9.9973545 
2.4452598e+3, 1.8677694e+2, -784085.1, -1149618.6, 12306.668, -0.06860954, -0.3712793, -783671.25, 325877.1, 0.00021629743, 10.003174, 9.998311 
2.4452037e+3, 1.9677475e+2, -778441.2, -1107022.1, 6015.721, -0.06584181, -0.40477124, -778331.1, 233236.33, 0.00000000008671795, 10.002586, 9.998214 
2.4451476e+3, 2.0677277e+2, -756103.56, -1019290.44, 3730.474, -0.035251785, -0.4162425, -756050.7, 157536.25, 0.0, 10.001951, 9.99845 
2.445092e+3, 2.1677105e+2, -752333.1, -963951.25, 7039.155, 0.01064874, -0.41832164, -752099.25, 63505.96, 0.0, 10.001288, 9.998479 
2.4450366e+3, 2.2676998e+2, -707539.0, -792516.4, 34060.723, 0.029171374, -0.4035883, -695572.0, 22043.75, 0.0, 10.000497, 9.999363 
2.4449809e+3, 2.367694e+2, -734750.25, -754889.06, 52281.5, 0.03568367, -0.38425347, -691577.3, -71956.38, 0.0, 9.999638, 9.999363 
2.4449256e+3, 2.4676886e+2, -704654.25, -611559.2, 53576.8, 0.047173962, -0.393011, -587133.9, -65508.625, 0.0, 9.998836, 10.00006 
2.4448702e+3, 2.5676852e+2, -724669.6, -575585.94, 43006.26, 0.060443398, -0.41631097, -564069.5, -140442.13, 0.0, 9.998047, 10.000015 
2.4448149e+3, 2.6676846e+2, -702237.0, -462340.53, 30606.955, 0.09026866, -0.4301354, -458497.16, -132870.06, 0.0, 9.997309, 10.000474 
2.4447598e+3, 2.7676857e+2, -710135.8, -418589.34, 28269.186, 0.13807559, -0.452917, -415873.56, -188248.23, 0.0, 9.996596, 10.000444 
2.4447039e+3, 2.8676918e+2, -702834.25, -291202.53, 32692.28, 0.10179597, -0.4491768, -288622.25, -159002.77, 0.0, 9.995659, 10.001098 
2.444647e+3, 2.9677072e+2, -773289.0, -282400.53, 51638.586, -0.0032254711, -0.3929261, -277027.28, -245421.48, 0.0, 9.994534, 10.00103 
2.4445954e+3, 3.067713e+2, -791647.1, -212058.06, 91139.29, 0.28502354, -0.44481456, -198064.44, -198064.44, 0.0, 9.993834, 10.001518 
2.4445395e+3, 3.167737e+2, -695580.5, 98468.78, -15315.286, 0.12691186, -0.35075873, 98764.07, 98764.07, 0.0, 9.993372, 10.003863 
2.4556042e+3, 1.2685019e+2, -1110514.0, -1661721.1, -6736.021, -0.0353279, -0.38491145, -1110431.8, 586395.8, 0.3307357, 10.007703, 9.996769 
2.4555479e+3, 1.3684613e+2, -1090096.6, -1657781.9, -12538.847, -0.08190624, -0.44911188, -1089819.9, 509046.84, 0.23870663, 10.006318, 9.996676 
2.455491e+3, 1.4684291e+2, -968306.7, -1524864.3, -42397.242, -0.08524182, -0.44668475, -965095.44, 535802.94, 0.14509492, 10.00576, 9.997184 
2.4554344e+3, 1.5684025e+2, -843304.06, -1440429.6, -46870.973, -0.050705012, -0.41546747, -839647.3, 563277.44, 0.069027066, 10.005625, 9.997156 
2.4553771e+3, 1.6683765e+2, -778681.7, -1306884.0, -42726.88, -0.037473325, -0.40551537, -775247.8, 529702.94, 0.023045838, 10.004913, 9.997742 
2.4553198e+3, 1.7683521e+2, -821191.06, -1289597.1, -25599.633, -0.038770586, -0.40805626, -819796.1, 387178.88, 0.004230148, 10.003907, 9.997673 
2.4552631e+3, 1.8683285e+2, -794326.9, -1171684.1, -8634.89, -0.031567555, -0.4183138, -794129.4, 314868.25, 0.0001811048, 10.003173, 9.998162 
2.4552065e+3, 1.968307e+2, -788225.94, -1126322.4, -14658.207, -0.020099586, -0.43334952, -787591.6, 223426.14, 0.00000000016280782, 10.002579, 9.998088 
2.4551496e+3, 2.068289e+2, -756969.56, -1020741.25, -19289.473, -0.014303282, -0.42154014, -755566.44, 157469.97, 0.0, 10.001946, 9.998445 
2.455093e+3, 2.1682741e+2, -748073.6, -953620.6, -16341.056, -0.01089912, -0.4003749, -746782.6, 68270.27, 0.0, 10.001278, 9.998557 
2.4550366e+3, 2.2682655e+2, -676024.2, -727634.9, 3481.0342, 0.01297409, -0.39499143, -675790.44, 41269.97, 0.0, 10.000496, 9.99981 
2.4549808e+3, 2.3682614e+2, -711201.4, -708846.9, 20758.645, 0.0471054, -0.4004734, -689232.1, -70170.07, 0.0, 9.999646, 9.999677 
2.4549243e+3, 2.4682537e+2, -722890.25, -651031.94, 22221.22, 0.045558084, -0.43097472, -644715.56, -123646.8, 0.0, 9.998839, 9.999789 
2.4548677e+3, 2.5682455e+2, -740932.8, -610497.56, 12038.858, 0.025816232, -0.4741247, -609395.75, -186319.33, 0.0, 9.998048, 9.999777 
2.4548121e+3, 2.6682466e+2, -706104.9, -471391.03, 2136.9692, 0.08126595, -0.4563586, -471371.6, -146296.36, 0.0, 9.99731, 10.000412 
2.4547566e+3, 2.7682537e+2, -707609.56, -416019.97, -640.0309, 0.17714624, -0.41418722, -416018.56, -188950.06, 0.0, 9.996604, 10.00046 
2.4547e+3, 2.8682587e+2, -685490.6, -256156.78, -10645.594, 0.16346991, -0.44121528, -255892.98, -126829.78, 0.0, 9.995658, 10.001341 
2.4546424e+3, 2.968265e+2, -770860.7, -277346.8, 12788.097, 0.07991007, -0.4935737, -277015.7, -245959.39, 0.0, 9.994529, 10.001069 
2.4545878e+3, 3.0682826e+2, -810130.25, -252150.17, 79758.555, 0.16712032, -0.408979, -240973.25, -240973.25, 0.0, 9.993837, 10.001244 
2.454533e+3, 3.1682867e+2, -697016.56, 101349.59, -115389.59, 0.13556178, -0.5001076, 117692.555, 117692.555, 0.0, 9.993349, 10.003893 
2.4656115e+3, 1.2690683e+2, -1131871.5, -1671903.4, 15560.662, -0.040657148, -0.3703696, -1131423.5, 564849.56, 0.31622893, 10.0073185, 9.996845 
2.4655545e+3, 1.3690273e+2, -1017798.25, -1607735.5, 12460.727, -0.06180225, -0.4451112, -1017535.2, 580776.7, 0.22756672, 10.006851, 9.996763 
2.4654968e+3, 1.4689955e+2, -934579.2, -1499596.4, -3469.2417, -0.07474246, -0.44576848, -934557.9, 565785.06, 0.13765961, 10.005957, 9.997259 
2.4654391e+3, 1.5689698e+2, -936018.94, -1479407.4, -2317.245, -0.06396231, -0.41434368, -936009.06, 466359.7, 0.0649587, 10.004885, 9.997242 
2.4653816e+3, 1.6689442e+2, -857123.1, -1327978.4, -7834.583, -0.04434026, -0.40944365, -856992.8, 447400.8, 0.021371728, 10.004284, 9.997897 
2.4653237e+3, 1.7689204e+2, -810962.6, -1269568.9, -7770.014, -0.025369247, -0.42060655, -810831.06, 395585.47, 0.0038101159, 10.003918, 9.997802 
2.4652663e+3, 1.868897e+2, -778612.25, -1170019.6, 7719.638, -0.016217265, -0.43080088, -778460.06, 329979.28, 0.00015190538, 10.00331, 9.998106 
2.4652089e+3, 1.9688754e+2, -787625.1, -1126908.3, 6334.727, -0.010214045, -0.44072372, -787506.94, 222953.52, 0.00000000021615258, 10.002584, 9.998081 
2.4651515e+3, 2.0688593e+2, -762132.3, -992109.56, 14173.472, -0.009639324, -0.4247195, -761262.06, 151214.94, 0.0, 10.00178, 9.99872 
2.465094e+3, 2.1688475e+2, -781163.6, -942491.9, 34667.145, -0.0112472335, -0.39998502, -774029.6, 40460.24, 0.0, 10.000942, 9.998792 
2.4650368e+3, 2.268839e+2, -719164.7, -749177.3, 39108.434, 0.0060267267, -0.40191656, -692282.3, 24214.748, 0.0, 10.000208, 9.9998 
2.46498e+3, 2.3688333e+2, -730502.44, -718719.44, 24863.59, 0.0358176, -0.42043605, -699058.9, -80558.73, 0.0, 9.999519, 9.999669 
2.4649228e+3, 2.4688256e+2, -726716.8, -652763.3, 30013.725, 0.04531328, -0.45036572, -642115.44, -121608.336, 0.0, 9.998816, 9.999786 
2.4648659e+3, 2.568818e+2, -733029.25, -604463.2, 39595.082, 0.04361121, -0.4877049, -593247.3, -170732.84, 0.0, 9.998096, 9.999792 
2.4648093e+3, 2.668821e+2, -692291.0, -452332.13, 45662.8, 0.08515408, -0.46125165, -443936.5, -119424.51, 0.0, 9.997353, 10.000522 
2.464753e+3, 2.76883e+2, -707763.1, -408660.16, 52807.33, 0.15626062, -0.40569693, -399610.7, -173107.58, 0.0, 9.996571, 10.000527 
2.4646956e+3, 2.8688335e+2, -668815.25, -257892.38, 20185.389, 0.1717903, -0.44079116, -256903.2, -128404.5, 0.0, 9.995817, 10.001251 
2.4646375e+3, 2.9688358e+2, -696832.94, -242642.48, 18668.912, 0.13769735, -0.5263263, -241876.42, -211381.0, 0.0, 9.9950485, 10.001054 
2.4645813e+3, 3.068856e+2, -756568.2, -203108.5, 124618.98, 0.12639652, -0.42925382, -176343.2, -176343.2, 0.0, 9.994111, 10.001445 
2.4645266e+3, 3.1688568e+2, -739463.94, 38737.203, -103036.52, 0.209446, -0.562138, 52148.47, 52148.47, 0.0, 9.99324, 10.003515 
2.4756187e+3, 1.2696373e+2, -1117188.4, -1665052.5, 7175.5293, -0.06035988, -0.41271928, -1117094.5, 578620.75, 0.30172434, 10.0073185, 9.996902 
2.4755614e+3, 1.369607e+2, -1011991.06, -1600748.8, -1970.1747, -0.056565564, -0.39034617, -1011984.5, 585759.94, 0.21647188, 10.006792, 9.996839 
2.4755026e+3, 1.4695749e+2, -926149.1, -1487193.8, -37313.984, -0.06902814, -0.40253782, -923678.3, 576097.06, 0.1302982, 10.005925, 9.997375 
2.4754438e+3, 1.5695438e+2, -928124.56, -1468536.8, -33304.555, -0.065861896, -0.43536073, -926079.8, 475725.78, 0.060965415, 10.0048895, 9.997318 
2.4753855e+3, 1.6695184e+2, -860731.3, -1339248.4, -18396.473, -0.042821996, -0.42928353, -860025.1, 443805.44, 0.019751055, 10.00429, 9.997819 
2.4753277e+3, 1.7694971e+2, -815953.5, -1278118.0, -21020.334, -0.019202938, -0.40741003, -814999.4, 390852.0, 0.0034153236, 10.003905, 9.997751 
2.4752693e+3, 1.8694739e+2, -780449.4, -1171332.1, -16812.152, -0.022437718, -0.41237572, -779727.56, 328146.78, 0.0001270492, 10.003295, 9.998106 
2.4752112e+3, 1.9694516e+2, -783499.75, -1114827.9, -18859.273, -0.035614513, -0.4301335, -782429.75, 227466.86, 0.00000000023303823, 10.002565, 9.998176 
2.475153e+3, 2.0694378e+2, -726507.94, -917378.25, -15690.476, -0.020535711, -0.42633224, -725226.7, 186683.08, 0.0, 10.001772, 9.999238 
2.475095e+3, 2.1694295e+2, -758084.7, -894626.94, 5950.765, 0.006161754, -0.41628966, -757825.8, 56091.426, 0.0, 10.000938, 9.999125 
2.4750368e+3, 2.2694191e+2, -750355.56, -815317.7, 14115.269, 0.0068189786, -0.4236295, -747421.1, -31494.191, 0.0, 10.000211, 9.999346 
2.474979e+3, 2.369409e+2, -752648.94, -765723.7, -1165.2705, -0.0015064459, -0.4416343, -752545.94, -134609.9, 0.0, 9.99952, 9.999348 
2.4749216e+3, 2.4694036e+2, -708422.9, -616107.56, 1870.5211, 0.046439663, -0.4498601, -616069.7, -96128.695, 0.0, 9.998818, 10.000038 
2.4748646e+3, 2.569402e+2, -713152.94, -566626.8, 11295.882, 0.11394042, -0.45572886, -565761.1, -143818.69, 0.0, 9.998108, 10.000049 
2.4748066e+3, 2.669406e+2, -672237.94, -411740.2, 14511.0625, 0.100985326, -0.44385988, -410934.34, -86996.305, 0.0, 9.997354, 10.000802 
2.4747483e+3, 2.769414e+2, -700231.2, -393793.56, 23190.084, 0.06664602, -0.42470172, -392048.56, -166119.23, 0.0, 9.996571, 10.000631 
2.4746907e+3, 2.8694156e+2, -704462.56, -334711.22, -10223.664, 0.117624395, -0.45123374, -334428.75, -206501.47, 0.0, 9.995826, 10.000722 
2.4746326e+3, 2.969416e+2, -699601.6, -254814.34, -15670.167, 0.16008218, -0.50306195, -254262.95, -224336.53, 0.0, 9.995072, 10.00096 
2.474576e+3, 3.0694348e+2, -695716.8, -74433.125, 85293.9, 0.18611525, -0.47783083, -62936.17, -62936.17, 0.0, 9.9941, 10.002335 
2.4745193e+3, 3.1694618e+2, -789077.3, -76049.74, -104673.85, 0.17231598, -0.40934572, -61001.027, -61001.027, 0.0, 9.993268, 10.002726 
2.485626e+3, 1.270222e+2, -1048094.4, -1653227.8, 38629.84, -0.06519121, -0.43551153, -1045638.4, 649502.6, 0.2870677, 10.007959, 9.996704 
2.4855676e+3, 1.3701911e+2, -1061977.0, -1649453.0, 24483.158, -0.059372906, -0.3953635, -1060958.5, 536212.75, 0.20527367, 10.006343, 9.996722 
2.4855083e+3, 1.4701597e+2, -962220.3, -1488246.4, 620.65967, -0.06521761, -0.406566, -962219.56, 536981.9, 0.122897714, 10.005521, 9.997556 
2.4854487e+3, 1.5701297e+2, -888415.25, -1434035.0, 11093.948, -0.0523627, -0.4461291, -888189.8, 513040.44, 0.056983102, 10.005102, 9.997449 
2.4853899e+3, 1.6701044e+2, -834480.7, -1333712.4, 34497.113, -0.036362167, -0.43853942, -832108.2, 471147.0, 0.01815814, 10.004499, 9.997755 
2.4853313e+3, 1.770083e+2, -831792.9, -1289198.8, 30344.566, -0.026869265, -0.40996704, -829788.56, 375488.13, 0.003038901, 10.003809, 9.997723 
2.4852723e+3, 1.8700601e+2, -828260.06, -1178691.6, 31083.29, -0.034041267, -0.418007, -825524.3, 281775.13, 0.000105276245, 10.002902, 9.998243 
2.4852131e+3, 1.9700383e+2, -869515.6, -1139582.3, 39789.9, -0.04553385, -0.4446321, -863775.25, 145545.86, 0.00000000017417703, 10.00191, 9.998317 
2.4851543e+3, 2.0700261e+2, -771366.3, -927332.3, 36836.043, -0.022106031, -0.4350554, -763104.06, 148228.42, 0.0, 10.001419, 9.999338 
2.485096e+3, 2.1700199e+2, -722796.2, -871327.25, 27466.385, 0.017222408, -0.41260055, -717879.9, 95457.81, 0.0, 10.001155, 9.999179 
2.4850371e+3, 2.2700077e+2, -721914.3, -813975.0, 34771.73, 0.016198859, -0.4306128, -710257.0, 5092.1323, 0.0, 10.000462, 9.999232 
2.4849783e+3, 2.3699947e+2, -750793.44, -770739.25, 44076.17, 0.0008985692, -0.46813533, -715576.0, -98214.164, 0.0, 9.999563, 9.9992895 
2.4849202e+3, 2.4699914e+2, -702767.4, -593857.94, 54388.004, 0.049258668, -0.46006083, -571349.25, -51984.715, 0.0, 9.998776, 10.00021 
2.4848625e+3, 2.5699946e+2, -715529.0, -552267.25, 56226.305, 0.122612186, -0.43489522, -534777.0, -113415.914, 0.0, 9.998029, 10.000184 
2.4848036e+3, 2.6699966e+2, -698076.3, -425912.94, 38101.58, 0.105944805, -0.441486, -420679.53, -97321.42, 0.0, 9.997188, 10.000782 
2.4847446e+3, 2.7700007e+2, -742496.4, -416088.9, 26552.682, 0.06475977, -0.46263292, -413943.0, -188589.39, 0.0, 9.996294, 10.0006075 
2.4846862e+3, 2.8700045e+2, -713012.0, -341215.63, 23803.33, 0.10933894, -0.46446493, -339697.88, -212348.4, 0.0, 9.995781, 10.000696 
2.4846275e+3, 2.97001e+2, -643749.8, -223978.17, 48024.14, 0.14374304, -0.46655408, -218554.03, -189209.92, 0.0, 9.99544, 10.000996 
2.4845706e+3, 3.070022e+2, -658277.1, -42199.676, 84668.92, 0.2486333, -0.51607525, -30775.283, -30775.283, 0.0, 9.994301, 10.002457 
2.4845114e+3, 3.1700474e+2, -837987.0, -89075.45, -82636.266, 0.08980801, -0.46618184, -80065.61, -80065.61, 0.0, 9.992894, 10.002813 
2.4956338e+3, 1.270819e+2, -1059156.6, -1691268.8, -5099.9243, -0.06212002, -0.43890387, -1059115.5, 635437.94, 0.27206784, 10.007889, 9.996368 
2.4955735e+3, 1.3707803e+2, -1066543.0, -1682350.0, -15067.482, -0.073053256, -0.4459415, -1066174.5, 530417.94, 0.1938334, 10.006347, 9.996493 
2.4955137e+3, 1.4707501e+2, -943157.3, -1462602.3, -10048.646, -0.06620429, -0.44715965, -942963.0, 555658.5, 0.1153731, 10.005536, 9.997749 
2.4954541e+3, 1.5707257e+2, -878590.56, -1414007.5, -3206.8591, -0.02960644, -0.44882488, -878571.3, 522072.97, 0.05297136, 10.005084, 9.997597 
2.4953943e+3, 1.6707006e+2, -841543.9, -1346088.0, 11187.839, -0.027595552, -0.4399164, -841295.94, 461373.44, 0.01657996, 10.0044775, 9.997683 
2.4953347e+3, 1.770677e+2, -835453.2, -1293516.6, 4457.6743, -0.04820478, -0.42631638, -835409.8, 369283.88, 0.0026776688, 10.00379, 9.997704 
2.4952747e+3, 1.8706548e+2, -811134.3, -1142933.8, -4896.948, -0.051130787, -0.44415215, -811062.06, 295653.6, 0.000085722764, 10.002897, 9.998493 
2.4952148e+3, 1.9706343e+2, -857923.2, -1117321.1, 9623.544, -0.043344643, -0.47954714, -857566.7, 151168.39, 0.00000000005180779, 10.001914, 9.99847 
2.4951558e+3, 2.0706232e+2, -791022.06, -970233.8, 28961.795, -0.015709246, -0.44908807, -786457.94, 124288.266, 0.0, 10.001424, 9.9990425 
2.4950969e+3, 2.1706176e+2, -737550.44, -901397.94, 15445.802, 0.019185714, -0.39152578, -736107.06, 76644.96, 0.0, 10.001148, 9.998978 
2.4950376e+3, 2.2706042e+2, -708785.9, -787310.75, 2407.3838, 0.03341648, -0.42473093, -708712.1, 6052.494, 0.0, 10.000462, 9.999417 
2.494978e+3, 2.3705892e+2, -738587.2, -747630.5, 11343.283, 0.03988051, -0.49968576, -730897.56, -114119.04, 0.0, 9.999569, 9.999448 
2.494919e+3, 2.4705884e+2, -695660.2, -580696.6, 24746.03, 0.051525205, -0.48042244, -575596.3, -56817.746, 0.0, 9.99878, 10.0003 
2.4948598e+3, 2.5705954e+2, -714977.94, -552580.94, 25973.328, 0.062369104, -0.42353395, -548528.0, -127757.055, 0.0, 9.998032, 10.000182 
2.4948008e+3, 2.670593e+2, -723119.8, -478528.9, 2356.02, 0.09959935, -0.45602804, -478506.22, -155732.98, 0.0, 9.997187, 10.000423 
2.4947417e+3, 2.7705887e+2, -752812.25, -438988.72, -5445.454, 0.1586477, -0.52486145, -438894.28, -214116.61, 0.0, 9.996297, 10.000451 
2.494682e+3, 2.8706e+2, -675169.75, -262997.8, 10235.854, 0.15187109, -0.47874185, -262743.78, -135978.0, 0.0, 9.995778, 10.001237 
2.494622e+3, 2.9706183e+2, -633337.44, -203025.28, 29615.643, 0.080642514, -0.40187317, -200996.58, -172249.8, 0.0, 9.995439, 10.001142 
2.4945652e+3, 3.070613e+2, -720831.1, -174692.53, 21122.367, 0.30896816, -0.56933665, -173876.83, -173876.83, 0.0, 9.994308, 10.001545 
2.4945042e+3, 3.1706432e+2, -794937.06, -4366.995, -73010.484, 0.08940724, -0.40517294, 2319.1006, 2319.1006, 0.0, 9.992914, 10.003385 
2.505641e+3, 1.2714225e+2, -1086151.4, -1693068.5, 7230.594, -0.08205029, -0.4573619, -1086065.3, 607894.6, 0.2566179, 10.007407, 9.996581 
2.5055802e+3, 1.3713844e+2, -993605.06, -1628537.9, 25966.941, -0.04618451, -0.47727305, -992544.9, 603453.0, 0.18209597, 10.006826, 9.996634 
2.5055194e+3, 1.4713544e+2, -895640.25, -1454571.1, 39501.973, -0.04722995, -0.47436884, -892862.3, 605164.8, 0.10770289, 10.005932, 9.997615 
2.5054586e+3, 1.5713297e+2, -905195.1, -1437693.0, 29678.393, -0.041007172, -0.46430686, -903546.1, 496504.56, 0.048925746, 10.004918, 9.997513 
2.505398e+3, 1.6713049e+2, -892992.8, -1359491.4, 47124.703, -0.045066457, -0.45596072, -888280.0, 413796.0, 0.015017835, 10.0040655, 9.9977865 
2.505338e+3, 1.7712814e+2, -898483.75, -1311685.1, 52491.55, -0.060565725, -0.44956458, -891919.7, 312180.66, 0.0023317942, 10.003306, 9.997808 
2.5052774e+3, 1.8712611e+2, -813712.5, -1132904.5, 42147.37, -0.05193126, -0.45479825, -808240.94, 297879.28, 0.00006792477, 10.002834, 9.9985895 
2.505217e+3, 1.9712439e+2, -771182.1, -1069103.8, 45784.633, -0.029130878, -0.46797356, -764304.7, 243831.9, 0.0000000000010010511, 10.002484, 9.998526 
2.5051573e+3, 2.0712303e+2, -763360.44, -969304.9, 70091.48, -0.008228566, -0.4549477, -741769.06, 168380.95, 0.0, 10.001671, 9.998929 
2.5050974e+3, 2.17122e+2, -813081.1, -942843.94, 67340.78, 0.011979057, -0.43145677, -784451.2, 27709.305, 0.0, 10.000657, 9.998926 
2.5050375e+3, 2.2712095e+2, -757371.5, -790998.25, 58186.156, 0.030755606, -0.4447956, -713618.25, 552.1909, 0.0, 10.000047, 9.99959 
2.5049776e+3, 2.3712003e+2, -725540.75, -728004.7, 66622.69, 0.051363565, -0.47810805, -660138.6, -43959.945, 0.0, 9.999605, 9.999562 
2.5049174e+3, 2.4711975e+2, -695415.9, -594255.4, 64030.74, 0.058190804, -0.47274318, -563237.25, -45056.605, 0.0, 9.998844, 10.000174 
2.5048575e+3, 2.5711995e+2, -737496.7, -574714.2, 49568.484, 0.0578704, -0.4514417, -560808.2, -140630.11, 0.0, 9.997929, 10.000077 
2.504798e+3, 2.671197e+2, -703847.56, -472334.94, 42979.44, 0.102382645, -0.475304, -464613.47, -142433.02, 0.0, 9.997335, 10.000393 
2.5047383e+3, 2.7711952e+2, -668037.06, -394844.56, 57560.555, 0.17651635, -0.5201032, -383212.1, -159028.86, 0.0, 9.996866, 10.000479 
2.504678e+3, 2.8712073e+2, -628802.5, -216499.5, 63228.574, 0.15435113, -0.47831175, -207021.02, -80851.016, 0.0, 9.9959955, 10.00145 
2.504617e+3, 2.971227e+2, -698270.8, -227768.11, 58194.03, 0.063184336, -0.40857604, -220677.27, -192528.17, 0.0, 9.994968, 10.001196 
2.5045595e+3, 3.0712184e+2, -718334.44, -206081.06, 66976.375, 0.28740326, -0.5867149, -197468.8, -197468.8, 0.0, 9.994467, 10.001252 
2.5044972e+3, 3.1712446e+2, -704452.56, 15601.224, 7236.578, 0.07934186, -0.4410278, 15673.944, 15673.944, 0.0, 9.993647, 10.003163 
2.515648e+3, 1.2720318e+2, -1048154.3, -1628770.9, -7409.002, -0.12802161, -0.4901876, -1048059.8, 645301.25, 0.24075477, 10.007341, 9.99719 
2.5155875e+3, 1.3720013e+2, -968409.8, -1578499.9, 5822.961, 0.012273019, -0.4924617, -968354.25, 627035.56, 0.17011598, 10.006774, 9.997023 
2.5155255e+3, 1.4719704e+2, -918328.6, -1511422.4, 5453.956, -0.012744579, -0.48884907, -918278.5, 579141.9, 0.09993341, 10.005915, 9.997201 
2.515463e+3, 1.5719408e+2, -919996.8, -1476979.8, -3061.563, -0.08384974, -0.4882431, -919980.0, 479470.2, 0.04487354, 10.004925, 9.997242 
2.5154015e+3, 1.671916e+2, -874655.25, -1323929.3, 20427.91, -0.086399786, -0.48356637, -873728.3, 427747.4, 0.013483279, 10.004069, 9.99803 
2.5153407e+3, 1.7718948e+2, -886404.56, -1285017.0, 28470.732, -0.06648503, -0.4786808, -884381.3, 319116.4, 0.0020035945, 10.003296, 9.997998 
2.5152802e+3, 1.8718782e+2, -818559.2, -1141978.8, 30804.742, -0.039035607, -0.4514975, -815651.3, 289863.1, 0.000051899122, 10.002827, 9.998534 
2.5152194e+3, 1.9718653e+2, -775611.8, -1076848.8, 29341.611, -0.006680386, -0.4159408, -772780.44, 234746.67, 0.0, 10.002474, 9.998479 
2.5151587e+3, 2.0718464e+2, -761796.06, -965791.44, 32575.94, -0.00096015213, -0.45504087, -756720.3, 152824.77, 0.0, 10.001666, 9.998957 
2.515098e+3, 2.1718271e+2, -809937.06, -935651.8, 34947.94, -0.0072067427, -0.5271658, -800875.0, 10688.57, 0.0, 10.00065, 9.998981 
2.5150374e+3, 2.2718231e+2, -745176.44, -767106.2, 43133.92, 0.007347864, -0.4865324, -711635.56, 1931.4963, 0.0, 10.00005, 9.999755 
2.514977e+3, 2.3718269e+2, -719986.6, -719384.6, 46808.926, 0.031942435, -0.40365744, -672875.7, -57312.754, 0.0, 9.999614, 9.9996195 
2.5149164e+3, 2.471818e+2, -720813.56, -648588.9, 28224.309, 0.06975471, -0.43940318, -638867.7, -121296.04, 0.0, 9.998848, 9.999801 
2.514856e+3, 2.571806e+2, -752628.2, -608289.2, 17284.498, 0.11027834, -0.5222899, -606248.2, -186664.58, 0.0, 9.997934, 9.999846 
2.514795e+3, 2.6718098e+2, -681094.1, -426876.7, 24781.242, 0.112330906, -0.49811453, -424483.53, -102903.2, 0.0, 9.997339, 10.000705 
2.5147343e+3, 2.771821e+2, -651008.2, -363120.8, 35348.36, 0.103787564, -0.4392076, -358844.1, -135274.61, 0.0, 9.996879, 10.000692 
2.5146735e+3, 2.8718266e+2, -639250.56, -239498.47, 22717.043, 0.11165984, -0.46328428, -238211.66, -112649.41, 0.0, 9.995997, 10.001293 
2.5146124e+3, 2.971834e+2, -700379.2, -230996.66, 26583.938, 0.106353596, -0.49920964, -229495.84, -201943.36, 0.0, 9.994959, 10.00118 
2.5145522e+3, 3.0718407e+2, -686688.06, -143610.42, 55947.867, 0.15074003, -0.55356437, -137906.58, -137906.58, 0.0, 9.994476, 10.001678 
2.5144914e+3, 3.171846e+2, -756801.3, -94804.23, -90164.96, 0.15373388, -0.6444418, -82743.37, -82743.37, 0.0, 9.993653, 10.002402 
2.5256547e+3, 1.2726514e+2, -1057933.1, -1646537.3, 29056.563, -0.14311035, -0.5338902, -1056502.3, 636248.2, 0.22460529, 10.007172, 9.997104 
2.5255936e+3, 1.3726215e+2, -1027796.8, -1620807.1, 9983.038, -0.012846672, -0.52106166, -1027628.8, 567151.06, 0.15800495, 10.00624, 9.996967 
2.5255308e+3, 1.4725913e+2, -947545.9, -1524266.9, 18102.855, -0.026048902, -0.51085395, -946978.2, 549832.0, 0.09214169, 10.005639, 9.997241 
2.525468e+3, 1.5725622e+2, -879305.25, -1453955.3, 33826.31, -0.07735975, -0.5072413, -877320.94, 521518.7, 0.040855277, 10.005191, 9.99727 
2.525406e+3, 1.6725384e+2, -843449.06, -1308115.1, 48734.043, -0.07470364, -0.49262893, -838392.9, 462471.6, 0.011991728, 10.004282, 9.9980345 
2.525344e+3, 1.7725185e+2, -900534.8, -1290189.0, 45376.77, -0.053844795, -0.47489062, -895320.3, 307565.25, 0.0016964019, 10.003195, 9.99801 
2.5252828e+3, 1.8725012e+2, -860098.75, -1162422.0, 60804.223, -0.026936244, -0.4534344, -848327.94, 256575.05, 0.00003798913, 10.002547, 9.998526 
2.5252217e+3, 1.9724867e+2, -831082.06, -1103027.0, 57725.16, 0.0034432975, -0.4317904, -819336.25, 187581.05, 0.0, 10.002095, 9.99848 
2.52516e+3, 2.0724687e+2, -789682.06, -975741.94, 48074.723, 0.0005673137, -0.4639543, -777994.56, 130939.945, 0.0, 10.001464, 9.998983 
2.525098e+3, 2.172451e+2, -793703.25, -924689.94, 52151.363, -0.015185698, -0.5213186, -775476.0, 35475.324, 0.0, 10.000752, 9.999005 
2.5250372e+3, 2.2724457e+2, -743556.06, -766763.7, 60741.527, 0.0011416301, -0.49378702, -693319.94, 19635.941, 0.0, 10.000067, 9.999746 
2.524976e+3, 2.3724474e+2, -753070.8, -735124.6, 50189.96, 0.033883967, -0.43200395, -693111.94, -78158.29, 0.0, 9.999391, 9.999618 
2.524915e+3, 2.4724393e+2, -739218.75, -659080.44, 39947.246, 0.07275283, -0.45783797, -642569.4, -125607.484, 0.0, 9.998733, 9.999783 
2.5248536e+3, 2.572429e+2, -732035.3, -595820.25, 56471.86, 0.11185792, -0.52109, -575453.44, -156480.61, 0.0, 9.99807, 9.999864 
2.524792e+3, 2.6724336e+2, -667645.3, -405964.72, 68165.78, 0.09861207, -0.49427694, -389272.8, -68304.625, 0.0, 9.997374, 10.000829 
2.5247306e+3, 2.772446e+2, -678877.56, -367022.75, 61278.094, 0.07231249, -0.43550658, -355414.0, -132458.4, 0.0, 9.996651, 10.000772 
2.5246692e+3, 2.87245e+2, -632448.8, -242645.31, 42247.87, 0.11775646, -0.4720926, -238118.94, -113169.125, 0.0, 9.996077, 10.00123 
2.5246078e+3, 2.972454e+2, -619046.1, -189918.11, 52366.664, 0.167641, -0.5347305, -183620.2, -156676.5, 0.0, 9.995517, 10.00119 
2.5245455e+3, 3.0724669e+2, -690862.56, -120158.6, 70496.35, 0.05818882, -0.54643923, -111579.484, -111579.484, 0.0, 9.994344, 10.0019 
2.5244862e+3, 3.172488e+2, -749115.9, -50021.426, -73096.5, 0.30099177, -0.49969333, -42460.32, -42460.32, 0.0, 9.99353, 10.0027685 
2.5356618e+3, 1.2732798e+2, -1086101.5, -1727715.9, 575.6538, -0.14217763, -0.5840507, -1086100.9, 606029.0, 0.20832773, 10.0071125, 9.996483 
2.5355986e+3, 1.3732451e+2, -1047305.06, -1679825.3, -14566.701, -0.108362526, -0.55984545, -1046969.75, 547197.7, 0.14588009, 10.006204, 9.996579 
2.535536e+3, 1.4732167e+2, -921446.1, -1473198.9, 4890.764, -0.078759894, -0.53877115, -921402.75, 574793.6, 0.08440478, 10.005614, 9.99762 
2.5354734e+3, 1.5731925e+2, -866663.44, -1421349.3, 13805.538, -0.0312157, -0.522554, -866320.06, 531900.1, 0.03691267, 10.005144, 9.997517 
2.5354105e+3, 1.6731706e+2, -860277.5, -1341142.8, 9233.116, -0.019234428, -0.48556492, -860100.3, 440143.2, 0.010559664, 10.004263, 9.997819 
2.5353473e+3, 1.7731513e+2, -909660.94, -1313327.5, 11685.575, -0.026954241, -0.4416583, -909322.94, 292941.84, 0.0014141223, 10.003208, 9.997847 
2.535285e+3, 1.8731295e+2, -857116.8, -1159734.8, 45932.563, -0.017016938, -0.46075305, -850298.56, 253987.98, 0.000026579513, 10.002559, 9.99854 
2.5352237e+3, 1.9731082e+2, -830749.44, -1101416.0, 40474.992, 0.00002979895, -0.5075929, -824826.5, 181480.47, 0.0, 10.002088, 9.998496 
2.5351614e+3, 2.0730968e+2, -788492.3, -973606.7, 22747.627, -0.0035411338, -0.47766832, -785738.0, 122580.516, 0.0, 10.001462, 9.9990015 
2.5350988e+3, 2.1730906e+2, -795086.9, -929042.0, 27658.555, -0.015335423, -0.42084154, -789600.75, 20724.26, 0.0, 10.000755, 9.998976 
2.535037e+3, 2.273076e+2, -756946.0, -796200.2, 36427.97, 0.011216048, -0.47170296, -735194.1, -22856.06, 0.0, 10.000071, 9.999544 
2.5349757e+3, 2.3730603e+2, -758504.1, -747736.6, 24437.406, 0.055150166, -0.5640407, -728096.94, -113745.27, 0.0, 9.9993925, 9.999532 
2.5349134e+3, 2.4730605e+2, -715076.56, -609746.4, 13921.728, 0.06487383, -0.5255793, -607937.4, -91585.5, 0.0, 9.9987335, 10.000122 
2.5348508e+3, 2.573068e+2, -712722.56, -558472.44, 30618.348, 0.054569032, -0.44168064, -552617.0, -134271.55, 0.0, 9.998078, 10.000118 
2.5347888e+3, 2.6730683e+2, -674382.56, -420955.03, 39512.156, 0.060273558, -0.4643062, -414937.53, -94592.87, 0.0, 9.997375, 10.000728 
2.5347272e+3, 2.773068e+2, -684994.75, -380312.22, 34610.35, 0.08951895, -0.52076554, -376430.13, -154086.72, 0.0, 9.99665, 10.000685 
2.5346658e+3, 2.8730768e+2, -632578.6, -244395.83, 19927.025, 0.17594162, -0.50618106, -243375.56, -119041.69, 0.0, 9.996079, 10.001219 
2.5346038e+3, 2.9730874e+2, -616504.3, -189572.11, 21320.486, 0.23230313, -0.5041261, -188510.03, -162186.98, 0.0, 9.995534, 10.001185 
2.5345397e+3, 3.0730942e+2, -689221.0, -113499.34, 13809.993, 0.04339976, -0.57342005, -113168.266, -113168.266, 0.0, 9.994327, 10.001956 
2.5344792e+3, 3.1731337e+2, -660451.44, 116805.32, 13893.772, 0.25904402, -0.36019364, 117053.6, 117053.6, 0.0, 9.99358, 10.003903 
2.5456688e+3, 1.2739153e+2, -1111041.8, -1760052.0, -230.59848, -0.12514319, -0.60229, -1111041.6, 580464.06, 0.1920809, 10.006835, 9.996396 
2.545604e+3, 1.3738818e+2, -1060291.1, -1693546.3, 13809.407, -0.12996195, -0.5560432, -1059990.1, 533552.56, 0.1338481, 10.006047, 9.996561 
2.5455406e+3, 1.4738536e+2, -961955.7, -1477272.3, 39480.16, -0.10163493, -0.54298913, -958948.5, 536622.8, 0.07679042, 10.005201, 9.997783 
2.5454777e+3, 1.5738289e+2, -965706.06, -1456879.9, 36162.434, -0.036804687, -0.545948, -963057.94, 434536.97, 0.03308284, 10.004366, 9.997646 
2.5454143e+3, 1.6738068e+2, -902394.4, -1359752.5, 39581.28, -0.012561977, -0.5162121, -898994.1, 400623.88, 0.009201858, 10.003961, 9.997835 
2.5453508e+3, 1.7737874e+2, -833853.4, -1275224.6, 55591.19, -0.012173969, -0.47397575, -826959.3, 374679.94, 0.0011600566, 10.003725, 9.997857 
2.545288e+3, 1.873766e+2, -798292.3, -1130642.8, 90374.57, -0.016204055, -0.4880536, -775306.8, 328353.75, 0.000017841303, 10.002964, 9.998542 
2.5452253e+3, 1.9737454e+2, -844632.2, -1108009.9, 84312.39, -0.019008342, -0.527178, -819954.4, 185726.08, 0.0, 10.001997, 9.998492 
2.5451624e+3, 2.0737341e+2, -806224.0, -986996.75, 67158.68, -0.010127963, -0.49106348, -784004.94, 123687.31, 0.0, 10.001366, 9.998954 
2.5450996e+3, 2.1737279e+2, -781046.4, -926275.94, 65752.48, 0.003352306, -0.4273359, -755700.44, 53998.75, 0.0, 10.000874, 9.998936 
2.545037e+3, 2.2737125e+2, -741480.2, -793969.3, 77344.0, 0.024494871, -0.48329055, -686049.4, 25663.92, 0.0, 10.000204, 9.999493 
2.544975e+3, 2.373695e+2, -754038.06, -751369.94, 77252.914, 0.051837415, -0.5872222, -675439.56, -61711.11, 0.0, 9.999453, 9.999475 
2.5449118e+3, 2.4736953e+2, -703069.94, -610950.4, 51962.387, 0.05552309, -0.5399978, -587572.44, -71843.79, 0.0, 9.99885, 10.000056 
2.544849e+3, 2.573704e+2, -685067.7, -548772.75, 36287.684, 0.045009486, -0.43671578, -539713.5, -121992.16, 0.0, 9.998288, 10.000081 
2.544786e+3, 2.673702e+2, -646710.0, -404323.72, 37623.47, 0.054057635, -0.4808027, -398618.06, -78896.02, 0.0, 9.997555, 10.000752 
2.5447237e+3, 2.773698e+2, -673344.4, -376447.13, 43793.316, 0.09222403, -0.5762885, -370122.22, -148398.58, 0.0, 9.996742, 10.000664 
2.5446618e+3, 2.873709e+2, -640575.75, -265880.72, 30987.895, 0.19237086, -0.53095174, -263335.25, -139622.5, 0.0, 9.996103, 10.001058 
2.5445995e+3, 2.9737237e+2, -619438.4, -197879.42, 16153.307, 0.2542635, -0.4692756, -197261.38, -171562.64, 0.0, 9.995544, 10.001123 
2.544534e+3, 3.0737227e+2, -581180.94, -37668.09, -2877.665, 0.04546633, -0.62790114, -37652.855, -37652.855, 0.0, 9.99497, 10.002164 
2.544472e+3, 3.173744e+2, -634197.4, 68914.85, 81336.24, 0.18023467, -0.6128266, 78201.2, 78201.2, 0.0, 9.994035, 10.003347 
2.5556755e+3, 1.2745576e+2, -1089969.9, -1716697.9, -23220.164, -0.10037861, -0.5918292, -1089110.8, 601766.5, 0.17601879, 10.006755, 9.996731 
2.5556105e+3, 1.3745303e+2, -1045255.1, -1661211.1, -9911.919, -0.09712433, -0.517738, -1045095.7, 547811.4, 0.12201349, 10.005986, 9.996812 
2.5555456e+3, 1.4745003e+2, -962225.3, -1484451.1, 11546.574, -0.10416162, -0.52852017, -961970.2, 532966.3, 0.06936355, 10.005185, 9.997741 
2.5554815e+3, 1.574471e+2, -961813.56, -1454502.8, 12339.444, -0.08802613, -0.5760192, -961504.75, 435459.5, 0.029399827, 10.004372, 9.997662 
2.5554177e+3, 1.6744469e+2, -887900.9, -1331370.4, 33192.984, -0.048111375, -0.5783382, -885430.25, 413558.1, 0.00793073, 10.003962, 9.998031 
2.5553542e+3, 1.7744267e+2, -826123.7, -1256232.6, 41793.34, -0.0094475085, -0.56207675, -822100.3, 378908.88, 0.00093595183, 10.003709, 9.997997 
2.5552905e+3, 1.8744102e+2, -801714.4, -1135571.5, 54300.445, -0.024323279, -0.5313365, -793104.7, 309921.2, 0.00001159609, 10.002951, 9.998517 
2.5552267e+3, 1.9743967e+2, -848531.75, -1115466.9, 52780.293, -0.055102274, -0.4973344, -838474.6, 166564.77, 0.0, 10.00199, 9.9984455 
2.5551635e+3, 2.0743798e+2, -814638.2, -1005837.7, 49779.504, -0.01944714, -0.5070301, -802454.3, 104602.59, 0.0, 10.001368, 9.998825 
2.5551006e+3, 2.1743633e+2, -786228.9, -937336.7, 46702.406, 0.03878716, -0.5353492, -772959.9, 36114.35, 0.0, 10.000872, 9.998862 
2.5550374e+3, 2.2743548e+2, -735048.1, -781402.4, 49938.926, 0.03930941, -0.52345014, -703170.06, 7911.727, 0.0, 10.000204, 9.99958 
2.5549737e+3, 2.3743506e+2, -756336.4, -758765.1, 50623.42, 0.019473292, -0.50063545, -706912.75, -93828.35, 0.0, 9.99946, 9.999422 
2.5549105e+3, 2.4743426e+2, -737603.3, -684724.1, 30189.494, 0.045500364, -0.50332075, -671033.2, -155940.02, 0.0, 9.998855, 9.999549 
2.5548473e+3, 2.5743353e+2, -708485.44, -600113.7, 11778.622, 0.08473846, -0.5145384, -598848.3, -181746.17, 0.0, 9.998296, 9.999727 
2.5547838e+3, 2.674334e+2, -635734.5, -382716.5, 4740.2666, 0.079497606, -0.54539514, -382627.72, -63526.242, 0.0, 9.997557, 10.000902 
2.55472e+3, 2.7743363e+2, -668979.7, -369404.34, 13460.2, 0.07179449, -0.5931045, -368800.78, -147704.55, 0.0, 9.996747, 10.000712 
2.5546572e+3, 2.8743455e+2, -662530.94, -312423.56, 8024.676, 0.16320921, -0.5470896, -312239.72, -189152.42, 0.0, 9.996103, 10.000741 
2.5545946e+3, 2.9743615e+2, -627931.6, -215969.52, -4463.843, 0.2377973, -0.44290656, -215921.14, -190848.5, 0.0, 9.995543, 10.001002 
2.5545287e+3, 3.0743518e+2, -562580.6, -6445.197, -30399.195, 0.041306823, -0.7016067, -4788.4663, -4788.4663, 0.0, 9.994998, 10.002367 
2.554466e+3, 3.174377e+2, -753797.6, -181596.6, 64270.26, 0.20238724, -0.63372046, -174466.53, -174466.53, 0.0, 9.994051, 10.001616 
2.5656816e+3, 1.2752107e+2, -1131755.0, -1699151.9, 283.0618, -0.11385126, -0.5558633, -1131754.9, 558483.25, 0.16030572, 10.0061035, 9.997169 
2.565616e+3, 1.3751815e+2, -1083591.8, -1650318.1, 21619.072, -0.073022924, -0.5395824, -1082768.3, 509499.1, 0.110488154, 10.005482, 9.99713 
2.5655508e+3, 1.4751515e+2, -987328.25, -1505769.3, 47709.594, -0.08032142, -0.5580506, -982974.3, 511322.1, 0.062190074, 10.005005, 9.997676 
2.5654858e+3, 1.5751226e+2, -931229.56, -1444252.1, 48317.68, -0.08128848, -0.59302175, -926718.56, 469605.47, 0.025895134, 10.004597, 9.997623 
2.5654215e+3, 1.6750991e+2, -879924.7, -1323795.4, 65604.734, -0.055433016, -0.5886879, -870431.25, 427916.16, 0.006755887, 10.003999, 9.998064 
2.5653574e+3, 1.7750795e+2, -880016.44, -1279158.4, 59337.848, -0.026796086, -0.5700793, -871381.9, 328985.7, 0.0007417847, 10.003327, 9.998022 
2.565293e+3, 1.8750615e+2, -862194.94, -1167091.6, 56321.09, -0.030412454, -0.5542216, -852123.9, 250261.61, 0.000007363407, 10.002549, 9.998492 
2.5652286e+3, 1.9750458e+2, -884502.56, -1134266.4, 59084.84, -0.04293434, -0.5384773, -871230.5, 133170.33, 0.0, 10.001753, 9.99843 
2.565165e+3, 2.0750292e+2, -821061.8, -1008232.5, 76563.555, -0.015560811, -0.5438743, -793733.2, 112684.94, 0.0, 10.001325, 9.998827 
2.5651014e+3, 2.1750137e+2, -763996.5, -928002.44, 77559.58, 0.026190901, -0.56060183, -733127.94, 75306.63, 0.0, 10.001034, 9.998847 
2.5650373e+3, 2.2750057e+2, -702535.44, -773845.44, 65523.617, 0.031867918, -0.53758055, -663594.0, 46848.04, 0.0, 10.000466, 9.999505 
2.5649732e+3, 2.3750022e+2, -713173.5, -743595.7, 57064.64, 0.026304413, -0.50122195, -669327.4, -56882.85, 0.0, 9.999786, 9.999367 
2.5649095e+3, 2.4749929e+2, -696630.25, -667029.3, 63659.8, 0.05293633, -0.51371706, -616472.1, -102017.695, 0.0, 9.99915, 9.999525 
2.5648454e+3, 2.574983e+2, -682053.3, -595897.5, 78214.35, 0.088753484, -0.54486513, -549682.7, -133217.36, 0.0, 9.998519, 9.999646 
2.5647813e+3, 2.6749808e+2, -602909.0, -395221.84, 55232.18, 0.08633355, -0.56619173, -381447.06, -62980.91, 0.0, 9.997909, 10.000645 
2.564717e+3, 2.7749822e+2, -604184.3, -358235.3, 33063.883, 0.083789475, -0.5937082, -353867.94, -133405.78, 0.0, 9.997282, 10.000529 
2.5646535e+3, 2.8749892e+2, -602671.25, -278319.53, 38091.676, 0.1421086, -0.5624612, -273906.13, -151451.14, 0.0, 9.996497, 10.000782 
2.5645894e+3, 2.975004e+2, -620358.9, -217221.48, 52442.203, 0.17864682, -0.47515616, -210511.22, -186069.92, 0.0, 9.995624, 10.000951 
2.564524e+3, 3.074996e+2, -576475.75, -57323.043, 3784.9668, 0.092677064, -0.6928778, -57295.45, -57295.45, 0.0, 9.995097, 10.001968 
2.5644606e+3, 3.1750432e+2, -628191.25, -132064.67, 55929.43, 0.23906009, -0.36338162, -125837.78, -125837.78, 0.0, 9.994962, 10.001517 
2.575687e+3, 1.275872e+2, -1102294.1, -1635632.5, -19053.375, -0.16026485, -0.50472593, -1101614.3, 587976.3, 0.14512387, 10.0060005, 9.997713 
2.5756216e+3, 1.3758363e+2, -1057487.8, -1600002.3, 2311.2305, -0.059260897, -0.60621494, -1057477.9, 534145.5, 0.0993933, 10.005461, 9.997486 
2.575556e+3, 1.4758074e+2, -990030.3, -1521016.1, 32856.816, -0.037623174, -0.6183254, -988004.94, 505646.22, 0.05533842, 10.005005, 9.997573 
2.5754908e+3, 1.5757832e+2, -938924.0, -1460964.6, 31088.627, -0.027800046, -0.59758556, -937079.1, 458596.16, 0.022598999, 10.00458, 9.997519 
2.5754255e+3, 1.6757624e+2, -889872.4, -1342766.9, 41231.707, -0.04041397, -0.55560595, -886149.25, 411547.53, 0.0056848493, 10.0039835, 9.997943 
2.5753602e+3, 1.7757441e+2, -887762.94, -1293394.8, 33756.375, -0.06472638, -0.5103311, -884972.94, 314742.94, 0.00057661225, 10.003316, 9.9979315 
2.5752953e+3, 1.875719e+2, -863731.2, -1172516.6, 26811.479, -0.03500299, -0.5607763, -861420.44, 240319.72, 0.000004588243, 10.002555, 9.998454 
2.5752306e+3, 1.9756931e+2, -882635.2, -1134584.4, 35156.684, 0.01325935, -0.64312726, -877821.44, 125943.055, 0.0, 10.001768, 9.998423 
2.575166e+3, 2.0756824e+2, -812376.3, -993046.9, 66820.95, -0.001031885, -0.5964508, -790348.4, 115427.58, 0.0, 10.001334, 9.998929 
2.5751016e+3, 2.1756785e+2, -763122.4, -926453.7, 64153.984, -0.037168697, -0.507625, -740937.1, 66844.32, 0.0, 10.001032, 9.99886 
2.5750375e+3, 2.2756644e+2, -719686.7, -810738.2, 40734.797, 0.003057378, -0.5294996, -704123.0, 5672.063, 0.0, 10.000468, 9.999252 
2.574973e+3, 2.3756486e+2, -717660.94, -754304.5, 31731.201, 0.07200816, -0.5918156, -699341.8, -87532.03, 0.0, 9.999789, 9.999294 
2.5749084e+3, 2.4756452e+2, -663754.1, -599548.3, 39000.33, 0.07581059, -0.56991464, -581137.6, -67324.805, 0.0, 9.999151, 9.9999895 
2.5748435e+3, 2.5756478e+2, -667791.3, -569261.25, 54403.195, 0.049919683, -0.521698, -545131.8, -129321.27, 0.0, 9.9985285, 9.999826 
2.5747788e+3, 2.6756418e+2, -651533.7, -499382.47, 31323.582, 0.07512351, -0.54100543, -493186.2, -175369.95, 0.0, 9.997917, 9.9999275 
2.5747144e+3, 2.775635e+2, -632275.06, -420999.38, 7073.3374, 0.13260779, -0.58366144, -420762.84, -200940.03, 0.0, 9.997297, 10.0000925 
2.5746495e+3, 2.875641e+2, -572251.56, -218080.58, 3134.8086, 0.1228587, -0.5757021, -218052.83, -96236.51, 0.0, 9.996507, 10.001193 
2.5745836e+3, 2.9756525e+2, -620198.7, -219490.16, 21471.127, 0.053305443, -0.5573377, -218342.95, -194538.84, 0.0, 9.99563, 10.000935 
2.5745204e+3, 3.0756542e+2, -645813.2, -203412.22, -8867.585, 0.24165821, -0.6038748, -203234.55, -203234.55, 0.0, 9.995104, 10.000963 
2.574455e+3, 3.1756756e+2, -571059.7, -28719.447, -21785.725, 0.18772703, -0.46642926, -27845.725, -27845.725, 0.0, 9.99501, 10.002213 
2.5856927e+3, 1.2765309e+2, -1162028.4, -1670852.0, 15826.479, -0.1370078, -0.54854715, -1161536.5, 527406.75, 0.1306364, 10.005456, 9.997695 
2.5856268e+3, 1.376498e+2, -1057355.8, -1602606.6, 4632.6675, -0.061716843, -0.6185161, -1057316.4, 533657.3, 0.08884104, 10.005411, 9.997492 
2.5855607e+3, 1.4764707e+2, -995193.5, -1522032.3, 25755.998, -0.0395273, -0.61995745, -993937.3, 499063.2, 0.0488724, 10.004932, 9.997599 
2.585495e+3, 1.5764469e+2, -971449.0, -1470932.5, 30055.254, -0.018816017, -0.596067, -969647.0, 425377.34, 0.019538298, 10.004316, 9.997575 
2.5854293e+3, 1.6764264e+2, -922234.56, -1341684.4, 51871.195, -0.037913185, -0.5618269, -915915.1, 381129.94, 0.0047230367, 10.003688, 9.998091 
2.585363e+3, 1.7764084e+2, -918452.7, -1300157.0, 62134.453, -0.07424416, -0.52723294, -908593.06, 290470.28, 0.00043914656, 10.003073, 9.998001 
2.5852975e+3, 1.8763831e+2, -848047.6, -1181813.4, 57132.773, -0.03320925, -0.57134676, -838538.75, 262549.44, 0.0000027949502, 10.002739, 9.9983 
2.5852326e+3, 1.9763567e+2, -785442.9, -1100676.4, 54104.426, 0.0350186, -0.64316523, -776415.3, 226698.44, 0.0, 10.002494, 9.998303 
2.5851676e+3, 2.0763452e+2, -765073.2, -972935.0, 72545.15, 0.017381879, -0.5970229, -742258.56, 162867.25, 0.0, 10.001675, 9.998901 
2.585102e+3, 2.1763407e+2, -818103.06, -952164.44, 62566.95, -0.030282518, -0.51082206, -793440.06, 13691.357, 0.0, 10.000656, 9.998862 
2.5850374e+3, 2.2763257e+2, -767731.5, -828495.4, 56379.938, -0.0008947801, -0.5445471, -734068.5, -24922.77, 0.0, 10.00012, 9.999295 
2.5849727e+3, 2.3763087e+2, -719693.6, -750387.3, 66647.47, 0.0593264, -0.62157094, -666648.9, -55487.45, 0.0, 9.999758, 9.999334 
2.5849074e+3, 2.4763066e+2, -654902.75, -589279.94, 53705.44, 0.06571641, -0.59259075, -559155.94, -45992.67, 0.0, 9.999189, 10.00004 
2.5848418e+3, 2.576311e+2, -665493.56, -564422.8, 40267.777, 0.048809413, -0.52941436, -550341.5, -135182.63, 0.0, 9.998532, 9.999855 
2.5847766e+3, 2.6763046e+2, -650996.1, -506365.6, 45821.87, 0.07850231, -0.54870343, -493070.44, -175905.36, 0.0, 9.997957, 9.999858 
2.5847116e+3, 2.7762967e+2, -623447.4, -422729.78, 66250.36, 0.13800675, -0.5940211, -402834.7, -183661.58, 0.0, 9.997388, 10.000035 
2.5846455e+3, 2.876302e+2, -544752.75, -206849.88, 44631.707, 0.10538908, -0.5877457, -201054.13, -79886.875, 0.0, 9.996706, 10.001173 
2.5845787e+3, 2.976312e+2, -575188.1, -209691.03, 36607.492, 0.013716087, -0.58145374, -206060.56, -182904.13, 0.0, 9.995992, 10.000827 
2.584516e+3, 3.0763158e+2, -569044.06, -188435.52, 61567.836, 0.30157855, -0.5864147, -178724.0, -178724.0, 0.0, 9.99573, 10.000762 
2.584449e+3, 3.1763119e+2, -580688.3, -21142.467, 8198.636, 0.10135308, -0.6928565, -21022.363, -21022.363, 0.0, 9.994902, 10.002313 
2.5956985e+3, 1.2771896e+2, -1187772.8, -1735846.4, 13263.047, -0.070094906, -0.6573373, -1187451.9, 500842.84, 0.116949566, 10.005409, 9.99725 
2.5956318e+3, 1.3771664e+2, -1072146.5, -1645638.1, -2350.1763, -0.0808197, -0.58945143, -1072136.9, 518182.03, 0.07891598, 10.005396, 9.997204 
2.5955653e+3, 1.4771397e+2, -986167.3, -1506999.4, 3423.7388, -0.0776983, -0.57825655, -986144.8, 506200.6, 0.042845357, 10.004916, 9.997712 
2.595499e+3, 1.5771137e+2, -962337.4, -1446267.1, 7819.2817, -0.05002754, -0.59030014, -962211.06, 432159.97, 0.016736029, 10.004278, 9.997766 
2.5954324e+3, 1.6770917e+2, -898577.6, -1289859.0, 28544.129, -0.04732849, -0.60098517, -896506.25, 399885.56, 0.0038741892, 10.003671, 9.998457 
2.595366e+3, 1.7770728e+2, -904858.9, -1274028.5, 42220.023, -0.058767434, -0.60857296, -900091.94, 298317.38, 0.0003276441, 10.003078, 9.998179 
2.5953004e+3, 1.8770534e+2, -868433.2, -1224610.9, 48836.516, -0.027342848, -0.5822489, -861858.44, 238571.42, 0.0000016192165, 10.002738, 9.998009 
2.5952348e+3, 1.9770348e+2, -805063.75, -1137546.6, 38356.06, 0.020631308, -0.5483134, -800696.25, 201753.89, 0.0, 10.002475, 9.998062 
2.5951692e+3, 2.0770164e+2, -775899.3, -995619.56, 34356.445, 0.039780475, -0.5523031, -770652.5, 133816.25, 0.0, 10.001672, 9.998749 
2.5951034e+3, 2.1770002e+2, -819262.44, -956307.2, 32048.703, 0.044592965, -0.56998646, -812138.06, -5653.2417, 0.0, 10.00066, 9.998834 
2.5950372e+3, 2.2769895e+2, -745567.94, -783443.4, 44183.977, 0.017235264, -0.57939255, -716434.2, -7940.0527, 0.0, 10.000123, 9.999605 
2.5949714e+3, 2.3769823e+2, -710075.7, -732272.3, 50177.04, -0.017575515, -0.588654, -669784.25, -59284.297, 0.0, 9.999763, 9.999458 
2.594906e+3, 2.4769758e+2, -681872.75, -646904.1, 27695.156, 0.02269888, -0.5830918, -631636.0, -119129.375, 0.0, 9.999192, 9.999645 
2.5948405e+3, 2.576971e+2, -674109.06, -584146.44, 14958.435, 0.08564371, -0.573074, -581724.44, -167212.58, 0.0, 9.998537, 9.99972 
2.5947744e+3, 2.6769683e+2, -607542.6, -416143.5, 23321.617, 0.09326948, -0.5907877, -413342.78, -96829.27, 0.0, 9.997955, 10.00048 
2.5947082e+3, 2.776968e+2, -599785.25, -375518.16, 43327.973, 0.087946214, -0.62126875, -367438.38, -148925.75, 0.0, 9.997393, 10.000359 
2.5946417e+3, 2.8769726e+2, -579263.25, -280794.22, 16778.04, 0.09598566, -0.59945595, -279854.03, -159346.08, 0.0, 9.996712, 10.000666 
2.5945753e+3, 2.9769817e+2, -585667.0, -234437.17, 16012.492, 0.08775397, -0.55276096, -233708.67, -211209.27, 0.0, 9.996001, 10.000655 
2.594511e+3, 3.076982e+2, -516527.94, -87515.35, 57547.133, 0.21352088, -0.6375409, -79930.18, -79930.18, 0.0, 9.99576, 10.001445 
2.5944436e+3, 3.176989e+2, -572719.6, 126.00324, -86370.89, 0.11593053, -0.6840182, 12865.285, 12865.285, 0.0, 9.994883, 10.002467 
2.605704e+3, 1.2778606e+2, -1175384.6, -1732683.8, 29523.107, -0.03387659, -0.6537596, -1173825.0, 513811.66, 0.10411557, 10.00544, 9.99726 
2.6056367e+3, 1.3778378e+2, -1052046.5, -1633569.0, 30566.496, -0.114605896, -0.58274174, -1050444.3, 539216.4, 0.06967142, 10.005488, 9.997244 
2.6055694e+3, 1.4778118e+2, -1004319.4, -1506180.0, 19334.44, -0.10578217, -0.57328594, -1003575.56, 488111.03, 0.037295155, 10.0047245, 9.9978075 
2.6055026e+3, 1.577786e+2, -1036887.9, -1474102.3, 24547.803, -0.043047342, -0.5896857, -1035513.94, 358197.9, 0.014208788, 10.0037155, 9.997843 
2.605436e+3, 1.6777635e+2, -945606.44, -1309203.3, 40555.715, -0.027162883, -0.60997105, -941137.75, 354595.2, 0.0031395606, 10.003333, 9.998486 
2.605369e+3, 1.7777438e+2, -890152.25, -1262618.3, 30346.313, -0.034333557, -0.62946546, -887696.0, 310054.97, 0.00023971972, 10.003164, 9.998215 
2.6053026e+3, 1.8777257e+2, -892515.44, -1229088.8, 44973.613, -0.023711095, -0.5940704, -886609.56, 213160.66, 0.00000086705097, 10.002547, 9.998068 
2.6052365e+3, 1.9777094e+2, -897871.06, -1170886.1, 57971.395, -0.0024418228, -0.54275095, -886071.5, 115717.016, 0.0, 10.001794, 9.998159 
2.6051703e+3, 2.0776913e+2, -790803.25, -983230.56, 74647.37, 0.03290444, -0.5586647, -765241.3, 138564.95, 0.0, 10.001491, 9.998919 
2.605104e+3, 2.1776743e+2, -715706.0, -895976.75, 90353.625, 0.06857699, -0.5980717, -678216.25, 127605.84, 0.0, 10.001329, 9.998924 
2.6050377e+3, 2.2776642e+2, -685310.1, -765808.0, 84369.555, 0.03112491, -0.5970477, -632080.75, 75750.43, 0.0, 10.000588, 9.9995 
2.604971e+3, 2.377658e+2, -734172.0, -753052.0, 63798.82, -0.025844913, -0.5844666, -679118.56, -69282.06, 0.0, 9.999641, 9.999372 
2.6049048e+3, 2.4776496e+2, -701046.75, -666443.2, 53851.477, 0.015791534, -0.58780134, -627182.4, -115336.89, 0.0, 9.99911, 9.999549 
2.604839e+3, 2.5776422e+2, -652398.06, -576344.8, 59796.902, 0.089144, -0.59641635, -543507.5, -129653.695, 0.0, 9.998702, 9.999692 
2.6047722e+3, 2.677641e+2, -578381.56, -382687.25, 45230.73, 0.089193575, -0.60831326, -372738.84, -56885.14, 0.0, 9.9980755, 10.00065 
2.6047054e+3, 2.7776432e+2, -598925.7, -365266.3, 33272.707, 0.07453464, -0.62650913, -360620.7, -142771.23, 0.0, 9.99736, 10.0004425 
2.6046386e+3, 2.8776467e+2, -558620.06, -288956.06, 20190.686, 0.11195276, -0.6063925, -287452.7, -167607.0, 0.0, 9.996938, 10.000498 
2.604572e+3, 2.977654e+2, -506396.2, -199679.17, 42752.586, 0.13530922, -0.5627243, -193831.47, -171992.34, 0.0, 9.996566, 10.000619 
2.6045054e+3, 3.0776516e+2, -536650.1, -75175.29, 59228.2, 0.122157715, -0.68440187, -67694.875, -67694.875, 0.0, 9.995528, 10.00164 
2.6044393e+3, 3.1776756e+2, -535889.2, 42076.25, -95706.76, 0.18688492, -0.579942, 57512.313, 57512.313, 0.0, 9.995038, 10.002677 
2.6157096e+3, 1.2785418e+2, -1147590.0, -1676531.1, 32064.11, -0.021746935, -0.57081556, -1145653.4, 541317.4, 0.09216126, 10.005406, 9.9976635 
2.6156414e+3, 1.3785134e+2, -1042428.44, -1598647.8, 22631.367, -0.1674865, -0.59396756, -1041509.1, 547488.9, 0.06113392, 10.005382, 9.997535 
2.6155737e+3, 1.4784876e+2, -1006297.75, -1506348.9, -19078.025, -0.13015752, -0.5957283, -1005570.94, 485452.72, 0.032238893, 10.004678, 9.997832 
2.6155066e+3, 1.5784639e+2, -1036461.7, -1481408.5, -4997.8174, -0.005115792, -0.591751, -1036405.56, 356641.47, 0.011961495, 10.00374, 9.997783 
2.6154396e+3, 1.6784415e+2, -962302.7, -1349008.0, 35422.785, 0.016882604, -0.5926246, -959084.7, 335984.03, 0.002516238, 10.003349, 9.998206 
2.6153725e+3, 1.7784205e+2, -898879.1, -1277558.3, 19009.209, -0.006543688, -0.5977197, -897927.25, 299161.25, 0.00017259277, 10.003147, 9.998122 
2.6153052e+3, 1.8783998e+2, -866814.7, -1176023.6, 16940.178, -0.023599666, -0.60939234, -865889.4, 233220.02, 0.00000042407203, 10.002544, 9.998435 
2.6152378e+3, 1.9783808e+2, -869386.5, -1114479.5, 36799.04, -0.03305431, -0.6210275, -863980.56, 137148.13, 0.0, 10.0018015, 9.998544 
2.6151714e+3, 2.0783696e+2, -760264.8, -920367.06, 70294.48, -0.0022048168, -0.6098319, -733781.94, 169356.55, 0.0, 10.00149, 9.999352 
2.6151052e+3, 2.178362e+2, -705775.5, -872616.06, 77388.375, 0.038199157, -0.59476256, -675406.94, 129737.23, 0.0, 10.001315, 9.999093 
2.6150382e+3, 2.2783487e+2, -721732.94, -841608.06, 48612.566, 0.041160434, -0.59957963, -704497.4, 2660.245, 0.0, 10.000586, 9.998983 
2.6149708e+3, 2.3783351e+2, -755513.7, -798892.7, 33148.594, 0.034018, -0.61194324, -737589.25, -128417.195, 0.0, 9.999644, 9.999058 
2.614904e+3, 2.4783278e+2, -687462.25, -638522.6, 38101.07, 0.04357014, -0.60595447, -617710.4, -106530.11, 0.0, 9.999109, 9.999742 
2.614837e+3, 2.578324e+2, -646918.2, -567936.6, 40971.71, 0.05233453, -0.59572005, -550522.2, -137337.33, 0.0, 9.998712, 9.999747 
2.6147696e+3, 2.6783216e+2, -601293.0, -431533.38, 16496.994, 0.066589326, -0.6002481, -429945.1, -114758.81, 0.0, 9.998076, 10.000316 
2.6147026e+3, 2.7783215e+2, -611329.56, -391418.84, 8341.649, 0.1021287, -0.6101441, -391102.9, -173917.92, 0.0, 9.997358, 10.000266 
2.6146358e+3, 2.8783244e+2, -544093.0, -260592.97, 5927.781, 0.15113461, -0.6065556, -260469.08, -141287.84, 0.0, 9.9969425, 10.000691 
2.6145682e+3, 2.978329e+2, -497371.38, -187698.8, 18746.953, 0.13551046, -0.60656697, -186568.02, -165392.28, 0.0, 9.996591, 10.000691 
2.6145e+3, 3.0783233e+2, -562354.25, -125299.69, 7248.6587, 0.049573123, -0.7408307, -125179.5, -125179.5, 0.0, 9.99551, 10.001307 
2.6144338e+3, 3.1783542e+2, -563856.7, -24775.172, 13074.926, 0.17656828, -0.5342407, -24458.238, -24458.238, 0.0, 9.995067, 10.002209 
2.6257142e+3, 1.2792194e+2, -1124321.0, -1634142.6, 52774.117, -0.048924603, -0.5798594, -1118915.4, 567391.5, 0.08109768, 10.0053625, 9.998005 
2.6256466e+3, 1.3791953e+2, -1156071.5, -1632394.4, 39169.723, -0.13350368, -0.5922912, -1152871.9, 435456.63, 0.053303145, 10.00441, 9.997771 
2.625578e+3, 1.479169e+2, -1076156.8, -1545203.9, -2665.3928, -0.10873843, -0.60231316, -1076141.6, 414212.75, 0.027669834, 10.004189, 9.997797 
2.6255104e+3, 1.5791439e+2, -970909.1, -1451055.4, 7428.593, -0.017472189, -0.6119347, -970794.25, 421585.56, 0.009984923, 10.004202, 9.9977665 
2.6254427e+3, 1.6791221e+2, -914598.75, -1322762.8, 60585.74, 0.0028719476, -0.60323405, -905795.6, 388605.3, 0.0019964338, 10.00367, 9.998229 
2.6253754e+3, 1.7791033e+2, -919708.1, -1278074.0, 61168.156, -0.010925568, -0.59215766, -909555.2, 286864.06, 0.00012298068, 10.00297, 9.998201 
2.6253074e+3, 1.879083e+2, -865914.6, -1152204.5, 50859.992, -0.012121703, -0.6115964, -857147.75, 241291.25, 0.00000019125741, 10.002456, 9.998639 
2.6252398e+3, 1.9790645e+2, -829889.5, -1077707.3, 57775.855, -0.0058461274, -0.6389147, -817081.7, 183375.47, 0.0, 10.002001, 9.998699 
2.6251727e+3, 2.0790532e+2, -784735.7, -929136.25, 70247.52, -0.0004742262, -0.6343755, -756200.7, 146266.05, 0.0, 10.001312, 9.999376 
2.6251054e+3, 2.1790455e+2, -813206.6, -919177.75, 49063.164, 0.005910497, -0.6217107, -793979.56, 10492.813, 0.0, 10.00056, 9.999134 
2.625038e+3, 2.2790329e+2, -776349.75, -860939.44, 40280.61, 0.031350486, -0.6257481, -760237.56, -53752.234, 0.0, 10.000185, 9.999041 
2.6249707e+3, 2.3790203e+2, -712695.4, -774619.2, 66358.61, 0.06475284, -0.6341987, -670430.9, -61931.77, 0.0, 9.999927, 9.999086 
2.624903e+3, 2.4790142e+2, -646602.6, -621073.94, 72388.55, 0.05984915, -0.6131757, -560333.0, -49826.64, 0.0, 9.999402, 9.99972 
2.6248354e+3, 2.579012e+2, -640222.75, -567394.3, 59338.246, 0.0383935, -0.58688956, -534187.94, -121677.98, 0.0, 9.998773, 9.99972 
2.6247677e+3, 2.6790082e+2, -575467.5, -427361.66, 42579.96, 0.056253463, -0.5983824, -415992.75, -101480.11, 0.0, 9.998294, 10.000237 
2.6247e+3, 2.7790058e+2, -546151.75, -365536.3, 52400.805, 0.11004028, -0.6210491, -351434.6, -134921.3, 0.0, 9.997835, 10.000212 
2.6246327e+3, 2.8790075e+2, -512314.78, -244116.4, 44168.734, 0.15151131, -0.62444067, -237029.66, -118519.29, 0.0, 9.997159, 10.000698 
2.6245642e+3, 2.9790115e+2, -529604.1, -210104.48, 38286.176, 0.11409147, -0.6332103, -205580.64, -185074.95, 0.0, 9.996403, 10.000626 
2.6244953e+3, 3.0790085e+2, -508164.38, -122819.88, 19495.535, 0.0527578, -0.7259351, -121836.07, -121836.07, 0.0, 9.995993, 10.001087 
2.624428e+3, 3.1790322e+2, -565306.5, -53321.06, 56430.164, 0.10455395, -0.5687591, -47175.2, -47175.2, 0.0, 9.995185, 10.001951 
2.635719e+3, 1.2798958e+2, -1105253.9, -1597299.8, 18695.857, -0.11040264, -0.6549446, -1104544.5, 581098.56, 0.070915535, 10.005324, 9.998286 
2.6356515e+3, 1.3798836e+2, -1141793.6, -1608954.0, 13507.8125, -0.035529535, -0.5755231, -1141403.4, 446248.6, 0.046159577, 10.004413, 9.99793 
2.6355824e+3, 1.4798562e+2, -1080165.3, -1559289.1, -1685.2035, -0.054585252, -0.5955476, -1080159.4, 409519.63, 0.023567688, 10.00419, 9.997703 
2.6355135e+3, 1.5798259e+2, -974053.56, -1451720.1, 1323.9028, -0.07465845, -0.64765924, -974049.9, 417659.97, 0.008262315, 10.004166, 9.997781 
2.6354453e+3, 1.6798063e+2, -900241.25, -1287186.8, 34529.207, -0.061190985, -0.6390277, -897184.2, 396545.25, 0.0015696004, 10.00364, 9.998489 
2.6353776e+3, 1.7797914e+2, -907910.6, -1251393.4, 37538.57, -0.04352709, -0.6107657, -903856.0, 291887.75, 0.00008731026, 10.002956, 9.998393 
2.6353097e+3, 1.8797751e+2, -865244.25, -1150040.5, 34815.945, 0.009044244, -0.59977794, -861049.8, 236709.69, 0.00000008629741, 10.002448, 9.998659 
2.635242e+3, 1.9797593e+2, -837339.3, -1091296.8, 38455.684, 0.069669135, -0.59900147, -831643.9, 168130.89, 0.0, 10.001989, 9.998612 
2.635174e+3, 2.0797414e+2, -809561.1, -981716.8, 41978.055, 0.03386311, -0.6355187, -799870.75, 101920.86, 0.0, 10.001314, 9.999016 
2.6351056e+3, 2.1797246e+2, -817642.9, -930220.75, 27009.213, -0.029934434, -0.6823792, -811498.3, -7691.1294, 0.0, 10.000565, 9.999059 
2.635038e+3, 2.2797167e+2, -733655.25, -773611.0, 32210.27, 0.0011638082, -0.67470866, -715730.44, -9915.945, 0.0, 10.000188, 9.99964 
2.6349705e+3, 2.3797129e+2, -687395.4, -723542.6, 53111.996, 0.061719343, -0.6494259, -649366.06, -41548.05, 0.0, 9.999929, 9.999437 
2.6349023e+3, 2.4797085e+2, -663982.44, -658324.7, 47822.676, 0.064591035, -0.6095128, -613247.3, -103423.15, 0.0, 9.999405, 9.999464 
2.634834e+3, 2.5797048e+2, -647385.56, -584831.7, 36587.863, 0.044940904, -0.5698002, -567974.25, -156144.53, 0.0, 9.99878, 9.999598 
2.6347658e+3, 2.6797e+2, -561851.44, -400731.7, 25114.791, 0.056351878, -0.6030348, -396907.63, -83074.42, 0.0, 9.998299, 10.000421 
2.6346976e+3, 2.7796957e+2, -539784.25, -356799.72, 32096.748, 0.091435455, -0.660319, -351333.03, -135498.33, 0.0, 9.99785, 10.000266 
2.634629e+3, 2.8796965e+2, -526275.3, -274957.34, 13657.402, 0.10794405, -0.6638701, -274217.34, -156383.56, 0.0, 9.997164, 10.000486 
2.63456e+3, 2.9797006e+2, -547180.94, -244399.7, 12935.656, 0.072060004, -0.64454, -243848.06, -224018.17, 0.0, 9.996389, 10.000399 
2.6344922e+3, 3.0797082e+2, -516025.84, -145483.97, 9356.872, 0.13913476, -0.6110845, -145247.84, -145247.84, 0.0, 9.996015, 10.000923 
2.6344225e+3, 3.1797135e+2, -536539.75, 4941.754, -102680.984, 0.07550091, -0.6322244, 23759.18, 23759.18, 0.0, 9.99518, 10.00236 
2.6457235e+3, 1.2805894e+2, -1088417.1, -1605018.6, 37216.01, -0.15790293, -0.6299823, -1085749.9, 599212.3, 0.061585855, 10.005464, 9.998158 
2.6456562e+3, 1.3805684e+2, -1093262.3, -1589899.9, 16201.93, 0.006803865, -0.62691885, -1092734.3, 494245.25, 0.039677933, 10.004756, 9.997894 
2.645587e+3, 1.4805426e+2, -1069260.1, -1535164.3, 21694.664, -0.02239711, -0.6409478, -1068252.1, 420752.66, 0.019910682, 10.00418, 9.9978695 
2.645517e+3, 1.5805168e+2, -1033905.7, -1463649.6, 34548.55, -0.083137736, -0.6623252, -1031145.94, 359885.2, 0.006775691, 10.003678, 9.9979315 
2.6454484e+3, 1.6804989e+2, -968451.5, -1307868.6, 54207.125, -0.07113492, -0.6481956, -960004.44, 333044.75, 0.0012242962, 10.003122, 9.998594 
2.6453802e+3, 1.7804848e+2, -957194.75, -1262487.5, 49557.12, -0.041083056, -0.6220882, -949351.8, 245711.17, 0.00006223652, 10.002569, 9.998501 
2.645312e+3, 1.8804692e+2, -882414.75, -1145822.1, 56256.656, 0.0065615606, -0.61370844, -870902.94, 226174.92, 0.000000036839044, 10.002283, 9.998765 
2.645244e+3, 1.9804543e+2, -822948.9, -1079159.5, 61140.945, 0.058719944, -0.614961, -809106.4, 189985.86, 0.0, 10.002072, 9.998652 
2.6451752e+3, 2.0804363e+2, -793701.9, -987920.9, 67052.555, 0.032665048, -0.6424123, -772801.6, 128308.15, 0.0, 10.001488, 9.998887 
2.6451063e+3, 2.1804196e+2, -787688.1, -919306.4, 69665.36, -0.015989542, -0.6764906, -757663.5, 45462.848, 0.0, 10.00079, 9.9990225 
2.6450378e+3, 2.2804123e+2, -705704.0, -740622.25, 65759.3, 0.008482688, -0.6711838, -655125.56, 50007.004, 0.0, 10.0002985, 9.999812 
2.64497e+3, 2.3804095e+2, -688854.3, -709245.3, 55066.203, 0.05891974, -0.65367144, -643047.7, -35913.305, 0.0, 9.99986, 9.999567 
2.6449016e+3, 2.4804038e+2, -669860.6, -658758.44, 51477.47, 0.06549722, -0.632197, -612533.6, -103392.375, 0.0, 9.999357, 9.999481 
2.6448327e+3, 2.5803983e+2, -640373.0, -578050.2, 60487.33, 0.054945674, -0.61136377, -541169.4, -130021.25, 0.0, 9.998817, 9.999624 
2.6447636e+3, 2.6803952e+2, -554910.56, -392654.8, 48594.477, 0.051988054, -0.62908584, -379214.44, -66064.586, 0.0, 9.998328, 10.00046 
2.6446947e+3, 2.7803937e+2, -544203.3, -358828.66, 43320.055, 0.06673345, -0.66461855, -349204.84, -134055.73, 0.0, 9.997823, 10.000264 
2.644626e+3, 2.8803918e+2, -512068.13, -278946.13, 24615.334, 0.093467936, -0.6838198, -276375.34, -159224.52, 0.0, 9.997313, 10.000384 
2.6445565e+3, 2.9803935e+2, -496537.97, -229451.5, 33101.953, 0.08421314, -0.6817038, -225410.1, -206259.92, 0.0, 9.996783, 10.000309 
2.6444876e+3, 3.0804074e+2, -528830.3, -153215.03, 42185.746, 0.11110013, -0.57933325, -148535.4, -148535.4, 0.0, 9.995936, 10.000906 
2.644418e+3, 3.1804058e+2, -476062.97, 84327.55, -69418.195, 0.11052082, -0.6694283, 92798.66, 92798.66, 0.0, 9.995387, 10.002801 
2.6557282e+3, 1.2812968e+2, -1112602.8, -1661033.3, 12409.211, -0.20176178, -0.5320338, -1112322.1, 571945.6, 0.053068373, 10.005447, 9.997752 
2.6556608e+3, 1.3812512e+2, -1105730.9, -1617117.4, -5849.109, 0.002876582, -0.7362836, -1105664.0, 480645.13, 0.033830483, 10.004728, 9.997721 
2.6555908e+3, 1.4812292e+2, -1045224.4, -1487244.6, 4037.3994, -0.0076415627, -0.7282608, -1045187.5, 443142.88, 0.01667588, 10.004174, 9.998203 
2.6555207e+3, 1.5812159e+2, -1016991.06, -1430495.9, 15747.749, -0.05508134, -0.65826094, -1016392.2, 373951.9, 0.0055060345, 10.00368, 9.998159 
2.6554516e+3, 1.6811995e+2, -970602.4, -1314360.1, 33581.754, -0.038596064, -0.6330169, -967352.5, 325008.28, 0.00094874855, 10.003126, 9.998549 
2.6553828e+3, 1.7811832e+2, -955870.5, -1260833.6, 33319.24, -0.011324435, -0.62489295, -952272.6, 242104.44, 0.00004479405, 10.00257, 9.998513 
2.6553136e+3, 1.8811654e+2, -870259.7, -1121913.4, 49950.688, -0.01915228, -0.6521884, -860707.56, 235686.66, 0.000000014947995, 10.002285, 9.998929 
2.6552448e+3, 1.9811486e+2, -814103.75, -1059777.0, 48406.05, -0.032939617, -0.68705267, -804910.2, 193499.94, 0.0, 10.002064, 9.998792 
2.655176e+3, 2.0811377e+2, -789756.25, -978758.4, 40940.52, -0.0006663839, -0.6534229, -781269.06, 119152.51, 0.0, 10.00148, 9.998955 
2.655107e+3, 2.1811298e+2, -791457.06, -924510.6, 47518.906, 0.041940715, -0.604157, -776229.0, 26201.58, 0.0, 10.000775, 9.998996 
2.6550382e+3, 2.2811191e+2, -724167.44, -779152.0, 50554.74, 0.050985795, -0.6162936, -694113.1, 10327.243, 0.0, 10.000298, 9.999549 
2.6549694e+3, 2.3811087e+2, -693973.94, -722527.3, 37253.47, 0.051831633, -0.6489855, -668355.2, -61905.96, 0.0, 9.999867, 9.999474 
2.6549006e+3, 2.4810989e+2, -648905.06, -616443.75, 30025.518, 0.060969714, -0.6835082, -598542.8, -90084.39, 0.0, 9.999359, 9.999773 
2.6548314e+3, 2.5810912e+2, -627414.94, -553234.0, 40201.836, 0.06531401, -0.71484303, -535626.3, -125160.37, 0.0, 9.998823, 9.999793 
2.6547617e+3, 2.6810932e+2, -563742.56, -411237.88, 28894.861, 0.043080848, -0.6782223, -405946.78, -93483.57, 0.0, 9.998326, 10.000335 
2.6546922e+3, 2.781099e+2, -548335.0, -368285.84, 22892.84, 0.03179552, -0.6286494, -365420.66, -150963.89, 0.0, 9.997824, 10.0002 
2.6546234e+3, 2.8810936e+2, -510994.2, -277861.13, 4214.1006, 0.11089007, -0.68019754, -277784.97, -161323.34, 0.0, 9.9973135, 10.000393 
2.6545537e+3, 2.9810888e+2, -490925.56, -220781.61, 9228.653, 0.15296865, -0.74592274, -220466.72, -201999.8, 0.0, 9.996792, 10.000366 
2.6544818e+3, 3.081103e+2, -515881.44, -126050.77, 3185.7422, -0.057113007, -0.6575969, -126024.734, -126024.734, 0.0, 9.995931, 10.001098 
2.6544142e+3, 3.1811118e+2, -459474.44, 111786.07, 60057.74, 0.19873752, -0.6633551, 118031.77, 118031.77, 0.0, 9.995417, 10.002976 
2.665734e+3, 1.2819979e+2, -1117157.6, -1696286.8, 34240.957, -0.15174305, -0.5697129, -1115140.1, 568438.0, 0.04531946, 10.005516, 9.997471 
2.6656651e+3, 1.3819532e+2, -1116515.3, -1638327.8, 25532.947, -0.019278578, -0.73748285, -1115268.9, 470351.75, 0.02858054, 10.004697, 9.99759 
2.6655948e+3, 1.4819326e+2, -1034055.44, -1462959.0, 39135.625, -0.028931428, -0.72255087, -1030513.7, 457126.94, 0.013832197, 10.004164, 9.998374 
2.6655245e+3, 1.5819205e+2, -997711.44, -1405897.1, 39436.85, -0.050934847, -0.65556484, -993936.2, 395716.4, 0.004430012, 10.003747, 9.998294 
2.6654547e+3, 1.6819029e+2, -937301.25, -1293131.3, 56972.598, -0.028780498, -0.6483068, -928401.8, 363268.16, 0.0007303274, 10.003338, 9.99859 
2.6653853e+3, 1.7818849e+2, -901354.56, -1228527.3, 61385.617, -0.004002509, -0.6610237, -890216.3, 303471.5, 0.000032466538, 10.002923, 9.998562 
2.6653156e+3, 1.8818687e+2, -871524.44, -1115214.4, 74385.89, -0.027380615, -0.6750406, -850612.8, 245090.75, 0.0000000057994387, 10.00225, 9.99899 
2.665246e+3, 1.981855e+2, -886772.75, -1084491.4, 65752.484, -0.057533987, -0.6860337, -866903.1, 130813.84, 0.0, 10.001526, 9.998879 
2.665177e+3, 2.081845e+2, -822974.4, -980493.1, 59180.785, -0.008959984, -0.6548862, -803217.75, 96509.94, 0.0, 10.001194, 9.999079 
2.665108e+3, 2.1818373e+2, -757647.0, -899883.94, 68560.414, 0.060678218, -0.6145346, -729981.06, 71755.305, 0.0, 10.000976, 9.999065 
2.6650387e+3, 2.2818267e+2, -697582.4, -772897.4, 83435.125, 0.060525, -0.6228414, -643700.25, 60045.89, 0.0, 10.000512, 9.999487 
2.6649693e+3, 2.3818164e+2, -683426.44, -722515.3, 83565.41, 0.04375721, -0.6486615, -617150.4, -11395.232, 0.0, 9.999966, 9.999424 
2.6648995e+3, 2.4818058e+2, -638485.6, -614138.56, 59740.047, 0.057380643, -0.6858093, -565344.3, -57579.332, 0.0, 9.999446, 9.999745 
2.66483e+3, 2.5817972e+2, -616473.75, -549530.25, 47211.96, 0.0746436, -0.7242123, -525128.6, -115355.3, 0.0, 9.998908, 9.999776 
2.66476e+3, 2.681798e+2, -561074.5, -413465.84, 35704.5, 0.05048858, -0.69574875, -405283.06, -93511.42, 0.0, 9.998364, 10.000299 
2.6646897e+3, 2.7818027e+2, -550443.0, -370113.3, 36468.965, 0.03727804, -0.6516435, -363017.25, -149251.16, 0.0, 9.997817, 10.000189 
2.6646203e+3, 2.8818e+2, -491125.72, -263843.78, 21673.057, 0.1179944, -0.68437904, -261795.56, -146026.53, 0.0, 9.997435, 10.000429 
2.6645502e+3, 2.981797e+2, -457426.28, -207269.22, 22828.838, 0.15266572, -0.7302709, -205202.97, -187430.83, 0.0, 9.997036, 10.0003395 
2.6644775e+3, 3.081805e+2, -453589.0, -119427.34, -15907.984, -0.063263744, -0.6858603, -118671.74, -118671.74, 0.0, 9.996464, 10.000885 
2.6644096e+3, 3.1818125e+2, -401130.47, 100476.8, 85573.14, 0.2163162, -0.68608654, 114673.59, 114673.59, 0.0, 9.995995, 10.002616 
2.6757404e+3, 1.2826958e+2, -1130052.4, -1724030.3, 4202.6646, -0.035671923, -0.70487225, -1130022.6, 552868.2, 0.038293928, 10.005481, 9.997294 
2.675669e+3, 1.3826719e+2, -1125151.0, -1656165.4, 2435.9204, -0.06363693, -0.6482833, -1125139.8, 459776.34, 0.02388045, 10.004673, 9.997479 
2.675598e+3, 1.4826503e+2, -1032616.8, -1461659.0, 25745.326, -0.08346653, -0.6421729, -1031077.44, 455860.2, 0.011339756, 10.004155, 9.998389 
2.675528e+3, 1.5826303e+2, -996545.06, -1401890.4, 25591.277, -0.066946246, -0.65476894, -994935.75, 394020.9, 0.0035207302, 10.003734, 9.998329 
2.675458e+3, 1.6826092e+2, -932540.6, -1281571.1, 43150.92, -0.03841321, -0.6911673, -927285.0, 363691.94, 0.0005566488, 10.003327, 9.998676 
2.675388e+3, 1.7825894e+2, -899030.0, -1220997.4, 42783.332, -0.018525023, -0.7289997, -893441.9, 299553.75, 0.000023528748, 10.002909, 9.998623 
2.6753178e+3, 1.8825793e+2, -875158.2, -1121263.0, 47198.61, -0.02064018, -0.6823408, -866416.8, 228589.39, 0.000000001728097, 10.00224, 9.998955 
2.6752478e+3, 1.982573e+2, -886952.5, -1083175.0, 45272.453, -0.024141524, -0.616727, -877010.94, 120002.58, 0.0, 10.001514, 9.998895 
2.6751783e+3, 2.0825577e+2, -812554.3, -959755.44, 52416.93, 0.0035912984, -0.6491163, -795796.8, 103231.8, 0.0, 10.001196, 9.999221 
2.6751086e+3, 2.1825415e+2, -747229.8, -879123.4, 57609.977, 0.03675698, -0.707428, -725610.1, 75434.13, 0.0, 10.000976, 9.999209 
2.675039e+3, 2.282535e+2, -687651.2, -753148.3, 63205.535, 0.03702187, -0.6893844, -649214.06, 53836.082, 0.0, 10.000512, 9.999624 
2.6749688e+3, 2.3825322e+2, -685354.7, -726801.7, 63163.066, 0.031486765, -0.6509869, -639602.4, -34550.02, 0.0, 9.999964, 9.999397 
2.6748988e+3, 2.4825242e+2, -664968.06, -669262.94, 39561.445, 0.05474382, -0.6361623, -627495.8, -120434.66, 0.0, 9.999444, 9.999369 
2.6748288e+3, 2.582516e+2, -630410.4, -581720.25, 25883.344, 0.07716992, -0.6316729, -570531.8, -161461.45, 0.0, 9.9989195, 9.999551 
2.6747584e+3, 2.682509e+2, -557040.4, -405957.13, 12952.482, 0.073392496, -0.680268, -404854.75, -93779.03, 0.0, 9.9983635, 10.000352 
2.6746878e+3, 2.782504e+2, -548270.2, -365831.4, 17745.271, 0.08457633, -0.74063015, -364121.4, -151042.98, 0.0, 9.997814, 10.000221 
2.6746175e+3, 2.8825092e+2, -486303.56, -255790.9, 6966.8384, 0.11309758, -0.69715565, -255580.53, -140506.83, 0.0, 9.997439, 10.000484 
2.6745462e+3, 2.9825187e+2, -464810.84, -227819.73, 3022.5776, 0.07594132, -0.6188557, -227781.19, -210716.08, 0.0, 9.997055, 10.000192 
2.6744756e+3, 3.082514e+2, -504306.9, -228129.89, -41094.117, 0.119771406, -0.65084416, -222144.94, -222144.94, 0.0, 9.996474, 10.000134 
2.6744047e+3, 3.182503e+2, -466563.5, -47196.4, 44800.586, 0.10826233, -0.7521911, -42463.8, -42463.8, 0.0, 9.996031, 10.001591 
2.685746e+3, 1.2834089e+2, -1130273.3, -1698483.6, 8689.984, -0.015042071, -0.7389334, -1130140.4, 552050.44, 0.03193975, 10.005327, 9.997547 
2.6856732e+3, 1.3833909e+2, -1125138.9, -1639851.1, 35177.207, -0.07920139, -0.64652526, -1122745.8, 461464.25, 0.01967814, 10.004584, 9.997635 
2.6856017e+3, 1.483368e+2, -1053849.3, -1479067.8, 69930.07, -0.08931396, -0.6513992, -1042644.0, 443588.7, 0.009156839, 10.004035, 9.998324 
2.6855314e+3, 1.5833451e+2, -1024213.75, -1417784.4, 64499.883, -0.050431054, -0.6872523, -1013912.9, 374341.97, 0.002752302, 10.003554, 9.998304 
2.6854607e+3, 1.6833259e+2, -974956.3, -1296736.4, 79120.99, -0.035433125, -0.70335937, -956554.0, 333719.3, 0.0004175568, 10.0030155, 9.99872 
2.68539e+3, 1.7833096e+2, -959998.0, -1247576.8, 74783.88, -0.035989296, -0.7109892, -941713.25, 250575.83, 0.000016829097, 10.002481, 9.998644 
2.6853198e+3, 1.8832976e+2, -902828.4, -1140223.9, 73619.75, -0.02139706, -0.6798193, -881851.44, 212450.16, 0.0000000002885943, 10.002078, 9.9989 
2.6852494e+3, 1.983288e+2, -858173.06, -1068551.3, 71179.69, 0.0007702355, -0.6405747, -836353.1, 159958.97, 0.0, 10.001713, 9.998898 
2.685179e+3, 2.0832741e+2, -798418.44, -939195.6, 82590.81, 0.014271246, -0.6659526, -760290.7, 138034.92, 0.0, 10.001238, 9.99934 
2.685109e+3, 2.1832605e+2, -777180.25, -883491.7, 84563.27, 0.024689032, -0.70966786, -730453.7, 69884.87, 0.0, 10.000732, 9.999294 
2.6850387e+3, 2.2832535e+2, -719937.06, -769778.0, 76941.43, 0.02669148, -0.69855183, -663981.0, 38364.01, 0.0, 10.000299, 9.999611 
2.6849684e+3, 2.3832496e+2, -699068.56, -733429.4, 67887.336, 0.032450575, -0.67039883, -646221.44, -41872.79, 0.0, 9.999874, 9.9993925 
2.684898e+3, 2.483243e+2, -662880.9, -668851.75, 64407.16, 0.058392677, -0.6392341, -601390.0, -95033.73, 0.0, 9.999465, 9.999359 
2.6848277e+3, 2.583237e+2, -613403.8, -574439.4, 75895.49, 0.083369665, -0.61312956, -515565.47, -107201.516, 0.0, 9.999045, 9.999538 
2.6847565e+3, 2.6832289e+2, -518197.78, -389954.8, 62251.703, 0.08414129, -0.67163193, -364707.16, -54336.53, 0.0, 9.998647, 10.000324 
2.684686e+3, 2.783221e+2, -493823.9, -340657.66, 60381.496, 0.09949174, -0.7526117, -319716.94, -107341.28, 0.0, 9.998197, 10.000208 
2.6846144e+3, 2.8832272e+2, -477585.53, -249703.86, 44873.758, 0.10227799, -0.69571406, -241185.86, -126816.38, 0.0, 9.997496, 10.000497 
2.6845428e+3, 2.9832387e+2, -507782.97, -255123.9, 42612.168, 0.048402276, -0.59828424, -248130.72, -231771.89, 0.0, 9.996795, 10.000127 
2.6844728e+3, 3.0832285e+2, -454932.84, -227597.92, 36153.137, 0.20538132, -0.67044306, -221986.97, -221986.97, 0.0, 9.99692, 9.99992 
2.6843998e+3, 3.1832165e+2, -438158.56, -60827.246, 81641.14, 0.04888154, -0.7543764, -43920.516, -43920.516, 0.0, 9.996349, 10.001341 
2.6957503e+3, 1.2841338e+2, -1098703.9, -1620224.6, -18001.844, -0.071142636, -0.69836086, -1098083.3, 583397.1, 0.026204346, 10.005247, 9.998131 
2.695678e+3, 1.3841105e+2, -1099929.1, -1590295.8, 10134.534, -0.07196038, -0.7134587, -1099719.8, 483782.28, 0.015928298, 10.004582, 9.997976 
2.695606e+3, 1.4840865e+2, -1060854.8, -1499257.6, 50949.75, -0.05729267, -0.7316324, -1055011.4, 430514.2, 0.0072484156, 10.004046, 9.998182 
2.6955348e+3, 1.5840644e+2, -1030073.9, -1429771.8, 45269.414, -0.011626732, -0.7465796, -1025010.9, 362536.84, 0.0021037955, 10.003549, 9.998227 
2.6954636e+3, 1.6840525e+2, -974785.06, -1296144.6, 59197.52, -0.024186341, -0.6882326, -964227.1, 325333.0, 0.000305659, 10.003011, 9.998728 
2.695392e+3, 1.7840439e+2, -963352.0, -1254209.1, 57198.484, -0.057543773, -0.6181711, -952507.94, 239061.56, 0.000011617903, 10.002477, 9.998602 
2.6953214e+3, 1.8840227e+2, -910484.06, -1157029.3, 60692.945, -0.030259736, -0.67097676, -896353.0, 197237.66, 0.000000000007316074, 10.002079, 9.998786 
2.695251e+3, 1.9840002e+2, -860363.75, -1073251.5, 56255.41, 0.0140700955, -0.74999416, -846412.56, 149200.22, 0.0, 10.001711, 9.998868 
2.6951802e+3, 2.0839944e+2, -790557.6, -923446.75, 63900.203, 0.022836292, -0.70143336, -764816.94, 132801.83, 0.0, 10.001237, 9.99945 
2.6951092e+3, 2.1839938e+2, -777992.7, -882856.9, 67431.6, 0.02081165, -0.6250572, -745007.3, 54612.43, 0.0, 10.000719, 9.999307 
2.695039e+3, 2.2839816e+2, -733567.1, -797861.0, 62092.45, 0.02838613, -0.6532341, -695793.44, 5837.961, 0.0, 10.000297, 9.999419 
2.6949683e+3, 2.383968e+2, -697290.7, -732668.75, 51807.813, 0.04072609, -0.7063874, -660235.3, -56590.867, 0.0, 9.999884, 9.999394 
2.6948974e+3, 2.4839617e+2, -635851.94, -614260.2, 47699.44, 0.066344015, -0.6973174, -576150.1, -70499.29, 0.0, 9.999468, 9.999734 
2.6948264e+3, 2.583959e+2, -598952.2, -546130.4, 60629.02, 0.09016819, -0.6717118, -506409.47, -98755.19, 0.0, 9.999049, 9.999732 
2.6947552e+3, 2.6839566e+2, -527093.75, -409921.63, 46937.633, 0.08242459, -0.6689003, -393437.94, -83781.664, 0.0, 9.998651, 10.000186 
2.6946834e+3, 2.783955e+2, -496875.8, -351485.75, 39457.684, 0.0752642, -0.67373616, -341467.56, -129810.984, 0.0, 9.998213, 10.000128 
2.6946115e+3, 2.8839546e+2, -480815.06, -256644.14, 14353.499, 0.080156766, -0.67977434, -255728.83, -142072.53, 0.0, 9.997492, 10.000453 
2.6945394e+3, 2.9839554e+2, -508660.25, -252144.25, 29881.52, 0.06553347, -0.68826646, -248709.34, -233054.25, 0.0, 9.99677, 10.000161 
2.694469e+3, 3.0839482e+2, -422325.38, -169352.03, 52499.27, 0.18787448, -0.7530974, -158889.61, -158889.61, 0.0, 9.996957, 10.000303 
2.694396e+3, 3.1839585e+2, -395366.53, 31132.99, -99171.26, 0.06775128, -0.65989333, 53064.86, 53064.86, 0.0, 9.99633, 10.001985 
2.705755e+3, 1.2848634e+2, -1193355.0, -1671687.5, 19542.375, -0.071512975, -0.6845818, -1192557.9, 488206.47, 0.02105467, 10.004577, 9.998094 
2.705682e+3, 1.3848345e+2, -1097667.9, -1588847.0, 10262.692, -0.070543535, -0.7522375, -1097453.5, 485338.0, 0.012602254, 10.004582, 9.997985 
2.7056098e+3, 1.4848123e+2, -1050866.5, -1488627.6, 45638.344, -0.04897731, -0.75501114, -1046159.2, 438654.22, 0.0055908286, 10.004089, 9.998232 
2.7055383e+3, 1.5847936e+2, -1034896.94, -1424726.5, 50994.6, 0.0036534288, -0.7387475, -1028336.56, 358495.6, 0.0015605006, 10.003485, 9.99829 
2.7054664e+3, 1.6847816e+2, -974225.8, -1287474.4, 70782.71, -0.014422059, -0.6897596, -958974.1, 329870.56, 0.00021595127, 10.002981, 9.998799 
2.7053946e+3, 1.7847718e+2, -955306.75, -1244883.3, 73608.8, -0.055639893, -0.6383798, -937669.94, 253185.03, 0.0000075416983, 10.002512, 9.998647 
2.705323e+3, 1.884751e+2, -916437.56, -1160269.9, 87006.41, -0.025699047, -0.6873027, -888575.0, 204300.75, 0.0, 10.002044, 9.998779 
2.7052525e+3, 1.9847292e+2, -879625.9, -1083617.9, 89232.77, 0.024985092, -0.75774825, -846101.9, 148795.55, 0.0, 10.001587, 9.998854 
2.7051812e+3, 2.0847233e+2, -799510.7, -934522.5, 86856.81, 0.027033404, -0.70639294, -757011.4, 139892.53, 0.0, 10.001208, 9.999386 
2.7051097e+3, 2.1847221e+2, -760963.6, -874810.6, 77020.586, 0.017341346, -0.6269672, -722114.2, 76791.29, 0.0, 10.00084, 9.999301 
2.7050388e+3, 2.2847106e+2, -727705.1, -784556.5, 84147.62, 0.03150498, -0.6558777, -667311.6, 33604.79, 0.0, 10.000295, 9.99951 
2.704968e+3, 2.384697e+2, -715249.9, -730100.8, 95129.664, 0.054502297, -0.7141126, -627256.3, -24327.451, 0.0, 9.999717, 9.99949 
2.7048966e+3, 2.4846907e+2, -642431.8, -605553.0, 82059.75, 0.063212365, -0.7176886, -539886.44, -34951.066, 0.0, 9.999376, 9.999836 
2.7048248e+3, 2.5846875e+2, -593866.2, -535776.4, 74136.88, 0.067920536, -0.7057854, -485197.88, -78258.9, 0.0, 9.999054, 9.999799 
2.7047533e+3, 2.6846874e+2, -551169.1, -425466.7, 58854.152, 0.072624765, -0.678504, -402212.8, -93273.625, 0.0, 9.998507, 10.000146 
2.7046815e+3, 2.784689e+2, -541736.94, -374889.0, 57787.02, 0.085423484, -0.6506182, -356829.47, -145892.0, 0.0, 9.997918, 10.000106 
2.7046087e+3, 2.8846866e+2, -453776.38, -242074.95, 36342.06, 0.073005825, -0.67536306, -236009.98, -123071.336, 0.0, 9.997676, 10.000463 
2.704536e+3, 2.9846835e+2, -408341.25, -197724.88, 59052.133, 0.038127977, -0.7204353, -182297.94, -167357.72, 0.0, 9.997435, 10.000213 
2.7044663e+3, 3.0846748e+2, -459270.63, -172500.4, 77923.27, 0.22990625, -0.809224, -152694.45, -152694.45, 0.0, 9.996643, 10.000432 
2.7043927e+3, 3.1846952e+2, -355532.88, 95874.375, -139283.17, 0.10767724, -0.63412875, 135391.28, 135391.28, 0.0, 9.996412, 10.002387 
2.7157596e+3, 1.285597e+2, -1220060.0, -1737666.5, 20109.668, -0.03485549, -0.69007176, -1219279.9, 460763.72, 0.016487226, 10.004604, 9.9976225 
2.7156863e+3, 1.3855627e+2, -1119321.8, -1627103.0, 4847.6064, -0.0784149, -0.7677544, -1119275.5, 462802.53, 0.009690659, 10.004539, 9.997744 
2.7156135e+3, 1.485545e+2, -1041220.4, -1464551.9, 23836.82, -0.061723992, -0.73226863, -1039882.44, 444213.7, 0.004172427, 10.004062, 9.998413 
2.7155414e+3, 1.5855323e+2, -1025298.7, -1403337.0, 30808.514, -0.0011163782, -0.67602086, -1022804.44, 363304.72, 0.0011136215, 10.003474, 9.998444 
2.7154693e+3, 1.6855133e+2, -968117.8, -1273699.9, 53773.49, -0.0066639967, -0.707174, -958931.44, 329195.5, 0.00014545614, 10.0029745, 9.9988985 
2.715397e+3, 1.7854945e+2, -949368.6, -1230596.1, 56278.535, -0.03636799, -0.7553257, -938524.5, 251619.95, 0.0000045032148, 10.002501, 9.998752 
2.715325e+3, 1.8854828e+2, -910325.2, -1146995.5, 70120.42, -0.010196507, -0.72329366, -891110.06, 201046.88, 0.0, 10.002038, 9.998875 
2.7152538e+3, 1.9854736e+2, -882747.8, -1087904.1, 73450.66, 0.030987026, -0.6752195, -859162.3, 135005.1, 0.0, 10.0015745, 9.998832 
2.715182e+3, 2.0854595e+2, -818807.56, -973593.56, 74050.016, 0.025890717, -0.6858956, -789088.1, 107093.734, 0.0, 10.001202, 9.999121 
2.7151105e+3, 2.1854462e+2, -764212.0, -880858.3, 61117.465, 0.009129433, -0.70888776, -738054.75, 60140.688, 0.0, 10.000834, 9.999264 
2.715039e+3, 2.2854404e+2, -700812.4, -729690.44, 61889.14, 0.035097353, -0.70256317, -651700.25, 48499.9, 0.0, 10.000297, 9.999887 
2.7149674e+3, 2.3854372e+2, -703615.4, -705700.06, 77023.16, 0.07043632, -0.69205934, -627627.5, -25425.43, 0.0, 9.999712, 9.999661 
2.7148956e+3, 2.4854295e+2, -656947.75, -635417.4, 71362.12, 0.047811013, -0.7004835, -574013.06, -69802.96, 0.0, 9.999373, 9.999634 
2.7148232e+3, 2.5854224e+2, -597956.9, -547677.25, 57820.46, 0.008574125, -0.71029824, -509767.78, -103549.75, 0.0, 9.999066, 9.999713 
2.7147514e+3, 2.6854205e+2, -546733.2, -416532.7, 33708.23, 0.05216556, -0.7018576, -408323.4, -100103.43, 0.0, 9.998504, 10.000211 
2.7146795e+3, 2.785421e+2, -540120.5, -369169.94, 40788.707, 0.1301961, -0.6906433, -359936.5, -149717.13, 0.0, 9.997905, 10.000154 
2.7146065e+3, 2.8854224e+2, -449637.38, -235022.17, 30683.564, 0.085441306, -0.68301755, -230721.53, -118504.734, 0.0, 9.99768, 10.000511 
2.7145326e+3, 2.9854247e+2, -399025.0, -186455.22, 40836.117, -0.033979185, -0.6785417, -178880.27, -164667.36, 0.0, 9.997466, 10.000277 
2.7144635e+3, 3.085409e+2, -469997.03, -188185.11, 39465.008, 0.3187924, -0.8342587, -182762.75, -182762.75, 0.0, 9.99661, 10.000342 
2.714389e+3, 3.1854248e+2, -351071.0, 100578.16, 2990.663, 0.13470529, -0.6976028, 100597.95, 100597.95, 0.0, 9.996433, 10.002408 
2.7257645e+3, 1.2863329e+2, -1141601.9, -1708953.8, 24019.195, -0.018721873, -0.7100651, -1140586.9, 538734.56, 0.0125152785, 10.005171, 9.99755 
2.7256903e+3, 1.3863021e+2, -1196319.5, -1665110.6, 33325.406, -0.06708213, -0.74647206, -1193962.3, 387391.03, 0.0071964385, 10.003999, 9.997742 
2.725617e+3, 1.4862838e+2, -1113174.5, -1488650.9, 59015.504, -0.06396731, -0.72128654, -1104117.3, 379254.56, 0.0029898542, 10.00352, 9.998506 
2.7255446e+3, 1.5862697e+2, -1053549.0, -1406391.5, 58993.164, -0.015962347, -0.68710256, -1043947.0, 341438.84, 0.0007579454, 10.003237, 9.998535 
2.725472e+3, 1.686251e+2, -989525.56, -1274652.1, 78611.78, -0.0068442593, -0.723246, -969288.06, 318115.03, 0.00009222209, 10.002791, 9.998978 
2.725399e+3, 1.7862329e+2, -974227.75, -1238308.9, 79327.484, -0.015850032, -0.77133, -952230.8, 237188.86, 0.0000024128854, 10.002316, 9.998786 
2.725327e+3, 1.8862218e+2, -942159.06, -1169225.8, 83442.695, 0.00028535567, -0.72932005, -914793.5, 176638.39, 0.0, 10.001853, 9.998808 
2.7252552e+3, 1.9862132e+2, -907123.56, -1097336.8, 77580.2, 0.02578825, -0.66913855, -879494.9, 113947.266, 0.0, 10.001401, 9.998848 
2.725183e+3, 2.0861991e+2, -845768.1, -971202.1, 100013.36, 0.02730279, -0.6924703, -790433.9, 105022.57, 0.0, 10.000955, 9.999255 
2.725111e+3, 2.1861847e+2, -806032.3, -893039.1, 111819.56, 0.023137141, -0.7346752, -729551.7, 67918.555, 0.0, 10.000517, 9.999331 
2.725039e+3, 2.2861794e+2, -716214.1, -743419.2, 91259.875, 0.038568236, -0.72169566, -637548.6, 61926.27, 0.0, 10.000222, 9.999827 
2.724967e+3, 2.3861769e+2, -673314.6, -691598.5, 76934.17, 0.062094364, -0.69722104, -604981.1, -3504.6646, 0.0, 9.999927, 9.999653 
2.7248946e+3, 2.4861704e+2, -654105.06, -628398.6, 79798.516, 0.048343405, -0.69897485, -560424.8, -56941.242, 0.0, 9.9993725, 9.99968 
2.7248222e+3, 2.5861636e+2, -638359.94, -562493.4, 83866.336, 0.02173493, -0.70649135, -508380.5, -102889.73, 0.0, 9.9987755, 9.999748 
2.7247494e+3, 2.6861608e+2, -537625.3, -409776.75, 60427.09, 0.048509493, -0.7113518, -385736.56, -78242.94, 0.0, 9.998562, 10.000227 
2.7246773e+3, 2.7861592e+2, -471995.88, -337953.44, 64142.676, 0.111615404, -0.7194441, -312205.44, -102710.79, 0.0, 9.998383, 10.000135 
2.724604e+3, 2.886161e+2, -425011.88, -233368.64, 45756.85, 0.09546395, -0.7018828, -223004.22, -111512.13, 0.0, 9.997898, 10.000414 
2.72453e+3, 2.9861647e+2, -422068.16, -209476.55, 39650.797, -0.0022019455, -0.6747394, -202321.98, -188834.55, 0.0, 9.997368, 10.000162 
2.7244595e+3, 3.086151e+2, -399582.0, -165884.72, 22204.578, 0.26542276, -0.8016823, -163793.67, -163793.67, 0.0, 9.99715, 10.000231 
2.724385e+3, 3.1861588e+2, -308471.03, 125307.67, 41242.6, 0.11607353, -0.7347845, 129194.1, 129194.1, 0.0, 9.996715, 10.0024395 
2.7357692e+3, 1.2870719e+2, -1139518.5, -1682529.6, -22260.545, -0.023203002, -0.73763674, -1138607.5, 539989.4, 0.0091499975, 10.005065, 9.997779 
2.7356943e+3, 1.387051e+2, -1184196.9, -1642389.6, 1356.5746, -0.04306573, -0.69710964, -1184192.8, 396426.06, 0.0051237014, 10.004002, 9.997896 
2.7356204e+3, 1.4870283e+2, -1110615.6, -1488207.1, 49052.67, -0.058994938, -0.72182095, -1104347.3, 378294.03, 0.002040765, 10.003533, 9.998504 
2.735547e+3, 1.5870072e+2, -1053432.6, -1403291.5, 46042.273, -0.041765634, -0.7586163, -1047474.75, 337187.06, 0.00048778462, 10.0032215, 9.998565 
2.7354744e+3, 1.6869949e+2, -986465.44, -1267667.3, 61036.375, -0.014844593, -0.7357193, -973788.6, 312884.7, 0.000054314478, 10.002787, 9.99903 
2.7354014e+3, 1.7869852e+2, -977185.8, -1245485.0, 61448.81, 0.003537806, -0.70098233, -963781.8, 224900.42, 0.0000011019603, 10.002318, 9.998736 
2.7353287e+3, 1.8869673e+2, -958088.94, -1203298.5, 66954.34, 0.00512013, -0.71106404, -940998.3, 149703.03, 0.0, 10.001856, 9.998574 
2.735256e+3, 1.986949e+2, -904487.25, -1091750.8, 61769.492, 0.007294778, -0.7295456, -885947.8, 106773.12, 0.0, 10.001399, 9.998889 
2.7351838e+3, 2.0869416e+2, -809448.25, -897335.4, 83636.484, 0.03107203, -0.7212549, -758913.75, 135813.83, 0.0, 10.000958, 9.999762 
2.7351117e+3, 2.1869369e+2, -797376.56, -873568.5, 97579.914, 0.054583114, -0.70942456, -730719.75, 66011.04, 0.0, 10.000508, 9.999471 
2.735039e+3, 2.2869265e+2, -752409.5, -818686.9, 81899.37, 0.04020072, -0.716936, -697198.44, 1542.9426, 0.0, 10.00022, 9.999312 
2.7349663e+3, 2.3869163e+2, -685808.94, -720596.5, 61363.293, 0.02352249, -0.72561586, -639421.9, -38669.754, 0.0, 9.999938, 9.99945 
2.734894e+3, 2.4869129e+2, -631879.5, -583531.56, 54723.996, 0.066026784, -0.71081436, -547880.0, -45124.094, 0.0, 9.999375, 9.999989 
2.734821e+3, 2.5869116e+2, -627558.0, -539389.44, 67248.516, 0.10884008, -0.69187176, -503063.6, -98306.48, 0.0, 9.998769, 9.999911 
2.734748e+3, 2.6869076e+2, -542135.2, -419179.22, 56145.195, 0.06125129, -0.70707, -397399.63, -90639.41, 0.0, 9.998561, 10.000164 
2.7346742e+3, 2.786904e+2, -477248.8, -353968.47, 52303.883, 0.019297684, -0.73187846, -334768.03, -126005.03, 0.0, 9.998403, 10.000017 
2.7346018e+3, 2.8869012e+2, -443719.03, -274289.6, 21679.055, 0.100441985, -0.73378307, -271559.66, -160794.34, 0.0, 9.997903, 10.0001335 
2.7345282e+3, 2.9869005e+2, -446964.78, -258679.39, 23603.764, 0.13786289, -0.7190052, -255765.47, -242999.56, 0.0, 9.997354, 9.999833 
2.7344543e+3, 3.086899e+2, -412742.22, -198989.88, 15510.155, 0.053278185, -0.69694483, -197870.31, -197870.31, 0.0, 9.997173, 9.999993 
2.7343822e+3, 3.1868917e+2, -304914.84, 123091.55, -67131.95, 0.16260415, -0.76238066, 133374.03, 133374.03, 0.0, 9.996736, 10.002424 
2.7457732e+3, 1.2878159e+2, -1266363.0, -1699167.1, -5692.986, -0.041150182, -0.7578079, -1266288.1, 411579.56, 0.0063892105, 10.003975, 9.998194 
2.745698e+3, 1.3877998e+2, -1147599.9, -1596521.9, 26594.416, -0.034590885, -0.7065501, -1146029.9, 433853.7, 0.0034671659, 10.004129, 9.99815 
2.745624e+3, 1.4877772e+2, -1101666.1, -1489233.5, 71535.65, -0.048321247, -0.73423713, -1088883.9, 393022.06, 0.001315369, 10.003623, 9.99845 
2.74555e+3, 1.5877548e+2, -1089065.3, -1424032.1, 65695.234, -0.03411515, -0.7767066, -1076641.5, 307286.44, 0.0002939127, 10.002996, 9.998529 
2.7454767e+3, 1.6877434e+2, -1013010.8, -1285576.1, 77170.06, -0.008389532, -0.74228936, -992678.7, 293260.56, 0.000029276536, 10.002628, 9.998981 
2.7454036e+3, 1.7877346e+2, -973681.44, -1240401.3, 71637.63, 0.010221526, -0.6938908, -955658.3, 232289.33, 0.00000039166414, 10.00233, 9.998764 
2.7453303e+3, 1.8877167e+2, -934626.56, -1175593.0, 94421.28, 0.0082685165, -0.71494687, -902036.0, 187930.33, 0.0, 10.001951, 9.998716 
2.7452573e+3, 1.9876981e+2, -879598.94, -1073692.5, 110043.66, 0.0063457564, -0.74785864, -829922.56, 162063.06, 0.0, 10.001549, 9.9989395 
2.7451846e+3, 2.0876907e+2, -796915.0, -904506.0, 100133.336, 0.029154805, -0.7303699, -737041.5, 156951.02, 0.0, 10.001105, 9.9996395 
2.7451122e+3, 2.1876863e+2, -778051.6, -868164.1, 75681.98, 0.055941407, -0.70565414, -735029.3, 60966.746, 0.0, 10.000661, 9.999433 
2.7450392e+3, 2.2876757e+2, -747160.8, -809741.5, 87813.87, 0.043356676, -0.7173157, -685229.0, 12777.581, 0.0, 10.000233, 9.999366 
2.744966e+3, 2.3876652e+2, -701115.94, -722697.6, 103464.38, 0.02844359, -0.73424196, -607881.25, -7863.7485, 0.0, 9.999814, 9.999493 
2.744893e+3, 2.4876617e+2, -616585.56, -573012.3, 82582.44, 0.06741244, -0.7219734, -509391.0, -7369.8433, 0.0, 9.999471, 10.000012 
2.74482e+3, 2.5876606e+2, -577790.94, -516407.2, 79087.39, 0.10906462, -0.7055735, -462265.06, -58242.645, 0.0, 9.999119, 9.9999 
2.7447462e+3, 2.6876566e+2, -511852.1, -414662.3, 69081.42, 0.05494056, -0.7133971, -378795.94, -72770.58, 0.0, 9.998817, 10.000069 
2.7446723e+3, 2.7876526e+2, -466640.78, -355527.6, 58568.66, 0.0072246343, -0.7298379, -330357.34, -122329.27, 0.0, 9.998512, 9.99995 
2.7445996e+3, 2.887647e+2, -419101.16, -264176.94, 35184.543, 0.1146633, -0.75963885, -256560.67, -146527.19, 0.0, 9.998085, 10.000113 
2.7445263e+3, 2.987643e+2, -421527.97, -262523.8, 62253.973, 0.18164463, -0.7739664, -241049.97, -229012.4, 0.0, 9.997601, 9.999686 
2.7444506e+3, 3.087649e+2, -424047.34, -237672.47, 61607.313, -0.009540385, -0.644747, -219148.86, -219148.86, 0.0, 9.997242, 9.999694 
2.7443793e+3, 3.1876326e+2, -281866.34, 127065.96, -44968.3, 0.24267167, -0.78096676, 131952.52, 131952.52, 0.0, 9.99693, 10.002356 
2.7557766e+3, 1.2885644e+2, -1222820.8, -1613719.6, 3980.537, -0.07029908, -0.77506125, -1222780.3, 454354.3, 0.0042133145, 10.003993, 9.998771 
2.7557018e+3, 1.38855e+2, -1132031.0, -1554893.6, 21524.617, -0.043368664, -0.75988644, -1130938.3, 448208.28, 0.00220449, 10.004083, 9.998459 
2.7556273e+3, 1.488531e+2, -1111396.1, -1507805.9, 46787.37, -0.03631362, -0.7528727, -1105948.8, 375216.84, 0.0007913425, 10.003612, 9.998331 
2.755553e+3, 1.5885119e+2, -1093653.1, -1439068.9, 47162.29, -0.0014148543, -0.7497558, -1087329.5, 295855.84, 0.00016352219, 10.003017, 9.998417 
2.7554792e+3, 1.6884959e+2, -1022440.1, -1306533.3, 67039.77, 0.009653689, -0.7467668, -1007414.9, 277786.44, 0.000014106576, 10.002632, 9.9988365 
2.7554056e+3, 1.7884819e+2, -971041.4, -1230233.5, 59735.953, 0.0050593303, -0.74280214, -957936.6, 229278.63, 0.00000009505926, 10.002308, 9.998845 
2.755332e+3, 1.88847e+2, -903413.5, -1109825.9, 79621.21, 0.00860319, -0.7367182, -876269.94, 212956.92, 0.0, 10.0019455, 9.999171 
2.7552587e+3, 1.9884592e+2, -878558.6, -1071390.8, 93491.2, 0.016933287, -0.7291835, -840674.06, 150563.42, 0.0, 10.001546, 9.998958 
2.7551854e+3, 2.0884457e+2, -847246.2, -1009576.94, 83497.91, 0.020685887, -0.722702, -811965.4, 81286.55, 0.0, 10.001106, 9.9989195 
2.755112e+3, 2.1884334e+2, -792678.9, -898315.44, 59986.16, 0.023781238, -0.7173011, -765571.5, 29694.0, 0.0, 10.000658, 9.999228 
2.755039e+3, 2.2884275e+2, -703111.75, -720083.06, 72180.516, 0.048188377, -0.71953464, -638919.8, 58350.45, 0.0, 10.000237, 9.99998 
2.7549657e+3, 2.3884237e+2, -682919.3, -684447.9, 88741.98, 0.07392892, -0.7238058, -594938.3, 4334.26, 0.0, 9.999809, 9.99976 
2.754892e+3, 2.4884163e+2, -637601.1, -616346.25, 70146.21, 0.04910887, -0.73619294, -556027.0, -54747.137, 0.0, 9.999468, 9.999718 
2.754818e+3, 2.5884095e+2, -590346.06, -546940.94, 66243.18, 0.011108178, -0.74692327, -498935.84, -95648.87, 0.0, 9.999136, 9.999682 
2.7547446e+3, 2.6884067e+2, -520210.13, -434836.53, 56332.867, 0.028927037, -0.7289328, -406844.1, -101554.69, 0.0, 9.998826, 9.999928 
2.7546713e+3, 2.7884048e+2, -465555.88, -353969.84, 44143.813, 0.0799361, -0.7121875, -338618.38, -131328.02, 0.0, 9.998512, 9.999963 
2.7545977e+3, 2.8883973e+2, -400788.75, -225484.06, 17161.656, 0.13880908, -0.78057414, -223819.81, -114523.06, 0.0, 9.99808, 10.0003805 
2.7545226e+3, 2.988391e+2, -418530.7, -255987.14, 47071.92, 0.123311564, -0.8403336, -243339.44, -232037.56, 0.0, 9.997597, 9.999734 
2.7544487e+3, 3.0884004e+2, -449918.66, -292397.84, 48849.414, 0.09157413, -0.6543235, -278478.88, -278478.88, 0.0, 9.99724, 9.999322 
2.7543756e+3, 3.1883827e+2, -296367.25, 101917.09, 14066.477, 0.20864369, -0.7685688, 102413.27, 102413.27, 0.0, 9.9969225, 10.002179 
2.7657804e+3, 1.2893249e+2, -1193923.0, -1606266.9, 43706.902, -0.07278247, -0.7476274, -1189341.3, 487047.7, 0.002583564, 10.0042095, 9.998719 
2.7657056e+3, 1.3893041e+2, -1210090.4, -1587737.8, 26110.736, -0.03368091, -0.79414654, -1208293.6, 370113.4, 0.0012951522, 10.003523, 9.998503 
2.7656305e+3, 1.489288e+2, -1141223.6, -1504049.1, 59036.418, -0.03060671, -0.7690165, -1131859.3, 348563.66, 0.00043607276, 10.003329, 9.998491 
2.765556e+3, 1.5892735e+2, -1059282.0, -1415931.4, 71788.28, -0.00052813004, -0.7333176, -1045374.4, 337063.47, 0.000081928505, 10.003226, 9.998474 
2.7654818e+3, 1.6892555e+2, -1025832.25, -1319780.0, 92359.01, 0.006290952, -0.7451398, -999221.9, 285234.3, 0.000005757098, 10.002665, 9.998728 
2.7654076e+3, 1.7892382e+2, -1013195.56, -1253933.9, 89729.516, -0.0023461971, -0.76445735, -983431.06, 203042.55, 0.00000000965895, 10.002041, 9.998809 
2.7653334e+3, 1.8892267e+2, -919175.2, -1113619.4, 92414.74, 0.006506275, -0.75369126, -882260.7, 206223.98, 0.0, 10.001824, 9.999203 
2.76526e+3, 1.9892171e+2, -855149.1, -1054837.5, 78756.06, 0.024205476, -0.73737997, -827826.6, 162667.38, 0.0, 10.001684, 9.999003 
2.765186e+3, 2.0892045e+2, -828017.06, -996072.3, 100469.89, 0.02452683, -0.72682095, -781068.25, 111439.35, 0.0, 10.001224, 9.998954 
2.7651122e+3, 2.1891926e+2, -785268.4, -890306.2, 125265.555, 0.021181144, -0.7182942, -701957.6, 92563.06, 0.0, 10.000695, 9.999263 
2.7650392e+3, 2.289186e+2, -690833.2, -710522.5, 113841.625, 0.045442794, -0.7297262, -586411.4, 110114.54, 0.0, 10.000311, 10.000009 
2.7649656e+3, 2.3891811e+2, -662403.56, -675229.2, 92702.03, 0.075985655, -0.7458485, -575892.8, 22636.1, 0.0, 9.999957, 9.99975 
2.7648914e+3, 2.4891737e+2, -618370.2, -617777.75, 80150.805, 0.044174008, -0.75119036, -537922.6, -37386.344, 0.0, 9.999651, 9.999618 
2.764817e+3, 2.5891668e+2, -565668.25, -540738.8, 89280.836, -0.0010200974, -0.752259, -463056.8, -60513.203, 0.0, 9.999336, 9.999626 
2.7647433e+3, 2.6891625e+2, -506491.38, -429176.28, 87588.13, 0.029929604, -0.74496657, -372094.16, -67546.94, 0.0, 9.998929, 9.999916 
2.7646697e+3, 2.789159e+2, -473356.72, -361996.63, 82057.73, 0.09855355, -0.74092686, -318511.47, -111961.88, 0.0, 9.99848, 9.999922 
2.7645954e+3, 2.8891537e+2, -400282.38, -234243.34, 32349.438, 0.13691373, -0.78114086, -228163.33, -119608.98, 0.0, 9.998129, 10.000294 
2.76452e+3, 2.9891494e+2, -391845.9, -245372.77, 40117.957, 0.10007357, -0.8139713, -235104.58, -224546.56, 0.0, 9.997798, 9.999706 
2.7644464e+3, 3.0891508e+2, -397744.78, -268319.97, 65638.81, 0.13908973, -0.7103075, -240857.83, -240857.83, 0.0, 9.997608, 9.999308 
2.764372e+3, 3.189138e+2, -265493.66, 124944.734, 23789.033, 0.14524302, -0.7715723, 126388.836, 126388.836, 0.0, 9.997107, 10.002244 
2.7757844e+3, 1.2900954e+2, -1231124.8, -1682726.1, 16761.053, -0.060625575, -0.6861411, -1230503.5, 445129.7, 0.0014412771, 10.004208, 9.998192 
2.775709e+3, 1.3900618e+2, -1216613.4, -1609785.9, 10454.113, -0.01391803, -0.8139463, -1216335.6, 361329.53, 0.0006858968, 10.003557, 9.998335 
2.7756336e+3, 1.4900482e+2, -1114766.3, -1451237.9, 57351.82, -0.030528832, -0.78559035, -1105259.1, 374418.7, 0.00021367277, 10.003334, 9.998855 
2.7755588e+3, 1.5900393e+2, -1051927.1, -1391850.5, 59642.492, -0.025243929, -0.7280305, -1041766.06, 339920.16, 0.000035174562, 10.003186, 9.99866 
2.775484e+3, 1.6900215e+2, -1033271.3, -1332863.9, 67412.484, -0.017312175, -0.7365132, -1018801.44, 264902.75, 0.0000017161015, 10.002653, 9.998645 
2.775409e+3, 1.7900029e+2, -1023079.25, -1278423.5, 73132.89, -0.017188275, -0.7587887, -1003616.75, 182106.52, 0.00000000000031198744, 10.002056, 9.998634 
2.7753353e+3, 1.8899865e+2, -943311.06, -1164576.6, 89474.03, 0.0019414994, -0.76716125, -911658.2, 176081.7, 0.0, 10.001825, 9.998854 
2.7752614e+3, 1.9899726e+2, -852425.9, -1044886.1, 69365.77, 0.027581632, -0.76884973, -830031.2, 159723.02, 0.0, 10.001664, 9.999083 
2.7751872e+3, 2.089967e+2, -778034.7, -891596.8, 80570.23, 0.038957305, -0.7407928, -736247.75, 155511.52, 0.0, 10.001219, 9.999674 
2.775113e+3, 2.1899633e+2, -770834.8, -859033.5, 107448.84, 0.042653736, -0.71191436, -698787.7, 94974.734, 0.0, 10.000688, 9.999483 
2.7750388e+3, 2.2899507e+2, -729890.3, -792479.1, 100905.805, 0.03354455, -0.75083655, -655537.56, 40236.625, 0.0, 10.000313, 9.999447 
2.774965e+3, 2.3899378e+2, -681494.44, -717219.2, 79608.19, 0.027710844, -0.7969903, -617769.3, -19982.879, 0.0, 9.999966, 9.999458 
2.774891e+3, 2.4899343e+2, -610489.8, -603080.56, 68069.85, 0.05415468, -0.7627718, -538614.6, -38824.34, 0.0, 9.999656, 9.999718 
2.7748168e+3, 2.5899333e+2, -557812.94, -525217.9, 75933.164, 0.07597831, -0.71803194, -463852.97, -62060.992, 0.0, 9.999337, 9.999734 
2.7747422e+3, 2.6899242e+2, -499563.34, -413818.63, 70902.16, 0.058228675, -0.76503754, -373834.75, -70035.766, 0.0, 9.998923, 10.000025 
2.7746674e+3, 2.7899158e+2, -482850.63, -381056.3, 66877.3, 0.054760836, -0.8213742, -347911.25, -142105.31, 0.0, 9.998475, 9.999794 
2.774593e+3, 2.8899166e+2, -437881.1, -312153.38, 18400.986, 0.10231193, -0.7541041, -309515.63, -201709.45, 0.0, 9.998125, 9.9997635 
2.7745175e+3, 2.989919e+2, -395352.0, -256436.23, 28643.057, 0.102351755, -0.6782318, -250762.08, -240956.31, 0.0, 9.99781, 9.999626 
2.7744436e+3, 3.089897e+2, -363759.0, -201252.4, 60554.387, 0.13435054, -0.83457375, -181169.97, -181169.97, 0.0, 9.997622, 9.999763 
2.7743685e+3, 3.1899032e+2, -245012.94, 166473.38, -109950.99, 0.1481425, -0.746159, 194010.02, 194010.02, 0.0, 9.997088, 10.00255 
2.7857885e+3, 1.2908617e+2, -1253365.9, -1724755.5, 28795.043, -0.07057813, -0.70889586, -1251613.5, 423267.2, 0.00071000657, 10.004181, 9.99792 
2.7857128e+3, 1.3908304e+2, -1161533.1, -1593515.6, 35355.297, -0.0013708185, -0.7888421, -1158658.6, 418253.53, 0.00031643026, 10.00398, 9.998243 
2.7856368e+3, 1.4908151e+2, -1112324.9, -1434946.9, 73142.51, -0.021020332, -0.7829244, -1096517.0, 382408.94, 0.0000888194, 10.00329, 9.998984 
2.7855614e+3, 1.590804e+2, -1135174.4, -1421717.5, 65146.27, -0.022331676, -0.75874, -1121058.6, 259876.9, 0.000011727656, 10.002576, 9.998748 
2.785486e+3, 1.6907878e+2, -1068547.1, -1351237.1, 76632.805, -0.016177213, -0.75408375, -1049109.6, 233842.5, 0.00000025139548, 10.002418, 9.998632 
2.785411e+3, 1.7907709e+2, -979822.44, -1257058.3, 85884.35, -0.015281141, -0.7562245, -955372.75, 229597.11, 0.0, 10.002348, 9.998642 
2.7853367e+3, 1.8907546e+2, -943781.7, -1160288.9, 122429.88, 0.0000071721524, -0.7678952, -888609.7, 198376.89, 0.0, 10.001807, 9.99889 
2.7852625e+3, 1.99074e+2, -912889.3, -1064056.6, 126135.73, 0.020259669, -0.77703124, -841425.0, 147576.25, 0.0, 10.001216, 9.999164 
2.7851883e+3, 2.0907347e+2, -786791.5, -883824.56, 109273.766, 0.03591057, -0.7577854, -715748.0, 175257.9, 0.0, 10.001112, 9.999777 
2.7851138e+3, 2.190731e+2, -710405.25, -824600.5, 95635.51, 0.04907365, -0.7374558, -656119.4, 136889.17, 0.0, 10.001081, 9.999529 
2.785039e+3, 2.2907189e+2, -689337.2, -780411.06, 106205.555, 0.031828113, -0.7676034, -619317.94, 75702.016, 0.0, 10.000626, 9.999377 
2.7849644e+3, 2.3907062e+2, -663585.3, -712418.6, 121309.305, 0.016401032, -0.80303144, -564259.8, 32772.38, 0.0, 10.000109, 9.999421 
2.7848902e+3, 2.4907018e+2, -573153.94, -585332.4, 113692.016, 0.059735972, -0.7762439, -465388.2, 33648.58, 0.0, 9.999916, 9.999712 
2.784816e+3, 2.5906995e+2, -499307.94, -499631.16, 109392.9, 0.10411643, -0.74140584, -390076.53, 10962.808, 0.0, 9.999752, 9.999708 
2.7847412e+3, 2.690691e+2, -443767.25, -393246.16, 85518.03, 0.075695135, -0.78149533, -329335.9, -26289.553, 0.0, 9.999339, 9.999963 
2.784666e+3, 2.7906823e+2, -434283.22, -368089.16, 72577.85, 0.055607077, -0.8283335, -321418.06, -116364.7, 0.0, 9.998862, 9.999693 
2.7845907e+3, 2.8906813e+2, -394127.1, -311423.34, 47356.137, 0.082827285, -0.764626, -289905.66, -182849.75, 0.0, 9.998517, 9.9995775 
2.784515e+3, 2.9906818e+2, -346910.75, -232736.0, 79123.13, 0.07416783, -0.69009495, -192255.77, -183198.08, 0.0, 9.998144, 9.999627 
2.7844414e+3, 3.0906639e+2, -366664.22, -167343.39, 95795.836, 0.19646116, -0.8333325, -128768.36, -128768.36, 0.0, 9.997456, 10.0000725 
2.784365e+3, 3.1906736e+2, -269135.22, 145623.8, -120747.086, 0.15045516, -0.7299977, 178215.38, 178215.38, 0.0, 9.996971, 10.00246 
2.795792e+3, 1.291625e+2, -1266786.1, -1735232.6, 20887.38, -0.098825686, -0.7918493, -1265856.6, 408273.3, 0.00029730864, 10.004108, 9.997881 
2.7957162e+3, 1.3916078e+2, -1169241.8, -1600026.1, 20300.041, 0.0042564124, -0.7277002, -1168287.3, 407862.84, 0.000121214216, 10.003938, 9.9982195 
2.7956396e+3, 1.491588e+2, -1114606.8, -1441658.3, 44517.742, -0.00716185, -0.7644711, -1108655.4, 369512.66, 0.000028714292, 10.003297, 9.998937 
2.7955636e+3, 1.5915689e+2, -1131804.8, -1421704.1, 48553.176, -0.0040832595, -0.816206, -1123889.0, 256295.6, 0.0000024460635, 10.0026045, 9.998734 
2.7954885e+3, 1.6915545e+2, -1066055.5, -1348366.8, 76892.64, 0.0050666644, -0.7944333, -1046470.94, 235728.84, 0.0000000042322403, 10.002425, 9.99865 
2.7954134e+3, 1.7915417e+2, -971077.8, -1234493.3, 75762.05, 0.0036098172, -0.7591475, -950842.1, 233371.64, 0.0, 10.002328, 9.998808 
2.795338e+3, 1.89153e+2, -918752.25, -1107068.4, 98318.125, -0.0020132835, -0.75726473, -876777.3, 209448.13, 0.0, 10.0018015, 9.999259 
2.7952632e+3, 1.9915189e+2, -910267.5, -1058488.9, 111527.734, -0.003013095, -0.7637705, -850472.1, 137763.95, 0.0, 10.001214, 9.999204 
2.7951887e+3, 2.0915069e+2, -819172.75, -951919.4, 110269.95, 0.016177826, -0.77851546, -756841.44, 133406.4, 0.0, 10.001113, 9.99931 
2.7951145e+3, 2.191496e+2, -719133.4, -841204.44, 87984.94, 0.03680951, -0.7905067, -673086.3, 119172.12, 0.0, 10.001073, 9.999419 
2.7950394e+3, 2.2914907e+2, -661486.44, -722676.5, 85859.73, 0.03979495, -0.77695113, -600933.5, 93329.29, 0.0, 10.000625, 9.999775 
2.7949643e+3, 2.3914865e+2, -651039.2, -685929.94, 107253.39, 0.040961843, -0.7641018, -559821.6, 36444.56, 0.0, 10.000105, 9.999606 
2.7948898e+3, 2.4914756e+2, -582195.5, -604950.1, 109184.68, 0.05869389, -0.79642296, -483796.94, 14479.364, 0.0, 9.999918, 9.9995775 
2.7948153e+3, 2.5914654e+2, -509334.6, -524710.56, 98962.81, 0.07313395, -0.82765186, -417761.6, -17475.336, 0.0, 9.999769, 9.999529 
2.7947402e+3, 2.691462e+2, -461068.84, -431689.78, 66399.65, 0.08127785, -0.7899138, -378374.22, -76085.04, 0.0, 9.999347, 9.999697 
2.794665e+3, 2.79146e+2, -437072.5, -376472.22, 56108.48, 0.10194076, -0.7519191, -343005.13, -138713.8, 0.0, 9.998871, 9.999632 
2.7945888e+3, 2.891447e+2, -378517.13, -280496.06, 34982.324, 0.08067161, -0.8235917, -269292.0, -162987.63, 0.0, 9.998523, 9.999787 
2.7945122e+3, 2.991436e+2, -343929.56, -225194.19, 60657.113, 0.019138087, -0.8767773, -199686.63, -191371.34, 0.0, 9.9981365, 9.999683 
2.7944398e+3, 3.0914536e+2, -367736.9, -163020.4, 65186.83, 0.3254438, -0.6635691, -144025.73, -144025.73, 0.0, 9.997422, 10.000121 
2.794361e+3, 3.1914407e+2, -322192.34, 38544.01, -73320.17, 0.062098004, -0.785232, 52876.957, 52876.957, 0.0, 9.9969635, 10.001724 
2.8057957e+3, 1.2923922e+2, -1327404.6, -1728718.0, 20809.063, -0.083646424, -0.84607893, -1326328.5, 347047.72, 0.00010000997, 10.003535, 9.998203 
2.8057194e+3, 1.3923831e+2, -1277610.9, -1634551.4, 36735.273, -0.010903933, -0.72634786, -1273869.4, 301518.78, 0.00003524401, 10.003117, 9.998379 
2.8056425e+3, 1.4923626e+2, -1157627.3, -1471248.6, 59736.563, -0.0113320155, -0.7692905, -1146634.3, 330773.25, 0.000006022763, 10.003041, 9.998856 
2.8055665e+3, 1.5923412e+2, -1070009.4, -1389036.8, 61571.74, 0.012001283, -0.83896214, -1058538.5, 320888.7, 0.00000016363987, 10.0030155, 9.998761 
2.8054908e+3, 1.6923283e+2, -1032548.5, -1311450.3, 101412.55, 0.018989353, -0.8139188, -999572.44, 281868.03, 0.0, 10.002571, 9.998831 
2.8054154e+3, 1.7923181e+2, -998440.94, -1228412.3, 107918.72, 0.009628956, -0.77079785, -955730.2, 227721.31, 0.0, 10.002067, 9.998971 
2.8053397e+3, 1.8923075e+2, -925939.0, -1102930.0, 110584.86, 0.0034290117, -0.76488113, -872799.5, 212662.33, 0.0, 10.001721, 9.999325 
2.8052643e+3, 1.9922972e+2, -880495.3, -1042619.25, 110800.516, 0.006272992, -0.7691848, -824270.0, 163201.9, 0.0, 10.001408, 9.999221 
2.8051895e+3, 2.0922841e+2, -838820.56, -968127.7, 134472.39, 0.015791632, -0.7908913, -754266.5, 135218.2, 0.0, 10.001009, 9.9992485 
2.8051147e+3, 2.192272e+2, -787658.56, -877717.5, 133753.72, 0.025257666, -0.8102708, -691557.94, 99938.836, 0.0, 10.000623, 9.999383 
2.80504e+3, 2.2922671e+2, -681119.4, -732931.0, 108603.32, 0.040687565, -0.7887115, -595374.9, 98125.98, 0.0, 10.000498, 9.9997635 
2.8049645e+3, 2.392264e+2, -609003.56, -663062.0, 104827.336, 0.060054153, -0.76516217, -527776.8, 67726.69, 0.0, 10.000385, 9.999626 
2.8048897e+3, 2.4922532e+2, -568810.94, -593250.44, 113060.32, 0.06328922, -0.80232567, -467311.9, 30201.453, 0.0, 9.999991, 9.999621 
2.8048146e+3, 2.592242e+2, -545145.6, -544777.75, 114448.22, 0.060557872, -0.842128, -430513.34, -30989.742, 0.0, 9.99954, 9.999499 
2.8047392e+3, 2.6922378e+2, -475587.06, -456147.1, 89882.92, 0.074157804, -0.8033021, -375460.13, -73932.2, 0.0, 9.999324, 9.999539 
2.8046638e+3, 2.7922344e+2, -401934.97, -365281.22, 87221.5, 0.10874755, -0.76264054, -294481.97, -90950.305, 0.0, 9.999135, 9.999583 
2.8045878e+3, 2.8922203e+2, -318520.47, -240260.73, 59252.945, 0.11313829, -0.84708065, -208383.16, -102838.234, 0.0, 9.998889, 9.999886 
2.8045106e+3, 2.9922095e+2, -286504.72, -206558.4, 68049.57, 0.061992884, -0.9097719, -167610.1, -160054.55, 0.0, 9.998575, 9.999597 
2.8044367e+3, 3.0922315e+2, -319135.5, -173133.52, 41349.555, 0.27137226, -0.628608, -162236.17, -162236.17, 0.0, 9.997901, 9.99982 
2.8043577e+3, 3.192207e+2, -290362.9, 31294.658, -57560.844, 0.04325972, -0.83836734, 41284.926, 41284.926, 0.0, 9.997282, 10.001518 
2.815799e+3, 1.2931627e+2, -1287177.6, -1646173.3, 4911.4824, -0.046213318, -0.88111454, -1287110.5, 385509.03, 0.000023984428, 10.003545, 9.998762 
2.815722e+3, 1.3931577e+2, -1265344.3, -1599712.1, 27624.162, -0.04634245, -0.7722228, -1263077.5, 311548.38, 0.0000064487667, 10.0030775, 9.998636 
2.8156453e+3, 1.4931391e+2, -1172903.8, -1495768.0, 60576.254, -0.029029038, -0.79160434, -1161912.5, 314732.0, 0.00000052844416, 10.003007, 9.998707 
2.8155693e+3, 1.5931195e+2, -1069172.9, -1380505.1, 53696.54, 0.028137865, -0.8324826, -1060171.9, 318492.38, 0.0000000005064632, 10.002985, 9.998836 
2.815493e+3, 1.6931087e+2, -1010793.6, -1262383.0, 82272.94, 0.022963796, -0.81556976, -986278.2, 294396.66, 0.0, 10.002553, 9.999177 
2.8154168e+3, 1.7930998e+2, -992167.5, -1212197.4, 91857.34, -0.0036387756, -0.789317, -958860.94, 223822.47, 0.0, 10.002051, 9.999091 
2.8153414e+3, 1.8930876e+2, -941578.8, -1134679.5, 99660.07, 0.015226797, -0.788781, -899370.0, 185325.9, 0.0, 10.001716, 9.999111 
2.815266e+3, 1.9930758e+2, -880733.25, -1042463.5, 97952.19, 0.044502057, -0.7919749, -834579.44, 152128.75, 0.0, 10.001404, 9.999225 
2.8151906e+3, 2.0930666e+2, -818135.2, -925645.9, 118874.4, 0.031930365, -0.7949759, -741426.9, 147289.69, 0.0, 10.001011, 9.999539 
2.815115e+3, 2.193058e+2, -789426.4, -879054.56, 123011.51, 0.011362348, -0.7994288, -703320.1, 87404.06, 0.0, 10.000611, 9.99938 
2.8150398e+3, 2.2930476e+2, -709821.8, -793782.4, 105986.1, 0.03356844, -0.80525464, -637804.75, 54929.996, 0.0, 10.000502, 9.999345 
2.814965e+3, 2.3930383e+2, -616442.44, -681894.75, 95577.08, 0.06516252, -0.8063919, -548143.94, 46600.375, 0.0, 10.000399, 9.999492 
2.8148896e+3, 2.4930342e+2, -552870.3, -560705.2, 94680.266, 0.0731625, -0.78938884, -462026.47, 34721.22, 0.0, 9.99999, 9.999846 
2.814814e+3, 2.5930303e+2, -538403.5, -529281.8, 101158.69, 0.06650752, -0.7774149, -432581.2, -33830.55, 0.0, 9.999532, 9.999611 
2.8147382e+3, 2.693017e+2, -480168.94, -464745.34, 83708.29, 0.05133445, -0.8256661, -388394.38, -87631.37, 0.0, 9.999319, 9.999483 
2.8146625e+3, 2.7930045e+2, -403337.5, -370602.4, 79348.266, 0.06866478, -0.87273824, -305951.16, -103175.84, 0.0, 9.999144, 9.999543 
2.814587e+3, 2.8930035e+2, -320765.4, -247243.38, 48723.473, 0.1867324, -0.8249384, -222968.75, -118192.19, 0.0, 9.998896, 9.999837 
2.8145105e+3, 2.9930037e+2, -301086.16, -241790.6, 51056.684, 0.20939739, -0.7638611, -212397.9, -205621.39, 0.0, 9.998595, 9.999347 
2.8144315e+3, 3.0929923e+2, -364749.16, -273977.4, 10850.066, -0.016510338, -0.76390904, -272698.53, -272698.53, 0.0, 9.997926, 9.999116 
2.8143564e+3, 3.1929746e+2, -248208.63, 116211.016, -45442.066, 0.21990588, -0.8589362, 121792.04, 121792.04, 0.0, 9.997284, 10.002106 
2.8258026e+3, 1.293943e+2, -1290499.0, -1614619.8, 18965.146, -0.04314761, -0.8739318, -1289393.1, 382461.13, 0.0000033281458, 10.003374, 9.9990635 
2.8257245e+3, 1.3939339e+2, -1281796.9, -1587769.0, 35577.56, -0.030626636, -0.83196384, -1277714.5, 296148.3, 0.00000050691085, 10.002879, 9.998814 
2.8256476e+3, 1.4939193e+2, -1238441.1, -1527714.5, 84601.27, -0.03408579, -0.81621754, -1215515.4, 260362.98, 0.0000000023756648, 10.002563, 9.998698 
2.8255716e+3, 1.5939043e+2, -1161632.3, -1414861.9, 78996.76, 0.00013188369, -0.8099109, -1139009.8, 238884.77, 0.0, 10.002311, 9.998922 
2.825495e+3, 1.6938926e+2, -1087618.5, -1283314.0, 88814.14, 0.003066583, -0.8145264, -1053321.9, 226583.64, 0.0, 10.001955, 9.999322 
2.8254184e+3, 1.7938821e+2, -1047855.3, -1230268.8, 91535.85, -0.0072256317, -0.81839895, -1009843.3, 172072.08, 0.0, 10.001627, 9.999174 
2.8253424e+3, 1.8938705e+2, -958117.5, -1140821.6, 117581.01, 0.020546334, -0.8138904, -900571.94, 183355.19, 0.0, 10.001597, 9.999124 
2.825267e+3, 1.9938597e+2, -852808.06, -1026952.4, 124230.59, 0.054518327, -0.80736375, -788173.94, 197764.52, 0.0, 10.0015955, 9.999233 
2.8251913e+3, 2.0938508e+2, -785455.6, -913482.6, 121485.4, 0.044569336, -0.80567956, -712150.44, 175796.22, 0.0, 10.001255, 9.999503 
2.8251156e+3, 2.1938424e+2, -754265.9, -863871.75, 112202.39, 0.028029382, -0.806675, -684197.94, 105756.414, 0.0, 10.000862, 9.999363 
2.82504e+3, 2.2938311e+2, -700755.25, -791722.44, 120790.92, 0.033415396, -0.81915903, -617168.3, 74797.41, 0.0, 10.000576, 9.999323 
2.8249645e+3, 2.3938207e+2, -633822.25, -693235.4, 130227.7, 0.04990488, -0.8271424, -529955.9, 64020.55, 0.0, 10.000295, 9.999462 
2.824889e+3, 2.4938172e+2, -562308.0, -570375.06, 109772.7, 0.07565967, -0.7998735, -456494.75, 39484.77, 0.0, 9.99995, 9.999798 
2.8248134e+3, 2.593814e+2, -526501.94, -522228.3, 103021.336, 0.08987938, -0.77551323, -421321.63, -23339.736, 0.0, 9.999607, 9.999623 
2.8247374e+3, 2.6938012e+2, -458481.84, -443630.1, 96706.41, 0.063158534, -0.83100235, -354064.88, -54070.895, 0.0, 9.999425, 9.999576 
2.824661e+3, 2.793788e+2, -389232.4, -365384.16, 100975.34, 0.07108307, -0.88711715, -275631.3, -73625.11, 0.0, 9.999255, 9.999522 
2.824586e+3, 2.8937873e+2, -294327.63, -257165.36, 62848.67, 0.20746641, -0.8209109, -210208.61, -106201.3, 0.0, 9.999177, 9.999633 
2.824509e+3, 2.9937872e+2, -238411.48, -220737.8, 52704.617, 0.24091004, -0.7469224, -176134.34, -170126.38, 0.0, 9.999063, 9.999269 
2.8244284e+3, 3.093766e+2, -251525.97, -218761.19, 44163.02, -0.10459078, -0.8429867, -188039.9, -188039.9, 0.0, 9.998704, 9.99912 
2.8243548e+3, 3.1937543e+2, -158206.75, 128951.65, 15705.774, 0.32066968, -0.8694438, 129808.1, 129808.1, 0.0, 9.998043, 10.001822 
2.8358054e+3, 1.2947308e+2, -1292380.5, -1597533.3, -217.11539, -0.057799995, -0.83221936, -1292380.4, 378701.84, 0.00000016214108, 10.003288, 9.999219 
2.8357276e+3, 1.3947125e+2, -1270865.3, -1566969.8, 20365.285, 0.012922713, -0.89710855, -1269471.1, 303626.9, 0.0000000020979667, 10.002888, 9.998953 
2.8356498e+3, 1.494703e+2, -1229052.4, -1512122.1, 75661.76, -0.04053559, -0.8420684, -1210097.9, 265010.94, 0.0, 10.002578, 9.9988 
2.8355727e+3, 1.5946949e+2, -1160299.5, -1409023.8, 68150.81, -0.06830896, -0.7775693, -1142850.3, 234268.61, 0.0, 10.0022955, 9.998971 
2.835496e+3, 1.69468e+2, -1092750.1, -1292907.9, 74970.37, -0.033797443, -0.81176436, -1067783.8, 211349.55, 0.0, 10.001949, 9.99926 
2.8354198e+3, 1.794665e+2, -1042642.2, -1220468.8, 83884.41, 0.0002333115, -0.8551403, -1009317.4, 171829.95, 0.0, 10.001631, 9.99924 
2.835344e+3, 1.8946566e+2, -941272.8, -1107629.1, 118912.91, 0.017478433, -0.8396796, -879334.2, 203821.39, 0.0, 10.001604, 9.99935 
2.8352684e+3, 1.9946489e+2, -855800.75, -1030324.1, 117631.85, 0.03374433, -0.81705135, -796597.9, 188565.11, 0.0, 10.001582, 9.999218 
2.8351924e+3, 2.0946369e+2, -809962.56, -963297.3, 106144.34, 0.053501256, -0.82278264, -755692.9, 131482.11, 0.0, 10.001248, 9.999166 
2.8351167e+3, 2.194625e+2, -756614.2, -867179.06, 99735.43, 0.066725954, -0.83176696, -697864.56, 91322.25, 0.0, 10.000854, 9.999345 
2.8350404e+3, 2.2946177e+2, -676157.44, -740179.6, 111109.57, 0.03852193, -0.8293797, -592539.56, 98653.99, 0.0, 10.000572, 9.999679 
2.8349644e+3, 2.3946114e+2, -632260.4, -688231.3, 118414.8, 0.014908352, -0.8265977, -538569.0, 54630.59, 0.0, 10.000286, 9.999501 
2.8348887e+3, 2.4946015e+2, -587930.6, -623670.94, 96086.82, 0.06989182, -0.83664757, -508066.34, -12856.943, 0.0, 9.999949, 9.999433 
2.834813e+3, 2.5945926e+2, -529419.94, -532266.2, 91958.57, 0.12281973, -0.8413723, -438873.47, -41655.16, 0.0, 9.999622, 9.999548 
2.8347367e+3, 2.6945895e+2, -439356.16, -405095.6, 89510.72, 0.112564206, -0.8140498, -331090.72, -31870.188, 0.0, 9.999427, 9.999842 
2.8346607e+3, 2.794586e+2, -388426.88, -365358.9, 96338.62, 0.11645019, -0.7938373, -279866.28, -78643.19, 0.0, 9.999261, 9.999521 
2.8345844e+3, 2.894571e+2, -320816.97, -313669.75, 60399.773, 0.16059735, -0.84119445, -256737.97, -153500.08, 0.0, 9.999184, 9.999243 
2.8345072e+3, 2.9945573e+2, -226759.67, -198415.22, 43412.297, 0.13646625, -0.8789621, -166920.39, -161668.47, 0.0, 9.999068, 9.999419 
2.8344288e+3, 3.0945548e+2, -188513.89, -93529.46, 31380.645, 0.07068496, -0.8525662, -84098.44, -84098.44, 0.0, 9.998725, 9.99997 
2.8343517e+3, 3.19455e+2, -271128.22, -110182.88, -63438.03, 0.21245384, -0.8463489, -88184.9, -88184.9, 0.0, 9.998062, 10.000172 
2.845808e+3, 1.295518e+2, -1417328.5, -1670752.9, 24006.89, -0.0554601, -0.8261104, -1415074.4, 255235.84, 0.00000000032983427, 10.00248, 9.999109 
2.84573e+3, 1.3954999e+2, -1273794.9, -1561184.1, 19911.93, -0.008088983, -0.88390183, -1272421.8, 299905.0, 0.0, 10.002835, 9.999019 
2.8456518e+3, 1.4954904e+2, -1242798.6, -1493249.9, 69500.945, -0.04683893, -0.8483801, -1224804.8, 249532.08, 0.0, 10.002374, 9.999027 
2.8455746e+3, 1.5954824e+2, -1217687.1, -1425226.8, 74308.6, -0.052152503, -0.8027394, -1193824.9, 182520.95, 0.0, 10.001852, 9.999074 
2.8454977e+3, 1.6954683e+2, -1114461.9, -1307731.8, 91213.04, -0.012713594, -0.8263857, -1078212.9, 200146.5, 0.0, 10.001823, 9.999216 
2.8454214e+3, 1.7954543e+2, -1008241.4, -1200540.3, 101600.86, 0.018288199, -0.85872245, -964507.1, 215865.77, 0.0, 10.001859, 9.999262 
2.845345e+3, 1.895446e+2, -941275.75, -1102074.6, 124124.59, 0.015135931, -0.8450916, -873786.75, 208594.13, 0.0, 10.001582, 9.999398 
2.845269e+3, 1.9954385e+2, -901069.1, -1048637.0, 110474.516, 0.015086754, -0.8244796, -842004.7, 142383.4, 0.0, 10.001253, 9.999252 
2.845193e+3, 2.095426e+2, -853325.1, -982977.94, 113851.84, 0.03980405, -0.83604413, -787137.4, 99263.15, 0.0, 10.000946, 9.999176 
2.845117e+3, 2.1954139e+2, -784212.06, -878074.75, 129595.234, 0.062241003, -0.8496237, -693312.06, 95100.79, 0.0, 10.000657, 9.999363 
2.845041e+3, 2.2954074e+2, -690707.9, -746211.8, 123794.125, 0.043577135, -0.8399699, -591593.2, 98825.61, 0.0, 10.000471, 9.999684 
2.8449646e+3, 2.3954017e+2, -630353.9, -686992.25, 111066.16, 0.029309312, -0.8297118, -544053.4, 48370.543, 0.0, 10.000299, 9.999502 
2.8448886e+3, 2.4953906e+2, -556975.8, -611386.44, 106608.66, 0.07758283, -0.8506952, -474156.0, 20278.707, 0.0, 10.000175, 9.999408 
2.844813e+3, 2.5953802e+2, -478554.5, -510566.53, 122812.48, 0.12756398, -0.8672186, -370709.4, 25735.535, 0.0, 9.999989, 9.999518 
2.844736e+3, 2.6953778e+2, -407852.53, -395362.72, 102657.35, 0.122240484, -0.8288067, -298760.5, -313.78177, 0.0, 9.999667, 9.999793 
2.8446597e+3, 2.7953753e+2, -382196.25, -368206.6, 91119.72, 0.12848702, -0.7959047, -283813.63, -83364.81, 0.0, 9.999323, 9.9994755 
2.844583e+3, 2.8953585e+2, -342786.13, -330080.34, 75171.836, 0.14700212, -0.8566193, -260993.42, -158527.92, 0.0, 9.999058, 9.999191 
2.8445053e+3, 2.9953432e+2, -243764.23, -175792.94, 78469.44, 0.10543304, -0.9071664, -124265.56, -119784.91, 0.0, 9.998828, 9.999687 
2.844428e+3, 3.095348e+2, -139973.81, -676.89435, 54564.457, 0.15594721, -0.86277795, 18151.693, 18151.693, 0.0, 9.998766, 10.000587 
2.844349e+3, 3.19535e+2, -199740.36, -192276.02, -56914.418, 0.14735103, -0.81385165, -138971.53, -138971.53, 0.0, 9.999053, 9.999132 
2.85581e+3, 1.2963054e+2, -1443770.4, -1718472.5, 39816.254, -0.061473686, -0.84625703, -1438115.6, 231422.34, 0.0, 10.002456, 9.99879 
2.8557318e+3, 1.3962942e+2, -1281900.3, -1565360.3, 18703.719, -0.071887605, -0.81103367, -1280671.5, 290878.88, 0.0, 10.002782, 9.999015 
2.855654e+3, 1.4962809e+2, -1222308.1, -1448386.6, 46208.53, -0.04414511, -0.8376885, -1213228.1, 260334.42, 0.0, 10.002361, 9.999343 
2.8555772e+3, 1.5962678e+2, -1203644.6, -1399391.0, 62207.254, 0.030908512, -0.8690471, -1185548.5, 190025.77, 0.0, 10.001865, 9.999246 
2.8555e+3, 1.696258e+2, -1112527.8, -1306980.4, 93910.1, 0.04871925, -0.85580105, -1074579.9, 203003.86, 0.0, 10.001837, 9.999215 
2.855423e+3, 1.796249e+2, -1012842.5, -1208804.4, 97688.93, 0.03785667, -0.83794147, -972463.8, 207129.13, 0.0, 10.001852, 9.999209 
2.8553465e+3, 1.8962388e+2, -952345.4, -1122295.6, 111945.62, 0.013003415, -0.8331703, -896776.56, 184826.77, 0.0, 10.001567, 9.999268 
2.85527e+3, 1.9962287e+2, -898459.06, -1037591.2, 98372.0, -0.0044784164, -0.83081484, -847540.75, 136072.75, 0.0, 10.001229, 9.99934 
2.8551933e+3, 2.0962185e+2, -830961.94, -935516.6, 102728.61, 0.0043498543, -0.8458822, -767974.0, 117649.22, 0.0, 10.000941, 9.999504 
2.855117e+3, 2.1962087e+2, -784569.3, -875968.25, 120338.766, 0.01683976, -0.86098963, -701544.8, 86087.805, 0.0, 10.000644, 9.999385 
2.855041e+3, 2.2961998e+2, -715175.8, -798023.4, 117377.6, 0.04779635, -0.85022604, -632127.0, 57514.508, 0.0, 10.000474, 9.999329 
2.854965e+3, 2.3961918e+2, -629152.2, -688882.44, 105086.64, 0.08045723, -0.8358105, -549769.3, 41880.297, 0.0, 10.000317, 9.999482 
2.8548887e+3, 2.496185e+2, -531810.3, -560117.7, 101008.7, 0.0968993, -0.8403582, -443968.5, 49686.71, 0.0, 10.000177, 9.99976 
2.854812e+3, 2.5961778e+2, -477266.1, -510231.22, 113874.83, 0.10203136, -0.8518053, -378687.16, 16973.977, 0.0, 9.999997, 9.999518 
2.8547353e+3, 2.6961654e+2, -437644.47, -458547.53, 89518.89, 0.08712403, -0.8810459, -357969.03, -60295.906, 0.0, 9.999671, 9.999358 
2.8546584e+3, 2.7961534e+2, -387102.34, -379475.47, 77342.92, 0.0990039, -0.90421116, -305852.03, -106167.09, 0.0, 9.999326, 9.999398 
2.854582e+3, 2.8961492e+2, -321869.75, -282671.84, 64806.684, 0.1737521, -0.86317444, -234565.36, -132875.45, 0.0, 9.999039, 9.999526 
2.8545043e+3, 2.9961476e+2, -217699.36, -118459.78, 73892.65, 0.1540606, -0.81523657, -79072.56, -75380.35, 0.0, 9.998814, 10.000089 
2.854426e+3, 3.0961454e+2, -116129.88, 48839.945, 54843.316, 0.10378273, -0.8777775, 65408.3, 65408.3, 0.0, 9.998766, 10.00093 
2.854348e+3, 3.196152e+2, -206241.42, -214784.53, 18981.32, 0.18365368, -0.8008875, -191056.95, -191056.95, 0.0, 9.999092, 9.998959 
2.8658122e+3, 1.297094e+2, -1470718.9, -1720876.5, 40014.055, -0.044424355, -0.8543225, -1464474.3, 204290.64, 0.0, 10.002217, 9.998892 
2.8657338e+3, 1.3970862e+2, -1411996.1, -1615287.1, 38565.563, -0.07984036, -0.79408246, -1404925.9, 165848.39, 0.0, 10.001832, 9.999129 
2.8656557e+3, 1.4970723e+2, -1279656.4, -1463923.9, 55619.906, -0.04228184, -0.836475, -1264169.5, 208617.08, 0.0, 10.00192, 9.999447 
2.8655788e+3, 1.5970583e+2, -1168280.0, -1368355.8, 60917.797, 0.046409715, -0.889371, -1151191.6, 223607.11, 0.0, 10.00205, 9.999367 
2.8655016e+3, 1.6970502e+2, -1106842.8, -1291358.0, 96110.89, 0.051616203, -0.8715461, -1065875.9, 210930.55, 0.0, 10.0018215, 9.99933 
2.8654245e+3, 1.797043e+2, -1056684.9, -1223494.3, 101941.55, 0.02931737, -0.8426932, -1008376.2, 170437.28, 0.0, 10.001521, 9.99927 
2.8653473e+3, 1.8970321e+2, -1016656.7, -1153159.9, 120143.06, 0.01236454, -0.8450069, -946732.2, 134092.36, 0.0, 10.001127, 9.999267 
2.8652707e+3, 1.9970211e+2, -961207.7, -1061586.8, 118704.586, 0.002728554, -0.85207397, -882518.4, 100317.37, 0.0, 10.000774, 9.999392 
2.865194e+3, 2.0970133e+2, -850734.75, -936059.56, 112745.086, 0.011041422, -0.8526409, -772850.4, 111993.21, 0.0, 10.00077, 9.999581 
2.8651175e+3, 2.1970057e+2, -757832.0, -856336.6, 115918.77, 0.025320651, -0.85131216, -681136.06, 105714.77, 0.0, 10.000799, 9.999444 
2.8650412e+3, 2.2969958e+2, -699407.94, -788569.5, 132082.11, 0.053329024, -0.85478556, -604586.0, 84274.48, 0.0, 10.000575, 9.999344 
2.8649652e+3, 2.3969862e+2, -630872.94, -689805.7, 143065.7, 0.08570504, -0.8562028, -514270.63, 76599.1, 0.0, 10.000309, 9.999477 
2.8648886e+3, 2.4969795e+2, -537949.56, -568593.44, 116046.7, 0.09709767, -0.8546135, -436217.66, 56657.676, 0.0, 10.000162, 9.999708 
2.8648117e+3, 2.5969726e+2, -480644.94, -514518.88, 101421.086, 0.095596515, -0.858059, -394756.34, 124.82771, 0.0, 9.999984, 9.999495 
2.8647342e+3, 2.6969597e+2, -439444.72, -459579.9, 96695.73, 0.07756351, -0.89654636, -352293.9, -55399.79, 0.0, 9.999661, 9.999355 
2.8646573e+3, 2.7969468e+2, -389565.63, -374619.84, 114897.05, 0.094302155, -0.9275597, -266952.94, -68046.27, 0.0, 9.99929, 9.999444 
2.8645808e+3, 2.8969452e+2, -291067.6, -256786.48, 97579.695, 0.17049024, -0.8682709, -174853.34, -73944.23, 0.0, 9.9992075, 9.999621 
2.8645033e+3, 2.9969454e+2, -167303.77, -98039.62, 83478.99, 0.15475567, -0.80640936, -42294.027, -39384.477, 0.0, 9.999177, 10.000056 
2.864425e+3, 3.0969378e+2, -93901.33, 30959.643, 22756.955, 0.121531665, -0.903456, 34977.97, 34977.97, 0.0, 9.999045, 10.000672 
2.8643468e+3, 3.1969422e+2, -157751.17, -168684.56, 16085.421, 0.17831719, -0.83235097, -146228.89, -146228.89, 0.0, 9.999336, 9.999154 
2.8758144e+3, 1.2978838e+2, -1441712.9, -1654885.3, 21913.592, -0.005704909, -0.8494162, -1439483.5, 228506.94, 0.0, 10.002198, 9.999351 
2.8757355e+3, 1.3978769e+2, -1398869.3, -1585422.1, 32386.102, -0.055703852, -0.8209113, -1393406.9, 176590.8, 0.0, 10.0018215, 9.999339 
2.8756574e+3, 1.4978649e+2, -1286548.3, -1475434.5, 62487.605, -0.051438365, -0.8464218, -1267747.4, 204261.5, 0.0, 10.001905, 9.999375 
2.8755802e+3, 1.5978524e+2, -1169184.3, -1363530.9, 59947.85, 0.0025002754, -0.8770281, -1152180.5, 221839.6, 0.0, 10.002021, 9.999414 
2.8755027e+3, 1.6978444e+2, -1097397.8, -1267349.3, 85344.07, 0.008825777, -0.8744516, -1061938.9, 214088.42, 0.0, 10.0018, 9.999506 
2.8754252e+3, 1.797837e+2, -1048306.4, -1201946.8, 87889.2, -0.0012357256, -0.86558604, -1008396.75, 169637.31, 0.0, 10.001503, 9.999427 
2.8753483e+3, 1.8978265e+2, -1007291.2, -1134490.9, 104542.01, 0.011734773, -0.87834746, -948522.8, 131521.67, 0.0, 10.00113, 9.999393 
2.8752714e+3, 1.9978161e+2, -962118.44, -1063361.3, 111560.26, 0.030262653, -0.88931805, -890231.8, 91823.21, 0.0, 10.000773, 9.999381 
2.8751948e+3, 2.0978104e+2, -861597.7, -960450.8, 115373.91, 0.05480449, -0.85559684, -785508.8, 98552.875, 0.0, 10.000774, 9.9994135 
2.8751186e+3, 2.1978049e+2, -751780.8, -841331.0, 112326.52, 0.07361661, -0.82272977, -675634.2, 110433.54, 0.0, 10.000789, 9.999553 
2.8750414e+3, 2.2977953e+2, -672419.4, -731644.25, 121987.96, 0.059041716, -0.8556401, -576501.1, 111574.625, 0.0, 10.000572, 9.999737 
2.8749648e+3, 2.3977849e+2, -632103.6, -692571.8, 135731.53, 0.04766048, -0.8944984, -523279.63, 66804.85, 0.0, 10.000309, 9.999459 
2.8748882e+3, 2.4977744e+2, -573049.9, -643300.25, 110637.484, 0.075887606, -0.8940675, -492095.66, -0.32584223, 0.0, 10.000168, 9.999193 
2.8748116e+3, 2.597765e+2, -480715.4, -518398.66, 90880.44, 0.09627636, -0.8832927, -406744.0, -12638.654, 0.0, 9.999999, 9.999461 
2.8747338e+3, 2.6977608e+2, -406157.4, -388820.56, 81683.87, 0.09392893, -0.8689192, -315346.44, -19237.385, 0.0, 9.999654, 9.999845 
2.8746566e+3, 2.7977565e+2, -375220.3, -347284.22, 106312.89, 0.111402504, -0.85844785, -254025.7, -55913.152, 0.0, 9.999298, 9.999629 
2.8745794e+3, 2.8977463e+2, -302827.53, -285022.28, 99647.734, 0.12640302, -0.87523144, -193880.28, -93757.22, 0.0, 9.99922, 9.999423 
2.8745013e+3, 2.997735e+2, -205152.61, -178535.23, 77111.65, 0.0944273, -0.89387447, -113592.23, -111458.234, 0.0, 9.999188, 9.999497 
2.8744245e+3, 3.0977255e+2, -167821.98, -117094.055, 16227.922, 0.24300079, -0.92651993, -112346.96, -112346.96, 0.0, 9.99903, 9.99966 
2.8743452e+3, 3.197721e+2, -108522.41, -69647.31, 46576.727, 0.09618091, -0.8865346, -38614.973, -38614.973, 0.0, 9.99934, 9.999838 
2.885816e+3, 1.2986748e+2, -1473404.0, -1642172.9, 24905.867, -0.016004741, -0.85658765, -1469805.3, 197409.03, 0.0, 10.001853, 9.999608 
2.8857374e+3, 1.3986668e+2, -1417985.4, -1571531.3, 31716.063, -0.026949335, -0.86186033, -1411692.1, 157529.34, 0.0, 10.001589, 9.999545 
2.885659e+3, 1.4986582e+2, -1348352.4, -1492869.1, 76244.34, -0.038986277, -0.8678578, -1315565.6, 155664.06, 0.0, 10.001429, 9.999484 
2.8855816e+3, 1.5986493e+2, -1269418.9, -1406744.5, 79608.85, -0.007978999, -0.8732803, -1232952.5, 140285.64, 0.0, 10.00131, 9.999461 
2.8855038e+3, 1.6986404e+2, -1172564.4, -1306409.1, 92583.67, -0.002528115, -0.8760083, -1125248.6, 149997.8, 0.0, 10.001296, 9.99948 
2.8854263e+3, 1.7986318e+2, -1075256.1, -1204888.6, 82054.69, -0.0103913015, -0.8793854, -1035506.06, 141748.56, 0.0, 10.001276, 9.999514 
2.885349e+3, 1.8986231e+2, -996458.2, -1106923.6, 95929.02, 0.009800807, -0.8918155, -940997.5, 138265.4, 0.0, 10.00111, 9.999591 
2.8852722e+3, 1.9986148e+2, -930942.7, -1037018.56, 113339.07, 0.040284943, -0.8989148, -858845.6, 122425.27, 0.0, 10.000937, 9.999484 
2.8851956e+3, 2.0986088e+2, -851579.06, -954849.3, 133669.58, 0.06526378, -0.8706645, -759918.2, 123359.61, 0.0, 10.000841, 9.99942 
2.885119e+3, 2.198603e+2, -757612.9, -840833.3, 134570.8, 0.08174779, -0.8417026, -658366.06, 126918.28, 0.0, 10.000735, 9.999581 
2.8850418e+3, 2.2985949e+2, -684667.94, -731563.75, 116423.586, 0.06005427, -0.8644098, -589354.5, 97936.82, 0.0, 10.0004635, 9.999789 
2.8849646e+3, 2.398586e+2, -645829.8, -689848.8, 116220.0, 0.04350711, -0.893529, -549553.6, 39745.254, 0.0, 10.0001745, 9.999542 
2.884888e+3, 2.4985756e+2, -588739.3, -640938.44, 129088.055, 0.07285353, -0.9018489, -483138.78, 8170.894, 0.0, 10.00002, 9.999279 
2.8848112e+3, 2.5985664e+2, -490339.13, -512113.88, 145677.28, 0.10016592, -0.8976662, -355142.94, 38176.613, 0.0, 9.999894, 9.99955 
2.8847334e+3, 2.6985642e+2, -379446.94, -370585.1, 107652.97, 0.091412395, -0.8653133, -267271.9, 28049.129, 0.0, 9.99982, 9.999886 
2.8846556e+3, 2.7985618e+2, -337292.66, -325073.47, 100058.44, 0.101564474, -0.8396362, -230938.28, -33615.527, 0.0, 9.999543, 9.999661 
2.884578e+3, 2.898549e+2, -313362.06, -309585.6, 109357.49, 0.12578939, -0.8729911, -202100.05, -102764.805, 0.0, 9.999237, 9.999244 
2.8845006e+3, 2.9985347e+2, -201009.03, -219634.02, 102696.95, 0.10481582, -0.90397924, -107203.21, -105853.87, 0.0, 9.999407, 9.99911 
2.8844237e+3, 3.0985212e+2, 8446.108, -113563.266, 71282.45, 0.21091238, -0.9158697, 41264.45, 41264.45, 0.0, 10.000602, 9.998936 
2.884345e+3, 3.1985065e+2, 19868.521, -38103.332, 27471.521, 0.10889821, -0.90701634, 30818.398, 30818.398, 0.0, 10.000347, 9.999586 
2.8958172e+3, 1.2994665e+2, -1474708.6, -1630357.3, 13681.155, -0.06685692, -0.87692446, -1473515.3, 192921.38, 0.0, 10.001799, 9.99971 
2.8957388e+3, 1.3994572e+2, -1408363.0, -1546595.1, 24111.545, 0.0039420975, -0.91019595, -1404278.0, 164166.58, 0.0, 10.00157, 9.999725 
2.8956604e+3, 1.4994529e+2, -1332705.9, -1459808.8, 69644.28, -0.008255266, -0.89340127, -1301975.3, 168473.38, 0.0, 10.001425, 9.999714 
2.8955826e+3, 1.5994483e+2, -1267916.3, -1402204.9, 75497.01, 0.009504814, -0.872584, -1234025.1, 138428.0, 0.0, 10.001304, 9.9994955 
2.8955048e+3, 1.6994378e+2, -1185855.5, -1333138.5, 92337.84, 0.007935943, -0.8808607, -1141389.6, 133074.67, 0.0, 10.001292, 9.999299 
2.8954273e+3, 1.7994271e+2, -1075833.5, -1203549.3, 78886.18, -0.008224377, -0.89090633, -1038198.25, 138277.17, 0.0, 10.001265, 9.999529 
2.89535e+3, 1.8994218e+2, -979679.94, -1072485.1, 89324.266, 0.005274828, -0.887323, -925424.56, 153055.14, 0.0, 10.001108, 9.999829 
2.8952727e+3, 1.9994171e+2, -917938.25, -1007996.56, 107920.3, 0.029431378, -0.88340145, -846029.75, 134453.7, 0.0, 10.000929, 9.999687 
2.8951958e+3, 2.0994082e+2, -839548.94, -929590.5, 130453.78, 0.044601202, -0.8989305, -746565.9, 135926.22, 0.0, 10.00084, 9.999595 
2.8951192e+3, 2.1993998e+2, -764361.06, -852125.94, 127097.53, 0.05187579, -0.90959793, -673783.6, 110717.27, 0.0, 10.000723, 9.99951 
2.895042e+3, 2.2993945e+2, -706182.25, -775745.25, 105271.65, 0.053653017, -0.8781719, -630095.0, 56412.145, 0.0, 10.00046, 9.999488 
2.8949645e+3, 2.3993897e+2, -631422.2, -660602.9, 106854.25, 0.059949875, -0.849631, -538166.75, 50346.027, 0.0, 10.000177, 9.9997425 
2.894888e+3, 2.4993831e+2, -539264.9, -537037.6, 123928.125, 0.0882358, -0.8780232, -414218.13, 76300.15, 0.0, 10.000016, 9.999995 
2.8948107e+3, 2.599376e+2, -475868.94, -484861.13, 144507.86, 0.10534846, -0.9054059, -335787.25, 56736.54, 0.0, 9.999906, 9.999731 
2.8947327e+3, 2.6993698e+2, -411530.63, -439879.72, 101713.73, 0.06560204, -0.88903296, -323008.53, -28478.232, 0.0, 9.999828, 9.999405 
2.8946543e+3, 2.7993625e+2, -343681.94, -344369.06, 80420.82, 0.05677332, -0.8757827, -263603.94, -67065.875, 0.0, 9.999565, 9.999518 
2.8945777e+3, 2.899354e+2, -327526.4, -330440.75, 106979.5, 0.17633186, -0.86135113, -221994.17, -123448.17, 0.0, 9.999209, 9.999106 
2.8945005e+3, 2.9993442e+2, -211517.5, -236756.2, 133052.2, 0.18907185, -0.8352701, -90487.555, -89932.42, 0.0, 9.999391, 9.998998 
2.8944215e+3, 3.099321e+2, -5958.879, -160177.48, 122826.336, -0.028649073, -0.9186736, 61956.484, 61956.484, 0.0, 10.00068, 9.998578 
2.8943467e+3, 3.1992936e+2, -96663.02, -274534.88, -110149.32, 0.3015955, -0.9564475, -44027.51, -44027.51, 0.0, 10.00033, 9.997971 
2.905818e+3, 1.3002577e+2, -1553445.9, -1656709.8, 10263.709, -0.0982538, -0.90390104, -1552435.6, 113224.21, 0.0, 10.0012, 9.999823 
2.9057398e+3, 1.4002511e+2, -1460170.8, -1563011.0, 21223.838, 0.022600759, -0.9179514, -1455962.9, 111701.92, 0.0, 10.001174, 9.9998045 
2.9056615e+3, 1.500247e+2, -1374003.5, -1476945.4, 54639.566, -0.0017284804, -0.90500253, -1350409.5, 119259.48, 0.0, 10.001128, 9.999739 
2.9055834e+3, 1.6002424e+2, -1295158.3, -1403030.5, 52987.535, -0.0013518794, -0.8908539, -1273484.9, 98189.01, 0.0, 10.001062, 9.999605 
2.905506e+3, 1.7002341e+2, -1211606.4, -1322252.3, 90435.53, 0.008617863, -0.894913, -1160914.1, 112768.63, 0.0, 10.001015, 9.999507 
2.905428e+3, 1.8002258e+2, -1109766.5, -1208592.1, 97194.51, 0.0071666124, -0.8992617, -1050145.4, 125546.03, 0.0, 10.00098, 9.999632 
2.9053506e+3, 1.9002208e+2, -993404.94, -1079954.9, 95144.39, 0.010460487, -0.89386547, -932156.3, 145539.2, 0.0, 10.001017, 9.999824 
2.905273e+3, 2.0002161e+2, -902488.6, -995718.94, 96140.15, 0.021724256, -0.8905389, -842258.56, 137440.83, 0.0, 10.001011, 9.999732 
2.9051962e+3, 2.1002075e+2, -851056.7, -922176.44, 108430.43, 0.03862662, -0.9138516, -772504.06, 109203.766, 0.0, 10.000704, 9.999711 
2.9051194e+3, 2.2001995e+2, -802906.5, -854623.25, 107008.61, 0.05063579, -0.9308257, -718676.25, 65039.71, 0.0, 10.000387, 9.999656 
2.905042e+3, 2.3001969e+2, -719423.5, -759892.4, 116799.47, 0.04733928, -0.89265496, -621118.75, 64601.3, 0.0, 10.000273, 9.999687 
2.9049647e+3, 2.400195e+2, -617191.7, -627652.2, 148357.02, 0.0545555, -0.85391587, -473972.75, 113750.195, 0.0, 10.000165, 9.999973 
2.9048878e+3, 2.5001916e+2, -517413.3, -488677.53, 141935.72, 0.09428475, -0.8767072, -360384.34, 129340.59, 0.0, 10.000005, 10.000332 
2.9048106e+3, 2.600188e+2, -480854.88, -467803.25, 143644.81, 0.11677418, -0.90317297, -330536.1, 61191.1, 0.0, 9.999788, 9.999905 
2.904732e+3, 2.70018e+2, -424050.47, -438632.72, 127062.695, 0.055993684, -0.9089763, -304069.88, -10334.617, 0.0, 9.999712, 9.999468 
2.9046535e+3, 2.8001717e+2, -312761.88, -300140.1, 134674.47, 0.04407546, -0.9140089, -171628.73, 24115.244, 0.0, 9.999664, 9.999768 
2.904576e+3, 2.9001707e+2, -427514.22, -289905.72, 161220.28, 0.18477419, -0.880612, -183421.63, -85677.24, 0.0, 9.998145, 9.999898 
2.9158187e+3, 1.301049e+2, -1554548.8, -1640205.9, 7463.165, -0.118860565, -0.93012446, -1553903.4, 110979.84, 0.0, 10.001125, 9.999969 
2.915741e+3, 1.4010485e+2, -1462552.6, -1563687.4, 21138.217, 0.0284983, -0.8957653, -1458312.3, 108570.39, 0.0, 10.001158, 9.999807 
2.9156622e+3, 1.5010405e+2, -1383032.5, -1497671.9, 52496.074, -0.01736927, -0.9099585, -1362625.9, 106264.914, 0.0, 10.001136, 9.999595 
2.9155838e+3, 1.6010323e+2, -1281235.9, -1376431.3, 51758.926, -0.038943347, -0.9258239, -1258516.1, 112383.19, 0.0, 10.001072, 9.9997835 
2.9155064e+3, 1.70103e+2, -1173613.3, -1245816.8, 88522.21, 0.0020231982, -0.913814, -1114114.1, 158787.0, 0.0, 10.001023, 10.000029 
2.9154292e+3, 1.8010277e+2, -1100103.8, -1187764.1, 95207.94, 0.032383576, -0.9011564, -1039121.5, 135781.38, 0.0, 10.0009775, 9.999777 
2.9153517e+3, 1.9010198e+2, -1009641.7, -1112836.8, 95720.29, 0.021902625, -0.9117027, -952497.9, 124412.78, 0.0, 10.001012, 9.9996 
2.915274e+3, 2.0010117e+2, -911763.8, -1011139.25, 89736.11, 0.014306201, -0.92125356, -858877.44, 120041.21, 0.0, 10.000995, 9.999635 
2.9151967e+3, 2.1010064e+2, -848338.75, -914716.7, 95032.64, 0.043727506, -0.91420746, -780866.4, 100058.35, 0.0, 10.000694, 9.999767 
2.9151195e+3, 2.2010022e+2, -779544.75, -802686.1, 98641.23, 0.06714121, -0.90660816, -691797.94, 91131.52, 0.0, 10.000373, 10.00002 
2.9150417e+3, 2.3010013e+2, -670513.6, -658429.44, 113583.164, 0.041328553, -0.910145, -550727.75, 134202.28, 0.0, 10.000273, 10.000385 
2.9149643e+3, 2.4010013e+2, -599307.56, -592456.9, 143545.69, 0.025437819, -0.91073847, -452295.66, 134634.08, 0.0, 10.000174, 10.000211 
2.914887e+3, 2.5010014e+2, -523451.5, -499605.13, 135196.17, 0.08625494, -0.89644486, -375807.4, 113122.12, 0.0, 9.999999, 10.0002575 
2.9148102e+3, 2.6010013e+2, -467353.47, -445922.7, 135517.7, 0.1240873, -0.88780624, -320697.4, 70232.44, 0.0, 9.999809, 10.000047 
2.9147315e+3, 2.7009946e+2, -379393.13, -351015.44, 124552.53, 0.06011969, -0.9251595, -239846.16, 53090.13, 0.0, 9.999727, 10.000067 
2.914653e+3, 2.8009894e+2, -271343.13, -212912.58, 126002.69, 0.04590789, -0.95562565, -112782.55, 82158.19, 0.0, 9.999669, 10.000365 
2.9145736e+3, 2.9009986e+2, -312601.56, -46932.22, 58327.844, 0.14388552, -0.93391764, -34690.402, 62239.797, 0.0, 9.998141, 10.001567 
2.9258192e+3, 1.3018423e+2, -1656772.8, -1662743.3, 11788.113, -0.11795305, -0.92228293, -1647597.8, 16507.3, 0.0, 10.000308, 10.000207 
2.9257414e+3, 1.4018403e+2, -1502638.4, -1570787.5, 25411.338, 0.013310669, -0.92199636, -1494206.3, 71899.03, 0.0, 10.000827, 9.999919 
2.9256627e+3, 1.5018335e+2, -1397738.6, -1501914.3, 59605.555, -0.024176547, -0.9304342, -1370668.6, 97443.68, 0.0, 10.001022, 9.99962 
2.9255846e+3, 1.6018263e+2, -1275689.5, -1375086.0, 61923.793, -0.03317104, -0.9365218, -1245987.0, 124132.68, 0.0, 10.001113, 9.999775 
2.925507e+3, 1.7018236e+2, -1175411.4, -1250200.4, 64423.074, -0.0026962536, -0.9258148, -1138316.4, 133805.69, 0.0, 10.001022, 10.0 
2.9254296e+3, 1.8018211e+2, -1109644.0, -1186523.1, 43526.957, 0.018224692, -0.91551006, -1090013.0, 84111.125, 0.0, 10.00088, 9.999834 
2.9253522e+3, 1.9018143e+2, -1036767.94, -1108592.8, 62870.145, 0.023015872, -0.92846537, -1000276.25, 75854.56, 0.0, 10.000749, 9.999757 
2.9252747e+3, 2.0018078e+2, -955202.75, -1013017.75, 77641.586, 0.02963524, -0.9385465, -901261.8, 76875.4, 0.0, 10.000612, 9.999807 
2.925197e+3, 2.1018055e+2, -880323.25, -909423.75, 88913.31, 0.04018701, -0.9188832, -804777.5, 75362.9, 0.0, 10.000383, 9.999954 
2.9251194e+3, 2.2018045e+2, -797021.5, -791525.5, 102275.12, 0.049664747, -0.9000169, -691961.5, 90180.88, 0.0, 10.000165, 10.000196 
2.9250416e+3, 2.3018035e+2, -683262.1, -640868.44, 88935.69, 0.045290988, -0.9212788, -570638.44, 113504.234, 0.0, 10.00008, 10.000599 
2.924964e+3, 2.401804e+2, -615777.56, -583856.0, 88129.17, 0.045247566, -0.93819344, -510253.94, 75887.875, 0.0, 9.999985, 10.000364 
2.9248866e+3, 2.5018075e+2, -549476.7, -491617.38, 89263.27, 0.07128161, -0.90738714, -426712.8, 61426.06, 0.0, 9.999726, 10.000447 
2.924809e+3, 2.6018116e+2, -501831.84, -425576.16, 113011.86, 0.08576767, -0.87995577, -344433.7, 45701.824, 0.0, 9.999405, 10.000386 
2.9247308e+3, 2.701809e+2, -399658.9, -286826.75, 113959.64, 0.07610921, -0.9265399, -216083.2, 76053.75, 0.0, 9.999263, 10.000733 
2.9246527e+3, 2.8018084e+2, -317102.75, -195003.38, 114203.94, 0.108924665, -0.9755837, -126555.56, 67581.13, 0.0, 9.999163, 10.000747 
2.9245716e+3, 2.9018182e+2, -79764.57, 77052.8, -67436.47, 0.10583715, -0.96563226, 102063.64, 198189.84, 0.0, 9.999669, 10.0017 
2.935819e+3, 1.3026367e+2, -1632556.8, -1617130.0, 32892.215, -0.10404909, -0.89366007, -1591058.9, 72267.516, 0.0, 10.000333, 10.0005045 
2.9357418e+3, 1.402628e+2, -1489262.9, -1542340.4, 37830.434, -0.020117644, -0.98593074, -1469590.8, 95741.016, 0.0, 10.000826, 10.000114 
2.9356635e+3, 1.5026261e+2, -1387360.0, -1480084.0, 62110.813, -0.024423182, -0.96285504, -1356215.9, 111117.52, 0.0, 10.0010195, 9.999772 
2.9355857e+3, 1.6026235e+2, -1290530.6, -1403257.0, 59914.547, 0.0047106445, -0.92864054, -1264634.6, 104701.56, 0.0, 10.0011015, 9.999588 
2.935508e+3, 1.7026147e+2, -1210802.1, -1322347.5, 59502.45, -0.009308237, -0.9355388, -1185020.3, 86325.33, 0.0, 10.001017, 9.999508 
2.9354298e+3, 1.802607e+2, -1109912.8, -1185597.6, 39220.156, -0.030502392, -0.94225216, -1093255.0, 80098.99, 0.0, 10.000874, 9.999845 
2.9353526e+3, 1.9026051e+2, -1002590.75, -1036829.94, 58578.05, 0.013852207, -0.94350153, -958681.94, 116673.22, 0.0, 10.000743, 10.000253 
2.935275e+3, 2.0026043e+2, -929175.75, -955119.3, 70095.29, 0.057839777, -0.944447, -870862.06, 106493.11, 0.0, 10.000595, 10.000213 
2.935197e+3, 2.102605e+2, -858719.75, -863428.9, 79122.98, 0.028080951, -0.92974627, -781916.3, 97438.836, 0.0, 10.000378, 10.000273 
2.9351187e+3, 2.2026059e+2, -798969.1, -793558.56, 96644.03, 0.00018584258, -0.9134764, -699581.94, 81773.016, 0.0, 10.000156, 10.000187 
2.9350415e+3, 2.302604e+2, -704549.7, -681593.75, 85888.945, 0.056382254, -0.92305726, -606419.2, 76938.516, 0.0, 10.000066, 10.000325 
2.9349643e+3, 2.4026035e+2, -609553.8, -572226.0, 81065.37, 0.10775922, -0.93291557, -507703.75, 77655.516, 0.0, 9.999988, 10.000444 
2.9348856e+3, 2.5026098e+2, -514918.25, -423644.22, 77747.02, 0.047542267, -0.90880054, -379129.5, 108223.74, 0.0, 9.999739, 10.000912 
2.9348072e+3, 2.602619e+2, -456599.63, -336404.1, 103767.07, -0.011047272, -0.878937, -276587.97, 112756.21, 0.0, 9.999427, 10.000987 
2.93473e+3, 2.7026254e+2, -347463.63, -178292.84, 109651.8, 0.10212229, -0.90903795, -124392.83, 166943.58, 0.0, 9.999266, 10.001473 
2.934653e+3, 2.802629e+2, -297891.56, -179391.78, 110771.47, 0.22501439, -0.96970963, -113019.74, 80312.266, 0.0, 9.999253, 10.000817 
2.9345703e+3, 2.9026347e+2, -146133.36, -79479.125, -31223.633, 0.044661783, -0.9239912, -67137.74, 28190.27, 0.0, 9.999743, 10.000591 
2.9458198e+3, 1.3034269e+2, -1618631.9, -1634678.5, 32471.242, -0.055133175, -0.889741, -1593207.4, 69343.29, 0.0, 10.000524, 10.000299 
2.945742e+3, 1.4034168e+2, -1506158.3, -1550338.8, 12223.59, -0.04442543, -0.98327154, -1503001.9, 61556.23, 0.0, 10.000709, 10.000116 
2.945664e+3, 1.503415e+2, -1411234.9, -1481780.4, 22366.309, -0.04992025, -0.9680179, -1404741.4, 61818.145, 0.0, 10.000812, 9.999862 
2.945586e+3, 1.6034122e+2, -1322105.0, -1408660.1, 18244.621, -0.014987803, -0.94320655, -1318416.5, 50145.652, 0.0, 10.000839, 9.999679 
2.9455084e+3, 1.7034051e+2, -1229711.3, -1312824.0, 51289.48, -0.017213404, -0.9488059, -1205255.9, 65313.69, 0.0, 10.000803, 9.999679 
2.9454303e+3, 1.8033986e+2, -1134304.6, -1187934.6, 62654.508, -0.031541202, -0.9572289, -1092968.1, 79608.49, 0.0, 10.000663, 9.999931 
2.9453525e+3, 1.9033965e+2, -1043422.56, -1056026.3, 57273.56, 0.0018663956, -0.9624483, -992105.2, 82473.15, 0.0, 10.000455, 10.000263 
2.945275e+3, 2.0033965e+2, -963667.75, -956118.06, 41522.805, 0.03968395, -0.9634739, -918198.9, 58379.234, 0.0, 10.000281, 10.000361 
2.9451966e+3, 2.1033992e+2, -867417.2, -842584.1, 40514.63, 0.02253357, -0.94794893, -812626.06, 65949.65, 0.0, 10.000203, 10.0005045 
2.9451185e+3, 2.2034025e+2, -790732.6, -776866.4, 56424.074, 0.0036434804, -0.9288431, -726951.06, 53622.008, 0.0, 10.00015, 10.00031 
2.9450414e+3, 2.3034027e+2, -730275.56, -687782.7, 63997.17, 0.047500417, -0.92759305, -641597.3, 40976.844, 0.0, 9.999853, 10.000389 
2.9449636e+3, 2.4034029e+2, -670603.06, -597613.2, 84386.336, 0.09272402, -0.9331657, -542168.3, 42406.793, 0.0, 9.999545, 10.000484 
2.9448852e+3, 2.5034085e+2, -498778.03, -410332.22, 61579.34, 0.043527227, -0.92309785, -378741.7, 107828.54, 0.0, 9.99982, 10.000966 
2.9448065e+3, 2.6034185e+2, -362942.3, -270303.3, 43039.99, -0.006182094, -0.89492786, -253393.56, 135167.0, 0.0, 9.999978, 10.001179 
2.944729e+3, 2.703431e+2, -351641.13, -160557.95, 3617.5212, 0.101561114, -0.88707036, -160489.5, 130058.016, 0.0, 9.999142, 10.001664 
2.9446512e+3, 2.8034356e+2, -391681.06, -224574.23, 7720.146, 0.2158493, -0.94598544, -224218.34, -31675.89, 0.0, 9.998609, 10.000811 
2.9445702e+3, 2.9034445e+2, -22380.44, -19805.637, -40008.9, 0.057027157, -0.8633261, 18936.568, 113472.12, 0.0, 10.000583, 10.000588 
2.9558206e+3, 1.3042141e+2, -1664199.1, -1713942.4, 34912.61, 0.010339148, -0.89702076, -1646204.9, 15572.265, 0.0, 10.000465, 9.999782 
2.9557422e+3, 1.4042072e+2, -1522294.5, -1574087.0, 21028.902, -0.063878894, -0.9229269, -1514831.6, 48952.29, 0.0, 10.000669, 9.999972 
2.9556638e+3, 1.5042011e+2, -1411838.9, -1479033.0, 25193.418, -0.096245736, -0.9462199, -1403442.3, 62346.9, 0.0, 10.000794, 9.999889 
2.9555863e+3, 1.6041946e+2, -1301094.0, -1361479.5, 19631.72, -0.08059411, -0.96857667, -1295272.8, 72522.266, 0.0, 10.000823, 10.0000105 
2.9555088e+3, 1.7041951e+2, -1180079.3, -1206765.8, 48384.08, -0.027530808, -0.96289665, -1143232.3, 126561.445, 0.0, 10.000789, 10.000415 
2.955431e+3, 1.8041949e+2, -1129405.6, -1173505.0, 51872.348, 0.0022365684, -0.96345186, -1095091.1, 76702.12, 0.0, 10.000645, 10.000039 
2.9553527e+3, 1.9041884e+2, -1074243.1, -1116752.0, 49575.96, -0.013769629, -0.9847058, -1041557.5, 32243.115, 0.0, 10.000442, 9.999852 
2.9552743e+3, 2.0041849e+2, -971309.3, -968252.6, 37563.676, -0.017582593, -0.98990947, -932186.2, 43618.977, 0.0, 10.000265, 10.000286 
2.9551968e+3, 2.1041891e+2, -858770.3, -823275.06, 37914.35, 0.021635797, -0.96771395, -799160.06, 78641.19, 0.0, 10.0001955, 10.000641 
2.955119e+3, 2.2041945e+2, -774662.8, -739569.06, 50608.66, 0.04731715, -0.9440546, -703551.7, 76244.664, 0.0, 10.000133, 10.000574 
2.9550406e+3, 2.3041992e+2, -702660.7, -628544.25, 49824.75, 0.016462656, -0.93512005, -603507.25, 78284.72, 0.0, 9.9998455, 10.0008 
2.954962e+3, 2.4042025e+2, -667582.2, -593830.9, 83119.336, -0.001833819, -0.9396769, -539774.5, 44014.62, 0.0, 9.999555, 10.000506 
2.954885e+3, 2.5042036e+2, -521510.94, -459094.4, 74937.27, 0.059389766, -0.95045495, -409126.63, 76663.08, 0.0, 9.999825, 10.00063 
2.9548073e+3, 2.60421e+2, -377566.34, -305607.16, 27977.098, 0.10208625, -0.9262372, -296009.9, 91774.91, 0.0, 9.999998, 10.000927 
2.9547274e+3, 2.7042258e+2, -375358.38, -211676.44, -28803.105, 0.062657565, -0.85821754, -206755.88, 83014.586, 0.0, 9.99915, 10.001308 
2.9546478e+3, 2.8042293e+2, -387750.56, -225347.28, 29083.014, 0.044542667, -0.8978596, -220296.23, -28528.73, 0.0, 9.998638, 10.000795 
2.9545712e+3, 2.9042354e+2, 64629.215, 138483.88, 59682.887, 0.121662386, -0.88789654, 171739.7, 265499.34, 0.0, 10.000674, 10.001634 
2.9658204e+3, 1.304991e+2, -1681741.5, -1685080.0, 369.60025, -0.022945136, -0.9539058, -1681701.0, -20686.244, 0.0, 10.000184, 10.0001135 
2.9657423e+3, 1.4049894e+2, -1574257.6, -1590507.6, 30066.512, -0.03630624, -0.946422, -1551237.6, 11778.741, 0.0, 10.00027, 10.000056 
2.9656646e+3, 1.5049838e+2, -1445617.1, -1481230.3, 35575.35, -0.04936014, -0.9756634, -1423640.8, 41380.42, 0.0, 10.000498, 10.000019 
2.965587e+3, 1.6049789e+2, -1325216.6, -1352348.3, 34192.71, -0.009538082, -0.9988315, -1301996.9, 65028.324, 0.0, 10.000565, 10.000201 
2.9655093e+3, 1.7049813e+2, -1227679.9, -1222935.0, 24389.664, 0.009946764, -0.9830182, -1200802.6, 68219.45, 0.0, 10.000426, 10.000482 
2.9654312e+3, 1.8049842e+2, -1174886.4, -1177198.6, -4559.325, 0.010332259, -0.9642104, -1171338.9, -320.07394, 0.0, 10.000246, 10.000211 
2.9653528e+3, 1.9049813e+2, -1091217.1, -1099624.1, 29255.947, -0.0035916334, -0.9737866, -1065864.3, 7158.379, 0.0, 10.00021, 10.000085 
2.9652745e+3, 2.0049782e+2, -982725.1, -974120.3, 47048.043, -0.009312688, -0.9856683, -931178.4, 43848.05, 0.0, 10.000186, 10.000285 
2.9651967e+3, 2.1049812e+2, -880212.9, -836736.75, 39295.684, 0.017305344, -0.9754596, -813567.2, 63456.914, 0.0, 10.00006, 10.000615 
2.9651186e+3, 2.2049858e+2, -792786.0, -752025.75, 43473.508, 0.038513687, -0.9561149, -724392.4, 54627.664, 0.0, 10.000021, 10.000545 
2.96504e+3, 2.3049906e+2, -668183.7, -622088.56, 5599.6133, -0.0003955898, -0.9407229, -621418.06, 59597.805, 0.0, 10.000116, 10.000719 
2.9649612e+3, 2.4049948e+2, -587943.44, -540729.3, 13945.999, -0.025322108, -0.9392894, -536917.7, 46094.668, 0.0, 10.000027, 10.000651 
2.9648843e+3, 2.504996e+2, -565135.6, -465290.97, 39682.496, 0.06213042, -0.96351224, -451440.75, 33571.176, 0.0, 9.999448, 10.000777 
2.964807e+3, 2.605002e+2, -509484.06, -384063.38, 26646.256, 0.12905404, -0.9534555, -378637.03, 8370.312, 0.0, 9.999147, 10.000804 
2.9647264e+3, 2.705016e+2, -257035.77, -203330.44, -27867.348, 0.029618442, -0.8659872, -191483.56, 97511.36, 0.0, 10.000174, 10.0008745 
2.9646465e+3, 2.8050178e+2, -78849.46, -105600.5, 26820.822, -0.03700924, -0.8875847, -62253.98, 128740.5, 0.0, 10.0008955, 10.000537 
2.9645717e+3, 2.9050177e+2, -109263.87, 49770.42, 15797.555, 0.16468509, -0.9163818, 51324.477, 144316.95, 0.0, 9.999535, 10.001575 
2.9758194e+3, 1.305759e+2, -1661014.4, -1580377.9, -9291.12, -0.1163231, -1.0581627, -1579321.1, 80940.86, 0.0, 9.999923, 10.000955 
2.975743e+3, 1.4057627e+2, -1546456.1, -1547650.4, 33468.89, 0.021174729, -1.0521456, -1513579.0, 48677.457, 0.0, 10.000337, 10.000317 
2.975666e+3, 1.5057611e+2, -1402568.1, -1432850.1, 33138.81, 0.06607667, -1.0650698, -1381275.3, 82982.25, 0.0, 10.000675, 10.000266 
2.975589e+3, 1.605763e+2, -1295045.4, -1329743.3, 24909.031, 0.16336247, -1.0512111, -1282039.0, 84216.414, 0.0, 10.000738, 10.000272 
2.9755104e+3, 1.705764e+2, -1248459.9, -1286157.4, 15369.711, 0.08258308, -1.0152272, -1242987.8, 25267.188, 0.0, 10.000514, 10.000005 
2.9754308e+3, 1.8057682e+2, -1153136.9, -1141329.4, -10010.615, -0.001728536, -0.9569252, -1135611.3, 34640.227, 0.0, 10.000285, 10.000438 
2.975353e+3, 1.9057743e+2, -1034506.7, -986308.7, 27509.525, 0.02494816, -0.9386529, -973835.3, 98409.32, 0.0, 10.000229, 10.000853 
2.975275e+3, 2.0057748e+2, -978670.8, -966633.9, 41037.8, 0.0453447, -0.96552753, -931175.56, 43068.285, 0.0, 10.00019, 10.000335 
2.975196e+3, 2.1057743e+2, -889417.1, -856626.9, 33110.668, 0.008411088, -0.9797662, -836074.5, 40170.688, 0.0, 10.000064, 10.000477 
2.9751176e+3, 2.2057764e+2, -816362.5, -798348.75, 46345.473, -0.015914043, -0.96808887, -760143.06, 18101.123, 0.0, 10.000009, 10.000233 
2.9750398e+3, 2.3057775e+2, -706731.06, -702453.4, 9037.74, -0.0024664812, -0.9395105, -695304.9, -15059.844, 0.0, 10.000115, 10.000169 
2.9749614e+3, 2.4057807e+2, -570733.56, -503332.3, -1328.9525, 0.014870424, -0.9220343, -503306.13, 78937.44, 0.0, 10.000019, 10.000912 
2.9748833e+3, 2.5057867e+2, -521997.8, -375379.75, 18186.17, 0.046309672, -0.95671505, -373157.66, 111078.445, 0.0, 9.999447, 10.001394 
2.974805e+3, 2.6057944e+2, -506828.06, -379943.8, 41460.36, 0.063542664, -0.9725442, -367597.66, 18629.746, 0.0, 9.999152, 10.000831 
2.974726e+3, 2.7058023e+2, -282882.63, -269224.72, 21930.26, 0.00040368974, -0.9167828, -253084.77, 35135.957, 0.0, 10.000223, 10.0004 
2.9746473e+3, 2.8058016e+2, -104140.16, -180330.06, 7385.526, -0.03148021, -0.9142217, -103430.836, 86791.63, 0.0, 10.001007, 9.999967 
2.9745713e+3, 2.9057926e+2, -224527.44, -174730.45, -43007.758, 0.20158778, -0.938006, -149933.84, -57701.367, 0.0, 9.999502, 10.000035 
2.98582e+3, 1.306555e+2, -1771296.6, -1647187.8, 68570.26, 0.031679645, -0.88220155, -1616761.8, 42719.14, 0.0, 9.999217, 10.00085 
2.9857427e+3, 1.4065564e+2, -1438946.6, -1467530.6, 46506.906, -0.0609699, -0.91113687, -1404585.3, 156892.7, 0.0, 10.000961, 10.000564 
2.9856646e+3, 1.506558e+2, -1353079.3, -1418610.0, 4606.947, -0.14925423, -0.8953834, -1352757.0, 110719.14, 0.0, 10.001066, 10.000171 
2.985586e+3, 1.6065554e+2, -1359547.1, -1369730.4, -62507.688, -0.20098773, -0.9095274, -1301924.0, 63554.73, 0.0, 10.000349, 10.000176 
2.985508e+3, 1.70655e+2, -1302004.9, -1277529.9, -30370.348, -0.13847148, -0.96006596, -1257024.3, 10459.928, 0.0, 10.000013, 10.000298 
2.98543e+3, 1.8065436e+2, -1176995.0, -1130992.0, -16739.475, -0.09737633, -1.0325298, -1125545.6, 43944.63, 0.0, 10.000042, 10.000619 
2.9853517e+3, 1.9065472e+2, -1075881.3, -995481.25, -16119.661, -0.064169236, -1.0509175, -992369.75, 79116.4, 0.0, 9.999906, 10.000944 
2.9852742e+3, 2.0065564e+2, -974721.94, -931286.44, -8654.248, -0.017250625, -1.012708, -929625.6, 43851.137, 0.0, 10.000074, 10.000636 
2.985196e+3, 2.1065603e+2, -852440.6, -831337.5, -9613.275, 0.004686229, -0.99581325, -827614.94, 47859.19, 0.0, 10.00028, 10.00055 
2.9851177e+3, 2.2065623e+2, -802362.2, -781161.8, 16420.172, 0.00908886, -0.99279004, -772217.56, 5256.203, 0.0, 10.000054, 10.000332 
2.9850397e+3, 2.306566e+2, -706358.0, -678674.9, 37595.426, 0.02461066, -0.95811754, -652453.94, 27017.928, 0.0, 10.000018, 10.00038 
2.9849616e+3, 2.4065706e+2, -548128.9, -506007.1, 45851.348, 0.03836769, -0.93134147, -476611.03, 104857.51, 0.0, 10.000235, 10.000789 
2.984883e+3, 2.5065753e+2, -430293.16, -363154.56, -6047.4595, 0.0378535, -0.9562128, -362614.2, 120848.16, 0.0, 10.000215, 10.001109 
2.9848042e+3, 2.60658e+2, -375739.1, -337439.88, -11648.766, 0.03869288, -0.9751879, -334175.2, 51281.02, 0.0, 10.000133, 10.000657 
2.984726e+3, 2.706582e+2, -308356.22, -299571.84, 1152.6547, 0.02866816, -0.96495193, -299423.1, -11968.61, 0.0, 10.000106, 10.000261 
2.984648e+3, 2.806582e+2, -223858.52, -227926.25, -17785.736, 0.021113902, -0.9580314, -207990.73, -18535.053, 0.0, 10.000134, 10.000087 
2.984571e+3, 2.9065722e+2, -153858.27, -207662.66, -12038.189, 0.1999235, -0.9776544, -151287.66, -59820.82, 0.0, 10.000205, 9.999557 
2.995817e+3, 1.3073133e+2, -1700642.0, -1659004.0, -64371.12, -0.14849731, -1.0655646, -1612169.0, 46567.453, 0.0, 9.999905, 10.000434 
2.995743e+3, 1.4073263e+2, -1639685.9, -1522002.3, -39921.074, -0.09764762, -0.98567957, -1509738.3, 50985.27, 0.0, 9.999391, 10.000952 
2.995668e+3, 1.5073279e+2, -1475203.5, -1519304.9, -4322.2456, 0.13349712, -0.96779764, -1474783.9, -12061.158, 0.0, 10.000371, 9.999832 
2.9955876e+3, 1.6073169e+2, -1341793.5, -1387820.6, 58779.137, -0.00551591, -1.0125246, -1301683.3, 63050.445, 0.0, 10.000549, 9.999974 
2.9955092e+3, 1.7073181e+2, -1176183.0, -1128650.0, 114066.125, 0.024945593, -1.0477806, -1035900.75, 230829.33, 0.0, 10.000461, 10.001121 
2.9954314e+3, 1.8073289e+2, -1140214.6, -1110558.9, 57372.57, 0.07876729, -1.0101955, -1066129.0, 102588.37, 0.0, 10.000243, 10.000682 
2.995352e+3, 1.9073275e+2, -1067944.5, -1046401.25, 42330.535, 0.0022470148, -1.0423242, -1013493.4, 57226.438, 0.0, 10.000161, 10.000487 
2.9952735e+3, 2.0073387e+2, -1046692.94, -922396.8, 33402.117, -0.064380795, -0.9872386, -913989.3, 58720.664, 0.0, 9.999363, 10.001053 
2.9951957e+3, 2.1073468e+2, -956472.0, -857488.1, 25353.465, -0.026258582, -0.9587608, -851372.06, 23331.86, 0.0, 9.999444, 10.000781 
2.9951173e+3, 2.2073498e+2, -786442.94, -722216.4, -8971.548, -0.011914892, -0.96799725, -720986.75, 55715.73, 0.0, 9.999938, 10.000793 
2.9950392e+3, 2.3073582e+2, -715394.0, -576389.0, -28204.912, 0.0048391907, -0.96976006, -570884.06, 107809.62, 0.0, 9.999497, 10.00133 
2.994961e+3, 2.407363e+2, -582669.4, -580530.4, 21367.146, 0.025170904, -0.98399246, -560205.94, 20482.654, 0.0, 10.000248, 10.000268 
2.9948825e+3, 2.5073618e+2, -502973.53, -528545.75, -12370.356, 0.0309079, -0.9659286, -497968.9, -15278.393, 0.0, 10.000279, 9.999936 
2.994804e+3, 2.6073596e+2, -396471.2, -393741.84, -13029.515, 0.05961521, -0.96079004, -382005.72, 2687.5955, 0.0, 10.000181, 10.000251 
2.994727e+3, 2.707356e+2, -292742.7, -278796.53, 4234.3354, 0.1122459, -1.0109291, -277611.6, 9085.124, 0.0, 10.00014, 10.000396 
2.9946488e+3, 2.807357e+2, -177473.13, -98552.914, -20067.115, 0.10217359, -1.0323472, -93743.516, 94951.875, 0.0, 10.000039, 10.0009985 
2.9945692e+3, 2.9073724e+2, -83140.23, -12710.035, 25861.895, 0.11134557, -0.9382457, -4233.706, 86445.836, 0.0, 10.000066, 10.000935 
